# step Hamiltonian StressXX CellTensor1 CellTensor2 CellTensor3 CellTensor4 
0 5.8251466255e+00 1.0292471784e-01 2.0436807272e+00 -3.5397588540e+00 2.0436807272e+00 3.5397588540e+00 
100 5.8291189128e+00 1.0516377582e-01 2.0436807272e+00 -3.5397588540e+00 2.0436807272e+00 3.5397588540e+00 
200 5.8317605817e+00 1.0629573876e-01 2.0411083665e+00 -3.5353033945e+00 2.0411083665e+00 3.5353033945e+00 
300 5.8334355359e+00 1.0676029756e-01 2.0385050478e+00 -3.5307943143e+00 2.0385050478e+00 3.5307943143e+00 
400 5.8342711836e+00 1.0665354898e-01 2.0358870162e+00 -3.5262597506e+00 2.0358870162e+00 3.5262597506e+00 
500 5.8344026555e+00 1.0608014784e-01 2.0332682400e+00 -3.5217238972e+00 2.0332682400e+00 3.5217238972e+00 
600 5.8339638496e+00 1.0514516328e-01 2.0306601868e+00 -3.5172066165e+00 2.0306601868e+00 3.5172066165e+00 
700 5.8330802124e+00 1.0394707136e-01 2.0280717972e+00 -3.5127233942e+00 2.0280717972e+00 3.5127233942e+00 
800 5.8318637644e+00 1.0257269022e-01 2.0255096307e+00 -3.5082855917e+00 2.0255096307e+00 3.5082855917e+00 
900 5.8304104152e+00 1.0109433311e-01 2.0229781372e+00 -3.5039009162e+00 2.0229781372e+00 3.5039009162e+00 
1000 5.8287992546e+00 9.9568997359e-02 2.0204800010e+00 -3.4995740174e+00 2.0204800010e+00 3.4995740174e+00 
1100 5.8270933172e+00 9.8039122737e-02 2.0180165088e+00 -3.4953071237e+00 2.0180165088e+00 3.4953071237e+00 
1200 5.8253412719e+00 9.6534354652e-02 2.0155879005e+00 -3.4911006509e+00 2.0155879005e+00 3.4911006509e+00 
1300 5.8235795626e+00 9.5073790876e-02 2.0131936806e+00 -3.4869537402e+00 2.0131936806e+00 3.4869537402e+00 
1400 5.8218346400e+00 9.3668310176e-02 2.0108328748e+00 -3.4828647047e+00 2.0108328748e+00 3.4828647047e+00 
1500 5.8201250527e+00 9.2322721072e-02 2.0085042326e+00 -3.4788313781e+00 2.0085042326e+00 3.4788313781e+00 
1600 5.8184632748e+00 9.1037592638e-02 2.0062063760e+00 -3.4748513737e+00 2.0062063760e+00 3.4748513737e+00 
1700 5.8168572235e+00 8.9810721432e-02 2.0039379052e+00 -3.4709222669e+00 2.0039379052e+00 3.4709222669e+00 
1800 5.8153114719e+00 8.8638247518e-02 2.0016974674e+00 -3.4670417148e+00 2.0016974674e+00 3.4670417148e+00 
1900 5.8138281907e+00 8.7515464003e-02 1.9994837989e+00 -3.4632075287e+00 1.9994837989e+00 3.4632075287e+00 
2000 5.8124078597e+00 8.6437376539e-02 1.9972957472e+00 -3.4594177118e+00 1.9972957472e+00 3.4594177118e+00 
2100 5.8110497973e+00 8.5399069253e-02 1.9951322781e+00 -3.4556704734e+00 1.9951322781e+00 3.4556704734e+00 
2200 5.8097525456e+00 8.4395927303e-02 1.9929924755e+00 -3.4519642266e+00 1.9929924755e+00 3.4519642266e+00 
2300 5.8085141482e+00 8.3423757430e-02 1.9908755340e+00 -3.4482975764e+00 1.9908755340e+00 3.4482975764e+00 
2400 5.8073323468e+00 8.2478838882e-02 1.9887807494e+00 -3.4446693030e+00 1.9887807494e+00 3.4446693030e+00 
2500 5.8062047192e+00 8.1557928980e-02 1.9867075070e+00 -3.4410783419e+00 1.9867075070e+00 3.4410783419e+00 
2600 5.8051287744e+00 8.0658240863e-02 1.9846552705e+00 -3.4375237641e+00 1.9846552705e+00 3.4375237641e+00 
2700 5.8041020176e+00 7.9777405686e-02 1.9826235710e+00 -3.4340047573e+00 1.9826235710e+00 3.4340047573e+00 
2800 5.8031219933e+00 7.8913427553e-02 1.9806119966e+00 -3.4305206081e+00 1.9806119966e+00 3.4305206081e+00 
2900 5.8021863134e+00 7.8064636558e-02 1.9786201833e+00 -3.4270706863e+00 1.9786201833e+00 3.4270706863e+00 
3000 5.8012926752e+00 7.7229643248e-02 1.9766478075e+00 -3.4236544312e+00 1.9766478075e+00 3.4236544312e+00 
3100 5.8004388709e+00 7.6407296388e-02 1.9746945786e+00 -3.4202713396e+00 1.9746945786e+00 3.4202713396e+00 
3200 5.7996227934e+00 7.5596644977e-02 1.9727602337e+00 -3.4169209560e+00 1.9727602337e+00 3.4169209560e+00 
3300 5.7988424379e+00 7.4796904830e-02 1.9708445322e+00 -3.4136028636e+00 1.9708445322e+00 3.4136028636e+00 
3400 5.7980959014e+00 7.4007429665e-02 1.9689472519e+00 -3.4103166777e+00 1.9689472519e+00 3.4103166777e+00 
3500 5.7973813805e+00 7.3227686418e-02 1.9670681857e+00 -3.4070620396e+00 1.9670681857e+00 3.4070620396e+00 
3600 5.7966971687e+00 7.2457234390e-02 1.9652071387e+00 -3.4038386116e+00 1.9652071387e+00 3.4038386116e+00 
3700 5.7960416526e+00 7.1695707789e-02 1.9633639260e+00 -3.4006460736e+00 1.9633639260e+00 3.4006460736e+00 
3800 5.7954133080e+00 7.0942801227e-02 1.9615383708e+00 -3.3974841192e+00 1.9615383708e+00 3.3974841192e+00 
3900 5.7948106957e+00 7.0198257747e-02 1.9597303029e+00 -3.3943524537e+00 1.9597303029e+00 3.3943524537e+00 
4000 5.7942324573e+00 6.9461859005e-02 1.9579395576e+00 -3.3912507919e+00 1.9579395576e+00 3.3912507919e+00 
4100 5.7936773113e+00 6.8733417260e-02 1.9561659747e+00 -3.3881788563e+00 1.9561659747e+00 3.3881788563e+00 
4200 5.7931440486e+00 6.8012768879e-02 1.9544093978e+00 -3.3851363758e+00 1.9544093978e+00 3.3851363758e+00 
4300 5.7926315291e+00 6.7299769096e-02 1.9526696736e+00 -3.3821230851e+00 1.9526696736e+00 3.3821230851e+00 
4400 5.7921386775e+00 6.6594287802e-02 1.9509466515e+00 -3.3791387232e+00 1.9509466515e+00 3.3791387232e+00 
4500 5.7916644799e+00 6.5896206198e-02 1.9492401832e+00 -3.3761830335e+00 1.9492401832e+00 3.3761830335e+00 
4600 5.7912079801e+00 6.5205414129e-02 1.9475501228e+00 -3.3732557630e+00 1.9475501228e+00 3.3732557630e+00 
4700 5.7907682766e+00 6.4521807999e-02 1.9458763260e+00 -3.3703566618e+00 1.9458763260e+00 3.3703566618e+00 
4800 5.7903445193e+00 6.3845289126e-02 1.9442186503e+00 -3.3674854833e+00 1.9442186503e+00 3.3674854833e+00 
4900 5.7899359065e+00 6.3175762488e-02 1.9425769549e+00 -3.3646419835e+00 1.9425769549e+00 3.3646419835e+00 
5000 5.7895416821e+00 6.2513135748e-02 1.9409511006e+00 -3.3618259212e+00 1.9409511006e+00 3.3618259212e+00 
5100 5.7891611333e+00 6.1857318527e-02 1.9393409497e+00 -3.3590370580e+00 1.9393409497e+00 3.3590370580e+00 
5200 5.7887935873e+00 6.1208221859e-02 1.9377463659e+00 -3.3562751579e+00 1.9377463659e+00 3.3562751579e+00 
5300 5.7884384099e+00 6.0565757801e-02 1.9361672144e+00 -3.3535399873e+00 1.9361672144e+00 3.3535399873e+00 
5400 5.7880950023e+00 5.9929839153e-02 1.9346033619e+00 -3.3508313154e+00 1.9346033619e+00 3.3508313154e+00 
5500 5.7877627999e+00 5.9300379275e-02 1.9330546766e+00 -3.3481489138e+00 1.9330546766e+00 3.3481489138e+00 
5600 5.7874412696e+00 5.8677291969e-02 1.9315210281e+00 -3.3454925565e+00 1.9315210281e+00 3.3454925565e+00 
5700 5.7871299084e+00 5.8060491417e-02 1.9300022873e+00 -3.3428620203e+00 1.9300022873e+00 3.3428620203e+00 
5800 5.7868282413e+00 5.7449892160e-02 1.9284983268e+00 -3.3402570843e+00 1.9284983268e+00 3.3402570843e+00 
5900 5.7865358200e+00 5.6845409104e-02 1.9270090206e+00 -3.3376775303e+00 1.9270090206e+00 3.3376775303e+00 
6000 5.7862522208e+00 5.6246957548e-02 1.9255342441e+00 -3.3351231425e+00 1.9255342441e+00 3.3351231425e+00 
6100 5.7859770440e+00 5.5654453224e-02 1.9240738743e+00 -3.3325937078e+00 1.9240738743e+00 3.3325937078e+00 
6200 5.7857099114e+00 5.5067812354e-02 1.9226277896e+00 -3.3300890156e+00 1.9226277896e+00 3.3300890156e+00 
6300 5.7854504660e+00 5.4486951703e-02 1.9211958699e+00 -3.3276088580e+00 1.9211958699e+00 3.3276088580e+00 
6400 5.7851983703e+00 5.3911788643e-02 1.9197779967e+00 -3.3251530295e+00 1.9197779967e+00 3.3251530295e+00 
6500 5.7849533052e+00 5.3342241208e-02 1.9183740528e+00 -3.3227213274e+00 1.9183740528e+00 3.3227213274e+00 
6600 5.7847149687e+00 5.2778228159e-02 1.9169839226e+00 -3.3203135512e+00 1.9169839226e+00 3.3203135512e+00 
6700 5.7844830755e+00 5.2219669035e-02 1.9156074920e+00 -3.3179295035e+00 1.9156074920e+00 3.3179295035e+00 
6800 5.7842573555e+00 5.1666484210e-02 1.9142446483e+00 -3.3155689890e+00 1.9142446483e+00 3.3155689890e+00 
6900 5.7840375530e+00 5.1118594940e-02 1.9128952803e+00 -3.3132318151e+00 1.9128952803e+00 3.3132318151e+00 
7000 5.7838234260e+00 5.0575923405e-02 1.9115592783e+00 -3.3109177916e+00 1.9115592783e+00 3.3109177916e+00 
7100 5.7836147453e+00 5.0038392756e-02 1.9102365339e+00 -3.3086267312e+00 1.9102365339e+00 3.3086267312e+00 
7200 5.7834112939e+00 4.9505927143e-02 1.9089269403e+00 -3.3063584485e+00 1.9089269403e+00 3.3063584485e+00 
7300 5.7832128660e+00 4.8978451751e-02 1.9076303920e+00 -3.3041127610e+00 1.9076303920e+00 3.3041127610e+00 
7400 5.7830192666e+00 4.8455892826e-02 1.9063467850e+00 -3.3018894885e+00 1.9063467850e+00 3.3018894885e+00 
7500 5.7828303108e+00 4.7938177695e-02 1.9050760166e+00 -3.2996884531e+00 1.9050760166e+00 3.2996884531e+00 
7600 5.7826458232e+00 4.7425234790e-02 1.9038179855e+00 -3.2975094793e+00 1.9038179855e+00 3.2975094793e+00 
7700 5.7824656374e+00 4.6916993658e-02 1.9025725918e+00 -3.2953523940e+00 1.9025725918e+00 3.2953523940e+00 
7800 5.7822895954e+00 4.6413384974e-02 1.9013397368e+00 -3.2932170265e+00 1.9013397368e+00 3.2932170265e+00 
7900 5.7821175472e+00 4.5914340554e-02 1.9001193232e+00 -3.2911032082e+00 1.9001193232e+00 3.2911032082e+00 
8000 5.7819493503e+00 4.5419793354e-02 1.8989112551e+00 -3.2890107729e+00 1.8989112551e+00 3.2890107729e+00 
8100 5.7817848693e+00 4.4929677475e-02 1.8977154377e+00 -3.2869395563e+00 1.8977154377e+00 3.2869395563e+00 
8200 5.7816239753e+00 4.4443928166e-02 1.8965317775e+00 -3.2848893968e+00 1.8965317775e+00 3.2848893968e+00 
8300 5.7814665459e+00 4.3962481818e-02 1.8953601823e+00 -3.2828601345e+00 1.8953601823e+00 3.2828601345e+00 
8400 5.7813124646e+00 4.3485275964e-02 1.8942005612e+00 -3.2808516117e+00 1.8942005612e+00 3.2808516117e+00 
8500 5.7811616205e+00 4.3012249271e-02 1.8930528242e+00 -3.2788636729e+00 1.8930528242e+00 3.2788636729e+00 
8600 5.7810139079e+00 4.2543341531e-02 1.8919168827e+00 -3.2768961645e+00 1.8919168827e+00 3.2768961645e+00 
8700 5.7808692262e+00 4.2078493654e-02 1.8907926492e+00 -3.2749489351e+00 1.8907926492e+00 3.2749489351e+00 
8800 5.7807274793e+00 4.1617647660e-02 1.8896800374e+00 -3.2730218349e+00 1.8896800374e+00 3.2730218349e+00 
8900 5.7805885758e+00 4.1160746662e-02 1.8885789621e+00 -3.2711147164e+00 1.8885789621e+00 3.2711147164e+00 
9000 5.7804524285e+00 4.0707734856e-02 1.8874893389e+00 -3.2692274338e+00 1.8874893389e+00 3.2692274338e+00 
9100 5.7803189538e+00 4.0258557512e-02 1.8864110850e+00 -3.2673598432e+00 1.8864110850e+00 3.2673598432e+00 
9200 5.7801880723e+00 3.9813160951e-02 1.8853441182e+00 -3.2655118025e+00 1.8853441182e+00 3.2655118025e+00 
9300 5.7800597079e+00 3.9371492537e-02 1.8842883575e+00 -3.2636831714e+00 1.8842883575e+00 3.2636831714e+00 
9400 5.7799337878e+00 3.8933500658e-02 1.8832437231e+00 -3.2618738114e+00 1.8832437231e+00 3.2618738114e+00 
9500 5.7798102425e+00 3.8499134712e-02 1.8822101357e+00 -3.2600835856e+00 1.8822101357e+00 3.2600835856e+00 
9600 5.7796890054e+00 3.8068345088e-02 1.8811875175e+00 -3.2583123589e+00 1.8811875175e+00 3.2583123589e+00 
9700 5.7795700128e+00 3.7641083154e-02 1.8801757914e+00 -3.2565599979e+00 1.8801757914e+00 3.2565599979e+00 
9800 5.7794532036e+00 3.7217301233e-02 1.8791748813e+00 -3.2548263706e+00 1.8791748813e+00 3.2548263706e+00 
9900 5.7793385193e+00 3.6796952590e-02 1.8781847118e+00 -3.2531113469e+00 1.8781847118e+00 3.2531113469e+00 
10000 5.7792259038e+00 3.6379991415e-02 1.8772052088e+00 -3.2514147978e+00 1.8772052088e+00 3.2514147978e+00 
10100 5.7791153031e+00 3.5966372804e-02 1.8762362987e+00 -3.2497365964e+00 1.8762362987e+00 3.2497365964e+00 
10200 5.7790066655e+00 3.5556052739e-02 1.8752779091e+00 -3.2480766168e+00 1.8752779091e+00 3.2480766168e+00 
10300 5.7788999414e+00 3.5148988076e-02 1.8743299681e+00 -3.2464347349e+00 1.8743299681e+00 3.2464347349e+00 
10400 5.7787950829e+00 3.4745136522e-02 1.8733924049e+00 -3.2448108278e+00 1.8733924049e+00 3.2448108278e+00 
10500 5.7786920442e+00 3.4344456619e-02 1.8724651494e+00 -3.2432047742e+00 1.8724651494e+00 3.2432047742e+00 
10600 5.7785907811e+00 3.3946907727e-02 1.8715481323e+00 -3.2416164539e+00 1.8715481323e+00 3.2416164539e+00 
10700 5.7784912509e+00 3.3552450007e-02 1.8706412851e+00 -3.2400457484e+00 1.8706412851e+00 3.2400457484e+00 
10800 5.7783934128e+00 3.3161044402e-02 1.8697445400e+00 -3.2384925404e+00 1.8697445400e+00 3.2384925404e+00 
10900 5.7782972271e+00 3.2772652620e-02 1.8688578300e+00 -3.2369567137e+00 1.8688578300e+00 3.2369567137e+00 
11000 5.7782026557e+00 3.2387237117e-02 1.8679810889e+00 -3.2354381536e+00 1.8679810889e+00 3.2354381536e+00 
11100 5.7781096620e+00 3.2004761083e-02 1.8671142512e+00 -3.2339367466e+00 1.8671142512e+00 3.2339367466e+00 
11200 5.7780182103e+00 3.1625188420e-02 1.8662572519e+00 -3.2324523803e+00 1.8662572519e+00 3.2324523803e+00 
11300 5.7779282663e+00 3.1248483729e-02 1.8654100269e+00 -3.2309849436e+00 1.8654100269e+00 3.2309849436e+00 
11400 5.7778397970e+00 3.0874612292e-02 1.8645725128e+00 -3.2295343266e+00 1.8645725128e+00 3.2295343266e+00 
11500 5.7777527702e+00 3.0503540059e-02 1.8637446467e+00 -3.2281004205e+00 1.8637446467e+00 3.2281004205e+00 
11600 5.7776671549e+00 3.0135233628e-02 1.8629263666e+00 -3.2266831176e+00 1.8629263666e+00 3.2266831176e+00 
11700 5.7775829211e+00 2.9769660231e-02 1.8621176107e+00 -3.2252823114e+00 1.8621176107e+00 3.2252823114e+00 
11800 5.7775000397e+00 2.9406787720e-02 1.8613183183e+00 -3.2238978963e+00 1.8613183183e+00 3.2238978963e+00 
11900 5.7774184824e+00 2.9046584551e-02 1.8605284290e+00 -3.2225297680e+00 1.8605284290e+00 3.2225297680e+00 
12000 5.7773382218e+00 2.8689019767e-02 1.8597478832e+00 -3.2211778230e+00 1.8597478832e+00 3.2211778230e+00 
12100 5.7772592316e+00 2.8334062988e-02 1.8589766218e+00 -3.2198419591e+00 1.8589766218e+00 3.2198419591e+00 
12200 5.7771814858e+00 2.7981684391e-02 1.8582145863e+00 -3.2185220748e+00 1.8582145863e+00 3.2185220748e+00 
12300 5.7771049595e+00 2.7631854701e-02 1.8574617186e+00 -3.2172180697e+00 1.8574617186e+00 3.2172180697e+00 
12400 5.7770296283e+00 2.7284545175e-02 1.8567179614e+00 -3.2159298445e+00 1.8567179614e+00 3.2159298445e+00 
12500 5.7769554687e+00 2.6939727586e-02 1.8559832579e+00 -3.2146573006e+00 1.8559832579e+00 3.2146573006e+00 
12600 5.7768824575e+00 2.6597374214e-02 1.8552575517e+00 -3.2134003406e+00 1.8552575517e+00 3.2134003406e+00 
12700 5.7768105725e+00 2.6257457832e-02 1.8545407870e+00 -3.2121588678e+00 1.8545407870e+00 3.2121588678e+00 
12800 5.7767397919e+00 2.5919951690e-02 1.8538329086e+00 -3.2109327865e+00 1.8538329086e+00 3.2109327865e+00 
12900 5.7766700944e+00 2.5584829507e-02 1.8531338617e+00 -3.2097220018e+00 1.8531338617e+00 3.2097220018e+00 
13000 5.7766014593e+00 2.5252065456e-02 1.8524435921e+00 -3.2085264197e+00 1.8524435921e+00 3.2085264197e+00 
13100 5.7765338665e+00 2.4921634150e-02 1.8517620460e+00 -3.2073459471e+00 1.8517620460e+00 3.2073459471e+00 
13200 5.7764672963e+00 2.4593510637e-02 1.8510891700e+00 -3.2061804917e+00 1.8510891700e+00 3.2061804917e+00 
13300 5.7764017295e+00 2.4267670381e-02 1.8504249113e+00 -3.2050299620e+00 1.8504249113e+00 3.2050299620e+00 
13400 5.7763371474e+00 2.3944089256e-02 1.8497692177e+00 -3.2038942674e+00 1.8497692177e+00 3.2038942674e+00 
13500 5.7762735317e+00 2.3622743533e-02 1.8491220372e+00 -3.2027733178e+00 1.8491220372e+00 3.2027733178e+00 
13600 5.7762108645e+00 2.3303609867e-02 1.8484833183e+00 -3.2016670242e+00 1.8484833183e+00 3.2016670242e+00 
13700 5.7761491284e+00 2.2986665293e-02 1.8478530101e+00 -3.2005752984e+00 1.8478530101e+00 3.2005752984e+00 
13800 5.7760883062e+00 2.2671887208e-02 1.8472310619e+00 -3.1994980526e+00 1.8472310619e+00 3.1994980526e+00 
13900 5.7760283812e+00 2.2359253366e-02 1.8466174237e+00 -3.1984352000e+00 1.8466174237e+00 3.1984352000e+00 
14000 5.7759693372e+00 2.2048741868e-02 1.8460120457e+00 -3.1973866545e+00 1.8460120457e+00 3.1973866545e+00 
14100 5.7759111580e+00 2.1740331149e-02 1.8454148786e+00 -3.1963523308e+00 1.8454148786e+00 3.1963523308e+00 
14200 5.7758538280e+00 2.1433999973e-02 1.8448258736e+00 -3.1953321441e+00 1.8448258736e+00 3.1953321441e+00 
14300 5.7757973319e+00 2.1129727421e-02 1.8442449820e+00 -3.1943260105e+00 1.8442449820e+00 3.1943260105e+00 
14400 5.7757416546e+00 2.0827492883e-02 1.8436721559e+00 -3.1933338466e+00 1.8436721559e+00 3.1933338466e+00 
14500 5.7756867813e+00 2.0527276049e-02 1.8431073476e+00 -3.1923555698e+00 1.8431073476e+00 3.1923555698e+00 
14600 5.7756326977e+00 2.0229056902e-02 1.8425505096e+00 -3.1913910982e+00 1.8425505096e+00 3.1913910982e+00 
14700 5.7755793895e+00 1.9932815707e-02 1.8420015952e+00 -3.1904403504e+00 1.8420015952e+00 3.1904403504e+00 
14800 5.7755268429e+00 1.9638533007e-02 1.8414605576e+00 -3.1895032460e+00 1.8414605576e+00 3.1895032460e+00 
14900 5.7754750441e+00 1.9346189610e-02 1.8409273509e+00 -3.1885797047e+00 1.8409273509e+00 3.1885797047e+00 
15000 5.7754239797e+00 1.9055766587e-02 1.8404019290e+00 -3.1876696474e+00 1.8404019290e+00 3.1876696474e+00 
15100 5.7753736367e+00 1.8767245259e-02 1.8398842466e+00 -3.1867729952e+00 1.8398842466e+00 3.1867729952e+00 
15200 5.7753240021e+00 1.8480607196e-02 1.8393742586e+00 -3.1858896701e+00 1.8393742586e+00 3.1858896701e+00 
15300 5.7752750632e+00 1.8195834203e-02 1.8388719202e+00 -3.1850195945e+00 1.8388719202e+00 3.1850195945e+00 
15400 5.7752268075e+00 1.7912908318e-02 1.8383771871e+00 -3.1841626915e+00 1.8383771871e+00 3.1841626915e+00 
15500 5.7751792228e+00 1.7631811805e-02 1.8378900151e+00 -3.1833188849e+00 1.8378900151e+00 3.1833188849e+00 
15600 5.7751322970e+00 1.7352527144e-02 1.8374103606e+00 -3.1824880989e+00 1.8374103606e+00 3.1824880989e+00 
15700 5.7750860182e+00 1.7075037031e-02 1.8369381802e+00 -3.1816702585e+00 1.8369381802e+00 3.1816702585e+00 
15800 5.7750403749e+00 1.6799324363e-02 1.8364734308e+00 -3.1808652890e+00 1.8364734308e+00 3.1808652890e+00 
15900 5.7749953554e+00 1.6525372241e-02 1.8360160698e+00 -3.1800731165e+00 1.8360160698e+00 3.1800731165e+00 
16000 5.7749509487e+00 1.6253163959e-02 1.8355660548e+00 -3.1792936675e+00 1.8355660548e+00 3.1792936675e+00 
16100 5.7749071434e+00 1.5982682999e-02 1.8351233437e+00 -3.1785268694e+00 1.8351233437e+00 3.1785268694e+00 
16200 5.7748639288e+00 1.5713913025e-02 1.8346878947e+00 -3.1777726497e+00 1.8346878947e+00 3.1777726497e+00 
16300 5.7748212941e+00 1.5446837882e-02 1.8342596665e+00 -3.1770309367e+00 1.8342596665e+00 3.1770309367e+00 
16400 5.7747792286e+00 1.5181441585e-02 1.8338386180e+00 -3.1763016592e+00 1.8338386180e+00 3.1763016592e+00 
16500 5.7747377219e+00 1.4917708316e-02 1.8334247083e+00 -3.1755847467e+00 1.8334247083e+00 3.1755847467e+00 
16600 5.7746967638e+00 1.4655622421e-02 1.8330178971e+00 -3.1748801289e+00 1.8330178971e+00 3.1748801289e+00 
16700 5.7746563441e+00 1.4395168404e-02 1.8326181440e+00 -3.1741877363e+00 1.8326181440e+00 3.1741877363e+00 
16800 5.7746164528e+00 1.4136330921e-02 1.8322254093e+00 -3.1735074999e+00 1.8322254093e+00 3.1735074999e+00 
16900 5.7745770801e+00 1.3879094777e-02 1.8318396534e+00 -3.1728393511e+00 1.8318396534e+00 3.1728393511e+00 
17000 5.7745382163e+00 1.3623444922e-02 1.8314608371e+00 -3.1721832219e+00 1.8314608371e+00 3.1721832219e+00 
17100 5.7744998519e+00 1.3369366446e-02 1.8310889213e+00 -3.1715390449e+00 1.8310889213e+00 3.1715390449e+00 
17200 5.7744619774e+00 1.3116844574e-02 1.8307238674e+00 -3.1709067530e+00 1.8307238674e+00 3.1709067530e+00 
17300 5.7744245835e+00 1.2865864665e-02 1.8303656371e+00 -3.1702862799e+00 1.8303656371e+00 3.1702862799e+00 
17400 5.7743876611e+00 1.2616412206e-02 1.8300141922e+00 -3.1696775595e+00 1.8300141922e+00 3.1696775595e+00 
17500 5.7743512012e+00 1.2368472807e-02 1.8296694950e+00 -3.1690805264e+00 1.8296694950e+00 3.1690805264e+00 
17600 5.7743151947e+00 1.2122032200e-02 1.8293315079e+00 -3.1684951156e+00 1.8293315079e+00 3.1684951156e+00 
17700 5.7742796330e+00 1.1877076236e-02 1.8290001938e+00 -3.1679212628e+00 1.8290001938e+00 3.1679212628e+00 
17800 5.7742445073e+00 1.1633590877e-02 1.8286755158e+00 -3.1673589039e+00 1.8286755158e+00 3.1673589039e+00 
17900 5.7742098092e+00 1.1391562199e-02 1.8283574371e+00 -3.1668079755e+00 1.8283574371e+00 3.1668079755e+00 
18000 5.7741755300e+00 1.1150976385e-02 1.8280459215e+00 -3.1662684146e+00 1.8280459215e+00 3.1662684146e+00 
18100 5.7741416615e+00 1.0911819721e-02 1.8277409328e+00 -3.1657401587e+00 1.8277409328e+00 3.1657401587e+00 
18200 5.7741081955e+00 1.0674078598e-02 1.8274424353e+00 -3.1652231458e+00 1.8274424353e+00 3.1652231458e+00 
18300 5.7740751238e+00 1.0437739502e-02 1.8271503934e+00 -3.1647173144e+00 1.8271503934e+00 3.1647173144e+00 
18400 5.7740424384e+00 1.0202789019e-02 1.8268647719e+00 -3.1642226036e+00 1.8268647719e+00 3.1642226036e+00 
18500 5.7740101314e+00 9.9692138259e-03 1.8265855359e+00 -3.1637389526e+00 1.8265855359e+00 3.1637389526e+00 
18600 5.7739781949e+00 9.7370006925e-03 1.8263126506e+00 -3.1632663014e+00 1.8263126506e+00 3.1632663014e+00 
18700 5.7739466213e+00 9.5061364762e-03 1.8260460817e+00 -3.1628045905e+00 1.8260460817e+00 3.1628045905e+00 
18800 5.7739154027e+00 9.2766081208e-03 1.8257857950e+00 -3.1623537607e+00 1.8257857950e+00 3.1623537607e+00 
18900 5.7738845319e+00 9.0484026541e-03 1.8255317566e+00 -3.1619137533e+00 1.8255317566e+00 3.1619137533e+00 
19000 5.7738540012e+00 8.8215071856e-03 1.8252839330e+00 -3.1614845102e+00 1.8252839330e+00 3.1614845102e+00 
19100 5.7738238033e+00 8.5959089045e-03 1.8250422908e+00 -3.1610659737e+00 1.8250422908e+00 3.1610659737e+00 
19200 5.7737939309e+00 8.3715950776e-03 1.8248067970e+00 -3.1606580864e+00 1.8248067970e+00 3.1606580864e+00 
19300 5.7737643769e+00 8.1485530471e-03 1.8245774187e+00 -3.1602607916e+00 1.8245774187e+00 3.1602607916e+00 
19400 5.7737351341e+00 7.9267702293e-03 1.8243541236e+00 -3.1598740330e+00 1.8243541236e+00 3.1598740330e+00 
19500 5.7737061956e+00 7.7062341122e-03 1.8241368792e+00 -3.1594977547e+00 1.8241368792e+00 3.1594977547e+00 
19600 5.7736775543e+00 7.4869322541e-03 1.8239256537e+00 -3.1591319014e+00 1.8239256537e+00 3.1591319014e+00 
19700 5.7736492034e+00 7.2688522819e-03 1.8237204153e+00 -3.1587764181e+00 1.8237204153e+00 3.1587764181e+00 
19800 5.7736211362e+00 7.0519818895e-03 1.8235211325e+00 -3.1584312502e+00 1.8235211325e+00 3.1584312502e+00 
19900 5.7735933459e+00 6.8363088363e-03 1.8233277743e+00 -3.1580963439e+00 1.8233277743e+00 3.1580963439e+00 
20000 5.7735658258e+00 6.6218209454e-03 1.8231403096e+00 -3.1577716455e+00 1.8231403096e+00 3.1577716455e+00 
20100 5.7735385695e+00 6.4085061029e-03 1.8229587078e+00 -3.1574571020e+00 1.8229587078e+00 3.1574571020e+00 
20200 5.7735115705e+00 6.1963522559e-03 1.8227829385e+00 -3.1571526607e+00 1.8227829385e+00 3.1571526607e+00 
20300 5.7734848222e+00 5.9853474118e-03 1.8226129716e+00 -3.1568582693e+00 1.8226129716e+00 3.1568582693e+00 
20400 5.7734583185e+00 5.7754796365e-03 1.8224487772e+00 -3.1565738763e+00 1.8224487772e+00 3.1565738763e+00 
20500 5.7734320529e+00 5.5667370538e-03 1.8222903256e+00 -3.1562994302e+00 1.8222903256e+00 3.1562994302e+00 
20600 5.7734060194e+00 5.3591078440e-03 1.8221375877e+00 -3.1560348802e+00 1.8221375877e+00 3.1560348802e+00 
20700 5.7733802117e+00 5.1525802429e-03 1.8219905341e+00 -3.1557801760e+00 1.8219905341e+00 3.1557801760e+00 
20800 5.7733546238e+00 4.9471425409e-03 1.8218491362e+00 -3.1555352676e+00 1.8218491362e+00 3.1555352676e+00 
20900 5.7733292496e+00 4.7427830821e-03 1.8217133653e+00 -3.1553001055e+00 1.8217133653e+00 3.1553001055e+00 
21000 5.7733040832e+00 4.5394902631e-03 1.8215831932e+00 -3.1550746408e+00 1.8215831932e+00 3.1550746408e+00 
21100 5.7732791188e+00 4.3372525328e-03 1.8214585917e+00 -3.1548588247e+00 1.8214585917e+00 3.1548588247e+00 
21200 5.7732543504e+00 4.1360583908e-03 1.8213395331e+00 -3.1546526092e+00 1.8213395331e+00 3.1546526092e+00 
21300 5.7732297723e+00 3.9358963875e-03 1.8212259899e+00 -3.1544559466e+00 1.8212259899e+00 3.1544559466e+00 
21400 5.7732053788e+00 3.7367551228e-03 1.8211179347e+00 -3.1542687896e+00 1.8211179347e+00 3.1542687896e+00 
21500 5.7731811642e+00 3.5386232457e-03 1.8210153406e+00 -3.1540910913e+00 1.8210153406e+00 3.1540910913e+00 
21600 5.7731571230e+00 3.3414894537e-03 1.8209181808e+00 -3.1539228055e+00 1.8209181808e+00 3.1539228055e+00 
21700 5.7731332495e+00 3.1453424922e-03 1.8208264287e+00 -3.1537638862e+00 1.8208264287e+00 3.1537638862e+00 
21800 5.7731095384e+00 2.9501711542e-03 1.8207400581e+00 -3.1536142879e+00 1.8207400581e+00 3.1536142879e+00 
21900 5.7730859840e+00 2.7559642792e-03 1.8206590429e+00 -3.1534739656e+00 1.8206590429e+00 3.1534739656e+00 
22000 5.7730625811e+00 2.5627107535e-03 1.8205833576e+00 -3.1533428747e+00 1.8205833576e+00 3.1533428747e+00 
22100 5.7730393243e+00 2.3703995095e-03 1.8205129764e+00 -3.1532209710e+00 1.8205129764e+00 3.1532209710e+00 
22200 5.7730162084e+00 2.1790195252e-03 1.8204478743e+00 -3.1531082108e+00 1.8204478743e+00 3.1531082108e+00 
22300 5.7729932280e+00 1.9885598240e-03 1.8203880262e+00 -3.1530045509e+00 1.8203880262e+00 3.1530045509e+00 
22400 5.7729703779e+00 1.7990094746e-03 1.8203334073e+00 -3.1529099482e+00 1.8203334073e+00 3.1529099482e+00 
22500 5.7729476532e+00 1.6103575902e-03 1.8202839933e+00 -3.1528243606e+00 1.8202839933e+00 3.1528243606e+00 
22600 5.7729250485e+00 1.4225933290e-03 1.8202397598e+00 -3.1527477459e+00 1.8202397598e+00 3.1527477459e+00 
22700 5.7729025589e+00 1.2357058933e-03 1.8202006828e+00 -3.1526800626e+00 1.8202006828e+00 3.1526800626e+00 
22800 5.7728801793e+00 1.0496845300e-03 1.8201667387e+00 -3.1526212697e+00 1.8201667387e+00 3.1526212697e+00 
22900 5.7728579048e+00 8.6451852984e-04 1.8201379039e+00 -3.1525713264e+00 1.8201379039e+00 3.1525713264e+00 
23000 5.7728357305e+00 6.8019722781e-04 1.8201141553e+00 -3.1525301925e+00 1.8201141553e+00 3.1525301925e+00 
23100 5.7728136514e+00 4.9671000277e-04 1.8200954698e+00 -3.1524978282e+00 1.8200954698e+00 3.1524978282e+00 
23200 5.7727916627e+00 3.1404627753e-04 1.8200818246e+00 -3.1524741941e+00 1.8200818246e+00 3.1524741941e+00 
23300 5.7727697596e+00 1.3219551878e-04 1.8200731974e+00 -3.1524592513e+00 1.8200731974e+00 3.1524592513e+00 
23400 5.7727479373e+00 -4.8852762828e-05 1.8200695658e+00 -3.1524529612e+00 1.8200695658e+00 3.1524529612e+00 
23500 5.7727261917e+00 -2.2933517377e-04 1.8200695658e+00 -3.1524529612e+00 1.8200695658e+00 3.1524529612e+00 
23600 5.7727045174e+00 -4.0880933748e-04 1.8200758659e+00 -3.1524638734e+00 1.8200758659e+00 3.1524638734e+00 
23700 5.7726829098e+00 -5.8751158200e-04 1.8200870965e+00 -3.1524833253e+00 1.8200870965e+00 3.1524833253e+00 
23800 5.7726613643e+00 -7.6545234910e-04 1.8201032362e+00 -3.1525112801e+00 1.8201032362e+00 3.1525112801e+00 
23900 5.7726398763e+00 -9.4264201148e-04 1.8201242639e+00 -3.1525477012e+00 1.8201242639e+00 3.1525477012e+00 
24000 5.7726184412e+00 -1.1190908774e-03 1.8201501590e+00 -3.1525925528e+00 1.8201501590e+00 3.1525925528e+00 
24100 5.7725970546e+00 -1.2948091944e-03 1.8201809008e+00 -3.1526457992e+00 1.8201809008e+00 3.1526457992e+00 
24200 5.7725757118e+00 -1.4698071518e-03 1.8202164691e+00 -3.1527074052e+00 1.8202164691e+00 3.1527074052e+00 
24300 5.7725544084e+00 -1.6440948838e-03 1.8202568437e+00 -3.1527773362e+00 1.8202568437e+00 3.1527773362e+00 
24400 5.7725331401e+00 -1.8176824703e-03 1.8203020050e+00 -3.1528555577e+00 1.8203020050e+00 3.1528555577e+00 
24500 5.7725119023e+00 -1.9905799389e-03 1.8203519333e+00 -3.1529420361e+00 1.8203519333e+00 3.1529420361e+00 
24600 5.7724906908e+00 -2.1627972659e-03 1.8204066092e+00 -3.1530367376e+00 1.8204066092e+00 3.1530367376e+00 
24700 5.7724695011e+00 -2.3343443767e-03 1.8204660138e+00 -3.1531396293e+00 1.8204660138e+00 3.1531396293e+00 
24800 5.7724483289e+00 -2.5052311467e-03 1.8205301281e+00 -3.1532506785e+00 1.8205301281e+00 3.1532506785e+00 
24900 5.7724271699e+00 -2.6754674016e-03 1.8205989335e+00 -3.1533698530e+00 1.8205989335e+00 3.1533698530e+00 
25000 5.7724060199e+00 -2.8450629176e-03 1.8206724117e+00 -3.1534971209e+00 1.8206724117e+00 3.1534971209e+00 
25100 5.7723848746e+00 -3.0140274212e-03 1.8207505444e+00 -3.1536324509e+00 1.8207505444e+00 3.1536324509e+00 
25200 5.7723637298e+00 -3.1823705897e-03 1.8208333139e+00 -3.1537758117e+00 1.8208333139e+00 3.1537758117e+00 
25300 5.7723425812e+00 -3.3501020507e-03 1.8209207023e+00 -3.1539271730e+00 1.8209207023e+00 3.1539271730e+00 
25400 5.7723214247e+00 -3.5172313821e-03 1.8210126923e+00 -3.1540865044e+00 1.8210126923e+00 3.1540865044e+00 
25500 5.7723002561e+00 -3.6837681116e-03 1.8211092667e+00 -3.1542537760e+00 1.8211092667e+00 3.1542537760e+00 
25600 5.7722790713e+00 -3.8497217169e-03 1.8212104084e+00 -3.1544289586e+00 1.8212104084e+00 3.1544289586e+00 
25700 5.7722578662e+00 -4.0151016249e-03 1.8213161007e+00 -3.1546120231e+00 1.8213161007e+00 3.1546120231e+00 
25800 5.7722366366e+00 -4.1799172115e-03 1.8214263271e+00 -3.1548029408e+00 1.8214263271e+00 3.1548029408e+00 
25900 5.7722153785e+00 -4.3441778013e-03 1.8215410713e+00 -3.1550016835e+00 1.8215410713e+00 3.1550016835e+00 
26000 5.7721940878e+00 -4.5078926668e-03 1.8216603172e+00 -3.1552082234e+00 1.8216603172e+00 3.1552082234e+00 
26100 5.7721727604e+00 -4.6710710284e-03 1.8217840489e+00 -3.1554225331e+00 1.8217840489e+00 3.1554225331e+00 
26200 5.7721513924e+00 -4.8337220536e-03 1.8219122509e+00 -3.1556445854e+00 1.8219122509e+00 3.1556445854e+00 
26300 5.7721299797e+00 -4.9958548565e-03 1.8220449076e+00 -3.1558743537e+00 1.8220449076e+00 3.1558743537e+00 
26400 5.7721085182e+00 -5.1574784974e-03 1.8221820041e+00 -3.1561118117e+00 1.8221820041e+00 3.1561118117e+00 
26500 5.7720870041e+00 -5.3186019821e-03 1.8223235252e+00 -3.1563569335e+00 1.8223235252e+00 3.1563569335e+00 
26600 5.7720654334e+00 -5.4792342614e-03 1.8224694563e+00 -3.1566096936e+00 1.8224694563e+00 3.1566096936e+00 
26700 5.7720438020e+00 -5.6393842305e-03 1.8226197828e+00 -3.1568700667e+00 1.8226197828e+00 3.1568700667e+00 
26800 5.7720221060e+00 -5.7990607287e-03 1.8227744905e+00 -3.1571380282e+00 1.8227744905e+00 3.1571380282e+00 
26900 5.7720003415e+00 -5.9582725379e-03 1.8229335651e+00 -3.1574135536e+00 1.8229335651e+00 3.1574135536e+00 
27000 5.7719785046e+00 -6.1170283832e-03 1.8230969930e+00 -3.1576966189e+00 1.8230969930e+00 3.1576966189e+00 
27100 5.7719565914e+00 -6.2753369310e-03 1.8232647603e+00 -3.1579872005e+00 1.8232647603e+00 3.1579872005e+00 
27200 5.7719345979e+00 -6.4332067896e-03 1.8234368537e+00 -3.1582852749e+00 1.8234368537e+00 3.1582852749e+00 
27300 5.7719125202e+00 -6.5906465072e-03 1.8236132598e+00 -3.1585908194e+00 1.8236132598e+00 3.1585908194e+00 
27400 5.7718903545e+00 -6.7476645725e-03 1.8237939658e+00 -3.1589038113e+00 1.8237939658e+00 3.1589038113e+00 
27500 5.7718680969e+00 -6.9042694131e-03 1.8239789587e+00 -3.1592242284e+00 1.8239789587e+00 3.1592242284e+00 
27600 5.7718457435e+00 -7.0604693950e-03 1.8241682259e+00 -3.1595520488e+00 1.8241682259e+00 3.1595520488e+00 
27700 5.7718232904e+00 -7.2162728222e-03 1.8243617551e+00 -3.1598872511e+00 1.8243617551e+00 3.1598872511e+00 
27800 5.7718007338e+00 -7.3716879357e-03 1.8245595339e+00 -3.1602298141e+00 1.8245595339e+00 3.1602298141e+00 
27900 5.7717780698e+00 -7.5267229127e-03 1.8247615504e+00 -3.1605797170e+00 1.8247615504e+00 3.1605797170e+00 
28000 5.7717552946e+00 -7.6813858661e-03 1.8249677929e+00 -3.1609369394e+00 1.8249677929e+00 3.1609369394e+00 
28100 5.7717324043e+00 -7.8356848433e-03 1.8251782495e+00 -3.1613014611e+00 1.8251782495e+00 3.1613014611e+00 
28200 5.7717093951e+00 -7.9896278261e-03 1.8253929091e+00 -3.1616732623e+00 1.8253929091e+00 3.1616732623e+00 
28300 5.7716862632e+00 -8.1432227292e-03 1.8256117602e+00 -3.1620523236e+00 1.8256117602e+00 3.1620523236e+00 
28400 5.7716630046e+00 -8.2964773999e-03 1.8258347920e+00 -3.1624386260e+00 1.8258347920e+00 3.1624386260e+00 
28500 5.7716396157e+00 -8.4493996170e-03 1.8260619936e+00 -3.1628321506e+00 1.8260619936e+00 3.1628321506e+00 
28600 5.7716160924e+00 -8.6019970901e-03 1.8262933542e+00 -3.1632328790e+00 1.8262933542e+00 3.1632328790e+00 
28700 5.7715924311e+00 -8.7542774588e-03 1.8265288635e+00 -3.1636407931e+00 1.8265288635e+00 3.1636407931e+00 
28800 5.7715686279e+00 -8.9062482919e-03 1.8267685112e+00 -3.1640558751e+00 1.8267685112e+00 3.1640558751e+00 
28900 5.7715446789e+00 -9.0579170864e-03 1.8270122872e+00 -3.1644781075e+00 1.8270122872e+00 3.1644781075e+00 
29000 5.7715205803e+00 -9.2092912666e-03 1.8272601816e+00 -3.1649074732e+00 1.8272601816e+00 3.1649074732e+00 
29100 5.7714963284e+00 -9.3603781834e-03 1.8275121847e+00 -3.1653439553e+00 1.8275121847e+00 3.1653439553e+00 
29200 5.7714719191e+00 -9.5111851135e-03 1.8277682868e+00 -3.1657875373e+00 1.8277682868e+00 3.1657875373e+00 
29300 5.7714473488e+00 -9.6617192581e-03 1.8280284788e+00 -3.1662382029e+00 1.8280284788e+00 3.1662382029e+00 
29400 5.7714226136e+00 -9.8119877424e-03 1.8282927512e+00 -3.1666959362e+00 1.8282927512e+00 3.1666959362e+00 
29500 5.7713977096e+00 -9.9619976146e-03 1.8285610952e+00 -3.1671607217e+00 1.8285610952e+00 3.1671607217e+00 
29600 5.7713726331e+00 -1.0111755845e-02 1.8288335019e+00 -3.1676325439e+00 1.8288335019e+00 3.1676325439e+00 
29700 5.7713473800e+00 -1.0261269324e-02 1.8291099626e+00 -3.1681113878e+00 1.8291099626e+00 3.1681113878e+00 
29800 5.7713219467e+00 -1.0410544864e-02 1.8293904687e+00 -3.1685972387e+00 1.8293904687e+00 3.1685972387e+00 
29900 5.7712963292e+00 -1.0559589195e-02 1.8296750120e+00 -3.1690900821e+00 1.8296750120e+00 3.1690900821e+00 
30000 5.7712705238e+00 -1.0708408965e-02 1.8299635842e+00 -3.1695899038e+00 1.8299635842e+00 3.1695899038e+00 
30100 5.7712445264e+00 -1.0857010741e-02 1.8302561773e+00 -3.1700966899e+00 1.8302561773e+00 3.1700966899e+00 
30200 5.7712183333e+00 -1.1005401005e-02 1.8305527834e+00 -3.1706104268e+00 1.8305527834e+00 3.1706104268e+00 
30300 5.7711919406e+00 -1.1153586154e-02 1.8308533948e+00 -3.1711311011e+00 1.8308533948e+00 3.1711311011e+00 
30400 5.7711653443e+00 -1.1301572500e-02 1.8311580040e+00 -3.1716586996e+00 1.8311580040e+00 3.1716586996e+00 
30500 5.7711385407e+00 -1.1449366268e-02 1.8314666035e+00 -3.1721932097e+00 1.8314666035e+00 3.1721932097e+00 
30600 5.7711115257e+00 -1.1596973595e-02 1.8317791861e+00 -3.1727346187e+00 1.8317791861e+00 3.1727346187e+00 
30700 5.7710842956e+00 -1.1744400529e-02 1.8320957447e+00 -3.1732829142e+00 1.8320957447e+00 3.1732829142e+00 
30800 5.7710568464e+00 -1.1891653028e-02 1.8324162722e+00 -3.1738380841e+00 1.8324162722e+00 3.1738380841e+00 
30900 5.7710291741e+00 -1.2038736960e-02 1.8327407619e+00 -3.1744001168e+00 1.8327407619e+00 3.1744001168e+00 
31000 5.7710012748e+00 -1.2185658100e-02 1.8330692071e+00 -3.1749690005e+00 1.8330692071e+00 3.1749690005e+00 
31100 5.7709731447e+00 -1.2332422131e-02 1.8334016012e+00 -3.1755447239e+00 1.8334016012e+00 3.1755447239e+00 
31200 5.7709447797e+00 -1.2479034640e-02 1.8337379377e+00 -3.1761272759e+00 1.8337379377e+00 3.1761272759e+00 
31300 5.7709161759e+00 -1.2625501121e-02 1.8340782104e+00 -3.1767166455e+00 1.8340782104e+00 3.1767166455e+00 
31400 5.7708873293e+00 -1.2771826970e-02 1.8344224132e+00 -3.1773128222e+00 1.8344224132e+00 3.1773128222e+00 
31500 5.7708582359e+00 -1.2918017485e-02 1.8347705400e+00 -3.1779157955e+00 1.8347705400e+00 3.1779157955e+00 
31600 5.7708288919e+00 -1.3064077867e-02 1.8351225848e+00 -3.1785255550e+00 1.8351225848e+00 3.1785255550e+00 
31700 5.7707992931e+00 -1.3210013218e-02 1.8354785420e+00 -3.1791420909e+00 1.8354785420e+00 3.1791420909e+00 
31800 5.7707694356e+00 -1.3355828535e-02 1.8358384057e+00 -3.1797653932e+00 1.8358384057e+00 3.1797653932e+00 
31900 5.7707393153e+00 -1.3501528717e-02 1.8362021706e+00 -3.1803954524e+00 1.8362021706e+00 3.1803954524e+00 
32000 5.7707089282e+00 -1.3647118559e-02 1.8365698311e+00 -3.1810322591e+00 1.8365698311e+00 3.1810322591e+00 
32100 5.7706782704e+00 -1.3792602750e-02 1.8369413818e+00 -3.1816758039e+00 1.8369413818e+00 3.1816758039e+00 
32200 5.7706473376e+00 -1.3937985875e-02 1.8373168177e+00 -3.1823260778e+00 1.8373168177e+00 3.1823260778e+00 
32300 5.7706161259e+00 -1.4083272411e-02 1.8376961335e+00 -3.1829830720e+00 1.8376961335e+00 3.1829830720e+00 
32400 5.7705846312e+00 -1.4228466728e-02 1.8380793242e+00 -3.1836467778e+00 1.8380793242e+00 3.1836467778e+00 
32500 5.7705528495e+00 -1.4373573087e-02 1.8384663849e+00 -3.1843171866e+00 1.8384663849e+00 3.1843171866e+00 
32600 5.7705207765e+00 -1.4518595637e-02 1.8388573108e+00 -3.1849942901e+00 1.8388573108e+00 3.1849942901e+00 
32700 5.7704884082e+00 -1.4663538419e-02 1.8392520971e+00 -3.1856780801e+00 1.8392520971e+00 3.1856780801e+00 
32800 5.7704557406e+00 -1.4808405356e-02 1.8396507393e+00 -3.1863685486e+00 1.8396507393e+00 3.1863685486e+00 
32900 5.7704227693e+00 -1.4953200261e-02 1.8400532326e+00 -3.1870656876e+00 1.8400532326e+00 3.1870656876e+00 
33000 5.7703894904e+00 -1.5097926831e-02 1.8404595728e+00 -3.1877694894e+00 1.8404595728e+00 3.1877694894e+00 
33100 5.7703558997e+00 -1.5242588645e-02 1.8408697553e+00 -3.1884799464e+00 1.8408697553e+00 3.1884799464e+00 
33200 5.7703219929e+00 -1.5387189166e-02 1.8412837759e+00 -3.1891970511e+00 1.8412837759e+00 3.1891970511e+00 
33300 5.7702877659e+00 -1.5531731735e-02 1.8417016304e+00 -3.1899207961e+00 1.8417016304e+00 3.1899207961e+00 
33400 5.7702532145e+00 -1.5676219577e-02 1.8421233144e+00 -3.1906511744e+00 1.8421233144e+00 3.1906511744e+00 
33500 5.7702183345e+00 -1.5820655792e-02 1.8425488240e+00 -3.1913881786e+00 1.8425488240e+00 3.1913881786e+00 
33600 5.7701831217e+00 -1.5965043359e-02 1.8429781551e+00 -3.1921318019e+00 1.8429781551e+00 3.1921318019e+00 
33700 5.7701475719e+00 -1.6109385130e-02 1.8434113037e+00 -3.1928820373e+00 1.8434113037e+00 3.1928820373e+00 
33800 5.7701116807e+00 -1.6253683836e-02 1.8438482659e+00 -3.1936388780e+00 1.8438482659e+00 3.1936388780e+00 
33900 5.7700754441e+00 -1.6397942077e-02 1.8442890378e+00 -3.1944023174e+00 1.8442890378e+00 3.1944023174e+00 
34000 5.7700388576e+00 -1.6542162327e-02 1.8447336157e+00 -3.1951723488e+00 1.8447336157e+00 3.1951723488e+00 
34100 5.7700019170e+00 -1.6686346931e-02 1.8451819957e+00 -3.1959489657e+00 1.8451819957e+00 3.1959489657e+00 
34200 5.7699646181e+00 -1.6830498102e-02 1.8456341740e+00 -3.1967321616e+00 1.8456341740e+00 3.1967321616e+00 
34300 5.7699269565e+00 -1.6974617923e-02 1.8460901471e+00 -3.1975219302e+00 1.8460901471e+00 3.1975219302e+00 
34400 5.7698889280e+00 -1.7118708340e-02 1.8465499113e+00 -3.1983182651e+00 1.8465499113e+00 3.1983182651e+00 
34500 5.7698505281e+00 -1.7262771168e-02 1.8470134630e+00 -3.1991211601e+00 1.8470134630e+00 3.1991211601e+00 
34600 5.7698117526e+00 -1.7406808086e-02 1.8474807984e+00 -3.1999306089e+00 1.8474807984e+00 3.1999306089e+00 
34700 5.7697725971e+00 -1.7550820632e-02 1.8479519142e+00 -3.2007466054e+00 1.8479519142e+00 3.2007466054e+00 
34800 5.7697330573e+00 -1.7694810211e-02 1.8484268068e+00 -3.2015691434e+00 1.8484268068e+00 3.2015691434e+00 
34900 5.7696931288e+00 -1.7838778083e-02 1.8489054726e+00 -3.2023982169e+00 1.8489054726e+00 3.2023982169e+00 
35000 5.7696528073e+00 -1.7982725369e-02 1.8493879081e+00 -3.2032338198e+00 1.8493879081e+00 3.2032338198e+00 
35100 5.7696120883e+00 -1.8126653048e-02 1.8498741099e+00 -3.2040759459e+00 1.8498741099e+00 3.2040759459e+00 
35200 5.7695709675e+00 -1.8270561955e-02 1.8503640744e+00 -3.2049245893e+00 1.8503640744e+00 3.2049245893e+00 
35300 5.7695294404e+00 -1.8414452779e-02 1.8508577981e+00 -3.2057797440e+00 1.8508577981e+00 3.2057797440e+00 
35400 5.7694875027e+00 -1.8558326063e-02 1.8513552777e+00 -3.2066414038e+00 1.8513552777e+00 3.2066414038e+00 
35500 5.7694451500e+00 -1.8702182202e-02 1.8518565095e+00 -3.2075095627e+00 1.8518565095e+00 3.2075095627e+00 
35600 5.7694023777e+00 -1.8846021443e-02 1.8523614901e+00 -3.2083842148e+00 1.8523614901e+00 3.2083842148e+00 
35700 5.7693591816e+00 -1.8989843881e-02 1.8528702159e+00 -3.2092653538e+00 1.8528702159e+00 3.2092653538e+00 
35800 5.7693155571e+00 -1.9133649460e-02 1.8533826835e+00 -3.2101529737e+00 1.8533826835e+00 3.2101529737e+00 
35900 5.7692714998e+00 -1.9277437972e-02 1.8538988893e+00 -3.2110470684e+00 1.8538988893e+00 3.2110470684e+00 
36000 5.7692270053e+00 -1.9421209054e-02 1.8544188297e+00 -3.2119476316e+00 1.8544188297e+00 3.2119476316e+00 
36100 5.7691820691e+00 -1.9564962188e-02 1.8549425011e+00 -3.2128546571e+00 1.8549425011e+00 3.2128546571e+00 
36200 5.7691366867e+00 -1.9708696697e-02 1.8554698999e+00 -3.2137681386e+00 1.8554698999e+00 3.2137681386e+00 
36300 5.7690908538e+00 -1.9852411750e-02 1.8560010224e+00 -3.2146880698e+00 1.8560010224e+00 3.2146880698e+00 
36400 5.7690445657e+00 -1.9996106353e-02 1.8565358650e+00 -3.2156144442e+00 1.8565358650e+00 3.2156144442e+00 
36500 5.7689978181e+00 -2.0139779354e-02 1.8570744237e+00 -3.2165472553e+00 1.8570744237e+00 3.2165472553e+00 
36600 5.7689506065e+00 -2.0283429439e-02 1.8576166949e+00 -3.2174864966e+00 1.8576166949e+00 3.2174864966e+00 
36700 5.7689029264e+00 -2.0427055130e-02 1.8581626747e+00 -3.2184321613e+00 1.8581626747e+00 3.2184321613e+00 
36800 5.7688547733e+00 -2.0570654785e-02 1.8587123591e+00 -3.2193842426e+00 1.8587123591e+00 3.2193842426e+00 
36900 5.7688061428e+00 -2.0714226598e-02 1.8592657442e+00 -3.2203427338e+00 1.8592657442e+00 3.2203427338e+00 
37000 5.7687570304e+00 -2.0857768596e-02 1.8598228260e+00 -3.2213076277e+00 1.8598228260e+00 3.2213076277e+00 
37100 5.7687074315e+00 -2.1001278638e-02 1.8603836003e+00 -3.2222789172e+00 1.8603836003e+00 3.2222789172e+00 
37200 5.7686573419e+00 -2.1144754415e-02 1.8609480629e+00 -3.2232565952e+00 1.8609480629e+00 3.2232565952e+00 
37300 5.7686067569e+00 -2.1288193448e-02 1.8615162096e+00 -3.2242406541e+00 1.8615162096e+00 3.2242406541e+00 
37400 5.7685556722e+00 -2.1431593086e-02 1.8620880360e+00 -3.2252310865e+00 1.8620880360e+00 3.2252310865e+00 
37500 5.7685040832e+00 -2.1574950509e-02 1.8626635377e+00 -3.2262278847e+00 1.8626635377e+00 3.2262278847e+00 
37600 5.7684519855e+00 -2.1718262722e-02 1.8632427102e+00 -3.2272310408e+00 1.8632427102e+00 3.2272310408e+00 
37700 5.7683993747e+00 -2.1861526554e-02 1.8638255487e+00 -3.2282405469e+00 1.8638255487e+00 3.2282405469e+00 
37800 5.7683462463e+00 -2.2004738664e-02 1.8644120487e+00 -3.2292563946e+00 1.8644120487e+00 3.2292563946e+00 
37900 5.7682925958e+00 -2.2147895531e-02 1.8650022053e+00 -3.2302785757e+00 1.8650022053e+00 3.2302785757e+00 
38000 5.7682384190e+00 -2.2290993459e-02 1.8655960134e+00 -3.2313070816e+00 1.8655960134e+00 3.2313070816e+00 
38100 5.7681837113e+00 -2.2434028573e-02 1.8661934681e+00 -3.2323419035e+00 1.8661934681e+00 3.2323419035e+00 
38200 5.7681284684e+00 -2.2576996820e-02 1.8667945642e+00 -3.2333830325e+00 1.8667945642e+00 3.2333830325e+00 
38300 5.7680726858e+00 -2.2719893968e-02 1.8673992964e+00 -3.2344304594e+00 1.8673992964e+00 3.2344304594e+00 
38400 5.7680163593e+00 -2.2862715605e-02 1.8680076593e+00 -3.2354841748e+00 1.8680076593e+00 3.2354841748e+00 
38500 5.7679594844e+00 -2.3005457136e-02 1.8686196472e+00 -3.2365441690e+00 1.8686196472e+00 3.2365441690e+00 
38600 5.7679020567e+00 -2.3148113785e-02 1.8692352546e+00 -3.2376104322e+00 1.8692352546e+00 3.2376104322e+00 
38700 5.7678440720e+00 -2.3290680594e-02 1.8698544755e+00 -3.2386829543e+00 1.8698544755e+00 3.2386829543e+00 
38800 5.7677855260e+00 -2.3433152421e-02 1.8704773040e+00 -3.2397617249e+00 1.8704773040e+00 3.2397617249e+00 
38900 5.7677264144e+00 -2.3575523941e-02 1.8711037339e+00 -3.2408467334e+00 1.8711037339e+00 3.2408467334e+00 
39000 5.7676667328e+00 -2.3717789644e-02 1.8717337590e+00 -3.2419379689e+00 1.8717337590e+00 3.2419379689e+00 
39100 5.7676064770e+00 -2.3859943834e-02 1.8723673728e+00 -3.2430354202e+00 1.8723673728e+00 3.2430354202e+00 
39200 5.7675456429e+00 -2.4001980632e-02 1.8730045687e+00 -3.2441390759e+00 1.8730045687e+00 3.2441390759e+00 
39300 5.7674842262e+00 -2.4143893969e-02 1.8736453400e+00 -3.2452489242e+00 1.8736453400e+00 3.2452489242e+00 
39400 5.7674222227e+00 -2.4285677594e-02 1.8742896796e+00 -3.2463649531e+00 1.8742896796e+00 3.2463649531e+00 
39500 5.7673596283e+00 -2.4427325065e-02 1.8749375804e+00 -3.2474871502e+00 1.8749375804e+00 3.2474871502e+00 
39600 5.7672964389e+00 -2.4568829757e-02 1.8755890351e+00 -3.2486155029e+00 1.8755890351e+00 3.2486155029e+00 
39700 5.7672326503e+00 -2.4710184853e-02 1.8762440362e+00 -3.2497499982e+00 1.8762440362e+00 3.2497499982e+00 
39800 5.7671682586e+00 -2.4851383352e-02 1.8769025761e+00 -3.2508906227e+00 1.8769025761e+00 3.2508906227e+00 
39900 5.7671032596e+00 -2.4992418063e-02 1.8775646468e+00 -3.2520373628e+00 1.8775646468e+00 3.2520373628e+00 
40000 5.7670376494e+00 -2.5133281609e-02 1.8782302402e+00 -3.2531902044e+00 1.8782302402e+00 3.2531902044e+00 
40100 5.7669714240e+00 -2.5273966422e-02 1.8788993481e+00 -3.2543491333e+00 1.8788993481e+00 3.2543491333e+00 
40200 5.7669045796e+00 -2.5414464749e-02 1.8795719619e+00 -3.2555141346e+00 1.8795719619e+00 3.2555141346e+00 
40300 5.7668371121e+00 -2.5554768648e-02 1.8802480730e+00 -3.2566851933e+00 1.8802480730e+00 3.2566851933e+00 
40400 5.7667690178e+00 -2.5694869988e-02 1.8809276724e+00 -3.2578622939e+00 1.8809276724e+00 3.2578622939e+00 
40500 5.7667002929e+00 -2.5834760451e-02 1.8816107508e+00 -3.2590454205e+00 1.8816107508e+00 3.2590454205e+00 
40600 5.7666309336e+00 -2.5974431532e-02 1.8822972991e+00 -3.2602345570e+00 1.8822972991e+00 3.2602345570e+00 
40700 5.7665609362e+00 -2.6113874539e-02 1.8829873075e+00 -3.2614296865e+00 1.8829873075e+00 3.2614296865e+00 
40800 5.7664902970e+00 -2.6253080591e-02 1.8836807661e+00 -3.2626307921e+00 1.8836807661e+00 3.2626307921e+00 
40900 5.7664190124e+00 -2.6392040624e-02 1.8843776649e+00 -3.2638378563e+00 1.8843776649e+00 3.2638378563e+00 
41000 5.7663470789e+00 -2.6530745385e-02 1.8850779936e+00 -3.2650508612e+00 1.8850779936e+00 3.2650508612e+00 
41100 5.7662744928e+00 -2.6669185438e-02 1.8857817416e+00 -3.2662697884e+00 1.8857817416e+00 3.2662697884e+00 
41200 5.7662012508e+00 -2.6807351161e-02 1.8864888979e+00 -3.2674946192e+00 1.8864888979e+00 3.2674946192e+00 
41300 5.7661273495e+00 -2.6945232748e-02 1.8871994516e+00 -3.2687253343e+00 1.8871994516e+00 3.2687253343e+00 
41400 5.7660527854e+00 -2.7082820211e-02 1.8879133913e+00 -3.2699619140e+00 1.8879133913e+00 3.2699619140e+00 
41500 5.7659775553e+00 -2.7220103379e-02 1.8886307053e+00 -3.2712043383e+00 1.8886307053e+00 3.2712043383e+00 
41600 5.7659016560e+00 -2.7357071899e-02 1.8893513818e+00 -3.2724525866e+00 1.8893513818e+00 3.2724525866e+00 
41700 5.7658250843e+00 -2.7493715240e-02 1.8900754085e+00 -3.2737066377e+00 1.8900754085e+00 3.2737066377e+00 
41800 5.7657478370e+00 -2.7630022688e-02 1.8908027731e+00 -3.2749664701e+00 1.8908027731e+00 3.2749664701e+00 
41900 5.7656699111e+00 -2.7765983355e-02 1.8915334628e+00 -3.2762320617e+00 1.8915334628e+00 3.2762320617e+00 
42000 5.7655913037e+00 -2.7901586173e-02 1.8922674645e+00 -3.2775033901e+00 1.8922674645e+00 3.2775033901e+00 
42100 5.7655120119e+00 -2.8036819901e-02 1.8930047651e+00 -3.2787804321e+00 1.8930047651e+00 3.2787804321e+00 
42200 5.7654320327e+00 -2.8171673123e-02 1.8937453509e+00 -3.2800631643e+00 1.8937453509e+00 3.2800631643e+00 
42300 5.7653513635e+00 -2.8306134250e-02 1.8944892079e+00 -3.2813515625e+00 1.8944892079e+00 3.2813515625e+00 
42400 5.7652700015e+00 -2.8440191523e-02 1.8952363221e+00 -3.2826456021e+00 1.8952363221e+00 3.2826456021e+00 
42500 5.7651879442e+00 -2.8573833014e-02 1.8959866788e+00 -3.2839452582e+00 1.8959866788e+00 3.2839452582e+00 
42600 5.7651051890e+00 -2.8707046627e-02 1.8967402633e+00 -3.2852505049e+00 1.8967402633e+00 3.2852505049e+00 
42700 5.7650217335e+00 -2.8839820101e-02 1.8974970606e+00 -3.2865613161e+00 1.8974970606e+00 3.2865613161e+00 
42800 5.7649375752e+00 -2.8972141012e-02 1.8982570550e+00 -3.2878776651e+00 1.8982570550e+00 3.2878776651e+00 
42900 5.7648527120e+00 -2.9103996772e-02 1.8990202309e+00 -3.2891995245e+00 1.8990202309e+00 3.2891995245e+00 
43000 5.7647671416e+00 -2.9235374638e-02 1.8997865722e+00 -3.2905268666e+00 1.8997865722e+00 3.2905268666e+00 
43100 5.7646808619e+00 -2.9366261705e-02 1.9005560625e+00 -3.2918596630e+00 1.9005560625e+00 3.2918596630e+00 
43200 5.7645938709e+00 -2.9496644918e-02 1.9013286851e+00 -3.2931978845e+00 1.9013286851e+00 3.2931978845e+00 
43300 5.7645061666e+00 -2.9626511067e-02 1.9021044229e+00 -3.2945415018e+00 1.9021044229e+00 3.2945415018e+00 
43400 5.7644177473e+00 -2.9755846793e-02 1.9028832585e+00 -3.2958904845e+00 1.9028832585e+00 3.2958904845e+00 
43500 5.7643286112e+00 -2.9884638589e-02 1.9036651741e+00 -3.2972448022e+00 1.9036651741e+00 3.2972448022e+00 
43600 5.7642387566e+00 -3.0012872805e-02 1.9044501517e+00 -3.2986044233e+00 1.9044501517e+00 3.2986044233e+00 
43700 5.7641481821e+00 -3.0140535649e-02 1.9052381729e+00 -3.2999693160e+00 1.9052381729e+00 3.2999693160e+00 
43800 5.7640568861e+00 -3.0267613190e-02 1.9060292189e+00 -3.3013394479e+00 1.9060292189e+00 3.3013394479e+00 
43900 5.7639648674e+00 -3.0394091362e-02 1.9068232706e+00 -3.3027147857e+00 1.9068232706e+00 3.3027147857e+00 
44000 5.7638721247e+00 -3.0519955966e-02 1.9076203085e+00 -3.3040952958e+00 1.9076203085e+00 3.3040952958e+00 
44100 5.7637786570e+00 -3.0645192673e-02 1.9084203128e+00 -3.3054809439e+00 1.9084203128e+00 3.3054809439e+00 
44200 5.7636844632e+00 -3.0769787030e-02 1.9092232632e+00 -3.3068716949e+00 1.9092232632e+00 3.3068716949e+00 
44300 5.7635895423e+00 -3.0893724460e-02 1.9100291394e+00 -3.3082675134e+00 1.9100291394e+00 3.3082675134e+00 
44400 5.7634938938e+00 -3.1016990267e-02 1.9108379204e+00 -3.3096683631e+00 1.9108379204e+00 3.3096683631e+00 
44500 5.7633975167e+00 -3.1139569641e-02 1.9116495848e+00 -3.3110742072e+00 1.9116495848e+00 3.3110742072e+00 
44600 5.7633004107e+00 -3.1261447658e-02 1.9124641112e+00 -3.3124850083e+00 1.9124641112e+00 3.3124850083e+00 
44700 5.7632025753e+00 -3.1382609287e-02 1.9132814775e+00 -3.3139007282e+00 1.9132814775e+00 3.3139007282e+00 
44800 5.7631040101e+00 -3.1503039395e-02 1.9141016613e+00 -3.3153213282e+00 1.9141016613e+00 3.3153213282e+00 
44900 5.7630047150e+00 -3.1622722746e-02 1.9149246400e+00 -3.3167467691e+00 1.9149246400e+00 3.3167467691e+00 
45000 5.7629046900e+00 -3.1741644009e-02 1.9157503903e+00 -3.3181770106e+00 1.9157503903e+00 3.3181770106e+00 
45100 5.7628039350e+00 -3.1859787763e-02 1.9165788889e+00 -3.3196120123e+00 1.9165788889e+00 3.3196120123e+00 
45200 5.7627024503e+00 -3.1977138497e-02 1.9174101119e+00 -3.3210517328e+00 1.9174101119e+00 3.3210517328e+00 
45300 5.7626002362e+00 -3.2093680620e-02 1.9182440351e+00 -3.3224961302e+00 1.9182440351e+00 3.3224961302e+00 
45400 5.7624972931e+00 -3.2209398459e-02 1.9190806339e+00 -3.3239451617e+00 1.9190806339e+00 3.3239451617e+00 
45500 5.7623936216e+00 -3.2324276269e-02 1.9199198833e+00 -3.3253987843e+00 1.9199198833e+00 3.3253987843e+00 
45600 5.7622892225e+00 -3.2438298237e-02 1.9207617579e+00 -3.3268569540e+00 1.9207617579e+00 3.3268569540e+00 
45700 5.7621840966e+00 -3.2551448483e-02 1.9216062321e+00 -3.3283196262e+00 1.9216062321e+00 3.3283196262e+00 
45800 5.7620782448e+00 -3.2663711067e-02 1.9224532797e+00 -3.3297867556e+00 1.9224532797e+00 3.3297867556e+00 
45900 5.7619716684e+00 -3.2775069998e-02 1.9233028742e+00 -3.3312582965e+00 1.9233028742e+00 3.3312582965e+00 
46000 5.7618643686e+00 -3.2885509231e-02 1.9241549888e+00 -3.3327342023e+00 1.9241549888e+00 3.3327342023e+00 
46100 5.7617563467e+00 -3.2995012678e-02 1.9250095962e+00 -3.3342144257e+00 1.9250095962e+00 3.3342144257e+00 
46200 5.7616476044e+00 -3.3103564213e-02 1.9258666688e+00 -3.3356989190e+00 1.9258666688e+00 3.3356989190e+00 
46300 5.7615381433e+00 -3.3211147674e-02 1.9267261786e+00 -3.3371876337e+00 1.9267261786e+00 3.3371876337e+00 
46400 5.7614279653e+00 -3.3317746870e-02 1.9275880972e+00 -3.3386805205e+00 1.9275880972e+00 3.3386805205e+00 
46500 5.7613170724e+00 -3.3423345588e-02 1.9284523959e+00 -3.3401775296e+00 1.9284523959e+00 3.3401775296e+00 
46600 5.7612054667e+00 -3.3527927596e-02 1.9293190454e+00 -3.3416786107e+00 1.9293190454e+00 3.3416786107e+00 
46700 5.7610931504e+00 -3.3631476651e-02 1.9301880163e+00 -3.3431837125e+00 1.9301880163e+00 3.3431837125e+00 
46800 5.7609801262e+00 -3.3733976501e-02 1.9310592788e+00 -3.3446927832e+00 1.9310592788e+00 3.3446927832e+00 
46900 5.7608663964e+00 -3.3835410897e-02 1.9319328024e+00 -3.3462057706e+00 1.9319328024e+00 3.3462057706e+00 
47000 5.7607519640e+00 -3.3935763590e-02 1.9328085566e+00 -3.3477226213e+00 1.9328085566e+00 3.3477226213e+00 
47100 5.7606368316e+00 -3.4035018345e-02 1.9336865104e+00 -3.3492432819e+00 1.9336865104e+00 3.3492432819e+00 
47200 5.7605210026e+00 -3.4133158943e-02 1.9345666323e+00 -3.3507676978e+00 1.9345666323e+00 3.3507676978e+00 
47300 5.7604044799e+00 -3.4230169188e-02 1.9354488907e+00 -3.3522958141e+00 1.9354488907e+00 3.3522958141e+00 
47400 5.7602872670e+00 -3.4326032911e-02 1.9363332534e+00 -3.3538275752e+00 1.9363332534e+00 3.3538275752e+00 
47500 5.7601693674e+00 -3.4420733979e-02 1.9372196878e+00 -3.3553629247e+00 1.9372196878e+00 3.3553629247e+00 
47600 5.7600507847e+00 -3.4514256300e-02 1.9381081612e+00 -3.3569018058e+00 1.9381081612e+00 3.3569018058e+00 
47700 5.7599315229e+00 -3.4606583828e-02 1.9389986404e+00 -3.3584441609e+00 1.9389986404e+00 3.3584441609e+00 
47800 5.7598115859e+00 -3.4697700571e-02 1.9398910917e+00 -3.3599899319e+00 1.9398910917e+00 3.3599899319e+00 
47900 5.7596909778e+00 -3.4787590598e-02 1.9407854812e+00 -3.3615390600e+00 1.9407854812e+00 3.3615390600e+00 
48000 5.7595697029e+00 -3.4876238040e-02 1.9416817747e+00 -3.3630914858e+00 1.9416817747e+00 3.3630914858e+00 
48100 5.7594477658e+00 -3.4963627104e-02 1.9425799374e+00 -3.3646471494e+00 1.9425799374e+00 3.3646471494e+00 
48200 5.7593251709e+00 -3.5049742074e-02 1.9434799345e+00 -3.3662059900e+00 1.9434799345e+00 3.3662059900e+00 
48300 5.7592019233e+00 -3.5134567318e-02 1.9443817306e+00 -3.3677679466e+00 1.9443817306e+00 3.3677679466e+00 
48400 5.7590780277e+00 -3.5218087298e-02 1.9452852899e+00 -3.3693329574e+00 1.9452852899e+00 3.3693329574e+00 
48500 5.7589534893e+00 -3.5300286571e-02 1.9461905766e+00 -3.3709009599e+00 1.9461905766e+00 3.3709009599e+00 
48600 5.7588283133e+00 -3.5381149800e-02 1.9470975543e+00 -3.3724718913e+00 1.9470975543e+00 3.3724718913e+00 
48700 5.7587025052e+00 -3.5460661758e-02 1.9480061862e+00 -3.3740456880e+00 1.9480061862e+00 3.3740456880e+00 
48800 5.7585760706e+00 -3.5538807336e-02 1.9489164354e+00 -3.3756222858e+00 1.9489164354e+00 3.3756222858e+00 
48900 5.7584490151e+00 -3.5615571549e-02 1.9498282646e+00 -3.3772016203e+00 1.9498282646e+00 3.3772016203e+00 
49000 5.7583213448e+00 -3.5690939540e-02 1.9507416361e+00 -3.3787836261e+00 1.9507416361e+00 3.3787836261e+00 
49100 5.7581930657e+00 -3.5764896591e-02 1.9516565119e+00 -3.3803682375e+00 1.9516565119e+00 3.3803682375e+00 
49200 5.7580641840e+00 -3.5837428127e-02 1.9525728538e+00 -3.3819553883e+00 1.9525728538e+00 3.3819553883e+00 
49300 5.7579347061e+00 -3.5908519722e-02 1.9534906233e+00 -3.3835450116e+00 1.9534906233e+00 3.3835450116e+00 
49400 5.7578046385e+00 -3.5978157106e-02 1.9544097814e+00 -3.3851370401e+00 1.9544097814e+00 3.3851370401e+00 
49500 5.7576739879e+00 -3.6046326172e-02 1.9553302889e+00 -3.3867314060e+00 1.9553302889e+00 3.3867314060e+00 
49600 5.7575427611e+00 -3.6113012982e-02 1.9562521065e+00 -3.3883280409e+00 1.9562521065e+00 3.3883280409e+00 
49700 5.7574109653e+00 -3.6178203774e-02 1.9571751944e+00 -3.3899268760e+00 1.9571751944e+00 3.3899268760e+00 
49800 5.7572786075e+00 -3.6241884966e-02 1.9580995125e+00 -3.3915278419e+00 1.9580995125e+00 3.3915278419e+00 
49900 5.7571456950e+00 -3.6304043166e-02 1.9590250206e+00 -3.3931308689e+00 1.9590250206e+00 3.3931308689e+00 
50000 5.7570122354e+00 -3.6364665175e-02 1.9599516780e+00 -3.3947358868e+00 1.9599516780e+00 3.3947358868e+00 
50100 5.7568782362e+00 -3.6423737996e-02 1.9608794441e+00 -3.3963428247e+00 1.9608794441e+00 3.3963428247e+00 
50200 5.7567437051e+00 -3.6481248836e-02 1.9618082776e+00 -3.3979516116e+00 1.9618082776e+00 3.3979516116e+00 
50300 5.7566086502e+00 -3.6537185118e-02 1.9627381373e+00 -3.3995621758e+00 1.9627381373e+00 3.3995621758e+00 
50400 5.7564730794e+00 -3.6591534483e-02 1.9636689816e+00 -3.4011744454e+00 1.9636689816e+00 3.4011744454e+00 
50500 5.7563370011e+00 -3.6644284796e-02 1.9646007687e+00 -3.4027883479e+00 1.9646007687e+00 3.4027883479e+00 
50600 5.7562004234e+00 -3.6695424154e-02 1.9655334565e+00 -3.4044038106e+00 1.9655334565e+00 3.4044038106e+00 
50700 5.7560633549e+00 -3.6744940891e-02 1.9664670027e+00 -3.4060207601e+00 1.9664670027e+00 3.4060207601e+00 
50800 5.7559258043e+00 -3.6792823582e-02 1.9674013649e+00 -3.4076391229e+00 1.9674013649e+00 3.4076391229e+00 
50900 5.7557877803e+00 -3.6839061053e-02 1.9683365004e+00 -3.4092588251e+00 1.9683365004e+00 3.4092588251e+00 
51000 5.7556492918e+00 -3.6883642381e-02 1.9692723663e+00 -3.4108797923e+00 1.9692723663e+00 3.4108797923e+00 
51100 5.7555103478e+00 -3.6926556905e-02 1.9702089194e+00 -3.4125019499e+00 1.9702089194e+00 3.4125019499e+00 
51200 5.7553709576e+00 -3.6967794228e-02 1.9711461165e+00 -3.4141252230e+00 1.9711461165e+00 3.4141252230e+00 
51300 5.7552311304e+00 -3.7007344223e-02 1.9720839142e+00 -3.4157495361e+00 1.9720839142e+00 3.4157495361e+00 
51400 5.7550908756e+00 -3.7045197040e-02 1.9730222687e+00 -3.4173748139e+00 1.9730222687e+00 3.4173748139e+00 
51500 5.7549502029e+00 -3.7081343109e-02 1.9739611363e+00 -3.4190009802e+00 1.9739611363e+00 3.4190009802e+00 
51600 5.7548091219e+00 -3.7115773145e-02 1.9749004730e+00 -3.4206279591e+00 1.9749004730e+00 3.4206279591e+00 
51700 5.7546676424e+00 -3.7148478157e-02 1.9758402347e+00 -3.4222556741e+00 1.9758402347e+00 3.4222556741e+00 
51800 5.7545257743e+00 -3.7179449446e-02 1.9767803770e+00 -3.4238840484e+00 1.9767803770e+00 3.4238840484e+00 
51900 5.7543835276e+00 -3.7208678615e-02 1.9777208557e+00 -3.4255130053e+00 1.9777208557e+00 3.4255130053e+00 
52000 5.7542409126e+00 -3.7236157573e-02 1.9786616262e+00 -3.4271424675e+00 1.9786616262e+00 3.4271424675e+00 
52100 5.7540979394e+00 -3.7261878537e-02 1.9796026437e+00 -3.4287723578e+00 1.9796026437e+00 3.4287723578e+00 
52200 5.7539546185e+00 -3.7285834038e-02 1.9805438637e+00 -3.4304025985e+00 1.9805438637e+00 3.4304025985e+00 
52300 5.7538109603e+00 -3.7308016928e-02 1.9814852411e+00 -3.4320331121e+00 1.9814852411e+00 3.4320331121e+00 
52400 5.7536669754e+00 -3.7328420376e-02 1.9824267311e+00 -3.4336638205e+00 1.9824267311e+00 3.4336638205e+00 
52500 5.7535226745e+00 -3.7347037882e-02 1.9833682885e+00 -3.4352946459e+00 1.9833682885e+00 3.4352946459e+00 
52600 5.7533780683e+00 -3.7363863273e-02 1.9843098684e+00 -3.4369255100e+00 1.9843098684e+00 3.4369255100e+00 
52700 5.7532331678e+00 -3.7378890711e-02 1.9852514254e+00 -3.4385563345e+00 1.9852514254e+00 3.4385563345e+00 
52800 5.7530879838e+00 -3.7392114694e-02 1.9861929143e+00 -3.4401870411e+00 1.9861929143e+00 3.4401870411e+00 
52900 5.7529425274e+00 -3.7403530061e-02 1.9871342898e+00 -3.4418175513e+00 1.9871342898e+00 3.4418175513e+00 
53000 5.7527968098e+00 -3.7413131996e-02 1.9880755065e+00 -3.4434477865e+00 1.9880755065e+00 3.4434477865e+00 
53100 5.7526508422e+00 -3.7420916027e-02 1.9890165191e+00 -3.4450776682e+00 1.9890165191e+00 3.4450776682e+00 
53200 5.7525046358e+00 -3.7426878034e-02 1.9899572821e+00 -3.4467071175e+00 1.9899572821e+00 3.4467071175e+00 
53300 5.7523582020e+00 -3.7431014249e-02 1.9908977502e+00 -3.4483360560e+00 1.9908977502e+00 3.4483360560e+00 
53400 5.7522115522e+00 -3.7433321258e-02 1.9918378778e+00 -3.4499644047e+00 1.9918378778e+00 3.4499644047e+00 
53500 5.7520646980e+00 -3.7433796005e-02 1.9927776195e+00 -3.4515920851e+00 1.9927776195e+00 3.4515920851e+00 
53600 5.7519176510e+00 -3.7432435793e-02 1.9937169299e+00 -3.4532190185e+00 1.9937169299e+00 3.4532190185e+00 
53700 5.7517704226e+00 -3.7429238288e-02 1.9946557636e+00 -3.4548451261e+00 1.9946557636e+00 3.4548451261e+00 
53800 5.7516230247e+00 -3.7424201520e-02 1.9955940751e+00 -3.4564703294e+00 1.9955940751e+00 3.4564703294e+00 
53900 5.7514754689e+00 -3.7417323882e-02 1.9965318192e+00 -3.4580945498e+00 1.9965318192e+00 3.4580945498e+00 
54000 5.7513277671e+00 -3.7408604136e-02 1.9974689505e+00 -3.4597177088e+00 1.9974689505e+00 3.4597177088e+00 
54100 5.7511799311e+00 -3.7398041411e-02 1.9984054238e+00 -3.4613397281e+00 1.9984054238e+00 3.4613397281e+00 
54200 5.7510319727e+00 -3.7385635208e-02 1.9993411938e+00 -3.4629605294e+00 1.9993411938e+00 3.4629605294e+00 
54300 5.7508839038e+00 -3.7371385396e-02 2.0002762155e+00 -3.4645800345e+00 2.0002762155e+00 3.4645800345e+00 
54400 5.7507357365e+00 -3.7355292217e-02 2.0012104438e+00 -3.4661981653e+00 2.0012104438e+00 3.4661981653e+00 
54500 5.7505874826e+00 -3.7337356285e-02 2.0021438338e+00 -3.4678148442e+00 2.0021438338e+00 3.4678148442e+00 
54600 5.7504391542e+00 -3.7317578586e-02 2.0030763405e+00 -3.4694299932e+00 2.0030763405e+00 3.4694299932e+00 
54700 5.7502907634e+00 -3.7295960481e-02 2.0040079193e+00 -3.4710435351e+00 2.0040079193e+00 3.4710435351e+00 
54800 5.7501423221e+00 -3.7272503703e-02 2.0049385256e+00 -3.4726553924e+00 2.0049385256e+00 3.4726553924e+00 
54900 5.7499938425e+00 -3.7247210358e-02 2.0058681147e+00 -3.4742654880e+00 2.0058681147e+00 3.4742654880e+00 
55000 5.7498453365e+00 -3.7220082926e-02 2.0067966425e+00 -3.4758737452e+00 2.0067966425e+00 3.4758737452e+00 
55100 5.7496968164e+00 -3.7191124260e-02 2.0077240645e+00 -3.4774800873e+00 2.0077240645e+00 3.4774800873e+00 
55200 5.7495482941e+00 -3.7160337585e-02 2.0086503367e+00 -3.4790844379e+00 2.0086503367e+00 3.4790844379e+00 
55300 5.7493997818e+00 -3.7127726496e-02 2.0095754153e+00 -3.4806867210e+00 2.0095754153e+00 3.4806867210e+00 
55400 5.7492512916e+00 -3.7093294961e-02 2.0104992565e+00 -3.4822868608e+00 2.0104992565e+00 3.4822868608e+00 
55500 5.7491028355e+00 -3.7057047317e-02 2.0114218167e+00 -3.4838847819e+00 2.0114218167e+00 3.4838847819e+00 
55600 5.7489544257e+00 -3.7018988269e-02 2.0123430524e+00 -3.4854804091e+00 2.0123430524e+00 3.4854804091e+00 
55700 5.7488060741e+00 -3.6979122889e-02 2.0132629206e+00 -3.4870736675e+00 2.0132629206e+00 3.4870736675e+00 
55800 5.7486577929e+00 -3.6937456615e-02 2.0141813782e+00 -3.4886644827e+00 2.0141813782e+00 3.4886644827e+00 
55900 5.7485095940e+00 -3.6893995248e-02 2.0150983825e+00 -3.4902527807e+00 2.0150983825e+00 3.4902527807e+00 
56000 5.7483614894e+00 -3.6848744952e-02 2.0160138908e+00 -3.4918384877e+00 2.0160138908e+00 3.4918384877e+00 
56100 5.7482134911e+00 -3.6801712249e-02 2.0169278609e+00 -3.4934215303e+00 2.0169278609e+00 3.4934215303e+00 
56200 5.7480656110e+00 -3.6752904020e-02 2.0178402506e+00 -3.4950018357e+00 2.0178402506e+00 3.4950018357e+00 
56300 5.7479178611e+00 -3.6702327500e-02 2.0187510182e+00 -3.4965793313e+00 2.0187510182e+00 3.4965793313e+00 
56400 5.7477702531e+00 -3.6649990278e-02 2.0196601219e+00 -3.4981539451e+00 2.0196601219e+00 3.4981539451e+00 
56500 5.7476227989e+00 -3.6595900291e-02 2.0205675204e+00 -3.4997256055e+00 2.0205675204e+00 3.4997256055e+00 
56600 5.7474755102e+00 -3.6540065825e-02 2.0214731727e+00 -3.5012942413e+00 2.0214731727e+00 3.5012942413e+00 
56700 5.7473283988e+00 -3.6482495508e-02 2.0223770380e+00 -3.5028597818e+00 2.0223770380e+00 3.5028597818e+00 
56800 5.7471814763e+00 -3.6423198310e-02 2.0232790757e+00 -3.5044221569e+00 2.0232790757e+00 3.5044221569e+00 
56900 5.7470347543e+00 -3.6362183538e-02 2.0241792455e+00 -3.5059812969e+00 2.0241792455e+00 3.5059812969e+00 
57000 5.7468882443e+00 -3.6299460833e-02 2.0250775077e+00 -3.5075371326e+00 2.0250775077e+00 3.5075371326e+00 
57100 5.7467419578e+00 -3.6235040166e-02 2.0259738224e+00 -3.5090895953e+00 2.0259738224e+00 3.5090895953e+00 
57200 5.7465959063e+00 -3.6168931836e-02 2.0268681505e+00 -3.5106386169e+00 2.0268681505e+00 3.5106386169e+00 
57300 5.7464501010e+00 -3.6101146462e-02 2.0277604529e+00 -3.5121841299e+00 2.0277604529e+00 3.5121841299e+00 
57400 5.7463045532e+00 -3.6031694984e-02 2.0286506908e+00 -3.5137260673e+00 2.0286506908e+00 3.5137260673e+00 
57500 5.7461592741e+00 -3.5960588655e-02 2.0295388260e+00 -3.5152643626e+00 2.0295388260e+00 3.5152643626e+00 
57600 5.7460142748e+00 -3.5887839040e-02 2.0304248205e+00 -3.5167989501e+00 2.0304248205e+00 3.5167989501e+00 
57700 5.7458695662e+00 -3.5813458008e-02 2.0313086366e+00 -3.5183297644e+00 2.0313086366e+00 3.5183297644e+00 
57800 5.7457251594e+00 -3.5737457730e-02 2.0321902369e+00 -3.5198567410e+00 2.0321902369e+00 3.5198567410e+00 
57900 5.7455810652e+00 -3.5659850673e-02 2.0330695845e+00 -3.5213798157e+00 2.0330695845e+00 3.5213798157e+00 
58000 5.7454372942e+00 -3.5580649596e-02 2.0339466429e+00 -3.5228989254e+00 2.0339466429e+00 3.5228989254e+00 
58100 5.7452938573e+00 -3.5499867546e-02 2.0348213757e+00 -3.5244140071e+00 2.0348213757e+00 3.5244140071e+00 
58200 5.7451507648e+00 -3.5417517851e-02 2.0356937472e+00 -3.5259249988e+00 2.0356937472e+00 3.5259249988e+00 
58300 5.7450080272e+00 -3.5333614116e-02 2.0365637219e+00 -3.5274318391e+00 2.0365637219e+00 3.5274318391e+00 
58400 5.7448656550e+00 -3.5248170216e-02 2.0374312646e+00 -3.5289344673e+00 2.0374312646e+00 3.5289344673e+00 
58500 5.7447236582e+00 -3.5161200295e-02 2.0382963408e+00 -3.5304328231e+00 2.0382963408e+00 3.5304328231e+00 
58600 5.7445820471e+00 -3.5072718757e-02 2.0391589160e+00 -3.5319268472e+00 2.0391589160e+00 3.5319268472e+00 
58700 5.7444408317e+00 -3.4982740261e-02 2.0400189564e+00 -3.5334164810e+00 2.0400189564e+00 3.5334164810e+00 
58800 5.7443000218e+00 -3.4891279717e-02 2.0408764286e+00 -3.5349016663e+00 2.0408764286e+00 3.5349016663e+00 
58900 5.7441596272e+00 -3.4798352276e-02 2.0417312994e+00 -3.5363823460e+00 2.0417312994e+00 3.5363823460e+00 
59000 5.7440196576e+00 -3.4703973333e-02 2.0425835363e+00 -3.5378584635e+00 2.0425835363e+00 3.5378584635e+00 
59100 5.7438801226e+00 -3.4608158511e-02 2.0434331069e+00 -3.5393299629e+00 2.0434331069e+00 3.5393299629e+00 
59200 5.7437410315e+00 -3.4510923662e-02 2.0442799794e+00 -3.5407967892e+00 2.0442799794e+00 3.5407967892e+00 
59300 5.7436023937e+00 -3.4412284859e-02 2.0451241225e+00 -3.5422588880e+00 2.0451241225e+00 3.5422588880e+00 
59400 5.7434642182e+00 -3.4312258391e-02 2.0459655053e+00 -3.5437162057e+00 2.0459655053e+00 3.5437162057e+00 
59500 5.7433265142e+00 -3.4210860752e-02 2.0468040972e+00 -3.5451686894e+00 2.0468040972e+00 3.5451686894e+00 
59600 5.7431892905e+00 -3.4108108644e-02 2.0476398681e+00 -3.5466162871e+00 2.0476398681e+00 3.5466162871e+00 
59700 5.7430525559e+00 -3.4004018962e-02 2.0484727885e+00 -3.5480589476e+00 2.0484727885e+00 3.5480589476e+00 
59800 5.7429163191e+00 -3.3898608793e-02 2.0493028291e+00 -3.5494966202e+00 2.0493028291e+00 3.5494966202e+00 
59900 5.7427805885e+00 -3.3791895409e-02 2.0501299614e+00 -3.5509292552e+00 2.0501299614e+00 3.5509292552e+00 
60000 5.7426453724e+00 -3.3683896258e-02 2.0509541569e+00 -3.5523568037e+00 2.0509541569e+00 3.5523568037e+00 
60100 5.7425106791e+00 -3.3574628962e-02 2.0517753879e+00 -3.5537792176e+00 2.0517753879e+00 3.5537792176e+00 
60200 5.7423765167e+00 -3.3464111308e-02 2.0525936271e+00 -3.5551964494e+00 2.0525936271e+00 3.5551964494e+00 
60300 5.7422428931e+00 -3.3352361240e-02 2.0534088475e+00 -3.5566084526e+00 2.0534088475e+00 3.5566084526e+00 
60400 5.7421098161e+00 -3.3239396857e-02 2.0542210228e+00 -3.5580151815e+00 2.0542210228e+00 3.5580151815e+00 
60500 5.7419772933e+00 -3.3125236404e-02 2.0550301270e+00 -3.5594165911e+00 2.0550301270e+00 3.5594165911e+00 
60600 5.7418453322e+00 -3.3009898264e-02 2.0558361347e+00 -3.5608126373e+00 2.0558361347e+00 3.5608126373e+00 
60700 5.7417139402e+00 -3.2893400956e-02 2.0566390208e+00 -3.5622032769e+00 2.0566390208e+00 3.5622032769e+00 
60800 5.7415831245e+00 -3.2775763125e-02 2.0574387608e+00 -3.5635884672e+00 2.0574387608e+00 3.5635884672e+00 
60900 5.7414528920e+00 -3.2657003537e-02 2.0582353308e+00 -3.5649681668e+00 2.0582353308e+00 3.5649681668e+00 
61000 5.7413232498e+00 -3.2537141070e-02 2.0590287070e+00 -3.5663423348e+00 2.0590287070e+00 3.5663423348e+00 
61100 5.7411942045e+00 -3.2416194714e-02 2.0598188665e+00 -3.5677109312e+00 2.0598188665e+00 3.5677109312e+00 
61200 5.7410657628e+00 -3.2294183557e-02 2.0606057866e+00 -3.5690739168e+00 2.0606057866e+00 3.5690739168e+00 
61300 5.7409379311e+00 -3.2171126783e-02 2.0613894452e+00 -3.5704312533e+00 2.0613894452e+00 3.5704312533e+00 
61400 5.7408107156e+00 -3.2047043666e-02 2.0621698207e+00 -3.5717829033e+00 2.0621698207e+00 3.5717829033e+00 
61500 5.7406841226e+00 -3.1921953560e-02 2.0629468919e+00 -3.5731288301e+00 2.0629468919e+00 3.5731288301e+00 
61600 5.7405581580e+00 -3.1795875895e-02 2.0637206382e+00 -3.5744689979e+00 2.0637206382e+00 3.5744689979e+00 
61700 5.7404328276e+00 -3.1668830174e-02 2.0644910393e+00 -3.5758033718e+00 2.0644910393e+00 3.5758033718e+00 
61800 5.7403081372e+00 -3.1540835960e-02 2.0652580755e+00 -3.5771319176e+00 2.0652580755e+00 3.5771319176e+00 
61900 5.7401840921e+00 -3.1411912875e-02 2.0660217278e+00 -3.5784546021e+00 2.0660217278e+00 3.5784546021e+00 
62000 5.7400606979e+00 -3.1282080589e-02 2.0667819773e+00 -3.5797713928e+00 2.0667819773e+00 3.5797713928e+00 
62100 5.7399379596e+00 -3.1151358821e-02 2.0675388057e+00 -3.5810822581e+00 2.0675388057e+00 3.5810822581e+00 
62200 5.7398158824e+00 -3.1019767325e-02 2.0682921955e+00 -3.5823871674e+00 2.0682921955e+00 3.5823871674e+00 
62300 5.7396944711e+00 -3.0887325890e-02 2.0690421292e+00 -3.5836860907e+00 2.0690421292e+00 3.5836860907e+00 
62400 5.7395737306e+00 -3.0754054330e-02 2.0697885901e+00 -3.5849789990e+00 2.0697885901e+00 3.5849789990e+00 
62500 5.7394536653e+00 -3.0619972480e-02 2.0705315620e+00 -3.5862658640e+00 2.0705315620e+00 3.5862658640e+00 
62600 5.7393342797e+00 -3.0485100190e-02 2.0712710289e+00 -3.5875466584e+00 2.0712710289e+00 3.5875466584e+00 
62700 5.7392155782e+00 -3.0349457317e-02 2.0720069757e+00 -3.5888213556e+00 2.0720069757e+00 3.5888213556e+00 
62800 5.7390975648e+00 -3.0213063723e-02 2.0727393875e+00 -3.5900899299e+00 2.0727393875e+00 3.5900899299e+00 
62900 5.7389802435e+00 -3.0075939266e-02 2.0734682498e+00 -3.5913523565e+00 2.0734682498e+00 3.5913523565e+00 
63000 5.7388636181e+00 -2.9938103795e-02 2.0741935489e+00 -3.5926086114e+00 2.0741935489e+00 3.5926086114e+00 
63100 5.7387476924e+00 -2.9799577146e-02 2.0749152713e+00 -3.5938586713e+00 2.0749152713e+00 3.5938586713e+00 
63200 5.7386324697e+00 -2.9660379135e-02 2.0756334041e+00 -3.5951025138e+00 2.0756334041e+00 3.5951025138e+00 
63300 5.7385179536e+00 -2.9520529550e-02 2.0763479349e+00 -3.5963401175e+00 2.0763479349e+00 3.5963401175e+00 
63400 5.7384041471e+00 -2.9380048152e-02 2.0770588517e+00 -3.5975714615e+00 2.0770588517e+00 3.5975714615e+00 
63500 5.7382910535e+00 -2.9238954665e-02 2.0777661431e+00 -3.5987965261e+00 2.0777661431e+00 3.5987965261e+00 
63600 5.7381786755e+00 -2.9097268769e-02 2.0784697979e+00 -3.6000152920e+00 2.0784697979e+00 3.6000152920e+00 
63700 5.7380670160e+00 -2.8955010101e-02 2.0791698057e+00 -3.6012277411e+00 2.0791698057e+00 3.6012277411e+00 
63800 5.7379560776e+00 -2.8812198244e-02 2.0798661564e+00 -3.6024338558e+00 2.0798661564e+00 3.6024338558e+00 
63900 5.7378458628e+00 -2.8668852725e-02 2.0805588403e+00 -3.6036336196e+00 2.0805588403e+00 3.6036336196e+00 
64000 5.7377363739e+00 -2.8524993010e-02 2.0812478483e+00 -3.6048270165e+00 2.0812478483e+00 3.6048270165e+00 
64100 5.7376276131e+00 -2.8380638496e-02 2.0819331718e+00 -3.6060140314e+00 2.0819331718e+00 3.6060140314e+00 
64200 5.7375195825e+00 -2.8235808512e-02 2.0826148023e+00 -3.6071946502e+00 2.0826148023e+00 3.6071946502e+00 
64300 5.7374122839e+00 -2.8090522308e-02 2.0832927323e+00 -3.6083688594e+00 2.0832927323e+00 3.6083688594e+00 
64400 5.7373057192e+00 -2.7944799055e-02 2.0839669543e+00 -3.6095366462e+00 2.0839669543e+00 3.6095366462e+00 
64500 5.7371998899e+00 -2.7798657838e-02 2.0846374615e+00 -3.6106979987e+00 2.0846374615e+00 3.6106979987e+00 
64600 5.7370947976e+00 -2.7652117653e-02 2.0853042475e+00 -3.6118529059e+00 2.0853042475e+00 3.6118529059e+00 
64700 5.7369904437e+00 -2.7505197402e-02 2.0859673062e+00 -3.6130013572e+00 2.0859673062e+00 3.6130013572e+00 
64800 5.7368868292e+00 -2.7357915887e-02 2.0866266321e+00 -3.6141433432e+00 2.0866266321e+00 3.6141433432e+00 
64900 5.7367839554e+00 -2.7210291809e-02 2.0872822201e+00 -3.6152788549e+00 2.0872822201e+00 3.6152788549e+00 
65000 5.7366818231e+00 -2.7062343763e-02 2.0879340655e+00 -3.6164078843e+00 2.0879340655e+00 3.6164078843e+00 
65100 5.7365804333e+00 -2.6914090232e-02 2.0885821641e+00 -3.6175304241e+00 2.0885821641e+00 3.6175304241e+00 
65200 5.7364797865e+00 -2.6765549586e-02 2.0892265121e+00 -3.6186464675e+00 2.0892265121e+00 3.6186464675e+00 
65300 5.7363798834e+00 -2.6616740075e-02 2.0898671061e+00 -3.6197560087e+00 2.0898671061e+00 3.6197560087e+00 
65400 5.7362807244e+00 -2.6467679830e-02 2.0905039430e+00 -3.6208590427e+00 2.0905039430e+00 3.6208590427e+00 
65500 5.7361823098e+00 -2.6318386852e-02 2.0911370204e+00 -3.6219555649e+00 2.0911370204e+00 3.6219555649e+00 
65600 5.7360846398e+00 -2.6168879018e-02 2.0917663361e+00 -3.6230455716e+00 2.0917663361e+00 3.6230455716e+00 
65700 5.7359877145e+00 -2.6019174070e-02 2.0923918883e+00 -3.6241290599e+00 2.0923918883e+00 3.6241290599e+00 
65800 5.7358915338e+00 -2.5869289613e-02 2.0930136758e+00 -3.6252060274e+00 2.0930136758e+00 3.6252060274e+00 
65900 5.7357960976e+00 -2.5719243116e-02 2.0936316976e+00 -3.6262764726e+00 2.0936316976e+00 3.6262764726e+00 
66000 5.7357014055e+00 -2.5569051903e-02 2.0942459532e+00 -3.6273403945e+00 2.0942459532e+00 3.6273403945e+00 
66100 5.7356074573e+00 -2.5418733155e-02 2.0948564425e+00 -3.6283977930e+00 2.0948564425e+00 3.6283977930e+00 
66200 5.7355142523e+00 -2.5268303905e-02 2.0954631657e+00 -3.6294486684e+00 2.0954631657e+00 3.6294486684e+00 
66300 5.7354217899e+00 -2.5117781034e-02 2.0960661234e+00 -3.6304930218e+00 2.0960661234e+00 3.6304930218e+00 
66400 5.7353300694e+00 -2.4967181268e-02 2.0966653168e+00 -3.6315308551e+00 2.0966653168e+00 3.6315308551e+00 
66500 5.7352390900e+00 -2.4816521181e-02 2.0972607471e+00 -3.6325621707e+00 2.0972607471e+00 3.6325621707e+00 
66600 5.7351488507e+00 -2.4665817184e-02 2.0978524162e+00 -3.6335869717e+00 2.0978524162e+00 3.6335869717e+00 
66700 5.7350593504e+00 -2.4515085530e-02 2.0984403262e+00 -3.6346052617e+00 2.0984403262e+00 3.6346052617e+00 
66800 5.7349705881e+00 -2.4364342305e-02 2.0990244797e+00 -3.6356170451e+00 2.0990244797e+00 3.6356170451e+00 
66900 5.7348825624e+00 -2.4213603432e-02 2.0996048794e+00 -3.6366223270e+00 2.0996048794e+00 3.6366223270e+00 
67000 5.7347952720e+00 -2.4062884665e-02 2.1001815287e+00 -3.6376211127e+00 2.1001815287e+00 3.6376211127e+00 
67100 5.7347087154e+00 -2.3912201587e-02 2.1007544310e+00 -3.6386134087e+00 2.1007544310e+00 3.6386134087e+00 
67200 5.7346228911e+00 -2.3761569611e-02 2.1013235904e+00 -3.6395992216e+00 2.1013235904e+00 3.6395992216e+00 
67300 5.7345377974e+00 -2.3611003974e-02 2.1018890110e+00 -3.6405785589e+00 2.1018890110e+00 3.6405785589e+00 
67400 5.7344534326e+00 -2.3460519738e-02 2.1024506975e+00 -3.6415514286e+00 2.1024506975e+00 3.6415514286e+00 
67500 5.7343697949e+00 -2.3310131787e-02 2.1030086549e+00 -3.6425178391e+00 2.1030086549e+00 3.6425178391e+00 
67600 5.7342868823e+00 -2.3159854827e-02 2.1035628884e+00 -3.6434777996e+00 2.1035628884e+00 3.6434777996e+00 
67700 5.7342046929e+00 -2.3009703382e-02 2.1041134035e+00 -3.6444313198e+00 2.1041134035e+00 3.6444313198e+00 
67800 5.7341232246e+00 -2.2859691796e-02 2.1046602063e+00 -3.6453784099e+00 2.1046602063e+00 3.6453784099e+00 
67900 5.7340424752e+00 -2.2709834227e-02 2.1052033028e+00 -3.6463190808e+00 2.1052033028e+00 3.6463190808e+00 
68000 5.7339624424e+00 -2.2560144650e-02 2.1057426998e+00 -3.6472533436e+00 2.1057426998e+00 3.6472533436e+00 
68100 5.7338831239e+00 -2.2410636854e-02 2.1062784039e+00 -3.6481812104e+00 2.1062784039e+00 3.6481812104e+00 
68200 5.7338045174e+00 -2.2261324440e-02 2.1068104223e+00 -3.6491026934e+00 2.1068104223e+00 3.6491026934e+00 
68300 5.7337266202e+00 -2.2112220822e-02 2.1073387626e+00 -3.6500178056e+00 2.1073387626e+00 3.6500178056e+00 
68400 5.7336494300e+00 -2.1963339226e-02 2.1078634323e+00 -3.6509265602e+00 2.1078634323e+00 3.6509265602e+00 
68500 5.7335729440e+00 -2.1814692685e-02 2.1083844396e+00 -3.6518289713e+00 2.1083844396e+00 3.6518289713e+00 
68600 5.7334971595e+00 -2.1666294044e-02 2.1089017927e+00 -3.6527250532e+00 2.1089017927e+00 3.6527250532e+00 
68700 5.7334220738e+00 -2.1518155957e-02 2.1094155002e+00 -3.6536148206e+00 2.1094155002e+00 3.6536148206e+00 
68800 5.7333476840e+00 -2.1370290886e-02 2.1099255710e+00 -3.6544982891e+00 2.1099255710e+00 3.6544982891e+00 
68900 5.7332739873e+00 -2.1222711099e-02 2.1104320141e+00 -3.6553754743e+00 2.1104320141e+00 3.6553754743e+00 
69000 5.7332009806e+00 -2.1075428673e-02 2.1109348389e+00 -3.6562463925e+00 2.1109348389e+00 3.6562463925e+00 
69100 5.7331286610e+00 -2.0928455491e-02 2.1114340552e+00 -3.6571110604e+00 2.1114340552e+00 3.6571110604e+00 
69200 5.7330570254e+00 -2.0781803242e-02 2.1119296727e+00 -3.6579694951e+00 2.1119296727e+00 3.6579694951e+00 
69300 5.7329860706e+00 -2.0635483423e-02 2.1124217016e+00 -3.6588217142e+00 2.1124217016e+00 3.6588217142e+00 
69400 5.7329157934e+00 -2.0489507334e-02 2.1129101524e+00 -3.6596677357e+00 2.1129101524e+00 3.6596677357e+00 
69500 5.7328461905e+00 -2.0343886085e-02 2.1133950355e+00 -3.6605075780e+00 2.1133950355e+00 3.6605075780e+00 
69600 5.7327772588e+00 -2.0198630589e-02 2.1138763620e+00 -3.6613412598e+00 2.1138763620e+00 3.6613412598e+00 
69700 5.7327089947e+00 -2.0053751566e-02 2.1143541428e+00 -3.6621688005e+00 2.1143541428e+00 3.6621688005e+00 
69800 5.7326413949e+00 -1.9909259542e-02 2.1148283893e+00 -3.6629902195e+00 2.1148283893e+00 3.6629902195e+00 
69900 5.7325744560e+00 -1.9765164849e-02 2.1152991130e+00 -3.6638055369e+00 2.1152991130e+00 3.6638055369e+00 
70000 5.7325081744e+00 -1.9621477626e-02 2.1157663257e+00 -3.6646147730e+00 2.1157663257e+00 3.6646147730e+00 
70100 5.7324425466e+00 -1.9478207818e-02 2.1162300393e+00 -3.6654179486e+00 2.1162300393e+00 3.6654179486e+00 
70200 5.7323775690e+00 -1.9335365178e-02 2.1166902661e+00 -3.6662150847e+00 2.1166902661e+00 3.6662150847e+00 
70300 5.7323132380e+00 -1.9192959266e-02 2.1171470183e+00 -3.6670062028e+00 2.1171470183e+00 3.6670062028e+00 
70400 5.7322495499e+00 -1.9050999450e-02 2.1176003086e+00 -3.6677913247e+00 2.1176003086e+00 3.6677913247e+00 
70500 5.7321865009e+00 -1.8909494908e-02 2.1180501497e+00 -3.6685704723e+00 2.1180501497e+00 3.6685704723e+00 
70600 5.7321240874e+00 -1.8768454625e-02 2.1184965546e+00 -3.6693436683e+00 2.1184965546e+00 3.6693436683e+00 
70700 5.7320623056e+00 -1.8627887396e-02 2.1189395364e+00 -3.6701109353e+00 2.1189395364e+00 3.6701109353e+00 
70800 5.7320011516e+00 -1.8487801828e-02 2.1193791085e+00 -3.6708722964e+00 2.1193791085e+00 3.6708722964e+00 
70900 5.7319406216e+00 -1.8348206338e-02 2.1198152842e+00 -3.6716277749e+00 2.1198152842e+00 3.6716277749e+00 
71000 5.7318807117e+00 -1.8209109155e-02 2.1202480774e+00 -3.6723773947e+00 2.1202480774e+00 3.6723773947e+00 
71100 5.7318214180e+00 -1.8070518322e-02 2.1206775017e+00 -3.6731211795e+00 2.1206775017e+00 3.6731211795e+00 
71200 5.7317627366e+00 -1.7932441693e-02 2.1211035713e+00 -3.6738591536e+00 2.1211035713e+00 3.6738591536e+00 
71300 5.7317046634e+00 -1.7794886941e-02 2.1215263003e+00 -3.6745913416e+00 2.1215263003e+00 3.6745913416e+00 
71400 5.7316471946e+00 -1.7657861549e-02 2.1219457029e+00 -3.6753177683e+00 2.1219457029e+00 3.6753177683e+00 
71500 5.7315903261e+00 -1.7521372822e-02 2.1223617936e+00 -3.6760384585e+00 2.1223617936e+00 3.6760384585e+00 
71600 5.7315340538e+00 -1.7385427879e-02 2.1227745870e+00 -3.6767534377e+00 2.1227745870e+00 3.6767534377e+00 
71700 5.7314783738e+00 -1.7250033660e-02 2.1231840979e+00 -3.6774627314e+00 2.1231840979e+00 3.6774627314e+00 
71800 5.7314232818e+00 -1.7115196923e-02 2.1235903412e+00 -3.6781663654e+00 2.1235903412e+00 3.6781663654e+00 
71900 5.7313687739e+00 -1.6980924249e-02 2.1239933317e+00 -3.6788643655e+00 2.1239933317e+00 3.6788643655e+00 
72000 5.7313148459e+00 -1.6847222039e-02 2.1243930848e+00 -3.6795567581e+00 2.1243930848e+00 3.6795567581e+00 
72100 5.7312614937e+00 -1.6714096520e-02 2.1247896156e+00 -3.6802435696e+00 2.1247896156e+00 3.6802435696e+00 
72200 5.7312087131e+00 -1.6581553743e-02 2.1251829395e+00 -3.6809248267e+00 2.1251829395e+00 3.6809248267e+00 
72300 5.7311565000e+00 -1.6449599585e-02 2.1255730721e+00 -3.6816005561e+00 2.1255730721e+00 3.6816005561e+00 
72400 5.7311048502e+00 -1.6318239749e-02 2.1259600289e+00 -3.6822707849e+00 2.1259600289e+00 3.6822707849e+00 
72500 5.7310537595e+00 -1.6187479769e-02 2.1263438256e+00 -3.6829355404e+00 2.1263438256e+00 3.6829355404e+00 
72600 5.7310032237e+00 -1.6057325009e-02 2.1267244781e+00 -3.6835948499e+00 2.1267244781e+00 3.6835948499e+00 
72700 5.7309532387e+00 -1.5927780665e-02 2.1271020024e+00 -3.6842487410e+00 2.1271020024e+00 3.6842487410e+00 
72800 5.7309038001e+00 -1.5798851764e-02 2.1274764143e+00 -3.6848972415e+00 2.1274764143e+00 3.6848972415e+00 
72900 5.7308549039e+00 -1.5670543170e-02 2.1278477301e+00 -3.6855403793e+00 2.1278477301e+00 3.6855403793e+00 
73000 5.7308065457e+00 -1.5542859582e-02 2.1282159659e+00 -3.6861781824e+00 2.1282159659e+00 3.6861781824e+00 
73100 5.7307587214e+00 -1.5415805537e-02 2.1285811381e+00 -3.6868106792e+00 2.1285811381e+00 3.6868106792e+00 
73200 5.7307114267e+00 -1.5289385412e-02 2.1289432629e+00 -3.6874378978e+00 2.1289432629e+00 3.6874378978e+00 
73300 5.7306646573e+00 -1.5163603424e-02 2.1293023569e+00 -3.6880598668e+00 2.1293023569e+00 3.6880598668e+00 
73400 5.7306184091e+00 -1.5038463632e-02 2.1296584366e+00 -3.6886766149e+00 2.1296584366e+00 3.6886766149e+00 
73500 5.7305726777e+00 -1.4913969942e-02 2.1300115185e+00 -3.6892881708e+00 2.1300115185e+00 3.6892881708e+00 
73600 5.7305274590e+00 -1.4790126101e-02 2.1303616194e+00 -3.6898945633e+00 2.1303616194e+00 3.6898945633e+00 
73700 5.7304827487e+00 -1.4666935707e-02 2.1307087560e+00 -3.6904958215e+00 2.1307087560e+00 3.6904958215e+00 
73800 5.7304385426e+00 -1.4544402206e-02 2.1310529450e+00 -3.6910919743e+00 2.1310529450e+00 3.6910919743e+00 
73900 5.7303948364e+00 -1.4422528894e-02 2.1313942033e+00 -3.6916830511e+00 2.1313942033e+00 3.6916830511e+00 
74000 5.7303516260e+00 -1.4301318921e-02 2.1317325478e+00 -3.6922690809e+00 2.1317325478e+00 3.6922690809e+00 
74100 5.7303089070e+00 -1.4180775291e-02 2.1320679955e+00 -3.6928500933e+00 2.1320679955e+00 3.6928500933e+00 
74200 5.7302666752e+00 -1.4060900862e-02 2.1324005633e+00 -3.6934261177e+00 2.1324005633e+00 3.6934261177e+00 
74300 5.7302249265e+00 -1.3941698350e-02 2.1327302683e+00 -3.6939971835e+00 2.1327302683e+00 3.6939971835e+00 
74400 5.7301836567e+00 -1.3823170333e-02 2.1330571276e+00 -3.6945633204e+00 2.1330571276e+00 3.6945633204e+00 
74500 5.7301428614e+00 -1.3705319248e-02 2.1333811583e+00 -3.6951245581e+00 2.1333811583e+00 3.6951245581e+00 
74600 5.7301025366e+00 -1.3588147394e-02 2.1337023776e+00 -3.6956809262e+00 2.1337023776e+00 3.6956809262e+00 
74700 5.7300626781e+00 -1.3471656937e-02 2.1340208026e+00 -3.6962324545e+00 2.1340208026e+00 3.6962324545e+00 
74800 5.7300232816e+00 -1.3355849908e-02 2.1343364506e+00 -3.6967791729e+00 2.1343364506e+00 3.6967791729e+00 
74900 5.7299843430e+00 -1.3240728205e-02 2.1346493389e+00 -3.6973211113e+00 2.1346493389e+00 3.6973211113e+00 
75000 5.7299458582e+00 -1.3126293600e-02 2.1349594846e+00 -3.6978582995e+00 2.1349594846e+00 3.6978582995e+00 
75100 5.7299078230e+00 -1.3012547733e-02 2.1352669052e+00 -3.6983907675e+00 2.1352669052e+00 3.6983907675e+00 
75200 5.7298702332e+00 -1.2899492118e-02 2.1355716179e+00 -3.6989185453e+00 2.1355716179e+00 3.6989185453e+00 
75300 5.7298330849e+00 -1.2787128147e-02 2.1358736400e+00 -3.6994416629e+00 2.1358736400e+00 3.6994416629e+00 
75400 5.7297963738e+00 -1.2675457087e-02 2.1361729888e+00 -3.6999601504e+00 2.1361729888e+00 3.6999601504e+00 
75500 5.7297600958e+00 -1.2564480084e-02 2.1364696818e+00 -3.7004740377e+00 2.1364696818e+00 3.7004740377e+00 
75600 5.7297242470e+00 -1.2454198166e-02 2.1367637362e+00 -3.7009833549e+00 2.1367637362e+00 3.7009833549e+00 
75700 5.7296888231e+00 -1.2344612242e-02 2.1370551695e+00 -3.7014881322e+00 2.1370551695e+00 3.7014881322e+00 
75800 5.7296538203e+00 -1.2235723107e-02 2.1373439990e+00 -3.7019883995e+00 2.1373439990e+00 3.7019883995e+00 
75900 5.7296192344e+00 -1.2127531442e-02 2.1376302420e+00 -3.7024841870e+00 2.1376302420e+00 3.7024841870e+00 
76000 5.7295850615e+00 -1.2020037815e-02 2.1379139159e+00 -3.7029755246e+00 2.1379139159e+00 3.7029755246e+00 
76100 5.7295512975e+00 -1.1913242685e-02 2.1381950381e+00 -3.7034624426e+00 2.1381950381e+00 3.7034624426e+00 
76200 5.7295179385e+00 -1.1807146401e-02 2.1384736260e+00 -3.7039449708e+00 2.1384736260e+00 3.7039449708e+00 
76300 5.7294849804e+00 -1.1701749207e-02 2.1387496967e+00 -3.7044231394e+00 2.1387496967e+00 3.7044231394e+00 
76400 5.7294524195e+00 -1.1597051242e-02 2.1390232677e+00 -3.7048969783e+00 2.1390232677e+00 3.7048969783e+00 
76500 5.7294202517e+00 -1.1493052542e-02 2.1392943563e+00 -3.7053665175e+00 2.1392943563e+00 3.7053665175e+00 
76600 5.7293884731e+00 -1.1389753040e-02 2.1395629798e+00 -3.7058317870e+00 2.1395629798e+00 3.7058317870e+00 
76700 5.7293570799e+00 -1.1287152572e-02 2.1398291554e+00 -3.7062928166e+00 2.1398291554e+00 3.7062928166e+00 
76800 5.7293260682e+00 -1.1185250875e-02 2.1400929004e+00 -3.7067496363e+00 2.1400929004e+00 3.7067496363e+00 
76900 5.7292954342e+00 -1.1084047589e-02 2.1403542320e+00 -3.7072022760e+00 2.1403542320e+00 3.7072022760e+00 
77000 5.7292651739e+00 -1.0983542263e-02 2.1406131674e+00 -3.7076507653e+00 2.1406131674e+00 3.7076507653e+00 
77100 5.7292352837e+00 -1.0883734349e-02 2.1408697238e+00 -3.7080951341e+00 2.1408697238e+00 3.7080951341e+00 
77200 5.7292057598e+00 -1.0784623213e-02 2.1411239184e+00 -3.7085354120e+00 2.1411239184e+00 3.7085354120e+00 
77300 5.7291765983e+00 -1.0686208129e-02 2.1413757683e+00 -3.7089716287e+00 2.1413757683e+00 3.7089716287e+00 
77400 5.7291477956e+00 -1.0588488283e-02 2.1416252905e+00 -3.7094038139e+00 2.1416252905e+00 3.7094038139e+00 
77500 5.7291193479e+00 -1.0491462779e-02 2.1418725021e+00 -3.7098319969e+00 2.1418725021e+00 3.7098319969e+00 
77600 5.7290912516e+00 -1.0395130632e-02 2.1421174201e+00 -3.7102562073e+00 2.1421174201e+00 3.7102562073e+00 
77700 5.7290635029e+00 -1.0299490780e-02 2.1423600614e+00 -3.7106764745e+00 2.1423600614e+00 3.7106764745e+00 
77800 5.7290360983e+00 -1.0204542077e-02 2.1426004432e+00 -3.7110928279e+00 2.1426004432e+00 3.7110928279e+00 
77900 5.7290090341e+00 -1.0110283299e-02 2.1428385821e+00 -3.7115052966e+00 2.1428385821e+00 3.7115052966e+00 
78000 5.7289823067e+00 -1.0016713145e-02 2.1430744951e+00 -3.7119139098e+00 2.1430744951e+00 3.7119139098e+00 
78100 5.7289559125e+00 -9.9238302382e-03 2.1433081989e+00 -3.7123186968e+00 2.1433081989e+00 3.7123186968e+00 
78200 5.7289298480e+00 -9.8316331272e-03 2.1435397104e+00 -3.7127196864e+00 2.1435397104e+00 3.7127196864e+00 
78300 5.7289041097e+00 -9.7401202890e-03 2.1437690462e+00 -3.7131169077e+00 2.1437690462e+00 3.7131169077e+00 
78400 5.7288786940e+00 -9.6492901294e-03 2.1439962230e+00 -3.7135103895e+00 2.1439962230e+00 3.7135103895e+00 
78500 5.7288535975e+00 -9.5591409852e-03 2.1442212574e+00 -3.7139001605e+00 2.1442212574e+00 3.7139001605e+00 
78600 5.7288288167e+00 -9.4696711254e-03 2.1444441660e+00 -3.7142862495e+00 2.1444441660e+00 3.7142862495e+00 
78700 5.7288043482e+00 -9.3808787530e-03 2.1446649653e+00 -3.7146686851e+00 2.1446649653e+00 3.7146686851e+00 
78800 5.7287801886e+00 -9.2927620062e-03 2.1448836716e+00 -3.7150474956e+00 2.1448836716e+00 3.7150474956e+00 
78900 5.7287563344e+00 -9.2053189605e-03 2.1451003015e+00 -3.7154227096e+00 2.1451003015e+00 3.7154227096e+00 
79000 5.7287327825e+00 -9.1185476296e-03 2.1453148713e+00 -3.7157943553e+00 2.1453148713e+00 3.7157943553e+00 
79100 5.7287095293e+00 -9.0324459676e-03 2.1455273972e+00 -3.7161624609e+00 2.1455273972e+00 3.7161624609e+00 
79200 5.7286865717e+00 -8.9470118696e-03 2.1457378954e+00 -3.7165270545e+00 2.1457378954e+00 3.7165270545e+00 
79300 5.7286639063e+00 -8.8622431740e-03 2.1459463821e+00 -3.7168881641e+00 2.1459463821e+00 3.7168881641e+00 
79400 5.7286415298e+00 -8.7781376635e-03 2.1461528734e+00 -3.7172458175e+00 2.1461528734e+00 3.7172458175e+00 
79500 5.7286194392e+00 -8.6946930666e-03 2.1463573853e+00 -3.7176000425e+00 2.1463573853e+00 3.7176000425e+00 
79600 5.7285976310e+00 -8.6119070591e-03 2.1465599338e+00 -3.7179508669e+00 2.1465599338e+00 3.7179508669e+00 
79700 5.7285761023e+00 -8.5297772656e-03 2.1467605348e+00 -3.7182983180e+00 2.1467605348e+00 3.7182983180e+00 
79800 5.7285548497e+00 -8.4483012607e-03 2.1469592041e+00 -3.7186424233e+00 2.1469592041e+00 3.7186424233e+00 
79900 5.7285338703e+00 -8.3674765704e-03 2.1471559575e+00 -3.7189832102e+00 2.1471559575e+00 3.7189832102e+00 
80000 5.7285131609e+00 -8.2873006736e-03 2.1473508107e+00 -3.7193207058e+00 2.1473508107e+00 3.7193207058e+00 
80100 5.7284927184e+00 -8.2077710034e-03 2.1475437793e+00 -3.7196549372e+00 2.1475437793e+00 3.7196549372e+00 
80200 5.7284725397e+00 -8.1288849484e-03 2.1477348788e+00 -3.7199859313e+00 2.1477348788e+00 3.7199859313e+00 
80300 5.7284526219e+00 -8.0506398539e-03 2.1479241248e+00 -3.7203137150e+00 2.1479241248e+00 3.7203137150e+00 
80400 5.7284329620e+00 -7.9730330235e-03 2.1481115327e+00 -3.7206383149e+00 2.1481115327e+00 3.7206383149e+00 
80500 5.7284135569e+00 -7.8960617202e-03 2.1482971177e+00 -3.7209597576e+00 2.1482971177e+00 3.7209597576e+00 
80600 5.7283944038e+00 -7.8197231674e-03 2.1484808952e+00 -3.7212780696e+00 2.1484808952e+00 3.7212780696e+00 
80700 5.7283754997e+00 -7.7440145509e-03 2.1486628804e+00 -3.7215932772e+00 2.1486628804e+00 3.7215932772e+00 
80800 5.7283568417e+00 -7.6689330192e-03 2.1488430884e+00 -3.7219054065e+00 2.1488430884e+00 3.7219054065e+00 
80900 5.7283384269e+00 -7.5944756856e-03 2.1490215341e+00 -3.7222144837e+00 2.1490215341e+00 3.7222144837e+00 
81000 5.7283202526e+00 -7.5206396286e-03 2.1491982327e+00 -3.7225205345e+00 2.1491982327e+00 3.7225205345e+00 
81100 5.7283023159e+00 -7.4474218936e-03 2.1493731989e+00 -3.7228235849e+00 2.1493731989e+00 3.7228235849e+00 
81200 5.7282846140e+00 -7.3748194942e-03 2.1495464476e+00 -3.7231236605e+00 2.1495464476e+00 3.7231236605e+00 
81300 5.7282671441e+00 -7.3028294128e-03 2.1497179935e+00 -3.7234207867e+00 2.1497179935e+00 3.7234207867e+00 
81400 5.7282499035e+00 -7.2314486021e-03 2.1498878512e+00 -3.7237149889e+00 2.1498878512e+00 3.7237149889e+00 
81500 5.7282328895e+00 -7.1606739862e-03 2.1500560354e+00 -3.7240062925e+00 2.1500560354e+00 3.7240062925e+00 
81600 5.7282160993e+00 -7.0905024616e-03 2.1502225605e+00 -3.7242947224e+00 2.1502225605e+00 3.7242947224e+00 
81700 5.7281995304e+00 -7.0209308985e-03 2.1503874410e+00 -3.7245803038e+00 2.1503874410e+00 3.7245803038e+00 
81800 5.7281831801e+00 -6.9519561416e-03 2.1505506911e+00 -3.7248630612e+00 2.1505506911e+00 3.7248630612e+00 
81900 5.7281670458e+00 -6.8835750112e-03 2.1507123251e+00 -3.7251430196e+00 2.1507123251e+00 3.7251430196e+00 
82000 5.7281511248e+00 -6.8157843045e-03 2.1508723572e+00 -3.7254202033e+00 2.1508723572e+00 3.7254202033e+00 
82100 5.7281354147e+00 -6.7485807964e-03 2.1510308015e+00 -3.7256946368e+00 2.1510308015e+00 3.7256946368e+00 
82200 5.7281199128e+00 -6.6819612404e-03 2.1511876719e+00 -3.7259663444e+00 2.1511876719e+00 3.7259663444e+00 
82300 5.7281046167e+00 -6.6159223700e-03 2.1513429825e+00 -3.7262353501e+00 2.1513429825e+00 3.7262353501e+00 
82400 5.7280895239e+00 -6.5504608993e-03 2.1514967469e+00 -3.7265016780e+00 2.1514967469e+00 3.7265016780e+00 
82500 5.7280746319e+00 -6.4855735239e-03 2.1516489790e+00 -3.7267653517e+00 2.1516489790e+00 3.7267653517e+00 
82600 5.7280599383e+00 -6.4212569224e-03 2.1517996925e+00 -3.7270263951e+00 2.1517996925e+00 3.7270263951e+00 
82700 5.7280454406e+00 -6.3575077566e-03 2.1519489009e+00 -3.7272848316e+00 2.1519489009e+00 3.7272848316e+00 
82800 5.7280311364e+00 -6.2943226730e-03 2.1520966177e+00 -3.7275406846e+00 2.1520966177e+00 3.7275406846e+00 
82900 5.7280170235e+00 -6.2316983034e-03 2.1522428563e+00 -3.7277939774e+00 2.1522428563e+00 3.7277939774e+00 
83000 5.7280030994e+00 -6.1696312659e-03 2.1523876301e+00 -3.7280447330e+00 2.1523876301e+00 3.7280447330e+00 
83100 5.7279893618e+00 -6.1081181656e-03 2.1525309524e+00 -3.7282929744e+00 2.1525309524e+00 3.7282929744e+00 
83200 5.7279758084e+00 -6.0471555956e-03 2.1526728362e+00 -3.7285387243e+00 2.1526728362e+00 3.7285387243e+00 
83300 5.7279624370e+00 -5.9867401379e-03 2.1528132946e+00 -3.7287820055e+00 2.1528132946e+00 3.7287820055e+00 
83400 5.7279492453e+00 -5.9268683640e-03 2.1529523407e+00 -3.7290228403e+00 2.1529523407e+00 3.7290228403e+00 
83500 5.7279362311e+00 -5.8675368361e-03 2.1530899873e+00 -3.7292612512e+00 2.1530899873e+00 3.7292612512e+00 
83600 5.7279233921e+00 -5.8087421072e-03 2.1532262472e+00 -3.7294972604e+00 2.1532262472e+00 3.7294972604e+00 
83700 5.7279107263e+00 -5.7504807226e-03 2.1533611333e+00 -3.7297308898e+00 2.1533611333e+00 3.7297308898e+00 
83800 5.7278982313e+00 -5.6927492204e-03 2.1534946580e+00 -3.7299621615e+00 2.1534946580e+00 3.7299621615e+00 
83900 5.7278859052e+00 -5.6355441321e-03 2.1536268340e+00 -3.7301910971e+00 2.1536268340e+00 3.7301910971e+00 
84000 5.7278737458e+00 -5.5788619834e-03 2.1537576738e+00 -3.7304177182e+00 2.1537576738e+00 3.7304177182e+00 
84100 5.7278617509e+00 -5.5226992950e-03 2.1538871897e+00 -3.7306420464e+00 2.1538871897e+00 3.7306420464e+00 
84200 5.7278499186e+00 -5.4670525834e-03 2.1540153941e+00 -3.7308641028e+00 2.1540153941e+00 3.7308641028e+00 
84300 5.7278382468e+00 -5.4119183614e-03 2.1541422991e+00 -3.7310839087e+00 2.1541422991e+00 3.7310839087e+00 
84400 5.7278267334e+00 -5.3572931387e-03 2.1542679168e+00 -3.7313014851e+00 2.1542679168e+00 3.7313014851e+00 
84500 5.7278153765e+00 -5.3031734229e-03 2.1543922594e+00 -3.7315168527e+00 2.1543922594e+00 3.7315168527e+00 
84600 5.7278041741e+00 -5.2495557198e-03 2.1545153388e+00 -3.7317300324e+00 2.1545153388e+00 3.7317300324e+00 
84700 5.7277931242e+00 -5.1964365344e-03 2.1546371667e+00 -3.7319410447e+00 2.1546371667e+00 3.7319410447e+00 
84800 5.7277822249e+00 -5.1438123710e-03 2.1547577551e+00 -3.7321499099e+00 2.1547577551e+00 3.7321499099e+00 
84900 5.7277714742e+00 -5.0916797344e-03 2.1548771157e+00 -3.7323566484e+00 2.1548771157e+00 3.7323566484e+00 
85000 5.7277608704e+00 -5.0400351301e-03 2.1549952599e+00 -3.7325612802e+00 2.1549952599e+00 3.7325612802e+00 
85100 5.7277504114e+00 -4.9888750650e-03 2.1551121994e+00 -3.7327638253e+00 2.1551121994e+00 3.7327638253e+00 
85200 5.7277400955e+00 -4.9381960481e-03 2.1552279456e+00 -3.7329643036e+00 2.1552279456e+00 3.7329643036e+00 
85300 5.7277299209e+00 -4.8879945907e-03 2.1553425098e+00 -3.7331627346e+00 2.1553425098e+00 3.7331627346e+00 
85400 5.7277198856e+00 -4.8382672073e-03 2.1554559033e+00 -3.7333591380e+00 2.1554559033e+00 3.7333591380e+00 
85500 5.7277099880e+00 -4.7890104161e-03 2.1555681373e+00 -3.7335535330e+00 2.1555681373e+00 3.7335535330e+00 
85600 5.7277002262e+00 -4.7402207394e-03 2.1556792229e+00 -3.7337459389e+00 2.1556792229e+00 3.7337459389e+00 
85700 5.7276905985e+00 -4.6918947039e-03 2.1557891711e+00 -3.7339363747e+00 2.1557891711e+00 3.7339363747e+00 
85800 5.7276811032e+00 -4.6440288418e-03 2.1558979928e+00 -3.7341248595e+00 2.1558979928e+00 3.7341248595e+00 
85900 5.7276717385e+00 -4.5966196906e-03 2.1560056989e+00 -3.7343114120e+00 2.1560056989e+00 3.7343114120e+00 
86000 5.7276625029e+00 -4.5496637942e-03 2.1561123002e+00 -3.7344960507e+00 2.1561123002e+00 3.7344960507e+00 
86100 5.7276533945e+00 -4.5031577027e-03 2.1562178072e+00 -3.7346787943e+00 2.1562178072e+00 3.7346787943e+00 
86200 5.7276444118e+00 -4.4570979736e-03 2.1563222307e+00 -3.7348596610e+00 2.1563222307e+00 3.7348596610e+00 
86300 5.7276355530e+00 -4.4114811715e-03 2.1564255810e+00 -3.7350386691e+00 2.1564255810e+00 3.7350386691e+00 
86400 5.7276268167e+00 -4.3663038691e-03 2.1565278687e+00 -3.7352158366e+00 2.1565278687e+00 3.7352158366e+00 
86500 5.7276182012e+00 -4.3215626472e-03 2.1566291041e+00 -3.7353911814e+00 2.1566291041e+00 3.7353911814e+00 
86600 5.7276097049e+00 -4.2772540955e-03 2.1567292974e+00 -3.7355647213e+00 2.1567292974e+00 3.7355647213e+00 
86700 5.7276013263e+00 -4.2333748127e-03 2.1568284588e+00 -3.7357364739e+00 2.1568284588e+00 3.7357364739e+00 
86800 5.7275930638e+00 -4.1899214069e-03 2.1569265985e+00 -3.7359064567e+00 2.1569265985e+00 3.7359064567e+00 
86900 5.7275849159e+00 -4.1468904962e-03 2.1570237263e+00 -3.7360746871e+00 2.1570237263e+00 3.7360746871e+00 
87000 5.7275768811e+00 -4.1042787087e-03 2.1571198523e+00 -3.7362411822e+00 2.1571198523e+00 3.7362411822e+00 
87100 5.7275689580e+00 -4.0620826833e-03 2.1572149863e+00 -3.7364059591e+00 2.1572149863e+00 3.7364059591e+00 
87200 5.7275611449e+00 -4.0202990696e-03 2.1573091381e+00 -3.7365690348e+00 2.1573091381e+00 3.7365690348e+00 
87300 5.7275534406e+00 -3.9789245287e-03 2.1574023173e+00 -3.7367304259e+00 2.1574023173e+00 3.7367304259e+00 
87400 5.7275458435e+00 -3.9379557330e-03 2.1574945336e+00 -3.7368901492e+00 2.1574945336e+00 3.7368901492e+00 
87500 5.7275383523e+00 -3.8973893668e-03 2.1575857965e+00 -3.7370482212e+00 2.1575857965e+00 3.7370482212e+00 
87600 5.7275309655e+00 -3.8572221269e-03 2.1576761154e+00 -3.7372046582e+00 2.1576761154e+00 3.7372046582e+00 
87700 5.7275236818e+00 -3.8174507223e-03 2.1577654997e+00 -3.7373594764e+00 2.1577654997e+00 3.7373594764e+00 
87800 5.7275164997e+00 -3.7780718748e-03 2.1578539588e+00 -3.7375126919e+00 2.1578539588e+00 3.7375126919e+00 
87900 5.7275094180e+00 -3.7390823192e-03 2.1579415017e+00 -3.7376643207e+00 2.1579415017e+00 3.7376643207e+00 
88000 5.7275024353e+00 -3.7004788039e-03 2.1580281377e+00 -3.7378143786e+00 2.1580281377e+00 3.7378143786e+00 
88100 5.7274955503e+00 -3.6622580906e-03 2.1581138758e+00 -3.7379628813e+00 2.1581138758e+00 3.7379628813e+00 
88200 5.7274887617e+00 -3.6244169549e-03 2.1581987249e+00 -3.7381098443e+00 2.1581987249e+00 3.7381098443e+00 
88300 5.7274820682e+00 -3.5869521865e-03 2.1582826940e+00 -3.7382552831e+00 2.1582826940e+00 3.7382552831e+00 
88400 5.7274754685e+00 -3.5498605895e-03 2.1583657919e+00 -3.7383992129e+00 2.1583657919e+00 3.7383992129e+00 
88500 5.7274689614e+00 -3.5131389822e-03 2.1584480273e+00 -3.7385416488e+00 2.1584480273e+00 3.7385416488e+00 
88600 5.7274625456e+00 -3.4767841982e-03 2.1585294090e+00 -3.7386826060e+00 2.1585294090e+00 3.7386826060e+00 
88700 5.7274562200e+00 -3.4407930855e-03 2.1586099454e+00 -3.7388220992e+00 2.1586099454e+00 3.7388220992e+00 
88800 5.7274499832e+00 -3.4051625076e-03 2.1586896452e+00 -3.7389601433e+00 2.1586896452e+00 3.7389601433e+00 
88900 5.7274438341e+00 -3.3698893433e-03 2.1587685167e+00 -3.7390967528e+00 2.1587685167e+00 3.7390967528e+00 
89000 5.7274377716e+00 -3.3349704871e-03 2.1588465684e+00 -3.7392319422e+00 2.1588465684e+00 3.7392319422e+00 
89100 5.7274317945e+00 -3.3004028488e-03 2.1589238085e+00 -3.7393657260e+00 2.1589238085e+00 3.7393657260e+00 
89200 5.7274259015e+00 -3.2661833546e-03 2.1590002452e+00 -3.7394981183e+00 2.1590002452e+00 3.7394981183e+00 
89300 5.7274200917e+00 -3.2323089464e-03 2.1590758868e+00 -3.7396291333e+00 2.1590758868e+00 3.7396291333e+00 
89400 5.7274143638e+00 -3.1987765827e-03 2.1591507412e+00 -3.7397587850e+00 2.1591507412e+00 3.7397587850e+00 
89500 5.7274087167e+00 -3.1655832380e-03 2.1592248165e+00 -3.7398870872e+00 2.1592248165e+00 3.7398870872e+00 
89600 5.7274031494e+00 -3.1327259036e-03 2.1592981206e+00 -3.7400140536e+00 2.1592981206e+00 3.7400140536e+00 
89700 5.7273976608e+00 -3.1002015873e-03 2.1593706614e+00 -3.7401396979e+00 2.1593706614e+00 3.7401396979e+00 
89800 5.7273922498e+00 -3.0680073139e-03 2.1594424467e+00 -3.7402640336e+00 2.1594424467e+00 3.7402640336e+00 
89900 5.7273869153e+00 -3.0361401249e-03 2.1595134841e+00 -3.7403870740e+00 2.1595134841e+00 3.7403870740e+00 
90000 5.7273816564e+00 -3.0045970791e-03 2.1595837813e+00 -3.7405088324e+00 2.1595837813e+00 3.7405088324e+00 
90100 5.7273764719e+00 -2.9733752522e-03 2.1596533459e+00 -3.7406293219e+00 2.1596533459e+00 3.7406293219e+00 
90200 5.7273713609e+00 -2.9424717374e-03 2.1597221855e+00 -3.7407485555e+00 2.1597221855e+00 3.7407485555e+00 
90300 5.7273663224e+00 -2.9118836452e-03 2.1597903074e+00 -3.7408665461e+00 2.1597903074e+00 3.7408665461e+00 
90400 5.7273613554e+00 -2.8816081034e-03 2.1598577190e+00 -3.7409833064e+00 2.1598577190e+00 3.7409833064e+00 
90500 5.7273564588e+00 -2.8516422577e-03 2.1599244276e+00 -3.7410988491e+00 2.1599244276e+00 3.7410988491e+00 
90600 5.7273516318e+00 -2.8219832712e-03 2.1599904405e+00 -3.7412131868e+00 2.1599904405e+00 3.7412131868e+00 
90700 5.7273468735e+00 -2.7926283247e-03 2.1600557648e+00 -3.7413263318e+00 2.1600557648e+00 3.7413263318e+00 
90800 5.7273421827e+00 -2.7635746170e-03 2.1601204076e+00 -3.7414382965e+00 2.1601204076e+00 3.7414382965e+00 
90900 5.7273375587e+00 -2.7348193646e-03 2.1601843760e+00 -3.7415490930e+00 2.1601843760e+00 3.7415490930e+00 
91000 5.7273330005e+00 -2.7063598021e-03 2.1602476769e+00 -3.7416587334e+00 2.1602476769e+00 3.7416587334e+00 
91100 5.7273285072e+00 -2.6781931818e-03 2.1603103173e+00 -3.7417672296e+00 2.1603103173e+00 3.7417672296e+00 
91200 5.7273240780e+00 -2.6503167744e-03 2.1603723039e+00 -3.7418745936e+00 2.1603723039e+00 3.7418745936e+00 
91300 5.7273197118e+00 -2.6227278686e-03 2.1604336435e+00 -3.7419808369e+00 2.1604336435e+00 3.7419808369e+00 
91400 5.7273154080e+00 -2.5954237710e-03 2.1604943429e+00 -3.7420859714e+00 2.1604943429e+00 3.7420859714e+00 
91500 5.7273111655e+00 -2.5684018066e-03 2.1605544087e+00 -3.7421900084e+00 2.1605544087e+00 3.7421900084e+00 
91600 5.7273069836e+00 -2.5416593187e-03 2.1606138474e+00 -3.7422929593e+00 2.1606138474e+00 3.7422929593e+00 
91700 5.7273028615e+00 -2.5151936687e-03 2.1606726657e+00 -3.7423948355e+00 2.1606726657e+00 3.7423948355e+00 
91800 5.7272987982e+00 -2.4890022363e-03 2.1607308699e+00 -3.7424956482e+00 2.1607308699e+00 3.7424956482e+00 
91900 5.7272947931e+00 -2.4630824194e-03 2.1607884665e+00 -3.7425954083e+00 2.1607884665e+00 3.7425954083e+00 
92000 5.7272908452e+00 -2.4374316345e-03 2.1608454617e+00 -3.7426941270e+00 2.1608454617e+00 3.7426941270e+00 
92100 5.7272869538e+00 -2.4120473162e-03 2.1609018619e+00 -3.7427918150e+00 2.1609018619e+00 3.7427918150e+00 
92200 5.7272831182e+00 -2.3869269175e-03 2.1609576733e+00 -3.7428884831e+00 2.1609576733e+00 3.7428884831e+00 
92300 5.7272793375e+00 -2.3620679097e-03 2.1610129020e+00 -3.7429841420e+00 2.1610129020e+00 3.7429841420e+00 
92400 5.7272756109e+00 -2.3374677827e-03 2.1610675541e+00 -3.7430788022e+00 2.1610675541e+00 3.7430788022e+00 
92500 5.7272719378e+00 -2.3131240444e-03 2.1611216356e+00 -3.7431724742e+00 2.1611216356e+00 3.7431724742e+00 
92600 5.7272683174e+00 -2.2890342213e-03 2.1611751526e+00 -3.7432651683e+00 2.1611751526e+00 3.7432651683e+00 
92700 5.7272647489e+00 -2.2651958581e-03 2.1612281109e+00 -3.7433568948e+00 2.1612281109e+00 3.7433568948e+00 
92800 5.7272612316e+00 -2.2416065180e-03 2.1612805164e+00 -3.7434476638e+00 2.1612805164e+00 3.7434476638e+00 
92900 5.7272577649e+00 -2.2182637824e-03 2.1613323749e+00 -3.7435374854e+00 2.1613323749e+00 3.7435374854e+00 
93000 5.7272543480e+00 -2.1951652510e-03 2.1613836921e+00 -3.7436263694e+00 2.1613836921e+00 3.7436263694e+00 
93100 5.7272509802e+00 -2.1723085418e-03 2.1614344738e+00 -3.7437143259e+00 2.1614344738e+00 3.7437143259e+00 
93200 5.7272476608e+00 -2.1496912910e-03 2.1614847256e+00 -3.7438013645e+00 2.1614847256e+00 3.7438013645e+00 
93300 5.7272443892e+00 -2.1273111532e-03 2.1615344529e+00 -3.7438874948e+00 2.1615344529e+00 3.7438874948e+00 
93400 5.7272411646e+00 -2.1051658011e-03 2.1615836615e+00 -3.7439727265e+00 2.1615836615e+00 3.7439727265e+00 
93500 5.7272379865e+00 -2.0832529255e-03 2.1616323567e+00 -3.7440570690e+00 2.1616323567e+00 3.7440570690e+00 
93600 5.7272348542e+00 -2.0615702354e-03 2.1616805439e+00 -3.7441405317e+00 2.1616805439e+00 3.7441405317e+00 
93700 5.7272317670e+00 -2.0401154580e-03 2.1617282285e+00 -3.7442231239e+00 2.1617282285e+00 3.7442231239e+00 
93800 5.7272287244e+00 -2.0188863384e-03 2.1617754158e+00 -3.7443048547e+00 2.1617754158e+00 3.7443048547e+00 
93900 5.7272257256e+00 -1.9978806397e-03 2.1618221111e+00 -3.7443857333e+00 2.1618221111e+00 3.7443857333e+00 
94000 5.7272227701e+00 -1.9770961432e-03 2.1618683195e+00 -3.7444657686e+00 2.1618683195e+00 3.7444657686e+00 
94100 5.7272198572e+00 -1.9565306479e-03 2.1619140462e+00 -3.7445449696e+00 2.1619140462e+00 3.7445449696e+00 
94200 5.7272169864e+00 -1.9361819707e-03 2.1619592963e+00 -3.7446233451e+00 2.1619592963e+00 3.7446233451e+00 
94300 5.7272141571e+00 -1.9160479464e-03 2.1620040749e+00 -3.7447009039e+00 2.1620040749e+00 3.7447009039e+00 
94400 5.7272113686e+00 -1.8961264277e-03 2.1620483869e+00 -3.7447776545e+00 2.1620483869e+00 3.7447776545e+00 
94500 5.7272086205e+00 -1.8764152846e-03 2.1620922373e+00 -3.7448536056e+00 2.1620922373e+00 3.7448536056e+00 
94600 5.7272059121e+00 -1.8569124052e-03 2.1621356309e+00 -3.7449287656e+00 2.1621356309e+00 3.7449287656e+00 
94700 5.7272032429e+00 -1.8376156949e-03 2.1621785727e+00 -3.7450031429e+00 2.1621785727e+00 3.7450031429e+00 
94800 5.7272006123e+00 -1.8185230767e-03 2.1622210674e+00 -3.7450767459e+00 2.1622210674e+00 3.7450767459e+00 
94900 5.7271980198e+00 -1.7996324912e-03 2.1622631197e+00 -3.7451495827e+00 2.1622631197e+00 3.7451495827e+00 
95000 5.7271954649e+00 -1.7809418963e-03 2.1623047344e+00 -3.7452216614e+00 2.1623047344e+00 3.7452216614e+00 
95100 5.7271929470e+00 -1.7624492672e-03 2.1623459161e+00 -3.7452929902e+00 2.1623459161e+00 3.7452929902e+00 
95200 5.7271904656e+00 -1.7441525964e-03 2.1623866694e+00 -3.7453635770e+00 2.1623866694e+00 3.7453635770e+00 
95300 5.7271880201e+00 -1.7260498936e-03 2.1624269989e+00 -3.7454334297e+00 2.1624269989e+00 3.7454334297e+00 
95400 5.7271856101e+00 -1.7081391857e-03 2.1624669090e+00 -3.7455025561e+00 2.1624669090e+00 3.7455025561e+00 
95500 5.7271832351e+00 -1.6904185164e-03 2.1625064043e+00 -3.7455709639e+00 2.1625064043e+00 3.7455709639e+00 
95600 5.7271808946e+00 -1.6728859467e-03 2.1625454891e+00 -3.7456386608e+00 2.1625454891e+00 3.7456386608e+00 
95700 5.7271785881e+00 -1.6555395543e-03 2.1625841678e+00 -3.7457056544e+00 2.1625841678e+00 3.7457056544e+00 
95800 5.7271763150e+00 -1.6383774338e-03 2.1626224448e+00 -3.7457719521e+00 2.1626224448e+00 3.7457719521e+00 
95900 5.7271740750e+00 -1.6213976964e-03 2.1626603244e+00 -3.7458375613e+00 2.1626603244e+00 3.7458375613e+00 
96000 5.7271718675e+00 -1.6045984701e-03 2.1626978107e+00 -3.7459024895e+00 2.1626978107e+00 3.7459024895e+00 
96100 5.7271696921e+00 -1.5879778995e-03 2.1627349079e+00 -3.7459667438e+00 2.1627349079e+00 3.7459667438e+00 
96200 5.7271675484e+00 -1.5715341455e-03 2.1627716203e+00 -3.7460303315e+00 2.1627716203e+00 3.7460303315e+00 
96300 5.7271654359e+00 -1.5552653857e-03 2.1628079519e+00 -3.7460932597e+00 2.1628079519e+00 3.7460932597e+00 
96400 5.7271633541e+00 -1.5391698138e-03 2.1628439067e+00 -3.7461555353e+00 2.1628439067e+00 3.7461555353e+00 
96500 5.7271613026e+00 -1.5232456397e-03 2.1628794889e+00 -3.7462171655e+00 2.1628794889e+00 3.7462171655e+00 
96600 5.7271592810e+00 -1.5074910897e-03 2.1629147024e+00 -3.7462781570e+00 2.1629147024e+00 3.7462781570e+00 
96700 5.7271572888e+00 -1.4919044060e-03 2.1629495511e+00 -3.7463385167e+00 2.1629495511e+00 3.7463385167e+00 
96800 5.7271553257e+00 -1.4764838467e-03 2.1629840389e+00 -3.7463982514e+00 2.1629840389e+00 3.7463982514e+00 
96900 5.7271533912e+00 -1.4612276859e-03 2.1630181697e+00 -3.7464573676e+00 2.1630181697e+00 3.7464573676e+00 
97000 5.7271514849e+00 -1.4461342136e-03 2.1630519473e+00 -3.7465158722e+00 2.1630519473e+00 3.7465158722e+00 
97100 5.7271496064e+00 -1.4312017352e-03 2.1630853755e+00 -3.7465737715e+00 2.1630853755e+00 3.7465737715e+00 
97200 5.7271477553e+00 -1.4164285720e-03 2.1631184580e+00 -3.7466310720e+00 2.1631184580e+00 3.7466310720e+00 
97300 5.7271459312e+00 -1.4018130606e-03 2.1631511985e+00 -3.7466877803e+00 2.1631511985e+00 3.7466877803e+00 
97400 5.7271441338e+00 -1.3873535533e-03 2.1631836007e+00 -3.7467439025e+00 2.1631836007e+00 3.7467439025e+00 
97500 5.7271423626e+00 -1.3730484173e-03 2.1632156682e+00 -3.7467994450e+00 2.1632156682e+00 3.7467994450e+00 
97600 5.7271406173e+00 -1.3588960355e-03 2.1632474045e+00 -3.7468544140e+00 2.1632474045e+00 3.7468544140e+00 
97700 5.7271388975e+00 -1.3448948056e-03 2.1632788133e+00 -3.7469088156e+00 2.1632788133e+00 3.7469088156e+00 
97800 5.7271372028e+00 -1.3310431406e-03 2.1633098980e+00 -3.7469626559e+00 2.1633098980e+00 3.7469626559e+00 
97900 5.7271355329e+00 -1.3173394682e-03 2.1633406622e+00 -3.7470159409e+00 2.1633406622e+00 3.7470159409e+00 
98000 5.7271338874e+00 -1.3037822311e-03 2.1633711091e+00 -3.7470686766e+00 2.1633711091e+00 3.7470686766e+00 
98100 5.7271322660e+00 -1.2903698868e-03 2.1634012423e+00 -3.7471208688e+00 2.1634012423e+00 3.7471208688e+00 
98200 5.7271306683e+00 -1.2771009073e-03 2.1634310651e+00 -3.7471725234e+00 2.1634310651e+00 3.7471725234e+00 
98300 5.7271290940e+00 -1.2639737793e-03 2.1634605808e+00 -3.7472236461e+00 2.1634605808e+00 3.7472236461e+00 
98400 5.7271275428e+00 -1.2509870039e-03 2.1634897927e+00 -3.7472742426e+00 2.1634897927e+00 3.7472742426e+00 
98500 5.7271260143e+00 -1.2381390965e-03 2.1635187041e+00 -3.7473243186e+00 2.1635187041e+00 3.7473243186e+00 
98600 5.7271245081e+00 -1.2254285869e-03 2.1635473182e+00 -3.7473738796e+00 2.1635473182e+00 3.7473738796e+00 
98700 5.7271230241e+00 -1.2128540189e-03 2.1635756381e+00 -3.7474229312e+00 2.1635756381e+00 3.7474229312e+00 
98800 5.7271215618e+00 -1.2004139505e-03 2.1636036671e+00 -3.7474714789e+00 2.1636036671e+00 3.7474714789e+00 
98900 5.7271201209e+00 -1.1881069537e-03 2.1636314082e+00 -3.7475195279e+00 2.1636314082e+00 3.7475195279e+00 
99000 5.7271187012e+00 -1.1759316142e-03 2.1636588646e+00 -3.7475670837e+00 2.1636588646e+00 3.7475670837e+00 
99100 5.7271173022e+00 -1.1638865316e-03 2.1636860393e+00 -3.7476141516e+00 2.1636860393e+00 3.7476141516e+00 
99200 5.7271159239e+00 -1.1519703191e-03 2.1637129352e+00 -3.7476607368e+00 2.1637129352e+00 3.7476607368e+00 
99300 5.7271145657e+00 -1.1401816035e-03 2.1637395555e+00 -3.7477068445e+00 2.1637395555e+00 3.7477068445e+00 
99400 5.7271132275e+00 -1.1285190251e-03 2.1637659031e+00 -3.7477524798e+00 2.1637659031e+00 3.7477524798e+00 
99500 5.7271119089e+00 -1.1169812375e-03 2.1637919808e+00 -3.7477976477e+00 2.1637919808e+00 3.7477976477e+00 
99600 5.7271106097e+00 -1.1055669075e-03 2.1638177916e+00 -3.7478423533e+00 2.1638177916e+00 3.7478423533e+00 
99700 5.7271093296e+00 -1.0942747153e-03 2.1638433383e+00 -3.7478866015e+00 2.1638433383e+00 3.7478866015e+00 
99800 5.7271080683e+00 -1.0831033539e-03 2.1638686238e+00 -3.7479303973e+00 2.1638686238e+00 3.7479303973e+00 
99900 5.7271068256e+00 -1.0720515295e-03 2.1638936508e+00 -3.7479737454e+00 2.1638936508e+00 3.7479737454e+00 
100000 5.7271056011e+00 -1.0611179611e-03 2.1639184222e+00 -3.7480166507e+00 2.1639184222e+00 3.7480166507e+00 
100100 5.7271043946e+00 -1.0503013803e-03 2.1639429407e+00 -3.7480591180e+00 2.1639429407e+00 3.7480591180e+00 
100200 5.7271032059e+00 -1.0396005316e-03 2.1639672090e+00 -3.7481011519e+00 2.1639672090e+00 3.7481011519e+00 
100300 5.7271020346e+00 -1.0290141719e-03 2.1639912297e+00 -3.7481427570e+00 2.1639912297e+00 3.7481427570e+00 
100400 5.7271008806e+00 -1.0185410706e-03 2.1640150056e+00 -3.7481839381e+00 2.1640150056e+00 3.7481839381e+00 
100500 5.7270997436e+00 -1.0081800097e-03 2.1640385393e+00 -3.7482246995e+00 2.1640385393e+00 3.7482246995e+00 
100600 5.7270986233e+00 -9.9792978312e-04 2.1640618333e+00 -3.7482650459e+00 2.1640618333e+00 3.7482650459e+00 
100700 5.7270975196e+00 -9.8778919716e-04 2.1640848902e+00 -3.7483049817e+00 2.1640848902e+00 3.7483049817e+00 
100800 5.7270964320e+00 -9.7775707013e-04 2.1641077125e+00 -3.7483445112e+00 2.1641077125e+00 3.7483445112e+00 
100900 5.7270953605e+00 -9.6783223236e-04 2.1641303029e+00 -3.7483836388e+00 2.1641303029e+00 3.7483836388e+00 
101000 5.7270943048e+00 -9.5801352601e-04 2.1641526637e+00 -3.7484223688e+00 2.1641526637e+00 3.7484223688e+00 
101100 5.7270932647e+00 -9.4829980505e-04 2.1641747974e+00 -3.7484607056e+00 2.1641747974e+00 3.7484607056e+00 
101200 5.7270922399e+00 -9.3868993512e-04 2.1641967065e+00 -3.7484986532e+00 2.1641967065e+00 3.7484986532e+00 
101300 5.7270912302e+00 -9.2918279344e-04 2.1642183933e+00 -3.7485362159e+00 2.1642183933e+00 3.7485362159e+00 
101400 5.7270902354e+00 -9.1977726873e-04 2.1642398603e+00 -3.7485733978e+00 2.1642398603e+00 3.7485733978e+00 
101500 5.7270892553e+00 -9.1047226109e-04 2.1642611098e+00 -3.7486102029e+00 2.1642611098e+00 3.7486102029e+00 
101600 5.7270882896e+00 -9.0126668191e-04 2.1642821440e+00 -3.7486466354e+00 2.1642821440e+00 3.7486466354e+00 
101700 5.7270873382e+00 -8.9215945380e-04 2.1643029655e+00 -3.7486826991e+00 2.1643029655e+00 3.7486826991e+00 
101800 5.7270864009e+00 -8.8314951045e-04 2.1643235763e+00 -3.7487183981e+00 2.1643235763e+00 3.7487183981e+00 
101900 5.7270854773e+00 -8.7423579656e-04 2.1643439787e+00 -3.7487537362e+00 2.1643439787e+00 3.7487537362e+00 
102000 5.7270845675e+00 -8.6541726775e-04 2.1643641751e+00 -3.7487887173e+00 2.1643641751e+00 3.7487887173e+00 
102100 5.7270836710e+00 -8.5669289045e-04 2.1643841675e+00 -3.7488233453e+00 2.1643841675e+00 3.7488233453e+00 
102200 5.7270827878e+00 -8.4806164182e-04 2.1644039582e+00 -3.7488576238e+00 2.1644039582e+00 3.7488576238e+00 
102300 5.7270819177e+00 -8.3952250964e-04 2.1644235494e+00 -3.7488915566e+00 2.1644235494e+00 3.7488915566e+00 
102400 5.7270810604e+00 -8.3107449222e-04 2.1644429431e+00 -3.7489251475e+00 2.1644429431e+00 3.7489251475e+00 
102500 5.7270802158e+00 -8.2271659833e-04 2.1644621415e+00 -3.7489584001e+00 2.1644621415e+00 3.7489584001e+00 
102600 5.7270793837e+00 -8.1444784708e-04 2.1644811466e+00 -3.7489913179e+00 2.1644811466e+00 3.7489913179e+00 
102700 5.7270785639e+00 -8.0626726783e-04 2.1644999606e+00 -3.7490239047e+00 2.1644999606e+00 3.7490239047e+00 
102800 5.7270777562e+00 -7.9817390011e-04 2.1645185854e+00 -3.7490561638e+00 2.1645185854e+00 3.7490561638e+00 
102900 5.7270769605e+00 -7.9016679352e-04 2.1645370231e+00 -3.7490880988e+00 2.1645370231e+00 3.7490880988e+00 
103000 5.7270761766e+00 -7.8224500766e-04 2.1645552757e+00 -3.7491197132e+00 2.1645552757e+00 3.7491197132e+00 
103100 5.7270754042e+00 -7.7440761199e-04 2.1645733451e+00 -3.7491510104e+00 2.1645733451e+00 3.7491510104e+00 
103200 5.7270746433e+00 -7.6665368581e-04 2.1645912334e+00 -3.7491819938e+00 2.1645912334e+00 3.7491819938e+00 
103300 5.7270738936e+00 -7.5898231811e-04 2.1646089424e+00 -3.7492126667e+00 2.1646089424e+00 3.7492126667e+00 
103400 5.7270731551e+00 -7.5139260750e-04 2.1646264740e+00 -3.7492430324e+00 2.1646264740e+00 3.7492430324e+00 
103500 5.7270724275e+00 -7.4388366213e-04 2.1646438302e+00 -3.7492730942e+00 2.1646438302e+00 3.7492730942e+00 
103600 5.7270717107e+00 -7.3645459961e-04 2.1646610128e+00 -3.7493028553e+00 2.1646610128e+00 3.7493028553e+00 
103700 5.7270710045e+00 -7.2910454688e-04 2.1646780237e+00 -3.7493323190e+00 2.1646780237e+00 3.7493323190e+00 
103800 5.7270703088e+00 -7.2183264019e-04 2.1646948647e+00 -3.7493614885e+00 2.1646948647e+00 3.7493614885e+00 
103900 5.7270696233e+00 -7.1463802495e-04 2.1647115375e+00 -3.7493903667e+00 2.1647115375e+00 3.7493903667e+00 
104000 5.7270689481e+00 -7.0751985566e-04 2.1647280441e+00 -3.7494189569e+00 2.1647280441e+00 3.7494189569e+00 
104100 5.7270682828e+00 -7.0047729587e-04 2.1647443861e+00 -3.7494472621e+00 2.1647443861e+00 3.7494472621e+00 
104200 5.7270676275e+00 -6.9350951801e-04 2.1647605653e+00 -3.7494752854e+00 2.1647605653e+00 3.7494752854e+00 
104300 5.7270669818e+00 -6.8661570341e-04 2.1647765835e+00 -3.7495030297e+00 2.1647765835e+00 3.7495030297e+00 
104400 5.7270663457e+00 -6.7979504211e-04 2.1647924424e+00 -3.7495304980e+00 2.1647924424e+00 3.7495304980e+00 
104500 5.7270657191e+00 -6.7304673286e-04 2.1648081435e+00 -3.7495576932e+00 2.1648081435e+00 3.7495576932e+00 
104600 5.7270651018e+00 -6.6636998298e-04 2.1648236887e+00 -3.7495846183e+00 2.1648236887e+00 3.7495846183e+00 
104700 5.7270644936e+00 -6.5976400833e-04 2.1648390796e+00 -3.7496112761e+00 2.1648390796e+00 3.7496112761e+00 
104800 5.7270638945e+00 -6.5322803316e-04 2.1648543178e+00 -3.7496376694e+00 2.1648543178e+00 3.7496376694e+00 
104900 5.7270633042e+00 -6.4676129010e-04 2.1648694049e+00 -3.7496638011e+00 2.1648694049e+00 3.7496638011e+00 
105000 5.7270627228e+00 -6.4036302004e-04 2.1648843426e+00 -3.7496896739e+00 2.1648843426e+00 3.7496896739e+00 
105100 5.7270621499e+00 -6.3403247206e-04 2.1648991324e+00 -3.7497152906e+00 2.1648991324e+00 3.7497152906e+00 
105200 5.7270615856e+00 -6.2776890332e-04 2.1649137759e+00 -3.7497406538e+00 2.1649137759e+00 3.7497406538e+00 
105300 5.7270610297e+00 -6.2157157904e-04 2.1649282746e+00 -3.7497657663e+00 2.1649282746e+00 3.7497657663e+00 
105400 5.7270604820e+00 -6.1543977239e-04 2.1649426301e+00 -3.7497906308e+00 2.1649426301e+00 3.7497906308e+00 
105500 5.7270599424e+00 -6.0937276439e-04 2.1649568439e+00 -3.7498152498e+00 2.1649568439e+00 3.7498152498e+00 
105600 5.7270594109e+00 -6.0336984385e-04 2.1649709174e+00 -3.7498396259e+00 2.1649709174e+00 3.7498396259e+00 
105700 5.7270588873e+00 -5.9743030734e-04 2.1649848523e+00 -3.7498637618e+00 2.1649848523e+00 3.7498637618e+00 
105800 5.7270583715e+00 -5.9155345902e-04 2.1649986499e+00 -3.7498876599e+00 2.1649986499e+00 3.7498876599e+00 
105900 5.7270578633e+00 -5.8573861064e-04 2.1650123116e+00 -3.7499113227e+00 2.1650123116e+00 3.7499113227e+00 
106000 5.7270573628e+00 -5.7998508144e-04 2.1650258390e+00 -3.7499347529e+00 2.1650258390e+00 3.7499347529e+00 
106100 5.7270568696e+00 -5.7429219807e-04 2.1650392334e+00 -3.7499579527e+00 2.1650392334e+00 3.7499579527e+00 
106200 5.7270563838e+00 -5.6865929452e-04 2.1650524963e+00 -3.7499809247e+00 2.1650524963e+00 3.7499809247e+00 
106300 5.7270559052e+00 -5.6308571205e-04 2.1650656290e+00 -3.7500036712e+00 2.1650656290e+00 3.7500036712e+00 
106400 5.7270554338e+00 -5.5757079911e-04 2.1650786329e+00 -3.7500261946e+00 2.1650786329e+00 3.7500261946e+00 
106500 5.7270549694e+00 -5.5211391127e-04 2.1650915094e+00 -3.7500484973e+00 2.1650915094e+00 3.7500484973e+00 
106600 5.7270545118e+00 -5.4671441115e-04 2.1651042598e+00 -3.7500705816e+00 2.1651042598e+00 3.7500705816e+00 
106700 5.7270540611e+00 -5.4137166837e-04 2.1651168854e+00 -3.7500924498e+00 2.1651168854e+00 3.7500924498e+00 
106800 5.7270536172e+00 -5.3608505942e-04 2.1651293875e+00 -3.7501141041e+00 2.1651293875e+00 3.7501141041e+00 
106900 5.7270531798e+00 -5.3085396766e-04 2.1651417675e+00 -3.7501355469e+00 2.1651417675e+00 3.7501355469e+00 
107000 5.7270527489e+00 -5.2567778319e-04 2.1651540266e+00 -3.7501567803e+00 2.1651540266e+00 3.7501567803e+00 
107100 5.7270523245e+00 -5.2055590284e-04 2.1651661661e+00 -3.7501778066e+00 2.1651661661e+00 3.7501778066e+00 
107200 5.7270519064e+00 -5.1548773003e-04 2.1651781873e+00 -3.7501986278e+00 2.1651781873e+00 3.7501986278e+00 
107300 5.7270514945e+00 -5.1047267478e-04 2.1651900914e+00 -3.7502192463e+00 2.1651900914e+00 3.7502192463e+00 
107400 5.7270510888e+00 -5.0551015358e-04 2.1652018795e+00 -3.7502396640e+00 2.1652018795e+00 3.7502396640e+00 
107500 5.7270506891e+00 -5.0059958937e-04 2.1652135531e+00 -3.7502598831e+00 2.1652135531e+00 3.7502598831e+00 
107600 5.7270502953e+00 -4.9574041142e-04 2.1652251131e+00 -3.7502799058e+00 2.1652251131e+00 3.7502799058e+00 
107700 5.7270499075e+00 -4.9093205532e-04 2.1652365609e+00 -3.7502997339e+00 2.1652365609e+00 3.7502997339e+00 
107800 5.7270495254e+00 -4.8617396288e-04 2.1652478976e+00 -3.7503193696e+00 2.1652478976e+00 3.7503193696e+00 
107900 5.7270491490e+00 -4.8146558209e-04 2.1652591244e+00 -3.7503388150e+00 2.1652591244e+00 3.7503388150e+00 
108000 5.7270487783e+00 -4.7680636701e-04 2.1652702423e+00 -3.7503580719e+00 2.1652702423e+00 3.7503580719e+00 
108100 5.7270484131e+00 -4.7219577777e-04 2.1652812527e+00 -3.7503771423e+00 2.1652812527e+00 3.7503771423e+00 
108200 5.7270480533e+00 -4.6763328047e-04 2.1652921565e+00 -3.7503960283e+00 2.1652921565e+00 3.7503960283e+00 
108300 5.7270476989e+00 -4.6311834710e-04 2.1653029549e+00 -3.7504147316e+00 2.1653029549e+00 3.7504147316e+00 
108400 5.7270473498e+00 -4.5865045552e-04 2.1653136490e+00 -3.7504332543e+00 2.1653136490e+00 3.7504332543e+00 
108500 5.7270470059e+00 -4.5422908937e-04 2.1653242398e+00 -3.7504515982e+00 2.1653242398e+00 3.7504515982e+00 
108600 5.7270466671e+00 -4.4985373802e-04 2.1653347285e+00 -3.7504697652e+00 2.1653347285e+00 3.7504697652e+00 
108700 5.7270463334e+00 -4.4552389652e-04 2.1653451162e+00 -3.7504877571e+00 2.1653451162e+00 3.7504877571e+00 
108800 5.7270460047e+00 -4.4123906551e-04 2.1653554038e+00 -3.7505055758e+00 2.1653554038e+00 3.7505055758e+00 
108900 5.7270456809e+00 -4.3699875119e-04 2.1653655924e+00 -3.7505232230e+00 2.1653655924e+00 3.7505232230e+00 
109000 5.7270453619e+00 -4.3280246524e-04 2.1653756831e+00 -3.7505407005e+00 2.1653756831e+00 3.7505407005e+00 
109100 5.7270450477e+00 -4.2864972477e-04 2.1653856768e+00 -3.7505580101e+00 2.1653856768e+00 3.7505580101e+00 
109200 5.7270447382e+00 -4.2454005229e-04 2.1653955745e+00 -3.7505751536e+00 2.1653955745e+00 3.7505751536e+00 
109300 5.7270444333e+00 -4.2047297559e-04 2.1654053774e+00 -3.7505921326e+00 2.1654053774e+00 3.7505921326e+00 
109400 5.7270441329e+00 -4.1644802773e-04 2.1654150863e+00 -3.7506089489e+00 2.1654150863e+00 3.7506089489e+00 
109500 5.7270438371e+00 -4.1246474701e-04 2.1654247022e+00 -3.7506256041e+00 2.1654247022e+00 3.7506256041e+00 
109600 5.7270435457e+00 -4.0852267682e-04 2.1654342260e+00 -3.7506421000e+00 2.1654342260e+00 3.7506421000e+00 
109700 5.7270432586e+00 -4.0462136568e-04 2.1654436589e+00 -3.7506584381e+00 2.1654436589e+00 3.7506584381e+00 
109800 5.7270429758e+00 -4.0076036715e-04 2.1654530016e+00 -3.7506746201e+00 2.1654530016e+00 3.7506746201e+00 
109900 5.7270426973e+00 -3.9693923975e-04 2.1654622551e+00 -3.7506906476e+00 2.1654622551e+00 3.7506906476e+00 
110000 5.7270424229e+00 -3.9315754696e-04 2.1654714203e+00 -3.7507065223e+00 2.1654714203e+00 3.7507065223e+00 
110100 5.7270421527e+00 -3.8941485711e-04 2.1654804982e+00 -3.7507222456e+00 2.1654804982e+00 3.7507222456e+00 
110200 5.7270418864e+00 -3.8571074337e-04 2.1654894896e+00 -3.7507378193e+00 2.1654894896e+00 3.7507378193e+00 
110300 5.7270416242e+00 -3.8204478368e-04 2.1654983955e+00 -3.7507532447e+00 2.1654983955e+00 3.7507532447e+00 
110400 5.7270413659e+00 -3.7841656070e-04 2.1655072166e+00 -3.7507685234e+00 2.1655072166e+00 3.7507685234e+00 
110500 5.7270411114e+00 -3.7482566177e-04 2.1655159540e+00 -3.7507836570e+00 2.1655159540e+00 3.7507836570e+00 
110600 5.7270408608e+00 -3.7127167884e-04 2.1655246084e+00 -3.7507986469e+00 2.1655246084e+00 3.7507986469e+00 
110700 5.7270406139e+00 -3.6775420842e-04 2.1655331808e+00 -3.7508134946e+00 2.1655331808e+00 3.7508134946e+00 
110800 5.7270403707e+00 -3.6427285155e-04 2.1655416719e+00 -3.7508282016e+00 2.1655416719e+00 3.7508282016e+00 
110900 5.7270401311e+00 -3.6082721375e-04 2.1655500825e+00 -3.7508427693e+00 2.1655500825e+00 3.7508427693e+00 
111000 5.7270398952e+00 -3.5741690494e-04 2.1655584136e+00 -3.7508571991e+00 2.1655584136e+00 3.7508571991e+00 
111100 5.7270396627e+00 -3.5404153944e-04 2.1655666659e+00 -3.7508714925e+00 2.1655666659e+00 3.7508714925e+00 
111200 5.7270394338e+00 -3.5070073587e-04 2.1655748403e+00 -3.7508856509e+00 2.1655748403e+00 3.7508856509e+00 
111300 5.7270392083e+00 -3.4739411713e-04 2.1655829374e+00 -3.7508996757e+00 2.1655829374e+00 3.7508996757e+00 
111400 5.7270389861e+00 -3.4412131038e-04 2.1655909582e+00 -3.7509135681e+00 2.1655909582e+00 3.7509135681e+00 
111500 5.7270387673e+00 -3.4088194694e-04 2.1655989035e+00 -3.7509273296e+00 2.1655989035e+00 3.7509273296e+00 
111600 5.7270385518e+00 -3.3767566226e-04 2.1656067738e+00 -3.7509409615e+00 2.1656067738e+00 3.7509409615e+00 
111700 5.7270383395e+00 -3.3450209591e-04 2.1656145702e+00 -3.7509544652e+00 2.1656145702e+00 3.7509544652e+00 
111800 5.7270381303e+00 -3.3136089150e-04 2.1656222932e+00 -3.7509678419e+00 2.1656222932e+00 3.7509678419e+00 
111900 5.7270379243e+00 -3.2825169663e-04 2.1656299437e+00 -3.7509810929e+00 2.1656299437e+00 3.7509810929e+00 
112000 5.7270377214e+00 -3.2517416287e-04 2.1656375224e+00 -3.7509942195e+00 2.1656375224e+00 3.7509942195e+00 
112100 5.7270375216e+00 -3.2212794571e-04 2.1656450300e+00 -3.7510072230e+00 2.1656450300e+00 3.7510072230e+00 
112200 5.7270373247e+00 -3.1911270451e-04 2.1656524672e+00 -3.7510201047e+00 2.1656524672e+00 3.7510201047e+00 
112300 5.7270371308e+00 -3.1612810246e-04 2.1656598348e+00 -3.7510328658e+00 2.1656598348e+00 3.7510328658e+00 
112400 5.7270369398e+00 -3.1317380653e-04 2.1656671334e+00 -3.7510455074e+00 2.1656671334e+00 3.7510455074e+00 
112500 5.7270367516e+00 -3.1024948745e-04 2.1656743639e+00 -3.7510580309e+00 2.1656743639e+00 3.7510580309e+00 
112600 5.7270365663e+00 -3.0735481964e-04 2.1656815268e+00 -3.7510704374e+00 2.1656815268e+00 3.7510704374e+00 
112700 5.7270363838e+00 -3.0448948119e-04 2.1656886228e+00 -3.7510827280e+00 2.1656886228e+00 3.7510827280e+00 
112800 5.7270362040e+00 -3.0165315381e-04 2.1656956526e+00 -3.7510949041e+00 2.1656956526e+00 3.7510949041e+00 
112900 5.7270360269e+00 -2.9884552280e-04 2.1657026170e+00 -3.7511069667e+00 2.1657026170e+00 3.7511069667e+00 
113000 5.7270358524e+00 -2.9606627698e-04 2.1657095165e+00 -3.7511189170e+00 2.1657095165e+00 3.7511189170e+00 
113100 5.7270356806e+00 -2.9331510870e-04 2.1657163518e+00 -3.7511307562e+00 2.1657163518e+00 3.7511307562e+00 
113200 5.7270355114e+00 -2.9059171376e-04 2.1657231236e+00 -3.7511424852e+00 2.1657231236e+00 3.7511424852e+00 
113300 5.7270353447e+00 -2.8789579137e-04 2.1657298325e+00 -3.7511541054e+00 2.1657298325e+00 3.7511541054e+00 
113400 5.7270351805e+00 -2.8522704417e-04 2.1657364791e+00 -3.7511656177e+00 2.1657364791e+00 3.7511656177e+00 
113500 5.7270350187e+00 -2.8258517809e-04 2.1657430641e+00 -3.7511770232e+00 2.1657430641e+00 3.7511770232e+00 
113600 5.7270348594e+00 -2.7996990242e-04 2.1657495881e+00 -3.7511883231e+00 2.1657495881e+00 3.7511883231e+00 
113700 5.7270347025e+00 -2.7738092971e-04 2.1657560517e+00 -3.7511995183e+00 2.1657560517e+00 3.7511995183e+00 
113800 5.7270345479e+00 -2.7481797572e-04 2.1657624555e+00 -3.7512106100e+00 2.1657624555e+00 3.7512106100e+00 
113900 5.7270343957e+00 -2.7228075946e-04 2.1657688001e+00 -3.7512215992e+00 2.1657688001e+00 3.7512215992e+00 
114000 5.7270342457e+00 -2.6976900306e-04 2.1657750861e+00 -3.7512324869e+00 2.1657750861e+00 3.7512324869e+00 
114100 5.7270340980e+00 -2.6728243181e-04 2.1657813141e+00 -3.7512432741e+00 2.1657813141e+00 3.7512432741e+00 
114200 5.7270339525e+00 -2.6482077408e-04 2.1657874847e+00 -3.7512539619e+00 2.1657874847e+00 3.7512539619e+00 
114300 5.7270338092e+00 -2.6238376131e-04 2.1657935984e+00 -3.7512645511e+00 2.1657935984e+00 3.7512645511e+00 
114400 5.7270336681e+00 -2.5997112794e-04 2.1657996559e+00 -3.7512750430e+00 2.1657996559e+00 3.7512750430e+00 
114500 5.7270335291e+00 -2.5758261142e-04 2.1658056576e+00 -3.7512854383e+00 2.1658056576e+00 3.7512854383e+00 
114600 5.7270333921e+00 -2.5521795218e-04 2.1658116042e+00 -3.7512957381e+00 2.1658116042e+00 3.7512957381e+00 
114700 5.7270332572e+00 -2.5287689352e-04 2.1658174962e+00 -3.7513059433e+00 2.1658174962e+00 3.7513059433e+00 
114800 5.7270331244e+00 -2.5055918167e-04 2.1658233341e+00 -3.7513160548e+00 2.1658233341e+00 3.7513160548e+00 
114900 5.7270329935e+00 -2.4826456572e-04 2.1658291185e+00 -3.7513260737e+00 2.1658291185e+00 3.7513260737e+00 
115000 5.7270328646e+00 -2.4599279756e-04 2.1658348499e+00 -3.7513360007e+00 2.1658348499e+00 3.7513360007e+00 
115100 5.7270327377e+00 -2.4374363190e-04 2.1658405288e+00 -3.7513458370e+00 2.1658405288e+00 3.7513458370e+00 
115200 5.7270326127e+00 -2.4151682618e-04 2.1658461558e+00 -3.7513555832e+00 2.1658461558e+00 3.7513555832e+00 
115300 5.7270324895e+00 -2.3931214062e-04 2.1658517314e+00 -3.7513652404e+00 2.1658517314e+00 3.7513652404e+00 
115400 5.7270323682e+00 -2.3712933808e-04 2.1658572560e+00 -3.7513748094e+00 2.1658572560e+00 3.7513748094e+00 
115500 5.7270322487e+00 -2.3496818414e-04 2.1658627303e+00 -3.7513842911e+00 2.1658627303e+00 3.7513842911e+00 
115600 5.7270321310e+00 -2.3282844700e-04 2.1658681547e+00 -3.7513936864e+00 2.1658681547e+00 3.7513936864e+00 
115700 5.7270320151e+00 -2.3070989746e-04 2.1658735296e+00 -3.7514029961e+00 2.1658735296e+00 3.7514029961e+00 
115800 5.7270319009e+00 -2.2861230892e-04 2.1658788556e+00 -3.7514122210e+00 2.1658788556e+00 3.7514122210e+00 
115900 5.7270317885e+00 -2.2653545730e-04 2.1658841332e+00 -3.7514213621e+00 2.1658841332e+00 3.7514213621e+00 
116000 5.7270316777e+00 -2.2447912107e-04 2.1658893629e+00 -3.7514304200e+00 2.1658893629e+00 3.7514304200e+00 
116100 5.7270315686e+00 -2.2244308119e-04 2.1658945450e+00 -3.7514393958e+00 2.1658945450e+00 3.7514393958e+00 
116200 5.7270314611e+00 -2.2042712106e-04 2.1658996801e+00 -3.7514482901e+00 2.1658996801e+00 3.7514482901e+00 
116300 5.7270313553e+00 -2.1843102654e-04 2.1659047687e+00 -3.7514571038e+00 2.1659047687e+00 3.7514571038e+00 
116400 5.7270312510e+00 -2.1645458589e-04 2.1659098112e+00 -3.7514658376e+00 2.1659098112e+00 3.7514658376e+00 
116500 5.7270311484e+00 -2.1449758975e-04 2.1659148081e+00 -3.7514744924e+00 2.1659148081e+00 3.7514744924e+00 
116600 5.7270310472e+00 -2.1255983112e-04 2.1659197597e+00 -3.7514830690e+00 2.1659197597e+00 3.7514830690e+00 
116700 5.7270309476e+00 -2.1064110531e-04 2.1659246667e+00 -3.7514915680e+00 2.1659246667e+00 3.7514915680e+00 
116800 5.7270308495e+00 -2.0874120995e-04 2.1659295293e+00 -3.7514999903e+00 2.1659295293e+00 3.7514999903e+00 
116900 5.7270307529e+00 -2.0685994493e-04 2.1659343480e+00 -3.7515083366e+00 2.1659343480e+00 3.7515083366e+00 
117000 5.7270306577e+00 -2.0499711240e-04 2.1659391233e+00 -3.7515166077e+00 2.1659391233e+00 3.7515166077e+00 
117100 5.7270305639e+00 -2.0315251671e-04 2.1659438556e+00 -3.7515248043e+00 2.1659438556e+00 3.7515248043e+00 
117200 5.7270304716e+00 -2.0132596445e-04 2.1659485453e+00 -3.7515329271e+00 2.1659485453e+00 3.7515329271e+00 
117300 5.7270303807e+00 -1.9951726433e-04 2.1659531928e+00 -3.7515409768e+00 2.1659531928e+00 3.7515409768e+00 
117400 5.7270302911e+00 -1.9772622724e-04 2.1659577986e+00 -3.7515489542e+00 2.1659577986e+00 3.7515489542e+00 
117500 5.7270302028e+00 -1.9595266619e-04 2.1659623630e+00 -3.7515568600e+00 2.1659623630e+00 3.7515568600e+00 
117600 5.7270301159e+00 -1.9419639627e-04 2.1659668865e+00 -3.7515646949e+00 2.1659668865e+00 3.7515646949e+00 
117700 5.7270300304e+00 -1.9245723466e-04 2.1659713694e+00 -3.7515724595e+00 2.1659713694e+00 3.7515724595e+00 
117800 5.7270299461e+00 -1.9073500059e-04 2.1659758121e+00 -3.7515801546e+00 2.1659758121e+00 3.7515801546e+00 
117900 5.7270298630e+00 -1.8902951531e-04 2.1659802151e+00 -3.7515877807e+00 2.1659802151e+00 3.7515877807e+00 
118000 5.7270297813e+00 -1.8734060207e-04 2.1659845787e+00 -3.7515953387e+00 2.1659845787e+00 3.7515953387e+00 
118100 5.7270297007e+00 -1.8566808611e-04 2.1659889033e+00 -3.7516028292e+00 2.1659889033e+00 3.7516028292e+00 
118200 5.7270296214e+00 -1.8401179463e-04 2.1659931893e+00 -3.7516102527e+00 2.1659931893e+00 3.7516102527e+00 
118300 5.7270295432e+00 -1.8237155675e-04 2.1659974371e+00 -3.7516176100e+00 2.1659974371e+00 3.7516176100e+00 
118400 5.7270294663e+00 -1.8074720352e-04 2.1660016469e+00 -3.7516249018e+00 2.1660016469e+00 3.7516249018e+00 
118500 5.7270293905e+00 -1.7913856787e-04 2.1660058193e+00 -3.7516321285e+00 2.1660058193e+00 3.7516321285e+00 
118600 5.7270293158e+00 -1.7754548460e-04 2.1660099545e+00 -3.7516392909e+00 2.1660099545e+00 3.7516392909e+00 
118700 5.7270292423e+00 -1.7596779037e-04 2.1660140530e+00 -3.7516463897e+00 2.1660140530e+00 3.7516463897e+00 
118800 5.7270291699e+00 -1.7440532365e-04 2.1660181150e+00 -3.7516534253e+00 2.1660181150e+00 3.7516534253e+00 
118900 5.7270290985e+00 -1.7285792473e-04 2.1660221409e+00 -3.7516603984e+00 2.1660221409e+00 3.7516603984e+00 
119000 5.7270290283e+00 -1.7132543566e-04 2.1660261312e+00 -3.7516673097e+00 2.1660261312e+00 3.7516673097e+00 
119100 5.7270289591e+00 -1.6980770030e-04 2.1660300860e+00 -3.7516741597e+00 2.1660300860e+00 3.7516741597e+00 
119200 5.7270288909e+00 -1.6830456421e-04 2.1660340058e+00 -3.7516809489e+00 2.1660340058e+00 3.7516809489e+00 
119300 5.7270288238e+00 -1.6681587469e-04 2.1660378909e+00 -3.7516876781e+00 2.1660378909e+00 3.7516876781e+00 
119400 5.7270287577e+00 -1.6534148075e-04 2.1660417416e+00 -3.7516943477e+00 2.1660417416e+00 3.7516943477e+00 
119500 5.7270286925e+00 -1.6388123307e-04 2.1660455583e+00 -3.7517009584e+00 2.1660455583e+00 3.7517009584e+00 
119600 5.7270286284e+00 -1.6243498402e-04 2.1660493412e+00 -3.7517075107e+00 2.1660493412e+00 3.7517075107e+00 
119700 5.7270285652e+00 -1.6100258760e-04 2.1660530908e+00 -3.7517140051e+00 2.1660530908e+00 3.7517140051e+00 
119800 5.7270285030e+00 -1.5958389942e-04 2.1660568073e+00 -3.7517204423e+00 2.1660568073e+00 3.7517204423e+00 
119900 5.7270284417e+00 -1.5817877674e-04 2.1660604910e+00 -3.7517268227e+00 2.1660604910e+00 3.7517268227e+00 
120000 5.7270283814e+00 -1.5678707837e-04 2.1660641423e+00 -3.7517331470e+00 2.1660641423e+00 3.7517331470e+00 
120100 5.7270283220e+00 -1.5540866471e-04 2.1660677615e+00 -3.7517394156e+00 2.1660677615e+00 3.7517394156e+00 
120200 5.7270282634e+00 -1.5404339771e-04 2.1660713489e+00 -3.7517456290e+00 2.1660713489e+00 3.7517456290e+00 
120300 5.7270282057e+00 -1.5269114086e-04 2.1660749047e+00 -3.7517517879e+00 2.1660749047e+00 3.7517517879e+00 
120400 5.7270281490e+00 -1.5135175916e-04 2.1660784293e+00 -3.7517578927e+00 2.1660784293e+00 3.7517578927e+00 
120500 5.7270280930e+00 -1.5002511913e-04 2.1660819230e+00 -3.7517639439e+00 2.1660819230e+00 3.7517639439e+00 
120600 5.7270280379e+00 -1.4871108874e-04 2.1660853860e+00 -3.7517699421e+00 2.1660853860e+00 3.7517699421e+00 
120700 5.7270279837e+00 -1.4740953744e-04 2.1660888187e+00 -3.7517758878e+00 2.1660888187e+00 3.7517758878e+00 
120800 5.7270279302e+00 -1.4612033616e-04 2.1660922214e+00 -3.7517817813e+00 2.1660922214e+00 3.7517817813e+00 
120900 5.7270278776e+00 -1.4484335721e-04 2.1660955943e+00 -3.7517876234e+00 2.1660955943e+00 3.7517876234e+00 
121000 5.7270278257e+00 -1.4357847434e-04 2.1660989377e+00 -3.7517934144e+00 2.1660989377e+00 3.7517934144e+00 
121100 5.7270277747e+00 -1.4232556272e-04 2.1661022519e+00 -3.7517991548e+00 2.1661022519e+00 3.7517991548e+00 
121200 5.7270277244e+00 -1.4108449887e-04 2.1661055372e+00 -3.7518048451e+00 2.1661055372e+00 3.7518048451e+00 
121300 5.7270276749e+00 -1.3985516070e-04 2.1661087939e+00 -3.7518104857e+00 2.1661087939e+00 3.7518104857e+00 
121400 5.7270276261e+00 -1.3863742745e-04 2.1661120221e+00 -3.7518160772e+00 2.1661120221e+00 3.7518160772e+00 
121500 5.7270275781e+00 -1.3743117972e-04 2.1661152223e+00 -3.7518216200e+00 2.1661152223e+00 3.7518216200e+00 
121600 5.7270275307e+00 -1.3623629942e-04 2.1661183946e+00 -3.7518271146e+00 2.1661183946e+00 3.7518271146e+00 
121700 5.7270274841e+00 -1.3505266976e-04 2.1661215393e+00 -3.7518325614e+00 2.1661215393e+00 3.7518325614e+00 
121800 5.7270274382e+00 -1.3388017525e-04 2.1661246567e+00 -3.7518379609e+00 2.1661246567e+00 3.7518379609e+00 
121900 5.7270273930e+00 -1.3271870166e-04 2.1661277470e+00 -3.7518433135e+00 2.1661277470e+00 3.7518433135e+00 
122000 5.7270273485e+00 -1.3156813605e-04 2.1661308105e+00 -3.7518486196e+00 2.1661308105e+00 3.7518486196e+00 
122100 5.7270273046e+00 -1.3042836670e-04 2.1661338474e+00 -3.7518538797e+00 2.1661338474e+00 3.7518538797e+00 
122200 5.7270272615e+00 -1.2929928312e-04 2.1661368581e+00 -3.7518590943e+00 2.1661368581e+00 3.7518590943e+00 
122300 5.7270272189e+00 -1.2818077607e-04 2.1661398426e+00 -3.7518642637e+00 2.1661398426e+00 3.7518642637e+00 
122400 5.7270271770e+00 -1.2707273747e-04 2.1661428014e+00 -3.7518693884e+00 2.1661428014e+00 3.7518693884e+00 
122500 5.7270271358e+00 -1.2597506047e-04 2.1661457345e+00 -3.7518744688e+00 2.1661457345e+00 3.7518744688e+00 
122600 5.7270270951e+00 -1.2488763937e-04 2.1661486423e+00 -3.7518795053e+00 2.1661486423e+00 3.7518795053e+00 
122700 5.7270270551e+00 -1.2381036963e-04 2.1661515250e+00 -3.7518844983e+00 2.1661515250e+00 3.7518844983e+00 
122800 5.7270270157e+00 -1.2274314789e-04 2.1661543829e+00 -3.7518894482e+00 2.1661543829e+00 3.7518894482e+00 
122900 5.7270269769e+00 -1.2168587189e-04 2.1661572161e+00 -3.7518943555e+00 2.1661572161e+00 3.7518943555e+00 
123000 5.7270269386e+00 -1.2063844051e-04 2.1661600249e+00 -3.7518992204e+00 2.1661600249e+00 3.7518992204e+00 
123100 5.7270269010e+00 -1.1960075375e-04 2.1661628095e+00 -3.7519040435e+00 2.1661628095e+00 3.7519040435e+00 
123200 5.7270268639e+00 -1.1857271268e-04 2.1661655702e+00 -3.7519088251e+00 2.1661655702e+00 3.7519088251e+00 
123300 5.7270268273e+00 -1.1755421948e-04 2.1661683071e+00 -3.7519135656e+00 2.1661683071e+00 3.7519135656e+00 
123400 5.7270267914e+00 -1.1654517738e-04 2.1661710205e+00 -3.7519182654e+00 2.1661710205e+00 3.7519182654e+00 
123500 5.7270267559e+00 -1.1554549069e-04 2.1661737106e+00 -3.7519229248e+00 2.1661737106e+00 3.7519229248e+00 
123600 5.7270267210e+00 -1.1455506476e-04 2.1661763777e+00 -3.7519275443e+00 2.1661763777e+00 3.7519275443e+00 
123700 5.7270266867e+00 -1.1357380598e-04 2.1661790218e+00 -3.7519321241e+00 2.1661790218e+00 3.7519321241e+00 
123800 5.7270266528e+00 -1.1260162174e-04 2.1661816434e+00 -3.7519366647e+00 2.1661816434e+00 3.7519366647e+00 
123900 5.7270266195e+00 -1.1163842047e-04 2.1661842424e+00 -3.7519411665e+00 2.1661842424e+00 3.7519411665e+00 
124000 5.7270265866e+00 -1.1068411159e-04 2.1661868193e+00 -3.7519456297e+00 2.1661868193e+00 3.7519456297e+00 
124100 5.7270265543e+00 -1.0973860551e-04 2.1661893741e+00 -3.7519500548e+00 2.1661893741e+00 3.7519500548e+00 
124200 5.7270265224e+00 -1.0880181361e-04 2.1661919071e+00 -3.7519544420e+00 2.1661919071e+00 3.7519544420e+00 
124300 5.7270264911e+00 -1.0787364824e-04 2.1661944185e+00 -3.7519587918e+00 2.1661944185e+00 3.7519587918e+00 
124400 5.7270264602e+00 -1.0695402271e-04 2.1661969084e+00 -3.7519631045e+00 2.1661969084e+00 3.7519631045e+00 
124500 5.7270264297e+00 -1.0604285127e-04 2.1661993771e+00 -3.7519673805e+00 2.1661993771e+00 3.7519673805e+00 
124600 5.7270263998e+00 -1.0514004910e-04 2.1662018248e+00 -3.7519716200e+00 2.1662018248e+00 3.7519716200e+00 
124700 5.7270263703e+00 -1.0424553231e-04 2.1662042516e+00 -3.7519758233e+00 2.1662042516e+00 3.7519758233e+00 
124800 5.7270263412e+00 -1.0335921791e-04 2.1662066578e+00 -3.7519799910e+00 2.1662066578e+00 3.7519799910e+00 
124900 5.7270263126e+00 -1.0248102382e-04 2.1662090435e+00 -3.7519841232e+00 2.1662090435e+00 3.7519841232e+00 
125000 5.7270262844e+00 -1.0161086885e-04 2.1662114089e+00 -3.7519882202e+00 2.1662114089e+00 3.7519882202e+00 
125100 5.7270262566e+00 -1.0074867268e-04 2.1662137543e+00 -3.7519922825e+00 2.1662137543e+00 3.7519922825e+00 
125200 5.7270262292e+00 -9.9894355891e-05 2.1662160798e+00 -3.7519963103e+00 2.1662160798e+00 3.7519963103e+00 
125300 5.7270262023e+00 -9.9047839889e-05 2.1662183855e+00 -3.7520003040e+00 2.1662183855e+00 3.7520003040e+00 
125400 5.7270261758e+00 -9.8209046947e-05 2.1662206717e+00 -3.7520042638e+00 2.1662206717e+00 3.7520042638e+00 
125500 5.7270261497e+00 -9.7377900178e-05 2.1662229385e+00 -3.7520081900e+00 2.1662229385e+00 3.7520081900e+00 
125600 5.7270261239e+00 -9.6554323526e-05 2.1662251862e+00 -3.7520120831e+00 2.1662251862e+00 3.7520120831e+00 
125700 5.7270260986e+00 -9.5738241754e-05 2.1662274148e+00 -3.7520159432e+00 2.1662274148e+00 3.7520159432e+00 
125800 5.7270260736e+00 -9.4929580441e-05 2.1662296246e+00 -3.7520197706e+00 2.1662296246e+00 3.7520197706e+00 
125900 5.7270260490e+00 -9.4128265967e-05 2.1662318157e+00 -3.7520235658e+00 2.1662318157e+00 3.7520235658e+00 
126000 5.7270260248e+00 -9.3334225507e-05 2.1662339883e+00 -3.7520273289e+00 2.1662339883e+00 3.7520273289e+00 
126100 5.7270260010e+00 -9.2547387019e-05 2.1662361426e+00 -3.7520310602e+00 2.1662361426e+00 3.7520310602e+00 
126200 5.7270259775e+00 -9.1767679237e-05 2.1662382788e+00 -3.7520347601e+00 2.1662382788e+00 3.7520347601e+00 
126300 5.7270259544e+00 -9.0995031664e-05 2.1662403969e+00 -3.7520384288e+00 2.1662403969e+00 3.7520384288e+00 
126400 5.7270259316e+00 -9.0229374560e-05 2.1662424972e+00 -3.7520420667e+00 2.1662424972e+00 3.7520420667e+00 
126500 5.7270259092e+00 -8.9470638932e-05 2.1662445798e+00 -3.7520456739e+00 2.1662445798e+00 3.7520456739e+00 
126600 5.7270258871e+00 -8.8718756532e-05 2.1662466449e+00 -3.7520492508e+00 2.1662466449e+00 3.7520492508e+00 
126700 5.7270258653e+00 -8.7973659840e-05 2.1662486927e+00 -3.7520527976e+00 2.1662486927e+00 3.7520527976e+00 
126800 5.7270258439e+00 -8.7235282065e-05 2.1662507232e+00 -3.7520563146e+00 2.1662507232e+00 3.7520563146e+00 
126900 5.7270258228e+00 -8.6503557127e-05 2.1662527368e+00 -3.7520598021e+00 2.1662527368e+00 3.7520598021e+00 
127000 5.7270258020e+00 -8.5778419657e-05 2.1662547334e+00 -3.7520632603e+00 2.1662547334e+00 3.7520632603e+00 
127100 5.7270257815e+00 -8.5059804982e-05 2.1662567132e+00 -3.7520666896e+00 2.1662567132e+00 3.7520666896e+00 
127200 5.7270257614e+00 -8.4347649125e-05 2.1662586765e+00 -3.7520700901e+00 2.1662586765e+00 3.7520700901e+00 
127300 5.7270257415e+00 -8.3641888788e-05 2.1662606234e+00 -3.7520734621e+00 2.1662606234e+00 3.7520734621e+00 
127400 5.7270257220e+00 -8.2942461353e-05 2.1662625539e+00 -3.7520768060e+00 2.1662625539e+00 3.7520768060e+00 
127500 5.7270257027e+00 -8.2249304867e-05 2.1662644684e+00 -3.7520801218e+00 2.1662644684e+00 3.7520801218e+00 
127600 5.7270256837e+00 -8.1562358039e-05 2.1662663668e+00 -3.7520834100e+00 2.1662663668e+00 3.7520834100e+00 
127700 5.7270256650e+00 -8.0881560231e-05 2.1662682493e+00 -3.7520866707e+00 2.1662682493e+00 3.7520866707e+00 
127800 5.7270256467e+00 -8.0206851450e-05 2.1662701162e+00 -3.7520899041e+00 2.1662701162e+00 3.7520899041e+00 
127900 5.7270256285e+00 -7.9538172341e-05 2.1662719674e+00 -3.7520931106e+00 2.1662719674e+00 3.7520931106e+00 
128000 5.7270256107e+00 -7.8875464181e-05 2.1662738033e+00 -3.7520962904e+00 2.1662738033e+00 3.7520962904e+00 
128100 5.7270255931e+00 -7.8218668870e-05 2.1662756238e+00 -3.7520994436e+00 2.1662756238e+00 3.7520994436e+00 
128200 5.7270255758e+00 -7.7567728925e-05 2.1662774292e+00 -3.7521025706e+00 2.1662774292e+00 3.7521025706e+00 
128300 5.7270255588e+00 -7.6922587473e-05 2.1662792195e+00 -3.7521056716e+00 2.1662792195e+00 3.7521056716e+00 
128400 5.7270255420e+00 -7.6283188241e-05 2.1662809950e+00 -3.7521087468e+00 2.1662809950e+00 3.7521087468e+00 
128500 5.7270255254e+00 -7.5649475556e-05 2.1662827557e+00 -3.7521117964e+00 2.1662827557e+00 3.7521117964e+00 
128600 5.7270255092e+00 -7.5021394333e-05 2.1662845017e+00 -3.7521148207e+00 2.1662845017e+00 3.7521148207e+00 
128700 5.7270254931e+00 -7.4398890067e-05 2.1662862333e+00 -3.7521178198e+00 2.1662862333e+00 3.7521178198e+00 
128800 5.7270254773e+00 -7.3781908832e-05 2.1662879505e+00 -3.7521207941e+00 2.1662879505e+00 3.7521207941e+00 
128900 5.7270254618e+00 -7.3170397270e-05 2.1662896535e+00 -3.7521237437e+00 2.1662896535e+00 3.7521237437e+00 
129000 5.7270254465e+00 -7.2564302585e-05 2.1662913423e+00 -3.7521266689e+00 2.1662913423e+00 3.7521266689e+00 
129100 5.7270254314e+00 -7.1963572539e-05 2.1662930172e+00 -3.7521295698e+00 2.1662930172e+00 3.7521295698e+00 
129200 5.7270254165e+00 -7.1368155444e-05 2.1662946781e+00 -3.7521324467e+00 2.1662946781e+00 3.7521324467e+00 
129300 5.7270254019e+00 -7.0778000154e-05 2.1662963254e+00 -3.7521352998e+00 2.1662963254e+00 3.7521352998e+00 
129400 5.7270253875e+00 -7.0193056064e-05 2.1662979590e+00 -3.7521381293e+00 2.1662979590e+00 3.7521381293e+00 
129500 5.7270253734e+00 -7.0380713888e-05 2.1662979590e+00 -3.7521381293e+00 2.1662979590e+00 3.7521381293e+00 
129600 5.7270253595e+00 -7.0569638574e-05 2.1662979590e+00 -3.7521381293e+00 2.1662979590e+00 3.7521381293e+00 
129700 5.7270253458e+00 -7.0759738041e-05 2.1662979590e+00 -3.7521381293e+00 2.1662979590e+00 3.7521381293e+00 
129800 5.7270253323e+00 -7.0177229269e-05 2.1662995922e+00 -3.7521409581e+00 2.1662995922e+00 3.7521409581e+00 
129900 5.7270253190e+00 -7.0366921410e-05 2.1662995922e+00 -3.7521409581e+00 2.1662995922e+00 3.7521409581e+00 
130000 5.7270253060e+00 -7.0557614575e-05 2.1662995922e+00 -3.7521409581e+00 2.1662995922e+00 3.7521409581e+00 
130100 5.7270252931e+00 -7.0749228496e-05 2.1662995922e+00 -3.7521409581e+00 2.1662995922e+00 3.7521409581e+00 
130200 5.7270252804e+00 -7.0168032398e-05 2.1663012251e+00 -3.7521437865e+00 2.1663012251e+00 3.7521437865e+00 
130300 5.7270252679e+00 -7.0358764328e-05 2.1663012251e+00 -3.7521437865e+00 2.1663012251e+00 3.7521437865e+00 
130400 5.7270252556e+00 -7.0550275049e-05 2.1663012251e+00 -3.7521437865e+00 2.1663012251e+00 3.7521437865e+00 
130500 5.7270252435e+00 -7.0742493807e-05 2.1663012251e+00 -3.7521437865e+00 2.1663012251e+00 3.7521437865e+00 
130600 5.7270252315e+00 -7.0161700976e-05 2.1663028579e+00 -3.7521466145e+00 2.1663028579e+00 3.7521466145e+00 
130700 5.7270252198e+00 -7.0352639251e-05 2.1663028579e+00 -3.7521466145e+00 2.1663028579e+00 3.7521466145e+00 
130800 5.7270252082e+00 -7.0544169364e-05 2.1663028579e+00 -3.7521466145e+00 2.1663028579e+00 3.7521466145e+00 
130900 5.7270251969e+00 -7.0736228321e-05 2.1663028579e+00 -3.7521466145e+00 2.1663028579e+00 3.7521466145e+00 
131000 5.7270251856e+00 -7.0155103111e-05 2.1663044906e+00 -3.7521494424e+00 2.1663044906e+00 3.7521494424e+00 
131100 5.7270251745e+00 -7.0345545290e-05 2.1663044906e+00 -3.7521494424e+00 2.1663044906e+00 3.7521494424e+00 
131200 5.7270251637e+00 -7.0536421252e-05 2.1663044906e+00 -3.7521494424e+00 2.1663044906e+00 3.7521494424e+00 
131300 5.7270251530e+00 -7.0727674406e-05 2.1663044906e+00 -3.7521494424e+00 2.1663044906e+00 3.7521494424e+00 
131400 5.7270251423e+00 -7.0145624284e-05 2.1663061230e+00 -3.7521522699e+00 2.1663061230e+00 3.7521522699e+00 
131500 5.7270251320e+00 -7.0334975792e-05 2.1663061230e+00 -3.7521522699e+00 2.1663061230e+00 3.7521522699e+00 
131600 5.7270251217e+00 -7.0524626981e-05 2.1663061230e+00 -3.7521522699e+00 2.1663061230e+00 3.7521522699e+00 
131700 5.7270251117e+00 -7.0714526611e-05 2.1663061230e+00 -3.7521522699e+00 2.1663061230e+00 3.7521522699e+00 
131800 5.7270251017e+00 -7.0131078116e-05 2.1663077552e+00 -3.7521550968e+00 2.1663077552e+00 3.7521550968e+00 
131900 5.7270250919e+00 -7.0318834267e-05 2.1663077552e+00 -3.7521550968e+00 2.1663077552e+00 3.7521550968e+00 
132000 5.7270250823e+00 -7.0506776085e-05 2.1663077552e+00 -3.7521550968e+00 2.1663077552e+00 3.7521550968e+00 
132100 5.7270250728e+00 -7.0694856851e-05 2.1663077552e+00 -3.7521550968e+00 2.1663077552e+00 3.7521550968e+00 
132200 5.7270250635e+00 -7.0883031779e-05 2.1663077552e+00 -3.7521550968e+00 2.1663077552e+00 3.7521550968e+00 
132300 5.7270250542e+00 -7.0295788013e-05 2.1663093912e+00 -3.7521579305e+00 2.1663093912e+00 3.7521579305e+00 
132400 5.7270250452e+00 -7.0481523292e-05 2.1663093912e+00 -3.7521579305e+00 2.1663093912e+00 3.7521579305e+00 
132500 5.7270250363e+00 -7.0667307930e-05 2.1663093912e+00 -3.7521579305e+00 2.1663093912e+00 3.7521579305e+00 
132600 5.7270250275e+00 -7.0853100652e-05 2.1663093912e+00 -3.7521579305e+00 2.1663093912e+00 3.7521579305e+00 
132700 5.7270250188e+00 -7.0263658747e-05 2.1663110266e+00 -3.7521607630e+00 2.1663110266e+00 3.7521607630e+00 
132800 5.7270250103e+00 -7.0446850799e-05 2.1663110266e+00 -3.7521607630e+00 2.1663110266e+00 3.7521607630e+00 
132900 5.7270250019e+00 -7.0630015920e-05 2.1663110266e+00 -3.7521607630e+00 2.1663110266e+00 3.7521607630e+00 
133000 5.7270249937e+00 -7.0813115886e-05 2.1663110266e+00 -3.7521607630e+00 2.1663110266e+00 3.7521607630e+00 
133100 5.7270249854e+00 -7.0221289633e-05 2.1663126610e+00 -3.7521635939e+00 2.1663126610e+00 3.7521635939e+00 
133200 5.7270249774e+00 -7.0401652657e-05 2.1663126610e+00 -3.7521635939e+00 2.1663126610e+00 3.7521635939e+00 
133300 5.7270249696e+00 -7.0581924042e-05 2.1663126610e+00 -3.7521635939e+00 2.1663126610e+00 3.7521635939e+00 
133400 5.7270249618e+00 -7.0762068239e-05 2.1663126610e+00 -3.7521635939e+00 2.1663126610e+00 3.7521635939e+00 
133500 5.7270249541e+00 -7.0167728411e-05 2.1663142942e+00 -3.7521664227e+00 2.1663142942e+00 3.7521664227e+00 
133600 5.7270249465e+00 -7.0345021119e-05 2.1663142942e+00 -3.7521664227e+00 2.1663142942e+00 3.7521664227e+00 
133700 5.7270249391e+00 -7.0522167632e-05 2.1663142942e+00 -3.7521664227e+00 2.1663142942e+00 3.7521664227e+00 
133800 5.7270249318e+00 -7.0699134757e-05 2.1663142942e+00 -3.7521664227e+00 2.1663142942e+00 3.7521664227e+00 
133900 5.7270249247e+00 -7.0875890757e-05 2.1663142942e+00 -3.7521664227e+00 2.1663142942e+00 3.7521664227e+00 
134000 5.7270249175e+00 -7.0276767628e-05 2.1663159301e+00 -3.7521692561e+00 2.1663159301e+00 3.7521692561e+00 
134100 5.7270249105e+00 -7.0450511162e-05 2.1663159301e+00 -3.7521692561e+00 2.1663159301e+00 3.7521692561e+00 
134200 5.7270249036e+00 -7.0624035303e-05 2.1663159301e+00 -3.7521692561e+00 2.1663159301e+00 3.7521692561e+00 
134300 5.7270248969e+00 -7.0797310133e-05 2.1663159301e+00 -3.7521692561e+00 2.1663159301e+00 3.7521692561e+00 
134400 5.7270248901e+00 -7.0195476336e-05 2.1663175641e+00 -3.7521720864e+00 2.1663175641e+00 3.7521720864e+00 
134500 5.7270248836e+00 -7.0365670400e-05 2.1663175641e+00 -3.7521720864e+00 2.1663175641e+00 3.7521720864e+00 
134600 5.7270248771e+00 -7.0535611990e-05 2.1663175641e+00 -3.7521720864e+00 2.1663175641e+00 3.7521720864e+00 
134700 5.7270248708e+00 -7.0705272831e-05 2.1663175641e+00 -3.7521720864e+00 2.1663175641e+00 3.7521720864e+00 
134800 5.7270248645e+00 -7.0874625949e-05 2.1663175641e+00 -3.7521720864e+00 2.1663175641e+00 3.7521720864e+00 
134900 5.7270248582e+00 -7.0267904092e-05 2.1663192000e+00 -3.7521749197e+00 2.1663192000e+00 3.7521749197e+00 
135000 5.7270248522e+00 -7.0434065330e-05 2.1663192000e+00 -3.7521749197e+00 2.1663192000e+00 3.7521749197e+00 
135100 5.7270248462e+00 -7.0599923978e-05 2.1663192000e+00 -3.7521749197e+00 2.1663192000e+00 3.7521749197e+00 
135200 5.7270248403e+00 -7.0765454305e-05 2.1663192000e+00 -3.7521749197e+00 2.1663192000e+00 3.7521749197e+00 
135300 5.7270248344e+00 -7.0156035812e-05 2.1663208333e+00 -3.7521777487e+00 2.1663208333e+00 3.7521777487e+00 
135400 5.7270248287e+00 -7.0318340573e-05 2.1663208333e+00 -3.7521777487e+00 2.1663208333e+00 3.7521777487e+00 
135500 5.7270248231e+00 -7.0480325619e-05 2.1663208333e+00 -3.7521777487e+00 2.1663208333e+00 3.7521777487e+00 
135600 5.7270248175e+00 -7.0641966372e-05 2.1663208333e+00 -3.7521777487e+00 2.1663208333e+00 3.7521777487e+00 
135700 5.7270248121e+00 -7.0803239438e-05 2.1663208333e+00 -3.7521777487e+00 2.1663208333e+00 3.7521777487e+00 
135800 5.7270248066e+00 -7.0189052837e-05 2.1663224675e+00 -3.7521805792e+00 2.1663224675e+00 3.7521805792e+00 
135900 5.7270248013e+00 -7.0347026979e-05 2.1663224675e+00 -3.7521805792e+00 2.1663224675e+00 3.7521805792e+00 
136000 5.7270247961e+00 -7.0504648609e-05 2.1663224675e+00 -3.7521805792e+00 2.1663224675e+00 3.7521805792e+00 
136100 5.7270247910e+00 -7.0661895165e-05 2.1663224675e+00 -3.7521805792e+00 2.1663224675e+00 3.7521805792e+00 
136200 5.7270247860e+00 -7.0818745203e-05 2.1663224675e+00 -3.7521805792e+00 2.1663224675e+00 3.7521805792e+00 
136300 5.7270247809e+00 -7.0199881050e-05 2.1663241020e+00 -3.7521834103e+00 2.1663241020e+00 3.7521834103e+00 
136400 5.7270247760e+00 -7.0353379554e-05 2.1663241020e+00 -3.7521834103e+00 2.1663241020e+00 3.7521834103e+00 
136500 5.7270247712e+00 -7.0506502186e-05 2.1663241020e+00 -3.7521834103e+00 2.1663241020e+00 3.7521834103e+00 
136600 5.7270247664e+00 -7.0659228077e-05 2.1663241020e+00 -3.7521834103e+00 2.1663241020e+00 3.7521834103e+00 
136700 5.7270247617e+00 -7.0811537417e-05 2.1663241020e+00 -3.7521834103e+00 2.1663241020e+00 3.7521834103e+00 
136800 5.7270247570e+00 -7.0188137426e-05 2.1663257364e+00 -3.7521862411e+00 2.1663257364e+00 3.7521862411e+00 
136900 5.7270247525e+00 -7.0337060136e-05 2.1663257364e+00 -3.7521862411e+00 2.1663257364e+00 3.7521862411e+00 
137000 5.7270247480e+00 -7.0485591525e-05 2.1663257364e+00 -3.7521862411e+00 2.1663257364e+00 3.7521862411e+00 
137100 5.7270247436e+00 -7.0633712152e-05 2.1663257364e+00 -3.7521862411e+00 2.1663257364e+00 3.7521862411e+00 
137200 5.7270247393e+00 -7.0781403588e-05 2.1663257364e+00 -3.7521862411e+00 2.1663257364e+00 3.7521862411e+00 
137300 5.7270247349e+00 -7.0153650875e-05 2.1663273700e+00 -3.7521890707e+00 2.1663273700e+00 3.7521890707e+00 
137400 5.7270247307e+00 -7.0297935448e-05 2.1663273700e+00 -3.7521890707e+00 2.1663273700e+00 3.7521890707e+00 
137500 5.7270247266e+00 -7.0441819906e-05 2.1663273700e+00 -3.7521890707e+00 2.1663273700e+00 3.7521890707e+00 
137600 5.7270247225e+00 -7.0585286021e-05 2.1663273700e+00 -3.7521890707e+00 2.1663273700e+00 3.7521890707e+00 
137700 5.7270247185e+00 -7.0728316531e-05 2.1663273700e+00 -3.7521890707e+00 2.1663273700e+00 3.7521890707e+00 
137800 5.7270247144e+00 -7.0096427542e-05 2.1663290025e+00 -3.7521918982e+00 2.1663290025e+00 3.7521918982e+00 
137900 5.7270247106e+00 -7.0236043614e-05 2.1663290025e+00 -3.7521918982e+00 2.1663290025e+00 3.7521918982e+00 
138000 5.7270247067e+00 -7.0375256391e-05 2.1663290025e+00 -3.7521918982e+00 2.1663290025e+00 3.7521918982e+00 
138100 5.7270247029e+00 -7.0514048669e-05 2.1663290025e+00 -3.7521918982e+00 2.1663290025e+00 3.7521918982e+00 
138200 5.7270246992e+00 -7.0652404181e-05 2.1663290025e+00 -3.7521918982e+00 2.1663290025e+00 3.7521918982e+00 
138300 5.7270246956e+00 -7.0790307542e-05 2.1663290025e+00 -3.7521918982e+00 2.1663290025e+00 3.7521918982e+00 
138400 5.7270246919e+00 -7.0152538402e-05 2.1663306364e+00 -3.7521947282e+00 2.1663306364e+00 3.7521947282e+00 
138500 5.7270246883e+00 -7.0286997386e-05 2.1663306364e+00 -3.7521947282e+00 2.1663306364e+00 3.7521947282e+00 
138600 5.7270246848e+00 -7.0421041770e-05 2.1663306364e+00 -3.7521947282e+00 2.1663306364e+00 3.7521947282e+00 
138700 5.7270246814e+00 -7.0554655926e-05 2.1663306364e+00 -3.7521947282e+00 2.1663306364e+00 3.7521947282e+00 
138800 5.7270246780e+00 -7.0687825097e-05 2.1663306364e+00 -3.7521947282e+00 2.1663306364e+00 3.7521947282e+00 
138900 5.7270246747e+00 -7.0820535348e-05 2.1663306364e+00 -3.7521947282e+00 2.1663306364e+00 3.7521947282e+00 
139000 5.7270246713e+00 -7.0177179957e-05 2.1663322709e+00 -3.7521975593e+00 2.1663322709e+00 3.7521975593e+00 
139100 5.7270246680e+00 -7.0306435359e-05 2.1663322709e+00 -3.7521975593e+00 2.1663322709e+00 3.7521975593e+00 
139200 5.7270246648e+00 -7.0435273431e-05 2.1663322709e+00 -3.7521975593e+00 2.1663322709e+00 3.7521975593e+00 
139300 5.7270246617e+00 -7.0563679773e-05 2.1663322709e+00 -3.7521975593e+00 2.1663322709e+00 3.7521975593e+00 
139400 5.7270246586e+00 -7.0691640804e-05 2.1663322709e+00 -3.7521975593e+00 2.1663322709e+00 3.7521975593e+00 
139500 5.7270246556e+00 -7.0819143721e-05 2.1663322709e+00 -3.7521975593e+00 2.1663322709e+00 3.7521975593e+00 
139600 5.7270246525e+00 -7.0170544003e-05 2.1663339055e+00 -3.7522003904e+00 2.1663339055e+00 3.7522003904e+00 
139700 5.7270246495e+00 -7.0294596965e-05 2.1663339055e+00 -3.7522003904e+00 2.1663339055e+00 3.7522003904e+00 
139800 5.7270246466e+00 -7.0418236538e-05 2.1663339055e+00 -3.7522003904e+00 2.1663339055e+00 3.7522003904e+00 
139900 5.7270246438e+00 -7.0541449284e-05 2.1663339055e+00 -3.7522003904e+00 2.1663339055e+00 3.7522003904e+00 
140000 5.7270246409e+00 -7.0664222547e-05 2.1663339055e+00 -3.7522003904e+00 2.1663339055e+00 3.7522003904e+00 
140100 5.7270246382e+00 -7.0786544411e-05 2.1663339055e+00 -3.7522003904e+00 2.1663339055e+00 3.7522003904e+00 
140200 5.7270246353e+00 -7.0133076646e-05 2.1663355393e+00 -3.7522032202e+00 2.1663355393e+00 3.7522032202e+00 
140300 5.7270246326e+00 -7.0251965685e-05 2.1663355393e+00 -3.7522032202e+00 2.1663355393e+00 3.7522032202e+00 
140400 5.7270246300e+00 -7.0370450484e-05 2.1663355393e+00 -3.7522032202e+00 2.1663355393e+00 3.7522032202e+00 
140500 5.7270246274e+00 -7.0488518361e-05 2.1663355393e+00 -3.7522032202e+00 2.1663355393e+00 3.7522032202e+00 
140600 5.7270246248e+00 -7.0606157393e-05 2.1663355393e+00 -3.7522032202e+00 2.1663355393e+00 3.7522032202e+00 
140700 5.7270246223e+00 -7.0723356361e-05 2.1663355393e+00 -3.7522032202e+00 2.1663355393e+00 3.7522032202e+00 
140800 5.7270246197e+00 -7.0065420639e-05 2.1663371716e+00 -3.7522060475e+00 2.1663371716e+00 3.7522060475e+00 
140900 5.7270246172e+00 -7.0179213694e-05 2.1663371716e+00 -3.7522060475e+00 2.1663371716e+00 3.7522060475e+00 
141000 5.7270246148e+00 -7.0292615720e-05 2.1663371716e+00 -3.7522060475e+00 2.1663371716e+00 3.7522060475e+00 
141100 5.7270246124e+00 -7.0405614636e-05 2.1663371716e+00 -3.7522060475e+00 2.1663371716e+00 3.7522060475e+00 
141200 5.7270246101e+00 -7.0518199089e-05 2.1663371716e+00 -3.7522060475e+00 2.1663371716e+00 3.7522060475e+00 
141300 5.7270246078e+00 -7.0630358415e-05 2.1663371716e+00 -3.7522060475e+00 2.1663371716e+00 3.7522060475e+00 
141400 5.7270246055e+00 -7.0742082597e-05 2.1663371716e+00 -3.7522060475e+00 2.1663371716e+00 3.7522060475e+00 
141500 5.7270246032e+00 -7.0078418151e-05 2.1663388043e+00 -3.7522088755e+00 2.1663388043e+00 3.7522088755e+00 
141600 5.7270246009e+00 -7.0186748978e-05 2.1663388043e+00 -3.7522088755e+00 2.1663388043e+00 3.7522088755e+00 
141700 5.7270245988e+00 -7.0294696973e-05 2.1663388043e+00 -3.7522088755e+00 2.1663388043e+00 3.7522088755e+00 
141800 5.7270245966e+00 -7.0402251036e-05 2.1663388043e+00 -3.7522088755e+00 2.1663388043e+00 3.7522088755e+00 
141900 5.7270245945e+00 -7.0509400745e-05 2.1663388043e+00 -3.7522088755e+00 2.1663388043e+00 3.7522088755e+00 
142000 5.7270245925e+00 -7.0616136322e-05 2.1663388043e+00 -3.7522088755e+00 2.1663388043e+00 3.7522088755e+00 
142100 5.7270245904e+00 -7.0722448593e-05 2.1663388043e+00 -3.7522088755e+00 2.1663388043e+00 3.7522088755e+00 
142200 5.7270245883e+00 -7.0053548048e-05 2.1663404367e+00 -3.7522117028e+00 2.1663404367e+00 3.7522117028e+00 
142300 5.7270245863e+00 -7.0156493723e-05 2.1663404367e+00 -3.7522117028e+00 2.1663404367e+00 3.7522117028e+00 
142400 5.7270245844e+00 -7.0259070685e-05 2.1663404367e+00 -3.7522117028e+00 2.1663404367e+00 3.7522117028e+00 
142500 5.7270245825e+00 -7.0361268525e-05 2.1663404367e+00 -3.7522117028e+00 2.1663404367e+00 3.7522117028e+00 
142600 5.7270245806e+00 -7.0463077483e-05 2.1663404367e+00 -3.7522117028e+00 2.1663404367e+00 3.7522117028e+00 
142700 5.7270245787e+00 -7.0564488409e-05 2.1663404367e+00 -3.7522117028e+00 2.1663404367e+00 3.7522117028e+00 
142800 5.7270245769e+00 -7.0665492725e-05 2.1663404367e+00 -3.7522117028e+00 2.1663404367e+00 3.7522117028e+00 
142900 5.7270245751e+00 -7.0766082398e-05 2.1663404367e+00 -3.7522117028e+00 2.1663404367e+00 3.7522117028e+00 
143000 5.7270245732e+00 -7.0090934720e-05 2.1663420700e+00 -3.7522145317e+00 2.1663420700e+00 3.7522145317e+00 
143100 5.7270245714e+00 -7.0188176785e-05 2.1663420700e+00 -3.7522145317e+00 2.1663420700e+00 3.7522145317e+00 
143200 5.7270245697e+00 -7.0285061925e-05 2.1663420700e+00 -3.7522145317e+00 2.1663420700e+00 3.7522145317e+00 
143300 5.7270245680e+00 -7.0381580649e-05 2.1663420700e+00 -3.7522145317e+00 2.1663420700e+00 3.7522145317e+00 
143400 5.7270245663e+00 -7.0477724066e-05 2.1663420700e+00 -3.7522145317e+00 2.1663420700e+00 3.7522145317e+00 
143500 5.7270245647e+00 -7.0573483847e-05 2.1663420700e+00 -3.7522145317e+00 2.1663420700e+00 3.7522145317e+00 
143600 5.7270245631e+00 -7.0668852200e-05 2.1663420700e+00 -3.7522145317e+00 2.1663420700e+00 3.7522145317e+00 
143700 5.7270245615e+00 -7.0763821832e-05 2.1663420700e+00 -3.7522145317e+00 2.1663420700e+00 3.7522145317e+00 
143800 5.7270245598e+00 -7.0083042681e-05 2.1663437032e+00 -3.7522173606e+00 2.1663437032e+00 3.7522173606e+00 
143900 5.7270245582e+00 -7.0174698716e-05 2.1663437032e+00 -3.7522173606e+00 2.1663437032e+00 3.7522173606e+00 
144000 5.7270245567e+00 -7.0266015753e-05 2.1663437032e+00 -3.7522173606e+00 2.1663437032e+00 3.7522173606e+00 
144100 5.7270245552e+00 -7.0356984900e-05 2.1663437032e+00 -3.7522173606e+00 2.1663437032e+00 3.7522173606e+00 
144200 5.7270245537e+00 -7.0447597833e-05 2.1663437032e+00 -3.7522173606e+00 2.1663437032e+00 3.7522173606e+00 
144300 5.7270245523e+00 -7.0537846767e-05 2.1663437032e+00 -3.7522173606e+00 2.1663437032e+00 3.7522173606e+00 
144400 5.7270245509e+00 -7.0627724416e-05 2.1663437032e+00 -3.7522173606e+00 2.1663437032e+00 3.7522173606e+00 
144500 5.7270245494e+00 -7.0717223971e-05 2.1663437032e+00 -3.7522173606e+00 2.1663437032e+00 3.7522173606e+00 
144600 5.7270245479e+00 -7.0031456835e-05 2.1663453354e+00 -3.7522201876e+00 2.1663453354e+00 3.7522201876e+00 
144700 5.7270245466e+00 -7.0117687061e-05 2.1663453354e+00 -3.7522201876e+00 2.1663453354e+00 3.7522201876e+00 
144800 5.7270245452e+00 -7.0203600177e-05 2.1663453354e+00 -3.7522201876e+00 2.1663453354e+00 3.7522201876e+00 
144900 5.7270245439e+00 -7.0289187680e-05 2.1663453354e+00 -3.7522201876e+00 2.1663453354e+00 3.7522201876e+00 
145000 5.7270245426e+00 -7.0374441617e-05 2.1663453354e+00 -3.7522201876e+00 2.1663453354e+00 3.7522201876e+00 
145100 5.7270245413e+00 -7.0459354551e-05 2.1663453354e+00 -3.7522201876e+00 2.1663453354e+00 3.7522201876e+00 
145200 5.7270245400e+00 -7.0543919527e-05 2.1663453354e+00 -3.7522201876e+00 2.1663453354e+00 3.7522201876e+00 
145300 5.7270245388e+00 -7.0628130047e-05 2.1663453354e+00 -3.7522201876e+00 2.1663453354e+00 3.7522201876e+00 
145400 5.7270245376e+00 -7.0711980041e-05 2.1663453354e+00 -3.7522201876e+00 2.1663453354e+00 3.7522201876e+00 
145500 5.7270245362e+00 -7.0020586672e-05 2.1663469675e+00 -3.7522230145e+00 2.1663469675e+00 3.7522230145e+00 
145600 5.7270245351e+00 -7.0101204729e-05 2.1663469675e+00 -3.7522230145e+00 2.1663469675e+00 3.7522230145e+00 
145700 5.7270245339e+00 -7.0181525215e-05 2.1663469675e+00 -3.7522230145e+00 2.1663469675e+00 3.7522230145e+00 
145800 5.7270245327e+00 -7.0261540213e-05 2.1663469675e+00 -3.7522230145e+00 2.1663469675e+00 3.7522230145e+00 
145900 5.7270245316e+00 -7.0341242318e-05 2.1663469675e+00 -3.7522230145e+00 2.1663469675e+00 3.7522230145e+00 
146000 5.7270245305e+00 -7.0420624610e-05 2.1663469675e+00 -3.7522230145e+00 2.1663469675e+00 3.7522230145e+00 
146100 5.7270245294e+00 -7.0499680621e-05 2.1663469675e+00 -3.7522230145e+00 2.1663469675e+00 3.7522230145e+00 
146200 5.7270245283e+00 -7.0578404310e-05 2.1663469675e+00 -3.7522230145e+00 2.1663469675e+00 3.7522230145e+00 
146300 5.7270245272e+00 -7.0656790037e-05 2.1663469675e+00 -3.7522230145e+00 2.1663469675e+00 3.7522230145e+00 
146400 5.7270245261e+00 -7.0734832540e-05 2.1663469675e+00 -3.7522230145e+00 2.1663469675e+00 3.7522230145e+00 
146500 5.7270245250e+00 -7.0037345055e-05 2.1663486000e+00 -3.7522258422e+00 2.1663486000e+00 3.7522258422e+00 
146600 5.7270245240e+00 -7.0112191676e-05 2.1663486000e+00 -3.7522258422e+00 2.1663486000e+00 3.7522258422e+00 
146700 5.7270245230e+00 -7.0186760210e-05 2.1663486000e+00 -3.7522258422e+00 2.1663486000e+00 3.7522258422e+00 
146800 5.7270245220e+00 -7.0261043371e-05 2.1663486000e+00 -3.7522258422e+00 2.1663486000e+00 3.7522258422e+00 
146900 5.7270245210e+00 -7.0335034349e-05 2.1663486000e+00 -3.7522258422e+00 2.1663486000e+00 3.7522258422e+00 
147000 5.7270245200e+00 -7.0408726784e-05 2.1663486000e+00 -3.7522258422e+00 2.1663486000e+00 3.7522258422e+00 
147100 5.7270245191e+00 -7.0482114732e-05 2.1663486000e+00 -3.7522258422e+00 2.1663486000e+00 3.7522258422e+00 
147200 5.7270245182e+00 -7.0555192646e-05 2.1663486000e+00 -3.7522258422e+00 2.1663486000e+00 3.7522258422e+00 
147300 5.7270245173e+00 -7.0627955353e-05 2.1663486000e+00 -3.7522258422e+00 2.1663486000e+00 3.7522258422e+00 
147400 5.7270245163e+00 -7.0700398025e-05 2.1663486000e+00 -3.7522258422e+00 2.1663486000e+00 3.7522258422e+00 
147500 5.7270245155e+00 -7.0772516166e-05 2.1663486000e+00 -3.7522258422e+00 2.1663486000e+00 3.7522258422e+00 
147600 5.7270245145e+00 -7.0068655563e-05 2.1663502335e+00 -3.7522286714e+00 2.1663502335e+00 3.7522286714e+00 
147700 5.7270245136e+00 -7.0137616010e-05 2.1663502335e+00 -3.7522286714e+00 2.1663502335e+00 3.7522286714e+00 
147800 5.7270245128e+00 -7.0206319142e-05 2.1663502335e+00 -3.7522286714e+00 2.1663502335e+00 3.7522286714e+00 
147900 5.7270245119e+00 -7.0274758268e-05 2.1663502335e+00 -3.7522286714e+00 2.1663502335e+00 3.7522286714e+00 
148000 5.7270245111e+00 -7.0342927140e-05 2.1663502335e+00 -3.7522286714e+00 2.1663502335e+00 3.7522286714e+00 
148100 5.7270245103e+00 -7.0410819921e-05 2.1663502335e+00 -3.7522286714e+00 2.1663502335e+00 3.7522286714e+00 
148200 5.7270245095e+00 -7.0478431162e-05 2.1663502335e+00 -3.7522286714e+00 2.1663502335e+00 3.7522286714e+00 
148300 5.7270245087e+00 -7.0545755783e-05 2.1663502335e+00 -3.7522286714e+00 2.1663502335e+00 3.7522286714e+00 
148400 5.7270245079e+00 -7.0612789042e-05 2.1663502335e+00 -3.7522286714e+00 2.1663502335e+00 3.7522286714e+00 
148500 5.7270245072e+00 -7.0679526521e-05 2.1663502335e+00 -3.7522286714e+00 2.1663502335e+00 3.7522286714e+00 
148600 5.7270245064e+00 -7.0745964107e-05 2.1663502335e+00 -3.7522286714e+00 2.1663502335e+00 3.7522286714e+00 
148700 5.7270245056e+00 -7.0036688365e-05 2.1663518663e+00 -3.7522314996e+00 2.1663518663e+00 3.7522314996e+00 
148800 5.7270245048e+00 -7.0100019539e-05 2.1663518663e+00 -3.7522314996e+00 2.1663518663e+00 3.7522314996e+00 
148900 5.7270245041e+00 -7.0163119023e-05 2.1663518663e+00 -3.7522314996e+00 2.1663518663e+00 3.7522314996e+00 
149000 5.7270245034e+00 -7.0225980421e-05 2.1663518663e+00 -3.7522314996e+00 2.1663518663e+00 3.7522314996e+00 
149100 5.7270245027e+00 -7.0288597758e-05 2.1663518663e+00 -3.7522314996e+00 2.1663518663e+00 3.7522314996e+00 
149200 5.7270245020e+00 -7.0350965457e-05 2.1663518663e+00 -3.7522314996e+00 2.1663518663e+00 3.7522314996e+00 
149300 5.7270245014e+00 -7.0413078308e-05 2.1663518663e+00 -3.7522314996e+00 2.1663518663e+00 3.7522314996e+00 
149400 5.7270245007e+00 -7.0474931451e-05 2.1663518663e+00 -3.7522314996e+00 2.1663518663e+00 3.7522314996e+00 
149500 5.7270245000e+00 -7.0536520352e-05 2.1663518663e+00 -3.7522314996e+00 2.1663518663e+00 3.7522314996e+00 
149600 5.7270244994e+00 -7.0597840787e-05 2.1663518663e+00 -3.7522314996e+00 2.1663518663e+00 3.7522314996e+00 
149700 5.7270244988e+00 -7.0658888817e-05 2.1663518663e+00 -3.7522314996e+00 2.1663518663e+00 3.7522314996e+00 
149800 5.7270244981e+00 -7.0719660777e-05 2.1663518663e+00 -3.7522314996e+00 2.1663518663e+00 3.7522314996e+00 
149900 5.7270244974e+00 -7.0004981385e-05 2.1663534986e+00 -3.7522343267e+00 2.1663534986e+00 3.7522343267e+00 
150000 5.7270244968e+00 -7.0062696756e-05 2.1663534986e+00 -3.7522343267e+00 2.1663534986e+00 3.7522343267e+00 
150100 5.7270244962e+00 -7.0120205413e-05 2.1663534986e+00 -3.7522343267e+00 2.1663534986e+00 3.7522343267e+00 
150200 5.7270244956e+00 -7.0177501303e-05 2.1663534986e+00 -3.7522343267e+00 2.1663534986e+00 3.7522343267e+00 
150300 5.7270244950e+00 -7.0234578770e-05 2.1663534986e+00 -3.7522343267e+00 2.1663534986e+00 3.7522343267e+00 
150400 5.7270244945e+00 -7.0291432531e-05 2.1663534986e+00 -3.7522343267e+00 2.1663534986e+00 3.7522343267e+00 
150500 5.7270244939e+00 -7.0348057652e-05 2.1663534986e+00 -3.7522343267e+00 2.1663534986e+00 3.7522343267e+00 
150600 5.7270244934e+00 -7.0404449528e-05 2.1663534986e+00 -3.7522343267e+00 2.1663534986e+00 3.7522343267e+00 
150700 5.7270244928e+00 -7.0460603862e-05 2.1663534986e+00 -3.7522343267e+00 2.1663534986e+00 3.7522343267e+00 
150800 5.7270244923e+00 -7.0516516647e-05 2.1663534986e+00 -3.7522343267e+00 2.1663534986e+00 3.7522343267e+00 
150900 5.7270244918e+00 -7.0572184148e-05 2.1663534986e+00 -3.7522343267e+00 2.1663534986e+00 3.7522343267e+00 
151000 5.7270244912e+00 -7.0627602885e-05 2.1663534986e+00 -3.7522343267e+00 2.1663534986e+00 3.7522343267e+00 
151100 5.7270244907e+00 -7.0682769620e-05 2.1663534986e+00 -3.7522343267e+00 2.1663534986e+00 3.7522343267e+00 
151200 5.7270244902e+00 -7.0737681343e-05 2.1663534986e+00 -3.7522343267e+00 2.1663534986e+00 3.7522343267e+00 
151300 5.7270244896e+00 -7.0016912256e-05 2.1663551312e+00 -3.7522371545e+00 2.1663551312e+00 3.7522371545e+00 
151400 5.7270244891e+00 -7.0068810681e-05 2.1663551312e+00 -3.7522371545e+00 2.1663551312e+00 3.7522371545e+00 
151500 5.7270244887e+00 -7.0120525194e-05 2.1663551312e+00 -3.7522371545e+00 2.1663551312e+00 3.7522371545e+00 
151600 5.7270244882e+00 -7.0172050241e-05 2.1663551312e+00 -3.7522371545e+00 2.1663551312e+00 3.7522371545e+00 
151700 5.7270244877e+00 -7.0223380633e-05 2.1663551312e+00 -3.7522371545e+00 2.1663551312e+00 3.7522371545e+00 
151800 5.7270244873e+00 -7.0274511523e-05 2.1663551312e+00 -3.7522371545e+00 2.1663551312e+00 3.7522371545e+00 
151900 5.7270244868e+00 -7.0325438383e-05 2.1663551312e+00 -3.7522371545e+00 2.1663551312e+00 3.7522371545e+00 
152000 5.7270244864e+00 -7.0376156987e-05 2.1663551312e+00 -3.7522371545e+00 2.1663551312e+00 3.7522371545e+00 
152100 5.7270244859e+00 -7.0426663392e-05 2.1663551312e+00 -3.7522371545e+00 2.1663551312e+00 3.7522371545e+00 
152200 5.7270244855e+00 -7.0476953919e-05 2.1663551312e+00 -3.7522371545e+00 2.1663551312e+00 3.7522371545e+00 
152300 5.7270244851e+00 -7.0527025140e-05 2.1663551312e+00 -3.7522371545e+00 2.1663551312e+00 3.7522371545e+00 
152400 5.7270244846e+00 -7.0576873859e-05 2.1663551312e+00 -3.7522371545e+00 2.1663551312e+00 3.7522371545e+00 
152500 5.7270244842e+00 -7.0626497104e-05 2.1663551312e+00 -3.7522371545e+00 2.1663551312e+00 3.7522371545e+00 
152600 5.7270244838e+00 -7.0675892109e-05 2.1663551312e+00 -3.7522371545e+00 2.1663551312e+00 3.7522371545e+00 
152700 5.7270244834e+00 -7.0725056302e-05 2.1663551312e+00 -3.7522371545e+00 2.1663551312e+00 3.7522371545e+00 
152800 5.7270244829e+00 -6.9998651341e-05 2.1663567636e+00 -3.7522399818e+00 2.1663567636e+00 3.7522399818e+00 
152900 5.7270244825e+00 -7.0044852306e-05 2.1663567636e+00 -3.7522399818e+00 2.1663567636e+00 3.7522399818e+00 
153000 5.7270244822e+00 -7.0090894707e-05 2.1663567636e+00 -3.7522399818e+00 2.1663567636e+00 3.7522399818e+00 
153100 5.7270244818e+00 -7.0136773322e-05 2.1663567636e+00 -3.7522399818e+00 2.1663567636e+00 3.7522399818e+00 
153200 5.7270244814e+00 -7.0182483273e-05 2.1663567636e+00 -3.7522399818e+00 2.1663567636e+00 3.7522399818e+00 
153300 5.7270244810e+00 -7.0228020000e-05 2.1663567636e+00 -3.7522399818e+00 2.1663567636e+00 3.7522399818e+00 
153400 5.7270244807e+00 -7.0273379244e-05 2.1663567636e+00 -3.7522399818e+00 2.1663567636e+00 3.7522399818e+00 
153500 5.7270244803e+00 -7.0318557027e-05 2.1663567636e+00 -3.7522399818e+00 2.1663567636e+00 3.7522399818e+00 
153600 5.7270244800e+00 -7.0363549637e-05 2.1663567636e+00 -3.7522399818e+00 2.1663567636e+00 3.7522399818e+00 
153700 5.7270244796e+00 -7.0408353607e-05 2.1663567636e+00 -3.7522399818e+00 2.1663567636e+00 3.7522399818e+00 
153800 5.7270244793e+00 -7.0452965703e-05 2.1663567636e+00 -3.7522399818e+00 2.1663567636e+00 3.7522399818e+00 
153900 5.7270244790e+00 -7.0497382914e-05 2.1663567636e+00 -3.7522399818e+00 2.1663567636e+00 3.7522399818e+00 
154000 5.7270244786e+00 -7.0541602430e-05 2.1663567636e+00 -3.7522399818e+00 2.1663567636e+00 3.7522399818e+00 
154100 5.7270244783e+00 -7.0585621635e-05 2.1663567636e+00 -3.7522399818e+00 2.1663567636e+00 3.7522399818e+00 
154200 5.7270244780e+00 -7.0629438100e-05 2.1663567636e+00 -3.7522399818e+00 2.1663567636e+00 3.7522399818e+00 
154300 5.7270244777e+00 -7.0673049563e-05 2.1663567636e+00 -3.7522399818e+00 2.1663567636e+00 3.7522399818e+00 
154400 5.7270244774e+00 -7.0716453926e-05 2.1663567636e+00 -3.7522399818e+00 2.1663567636e+00 3.7522399818e+00 
154500 5.7270244770e+00 -6.9984356037e-05 2.1663583957e+00 -3.7522428088e+00 2.1663583957e+00 3.7522428088e+00 
154600 5.7270244767e+00 -7.0024846208e-05 2.1663583957e+00 -3.7522428088e+00 2.1663583957e+00 3.7522428088e+00 
154700 5.7270244764e+00 -7.0065202757e-05 2.1663583957e+00 -3.7522428088e+00 2.1663583957e+00 3.7522428088e+00 
154800 5.7270244761e+00 -7.0105420820e-05 2.1663583957e+00 -3.7522428088e+00 2.1663583957e+00 3.7522428088e+00 
154900 5.7270244758e+00 -7.0145495852e-05 2.1663583957e+00 -3.7522428088e+00 2.1663583957e+00 3.7522428088e+00 
155000 5.7270244755e+00 -7.0185423602e-05 2.1663583957e+00 -3.7522428088e+00 2.1663583957e+00 3.7522428088e+00 
155100 5.7270244753e+00 -7.0225200097e-05 2.1663583957e+00 -3.7522428088e+00 2.1663583957e+00 3.7522428088e+00 
155200 5.7270244750e+00 -7.0264821628e-05 2.1663583957e+00 -3.7522428088e+00 2.1663583957e+00 3.7522428088e+00 
155300 5.7270244747e+00 -7.0304284726e-05 2.1663583957e+00 -3.7522428088e+00 2.1663583957e+00 3.7522428088e+00 
155400 5.7270244745e+00 -7.0343586155e-05 2.1663583957e+00 -3.7522428088e+00 2.1663583957e+00 3.7522428088e+00 
155500 5.7270244742e+00 -7.0382722893e-05 2.1663583957e+00 -3.7522428088e+00 2.1663583957e+00 3.7522428088e+00 
155600 5.7270244739e+00 -7.0421692119e-05 2.1663583957e+00 -3.7522428088e+00 2.1663583957e+00 3.7522428088e+00 
155700 5.7270244737e+00 -7.0460491205e-05 2.1663583957e+00 -3.7522428088e+00 2.1663583957e+00 3.7522428088e+00 
155800 5.7270244734e+00 -7.0499117700e-05 2.1663583957e+00 -3.7522428088e+00 2.1663583957e+00 3.7522428088e+00 
155900 5.7270244732e+00 -7.0537569322e-05 2.1663583957e+00 -3.7522428088e+00 2.1663583957e+00 3.7522428088e+00 
156000 5.7270244730e+00 -7.0575843948e-05 2.1663583957e+00 -3.7522428088e+00 2.1663583957e+00 3.7522428088e+00 
156100 5.7270244727e+00 -7.0613939603e-05 2.1663583957e+00 -3.7522428088e+00 2.1663583957e+00 3.7522428088e+00 
156200 5.7270244725e+00 -7.0651854456e-05 2.1663583957e+00 -3.7522428088e+00 2.1663583957e+00 3.7522428088e+00 
156300 5.7270244723e+00 -7.0689586805e-05 2.1663583957e+00 -3.7522428088e+00 2.1663583957e+00 3.7522428088e+00 
156400 5.7270244720e+00 -7.0727135077e-05 2.1663583957e+00 -3.7522428088e+00 2.1663583957e+00 3.7522428088e+00 
156500 5.7270244717e+00 -6.9989034729e-05 2.1663600281e+00 -3.7522456362e+00 2.1663600281e+00 3.7522456362e+00 
156600 5.7270244715e+00 -7.0023715929e-05 2.1663600281e+00 -3.7522456362e+00 2.1663600281e+00 3.7522456362e+00 
156700 5.7270244713e+00 -7.0058287921e-05 2.1663600281e+00 -3.7522456362e+00 2.1663600281e+00 3.7522456362e+00 
156800 5.7270244711e+00 -7.0092746241e-05 2.1663600281e+00 -3.7522456362e+00 2.1663600281e+00 3.7522456362e+00 
156900 5.7270244708e+00 -7.0127086713e-05 2.1663600281e+00 -3.7522456362e+00 2.1663600281e+00 3.7522456362e+00 
157000 5.7270244706e+00 -7.0161305433e-05 2.1663600281e+00 -3.7522456362e+00 2.1663600281e+00 3.7522456362e+00 
157100 5.7270244704e+00 -7.0195398753e-05 2.1663600281e+00 -3.7522456362e+00 2.1663600281e+00 3.7522456362e+00 
157200 5.7270244702e+00 -7.0229363261e-05 2.1663600281e+00 -3.7522456362e+00 2.1663600281e+00 3.7522456362e+00 
157300 5.7270244700e+00 -7.0263195769e-05 2.1663600281e+00 -3.7522456362e+00 2.1663600281e+00 3.7522456362e+00 
157400 5.7270244698e+00 -7.0296893299e-05 2.1663600281e+00 -3.7522456362e+00 2.1663600281e+00 3.7522456362e+00 
157500 5.7270244697e+00 -7.0330453070e-05 2.1663600281e+00 -3.7522456362e+00 2.1663600281e+00 3.7522456362e+00 
157600 5.7270244695e+00 -7.0363872485e-05 2.1663600281e+00 -3.7522456362e+00 2.1663600281e+00 3.7522456362e+00 
157700 5.7270244693e+00 -7.0397149120e-05 2.1663600281e+00 -3.7522456362e+00 2.1663600281e+00 3.7522456362e+00 
157800 5.7270244691e+00 -7.0430280715e-05 2.1663600281e+00 -3.7522456362e+00 2.1663600281e+00 3.7522456362e+00 
157900 5.7270244689e+00 -7.0463265164e-05 2.1663600281e+00 -3.7522456362e+00 2.1663600281e+00 3.7522456362e+00 
158000 5.7270244687e+00 -7.0496100503e-05 2.1663600281e+00 -3.7522456362e+00 2.1663600281e+00 3.7522456362e+00 
158100 5.7270244686e+00 -7.0528784906e-05 2.1663600281e+00 -3.7522456362e+00 2.1663600281e+00 3.7522456362e+00 
158200 5.7270244684e+00 -7.0561316675e-05 2.1663600281e+00 -3.7522456362e+00 2.1663600281e+00 3.7522456362e+00 
158300 5.7270244682e+00 -7.0593694232e-05 2.1663600281e+00 -3.7522456362e+00 2.1663600281e+00 3.7522456362e+00 
158400 5.7270244681e+00 -7.0625916113e-05 2.1663600281e+00 -3.7522456362e+00 2.1663600281e+00 3.7522456362e+00 
158500 5.7270244679e+00 -7.0657980963e-05 2.1663600281e+00 -3.7522456362e+00 2.1663600281e+00 3.7522456362e+00 
158600 5.7270244677e+00 -7.0689887526e-05 2.1663600281e+00 -3.7522456362e+00 2.1663600281e+00 3.7522456362e+00 
158700 5.7270244676e+00 -7.0721634645e-05 2.1663600281e+00 -3.7522456362e+00 2.1663600281e+00 3.7522456362e+00 
158800 5.7270244673e+00 -6.9977766966e-05 2.1663616604e+00 -3.7522484633e+00 2.1663616604e+00 3.7522484633e+00 
158900 5.7270244672e+00 -7.0006697630e-05 2.1663616604e+00 -3.7522484633e+00 2.1663616604e+00 3.7522484633e+00 
159000 5.7270244670e+00 -7.0035544811e-05 2.1663616604e+00 -3.7522484633e+00 2.1663616604e+00 3.7522484633e+00 
159100 5.7270244669e+00 -7.0064304357e-05 2.1663616604e+00 -3.7522484633e+00 2.1663616604e+00 3.7522484633e+00 
159200 5.7270244667e+00 -7.0092972388e-05 2.1663616604e+00 -3.7522484633e+00 2.1663616604e+00 3.7522484633e+00 
159300 5.7270244666e+00 -7.0121545272e-05 2.1663616604e+00 -3.7522484633e+00 2.1663616604e+00 3.7522484633e+00 
159400 5.7270244664e+00 -7.0150019614e-05 2.1663616604e+00 -3.7522484633e+00 2.1663616604e+00 3.7522484633e+00 
159500 5.7270244663e+00 -7.0178392238e-05 2.1663616604e+00 -3.7522484633e+00 2.1663616604e+00 3.7522484633e+00 
159600 5.7270244662e+00 -7.0206660174e-05 2.1663616604e+00 -3.7522484633e+00 2.1663616604e+00 3.7522484633e+00 
159700 5.7270244660e+00 -7.0234820645e-05 2.1663616604e+00 -3.7522484633e+00 2.1663616604e+00 3.7522484633e+00 
159800 5.7270244659e+00 -7.0262871055e-05 2.1663616604e+00 -3.7522484633e+00 2.1663616604e+00 3.7522484633e+00 
159900 5.7270244658e+00 -7.0290808980e-05 2.1663616604e+00 -3.7522484633e+00 2.1663616604e+00 3.7522484633e+00 
160000 5.7270244656e+00 -7.0318632151e-05 2.1663616604e+00 -3.7522484633e+00 2.1663616604e+00 3.7522484633e+00 
160100 5.7270244655e+00 -7.0346338454e-05 2.1663616604e+00 -3.7522484633e+00 2.1663616604e+00 3.7522484633e+00 
160200 5.7270244654e+00 -7.0373925912e-05 2.1663616604e+00 -3.7522484633e+00 2.1663616604e+00 3.7522484633e+00 
160300 5.7270244652e+00 -7.0401392683e-05 2.1663616604e+00 -3.7522484633e+00 2.1663616604e+00 3.7522484633e+00 
160400 5.7270244651e+00 -7.0428737048e-05 2.1663616604e+00 -3.7522484633e+00 2.1663616604e+00 3.7522484633e+00 
160500 5.7270244650e+00 -7.0455957407e-05 2.1663616604e+00 -3.7522484633e+00 2.1663616604e+00 3.7522484633e+00 
160600 5.7270244649e+00 -7.0483052268e-05 2.1663616604e+00 -3.7522484633e+00 2.1663616604e+00 3.7522484633e+00 
160700 5.7270244648e+00 -7.0510020247e-05 2.1663616604e+00 -3.7522484633e+00 2.1663616604e+00 3.7522484633e+00 
160800 5.7270244647e+00 -7.0536860054e-05 2.1663616604e+00 -3.7522484633e+00 2.1663616604e+00 3.7522484633e+00 
160900 5.7270244645e+00 -7.0563570495e-05 2.1663616604e+00 -3.7522484633e+00 2.1663616604e+00 3.7522484633e+00 
161000 5.7270244644e+00 -7.0590150463e-05 2.1663616604e+00 -3.7522484633e+00 2.1663616604e+00 3.7522484633e+00 
161100 5.7270244643e+00 -7.0616598933e-05 2.1663616604e+00 -3.7522484633e+00 2.1663616604e+00 3.7522484633e+00 
161200 5.7270244642e+00 -7.0642914959e-05 2.1663616604e+00 -3.7522484633e+00 2.1663616604e+00 3.7522484633e+00 
161300 5.7270244641e+00 -7.0669097670e-05 2.1663616604e+00 -3.7522484633e+00 2.1663616604e+00 3.7522484633e+00 
161400 5.7270244640e+00 -7.0695146263e-05 2.1663616604e+00 -3.7522484633e+00 2.1663616604e+00 3.7522484633e+00 
161500 5.7270244639e+00 -7.0721060004e-05 2.1663616604e+00 -3.7522484633e+00 2.1663616604e+00 3.7522484633e+00 
161600 5.7270244637e+00 -6.9971338538e-05 2.1663632926e+00 -3.7522512905e+00 2.1663632926e+00 3.7522512905e+00 
161700 5.7270244636e+00 -6.9994486204e-05 2.1663632926e+00 -3.7522512905e+00 2.1663632926e+00 3.7522512905e+00 
161800 5.7270244635e+00 -7.0017576092e-05 2.1663632926e+00 -3.7522512905e+00 2.1663632926e+00 3.7522512905e+00 
161900 5.7270244634e+00 -7.0040604376e-05 2.1663632926e+00 -3.7522512905e+00 2.1663632926e+00 3.7522512905e+00 
162000 5.7270244633e+00 -7.0063567472e-05 2.1663632926e+00 -3.7522512905e+00 2.1663632926e+00 3.7522512905e+00 
162100 5.7270244632e+00 -7.0086462029e-05 2.1663632926e+00 -3.7522512905e+00 2.1663632926e+00 3.7522512905e+00 
162200 5.7270244631e+00 -7.0109284909e-05 2.1663632926e+00 -3.7522512905e+00 2.1663632926e+00 3.7522512905e+00 
162300 5.7270244630e+00 -7.0132033179e-05 2.1663632926e+00 -3.7522512905e+00 2.1663632926e+00 3.7522512905e+00 
162400 5.7270244629e+00 -7.0154704091e-05 2.1663632926e+00 -3.7522512905e+00 2.1663632926e+00 3.7522512905e+00 
162500 5.7270244628e+00 -7.0177295076e-05 2.1663632926e+00 -3.7522512905e+00 2.1663632926e+00 3.7522512905e+00 
162600 5.7270244628e+00 -7.0199803727e-05 2.1663632926e+00 -3.7522512905e+00 2.1663632926e+00 3.7522512905e+00 
162700 5.7270244627e+00 -7.0222227798e-05 2.1663632926e+00 -3.7522512905e+00 2.1663632926e+00 3.7522512905e+00 
162800 5.7270244626e+00 -7.0244565183e-05 2.1663632926e+00 -3.7522512905e+00 2.1663632926e+00 3.7522512905e+00 
162900 5.7270244625e+00 -7.0266813915e-05 2.1663632926e+00 -3.7522512905e+00 2.1663632926e+00 3.7522512905e+00 
163000 5.7270244624e+00 -7.0288972155e-05 2.1663632926e+00 -3.7522512905e+00 2.1663632926e+00 3.7522512905e+00 
163100 5.7270244623e+00 -7.0311038184e-05 2.1663632926e+00 -3.7522512905e+00 2.1663632926e+00 3.7522512905e+00 
163200 5.7270244623e+00 -7.0333010397e-05 2.1663632926e+00 -3.7522512905e+00 2.1663632926e+00 3.7522512905e+00 
163300 5.7270244622e+00 -7.0354887295e-05 2.1663632926e+00 -3.7522512905e+00 2.1663632926e+00 3.7522512905e+00 
163400 5.7270244621e+00 -7.0376667479e-05 2.1663632926e+00 -3.7522512905e+00 2.1663632926e+00 3.7522512905e+00 
163500 5.7270244620e+00 -7.0398349645e-05 2.1663632926e+00 -3.7522512905e+00 2.1663632926e+00 3.7522512905e+00 
163600 5.7270244620e+00 -7.0419932577e-05 2.1663632926e+00 -3.7522512905e+00 2.1663632926e+00 3.7522512905e+00 
163700 5.7270244619e+00 -7.0441415144e-05 2.1663632926e+00 -3.7522512905e+00 2.1663632926e+00 3.7522512905e+00 
163800 5.7270244618e+00 -7.0462796294e-05 2.1663632926e+00 -3.7522512905e+00 2.1663632926e+00 3.7522512905e+00 
163900 5.7270244617e+00 -7.0484075050e-05 2.1663632926e+00 -3.7522512905e+00 2.1663632926e+00 3.7522512905e+00 
164000 5.7270244617e+00 -7.0505250504e-05 2.1663632926e+00 -3.7522512905e+00 2.1663632926e+00 3.7522512905e+00 
164100 5.7270244616e+00 -7.0526321816e-05 2.1663632926e+00 -3.7522512905e+00 2.1663632926e+00 3.7522512905e+00 
164200 5.7270244615e+00 -7.0547288208e-05 2.1663632926e+00 -3.7522512905e+00 2.1663632926e+00 3.7522512905e+00 
164300 5.7270244615e+00 -7.0568148964e-05 2.1663632926e+00 -3.7522512905e+00 2.1663632926e+00 3.7522512905e+00 
164400 5.7270244614e+00 -7.0588903423e-05 2.1663632926e+00 -3.7522512905e+00 2.1663632926e+00 3.7522512905e+00 
164500 5.7270244613e+00 -7.0609550976e-05 2.1663632926e+00 -3.7522512905e+00 2.1663632926e+00 3.7522512905e+00 
164600 5.7270244613e+00 -7.0630091071e-05 2.1663632926e+00 -3.7522512905e+00 2.1663632926e+00 3.7522512905e+00 
164700 5.7270244612e+00 -7.0650523196e-05 2.1663632926e+00 -3.7522512905e+00 2.1663632926e+00 3.7522512905e+00 
164800 5.7270244612e+00 -7.0670846891e-05 2.1663632926e+00 -3.7522512905e+00 2.1663632926e+00 3.7522512905e+00 
164900 5.7270244611e+00 -7.0691061737e-05 2.1663632926e+00 -3.7522512905e+00 2.1663632926e+00 3.7522512905e+00 
165000 5.7270244610e+00 -7.0711167357e-05 2.1663632926e+00 -3.7522512905e+00 2.1663632926e+00 3.7522512905e+00 
165100 5.7270244609e+00 -6.9955721343e-05 2.1663649247e+00 -3.7522541172e+00 2.1663649247e+00 3.7522541172e+00 
165200 5.7270244608e+00 -6.9973113485e-05 2.1663649247e+00 -3.7522541172e+00 2.1663649247e+00 3.7522541172e+00 
165300 5.7270244608e+00 -6.9990474410e-05 2.1663649247e+00 -3.7522541172e+00 2.1663649247e+00 3.7522541172e+00 
165400 5.7270244607e+00 -7.0007800561e-05 2.1663649247e+00 -3.7522541172e+00 2.1663649247e+00 3.7522541172e+00 
165500 5.7270244606e+00 -7.0025088608e-05 2.1663649247e+00 -3.7522541172e+00 2.1663649247e+00 3.7522541172e+00 
165600 5.7270244606e+00 -7.0042335434e-05 2.1663649247e+00 -3.7522541172e+00 2.1663649247e+00 3.7522541172e+00 
165700 5.7270244605e+00 -7.0059538122e-05 2.1663649247e+00 -3.7522541172e+00 2.1663649247e+00 3.7522541172e+00 
165800 5.7270244605e+00 -7.0076693937e-05 2.1663649247e+00 -3.7522541172e+00 2.1663649247e+00 3.7522541172e+00 
165900 5.7270244604e+00 -7.0093800320e-05 2.1663649247e+00 -3.7522541172e+00 2.1663649247e+00 3.7522541172e+00 
166000 5.7270244604e+00 -7.0110854872e-05 2.1663649247e+00 -3.7522541172e+00 2.1663649247e+00 3.7522541172e+00 
166100 5.7270244603e+00 -7.0127855349e-05 2.1663649247e+00 -3.7522541172e+00 2.1663649247e+00 3.7522541172e+00 
166200 5.7270244603e+00 -7.0144799647e-05 2.1663649247e+00 -3.7522541172e+00 2.1663649247e+00 3.7522541172e+00 
166300 5.7270244602e+00 -7.0161685795e-05 2.1663649247e+00 -3.7522541172e+00 2.1663649247e+00 3.7522541172e+00 
166400 5.7270244602e+00 -7.0178511946e-05 2.1663649247e+00 -3.7522541172e+00 2.1663649247e+00 3.7522541172e+00 
166500 5.7270244601e+00 -7.0195276374e-05 2.1663649247e+00 -3.7522541172e+00 2.1663649247e+00 3.7522541172e+00 
166600 5.7270244601e+00 -7.0211977459e-05 2.1663649247e+00 -3.7522541172e+00 2.1663649247e+00 3.7522541172e+00 
166700 5.7270244600e+00 -7.0228613684e-05 2.1663649247e+00 -3.7522541172e+00 2.1663649247e+00 3.7522541172e+00 
166800 5.7270244600e+00 -7.0245183632e-05 2.1663649247e+00 -3.7522541172e+00 2.1663649247e+00 3.7522541172e+00 
166900 5.7270244599e+00 -7.0261685976e-05 2.1663649247e+00 -3.7522541172e+00 2.1663649247e+00 3.7522541172e+00 
167000 5.7270244599e+00 -7.0278119471e-05 2.1663649247e+00 -3.7522541172e+00 2.1663649247e+00 3.7522541172e+00 
167100 5.7270244599e+00 -7.0294482957e-05 2.1663649247e+00 -3.7522541172e+00 2.1663649247e+00 3.7522541172e+00 
167200 5.7270244598e+00 -7.0310775349e-05 2.1663649247e+00 -3.7522541172e+00 2.1663649247e+00 3.7522541172e+00 
167300 5.7270244598e+00 -7.0326995632e-05 2.1663649247e+00 -3.7522541172e+00 2.1663649247e+00 3.7522541172e+00 
167400 5.7270244597e+00 -7.0343142859e-05 2.1663649247e+00 -3.7522541172e+00 2.1663649247e+00 3.7522541172e+00 
167500 5.7270244597e+00 -7.0359216146e-05 2.1663649247e+00 -3.7522541172e+00 2.1663649247e+00 3.7522541172e+00 
167600 5.7270244597e+00 -7.0375214672e-05 2.1663649247e+00 -3.7522541172e+00 2.1663649247e+00 3.7522541172e+00 
167700 5.7270244596e+00 -7.0383314345e-05 2.1663649247e+00 -3.7522541172e+00 2.1663649247e+00 3.7522541172e+00 
167700 5.7270244596e+00 -7.0383314345e-05 2.1663649247e+00 -3.7522541172e+00 2.1663649247e+00 3.7522541172e+00 
