# step Hamiltonian StressXX CellTensor1 CellTensor2 CellTensor3 CellTensor4 
0 4.5918732975e+00 1.9320738611e-02 1.6387017056e+00 -2.8383146126e+00 1.6387017056e+00 2.8383146126e+00 
100 4.5752092909e+00 1.5827389671e-02 1.6387017056e+00 -2.8383146126e+00 1.6387017056e+00 2.8383146126e+00 
200 4.5590321201e+00 1.2053694825e-02 1.6382188047e+00 -2.8374782036e+00 1.6382188047e+00 2.8374782036e+00 
300 4.5433188164e+00 8.6327953581e-03 1.6378509282e+00 -2.8368410228e+00 1.6378509282e+00 2.8368410228e+00 
400 4.5280463136e+00 5.5382547006e-03 1.6375873949e+00 -2.8363845699e+00 1.6375873949e+00 2.8363845699e+00 
500 4.5132030690e+00 2.7478808066e-03 1.6374182999e+00 -2.8360916886e+00 1.6374182999e+00 2.8360916886e+00 
600 4.4987863711e+00 2.4311272775e-04 1.6373343916e+00 -2.8359463553e+00 1.6373343916e+00 2.8359463553e+00 
700 4.4847999587e+00 -1.9915684755e-03 1.6373269676e+00 -2.8359334965e+00 1.6373269676e+00 2.8359334965e+00 
800 4.4712519515e+00 -3.9691933337e-03 1.6373877856e+00 -2.8360388364e+00 1.6373877856e+00 2.8360388364e+00 
900 4.4581530819e+00 -5.7008136171e-03 1.6375089922e+00 -2.8362487723e+00 1.6375089922e+00 2.8362487723e+00 
1000 4.4455152172e+00 -7.1959622167e-03 1.6376830650e+00 -2.8365502752e+00 1.6376830650e+00 2.8365502752e+00 
1100 4.4333501519e+00 -8.4630598990e-03 1.6379027693e+00 -2.8369308144e+00 1.6379027693e+00 2.8369308144e+00 
1200 4.4216686506e+00 -9.5097677577e-03 1.6381611266e+00 -2.8373783023e+00 1.6381611266e+00 2.8373783023e+00 
1300 4.4104797170e+00 -1.0343286018e-02 1.6384513926e+00 -2.8378810577e+00 1.6384513926e+00 2.8378810577e+00 
1400 4.3997900641e+00 -1.0970601312e-02 1.6387670449e+00 -2.8384277835e+00 1.6387670449e+00 2.8384277835e+00 
1500 4.3896037615e+00 -1.1398685651e-02 1.6391017775e+00 -2.8390075573e+00 1.6391017775e+00 2.8390075573e+00 
1600 4.3799220331e+00 -1.1634651053e-02 1.6394495011e+00 -2.8396098323e+00 1.6394495011e+00 2.8396098323e+00 
1700 4.3707431824e+00 -1.1685864265e-02 1.6398043480e+00 -2.8402244452e+00 1.6398043480e+00 2.8402244452e+00 
1800 4.3620626233e+00 -1.1560026180e-02 1.6401606797e+00 -2.8408416299e+00 1.6401606797e+00 2.8408416299e+00 
1900 4.3538729940e+00 -1.1265220577e-02 1.6405130976e+00 -2.8414520356e+00 1.6405130976e+00 2.8414520356e+00 
2000 4.3461643372e+00 -1.0809936615e-02 1.6408564540e+00 -2.8420467463e+00 1.6408564540e+00 2.8420467463e+00 
2100 4.3389243288e+00 -1.0203069274e-02 1.6411858643e+00 -2.8426173016e+00 1.6411858643e+00 2.8426173016e+00 
2200 4.3321385402e+00 -9.4539015663e-03 1.6414967185e+00 -2.8431557169e+00 1.6414967185e+00 2.8431557169e+00 
2300 4.3257907229e+00 -8.5720720096e-03 1.6417846928e+00 -2.8436545031e+00 1.6417846928e+00 2.8436545031e+00 
2400 4.3198631036e+00 -7.5675304177e-03 1.6420457593e+00 -2.8441066835e+00 1.6420457593e+00 2.8441066835e+00 
2500 4.3143366805e+00 -6.4504847484e-03 1.6422761947e+00 -2.8445058092e+00 1.6422761947e+00 2.8445058092e+00 
2600 4.3091915155e+00 -5.2313413610e-03 1.6424725871e+00 -2.8448459709e+00 1.6424725871e+00 2.8448459709e+00 
2700 4.3044070142e+00 -3.9206407398e-03 1.6426318417e+00 -2.8451218080e+00 1.6426318417e+00 2.8451218080e+00 
2800 4.2999621904e+00 -2.5289904536e-03 1.6427511834e+00 -2.8453285138e+00 1.6427511834e+00 2.8453285138e+00 
2900 4.2958359117e+00 -1.0669968806e-03 1.6428281582e+00 -2.8454618381e+00 1.6428281582e+00 2.8454618381e+00 
3000 4.2920071230e+00 4.5480298118e-04 1.6428606327e+00 -2.8455180856e+00 1.6428606327e+00 2.8455180856e+00 
3100 4.2884550475e+00 2.0260084739e-03 1.6428467909e+00 -2.8454941109e+00 1.6428467909e+00 2.8454941109e+00 
3200 4.2851593629e+00 3.6364200161e-03 1.6427851298e+00 -2.8453873107e+00 1.6427851298e+00 2.8453873107e+00 
3300 4.2821003539e+00 5.2761007520e-03 1.6426744525e+00 -2.8451956121e+00 1.6426744525e+00 2.8451956121e+00 
3400 4.2792590401e+00 6.9354343603e-03 1.6425138603e+00 -2.8449174582e+00 1.6425138603e+00 2.8449174582e+00 
3500 4.2766172816e+00 8.6051783746e-03 1.6423027423e+00 -2.8445517910e+00 1.6423027423e+00 2.8445517910e+00 
3600 4.2741578605e+00 1.0276512460e-02 1.6420407641e+00 -2.8440980315e+00 1.6420407641e+00 2.8440980315e+00 
3700 4.2718645429e+00 1.1941081189e-02 1.6417278551e+00 -2.8435560573e+00 1.6417278551e+00 2.8435560573e+00 
3800 4.2697221204e+00 1.3591030937e-02 1.6413641944e+00 -2.8429261783e+00 1.6413641944e+00 2.8429261783e+00 
3900 4.2677164339e+00 1.5219040645e-02 1.6409501955e+00 -2.8422091112e+00 1.6409501955e+00 2.8422091112e+00 
4000 4.2658343810e+00 1.6818346248e-02 1.6404864908e+00 -2.8414059513e+00 1.6404864908e+00 2.8414059513e+00 
4100 4.2640639092e+00 1.8382758708e-02 1.6399739151e+00 -2.8405181441e+00 1.6399739151e+00 2.8405181441e+00 
4200 4.2623939966e+00 1.9906675677e-02 1.6394134882e+00 -2.8395474562e+00 1.6394134882e+00 2.8395474562e+00 
4300 4.2608146212e+00 2.1385086894e-02 1.6388063977e+00 -2.8384959446e+00 1.6388063977e+00 2.8384959446e+00 
4400 4.2593167226e+00 2.2813573555e-02 1.6381539818e+00 -2.8373659271e+00 1.6381539818e+00 2.8373659271e+00 
4500 4.2578921551e+00 2.4188301957e-02 1.6374577116e+00 -2.8361599517e+00 1.6374577116e+00 2.8361599517e+00 
4600 4.2565336358e+00 2.5506011805e-02 1.6367191740e+00 -2.8348807670e+00 1.6367191740e+00 2.8348807670e+00 
4700 4.2552346896e+00 2.6763999660e-02 1.6359400547e+00 -2.8335312930e+00 1.6359400547e+00 2.8335312930e+00 
4800 4.2539895896e+00 2.7960098034e-02 1.6351221223e+00 -2.8321145924e+00 1.6351221223e+00 2.8321145924e+00 
4900 4.2527932984e+00 2.9092650716e-02 1.6342672119e+00 -2.8306338441e+00 1.6342672119e+00 2.8306338441e+00 
5000 4.2516414075e+00 3.0160484926e-02 1.6333772103e+00 -2.8290923161e+00 1.6333772103e+00 2.8290923161e+00 
5100 4.2505300785e+00 3.1162880904e-02 1.6324540419e+00 -2.8274933417e+00 1.6324540419e+00 2.8274933417e+00 
5200 4.2494559853e+00 3.2099539549e-02 1.6314996554e+00 -2.8258402957e+00 1.6314996554e+00 2.8258402957e+00 
5300 4.2484162588e+00 3.2970548712e-02 1.6305160110e+00 -2.8241365736e+00 1.6305160110e+00 2.8241365736e+00 
5400 4.2474084348e+00 3.3776348706e-02 1.6295050691e+00 -2.8223855708e+00 1.6295050691e+00 2.8223855708e+00 
5500 4.2464304043e+00 3.4517697560e-02 1.6284687800e+00 -2.8205906655e+00 1.6284687800e+00 2.8205906655e+00 
5600 4.2454803679e+00 3.5195636513e-02 1.6274090744e+00 -2.8187552015e+00 1.6274090744e+00 2.8187552015e+00 
5700 4.2445567937e+00 3.5811456166e-02 1.6263278546e+00 -2.8168824740e+00 1.6263278546e+00 2.8168824740e+00 
5800 4.2436583792e+00 3.6366663662e-02 1.6252269876e+00 -2.8149757164e+00 1.6252269876e+00 2.8149757164e+00 
5900 4.2427840160e+00 3.6862951223e-02 1.6241082981e+00 -2.8130380893e+00 1.6241082981e+00 2.8130380893e+00 
6000 4.2419327597e+00 3.7302166272e-02 1.6229735630e+00 -2.8110726704e+00 1.6229735630e+00 2.8110726704e+00 
6100 4.2411038016e+00 3.7686283350e-02 1.6218245066e+00 -2.8090824465e+00 1.6218245066e+00 2.8090824465e+00 
6200 4.2402964451e+00 3.8017377966e-02 1.6206627971e+00 -2.8070703065e+00 1.6206627971e+00 2.8070703065e+00 
6300 4.2395100845e+00 3.8297602464e-02 1.6194900427e+00 -2.8050390363e+00 1.6194900427e+00 2.8050390363e+00 
6400 4.2387441870e+00 3.8529163952e-02 1.6183077897e+00 -2.8029913140e+00 1.6183077897e+00 2.8029913140e+00 
6500 4.2379982767e+00 3.8714304305e-02 1.6171175205e+00 -2.8009297074e+00 1.6171175205e+00 2.8009297074e+00 
6600 4.2372719224e+00 3.8855282203e-02 1.6159206525e+00 -2.7988566712e+00 1.6159206525e+00 2.7988566712e+00 
6700 4.2365647258e+00 3.8954357155e-02 1.6147185372e+00 -2.7967745463e+00 1.6147185372e+00 2.7967745463e+00 
6800 4.2358763133e+00 3.9013775429e-02 1.6135124600e+00 -2.7946855593e+00 1.6135124600e+00 2.7946855593e+00 
6900 4.2352063278e+00 3.9035757784e-02 1.6123036407e+00 -2.7925918229e+00 1.6123036407e+00 2.7925918229e+00 
7000 4.2345544236e+00 3.9022488906e-02 1.6110932338e+00 -2.7904953366e+00 1.6110932338e+00 2.7904953366e+00 
7100 4.2339202613e+00 3.8976108425e-02 1.6098823294e+00 -2.7883979888e+00 1.6098823294e+00 2.7883979888e+00 
7200 4.2333035045e+00 3.8898703387e-02 1.6086719546e+00 -2.7863015581e+00 1.6086719546e+00 2.7863015581e+00 
7300 4.2327038172e+00 3.8792302067e-02 1.6074630746e+00 -2.7842077165e+00 1.6074630746e+00 2.7842077165e+00 
7400 4.2321208617e+00 3.8658868991e-02 1.6062565945e+00 -2.7821180316e+00 1.6062565945e+00 2.7821180316e+00 
7500 4.2315542979e+00 3.8500301056e-02 1.6050533609e+00 -2.7800339699e+00 1.6050533609e+00 2.7800339699e+00 
7600 4.2310037821e+00 3.8318424616e-02 1.6038541639e+00 -2.7779568998e+00 1.6038541639e+00 2.7779568998e+00 
7700 4.2304689671e+00 3.8114993450e-02 1.6026597391e+00 -2.7758880953e+00 1.6026597391e+00 2.7758880953e+00 
7800 4.2299495021e+00 3.7891687484e-02 1.6014707694e+00 -2.7738287395e+00 1.6014707694e+00 2.7738287395e+00 
7900 4.2294450328e+00 3.7650112181e-02 1.6002878874e+00 -2.7717799277e+00 1.6002878874e+00 2.7717799277e+00 
8000 4.2289552026e+00 3.7391798511e-02 1.5991116773e+00 -2.7697426721e+00 1.5991116773e+00 2.7697426721e+00 
8100 4.2284796523e+00 3.7118203425e-02 1.5979426771e+00 -2.7677179042e+00 1.5979426771e+00 2.7677179042e+00 
8200 4.2280180217e+00 3.6830710734e-02 1.5967813806e+00 -2.7657064798e+00 1.5967813806e+00 2.7657064798e+00 
8300 4.2275699499e+00 3.6530632362e-02 1.5956282398e+00 -2.7637091814e+00 1.5956282398e+00 2.7637091814e+00 
8400 4.2271350760e+00 3.6219209879e-02 1.5944836668e+00 -2.7617267227e+00 1.5944836668e+00 2.7617267227e+00 
8500 4.2267130406e+00 3.5897616285e-02 1.5933480356e+00 -2.7597597518e+00 1.5933480356e+00 2.7597597518e+00 
8600 4.2263034857e+00 3.5566957979e-02 1.5922216846e+00 -2.7578088546e+00 1.5922216846e+00 2.7578088546e+00 
8700 4.2259060563e+00 3.5228276882e-02 1.5911049181e+00 -2.7558745583e+00 1.5911049181e+00 2.7558745583e+00 
8800 4.2255204004e+00 3.4882552673e-02 1.5899980084e+00 -2.7539573345e+00 1.5899980084e+00 2.7539573345e+00 
8900 4.2251461703e+00 3.4530705103e-02 1.5889011976e+00 -2.7520576025e+00 1.5889011976e+00 2.7520576025e+00 
9000 4.2247830229e+00 3.4173596366e-02 1.5878146994e+00 -2.7501757324e+00 1.5878146994e+00 2.7501757324e+00 
9100 4.2244306203e+00 3.3812033491e-02 1.5867387006e+00 -2.7483120478e+00 1.5867387006e+00 2.7483120478e+00 
9200 4.2240886302e+00 3.3446770750e-02 1.5856733631e+00 -2.7464668290e+00 1.5856733631e+00 2.7464668290e+00 
9300 4.2237567267e+00 3.3078512051e-02 1.5846188249e+00 -2.7446403154e+00 1.5846188249e+00 2.7446403154e+00 
9400 4.2234345905e+00 3.2707913304e-02 1.5835752024e+00 -2.7428327081e+00 1.5835752024e+00 2.7428327081e+00 
9500 4.2231219089e+00 3.2335584754e-02 1.5825425910e+00 -2.7410441727e+00 1.5825425910e+00 2.7410441727e+00 
9600 4.2228183766e+00 3.1962093269e-02 1.5815210670e+00 -2.7392748414e+00 1.5815210670e+00 2.7392748414e+00 
9700 4.2225236958e+00 3.1587964562e-02 1.5805106889e+00 -2.7375248150e+00 1.5805106889e+00 2.7375248150e+00 
9800 4.2222375761e+00 3.1213685362e-02 1.5795114981e+00 -2.7357941658e+00 1.5795114981e+00 2.7357941658e+00 
9900 4.2219597349e+00 3.0839705514e-02 1.5785235208e+00 -2.7340829390e+00 1.5785235208e+00 2.7340829390e+00 
10000 4.2216898974e+00 3.0466440004e-02 1.5775467687e+00 -2.7323911548e+00 1.5775467687e+00 2.7323911548e+00 
10100 4.2214277969e+00 3.0094270919e-02 1.5765812402e+00 -2.7307188102e+00 1.5765812402e+00 2.7307188102e+00 
10200 4.2211731742e+00 2.9723549324e-02 1.5756269210e+00 -2.7290658810e+00 1.5756269210e+00 2.7290658810e+00 
10300 4.2209257782e+00 2.9354597065e-02 1.5746837859e+00 -2.7274323230e+00 1.5746837859e+00 2.7274323230e+00 
10400 4.2206853658e+00 2.8987708501e-02 1.5737517988e+00 -2.7258180740e+00 1.5737517988e+00 2.7258180740e+00 
10500 4.2204517013e+00 2.8623152150e-02 1.5728309141e+00 -2.7242230549e+00 1.5728309141e+00 2.7242230549e+00 
10600 4.2202245569e+00 2.8261172268e-02 1.5719210772e+00 -2.7226471713e+00 1.5719210772e+00 2.7226471713e+00 
10700 4.2200037125e+00 2.7901990350e-02 1.5710222256e+00 -2.7210903145e+00 1.5710222256e+00 2.7210903145e+00 
10800 4.2197889553e+00 2.7545806561e-02 1.5701342891e+00 -2.7195523634e+00 1.5701342891e+00 2.7195523634e+00 
10900 4.2195800798e+00 2.7192801092e-02 1.5692571908e+00 -2.7180331847e+00 1.5692571908e+00 2.7180331847e+00 
11000 4.2193768877e+00 2.6843135451e-02 1.5683908479e+00 -2.7165326347e+00 1.5683908479e+00 2.7165326347e+00 
11100 4.2191791877e+00 2.6496953687e-02 1.5675351717e+00 -2.7150505601e+00 1.5675351717e+00 2.7150505601e+00 
11200 4.2189867954e+00 2.6154383547e-02 1.5666900688e+00 -2.7135867989e+00 1.5666900688e+00 2.7135867989e+00 
11300 4.2187995330e+00 2.5815537574e-02 1.5658554411e+00 -2.7121411812e+00 1.5658554411e+00 2.7121411812e+00 
11400 4.2186172291e+00 2.5480514143e-02 1.5650311865e+00 -2.7107135304e+00 1.5650311865e+00 2.7107135304e+00 
11500 4.2184397187e+00 2.5149398438e-02 1.5642171994e+00 -2.7093036634e+00 1.5642171994e+00 2.7093036634e+00 
11600 4.2182668429e+00 2.4822263383e-02 1.5634133710e+00 -2.7079113918e+00 1.5634133710e+00 2.7079113918e+00 
11700 4.2180984486e+00 2.4499170506e-02 1.5626195898e+00 -2.7065365225e+00 1.5626195898e+00 2.7065365225e+00 
11800 4.2179343885e+00 2.4180170767e-02 1.5618357419e+00 -2.7051788581e+00 1.5618357419e+00 2.7051788581e+00 
11900 4.2177745207e+00 2.3865305328e-02 1.5610617114e+00 -2.7038381978e+00 1.5610617114e+00 2.7038381978e+00 
12000 4.2176187089e+00 2.3554606285e-02 1.5602973804e+00 -2.7025143377e+00 1.5602973804e+00 2.7025143377e+00 
12100 4.2174668217e+00 2.3248097348e-02 1.5595426298e+00 -2.7012070714e+00 1.5595426298e+00 2.7012070714e+00 
12200 4.2173187328e+00 2.2945794489e-02 1.5587973394e+00 -2.6999161905e+00 1.5587973394e+00 2.6999161905e+00 
12300 4.2171743205e+00 2.2647706546e-02 1.5580613878e+00 -2.6986414849e+00 1.5580613878e+00 2.6986414849e+00 
12400 4.2170334680e+00 2.2353835789e-02 1.5573346531e+00 -2.6973827435e+00 1.5573346531e+00 2.6973827435e+00 
12500 4.2168960626e+00 2.2064178453e-02 1.5566170129e+00 -2.6961397543e+00 1.5566170129e+00 2.6961397543e+00 
12600 4.2167619962e+00 2.1778725237e-02 1.5559083446e+00 -2.6949123048e+00 1.5559083446e+00 2.6949123048e+00 
12700 4.2166311645e+00 2.1497461773e-02 1.5552085254e+00 -2.6937001823e+00 1.5552085254e+00 2.6937001823e+00 
12800 4.2165034673e+00 2.1220369061e-02 1.5545174325e+00 -2.6925031744e+00 1.5545174325e+00 2.6925031744e+00 
12900 4.2163788081e+00 2.0947423881e-02 1.5538349437e+00 -2.6913210691e+00 1.5538349437e+00 2.6913210691e+00 
13000 4.2162570940e+00 2.0678599175e-02 1.5531609368e+00 -2.6901536550e+00 1.5531609368e+00 2.6901536550e+00 
13100 4.2161382358e+00 2.0413864403e-02 1.5524952904e+00 -2.6890007215e+00 1.5524952904e+00 2.6890007215e+00 
13200 4.2160221474e+00 2.0153185882e-02 1.5518378835e+00 -2.6878620593e+00 1.5518378835e+00 2.6878620593e+00 
13300 4.2159087459e+00 1.9896527092e-02 1.5511885959e+00 -2.6867374603e+00 1.5511885959e+00 2.6867374603e+00 
13400 4.2157979517e+00 1.9643848972e-02 1.5505473085e+00 -2.6856267178e+00 1.5505473085e+00 2.6856267178e+00 
13500 4.2156896878e+00 1.9395110187e-02 1.5499139028e+00 -2.6845296269e+00 1.5499139028e+00 2.6845296269e+00 
13600 4.2155838803e+00 1.9150267383e-02 1.5492882614e+00 -2.6834459843e+00 1.5492882614e+00 2.6834459843e+00 
13700 4.2154804578e+00 1.8909275420e-02 1.5486702682e+00 -2.6823755886e+00 1.5486702682e+00 2.6823755886e+00 
13800 4.2153793518e+00 1.8672087591e-02 1.5480598079e+00 -2.6813182405e+00 1.5480598079e+00 2.6813182405e+00 
13900 4.2152804959e+00 1.8438655825e-02 1.5474567668e+00 -2.6802737426e+00 1.5474567668e+00 2.6802737426e+00 
14000 4.2151838264e+00 1.8208930873e-02 1.5468610321e+00 -2.6792418999e+00 1.5468610321e+00 2.6792418999e+00 
14100 4.2150892815e+00 1.7982862488e-02 1.5462724927e+00 -2.6782225196e+00 1.5462724927e+00 2.6782225196e+00 
14200 4.2149968021e+00 1.7760399580e-02 1.5456910384e+00 -2.6772154113e+00 1.5456910384e+00 2.6772154113e+00 
14300 4.2149063307e+00 1.7541490367e-02 1.5451165607e+00 -2.6762203868e+00 1.5451165607e+00 2.6762203868e+00 
14400 4.2148178120e+00 1.7326082516e-02 1.5445489526e+00 -2.6752372606e+00 1.5445489526e+00 2.6752372606e+00 
14500 4.2147311928e+00 1.7114123270e-02 1.5439881081e+00 -2.6742658496e+00 1.5439881081e+00 2.6742658496e+00 
14600 4.2146464214e+00 1.6905559563e-02 1.5434339232e+00 -2.6733059731e+00 1.5434339232e+00 2.6733059731e+00 
14700 4.2145634481e+00 1.6700338128e-02 1.5428862950e+00 -2.6723574532e+00 1.5428862950e+00 2.6723574532e+00 
14800 4.2144822248e+00 1.6498405601e-02 1.5423451222e+00 -2.6714201145e+00 1.5423451222e+00 2.6714201145e+00 
14900 4.2144027051e+00 1.6299708608e-02 1.5418103051e+00 -2.6704937840e+00 1.5418103051e+00 2.6704937840e+00 
15000 4.2143248441e+00 1.6104193849e-02 1.5412817453e+00 -2.6695782917e+00 1.5412817453e+00 2.6695782917e+00 
15100 4.2142485983e+00 1.5911808178e-02 1.5407593462e+00 -2.6686734699e+00 1.5407593462e+00 2.6686734699e+00 
15200 4.2141739259e+00 1.5722498669e-02 1.5402430126e+00 -2.6677791537e+00 1.5402430126e+00 2.6677791537e+00 
15300 4.2141007861e+00 1.5536212679e-02 1.5397326506e+00 -2.6668951808e+00 1.5397326506e+00 2.6668951808e+00 
15400 4.2140291397e+00 1.5352897912e-02 1.5392281680e+00 -2.6660213915e+00 1.5392281680e+00 2.6660213915e+00 
15500 4.2139589487e+00 1.5172502463e-02 1.5387294743e+00 -2.6651576286e+00 1.5387294743e+00 2.6651576286e+00 
15600 4.2138901762e+00 1.4994974872e-02 1.5382364802e+00 -2.6643037377e+00 1.5382364802e+00 2.6643037377e+00 
15700 4.2138227867e+00 1.4820264161e-02 1.5377490979e+00 -2.6634595669e+00 1.5377490979e+00 2.6634595669e+00 
15800 4.2137567457e+00 1.4648319878e-02 1.5372672414e+00 -2.6626249669e+00 1.5372672414e+00 2.6626249669e+00 
15900 4.2136920196e+00 1.4479092124e-02 1.5367908258e+00 -2.6617997908e+00 1.5367908258e+00 2.6617997908e+00 
16000 4.2136285761e+00 1.4312531591e-02 1.5363197678e+00 -2.6609838944e+00 1.5363197678e+00 2.6609838944e+00 
16100 4.2135663838e+00 1.4148589582e-02 1.5358539856e+00 -2.6601771360e+00 1.5358539856e+00 2.6601771360e+00 
16200 4.2135054123e+00 1.3987218037e-02 1.5353933987e+00 -2.6593793762e+00 1.5353933987e+00 2.6593793762e+00 
16300 4.2134456319e+00 1.3828369555e-02 1.5349379283e+00 -2.6585904783e+00 1.5349379283e+00 2.6585904783e+00 
16400 4.2133870141e+00 1.3671997408e-02 1.5344874966e+00 -2.6578103077e+00 1.5344874966e+00 2.6578103077e+00 
16500 4.2133295311e+00 1.3518055558e-02 1.5340420275e+00 -2.6570387326e+00 1.5340420275e+00 2.6570387326e+00 
16600 4.2132731559e+00 1.3366498671e-02 1.5336014461e+00 -2.6562756232e+00 1.5336014461e+00 2.6562756232e+00 
16700 4.2132178624e+00 1.3217282123e-02 1.5331656788e+00 -2.6555208522e+00 1.5331656788e+00 2.6555208522e+00 
16800 4.2131636251e+00 1.3070362010e-02 1.5327346536e+00 -2.6547742945e+00 1.5327346536e+00 2.6547742945e+00 
16900 4.2131104193e+00 1.2925695156e-02 1.5323082994e+00 -2.6540358275e+00 1.5323082994e+00 2.6540358275e+00 
17000 4.2130582212e+00 1.2783239117e-02 1.5318865468e+00 -2.6533053304e+00 1.5318865468e+00 2.6533053304e+00 
17100 4.2130070074e+00 1.2642952181e-02 1.5314693273e+00 -2.6525826851e+00 1.5314693273e+00 2.6525826851e+00 
17200 4.2129567553e+00 1.2504793371e-02 1.5310565738e+00 -2.6518677752e+00 1.5310565738e+00 2.6518677752e+00 
17300 4.2129074430e+00 1.2368722447e-02 1.5306482206e+00 -2.6511604867e+00 1.5306482206e+00 2.6511604867e+00 
17400 4.2128590490e+00 1.2234699903e-02 1.5302442030e+00 -2.6504607076e+00 1.5302442030e+00 2.6504607076e+00 
17500 4.2128115525e+00 1.2102686963e-02 1.5298444574e+00 -2.6497683279e+00 1.5298444574e+00 2.6497683279e+00 
17600 4.2127649335e+00 1.1972645580e-02 1.5294489216e+00 -2.6490832398e+00 1.5294489216e+00 2.6490832398e+00 
17700 4.2127191722e+00 1.1844538433e-02 1.5290575344e+00 -2.6484053373e+00 1.5290575344e+00 2.6484053373e+00 
17800 4.2126742495e+00 1.1718328917e-02 1.5286702357e+00 -2.6477345163e+00 1.5286702357e+00 2.6477345163e+00 
17900 4.2126301468e+00 1.1593981142e-02 1.5282869667e+00 -2.6470706749e+00 1.5282869667e+00 2.6470706749e+00 
18000 4.2125868460e+00 1.1471459923e-02 1.5279076694e+00 -2.6464137128e+00 1.5279076694e+00 2.6464137128e+00 
18100 4.2125443296e+00 1.1350730774e-02 1.5275322871e+00 -2.6457635315e+00 1.5275322871e+00 2.6457635315e+00 
18200 4.2125025803e+00 1.1231759900e-02 1.5271607640e+00 -2.6451200347e+00 1.5271607640e+00 2.6451200347e+00 
18300 4.2124615815e+00 1.1114514191e-02 1.5267930454e+00 -2.6444831273e+00 1.5267930454e+00 2.6444831273e+00 
18400 4.2124213169e+00 1.0998961208e-02 1.5264290775e+00 -2.6438527165e+00 1.5264290775e+00 2.6438527165e+00 
18500 4.2123817707e+00 1.0885069179e-02 1.5260688077e+00 -2.6432287107e+00 1.5260688077e+00 2.6432287107e+00 
18600 4.2123429275e+00 1.0772806987e-02 1.5257121840e+00 -2.6426110204e+00 1.5257121840e+00 2.6426110204e+00 
18700 4.2123047722e+00 1.0662144161e-02 1.5253591557e+00 -2.6419995575e+00 1.5253591557e+00 2.6419995575e+00 
18800 4.2122672902e+00 1.0553050865e-02 1.5250096729e+00 -2.6413942354e+00 1.5250096729e+00 2.6413942354e+00 
18900 4.2122304672e+00 1.0445497889e-02 1.5246636865e+00 -2.6407949694e+00 1.5246636865e+00 2.6407949694e+00 
19000 4.2121942895e+00 1.0339456638e-02 1.5243211484e+00 -2.6402016761e+00 1.5243211484e+00 2.6402016761e+00 
19100 4.2121587433e+00 1.0234899123e-02 1.5239820115e+00 -2.6396142737e+00 1.5239820115e+00 2.6396142737e+00 
19200 4.2121238154e+00 1.0131797948e-02 1.5236462292e+00 -2.6390326817e+00 1.5236462292e+00 2.6390326817e+00 
19300 4.2120894931e+00 1.0030126299e-02 1.5233137560e+00 -2.6384568213e+00 1.5233137560e+00 2.6384568213e+00 
19400 4.2120557638e+00 9.9298579374e-03 1.5229845472e+00 -2.6378866150e+00 1.5229845472e+00 2.6378866150e+00 
19500 4.2120226151e+00 9.8309671844e-03 1.5226585589e+00 -2.6373219866e+00 1.5226585589e+00 2.6373219866e+00 
19600 4.2119900352e+00 9.7334289132e-03 1.5223357479e+00 -2.6367628615e+00 1.5223357479e+00 2.6367628615e+00 
19700 4.2119580123e+00 9.6372185370e-03 1.5220160718e+00 -2.6362091662e+00 1.5220160718e+00 2.6362091662e+00 
19800 4.2119265352e+00 9.5423119984e-03 1.5216994889e+00 -2.6356608286e+00 1.5216994889e+00 2.6356608286e+00 
19900 4.2118955927e+00 9.4486857593e-03 1.5213859584e+00 -2.6351177778e+00 1.5213859584e+00 2.6351177778e+00 
20000 4.2118651740e+00 9.3563167893e-03 1.5210754401e+00 -2.6345799443e+00 1.5210754401e+00 2.6345799443e+00 
20100 4.2118352685e+00 9.2651825560e-03 1.5207678944e+00 -2.6340472597e+00 1.5207678944e+00 2.6340472597e+00 
20200 4.2118058660e+00 9.1752610142e-03 1.5204632828e+00 -2.6335196568e+00 1.5204632828e+00 2.6335196568e+00 
20300 4.2117769562e+00 9.0865305953e-03 1.5201615669e+00 -2.6329970696e+00 1.5201615669e+00 2.6329970696e+00 
20400 4.2117485295e+00 8.9989701975e-03 1.5198627094e+00 -2.6324794333e+00 1.5198627094e+00 2.6324794333e+00 
20500 4.2117205762e+00 8.9125591754e-03 1.5195666736e+00 -2.6319666841e+00 1.5195666736e+00 2.6319666841e+00 
20600 4.2116930870e+00 8.8272773299e-03 1.5192734231e+00 -2.6314587594e+00 1.5192734231e+00 2.6314587594e+00 
20700 4.2116660526e+00 8.7431048986e-03 1.5189829225e+00 -2.6309555977e+00 1.5189829225e+00 2.6309555977e+00 
20800 4.2116394642e+00 8.6600225458e-03 1.5186951369e+00 -2.6304571383e+00 1.5186951369e+00 2.6304571383e+00 
20900 4.2116133130e+00 8.5780113531e-03 1.5184100319e+00 -2.6299633220e+00 1.5184100319e+00 2.6299633220e+00 
21000 4.2115875905e+00 8.4970528098e-03 1.5181275738e+00 -2.6294740902e+00 1.5181275738e+00 2.6294740902e+00 
21100 4.2115622884e+00 8.4171288037e-03 1.5178477293e+00 -2.6289893853e+00 1.5178477293e+00 2.6289893853e+00 
21200 4.2115373985e+00 8.3382216120e-03 1.5175704659e+00 -2.6285091510e+00 1.5175704659e+00 2.6285091510e+00 
21300 4.2115129128e+00 8.2603138921e-03 1.5172957515e+00 -2.6280333317e+00 1.5172957515e+00 2.6280333317e+00 
21400 4.2114888236e+00 8.1833886732e-03 1.5170235545e+00 -2.6275618727e+00 1.5170235545e+00 2.6275618727e+00 
21500 4.2114651232e+00 8.1074293472e-03 1.5167538439e+00 -2.6270947202e+00 1.5167538439e+00 2.6270947202e+00 
21600 4.2114418043e+00 8.0324196605e-03 1.5164865892e+00 -2.6266318216e+00 1.5164865892e+00 2.6266318216e+00 
21700 4.2114188596e+00 7.9583437056e-03 1.5162217605e+00 -2.6261731247e+00 1.5162217605e+00 2.6261731247e+00 
21800 4.2113962820e+00 7.8851859128e-03 1.5159593281e+00 -2.6257185784e+00 1.5159593281e+00 2.6257185784e+00 
21900 4.2113740645e+00 7.8129310426e-03 1.5156992630e+00 -2.6252681326e+00 1.5156992630e+00 2.6252681326e+00 
22000 4.2113522004e+00 7.7415641773e-03 1.5154415368e+00 -2.6248217376e+00 1.5154415368e+00 2.6248217376e+00 
22100 4.2113306830e+00 7.6710707139e-03 1.5151861212e+00 -2.6243793449e+00 1.5151861212e+00 2.6243793449e+00 
22200 4.2113095058e+00 7.6014363562e-03 1.5149329887e+00 -2.6239409065e+00 1.5149329887e+00 2.6239409065e+00 
22300 4.2112886625e+00 7.5326471079e-03 1.5146821121e+00 -2.6235063754e+00 1.5146821121e+00 2.6235063754e+00 
22400 4.2112681469e+00 7.4646892647e-03 1.5144334645e+00 -2.6230757052e+00 1.5144334645e+00 2.6230757052e+00 
22500 4.2112479529e+00 7.3975494083e-03 1.5141870196e+00 -2.6226488502e+00 1.5141870196e+00 2.6226488502e+00 
22600 4.2112280745e+00 7.3312143984e-03 1.5139427516e+00 -2.6222257655e+00 1.5139427516e+00 2.6222257655e+00 
22700 4.2112085060e+00 7.2656713671e-03 1.5137006348e+00 -2.6218064069e+00 1.5137006348e+00 2.6218064069e+00 
22800 4.2111892416e+00 7.2009077115e-03 1.5134606442e+00 -2.6213907309e+00 1.5134606442e+00 2.6213907309e+00 
22900 4.2111702759e+00 7.1369110879e-03 1.5132227550e+00 -2.6209786948e+00 1.5132227550e+00 2.6209786948e+00 
23000 4.2111516033e+00 7.0736694051e-03 1.5129869428e+00 -2.6205702562e+00 1.5129869428e+00 2.6205702562e+00 
23100 4.2111332185e+00 7.0111708188e-03 1.5127531838e+00 -2.6201653736e+00 1.5127531838e+00 2.6201653736e+00 
23200 4.2111151163e+00 6.9494037253e-03 1.5125214543e+00 -2.6197640063e+00 1.5125214543e+00 2.6197640063e+00 
23300 4.2110972916e+00 6.8883567557e-03 1.5122917310e+00 -2.6193661139e+00 1.5122917310e+00 2.6193661139e+00 
23400 4.2110797394e+00 6.8280187704e-03 1.5120639911e+00 -2.6189716568e+00 1.5120639911e+00 2.6189716568e+00 
23500 4.2110624548e+00 6.7683788535e-03 1.5118382120e+00 -2.6185805960e+00 1.5118382120e+00 2.6185805960e+00 
23600 4.2110454330e+00 6.7094263076e-03 1.5116143715e+00 -2.6181928929e+00 1.5116143715e+00 2.6181928929e+00 
23700 4.2110286694e+00 6.6511506483e-03 1.5113924478e+00 -2.6178085097e+00 1.5113924478e+00 2.6178085097e+00 
23800 4.2110121593e+00 6.5935415990e-03 1.5111724192e+00 -2.6174274091e+00 1.5111724192e+00 2.6174274091e+00 
23900 4.2109958982e+00 6.5365890865e-03 1.5109542647e+00 -2.6170495543e+00 1.5109542647e+00 2.6170495543e+00 
24000 4.2109798818e+00 6.4802832352e-03 1.5107379632e+00 -2.6166749092e+00 1.5107379632e+00 2.6166749092e+00 
24100 4.2109641057e+00 6.4246143634e-03 1.5105234942e+00 -2.6163034379e+00 1.5105234942e+00 2.6163034379e+00 
24200 4.2109485657e+00 6.3695729779e-03 1.5103108373e+00 -2.6159351054e+00 1.5103108373e+00 2.6159351054e+00 
24300 4.2109332577e+00 6.3151497699e-03 1.5100999726e+00 -2.6155698771e+00 1.5100999726e+00 2.6155698771e+00 
24400 4.2109181776e+00 6.2613356103e-03 1.5098908804e+00 -2.6152077187e+00 1.5098908804e+00 2.6152077187e+00 
24500 4.2109033214e+00 6.2081215459e-03 1.5096835411e+00 -2.6148485966e+00 1.5096835411e+00 2.6148485966e+00 
24600 4.2108886853e+00 6.1554987948e-03 1.5094779358e+00 -2.6144924776e+00 1.5094779358e+00 2.6144924776e+00 
24700 4.2108742654e+00 6.1034587424e-03 1.5092740454e+00 -2.6141393292e+00 1.5092740454e+00 2.6141393292e+00 
24800 4.2108600580e+00 6.0519929379e-03 1.5090718514e+00 -2.6137891189e+00 1.5090718514e+00 2.6137891189e+00 
24900 4.2108460595e+00 6.0010930898e-03 1.5088713355e+00 -2.6134418152e+00 1.5088713355e+00 2.6134418152e+00 
25000 4.2108322663e+00 5.9507510625e-03 1.5086724795e+00 -2.6130973865e+00 1.5086724795e+00 2.6130973865e+00 
25100 4.2108186748e+00 5.9009588730e-03 1.5084752657e+00 -2.6127558022e+00 1.5084752657e+00 2.6127558022e+00 
25200 4.2108052816e+00 5.8517086864e-03 1.5082796764e+00 -2.6124170316e+00 1.5082796764e+00 2.6124170316e+00 
25300 4.2107920833e+00 5.8029928135e-03 1.5080856944e+00 -2.6120810449e+00 1.5080856944e+00 2.6120810449e+00 
25400 4.2107790767e+00 5.7548037067e-03 1.5078933025e+00 -2.6117478123e+00 1.5078933025e+00 2.6117478123e+00 
25500 4.2107662585e+00 5.7071339570e-03 1.5077024839e+00 -2.6114173048e+00 1.5077024839e+00 2.6114173048e+00 
25600 4.2107536255e+00 5.6599762909e-03 1.5075132219e+00 -2.6110894935e+00 1.5075132219e+00 2.6110894935e+00 
25700 4.2107411745e+00 5.6133235670e-03 1.5073255002e+00 -2.6107643499e+00 1.5073255002e+00 2.6107643499e+00 
25800 4.2107289026e+00 5.5671687733e-03 1.5071393026e+00 -2.6104418462e+00 1.5071393026e+00 2.6104418462e+00 
25900 4.2107168067e+00 5.5215050240e-03 1.5069546132e+00 -2.6101219547e+00 1.5069546132e+00 2.6101219547e+00 
26000 4.2107048840e+00 5.4763255567e-03 1.5067714161e+00 -2.6098046481e+00 1.5067714161e+00 2.6098046481e+00 
26100 4.2106931314e+00 5.4316237297e-03 1.5065896959e+00 -2.6094898995e+00 1.5065896959e+00 2.6094898995e+00 
26200 4.2106815462e+00 5.3873930192e-03 1.5064094373e+00 -2.6091776824e+00 1.5064094373e+00 2.6091776824e+00 
26300 4.2106701257e+00 5.3436270167e-03 1.5062306251e+00 -2.6088679707e+00 1.5062306251e+00 2.6088679707e+00 
26400 4.2106588671e+00 5.3003194262e-03 1.5060532445e+00 -2.6085607384e+00 1.5060532445e+00 2.6085607384e+00 
26500 4.2106477677e+00 5.2574640621e-03 1.5058772808e+00 -2.6082559602e+00 1.5058772808e+00 2.6082559602e+00 
26600 4.2106368249e+00 5.2150548463e-03 1.5057027193e+00 -2.6079536109e+00 1.5057027193e+00 2.6079536109e+00 
26700 4.2106260362e+00 5.1730858063e-03 1.5055295459e+00 -2.6076536657e+00 1.5055295459e+00 2.6076536657e+00 
26800 4.2106153991e+00 5.1315510724e-03 1.5053577463e+00 -2.6073561001e+00 1.5053577463e+00 2.6073561001e+00 
26900 4.2106049110e+00 5.0904448756e-03 1.5051873066e+00 -2.6070608899e+00 1.5051873066e+00 2.6070608899e+00 
27000 4.2105945696e+00 5.0497615458e-03 1.5050182130e+00 -2.6067680112e+00 1.5050182130e+00 2.6067680112e+00 
27100 4.2105843725e+00 5.0094955089e-03 1.5048504520e+00 -2.6064774406e+00 1.5048504520e+00 2.6064774406e+00 
27200 4.2105743173e+00 4.9696412855e-03 1.5046840101e+00 -2.6061891548e+00 1.5046840101e+00 2.6061891548e+00 
27300 4.2105644018e+00 4.9301934881e-03 1.5045188741e+00 -2.6059031309e+00 1.5045188741e+00 2.6059031309e+00 
27400 4.2105546237e+00 4.8911468199e-03 1.5043550309e+00 -2.6056193461e+00 1.5043550309e+00 2.6056193461e+00 
27500 4.2105449808e+00 4.8524960722e-03 1.5041924676e+00 -2.6053377782e+00 1.5041924676e+00 2.6053377782e+00 
27600 4.2105354709e+00 4.8142361230e-03 1.5040311714e+00 -2.6050584050e+00 1.5040311714e+00 2.6050584050e+00 
27700 4.2105260920e+00 4.7763619348e-03 1.5038711298e+00 -2.6047812049e+00 1.5038711298e+00 2.6047812049e+00 
27800 4.2105168420e+00 4.7388685531e-03 1.5037123304e+00 -2.6045061562e+00 1.5037123304e+00 2.6045061562e+00 
27900 4.2105077187e+00 4.7017511045e-03 1.5035547608e+00 -2.6042332377e+00 1.5035547608e+00 2.6042332377e+00 
28000 4.2104987203e+00 4.6650047951e-03 1.5033984090e+00 -2.6039624285e+00 1.5033984090e+00 2.6039624285e+00 
28100 4.2104898446e+00 4.6286249087e-03 1.5032432630e+00 -2.6036937077e+00 1.5032432630e+00 2.6036937077e+00 
28200 4.2104810899e+00 4.5926068053e-03 1.5030893110e+00 -2.6034270551e+00 1.5030893110e+00 2.6034270551e+00 
28300 4.2104724541e+00 4.5569459198e-03 1.5029365414e+00 -2.6031624502e+00 1.5029365414e+00 2.6031624502e+00 
28400 4.2104639355e+00 4.5216377598e-03 1.5027849425e+00 -2.6028998733e+00 1.5027849425e+00 2.6028998733e+00 
28500 4.2104555322e+00 4.4866779046e-03 1.5026345031e+00 -2.6026393046e+00 1.5026345031e+00 2.6026393046e+00 
28600 4.2104472423e+00 4.4520620040e-03 1.5024852118e+00 -2.6023807245e+00 1.5024852118e+00 2.6023807245e+00 
28700 4.2104390642e+00 4.4177857760e-03 1.5023370577e+00 -2.6021241140e+00 1.5023370577e+00 2.6021241140e+00 
28800 4.2104309961e+00 4.3838450064e-03 1.5021900296e+00 -2.6018694539e+00 1.5021900296e+00 2.6018694539e+00 
28900 4.2104230363e+00 4.3502355467e-03 1.5020441169e+00 -2.6016167256e+00 1.5020441169e+00 2.6016167256e+00 
29000 4.2104151831e+00 4.3169533133e-03 1.5018993087e+00 -2.6013659105e+00 1.5018993087e+00 2.6013659105e+00 
29100 4.2104074349e+00 4.2839942858e-03 1.5017555945e+00 -2.6011169902e+00 1.5017555945e+00 2.6011169902e+00 
29200 4.2103997901e+00 4.2513545062e-03 1.5016129639e+00 -2.6008699468e+00 1.5016129639e+00 2.6008699468e+00 
29300 4.2103922470e+00 4.2190300772e-03 1.5014714065e+00 -2.6006247622e+00 1.5014714065e+00 2.6006247622e+00 
29400 4.2103848042e+00 4.1870171615e-03 1.5013309122e+00 -2.6003814189e+00 1.5013309122e+00 2.6003814189e+00 
29500 4.2103774601e+00 4.1553119802e-03 1.5011914708e+00 -2.6001398994e+00 1.5011914708e+00 2.6001398994e+00 
29600 4.2103702131e+00 4.1239108120e-03 1.5010530725e+00 -2.5999001864e+00 1.5010530725e+00 2.5999001864e+00 
29700 4.2103630619e+00 4.0928099917e-03 1.5009157073e+00 -2.5996622630e+00 1.5009157073e+00 2.5996622630e+00 
29800 4.2103560050e+00 4.0620059098e-03 1.5007793656e+00 -2.5994261122e+00 1.5007793656e+00 2.5994261122e+00 
29900 4.2103490409e+00 4.0314950105e-03 1.5006440378e+00 -2.5991917175e+00 1.5006440378e+00 2.5991917175e+00 
30000 4.2103421682e+00 4.0012737916e-03 1.5005097143e+00 -2.5989590624e+00 1.5005097143e+00 2.5989590624e+00 
30100 4.2103353857e+00 3.9713388029e-03 1.5003763858e+00 -2.5987281307e+00 1.5003763858e+00 2.5987281307e+00 
30200 4.2103286918e+00 3.9416866456e-03 1.5002440430e+00 -2.5984989062e+00 1.5002440430e+00 2.5984989062e+00 
30300 4.2103220853e+00 3.9123139708e-03 1.5001126767e+00 -2.5982713732e+00 1.5001126767e+00 2.5982713732e+00 
30400 4.2103155649e+00 3.8832174793e-03 1.4999822779e+00 -2.5980455158e+00 1.4999822779e+00 2.5980455158e+00 
30500 4.2103091293e+00 3.8543939201e-03 1.4998528377e+00 -2.5978213187e+00 1.4998528377e+00 2.5978213187e+00 
30600 4.2103027773e+00 3.8258400897e-03 1.4997243471e+00 -2.5975987666e+00 1.4997243471e+00 2.5975987666e+00 
30700 4.2102965075e+00 3.7975528313e-03 1.4995967975e+00 -2.5973778441e+00 1.4995967975e+00 2.5973778441e+00 
30800 4.2102903188e+00 3.7695290339e-03 1.4994701801e+00 -2.5971585364e+00 1.4994701801e+00 2.5971585364e+00 
30900 4.2102842100e+00 3.7417656314e-03 1.4993444865e+00 -2.5969408287e+00 1.4993444865e+00 2.5969408287e+00 
31000 4.2102781799e+00 3.7142596021e-03 1.4992197082e+00 -2.5967247063e+00 1.4992197082e+00 2.5967247063e+00 
31100 4.2102722274e+00 3.6870079672e-03 1.4990958368e+00 -2.5965101548e+00 1.4990958368e+00 2.5965101548e+00 
31200 4.2102663513e+00 3.6600077909e-03 1.4989728641e+00 -2.5962971598e+00 1.4989728641e+00 2.5962971598e+00 
31300 4.2102605504e+00 3.6332561789e-03 1.4988507819e+00 -2.5960857072e+00 1.4988507819e+00 2.5960857072e+00 
31400 4.2102548238e+00 3.6067502783e-03 1.4987295821e+00 -2.5958757831e+00 1.4987295821e+00 2.5958757831e+00 
31500 4.2102491702e+00 3.5804872763e-03 1.4986092568e+00 -2.5956673735e+00 1.4986092568e+00 2.5956673735e+00 
31600 4.2102435887e+00 3.5544643998e-03 1.4984897981e+00 -2.5954604649e+00 1.4984897981e+00 2.5954604649e+00 
31700 4.2102380782e+00 3.5286789147e-03 1.4983711981e+00 -2.5952550437e+00 1.4983711981e+00 2.5952550437e+00 
31800 4.2102326377e+00 3.5031281251e-03 1.4982534491e+00 -2.5950510965e+00 1.4982534491e+00 2.5950510965e+00 
31900 4.2102272662e+00 3.4778093729e-03 1.4981365436e+00 -2.5948486102e+00 1.4981365436e+00 2.5948486102e+00 
32000 4.2102219626e+00 3.4527200367e-03 1.4980204739e+00 -2.5946475716e+00 1.4980204739e+00 2.5946475716e+00 
32100 4.2102167260e+00 3.4278575316e-03 1.4979052327e+00 -2.5944479679e+00 1.4979052327e+00 2.5944479679e+00 
32200 4.2102115554e+00 3.4032193083e-03 1.4977908124e+00 -2.5942497862e+00 1.4977908124e+00 2.5942497862e+00 
32300 4.2102064499e+00 3.3788028527e-03 1.4976772059e+00 -2.5940530139e+00 1.4976772059e+00 2.5940530139e+00 
32400 4.2102014086e+00 3.3546056850e-03 1.4975644059e+00 -2.5938576386e+00 1.4975644059e+00 2.5938576386e+00 
32500 4.2101964305e+00 3.3306253596e-03 1.4974524052e+00 -2.5936636477e+00 1.4974524052e+00 2.5936636477e+00 
32600 4.2101915147e+00 3.3068594641e-03 1.4973411969e+00 -2.5934710292e+00 1.4973411969e+00 2.5934710292e+00 
32700 4.2101866604e+00 3.2833056189e-03 1.4972307738e+00 -2.5932797709e+00 1.4972307738e+00 2.5932797709e+00 
32800 4.2101818666e+00 3.2599614765e-03 1.4971211292e+00 -2.5930898609e+00 1.4971211292e+00 2.5930898609e+00 
32900 4.2101771326e+00 3.2368247214e-03 1.4970122562e+00 -2.5929012873e+00 1.4970122562e+00 2.5929012873e+00 
33000 4.2101724574e+00 3.2138930691e-03 1.4969041480e+00 -2.5927140384e+00 1.4969041480e+00 2.5927140384e+00 
33100 4.2101678403e+00 3.1911642657e-03 1.4967967980e+00 -2.5925281027e+00 1.4967967980e+00 2.5925281027e+00 
33200 4.2101632805e+00 3.1686360876e-03 1.4966901995e+00 -2.5923434686e+00 1.4966901995e+00 2.5923434686e+00 
33300 4.2101587770e+00 3.1463063410e-03 1.4965843459e+00 -2.5921601250e+00 1.4965843459e+00 2.5921601250e+00 
33400 4.2101543292e+00 3.1241728609e-03 1.4964792309e+00 -2.5919780604e+00 1.4964792309e+00 2.5919780604e+00 
33500 4.2101499363e+00 3.1022335114e-03 1.4963748480e+00 -2.5917972639e+00 1.4963748480e+00 2.5917972639e+00 
33600 4.2101455974e+00 3.0804861846e-03 1.4962711909e+00 -2.5916177246e+00 1.4962711909e+00 2.5916177246e+00 
33700 4.2101413119e+00 3.0589288006e-03 1.4961682533e+00 -2.5914394314e+00 1.4961682533e+00 2.5914394314e+00 
33800 4.2101370790e+00 3.0375593067e-03 1.4960660291e+00 -2.5912623738e+00 1.4960660291e+00 2.5912623738e+00 
33900 4.2101328979e+00 3.0163756772e-03 1.4959645120e+00 -2.5910865411e+00 1.4959645120e+00 2.5910865411e+00 
34000 4.2101287681e+00 2.9953759129e-03 1.4958636960e+00 -2.5909119227e+00 1.4958636960e+00 2.5909119227e+00 
34100 4.2101246886e+00 2.9745580406e-03 1.4957635752e+00 -2.5907385084e+00 1.4957635752e+00 2.5907385084e+00 
34200 4.2101206589e+00 2.9539201128e-03 1.4956641435e+00 -2.5905662877e+00 1.4956641435e+00 2.5905662877e+00 
34300 4.2101166783e+00 2.9334602074e-03 1.4955653952e+00 -2.5903952505e+00 1.4955653952e+00 2.5903952505e+00 
34400 4.2101127461e+00 2.9131764268e-03 1.4954673243e+00 -2.5902253868e+00 1.4954673243e+00 2.5902253868e+00 
34500 4.2101088616e+00 2.8930668982e-03 1.4953699252e+00 -2.5900566865e+00 1.4953699252e+00 2.5900566865e+00 
34600 4.2101050242e+00 2.8731297729e-03 1.4952731921e+00 -2.5898891398e+00 1.4952731921e+00 2.5898891398e+00 
34700 4.2101012332e+00 2.8533632257e-03 1.4951771193e+00 -2.5897227370e+00 1.4951771193e+00 2.5897227370e+00 
34800 4.2100974880e+00 2.8337654549e-03 1.4950817015e+00 -2.5895574684e+00 1.4950817015e+00 2.5895574684e+00 
34900 4.2100937880e+00 2.8143346818e-03 1.4949869329e+00 -2.5893933244e+00 1.4949869329e+00 2.5893933244e+00 
35000 4.2100901325e+00 2.7950691503e-03 1.4948928081e+00 -2.5892302956e+00 1.4948928081e+00 2.5892302956e+00 
35100 4.2100865211e+00 2.7759671266e-03 1.4947993218e+00 -2.5890683725e+00 1.4947993218e+00 2.5890683725e+00 
35200 4.2100829529e+00 2.7570268989e-03 1.4947064686e+00 -2.5889075460e+00 1.4947064686e+00 2.5889075460e+00 
35300 4.2100794276e+00 2.7382467770e-03 1.4946142432e+00 -2.5887478069e+00 1.4946142432e+00 2.5887478069e+00 
35400 4.2100759445e+00 2.7196250919e-03 1.4945226403e+00 -2.5885891461e+00 1.4945226403e+00 2.5885891461e+00 
35500 4.2100725030e+00 2.7011601959e-03 1.4944316548e+00 -2.5884315546e+00 1.4944316548e+00 2.5884315546e+00 
35600 4.2100691026e+00 2.6828504615e-03 1.4943412816e+00 -2.5882750236e+00 1.4943412816e+00 2.5882750236e+00 
35700 4.2100657427e+00 2.6646942820e-03 1.4942515155e+00 -2.5881195441e+00 1.4942515155e+00 2.5881195441e+00 
35800 4.2100624228e+00 2.6466900704e-03 1.4941623515e+00 -2.5879651076e+00 1.4941623515e+00 2.5879651076e+00 
35900 4.2100591423e+00 2.6288362596e-03 1.4940737847e+00 -2.5878117054e+00 1.4940737847e+00 2.5878117054e+00 
36000 4.2100559008e+00 2.6111313020e-03 1.4939858101e+00 -2.5876593289e+00 1.4939858101e+00 2.5876593289e+00 
36100 4.2100526977e+00 2.5935736692e-03 1.4938984229e+00 -2.5875079698e+00 1.4938984229e+00 2.5875079698e+00 
36200 4.2100495325e+00 2.5761618514e-03 1.4938116182e+00 -2.5873576196e+00 1.4938116182e+00 2.5873576196e+00 
36300 4.2100464047e+00 2.5588943579e-03 1.4937253912e+00 -2.5872082701e+00 1.4937253912e+00 2.5872082701e+00 
36400 4.2100433138e+00 2.5417697159e-03 1.4936397373e+00 -2.5870599131e+00 1.4936397373e+00 2.5870599131e+00 
36500 4.2100402593e+00 2.5247864709e-03 1.4935546516e+00 -2.5869125405e+00 1.4935546516e+00 2.5869125405e+00 
36600 4.2100372407e+00 2.5079431861e-03 1.4934701297e+00 -2.5867661442e+00 1.4934701297e+00 2.5867661442e+00 
36700 4.2100342576e+00 2.4912384423e-03 1.4933861669e+00 -2.5866207163e+00 1.4933861669e+00 2.5866207163e+00 
36800 4.2100313095e+00 2.4746708376e-03 1.4933027586e+00 -2.5864762489e+00 1.4933027586e+00 2.5864762489e+00 
36900 4.2100283960e+00 2.4582389872e-03 1.4932199004e+00 -2.5863327343e+00 1.4932199004e+00 2.5863327343e+00 
37000 4.2100255165e+00 2.4419415229e-03 1.4931375878e+00 -2.5861901647e+00 1.4931375878e+00 2.5861901647e+00 
37100 4.2100226706e+00 2.4257770934e-03 1.4930558164e+00 -2.5860485325e+00 1.4930558164e+00 2.5860485325e+00 
37200 4.2100198580e+00 2.4097443633e-03 1.4929745818e+00 -2.5859078300e+00 1.4929745818e+00 2.5859078300e+00 
37300 4.2100170781e+00 2.3938420137e-03 1.4928938797e+00 -2.5857680500e+00 1.4928938797e+00 2.5857680500e+00 
37400 4.2100143306e+00 2.3780687412e-03 1.4928137059e+00 -2.5856291848e+00 1.4928137059e+00 2.5856291848e+00 
37500 4.2100116150e+00 2.3624232584e-03 1.4927340560e+00 -2.5854912272e+00 1.4927340560e+00 2.5854912272e+00 
37600 4.2100089309e+00 2.3469042929e-03 1.4926549260e+00 -2.5853541700e+00 1.4926549260e+00 2.5853541700e+00 
37700 4.2100062779e+00 2.3315105879e-03 1.4925763116e+00 -2.5852180058e+00 1.4925763116e+00 2.5852180058e+00 
37800 4.2100036556e+00 2.3162409014e-03 1.4924982087e+00 -2.5850827277e+00 1.4924982087e+00 2.5850827277e+00 
37900 4.2100010636e+00 2.3010940060e-03 1.4924206133e+00 -2.5849483284e+00 1.4924206133e+00 2.5849483284e+00 
38000 4.2099985015e+00 2.2860686892e-03 1.4923435212e+00 -2.5848148011e+00 1.4923435212e+00 2.5848148011e+00 
38100 4.2099959690e+00 2.2711637527e-03 1.4922669287e+00 -2.5846821389e+00 1.4922669287e+00 2.5846821389e+00 
38200 4.2099934656e+00 2.2563780123e-03 1.4921908315e+00 -2.5845503348e+00 1.4921908315e+00 2.5845503348e+00 
38300 4.2099909910e+00 2.2417102978e-03 1.4921152260e+00 -2.5844193821e+00 1.4921152260e+00 2.5844193821e+00 
38400 4.2099885448e+00 2.2271594529e-03 1.4920401080e+00 -2.5842892741e+00 1.4920401080e+00 2.5842892741e+00 
38500 4.2099861266e+00 2.2127243347e-03 1.4919654740e+00 -2.5841600040e+00 1.4919654740e+00 2.5841600040e+00 
38600 4.2099837362e+00 2.1984038138e-03 1.4918913199e+00 -2.5840315654e+00 1.4918913199e+00 2.5840315654e+00 
38700 4.2099813730e+00 2.1841967740e-03 1.4918176421e+00 -2.5839039517e+00 1.4918176421e+00 2.5839039517e+00 
38800 4.2099790369e+00 2.1701021121e-03 1.4917444368e+00 -2.5837771564e+00 1.4917444368e+00 2.5837771564e+00 
38900 4.2099767274e+00 2.1561187378e-03 1.4916717003e+00 -2.5836511732e+00 1.4916717003e+00 2.5836511732e+00 
39000 4.2099744442e+00 2.1422455734e-03 1.4915994290e+00 -2.5835259956e+00 1.4915994290e+00 2.5835259956e+00 
39100 4.2099721870e+00 2.1284815538e-03 1.4915276192e+00 -2.5834016174e+00 1.4915276192e+00 2.5834016174e+00 
39200 4.2099699555e+00 2.1148256260e-03 1.4914562674e+00 -2.5832780324e+00 1.4914562674e+00 2.5832780324e+00 
39300 4.2099677493e+00 2.1012767496e-03 1.4913853700e+00 -2.5831552344e+00 1.4913853700e+00 2.5831552344e+00 
39400 4.2099655681e+00 2.0878338957e-03 1.4913149234e+00 -2.5830332174e+00 1.4913149234e+00 2.5830332174e+00 
39500 4.2099634115e+00 2.0744960476e-03 1.4912449242e+00 -2.5829119752e+00 1.4912449242e+00 2.5829119752e+00 
39600 4.2099612794e+00 2.0612622001e-03 1.4911753689e+00 -2.5827915019e+00 1.4911753689e+00 2.5827915019e+00 
39700 4.2099591714e+00 2.0481313596e-03 1.4911062540e+00 -2.5826717915e+00 1.4911062540e+00 2.5826717915e+00 
39800 4.2099570871e+00 2.0351025438e-03 1.4910375763e+00 -2.5825528382e+00 1.4910375763e+00 2.5825528382e+00 
39900 4.2099550263e+00 2.0221747817e-03 1.4909693323e+00 -2.5824346361e+00 1.4909693323e+00 2.5824346361e+00 
40000 4.2099529887e+00 2.0093471133e-03 1.4909015187e+00 -2.5823171795e+00 1.4909015187e+00 2.5823171795e+00 
40100 4.2099509740e+00 1.9966185895e-03 1.4908341323e+00 -2.5822004627e+00 1.4908341323e+00 2.5822004627e+00 
40200 4.2099489819e+00 1.9839882721e-03 1.4907671696e+00 -2.5820844801e+00 1.4907671696e+00 2.5820844801e+00 
40300 4.2099470122e+00 1.9714552334e-03 1.4907006276e+00 -2.5819692259e+00 1.4907006276e+00 2.5819692259e+00 
40400 4.2099450645e+00 1.9590185562e-03 1.4906345030e+00 -2.5818546947e+00 1.4906345030e+00 2.5818546947e+00 
40500 4.2099431386e+00 1.9466773337e-03 1.4905687926e+00 -2.5817408809e+00 1.4905687926e+00 2.5817408809e+00 
40600 4.2099412343e+00 1.9344306693e-03 1.4905034932e+00 -2.5816277791e+00 1.4905034932e+00 2.5816277791e+00 
40700 4.2099393511e+00 1.9222776764e-03 1.4904386018e+00 -2.5815153839e+00 1.4904386018e+00 2.5815153839e+00 
40800 4.2099374890e+00 1.9102174785e-03 1.4903741153e+00 -2.5814036900e+00 1.4903741153e+00 2.5814036900e+00 
40900 4.2099356476e+00 1.8982492088e-03 1.4903100306e+00 -2.5812926921e+00 1.4903100306e+00 2.5812926921e+00 
41000 4.2099338267e+00 1.8863720102e-03 1.4902463447e+00 -2.5811823848e+00 1.4902463447e+00 2.5811823848e+00 
41100 4.2099320260e+00 1.8745850352e-03 1.4901830545e+00 -2.5810727630e+00 1.4901830545e+00 2.5810727630e+00 
41200 4.2099302453e+00 1.8628874458e-03 1.4901201572e+00 -2.5809638216e+00 1.4901201572e+00 2.5809638216e+00 
41300 4.2099284843e+00 1.8512784132e-03 1.4900576496e+00 -2.5808555554e+00 1.4900576496e+00 2.5808555554e+00 
41400 4.2099267428e+00 1.8397571178e-03 1.4899955290e+00 -2.5807479593e+00 1.4899955290e+00 2.5807479593e+00 
41500 4.2099250206e+00 1.8283227491e-03 1.4899337924e+00 -2.5806410284e+00 1.4899337924e+00 2.5806410284e+00 
41600 4.2099233174e+00 1.8169745055e-03 1.4898724370e+00 -2.5805347577e+00 1.4898724370e+00 2.5805347577e+00 
41700 4.2099216330e+00 1.8057115945e-03 1.4898114599e+00 -2.5804291423e+00 1.4898114599e+00 2.5804291423e+00 
41800 4.2099199672e+00 1.7945332321e-03 1.4897508583e+00 -2.5803241772e+00 1.4897508583e+00 2.5803241772e+00 
41900 4.2099183196e+00 1.7834386428e-03 1.4896906294e+00 -2.5802198577e+00 1.4896906294e+00 2.5802198577e+00 
42000 4.2099166903e+00 1.7724270599e-03 1.4896307705e+00 -2.5801161790e+00 1.4896307705e+00 2.5801161790e+00 
42100 4.2099150788e+00 1.7614977249e-03 1.4895712787e+00 -2.5800131362e+00 1.4895712787e+00 2.5800131362e+00 
42200 4.2099134850e+00 1.7506498877e-03 1.4895121514e+00 -2.5799107247e+00 1.4895121514e+00 2.5799107247e+00 
42300 4.2099119086e+00 1.7398828063e-03 1.4894533859e+00 -2.5798089399e+00 1.4894533859e+00 2.5798089399e+00 
42400 4.2099103496e+00 1.7291957469e-03 1.4893949795e+00 -2.5797077771e+00 1.4893949795e+00 2.5797077771e+00 
42500 4.2099088075e+00 1.7185879835e-03 1.4893369296e+00 -2.5796072317e+00 1.4893369296e+00 2.5796072317e+00 
42600 4.2099072823e+00 1.7080587980e-03 1.4892792336e+00 -2.5795072993e+00 1.4892792336e+00 2.5795072993e+00 
42700 4.2099057738e+00 1.6976074804e-03 1.4892218888e+00 -2.5794079752e+00 1.4892218888e+00 2.5794079752e+00 
42800 4.2099042817e+00 1.6872333279e-03 1.4891648927e+00 -2.5793092551e+00 1.4891648927e+00 2.5793092551e+00 
42900 4.2099028059e+00 1.6769356457e-03 1.4891082428e+00 -2.5792111344e+00 1.4891082428e+00 2.5792111344e+00 
43000 4.2099013461e+00 1.6667137462e-03 1.4890519364e+00 -2.5791136090e+00 1.4890519364e+00 2.5791136090e+00 
43100 4.2098999022e+00 1.6565669493e-03 1.4889959712e+00 -2.5790166743e+00 1.4889959712e+00 2.5790166743e+00 
43200 4.2098984740e+00 1.6464945822e-03 1.4889403445e+00 -2.5789203262e+00 1.4889403445e+00 2.5789203262e+00 
43300 4.2098970612e+00 1.6364959794e-03 1.4888850541e+00 -2.5788245603e+00 1.4888850541e+00 2.5788245603e+00 
43400 4.2098956638e+00 1.6265704823e-03 1.4888300973e+00 -2.5787293724e+00 1.4888300973e+00 2.5787293724e+00 
43500 4.2098942815e+00 1.6167174395e-03 1.4887754718e+00 -2.5786347583e+00 1.4887754718e+00 2.5786347583e+00 
43600 4.2098929141e+00 1.6069362066e-03 1.4887211753e+00 -2.5785407139e+00 1.4887211753e+00 2.5785407139e+00 
43700 4.2098915615e+00 1.5972261458e-03 1.4886672053e+00 -2.5784472351e+00 1.4886672053e+00 2.5784472351e+00 
43800 4.2098902235e+00 1.5875866264e-03 1.4886135594e+00 -2.5783543177e+00 1.4886135594e+00 2.5783543177e+00 
43900 4.2098888999e+00 1.5780170242e-03 1.4885602354e+00 -2.5782619578e+00 1.4885602354e+00 2.5782619578e+00 
44000 4.2098875906e+00 1.5685167215e-03 1.4885072309e+00 -2.5781701513e+00 1.4885072309e+00 2.5781701513e+00 
44100 4.2098862953e+00 1.5590851074e-03 1.4884545436e+00 -2.5780788943e+00 1.4884545436e+00 2.5780788943e+00 
44200 4.2098850140e+00 1.5497215773e-03 1.4884021713e+00 -2.5779881828e+00 1.4884021713e+00 2.5779881828e+00 
44300 4.2098837464e+00 1.5404255328e-03 1.4883501117e+00 -2.5778980129e+00 1.4883501117e+00 2.5778980129e+00 
44400 4.2098824925e+00 1.5311963822e-03 1.4882983626e+00 -2.5778083808e+00 1.4882983626e+00 2.5778083808e+00 
44500 4.2098812519e+00 1.5220335396e-03 1.4882469217e+00 -2.5777192826e+00 1.4882469217e+00 2.5777192826e+00 
44600 4.2098800247e+00 1.5129364255e-03 1.4881957869e+00 -2.5776307145e+00 1.4881957869e+00 2.5776307145e+00 
44700 4.2098788105e+00 1.5039044663e-03 1.4881449559e+00 -2.5775426727e+00 1.4881449559e+00 2.5775426727e+00 
44800 4.2098776094e+00 1.4949370945e-03 1.4880944267e+00 -2.5774551535e+00 1.4880944267e+00 2.5774551535e+00 
44900 4.2098764210e+00 1.4860337484e-03 1.4880441971e+00 -2.5773681533e+00 1.4880441971e+00 2.5773681533e+00 
45000 4.2098752454e+00 1.4771938723e-03 1.4879942649e+00 -2.5772816682e+00 1.4879942649e+00 2.5772816682e+00 
45100 4.2098740822e+00 1.4684169161e-03 1.4879446281e+00 -2.5771956947e+00 1.4879446281e+00 2.5771956947e+00 
45200 4.2098729315e+00 1.4597023354e-03 1.4878952846e+00 -2.5771102292e+00 1.4878952846e+00 2.5771102292e+00 
45300 4.2098717929e+00 1.4510495918e-03 1.4878462323e+00 -2.5770252681e+00 1.4878462323e+00 2.5770252681e+00 
45400 4.2098706665e+00 1.4424581519e-03 1.4877974691e+00 -2.5769408079e+00 1.4877974691e+00 2.5769408079e+00 
45500 4.2098695520e+00 1.4339274882e-03 1.4877489931e+00 -2.5768568449e+00 1.4877489931e+00 2.5768568449e+00 
45600 4.2098684494e+00 1.4254570785e-03 1.4877008022e+00 -2.5767733758e+00 1.4877008022e+00 2.5767733758e+00 
45700 4.2098673584e+00 1.4170464059e-03 1.4876528944e+00 -2.5766903971e+00 1.4876528944e+00 2.5766903971e+00 
45800 4.2098662789e+00 1.4086949590e-03 1.4876052677e+00 -2.5766079053e+00 1.4876052677e+00 2.5766079053e+00 
45900 4.2098652109e+00 1.4004022314e-03 1.4875579202e+00 -2.5765258970e+00 1.4875579202e+00 2.5765258970e+00 
46000 4.2098641542e+00 1.3921677221e-03 1.4875108499e+00 -2.5764443689e+00 1.4875108499e+00 2.5764443689e+00 
46100 4.2098631086e+00 1.3839909350e-03 1.4874640550e+00 -2.5763633176e+00 1.4874640550e+00 2.5763633176e+00 
46200 4.2098620741e+00 1.3758713793e-03 1.4874175334e+00 -2.5762827399e+00 1.4874175334e+00 2.5762827399e+00 
46300 4.2098610504e+00 1.3678085690e-03 1.4873712833e+00 -2.5762026324e+00 1.4873712833e+00 2.5762026324e+00 
46400 4.2098600375e+00 1.3598020231e-03 1.4873253028e+00 -2.5761229918e+00 1.4873253028e+00 2.5761229918e+00 
46500 4.2098590353e+00 1.3518512654e-03 1.4872795900e+00 -2.5760438150e+00 1.4872795900e+00 2.5760438150e+00 
46600 4.2098580436e+00 1.3439558246e-03 1.4872341431e+00 -2.5759650987e+00 1.4872341431e+00 2.5759650987e+00 
46700 4.2098570623e+00 1.3361152343e-03 1.4871889603e+00 -2.5758868397e+00 1.4871889603e+00 2.5758868397e+00 
46800 4.2098560913e+00 1.3283290325e-03 1.4871440397e+00 -2.5758090349e+00 1.4871440397e+00 2.5758090349e+00 
46900 4.2098551305e+00 1.3205967622e-03 1.4870993795e+00 -2.5757316812e+00 1.4870993795e+00 2.5757316812e+00 
47000 4.2098541797e+00 1.3129179706e-03 1.4870549780e+00 -2.5756547755e+00 1.4870549780e+00 2.5756547755e+00 
47100 4.2098532389e+00 1.3052922098e-03 1.4870108333e+00 -2.5755783147e+00 1.4870108333e+00 2.5755783147e+00 
47200 4.2098523079e+00 1.2977190361e-03 1.4869669437e+00 -2.5755022957e+00 1.4869669437e+00 2.5755022957e+00 
47300 4.2098513867e+00 1.2901980105e-03 1.4869233075e+00 -2.5754267155e+00 1.4869233075e+00 2.5754267155e+00 
47400 4.2098504750e+00 1.2827286983e-03 1.4868799229e+00 -2.5753515712e+00 1.4868799229e+00 2.5753515712e+00 
47500 4.2098495729e+00 1.2753106690e-03 1.4868367882e+00 -2.5752768597e+00 1.4868367882e+00 2.5752768597e+00 
47600 4.2098486801e+00 1.2679434965e-03 1.4867939017e+00 -2.5752025781e+00 1.4867939017e+00 2.5752025781e+00 
47700 4.2098477967e+00 1.2606267590e-03 1.4867512617e+00 -2.5751287234e+00 1.4867512617e+00 2.5751287234e+00 
47800 4.2098469224e+00 1.2533600387e-03 1.4867088665e+00 -2.5750552929e+00 1.4867088665e+00 2.5750552929e+00 
47900 4.2098460572e+00 1.2461429222e-03 1.4866667146e+00 -2.5749822835e+00 1.4866667146e+00 2.5749822835e+00 
48000 4.2098452010e+00 1.2389749998e-03 1.4866248041e+00 -2.5749096925e+00 1.4866248041e+00 2.5749096925e+00 
48100 4.2098443537e+00 1.2318558663e-03 1.4865831336e+00 -2.5748375170e+00 1.4865831336e+00 2.5748375170e+00 
48200 4.2098435152e+00 1.2247851202e-03 1.4865417013e+00 -2.5747657543e+00 1.4865417013e+00 2.5747657543e+00 
48300 4.2098426853e+00 1.2177623640e-03 1.4865005057e+00 -2.5746944014e+00 1.4865005057e+00 2.5746944014e+00 
48400 4.2098418640e+00 1.2107872041e-03 1.4864595452e+00 -2.5746234557e+00 1.4864595452e+00 2.5746234557e+00 
48500 4.2098410513e+00 1.2038592508e-03 1.4864188182e+00 -2.5745529144e+00 1.4864188182e+00 2.5745529144e+00 
48600 4.2098402469e+00 1.1969781183e-03 1.4863783231e+00 -2.5744827748e+00 1.4863783231e+00 2.5744827748e+00 
48700 4.2098394508e+00 1.1901434244e-03 1.4863380583e+00 -2.5744130342e+00 1.4863380583e+00 2.5744130342e+00 
48800 4.2098386629e+00 1.1833547907e-03 1.4862980224e+00 -2.5743436900e+00 1.4862980224e+00 2.5743436900e+00 
48900 4.2098378832e+00 1.1766118425e-03 1.4862582138e+00 -2.5742747394e+00 1.4862582138e+00 2.5742747394e+00 
49000 4.2098371115e+00 1.1699142088e-03 1.4862186309e+00 -2.5742061799e+00 1.4862186309e+00 2.5742061799e+00 
49100 4.2098363477e+00 1.1632615220e-03 1.4861792724e+00 -2.5741380089e+00 1.4861792724e+00 2.5741380089e+00 
49200 4.2098355918e+00 1.1566534184e-03 1.4861401366e+00 -2.5740702237e+00 1.4861401366e+00 2.5740702237e+00 
49300 4.2098348436e+00 1.1500895375e-03 1.4861012220e+00 -2.5740028218e+00 1.4861012220e+00 2.5740028218e+00 
49400 4.2098341031e+00 1.1435695224e-03 1.4860625274e+00 -2.5739358006e+00 1.4860625274e+00 2.5739358006e+00 
49500 4.2098333702e+00 1.1370930198e-03 1.4860240510e+00 -2.5738691576e+00 1.4860240510e+00 2.5738691576e+00 
49600 4.2098326448e+00 1.1306596795e-03 1.4859857916e+00 -2.5738028904e+00 1.4859857916e+00 2.5738028904e+00 
49700 4.2098319269e+00 1.1242691549e-03 1.4859477477e+00 -2.5737369964e+00 1.4859477477e+00 2.5737369964e+00 
49800 4.2098312163e+00 1.1179211027e-03 1.4859099178e+00 -2.5736714731e+00 1.4859099178e+00 2.5736714731e+00 
49900 4.2098305129e+00 1.1116151827e-03 1.4858723006e+00 -2.5736063181e+00 1.4858723006e+00 2.5736063181e+00 
50000 4.2098298168e+00 1.1053510583e-03 1.4858348946e+00 -2.5735415291e+00 1.4858348946e+00 2.5735415291e+00 
50100 4.2098291277e+00 1.0991283958e-03 1.4857976984e+00 -2.5734771035e+00 1.4857976984e+00 2.5734771035e+00 
50200 4.2098284457e+00 1.0929468649e-03 1.4857607108e+00 -2.5734130389e+00 1.4857607108e+00 2.5734130389e+00 
50300 4.2098277707e+00 1.0868061383e-03 1.4857239302e+00 -2.5733493331e+00 1.4857239302e+00 2.5733493331e+00 
50400 4.2098271025e+00 1.0807058918e-03 1.4856873554e+00 -2.5732859837e+00 1.4856873554e+00 2.5732859837e+00 
50500 4.2098264411e+00 1.0746458044e-03 1.4856509850e+00 -2.5732229883e+00 1.4856509850e+00 2.5732229883e+00 
50600 4.2098257864e+00 1.0686255582e-03 1.4856148176e+00 -2.5731603446e+00 1.4856148176e+00 2.5731603446e+00 
50700 4.2098251384e+00 1.0626448380e-03 1.4855788520e+00 -2.5730980503e+00 1.4855788520e+00 2.5730980503e+00 
50800 4.2098244970e+00 1.0567033320e-03 1.4855430868e+00 -2.5730361031e+00 1.4855430868e+00 2.5730361031e+00 
50900 4.2098238621e+00 1.0508007309e-03 1.4855075207e+00 -2.5729745009e+00 1.4855075207e+00 2.5729745009e+00 
51000 4.2098232336e+00 1.0449367286e-03 1.4854721524e+00 -2.5729132412e+00 1.4854721524e+00 2.5729132412e+00 
51100 4.2098226115e+00 1.0391110220e-03 1.4854369807e+00 -2.5728523220e+00 1.4854369807e+00 2.5728523220e+00 
51200 4.2098219957e+00 1.0333233104e-03 1.4854020042e+00 -2.5727917410e+00 1.4854020042e+00 2.5727917410e+00 
51300 4.2098213861e+00 1.0275732963e-03 1.4853672217e+00 -2.5727314960e+00 1.4853672217e+00 2.5727314960e+00 
51400 4.2098207827e+00 1.0218606848e-03 1.4853326320e+00 -2.5726715848e+00 1.4853326320e+00 2.5726715848e+00 
51500 4.2098201854e+00 1.0161851839e-03 1.4852982338e+00 -2.5726120053e+00 1.4852982338e+00 2.5726120053e+00 
51600 4.2098195941e+00 1.0105465043e-03 1.4852640258e+00 -2.5725527553e+00 1.4852640258e+00 2.5725527553e+00 
51700 4.2098190088e+00 1.0049443592e-03 1.4852300068e+00 -2.5724938327e+00 1.4852300068e+00 2.5724938327e+00 
51800 4.2098184293e+00 9.9937846461e-04 1.4851961757e+00 -2.5724352355e+00 1.4851961757e+00 2.5724352355e+00 
51900 4.2098178558e+00 9.9384853927e-04 1.4851625311e+00 -2.5723769614e+00 1.4851625311e+00 2.5723769614e+00 
52000 4.2098172880e+00 9.8835430441e-04 1.4851290720e+00 -2.5723190085e+00 1.4851290720e+00 2.5723190085e+00 
52100 4.2098167259e+00 9.8289548385e-04 1.4850957971e+00 -2.5722613747e+00 1.4850957971e+00 2.5722613747e+00 
52200 4.2098161694e+00 9.7747180398e-04 1.4850627052e+00 -2.5722040579e+00 1.4850627052e+00 2.5722040579e+00 
52300 4.2098156186e+00 9.7208299372e-04 1.4850297952e+00 -2.5721470561e+00 1.4850297952e+00 2.5721470561e+00 
52400 4.2098150733e+00 9.6672878448e-04 1.4849970659e+00 -2.5720903673e+00 1.4849970659e+00 2.5720903673e+00 
52500 4.2098145334e+00 9.6140891014e-04 1.4849645162e+00 -2.5720339895e+00 1.4849645162e+00 2.5720339895e+00 
52600 4.2098139990e+00 9.5612310704e-04 1.4849321449e+00 -2.5719779207e+00 1.4849321449e+00 2.5719779207e+00 
52700 4.2098134699e+00 9.5087111392e-04 1.4848999508e+00 -2.5719221590e+00 1.4848999508e+00 2.5719221590e+00 
52800 4.2098129461e+00 9.4565267192e-04 1.4848679329e+00 -2.5718667024e+00 1.4848679329e+00 2.5718667024e+00 
52900 4.2098124276e+00 9.4046752455e-04 1.4848360901e+00 -2.5718115489e+00 1.4848360901e+00 2.5718115489e+00 
53000 4.2098119142e+00 9.3531541767e-04 1.4848044211e+00 -2.5717566966e+00 1.4848044211e+00 2.5717566966e+00 
53100 4.2098114060e+00 9.3019609943e-04 1.4847729250e+00 -2.5717021437e+00 1.4847729250e+00 2.5717021437e+00 
53200 4.2098109029e+00 9.2510932029e-04 1.4847416005e+00 -2.5716478883e+00 1.4847416005e+00 2.5716478883e+00 
53300 4.2098104048e+00 9.2005483299e-04 1.4847104468e+00 -2.5715939283e+00 1.4847104468e+00 2.5715939283e+00 
53400 4.2098099116e+00 9.1503239249e-04 1.4846794626e+00 -2.5715402621e+00 1.4846794626e+00 2.5715402621e+00 
53500 4.2098094234e+00 9.1004175598e-04 1.4846486468e+00 -2.5714868877e+00 1.4846486468e+00 2.5714868877e+00 
53600 4.2098089400e+00 9.0508268285e-04 1.4846179986e+00 -2.5714338033e+00 1.4846179986e+00 2.5714338033e+00 
53700 4.2098084614e+00 9.0015493466e-04 1.4845875167e+00 -2.5713810071e+00 1.4845875167e+00 2.5713810071e+00 
53800 4.2098079876e+00 8.9525827511e-04 1.4845572001e+00 -2.5713284973e+00 1.4845572001e+00 2.5713284973e+00 
53900 4.2098075185e+00 8.9039247006e-04 1.4845270478e+00 -2.5712762721e+00 1.4845270478e+00 2.5712762721e+00 
54000 4.2098070541e+00 8.8555728743e-04 1.4844970588e+00 -2.5712243296e+00 1.4844970588e+00 2.5712243296e+00 
54100 4.2098065943e+00 8.8075249727e-04 1.4844672321e+00 -2.5711726682e+00 1.4844672321e+00 2.5711726682e+00 
54200 4.2098061390e+00 8.7597787165e-04 1.4844375666e+00 -2.5711212860e+00 1.4844375666e+00 2.5711212860e+00 
54300 4.2098056883e+00 8.7123318470e-04 1.4844080613e+00 -2.5710701813e+00 1.4844080613e+00 2.5710701813e+00 
54400 4.2098052420e+00 8.6651821257e-04 1.4843787152e+00 -2.5710193525e+00 1.4843787152e+00 2.5710193525e+00 
54500 4.2098048001e+00 8.6183273341e-04 1.4843495274e+00 -2.5709687977e+00 1.4843495274e+00 2.5709687977e+00 
54600 4.2098043626e+00 8.5717652732e-04 1.4843204969e+00 -2.5709185153e+00 1.4843204969e+00 2.5709185153e+00 
54700 4.2098039295e+00 8.5254937640e-04 1.4842916226e+00 -2.5708685036e+00 1.4842916226e+00 2.5708685036e+00 
54800 4.2098035006e+00 8.4795106465e-04 1.4842629036e+00 -2.5708187609e+00 1.4842629036e+00 2.5708187609e+00 
54900 4.2098030760e+00 8.4338137800e-04 1.4842343390e+00 -2.5707692855e+00 1.4842343390e+00 2.5707692855e+00 
55000 4.2098026555e+00 8.3884010427e-04 1.4842059278e+00 -2.5707200758e+00 1.4842059278e+00 2.5707200758e+00 
55100 4.2098022392e+00 8.3432703315e-04 1.4841776690e+00 -2.5706711301e+00 1.4841776690e+00 2.5706711301e+00 
55200 4.2098018270e+00 8.2984195622e-04 1.4841495617e+00 -2.5706224468e+00 1.4841495617e+00 2.5706224468e+00 
55300 4.2098014189e+00 8.2538466685e-04 1.4841216049e+00 -2.5705740244e+00 1.4841216049e+00 2.5705740244e+00 
55400 4.2098010148e+00 8.2095496027e-04 1.4840937978e+00 -2.5705258611e+00 1.4840937978e+00 2.5705258611e+00 
55500 4.2098006147e+00 8.1655263348e-04 1.4840661395e+00 -2.5704779554e+00 1.4840661395e+00 2.5704779554e+00 
55600 4.2098002185e+00 8.1217748527e-04 1.4840386289e+00 -2.5704303056e+00 1.4840386289e+00 2.5704303056e+00 
55700 4.2097998262e+00 8.0782931620e-04 1.4840112652e+00 -2.5703829104e+00 1.4840112652e+00 2.5703829104e+00 
55800 4.2097994377e+00 8.0350792858e-04 1.4839840475e+00 -2.5703357680e+00 1.4839840475e+00 2.5703357680e+00 
55900 4.2097990531e+00 7.9921312643e-04 1.4839569750e+00 -2.5702888769e+00 1.4839569750e+00 2.5702888769e+00 
56000 4.2097986723e+00 7.9494471549e-04 1.4839300466e+00 -2.5702422356e+00 1.4839300466e+00 2.5702422356e+00 
56100 4.2097982951e+00 7.9070250318e-04 1.4839032616e+00 -2.5701958426e+00 1.4839032616e+00 2.5701958426e+00 
56200 4.2097979217e+00 7.8648629862e-04 1.4838766190e+00 -2.5701496963e+00 1.4838766190e+00 2.5701496963e+00 
56300 4.2097975520e+00 7.8229591257e-04 1.4838501180e+00 -2.5701037952e+00 1.4838501180e+00 2.5701037952e+00 
56400 4.2097971858e+00 7.7813115742e-04 1.4838237577e+00 -2.5700581379e+00 1.4838237577e+00 2.5700581379e+00 
56500 4.2097968233e+00 7.7399184722e-04 1.4837975373e+00 -2.5700127228e+00 1.4837975373e+00 2.5700127228e+00 
56600 4.2097964643e+00 7.6987779758e-04 1.4837714560e+00 -2.5699675486e+00 1.4837714560e+00 2.5699675486e+00 
56700 4.2097961088e+00 7.6578882575e-04 1.4837455128e+00 -2.5699226136e+00 1.4837455128e+00 2.5699226136e+00 
56800 4.2097957567e+00 7.6172475053e-04 1.4837197069e+00 -2.5698779166e+00 1.4837197069e+00 2.5698779166e+00 
56900 4.2097954081e+00 7.5768539227e-04 1.4836940376e+00 -2.5698334559e+00 1.4836940376e+00 2.5698334559e+00 
57000 4.2097950629e+00 7.5367057288e-04 1.4836685039e+00 -2.5697892303e+00 1.4836685039e+00 2.5697892303e+00 
57100 4.2097947211e+00 7.4968011580e-04 1.4836431051e+00 -2.5697452383e+00 1.4836431051e+00 2.5697452383e+00 
57200 4.2097943826e+00 7.4571384598e-04 1.4836178403e+00 -2.5697014784e+00 1.4836178403e+00 2.5697014784e+00 
57300 4.2097940474e+00 7.4177158987e-04 1.4835927088e+00 -2.5696579493e+00 1.4835927088e+00 2.5696579493e+00 
57400 4.2097937155e+00 7.3785317539e-04 1.4835677097e+00 -2.5696146496e+00 1.4835677097e+00 2.5696146496e+00 
57500 4.2097933868e+00 7.3395843194e-04 1.4835428422e+00 -2.5695715779e+00 1.4835428422e+00 2.5695715779e+00 
57600 4.2097930613e+00 7.3008719037e-04 1.4835181056e+00 -2.5695287329e+00 1.4835181056e+00 2.5695287329e+00 
57700 4.2097927390e+00 7.2623928297e-04 1.4834934991e+00 -2.5694861131e+00 1.4834934991e+00 2.5694861131e+00 
57800 4.2097924198e+00 7.2241454346e-04 1.4834690218e+00 -2.5694437172e+00 1.4834690218e+00 2.5694437172e+00 
57900 4.2097921037e+00 7.1861280696e-04 1.4834446730e+00 -2.5694015439e+00 1.4834446730e+00 2.5694015439e+00 
58000 4.2097917906e+00 7.1483390999e-04 1.4834204520e+00 -2.5693595919e+00 1.4834204520e+00 2.5693595919e+00 
58100 4.2097914806e+00 7.1107769046e-04 1.4833963580e+00 -2.5693178598e+00 1.4833963580e+00 2.5693178598e+00 
58200 4.2097911736e+00 7.0734398764e-04 1.4833723901e+00 -2.5692763463e+00 1.4833723901e+00 2.5692763463e+00 
58300 4.2097908696e+00 7.0363264216e-04 1.4833485478e+00 -2.5692350501e+00 1.4833485478e+00 2.5692350501e+00 
58400 4.2097905685e+00 6.9994349599e-04 1.4833248301e+00 -2.5691939699e+00 1.4833248301e+00 2.5691939699e+00 
58500 4.2097902704e+00 6.9627639243e-04 1.4833012365e+00 -2.5691531045e+00 1.4833012365e+00 2.5691531045e+00 
58600 4.2097899751e+00 6.9263117610e-04 1.4832777660e+00 -2.5691124525e+00 1.4832777660e+00 2.5691124525e+00 
58700 4.2097896827e+00 6.8900769291e-04 1.4832544181e+00 -2.5690720127e+00 1.4832544181e+00 2.5690720127e+00 
58800 4.2097893931e+00 6.8540579007e-04 1.4832311919e+00 -2.5690317838e+00 1.4832311919e+00 2.5690317838e+00 
58900 4.2097891063e+00 6.8182531606e-04 1.4832080868e+00 -2.5689917646e+00 1.4832080868e+00 2.5689917646e+00 
59000 4.2097888223e+00 6.7826612065e-04 1.4831851021e+00 -2.5689519538e+00 1.4831851021e+00 2.5689519538e+00 
59100 4.2097885410e+00 6.7472805483e-04 1.4831622370e+00 -2.5689123503e+00 1.4831622370e+00 2.5689123503e+00 
59200 4.2097882624e+00 6.7121097084e-04 1.4831394907e+00 -2.5688729527e+00 1.4831394907e+00 2.5688729527e+00 
59300 4.2097879865e+00 6.6771472216e-04 1.4831168628e+00 -2.5688337599e+00 1.4831168628e+00 2.5688337599e+00 
59400 4.2097877133e+00 6.6423916348e-04 1.4830943523e+00 -2.5687947706e+00 1.4830943523e+00 2.5687947706e+00 
59500 4.2097874427e+00 6.6078415068e-04 1.4830719587e+00 -2.5687559837e+00 1.4830719587e+00 2.5687559837e+00 
59600 4.2097871747e+00 6.5734954086e-04 1.4830496812e+00 -2.5687173979e+00 1.4830496812e+00 2.5687173979e+00 
59700 4.2097869093e+00 6.5393519228e-04 1.4830275191e+00 -2.5686790122e+00 1.4830275191e+00 2.5686790122e+00 
59800 4.2097866464e+00 6.5054096438e-04 1.4830054719e+00 -2.5686408252e+00 1.4830054719e+00 2.5686408252e+00 
59900 4.2097863861e+00 6.4716671775e-04 1.4829835387e+00 -2.5686028359e+00 1.4829835387e+00 2.5686028359e+00 
60000 4.2097861283e+00 6.4381231414e-04 1.4829617190e+00 -2.5685650431e+00 1.4829617190e+00 2.5685650431e+00 
60100 4.2097858729e+00 6.4047761641e-04 1.4829400121e+00 -2.5685274456e+00 1.4829400121e+00 2.5685274456e+00 
60200 4.2097856200e+00 6.3716248859e-04 1.4829184173e+00 -2.5684900423e+00 1.4829184173e+00 2.5684900423e+00 
60300 4.2097853695e+00 6.3386679578e-04 1.4828969340e+00 -2.5684528320e+00 1.4828969340e+00 2.5684528320e+00 
60400 4.2097851214e+00 6.3059040422e-04 1.4828755614e+00 -2.5684158137e+00 1.4828755614e+00 2.5684158137e+00 
60500 4.2097848757e+00 6.2733318121e-04 1.4828542991e+00 -2.5683789862e+00 1.4828542991e+00 2.5683789862e+00 
60600 4.2097846324e+00 6.2409499515e-04 1.4828331462e+00 -2.5683423484e+00 1.4828331462e+00 2.5683423484e+00 
60700 4.2097843914e+00 6.2087571551e-04 1.4828121023e+00 -2.5683058992e+00 1.4828121023e+00 2.5683058992e+00 
60800 4.2097841526e+00 6.1767521284e-04 1.4827911666e+00 -2.5682696375e+00 1.4827911666e+00 2.5682696375e+00 
60900 4.2097839162e+00 6.1449335871e-04 1.4827703385e+00 -2.5682335622e+00 1.4827703385e+00 2.5682335622e+00 
61000 4.2097836820e+00 6.1133002575e-04 1.4827496174e+00 -2.5681976723e+00 1.4827496174e+00 2.5681976723e+00 
61100 4.2097834501e+00 6.0818508762e-04 1.4827290027e+00 -2.5681619666e+00 1.4827290027e+00 2.5681619666e+00 
61200 4.2097832204e+00 6.0505841900e-04 1.4827084938e+00 -2.5681264441e+00 1.4827084938e+00 2.5681264441e+00 
61300 4.2097829929e+00 6.0194989560e-04 1.4826880900e+00 -2.5680911037e+00 1.4826880900e+00 2.5680911037e+00 
61400 4.2097827675e+00 5.9885939410e-04 1.4826677908e+00 -2.5680559444e+00 1.4826677908e+00 2.5680559444e+00 
61500 4.2097825443e+00 5.9578679219e-04 1.4826475955e+00 -2.5680209651e+00 1.4826475955e+00 2.5680209651e+00 
61600 4.2097823233e+00 5.9273196856e-04 1.4826275035e+00 -2.5679861648e+00 1.4826275035e+00 2.5679861648e+00 
61700 4.2097821043e+00 5.8969480286e-04 1.4826075144e+00 -2.5679515425e+00 1.4826075144e+00 2.5679515425e+00 
61800 4.2097818874e+00 5.8667517570e-04 1.4825876273e+00 -2.5679170972e+00 1.4825876273e+00 2.5679170972e+00 
61900 4.2097816726e+00 5.8367296865e-04 1.4825678418e+00 -2.5678828277e+00 1.4825678418e+00 2.5678828277e+00 
62000 4.2097814598e+00 5.8068806424e-04 1.4825481574e+00 -2.5678487332e+00 1.4825481574e+00 2.5678487332e+00 
62100 4.2097812491e+00 5.7772034593e-04 1.4825285733e+00 -2.5678148126e+00 1.4825285733e+00 2.5678148126e+00 
62200 4.2097810403e+00 5.7476969811e-04 1.4825090890e+00 -2.5677810649e+00 1.4825090890e+00 2.5677810649e+00 
62300 4.2097808336e+00 5.7183600608e-04 1.4824897040e+00 -2.5677474891e+00 1.4824897040e+00 2.5677474891e+00 
62400 4.2097806288e+00 5.6891915608e-04 1.4824704177e+00 -2.5677140843e+00 1.4824704177e+00 2.5677140843e+00 
62500 4.2097804259e+00 5.6601903523e-04 1.4824512296e+00 -2.5676808494e+00 1.4824512296e+00 2.5676808494e+00 
62600 4.2097802250e+00 5.6313553156e-04 1.4824321390e+00 -2.5676477835e+00 1.4824321390e+00 2.5676477835e+00 
62700 4.2097800260e+00 5.6026853398e-04 1.4824131454e+00 -2.5676148856e+00 1.4824131454e+00 2.5676148856e+00 
62800 4.2097798289e+00 5.5741793228e-04 1.4823942482e+00 -2.5675821548e+00 1.4823942482e+00 2.5675821548e+00 
62900 4.2097796336e+00 5.5458361713e-04 1.4823754470e+00 -2.5675495901e+00 1.4823754470e+00 2.5675495901e+00 
63000 4.2097794402e+00 5.5176548005e-04 1.4823567411e+00 -2.5675171906e+00 1.4823567411e+00 2.5675171906e+00 
63100 4.2097792486e+00 5.4896341342e-04 1.4823381301e+00 -2.5674849553e+00 1.4823381301e+00 2.5674849553e+00 
63200 4.2097790589e+00 5.4617731047e-04 1.4823196133e+00 -2.5674528833e+00 1.4823196133e+00 2.5674528833e+00 
63300 4.2097788709e+00 5.4340706527e-04 1.4823011903e+00 -2.5674209737e+00 1.4823011903e+00 2.5674209737e+00 
63400 4.2097786847e+00 5.4065257272e-04 1.4822828605e+00 -2.5673892255e+00 1.4822828605e+00 2.5673892255e+00 
63500 4.2097785003e+00 5.3791372854e-04 1.4822646234e+00 -2.5673576379e+00 1.4822646234e+00 2.5673576379e+00 
63600 4.2097783176e+00 5.3519042927e-04 1.4822464784e+00 -2.5673262099e+00 1.4822464784e+00 2.5673262099e+00 
63700 4.2097781366e+00 5.3248257226e-04 1.4822284251e+00 -2.5672949407e+00 1.4822284251e+00 2.5672949407e+00 
63800 4.2097779574e+00 5.2979005567e-04 1.4822104629e+00 -2.5672638292e+00 1.4822104629e+00 2.5672638292e+00 
63900 4.2097777798e+00 5.2711277843e-04 1.4821925913e+00 -2.5672328747e+00 1.4821925913e+00 2.5672328747e+00 
64000 4.2097776039e+00 5.2445064028e-04 1.4821748098e+00 -2.5672020763e+00 1.4821748098e+00 2.5672020763e+00 
64100 4.2097774297e+00 5.2180354173e-04 1.4821571179e+00 -2.5671714330e+00 1.4821571179e+00 2.5671714330e+00 
64200 4.2097772571e+00 5.1917138406e-04 1.4821395151e+00 -2.5671409441e+00 1.4821395151e+00 2.5671409441e+00 
64300 4.2097770862e+00 5.1655406933e-04 1.4821220009e+00 -2.5671106086e+00 1.4821220009e+00 2.5671106086e+00 
64400 4.2097769168e+00 5.1395150035e-04 1.4821045748e+00 -2.5670804256e+00 1.4821045748e+00 2.5670804256e+00 
64500 4.2097767491e+00 5.1136358066e-04 1.4820872362e+00 -2.5670503944e+00 1.4820872362e+00 2.5670503944e+00 
64600 4.2097765829e+00 5.0879021459e-04 1.4820699848e+00 -2.5670205140e+00 1.4820699848e+00 2.5670205140e+00 
64700 4.2097764183e+00 5.0623130718e-04 1.4820528200e+00 -2.5669907837e+00 1.4820528200e+00 2.5669907837e+00 
64800 4.2097762552e+00 5.0368676419e-04 1.4820357413e+00 -2.5669612025e+00 1.4820357413e+00 2.5669612025e+00 
64900 4.2097760937e+00 5.0115649214e-04 1.4820187483e+00 -2.5669317697e+00 1.4820187483e+00 2.5669317697e+00 
65000 4.2097759337e+00 4.9864039823e-04 1.4820018404e+00 -2.5669024845e+00 1.4820018404e+00 2.5669024845e+00 
65100 4.2097757752e+00 4.9613839041e-04 1.4819850172e+00 -2.5668733459e+00 1.4819850172e+00 2.5668733459e+00 
65200 4.2097756182e+00 4.9365037731e-04 1.4819682783e+00 -2.5668443532e+00 1.4819682783e+00 2.5668443532e+00 
65300 4.2097754626e+00 4.9117626826e-04 1.4819516231e+00 -2.5668155055e+00 1.4819516231e+00 2.5668155055e+00 
65400 4.2097753086e+00 4.8871597330e-04 1.4819350512e+00 -2.5667868021e+00 1.4819350512e+00 2.5667868021e+00 
65500 4.2097751559e+00 4.8626940313e-04 1.4819185621e+00 -2.5667582422e+00 1.4819185621e+00 2.5667582422e+00 
65600 4.2097750047e+00 4.8383646917e-04 1.4819021553e+00 -2.5667298249e+00 1.4819021553e+00 2.5667298249e+00 
65700 4.2097748549e+00 4.8141708347e-04 1.4818858305e+00 -2.5667015495e+00 1.4818858305e+00 2.5667015495e+00 
65800 4.2097747065e+00 4.7901115879e-04 1.4818695872e+00 -2.5666734152e+00 1.4818695872e+00 2.5666734152e+00 
65900 4.2097745595e+00 4.7661860851e-04 1.4818534248e+00 -2.5666454211e+00 1.4818534248e+00 2.5666454211e+00 
66000 4.2097744139e+00 4.7423934671e-04 1.4818373430e+00 -2.5666175666e+00 1.4818373430e+00 2.5666175666e+00 
66100 4.2097742697e+00 4.7187328809e-04 1.4818213413e+00 -2.5665898509e+00 1.4818213413e+00 2.5665898509e+00 
66200 4.2097741268e+00 4.6952034801e-04 1.4818054192e+00 -2.5665622731e+00 1.4818054192e+00 2.5665622731e+00 
66300 4.2097739852e+00 4.6718044246e-04 1.4817895764e+00 -2.5665348325e+00 1.4817895764e+00 2.5665348325e+00 
66400 4.2097738449e+00 4.6485348807e-04 1.4817738124e+00 -2.5665075284e+00 1.4817738124e+00 2.5665075284e+00 
66500 4.2097737060e+00 4.6253940209e-04 1.4817581267e+00 -2.5664803600e+00 1.4817581267e+00 2.5664803600e+00 
66600 4.2097735684e+00 4.6023810242e-04 1.4817425189e+00 -2.5664533266e+00 1.4817425189e+00 2.5664533266e+00 
66700 4.2097734320e+00 4.5794950754e-04 1.4817269887e+00 -2.5664264273e+00 1.4817269887e+00 2.5664264273e+00 
66800 4.2097732969e+00 4.5567353656e-04 1.4817115355e+00 -2.5663996616e+00 1.4817115355e+00 2.5663996616e+00 
66900 4.2097731631e+00 4.5341010920e-04 1.4816961589e+00 -2.5663730286e+00 1.4816961589e+00 2.5663730286e+00 
67000 4.2097730305e+00 4.5115914577e-04 1.4816808586e+00 -2.5663465276e+00 1.4816808586e+00 2.5663465276e+00 
67100 4.2097728992e+00 4.4892056719e-04 1.4816656340e+00 -2.5663201579e+00 1.4816656340e+00 2.5663201579e+00 
67200 4.2097727691e+00 4.4669429495e-04 1.4816504848e+00 -2.5662939188e+00 1.4816504848e+00 2.5662939188e+00 
67300 4.2097726402e+00 4.4448025115e-04 1.4816354107e+00 -2.5662678096e+00 1.4816354107e+00 2.5662678096e+00 
67400 4.2097725125e+00 4.4227835845e-04 1.4816204110e+00 -2.5662418294e+00 1.4816204110e+00 2.5662418294e+00 
67500 4.2097723860e+00 4.4008854009e-04 1.4816054856e+00 -2.5662159778e+00 1.4816054856e+00 2.5662159778e+00 
67600 4.2097722607e+00 4.3791071989e-04 1.4815906338e+00 -2.5661902538e+00 1.4815906338e+00 2.5661902538e+00 
67700 4.2097721365e+00 4.3574482223e-04 1.4815758555e+00 -2.5661646569e+00 1.4815758555e+00 2.5661646569e+00 
67800 4.2097720135e+00 4.3359077204e-04 1.4815611500e+00 -2.5661391864e+00 1.4815611500e+00 2.5661391864e+00 
67900 4.2097718916e+00 4.3144849483e-04 1.4815465172e+00 -2.5661138415e+00 1.4815465172e+00 2.5661138415e+00 
68000 4.2097717709e+00 4.2931791662e-04 1.4815319564e+00 -2.5660886216e+00 1.4815319564e+00 2.5660886216e+00 
68100 4.2097716513e+00 4.2719896402e-04 1.4815174675e+00 -2.5660635260e+00 1.4815174675e+00 2.5660635260e+00 
68200 4.2097715328e+00 4.2509156416e-04 1.4815030499e+00 -2.5660385540e+00 1.4815030499e+00 2.5660385540e+00 
68300 4.2097714154e+00 4.2299564470e-04 1.4814887033e+00 -2.5660137049e+00 1.4814887033e+00 2.5660137049e+00 
68400 4.2097712991e+00 4.2091113384e-04 1.4814744273e+00 -2.5659889781e+00 1.4814744273e+00 2.5659889781e+00 
68500 4.2097711838e+00 4.1883796032e-04 1.4814602215e+00 -2.5659643730e+00 1.4814602215e+00 2.5659643730e+00 
68600 4.2097710697e+00 4.1677605338e-04 1.4814460855e+00 -2.5659398888e+00 1.4814460855e+00 2.5659398888e+00 
68700 4.2097709566e+00 4.1472534279e-04 1.4814320190e+00 -2.5659155249e+00 1.4814320190e+00 2.5659155249e+00 
68800 4.2097708445e+00 4.1268575884e-04 1.4814180216e+00 -2.5658912806e+00 1.4814180216e+00 2.5658912806e+00 
68900 4.2097707335e+00 4.1065723231e-04 1.4814040929e+00 -2.5658671554e+00 1.4814040929e+00 2.5658671554e+00 
69000 4.2097706235e+00 4.0863969450e-04 1.4813902325e+00 -2.5658431485e+00 1.4813902325e+00 2.5658431485e+00 
69100 4.2097705145e+00 4.0663307722e-04 1.4813764401e+00 -2.5658192593e+00 1.4813764401e+00 2.5658192593e+00 
69200 4.2097704066e+00 4.0463731274e-04 1.4813627152e+00 -2.5657954872e+00 1.4813627152e+00 2.5657954872e+00 
69300 4.2097702996e+00 4.0265233387e-04 1.4813490577e+00 -2.5657718316e+00 1.4813490577e+00 2.5657718316e+00 
69400 4.2097701936e+00 4.0067807388e-04 1.4813354669e+00 -2.5657482918e+00 1.4813354669e+00 2.5657482918e+00 
69500 4.2097700886e+00 3.9871446652e-04 1.4813219428e+00 -2.5657248672e+00 1.4813219428e+00 2.5657248672e+00 
69600 4.2097699846e+00 3.9676144602e-04 1.4813084847e+00 -2.5657015572e+00 1.4813084847e+00 2.5657015572e+00 
69700 4.2097698815e+00 3.9481894712e-04 1.4812950925e+00 -2.5656783612e+00 1.4812950925e+00 2.5656783612e+00 
69800 4.2097697794e+00 3.9288690499e-04 1.4812817657e+00 -2.5656552785e+00 1.4812817657e+00 2.5656552785e+00 
69900 4.2097696783e+00 3.9096525528e-04 1.4812685040e+00 -2.5656323085e+00 1.4812685040e+00 2.5656323085e+00 
70000 4.2097695780e+00 3.8905393412e-04 1.4812553070e+00 -2.5656094507e+00 1.4812553070e+00 2.5656094507e+00 
70100 4.2097694787e+00 3.8715287807e-04 1.4812421745e+00 -2.5655867045e+00 1.4812421745e+00 2.5655867045e+00 
70200 4.2097693804e+00 3.8526202418e-04 1.4812291060e+00 -2.5655640692e+00 1.4812291060e+00 2.5655640692e+00 
70300 4.2097692829e+00 3.8338130993e-04 1.4812161012e+00 -2.5655415442e+00 1.4812161012e+00 2.5655415442e+00 
70400 4.2097691863e+00 3.8151067324e-04 1.4812031597e+00 -2.5655191290e+00 1.4812031597e+00 2.5655191290e+00 
70500 4.2097690906e+00 3.7965005251e-04 1.4811902814e+00 -2.5654968230e+00 1.4811902814e+00 2.5654968230e+00 
70600 4.2097689958e+00 3.7779938655e-04 1.4811774657e+00 -2.5654746256e+00 1.4811774657e+00 2.5654746256e+00 
70700 4.2097689018e+00 3.7595861461e-04 1.4811647123e+00 -2.5654525362e+00 1.4811647123e+00 2.5654525362e+00 
70800 4.2097688088e+00 3.7412767639e-04 1.4811520210e+00 -2.5654305542e+00 1.4811520210e+00 2.5654305542e+00 
70900 4.2097687166e+00 3.7230651200e-04 1.4811393914e+00 -2.5654086791e+00 1.4811393914e+00 2.5654086791e+00 
71000 4.2097686252e+00 3.7049506200e-04 1.4811268232e+00 -2.5653869103e+00 1.4811268232e+00 2.5653869103e+00 
71100 4.2097685347e+00 3.6869326735e-04 1.4811143160e+00 -2.5653652472e+00 1.4811143160e+00 2.5653652472e+00 
71200 4.2097684450e+00 3.6690106943e-04 1.4811018696e+00 -2.5653436893e+00 1.4811018696e+00 2.5653436893e+00 
71300 4.2097683561e+00 3.6511841006e-04 1.4810894835e+00 -2.5653222360e+00 1.4810894835e+00 2.5653222360e+00 
71400 4.2097682681e+00 3.6334523145e-04 1.4810771575e+00 -2.5653008867e+00 1.4810771575e+00 2.5653008867e+00 
71500 4.2097681808e+00 3.6158147622e-04 1.4810648913e+00 -2.5652796410e+00 1.4810648913e+00 2.5652796410e+00 
71600 4.2097680944e+00 3.5982708740e-04 1.4810526845e+00 -2.5652584982e+00 1.4810526845e+00 2.5652584982e+00 
71700 4.2097680087e+00 3.5808200844e-04 1.4810405368e+00 -2.5652374578e+00 1.4810405368e+00 2.5652374578e+00 
71800 4.2097679239e+00 3.5634618315e-04 1.4810284480e+00 -2.5652165193e+00 1.4810284480e+00 2.5652165193e+00 
71900 4.2097678398e+00 3.5461955577e-04 1.4810164176e+00 -2.5651956822e+00 1.4810164176e+00 2.5651956822e+00 
72000 4.2097677565e+00 3.5290207092e-04 1.4810044455e+00 -2.5651749458e+00 1.4810044455e+00 2.5651749458e+00 
72100 4.2097676740e+00 3.5119367360e-04 1.4809925312e+00 -2.5651543097e+00 1.4809925312e+00 2.5651543097e+00 
72200 4.2097675922e+00 3.4949430921e-04 1.4809806745e+00 -2.5651337733e+00 1.4809806745e+00 2.5651337733e+00 
72300 4.2097675111e+00 3.4780392353e-04 1.4809688751e+00 -2.5651133361e+00 1.4809688751e+00 2.5651133361e+00 
72400 4.2097674308e+00 3.4612246272e-04 1.4809571327e+00 -2.5650929977e+00 1.4809571327e+00 2.5650929977e+00 
72500 4.2097673513e+00 3.4444987330e-04 1.4809454469e+00 -2.5650727573e+00 1.4809454469e+00 2.5650727573e+00 
72600 4.2097672725e+00 3.4278610219e-04 1.4809338176e+00 -2.5650526147e+00 1.4809338176e+00 2.5650526147e+00 
72700 4.2097671943e+00 3.4113109666e-04 1.4809222443e+00 -2.5650325691e+00 1.4809222443e+00 2.5650325691e+00 
72800 4.2097671170e+00 3.3948480436e-04 1.4809107268e+00 -2.5650126202e+00 1.4809107268e+00 2.5650126202e+00 
72900 4.2097670403e+00 3.3784717329e-04 1.4808992647e+00 -2.5649927674e+00 1.4808992647e+00 2.5649927674e+00 
73000 4.2097669643e+00 3.3621815183e-04 1.4808878579e+00 -2.5649730103e+00 1.4808878579e+00 2.5649730103e+00 
73100 4.2097668890e+00 3.3459768870e-04 1.4808765060e+00 -2.5649533482e+00 1.4808765060e+00 2.5649533482e+00 
73200 4.2097668144e+00 3.3298573300e-04 1.4808652088e+00 -2.5649337807e+00 1.4808652088e+00 2.5649337807e+00 
73300 4.2097667405e+00 3.3138223414e-04 1.4808539658e+00 -2.5649143074e+00 1.4808539658e+00 2.5649143074e+00 
73400 4.2097666673e+00 3.2978714194e-04 1.4808427770e+00 -2.5648949277e+00 1.4808427770e+00 2.5648949277e+00 
73500 4.2097665947e+00 3.2820040650e-04 1.4808316419e+00 -2.5648756412e+00 1.4808316419e+00 2.5648756412e+00 
73600 4.2097665228e+00 3.2662197833e-04 1.4808205602e+00 -2.5648564472e+00 1.4808205602e+00 2.5648564472e+00 
73700 4.2097664515e+00 3.2505180822e-04 1.4808095318e+00 -2.5648373455e+00 1.4808095318e+00 2.5648373455e+00 
73800 4.2097663809e+00 3.2348984735e-04 1.4807985564e+00 -2.5648183354e+00 1.4807985564e+00 2.5648183354e+00 
73900 4.2097663110e+00 3.2193604720e-04 1.4807876336e+00 -2.5647994166e+00 1.4807876336e+00 2.5647994166e+00 
74000 4.2097662417e+00 3.2039035961e-04 1.4807767632e+00 -2.5647805885e+00 1.4807767632e+00 2.5647805885e+00 
74100 4.2097661730e+00 3.1885273672e-04 1.4807659449e+00 -2.5647618506e+00 1.4807659449e+00 2.5647618506e+00 
74200 4.2097661049e+00 3.1732313103e-04 1.4807551784e+00 -2.5647432025e+00 1.4807551784e+00 2.5647432025e+00 
74300 4.2097660375e+00 3.1580149535e-04 1.4807444635e+00 -2.5647246438e+00 1.4807444635e+00 2.5647246438e+00 
74400 4.2097659707e+00 3.1428778281e-04 1.4807337999e+00 -2.5647061739e+00 1.4807337999e+00 2.5647061739e+00 
74500 4.2097659045e+00 3.1278194686e-04 1.4807231873e+00 -2.5646877924e+00 1.4807231873e+00 2.5646877924e+00 
74600 4.2097658389e+00 3.1128394128e-04 1.4807126256e+00 -2.5646694989e+00 1.4807126256e+00 2.5646694989e+00 
74700 4.2097657738e+00 3.0979372015e-04 1.4807021143e+00 -2.5646512928e+00 1.4807021143e+00 2.5646512928e+00 
74800 4.2097657094e+00 3.0831123787e-04 1.4806916533e+00 -2.5646331738e+00 1.4806916533e+00 2.5646331738e+00 
74900 4.2097656456e+00 3.0683644915e-04 1.4806812422e+00 -2.5646151413e+00 1.4806812422e+00 2.5646151413e+00 
75000 4.2097655823e+00 3.0536930900e-04 1.4806708809e+00 -2.5645971950e+00 1.4806708809e+00 2.5645971950e+00 
75100 4.2097655197e+00 3.0390977275e-04 1.4806605691e+00 -2.5645793344e+00 1.4806605691e+00 2.5645793344e+00 
75200 4.2097654576e+00 3.0245779602e-04 1.4806503064e+00 -2.5645615590e+00 1.4806503064e+00 2.5645615590e+00 
75300 4.2097653960e+00 3.0101333474e-04 1.4806400928e+00 -2.5645438684e+00 1.4806400928e+00 2.5645438684e+00 
75400 4.2097653350e+00 2.9957634512e-04 1.4806299278e+00 -2.5645262621e+00 1.4806299278e+00 2.5645262621e+00 
75500 4.2097652746e+00 2.9814678369e-04 1.4806198113e+00 -2.5645087398e+00 1.4806198113e+00 2.5645087398e+00 
75600 4.2097652147e+00 2.9672460726e-04 1.4806097430e+00 -2.5644913010e+00 1.4806097430e+00 2.5644913010e+00 
75700 4.2097651554e+00 2.9530977292e-04 1.4805997226e+00 -2.5644739453e+00 1.4805997226e+00 2.5644739453e+00 
75800 4.2097650966e+00 2.9390223808e-04 1.4805897500e+00 -2.5644566722e+00 1.4805897500e+00 2.5644566722e+00 
75900 4.2097650384e+00 2.9250196040e-04 1.4805798249e+00 -2.5644394813e+00 1.4805798249e+00 2.5644394813e+00 
76000 4.2097649806e+00 2.9110889786e-04 1.4805699469e+00 -2.5644223722e+00 1.4805699469e+00 2.5644223722e+00 
76100 4.2097649234e+00 2.8972300868e-04 1.4805601160e+00 -2.5644053445e+00 1.4805601160e+00 2.5644053445e+00 
76200 4.2097648667e+00 2.8834425140e-04 1.4805503317e+00 -2.5643883977e+00 1.4805503317e+00 2.5643883977e+00 
76300 4.2097648106e+00 2.8697258482e-04 1.4805405940e+00 -2.5643715315e+00 1.4805405940e+00 2.5643715315e+00 
76400 4.2097647549e+00 2.8560796801e-04 1.4805309025e+00 -2.5643547454e+00 1.4805309025e+00 2.5643547454e+00 
76500 4.2097646997e+00 2.8425036032e-04 1.4805212571e+00 -2.5643380389e+00 1.4805212571e+00 2.5643380389e+00 
76600 4.2097646451e+00 2.8289972138e-04 1.4805116574e+00 -2.5643214118e+00 1.4805116574e+00 2.5643214118e+00 
76700 4.2097645909e+00 2.8155601106e-04 1.4805021033e+00 -2.5643048636e+00 1.4805021033e+00 2.5643048636e+00 
76800 4.2097645372e+00 2.8021918954e-04 1.4804925945e+00 -2.5642883939e+00 1.4804925945e+00 2.5642883939e+00 
76900 4.2097644841e+00 2.7888921722e-04 1.4804831308e+00 -2.5642720023e+00 1.4804831308e+00 2.5642720023e+00 
77000 4.2097644314e+00 2.7756605480e-04 1.4804737120e+00 -2.5642556884e+00 1.4804737120e+00 2.5642556884e+00 
77100 4.2097643791e+00 2.7624966322e-04 1.4804643377e+00 -2.5642394518e+00 1.4804643377e+00 2.5642394518e+00 
77200 4.2097643274e+00 2.7494000367e-04 1.4804550079e+00 -2.5642232920e+00 1.4804550079e+00 2.5642232920e+00 
77300 4.2097642761e+00 2.7363703763e-04 1.4804457223e+00 -2.5642072088e+00 1.4804457223e+00 2.5642072088e+00 
77400 4.2097642253e+00 2.7234072680e-04 1.4804364806e+00 -2.5641912017e+00 1.4804364806e+00 2.5641912017e+00 
77500 4.2097641749e+00 2.7105103316e-04 1.4804272826e+00 -2.5641752704e+00 1.4804272826e+00 2.5641752704e+00 
77600 4.2097641250e+00 2.6976791892e-04 1.4804181281e+00 -2.5641594143e+00 1.4804181281e+00 2.5641594143e+00 
77700 4.2097640756e+00 2.6849134655e-04 1.4804090169e+00 -2.5641436333e+00 1.4804090169e+00 2.5641436333e+00 
77800 4.2097640266e+00 2.6722127877e-04 1.4803999488e+00 -2.5641279268e+00 1.4803999488e+00 2.5641279268e+00 
77900 4.2097639780e+00 2.6595767853e-04 1.4803909235e+00 -2.5641122945e+00 1.4803909235e+00 2.5641122945e+00 
78000 4.2097639299e+00 2.6470050904e-04 1.4803819408e+00 -2.5640967361e+00 1.4803819408e+00 2.5640967361e+00 
78100 4.2097638822e+00 2.6344973373e-04 1.4803730005e+00 -2.5640812511e+00 1.4803730005e+00 2.5640812511e+00 
78200 4.2097638349e+00 2.6220531631e-04 1.4803641025e+00 -2.5640658392e+00 1.4803641025e+00 2.5640658392e+00 
78300 4.2097637881e+00 2.6096722068e-04 1.4803552464e+00 -2.5640504999e+00 1.4803552464e+00 2.5640504999e+00 
78400 4.2097637417e+00 2.5973541100e-04 1.4803464320e+00 -2.5640352331e+00 1.4803464320e+00 2.5640352331e+00 
78500 4.2097636957e+00 2.5850985167e-04 1.4803376592e+00 -2.5640200382e+00 1.4803376592e+00 2.5640200382e+00 
78600 4.2097636501e+00 2.5729050730e-04 1.4803289278e+00 -2.5640049149e+00 1.4803289278e+00 2.5640049149e+00 
78700 4.2097636050e+00 2.5607734276e-04 1.4803202375e+00 -2.5639898628e+00 1.4803202375e+00 2.5639898628e+00 
78800 4.2097635602e+00 2.5487032313e-04 1.4803115881e+00 -2.5639748816e+00 1.4803115881e+00 2.5639748816e+00 
78900 4.2097635158e+00 2.5366941371e-04 1.4803029795e+00 -2.5639599710e+00 1.4803029795e+00 2.5639599710e+00 
79000 4.2097634719e+00 2.5247458004e-04 1.4802944113e+00 -2.5639451305e+00 1.4802944113e+00 2.5639451305e+00 
79100 4.2097634283e+00 2.5128578789e-04 1.4802858835e+00 -2.5639303599e+00 1.4802858835e+00 2.5639303599e+00 
79200 4.2097633852e+00 2.5010300322e-04 1.4802773957e+00 -2.5639156587e+00 1.4802773957e+00 2.5639156587e+00 
79300 4.2097633424e+00 2.4892619225e-04 1.4802689479e+00 -2.5639010266e+00 1.4802689479e+00 2.5639010266e+00 
79400 4.2097633000e+00 2.4775532139e-04 1.4802605398e+00 -2.5638864633e+00 1.4802605398e+00 2.5638864633e+00 
79500 4.2097632580e+00 2.4659035728e-04 1.4802521711e+00 -2.5638719684e+00 1.4802521711e+00 2.5638719684e+00 
79600 4.2097632164e+00 2.4543126678e-04 1.4802438418e+00 -2.5638575416e+00 1.4802438418e+00 2.5638575416e+00 
79700 4.2097631751e+00 2.4427801694e-04 1.4802355516e+00 -2.5638431825e+00 1.4802355516e+00 2.5638431825e+00 
79800 4.2097631342e+00 2.4313057505e-04 1.4802273003e+00 -2.5638288908e+00 1.4802273003e+00 2.5638288908e+00 
79900 4.2097630937e+00 2.4198890859e-04 1.4802190877e+00 -2.5638146662e+00 1.4802190877e+00 2.5638146662e+00 
80000 4.2097630536e+00 2.4085298527e-04 1.4802109136e+00 -2.5638005082e+00 1.4802109136e+00 2.5638005082e+00 
80100 4.2097630138e+00 2.3972277298e-04 1.4802027778e+00 -2.5637864167e+00 1.4802027778e+00 2.5637864167e+00 
80200 4.2097629744e+00 2.3859823984e-04 1.4801946802e+00 -2.5637723912e+00 1.4801946802e+00 2.5637723912e+00 
80300 4.2097629353e+00 2.3747935417e-04 1.4801866205e+00 -2.5637584314e+00 1.4801866205e+00 2.5637584314e+00 
80400 4.2097628966e+00 2.3636608448e-04 1.4801785986e+00 -2.5637445370e+00 1.4801785986e+00 2.5637445370e+00 
80500 4.2097628582e+00 2.3525839949e-04 1.4801706142e+00 -2.5637307077e+00 1.4801706142e+00 2.5637307077e+00 
80600 4.2097628202e+00 2.3415626812e-04 1.4801626672e+00 -2.5637169431e+00 1.4801626672e+00 2.5637169431e+00 
80700 4.2097627825e+00 2.3305965948e-04 1.4801547574e+00 -2.5637032429e+00 1.4801547574e+00 2.5637032429e+00 
80800 4.2097627451e+00 2.3196854290e-04 1.4801468846e+00 -2.5636896068e+00 1.4801468846e+00 2.5636896068e+00 
80900 4.2097627081e+00 2.3088288788e-04 1.4801390486e+00 -2.5636760344e+00 1.4801390486e+00 2.5636760344e+00 
81000 4.2097626714e+00 2.2980266412e-04 1.4801312492e+00 -2.5636625256e+00 1.4801312492e+00 2.5636625256e+00 
81100 4.2097626351e+00 2.2872784152e-04 1.4801234863e+00 -2.5636490798e+00 1.4801234863e+00 2.5636490798e+00 
81200 4.2097625991e+00 2.2765839017e-04 1.4801157597e+00 -2.5636356969e+00 1.4801157597e+00 2.5636356969e+00 
81300 4.2097625633e+00 2.2659428035e-04 1.4801080691e+00 -2.5636223764e+00 1.4801080691e+00 2.5636223764e+00 
81400 4.2097625280e+00 2.2553548251e-04 1.4801004145e+00 -2.5636091182e+00 1.4801004145e+00 2.5636091182e+00 
81500 4.2097624929e+00 2.2448196731e-04 1.4800927956e+00 -2.5635959219e+00 1.4800927956e+00 2.5635959219e+00 
81600 4.2097624582e+00 2.2343370559e-04 1.4800852122e+00 -2.5635827871e+00 1.4800852122e+00 2.5635827871e+00 
81700 4.2097624237e+00 2.2239066837e-04 1.4800776642e+00 -2.5635697136e+00 1.4800776642e+00 2.5635697136e+00 
81800 4.2097623896e+00 2.2135282686e-04 1.4800701514e+00 -2.5635567010e+00 1.4800701514e+00 2.5635567010e+00 
81900 4.2097623558e+00 2.2032015243e-04 1.4800626736e+00 -2.5635437491e+00 1.4800626736e+00 2.5635437491e+00 
82000 4.2097623222e+00 2.1929261666e-04 1.4800552307e+00 -2.5635308576e+00 1.4800552307e+00 2.5635308576e+00 
82100 4.2097622890e+00 2.1827019129e-04 1.4800478225e+00 -2.5635180261e+00 1.4800478225e+00 2.5635180261e+00 
82200 4.2097622561e+00 2.1725284824e-04 1.4800404487e+00 -2.5635052544e+00 1.4800404487e+00 2.5635052544e+00 
82300 4.2097622235e+00 2.1624055961e-04 1.4800331093e+00 -2.5634925422e+00 1.4800331093e+00 2.5634925422e+00 
82400 4.2097621911e+00 2.1523329768e-04 1.4800258040e+00 -2.5634798891e+00 1.4800258040e+00 2.5634798891e+00 
82500 4.2097621591e+00 2.1423103489e-04 1.4800185328e+00 -2.5634672949e+00 1.4800185328e+00 2.5634672949e+00 
82600 4.2097621273e+00 2.1323374385e-04 1.4800112953e+00 -2.5634547593e+00 1.4800112953e+00 2.5634547593e+00 
82700 4.2097620959e+00 2.1224139737e-04 1.4800040916e+00 -2.5634422820e+00 1.4800040916e+00 2.5634422820e+00 
82800 4.2097620647e+00 2.1125396840e-04 1.4799969213e+00 -2.5634298627e+00 1.4799969213e+00 2.5634298627e+00 
82900 4.2097620338e+00 2.1027143007e-04 1.4799897843e+00 -2.5634175011e+00 1.4799897843e+00 2.5634175011e+00 
83000 4.2097620031e+00 2.0929375568e-04 1.4799826805e+00 -2.5634051969e+00 1.4799826805e+00 2.5634051969e+00 
83100 4.2097619728e+00 2.0832091869e-04 1.4799756097e+00 -2.5633929499e+00 1.4799756097e+00 2.5633929499e+00 
83200 4.2097619427e+00 2.0735289272e-04 1.4799685717e+00 -2.5633807598e+00 1.4799685717e+00 2.5633807598e+00 
83300 4.2097619128e+00 2.0638965157e-04 1.4799615664e+00 -2.5633686262e+00 1.4799615664e+00 2.5633686262e+00 
83400 4.2097618833e+00 2.0543116920e-04 1.4799545936e+00 -2.5633565490e+00 1.4799545936e+00 2.5633565490e+00 
83500 4.2097618540e+00 2.0447741972e-04 1.4799476531e+00 -2.5633445278e+00 1.4799476531e+00 2.5633445278e+00 
83600 4.2097618250e+00 2.0352837740e-04 1.4799407449e+00 -2.5633325623e+00 1.4799407449e+00 2.5633325623e+00 
83700 4.2097617962e+00 2.0258401669e-04 1.4799338687e+00 -2.5633206523e+00 1.4799338687e+00 2.5633206523e+00 
83800 4.2097617677e+00 2.0164431217e-04 1.4799270243e+00 -2.5633087976e+00 1.4799270243e+00 2.5633087976e+00 
83900 4.2097617394e+00 2.0070923859e-04 1.4799202117e+00 -2.5632969977e+00 1.4799202117e+00 2.5632969977e+00 
84000 4.2097617114e+00 1.9977877087e-04 1.4799134306e+00 -2.5632852526e+00 1.4799134306e+00 2.5632852526e+00 
84100 4.2097616837e+00 1.9885288406e-04 1.4799066809e+00 -2.5632735618e+00 1.4799066809e+00 2.5632735618e+00 
84200 4.2097616562e+00 1.9793155337e-04 1.4798999625e+00 -2.5632619251e+00 1.4798999625e+00 2.5632619251e+00 
84300 4.2097616289e+00 1.9701475418e-04 1.4798932752e+00 -2.5632503424e+00 1.4798932752e+00 2.5632503424e+00 
84400 4.2097616019e+00 1.9610246200e-04 1.4798866188e+00 -2.5632388132e+00 1.4798866188e+00 2.5632388132e+00 
84500 4.2097615751e+00 1.9519465250e-04 1.4798799932e+00 -2.5632273373e+00 1.4798799932e+00 2.5632273373e+00 
84600 4.2097615486e+00 1.9429130150e-04 1.4798733983e+00 -2.5632159145e+00 1.4798733983e+00 2.5632159145e+00 
84700 4.2097615223e+00 1.9339238497e-04 1.4798668338e+00 -2.5632045446e+00 1.4798668338e+00 2.5632045446e+00 
84800 4.2097614962e+00 1.9249787901e-04 1.4798602997e+00 -2.5631932272e+00 1.4798602997e+00 2.5631932272e+00 
84900 4.2097614704e+00 1.9160775989e-04 1.4798537958e+00 -2.5631819621e+00 1.4798537958e+00 2.5631819621e+00 
85000 4.2097614448e+00 1.9072200401e-04 1.4798473219e+00 -2.5631707490e+00 1.4798473219e+00 2.5631707490e+00 
85100 4.2097614194e+00 1.8984058792e-04 1.4798408779e+00 -2.5631595877e+00 1.4798408779e+00 2.5631595877e+00 
85200 4.2097613942e+00 1.8896348832e-04 1.4798344637e+00 -2.5631484779e+00 1.4798344637e+00 2.5631484779e+00 
85300 4.2097613693e+00 1.8809068202e-04 1.4798280791e+00 -2.5631374195e+00 1.4798280791e+00 2.5631374195e+00 
85400 4.2097613446e+00 1.8722214602e-04 1.4798217240e+00 -2.5631264120e+00 1.4798217240e+00 2.5631264120e+00 
85500 4.2097613201e+00 1.8635785742e-04 1.4798153981e+00 -2.5631154554e+00 1.4798153981e+00 2.5631154554e+00 
85600 4.2097612959e+00 1.8549779348e-04 1.4798091015e+00 -2.5631045493e+00 1.4798091015e+00 2.5631045493e+00 
85700 4.2097612718e+00 1.8464193159e-04 1.4798028339e+00 -2.5630936934e+00 1.4798028339e+00 2.5630936934e+00 
85800 4.2097612480e+00 1.8379024928e-04 1.4797965951e+00 -2.5630828876e+00 1.4797965951e+00 2.5630828876e+00 
85900 4.2097612244e+00 1.8294272421e-04 1.4797903851e+00 -2.5630721316e+00 1.4797903851e+00 2.5630721316e+00 
86000 4.2097612009e+00 1.8209933418e-04 1.4797842038e+00 -2.5630614252e+00 1.4797842038e+00 2.5630614252e+00 
86100 4.2097611777e+00 1.8126005713e-04 1.4797780509e+00 -2.5630507680e+00 1.4797780509e+00 2.5630507680e+00 
86200 4.2097611547e+00 1.8042487112e-04 1.4797719263e+00 -2.5630401600e+00 1.4797719263e+00 2.5630401600e+00 
86300 4.2097611320e+00 1.7959375436e-04 1.4797658299e+00 -2.5630296008e+00 1.4797658299e+00 2.5630296008e+00 
86400 4.2097611094e+00 1.7876668517e-04 1.4797597616e+00 -2.5630190901e+00 1.4797597616e+00 2.5630190901e+00 
86500 4.2097610870e+00 1.7794364202e-04 1.4797537212e+00 -2.5630086279e+00 1.4797537212e+00 2.5630086279e+00 
86600 4.2097610648e+00 1.7712460350e-04 1.4797477086e+00 -2.5629982137e+00 1.4797477086e+00 2.5629982137e+00 
86700 4.2097610428e+00 1.7630954833e-04 1.4797417237e+00 -2.5629878475e+00 1.4797417237e+00 2.5629878475e+00 
86800 4.2097610210e+00 1.7549845535e-04 1.4797357662e+00 -2.5629775289e+00 1.4797357662e+00 2.5629775289e+00 
86900 4.2097609994e+00 1.7469130355e-04 1.4797298362e+00 -2.5629672577e+00 1.4797298362e+00 2.5629672577e+00 
87000 4.2097609780e+00 1.7388807202e-04 1.4797239334e+00 -2.5629570338e+00 1.4797239334e+00 2.5629570338e+00 
87100 4.2097609568e+00 1.7308873999e-04 1.4797180577e+00 -2.5629468568e+00 1.4797180577e+00 2.5629468568e+00 
87200 4.2097609357e+00 1.7229328681e-04 1.4797122090e+00 -2.5629367265e+00 1.4797122090e+00 2.5629367265e+00 
87300 4.2097609149e+00 1.7150169195e-04 1.4797063871e+00 -2.5629266428e+00 1.4797063871e+00 2.5629266428e+00 
87400 4.2097608942e+00 1.7071393501e-04 1.4797005920e+00 -2.5629166054e+00 1.4797005920e+00 2.5629166054e+00 
87500 4.2097608738e+00 1.6992999571e-04 1.4796948235e+00 -2.5629066140e+00 1.4796948235e+00 2.5629066140e+00 
87600 4.2097608535e+00 1.6914985389e-04 1.4796890814e+00 -2.5628966684e+00 1.4796890814e+00 2.5628966684e+00 
87700 4.2097608334e+00 1.6837348951e-04 1.4796833657e+00 -2.5628867685e+00 1.4796833657e+00 2.5628867685e+00 
87800 4.2097608134e+00 1.6760088264e-04 1.4796776762e+00 -2.5628769140e+00 1.4796776762e+00 2.5628769140e+00 
87900 4.2097607937e+00 1.6683201349e-04 1.4796720128e+00 -2.5628671047e+00 1.4796720128e+00 2.5628671047e+00 
88000 4.2097607741e+00 1.6606686236e-04 1.4796663753e+00 -2.5628573403e+00 1.4796663753e+00 2.5628573403e+00 
88100 4.2097607547e+00 1.6530540969e-04 1.4796607637e+00 -2.5628476207e+00 1.4796607637e+00 2.5628476207e+00 
88200 4.2097607354e+00 1.6454763603e-04 1.4796551778e+00 -2.5628379456e+00 1.4796551778e+00 2.5628379456e+00 
88300 4.2097607164e+00 1.6379352204e-04 1.4796496174e+00 -2.5628283148e+00 1.4796496174e+00 2.5628283148e+00 
88400 4.2097606975e+00 1.6304304849e-04 1.4796440826e+00 -2.5628187281e+00 1.4796440826e+00 2.5628187281e+00 
88500 4.2097606787e+00 1.6229619629e-04 1.4796385730e+00 -2.5628091853e+00 1.4796385730e+00 2.5628091853e+00 
88600 4.2097606602e+00 1.6155294642e-04 1.4796330887e+00 -2.5627996862e+00 1.4796330887e+00 2.5627996862e+00 
88700 4.2097606418e+00 1.6081328002e-04 1.4796276295e+00 -2.5627902306e+00 1.4796276295e+00 2.5627902306e+00 
88800 4.2097606235e+00 1.6007717829e-04 1.4796221953e+00 -2.5627808182e+00 1.4796221953e+00 2.5627808182e+00 
88900 4.2097606055e+00 1.5934462260e-04 1.4796167859e+00 -2.5627714488e+00 1.4796167859e+00 2.5627714488e+00 
89000 4.2097605876e+00 1.5861559437e-04 1.4796114012e+00 -2.5627621223e+00 1.4796114012e+00 2.5627621223e+00 
89100 4.2097605698e+00 1.5789007517e-04 1.4796060412e+00 -2.5627528385e+00 1.4796060412e+00 2.5627528385e+00 
89200 4.2097605522e+00 1.5716804666e-04 1.4796007056e+00 -2.5627435971e+00 1.4796007056e+00 2.5627435971e+00 
89300 4.2097605348e+00 1.5644949062e-04 1.4795953945e+00 -2.5627343979e+00 1.4795953945e+00 2.5627343979e+00 
89400 4.2097605175e+00 1.5573438893e-04 1.4795901076e+00 -2.5627252407e+00 1.4795901076e+00 2.5627252407e+00 
89500 4.2097605003e+00 1.5502272357e-04 1.4795848448e+00 -2.5627161253e+00 1.4795848448e+00 2.5627161253e+00 
89600 4.2097604834e+00 1.5431447664e-04 1.4795796061e+00 -2.5627070516e+00 1.4795796061e+00 2.5627070516e+00 
89700 4.2097604665e+00 1.5360963032e-04 1.4795743913e+00 -2.5626980193e+00 1.4795743913e+00 2.5626980193e+00 
89800 4.2097604498e+00 1.5290816693e-04 1.4795692003e+00 -2.5626890282e+00 1.4795692003e+00 2.5626890282e+00 
89900 4.2097604333e+00 1.5221006886e-04 1.4795640330e+00 -2.5626800782e+00 1.4795640330e+00 2.5626800782e+00 
90000 4.2097604169e+00 1.5151531862e-04 1.4795588892e+00 -2.5626711689e+00 1.4795588892e+00 2.5626711689e+00 
90100 4.2097604007e+00 1.5082389883e-04 1.4795537689e+00 -2.5626623003e+00 1.4795537689e+00 2.5626623003e+00 
90200 4.2097603846e+00 1.5013579218e-04 1.4795486720e+00 -2.5626534722e+00 1.4795486720e+00 2.5626534722e+00 
90300 4.2097603686e+00 1.4945098149e-04 1.4795435983e+00 -2.5626446843e+00 1.4795435983e+00 2.5626446843e+00 
90400 4.2097603528e+00 1.4876944968e-04 1.4795385477e+00 -2.5626359364e+00 1.4795385477e+00 2.5626359364e+00 
90500 4.2097603371e+00 1.4809117974e-04 1.4795335202e+00 -2.5626272284e+00 1.4795335202e+00 2.5626272284e+00 
90600 4.2097603216e+00 1.4741615479e-04 1.4795285155e+00 -2.5626185601e+00 1.4795285155e+00 2.5626185601e+00 
90700 4.2097603062e+00 1.4674435804e-04 1.4795235337e+00 -2.5626099313e+00 1.4795235337e+00 2.5626099313e+00 
90800 4.2097602909e+00 1.4607577279e-04 1.4795185745e+00 -2.5626013417e+00 1.4795185745e+00 2.5626013417e+00 
90900 4.2097602758e+00 1.4541038244e-04 1.4795136379e+00 -2.5625927913e+00 1.4795136379e+00 2.5625927913e+00 
91000 4.2097602608e+00 1.4474817048e-04 1.4795087238e+00 -2.5625842798e+00 1.4795087238e+00 2.5625842798e+00 
91100 4.2097602459e+00 1.4408912051e-04 1.4795038320e+00 -2.5625758070e+00 1.4795038320e+00 2.5625758070e+00 
91200 4.2097602312e+00 1.4343321622e-04 1.4794989625e+00 -2.5625673728e+00 1.4794989625e+00 2.5625673728e+00 
91300 4.2097602166e+00 1.4278044137e-04 1.4794941151e+00 -2.5625589769e+00 1.4794941151e+00 2.5625589769e+00 
91400 4.2097602021e+00 1.4213077986e-04 1.4794892898e+00 -2.5625506192e+00 1.4794892898e+00 2.5625506192e+00 
91500 4.2097601878e+00 1.4148421564e-04 1.4794844865e+00 -2.5625422996e+00 1.4794844865e+00 2.5625422996e+00 
91600 4.2097601736e+00 1.4084073278e-04 1.4794797049e+00 -2.5625340177e+00 1.4794797049e+00 2.5625340177e+00 
91700 4.2097601595e+00 1.4020031542e-04 1.4794749451e+00 -2.5625257735e+00 1.4794749451e+00 2.5625257735e+00 
91800 4.2097601455e+00 1.3956294781e-04 1.4794702069e+00 -2.5625175667e+00 1.4794702069e+00 2.5625175667e+00 
91900 4.2097601317e+00 1.3892861427e-04 1.4794654903e+00 -2.5625093972e+00 1.4794654903e+00 2.5625093972e+00 
92000 4.2097601179e+00 1.3829729925e-04 1.4794607951e+00 -2.5625012649e+00 1.4794607951e+00 2.5625012649e+00 
92100 4.2097601043e+00 1.3766898723e-04 1.4794561212e+00 -2.5624931694e+00 1.4794561212e+00 2.5624931694e+00 
92200 4.2097600909e+00 1.3704366283e-04 1.4794514685e+00 -2.5624851107e+00 1.4794514685e+00 2.5624851107e+00 
92300 4.2097600775e+00 1.3642131073e-04 1.4794468369e+00 -2.5624770886e+00 1.4794468369e+00 2.5624770886e+00 
92400 4.2097600643e+00 1.3580191571e-04 1.4794422264e+00 -2.5624691029e+00 1.4794422264e+00 2.5624691029e+00 
92500 4.2097600511e+00 1.3518546263e-04 1.4794376367e+00 -2.5624611534e+00 1.4794376367e+00 2.5624611534e+00 
92600 4.2097600381e+00 1.3457193644e-04 1.4794330679e+00 -2.5624532400e+00 1.4794330679e+00 2.5624532400e+00 
92700 4.2097600252e+00 1.3396132218e-04 1.4794285198e+00 -2.5624453625e+00 1.4794285198e+00 2.5624453625e+00 
92800 4.2097600124e+00 1.3335360497e-04 1.4794239924e+00 -2.5624375207e+00 1.4794239924e+00 2.5624375207e+00 
92900 4.2097599998e+00 1.3274877000e-04 1.4794194854e+00 -2.5624297145e+00 1.4794194854e+00 2.5624297145e+00 
93000 4.2097599872e+00 1.3214680258e-04 1.4794149989e+00 -2.5624219436e+00 1.4794149989e+00 2.5624219436e+00 
93100 4.2097599748e+00 1.3154768806e-04 1.4794105327e+00 -2.5624142079e+00 1.4794105327e+00 2.5624142079e+00 
93200 4.2097599624e+00 1.3095141192e-04 1.4794060868e+00 -2.5624065073e+00 1.4794060868e+00 2.5624065073e+00 
93300 4.2097599502e+00 1.3035795969e-04 1.4794016610e+00 -2.5623988416e+00 1.4794016610e+00 2.5623988416e+00 
93400 4.2097599381e+00 1.2976731698e-04 1.4793972552e+00 -2.5623912106e+00 1.4793972552e+00 2.5623912106e+00 
93500 4.2097599261e+00 1.2917946950e-04 1.4793928694e+00 -2.5623836141e+00 1.4793928694e+00 2.5623836141e+00 
93600 4.2097599142e+00 1.2859440304e-04 1.4793885034e+00 -2.5623760521e+00 1.4793885034e+00 2.5623760521e+00 
93700 4.2097599023e+00 1.2801210345e-04 1.4793841572e+00 -2.5623685242e+00 1.4793841572e+00 2.5623685242e+00 
93800 4.2097598906e+00 1.2743255668e-04 1.4793798307e+00 -2.5623610305e+00 1.4793798307e+00 2.5623610305e+00 
93900 4.2097598791e+00 1.2685574875e-04 1.4793755237e+00 -2.5623535706e+00 1.4793755237e+00 2.5623535706e+00 
94000 4.2097598676e+00 1.2628166577e-04 1.4793712363e+00 -2.5623461445e+00 1.4793712363e+00 2.5623461445e+00 
94100 4.2097598562e+00 1.2571029391e-04 1.4793669682e+00 -2.5623387519e+00 1.4793669682e+00 2.5623387519e+00 
94200 4.2097598449e+00 1.2514161943e-04 1.4793627194e+00 -2.5623313928e+00 1.4793627194e+00 2.5623313928e+00 
94300 4.2097598337e+00 1.2457562866e-04 1.4793584898e+00 -2.5623240670e+00 1.4793584898e+00 2.5623240670e+00 
94400 4.2097598226e+00 1.2401230802e-04 1.4793542794e+00 -2.5623167743e+00 1.4793542794e+00 2.5623167743e+00 
94500 4.2097598116e+00 1.2345164400e-04 1.4793500879e+00 -2.5623095145e+00 1.4793500879e+00 2.5623095145e+00 
94600 4.2097598007e+00 1.2289362315e-04 1.4793459154e+00 -2.5623022875e+00 1.4793459154e+00 2.5623022875e+00 
94700 4.2097597899e+00 1.2233823213e-04 1.4793417618e+00 -2.5622950932e+00 1.4793417618e+00 2.5622950932e+00 
94800 4.2097597792e+00 1.2178545763e-04 1.4793376269e+00 -2.5622879314e+00 1.4793376269e+00 2.5622879314e+00 
94900 4.2097597686e+00 1.2123528646e-04 1.4793335107e+00 -2.5622808019e+00 1.4793335107e+00 2.5622808019e+00 
95000 4.2097597580e+00 1.2068770547e-04 1.4793294131e+00 -2.5622737046e+00 1.4793294131e+00 2.5622737046e+00 
95100 4.2097597476e+00 1.2014270160e-04 1.4793253339e+00 -2.5622666393e+00 1.4793253339e+00 2.5622666393e+00 
95200 4.2097597373e+00 1.1960026187e-04 1.4793212732e+00 -2.5622596059e+00 1.4793212732e+00 2.5622596059e+00 
95300 4.2097597270e+00 1.1906037334e-04 1.4793172308e+00 -2.5622526043e+00 1.4793172308e+00 2.5622526043e+00 
95400 4.2097597169e+00 1.1852302318e-04 1.4793132066e+00 -2.5622456342e+00 1.4793132066e+00 2.5622456342e+00 
95500 4.2097597068e+00 1.1798819861e-04 1.4793092006e+00 -2.5622386956e+00 1.4793092006e+00 2.5622386956e+00 
95600 4.2097596968e+00 1.1745588692e-04 1.4793052127e+00 -2.5622317883e+00 1.4793052127e+00 2.5622317883e+00 
95700 4.2097596869e+00 1.1692607549e-04 1.4793012427e+00 -2.5622249121e+00 1.4793012427e+00 2.5622249121e+00 
95800 4.2097596771e+00 1.1639875175e-04 1.4792972906e+00 -2.5622180669e+00 1.4792972906e+00 2.5622180669e+00 
95900 4.2097596674e+00 1.1587390321e-04 1.4792933564e+00 -2.5622112526e+00 1.4792933564e+00 2.5622112526e+00 
96000 4.2097596578e+00 1.1535151745e-04 1.4792894399e+00 -2.5622044689e+00 1.4792894399e+00 2.5622044689e+00 
96100 4.2097596482e+00 1.1483158210e-04 1.4792855410e+00 -2.5621977159e+00 1.4792855410e+00 2.5621977159e+00 
96200 4.2097596388e+00 1.1431408490e-04 1.4792816597e+00 -2.5621909932e+00 1.4792816597e+00 2.5621909932e+00 
96300 4.2097596294e+00 1.1379901361e-04 1.4792777958e+00 -2.5621843009e+00 1.4792777958e+00 2.5621843009e+00 
96400 4.2097596201e+00 1.1328635609e-04 1.4792739494e+00 -2.5621776387e+00 1.4792739494e+00 2.5621776387e+00 
96500 4.2097596109e+00 1.1277610025e-04 1.4792701203e+00 -2.5621710064e+00 1.4792701203e+00 2.5621710064e+00 
96600 4.2097596017e+00 1.1226823409e-04 1.4792663084e+00 -2.5621644041e+00 1.4792663084e+00 2.5621644041e+00 
96700 4.2097595927e+00 1.1176274564e-04 1.4792625137e+00 -2.5621578314e+00 1.4792625137e+00 2.5621578314e+00 
96800 4.2097595837e+00 1.1125962303e-04 1.4792587360e+00 -2.5621512883e+00 1.4792587360e+00 2.5621512883e+00 
96900 4.2097595748e+00 1.1075885443e-04 1.4792549754e+00 -2.5621447747e+00 1.4792549754e+00 2.5621447747e+00 
97000 4.2097595660e+00 1.1026042810e-04 1.4792512316e+00 -2.5621382903e+00 1.4792512316e+00 2.5621382903e+00 
97100 4.2097595573e+00 1.0976433235e-04 1.4792475047e+00 -2.5621318352e+00 1.4792475047e+00 2.5621318352e+00 
97200 4.2097595486e+00 1.0927055555e-04 1.4792437946e+00 -2.5621254090e+00 1.4792437946e+00 2.5621254090e+00 
97300 4.2097595400e+00 1.0877908614e-04 1.4792401011e+00 -2.5621190117e+00 1.4792401011e+00 2.5621190117e+00 
97400 4.2097595315e+00 1.0828991263e-04 1.4792364243e+00 -2.5621126432e+00 1.4792364243e+00 2.5621126432e+00 
97500 4.2097595231e+00 1.0780302357e-04 1.4792327639e+00 -2.5621063034e+00 1.4792327639e+00 2.5621063034e+00 
97600 4.2097595147e+00 1.0731840761e-04 1.4792291201e+00 -2.5620999920e+00 1.4792291201e+00 2.5620999920e+00 
97700 4.2097595064e+00 1.0683605344e-04 1.4792254926e+00 -2.5620937090e+00 1.4792254926e+00 2.5620937090e+00 
97800 4.2097594982e+00 1.0635594980e-04 1.4792218813e+00 -2.5620874541e+00 1.4792218813e+00 2.5620874541e+00 
97900 4.2097594900e+00 1.0587808551e-04 1.4792182863e+00 -2.5620812274e+00 1.4792182863e+00 2.5620812274e+00 
98000 4.2097594820e+00 1.0540244945e-04 1.4792147075e+00 -2.5620750287e+00 1.4792147075e+00 2.5620750287e+00 
98100 4.2097594740e+00 1.0492903056e-04 1.4792111447e+00 -2.5620688578e+00 1.4792111447e+00 2.5620688578e+00 
98200 4.2097594660e+00 1.0445781783e-04 1.4792075979e+00 -2.5620627145e+00 1.4792075979e+00 2.5620627145e+00 
98300 4.2097594582e+00 1.0398880032e-04 1.4792040671e+00 -2.5620565989e+00 1.4792040671e+00 2.5620565989e+00 
98400 4.2097594504e+00 1.0352196715e-04 1.4792005520e+00 -2.5620505107e+00 1.4792005520e+00 2.5620505107e+00 
98500 4.2097594426e+00 1.0305730749e-04 1.4791970528e+00 -2.5620444498e+00 1.4791970528e+00 2.5620444498e+00 
98600 4.2097594350e+00 1.0259481059e-04 1.4791935692e+00 -2.5620384161e+00 1.4791935692e+00 2.5620384161e+00 
98700 4.2097594274e+00 1.0213446573e-04 1.4791901013e+00 -2.5620324095e+00 1.4791901013e+00 2.5620324095e+00 
98800 4.2097594199e+00 1.0167626226e-04 1.4791866489e+00 -2.5620264298e+00 1.4791866489e+00 2.5620264298e+00 
98900 4.2097594124e+00 1.0122018961e-04 1.4791832120e+00 -2.5620204769e+00 1.4791832120e+00 2.5620204769e+00 
99000 4.2097594050e+00 1.0076623723e-04 1.4791797905e+00 -2.5620145507e+00 1.4791797905e+00 2.5620145507e+00 
99100 4.2097593977e+00 1.0031439465e-04 1.4791763844e+00 -2.5620086511e+00 1.4791763844e+00 2.5620086511e+00 
99200 4.2097593904e+00 9.9864651452e-05 1.4791729935e+00 -2.5620027779e+00 1.4791729935e+00 2.5620027779e+00 
99300 4.2097593832e+00 9.9416997275e-05 1.4791696178e+00 -2.5619969310e+00 1.4791696178e+00 2.5619969310e+00 
99400 4.2097593761e+00 9.8971421814e-05 1.4791662572e+00 -2.5619911104e+00 1.4791662572e+00 2.5619911104e+00 
99500 4.2097593690e+00 9.8527914818e-05 1.4791629117e+00 -2.5619853158e+00 1.4791629117e+00 2.5619853158e+00 
99600 4.2097593620e+00 9.8086466093e-05 1.4791595812e+00 -2.5619795471e+00 1.4791595812e+00 2.5619795471e+00 
99700 4.2097593550e+00 9.7647065499e-05 1.4791562656e+00 -2.5619738043e+00 1.4791562656e+00 2.5619738043e+00 
99800 4.2097593481e+00 9.7209702952e-05 1.4791529648e+00 -2.5619680872e+00 1.4791529648e+00 2.5619680872e+00 
99900 4.2097593413e+00 9.6774368421e-05 1.4791496788e+00 -2.5619623957e+00 1.4791496788e+00 2.5619623957e+00 
100000 4.2097593345e+00 9.6341051931e-05 1.4791464075e+00 -2.5619567297e+00 1.4791464075e+00 2.5619567297e+00 
100100 4.2097593278e+00 9.5909743559e-05 1.4791431509e+00 -2.5619510890e+00 1.4791431509e+00 2.5619510890e+00 
100200 4.2097593212e+00 9.5480433437e-05 1.4791399088e+00 -2.5619454736e+00 1.4791399088e+00 2.5619454736e+00 
100300 4.2097593146e+00 9.5053111748e-05 1.4791366813e+00 -2.5619398833e+00 1.4791366813e+00 2.5619398833e+00 
100400 4.2097593080e+00 9.4627768730e-05 1.4791334681e+00 -2.5619343180e+00 1.4791334681e+00 2.5619343180e+00 
100500 4.2097593016e+00 9.4204394671e-05 1.4791302694e+00 -2.5619287776e+00 1.4791302694e+00 2.5619287776e+00 
100600 4.2097592951e+00 9.3782979915e-05 1.4791270849e+00 -2.5619232619e+00 1.4791270849e+00 2.5619232619e+00 
100700 4.2097592888e+00 9.3363514853e-05 1.4791239147e+00 -2.5619177710e+00 1.4791239147e+00 2.5619177710e+00 
100800 4.2097592825e+00 9.2945989932e-05 1.4791207587e+00 -2.5619123046e+00 1.4791207587e+00 2.5619123046e+00 
100900 4.2097592762e+00 9.2530395646e-05 1.4791176167e+00 -2.5619068626e+00 1.4791176167e+00 2.5619068626e+00 
101000 4.2097592700e+00 9.2116722544e-05 1.4791144889e+00 -2.5619014449e+00 1.4791144889e+00 2.5619014449e+00 
101100 4.2097592639e+00 9.1704961222e-05 1.4791113749e+00 -2.5618960514e+00 1.4791113749e+00 2.5618960514e+00 
101200 4.2097592578e+00 9.1295102329e-05 1.4791082749e+00 -2.5618906821e+00 1.4791082749e+00 2.5618906821e+00 
101300 4.2097592517e+00 9.0887136563e-05 1.4791051888e+00 -2.5618853367e+00 1.4791051888e+00 2.5618853367e+00 
101400 4.2097592457e+00 9.0481054671e-05 1.4791021164e+00 -2.5618800152e+00 1.4791021164e+00 2.5618800152e+00 
101500 4.2097592398e+00 9.0076847450e-05 1.4790990578e+00 -2.5618747175e+00 1.4790990578e+00 2.5618747175e+00 
101600 4.2097592339e+00 8.9674505747e-05 1.4790960128e+00 -2.5618694434e+00 1.4790960128e+00 2.5618694434e+00 
101700 4.2097592281e+00 8.9274020455e-05 1.4790929814e+00 -2.5618641929e+00 1.4790929814e+00 2.5618641929e+00 
101800 4.2097592223e+00 8.8875382518e-05 1.4790899635e+00 -2.5618589658e+00 1.4790899635e+00 2.5618589658e+00 
101900 4.2097592166e+00 8.8478582929e-05 1.4790869591e+00 -2.5618537620e+00 1.4790869591e+00 2.5618537620e+00 
102000 4.2097592109e+00 8.8083612726e-05 1.4790839681e+00 -2.5618485815e+00 1.4790839681e+00 2.5618485815e+00 
102100 4.2097592053e+00 8.7690462996e-05 1.4790809905e+00 -2.5618434241e+00 1.4790809905e+00 2.5618434241e+00 
102200 4.2097591997e+00 8.7299124874e-05 1.4790780262e+00 -2.5618382897e+00 1.4790780262e+00 2.5618382897e+00 
102300 4.2097591942e+00 8.6909589540e-05 1.4790750750e+00 -2.5618331781e+00 1.4790750750e+00 2.5618331781e+00 
102400 4.2097591887e+00 8.6521848225e-05 1.4790721370e+00 -2.5618280894e+00 1.4790721370e+00 2.5618280894e+00 
102500 4.2097591832e+00 8.6135892201e-05 1.4790692122e+00 -2.5618230234e+00 1.4790692122e+00 2.5618230234e+00 
102600 4.2097591779e+00 8.5751712791e-05 1.4790663004e+00 -2.5618179800e+00 1.4790663004e+00 2.5618179800e+00 
102700 4.2097591725e+00 8.5369301360e-05 1.4790634015e+00 -2.5618129590e+00 1.4790634015e+00 2.5618129590e+00 
102800 4.2097591672e+00 8.4988649322e-05 1.4790605156e+00 -2.5618079605e+00 1.4790605156e+00 2.5618079605e+00 
102900 4.2097591620e+00 8.4609748135e-05 1.4790576425e+00 -2.5618029842e+00 1.4790576425e+00 2.5618029842e+00 
103000 4.2097591568e+00 8.4232589301e-05 1.4790547823e+00 -2.5617980301e+00 1.4790547823e+00 2.5617980301e+00 
103100 4.2097591516e+00 8.3857164370e-05 1.4790519348e+00 -2.5617930980e+00 1.4790519348e+00 2.5617930980e+00 
103200 4.2097591465e+00 8.3483464932e-05 1.4790490999e+00 -2.5617881880e+00 1.4790490999e+00 2.5617881880e+00 
103300 4.2097591414e+00 8.3111482626e-05 1.4790462777e+00 -2.5617832998e+00 1.4790462777e+00 2.5617832998e+00 
103400 4.2097591364e+00 8.2741209132e-05 1.4790434681e+00 -2.5617784333e+00 1.4790434681e+00 2.5617784333e+00 
103500 4.2097591314e+00 8.2372636175e-05 1.4790406710e+00 -2.5617735886e+00 1.4790406710e+00 2.5617735886e+00 
103600 4.2097591265e+00 8.2005755523e-05 1.4790378863e+00 -2.5617687654e+00 1.4790378863e+00 2.5617687654e+00 
103700 4.2097591216e+00 8.1640558989e-05 1.4790351140e+00 -2.5617639637e+00 1.4790351140e+00 2.5617639637e+00 
103800 4.2097591168e+00 8.1277038427e-05 1.4790323541e+00 -2.5617591834e+00 1.4790323541e+00 2.5617591834e+00 
103900 4.2097591120e+00 8.0915185733e-05 1.4790296065e+00 -2.5617544243e+00 1.4790296065e+00 2.5617544243e+00 
104000 4.2097591072e+00 8.0554992849e-05 1.4790268711e+00 -2.5617496864e+00 1.4790268711e+00 2.5617496864e+00 
104100 4.2097591025e+00 8.0196451757e-05 1.4790241478e+00 -2.5617449697e+00 1.4790241478e+00 2.5617449697e+00 
104200 4.2097590978e+00 7.9839554481e-05 1.4790214367e+00 -2.5617402738e+00 1.4790214367e+00 2.5617402738e+00 
104300 4.2097590931e+00 7.9484293087e-05 1.4790187376e+00 -2.5617355989e+00 1.4790187376e+00 2.5617355989e+00 
104400 4.2097590885e+00 7.9130659683e-05 1.4790160506e+00 -2.5617309448e+00 1.4790160506e+00 2.5617309448e+00 
104500 4.2097590840e+00 7.8778646417e-05 1.4790133755e+00 -2.5617263114e+00 1.4790133755e+00 2.5617263114e+00 
104600 4.2097590795e+00 7.8428245481e-05 1.4790107122e+00 -2.5617216985e+00 1.4790107122e+00 2.5617216985e+00 
104700 4.2097590750e+00 7.8079449104e-05 1.4790080609e+00 -2.5617171062e+00 1.4790080609e+00 2.5617171062e+00 
104800 4.2097590705e+00 7.7732249558e-05 1.4790054213e+00 -2.5617125343e+00 1.4790054213e+00 2.5617125343e+00 
104900 4.2097590661e+00 7.7386639156e-05 1.4790027934e+00 -2.5617079828e+00 1.4790027934e+00 2.5617079828e+00 
105000 4.2097590618e+00 7.7042610248e-05 1.4790001773e+00 -2.5617034514e+00 1.4790001773e+00 2.5617034514e+00 
105100 4.2097590574e+00 7.6700155227e-05 1.4789975727e+00 -2.5616989402e+00 1.4789975727e+00 2.5616989402e+00 
105200 4.2097590531e+00 7.6359266524e-05 1.4789949797e+00 -2.5616944490e+00 1.4789949797e+00 2.5616944490e+00 
105300 4.2097590489e+00 7.6019936610e-05 1.4789923983e+00 -2.5616899778e+00 1.4789923983e+00 2.5616899778e+00 
105400 4.2097590447e+00 7.5682157996e-05 1.4789898283e+00 -2.5616855265e+00 1.4789898283e+00 2.5616855265e+00 
105500 4.2097590405e+00 7.5345923229e-05 1.4789872697e+00 -2.5616810949e+00 1.4789872697e+00 2.5616810949e+00 
105600 4.2097590364e+00 7.5011224898e-05 1.4789847225e+00 -2.5616766830e+00 1.4789847225e+00 2.5616766830e+00 
105700 4.2097590322e+00 7.4678055628e-05 1.4789821866e+00 -2.5616722907e+00 1.4789821866e+00 2.5616722907e+00 
105800 4.2097590282e+00 7.4346408085e-05 1.4789796619e+00 -2.5616679179e+00 1.4789796619e+00 2.5616679179e+00 
105900 4.2097590241e+00 7.4016274971e-05 1.4789771485e+00 -2.5616635645e+00 1.4789771485e+00 2.5616635645e+00 
106000 4.2097590201e+00 7.3687649025e-05 1.4789746462e+00 -2.5616592304e+00 1.4789746462e+00 2.5616592304e+00 
106100 4.2097590162e+00 7.3360523027e-05 1.4789721551e+00 -2.5616549155e+00 1.4789721551e+00 2.5616549155e+00 
106200 4.2097590123e+00 7.3034889792e-05 1.4789696749e+00 -2.5616506199e+00 1.4789696749e+00 2.5616506199e+00 
106300 4.2097590084e+00 7.2710742171e-05 1.4789672058e+00 -2.5616463432e+00 1.4789672058e+00 2.5616463432e+00 
106400 4.2097590045e+00 7.2388073055e-05 1.4789647477e+00 -2.5616420856e+00 1.4789647477e+00 2.5616420856e+00 
106500 4.2097590007e+00 7.2066875371e-05 1.4789623004e+00 -2.5616378468e+00 1.4789623004e+00 2.5616378468e+00 
106600 4.2097589969e+00 7.1747142080e-05 1.4789598640e+00 -2.5616336268e+00 1.4789598640e+00 2.5616336268e+00 
106700 4.2097589931e+00 7.1428866182e-05 1.4789574384e+00 -2.5616294256e+00 1.4789574384e+00 2.5616294256e+00 
106800 4.2097589894e+00 7.1112040712e-05 1.4789550236e+00 -2.5616252430e+00 1.4789550236e+00 2.5616252430e+00 
106900 4.2097589857e+00 7.0796658742e-05 1.4789526195e+00 -2.5616210789e+00 1.4789526195e+00 2.5616210789e+00 
107000 4.2097589820e+00 7.0482713377e-05 1.4789502260e+00 -2.5616169333e+00 1.4789502260e+00 2.5616169333e+00 
107100 4.2097589786e+00 7.0726123594e-05 1.4789502260e+00 -2.5616169333e+00 1.4789502260e+00 2.5616169333e+00 
107200 4.2097589750e+00 7.0414530391e-05 1.4789478349e+00 -2.5616127918e+00 1.4789478349e+00 2.5616127918e+00 
107300 4.2097589717e+00 7.0659290333e-05 1.4789478349e+00 -2.5616127918e+00 1.4789478349e+00 2.5616127918e+00 
107400 4.2097589684e+00 7.0906506795e-05 1.4789478349e+00 -2.5616127918e+00 1.4789478349e+00 2.5616127918e+00 
107500 4.2097589648e+00 7.0596629820e-05 1.4789454377e+00 -2.5616086397e+00 1.4789454377e+00 2.5616086397e+00 
107600 4.2097589616e+00 7.0843818706e-05 1.4789454377e+00 -2.5616086397e+00 1.4789454377e+00 2.5616086397e+00 
107700 4.2097589581e+00 7.0534233308e-05 1.4789430426e+00 -2.5616044913e+00 1.4789430426e+00 2.5616044913e+00 
107800 4.2097589549e+00 7.0780996961e-05 1.4789430426e+00 -2.5616044913e+00 1.4789430426e+00 2.5616044913e+00 
107900 4.2097589515e+00 7.0471349324e-05 1.4789406497e+00 -2.5616003466e+00 1.4789406497e+00 2.5616003466e+00 
108000 4.2097589484e+00 7.0717371557e-05 1.4789406497e+00 -2.5616003466e+00 1.4789406497e+00 2.5616003466e+00 
108100 4.2097589451e+00 7.0407385309e-05 1.4789382589e+00 -2.5615962056e+00 1.4789382589e+00 2.5615962056e+00 
108200 4.2097589420e+00 7.0652413933e-05 1.4789382589e+00 -2.5615962056e+00 1.4789382589e+00 2.5615962056e+00 
108300 4.2097589389e+00 7.0898916021e-05 1.4789382589e+00 -2.5615962056e+00 1.4789382589e+00 2.5615962056e+00 
108400 4.2097589357e+00 7.0587673013e-05 1.4789358619e+00 -2.5615920539e+00 1.4789358619e+00 2.5615920539e+00 
108500 4.2097589327e+00 7.0832491128e-05 1.4789358619e+00 -2.5615920539e+00 1.4789358619e+00 2.5615920539e+00 
108600 4.2097589295e+00 7.0520089414e-05 1.4789334672e+00 -2.5615879062e+00 1.4789334672e+00 2.5615879062e+00 
108700 4.2097589265e+00 7.0763162563e-05 1.4789334672e+00 -2.5615879062e+00 1.4789334672e+00 2.5615879062e+00 
108800 4.2097589234e+00 7.0449568601e-05 1.4789310748e+00 -2.5615837625e+00 1.4789310748e+00 2.5615837625e+00 
108900 4.2097589205e+00 7.0690845487e-05 1.4789310748e+00 -2.5615837625e+00 1.4789310748e+00 2.5615837625e+00 
109000 4.2097589176e+00 7.0933257167e-05 1.4789310748e+00 -2.5615837625e+00 1.4789310748e+00 2.5615837625e+00 
109100 4.2097589145e+00 7.0617472730e-05 1.4789286767e+00 -2.5615796088e+00 1.4789286767e+00 2.5615796088e+00 
109200 4.2097589117e+00 7.0857622938e-05 1.4789286767e+00 -2.5615796088e+00 1.4789286767e+00 2.5615796088e+00 
109300 4.2097589087e+00 7.0540232737e-05 1.4789262811e+00 -2.5615754595e+00 1.4789262811e+00 2.5615754595e+00 
109400 4.2097589059e+00 7.0778172890e-05 1.4789262811e+00 -2.5615754595e+00 1.4789262811e+00 2.5615754595e+00 
109500 4.2097589030e+00 7.0459250962e-05 1.4789238882e+00 -2.5615713149e+00 1.4789238882e+00 2.5615713149e+00 
109600 4.2097589002e+00 7.0695019579e-05 1.4789238882e+00 -2.5615713149e+00 1.4789238882e+00 2.5615713149e+00 
109700 4.2097588975e+00 7.0931763275e-05 1.4789238882e+00 -2.5615713149e+00 1.4789238882e+00 2.5615713149e+00 
109800 4.2097588946e+00 7.0610298244e-05 1.4789214901e+00 -2.5615671613e+00 1.4789214901e+00 2.5615671613e+00 
109900 4.2097588920e+00 7.0844508053e-05 1.4789214901e+00 -2.5615671613e+00 1.4789214901e+00 2.5615671613e+00 
110000 4.2097588891e+00 7.0521282437e-05 1.4789190950e+00 -2.5615630128e+00 1.4789190950e+00 2.5615630128e+00 
110100 4.2097588865e+00 7.0753062277e-05 1.4789190950e+00 -2.5615630128e+00 1.4789190950e+00 2.5615630128e+00 
110200 4.2097588837e+00 7.0428200422e-05 1.4789167030e+00 -2.5615588697e+00 1.4789167030e+00 2.5615588697e+00 
110300 4.2097588812e+00 7.0657631621e-05 1.4789167030e+00 -2.5615588697e+00 1.4789167030e+00 2.5615588697e+00 
110400 4.2097588787e+00 7.0887961666e-05 1.4789167030e+00 -2.5615588697e+00 1.4789167030e+00 2.5615588697e+00 
110500 4.2097588759e+00 7.0560475195e-05 1.4789143063e+00 -2.5615547186e+00 1.4789143063e+00 2.5615547186e+00 
110600 4.2097588734e+00 7.0788144845e-05 1.4789143063e+00 -2.5615547186e+00 1.4789143063e+00 2.5615547186e+00 
110700 4.2097588708e+00 7.0458882447e-05 1.4789119131e+00 -2.5615505734e+00 1.4789119131e+00 2.5615505734e+00 
110800 4.2097588683e+00 7.0684022022e-05 1.4789119131e+00 -2.5615505734e+00 1.4789119131e+00 2.5615505734e+00 
110900 4.2097588659e+00 7.0909985559e-05 1.4789119131e+00 -2.5615505734e+00 1.4789119131e+00 2.5615505734e+00 
111000 4.2097588633e+00 7.0577973053e-05 1.4789095157e+00 -2.5615464210e+00 1.4789095157e+00 2.5615464210e+00 
111100 4.2097588609e+00 7.0801150296e-05 1.4789095157e+00 -2.5615464210e+00 1.4789095157e+00 2.5615464210e+00 
111200 4.2097588583e+00 7.0467320733e-05 1.4789071220e+00 -2.5615422750e+00 1.4789071220e+00 2.5615422750e+00 
111300 4.2097588560e+00 7.0687870182e-05 1.4789071220e+00 -2.5615422750e+00 1.4789071220e+00 2.5615422750e+00 
111400 4.2097588537e+00 7.0909203561e-05 1.4789071220e+00 -2.5615422750e+00 1.4789071220e+00 2.5615422750e+00 
111500 4.2097588512e+00 7.0572610489e-05 1.4789047247e+00 -2.5615381227e+00 1.4789047247e+00 2.5615381227e+00 
111600 4.2097588489e+00 7.0791092409e-05 1.4789047247e+00 -2.5615381227e+00 1.4789047247e+00 2.5615381227e+00 
111700 4.2097588464e+00 7.0452697849e-05 1.4789023313e+00 -2.5615339773e+00 1.4789023313e+00 2.5615339773e+00 
111800 4.2097588442e+00 7.0668503574e-05 1.4789023313e+00 -2.5615339773e+00 1.4789023313e+00 2.5615339773e+00 
111900 4.2097588420e+00 7.0885073674e-05 1.4789023313e+00 -2.5615339773e+00 1.4789023313e+00 2.5615339773e+00 
112000 4.2097588396e+00 7.0543967495e-05 1.4788999348e+00 -2.5615298263e+00 1.4788999348e+00 2.5615298263e+00 
112100 4.2097588374e+00 7.0757657596e-05 1.4788999348e+00 -2.5615298263e+00 1.4788999348e+00 2.5615298263e+00 
112200 4.2097588350e+00 7.0414798947e-05 1.4788975425e+00 -2.5615256829e+00 1.4788975425e+00 2.5615256829e+00 
112300 4.2097588329e+00 7.0625794646e-05 1.4788975425e+00 -2.5615256829e+00 1.4788975425e+00 2.5615256829e+00 
112400 4.2097588308e+00 7.0837547589e-05 1.4788975425e+00 -2.5615256829e+00 1.4788975425e+00 2.5615256829e+00 
112500 4.2097588284e+00 7.0492068168e-05 1.4788951476e+00 -2.5615215347e+00 1.4788951476e+00 2.5615215347e+00 
112600 4.2097588264e+00 7.0700935571e-05 1.4788951476e+00 -2.5615215347e+00 1.4788951476e+00 2.5615215347e+00 
112700 4.2097588243e+00 7.0910483771e-05 1.4788951476e+00 -2.5615215347e+00 1.4788951476e+00 2.5615215347e+00 
112800 4.2097588220e+00 7.0562202566e-05 1.4788927502e+00 -2.5615173822e+00 1.4788927502e+00 2.5615173822e+00 
112900 4.2097588200e+00 7.0768735446e-05 1.4788927502e+00 -2.5615173822e+00 1.4788927502e+00 2.5615173822e+00 
113000 4.2097588178e+00 7.0418697092e-05 1.4788903575e+00 -2.5615132381e+00 1.4788903575e+00 2.5615132381e+00 
113100 4.2097588158e+00 7.0622437203e-05 1.4788903575e+00 -2.5615132381e+00 1.4788903575e+00 2.5615132381e+00 
113200 4.2097588138e+00 7.0826896554e-05 1.4788903575e+00 -2.5615132381e+00 1.4788903575e+00 2.5615132381e+00 
113300 4.2097588117e+00 7.0474292146e-05 1.4788879630e+00 -2.5615090905e+00 1.4788879630e+00 2.5615090905e+00 
113400 4.2097588097e+00 7.0675809582e-05 1.4788879630e+00 -2.5615090905e+00 1.4788879630e+00 2.5615090905e+00 
113500 4.2097588078e+00 7.0877986940e-05 1.4788879630e+00 -2.5615090905e+00 1.4788879630e+00 2.5615090905e+00 
113600 4.2097588057e+00 7.0522689307e-05 1.4788855666e+00 -2.5615049400e+00 1.4788855666e+00 2.5615049400e+00 
113700 4.2097588038e+00 7.0721825308e-05 1.4788855666e+00 -2.5615049400e+00 1.4788855666e+00 2.5615049400e+00 
113800 4.2097588017e+00 7.0364864281e-05 1.4788831756e+00 -2.5615007986e+00 1.4788831756e+00 2.5615007986e+00 
113900 4.2097587999e+00 7.0561196798e-05 1.4788831756e+00 -2.5615007986e+00 1.4788831756e+00 2.5615007986e+00 
114000 4.2097587981e+00 7.0758246083e-05 1.4788831756e+00 -2.5615007986e+00 1.4788831756e+00 2.5615007986e+00 
114100 4.2097587960e+00 7.0398884350e-05 1.4788807833e+00 -2.5614966550e+00 1.4788807833e+00 2.5614966550e+00 
114200 4.2097587942e+00 7.0592999209e-05 1.4788807833e+00 -2.5614966550e+00 1.4788807833e+00 2.5614966550e+00 
114300 4.2097587924e+00 7.0787778705e-05 1.4788807833e+00 -2.5614966550e+00 1.4788807833e+00 2.5614966550e+00 
114400 4.2097587905e+00 7.0425910616e-05 1.4788783900e+00 -2.5614925097e+00 1.4788783900e+00 2.5614925097e+00 
114500 4.2097587887e+00 7.0617669854e-05 1.4788783900e+00 -2.5614925097e+00 1.4788783900e+00 2.5614925097e+00 
114600 4.2097587870e+00 7.0810060098e-05 1.4788783900e+00 -2.5614925097e+00 1.4788783900e+00 2.5614925097e+00 
114700 4.2097587850e+00 7.0445639067e-05 1.4788759960e+00 -2.5614883631e+00 1.4788759960e+00 2.5614883631e+00 
114800 4.2097587833e+00 7.0634954442e-05 1.4788759960e+00 -2.5614883631e+00 1.4788759960e+00 2.5614883631e+00 
114900 4.2097587816e+00 7.0824879959e-05 1.4788759960e+00 -2.5614883631e+00 1.4788759960e+00 2.5614883631e+00 
115000 4.2097587797e+00 7.0457899998e-05 1.4788736014e+00 -2.5614842156e+00 1.4788736014e+00 2.5614842156e+00 
115100 4.2097587781e+00 7.0644717779e-05 1.4788736014e+00 -2.5614842156e+00 1.4788736014e+00 2.5614842156e+00 
115200 4.2097587764e+00 7.0832133694e-05 1.4788736014e+00 -2.5614842156e+00 1.4788736014e+00 2.5614842156e+00 
115300 4.2097587746e+00 7.0462616781e-05 1.4788712066e+00 -2.5614800677e+00 1.4788712066e+00 2.5614800677e+00 
115400 4.2097587730e+00 7.0646907354e-05 1.4788712066e+00 -2.5614800677e+00 1.4788712066e+00 2.5614800677e+00 
115500 4.2097587714e+00 7.0831790219e-05 1.4788712066e+00 -2.5614800677e+00 1.4788712066e+00 2.5614800677e+00 
115600 4.2097587696e+00 7.0459777632e-05 1.4788688118e+00 -2.5614759198e+00 1.4788688118e+00 2.5614759198e+00 
115700 4.2097587680e+00 7.0641528349e-05 1.4788688118e+00 -2.5614759198e+00 1.4788688118e+00 2.5614759198e+00 
115800 4.2097587664e+00 7.0823869840e-05 1.4788688118e+00 -2.5614759198e+00 1.4788688118e+00 2.5614759198e+00 
115900 4.2097587647e+00 7.0449416182e-05 1.4788664173e+00 -2.5614717723e+00 1.4788664173e+00 2.5614717723e+00 
116000 4.2097587631e+00 7.0628626436e-05 1.4788664173e+00 -2.5614717723e+00 1.4788664173e+00 2.5614717723e+00 
116100 4.2097587616e+00 7.0808428987e-05 1.4788664173e+00 -2.5614717723e+00 1.4788664173e+00 2.5614717723e+00 
116200 4.2097587599e+00 7.0431598036e-05 1.4788640233e+00 -2.5614676258e+00 1.4788640233e+00 2.5614676258e+00 
116300 4.2097587584e+00 7.0608275837e-05 1.4788640233e+00 -2.5614676258e+00 1.4788640233e+00 2.5614676258e+00 
116400 4.2097587569e+00 7.0785549606e-05 1.4788640233e+00 -2.5614676258e+00 1.4788640233e+00 2.5614676258e+00 
116500 4.2097587552e+00 7.0406411426e-05 1.4788616300e+00 -2.5614634806e+00 1.4788616300e+00 2.5614634806e+00 
116600 4.2097587538e+00 7.0580571006e-05 1.4788616300e+00 -2.5614634806e+00 1.4788616300e+00 2.5614634806e+00 
116700 4.2097587524e+00 7.0755331747e-05 1.4788616300e+00 -2.5614634806e+00 1.4788616300e+00 2.5614634806e+00 
116800 4.2097587507e+00 7.0373960645e-05 1.4788592378e+00 -2.5614593371e+00 1.4788592378e+00 2.5614593371e+00 
116900 4.2097587493e+00 7.0545620767e-05 1.4788592378e+00 -2.5614593371e+00 1.4788592378e+00 2.5614593371e+00 
117000 4.2097587479e+00 7.0717888320e-05 1.4788592378e+00 -2.5614593371e+00 1.4788592378e+00 2.5614593371e+00 
117100 4.2097587463e+00 7.0334361402e-05 1.4788568469e+00 -2.5614551959e+00 1.4788568469e+00 2.5614551959e+00 
117200 4.2097587449e+00 7.0503544155e-05 1.4788568469e+00 -2.5614551959e+00 1.4788568469e+00 2.5614551959e+00 
117300 4.2097587436e+00 7.0673341367e-05 1.4788568469e+00 -2.5614551959e+00 1.4788568469e+00 2.5614551959e+00 
117400 4.2097587422e+00 7.0843610872e-05 1.4788568469e+00 -2.5614551959e+00 1.4788568469e+00 2.5614551959e+00 
117500 4.2097587406e+00 7.0457026592e-05 1.4788544516e+00 -2.5614510472e+00 1.4788544516e+00 2.5614510472e+00 
117600 4.2097587393e+00 7.0623982183e-05 1.4788544516e+00 -2.5614510472e+00 1.4788544516e+00 2.5614510472e+00 
117700 4.2097587380e+00 7.0791461922e-05 1.4788544516e+00 -2.5614510472e+00 1.4788544516e+00 2.5614510472e+00 
117800 4.2097587365e+00 7.0402579939e-05 1.4788520582e+00 -2.5614469017e+00 1.4788520582e+00 2.5614469017e+00 
117900 4.2097587352e+00 7.0566838115e-05 1.4788520582e+00 -2.5614469017e+00 1.4788520582e+00 2.5614469017e+00 
118000 4.2097587339e+00 7.0731658745e-05 1.4788520582e+00 -2.5614469017e+00 1.4788520582e+00 2.5614469017e+00 
118100 4.2097587324e+00 7.0340657473e-05 1.4788496667e+00 -2.5614427596e+00 1.4788496667e+00 2.5614427596e+00 
118200 4.2097587312e+00 7.0502326965e-05 1.4788496667e+00 -2.5614427596e+00 1.4788496667e+00 2.5614427596e+00 
118300 4.2097587299e+00 7.0664587999e-05 1.4788496667e+00 -2.5614427596e+00 1.4788496667e+00 2.5614427596e+00 
118400 4.2097587287e+00 7.0827304149e-05 1.4788496667e+00 -2.5614427596e+00 1.4788496667e+00 2.5614427596e+00 
118500 4.2097587272e+00 7.0433398258e-05 1.4788472721e+00 -2.5614386119e+00 1.4788472721e+00 2.5614386119e+00 
118600 4.2097587260e+00 7.0592782279e-05 1.4788472721e+00 -2.5614386119e+00 1.4788472721e+00 2.5614386119e+00 
118700 4.2097587248e+00 7.0752686748e-05 1.4788472721e+00 -2.5614386119e+00 1.4788472721e+00 2.5614386119e+00 
118800 4.2097587234e+00 7.0356648167e-05 1.4788448799e+00 -2.5614344685e+00 1.4788448799e+00 2.5614344685e+00 
118900 4.2097587222e+00 7.0513336689e-05 1.4788448799e+00 -2.5614344685e+00 1.4788448799e+00 2.5614344685e+00 
119000 4.2097587211e+00 7.0670593300e-05 1.4788448799e+00 -2.5614344685e+00 1.4788448799e+00 2.5614344685e+00 
119100 4.2097587199e+00 7.0828286365e-05 1.4788448799e+00 -2.5614344685e+00 1.4788448799e+00 2.5614344685e+00 
119200 4.2097587185e+00 7.0429413146e-05 1.4788424852e+00 -2.5614303208e+00 1.4788424852e+00 2.5614303208e+00 
119300 4.2097587174e+00 7.0583749304e-05 1.4788424852e+00 -2.5614303208e+00 1.4788424852e+00 2.5614303208e+00 
119400 4.2097587163e+00 7.0738598539e-05 1.4788424852e+00 -2.5614303208e+00 1.4788424852e+00 2.5614303208e+00 
119500 4.2097587149e+00 7.0337687807e-05 1.4788400935e+00 -2.5614261782e+00 1.4788400935e+00 2.5614261782e+00 
119600 4.2097587138e+00 7.0489316033e-05 1.4788400935e+00 -2.5614261782e+00 1.4788400935e+00 2.5614261782e+00 
119700 4.2097587127e+00 7.0641512779e-05 1.4788400935e+00 -2.5614261782e+00 1.4788400935e+00 2.5614261782e+00 
119800 4.2097587116e+00 7.0794148501e-05 1.4788400935e+00 -2.5614261782e+00 1.4788400935e+00 2.5614261782e+00 
119900 4.2097587103e+00 7.0390566078e-05 1.4788376999e+00 -2.5614220325e+00 1.4788376999e+00 2.5614220325e+00 
120000 4.2097587093e+00 7.0539857537e-05 1.4788376999e+00 -2.5614220325e+00 1.4788376999e+00 2.5614220325e+00 
120100 4.2097587082e+00 7.0689669353e-05 1.4788376999e+00 -2.5614220325e+00 1.4788376999e+00 2.5614220325e+00 
120200 4.2097587072e+00 7.0839878567e-05 1.4788376999e+00 -2.5614220325e+00 1.4788376999e+00 2.5614220325e+00 
120300 4.2097587059e+00 7.0433516596e-05 1.4788353048e+00 -2.5614178840e+00 1.4788353048e+00 2.5614178840e+00 
120400 4.2097587049e+00 7.0580312825e-05 1.4788353048e+00 -2.5614178840e+00 1.4788353048e+00 2.5614178840e+00 
120500 4.2097587039e+00 7.0727603539e-05 1.4788353048e+00 -2.5614178840e+00 1.4788353048e+00 2.5614178840e+00 
120600 4.2097587026e+00 7.0319323259e-05 1.4788329135e+00 -2.5614137421e+00 1.4788329135e+00 2.5614137421e+00 
120700 4.2097587016e+00 7.0463372283e-05 1.4788329135e+00 -2.5614137421e+00 1.4788329135e+00 2.5614137421e+00 
120800 4.2097587006e+00 7.0607985336e-05 1.4788329135e+00 -2.5614137421e+00 1.4788329135e+00 2.5614137421e+00 
120900 4.2097586996e+00 7.0753036601e-05 1.4788329135e+00 -2.5614137421e+00 1.4788329135e+00 2.5614137421e+00 
121000 4.2097586984e+00 7.0342309158e-05 1.4788305213e+00 -2.5614095987e+00 1.4788305213e+00 2.5614095987e+00 
121100 4.2097586975e+00 7.0484026990e-05 1.4788305213e+00 -2.5614095987e+00 1.4788305213e+00 2.5614095987e+00 
121200 4.2097586965e+00 7.0626272999e-05 1.4788305213e+00 -2.5614095987e+00 1.4788305213e+00 2.5614095987e+00 
121300 4.2097586956e+00 7.0768926590e-05 1.4788305213e+00 -2.5614095987e+00 1.4788305213e+00 2.5614095987e+00 
121400 4.2097586944e+00 7.0355690628e-05 1.4788281286e+00 -2.5614054544e+00 1.4788281286e+00 2.5614054544e+00 
121500 4.2097586935e+00 7.0494962103e-05 1.4788281286e+00 -2.5614054544e+00 1.4788281286e+00 2.5614054544e+00 
121600 4.2097586925e+00 7.0634743443e-05 1.4788281286e+00 -2.5614054544e+00 1.4788281286e+00 2.5614054544e+00 
121700 4.2097586916e+00 7.0774917214e-05 1.4788281286e+00 -2.5614054544e+00 1.4788281286e+00 2.5614054544e+00 
121800 4.2097586905e+00 7.0359181331e-05 1.4788257356e+00 -2.5614013097e+00 1.4788257356e+00 2.5614013097e+00 
121900 4.2097586896e+00 7.0495950603e-05 1.4788257356e+00 -2.5614013097e+00 1.4788257356e+00 2.5614013097e+00 
122000 4.2097586887e+00 7.0633222054e-05 1.4788257356e+00 -2.5614013097e+00 1.4788257356e+00 2.5614013097e+00 
122100 4.2097586878e+00 7.0770880189e-05 1.4788257356e+00 -2.5614013097e+00 1.4788257356e+00 2.5614013097e+00 
122200 4.2097586867e+00 7.0352694962e-05 1.4788233428e+00 -2.5613971652e+00 1.4788233428e+00 2.5613971652e+00 
122300 4.2097586858e+00 7.0486942451e-05 1.4788233428e+00 -2.5613971652e+00 1.4788233428e+00 2.5613971652e+00 
122400 4.2097586850e+00 7.0621690911e-05 1.4788233428e+00 -2.5613971652e+00 1.4788233428e+00 2.5613971652e+00 
122500 4.2097586841e+00 7.0756826048e-05 1.4788233428e+00 -2.5613971652e+00 1.4788233428e+00 2.5613971652e+00 
122600 4.2097586830e+00 7.0336267202e-05 1.4788209505e+00 -2.5613930216e+00 1.4788209505e+00 2.5613930216e+00 
122700 4.2097586822e+00 7.0467995715e-05 1.4788209505e+00 -2.5613930216e+00 1.4788209505e+00 2.5613930216e+00 
122800 4.2097586814e+00 7.0600227956e-05 1.4788209505e+00 -2.5613930216e+00 1.4788209505e+00 2.5613930216e+00 
122900 4.2097586806e+00 7.0732850394e-05 1.4788209505e+00 -2.5613930216e+00 1.4788209505e+00 2.5613930216e+00 
123000 4.2097586795e+00 7.0310008602e-05 1.4788185590e+00 -2.5613888793e+00 1.4788185590e+00 2.5613888793e+00 
123100 4.2097586787e+00 7.0439234909e-05 1.4788185590e+00 -2.5613888793e+00 1.4788185590e+00 2.5613888793e+00 
123200 4.2097586779e+00 7.0568970139e-05 1.4788185590e+00 -2.5613888793e+00 1.4788185590e+00 2.5613888793e+00 
123300 4.2097586771e+00 7.0699101256e-05 1.4788185590e+00 -2.5613888793e+00 1.4788185590e+00 2.5613888793e+00 
123400 4.2097586763e+00 7.0829528236e-05 1.4788185590e+00 -2.5613888793e+00 1.4788185590e+00 2.5613888793e+00 
123500 4.2097586753e+00 7.0403694926e-05 1.4788161642e+00 -2.5613847314e+00 1.4788161642e+00 2.5613847314e+00 
123600 4.2097586745e+00 7.0530566300e-05 1.4788161642e+00 -2.5613847314e+00 1.4788161642e+00 2.5613847314e+00 
123700 4.2097586738e+00 7.0657884420e-05 1.4788161642e+00 -2.5613847314e+00 1.4788161642e+00 2.5613847314e+00 
123800 4.2097586730e+00 7.0785544365e-05 1.4788161642e+00 -2.5613847314e+00 1.4788161642e+00 2.5613847314e+00 
123900 4.2097586720e+00 7.0357366888e-05 1.4788137708e+00 -2.5613805860e+00 1.4788137708e+00 2.5613805860e+00 
124000 4.2097586713e+00 7.0481553384e-05 1.4788137708e+00 -2.5613805860e+00 1.4788137708e+00 2.5613805860e+00 
124100 4.2097586706e+00 7.0606220958e-05 1.4788137708e+00 -2.5613805860e+00 1.4788137708e+00 2.5613805860e+00 
124200 4.2097586698e+00 7.0731261816e-05 1.4788137708e+00 -2.5613805860e+00 1.4788137708e+00 2.5613805860e+00 
124300 4.2097586689e+00 7.0300955582e-05 1.4788113794e+00 -2.5613764439e+00 1.4788113794e+00 2.5613764439e+00 
124400 4.2097586681e+00 7.0422581791e-05 1.4788113794e+00 -2.5613764439e+00 1.4788113794e+00 2.5613764439e+00 
124500 4.2097586674e+00 7.0544713531e-05 1.4788113794e+00 -2.5613764439e+00 1.4788113794e+00 2.5613764439e+00 
124600 4.2097586667e+00 7.0667241331e-05 1.4788113794e+00 -2.5613764439e+00 1.4788113794e+00 2.5613764439e+00 
124700 4.2097586660e+00 7.0790068335e-05 1.4788113794e+00 -2.5613764439e+00 1.4788113794e+00 2.5613764439e+00 
124800 4.2097586651e+00 7.0357065104e-05 1.4788089859e+00 -2.5613722982e+00 1.4788089859e+00 2.5613722982e+00 
124900 4.2097586644e+00 7.0476354020e-05 1.4788089859e+00 -2.5613722982e+00 1.4788089859e+00 2.5613722982e+00 
125000 4.2097586637e+00 7.0596100296e-05 1.4788089859e+00 -2.5613722982e+00 1.4788089859e+00 2.5613722982e+00 
125100 4.2097586631e+00 7.0716201034e-05 1.4788089859e+00 -2.5613722982e+00 1.4788089859e+00 2.5613722982e+00 
125200 4.2097586622e+00 7.0281135202e-05 1.4788065949e+00 -2.5613681569e+00 1.4788065949e+00 2.5613681569e+00 
125300 4.2097586615e+00 7.0397797307e-05 1.4788065949e+00 -2.5613681569e+00 1.4788065949e+00 2.5613681569e+00 
125400 4.2097586608e+00 7.0514957528e-05 1.4788065949e+00 -2.5613681569e+00 1.4788065949e+00 2.5613681569e+00 
125500 4.2097586602e+00 7.0632509405e-05 1.4788065949e+00 -2.5613681569e+00 1.4788065949e+00 2.5613681569e+00 
125600 4.2097586595e+00 7.0750358747e-05 1.4788065949e+00 -2.5613681569e+00 1.4788065949e+00 2.5613681569e+00 
125700 4.2097586587e+00 7.0312765359e-05 1.4788042028e+00 -2.5613640136e+00 1.4788042028e+00 2.5613640136e+00 
125800 4.2097586580e+00 7.0427082482e-05 1.4788042028e+00 -2.5613640136e+00 1.4788042028e+00 2.5613640136e+00 
125900 4.2097586574e+00 7.0541861279e-05 1.4788042028e+00 -2.5613640136e+00 1.4788042028e+00 2.5613640136e+00 
126000 4.2097586568e+00 7.0657000528e-05 1.4788042028e+00 -2.5613640136e+00 1.4788042028e+00 2.5613640136e+00 
126100 4.2097586562e+00 7.0772410663e-05 1.4788042028e+00 -2.5613640136e+00 1.4788042028e+00 2.5613640136e+00 
126200 4.2097586553e+00 7.0332222889e-05 1.4788018099e+00 -2.5613598690e+00 1.4788018099e+00 2.5613598690e+00 
126300 4.2097586547e+00 7.0444058399e-05 1.4788018099e+00 -2.5613598690e+00 1.4788018099e+00 2.5613598690e+00 
126400 4.2097586541e+00 7.0556339982e-05 1.4788018099e+00 -2.5613598690e+00 1.4788018099e+00 2.5613598690e+00 
126500 4.2097586535e+00 7.0668969228e-05 1.4788018099e+00 -2.5613598690e+00 1.4788018099e+00 2.5613598690e+00 
126600 4.2097586529e+00 7.0781859057e-05 1.4788018099e+00 -2.5613598690e+00 1.4788018099e+00 2.5613598690e+00 
126700 4.2097586521e+00 7.0339108250e-05 1.4787994166e+00 -2.5613557238e+00 1.4787994166e+00 2.5613557238e+00 
126800 4.2097586515e+00 7.0448408869e-05 1.4787994166e+00 -2.5613557238e+00 1.4787994166e+00 2.5613557238e+00 
126900 4.2097586510e+00 7.0558151171e-05 1.4787994166e+00 -2.5613557238e+00 1.4787994166e+00 2.5613557238e+00 
127000 4.2097586504e+00 7.0668238279e-05 1.4787994166e+00 -2.5613557238e+00 1.4787994166e+00 2.5613557238e+00 
127100 4.2097586498e+00 7.0778584475e-05 1.4787994166e+00 -2.5613557238e+00 1.4787994166e+00 2.5613557238e+00 
127200 4.2097586490e+00 7.0333354117e-05 1.4787970235e+00 -2.5613515789e+00 1.4787970235e+00 2.5613515789e+00 
127300 4.2097586485e+00 7.0440111964e-05 1.4787970235e+00 -2.5613515789e+00 1.4787970235e+00 2.5613515789e+00 
127400 4.2097586479e+00 7.0547313200e-05 1.4787970235e+00 -2.5613515789e+00 1.4787970235e+00 2.5613515789e+00 
127500 4.2097586474e+00 7.0654861807e-05 1.4787970235e+00 -2.5613515789e+00 1.4787970235e+00 2.5613515789e+00 
127600 4.2097586469e+00 7.0762672829e-05 1.4787970235e+00 -2.5613515789e+00 1.4787970235e+00 2.5613515789e+00 
127700 4.2097586461e+00 7.0315074003e-05 1.4787946310e+00 -2.5613474348e+00 1.4787946310e+00 2.5613474348e+00 
127800 4.2097586456e+00 7.0419306356e-05 1.4787946310e+00 -2.5613474348e+00 1.4787946310e+00 2.5613474348e+00 
127900 4.2097586450e+00 7.0523987155e-05 1.4787946310e+00 -2.5613474348e+00 1.4787946310e+00 2.5613474348e+00 
128000 4.2097586445e+00 7.0629020876e-05 1.4787946310e+00 -2.5613474348e+00 1.4787946310e+00 2.5613474348e+00 
128100 4.2097586440e+00 7.0734323013e-05 1.4787946310e+00 -2.5613474348e+00 1.4787946310e+00 2.5613474348e+00 
128200 4.2097586433e+00 7.0284481160e-05 1.4787922393e+00 -2.5613432924e+00 1.4787922393e+00 2.5613432924e+00 
128300 4.2097586427e+00 7.0386219516e-05 1.4787922393e+00 -2.5613432924e+00 1.4787922393e+00 2.5613432924e+00 
128400 4.2097586422e+00 7.0488413217e-05 1.4787922393e+00 -2.5613432924e+00 1.4787922393e+00 2.5613432924e+00 
128500 4.2097586417e+00 7.0590967051e-05 1.4787922393e+00 -2.5613432924e+00 1.4787922393e+00 2.5613432924e+00 
128600 4.2097586413e+00 7.0693796785e-05 1.4787922393e+00 -2.5613432924e+00 1.4787922393e+00 2.5613432924e+00 
128700 4.2097586408e+00 7.0796827859e-05 1.4787922393e+00 -2.5613432924e+00 1.4787922393e+00 2.5613432924e+00 
128800 4.2097586401e+00 7.0344209410e-05 1.4787898456e+00 -2.5613391463e+00 1.4787898456e+00 2.5613391463e+00 
128900 4.2097586396e+00 7.0443564582e-05 1.4787898456e+00 -2.5613391463e+00 1.4787898456e+00 2.5613391463e+00 
129000 4.2097586391e+00 7.0543331662e-05 1.4787898456e+00 -2.5613391463e+00 1.4787898456e+00 2.5613391463e+00 
129100 4.2097586386e+00 7.0643421422e-05 1.4787898456e+00 -2.5613391463e+00 1.4787898456e+00 2.5613391463e+00 
129200 4.2097586382e+00 7.0743754915e-05 1.4787898456e+00 -2.5613391463e+00 1.4787898456e+00 2.5613391463e+00 
129300 4.2097586375e+00 7.0288929086e-05 1.4787874537e+00 -2.5613350033e+00 1.4787874537e+00 2.5613350033e+00 
129400 4.2097586370e+00 7.0385663464e-05 1.4787874537e+00 -2.5613350033e+00 1.4787874537e+00 2.5613350033e+00 
129500 4.2097586365e+00 7.0482841631e-05 1.4787874537e+00 -2.5613350033e+00 1.4787874537e+00 2.5613350033e+00 
129600 4.2097586361e+00 7.0580371786e-05 1.4787874537e+00 -2.5613350033e+00 1.4787874537e+00 2.5613350033e+00 
129700 4.2097586356e+00 7.0678172721e-05 1.4787874537e+00 -2.5613350033e+00 1.4787874537e+00 2.5613350033e+00 
129800 4.2097586352e+00 7.0776172558e-05 1.4787874537e+00 -2.5613350033e+00 1.4787874537e+00 2.5613350033e+00 
129900 4.2097586345e+00 7.0318761313e-05 1.4787850606e+00 -2.5613308585e+00 1.4787850606e+00 2.5613308585e+00 
130000 4.2097586341e+00 7.0413088738e-05 1.4787850606e+00 -2.5613308585e+00 1.4787850606e+00 2.5613308585e+00 
130100 4.2097586337e+00 7.0507831850e-05 1.4787850606e+00 -2.5613308585e+00 1.4787850606e+00 2.5613308585e+00 
130200 4.2097586332e+00 7.0602903112e-05 1.4787850606e+00 -2.5613308585e+00 1.4787850606e+00 2.5613308585e+00 
130300 4.2097586328e+00 7.0698225081e-05 1.4787850606e+00 -2.5613308585e+00 1.4787850606e+00 2.5613308585e+00 
130400 4.2097586324e+00 7.0793729207e-05 1.4787850606e+00 -2.5613308585e+00 1.4787850606e+00 2.5613308585e+00 
130500 4.2097586317e+00 7.0333710821e-05 1.4787826670e+00 -2.5613267125e+00 1.4787826670e+00 2.5613267125e+00 
130600 4.2097586313e+00 7.0425516755e-05 1.4787826670e+00 -2.5613267125e+00 1.4787826670e+00 2.5613267125e+00 
130700 4.2097586309e+00 7.0517729555e-05 1.4787826670e+00 -2.5613267125e+00 1.4787826670e+00 2.5613267125e+00 
130800 4.2097586305e+00 7.0610263716e-05 1.4787826670e+00 -2.5613267125e+00 1.4787826670e+00 2.5613267125e+00 
130900 4.2097586301e+00 7.0703043598e-05 1.4787826670e+00 -2.5613267125e+00 1.4787826670e+00 2.5613267125e+00 
131000 4.2097586297e+00 7.0796002251e-05 1.4787826670e+00 -2.5613267125e+00 1.4787826670e+00 2.5613267125e+00 
131100 4.2097586291e+00 7.0333457655e-05 1.4787802732e+00 -2.5613225665e+00 1.4787802732e+00 2.5613225665e+00 
131200 4.2097586287e+00 7.0422715498e-05 1.4787802732e+00 -2.5613225665e+00 1.4787802732e+00 2.5613225665e+00 
131300 4.2097586283e+00 7.0512380614e-05 1.4787802732e+00 -2.5613225665e+00 1.4787802732e+00 2.5613225665e+00 
131400 4.2097586279e+00 7.0602368493e-05 1.4787802732e+00 -2.5613225665e+00 1.4787802732e+00 2.5613225665e+00 
131500 4.2097586276e+00 7.0692604386e-05 1.4787802732e+00 -2.5613225665e+00 1.4787802732e+00 2.5613225665e+00 
131600 4.2097586272e+00 7.0783022137e-05 1.4787802732e+00 -2.5613225665e+00 1.4787802732e+00 2.5613225665e+00 
131700 4.2097586266e+00 7.0318080285e-05 1.4787778800e+00 -2.5613184212e+00 1.4787778800e+00 2.5613184212e+00 
131800 4.2097586262e+00 7.0404806332e-05 1.4787778800e+00 -2.5613184212e+00 1.4787778800e+00 2.5613184212e+00 
131900 4.2097586258e+00 7.0491944545e-05 1.4787778800e+00 -2.5613184212e+00 1.4787778800e+00 2.5613184212e+00 
132000 4.2097586255e+00 7.0579410930e-05 1.4787778800e+00 -2.5613184212e+00 1.4787778800e+00 2.5613184212e+00 
132100 4.2097586251e+00 7.0667131198e-05 1.4787778800e+00 -2.5613184212e+00 1.4787778800e+00 2.5613184212e+00 
132200 4.2097586248e+00 7.0755039603e-05 1.4787778800e+00 -2.5613184212e+00 1.4787778800e+00 2.5613184212e+00 
132300 4.2097586242e+00 7.0287851573e-05 1.4787754876e+00 -2.5613142775e+00 1.4787754876e+00 2.5613142775e+00 
132400 4.2097586238e+00 7.0372083612e-05 1.4787754876e+00 -2.5613142775e+00 1.4787754876e+00 2.5613142775e+00 
132500 4.2097586235e+00 7.0456734918e-05 1.4787754876e+00 -2.5613142775e+00 1.4787754876e+00 2.5613142775e+00 
132600 4.2097586231e+00 7.0541721782e-05 1.4787754876e+00 -2.5613142775e+00 1.4787754876e+00 2.5613142775e+00 
132700 4.2097586228e+00 7.0626970171e-05 1.4787754876e+00 -2.5613142775e+00 1.4787754876e+00 2.5613142775e+00 
132800 4.2097586224e+00 7.0712414569e-05 1.4787754876e+00 -2.5613142775e+00 1.4787754876e+00 2.5613142775e+00 
132900 4.2097586219e+00 7.0243140974e-05 1.4787730967e+00 -2.5613101363e+00 1.4787730967e+00 2.5613101363e+00 
133000 4.2097586215e+00 7.0324927853e-05 1.4787730967e+00 -2.5613101363e+00 1.4787730967e+00 2.5613101363e+00 
133100 4.2097586212e+00 7.0407142171e-05 1.4787730967e+00 -2.5613101363e+00 1.4787730967e+00 2.5613101363e+00 
133200 4.2097586209e+00 7.0489700397e-05 1.4787730967e+00 -2.5613101363e+00 1.4787730967e+00 2.5613101363e+00 
133300 4.2097586206e+00 7.0572528654e-05 1.4787730967e+00 -2.5613101363e+00 1.4787730967e+00 2.5613101363e+00 
133400 4.2097586202e+00 7.0655561569e-05 1.4787730967e+00 -2.5613101363e+00 1.4787730967e+00 2.5613101363e+00 
133500 4.2097586199e+00 7.0738741254e-05 1.4787730967e+00 -2.5613101363e+00 1.4787730967e+00 2.5613101363e+00 
133600 4.2097586194e+00 7.0266994765e-05 1.4787707049e+00 -2.5613059936e+00 1.4787707049e+00 2.5613059936e+00 
133700 4.2097586191e+00 7.0346436574e-05 1.4787707049e+00 -2.5613059936e+00 1.4787707049e+00 2.5613059936e+00 
133800 4.2097586188e+00 7.0426274587e-05 1.4787707049e+00 -2.5613059936e+00 1.4787707049e+00 2.5613059936e+00 
133900 4.2097586184e+00 7.0506429874e-05 1.4787707049e+00 -2.5613059936e+00 1.4787707049e+00 2.5613059936e+00 
134000 4.2097586181e+00 7.0586832624e-05 1.4787707049e+00 -2.5613059936e+00 1.4787707049e+00 2.5613059936e+00 
134100 4.2097586178e+00 7.0667421053e-05 1.4787707049e+00 -2.5613059936e+00 1.4787707049e+00 2.5613059936e+00 
134200 4.2097586175e+00 7.0748140447e-05 1.4787707049e+00 -2.5613059936e+00 1.4787707049e+00 2.5613059936e+00 
134300 4.2097586170e+00 7.0273886517e-05 1.4787683128e+00 -2.5613018503e+00 1.4787683128e+00 2.5613018503e+00 
134400 4.2097586167e+00 7.0350844188e-05 1.4787683128e+00 -2.5613018503e+00 1.4787683128e+00 2.5613018503e+00 
134500 4.2097586164e+00 7.0428189776e-05 1.4787683128e+00 -2.5613018503e+00 1.4787683128e+00 2.5613018503e+00 
134600 4.2097586161e+00 7.0505846298e-05 1.4787683128e+00 -2.5613018503e+00 1.4787683128e+00 2.5613018503e+00 
134700 4.2097586159e+00 7.0583745667e-05 1.4787683128e+00 -2.5613018503e+00 1.4787683128e+00 2.5613018503e+00 
134800 4.2097586156e+00 7.0661827630e-05 1.4787683128e+00 -2.5613018503e+00 1.4787683128e+00 2.5613018503e+00 
134900 4.2097586153e+00 7.0740038835e-05 1.4787683128e+00 -2.5613018503e+00 1.4787683128e+00 2.5613018503e+00 
135000 4.2097586148e+00 7.0263378080e-05 1.4787659209e+00 -2.5612977075e+00 1.4787659209e+00 2.5612977075e+00 
135100 4.2097586145e+00 7.0337828229e-05 1.4787659209e+00 -2.5612977075e+00 1.4787659209e+00 2.5612977075e+00 
135200 4.2097586142e+00 7.0412667746e-05 1.4787659209e+00 -2.5612977075e+00 1.4787659209e+00 2.5612977075e+00 
135300 4.2097586140e+00 7.0487820507e-05 1.4787659209e+00 -2.5612977075e+00 1.4787659209e+00 2.5612977075e+00 
135400 4.2097586137e+00 7.0563219191e-05 1.4787659209e+00 -2.5612977075e+00 1.4787659209e+00 2.5612977075e+00 
135500 4.2097586134e+00 7.0638804230e-05 1.4787659209e+00 -2.5612977075e+00 1.4787659209e+00 2.5612977075e+00 
135600 4.2097586132e+00 7.0714522885e-05 1.4787659209e+00 -2.5612977075e+00 1.4787659209e+00 2.5612977075e+00 
135700 4.2097586127e+00 7.0235611742e-05 1.4787635299e+00 -2.5612935662e+00 1.4787635299e+00 2.5612935662e+00 
135800 4.2097586124e+00 7.0307581239e-05 1.4787635299e+00 -2.5612935662e+00 1.4787635299e+00 2.5612935662e+00 
135900 4.2097586122e+00 7.0379945787e-05 1.4787635299e+00 -2.5612935662e+00 1.4787635299e+00 2.5612935662e+00 
136000 4.2097586119e+00 7.0452629670e-05 1.4787635299e+00 -2.5612935662e+00 1.4787635299e+00 2.5612935662e+00 
136100 4.2097586116e+00 7.0525565936e-05 1.4787635299e+00 -2.5612935662e+00 1.4787635299e+00 2.5612935662e+00 
136200 4.2097586114e+00 7.0598695345e-05 1.4787635299e+00 -2.5612935662e+00 1.4787635299e+00 2.5612935662e+00 
136300 4.2097586112e+00 7.0671965453e-05 1.4787635299e+00 -2.5612935662e+00 1.4787635299e+00 2.5612935662e+00 
136400 4.2097586109e+00 7.0745329800e-05 1.4787635299e+00 -2.5612935662e+00 1.4787635299e+00 2.5612935662e+00 
136500 4.2097586104e+00 7.0263830023e-05 1.4787611379e+00 -2.5612894230e+00 1.4787611379e+00 2.5612894230e+00 
136600 4.2097586102e+00 7.0333380929e-05 1.4787611379e+00 -2.5612894230e+00 1.4787611379e+00 2.5612894230e+00 
136700 4.2097586100e+00 7.0403302403e-05 1.4787611379e+00 -2.5612894230e+00 1.4787611379e+00 2.5612894230e+00 
136800 4.2097586097e+00 7.0473522530e-05 1.4787611379e+00 -2.5612894230e+00 1.4787611379e+00 2.5612894230e+00 
136900 4.2097586095e+00 7.0543977714e-05 1.4787611379e+00 -2.5612894230e+00 1.4787611379e+00 2.5612894230e+00 
137000 4.2097586092e+00 7.0614611689e-05 1.4787611379e+00 -2.5612894230e+00 1.4787611379e+00 2.5612894230e+00 
137100 4.2097586090e+00 7.0685374640e-05 1.4787611379e+00 -2.5612894230e+00 1.4787611379e+00 2.5612894230e+00 
137200 4.2097586088e+00 7.0756222435e-05 1.4787611379e+00 -2.5612894230e+00 1.4787611379e+00 2.5612894230e+00 
137300 4.2097586083e+00 7.0272153007e-05 1.4787587455e+00 -2.5612852793e+00 1.4787587455e+00 2.5612852793e+00 
137400 4.2097586081e+00 7.0339174120e-05 1.4787587455e+00 -2.5612852793e+00 1.4787587455e+00 2.5612852793e+00 
137500 4.2097586079e+00 7.0406561966e-05 1.4787587455e+00 -2.5612852793e+00 1.4787587455e+00 2.5612852793e+00 
137600 4.2097586077e+00 7.0474246066e-05 1.4787587455e+00 -2.5612852793e+00 1.4787587455e+00 2.5612852793e+00 
137700 4.2097586074e+00 7.0542164107e-05 1.4787587455e+00 -2.5612852793e+00 1.4787587455e+00 2.5612852793e+00 
137800 4.2097586072e+00 7.0610260960e-05 1.4787587455e+00 -2.5612852793e+00 1.4787587455e+00 2.5612852793e+00 
137900 4.2097586070e+00 7.0678487825e-05 1.4787587455e+00 -2.5612852793e+00 1.4787587455e+00 2.5612852793e+00 
138000 4.2097586068e+00 7.0746801476e-05 1.4787587455e+00 -2.5612852793e+00 1.4787587455e+00 2.5612852793e+00 
138100 4.2097586064e+00 7.0260312750e-05 1.4787563534e+00 -2.5612811360e+00 1.4787563534e+00 2.5612811360e+00 
138200 4.2097586062e+00 7.0324806627e-05 1.4787563534e+00 -2.5612811360e+00 1.4787563534e+00 2.5612811360e+00 
138300 4.2097586059e+00 7.0389671271e-05 1.4787563534e+00 -2.5612811360e+00 1.4787563534e+00 2.5612811360e+00 
138400 4.2097586057e+00 7.0454836790e-05 1.4787563534e+00 -2.5612811360e+00 1.4787563534e+00 2.5612811360e+00 
138500 4.2097586055e+00 7.0520241391e-05 1.4787563534e+00 -2.5612811360e+00 1.4787563534e+00 2.5612811360e+00 
138600 4.2097586053e+00 7.0585830414e-05 1.4787563534e+00 -2.5612811360e+00 1.4787563534e+00 2.5612811360e+00 
138700 4.2097586051e+00 7.0651555477e-05 1.4787563534e+00 -2.5612811360e+00 1.4787563534e+00 2.5612811360e+00 
138800 4.2097586049e+00 7.0717373732e-05 1.4787563534e+00 -2.5612811360e+00 1.4787563534e+00 2.5612811360e+00 
138900 4.2097586045e+00 7.0228663944e-05 1.4787539622e+00 -2.5612769945e+00 1.4787539622e+00 2.5612769945e+00 
139000 4.2097586043e+00 7.0290678002e-05 1.4787539622e+00 -2.5612769945e+00 1.4787539622e+00 2.5612769945e+00 
139100 4.2097586041e+00 7.0353069963e-05 1.4787539622e+00 -2.5612769945e+00 1.4787539622e+00 2.5612769945e+00 
139200 4.2097586039e+00 7.0415770201e-05 1.4787539622e+00 -2.5612769945e+00 1.4787539622e+00 2.5612769945e+00 
139300 4.2097586037e+00 7.0478717162e-05 1.4787539622e+00 -2.5612769945e+00 1.4787539622e+00 2.5612769945e+00 
139400 4.2097586035e+00 7.0541856400e-05 1.4787539622e+00 -2.5612769945e+00 1.4787539622e+00 2.5612769945e+00 
139500 4.2097586034e+00 7.0605139726e-05 1.4787539622e+00 -2.5612769945e+00 1.4787539622e+00 2.5612769945e+00 
139600 4.2097586032e+00 7.0668524465e-05 1.4787539622e+00 -2.5612769945e+00 1.4787539622e+00 2.5612769945e+00 
139700 4.2097586030e+00 7.0731972798e-05 1.4787539622e+00 -2.5612769945e+00 1.4787539622e+00 2.5612769945e+00 
139800 4.2097586026e+00 7.0240793449e-05 1.4787515706e+00 -2.5612728521e+00 1.4787515706e+00 2.5612728521e+00 
139900 4.2097586024e+00 7.0300390571e-05 1.4787515706e+00 -2.5612728521e+00 1.4787515706e+00 2.5612728521e+00 
140000 4.2097586022e+00 7.0360347873e-05 1.4787515706e+00 -2.5612728521e+00 1.4787515706e+00 2.5612728521e+00 
140100 4.2097586021e+00 7.0420598777e-05 1.4787515706e+00 -2.5612728521e+00 1.4787515706e+00 2.5612728521e+00 
140200 4.2097586019e+00 7.0481084427e-05 1.4787515706e+00 -2.5612728521e+00 1.4787515706e+00 2.5612728521e+00 
140300 4.2097586017e+00 7.0541752761e-05 1.4787515706e+00 -2.5612728521e+00 1.4787515706e+00 2.5612728521e+00 
140400 4.2097586015e+00 7.0602557703e-05 1.4787515706e+00 -2.5612728521e+00 1.4787515706e+00 2.5612728521e+00 
140500 4.2097586014e+00 7.0663458447e-05 1.4787515706e+00 -2.5612728521e+00 1.4787515706e+00 2.5612728521e+00 
140600 4.2097586012e+00 7.0724418833e-05 1.4787515706e+00 -2.5612728521e+00 1.4787515706e+00 2.5612728521e+00 
140700 4.2097586008e+00 7.0230846645e-05 1.4787491793e+00 -2.5612687102e+00 1.4787491793e+00 2.5612687102e+00 
140800 4.2097586006e+00 7.0287952747e-05 1.4787491793e+00 -2.5612687102e+00 1.4787491793e+00 2.5612687102e+00 
140900 4.2097586005e+00 7.0345418944e-05 1.4787491793e+00 -2.5612687102e+00 1.4787491793e+00 2.5612687102e+00 
141000 4.2097586003e+00 7.0403179693e-05 1.4787491793e+00 -2.5612687102e+00 1.4787491793e+00 2.5612687102e+00 
141100 4.2097586001e+00 7.0461177059e-05 1.4787491793e+00 -2.5612687102e+00 1.4787491793e+00 2.5612687102e+00 
141200 4.2097586000e+00 7.0519359801e-05 1.4787491793e+00 -2.5612687102e+00 1.4787491793e+00 2.5612687102e+00 
141300 4.2097585998e+00 7.0577682574e-05 1.4787491793e+00 -2.5612687102e+00 1.4787491793e+00 2.5612687102e+00 
141400 4.2097585997e+00 7.0636105222e-05 1.4787491793e+00 -2.5612687102e+00 1.4787491793e+00 2.5612687102e+00 
141500 4.2097585995e+00 7.0694592168e-05 1.4787491793e+00 -2.5612687102e+00 1.4787491793e+00 2.5612687102e+00 
141600 4.2097585994e+00 7.0753111865e-05 1.4787491793e+00 -2.5612687102e+00 1.4787491793e+00 2.5612687102e+00 
141700 4.2097585990e+00 7.0256892163e-05 1.4787467870e+00 -2.5612645665e+00 1.4787467870e+00 2.5612645665e+00 
141800 4.2097585988e+00 7.0311514163e-05 1.4787467870e+00 -2.5612645665e+00 1.4787467870e+00 2.5612645665e+00 
141900 4.2097585987e+00 7.0366480363e-05 1.4787467870e+00 -2.5612645665e+00 1.4787467870e+00 2.5612645665e+00 
142000 4.2097585985e+00 7.0421728024e-05 1.4787467870e+00 -2.5612645665e+00 1.4787467870e+00 2.5612645665e+00 
142100 4.2097585984e+00 7.0477201696e-05 1.4787467870e+00 -2.5612645665e+00 1.4787467870e+00 2.5612645665e+00 
142200 4.2097585982e+00 7.0532852335e-05 1.4787467870e+00 -2.5612645665e+00 1.4787467870e+00 2.5612645665e+00 
142300 4.2097585981e+00 7.0588636549e-05 1.4787467870e+00 -2.5612645665e+00 1.4787467870e+00 2.5612645665e+00 
142400 4.2097585979e+00 7.0644515914e-05 1.4787467870e+00 -2.5612645665e+00 1.4787467870e+00 2.5612645665e+00 
142500 4.2097585978e+00 7.0700456390e-05 1.4787467870e+00 -2.5612645665e+00 1.4787467870e+00 2.5612645665e+00 
142600 4.2097585977e+00 7.0756427797e-05 1.4787467870e+00 -2.5612645665e+00 1.4787467870e+00 2.5612645665e+00 
142700 4.2097585973e+00 7.0257672312e-05 1.4787443945e+00 -2.5612604227e+00 1.4787443945e+00 2.5612604227e+00 
142800 4.2097585971e+00 7.0309745894e-05 1.4787443945e+00 -2.5612604227e+00 1.4787443945e+00 2.5612604227e+00 
142900 4.2097585970e+00 7.0362165112e-05 1.4787443945e+00 -2.5612604227e+00 1.4787443945e+00 2.5612604227e+00 
143000 4.2097585969e+00 7.0414868088e-05 1.4787443945e+00 -2.5612604227e+00 1.4787443945e+00 2.5612604227e+00 
143100 4.2097585967e+00 7.0467800138e-05 1.4787443945e+00 -2.5612604227e+00 1.4787443945e+00 2.5612604227e+00 
143200 4.2097585966e+00 7.0520912906e-05 1.4787443945e+00 -2.5612604227e+00 1.4787443945e+00 2.5612604227e+00 
143300 4.2097585965e+00 7.0574163612e-05 1.4787443945e+00 -2.5612604227e+00 1.4787443945e+00 2.5612604227e+00 
143400 4.2097585963e+00 7.0627514382e-05 1.4787443945e+00 -2.5612604227e+00 1.4787443945e+00 2.5612604227e+00 
143500 4.2097585962e+00 7.0680931667e-05 1.4787443945e+00 -2.5612604227e+00 1.4787443945e+00 2.5612604227e+00 
143600 4.2097585961e+00 7.0734385730e-05 1.4787443945e+00 -2.5612604227e+00 1.4787443945e+00 2.5612604227e+00 
143700 4.2097585957e+00 7.0233329270e-05 1.4787420028e+00 -2.5612562801e+00 1.4787420028e+00 2.5612562801e+00 
143800 4.2097585956e+00 7.0282899729e-05 1.4787420028e+00 -2.5612562801e+00 1.4787420028e+00 2.5612562801e+00 
143900 4.2097585955e+00 7.0332822596e-05 1.4787420028e+00 -2.5612562801e+00 1.4787420028e+00 2.5612562801e+00 
144000 4.2097585953e+00 7.0383036296e-05 1.4787420028e+00 -2.5612562801e+00 1.4787420028e+00 2.5612562801e+00 
144100 4.2097585952e+00 7.0433486417e-05 1.4787420028e+00 -2.5612562801e+00 1.4787420028e+00 2.5612562801e+00 
144200 4.2097585951e+00 7.0484124848e-05 1.4787420028e+00 -2.5612562801e+00 1.4787420028e+00 2.5612562801e+00 
144300 4.2097585950e+00 7.0534909027e-05 1.4787420028e+00 -2.5612562801e+00 1.4787420028e+00 2.5612562801e+00 
144400 4.2097585949e+00 7.0585801280e-05 1.4787420028e+00 -2.5612562801e+00 1.4787420028e+00 2.5612562801e+00 
144500 4.2097585947e+00 7.0636768235e-05 1.4787420028e+00 -2.5612562801e+00 1.4787420028e+00 2.5612562801e+00 
144600 4.2097585946e+00 7.0687780316e-05 1.4787420028e+00 -2.5612562801e+00 1.4787420028e+00 2.5612562801e+00 
144700 4.2097585945e+00 7.0738811291e-05 1.4787420028e+00 -2.5612562801e+00 1.4787420028e+00 2.5612562801e+00 
144800 4.2097585942e+00 7.0235321522e-05 1.4787396109e+00 -2.5612521373e+00 1.4787396109e+00 2.5612521373e+00 
144900 4.2097585940e+00 7.0282441988e-05 1.4787396109e+00 -2.5612521373e+00 1.4787396109e+00 2.5612521373e+00 
145000 4.2097585939e+00 7.0329905225e-05 1.4787396109e+00 -2.5612521373e+00 1.4787396109e+00 2.5612521373e+00 
145100 4.2097585938e+00 7.0377651794e-05 1.4787396109e+00 -2.5612521373e+00 1.4787396109e+00 2.5612521373e+00 
145200 4.2097585937e+00 7.0425629173e-05 1.4787396109e+00 -2.5612521373e+00 1.4787396109e+00 2.5612521373e+00 
145300 4.2097585936e+00 7.0473790926e-05 1.4787396109e+00 -2.5612521373e+00 1.4787396109e+00 2.5612521373e+00 
145400 4.2097585935e+00 7.0522095976e-05 1.4787396109e+00 -2.5612521373e+00 1.4787396109e+00 2.5612521373e+00 
145500 4.2097585934e+00 7.0570507961e-05 1.4787396109e+00 -2.5612521373e+00 1.4787396109e+00 2.5612521373e+00 
145600 4.2097585933e+00 7.0618994678e-05 1.4787396109e+00 -2.5612521373e+00 1.4787396109e+00 2.5612521373e+00 
145700 4.2097585932e+00 7.0667527586e-05 1.4787396109e+00 -2.5612521373e+00 1.4787396109e+00 2.5612521373e+00 
145800 4.2097585931e+00 7.0716081374e-05 1.4787396109e+00 -2.5612521373e+00 1.4787396109e+00 2.5612521373e+00 
145900 4.2097585927e+00 7.0210332687e-05 1.4787372199e+00 -2.5612479958e+00 1.4787372199e+00 2.5612479958e+00 
146000 4.2097585926e+00 7.0254983720e-05 1.4787372199e+00 -2.5612479958e+00 1.4787372199e+00 2.5612479958e+00 
146100 4.2097585925e+00 7.0299981555e-05 1.4787372199e+00 -2.5612479958e+00 1.4787372199e+00 2.5612479958e+00 
146200 4.2097585924e+00 7.0345267346e-05 1.4787372199e+00 -2.5612479958e+00 1.4787372199e+00 2.5612479958e+00 
146300 4.2097585923e+00 7.0390789098e-05 1.4787372199e+00 -2.5612479958e+00 1.4787372199e+00 2.5612479958e+00 
146400 4.2097585922e+00 7.0436500848e-05 1.4787372199e+00 -2.5612479958e+00 1.4787372199e+00 2.5612479958e+00 
146500 4.2097585921e+00 7.0482361936e-05 1.4787372199e+00 -2.5612479958e+00 1.4787372199e+00 2.5612479958e+00 
146600 4.2097585920e+00 7.0528336380e-05 1.4787372199e+00 -2.5612479958e+00 1.4787372199e+00 2.5612479958e+00 
146700 4.2097585919e+00 7.0574392309e-05 1.4787372199e+00 -2.5612479958e+00 1.4787372199e+00 2.5612479958e+00 
146800 4.2097585918e+00 7.0620501483e-05 1.4787372199e+00 -2.5612479958e+00 1.4787372199e+00 2.5612479958e+00 
146900 4.2097585917e+00 7.0666638857e-05 1.4787372199e+00 -2.5612479958e+00 1.4787372199e+00 2.5612479958e+00 
147000 4.2097585916e+00 7.0712782209e-05 1.4787372199e+00 -2.5612479958e+00 1.4787372199e+00 2.5612479958e+00 
147100 4.2097585913e+00 7.0204675480e-05 1.4787348289e+00 -2.5612438545e+00 1.4787348289e+00 2.5612438545e+00 
147200 4.2097585912e+00 7.0246894500e-05 1.4787348289e+00 -2.5612438545e+00 1.4787348289e+00 2.5612438545e+00 
147300 4.2097585911e+00 7.0289452653e-05 1.4787348289e+00 -2.5612438545e+00 1.4787348289e+00 2.5612438545e+00 
147400 4.2097585910e+00 7.0332292983e-05 1.4787348289e+00 -2.5612438545e+00 1.4787348289e+00 2.5612438545e+00 
147500 4.2097585909e+00 7.0375365171e-05 1.4787348289e+00 -2.5612438545e+00 1.4787348289e+00 2.5612438545e+00 
147600 4.2097585908e+00 7.0418624737e-05 1.4787348289e+00 -2.5612438545e+00 1.4787348289e+00 2.5612438545e+00 
147700 4.2097585907e+00 7.0462032340e-05 1.4787348289e+00 -2.5612438545e+00 1.4787348289e+00 2.5612438545e+00 
147800 4.2097585907e+00 7.0505553162e-05 1.4787348289e+00 -2.5612438545e+00 1.4787348289e+00 2.5612438545e+00 
147900 4.2097585906e+00 7.0549156374e-05 1.4787348289e+00 -2.5612438545e+00 1.4787348289e+00 2.5612438545e+00 
148000 4.2097585905e+00 7.0592814653e-05 1.4787348289e+00 -2.5612438545e+00 1.4787348289e+00 2.5612438545e+00 
148100 4.2097585904e+00 7.0636503777e-05 1.4787348289e+00 -2.5612438545e+00 1.4787348289e+00 2.5612438545e+00 
148200 4.2097585903e+00 7.0680202250e-05 1.4787348289e+00 -2.5612438545e+00 1.4787348289e+00 2.5612438545e+00 
148300 4.2097585902e+00 7.0723890988e-05 1.4787348289e+00 -2.5612438545e+00 1.4787348289e+00 2.5612438545e+00 
148400 4.2097585899e+00 7.0213269346e-05 1.4787324375e+00 -2.5612397126e+00 1.4787324375e+00 2.5612397126e+00 
148500 4.2097585898e+00 7.0253009909e-05 1.4787324375e+00 -2.5612397126e+00 1.4787324375e+00 2.5612397126e+00 
148600 4.2097585897e+00 7.0293081338e-05 1.4787324375e+00 -2.5612397126e+00 1.4787324375e+00 2.5612397126e+00 
148700 4.2097585897e+00 7.0333428602e-05 1.4787324375e+00 -2.5612397126e+00 1.4787324375e+00 2.5612397126e+00 
148800 4.2097585896e+00 7.0374003089e-05 1.4787324375e+00 -2.5612397126e+00 1.4787324375e+00 2.5612397126e+00 
148900 4.2097585895e+00 7.0414761834e-05 1.4787324375e+00 -2.5612397126e+00 1.4787324375e+00 2.5612397126e+00 
149000 4.2097585894e+00 7.0455666844e-05 1.4787324375e+00 -2.5612397126e+00 1.4787324375e+00 2.5612397126e+00 
149100 4.2097585893e+00 7.0496684497e-05 1.4787324375e+00 -2.5612397126e+00 1.4787324375e+00 2.5612397126e+00 
149200 4.2097585893e+00 7.0537785028e-05 1.4787324375e+00 -2.5612397126e+00 1.4787324375e+00 2.5612397126e+00 
149300 4.2097585892e+00 7.0578942066e-05 1.4787324375e+00 -2.5612397126e+00 1.4787324375e+00 2.5612397126e+00 
149400 4.2097585891e+00 7.0620132234e-05 1.4787324375e+00 -2.5612397126e+00 1.4787324375e+00 2.5612397126e+00 
149500 4.2097585890e+00 7.0661334789e-05 1.4787324375e+00 -2.5612397126e+00 1.4787324375e+00 2.5612397126e+00 
149600 4.2097585890e+00 7.0702531323e-05 1.4787324375e+00 -2.5612397126e+00 1.4787324375e+00 2.5612397126e+00 
149700 4.2097585889e+00 7.0743705478e-05 1.4787324375e+00 -2.5612397126e+00 1.4787324375e+00 2.5612397126e+00 
149800 4.2097585886e+00 7.0230444029e-05 1.4787300455e+00 -2.5612355694e+00 1.4787300455e+00 2.5612355694e+00 
149900 4.2097585885e+00 7.0267650799e-05 1.4787300455e+00 -2.5612355694e+00 1.4787300455e+00 2.5612355694e+00 
150000 4.2097585884e+00 7.0305182337e-05 1.4787300455e+00 -2.5612355694e+00 1.4787300455e+00 2.5612355694e+00 
150100 4.2097585884e+00 7.0342985290e-05 1.4787300455e+00 -2.5612355694e+00 1.4787300455e+00 2.5612355694e+00 
150200 4.2097585883e+00 7.0381012535e-05 1.4787300455e+00 -2.5612355694e+00 1.4787300455e+00 2.5612355694e+00 
150300 4.2097585882e+00 7.0419222436e-05 1.4787300455e+00 -2.5612355694e+00 1.4787300455e+00 2.5612355694e+00 
150400 4.2097585881e+00 7.0457578176e-05 1.4787300455e+00 -2.5612355694e+00 1.4787300455e+00 2.5612355694e+00 
150500 4.2097585881e+00 7.0496047189e-05 1.4787300455e+00 -2.5612355694e+00 1.4787300455e+00 2.5612355694e+00 
150600 4.2097585880e+00 7.0534600645e-05 1.4787300455e+00 -2.5612355694e+00 1.4787300455e+00 2.5612355694e+00 
150700 4.2097585879e+00 7.0573213010e-05 1.4787300455e+00 -2.5612355694e+00 1.4787300455e+00 2.5612355694e+00 
150800 4.2097585879e+00 7.0611861654e-05 1.4787300455e+00 -2.5612355694e+00 1.4787300455e+00 2.5612355694e+00 
150900 4.2097585878e+00 7.0650526504e-05 1.4787300455e+00 -2.5612355694e+00 1.4787300455e+00 2.5612355694e+00 
151000 4.2097585877e+00 7.0689189749e-05 1.4787300455e+00 -2.5612355694e+00 1.4787300455e+00 2.5612355694e+00 
151100 4.2097585877e+00 7.0727835566e-05 1.4787300455e+00 -2.5612355694e+00 1.4787300455e+00 2.5612355694e+00 
151200 4.2097585874e+00 7.0212213322e-05 1.4787276540e+00 -2.5612314272e+00 1.4787276540e+00 2.5612314272e+00 
151300 4.2097585873e+00 7.0246904096e-05 1.4787276540e+00 -2.5612314272e+00 1.4787276540e+00 2.5612314272e+00 
151400 4.2097585872e+00 7.0281925778e-05 1.4787276540e+00 -2.5612314272e+00 1.4787276540e+00 2.5612314272e+00 
151500 4.2097585872e+00 7.0317225373e-05 1.4787276540e+00 -2.5612314272e+00 1.4787276540e+00 2.5612314272e+00 
151600 4.2097585871e+00 7.0352756084e-05 1.4787276540e+00 -2.5612314272e+00 1.4787276540e+00 2.5612314272e+00 
151700 4.2097585871e+00 7.0388476562e-05 1.4787276540e+00 -2.5612314272e+00 1.4787276540e+00 2.5612314272e+00 
151800 4.2097585870e+00 7.0424350255e-05 1.4787276540e+00 -2.5612314272e+00 1.4787276540e+00 2.5612314272e+00 
151900 4.2097585869e+00 7.0460344829e-05 1.4787276540e+00 -2.5612314272e+00 1.4787276540e+00 2.5612314272e+00 
152000 4.2097585869e+00 7.0496431670e-05 1.4787276540e+00 -2.5612314272e+00 1.4787276540e+00 2.5612314272e+00 
152100 4.2097585868e+00 7.0532585433e-05 1.4787276540e+00 -2.5612314272e+00 1.4787276540e+00 2.5612314272e+00 
152200 4.2097585868e+00 7.0568783660e-05 1.4787276540e+00 -2.5612314272e+00 1.4787276540e+00 2.5612314272e+00 
152300 4.2097585867e+00 7.0605006437e-05 1.4787276540e+00 -2.5612314272e+00 1.4787276540e+00 2.5612314272e+00 
152400 4.2097585866e+00 7.0641236088e-05 1.4787276540e+00 -2.5612314272e+00 1.4787276540e+00 2.5612314272e+00 
152500 4.2097585866e+00 7.0677456922e-05 1.4787276540e+00 -2.5612314272e+00 1.4787276540e+00 2.5612314272e+00 
152600 4.2097585865e+00 7.0713654990e-05 1.4787276540e+00 -2.5612314272e+00 1.4787276540e+00 2.5612314272e+00 
152700 4.2097585862e+00 7.0195730348e-05 1.4787252629e+00 -2.5612272858e+00 1.4787252629e+00 2.5612272858e+00 
152800 4.2097585862e+00 7.0227968430e-05 1.4787252629e+00 -2.5612272858e+00 1.4787252629e+00 2.5612272858e+00 
152900 4.2097585861e+00 7.0260536403e-05 1.4787252629e+00 -2.5612272858e+00 1.4787252629e+00 2.5612272858e+00 
153000 4.2097585861e+00 7.0293382435e-05 1.4787252629e+00 -2.5612272858e+00 1.4787252629e+00 2.5612272858e+00 
153100 4.2097585860e+00 7.0326460757e-05 1.4787252629e+00 -2.5612272858e+00 1.4787252629e+00 2.5612272858e+00 
153200 4.2097585860e+00 7.0359730935e-05 1.4787252629e+00 -2.5612272858e+00 1.4787252629e+00 2.5612272858e+00 
153300 4.2097585859e+00 7.0393157227e-05 1.4787252629e+00 -2.5612272858e+00 1.4787252629e+00 2.5612272858e+00 
153400 4.2097585858e+00 7.0426708022e-05 1.4787252629e+00 -2.5612272858e+00 1.4787252629e+00 2.5612272858e+00 
153500 4.2097585858e+00 7.0460355343e-05 1.4787252629e+00 -2.5612272858e+00 1.4787252629e+00 2.5612272858e+00 
153600 4.2097585857e+00 7.0494074417e-05 1.4787252629e+00 -2.5612272858e+00 1.4787252629e+00 2.5612272858e+00 
153700 4.2097585857e+00 7.0527843293e-05 1.4787252629e+00 -2.5612272858e+00 1.4787252629e+00 2.5612272858e+00 
153800 4.2097585856e+00 7.0561642505e-05 1.4787252629e+00 -2.5612272858e+00 1.4787252629e+00 2.5612272858e+00 
153900 4.2097585856e+00 7.0595454784e-05 1.4787252629e+00 -2.5612272858e+00 1.4787252629e+00 2.5612272858e+00 
154000 4.2097585855e+00 7.0629264793e-05 1.4787252629e+00 -2.5612272858e+00 1.4787252629e+00 2.5612272858e+00 
154100 4.2097585855e+00 7.0663058906e-05 1.4787252629e+00 -2.5612272858e+00 1.4787252629e+00 2.5612272858e+00 
154200 4.2097585854e+00 7.0696825003e-05 1.4787252629e+00 -2.5612272858e+00 1.4787252629e+00 2.5612272858e+00 
154300 4.2097585854e+00 7.0730552302e-05 1.4787252629e+00 -2.5612272858e+00 1.4787252629e+00 2.5612272858e+00 
154400 4.2097585851e+00 7.0210051367e-05 1.4787228713e+00 -2.5612231435e+00 1.4787228713e+00 2.5612231435e+00 
154500 4.2097585851e+00 7.0239793944e-05 1.4787228713e+00 -2.5612231435e+00 1.4787228713e+00 2.5612231435e+00 
154600 4.2097585850e+00 7.0269857919e-05 1.4787228713e+00 -2.5612231435e+00 1.4787228713e+00 2.5612231435e+00 
154700 4.2097585850e+00 7.0300193398e-05 1.4787228713e+00 -2.5612231435e+00 1.4787228713e+00 2.5612231435e+00 
154800 4.2097585849e+00 7.0313920814e-05 1.4787228713e+00 -2.5612231435e+00 1.4787228713e+00 2.5612231435e+00 
154800 4.2097585849e+00 7.0313920814e-05 1.4787228713e+00 -2.5612231435e+00 1.4787228713e+00 2.5612231435e+00 
