# step Hamiltonian StressXX CellTensor1 CellTensor2 CellTensor3 CellTensor4 
0 6.7360909782e+00 -4.7434748814e-02 1.6087831444e+00 -2.7864941444e+00 1.6087831444e+00 2.7864941444e+00 
100 6.7250953513e+00 -4.8650374163e-02 1.6087831444e+00 -2.7864941444e+00 1.6087831444e+00 2.7864941444e+00 
200 6.7144213469e+00 -4.8314857726e-02 1.6102954050e+00 -2.7891134566e+00 1.6102954050e+00 2.7891134566e+00 
300 6.7041704158e+00 -4.8234188247e-02 1.6117958238e+00 -2.7917122583e+00 1.6117958238e+00 2.7917122583e+00 
400 6.6943469808e+00 -4.8391179084e-02 1.6132923423e+00 -2.7943043043e+00 1.6132923423e+00 2.7943043043e+00 
500 6.6849510698e+00 -4.8769603100e-02 1.6147923392e+00 -2.7969023752e+00 1.6147923392e+00 2.7969023752e+00 
600 6.6759789017e+00 -4.9354100768e-02 1.6163026633e+00 -2.7995183333e+00 1.6163026633e+00 2.7995183333e+00 
700 6.6674234086e+00 -5.0130106421e-02 1.6178296627e+00 -2.8021631738e+00 1.6178296627e+00 2.8021631738e+00 
800 6.6592747053e+00 -5.1083787708e-02 1.6193792109e+00 -2.8048470700e+00 1.6193792109e+00 2.8048470700e+00 
900 6.6515205136e+00 -5.2201994644e-02 1.6209567312e+00 -2.8075794153e+00 1.6209567312e+00 2.8075794153e+00 
1000 6.6441465471e+00 -5.3472215594e-02 1.6225672193e+00 -2.8103688625e+00 1.6225672193e+00 2.8103688625e+00 
1100 6.6371368627e+00 -5.4882538261e-02 1.6242152637e+00 -2.8132233591e+00 1.6242152637e+00 2.8132233591e+00 
1200 6.6304741805e+00 -5.6421614285e-02 1.6259050657e+00 -2.8161501820e+00 1.6259050657e+00 2.8161501820e+00 
1300 6.6241401771e+00 -5.8078626482e-02 1.6276404572e+00 -2.8191559683e+00 1.6276404572e+00 2.8191559683e+00 
1400 6.6181157532e+00 -5.9843258028e-02 1.6294249184e+00 -2.8222467458e+00 1.6294249184e+00 2.8222467458e+00 
1500 6.6123812778e+00 -6.1705663167e-02 1.6312615936e+00 -2.8254279605e+00 1.6312615936e+00 2.8254279605e+00 
1600 6.6069168109e+00 -6.3656439135e-02 1.6331533065e+00 -2.8287045035e+00 1.6331533065e+00 2.8287045035e+00 
1700 6.6017023059e+00 -6.5686599155e-02 1.6351025750e+00 -2.8320807355e+00 1.6351025750e+00 2.8320807355e+00 
1800 6.5967177920e+00 -6.7787546441e-02 1.6371116242e+00 -2.8355605108e+00 1.6371116242e+00 2.8355605108e+00 
1900 6.5919435392e+00 -6.9951049171e-02 1.6391823998e+00 -2.8391471994e+00 1.6391823998e+00 2.8391471994e+00 
2000 6.5873602052e+00 -7.2169216484e-02 1.6413165798e+00 -2.8428437075e+00 1.6413165798e+00 2.8428437075e+00 
2100 6.5829489661e+00 -7.4434475532e-02 1.6435155860e+00 -2.8466524980e+00 1.6435155860e+00 2.8466524980e+00 
2200 6.5786916317e+00 -7.6739549657e-02 1.6457805948e+00 -2.8505756083e+00 1.6457805948e+00 2.8505756083e+00 
2300 6.5745707448e+00 -7.9077437748e-02 1.6481125473e+00 -2.8546146684e+00 1.6481125473e+00 2.8546146684e+00 
2400 6.5705696674e+00 -8.1441394842e-02 1.6505121587e+00 -2.8587709174e+00 1.6505121587e+00 2.8587709174e+00 
2500 6.5666726526e+00 -8.3824914015e-02 1.6529799277e+00 -2.8630452186e+00 1.6529799277e+00 2.8630452186e+00 
2600 6.5628649045e+00 -8.6221709603e-02 1.6555161445e+00 -2.8674380751e+00 1.6555161445e+00 2.8674380751e+00 
2700 6.5591326253e+00 -8.8625701777e-02 1.6581208995e+00 -2.8719496430e+00 1.6581208995e+00 2.8719496430e+00 
2800 6.5554630519e+00 -9.1031002487e-02 1.6607940903e+00 -2.8765797453e+00 1.6607940903e+00 2.8765797453e+00 
2900 6.5518444812e+00 -9.3431902767e-02 1.6635354295e+00 -2.8813278840e+00 1.6635354295e+00 2.8813278840e+00 
3000 6.5482662865e+00 -9.5822861388e-02 1.6663444513e+00 -2.8861932525e+00 1.6663444513e+00 2.8861932525e+00 
3100 6.5447189236e+00 -9.8198494836e-02 1.6692205184e+00 -2.8911747469e+00 1.6692205184e+00 2.8911747469e+00 
3200 6.5411939293e+00 -1.0055356857e-01 1.6721628284e+00 -2.8962709773e+00 1.6721628284e+00 2.8962709773e+00 
3300 6.5376839124e+00 -1.0288298950e-01 1.6751704197e+00 -2.9014802783e+00 1.6751704197e+00 2.9014802783e+00 
3400 6.5341825365e+00 -1.0518179966e-01 1.6782421778e+00 -2.9068007194e+00 1.6782421778e+00 2.9068007194e+00 
3500 6.5306844978e+00 -1.0744517099e-01 1.6813768408e+00 -2.9122301149e+00 1.6813768408e+00 2.9122301149e+00 
3600 6.5271854962e+00 -1.0966840111e-01 1.6845730052e+00 -2.9177660340e+00 1.6845730052e+00 2.9177660340e+00 
3700 6.5236822016e+00 -1.1184691013e-01 1.6878291315e+00 -2.9234058103e+00 1.6878291315e+00 2.9234058103e+00 
3800 6.5201722156e+00 -1.1397623829e-01 1.6911435498e+00 -2.9291465511e+00 1.6911435498e+00 2.9291465511e+00 
3900 6.5166540297e+00 -1.1605204440e-01 1.6945144645e+00 -2.9349851467e+00 1.6945144645e+00 2.9349851467e+00 
4000 6.5131269793e+00 -1.1807010507e-01 1.6979399606e+00 -2.9409182799e+00 1.6979399606e+00 2.9409182799e+00 
4100 6.5095911957e+00 -1.2002631449e-01 1.7014180081e+00 -2.9469424350e+00 1.7014180081e+00 2.9469424350e+00 
4200 6.5060475553e+00 -1.2191668482e-01 1.7049464679e+00 -2.9530539066e+00 1.7049464679e+00 2.9530539066e+00 
4300 6.5024976267e+00 -1.2373734708e-01 1.7085230965e+00 -2.9592488091e+00 1.7085230965e+00 2.9592488091e+00 
4400 6.4989436174e+00 -1.2548455241e-01 1.7121455516e+00 -2.9655230854e+00 1.7121455516e+00 2.9655230854e+00 
4500 6.4953883180e+00 -1.2715467370e-01 1.7158113971e+00 -2.9718725159e+00 1.7158113971e+00 2.9718725159e+00 
4600 6.4918350472e+00 -1.2874420743e-01 1.7195181081e+00 -2.9782927278e+00 1.7195181081e+00 2.9782927278e+00 
4700 6.4882875957e+00 -1.3024977581e-01 1.7232630766e+00 -2.9847792034e+00 1.7232630766e+00 2.9847792034e+00 
4800 6.4847501707e+00 -1.3166812899e-01 1.7270436160e+00 -2.9913272897e+00 1.7270436160e+00 2.9913272897e+00 
4900 6.4812273403e+00 -1.3299614742e-01 1.7308569666e+00 -2.9979322069e+00 1.7308569666e+00 2.9979322069e+00 
5000 6.4777239791e+00 -1.3423084417e-01 1.7347003010e+00 -3.0045890572e+00 1.7347003010e+00 3.0045890572e+00 
5100 6.4742452145e+00 -1.3536936739e-01 1.7385707283e+00 -3.0112928340e+00 1.7385707283e+00 3.0112928340e+00 
5200 6.4707963741e+00 -1.3640900259e-01 1.7424653003e+00 -3.0180384305e+00 1.7424653003e+00 3.0180384305e+00 
5300 6.4673829351e+00 -1.3734717498e-01 1.7463810155e+00 -3.0248206483e+00 1.7463810155e+00 3.0248206483e+00 
5400 6.4640104743e+00 -1.3818145164e-01 1.7503148250e+00 -3.0316342061e+00 1.7503148250e+00 3.0316342061e+00 
5500 6.4606846208e+00 -1.3890954362e-01 1.7542636367e+00 -3.0384737486e+00 1.7542636367e+00 3.0384737486e+00 
5600 6.4574110100e+00 -1.3952930791e-01 1.7582243206e+00 -3.0453338544e+00 1.7582243206e+00 3.0453338544e+00 
5700 6.4541952402e+00 -1.4003874925e-01 1.7621937138e+00 -3.0522090450e+00 1.7621937138e+00 3.0522090450e+00 
5800 6.4510428305e+00 -1.4043602185e-01 1.7661686246e+00 -3.0590937925e+00 1.7661686246e+00 3.0590937925e+00 
5900 6.4479591818e+00 -1.4071943093e-01 1.7701458380e+00 -3.0659825283e+00 1.7701458380e+00 3.0659825283e+00 
6000 6.4449495400e+00 -1.4088743413e-01 1.7741221199e+00 -3.0728696505e+00 1.7741221199e+00 3.0728696505e+00 
6100 6.4420189606e+00 -1.4093864280e-01 1.7780942216e+00 -3.0797495324e+00 1.7780942216e+00 3.0797495324e+00 
6200 6.4391722771e+00 -1.4087182320e-01 1.7820588845e+00 -3.0866165300e+00 1.7820588845e+00 3.0866165300e+00 
6300 6.4364140710e+00 -1.4068589753e-01 1.7860128442e+00 -3.0934649892e+00 1.7860128442e+00 3.0934649892e+00 
6400 6.4337486444e+00 -1.4037994494e-01 1.7899528352e+00 -3.1002892538e+00 1.7899528352e+00 3.1002892538e+00 
6500 6.4311799950e+00 -1.3995320243e-01 1.7938755947e+00 -3.1070836725e+00 1.7938755947e+00 3.1070836725e+00 
6600 6.4287117943e+00 -1.3940506573e-01 1.7977778668e+00 -3.1138426061e+00 1.7977778668e+00 3.1138426061e+00 
6700 6.4263473671e+00 -1.3873509013e-01 1.8016564068e+00 -3.1205604343e+00 1.8016564068e+00 3.1205604343e+00 
6800 6.4240896742e+00 -1.3794299135e-01 1.8055079846e+00 -3.1272315629e+00 1.8055079846e+00 3.1272315629e+00 
6900 6.4219412976e+00 -1.3702864634e-01 1.8093293893e+00 -3.1338504298e+00 1.8093293893e+00 3.1338504298e+00 
7000 6.4199044277e+00 -1.3599209424e-01 1.8131174321e+00 -3.1404115125e+00 1.8131174321e+00 3.1404115125e+00 
7100 6.4179808533e+00 -1.3483353731e-01 1.8168689508e+00 -3.1469093334e+00 1.8168689508e+00 3.1469093334e+00 
7200 6.4161719531e+00 -1.3355334199e-01 1.8205808128e+00 -3.1533384671e+00 1.8205808128e+00 3.1533384671e+00 
7300 6.4144786908e+00 -1.3215204001e-01 1.8242499193e+00 -3.1596935459e+00 1.8242499193e+00 3.1596935459e+00 
7400 6.4129016112e+00 -1.3063032972e-01 1.8278732081e+00 -3.1659692662e+00 1.8278732081e+00 3.1659692662e+00 
7500 6.4114408390e+00 -1.2898907742e-01 1.8314476575e+00 -3.1721603942e+00 1.8314476575e+00 3.1721603942e+00 
7600 6.4100960801e+00 -1.2722931893e-01 1.8349702899e+00 -3.1782617724e+00 1.8349702899e+00 3.1782617724e+00 
7700 6.4088666240e+00 -1.2535226126e-01 1.8384381745e+00 -3.1842683248e+00 1.8384381745e+00 3.1842683248e+00 
7800 6.4077513493e+00 -1.2335928445e-01 1.8418484315e+00 -3.1901750631e+00 1.8418484315e+00 3.1901750631e+00 
7900 6.4067487302e+00 -1.2125194355e-01 1.8451982347e+00 -3.1959770926e+00 1.8451982347e+00 3.1959770926e+00 
8000 6.4058568456e+00 -1.1903197077e-01 1.8484848156e+00 -3.2016696176e+00 1.8484848156e+00 3.2016696176e+00 
8100 6.4050733898e+00 -1.1670127772e-01 1.8517054660e+00 -3.2072479477e+00 1.8517054660e+00 3.2072479477e+00 
8200 6.4043956847e+00 -1.1426195778e-01 1.8548575418e+00 -3.2127075032e+00 1.8548575418e+00 3.2127075032e+00 
8300 6.4038206939e+00 -1.1171628862e-01 1.8579384665e+00 -3.2180438213e+00 1.8579384665e+00 3.2180438213e+00 
8400 6.4033450388e+00 -1.0906673474e-01 1.8609457343e+00 -3.2232525619e+00 1.8609457343e+00 3.2232525619e+00 
8500 6.4029650154e+00 -1.0631595004e-01 1.8638769136e+00 -3.2283295134e+00 1.8638769136e+00 3.2283295134e+00 
8600 6.4026766134e+00 -1.0346678040e-01 1.8667296509e+00 -3.2332705993e+00 1.8667296509e+00 3.2332705993e+00 
8700 6.4024755362e+00 -1.0052226626e-01 1.8695016737e+00 -3.2380718836e+00 1.8695016737e+00 3.2380718836e+00 
8800 6.4023572228e+00 -9.7485645051e-02 1.8721907947e+00 -3.2427295778e+00 1.8721907947e+00 3.2427295778e+00 
8900 6.4023168699e+00 -9.4360353495e-02 1.8747949152e+00 -3.2472400468e+00 1.8747949152e+00 3.2472400468e+00 
9000 6.4023494563e+00 -9.1150029688e-02 1.8773120288e+00 -3.2515998155e+00 1.8773120288e+00 3.2515998155e+00 
9100 6.4024497679e+00 -8.7858514917e-02 1.8797402252e+00 -3.2558055752e+00 1.8797402252e+00 3.2558055752e+00 
9200 6.4026124236e+00 -8.4489855111e-02 1.8820776944e+00 -3.2598541906e+00 1.8820776944e+00 3.2598541906e+00 
9300 6.4028319019e+00 -8.1048301876e-02 1.8843227301e+00 -3.2637427063e+00 1.8843227301e+00 3.2637427063e+00 
9400 6.4031025688e+00 -7.7538313011e-02 1.8864737337e+00 -3.2674683539e+00 1.8864737337e+00 3.2674683539e+00 
9500 6.4034187064e+00 -7.3964552438e-02 1.8885292189e+00 -3.2710285587e+00 1.8885292189e+00 3.2710285587e+00 
9600 6.4037745409e+00 -7.0331889450e-02 1.8904878150e+00 -3.2744209467e+00 1.8904878150e+00 3.2744209467e+00 
9700 6.4041642727e+00 -6.6645397187e-02 1.8923482717e+00 -3.2776433522e+00 1.8923482717e+00 3.2776433522e+00 
9800 6.4045821057e+00 -6.2910350254e-02 1.8941094624e+00 -3.2806938239e+00 1.8941094624e+00 3.2806938239e+00 
9900 6.4050222767e+00 -5.9132221396e-02 1.8957703890e+00 -3.2835706332e+00 1.8957703890e+00 3.2835706332e+00 
10000 6.4054790856e+00 -5.5316677123e-02 1.8973301855e+00 -3.2862722800e+00 1.8973301855e+00 3.2862722800e+00 
10100 6.4059469248e+00 -5.1469572226e-02 1.8987881225e+00 -3.2887975009e+00 1.8987881225e+00 3.2887975009e+00 
10200 6.4064203083e+00 -4.7596943083e-02 1.9001436105e+00 -3.2911452750e+00 1.9001436105e+00 3.2911452750e+00 
10300 6.4068939008e+00 -4.3704999684e-02 1.9013962044e+00 -3.2933148314e+00 1.9013962044e+00 3.2933148314e+00 
10400 6.4073625458e+00 -3.9800116314e-02 1.9025456072e+00 -3.2953056553e+00 1.9025456072e+00 3.2953056553e+00 
10500 6.4078212931e+00 -3.5888820830e-02 1.9035916731e+00 -3.2971174946e+00 1.9035916731e+00 3.2971174946e+00 
10600 6.4082654246e+00 -3.1977782474e-02 1.9045344115e+00 -3.2987503655e+00 1.9045344115e+00 3.2987503655e+00 
10700 6.4086904804e+00 -2.8073798208e-02 1.9053739902e+00 -3.3002045585e+00 1.9053739902e+00 3.3002045585e+00 
10800 6.4090922818e+00 -2.4183777525e-02 1.9061107381e+00 -3.3014806433e+00 1.9061107381e+00 3.3014806433e+00 
10900 6.4094669542e+00 -2.0314725748e-02 1.9067451482e+00 -3.3025794739e+00 1.9067451482e+00 3.3025794739e+00 
11000 6.4098109472e+00 -1.6473725807e-02 1.9072778799e+00 -3.3035021922e+00 1.9072778799e+00 3.3035021922e+00 
11100 6.4101210534e+00 -1.2667918550e-02 1.9077097611e+00 -3.3042502323e+00 1.9077097611e+00 3.3042502323e+00 
11200 6.4103944252e+00 -8.9044815989e-03 1.9080417897e+00 -3.3048253228e+00 1.9080417897e+00 3.3048253228e+00 
11300 6.4106285886e+00 -5.1906068494e-03 1.9082751353e+00 -3.3052294892e+00 1.9082751353e+00 3.3052294892e+00 
11400 6.4108214555e+00 -1.5334766871e-03 1.9084111395e+00 -3.3054650554e+00 1.9084111395e+00 3.3054650554e+00 
11500 6.4109713328e+00 2.0597609718e-03 1.9084513165e+00 -3.3055346439e+00 1.9084513165e+00 3.3055346439e+00 
11600 6.4110769292e+00 5.5820186814e-03 1.9083973525e+00 -3.3054411756e+00 1.9083973525e+00 3.3054411756e+00 
11700 6.4111373588e+00 9.0262963598e-03 1.9082511055e+00 -3.3051878684e+00 1.9082511055e+00 3.3051878684e+00 
11800 6.4111521426e+00 1.2385708908e-02 1.9080146034e+00 -3.3047782346e+00 1.9080146034e+00 3.3047782346e+00 
11900 6.4111212059e+00 1.5653514365e-02 1.9076900420e+00 -3.3042160778e+00 1.9076900420e+00 3.3042160778e+00 
12000 6.4110448737e+00 1.8823142389e-02 1.9072797826e+00 -3.3035054878e+00 1.9072797826e+00 3.3035054878e+00 
12100 6.4109238628e+00 2.1888222860e-02 1.9067863487e+00 -3.3026508352e+00 1.9067863487e+00 3.3026508352e+00 
12200 6.4107592705e+00 2.4842614345e-02 1.9062124217e+00 -3.3016567644e+00 1.9062124217e+00 3.3016567644e+00 
12300 6.4105525611e+00 2.7680432217e-02 1.9055608364e+00 -3.3005281856e+00 1.9055608364e+00 3.3005281856e+00 
12400 6.4103055489e+00 3.0396076144e-02 1.9048345759e+00 -3.2992702655e+00 1.9048345759e+00 3.2992702655e+00 
12500 6.4100203785e+00 3.2984256723e-02 1.9040367651e+00 -3.2978884166e+00 1.9040367651e+00 3.2978884166e+00 
12600 6.4096995029e+00 3.5440020989e-02 1.9031706643e+00 -3.2963882860e+00 1.9031706643e+00 3.2963882860e+00 
12700 6.4093456586e+00 3.7758776554e-02 1.9022396618e+00 -3.2947757425e+00 1.9022396618e+00 3.2947757425e+00 
12800 6.4089618389e+00 3.9936314144e-02 1.9012472661e+00 -3.2930568626e+00 1.9012472661e+00 3.2930568626e+00 
12900 6.4085512646e+00 4.1968828282e-02 1.9001970967e+00 -3.2912379158e+00 1.9001970967e+00 3.2912379158e+00 
13000 6.4081173532e+00 4.3852935927e-02 1.8990928754e+00 -3.2893253485e+00 1.8990928754e+00 3.2893253485e+00 
13100 6.4076636872e+00 4.5585692854e-02 1.8979384166e+00 -3.2873257672e+00 1.8979384166e+00 3.2873257672e+00 
13200 6.4071939797e+00 4.7164607611e-02 1.8967376168e+00 -3.2852459209e+00 1.8967376168e+00 3.2852459209e+00 
13300 6.4067120405e+00 4.8587652890e-02 1.8954944440e+00 -3.2830926824e+00 1.8954944440e+00 3.2830926824e+00 
13400 6.4062217411e+00 4.9853274216e-02 1.8942129268e+00 -3.2808730296e+00 1.8942129268e+00 3.2808730296e+00 
13500 6.4057269792e+00 5.0960395835e-02 1.8928971429e+00 -3.2785940250e+00 1.8928971429e+00 3.2785940250e+00 
13600 6.4052316438e+00 5.1908423752e-02 1.8915512073e+00 -3.2762627962e+00 1.8915512073e+00 3.2762627962e+00 
13700 6.4047395804e+00 5.2697245906e-02 1.8901792608e+00 -3.2738865151e+00 1.8901792608e+00 3.2738865151e+00 
13800 6.4042545573e+00 5.3327229459e-02 1.8887854574e+00 -3.2714723768e+00 1.8887854574e+00 3.2714723768e+00 
13900 6.4037802328e+00 5.3799215270e-02 1.8873739530e+00 -3.2690275794e+00 1.8873739530e+00 3.2690275794e+00 
14000 6.4033201241e+00 5.4114509603e-02 1.8859488925e+00 -3.2665593023e+00 1.8859488925e+00 3.2665593023e+00 
14100 6.4028775778e+00 5.4274873183e-02 1.8845143986e+00 -3.2640746860e+00 1.8845143986e+00 3.2640746860e+00 
14200 6.4024557424e+00 5.4282507735e-02 1.8830745594e+00 -3.2615808113e+00 1.8830745594e+00 3.2615808113e+00 
14300 6.4020575435e+00 5.4140040155e-02 1.8816334168e+00 -3.2590846792e+00 1.8816334168e+00 3.2590846792e+00 
14400 6.4016856612e+00 5.3850504507e-02 1.8801949556e+00 -3.2565931912e+00 1.8801949556e+00 3.2565931912e+00 
14500 6.4013425103e+00 5.3417322048e-02 1.8787630917e+00 -3.2541131302e+00 1.8787630917e+00 3.2541131302e+00 
14600 6.4010302236e+00 5.2844279498e-02 1.8773416624e+00 -3.2516511424e+00 1.8773416624e+00 3.2516511424e+00 
14700 6.4007506383e+00 5.2135505794e-02 1.8759344153e+00 -3.2492137189e+00 1.8759344153e+00 3.2492137189e+00 
14800 6.4005052848e+00 5.1295447572e-02 1.8745449993e+00 -3.2468071799e+00 1.8745449993e+00 3.2468071799e+00 
14900 6.4002953801e+00 5.0328843623e-02 1.8731769553e+00 -3.2444376581e+00 1.8731769553e+00 3.2444376581e+00 
15000 6.4001218227e+00 4.9240698583e-02 1.8718337073e+00 -3.2421110843e+00 1.8718337073e+00 3.2421110843e+00 
15100 6.3999851921e+00 4.8036256090e-02 1.8705185550e+00 -3.2398331737e+00 1.8705185550e+00 3.2398331737e+00 
15200 6.3998857507e+00 4.6720971670e-02 1.8692346662e+00 -3.2376094131e+00 1.8692346662e+00 3.2376094131e+00 
15300 6.3998234488e+00 4.5300485571e-02 1.8679850702e+00 -3.2354450494e+00 1.8679850702e+00 3.2354450494e+00 
15400 6.3997979323e+00 4.3780595776e-02 1.8667726520e+00 -3.2333450795e+00 1.8667726520e+00 3.2333450795e+00 
15500 6.3998085540e+00 4.2167231392e-02 1.8656001469e+00 -3.2313142411e+00 1.8656001469e+00 3.2313142411e+00 
15600 6.3998543859e+00 4.0466426615e-02 1.8644701360e+00 -3.2293570047e+00 1.8644701360e+00 3.2293570047e+00 
15700 6.3999342354e+00 3.8684295438e-02 1.8633850422e+00 -3.2274775671e+00 1.8633850422e+00 3.2274775671e+00 
15800 6.4000466624e+00 3.6827007256e-02 1.8623471273e+00 -3.2256798458e+00 1.8623471273e+00 3.2256798458e+00 
15900 6.4001899991e+00 3.4900763489e-02 1.8613584892e+00 -3.2239674744e+00 1.8613584892e+00 3.2239674744e+00 
16000 6.4003623706e+00 3.2911775351e-02 1.8604210601e+00 -3.2223437995e+00 1.8604210601e+00 3.2223437995e+00 
16100 6.4005617175e+00 3.0866242833e-02 1.8595366053e+00 -3.2208118789e+00 1.8595366053e+00 3.2208118789e+00 
16200 6.4007858190e+00 2.8770334991e-02 1.8587067226e+00 -3.2193744799e+00 1.8587067226e+00 3.2193744799e+00 
16300 6.4010323170e+00 2.6630171562e-02 1.8579328421e+00 -3.2180340795e+00 1.8579328421e+00 3.2180340795e+00 
16400 6.4012987410e+00 2.4451805961e-02 1.8572162269e+00 -3.2167928656e+00 1.8572162269e+00 3.2167928656e+00 
16500 6.4015825323e+00 2.2241209653e-02 1.8565579739e+00 -3.2156527380e+00 1.8565579739e+00 3.2156527380e+00 
16600 6.4018810694e+00 2.0004257907e-02 1.8559590157e+00 -3.2146153120e+00 1.8559590157e+00 3.2146153120e+00 
16700 6.4021916919e+00 1.7746716909e-02 1.8554201221e+00 -3.2136819208e+00 1.8554201221e+00 3.2136819208e+00 
16800 6.4025117249e+00 1.5474232194e-02 1.8549419028e+00 -3.2128536207e+00 1.8549419028e+00 3.2128536207e+00 
16900 6.4028385020e+00 1.3192318375e-02 1.8545248101e+00 -3.2121311951e+00 1.8545248101e+00 3.2121311951e+00 
17000 6.4031693878e+00 1.0906350089e-02 1.8541691423e+00 -3.2115151603e+00 1.8541691423e+00 3.2115151603e+00 
17100 6.4035017989e+00 8.6215541261e-03 1.8538750467e+00 -3.2110057717e+00 1.8538750467e+00 3.2110057717e+00 
17200 6.4038332240e+00 6.3430026526e-03 1.8536425236e+00 -3.2106030299e+00 1.8536425236e+00 3.2106030299e+00 
17300 6.4041612425e+00 4.0756074774e-03 1.8534714306e+00 -3.2103066882e+00 1.8534714306e+00 3.2103066882e+00 
17400 6.4044835414e+00 1.8241152746e-03 1.8533614864e+00 -3.2101162593e+00 1.8533614864e+00 3.2101162593e+00 
17500 6.4047979310e+00 -4.0689630564e-04 1.8533122757e+00 -3.2100310237e+00 1.8533122757e+00 3.2100310237e+00 
17600 6.4051023584e+00 -2.6130217157e-03 1.8533232532e+00 -3.2100500374e+00 1.8533232532e+00 3.2100500374e+00 
17700 6.4053949197e+00 -4.7900298507e-03 1.8533937492e+00 -3.2101721401e+00 1.8533937492e+00 3.2101721401e+00 
17800 6.4056738704e+00 -6.9338657251e-03 1.8535229740e+00 -3.2103959639e+00 1.8535229740e+00 3.2103959639e+00 
17900 6.4059376336e+00 -9.0406515523e-03 1.8537100227e+00 -3.2107199418e+00 1.8537100227e+00 3.2107199418e+00 
18000 6.4061848070e+00 -1.1106687297e-02 1.8539538809e+00 -3.2111423167e+00 1.8539538809e+00 3.2111423167e+00 
18100 6.4064141677e+00 -1.3128450761e-02 1.8542534295e+00 -3.2116611501e+00 1.8542534295e+00 3.2116611501e+00 
18200 6.4066246756e+00 -1.5102597260e-02 1.8546074499e+00 -3.2122743313e+00 1.8546074499e+00 3.2122743313e+00 
18300 6.4068154751e+00 -1.7025958949e-02 1.8550146290e+00 -3.2129795863e+00 1.8550146290e+00 3.2129795863e+00 
18400 6.4069858949e+00 -1.8895543841e-02 1.8554735651e+00 -3.2137744868e+00 1.8554735651e+00 3.2137744868e+00 
18500 6.4071354465e+00 -2.0708534570e-02 1.8559827722e+00 -3.2146564594e+00 1.8559827722e+00 3.2146564594e+00 
18600 6.4072638216e+00 -2.2462286932e-02 1.8565406861e+00 -3.2156227946e+00 1.8565406861e+00 3.2156227946e+00 
18700 6.4073708871e+00 -2.4154328241e-02 1.8571456690e+00 -3.2166706557e+00 1.8571456690e+00 3.2166706557e+00 
18800 6.4074566804e+00 -2.5782355539e-02 1.8577960148e+00 -3.2177970877e+00 1.8577960148e+00 3.2177970877e+00 
18900 6.4075214020e+00 -2.7344233674e-02 1.8584899542e+00 -3.2189990261e+00 1.8584899542e+00 3.2189990261e+00 
19000 6.4075654084e+00 -2.8837993285e-02 1.8592256600e+00 -3.2202733059e+00 1.8592256600e+00 3.2202733059e+00 
19100 6.4075892029e+00 -3.0261828692e-02 1.8600012517e+00 -3.2216166701e+00 1.8600012517e+00 3.2216166701e+00 
19200 6.4075934264e+00 -3.1614095738e-02 1.8608148004e+00 -3.2230257778e+00 1.8608148004e+00 3.2230257778e+00 
19300 6.4075788473e+00 -3.2893309560e-02 1.8616643342e+00 -3.2244972134e+00 1.8616643342e+00 3.2244972134e+00 
19400 6.4075463509e+00 -3.4098142334e-02 1.8625478423e+00 -3.2260274943e+00 1.8625478423e+00 3.2260274943e+00 
19500 6.4074969279e+00 -3.5227420979e-02 1.8634632801e+00 -3.2276130791e+00 1.8634632801e+00 3.2276130791e+00 
19600 6.4074316629e+00 -3.6280124834e-02 1.8644085737e+00 -3.2292503756e+00 1.8644085737e+00 3.2292503756e+00 
19700 6.4073517230e+00 -3.7255383316e-02 1.8653816243e+00 -3.2309357488e+00 1.8653816243e+00 3.2309357488e+00 
19800 6.4072583454e+00 -3.8152473552e-02 1.8663803128e+00 -3.2326655281e+00 1.8663803128e+00 3.2326655281e+00 
19900 6.4071528257e+00 -3.8970818002e-02 1.8674025041e+00 -3.2344360153e+00 1.8674025041e+00 3.2344360153e+00 
20000 6.4070365057e+00 -3.9709982052e-02 1.8684460511e+00 -3.2362434917e+00 1.8684460511e+00 3.2362434917e+00 
20100 6.4069107617e+00 -4.0369671601e-02 1.8695087991e+00 -3.2380842252e+00 1.8695087991e+00 3.2380842252e+00 
20200 6.4067769931e+00 -4.0949730621e-02 1.8705885895e+00 -3.2399544771e+00 1.8705885895e+00 3.2399544771e+00 
20300 6.4066366107e+00 -4.1450138699e-02 1.8716832643e+00 -3.2418505094e+00 1.8716832643e+00 3.2418505094e+00 
20400 6.4064910260e+00 -4.1871008551e-02 1.8727906691e+00 -3.2437685909e+00 1.8727906691e+00 3.2437685909e+00 
20500 6.4063416407e+00 -4.2212583523e-02 1.8739086577e+00 -3.2457050039e+00 1.8739086577e+00 3.2457050039e+00 
20600 6.4061898363e+00 -4.2475235052e-02 1.8750350949e+00 -3.2476560504e+00 1.8750350949e+00 3.2476560504e+00 
20700 6.4060369649e+00 -4.2659460104e-02 1.8761678606e+00 -3.2496180582e+00 1.8761678606e+00 3.2496180582e+00 
20800 6.4058843403e+00 -4.2765878577e-02 1.8773048529e+00 -3.2515873865e+00 1.8773048529e+00 3.2515873865e+00 
20900 6.4057332293e+00 -4.2795230673e-02 1.8784439913e+00 -3.2535604321e+00 1.8784439913e+00 3.2535604321e+00 
21000 6.4055848443e+00 -4.2748374225e-02 1.8795832202e+00 -3.2555336344e+00 1.8795832202e+00 3.2555336344e+00 
21100 6.4054403362e+00 -4.2626281992e-02 1.8807205117e+00 -3.2575034811e+00 1.8807205117e+00 3.2575034811e+00 
21200 6.4053007881e+00 -4.2430038910e-02 1.8818538688e+00 -3.2594665133e+00 1.8818538688e+00 3.2594665133e+00 
21300 6.4051672097e+00 -4.2160839294e-02 1.8829813281e+00 -3.2614193300e+00 1.8829813281e+00 3.2614193300e+00 
21400 6.4050405322e+00 -4.1819983995e-02 1.8841009626e+00 -3.2633585938e+00 1.8841009626e+00 3.2633585938e+00 
21500 6.4049216046e+00 -4.1408877512e-02 1.8852108842e+00 -3.2652810344e+00 1.8852108842e+00 3.2652810344e+00 
21600 6.4048111896e+00 -4.0929025048e-02 1.8863092466e+00 -3.2671834539e+00 1.8863092466e+00 3.2671834539e+00 
21700 6.4047099615e+00 -4.0382029509e-02 1.8873942475e+00 -3.2690627306e+00 1.8873942475e+00 3.2690627306e+00 
21800 6.4046185037e+00 -3.9769588454e-02 1.8884641311e+00 -3.2709158234e+00 1.8884641311e+00 3.2709158234e+00 
21900 6.4045373077e+00 -3.9093490981e-02 1.8895171901e+00 -3.2727397750e+00 1.8895171901e+00 3.2727397750e+00 
22000 6.4044667725e+00 -3.8355614551e-02 1.8905517680e+00 -3.2745317166e+00 1.8905517680e+00 3.2745317166e+00 
22100 6.4044072041e+00 -3.7557921751e-02 1.8915662613e+00 -3.2762888705e+00 1.8915662613e+00 3.2762888705e+00 
22200 6.4043588168e+00 -3.6702456986e-02 1.8925591212e+00 -3.2780085543e+00 1.8925591212e+00 3.2780085543e+00 
22300 6.4043217343e+00 -3.5791343106e-02 1.8935288555e+00 -3.2796881834e+00 1.8935288555e+00 3.2796881834e+00 
22400 6.4042959913e+00 -3.4826777960e-02 1.8944740304e+00 -3.2813252743e+00 1.8944740304e+00 3.2813252743e+00 
22500 6.4042815361e+00 -3.3811030868e-02 1.8953932722e+00 -3.2829174478e+00 1.8953932722e+00 3.2829174478e+00 
22600 6.4042782336e+00 -3.2746439025e-02 1.8962852686e+00 -3.2844624309e+00 1.8962852686e+00 3.2844624309e+00 
22700 6.4042858687e+00 -3.1635403818e-02 1.8971487707e+00 -3.2859580603e+00 1.8971487707e+00 3.2859580603e+00 
22800 6.4043041501e+00 -3.0480387058e-02 1.8979825935e+00 -3.2874022838e+00 1.8979825935e+00 3.2874022838e+00 
22900 6.4043327147e+00 -2.9283907132e-02 1.8987856181e+00 -3.2887931633e+00 1.8987856181e+00 3.2887931633e+00 
23000 6.4043711319e+00 -2.8048535059e-02 1.8995567923e+00 -3.2901288761e+00 1.8995567923e+00 3.2901288761e+00 
23100 6.4044189091e+00 -2.6776890463e-02 1.9002951317e+00 -3.2914077174e+00 1.9002951317e+00 3.2914077174e+00 
23200 6.4044754969e+00 -2.5471637439e-02 1.9009997208e+00 -3.2926281015e+00 1.9009997208e+00 3.2926281015e+00 
23300 6.4045402940e+00 -2.4135480344e-02 1.9016697138e+00 -3.2937885636e+00 1.9016697138e+00 3.2937885636e+00 
23400 6.4046126537e+00 -2.2771159472e-02 1.9023043357e+00 -3.2948877608e+00 1.9023043357e+00 3.2948877608e+00 
23500 6.4046918896e+00 -2.1381446643e-02 1.9029028822e+00 -3.2959244738e+00 1.9029028822e+00 3.2959244738e+00 
23600 6.4047772814e+00 -1.9969140698e-02 1.9034647211e+00 -3.2968976074e+00 1.9034647211e+00 3.2968976074e+00 
23700 6.4048680810e+00 -1.8537062883e-02 1.9039892924e+00 -3.2978061915e+00 1.9039892924e+00 3.2978061915e+00 
23800 6.4049635190e+00 -1.7088052156e-02 1.9044761085e+00 -3.2986493817e+00 1.9044761085e+00 3.2986493817e+00 
23900 6.4050628106e+00 -1.5624960385e-02 1.9049247548e+00 -3.2994264599e+00 1.9049247548e+00 3.2994264599e+00 
24000 6.4051651615e+00 -1.4150647464e-02 1.9053348896e+00 -3.3001368343e+00 1.9053348896e+00 3.3001368343e+00 
24100 6.4052697745e+00 -1.2667976342e-02 1.9057062445e+00 -3.3007800397e+00 1.9057062445e+00 3.3007800397e+00 
24200 6.4053758548e+00 -1.1179807968e-02 1.9060386237e+00 -3.3013557375e+00 1.9060386237e+00 3.3013557375e+00 
24300 6.4054826161e+00 -9.6889961616e-03 1.9063319046e+00 -3.3018637149e+00 1.9063319046e+00 3.3018637149e+00 
24400 6.4055892860e+00 -8.1983824148e-03 1.9065860370e+00 -3.3023038850e+00 1.9065860370e+00 3.3023038850e+00 
24500 6.4056951115e+00 -6.7107906350e-03 1.9068010427e+00 -3.3026762858e+00 1.9068010427e+00 3.3026762858e+00 
24600 6.4057993640e+00 -5.2290218362e-03 1.9069770152e+00 -3.3029810792e+00 1.9069770152e+00 3.3029810792e+00 
24700 6.4059013440e+00 -3.7558487914e-03 1.9071141193e+00 -3.3032185504e+00 1.9071141193e+00 3.3032185504e+00 
24800 6.4060003857e+00 -2.2940106562e-03 1.9072125895e+00 -3.3033891059e+00 1.9072125895e+00 3.3033891059e+00 
24900 6.4060958611e+00 -8.4620757907e-04 1.9072727302e+00 -3.3034932727e+00 1.9072727302e+00 3.3034932727e+00 
25000 6.4061871838e+00 5.8490468975e-04 1.9072949140e+00 -3.3035316961e+00 1.9072949140e+00 3.3035316961e+00 
25100 6.4062738124e+00 1.9967201735e-03 1.9072795807e+00 -3.3035051379e+00 1.9072795807e+00 3.3035051379e+00 
25200 6.4063552536e+00 3.3866880123e-03 1.9072272362e+00 -3.3034144746e+00 1.9072272362e+00 3.3034144746e+00 
25300 6.4064310645e+00 4.7523177580e-03 1.9071384512e+00 -3.3032606946e+00 1.9071384512e+00 3.3032606946e+00 
25400 6.4065008551e+00 6.0911845999e-03 1.9070138597e+00 -3.3030448957e+00 1.9070138597e+00 3.3030448957e+00 
25500 6.4065642899e+00 7.4009345047e-03 1.9068541571e+00 -3.3027682828e+00 1.9068541571e+00 3.3027682828e+00 
25600 6.4066210893e+00 8.6792892490e-03 1.9066600991e+00 -3.3024321644e+00 1.9066600991e+00 3.3024321644e+00 
25700 6.4066710302e+00 9.9240513243e-03 1.9064324991e+00 -3.3020379496e+00 1.9064324991e+00 3.3020379496e+00 
25800 6.4067139465e+00 1.1133108694e-02 1.9061722269e+00 -3.3015871450e+00 1.9061722269e+00 3.3015871450e+00 
25900 6.4067497293e+00 1.2304439382e-02 1.9058802065e+00 -3.3010813508e+00 1.9058802065e+00 3.3010813508e+00 
26000 6.4067783263e+00 1.3436115869e-02 1.9055574136e+00 -3.3005222571e+00 1.9055574136e+00 3.3005222571e+00 
26100 6.4067997409e+00 1.4526309281e-02 1.9052048737e+00 -3.2999116400e+00 1.9052048737e+00 3.2999116400e+00 
26200 6.4068140308e+00 1.5573293341e-02 1.9048236594e+00 -3.2992513576e+00 1.9048236594e+00 3.2992513576e+00 
26300 6.4068213067e+00 1.6575448076e-02 1.9044148884e+00 -3.2985433453e+00 1.9044148884e+00 3.2985433453e+00 
26400 6.4068217298e+00 1.7531263246e-02 1.9039797201e+00 -3.2977896119e+00 1.9039797201e+00 3.2977896119e+00 
26500 6.4068155098e+00 1.8439341491e-02 1.9035193540e+00 -3.2969922343e+00 1.9035193540e+00 3.2969922343e+00 
26600 6.4068029019e+00 1.9298401161e-02 1.9030350259e+00 -3.2961533534e+00 1.9030350259e+00 3.2961533534e+00 
26700 6.4067842041e+00 2.0107278837e-02 1.9025280057e+00 -3.2952751686e+00 1.9025280057e+00 3.2952751686e+00 
26800 6.4067597534e+00 2.0864931501e-02 1.9019995943e+00 -3.2943599333e+00 1.9019995943e+00 3.2943599333e+00 
26900 6.4067299229e+00 2.1570438370e-02 1.9014511208e+00 -3.2934099493e+00 1.9014511208e+00 3.2934099493e+00 
27000 6.4066951175e+00 2.2223002353e-02 1.9008839391e+00 -3.2924275618e+00 1.9008839391e+00 3.2924275618e+00 
27100 6.4066557704e+00 2.2821951156e-02 1.9002994252e+00 -3.2914151540e+00 1.9002994252e+00 3.2914151540e+00 
27200 6.4066123388e+00 2.3366737994e-02 1.8996989738e+00 -3.2903751416e+00 1.8996989738e+00 3.2903751416e+00 
27300 6.4065652996e+00 2.3856941931e-02 1.8990839954e+00 -3.2893099678e+00 1.8990839954e+00 3.2893099678e+00 
27400 6.4065151459e+00 2.4292267828e-02 1.8984559129e+00 -3.2882220971e+00 1.8984559129e+00 3.2882220971e+00 
27500 6.4064623817e+00 2.4672545913e-02 1.8978161587e+00 -3.2871140103e+00 1.8978161587e+00 3.2871140103e+00 
27600 6.4064075185e+00 2.4997730959e-02 1.8971661712e+00 -3.2859881989e+00 1.8971661712e+00 3.2859881989e+00 
27700 6.4063510704e+00 2.5267901088e-02 1.8965073917e+00 -3.2848471593e+00 1.8965073917e+00 3.2848471593e+00 
27800 6.4062935506e+00 2.5483256202e-02 1.8958412614e+00 -3.2836933878e+00 1.8958412614e+00 3.2836933878e+00 
27900 6.4062354667e+00 2.5644116039e-02 1.8951692180e+00 -3.2825293745e+00 1.8951692180e+00 3.2825293745e+00 
28000 6.4061773174e+00 2.5750917891e-02 1.8944926929e+00 -3.2813575987e+00 1.8944926929e+00 3.2813575987e+00 
28100 6.4061195881e+00 2.5804213964e-02 1.8938131079e+00 -3.2801805229e+00 1.8938131079e+00 3.2801805229e+00 
28200 6.4060627480e+00 2.5804668422e-02 1.8931318721e+00 -3.2790005879e+00 1.8931318721e+00 3.2790005879e+00 
28300 6.4060072460e+00 2.5753054113e-02 1.8924503792e+00 -3.2778202075e+00 1.8924503792e+00 3.2778202075e+00 
28400 6.4059535084e+00 2.5650249004e-02 1.8917700044e+00 -3.2766417638e+00 1.8917700044e+00 3.2766417638e+00 
28500 6.4059019355e+00 2.5497232345e-02 1.8910921018e+00 -3.2754676021e+00 1.8910921018e+00 3.2754676021e+00 
28600 6.4058528993e+00 2.5295080577e-02 1.8904180014e+00 -3.2743000260e+00 1.8904180014e+00 3.2743000260e+00 
28700 6.4058067409e+00 2.5044963008e-02 1.8897490068e+00 -3.2731412934e+00 1.8897490068e+00 3.2731412934e+00 
28800 6.4057637692e+00 2.4748137283e-02 1.8890863924e+00 -3.2719936116e+00 1.8890863924e+00 3.2719936116e+00 
28900 6.4057242586e+00 2.4405944667e-02 1.8884314010e+00 -3.2708591332e+00 1.8884314010e+00 3.2708591332e+00 
29000 6.4056884480e+00 2.4019805168e-02 1.8877852417e+00 -3.2697399524e+00 1.8877852417e+00 3.2697399524e+00 
29100 6.4056565398e+00 2.3591212525e-02 1.8871490873e+00 -3.2686381007e+00 1.8871490873e+00 3.2686381007e+00 
29200 6.4056286992e+00 2.3121729075e-02 1.8865240729e+00 -3.2675555439e+00 1.8865240729e+00 3.2675555439e+00 
29300 6.4056050539e+00 2.2612980539e-02 1.8859112931e+00 -3.2664941782e+00 1.8859112931e+00 3.2664941782e+00 
29400 6.4055856940e+00 2.2066650742e-02 1.8853118009e+00 -3.2654558272e+00 1.8853118009e+00 3.2654558272e+00 
29500 6.4055706727e+00 2.1484476286e-02 1.8847266057e+00 -3.2644422394e+00 1.8847266057e+00 3.2644422394e+00 
29600 6.4055600060e+00 2.0868241211e-02 1.8841566717e+00 -3.2634550848e+00 1.8841566717e+00 3.2634550848e+00 
29700 6.4055536748e+00 2.0219771651e-02 1.8836029168e+00 -3.2624959533e+00 1.8836029168e+00 3.2624959533e+00 
29800 6.4055516251e+00 1.9540930520e-02 1.8830662111e+00 -3.2615663516e+00 1.8830662111e+00 3.2615663516e+00 
29900 6.4055537698e+00 1.8833612240e-02 1.8825473756e+00 -3.2606677021e+00 1.8825473756e+00 3.2606677021e+00 
30000 6.4055599902e+00 1.8099737525e-02 1.8820471816e+00 -3.2598013407e+00 1.8820471816e+00 3.2598013407e+00 
30100 6.4055701383e+00 1.7341248257e-02 1.8815663497e+00 -3.2589685154e+00 1.8815663497e+00 3.2589685154e+00 
30200 6.4055840382e+00 1.6560102442e-02 1.8811055490e+00 -3.2581703853e+00 1.8811055490e+00 3.2581703853e+00 
30300 6.4056014888e+00 1.5758269291e-02 1.8806653968e+00 -3.2574080192e+00 1.8806653968e+00 3.2574080192e+00 
30400 6.4056222660e+00 1.4937724416e-02 1.8802464577e+00 -3.2566823955e+00 1.8802464577e+00 3.2566823955e+00 
30500 6.4056461253e+00 1.4100445163e-02 1.8798492438e+00 -3.2559944009e+00 1.8798492438e+00 3.2559944009e+00 
30600 6.4056728041e+00 1.3248406095e-02 1.8794742144e+00 -3.2553448309e+00 1.8794742144e+00 3.2553448309e+00 
30700 6.4057020249e+00 1.2383574627e-02 1.8791217756e+00 -3.2547343890e+00 1.8791217756e+00 3.2547343890e+00 
30800 6.4057334974e+00 1.1507906822e-02 1.8787922809e+00 -3.2541636875e+00 1.8787922809e+00 3.2541636875e+00 
30900 6.4057669215e+00 1.0623343367e-02 1.8784860312e+00 -3.2536332473e+00 1.8784860312e+00 3.2536332473e+00 
31000 6.4058019902e+00 9.7318057083e-03 1.8782032748e+00 -3.2531434989e+00 1.8782032748e+00 3.2531434989e+00 
31100 6.4058383919e+00 8.8351923794e-03 1.8779442086e+00 -3.2526947830e+00 1.8779442086e+00 3.2526947830e+00 
31200 6.4058758133e+00 7.9353755023e-03 1.8777089777e+00 -3.2522873513e+00 1.8777089777e+00 3.2522873513e+00 
31300 6.4059139421e+00 7.0341974745e-03 1.8774976770e+00 -3.2519213676e+00 1.8774976770e+00 3.2519213676e+00 
31400 6.4059524691e+00 6.1334678394e-03 1.8773103510e+00 -3.2515969096e+00 1.8773103510e+00 3.2515969096e+00 
31500 6.4059910909e+00 5.2349603402e-03 1.8771469955e+00 -3.2513139696e+00 1.8771469955e+00 3.2513139696e+00 
31600 6.4060295123e+00 4.3404101558e-03 1.8770075580e+00 -3.2510724566e+00 1.8770075580e+00 3.2510724566e+00 
31700 6.4060674478e+00 3.4515113175e-03 1.8768919387e+00 -3.2508721981e+00 1.8768919387e+00 3.2508721981e+00 
31800 6.4061046243e+00 2.5699143032e-03 1.8767999919e+00 -3.2507129417e+00 1.8767999919e+00 3.2507129417e+00 
31900 6.4061407824e+00 1.6972238062e-03 1.8767315270e+00 -3.2505943570e+00 1.8767315270e+00 3.2505943570e+00 
32000 6.4061756785e+00 8.3499667563e-04 1.8766863097e+00 -3.2505160382e+00 1.8766863097e+00 3.2505160382e+00 
32100 6.4062090858e+00 -1.5259976949e-05 1.8766640631e+00 -3.2504775061e+00 1.8766640631e+00 3.2504775061e+00 
32200 6.4062407965e+00 -8.5249374945e-04 1.8766640631e+00 -3.2504775061e+00 1.8766640631e+00 3.2504775061e+00 
32300 6.4062706209e+00 -1.6744870690e-03 1.8766867762e+00 -3.2505168463e+00 1.8766867762e+00 3.2505168463e+00 
32400 6.4062983902e+00 -2.4803041658e-03 1.8767313892e+00 -3.2505941183e+00 1.8767313892e+00 3.2505941183e+00 
32500 6.4063239567e+00 -3.2686525838e-03 1.8767974700e+00 -3.2507085736e+00 1.8767974700e+00 3.2507085736e+00 
32600 6.4063471941e+00 -4.0382967317e-03 1.8768845513e+00 -3.2508594028e+00 1.8768845513e+00 3.2508594028e+00 
32700 6.4063679981e+00 -4.7880588756e-03 1.8769921321e+00 -3.2510457382e+00 1.8769921321e+00 3.2510457382e+00 
32800 6.4063862864e+00 -5.5168199989e-03 1.8771196796e+00 -3.2512666570e+00 1.8771196796e+00 3.2512666570e+00 
32900 6.4064019984e+00 -6.2235205361e-03 1.8772666306e+00 -3.2515211836e+00 1.8772666306e+00 3.2515211836e+00 
33000 6.4064150957e+00 -6.9071609838e-03 1.8774323932e+00 -3.2518082928e+00 1.8774323932e+00 3.2518082928e+00 
33100 6.4064255609e+00 -7.5668023960e-03 1.8776163485e+00 -3.2521269128e+00 1.8776163485e+00 3.2521269128e+00 
33200 6.4064333978e+00 -8.2015667663e-03 1.8778178524e+00 -3.2524759277e+00 1.8778178524e+00 3.2524759277e+00 
33300 6.4064386301e+00 -8.8106373037e-03 1.8780362368e+00 -3.2528541807e+00 1.8780362368e+00 3.2528541807e+00 
33400 6.4064413012e+00 -9.3932586050e-03 1.8782708122e+00 -3.2532604771e+00 1.8782708122e+00 3.2532604771e+00 
33500 6.4064414726e+00 -9.9487367293e-03 1.8785208685e+00 -3.2536935873e+00 1.8785208685e+00 3.2536935873e+00 
33600 6.4064392234e+00 -1.0476439177e-02 1.8787856771e+00 -3.2541522492e+00 1.8787856771e+00 3.2541522492e+00 
33700 6.4064346491e+00 -1.0975794782e-02 1.8790644928e+00 -3.2546351722e+00 1.8790644928e+00 3.2546351722e+00 
33800 6.4064278598e+00 -1.1446293509e-02 1.8793565551e+00 -3.2551410390e+00 1.8793565551e+00 3.2551410390e+00 
33900 6.4064189797e+00 -1.1887486180e-02 1.8796610902e+00 -3.2556685093e+00 1.8796610902e+00 3.2556685093e+00 
34000 6.4064081451e+00 -1.2298984108e-02 1.8799773127e+00 -3.2562162226e+00 1.8799773127e+00 3.2562162226e+00 
34100 6.4063955032e+00 -1.2680458663e-02 1.8803044267e+00 -3.2567828008e+00 1.8803044267e+00 3.2567828008e+00 
34200 6.4063812107e+00 -1.3031640764e-02 1.8806416284e+00 -3.2573668513e+00 1.8806416284e+00 3.2573668513e+00 
34300 6.4063654322e+00 -1.3352320290e-02 1.8809881070e+00 -3.2579669698e+00 1.8809881070e+00 3.2579669698e+00 
34400 6.4063483387e+00 -1.3642345435e-02 1.8813430465e+00 -3.2585817431e+00 1.8813430465e+00 3.2585817431e+00 
34500 6.4063301060e+00 -1.3901621990e-02 1.8817056275e+00 -3.2592097517e+00 1.8817056275e+00 3.2592097517e+00 
34600 6.4063109135e+00 -1.4130112563e-02 1.8820750285e+00 -3.2598495729e+00 1.8820750285e+00 3.2598495729e+00 
34700 6.4062909425e+00 -1.4327835736e-02 1.8824504275e+00 -3.2604997831e+00 1.8824504275e+00 3.2604997831e+00 
34800 6.4062703748e+00 -1.4494865162e-02 1.8828310037e+00 -3.2611589605e+00 1.8828310037e+00 3.2611589605e+00 
34900 6.4062493913e+00 -1.4631328607e-02 1.8832159389e+00 -3.2618256878e+00 1.8832159389e+00 3.2618256878e+00 
35000 6.4062281705e+00 -1.4737406933e-02 1.8836044188e+00 -3.2624985548e+00 1.8836044188e+00 3.2624985548e+00 
35100 6.4062068877e+00 -1.4813333024e-02 1.8839956347e+00 -3.2631761605e+00 1.8839956347e+00 3.2631761605e+00 
35200 6.4061857129e+00 -1.4859390666e-02 1.8843887844e+00 -3.2638571158e+00 1.8843887844e+00 3.2638571158e+00 
35300 6.4061648108e+00 -1.4875913366e-02 1.8847830743e+00 -3.2645400459e+00 1.8847830743e+00 3.2645400459e+00 
35400 6.4061443387e+00 -1.4863283131e-02 1.8851777200e+00 -3.2652235924e+00 1.8851777200e+00 3.2652235924e+00 
35500 6.4061244460e+00 -1.4821929187e-02 1.8855719481e+00 -3.2659064155e+00 1.8855719481e+00 3.2659064155e+00 
35600 6.4061052732e+00 -1.4752326661e-02 1.8859649972e+00 -3.2665871964e+00 1.8859649972e+00 3.2665871964e+00 
35700 6.4060869514e+00 -1.4654995210e-02 1.8863561189e+00 -3.2672646390e+00 1.8863561189e+00 3.2672646390e+00 
35800 6.4060696010e+00 -1.4530497602e-02 1.8867445794e+00 -3.2679374724e+00 1.8867445794e+00 3.2679374724e+00 
35900 6.4060533316e+00 -1.4379438265e-02 1.8871296604e+00 -3.2686044524e+00 1.8871296604e+00 3.2686044524e+00 
36000 6.4060382412e+00 -1.4202461782e-02 1.8875106603e+00 -3.2692643634e+00 1.8875106603e+00 3.2692643634e+00 
36100 6.4060244159e+00 -1.4000251347e-02 1.8878868948e+00 -3.2699160208e+00 1.8878868948e+00 3.2699160208e+00 
36200 6.4060119299e+00 -1.3773527185e-02 1.8882576985e+00 -3.2705582716e+00 1.8882576985e+00 3.2705582716e+00 
36300 6.4060008445e+00 -1.3523044931e-02 1.8886224255e+00 -3.2711899973e+00 1.8886224255e+00 3.2711899973e+00 
36400 6.4059912089e+00 -1.3249593970e-02 1.8889804503e+00 -3.2718101144e+00 1.8889804503e+00 3.2718101144e+00 
36500 6.4059830597e+00 -1.2953995743e-02 1.8893311687e+00 -3.2724175765e+00 1.8893311687e+00 3.2724175765e+00 
36600 6.4059764209e+00 -1.2637102017e-02 1.8896739986e+00 -3.2730113754e+00 1.8896739986e+00 3.2730113754e+00 
36700 6.4059713044e+00 -1.2299793122e-02 1.8900083811e+00 -3.2735905427e+00 1.8900083811e+00 3.2735905427e+00 
36800 6.4059677102e+00 -1.1942976162e-02 1.8903337803e+00 -3.2741541507e+00 1.8903337803e+00 3.2741541507e+00 
36900 6.4059656263e+00 -1.1567583186e-02 1.8906496851e+00 -3.2747013138e+00 1.8906496851e+00 3.2747013138e+00 
37000 6.4059650298e+00 -1.1174569340e-02 1.8909556089e+00 -3.2752311894e+00 1.8909556089e+00 3.2752311894e+00 
37100 6.4059658869e+00 -1.0764910989e-02 1.8912510907e+00 -3.2757429789e+00 1.8912510907e+00 3.2757429789e+00 
37200 6.4059681537e+00 -1.0339603817e-02 1.8915356954e+00 -3.2762359288e+00 1.8915356954e+00 3.2762359288e+00 
37300 6.4059717766e+00 -9.8996609024e-03 1.8918090144e+00 -3.2767093312e+00 1.8918090144e+00 3.2767093312e+00 
37400 6.4059766932e+00 -9.4461107752e-03 1.8920706658e+00 -3.2771625247e+00 1.8920706658e+00 3.2771625247e+00 
37500 6.4059828329e+00 -8.9799954584e-03 1.8923202949e+00 -3.2775948950e+00 1.8923202949e+00 3.2775948950e+00 
37600 6.4059901177e+00 -8.5023684915e-03 1.8925575746e+00 -3.2780058755e+00 1.8925575746e+00 3.2780058755e+00 
37700 6.4059984630e+00 -8.0142929440e-03 1.8927822055e+00 -3.2783949476e+00 1.8927822055e+00 3.2783949476e+00 
37800 6.4060077782e+00 -7.5168394181e-03 1.8929939161e+00 -3.2787616411e+00 1.8929939161e+00 3.2787616411e+00 
37900 6.4060179681e+00 -7.0110840448e-03 1.8931924633e+00 -3.2791055349e+00 1.8931924633e+00 3.2791055349e+00 
38000 6.4060289331e+00 -6.4981064767e-03 1.8933776319e+00 -3.2794262564e+00 1.8933776319e+00 3.2794262564e+00 
38100 6.4060405704e+00 -5.9789878799e-03 1.8935492354e+00 -3.2797234824e+00 1.8935492354e+00 3.2797234824e+00 
38200 6.4060527751e+00 -5.4548089275e-03 1.8937071154e+00 -3.2799969386e+00 1.8937071154e+00 3.2799969386e+00 
38300 6.4060654404e+00 -4.9266478008e-03 1.8938511419e+00 -3.2802463997e+00 1.8938511419e+00 3.2802463997e+00 
38400 6.4060784592e+00 -4.3955781982e-03 1.8939812129e+00 -3.2804716893e+00 1.8939812129e+00 3.2804716893e+00 
38500 6.4060917243e+00 -3.8626673573e-03 1.8940972548e+00 -3.2806726798e+00 1.8940972548e+00 3.2806726798e+00 
38600 6.4061051297e+00 -3.3289740945e-03 1.8941992216e+00 -3.2808492915e+00 1.8941992216e+00 3.2808492915e+00 
38700 6.4061185710e+00 -2.7955468637e-03 1.8942870952e+00 -3.2810014930e+00 1.8942870952e+00 3.2810014930e+00 
38800 6.4061319465e+00 -2.2634218397e-03 1.8943608845e+00 -3.2811292999e+00 1.8943608845e+00 3.2811292999e+00 
38900 6.4061451576e+00 -1.7336210298e-03 1.8944206259e+00 -3.2812327750e+00 1.8944206259e+00 3.2812327750e+00 
39000 6.4061581096e+00 -1.2071504172e-03 1.8944663821e+00 -3.2813120269e+00 1.8944663821e+00 3.2813120269e+00 
39100 6.4061707123e+00 -6.8499814005e-04 1.8944982420e+00 -3.2813672101e+00 1.8944982420e+00 3.2813672101e+00 
39200 6.4061828807e+00 -1.6813271155e-04 1.8945163207e+00 -3.2813985232e+00 1.8945163207e+00 3.2813985232e+00 
39300 6.4061945352e+00 3.4249871681e-04 1.8945207580e+00 -3.2814062089e+00 1.8945207580e+00 3.2814062089e+00 
39400 6.4062056025e+00 8.4597204337e-04 1.8945117189e+00 -3.2813905526e+00 1.8945117189e+00 3.2813905526e+00 
39500 6.4062160155e+00 1.3413878524e-03 1.8944893920e+00 -3.2813518813e+00 1.8944893920e+00 3.2813518813e+00 
39600 6.4062257141e+00 1.8278729941e-03 1.8944539897e+00 -3.2812905628e+00 1.8944539897e+00 3.2812905628e+00 
39700 6.4062346453e+00 2.3045821043e-03 1.8944057472e+00 -3.2812070043e+00 1.8944057472e+00 3.2812070043e+00 
39800 6.4062427633e+00 2.7706990610e-03 1.8943449215e+00 -3.2811016512e+00 1.8943449215e+00 3.2811016512e+00 
39900 6.4062500297e+00 3.2254383726e-03 1.8942717912e+00 -3.2809749857e+00 1.8942717912e+00 3.2809749857e+00 
40000 6.4062564139e+00 3.6680464953e-03 1.8941866552e+00 -3.2808275259e+00 1.8941866552e+00 3.2808275259e+00 
40100 6.4062618928e+00 4.0978030760e-03 1.8940898323e+00 -3.2806598236e+00 1.8940898323e+00 3.2806598236e+00 
40200 6.4062664509e+00 4.5140221176e-03 1.8939816599e+00 -3.2804724635e+00 1.8939816599e+00 3.2804724635e+00 
40300 6.4062700801e+00 4.9160530626e-03 1.8938624936e+00 -3.2802660615e+00 1.8938624936e+00 3.2802660615e+00 
40400 6.4062727797e+00 5.3032817941e-03 1.8937327060e+00 -3.2800412628e+00 1.8937327060e+00 3.2800412628e+00 
40500 6.4062745564e+00 5.6751315489e-03 1.8935926858e+00 -3.2797987407e+00 1.8935926858e+00 3.2797987407e+00 
40600 6.4062754236e+00 6.0310637434e-03 1.8934428369e+00 -3.2795391947e+00 1.8934428369e+00 3.2795391947e+00 
40700 6.4062754014e+00 6.3705787073e-03 1.8932835773e+00 -3.2792633490e+00 1.8932835773e+00 3.2792633490e+00 
40800 6.4062745164e+00 6.6932163248e-03 1.8931153383e+00 -3.2789719504e+00 1.8931153383e+00 3.2789719504e+00 
40900 6.4062728009e+00 6.9985565823e-03 1.8929385632e+00 -3.2786657670e+00 1.8929385632e+00 3.2786657670e+00 
41000 6.4062702930e+00 7.2862200185e-03 1.8927537066e+00 -3.2783455861e+00 1.8927537066e+00 3.2783455861e+00 
41100 6.4062670356e+00 7.5558680804e-03 1.8925612332e+00 -3.2780122123e+00 1.8925612332e+00 3.2780122123e+00 
41200 6.4062630765e+00 7.8072033795e-03 1.8923616165e+00 -3.2776664661e+00 1.8923616165e+00 3.2776664661e+00 
41300 6.4062584676e+00 8.0399698528e-03 1.8921553382e+00 -3.2773091816e+00 1.8921553382e+00 3.2773091816e+00 
41400 6.4062532643e+00 8.2539528242e-03 1.8919428869e+00 -3.2769412051e+00 1.8919428869e+00 3.2769412051e+00 
41500 6.4062475252e+00 8.4489789706e-03 1.8917247568e+00 -3.2765633926e+00 1.8917247568e+00 3.2765633926e+00 
41600 6.4062413114e+00 8.6249161899e-03 1.8915014470e+00 -3.2761766088e+00 1.8915014470e+00 3.2761766088e+00 
41700 6.4062346860e+00 8.7816733746e-03 1.8912734603e+00 -3.2757817242e+00 1.8912734603e+00 3.2757817242e+00 
41800 6.4062277137e+00 8.9192000914e-03 1.8910413021e+00 -3.2753796144e+00 1.8910413021e+00 3.2753796144e+00 
41900 6.4062204599e+00 9.0374861674e-03 1.8908054792e+00 -3.2749711573e+00 1.8908054792e+00 3.2749711573e+00 
42000 6.4062129906e+00 9.1365611869e-03 1.8905664992e+00 -3.2745572317e+00 1.8905664992e+00 3.2745572317e+00 
42100 6.4062053715e+00 9.2164938995e-03 1.8903248688e+00 -3.2741387156e+00 1.8903248688e+00 3.2741387156e+00 
42200 6.4061976677e+00 9.2773915431e-03 1.8900810933e+00 -3.2737164841e+00 1.8900810933e+00 3.2737164841e+00 
42300 6.4061899431e+00 9.3193990840e-03 1.8898356755e+00 -3.2732914080e+00 1.8898356755e+00 3.2732914080e+00 
42400 6.4061822600e+00 9.3426983773e-03 1.8895891145e+00 -3.2728643518e+00 1.8895891145e+00 3.2728643518e+00 
42500 6.4061746787e+00 9.3475072513e-03 1.8893419048e+00 -3.2724361720e+00 1.8893419048e+00 3.2724361720e+00 
42600 6.4061672569e+00 9.3340785197e-03 1.8890945355e+00 -3.2720077159e+00 1.8890945355e+00 3.2720077159e+00 
42700 6.4061600496e+00 9.3026989240e-03 1.8888474893e+00 -3.2715798192e+00 1.8888474893e+00 3.2715798192e+00 
42800 6.4061531084e+00 9.2536880124e-03 1.8886012413e+00 -3.2711533052e+00 1.8886012413e+00 3.2711533052e+00 
42900 6.4061464814e+00 9.1873969569e-03 1.8883562587e+00 -3.2707289829e+00 1.8883562587e+00 3.2707289829e+00 
43000 6.4061402128e+00 9.1042073150e-03 1.8881129996e+00 -3.2703076457e+00 1.8881129996e+00 3.2703076457e+00 
43100 6.4061343431e+00 9.0045297383e-03 1.8878719119e+00 -3.2698900697e+00 1.8878719119e+00 3.2698900697e+00 
43200 6.4061289079e+00 8.8888026346e-03 1.8876334334e+00 -3.2694770127e+00 1.8876334334e+00 3.2694770127e+00 
43300 6.4061239390e+00 8.7574907870e-03 1.8873979899e+00 -3.2690692127e+00 1.8873979899e+00 3.2690692127e+00 
43400 6.4061194632e+00 8.6110839338e-03 1.8871659956e+00 -3.2686673868e+00 1.8871659956e+00 3.2686673868e+00 
43500 6.4061155028e+00 8.4500953161e-03 1.8869378517e+00 -3.2682722298e+00 1.8869378517e+00 3.2682722298e+00 
43600 6.4061120755e+00 8.2750601949e-03 1.8867139458e+00 -3.2678844136e+00 1.8867139458e+00 3.2678844136e+00 
43700 6.4061091941e+00 8.0865343454e-03 1.8864946519e+00 -3.2675045853e+00 1.8864946519e+00 3.2675045853e+00 
43800 6.4061068669e+00 7.8850925298e-03 1.8862803289e+00 -3.2671333670e+00 1.8862803289e+00 3.2671333670e+00 
43900 6.4061050975e+00 7.6713269566e-03 1.8860713211e+00 -3.2667713549e+00 1.8860713211e+00 3.2667713549e+00 
44000 6.4061038850e+00 7.4458457274e-03 1.8858679569e+00 -3.2664191177e+00 1.8858679569e+00 3.2664191177e+00 
44100 6.4061032242e+00 7.2092712785e-03 1.8856705487e+00 -3.2660771967e+00 1.8856705487e+00 3.2660771967e+00 
44200 6.4061031056e+00 6.9622388198e-03 1.8854793926e+00 -3.2657461045e+00 1.8854793926e+00 3.2657461045e+00 
44300 6.4061035158e+00 6.7053947753e-03 1.8852947678e+00 -3.2654263250e+00 1.8852947678e+00 3.2654263250e+00 
44400 6.4061044376e+00 6.4393952306e-03 1.8851169364e+00 -3.2651183121e+00 1.8851169364e+00 3.2651183121e+00 
44500 6.4061058501e+00 6.1649043885e-03 1.8849461434e+00 -3.2648224899e+00 1.8849461434e+00 3.2648224899e+00 
44600 6.4061077293e+00 5.8825930400e-03 1.8847826157e+00 -3.2645392517e+00 1.8847826157e+00 3.2645392517e+00 
44700 6.4061100481e+00 5.5931370502e-03 1.8846265630e+00 -3.2642689603e+00 1.8846265630e+00 3.2642689603e+00 
44800 6.4061127768e+00 5.2972158665e-03 1.8844781764e+00 -3.2640119473e+00 1.8844781764e+00 3.2640119473e+00 
44900 6.4061158832e+00 4.9955110487e-03 1.8843376296e+00 -3.2637685130e+00 1.8843376296e+00 3.2637685130e+00 
45000 6.4061193332e+00 4.6887048261e-03 1.8842050776e+00 -3.2635389263e+00 1.8842050776e+00 3.2635389263e+00 
45100 6.4061230908e+00 4.3774786841e-03 1.8840806577e+00 -3.2633234247e+00 1.8840806577e+00 3.2633234247e+00 
45200 6.4061271188e+00 4.0625119822e-03 1.8839644887e+00 -3.2631222141e+00 1.8839644887e+00 3.2631222141e+00 
45300 6.4061313787e+00 3.7444806059e-03 1.8838566716e+00 -3.2629354694e+00 1.8838566716e+00 3.2629354694e+00 
45400 6.4061358315e+00 3.4240556561e-03 1.8837572891e+00 -3.2627633338e+00 1.8837572891e+00 3.2627633338e+00 
45500 6.4061404376e+00 3.1019021753e-03 1.8836664062e+00 -3.2626059200e+00 1.8836664062e+00 3.2626059200e+00 
45600 6.4061451574e+00 2.7786779155e-03 1.8835840699e+00 -3.2624633094e+00 1.8835840699e+00 3.2624633094e+00 
45700 6.4061499517e+00 2.4550321471e-03 1.8835103100e+00 -3.2623355535e+00 1.8835103100e+00 3.2623355535e+00 
45800 6.4061547817e+00 2.1316045115e-03 1.8834451387e+00 -3.2622226735e+00 1.8834451387e+00 3.2622226735e+00 
45900 6.4061596093e+00 1.8090239177e-03 1.8833885510e+00 -3.2621246608e+00 1.8833885510e+00 3.2621246608e+00 
46000 6.4061643977e+00 1.4879074861e-03 1.8833405255e+00 -3.2620414781e+00 1.8833405255e+00 3.2620414781e+00 
46100 6.4061691114e+00 1.1688595368e-03 1.8833010238e+00 -3.2619730592e+00 1.8833010238e+00 3.2619730592e+00 
46200 6.4061737165e+00 8.5247062769e-04 1.8832699917e+00 -3.2619193100e+00 1.8832699917e+00 3.2619193100e+00 
46300 6.4061781810e+00 5.3931663872e-04 1.8832473590e+00 -3.2618801090e+00 1.8832473590e+00 3.2618801090e+00 
46400 6.4061824747e+00 2.2995790614e-04 1.8832330402e+00 -3.2618553082e+00 1.8832330402e+00 3.2618553082e+00 
46500 6.4061865698e+00 -7.5061594903e-05 1.8832269348e+00 -3.2618447333e+00 1.8832269348e+00 3.2618447333e+00 
46600 6.4061904409e+00 -3.7521501834e-04 1.8832289277e+00 -3.2618481851e+00 1.8832289277e+00 3.2618481851e+00 
46700 6.4061940647e+00 -6.6999336577e-04 1.8832388897e+00 -3.2618654398e+00 1.8832388897e+00 3.2618654398e+00 
46800 6.4061974210e+00 -9.5890615573e-04 1.8832566781e+00 -3.2618962502e+00 1.8832566781e+00 3.2618962502e+00 
46900 6.4062004919e+00 -1.2414820435e-03 1.8832821369e+00 -3.2619403461e+00 1.8832821369e+00 3.2619403461e+00 
47000 6.4062032624e+00 -1.5172693921e-03 1.8833150976e+00 -3.2619974357e+00 1.8833150976e+00 3.2619974357e+00 
47100 6.4062057202e+00 -1.7858367940e-03 1.8833553796e+00 -3.2620672062e+00 1.8833553796e+00 3.2620672062e+00 
47200 6.4062078558e+00 -2.0467735448e-03 1.8834027908e+00 -3.2621493248e+00 1.8834027908e+00 3.2621493248e+00 
47300 6.4062096625e+00 -2.2996900687e-03 1.8834571282e+00 -3.2622434399e+00 1.8834571282e+00 3.2622434399e+00 
47400 6.4062111363e+00 -2.5442182964e-03 1.8835181782e+00 -3.2623491817e+00 1.8835181782e+00 3.2623491817e+00 
47500 6.4062122759e+00 -2.7800119958e-03 1.8835857176e+00 -3.2624661634e+00 1.8835857176e+00 3.2624661634e+00 
47600 6.4062130827e+00 -3.0067470571e-03 1.8836595139e+00 -3.2625939822e+00 1.8836595139e+00 3.2625939822e+00 
47700 6.4062135606e+00 -3.2241217314e-03 1.8837393257e+00 -3.2627322204e+00 1.8837393257e+00 3.2627322204e+00 
47800 6.4062137158e+00 -3.4318568248e-03 1.8838249041e+00 -3.2628804465e+00 1.8838249041e+00 3.2628804465e+00 
47900 6.4062135570e+00 -3.6296958483e-03 1.8839159923e+00 -3.2630382159e+00 1.8839159923e+00 3.2630382159e+00 
48000 6.4062130950e+00 -3.8174051241e-03 1.8840123269e+00 -3.2632050723e+00 1.8840123269e+00 3.2632050723e+00 
48100 6.4062123427e+00 -3.9947738498e-03 1.8841136383e+00 -3.2633805488e+00 1.8841136383e+00 3.2633805488e+00 
48200 6.4062113148e+00 -4.1616141205e-03 1.8842196514e+00 -3.2635641688e+00 1.8842196514e+00 3.2635641688e+00 
48300 6.4062100276e+00 -4.3177609104e-03 1.8843300858e+00 -3.2637554468e+00 1.8843300858e+00 3.2637554468e+00 
48400 6.4062084992e+00 -4.4630720144e-03 1.8844446571e+00 -3.2639538902e+00 1.8844446571e+00 3.2639538902e+00 
48500 6.4062067487e+00 -4.5974279506e-03 1.8845630771e+00 -3.2641589997e+00 1.8845630771e+00 3.2641589997e+00 
48600 6.4062047967e+00 -4.7207318257e-03 1.8846850544e+00 -3.2643702705e+00 1.8846850544e+00 3.2643702705e+00 
48700 6.4062026645e+00 -4.8329091620e-03 1.8848102951e+00 -3.2645871937e+00 1.8848102951e+00 3.2645871937e+00 
48800 6.4062003743e+00 -4.9339076899e-03 1.8849385033e+00 -3.2648092569e+00 1.8849385033e+00 3.2648092569e+00 
48900 6.4061979489e+00 -5.0236971041e-03 1.8850693820e+00 -3.2650359454e+00 1.8850693820e+00 3.2650359454e+00 
49000 6.4061954112e+00 -5.1022687868e-03 1.8852026332e+00 -3.2652667433e+00 1.8852026332e+00 3.2652667433e+00 
49100 6.4061927848e+00 -5.1696354974e-03 1.8853379590e+00 -3.2655011344e+00 1.8853379590e+00 3.2655011344e+00 
49200 6.4061900928e+00 -5.2258310303e-03 1.8854750617e+00 -3.2657386032e+00 1.8854750617e+00 3.2657386032e+00 
49300 6.4061873584e+00 -5.2709098423e-03 1.8856136447e+00 -3.2659786360e+00 1.8856136447e+00 3.2659786360e+00 
49400 6.4061846045e+00 -5.3049466494e-03 1.8857534128e+00 -3.2662207215e+00 1.8857534128e+00 3.2662207215e+00 
49500 6.4061818533e+00 -5.3280359955e-03 1.8858940731e+00 -3.2664643523e+00 1.8858940731e+00 3.2664643523e+00 
49600 6.4061791264e+00 -5.3402917933e-03 1.8860353351e+00 -3.2667090252e+00 1.8860353351e+00 3.2667090252e+00 
49700 6.4061764447e+00 -5.3418468380e-03 1.8861769114e+00 -3.2669542426e+00 1.8861769114e+00 3.2669542426e+00 
49800 6.4061738279e+00 -5.3328522967e-03 1.8863185183e+00 -3.2671995130e+00 1.8863185183e+00 3.2671995130e+00 
49900 6.4061712949e+00 -5.3134771719e-03 1.8864598762e+00 -3.2674443520e+00 1.8864598762e+00 3.2674443520e+00 
50000 6.4061688633e+00 -5.2839077432e-03 1.8866007099e+00 -3.2676882831e+00 1.8866007099e+00 3.2676882831e+00 
50100 6.4061665494e+00 -5.2443469853e-03 1.8867407494e+00 -3.2679308387e+00 1.8867407494e+00 3.2679308387e+00 
50200 6.4061643680e+00 -5.1950139666e-03 1.8868797301e+00 -3.2681715603e+00 1.8868797301e+00 3.2681715603e+00 
50300 6.4061623326e+00 -5.1361432264e-03 1.8870173933e+00 -3.2684099999e+00 1.8870173933e+00 3.2684099999e+00 
50400 6.4061604553e+00 -5.0679841343e-03 1.8871534865e+00 -3.2686457203e+00 1.8871534865e+00 3.2686457203e+00 
50500 6.4061587463e+00 -4.9908002318e-03 1.8872877640e+00 -3.2688782957e+00 1.8872877640e+00 3.2688782957e+00 
50600 6.4061572144e+00 -4.9048685573e-03 1.8874199870e+00 -3.2691073127e+00 1.8874199870e+00 3.2691073127e+00 
50700 6.4061558668e+00 -4.8104789559e-03 1.8875499243e+00 -3.2693323707e+00 1.8875499243e+00 3.2693323707e+00 
50800 6.4061547091e+00 -4.7079333755e-03 1.8876773523e+00 -3.2695530824e+00 1.8876773523e+00 3.2695530824e+00 
50900 6.4061537452e+00 -4.5975451499e-03 1.8878020554e+00 -3.2697690746e+00 1.8878020554e+00 3.2697690746e+00 
51000 6.4061529772e+00 -4.4796382701e-03 1.8879238265e+00 -3.2699799883e+00 1.8879238265e+00 3.2699799883e+00 
51100 6.4061524061e+00 -4.3545466456e-03 1.8880424670e+00 -3.2701854797e+00 1.8880424670e+00 3.2701854797e+00 
51200 6.4061520309e+00 -4.2226133565e-03 1.8881577873e+00 -3.2703852203e+00 1.8881577873e+00 3.2703852203e+00 
51300 6.4061518493e+00 -4.0841898977e-03 1.8882696067e+00 -3.2705788972e+00 1.8882696067e+00 3.2705788972e+00 
51400 6.4061518576e+00 -3.9396354161e-03 1.8883777541e+00 -3.2707662140e+00 1.8883777541e+00 3.2707662140e+00 
51500 6.4061520507e+00 -3.7893159438e-03 1.8884820678e+00 -3.2709468906e+00 1.8884820678e+00 3.2709468906e+00 
51600 6.4061524221e+00 -3.6336036255e-03 1.8885823957e+00 -3.2711206636e+00 1.8885823957e+00 3.2711206636e+00 
51700 6.4061529644e+00 -3.4728759445e-03 1.8886785957e+00 -3.2712872870e+00 1.8886785957e+00 3.2712872870e+00 
51800 6.4061536687e+00 -3.3075149471e-03 1.8887705358e+00 -3.2714465318e+00 1.8887705358e+00 3.2714465318e+00 
51900 6.4061545254e+00 -3.1379064660e-03 1.8888580938e+00 -3.2715981868e+00 1.8888580938e+00 3.2715981868e+00 
52000 6.4061555239e+00 -2.9644393461e-03 1.8889411580e+00 -3.2717420582e+00 1.8889411580e+00 3.2717420582e+00 
52100 6.4061566528e+00 -2.7875046719e-03 1.8890196268e+00 -3.2718779702e+00 1.8890196268e+00 3.2718779702e+00 
52200 6.4061578999e+00 -2.6074949991e-03 1.8890934091e+00 -3.2720057648e+00 1.8890934091e+00 3.2720057648e+00 
52300 6.4061592526e+00 -2.4248035913e-03 1.8891624240e+00 -3.2721253021e+00 1.8891624240e+00 3.2721253021e+00 
52400 6.4061606978e+00 -2.2398236630e-03 1.8892266010e+00 -3.2722364600e+00 1.8892266010e+00 3.2722364600e+00 
52500 6.4061622219e+00 -2.0529476306e-03 1.8892858802e+00 -3.2723391345e+00 1.8892858802e+00 3.2723391345e+00 
52600 6.4061638112e+00 -1.8645663719e-03 1.8893402118e+00 -3.2724332395e+00 1.8893402118e+00 3.2724332395e+00 
52700 6.4061654519e+00 -1.6750684966e-03 1.8893895563e+00 -3.2725187069e+00 1.8893895563e+00 3.2725187069e+00 
52800 6.4061671302e+00 -1.4848396278e-03 1.8894338848e+00 -3.2725954860e+00 1.8894338848e+00 3.2725954860e+00 
52900 6.4061688322e+00 -1.2942616965e-03 1.8894731782e+00 -3.2726635442e+00 1.8894731782e+00 3.2726635442e+00 
53000 6.4061705444e+00 -1.1037122504e-03 1.8895074276e+00 -3.2727228658e+00 1.8895074276e+00 3.2727228658e+00 
53100 6.4061722535e+00 -9.1356377786e-04 1.8895366340e+00 -3.2727734528e+00 1.8895366340e+00 3.2727734528e+00 
53200 6.4061739467e+00 -7.2418304793e-04 1.8895608083e+00 -3.2728153240e+00 1.8895608083e+00 3.2728153240e+00 
53300 6.4061756115e+00 -5.3593046862e-04 1.8895799711e+00 -3.2728485149e+00 1.8895799711e+00 3.2728485149e+00 
53400 6.4061772360e+00 -3.4915946357e-04 1.8895941523e+00 -3.2728730775e+00 1.8895941523e+00 3.2728730775e+00 
53500 6.4061788092e+00 -1.6421586868e-04 1.8896033913e+00 -3.2728890799e+00 1.8896033913e+00 3.2728890799e+00 
53600 6.4061803205e+00 1.8562650397e-05 1.8896077366e+00 -3.2728966061e+00 1.8896077366e+00 3.2728966061e+00 
53700 6.4061817603e+00 1.9931957336e-04 1.8896077366e+00 -3.2728966061e+00 1.8896077366e+00 3.2728966061e+00 
53800 6.4061831195e+00 3.7678154893e-04 1.8896024625e+00 -3.2728874711e+00 1.8896024625e+00 3.2728874711e+00 
53900 6.4061843902e+00 5.5112069921e-04 1.8895924926e+00 -3.2728702028e+00 1.8895924926e+00 3.2728702028e+00 
54000 6.4061855651e+00 7.2203735386e-04 1.8895779096e+00 -3.2728449443e+00 1.8895779096e+00 3.2728449443e+00 
54100 6.4061866381e+00 8.8924257947e-04 1.8895588038e+00 -3.2728118521e+00 1.8895588038e+00 3.2728118521e+00 
54200 6.4061876038e+00 1.0524586168e-03 1.8895352735e+00 -3.2727710963e+00 1.8895352735e+00 3.2727710963e+00 
54300 6.4061884582e+00 1.2114192907e-03 1.8895074239e+00 -3.2727228594e+00 1.8895074239e+00 3.2727228594e+00 
54400 6.4061891977e+00 1.3658703931e-03 1.8894753675e+00 -3.2726673361e+00 1.8894753675e+00 3.2726673361e+00 
54500 6.4061898203e+00 1.5155700364e-03 1.8894392234e+00 -3.2726047328e+00 1.8894392234e+00 3.2726047328e+00 
54600 6.4061903243e+00 1.6602889796e-03 1.8893991172e+00 -3.2725352668e+00 1.8893991172e+00 3.2725352668e+00 
54700 6.4061907096e+00 1.7998109240e-03 1.8893551804e+00 -3.2724591660e+00 1.8893551804e+00 3.2724591660e+00 
54800 6.4061909766e+00 1.9339327798e-03 1.8893075503e+00 -3.2723766683e+00 1.8893075503e+00 3.2723766683e+00 
54900 6.4061911268e+00 2.0624649027e-03 1.8892563696e+00 -3.2722880206e+00 1.8892563696e+00 3.2722880206e+00 
55000 6.4061911624e+00 2.1852313000e-03 1.8892017858e+00 -3.2721934787e+00 1.8892017858e+00 3.2721934787e+00 
55100 6.4061910866e+00 2.3020698066e-03 1.8891439513e+00 -3.2720933065e+00 1.8891439513e+00 3.2720933065e+00 
55200 6.4061909032e+00 2.4128322306e-03 1.8890830227e+00 -3.2719877751e+00 1.8890830227e+00 3.2719877751e+00 
55300 6.4061906169e+00 2.5173844678e-03 1.8890191606e+00 -3.2718771626e+00 1.8890191606e+00 3.2718771626e+00 
55400 6.4061902329e+00 2.6156065864e-03 1.8889525289e+00 -3.2717617531e+00 1.8889525289e+00 3.2717617531e+00 
55500 6.4061897572e+00 2.7073928807e-03 1.8888832950e+00 -3.2716418365e+00 1.8888832950e+00 3.2716418365e+00 
55600 6.4061891961e+00 2.7926518954e-03 1.8888116290e+00 -3.2715177073e+00 1.8888116290e+00 3.2715177073e+00 
55700 6.4061885566e+00 2.8713064191e-03 1.8887377033e+00 -3.2713896643e+00 1.8887377033e+00 3.2713896643e+00 
55800 6.4061878461e+00 2.9432934488e-03 1.8886616925e+00 -3.2712580098e+00 1.8886616925e+00 3.2712580098e+00 
55900 6.4061870721e+00 3.0085641253e-03 1.8885837730e+00 -3.2711230492e+00 1.8885837730e+00 3.2711230492e+00 
56000 6.4061862426e+00 3.0670836394e-03 1.8885041222e+00 -3.2709850900e+00 1.8885041222e+00 3.2709850900e+00 
56100 6.4061853659e+00 3.1188311103e-03 1.8884229188e+00 -3.2708444415e+00 1.8884229188e+00 3.2708444415e+00 
56200 6.4061844501e+00 3.1637994364e-03 1.8883403417e+00 -3.2707014138e+00 1.8883403417e+00 3.2707014138e+00 
56300 6.4061835036e+00 3.2019951194e-03 1.8882565704e+00 -3.2705563176e+00 1.8882565704e+00 3.2705563176e+00 
56400 6.4061825349e+00 3.2334380615e-03 1.8881717839e+00 -3.2704094632e+00 1.8881717839e+00 3.2704094632e+00 
56500 6.4061815522e+00 3.2581613384e-03 1.8880861610e+00 -3.2702611600e+00 1.8880861610e+00 3.2702611600e+00 
56600 6.4061805636e+00 3.2762109469e-03 1.8879998796e+00 -3.2701117161e+00 1.8879998796e+00 3.2701117161e+00 
56700 6.4061795772e+00 3.2876455291e-03 1.8879131162e+00 -3.2699614375e+00 1.8879131162e+00 3.2699614375e+00 
56800 6.4061786008e+00 3.2925360740e-03 1.8878260460e+00 -3.2698106275e+00 1.8878260460e+00 3.2698106275e+00 
56900 6.4061776417e+00 3.2909655974e-03 1.8877388422e+00 -3.2696595861e+00 1.8877388422e+00 3.2696595861e+00 
57000 6.4061767070e+00 3.2830288007e-03 1.8876516760e+00 -3.2695086098e+00 1.8876516760e+00 3.2695086098e+00 
57100 6.4061758035e+00 3.2688317113e-03 1.8875647160e+00 -3.2693579907e+00 1.8875647160e+00 3.2693579907e+00 
57200 6.4061749375e+00 3.2484913026e-03 1.8874781281e+00 -3.2692080160e+00 1.8874781281e+00 3.2692080160e+00 
57300 6.4061741148e+00 3.2221350986e-03 1.8873920750e+00 -3.2690589677e+00 1.8873920750e+00 3.2690589677e+00 
57400 6.4061733406e+00 3.1899007605e-03 1.8873067162e+00 -3.2689111219e+00 1.8873067162e+00 3.2689111219e+00 
57500 6.4061726197e+00 3.1519356600e-03 1.8872222075e+00 -3.2687647485e+00 1.8872222075e+00 3.2687647485e+00 
57600 6.4061719564e+00 3.1083964368e-03 1.8871387008e+00 -3.2686201107e+00 1.8871387008e+00 3.2686201107e+00 
57700 6.4061713543e+00 3.0594485452e-03 1.8870563440e+00 -3.2684774646e+00 1.8870563440e+00 3.2684774646e+00 
57800 6.4061708165e+00 3.0052657884e-03 1.8869752805e+00 -3.2683370585e+00 1.8869752805e+00 3.2683370585e+00 
57900 6.4061703455e+00 2.9460298422e-03 1.8868956493e+00 -3.2681991331e+00 1.8868956493e+00 3.2681991331e+00 
58000 6.4061699431e+00 2.8819297710e-03 1.8868175843e+00 -3.2680639206e+00 1.8868175843e+00 3.2680639206e+00 
58100 6.4061696107e+00 2.8131615345e-03 1.8867412147e+00 -3.2679316446e+00 1.8867412147e+00 3.2679316446e+00 
58200 6.4061693490e+00 2.7399274892e-03 1.8866666644e+00 -3.2678025196e+00 1.8866666644e+00 3.2678025196e+00 
58300 6.4061691581e+00 2.6624358835e-03 1.8865940519e+00 -3.2676767512e+00 1.8865940519e+00 3.2676767512e+00 
58400 6.4061690376e+00 2.5809003493e-03 1.8865234904e+00 -3.2675545350e+00 1.8865234904e+00 3.2675545350e+00 
58500 6.4061689866e+00 2.4955393908e-03 1.8864550872e+00 -3.2674360572e+00 1.8864550872e+00 3.2674360572e+00 
58600 6.4061690036e+00 2.4065758706e-03 1.8863889440e+00 -3.2673214938e+00 1.8863889440e+00 3.2673214938e+00 
58700 6.4061690866e+00 2.3142364963e-03 1.8863251564e+00 -3.2672110105e+00 1.8863251564e+00 3.2672110105e+00 
58800 6.4061692332e+00 2.2187513069e-03 1.8862638143e+00 -3.2671047628e+00 1.8862638143e+00 3.2671047628e+00 
58900 6.4061694407e+00 2.1203531608e-03 1.8862050012e+00 -3.2670028956e+00 1.8862050012e+00 3.2670028956e+00 
59000 6.4061697056e+00 2.0192772269e-03 1.8861487946e+00 -3.2669055429e+00 1.8861487946e+00 3.2669055429e+00 
59100 6.4061700245e+00 1.9157604789e-03 1.8860952658e+00 -3.2668128282e+00 1.8860952658e+00 3.2668128282e+00 
59200 6.4061703934e+00 1.8100411947e-03 1.8860444796e+00 -3.2667248640e+00 1.8860444796e+00 3.2667248640e+00 
59300 6.4061708082e+00 1.7023584612e-03 1.8859964947e+00 -3.2666417517e+00 1.8859964947e+00 3.2666417517e+00 
59400 6.4061712643e+00 1.5929516858e-03 1.8859513633e+00 -3.2665635819e+00 1.8859513633e+00 3.2665635819e+00 
59500 6.4061717572e+00 1.4820601156e-03 1.8859091314e+00 -3.2664904341e+00 1.8859091314e+00 3.2664904341e+00 
59600 6.4061722821e+00 1.3699223648e-03 1.8858698386e+00 -3.2664223769e+00 1.8858698386e+00 3.2664223769e+00 
59700 6.4061728340e+00 1.2567759512e-03 1.8858335180e+00 -3.2663594678e+00 1.8858335180e+00 3.2663594678e+00 
59800 6.4061734081e+00 1.1428568431e-03 1.8858001966e+00 -3.2663017534e+00 1.8858001966e+00 3.2663017534e+00 
59900 6.4061739992e+00 1.0283990165e-03 1.8857698950e+00 -3.2662492696e+00 1.8857698950e+00 3.2662492696e+00 
60000 6.4061746024e+00 9.1363402386e-04 1.8857426277e+00 -3.2662020412e+00 1.8857426277e+00 3.2662020412e+00 
60100 6.4061752128e+00 7.9879057512e-04 1.8857184030e+00 -3.2661600828e+00 1.8857184030e+00 3.2661600828e+00 
60200 6.4061758254e+00 6.8409413131e-04 1.8856972230e+00 -3.2661233980e+00 1.8856972230e+00 3.2661233980e+00 
60300 6.4061764356e+00 5.6976651139e-04 1.8856790840e+00 -3.2660919803e+00 1.8856790840e+00 3.2660919803e+00 
60400 6.4061770387e+00 4.5602551302e-04 1.8856639763e+00 -3.2660658130e+00 1.8856639763e+00 3.2660658130e+00 
60500 6.4061776304e+00 3.4308454756e-04 1.8856518844e+00 -3.2660448692e+00 1.8856518844e+00 3.2660448692e+00 
60600 6.4061782063e+00 2.3115228994e-04 1.8856427872e+00 -3.2660291124e+00 1.8856427872e+00 3.2660291124e+00 
60700 6.4061787627e+00 1.2043234355e-04 1.8856366579e+00 -3.2660184962e+00 1.8856366579e+00 3.2660184962e+00 
60800 6.4061792958e+00 1.1122920791e-05 1.8856334645e+00 -3.2660129650e+00 1.8856334645e+00 3.2660129650e+00 
60900 6.4061798021e+00 -9.6297222394e-05 1.8856334645e+00 -3.2660129650e+00 1.8856334645e+00 3.2660129650e+00 
61000 6.4061802785e+00 -2.0221956915e-04 1.8856360180e+00 -3.2660173877e+00 1.8856360180e+00 3.2660173877e+00 
61100 6.4061807224e+00 -3.0617160921e-04 1.8856413801e+00 -3.2660266752e+00 1.8856413801e+00 3.2660266752e+00 
61200 6.4061811313e+00 -4.0797960176e-04 1.8856494986e+00 -3.2660407368e+00 1.8856494986e+00 3.2660407368e+00 
61300 6.4061815030e+00 -5.0747654983e-04 1.8856603166e+00 -3.2660594742e+00 1.8856603166e+00 3.2660594742e+00 
61400 6.4061818358e+00 -6.0450242103e-04 1.8856737728e+00 -3.2660827811e+00 1.8856737728e+00 3.2660827811e+00 
61500 6.4061821284e+00 -6.9890435120e-04 1.8856898017e+00 -3.2661105438e+00 1.8856898017e+00 3.2661105438e+00 
61600 6.4061823795e+00 -7.9053683098e-04 1.8857083335e+00 -3.2661426419e+00 1.8857083335e+00 3.2661426419e+00 
61700 6.4061825886e+00 -8.7926187526e-04 1.8857292948e+00 -3.2661789479e+00 1.8857292948e+00 3.2661789479e+00 
61800 6.4061827553e+00 -9.6494917542e-04 1.8857526084e+00 -3.2662193283e+00 1.8857526084e+00 3.2662193283e+00 
61900 6.4061828795e+00 -1.0474762345e-03 1.8857781937e+00 -3.2662636434e+00 1.8857781937e+00 3.2662636434e+00 
62000 6.4061829616e+00 -1.1267284853e-03 1.8858059669e+00 -3.2663117478e+00 1.8858059669e+00 3.2663117478e+00 
62100 6.4061830022e+00 -1.2025993914e-03 1.8858358409e+00 -3.2663634911e+00 1.8858358409e+00 3.2663634911e+00 
62200 6.4061830022e+00 -1.2749905314e-03 1.8858677260e+00 -3.2664187178e+00 1.8858677260e+00 3.2664187178e+00 
62300 6.4061829628e+00 -1.3438116667e-03 1.8859015299e+00 -3.2664772679e+00 1.8859015299e+00 3.2664772679e+00 
62400 6.4061828855e+00 -1.4089807917e-03 1.8859371579e+00 -3.2665389773e+00 1.8859371579e+00 3.2665389773e+00 
62500 6.4061827722e+00 -1.4704241695e-03 1.8859745129e+00 -3.2666036782e+00 1.8859745129e+00 3.2666036782e+00 
62600 6.4061826246e+00 -1.5280763493e-03 1.8860134962e+00 -3.2666711992e+00 1.8860134962e+00 3.2666711992e+00 
62700 6.4061824450e+00 -1.5818801695e-03 1.8860540071e+00 -3.2667413661e+00 1.8860540071e+00 3.2667413661e+00 
62800 6.4061822358e+00 -1.6317867443e-03 1.8860959435e+00 -3.2668140020e+00 1.8860959435e+00 3.2668140020e+00 
62900 6.4061819995e+00 -1.6777554354e-03 1.8861392020e+00 -3.2668889279e+00 1.8861392020e+00 3.2668889279e+00 
63000 6.4061817388e+00 -1.7197538085e-03 1.8861836781e+00 -3.2669659628e+00 1.8861836781e+00 3.2669659628e+00 
63100 6.4061814563e+00 -1.7577575746e-03 1.8862292664e+00 -3.2670449242e+00 1.8862292664e+00 3.2670449242e+00 
63200 6.4061811550e+00 -1.7917505178e-03 1.8862758611e+00 -3.2671256285e+00 1.8862758611e+00 3.2671256285e+00 
63300 6.4061808379e+00 -1.8217244084e-03 1.8863233557e+00 -3.2672078916e+00 1.8863233557e+00 3.2672078916e+00 
63400 6.4061805078e+00 -1.8476789022e-03 1.8863716436e+00 -3.2672915287e+00 1.8863716436e+00 3.2672915287e+00 
63500 6.4061801677e+00 -1.8696214274e-03 1.8864206182e+00 -3.2673763552e+00 1.8864206182e+00 3.2673763552e+00 
63600 6.4061798206e+00 -1.8875670575e-03 1.8864701732e+00 -3.2674621869e+00 1.8864701732e+00 3.2674621869e+00 
63700 6.4061794695e+00 -1.9015383729e-03 1.8865202025e+00 -3.2675488402e+00 1.8865202025e+00 3.2675488402e+00 
63800 6.4061791173e+00 -1.9115653092e-03 1.8865706007e+00 -3.2676361325e+00 1.8865706007e+00 3.2676361325e+00 
63900 6.4061787666e+00 -1.9176849954e-03 1.8866212634e+00 -3.2677238828e+00 1.8866212634e+00 3.2677238828e+00 
64000 6.4061784204e+00 -1.9199415794e-03 1.8866720869e+00 -3.2678119117e+00 1.8866720869e+00 3.2678119117e+00 
64100 6.4061780811e+00 -1.9183860446e-03 1.8867229688e+00 -3.2679000418e+00 1.8867229688e+00 3.2679000418e+00 
64200 6.4061777512e+00 -1.9130760145e-03 1.8867738081e+00 -3.2679880981e+00 1.8867738081e+00 3.2679880981e+00 
64300 6.4061774332e+00 -1.9040755492e-03 1.8868245054e+00 -3.2680759083e+00 1.8868245054e+00 3.2680759083e+00 
64400 6.4061771291e+00 -1.8914549319e-03 1.8868749628e+00 -3.2681633030e+00 1.8868749628e+00 3.2681633030e+00 
64500 6.4061768409e+00 -1.8752904466e-03 1.8869250843e+00 -3.2682501162e+00 1.8869250843e+00 3.2682501162e+00 
64600 6.4061765706e+00 -1.8556641485e-03 1.8869747763e+00 -3.2683361851e+00 1.8869747763e+00 3.2683361851e+00 
64700 6.4061763196e+00 -1.8326636257e-03 1.8870239468e+00 -3.2684213510e+00 1.8870239468e+00 3.2684213510e+00 
64800 6.4061760895e+00 -1.8063817546e-03 1.8870725067e+00 -3.2685054591e+00 1.8870725067e+00 3.2685054591e+00 
64900 6.4061758815e+00 -1.7769164485e-03 1.8871203689e+00 -3.2685883589e+00 1.8871203689e+00 3.2685883589e+00 
65000 6.4061756967e+00 -1.7443703997e-03 1.8871674492e+00 -3.2686699044e+00 1.8871674492e+00 3.2686699044e+00 
65100 6.4061755357e+00 -1.7088508169e-03 1.8872136660e+00 -3.2687499542e+00 1.8872136660e+00 3.2687499542e+00 
65200 6.4061753993e+00 -1.6704691571e-03 1.8872589406e+00 -3.2688283722e+00 1.8872589406e+00 3.2688283722e+00 
65300 6.4061752878e+00 -1.6293408531e-03 1.8873031973e+00 -3.2689050270e+00 1.8873031973e+00 3.2689050270e+00 
65400 6.4061752015e+00 -1.5855850375e-03 1.8873463633e+00 -3.2689797927e+00 1.8873463633e+00 3.2689797927e+00 
65500 6.4061751403e+00 -1.5393242631e-03 1.8873883691e+00 -3.2690525489e+00 1.8873883691e+00 3.2690525489e+00 
65600 6.4061751040e+00 -1.4906842203e-03 1.8874291485e+00 -3.2691231808e+00 1.8874291485e+00 3.2691231808e+00 
65700 6.4061750923e+00 -1.4397934531e-03 1.8874686384e+00 -3.2691915794e+00 1.8874686384e+00 3.2691915794e+00 
65800 6.4061751045e+00 -1.3867830724e-03 1.8875067794e+00 -3.2692576416e+00 1.8875067794e+00 3.2692576416e+00 
65900 6.4061751401e+00 -1.3317864690e-03 1.8875435154e+00 -3.2693212701e+00 1.8875435154e+00 3.2693212701e+00 
66000 6.4061751979e+00 -1.2749390255e-03 1.8875787938e+00 -3.2693823741e+00 1.8875787938e+00 3.2693823741e+00 
66100 6.4061752771e+00 -1.2163778285e-03 1.8876125657e+00 -3.2694408688e+00 1.8876125657e+00 3.2694408688e+00 
66200 6.4061753764e+00 -1.1562413808e-03 1.8876447858e+00 -3.2694966756e+00 1.8876447858e+00 3.2694966756e+00 
66300 6.4061754945e+00 -1.0946693154e-03 1.8876754124e+00 -3.2695497225e+00 1.8876754124e+00 3.2695497225e+00 
66400 6.4061756300e+00 -1.0318021103e-03 1.8877044077e+00 -3.2695999438e+00 1.8877044077e+00 3.2695999438e+00 
66500 6.4061757814e+00 -9.6778080547e-04 1.8877317373e+00 -3.2696472800e+00 1.8877317373e+00 3.2696472800e+00 
66600 6.4061759472e+00 -9.0274672280e-04 1.8877573708e+00 -3.2696916785e+00 1.8877573708e+00 3.2696916785e+00 
66700 6.4061761256e+00 -8.3684118862e-04 1.8877812814e+00 -3.2697330929e+00 1.8877812814e+00 3.2697330929e+00 
66800 6.4061763149e+00 -7.7020525997e-04 1.8878034461e+00 -3.2697714834e+00 1.8878034461e+00 3.2697714834e+00 
66900 6.4061765135e+00 -7.0297945485e-04 1.8878238457e+00 -3.2698068164e+00 1.8878238457e+00 3.2698068164e+00 
67000 6.4061767195e+00 -6.3530348695e-04 1.8878424645e+00 -3.2698390651e+00 1.8878424645e+00 3.2698390651e+00 
67100 6.4061769311e+00 -5.6731600531e-04 1.8878592907e+00 -3.2698682090e+00 1.8878592907e+00 3.2698682090e+00 
67200 6.4061771467e+00 -4.9915433933e-04 1.8878743161e+00 -3.2698942337e+00 1.8878743161e+00 3.2698942337e+00 
67300 6.4061773644e+00 -4.3095424956e-04 1.8878875361e+00 -3.2699171315e+00 1.8878875361e+00 3.2699171315e+00 
67400 6.4061775825e+00 -3.6284968480e-04 1.8878989498e+00 -3.2699369005e+00 1.8878989498e+00 3.2699369005e+00 
67500 6.4061777994e+00 -2.9497254570e-04 1.8879085596e+00 -3.2699535454e+00 1.8879085596e+00 3.2699535454e+00 
67600 6.4061780135e+00 -2.2745245536e-04 1.8879163718e+00 -3.2699670764e+00 1.8879163718e+00 3.2699670764e+00 
67700 6.4061782231e+00 -1.6041653738e-04 1.8879223957e+00 -3.2699775101e+00 1.8879223957e+00 3.2699775101e+00 
67800 6.4061784268e+00 -9.3989201489e-05 1.8879266442e+00 -3.2699848687e+00 1.8879266442e+00 3.2699848687e+00 
67900 6.4061786233e+00 -2.8291937317e-05 1.8879291334e+00 -3.2699891802e+00 1.8879291334e+00 3.2699891802e+00 
68000 6.4061788112e+00 3.5833518161e-05 1.8879291334e+00 -3.2699891802e+00 1.8879291334e+00 3.2699891802e+00 
68100 6.4061789894e+00 1.0064880883e-04 1.8879291334e+00 -3.2699891802e+00 1.8879291334e+00 3.2699891802e+00 
68200 6.4061791568e+00 1.6345424941e-04 1.8879264678e+00 -3.2699845632e+00 1.8879264678e+00 3.2699845632e+00 
68300 6.4061793124e+00 2.2507707589e-04 1.8879221389e+00 -3.2699770653e+00 1.8879221389e+00 3.2699770653e+00 
68400 6.4061794554e+00 2.8541316488e-04 1.8879161779e+00 -3.2699667406e+00 1.8879161779e+00 3.2699667406e+00 
68500 6.4061795850e+00 3.4436236692e-04 1.8879086190e+00 -3.2699536481e+00 1.8879086190e+00 3.2699536481e+00 
68600 6.4061797006e+00 4.0182864887e-04 1.8878994988e+00 -3.2699378515e+00 1.8878994988e+00 3.2699378515e+00 
68700 6.4061798018e+00 4.5772022632e-04 1.8878888566e+00 -3.2699194187e+00 1.8878888566e+00 3.2699194187e+00 
68800 6.4061798882e+00 5.1194968588e-04 1.8878767341e+00 -3.2698984218e+00 1.8878767341e+00 3.2698984218e+00 
68900 6.4061799596e+00 5.6443409727e-04 1.8878631752e+00 -3.2698749372e+00 1.8878631752e+00 3.2698749372e+00 
69000 6.4061800159e+00 6.1509511506e-04 1.8878482262e+00 -3.2698490448e+00 1.8878482262e+00 3.2698490448e+00 
69100 6.4061800570e+00 6.6385906989e-04 1.8878319353e+00 -3.2698208281e+00 1.8878319353e+00 3.2698208281e+00 
69200 6.4061800831e+00 7.1065704938e-04 1.8878143528e+00 -3.2697903742e+00 1.8878143528e+00 3.2697903742e+00 
69300 6.4061800945e+00 7.5542496841e-04 1.8877955306e+00 -3.2697577733e+00 1.8877955306e+00 3.2697577733e+00 
69400 6.4061800915e+00 7.9810362885e-04 1.8877755225e+00 -3.2697231182e+00 1.8877755225e+00 3.2697231182e+00 
69500 6.4061800746e+00 8.3863876886e-04 1.8877543838e+00 -3.2696865049e+00 1.8877543838e+00 3.2696865049e+00 
69600 6.4061800443e+00 8.7698110164e-04 1.8877321712e+00 -3.2696480317e+00 1.8877321712e+00 3.2696480317e+00 
69700 6.4061800012e+00 9.1308634376e-04 1.8877089429e+00 -3.2696077989e+00 1.8877089429e+00 3.2696077989e+00 
69800 6.4061799461e+00 9.4691523313e-04 1.8876847579e+00 -3.2695659093e+00 1.8876847579e+00 3.2695659093e+00 
69900 6.4061798797e+00 9.7843353666e-04 1.8876596765e+00 -3.2695224671e+00 1.8876596765e+00 3.2695224671e+00 
70000 6.4061798029e+00 1.0076120479e-03 1.8876337600e+00 -3.2694775784e+00 1.8876337600e+00 3.2694775784e+00 
70100 6.4061797166e+00 1.0344265744e-03 1.8876070703e+00 -3.2694313504e+00 1.8876070703e+00 3.2694313504e+00 
70200 6.4061796218e+00 1.0588579157e-03 1.8875796698e+00 -3.2693838915e+00 1.8875796698e+00 3.2693838915e+00 
70300 6.4061795195e+00 1.0808918310e-03 1.8875516219e+00 -3.2693353110e+00 1.8875516219e+00 3.2693353110e+00 
70400 6.4061794106e+00 1.1005189976e-03 1.8875229898e+00 -3.2692857189e+00 1.8875229898e+00 3.2692857189e+00 
70500 6.4061792963e+00 1.1177349607e-03 1.8874938375e+00 -3.2692352254e+00 1.8874938375e+00 3.2692352254e+00 
70600 6.4061791775e+00 1.1325400730e-03 1.8874642286e+00 -3.2691839413e+00 1.8874642286e+00 3.2691839413e+00 
70700 6.4061790555e+00 1.1449394262e-03 1.8874342270e+00 -3.2691319771e+00 1.8874342270e+00 3.2691319771e+00 
70800 6.4061789311e+00 1.1549427740e-03 1.8874038965e+00 -3.2690794432e+00 1.8874038965e+00 3.2690794432e+00 
70900 6.4061788056e+00 1.1625644466e-03 1.8873733005e+00 -3.2690264494e+00 1.8873733005e+00 3.2690264494e+00 
71000 6.4061786798e+00 1.1678232574e-03 1.8873425021e+00 -3.2689731050e+00 1.8873425021e+00 3.2689731050e+00 
71100 6.4061785548e+00 1.1707424016e-03 1.8873115639e+00 -3.2689195184e+00 1.8873115639e+00 3.2689195184e+00 
71200 6.4061784316e+00 1.1713493481e-03 1.8872805479e+00 -3.2688657970e+00 1.8872805479e+00 3.2688657970e+00 
71300 6.4061783111e+00 1.1696757241e-03 1.8872495152e+00 -3.2688120469e+00 1.8872495152e+00 3.2688120469e+00 
71400 6.4061781941e+00 1.1657571926e-03 1.8872185264e+00 -3.2687583727e+00 1.8872185264e+00 3.2687583727e+00 
71500 6.4061780815e+00 1.1596333244e-03 1.8871876409e+00 -3.2687048775e+00 1.8871876409e+00 3.2687048775e+00 
71600 6.4061779741e+00 1.1513474633e-03 1.8871569171e+00 -3.2686516623e+00 1.8871569171e+00 3.2686516623e+00 
71700 6.4061778725e+00 1.1409465860e-03 1.8871264124e+00 -3.2685988266e+00 1.8871264124e+00 3.2685988266e+00 
71800 6.4061777774e+00 1.1284811570e-03 1.8870961828e+00 -3.2685464673e+00 1.8870961828e+00 3.2685464673e+00 
71900 6.4061776894e+00 1.1140049785e-03 1.8870662829e+00 -3.2684946792e+00 1.8870662829e+00 3.2684946792e+00 
72000 6.4061776090e+00 1.0975750353e-03 1.8870367661e+00 -3.2684435547e+00 1.8870367661e+00 3.2684435547e+00 
72100 6.4061775365e+00 1.0792513362e-03 1.8870076842e+00 -3.2683931833e+00 1.8870076842e+00 3.2683931833e+00 
72200 6.4061774724e+00 1.0590967516e-03 1.8869790874e+00 -3.2683436522e+00 1.8869790874e+00 3.2683436522e+00 
72300 6.4061774169e+00 1.0371768477e-03 1.8869510242e+00 -3.2682950453e+00 1.8869510242e+00 3.2682950453e+00 
72400 6.4061773703e+00 1.0135597173e-03 1.8869235414e+00 -3.2682474436e+00 1.8869235414e+00 3.2682474436e+00 
72500 6.4061773325e+00 9.8831580883e-04 1.8868966840e+00 -3.2682009253e+00 1.8868966840e+00 3.2682009253e+00 
72600 6.4061773038e+00 9.6151775285e-04 1.8868704951e+00 -3.2681555648e+00 1.8868704951e+00 3.2681555648e+00 
72700 6.4061772841e+00 9.3324018658e-04 1.8868450160e+00 -3.2681114337e+00 1.8868450160e+00 3.2681114337e+00 
72800 6.4061772733e+00 9.0355957735e-04 1.8868202859e+00 -3.2680685999e+00 1.8868202859e+00 3.2680685999e+00 
72900 6.4061772712e+00 8.7255404493e-04 1.8867963419e+00 -3.2680271278e+00 1.8867963419e+00 3.2680271278e+00 
73000 6.4061772776e+00 8.4030318316e-04 1.8867732194e+00 -3.2679870783e+00 1.8867732194e+00 3.2679870783e+00 
73100 6.4061772923e+00 8.0688788146e-04 1.8867509511e+00 -3.2679485086e+00 1.8867509511e+00 3.2679485086e+00 
73200 6.4061773149e+00 7.7239014631e-04 1.8867295682e+00 -3.2679114722e+00 1.8867295682e+00 3.2679114722e+00 
73300 6.4061773450e+00 7.3689292328e-04 1.8867090992e+00 -3.2678760189e+00 1.8867090992e+00 3.2678760189e+00 
73400 6.4061773822e+00 7.0047991985e-04 1.8866895707e+00 -3.2678421946e+00 1.8866895707e+00 3.2678421946e+00 
73500 6.4061774260e+00 6.6323542940e-04 1.8866710070e+00 -3.2678100413e+00 1.8866710070e+00 3.2678100413e+00 
73600 6.4061774759e+00 6.2524415666e-04 1.8866534302e+00 -3.2677795973e+00 1.8866534302e+00 3.2677795973e+00 
73700 6.4061775314e+00 5.8659104505e-04 1.8866368600e+00 -3.2677508970e+00 1.8866368600e+00 3.2677508970e+00 
73800 6.4061775919e+00 5.4736110610e-04 1.8866213141e+00 -3.2677239706e+00 1.8866213141e+00 3.2677239706e+00 
73900 6.4061776567e+00 5.0763925138e-04 1.8866068077e+00 -3.2676988449e+00 1.8866068077e+00 3.2676988449e+00 
74000 6.4061777253e+00 4.6751012710e-04 1.8865933540e+00 -3.2676755423e+00 1.8865933540e+00 3.2676755423e+00 
74100 6.4061777970e+00 4.2705795181e-04 1.8865809636e+00 -3.2676540816e+00 1.8865809636e+00 3.2676540816e+00 
74200 6.4061778712e+00 3.8636635739e-04 1.8865696454e+00 -3.2676344778e+00 1.8865696454e+00 3.2676344778e+00 
74300 6.4061779473e+00 3.4551823358e-04 1.8865594054e+00 -3.2676167417e+00 1.8865594054e+00 3.2676167417e+00 
74400 6.4061780246e+00 3.0459557636e-04 1.8865502481e+00 -3.2676008807e+00 1.8865502481e+00 3.2676008807e+00 
74500 6.4061781025e+00 2.6367934040e-04 1.8865421753e+00 -3.2675868982e+00 1.8865421753e+00 3.2675868982e+00 
74600 6.4061781804e+00 2.2284929577e-04 1.8865351869e+00 -3.2675747939e+00 1.8865351869e+00 3.2675747939e+00 
74700 6.4061782577e+00 1.8218388913e-04 1.8865292805e+00 -3.2675645639e+00 1.8865292805e+00 3.2675645639e+00 
74800 6.4061783338e+00 1.4176010973e-04 1.8865244520e+00 -3.2675562006e+00 1.8865244520e+00 3.2675562006e+00 
74900 6.4061784083e+00 1.0165336015e-04 1.8865206948e+00 -3.2675496930e+00 1.8865206948e+00 3.2675496930e+00 
75000 6.4061784805e+00 6.1937332210e-05 1.8865180006e+00 -3.2675450265e+00 1.8865180006e+00 3.2675450265e+00 
75100 6.4061785499e+00 2.4273921919e-05 1.8865180006e+00 -3.2675450265e+00 1.8865180006e+00 3.2675450265e+00 
75200 6.4061786160e+00 -1.3854437119e-05 1.8865180006e+00 -3.2675450265e+00 1.8865180006e+00 3.2675450265e+00 
75300 6.4061786786e+00 -5.2370695188e-05 1.8865180006e+00 -3.2675450265e+00 1.8865180006e+00 3.2675450265e+00 
75400 6.4061787373e+00 -9.1199444760e-05 1.8865180006e+00 -3.2675450265e+00 1.8865180006e+00 3.2675450265e+00 
75500 6.4061787917e+00 -1.2792605084e-04 1.8865204178e+00 -3.2675492131e+00 1.8865204178e+00 3.2675492131e+00 
75600 6.4061788416e+00 -1.6386184061e-04 1.8865238083e+00 -3.2675550856e+00 1.8865238083e+00 3.2675550856e+00 
75700 6.4061788865e+00 -1.9894815265e-04 1.8865281512e+00 -3.2675626079e+00 1.8865281512e+00 3.2675626079e+00 
75800 6.4061789265e+00 -2.3312882837e-04 1.8865334241e+00 -3.2675717407e+00 1.8865334241e+00 3.2675717407e+00 
75900 6.4061789612e+00 -2.6635028491e-04 1.8865396029e+00 -3.2675824427e+00 1.8865396029e+00 3.2675824427e+00 
76000 6.4061789907e+00 -2.9856158180e-04 1.8865466621e+00 -3.2675946696e+00 1.8865466621e+00 3.2675946696e+00 
76100 6.4061790148e+00 -3.2971448166e-04 1.8865545750e+00 -3.2676083752e+00 1.8865545750e+00 3.2676083752e+00 
76200 6.4061790334e+00 -3.5976350463e-04 1.8865633136e+00 -3.2676235108e+00 1.8865633136e+00 3.2676235108e+00 
76300 6.4061790467e+00 -3.8866597672e-04 1.8865728485e+00 -3.2676400257e+00 1.8865728485e+00 3.2676400257e+00 
76400 6.4061790547e+00 -4.1638207191e-04 1.8865831493e+00 -3.2676578673e+00 1.8865831493e+00 3.2676578673e+00 
76500 6.4061790574e+00 -4.4287484824e-04 1.8865941847e+00 -3.2676769811e+00 1.8865941847e+00 3.2676769811e+00 
76600 6.4061790551e+00 -4.6811027766e-04 1.8866059221e+00 -3.2676973110e+00 1.8866059221e+00 3.2676973110e+00 
76700 6.4061790478e+00 -4.9205726986e-04 1.8866183283e+00 -3.2677187991e+00 1.8866183283e+00 3.2677187991e+00 
76800 6.4061790358e+00 -5.1468769011e-04 1.8866313690e+00 -3.2677413863e+00 1.8866313690e+00 3.2677413863e+00 
76900 6.4061790193e+00 -5.3597637104e-04 1.8866450094e+00 -3.2677650122e+00 1.8866450094e+00 3.2677650122e+00 
77000 6.4061789986e+00 -5.5590111859e-04 1.8866592139e+00 -3.2677896151e+00 1.8866592139e+00 3.2677896151e+00 
77100 6.4061789740e+00 -5.7444271211e-04 1.8866739464e+00 -3.2678151324e+00 1.8866739464e+00 3.2678151324e+00 
77200 6.4061789457e+00 -5.9158489872e-04 1.8866891701e+00 -3.2678415007e+00 1.8866891701e+00 3.2678415007e+00 
77300 6.4061789142e+00 -6.0731438200e-04 1.8867048480e+00 -3.2678686555e+00 1.8867048480e+00 3.2678686555e+00 
77400 6.4061788797e+00 -6.2162080526e-04 1.8867209426e+00 -3.2678965322e+00 1.8867209426e+00 3.2678965322e+00 
77500 6.4061788426e+00 -6.3449672925e-04 1.8867374162e+00 -3.2679250653e+00 1.8867374162e+00 3.2679250653e+00 
77600 6.4061788033e+00 -6.4593760465e-04 1.8867542308e+00 -3.2679541892e+00 1.8867542308e+00 3.2679541892e+00 
77700 6.4061787622e+00 -6.5594173942e-04 1.8867713486e+00 -3.2679838380e+00 1.8867713486e+00 3.2679838380e+00 
77800 6.4061787196e+00 -6.6451026102e-04 1.8867887312e+00 -3.2680139456e+00 1.8867887312e+00 3.2680139456e+00 
77900 6.4061786759e+00 -6.7164707387e-04 1.8868063408e+00 -3.2680444463e+00 1.8868063408e+00 3.2680444463e+00 
78000 6.4061786315e+00 -6.7735881198e-04 1.8868241394e+00 -3.2680752743e+00 1.8868241394e+00 3.2680752743e+00 
78100 6.4061785868e+00 -6.8165478711e-04 1.8868420891e+00 -3.2681063642e+00 1.8868420891e+00 3.2681063642e+00 
78200 6.4061785420e+00 -6.8454693240e-04 1.8868601525e+00 -3.2681376509e+00 1.8868601525e+00 3.2681376509e+00 
78300 6.4061784977e+00 -6.8604974185e-04 1.8868782924e+00 -3.2681690701e+00 1.8868782924e+00 3.2681690701e+00 
78400 6.4061784541e+00 -6.8618020573e-04 1.8868964719e+00 -3.2682005579e+00 1.8868964719e+00 3.2682005579e+00 
78500 6.4061784115e+00 -6.8495774209e-04 1.8869146547e+00 -3.2682320515e+00 1.8869146547e+00 3.2682320515e+00 
78600 6.4061783702e+00 -6.8240412455e-04 1.8869328049e+00 -3.2682634886e+00 1.8869328049e+00 3.2682634886e+00 
78700 6.4061783306e+00 -6.7854340663e-04 1.8869508873e+00 -3.2682948082e+00 1.8869508873e+00 3.2682948082e+00 
78800 6.4061782930e+00 -6.7340184276e-04 1.8869688672e+00 -3.2683259504e+00 1.8869688672e+00 3.2683259504e+00 
78900 6.4061782574e+00 -6.6700780611e-04 1.8869867107e+00 -3.2683568562e+00 1.8869867107e+00 3.2683568562e+00 
79000 6.4061782242e+00 -6.5939170360e-04 1.8870043847e+00 -3.2683874683e+00 1.8870043847e+00 3.2683874683e+00 
79100 6.4061781936e+00 -6.5058588808e-04 1.8870218566e+00 -3.2684177306e+00 1.8870218566e+00 3.2684177306e+00 
79200 6.4061781657e+00 -6.4062456810e-04 1.8870390951e+00 -3.2684475885e+00 1.8870390951e+00 3.2684475885e+00 
79300 6.4061781407e+00 -6.2954371529e-04 1.8870560694e+00 -3.2684769890e+00 1.8870560694e+00 3.2684769890e+00 
79400 6.4061781187e+00 -6.1738096974e-04 1.8870727500e+00 -3.2685058806e+00 1.8870727500e+00 3.2685058806e+00 
79500 6.4061780998e+00 -6.0417554331e-04 1.8870891082e+00 -3.2685342138e+00 1.8870891082e+00 3.2685342138e+00 
79600 6.4061780840e+00 -5.8996812149e-04 1.8871051164e+00 -3.2685619408e+00 1.8871051164e+00 3.2685619408e+00 
79700 6.4061780715e+00 -5.7480076360e-04 1.8871207480e+00 -3.2685890155e+00 1.8871207480e+00 3.2685890155e+00 
79800 6.4061780621e+00 -5.5871680182e-04 1.8871359775e+00 -3.2686153939e+00 1.8871359775e+00 3.2686153939e+00 
79900 6.4061780559e+00 -5.4176073915e-04 1.8871507809e+00 -3.2686410340e+00 1.8871507809e+00 3.2686410340e+00 
80000 6.4061780529e+00 -5.2397814648e-04 1.8871651348e+00 -3.2686658958e+00 1.8871651348e+00 3.2686658958e+00 
80100 6.4061780530e+00 -5.0541555911e-04 1.8871790175e+00 -3.2686899413e+00 1.8871790175e+00 3.2686899413e+00 
80200 6.4061780560e+00 -4.8612037277e-04 1.8871924083e+00 -3.2687131348e+00 1.8871924083e+00 3.2687131348e+00 
80300 6.4061780620e+00 -4.6614073941e-04 1.8872052878e+00 -3.2687354427e+00 1.8872052878e+00 3.2687354427e+00 
80400 6.4061780708e+00 -4.4552546306e-04 1.8872176378e+00 -3.2687568336e+00 1.8872176378e+00 3.2687568336e+00 
80500 6.4061780822e+00 -4.2432389570e-04 1.8872294416e+00 -3.2687772784e+00 1.8872294416e+00 3.2687772784e+00 
80600 6.4061780961e+00 -4.0258583368e-04 1.8872406836e+00 -3.2687967501e+00 1.8872406836e+00 3.2687967501e+00 
80700 6.4061781123e+00 -3.8036141459e-04 1.8872513496e+00 -3.2688152241e+00 1.8872513496e+00 3.2688152241e+00 
80800 6.4061781307e+00 -3.5770101490e-04 1.8872614267e+00 -3.2688326782e+00 1.8872614267e+00 3.2688326782e+00 
80900 6.4061781509e+00 -3.3465514862e-04 1.8872709034e+00 -3.2688490924e+00 1.8872709034e+00 3.2688490924e+00 
81000 6.4061781729e+00 -3.1127436699e-04 1.8872797696e+00 -3.2688644490e+00 1.8872797696e+00 3.2688644490e+00 
81100 6.4061781964e+00 -2.8760915953e-04 1.8872880162e+00 -3.2688787326e+00 1.8872880162e+00 3.2688787326e+00 
81200 6.4061782211e+00 -2.6370985656e-04 1.8872956359e+00 -3.2688919302e+00 1.8872956359e+00 3.2688919302e+00 
81300 6.4061782470e+00 -2.3962653335e-04 1.8873026223e+00 -3.2689040311e+00 1.8873026223e+00 3.2689040311e+00 
81400 6.4061782736e+00 -2.1540891611e-04 1.8873089707e+00 -3.2689150268e+00 1.8873089707e+00 3.2689150268e+00 
81500 6.4061783009e+00 -1.9110628991e-04 1.8873146775e+00 -3.2689249113e+00 1.8873146775e+00 3.2689249113e+00 
81600 6.4061783286e+00 -1.6676740874e-04 1.8873197404e+00 -3.2689336805e+00 1.8873197404e+00 3.2689336805e+00 
81700 6.4061783564e+00 -1.4244040787e-04 1.8873241585e+00 -3.2689413329e+00 1.8873241585e+00 3.2689413329e+00 
81800 6.4061783841e+00 -1.1817271856e-04 1.8873279321e+00 -3.2689478690e+00 1.8873279321e+00 3.2689478690e+00 
81900 6.4061784117e+00 -9.4010985340e-05 1.8873310628e+00 -3.2689532915e+00 1.8873310628e+00 3.2689532915e+00 
82000 6.4061784387e+00 -7.0000985983e-05 1.8873335534e+00 -3.2689576053e+00 1.8873335534e+00 3.2689576053e+00 
82100 6.4061784651e+00 -4.7980289836e-05 1.8873335534e+00 -3.2689576053e+00 1.8873335534e+00 3.2689576053e+00 
82200 6.4061784906e+00 -2.5601828764e-05 1.8873335534e+00 -3.2689576053e+00 1.8873335534e+00 3.2689576053e+00 
82300 6.4061785150e+00 -2.9127037093e-06 1.8873335534e+00 -3.2689576053e+00 1.8873335534e+00 3.2689576053e+00 
82400 6.4061785382e+00 2.0040857424e-05 1.8873335534e+00 -3.2689576053e+00 1.8873335534e+00 3.2689576053e+00 
82500 6.4061785601e+00 4.3213548032e-05 1.8873335534e+00 -3.2689576053e+00 1.8873335534e+00 3.2689576053e+00 
82600 6.4061785807e+00 6.6561028390e-05 1.8873335534e+00 -3.2689576053e+00 1.8873335534e+00 3.2689576053e+00 
82700 6.4061785999e+00 9.0039968512e-05 1.8873335534e+00 -3.2689576053e+00 1.8873335534e+00 3.2689576053e+00 
82800 6.4061786173e+00 1.1130184475e-04 1.8873311680e+00 -3.2689534737e+00 1.8873311680e+00 3.2689534737e+00 
82900 6.4061786329e+00 1.3205199567e-04 1.8873282193e+00 -3.2689483665e+00 1.8873282193e+00 3.2689483665e+00 
83000 6.4061786468e+00 1.5225702365e-04 1.8873247210e+00 -3.2689423071e+00 1.8873247210e+00 3.2689423071e+00 
83100 6.4061786588e+00 1.7188507240e-04 1.8873206873e+00 -3.2689353206e+00 1.8873206873e+00 3.2689353206e+00 
83200 6.4061786689e+00 1.9090586754e-04 1.8873161336e+00 -3.2689274334e+00 1.8873161336e+00 3.2689274334e+00 
83300 6.4061786771e+00 2.0929075361e-04 1.8873110760e+00 -3.2689186733e+00 1.8873110760e+00 3.2689186733e+00 
83400 6.4061786834e+00 2.2701272739e-04 1.8873055313e+00 -3.2689090697e+00 1.8873055313e+00 3.2689090697e+00 
83500 6.4061786877e+00 2.4404646749e-04 1.8872995171e+00 -3.2688986528e+00 1.8872995171e+00 3.2688986528e+00 
83600 6.4061786902e+00 2.6036836017e-04 1.8872930516e+00 -3.2688874542e+00 1.8872930516e+00 3.2688874542e+00 
83700 6.4061786908e+00 2.7595652160e-04 1.8872861537e+00 -3.2688755067e+00 1.8872861537e+00 3.2688755067e+00 
83800 6.4061786896e+00 2.9079081625e-04 1.8872788428e+00 -3.2688628438e+00 1.8872788428e+00 3.2688628438e+00 
83900 6.4061786867e+00 3.0485287167e-04 1.8872711388e+00 -3.2688495001e+00 1.8872711388e+00 3.2688495001e+00 
84000 6.4061786821e+00 3.1812608961e-04 1.8872630623e+00 -3.2688355111e+00 1.8872630623e+00 3.2688355111e+00 
84100 6.4061786759e+00 3.3059565341e-04 1.8872546340e+00 -3.2688209130e+00 1.8872546340e+00 3.2688209130e+00 
84200 6.4061786682e+00 3.4224853188e-04 1.8872458754e+00 -3.2688057426e+00 1.8872458754e+00 3.2688057426e+00 
84300 6.4061786592e+00 3.5307347956e-04 1.8872368080e+00 -3.2687900374e+00 1.8872368080e+00 3.2687900374e+00 
84400 6.4061786489e+00 3.6306103346e-04 1.8872274538e+00 -3.2687738354e+00 1.8872274538e+00 3.2687738354e+00 
84500 6.4061786374e+00 3.7220350635e-04 1.8872178349e+00 -3.2687571750e+00 1.8872178349e+00 3.2687571750e+00 
84600 6.4061786250e+00 3.8049497663e-04 1.8872079737e+00 -3.2687400949e+00 1.8872079737e+00 3.2687400949e+00 
84700 6.4061786116e+00 3.8793127488e-04 1.8871978928e+00 -3.2687226343e+00 1.8871978928e+00 3.2687226343e+00 
84800 6.4061785975e+00 3.9450996716e-04 1.8871876149e+00 -3.2687048324e+00 1.8871876149e+00 3.2687048324e+00 
84900 6.4061785827e+00 4.0023033506e-04 1.8871771626e+00 -3.2686867284e+00 1.8871771626e+00 3.2686867284e+00 
85000 6.4061785675e+00 4.0509335278e-04 1.8871665586e+00 -3.2686683619e+00 1.8871665586e+00 3.2686683619e+00 
85100 6.4061785518e+00 4.0910166101e-04 1.8871558258e+00 -3.2686497721e+00 1.8871558258e+00 3.2686497721e+00 
85200 6.4061785360e+00 4.1225953809e-04 1.8871449867e+00 -3.2686309982e+00 1.8871449867e+00 3.2686309982e+00 
85300 6.4061785201e+00 4.1457286821e-04 1.8871340639e+00 -3.2686120793e+00 1.8871340639e+00 3.2686120793e+00 
85400 6.4061785042e+00 4.1604910700e-04 1.8871230797e+00 -3.2685930542e+00 1.8871230797e+00 3.2685930542e+00 
85500 6.4061784884e+00 4.1669724438e-04 1.8871120563e+00 -3.2685739611e+00 1.8871120563e+00 3.2685739611e+00 
85600 6.4061784730e+00 4.1652776508e-04 1.8871010157e+00 -3.2685548383e+00 1.8871010157e+00 3.2685548383e+00 
85700 6.4061784579e+00 4.1555260662e-04 1.8870899796e+00 -3.2685357231e+00 1.8870899796e+00 3.2685357231e+00 
85800 6.4061784434e+00 4.1378511513e-04 1.8870789692e+00 -3.2685166525e+00 1.8870789692e+00 3.2685166525e+00 
85900 6.4061784294e+00 4.1123999900e-04 1.8870680055e+00 -3.2684976629e+00 1.8870680055e+00 3.2684976629e+00 
86000 6.4061784162e+00 4.0793328046e-04 1.8870571093e+00 -3.2684787901e+00 1.8870571093e+00 3.2684787901e+00 
86100 6.4061784037e+00 4.0388224535e-04 1.8870463006e+00 -3.2684600688e+00 1.8870463006e+00 3.2684600688e+00 
86200 6.4061783921e+00 3.9910539103e-04 1.8870355991e+00 -3.2684415334e+00 1.8870355991e+00 3.2684415334e+00 
86300 6.4061783814e+00 3.9362237274e-04 1.8870250242e+00 -3.2684232171e+00 1.8870250242e+00 3.2684232171e+00 
86400 6.4061783717e+00 3.8745394835e-04 1.8870145945e+00 -3.2684051523e+00 1.8870145945e+00 3.2684051523e+00 
86500 6.4061783631e+00 3.8062192183e-04 1.8870043282e+00 -3.2683873706e+00 1.8870043282e+00 3.2683873706e+00 
86600 6.4061783555e+00 3.7314908544e-04 1.8869942429e+00 -3.2683699022e+00 1.8869942429e+00 3.2683699022e+00 
86700 6.4061783491e+00 3.6505916076e-04 1.8869843555e+00 -3.2683527768e+00 1.8869843555e+00 3.2683527768e+00 
86800 6.4061783437e+00 3.5637673880e-04 1.8869746824e+00 -3.2683360225e+00 1.8869746824e+00 3.2683360225e+00 
86900 6.4061783395e+00 3.4712721926e-04 1.8869652394e+00 -3.2683196667e+00 1.8869652394e+00 3.2683196667e+00 
87000 6.4061783365e+00 3.3733674905e-04 1.8869560413e+00 -3.2683037352e+00 1.8869560413e+00 3.2683037352e+00 
87100 6.4061783345e+00 3.2703216027e-04 1.8869471027e+00 -3.2682882531e+00 1.8869471027e+00 3.2682882531e+00 
87200 6.4061783337e+00 3.1624090766e-04 1.8869384371e+00 -3.2682732437e+00 1.8869384371e+00 3.2682732437e+00 
87300 6.4061783340e+00 3.0499100583e-04 1.8869300573e+00 -3.2682587296e+00 1.8869300573e+00 3.2682587296e+00 
87400 6.4061783354e+00 2.9331096628e-04 1.8869219757e+00 -3.2682447318e+00 1.8869219757e+00 3.2682447318e+00 
87500 6.4061783378e+00 2.8122973428e-04 1.8869142035e+00 -3.2682312699e+00 1.8869142035e+00 3.2682312699e+00 
87600 6.4061783412e+00 2.6877662591e-04 1.8869067514e+00 -3.2682183625e+00 1.8869067514e+00 3.2682183625e+00 
87700 6.4061783455e+00 2.5598126525e-04 1.8868996292e+00 -3.2682060266e+00 1.8868996292e+00 3.2682060266e+00 
87800 6.4061783506e+00 2.4287352183e-04 1.8868928461e+00 -3.2681942779e+00 1.8868928461e+00 3.2681942779e+00 
87900 6.4061783566e+00 2.2948344866e-04 1.8868864103e+00 -3.2681831307e+00 1.8868864103e+00 3.2681831307e+00 
88000 6.4061783633e+00 2.1584122059e-04 1.8868803293e+00 -3.2681725981e+00 1.8868803293e+00 3.2681725981e+00 
88100 6.4061783707e+00 2.0197707350e-04 1.8868746098e+00 -3.2681626916e+00 1.8868746098e+00 3.2681626916e+00 
88200 6.4061783787e+00 1.8792124420e-04 1.8868692576e+00 -3.2681534214e+00 1.8868692576e+00 3.2681534214e+00 
88300 6.4061783872e+00 1.7370391118e-04 1.8868642779e+00 -3.2681447963e+00 1.8868642779e+00 3.2681447963e+00 
88400 6.4061783962e+00 1.5935513636e-04 1.8868596749e+00 -3.2681368237e+00 1.8868596749e+00 3.2681368237e+00 
88500 6.4061784055e+00 1.4490480793e-04 1.8868554522e+00 -3.2681295097e+00 1.8868554522e+00 3.2681295097e+00 
88600 6.4061784150e+00 1.3038258438e-04 1.8868516123e+00 -3.2681228589e+00 1.8868516123e+00 3.2681228589e+00 
88700 6.4061784248e+00 1.1581783972e-04 1.8868481573e+00 -3.2681168746e+00 1.8868481573e+00 3.2681168746e+00 
88800 6.4061784347e+00 1.0123961014e-04 1.8868450882e+00 -3.2681115588e+00 1.8868450882e+00 3.2681115588e+00 
88900 6.4061784447e+00 8.6676542063e-05 1.8868424054e+00 -3.2681069121e+00 1.8868424054e+00 3.2681069121e+00 
89000 6.4061784546e+00 7.2156841765e-05 1.8868401086e+00 -3.2681029338e+00 1.8868401086e+00 3.2681029338e+00 
89100 6.4061784644e+00 5.7708226533e-05 1.8868381965e+00 -3.2680996219e+00 1.8868381965e+00 3.2680996219e+00 
89200 6.4061784740e+00 4.4838011793e-05 1.8868381965e+00 -3.2680996219e+00 1.8868381965e+00 3.2680996219e+00 
89300 6.4061784833e+00 3.1734187726e-05 1.8868381965e+00 -3.2680996219e+00 1.8868381965e+00 3.2680996219e+00 
89400 6.4061784923e+00 1.8425375924e-05 1.8868381965e+00 -3.2680996219e+00 1.8868381965e+00 3.2680996219e+00 
89500 6.4061785009e+00 4.9396881067e-06 1.8868381965e+00 -3.2680996219e+00 1.8868381965e+00 3.2680996219e+00 
89600 6.4061785090e+00 -8.6953037673e-06 1.8868381965e+00 -3.2680996219e+00 1.8868381965e+00 3.2680996219e+00 
89700 6.4061785167e+00 -2.2452595751e-05 1.8868381965e+00 -3.2680996219e+00 1.8868381965e+00 3.2680996219e+00 
89800 6.4061785238e+00 -3.6305778542e-05 1.8868381965e+00 -3.2680996219e+00 1.8868381965e+00 3.2680996219e+00 
89900 6.4061785305e+00 -5.0229062431e-05 1.8868381965e+00 -3.2680996219e+00 1.8868381965e+00 3.2680996219e+00 
90000 6.4061785366e+00 -6.4197300658e-05 1.8868381965e+00 -3.2680996219e+00 1.8868381965e+00 3.2680996219e+00 
90100 6.4061785423e+00 -7.8186011094e-05 1.8868381965e+00 -3.2680996219e+00 1.8868381965e+00 3.2680996219e+00 
90200 6.4061785471e+00 -9.0166260572e-05 1.8868402683e+00 -3.2681032105e+00 1.8868402683e+00 3.2681032105e+00 
90300 6.4061785513e+00 -1.0179987943e-04 1.8868426577e+00 -3.2681073490e+00 1.8868426577e+00 3.2681073490e+00 
90400 6.4061785548e+00 -1.1306892604e-04 1.8868453553e+00 -3.2681120214e+00 1.8868453553e+00 3.2681120214e+00 
90500 6.4061785576e+00 -1.2395643640e-04 1.8868483515e+00 -3.2681172111e+00 1.8868483515e+00 3.2681172111e+00 
90600 6.4061785597e+00 -1.3444644277e-04 1.8868516363e+00 -3.2681229004e+00 1.8868516363e+00 3.2681229004e+00 
90700 6.4061785611e+00 -1.4452399012e-04 1.8868551990e+00 -3.2681290712e+00 1.8868551990e+00 3.2681290712e+00 
90800 6.4061785619e+00 -1.5417515041e-04 1.8868590288e+00 -3.2681357046e+00 1.8868590288e+00 3.2681357046e+00 
90900 6.4061785620e+00 -1.6338703459e-04 1.8868631143e+00 -3.2681427809e+00 1.8868631143e+00 3.2681427809e+00 
91000 6.4061785614e+00 -1.7214780256e-04 1.8868674439e+00 -3.2681502799e+00 1.8868674439e+00 3.2681502799e+00 
91100 6.4061785603e+00 -1.8044667083e-04 1.8868720056e+00 -3.2681581811e+00 1.8868720056e+00 3.2681581811e+00 
91200 6.4061785586e+00 -1.8827391809e-04 1.8868767872e+00 -3.2681664631e+00 1.8868767872e+00 3.2681664631e+00 
91300 6.4061785563e+00 -1.9562088864e-04 1.8868817763e+00 -3.2681751044e+00 1.8868817763e+00 3.2681751044e+00 
91400 6.4061785534e+00 -2.0247999372e-04 1.8868869600e+00 -3.2681840829e+00 1.8868869600e+00 3.2681840829e+00 
91500 6.4061785501e+00 -2.0884471070e-04 1.8868923254e+00 -3.2681933761e+00 1.8868923254e+00 3.2681933761e+00 
91600 6.4061785464e+00 -2.1470958031e-04 1.8868978595e+00 -3.2682029614e+00 1.8868978595e+00 3.2682029614e+00 
91700 6.4061785422e+00 -2.2007020178e-04 1.8869035490e+00 -3.2682128159e+00 1.8869035490e+00 3.2682128159e+00 
91800 6.4061785377e+00 -2.2492322605e-04 1.8869093806e+00 -3.2682229164e+00 1.8869093806e+00 3.2682229164e+00 
91900 6.4061785329e+00 -2.2926634700e-04 1.8869153407e+00 -3.2682332396e+00 1.8869153407e+00 3.2682332396e+00 
92000 6.4061785278e+00 -2.3309829082e-04 1.8869214158e+00 -3.2682437621e+00 1.8869214158e+00 3.2682437621e+00 
92100 6.4061785226e+00 -2.3641880354e-04 1.8869275925e+00 -3.2682544604e+00 1.8869275925e+00 3.2682544604e+00 
92200 6.4061785171e+00 -2.3922863675e-04 1.8869338572e+00 -3.2682653111e+00 1.8869338572e+00 3.2682653111e+00 
92300 6.4061785115e+00 -2.4152953156e-04 1.8869401962e+00 -3.2682762907e+00 1.8869401962e+00 3.2682762907e+00 
92400 6.4061785059e+00 -2.4332420092e-04 1.8869465963e+00 -3.2682873759e+00 1.8869465963e+00 3.2682873759e+00 
92500 6.4061785002e+00 -2.4461631028e-04 1.8869530438e+00 -3.2682985434e+00 1.8869530438e+00 3.2682985434e+00 
92600 6.4061784945e+00 -2.4541045669e-04 1.8869595256e+00 -3.2683097702e+00 1.8869595256e+00 3.2683097702e+00 
92700 6.4061784890e+00 -2.4571214641e-04 1.8869660284e+00 -3.2683210334e+00 1.8869660284e+00 3.2683210334e+00 
92800 6.4061784835e+00 -2.4552777104e-04 1.8869725392e+00 -3.2683323104e+00 1.8869725392e+00 3.2683323104e+00 
92900 6.4061784782e+00 -2.4486458235e-04 1.8869790451e+00 -3.2683435789e+00 1.8869790451e+00 3.2683435789e+00 
93000 6.4061784730e+00 -2.4373066570e-04 1.8869855334e+00 -3.2683548169e+00 1.8869855334e+00 3.2683548169e+00 
93100 6.4061784681e+00 -2.4213491233e-04 1.8869919916e+00 -3.2683660029e+00 1.8869919916e+00 3.2683660029e+00 
93200 6.4061784634e+00 -2.4008699040e-04 1.8869984075e+00 -3.2683771155e+00 1.8869984075e+00 3.2683771155e+00 
93300 6.4061784591e+00 -2.3759731500e-04 1.8870047691e+00 -3.2683881342e+00 1.8870047691e+00 3.2683881342e+00 
93400 6.4061784550e+00 -2.3467701710e-04 1.8870110647e+00 -3.2683990385e+00 1.8870110647e+00 3.2683990385e+00 
93500 6.4061784513e+00 -2.3133791156e-04 1.8870172829e+00 -3.2684098088e+00 1.8870172829e+00 3.2684098088e+00 
93600 6.4061784479e+00 -2.2759246428e-04 1.8870234127e+00 -3.2684204258e+00 1.8870234127e+00 3.2684204258e+00 
93700 6.4061784449e+00 -2.2345375857e-04 1.8870294431e+00 -3.2684308709e+00 1.8870294431e+00 3.2684308709e+00 
93800 6.4061784423e+00 -2.1893546075e-04 1.8870353639e+00 -3.2684411260e+00 1.8870353639e+00 3.2684411260e+00 
93900 6.4061784401e+00 -2.1405178516e-04 1.8870411649e+00 -3.2684511737e+00 1.8870411649e+00 3.2684511737e+00 
94000 6.4061784382e+00 -2.0881745857e-04 1.8870468366e+00 -3.2684609972e+00 1.8870468366e+00 3.2684609972e+00 
94100 6.4061784368e+00 -2.0324768412e-04 1.8870523695e+00 -3.2684705805e+00 1.8870523695e+00 3.2684705805e+00 
94200 6.4061784358e+00 -1.9735810485e-04 1.8870577548e+00 -3.2684799082e+00 1.8870577548e+00 3.2684799082e+00 
94300 6.4061784352e+00 -1.9116476685e-04 1.8870629841e+00 -3.2684889655e+00 1.8870629841e+00 3.2684889655e+00 
94400 6.4061784350e+00 -1.8468408222e-04 1.8870680492e+00 -3.2684977386e+00 1.8870680492e+00 3.2684977386e+00 
94500 6.4061784352e+00 -1.7793279177e-04 1.8870729426e+00 -3.2685062142e+00 1.8870729426e+00 3.2685062142e+00 
94600 6.4061784358e+00 -1.7092792768e-04 1.8870776572e+00 -3.2685143800e+00 1.8870776572e+00 3.2685143800e+00 
94700 6.4061784367e+00 -1.6368677608e-04 1.8870821861e+00 -3.2685222243e+00 1.8870821861e+00 3.2685222243e+00 
94800 6.4061784380e+00 -1.5622683963e-04 1.8870865231e+00 -3.2685297363e+00 1.8870865231e+00 3.2685297363e+00 
94900 6.4061784396e+00 -1.4856580033e-04 1.8870906625e+00 -3.2685369059e+00 1.8870906625e+00 3.2685369059e+00 
95000 6.4061784415e+00 -1.4072148237e-04 1.8870945988e+00 -3.2685437239e+00 1.8870945988e+00 3.2685437239e+00 
95100 6.4061784437e+00 -1.3271181530e-04 1.8870983274e+00 -3.2685501819e+00 1.8870983274e+00 3.2685501819e+00 
95200 6.4061784462e+00 -1.2455479752e-04 1.8871018437e+00 -3.2685562723e+00 1.8871018437e+00 3.2685562723e+00 
95300 6.4061784489e+00 -1.1626846012e-04 1.8871051438e+00 -3.2685619883e+00 1.8871051438e+00 3.2685619883e+00 
95400 6.4061784518e+00 -1.0787083121e-04 1.8871082244e+00 -3.2685673241e+00 1.8871082244e+00 3.2685673241e+00 
95500 6.4061784549e+00 -9.9379900690e-05 1.8871110825e+00 -3.2685722745e+00 1.8871110825e+00 3.2685722745e+00 
95600 6.4061784581e+00 -9.0813585664e-05 1.8871137156e+00 -3.2685768352e+00 1.8871137156e+00 3.2685768352e+00 
95700 6.4061784614e+00 -8.2189696462e-05 1.8871161218e+00 -3.2685810027e+00 1.8871161218e+00 3.2685810027e+00 
95800 6.4061784649e+00 -7.3525903331e-05 1.8871182994e+00 -3.2685847745e+00 1.8871182994e+00 3.2685847745e+00 
95900 6.4061784684e+00 -6.4839703880e-05 1.8871202475e+00 -3.2685881487e+00 1.8871202475e+00 3.2685881487e+00 
96000 6.4061784720e+00 -5.7809953620e-05 1.8871202475e+00 -3.2685881487e+00 1.8871202475e+00 3.2685881487e+00 
96100 6.4061784756e+00 -5.0580247732e-05 1.8871202475e+00 -3.2685881487e+00 1.8871202475e+00 3.2685881487e+00 
96200 6.4061784792e+00 -4.3168287276e-05 1.8871202475e+00 -3.2685881487e+00 1.8871202475e+00 3.2685881487e+00 
96300 6.4061784826e+00 -3.5591549541e-05 1.8871202475e+00 -3.2685881487e+00 1.8871202475e+00 3.2685881487e+00 
96400 6.4061784860e+00 -2.7867266928e-05 1.8871202475e+00 -3.2685881487e+00 1.8871202475e+00 3.2685881487e+00 
96500 6.4061784892e+00 -2.0012406782e-05 1.8871202475e+00 -3.2685881487e+00 1.8871202475e+00 3.2685881487e+00 
96600 6.4061784923e+00 -1.2043652151e-05 1.8871202475e+00 -3.2685881487e+00 1.8871202475e+00 3.2685881487e+00 
96700 6.4061784952e+00 -3.9773834906e-06 1.8871202475e+00 -3.2685881487e+00 1.8871202475e+00 3.2685881487e+00 
96800 6.4061784980e+00 4.1703386622e-06 1.8871202475e+00 -3.2685881487e+00 1.8871202475e+00 3.2685881487e+00 
96900 6.4061785006e+00 1.2383790075e-05 1.8871202475e+00 -3.2685881487e+00 1.8871202475e+00 3.2685881487e+00 
97000 6.4061785031e+00 2.0647598249e-05 1.8871202475e+00 -3.2685881487e+00 1.8871202475e+00 3.2685881487e+00 
97100 6.4061785054e+00 2.8946756861e-05 1.8871202475e+00 -3.2685881487e+00 1.8871202475e+00 3.2685881487e+00 
97200 6.4061785075e+00 3.7266639289e-05 1.8871202475e+00 -3.2685881487e+00 1.8871202475e+00 3.2685881487e+00 
97300 6.4061785094e+00 4.5593011157e-05 1.8871202475e+00 -3.2685881487e+00 1.8871202475e+00 3.2685881487e+00 
97400 6.4061785111e+00 5.3912041939e-05 1.8871202475e+00 -3.2685881487e+00 1.8871202475e+00 3.2685881487e+00 
97500 6.4061785126e+00 6.2210315610e-05 1.8871202475e+00 -3.2685881487e+00 1.8871202475e+00 3.2685881487e+00 
97600 6.4061785140e+00 7.0474840360e-05 1.8871202475e+00 -3.2685881487e+00 1.8871202475e+00 3.2685881487e+00 
97700 6.4061785151e+00 7.8693057404e-05 1.8871202475e+00 -3.2685881487e+00 1.8871202475e+00 3.2685881487e+00 
97800 6.4061785159e+00 8.4836047314e-05 1.8871181625e+00 -3.2685845374e+00 1.8871181625e+00 3.2685845374e+00 
97900 6.4061785164e+00 9.0738352145e-05 1.8871159148e+00 -3.2685806442e+00 1.8871159148e+00 3.2685806442e+00 
98000 6.4061785167e+00 9.6391404516e-05 1.8871135106e+00 -3.2685764801e+00 1.8871135106e+00 3.2685764801e+00 
98100 6.4061785168e+00 1.0178726615e-04 1.8871109567e+00 -3.2685720565e+00 1.8871109567e+00 3.2685720565e+00 
98200 6.4061785166e+00 1.0691863357e-04 1.8871082598e+00 -3.2685673853e+00 1.8871082598e+00 3.2685673853e+00 
98300 6.4061785162e+00 1.1177884251e-04 1.8871054269e+00 -3.2685624786e+00 1.8871054269e+00 3.2685624786e+00 
98400 6.4061785156e+00 1.1636187111e-04 1.8871024653e+00 -3.2685573489e+00 1.8871024653e+00 3.2685573489e+00 
98500 6.4061785148e+00 1.2066234171e-04 1.8870993822e+00 -3.2685520089e+00 1.8870993822e+00 3.2685520089e+00 
98600 6.4061785139e+00 1.2467552158e-04 1.8870961852e+00 -3.2685464715e+00 1.8870961852e+00 3.2685464715e+00 
98700 6.4061785127e+00 1.2839732221e-04 1.8870928818e+00 -3.2685407498e+00 1.8870928818e+00 3.2685407498e+00 
98800 6.4061785114e+00 1.3182429755e-04 1.8870894798e+00 -3.2685348574e+00 1.8870894798e+00 3.2685348574e+00 
98900 6.4061785099e+00 1.3495364089e-04 1.8870859870e+00 -3.2685288077e+00 1.8870859870e+00 3.2685288077e+00 
99000 6.4061785083e+00 1.3778318071e-04 1.8870824113e+00 -3.2685226144e+00 1.8870824113e+00 3.2685226144e+00 
99100 6.4061785066e+00 1.4031137527e-04 1.8870787606e+00 -3.2685162912e+00 1.8870787606e+00 3.2685162912e+00 
99200 6.4061785048e+00 1.4253730608e-04 1.8870750429e+00 -3.2685098520e+00 1.8870750429e+00 3.2685098520e+00 
99300 6.4061785030e+00 1.4446067032e-04 1.8870712662e+00 -3.2685033106e+00 1.8870712662e+00 3.2685033106e+00 
99400 6.4061785010e+00 1.4608177212e-04 1.8870674386e+00 -3.2684966810e+00 1.8870674386e+00 3.2684966810e+00 
99500 6.4061784991e+00 1.4740151284e-04 1.8870635680e+00 -3.2684899769e+00 1.8870635680e+00 3.2684899769e+00 
99600 6.4061784971e+00 1.4842138032e-04 1.8870596624e+00 -3.2684832122e+00 1.8870596624e+00 3.2684832122e+00 
99700 6.4061784951e+00 1.4914343715e-04 1.8870557298e+00 -3.2684764007e+00 1.8870557298e+00 3.2684764007e+00 
99800 6.4061784931e+00 1.4957030804e-04 1.8870517781e+00 -3.2684695561e+00 1.8870517781e+00 3.2684695561e+00 
99900 6.4061784911e+00 1.4970516622e-04 1.8870478150e+00 -3.2684626919e+00 1.8870478150e+00 3.2684626919e+00 
100000 6.4061784891e+00 1.4955171906e-04 1.8870438483e+00 -3.2684558214e+00 1.8870438483e+00 3.2684558214e+00 
100100 6.4061784873e+00 1.4911419277e-04 1.8870398858e+00 -3.2684489580e+00 1.8870398858e+00 3.2684489580e+00 
100200 6.4061784854e+00 1.4839731638e-04 1.8870359347e+00 -3.2684421147e+00 1.8870359347e+00 3.2684421147e+00 
100300 6.4061784837e+00 1.4740630501e-04 1.8870320027e+00 -3.2684353042e+00 1.8870320027e+00 3.2684353042e+00 
100400 6.4061784820e+00 1.4614684232e-04 1.8870280970e+00 -3.2684285392e+00 1.8870280970e+00 3.2684285392e+00 
100500 6.4061784805e+00 1.4462506247e-04 1.8870242246e+00 -3.2684218320e+00 1.8870242246e+00 3.2684218320e+00 
100600 6.4061784790e+00 1.4284753132e-04 1.8870203925e+00 -3.2684151947e+00 1.8870203925e+00 3.2684151947e+00 
100700 6.4061784777e+00 1.4082122716e-04 1.8870166075e+00 -3.2684086388e+00 1.8870166075e+00 3.2684086388e+00 
100800 6.4061784765e+00 1.3855352089e-04 1.8870128761e+00 -3.2684021760e+00 1.8870128761e+00 3.2684021760e+00 
100900 6.4061784754e+00 1.3605215570e-04 1.8870092049e+00 -3.2683958172e+00 1.8870092049e+00 3.2683958172e+00 
101000 6.4061784745e+00 1.3332522639e-04 1.8870055999e+00 -3.2683895733e+00 1.8870055999e+00 3.2683895733e+00 
101100 6.4061784737e+00 1.3038115826e-04 1.8870020672e+00 -3.2683834544e+00 1.8870020672e+00 3.2683834544e+00 
101200 6.4061784731e+00 1.2722868562e-04 1.8869986125e+00 -3.2683774707e+00 1.8869986125e+00 3.2683774707e+00 
101300 6.4061784726e+00 1.2387683016e-04 1.8869952413e+00 -3.2683716316e+00 1.8869952413e+00 3.2683716316e+00 
101400 6.4061784722e+00 1.2033487888e-04 1.8869919589e+00 -3.2683659463e+00 1.8869919589e+00 3.2683659463e+00 
101500 6.4061784720e+00 1.1661236202e-04 1.8869887704e+00 -3.2683604236e+00 1.8869887704e+00 3.2683604236e+00 
101600 6.4061784719e+00 1.1271903071e-04 1.8869856805e+00 -3.2683550718e+00 1.8869856805e+00 3.2683550718e+00 
101700 6.4061784720e+00 1.0866483453e-04 1.8869826937e+00 -3.2683498986e+00 1.8869826937e+00 3.2683498986e+00 
101800 6.4061784722e+00 1.0445989909e-04 1.8869798144e+00 -3.2683449114e+00 1.8869798144e+00 3.2683449114e+00 
101900 6.4061784725e+00 1.0011450350e-04 1.8869770465e+00 -3.2683401173e+00 1.8869770465e+00 3.2683401173e+00 
102000 6.4061784730e+00 9.5639057927e-05 1.8869743937e+00 -3.2683355225e+00 1.8869743937e+00 3.2683355225e+00 
102100 6.4061784736e+00 9.1044081225e-05 1.8869718595e+00 -3.2683311332e+00 1.8869718595e+00 3.2683311332e+00 
102200 6.4061784742e+00 8.6340178624e-05 1.8869694471e+00 -3.2683269547e+00 1.8869694471e+00 3.2683269547e+00 
102300 6.4061784750e+00 8.1538019663e-05 1.8869671593e+00 -3.2683229921e+00 1.8869671593e+00 3.2683229921e+00 
102400 6.4061784759e+00 7.6648316264e-05 1.8869649987e+00 -3.2683192499e+00 1.8869649987e+00 3.2683192499e+00 
102500 6.4061784768e+00 7.1681801040e-05 1.8869629677e+00 -3.2683157321e+00 1.8869629677e+00 3.2683157321e+00 
102600 6.4061784779e+00 6.6649205901e-05 1.8869610684e+00 -3.2683124423e+00 1.8869610684e+00 3.2683124423e+00 
102700 6.4061784791e+00 6.3270125474e-05 1.8869610684e+00 -3.2683124423e+00 1.8869610684e+00 3.2683124423e+00 
102800 6.4061784803e+00 5.9726990487e-05 1.8869610684e+00 -3.2683124423e+00 1.8869610684e+00 3.2683124423e+00 
102900 6.4061784816e+00 5.6030520856e-05 1.8869610684e+00 -3.2683124423e+00 1.8869610684e+00 3.2683124423e+00 
103000 6.4061784828e+00 5.2191368718e-05 1.8869610684e+00 -3.2683124423e+00 1.8869610684e+00 3.2683124423e+00 
103100 6.4061784840e+00 4.8220103750e-05 1.8869610684e+00 -3.2683124423e+00 1.8869610684e+00 3.2683124423e+00 
103200 6.4061784853e+00 4.4127198938e-05 1.8869610684e+00 -3.2683124423e+00 1.8869610684e+00 3.2683124423e+00 
103300 6.4061784865e+00 3.9923016906e-05 1.8869610684e+00 -3.2683124423e+00 1.8869610684e+00 3.2683124423e+00 
103400 6.4061784877e+00 3.5617796741e-05 1.8869610684e+00 -3.2683124423e+00 1.8869610684e+00 3.2683124423e+00 
103500 6.4061784888e+00 3.1221641404e-05 1.8869610684e+00 -3.2683124423e+00 1.8869610684e+00 3.2683124423e+00 
103600 6.4061784899e+00 2.6744505634e-05 1.8869610684e+00 -3.2683124423e+00 1.8869610684e+00 3.2683124423e+00 
103700 6.4061784910e+00 2.2196184419e-05 1.8869610684e+00 -3.2683124423e+00 1.8869610684e+00 3.2683124423e+00 
103800 6.4061784920e+00 1.7586302047e-05 1.8869610684e+00 -3.2683124423e+00 1.8869610684e+00 3.2683124423e+00 
103900 6.4061784930e+00 1.2924301657e-05 1.8869610684e+00 -3.2683124423e+00 1.8869610684e+00 3.2683124423e+00 
104000 6.4061784939e+00 8.2194354108e-06 1.8869610684e+00 -3.2683124423e+00 1.8869610684e+00 3.2683124423e+00 
104100 6.4061784948e+00 3.4807551831e-06 1.8869610684e+00 -3.2683124423e+00 1.8869610684e+00 3.2683124423e+00 
104200 6.4061784956e+00 -1.2828961687e-06 1.8869610684e+00 -3.2683124423e+00 1.8869610684e+00 3.2683124423e+00 
104300 6.4061784963e+00 -6.0628929763e-06 1.8869610684e+00 -3.2683124423e+00 1.8869610684e+00 3.2683124423e+00 
104400 6.4061784970e+00 -1.0850834368e-05 1.8869610684e+00 -3.2683124423e+00 1.8869610684e+00 3.2683124423e+00 
104500 6.4061784976e+00 -1.5638551347e-05 1.8869610684e+00 -3.2683124423e+00 1.8869610684e+00 3.2683124423e+00 
104600 6.4061784982e+00 -2.0418113256e-05 1.8869610684e+00 -3.2683124423e+00 1.8869610684e+00 3.2683124423e+00 
104700 6.4061784987e+00 -2.5181833750e-05 1.8869610684e+00 -3.2683124423e+00 1.8869610684e+00 3.2683124423e+00 
104800 6.4061784991e+00 -2.9922276201e-05 1.8869610684e+00 -3.2683124423e+00 1.8869610684e+00 3.2683124423e+00 
104900 6.4061784994e+00 -3.4632258548e-05 1.8869610684e+00 -3.2683124423e+00 1.8869610684e+00 3.2683124423e+00 
105000 6.4061784997e+00 -3.9304857631e-05 1.8869610684e+00 -3.2683124423e+00 1.8869610684e+00 3.2683124423e+00 
105100 6.4061785000e+00 -4.3933412993e-05 1.8869610684e+00 -3.2683124423e+00 1.8869610684e+00 3.2683124423e+00 
105200 6.4061785002e+00 -4.8511530150e-05 1.8869610684e+00 -3.2683124423e+00 1.8869610684e+00 3.2683124423e+00 
105300 6.4061785003e+00 -5.3033083383e-05 1.8869610684e+00 -3.2683124423e+00 1.8869610684e+00 3.2683124423e+00 
105400 6.4061785004e+00 -5.7492217970e-05 1.8869610684e+00 -3.2683124423e+00 1.8869610684e+00 3.2683124423e+00 
105500 6.4061785004e+00 -6.1883351984e-05 1.8869610684e+00 -3.2683124423e+00 1.8869610684e+00 3.2683124423e+00 
105600 6.4061785004e+00 -6.6201177568e-05 1.8869610684e+00 -3.2683124423e+00 1.8869610684e+00 3.2683124423e+00 
105700 6.4061785003e+00 -7.0440661756e-05 1.8869610684e+00 -3.2683124423e+00 1.8869610684e+00 3.2683124423e+00 
105800 6.4061785002e+00 -7.4597046819e-05 1.8869610684e+00 -3.2683124423e+00 1.8869610684e+00 3.2683124423e+00 
105900 6.4061784999e+00 -7.6753398851e-05 1.8869630450e+00 -3.2683158659e+00 1.8869630450e+00 3.2683158659e+00 
106000 6.4061784995e+00 -7.8750267654e-05 1.8869650788e+00 -3.2683193886e+00 1.8869650788e+00 3.2683193886e+00 
106100 6.4061784991e+00 -8.0585087778e-05 1.8869671655e+00 -3.2683230028e+00 1.8869671655e+00 3.2683230028e+00 
106200 6.4061784986e+00 -8.2255689109e-05 1.8869693008e+00 -3.2683267013e+00 1.8869693008e+00 3.2683267013e+00 
106300 6.4061784980e+00 -8.3760293527e-05 1.8869714803e+00 -3.2683304764e+00 1.8869714803e+00 3.2683304764e+00 
106400 6.4061784975e+00 -8.5097510966e-05 1.8869736998e+00 -3.2683343206e+00 1.8869736998e+00 3.2683343206e+00 
106500 6.4061784969e+00 -8.6266334848e-05 1.8869759547e+00 -3.2683382261e+00 1.8869759547e+00 3.2683382261e+00 
106600 6.4061784962e+00 -8.7266136901e-05 1.8869782405e+00 -3.2683421853e+00 1.8869782405e+00 3.2683421853e+00 
106700 6.4061784956e+00 -8.8096661389e-05 1.8869805528e+00 -3.2683461904e+00 1.8869805528e+00 3.2683461904e+00 
106800 6.4061784949e+00 -8.8758018774e-05 1.8869828871e+00 -3.2683502336e+00 1.8869828871e+00 3.2683502336e+00 
106900 6.4061784943e+00 -8.9250678837e-05 1.8869852390e+00 -3.2683543071e+00 1.8869852390e+00 3.2683543071e+00 
107000 6.4061784936e+00 -8.9575463222e-05 1.8869876039e+00 -3.2683584032e+00 1.8869876039e+00 3.2683584032e+00 
107100 6.4061784929e+00 -8.9733537480e-05 1.8869899774e+00 -3.2683625142e+00 1.8869899774e+00 3.2683625142e+00 
107200 6.4061784922e+00 -8.9726402663e-05 1.8869923551e+00 -3.2683666325e+00 1.8869923551e+00 3.2683666325e+00 
107300 6.4061784916e+00 -8.9555886335e-05 1.8869947326e+00 -3.2683707505e+00 1.8869947326e+00 3.2683707505e+00 
107400 6.4061784909e+00 -8.9224133251e-05 1.8869971056e+00 -3.2683748606e+00 1.8869971056e+00 3.2683748606e+00 
107500 6.4061784903e+00 -8.8733595493e-05 1.8869994698e+00 -3.2683789555e+00 1.8869994698e+00 3.2683789555e+00 
107600 6.4061784897e+00 -8.8087022275e-05 1.8870018209e+00 -3.2683830278e+00 1.8870018209e+00 3.2683830278e+00 
107700 6.4061784891e+00 -8.7287449333e-05 1.8870041550e+00 -3.2683870705e+00 1.8870041550e+00 3.2683870705e+00 
107800 6.4061784886e+00 -8.6338187930e-05 1.8870064678e+00 -3.2683910765e+00 1.8870064678e+00 3.2683910765e+00 
107900 6.4061784881e+00 -8.5242813581e-05 1.8870087555e+00 -3.2683950389e+00 1.8870087555e+00 3.2683950389e+00 
108000 6.4061784876e+00 -8.4005154385e-05 1.8870110142e+00 -3.2683989511e+00 1.8870110142e+00 3.2683989511e+00 
108100 6.4061784872e+00 -8.2629279163e-05 1.8870132401e+00 -3.2684028064e+00 1.8870132401e+00 3.2684028064e+00 
108200 6.4061784868e+00 -8.1119485260e-05 1.8870154295e+00 -3.2684065986e+00 1.8870154295e+00 3.2684065986e+00 
108300 6.4061784865e+00 -7.9480286134e-05 1.8870175789e+00 -3.2684103215e+00 1.8870175789e+00 3.2684103215e+00 
108400 6.4061784862e+00 -7.7716398746e-05 1.8870196849e+00 -3.2684139691e+00 1.8870196849e+00 3.2684139691e+00 
108500 6.4061784860e+00 -7.5832730772e-05 1.8870217441e+00 -3.2684175358e+00 1.8870217441e+00 3.2684175358e+00 
108600 6.4061784858e+00 -7.3834367619e-05 1.8870237535e+00 -3.2684210161e+00 1.8870237535e+00 3.2684210161e+00 
108700 6.4061784857e+00 -7.1726559349e-05 1.8870257098e+00 -3.2684244046e+00 1.8870257098e+00 3.2684244046e+00 
108800 6.4061784856e+00 -6.9514707473e-05 1.8870276104e+00 -3.2684276964e+00 1.8870276104e+00 3.2684276964e+00 
108900 6.4061784857e+00 -6.8986175075e-05 1.8870276104e+00 -3.2684276964e+00 1.8870276104e+00 3.2684276964e+00 
109000 6.4061784859e+00 -6.8317164741e-05 1.8870276104e+00 -3.2684276964e+00 1.8870276104e+00 3.2684276964e+00 
109100 6.4061784860e+00 -6.7512889052e-05 1.8870276104e+00 -3.2684276964e+00 1.8870276104e+00 3.2684276964e+00 
109200 6.4061784862e+00 -6.6578625781e-05 1.8870276104e+00 -3.2684276964e+00 1.8870276104e+00 3.2684276964e+00 
109300 6.4061784864e+00 -6.5519707909e-05 1.8870276104e+00 -3.2684276964e+00 1.8870276104e+00 3.2684276964e+00 
109400 6.4061784867e+00 -6.4341513822e-05 1.8870276104e+00 -3.2684276964e+00 1.8870276104e+00 3.2684276964e+00 
109500 6.4061784869e+00 -6.3049457667e-05 1.8870276104e+00 -3.2684276964e+00 1.8870276104e+00 3.2684276964e+00 
109600 6.4061784872e+00 -6.1648979912e-05 1.8870276104e+00 -3.2684276964e+00 1.8870276104e+00 3.2684276964e+00 
109700 6.4061784875e+00 -6.0145538110e-05 1.8870276104e+00 -3.2684276964e+00 1.8870276104e+00 3.2684276964e+00 
109800 6.4061784878e+00 -5.8544597876e-05 1.8870276104e+00 -3.2684276964e+00 1.8870276104e+00 3.2684276964e+00 
109900 6.4061784882e+00 -5.6851624066e-05 1.8870276104e+00 -3.2684276964e+00 1.8870276104e+00 3.2684276964e+00 
110000 6.4061784885e+00 -5.5072072211e-05 1.8870276104e+00 -3.2684276964e+00 1.8870276104e+00 3.2684276964e+00 
110100 6.4061784888e+00 -5.3211380169e-05 1.8870276104e+00 -3.2684276964e+00 1.8870276104e+00 3.2684276964e+00 
110200 6.4061784892e+00 -5.1274960036e-05 1.8870276104e+00 -3.2684276964e+00 1.8870276104e+00 3.2684276964e+00 
110300 6.4061784895e+00 -4.9268190300e-05 1.8870276104e+00 -3.2684276964e+00 1.8870276104e+00 3.2684276964e+00 
110400 6.4061784898e+00 -4.7196408249e-05 1.8870276104e+00 -3.2684276964e+00 1.8870276104e+00 3.2684276964e+00 
110500 6.4061784902e+00 -4.5064902661e-05 1.8870276104e+00 -3.2684276964e+00 1.8870276104e+00 3.2684276964e+00 
110600 6.4061784905e+00 -4.2878906734e-05 1.8870276104e+00 -3.2684276964e+00 1.8870276104e+00 3.2684276964e+00 
110700 6.4061784908e+00 -4.0643591321e-05 1.8870276104e+00 -3.2684276964e+00 1.8870276104e+00 3.2684276964e+00 
110800 6.4061784911e+00 -3.8364058419e-05 1.8870276104e+00 -3.2684276964e+00 1.8870276104e+00 3.2684276964e+00 
110900 6.4061784914e+00 -3.6045334943e-05 1.8870276104e+00 -3.2684276964e+00 1.8870276104e+00 3.2684276964e+00 
111000 6.4061784917e+00 -3.3692366799e-05 1.8870276104e+00 -3.2684276964e+00 1.8870276104e+00 3.2684276964e+00 
111100 6.4061784920e+00 -3.1310013220e-05 1.8870276104e+00 -3.2684276964e+00 1.8870276104e+00 3.2684276964e+00 
111200 6.4061784922e+00 -2.8903041405e-05 1.8870276104e+00 -3.2684276964e+00 1.8870276104e+00 3.2684276964e+00 
111300 6.4061784925e+00 -2.6476121447e-05 1.8870276104e+00 -3.2684276964e+00 1.8870276104e+00 3.2684276964e+00 
111400 6.4061784927e+00 -2.4033821537e-05 1.8870276104e+00 -3.2684276964e+00 1.8870276104e+00 3.2684276964e+00 
111500 6.4061784929e+00 -2.1580603476e-05 1.8870276104e+00 -3.2684276964e+00 1.8870276104e+00 3.2684276964e+00 
111600 6.4061784931e+00 -1.9120818469e-05 1.8870276104e+00 -3.2684276964e+00 1.8870276104e+00 3.2684276964e+00 
111700 6.4061784933e+00 -1.6658703199e-05 1.8870276104e+00 -3.2684276964e+00 1.8870276104e+00 3.2684276964e+00 
111800 6.4061784934e+00 -1.4198376216e-05 1.8870276104e+00 -3.2684276964e+00 1.8870276104e+00 3.2684276964e+00 
111900 6.4061784936e+00 -1.1743834574e-05 1.8870276104e+00 -3.2684276964e+00 1.8870276104e+00 3.2684276964e+00 
112000 6.4061784937e+00 -9.2989507830e-06 1.8870276104e+00 -3.2684276964e+00 1.8870276104e+00 3.2684276964e+00 
112100 6.4061784938e+00 -6.8674700458e-06 1.8870276104e+00 -3.2684276964e+00 1.8870276104e+00 3.2684276964e+00 
112200 6.4061784939e+00 -4.4530077371e-06 1.8870276104e+00 -3.2684276964e+00 1.8870276104e+00 3.2684276964e+00 
112300 6.4061784940e+00 -2.0590472028e-06 1.8870276104e+00 -3.2684276964e+00 1.8870276104e+00 3.2684276964e+00 
112400 6.4061784940e+00 3.1106219728e-07 1.8870276104e+00 -3.2684276964e+00 1.8870276104e+00 3.2684276964e+00 
112500 6.4061784941e+00 2.6541067573e-06 1.8870276104e+00 -3.2684276964e+00 1.8870276104e+00 3.2684276964e+00 
112600 6.4061784941e+00 4.9670098557e-06 1.8870276104e+00 -3.2684276964e+00 1.8870276104e+00 3.2684276964e+00 
112700 6.4061784941e+00 7.2468330923e-06 1.8870276104e+00 -3.2684276964e+00 1.8870276104e+00 3.2684276964e+00 
112800 6.4061784941e+00 7.2707118617e-06 1.8870276104e+00 -3.2684276964e+00 1.8870276104e+00 3.2684276964e+00 
112800 6.4061784941e+00 7.2707118617e-06 1.8870276104e+00 -3.2684276964e+00 1.8870276104e+00 3.2684276964e+00 
