# step Hamiltonian StressXX CellTensor1 CellTensor2 CellTensor3 CellTensor4 
0 5.4218931621e+00 7.5309719833e-02 1.7438352029e+00 -3.0204111715e+00 1.7438352029e+00 3.0204111715e+00 
100 5.4192159564e+00 7.7146074484e-02 1.7438352029e+00 -3.0204111715e+00 1.7438352029e+00 3.0204111715e+00 
200 5.4164805260e+00 7.7280082256e-02 1.7416237054e+00 -3.0165807454e+00 1.7416237054e+00 3.0165807454e+00 
300 5.4138696567e+00 7.7438860798e-02 1.7394055554e+00 -3.0127387969e+00 1.7394055554e+00 3.0127387969e+00 
400 5.4113746258e+00 7.7615819032e-02 1.7371800157e+00 -3.0088840490e+00 1.7371800157e+00 3.0088840490e+00 
500 5.4089874716e+00 7.7804925710e-02 1.7349465349e+00 -3.0050155469e+00 1.7349465349e+00 3.0050155469e+00 
600 5.4067009214e+00 7.8000665503e-02 1.7327047326e+00 -3.0011326313e+00 1.7327047326e+00 3.0011326313e+00 
700 5.4045083261e+00 7.8197998966e-02 1.7304543850e+00 -2.9972349151e+00 1.7304543850e+00 2.9972349151e+00 
800 5.4024036023e+00 7.8392326175e-02 1.7281954131e+00 -2.9933222608e+00 1.7281954131e+00 2.9933222608e+00 
900 5.4003811785e+00 7.8579453835e-02 1.7259278698e+00 -2.9893947607e+00 1.7259278698e+00 2.9893947607e+00 
1000 5.3984359485e+00 7.8755565617e-02 1.7236519300e+00 -2.9854527174e+00 1.7236519300e+00 2.9854527174e+00 
1100 5.3965632287e+00 7.8917195488e-02 1.7213678800e+00 -2.9814966267e+00 1.7213678800e+00 2.9814966267e+00 
1200 5.3947587202e+00 7.9061203788e-02 1.7190761079e+00 -2.9775271610e+00 1.7190761079e+00 2.9775271610e+00 
1300 5.3930184748e+00 7.9184755803e-02 1.7167770953e+00 -2.9735451543e+00 1.7167770953e+00 2.9735451543e+00 
1400 5.3913388651e+00 7.9285302580e-02 1.7144714086e+00 -2.9695515877e+00 1.7144714086e+00 2.9695515877e+00 
1500 5.3897165566e+00 7.9360563738e-02 1.7121596915e+00 -2.9655475763e+00 1.7121596915e+00 2.9655475763e+00 
1600 5.3881484841e+00 7.9408512037e-02 1.7098426577e+00 -2.9615343561e+00 1.7098426577e+00 2.9615343561e+00 
1700 5.3866318293e+00 7.9427359470e-02 1.7075210840e+00 -2.9575132726e+00 1.7075210840e+00 2.9575132726e+00 
1800 5.3851640011e+00 7.9415544676e-02 1.7051958037e+00 -2.9534857689e+00 1.7051958037e+00 2.9534857689e+00 
1900 5.3837426177e+00 7.9371721451e-02 1.7028677003e+00 -2.9494533754e+00 1.7028677003e+00 2.9494533754e+00 
2000 5.3823654899e+00 7.9294748184e-02 1.7005377015e+00 -2.9454176992e+00 1.7005377015e+00 2.9454176992e+00 
2100 5.3810306063e+00 7.9183678063e-02 1.6982067740e+00 -2.9413804142e+00 1.6982067740e+00 2.9413804142e+00 
2200 5.3797361190e+00 7.9037749869e-02 1.6958759172e+00 -2.9373432519e+00 1.6958759172e+00 2.9373432519e+00 
2300 5.3784803311e+00 7.8856379264e-02 1.6935461588e+00 -2.9333079919e+00 1.6935461588e+00 2.9333079919e+00 
2400 5.3772616843e+00 7.8639150439e-02 1.6912185491e+00 -2.9292764538e+00 1.6912185491e+00 2.9292764538e+00 
2500 5.3760787478e+00 7.8385808029e-02 1.6888941568e+00 -2.9252504882e+00 1.6888941568e+00 2.9252504882e+00 
2600 5.3749302074e+00 7.8096249232e-02 1.6865740637e+00 -2.9212319691e+00 1.6865740637e+00 2.9212319691e+00 
2700 5.3738148558e+00 7.7770516054e-02 1.6842593609e+00 -2.9172227861e+00 1.6842593609e+00 2.9172227861e+00 
2800 5.3727315827e+00 7.7408787643e-02 1.6819511438e+00 -2.9132248369e+00 1.6819511438e+00 2.9132248369e+00 
2900 5.3716793661e+00 7.7011372675e-02 1.6796505088e+00 -2.9092400203e+00 1.6796505088e+00 2.9092400203e+00 
3000 5.3706572639e+00 7.6578701772e-02 1.6773585490e+00 -2.9052702293e+00 1.6773585490e+00 2.9052702293e+00 
3100 5.3696644054e+00 7.6111319934e-02 1.6750763503e+00 -2.9013173453e+00 1.6750763503e+00 2.9013173453e+00 
3200 5.3686999843e+00 7.5609878993e-02 1.6728049884e+00 -2.8973832311e+00 1.6728049884e+00 2.8973832311e+00 
3300 5.3677632510e+00 7.5075130082e-02 1.6705455251e+00 -2.8934697258e+00 1.6705455251e+00 2.8934697258e+00 
3400 5.3668535064e+00 7.4507916135e-02 1.6682990051e+00 -2.8895786391e+00 1.6682990051e+00 2.8895786391e+00 
3500 5.3659700953e+00 7.3909164428e-02 1.6660664535e+00 -2.8857117463e+00 1.6660664535e+00 2.8857117463e+00 
3600 5.3651124010e+00 7.3279879185e-02 1.6638488726e+00 -2.8818707835e+00 1.6638488726e+00 2.8818707835e+00 
3700 5.3642798394e+00 7.2621134265e-02 1.6616472396e+00 -2.8780574432e+00 1.6616472396e+00 2.8780574432e+00 
3800 5.3634718544e+00 7.1934065951e-02 1.6594625040e+00 -2.8742733702e+00 1.6594625040e+00 2.8742733702e+00 
3900 5.3626879136e+00 7.1219865865e-02 1.6572955859e+00 -2.8705201580e+00 1.6572955859e+00 2.8705201580e+00 
4000 5.3619275038e+00 7.0479774032e-02 1.6551473736e+00 -2.8667993451e+00 1.6551473736e+00 2.8667993451e+00 
4100 5.3611901274e+00 6.9715072117e-02 1.6530187219e+00 -2.8631124122e+00 1.6530187219e+00 2.8631124122e+00 
4200 5.3604752997e+00 6.8927076845e-02 1.6509104509e+00 -2.8594607796e+00 1.6509104509e+00 2.8594607796e+00 
4300 5.3597825453e+00 6.8117133641e-02 1.6488233439e+00 -2.8558458044e+00 1.6488233439e+00 2.8558458044e+00 
4400 5.3591113962e+00 6.7286610491e-02 1.6467581472e+00 -2.8522687787e+00 1.6467581472e+00 2.8522687787e+00 
4500 5.3584613893e+00 6.6436892045e-02 1.6447155679e+00 -2.8487309276e+00 1.6447155679e+00 2.8487309276e+00 
4600 5.3578320652e+00 6.5569373986e-02 1.6426962741e+00 -2.8452334082e+00 1.6426962741e+00 2.8452334082e+00 
4700 5.3572229659e+00 6.4685457663e-02 1.6407008937e+00 -2.8417773079e+00 1.6407008937e+00 2.8417773079e+00 
4800 5.3566336346e+00 6.3786544997e-02 1.6387300138e+00 -2.8383636437e+00 1.6387300138e+00 2.8383636437e+00 
4900 5.3560636142e+00 6.2874033682e-02 1.6367841806e+00 -2.8349933618e+00 1.6367841806e+00 2.8349933618e+00 
5000 5.3555124469e+00 6.1949312671e-02 1.6348638993e+00 -2.8316673370e+00 1.6348638993e+00 2.8316673370e+00 
5100 5.3549796739e+00 6.1013757959e-02 1.6329696335e+00 -2.8283863725e+00 1.6329696335e+00 2.8283863725e+00 
5200 5.3544648354e+00 6.0068728661e-02 1.6311018061e+00 -2.8251512004e+00 1.6311018061e+00 2.8251512004e+00 
5300 5.3539674700e+00 5.9115563382e-02 1.6292607985e+00 -2.8219624818e+00 1.6292607985e+00 2.8219624818e+00 
5400 5.3534871159e+00 5.8155576883e-02 1.6274469520e+00 -2.8188208075e+00 1.6274469520e+00 2.8188208075e+00 
5500 5.3530233102e+00 5.7190057040e-02 1.6256605674e+00 -2.8157266986e+00 1.6256605674e+00 2.8157266986e+00 
5600 5.3525755902e+00 5.6220262073e-02 1.6239019059e+00 -2.8126806076e+00 1.6239019059e+00 2.8126806076e+00 
5700 5.3521434934e+00 5.5247418070e-02 1.6221711898e+00 -2.8096829193e+00 1.6221711898e+00 2.8096829193e+00 
5800 5.3517265584e+00 5.4272716770e-02 1.6204686031e+00 -2.8067339527e+00 1.6204686031e+00 2.8067339527e+00 
5900 5.3513243256e+00 5.3297313611e-02 1.6187942924e+00 -2.8038339614e+00 1.6187942924e+00 2.8038339614e+00 
6000 5.3509363378e+00 5.2322326029e-02 1.6171483677e+00 -2.8009831362e+00 1.6171483677e+00 2.8009831362e+00 
6100 5.3505621412e+00 5.1348832002e-02 1.6155309034e+00 -2.7981816059e+00 1.6155309034e+00 2.7981816059e+00 
6200 5.3502012859e+00 5.0377868825e-02 1.6139419395e+00 -2.7954294397e+00 1.6139419395e+00 2.7954294397e+00 
6300 5.3498533268e+00 4.9410432102e-02 1.6123814825e+00 -2.7927266488e+00 1.6123814825e+00 2.7927266488e+00 
6400 5.3495178247e+00 4.8447474955e-02 1.6108495063e+00 -2.7900731883e+00 1.6108495063e+00 2.7900731883e+00 
6500 5.3491943464e+00 4.7489907423e-02 1.6093459540e+00 -2.7874689593e+00 1.6093459540e+00 2.7874689593e+00 
6600 5.3488824660e+00 4.6538596052e-02 1.6078707385e+00 -2.7849138110e+00 1.6078707385e+00 2.7849138110e+00 
6700 5.3485817652e+00 4.5594363662e-02 1.6064237438e+00 -2.7824075427e+00 1.6064237438e+00 2.7824075427e+00 
6800 5.3482918343e+00 4.4657989268e-02 1.6050048266e+00 -2.7799499061e+00 1.6050048266e+00 2.7799499061e+00 
6900 5.3480122723e+00 4.3730208161e-02 1.6036138173e+00 -2.7775406073e+00 1.6036138173e+00 2.7775406073e+00 
7000 5.3477426880e+00 4.2811712125e-02 1.6022505213e+00 -2.7751793094e+00 1.6022505213e+00 2.7751793094e+00 
7100 5.3474827000e+00 4.1903149786e-02 1.6009147203e+00 -2.7728656341e+00 1.6009147203e+00 2.7728656341e+00 
7200 5.3472319373e+00 4.1005127072e-02 1.5996061735e+00 -2.7705991646e+00 1.5996061735e+00 2.7705991646e+00 
7300 5.3469900397e+00 4.0118207789e-02 1.5983246191e+00 -2.7683794473e+00 1.5983246191e+00 2.7683794473e+00 
7400 5.3467566581e+00 3.9242914289e-02 1.5970697754e+00 -2.7662059942e+00 1.5970697754e+00 2.7662059942e+00 
7500 5.3465314545e+00 3.8379728227e-02 1.5958413419e+00 -2.7640782850e+00 1.5958413419e+00 2.7640782850e+00 
7600 5.3463141025e+00 3.7529091399e-02 1.5946390011e+00 -2.7619957696e+00 1.5946390011e+00 2.7619957696e+00 
7700 5.3461042872e+00 3.6691406642e-02 1.5934624190e+00 -2.7599578697e+00 1.5934624190e+00 2.7599578697e+00 
7800 5.3459017053e+00 3.5867038805e-02 1.5923112471e+00 -2.7579639814e+00 1.5923112471e+00 2.7579639814e+00 
7900 5.3457060651e+00 3.5056315767e-02 1.5911851228e+00 -2.7560134769e+00 1.5911851228e+00 2.7560134769e+00 
8000 5.3455170865e+00 3.4259529498e-02 1.5900836712e+00 -2.7541057067e+00 1.5900836712e+00 2.7541057067e+00 
8100 5.3453345009e+00 3.3476937166e-02 1.5890065059e+00 -2.7522400017e+00 1.5890065059e+00 2.7522400017e+00 
8200 5.3451580511e+00 3.2708762269e-02 1.5879532303e+00 -2.7504156749e+00 1.5879532303e+00 2.7504156749e+00 
8300 5.3449874910e+00 3.1955195798e-02 1.5869234385e+00 -2.7486320231e+00 1.5869234385e+00 2.7486320231e+00 
8400 5.3448225853e+00 3.1216397415e-02 1.5859167165e+00 -2.7468883295e+00 1.5859167165e+00 2.7468883295e+00 
8500 5.3446631096e+00 3.0492496648e-02 1.5849326431e+00 -2.7451838645e+00 1.5849326431e+00 2.7451838645e+00 
8600 5.3445088500e+00 2.9783594097e-02 1.5839707912e+00 -2.7435178881e+00 1.5839707912e+00 2.7435178881e+00 
8700 5.3443596025e+00 2.9089762642e-02 1.5830307282e+00 -2.7418896513e+00 1.5830307282e+00 2.7418896513e+00 
8800 5.3442151730e+00 2.8411048652e-02 1.5821120175e+00 -2.7402983976e+00 1.5821120175e+00 2.7402983976e+00 
8900 5.3440753770e+00 2.7747473198e-02 1.5812142189e+00 -2.7387433647e+00 1.5812142189e+00 2.7387433647e+00 
9000 5.3439400390e+00 2.7099033247e-02 1.5803368897e+00 -2.7372237861e+00 1.5803368897e+00 2.7372237861e+00 
9100 5.3438089921e+00 2.6465702859e-02 1.5794795858e+00 -2.7357388921e+00 1.5794795858e+00 2.7357388921e+00 
9200 5.3436820781e+00 2.5847434366e-02 1.5786418617e+00 -2.7342879114e+00 1.5786418617e+00 2.7342879114e+00 
9300 5.3435591466e+00 2.5244159534e-02 1.5778232720e+00 -2.7328700725e+00 1.5778232720e+00 2.7328700725e+00 
9400 5.3434400548e+00 2.4655790711e-02 1.5770233717e+00 -2.7314846046e+00 1.5770233717e+00 2.7314846046e+00 
9500 5.3433246672e+00 2.4082221958e-02 1.5762417171e+00 -2.7301307390e+00 1.5762417171e+00 2.7301307390e+00 
9600 5.3432128552e+00 2.3523330153e-02 1.5754778661e+00 -2.7288077103e+00 1.5754778661e+00 2.7288077103e+00 
9700 5.3431044965e+00 2.2978976080e-02 1.5747313792e+00 -2.7275147571e+00 1.5747313792e+00 2.7275147571e+00 
9800 5.3429994753e+00 2.2449005483e-02 1.5740018198e+00 -2.7262511232e+00 1.5740018198e+00 2.7262511232e+00 
9900 5.3428976810e+00 2.1933250110e-02 1.5732887549e+00 -2.7250160585e+00 1.5732887549e+00 2.7250160585e+00 
10000 5.3427990090e+00 2.1431528715e-02 1.5725917554e+00 -2.7238088199e+00 1.5725917554e+00 2.7238088199e+00 
10100 5.3427033592e+00 2.0943648047e-02 1.5719103967e+00 -2.7226286721e+00 1.5719103967e+00 2.7226286721e+00 
10200 5.3426106368e+00 2.0469403799e-02 1.5712442593e+00 -2.7214748882e+00 1.5712442593e+00 2.7214748882e+00 
10300 5.3425207510e+00 2.0008581540e-02 1.5705929287e+00 -2.7203467505e+00 1.5705929287e+00 2.7203467505e+00 
10400 5.3424336153e+00 1.9560957609e-02 1.5699559964e+00 -2.7192435513e+00 1.5699559964e+00 2.7192435513e+00 
10500 5.3423491471e+00 1.9126299984e-02 1.5693330597e+00 -2.7181645934e+00 1.5693330597e+00 2.7181645934e+00 
10600 5.3422672673e+00 1.8704369123e-02 1.5687237224e+00 -2.7171091903e+00 1.5687237224e+00 2.7171091903e+00 
10700 5.3421879002e+00 1.8294918774e-02 1.5681275950e+00 -2.7160766673e+00 1.5681275950e+00 2.7160766673e+00 
10800 5.3421109729e+00 1.7897696751e-02 1.5675442948e+00 -2.7150663617e+00 1.5675442948e+00 2.7150663617e+00 
10900 5.3420364158e+00 1.7512445691e-02 1.5669734462e+00 -2.7140776229e+00 1.5669734462e+00 2.7140776229e+00 
11000 5.3419641615e+00 1.7138903770e-02 1.5664146810e+00 -2.7131098132e+00 1.5664146810e+00 2.7131098132e+00 
11100 5.3418941455e+00 1.6776805398e-02 1.5658676385e+00 -2.7121623079e+00 1.5658676385e+00 2.7121623079e+00 
11200 5.3418263051e+00 1.6425881878e-02 1.5653319659e+00 -2.7112344957e+00 1.5653319659e+00 2.7112344957e+00 
11300 5.3417605799e+00 1.6085862046e-02 1.5648073180e+00 -2.7103257788e+00 1.5648073180e+00 2.7103257788e+00 
11400 5.3416969117e+00 1.5756472868e-02 1.5642933575e+00 -2.7094355732e+00 1.5642933575e+00 2.7094355732e+00 
11500 5.3416352436e+00 1.5437440027e-02 1.5637897555e+00 -2.7085633088e+00 1.5637897555e+00 2.7085633088e+00 
11600 5.3415755208e+00 1.5128488461e-02 1.5632961908e+00 -2.7077084297e+00 1.5632961908e+00 2.7077084297e+00 
11700 5.3415176899e+00 1.4829342894e-02 1.5628123507e+00 -2.7068703941e+00 1.5628123507e+00 2.7068703941e+00 
11800 5.3414616988e+00 1.4539728327e-02 1.5623379306e+00 -2.7060486744e+00 1.5623379306e+00 2.7060486744e+00 
11900 5.3414074969e+00 1.4259370506e-02 1.5618726341e+00 -2.7052427572e+00 1.5618726341e+00 2.7052427572e+00 
12000 5.3413550351e+00 1.3987996365e-02 1.5614161732e+00 -2.7044521438e+00 1.5614161732e+00 2.7044521438e+00 
12100 5.3413042650e+00 1.3725334442e-02 1.5609682681e+00 -2.7036763493e+00 1.5609682681e+00 2.7036763493e+00 
12200 5.3412551397e+00 1.3471115274e-02 1.5605286470e+00 -2.7029149033e+00 1.5605286470e+00 2.7029149033e+00 
12300 5.3412076133e+00 1.3225071760e-02 1.5600970467e+00 -2.7021673496e+00 1.5600970467e+00 2.7021673496e+00 
12400 5.3411616410e+00 1.2986939510e-02 1.5596732117e+00 -2.7014332459e+00 1.5596732117e+00 2.7014332459e+00 
12500 5.3411171786e+00 1.2756457160e-02 1.5592568950e+00 -2.7007121641e+00 1.5592568950e+00 2.7007121641e+00 
12600 5.3410741834e+00 1.2533366675e-02 1.5588478572e+00 -2.7000036899e+00 1.5588478572e+00 2.7000036899e+00 
12700 5.3410326132e+00 1.2317413623e-02 1.5584458671e+00 -2.6993074227e+00 1.5584458671e+00 2.6993074227e+00 
12800 5.3409924268e+00 1.2108347430e-02 1.5580507012e+00 -2.6986229753e+00 1.5580507012e+00 2.6986229753e+00 
12900 5.3409535839e+00 1.1905921614e-02 1.5576621438e+00 -2.6979499741e+00 1.5576621438e+00 2.6979499741e+00 
13000 5.3409160450e+00 1.1709894001e-02 1.5572799866e+00 -2.6972880584e+00 1.5572799866e+00 2.6972880584e+00 
13100 5.3408797714e+00 1.1520026915e-02 1.5569040291e+00 -2.6966368809e+00 1.5569040291e+00 2.6966368809e+00 
13200 5.3408447253e+00 1.1336087360e-02 1.5565340779e+00 -2.6959961066e+00 1.5565340779e+00 2.6959961066e+00 
13300 5.3408108696e+00 1.1157847174e-02 1.5561699469e+00 -2.6953654133e+00 1.5561699469e+00 2.6953654133e+00 
13400 5.3407781680e+00 1.0985083169e-02 1.5558114572e+00 -2.6947444909e+00 1.5558114572e+00 2.6947444909e+00 
13500 5.3407465851e+00 1.0817577256e-02 1.5554584367e+00 -2.6941330414e+00 1.5554584367e+00 2.6941330414e+00 
13600 5.3407160862e+00 1.0655116554e-02 1.5551107201e+00 -2.6935307786e+00 1.5551107201e+00 2.6935307786e+00 
13700 5.3406866374e+00 1.0497493477e-02 1.5547681488e+00 -2.6929374277e+00 1.5547681488e+00 2.6929374277e+00 
13800 5.3406582055e+00 1.0344505814e-02 1.5544305707e+00 -2.6923527253e+00 1.5544305707e+00 2.6923527253e+00 
13900 5.3406307582e+00 1.0195956791e-02 1.5540978400e+00 -2.6917764187e+00 1.5540978400e+00 2.6917764187e+00 
14000 5.3406042638e+00 1.0051655121e-02 1.5537698169e+00 -2.6912082662e+00 1.5537698169e+00 2.6912082662e+00 
14100 5.3405786915e+00 9.9114150383e-03 1.5534463679e+00 -2.6906480360e+00 1.5534463679e+00 2.6906480360e+00 
14200 5.3405540113e+00 9.7750563210e-03 1.5531273651e+00 -2.6900955069e+00 1.5531273651e+00 2.6900955069e+00 
14300 5.3405301938e+00 9.6424043058e-03 1.5528126862e+00 -2.6895504672e+00 1.5528126862e+00 2.6895504672e+00 
14400 5.3405072105e+00 9.5132898860e-03 1.5525022147e+00 -2.6890127147e+00 1.5525022147e+00 2.6890127147e+00 
14500 5.3404850335e+00 9.3875495024e-03 1.5521958391e+00 -2.6884820566e+00 1.5521958391e+00 2.6884820566e+00 
14600 5.3404636360e+00 9.2650251229e-03 1.5518934531e+00 -2.6879583087e+00 1.5518934531e+00 2.6879583087e+00 
14700 5.3404429915e+00 9.1455642128e-03 1.5515949556e+00 -2.6874412958e+00 1.5515949556e+00 2.6874412958e+00 
14800 5.3404230744e+00 9.0290196963e-03 1.5513002499e+00 -2.6869308507e+00 1.5513002499e+00 2.6869308507e+00 
14900 5.3404038601e+00 8.9152499096e-03 1.5510092445e+00 -2.6864268144e+00 1.5510092445e+00 2.6864268144e+00 
15000 5.3403853243e+00 8.8041185467e-03 1.5507218518e+00 -2.6859290357e+00 1.5507218518e+00 2.6859290357e+00 
15100 5.3403674437e+00 8.6954945965e-03 1.5504379888e+00 -2.6854373706e+00 1.5504379888e+00 2.6854373706e+00 
15200 5.3403501956e+00 8.5892522749e-03 1.5501575767e+00 -2.6849516826e+00 1.5501575767e+00 2.6849516826e+00 
15300 5.3403335580e+00 8.4852709495e-03 1.5498805405e+00 -2.6844718417e+00 1.5498805405e+00 2.6844718417e+00 
15400 5.3403175097e+00 8.3834350585e-03 1.5496068090e+00 -2.6839977249e+00 1.5496068090e+00 2.6839977249e+00 
15500 5.3403020301e+00 8.2836340250e-03 1.5493363149e+00 -2.6835292153e+00 1.5493363149e+00 2.6835292153e+00 
15600 5.3402870992e+00 8.1857621657e-03 1.5490689941e+00 -2.6830662022e+00 1.5490689941e+00 2.6830662022e+00 
15700 5.3402726978e+00 8.0897185954e-03 1.5488047860e+00 -2.6826085804e+00 1.5488047860e+00 2.6826085804e+00 
15800 5.3402588072e+00 7.9954071279e-03 1.5485436333e+00 -2.6821562507e+00 1.5485436333e+00 2.6821562507e+00 
15900 5.3402454095e+00 7.9027361727e-03 1.5482854816e+00 -2.6817091187e+00 1.5482854816e+00 2.6817091187e+00 
16000 5.3402324872e+00 7.8116186289e-03 1.5480302793e+00 -2.6812670955e+00 1.5480302793e+00 2.6812670955e+00 
16100 5.3402200235e+00 7.7219717761e-03 1.5477779779e+00 -2.6808300965e+00 1.5477779779e+00 2.6808300965e+00 
16200 5.3402080023e+00 7.6337171630e-03 1.5475285311e+00 -2.6803980420e+00 1.5475285311e+00 2.6803980420e+00 
16300 5.3401964080e+00 7.5467804939e-03 1.5472818954e+00 -2.6799708565e+00 1.5472818954e+00 2.6799708565e+00 
16400 5.3401852254e+00 7.4610915135e-03 1.5470380297e+00 -2.6795484686e+00 1.5470380297e+00 2.6795484686e+00 
16500 5.3401744401e+00 7.3765838902e-03 1.5467968947e+00 -2.6791308107e+00 1.5467968947e+00 2.6791308107e+00 
16600 5.3401640380e+00 7.2931950980e-03 1.5465584538e+00 -2.6787178188e+00 1.5465584538e+00 2.6787178188e+00 
16700 5.3401540057e+00 7.2108662985e-03 1.5463226719e+00 -2.6783094326e+00 1.5463226719e+00 2.6783094326e+00 
16800 5.3401443301e+00 7.1295422214e-03 1.5460895160e+00 -2.6779055948e+00 1.5460895160e+00 2.6779055948e+00 
16900 5.3401349988e+00 7.0491710450e-03 1.5458589548e+00 -2.6775062510e+00 1.5458589548e+00 2.6775062510e+00 
17000 5.3401259997e+00 6.9697042772e-03 1.5456309587e+00 -2.6771113501e+00 1.5456309587e+00 2.6771113501e+00 
17100 5.3401173213e+00 6.8910966362e-03 1.5454054994e+00 -2.6767208433e+00 1.5454054994e+00 2.6767208433e+00 
17200 5.3401089522e+00 6.8133059314e-03 1.5451825505e+00 -2.6763346844e+00 1.5451825505e+00 2.6763346844e+00 
17300 5.3401008818e+00 6.7362929462e-03 1.5449620864e+00 -2.6759528295e+00 1.5449620864e+00 2.6759528295e+00 
17400 5.3400930997e+00 6.6600213200e-03 1.5447440832e+00 -2.6755752368e+00 1.5447440832e+00 2.6755752368e+00 
17500 5.3400855960e+00 6.5844574327e-03 1.5445285178e+00 -2.6752018666e+00 1.5445285178e+00 2.6752018666e+00 
17600 5.3400783611e+00 6.5095702896e-03 1.5443153685e+00 -2.6748326811e+00 1.5443153685e+00 2.6748326811e+00 
17700 5.3400713857e+00 6.4353314079e-03 1.5441046142e+00 -2.6744676439e+00 1.5441046142e+00 2.6744676439e+00 
17800 5.3400646610e+00 6.3617147047e-03 1.5438962349e+00 -2.6741067205e+00 1.5438962349e+00 2.6741067205e+00 
17900 5.3400581784e+00 6.2886963870e-03 1.5436902116e+00 -2.6737498776e+00 1.5436902116e+00 2.6737498776e+00 
18000 5.3400519296e+00 6.2162548431e-03 1.5434865257e+00 -2.6733970833e+00 1.5434865257e+00 2.6733970833e+00 
18100 5.3400459068e+00 6.1443705360e-03 1.5432851595e+00 -2.6730483069e+00 1.5432851595e+00 2.6730483069e+00 
18200 5.3400401023e+00 6.0730258993e-03 1.5430860959e+00 -2.6727035186e+00 1.5430860959e+00 2.6727035186e+00 
18300 5.3400345087e+00 6.0022052344e-03 1.5428893183e+00 -2.6723626897e+00 1.5428893183e+00 2.6723626897e+00 
18400 5.3400291189e+00 5.9318946105e-03 1.5426948105e+00 -2.6720257924e+00 1.5426948105e+00 2.6720257924e+00 
18500 5.3400239261e+00 5.8620817671e-03 1.5425025569e+00 -2.6716927994e+00 1.5425025569e+00 2.6716927994e+00 
18600 5.3400189238e+00 5.7927560180e-03 1.5423125423e+00 -2.6713636844e+00 1.5423125423e+00 2.6713636844e+00 
18700 5.3400141055e+00 5.7239081588e-03 1.5421247516e+00 -2.6710384214e+00 1.5421247516e+00 2.6710384214e+00 
18800 5.3400094652e+00 5.6555303760e-03 1.5419391702e+00 -2.6707169850e+00 1.5419391702e+00 2.6707169850e+00 
18900 5.3400049969e+00 5.5876161588e-03 1.5417557837e+00 -2.6703993502e+00 1.5417557837e+00 2.6703993502e+00 
19000 5.3400006950e+00 5.5201602142e-03 1.5415745777e+00 -2.6700854922e+00 1.5415745777e+00 2.6700854922e+00 
19100 5.3399965539e+00 5.4531583836e-03 1.5413955383e+00 -2.6697753868e+00 1.5413955383e+00 2.6697753868e+00 
19200 5.3399925683e+00 5.3866075624e-03 1.5412186513e+00 -2.6694690097e+00 1.5412186513e+00 2.6694690097e+00 
19300 5.3399887331e+00 5.3205056228e-03 1.5410439031e+00 -2.6691663368e+00 1.5410439031e+00 2.6691663368e+00 
19400 5.3399850433e+00 5.2548513386e-03 1.5408712796e+00 -2.6688673442e+00 1.5408712796e+00 2.6688673442e+00 
19500 5.3399814942e+00 5.1896443125e-03 1.5407007672e+00 -2.6685720080e+00 1.5407007672e+00 2.6685720080e+00 
19600 5.3399780812e+00 5.1248849065e-03 1.5405323519e+00 -2.6682803043e+00 1.5405323519e+00 2.6682803043e+00 
19700 5.3399747996e+00 5.0605741748e-03 1.5403660201e+00 -2.6679922090e+00 1.5403660201e+00 2.6679922090e+00 
19800 5.3399716453e+00 4.9967137995e-03 1.5402017577e+00 -2.6677076982e+00 1.5402017577e+00 2.6677076982e+00 
19900 5.3399686141e+00 4.9333060279e-03 1.5400395508e+00 -2.6674267477e+00 1.5400395508e+00 2.6674267477e+00 
20000 5.3399657018e+00 4.8703536139e-03 1.5398793854e+00 -2.6671493331e+00 1.5398793854e+00 2.6671493331e+00 
20100 5.3399629045e+00 4.8078597609e-03 1.5397212474e+00 -2.6668754300e+00 1.5397212474e+00 2.6668754300e+00 
20200 5.3399602186e+00 4.7458280675e-03 1.5395651224e+00 -2.6666050136e+00 1.5395651224e+00 2.6666050136e+00 
20300 5.3399576402e+00 4.6842624754e-03 1.5394109961e+00 -2.6663380590e+00 1.5394109961e+00 2.6663380590e+00 
20400 5.3399551659e+00 4.6231672208e-03 1.5392588540e+00 -2.6660745411e+00 1.5392588540e+00 2.6660745411e+00 
20500 5.3399527922e+00 4.5625467865e-03 1.5391086813e+00 -2.6658144345e+00 1.5391086813e+00 2.6658144345e+00 
20600 5.3399505157e+00 4.5024058581e-03 1.5389604633e+00 -2.6655577133e+00 1.5389604633e+00 2.6655577133e+00 
20700 5.3399483332e+00 4.4427492814e-03 1.5388141849e+00 -2.6653043516e+00 1.5388141849e+00 2.6653043516e+00 
20800 5.3399462416e+00 4.3835820225e-03 1.5386698309e+00 -2.6650543231e+00 1.5386698309e+00 2.6650543231e+00 
20900 5.3399442378e+00 4.3249091303e-03 1.5385273859e+00 -2.6648076013e+00 1.5385273859e+00 2.6648076013e+00 
21000 5.3399423190e+00 4.2667357003e-03 1.5383868345e+00 -2.6645641591e+00 1.5383868345e+00 2.6645641591e+00 
21100 5.3399404821e+00 4.2090668422e-03 1.5382481610e+00 -2.6643239695e+00 1.5382481610e+00 2.6643239695e+00 
21200 5.3399387245e+00 4.1519076476e-03 1.5381113494e+00 -2.6640870048e+00 1.5381113494e+00 2.6640870048e+00 
21300 5.3399370435e+00 4.0952631614e-03 1.5379763836e+00 -2.6638532373e+00 1.5379763836e+00 2.6638532373e+00 
21400 5.3399354364e+00 4.0391383543e-03 1.5378432475e+00 -2.6636226387e+00 1.5378432475e+00 2.6636226387e+00 
21500 5.3399339008e+00 3.9835380970e-03 1.5377119246e+00 -2.6633951808e+00 1.5377119246e+00 2.6633951808e+00 
21600 5.3399324341e+00 3.9284671373e-03 1.5375823983e+00 -2.6631708347e+00 1.5375823983e+00 2.6631708347e+00 
21700 5.3399310341e+00 3.8739300779e-03 1.5374546519e+00 -2.6629495714e+00 1.5374546519e+00 2.6629495714e+00 
21800 5.3399296984e+00 3.8199313566e-03 1.5373286684e+00 -2.6627313617e+00 1.5373286684e+00 2.6627313617e+00 
21900 5.3399284248e+00 3.7664752280e-03 1.5372044309e+00 -2.6625161759e+00 1.5372044309e+00 2.6625161759e+00 
22000 5.3399272111e+00 3.7135657466e-03 1.5370819219e+00 -2.6623039842e+00 1.5370819219e+00 2.6623039842e+00 
22100 5.3399260552e+00 3.6612067519e-03 1.5369611243e+00 -2.6620947566e+00 1.5369611243e+00 2.6620947566e+00 
22200 5.3399249550e+00 3.6094018548e-03 1.5368420205e+00 -2.6618884626e+00 1.5368420205e+00 2.6618884626e+00 
22300 5.3399239087e+00 3.5581544254e-03 1.5367245928e+00 -2.6616850719e+00 1.5367245928e+00 2.6616850719e+00 
22400 5.3399229142e+00 3.5074675822e-03 1.5366088235e+00 -2.6614845537e+00 1.5366088235e+00 2.6614845537e+00 
22500 5.3399219698e+00 3.4573441828e-03 1.5364946948e+00 -2.6612868769e+00 1.5364946948e+00 2.6612868769e+00 
22600 5.3399210736e+00 3.4077868158e-03 1.5363821886e+00 -2.6610920106e+00 1.5363821886e+00 2.6610920106e+00 
22700 5.3399202239e+00 3.3587977935e-03 1.5362712870e+00 -2.6608999233e+00 1.5362712870e+00 2.6608999233e+00 
22800 5.3399194190e+00 3.3103791469e-03 1.5361619717e+00 -2.6607105837e+00 1.5361619717e+00 2.6607105837e+00 
22900 5.3399186573e+00 3.2625326204e-03 1.5360542246e+00 -2.6605239602e+00 1.5360542246e+00 2.6605239602e+00 
23000 5.3399179372e+00 3.2152596686e-03 1.5359480274e+00 -2.6603400212e+00 1.5359480274e+00 2.6603400212e+00 
23100 5.3399172571e+00 3.1685614537e-03 1.5358433616e+00 -2.6601587348e+00 1.5358433616e+00 2.6601587348e+00 
23200 5.3399166155e+00 3.1224388439e-03 1.5357402090e+00 -2.6599800692e+00 1.5357402090e+00 2.6599800692e+00 
23300 5.3399160111e+00 3.0768924128e-03 1.5356385510e+00 -2.6598039924e+00 1.5356385510e+00 2.6598039924e+00 
23400 5.3399154425e+00 3.0319224394e-03 1.5355383693e+00 -2.6596304725e+00 1.5355383693e+00 2.6596304725e+00 
23500 5.3399149082e+00 2.9875289092e-03 1.5354396453e+00 -2.6594594775e+00 1.5354396453e+00 2.6594594775e+00 
23600 5.3399144069e+00 2.9437115160e-03 1.5353423605e+00 -2.6592909754e+00 1.5353423605e+00 2.6592909754e+00 
23700 5.3399139376e+00 2.9004696642e-03 1.5352464965e+00 -2.6591249341e+00 1.5352464965e+00 2.6591249341e+00 
23800 5.3399134988e+00 2.8578024721e-03 1.5351520348e+00 -2.6589613216e+00 1.5351520348e+00 2.6589613216e+00 
23900 5.3399130894e+00 2.8157087756e-03 1.5350589569e+00 -2.6588001060e+00 1.5350589569e+00 2.6588001060e+00 
24000 5.3399127082e+00 2.7741871321e-03 1.5349672445e+00 -2.6586412554e+00 1.5349672445e+00 2.6586412554e+00 
24100 5.3399123543e+00 2.7332358262e-03 1.5348768790e+00 -2.6584847379e+00 1.5348768790e+00 2.6584847379e+00 
24200 5.3399120264e+00 2.6928528743e-03 1.5347878423e+00 -2.6583305217e+00 1.5347878423e+00 2.6583305217e+00 
24300 5.3399117236e+00 2.6530360307e-03 1.5347001159e+00 -2.6581785751e+00 1.5347001159e+00 2.6581785751e+00 
24400 5.3399114449e+00 2.6137827938e-03 1.5346136817e+00 -2.6580288667e+00 1.5346136817e+00 2.6580288667e+00 
24500 5.3399111892e+00 2.5750904127e-03 1.5345285216e+00 -2.6578813650e+00 1.5345285216e+00 2.6578813650e+00 
24600 5.3399109558e+00 2.5369558941e-03 1.5344446174e+00 -2.6577360387e+00 1.5344446174e+00 2.6577360387e+00 
24700 5.3399107436e+00 2.4993760095e-03 1.5343619512e+00 -2.6575928567e+00 1.5343619512e+00 2.6575928567e+00 
24800 5.3399105517e+00 2.4623473031e-03 1.5342805052e+00 -2.6574517881e+00 1.5342805052e+00 2.6574517881e+00 
24900 5.3399103795e+00 2.4258660987e-03 1.5342002615e+00 -2.6573128020e+00 1.5342002615e+00 2.6573128020e+00 
25000 5.3399102260e+00 2.3899285089e-03 1.5341212026e+00 -2.6571758678e+00 1.5341212026e+00 2.6571758678e+00 
25100 5.3399100904e+00 2.3545304420e-03 1.5340433108e+00 -2.6570409553e+00 1.5340433108e+00 2.6570409553e+00 
25200 5.3399099721e+00 2.3196676113e-03 1.5339665688e+00 -2.6569080343e+00 1.5339665688e+00 2.6569080343e+00 
25300 5.3399098702e+00 2.2853355430e-03 1.5338909593e+00 -2.6567770748e+00 1.5338909593e+00 2.6567770748e+00 
25400 5.3399097841e+00 2.2515295849e-03 1.5338164652e+00 -2.6566480472e+00 1.5338164652e+00 2.6566480472e+00 
25500 5.3399097130e+00 2.2182449151e-03 1.5337430695e+00 -2.6565209221e+00 1.5337430695e+00 2.6565209221e+00 
25600 5.3399096564e+00 2.1854765504e-03 1.5336707553e+00 -2.6563956703e+00 1.5336707553e+00 2.6563956703e+00 
25700 5.3399096136e+00 2.1532193553e-03 1.5335995060e+00 -2.6562722628e+00 1.5335995060e+00 2.6562722628e+00 
25800 5.3399095840e+00 2.1214680506e-03 1.5335293050e+00 -2.6561506712e+00 1.5335293050e+00 2.6561506712e+00 
25900 5.3399095670e+00 2.0902172220e-03 1.5334601361e+00 -2.6560308671e+00 1.5334601361e+00 2.6560308671e+00 
26000 5.3399095620e+00 2.0594613289e-03 1.5333919830e+00 -2.6559128224e+00 1.5333919830e+00 2.6559128224e+00 
26100 5.3399095685e+00 2.0291947129e-03 1.5333248297e+00 -2.6557965095e+00 1.5333248297e+00 2.6557965095e+00 
26200 5.3399095860e+00 1.9994116064e-03 1.5332586604e+00 -2.6556819010e+00 1.5332586604e+00 2.6556819010e+00 
26300 5.3399096138e+00 1.9701061413e-03 1.5331934595e+00 -2.6555689697e+00 1.5331934595e+00 2.6555689697e+00 
26400 5.3399096517e+00 1.9412723570e-03 1.5331292115e+00 -2.6554576889e+00 1.5331292115e+00 2.6554576889e+00 
26500 5.3399096990e+00 1.9129042087e-03 1.5330659011e+00 -2.6553480321e+00 1.5330659011e+00 2.6553480321e+00 
26600 5.3399097553e+00 1.8849955758e-03 1.5330035134e+00 -2.6552399733e+00 1.5330035134e+00 2.6552399733e+00 
26700 5.3399098203e+00 1.8575402699e-03 1.5329420333e+00 -2.6551334867e+00 1.5329420333e+00 2.6551334867e+00 
26800 5.3399098933e+00 1.8305320424e-03 1.5328814463e+00 -2.6550285469e+00 1.5328814463e+00 2.6550285469e+00 
26900 5.3399099742e+00 1.8039645922e-03 1.5328217378e+00 -2.6549251288e+00 1.5328217378e+00 2.6549251288e+00 
27000 5.3399100624e+00 1.7778315738e-03 1.5327628936e+00 -2.6548232077e+00 1.5327628936e+00 2.6548232077e+00 
27100 5.3399101575e+00 1.7521266039e-03 1.5327048996e+00 -2.6547227592e+00 1.5327048996e+00 2.6547227592e+00 
27200 5.3399102593e+00 1.7268432690e-03 1.5326477420e+00 -2.6546237593e+00 1.5326477420e+00 2.6546237593e+00 
27300 5.3399103673e+00 1.7019751325e-03 1.5325914071e+00 -2.6545261843e+00 1.5325914071e+00 2.6545261843e+00 
27400 5.3399104813e+00 1.6775157413e-03 1.5325358813e+00 -2.6544300109e+00 1.5325358813e+00 2.6544300109e+00 
27500 5.3399106009e+00 1.6534586324e-03 1.5324811516e+00 -2.6543352162e+00 1.5324811516e+00 2.6543352162e+00 
27600 5.3399107257e+00 1.6297973393e-03 1.5324272048e+00 -2.6542417776e+00 1.5324272048e+00 2.6542417776e+00 
27700 5.3399108555e+00 1.6065253984e-03 1.5323740281e+00 -2.6541496729e+00 1.5323740281e+00 2.6541496729e+00 
27800 5.3399109901e+00 1.5836363549e-03 1.5323216089e+00 -2.6540588802e+00 1.5323216089e+00 2.6540588802e+00 
27900 5.3399111290e+00 1.5611237682e-03 1.5322699348e+00 -2.6539693780e+00 1.5322699348e+00 2.6539693780e+00 
28000 5.3399112721e+00 1.5389812182e-03 1.5322189935e+00 -2.6538811451e+00 1.5322189935e+00 2.6538811451e+00 
28100 5.3399114190e+00 1.5172023098e-03 1.5321687732e+00 -2.6537941609e+00 1.5321687732e+00 2.6537941609e+00 
28200 5.3399115696e+00 1.4957806786e-03 1.5321192618e+00 -2.6537084047e+00 1.5321192618e+00 2.6537084047e+00 
28300 5.3399117236e+00 1.4747099956e-03 1.5320704480e+00 -2.6536238567e+00 1.5320704480e+00 2.6536238567e+00 
28400 5.3399118807e+00 1.4539839718e-03 1.5320223202e+00 -2.6535404970e+00 1.5320223202e+00 2.6535404970e+00 
28500 5.3399120408e+00 1.4335963630e-03 1.5319748674e+00 -2.6534583062e+00 1.5319748674e+00 2.6534583062e+00 
28600 5.3399122036e+00 1.4135409734e-03 1.5319280784e+00 -2.6533772654e+00 1.5319280784e+00 2.6533772654e+00 
28700 5.3399123690e+00 1.3938116603e-03 1.5318819427e+00 -2.6532973559e+00 1.5318819427e+00 2.6532973559e+00 
28800 5.3399125366e+00 1.3744023375e-03 1.5318364495e+00 -2.6532185593e+00 1.5318364495e+00 2.6532185593e+00 
28900 5.3399127064e+00 1.3553069789e-03 1.5317915884e+00 -2.6531408577e+00 1.5317915884e+00 2.6531408577e+00 
29000 5.3399128782e+00 1.3365196220e-03 1.5317473493e+00 -2.6530642334e+00 1.5317473493e+00 2.6530642334e+00 
29100 5.3399130518e+00 1.3180343713e-03 1.5317037223e+00 -2.6529886691e+00 1.5317037223e+00 2.6529886691e+00 
29200 5.3399132269e+00 1.2998454006e-03 1.5316606974e+00 -2.6529141478e+00 1.5316606974e+00 2.6529141478e+00 
29300 5.3399134035e+00 1.2819469566e-03 1.5316182650e+00 -2.6528406528e+00 1.5316182650e+00 2.6528406528e+00 
29400 5.3399135815e+00 1.2643333606e-03 1.5315764158e+00 -2.6527681678e+00 1.5315764158e+00 2.6527681678e+00 
29500 5.3399137605e+00 1.2469990115e-03 1.5315351404e+00 -2.6526966768e+00 1.5315351404e+00 2.6526966768e+00 
29600 5.3399139406e+00 1.2299383879e-03 1.5314944298e+00 -2.6526261640e+00 1.5314944298e+00 2.6526261640e+00 
29700 5.3399141216e+00 1.2131460497e-03 1.5314542752e+00 -2.6525566140e+00 1.5314542752e+00 2.6525566140e+00 
29800 5.3399143033e+00 1.1966166402e-03 1.5314146677e+00 -2.6524880119e+00 1.5314146677e+00 2.6524880119e+00 
29900 5.3399144856e+00 1.1803448880e-03 1.5313755989e+00 -2.6524203427e+00 1.5313755989e+00 2.6524203427e+00 
30000 5.3399146685e+00 1.1643256076e-03 1.5313370603e+00 -2.6523535920e+00 1.5313370603e+00 2.6523535920e+00 
30100 5.3399148517e+00 1.1485537016e-03 1.5312990438e+00 -2.6522877455e+00 1.5312990438e+00 2.6522877455e+00 
30200 5.3399150352e+00 1.1330241613e-03 1.5312615414e+00 -2.6522227894e+00 1.5312615414e+00 2.6522227894e+00 
30300 5.3399152189e+00 1.1177320677e-03 1.5312245451e+00 -2.6521587099e+00 1.5312245451e+00 2.6521587099e+00 
30400 5.3399154027e+00 1.1026725926e-03 1.5311880473e+00 -2.6520954938e+00 1.5311880473e+00 2.6520954938e+00 
30500 5.3399155864e+00 1.0878409986e-03 1.5311520403e+00 -2.6520331279e+00 1.5311520403e+00 2.6520331279e+00 
30600 5.3399157700e+00 1.0732326405e-03 1.5311165168e+00 -2.6519715995e+00 1.5311165168e+00 2.6519715995e+00 
30700 5.3399159535e+00 1.0588429649e-03 1.5310814696e+00 -2.6519108959e+00 1.5310814696e+00 2.6519108959e+00 
30800 5.3399161366e+00 1.0446675108e-03 1.5310468915e+00 -2.6518510048e+00 1.5310468915e+00 2.6518510048e+00 
30900 5.3399163194e+00 1.0307019096e-03 1.5310127755e+00 -2.6517919141e+00 1.5310127755e+00 2.6517919141e+00 
31000 5.3399165018e+00 1.0169418850e-03 1.5309791148e+00 -2.6517336122e+00 1.5309791148e+00 2.6517336122e+00 
31100 5.3399166836e+00 1.0033832532e-03 1.5309459028e+00 -2.6516760872e+00 1.5309459028e+00 2.6516760872e+00 
31200 5.3399168649e+00 9.9002192215e-04 1.5309131328e+00 -2.6516193281e+00 1.5309131328e+00 2.6516193281e+00 
31300 5.3399170455e+00 9.7685389155e-04 1.5308807986e+00 -2.6515633235e+00 1.5308807986e+00 2.6515633235e+00 
31400 5.3399172255e+00 9.6387525222e-04 1.5308488938e+00 -2.6515080627e+00 1.5308488938e+00 2.6515080627e+00 
31500 5.3399174046e+00 9.5108218557e-04 1.5308174121e+00 -2.6514535349e+00 1.5308174121e+00 2.6514535349e+00 
31600 5.3399175830e+00 9.3847096297e-04 1.5307863477e+00 -2.6513997298e+00 1.5307863477e+00 2.6513997298e+00 
31700 5.3399177605e+00 9.2603794495e-04 1.5307556946e+00 -2.6513466370e+00 1.5307556946e+00 2.6513466370e+00 
31800 5.3399179371e+00 9.1377958040e-04 1.5307254470e+00 -2.6512942466e+00 1.5307254470e+00 2.6512942466e+00 
31900 5.3399181127e+00 9.0169240565e-04 1.5306955991e+00 -2.6512425486e+00 1.5306955991e+00 2.6512425486e+00 
32000 5.3399182873e+00 8.8977304350e-04 1.5306661455e+00 -2.6511915335e+00 1.5306661455e+00 2.6511915335e+00 
32100 5.3399184608e+00 8.7801820215e-04 1.5306370807e+00 -2.6511411918e+00 1.5306370807e+00 2.6511411918e+00 
32200 5.3399186333e+00 8.6642467408e-04 1.5306083994e+00 -2.6510915142e+00 1.5306083994e+00 2.6510915142e+00 
32300 5.3399188046e+00 8.5498933491e-04 1.5305800962e+00 -2.6510424916e+00 1.5305800962e+00 2.6510424916e+00 
32400 5.3399189748e+00 8.4370914211e-04 1.5305521660e+00 -2.6509941152e+00 1.5305521660e+00 2.6509941152e+00 
32500 5.3399191438e+00 8.3258113377e-04 1.5305246039e+00 -2.6509463761e+00 1.5305246039e+00 2.6509463761e+00 
32600 5.3399193116e+00 8.2160242724e-04 1.5304974047e+00 -2.6508992658e+00 1.5304974047e+00 2.6508992658e+00 
32700 5.3399194781e+00 8.1077021776e-04 1.5304705638e+00 -2.6508527760e+00 1.5304705638e+00 2.6508527760e+00 
32800 5.3399196433e+00 8.0008177708e-04 1.5304440762e+00 -2.6508068982e+00 1.5304440762e+00 2.6508068982e+00 
32900 5.3399198072e+00 7.8953445196e-04 1.5304179374e+00 -2.6507616245e+00 1.5304179374e+00 2.6507616245e+00 
33000 5.3399199698e+00 7.7912566274e-04 1.5303921428e+00 -2.6507169468e+00 1.5303921428e+00 2.6507169468e+00 
33100 5.3399201311e+00 7.6885290181e-04 1.5303666878e+00 -2.6506728574e+00 1.5303666878e+00 2.6506728574e+00 
33200 5.3399202910e+00 7.5871373209e-04 1.5303415679e+00 -2.6506293486e+00 1.5303415679e+00 2.6506293486e+00 
33300 5.3399204495e+00 7.4870578550e-04 1.5303167790e+00 -2.6505864128e+00 1.5303167790e+00 2.6505864128e+00 
33400 5.3399206066e+00 7.3882676135e-04 1.5302923166e+00 -2.6505440428e+00 1.5302923166e+00 2.6505440428e+00 
33500 5.3399207622e+00 7.2907442480e-04 1.5302681766e+00 -2.6505022311e+00 1.5302681766e+00 2.6505022311e+00 
33600 5.3399209165e+00 7.1944660527e-04 1.5302443549e+00 -2.6504609706e+00 1.5302443549e+00 2.6504609706e+00 
33700 5.3399210693e+00 7.0994119482e-04 1.5302208474e+00 -2.6504202544e+00 1.5302208474e+00 2.6504202544e+00 
33800 5.3399212207e+00 7.0055614656e-04 1.5301976501e+00 -2.6503800755e+00 1.5301976501e+00 2.6503800755e+00 
33900 5.3399213706e+00 6.9128947303e-04 1.5301747591e+00 -2.6503404272e+00 1.5301747591e+00 2.6503404272e+00 
34000 5.3399215190e+00 6.8213924465e-04 1.5301521706e+00 -2.6503013027e+00 1.5301521706e+00 2.6503013027e+00 
34100 5.3399216659e+00 6.7310358803e-04 1.5301298807e+00 -2.6502626956e+00 1.5301298807e+00 2.6502626956e+00 
34200 5.3399218114e+00 6.6418068446e-04 1.5301078858e+00 -2.6502245992e+00 1.5301078858e+00 2.6502245992e+00 
34300 5.3399219554e+00 6.5536876827e-04 1.5300861821e+00 -2.6501870074e+00 1.5300861821e+00 2.6501870074e+00 
34400 5.3399220979e+00 6.4666612526e-04 1.5300647661e+00 -2.6501499137e+00 1.5300647661e+00 2.6501499137e+00 
34500 5.3399222389e+00 6.3807109114e-04 1.5300436341e+00 -2.6501133121e+00 1.5300436341e+00 2.6501133121e+00 
34600 5.3399223783e+00 6.2958204998e-04 1.5300227828e+00 -2.6500771965e+00 1.5300227828e+00 2.6500771965e+00 
34700 5.3399225163e+00 6.2119743266e-04 1.5300022086e+00 -2.6500415609e+00 1.5300022086e+00 2.6500415609e+00 
34800 5.3399226528e+00 6.1291571536e-04 1.5299819081e+00 -2.6500063994e+00 1.5299819081e+00 2.6500063994e+00 
34900 5.3399227878e+00 6.0473541804e-04 1.5299618780e+00 -2.6499717063e+00 1.5299618780e+00 2.6499717063e+00 
35000 5.3399229213e+00 5.9665510298e-04 1.5299421149e+00 -2.6499374757e+00 1.5299421149e+00 2.6499374757e+00 
35100 5.3399230533e+00 5.8867337329e-04 1.5299226157e+00 -2.6499037020e+00 1.5299226157e+00 2.6499037020e+00 
35200 5.3399231838e+00 5.8078887150e-04 1.5299033771e+00 -2.6498703797e+00 1.5299033771e+00 2.6498703797e+00 
35300 5.3399233128e+00 5.7300027812e-04 1.5298843959e+00 -2.6498375034e+00 1.5298843959e+00 2.6498375034e+00 
35400 5.3399234403e+00 5.6530631028e-04 1.5298656690e+00 -2.6498050675e+00 1.5298656690e+00 2.6498050675e+00 
35500 5.3399235663e+00 5.5770572034e-04 1.5298471933e+00 -2.6497730667e+00 1.5298471933e+00 2.6497730667e+00 
35600 5.3399236909e+00 5.5019729455e-04 1.5298289659e+00 -2.6497414958e+00 1.5298289659e+00 2.6497414958e+00 
35700 5.3399238140e+00 5.4277985175e-04 1.5298109836e+00 -2.6497103496e+00 1.5298109836e+00 2.6497103496e+00 
35800 5.3399239356e+00 5.3545224212e-04 1.5297932435e+00 -2.6496796229e+00 1.5297932435e+00 2.6496796229e+00 
35900 5.3399240557e+00 5.2821334586e-04 1.5297757428e+00 -2.6496493107e+00 1.5297757428e+00 2.6496493107e+00 
36000 5.3399241744e+00 5.2106207202e-04 1.5297584784e+00 -2.6496194079e+00 1.5297584784e+00 2.6496194079e+00 
36100 5.3399242917e+00 5.1399735729e-04 1.5297414476e+00 -2.6495899096e+00 1.5297414476e+00 2.6495899096e+00 
36200 5.3399244075e+00 5.0701816485e-04 1.5297246475e+00 -2.6495608110e+00 1.5297246475e+00 2.6495608110e+00 
36300 5.3399245219e+00 5.0012348322e-04 1.5297080753e+00 -2.6495321072e+00 1.5297080753e+00 2.6495321072e+00 
36400 5.3399246348e+00 4.9331232516e-04 1.5296917283e+00 -2.6495037933e+00 1.5296917283e+00 2.6495037933e+00 
36500 5.3399247463e+00 4.8658372661e-04 1.5296756038e+00 -2.6494758648e+00 1.5296756038e+00 2.6494758648e+00 
36600 5.3399248565e+00 4.7993674568e-04 1.5296596990e+00 -2.6494483169e+00 1.5296596990e+00 2.6494483169e+00 
36700 5.3399249652e+00 4.7337046158e-04 1.5296440113e+00 -2.6494211451e+00 1.5296440113e+00 2.6494211451e+00 
36800 5.3399250726e+00 4.6688397369e-04 1.5296285381e+00 -2.6493943447e+00 1.5296285381e+00 2.6493943447e+00 
36900 5.3399251785e+00 4.6047640063e-04 1.5296132768e+00 -2.6493679113e+00 1.5296132768e+00 2.6493679113e+00 
37000 5.3399252831e+00 4.5414687930e-04 1.5295982248e+00 -2.6493418405e+00 1.5295982248e+00 2.6493418405e+00 
37100 5.3399253864e+00 4.4789456403e-04 1.5295833795e+00 -2.6493161277e+00 1.5295833795e+00 2.6493161277e+00 
37200 5.3399254883e+00 4.4171862575e-04 1.5295687384e+00 -2.6492907687e+00 1.5295687384e+00 2.6492907687e+00 
37300 5.3399255889e+00 4.3561825112e-04 1.5295542992e+00 -2.6492657591e+00 1.5295542992e+00 2.6492657591e+00 
37400 5.3399256881e+00 4.2959264180e-04 1.5295400591e+00 -2.6492410946e+00 1.5295400591e+00 2.6492410946e+00 
37500 5.3399257861e+00 4.2364101364e-04 1.5295260160e+00 -2.6492167711e+00 1.5295260160e+00 2.6492167711e+00 
37600 5.3399258827e+00 4.1776259599e-04 1.5295121672e+00 -2.6491927844e+00 1.5295121672e+00 2.6491927844e+00 
37700 5.3399259780e+00 4.1195663100e-04 1.5294985105e+00 -2.6491691303e+00 1.5294985105e+00 2.6491691303e+00 
37800 5.3399260721e+00 4.0622237292e-04 1.5294850435e+00 -2.6491458047e+00 1.5294850435e+00 2.6491458047e+00 
37900 5.3399261649e+00 4.0055908751e-04 1.5294717638e+00 -2.6491228036e+00 1.5294717638e+00 2.6491228036e+00 
38000 5.3399262564e+00 3.9496605137e-04 1.5294586691e+00 -2.6491001230e+00 1.5294586691e+00 2.6491001230e+00 
38100 5.3399263467e+00 3.8944255142e-04 1.5294457572e+00 -2.6490777589e+00 1.5294457572e+00 2.6490777589e+00 
38200 5.3399264358e+00 3.8398788429e-04 1.5294330257e+00 -2.6490557073e+00 1.5294330257e+00 2.6490557073e+00 
38300 5.3399265236e+00 3.7860135582e-04 1.5294204724e+00 -2.6490339644e+00 1.5294204724e+00 2.6490339644e+00 
38400 5.3399266103e+00 3.7328228055e-04 1.5294080952e+00 -2.6490125264e+00 1.5294080952e+00 2.6490125264e+00 
38500 5.3399266957e+00 3.6802998125e-04 1.5293958917e+00 -2.6489913893e+00 1.5293958917e+00 2.6489913893e+00 
38600 5.3399267800e+00 3.6284378845e-04 1.5293838599e+00 -2.6489705495e+00 1.5293838599e+00 2.6489705495e+00 
38700 5.3399268631e+00 3.5772304004e-04 1.5293719974e+00 -2.6489500033e+00 1.5293719974e+00 2.6489500033e+00 
38800 5.3399269450e+00 3.5266708081e-04 1.5293603024e+00 -2.6489297468e+00 1.5293603024e+00 2.6489297468e+00 
38900 5.3399270258e+00 3.4767526215e-04 1.5293487725e+00 -2.6489097765e+00 1.5293487725e+00 2.6489097765e+00 
39000 5.3399271055e+00 3.4274694163e-04 1.5293374057e+00 -2.6488900886e+00 1.5293374057e+00 2.6488900886e+00 
39100 5.3399271840e+00 3.3788148269e-04 1.5293262000e+00 -2.6488706798e+00 1.5293262000e+00 2.6488706798e+00 
39200 5.3399272614e+00 3.3307825430e-04 1.5293151533e+00 -2.6488515463e+00 1.5293151533e+00 2.6488515463e+00 
39300 5.3399273378e+00 3.2833663070e-04 1.5293042635e+00 -2.6488326846e+00 1.5293042635e+00 2.6488326846e+00 
39400 5.3399274130e+00 3.2365599110e-04 1.5292935287e+00 -2.6488140914e+00 1.5292935287e+00 2.6488140914e+00 
39500 5.3399274872e+00 3.1903571944e-04 1.5292829468e+00 -2.6487957630e+00 1.5292829468e+00 2.6487957630e+00 
39600 5.3399275603e+00 3.1447520414e-04 1.5292725159e+00 -2.6487776962e+00 1.5292725159e+00 2.6487776962e+00 
39700 5.3399276323e+00 3.0997383789e-04 1.5292622341e+00 -2.6487598875e+00 1.5292622341e+00 2.6487598875e+00 
39800 5.3399277034e+00 3.0553101744e-04 1.5292520994e+00 -2.6487423337e+00 1.5292520994e+00 2.6487423337e+00 
39900 5.3399277734e+00 3.0114614343e-04 1.5292421098e+00 -2.6487250313e+00 1.5292421098e+00 2.6487250313e+00 
40000 5.3399278424e+00 2.9681862020e-04 1.5292322636e+00 -2.6487079771e+00 1.5292322636e+00 2.6487079771e+00 
40100 5.3399279104e+00 2.9254785565e-04 1.5292225588e+00 -2.6486911678e+00 1.5292225588e+00 2.6486911678e+00 
40200 5.3399279774e+00 2.8833326111e-04 1.5292129935e+00 -2.6486746004e+00 1.5292129935e+00 2.6486746004e+00 
40300 5.3399280434e+00 2.8417425119e-04 1.5292035660e+00 -2.6486582715e+00 1.5292035660e+00 2.6486582715e+00 
40400 5.3399281085e+00 2.8007024369e-04 1.5291942744e+00 -2.6486421780e+00 1.5291942744e+00 2.6486421780e+00 
40500 5.3399281726e+00 2.7602065949e-04 1.5291851170e+00 -2.6486263168e+00 1.5291851170e+00 2.6486263168e+00 
40600 5.3399282358e+00 2.7202492247e-04 1.5291760919e+00 -2.6486106849e+00 1.5291760919e+00 2.6486106849e+00 
40700 5.3399282980e+00 2.6808245944e-04 1.5291671974e+00 -2.6485952792e+00 1.5291671974e+00 2.6485952792e+00 
40800 5.3399283593e+00 2.6419270003e-04 1.5291584318e+00 -2.6485800967e+00 1.5291584318e+00 2.6485800967e+00 
40900 5.3399284198e+00 2.6035507673e-04 1.5291497933e+00 -2.6485651344e+00 1.5291497933e+00 2.6485651344e+00 
41000 5.3399284793e+00 2.5656902476e-04 1.5291412803e+00 -2.6485503894e+00 1.5291412803e+00 2.6485503894e+00 
41100 5.3399285380e+00 2.5283398206e-04 1.5291328910e+00 -2.6485358587e+00 1.5291328910e+00 2.6485358587e+00 
41200 5.3399285957e+00 2.4914938929e-04 1.5291246237e+00 -2.6485215394e+00 1.5291246237e+00 2.6485215394e+00 
41300 5.3399286527e+00 2.4551468979e-04 1.5291164769e+00 -2.6485074288e+00 1.5291164769e+00 2.6485074288e+00 
41400 5.3399287087e+00 2.4192932955e-04 1.5291084490e+00 -2.6484935239e+00 1.5291084490e+00 2.6484935239e+00 
41500 5.3399287640e+00 2.3839275726e-04 1.5291005382e+00 -2.6484798220e+00 1.5291005382e+00 2.6484798220e+00 
41600 5.3399288184e+00 2.3490442428e-04 1.5290927430e+00 -2.6484663203e+00 1.5290927430e+00 2.6484663203e+00 
41700 5.3399288720e+00 2.3146378465e-04 1.5290850618e+00 -2.6484530162e+00 1.5290850618e+00 2.6484530162e+00 
41800 5.3399289248e+00 2.2807029509e-04 1.5290774931e+00 -2.6484399068e+00 1.5290774931e+00 2.6484399068e+00 
41900 5.3399289768e+00 2.2472341509e-04 1.5290700354e+00 -2.6484269896e+00 1.5290700354e+00 2.6484269896e+00 
42000 5.3399290280e+00 2.2142260685e-04 1.5290626870e+00 -2.6484142618e+00 1.5290626870e+00 2.6484142618e+00 
42100 5.3399290784e+00 2.1816733536e-04 1.5290554465e+00 -2.6484017210e+00 1.5290554465e+00 2.6484017210e+00 
42200 5.3399291281e+00 2.1495706843e-04 1.5290483125e+00 -2.6483893644e+00 1.5290483125e+00 2.6483893644e+00 
42300 5.3399291770e+00 2.1179127673e-04 1.5290412834e+00 -2.6483771897e+00 1.5290412834e+00 2.6483771897e+00 
42400 5.3399292252e+00 2.0866943379e-04 1.5290343578e+00 -2.6483651941e+00 1.5290343578e+00 2.6483651941e+00 
42500 5.3399292727e+00 2.0559101612e-04 1.5290275342e+00 -2.6483533754e+00 1.5290275342e+00 2.6483533754e+00 
42600 5.3399293194e+00 2.0255550318e-04 1.5290208113e+00 -2.6483417309e+00 1.5290208113e+00 2.6483417309e+00 
42700 5.3399293654e+00 1.9956237749e-04 1.5290141876e+00 -2.6483302584e+00 1.5290141876e+00 2.6483302584e+00 
42800 5.3399294108e+00 1.9661112464e-04 1.5290076617e+00 -2.6483189553e+00 1.5290076617e+00 2.6483189553e+00 
42900 5.3399294554e+00 1.9370123337e-04 1.5290012324e+00 -2.6483078193e+00 1.5290012324e+00 2.6483078193e+00 
43000 5.3399294993e+00 1.9083219559e-04 1.5289948981e+00 -2.6482968480e+00 1.5289948981e+00 2.6482968480e+00 
43100 5.3399295426e+00 1.8800350648e-04 1.5289886577e+00 -2.6482860393e+00 1.5289886577e+00 2.6482860393e+00 
43200 5.3399295852e+00 1.8521466451e-04 1.5289825097e+00 -2.6482753907e+00 1.5289825097e+00 2.6482753907e+00 
43300 5.3399296272e+00 1.8246517150e-04 1.5289764529e+00 -2.6482649000e+00 1.5289764529e+00 2.6482649000e+00 
43400 5.3399296685e+00 1.7975453269e-04 1.5289704860e+00 -2.6482545651e+00 1.5289704860e+00 2.6482545651e+00 
43500 5.3399297092e+00 1.7708225680e-04 1.5289646077e+00 -2.6482443836e+00 1.5289646077e+00 2.6482443836e+00 
43600 5.3399297493e+00 1.7444785606e-04 1.5289588168e+00 -2.6482343534e+00 1.5289588168e+00 2.6482343534e+00 
43700 5.3399297887e+00 1.7185084629e-04 1.5289531120e+00 -2.6482244724e+00 1.5289531120e+00 2.6482244724e+00 
43800 5.3399298275e+00 1.6929074693e-04 1.5289474921e+00 -2.6482147385e+00 1.5289474921e+00 2.6482147385e+00 
43900 5.3399298658e+00 1.6676708112e-04 1.5289419560e+00 -2.6482051495e+00 1.5289419560e+00 2.6482051495e+00 
44000 5.3399299034e+00 1.6427937574e-04 1.5289365023e+00 -2.6481957035e+00 1.5289365023e+00 2.6481957035e+00 
44100 5.3399299404e+00 1.6182716147e-04 1.5289311300e+00 -2.6481863983e+00 1.5289311300e+00 2.6481863983e+00 
44200 5.3399299769e+00 1.5940997283e-04 1.5289258378e+00 -2.6481772321e+00 1.5289258378e+00 2.6481772321e+00 
44300 5.3399300129e+00 1.5702734822e-04 1.5289206247e+00 -2.6481682026e+00 1.5289206247e+00 2.6481682026e+00 
44400 5.3399300482e+00 1.5467883000e-04 1.5289154894e+00 -2.6481593082e+00 1.5289154894e+00 2.6481593082e+00 
44500 5.3399300830e+00 1.5236396451e-04 1.5289104310e+00 -2.6481505467e+00 1.5289104310e+00 2.6481505467e+00 
44600 5.3399301173e+00 1.5008230211e-04 1.5289054482e+00 -2.6481419163e+00 1.5289054482e+00 2.6481419163e+00 
44700 5.3399301510e+00 1.4783339724e-04 1.5289005401e+00 -2.6481334151e+00 1.5289005401e+00 2.6481334151e+00 
44800 5.3399301842e+00 1.4561680847e-04 1.5288957054e+00 -2.6481250413e+00 1.5288957054e+00 2.6481250413e+00 
44900 5.3399302169e+00 1.4343209849e-04 1.5288909433e+00 -2.6481167930e+00 1.5288909433e+00 2.6481167930e+00 
45000 5.3399302491e+00 1.4127883420e-04 1.5288862526e+00 -2.6481086684e+00 1.5288862526e+00 2.6481086684e+00 
45100 5.3399302808e+00 1.3915658670e-04 1.5288816322e+00 -2.6481006658e+00 1.5288816322e+00 2.6481006658e+00 
45200 5.3399303120e+00 1.3706493138e-04 1.5288770813e+00 -2.6480927834e+00 1.5288770813e+00 2.6480927834e+00 
45300 5.3399303427e+00 1.3500344788e-04 1.5288725988e+00 -2.6480850194e+00 1.5288725988e+00 2.6480850194e+00 
45400 5.3399303729e+00 1.3297172016e-04 1.5288681836e+00 -2.6480773722e+00 1.5288681836e+00 2.6480773722e+00 
45500 5.3399304027e+00 1.3096933651e-04 1.5288638350e+00 -2.6480698400e+00 1.5288638350e+00 2.6480698400e+00 
45600 5.3399304319e+00 1.2899588959e-04 1.5288595517e+00 -2.6480624212e+00 1.5288595517e+00 2.6480624212e+00 
45700 5.3399304608e+00 1.2705097644e-04 1.5288553330e+00 -2.6480551142e+00 1.5288553330e+00 2.6480551142e+00 
45800 5.3399304891e+00 1.2513419847e-04 1.5288511779e+00 -2.6480479174e+00 1.5288511779e+00 2.6480479174e+00 
45900 5.3399305171e+00 1.2324516153e-04 1.5288470855e+00 -2.6480408291e+00 1.5288470855e+00 2.6480408291e+00 
46000 5.3399305446e+00 1.2138347588e-04 1.5288430549e+00 -2.6480338478e+00 1.5288430549e+00 2.6480338478e+00 
46100 5.3399305716e+00 1.1954875623e-04 1.5288390851e+00 -2.6480269719e+00 1.5288390851e+00 2.6480269719e+00 
46200 5.3399305982e+00 1.1774062172e-04 1.5288351753e+00 -2.6480202000e+00 1.5288351753e+00 2.6480202000e+00 
46300 5.3399306245e+00 1.1595869595e-04 1.5288313246e+00 -2.6480135305e+00 1.5288313246e+00 2.6480135305e+00 
46400 5.3399306503e+00 1.1420260696e-04 1.5288275322e+00 -2.6480069618e+00 1.5288275322e+00 2.6480069618e+00 
46500 5.3399306756e+00 1.1247198727e-04 1.5288237973e+00 -2.6480004927e+00 1.5288237973e+00 2.6480004927e+00 
46600 5.3399307006e+00 1.1076647384e-04 1.5288201189e+00 -2.6479941215e+00 1.5288201189e+00 2.6479941215e+00 
46700 5.3399307252e+00 1.0908570809e-04 1.5288164963e+00 -2.6479878470e+00 1.5288164963e+00 2.6479878470e+00 
46800 5.3399307495e+00 1.0742933589e-04 1.5288129286e+00 -2.6479816676e+00 1.5288129286e+00 2.6479816676e+00 
46900 5.3399307733e+00 1.0579700753e-04 1.5288094151e+00 -2.6479755821e+00 1.5288094151e+00 2.6479755821e+00 
47000 5.3399307967e+00 1.0418837777e-04 1.5288059550e+00 -2.6479695890e+00 1.5288059550e+00 2.6479695890e+00 
47100 5.3399308198e+00 1.0260310577e-04 1.5288025475e+00 -2.6479636870e+00 1.5288025475e+00 2.6479636870e+00 
47200 5.3399308425e+00 1.0104085509e-04 1.5287991918e+00 -2.6479578748e+00 1.5287991918e+00 2.6479578748e+00 
47300 5.3399308649e+00 9.9501293692e-05 1.5287958873e+00 -2.6479521511e+00 1.5287958873e+00 2.6479521511e+00 
47400 5.3399308869e+00 9.7984093927e-05 1.5287926330e+00 -2.6479465146e+00 1.5287926330e+00 2.6479465146e+00 
47500 5.3399309086e+00 9.6488932483e-05 1.5287894284e+00 -2.6479409641e+00 1.5287894284e+00 2.6479409641e+00 
47600 5.3399309299e+00 9.5015490399e-05 1.5287862727e+00 -2.6479354982e+00 1.5287862727e+00 2.6479354982e+00 
47700 5.3399309509e+00 9.3563453018e-05 1.5287831651e+00 -2.6479301158e+00 1.5287831651e+00 2.6479301158e+00 
47800 5.3399309715e+00 9.2132509981e-05 1.5287801051e+00 -2.6479248156e+00 1.5287801051e+00 2.6479248156e+00 
47900 5.3399309918e+00 9.0722355192e-05 1.5287770918e+00 -2.6479195964e+00 1.5287770918e+00 2.6479195964e+00 
48000 5.3399310118e+00 8.9332686792e-05 1.5287741246e+00 -2.6479144572e+00 1.5287741246e+00 2.6479144572e+00 
48100 5.3399310315e+00 8.7963207132e-05 1.5287712029e+00 -2.6479093966e+00 1.5287712029e+00 2.6479093966e+00 
48200 5.3399310509e+00 8.6613622744e-05 1.5287683260e+00 -2.6479044137e+00 1.5287683260e+00 2.6479044137e+00 
48300 5.3399310699e+00 8.5283644306e-05 1.5287654932e+00 -2.6478995071e+00 1.5287654932e+00 2.6478995071e+00 
48400 5.3399310887e+00 8.3972986614e-05 1.5287627039e+00 -2.6478946759e+00 1.5287627039e+00 2.6478946759e+00 
48500 5.3399311072e+00 8.2681368542e-05 1.5287599575e+00 -2.6478899190e+00 1.5287599575e+00 2.6478899190e+00 
48600 5.3399311253e+00 8.1408513013e-05 1.5287572533e+00 -2.6478852351e+00 1.5287572533e+00 2.6478852351e+00 
48700 5.3399311432e+00 8.0154146960e-05 1.5287545907e+00 -2.6478806234e+00 1.5287545907e+00 2.6478806234e+00 
48800 5.3399311608e+00 7.8918001291e-05 1.5287519692e+00 -2.6478760828e+00 1.5287519692e+00 2.6478760828e+00 
48900 5.3399311781e+00 7.7699810846e-05 1.5287493880e+00 -2.6478716121e+00 1.5287493880e+00 2.6478716121e+00 
49000 5.3399311952e+00 7.6499314362e-05 1.5287468468e+00 -2.6478672105e+00 1.5287468468e+00 2.6478672105e+00 
49100 5.3399312120e+00 7.5316254435e-05 1.5287443447e+00 -2.6478628769e+00 1.5287443447e+00 2.6478628769e+00 
49200 5.3399312285e+00 7.4150377470e-05 1.5287418814e+00 -2.6478586102e+00 1.5287418814e+00 2.6478586102e+00 
49300 5.3399312447e+00 7.3001433656e-05 1.5287394562e+00 -2.6478544097e+00 1.5287394562e+00 2.6478544097e+00 
49400 5.3399312607e+00 7.1869176903e-05 1.5287370686e+00 -2.6478502742e+00 1.5287370686e+00 2.6478502742e+00 
49500 5.3399312764e+00 7.0753364814e-05 1.5287347180e+00 -2.6478462028e+00 1.5287347180e+00 2.6478462028e+00 
49600 5.3399312919e+00 6.9653758642e-05 1.5287324038e+00 -2.6478421946e+00 1.5287324038e+00 2.6478421946e+00 
49700 5.3399313074e+00 7.0395828586e-05 1.5287324038e+00 -2.6478421946e+00 1.5287324038e+00 2.6478421946e+00 
49800 5.3399313226e+00 7.1135313195e-05 1.5287324038e+00 -2.6478421946e+00 1.5287324038e+00 2.6478421946e+00 
49900 5.3399313373e+00 7.0007774834e-05 1.5287300772e+00 -2.6478381648e+00 1.5287300772e+00 2.6478381648e+00 
50000 5.3399313521e+00 7.0732024831e-05 1.5287300772e+00 -2.6478381648e+00 1.5287300772e+00 2.6478381648e+00 
50100 5.3399313663e+00 6.9599870742e-05 1.5287277638e+00 -2.6478341578e+00 1.5287277638e+00 2.6478341578e+00 
50200 5.3399313806e+00 7.0309003899e-05 1.5287277638e+00 -2.6478341578e+00 1.5287277638e+00 2.6478341578e+00 
50300 5.3399313946e+00 7.1015677883e-05 1.5287277638e+00 -2.6478341578e+00 1.5287277638e+00 2.6478341578e+00 
50400 5.3399314082e+00 6.9858552091e-05 1.5287254411e+00 -2.6478301348e+00 1.5287254411e+00 2.6478301348e+00 
50500 5.3399314218e+00 7.0550080063e-05 1.5287254411e+00 -2.6478301348e+00 1.5287254411e+00 2.6478301348e+00 
50600 5.3399314352e+00 7.1239102783e-05 1.5287254411e+00 -2.6478301348e+00 1.5287254411e+00 2.6478301348e+00 
50700 5.3399314481e+00 7.0058406329e-05 1.5287231111e+00 -2.6478260991e+00 1.5287231111e+00 2.6478260991e+00 
50800 5.3399314611e+00 7.0732069468e-05 1.5287231111e+00 -2.6478260991e+00 1.5287231111e+00 2.6478260991e+00 
50900 5.3399314736e+00 6.9549186451e-05 1.5287207976e+00 -2.6478220921e+00 1.5287207976e+00 2.6478220921e+00 
51000 5.3399314861e+00 7.0207312817e-05 1.5287207976e+00 -2.6478220921e+00 1.5287207976e+00 2.6478220921e+00 
51100 5.3399314985e+00 7.0862671659e-05 1.5287207976e+00 -2.6478220921e+00 1.5287207976e+00 2.6478220921e+00 
51200 5.3399315104e+00 6.9657906189e-05 1.5287184799e+00 -2.6478180777e+00 1.5287184799e+00 2.6478180777e+00 
51300 5.3399315224e+00 7.0297360190e-05 1.5287184799e+00 -2.6478180777e+00 1.5287184799e+00 2.6478180777e+00 
51400 5.3399315341e+00 7.0933848924e-05 1.5287184799e+00 -2.6478180777e+00 1.5287184799e+00 2.6478180777e+00 
51500 5.3399315455e+00 6.9708147314e-05 1.5287161599e+00 -2.6478140593e+00 1.5287161599e+00 2.6478140593e+00 
51600 5.3399315569e+00 7.0328289655e-05 1.5287161599e+00 -2.6478140593e+00 1.5287161599e+00 2.6478140593e+00 
51700 5.3399315681e+00 7.0945237041e-05 1.5287161599e+00 -2.6478140593e+00 1.5287161599e+00 2.6478140593e+00 
51800 5.3399315789e+00 6.9699467613e-05 1.5287138395e+00 -2.6478100402e+00 1.5287138395e+00 2.6478100402e+00 
51900 5.3399315898e+00 7.0299588432e-05 1.5287138395e+00 -2.6478100402e+00 1.5287138395e+00 2.6478100402e+00 
52000 5.3399316004e+00 7.0896268746e-05 1.5287138395e+00 -2.6478100402e+00 1.5287138395e+00 2.6478100402e+00 
52100 5.3399316107e+00 6.9631275497e-05 1.5287115207e+00 -2.6478060239e+00 1.5287115207e+00 2.6478060239e+00 
52200 5.3399316211e+00 7.0210640152e-05 1.5287115207e+00 -2.6478060239e+00 1.5287115207e+00 2.6478060239e+00 
52300 5.3399316313e+00 7.0786316467e-05 1.5287115207e+00 -2.6478060239e+00 1.5287115207e+00 2.6478060239e+00 
52400 5.3399316411e+00 6.9502961477e-05 1.5287092054e+00 -2.6478020138e+00 1.5287092054e+00 2.6478020138e+00 
52500 5.3399316509e+00 7.0060848986e-05 1.5287092054e+00 -2.6478020138e+00 1.5287092054e+00 2.6478020138e+00 
52600 5.3399316606e+00 7.0614809269e-05 1.5287092054e+00 -2.6478020138e+00 1.5287092054e+00 2.6478020138e+00 
52700 5.3399316702e+00 7.1164793836e-05 1.5287092054e+00 -2.6478020138e+00 1.5287092054e+00 2.6478020138e+00 
52800 5.3399316793e+00 6.9845548380e-05 1.5287068778e+00 -2.6477979823e+00 1.5287068778e+00 2.6477979823e+00 
52900 5.3399316886e+00 7.0377113440e-05 1.5287068778e+00 -2.6477979823e+00 1.5287068778e+00 2.6477979823e+00 
53000 5.3399316977e+00 7.0904465523e-05 1.5287068778e+00 -2.6477979823e+00 1.5287068778e+00 2.6477979823e+00 
53100 5.3399317064e+00 6.9569187299e-05 1.5287045587e+00 -2.6477939655e+00 1.5287045587e+00 2.6477939655e+00 
53200 5.3399317152e+00 7.0077712765e-05 1.5287045587e+00 -2.6477939655e+00 1.5287045587e+00 2.6477939655e+00 
53300 5.3399317239e+00 7.0581819130e-05 1.5287045587e+00 -2.6477939655e+00 1.5287045587e+00 2.6477939655e+00 
53400 5.3399317324e+00 7.1081472961e-05 1.5287045587e+00 -2.6477939655e+00 1.5287045587e+00 2.6477939655e+00 
53500 5.3399317406e+00 6.9713631384e-05 1.5287022338e+00 -2.6477899386e+00 1.5287022338e+00 2.6477899386e+00 
53600 5.3399317489e+00 7.0193976321e-05 1.5287022338e+00 -2.6477899386e+00 1.5287022338e+00 2.6477899386e+00 
53700 5.3399317570e+00 7.0669686759e-05 1.5287022338e+00 -2.6477899386e+00 1.5287022338e+00 2.6477899386e+00 
53800 5.3399317650e+00 7.1140739174e-05 1.5287022338e+00 -2.6477899386e+00 1.5287022338e+00 2.6477899386e+00 
53900 5.3399317727e+00 6.9742553206e-05 1.5286999070e+00 -2.6477859084e+00 1.5286999070e+00 2.6477859084e+00 
54000 5.3399317804e+00 7.0193909891e-05 1.5286999070e+00 -2.6477859084e+00 1.5286999070e+00 2.6477859084e+00 
54100 5.3399317881e+00 7.0640460482e-05 1.5286999070e+00 -2.6477859084e+00 1.5286999070e+00 2.6477859084e+00 
54200 5.3399317956e+00 7.1082193962e-05 1.5286999070e+00 -2.6477859084e+00 1.5286999070e+00 2.6477859084e+00 
54300 5.3399318027e+00 6.9656081301e-05 1.5286975821e+00 -2.6477818816e+00 1.5286975821e+00 2.6477818816e+00 
54400 5.3399318100e+00 7.0077848788e-05 1.5286975821e+00 -2.6477818816e+00 1.5286975821e+00 2.6477818816e+00 
54500 5.3399318172e+00 7.0494691282e-05 1.5286975821e+00 -2.6477818816e+00 1.5286975821e+00 2.6477818816e+00 
54600 5.3399318242e+00 7.0906611808e-05 1.5286975821e+00 -2.6477818816e+00 1.5286975821e+00 2.6477818816e+00 
54700 5.3399318309e+00 6.9455200305e-05 1.5286952629e+00 -2.6477778646e+00 1.5286952629e+00 2.6477778646e+00 
54800 5.3399318377e+00 6.9847013711e-05 1.5286952629e+00 -2.6477778646e+00 1.5286952629e+00 2.6477778646e+00 
54900 5.3399318445e+00 7.0233840845e-05 1.5286952629e+00 -2.6477778646e+00 1.5286952629e+00 2.6477778646e+00 
55000 5.3399318511e+00 7.0615699423e-05 1.5286952629e+00 -2.6477778646e+00 1.5286952629e+00 2.6477778646e+00 
55100 5.3399318576e+00 7.0992604514e-05 1.5286952629e+00 -2.6477778646e+00 1.5286952629e+00 2.6477778646e+00 
55200 5.3399318637e+00 6.9503908422e-05 1.5286929409e+00 -2.6477738428e+00 1.5286929409e+00 2.6477738428e+00 
55300 5.3399318700e+00 6.9860668508e-05 1.5286929409e+00 -2.6477738428e+00 1.5286929409e+00 2.6477738428e+00 
55400 5.3399318762e+00 7.0212448768e-05 1.5286929409e+00 -2.6477738428e+00 1.5286929409e+00 2.6477738428e+00 
55500 5.3399318823e+00 7.0559280097e-05 1.5286929409e+00 -2.6477738428e+00 1.5286929409e+00 2.6477738428e+00 
55600 5.3399318883e+00 7.0901190884e-05 1.5286929409e+00 -2.6477738428e+00 1.5286929409e+00 2.6477738428e+00 
55700 5.3399318940e+00 6.9379945098e-05 1.5286906219e+00 -2.6477698261e+00 1.5286906219e+00 2.6477698261e+00 
55800 5.3399318998e+00 6.9701830497e-05 1.5286906219e+00 -2.6477698261e+00 1.5286906219e+00 2.6477698261e+00 
55900 5.3399319056e+00 7.0018809542e-05 1.5286906219e+00 -2.6477698261e+00 1.5286906219e+00 2.6477698261e+00 
56000 5.3399319112e+00 7.0330926597e-05 1.5286906219e+00 -2.6477698261e+00 1.5286906219e+00 2.6477698261e+00 
56100 5.3399319167e+00 7.0638223483e-05 1.5286906219e+00 -2.6477698261e+00 1.5286906219e+00 2.6477698261e+00 
56200 5.3399319222e+00 7.0940739678e-05 1.5286906219e+00 -2.6477698261e+00 1.5286906219e+00 2.6477698261e+00 
56300 5.3399319273e+00 6.9379216359e-05 1.5286883016e+00 -2.6477658072e+00 1.5286883016e+00 2.6477658072e+00 
56400 5.3399319326e+00 6.9662014998e-05 1.5286883016e+00 -2.6477658072e+00 1.5286883016e+00 2.6477658072e+00 
56500 5.3399319378e+00 6.9940080917e-05 1.5286883016e+00 -2.6477658072e+00 1.5286883016e+00 2.6477658072e+00 
56600 5.3399319429e+00 7.0213469832e-05 1.5286883016e+00 -2.6477658072e+00 1.5286883016e+00 2.6477658072e+00 
56700 5.3399319480e+00 7.0482234878e-05 1.5286883016e+00 -2.6477658072e+00 1.5286883016e+00 2.6477658072e+00 
56800 5.3399319529e+00 7.0746426789e-05 1.5286883016e+00 -2.6477658072e+00 1.5286883016e+00 2.6477658072e+00 
56900 5.3399319576e+00 6.9151891678e-05 1.5286859876e+00 -2.6477617994e+00 1.5286859876e+00 2.6477617994e+00 
57000 5.3399319624e+00 6.9396842814e-05 1.5286859876e+00 -2.6477617994e+00 1.5286859876e+00 2.6477617994e+00 
57100 5.3399319671e+00 6.9637302050e-05 1.5286859876e+00 -2.6477617994e+00 1.5286859876e+00 2.6477617994e+00 
57200 5.3399319718e+00 6.9873335762e-05 1.5286859876e+00 -2.6477617994e+00 1.5286859876e+00 2.6477617994e+00 
57300 5.3399319763e+00 7.0105007559e-05 1.5286859876e+00 -2.6477617994e+00 1.5286859876e+00 2.6477617994e+00 
57400 5.3399319809e+00 7.0332378436e-05 1.5286859876e+00 -2.6477617994e+00 1.5286859876e+00 2.6477617994e+00 
57500 5.3399319853e+00 7.0555506929e-05 1.5286859876e+00 -2.6477617994e+00 1.5286859876e+00 2.6477617994e+00 
57600 5.3399319897e+00 7.0774449261e-05 1.5286859876e+00 -2.6477617994e+00 1.5286859876e+00 2.6477617994e+00 
57700 5.3399319937e+00 6.9134324208e-05 1.5286836727e+00 -2.6477577899e+00 1.5286836727e+00 2.6477577899e+00 
57800 5.3399319980e+00 6.9334812535e-05 1.5286836727e+00 -2.6477577899e+00 1.5286836727e+00 2.6477577899e+00 
57900 5.3399320021e+00 6.9531212608e-05 1.5286836727e+00 -2.6477577899e+00 1.5286836727e+00 2.6477577899e+00 
58000 5.3399320062e+00 6.9723596368e-05 1.5286836727e+00 -2.6477577899e+00 1.5286836727e+00 2.6477577899e+00 
58100 5.3399320103e+00 6.9912032945e-05 1.5286836727e+00 -2.6477577899e+00 1.5286836727e+00 2.6477577899e+00 
58200 5.3399320142e+00 7.0096588787e-05 1.5286836727e+00 -2.6477577899e+00 1.5286836727e+00 2.6477577899e+00 
58300 5.3399320182e+00 7.0277327794e-05 1.5286836727e+00 -2.6477577899e+00 1.5286836727e+00 2.6477577899e+00 
58400 5.3399320220e+00 7.0454311445e-05 1.5286836727e+00 -2.6477577899e+00 1.5286836727e+00 2.6477577899e+00 
58500 5.3399320258e+00 7.0627598923e-05 1.5286836727e+00 -2.6477577899e+00 1.5286836727e+00 2.6477577899e+00 
58600 5.3399320295e+00 7.0797247234e-05 1.5286836727e+00 -2.6477577899e+00 1.5286836727e+00 2.6477577899e+00 
58700 5.3399320330e+00 6.9107779412e-05 1.5286813571e+00 -2.6477537791e+00 1.5286813571e+00 2.6477537791e+00 
58800 5.3399320366e+00 6.9260067432e-05 1.5286813571e+00 -2.6477537791e+00 1.5286813571e+00 2.6477537791e+00 
58900 5.3399320401e+00 6.9408817079e-05 1.5286813571e+00 -2.6477537791e+00 1.5286813571e+00 2.6477537791e+00 
59000 5.3399320436e+00 6.9554101393e-05 1.5286813571e+00 -2.6477537791e+00 1.5286813571e+00 2.6477537791e+00 
59100 5.3399320471e+00 6.9695990615e-05 1.5286813571e+00 -2.6477537791e+00 1.5286813571e+00 2.6477537791e+00 
59200 5.3399320505e+00 6.9834552312e-05 1.5286813571e+00 -2.6477537791e+00 1.5286813571e+00 2.6477537791e+00 
59300 5.3399320538e+00 6.9969851484e-05 1.5286813571e+00 -2.6477537791e+00 1.5286813571e+00 2.6477537791e+00 
59400 5.3399320571e+00 7.0101950680e-05 1.5286813571e+00 -2.6477537791e+00 1.5286813571e+00 2.6477537791e+00 
59500 5.3399320604e+00 7.0230910101e-05 1.5286813571e+00 -2.6477537791e+00 1.5286813571e+00 2.6477537791e+00 
59600 5.3399320635e+00 7.0356787712e-05 1.5286813571e+00 -2.6477537791e+00 1.5286813571e+00 2.6477537791e+00 
59700 5.3399320667e+00 7.0479639340e-05 1.5286813571e+00 -2.6477537791e+00 1.5286813571e+00 2.6477537791e+00 
59800 5.3399320698e+00 7.0599518775e-05 1.5286813571e+00 -2.6477537791e+00 1.5286813571e+00 2.6477537791e+00 
59900 5.3399320728e+00 7.0716477871e-05 1.5286813571e+00 -2.6477537791e+00 1.5286813571e+00 2.6477537791e+00 
60000 5.3399320756e+00 6.8977151145e-05 1.5286790441e+00 -2.6477497729e+00 1.5286790441e+00 2.6477497729e+00 
60100 5.3399320785e+00 6.9078184979e-05 1.5286790441e+00 -2.6477497729e+00 1.5286790441e+00 2.6477497729e+00 
60200 5.3399320814e+00 6.9176385060e-05 1.5286790441e+00 -2.6477497729e+00 1.5286790441e+00 2.6477497729e+00 
60300 5.3399320843e+00 6.9271819980e-05 1.5286790441e+00 -2.6477497729e+00 1.5286790441e+00 2.6477497729e+00 
60400 5.3399320871e+00 6.9364555677e-05 1.5286790441e+00 -2.6477497729e+00 1.5286790441e+00 2.6477497729e+00 
60500 5.3399320899e+00 6.9454655530e-05 1.5286790441e+00 -2.6477497729e+00 1.5286790441e+00 2.6477497729e+00 
60600 5.3399320926e+00 6.9542180458e-05 1.5286790441e+00 -2.6477497729e+00 1.5286790441e+00 2.6477497729e+00 
60700 5.3399320953e+00 6.9627189015e-05 1.5286790441e+00 -2.6477497729e+00 1.5286790441e+00 2.6477497729e+00 
60800 5.3399320979e+00 6.9709737484e-05 1.5286790441e+00 -2.6477497729e+00 1.5286790441e+00 2.6477497729e+00 
60900 5.3399321005e+00 6.9789879969e-05 1.5286790441e+00 -2.6477497729e+00 1.5286790441e+00 2.6477497729e+00 
61000 5.3399321031e+00 6.9867668484e-05 1.5286790441e+00 -2.6477497729e+00 1.5286790441e+00 2.6477497729e+00 
61100 5.3399321056e+00 6.9943153040e-05 1.5286790441e+00 -2.6477497729e+00 1.5286790441e+00 2.6477497729e+00 
61200 5.3399321081e+00 7.0016381737e-05 1.5286790441e+00 -2.6477497729e+00 1.5286790441e+00 2.6477497729e+00 
61300 5.3399321105e+00 7.0087400838e-05 1.5286790441e+00 -2.6477497729e+00 1.5286790441e+00 2.6477497729e+00 
61400 5.3399321130e+00 7.0156254859e-05 1.5286790441e+00 -2.6477497729e+00 1.5286790441e+00 2.6477497729e+00 
61500 5.3399321153e+00 7.0222986642e-05 1.5286790441e+00 -2.6477497729e+00 1.5286790441e+00 2.6477497729e+00 
61600 5.3399321177e+00 7.0287637439e-05 1.5286790441e+00 -2.6477497729e+00 1.5286790441e+00 2.6477497729e+00 
61700 5.3399321200e+00 7.0350246981e-05 1.5286790441e+00 -2.6477497729e+00 1.5286790441e+00 2.6477497729e+00 
61800 5.3399321222e+00 7.0410853554e-05 1.5286790441e+00 -2.6477497729e+00 1.5286790441e+00 2.6477497729e+00 
61900 5.3399321245e+00 7.0469494071e-05 1.5286790441e+00 -2.6477497729e+00 1.5286790441e+00 2.6477497729e+00 
62000 5.3399321266e+00 7.0526204135e-05 1.5286790441e+00 -2.6477497729e+00 1.5286790441e+00 2.6477497729e+00 
62100 5.3399321288e+00 7.0581018112e-05 1.5286790441e+00 -2.6477497729e+00 1.5286790441e+00 2.6477497729e+00 
62200 5.3399321309e+00 7.0633969190e-05 1.5286790441e+00 -2.6477497729e+00 1.5286790441e+00 2.6477497729e+00 
62300 5.3399321330e+00 7.0685089445e-05 1.5286790441e+00 -2.6477497729e+00 1.5286790441e+00 2.6477497729e+00 
62400 5.3399321351e+00 7.0734409896e-05 1.5286790441e+00 -2.6477497729e+00 1.5286790441e+00 2.6477497729e+00 
62500 5.3399321369e+00 6.8928072071e-05 1.5286767305e+00 -2.6477457656e+00 1.5286767305e+00 2.6477457656e+00 
62600 5.3399321389e+00 6.8963647104e-05 1.5286767305e+00 -2.6477457656e+00 1.5286767305e+00 2.6477457656e+00 
62700 5.3399321409e+00 6.8997451314e-05 1.5286767305e+00 -2.6477457656e+00 1.5286767305e+00 2.6477457656e+00 
62800 5.3399321428e+00 6.9029535645e-05 1.5286767305e+00 -2.6477457656e+00 1.5286767305e+00 2.6477457656e+00 
62900 5.3399321447e+00 6.9059949092e-05 1.5286767305e+00 -2.6477457656e+00 1.5286767305e+00 2.6477457656e+00 
63000 5.3399321466e+00 6.9088738767e-05 1.5286767305e+00 -2.6477457656e+00 1.5286767305e+00 2.6477457656e+00 
63100 5.3399321485e+00 6.9115949964e-05 1.5286767305e+00 -2.6477457656e+00 1.5286767305e+00 2.6477457656e+00 
63200 5.3399321503e+00 6.9141626221e-05 1.5286767305e+00 -2.6477457656e+00 1.5286767305e+00 2.6477457656e+00 
63300 5.3399321521e+00 6.9165809386e-05 1.5286767305e+00 -2.6477457656e+00 1.5286767305e+00 2.6477457656e+00 
63400 5.3399321539e+00 6.9188539678e-05 1.5286767305e+00 -2.6477457656e+00 1.5286767305e+00 2.6477457656e+00 
63500 5.3399321556e+00 6.9209855747e-05 1.5286767305e+00 -2.6477457656e+00 1.5286767305e+00 2.6477457656e+00 
63600 5.3399321573e+00 6.9229794739e-05 1.5286767305e+00 -2.6477457656e+00 1.5286767305e+00 2.6477457656e+00 
63700 5.3399321590e+00 6.9248392347e-05 1.5286767305e+00 -2.6477457656e+00 1.5286767305e+00 2.6477457656e+00 
63800 5.3399321607e+00 6.9265682873e-05 1.5286767305e+00 -2.6477457656e+00 1.5286767305e+00 2.6477457656e+00 
63900 5.3399321623e+00 6.9281699288e-05 1.5286767305e+00 -2.6477457656e+00 1.5286767305e+00 2.6477457656e+00 
64000 5.3399321639e+00 6.9296473279e-05 1.5286767305e+00 -2.6477457656e+00 1.5286767305e+00 2.6477457656e+00 
64100 5.3399321655e+00 6.9310035310e-05 1.5286767305e+00 -2.6477457656e+00 1.5286767305e+00 2.6477457656e+00 
64200 5.3399321671e+00 6.9322414667e-05 1.5286767305e+00 -2.6477457656e+00 1.5286767305e+00 2.6477457656e+00 
64300 5.3399321686e+00 6.9333639521e-05 1.5286767305e+00 -2.6477457656e+00 1.5286767305e+00 2.6477457656e+00 
64400 5.3399321702e+00 6.9343736963e-05 1.5286767305e+00 -2.6477457656e+00 1.5286767305e+00 2.6477457656e+00 
64500 5.3399321717e+00 6.9352733064e-05 1.5286767305e+00 -2.6477457656e+00 1.5286767305e+00 2.6477457656e+00 
64600 5.3399321731e+00 6.9360652917e-05 1.5286767305e+00 -2.6477457656e+00 1.5286767305e+00 2.6477457656e+00 
64700 5.3399321746e+00 6.9367520683e-05 1.5286767305e+00 -2.6477457656e+00 1.5286767305e+00 2.6477457656e+00 
64800 5.3399321760e+00 6.9373359636e-05 1.5286767305e+00 -2.6477457656e+00 1.5286767305e+00 2.6477457656e+00 
64900 5.3399321774e+00 6.9378192207e-05 1.5286767305e+00 -2.6477457656e+00 1.5286767305e+00 2.6477457656e+00 
65000 5.3399321788e+00 6.9382040023e-05 1.5286767305e+00 -2.6477457656e+00 1.5286767305e+00 2.6477457656e+00 
65100 5.3399321802e+00 6.9384923950e-05 1.5286767305e+00 -2.6477457656e+00 1.5286767305e+00 2.6477457656e+00 
65200 5.3399321815e+00 6.9386864125e-05 1.5286767305e+00 -2.6477457656e+00 1.5286767305e+00 2.6477457656e+00 
65300 5.3399321829e+00 6.9387880007e-05 1.5286767305e+00 -2.6477457656e+00 1.5286767305e+00 2.6477457656e+00 
65400 5.3399321842e+00 6.9387990397e-05 1.5286767305e+00 -2.6477457656e+00 1.5286767305e+00 2.6477457656e+00 
65500 5.3399321854e+00 6.9387213487e-05 1.5286767305e+00 -2.6477457656e+00 1.5286767305e+00 2.6477457656e+00 
65600 5.3399321867e+00 6.9385566882e-05 1.5286767305e+00 -2.6477457656e+00 1.5286767305e+00 2.6477457656e+00 
65700 5.3399321880e+00 6.9383067638e-05 1.5286767305e+00 -2.6477457656e+00 1.5286767305e+00 2.6477457656e+00 
65800 5.3399321892e+00 6.9379732296e-05 1.5286767305e+00 -2.6477457656e+00 1.5286767305e+00 2.6477457656e+00 
65900 5.3399321904e+00 6.9375576900e-05 1.5286767305e+00 -2.6477457656e+00 1.5286767305e+00 2.6477457656e+00 
66000 5.3399321916e+00 6.9370617041e-05 1.5286767305e+00 -2.6477457656e+00 1.5286767305e+00 2.6477457656e+00 
66100 5.3399321928e+00 6.9364867871e-05 1.5286767305e+00 -2.6477457656e+00 1.5286767305e+00 2.6477457656e+00 
66200 5.3399321939e+00 6.9358344134e-05 1.5286767305e+00 -2.6477457656e+00 1.5286767305e+00 2.6477457656e+00 
66300 5.3399321951e+00 6.9351060191e-05 1.5286767305e+00 -2.6477457656e+00 1.5286767305e+00 2.6477457656e+00 
66400 5.3399321962e+00 6.9343030046e-05 1.5286767305e+00 -2.6477457656e+00 1.5286767305e+00 2.6477457656e+00 
66500 5.3399321973e+00 6.9334267361e-05 1.5286767305e+00 -2.6477457656e+00 1.5286767305e+00 2.6477457656e+00 
66600 5.3399321984e+00 6.9324785487e-05 1.5286767305e+00 -2.6477457656e+00 1.5286767305e+00 2.6477457656e+00 
66700 5.3399321995e+00 6.9314597475e-05 1.5286767305e+00 -2.6477457656e+00 1.5286767305e+00 2.6477457656e+00 
66800 5.3399322005e+00 6.9303716103e-05 1.5286767305e+00 -2.6477457656e+00 1.5286767305e+00 2.6477457656e+00 
66900 5.3399322016e+00 6.9292153888e-05 1.5286767305e+00 -2.6477457656e+00 1.5286767305e+00 2.6477457656e+00 
67000 5.3399322026e+00 6.9279923107e-05 1.5286767305e+00 -2.6477457656e+00 1.5286767305e+00 2.6477457656e+00 
67100 5.3399322036e+00 6.9267035813e-05 1.5286767305e+00 -2.6477457656e+00 1.5286767305e+00 2.6477457656e+00 
67200 5.3399322046e+00 6.9253503851e-05 1.5286767305e+00 -2.6477457656e+00 1.5286767305e+00 2.6477457656e+00 
67300 5.3399322056e+00 6.9239338868e-05 1.5286767305e+00 -2.6477457656e+00 1.5286767305e+00 2.6477457656e+00 
67400 5.3399322066e+00 6.9224552332e-05 1.5286767305e+00 -2.6477457656e+00 1.5286767305e+00 2.6477457656e+00 
67500 5.3399322075e+00 6.9209155539e-05 1.5286767305e+00 -2.6477457656e+00 1.5286767305e+00 2.6477457656e+00 
67600 5.3399322085e+00 6.9193159633e-05 1.5286767305e+00 -2.6477457656e+00 1.5286767305e+00 2.6477457656e+00 
67700 5.3399322094e+00 6.9176575609e-05 1.5286767305e+00 -2.6477457656e+00 1.5286767305e+00 2.6477457656e+00 
67800 5.3399322103e+00 6.9159414329e-05 1.5286767305e+00 -2.6477457656e+00 1.5286767305e+00 2.6477457656e+00 
67900 5.3399322112e+00 6.9141686526e-05 1.5286767305e+00 -2.6477457656e+00 1.5286767305e+00 2.6477457656e+00 
68000 5.3399322121e+00 6.9123402819e-05 1.5286767305e+00 -2.6477457656e+00 1.5286767305e+00 2.6477457656e+00 
68100 5.3399322130e+00 6.9104573719e-05 1.5286767305e+00 -2.6477457656e+00 1.5286767305e+00 2.6477457656e+00 
68200 5.3399322138e+00 6.9085209632e-05 1.5286767305e+00 -2.6477457656e+00 1.5286767305e+00 2.6477457656e+00 
68300 5.3399322147e+00 6.9065320873e-05 1.5286767305e+00 -2.6477457656e+00 1.5286767305e+00 2.6477457656e+00 
68400 5.3399322155e+00 6.9044917670e-05 1.5286767305e+00 -2.6477457656e+00 1.5286767305e+00 2.6477457656e+00 
68500 5.3399322163e+00 6.9024010165e-05 1.5286767305e+00 -2.6477457656e+00 1.5286767305e+00 2.6477457656e+00 
68600 5.3399322171e+00 6.9002608427e-05 1.5286767305e+00 -2.6477457656e+00 1.5286767305e+00 2.6477457656e+00 
68700 5.3399322179e+00 6.8980722450e-05 1.5286767305e+00 -2.6477457656e+00 1.5286767305e+00 2.6477457656e+00 
68800 5.3399322187e+00 6.8958362163e-05 1.5286767305e+00 -2.6477457656e+00 1.5286767305e+00 2.6477457656e+00 
68900 5.3399322195e+00 6.8935537428e-05 1.5286767305e+00 -2.6477457656e+00 1.5286767305e+00 2.6477457656e+00 
69000 5.3399322203e+00 6.8912258046e-05 1.5286767305e+00 -2.6477457656e+00 1.5286767305e+00 2.6477457656e+00 
69100 5.3399322210e+00 6.8888533763e-05 1.5286767305e+00 -2.6477457656e+00 1.5286767305e+00 2.6477457656e+00 
69200 5.3399322218e+00 6.8864374266e-05 1.5286767305e+00 -2.6477457656e+00 1.5286767305e+00 2.6477457656e+00 
69300 5.3399322225e+00 6.8839789189e-05 1.5286767305e+00 -2.6477457656e+00 1.5286767305e+00 2.6477457656e+00 
69400 5.3399322232e+00 6.8814788116e-05 1.5286767305e+00 -2.6477457656e+00 1.5286767305e+00 2.6477457656e+00 
69500 5.3399322239e+00 6.8789380577e-05 1.5286767305e+00 -2.6477457656e+00 1.5286767305e+00 2.6477457656e+00 
69600 5.3399322246e+00 6.8763576057e-05 1.5286767305e+00 -2.6477457656e+00 1.5286767305e+00 2.6477457656e+00 
69700 5.3399322253e+00 6.8737383988e-05 1.5286767305e+00 -2.6477457656e+00 1.5286767305e+00 2.6477457656e+00 
69800 5.3399322260e+00 6.8710813757e-05 1.5286767305e+00 -2.6477457656e+00 1.5286767305e+00 2.6477457656e+00 
69900 5.3399322267e+00 6.8683874700e-05 1.5286767305e+00 -2.6477457656e+00 1.5286767305e+00 2.6477457656e+00 
70000 5.3399322273e+00 6.8656576107e-05 1.5286767305e+00 -2.6477457656e+00 1.5286767305e+00 2.6477457656e+00 
70100 5.3399322280e+00 6.8628927219e-05 1.5286767305e+00 -2.6477457656e+00 1.5286767305e+00 2.6477457656e+00 
70200 5.3399322286e+00 6.8600937230e-05 1.5286767305e+00 -2.6477457656e+00 1.5286767305e+00 2.6477457656e+00 
70300 5.3399322293e+00 6.8572615282e-05 1.5286767305e+00 -2.6477457656e+00 1.5286767305e+00 2.6477457656e+00 
70400 5.3399322299e+00 6.8543970468e-05 1.5286767305e+00 -2.6477457656e+00 1.5286767305e+00 2.6477457656e+00 
70500 5.3399322305e+00 6.8515011831e-05 1.5286767305e+00 -2.6477457656e+00 1.5286767305e+00 2.6477457656e+00 
70600 5.3399322311e+00 6.8485748360e-05 1.5286767305e+00 -2.6477457656e+00 1.5286767305e+00 2.6477457656e+00 
70700 5.3399322317e+00 6.8456188992e-05 1.5286767305e+00 -2.6477457656e+00 1.5286767305e+00 2.6477457656e+00 
70800 5.3399322323e+00 6.8426342610e-05 1.5286767305e+00 -2.6477457656e+00 1.5286767305e+00 2.6477457656e+00 
70900 5.3399322329e+00 6.8396218038e-05 1.5286767305e+00 -2.6477457656e+00 1.5286767305e+00 2.6477457656e+00 
71000 5.3399322334e+00 6.8365824047e-05 1.5286767305e+00 -2.6477457656e+00 1.5286767305e+00 2.6477457656e+00 
71100 5.3399322340e+00 6.8335169343e-05 1.5286767305e+00 -2.6477457656e+00 1.5286767305e+00 2.6477457656e+00 
71200 5.3399322346e+00 6.8304262576e-05 1.5286767305e+00 -2.6477457656e+00 1.5286767305e+00 2.6477457656e+00 
71300 5.3399322351e+00 6.8273112331e-05 1.5286767305e+00 -2.6477457656e+00 1.5286767305e+00 2.6477457656e+00 
71400 5.3399322356e+00 6.8241727129e-05 1.5286767305e+00 -2.6477457656e+00 1.5286767305e+00 2.6477457656e+00 
71500 5.3399322362e+00 6.8210115427e-05 1.5286767305e+00 -2.6477457656e+00 1.5286767305e+00 2.6477457656e+00 
71600 5.3399322367e+00 6.8178285610e-05 1.5286767305e+00 -2.6477457656e+00 1.5286767305e+00 2.6477457656e+00 
71700 5.3399322372e+00 6.8146245996e-05 1.5286767305e+00 -2.6477457656e+00 1.5286767305e+00 2.6477457656e+00 
71800 5.3399322377e+00 6.8114004831e-05 1.5286767305e+00 -2.6477457656e+00 1.5286767305e+00 2.6477457656e+00 
71900 5.3399322382e+00 6.8081570288e-05 1.5286767305e+00 -2.6477457656e+00 1.5286767305e+00 2.6477457656e+00 
72000 5.3399322387e+00 6.8048950463e-05 1.5286767305e+00 -2.6477457656e+00 1.5286767305e+00 2.6477457656e+00 
72100 5.3399322392e+00 6.8016153377e-05 1.5286767305e+00 -2.6477457656e+00 1.5286767305e+00 2.6477457656e+00 
72200 5.3399322397e+00 6.7983186971e-05 1.5286767305e+00 -2.6477457656e+00 1.5286767305e+00 2.6477457656e+00 
72300 5.3399322402e+00 6.7950059104e-05 1.5286767305e+00 -2.6477457656e+00 1.5286767305e+00 2.6477457656e+00 
72400 5.3399322406e+00 6.7916777557e-05 1.5286767305e+00 -2.6477457656e+00 1.5286767305e+00 2.6477457656e+00 
72500 5.3399322411e+00 6.7883350022e-05 1.5286767305e+00 -2.6477457656e+00 1.5286767305e+00 2.6477457656e+00 
72600 5.3399322415e+00 6.7849784106e-05 1.5286767305e+00 -2.6477457656e+00 1.5286767305e+00 2.6477457656e+00 
72700 5.3399322420e+00 6.7816087333e-05 1.5286767305e+00 -2.6477457656e+00 1.5286767305e+00 2.6477457656e+00 
72800 5.3399322424e+00 6.7782267134e-05 1.5286767305e+00 -2.6477457656e+00 1.5286767305e+00 2.6477457656e+00 
72900 5.3399322429e+00 6.7748330848e-05 1.5286767305e+00 -2.6477457656e+00 1.5286767305e+00 2.6477457656e+00 
73000 5.3399322433e+00 6.7714285727e-05 1.5286767305e+00 -2.6477457656e+00 1.5286767305e+00 2.6477457656e+00 
73100 5.3399322437e+00 6.7680138927e-05 1.5286767305e+00 -2.6477457656e+00 1.5286767305e+00 2.6477457656e+00 
73200 5.3399322441e+00 6.7645897509e-05 1.5286767305e+00 -2.6477457656e+00 1.5286767305e+00 2.6477457656e+00 
73300 5.3399322445e+00 6.7611568438e-05 1.5286767305e+00 -2.6477457656e+00 1.5286767305e+00 2.6477457656e+00 
73400 5.3399322449e+00 6.7577158584e-05 1.5286767305e+00 -2.6477457656e+00 1.5286767305e+00 2.6477457656e+00 
73500 5.3399322453e+00 6.7542674716e-05 1.5286767305e+00 -2.6477457656e+00 1.5286767305e+00 2.6477457656e+00 
73600 5.3399322457e+00 6.7508123507e-05 1.5286767305e+00 -2.6477457656e+00 1.5286767305e+00 2.6477457656e+00 
73700 5.3399322461e+00 6.7473511528e-05 1.5286767305e+00 -2.6477457656e+00 1.5286767305e+00 2.6477457656e+00 
73800 5.3399322465e+00 6.7438845246e-05 1.5286767305e+00 -2.6477457656e+00 1.5286767305e+00 2.6477457656e+00 
73900 5.3399322469e+00 6.7404131031e-05 1.5286767305e+00 -2.6477457656e+00 1.5286767305e+00 2.6477457656e+00 
74000 5.3399322473e+00 6.7369375147e-05 1.5286767305e+00 -2.6477457656e+00 1.5286767305e+00 2.6477457656e+00 
74100 5.3399322476e+00 6.7334583756e-05 1.5286767305e+00 -2.6477457656e+00 1.5286767305e+00 2.6477457656e+00 
74200 5.3399322480e+00 6.7299762915e-05 1.5286767305e+00 -2.6477457656e+00 1.5286767305e+00 2.6477457656e+00 
74300 5.3399322483e+00 6.7264918576e-05 1.5286767305e+00 -2.6477457656e+00 1.5286767305e+00 2.6477457656e+00 
74400 5.3399322487e+00 6.7230056587e-05 1.5286767305e+00 -2.6477457656e+00 1.5286767305e+00 2.6477457656e+00 
74500 5.3399322490e+00 6.7195182690e-05 1.5286767305e+00 -2.6477457656e+00 1.5286767305e+00 2.6477457656e+00 
74600 5.3399322494e+00 6.7160302522e-05 1.5286767305e+00 -2.6477457656e+00 1.5286767305e+00 2.6477457656e+00 
74700 5.3399322497e+00 6.7125421611e-05 1.5286767305e+00 -2.6477457656e+00 1.5286767305e+00 2.6477457656e+00 
74800 5.3399322500e+00 6.7090545383e-05 1.5286767305e+00 -2.6477457656e+00 1.5286767305e+00 2.6477457656e+00 
74900 5.3399322504e+00 6.7055679156e-05 1.5286767305e+00 -2.6477457656e+00 1.5286767305e+00 2.6477457656e+00 
75000 5.3399322507e+00 6.7020828138e-05 1.5286767305e+00 -2.6477457656e+00 1.5286767305e+00 2.6477457656e+00 
75100 5.3399322510e+00 6.6985997436e-05 1.5286767305e+00 -2.6477457656e+00 1.5286767305e+00 2.6477457656e+00 
75200 5.3399322513e+00 6.6951192048e-05 1.5286767305e+00 -2.6477457656e+00 1.5286767305e+00 2.6477457656e+00 
75300 5.3399322516e+00 6.6916416866e-05 1.5286767305e+00 -2.6477457656e+00 1.5286767305e+00 2.6477457656e+00 
75400 5.3399322519e+00 6.6881676677e-05 1.5286767305e+00 -2.6477457656e+00 1.5286767305e+00 2.6477457656e+00 
75500 5.3399322522e+00 6.6846976162e-05 1.5286767305e+00 -2.6477457656e+00 1.5286767305e+00 2.6477457656e+00 
75600 5.3399322525e+00 6.6812319896e-05 1.5286767305e+00 -2.6477457656e+00 1.5286767305e+00 2.6477457656e+00 
75700 5.3399322528e+00 6.6777712349e-05 1.5286767305e+00 -2.6477457656e+00 1.5286767305e+00 2.6477457656e+00 
75800 5.3399322531e+00 6.6743157890e-05 1.5286767305e+00 -2.6477457656e+00 1.5286767305e+00 2.6477457656e+00 
75900 5.3399322534e+00 6.6708660780e-05 1.5286767305e+00 -2.6477457656e+00 1.5286767305e+00 2.6477457656e+00 
76000 5.3399322537e+00 6.6674225180e-05 1.5286767305e+00 -2.6477457656e+00 1.5286767305e+00 2.6477457656e+00 
76100 5.3399322540e+00 6.6639855145e-05 1.5286767305e+00 -2.6477457656e+00 1.5286767305e+00 2.6477457656e+00 
76200 5.3399322542e+00 6.6605554631e-05 1.5286767305e+00 -2.6477457656e+00 1.5286767305e+00 2.6477457656e+00 
76300 5.3399322545e+00 6.6571327491e-05 1.5286767305e+00 -2.6477457656e+00 1.5286767305e+00 2.6477457656e+00 
76400 5.3399322548e+00 6.6537177481e-05 1.5286767305e+00 -2.6477457656e+00 1.5286767305e+00 2.6477457656e+00 
76500 5.3399322550e+00 6.6503108251e-05 1.5286767305e+00 -2.6477457656e+00 1.5286767305e+00 2.6477457656e+00 
76600 5.3399322553e+00 6.6469123361e-05 1.5286767305e+00 -2.6477457656e+00 1.5286767305e+00 2.6477457656e+00 
76700 5.3399322555e+00 6.6435226267e-05 1.5286767305e+00 -2.6477457656e+00 1.5286767305e+00 2.6477457656e+00 
76800 5.3399322558e+00 6.6401420327e-05 1.5286767305e+00 -2.6477457656e+00 1.5286767305e+00 2.6477457656e+00 
76900 5.3399322560e+00 6.6367708810e-05 1.5286767305e+00 -2.6477457656e+00 1.5286767305e+00 2.6477457656e+00 
77000 5.3399322563e+00 6.6334094884e-05 1.5286767305e+00 -2.6477457656e+00 1.5286767305e+00 2.6477457656e+00 
77100 5.3399322565e+00 6.6300581626e-05 1.5286767305e+00 -2.6477457656e+00 1.5286767305e+00 2.6477457656e+00 
77200 5.3399322568e+00 6.6267172020e-05 1.5286767305e+00 -2.6477457656e+00 1.5286767305e+00 2.6477457656e+00 
77300 5.3399322570e+00 6.6233868959e-05 1.5286767305e+00 -2.6477457656e+00 1.5286767305e+00 2.6477457656e+00 
77400 5.3399322572e+00 6.6200675244e-05 1.5286767305e+00 -2.6477457656e+00 1.5286767305e+00 2.6477457656e+00 
77500 5.3399322574e+00 6.6167593589e-05 1.5286767305e+00 -2.6477457656e+00 1.5286767305e+00 2.6477457656e+00 
77600 5.3399322577e+00 6.6134626618e-05 1.5286767305e+00 -2.6477457656e+00 1.5286767305e+00 2.6477457656e+00 
77700 5.3399322579e+00 6.6101776869e-05 1.5286767305e+00 -2.6477457656e+00 1.5286767305e+00 2.6477457656e+00 
77800 5.3399322581e+00 6.6069046796e-05 1.5286767305e+00 -2.6477457656e+00 1.5286767305e+00 2.6477457656e+00 
77900 5.3399322583e+00 6.6036438766e-05 1.5286767305e+00 -2.6477457656e+00 1.5286767305e+00 2.6477457656e+00 
78000 5.3399322585e+00 6.6003955066e-05 1.5286767305e+00 -2.6477457656e+00 1.5286767305e+00 2.6477457656e+00 
78100 5.3399322587e+00 6.5971597898e-05 1.5286767305e+00 -2.6477457656e+00 1.5286767305e+00 2.6477457656e+00 
78200 5.3399322590e+00 6.5939369386e-05 1.5286767305e+00 -2.6477457656e+00 1.5286767305e+00 2.6477457656e+00 
78300 5.3399322592e+00 6.5907271575e-05 1.5286767305e+00 -2.6477457656e+00 1.5286767305e+00 2.6477457656e+00 
78400 5.3399322594e+00 6.5875306431e-05 1.5286767305e+00 -2.6477457656e+00 1.5286767305e+00 2.6477457656e+00 
78500 5.3399322596e+00 6.5843475844e-05 1.5286767305e+00 -2.6477457656e+00 1.5286767305e+00 2.6477457656e+00 
78600 5.3399322597e+00 6.5811781630e-05 1.5286767305e+00 -2.6477457656e+00 1.5286767305e+00 2.6477457656e+00 
78700 5.3399322599e+00 6.5780225529e-05 1.5286767305e+00 -2.6477457656e+00 1.5286767305e+00 2.6477457656e+00 
78800 5.3399322601e+00 6.5748809211e-05 1.5286767305e+00 -2.6477457656e+00 1.5286767305e+00 2.6477457656e+00 
78900 5.3399322603e+00 6.5717534273e-05 1.5286767305e+00 -2.6477457656e+00 1.5286767305e+00 2.6477457656e+00 
79000 5.3399322605e+00 6.5686402245e-05 1.5286767305e+00 -2.6477457656e+00 1.5286767305e+00 2.6477457656e+00 
79100 5.3399322607e+00 6.5655414585e-05 1.5286767305e+00 -2.6477457656e+00 1.5286767305e+00 2.6477457656e+00 
79200 5.3399322609e+00 6.5624572688e-05 1.5286767305e+00 -2.6477457656e+00 1.5286767305e+00 2.6477457656e+00 
79300 5.3399322610e+00 6.5593877881e-05 1.5286767305e+00 -2.6477457656e+00 1.5286767305e+00 2.6477457656e+00 
79400 5.3399322612e+00 6.5563331428e-05 1.5286767305e+00 -2.6477457656e+00 1.5286767305e+00 2.6477457656e+00 
79500 5.3399322614e+00 6.5532934528e-05 1.5286767305e+00 -2.6477457656e+00 1.5286767305e+00 2.6477457656e+00 
79600 5.3399322616e+00 6.5502688321e-05 1.5286767305e+00 -2.6477457656e+00 1.5286767305e+00 2.6477457656e+00 
79700 5.3399322617e+00 6.5472593886e-05 1.5286767305e+00 -2.6477457656e+00 1.5286767305e+00 2.6477457656e+00 
79800 5.3399322619e+00 6.5442652243e-05 1.5286767305e+00 -2.6477457656e+00 1.5286767305e+00 2.6477457656e+00 
79900 5.3399322621e+00 6.5412864353e-05 1.5286767305e+00 -2.6477457656e+00 1.5286767305e+00 2.6477457656e+00 
80000 5.3399322622e+00 6.5383231123e-05 1.5286767305e+00 -2.6477457656e+00 1.5286767305e+00 2.6477457656e+00 
80100 5.3399322624e+00 6.5353753406e-05 1.5286767305e+00 -2.6477457656e+00 1.5286767305e+00 2.6477457656e+00 
80200 5.3399322625e+00 6.5324431997e-05 1.5286767305e+00 -2.6477457656e+00 1.5286767305e+00 2.6477457656e+00 
80300 5.3399322627e+00 6.5295267642e-05 1.5286767305e+00 -2.6477457656e+00 1.5286767305e+00 2.6477457656e+00 
80400 5.3399322628e+00 6.5266261036e-05 1.5286767305e+00 -2.6477457656e+00 1.5286767305e+00 2.6477457656e+00 
80500 5.3399322630e+00 6.5237412823e-05 1.5286767305e+00 -2.6477457656e+00 1.5286767305e+00 2.6477457656e+00 
80600 5.3399322631e+00 6.5208723597e-05 1.5286767305e+00 -2.6477457656e+00 1.5286767305e+00 2.6477457656e+00 
80700 5.3399322633e+00 6.5180193910e-05 1.5286767305e+00 -2.6477457656e+00 1.5286767305e+00 2.6477457656e+00 
80800 5.3399322634e+00 6.5151824260e-05 1.5286767305e+00 -2.6477457656e+00 1.5286767305e+00 2.6477457656e+00 
80900 5.3399322636e+00 6.5123615107e-05 1.5286767305e+00 -2.6477457656e+00 1.5286767305e+00 2.6477457656e+00 
81000 5.3399322637e+00 6.5095566864e-05 1.5286767305e+00 -2.6477457656e+00 1.5286767305e+00 2.6477457656e+00 
81100 5.3399322639e+00 6.5067679900e-05 1.5286767305e+00 -2.6477457656e+00 1.5286767305e+00 2.6477457656e+00 
81200 5.3399322640e+00 6.5039954547e-05 1.5286767305e+00 -2.6477457656e+00 1.5286767305e+00 2.6477457656e+00 
81300 5.3399322641e+00 6.5012391093e-05 1.5286767305e+00 -2.6477457656e+00 1.5286767305e+00 2.6477457656e+00 
81400 5.3399322643e+00 6.4984989787e-05 1.5286767305e+00 -2.6477457656e+00 1.5286767305e+00 2.6477457656e+00 
81500 5.3399322644e+00 6.4957750842e-05 1.5286767305e+00 -2.6477457656e+00 1.5286767305e+00 2.6477457656e+00 
81600 5.3399322645e+00 6.4930674431e-05 1.5286767305e+00 -2.6477457656e+00 1.5286767305e+00 2.6477457656e+00 
81700 5.3399322646e+00 6.4903760694e-05 1.5286767305e+00 -2.6477457656e+00 1.5286767305e+00 2.6477457656e+00 
81800 5.3399322648e+00 6.4877009736e-05 1.5286767305e+00 -2.6477457656e+00 1.5286767305e+00 2.6477457656e+00 
81900 5.3399322649e+00 6.4850421625e-05 1.5286767305e+00 -2.6477457656e+00 1.5286767305e+00 2.6477457656e+00 
82000 5.3399322650e+00 6.4823996399e-05 1.5286767305e+00 -2.6477457656e+00 1.5286767305e+00 2.6477457656e+00 
82100 5.3399322651e+00 6.4797734060e-05 1.5286767305e+00 -2.6477457656e+00 1.5286767305e+00 2.6477457656e+00 
82200 5.3399322653e+00 6.4771634587e-05 1.5286767305e+00 -2.6477457656e+00 1.5286767305e+00 2.6477457656e+00 
82300 5.3399322654e+00 6.4745697920e-05 1.5286767305e+00 -2.6477457656e+00 1.5286767305e+00 2.6477457656e+00 
82400 5.3399322655e+00 6.4719923977e-05 1.5286767305e+00 -2.6477457656e+00 1.5286767305e+00 2.6477457656e+00 
82500 5.3399322656e+00 6.4694312643e-05 1.5286767305e+00 -2.6477457656e+00 1.5286767305e+00 2.6477457656e+00 
82600 5.3399322657e+00 6.4668863779e-05 1.5286767305e+00 -2.6477457656e+00 1.5286767305e+00 2.6477457656e+00 
82700 5.3399322658e+00 6.4643577217e-05 1.5286767305e+00 -2.6477457656e+00 1.5286767305e+00 2.6477457656e+00 
82800 5.3399322659e+00 6.4618452767e-05 1.5286767305e+00 -2.6477457656e+00 1.5286767305e+00 2.6477457656e+00 
82900 5.3399322660e+00 6.4593490210e-05 1.5286767305e+00 -2.6477457656e+00 1.5286767305e+00 2.6477457656e+00 
83000 5.3399322662e+00 6.4568689307e-05 1.5286767305e+00 -2.6477457656e+00 1.5286767305e+00 2.6477457656e+00 
83100 5.3399322663e+00 6.4544049793e-05 1.5286767305e+00 -2.6477457656e+00 1.5286767305e+00 2.6477457656e+00 
83200 5.3399322664e+00 6.4519571383e-05 1.5286767305e+00 -2.6477457656e+00 1.5286767305e+00 2.6477457656e+00 
83300 5.3399322665e+00 6.4495253769e-05 1.5286767305e+00 -2.6477457656e+00 1.5286767305e+00 2.6477457656e+00 
83400 5.3399322666e+00 6.4471096623e-05 1.5286767305e+00 -2.6477457656e+00 1.5286767305e+00 2.6477457656e+00 
83500 5.3399322667e+00 6.4447099596e-05 1.5286767305e+00 -2.6477457656e+00 1.5286767305e+00 2.6477457656e+00 
83600 5.3399322668e+00 6.4423262322e-05 1.5286767305e+00 -2.6477457656e+00 1.5286767305e+00 2.6477457656e+00 
83700 5.3399322669e+00 6.4399584415e-05 1.5286767305e+00 -2.6477457656e+00 1.5286767305e+00 2.6477457656e+00 
83800 5.3399322670e+00 6.4376065470e-05 1.5286767305e+00 -2.6477457656e+00 1.5286767305e+00 2.6477457656e+00 
83900 5.3399322671e+00 6.4352705066e-05 1.5286767305e+00 -2.6477457656e+00 1.5286767305e+00 2.6477457656e+00 
84000 5.3399322672e+00 6.4329502764e-05 1.5286767305e+00 -2.6477457656e+00 1.5286767305e+00 2.6477457656e+00 
84100 5.3399322672e+00 6.4306458113e-05 1.5286767305e+00 -2.6477457656e+00 1.5286767305e+00 2.6477457656e+00 
84200 5.3399322673e+00 6.4283570641e-05 1.5286767305e+00 -2.6477457656e+00 1.5286767305e+00 2.6477457656e+00 
84300 5.3399322674e+00 6.4260839865e-05 1.5286767305e+00 -2.6477457656e+00 1.5286767305e+00 2.6477457656e+00 
84400 5.3399322675e+00 6.4238265287e-05 1.5286767305e+00 -2.6477457656e+00 1.5286767305e+00 2.6477457656e+00 
84500 5.3399322676e+00 6.4215846394e-05 1.5286767305e+00 -2.6477457656e+00 1.5286767305e+00 2.6477457656e+00 
84600 5.3399322677e+00 6.4193582663e-05 1.5286767305e+00 -2.6477457656e+00 1.5286767305e+00 2.6477457656e+00 
84700 5.3399322678e+00 6.4171473555e-05 1.5286767305e+00 -2.6477457656e+00 1.5286767305e+00 2.6477457656e+00 
84800 5.3399322679e+00 6.4149518520e-05 1.5286767305e+00 -2.6477457656e+00 1.5286767305e+00 2.6477457656e+00 
84900 5.3399322679e+00 6.4127716998e-05 1.5286767305e+00 -2.6477457656e+00 1.5286767305e+00 2.6477457656e+00 
85000 5.3399322680e+00 6.4106068417e-05 1.5286767305e+00 -2.6477457656e+00 1.5286767305e+00 2.6477457656e+00 
85100 5.3399322681e+00 6.4084572193e-05 1.5286767305e+00 -2.6477457656e+00 1.5286767305e+00 2.6477457656e+00 
85200 5.3399322682e+00 6.4063227733e-05 1.5286767305e+00 -2.6477457656e+00 1.5286767305e+00 2.6477457656e+00 
85300 5.3399322683e+00 6.4042034435e-05 1.5286767305e+00 -2.6477457656e+00 1.5286767305e+00 2.6477457656e+00 
85400 5.3399322683e+00 6.4020991687e-05 1.5286767305e+00 -2.6477457656e+00 1.5286767305e+00 2.6477457656e+00 
85500 5.3399322684e+00 6.4000098869e-05 1.5286767305e+00 -2.6477457656e+00 1.5286767305e+00 2.6477457656e+00 
85600 5.3399322685e+00 6.3979355351e-05 1.5286767305e+00 -2.6477457656e+00 1.5286767305e+00 2.6477457656e+00 
85700 5.3399322686e+00 6.3958760496e-05 1.5286767305e+00 -2.6477457656e+00 1.5286767305e+00 2.6477457656e+00 
85800 5.3399322686e+00 6.3938313659e-05 1.5286767305e+00 -2.6477457656e+00 1.5286767305e+00 2.6477457656e+00 
85900 5.3399322687e+00 6.3918014190e-05 1.5286767305e+00 -2.6477457656e+00 1.5286767305e+00 2.6477457656e+00 
86000 5.3399322688e+00 6.3897861428e-05 1.5286767305e+00 -2.6477457656e+00 1.5286767305e+00 2.6477457656e+00 
86100 5.3399322689e+00 6.3877854707e-05 1.5286767305e+00 -2.6477457656e+00 1.5286767305e+00 2.6477457656e+00 
86200 5.3399322689e+00 6.3857993358e-05 1.5286767305e+00 -2.6477457656e+00 1.5286767305e+00 2.6477457656e+00 
86300 5.3399322690e+00 6.3838276701e-05 1.5286767305e+00 -2.6477457656e+00 1.5286767305e+00 2.6477457656e+00 
86400 5.3399322691e+00 6.3818704054e-05 1.5286767305e+00 -2.6477457656e+00 1.5286767305e+00 2.6477457656e+00 
86500 5.3399322691e+00 6.3799274728e-05 1.5286767305e+00 -2.6477457656e+00 1.5286767305e+00 2.6477457656e+00 
86600 5.3399322692e+00 6.3779988030e-05 1.5286767305e+00 -2.6477457656e+00 1.5286767305e+00 2.6477457656e+00 
86700 5.3399322693e+00 6.3760843262e-05 1.5286767305e+00 -2.6477457656e+00 1.5286767305e+00 2.6477457656e+00 
86800 5.3399322693e+00 6.3741839721e-05 1.5286767305e+00 -2.6477457656e+00 1.5286767305e+00 2.6477457656e+00 
86900 5.3399322694e+00 6.3722976700e-05 1.5286767305e+00 -2.6477457656e+00 1.5286767305e+00 2.6477457656e+00 
87000 5.3399322694e+00 6.3704253489e-05 1.5286767305e+00 -2.6477457656e+00 1.5286767305e+00 2.6477457656e+00 
87100 5.3399322695e+00 6.3685669374e-05 1.5286767305e+00 -2.6477457656e+00 1.5286767305e+00 2.6477457656e+00 
87200 5.3399322696e+00 6.3667223637e-05 1.5286767305e+00 -2.6477457656e+00 1.5286767305e+00 2.6477457656e+00 
87300 5.3399322696e+00 6.3648915557e-05 1.5286767305e+00 -2.6477457656e+00 1.5286767305e+00 2.6477457656e+00 
87400 5.3399322697e+00 6.3630744411e-05 1.5286767305e+00 -2.6477457656e+00 1.5286767305e+00 2.6477457656e+00 
87500 5.3399322698e+00 6.3612709473e-05 1.5286767305e+00 -2.6477457656e+00 1.5286767305e+00 2.6477457656e+00 
87600 5.3399322698e+00 6.3594810013e-05 1.5286767305e+00 -2.6477457656e+00 1.5286767305e+00 2.6477457656e+00 
87700 5.3399322699e+00 6.3577045300e-05 1.5286767305e+00 -2.6477457656e+00 1.5286767305e+00 2.6477457656e+00 
87800 5.3399322699e+00 6.3559414601e-05 1.5286767305e+00 -2.6477457656e+00 1.5286767305e+00 2.6477457656e+00 
87900 5.3399322700e+00 6.3541917181e-05 1.5286767305e+00 -2.6477457656e+00 1.5286767305e+00 2.6477457656e+00 
88000 5.3399322700e+00 6.3524552303e-05 1.5286767305e+00 -2.6477457656e+00 1.5286767305e+00 2.6477457656e+00 
88100 5.3399322701e+00 6.3507319229e-05 1.5286767305e+00 -2.6477457656e+00 1.5286767305e+00 2.6477457656e+00 
88200 5.3399322701e+00 6.3490217217e-05 1.5286767305e+00 -2.6477457656e+00 1.5286767305e+00 2.6477457656e+00 
88300 5.3399322702e+00 6.3473245529e-05 1.5286767305e+00 -2.6477457656e+00 1.5286767305e+00 2.6477457656e+00 
88400 5.3399322702e+00 6.3456403420e-05 1.5286767305e+00 -2.6477457656e+00 1.5286767305e+00 2.6477457656e+00 
88500 5.3399322703e+00 6.3439690148e-05 1.5286767305e+00 -2.6477457656e+00 1.5286767305e+00 2.6477457656e+00 
88600 5.3399322703e+00 6.3423104970e-05 1.5286767305e+00 -2.6477457656e+00 1.5286767305e+00 2.6477457656e+00 
88700 5.3399322704e+00 6.3406647142e-05 1.5286767305e+00 -2.6477457656e+00 1.5286767305e+00 2.6477457656e+00 
88800 5.3399322704e+00 6.3395202035e-05 1.5286767305e+00 -2.6477457656e+00 1.5286767305e+00 2.6477457656e+00 
88800 5.3399322704e+00 6.3395202035e-05 1.5286767305e+00 -2.6477457656e+00 1.5286767305e+00 2.6477457656e+00 
