# step Hamiltonian StressXX CellTensor1 CellTensor2 CellTensor3 CellTensor4 
0 4.4639660872e+00 -3.7275151149e-01 1.7438352029e+00 -3.0204111715e+00 1.7438352029e+00 3.0204111715e+00 
100 4.4557729577e+00 -3.7138065047e-01 1.7438352029e+00 -3.0204111715e+00 1.7438352029e+00 3.0204111715e+00 
200 4.4452955976e+00 -3.6041191679e-01 1.7544943614e+00 -3.0388733755e+00 1.7544943614e+00 3.0388733755e+00 
300 4.4369563518e+00 -3.5015301825e-01 1.7647754295e+00 -3.0566807079e+00 1.7647754295e+00 3.0566807079e+00 
400 4.4303788382e+00 -3.4056108506e-01 1.7747052835e+00 -3.0738797194e+00 1.7747052835e+00 3.0738797194e+00 
500 4.4252052003e+00 -3.3160294015e-01 1.7843087458e+00 -3.0905134041e+00 1.7843087458e+00 3.0905134041e+00 
600 4.4211008079e+00 -3.2325187549e-01 1.7936089654e+00 -3.1066218570e+00 1.7936089654e+00 3.1066218570e+00 
700 4.4177583971e+00 -3.1548492801e-01 1.8026276869e+00 -3.1222427409e+00 1.8026276869e+00 3.1222427409e+00 
800 4.4149014660e+00 -3.0828065717e-01 1.8113854283e+00 -3.1374115940e+00 1.8113854283e+00 3.1374115940e+00 
900 4.4122868048e+00 -3.0161741386e-01 1.8199015867e+00 -3.1521620129e+00 1.8199015867e+00 3.1521620129e+00 
1000 4.4097060886e+00 -2.9547207847e-01 1.8281944876e+00 -3.1665257386e+00 1.8281944876e+00 3.1665257386e+00 
1100 4.4069865180e+00 -2.8981923383e-01 1.8362813951e+00 -3.1805326733e+00 1.8362813951e+00 3.1805326733e+00 
1200 4.4039905365e+00 -2.8463072824e-01 1.8441784944e+00 -3.1942108504e+00 1.8441784944e+00 3.1942108504e+00 
1300 4.4006146962e+00 -2.7987557463e-01 1.8519008599e+00 -3.2075863799e+00 1.8519008599e+00 3.2075863799e+00 
1400 4.3967877745e+00 -2.7552012594e-01 1.8594624184e+00 -3.2206833834e+00 1.8594624184e+00 3.2206833834e+00 
1500 4.3924682691e+00 -2.7152846346e-01 1.8668759147e+00 -3.2335239357e+00 1.8668759147e+00 3.2335239357e+00 
1600 4.3876414118e+00 -2.6786293533e-01 1.8741528865e+00 -3.2461280205e+00 1.8741528865e+00 3.2461280205e+00 
1700 4.3823158455e+00 -2.6448478599e-01 1.8813036509e+00 -3.2585135079e+00 1.8813036509e+00 3.2585135079e+00 
1800 4.3765201085e+00 -2.6135482335e-01 1.8883373075e+00 -3.2706961584e+00 1.8883373075e+00 3.2706961584e+00 
1900 4.3702990557e+00 -2.5843407906e-01 1.8952617556e+00 -3.2826896543e+00 1.8952617556e+00 3.2826896543e+00 
2000 4.3637103348e+00 -2.5568442606e-01 1.9020837280e+00 -3.2945056572e+00 1.9020837280e+00 3.2945056572e+00 
2100 4.3568210150e+00 -2.5306912797e-01 1.9088088388e+00 -3.3061538908e+00 1.9088088388e+00 3.3061538908e+00 
2200 4.3497044456e+00 -2.5055330343e-01 1.9154416428e+00 -3.3176422443e+00 1.9154416428e+00 3.3176422443e+00 
2300 4.3424374018e+00 -2.4810429746e-01 1.9219857056e+00 -3.3289768935e+00 1.9219857056e+00 3.3289768935e+00 
2400 4.3350975558e+00 -2.4569195842e-01 1.9284436801e+00 -3.3401624335e+00 1.9284436801e+00 3.3401624335e+00 
2500 4.3277612925e+00 -2.4328882479e-01 1.9348173892e+00 -3.3512020214e+00 1.9348173892e+00 3.3512020214e+00 
2600 4.3205018763e+00 -2.4087022997e-01 1.9411079094e+00 -3.3620975220e+00 1.9411079094e+00 3.3620975220e+00 
2700 4.3133879598e+00 -2.3841433556e-01 1.9473156564e+00 -3.3728496553e+00 1.9473156564e+00 3.3728496553e+00 
2800 4.3064824205e+00 -2.3590210501e-01 1.9534404687e+00 -3.3834581414e+00 1.9534404687e+00 3.3834581414e+00 
2900 4.2998414984e+00 -2.3331722962e-01 1.9594816884e+00 -3.3939218408e+00 1.9594816884e+00 3.3939218408e+00 
3000 4.2935142103e+00 -2.3064601860e-01 1.9654382386e+00 -3.4042388884e+00 1.9654382386e+00 3.4042388884e+00 
3100 4.2875420057e+00 -2.2787726350e-01 1.9713086962e+00 -3.4144068193e+00 1.9713086962e+00 3.4144068193e+00 
3200 4.2819586371e+00 -2.2500208626e-01 1.9770913596e+00 -3.4244226861e+00 1.9770913596e+00 3.4244226861e+00 
3300 4.2767902097e+00 -2.2201377860e-01 1.9827843112e+00 -3.4342831674e+00 1.9827843112e+00 3.4342831674e+00 
3400 4.2720553828e+00 -2.1890763880e-01 1.9883854742e+00 -3.4439846663e+00 1.9883854742e+00 3.4439846663e+00 
3500 4.2677656946e+00 -2.1568081065e-01 1.9938926650e+00 -3.4535234006e+00 1.9938926650e+00 3.4535234006e+00 
3600 4.2639259838e+00 -2.1233212795e-01 1.9993036397e+00 -3.4628954837e+00 1.9993036397e+00 3.4628954837e+00 
3700 4.2605348871e+00 -2.0886196680e-01 2.0046161362e+00 -3.4720969975e+00 2.0046161362e+00 3.4720969975e+00 
3800 4.2575853906e+00 -2.0527210692e-01 2.0098279119e+00 -3.4811240579e+00 2.0098279119e+00 3.4811240579e+00 
3900 4.2550654182e+00 -2.0156560254e-01 2.0149367775e+00 -3.4899728728e+00 2.0149367775e+00 3.4899728728e+00 
4000 4.2529584423e+00 -1.9774666263e-01 2.0199406266e+00 -3.4986397935e+00 2.0199406266e+00 3.4986397935e+00 
4100 4.2512441032e+00 -1.9382053980e-01 2.0248374620e+00 -3.5071213612e+00 2.0248374620e+00 3.5071213612e+00 
4200 4.2498988272e+00 -1.8979342699e-01 2.0296254195e+00 -3.5154143469e+00 2.0296254195e+00 3.5154143469e+00 
4300 4.2488964337e+00 -1.8567236061e-01 2.0343027882e+00 -3.5235157872e+00 2.0343027882e+00 3.5235157872e+00 
4400 4.2482087240e+00 -1.8146512883e-01 2.0388680286e+00 -3.5314230155e+00 2.0388680286e+00 3.5314230155e+00 
4500 4.2478060466e+00 -1.7718018372e-01 2.0433197880e+00 -3.5391336889e+00 2.0433197880e+00 3.5391336889e+00 
4600 4.2476578327e+00 -1.7282655582e-01 2.0476569140e+00 -3.5466458116e+00 2.0476569140e+00 3.5466458116e+00 
4700 4.2477330986e+00 -1.6841377012e-01 2.0518784659e+00 -3.5539577539e+00 2.0518784659e+00 3.5539577539e+00 
4800 4.2480009113e+00 -1.6395176235e-01 2.0559837236e+00 -3.5610682688e+00 2.0559837236e+00 3.5610682688e+00 
4900 4.2484308154e+00 -1.5945079497e-01 2.0599721952e+00 -3.5679765042e+00 2.0599721952e+00 3.5679765042e+00 
5000 4.2489932182e+00 -1.5492137232e-01 2.0638436219e+00 -3.5746820121e+00 2.0638436219e+00 3.5746820121e+00 
5100 4.2496597314e+00 -1.5037415492e-01 2.0675979820e+00 -3.5811847545e+00 2.0675979820e+00 3.5811847545e+00 
5200 4.2504034695e+00 -1.4581987310e-01 2.0712354918e+00 -3.5874851062e+00 2.0712354918e+00 3.5874851062e+00 
5300 4.2511993019e+00 -1.4126924055e-01 2.0747566053e+00 -3.5935838538e+00 2.0747566053e+00 3.5935838538e+00 
5400 4.2520240604e+00 -1.3673286858e-01 2.0781620123e+00 -3.5994821917e+00 2.0781620123e+00 3.5994821917e+00 
5500 4.2528567006e+00 -1.3222118230e-01 2.0814526337e+00 -3.6051817151e+00 2.0814526337e+00 3.6051817151e+00 
5600 4.2536784190e+00 -1.2774433996e-01 2.0846296158e+00 -3.6106844096e+00 2.0846296158e+00 3.6106844096e+00 
5700 4.2544727263e+00 -1.2331215691e-01 2.0876943230e+00 -3.6159926382e+00 2.0876943230e+00 3.6159926382e+00 
5800 4.2552254786e+00 -1.1893403560e-01 2.0906483280e+00 -3.6211091249e+00 2.0906483280e+00 3.6211091249e+00 
5900 4.2559248686e+00 -1.1461890302e-01 2.0934934016e+00 -3.6260369370e+00 2.0934934016e+00 3.6260369370e+00 
6000 4.2565613813e+00 -1.1037515671e-01 2.0962315008e+00 -3.6307794638e+00 2.0962315008e+00 3.6307794638e+00 
6100 4.2571277147e+00 -1.0621062034e-01 2.0988647556e+00 -3.6353403948e+00 2.0988647556e+00 3.6353403948e+00 
6200 4.2576186720e+00 -1.0213250939e-01 2.1013954554e+00 -3.6397236955e+00 2.1013954554e+00 3.6397236955e+00 
6300 4.2580310287e+00 -9.8147407232e-02 2.1038260348e+00 -3.6439335826e+00 2.1038260348e+00 3.6439335826e+00 
6400 4.2583633788e+00 -9.4261251382e-02 2.1061590586e+00 -3.6479744984e+00 2.1061590586e+00 3.6479744984e+00 
6500 4.2586159648e+00 -9.0479329505e-02 2.1083972069e+00 -3.6518510849e+00 2.1083972069e+00 3.6518510849e+00 
6600 4.2587904967e+00 -8.6806284231e-02 2.1105432603e+00 -3.6555681584e+00 2.1105432603e+00 3.6555681584e+00 
6700 4.2588899644e+00 -8.3246125729e-02 2.1126000854e+00 -3.6591306840e+00 2.1126000854e+00 3.6591306840e+00 
6800 4.2589184473e+00 -7.9802250742e-02 2.1145706205e+00 -3.6625437510e+00 2.1145706205e+00 3.6625437510e+00 
6900 4.2588809251e+00 -7.6477466695e-02 2.1164578621e+00 -3.6658125492e+00 2.1164578621e+00 3.6658125492e+00 
7000 4.2587830937e+00 -7.3274019490e-02 2.1182648515e+00 -3.6689423466e+00 2.1182648515e+00 3.6689423466e+00 
7100 4.2586311885e+00 -7.0193623670e-02 2.1199946631e+00 -3.6719384682e+00 2.1199946631e+00 3.6719384682e+00 
7200 4.2584318179e+00 -6.7237493761e-02 2.1216503925e+00 -3.6748062757e+00 2.1216503925e+00 3.6748062757e+00 
7300 4.2581918086e+00 -6.4406375797e-02 2.1232351460e+00 -3.6775511493e+00 2.1232351460e+00 3.6775511493e+00 
7400 4.2579180637e+00 -6.1700578216e-02 2.1247520302e+00 -3.6801784699e+00 2.1247520302e+00 3.6801784699e+00 
7500 4.2576174356e+00 -5.9120001552e-02 2.1262041432e+00 -3.6826936033e+00 2.1262041432e+00 3.6826936033e+00 
7600 4.2572966131e+00 -5.6664166540e-02 2.1275945657e+00 -3.6851018857e+00 2.1275945657e+00 3.6851018857e+00 
7700 4.2569620226e+00 -5.4332240440e-02 2.1289263531e+00 -3.6874086092e+00 2.1289263531e+00 3.6874086092e+00 
7800 4.2566197454e+00 -5.2123061531e-02 2.1302025284e+00 -3.6896190096e+00 2.1302025284e+00 3.6896190096e+00 
7900 4.2562754471e+00 -5.0035161877e-02 2.1314260752e+00 -3.6917382548e+00 2.1314260752e+00 3.6917382548e+00 
8000 4.2559343229e+00 -4.8066788493e-02 2.1325999313e+00 -3.6937714333e+00 2.1325999313e+00 3.6937714333e+00 
8100 4.2556010546e+00 -4.6215923164e-02 2.1337269833e+00 -3.6957235446e+00 2.1337269833e+00 3.6957235446e+00 
8200 4.2552797799e+00 -4.4480301116e-02 2.1348100607e+00 -3.6975994897e+00 2.1348100607e+00 3.6975994897e+00 
8300 4.2549740744e+00 -4.2857428802e-02 2.1358519313e+00 -3.6994040625e+00 2.1358519313e+00 3.6994040625e+00 
8400 4.2546869430e+00 -4.1344600992e-02 2.1368552964e+00 -3.7011419417e+00 2.1368552964e+00 3.7011419417e+00 
8500 4.2544208221e+00 -3.9938917367e-02 2.1378227863e+00 -3.7028176834e+00 2.1378227863e+00 3.7028176834e+00 
8600 4.2541775903e+00 -3.8637298747e-02 2.1387569569e+00 -3.7044357144e+00 2.1387569569e+00 3.7044357144e+00 
8700 4.2539585873e+00 -3.7436503075e-02 2.1396602858e+00 -3.7060003259e+00 2.1396602858e+00 3.7060003259e+00 
8800 4.2537646397e+00 -3.6333141206e-02 2.1405351689e+00 -3.7075156679e+00 2.1405351689e+00 3.7075156679e+00 
8900 4.2535960930e+00 -3.5323692561e-02 2.1413839179e+00 -3.7089857442e+00 2.1413839179e+00 3.7089857442e+00 
9000 4.2534528488e+00 -3.4404520631e-02 2.1422087573e+00 -3.7104144081e+00 2.1422087573e+00 3.7104144081e+00 
9100 4.2533344063e+00 -3.3571888342e-02 2.1430118226e+00 -3.7118053580e+00 2.1430118226e+00 3.7118053580e+00 
9200 4.2532399065e+00 -3.2821973242e-02 2.1437951578e+00 -3.7131621344e+00 2.1437951578e+00 3.7131621344e+00 
9300 4.2531681788e+00 -3.2150882484e-02 2.1445607143e+00 -3.7144881171e+00 2.1445607143e+00 3.7144881171e+00 
9400 4.2531177892e+00 -3.1554667555e-02 2.1453103493e+00 -3.7157865230e+00 2.1453103493e+00 3.7157865230e+00 
9500 4.2530870885e+00 -3.1029338731e-02 2.1460458249e+00 -3.7170604041e+00 2.1460458249e+00 3.7170604041e+00 
9600 4.2530742599e+00 -3.0570879199e-02 2.1467688076e+00 -3.7183126469e+00 2.1467688076e+00 3.7183126469e+00 
9700 4.2530773657e+00 -3.0175258825e-02 2.1474808677e+00 -3.7195459712e+00 2.1474808677e+00 3.7195459712e+00 
9800 4.2530943921e+00 -2.9838447540e-02 2.1481834794e+00 -3.7207629304e+00 2.1481834794e+00 3.7207629304e+00 
9900 4.2531232903e+00 -2.9556428302e-02 2.1488780210e+00 -3.7219659117e+00 2.1488780210e+00 3.7219659117e+00 
10000 4.2531620164e+00 -2.9325209626e-02 2.1495657754e+00 -3.7231571371e+00 2.1495657754e+00 3.7231571371e+00 
10100 4.2532085654e+00 -2.9140837652e-02 2.1502479308e+00 -3.7243386650e+00 2.1502479308e+00 3.7243386650e+00 
10200 4.2532610035e+00 -2.8999407744e-02 2.1509255822e+00 -3.7255123916e+00 2.1509255822e+00 3.7255123916e+00 
10300 4.2533174946e+00 -2.8897075582e-02 2.1515997320e+00 -3.7266800533e+00 2.1515997320e+00 3.7266800533e+00 
10400 4.2533763232e+00 -2.8830067751e-02 2.1522712923e+00 -3.7278432299e+00 2.1522712923e+00 3.7278432299e+00 
10500 4.2534359132e+00 -2.8794691792e-02 2.1529410861e+00 -3.7290033469e+00 2.1529410861e+00 3.7290033469e+00 
10600 4.2534948415e+00 -2.8787345712e-02 2.1536098499e+00 -3.7301616798e+00 2.1536098499e+00 3.7301616798e+00 
10700 4.2535518489e+00 -2.8804526916e-02 2.1542782355e+00 -3.7313193575e+00 2.1542782355e+00 3.7313193575e+00 
10800 4.2536058454e+00 -2.8842840559e-02 2.1549468125e+00 -3.7324773668e+00 2.1549468125e+00 3.7324773668e+00 
10900 4.2536559130e+00 -2.8899007283e-02 2.1556160711e+00 -3.7336365567e+00 2.1556160711e+00 3.7336365567e+00 
11000 4.2537013046e+00 -2.8969870325e-02 2.1562864248e+00 -3.7347976434e+00 2.1562864248e+00 3.7347976434e+00 
11100 4.2537414402e+00 -2.9052401986e-02 2.1569582134e+00 -3.7359612154e+00 2.1569582134e+00 3.7359612154e+00 
11200 4.2537758999e+00 -2.9143709421e-02 2.1576317061e+00 -3.7371277390e+00 2.1576317061e+00 3.7371277390e+00 
11300 4.2538044150e+00 -2.9241039759e-02 2.1583071047e+00 -3.7382975637e+00 2.1583071047e+00 3.7382975637e+00 
11400 4.2538268574e+00 -2.9341784518e-02 2.1589845470e+00 -3.7394709281e+00 2.1589845470e+00 3.7394709281e+00 
11500 4.2538432270e+00 -2.9443483325e-02 2.1596641101e+00 -3.7406479659e+00 2.1596641101e+00 3.7406479659e+00 
11600 4.2538536385e+00 -2.9543826920e-02 2.1603458140e+00 -3.7418287118e+00 2.1603458140e+00 3.7418287118e+00 
11700 4.2538583070e+00 -2.9640659443e-02 2.1610296255e+00 -3.7430131080e+00 2.1610296255e+00 3.7430131080e+00 
11800 4.2538575338e+00 -2.9731980025e-02 2.1617154612e+00 -3.7442010103e+00 2.1617154612e+00 3.7442010103e+00 
11900 4.2538516916e+00 -2.9815943654e-02 2.1624031918e+00 -3.7453921946e+00 2.1624031918e+00 3.7453921946e+00 
12000 4.2538412103e+00 -2.9890861372e-02 2.1630926453e+00 -3.7465863631e+00 2.1630926453e+00 3.7465863631e+00 
12100 4.2538265626e+00 -2.9955199772e-02 2.1637836109e+00 -3.7477831506e+00 2.1637836109e+00 3.7477831506e+00 
12200 4.2538082513e+00 -3.0007579862e-02 2.1644758427e+00 -3.7489821312e+00 2.1644758427e+00 3.7489821312e+00 
12300 4.2537867967e+00 -3.0046775274e-02 2.1651690632e+00 -3.7501828244e+00 2.1651690632e+00 3.7501828244e+00 
12400 4.2537627250e+00 -3.0071709891e-02 2.1658629669e+00 -3.7513847010e+00 2.1658629669e+00 3.7513847010e+00 
12500 4.2537365583e+00 -3.0081454879e-02 2.1665572241e+00 -3.7525871896e+00 2.1665572241e+00 3.7525871896e+00 
12600 4.2537088052e+00 -3.0075225202e-02 2.1672514836e+00 -3.7537896824e+00 2.1672514836e+00 3.7537896824e+00 
12700 4.2536799528e+00 -3.0052375619e-02 2.1679453770e+00 -3.7549915410e+00 2.1679453770e+00 3.7549915410e+00 
12800 4.2536504605e+00 -3.0012396226e-02 2.1686385212e+00 -3.7561921020e+00 2.1686385212e+00 3.7561921020e+00 
12900 4.2536207539e+00 -2.9954907578e-02 2.1693305220e+00 -3.7573906826e+00 2.1693305220e+00 3.7573906826e+00 
13000 4.2535912210e+00 -2.9879655424e-02 2.1700209769e+00 -3.7585865854e+00 2.1700209769e+00 3.7585865854e+00 
13100 4.2535622086e+00 -2.9786505117e-02 2.1707094779e+00 -3.7597791043e+00 2.1707094779e+00 3.7597791043e+00 
13200 4.2535340209e+00 -2.9675435713e-02 2.1713956148e+00 -3.7609675281e+00 2.1713956148e+00 3.7609675281e+00 
13300 4.2535069177e+00 -2.9546533838e-02 2.1720789769e+00 -3.7621511461e+00 2.1720789769e+00 3.7621511461e+00 
13400 4.2534811148e+00 -2.9399987333e-02 2.1727591565e+00 -3.7633292517e+00 2.1727591565e+00 3.7633292517e+00 
13500 4.2534567845e+00 -2.9236078743e-02 2.1734357504e+00 -3.7645011467e+00 2.1734357504e+00 3.7645011467e+00 
13600 4.2534340568e+00 -2.9055178676e-02 2.1741083626e+00 -3.7656661451e+00 2.1741083626e+00 3.7656661451e+00 
13700 4.2534130216e+00 -2.8857739083e-02 2.1747766059e+00 -3.7668235765e+00 2.1747766059e+00 3.7668235765e+00 
13800 4.2533937315e+00 -2.8644286484e-02 2.1754401040e+00 -3.7679727890e+00 2.1754401040e+00 3.7679727890e+00 
13900 4.2533762039e+00 -2.8415415201e-02 2.1760984933e+00 -3.7691131528e+00 2.1760984933e+00 3.7691131528e+00 
14000 4.2533604252e+00 -2.8171780603e-02 2.1767514242e+00 -3.7702440621e+00 2.1767514242e+00 3.7702440621e+00 
14100 4.2533463536e+00 -2.7914092418e-02 2.1773985623e+00 -3.7713649382e+00 2.1773985623e+00 3.7713649382e+00 
14200 4.2533339231e+00 -2.7643108141e-02 2.1780395901e+00 -3.7724752310e+00 2.1780395901e+00 3.7724752310e+00 
14300 4.2533230468e+00 -2.7359626553e-02 2.1786742078e+00 -3.7735744211e+00 2.1786742078e+00 3.7735744211e+00 
14400 4.2533136211e+00 -2.7064481396e-02 2.1793021342e+00 -3.7746620215e+00 2.1793021342e+00 3.7746620215e+00 
14500 4.2533055286e+00 -2.6758535219e-02 2.1799231075e+00 -3.7757375787e+00 2.1799231075e+00 3.7757375787e+00 
14600 4.2532986422e+00 -2.6442673413e-02 2.1805368858e+00 -3.7768006739e+00 2.1805368858e+00 3.7768006739e+00 
14700 4.2532928279e+00 -2.6117798468e-02 2.1811432479e+00 -3.7778509239e+00 2.1811432479e+00 3.7778509239e+00 
14800 4.2532879482e+00 -2.5784824456e-02 2.1817419933e+00 -3.7788879815e+00 2.1817419933e+00 3.7788879815e+00 
14900 4.2532838645e+00 -2.5444671762e-02 2.1823329429e+00 -3.7799115361e+00 2.1823329429e+00 3.7799115361e+00 
15000 4.2532804401e+00 -2.5098262078e-02 2.1829159383e+00 -3.7809213139e+00 2.1829159383e+00 3.7809213139e+00 
15100 4.2532775422e+00 -2.4746513667e-02 2.1834908428e+00 -3.7819170776e+00 2.1834908428e+00 3.7819170776e+00 
15200 4.2532750436e+00 -2.4390336901e-02 2.1840575405e+00 -3.7828986268e+00 2.1840575405e+00 3.7828986268e+00 
15300 4.2532728250e+00 -2.4030630094e-02 2.1846159364e+00 -3.7838657969e+00 2.1846159364e+00 3.7838657969e+00 
15400 4.2532707755e+00 -2.3668275613e-02 2.1851659562e+00 -3.7848184590e+00 2.1851659562e+00 3.7848184590e+00 
15500 4.2532687943e+00 -2.3304136298e-02 2.1857075455e+00 -3.7857565194e+00 2.1857075455e+00 3.7857565194e+00 
15600 4.2532667913e+00 -2.2939052161e-02 2.1862406700e+00 -3.7866799180e+00 2.1862406700e+00 3.7866799180e+00 
15700 4.2532646875e+00 -2.2573837384e-02 2.1867653142e+00 -3.7875886284e+00 2.1867653142e+00 3.7875886284e+00 
15800 4.2532624151e+00 -2.2209277613e-02 2.1872814813e+00 -3.7884826560e+00 2.1872814813e+00 3.7884826560e+00 
15900 4.2532599180e+00 -2.1846127533e-02 2.1877891923e+00 -3.7893620372e+00 2.1877891923e+00 3.7893620372e+00 
16000 4.2532571511e+00 -2.1485108726e-02 2.1882884853e+00 -3.7902268381e+00 2.1882884853e+00 3.7902268381e+00 
16100 4.2532540804e+00 -2.1126907808e-02 2.1887794149e+00 -3.7910771532e+00 2.1887794149e+00 3.7910771532e+00 
16200 4.2532506821e+00 -2.0772174837e-02 2.1892620511e+00 -3.7919131036e+00 2.1892620511e+00 3.7919131036e+00 
16300 4.2532469422e+00 -2.0421521976e-02 2.1897364787e+00 -3.7927348362e+00 2.1897364787e+00 3.7927348362e+00 
16400 4.2532428557e+00 -2.0075522420e-02 2.1902027961e+00 -3.7935425217e+00 2.1902027961e+00 3.7935425217e+00 
16500 4.2532384256e+00 -1.9734709553e-02 2.1906611149e+00 -3.7943363532e+00 2.1906611149e+00 3.7943363532e+00 
16600 4.2532336624e+00 -1.9399576351e-02 2.1911115585e+00 -3.7951165444e+00 2.1911115585e+00 3.7951165444e+00 
16700 4.2532285828e+00 -1.9070575000e-02 2.1915542614e+00 -3.7958833283e+00 2.1915542614e+00 3.7958833283e+00 
16800 4.2532232087e+00 -1.8748116732e-02 2.1919893683e+00 -3.7966369555e+00 2.1919893683e+00 3.7966369555e+00 
16900 4.2532175668e+00 -1.8432571854e-02 2.1924170329e+00 -3.7973776924e+00 2.1924170329e+00 3.7973776924e+00 
17000 4.2532116869e+00 -1.8124269981e-02 2.1928374174e+00 -3.7981058196e+00 2.1928374174e+00 3.7981058196e+00 
17100 4.2532056017e+00 -1.7823500430e-02 2.1932506910e+00 -3.7988216306e+00 2.1932506910e+00 3.7988216306e+00 
17200 4.2531993455e+00 -1.7530512793e-02 2.1936570297e+00 -3.7995254298e+00 2.1936570297e+00 3.7995254298e+00 
17300 4.2531929536e+00 -1.7245517662e-02 2.1940566146e+00 -3.8002175312e+00 2.1940566146e+00 3.8002175312e+00 
17400 4.2531864615e+00 -1.6968687497e-02 2.1944496316e+00 -3.8008982566e+00 2.1944496316e+00 3.8008982566e+00 
17500 4.2531799043e+00 -1.6700157618e-02 2.1948362704e+00 -3.8015679346e+00 2.1948362704e+00 3.8015679346e+00 
17600 4.2531733161e+00 -1.6440027336e-02 2.1952167234e+00 -3.8022268985e+00 2.1952167234e+00 3.8022268985e+00 
17700 4.2531667293e+00 -1.6188361169e-02 2.1955911851e+00 -3.8028754853e+00 2.1955911851e+00 3.8028754853e+00 
17800 4.2531601743e+00 -1.5945190175e-02 2.1959598515e+00 -3.8035140342e+00 2.1959598515e+00 3.8035140342e+00 
17900 4.2531536794e+00 -1.5710513364e-02 2.1963229190e+00 -3.8041428855e+00 2.1963229190e+00 3.8041428855e+00 
18000 4.2531472700e+00 -1.5484299178e-02 2.1966805836e+00 -3.8047623787e+00 2.1966805836e+00 3.8047623787e+00 
18100 4.2531409689e+00 -1.5266487054e-02 2.1970330407e+00 -3.8053728523e+00 2.1970330407e+00 3.8053728523e+00 
18200 4.2531347958e+00 -1.5056989023e-02 2.1973804840e+00 -3.8059746418e+00 2.1973804840e+00 3.8059746418e+00 
18300 4.2531287674e+00 -1.4855691370e-02 2.1977231051e+00 -3.8065680791e+00 2.1977231051e+00 3.8065680791e+00 
18400 4.2531228974e+00 -1.4662456317e-02 2.1980610929e+00 -3.8071534911e+00 2.1980610929e+00 3.8071534911e+00 
18500 4.2531171966e+00 -1.4477123738e-02 2.1983946330e+00 -3.8077311994e+00 2.1983946330e+00 3.8077311994e+00 
18600 4.2531116727e+00 -1.4299512894e-02 2.1987239070e+00 -3.8083015187e+00 2.1987239070e+00 3.8083015187e+00 
18700 4.2531063309e+00 -1.4129424167e-02 2.1990490925e+00 -3.8088647566e+00 2.1990490925e+00 3.8088647566e+00 
18800 4.2531011735e+00 -1.3966640809e-02 2.1993703625e+00 -3.8094212125e+00 2.1993703625e+00 3.8094212125e+00 
18900 4.2530962007e+00 -1.3810930666e-02 2.1996878847e+00 -3.8099711770e+00 2.1996878847e+00 3.8099711770e+00 
19000 4.2530914104e+00 -1.3662047903e-02 2.2000018215e+00 -3.8105149315e+00 2.2000018215e+00 3.8105149315e+00 
19100 4.2530867988e+00 -1.3519734699e-02 2.2003123296e+00 -3.8110527474e+00 2.2003123296e+00 3.8110527474e+00 
19200 4.2530823601e+00 -1.3383722916e-02 2.2006195598e+00 -3.8115848857e+00 2.2006195598e+00 3.8115848857e+00 
19300 4.2530780873e+00 -1.3253735734e-02 2.2009236567e+00 -3.8121115970e+00 2.2009236567e+00 3.8121115970e+00 
19400 4.2530739722e+00 -1.3129489246e-02 2.2012247584e+00 -3.8126331205e+00 2.2012247584e+00 3.8126331205e+00 
19500 4.2530700057e+00 -1.3010694007e-02 2.2015229966e+00 -3.8131496842e+00 2.2015229966e+00 3.8131496842e+00 
19600 4.2530661780e+00 -1.2897056533e-02 2.2018184963e+00 -3.8136615046e+00 2.2018184963e+00 3.8136615046e+00 
19700 4.2530624790e+00 -1.2788280750e-02 2.2021113756e+00 -3.8141687864e+00 2.2021113756e+00 3.8141687864e+00 
19800 4.2530588982e+00 -1.2684069380e-02 2.2024017460e+00 -3.8146717228e+00 2.2024017460e+00 3.8146717228e+00 
19900 4.2530554250e+00 -1.2584125267e-02 2.2026897123e+00 -3.8151704949e+00 2.2026897123e+00 3.8151704949e+00 
20000 4.2530520493e+00 -1.2488152636e-02 2.2029753720e+00 -3.8156652722e+00 2.2029753720e+00 3.8156652722e+00 
20100 4.2530487609e+00 -1.2395858293e-02 2.2032588164e+00 -3.8161562123e+00 2.2032588164e+00 3.8161562123e+00 
20200 4.2530455503e+00 -1.2306952746e-02 2.2035401298e+00 -3.8166434613e+00 2.2035401298e+00 3.8166434613e+00 
20300 4.2530424084e+00 -1.2221151260e-02 2.2038193898e+00 -3.8171271538e+00 2.2038193898e+00 3.8171271538e+00 
20400 4.2530393268e+00 -1.2138174839e-02 2.2040966677e+00 -3.8176074132e+00 2.2040966677e+00 3.8176074132e+00 
20500 4.2530362980e+00 -1.2057751132e-02 2.2043720283e+00 -3.8180843517e+00 2.2043720283e+00 3.8180843517e+00 
20600 4.2530333149e+00 -1.1979615270e-02 2.2046455302e+00 -3.8185580710e+00 2.2046455302e+00 3.8185580710e+00 
20700 4.2530303714e+00 -1.1903510625e-02 2.2049172261e+00 -3.8190286620e+00 2.2049172261e+00 3.8190286620e+00 
20800 4.2530274623e+00 -1.1829189493e-02 2.2051871626e+00 -3.8194962058e+00 2.2051871626e+00 3.8194962058e+00 
20900 4.2530245831e+00 -1.1756413710e-02 2.2054553808e+00 -3.8199607734e+00 2.2054553808e+00 3.8199607734e+00 
21000 4.2530217300e+00 -1.1684955187e-02 2.2057219165e+00 -3.8204224268e+00 2.2057219165e+00 3.8204224268e+00 
21100 4.2530189002e+00 -1.1614596380e-02 2.2059868001e+00 -3.8208812185e+00 2.2059868001e+00 3.8208812185e+00 
21200 4.2530160915e+00 -1.1545130687e-02 2.2062500570e+00 -3.8213371929e+00 2.2062500570e+00 3.8213371929e+00 
21300 4.2530133024e+00 -1.1476362770e-02 2.2065117082e+00 -3.8217903861e+00 2.2065117082e+00 3.8217903861e+00 
21400 4.2530105320e+00 -1.1408108824e-02 2.2067717700e+00 -3.8222408263e+00 2.2067717700e+00 3.8222408263e+00 
21500 4.2530077800e+00 -1.1340196768e-02 2.2070302546e+00 -3.8226885348e+00 2.2070302546e+00 3.8226885348e+00 
21600 4.2530050466e+00 -1.1272466377e-02 2.2072871704e+00 -3.8231335260e+00 2.2072871704e+00 3.8231335260e+00 
21700 4.2530023325e+00 -1.1204769357e-02 2.2075425219e+00 -3.8235758078e+00 2.2075425219e+00 3.8235758078e+00 
21800 4.2529996386e+00 -1.1136969361e-02 2.2077963105e+00 -3.8240153826e+00 2.2077963105e+00 3.8240153826e+00 
21900 4.2529969663e+00 -1.1068941947e-02 2.2080485345e+00 -3.8244522473e+00 2.2080485345e+00 3.8244522473e+00 
22000 4.2529943171e+00 -1.1000574487e-02 2.2082991891e+00 -3.8248863938e+00 2.2082991891e+00 3.8248863938e+00 
22100 4.2529916926e+00 -1.0931766029e-02 2.2085482672e+00 -3.8253178098e+00 2.2085482672e+00 3.8253178098e+00 
22200 4.2529890949e+00 -1.0862427108e-02 2.2087957595e+00 -3.8257464789e+00 2.2087957595e+00 3.8257464789e+00 
22300 4.2529865256e+00 -1.0792479517e-02 2.2090416543e+00 -3.8261723813e+00 2.2090416543e+00 3.8261723813e+00 
22400 4.2529839867e+00 -1.0721856041e-02 2.2092859385e+00 -3.8265954939e+00 2.2092859385e+00 3.8265954939e+00 
22500 4.2529814801e+00 -1.0650500151e-02 2.2095285972e+00 -3.8270157912e+00 2.2095285972e+00 3.8270157912e+00 
22600 4.2529790075e+00 -1.0578365665e-02 2.2097696146e+00 -3.8274332454e+00 2.2097696146e+00 3.8274332454e+00 
22700 4.2529765705e+00 -1.0505416383e-02 2.2100089734e+00 -3.8278478271e+00 2.2100089734e+00 3.8278478271e+00 
22800 4.2529741707e+00 -1.0431625689e-02 2.2102466558e+00 -3.8282595051e+00 2.2102466558e+00 3.8282595051e+00 
22900 4.2529718095e+00 -1.0356976138e-02 2.2104826433e+00 -3.8286682474e+00 2.2104826433e+00 3.8286682474e+00 
23000 4.2529694879e+00 -1.0281459016e-02 2.2107169170e+00 -3.8290740213e+00 2.2107169170e+00 3.8290740213e+00 
23100 4.2529672071e+00 -1.0205073883e-02 2.2109494578e+00 -3.8294767939e+00 2.2109494578e+00 3.8294767939e+00 
23200 4.2529649676e+00 -1.0127828107e-02 2.2111802467e+00 -3.8298765320e+00 2.2111802467e+00 3.8298765320e+00 
23300 4.2529627701e+00 -1.0049736382e-02 2.2114092647e+00 -3.8302732028e+00 2.2114092647e+00 3.8302732028e+00 
23400 4.2529606150e+00 -9.9708202377e-03 2.2116364933e+00 -3.8306667743e+00 2.2116364933e+00 3.8306667743e+00 
23500 4.2529585024e+00 -9.8911075452e-03 2.2118619144e+00 -3.8310572151e+00 2.2118619144e+00 3.8310572151e+00 
23600 4.2529564323e+00 -9.8106320195e-03 2.2120855105e+00 -3.8314444949e+00 2.2120855105e+00 3.8314444949e+00 
23700 4.2529544044e+00 -9.7294327193e-03 2.2123072649e+00 -3.8318285848e+00 2.2123072649e+00 3.8318285848e+00 
23800 4.2529524185e+00 -9.6475535503e-03 2.2125271619e+00 -3.8322094576e+00 2.2125271619e+00 3.8322094576e+00 
23900 4.2529504738e+00 -9.5650427712e-03 2.2127451866e+00 -3.8325870875e+00 2.2127451866e+00 3.8325870875e+00 
24000 4.2529485699e+00 -9.4819525067e-03 2.2129613254e+00 -3.8329614507e+00 2.2129613254e+00 3.8329614507e+00 
24100 4.2529467060e+00 -9.3983382669e-03 2.2131755656e+00 -3.8333325256e+00 2.2131755656e+00 3.8333325256e+00 
24200 4.2529448810e+00 -9.3142584779e-03 2.2133878960e+00 -3.8337002927e+00 2.2133878960e+00 3.8337002927e+00 
24300 4.2529430941e+00 -9.2297740231e-03 2.2135983066e+00 -3.8340647345e+00 2.2135983066e+00 3.8340647345e+00 
24400 4.2529413442e+00 -9.1449477970e-03 2.2138067888e+00 -3.8344258364e+00 2.2138067888e+00 3.8344258364e+00 
24500 4.2529396303e+00 -9.0598442744e-03 2.2140133355e+00 -3.8347835858e+00 2.2140133355e+00 3.8347835858e+00 
24600 4.2529379513e+00 -8.9745290942e-03 2.2142179410e+00 -3.8351379728e+00 2.2142179410e+00 3.8351379728e+00 
24700 4.2529363059e+00 -8.8890686602e-03 2.2144206009e+00 -3.8354889901e+00 2.2144206009e+00 3.8354889901e+00 
24800 4.2529346931e+00 -8.8035297600e-03 2.2146213126e+00 -3.8358366330e+00 2.2146213126e+00 3.8358366330e+00 
24900 4.2529331118e+00 -8.7179792019e-03 2.2148200749e+00 -3.8361808993e+00 2.2148200749e+00 3.8361808993e+00 
25000 4.2529315609e+00 -8.6324834708e-03 2.2150168879e+00 -3.8365217894e+00 2.2150168879e+00 3.8365217894e+00 
25100 4.2529300392e+00 -8.5471084051e-03 2.2152117534e+00 -3.8368593065e+00 2.2152117534e+00 3.8368593065e+00 
25200 4.2529285458e+00 -8.4619188923e-03 2.2154046748e+00 -3.8371934560e+00 2.2154046748e+00 3.8371934560e+00 
25300 4.2529270797e+00 -8.3769785866e-03 2.2155956566e+00 -3.8375242463e+00 2.2155956566e+00 3.8375242463e+00 
25400 4.2529256399e+00 -8.2923496467e-03 2.2157847050e+00 -3.8378516877e+00 2.2157847050e+00 3.8378516877e+00 
25500 4.2529242256e+00 -8.2080924944e-03 2.2159718276e+00 -3.8381757935e+00 2.2159718276e+00 3.8381757935e+00 
25600 4.2529228360e+00 -8.1242655951e-03 2.2161570332e+00 -3.8384965790e+00 2.2161570332e+00 3.8384965790e+00 
25700 4.2529214703e+00 -8.0409252579e-03 2.2163403319e+00 -3.8388140618e+00 2.2163403319e+00 3.8388140618e+00 
25800 4.2529201278e+00 -7.9581254578e-03 2.2165217354e+00 -3.8391282618e+00 2.2165217354e+00 3.8391282618e+00 
25900 4.2529188079e+00 -7.8759176773e-03 2.2167012561e+00 -3.8394392008e+00 2.2167012561e+00 3.8394392008e+00 
26000 4.2529175100e+00 -7.7943507692e-03 2.2168789080e+00 -3.8397469029e+00 2.2168789080e+00 3.8397469029e+00 
26100 4.2529162337e+00 -7.7134708378e-03 2.2170547059e+00 -3.8400513938e+00 2.2170547059e+00 3.8400513938e+00 
26200 4.2529149784e+00 -7.6333211407e-03 2.2172286658e+00 -3.8403527012e+00 2.2172286658e+00 3.8403527012e+00 
26300 4.2529137437e+00 -7.5539420084e-03 2.2174008046e+00 -3.8406508543e+00 2.2174008046e+00 3.8406508543e+00 
26400 4.2529125293e+00 -7.4753707823e-03 2.2175711400e+00 -3.8409458839e+00 2.2175711400e+00 3.8409458839e+00 
26500 4.2529113349e+00 -7.3976417702e-03 2.2177396908e+00 -3.8412378224e+00 2.2177396908e+00 3.8412378224e+00 
26600 4.2529101601e+00 -7.3207862183e-03 2.2179064762e+00 -3.8415267032e+00 2.2179064762e+00 3.8415267032e+00 
26700 4.2529090047e+00 -7.2448322992e-03 2.2180715165e+00 -3.8418125613e+00 2.2180715165e+00 3.8418125613e+00 
26800 4.2529078686e+00 -7.1698051151e-03 2.2182348322e+00 -3.8420954326e+00 2.2182348322e+00 3.8420954326e+00 
26900 4.2529067514e+00 -7.0957267160e-03 2.2183964448e+00 -3.8423753537e+00 2.2183964448e+00 3.8423753537e+00 
27000 4.2529056529e+00 -7.0226161300e-03 2.2185563759e+00 -3.8426523625e+00 2.2185563759e+00 3.8426523625e+00 
27100 4.2529045731e+00 -6.9504894078e-03 2.2187146477e+00 -3.8429264974e+00 2.2187146477e+00 3.8429264974e+00 
27200 4.2529035118e+00 -6.8793596782e-03 2.2188712828e+00 -3.8431977973e+00 2.2188712828e+00 3.8431977973e+00 
27300 4.2529024687e+00 -6.8092372148e-03 2.2190263040e+00 -3.8434663018e+00 2.2190263040e+00 3.8434663018e+00 
27400 4.2529014438e+00 -6.7401295125e-03 2.2191797342e+00 -3.8437320508e+00 2.2191797342e+00 3.8437320508e+00 
27500 4.2529004368e+00 -6.6720413736e-03 2.2193315968e+00 -3.8439950845e+00 2.2193315968e+00 3.8439950845e+00 
27600 4.2528994477e+00 -6.6049750021e-03 2.2194819150e+00 -3.8442554432e+00 2.2194819150e+00 3.8442554432e+00 
27700 4.2528984762e+00 -6.5389301047e-03 2.2196307120e+00 -3.8445131673e+00 2.2196307120e+00 3.8445131673e+00 
27800 4.2528975222e+00 -6.4739039998e-03 2.2197780114e+00 -3.8447682972e+00 2.2197780114e+00 3.8447682972e+00 
27900 4.2528965855e+00 -6.4098917309e-03 2.2199238362e+00 -3.8450208732e+00 2.2199238362e+00 3.8450208732e+00 
28000 4.2528956659e+00 -6.3468861858e-03 2.2200682096e+00 -3.8452709354e+00 2.2200682096e+00 3.8452709354e+00 
28100 4.2528947632e+00 -6.2848782189e-03 2.2202111547e+00 -3.8455185234e+00 2.2202111547e+00 3.8455185234e+00 
28200 4.2528938773e+00 -6.2238567783e-03 2.2203526940e+00 -3.8457636768e+00 2.2203526940e+00 3.8457636768e+00 
28300 4.2528930078e+00 -6.1638090337e-03 2.2204928502e+00 -3.8460064344e+00 2.2204928502e+00 3.8460064344e+00 
28400 4.2528921546e+00 -6.1047205078e-03 2.2206316454e+00 -3.8462468346e+00 2.2206316454e+00 3.8462468346e+00 
28500 4.2528913174e+00 -6.0465752073e-03 2.2207691014e+00 -3.8464849154e+00 2.2207691014e+00 3.8464849154e+00 
28600 4.2528904960e+00 -5.9893557555e-03 2.2209052397e+00 -3.8467207140e+00 2.2209052397e+00 3.8467207140e+00 
28700 4.2528896900e+00 -5.9330435242e-03 2.2210400815e+00 -3.8469542668e+00 2.2210400815e+00 3.8469542668e+00 
28800 4.2528888994e+00 -5.8776187647e-03 2.2211736474e+00 -3.8471856097e+00 2.2211736474e+00 3.8471856097e+00 
28900 4.2528881237e+00 -5.8230607377e-03 2.2213059575e+00 -3.8474147776e+00 2.2213059575e+00 3.8474147776e+00 
29000 4.2528873627e+00 -5.7693478415e-03 2.2214370317e+00 -3.8476418048e+00 2.2214370317e+00 3.8476418048e+00 
29100 4.2528866162e+00 -5.7164577368e-03 2.2215668892e+00 -3.8478667245e+00 2.2215668892e+00 3.8478667245e+00 
29200 4.2528858837e+00 -5.6643674700e-03 2.2216955487e+00 -3.8480895693e+00 2.2216955487e+00 3.8480895693e+00 
29300 4.2528851652e+00 -5.6130535923e-03 2.2218230284e+00 -3.8483103706e+00 2.2218230284e+00 3.8483103706e+00 
29400 4.2528844602e+00 -5.5624922752e-03 2.2219493460e+00 -3.8485291591e+00 2.2219493460e+00 3.8485291591e+00 
29500 4.2528837685e+00 -5.5126594226e-03 2.2220745186e+00 -3.8487459644e+00 2.2220745186e+00 3.8487459644e+00 
29600 4.2528830899e+00 -5.4635307779e-03 2.2221985628e+00 -3.8489608154e+00 2.2221985628e+00 3.8489608154e+00 
29700 4.2528824240e+00 -5.4150820266e-03 2.2223214947e+00 -3.8491737396e+00 2.2223214947e+00 3.8491737396e+00 
29800 4.2528817705e+00 -5.3672888945e-03 2.2224433297e+00 -3.8493847641e+00 2.2224433297e+00 3.8493847641e+00 
29900 4.2528811293e+00 -5.3201272402e-03 2.2225640828e+00 -3.8495939145e+00 2.2225640828e+00 3.8495939145e+00 
30000 4.2528804999e+00 -5.2735731430e-03 2.2226837683e+00 -3.8498012159e+00 2.2226837683e+00 3.8498012159e+00 
30100 4.2528798823e+00 -5.2276029849e-03 2.2228024002e+00 -3.8500066923e+00 2.2228024002e+00 3.8500066923e+00 
30200 4.2528792761e+00 -5.1821935276e-03 2.2229199916e+00 -3.8502103666e+00 2.2229199916e+00 3.8502103666e+00 
30300 4.2528786811e+00 -5.1373219835e-03 2.2230365553e+00 -3.8504122609e+00 2.2230365553e+00 3.8504122609e+00 
30400 4.2528780970e+00 -5.0929660811e-03 2.2231521037e+00 -3.8506123966e+00 2.2231521037e+00 3.8506123966e+00 
30500 4.2528775236e+00 -5.0491041258e-03 2.2232666485e+00 -3.8508107940e+00 2.2232666485e+00 3.8508107940e+00 
30600 4.2528769608e+00 -5.0057150533e-03 2.2233802010e+00 -3.8510074726e+00 2.2233802010e+00 3.8510074726e+00 
30700 4.2528764082e+00 -4.9627784792e-03 2.2234927719e+00 -3.8512024511e+00 2.2234927719e+00 3.8512024511e+00 
30800 4.2528758657e+00 -4.9202747419e-03 2.2236043715e+00 -3.8513957474e+00 2.2236043715e+00 3.8513957474e+00 
30900 4.2528753331e+00 -4.8781849406e-03 2.2237150098e+00 -3.8515873785e+00 2.2237150098e+00 3.8515873785e+00 
31000 4.2528748102e+00 -4.8364909677e-03 2.2238246962e+00 -3.8517773609e+00 2.2238246962e+00 3.8517773609e+00 
31100 4.2528742967e+00 -4.7951755366e-03 2.2239334397e+00 -3.8519657102e+00 2.2239334397e+00 3.8519657102e+00 
31200 4.2528737926e+00 -4.7542222035e-03 2.2240412490e+00 -3.8521524414e+00 2.2240412490e+00 3.8521524414e+00 
31300 4.2528732977e+00 -4.7136153847e-03 2.2241481323e+00 -3.8523375688e+00 2.2241481323e+00 3.8523375688e+00 
31400 4.2528728117e+00 -4.6733403699e-03 2.2242540977e+00 -3.8525211062e+00 2.2242540977e+00 3.8525211062e+00 
31500 4.2528723345e+00 -4.6333833296e-03 2.2243591526e+00 -3.8527030666e+00 2.2243591526e+00 3.8527030666e+00 
31600 4.2528718660e+00 -4.5937313190e-03 2.2244633044e+00 -3.8528834628e+00 2.2244633044e+00 3.8528834628e+00 
31700 4.2528714060e+00 -4.5543722777e-03 2.2245665600e+00 -3.8530623068e+00 2.2245665600e+00 3.8530623068e+00 
31800 4.2528709544e+00 -4.5152950254e-03 2.2246689262e+00 -3.8532396102e+00 2.2246689262e+00 3.8532396102e+00 
31900 4.2528705110e+00 -4.4764892534e-03 2.2247704094e+00 -3.8534153842e+00 2.2247704094e+00 3.8534153842e+00 
32000 4.2528700756e+00 -4.4379455134e-03 2.2248710158e+00 -3.8535896396e+00 2.2248710158e+00 3.8535896396e+00 
32100 4.2528696483e+00 -4.3996552026e-03 2.2249707514e+00 -3.8537623868e+00 2.2249707514e+00 3.8537623868e+00 
32200 4.2528692287e+00 -4.3616105456e-03 2.2250696221e+00 -3.8539336359e+00 2.2250696221e+00 3.8539336359e+00 
32300 4.2528688168e+00 -4.3238045740e-03 2.2251676335e+00 -3.8541033966e+00 2.2251676335e+00 3.8541033966e+00 
32400 4.2528684124e+00 -4.2862311034e-03 2.2252647910e+00 -3.8542716783e+00 2.2252647910e+00 3.8542716783e+00 
32500 4.2528680155e+00 -4.2488847075e-03 2.2253611001e+00 -3.8544384905e+00 2.2253611001e+00 3.8544384905e+00 
32600 4.2528676258e+00 -4.2117606905e-03 2.2254565658e+00 -3.8546038420e+00 2.2254565658e+00 3.8546038420e+00 
32700 4.2528672434e+00 -4.1748550584e-03 2.2255511934e+00 -3.8547677417e+00 2.2255511934e+00 3.8547677417e+00 
32800 4.2528668680e+00 -4.1381644872e-03 2.2256449878e+00 -3.8549301984e+00 2.2256449878e+00 3.8549301984e+00 
32900 4.2528664995e+00 -4.1016862908e-03 2.2257379539e+00 -3.8550912205e+00 2.2257379539e+00 3.8550912205e+00 
33000 4.2528661378e+00 -4.0654183878e-03 2.2258300967e+00 -3.8552508165e+00 2.2258300967e+00 3.8552508165e+00 
33100 4.2528657828e+00 -4.0293592665e-03 2.2259214210e+00 -3.8554089948e+00 2.2259214210e+00 3.8554089948e+00 
33200 4.2528654344e+00 -3.9935079499e-03 2.2260119315e+00 -3.8555657636e+00 2.2260119315e+00 3.8555657636e+00 
33300 4.2528650925e+00 -3.9578639599e-03 2.2261016331e+00 -3.8557211313e+00 2.2261016331e+00 3.8557211313e+00 
33400 4.2528647569e+00 -3.9224272815e-03 2.2261905304e+00 -3.8558751060e+00 2.2261905304e+00 3.8558751060e+00 
33500 4.2528644275e+00 -3.8871983259e-03 2.2262786283e+00 -3.8560276960e+00 2.2262786283e+00 3.8560276960e+00 
33600 4.2528641043e+00 -3.8521778947e-03 2.2263659315e+00 -3.8561789095e+00 2.2263659315e+00 3.8561789095e+00 
33700 4.2528637870e+00 -3.8173671440e-03 2.2264524447e+00 -3.8563287549e+00 2.2264524447e+00 3.8563287549e+00 
33800 4.2528634757e+00 -3.7827675480e-03 2.2265381728e+00 -3.8564772403e+00 2.2265381728e+00 3.8564772403e+00 
33900 4.2528631702e+00 -3.7483808644e-03 2.2266231207e+00 -3.8566243743e+00 2.2266231207e+00 3.8566243743e+00 
34000 4.2528628703e+00 -3.7142090994e-03 2.2267072931e+00 -3.8567701652e+00 2.2267072931e+00 3.8567701652e+00 
34100 4.2528625761e+00 -3.6802544743e-03 2.2267906950e+00 -3.8569146215e+00 2.2267906950e+00 3.8569146215e+00 
34200 4.2528622873e+00 -3.6465193916e-03 2.2268733313e+00 -3.8570577518e+00 2.2268733313e+00 3.8570577518e+00 
34300 4.2528620039e+00 -3.6130064040e-03 2.2269552071e+00 -3.8571995649e+00 2.2269552071e+00 3.8571995649e+00 
34400 4.2528617257e+00 -3.5797181828e-03 2.2270363275e+00 -3.8573400695e+00 2.2270363275e+00 3.8573400695e+00 
34500 4.2528614528e+00 -3.5466574881e-03 2.2271166975e+00 -3.8574792745e+00 2.2271166975e+00 3.8574792745e+00 
34600 4.2528611849e+00 -3.5138271407e-03 2.2271963224e+00 -3.8576171889e+00 2.2271963224e+00 3.8576171889e+00 
34700 4.2528609220e+00 -3.4812299944e-03 2.2272752074e+00 -3.8577538217e+00 2.2272752074e+00 3.8577538217e+00 
34800 4.2528606640e+00 -3.4488689101e-03 2.2273533579e+00 -3.8578891822e+00 2.2273533579e+00 3.8578891822e+00 
34900 4.2528604108e+00 -3.4167467316e-03 2.2274307791e+00 -3.8580232797e+00 2.2274307791e+00 3.8580232797e+00 
35000 4.2528601622e+00 -3.3848662624e-03 2.2275074766e+00 -3.8581561237e+00 2.2275074766e+00 3.8581561237e+00 
35100 4.2528599183e+00 -3.3532302442e-03 2.2275834558e+00 -3.8582877235e+00 2.2275834558e+00 3.8582877235e+00 
35200 4.2528596790e+00 -3.3218413367e-03 2.2276587223e+00 -3.8584180890e+00 2.2276587223e+00 3.8584180890e+00 
35300 4.2528594441e+00 -3.2907020991e-03 2.2277332817e+00 -3.8585472297e+00 2.2277332817e+00 3.8585472297e+00 
35400 4.2528592135e+00 -3.2598149732e-03 2.2278071398e+00 -3.8586751556e+00 2.2278071398e+00 3.8586751556e+00 
35500 4.2528589872e+00 -3.2291822677e-03 2.2278803022e+00 -3.8588018765e+00 2.2278803022e+00 3.8588018765e+00 
35600 4.2528587651e+00 -3.1988061446e-03 2.2279527746e+00 -3.8589274025e+00 2.2279527746e+00 3.8589274025e+00 
35700 4.2528585471e+00 -3.1686886061e-03 2.2280245630e+00 -3.8590517437e+00 2.2280245630e+00 3.8590517437e+00 
35800 4.2528583332e+00 -3.1388314842e-03 2.2280956732e+00 -3.8591749102e+00 2.2280956732e+00 3.8591749102e+00 
35900 4.2528581232e+00 -3.1092364308e-03 2.2281661111e+00 -3.8592969122e+00 2.2281661111e+00 3.8592969122e+00 
36000 4.2528579172e+00 -3.0799049096e-03 2.2282358827e+00 -3.8594177601e+00 2.2282358827e+00 3.8594177601e+00 
36100 4.2528577149e+00 -3.0508381894e-03 2.2283049939e+00 -3.8595374642e+00 2.2283049939e+00 3.8595374642e+00 
36200 4.2528575164e+00 -3.0220373388e-03 2.2283734507e+00 -3.8596560349e+00 2.2283734507e+00 3.8596560349e+00 
36300 4.2528573216e+00 -2.9935032217e-03 2.2284412592e+00 -3.8597734826e+00 2.2284412592e+00 3.8597734826e+00 
36400 4.2528571304e+00 -2.9652364948e-03 2.2285084254e+00 -3.8598898179e+00 2.2285084254e+00 3.8598898179e+00 
36500 4.2528569427e+00 -2.9372376058e-03 2.2285749554e+00 -3.8600050511e+00 2.2285749554e+00 3.8600050511e+00 
36600 4.2528567585e+00 -2.9095067929e-03 2.2286408551e+00 -3.8601191929e+00 2.2286408551e+00 3.8601191929e+00 
36700 4.2528565778e+00 -2.8820440852e-03 2.2287061308e+00 -3.8602322537e+00 2.2287061308e+00 3.8602322537e+00 
36800 4.2528564004e+00 -2.8548493044e-03 2.2287707885e+00 -3.8603442440e+00 2.2287707885e+00 3.8603442440e+00 
36900 4.2528562263e+00 -2.8279220673e-03 2.2288348341e+00 -3.8604551744e+00 2.2288348341e+00 3.8604551744e+00 
37000 4.2528560554e+00 -2.8012617891e-03 2.2288982739e+00 -3.8605650553e+00 2.2288982739e+00 3.8605650553e+00 
37100 4.2528558877e+00 -2.7748676879e-03 2.2289611138e+00 -3.8606738972e+00 2.2289611138e+00 3.8606738972e+00 
37200 4.2528557231e+00 -2.7487387895e-03 2.2290233599e+00 -3.8607817106e+00 2.2290233599e+00 3.8607817106e+00 
37300 4.2528555616e+00 -2.7228739332e-03 2.2290850181e+00 -3.8608885057e+00 2.2290850181e+00 3.8608885057e+00 
37400 4.2528554031e+00 -2.6972717782e-03 2.2291460944e+00 -3.8609942930e+00 2.2291460944e+00 3.8609942930e+00 
37500 4.2528552475e+00 -2.6719308106e-03 2.2292065948e+00 -3.8610990827e+00 2.2292065948e+00 3.8610990827e+00 
37600 4.2528550948e+00 -2.6468493508e-03 2.2292665251e+00 -3.8612028852e+00 2.2292665251e+00 3.8612028852e+00 
37700 4.2528549450e+00 -2.6220255612e-03 2.2293258913e+00 -3.8613057104e+00 2.2293258913e+00 3.8613057104e+00 
37800 4.2528547979e+00 -2.5974574552e-03 2.2293846992e+00 -3.8614075686e+00 2.2293846992e+00 3.8614075686e+00 
37900 4.2528546536e+00 -2.5731429050e-03 2.2294429545e+00 -3.8615084697e+00 2.2294429545e+00 3.8615084697e+00 
38000 4.2528545120e+00 -2.5490796511e-03 2.2295006629e+00 -3.8616084237e+00 2.2295006629e+00 3.8616084237e+00 
38100 4.2528543731e+00 -2.5252653112e-03 2.2295578302e+00 -3.8617074403e+00 2.2295578302e+00 3.8617074403e+00 
38200 4.2528542367e+00 -2.5016973897e-03 2.2296144620e+00 -3.8618055294e+00 2.2296144620e+00 3.8618055294e+00 
38300 4.2528541028e+00 -2.4783732867e-03 2.2296705638e+00 -3.8619027006e+00 2.2296705638e+00 3.8619027006e+00 
38400 4.2528539715e+00 -2.4552903081e-03 2.2297261411e+00 -3.8619989634e+00 2.2297261411e+00 3.8619989634e+00 
38500 4.2528538426e+00 -2.4324456744e-03 2.2297811995e+00 -3.8620943272e+00 2.2297811995e+00 3.8620943272e+00 
38600 4.2528537161e+00 -2.4098365307e-03 2.2298357442e+00 -3.8621888015e+00 2.2298357442e+00 3.8621888015e+00 
38700 4.2528535920e+00 -2.3874599559e-03 2.2298897806e+00 -3.8622823953e+00 2.2298897806e+00 3.8622823953e+00 
38800 4.2528534702e+00 -2.3653129717e-03 2.2299433139e+00 -3.8623751177e+00 2.2299433139e+00 3.8623751177e+00 
38900 4.2528533507e+00 -2.3433925521e-03 2.2299963494e+00 -3.8624669779e+00 2.2299963494e+00 3.8624669779e+00 
39000 4.2528532334e+00 -2.3216956324e-03 2.2300488921e+00 -3.8625579846e+00 2.2300488921e+00 3.8625579846e+00 
39100 4.2528531183e+00 -2.3002191172e-03 2.2301009472e+00 -3.8626481465e+00 2.2301009472e+00 3.8626481465e+00 
39200 4.2528530053e+00 -2.2789598897e-03 2.2301525195e+00 -3.8627374723e+00 2.2301525195e+00 3.8627374723e+00 
39300 4.2528528944e+00 -2.2579148195e-03 2.2302036139e+00 -3.8628259705e+00 2.2302036139e+00 3.8628259705e+00 
39400 4.2528527857e+00 -2.2370807702e-03 2.2302542354e+00 -3.8629136495e+00 2.2302542354e+00 3.8629136495e+00 
39500 4.2528526789e+00 -2.2164546075e-03 2.2303043886e+00 -3.8630005174e+00 2.2303043886e+00 3.8630005174e+00 
39600 4.2528525742e+00 -2.1960332061e-03 2.2303540783e+00 -3.8630865825e+00 2.2303540783e+00 3.8630865825e+00 
39700 4.2528524713e+00 -2.1758134565e-03 2.2304033091e+00 -3.8631718527e+00 2.2304033091e+00 3.8631718527e+00 
39800 4.2528523705e+00 -2.1557922718e-03 2.2304520855e+00 -3.8632563359e+00 2.2304520855e+00 3.8632563359e+00 
39900 4.2528522715e+00 -2.1359665934e-03 2.2305004120e+00 -3.8633400399e+00 2.2305004120e+00 3.8633400399e+00 
40000 4.2528521743e+00 -2.1163333969e-03 2.2305482931e+00 -3.8634229723e+00 2.2305482931e+00 3.8634229723e+00 
40100 4.2528520790e+00 -2.0968896977e-03 2.2305957330e+00 -3.8635051407e+00 2.2305957330e+00 3.8635051407e+00 
40200 4.2528519854e+00 -2.0776325553e-03 2.2306427361e+00 -3.8635865524e+00 2.2306427361e+00 3.8635865524e+00 
40300 4.2528518936e+00 -2.0585590782e-03 2.2306893065e+00 -3.8636672147e+00 2.2306893065e+00 3.8636672147e+00 
40400 4.2528518035e+00 -2.0396664282e-03 2.2307354484e+00 -3.8637471349e+00 2.2307354484e+00 3.8637471349e+00 
40500 4.2528517151e+00 -2.0209518234e-03 2.2307811659e+00 -3.8638263200e+00 2.2307811659e+00 3.8638263200e+00 
40600 4.2528516283e+00 -2.0024125424e-03 2.2308264630e+00 -3.8639047769e+00 2.2308264630e+00 3.8639047769e+00 
40700 4.2528515431e+00 -1.9840459265e-03 2.2308713437e+00 -3.8639825124e+00 2.2308713437e+00 3.8639825124e+00 
40800 4.2528514596e+00 -1.9658493823e-03 2.2309158118e+00 -3.8640595335e+00 2.2309158118e+00 3.8640595335e+00 
40900 4.2528513776e+00 -1.9478203842e-03 2.2309598712e+00 -3.8641358466e+00 2.2309598712e+00 3.8641358466e+00 
41000 4.2528512971e+00 -1.9299564760e-03 2.2310035257e+00 -3.8642114583e+00 2.2310035257e+00 3.8642114583e+00 
41100 4.2528512181e+00 -1.9122552721e-03 2.2310467789e+00 -3.8642863751e+00 2.2310467789e+00 3.8642863751e+00 
41200 4.2528511406e+00 -1.8947144587e-03 2.2310896346e+00 -3.8643606034e+00 2.2310896346e+00 3.8643606034e+00 
41300 4.2528510646e+00 -1.8773317946e-03 2.2311320964e+00 -3.8644341493e+00 2.2311320964e+00 3.8644341493e+00 
41400 4.2528509899e+00 -1.8601051116e-03 2.2311741678e+00 -3.8645070191e+00 2.2311741678e+00 3.8645070191e+00 
41500 4.2528509167e+00 -1.8430323143e-03 2.2312158524e+00 -3.8645792189e+00 2.2312158524e+00 3.8645792189e+00 
41600 4.2528508448e+00 -1.8261113802e-03 2.2312571536e+00 -3.8646507547e+00 2.2312571536e+00 3.8646507547e+00 
41700 4.2528507743e+00 -1.8093403593e-03 2.2312980748e+00 -3.8647216324e+00 2.2312980748e+00 3.8647216324e+00 
41800 4.2528507051e+00 -1.7927173731e-03 2.2313386195e+00 -3.8647918579e+00 2.2313386195e+00 3.8647918579e+00 
41900 4.2528506371e+00 -1.7762406135e-03 2.2313787910e+00 -3.8648614369e+00 2.2313787910e+00 3.8648614369e+00 
42000 4.2528505705e+00 -1.7599083421e-03 2.2314185925e+00 -3.8649303752e+00 2.2314185925e+00 3.8649303752e+00 
42100 4.2528505051e+00 -1.7437188885e-03 2.2314580274e+00 -3.8649986783e+00 2.2314580274e+00 3.8649986783e+00 
42200 4.2528504409e+00 -1.7276706486e-03 2.2314970988e+00 -3.8650663520e+00 2.2314970988e+00 3.8650663520e+00 
42300 4.2528503779e+00 -1.7117620827e-03 2.2315358099e+00 -3.8651334017e+00 2.2315358099e+00 3.8651334017e+00 
42400 4.2528503161e+00 -1.6959917142e-03 2.2315741639e+00 -3.8651998328e+00 2.2315741639e+00 3.8651998328e+00 
42500 4.2528502554e+00 -1.6803581267e-03 2.2316121639e+00 -3.8652656507e+00 2.2316121639e+00 3.8652656507e+00 
42600 4.2528501959e+00 -1.6648599625e-03 2.2316498130e+00 -3.8653308608e+00 2.2316498130e+00 3.8653308608e+00 
42700 4.2528501375e+00 -1.6494959196e-03 2.2316871142e+00 -3.8653954684e+00 2.2316871142e+00 3.8653954684e+00 
42800 4.2528500802e+00 -1.6342647500e-03 2.2317240706e+00 -3.8654594787e+00 2.2317240706e+00 3.8654594787e+00 
42900 4.2528500239e+00 -1.6191652567e-03 2.2317606851e+00 -3.8655228969e+00 2.2317606851e+00 3.8655228969e+00 
43000 4.2528499687e+00 -1.6041962913e-03 2.2317969607e+00 -3.8655857281e+00 2.2317969607e+00 3.8655857281e+00 
43100 4.2528499146e+00 -1.5893567515e-03 2.2318329003e+00 -3.8656479774e+00 2.2318329003e+00 3.8656479774e+00 
43200 4.2528498614e+00 -1.5746455785e-03 2.2318685070e+00 -3.8657096499e+00 2.2318685070e+00 3.8657096499e+00 
43300 4.2528498093e+00 -1.5600617541e-03 2.2319037834e+00 -3.8657707505e+00 2.2319037834e+00 3.8657707505e+00 
43400 4.2528497581e+00 -1.5456042982e-03 2.2319387327e+00 -3.8658312844e+00 2.2319387327e+00 3.8658312844e+00 
43500 4.2528497079e+00 -1.5312722665e-03 2.2319733575e+00 -3.8658912563e+00 2.2319733575e+00 3.8658912563e+00 
43600 4.2528496586e+00 -1.5170647471e-03 2.2320076606e+00 -3.8659506711e+00 2.2320076606e+00 3.8659506711e+00 
43700 4.2528496102e+00 -1.5029808588e-03 2.2320416450e+00 -3.8660095338e+00 2.2320416450e+00 3.8660095338e+00 
43800 4.2528495627e+00 -1.4890197479e-03 2.2320753134e+00 -3.8660678492e+00 2.2320753134e+00 3.8660678492e+00 
43900 4.2528495162e+00 -1.4751805858e-03 2.2321086686e+00 -3.8661256220e+00 2.2321086686e+00 3.8661256220e+00 
44000 4.2528494705e+00 -1.4614625668e-03 2.2321417132e+00 -3.8661828569e+00 2.2321417132e+00 3.8661828569e+00 
44100 4.2528494256e+00 -1.4478649056e-03 2.2321744501e+00 -3.8662395588e+00 2.2321744501e+00 3.8662395588e+00 
44200 4.2528493816e+00 -1.4343868348e-03 2.2322068818e+00 -3.8662957324e+00 2.2322068818e+00 3.8662957324e+00 
44300 4.2528493384e+00 -1.4210276031e-03 2.2322390113e+00 -3.8663513822e+00 2.2322390113e+00 3.8663513822e+00 
44400 4.2528492961e+00 -1.4077864725e-03 2.2322708410e+00 -3.8664065128e+00 2.2322708410e+00 3.8664065128e+00 
44500 4.2528492545e+00 -1.3946627170e-03 2.2323023737e+00 -3.8664611291e+00 2.2323023737e+00 3.8664611291e+00 
44600 4.2528492137e+00 -1.3816556200e-03 2.2323336120e+00 -3.8665152354e+00 2.2323336120e+00 3.8665152354e+00 
44700 4.2528491736e+00 -1.3687644727e-03 2.2323645585e+00 -3.8665688363e+00 2.2323645585e+00 3.8665688363e+00 
44800 4.2528491343e+00 -1.3559885727e-03 2.2323952158e+00 -3.8666219364e+00 2.2323952158e+00 3.8666219364e+00 
44900 4.2528490958e+00 -1.3433272214e-03 2.2324255866e+00 -3.8666745401e+00 2.2324255866e+00 3.8666745401e+00 
45000 4.2528490579e+00 -1.3307797237e-03 2.2324556734e+00 -3.8667266520e+00 2.2324556734e+00 3.8667266520e+00 
45100 4.2528490208e+00 -1.3183453853e-03 2.2324854787e+00 -3.8667782763e+00 2.2324854787e+00 3.8667782763e+00 
45200 4.2528489844e+00 -1.3060235123e-03 2.2325150052e+00 -3.8668294177e+00 2.2325150052e+00 3.8668294177e+00 
45300 4.2528489486e+00 -1.2938134097e-03 2.2325442553e+00 -3.8668800804e+00 2.2325442553e+00 3.8668800804e+00 
45400 4.2528489136e+00 -1.2817143800e-03 2.2325732316e+00 -3.8669302687e+00 2.2325732316e+00 3.8669302687e+00 
45500 4.2528488791e+00 -1.2697257225e-03 2.2326019365e+00 -3.8669799871e+00 2.2326019365e+00 3.8669799871e+00 
45600 4.2528488454e+00 -1.2578467325e-03 2.2326303726e+00 -3.8670292399e+00 2.2326303726e+00 3.8670292399e+00 
45700 4.2528488122e+00 -1.2460767000e-03 2.2326585423e+00 -3.8670780312e+00 2.2326585423e+00 3.8670780312e+00 
45800 4.2528487797e+00 -1.2344149096e-03 2.2326864480e+00 -3.8671263653e+00 2.2326864480e+00 3.8671263653e+00 
45900 4.2528487478e+00 -1.2228606395e-03 2.2327140922e+00 -3.8671742465e+00 2.2327140922e+00 3.8671742465e+00 
46000 4.2528487164e+00 -1.2114131613e-03 2.2327414773e+00 -3.8672216789e+00 2.2327414773e+00 3.8672216789e+00 
46100 4.2528486857e+00 -1.2000717392e-03 2.2327686058e+00 -3.8672686668e+00 2.2327686058e+00 3.8672686668e+00 
46200 4.2528486556e+00 -1.1888356302e-03 2.2327954799e+00 -3.8673152141e+00 2.2327954799e+00 3.8673152141e+00 
46300 4.2528486260e+00 -1.1777040834e-03 2.2328221021e+00 -3.8673613251e+00 2.2328221021e+00 3.8673613251e+00 
46400 4.2528485969e+00 -1.1666763402e-03 2.2328484747e+00 -3.8674070038e+00 2.2328484747e+00 3.8674070038e+00 
46500 4.2528485684e+00 -1.1557516340e-03 2.2328746000e+00 -3.8674522542e+00 2.2328746000e+00 3.8674522542e+00 
46600 4.2528485405e+00 -1.1449291904e-03 2.2329004804e+00 -3.8674970804e+00 2.2329004804e+00 3.8674970804e+00 
46700 4.2528485130e+00 -1.1342082273e-03 2.2329261182e+00 -3.8675414863e+00 2.2329261182e+00 3.8675414863e+00 
46800 4.2528484861e+00 -1.1235879548e-03 2.2329515156e+00 -3.8675854759e+00 2.2329515156e+00 3.8675854759e+00 
46900 4.2528484597e+00 -1.1130675757e-03 2.2329766749e+00 -3.8676290530e+00 2.2329766749e+00 3.8676290530e+00 
47000 4.2528484338e+00 -1.1026462855e-03 2.2330015983e+00 -3.8676722217e+00 2.2330015983e+00 3.8676722217e+00 
47100 4.2528484083e+00 -1.0923232730e-03 2.2330262882e+00 -3.8677149858e+00 2.2330262882e+00 3.8677149858e+00 
47200 4.2528483834e+00 -1.0820977207e-03 2.2330507466e+00 -3.8677573490e+00 2.2330507466e+00 3.8677573490e+00 
47300 4.2528483589e+00 -1.0719688047e-03 2.2330749758e+00 -3.8677993151e+00 2.2330749758e+00 3.8677993151e+00 
47400 4.2528483349e+00 -1.0619356959e-03 2.2330989779e+00 -3.8678408880e+00 2.2330989779e+00 3.8678408880e+00 
47500 4.2528483113e+00 -1.0519975599e-03 2.2331227551e+00 -3.8678820714e+00 2.2331227551e+00 3.8678820714e+00 
47600 4.2528482881e+00 -1.0421535579e-03 2.2331463095e+00 -3.8679228689e+00 2.2331463095e+00 3.8679228689e+00 
47700 4.2528482654e+00 -1.0324028468e-03 2.2331696433e+00 -3.8679632842e+00 2.2331696433e+00 3.8679632842e+00 
47800 4.2528482431e+00 -1.0227445805e-03 2.2331927586e+00 -3.8680033209e+00 2.2331927586e+00 3.8680033209e+00 
47900 4.2528482213e+00 -1.0131779097e-03 2.2332156573e+00 -3.8680429827e+00 2.2332156573e+00 3.8680429827e+00 
48000 4.2528481998e+00 -1.0037019830e-03 2.2332383416e+00 -3.8680822731e+00 2.2332383416e+00 3.8680822731e+00 
48100 4.2528481788e+00 -9.9431594733e-04 2.2332608136e+00 -3.8681211956e+00 2.2332608136e+00 3.8681211956e+00 
48200 4.2528481581e+00 -9.8501894866e-04 2.2332830751e+00 -3.8681597538e+00 2.2332830751e+00 3.8681597538e+00 
48300 4.2528481379e+00 -9.7581013254e-04 2.2333051283e+00 -3.8681979511e+00 2.2333051283e+00 3.8681979511e+00 
48400 4.2528481180e+00 -9.6668864474e-04 2.2333269751e+00 -3.8682357908e+00 2.2333269751e+00 3.8682357908e+00 
48500 4.2528480985e+00 -9.5765363189e-04 2.2333486175e+00 -3.8682732765e+00 2.2333486175e+00 3.8682732765e+00 
48600 4.2528480793e+00 -9.4870424209e-04 2.2333700574e+00 -3.8683104115e+00 2.2333700574e+00 3.8683104115e+00 
48700 4.2528480605e+00 -9.3983962551e-04 2.2333912967e+00 -3.8683471991e+00 2.2333912967e+00 3.8683471991e+00 
48800 4.2528480421e+00 -9.3105893496e-04 2.2334123374e+00 -3.8683836426e+00 2.2334123374e+00 3.8683836426e+00 
48900 4.2528480240e+00 -9.2236132649e-04 2.2334331813e+00 -3.8684197453e+00 2.2334331813e+00 3.8684197453e+00 
49000 4.2528480062e+00 -9.1374595995e-04 2.2334538303e+00 -3.8684555104e+00 2.2334538303e+00 3.8684555104e+00 
49100 4.2528479888e+00 -9.0521199952e-04 2.2334742862e+00 -3.8684909411e+00 2.2334742862e+00 3.8684909411e+00 
49200 4.2528479717e+00 -8.9675861425e-04 2.2334945509e+00 -3.8685260406e+00 2.2334945509e+00 3.8685260406e+00 
49300 4.2528479549e+00 -8.8838497852e-04 2.2335146262e+00 -3.8685608120e+00 2.2335146262e+00 3.8685608120e+00 
49400 4.2528479385e+00 -8.8009027259e-04 2.2335345138e+00 -3.8685952584e+00 2.2335345138e+00 3.8685952584e+00 
49500 4.2528479223e+00 -8.7187368295e-04 2.2335542156e+00 -3.8686293828e+00 2.2335542156e+00 3.8686293828e+00 
49600 4.2528479065e+00 -8.6373440285e-04 2.2335737332e+00 -3.8686631884e+00 2.2335737332e+00 3.8686631884e+00 
49700 4.2528478910e+00 -8.5567163264e-04 2.2335930685e+00 -3.8686966781e+00 2.2335930685e+00 3.8686966781e+00 
49800 4.2528478757e+00 -8.4768458014e-04 2.2336122231e+00 -3.8687298549e+00 2.2336122231e+00 3.8687298549e+00 
49900 4.2528478607e+00 -8.3977246102e-04 2.2336311988e+00 -3.8687627217e+00 2.2336311988e+00 3.8687627217e+00 
50000 4.2528478460e+00 -8.3193449909e-04 2.2336499972e+00 -3.8687952815e+00 2.2336499972e+00 3.8687952815e+00 
50100 4.2528478316e+00 -8.2416992661e-04 2.2336686200e+00 -3.8688275371e+00 2.2336686200e+00 3.8688275371e+00 
50200 4.2528478175e+00 -8.1647798452e-04 2.2336870688e+00 -3.8688594914e+00 2.2336870688e+00 3.8688594914e+00 
50300 4.2528478036e+00 -8.0885792270e-04 2.2337053453e+00 -3.8688911472e+00 2.2337053453e+00 3.8688911472e+00 
50400 4.2528477900e+00 -8.0130900018e-04 2.2337234511e+00 -3.8689225073e+00 2.2337234511e+00 3.8689225073e+00 
50500 4.2528477766e+00 -7.9383048526e-04 2.2337413877e+00 -3.8689535745e+00 2.2337413877e+00 3.8689535745e+00 
50600 4.2528477635e+00 -7.8642165573e-04 2.2337591568e+00 -3.8689843515e+00 2.2337591568e+00 3.8689843515e+00 
50700 4.2528477506e+00 -7.7908179894e-04 2.2337767599e+00 -3.8690148410e+00 2.2337767599e+00 3.8690148410e+00 
50800 4.2528477380e+00 -7.7181021195e-04 2.2337941986e+00 -3.8690450457e+00 2.2337941986e+00 3.8690450457e+00 
50900 4.2528477256e+00 -7.6460620151e-04 2.2338114744e+00 -3.8690749682e+00 2.2338114744e+00 3.8690749682e+00 
51000 4.2528477135e+00 -7.5746908421e-04 2.2338285888e+00 -3.8691046113e+00 2.2338285888e+00 3.8691046113e+00 
51100 4.2528477016e+00 -7.5039818641e-04 2.2338455434e+00 -3.8691339774e+00 2.2338455434e+00 3.8691339774e+00 
51200 4.2528476899e+00 -7.4339284430e-04 2.2338623395e+00 -3.8691630691e+00 2.2338623395e+00 3.8691630691e+00 
51300 4.2528476784e+00 -7.3645240384e-04 2.2338789787e+00 -3.8691918890e+00 2.2338789787e+00 3.8691918890e+00 
51400 4.2528476671e+00 -7.2957622074e-04 2.2338954624e+00 -3.8692204397e+00 2.2338954624e+00 3.8692204397e+00 
51500 4.2528476561e+00 -7.2276366037e-04 2.2339117921e+00 -3.8692487236e+00 2.2339117921e+00 3.8692487236e+00 
51600 4.2528476452e+00 -7.1601409770e-04 2.2339279692e+00 -3.8692767432e+00 2.2339279692e+00 3.8692767432e+00 
51700 4.2528476346e+00 -7.0932691718e-04 2.2339439952e+00 -3.8693045009e+00 2.2339439952e+00 3.8693045009e+00 
51800 4.2528476241e+00 -7.0270151263e-04 2.2339598713e+00 -3.8693319991e+00 2.2339598713e+00 3.8693319991e+00 
51900 4.2528476139e+00 -6.9613728711e-04 2.2339755990e+00 -3.8693592404e+00 2.2339755990e+00 3.8693592404e+00 
52000 4.2528476038e+00 -6.8963365278e-04 2.2339911797e+00 -3.8693862269e+00 2.2339911797e+00 3.8693862269e+00 
52100 4.2528475940e+00 -6.8319003071e-04 2.2340066147e+00 -3.8694129612e+00 2.2340066147e+00 3.8694129612e+00 
52200 4.2528475843e+00 -6.7680585076e-04 2.2340219055e+00 -3.8694394455e+00 2.2340219055e+00 3.8694394455e+00 
52300 4.2528475748e+00 -6.7048055134e-04 2.2340370532e+00 -3.8694656821e+00 2.2340370532e+00 3.8694656821e+00 
52400 4.2528475655e+00 -6.6421357927e-04 2.2340520592e+00 -3.8694916733e+00 2.2340520592e+00 3.8694916733e+00 
52500 4.2528475563e+00 -6.5800438957e-04 2.2340669249e+00 -3.8695174214e+00 2.2340669249e+00 3.8695174214e+00 
52600 4.2528475473e+00 -6.5185244523e-04 2.2340816515e+00 -3.8695429287e+00 2.2340816515e+00 3.8695429287e+00 
52700 4.2528475385e+00 -6.4575721701e-04 2.2340962404e+00 -3.8695681973e+00 2.2340962404e+00 3.8695681973e+00 
52800 4.2528475299e+00 -6.3971818327e-04 2.2341106927e+00 -3.8695932295e+00 2.2341106927e+00 3.8695932295e+00 
52900 4.2528475214e+00 -6.3373482967e-04 2.2341250098e+00 -3.8696180274e+00 2.2341250098e+00 3.8696180274e+00 
53000 4.2528475131e+00 -6.2780664904e-04 2.2341391929e+00 -3.8696425932e+00 2.2341391929e+00 3.8696425932e+00 
53100 4.2528475049e+00 -6.2193314107e-04 2.2341532432e+00 -3.8696669291e+00 2.2341532432e+00 3.8696669291e+00 
53200 4.2528474969e+00 -6.1611381215e-04 2.2341671619e+00 -3.8696910371e+00 2.2341671619e+00 3.8696910371e+00 
53300 4.2528474891e+00 -6.1034817513e-04 2.2341809504e+00 -3.8697149194e+00 2.2341809504e+00 3.8697149194e+00 
53400 4.2528474814e+00 -6.0463574908e-04 2.2341946097e+00 -3.8697385781e+00 2.2341946097e+00 3.8697385781e+00 
53500 4.2528474738e+00 -5.9897605911e-04 2.2342081412e+00 -3.8697620152e+00 2.2342081412e+00 3.8697620152e+00 
53600 4.2528474664e+00 -5.9336863611e-04 2.2342215458e+00 -3.8697852328e+00 2.2342215458e+00 3.8697852328e+00 
53700 4.2528474591e+00 -5.8781301657e-04 2.2342348249e+00 -3.8698082328e+00 2.2342348249e+00 3.8698082328e+00 
53800 4.2528474520e+00 -5.8230874235e-04 2.2342479796e+00 -3.8698310174e+00 2.2342479796e+00 3.8698310174e+00 
53900 4.2528474449e+00 -5.7685536049e-04 2.2342610111e+00 -3.8698535886e+00 2.2342610111e+00 3.8698535886e+00 
54000 4.2528474381e+00 -5.7145242299e-04 2.2342739204e+00 -3.8698759482e+00 2.2342739204e+00 3.8698759482e+00 
54100 4.2528474313e+00 -5.6609948667e-04 2.2342867087e+00 -3.8698980982e+00 2.2342867087e+00 3.8698980982e+00 
54200 4.2528474247e+00 -5.6079611291e-04 2.2342993772e+00 -3.8699200407e+00 2.2342993772e+00 3.8699200407e+00 
54300 4.2528474182e+00 -5.5554186752e-04 2.2343119269e+00 -3.8699417774e+00 2.2343119269e+00 3.8699417774e+00 
54400 4.2528474118e+00 -5.5033632054e-04 2.2343243590e+00 -3.8699633104e+00 2.2343243590e+00 3.8699633104e+00 
54500 4.2528474056e+00 -5.4517904611e-04 2.2343366745e+00 -3.8699846415e+00 2.2343366745e+00 3.8699846415e+00 
54600 4.2528473994e+00 -5.4006962226e-04 2.2343488745e+00 -3.8700057725e+00 2.2343488745e+00 3.8700057725e+00 
54700 4.2528473934e+00 -5.3500763079e-04 2.2343609602e+00 -3.8700267055e+00 2.2343609602e+00 3.8700267055e+00 
54800 4.2528473875e+00 -5.2999265713e-04 2.2343729325e+00 -3.8700474421e+00 2.2343729325e+00 3.8700474421e+00 
54900 4.2528473817e+00 -5.2502429019e-04 2.2343847924e+00 -3.8700679842e+00 2.2343847924e+00 3.8700679842e+00 
55000 4.2528473760e+00 -5.2010212224e-04 2.2343965412e+00 -3.8700883336e+00 2.2343965412e+00 3.8700883336e+00 
55100 4.2528473704e+00 -5.1522574879e-04 2.2344081797e+00 -3.8701084922e+00 2.2344081797e+00 3.8701084922e+00 
55200 4.2528473649e+00 -5.1039476847e-04 2.2344197091e+00 -3.8701284616e+00 2.2344197091e+00 3.8701284616e+00 
55300 4.2528473596e+00 -5.0560878293e-04 2.2344311303e+00 -3.8701482437e+00 2.2344311303e+00 3.8701482437e+00 
55400 4.2528473543e+00 -5.0086739677e-04 2.2344424444e+00 -3.8701678402e+00 2.2344424444e+00 3.8701678402e+00 
55500 4.2528473491e+00 -4.9617021739e-04 2.2344536523e+00 -3.8701872529e+00 2.2344536523e+00 3.8701872529e+00 
55600 4.2528473440e+00 -4.9151685497e-04 2.2344647550e+00 -3.8702064834e+00 2.2344647550e+00 3.8702064834e+00 
55700 4.2528473391e+00 -4.8690692239e-04 2.2344757535e+00 -3.8702255334e+00 2.2344757535e+00 3.8702255334e+00 
55800 4.2528473342e+00 -4.8234003511e-04 2.2344866489e+00 -3.8702444047e+00 2.2344866489e+00 3.8702444047e+00 
55900 4.2528473294e+00 -4.7781581118e-04 2.2344974420e+00 -3.8702630989e+00 2.2344974420e+00 3.8702630989e+00 
56000 4.2528473247e+00 -4.7333387115e-04 2.2345081338e+00 -3.8702816176e+00 2.2345081338e+00 3.8702816176e+00 
56100 4.2528473200e+00 -4.6889383802e-04 2.2345187252e+00 -3.8702999626e+00 2.2345187252e+00 3.8702999626e+00 
56200 4.2528473155e+00 -4.6449533724e-04 2.2345292173e+00 -3.8703181353e+00 2.2345292173e+00 3.8703181353e+00 
56300 4.2528473111e+00 -4.6013799661e-04 2.2345396109e+00 -3.8703361376e+00 2.2345396109e+00 3.8703361376e+00 
56400 4.2528473067e+00 -4.5582144633e-04 2.2345499069e+00 -3.8703539708e+00 2.2345499069e+00 3.8703539708e+00 
56500 4.2528473024e+00 -4.5154531893e-04 2.2345601063e+00 -3.8703716367e+00 2.2345601063e+00 3.8703716367e+00 
56600 4.2528472982e+00 -4.4730924923e-04 2.2345702100e+00 -3.8703891368e+00 2.2345702100e+00 3.8703891368e+00 
56700 4.2528472941e+00 -4.4311287442e-04 2.2345802189e+00 -3.8704064727e+00 2.2345802189e+00 3.8704064727e+00 
56800 4.2528472901e+00 -4.3895583394e-04 2.2345901338e+00 -3.8704236458e+00 2.2345901338e+00 3.8704236458e+00 
56900 4.2528472861e+00 -4.3483776956e-04 2.2345999556e+00 -3.8704406577e+00 2.2345999556e+00 3.8704406577e+00 
57000 4.2528472822e+00 -4.3075832534e-04 2.2346096853e+00 -3.8704575100e+00 2.2346096853e+00 3.8704575100e+00 
57100 4.2528472784e+00 -4.2671714764e-04 2.2346193236e+00 -3.8704742041e+00 2.2346193236e+00 3.8704742041e+00 
57200 4.2528472746e+00 -4.2271388513e-04 2.2346288715e+00 -3.8704907415e+00 2.2346288715e+00 3.8704907415e+00 
57300 4.2528472710e+00 -4.1874818882e-04 2.2346383298e+00 -3.8705071237e+00 2.2346383298e+00 3.8705071237e+00 
57400 4.2528472674e+00 -4.1481971201e-04 2.2346476993e+00 -3.8705233521e+00 2.2346476993e+00 3.8705233521e+00 
57500 4.2528472638e+00 -4.1092811039e-04 2.2346569808e+00 -3.8705394283e+00 2.2346569808e+00 3.8705394283e+00 
57600 4.2528472604e+00 -4.0707304198e-04 2.2346661753e+00 -3.8705553535e+00 2.2346661753e+00 3.8705553535e+00 
57700 4.2528472570e+00 -4.0325416720e-04 2.2346752834e+00 -3.8705711293e+00 2.2346752834e+00 3.8705711293e+00 
57800 4.2528472536e+00 -3.9947114887e-04 2.2346843061e+00 -3.8705867570e+00 2.2346843061e+00 3.8705867570e+00 
57900 4.2528472503e+00 -3.9572365221e-04 2.2346932440e+00 -3.8706022380e+00 2.2346932440e+00 3.8706022380e+00 
58000 4.2528472471e+00 -3.9201134489e-04 2.2347020981e+00 -3.8706175738e+00 2.2347020981e+00 3.8706175738e+00 
58100 4.2528472440e+00 -3.8833389706e-04 2.2347108692e+00 -3.8706327656e+00 2.2347108692e+00 3.8706327656e+00 
58200 4.2528472409e+00 -3.8469098132e-04 2.2347195578e+00 -3.8706478148e+00 2.2347195578e+00 3.8706478148e+00 
58300 4.2528472378e+00 -3.8108227280e-04 2.2347281650e+00 -3.8706627229e+00 2.2347281650e+00 3.8706627229e+00 
58400 4.2528472348e+00 -3.7750744915e-04 2.2347366914e+00 -3.8706774910e+00 2.2347366914e+00 3.8706774910e+00 
58500 4.2528472319e+00 -3.7396619057e-04 2.2347451377e+00 -3.8706921205e+00 2.2347451377e+00 3.8706921205e+00 
58600 4.2528472290e+00 -3.7045817982e-04 2.2347535048e+00 -3.8707066127e+00 2.2347535048e+00 3.8707066127e+00 
58700 4.2528472262e+00 -3.6698310226e-04 2.2347617934e+00 -3.8707209690e+00 2.2347617934e+00 3.8707209690e+00 
58800 4.2528472235e+00 -3.6354064585e-04 2.2347700042e+00 -3.8707351905e+00 2.2347700042e+00 3.8707351905e+00 
58900 4.2528472207e+00 -3.6013050118e-04 2.2347781379e+00 -3.8707492785e+00 2.2347781379e+00 3.8707492785e+00 
59000 4.2528472181e+00 -3.5675236148e-04 2.2347861953e+00 -3.8707632344e+00 2.2347861953e+00 3.8707632344e+00 
59100 4.2528472155e+00 -3.5340592264e-04 2.2347941771e+00 -3.8707770593e+00 2.2347941771e+00 3.8707770593e+00 
59200 4.2528472129e+00 -3.5009088321e-04 2.2348020840e+00 -3.8707907544e+00 2.2348020840e+00 3.8707907544e+00 
59300 4.2528472104e+00 -3.4680694445e-04 2.2348099168e+00 -3.8708043211e+00 2.2348099168e+00 3.8708043211e+00 
59400 4.2528472079e+00 -3.4355381028e-04 2.2348176760e+00 -3.8708177604e+00 2.2348176760e+00 3.8708177604e+00 
59500 4.2528472055e+00 -3.4033118736e-04 2.2348253624e+00 -3.8708310737e+00 2.2348253624e+00 3.8708310737e+00 
59600 4.2528472031e+00 -3.3713878503e-04 2.2348329766e+00 -3.8708442620e+00 2.2348329766e+00 3.8708442620e+00 
59700 4.2528472008e+00 -3.3397631537e-04 2.2348405195e+00 -3.8708573265e+00 2.2348405195e+00 3.8708573265e+00 
59800 4.2528471985e+00 -3.3084349316e-04 2.2348479915e+00 -3.8708702685e+00 2.2348479915e+00 3.8708702685e+00 
59900 4.2528471963e+00 -3.2774003593e-04 2.2348553934e+00 -3.8708830890e+00 2.2348553934e+00 3.8708830890e+00 
60000 4.2528471941e+00 -3.2466566390e-04 2.2348627259e+00 -3.8708957892e+00 2.2348627259e+00 3.8708957892e+00 
60100 4.2528471919e+00 -3.2162010004e-04 2.2348699896e+00 -3.8709083702e+00 2.2348699896e+00 3.8709083702e+00 
60200 4.2528471898e+00 -3.1860307001e-04 2.2348771851e+00 -3.8709208332e+00 2.2348771851e+00 3.8709208332e+00 
60300 4.2528471877e+00 -3.1561430222e-04 2.2348843131e+00 -3.8709331792e+00 2.2348843131e+00 3.8709331792e+00 
60400 4.2528471857e+00 -3.1265352774e-04 2.2348913741e+00 -3.8709454094e+00 2.2348913741e+00 3.8709454094e+00 
60500 4.2528471837e+00 -3.0972048037e-04 2.2348983690e+00 -3.8709575248e+00 2.2348983690e+00 3.8709575248e+00 
60600 4.2528471817e+00 -3.0681489659e-04 2.2349052982e+00 -3.8709695265e+00 2.2349052982e+00 3.8709695265e+00 
60700 4.2528471798e+00 -3.0393651552e-04 2.2349121623e+00 -3.8709814156e+00 2.2349121623e+00 3.8709814156e+00 
60800 4.2528471779e+00 -3.0108507898e-04 2.2349189621e+00 -3.8709931931e+00 2.2349189621e+00 3.8709931931e+00 
60900 4.2528471761e+00 -2.9826033142e-04 2.2349256980e+00 -3.8710048601e+00 2.2349256980e+00 3.8710048601e+00 
61000 4.2528471743e+00 -2.9546201990e-04 2.2349323707e+00 -3.8710164176e+00 2.2349323707e+00 3.8710164176e+00 
61100 4.2528471725e+00 -2.9268989411e-04 2.2349389808e+00 -3.8710278666e+00 2.2349389808e+00 3.8710278666e+00 
61200 4.2528471707e+00 -2.8994370631e-04 2.2349455289e+00 -3.8710392081e+00 2.2349455289e+00 3.8710392081e+00 
61300 4.2528471690e+00 -2.8722321133e-04 2.2349520155e+00 -3.8710504433e+00 2.2349520155e+00 3.8710504433e+00 
61400 4.2528471673e+00 -2.8452816655e-04 2.2349584412e+00 -3.8710615729e+00 2.2349584412e+00 3.8710615729e+00 
61500 4.2528471657e+00 -2.8185833186e-04 2.2349648066e+00 -3.8710725981e+00 2.2349648066e+00 3.8710725981e+00 
61600 4.2528471641e+00 -2.7921346965e-04 2.2349711122e+00 -3.8710835198e+00 2.2349711122e+00 3.8710835198e+00 
61700 4.2528471625e+00 -2.7659334479e-04 2.2349773587e+00 -3.8710943390e+00 2.2349773587e+00 3.8710943390e+00 
61800 4.2528471609e+00 -2.7399772456e-04 2.2349835465e+00 -3.8711050567e+00 2.2349835465e+00 3.8711050567e+00 
61900 4.2528471594e+00 -2.7142637870e-04 2.2349896763e+00 -3.8711156737e+00 2.2349896763e+00 3.8711156737e+00 
62000 4.2528471579e+00 -2.6887907931e-04 2.2349957485e+00 -3.8711261911e+00 2.2349957485e+00 3.8711261911e+00 
62100 4.2528471564e+00 -2.6635560084e-04 2.2350017637e+00 -3.8711366098e+00 2.2350017637e+00 3.8711366098e+00 
62200 4.2528471549e+00 -2.6385572010e-04 2.2350077224e+00 -3.8711469306e+00 2.2350077224e+00 3.8711469306e+00 
62300 4.2528471535e+00 -2.6137921618e-04 2.2350136252e+00 -3.8711571545e+00 2.2350136252e+00 3.8711571545e+00 
62400 4.2528471521e+00 -2.5892587043e-04 2.2350194726e+00 -3.8711672825e+00 2.2350194726e+00 3.8711672825e+00 
62500 4.2528471508e+00 -2.5649546647e-04 2.2350252651e+00 -3.8711773153e+00 2.2350252651e+00 3.8711773153e+00 
62600 4.2528471494e+00 -2.5408779011e-04 2.2350310032e+00 -3.8711872540e+00 2.2350310032e+00 3.8711872540e+00 
62700 4.2528471481e+00 -2.5170262934e-04 2.2350366874e+00 -3.8711970994e+00 2.2350366874e+00 3.8711970994e+00 
62800 4.2528471468e+00 -2.4933977429e-04 2.2350423182e+00 -3.8712068523e+00 2.2350423182e+00 3.8712068523e+00 
62900 4.2528471456e+00 -2.4699901722e-04 2.2350478962e+00 -3.8712165136e+00 2.2350478962e+00 3.8712165136e+00 
63000 4.2528471443e+00 -2.4468015247e-04 2.2350534218e+00 -3.8712260842e+00 2.2350534218e+00 3.8712260842e+00 
63100 4.2528471431e+00 -2.4238297644e-04 2.2350588955e+00 -3.8712355649e+00 2.2350588955e+00 3.8712355649e+00 
63200 4.2528471419e+00 -2.4010728756e-04 2.2350643178e+00 -3.8712449566e+00 2.2350643178e+00 3.8712449566e+00 
63300 4.2528471407e+00 -2.3785288623e-04 2.2350696892e+00 -3.8712542601e+00 2.2350696892e+00 3.8712542601e+00 
63400 4.2528471396e+00 -2.3561957484e-04 2.2350750101e+00 -3.8712634762e+00 2.2350750101e+00 3.8712634762e+00 
63500 4.2528471385e+00 -2.3340715770e-04 2.2350802811e+00 -3.8712726058e+00 2.2350802811e+00 3.8712726058e+00 
63600 4.2528471373e+00 -2.3121544105e-04 2.2350855025e+00 -3.8712816496e+00 2.2350855025e+00 3.8712816496e+00 
63700 4.2528471363e+00 -2.2904423299e-04 2.2350906749e+00 -3.8712906085e+00 2.2350906749e+00 3.8712906085e+00 
63800 4.2528471352e+00 -2.2689334345e-04 2.2350957987e+00 -3.8712994832e+00 2.2350957987e+00 3.8712994832e+00 
63900 4.2528471341e+00 -2.2476258423e-04 2.2351008744e+00 -3.8713082746e+00 2.2351008744e+00 3.8713082746e+00 
64000 4.2528471331e+00 -2.2265176888e-04 2.2351059025e+00 -3.8713169834e+00 2.2351059025e+00 3.8713169834e+00 
64100 4.2528471321e+00 -2.2056071275e-04 2.2351108833e+00 -3.8713256103e+00 2.2351108833e+00 3.8713256103e+00 
64200 4.2528471311e+00 -2.1848923290e-04 2.2351158173e+00 -3.8713341563e+00 2.2351158173e+00 3.8713341563e+00 
64300 4.2528471302e+00 -2.1643714815e-04 2.2351207049e+00 -3.8713426219e+00 2.2351207049e+00 3.8713426219e+00 
64400 4.2528471292e+00 -2.1440427897e-04 2.2351255466e+00 -3.8713510081e+00 2.2351255466e+00 3.8713510081e+00 
64500 4.2528471283e+00 -2.1239044752e-04 2.2351303429e+00 -3.8713593154e+00 2.2351303429e+00 3.8713593154e+00 
64600 4.2528471274e+00 -2.1039547761e-04 2.2351350941e+00 -3.8713675447e+00 2.2351350941e+00 3.8713675447e+00 
64700 4.2528471265e+00 -2.0841919465e-04 2.2351398006e+00 -3.8713756967e+00 2.2351398006e+00 3.8713756967e+00 
64800 4.2528471256e+00 -2.0646142567e-04 2.2351444630e+00 -3.8713837721e+00 2.2351444630e+00 3.8713837721e+00 
64900 4.2528471247e+00 -2.0452199927e-04 2.2351490815e+00 -3.8713917716e+00 2.2351490815e+00 3.8713917716e+00 
65000 4.2528471239e+00 -2.0260074561e-04 2.2351536566e+00 -3.8713996960e+00 2.2351536566e+00 3.8713996960e+00 
65100 4.2528471230e+00 -2.0069749639e-04 2.2351581888e+00 -3.8714075459e+00 2.2351581888e+00 3.8714075459e+00 
65200 4.2528471222e+00 -1.9881208482e-04 2.2351626783e+00 -3.8714153220e+00 2.2351626783e+00 3.8714153220e+00 
65300 4.2528471214e+00 -1.9694434562e-04 2.2351671257e+00 -3.8714230251e+00 2.2351671257e+00 3.8714230251e+00 
65400 4.2528471206e+00 -1.9509411499e-04 2.2351715313e+00 -3.8714306558e+00 2.2351715313e+00 3.8714306558e+00 
65500 4.2528471199e+00 -1.9326123058e-04 2.2351758955e+00 -3.8714382148e+00 2.2351758955e+00 3.8714382148e+00 
65600 4.2528471191e+00 -1.9144553152e-04 2.2351802187e+00 -3.8714457028e+00 2.2351802187e+00 3.8714457028e+00 
65700 4.2528471184e+00 -1.8964685834e-04 2.2351845012e+00 -3.8714531204e+00 2.2351845012e+00 3.8714531204e+00 
65800 4.2528471176e+00 -1.8786505301e-04 2.2351887435e+00 -3.8714604683e+00 2.2351887435e+00 3.8714604683e+00 
65900 4.2528471169e+00 -1.8609995887e-04 2.2351929460e+00 -3.8714677471e+00 2.2351929460e+00 3.8714677471e+00 
66000 4.2528471162e+00 -1.8435142069e-04 2.2351971089e+00 -3.8714749576e+00 2.2351971089e+00 3.8714749576e+00 
66100 4.2528471155e+00 -1.8261928457e-04 2.2352012327e+00 -3.8714821003e+00 2.2352012327e+00 3.8714821003e+00 
66200 4.2528471149e+00 -1.8090339799e-04 2.2352053178e+00 -3.8714891758e+00 2.2352053178e+00 3.8714891758e+00 
66300 4.2528471142e+00 -1.7920360979e-04 2.2352093645e+00 -3.8714961849e+00 2.2352093645e+00 3.8714961849e+00 
66400 4.2528471136e+00 -1.7751977011e-04 2.2352133732e+00 -3.8715031281e+00 2.2352133732e+00 3.8715031281e+00 
66500 4.2528471129e+00 -1.7585173046e-04 2.2352173441e+00 -3.8715100060e+00 2.2352173441e+00 3.8715100060e+00 
66600 4.2528471123e+00 -1.7419934361e-04 2.2352212778e+00 -3.8715168193e+00 2.2352212778e+00 3.8715168193e+00 
66700 4.2528471117e+00 -1.7256246366e-04 2.2352251745e+00 -3.8715235686e+00 2.2352251745e+00 3.8715235686e+00 
66800 4.2528471111e+00 -1.7094094600e-04 2.2352290346e+00 -3.8715302544e+00 2.2352290346e+00 3.8715302544e+00 
66900 4.2528471105e+00 -1.6933464728e-04 2.2352328584e+00 -3.8715368774e+00 2.2352328584e+00 3.8715368774e+00 
67000 4.2528471099e+00 -1.6774342544e-04 2.2352366462e+00 -3.8715434382e+00 2.2352366462e+00 3.8715434382e+00 
67100 4.2528471093e+00 -1.6616713966e-04 2.2352403985e+00 -3.8715499373e+00 2.2352403985e+00 3.8715499373e+00 
67200 4.2528471088e+00 -1.6460565039e-04 2.2352441155e+00 -3.8715563753e+00 2.2352441155e+00 3.8715563753e+00 
67300 4.2528471082e+00 -1.6305881931e-04 2.2352477975e+00 -3.8715627528e+00 2.2352477975e+00 3.8715627528e+00 
67400 4.2528471077e+00 -1.6152650933e-04 2.2352514449e+00 -3.8715690703e+00 2.2352514449e+00 3.8715690703e+00 
67500 4.2528471072e+00 -1.6000858457e-04 2.2352550581e+00 -3.8715753285e+00 2.2352550581e+00 3.8715753285e+00 
67600 4.2528471067e+00 -1.5850491040e-04 2.2352586373e+00 -3.8715815279e+00 2.2352586373e+00 3.8715815279e+00 
67700 4.2528471062e+00 -1.5701535336e-04 2.2352621829e+00 -3.8715876690e+00 2.2352621829e+00 3.8715876690e+00 
67800 4.2528471057e+00 -1.5553978121e-04 2.2352656951e+00 -3.8715937523e+00 2.2352656951e+00 3.8715937523e+00 
67900 4.2528471052e+00 -1.5407806288e-04 2.2352691743e+00 -3.8715997785e+00 2.2352691743e+00 3.8715997785e+00 
68000 4.2528471047e+00 -1.5263006851e-04 2.2352726209e+00 -3.8716057481e+00 2.2352726209e+00 3.8716057481e+00 
68100 4.2528471042e+00 -1.5119566939e-04 2.2352760350e+00 -3.8716116615e+00 2.2352760350e+00 3.8716116615e+00 
68200 4.2528471038e+00 -1.4977473798e-04 2.2352794170e+00 -3.8716175194e+00 2.2352794170e+00 3.8716175194e+00 
68300 4.2528471033e+00 -1.4836714791e-04 2.2352827673e+00 -3.8716233222e+00 2.2352827673e+00 3.8716233222e+00 
68400 4.2528471029e+00 -1.4697277395e-04 2.2352860860e+00 -3.8716290704e+00 2.2352860860e+00 3.8716290704e+00 
68500 4.2528471024e+00 -1.4559149202e-04 2.2352893736e+00 -3.8716347647e+00 2.2352893736e+00 3.8716347647e+00 
68600 4.2528471020e+00 -1.4422317916e-04 2.2352926302e+00 -3.8716404054e+00 2.2352926302e+00 3.8716404054e+00 
68700 4.2528471016e+00 -1.4286771356e-04 2.2352958563e+00 -3.8716459930e+00 2.2352958563e+00 3.8716459930e+00 
68800 4.2528471012e+00 -1.4152497451e-04 2.2352990520e+00 -3.8716515282e+00 2.2352990520e+00 3.8716515282e+00 
68900 4.2528471008e+00 -1.4019484244e-04 2.2353022177e+00 -3.8716570113e+00 2.2353022177e+00 3.8716570113e+00 
69000 4.2528471004e+00 -1.3887719885e-04 2.2353053536e+00 -3.8716624429e+00 2.2353053536e+00 3.8716624429e+00 
69100 4.2528471000e+00 -1.3757192637e-04 2.2353084601e+00 -3.8716678234e+00 2.2353084601e+00 3.8716678234e+00 
69200 4.2528470996e+00 -1.3627890869e-04 2.2353115373e+00 -3.8716731534e+00 2.2353115373e+00 3.8716731534e+00 
69300 4.2528470992e+00 -1.3499803062e-04 2.2353145856e+00 -3.8716784332e+00 2.2353145856e+00 3.8716784332e+00 
69400 4.2528470989e+00 -1.3372917800e-04 2.2353176053e+00 -3.8716836635e+00 2.2353176053e+00 3.8716836635e+00 
69500 4.2528470985e+00 -1.3247223778e-04 2.2353205966e+00 -3.8716888445e+00 2.2353205966e+00 3.8716888445e+00 
69600 4.2528470982e+00 -1.3122709793e-04 2.2353235598e+00 -3.8716939768e+00 2.2353235598e+00 3.8716939768e+00 
69700 4.2528470978e+00 -1.2999364750e-04 2.2353264951e+00 -3.8716990609e+00 2.2353264951e+00 3.8716990609e+00 
69800 4.2528470975e+00 -1.2885288216e-04 2.2353294028e+00 -3.8717040972e+00 2.2353294028e+00 3.8717040972e+00 
69900 4.2528470972e+00 -1.2773775468e-04 2.2353322850e+00 -3.8717090893e+00 2.2353322850e+00 3.8717090893e+00 
70000 4.2528470968e+00 -1.2662998065e-04 2.2353351422e+00 -3.8717140382e+00 2.2353351422e+00 3.8717140382e+00 
70100 4.2528470965e+00 -1.2552944076e-04 2.2353379747e+00 -3.8717189442e+00 2.2353379747e+00 3.8717189442e+00 
70200 4.2528470962e+00 -1.2440385211e-04 2.2353407825e+00 -3.8717238075e+00 2.2353407825e+00 3.8717238075e+00 
70300 4.2528470959e+00 -1.2327695725e-04 2.2353435652e+00 -3.8717286272e+00 2.2353435652e+00 3.8717286272e+00 
70400 4.2528470956e+00 -1.2216212444e-04 2.2353463226e+00 -3.8717334033e+00 2.2353463226e+00 3.8717334033e+00 
70500 4.2528470953e+00 -1.2104891357e-04 2.2353490551e+00 -3.8717381361e+00 2.2353490551e+00 3.8717381361e+00 
70600 4.2528470950e+00 -1.1994310342e-04 2.2353517627e+00 -3.8717428258e+00 2.2353517627e+00 3.8717428258e+00 
70700 4.2528470947e+00 -1.1885059908e-04 2.2353544456e+00 -3.8717474727e+00 2.2353544456e+00 3.8717474727e+00 
70800 4.2528470944e+00 -1.1776987820e-04 2.2353571040e+00 -3.8717520772e+00 2.2353571040e+00 3.8717520772e+00 
70900 4.2528470941e+00 -1.1669006189e-04 2.2353597383e+00 -3.8717566399e+00 2.2353597383e+00 3.8717566399e+00 
71000 4.2528470939e+00 -1.1562347753e-04 2.2353623484e+00 -3.8717611607e+00 2.2353623484e+00 3.8717611607e+00 
71100 4.2528470936e+00 -1.1456379654e-04 2.2353649346e+00 -3.8717656402e+00 2.2353649346e+00 3.8717656402e+00 
71200 4.2528470934e+00 -1.1351573578e-04 2.2353674971e+00 -3.8717700786e+00 2.2353674971e+00 3.8717700786e+00 
71300 4.2528470931e+00 -1.1247438112e-04 2.2353700362e+00 -3.8717744765e+00 2.2353700362e+00 3.8717744765e+00 
71400 4.2528470928e+00 -1.1143969018e-04 2.2353725520e+00 -3.8717788339e+00 2.2353725520e+00 3.8717788339e+00 
71500 4.2528470926e+00 -1.1041653452e-04 2.2353750447e+00 -3.8717831513e+00 2.2353750447e+00 3.8717831513e+00 
71600 4.2528470924e+00 -1.0939987423e-04 2.2353775144e+00 -3.8717874291e+00 2.2353775144e+00 3.8717874291e+00 
71700 4.2528470921e+00 -1.0838315232e-04 2.2353799614e+00 -3.8717916674e+00 2.2353799614e+00 3.8717916674e+00 
71800 4.2528470919e+00 -1.0738461210e-04 2.2353823857e+00 -3.8717958664e+00 2.2353823857e+00 3.8717958664e+00 
71900 4.2528470917e+00 -1.0639238711e-04 2.2353847876e+00 -3.8718000266e+00 2.2353847876e+00 3.8718000266e+00 
72000 4.2528470914e+00 -1.0539982204e-04 2.2353871674e+00 -3.8718041485e+00 2.2353871674e+00 3.8718041485e+00 
72100 4.2528470912e+00 -1.0442552508e-04 2.2353895249e+00 -3.8718082318e+00 2.2353895249e+00 3.8718082318e+00 
72200 4.2528470910e+00 -1.0345069761e-04 2.2353918606e+00 -3.8718122774e+00 2.2353918606e+00 3.8718122774e+00 
72300 4.2528470908e+00 -1.0248887213e-04 2.2353941746e+00 -3.8718162853e+00 2.2353941746e+00 3.8718162853e+00 
72400 4.2528470906e+00 -1.0153851139e-04 2.2353964670e+00 -3.8718202558e+00 2.2353964670e+00 3.8718202558e+00 
72500 4.2528470904e+00 -1.0058740842e-04 2.2353987381e+00 -3.8718241896e+00 2.2353987381e+00 3.8718241896e+00 
72600 4.2528470902e+00 -9.9642463327e-05 2.2354009880e+00 -3.8718280865e+00 2.2354009880e+00 3.8718280865e+00 
72700 4.2528470900e+00 -9.8710467860e-05 2.2354032167e+00 -3.8718319468e+00 2.2354032167e+00 3.8718319468e+00 
72800 4.2528470898e+00 -9.7789980423e-05 2.2354054246e+00 -3.8718357710e+00 2.2354054246e+00 3.8718357710e+00 
72900 4.2528470896e+00 -9.6875380725e-05 2.2354076119e+00 -3.8718395595e+00 2.2354076119e+00 3.8718395595e+00 
73000 4.2528470894e+00 -9.5972281254e-05 2.2354097788e+00 -3.8718433126e+00 2.2354097788e+00 3.8718433126e+00 
73100 4.2528470893e+00 -9.5068107007e-05 2.2354119254e+00 -3.8718470306e+00 2.2354119254e+00 3.8718470306e+00 
73200 4.2528470891e+00 -9.4169859410e-05 2.2354140518e+00 -3.8718507137e+00 2.2354140518e+00 3.8718507137e+00 
73300 4.2528470889e+00 -9.3284415683e-05 2.2354161581e+00 -3.8718543619e+00 2.2354161581e+00 3.8718543619e+00 
73400 4.2528470887e+00 -9.2410525591e-05 2.2354182446e+00 -3.8718579759e+00 2.2354182446e+00 3.8718579759e+00 
73500 4.2528470886e+00 -9.1542299395e-05 2.2354203116e+00 -3.8718615560e+00 2.2354203116e+00 3.8718615560e+00 
73600 4.2528470884e+00 -9.0672820911e-05 2.2354223591e+00 -3.8718651024e+00 2.2354223591e+00 3.8718651024e+00 
73700 4.2528470882e+00 -8.9821989364e-05 2.2354243872e+00 -3.8718686152e+00 2.2354243872e+00 3.8718686152e+00 
73800 4.2528470881e+00 -8.8969790659e-05 2.2354263963e+00 -3.8718720950e+00 2.2354263963e+00 3.8718720950e+00 
73900 4.2528470879e+00 -8.8130220574e-05 2.2354283863e+00 -3.8718755417e+00 2.2354283863e+00 3.8718755417e+00 
74000 4.2528470878e+00 -8.7296185340e-05 2.2354303575e+00 -3.8718789560e+00 2.2354303575e+00 3.8718789560e+00 
74100 4.2528470876e+00 -8.6473774073e-05 2.2354323101e+00 -3.8718823379e+00 2.2354323101e+00 3.8718823379e+00 
74200 4.2528470875e+00 -8.5656800264e-05 2.2354342442e+00 -3.8718856880e+00 2.2354342442e+00 3.8718856880e+00 
74300 4.2528470873e+00 -8.4845253584e-05 2.2354361601e+00 -3.8718890064e+00 2.2354361601e+00 3.8718890064e+00 
74400 4.2528470872e+00 -8.4045344602e-05 2.2354380579e+00 -3.8718922934e+00 2.2354380579e+00 3.8718922934e+00 
74500 4.2528470871e+00 -8.3243815628e-05 2.2354399377e+00 -3.8718955494e+00 2.2354399377e+00 3.8718955494e+00 
74600 4.2528470869e+00 -8.2447752177e-05 2.2354417996e+00 -3.8718987743e+00 2.2354417996e+00 3.8718987743e+00 
74700 4.2528470868e+00 -8.1664096144e-05 2.2354436437e+00 -3.8719019684e+00 2.2354436437e+00 3.8719019684e+00 
74800 4.2528470867e+00 -8.0892099536e-05 2.2354454703e+00 -3.8719051321e+00 2.2354454703e+00 3.8719051321e+00 
74900 4.2528470865e+00 -8.0125303139e-05 2.2354472796e+00 -3.8719082659e+00 2.2354472796e+00 3.8719082659e+00 
75000 4.2528470864e+00 -7.9356739231e-05 2.2354490717e+00 -3.8719113700e+00 2.2354490717e+00 3.8719113700e+00 
75100 4.2528470863e+00 -7.8600455061e-05 2.2354508467e+00 -3.8719144443e+00 2.2354508467e+00 3.8719144443e+00 
75200 4.2528470862e+00 -7.7855843474e-05 2.2354526048e+00 -3.8719174893e+00 2.2354526048e+00 3.8719174893e+00 
75300 4.2528470860e+00 -7.7116301119e-05 2.2354543461e+00 -3.8719205055e+00 2.2354543461e+00 3.8719205055e+00 
75400 4.2528470859e+00 -7.6374859871e-05 2.2354560710e+00 -3.8719234930e+00 2.2354560710e+00 3.8719234930e+00 
75500 4.2528470858e+00 -7.5645559851e-05 2.2354577792e+00 -3.8719264518e+00 2.2354577792e+00 3.8719264518e+00 
75600 4.2528470857e+00 -7.4927931377e-05 2.2354594712e+00 -3.8719293824e+00 2.2354594712e+00 3.8719293824e+00 
75700 4.2528470856e+00 -7.4208283641e-05 2.2354611471e+00 -3.8719322851e+00 2.2354611471e+00 3.8719322851e+00 
75800 4.2528470855e+00 -7.3500645552e-05 2.2354628069e+00 -3.8719351600e+00 2.2354628069e+00 3.8719351600e+00 
75900 4.2528470854e+00 -7.2790959436e-05 2.2354644509e+00 -3.8719380074e+00 2.2354644509e+00 3.8719380074e+00 
76000 4.2528470853e+00 -7.2100016399e-05 2.2354660790e+00 -3.8719408273e+00 2.2354660790e+00 3.8719408273e+00 
76100 4.2528470852e+00 -7.1406908991e-05 2.2354676916e+00 -3.8719436205e+00 2.2354676916e+00 3.8719436205e+00 
76200 4.2528470851e+00 -7.0718707769e-05 2.2354692887e+00 -3.8719463868e+00 2.2354692887e+00 3.8719463868e+00 
76300 4.2528470850e+00 -7.0035400163e-05 2.2354708705e+00 -3.8719491265e+00 2.2354708705e+00 3.8719491265e+00 
76300 4.2528470850e+00 -7.0035400163e-05 2.2354708705e+00 -3.8719491265e+00 2.2354708705e+00 3.8719491265e+00 
