# step Hamiltonian StressXX CellTensor1 CellTensor2 CellTensor3 CellTensor4 
0 5.2933834862e+00 6.6868655984e-02 1.7438352029e+00 -3.0204111715e+00 1.7438352029e+00 3.0204111715e+00 
100 5.2861013512e+00 6.7701614770e-02 1.7438352029e+00 -3.0204111715e+00 1.7438352029e+00 3.0204111715e+00 
200 5.2789996772e+00 6.7131267610e-02 1.7418943934e+00 -3.0170495907e+00 1.7418943934e+00 3.0170495907e+00 
300 5.2722062031e+00 6.6599911506e-02 1.7399677876e+00 -3.0137126116e+00 1.7399677876e+00 3.0137126116e+00 
400 5.2657000078e+00 6.6104047924e-02 1.7380543128e+00 -3.0103983761e+00 1.7380543128e+00 3.0103983761e+00 
500 5.2594626351e+00 6.5640797956e-02 1.7361529919e+00 -3.0071051917e+00 1.7361529919e+00 3.0071051917e+00 
600 5.2534778082e+00 6.5207807438e-02 1.7342629260e+00 -3.0038315014e+00 1.7342629260e+00 3.0038315014e+00 
700 5.2477311640e+00 6.4803158806e-02 1.7323832798e+00 -3.0005758588e+00 1.7323832798e+00 3.0005758588e+00 
800 5.2422100067e+00 6.4425289939e-02 1.7305132697e+00 -2.9973369062e+00 1.7305132697e+00 2.9973369062e+00 
900 5.2369030827e+00 6.4072920123e-02 1.7286521534e+00 -2.9941133583e+00 1.7286521534e+00 2.9941133583e+00 
1000 5.2318003749e+00 6.3744983253e-02 1.7267992225e+00 -2.9909039879e+00 1.7267992225e+00 2.9909039879e+00 
1100 5.2268929171e+00 6.3440568266e-02 1.7249537962e+00 -2.9877076157e+00 1.7249537962e+00 2.9877076157e+00 
1200 5.2221726280e+00 6.3158866770e-02 1.7231152170e+00 -2.9845231031e+00 1.7231152170e+00 2.9845231031e+00 
1300 5.2176321641e+00 6.2899127716e-02 1.7212828479e+00 -2.9813493468e+00 1.7212828479e+00 2.9813493468e+00 
1400 5.2132647906e+00 6.2660618923e-02 1.7194560712e+00 -2.9781852768e+00 1.7194560712e+00 2.9781852768e+00 
1500 5.2090642688e+00 6.2442595181e-02 1.7176342875e+00 -2.9750298549e+00 1.7176342875e+00 2.9750298549e+00 
1600 5.2050247606e+00 6.2244272600e-02 1.7158169167e+00 -2.9718820762e+00 1.7158169167e+00 2.9718820762e+00 
1700 5.2011407467e+00 6.2064808830e-02 1.7140033988e+00 -2.9687409710e+00 1.7140033988e+00 2.9687409710e+00 
1800 5.1974069588e+00 6.1903288721e-02 1.7121931961e+00 -2.9656056080e+00 1.7121931961e+00 2.9656056080e+00 
1900 5.1938183253e+00 6.1758714973e-02 1.7103857954e+00 -2.9624750981e+00 1.7103857954e+00 2.9624750981e+00 
2000 5.1903699261e+00 6.1630003286e-02 1.7085807103e+00 -2.9593485990e+00 1.7085807103e+00 2.9593485990e+00 
2100 5.1870569593e+00 6.1515981508e-02 1.7067774841e+00 -2.9562253197e+00 1.7067774841e+00 2.9562253197e+00 
2200 5.1838747156e+00 6.1415392288e-02 1.7049756925e+00 -2.9531045252e+00 1.7049756925e+00 2.9531045252e+00 
2300 5.1808185606e+00 6.1326898707e-02 1.7031749464e+00 -2.9499855413e+00 1.7031749464e+00 2.9499855413e+00 
2400 5.1778839231e+00 6.1249092414e-02 1.7013748940e+00 -2.9468677591e+00 1.7013748940e+00 2.9468677591e+00 
2500 5.1750662896e+00 6.1180503756e-02 1.6995752236e+00 -2.9437506386e+00 1.6995752236e+00 2.9437506386e+00 
2600 5.1723612024e+00 6.1119613471e-02 1.6977756653e+00 -2.9406337122e+00 1.6977756653e+00 2.9406337122e+00 
2700 5.1697642617e+00 6.1064865481e-02 1.6959759928e+00 -2.9375165880e+00 1.6959759928e+00 2.9375165880e+00 
2800 5.1672711302e+00 6.1014680399e-02 1.6941760248e+00 -2.9343989520e+00 1.6941760248e+00 2.9343989520e+00 
2900 5.1648775395e+00 6.0967469374e-02 1.6923756257e+00 -2.9312805692e+00 1.6923756257e+00 2.9312805692e+00 
3000 5.1625792983e+00 6.0921647933e-02 1.6905747063e+00 -2.9281612853e+00 1.6905747063e+00 2.9281612853e+00 
3100 5.1603723006e+00 6.0875649536e-02 1.6887732238e+00 -2.9250410261e+00 1.6887732238e+00 2.9250410261e+00 
3200 5.1582525350e+00 6.0827938581e-02 1.6869711817e+00 -2.9219197976e+00 1.6869711817e+00 2.9219197976e+00 
3300 5.1562160927e+00 6.0777022636e-02 1.6851686289e+00 -2.9187976845e+00 1.6851686289e+00 2.9187976845e+00 
3400 5.1542591766e+00 6.0721463739e-02 1.6833656588e+00 -2.9156748488e+00 1.6833656588e+00 2.9156748488e+00 
3500 5.1523781079e+00 6.0659888605e-02 1.6815624080e+00 -2.9125515268e+00 1.6815624080e+00 2.9125515268e+00 
3600 5.1505693333e+00 6.0590997648e-02 1.6797590544e+00 -2.9094280267e+00 1.6797590544e+00 2.9094280267e+00 
3700 5.1488294302e+00 6.0513572750e-02 1.6779558154e+00 -2.9063047250e+00 1.6779558154e+00 2.9063047250e+00 
3800 5.1471551108e+00 6.0426483736e-02 1.6761529454e+00 -2.9031820627e+00 1.6761529454e+00 2.9031820627e+00 
3900 5.1455432258e+00 6.0328693545e-02 1.6743507339e+00 -2.9000605408e+00 1.6743507339e+00 2.9000605408e+00 
4000 5.1439907659e+00 6.0219262114e-02 1.6725495025e+00 -2.8969407165e+00 1.6725495025e+00 2.8969407165e+00 
4100 5.1424948628e+00 6.0097349025e-02 1.6707496022e+00 -2.8938231977e+00 1.6707496022e+00 2.8938231977e+00 
4200 5.1410527888e+00 5.9962214959e-02 1.6689514106e+00 -2.8907086386e+00 1.6689514106e+00 2.8907086386e+00 
4300 5.1396619555e+00 5.9813222032e-02 1.6671553294e+00 -2.8875977346e+00 1.6671553294e+00 2.8875977346e+00 
4400 5.1383199117e+00 5.9649833118e-02 1.6653617807e+00 -2.8844912172e+00 1.6653617807e+00 2.8844912172e+00 
4500 5.1370243400e+00 5.9471610222e-02 1.6635712049e+00 -2.8813898489e+00 1.6635712049e+00 2.8813898489e+00 
4600 5.1357730535e+00 5.9278212040e-02 1.6617840572e+00 -2.8782944184e+00 1.6617840572e+00 2.8782944184e+00 
4700 5.1345639909e+00 5.9069390779e-02 1.6600008052e+00 -2.8752057352e+00 1.6600008052e+00 2.8752057352e+00 
4800 5.1333952119e+00 5.8844988363e-02 1.6582219257e+00 -2.8721246255e+00 1.6582219257e+00 2.8721246255e+00 
4900 5.1322648921e+00 5.8604932118e-02 1.6564479025e+00 -2.8690519272e+00 1.6564479025e+00 2.8690519272e+00 
5000 5.1311713170e+00 5.8349230044e-02 1.6546792236e+00 -2.8659884855e+00 1.6546792236e+00 2.8659884855e+00 
5100 5.1301128767e+00 5.8077965764e-02 1.6529163787e+00 -2.8629351485e+00 1.6529163787e+00 2.8629351485e+00 
5200 5.1290880598e+00 5.7791293240e-02 1.6511598571e+00 -2.8598927639e+00 1.6511598571e+00 2.8598927639e+00 
5300 5.1280954476e+00 5.7489431343e-02 1.6494101454e+00 -2.8568621744e+00 1.6494101454e+00 2.8568621744e+00 
5400 5.1271337084e+00 5.7172658350e-02 1.6476677256e+00 -2.8538442148e+00 1.6476677256e+00 2.8538442148e+00 
5500 5.1262015917e+00 5.6841306435e-02 1.6459330733e+00 -2.8508397088e+00 1.6459330733e+00 2.8508397088e+00 
5600 5.1252979227e+00 5.6495756216e-02 1.6442066556e+00 -2.8478494657e+00 1.6442066556e+00 2.8478494657e+00 
5700 5.1244215969e+00 5.6136431401e-02 1.6424889303e+00 -2.8448742782e+00 1.6424889303e+00 2.8448742782e+00 
5800 5.1235715748e+00 5.5763793587e-02 1.6407803439e+00 -2.8419149197e+00 1.6407803439e+00 2.8419149197e+00 
5900 5.1227468774e+00 5.5378337248e-02 1.6390813304e+00 -2.8389721420e+00 1.6390813304e+00 2.8389721420e+00 
6000 5.1219465813e+00 5.4980584923e-02 1.6373923107e+00 -2.8360466740e+00 1.6373923107e+00 2.8360466740e+00 
6100 5.1211698144e+00 5.4571082659e-02 1.6357136910e+00 -2.8331392194e+00 1.6357136910e+00 2.8331392194e+00 
6200 5.1204157518e+00 5.4150395688e-02 1.6340458625e+00 -2.8302504557e+00 1.6340458625e+00 2.8302504557e+00 
6300 5.1196836124e+00 5.3719104381e-02 1.6323892004e+00 -2.8273810329e+00 1.6323892004e+00 2.8273810329e+00 
6400 5.1189726547e+00 5.3277800466e-02 1.6307440637e+00 -2.8245315724e+00 1.6307440637e+00 2.8245315724e+00 
6500 5.1182821743e+00 5.2827083524e-02 1.6291107940e+00 -2.8217026663e+00 1.6291107940e+00 2.8217026663e+00 
6600 5.1176115006e+00 5.2367557752e-02 1.6274897160e+00 -2.8188948769e+00 1.6274897160e+00 2.8188948769e+00 
6700 5.1169599941e+00 5.1899829000e-02 1.6258811368e+00 -2.8161087361e+00 1.6258811368e+00 2.8161087361e+00 
6800 5.1163270440e+00 5.1424502062e-02 1.6242853458e+00 -2.8133447450e+00 1.6242853458e+00 2.8133447450e+00 
6900 5.1157120659e+00 5.0942178229e-02 1.6227026147e+00 -2.8106033742e+00 1.6227026147e+00 2.8106033742e+00 
7000 5.1151145002e+00 5.0453453083e-02 1.6211331972e+00 -2.8078850633e+00 1.6211331972e+00 2.8078850633e+00 
7100 5.1145338094e+00 4.9958914519e-02 1.6195773295e+00 -2.8051902215e+00 1.6195773295e+00 2.8051902215e+00 
7200 5.1139694774e+00 4.9459140992e-02 1.6180352304e+00 -2.8025192274e+00 1.6180352304e+00 2.8025192274e+00 
7300 5.1134210075e+00 4.8954699973e-02 1.6165071009e+00 -2.7998724295e+00 1.6165071009e+00 2.7998724295e+00 
7400 5.1128879212e+00 4.8446146598e-02 1.6149931251e+00 -2.7972501466e+00 1.6149931251e+00 2.7972501466e+00 
7500 5.1123697570e+00 4.7934022499e-02 1.6134934704e+00 -2.7946526685e+00 1.6134934704e+00 2.7946526685e+00 
7600 5.1118660694e+00 4.7418854808e-02 1.6120082874e+00 -2.7920802561e+00 1.6120082874e+00 2.7920802561e+00 
7700 5.1113764278e+00 4.6901155316e-02 1.6105377107e+00 -2.7895331425e+00 1.6105377107e+00 2.7895331425e+00 
7800 5.1109004159e+00 4.6381419777e-02 1.6090818590e+00 -2.7870115333e+00 1.6090818590e+00 2.7870115333e+00 
7900 5.1104376308e+00 4.5860127349e-02 1.6076408357e+00 -2.7845156077e+00 1.6076408357e+00 2.7845156077e+00 
8000 5.1099876823e+00 4.5337740148e-02 1.6062147292e+00 -2.7820455189e+00 1.6062147292e+00 2.7820455189e+00 
8100 5.1095501923e+00 4.4814702928e-02 1.6048036136e+00 -2.7796013949e+00 1.6048036136e+00 2.7796013949e+00 
8200 5.1091247944e+00 4.4291442847e-02 1.6034075487e+00 -2.7771833396e+00 1.6034075487e+00 2.7771833396e+00 
8300 5.1087111331e+00 4.3768369333e-02 1.6020265811e+00 -2.7747914335e+00 1.6020265811e+00 2.7747914335e+00 
8400 5.1083088638e+00 4.3245874034e-02 1.6006607441e+00 -2.7724257344e+00 1.6006607441e+00 2.7724257344e+00 
8500 5.1079176519e+00 4.2724330835e-02 1.5993100585e+00 -2.7700862784e+00 1.5993100585e+00 2.7700862784e+00 
8600 5.1075371728e+00 4.2204095948e-02 1.5979745333e+00 -2.7677730809e+00 1.5979745333e+00 2.7677730809e+00 
8700 5.1071671115e+00 4.1685508058e-02 1.5966541656e+00 -2.7654861370e+00 1.5966541656e+00 2.7654861370e+00 
8800 5.1068071621e+00 4.1168888521e-02 1.5953489417e+00 -2.7632254229e+00 1.5953489417e+00 2.7632254229e+00 
8900 5.1064570279e+00 4.0654541607e-02 1.5940588373e+00 -2.7609908965e+00 1.5940588373e+00 2.7609908965e+00 
9000 5.1061164205e+00 4.0142754789e-02 1.5927838180e+00 -2.7587824982e+00 1.5927838180e+00 2.7587824982e+00 
9100 5.1057850603e+00 3.9633799061e-02 1.5915238398e+00 -2.7566001520e+00 1.5915238398e+00 2.7566001520e+00 
9200 5.1054626756e+00 3.9127929286e-02 1.5902788497e+00 -2.7544437659e+00 1.5902788497e+00 2.7544437659e+00 
9300 5.1051490029e+00 3.8625384572e-02 1.5890487862e+00 -2.7523132334e+00 1.5890487862e+00 2.7523132334e+00 
9400 5.1048437863e+00 3.8126388673e-02 1.5878335794e+00 -2.7502084335e+00 1.5878335794e+00 2.7502084335e+00 
9500 5.1045467775e+00 3.7631150399e-02 1.5866331520e+00 -2.7481292322e+00 1.5866331520e+00 2.7481292322e+00 
9600 5.1042577356e+00 3.7139864050e-02 1.5854474192e+00 -2.7460754827e+00 1.5854474192e+00 2.7460754827e+00 
9700 5.1039764267e+00 3.6652709853e-02 1.5842762896e+00 -2.7440470268e+00 1.5842762896e+00 2.7440470268e+00 
9800 5.1037026240e+00 3.6169854415e-02 1.5831196654e+00 -2.7420436949e+00 1.5831196654e+00 2.7420436949e+00 
9900 5.1034361074e+00 3.5691451177e-02 1.5819774428e+00 -2.7400653073e+00 1.5819774428e+00 2.7400653073e+00 
10000 5.1031766635e+00 3.5217640877e-02 1.5808495124e+00 -2.7381116747e+00 1.5808495124e+00 2.7381116747e+00 
10100 5.1029240852e+00 3.4748552009e-02 1.5797357599e+00 -2.7361825987e+00 1.5797357599e+00 2.7361825987e+00 
10200 5.1026781718e+00 3.4284301285e-02 1.5786360660e+00 -2.7342778729e+00 1.5786360660e+00 2.7342778729e+00 
10300 5.1024387286e+00 3.3824994101e-02 1.5775503069e+00 -2.7323972831e+00 1.5775503069e+00 2.7323972831e+00 
10400 5.1022055668e+00 3.3370724986e-02 1.5764783550e+00 -2.7305406080e+00 1.5764783550e+00 2.7305406080e+00 
10500 5.1019785034e+00 3.2921578065e-02 1.5754200789e+00 -2.7287076199e+00 1.5754200789e+00 2.7287076199e+00 
10600 5.1017573610e+00 3.2477627500e-02 1.5743753437e+00 -2.7268980855e+00 1.5743753437e+00 2.7268980855e+00 
10700 5.1015419676e+00 3.2038937937e-02 1.5733440115e+00 -2.7251117657e+00 1.5733440115e+00 2.7251117657e+00 
10800 5.1013321564e+00 3.1605564937e-02 1.5723259417e+00 -2.7233484171e+00 1.5723259417e+00 2.7233484171e+00 
10900 5.1011277661e+00 3.1177555405e-02 1.5713209912e+00 -2.7216077918e+00 1.5713209912e+00 2.7216077918e+00 
11000 5.1009286398e+00 3.0754948007e-02 1.5703290146e+00 -2.7198896379e+00 1.5703290146e+00 2.7198896379e+00 
11100 5.1007346260e+00 3.0337773582e-02 1.5693498647e+00 -2.7181937006e+00 1.5693498647e+00 2.7181937006e+00 
11200 5.1005455776e+00 2.9926055537e-02 1.5683833926e+00 -2.7165197218e+00 1.5683833926e+00 2.7165197218e+00 
11300 5.1003613520e+00 2.9519810239e-02 1.5674294480e+00 -2.7148674411e+00 1.5674294480e+00 2.7148674411e+00 
11400 5.1001818112e+00 2.9119047392e-02 1.5664878792e+00 -2.7132365962e+00 1.5664878792e+00 2.7132365962e+00 
11500 5.1000068214e+00 2.8723770409e-02 1.5655585338e+00 -2.7116269227e+00 1.5655585338e+00 2.7116269227e+00 
11600 5.0998362528e+00 2.8333976766e-02 1.5646412585e+00 -2.7100381553e+00 1.5646412585e+00 2.7100381553e+00 
11700 5.0996699799e+00 2.7949658349e-02 1.5637358994e+00 -2.7084700274e+00 1.5637358994e+00 2.7084700274e+00 
11800 5.0995078809e+00 2.7570801791e-02 1.5628423024e+00 -2.7069222720e+00 1.5628423024e+00 2.7069222720e+00 
11900 5.0993498377e+00 2.7197388797e-02 1.5619603130e+00 -2.7053946215e+00 1.5619603130e+00 2.7053946215e+00 
12000 5.0991957360e+00 2.6829396453e-02 1.5610897768e+00 -2.7038868086e+00 1.5610897768e+00 2.7038868086e+00 
12100 5.0990454650e+00 2.6466797532e-02 1.5602305394e+00 -2.7023985658e+00 1.5602305394e+00 2.7023985658e+00 
12200 5.0988989173e+00 2.6109560786e-02 1.5593824468e+00 -2.7009296264e+00 1.5593824468e+00 2.7009296264e+00 
12300 5.0987559887e+00 2.5757651221e-02 1.5585453455e+00 -2.6994797243e+00 1.5585453455e+00 2.6994797243e+00 
12400 5.0986165784e+00 2.5411030374e-02 1.5577190823e+00 -2.6980485944e+00 1.5577190823e+00 2.6980485944e+00 
12500 5.0984805887e+00 2.5069656562e-02 1.5569035048e+00 -2.6966359728e+00 1.5569035048e+00 2.6966359728e+00 
12600 5.0983479245e+00 2.4733485140e-02 1.5560984615e+00 -2.6952415969e+00 1.5560984615e+00 2.6952415969e+00 
12700 5.0982184941e+00 2.4402468732e-02 1.5553038017e+00 -2.6938652057e+00 1.5553038017e+00 2.6938652057e+00 
12800 5.0980922084e+00 2.4076557461e-02 1.5545193756e+00 -2.6925065399e+00 1.5545193756e+00 2.6925065399e+00 
12900 5.0979689809e+00 2.3755699164e-02 1.5537450348e+00 -2.6911653422e+00 1.5537450348e+00 2.6911653422e+00 
13000 5.0978487279e+00 2.3439839606e-02 1.5529806317e+00 -2.6898413572e+00 1.5529806317e+00 2.6898413572e+00 
13100 5.0977313680e+00 2.3128922670e-02 1.5522260202e+00 -2.6885343318e+00 1.5522260202e+00 2.6885343318e+00 
13200 5.0976168226e+00 2.2822890551e-02 1.5514810555e+00 -2.6872440151e+00 1.5514810555e+00 2.6872440151e+00 
13300 5.0975050153e+00 2.2521683936e-02 1.5507455942e+00 -2.6859701587e+00 1.5507455942e+00 2.6859701587e+00 
13400 5.0973958718e+00 2.2225242171e-02 1.5500194942e+00 -2.6847125167e+00 1.5500194942e+00 2.6847125167e+00 
13500 5.0972893203e+00 2.1933503428e-02 1.5493026152e+00 -2.6834708459e+00 1.5493026152e+00 2.6834708459e+00 
13600 5.0971852910e+00 2.1646404854e-02 1.5485948183e+00 -2.6822449057e+00 1.5485948183e+00 2.6822449057e+00 
13700 5.0970837163e+00 2.1363882721e-02 1.5478959662e+00 -2.6810344583e+00 1.5478959662e+00 2.6810344583e+00 
13800 5.0969845305e+00 2.1085872563e-02 1.5472059232e+00 -2.6798392688e+00 1.5472059232e+00 2.6798392688e+00 
13900 5.0968876699e+00 2.0812309304e-02 1.5465245555e+00 -2.6786591052e+00 1.5465245555e+00 2.6786591052e+00 
14000 5.0967930727e+00 2.0543127384e-02 1.5458517307e+00 -2.6774937386e+00 1.5458517307e+00 2.6774937386e+00 
14100 5.0967006787e+00 2.0278260873e-02 1.5451873185e+00 -2.6763429429e+00 1.5451873185e+00 2.6763429429e+00 
14200 5.0966104299e+00 2.0017643581e-02 1.5445311902e+00 -2.6752064952e+00 1.5445311902e+00 2.6752064952e+00 
14300 5.0965222696e+00 1.9761209161e-02 1.5438832187e+00 -2.6740841757e+00 1.5438832187e+00 2.6740841757e+00 
14400 5.0964361430e+00 1.9508891203e-02 1.5432432790e+00 -2.6729757676e+00 1.5432432790e+00 2.6729757676e+00 
14500 5.0963519967e+00 1.9260623327e-02 1.5426112478e+00 -2.6718810574e+00 1.5426112478e+00 2.6718810574e+00 
14600 5.0962697790e+00 1.9016339265e-02 1.5419870035e+00 -2.6707998347e+00 1.5419870035e+00 2.6707998347e+00 
14700 5.0961894398e+00 1.8775972941e-02 1.5413704266e+00 -2.6697318922e+00 1.5413704266e+00 2.6697318922e+00 
14800 5.0961109301e+00 1.8539458541e-02 1.5407613992e+00 -2.6686770258e+00 1.5407613992e+00 2.6686770258e+00 
14900 5.0960342027e+00 1.8306730585e-02 1.5401598054e+00 -2.6676350347e+00 1.5401598054e+00 2.6676350347e+00 
15000 5.0959592114e+00 1.8077723990e-02 1.5395655309e+00 -2.6666057211e+00 1.5395655309e+00 2.6666057211e+00 
15100 5.0958859117e+00 1.7852374124e-02 1.5389784635e+00 -2.6655888906e+00 1.5389784635e+00 2.6655888906e+00 
15200 5.0958142600e+00 1.7630616863e-02 1.5383984927e+00 -2.6645843516e+00 1.5383984927e+00 2.6645843516e+00 
15300 5.0957442143e+00 1.7412388641e-02 1.5378255097e+00 -2.6635919161e+00 1.5378255097e+00 2.6635919161e+00 
15400 5.0956757335e+00 1.7197626494e-02 1.5372594078e+00 -2.6626113988e+00 1.5372594078e+00 2.6626113988e+00 
15500 5.0956087778e+00 1.6986268100e-02 1.5367000818e+00 -2.6616426177e+00 1.5367000818e+00 2.6616426177e+00 
15600 5.0955433086e+00 1.6778251819e-02 1.5361474284e+00 -2.6606853940e+00 1.5361474284e+00 2.6606853940e+00 
15700 5.0954792883e+00 1.6573516728e-02 1.5356013462e+00 -2.6597395518e+00 1.5356013462e+00 2.6597395518e+00 
15800 5.0954166803e+00 1.6372002648e-02 1.5350617352e+00 -2.6588049182e+00 1.5350617352e+00 2.6588049182e+00 
15900 5.0953554491e+00 1.6173650174e-02 1.5345284976e+00 -2.6578813235e+00 1.5345284976e+00 2.6578813235e+00 
16000 5.0952955603e+00 1.5978400700e-02 1.5340015369e+00 -2.6569686008e+00 1.5340015369e+00 2.6569686008e+00 
16100 5.0952369803e+00 1.5786196440e-02 1.5334807585e+00 -2.6560665862e+00 1.5334807585e+00 2.6560665862e+00 
16200 5.0951796766e+00 1.5596980446e-02 1.5329660695e+00 -2.6551751187e+00 1.5329660695e+00 2.6551751187e+00 
16300 5.0951236173e+00 1.5410696624e-02 1.5324573787e+00 -2.6542940403e+00 1.5324573787e+00 2.6542940403e+00 
16400 5.0950687718e+00 1.5227289752e-02 1.5319545962e+00 -2.6534231955e+00 1.5319545962e+00 2.6534231955e+00 
16500 5.0950151101e+00 1.5046705487e-02 1.5314576341e+00 -2.6525624320e+00 1.5314576341e+00 2.6525624320e+00 
16600 5.0949626031e+00 1.4868890376e-02 1.5309664060e+00 -2.6517115999e+00 1.5309664060e+00 2.6517115999e+00 
16700 5.0949112225e+00 1.4693791866e-02 1.5304808270e+00 -2.6508705524e+00 1.5304808270e+00 2.6508705524e+00 
16800 5.0948609407e+00 1.4521358304e-02 1.5300008137e+00 -2.6500391449e+00 1.5300008137e+00 2.6500391449e+00 
16900 5.0948117309e+00 1.4351538949e-02 1.5295262843e+00 -2.6492172359e+00 1.5295262843e+00 2.6492172359e+00 
17000 5.0947635672e+00 1.4184283966e-02 1.5290571585e+00 -2.6484046861e+00 1.5290571585e+00 2.6484046861e+00 
17100 5.0947164242e+00 1.4019544433e-02 1.5285933574e+00 -2.6476013591e+00 1.5285933574e+00 2.6476013591e+00 
17200 5.0946702773e+00 1.3857272336e-02 1.5281348037e+00 -2.6468071208e+00 1.5281348037e+00 2.6468071208e+00 
17300 5.0946251025e+00 1.3697420569e-02 1.5276814213e+00 -2.6460218395e+00 1.5276814213e+00 2.6460218395e+00 
17400 5.0945808765e+00 1.3539942930e-02 1.5272331358e+00 -2.6452453862e+00 1.5272331358e+00 2.6452453862e+00 
17500 5.0945375767e+00 1.3384794120e-02 1.5267898738e+00 -2.6444776339e+00 1.5267898738e+00 2.6444776339e+00 
17600 5.0944951809e+00 1.3231929729e-02 1.5263515635e+00 -2.6437184583e+00 1.5263515635e+00 2.6437184583e+00 
17700 5.0944536678e+00 1.3081306240e-02 1.5259181344e+00 -2.6429677371e+00 1.5259181344e+00 2.6429677371e+00 
17800 5.0944130164e+00 1.2932881013e-02 1.5254895173e+00 -2.6422253504e+00 1.5254895173e+00 2.6422253504e+00 
17900 5.0943732064e+00 1.2786612283e-02 1.5250656441e+00 -2.6414911805e+00 1.5250656441e+00 2.6414911805e+00 
18000 5.0943342181e+00 1.2642459145e-02 1.5246464482e+00 -2.6407651118e+00 1.5246464482e+00 2.6407651118e+00 
18100 5.0942960322e+00 1.2500381552e-02 1.5242318640e+00 -2.6400470310e+00 1.5242318640e+00 2.6400470310e+00 
18200 5.0942586299e+00 1.2360340297e-02 1.5238218273e+00 -2.6393368265e+00 1.5238218273e+00 2.6393368265e+00 
18300 5.0942219930e+00 1.2222297008e-02 1.5234162749e+00 -2.6386343892e+00 1.5234162749e+00 2.6386343892e+00 
18400 5.0941861037e+00 1.2086214132e-02 1.5230151448e+00 -2.6379396116e+00 1.5230151448e+00 2.6379396116e+00 
18500 5.0941509449e+00 1.1952054927e-02 1.5226183763e+00 -2.6372523883e+00 1.5226183763e+00 2.6372523883e+00 
18600 5.0941164996e+00 1.1819783449e-02 1.5222259096e+00 -2.6365726160e+00 1.5222259096e+00 2.6365726160e+00 
18700 5.0940827514e+00 1.1689364537e-02 1.5218376860e+00 -2.6359001930e+00 1.5218376860e+00 2.6359001930e+00 
18800 5.0940496844e+00 1.1560763805e-02 1.5214536479e+00 -2.6352350195e+00 1.5214536479e+00 2.6352350195e+00 
18900 5.0940172831e+00 1.1433947624e-02 1.5210737388e+00 -2.6345769976e+00 1.5210737388e+00 2.6345769976e+00 
19000 5.0939855323e+00 1.1308883111e-02 1.5206979030e+00 -2.6339260310e+00 1.5206979030e+00 2.6339260310e+00 
19100 5.0939544173e+00 1.1185538116e-02 1.5203260862e+00 -2.6332820254e+00 1.5203260862e+00 2.6332820254e+00 
19200 5.0939239236e+00 1.1063881207e-02 1.5199582346e+00 -2.6326448877e+00 1.5199582346e+00 2.6326448877e+00 
19300 5.0938940374e+00 1.0943881658e-02 1.5195942957e+00 -2.6320145270e+00 1.5195942957e+00 2.6320145270e+00 
19400 5.0938647450e+00 1.0825509434e-02 1.5192342177e+00 -2.6313908536e+00 1.5192342177e+00 2.6313908536e+00 
19500 5.0938360331e+00 1.0708735178e-02 1.5188779498e+00 -2.6307737796e+00 1.5188779498e+00 2.6307737796e+00 
19600 5.0938078888e+00 1.0593530196e-02 1.5185254422e+00 -2.6301632185e+00 1.5185254422e+00 2.6301632185e+00 
19700 5.0937802994e+00 1.0479866443e-02 1.5181766458e+00 -2.6295590854e+00 1.5181766458e+00 2.6295590854e+00 
19800 5.0937532527e+00 1.0367716513e-02 1.5178315124e+00 -2.6289612968e+00 1.5178315124e+00 2.6289612968e+00 
19900 5.0937267366e+00 1.0257053619e-02 1.5174899947e+00 -2.6283697708e+00 1.5174899947e+00 2.6283697708e+00 
20000 5.0937007396e+00 1.0147851586e-02 1.5171520461e+00 -2.6277844266e+00 1.5171520461e+00 2.6277844266e+00 
20100 5.0936752502e+00 1.0040084830e-02 1.5168176208e+00 -2.6272051851e+00 1.5168176208e+00 2.6272051851e+00 
20200 5.0936502573e+00 9.9337283516e-03 1.5164866740e+00 -2.6266319684e+00 1.5164866740e+00 2.6266319684e+00 
20300 5.0936257500e+00 9.8287577188e-03 1.5161591614e+00 -2.6260646999e+00 1.5161591614e+00 2.6260646999e+00 
20400 5.0936017180e+00 9.7251490541e-03 1.5158350395e+00 -2.6255033043e+00 1.5158350395e+00 2.6255033043e+00 
20500 5.0935781507e+00 9.6228790220e-03 1.5155142656e+00 -2.6249477076e+00 1.5155142656e+00 2.6249477076e+00 
20600 5.0935550383e+00 9.5219248160e-03 1.5151967977e+00 -2.6243978371e+00 1.5151967977e+00 2.6243978371e+00 
20700 5.0935323709e+00 9.4222641454e-03 1.5148825944e+00 -2.6238536210e+00 1.5148825944e+00 2.6238536210e+00 
20800 5.0935101389e+00 9.3238752234e-03 1.5145716151e+00 -2.6233149891e+00 1.5145716151e+00 2.6233149891e+00 
20900 5.0934883331e+00 9.2267367539e-03 1.5142638199e+00 -2.6227818721e+00 1.5142638199e+00 2.6227818721e+00 
21000 5.0934669444e+00 9.1308279200e-03 1.5139591693e+00 -2.6222542018e+00 1.5139591693e+00 2.6222542018e+00 
21100 5.0934459638e+00 9.0361283716e-03 1.5136576247e+00 -2.6217319112e+00 1.5136576247e+00 2.6217319112e+00 
21200 5.0934253827e+00 8.9426182136e-03 1.5133591480e+00 -2.6212149344e+00 1.5133591480e+00 2.6212149344e+00 
21300 5.0934051928e+00 8.8502779945e-03 1.5130637017e+00 -2.6207032064e+00 1.5130637017e+00 2.6207032064e+00 
21400 5.0933853856e+00 8.7590886948e-03 1.5127712489e+00 -2.6201966633e+00 1.5127712489e+00 2.6201966633e+00 
21500 5.0933659533e+00 8.6690317160e-03 1.5124817534e+00 -2.6196952424e+00 1.5124817534e+00 2.6196952424e+00 
21600 5.0933468879e+00 8.5800888697e-03 1.5121951794e+00 -2.6191988818e+00 1.5121951794e+00 2.6191988818e+00 
21700 5.0933281817e+00 8.4922423667e-03 1.5119114918e+00 -2.6187075204e+00 1.5119114918e+00 2.6187075204e+00 
21800 5.0933098273e+00 8.4054748067e-03 1.5116306560e+00 -2.6182210984e+00 1.5116306560e+00 2.6182210984e+00 
21900 5.0932918174e+00 8.3197691678e-03 1.5113526378e+00 -2.6177395568e+00 1.5113526378e+00 2.6177395568e+00 
22000 5.0932741448e+00 8.2351087968e-03 1.5110774036e+00 -2.6172628373e+00 1.5110774036e+00 2.6172628373e+00 
22100 5.0932568025e+00 8.1514773991e-03 1.5108049205e+00 -2.6167908827e+00 1.5108049205e+00 2.6167908827e+00 
22200 5.0932397838e+00 8.0688590294e-03 1.5105351559e+00 -2.6163236366e+00 1.5105351559e+00 2.6163236366e+00 
22300 5.0932230819e+00 7.9872380820e-03 1.5102680777e+00 -2.6158610436e+00 1.5102680777e+00 2.6158610436e+00 
22400 5.0932066905e+00 7.9065992820e-03 1.5100036542e+00 -2.6154030488e+00 1.5100036542e+00 2.6154030488e+00 
22500 5.0931906031e+00 7.8269276762e-03 1.5097418545e+00 -2.6149495983e+00 1.5097418545e+00 2.6149495983e+00 
22600 5.0931748135e+00 7.7482086245e-03 1.5094826478e+00 -2.6145006392e+00 1.5094826478e+00 2.6145006392e+00 
22700 5.0931593157e+00 7.6704277914e-03 1.5092260040e+00 -2.6140561190e+00 1.5092260040e+00 2.6140561190e+00 
22800 5.0931441037e+00 7.5935711378e-03 1.5089718932e+00 -2.6136159862e+00 1.5089718932e+00 2.6136159862e+00 
22900 5.0931291718e+00 7.5176249129e-03 1.5087202861e+00 -2.6131801899e+00 1.5087202861e+00 2.6131801899e+00 
23000 5.0931145143e+00 7.4425756466e-03 1.5084711538e+00 -2.6127486802e+00 1.5084711538e+00 2.6127486802e+00 
23100 5.0931001257e+00 7.3684101415e-03 1.5082244679e+00 -2.6123214076e+00 1.5082244679e+00 2.6123214076e+00 
23200 5.0930860006e+00 7.2951154659e-03 1.5079802002e+00 -2.6118983235e+00 1.5079802002e+00 2.6118983235e+00 
23300 5.0930721337e+00 7.2226789465e-03 1.5077383230e+00 -2.6114793799e+00 1.5077383230e+00 2.6114793799e+00 
23400 5.0930585198e+00 7.1510881612e-03 1.5074988090e+00 -2.6110645295e+00 1.5074988090e+00 2.6110645295e+00 
23500 5.0930451539e+00 7.0803309326e-03 1.5072616313e+00 -2.6106537258e+00 1.5072616313e+00 2.6106537258e+00 
23600 5.0930320311e+00 7.0103953212e-03 1.5070267635e+00 -2.6102469227e+00 1.5070267635e+00 2.6102469227e+00 
23700 5.0930191465e+00 6.9412696190e-03 1.5067941792e+00 -2.6098440749e+00 1.5067941792e+00 2.6098440749e+00 
23800 5.0930064954e+00 6.8729423435e-03 1.5065638527e+00 -2.6094451377e+00 1.5065638527e+00 2.6094451377e+00 
23900 5.0929940732e+00 6.8054022314e-03 1.5063357585e+00 -2.6090500670e+00 1.5063357585e+00 2.6090500670e+00 
24000 5.0929818754e+00 6.7386382328e-03 1.5061098715e+00 -2.6086588193e+00 1.5061098715e+00 2.6086588193e+00 
24100 5.0929698976e+00 6.6726395055e-03 1.5058861670e+00 -2.6082713517e+00 1.5058861670e+00 2.6082713517e+00 
24200 5.0929581354e+00 6.6073954098e-03 1.5056646205e+00 -2.6078876219e+00 1.5056646205e+00 2.6078876219e+00 
24300 5.0929465846e+00 6.5428955024e-03 1.5054452080e+00 -2.6075075882e+00 1.5054452080e+00 2.6075075882e+00 
24400 5.0929352411e+00 6.4791295322e-03 1.5052279055e+00 -2.6071312094e+00 1.5052279055e+00 2.6071312094e+00 
24500 5.0929241008e+00 6.4160874344e-03 1.5050126898e+00 -2.6067584447e+00 1.5050126898e+00 2.6067584447e+00 
24600 5.0929131599e+00 6.3537593262e-03 1.5047995376e+00 -2.6063892543e+00 1.5047995376e+00 2.6063892543e+00 
24700 5.0929024144e+00 6.2921355017e-03 1.5045884260e+00 -2.6060235984e+00 1.5045884260e+00 2.6060235984e+00 
24800 5.0928918605e+00 6.2312064277e-03 1.5043793326e+00 -2.6056614380e+00 1.5043793326e+00 2.6056614380e+00 
24900 5.0928814945e+00 6.1709627389e-03 1.5041722352e+00 -2.6053027346e+00 1.5041722352e+00 2.6053027346e+00 
25000 5.0928713129e+00 6.1113952338e-03 1.5039671116e+00 -2.6049474502e+00 1.5039671116e+00 2.6049474502e+00 
25100 5.0928613120e+00 6.0524948705e-03 1.5037639404e+00 -2.6045955473e+00 1.5037639404e+00 2.6045955473e+00 
25200 5.0928514884e+00 5.9942527630e-03 1.5035627000e+00 -2.6042469888e+00 1.5035627000e+00 2.6042469888e+00 
25300 5.0928418386e+00 5.9366601765e-03 1.5033633694e+00 -2.6039017381e+00 1.5033633694e+00 2.6039017381e+00 
25400 5.0928323594e+00 5.8797085246e-03 1.5031659278e+00 -2.6035597592e+00 1.5031659278e+00 2.6035597592e+00 
25500 5.0928230475e+00 5.8233893649e-03 1.5029703546e+00 -2.6032210164e+00 1.5029703546e+00 2.6032210164e+00 
25600 5.0928138997e+00 5.7676943959e-03 1.5027766294e+00 -2.6028854745e+00 1.5027766294e+00 2.6028854745e+00 
25700 5.0928049129e+00 5.7126154534e-03 1.5025847322e+00 -2.6025530989e+00 1.5025847322e+00 2.6025530989e+00 
25800 5.0927960840e+00 5.6581445072e-03 1.5023946433e+00 -2.6022238551e+00 1.5023946433e+00 2.6022238551e+00 
25900 5.0927874100e+00 5.6042736581e-03 1.5022063430e+00 -2.6018977095e+00 1.5022063430e+00 2.6018977095e+00 
26000 5.0927788880e+00 5.5509951345e-03 1.5020198121e+00 -2.6015746285e+00 1.5020198121e+00 2.6015746285e+00 
26100 5.0927705152e+00 5.4983012896e-03 1.5018350315e+00 -2.6012545792e+00 1.5018350315e+00 2.6012545792e+00 
26200 5.0927622886e+00 5.4461845984e-03 1.5016519825e+00 -2.6009375290e+00 1.5016519825e+00 2.6009375290e+00 
26300 5.0927542057e+00 5.3946376550e-03 1.5014706464e+00 -2.6006234456e+00 1.5014706464e+00 2.6006234456e+00 
26400 5.0927462636e+00 5.3436531698e-03 1.5012910048e+00 -2.6003122973e+00 1.5012910048e+00 2.6003122973e+00 
26500 5.0927384597e+00 5.2932239671e-03 1.5011130397e+00 -2.6000040527e+00 1.5011130397e+00 2.6000040527e+00 
26600 5.0927307914e+00 5.2433429822e-03 1.5009367332e+00 -2.5996986809e+00 1.5009367332e+00 2.5996986809e+00 
26700 5.0927232563e+00 5.1940032590e-03 1.5007620676e+00 -2.5993961511e+00 1.5007620676e+00 2.5993961511e+00 
26800 5.0927158518e+00 5.1451979480e-03 1.5005890254e+00 -2.5990964332e+00 1.5005890254e+00 2.5990964332e+00 
26900 5.0927085754e+00 5.0969203037e-03 1.5004175894e+00 -2.5987994974e+00 1.5004175894e+00 2.5987994974e+00 
27000 5.0927014249e+00 5.0491636823e-03 1.5002477425e+00 -2.5985053140e+00 1.5002477425e+00 2.5985053140e+00 
27100 5.0926943979e+00 5.0019215396e-03 1.5000794680e+00 -2.5982138540e+00 1.5000794680e+00 2.5982138540e+00 
27200 5.0926874920e+00 4.9551874293e-03 1.4999127492e+00 -2.5979250885e+00 1.4999127492e+00 2.5979250885e+00 
27300 5.0926807051e+00 4.9089550004e-03 1.4997475697e+00 -2.5976389893e+00 1.4997475697e+00 2.5976389893e+00 
27400 5.0926740350e+00 4.8632179954e-03 1.4995839133e+00 -2.5973555281e+00 1.4995839133e+00 2.5973555281e+00 
27500 5.0926674794e+00 4.8179702489e-03 1.4994217640e+00 -2.5970746772e+00 1.4994217640e+00 2.5970746772e+00 
27600 5.0926610364e+00 4.7732056849e-03 1.4992611059e+00 -2.5967964093e+00 1.4992611059e+00 2.5967964093e+00 
27700 5.0926547037e+00 4.7289183158e-03 1.4991019235e+00 -2.5965206972e+00 1.4991019235e+00 2.5965206972e+00 
27800 5.0926484795e+00 4.6851022404e-03 1.4989442012e+00 -2.5962475142e+00 1.4989442012e+00 2.5962475142e+00 
27900 5.0926423618e+00 4.6417516420e-03 1.4987879238e+00 -2.5959768338e+00 1.4987879238e+00 2.5959768338e+00 
28000 5.0926363485e+00 4.5988607871e-03 1.4986330763e+00 -2.5957086301e+00 1.4986330763e+00 2.5957086301e+00 
28100 5.0926304377e+00 4.5564240238e-03 1.4984796438e+00 -2.5954428771e+00 1.4984796438e+00 2.5954428771e+00 
28200 5.0926246277e+00 4.5144357800e-03 1.4983276114e+00 -2.5951795494e+00 1.4983276114e+00 2.5951795494e+00 
28300 5.0926189166e+00 4.4728905623e-03 1.4981769648e+00 -2.5949186218e+00 1.4981769648e+00 2.5949186218e+00 
28400 5.0926133025e+00 4.4317829542e-03 1.4980276895e+00 -2.5946600694e+00 1.4980276895e+00 2.5946600694e+00 
28500 5.0926077838e+00 4.3911076152e-03 1.4978797713e+00 -2.5944038676e+00 1.4978797713e+00 2.5944038676e+00 
28600 5.0926023587e+00 4.3508592790e-03 1.4977331963e+00 -2.5941499922e+00 1.4977331963e+00 2.5941499922e+00 
28700 5.0925970254e+00 4.3110327522e-03 1.4975879505e+00 -2.5938984191e+00 1.4975879505e+00 2.5938984191e+00 
28800 5.0925917825e+00 4.2716229133e-03 1.4974440203e+00 -2.5936491246e+00 1.4974440203e+00 2.5936491246e+00 
28900 5.0925866281e+00 4.2326247114e-03 1.4973013921e+00 -2.5934020853e+00 1.4973013921e+00 2.5934020853e+00 
29000 5.0925815608e+00 4.1940331649e-03 1.4971600525e+00 -2.5931572780e+00 1.4971600525e+00 2.5931572780e+00 
29100 5.0925765790e+00 4.1558433603e-03 1.4970199884e+00 -2.5929146798e+00 1.4970199884e+00 2.5929146798e+00 
29200 5.0925716811e+00 4.1180504512e-03 1.4968811867e+00 -2.5926742682e+00 1.4968811867e+00 2.5926742682e+00 
29300 5.0925668656e+00 4.0806496570e-03 1.4967436344e+00 -2.5924360207e+00 1.4967436344e+00 2.5924360207e+00 
29400 5.0925621311e+00 4.0436362621e-03 1.4966073189e+00 -2.5921999153e+00 1.4966073189e+00 2.5921999153e+00 
29500 5.0925574761e+00 4.0070056146e-03 1.4964722275e+00 -2.5919659302e+00 1.4964722275e+00 2.5919659302e+00 
29600 5.0925528992e+00 3.9707531255e-03 1.4963383478e+00 -2.5917340437e+00 1.4963383478e+00 2.5917340437e+00 
29700 5.0925483990e+00 3.9348742674e-03 1.4962056674e+00 -2.5915042345e+00 1.4962056674e+00 2.5915042345e+00 
29800 5.0925439742e+00 3.8993645738e-03 1.4960741742e+00 -2.5912764817e+00 1.4960741742e+00 2.5912764817e+00 
29900 5.0925396234e+00 3.8642196381e-03 1.4959438562e+00 -2.5910507643e+00 1.4959438562e+00 2.5910507643e+00 
30000 5.0925353453e+00 3.8294351127e-03 1.4958147015e+00 -2.5908270617e+00 1.4958147015e+00 2.5908270617e+00 
30100 5.0925311386e+00 3.7950067077e-03 1.4956866984e+00 -2.5906053538e+00 1.4956866984e+00 2.5906053538e+00 
30200 5.0925270020e+00 3.7609301909e-03 1.4955598351e+00 -2.5903856202e+00 1.4955598351e+00 2.5903856202e+00 
30300 5.0925229344e+00 3.7272013858e-03 1.4954341003e+00 -2.5901678412e+00 1.4954341003e+00 2.5901678412e+00 
30400 5.0925189345e+00 3.6938161720e-03 1.4953094827e+00 -2.5899519971e+00 1.4953094827e+00 2.5899519971e+00 
30500 5.0925150011e+00 3.6607704831e-03 1.4951859710e+00 -2.5897380685e+00 1.4951859710e+00 2.5897380685e+00 
30600 5.0925111330e+00 3.6280603070e-03 1.4950635541e+00 -2.5895260362e+00 1.4950635541e+00 2.5895260362e+00 
30700 5.0925073291e+00 3.5956816845e-03 1.4949422211e+00 -2.5893158813e+00 1.4949422211e+00 2.5893158813e+00 
30800 5.0925035883e+00 3.5636307086e-03 1.4948219611e+00 -2.5891075849e+00 1.4948219611e+00 2.5891075849e+00 
30900 5.0924999094e+00 3.5319035239e-03 1.4947027635e+00 -2.5889011286e+00 1.4947027635e+00 2.5889011286e+00 
31000 5.0924962915e+00 3.5004963259e-03 1.4945846177e+00 -2.5886964941e+00 1.4945846177e+00 2.5886964941e+00 
31100 5.0924927334e+00 3.4694053599e-03 1.4944675133e+00 -2.5884936632e+00 1.4944675133e+00 2.5884936632e+00 
31200 5.0924892340e+00 3.4386269208e-03 1.4943514398e+00 -2.5882926181e+00 1.4943514398e+00 2.5882926181e+00 
31300 5.0924857924e+00 3.4081573521e-03 1.4942363871e+00 -2.5880933410e+00 1.4942363871e+00 2.5880933410e+00 
31400 5.0924824076e+00 3.3779930452e-03 1.4941223451e+00 -2.5878958145e+00 1.4941223451e+00 2.5878958145e+00 
31500 5.0924790785e+00 3.3481304389e-03 1.4940093038e+00 -2.5877000212e+00 1.4940093038e+00 2.5877000212e+00 
31600 5.0924758042e+00 3.3185660187e-03 1.4938972534e+00 -2.5875059441e+00 1.4938972534e+00 2.5875059441e+00 
31700 5.0924725838e+00 3.2892963159e-03 1.4937861840e+00 -2.5873135663e+00 1.4937861840e+00 2.5873135663e+00 
31800 5.0924694163e+00 3.2603179074e-03 1.4936760860e+00 -2.5871228711e+00 1.4936760860e+00 2.5871228711e+00 
31900 5.0924663008e+00 3.2316274147e-03 1.4935669500e+00 -2.5869338419e+00 1.4935669500e+00 2.5869338419e+00 
32000 5.0924632364e+00 3.2032215037e-03 1.4934587664e+00 -2.5867464624e+00 1.4934587664e+00 2.5867464624e+00 
32100 5.0924602223e+00 3.1750968835e-03 1.4933515260e+00 -2.5865607166e+00 1.4933515260e+00 2.5865607166e+00 
32200 5.0924572575e+00 3.1472503064e-03 1.4932452195e+00 -2.5863765883e+00 1.4932452195e+00 2.5863765883e+00 
32300 5.0924543412e+00 3.1196785668e-03 1.4931398378e+00 -2.5861940619e+00 1.4931398378e+00 2.5861940619e+00 
32400 5.0924514726e+00 3.0923785013e-03 1.4930353720e+00 -2.5860131218e+00 1.4930353720e+00 2.5860131218e+00 
32500 5.0924486509e+00 3.0653469874e-03 1.4929318131e+00 -2.5858337525e+00 1.4929318131e+00 2.5858337525e+00 
32600 5.0924458753e+00 3.0385809433e-03 1.4928291522e+00 -2.5856559387e+00 1.4928291522e+00 2.5856559387e+00 
32700 5.0924431449e+00 3.0120773276e-03 1.4927273808e+00 -2.5854796655e+00 1.4927273808e+00 2.5854796655e+00 
32800 5.0924404590e+00 2.9858331380e-03 1.4926264902e+00 -2.5853049178e+00 1.4926264902e+00 2.5853049178e+00 
32900 5.0924378169e+00 2.9598454118e-03 1.4925264719e+00 -2.5851316810e+00 1.4925264719e+00 2.5851316810e+00 
33000 5.0924352177e+00 2.9341112245e-03 1.4924273175e+00 -2.5849599405e+00 1.4924273175e+00 2.5849599405e+00 
33100 5.0924326609e+00 2.9086276896e-03 1.4923290186e+00 -2.5847896818e+00 1.4923290186e+00 2.5847896818e+00 
33200 5.0924301455e+00 2.8833919583e-03 1.4922315670e+00 -2.5846208907e+00 1.4922315670e+00 2.5846208907e+00 
33300 5.0924276710e+00 2.8584012187e-03 1.4921349546e+00 -2.5844535532e+00 1.4921349546e+00 2.5844535532e+00 
33400 5.0924252367e+00 2.8336526954e-03 1.4920391734e+00 -2.5842876552e+00 1.4920391734e+00 2.5842876552e+00 
33500 5.0924228418e+00 2.8091436491e-03 1.4919442154e+00 -2.5841231830e+00 1.4919442154e+00 2.5841231830e+00 
33600 5.0924204858e+00 2.7848713758e-03 1.4918500726e+00 -2.5839601231e+00 1.4918500726e+00 2.5839601231e+00 
33700 5.0924181678e+00 2.7608332070e-03 1.4917567374e+00 -2.5837984618e+00 1.4917567374e+00 2.5837984618e+00 
33800 5.0924158874e+00 2.7370265084e-03 1.4916642021e+00 -2.5836381858e+00 1.4916642021e+00 2.5836381858e+00 
33900 5.0924136438e+00 2.7134486799e-03 1.4915724590e+00 -2.5834792821e+00 1.4915724590e+00 2.5834792821e+00 
34000 5.0924114365e+00 2.6900971554e-03 1.4914815005e+00 -2.5833217375e+00 1.4914815005e+00 2.5833217375e+00 
34100 5.0924092648e+00 2.6669694015e-03 1.4913913194e+00 -2.5831655392e+00 1.4913913194e+00 2.5831655392e+00 
34200 5.0924071281e+00 2.6440629180e-03 1.4913019082e+00 -2.5830106744e+00 1.4913019082e+00 2.5830106744e+00 
34300 5.0924050259e+00 2.6213752369e-03 1.4912132596e+00 -2.5828571305e+00 1.4912132596e+00 2.5828571305e+00 
34400 5.0924029576e+00 2.5989039221e-03 1.4911253664e+00 -2.5827048950e+00 1.4911253664e+00 2.5827048950e+00 
34500 5.0924009225e+00 2.5766465689e-03 1.4910382215e+00 -2.5825539557e+00 1.4910382215e+00 2.5825539557e+00 
34600 5.0923989202e+00 2.5546008038e-03 1.4909518179e+00 -2.5824043003e+00 1.4909518179e+00 2.5824043003e+00 
34700 5.0923969501e+00 2.5327642838e-03 1.4908661486e+00 -2.5822559167e+00 1.4908661486e+00 2.5822559167e+00 
34800 5.0923950116e+00 2.5111346962e-03 1.4907812067e+00 -2.5821087930e+00 1.4907812067e+00 2.5821087930e+00 
34900 5.0923931042e+00 2.4897097580e-03 1.4906969854e+00 -2.5819629174e+00 1.4906969854e+00 2.5819629174e+00 
35000 5.0923912275e+00 2.4684872158e-03 1.4906134779e+00 -2.5818182782e+00 1.4906134779e+00 2.5818182782e+00 
35100 5.0923893808e+00 2.4474648450e-03 1.4905306776e+00 -2.5816748639e+00 1.4905306776e+00 2.5816748639e+00 
35200 5.0923875638e+00 2.4266404498e-03 1.4904485779e+00 -2.5815326630e+00 1.4904485779e+00 2.5815326630e+00 
35300 5.0923857758e+00 2.4060118625e-03 1.4903671723e+00 -2.5813916643e+00 1.4903671723e+00 2.5813916643e+00 
35400 5.0923840165e+00 2.3855769431e-03 1.4902864543e+00 -2.5812518566e+00 1.4902864543e+00 2.5812518566e+00 
35500 5.0923822853e+00 2.3653335795e-03 1.4902064174e+00 -2.5811132288e+00 1.4902064174e+00 2.5811132288e+00 
35600 5.0923805818e+00 2.3452796862e-03 1.4901270555e+00 -2.5809757699e+00 1.4901270555e+00 2.5809757699e+00 
35700 5.0923789055e+00 2.3254132047e-03 1.4900483623e+00 -2.5808394692e+00 1.4900483623e+00 2.5808394692e+00 
35800 5.0923772559e+00 2.3057321028e-03 1.4899703315e+00 -2.5807043159e+00 1.4899703315e+00 2.5807043159e+00 
35900 5.0923756327e+00 2.2862343742e-03 1.4898929571e+00 -2.5805702995e+00 1.4898929571e+00 2.5805702995e+00 
36000 5.0923740354e+00 2.2669180383e-03 1.4898162329e+00 -2.5804374094e+00 1.4898162329e+00 2.5804374094e+00 
36100 5.0923724635e+00 2.2477811397e-03 1.4897401531e+00 -2.5803056353e+00 1.4897401531e+00 2.5803056353e+00 
36200 5.0923709167e+00 2.2288217480e-03 1.4896647117e+00 -2.5801749669e+00 1.4896647117e+00 2.5801749669e+00 
36300 5.0923693945e+00 2.2100379575e-03 1.4895899028e+00 -2.5800453941e+00 1.4895899028e+00 2.5800453941e+00 
36400 5.0923678965e+00 2.1914278864e-03 1.4895157207e+00 -2.5799169069e+00 1.4895157207e+00 2.5799169069e+00 
36500 5.0923664223e+00 2.1729896771e-03 1.4894421595e+00 -2.5797894952e+00 1.4894421595e+00 2.5797894952e+00 
36600 5.0923649716e+00 2.1547214954e-03 1.4893692137e+00 -2.5796631493e+00 1.4893692137e+00 2.5796631493e+00 
36700 5.0923635439e+00 2.1366215306e-03 1.4892968776e+00 -2.5795378595e+00 1.4892968776e+00 2.5795378595e+00 
36800 5.0923621388e+00 2.1186879945e-03 1.4892251456e+00 -2.5794136160e+00 1.4892251456e+00 2.5794136160e+00 
36900 5.0923607561e+00 2.1009191219e-03 1.4891540122e+00 -2.5792904095e+00 1.4891540122e+00 2.5792904095e+00 
37000 5.0923593953e+00 2.0833131696e-03 1.4890834721e+00 -2.5791682304e+00 1.4890834721e+00 2.5791682304e+00 
37100 5.0923580560e+00 2.0658684166e-03 1.4890135198e+00 -2.5790470694e+00 1.4890135198e+00 2.5790470694e+00 
37200 5.0923567380e+00 2.0485831635e-03 1.4889441499e+00 -2.5789269173e+00 1.4889441499e+00 2.5789269173e+00 
37300 5.0923554408e+00 2.0314557320e-03 1.4888753573e+00 -2.5788077650e+00 1.4888753573e+00 2.5788077650e+00 
37400 5.0923541642e+00 2.0144844653e-03 1.4888071367e+00 -2.5786896034e+00 1.4888071367e+00 2.5786896034e+00 
37500 5.0923529078e+00 1.9976677270e-03 1.4887394829e+00 -2.5785724236e+00 1.4887394829e+00 2.5785724236e+00 
37600 5.0923516712e+00 1.9810039014e-03 1.4886723908e+00 -2.5784562167e+00 1.4886723908e+00 2.5784562167e+00 
37700 5.0923504541e+00 1.9644913929e-03 1.4886058554e+00 -2.5783409740e+00 1.4886058554e+00 2.5783409740e+00 
37800 5.0923492563e+00 1.9481286257e-03 1.4885398716e+00 -2.5782266867e+00 1.4885398716e+00 2.5782266867e+00 
37900 5.0923480774e+00 1.9319140437e-03 1.4884744345e+00 -2.5781133463e+00 1.4884744345e+00 2.5781133463e+00 
38000 5.0923469171e+00 1.9158461102e-03 1.4884095392e+00 -2.5780009444e+00 1.4884095392e+00 2.5780009444e+00 
38100 5.0923457751e+00 1.8999233075e-03 1.4883451808e+00 -2.5778894724e+00 1.4883451808e+00 2.5778894724e+00 
38200 5.0923446511e+00 1.8841441368e-03 1.4882813546e+00 -2.5777789221e+00 1.4882813546e+00 2.5777789221e+00 
38300 5.0923435448e+00 1.8685071175e-03 1.4882180557e+00 -2.5776692852e+00 1.4882180557e+00 2.5776692852e+00 
38400 5.0923424559e+00 1.8530107877e-03 1.4881552795e+00 -2.5775605536e+00 1.4881552795e+00 2.5775605536e+00 
38500 5.0923413841e+00 1.8376537032e-03 1.4880930213e+00 -2.5774527192e+00 1.4880930213e+00 2.5774527192e+00 
38600 5.0923403292e+00 1.8224344376e-03 1.4880312765e+00 -2.5773457741e+00 1.4880312765e+00 2.5773457741e+00 
38700 5.0923392909e+00 1.8073515821e-03 1.4879700404e+00 -2.5772397102e+00 1.4879700404e+00 2.5772397102e+00 
38800 5.0923382690e+00 1.7924037451e-03 1.4879093087e+00 -2.5771345198e+00 1.4879093087e+00 2.5771345198e+00 
38900 5.0923372630e+00 1.7775895520e-03 1.4878490768e+00 -2.5770301951e+00 1.4878490768e+00 2.5770301951e+00 
39000 5.0923362729e+00 1.7629076449e-03 1.4877893404e+00 -2.5769267285e+00 1.4877893404e+00 2.5769267285e+00 
39100 5.0923352983e+00 1.7483566825e-03 1.4877300949e+00 -2.5768241123e+00 1.4877300949e+00 2.5768241123e+00 
39200 5.0923343390e+00 1.7339353398e-03 1.4876713361e+00 -2.5767223390e+00 1.4876713361e+00 2.5767223390e+00 
39300 5.0923333948e+00 1.7196423076e-03 1.4876130596e+00 -2.5766214012e+00 1.4876130596e+00 2.5766214012e+00 
39400 5.0923324653e+00 1.7054762930e-03 1.4875552613e+00 -2.5765212916e+00 1.4875552613e+00 2.5765212916e+00 
39500 5.0923315505e+00 1.6914360182e-03 1.4874979368e+00 -2.5764220028e+00 1.4874979368e+00 2.5764220028e+00 
39600 5.0923306499e+00 1.6775202211e-03 1.4874410821e+00 -2.5763235275e+00 1.4874410821e+00 2.5763235275e+00 
39700 5.0923297634e+00 1.6637276546e-03 1.4873846930e+00 -2.5762258587e+00 1.4873846930e+00 2.5762258587e+00 
39800 5.0923288909e+00 1.6500570867e-03 1.4873287654e+00 -2.5761289893e+00 1.4873287654e+00 2.5761289893e+00 
39900 5.0923280319e+00 1.6365072999e-03 1.4872732953e+00 -2.5760329121e+00 1.4872732953e+00 2.5760329121e+00 
40000 5.0923271864e+00 1.6230770914e-03 1.4872182786e+00 -2.5759376204e+00 1.4872182786e+00 2.5759376204e+00 
40100 5.0923263541e+00 1.6097652726e-03 1.4871637114e+00 -2.5758431072e+00 1.4871637114e+00 2.5758431072e+00 
40200 5.0923255349e+00 1.5965706692e-03 1.4871095897e+00 -2.5757493658e+00 1.4871095897e+00 2.5757493658e+00 
40300 5.0923247284e+00 1.5834921204e-03 1.4870559097e+00 -2.5756563893e+00 1.4870559097e+00 2.5756563893e+00 
40400 5.0923239345e+00 1.5705284795e-03 1.4870026675e+00 -2.5755641711e+00 1.4870026675e+00 2.5755641711e+00 
40500 5.0923231530e+00 1.5576786132e-03 1.4869498593e+00 -2.5754727046e+00 1.4869498593e+00 2.5754727046e+00 
40600 5.0923223836e+00 1.5449414015e-03 1.4868974813e+00 -2.5753819832e+00 1.4868974813e+00 2.5753819832e+00 
40700 5.0923216263e+00 1.5323157374e-03 1.4868455297e+00 -2.5752920005e+00 1.4868455297e+00 2.5752920005e+00 
40800 5.0923208808e+00 1.5198005271e-03 1.4867940009e+00 -2.5752027500e+00 1.4867940009e+00 2.5752027500e+00 
40900 5.0923201469e+00 1.5073946894e-03 1.4867428912e+00 -2.5751142254e+00 1.4867428912e+00 2.5751142254e+00 
41000 5.0923194244e+00 1.4950971557e-03 1.4866921970e+00 -2.5750264204e+00 1.4866921970e+00 2.5750264204e+00 
41100 5.0923187132e+00 1.4829068698e-03 1.4866419146e+00 -2.5749393287e+00 1.4866419146e+00 2.5749393287e+00 
41200 5.0923180131e+00 1.4708227878e-03 1.4865920405e+00 -2.5748529443e+00 1.4865920405e+00 2.5748529443e+00 
41300 5.0923173238e+00 1.4588438777e-03 1.4865425712e+00 -2.5747672609e+00 1.4865425712e+00 2.5747672609e+00 
41400 5.0923166453e+00 1.4469691196e-03 1.4864935031e+00 -2.5746822724e+00 1.4864935031e+00 2.5746822724e+00 
41500 5.0923159773e+00 1.4351975051e-03 1.4864448328e+00 -2.5745979730e+00 1.4864448328e+00 2.5745979730e+00 
41600 5.0923153197e+00 1.4235280375e-03 1.4863965569e+00 -2.5745143567e+00 1.4863965569e+00 2.5745143567e+00 
41700 5.0923146723e+00 1.4119597314e-03 1.4863486719e+00 -2.5744314175e+00 1.4863486719e+00 2.5744314175e+00 
41800 5.0923140350e+00 1.4004916127e-03 1.4863011746e+00 -2.5743491497e+00 1.4863011746e+00 2.5743491497e+00 
41900 5.0923134075e+00 1.3891227184e-03 1.4862540615e+00 -2.5742675475e+00 1.4862540615e+00 2.5742675475e+00 
42000 5.0923127898e+00 1.3778520964e-03 1.4862073294e+00 -2.5741866051e+00 1.4862073294e+00 2.5741866051e+00 
42100 5.0923121817e+00 1.3666788052e-03 1.4861609750e+00 -2.5741063170e+00 1.4861609750e+00 2.5741063170e+00 
42200 5.0923115830e+00 1.3556019142e-03 1.4861149951e+00 -2.5740266774e+00 1.4861149951e+00 2.5740266774e+00 
42300 5.0923109936e+00 1.3446205030e-03 1.4860693864e+00 -2.5739476808e+00 1.4860693864e+00 2.5739476808e+00 
42400 5.0923104134e+00 1.3337336617e-03 1.4860241458e+00 -2.5738693218e+00 1.4860241458e+00 2.5738693218e+00 
42500 5.0923098421e+00 1.3229404905e-03 1.4859792701e+00 -2.5737915948e+00 1.4859792701e+00 2.5737915948e+00 
42600 5.0923092796e+00 1.3122400998e-03 1.4859347562e+00 -2.5737144945e+00 1.4859347562e+00 2.5737144945e+00 
42700 5.0923087259e+00 1.3016316096e-03 1.4858906011e+00 -2.5736380156e+00 1.4858906011e+00 2.5736380156e+00 
42800 5.0923081808e+00 1.2911141500e-03 1.4858468016e+00 -2.5735621526e+00 1.4858468016e+00 2.5735621526e+00 
42900 5.0923076441e+00 1.2806868606e-03 1.4858033547e+00 -2.5734869004e+00 1.4858033547e+00 2.5734869004e+00 
43000 5.0923071157e+00 1.2703488903e-03 1.4857602575e+00 -2.5734122538e+00 1.4857602575e+00 2.5734122538e+00 
43100 5.0923065954e+00 1.2600993977e-03 1.4857175069e+00 -2.5733382076e+00 1.4857175069e+00 2.5733382076e+00 
43200 5.0923060832e+00 1.2499375504e-03 1.4856751000e+00 -2.5732647567e+00 1.4856751000e+00 2.5732647567e+00 
43300 5.0923055790e+00 1.2398625254e-03 1.4856330339e+00 -2.5731918960e+00 1.4856330339e+00 2.5731918960e+00 
43400 5.0923050825e+00 1.2298735083e-03 1.4855913056e+00 -2.5731196206e+00 1.4855913056e+00 2.5731196206e+00 
43500 5.0923045937e+00 1.2199696939e-03 1.4855499124e+00 -2.5730479255e+00 1.4855499124e+00 2.5730479255e+00 
43600 5.0923041124e+00 1.2101502856e-03 1.4855088514e+00 -2.5729768057e+00 1.4855088514e+00 2.5729768057e+00 
43700 5.0923036386e+00 1.2004144955e-03 1.4854681197e+00 -2.5729062564e+00 1.4854681197e+00 2.5729062564e+00 
43800 5.0923031721e+00 1.1907615442e-03 1.4854277147e+00 -2.5728362728e+00 1.4854277147e+00 2.5728362728e+00 
43900 5.0923027127e+00 1.1811906606e-03 1.4853876334e+00 -2.5727668500e+00 1.4853876334e+00 2.5727668500e+00 
44000 5.0923022605e+00 1.1717010822e-03 1.4853478732e+00 -2.5726979833e+00 1.4853478732e+00 2.5726979833e+00 
44100 5.0923018152e+00 1.1622920544e-03 1.4853084314e+00 -2.5726296681e+00 1.4853084314e+00 2.5726296681e+00 
44200 5.0923013768e+00 1.1529628306e-03 1.4852693053e+00 -2.5725618997e+00 1.4852693053e+00 2.5725618997e+00 
44300 5.0923009452e+00 1.1437126726e-03 1.4852304922e+00 -2.5724946735e+00 1.4852304922e+00 2.5724946735e+00 
44400 5.0923005202e+00 1.1345408496e-03 1.4851919895e+00 -2.5724279848e+00 1.4851919895e+00 2.5724279848e+00 
44500 5.0923001017e+00 1.1254466388e-03 1.4851537946e+00 -2.5723618293e+00 1.4851537946e+00 2.5723618293e+00 
44600 5.0922996897e+00 1.1164293250e-03 1.4851159048e+00 -2.5722962023e+00 1.4851159048e+00 2.5722962023e+00 
44700 5.0922992841e+00 1.1074882006e-03 1.4850783177e+00 -2.5722310995e+00 1.4850783177e+00 2.5722310995e+00 
44800 5.0922988846e+00 1.0986225655e-03 1.4850410307e+00 -2.5721665165e+00 1.4850410307e+00 2.5721665165e+00 
44900 5.0922984914e+00 1.0898317268e-03 1.4850040412e+00 -2.5721024488e+00 1.4850040412e+00 2.5721024488e+00 
45000 5.0922981041e+00 1.0811149989e-03 1.4849673468e+00 -2.5720388922e+00 1.4849673468e+00 2.5720388922e+00 
45100 5.0922977229e+00 1.0724717036e-03 1.4849309450e+00 -2.5719758424e+00 1.4849309450e+00 2.5719758424e+00 
45200 5.0922973475e+00 1.0639011696e-03 1.4848948333e+00 -2.5719132951e+00 1.4848948333e+00 2.5719132951e+00 
45300 5.0922969778e+00 1.0554027325e-03 1.4848590093e+00 -2.5718512462e+00 1.4848590093e+00 2.5718512462e+00 
45400 5.0922966139e+00 1.0469757350e-03 1.4848234706e+00 -2.5717896914e+00 1.4848234706e+00 2.5717896914e+00 
45500 5.0922962555e+00 1.0386195265e-03 1.4847882148e+00 -2.5717286266e+00 1.4847882148e+00 2.5717286266e+00 
45600 5.0922959027e+00 1.0303334632e-03 1.4847532396e+00 -2.5716680478e+00 1.4847532396e+00 2.5716680478e+00 
45700 5.0922955552e+00 1.0221169079e-03 1.4847185426e+00 -2.5716079508e+00 1.4847185426e+00 2.5716079508e+00 
45800 5.0922952131e+00 1.0139692299e-03 1.4846841215e+00 -2.5715483317e+00 1.4846841215e+00 2.5715483317e+00 
45900 5.0922948763e+00 1.0058898052e-03 1.4846499740e+00 -2.5714891865e+00 1.4846499740e+00 2.5714891865e+00 
46000 5.0922945446e+00 9.9787801582e-04 1.4846160978e+00 -2.5714305112e+00 1.4846160978e+00 2.5714305112e+00 
46100 5.0922942180e+00 9.8993325048e-04 1.4845824907e+00 -2.5713723019e+00 1.4845824907e+00 2.5713723019e+00 
46200 5.0922938964e+00 9.8205490392e-04 1.4845491503e+00 -2.5713145547e+00 1.4845491503e+00 2.5713145547e+00 
46300 5.0922935797e+00 9.7424237710e-04 1.4845160746e+00 -2.5712572659e+00 1.4845160746e+00 2.5712572659e+00 
46400 5.0922932679e+00 9.6649507706e-04 1.4844832613e+00 -2.5712004315e+00 1.4844832613e+00 2.5712004315e+00 
46500 5.0922929609e+00 9.5881241685e-04 1.4844507081e+00 -2.5711440478e+00 1.4844507081e+00 2.5711440478e+00 
46600 5.0922926586e+00 9.5119381546e-04 1.4844184131e+00 -2.5710881111e+00 1.4844184131e+00 2.5710881111e+00 
46700 5.0922923609e+00 9.4363869773e-04 1.4843863739e+00 -2.5710326177e+00 1.4843863739e+00 2.5710326177e+00 
46800 5.0922920678e+00 9.3614649431e-04 1.4843545885e+00 -2.5709775638e+00 1.4843545885e+00 2.5709775638e+00 
46900 5.0922917791e+00 9.2871664157e-04 1.4843230549e+00 -2.5709229459e+00 1.4843230549e+00 2.5709229459e+00 
47000 5.0922914949e+00 9.2134858152e-04 1.4842917708e+00 -2.5708687602e+00 1.4842917708e+00 2.5708687602e+00 
47100 5.0922912151e+00 9.1404176177e-04 1.4842607342e+00 -2.5708150034e+00 1.4842607342e+00 2.5708150034e+00 
47200 5.0922909395e+00 9.0679563544e-04 1.4842299432e+00 -2.5707616718e+00 1.4842299432e+00 2.5707616718e+00 
47300 5.0922906681e+00 8.9960966110e-04 1.4841993956e+00 -2.5707087618e+00 1.4841993956e+00 2.5707087618e+00 
47400 5.0922904009e+00 8.9248330271e-04 1.4841690895e+00 -2.5706562701e+00 1.4841690895e+00 2.5706562701e+00 
47500 5.0922901378e+00 8.8541602956e-04 1.4841390228e+00 -2.5706041931e+00 1.4841390228e+00 2.5706041931e+00 
47600 5.0922898787e+00 8.7840731619e-04 1.4841091937e+00 -2.5705525274e+00 1.4841091937e+00 2.5705525274e+00 
47700 5.0922896235e+00 8.7145664233e-04 1.4840796000e+00 -2.5705012697e+00 1.4840796000e+00 2.5705012697e+00 
47800 5.0922893723e+00 8.6456349288e-04 1.4840502399e+00 -2.5704504165e+00 1.4840502399e+00 2.5704504165e+00 
47900 5.0922891249e+00 8.5772735779e-04 1.4840211115e+00 -2.5703999646e+00 1.4840211115e+00 2.5703999646e+00 
48000 5.0922888812e+00 8.5094773202e-04 1.4839922129e+00 -2.5703499107e+00 1.4839922129e+00 2.5703499107e+00 
48100 5.0922886413e+00 8.4422411551e-04 1.4839635420e+00 -2.5703002514e+00 1.4839635420e+00 2.5703002514e+00 
48200 5.0922884051e+00 8.3755601309e-04 1.4839350972e+00 -2.5702509835e+00 1.4839350972e+00 2.5702509835e+00 
48300 5.0922881725e+00 8.3094293444e-04 1.4839068765e+00 -2.5702021039e+00 1.4839068765e+00 2.5702021039e+00 
48400 5.0922879434e+00 8.2438439402e-04 1.4838788781e+00 -2.5701536092e+00 1.4838788781e+00 2.5701536092e+00 
48500 5.0922877178e+00 8.1787991105e-04 1.4838511002e+00 -2.5701054964e+00 1.4838511002e+00 2.5701054964e+00 
48600 5.0922874957e+00 8.1142900939e-04 1.4838235409e+00 -2.5700577624e+00 1.4838235409e+00 2.5700577624e+00 
48700 5.0922872769e+00 8.0503121755e-04 1.4837961985e+00 -2.5700104039e+00 1.4837961985e+00 2.5700104039e+00 
48800 5.0922870615e+00 7.9868606862e-04 1.4837690712e+00 -2.5699634180e+00 1.4837690712e+00 2.5699634180e+00 
48900 5.0922868494e+00 7.9239310020e-04 1.4837421572e+00 -2.5699168015e+00 1.4837421572e+00 2.5699168015e+00 
49000 5.0922866405e+00 7.8615185436e-04 1.4837154547e+00 -2.5698705515e+00 1.4837154547e+00 2.5698705515e+00 
49100 5.0922864348e+00 7.7996187759e-04 1.4836889621e+00 -2.5698246650e+00 1.4836889621e+00 2.5698246650e+00 
49200 5.0922862322e+00 7.7382272077e-04 1.4836626777e+00 -2.5697791390e+00 1.4836626777e+00 2.5697791390e+00 
49300 5.0922860327e+00 7.6773393907e-04 1.4836365996e+00 -2.5697339705e+00 1.4836365996e+00 2.5697339705e+00 
49400 5.0922858363e+00 7.6169509197e-04 1.4836107263e+00 -2.5696891566e+00 1.4836107263e+00 2.5696891566e+00 
49500 5.0922856428e+00 7.5570574314e-04 1.4835850561e+00 -2.5696446944e+00 1.4835850561e+00 2.5696446944e+00 
49600 5.0922854523e+00 7.4976546046e-04 1.4835595872e+00 -2.5696005811e+00 1.4835595872e+00 2.5696005811e+00 
49700 5.0922852647e+00 7.4387381592e-04 1.4835343182e+00 -2.5695568138e+00 1.4835343182e+00 2.5695568138e+00 
49800 5.0922850800e+00 7.3803038561e-04 1.4835092472e+00 -2.5695133897e+00 1.4835092472e+00 2.5695133897e+00 
49900 5.0922848981e+00 7.3223474967e-04 1.4834843728e+00 -2.5694703060e+00 1.4834843728e+00 2.5694703060e+00 
50000 5.0922847189e+00 7.2648649222e-04 1.4834596933e+00 -2.5694275598e+00 1.4834596933e+00 2.5694275598e+00 
50100 5.0922845425e+00 7.2078520135e-04 1.4834352072e+00 -2.5693851486e+00 1.4834352072e+00 2.5693851486e+00 
50200 5.0922843687e+00 7.1513046905e-04 1.4834109128e+00 -2.5693430694e+00 1.4834109128e+00 2.5693430694e+00 
50300 5.0922841976e+00 7.0952189118e-04 1.4833868086e+00 -2.5693013197e+00 1.4833868086e+00 2.5693013197e+00 
50400 5.0922840291e+00 7.0395906744e-04 1.4833628930e+00 -2.5692598968e+00 1.4833628930e+00 2.5692598968e+00 
50500 5.0922838632e+00 6.9844160132e-04 1.4833391646e+00 -2.5692187980e+00 1.4833391646e+00 2.5692187980e+00 
50600 5.0922836998e+00 6.9296910002e-04 1.4833156218e+00 -2.5691780206e+00 1.4833156218e+00 2.5691780206e+00 
50700 5.0922835388e+00 6.8754117448e-04 1.4832922631e+00 -2.5691375621e+00 1.4832922631e+00 2.5691375621e+00 
50800 5.0922833804e+00 6.8215743929e-04 1.4832690869e+00 -2.5690974199e+00 1.4832690869e+00 2.5690974199e+00 
50900 5.0922832243e+00 6.7681751267e-04 1.4832460919e+00 -2.5690575914e+00 1.4832460919e+00 2.5690575914e+00 
51000 5.0922830706e+00 6.7152101644e-04 1.4832232766e+00 -2.5690180740e+00 1.4832232766e+00 2.5690180740e+00 
51100 5.0922829192e+00 6.6626757594e-04 1.4832006394e+00 -2.5689788653e+00 1.4832006394e+00 2.5689788653e+00 
51200 5.0922827702e+00 6.6105682004e-04 1.4831781790e+00 -2.5689399627e+00 1.4831781790e+00 2.5689399627e+00 
51300 5.0922826234e+00 6.5588838109e-04 1.4831558939e+00 -2.5689013638e+00 1.4831558939e+00 2.5689013638e+00 
51400 5.0922824788e+00 6.5076189487e-04 1.4831337827e+00 -2.5688630661e+00 1.4831337827e+00 2.5688630661e+00 
51500 5.0922823364e+00 6.4567700055e-04 1.4831118440e+00 -2.5688250672e+00 1.4831118440e+00 2.5688250672e+00 
51600 5.0922821962e+00 6.4063334070e-04 1.4830900765e+00 -2.5687873646e+00 1.4830900765e+00 2.5687873646e+00 
51700 5.0922820581e+00 6.3563056118e-04 1.4830684786e+00 -2.5687499560e+00 1.4830684786e+00 2.5687499560e+00 
51800 5.0922819222e+00 6.3066831117e-04 1.4830470491e+00 -2.5687128390e+00 1.4830470491e+00 2.5687128390e+00 
51900 5.0922817883e+00 6.2574624310e-04 1.4830257865e+00 -2.5686760112e+00 1.4830257865e+00 2.5686760112e+00 
52000 5.0922816564e+00 6.2086401265e-04 1.4830046896e+00 -2.5686394703e+00 1.4830046896e+00 2.5686394703e+00 
52100 5.0922815265e+00 6.1602127867e-04 1.4829837570e+00 -2.5686032140e+00 1.4829837570e+00 2.5686032140e+00 
52200 5.0922813986e+00 6.1121770317e-04 1.4829629874e+00 -2.5685672400e+00 1.4829629874e+00 2.5685672400e+00 
52300 5.0922812726e+00 6.0645295131e-04 1.4829423795e+00 -2.5685315460e+00 1.4829423795e+00 2.5685315460e+00 
52400 5.0922811485e+00 6.0172669133e-04 1.4829219319e+00 -2.5684961297e+00 1.4829219319e+00 2.5684961297e+00 
52500 5.0922810264e+00 5.9703859453e-04 1.4829016434e+00 -2.5684609890e+00 1.4829016434e+00 2.5684609890e+00 
52600 5.0922809060e+00 5.9238833525e-04 1.4828815127e+00 -2.5684261216e+00 1.4828815127e+00 2.5684261216e+00 
52700 5.0922807875e+00 5.8777559085e-04 1.4828615385e+00 -2.5683915253e+00 1.4828615385e+00 2.5683915253e+00 
52800 5.0922806708e+00 5.8320004162e-04 1.4828417196e+00 -2.5683571979e+00 1.4828417196e+00 2.5683571979e+00 
52900 5.0922805559e+00 5.7866137082e-04 1.4828220547e+00 -2.5683231373e+00 1.4828220547e+00 2.5683231373e+00 
53000 5.0922804427e+00 5.7415926462e-04 1.4828025426e+00 -2.5682893413e+00 1.4828025426e+00 2.5682893413e+00 
53100 5.0922803312e+00 5.6969341206e-04 1.4827831820e+00 -2.5682558078e+00 1.4827831820e+00 2.5682558078e+00 
53200 5.0922802215e+00 5.6526350504e-04 1.4827639718e+00 -2.5682225347e+00 1.4827639718e+00 2.5682225347e+00 
53300 5.0922801133e+00 5.6086923827e-04 1.4827449107e+00 -2.5681895199e+00 1.4827449107e+00 2.5681895199e+00 
53400 5.0922800069e+00 5.5651030928e-04 1.4827259975e+00 -2.5681567614e+00 1.4827259975e+00 2.5681567614e+00 
53500 5.0922799020e+00 5.5218641833e-04 1.4827072311e+00 -2.5681242570e+00 1.4827072311e+00 2.5681242570e+00 
53600 5.0922797987e+00 5.4789726844e-04 1.4826886102e+00 -2.5680920047e+00 1.4826886102e+00 2.5680920047e+00 
53700 5.0922796970e+00 5.4364256535e-04 1.4826701338e+00 -2.5680600026e+00 1.4826701338e+00 2.5680600026e+00 
53800 5.0922795968e+00 5.3942201747e-04 1.4826518006e+00 -2.5680282486e+00 1.4826518006e+00 2.5680282486e+00 
53900 5.0922794982e+00 5.3523533586e-04 1.4826336095e+00 -2.5679967407e+00 1.4826336095e+00 2.5679967407e+00 
54000 5.0922794010e+00 5.3108223422e-04 1.4826155594e+00 -2.5679654770e+00 1.4826155594e+00 2.5679654770e+00 
54100 5.0922793053e+00 5.2696242885e-04 1.4825976491e+00 -2.5679344555e+00 1.4825976491e+00 2.5679344555e+00 
54200 5.0922792111e+00 5.2287563863e-04 1.4825798776e+00 -2.5679036742e+00 1.4825798776e+00 2.5679036742e+00 
54300 5.0922791183e+00 5.1882158500e-04 1.4825622436e+00 -2.5678731313e+00 1.4825622436e+00 2.5678731313e+00 
54400 5.0922790268e+00 5.1479999190e-04 1.4825447462e+00 -2.5678428249e+00 1.4825447462e+00 2.5678428249e+00 
54500 5.0922789368e+00 5.1081058580e-04 1.4825273842e+00 -2.5678127530e+00 1.4825273842e+00 2.5678127530e+00 
54600 5.0922788481e+00 5.0685309562e-04 1.4825101565e+00 -2.5677829138e+00 1.4825101565e+00 2.5677829138e+00 
54700 5.0922787608e+00 5.0292725277e-04 1.4824930621e+00 -2.5677533055e+00 1.4824930621e+00 2.5677533055e+00 
54800 5.0922786748e+00 4.9903279105e-04 1.4824761000e+00 -2.5677239261e+00 1.4824761000e+00 2.5677239261e+00 
54900 5.0922785901e+00 4.9516944668e-04 1.4824592689e+00 -2.5676947739e+00 1.4824592689e+00 2.5676947739e+00 
55000 5.0922785067e+00 4.9133695825e-04 1.4824425680e+00 -2.5676658471e+00 1.4824425680e+00 2.5676658471e+00 
55100 5.0922784245e+00 4.8753506673e-04 1.4824259962e+00 -2.5676371438e+00 1.4824259962e+00 2.5676371438e+00 
55200 5.0922783436e+00 4.8376351540e-04 1.4824095524e+00 -2.5676086623e+00 1.4824095524e+00 2.5676086623e+00 
55300 5.0922782639e+00 4.8002204986e-04 1.4823932356e+00 -2.5675804009e+00 1.4823932356e+00 2.5675804009e+00 
55400 5.0922781855e+00 4.7631041798e-04 1.4823770449e+00 -2.5675523577e+00 1.4823770449e+00 2.5675523577e+00 
55500 5.0922781082e+00 4.7262836994e-04 1.4823609791e+00 -2.5675245310e+00 1.4823609791e+00 2.5675245310e+00 
55600 5.0922780320e+00 4.6897565811e-04 1.4823450374e+00 -2.5674969191e+00 1.4823450374e+00 2.5674969191e+00 
55700 5.0922779570e+00 4.6535203712e-04 1.4823292187e+00 -2.5674695204e+00 1.4823292187e+00 2.5674695204e+00 
55800 5.0922778832e+00 4.6175726377e-04 1.4823135221e+00 -2.5674423330e+00 1.4823135221e+00 2.5674423330e+00 
55900 5.0922778105e+00 4.5819109706e-04 1.4822979466e+00 -2.5674153554e+00 1.4822979466e+00 2.5674153554e+00 
56000 5.0922777388e+00 4.5465329815e-04 1.4822824912e+00 -2.5673885859e+00 1.4822824912e+00 2.5673885859e+00 
56100 5.0922776683e+00 4.5114363031e-04 1.4822671549e+00 -2.5673620228e+00 1.4822671549e+00 2.5673620228e+00 
56200 5.0922775988e+00 4.4766185894e-04 1.4822519369e+00 -2.5673356644e+00 1.4822519369e+00 2.5673356644e+00 
56300 5.0922775304e+00 4.4420775154e-04 1.4822368362e+00 -2.5673095092e+00 1.4822368362e+00 2.5673095092e+00 
56400 5.0922774630e+00 4.4078107767e-04 1.4822218519e+00 -2.5672835556e+00 1.4822218519e+00 2.5672835556e+00 
56500 5.0922773966e+00 4.3738160897e-04 1.4822069830e+00 -2.5672578019e+00 1.4822069830e+00 2.5672578019e+00 
56600 5.0922773312e+00 4.3400911908e-04 1.4821922286e+00 -2.5672322465e+00 1.4821922286e+00 2.5672322465e+00 
56700 5.0922772668e+00 4.3066338367e-04 1.4821775878e+00 -2.5672068880e+00 1.4821775878e+00 2.5672068880e+00 
56800 5.0922772034e+00 4.2734418041e-04 1.4821630598e+00 -2.5671817247e+00 1.4821630598e+00 2.5671817247e+00 
56900 5.0922771409e+00 4.2405128895e-04 1.4821486436e+00 -2.5671567551e+00 1.4821486436e+00 2.5671567551e+00 
57000 5.0922770794e+00 4.2078449087e-04 1.4821343383e+00 -2.5671319776e+00 1.4821343383e+00 2.5671319776e+00 
57100 5.0922770188e+00 4.1754356972e-04 1.4821201431e+00 -2.5671073908e+00 1.4821201431e+00 2.5671073908e+00 
57200 5.0922769592e+00 4.1432831094e-04 1.4821060571e+00 -2.5670829932e+00 1.4821060571e+00 2.5670829932e+00 
57300 5.0922769004e+00 4.1113850190e-04 1.4820920795e+00 -2.5670587831e+00 1.4820920795e+00 2.5670587831e+00 
57400 5.0922768425e+00 4.0797393183e-04 1.4820782093e+00 -2.5670347593e+00 1.4820782093e+00 2.5670347593e+00 
57500 5.0922767855e+00 4.0483439183e-04 1.4820644457e+00 -2.5670109201e+00 1.4820644457e+00 2.5670109201e+00 
57600 5.0922767293e+00 4.0171967485e-04 1.4820507880e+00 -2.5669872641e+00 1.4820507880e+00 2.5669872641e+00 
57700 5.0922766740e+00 3.9862957566e-04 1.4820372351e+00 -2.5669637900e+00 1.4820372351e+00 2.5669637900e+00 
57800 5.0922766196e+00 3.9556389086e-04 1.4820237865e+00 -2.5669404962e+00 1.4820237865e+00 2.5669404962e+00 
57900 5.0922765659e+00 3.9252241883e-04 1.4820104411e+00 -2.5669173813e+00 1.4820104411e+00 2.5669173813e+00 
58000 5.0922765131e+00 3.8950495972e-04 1.4819971982e+00 -2.5668944440e+00 1.4819971982e+00 2.5668944440e+00 
58100 5.0922764610e+00 3.8651131545e-04 1.4819840570e+00 -2.5668716827e+00 1.4819840570e+00 2.5668716827e+00 
58200 5.0922764098e+00 3.8354128969e-04 1.4819710167e+00 -2.5668490963e+00 1.4819710167e+00 2.5668490963e+00 
58300 5.0922763593e+00 3.8059468782e-04 1.4819580765e+00 -2.5668266831e+00 1.4819580765e+00 2.5668266831e+00 
58400 5.0922763096e+00 3.7767131694e-04 1.4819452355e+00 -2.5668044420e+00 1.4819452355e+00 2.5668044420e+00 
58500 5.0922762606e+00 3.7477098583e-04 1.4819324931e+00 -2.5667823715e+00 1.4819324931e+00 2.5667823715e+00 
58600 5.0922762124e+00 3.7189350498e-04 1.4819198485e+00 -2.5667604703e+00 1.4819198485e+00 2.5667604703e+00 
58700 5.0922761649e+00 3.6903868650e-04 1.4819073008e+00 -2.5667387371e+00 1.4819073008e+00 2.5667387371e+00 
58800 5.0922761181e+00 3.6620634418e-04 1.4818948494e+00 -2.5667171706e+00 1.4818948494e+00 2.5667171706e+00 
58900 5.0922760720e+00 3.6339629342e-04 1.4818824934e+00 -2.5666957693e+00 1.4818824934e+00 2.5666957693e+00 
59000 5.0922760266e+00 3.6060835125e-04 1.4818702321e+00 -2.5666745322e+00 1.4818702321e+00 2.5666745322e+00 
59100 5.0922759819e+00 3.5784233628e-04 1.4818580647e+00 -2.5666534577e+00 1.4818580647e+00 2.5666534577e+00 
59200 5.0922759379e+00 3.5509806871e-04 1.4818459907e+00 -2.5666325448e+00 1.4818459907e+00 2.5666325448e+00 
59300 5.0922758945e+00 3.5237537033e-04 1.4818340091e+00 -2.5666117921e+00 1.4818340091e+00 2.5666117921e+00 
59400 5.0922758518e+00 3.4967406446e-04 1.4818221192e+00 -2.5665911983e+00 1.4818221192e+00 2.5665911983e+00 
59500 5.0922758098e+00 3.4699397598e-04 1.4818103205e+00 -2.5665707622e+00 1.4818103205e+00 2.5665707622e+00 
59600 5.0922757683e+00 3.4433493127e-04 1.4817986120e+00 -2.5665504826e+00 1.4817986120e+00 2.5665504826e+00 
59700 5.0922757275e+00 3.4169675824e-04 1.4817869932e+00 -2.5665303583e+00 1.4817869932e+00 2.5665303583e+00 
59800 5.0922756873e+00 3.3907928629e-04 1.4817754634e+00 -2.5665103879e+00 1.4817754634e+00 2.5665103879e+00 
59900 5.0922756477e+00 3.3648234631e-04 1.4817640217e+00 -2.5664905704e+00 1.4817640217e+00 2.5664905704e+00 
60000 5.0922756087e+00 3.3390577066e-04 1.4817526676e+00 -2.5664709046e+00 1.4817526676e+00 2.5664709046e+00 
60100 5.0922755703e+00 3.3134939314e-04 1.4817414004e+00 -2.5664513891e+00 1.4817414004e+00 2.5664513891e+00 
60200 5.0922755325e+00 3.2881304899e-04 1.4817302193e+00 -2.5664320229e+00 1.4817302193e+00 2.5664320229e+00 
60300 5.0922754953e+00 3.2629657491e-04 1.4817191237e+00 -2.5664128049e+00 1.4817191237e+00 2.5664128049e+00 
60400 5.0922754586e+00 3.2379980898e-04 1.4817081130e+00 -2.5663937337e+00 1.4817081130e+00 2.5663937337e+00 
60500 5.0922754224e+00 3.2132259069e-04 1.4816971865e+00 -2.5663748084e+00 1.4816971865e+00 2.5663748084e+00 
60600 5.0922753868e+00 3.1886476093e-04 1.4816863434e+00 -2.5663560277e+00 1.4816863434e+00 2.5663560277e+00 
60700 5.0922753518e+00 3.1642616195e-04 1.4816755832e+00 -2.5663373905e+00 1.4816755832e+00 2.5663373905e+00 
60800 5.0922753172e+00 3.1400663738e-04 1.4816649053e+00 -2.5663188957e+00 1.4816649053e+00 2.5663188957e+00 
60900 5.0922752832e+00 3.1160603217e-04 1.4816543089e+00 -2.5663005422e+00 1.4816543089e+00 2.5663005422e+00 
61000 5.0922752497e+00 3.0922419264e-04 1.4816437934e+00 -2.5662823289e+00 1.4816437934e+00 2.5662823289e+00 
61100 5.0922752167e+00 3.0686096642e-04 1.4816333582e+00 -2.5662642546e+00 1.4816333582e+00 2.5662642546e+00 
61200 5.0922751842e+00 3.0451620245e-04 1.4816230027e+00 -2.5662463184e+00 1.4816230027e+00 2.5662463184e+00 
61300 5.0922751522e+00 3.0218975097e-04 1.4816127263e+00 -2.5662285191e+00 1.4816127263e+00 2.5662285191e+00 
61400 5.0922751207e+00 2.9988146351e-04 1.4816025283e+00 -2.5662108557e+00 1.4816025283e+00 2.5662108557e+00 
61500 5.0922750896e+00 2.9759119288e-04 1.4815924082e+00 -2.5661933271e+00 1.4815924082e+00 2.5661933271e+00 
61600 5.0922750591e+00 2.9531879314e-04 1.4815823652e+00 -2.5661759322e+00 1.4815823652e+00 2.5661759322e+00 
61700 5.0922750289e+00 2.9306411963e-04 1.4815723989e+00 -2.5661586700e+00 1.4815723989e+00 2.5661586700e+00 
61800 5.0922749993e+00 2.9082702890e-04 1.4815625086e+00 -2.5661415395e+00 1.4815625086e+00 2.5661415395e+00 
61900 5.0922749700e+00 2.8860737874e-04 1.4815526937e+00 -2.5661245397e+00 1.4815526937e+00 2.5661245397e+00 
62000 5.0922749413e+00 2.8640502817e-04 1.4815429537e+00 -2.5661076695e+00 1.4815429537e+00 2.5661076695e+00 
62100 5.0922749129e+00 2.8421983740e-04 1.4815332880e+00 -2.5660909279e+00 1.4815332880e+00 2.5660909279e+00 
62200 5.0922748850e+00 2.8205166784e-04 1.4815236959e+00 -2.5660743139e+00 1.4815236959e+00 2.5660743139e+00 
62300 5.0922748575e+00 2.7990038210e-04 1.4815141769e+00 -2.5660578266e+00 1.4815141769e+00 2.5660578266e+00 
62400 5.0922748304e+00 2.7776584394e-04 1.4815047305e+00 -2.5660414649e+00 1.4815047305e+00 2.5660414649e+00 
62500 5.0922748037e+00 2.7564791830e-04 1.4814953561e+00 -2.5660252279e+00 1.4814953561e+00 2.5660252279e+00 
62600 5.0922747774e+00 2.7354647125e-04 1.4814860531e+00 -2.5660091146e+00 1.4814860531e+00 2.5660091146e+00 
62700 5.0922747516e+00 2.7146137004e-04 1.4814768209e+00 -2.5659931240e+00 1.4814768209e+00 2.5659931240e+00 
62800 5.0922747261e+00 2.6939248300e-04 1.4814676591e+00 -2.5659772553e+00 1.4814676591e+00 2.5659772553e+00 
62900 5.0922747009e+00 2.6733967963e-04 1.4814585670e+00 -2.5659615073e+00 1.4814585670e+00 2.5659615073e+00 
63000 5.0922746762e+00 2.6530283050e-04 1.4814495441e+00 -2.5659458793e+00 1.4814495441e+00 2.5659458793e+00 
63100 5.0922746519e+00 2.6328180732e-04 1.4814405900e+00 -2.5659303702e+00 1.4814405900e+00 2.5659303702e+00 
63200 5.0922746279e+00 2.6127648285e-04 1.4814317040e+00 -2.5659149793e+00 1.4814317040e+00 2.5659149793e+00 
63300 5.0922746042e+00 2.5928673095e-04 1.4814228856e+00 -2.5658997054e+00 1.4814228856e+00 2.5658997054e+00 
63400 5.0922745809e+00 2.5731242655e-04 1.4814141344e+00 -2.5658845478e+00 1.4814141344e+00 2.5658845478e+00 
63500 5.0922745580e+00 2.5535344564e-04 1.4814054497e+00 -2.5658695054e+00 1.4814054497e+00 2.5658695054e+00 
63600 5.0922745354e+00 2.5340966526e-04 1.4813968311e+00 -2.5658545776e+00 1.4813968311e+00 2.5658545776e+00 
63700 5.0922745132e+00 2.5148096348e-04 1.4813882780e+00 -2.5658397632e+00 1.4813882780e+00 2.5658397632e+00 
63800 5.0922744913e+00 2.4956721943e-04 1.4813797900e+00 -2.5658250616e+00 1.4813797900e+00 2.5658250616e+00 
63900 5.0922744697e+00 2.4766831322e-04 1.4813713665e+00 -2.5658104717e+00 1.4813713665e+00 2.5658104717e+00 
64000 5.0922744485e+00 2.4578412601e-04 1.4813630071e+00 -2.5657959928e+00 1.4813630071e+00 2.5657959928e+00 
64100 5.0922744275e+00 2.4391453995e-04 1.4813547112e+00 -2.5657816239e+00 1.4813547112e+00 2.5657816239e+00 
64200 5.0922744069e+00 2.4205943818e-04 1.4813464784e+00 -2.5657673643e+00 1.4813464784e+00 2.5657673643e+00 
64300 5.0922743866e+00 2.4021870483e-04 1.4813383082e+00 -2.5657532130e+00 1.4813383082e+00 2.5657532130e+00 
64400 5.0922743666e+00 2.3839222500e-04 1.4813302000e+00 -2.5657391692e+00 1.4813302000e+00 2.5657391692e+00 
64500 5.0922743469e+00 2.3657988478e-04 1.4813221535e+00 -2.5657252322e+00 1.4813221535e+00 2.5657252322e+00 
64600 5.0922743275e+00 2.3478157118e-04 1.4813141681e+00 -2.5657114010e+00 1.4813141681e+00 2.5657114010e+00 
64700 5.0922743084e+00 2.3299717220e-04 1.4813062433e+00 -2.5656976749e+00 1.4813062433e+00 2.5656976749e+00 
64800 5.0922742895e+00 2.3122657675e-04 1.4812983787e+00 -2.5656840531e+00 1.4812983787e+00 2.5656840531e+00 
64900 5.0922742710e+00 2.2946967470e-04 1.4812905739e+00 -2.5656705347e+00 1.4812905739e+00 2.5656705347e+00 
65000 5.0922742527e+00 2.2772635682e-04 1.4812828283e+00 -2.5656571189e+00 1.4812828283e+00 2.5656571189e+00 
65100 5.0922742347e+00 2.2599651482e-04 1.4812751415e+00 -2.5656438050e+00 1.4812751415e+00 2.5656438050e+00 
65200 5.0922742170e+00 2.2428004129e-04 1.4812675130e+00 -2.5656305922e+00 1.4812675130e+00 2.5656305922e+00 
65300 5.0922741996e+00 2.2257682975e-04 1.4812599425e+00 -2.5656174796e+00 1.4812599425e+00 2.5656174796e+00 
65400 5.0922741824e+00 2.2088677459e-04 1.4812524294e+00 -2.5656044666e+00 1.4812524294e+00 2.5656044666e+00 
65500 5.0922741655e+00 2.1920977109e-04 1.4812449733e+00 -2.5655915523e+00 1.4812449733e+00 2.5655915523e+00 
65600 5.0922741488e+00 2.1754571540e-04 1.4812375738e+00 -2.5655787360e+00 1.4812375738e+00 2.5655787360e+00 
65700 5.0922741323e+00 2.1589450456e-04 1.4812302305e+00 -2.5655660169e+00 1.4812302305e+00 2.5655660169e+00 
65800 5.0922741162e+00 2.1425603644e-04 1.4812229428e+00 -2.5655533943e+00 1.4812229428e+00 2.5655533943e+00 
65900 5.0922741002e+00 2.1263020978e-04 1.4812157104e+00 -2.5655408674e+00 1.4812157104e+00 2.5655408674e+00 
66000 5.0922740845e+00 2.1101692416e-04 1.4812085328e+00 -2.5655284355e+00 1.4812085328e+00 2.5655284355e+00 
66100 5.0922740691e+00 2.0941608000e-04 1.4812014097e+00 -2.5655160979e+00 1.4812014097e+00 2.5655160979e+00 
66200 5.0922740538e+00 2.0782757856e-04 1.4811943406e+00 -2.5655038538e+00 1.4811943406e+00 2.5655038538e+00 
66300 5.0922740388e+00 2.0625132189e-04 1.4811873251e+00 -2.5654917025e+00 1.4811873251e+00 2.5654917025e+00 
66400 5.0922740241e+00 2.0468721288e-04 1.4811803627e+00 -2.5654796434e+00 1.4811803627e+00 2.5654796434e+00 
66500 5.0922740095e+00 2.0313515522e-04 1.4811734531e+00 -2.5654676756e+00 1.4811734531e+00 2.5654676756e+00 
66600 5.0922739952e+00 2.0159505342e-04 1.4811665959e+00 -2.5654557985e+00 1.4811665959e+00 2.5654557985e+00 
66700 5.0922739811e+00 2.0006681275e-04 1.4811597906e+00 -2.5654440114e+00 1.4811597906e+00 2.5654440114e+00 
66800 5.0922739672e+00 1.9855033928e-04 1.4811530369e+00 -2.5654323137e+00 1.4811530369e+00 2.5654323137e+00 
66900 5.0922739535e+00 1.9704553987e-04 1.4811463343e+00 -2.5654207045e+00 1.4811463343e+00 2.5654207045e+00 
67000 5.0922739400e+00 1.9555232214e-04 1.4811396825e+00 -2.5654091833e+00 1.4811396825e+00 2.5654091833e+00 
67100 5.0922739267e+00 1.9407059447e-04 1.4811330811e+00 -2.5653977493e+00 1.4811330811e+00 2.5653977493e+00 
67200 5.0922739136e+00 1.9260026603e-04 1.4811265297e+00 -2.5653864019e+00 1.4811265297e+00 2.5653864019e+00 
67300 5.0922739007e+00 1.9114124670e-04 1.4811200279e+00 -2.5653751404e+00 1.4811200279e+00 2.5653751404e+00 
67400 5.0922738880e+00 1.8969344713e-04 1.4811135753e+00 -2.5653639642e+00 1.4811135753e+00 2.5653639642e+00 
67500 5.0922738755e+00 1.8825677870e-04 1.4811071716e+00 -2.5653528726e+00 1.4811071716e+00 2.5653528726e+00 
67600 5.0922738632e+00 1.8683115353e-04 1.4811008163e+00 -2.5653418650e+00 1.4811008163e+00 2.5653418650e+00 
67700 5.0922738511e+00 1.8541648445e-04 1.4810945091e+00 -2.5653309406e+00 1.4810945091e+00 2.5653309406e+00 
67800 5.0922738391e+00 1.8401268504e-04 1.4810882497e+00 -2.5653200990e+00 1.4810882497e+00 2.5653200990e+00 
67900 5.0922738273e+00 1.8261966955e-04 1.4810820376e+00 -2.5653093394e+00 1.4810820376e+00 2.5653093394e+00 
68000 5.0922738157e+00 1.8123735298e-04 1.4810758726e+00 -2.5652986611e+00 1.4810758726e+00 2.5652986611e+00 
68100 5.0922738043e+00 1.7986565099e-04 1.4810697541e+00 -2.5652880637e+00 1.4810697541e+00 2.5652880637e+00 
68200 5.0922737931e+00 1.7850447997e-04 1.4810636820e+00 -2.5652775464e+00 1.4810636820e+00 2.5652775464e+00 
68300 5.0922737820e+00 1.7715375697e-04 1.4810576558e+00 -2.5652671087e+00 1.4810576558e+00 2.5652671087e+00 
68400 5.0922737711e+00 1.7581339974e-04 1.4810516751e+00 -2.5652567499e+00 1.4810516751e+00 2.5652567499e+00 
68500 5.0922737603e+00 1.7448332669e-04 1.4810457397e+00 -2.5652464695e+00 1.4810457397e+00 2.5652464695e+00 
68600 5.0922737498e+00 1.7316345693e-04 1.4810398492e+00 -2.5652362668e+00 1.4810398492e+00 2.5652362668e+00 
68700 5.0922737393e+00 1.7185371019e-04 1.4810340031e+00 -2.5652261412e+00 1.4810340031e+00 2.5652261412e+00 
68800 5.0922737291e+00 1.7055400689e-04 1.4810282013e+00 -2.5652160922e+00 1.4810282013e+00 2.5652160922e+00 
68900 5.0922737189e+00 1.6926426811e-04 1.4810224434e+00 -2.5652061191e+00 1.4810224434e+00 2.5652061191e+00 
69000 5.0922737090e+00 1.6798441554e-04 1.4810167289e+00 -2.5651962214e+00 1.4810167289e+00 2.5651962214e+00 
69100 5.0922736992e+00 1.6671437154e-04 1.4810110577e+00 -2.5651863985e+00 1.4810110577e+00 2.5651863985e+00 
69200 5.0922736895e+00 1.6545405910e-04 1.4810054293e+00 -2.5651766498e+00 1.4810054293e+00 2.5651766498e+00 
69300 5.0922736800e+00 1.6420340184e-04 1.4809998434e+00 -2.5651669748e+00 1.4809998434e+00 2.5651669748e+00 
69400 5.0922736706e+00 1.6296232401e-04 1.4809942998e+00 -2.5651573729e+00 1.4809942998e+00 2.5651573729e+00 
69500 5.0922736614e+00 1.6173075045e-04 1.4809887980e+00 -2.5651478435e+00 1.4809887980e+00 2.5651478435e+00 
69600 5.0922736523e+00 1.6050860666e-04 1.4809833378e+00 -2.5651383862e+00 1.4809833378e+00 2.5651383862e+00 
69700 5.0922736433e+00 1.5929581871e-04 1.4809779188e+00 -2.5651290002e+00 1.4809779188e+00 2.5651290002e+00 
69800 5.0922736345e+00 1.5809231328e-04 1.4809725407e+00 -2.5651196851e+00 1.4809725407e+00 2.5651196851e+00 
69900 5.0922736258e+00 1.5689801768e-04 1.4809672033e+00 -2.5651104404e+00 1.4809672033e+00 2.5651104404e+00 
70000 5.0922736172e+00 1.5571285977e-04 1.4809619061e+00 -2.5651012655e+00 1.4809619061e+00 2.5651012655e+00 
70100 5.0922736088e+00 1.5453676802e-04 1.4809566490e+00 -2.5650921598e+00 1.4809566490e+00 2.5650921598e+00 
70200 5.0922736005e+00 1.5336967148e-04 1.4809514315e+00 -2.5650831229e+00 1.4809514315e+00 2.5650831229e+00 
70300 5.0922735923e+00 1.5221149976e-04 1.4809462534e+00 -2.5650741542e+00 1.4809462534e+00 2.5650741542e+00 
70400 5.0922735842e+00 1.5106218308e-04 1.4809411144e+00 -2.5650652532e+00 1.4809411144e+00 2.5650652532e+00 
70500 5.0922735763e+00 1.4992165220e-04 1.4809360142e+00 -2.5650564194e+00 1.4809360142e+00 2.5650564194e+00 
70600 5.0922735685e+00 1.4878983844e-04 1.4809309525e+00 -2.5650476523e+00 1.4809309525e+00 2.5650476523e+00 
70700 5.0922735608e+00 1.4766667369e-04 1.4809259290e+00 -2.5650389513e+00 1.4809259290e+00 2.5650389513e+00 
70800 5.0922735532e+00 1.4655209038e-04 1.4809209434e+00 -2.5650303159e+00 1.4809209434e+00 2.5650303159e+00 
70900 5.0922735457e+00 1.4544602151e-04 1.4809159954e+00 -2.5650217457e+00 1.4809159954e+00 2.5650217457e+00 
71000 5.0922735383e+00 1.4434840060e-04 1.4809110847e+00 -2.5650132402e+00 1.4809110847e+00 2.5650132402e+00 
71100 5.0922735311e+00 1.4325916172e-04 1.4809062111e+00 -2.5650047988e+00 1.4809062111e+00 2.5650047988e+00 
71200 5.0922735239e+00 1.4217823947e-04 1.4809013742e+00 -2.5649964211e+00 1.4809013742e+00 2.5649964211e+00 
71300 5.0922735169e+00 1.4110556899e-04 1.4808965738e+00 -2.5649881066e+00 1.4808965738e+00 2.5649881066e+00 
71400 5.0922735100e+00 1.4004108594e-04 1.4808918096e+00 -2.5649798548e+00 1.4808918096e+00 2.5649798548e+00 
71500 5.0922735032e+00 1.3898472648e-04 1.4808870814e+00 -2.5649716652e+00 1.4808870814e+00 2.5649716652e+00 
71600 5.0922734964e+00 1.3793642732e-04 1.4808823887e+00 -2.5649635373e+00 1.4808823887e+00 2.5649635373e+00 
71700 5.0922734898e+00 1.3689612565e-04 1.4808777315e+00 -2.5649554708e+00 1.4808777315e+00 2.5649554708e+00 
71800 5.0922734833e+00 1.3586375920e-04 1.4808731094e+00 -2.5649474650e+00 1.4808731094e+00 2.5649474650e+00 
71900 5.0922734769e+00 1.3483926617e-04 1.4808685221e+00 -2.5649395196e+00 1.4808685221e+00 2.5649395196e+00 
72000 5.0922734705e+00 1.3382258528e-04 1.4808639694e+00 -2.5649316341e+00 1.4808639694e+00 2.5649316341e+00 
72100 5.0922734643e+00 1.3281365573e-04 1.4808594510e+00 -2.5649238080e+00 1.4808594510e+00 2.5649238080e+00 
72200 5.0922734582e+00 1.3181241723e-04 1.4808549667e+00 -2.5649160409e+00 1.4808549667e+00 2.5649160409e+00 
72300 5.0922734521e+00 1.3081880996e-04 1.4808505161e+00 -2.5649083323e+00 1.4808505161e+00 2.5649083323e+00 
72400 5.0922734462e+00 1.2983277458e-04 1.4808460991e+00 -2.5649006818e+00 1.4808460991e+00 2.5649006818e+00 
72500 5.0922734403e+00 1.2885425223e-04 1.4808417154e+00 -2.5648930890e+00 1.4808417154e+00 2.5648930890e+00 
72600 5.0922734345e+00 1.2788318454e-04 1.4808373647e+00 -2.5648855533e+00 1.4808373647e+00 2.5648855533e+00 
72700 5.0922734288e+00 1.2691951359e-04 1.4808330467e+00 -2.5648780744e+00 1.4808330467e+00 2.5648780744e+00 
72800 5.0922734232e+00 1.2596318192e-04 1.4808287613e+00 -2.5648706519e+00 1.4808287613e+00 2.5648706519e+00 
72900 5.0922734177e+00 1.2501413256e-04 1.4808245082e+00 -2.5648632853e+00 1.4808245082e+00 2.5648632853e+00 
73000 5.0922734123e+00 1.2407230897e-04 1.4808202871e+00 -2.5648559741e+00 1.4808202871e+00 2.5648559741e+00 
73100 5.0922734069e+00 1.2313765508e-04 1.4808160978e+00 -2.5648487180e+00 1.4808160978e+00 2.5648487180e+00 
73200 5.0922734017e+00 1.2221011527e-04 1.4808119400e+00 -2.5648415166e+00 1.4808119400e+00 2.5648415166e+00 
73300 5.0922733965e+00 1.2128963434e-04 1.4808078136e+00 -2.5648343693e+00 1.4808078136e+00 2.5648343693e+00 
73400 5.0922733913e+00 1.2037615757e-04 1.4808037182e+00 -2.5648272759e+00 1.4808037182e+00 2.5648272759e+00 
73500 5.0922733863e+00 1.1946963066e-04 1.4807996536e+00 -2.5648202359e+00 1.4807996536e+00 2.5648202359e+00 
73600 5.0922733813e+00 1.1856999975e-04 1.4807956197e+00 -2.5648132489e+00 1.4807956197e+00 2.5648132489e+00 
73700 5.0922733764e+00 1.1767721139e-04 1.4807916161e+00 -2.5648063145e+00 1.4807916161e+00 2.5648063145e+00 
73800 5.0922733716e+00 1.1679121260e-04 1.4807876426e+00 -2.5647994322e+00 1.4807876426e+00 2.5647994322e+00 
73900 5.0922733669e+00 1.1591195077e-04 1.4807836991e+00 -2.5647926018e+00 1.4807836991e+00 2.5647926018e+00 
74000 5.0922733622e+00 1.1503937377e-04 1.4807797852e+00 -2.5647858228e+00 1.4807797852e+00 2.5647858228e+00 
74100 5.0922733576e+00 1.1417342983e-04 1.4807759008e+00 -2.5647790948e+00 1.4807759008e+00 2.5647790948e+00 
74200 5.0922733531e+00 1.1331406764e-04 1.4807720456e+00 -2.5647724174e+00 1.4807720456e+00 2.5647724174e+00 
74300 5.0922733486e+00 1.1246123627e-04 1.4807682194e+00 -2.5647657903e+00 1.4807682194e+00 2.5647657903e+00 
74400 5.0922733442e+00 1.1161488521e-04 1.4807644220e+00 -2.5647592130e+00 1.4807644220e+00 2.5647592130e+00 
74500 5.0922733399e+00 1.1077496434e-04 1.4807606532e+00 -2.5647526852e+00 1.4807606532e+00 2.5647526852e+00 
74600 5.0922733356e+00 1.0994142396e-04 1.4807569127e+00 -2.5647462065e+00 1.4807569127e+00 2.5647462065e+00 
74700 5.0922733314e+00 1.0911421475e-04 1.4807532004e+00 -2.5647397765e+00 1.4807532004e+00 2.5647397765e+00 
74800 5.0922733273e+00 1.0829328779e-04 1.4807495160e+00 -2.5647333950e+00 1.4807495160e+00 2.5647333950e+00 
74900 5.0922733232e+00 1.0747859454e-04 1.4807458593e+00 -2.5647270614e+00 1.4807458593e+00 2.5647270614e+00 
75000 5.0922733192e+00 1.0667008686e-04 1.4807422301e+00 -2.5647207754e+00 1.4807422301e+00 2.5647207754e+00 
75100 5.0922733152e+00 1.0586771700e-04 1.4807386282e+00 -2.5647145367e+00 1.4807386282e+00 2.5647145367e+00 
75200 5.0922733113e+00 1.0507143755e-04 1.4807350533e+00 -2.5647083449e+00 1.4807350533e+00 2.5647083449e+00 
75300 5.0922733075e+00 1.0428120153e-04 1.4807315054e+00 -2.5647021997e+00 1.4807315054e+00 2.5647021997e+00 
75400 5.0922733037e+00 1.0349696228e-04 1.4807279841e+00 -2.5646961007e+00 1.4807279841e+00 2.5646961007e+00 
75500 5.0922733000e+00 1.0271867357e-04 1.4807244893e+00 -2.5646900475e+00 1.4807244893e+00 2.5646900475e+00 
75600 5.0922732963e+00 1.0194628948e-04 1.4807210208e+00 -2.5646840398e+00 1.4807210208e+00 2.5646840398e+00 
75700 5.0922732927e+00 1.0117976449e-04 1.4807175783e+00 -2.5646780773e+00 1.4807175783e+00 2.5646780773e+00 
75800 5.0922732891e+00 1.0041905344e-04 1.4807141618e+00 -2.5646721597e+00 1.4807141618e+00 2.5646721597e+00 
75900 5.0922732856e+00 9.9664111499e-05 1.4807107709e+00 -2.5646662864e+00 1.4807107709e+00 2.5646662864e+00 
76000 5.0922732822e+00 9.8914894227e-05 1.4807074054e+00 -2.5646604574e+00 1.4807074054e+00 2.5646604574e+00 
76100 5.0922732788e+00 9.8171357515e-05 1.4807040653e+00 -2.5646546721e+00 1.4807040653e+00 2.5646546721e+00 
76200 5.0922732754e+00 9.7433457614e-05 1.4807007503e+00 -2.5646489303e+00 1.4807007503e+00 2.5646489303e+00 
76300 5.0922732721e+00 9.6701151113e-05 1.4806974602e+00 -2.5646432317e+00 1.4806974602e+00 2.5646432317e+00 
76400 5.0922732689e+00 9.5974394952e-05 1.4806941948e+00 -2.5646375759e+00 1.4806941948e+00 2.5646375759e+00 
76500 5.0922732657e+00 9.5253146407e-05 1.4806909539e+00 -2.5646319625e+00 1.4806909539e+00 2.5646319625e+00 
76600 5.0922732625e+00 9.4537363095e-05 1.4806877374e+00 -2.5646263914e+00 1.4806877374e+00 2.5646263914e+00 
76700 5.0922732594e+00 9.3827002966e-05 1.4806845451e+00 -2.5646208621e+00 1.4806845451e+00 2.5646208621e+00 
76800 5.0922732564e+00 9.3122024303e-05 1.4806813767e+00 -2.5646153743e+00 1.4806813767e+00 2.5646153743e+00 
76900 5.0922732534e+00 9.2422385721e-05 1.4806782322e+00 -2.5646099278e+00 1.4806782322e+00 2.5646099278e+00 
77000 5.0922732504e+00 9.1728046157e-05 1.4806751112e+00 -2.5646045221e+00 1.4806751112e+00 2.5646045221e+00 
77100 5.0922732475e+00 9.1038964878e-05 1.4806720137e+00 -2.5645991571e+00 1.4806720137e+00 2.5645991571e+00 
77200 5.0922732446e+00 9.0355101470e-05 1.4806689395e+00 -2.5645938323e+00 1.4806689395e+00 2.5645938323e+00 
77300 5.0922732418e+00 8.9676415835e-05 1.4806658883e+00 -2.5645885476e+00 1.4806658883e+00 2.5645885476e+00 
77400 5.0922732390e+00 8.9002868196e-05 1.4806628601e+00 -2.5645833025e+00 1.4806628601e+00 2.5645833025e+00 
77500 5.0922732362e+00 8.8334419086e-05 1.4806598546e+00 -2.5645780968e+00 1.4806598546e+00 2.5645780968e+00 
77600 5.0922732335e+00 8.7671029354e-05 1.4806568716e+00 -2.5645729302e+00 1.4806568716e+00 2.5645729302e+00 
77700 5.0922732308e+00 8.7012660152e-05 1.4806539111e+00 -2.5645678024e+00 1.4806539111e+00 2.5645678024e+00 
77800 5.0922732282e+00 8.6359272940e-05 1.4806509728e+00 -2.5645627131e+00 1.4806509728e+00 2.5645627131e+00 
77900 5.0922732256e+00 8.5710829483e-05 1.4806480565e+00 -2.5645576620e+00 1.4806480565e+00 2.5645576620e+00 
78000 5.0922732231e+00 8.5067291846e-05 1.4806451621e+00 -2.5645526488e+00 1.4806451621e+00 2.5645526488e+00 
78100 5.0922732206e+00 8.4428622391e-05 1.4806422895e+00 -2.5645476732e+00 1.4806422895e+00 2.5645476732e+00 
78200 5.0922732181e+00 8.3794783778e-05 1.4806394384e+00 -2.5645427350e+00 1.4806394384e+00 2.5645427350e+00 
78300 5.0922732157e+00 8.3165738960e-05 1.4806366087e+00 -2.5645378339e+00 1.4806366087e+00 2.5645378339e+00 
78400 5.0922732133e+00 8.2541451181e-05 1.4806338003e+00 -2.5645329695e+00 1.4806338003e+00 2.5645329695e+00 
78500 5.0922732109e+00 8.1921883975e-05 1.4806310129e+00 -2.5645281416e+00 1.4806310129e+00 2.5645281416e+00 
78600 5.0922732086e+00 8.1307001160e-05 1.4806282465e+00 -2.5645233500e+00 1.4806282465e+00 2.5645233500e+00 
78700 5.0922732063e+00 8.0696766840e-05 1.4806255008e+00 -2.5645185943e+00 1.4806255008e+00 2.5645185943e+00 
78800 5.0922732040e+00 8.0091145401e-05 1.4806227757e+00 -2.5645138743e+00 1.4806227757e+00 2.5645138743e+00 
78900 5.0922732018e+00 7.9490101508e-05 1.4806200710e+00 -2.5645091897e+00 1.4806200710e+00 2.5645091897e+00 
79000 5.0922731996e+00 7.8893600102e-05 1.4806173867e+00 -2.5645045403e+00 1.4806173867e+00 2.5645045403e+00 
79100 5.0922731974e+00 7.8301606401e-05 1.4806147225e+00 -2.5644999258e+00 1.4806147225e+00 2.5644999258e+00 
79200 5.0922731953e+00 7.7714085895e-05 1.4806120782e+00 -2.5644953458e+00 1.4806120782e+00 2.5644953458e+00 
79300 5.0922731932e+00 7.7131004343e-05 1.4806094539e+00 -2.5644908002e+00 1.4806094539e+00 2.5644908002e+00 
79400 5.0922731912e+00 7.6552327774e-05 1.4806068492e+00 -2.5644862888e+00 1.4806068492e+00 2.5644862888e+00 
79500 5.0922731891e+00 7.5978022483e-05 1.4806042640e+00 -2.5644818111e+00 1.4806042640e+00 2.5644818111e+00 
79600 5.0922731871e+00 7.5408055028e-05 1.4806016982e+00 -2.5644773671e+00 1.4806016982e+00 2.5644773671e+00 
79700 5.0922731852e+00 7.4842392230e-05 1.4805991517e+00 -2.5644729563e+00 1.4805991517e+00 2.5644729563e+00 
79800 5.0922731832e+00 7.4281001167e-05 1.4805966242e+00 -2.5644685787e+00 1.4805966242e+00 2.5644685787e+00 
79900 5.0922731813e+00 7.3723849178e-05 1.4805941158e+00 -2.5644642339e+00 1.4805941158e+00 2.5644642339e+00 
80000 5.0922731794e+00 7.3170903856e-05 1.4805916261e+00 -2.5644599216e+00 1.4805916261e+00 2.5644599216e+00 
80100 5.0922731776e+00 7.2622133045e-05 1.4805891551e+00 -2.5644556417e+00 1.4805891551e+00 2.5644556417e+00 
80200 5.0922731757e+00 7.2077504844e-05 1.4805867026e+00 -2.5644513939e+00 1.4805867026e+00 2.5644513939e+00 
80300 5.0922731739e+00 7.1536987600e-05 1.4805842685e+00 -2.5644471780e+00 1.4805842685e+00 2.5644471780e+00 
80400 5.0922731722e+00 7.1000549905e-05 1.4805818527e+00 -2.5644429936e+00 1.4805818527e+00 2.5644429936e+00 
80500 5.0922731704e+00 7.0468160600e-05 1.4805794550e+00 -2.5644388406e+00 1.4805794550e+00 2.5644388406e+00 
80600 5.0922731689e+00 7.1008472546e-05 1.4805794550e+00 -2.5644388406e+00 1.4805794550e+00 2.5644388406e+00 
80700 5.0922731672e+00 7.0471856507e-05 1.4805770570e+00 -2.5644346872e+00 1.4805770570e+00 2.5644346872e+00 
80800 5.0922731658e+00 7.1007860805e-05 1.4805770570e+00 -2.5644346872e+00 1.4805770570e+00 2.5644346872e+00 
80900 5.0922731642e+00 7.0466802909e-05 1.4805746590e+00 -2.5644305338e+00 1.4805746590e+00 2.5644305338e+00 
81000 5.0922731628e+00 7.0998177596e-05 1.4805746590e+00 -2.5644305338e+00 1.4805746590e+00 2.5644305338e+00 
81100 5.0922731612e+00 7.0452513287e-05 1.4805722613e+00 -2.5644263809e+00 1.4805722613e+00 2.5644263809e+00 
81200 5.0922731598e+00 7.0978976183e-05 1.4805722613e+00 -2.5644263809e+00 1.4805722613e+00 2.5644263809e+00 
81300 5.0922731582e+00 7.0428584992e-05 1.4805698643e+00 -2.5644222292e+00 1.4805698643e+00 2.5644222292e+00 
81400 5.0922731569e+00 7.0949888978e-05 1.4805698643e+00 -2.5644222292e+00 1.4805698643e+00 2.5644222292e+00 
81500 5.0922731554e+00 7.0394688966e-05 1.4805674683e+00 -2.5644180791e+00 1.4805674683e+00 2.5644180791e+00 
81600 5.0922731542e+00 7.0910617964e-05 1.4805674683e+00 -2.5644180791e+00 1.4805674683e+00 2.5644180791e+00 
81700 5.0922731527e+00 7.0350560950e-05 1.4805650736e+00 -2.5644139314e+00 1.4805650736e+00 2.5644139314e+00 
81800 5.0922731515e+00 7.0860926475e-05 1.4805650736e+00 -2.5644139314e+00 1.4805650736e+00 2.5644139314e+00 
81900 5.0922731500e+00 7.0295993921e-05 1.4805626805e+00 -2.5644097865e+00 1.4805626805e+00 2.5644097865e+00 
82000 5.0922731488e+00 7.0800632136e-05 1.4805626805e+00 -2.5644097865e+00 1.4805626805e+00 2.5644097865e+00 
82100 5.0922731474e+00 7.0230831592e-05 1.4805602895e+00 -2.5644056452e+00 1.4805602895e+00 2.5644056452e+00 
82200 5.0922731463e+00 7.0729600763e-05 1.4805602895e+00 -2.5644056452e+00 1.4805602895e+00 2.5644056452e+00 
82300 5.0922731449e+00 7.0154962777e-05 1.4805579009e+00 -2.5644015080e+00 1.4805579009e+00 2.5644015080e+00 
82400 5.0922731438e+00 7.0647741082e-05 1.4805579009e+00 -2.5644015080e+00 1.4805579009e+00 2.5644015080e+00 
82500 5.0922731427e+00 7.1139521875e-05 1.4805579009e+00 -2.5644015080e+00 1.4805579009e+00 2.5644015080e+00 
82600 5.0922731414e+00 7.0551537893e-05 1.4805554985e+00 -2.5643973468e+00 1.4805554985e+00 2.5643973468e+00 
82700 5.0922731404e+00 7.1036969184e-05 1.4805554985e+00 -2.5643973468e+00 1.4805554985e+00 2.5643973468e+00 
82800 5.0922731391e+00 7.0444174878e-05 1.4805530995e+00 -2.5643931916e+00 1.4805530995e+00 2.5643931916e+00 
82900 5.0922731381e+00 7.0923196213e-05 1.4805530995e+00 -2.5643931916e+00 1.4805530995e+00 2.5643931916e+00 
83000 5.0922731368e+00 7.0325706559e-05 1.4805507043e+00 -2.5643890431e+00 1.4805507043e+00 2.5643890431e+00 
83100 5.0922731359e+00 7.0798269365e-05 1.4805507043e+00 -2.5643890431e+00 1.4805507043e+00 2.5643890431e+00 
83200 5.0922731347e+00 7.0196209773e-05 1.4805483134e+00 -2.5643849018e+00 1.4805483134e+00 2.5643849018e+00 
83300 5.0922731337e+00 7.0662276511e-05 1.4805483134e+00 -2.5643849018e+00 1.4805483134e+00 2.5643849018e+00 
83400 5.0922731328e+00 7.1127123233e-05 1.4805483134e+00 -2.5643849018e+00 1.4805483134e+00 2.5643849018e+00 
83500 5.0922731316e+00 7.0512272052e-05 1.4805459113e+00 -2.5643807414e+00 1.4805459113e+00 2.5643807414e+00 
83600 5.0922731307e+00 7.0970376200e-05 1.4805459113e+00 -2.5643807414e+00 1.4805459113e+00 2.5643807414e+00 
83700 5.0922731296e+00 7.0351174012e-05 1.4805435146e+00 -2.5643765900e+00 1.4805435146e+00 2.5643765900e+00 
83800 5.0922731287e+00 7.0802541800e-05 1.4805435146e+00 -2.5643765900e+00 1.4805435146e+00 2.5643765900e+00 
83900 5.0922731276e+00 7.0179165331e-05 1.4805411235e+00 -2.5643724485e+00 1.4805411235e+00 2.5643724485e+00 
84000 5.0922731267e+00 7.0623809218e-05 1.4805411235e+00 -2.5643724485e+00 1.4805411235e+00 2.5643724485e+00 
84100 5.0922731259e+00 7.1067135873e-05 1.4805411235e+00 -2.5643724485e+00 1.4805411235e+00 2.5643724485e+00 
84200 5.0922731248e+00 7.0431647934e-05 1.4805387234e+00 -2.5643682916e+00 1.4805387234e+00 2.5643682916e+00 
84300 5.0922731240e+00 7.0868071456e-05 1.4805387234e+00 -2.5643682916e+00 1.4805387234e+00 2.5643682916e+00 
84400 5.0922731230e+00 7.0228731467e-05 1.4805363301e+00 -2.5643641462e+00 1.4805363301e+00 2.5643641462e+00 
84500 5.0922731222e+00 7.0658298299e-05 1.4805363301e+00 -2.5643641462e+00 1.4805363301e+00 2.5643641462e+00 
84600 5.0922731215e+00 7.1086494582e-05 1.4805363301e+00 -2.5643641462e+00 1.4805363301e+00 2.5643641462e+00 
84700 5.0922731205e+00 7.0435577746e-05 1.4805339294e+00 -2.5643599881e+00 1.4805339294e+00 2.5643599881e+00 
84800 5.0922731197e+00 7.0856783456e-05 1.4805339294e+00 -2.5643599881e+00 1.4805339294e+00 2.5643599881e+00 
84900 5.0922731188e+00 7.0202403770e-05 1.4805315365e+00 -2.5643558434e+00 1.4805315365e+00 2.5643558434e+00 
85000 5.0922731180e+00 7.0616692466e-05 1.4805315365e+00 -2.5643558434e+00 1.4805315365e+00 2.5643558434e+00 
85100 5.0922731173e+00 7.1029588981e-05 1.4805315365e+00 -2.5643558434e+00 1.4805315365e+00 2.5643558434e+00 
85200 5.0922731164e+00 7.0364258329e-05 1.4805291377e+00 -2.5643516885e+00 1.4805291377e+00 2.5643516885e+00 
85300 5.0922731157e+00 7.0770140551e-05 1.4805291377e+00 -2.5643516885e+00 1.4805291377e+00 2.5643516885e+00 
85400 5.0922731148e+00 7.0101783505e-05 1.4805267476e+00 -2.5643475489e+00 1.4805267476e+00 2.5643475489e+00 
85500 5.0922731141e+00 7.0500746842e-05 1.4805267476e+00 -2.5643475489e+00 1.4805267476e+00 2.5643475489e+00 
85600 5.0922731135e+00 7.0898321617e-05 1.4805267476e+00 -2.5643475489e+00 1.4805267476e+00 2.5643475489e+00 
85700 5.0922731126e+00 7.0219704674e-05 1.4805243533e+00 -2.5643434017e+00 1.4805243533e+00 2.5643434017e+00 
85800 5.0922731120e+00 7.0610293109e-05 1.4805243533e+00 -2.5643434017e+00 1.4805243533e+00 2.5643434017e+00 
85900 5.0922731114e+00 7.0999469707e-05 1.4805243533e+00 -2.5643434017e+00 1.4805243533e+00 2.5643434017e+00 
86000 5.0922731105e+00 7.0310924387e-05 1.4805219555e+00 -2.5643392487e+00 1.4805219555e+00 2.5643392487e+00 
86100 5.0922731099e+00 7.0693074146e-05 1.4805219555e+00 -2.5643392487e+00 1.4805219555e+00 2.5643392487e+00 
86200 5.0922731093e+00 7.1073800462e-05 1.4805219555e+00 -2.5643392487e+00 1.4805219555e+00 2.5643392487e+00 
86300 5.0922731085e+00 7.0375691641e-05 1.4805195552e+00 -2.5643350912e+00 1.4805195552e+00 2.5643350912e+00 
86400 5.0922731079e+00 7.0749373717e-05 1.4805195552e+00 -2.5643350912e+00 1.4805195552e+00 2.5643350912e+00 
86500 5.0922731071e+00 7.0049213976e-05 1.4805171659e+00 -2.5643309528e+00 1.4805171659e+00 2.5643309528e+00 
86600 5.0922731066e+00 7.0415994569e-05 1.4805171659e+00 -2.5643309528e+00 1.4805171659e+00 2.5643309528e+00 
86700 5.0922731060e+00 7.0781409821e-05 1.4805171659e+00 -2.5643309528e+00 1.4805171659e+00 2.5643309528e+00 
86800 5.0922731053e+00 7.0072515566e-05 1.4805147754e+00 -2.5643268124e+00 1.4805147754e+00 2.5643268124e+00 
86900 5.0922731047e+00 7.0431025175e-05 1.4805147754e+00 -2.5643268124e+00 1.4805147754e+00 2.5643268124e+00 
87000 5.0922731042e+00 7.0788172897e-05 1.4805147754e+00 -2.5643268124e+00 1.4805147754e+00 2.5643268124e+00 
87100 5.0922731035e+00 7.0070934879e-05 1.4805123848e+00 -2.5643226717e+00 1.4805123848e+00 2.5643226717e+00 
87200 5.0922731030e+00 7.0421191669e-05 1.4805123848e+00 -2.5643226717e+00 1.4805123848e+00 2.5643226717e+00 
87300 5.0922731025e+00 7.0770097990e-05 1.4805123848e+00 -2.5643226717e+00 1.4805123848e+00 2.5643226717e+00 
87400 5.0922731018e+00 7.0044925778e-05 1.4805099947e+00 -2.5643185320e+00 1.4805099947e+00 2.5643185320e+00 
87500 5.0922731013e+00 7.0386971962e-05 1.4805099947e+00 -2.5643185320e+00 1.4805099947e+00 2.5643185320e+00 
87600 5.0922731008e+00 7.0727685796e-05 1.4805099947e+00 -2.5643185320e+00 1.4805099947e+00 2.5643185320e+00 
87700 5.0922731001e+00 6.9995002955e-05 1.4805076061e+00 -2.5643143948e+00 1.4805076061e+00 2.5643143948e+00 
87800 5.0922730997e+00 7.0328901185e-05 1.4805076061e+00 -2.5643143948e+00 1.4805076061e+00 2.5643143948e+00 
87900 5.0922730992e+00 7.0661490822e-05 1.4805076061e+00 -2.5643143948e+00 1.4805076061e+00 2.5643143948e+00 
88000 5.0922730988e+00 7.0992718275e-05 1.4805076061e+00 -2.5643143948e+00 1.4805076061e+00 2.5643143948e+00 
88100 5.0922730981e+00 7.0246533137e-05 1.4805052085e+00 -2.5643102420e+00 1.4805052085e+00 2.5643102420e+00 
88200 5.0922730977e+00 7.0570885846e-05 1.4805052085e+00 -2.5643102420e+00 1.4805052085e+00 2.5643102420e+00 
88300 5.0922730973e+00 7.0893915716e-05 1.4805052085e+00 -2.5643102420e+00 1.4805052085e+00 2.5643102420e+00 
88400 5.0922730966e+00 7.0141088259e-05 1.4805028143e+00 -2.5643060951e+00 1.4805028143e+00 2.5643060951e+00 
88500 5.0922730962e+00 7.0457329930e-05 1.4805028143e+00 -2.5643060951e+00 1.4805028143e+00 2.5643060951e+00 
88600 5.0922730958e+00 7.0772290130e-05 1.4805028143e+00 -2.5643060951e+00 1.4805028143e+00 2.5643060951e+00 
88700 5.0922730952e+00 7.0013295577e-05 1.4805004241e+00 -2.5643019552e+00 1.4805004241e+00 2.5643019552e+00 
88800 5.0922730948e+00 7.0321559264e-05 1.4805004241e+00 -2.5643019552e+00 1.4805004241e+00 2.5643019552e+00 
88900 5.0922730945e+00 7.0628584618e-05 1.4805004241e+00 -2.5643019552e+00 1.4805004241e+00 2.5643019552e+00 
89000 5.0922730941e+00 7.0934323766e-05 1.4805004241e+00 -2.5643019552e+00 1.4805004241e+00 2.5643019552e+00 
89100 5.0922730935e+00 7.0163674900e-05 1.4804980285e+00 -2.5642978059e+00 1.4804980285e+00 2.5642978059e+00 
89200 5.0922730931e+00 7.0462710322e-05 1.4804980285e+00 -2.5642978059e+00 1.4804980285e+00 2.5642978059e+00 
89300 5.0922730928e+00 7.0760514066e-05 1.4804980285e+00 -2.5642978059e+00 1.4804980285e+00 2.5642978059e+00 
89400 5.0922730922e+00 6.9984634405e-05 1.4804956388e+00 -2.5642936667e+00 1.4804956388e+00 2.5642936667e+00 
89500 5.0922730919e+00 7.0275853093e-05 1.4804956388e+00 -2.5642936667e+00 1.4804956388e+00 2.5642936667e+00 
89600 5.0922730915e+00 7.0565894073e-05 1.4804956388e+00 -2.5642936667e+00 1.4804956388e+00 2.5642936667e+00 
89700 5.0922730912e+00 7.0854712682e-05 1.4804956388e+00 -2.5642936667e+00 1.4804956388e+00 2.5642936667e+00 
89800 5.0922730906e+00 7.0068454477e-05 1.4804932458e+00 -2.5642895220e+00 1.4804932458e+00 2.5642895220e+00 
89900 5.0922730903e+00 7.0350710294e-05 1.4804932458e+00 -2.5642895220e+00 1.4804932458e+00 2.5642895220e+00 
90000 5.0922730900e+00 7.0631806586e-05 1.4804932458e+00 -2.5642895220e+00 1.4804932458e+00 2.5642895220e+00 
90100 5.0922730897e+00 7.0911701197e-05 1.4804932458e+00 -2.5642895220e+00 1.4804932458e+00 2.5642895220e+00 
90200 5.0922730891e+00 7.0115699387e-05 1.4804908510e+00 -2.5642853740e+00 1.4804908510e+00 2.5642853740e+00 
90300 5.0922730888e+00 7.0389076208e-05 1.4804908510e+00 -2.5642853740e+00 1.4804908510e+00 2.5642853740e+00 
90400 5.0922730886e+00 7.0661320940e-05 1.4804908510e+00 -2.5642853740e+00 1.4804908510e+00 2.5642853740e+00 
90500 5.0922730883e+00 7.0932393348e-05 1.4804908510e+00 -2.5642853740e+00 1.4804908510e+00 2.5642853740e+00 
90600 5.0922730877e+00 7.0127307140e-05 1.4804884554e+00 -2.5642812248e+00 1.4804884554e+00 2.5642812248e+00 
90700 5.0922730875e+00 7.0391924540e-05 1.4804884554e+00 -2.5642812248e+00 1.4804884554e+00 2.5642812248e+00 
90800 5.0922730872e+00 7.0655444325e-05 1.4804884554e+00 -2.5642812248e+00 1.4804884554e+00 2.5642812248e+00 
90900 5.0922730869e+00 7.0917827736e-05 1.4804884554e+00 -2.5642812248e+00 1.4804884554e+00 2.5642812248e+00 
91000 5.0922730864e+00 7.0104330066e-05 1.4804860603e+00 -2.5642770763e+00 1.4804860603e+00 2.5642770763e+00 
91100 5.0922730862e+00 7.0360335207e-05 1.4804860603e+00 -2.5642770763e+00 1.4804860603e+00 2.5642770763e+00 
91200 5.0922730859e+00 7.0615282538e-05 1.4804860603e+00 -2.5642770763e+00 1.4804860603e+00 2.5642770763e+00 
91300 5.0922730856e+00 7.0869134435e-05 1.4804860603e+00 -2.5642770763e+00 1.4804860603e+00 2.5642770763e+00 
91400 5.0922730852e+00 7.0047903880e-05 1.4804836669e+00 -2.5642729308e+00 1.4804836669e+00 2.5642729308e+00 
91500 5.0922730849e+00 7.0295465207e-05 1.4804836669e+00 -2.5642729308e+00 1.4804836669e+00 2.5642729308e+00 
91600 5.0922730847e+00 7.0542012523e-05 1.4804836669e+00 -2.5642729308e+00 1.4804836669e+00 2.5642729308e+00 
91700 5.0922730844e+00 7.0787509076e-05 1.4804836669e+00 -2.5642729308e+00 1.4804836669e+00 2.5642729308e+00 
91800 5.0922730840e+00 6.9959223596e-05 1.4804812762e+00 -2.5642687900e+00 1.4804812762e+00 2.5642687900e+00 
91900 5.0922730837e+00 7.0198525862e-05 1.4804812762e+00 -2.5642687900e+00 1.4804812762e+00 2.5642687900e+00 
92000 5.0922730835e+00 7.0436860852e-05 1.4804812762e+00 -2.5642687900e+00 1.4804812762e+00 2.5642687900e+00 
92100 5.0922730833e+00 7.0674192478e-05 1.4804812762e+00 -2.5642687900e+00 1.4804812762e+00 2.5642687900e+00 
92200 5.0922730831e+00 7.0910487158e-05 1.4804812762e+00 -2.5642687900e+00 1.4804812762e+00 2.5642687900e+00 
92300 5.0922730826e+00 7.0071175502e-05 1.4804788813e+00 -2.5642646420e+00 1.4804788813e+00 2.5642646420e+00 
92400 5.0922730824e+00 7.0301305168e-05 1.4804788813e+00 -2.5642646420e+00 1.4804788813e+00 2.5642646420e+00 
92500 5.0922730822e+00 7.0530489927e-05 1.4804788813e+00 -2.5642646420e+00 1.4804788813e+00 2.5642646420e+00 
92600 5.0922730820e+00 7.0758696051e-05 1.4804788813e+00 -2.5642646420e+00 1.4804788813e+00 2.5642646420e+00 
92700 5.0922730816e+00 6.9913670630e-05 1.4804764916e+00 -2.5642605029e+00 1.4804764916e+00 2.5642605029e+00 
92800 5.0922730814e+00 7.0135836496e-05 1.4804764916e+00 -2.5642605029e+00 1.4804764916e+00 2.5642605029e+00 
92900 5.0922730812e+00 7.0357115004e-05 1.4804764916e+00 -2.5642605029e+00 1.4804764916e+00 2.5642605029e+00 
93000 5.0922730810e+00 7.0577472330e-05 1.4804764916e+00 -2.5642605029e+00 1.4804764916e+00 2.5642605029e+00 
93100 5.0922730808e+00 7.0796876997e-05 1.4804764916e+00 -2.5642605029e+00 1.4804764916e+00 2.5642605029e+00 
93200 5.0922730804e+00 6.9942520266e-05 1.4804741006e+00 -2.5642563615e+00 1.4804741006e+00 2.5642563615e+00 
93300 5.0922730802e+00 7.0155940528e-05 1.4804741006e+00 -2.5642563615e+00 1.4804741006e+00 2.5642563615e+00 
93400 5.0922730800e+00 7.0368505327e-05 1.4804741006e+00 -2.5642563615e+00 1.4804741006e+00 2.5642563615e+00 
93500 5.0922730799e+00 7.0580182504e-05 1.4804741006e+00 -2.5642563615e+00 1.4804741006e+00 2.5642563615e+00 
93600 5.0922730797e+00 7.0790942127e-05 1.4804741006e+00 -2.5642563615e+00 1.4804741006e+00 2.5642563615e+00 
93700 5.0922730793e+00 6.9928086508e-05 1.4804717098e+00 -2.5642522205e+00 1.4804717098e+00 2.5642522205e+00 
93800 5.0922730791e+00 7.0132936428e-05 1.4804717098e+00 -2.5642522205e+00 1.4804717098e+00 2.5642522205e+00 
93900 5.0922730790e+00 7.0336969980e-05 1.4804717098e+00 -2.5642522205e+00 1.4804717098e+00 2.5642522205e+00 
94000 5.0922730788e+00 7.0540156151e-05 1.4804717098e+00 -2.5642522205e+00 1.4804717098e+00 2.5642522205e+00 
94100 5.0922730786e+00 7.0742466076e-05 1.4804717098e+00 -2.5642522205e+00 1.4804717098e+00 2.5642522205e+00 
94200 5.0922730782e+00 6.9871956339e-05 1.4804693206e+00 -2.5642480823e+00 1.4804693206e+00 2.5642480823e+00 
94300 5.0922730781e+00 7.0068444748e-05 1.4804693206e+00 -2.5642480823e+00 1.4804693206e+00 2.5642480823e+00 
94400 5.0922730779e+00 7.0264160717e-05 1.4804693206e+00 -2.5642480823e+00 1.4804693206e+00 2.5642480823e+00 
94500 5.0922730778e+00 7.0459074022e-05 1.4804693206e+00 -2.5642480823e+00 1.4804693206e+00 2.5642480823e+00 
94600 5.0922730776e+00 7.0653156526e-05 1.4804693206e+00 -2.5642480823e+00 1.4804693206e+00 2.5642480823e+00 
94700 5.0922730775e+00 7.0846382027e-05 1.4804693206e+00 -2.5642480823e+00 1.4804693206e+00 2.5642480823e+00 
94800 5.0922730771e+00 6.9965257140e-05 1.4804669279e+00 -2.5642439380e+00 1.4804669279e+00 2.5642439380e+00 
94900 5.0922730770e+00 7.0152700946e-05 1.4804669279e+00 -2.5642439380e+00 1.4804669279e+00 2.5642439380e+00 
95000 5.0922730769e+00 7.0339398732e-05 1.4804669279e+00 -2.5642439380e+00 1.4804669279e+00 2.5642439380e+00 
95100 5.0922730767e+00 7.0525322253e-05 1.4804669279e+00 -2.5642439380e+00 1.4804669279e+00 2.5642439380e+00 
95200 5.0922730766e+00 7.0710445207e-05 1.4804669279e+00 -2.5642439380e+00 1.4804669279e+00 2.5642439380e+00 
95300 5.0922730765e+00 7.0894743103e-05 1.4804669279e+00 -2.5642439380e+00 1.4804669279e+00 2.5642439380e+00 
95400 5.0922730761e+00 7.0004012285e-05 1.4804645336e+00 -2.5642397909e+00 1.4804645336e+00 2.5642397909e+00 
95500 5.0922730760e+00 7.0182594256e-05 1.4804645336e+00 -2.5642397909e+00 1.4804645336e+00 2.5642397909e+00 
95600 5.0922730759e+00 7.0360466723e-05 1.4804645336e+00 -2.5642397909e+00 1.4804645336e+00 2.5642397909e+00 
95700 5.0922730757e+00 7.0537602715e-05 1.4804645336e+00 -2.5642397909e+00 1.4804645336e+00 2.5642397909e+00 
95800 5.0922730756e+00 7.0713977121e-05 1.4804645336e+00 -2.5642397909e+00 1.4804645336e+00 2.5642397909e+00 
95900 5.0922730753e+00 6.9818140480e-05 1.4804621453e+00 -2.5642356544e+00 1.4804621453e+00 2.5642356544e+00 
96000 5.0922730751e+00 6.9988934363e-05 1.4804621453e+00 -2.5642356544e+00 1.4804621453e+00 2.5642356544e+00 
96100 5.0922730750e+00 7.0159080124e-05 1.4804621453e+00 -2.5642356544e+00 1.4804621453e+00 2.5642356544e+00 
96200 5.0922730749e+00 7.0328550337e-05 1.4804621453e+00 -2.5642356544e+00 1.4804621453e+00 2.5642356544e+00 
96300 5.0922730748e+00 7.0497319456e-05 1.4804621453e+00 -2.5642356544e+00 1.4804621453e+00 2.5642356544e+00 
96400 5.0922730747e+00 7.0665363685e-05 1.4804621453e+00 -2.5642356544e+00 1.4804621453e+00 2.5642356544e+00 
96500 5.0922730746e+00 7.0832660856e-05 1.4804621453e+00 -2.5642356544e+00 1.4804621453e+00 2.5642356544e+00 
96600 5.0922730743e+00 6.9925988487e-05 1.4804597531e+00 -2.5642315109e+00 1.4804597531e+00 2.5642315109e+00 
96700 5.0922730742e+00 7.0087735446e-05 1.4804597531e+00 -2.5642315109e+00 1.4804597531e+00 2.5642315109e+00 
96800 5.0922730741e+00 7.0248856741e-05 1.4804597531e+00 -2.5642315109e+00 1.4804597531e+00 2.5642315109e+00 
96900 5.0922730740e+00 7.0409327126e-05 1.4804597531e+00 -2.5642315109e+00 1.4804597531e+00 2.5642315109e+00 
97000 5.0922730739e+00 7.0569123082e-05 1.4804597531e+00 -2.5642315109e+00 1.4804597531e+00 2.5642315109e+00 
97100 5.0922730738e+00 7.0728222698e-05 1.4804597531e+00 -2.5642315109e+00 1.4804597531e+00 2.5642315109e+00 
97200 5.0922730734e+00 6.9815003639e-05 1.4804573643e+00 -2.5642273735e+00 1.4804573643e+00 2.5642273735e+00 
97300 5.0922730734e+00 6.9968661018e-05 1.4804573643e+00 -2.5642273735e+00 1.4804573643e+00 2.5642273735e+00 
97400 5.0922730733e+00 7.0121743843e-05 1.4804573643e+00 -2.5642273735e+00 1.4804573643e+00 2.5642273735e+00 
97500 5.0922730732e+00 7.0274227060e-05 1.4804573643e+00 -2.5642273735e+00 1.4804573643e+00 2.5642273735e+00 
97600 5.0922730731e+00 7.0426087329e-05 1.4804573643e+00 -2.5642273735e+00 1.4804573643e+00 2.5642273735e+00 
97700 5.0922730730e+00 7.0577302898e-05 1.4804573643e+00 -2.5642273735e+00 1.4804573643e+00 2.5642273735e+00 
97800 5.0922730729e+00 7.0727853494e-05 1.4804573643e+00 -2.5642273735e+00 1.4804573643e+00 2.5642273735e+00 
97900 5.0922730726e+00 6.9806143750e-05 1.4804549756e+00 -2.5642232361e+00 1.4804549756e+00 2.5642232361e+00 
98000 5.0922730725e+00 6.9951319270e-05 1.4804549756e+00 -2.5642232361e+00 1.4804549756e+00 2.5642232361e+00 
98100 5.0922730724e+00 7.0095955844e-05 1.4804549756e+00 -2.5642232361e+00 1.4804549756e+00 2.5642232361e+00 
98200 5.0922730724e+00 7.0240029634e-05 1.4804549756e+00 -2.5642232361e+00 1.4804549756e+00 2.5642232361e+00 
98300 5.0922730723e+00 7.0383518428e-05 1.4804549756e+00 -2.5642232361e+00 1.4804549756e+00 2.5642232361e+00 
98400 5.0922730722e+00 7.0526401519e-05 1.4804549756e+00 -2.5642232361e+00 1.4804549756e+00 2.5642232361e+00 
98500 5.0922730721e+00 7.0668659608e-05 1.4804549756e+00 -2.5642232361e+00 1.4804549756e+00 2.5642232361e+00 
98600 5.0922730720e+00 7.0810274703e-05 1.4804549756e+00 -2.5642232361e+00 1.4804549756e+00 2.5642232361e+00 
98700 5.0922730717e+00 6.9878426493e-05 1.4804525841e+00 -2.5642190939e+00 1.4804525841e+00 2.5642190939e+00 
98800 5.0922730717e+00 7.0014711974e-05 1.4804525841e+00 -2.5642190939e+00 1.4804525841e+00 2.5642190939e+00 
98900 5.0922730716e+00 7.0150486625e-05 1.4804525841e+00 -2.5642190939e+00 1.4804525841e+00 2.5642190939e+00 
99000 5.0922730715e+00 7.0285728312e-05 1.4804525841e+00 -2.5642190939e+00 1.4804525841e+00 2.5642190939e+00 
99100 5.0922730715e+00 7.0420416405e-05 1.4804525841e+00 -2.5642190939e+00 1.4804525841e+00 2.5642190939e+00 
99200 5.0922730714e+00 7.0554531680e-05 1.4804525841e+00 -2.5642190939e+00 1.4804525841e+00 2.5642190939e+00 
99300 5.0922730713e+00 7.0688056213e-05 1.4804525841e+00 -2.5642190939e+00 1.4804525841e+00 2.5642190939e+00 
99400 5.0922730713e+00 7.0820973300e-05 1.4804525841e+00 -2.5642190939e+00 1.4804525841e+00 2.5642190939e+00 
99500 5.0922730710e+00 6.9880321820e-05 1.4804501923e+00 -2.5642149511e+00 1.4804501923e+00 2.5642149511e+00 
99600 5.0922730709e+00 7.0007983253e-05 1.4804501923e+00 -2.5642149511e+00 1.4804501923e+00 2.5642149511e+00 
99700 5.0922730708e+00 7.0135172791e-05 1.4804501923e+00 -2.5642149511e+00 1.4804501923e+00 2.5642149511e+00 
99800 5.0922730708e+00 7.0261869273e-05 1.4804501923e+00 -2.5642149511e+00 1.4804501923e+00 2.5642149511e+00 
99900 5.0922730707e+00 7.0388052982e-05 1.4804501923e+00 -2.5642149511e+00 1.4804501923e+00 2.5642149511e+00 
100000 5.0922730707e+00 7.0513705536e-05 1.4804501923e+00 -2.5642149511e+00 1.4804501923e+00 2.5642149511e+00 
100100 5.0922730706e+00 7.0638809806e-05 1.4804501923e+00 -2.5642149511e+00 1.4804501923e+00 2.5642149511e+00 
100200 5.0922730705e+00 7.0763349822e-05 1.4804501923e+00 -2.5642149511e+00 1.4804501923e+00 2.5642149511e+00 
100300 5.0922730703e+00 6.9815256730e-05 1.4804478023e+00 -2.5642108116e+00 1.4804478023e+00 2.5642108116e+00 
100400 5.0922730702e+00 6.9934632698e-05 1.4804478023e+00 -2.5642108116e+00 1.4804478023e+00 2.5642108116e+00 
100500 5.0922730702e+00 7.0053581742e-05 1.4804478023e+00 -2.5642108116e+00 1.4804478023e+00 2.5642108116e+00 
100600 5.0922730701e+00 7.0172083262e-05 1.4804478023e+00 -2.5642108116e+00 1.4804478023e+00 2.5642108116e+00 
100700 5.0922730700e+00 7.0290118061e-05 1.4804478023e+00 -2.5642108116e+00 1.4804478023e+00 2.5642108116e+00 
100800 5.0922730700e+00 7.0407668245e-05 1.4804478023e+00 -2.5642108116e+00 1.4804478023e+00 2.5642108116e+00 
100900 5.0922730699e+00 7.0524717132e-05 1.4804478023e+00 -2.5642108116e+00 1.4804478023e+00 2.5642108116e+00 
101000 5.0922730699e+00 7.0641249168e-05 1.4804478023e+00 -2.5642108116e+00 1.4804478023e+00 2.5642108116e+00 
101100 5.0922730698e+00 7.0757249853e-05 1.4804478023e+00 -2.5642108116e+00 1.4804478023e+00 2.5642108116e+00 
101200 5.0922730696e+00 6.9800763831e-05 1.4804454126e+00 -2.5642066725e+00 1.4804454126e+00 2.5642066725e+00 
101300 5.0922730695e+00 6.9911670569e-05 1.4804454126e+00 -2.5642066725e+00 1.4804454126e+00 2.5642066725e+00 
101400 5.0922730695e+00 7.0022187087e-05 1.4804454126e+00 -2.5642066725e+00 1.4804454126e+00 2.5642066725e+00 
101500 5.0922730694e+00 7.0132293887e-05 1.4804454126e+00 -2.5642066725e+00 1.4804454126e+00 2.5642066725e+00 
101600 5.0922730694e+00 7.0241972797e-05 1.4804454126e+00 -2.5642066725e+00 1.4804454126e+00 2.5642066725e+00 
101700 5.0922730693e+00 7.0351206878e-05 1.4804454126e+00 -2.5642066725e+00 1.4804454126e+00 2.5642066725e+00 
101800 5.0922730693e+00 7.0459980333e-05 1.4804454126e+00 -2.5642066725e+00 1.4804454126e+00 2.5642066725e+00 
101900 5.0922730693e+00 7.0568278435e-05 1.4804454126e+00 -2.5642066725e+00 1.4804454126e+00 2.5642066725e+00 
102000 5.0922730692e+00 7.0676087452e-05 1.4804454126e+00 -2.5642066725e+00 1.4804454126e+00 2.5642066725e+00 
102100 5.0922730692e+00 7.0783394576e-05 1.4804454126e+00 -2.5642066725e+00 1.4804454126e+00 2.5642066725e+00 
102200 5.0922730689e+00 6.9817870375e-05 1.4804430220e+00 -2.5642025318e+00 1.4804430220e+00 2.5642025318e+00 
102300 5.0922730689e+00 6.9920145575e-05 1.4804430220e+00 -2.5642025318e+00 1.4804430220e+00 2.5642025318e+00 
102400 5.0922730688e+00 7.0022064503e-05 1.4804430220e+00 -2.5642025318e+00 1.4804430220e+00 2.5642025318e+00 
102500 5.0922730688e+00 7.0123608939e-05 1.4804430220e+00 -2.5642025318e+00 1.4804430220e+00 2.5642025318e+00 
102600 5.0922730687e+00 7.0224761899e-05 1.4804430220e+00 -2.5642025318e+00 1.4804430220e+00 2.5642025318e+00 
102700 5.0922730687e+00 7.0325507555e-05 1.4804430220e+00 -2.5642025318e+00 1.4804430220e+00 2.5642025318e+00 
102800 5.0922730687e+00 7.0425831149e-05 1.4804430220e+00 -2.5642025318e+00 1.4804430220e+00 2.5642025318e+00 
102900 5.0922730686e+00 7.0525718919e-05 1.4804430220e+00 -2.5642025318e+00 1.4804430220e+00 2.5642025318e+00 
103000 5.0922730686e+00 7.0625158035e-05 1.4804430220e+00 -2.5642025318e+00 1.4804430220e+00 2.5642025318e+00 
103100 5.0922730686e+00 7.0724136531e-05 1.4804430220e+00 -2.5642025318e+00 1.4804430220e+00 2.5642025318e+00 
103200 5.0922730683e+00 6.9751242006e-05 1.4804406334e+00 -2.5641983946e+00 1.4804406334e+00 2.5641983946e+00 
103300 5.0922730683e+00 6.9800177983e-05 1.4804406334e+00 -2.5641983946e+00 1.4804406334e+00 2.5641983946e+00 
103300 5.0922730683e+00 6.9800177983e-05 1.4804406334e+00 -2.5641983946e+00 1.4804406334e+00 2.5641983946e+00 
