# step Hamiltonian StressXX CellTensor1 CellTensor2 CellTensor3 CellTensor4 
0 5.6696641273e+00 -7.0890078742e-03 2.0436807272e+00 -3.5397588540e+00 2.0436807272e+00 3.5397588540e+00 
100 5.6687029313e+00 -5.8460012289e-03 2.0436807272e+00 -3.5397588540e+00 2.0436807272e+00 3.5397588540e+00 
200 5.6671760489e+00 -4.7400111575e-03 2.0438237552e+00 -3.5400065857e+00 2.0438237552e+00 3.5400065857e+00 
300 5.6651786967e+00 -3.7790319659e-03 2.0439397157e+00 -3.5402074351e+00 2.0439397157e+00 3.5402074351e+00 
400 5.6627924365e+00 -2.9371152666e-03 2.0440321612e+00 -3.5403675554e+00 2.0440321612e+00 3.5403675554e+00 
500 5.6600876037e+00 -2.1930124504e-03 2.0441040077e+00 -3.5404919973e+00 2.0441040077e+00 3.5404919973e+00 
600 5.6571245475e+00 -1.5296970940e-03 2.0441576503e+00 -3.5405849090e+00 2.0441576503e+00 3.5405849090e+00 
700 5.6539548573e+00 -9.3386707135e-04 2.0441950667e+00 -3.5406497162e+00 2.0441950667e+00 3.5406497162e+00 
800 5.6506225329e+00 -3.9544639558e-04 2.0442179087e+00 -3.5406892796e+00 2.0442179087e+00 3.5406892796e+00 
900 5.6471650711e+00 9.2895895138e-05 2.0442275810e+00 -3.5407060326e+00 2.0442275810e+00 3.5407060326e+00 
1000 5.6436144510e+00 5.3619662996e-04 2.0442253089e+00 -3.5407020971e+00 2.0442253089e+00 3.5407020971e+00 
1100 5.6399980072e+00 9.3761042031e-04 2.0442121940e+00 -3.5406793814e+00 2.0442121940e+00 3.5406793814e+00 
1200 5.6363391903e+00 1.2987778717e-03 2.0441892607e+00 -3.5406396599e+00 2.0441892607e+00 3.5406396599e+00 
1300 5.6326582184e+00 1.6201486591e-03 2.0441574933e+00 -3.5405846370e+00 2.0441574933e+00 3.5405846370e+00 
1400 5.6289726255e+00 1.9012604817e-03 2.0441178646e+00 -3.5405159982e+00 2.0441178646e+00 3.5405159982e+00 
1500 5.6252977174e+00 2.1409765729e-03 2.0440713592e+00 -3.5404354484e+00 2.0440713592e+00 3.5404354484e+00 
1600 5.6216469452e+00 2.3376854153e-03 2.0440189890e+00 -3.5403447406e+00 2.0440189890e+00 3.5403447406e+00 
1700 5.6180322060e+00 2.4894667762e-03 2.0439618057e+00 -3.5402456962e+00 2.0439618057e+00 3.5402456962e+00 
1800 5.6144640825e+00 2.5942282489e-03 2.0439009079e+00 -3.5401402182e+00 2.0439009079e+00 3.5401402182e+00 
1900 5.6109520296e+00 2.6498163206e-03 2.0438374456e+00 -3.5400302982e+00 2.0438374456e+00 3.5400302982e+00 
2000 5.6075045180e+00 2.6541056606e-03 2.0437726214e+00 -3.5399180194e+00 2.0437726214e+00 3.5399180194e+00 
2100 5.6041291419e+00 2.6050699320e-03 2.0437076902e+00 -3.5398055552e+00 2.0437076902e+00 3.5398055552e+00 
2200 5.6008326967e+00 2.5008370151e-03 2.0436439566e+00 -3.5396951654e+00 2.0436439566e+00 3.5396951654e+00 
2300 5.5976212355e+00 2.3397311297e-03 2.0435827712e+00 -3.5395891892e+00 2.0435827712e+00 3.5395891892e+00 
2400 5.5945001060e+00 2.1203039807e-03 2.0435255256e+00 -3.5394900370e+00 2.0435255256e+00 3.5394900370e+00 
2500 5.5914739755e+00 1.8413567278e-03 2.0434736473e+00 -3.5394001810e+00 2.0434736473e+00 3.5394001810e+00 
2600 5.5885468449e+00 1.5019543062e-03 2.0434285929e+00 -3.5393221445e+00 2.0434285929e+00 3.5393221445e+00 
2700 5.5857220581e+00 1.1014333920e-03 2.0433918421e+00 -3.5392584904e+00 2.0433918421e+00 3.5392584904e+00 
2800 5.5830023065e+00 6.3940511705e-04 2.0433648911e+00 -3.5392118098e+00 2.0433648911e+00 3.5392118098e+00 
2900 5.5803896326e+00 1.1575347733e-04 2.0433492452e+00 -3.5391847103e+00 2.0433492452e+00 3.5391847103e+00 
3000 5.5778854345e+00 -4.6936975159e-04 2.0433464128e+00 -3.5391798044e+00 2.0433464128e+00 3.5391798044e+00 
3100 5.5754904722e+00 -1.1155528867e-03 2.0433578981e+00 -3.5391996976e+00 2.0433578981e+00 3.5391996976e+00 
3200 5.5732048769e+00 -1.8221343855e-03 2.0433851952e+00 -3.5392469776e+00 2.0433851952e+00 3.5392469776e+00 
3300 5.5710281651e+00 -2.5882145383e-03 2.0434297816e+00 -3.5393242034e+00 2.0434297816e+00 3.5393242034e+00 
3400 5.5689592566e+00 -3.4126683435e-03 2.0434931120e+00 -3.5394338950e+00 2.0434931120e+00 3.5394338950e+00 
3500 5.5669964982e+00 -4.2941591694e-03 2.0435766135e+00 -3.5395785237e+00 2.0435766135e+00 3.5395785237e+00 
3600 5.5651376915e+00 -5.2311528657e-03 2.0436816792e+00 -3.5397605028e+00 2.0436816792e+00 3.5397605028e+00 
3700 5.5633801271e+00 -6.2219320401e-03 2.0438096641e+00 -3.5399821791e+00 2.0438096641e+00 3.5399821791e+00 
3800 5.5617206224e+00 -7.2646102704e-03 2.0439618800e+00 -3.5402458249e+00 2.0439618800e+00 3.5402458249e+00 
3900 5.5601555641e+00 -8.3571460672e-03 2.0441395916e+00 -3.5405536305e+00 2.0441395916e+00 3.5405536305e+00 
4000 5.5586809545e+00 -9.4973564456e-03 2.0443440122e+00 -3.5409076974e+00 2.0443440122e+00 3.5409076974e+00 
4100 5.5572924612e+00 -1.0682930008e-02 2.0445763004e+00 -3.5413100322e+00 2.0445763004e+00 3.5413100322e+00 
4200 5.5559854686e+00 -1.1911439470e-02 2.0448375564e+00 -3.5417625409e+00 2.0448375564e+00 3.5417625409e+00 
4300 5.5547551318e+00 -1.3180353597e-02 2.0451288197e+00 -3.5422670237e+00 2.0451288197e+00 3.5422670237e+00 
4400 5.5535964309e+00 -1.4487048547e-02 2.0454510659e+00 -3.5428251705e+00 2.0454510659e+00 3.5428251705e+00 
4500 5.5525042257e+00 -1.5828818628e-02 2.0458052045e+00 -3.5434385567e+00 2.0458052045e+00 3.5434385567e+00 
4600 5.5514733098e+00 -1.7202886502e-02 2.0461920771e+00 -3.5441086396e+00 2.0461920771e+00 3.5441086396e+00 
4700 5.5504984628e+00 -1.8606412888e-02 2.0466124549e+00 -3.5448367553e+00 2.0466124549e+00 3.5448367553e+00 
4800 5.5495745014e+00 -2.0036505805e-02 2.0470670378e+00 -3.5456241160e+00 2.0470670378e+00 3.5456241160e+00 
4900 5.5486963270e+00 -2.1490229418e-02 2.0475564528e+00 -3.5464718076e+00 2.0475564528e+00 3.5464718076e+00 
5000 5.5478589705e+00 -2.2964612539e-02 2.0480812526e+00 -3.5473807876e+00 2.0480812526e+00 3.5473807876e+00 
5100 5.5470576332e+00 -2.4456656855e-02 2.0486419155e+00 -3.5483518841e+00 2.0486419155e+00 3.5483518841e+00 
5200 5.5462877243e+00 -2.5963344905e-02 2.0492388437e+00 -3.5493857941e+00 2.0492388437e+00 3.5493857941e+00 
5300 5.5455448927e+00 -2.7481647890e-02 2.0498723639e+00 -3.5504830832e+00 2.0498723639e+00 3.5504830832e+00 
5400 5.5448250558e+00 -2.9008533327e-02 2.0505427262e+00 -3.5516441849e+00 2.0505427262e+00 3.5516441849e+00 
5500 5.5441244222e+00 -3.0540972582e-02 2.0512501048e+00 -3.5528694005e+00 2.0512501048e+00 3.5528694005e+00 
5600 5.5434395108e+00 -3.2075948324e-02 2.0519945976e+00 -3.5541588999e+00 2.0519945976e+00 3.5541588999e+00 
5700 5.5427671643e+00 -3.3610461893e-02 2.0527762270e+00 -3.5555127217e+00 2.0527762270e+00 3.5555127217e+00 
5800 5.5421045585e+00 -3.5141540598e-02 2.0535949400e+00 -3.5569307743e+00 2.0535949400e+00 3.5569307743e+00 
5900 5.5414492071e+00 -3.6666244947e-02 2.0544506097e+00 -3.5584128377e+00 2.0544506097e+00 3.5584128377e+00 
6000 5.5407989619e+00 -3.8181675794e-02 2.0553430356e+00 -3.5599585647e+00 2.0553430356e+00 3.5599585647e+00 
6100 5.5401520095e+00 -3.9684981399e-02 2.0562719451e+00 -3.5615674830e+00 2.0562719451e+00 3.5615674830e+00 
6200 5.5395068640e+00 -4.1173364375e-02 2.0572369946e+00 -3.5632389978e+00 2.0572369946e+00 3.5632389978e+00 
6300 5.5388623560e+00 -4.2644088506e-02 2.0582377713e+00 -3.5649723940e+00 2.0582377713e+00 3.5649723940e+00 
6400 5.5382176192e+00 -4.4094485402e-02 2.0592737951e+00 -3.5667668398e+00 2.0592737951e+00 3.5667668398e+00 
6500 5.5375720743e+00 -4.5521960980e-02 2.0603445197e+00 -3.5686213893e+00 2.0603445197e+00 3.5686213893e+00 
6600 5.5369254097e+00 -4.6924001726e-02 2.0614493356e+00 -3.5705349865e+00 2.0614493356e+00 3.5705349865e+00 
6700 5.5362775618e+00 -4.8298180723e-02 2.0625875716e+00 -3.5725064691e+00 2.0625875716e+00 3.5725064691e+00 
6800 5.5356286923e+00 -4.9642163405e-02 2.0637584976e+00 -3.5745345724e+00 2.0637584976e+00 3.5745345724e+00 
6900 5.5349791656e+00 -5.0953713028e-02 2.0649613269e+00 -3.5766179338e+00 2.0649613269e+00 3.5766179338e+00 
7000 5.5343295247e+00 -5.2230695817e-02 2.0661952188e+00 -3.5787550974e+00 2.0661952188e+00 3.5787550974e+00 
7100 5.5336804665e+00 -5.3471085766e-02 2.0674592818e+00 -3.5809445187e+00 2.0674592818e+00 3.5809445187e+00 
7200 5.5330328182e+00 -5.4672969090e-02 2.0687525759e+00 -3.5831845697e+00 2.0687525759e+00 3.5831845697e+00 
7300 5.5323875121e+00 -5.5834548286e-02 2.0700741159e+00 -3.5854735441e+00 2.0700741159e+00 3.5854735441e+00 
7400 5.5317455626e+00 -5.6954145802e-02 2.0714228745e+00 -3.5878096626e+00 2.0714228745e+00 3.5878096626e+00 
7500 5.5311080426e+00 -5.8030207298e-02 2.0727977855e+00 -3.5901910783e+00 2.0727977855e+00 3.5901910783e+00 
7600 5.5304760619e+00 -5.9061304490e-02 2.0741977468e+00 -3.5926158824e+00 2.0741977468e+00 3.5926158824e+00 
7700 5.5298507458e+00 -6.0046137563e-02 2.0756216240e+00 -3.5950821100e+00 2.0756216240e+00 3.5950821100e+00 
7800 5.5292332156e+00 -6.0983537153e-02 2.0770682534e+00 -3.5975877457e+00 2.0770682534e+00 3.5975877457e+00 
7900 5.5286245707e+00 -6.1872465903e-02 2.0785364458e+00 -3.6001307295e+00 2.0785364458e+00 3.6001307295e+00 
8000 5.5280258716e+00 -6.2712019567e-02 2.0800249895e+00 -3.6027089628e+00 2.0800249895e+00 3.6027089628e+00 
8100 5.5274381251e+00 -6.3501427695e-02 2.0815326538e+00 -3.6053203140e+00 2.0815326538e+00 3.6053203140e+00 
8200 5.5268622711e+00 -6.4240053877e-02 2.0830581926e+00 -3.6079626247e+00 2.0830581926e+00 3.6079626247e+00 
8300 5.5262991711e+00 -6.4927395565e-02 2.0846003476e+00 -3.6106337156e+00 2.0846003476e+00 3.6106337156e+00 
8400 5.5257495987e+00 -6.5563083469e-02 2.0861578518e+00 -3.6133313919e+00 2.0861578518e+00 3.6133313919e+00 
8500 5.5252142311e+00 -6.6146880545e-02 2.0877294325e+00 -3.6160534495e+00 2.0877294325e+00 3.6160534495e+00 
8600 5.5246936436e+00 -6.6678680579e-02 2.0893138150e+00 -3.6187976805e+00 2.0893138150e+00 3.6187976805e+00 
8700 5.5241883050e+00 -6.7158506372e-02 2.0909097256e+00 -3.6215618788e+00 2.0909097256e+00 3.6215618788e+00 
8800 5.5236985745e+00 -6.7586507546e-02 2.0925158948e+00 -3.6243438455e+00 2.0925158948e+00 3.6243438455e+00 
8900 5.5232247009e+00 -6.7962957981e-02 2.0941310604e+00 -3.6271413944e+00 2.0941310604e+00 3.6271413944e+00 
9000 5.5227668226e+00 -6.8288252892e-02 2.0957539705e+00 -3.6299523571e+00 2.0957539705e+00 3.6299523571e+00 
9100 5.5223249695e+00 -6.8562905568e-02 2.0973833863e+00 -3.6327745881e+00 2.0973833863e+00 3.6327745881e+00 
9200 5.5218990661e+00 -6.8787543780e-02 2.0990180852e+00 -3.6356059695e+00 2.0990180852e+00 3.6356059695e+00 
9300 5.5214889354e+00 -6.8962905884e-02 2.1006568630e+00 -3.6384444160e+00 2.1006568630e+00 3.6384444160e+00 
9400 5.5210943045e+00 -6.9089836629e-02 2.1022985371e+00 -3.6412878790e+00 2.1022985371e+00 3.6412878790e+00 
9500 5.5207148107e+00 -6.9169282693e-02 2.1039419486e+00 -3.6441343511e+00 2.1039419486e+00 3.6441343511e+00 
9600 5.5203500086e+00 -6.9202287967e-02 2.1055859646e+00 -3.6469818703e+00 2.1055859646e+00 3.6469818703e+00 
9700 5.5199993778e+00 -6.9189988603e-02 2.1072294805e+00 -3.6498285234e+00 2.1072294805e+00 3.6498285234e+00 
9800 5.5196623314e+00 -6.9133607852e-02 2.1088714224e+00 -3.6526724502e+00 2.1088714224e+00 3.6526724502e+00 
9900 5.5193382243e+00 -6.9034450718e-02 2.1105107484e+00 -3.6555118461e+00 2.1105107484e+00 3.6555118461e+00 
10000 5.5190263628e+00 -6.8893898439e-02 2.1121464510e+00 -3.6583449662e+00 2.1121464510e+00 3.6583449662e+00 
10100 5.5187260135e+00 -6.8713402832e-02 2.1137775585e+00 -3.6611701273e+00 2.1137775585e+00 3.6611701273e+00 
10200 5.5184364127e+00 -6.8494480518e-02 2.1154031364e+00 -3.6639857108e+00 2.1154031364e+00 3.6639857108e+00 
10300 5.5181567754e+00 -6.8238707058e-02 2.1170222890e+00 -3.6667901654e+00 2.1170222890e+00 3.6667901654e+00 
10400 5.5178863049e+00 -6.7947711018e-02 2.1186341606e+00 -3.6695820088e+00 2.1186341606e+00 3.6695820088e+00 
10500 5.5176242011e+00 -6.7623167994e-02 2.1202379362e+00 -3.6723598296e+00 2.1202379362e+00 3.6723598296e+00 
10600 5.5173696688e+00 -6.7266794615e-02 2.1218328430e+00 -3.6751222892e+00 2.1218328430e+00 3.6751222892e+00 
10700 5.5171219265e+00 -6.6880342560e-02 2.1234181508e+00 -3.6778681229e+00 2.1234181508e+00 3.6778681229e+00 
10800 5.5168802131e+00 -6.6465592598e-02 2.1249931727e+00 -3.6805961409e+00 2.1249931727e+00 3.6805961409e+00 
10900 5.5166437949e+00 -6.6024348683e-02 2.1265572657e+00 -3.6833052295e+00 2.1265572657e+00 3.6833052295e+00 
11000 5.5164119723e+00 -6.5558432127e-02 2.1281098309e+00 -3.6859943513e+00 2.1281098309e+00 3.6859943513e+00 
11100 5.5161840847e+00 -6.5069675862e-02 2.1296503138e+00 -3.6886625459e+00 2.1296503138e+00 3.6886625459e+00 
11200 5.5159595158e+00 -6.4559918822e-02 2.1311782043e+00 -3.6913089299e+00 2.1311782043e+00 3.6913089299e+00 
11300 5.5157376977e+00 -6.4031000453e-02 2.1326930368e+00 -3.6939326967e+00 2.1326930368e+00 3.6939326967e+00 
11400 5.5155181137e+00 -6.3484755374e-02 2.1341943899e+00 -3.6965331166e+00 2.1341943899e+00 3.6965331166e+00 
11500 5.5153003015e+00 -6.2923008199e-02 2.1356818862e+00 -3.6991095357e+00 2.1356818862e+00 3.6991095357e+00 
11600 5.5150838546e+00 -6.2347568535e-02 2.1371551917e+00 -3.7016613757e+00 2.1371551917e+00 3.7016613757e+00 
11700 5.5148684234e+00 -6.1760226163e-02 2.1386140155e+00 -3.7041881326e+00 2.1386140155e+00 3.7041881326e+00 
11800 5.5146537156e+00 -6.1162746420e-02 2.1400581090e+00 -3.7066893759e+00 2.1400581090e+00 3.7066893759e+00 
11900 5.5144394957e+00 -6.0556865783e-02 2.1414872652e+00 -3.7091647471e+00 2.1414872652e+00 3.7091647471e+00 
12000 5.5142255844e+00 -5.9944287656e-02 2.1429013181e+00 -3.7116139586e+00 2.1429013181e+00 3.7116139586e+00 
12100 5.5140118562e+00 -5.9326678385e-02 2.1443001414e+00 -3.7140367915e+00 2.1443001414e+00 3.7140367915e+00 
12200 5.5137982379e+00 -5.8705663476e-02 2.1456836476e+00 -3.7164330947e+00 2.1456836476e+00 3.7164330947e+00 
12300 5.5135847058e+00 -5.8082824050e-02 2.1470517873e+00 -3.7188027821e+00 2.1470517873e+00 3.7188027821e+00 
12400 5.5133712821e+00 -5.7459693508e-02 2.1484045474e+00 -3.7211458312e+00 2.1484045474e+00 3.7211458312e+00 
12500 5.5131580318e+00 -5.6837754425e-02 2.1497419503e+00 -3.7234622811e+00 2.1497419503e+00 3.7234622811e+00 
12600 5.5129450589e+00 -5.6218435675e-02 2.1510640526e+00 -3.7257522294e+00 2.1510640526e+00 3.7257522294e+00 
12700 5.5127325020e+00 -5.5603109768e-02 2.1523709436e+00 -3.7280158310e+00 2.1523709436e+00 3.7280158310e+00 
12800 5.5125205299e+00 -5.4993090419e-02 2.1536627439e+00 -3.7302532947e+00 2.1536627439e+00 3.7302532947e+00 
12900 5.5123093377e+00 -5.4389630342e-02 2.1549396040e+00 -3.7324648813e+00 2.1549396040e+00 3.7324648813e+00 
13000 5.5120991415e+00 -5.3793919262e-02 2.1562017028e+00 -3.7346509007e+00 2.1562017028e+00 3.7346509007e+00 
13100 5.5118901748e+00 -5.3207082151e-02 2.1574492462e+00 -3.7368117092e+00 2.1574492462e+00 3.7368117092e+00 
13200 5.5116826829e+00 -5.2630177682e-02 2.1586824652e+00 -3.7389477071e+00 2.1586824652e+00 3.7389477071e+00 
13300 5.5114769194e+00 -5.2064196910e-02 2.1599016146e+00 -3.7410593358e+00 2.1599016146e+00 3.7410593358e+00 
13400 5.5112731416e+00 -5.1510062166e-02 2.1611069713e+00 -3.7431470748e+00 2.1611069713e+00 3.7431470748e+00 
13500 5.5110716063e+00 -5.0968626169e-02 2.1622988325e+00 -3.7452114391e+00 2.1622988325e+00 3.7452114391e+00 
13600 5.5108725659e+00 -5.0440671358e-02 2.1634775145e+00 -3.7472529762e+00 2.1634775145e+00 3.7472529762e+00 
13700 5.5106762653e+00 -4.9926909436e-02 2.1646433505e+00 -3.7492722633e+00 2.1646433505e+00 3.7492722633e+00 
13800 5.5104829382e+00 -4.9427981133e-02 2.1657966892e+00 -3.7512699046e+00 2.1657966892e+00 3.7512699046e+00 
13900 5.5102928039e+00 -4.8944456171e-02 2.1669378933e+00 -3.7532465280e+00 2.1669378933e+00 3.7532465280e+00 
14000 5.5101060655e+00 -4.8476833451e-02 2.1680673374e+00 -3.7552027826e+00 2.1680673374e+00 3.7552027826e+00 
14100 5.5099229066e+00 -4.8025541438e-02 2.1691854069e+00 -3.7571393357e+00 2.1691854069e+00 3.7571393357e+00 
14200 5.5097434902e+00 -4.7590938754e-02 2.1702924958e+00 -3.7590568700e+00 2.1702924958e+00 3.7590568700e+00 
14300 5.5095679567e+00 -4.7173314974e-02 2.1713890057e+00 -3.7609560809e+00 2.1713890057e+00 3.7609560809e+00 
14400 5.5093964230e+00 -4.6772891609e-02 2.1724753437e+00 -3.7628376734e+00 2.1724753437e+00 3.7628376734e+00 
14500 5.5092289816e+00 -4.6389823290e-02 2.1735519210e+00 -3.7647023600e+00 2.1735519210e+00 3.7647023600e+00 
14600 5.5090657000e+00 -4.6024199136e-02 2.1746191514e+00 -3.7665508574e+00 2.1746191514e+00 3.7665508574e+00 
14700 5.5089066207e+00 -4.5676044295e-02 2.1756774501e+00 -3.7683838844e+00 2.1756774501e+00 3.7683838844e+00 
14800 5.5087517617e+00 -4.5345321669e-02 2.1767272315e+00 -3.7702021592e+00 2.1767272315e+00 3.7702021592e+00 
14900 5.5086011167e+00 -4.5031933790e-02 2.1777689086e+00 -3.7720063968e+00 2.1777689086e+00 3.7720063968e+00 
15000 5.5084546560e+00 -4.4735724869e-02 2.1788028910e+00 -3.7737973069e+00 2.1788028910e+00 3.7737973069e+00 
15100 5.5083123274e+00 -4.4456482980e-02 2.1798295841e+00 -3.7755755914e+00 2.1798295841e+00 3.7755755914e+00 
15200 5.5081740580e+00 -4.4193942387e-02 2.1808493873e+00 -3.7773419425e+00 2.1808493873e+00 3.7773419425e+00 
15300 5.5080397553e+00 -4.3947786003e-02 2.1818626935e+00 -3.7790970403e+00 2.1818626935e+00 3.7790970403e+00 
15400 5.5079093089e+00 -4.3717647962e-02 2.1828698872e+00 -3.7808415509e+00 2.1828698872e+00 3.7808415509e+00 
15500 5.5077825926e+00 -4.3503116300e-02 2.1838713438e+00 -3.7825761246e+00 2.1838713438e+00 3.7825761246e+00 
15600 5.5076594659e+00 -4.3303735731e-02 2.1848674286e+00 -3.7843013941e+00 2.1848674286e+00 3.7843013941e+00 
15700 5.5075397763e+00 -4.3119010508e-02 2.1858584958e+00 -3.7860179728e+00 2.1858584958e+00 3.7860179728e+00 
15800 5.5074233615e+00 -4.2948407351e-02 2.1868448874e+00 -3.7877264533e+00 2.1868448874e+00 3.7877264533e+00 
15900 5.5073100511e+00 -4.2791358442e-02 2.1878269328e+00 -3.7894274058e+00 2.1878269328e+00 3.7894274058e+00 
16000 5.5071996690e+00 -4.2647264462e-02 2.1888049477e+00 -3.7911213773e+00 2.1888049477e+00 3.7911213773e+00 
16100 5.5070920350e+00 -4.2515497659e-02 2.1897792334e+00 -3.7928088896e+00 2.1897792334e+00 3.7928088896e+00 
16200 5.5069869673e+00 -4.2395404951e-02 2.1907500764e+00 -3.7944904390e+00 2.1907500764e+00 3.7944904390e+00 
16300 5.5068842842e+00 -4.2286311023e-02 2.1917177478e+00 -3.7961664951e+00 2.1917177478e+00 3.7961664951e+00 
16400 5.5067838056e+00 -4.2187521434e-02 2.1926825028e+00 -3.7978374997e+00 2.1926825028e+00 3.7978374997e+00 
16500 5.5066853551e+00 -4.2098325705e-02 2.1936445802e+00 -3.7995038666e+00 2.1936445802e+00 3.7995038666e+00 
16600 5.5065887614e+00 -4.2018000383e-02 2.1946042022e+00 -3.8011659807e+00 2.1946042022e+00 3.8011659807e+00 
16700 5.5064938594e+00 -4.1945812067e-02 2.1955615742e+00 -3.8028241977e+00 2.1955615742e+00 3.8028241977e+00 
16800 5.5064004918e+00 -4.1881020385e-02 2.1965168845e+00 -3.8044788437e+00 2.1965168845e+00 3.8044788437e+00 
16900 5.5063085103e+00 -4.1822880918e-02 2.1974703042e+00 -3.8061302150e+00 2.1974703042e+00 3.8061302150e+00 
17000 5.5062177758e+00 -4.1770648050e-02 2.1984219871e+00 -3.8077785782e+00 2.1984219871e+00 3.8077785782e+00 
17100 5.5061281601e+00 -4.1723577747e-02 2.1993720699e+00 -3.8094241697e+00 2.1993720699e+00 3.8094241697e+00 
17200 5.5060395455e+00 -4.1680930244e-02 2.2003206719e+00 -3.8110671966e+00 2.2003206719e+00 3.8110671966e+00 
17300 5.5059518262e+00 -4.1641972640e-02 2.2012678956e+00 -3.8127078363e+00 2.2012678956e+00 3.8127078363e+00 
17400 5.5058649075e+00 -4.1605981393e-02 2.2022138267e+00 -3.8143462369e+00 2.2022138267e+00 3.8143462369e+00 
17500 5.5057787069e+00 -4.1572244705e-02 2.2031585341e+00 -3.8159825182e+00 2.2031585341e+00 3.8159825182e+00 
17600 5.5056931534e+00 -4.1540064790e-02 2.2041020706e+00 -3.8176167713e+00 2.2041020706e+00 3.8176167713e+00 
17700 5.5056081874e+00 -4.1508760027e-02 2.2050444730e+00 -3.8192490603e+00 2.2050444730e+00 3.8192490603e+00 
17800 5.5055237607e+00 -4.1477666980e-02 2.2059857627e+00 -3.8208794218e+00 2.2059857627e+00 3.8208794218e+00 
17900 5.5054398357e+00 -4.1446142296e-02 2.2069259458e+00 -3.8225078667e+00 2.2069259458e+00 3.8225078667e+00 
18000 5.5053563852e+00 -4.1413564469e-02 2.2078650141e+00 -3.8241343806e+00 2.2078650141e+00 3.8241343806e+00 
18100 5.5052733916e+00 -4.1379335460e-02 2.2088029449e+00 -3.8257589245e+00 2.2088029449e+00 3.8257589245e+00 
18200 5.5051908461e+00 -4.1342882191e-02 2.2097397025e+00 -3.8273814363e+00 2.2097397025e+00 3.8273814363e+00 
18300 5.5051087484e+00 -4.1303657895e-02 2.2106752380e+00 -3.8290018313e+00 2.2106752380e+00 3.8290018313e+00 
18400 5.5050271054e+00 -4.1261143323e-02 2.2116094902e+00 -3.8306200036e+00 2.2116094902e+00 3.8306200036e+00 
18500 5.5049459307e+00 -4.1214847815e-02 2.2125423865e+00 -3.8322358273e+00 2.2125423865e+00 3.8322358273e+00 
18600 5.5048652437e+00 -4.1164310230e-02 2.2134738429e+00 -3.8338491572e+00 2.2134738429e+00 3.8338491572e+00 
18700 5.5047850686e+00 -4.1109099738e-02 2.2144037656e+00 -3.8354598305e+00 2.2144037656e+00 3.8354598305e+00 
18800 5.5047054338e+00 -4.1048816473e-02 2.2153320509e+00 -3.8370676679e+00 2.2153320509e+00 3.8370676679e+00 
18900 5.5046263708e+00 -4.0983092056e-02 2.2162585865e+00 -3.8386724745e+00 2.2162585865e+00 3.8386724745e+00 
19000 5.5045479135e+00 -4.0911589977e-02 2.2171832516e+00 -3.8402740414e+00 2.2171832516e+00 3.8402740414e+00 
19100 5.5044700975e+00 -4.0834005855e-02 2.2181059184e+00 -3.8418721472e+00 2.2181059184e+00 3.8418721472e+00 
19200 5.5043929593e+00 -4.0750067574e-02 2.2190264521e+00 -3.8434665585e+00 2.2190264521e+00 3.8434665585e+00 
19300 5.5043165354e+00 -4.0659535284e-02 2.2199447124e+00 -3.8450570319e+00 2.2199447124e+00 3.8450570319e+00 
19400 5.5042408620e+00 -4.0562201300e-02 2.2208605535e+00 -3.8466433151e+00 2.2208605535e+00 3.8466433151e+00 
19500 5.5041659742e+00 -4.0457889879e-02 2.2217738251e+00 -3.8482251480e+00 2.2217738251e+00 3.8482251480e+00 
19600 5.5040919054e+00 -4.0346456885e-02 2.2226843735e+00 -3.8498022641e+00 2.2226843735e+00 3.8498022641e+00 
19700 5.5040186869e+00 -4.0227789364e-02 2.2235920418e+00 -3.8513743917e+00 2.2235920418e+00 3.8513743917e+00 
19800 5.5039463478e+00 -4.0101805002e-02 2.2244966708e+00 -3.8529412550e+00 2.2244966708e+00 3.8529412550e+00 
19900 5.5038749141e+00 -3.9968451506e-02 2.2253980997e+00 -3.8545025757e+00 2.2253980997e+00 3.8545025757e+00 
20000 5.5038044088e+00 -3.9827705891e-02 2.2262961668e+00 -3.8560580736e+00 2.2262961668e+00 3.8560580736e+00 
20100 5.5037348516e+00 -3.9679573684e-02 2.2271907102e+00 -3.8576074683e+00 2.2271907102e+00 3.8576074683e+00 
20200 5.5036662586e+00 -3.9524088056e-02 2.2280815683e+00 -3.8591504798e+00 2.2280815683e+00 3.8591504798e+00 
20300 5.5035986426e+00 -3.9361308880e-02 2.2289685805e+00 -3.8606868299e+00 2.2289685805e+00 3.8606868299e+00 
20400 5.5035320124e+00 -3.9191321730e-02 2.2298515877e+00 -3.8622162433e+00 2.2298515877e+00 3.8622162433e+00 
20500 5.5034663735e+00 -3.9014236816e-02 2.2307304331e+00 -3.8637384481e+00 2.2307304331e+00 3.8637384481e+00 
20600 5.5034017278e+00 -3.8830187871e-02 2.2316049624e+00 -3.8652531774e+00 2.2316049624e+00 3.8652531774e+00 
20700 5.5033380737e+00 -3.8639330991e-02 2.2324750248e+00 -3.8667601696e+00 2.2324750248e+00 3.8667601696e+00 
20800 5.5032754063e+00 -3.8441843433e-02 2.2333404729e+00 -3.8682591697e+00 2.2333404729e+00 3.8682591697e+00 
20900 5.5032137177e+00 -3.8237922377e-02 2.2342011637e+00 -3.8697499299e+00 2.2342011637e+00 3.8697499299e+00 
21000 5.5031529968e+00 -3.8027783664e-02 2.2350569587e+00 -3.8712322103e+00 2.2350569587e+00 3.8712322103e+00 
21100 5.5030932303e+00 -3.7811660502e-02 2.2359077244e+00 -3.8727057797e+00 2.2359077244e+00 3.8727057797e+00 
21200 5.5030344019e+00 -3.7589802162e-02 2.2367533327e+00 -3.8741704162e+00 2.2367533327e+00 3.8741704162e+00 
21300 5.5029764936e+00 -3.7362472655e-02 2.2375936613e+00 -3.8756259080e+00 2.2375936613e+00 3.8756259080e+00 
21400 5.5029194853e+00 -3.7129949402e-02 2.2384285938e+00 -3.8770720536e+00 2.2384285938e+00 3.8770720536e+00 
21500 5.5028633552e+00 -3.6892521902e-02 2.2392580203e+00 -3.8785086625e+00 2.2392580203e+00 3.8785086625e+00 
21600 5.5028080804e+00 -3.6650490400e-02 2.2400818375e+00 -3.8799355556e+00 2.2400818375e+00 3.8799355556e+00 
21700 5.5027536369e+00 -3.6404164564e-02 2.2408999487e+00 -3.8813525658e+00 2.2408999487e+00 3.8813525658e+00 
21800 5.5026999998e+00 -3.6153862163e-02 2.2417122643e+00 -3.8827595378e+00 2.2417122643e+00 3.8827595378e+00 
21900 5.5026471439e+00 -3.5899907773e-02 2.2425187021e+00 -3.8841563290e+00 2.2425187021e+00 3.8841563290e+00 
22000 5.5025950437e+00 -3.5642631490e-02 2.2433191869e+00 -3.8855428093e+00 2.2433191869e+00 3.8855428093e+00 
22100 5.5025436737e+00 -3.5382367671e-02 2.2441136511e+00 -3.8869188616e+00 2.2441136511e+00 3.8869188616e+00 
22200 5.5024930085e+00 -3.5119453693e-02 2.2449020345e+00 -3.8882843817e+00 2.2449020345e+00 3.8882843817e+00 
22300 5.5024430235e+00 -3.4854228752e-02 2.2456842845e+00 -3.8896392785e+00 2.2456842845e+00 3.8896392785e+00 
22400 5.5023936944e+00 -3.4587032684e-02 2.2464603561e+00 -3.8909834739e+00 2.2464603561e+00 3.8909834739e+00 
22500 5.5023449978e+00 -3.4318204821e-02 2.2472302118e+00 -3.8923169031e+00 2.2472302118e+00 3.8923169031e+00 
22600 5.5022969114e+00 -3.4048082892e-02 2.2479938218e+00 -3.8936395144e+00 2.2479938218e+00 3.8936395144e+00 
22700 5.5022494137e+00 -3.3777001951e-02 2.2487511636e+00 -3.8949512689e+00 2.2487511636e+00 3.8949512689e+00 
22800 5.5022024846e+00 -3.3505293358e-02 2.2495022222e+00 -3.8962521406e+00 2.2495022222e+00 3.8962521406e+00 
22900 5.5021561052e+00 -3.3233283797e-02 2.2502469901e+00 -3.8975421165e+00 2.2502469901e+00 3.8975421165e+00 
23000 5.5021102579e+00 -3.2961294338e-02 2.2509854669e+00 -3.8988211957e+00 2.2509854669e+00 3.8988211957e+00 
23100 5.5020649264e+00 -3.2689639553e-02 2.2517176591e+00 -3.9000893898e+00 2.2517176591e+00 3.9000893898e+00 
23200 5.5020200958e+00 -3.2418626672e-02 2.2524435804e+00 -3.9013467224e+00 2.2524435804e+00 3.9013467224e+00 
23300 5.5019757527e+00 -3.2148554790e-02 2.2531632511e+00 -3.9025932286e+00 2.2531632511e+00 3.9025932286e+00 
23400 5.5019318848e+00 -3.1879714128e-02 2.2538766980e+00 -3.9038289550e+00 2.2538766980e+00 3.9038289550e+00 
23500 5.5018884812e+00 -3.1612385344e-02 2.2545839546e+00 -3.9050539593e+00 2.2545839546e+00 3.9050539593e+00 
23600 5.5018455325e+00 -3.1346838889e-02 2.2552850601e+00 -3.9062683096e+00 2.2552850601e+00 3.9062683096e+00 
23700 5.5018030303e+00 -3.1083334421e-02 2.2559800598e+00 -3.9074720844e+00 2.2559800598e+00 3.9074720844e+00 
23800 5.5017609672e+00 -3.0822120272e-02 2.2566690046e+00 -3.9086653718e+00 2.2566690046e+00 3.9086653718e+00 
23900 5.5017193371e+00 -3.0563432963e-02 2.2573519509e+00 -3.9098482695e+00 2.2573519509e+00 3.9098482695e+00 
24000 5.5016781348e+00 -3.0307496774e-02 2.2580289601e+00 -3.9110208838e+00 2.2580289601e+00 3.9110208838e+00 
24100 5.5016373560e+00 -3.0054523362e-02 2.2587000984e+00 -3.9121833295e+00 2.2587000984e+00 3.9121833295e+00 
24200 5.5015969970e+00 -2.9804711438e-02 2.2593654368e+00 -3.9133357295e+00 2.2593654368e+00 3.9133357295e+00 
24300 5.5015570549e+00 -2.9558246486e-02 2.2600250504e+00 -3.9144782136e+00 2.2600250504e+00 3.9144782136e+00 
24400 5.5015175275e+00 -2.9315300541e-02 2.2606790182e+00 -3.9156109191e+00 2.2606790182e+00 3.9156109191e+00 
24500 5.5014784128e+00 -2.9076032007e-02 2.2613274229e+00 -3.9167339891e+00 2.2613274229e+00 3.9167339891e+00 
24600 5.5014397093e+00 -2.8840585536e-02 2.2619703508e+00 -3.9178475729e+00 2.2619703508e+00 3.9178475729e+00 
24700 5.5014014158e+00 -2.8609091942e-02 2.2626078910e+00 -3.9189518249e+00 2.2626078910e+00 3.9189518249e+00 
24800 5.5013635312e+00 -2.8381668170e-02 2.2632401354e+00 -3.9200469043e+00 2.2632401354e+00 3.9200469043e+00 
24900 5.5013260547e+00 -2.8158417309e-02 2.2638671784e+00 -3.9211329747e+00 2.2638671784e+00 3.9211329747e+00 
25000 5.5012889851e+00 -2.7939428645e-02 2.2644891166e+00 -3.9222102031e+00 2.2644891166e+00 3.9222102031e+00 
25100 5.5012523216e+00 -2.7724777764e-02 2.2651060481e+00 -3.9232787599e+00 2.2651060481e+00 3.9232787599e+00 
25200 5.5012160629e+00 -2.7514526687e-02 2.2657180730e+00 -3.9243388181e+00 2.2657180730e+00 3.9243388181e+00 
25300 5.5011802078e+00 -2.7308724053e-02 2.2663252924e+00 -3.9253905528e+00 2.2663252924e+00 3.9253905528e+00 
25400 5.5011447547e+00 -2.7107405336e-02 2.2669278081e+00 -3.9264341407e+00 2.2669278081e+00 3.9264341407e+00 
25500 5.5011097016e+00 -2.6910593097e-02 2.2675257230e+00 -3.9274697596e+00 2.2675257230e+00 3.9274697596e+00 
25600 5.5010750465e+00 -2.6718297274e-02 2.2681191400e+00 -3.9284975881e+00 2.2681191400e+00 3.9284975881e+00 
25700 5.5010407868e+00 -2.6530515500e-02 2.2687081622e+00 -3.9295178045e+00 2.2687081622e+00 3.9295178045e+00 
25800 5.5010069196e+00 -2.6347233457e-02 2.2692928927e+00 -3.9305305874e+00 2.2692928927e+00 3.9305305874e+00 
25900 5.5009734418e+00 -2.6168425257e-02 2.2698734338e+00 -3.9315361141e+00 2.2698734338e+00 3.9315361141e+00 
26000 5.5009403495e+00 -2.5994053844e-02 2.2704498874e+00 -3.9325345609e+00 2.2704498874e+00 3.9325345609e+00 
26100 5.5009076390e+00 -2.5824071430e-02 2.2710223542e+00 -3.9335261026e+00 2.2710223542e+00 3.9335261026e+00 
26200 5.5008753057e+00 -2.5658419947e-02 2.2715909340e+00 -3.9345109117e+00 2.2715909340e+00 3.9345109117e+00 
26300 5.5008433450e+00 -2.5497031523e-02 2.2721557250e+00 -3.9354891584e+00 2.2721557250e+00 3.9354891584e+00 
26400 5.5008117519e+00 -2.5339828977e-02 2.2727168239e+00 -3.9364610102e+00 2.2727168239e+00 3.9364610102e+00 
26500 5.5007805211e+00 -2.5186726323e-02 2.2732743255e+00 -3.9374266313e+00 2.2732743255e+00 3.9374266313e+00 
26600 5.5007496469e+00 -2.5037629301e-02 2.2738283226e+00 -3.9383861825e+00 2.2738283226e+00 3.9383861825e+00 
26700 5.5007191236e+00 -2.4892435909e-02 2.2743789059e+00 -3.9393398208e+00 2.2743789059e+00 3.9393398208e+00 
26800 5.5006889451e+00 -2.4751036953e-02 2.2749261638e+00 -3.9402876992e+00 2.2749261638e+00 3.9402876992e+00 
26900 5.5006591054e+00 -2.4613316599e-02 2.2754701820e+00 -3.9412299663e+00 2.2754701820e+00 3.9412299663e+00 
27000 5.5006295980e+00 -2.4479152934e-02 2.2760110436e+00 -3.9421667661e+00 2.2760110436e+00 3.9421667661e+00 
27100 5.5006004166e+00 -2.4348418535e-02 2.2765488292e+00 -3.9430982380e+00 2.2765488292e+00 3.9430982380e+00 
27200 5.5005715549e+00 -2.4220981033e-02 2.2770836161e+00 -3.9440245162e+00 2.2770836161e+00 3.9440245162e+00 
27300 5.5005430065e+00 -2.4096703679e-02 2.2776154789e+00 -3.9449457296e+00 2.2776154789e+00 3.9449457296e+00 
27400 5.5005147649e+00 -2.3975445915e-02 2.2781444891e+00 -3.9458620022e+00 2.2781444891e+00 3.9458620022e+00 
27500 5.5004868240e+00 -2.3857063931e-02 2.2786707150e+00 -3.9467734520e+00 2.2786707150e+00 3.9467734520e+00 
27600 5.5004591776e+00 -2.3741411227e-02 2.2791942214e+00 -3.9476801918e+00 2.2791942214e+00 3.9476801918e+00 
27700 5.5004318196e+00 -2.3628339160e-02 2.2797150703e+00 -3.9485823285e+00 2.2797150703e+00 3.9485823285e+00 
27800 5.5004047443e+00 -2.3517697487e-02 2.2802333200e+00 -3.9494799634e+00 2.2802333200e+00 3.9494799634e+00 
27900 5.5003779459e+00 -2.3409334895e-02 2.2807490257e+00 -3.9503731918e+00 2.2807490257e+00 3.9503731918e+00 
28000 5.5003514191e+00 -2.3303099525e-02 2.2812622389e+00 -3.9512621032e+00 2.2812622389e+00 3.9512621032e+00 
28100 5.5003251588e+00 -2.3198839474e-02 2.2817730081e+00 -3.9521467814e+00 2.2817730081e+00 3.9521467814e+00 
28200 5.5002991599e+00 -2.3096403292e-02 2.2822813781e+00 -3.9530273041e+00 2.2822813781e+00 3.9530273041e+00 
28300 5.5002734180e+00 -2.2995640453e-02 2.2827873906e+00 -3.9539037434e+00 2.2827873906e+00 3.9539037434e+00 
28400 5.5002479285e+00 -2.2896401822e-02 2.2832910837e+00 -3.9547761655e+00 2.2832910837e+00 3.9547761655e+00 
28500 5.5002226876e+00 -2.2798540094e-02 2.2837924924e+00 -3.9556446308e+00 2.2837924924e+00 3.9556446308e+00 
28600 5.5001976914e+00 -2.2701910214e-02 2.2842916483e+00 -3.9565091942e+00 2.2842916483e+00 3.9565091942e+00 
28700 5.5001729364e+00 -2.2606369788e-02 2.2847885799e+00 -3.9573699049e+00 2.2847885799e+00 3.9573699049e+00 
28800 5.5001484195e+00 -2.2511779458e-02 2.2852833124e+00 -3.9582268068e+00 2.2852833124e+00 3.9582268068e+00 
28900 5.5001241378e+00 -2.2418003271e-02 2.2857758682e+00 -3.9590799384e+00 2.2857758682e+00 3.9590799384e+00 
29000 5.5001000885e+00 -2.2324909012e-02 2.2862662663e+00 -3.9599293329e+00 2.2862662663e+00 3.9599293329e+00 
29100 5.5000762694e+00 -2.2232368527e-02 2.2867545232e+00 -3.9607750186e+00 2.2867545232e+00 3.9607750186e+00 
29200 5.5000526783e+00 -2.2140258014e-02 2.2872406522e+00 -3.9616170188e+00 2.2872406522e+00 3.9616170188e+00 
29300 5.5000293132e+00 -2.2048458296e-02 2.2877246642e+00 -3.9624553522e+00 2.2877246642e+00 3.9624553522e+00 
29400 5.5000061725e+00 -2.1956855069e-02 2.2882065673e+00 -3.9632900328e+00 2.2882065673e+00 3.9632900328e+00 
29500 5.4999832546e+00 -2.1865339124e-02 2.2886863671e+00 -3.9641210705e+00 2.2886863671e+00 3.9641210705e+00 
29600 5.4999605582e+00 -2.1773806550e-02 2.2891640669e+00 -3.9649484708e+00 2.2891640669e+00 3.9649484708e+00 
29700 5.4999380821e+00 -2.1682158910e-02 2.2896396676e+00 -3.9657722354e+00 2.2896396676e+00 3.9657722354e+00 
29800 5.4999158252e+00 -2.1590303394e-02 2.2901131680e+00 -3.9665923621e+00 2.2901131680e+00 3.9665923621e+00 
29900 5.4998937866e+00 -2.1498152948e-02 2.2905845649e+00 -3.9674088454e+00 2.2905845649e+00 3.9674088454e+00 
30000 5.4998719653e+00 -2.1405626383e-02 2.2910538531e+00 -3.9682216765e+00 2.2910538531e+00 3.9682216765e+00 
30100 5.4998503605e+00 -2.1312648456e-02 2.2915210258e+00 -3.9690308432e+00 2.2915210258e+00 3.9690308432e+00 
30200 5.4998289715e+00 -2.1219149933e-02 2.2919860743e+00 -3.9698363309e+00 2.2919860743e+00 3.9698363309e+00 
30300 5.4998077975e+00 -2.1125067625e-02 2.2924489886e+00 -3.9706381220e+00 2.2924489886e+00 3.9706381220e+00 
30400 5.4997868377e+00 -2.1030344413e-02 2.2929097573e+00 -3.9714361968e+00 2.2929097573e+00 3.9714361968e+00 
30500 5.4997660914e+00 -2.0934929237e-02 2.2933683677e+00 -3.9722305334e+00 2.2933683677e+00 3.9722305334e+00 
30600 5.4997455578e+00 -2.0838777075e-02 2.2938248060e+00 -3.9730211077e+00 2.2938248060e+00 3.9730211077e+00 
30700 5.4997252361e+00 -2.0741848902e-02 2.2942790575e+00 -3.9738078943e+00 2.2942790575e+00 3.9738078943e+00 
30800 5.4997051254e+00 -2.0644111625e-02 2.2947311064e+00 -3.9745908661e+00 2.2947311064e+00 3.9745908661e+00 
30900 5.4996852248e+00 -2.0545538007e-02 2.2951809366e+00 -3.9753699948e+00 2.2951809366e+00 3.9753699948e+00 
31000 5.4996655333e+00 -2.0446106563e-02 2.2956285311e+00 -3.9761452511e+00 2.2956285311e+00 3.9761452511e+00 
31100 5.4996460497e+00 -2.0345801454e-02 2.2960738725e+00 -3.9769166050e+00 2.2960738725e+00 3.9769166050e+00 
31200 5.4996267728e+00 -2.0244612351e-02 2.2965169430e+00 -3.9776840258e+00 2.2965169430e+00 3.9776840258e+00 
31300 5.4996077015e+00 -2.0142534298e-02 2.2969577249e+00 -3.9784474824e+00 2.2969577249e+00 3.9784474824e+00 
31400 5.4995888344e+00 -2.0039567546e-02 2.2973962000e+00 -3.9792069435e+00 2.2973962000e+00 3.9792069435e+00 
31500 5.4995701699e+00 -1.9935717391e-02 2.2978323503e+00 -3.9799623780e+00 2.2978323503e+00 3.9799623780e+00 
31600 5.4995517065e+00 -1.9830993987e-02 2.2982661579e+00 -3.9807137549e+00 2.2982661579e+00 3.9807137549e+00 
31700 5.4995334427e+00 -1.9725412154e-02 2.2986976052e+00 -3.9814610435e+00 2.2986976052e+00 3.9814610435e+00 
31800 5.4995153765e+00 -1.9618991178e-02 2.2991266748e+00 -3.9822042139e+00 2.2991266748e+00 3.9822042139e+00 
31900 5.4994975063e+00 -1.9511754594e-02 2.2995533499e+00 -3.9829432367e+00 2.2995533499e+00 3.9829432367e+00 
32000 5.4994798301e+00 -1.9403729975e-02 2.2999776139e+00 -3.9836780835e+00 2.2999776139e+00 3.9836780835e+00 
32100 5.4994623460e+00 -1.9294948697e-02 2.3003994511e+00 -3.9844087270e+00 2.3003994511e+00 3.9844087270e+00 
32200 5.4994450518e+00 -1.9185445716e-02 2.3008188464e+00 -3.9851351410e+00 2.3008188464e+00 3.9851351410e+00 
32300 5.4994279456e+00 -1.9075259324e-02 2.3012357855e+00 -3.9858573006e+00 2.3012357855e+00 3.9858573006e+00 
32400 5.4994110250e+00 -1.8964430913e-02 2.3016502548e+00 -3.9865751825e+00 2.3016502548e+00 3.9865751825e+00 
32500 5.4993942879e+00 -1.8853004728e-02 2.3020622417e+00 -3.9872887648e+00 2.3020622417e+00 3.9872887648e+00 
32600 5.4993777321e+00 -1.8741027624e-02 2.3024717346e+00 -3.9879980273e+00 2.3024717346e+00 3.9879980273e+00 
32700 5.4993613553e+00 -1.8628548821e-02 2.3028787229e+00 -3.9887029517e+00 2.3028787229e+00 3.9887029517e+00 
32800 5.4993451552e+00 -1.8515619649e-02 2.3032831969e+00 -3.9894035213e+00 2.3032831969e+00 3.9894035213e+00 
32900 5.4993291294e+00 -1.8402293312e-02 2.3036851483e+00 -3.9900997215e+00 2.3036851483e+00 3.9900997215e+00 
33000 5.4993132758e+00 -1.8288624635e-02 2.3040845698e+00 -3.9907915398e+00 2.3040845698e+00 3.9907915398e+00 
33100 5.4992975919e+00 -1.8174669824e-02 2.3044814551e+00 -3.9914789654e+00 2.3044814551e+00 3.9914789654e+00 
33200 5.4992820755e+00 -1.8060486226e-02 2.3048757996e+00 -3.9921619900e+00 2.3048757996e+00 3.9921619900e+00 
33300 5.4992667242e+00 -1.7946132091e-02 2.3052675994e+00 -3.9928406072e+00 2.3052675994e+00 3.9928406072e+00 
33400 5.4992515360e+00 -1.7831666344e-02 2.3056568522e+00 -3.9935148128e+00 2.3056568522e+00 3.9935148128e+00 
33500 5.4992365085e+00 -1.7717148353e-02 2.3060435568e+00 -3.9941846049e+00 2.3060435568e+00 3.9941846049e+00 
33600 5.4992216395e+00 -1.7602637709e-02 2.3064277135e+00 -3.9948499837e+00 2.3064277135e+00 3.9948499837e+00 
33700 5.4992069270e+00 -1.7488194013e-02 2.3068093236e+00 -3.9955109519e+00 2.3068093236e+00 3.9955109519e+00 
33800 5.4991923689e+00 -1.7373876663e-02 2.3071883899e+00 -3.9961675139e+00 2.3071883899e+00 3.9961675139e+00 
33900 5.4991779630e+00 -1.7259744659e-02 2.3075649163e+00 -3.9968196769e+00 2.3075649163e+00 3.9968196769e+00 
34000 5.4991637075e+00 -1.7145856401e-02 2.3079389082e+00 -3.9974674498e+00 2.3079389082e+00 3.9974674498e+00 
34100 5.4991496004e+00 -1.7032269509e-02 2.3083103720e+00 -3.9981108440e+00 2.3083103720e+00 3.9981108440e+00 
34200 5.4991356398e+00 -1.6919040645e-02 2.3086793156e+00 -3.9987498729e+00 2.3086793156e+00 3.9987498729e+00 
34300 5.4991218240e+00 -1.6806225342e-02 2.3090457478e+00 -3.9993845521e+00 2.3090457478e+00 3.9993845521e+00 
34400 5.4991081511e+00 -1.6693877848e-02 2.3094096788e+00 -4.0000148991e+00 2.3094096788e+00 4.0000148991e+00 
34500 5.4990946194e+00 -1.6582050971e-02 2.3097711199e+00 -4.0006409335e+00 2.3097711199e+00 4.0006409335e+00 
34600 5.4990812274e+00 -1.6470795943e-02 2.3101300836e+00 -4.0012626769e+00 2.3101300836e+00 4.0012626769e+00 
34700 5.4990679735e+00 -1.6360162285e-02 2.3104865834e+00 -4.0018801527e+00 2.3104865834e+00 4.0018801527e+00 
34800 5.4990548560e+00 -1.6250197691e-02 2.3108406340e+00 -4.0024933862e+00 2.3108406340e+00 4.0024933862e+00 
34900 5.4990418736e+00 -1.6140947909e-02 2.3111922508e+00 -4.0031024045e+00 2.3111922508e+00 4.0031024045e+00 
35000 5.4990290248e+00 -1.6032456649e-02 2.3115414505e+00 -4.0037072361e+00 2.3115414505e+00 4.0037072361e+00 
35100 5.4990163083e+00 -1.5924765484e-02 2.3118882507e+00 -4.0043079116e+00 2.3118882507e+00 4.0043079116e+00 
35200 5.4990037227e+00 -1.5817913772e-02 2.3122326696e+00 -4.0049044626e+00 2.3122326696e+00 4.0049044626e+00 
35300 5.4989912666e+00 -1.5711938586e-02 2.3125747265e+00 -4.0054969226e+00 2.3125747265e+00 4.0054969226e+00 
35400 5.4989789390e+00 -1.5606874650e-02 2.3129144414e+00 -4.0060853261e+00 2.3129144414e+00 4.0060853261e+00 
35500 5.4989667385e+00 -1.5502754288e-02 2.3132518351e+00 -4.0066697091e+00 2.3132518351e+00 4.0066697091e+00 
35600 5.4989546639e+00 -1.5399607385e-02 2.3135869289e+00 -4.0072501087e+00 2.3135869289e+00 4.0072501087e+00 
35700 5.4989427141e+00 -1.5297461349e-02 2.3139197450e+00 -4.0078265629e+00 2.3139197450e+00 4.0078265629e+00 
35800 5.4989308880e+00 -1.5196341094e-02 2.3142503058e+00 -4.0083991111e+00 2.3142503058e+00 4.0083991111e+00 
35900 5.4989191845e+00 -1.5096269021e-02 2.3145786346e+00 -4.0089677933e+00 2.3145786346e+00 4.0089677933e+00 
36000 5.4989076024e+00 -1.4997265017e-02 2.3149047550e+00 -4.0095326503e+00 2.3149047550e+00 4.0095326503e+00 
36100 5.4988961407e+00 -1.4899346453e-02 2.3152286909e+00 -4.0100937237e+00 2.3152286909e+00 4.0100937237e+00 
36200 5.4988847984e+00 -1.4802528203e-02 2.3155504667e+00 -4.0106510557e+00 2.3155504667e+00 4.0106510557e+00 
36300 5.4988735743e+00 -1.4706822658e-02 2.3158701070e+00 -4.0112046891e+00 2.3158701070e+00 4.0112046891e+00 
36400 5.4988624675e+00 -1.4612239754e-02 2.3161876369e+00 -4.0117546670e+00 2.3161876369e+00 4.0117546670e+00 
36500 5.4988514768e+00 -1.4518787010e-02 2.3165030814e+00 -4.0123010328e+00 2.3165030814e+00 4.0123010328e+00 
36600 5.4988406013e+00 -1.4426469566e-02 2.3168164657e+00 -4.0128438304e+00 2.3168164657e+00 4.0128438304e+00 
36700 5.4988298400e+00 -1.4335290236e-02 2.3171278152e+00 -4.0133831035e+00 2.3171278152e+00 4.0133831035e+00 
36800 5.4988191918e+00 -1.4245249558e-02 2.3174371552e+00 -4.0139188962e+00 2.3174371552e+00 4.0139188962e+00 
36900 5.4988086556e+00 -1.4156345857e-02 2.3177445112e+00 -4.0144512524e+00 2.3177445112e+00 4.0144512524e+00 
37000 5.4987982305e+00 -1.4068575310e-02 2.3180499085e+00 -4.0149802160e+00 2.3180499085e+00 4.0149802160e+00 
37100 5.4987879154e+00 -1.3981932021e-02 2.3183533723e+00 -4.0155058306e+00 2.3183533723e+00 4.0155058306e+00 
37200 5.4987777094e+00 -1.3896408091e-02 2.3186549276e+00 -4.0160281397e+00 2.3186549276e+00 4.0160281397e+00 
37300 5.4987676112e+00 -1.3811993704e-02 2.3189545993e+00 -4.0165471864e+00 2.3189545993e+00 4.0165471864e+00 
37400 5.4987576200e+00 -1.3728677207e-02 2.3192524121e+00 -4.0170630134e+00 2.3192524121e+00 4.0170630134e+00 
37500 5.4987477348e+00 -1.3646445199e-02 2.3195483905e+00 -4.0175756629e+00 2.3195483905e+00 4.0175756629e+00 
37600 5.4987379543e+00 -1.3565282625e-02 2.3198425584e+00 -4.0180851767e+00 2.3198425584e+00 4.0180851767e+00 
37700 5.4987282777e+00 -1.3485172864e-02 2.3201349396e+00 -4.0185915958e+00 2.3201349396e+00 4.0185915958e+00 
37800 5.4987187038e+00 -1.3406097828e-02 2.3204255575e+00 -4.0190949607e+00 2.3204255575e+00 4.0190949607e+00 
37900 5.4987092317e+00 -1.3328038061e-02 2.3207144350e+00 -4.0195953113e+00 2.3207144350e+00 4.0195953113e+00 
38000 5.4986998603e+00 -1.3250972835e-02 2.3210015947e+00 -4.0200926865e+00 2.3210015947e+00 4.0200926865e+00 
38100 5.4986905885e+00 -1.3174880253e-02 2.3212870586e+00 -4.0205871245e+00 2.3212870586e+00 4.0205871245e+00 
38200 5.4986814154e+00 -1.3099737347e-02 2.3215708484e+00 -4.0210786627e+00 2.3215708484e+00 4.0210786627e+00 
38300 5.4986723398e+00 -1.3025520185e-02 2.3218529850e+00 -4.0215673377e+00 2.3218529850e+00 4.0215673377e+00 
38400 5.4986633608e+00 -1.2952203967e-02 2.3221334890e+00 -4.0220531849e+00 2.3221334890e+00 4.0220531849e+00 
38500 5.4986544774e+00 -1.2879763128e-02 2.3224123804e+00 -4.0225362390e+00 2.3224123804e+00 4.0225362390e+00 
38600 5.4986456885e+00 -1.2808171442e-02 2.3226896787e+00 -4.0230165338e+00 2.3226896787e+00 4.0230165338e+00 
38700 5.4986369931e+00 -1.2737402117e-02 2.3229654027e+00 -4.0234941017e+00 2.3229654027e+00 4.0234941017e+00 
38800 5.4986283903e+00 -1.2667427895e-02 2.3232395706e+00 -4.0239689745e+00 2.3232395706e+00 4.0239689745e+00 
38900 5.4986198789e+00 -1.2598221151e-02 2.3235122002e+00 -4.0244411827e+00 2.3235122002e+00 4.0244411827e+00 
39000 5.4986114582e+00 -1.2529753985e-02 2.3237833084e+00 -4.0249107560e+00 2.3237833084e+00 4.0249107560e+00 
39100 5.4986031270e+00 -1.2461998319e-02 2.3240529118e+00 -4.0253777227e+00 2.3240529118e+00 4.0253777227e+00 
39200 5.4985948845e+00 -1.2394925982e-02 2.3243210261e+00 -4.0258421104e+00 2.3243210261e+00 4.0258421104e+00 
39300 5.4985867297e+00 -1.2328508804e-02 2.3245876667e+00 -4.0263039453e+00 2.3245876667e+00 4.0263039453e+00 
39400 5.4985786616e+00 -1.2262718698e-02 2.3248528479e+00 -4.0267632528e+00 2.3248528479e+00 4.0267632528e+00 
39500 5.4985706794e+00 -1.2197527745e-02 2.3251165840e+00 -4.0272200570e+00 2.3251165840e+00 4.0272200570e+00 
39600 5.4985627821e+00 -1.2132908268e-02 2.3253788882e+00 -4.0276743812e+00 2.3253788882e+00 4.0276743812e+00 
39700 5.4985549688e+00 -1.2068832914e-02 2.3256397733e+00 -4.0281262475e+00 2.3256397733e+00 4.0281262475e+00 
39800 5.4985472387e+00 -1.2005274725e-02 2.3258992515e+00 -4.0285756770e+00 2.3258992515e+00 4.0285756770e+00 
39900 5.4985395908e+00 -1.1942207204e-02 2.3261573345e+00 -4.0290226897e+00 2.3261573345e+00 4.0290226897e+00 
40000 5.4985320244e+00 -1.1879604382e-02 2.3264140331e+00 -4.0294673047e+00 2.3264140331e+00 4.0294673047e+00 
40100 5.4985245386e+00 -1.1817440882e-02 2.3266693578e+00 -4.0299095401e+00 2.3266693578e+00 4.0299095401e+00 
40200 5.4985171326e+00 -1.1755691971e-02 2.3269233186e+00 -4.0303494131e+00 2.3269233186e+00 4.0303494131e+00 
40300 5.4985098054e+00 -1.1694333617e-02 2.3271759248e+00 -4.0307869399e+00 2.3271759248e+00 4.0307869399e+00 
40400 5.4985025564e+00 -1.1633342540e-02 2.3274271852e+00 -4.0312221357e+00 2.3274271852e+00 4.0312221357e+00 
40500 5.4984953848e+00 -1.1572696253e-02 2.3276771082e+00 -4.0316550150e+00 2.3276771082e+00 4.0316550150e+00 
40600 5.4984882897e+00 -1.1512373105e-02 2.3279257016e+00 -4.0320855914e+00 2.3279257016e+00 4.0320855914e+00 
40700 5.4984812705e+00 -1.1452352322e-02 2.3281729727e+00 -4.0325138775e+00 2.3281729727e+00 4.0325138775e+00 
40800 5.4984743262e+00 -1.1392614033e-02 2.3284189285e+00 -4.0329398855e+00 2.3284189285e+00 4.0329398855e+00 
40900 5.4984674563e+00 -1.1333139305e-02 2.3286635755e+00 -4.0333636265e+00 2.3286635755e+00 4.0333636265e+00 
41000 5.4984606599e+00 -1.1273910167e-02 2.3289069197e+00 -4.0337851111e+00 2.3289069197e+00 4.0337851111e+00 
41100 5.4984539364e+00 -1.1214909627e-02 2.3291489669e+00 -4.0342043490e+00 2.3291489669e+00 4.0342043490e+00 
41200 5.4984472849e+00 -1.1156121694e-02 2.3293897223e+00 -4.0346213496e+00 2.3293897223e+00 4.0346213496e+00 
41300 5.4984407049e+00 -1.1097531390e-02 2.3296291908e+00 -4.0350361213e+00 2.3296291908e+00 4.0350361213e+00 
41400 5.4984341955e+00 -1.1039124757e-02 2.3298673773e+00 -4.0354486723e+00 2.3298673773e+00 4.0354486723e+00 
41500 5.4984277561e+00 -1.0980888866e-02 2.3301042858e+00 -4.0358590100e+00 2.3301042858e+00 4.0358590100e+00 
41600 5.4984213860e+00 -1.0922811817e-02 2.3303399207e+00 -4.0362671415e+00 2.3303399207e+00 4.0362671415e+00 
41700 5.4984150846e+00 -1.0864882738e-02 2.3305742855e+00 -4.0366730733e+00 2.3305742855e+00 4.0366730733e+00 
41800 5.4984088511e+00 -1.0807091781e-02 2.3308073839e+00 -4.0370768116e+00 2.3308073839e+00 4.0370768116e+00 
41900 5.4984026849e+00 -1.0749430115e-02 2.3310392193e+00 -4.0374783622e+00 2.3310392193e+00 4.0374783622e+00 
42000 5.4983965853e+00 -1.0691889913e-02 2.3312697947e+00 -4.0378777306e+00 2.3312697947e+00 4.0378777306e+00 
42100 5.4983905516e+00 -1.0634464337e-02 2.3314991132e+00 -4.0382749218e+00 2.3314991132e+00 4.0382749218e+00 
42200 5.4983845832e+00 -1.0577147526e-02 2.3317271776e+00 -4.0386699409e+00 2.3317271776e+00 4.0386699409e+00 
42300 5.4983786795e+00 -1.0519934572e-02 2.3319539905e+00 -4.0390627925e+00 2.3319539905e+00 4.0390627925e+00 
42400 5.4983728398e+00 -1.0462821498e-02 2.3321795547e+00 -4.0394534811e+00 2.3321795547e+00 4.0394534811e+00 
42500 5.4983670634e+00 -1.0405805236e-02 2.3324038725e+00 -4.0398420109e+00 2.3324038725e+00 4.0398420109e+00 
42600 5.4983613498e+00 -1.0348883601e-02 2.3326269464e+00 -4.0402283864e+00 2.3326269464e+00 4.0402283864e+00 
42700 5.4983556982e+00 -1.0292055258e-02 2.3328487789e+00 -4.0406126115e+00 2.3328487789e+00 4.0406126115e+00 
42800 5.4983501081e+00 -1.0235319695e-02 2.3330693722e+00 -4.0409946903e+00 2.3330693722e+00 4.0409946903e+00 
42900 5.4983445788e+00 -1.0178677190e-02 2.3332887288e+00 -4.0413746270e+00 2.3332887288e+00 4.0413746270e+00 
43000 5.4983391098e+00 -1.0122128776e-02 2.3335068508e+00 -4.0417524255e+00 2.3335068508e+00 4.0417524255e+00 
43100 5.4983337003e+00 -1.0065676208e-02 2.3337237408e+00 -4.0421280900e+00 2.3337237408e+00 4.0421280900e+00 
43200 5.4983283498e+00 -1.0009321923e-02 2.3339394011e+00 -4.0425016246e+00 2.3339394011e+00 4.0425016246e+00 
43300 5.4983230577e+00 -9.9530690069e-03 2.3341538342e+00 -4.0428730335e+00 2.3341538342e+00 4.0428730335e+00 
43400 5.4983178233e+00 -9.8969211519e-03 2.3343670425e+00 -4.0432423212e+00 2.3343670425e+00 4.0432423212e+00 
43500 5.4983126461e+00 -9.8408826199e-03 2.3345790287e+00 -4.0436094920e+00 2.3345790287e+00 4.0436094920e+00 
43600 5.4983075255e+00 -9.7849582016e-03 2.3347897954e+00 -4.0439745506e+00 2.3347897954e+00 4.0439745506e+00 
43700 5.4983024609e+00 -9.7291531765e-03 2.3349993454e+00 -4.0443375019e+00 2.3349993454e+00 4.0443375019e+00 
43800 5.4982974516e+00 -9.6734732726e-03 2.3352076816e+00 -4.0446983508e+00 2.3352076816e+00 4.0446983508e+00 
43900 5.4982924972e+00 -9.6179246255e-03 2.3354148070e+00 -4.0450571025e+00 2.3354148070e+00 4.0450571025e+00 
44000 5.4982875970e+00 -9.5625137379e-03 2.3356207247e+00 -4.0454137624e+00 2.3356207247e+00 4.0454137624e+00 
44100 5.4982827505e+00 -9.5072474389e-03 2.3358254381e+00 -4.0457683363e+00 2.3358254381e+00 4.0457683363e+00 
44200 5.4982779571e+00 -9.4521328440e-03 2.3360289504e+00 -4.0461208300e+00 2.3360289504e+00 4.0461208300e+00 
44300 5.4982732162e+00 -9.3971773149e-03 2.3362312653e+00 -4.0464712497e+00 2.3362312653e+00 4.0464712497e+00 
44400 5.4982685273e+00 -9.3423884207e-03 2.3364323865e+00 -4.0468196018e+00 2.3364323865e+00 4.0468196018e+00 
44500 5.4982638898e+00 -9.2877738989e-03 2.3366323178e+00 -4.0471658931e+00 2.3366323178e+00 4.0471658931e+00 
44600 5.4982593032e+00 -9.2333416175e-03 2.3368310634e+00 -4.0475101305e+00 2.3368310634e+00 4.0475101305e+00 
44700 5.4982547670e+00 -9.1790995378e-03 2.3370286273e+00 -4.0478523213e+00 2.3370286273e+00 4.0478523213e+00 
44800 5.4982502806e+00 -9.1250556785e-03 2.3372250140e+00 -4.0481924731e+00 2.3372250140e+00 4.0481924731e+00 
44900 5.4982458435e+00 -9.0712180807e-03 2.3374202281e+00 -4.0485305937e+00 2.3374202281e+00 4.0485305937e+00 
45000 5.4982414551e+00 -9.0175947736e-03 2.3376142741e+00 -4.0488666913e+00 2.3376142741e+00 4.0488666913e+00 
45100 5.4982371150e+00 -8.9641937418e-03 2.3378071571e+00 -4.0492007744e+00 2.3378071571e+00 4.0492007744e+00 
45200 5.4982328227e+00 -8.9110228942e-03 2.3379988820e+00 -4.0495328516e+00 2.3379988820e+00 4.0495328516e+00 
45300 5.4982285776e+00 -8.8580900334e-03 2.3381894540e+00 -4.0498629321e+00 2.3381894540e+00 4.0498629321e+00 
45400 5.4982243792e+00 -8.8054028272e-03 2.3383788786e+00 -4.0501910250e+00 2.3383788786e+00 4.0501910250e+00 
45500 5.4982202271e+00 -8.7529687812e-03 2.3385671612e+00 -4.0505171400e+00 2.3385671612e+00 4.0505171400e+00 
45600 5.4982161208e+00 -8.7007952133e-03 2.3387543075e+00 -4.0508412870e+00 2.3387543075e+00 4.0508412870e+00 
45700 5.4982120597e+00 -8.6488892288e-03 2.3389403234e+00 -4.0511634760e+00 2.3389403234e+00 4.0511634760e+00 
45800 5.4982080435e+00 -8.5972576984e-03 2.3391252149e+00 -4.0514837175e+00 2.3391252149e+00 4.0514837175e+00 
45900 5.4982040715e+00 -8.5459072367e-03 2.3393089881e+00 -4.0518020220e+00 2.3393089881e+00 4.0518020220e+00 
46000 5.4982001435e+00 -8.4948441829e-03 2.3394916493e+00 -4.0521184004e+00 2.3394916493e+00 4.0521184004e+00 
46100 5.4981962589e+00 -8.4440745826e-03 2.3396732048e+00 -4.0524328639e+00 2.3396732048e+00 4.0524328639e+00 
46200 5.4981924172e+00 -8.3936041719e-03 2.3398536613e+00 -4.0527454236e+00 2.3398536613e+00 4.0527454236e+00 
46300 5.4981886180e+00 -8.3434383630e-03 2.3400330253e+00 -4.0530560912e+00 2.3400330253e+00 4.0530560912e+00 
46400 5.4981848609e+00 -8.2935822304e-03 2.3402113037e+00 -4.0533648784e+00 2.3402113037e+00 4.0533648784e+00 
46500 5.4981811454e+00 -8.2440405005e-03 2.3403885032e+00 -4.0536717970e+00 2.3403885032e+00 4.0536717970e+00 
46600 5.4981774711e+00 -8.1948175411e-03 2.3405646309e+00 -4.0539768591e+00 2.3405646309e+00 4.0539768591e+00 
46700 5.4981738376e+00 -8.1459173537e-03 2.3407396937e+00 -4.0542800769e+00 2.3407396937e+00 4.0542800769e+00 
46800 5.4981702443e+00 -8.0973435668e-03 2.3409136990e+00 -4.0545814627e+00 2.3409136990e+00 4.0545814627e+00 
46900 5.4981666910e+00 -8.0490994307e-03 2.3410866537e+00 -4.0548810292e+00 2.3410866537e+00 4.0548810292e+00 
47000 5.4981631772e+00 -8.0011878139e-03 2.3412585653e+00 -4.0551787887e+00 2.3412585653e+00 4.0551787887e+00 
47100 5.4981597024e+00 -7.9536112013e-03 2.3414294410e+00 -4.0554747542e+00 2.3414294410e+00 4.0554747542e+00 
47200 5.4981562664e+00 -7.9063716932e-03 2.3415992883e+00 -4.0557689383e+00 2.3415992883e+00 4.0557689383e+00 
47300 5.4981528685e+00 -7.8594710060e-03 2.3417681145e+00 -4.0560613538e+00 2.3417681145e+00 4.0560613538e+00 
47400 5.4981495085e+00 -7.8129104744e-03 2.3419359271e+00 -4.0563520138e+00 2.3419359271e+00 4.0563520138e+00 
47500 5.4981461860e+00 -7.7666910544e-03 2.3421027336e+00 -4.0566409312e+00 2.3421027336e+00 4.0566409312e+00 
47600 5.4981429005e+00 -7.7208133284e-03 2.3422685415e+00 -4.0569281189e+00 2.3422685415e+00 4.0569281189e+00 
47700 5.4981396517e+00 -7.6752775100e-03 2.3424333583e+00 -4.0572135899e+00 2.3424333583e+00 4.0572135899e+00 
47800 5.4981364392e+00 -7.6300834516e-03 2.3425971915e+00 -4.0574973574e+00 2.3425971915e+00 4.0574973574e+00 
47900 5.4981332626e+00 -7.5852306517e-03 2.3427600486e+00 -4.0577794341e+00 2.3427600486e+00 4.0577794341e+00 
48000 5.4981301215e+00 -7.5407182640e-03 2.3429219371e+00 -4.0580598332e+00 2.3429219371e+00 4.0580598332e+00 
48100 5.4981270155e+00 -7.4965451072e-03 2.3430828645e+00 -4.0583385676e+00 2.3430828645e+00 4.0583385676e+00 
48200 5.4981239443e+00 -7.4527096754e-03 2.3432428381e+00 -4.0586156501e+00 2.3432428381e+00 4.0586156501e+00 
48300 5.4981209075e+00 -7.4092101495e-03 2.3434018655e+00 -4.0588910935e+00 2.3434018655e+00 4.0588910935e+00 
48400 5.4981179047e+00 -7.3660444095e-03 2.3435599539e+00 -4.0591649107e+00 2.3435599539e+00 4.0591649107e+00 
48500 5.4981149356e+00 -7.3232100475e-03 2.3437171107e+00 -4.0594371142e+00 2.3437171107e+00 4.0594371142e+00 
48600 5.4981119998e+00 -7.2807043806e-03 2.3438733431e+00 -4.0597077167e+00 2.3438733431e+00 4.0597077167e+00 
48700 5.4981090969e+00 -7.2385244651e-03 2.3440286583e+00 -4.0599767306e+00 2.3440286583e+00 4.0599767306e+00 
48800 5.4981062266e+00 -7.1966671109e-03 2.3441830635e+00 -4.0602441682e+00 2.3441830635e+00 4.0602441682e+00 
48900 5.4981033885e+00 -7.1551288964e-03 2.3443365657e+00 -4.0605100418e+00 2.3443365657e+00 4.0605100418e+00 
49000 5.4981005824e+00 -7.1139061835e-03 2.3444891719e+00 -4.0607743636e+00 2.3444891719e+00 4.0607743636e+00 
49100 5.4980978077e+00 -7.0729951330e-03 2.3446408890e+00 -4.0610371453e+00 2.3446408890e+00 4.0610371453e+00 
49200 5.4980950643e+00 -7.0323917203e-03 2.3447917239e+00 -4.0612983989e+00 2.3447917239e+00 4.0612983989e+00 
49300 5.4980923517e+00 -6.9920917512e-03 2.3449416832e+00 -4.0615581361e+00 2.3449416832e+00 4.0615581361e+00 
49400 5.4980896697e+00 -6.9520908776e-03 2.3450907736e+00 -4.0618163682e+00 2.3450907736e+00 4.0618163682e+00 
49500 5.4980870178e+00 -6.9123846136e-03 2.3452390016e+00 -4.0620731067e+00 2.3452390016e+00 4.0620731067e+00 
49600 5.4980843958e+00 -6.8729683514e-03 2.3453863737e+00 -4.0623283627e+00 2.3453863737e+00 4.0623283627e+00 
49700 5.4980818034e+00 -6.8338373769e-03 2.3455328963e+00 -4.0625821472e+00 2.3455328963e+00 4.0625821472e+00 
49800 5.4980792402e+00 -6.7949868854e-03 2.3456785755e+00 -4.0628344710e+00 2.3456785755e+00 4.0628344710e+00 
49900 5.4980767059e+00 -6.7564119974e-03 2.3458234175e+00 -4.0630853448e+00 2.3458234175e+00 4.0630853448e+00 
50000 5.4980742001e+00 -6.7181077735e-03 2.3459674284e+00 -4.0633347789e+00 2.3459674284e+00 4.0633347789e+00 
50100 5.4980717226e+00 -6.6800692295e-03 2.3461106140e+00 -4.0635827837e+00 2.3461106140e+00 4.0635827837e+00 
50200 5.4980692731e+00 -6.6422913512e-03 2.3462529802e+00 -4.0638293692e+00 2.3462529802e+00 4.0638293692e+00 
50300 5.4980668513e+00 -6.6047691087e-03 2.3463945327e+00 -4.0640745452e+00 2.3463945327e+00 4.0640745452e+00 
50400 5.4980644568e+00 -6.5674974702e-03 2.3465352770e+00 -4.0643183216e+00 2.3465352770e+00 4.0643183216e+00 
50500 5.4980620893e+00 -6.5304714156e-03 2.3466752187e+00 -4.0645607077e+00 2.3466752187e+00 4.0645607077e+00 
50600 5.4980597486e+00 -6.4936859495e-03 2.3468143632e+00 -4.0648017130e+00 2.3468143632e+00 4.0648017130e+00 
50700 5.4980574344e+00 -6.4571361139e-03 2.3469527156e+00 -4.0650413464e+00 2.3469527156e+00 4.0650413464e+00 
50800 5.4980551464e+00 -6.4208169999e-03 2.3470902812e+00 -4.0652796170e+00 2.3470902812e+00 4.0652796170e+00 
50900 5.4980528842e+00 -6.3847237597e-03 2.3472270650e+00 -4.0655165335e+00 2.3472270650e+00 4.0655165335e+00 
51000 5.4980506476e+00 -6.3488516170e-03 2.3473630720e+00 -4.0657521045e+00 2.3473630720e+00 4.0657521045e+00 
51100 5.4980484364e+00 -6.3131958776e-03 2.3474983070e+00 -4.0659863384e+00 2.3474983070e+00 4.0659863384e+00 
51200 5.4980462502e+00 -6.2777519391e-03 2.3476327748e+00 -4.0662192434e+00 2.3476327748e+00 4.0662192434e+00 
51300 5.4980440888e+00 -6.2425153002e-03 2.3477664799e+00 -4.0664508275e+00 2.3477664799e+00 4.0664508275e+00 
51400 5.4980419518e+00 -6.2074815688e-03 2.3478994270e+00 -4.0666810986e+00 2.3478994270e+00 4.0666810986e+00 
51500 5.4980398391e+00 -6.1726464702e-03 2.3480316205e+00 -4.0669100644e+00 2.3480316205e+00 4.0669100644e+00 
51600 5.4980377504e+00 -6.1380058541e-03 2.3481630647e+00 -4.0671377325e+00 2.3481630647e+00 4.0671377325e+00 
51700 5.4980356854e+00 -6.1035557015e-03 2.3482937639e+00 -4.0673641102e+00 2.3482937639e+00 4.0673641102e+00 
51800 5.4980336438e+00 -6.0692921301e-03 2.3484237224e+00 -4.0675892049e+00 2.3484237224e+00 4.0675892049e+00 
51900 5.4980316254e+00 -6.0352114000e-03 2.3485529441e+00 -4.0678130235e+00 2.3485529441e+00 4.0678130235e+00 
52000 5.4980296299e+00 -6.0013099183e-03 2.3486814332e+00 -4.0680355730e+00 2.3486814332e+00 4.0680355730e+00 
52100 5.4980276571e+00 -5.9675842428e-03 2.3488091934e+00 -4.0682568603e+00 2.3488091934e+00 4.0682568603e+00 
52200 5.4980257067e+00 -5.9340310857e-03 2.3489362288e+00 -4.0684768921e+00 2.3489362288e+00 4.0684768921e+00 
52300 5.4980237786e+00 -5.9006473162e-03 2.3490625431e+00 -4.0686956749e+00 2.3490625431e+00 4.0686956749e+00 
52400 5.4980218723e+00 -5.8674299623e-03 2.3491881400e+00 -4.0689132151e+00 2.3491881400e+00 4.0689132151e+00 
52500 5.4980199878e+00 -5.8343762131e-03 2.3493130232e+00 -4.0691295191e+00 2.3493130232e+00 4.0691295191e+00 
52600 5.4980181247e+00 -5.8014834190e-03 2.3494371963e+00 -4.0693445931e+00 2.3494371963e+00 4.0693445931e+00 
52700 5.4980162829e+00 -5.7687490922e-03 2.3495606627e+00 -4.0695584433e+00 2.3495606627e+00 4.0695584433e+00 
52800 5.4980144620e+00 -5.7361709069e-03 2.3496834261e+00 -4.0697710757e+00 2.3496834261e+00 4.0697710757e+00 
52900 5.4980126619e+00 -5.7037466982e-03 2.3498054898e+00 -4.0699824962e+00 2.3498054898e+00 4.0699824962e+00 
53000 5.4980108824e+00 -5.6714744610e-03 2.3499268572e+00 -4.0701927107e+00 2.3499268572e+00 4.0701927107e+00 
53100 5.4980091231e+00 -5.6393523482e-03 2.3500475317e+00 -4.0704017250e+00 2.3500475317e+00 4.0704017250e+00 
53200 5.4980073840e+00 -5.6073786687e-03 2.3501675165e+00 -4.0706095448e+00 2.3501675165e+00 4.0706095448e+00 
53300 5.4980056647e+00 -5.5755518843e-03 2.3502868149e+00 -4.0708161758e+00 2.3502868149e+00 4.0708161758e+00 
53400 5.4980039650e+00 -5.5438706072e-03 2.3504054302e+00 -4.0710216235e+00 2.3504054302e+00 4.0710216235e+00 
53500 5.4980022848e+00 -5.5123335962e-03 2.3505233655e+00 -4.0712258935e+00 2.3505233655e+00 4.0712258935e+00 
53600 5.4980006238e+00 -5.4809397527e-03 2.3506406241e+00 -4.0714289912e+00 2.3506406241e+00 4.0714289912e+00 
53700 5.4979989818e+00 -5.4496881170e-03 2.3507572090e+00 -4.0716309222e+00 2.3507572090e+00 4.0716309222e+00 
53800 5.4979973586e+00 -5.4185778633e-03 2.3508731234e+00 -4.0718316919e+00 2.3508731234e+00 4.0718316919e+00 
53900 5.4979957540e+00 -5.3876082949e-03 2.3509883704e+00 -4.0720313056e+00 2.3509883704e+00 4.0720313056e+00 
54000 5.4979941677e+00 -5.3567788394e-03 2.3511029531e+00 -4.0722297686e+00 2.3511029531e+00 4.0722297686e+00 
54100 5.4979925996e+00 -5.3260890431e-03 2.3512168746e+00 -4.0724270864e+00 2.3512168746e+00 4.0724270864e+00 
54200 5.4979910495e+00 -5.2955385658e-03 2.3513301379e+00 -4.0726232642e+00 2.3513301379e+00 4.0726232642e+00 
54300 5.4979895172e+00 -5.2651271744e-03 2.3514427461e+00 -4.0728183073e+00 2.3514427461e+00 4.0728183073e+00 
54400 5.4979880025e+00 -5.2348547375e-03 2.3515547022e+00 -4.0730122211e+00 2.3515547022e+00 4.0730122211e+00 
54500 5.4979865051e+00 -5.2047212193e-03 2.3516660094e+00 -4.0732050107e+00 2.3516660094e+00 4.0732050107e+00 
54600 5.4979850249e+00 -5.1747266732e-03 2.3517766705e+00 -4.0733966814e+00 2.3517766705e+00 4.0733966814e+00 
54700 5.4979835618e+00 -5.1448712356e-03 2.3518866888e+00 -4.0735872386e+00 2.3518866888e+00 4.0735872386e+00 
54800 5.4979821154e+00 -5.1151551196e-03 2.3519960672e+00 -4.0737766875e+00 2.3519960672e+00 4.0737766875e+00 
54900 5.4979806857e+00 -5.0855786087e-03 2.3521048087e+00 -4.0739650334e+00 2.3521048087e+00 4.0739650334e+00 
55000 5.4979792724e+00 -5.0561420502e-03 2.3522129165e+00 -4.0741522816e+00 2.3522129165e+00 4.0741522816e+00 
55100 5.4979778753e+00 -5.0268458491e-03 2.3523203936e+00 -4.0743384374e+00 2.3523203936e+00 4.0743384374e+00 
55200 5.4979764943e+00 -4.9976904614e-03 2.3524272431e+00 -4.0745235062e+00 2.3524272431e+00 4.0745235062e+00 
55300 5.4979751292e+00 -4.9686763879e-03 2.3525334680e+00 -4.0747074931e+00 2.3525334680e+00 4.0747074931e+00 
55400 5.4979737799e+00 -4.9398041681e-03 2.3526390715e+00 -4.0748904037e+00 2.3526390715e+00 4.0748904037e+00 
55500 5.4979724460e+00 -4.9110743737e-03 2.3527440566e+00 -4.0750722432e+00 2.3527440566e+00 4.0750722432e+00 
55600 5.4979711276e+00 -4.8824876030e-03 2.3528484264e+00 -4.0752530171e+00 2.3528484264e+00 4.0752530171e+00 
55700 5.4979698243e+00 -4.8540444743e-03 2.3529521841e+00 -4.0754327307e+00 2.3529521841e+00 4.0754327307e+00 
55800 5.4979685361e+00 -4.8257456210e-03 2.3530553329e+00 -4.0756113895e+00 2.3530553329e+00 4.0756113895e+00 
55900 5.4979672627e+00 -4.7975916848e-03 2.3531578757e+00 -4.0757889990e+00 2.3531578757e+00 4.0757889990e+00 
56000 5.4979660040e+00 -4.7695833114e-03 2.3532598159e+00 -4.0759655645e+00 2.3532598159e+00 4.0759655645e+00 
56100 5.4979647598e+00 -4.7417211443e-03 2.3533611565e+00 -4.0761410917e+00 2.3533611565e+00 4.0761410917e+00 
56200 5.4979635300e+00 -4.7140058200e-03 2.3534619009e+00 -4.0763155860e+00 2.3534619009e+00 4.0763155860e+00 
56300 5.4979623144e+00 -4.6864379634e-03 2.3535620520e+00 -4.0764890529e+00 2.3535620520e+00 4.0764890529e+00 
56400 5.4979611128e+00 -4.6590181824e-03 2.3536616133e+00 -4.0766614980e+00 2.3536616133e+00 4.0766614980e+00 
56500 5.4979599251e+00 -4.6317470643e-03 2.3537605878e+00 -4.0768329269e+00 2.3537605878e+00 4.0768329269e+00 
56600 5.4979587512e+00 -4.6046251708e-03 2.3538589788e+00 -4.0770033452e+00 2.3538589788e+00 4.0770033452e+00 
56700 5.4979575908e+00 -4.5776530346e-03 2.3539567896e+00 -4.0771727585e+00 2.3539567896e+00 4.0771727585e+00 
56800 5.4979564438e+00 -4.5508311551e-03 2.3540540235e+00 -4.0773411724e+00 2.3540540235e+00 4.0773411724e+00 
56900 5.4979553101e+00 -4.5241599954e-03 2.3541506836e+00 -4.0775085926e+00 2.3541506836e+00 4.0775085926e+00 
57000 5.4979541896e+00 -4.4976399788e-03 2.3542467732e+00 -4.0776750248e+00 2.3542467732e+00 4.0776750248e+00 
57100 5.4979530820e+00 -4.4712714858e-03 2.3543422957e+00 -4.0778404746e+00 2.3543422957e+00 4.0778404746e+00 
57200 5.4979519872e+00 -4.4450548515e-03 2.3544372543e+00 -4.0780049478e+00 2.3544372543e+00 4.0780049478e+00 
57300 5.4979509051e+00 -4.4189903630e-03 2.3545316524e+00 -4.0781684499e+00 2.3545316524e+00 4.0781684499e+00 
57400 5.4979498356e+00 -4.3930782574e-03 2.3546254931e+00 -4.0783309869e+00 2.3546254931e+00 4.0783309869e+00 
57500 5.4979487784e+00 -4.3673187195e-03 2.3547187799e+00 -4.0784925642e+00 2.3547187799e+00 4.0784925642e+00 
57600 5.4979477335e+00 -4.3417118805e-03 2.3548115159e+00 -4.0786531878e+00 2.3548115159e+00 4.0786531878e+00 
57700 5.4979467008e+00 -4.3162578162e-03 2.3549037046e+00 -4.0788128633e+00 2.3549037046e+00 4.0788128633e+00 
57800 5.4979456800e+00 -4.2909565463e-03 2.3549953493e+00 -4.0789715965e+00 2.3549953493e+00 4.0789715965e+00 
57900 5.4979446710e+00 -4.2658080329e-03 2.3550864531e+00 -4.0791293931e+00 2.3550864531e+00 4.0791293931e+00 
58000 5.4979436738e+00 -4.2408121801e-03 2.3551770196e+00 -4.0792862587e+00 2.3551770196e+00 4.0792862587e+00 
58100 5.4979426882e+00 -4.2159688336e-03 2.3552670518e+00 -4.0794421992e+00 2.3552670518e+00 4.0794421992e+00 
58200 5.4979417140e+00 -4.1912777805e-03 2.3553565533e+00 -4.0795972202e+00 2.3553565533e+00 4.0795972202e+00 
58300 5.4979407511e+00 -4.1667387488e-03 2.3554455272e+00 -4.0797513275e+00 2.3554455272e+00 4.0797513275e+00 
58400 5.4979397995e+00 -4.1423514084e-03 2.3555339768e+00 -4.0799045267e+00 2.3555339768e+00 4.0799045267e+00 
58500 5.4979388589e+00 -4.1181153710e-03 2.3556219054e+00 -4.0800568236e+00 2.3556219054e+00 4.0800568236e+00 
58600 5.4979379292e+00 -4.0940301908e-03 2.3557093163e+00 -4.0802082237e+00 2.3557093163e+00 4.0802082237e+00 
58700 5.4979370104e+00 -4.0700953653e-03 2.3557962127e+00 -4.0803587328e+00 2.3557962127e+00 4.0803587328e+00 
58800 5.4979361022e+00 -4.0463103366e-03 2.3558825980e+00 -4.0805083564e+00 2.3558825980e+00 4.0805083564e+00 
58900 5.4979352046e+00 -4.0226744921e-03 2.3559684752e+00 -4.0806571002e+00 2.3559684752e+00 4.0806571002e+00 
59000 5.4979343175e+00 -3.9991871664e-03 2.3560538478e+00 -4.0808049697e+00 2.3560538478e+00 4.0808049697e+00 
59100 5.4979334407e+00 -3.9758476421e-03 2.3561387187e+00 -4.0809519705e+00 2.3561387187e+00 4.0809519705e+00 
59200 5.4979325742e+00 -3.9526551521e-03 2.3562230913e+00 -4.0810981081e+00 2.3562230913e+00 4.0810981081e+00 
59300 5.4979317177e+00 -3.9296088809e-03 2.3563069688e+00 -4.0812433881e+00 2.3563069688e+00 4.0812433881e+00 
59400 5.4979308712e+00 -3.9067079668e-03 2.3563903542e+00 -4.0813878159e+00 2.3563903542e+00 4.0813878159e+00 
59500 5.4979300346e+00 -3.8839515038e-03 2.3564732507e+00 -4.0815313968e+00 2.3564732507e+00 4.0815313968e+00 
59600 5.4979292078e+00 -3.8613385437e-03 2.3565556614e+00 -4.0816741364e+00 2.3565556614e+00 4.0816741364e+00 
59700 5.4979283906e+00 -3.8388680982e-03 2.3566375895e+00 -4.0818160400e+00 2.3566375895e+00 4.0818160400e+00 
59800 5.4979275829e+00 -3.8165391412e-03 2.3567190379e+00 -4.0819571129e+00 2.3567190379e+00 4.0819571129e+00 
59900 5.4979267847e+00 -3.7943506116e-03 2.3568000098e+00 -4.0820973603e+00 2.3568000098e+00 4.0820973603e+00 
60000 5.4979259958e+00 -3.7723014149e-03 2.3568805082e+00 -4.0822367876e+00 2.3568805082e+00 4.0822367876e+00 
60100 5.4979252161e+00 -3.7503904265e-03 2.3569605361e+00 -4.0823754000e+00 2.3569605361e+00 4.0823754000e+00 
60200 5.4979244456e+00 -3.7286164935e-03 2.3570400965e+00 -4.0825132025e+00 2.3570400965e+00 4.0825132025e+00 
60300 5.4979236840e+00 -3.7069784377e-03 2.3571191922e+00 -4.0826502004e+00 2.3571191922e+00 4.0826502004e+00 
60400 5.4979229313e+00 -3.6854750580e-03 2.3571978263e+00 -4.0827863987e+00 2.3571978263e+00 4.0827863987e+00 
60500 5.4979221875e+00 -3.6641051329e-03 2.3572760017e+00 -4.0829218023e+00 2.3572760017e+00 4.0829218023e+00 
60600 5.4979214523e+00 -3.6428674230e-03 2.3573537211e+00 -4.0830564164e+00 2.3573537211e+00 4.0830564164e+00 
60700 5.4979207258e+00 -3.6217606740e-03 2.3574309876e+00 -4.0831902459e+00 2.3574309876e+00 4.0831902459e+00 
60800 5.4979200077e+00 -3.6007836186e-03 2.3575078039e+00 -4.0833232955e+00 2.3575078039e+00 4.0833232955e+00 
60900 5.4979192981e+00 -3.5799349795e-03 2.3575841727e+00 -4.0834555702e+00 2.3575841727e+00 4.0834555702e+00 
61000 5.4979185968e+00 -3.5592134717e-03 2.3576600969e+00 -4.0835870748e+00 2.3576600969e+00 4.0835870748e+00 
61100 5.4979179036e+00 -3.5386178049e-03 2.3577355792e+00 -4.0837178140e+00 2.3577355792e+00 4.0837178140e+00 
61200 5.4979172187e+00 -3.5181466860e-03 2.3578106223e+00 -4.0838477925e+00 2.3578106223e+00 4.0838477925e+00 
61300 5.4979165417e+00 -3.4977988214e-03 2.3578852289e+00 -4.0839770149e+00 2.3578852289e+00 4.0839770149e+00 
61400 5.4979158727e+00 -3.4775729192e-03 2.3579594017e+00 -4.0841054859e+00 2.3579594017e+00 4.0841054859e+00 
61500 5.4979152115e+00 -3.4574676917e-03 2.3580331432e+00 -4.0842332100e+00 2.3580331432e+00 4.0842332100e+00 
61600 5.4979145580e+00 -3.4374818572e-03 2.3581064562e+00 -4.0843601917e+00 2.3581064562e+00 4.0843601917e+00 
61700 5.4979139123e+00 -3.4176141423e-03 2.3581793430e+00 -4.0844864355e+00 2.3581793430e+00 4.0844864355e+00 
61800 5.4979132741e+00 -3.3978632836e-03 2.3582518064e+00 -4.0846119457e+00 2.3582518064e+00 4.0846119457e+00 
61900 5.4979126434e+00 -3.3782280302e-03 2.3583238487e+00 -4.0847367267e+00 2.3583238487e+00 4.0847367267e+00 
62000 5.4979120201e+00 -3.3587071447e-03 2.3583954726e+00 -4.0848607829e+00 2.3583954726e+00 4.0848607829e+00 
62100 5.4979114041e+00 -3.3392994056e-03 2.3584666804e+00 -4.0849841184e+00 2.3584666804e+00 4.0849841184e+00 
62200 5.4979107954e+00 -3.3200036087e-03 2.3585374746e+00 -4.0851067376e+00 2.3585374746e+00 4.0851067376e+00 
62300 5.4979101938e+00 -3.3008185684e-03 2.3586078577e+00 -4.0852286446e+00 2.3586078577e+00 4.0852286446e+00 
62400 5.4979095993e+00 -3.2817431194e-03 2.3586778319e+00 -4.0853498435e+00 2.3586778319e+00 4.0853498435e+00 
62500 5.4979090117e+00 -3.2627761180e-03 2.3587473996e+00 -4.0854703384e+00 2.3587473996e+00 4.0854703384e+00 
62600 5.4979084311e+00 -3.2439164433e-03 2.3588165633e+00 -4.0855901334e+00 2.3588165633e+00 4.0855901334e+00 
62700 5.4979078573e+00 -3.2251629980e-03 2.3588853252e+00 -4.0857092324e+00 2.3588853252e+00 4.0857092324e+00 
62800 5.4979072903e+00 -3.2065147101e-03 2.3589536875e+00 -4.0858276395e+00 2.3589536875e+00 4.0858276395e+00 
62900 5.4979067299e+00 -3.1879705331e-03 2.3590216526e+00 -4.0859453585e+00 2.3590216526e+00 4.0859453585e+00 
63000 5.4979061761e+00 -3.1695294471e-03 2.3590892227e+00 -4.0860623933e+00 2.3590892227e+00 4.0860623933e+00 
63100 5.4979056289e+00 -3.1511904595e-03 2.3591564000e+00 -4.0861787478e+00 2.3591564000e+00 4.0861787478e+00 
63200 5.4979050880e+00 -3.1329526058e-03 2.3592231867e+00 -4.0862944257e+00 2.3592231867e+00 4.0862944257e+00 
63300 5.4979045536e+00 -3.1148149496e-03 2.3592895850e+00 -4.0864094309e+00 2.3592895850e+00 4.0864094309e+00 
63400 5.4979040254e+00 -3.0967765833e-03 2.3593555970e+00 -4.0865237671e+00 2.3593555970e+00 4.0865237671e+00 
63500 5.4979035035e+00 -3.0788366284e-03 2.3594212249e+00 -4.0866374379e+00 2.3594212249e+00 4.0866374379e+00 
63600 5.4979029877e+00 -3.0609942357e-03 2.3594864708e+00 -4.0867504471e+00 2.3594864708e+00 4.0867504471e+00 
63700 5.4979024780e+00 -3.0432485852e-03 2.3595513368e+00 -4.0868627983e+00 2.3595513368e+00 4.0868627983e+00 
63800 5.4979019743e+00 -3.0255988862e-03 2.3596158249e+00 -4.0869744951e+00 2.3596158249e+00 4.0869744951e+00 
63900 5.4979014766e+00 -3.0080443775e-03 2.3596799373e+00 -4.0870855410e+00 2.3596799373e+00 4.0870855410e+00 
64000 5.4979009847e+00 -2.9905843268e-03 2.3597436760e+00 -4.0871959397e+00 2.3597436760e+00 4.0871959397e+00 
64100 5.4979004986e+00 -2.9732180305e-03 2.3598070430e+00 -4.0873056945e+00 2.3598070430e+00 4.0873056945e+00 
64200 5.4979000183e+00 -2.9559448139e-03 2.3598700403e+00 -4.0874148091e+00 2.3598700403e+00 4.0874148091e+00 
64300 5.4978995436e+00 -2.9387640301e-03 2.3599326700e+00 -4.0875232869e+00 2.3599326700e+00 4.0875232869e+00 
64400 5.4978990745e+00 -2.9216750598e-03 2.3599949340e+00 -4.0876311313e+00 2.3599949340e+00 4.0876311313e+00 
64500 5.4978986110e+00 -2.9046773109e-03 2.3600568343e+00 -4.0877383458e+00 2.3600568343e+00 4.0877383458e+00 
64600 5.4978981529e+00 -2.8877702178e-03 2.3601183729e+00 -4.0878449337e+00 2.3601183729e+00 4.0878449337e+00 
64700 5.4978977003e+00 -2.8709532405e-03 2.3601795516e+00 -4.0879508984e+00 2.3601795516e+00 4.0879508984e+00 
64800 5.4978972530e+00 -2.8542258641e-03 2.3602403726e+00 -4.0880562433e+00 2.3602403726e+00 4.0880562433e+00 
64900 5.4978968110e+00 -2.8375875983e-03 2.3603008375e+00 -4.0881609718e+00 2.3603008375e+00 4.0881609718e+00 
65000 5.4978963742e+00 -2.8210379757e-03 2.3603609485e+00 -4.0882650870e+00 2.3603609485e+00 4.0882650870e+00 
65100 5.4978959426e+00 -2.8045765520e-03 2.3604207074e+00 -4.0883685924e+00 2.3604207074e+00 4.0883685924e+00 
65200 5.4978955160e+00 -2.7882029042e-03 2.3604801160e+00 -4.0884714912e+00 2.3604801160e+00 4.0884714912e+00 
65300 5.4978950946e+00 -2.7719166303e-03 2.3605391764e+00 -4.0885737867e+00 2.3605391764e+00 4.0885737867e+00 
65400 5.4978946781e+00 -2.7557173479e-03 2.3605978902e+00 -4.0886754821e+00 2.3605978902e+00 4.0886754821e+00 
65500 5.4978942665e+00 -2.7396046934e-03 2.3606562595e+00 -4.0887765807e+00 2.3606562595e+00 4.0887765807e+00 
65600 5.4978938598e+00 -2.7235783208e-03 2.3607142861e+00 -4.0888770857e+00 2.3607142861e+00 4.0888770857e+00 
65700 5.4978934580e+00 -2.7076379012e-03 2.3607719718e+00 -4.0889770003e+00 2.3607719718e+00 4.0889770003e+00 
65800 5.4978930609e+00 -2.6917831208e-03 2.3608293185e+00 -4.0890763276e+00 2.3608293185e+00 4.0890763276e+00 
65900 5.4978926684e+00 -2.6760136807e-03 2.3608863280e+00 -4.0891750710e+00 2.3608863280e+00 4.0891750710e+00 
66000 5.4978922807e+00 -2.6603292954e-03 2.3609430021e+00 -4.0892732335e+00 2.3609430021e+00 4.0892732335e+00 
66100 5.4978918975e+00 -2.6447296919e-03 2.3609993428e+00 -4.0893708183e+00 2.3609993428e+00 4.0893708183e+00 
66200 5.4978915189e+00 -2.6292146085e-03 2.3610553517e+00 -4.0894678286e+00 2.3610553517e+00 4.0894678286e+00 
66300 5.4978911447e+00 -2.6137837938e-03 2.3611110307e+00 -4.0895642675e+00 2.3611110307e+00 4.0895642675e+00 
66400 5.4978907750e+00 -2.5984370055e-03 2.3611663816e+00 -4.0896601381e+00 2.3611663816e+00 4.0896601381e+00 
66500 5.4978904097e+00 -2.5831740097e-03 2.3612214063e+00 -4.0897554436e+00 2.3612214063e+00 4.0897554436e+00 
66600 5.4978900487e+00 -2.5679945795e-03 2.3612761064e+00 -4.0898501871e+00 2.3612761064e+00 4.0898501871e+00 
66700 5.4978896920e+00 -2.5528984941e-03 2.3613304839e+00 -4.0899443716e+00 2.3613304839e+00 4.0899443716e+00 
66800 5.4978893396e+00 -2.5378855379e-03 2.3613845405e+00 -4.0900380003e+00 2.3613845405e+00 4.0900380003e+00 
66900 5.4978889913e+00 -2.5229554995e-03 2.3614382779e+00 -4.0901310763e+00 2.3614382779e+00 4.0901310763e+00 
67000 5.4978886471e+00 -2.5081081706e-03 2.3614916980e+00 -4.0902236026e+00 2.3614916980e+00 4.0902236026e+00 
67100 5.4978883070e+00 -2.4933433453e-03 2.3615448025e+00 -4.0903155823e+00 2.3615448025e+00 4.0903155823e+00 
67200 5.4978879710e+00 -2.4786608190e-03 2.3615975932e+00 -4.0904070185e+00 2.3615975932e+00 4.0904070185e+00 
67300 5.4978876390e+00 -2.4640603877e-03 2.3616500719e+00 -4.0904979142e+00 2.3616500719e+00 4.0904979142e+00 
67400 5.4978873109e+00 -2.4495418471e-03 2.3617022403e+00 -4.0905882725e+00 2.3617022403e+00 4.0905882725e+00 
67500 5.4978869867e+00 -2.4351049919e-03 2.3617541002e+00 -4.0906780964e+00 2.3617541002e+00 4.0906780964e+00 
67600 5.4978866663e+00 -2.4207496148e-03 2.3618056532e+00 -4.0907673890e+00 2.3618056532e+00 4.0907673890e+00 
67700 5.4978863498e+00 -2.4064755062e-03 2.3618569013e+00 -4.0908561532e+00 2.3618569013e+00 4.0908561532e+00 
67800 5.4978860370e+00 -2.3922824532e-03 2.3619078460e+00 -4.0909443921e+00 2.3619078460e+00 4.0909443921e+00 
67900 5.4978857279e+00 -2.3781702389e-03 2.3619584892e+00 -4.0910321087e+00 2.3619584892e+00 4.0910321087e+00 
68000 5.4978854225e+00 -2.3641386421e-03 2.3620088326e+00 -4.0911193059e+00 2.3620088326e+00 4.0911193059e+00 
68100 5.4978851208e+00 -2.3501874367e-03 2.3620588778e+00 -4.0912059869e+00 2.3620588778e+00 4.0912059869e+00 
68200 5.4978848226e+00 -2.3363163910e-03 2.3621086267e+00 -4.0912921545e+00 2.3621086267e+00 4.0912921545e+00 
68300 5.4978845280e+00 -2.3225252673e-03 2.3621580809e+00 -4.0913778117e+00 2.3621580809e+00 4.0913778117e+00 
68400 5.4978842369e+00 -2.3088138216e-03 2.3622072422e+00 -4.0914629615e+00 2.3622072422e+00 4.0914629615e+00 
68500 5.4978839492e+00 -2.2951818031e-03 2.3622561122e+00 -4.0915476068e+00 2.3622561122e+00 4.0915476068e+00 
68600 5.4978836650e+00 -2.2816289538e-03 2.3623046927e+00 -4.0916317506e+00 2.3623046927e+00 4.0916317506e+00 
68700 5.4978833842e+00 -2.2681550085e-03 2.3623529853e+00 -4.0917153959e+00 2.3623529853e+00 4.0917153959e+00 
68800 5.4978831067e+00 -2.2547596941e-03 2.3624009917e+00 -4.0917985455e+00 2.3624009917e+00 4.0917985455e+00 
68900 5.4978828325e+00 -2.2414427299e-03 2.3624487136e+00 -4.0918812023e+00 2.3624487136e+00 4.0918812023e+00 
69000 5.4978825616e+00 -2.2282038268e-03 2.3624961528e+00 -4.0919633693e+00 2.3624961528e+00 4.0919633693e+00 
69100 5.4978822939e+00 -2.2150426878e-03 2.3625433107e+00 -4.0920450493e+00 2.3625433107e+00 4.0920450493e+00 
69200 5.4978820294e+00 -2.2019590076e-03 2.3625901893e+00 -4.0921262453e+00 2.3625901893e+00 4.0921262453e+00 
69300 5.4978817680e+00 -2.1889524725e-03 2.3626367899e+00 -4.0922069600e+00 2.3626367899e+00 4.0922069600e+00 
69400 5.4978815098e+00 -2.1760227604e-03 2.3626831144e+00 -4.0922871964e+00 2.3626831144e+00 4.0922871964e+00 
69500 5.4978812546e+00 -2.1631695409e-03 2.3627291644e+00 -4.0923669573e+00 2.3627291644e+00 4.0923669573e+00 
69600 5.4978810025e+00 -2.1503924755e-03 2.3627749415e+00 -4.0924462455e+00 2.3627749415e+00 4.0924462455e+00 
69700 5.4978807534e+00 -2.1376912172e-03 2.3628204473e+00 -4.0925250639e+00 2.3628204473e+00 4.0925250639e+00 
69800 5.4978805073e+00 -2.1250654110e-03 2.3628656834e+00 -4.0926034152e+00 2.3628656834e+00 4.0926034152e+00 
69900 5.4978802641e+00 -2.1125146943e-03 2.3629106516e+00 -4.0926813022e+00 2.3629106516e+00 4.0926813022e+00 
70000 5.4978800238e+00 -2.1000386961e-03 2.3629553532e+00 -4.0927587278e+00 2.3629553532e+00 4.0927587278e+00 
70100 5.4978797863e+00 -2.0876370385e-03 2.3629997901e+00 -4.0928356947e+00 2.3629997901e+00 4.0928356947e+00 
70200 5.4978795517e+00 -2.0753093357e-03 2.3630439637e+00 -4.0929122056e+00 2.3630439637e+00 4.0929122056e+00 
70300 5.4978793199e+00 -2.0630551953e-03 2.3630878756e+00 -4.0929882632e+00 2.3630878756e+00 4.0929882632e+00 
70400 5.4978790909e+00 -2.0508742176e-03 2.3631315274e+00 -4.0930638704e+00 2.3631315274e+00 4.0930638704e+00 
70500 5.4978788646e+00 -2.0387659969e-03 2.3631749207e+00 -4.0931390298e+00 2.3631749207e+00 4.0931390298e+00 
70600 5.4978786410e+00 -2.0267301209e-03 2.3632180570e+00 -4.0932137440e+00 2.3632180570e+00 4.0932137440e+00 
70700 5.4978784201e+00 -2.0147661716e-03 2.3632609378e+00 -4.0932880158e+00 2.3632609378e+00 4.0932880158e+00 
70800 5.4978782018e+00 -2.0028737255e-03 2.3633035648e+00 -4.0933618479e+00 2.3633035648e+00 4.0933618479e+00 
70900 5.4978779862e+00 -1.9910523537e-03 2.3633459393e+00 -4.0934352428e+00 2.3633459393e+00 4.0934352428e+00 
71000 5.4978777731e+00 -1.9793016229e-03 2.3633880631e+00 -4.0935082032e+00 2.3633880631e+00 4.0935082032e+00 
71100 5.4978775625e+00 -1.9676210949e-03 2.3634299374e+00 -4.0935807317e+00 2.3634299374e+00 4.0935807317e+00 
71200 5.4978773545e+00 -1.9560103280e-03 2.3634715639e+00 -4.0936528310e+00 2.3634715639e+00 4.0936528310e+00 
71300 5.4978771489e+00 -1.9444688764e-03 2.3635129441e+00 -4.0937245035e+00 2.3635129441e+00 4.0937245035e+00 
71400 5.4978769459e+00 -1.9329962915e-03 2.3635540793e+00 -4.0937957519e+00 2.3635540793e+00 4.0937957519e+00 
71500 5.4978767452e+00 -1.9215921215e-03 2.3635949712e+00 -4.0938665786e+00 2.3635949712e+00 4.0938665786e+00 
71600 5.4978765470e+00 -1.9102559125e-03 2.3636356211e+00 -4.0939369863e+00 2.3636356211e+00 4.0939369863e+00 
71700 5.4978763511e+00 -1.8989872084e-03 2.3636760305e+00 -4.0940069774e+00 2.3636760305e+00 4.0940069774e+00 
71800 5.4978761575e+00 -1.8877855516e-03 2.3637162008e+00 -4.0940765544e+00 2.3637162008e+00 4.0940765544e+00 
71900 5.4978759663e+00 -1.8766504834e-03 2.3637561335e+00 -4.0941457199e+00 2.3637561335e+00 4.0941457199e+00 
72000 5.4978757774e+00 -1.8655815442e-03 2.3637958300e+00 -4.0942144762e+00 2.3637958300e+00 4.0942144762e+00 
72100 5.4978755907e+00 -1.8545782741e-03 2.3638352916e+00 -4.0942828258e+00 2.3638352916e+00 4.0942828258e+00 
72200 5.4978754063e+00 -1.8436402132e-03 2.3638745199e+00 -4.0943507712e+00 2.3638745199e+00 4.0943507712e+00 
72300 5.4978752240e+00 -1.8327669021e-03 2.3639135162e+00 -4.0944183147e+00 2.3639135162e+00 4.0944183147e+00 
72400 5.4978750440e+00 -1.8219578820e-03 2.3639522818e+00 -4.0944854587e+00 2.3639522818e+00 4.0944854587e+00 
72500 5.4978748661e+00 -1.8112126955e-03 2.3639908182e+00 -4.0945522057e+00 2.3639908182e+00 4.0945522057e+00 
72600 5.4978746903e+00 -1.8005308865e-03 2.3640291266e+00 -4.0946185579e+00 2.3640291266e+00 4.0946185579e+00 
72700 5.4978745167e+00 -1.7899120010e-03 2.3640672086e+00 -4.0946845177e+00 2.3640672086e+00 4.0946845177e+00 
72800 5.4978743451e+00 -1.7793555871e-03 2.3641050653e+00 -4.0947500875e+00 2.3641050653e+00 4.0947500875e+00 
72900 5.4978741756e+00 -1.7688611954e-03 2.3641426981e+00 -4.0948152695e+00 2.3641426981e+00 4.0948152695e+00 
73000 5.4978740081e+00 -1.7584283794e-03 2.3641801084e+00 -4.0948800661e+00 2.3641801084e+00 4.0948800661e+00 
73100 5.4978738426e+00 -1.7480566958e-03 2.3642172975e+00 -4.0949444794e+00 2.3642172975e+00 4.0949444794e+00 
73200 5.4978736792e+00 -1.7377457045e-03 2.3642542666e+00 -4.0950085118e+00 2.3642542666e+00 4.0950085118e+00 
73300 5.4978735176e+00 -1.7274949695e-03 2.3642910171e+00 -4.0950721655e+00 2.3642910171e+00 4.0950721655e+00 
73400 5.4978733580e+00 -1.7173040583e-03 2.3643275503e+00 -4.0951354428e+00 2.3643275503e+00 4.0951354428e+00 
73500 5.4978732003e+00 -1.7071725430e-03 2.3643638673e+00 -4.0951983458e+00 2.3643638673e+00 4.0951983458e+00 
73600 5.4978730446e+00 -1.6970999999e-03 2.3643999696e+00 -4.0952608767e+00 2.3643999696e+00 4.0952608767e+00 
73700 5.4978728906e+00 -1.6870860098e-03 2.3644358583e+00 -4.0953230377e+00 2.3644358583e+00 4.0953230377e+00 
73800 5.4978727386e+00 -1.6771301586e-03 2.3644715346e+00 -4.0953848311e+00 2.3644715346e+00 4.0953848311e+00 
73900 5.4978725883e+00 -1.6672320369e-03 2.3645070000e+00 -4.0954462588e+00 2.3645070000e+00 4.0954462588e+00 
74000 5.4978724399e+00 -1.6573912406e-03 2.3645422554e+00 -4.0955073230e+00 2.3645422554e+00 4.0955073230e+00 
74100 5.4978722932e+00 -1.6476073709e-03 2.3645773023e+00 -4.0955680260e+00 2.3645773023e+00 4.0955680260e+00 
74200 5.4978721483e+00 -1.6378800341e-03 2.3646121417e+00 -4.0956283697e+00 2.3646121417e+00 4.0956283697e+00 
74300 5.4978720052e+00 -1.6282088424e-03 2.3646467750e+00 -4.0956883562e+00 2.3646467750e+00 4.0956883562e+00 
74400 5.4978718637e+00 -1.6185934133e-03 2.3646812032e+00 -4.0957479877e+00 2.3646812032e+00 4.0957479877e+00 
74500 5.4978717240e+00 -1.6090333700e-03 2.3647154277e+00 -4.0958072661e+00 2.3647154277e+00 4.0958072661e+00 
74600 5.4978715859e+00 -1.5995283414e-03 2.3647494494e+00 -4.0958661936e+00 2.3647494494e+00 4.0958661936e+00 
74700 5.4978714495e+00 -1.5900779623e-03 2.3647832698e+00 -4.0959247721e+00 2.3647832698e+00 4.0959247721e+00 
74800 5.4978713147e+00 -1.5806818730e-03 2.3648168898e+00 -4.0959830037e+00 2.3648168898e+00 4.0959830037e+00 
74900 5.4978711816e+00 -1.5713397199e-03 2.3648503107e+00 -4.0960408904e+00 2.3648503107e+00 4.0960408904e+00 
75000 5.4978710500e+00 -1.5620511550e-03 2.3648835336e+00 -4.0960984342e+00 2.3648835336e+00 4.0960984342e+00 
75100 5.4978709201e+00 -1.5528158360e-03 2.3649165596e+00 -4.0961556369e+00 2.3649165596e+00 4.0961556369e+00 
75200 5.4978707917e+00 -1.5436334264e-03 2.3649493900e+00 -4.0962125007e+00 2.3649493900e+00 4.0962125007e+00 
75300 5.4978706648e+00 -1.5345035956e-03 2.3649820257e+00 -4.0962690275e+00 2.3649820257e+00 4.0962690275e+00 
75400 5.4978705395e+00 -1.5254260182e-03 2.3650144679e+00 -4.0963252191e+00 2.3650144679e+00 4.0963252191e+00 
75500 5.4978704157e+00 -1.5164003747e-03 2.3650467178e+00 -4.0963810776e+00 2.3650467178e+00 4.0963810776e+00 
75600 5.4978702933e+00 -1.5074263511e-03 2.3650787765e+00 -4.0964366048e+00 2.3650787765e+00 4.0964366048e+00 
75700 5.4978701724e+00 -1.4985036385e-03 2.3651106450e+00 -4.0964918026e+00 2.3651106450e+00 4.0964918026e+00 
75800 5.4978700530e+00 -1.4896319335e-03 2.3651423244e+00 -4.0965466730e+00 2.3651423244e+00 4.0965466730e+00 
75900 5.4978699351e+00 -1.4808109379e-03 2.3651738158e+00 -4.0966012178e+00 2.3651738158e+00 4.0966012178e+00 
76000 5.4978698185e+00 -1.4720403585e-03 2.3652051204e+00 -4.0966554389e+00 2.3652051204e+00 4.0966554389e+00 
76100 5.4978697033e+00 -1.4633199071e-03 2.3652362391e+00 -4.0967093381e+00 2.3652362391e+00 4.0967093381e+00 
76200 5.4978695896e+00 -1.4546493002e-03 2.3652671731e+00 -4.0967629173e+00 2.3652671731e+00 4.0967629173e+00 
76300 5.4978694772e+00 -1.4460282590e-03 2.3652979234e+00 -4.0968161783e+00 2.3652979234e+00 4.0968161783e+00 
76400 5.4978693661e+00 -1.4374565094e-03 2.3653284910e+00 -4.0968691230e+00 2.3653284910e+00 4.0968691230e+00 
76500 5.4978692564e+00 -1.4289337813e-03 2.3653588771e+00 -4.0969217532e+00 2.3653588771e+00 4.0969217532e+00 
76600 5.4978691480e+00 -1.4204598093e-03 2.3653890826e+00 -4.0969740707e+00 2.3653890826e+00 4.0969740707e+00 
76700 5.4978690410e+00 -1.4120343315e-03 2.3654191085e+00 -4.0970260772e+00 2.3654191085e+00 4.0970260772e+00 
76800 5.4978689352e+00 -1.4036570904e-03 2.3654489561e+00 -4.0970777746e+00 2.3654489561e+00 4.0970777746e+00 
76900 5.4978688307e+00 -1.3953278320e-03 2.3654786261e+00 -4.0971291646e+00 2.3654786261e+00 4.0971291646e+00 
77000 5.4978687274e+00 -1.3870463057e-03 2.3655081197e+00 -4.0971802491e+00 2.3655081197e+00 4.0971802491e+00 
77100 5.4978686254e+00 -1.3788122646e-03 2.3655374379e+00 -4.0972310297e+00 2.3655374379e+00 4.0972310297e+00 
77200 5.4978685246e+00 -1.3706254648e-03 2.3655665817e+00 -4.0972815083e+00 2.3655665817e+00 4.0972815083e+00 
77300 5.4978684250e+00 -1.3624856655e-03 2.3655955521e+00 -4.0973316865e+00 2.3655955521e+00 4.0973316865e+00 
77400 5.4978683267e+00 -1.3543926288e-03 2.3656243501e+00 -4.0973815661e+00 2.3656243501e+00 4.0973815661e+00 
77500 5.4978682295e+00 -1.3463461196e-03 2.3656529767e+00 -4.0974311488e+00 2.3656529767e+00 4.0974311488e+00 
77600 5.4978681335e+00 -1.3383459052e-03 2.3656814329e+00 -4.0974804363e+00 2.3656814329e+00 4.0974804363e+00 
77700 5.4978680386e+00 -1.3303917553e-03 2.3657097197e+00 -4.0975294304e+00 2.3657097197e+00 4.0975294304e+00 
77800 5.4978679449e+00 -1.3224834417e-03 2.3657378380e+00 -4.0975781327e+00 2.3657378380e+00 4.0975781327e+00 
77900 5.4978678523e+00 -1.3146207386e-03 2.3657657888e+00 -4.0976265450e+00 2.3657657888e+00 4.0976265450e+00 
78000 5.4978677608e+00 -1.3068034218e-03 2.3657935731e+00 -4.0976746688e+00 2.3657935731e+00 4.0976746688e+00 
78100 5.4978676705e+00 -1.2990312689e-03 2.3658211918e+00 -4.0977225059e+00 2.3658211918e+00 4.0977225059e+00 
78200 5.4978675812e+00 -1.2913040591e-03 2.3658486460e+00 -4.0977700579e+00 2.3658486460e+00 4.0977700579e+00 
78300 5.4978674930e+00 -1.2836215731e-03 2.3658759366e+00 -4.0978173266e+00 2.3658759366e+00 4.0978173266e+00 
78400 5.4978674059e+00 -1.2759835927e-03 2.3659030645e+00 -4.0978643134e+00 2.3659030645e+00 4.0978643134e+00 
78500 5.4978673198e+00 -1.2683899012e-03 2.3659300306e+00 -4.0979110202e+00 2.3659300306e+00 4.0979110202e+00 
78600 5.4978672348e+00 -1.2608402826e-03 2.3659568360e+00 -4.0979574484e+00 2.3659568360e+00 4.0979574484e+00 
78700 5.4978671507e+00 -1.2533345221e-03 2.3659834815e+00 -4.0980035998e+00 2.3659834815e+00 4.0980035998e+00 
78800 5.4978670677e+00 -1.2458724054e-03 2.3660099681e+00 -4.0980494759e+00 2.3660099681e+00 4.0980494759e+00 
78900 5.4978669857e+00 -1.2384537192e-03 2.3660362967e+00 -4.0980950784e+00 2.3660362967e+00 4.0980950784e+00 
79000 5.4978669047e+00 -1.2310782504e-03 2.3660624682e+00 -4.0981404088e+00 2.3660624682e+00 4.0981404088e+00 
79100 5.4978668247e+00 -1.2237457868e-03 2.3660884836e+00 -4.0981854688e+00 2.3660884836e+00 4.0981854688e+00 
79200 5.4978667456e+00 -1.2164561162e-03 2.3661143438e+00 -4.0982302599e+00 2.3661143438e+00 4.0982302599e+00 
79300 5.4978666675e+00 -1.2092090269e-03 2.3661400496e+00 -4.0982747837e+00 2.3661400496e+00 4.0982747837e+00 
79400 5.4978665904e+00 -1.2020043073e-03 2.3661656020e+00 -4.0983190418e+00 2.3661656020e+00 4.0983190418e+00 
79500 5.4978665141e+00 -1.1948417460e-03 2.3661910019e+00 -4.0983630356e+00 2.3661910019e+00 4.0983630356e+00 
79600 5.4978664388e+00 -1.1877211315e-03 2.3662162501e+00 -4.0984067669e+00 2.3662162501e+00 4.0984067669e+00 
79700 5.4978663644e+00 -1.1806422526e-03 2.3662413476e+00 -4.0984502371e+00 2.3662413476e+00 4.0984502371e+00 
79800 5.4978662909e+00 -1.1736048978e-03 2.3662662953e+00 -4.0984934477e+00 2.3662662953e+00 4.0984934477e+00 
79900 5.4978662183e+00 -1.1666088554e-03 2.3662910940e+00 -4.0985364003e+00 2.3662910940e+00 4.0985364003e+00 
80000 5.4978661466e+00 -1.1596539139e-03 2.3663157446e+00 -4.0985790965e+00 2.3663157446e+00 4.0985790965e+00 
80100 5.4978660757e+00 -1.1527398614e-03 2.3663402480e+00 -4.0986215376e+00 2.3663402480e+00 4.0986215376e+00 
80200 5.4978660057e+00 -1.1458664856e-03 2.3663646051e+00 -4.0986637253e+00 2.3663646051e+00 4.0986637253e+00 
80300 5.4978659365e+00 -1.1390335744e-03 2.3663888167e+00 -4.0987056610e+00 2.3663888167e+00 4.0987056610e+00 
80400 5.4978658682e+00 -1.1322409150e-03 2.3664128836e+00 -4.0987473462e+00 2.3664128836e+00 4.0987473462e+00 
80500 5.4978658007e+00 -1.1254882945e-03 2.3664368068e+00 -4.0987887823e+00 2.3664368068e+00 4.0987887823e+00 
80600 5.4978657340e+00 -1.1187754999e-03 2.3664605871e+00 -4.0988299710e+00 2.3664605871e+00 4.0988299710e+00 
80700 5.4978656681e+00 -1.1121023176e-03 2.3664842253e+00 -4.0988709135e+00 2.3664842253e+00 4.0988709135e+00 
80800 5.4978656030e+00 -1.1054685338e-03 2.3665077223e+00 -4.0989116115e+00 2.3665077223e+00 4.0989116115e+00 
80900 5.4978655387e+00 -1.0988739347e-03 2.3665310788e+00 -4.0989520663e+00 2.3665310788e+00 4.0989520663e+00 
81000 5.4978654752e+00 -1.0923183058e-03 2.3665542959e+00 -4.0989922793e+00 2.3665542959e+00 4.0989922793e+00 
81100 5.4978654124e+00 -1.0858014327e-03 2.3665773741e+00 -4.0990322521e+00 2.3665773741e+00 4.0990322521e+00 
81200 5.4978653505e+00 -1.0793231007e-03 2.3666003145e+00 -4.0990719859e+00 2.3666003145e+00 4.0990719859e+00 
81300 5.4978652892e+00 -1.0728830947e-03 2.3666231178e+00 -4.0991114824e+00 2.3666231178e+00 4.0991114824e+00 
81400 5.4978652287e+00 -1.0664811997e-03 2.3666457848e+00 -4.0991507428e+00 2.3666457848e+00 4.0991507428e+00 
81500 5.4978651689e+00 -1.0601172004e-03 2.3666683163e+00 -4.0991897685e+00 2.3666683163e+00 4.0991897685e+00 
81600 5.4978651099e+00 -1.0537908816e-03 2.3666907132e+00 -4.0992285610e+00 2.3666907132e+00 4.0992285610e+00 
81700 5.4978650516e+00 -1.0475020278e-03 2.3667129762e+00 -4.0992671217e+00 2.3667129762e+00 4.0992671217e+00 
81800 5.4978649939e+00 -1.0412504235e-03 2.3667351061e+00 -4.0993054518e+00 2.3667351061e+00 4.0993054518e+00 
81900 5.4978649370e+00 -1.0350358535e-03 2.3667571037e+00 -4.0993435529e+00 2.3667571037e+00 4.0993435529e+00 
82000 5.4978648808e+00 -1.0288581024e-03 2.3667789699e+00 -4.0993814261e+00 2.3667789699e+00 4.0993814261e+00 
82100 5.4978648252e+00 -1.0227169551e-03 2.3668007053e+00 -4.0994190730e+00 2.3668007053e+00 4.0994190730e+00 
82200 5.4978647703e+00 -1.0166121965e-03 2.3668223108e+00 -4.0994564949e+00 2.3668223108e+00 4.0994564949e+00 
82300 5.4978647161e+00 -1.0105436119e-03 2.3668437872e+00 -4.0994936930e+00 2.3668437872e+00 4.0994936930e+00 
82400 5.4978646625e+00 -1.0045109867e-03 2.3668651351e+00 -4.0995306687e+00 2.3668651351e+00 4.0995306687e+00 
82500 5.4978646096e+00 -9.9851410697e-04 2.3668863554e+00 -4.0995674234e+00 2.3668863554e+00 4.0995674234e+00 
82600 5.4978645574e+00 -9.9255275879e-04 2.3669074489e+00 -4.0996039583e+00 2.3669074489e+00 4.0996039583e+00 
82700 5.4978645057e+00 -9.8662672890e-04 2.3669284162e+00 -4.0996402748e+00 2.3669284162e+00 4.0996402748e+00 
82800 5.4978644547e+00 -9.8073580450e-04 2.3669492582e+00 -4.0996763741e+00 2.3669492582e+00 4.0996763741e+00 
82900 5.4978644043e+00 -9.7487977335e-04 2.3669699755e+00 -4.0997122575e+00 2.3669699755e+00 4.0997122575e+00 
83000 5.4978643545e+00 -9.6905842383e-04 2.3669905689e+00 -4.0997479264e+00 2.3669905689e+00 4.0997479264e+00 
83100 5.4978643053e+00 -9.6327154500e-04 2.3670110392e+00 -4.0997833820e+00 2.3670110392e+00 4.0997833820e+00 
83200 5.4978642568e+00 -9.5751892663e-04 2.3670313871e+00 -4.0998186256e+00 2.3670313871e+00 4.0998186256e+00 
83300 5.4978642088e+00 -9.5180035930e-04 2.3670516133e+00 -4.0998536583e+00 2.3670516133e+00 4.0998536583e+00 
83400 5.4978641613e+00 -9.4611563441e-04 2.3670717185e+00 -4.0998884816e+00 2.3670717185e+00 4.0998884816e+00 
83500 5.4978641145e+00 -9.4046454424e-04 2.3670917035e+00 -4.0999230966e+00 2.3670917035e+00 4.0999230966e+00 
83600 5.4978640682e+00 -9.3484688204e-04 2.3671115689e+00 -4.0999575045e+00 2.3671115689e+00 4.0999575045e+00 
83700 5.4978640225e+00 -9.2926244202e-04 2.3671313155e+00 -4.0999917066e+00 2.3671313155e+00 4.0999917066e+00 
83800 5.4978639774e+00 -9.2371101944e-04 2.3671509440e+00 -4.1000257042e+00 2.3671509440e+00 4.1000257042e+00 
83900 5.4978639328e+00 -9.1819241065e-04 2.3671704550e+00 -4.1000594983e+00 2.3671704550e+00 4.1000594983e+00 
84000 5.4978638887e+00 -9.1270641312e-04 2.3671898494e+00 -4.1000930903e+00 2.3671898494e+00 4.1000930903e+00 
84100 5.4978638452e+00 -9.0725282550e-04 2.3672091277e+00 -4.1001264812e+00 2.3672091277e+00 4.1001264812e+00 
84200 5.4978638021e+00 -9.0183144765e-04 2.3672282906e+00 -4.1001596724e+00 2.3672282906e+00 4.1001596724e+00 
84300 5.4978637597e+00 -8.9644208067e-04 2.3672473389e+00 -4.1001926650e+00 2.3672473389e+00 4.1001926650e+00 
84400 5.4978637177e+00 -8.9108452696e-04 2.3672662732e+00 -4.1002254602e+00 2.3672662732e+00 4.1002254602e+00 
84500 5.4978636762e+00 -8.8575859024e-04 2.3672850942e+00 -4.1002580591e+00 2.3672850942e+00 4.1002580591e+00 
84600 5.4978636353e+00 -8.8046407558e-04 2.3673038025e+00 -4.1002904629e+00 2.3673038025e+00 4.1002904629e+00 
84700 5.4978635948e+00 -8.7520078943e-04 2.3673223989e+00 -4.1003226728e+00 2.3673223989e+00 4.1003226728e+00 
84800 5.4978635549e+00 -8.6996853966e-04 2.3673408839e+00 -4.1003546898e+00 2.3673408839e+00 4.1003546898e+00 
84900 5.4978635154e+00 -8.6476713557e-04 2.3673592584e+00 -4.1003865152e+00 2.3673592584e+00 4.1003865152e+00 
85000 5.4978634764e+00 -8.5959638789e-04 2.3673775228e+00 -4.1004181501e+00 2.3673775228e+00 4.1004181501e+00 
85100 5.4978634378e+00 -8.5445610886e-04 2.3673956778e+00 -4.1004495956e+00 2.3673956778e+00 4.1004495956e+00 
85200 5.4978633998e+00 -8.4934611220e-04 2.3674137242e+00 -4.1004808528e+00 2.3674137242e+00 4.1004808528e+00 
85300 5.4978633622e+00 -8.4426621314e-04 2.3674316625e+00 -4.1005119228e+00 2.3674316625e+00 4.1005119228e+00 
85400 5.4978633250e+00 -8.3921622841e-04 2.3674494933e+00 -4.1005428068e+00 2.3674494933e+00 4.1005428068e+00 
85500 5.4978632883e+00 -8.3419597629e-04 2.3674672174e+00 -4.1005735058e+00 2.3674672174e+00 4.1005735058e+00 
85600 5.4978632521e+00 -8.2920527659e-04 2.3674848353e+00 -4.1006040209e+00 2.3674848353e+00 4.1006040209e+00 
85700 5.4978632163e+00 -8.2424395065e-04 2.3675023477e+00 -4.1006343533e+00 2.3675023477e+00 4.1006343533e+00 
85800 5.4978631809e+00 -8.1931182135e-04 2.3675197552e+00 -4.1006645039e+00 2.3675197552e+00 4.1006645039e+00 
85900 5.4978631460e+00 -8.1440871315e-04 2.3675370584e+00 -4.1006944739e+00 2.3675370584e+00 4.1006944739e+00 
86000 5.4978631114e+00 -8.0953445199e-04 2.3675542579e+00 -4.1007242644e+00 2.3675542579e+00 4.1007242644e+00 
86100 5.4978630773e+00 -8.0468886541e-04 2.3675713544e+00 -4.1007538763e+00 2.3675713544e+00 4.1007538763e+00 
86200 5.4978630437e+00 -7.9987178242e-04 2.3675883483e+00 -4.1007833107e+00 2.3675883483e+00 4.1007833107e+00 
86300 5.4978630104e+00 -7.9508303360e-04 2.3676052405e+00 -4.1008125688e+00 2.3676052405e+00 4.1008125688e+00 
86400 5.4978629775e+00 -7.9032245102e-04 2.3676220314e+00 -4.1008416515e+00 2.3676220314e+00 4.1008416515e+00 
86500 5.4978629450e+00 -7.8558986824e-04 2.3676387216e+00 -4.1008705598e+00 2.3676387216e+00 4.1008705598e+00 
86600 5.4978629130e+00 -7.8088512032e-04 2.3676553118e+00 -4.1008992948e+00 2.3676553118e+00 4.1008992948e+00 
86700 5.4978628813e+00 -7.7620804380e-04 2.3676718025e+00 -4.1009278576e+00 2.3676718025e+00 4.1009278576e+00 
86800 5.4978628500e+00 -7.7155847665e-04 2.3676881943e+00 -4.1009562490e+00 2.3676881943e+00 4.1009562490e+00 
86900 5.4978628191e+00 -7.6693625829e-04 2.3677044878e+00 -4.1009844702e+00 2.3677044878e+00 4.1009844702e+00 
87000 5.4978627885e+00 -7.6234122953e-04 2.3677206836e+00 -4.1010125222e+00 2.3677206836e+00 4.1010125222e+00 
87100 5.4978627583e+00 -7.5777323262e-04 2.3677367823e+00 -4.1010404058e+00 2.3677367823e+00 4.1010404058e+00 
87200 5.4978627285e+00 -7.5323211113e-04 2.3677527843e+00 -4.1010681222e+00 2.3677527843e+00 4.1010681222e+00 
87300 5.4978626991e+00 -7.4871771002e-04 2.3677686904e+00 -4.1010956724e+00 2.3677686904e+00 4.1010956724e+00 
87400 5.4978626700e+00 -7.4422987553e-04 2.3677845011e+00 -4.1011230572e+00 2.3677845011e+00 4.1011230572e+00 
87500 5.4978626413e+00 -7.3976845523e-04 2.3678002168e+00 -4.1011502777e+00 2.3678002168e+00 4.1011502777e+00 
87600 5.4978626129e+00 -7.3533329796e-04 2.3678158383e+00 -4.1011773348e+00 2.3678158383e+00 4.1011773348e+00 
87700 5.4978625848e+00 -7.3092425378e-04 2.3678313659e+00 -4.1012042296e+00 2.3678313659e+00 4.1012042296e+00 
87800 5.4978625571e+00 -7.2654117398e-04 2.3678468004e+00 -4.1012309629e+00 2.3678468004e+00 4.1012309629e+00 
87900 5.4978625298e+00 -7.2218391105e-04 2.3678621423e+00 -4.1012575357e+00 2.3678621423e+00 4.1012575357e+00 
88000 5.4978625027e+00 -7.1785231864e-04 2.3678773920e+00 -4.1012839490e+00 2.3678773920e+00 4.1012839490e+00 
88100 5.4978624760e+00 -7.1354625150e-04 2.3678925501e+00 -4.1013102037e+00 2.3678925501e+00 4.1013102037e+00 
88200 5.4978624497e+00 -7.0926556551e-04 2.3679076173e+00 -4.1013363007e+00 2.3679076173e+00 4.1013363007e+00 
88300 5.4978624236e+00 -7.0501011764e-04 2.3679225939e+00 -4.1013622410e+00 2.3679225939e+00 4.1013622410e+00 
88400 5.4978623979e+00 -7.0077976586e-04 2.3679374806e+00 -4.1013880256e+00 2.3679374806e+00 4.1013880256e+00 
88500 5.4978623725e+00 -6.9657436920e-04 2.3679522779e+00 -4.1014136552e+00 2.3679522779e+00 4.1014136552e+00 
88600 5.4978623473e+00 -6.9239378766e-04 2.3679669863e+00 -4.1014391309e+00 2.3679669863e+00 4.1014391309e+00 
88700 5.4978623225e+00 -6.8823788218e-04 2.3679816063e+00 -4.1014644535e+00 2.3679816063e+00 4.1014644535e+00 
88800 5.4978622980e+00 -6.8410651467e-04 2.3679961385e+00 -4.1014896240e+00 2.3679961385e+00 4.1014896240e+00 
88900 5.4978622738e+00 -6.7999954791e-04 2.3680105833e+00 -4.1015146432e+00 2.3680105833e+00 4.1015146432e+00 
89000 5.4978622499e+00 -6.7591684557e-04 2.3680249414e+00 -4.1015395120e+00 2.3680249414e+00 4.1015395120e+00 
89100 5.4978622263e+00 -6.7185827218e-04 2.3680392131e+00 -4.1015642315e+00 2.3680392131e+00 4.1015642315e+00 
89200 5.4978622029e+00 -6.6782369307e-04 2.3680533991e+00 -4.1015888023e+00 2.3680533991e+00 4.1015888023e+00 
89300 5.4978621799e+00 -6.6381297439e-04 2.3680674998e+00 -4.1016132254e+00 2.3680674998e+00 4.1016132254e+00 
89400 5.4978621571e+00 -6.5982598305e-04 2.3680815157e+00 -4.1016375017e+00 2.3680815157e+00 4.1016375017e+00 
89500 5.4978621346e+00 -6.5586258671e-04 2.3680954474e+00 -4.1016616321e+00 2.3680954474e+00 4.1016616321e+00 
89600 5.4978621124e+00 -6.5192265375e-04 2.3681092953e+00 -4.1016856174e+00 2.3681092953e+00 4.1016856174e+00 
89700 5.4978620905e+00 -6.4800605326e-04 2.3681230600e+00 -4.1017094584e+00 2.3681230600e+00 4.1017094584e+00 
89800 5.4978620688e+00 -6.4411265502e-04 2.3681367418e+00 -4.1017331561e+00 2.3681367418e+00 4.1017331561e+00 
89900 5.4978620474e+00 -6.4024232944e-04 2.3681503414e+00 -4.1017567113e+00 2.3681503414e+00 4.1017567113e+00 
90000 5.4978620262e+00 -6.3639494761e-04 2.3681638592e+00 -4.1017801248e+00 2.3681638592e+00 4.1017801248e+00 
90100 5.4978620053e+00 -6.3257038121e-04 2.3681772957e+00 -4.1018033974e+00 2.3681772957e+00 4.1018033974e+00 
90200 5.4978619847e+00 -6.2876850254e-04 2.3681906513e+00 -4.1018265301e+00 2.3681906513e+00 4.1018265301e+00 
90300 5.4978619643e+00 -6.2498918448e-04 2.3682039266e+00 -4.1018495236e+00 2.3682039266e+00 4.1018495236e+00 
90400 5.4978619441e+00 -6.2123230048e-04 2.3682171221e+00 -4.1018723787e+00 2.3682171221e+00 4.1018723787e+00 
90500 5.4978619242e+00 -6.1749772455e-04 2.3682302381e+00 -4.1018950964e+00 2.3682302381e+00 4.1018950964e+00 
90600 5.4978619046e+00 -6.1378533123e-04 2.3682432752e+00 -4.1019176774e+00 2.3682432752e+00 4.1019176774e+00 
90700 5.4978618851e+00 -6.1009499560e-04 2.3682562339e+00 -4.1019401225e+00 2.3682562339e+00 4.1019401225e+00 
90800 5.4978618660e+00 -6.0642659327e-04 2.3682691146e+00 -4.1019624325e+00 2.3682691146e+00 4.1019624325e+00 
90900 5.4978618470e+00 -6.0278000033e-04 2.3682819178e+00 -4.1019846082e+00 2.3682819178e+00 4.1019846082e+00 
91000 5.4978618283e+00 -5.9915509337e-04 2.3682946439e+00 -4.1020066505e+00 2.3682946439e+00 4.1020066505e+00 
91100 5.4978618098e+00 -5.9555174947e-04 2.3683072934e+00 -4.1020285601e+00 2.3683072934e+00 4.1020285601e+00 
91200 5.4978617915e+00 -5.9196984622e-04 2.3683198668e+00 -4.1020503378e+00 2.3683198668e+00 4.1020503378e+00 
91300 5.4978617735e+00 -5.8840926163e-04 2.3683323645e+00 -4.1020719844e+00 2.3683323645e+00 4.1020719844e+00 
91400 5.4978617557e+00 -5.8486987420e-04 2.3683447869e+00 -4.1020935008e+00 2.3683447869e+00 4.1020935008e+00 
91500 5.4978617381e+00 -5.8135156291e-04 2.3683571346e+00 -4.1021148875e+00 2.3683571346e+00 4.1021148875e+00 
91600 5.4978617207e+00 -5.7785420717e-04 2.3683694079e+00 -4.1021361455e+00 2.3683694079e+00 4.1021361455e+00 
91700 5.4978617035e+00 -5.7437768686e-04 2.3683816073e+00 -4.1021572756e+00 2.3683816073e+00 4.1021572756e+00 
91800 5.4978616866e+00 -5.7092188229e-04 2.3683937333e+00 -4.1021782783e+00 2.3683937333e+00 4.1021782783e+00 
91900 5.4978616698e+00 -5.6748667425e-04 2.3684057862e+00 -4.1021991547e+00 2.3684057862e+00 4.1021991547e+00 
92000 5.4978616532e+00 -5.6407194395e-04 2.3684177666e+00 -4.1022199053e+00 2.3684177666e+00 4.1022199053e+00 
92100 5.4978616369e+00 -5.6067757307e-04 2.3684296748e+00 -4.1022405309e+00 2.3684296748e+00 4.1022405309e+00 
92200 5.4978616207e+00 -5.5730344372e-04 2.3684415113e+00 -4.1022610323e+00 2.3684415113e+00 4.1022610323e+00 
92300 5.4978616048e+00 -5.5394943848e-04 2.3684532765e+00 -4.1022814102e+00 2.3684532765e+00 4.1022814102e+00 
92400 5.4978615890e+00 -5.5061544035e-04 2.3684649708e+00 -4.1023016654e+00 2.3684649708e+00 4.1023016654e+00 
92500 5.4978615734e+00 -5.4730133283e-04 2.3684765947e+00 -4.1023217986e+00 2.3684765947e+00 4.1023217986e+00 
92600 5.4978615581e+00 -5.4400699984e-04 2.3684881486e+00 -4.1023418105e+00 2.3684881486e+00 4.1023418105e+00 
92700 5.4978615429e+00 -5.4073232576e-04 2.3684996329e+00 -4.1023617018e+00 2.3684996329e+00 4.1023617018e+00 
92800 5.4978615279e+00 -5.3747719547e-04 2.3685110480e+00 -4.1023814734e+00 2.3685110480e+00 4.1023814734e+00 
92900 5.4978615130e+00 -5.3424149428e-04 2.3685223943e+00 -4.1024011258e+00 2.3685223943e+00 4.1024011258e+00 
93000 5.4978614984e+00 -5.3102510800e-04 2.3685336722e+00 -4.1024206598e+00 2.3685336722e+00 4.1024206598e+00 
93100 5.4978614839e+00 -5.2782792289e-04 2.3685448822e+00 -4.1024400761e+00 2.3685448822e+00 4.1024400761e+00 
93200 5.4978614696e+00 -5.2464982573e-04 2.3685560247e+00 -4.1024593754e+00 2.3685560247e+00 4.1024593754e+00 
93300 5.4978614555e+00 -5.2149070376e-04 2.3685671000e+00 -4.1024785584e+00 2.3685671000e+00 4.1024785584e+00 
93400 5.4978614416e+00 -5.1835044473e-04 2.3685781086e+00 -4.1024976258e+00 2.3685781086e+00 4.1024976258e+00 
93500 5.4978614278e+00 -5.1522893690e-04 2.3685890508e+00 -4.1025165783e+00 2.3685890508e+00 4.1025165783e+00 
93600 5.4978614142e+00 -5.1212606900e-04 2.3685999271e+00 -4.1025354166e+00 2.3685999271e+00 4.1025354166e+00 
93700 5.4978614008e+00 -5.0904173033e-04 2.3686107379e+00 -4.1025541413e+00 2.3686107379e+00 4.1025541413e+00 
93800 5.4978613875e+00 -5.0597581065e-04 2.3686214835e+00 -4.1025727532e+00 2.3686214835e+00 4.1025727532e+00 
93900 5.4978613744e+00 -5.0292820031e-04 2.3686321643e+00 -4.1025912530e+00 2.3686321643e+00 4.1025912530e+00 
94000 5.4978613614e+00 -4.9989879014e-04 2.3686427807e+00 -4.1026096412e+00 2.3686427807e+00 4.1026096412e+00 
94100 5.4978613486e+00 -4.9688747154e-04 2.3686533331e+00 -4.1026279185e+00 2.3686533331e+00 4.1026279185e+00 
94200 5.4978613360e+00 -4.9389413646e-04 2.3686638220e+00 -4.1026460857e+00 2.3686638220e+00 4.1026460857e+00 
94300 5.4978613235e+00 -4.9091867737e-04 2.3686742476e+00 -4.1026641434e+00 2.3686742476e+00 4.1026641434e+00 
94400 5.4978613112e+00 -4.8796098734e-04 2.3686846103e+00 -4.1026820921e+00 2.3686846103e+00 4.1026820921e+00 
94500 5.4978612990e+00 -4.8502095997e-04 2.3686949106e+00 -4.1026999327e+00 2.3686949106e+00 4.1026999327e+00 
94600 5.4978612870e+00 -4.8209848946e-04 2.3687051487e+00 -4.1027176657e+00 2.3687051487e+00 4.1027176657e+00 
94700 5.4978612751e+00 -4.7919347058e-04 2.3687153251e+00 -4.1027352918e+00 2.3687153251e+00 4.1027352918e+00 
94800 5.4978612633e+00 -4.7630579865e-04 2.3687254402e+00 -4.1027528116e+00 2.3687254402e+00 4.1027528116e+00 
94900 5.4978612517e+00 -4.7343536963e-04 2.3687354943e+00 -4.1027702257e+00 2.3687354943e+00 4.1027702257e+00 
95000 5.4978612403e+00 -4.7058208003e-04 2.3687454877e+00 -4.1027875349e+00 2.3687454877e+00 4.1027875349e+00 
95100 5.4978612290e+00 -4.6774582698e-04 2.3687554208e+00 -4.1028047396e+00 2.3687554208e+00 4.1028047396e+00 
95200 5.4978612178e+00 -4.6492650820e-04 2.3687652941e+00 -4.1028218406e+00 2.3687652941e+00 4.1028218406e+00 
95300 5.4978612068e+00 -4.6212402202e-04 2.3687751078e+00 -4.1028388384e+00 2.3687751078e+00 4.1028388384e+00 
95400 5.4978611958e+00 -4.5933826738e-04 2.3687848623e+00 -4.1028557337e+00 2.3687848623e+00 4.1028557337e+00 
95500 5.4978611851e+00 -4.5656914383e-04 2.3687945579e+00 -4.1028725270e+00 2.3687945579e+00 4.1028725270e+00 
95600 5.4978611744e+00 -4.5381655154e-04 2.3688041951e+00 -4.1028892191e+00 2.3688041951e+00 4.1028892191e+00 
95700 5.4978611639e+00 -4.5108039130e-04 2.3688137741e+00 -4.1029058105e+00 2.3688137741e+00 4.1029058105e+00 
95800 5.4978611535e+00 -4.4836056450e-04 2.3688232954e+00 -4.1029223017e+00 2.3688232954e+00 4.1029223017e+00 
95900 5.4978611433e+00 -4.4565697317e-04 2.3688327592e+00 -4.1029386935e+00 2.3688327592e+00 4.1029386935e+00 
96000 5.4978611332e+00 -4.4296951998e-04 2.3688421658e+00 -4.1029549864e+00 2.3688421658e+00 4.1029549864e+00 
96100 5.4978611232e+00 -4.4029810818e-04 2.3688515158e+00 -4.1029711809e+00 2.3688515158e+00 4.1029711809e+00 
96200 5.4978611133e+00 -4.3764264170e-04 2.3688608093e+00 -4.1029872777e+00 2.3688608093e+00 4.1029872777e+00 
96300 5.4978611035e+00 -4.3500302505e-04 2.3688700467e+00 -4.1030032774e+00 2.3688700467e+00 4.1030032774e+00 
96400 5.4978610939e+00 -4.3237916339e-04 2.3688792283e+00 -4.1030191805e+00 2.3688792283e+00 4.1030191805e+00 
96500 5.4978610843e+00 -4.2977096251e-04 2.3688883546e+00 -4.1030349876e+00 2.3688883546e+00 4.1030349876e+00 
96600 5.4978610749e+00 -4.2717832880e-04 2.3688974257e+00 -4.1030506993e+00 2.3688974257e+00 4.1030506993e+00 
96700 5.4978610656e+00 -4.2460116930e-04 2.3689064421e+00 -4.1030663162e+00 2.3689064421e+00 4.1030663162e+00 
96800 5.4978610564e+00 -4.2203939166e-04 2.3689154041e+00 -4.1030818388e+00 2.3689154041e+00 4.1030818388e+00 
96900 5.4978610474e+00 -4.1949290417e-04 2.3689243120e+00 -4.1030972676e+00 2.3689243120e+00 4.1030972676e+00 
97000 5.4978610384e+00 -4.1696161569e-04 2.3689331661e+00 -4.1031126034e+00 2.3689331661e+00 4.1031126034e+00 
97100 5.4978610296e+00 -4.1444543576e-04 2.3689419667e+00 -4.1031278465e+00 2.3689419667e+00 4.1031278465e+00 
97200 5.4978610208e+00 -4.1194427447e-04 2.3689507142e+00 -4.1031429976e+00 2.3689507142e+00 4.1031429976e+00 
97300 5.4978610122e+00 -4.0945804258e-04 2.3689594088e+00 -4.1031580572e+00 2.3689594088e+00 4.1031580572e+00 
97400 5.4978610037e+00 -4.0698665141e-04 2.3689680510e+00 -4.1031730258e+00 2.3689680510e+00 4.1031730258e+00 
97500 5.4978609952e+00 -4.0453001291e-04 2.3689766410e+00 -4.1031879041e+00 2.3689766410e+00 4.1031879041e+00 
97600 5.4978609869e+00 -4.0208803962e-04 2.3689851790e+00 -4.1032026925e+00 2.3689851790e+00 4.1032026925e+00 
97700 5.4978609787e+00 -3.9966064465e-04 2.3689936656e+00 -4.1032173915e+00 2.3689936656e+00 4.1032173915e+00 
97800 5.4978609706e+00 -3.9724774175e-04 2.3690021008e+00 -4.1032320018e+00 2.3690021008e+00 4.1032320018e+00 
97900 5.4978609626e+00 -3.9484924522e-04 2.3690104851e+00 -4.1032465238e+00 2.3690104851e+00 4.1032465238e+00 
98000 5.4978609546e+00 -3.9246506993e-04 2.3690188187e+00 -4.1032609581e+00 2.3690188187e+00 4.1032609581e+00 
98100 5.4978609468e+00 -3.9009513137e-04 2.3690271020e+00 -4.1032753052e+00 2.3690271020e+00 4.1032753052e+00 
98200 5.4978609391e+00 -3.8773934555e-04 2.3690353353e+00 -4.1032895656e+00 2.3690353353e+00 4.1032895656e+00 
98300 5.4978609315e+00 -3.8539762906e-04 2.3690435187e+00 -4.1033037398e+00 2.3690435187e+00 4.1033037398e+00 
98400 5.4978609239e+00 -3.8306989908e-04 2.3690516528e+00 -4.1033178284e+00 2.3690516528e+00 4.1033178284e+00 
98500 5.4978609165e+00 -3.8075607328e-04 2.3690597377e+00 -4.1033318318e+00 2.3690597377e+00 4.1033318318e+00 
98600 5.4978609091e+00 -3.7845606993e-04 2.3690677737e+00 -4.1033457506e+00 2.3690677737e+00 4.1033457506e+00 
98700 5.4978609018e+00 -3.7616980781e-04 2.3690757611e+00 -4.1033595853e+00 2.3690757611e+00 4.1033595853e+00 
98800 5.4978608947e+00 -3.7389720625e-04 2.3690837003e+00 -4.1033733363e+00 2.3690837003e+00 4.1033733363e+00 
98900 5.4978608876e+00 -3.7163818508e-04 2.3690915915e+00 -4.1033870042e+00 2.3690915915e+00 4.1033870042e+00 
99000 5.4978608806e+00 -3.6939266469e-04 2.3690994350e+00 -4.1034005896e+00 2.3690994350e+00 4.1034005896e+00 
99100 5.4978608737e+00 -3.6716056596e-04 2.3691072310e+00 -4.1034140927e+00 2.3691072310e+00 4.1034140927e+00 
99200 5.4978608668e+00 -3.6494181027e-04 2.3691149800e+00 -4.1034275143e+00 2.3691149800e+00 4.1034275143e+00 
99300 5.4978608601e+00 -3.6273631953e-04 2.3691226820e+00 -4.1034408546e+00 2.3691226820e+00 4.1034408546e+00 
99400 5.4978608534e+00 -3.6054401610e-04 2.3691303375e+00 -4.1034541144e+00 2.3691303375e+00 4.1034541144e+00 
99500 5.4978608468e+00 -3.5836482288e-04 2.3691379467e+00 -4.1034672939e+00 2.3691379467e+00 4.1034672939e+00 
99600 5.4978608403e+00 -3.5619866320e-04 2.3691455099e+00 -4.1034803937e+00 2.3691455099e+00 4.1034803937e+00 
99700 5.4978608339e+00 -3.5404546092e-04 2.3691530274e+00 -4.1034934144e+00 2.3691530274e+00 4.1034934144e+00 
99800 5.4978608275e+00 -3.5190514032e-04 2.3691604994e+00 -4.1035063562e+00 2.3691604994e+00 4.1035063562e+00 
99900 5.4978608213e+00 -3.4977762616e-04 2.3691679262e+00 -4.1035192198e+00 2.3691679262e+00 4.1035192198e+00 
100000 5.4978608151e+00 -3.4766284368e-04 2.3691753080e+00 -4.1035320056e+00 2.3691753080e+00 4.1035320056e+00 
100100 5.4978608090e+00 -3.4556071852e-04 2.3691826453e+00 -4.1035447140e+00 2.3691826453e+00 4.1035447140e+00 
100200 5.4978608029e+00 -3.4347117681e-04 2.3691899381e+00 -4.1035573456e+00 2.3691899381e+00 4.1035573456e+00 
100300 5.4978607969e+00 -3.4139414509e-04 2.3691971868e+00 -4.1035699007e+00 2.3691971868e+00 4.1035699007e+00 
100400 5.4978607911e+00 -3.3932955034e-04 2.3692043917e+00 -4.1035823799e+00 2.3692043917e+00 4.1035823799e+00 
100500 5.4978607852e+00 -3.3727731998e-04 2.3692115529e+00 -4.1035947835e+00 2.3692115529e+00 4.1035947835e+00 
100600 5.4978607795e+00 -3.3523738183e-04 2.3692186708e+00 -4.1036071121e+00 2.3692186708e+00 4.1036071121e+00 
100700 5.4978607738e+00 -3.3320966412e-04 2.3692257457e+00 -4.1036193661e+00 2.3692257457e+00 4.1036193661e+00 
100800 5.4978607682e+00 -3.3119409552e-04 2.3692327777e+00 -4.1036315460e+00 2.3692327777e+00 4.1036315460e+00 
100900 5.4978607626e+00 -3.2919060508e-04 2.3692397672e+00 -4.1036436521e+00 2.3692397672e+00 4.1036436521e+00 
101000 5.4978607572e+00 -3.2719912226e-04 2.3692467144e+00 -4.1036556850e+00 2.3692467144e+00 4.1036556850e+00 
101100 5.4978607518e+00 -3.2521957691e-04 2.3692536195e+00 -4.1036676450e+00 2.3692536195e+00 4.1036676450e+00 
101200 5.4978607464e+00 -3.2325189926e-04 2.3692604829e+00 -4.1036795327e+00 2.3692604829e+00 4.1036795327e+00 
101300 5.4978607411e+00 -3.2129601995e-04 2.3692673047e+00 -4.1036913484e+00 2.3692673047e+00 4.1036913484e+00 
101400 5.4978607359e+00 -3.1935186997e-04 2.3692740852e+00 -4.1037030925e+00 2.3692740852e+00 4.1037030925e+00 
101500 5.4978607308e+00 -3.1741938072e-04 2.3692808246e+00 -4.1037147656e+00 2.3692808246e+00 4.1037147656e+00 
101600 5.4978607257e+00 -3.1549848395e-04 2.3692875233e+00 -4.1037263680e+00 2.3692875233e+00 4.1037263680e+00 
101700 5.4978607207e+00 -3.1358911178e-04 2.3692941813e+00 -4.1037379002e+00 2.3692941813e+00 4.1037379002e+00 
101800 5.4978607157e+00 -3.1169119670e-04 2.3693007991e+00 -4.1037493625e+00 2.3693007991e+00 4.1037493625e+00 
101900 5.4978607108e+00 -3.0980467155e-04 2.3693073768e+00 -4.1037607554e+00 2.3693073768e+00 4.1037607554e+00 
102000 5.4978607060e+00 -3.0792946956e-04 2.3693139147e+00 -4.1037720794e+00 2.3693139147e+00 4.1037720794e+00 
102100 5.4978607012e+00 -3.0606552428e-04 2.3693204130e+00 -4.1037833347e+00 2.3693204130e+00 4.1037833347e+00 
102200 5.4978606965e+00 -3.0421276962e-04 2.3693268719e+00 -4.1037945219e+00 2.3693268719e+00 4.1037945219e+00 
102300 5.4978606918e+00 -3.0237113985e-04 2.3693332917e+00 -4.1038056414e+00 2.3693332917e+00 4.1038056414e+00 
102400 5.4978606872e+00 -3.0054056958e-04 2.3693396727e+00 -4.1038166935e+00 2.3693396727e+00 4.1038166935e+00 
102500 5.4978606826e+00 -2.9872099375e-04 2.3693460150e+00 -4.1038276786e+00 2.3693460150e+00 4.1038276786e+00 
102600 5.4978606781e+00 -2.9691234767e-04 2.3693523188e+00 -4.1038385973e+00 2.3693523188e+00 4.1038385973e+00 
102700 5.4978606737e+00 -2.9511456697e-04 2.3693585845e+00 -4.1038494498e+00 2.3693585845e+00 4.1038494498e+00 
102800 5.4978606693e+00 -2.9332758761e-04 2.3693648123e+00 -4.1038602365e+00 2.3693648123e+00 4.1038602365e+00 
102900 5.4978606650e+00 -2.9155134589e-04 2.3693710023e+00 -4.1038709579e+00 2.3693710023e+00 4.1038709579e+00 
103000 5.4978606607e+00 -2.8978577847e-04 2.3693771548e+00 -4.1038816144e+00 2.3693771548e+00 4.1038816144e+00 
103100 5.4978606565e+00 -2.8803082229e-04 2.3693832700e+00 -4.1038922063e+00 2.3693832700e+00 4.1038922063e+00 
103200 5.4978606523e+00 -2.8628641467e-04 2.3693893482e+00 -4.1039027340e+00 2.3693893482e+00 4.1039027340e+00 
103300 5.4978606482e+00 -2.8455249323e-04 2.3693953896e+00 -4.1039131979e+00 2.3693953896e+00 4.1039131979e+00 
103400 5.4978606441e+00 -2.8282899592e-04 2.3694013943e+00 -4.1039235985e+00 2.3694013943e+00 4.1039235985e+00 
103500 5.4978606401e+00 -2.8111586102e-04 2.3694073627e+00 -4.1039339360e+00 2.3694073627e+00 4.1039339360e+00 
103600 5.4978606361e+00 -2.7941302713e-04 2.3694132949e+00 -4.1039442108e+00 2.3694132949e+00 4.1039442108e+00 
103700 5.4978606322e+00 -2.7772043319e-04 2.3694191911e+00 -4.1039544235e+00 2.3694191911e+00 4.1039544235e+00 
103800 5.4978606283e+00 -2.7603801843e-04 2.3694250516e+00 -4.1039645742e+00 2.3694250516e+00 4.1039645742e+00 
103900 5.4978606245e+00 -2.7436572244e-04 2.3694308766e+00 -4.1039746634e+00 2.3694308766e+00 4.1039746634e+00 
104000 5.4978606207e+00 -2.7270348511e-04 2.3694366663e+00 -4.1039846914e+00 2.3694366663e+00 4.1039846914e+00 
104100 5.4978606170e+00 -2.7105124665e-04 2.3694424210e+00 -4.1039946587e+00 2.3694424210e+00 4.1039946587e+00 
104200 5.4978606133e+00 -2.6940894759e-04 2.3694481407e+00 -4.1040045656e+00 2.3694481407e+00 4.1040045656e+00 
104300 5.4978606096e+00 -2.6777652879e-04 2.3694538257e+00 -4.1040144124e+00 2.3694538257e+00 4.1040144124e+00 
104400 5.4978606060e+00 -2.6615393142e-04 2.3694594763e+00 -4.1040241995e+00 2.3694594763e+00 4.1040241995e+00 
104500 5.4978606025e+00 -2.6454109697e-04 2.3694650927e+00 -4.1040339273e+00 2.3694650927e+00 4.1040339273e+00 
104600 5.4978605990e+00 -2.6293796724e-04 2.3694706750e+00 -4.1040435961e+00 2.3694706750e+00 4.1040435961e+00 
104700 5.4978605955e+00 -2.6134448436e-04 2.3694762234e+00 -4.1040532063e+00 2.3694762234e+00 4.1040532063e+00 
104800 5.4978605921e+00 -2.5976059078e-04 2.3694817383e+00 -4.1040627583e+00 2.3694817383e+00 4.1040627583e+00 
104900 5.4978605887e+00 -2.5818622926e-04 2.3694872196e+00 -4.1040722523e+00 2.3694872196e+00 4.1040722523e+00 
105000 5.4978605853e+00 -2.5662134286e-04 2.3694926678e+00 -4.1040816888e+00 2.3694926678e+00 4.1040816888e+00 
105100 5.4978605820e+00 -2.5506587499e-04 2.3694980829e+00 -4.1040910680e+00 2.3694980829e+00 4.1040910680e+00 
105200 5.4978605788e+00 -2.5351976935e-04 2.3695034652e+00 -4.1041003904e+00 2.3695034652e+00 4.1041003904e+00 
105300 5.4978605755e+00 -2.5198296996e-04 2.3695088148e+00 -4.1041096562e+00 2.3695088148e+00 4.1041096562e+00 
105400 5.4978605724e+00 -2.5045542116e-04 2.3695141320e+00 -4.1041188659e+00 2.3695141320e+00 4.1041188659e+00 
105500 5.4978605692e+00 -2.4893706762e-04 2.3695194170e+00 -4.1041280197e+00 2.3695194170e+00 4.1041280197e+00 
105600 5.4978605661e+00 -2.4742785429e-04 2.3695246699e+00 -4.1041371180e+00 2.3695246699e+00 4.1041371180e+00 
105700 5.4978605630e+00 -2.4592772646e-04 2.3695298909e+00 -4.1041461611e+00 2.3695298909e+00 4.1041461611e+00 
105800 5.4978605600e+00 -2.4443662973e-04 2.3695350803e+00 -4.1041551494e+00 2.3695350803e+00 4.1041551494e+00 
105900 5.4978605570e+00 -2.4295451001e-04 2.3695402382e+00 -4.1041640832e+00 2.3695402382e+00 4.1041640832e+00 
106000 5.4978605541e+00 -2.4148131352e-04 2.3695453648e+00 -4.1041729627e+00 2.3695453648e+00 4.1041729627e+00 
106100 5.4978605511e+00 -2.4001698680e-04 2.3695504603e+00 -4.1041817884e+00 2.3695504603e+00 4.1041817884e+00 
106200 5.4978605483e+00 -2.3856147671e-04 2.3695555250e+00 -4.1041905606e+00 2.3695555250e+00 4.1041905606e+00 
106300 5.4978605454e+00 -2.3711473039e-04 2.3695605588e+00 -4.1041992795e+00 2.3695605588e+00 4.1041992795e+00 
106400 5.4978605426e+00 -2.3567669532e-04 2.3695655622e+00 -4.1042079456e+00 2.3695655622e+00 4.1042079456e+00 
106500 5.4978605398e+00 -2.3424731930e-04 2.3695705352e+00 -4.1042165591e+00 2.3695705352e+00 4.1042165591e+00 
106600 5.4978605371e+00 -2.3282655039e-04 2.3695754780e+00 -4.1042251203e+00 2.3695754780e+00 4.1042251203e+00 
106700 5.4978605344e+00 -2.3141433702e-04 2.3695803909e+00 -4.1042336296e+00 2.3695803909e+00 4.1042336296e+00 
106800 5.4978605317e+00 -2.3001062789e-04 2.3695852739e+00 -4.1042420872e+00 2.3695852739e+00 4.1042420872e+00 
106900 5.4978605290e+00 -2.2861537201e-04 2.3695901273e+00 -4.1042504936e+00 2.3695901273e+00 4.1042504936e+00 
107000 5.4978605264e+00 -2.2722851872e-04 2.3695949512e+00 -4.1042588489e+00 2.3695949512e+00 4.1042588489e+00 
107100 5.4978605238e+00 -2.2585001764e-04 2.3695997459e+00 -4.1042671535e+00 2.3695997459e+00 4.1042671535e+00 
107200 5.4978605213e+00 -2.2447981871e-04 2.3696045115e+00 -4.1042754077e+00 2.3696045115e+00 4.1042754077e+00 
107300 5.4978605188e+00 -2.2311787216e-04 2.3696092481e+00 -4.1042836118e+00 2.3696092481e+00 4.1042836118e+00 
107400 5.4978605163e+00 -2.2176412853e-04 2.3696139560e+00 -4.1042917662e+00 2.3696139560e+00 4.1042917662e+00 
107500 5.4978605138e+00 -2.2041853868e-04 2.3696186354e+00 -4.1042998710e+00 2.3696186354e+00 4.1042998710e+00 
107600 5.4978605114e+00 -2.1908105375e-04 2.3696232863e+00 -4.1043079266e+00 2.3696232863e+00 4.1043079266e+00 
107700 5.4978605090e+00 -2.1775162516e-04 2.3696279090e+00 -4.1043159334e+00 2.3696279090e+00 4.1043159334e+00 
107800 5.4978605067e+00 -2.1643020468e-04 2.3696325036e+00 -4.1043238915e+00 2.3696325036e+00 4.1043238915e+00 
107900 5.4978605043e+00 -2.1511674433e-04 2.3696370704e+00 -4.1043318014e+00 2.3696370704e+00 4.1043318014e+00 
108000 5.4978605020e+00 -2.1381119645e-04 2.3696416094e+00 -4.1043396632e+00 2.3696416094e+00 4.1043396632e+00 
108100 5.4978604997e+00 -2.1251351366e-04 2.3696461209e+00 -4.1043474773e+00 2.3696461209e+00 4.1043474773e+00 
108200 5.4978604975e+00 -2.1122364888e-04 2.3696506049e+00 -4.1043552439e+00 2.3696506049e+00 4.1043552439e+00 
108300 5.4978604952e+00 -2.0994155532e-04 2.3696550618e+00 -4.1043629634e+00 2.3696550618e+00 4.1043629634e+00 
108400 5.4978604930e+00 -2.0866718648e-04 2.3696594916e+00 -4.1043706361e+00 2.3696594916e+00 4.1043706361e+00 
108500 5.4978604909e+00 -2.0740049614e-04 2.3696638945e+00 -4.1043782621e+00 2.3696638945e+00 4.1043782621e+00 
108600 5.4978604887e+00 -2.0614143838e-04 2.3696682706e+00 -4.1043858418e+00 2.3696682706e+00 4.1043858418e+00 
108700 5.4978604866e+00 -2.0488996755e-04 2.3696726202e+00 -4.1043933755e+00 2.3696726202e+00 4.1043933755e+00 
108800 5.4978604845e+00 -2.0364603829e-04 2.3696769434e+00 -4.1044008635e+00 2.3696769434e+00 4.1044008635e+00 
108900 5.4978604825e+00 -2.0240960551e-04 2.3696812403e+00 -4.1044083060e+00 2.3696812403e+00 4.1044083060e+00 
109000 5.4978604804e+00 -2.0118062442e-04 2.3696855111e+00 -4.1044157033e+00 2.3696855111e+00 4.1044157033e+00 
109100 5.4978604784e+00 -1.9995905048e-04 2.3696897560e+00 -4.1044230556e+00 2.3696897560e+00 4.1044230556e+00 
109200 5.4978604764e+00 -1.9874483945e-04 2.3696939751e+00 -4.1044303633e+00 2.3696939751e+00 4.1044303633e+00 
109300 5.4978604744e+00 -1.9753794735e-04 2.3696981686e+00 -4.1044376266e+00 2.3696981686e+00 4.1044376266e+00 
109400 5.4978604725e+00 -1.9633833048e-04 2.3697023366e+00 -4.1044448458e+00 2.3697023366e+00 4.1044448458e+00 
109500 5.4978604706e+00 -1.9514594539e-04 2.3697064793e+00 -4.1044520211e+00 2.3697064793e+00 4.1044520211e+00 
109600 5.4978604687e+00 -1.9396074891e-04 2.3697105968e+00 -4.1044591529e+00 2.3697105968e+00 4.1044591529e+00 
109700 5.4978604668e+00 -1.9278269815e-04 2.3697146893e+00 -4.1044662413e+00 2.3697146893e+00 4.1044662413e+00 
109800 5.4978604650e+00 -1.9161175046e-04 2.3697187569e+00 -4.1044732866e+00 2.3697187569e+00 4.1044732866e+00 
109900 5.4978604631e+00 -1.9044786346e-04 2.3697227998e+00 -4.1044802892e+00 2.3697227998e+00 4.1044802892e+00 
110000 5.4978604613e+00 -1.8929099503e-04 2.3697268182e+00 -4.1044872492e+00 2.3697268182e+00 4.1044872492e+00 
110100 5.4978604596e+00 -1.8814110331e-04 2.3697308121e+00 -4.1044941669e+00 2.3697308121e+00 4.1044941669e+00 
110200 5.4978604578e+00 -1.8699814669e-04 2.3697347818e+00 -4.1045010426e+00 2.3697347818e+00 4.1045010426e+00 
110300 5.4978604561e+00 -1.8586208382e-04 2.3697387274e+00 -4.1045078765e+00 2.3697387274e+00 4.1045078765e+00 
110400 5.4978604543e+00 -1.8473287360e-04 2.3697426489e+00 -4.1045146688e+00 2.3697426489e+00 4.1045146688e+00 
110500 5.4978604526e+00 -1.8361047516e-04 2.3697465467e+00 -4.1045214199e+00 2.3697465467e+00 4.1045214199e+00 
110600 5.4978604510e+00 -1.8249484791e-04 2.3697504207e+00 -4.1045281300e+00 2.3697504207e+00 4.1045281300e+00 
110700 5.4978604493e+00 -1.8138595149e-04 2.3697542712e+00 -4.1045347993e+00 2.3697542712e+00 4.1045347993e+00 
110800 5.4978604477e+00 -1.8028374578e-04 2.3697580984e+00 -4.1045414280e+00 2.3697580984e+00 4.1045414280e+00 
110900 5.4978604461e+00 -1.7918819090e-04 2.3697619022e+00 -4.1045480164e+00 2.3697619022e+00 4.1045480164e+00 
111000 5.4978604445e+00 -1.7809924721e-04 2.3697656829e+00 -4.1045545649e+00 2.3697656829e+00 4.1045545649e+00 
111100 5.4978604429e+00 -1.7701687532e-04 2.3697694407e+00 -4.1045610735e+00 2.3697694407e+00 4.1045610735e+00 
111200 5.4978604413e+00 -1.7594103606e-04 2.3697731756e+00 -4.1045675425e+00 2.3697731756e+00 4.1045675425e+00 
111300 5.4978604398e+00 -1.7487169051e-04 2.3697768878e+00 -4.1045739722e+00 2.3697768878e+00 4.1045739722e+00 
111400 5.4978604383e+00 -1.7380879996e-04 2.3697805774e+00 -4.1045803628e+00 2.3697805774e+00 4.1045803628e+00 
111500 5.4978604368e+00 -1.7275232595e-04 2.3697842446e+00 -4.1045867146e+00 2.3697842446e+00 4.1045867146e+00 
111600 5.4978604353e+00 -1.7170223024e-04 2.3697878895e+00 -4.1045930277e+00 2.3697878895e+00 4.1045930277e+00 
111700 5.4978604338e+00 -1.7065847481e-04 2.3697915122e+00 -4.1045993025e+00 2.3697915122e+00 4.1045993025e+00 
111800 5.4978604324e+00 -1.6962102187e-04 2.3697951129e+00 -4.1046055391e+00 2.3697951129e+00 4.1046055391e+00 
111900 5.4978604310e+00 -1.6858983386e-04 2.3697986917e+00 -4.1046117378e+00 2.3697986917e+00 4.1046117378e+00 
112000 5.4978604296e+00 -1.6756487343e-04 2.3698022488e+00 -4.1046178988e+00 2.3698022488e+00 4.1046178988e+00 
112100 5.4978604282e+00 -1.6654610345e-04 2.3698057842e+00 -4.1046240223e+00 2.3698057842e+00 4.1046240223e+00 
112200 5.4978604268e+00 -1.6553348701e-04 2.3698092981e+00 -4.1046301086e+00 2.3698092981e+00 4.1046301086e+00 
112300 5.4978604254e+00 -1.6452698742e-04 2.3698127907e+00 -4.1046361579e+00 2.3698127907e+00 4.1046361579e+00 
112400 5.4978604241e+00 -1.6352656820e-04 2.3698162620e+00 -4.1046421703e+00 2.3698162620e+00 4.1046421703e+00 
112500 5.4978604228e+00 -1.6253219309e-04 2.3698197122e+00 -4.1046481462e+00 2.3698197122e+00 4.1046481462e+00 
112600 5.4978604215e+00 -1.6154382601e-04 2.3698231414e+00 -4.1046540858e+00 2.3698231414e+00 4.1046540858e+00 
112700 5.4978604202e+00 -1.6056143114e-04 2.3698265497e+00 -4.1046599893e+00 2.3698265497e+00 4.1046599893e+00 
112800 5.4978604189e+00 -1.5958497283e-04 2.3698299373e+00 -4.1046658568e+00 2.3698299373e+00 4.1046658568e+00 
112900 5.4978604176e+00 -1.5861441565e-04 2.3698333044e+00 -4.1046716886e+00 2.3698333044e+00 4.1046716886e+00 
113000 5.4978604164e+00 -1.5764972436e-04 2.3698366509e+00 -4.1046774850e+00 2.3698366509e+00 4.1046774850e+00 
113100 5.4978604152e+00 -1.5669086395e-04 2.3698399771e+00 -4.1046832461e+00 2.3698399771e+00 4.1046832461e+00 
113200 5.4978604140e+00 -1.5573779960e-04 2.3698432830e+00 -4.1046889721e+00 2.3698432830e+00 4.1046889721e+00 
113300 5.4978604128e+00 -1.5479049668e-04 2.3698465688e+00 -4.1046946634e+00 2.3698465688e+00 4.1046946634e+00 
113400 5.4978604116e+00 -1.5384892078e-04 2.3698498347e+00 -4.1047003200e+00 2.3698498347e+00 4.1047003200e+00 
113500 5.4978604104e+00 -1.5291303766e-04 2.3698530806e+00 -4.1047059421e+00 2.3698530806e+00 4.1047059421e+00 
113600 5.4978604092e+00 -1.5198281331e-04 2.3698563068e+00 -4.1047115301e+00 2.3698563068e+00 4.1047115301e+00 
113700 5.4978604081e+00 -1.5105821389e-04 2.3698595134e+00 -4.1047170841e+00 2.3698595134e+00 4.1047170841e+00 
113800 5.4978604070e+00 -1.5013920578e-04 2.3698627005e+00 -4.1047226042e+00 2.3698627005e+00 4.1047226042e+00 
113900 5.4978604059e+00 -1.4922575552e-04 2.3698658682e+00 -4.1047280908e+00 2.3698658682e+00 4.1047280908e+00 
114000 5.4978604048e+00 -1.4831782987e-04 2.3698690166e+00 -4.1047335440e+00 2.3698690166e+00 4.1047335440e+00 
114100 5.4978604037e+00 -1.4741539577e-04 2.3698721458e+00 -4.1047389640e+00 2.3698721458e+00 4.1047389640e+00 
114200 5.4978604026e+00 -1.4651842035e-04 2.3698752560e+00 -4.1047443510e+00 2.3698752560e+00 4.1047443510e+00 
114300 5.4978604015e+00 -1.4562687093e-04 2.3698783473e+00 -4.1047497053e+00 2.3698783473e+00 4.1047497053e+00 
114400 5.4978604005e+00 -1.4474071501e-04 2.3698814197e+00 -4.1047550269e+00 2.3698814197e+00 4.1047550269e+00 
114500 5.4978603995e+00 -1.4385992031e-04 2.3698844735e+00 -4.1047603162e+00 2.3698844735e+00 4.1047603162e+00 
114600 5.4978603984e+00 -1.4298445468e-04 2.3698875087e+00 -4.1047655732e+00 2.3698875087e+00 4.1047655732e+00 
114700 5.4978603974e+00 -1.4211428621e-04 2.3698905254e+00 -4.1047707983e+00 2.3698905254e+00 4.1047707983e+00 
114800 5.4978603964e+00 -1.4124938313e-04 2.3698935237e+00 -4.1047759916e+00 2.3698935237e+00 4.1047759916e+00 
114900 5.4978603954e+00 -1.4038971389e-04 2.3698965038e+00 -4.1047811532e+00 2.3698965038e+00 4.1047811532e+00 
115000 5.4978603945e+00 -1.3953524710e-04 2.3698994657e+00 -4.1047862834e+00 2.3698994657e+00 4.1047862834e+00 
115100 5.4978603935e+00 -1.3868595155e-04 2.3699024096e+00 -4.1047913824e+00 2.3699024096e+00 4.1047913824e+00 
115200 5.4978603926e+00 -1.3784179622e-04 2.3699053356e+00 -4.1047964504e+00 2.3699053356e+00 4.1047964504e+00 
115300 5.4978603916e+00 -1.3700275027e-04 2.3699082438e+00 -4.1048014875e+00 2.3699082438e+00 4.1048014875e+00 
115400 5.4978603907e+00 -1.3616878303e-04 2.3699111342e+00 -4.1048064939e+00 2.3699111342e+00 4.1048064939e+00 
115500 5.4978603898e+00 -1.3533986401e-04 2.3699140071e+00 -4.1048114699e+00 2.3699140071e+00 4.1048114699e+00 
115600 5.4978603889e+00 -1.3451596289e-04 2.3699168625e+00 -4.1048164155e+00 2.3699168625e+00 4.1048164155e+00 
115700 5.4978603880e+00 -1.3369704955e-04 2.3699197005e+00 -4.1048213311e+00 2.3699197005e+00 4.1048213311e+00 
115800 5.4978603871e+00 -1.3288309403e-04 2.3699225212e+00 -4.1048262167e+00 2.3699225212e+00 4.1048262167e+00 
115900 5.4978603862e+00 -1.3207406653e-04 2.3699253247e+00 -4.1048310725e+00 2.3699253247e+00 4.1048310725e+00 
116000 5.4978603854e+00 -1.3126993745e-04 2.3699281112e+00 -4.1048358988e+00 2.3699281112e+00 4.1048358988e+00 
116100 5.4978603845e+00 -1.3047067735e-04 2.3699308807e+00 -4.1048406957e+00 2.3699308807e+00 4.1048406957e+00 
116200 5.4978603837e+00 -1.2967625696e-04 2.3699336333e+00 -4.1048454634e+00 2.3699336333e+00 4.1048454634e+00 
116300 5.4978603829e+00 -1.2888664718e-04 2.3699363692e+00 -4.1048502021e+00 2.3699363692e+00 4.1048502021e+00 
116400 5.4978603820e+00 -1.2810181909e-04 2.3699390884e+00 -4.1048549119e+00 2.3699390884e+00 4.1048549119e+00 
116500 5.4978603812e+00 -1.2732174393e-04 2.3699417910e+00 -4.1048595930e+00 2.3699417910e+00 4.1048595930e+00 
116600 5.4978603804e+00 -1.2654639311e-04 2.3699444772e+00 -4.1048642456e+00 2.3699444772e+00 4.1048642456e+00 
116700 5.4978603797e+00 -1.2577573821e-04 2.3699471470e+00 -4.1048688699e+00 2.3699471470e+00 4.1048688699e+00 
116800 5.4978603789e+00 -1.2500975100e-04 2.3699498006e+00 -4.1048734659e+00 2.3699498006e+00 4.1048734659e+00 
116900 5.4978603781e+00 -1.2424840336e-04 2.3699524379e+00 -4.1048780340e+00 2.3699524379e+00 4.1048780340e+00 
117000 5.4978603774e+00 -1.2349166740e-04 2.3699550593e+00 -4.1048825743e+00 2.3699550593e+00 4.1048825743e+00 
117100 5.4978603766e+00 -1.2273951535e-04 2.3699576646e+00 -4.1048870869e+00 2.3699576646e+00 4.1048870869e+00 
117200 5.4978603759e+00 -1.2199191962e-04 2.3699602541e+00 -4.1048915721e+00 2.3699602541e+00 4.1048915721e+00 
117300 5.4978603751e+00 -1.2124885280e-04 2.3699628278e+00 -4.1048960299e+00 2.3699628278e+00 4.1048960299e+00 
117400 5.4978603744e+00 -1.2051028761e-04 2.3699653859e+00 -4.1049004605e+00 2.3699653859e+00 4.1049004605e+00 
117500 5.4978603737e+00 -1.1977619695e-04 2.3699679283e+00 -4.1049048642e+00 2.3699679283e+00 4.1049048642e+00 
117600 5.4978603730e+00 -1.1904655388e-04 2.3699704553e+00 -4.1049092410e+00 2.3699704553e+00 4.1049092410e+00 
117700 5.4978603723e+00 -1.1832133163e-04 2.3699729668e+00 -4.1049135911e+00 2.3699729668e+00 4.1049135911e+00 
117800 5.4978603716e+00 -1.1760050357e-04 2.3699754631e+00 -4.1049179148e+00 2.3699754631e+00 4.1049179148e+00 
117900 5.4978603709e+00 -1.1688404324e-04 2.3699779441e+00 -4.1049222121e+00 2.3699779441e+00 4.1049222121e+00 
118000 5.4978603703e+00 -1.1617192434e-04 2.3699804101e+00 -4.1049264832e+00 2.3699804101e+00 4.1049264832e+00 
118100 5.4978603696e+00 -1.1546412073e-04 2.3699828610e+00 -4.1049307283e+00 2.3699828610e+00 4.1049307283e+00 
118200 5.4978603689e+00 -1.1476060641e-04 2.3699852970e+00 -4.1049349475e+00 2.3699852970e+00 4.1049349475e+00 
118300 5.4978603683e+00 -1.1406135555e-04 2.3699877181e+00 -4.1049391410e+00 2.3699877181e+00 4.1049391410e+00 
118400 5.4978603677e+00 -1.1336634248e-04 2.3699901244e+00 -4.1049433090e+00 2.3699901244e+00 4.1049433090e+00 
118500 5.4978603670e+00 -1.1267554166e-04 2.3699925162e+00 -4.1049474515e+00 2.3699925162e+00 4.1049474515e+00 
118600 5.4978603664e+00 -1.1198892773e-04 2.3699948933e+00 -4.1049515688e+00 2.3699948933e+00 4.1049515688e+00 
118700 5.4978603658e+00 -1.1130647547e-04 2.3699972559e+00 -4.1049556611e+00 2.3699972559e+00 4.1049556611e+00 
118800 5.4978603652e+00 -1.1062815982e-04 2.3699996042e+00 -4.1049597283e+00 2.3699996042e+00 4.1049597283e+00 
118900 5.4978603646e+00 -1.0995395585e-04 2.3700019381e+00 -4.1049637708e+00 2.3700019381e+00 4.1049637708e+00 
119000 5.4978603640e+00 -1.0928383880e-04 2.3700042578e+00 -4.1049677887e+00 2.3700042578e+00 4.1049677887e+00 
119100 5.4978603634e+00 -1.0861778407e-04 2.3700065634e+00 -4.1049717820e+00 2.3700065634e+00 4.1049717820e+00 
119200 5.4978603628e+00 -1.0795576717e-04 2.3700088549e+00 -4.1049757510e+00 2.3700088549e+00 4.1049757510e+00 
119300 5.4978603622e+00 -1.0729776378e-04 2.3700111324e+00 -4.1049796958e+00 2.3700111324e+00 4.1049796958e+00 
119400 5.4978603617e+00 -1.0664374975e-04 2.3700133961e+00 -4.1049836166e+00 2.3700133961e+00 4.1049836166e+00 
119500 5.4978603611e+00 -1.0599370102e-04 2.3700156459e+00 -4.1049875135e+00 2.3700156459e+00 4.1049875135e+00 
119600 5.4978603606e+00 -1.0534759374e-04 2.3700178821e+00 -4.1049913866e+00 2.3700178821e+00 4.1049913866e+00 
119700 5.4978603600e+00 -1.0470540415e-04 2.3700201046e+00 -4.1049952361e+00 2.3700201046e+00 4.1049952361e+00 
119800 5.4978603595e+00 -1.0406710865e-04 2.3700223135e+00 -4.1049990621e+00 2.3700223135e+00 4.1049990621e+00 
119900 5.4978603590e+00 -1.0343268381e-04 2.3700245090e+00 -4.1050028648e+00 2.3700245090e+00 4.1050028648e+00 
120000 5.4978603584e+00 -1.0280210631e-04 2.3700266911e+00 -4.1050066443e+00 2.3700266911e+00 4.1050066443e+00 
120100 5.4978603579e+00 -1.0217535297e-04 2.3700288599e+00 -4.1050104008e+00 2.3700288599e+00 4.1050104008e+00 
120200 5.4978603574e+00 -1.0155240077e-04 2.3700310155e+00 -4.1050141343e+00 2.3700310155e+00 4.1050141343e+00 
120300 5.4978603569e+00 -1.0093322682e-04 2.3700331579e+00 -4.1050178451e+00 2.3700331579e+00 4.1050178451e+00 
120400 5.4978603564e+00 -1.0031780835e-04 2.3700352873e+00 -4.1050215333e+00 2.3700352873e+00 4.1050215333e+00 
120500 5.4978603559e+00 -9.9706122768e-05 2.3700374036e+00 -4.1050251990e+00 2.3700374036e+00 4.1050251990e+00 
120600 5.4978603554e+00 -9.9098147583e-05 2.3700395071e+00 -4.1050288423e+00 2.3700395071e+00 4.1050288423e+00 
120700 5.4978603550e+00 -9.8493860451e-05 2.3700415978e+00 -4.1050324634e+00 2.3700415978e+00 4.1050324634e+00 
120800 5.4978603545e+00 -9.7893239167e-05 2.3700436757e+00 -4.1050360624e+00 2.3700436757e+00 4.1050360624e+00 
120900 5.4978603540e+00 -9.7296261656e-05 2.3700457409e+00 -4.1050396395e+00 2.3700457409e+00 4.1050396395e+00 
121000 5.4978603535e+00 -9.6702905973e-05 2.3700477935e+00 -4.1050431947e+00 2.3700477935e+00 4.1050431947e+00 
121100 5.4978603531e+00 -9.6113150312e-05 2.3700498336e+00 -4.1050467283e+00 2.3700498336e+00 4.1050467283e+00 
121200 5.4978603526e+00 -9.5526972992e-05 2.3700518613e+00 -4.1050502403e+00 2.3700518613e+00 4.1050502403e+00 
121300 5.4978603522e+00 -9.4944352470e-05 2.3700538766e+00 -4.1050537309e+00 2.3700538766e+00 4.1050537309e+00 
121400 5.4978603518e+00 -9.4365267320e-05 2.3700558796e+00 -4.1050572002e+00 2.3700558796e+00 4.1050572002e+00 
121500 5.4978603513e+00 -9.3789696260e-05 2.3700578703e+00 -4.1050606483e+00 2.3700578703e+00 4.1050606483e+00 
121600 5.4978603509e+00 -9.3217618126e-05 2.3700598490e+00 -4.1050640754e+00 2.3700598490e+00 4.1050640754e+00 
121700 5.4978603505e+00 -9.2649011884e-05 2.3700618155e+00 -4.1050674816e+00 2.3700618155e+00 4.1050674816e+00 
121800 5.4978603500e+00 -9.2083856630e-05 2.3700637701e+00 -4.1050708670e+00 2.3700637701e+00 4.1050708670e+00 
121900 5.4978603496e+00 -9.1522131574e-05 2.3700657128e+00 -4.1050742318e+00 2.3700657128e+00 4.1050742318e+00 
122000 5.4978603492e+00 -9.0963816063e-05 2.3700676436e+00 -4.1050775760e+00 2.3700676436e+00 4.1050775760e+00 
122100 5.4978603488e+00 -9.0408889565e-05 2.3700695626e+00 -4.1050808998e+00 2.3700695626e+00 4.1050808998e+00 
122200 5.4978603484e+00 -8.9857331665e-05 2.3700714699e+00 -4.1050842034e+00 2.3700714699e+00 4.1050842034e+00 
122300 5.4978603480e+00 -8.9309122076e-05 2.3700733655e+00 -4.1050874868e+00 2.3700733655e+00 4.1050874868e+00 
122400 5.4978603476e+00 -8.8764240634e-05 2.3700752496e+00 -4.1050907501e+00 2.3700752496e+00 4.1050907501e+00 
122500 5.4978603473e+00 -8.8222667287e-05 2.3700771222e+00 -4.1050939936e+00 2.3700771222e+00 4.1050939936e+00 
122600 5.4978603469e+00 -8.7684382113e-05 2.3700789834e+00 -4.1050972172e+00 2.3700789834e+00 4.1050972172e+00 
122700 5.4978603465e+00 -8.7149365300e-05 2.3700808332e+00 -4.1051004212e+00 2.3700808332e+00 4.1051004212e+00 
122800 5.4978603461e+00 -8.6617597165e-05 2.3700826718e+00 -4.1051036057e+00 2.3700826718e+00 4.1051036057e+00 
122900 5.4978603458e+00 -8.6089058131e-05 2.3700844991e+00 -4.1051067707e+00 2.3700844991e+00 4.1051067707e+00 
123000 5.4978603454e+00 -8.5563728744e-05 2.3700863152e+00 -4.1051099163e+00 2.3700863152e+00 4.1051099163e+00 
123100 5.4978603450e+00 -8.5041589662e-05 2.3700881203e+00 -4.1051130428e+00 2.3700881203e+00 4.1051130428e+00 
123200 5.4978603447e+00 -8.4522621669e-05 2.3700899144e+00 -4.1051161502e+00 2.3700899144e+00 4.1051161502e+00 
123300 5.4978603443e+00 -8.4006805648e-05 2.3700916975e+00 -4.1051192387e+00 2.3700916975e+00 4.1051192387e+00 
123400 5.4978603440e+00 -8.3494122605e-05 2.3700934697e+00 -4.1051223082e+00 2.3700934697e+00 4.1051223082e+00 
123500 5.4978603437e+00 -8.2984553662e-05 2.3700952311e+00 -4.1051253591e+00 2.3700952311e+00 4.1051253591e+00 
123600 5.4978603433e+00 -8.2478080047e-05 2.3700969818e+00 -4.1051283913e+00 2.3700969818e+00 4.1051283913e+00 
123700 5.4978603430e+00 -8.1974683096e-05 2.3700987218e+00 -4.1051314050e+00 2.3700987218e+00 4.1051314050e+00 
123800 5.4978603427e+00 -8.1474344270e-05 2.3701004511e+00 -4.1051344004e+00 2.3701004511e+00 4.1051344004e+00 
123900 5.4978603423e+00 -8.0977045125e-05 2.3701021699e+00 -4.1051373774e+00 2.3701021699e+00 4.1051373774e+00 
124000 5.4978603420e+00 -8.0482767337e-05 2.3701038782e+00 -4.1051403363e+00 2.3701038782e+00 4.1051403363e+00 
124100 5.4978603417e+00 -7.9991492685e-05 2.3701055761e+00 -4.1051432771e+00 2.3701055761e+00 4.1051432771e+00 
124200 5.4978603414e+00 -7.9503203058e-05 2.3701072636e+00 -4.1051461999e+00 2.3701072636e+00 4.1051461999e+00 
124300 5.4978603411e+00 -7.9017880452e-05 2.3701089408e+00 -4.1051491049e+00 2.3701089408e+00 4.1051491049e+00 
124400 5.4978603408e+00 -7.8535506973e-05 2.3701106078e+00 -4.1051519922e+00 2.3701106078e+00 4.1051519922e+00 
124500 5.4978603405e+00 -7.8056064830e-05 2.3701122646e+00 -4.1051548619e+00 2.3701122646e+00 4.1051548619e+00 
124600 5.4978603402e+00 -7.7579536339e-05 2.3701139112e+00 -4.1051577140e+00 2.3701139112e+00 4.1051577140e+00 
124700 5.4978603399e+00 -7.7105903918e-05 2.3701155479e+00 -4.1051605487e+00 2.3701155479e+00 4.1051605487e+00 
124800 5.4978603396e+00 -7.6635150091e-05 2.3701171745e+00 -4.1051633661e+00 2.3701171745e+00 4.1051633661e+00 
124900 5.4978603393e+00 -7.6167257491e-05 2.3701187912e+00 -4.1051661663e+00 2.3701187912e+00 4.1051661663e+00 
125000 5.4978603390e+00 -7.5702208844e-05 2.3701203980e+00 -4.1051689494e+00 2.3701203980e+00 4.1051689494e+00 
125100 5.4978603388e+00 -7.5239986986e-05 2.3701219950e+00 -4.1051717155e+00 2.3701219950e+00 4.1051717155e+00 
125200 5.4978603385e+00 -7.4780574852e-05 2.3701235823e+00 -4.1051744647e+00 2.3701235823e+00 4.1051744647e+00 
125300 5.4978603382e+00 -7.4323955477e-05 2.3701251598e+00 -4.1051771971e+00 2.3701251598e+00 4.1051771971e+00 
125400 5.4978603380e+00 -7.3870112004e-05 2.3701267278e+00 -4.1051799129e+00 2.3701267278e+00 4.1051799129e+00 
125500 5.4978603377e+00 -7.3419027667e-05 2.3701282861e+00 -4.1051826120e+00 2.3701282861e+00 4.1051826120e+00 
125600 5.4978603374e+00 -7.2970685801e-05 2.3701298350e+00 -4.1051852947e+00 2.3701298350e+00 4.1051852947e+00 
125700 5.4978603372e+00 -7.2525069844e-05 2.3701313744e+00 -4.1051879610e+00 2.3701313744e+00 4.1051879610e+00 
125800 5.4978603369e+00 -7.2082163328e-05 2.3701329043e+00 -4.1051906110e+00 2.3701329043e+00 4.1051906110e+00 
125900 5.4978603367e+00 -7.1641949889e-05 2.3701344250e+00 -4.1051932448e+00 2.3701344250e+00 4.1051932448e+00 
126000 5.4978603364e+00 -7.1204413253e-05 2.3701359363e+00 -4.1051958626e+00 2.3701359363e+00 4.1051958626e+00 
126100 5.4978603362e+00 -7.0769537248e-05 2.3701374384e+00 -4.1051984643e+00 2.3701374384e+00 4.1051984643e+00 
126200 5.4978603359e+00 -7.0337305794e-05 2.3701389314e+00 -4.1052010501e+00 2.3701389314e+00 4.1052010501e+00 
126300 5.4978603358e+00 -7.0391879944e-05 2.3701389314e+00 -4.1052010501e+00 2.3701389314e+00 4.1052010501e+00 
126400 5.4978603356e+00 -7.0448881562e-05 2.3701389314e+00 -4.1052010501e+00 2.3701389314e+00 4.1052010501e+00 
126500 5.4978603355e+00 -7.0508748123e-05 2.3701389314e+00 -4.1052010501e+00 2.3701389314e+00 4.1052010501e+00 
126600 5.4978603353e+00 -7.0571923071e-05 2.3701389314e+00 -4.1052010501e+00 2.3701389314e+00 4.1052010501e+00 
126700 5.4978603352e+00 -7.0638849784e-05 2.3701389314e+00 -4.1052010501e+00 2.3701389314e+00 4.1052010501e+00 
126800 5.4978603350e+00 -7.0709966212e-05 2.3701389314e+00 -4.1052010501e+00 2.3701389314e+00 4.1052010501e+00 
126900 5.4978603349e+00 -7.0785700144e-05 2.3701389314e+00 -4.1052010501e+00 2.3701389314e+00 4.1052010501e+00 
127000 5.4978603347e+00 -7.0379196318e-05 2.3701404247e+00 -4.1052036366e+00 2.3701404247e+00 4.1052036366e+00 
127100 5.4978603345e+00 -7.0462597778e-05 2.3701404247e+00 -4.1052036366e+00 2.3701404247e+00 4.1052036366e+00 
127200 5.4978603344e+00 -7.0551345009e-05 2.3701404247e+00 -4.1052036366e+00 2.3701404247e+00 4.1052036366e+00 
127300 5.4978603343e+00 -7.0645779942e-05 2.3701404247e+00 -4.1052036366e+00 2.3701404247e+00 4.1052036366e+00 
127400 5.4978603341e+00 -7.0746224470e-05 2.3701404247e+00 -4.1052036366e+00 2.3701404247e+00 4.1052036366e+00 
127500 5.4978603339e+00 -7.0365979080e-05 2.3701419171e+00 -4.1052062216e+00 2.3701419171e+00 4.1052062216e+00 
127600 5.4978603338e+00 -7.0476527794e-05 2.3701419171e+00 -4.1052062216e+00 2.3701419171e+00 4.1052062216e+00 
127700 5.4978603337e+00 -7.0593453199e-05 2.3701419171e+00 -4.1052062216e+00 2.3701419171e+00 4.1052062216e+00 
127800 5.4978603336e+00 -7.0716966776e-05 2.3701419171e+00 -4.1052062216e+00 2.3701419171e+00 4.1052062216e+00 
127900 5.4978603333e+00 -7.0360458679e-05 2.3701434089e+00 -4.1052088055e+00 2.3701434089e+00 4.1052088055e+00 
128000 5.4978603332e+00 -7.0494902669e-05 2.3701434089e+00 -4.1052088055e+00 2.3701434089e+00 4.1052088055e+00 
128100 5.4978603331e+00 -7.0635971038e-05 2.3701434089e+00 -4.1052088055e+00 2.3701434089e+00 4.1052088055e+00 
128200 5.4978603330e+00 -7.0783767052e-05 2.3701434089e+00 -4.1052088055e+00 2.3701434089e+00 4.1052088055e+00 
128300 5.4978603328e+00 -7.0451114114e-05 2.3701449022e+00 -4.1052113919e+00 2.3701449022e+00 4.1052113919e+00 
128400 5.4978603327e+00 -7.0609800656e-05 2.3701449022e+00 -4.1052113919e+00 2.3701449022e+00 4.1052113919e+00 
128500 5.4978603326e+00 -7.0774939615e-05 2.3701449022e+00 -4.1052113919e+00 2.3701449022e+00 4.1052113919e+00 
128600 5.4978603324e+00 -7.0459338505e-05 2.3701463952e+00 -4.1052139779e+00 2.3701463952e+00 4.1052139779e+00 
128700 5.4978603323e+00 -7.0634592623e-05 2.3701463952e+00 -4.1052139779e+00 2.3701463952e+00 4.1052139779e+00 
128800 5.4978603322e+00 -7.0815807895e-05 2.3701463952e+00 -4.1052139779e+00 2.3701463952e+00 4.1052139779e+00 
128900 5.4978603320e+00 -7.0515447895e-05 2.3701478891e+00 -4.1052165654e+00 2.3701478891e+00 4.1052165654e+00 
129000 5.4978603319e+00 -7.0705610758e-05 2.3701478891e+00 -4.1052165654e+00 2.3701478891e+00 4.1052165654e+00 
129100 5.4978603318e+00 -7.0901069096e-05 2.3701478891e+00 -4.1052165654e+00 2.3701478891e+00 4.1052165654e+00 
129200 5.4978603316e+00 -7.0613651083e-05 2.3701493849e+00 -4.1052191561e+00 2.3701493849e+00 4.1052191561e+00 
129300 5.4978603315e+00 -7.0816580874e-05 2.3701493849e+00 -4.1052191561e+00 2.3701493849e+00 4.1052191561e+00 
129400 5.4978603313e+00 -7.0536523931e-05 2.3701508788e+00 -4.1052217436e+00 2.3701508788e+00 4.1052217436e+00 
129500 5.4978603312e+00 -7.0745516447e-05 2.3701508788e+00 -4.1052217436e+00 2.3701508788e+00 4.1052217436e+00 
129600 5.4978603311e+00 -7.0471271561e-05 2.3701523712e+00 -4.1052243286e+00 2.3701523712e+00 4.1052243286e+00 
129700 5.4978603310e+00 -7.0684831873e-05 2.3701523712e+00 -4.1052243286e+00 2.3701523712e+00 4.1052243286e+00 
129800 5.4978603309e+00 -7.0901379847e-05 2.3701523712e+00 -4.1052243286e+00 2.3701523712e+00 4.1052243286e+00 
129900 5.4978603307e+00 -7.0632684022e-05 2.3701538669e+00 -4.1052269193e+00 2.3701538669e+00 4.1052269193e+00 
130000 5.4978603306e+00 -7.0851923502e-05 2.3701538669e+00 -4.1052269193e+00 2.3701538669e+00 4.1052269193e+00 
130100 5.4978603304e+00 -7.0585488492e-05 2.3701553616e+00 -4.1052295081e+00 2.3701553616e+00 4.1052295081e+00 
130200 5.4978603304e+00 -7.0805875613e-05 2.3701553616e+00 -4.1052295081e+00 2.3701553616e+00 4.1052295081e+00 
130300 5.4978603302e+00 -7.0540134366e-05 2.3701568553e+00 -4.1052320953e+00 2.3701568553e+00 4.1052320953e+00 
130400 5.4978603301e+00 -7.0760133506e-05 2.3701568553e+00 -4.1052320953e+00 2.3701568553e+00 4.1052320953e+00 
130500 5.4978603299e+00 -7.0493563700e-05 2.3701583480e+00 -4.1052346807e+00 2.3701583480e+00 4.1052346807e+00 
130600 5.4978603299e+00 -7.0711676766e-05 2.3701583480e+00 -4.1052346807e+00 2.3701583480e+00 4.1052346807e+00 
130700 5.4978603297e+00 -7.0442827393e-05 2.3701598397e+00 -4.1052372645e+00 2.3701598397e+00 4.1052372645e+00 
130800 5.4978603296e+00 -7.0657618923e-05 2.3701598397e+00 -4.1052372645e+00 2.3701598397e+00 4.1052372645e+00 
130900 5.4978603296e+00 -7.0871517003e-05 2.3701598397e+00 -4.1052372645e+00 2.3701598397e+00 4.1052372645e+00 
131000 5.4978603294e+00 -7.0596562249e-05 2.3701613348e+00 -4.1052398540e+00 2.3701613348e+00 4.1052398540e+00 
131100 5.4978603293e+00 -7.0805593377e-05 2.3701613348e+00 -4.1052398540e+00 2.3701613348e+00 4.1052398540e+00 
131200 5.4978603292e+00 -7.0525620755e-05 2.3701628285e+00 -4.1052424412e+00 2.3701628285e+00 4.1052424412e+00 
131300 5.4978603291e+00 -7.0728599091e-05 2.3701628285e+00 -4.1052424412e+00 2.3701628285e+00 4.1052424412e+00 
131400 5.4978603289e+00 -7.0442546658e-05 2.3701643206e+00 -4.1052450255e+00 2.3701643206e+00 4.1052450255e+00 
131500 5.4978603289e+00 -7.0638386139e-05 2.3701643206e+00 -4.1052450255e+00 2.3701643206e+00 4.1052450255e+00 
131600 5.4978603288e+00 -7.0831563970e-05 2.3701643206e+00 -4.1052450255e+00 2.3701643206e+00 4.1052450255e+00 
131700 5.4978603286e+00 -7.0534495616e-05 2.3701658148e+00 -4.1052476136e+00 2.3701658148e+00 4.1052476136e+00 
131800 5.4978603286e+00 -7.0719567336e-05 2.3701658148e+00 -4.1052476136e+00 2.3701658148e+00 4.1052476136e+00 
131900 5.4978603284e+00 -7.0414761924e-05 2.3701673067e+00 -4.1052501976e+00 2.3701673067e+00 4.1052501976e+00 
132000 5.4978603284e+00 -7.0590952990e-05 2.3701673067e+00 -4.1052501976e+00 2.3701673067e+00 4.1052501976e+00 
132100 5.4978603283e+00 -7.0763727260e-05 2.3701673067e+00 -4.1052501976e+00 2.3701673067e+00 4.1052501976e+00 
132200 5.4978603281e+00 -7.0446045082e-05 2.3701687995e+00 -4.1052527832e+00 2.3701687995e+00 4.1052527832e+00 
132300 5.4978603281e+00 -7.0609434830e-05 2.3701687995e+00 -4.1052527832e+00 2.3701687995e+00 4.1052527832e+00 
132400 5.4978603280e+00 -7.0769228521e-05 2.3701687995e+00 -4.1052527832e+00 2.3701687995e+00 4.1052527832e+00 
132500 5.4978603279e+00 -7.0438394379e-05 2.3701702924e+00 -4.1052553690e+00 2.3701702924e+00 4.1052553690e+00 
132600 5.4978603278e+00 -7.0588578537e-05 2.3701702924e+00 -4.1052553690e+00 2.3701702924e+00 4.1052553690e+00 
132700 5.4978603278e+00 -7.0735116945e-05 2.3701702924e+00 -4.1052553690e+00 2.3701702924e+00 4.1052553690e+00 
132800 5.4978603276e+00 -7.0391252270e-05 2.3701717846e+00 -4.1052579535e+00 2.3701717846e+00 4.1052579535e+00 
132900 5.4978603276e+00 -7.0528198630e-05 2.3701717846e+00 -4.1052579535e+00 2.3701717846e+00 4.1052579535e+00 
133000 5.4978603275e+00 -7.0661561313e-05 2.3701717846e+00 -4.1052579535e+00 2.3701717846e+00 4.1052579535e+00 
133100 5.4978603275e+00 -7.0791530094e-05 2.3701717846e+00 -4.1052579535e+00 2.3701717846e+00 4.1052579535e+00 
133200 5.4978603273e+00 -7.0431007592e-05 2.3701732780e+00 -4.1052605402e+00 2.3701732780e+00 4.1052605402e+00 
133300 5.4978603273e+00 -7.0552025404e-05 2.3701732780e+00 -4.1052605402e+00 2.3701732780e+00 4.1052605402e+00 
133400 5.4978603272e+00 -7.0669841197e-05 2.3701732780e+00 -4.1052605402e+00 2.3701732780e+00 4.1052605402e+00 
133500 5.4978603272e+00 -7.0784679169e-05 2.3701732780e+00 -4.1052605402e+00 2.3701732780e+00 4.1052605402e+00 
133600 5.4978603270e+00 -7.0409519566e-05 2.3701747712e+00 -4.1052631265e+00 2.3701747712e+00 4.1052631265e+00 
133700 5.4978603270e+00 -7.0516326117e-05 2.3701747712e+00 -4.1052631265e+00 2.3701747712e+00 4.1052631265e+00 
133800 5.4978603269e+00 -7.0620426244e-05 2.3701747712e+00 -4.1052631265e+00 2.3701747712e+00 4.1052631265e+00 
133900 5.4978603269e+00 -7.0722063361e-05 2.3701747712e+00 -4.1052631265e+00 2.3701747712e+00 4.1052631265e+00 
134000 5.4978603268e+00 -7.0334664758e-05 2.3701762631e+00 -4.1052657106e+00 2.3701762631e+00 4.1052657106e+00 
134100 5.4978603267e+00 -7.0429347061e-05 2.3701762631e+00 -4.1052657106e+00 2.3701762631e+00 4.1052657106e+00 
134200 5.4978603267e+00 -7.0521876453e-05 2.3701762631e+00 -4.1052657106e+00 2.3701762631e+00 4.1052657106e+00 
134300 5.4978603266e+00 -7.0612503218e-05 2.3701762631e+00 -4.1052657106e+00 2.3701762631e+00 4.1052657106e+00 
134400 5.4978603266e+00 -7.0701482356e-05 2.3701762631e+00 -4.1052657106e+00 2.3701762631e+00 4.1052657106e+00 
134500 5.4978603265e+00 -7.0789071242e-05 2.3701762631e+00 -4.1052657106e+00 2.3701762631e+00 4.1052657106e+00 
134600 5.4978603264e+00 -7.0388242250e-05 2.3701777564e+00 -4.1052682971e+00 2.3701777564e+00 4.1052682971e+00 
134700 5.4978603264e+00 -7.0471033025e-05 2.3701777564e+00 -4.1052682971e+00 2.3701777564e+00 4.1052682971e+00 
134800 5.4978603263e+00 -7.0552744266e-05 2.3701777564e+00 -4.1052682971e+00 2.3701777564e+00 4.1052682971e+00 
134900 5.4978603263e+00 -7.0633614783e-05 2.3701777564e+00 -4.1052682971e+00 2.3701777564e+00 4.1052682971e+00 
135000 5.4978603263e+00 -7.0713883029e-05 2.3701777564e+00 -4.1052682971e+00 2.3701777564e+00 4.1052682971e+00 
135100 5.4978603261e+00 -7.0307017419e-05 2.3701792482e+00 -4.1052708809e+00 2.3701792482e+00 4.1052708809e+00 
135200 5.4978603261e+00 -7.0384000006e-05 2.3701792482e+00 -4.1052708809e+00 2.3701792482e+00 4.1052708809e+00 
135300 5.4978603260e+00 -7.0460620676e-05 2.3701792482e+00 -4.1052708809e+00 2.3701792482e+00 4.1052708809e+00 
135400 5.4978603260e+00 -7.0537090690e-05 2.3701792482e+00 -4.1052708809e+00 2.3701792482e+00 4.1052708809e+00 
135500 5.4978603260e+00 -7.0613619320e-05 2.3701792482e+00 -4.1052708809e+00 2.3701792482e+00 4.1052708809e+00 
135600 5.4978603259e+00 -7.0690412157e-05 2.3701792482e+00 -4.1052708809e+00 2.3701792482e+00 4.1052708809e+00 
135700 5.4978603259e+00 -7.0767669606e-05 2.3701792482e+00 -4.1052708809e+00 2.3701792482e+00 4.1052708809e+00 
135800 5.4978603258e+00 -7.0358446969e-05 2.3701807411e+00 -4.1052734666e+00 2.3701807411e+00 4.1052734666e+00 
135900 5.4978603257e+00 -7.0434419855e-05 2.3701807411e+00 -4.1052734666e+00 2.3701807411e+00 4.1052734666e+00 
136000 5.4978603257e+00 -7.0510959749e-05 2.3701807411e+00 -4.1052734666e+00 2.3701807411e+00 4.1052734666e+00 
136100 5.4978603257e+00 -7.0588225882e-05 2.3701807411e+00 -4.1052734666e+00 2.3701807411e+00 4.1052734666e+00 
136200 5.4978603256e+00 -7.0666373200e-05 2.3701807411e+00 -4.1052734666e+00 2.3701807411e+00 4.1052734666e+00 
136300 5.4978603256e+00 -7.0745551075e-05 2.3701807411e+00 -4.1052734666e+00 2.3701807411e+00 4.1052734666e+00 
136400 5.4978603255e+00 -7.0338915720e-05 2.3701822335e+00 -4.1052760516e+00 2.3701822335e+00 4.1052760516e+00 
136500 5.4978603255e+00 -7.0381391919e-05 2.3701822335e+00 -4.1052760516e+00 2.3701822335e+00 4.1052760516e+00 
136500 5.4978603255e+00 -7.0381391919e-05 2.3701822335e+00 -4.1052760516e+00 2.3701822335e+00 4.1052760516e+00 
