# step Hamiltonian StressXX CellTensor1 CellTensor2 CellTensor3 CellTensor4 
0 5.4773093504e+00 3.6132637812e-03 1.7770303270e+00 -3.0779068129e+00 1.7770303270e+00 3.0779068129e+00 
100 5.4786856365e+00 3.6501939539e-03 1.7770303270e+00 -3.0779068129e+00 1.7770303270e+00 3.0779068129e+00 
200 5.4798896727e+00 3.5541852792e-03 1.7769276231e+00 -3.0777289245e+00 1.7769276231e+00 3.0777289245e+00 
300 5.4809382662e+00 3.4084786378e-03 1.7768276147e+00 -3.0775557050e+00 1.7768276147e+00 3.0775557050e+00 
400 5.4818464768e+00 3.2223482882e-03 1.7767317009e+00 -3.0773895773e+00 1.7767317009e+00 3.0773895773e+00 
500 5.4826281430e+00 3.0041076429e-03 1.7766410197e+00 -3.0772325130e+00 1.7766410197e+00 3.0772325130e+00 
600 5.4832959739e+00 2.7611902158e-03 1.7765564758e+00 -3.0770860786e+00 1.7765564758e+00 3.0770860786e+00 
700 5.4838616363e+00 2.5002247402e-03 1.7764787645e+00 -3.0769514787e+00 1.7764787645e+00 3.0769514787e+00 
800 5.4843358332e+00 2.2271046823e-03 1.7764083947e+00 -3.0768295947e+00 1.7764083947e+00 3.0768295947e+00 
900 5.4847283771e+00 1.9470524060e-03 1.7763457095e+00 -3.0767210207e+00 1.7763457095e+00 3.0767210207e+00 
1000 5.4850482575e+00 1.6646782636e-03 1.7762909048e+00 -3.0766260961e+00 1.7762909048e+00 3.0766260961e+00 
1100 5.4853037026e+00 1.3840349034e-03 1.7762440467e+00 -3.0765449356e+00 1.7762440467e+00 3.0765449356e+00 
1200 5.4855022363e+00 1.1086670921e-03 1.7762050873e+00 -3.0764774558e+00 1.7762050873e+00 3.0764774558e+00 
1300 5.4856507304e+00 8.4165735209e-04 1.7761738785e+00 -3.0764234006e+00 1.7761738785e+00 3.0764234006e+00 
1400 5.4857554534e+00 5.8566771120e-04 1.7761501856e+00 -3.0763823633e+00 1.7761501856e+00 3.0763823633e+00 
1500 5.4858221143e+00 3.4297785776e-04 1.7761336986e+00 -3.0763538070e+00 1.7761336986e+00 3.0763538070e+00 
1600 5.4858559042e+00 1.1551998295e-04 1.7761240434e+00 -3.0763370838e+00 1.7761240434e+00 3.0763370838e+00 
1700 5.4858615339e+00 -9.5089418063e-05 1.7761207914e+00 -3.0763314511e+00 1.7761207914e+00 3.0763314511e+00 
1800 5.4858432694e+00 -2.8752052833e-04 1.7761234683e+00 -3.0763360876e+00 1.7761234683e+00 3.0763360876e+00 
1900 5.4858049636e+00 -4.6070373152e-04 1.7761315623e+00 -3.0763501069e+00 1.7761315623e+00 3.0763501069e+00 
2000 5.4857500875e+00 -6.1380544642e-04 1.7761445317e+00 -3.0763725704e+00 1.7761445317e+00 3.0763725704e+00 
2100 5.4856817574e+00 -7.4620606129e-04 1.7761618108e+00 -3.0764024988e+00 1.7761618108e+00 3.0764024988e+00 
2200 5.4856027618e+00 -8.5747977162e-04 1.7761828170e+00 -3.0764388826e+00 1.7761828170e+00 3.0764388826e+00 
2300 5.4855155852e+00 -9.4737614023e-04 1.7762069553e+00 -3.0764806914e+00 1.7762069553e+00 3.0764806914e+00 
2400 5.4854224316e+00 -1.0158032140e-03 1.7762336239e+00 -3.0765268828e+00 1.7762336239e+00 3.0765268828e+00 
2500 5.4853252451e+00 -1.0628120459e-03 1.7762622183e+00 -3.0765764097e+00 1.7762622183e+00 3.0765764097e+00 
2600 5.4852257309e+00 -1.0885824850e-03 1.7762921355e+00 -3.0766282278e+00 1.7762921355e+00 3.0766282278e+00 
2700 5.4851253734e+00 -1.0934101101e-03 1.7763227776e+00 -3.0766813014e+00 1.7763227776e+00 3.0766813014e+00 
2800 5.4850254545e+00 -1.0776941949e-03 1.7763535550e+00 -3.0767346095e+00 1.7763535550e+00 3.0767346095e+00 
2900 5.4849270699e+00 -1.0419266048e-03 1.7763838895e+00 -3.0767871504e+00 1.7763838895e+00 3.0767871504e+00 
3000 5.4848311453e+00 -9.8668153430e-04 1.7764132168e+00 -3.0768379467e+00 1.7764132168e+00 3.0768379467e+00 
3100 5.4847384506e+00 -9.1260600562e-04 1.7764409886e+00 -3.0768860489e+00 1.7764409886e+00 3.0768860489e+00 
3200 5.4846496146e+00 -8.2041105723e-04 1.7764666750e+00 -3.0769305391e+00 1.7764666750e+00 3.0769305391e+00 
3300 5.4845651377e+00 -7.1086355840e-04 1.7764897662e+00 -3.0769705341e+00 1.7764897662e+00 3.0769705341e+00 
3400 5.4844854044e+00 -5.8477859476e-04 1.7765097737e+00 -3.0770051883e+00 1.7765097737e+00 3.0770051883e+00 
3500 5.4844106951e+00 -4.4301237511e-04 1.7765262324e+00 -3.0770336955e+00 1.7765262324e+00 3.0770336955e+00 
3600 5.4843411970e+00 -2.8645561654e-04 1.7765387009e+00 -3.0770552916e+00 1.7765387009e+00 3.0770552916e+00 
3700 5.4842770146e+00 -1.1602736983e-04 1.7765467631e+00 -3.0770692557e+00 1.7765467631e+00 3.0770692557e+00 
3800 5.4842181790e+00 6.7330748039e-05 1.7765500286e+00 -3.0770749118e+00 1.7765500286e+00 3.0770749118e+00 
3900 5.4841646584e+00 2.6401646725e-04 1.7765500286e+00 -3.0770749118e+00 1.7765500286e+00 3.0770749118e+00 
4000 5.4841163632e+00 4.7032693173e-04 1.7765425981e+00 -3.0770620416e+00 1.7765425981e+00 3.0770620416e+00 
4100 5.4840731572e+00 6.8665954073e-04 1.7765293609e+00 -3.0770391143e+00 1.7765293609e+00 3.0770391143e+00 
4200 5.4840348637e+00 9.1203285619e-04 1.7765100351e+00 -3.0770056409e+00 1.7765100351e+00 3.0770056409e+00 
4300 5.4840012724e+00 1.1454664997e-03 1.7764843659e+00 -3.0769611806e+00 1.7764843659e+00 3.0769611806e+00 
4400 5.4839721454e+00 1.3859849722e-03 1.7764521263e+00 -3.0769053400e+00 1.7764521263e+00 3.0769053400e+00 
4500 5.4839472234e+00 1.6326212057e-03 1.7764131165e+00 -3.0768377731e+00 1.7764131165e+00 3.0768377731e+00 
4600 5.4839262306e+00 1.8844198605e-03 1.7763671640e+00 -3.0767581809e+00 1.7763671640e+00 3.0767581809e+00 
4700 5.4839088798e+00 2.1404403754e-03 1.7763141229e+00 -3.0766663110e+00 1.7763141229e+00 3.0766663110e+00 
4800 5.4838948765e+00 2.3997597832e-03 1.7762538737e+00 -3.0765619564e+00 1.7762538737e+00 3.0765619564e+00 
4900 5.4838839228e+00 2.6614752961e-03 1.7761863230e+00 -3.0764449551e+00 1.7761863230e+00 3.0764449551e+00 
5000 5.4838757212e+00 2.9247066724e-03 1.7761114025e+00 -3.0763151890e+00 1.7761114025e+00 3.0763151890e+00 
5100 5.4838699774e+00 3.1885983687e-03 1.7760290685e+00 -3.0761725824e+00 1.7760290685e+00 3.0761725824e+00 
5200 5.4838664033e+00 3.4523214855e-03 1.7759393017e+00 -3.0760171017e+00 1.7759393017e+00 3.0760171017e+00 
5300 5.4838647188e+00 3.7150755131e-03 1.7758421055e+00 -3.0758487530e+00 1.7758421055e+00 3.0758487530e+00 
5400 5.4838646548e+00 3.9760898830e-03 1.7757375061e+00 -3.0756675815e+00 1.7757375061e+00 3.0756675815e+00 
5500 5.4838659539e+00 4.2346253318e-03 1.7756255513e+00 -3.0754736701e+00 1.7756255513e+00 3.0754736701e+00 
5600 5.4838683724e+00 4.4899750834e-03 1.7755063094e+00 -3.0752671371e+00 1.7755063094e+00 3.0752671371e+00 
5700 5.4838716813e+00 4.7414658552e-03 1.7753798688e+00 -3.0750481356e+00 1.7753798688e+00 3.0750481356e+00 
5800 5.4838756672e+00 4.9884586958e-03 1.7752463367e+00 -3.0748168511e+00 1.7752463367e+00 3.0748168511e+00 
5900 5.4838801327e+00 5.2303496593e-03 1.7751058381e+00 -3.0745735003e+00 1.7751058381e+00 3.0745735003e+00 
6000 5.4838848971e+00 5.4665703223e-03 1.7749585151e+00 -3.0743183295e+00 1.7749585151e+00 3.0743183295e+00 
6100 5.4838897964e+00 5.6965881519e-03 1.7748045258e+00 -3.0740516122e+00 1.7748045258e+00 3.0740516122e+00 
6200 5.4838946834e+00 5.9199067297e-03 1.7746440433e+00 -3.0737736483e+00 1.7746440433e+00 3.0737736483e+00 
6300 5.4838994277e+00 6.1360658383e-03 1.7744772545e+00 -3.0734847617e+00 1.7744772545e+00 3.0734847617e+00 
6400 5.4839039151e+00 6.3446414195e-03 1.7743043595e+00 -3.0731852987e+00 1.7743043595e+00 3.0731852987e+00 
6500 5.4839080473e+00 6.5452454078e-03 1.7741255701e+00 -3.0728756265e+00 1.7741255701e+00 3.0728756265e+00 
6600 5.4839117414e+00 6.7375254493e-03 1.7739411093e+00 -3.0725561310e+00 1.7739411093e+00 3.0725561310e+00 
6700 5.4839149294e+00 6.9211645113e-03 1.7737512100e+00 -3.0722272157e+00 1.7737512100e+00 3.0722272157e+00 
6800 5.4839175570e+00 7.0958803896e-03 1.7735561139e+00 -3.0718892994e+00 1.7735561139e+00 3.0718892994e+00 
6900 5.4839195834e+00 7.2614251226e-03 1.7733560710e+00 -3.0715428149e+00 1.7733560710e+00 3.0715428149e+00 
7000 5.4839209800e+00 7.4175843168e-03 1.7731513381e+00 -3.0711882072e+00 1.7731513381e+00 3.0711882072e+00 
7100 5.4839217298e+00 7.5641763924e-03 1.7729421784e+00 -3.0708259318e+00 1.7729421784e+00 3.0708259318e+00 
7200 5.4839218265e+00 7.7010517561e-03 1.7727288599e+00 -3.0704564535e+00 1.7727288599e+00 3.0704564535e+00 
7300 5.4839212730e+00 7.8280919067e-03 1.7725116554e+00 -3.0700802442e+00 1.7725116554e+00 3.0700802442e+00 
7400 5.4839200815e+00 7.9452084818e-03 1.7722908408e+00 -3.0696977821e+00 1.7722908408e+00 3.0696977821e+00 
7500 5.4839182714e+00 8.0523422520e-03 1.7720666947e+00 -3.0693095497e+00 1.7720666947e+00 3.0693095497e+00 
7600 5.4839158693e+00 8.1494620680e-03 1.7718394976e+00 -3.0689160327e+00 1.7718394976e+00 3.0689160327e+00 
7700 5.4839129076e+00 8.2365637687e-03 1.7716095308e+00 -3.0685177185e+00 1.7716095308e+00 3.0685177185e+00 
7800 5.4839094236e+00 8.3136690554e-03 1.7713770759e+00 -3.0681150949e+00 1.7713770759e+00 3.0681150949e+00 
7900 5.4839054590e+00 8.3808243377e-03 1.7711424143e+00 -3.0677086490e+00 1.7711424143e+00 3.0677086490e+00 
8000 5.4839010586e+00 8.4380995579e-03 1.7709058258e+00 -3.0672988657e+00 1.7709058258e+00 3.0672988657e+00 
8100 5.4838962700e+00 8.4855869990e-03 1.7706675887e+00 -3.0668862269e+00 1.7706675887e+00 3.0668862269e+00 
8200 5.4838911424e+00 8.5234000806e-03 1.7704279786e+00 -3.0664712101e+00 1.7704279786e+00 3.0664712101e+00 
8300 5.4838857264e+00 8.5516721490e-03 1.7701872683e+00 -3.0660542875e+00 1.7701872683e+00 3.0660542875e+00 
8400 5.4838800728e+00 8.5705552654e-03 1.7699457267e+00 -3.0656359252e+00 1.7699457267e+00 3.0656359252e+00 
8500 5.4838742324e+00 8.5802189963e-03 1.7697036187e+00 -3.0652165819e+00 1.7697036187e+00 3.0652165819e+00 
8600 5.4838682556e+00 8.5808492111e-03 1.7694612045e+00 -3.0647967083e+00 1.7694612045e+00 3.0647967083e+00 
8700 5.4838621913e+00 8.5726468898e-03 1.7692187394e+00 -3.0643767463e+00 1.7692187394e+00 3.0643767463e+00 
8800 5.4838560871e+00 8.5558269453e-03 1.7689764728e+00 -3.0639571283e+00 1.7689764728e+00 3.0639571283e+00 
8900 5.4838499887e+00 8.5306170620e-03 1.7687346485e+00 -3.0635382763e+00 1.7687346485e+00 3.0635382763e+00 
9000 5.4838439393e+00 8.4972565557e-03 1.7684935037e+00 -3.0631206012e+00 1.7684935037e+00 3.0631206012e+00 
9100 5.4838379797e+00 8.4559952557e-03 1.7682532691e+00 -3.0627045028e+00 1.7682532691e+00 3.0627045028e+00 
9200 5.4838321479e+00 8.4070924125e-03 1.7680141686e+00 -3.0622903686e+00 1.7680141686e+00 3.0622903686e+00 
9300 5.4838264790e+00 8.3508156326e-03 1.7677764187e+00 -3.0618785737e+00 1.7677764187e+00 3.0618785737e+00 
9400 5.4838210048e+00 8.2874398438e-03 1.7675402285e+00 -3.0614694802e+00 1.7675402285e+00 3.0614694802e+00 
9500 5.4838157543e+00 8.2172462900e-03 1.7673057995e+00 -3.0610634372e+00 1.7673057995e+00 3.0610634372e+00 
9600 5.4838107526e+00 8.1405215595e-03 1.7670733251e+00 -3.0606607797e+00 1.7670733251e+00 3.0606607797e+00 
9700 5.4838060222e+00 8.0575566469e-03 1.7668429910e+00 -3.0602618294e+00 1.7668429910e+00 3.0602618294e+00 
9800 5.4838015817e+00 7.9686460494e-03 1.7666149746e+00 -3.0598668934e+00 1.7666149746e+00 3.0598668934e+00 
9900 5.4837974469e+00 7.8740868987e-03 1.7663894451e+00 -3.0594762648e+00 1.7663894451e+00 3.0594762648e+00 
10000 5.4837936302e+00 7.7741781290e-03 1.7661665633e+00 -3.0590902222e+00 1.7661665633e+00 3.0590902222e+00 
10100 5.4837901410e+00 7.6692196816e-03 1.7659464816e+00 -3.0587090296e+00 1.7659464816e+00 3.0587090296e+00 
10200 5.4837869856e+00 7.5595117461e-03 1.7657293442e+00 -3.0583329365e+00 1.7657293442e+00 3.0583329365e+00 
10300 5.4837841676e+00 7.4453540384e-03 1.7655152865e+00 -3.0579621777e+00 1.7655152865e+00 3.0579621777e+00 
10400 5.4837816878e+00 7.3270451165e-03 1.7653044357e+00 -3.0575969735e+00 1.7653044357e+00 3.0575969735e+00 
10500 5.4837795445e+00 7.2048817313e-03 1.7650969105e+00 -3.0572375293e+00 1.7650969105e+00 3.0572375293e+00 
10600 5.4837777338e+00 7.0791582159e-03 1.7648928214e+00 -3.0568840365e+00 1.7648928214e+00 3.0568840365e+00 
10700 5.4837762493e+00 6.9501659092e-03 1.7646922703e+00 -3.0565366718e+00 1.7646922703e+00 3.0565366718e+00 
10800 5.4837750830e+00 6.8181926160e-03 1.7644953511e+00 -3.0561955977e+00 1.7644953511e+00 3.0561955977e+00 
10900 5.4837742247e+00 6.6835221026e-03 1.7643021494e+00 -3.0558609627e+00 1.7643021494e+00 3.0558609627e+00 
11000 5.4837736629e+00 6.5464336253e-03 1.7641127430e+00 -3.0555329012e+00 1.7641127430e+00 3.0555329012e+00 
11100 5.4837733846e+00 6.4072014944e-03 1.7639272016e+00 -3.0552115340e+00 1.7639272016e+00 3.0552115340e+00 
11200 5.4837733756e+00 6.2660946696e-03 1.7637455872e+00 -3.0548969687e+00 1.7637455872e+00 3.0548969687e+00 
11300 5.4837736206e+00 6.1233763889e-03 1.7635679542e+00 -3.0545892992e+00 1.7635679542e+00 3.0545892992e+00 
11400 5.4837741036e+00 5.9793038276e-03 1.7633943494e+00 -3.0542886070e+00 1.7633943494e+00 3.0542886070e+00 
11500 5.4837748079e+00 5.8341277885e-03 1.7632248125e+00 -3.0539949605e+00 1.7632248125e+00 3.0539949605e+00 
11600 5.4837757162e+00 5.6880924212e-03 1.7630593760e+00 -3.0537084159e+00 1.7630593760e+00 3.0537084159e+00 
11700 5.4837768110e+00 5.5414349703e-03 1.7628980653e+00 -3.0534290177e+00 1.7628980653e+00 3.0534290177e+00 
11800 5.4837780746e+00 5.3943855505e-03 1.7627408993e+00 -3.0531567982e+00 1.7627408993e+00 3.0531567982e+00 
11900 5.4837794893e+00 5.2471669494e-03 1.7625878902e+00 -3.0528917787e+00 1.7625878902e+00 3.0528917787e+00 
12000 5.4837810374e+00 5.0999944546e-03 1.7624390439e+00 -3.0526339693e+00 1.7624390439e+00 3.0526339693e+00 
12100 5.4837827015e+00 4.9530757069e-03 1.7622943602e+00 -3.0523833698e+00 1.7622943602e+00 3.0523833698e+00 
12200 5.4837844648e+00 4.8066105760e-03 1.7621538329e+00 -3.0521399693e+00 1.7621538329e+00 3.0521399693e+00 
12300 5.4837863104e+00 4.6607910594e-03 1.7620174501e+00 -3.0519037475e+00 1.7620174501e+00 3.0519037475e+00 
12400 5.4837882226e+00 4.5158012030e-03 1.7618851946e+00 -3.0516746741e+00 1.7618851946e+00 3.0516746741e+00 
12500 5.4837901858e+00 4.3718170429e-03 1.7617570436e+00 -3.0514527101e+00 1.7617570436e+00 3.0514527101e+00 
12600 5.4837921853e+00 4.2290065660e-03 1.7616329695e+00 -3.0512378075e+00 1.7616329695e+00 3.0512378075e+00 
12700 5.4837942072e+00 4.0875296904e-03 1.7615129400e+00 -3.0510299103e+00 1.7615129400e+00 3.0510299103e+00 
12800 5.4837962384e+00 3.9475382637e-03 1.7613969181e+00 -3.0508289544e+00 1.7613969181e+00 3.0508289544e+00 
12900 5.4837982666e+00 3.8091760775e-03 1.7612848622e+00 -3.0506348679e+00 1.7612848622e+00 3.0506348679e+00 
13000 5.4838002803e+00 3.6725788996e-03 1.7611767270e+00 -3.0504475723e+00 1.7611767270e+00 3.0504475723e+00 
13100 5.4838022690e+00 3.5378745197e-03 1.7610724631e+00 -3.0502669820e+00 1.7610724631e+00 3.0502669820e+00 
13200 5.4838042233e+00 3.4051828114e-03 1.7609720175e+00 -3.0500930050e+00 1.7609720175e+00 3.0500930050e+00 
13300 5.4838061342e+00 3.2746158064e-03 1.7608753336e+00 -3.0499255437e+00 1.7608753336e+00 3.0499255437e+00 
13400 5.4838079941e+00 3.1462777820e-03 1.7607823518e+00 -3.0497644945e+00 1.7607823518e+00 3.0497644945e+00 
13500 5.4838097962e+00 3.0202653611e-03 1.7606930094e+00 -3.0496097488e+00 1.7606930094e+00 3.0496097488e+00 
13600 5.4838115343e+00 2.8966676229e-03 1.7606072409e+00 -3.0494611934e+00 1.7606072409e+00 3.0494611934e+00 
13700 5.4838132034e+00 2.7755662243e-03 1.7605249782e+00 -3.0493187103e+00 1.7605249782e+00 3.0493187103e+00 
13800 5.4838147992e+00 2.6570355309e-03 1.7604461510e+00 -3.0491821775e+00 1.7604461510e+00 3.0491821775e+00 
13900 5.4838163183e+00 2.5411427577e-03 1.7603706867e+00 -3.0490514696e+00 1.7603706867e+00 3.0490514696e+00 
14000 5.4838177579e+00 2.4279481172e-03 1.7602985109e+00 -3.0489264573e+00 1.7602985109e+00 3.0489264573e+00 
14100 5.4838191161e+00 2.3175049765e-03 1.7602295472e+00 -3.0488070087e+00 1.7602295472e+00 3.0488070087e+00 
14200 5.4838203916e+00 2.2098600201e-03 1.7601637180e+00 -3.0486929892e+00 1.7601637180e+00 3.0486929892e+00 
14300 5.4838215837e+00 2.1050534203e-03 1.7601009441e+00 -3.0485842616e+00 1.7601009441e+00 3.0485842616e+00 
14400 5.4838226926e+00 2.0031190130e-03 1.7600411452e+00 -3.0484806869e+00 1.7600411452e+00 3.0484806869e+00 
14500 5.4838237187e+00 1.9040844783e-03 1.7599842401e+00 -3.0483821243e+00 1.7599842401e+00 3.0483821243e+00 
14600 5.4838246631e+00 1.8079715268e-03 1.7599301465e+00 -3.0482884316e+00 1.7599301465e+00 3.0482884316e+00 
14700 5.4838255273e+00 1.7147960890e-03 1.7598787819e+00 -3.0481994654e+00 1.7598787819e+00 3.0481994654e+00 
14800 5.4838263133e+00 1.6245685091e-03 1.7598300630e+00 -3.0481150818e+00 1.7598300630e+00 3.0481150818e+00 
14900 5.4838270235e+00 1.5372937415e-03 1.7597839062e+00 -3.0480351359e+00 1.7597839062e+00 3.0480351359e+00 
15000 5.4838276604e+00 1.4529715497e-03 1.7597402279e+00 -3.0479594829e+00 1.7597402279e+00 3.0479594829e+00 
15100 5.4838282271e+00 1.3715967078e-03 1.7596989444e+00 -3.0478879777e+00 1.7596989444e+00 3.0478879777e+00 
15200 5.4838287267e+00 1.2931592032e-03 1.7596599721e+00 -3.0478204756e+00 1.7596599721e+00 3.0478204756e+00 
15300 5.4838291626e+00 1.2176444409e-03 1.7596232276e+00 -3.0477568324e+00 1.7596232276e+00 3.0477568324e+00 
15400 5.4838295383e+00 1.1450334480e-03 1.7595886281e+00 -3.0476969044e+00 1.7595886281e+00 3.0476969044e+00 
15500 5.4838298575e+00 1.0753030790e-03 1.7595560913e+00 -3.0476405489e+00 1.7595560913e+00 3.0476405489e+00 
15600 5.4838301240e+00 1.0084262209e-03 1.7595255353e+00 -3.0475876243e+00 1.7595255353e+00 3.0475876243e+00 
15700 5.4838303416e+00 9.4437199803e-04 1.7594968792e+00 -3.0475379905e+00 1.7594968792e+00 3.0475379905e+00 
15800 5.4838305140e+00 8.8310597553e-04 1.7594700428e+00 -3.0474915085e+00 1.7594700428e+00 3.0474915085e+00 
15900 5.4838306451e+00 8.2459036232e-04 1.7594449471e+00 -3.0474480414e+00 1.7594449471e+00 3.0474480414e+00 
16000 5.4838307386e+00 7.6878421220e-04 1.7594215139e+00 -3.0474074539e+00 1.7594215139e+00 3.0474074539e+00 
16100 5.4838307983e+00 7.1564362325e-04 1.7593996663e+00 -3.0473696128e+00 1.7593996663e+00 3.0473696128e+00 
16200 5.4838308278e+00 6.6512193506e-04 1.7593793286e+00 -3.0473343869e+00 1.7593793286e+00 3.0473343869e+00 
16300 5.4838308306e+00 6.1716992358e-04 1.7593604264e+00 -3.0473016474e+00 1.7593604264e+00 3.0473016474e+00 
16400 5.4838308100e+00 5.7173599330e-04 1.7593428869e+00 -3.0472712680e+00 1.7593428869e+00 3.0472712680e+00 
16500 5.4838307695e+00 5.2876636641e-04 1.7593266383e+00 -3.0472431247e+00 1.7593266383e+00 3.0472431247e+00 
16600 5.4838307120e+00 4.8820526886e-04 1.7593116108e+00 -3.0472170963e+00 1.7593116108e+00 3.0472170963e+00 
16700 5.4838306405e+00 4.4999511294e-04 1.7592977359e+00 -3.0471930643e+00 1.7592977359e+00 3.0471930643e+00 
16800 5.4838305579e+00 4.1407667622e-04 1.7592849469e+00 -3.0471709130e+00 1.7592849469e+00 3.0471709130e+00 
16900 5.4838304667e+00 3.8038927666e-04 1.7592731786e+00 -3.0471505297e+00 1.7592731786e+00 3.0471505297e+00 
17000 5.4838303693e+00 3.4887094373e-04 1.7592623676e+00 -3.0471318046e+00 1.7592623676e+00 3.0471318046e+00 
17100 5.4838302681e+00 3.1945858524e-04 1.7592524524e+00 -3.0471146309e+00 1.7592524524e+00 3.0471146309e+00 
17200 5.4838301650e+00 2.9208814988e-04 1.7592433730e+00 -3.0470989049e+00 1.7592433730e+00 3.0470989049e+00 
17300 5.4838300620e+00 2.6669478522e-04 1.7592350715e+00 -3.0470845263e+00 1.7592350715e+00 3.0470845263e+00 
17400 5.4838299607e+00 2.4321299110e-04 1.7592274916e+00 -3.0470713976e+00 1.7592274916e+00 3.0470713976e+00 
17500 5.4838298627e+00 2.2157676822e-04 1.7592205791e+00 -3.0470594248e+00 1.7592205791e+00 3.0470594248e+00 
17600 5.4838297693e+00 2.0171976185e-04 1.7592142816e+00 -3.0470485171e+00 1.7592142816e+00 3.0470485171e+00 
17700 5.4838296817e+00 1.8357540070e-04 1.7592085483e+00 -3.0470385868e+00 1.7592085483e+00 3.0470385868e+00 
17800 5.4838296008e+00 1.6707703057e-04 1.7592033308e+00 -3.0470295498e+00 1.7592033308e+00 3.0470295498e+00 
17900 5.4838295276e+00 1.5215804303e-04 1.7591985821e+00 -3.0470213248e+00 1.7591985821e+00 3.0470213248e+00 
18000 5.4838294627e+00 1.3875199891e-04 1.7591942575e+00 -3.0470138343e+00 1.7591942575e+00 3.0470138343e+00 
18100 5.4838294067e+00 1.2679274653e-04 1.7591903139e+00 -3.0470070038e+00 1.7591903139e+00 3.0470070038e+00 
18200 5.4838293599e+00 1.1621453478e-04 1.7591867101e+00 -3.0470007620e+00 1.7591867101e+00 3.0470007620e+00 
18300 5.4838293228e+00 1.0695212082e-04 1.7591834071e+00 -3.0469950409e+00 1.7591834071e+00 3.0469950409e+00 
18400 5.4838292954e+00 9.8940872639e-05 1.7591803672e+00 -3.0469897757e+00 1.7591803672e+00 3.0469897757e+00 
18500 5.4838292777e+00 9.2116866265e-05 1.7591775551e+00 -3.0469849050e+00 1.7591775551e+00 3.0469849050e+00 
18600 5.4838292699e+00 8.6416977731e-05 1.7591749369e+00 -3.0469803702e+00 1.7591749369e+00 3.0469803702e+00 
18700 5.4838292717e+00 8.1778969818e-05 1.7591724808e+00 -3.0469761159e+00 1.7591724808e+00 3.0469761159e+00 
18800 5.4838292829e+00 7.8141573585e-05 1.7591701564e+00 -3.0469720900e+00 1.7591701564e+00 3.0469720900e+00 
18900 5.4838293032e+00 7.5444564726e-05 1.7591679354e+00 -3.0469682432e+00 1.7591679354e+00 3.0469682432e+00 
19000 5.4838293323e+00 7.3628834815e-05 1.7591657911e+00 -3.0469645291e+00 1.7591657911e+00 3.0469645291e+00 
19100 5.4838293699e+00 7.2636457487e-05 1.7591636984e+00 -3.0469609044e+00 1.7591636984e+00 3.0469609044e+00 
19200 5.4838294153e+00 7.2410749629e-05 1.7591616339e+00 -3.0469573286e+00 1.7591616339e+00 3.0469573286e+00 
19300 5.4838294683e+00 7.2896327636e-05 1.7591595758e+00 -3.0469537638e+00 1.7591595758e+00 3.0469537638e+00 
19400 5.4838295281e+00 7.4039158827e-05 1.7591575038e+00 -3.0469501752e+00 1.7591575038e+00 3.0469501752e+00 
19500 5.4838295943e+00 7.5786608112e-05 1.7591553995e+00 -3.0469465303e+00 1.7591553995e+00 3.0469465303e+00 
19600 5.4838296664e+00 7.8087479991e-05 1.7591532454e+00 -3.0469427993e+00 1.7591532454e+00 3.0469427993e+00 
19700 5.4838297437e+00 8.0892055979e-05 1.7591510259e+00 -3.0469389551e+00 1.7591510259e+00 3.0469389551e+00 
19800 5.4838298257e+00 8.4152127582e-05 1.7591487268e+00 -3.0469349728e+00 1.7591487268e+00 3.0469349728e+00 
19900 5.4838299117e+00 8.7821024925e-05 1.7591463349e+00 -3.0469308300e+00 1.7591463349e+00 3.0469308300e+00 
20000 5.4838300013e+00 9.1853641132e-05 1.7591438388e+00 -3.0469265066e+00 1.7591438388e+00 3.0469265066e+00 
20100 5.4838300939e+00 9.6206452606e-05 1.7591412280e+00 -3.0469219847e+00 1.7591412280e+00 3.0469219847e+00 
20200 5.4838301888e+00 1.0083753530e-04 1.7591384936e+00 -3.0469172484e+00 1.7591384936e+00 3.0469172484e+00 
20300 5.4838302856e+00 1.0570657713e-04 1.7591356275e+00 -3.0469122842e+00 1.7591356275e+00 3.0469122842e+00 
20400 5.4838303837e+00 1.1077488667e-04 1.7591326230e+00 -3.0469070802e+00 1.7591326230e+00 3.0469070802e+00 
20500 5.4838304827e+00 1.1600539817e-04 1.7591294744e+00 -3.0469016267e+00 1.7591294744e+00 3.0469016267e+00 
20600 5.4838305821e+00 1.2136267322e-04 1.7591261772e+00 -3.0468959158e+00 1.7591261772e+00 3.0468959158e+00 
20700 5.4838306815e+00 1.2681289898e-04 1.7591227276e+00 -3.0468899410e+00 1.7591227276e+00 3.0468899410e+00 
20800 5.4838307804e+00 1.3232388326e-04 1.7591191232e+00 -3.0468836980e+00 1.7591191232e+00 3.0468836980e+00 
20900 5.4838308784e+00 1.3786504654e-04 1.7591153621e+00 -3.0468771836e+00 1.7591153621e+00 3.0468771836e+00 
21000 5.4838309753e+00 1.4340741107e-04 1.7591114435e+00 -3.0468703964e+00 1.7591114435e+00 3.0468703964e+00 
21100 5.4838310707e+00 1.4892358718e-04 1.7591073674e+00 -3.0468633363e+00 1.7591073674e+00 3.0468633363e+00 
21200 5.4838311642e+00 1.5438775703e-04 1.7591031345e+00 -3.0468560047e+00 1.7591031345e+00 3.0468560047e+00 
21300 5.4838312557e+00 1.5977565573e-04 1.7590987462e+00 -3.0468484040e+00 1.7590987462e+00 3.0468484040e+00 
21400 5.4838313450e+00 1.6506455029e-04 1.7590942048e+00 -3.0468405381e+00 1.7590942048e+00 3.0468405381e+00 
21500 5.4838314317e+00 1.7023321617e-04 1.7590895131e+00 -3.0468324117e+00 1.7590895131e+00 3.0468324117e+00 
21600 5.4838315158e+00 1.7526191191e-04 1.7590846744e+00 -3.0468240309e+00 1.7590846744e+00 3.0468240309e+00 
21700 5.4838315972e+00 1.8013235174e-04 1.7590796928e+00 -3.0468154025e+00 1.7590796928e+00 3.0468154025e+00 
21800 5.4838316756e+00 1.8482767643e-04 1.7590745727e+00 -3.0468065342e+00 1.7590745727e+00 3.0468065342e+00 
21900 5.4838317511e+00 1.8933242245e-04 1.7590693192e+00 -3.0467974348e+00 1.7590693192e+00 3.0467974348e+00 
22000 5.4838318235e+00 1.9363248963e-04 1.7590639376e+00 -3.0467881136e+00 1.7590639376e+00 3.0467881136e+00 
22100 5.4838318929e+00 1.9771510739e-04 1.7590584337e+00 -3.0467785807e+00 1.7590584337e+00 3.0467785807e+00 
22200 5.4838319592e+00 2.0156879970e-04 1.7590528138e+00 -3.0467688467e+00 1.7590528138e+00 3.0467688467e+00 
22300 5.4838320224e+00 2.0518334895e-04 1.7590470843e+00 -3.0467589230e+00 1.7590470843e+00 3.0467589230e+00 
22400 5.4838320825e+00 2.0854975868e-04 1.7590412521e+00 -3.0467488213e+00 1.7590412521e+00 3.0467488213e+00 
22500 5.4838321396e+00 2.1166021553e-04 1.7590353242e+00 -3.0467385538e+00 1.7590353242e+00 3.0467385538e+00 
22600 5.4838321938e+00 2.1450805033e-04 1.7590293078e+00 -3.0467281331e+00 1.7590293078e+00 3.0467281331e+00 
22700 5.4838322451e+00 2.1708769849e-04 1.7590232105e+00 -3.0467175722e+00 1.7590232105e+00 3.0467175722e+00 
22800 5.4838322936e+00 2.1939465996e-04 1.7590170398e+00 -3.0467068843e+00 1.7590170398e+00 3.0467068843e+00 
22900 5.4838323395e+00 2.2142545852e-04 1.7590108035e+00 -3.0466960827e+00 1.7590108035e+00 3.0466960827e+00 
23000 5.4838323827e+00 2.2317760096e-04 1.7590045095e+00 -3.0466851811e+00 1.7590045095e+00 3.0466851811e+00 
23100 5.4838324234e+00 2.2464953578e-04 1.7589981656e+00 -3.0466741933e+00 1.7589981656e+00 3.0466741933e+00 
23200 5.4838324617e+00 2.2584061188e-04 1.7589917799e+00 -3.0466631329e+00 1.7589917799e+00 3.0466631329e+00 
23300 5.4838324978e+00 2.2675103715e-04 1.7589853603e+00 -3.0466520138e+00 1.7589853603e+00 3.0466520138e+00 
23400 5.4838325318e+00 2.2738183703e-04 1.7589789148e+00 -3.0466408499e+00 1.7589789148e+00 3.0466408499e+00 
23500 5.4838325637e+00 2.2773481324e-04 1.7589724513e+00 -3.0466296548e+00 1.7589724513e+00 3.0466296548e+00 
23600 5.4838325938e+00 2.2781250271e-04 1.7589659778e+00 -3.0466184424e+00 1.7589659778e+00 3.0466184424e+00 
23700 5.4838326222e+00 2.2761813667e-04 1.7589595021e+00 -3.0466072260e+00 1.7589595021e+00 3.0466072260e+00 
23800 5.4838326489e+00 2.2715560023e-04 1.7589530318e+00 -3.0465960193e+00 1.7589530318e+00 3.0465960193e+00 
23900 5.4838326742e+00 2.2642939223e-04 1.7589465747e+00 -3.0465848352e+00 1.7589465747e+00 3.0465848352e+00 
24000 5.4838326981e+00 2.2544458567e-04 1.7589401382e+00 -3.0465736868e+00 1.7589401382e+00 3.0465736868e+00 
24100 5.4838327208e+00 2.2420678861e-04 1.7589337297e+00 -3.0465625869e+00 1.7589337297e+00 3.0465625869e+00 
24200 5.4838327423e+00 2.2272210571e-04 1.7589273563e+00 -3.0465515479e+00 1.7589273563e+00 3.0465515479e+00 
24300 5.4838327628e+00 2.2099710038e-04 1.7589210251e+00 -3.0465405820e+00 1.7589210251e+00 3.0465405820e+00 
24400 5.4838327824e+00 2.1903875767e-04 1.7589147429e+00 -3.0465297010e+00 1.7589147429e+00 3.0465297010e+00 
24500 5.4838328012e+00 2.1685444786e-04 1.7589085164e+00 -3.0465189163e+00 1.7589085164e+00 3.0465189163e+00 
24600 5.4838328193e+00 2.1445189090e-04 1.7589023520e+00 -3.0465082391e+00 1.7589023520e+00 3.0465082391e+00 
24700 5.4838328367e+00 2.1183912162e-04 1.7588962558e+00 -3.0464976802e+00 1.7588962558e+00 3.0464976802e+00 
24800 5.4838328536e+00 2.0902445587e-04 1.7588902338e+00 -3.0464872500e+00 1.7588902338e+00 3.0464872500e+00 
24900 5.4838328701e+00 2.0601645751e-04 1.7588842919e+00 -3.0464769582e+00 1.7588842919e+00 3.0464769582e+00 
25000 5.4838328862e+00 2.0282390635e-04 1.7588784355e+00 -3.0464668146e+00 1.7588784355e+00 3.0464668146e+00 
25100 5.4838329019e+00 1.9945576707e-04 1.7588726697e+00 -3.0464568280e+00 1.7588726697e+00 3.0464568280e+00 
25200 5.4838329174e+00 1.9592115907e-04 1.7588669998e+00 -3.0464470073e+00 1.7588669998e+00 3.0464470073e+00 
25300 5.4838329327e+00 1.9222932738e-04 1.7588614302e+00 -3.0464373606e+00 1.7588614302e+00 3.0464373606e+00 
25400 5.4838329478e+00 1.8838961455e-04 1.7588559656e+00 -3.0464278957e+00 1.7588559656e+00 3.0464278957e+00 
25500 5.4838329627e+00 1.8441143360e-04 1.7588506102e+00 -3.0464186198e+00 1.7588506102e+00 3.0464186198e+00 
25600 5.4838329776e+00 1.8030424198e-04 1.7588453678e+00 -3.0464095397e+00 1.7588453678e+00 3.0464095397e+00 
25700 5.4838329925e+00 1.7607751664e-04 1.7588402422e+00 -3.0464006618e+00 1.7588402422e+00 3.0464006618e+00 
25800 5.4838330072e+00 1.7174073010e-04 1.7588352367e+00 -3.0463919920e+00 1.7588352367e+00 3.0463919920e+00 
25900 5.4838330220e+00 1.6730332765e-04 1.7588303544e+00 -3.0463835358e+00 1.7588303544e+00 3.0463835358e+00 
26000 5.4838330368e+00 1.6277470558e-04 1.7588255983e+00 -3.0463752980e+00 1.7588255983e+00 3.0463752980e+00 
26100 5.4838330515e+00 1.5816419046e-04 1.7588209710e+00 -3.0463672832e+00 1.7588209710e+00 3.0463672832e+00 
26200 5.4838330663e+00 1.5348101953e-04 1.7588164747e+00 -3.0463594953e+00 1.7588164747e+00 3.0463594953e+00 
26300 5.4838330811e+00 1.4873432215e-04 1.7588121115e+00 -3.0463519380e+00 1.7588121115e+00 3.0463519380e+00 
26400 5.4838330959e+00 1.4393310223e-04 1.7588078832e+00 -3.0463446145e+00 1.7588078832e+00 3.0463446145e+00 
26500 5.4838331108e+00 1.3908622181e-04 1.7588037914e+00 -3.0463375273e+00 1.7588037914e+00 3.0463375273e+00 
26600 5.4838331256e+00 1.3420238562e-04 1.7587998374e+00 -3.0463306788e+00 1.7587998374e+00 3.0463306788e+00 
26700 5.4838331405e+00 1.2929012662e-04 1.7587960223e+00 -3.0463240707e+00 1.7587960223e+00 3.0463240707e+00 
26800 5.4838331553e+00 1.2435779265e-04 1.7587923467e+00 -3.0463177045e+00 1.7587923467e+00 3.0463177045e+00 
26900 5.4838331701e+00 1.1941353397e-04 1.7587888114e+00 -3.0463115812e+00 1.7587888114e+00 3.0463115812e+00 
27000 5.4838331849e+00 1.1446529189e-04 1.7587854167e+00 -3.0463057013e+00 1.7587854167e+00 3.0463057013e+00 
27100 5.4838331996e+00 1.0952078821e-04 1.7587821626e+00 -3.0463000650e+00 1.7587821626e+00 3.0463000650e+00 
27200 5.4838332143e+00 1.0458751576e-04 1.7587790490e+00 -3.0462946722e+00 1.7587790490e+00 3.0462946722e+00 
27300 5.4838332289e+00 9.9672729725e-05 1.7587760757e+00 -3.0462895223e+00 1.7587760757e+00 3.0462895223e+00 
27400 5.4838332434e+00 9.4783439976e-05 1.7587732421e+00 -3.0462846144e+00 1.7587732421e+00 3.0462846144e+00 
27500 5.4838332578e+00 8.9926404193e-05 1.7587705476e+00 -3.0462799472e+00 1.7587705476e+00 3.0462799472e+00 
27600 5.4838332721e+00 8.5108121899e-05 1.7587679910e+00 -3.0462755192e+00 1.7587679910e+00 3.0462755192e+00 
27700 5.4838332862e+00 8.0334829285e-05 1.7587655715e+00 -3.0462713285e+00 1.7587655715e+00 3.0462713285e+00 
27800 5.4838333001e+00 7.5612494860e-05 1.7587632877e+00 -3.0462673727e+00 1.7587632877e+00 3.0462673727e+00 
27900 5.4838333139e+00 7.0946815882e-05 1.7587611381e+00 -3.0462636495e+00 1.7587611381e+00 3.0462636495e+00 
28000 5.4838333275e+00 6.6343215533e-05 1.7587591211e+00 -3.0462601561e+00 1.7587591211e+00 3.0462601561e+00 
28100 5.4838333410e+00 6.3191737456e-05 1.7587591211e+00 -3.0462601561e+00 1.7587591211e+00 3.0462601561e+00 
28200 5.4838333543e+00 6.0026406819e-05 1.7587591211e+00 -3.0462601561e+00 1.7587591211e+00 3.0462601561e+00 
28300 5.4838333673e+00 5.6852765002e-05 1.7587591211e+00 -3.0462601561e+00 1.7587591211e+00 3.0462601561e+00 
28400 5.4838333800e+00 5.3676161174e-05 1.7587591211e+00 -3.0462601561e+00 1.7587591211e+00 3.0462601561e+00 
28500 5.4838333925e+00 5.0501749402e-05 1.7587591211e+00 -3.0462601561e+00 1.7587591211e+00 3.0462601561e+00 
28600 5.4838334046e+00 4.7334486259e-05 1.7587591211e+00 -3.0462601561e+00 1.7587591211e+00 3.0462601561e+00 
28700 5.4838334165e+00 4.4179128930e-05 1.7587591211e+00 -3.0462601561e+00 1.7587591211e+00 3.0462601561e+00 
28800 5.4838334281e+00 4.1040233815e-05 1.7587591211e+00 -3.0462601561e+00 1.7587591211e+00 3.0462601561e+00 
28900 5.4838334394e+00 3.7922155578e-05 1.7587591211e+00 -3.0462601561e+00 1.7587591211e+00 3.0462601561e+00 
29000 5.4838334504e+00 3.4829046651e-05 1.7587591211e+00 -3.0462601561e+00 1.7587591211e+00 3.0462601561e+00 
29100 5.4838334611e+00 3.1764857168e-05 1.7587591211e+00 -3.0462601561e+00 1.7587591211e+00 3.0462601561e+00 
29200 5.4838334715e+00 2.8733335306e-05 1.7587591211e+00 -3.0462601561e+00 1.7587591211e+00 3.0462601561e+00 
29300 5.4838334816e+00 2.5738028016e-05 1.7587591211e+00 -3.0462601561e+00 1.7587591211e+00 3.0462601561e+00 
29400 5.4838334914e+00 2.2782282134e-05 1.7587591211e+00 -3.0462601561e+00 1.7587591211e+00 3.0462601561e+00 
29500 5.4838335010e+00 1.9869245840e-05 1.7587591211e+00 -3.0462601561e+00 1.7587591211e+00 3.0462601561e+00 
29600 5.4838335102e+00 1.7001870463e-05 1.7587591211e+00 -3.0462601561e+00 1.7587591211e+00 3.0462601561e+00 
29700 5.4838335191e+00 1.4182912595e-05 1.7587591211e+00 -3.0462601561e+00 1.7587591211e+00 3.0462601561e+00 
29800 5.4838335278e+00 1.1414936520e-05 1.7587591211e+00 -3.0462601561e+00 1.7587591211e+00 3.0462601561e+00 
29900 5.4838335362e+00 8.7003169157e-06 1.7587591211e+00 -3.0462601561e+00 1.7587591211e+00 3.0462601561e+00 
30000 5.4838335443e+00 6.0412418259e-06 1.7587591211e+00 -3.0462601561e+00 1.7587591211e+00 3.0462601561e+00 
30100 5.4838335521e+00 3.4397158857e-06 1.7587591211e+00 -3.0462601561e+00 1.7587591211e+00 3.0462601561e+00 
30200 5.4838335597e+00 8.9756377528e-07 1.7587591211e+00 -3.0462601561e+00 1.7587591211e+00 3.0462601561e+00 
30300 5.4838335671e+00 -1.5835661148e-06 1.7587591211e+00 -3.0462601561e+00 1.7587591211e+00 3.0462601561e+00 
30400 5.4838335742e+00 -4.0021978086e-06 1.7587591211e+00 -3.0462601561e+00 1.7587591211e+00 3.0462601561e+00 
30500 5.4838335810e+00 -6.3570236951e-06 1.7587591211e+00 -3.0462601561e+00 1.7587591211e+00 3.0462601561e+00 
30600 5.4838335877e+00 -8.6469003112e-06 1.7587591211e+00 -3.0462601561e+00 1.7587591211e+00 3.0462601561e+00 
30700 5.4838335941e+00 -1.0870843971e-05 1.7587591211e+00 -3.0462601561e+00 1.7587591211e+00 3.0462601561e+00 
30800 5.4838336003e+00 -1.3028026256e-05 1.7587591211e+00 -3.0462601561e+00 1.7587591211e+00 3.0462601561e+00 
30900 5.4838336063e+00 -1.5117769391e-05 1.7587591211e+00 -3.0462601561e+00 1.7587591211e+00 3.0462601561e+00 
31000 5.4838336121e+00 -1.7139541511e-05 1.7587591211e+00 -3.0462601561e+00 1.7587591211e+00 3.0462601561e+00 
31100 5.4838336177e+00 -1.9092951827e-05 1.7587591211e+00 -3.0462601561e+00 1.7587591211e+00 3.0462601561e+00 
31200 5.4838336231e+00 -2.0977745724e-05 1.7587591211e+00 -3.0462601561e+00 1.7587591211e+00 3.0462601561e+00 
31300 5.4838336284e+00 -2.2793799786e-05 1.7587591211e+00 -3.0462601561e+00 1.7587591211e+00 3.0462601561e+00 
31400 5.4838336335e+00 -2.4541116766e-05 1.7587591211e+00 -3.0462601561e+00 1.7587591211e+00 3.0462601561e+00 
31500 5.4838336384e+00 -2.6219820526e-05 1.7587591211e+00 -3.0462601561e+00 1.7587591211e+00 3.0462601561e+00 
31600 5.4838336432e+00 -2.7830150930e-05 1.7587591211e+00 -3.0462601561e+00 1.7587591211e+00 3.0462601561e+00 
31700 5.4838336479e+00 -2.9372458733e-05 1.7587591211e+00 -3.0462601561e+00 1.7587591211e+00 3.0462601561e+00 
31800 5.4838336524e+00 -3.0847200460e-05 1.7587591211e+00 -3.0462601561e+00 1.7587591211e+00 3.0462601561e+00 
31900 5.4838336568e+00 -3.2254933286e-05 1.7587591211e+00 -3.0462601561e+00 1.7587591211e+00 3.0462601561e+00 
32000 5.4838336611e+00 -3.3596309932e-05 1.7587591211e+00 -3.0462601561e+00 1.7587591211e+00 3.0462601561e+00 
32100 5.4838336652e+00 -3.4872073583e-05 1.7587591211e+00 -3.0462601561e+00 1.7587591211e+00 3.0462601561e+00 
32200 5.4838336693e+00 -3.6083052838e-05 1.7587591211e+00 -3.0462601561e+00 1.7587591211e+00 3.0462601561e+00 
32300 5.4838336732e+00 -3.7230156705e-05 1.7587591211e+00 -3.0462601561e+00 1.7587591211e+00 3.0462601561e+00 
32400 5.4838336771e+00 -3.8314369641e-05 1.7587591211e+00 -3.0462601561e+00 1.7587591211e+00 3.0462601561e+00 
32500 5.4838336808e+00 -3.9336746650e-05 1.7587591211e+00 -3.0462601561e+00 1.7587591211e+00 3.0462601561e+00 
32600 5.4838336845e+00 -4.0298408450e-05 1.7587591211e+00 -3.0462601561e+00 1.7587591211e+00 3.0462601561e+00 
32700 5.4838336880e+00 -4.1200536707e-05 1.7587591211e+00 -3.0462601561e+00 1.7587591211e+00 3.0462601561e+00 
32800 5.4838336915e+00 -4.2044369343e-05 1.7587591211e+00 -3.0462601561e+00 1.7587591211e+00 3.0462601561e+00 
32900 5.4838336949e+00 -4.2831195942e-05 1.7587591211e+00 -3.0462601561e+00 1.7587591211e+00 3.0462601561e+00 
33000 5.4838336983e+00 -4.3562353232e-05 1.7587591211e+00 -3.0462601561e+00 1.7587591211e+00 3.0462601561e+00 
33100 5.4838337016e+00 -4.4239220666e-05 1.7587591211e+00 -3.0462601561e+00 1.7587591211e+00 3.0462601561e+00 
33200 5.4838337048e+00 -4.4863216106e-05 1.7587591211e+00 -3.0462601561e+00 1.7587591211e+00 3.0462601561e+00 
33300 5.4838337079e+00 -4.5435791608e-05 1.7587591211e+00 -3.0462601561e+00 1.7587591211e+00 3.0462601561e+00 
33400 5.4838337110e+00 -4.5958429314e-05 1.7587591211e+00 -3.0462601561e+00 1.7587591211e+00 3.0462601561e+00 
33500 5.4838337140e+00 -4.6432637459e-05 1.7587591211e+00 -3.0462601561e+00 1.7587591211e+00 3.0462601561e+00 
33600 5.4838337170e+00 -4.6859946489e-05 1.7587591211e+00 -3.0462601561e+00 1.7587591211e+00 3.0462601561e+00 
33700 5.4838337199e+00 -4.7241905302e-05 1.7587591211e+00 -3.0462601561e+00 1.7587591211e+00 3.0462601561e+00 
33800 5.4838337228e+00 -4.7580077604e-05 1.7587591211e+00 -3.0462601561e+00 1.7587591211e+00 3.0462601561e+00 
33900 5.4838337256e+00 -4.7876038386e-05 1.7587591211e+00 -3.0462601561e+00 1.7587591211e+00 3.0462601561e+00 
34000 5.4838337284e+00 -4.8131370535e-05 1.7587591211e+00 -3.0462601561e+00 1.7587591211e+00 3.0462601561e+00 
34100 5.4838337311e+00 -4.8347661562e-05 1.7587591211e+00 -3.0462601561e+00 1.7587591211e+00 3.0462601561e+00 
34200 5.4838337337e+00 -4.8526500456e-05 1.7587591211e+00 -3.0462601561e+00 1.7587591211e+00 3.0462601561e+00 
34300 5.4838337364e+00 -4.8669474669e-05 1.7587591211e+00 -3.0462601561e+00 1.7587591211e+00 3.0462601561e+00 
34400 5.4838337389e+00 -4.8778167237e-05 1.7587591211e+00 -3.0462601561e+00 1.7587591211e+00 3.0462601561e+00 
34500 5.4838337415e+00 -4.8854154011e-05 1.7587591211e+00 -3.0462601561e+00 1.7587591211e+00 3.0462601561e+00 
34600 5.4838337440e+00 -4.8899001033e-05 1.7587591211e+00 -3.0462601561e+00 1.7587591211e+00 3.0462601561e+00 
34700 5.4838337464e+00 -4.8914262036e-05 1.7587591211e+00 -3.0462601561e+00 1.7587591211e+00 3.0462601561e+00 
34800 5.4838337488e+00 -4.8901476067e-05 1.7587591211e+00 -3.0462601561e+00 1.7587591211e+00 3.0462601561e+00 
34900 5.4838337512e+00 -4.8862165242e-05 1.7587591211e+00 -3.0462601561e+00 1.7587591211e+00 3.0462601561e+00 
35000 5.4838337535e+00 -4.8797832628e-05 1.7587591211e+00 -3.0462601561e+00 1.7587591211e+00 3.0462601561e+00 
35100 5.4838337558e+00 -4.8709960246e-05 1.7587591211e+00 -3.0462601561e+00 1.7587591211e+00 3.0462601561e+00 
35200 5.4838337580e+00 -4.8600007203e-05 1.7587591211e+00 -3.0462601561e+00 1.7587591211e+00 3.0462601561e+00 
35300 5.4838337603e+00 -4.8469407939e-05 1.7587591211e+00 -3.0462601561e+00 1.7587591211e+00 3.0462601561e+00 
35400 5.4838337624e+00 -4.8319570603e-05 1.7587591211e+00 -3.0462601561e+00 1.7587591211e+00 3.0462601561e+00 
35500 5.4838337645e+00 -4.8151875540e-05 1.7587591211e+00 -3.0462601561e+00 1.7587591211e+00 3.0462601561e+00 
35600 5.4838337666e+00 -4.7967673903e-05 1.7587591211e+00 -3.0462601561e+00 1.7587591211e+00 3.0462601561e+00 
35700 5.4838337687e+00 -4.7768286370e-05 1.7587591211e+00 -3.0462601561e+00 1.7587591211e+00 3.0462601561e+00 
35800 5.4838337707e+00 -4.7555001978e-05 1.7587591211e+00 -3.0462601561e+00 1.7587591211e+00 3.0462601561e+00 
35900 5.4838337727e+00 -4.7329077069e-05 1.7587591211e+00 -3.0462601561e+00 1.7587591211e+00 3.0462601561e+00 
36000 5.4838337746e+00 -4.7091734336e-05 1.7587591211e+00 -3.0462601561e+00 1.7587591211e+00 3.0462601561e+00 
36100 5.4838337765e+00 -4.6844161986e-05 1.7587591211e+00 -3.0462601561e+00 1.7587591211e+00 3.0462601561e+00 
36200 5.4838337784e+00 -4.6587512986e-05 1.7587591211e+00 -3.0462601561e+00 1.7587591211e+00 3.0462601561e+00 
36300 5.4838337802e+00 -4.6322904425e-05 1.7587591211e+00 -3.0462601561e+00 1.7587591211e+00 3.0462601561e+00 
36400 5.4838337820e+00 -4.6051416964e-05 1.7587591211e+00 -3.0462601561e+00 1.7587591211e+00 3.0462601561e+00 
36500 5.4838337838e+00 -4.5774094378e-05 1.7587591211e+00 -3.0462601561e+00 1.7587591211e+00 3.0462601561e+00 
36600 5.4838337855e+00 -4.5491943193e-05 1.7587591211e+00 -3.0462601561e+00 1.7587591211e+00 3.0462601561e+00 
36700 5.4838337872e+00 -4.5205932405e-05 1.7587591211e+00 -3.0462601561e+00 1.7587591211e+00 3.0462601561e+00 
36800 5.4838337889e+00 -4.4916993286e-05 1.7587591211e+00 -3.0462601561e+00 1.7587591211e+00 3.0462601561e+00 
36900 5.4838337905e+00 -4.4626019266e-05 1.7587591211e+00 -3.0462601561e+00 1.7587591211e+00 3.0462601561e+00 
37000 5.4838337921e+00 -4.4333865898e-05 1.7587591211e+00 -3.0462601561e+00 1.7587591211e+00 3.0462601561e+00 
37100 5.4838337936e+00 -4.4041350893e-05 1.7587591211e+00 -3.0462601561e+00 1.7587591211e+00 3.0462601561e+00 
37200 5.4838337952e+00 -4.3749254228e-05 1.7587591211e+00 -3.0462601561e+00 1.7587591211e+00 3.0462601561e+00 
37300 5.4838337967e+00 -4.3458318322e-05 1.7587591211e+00 -3.0462601561e+00 1.7587591211e+00 3.0462601561e+00 
37400 5.4838337981e+00 -4.3169248269e-05 1.7587591211e+00 -3.0462601561e+00 1.7587591211e+00 3.0462601561e+00 
37500 5.4838337996e+00 -4.2882712152e-05 1.7587591211e+00 -3.0462601561e+00 1.7587591211e+00 3.0462601561e+00 
37600 5.4838338010e+00 -4.2599341385e-05 1.7587591211e+00 -3.0462601561e+00 1.7587591211e+00 3.0462601561e+00 
37700 5.4838338023e+00 -4.2319731139e-05 1.7587591211e+00 -3.0462601561e+00 1.7587591211e+00 3.0462601561e+00 
37800 5.4838338037e+00 -4.2044440804e-05 1.7587591211e+00 -3.0462601561e+00 1.7587591211e+00 3.0462601561e+00 
37900 5.4838338050e+00 -4.1773994501e-05 1.7587591211e+00 -3.0462601561e+00 1.7587591211e+00 3.0462601561e+00 
38000 5.4838338063e+00 -4.1508881642e-05 1.7587591211e+00 -3.0462601561e+00 1.7587591211e+00 3.0462601561e+00 
38100 5.4838338076e+00 -4.1249557533e-05 1.7587591211e+00 -3.0462601561e+00 1.7587591211e+00 3.0462601561e+00 
38200 5.4838338088e+00 -4.0996444017e-05 1.7587591211e+00 -3.0462601561e+00 1.7587591211e+00 3.0462601561e+00 
38300 5.4838338100e+00 -4.0749930150e-05 1.7587591211e+00 -3.0462601561e+00 1.7587591211e+00 3.0462601561e+00 
38400 5.4838338112e+00 -4.0510372910e-05 1.7587591211e+00 -3.0462601561e+00 1.7587591211e+00 3.0462601561e+00 
38500 5.4838338123e+00 -4.0278097949e-05 1.7587591211e+00 -3.0462601561e+00 1.7587591211e+00 3.0462601561e+00 
38600 5.4838338135e+00 -4.0053400357e-05 1.7587591211e+00 -3.0462601561e+00 1.7587591211e+00 3.0462601561e+00 
38700 5.4838338146e+00 -3.9836545455e-05 1.7587591211e+00 -3.0462601561e+00 1.7587591211e+00 3.0462601561e+00 
38800 5.4838338157e+00 -3.9627769626e-05 1.7587591211e+00 -3.0462601561e+00 1.7587591211e+00 3.0462601561e+00 
38900 5.4838338168e+00 -3.9427281142e-05 1.7587591211e+00 -3.0462601561e+00 1.7587591211e+00 3.0462601561e+00 
39000 5.4838338178e+00 -3.9235261028e-05 1.7587591211e+00 -3.0462601561e+00 1.7587591211e+00 3.0462601561e+00 
39100 5.4838338188e+00 -3.9051863933e-05 1.7587591211e+00 -3.0462601561e+00 1.7587591211e+00 3.0462601561e+00 
39200 5.4838338198e+00 -3.8877219016e-05 1.7587591211e+00 -3.0462601561e+00 1.7587591211e+00 3.0462601561e+00 
39300 5.4838338208e+00 -3.8711430840e-05 1.7587591211e+00 -3.0462601561e+00 1.7587591211e+00 3.0462601561e+00 
39400 5.4838338218e+00 -3.8554580279e-05 1.7587591211e+00 -3.0462601561e+00 1.7587591211e+00 3.0462601561e+00 
39500 5.4838338227e+00 -3.8406725424e-05 1.7587591211e+00 -3.0462601561e+00 1.7587591211e+00 3.0462601561e+00 
39600 5.4838338236e+00 -3.8267902505e-05 1.7587591211e+00 -3.0462601561e+00 1.7587591211e+00 3.0462601561e+00 
39700 5.4838338246e+00 -3.8138126804e-05 1.7587591211e+00 -3.0462601561e+00 1.7587591211e+00 3.0462601561e+00 
39800 5.4838338254e+00 -3.8017393572e-05 1.7587591211e+00 -3.0462601561e+00 1.7587591211e+00 3.0462601561e+00 
39900 5.4838338263e+00 -3.7905678947e-05 1.7587591211e+00 -3.0462601561e+00 1.7587591211e+00 3.0462601561e+00 
40000 5.4838338272e+00 -3.7802940870e-05 1.7587591211e+00 -3.0462601561e+00 1.7587591211e+00 3.0462601561e+00 
40100 5.4838338280e+00 -3.7709119988e-05 1.7587591211e+00 -3.0462601561e+00 1.7587591211e+00 3.0462601561e+00 
40200 5.4838338288e+00 -3.7624140561e-05 1.7587591211e+00 -3.0462601561e+00 1.7587591211e+00 3.0462601561e+00 
40300 5.4838338296e+00 -3.7547911352e-05 1.7587591211e+00 -3.0462601561e+00 1.7587591211e+00 3.0462601561e+00 
40400 5.4838338304e+00 -3.7480326519e-05 1.7587591211e+00 -3.0462601561e+00 1.7587591211e+00 3.0462601561e+00 
40500 5.4838338312e+00 -3.7421266481e-05 1.7587591211e+00 -3.0462601561e+00 1.7587591211e+00 3.0462601561e+00 
40600 5.4838338320e+00 -3.7370598789e-05 1.7587591211e+00 -3.0462601561e+00 1.7587591211e+00 3.0462601561e+00 
40700 5.4838338327e+00 -3.7328178969e-05 1.7587591211e+00 -3.0462601561e+00 1.7587591211e+00 3.0462601561e+00 
40800 5.4838338335e+00 -3.7293851366e-05 1.7587591211e+00 -3.0462601561e+00 1.7587591211e+00 3.0462601561e+00 
40900 5.4838338342e+00 -3.7267449957e-05 1.7587591211e+00 -3.0462601561e+00 1.7587591211e+00 3.0462601561e+00 
41000 5.4838338349e+00 -3.7248799160e-05 1.7587591211e+00 -3.0462601561e+00 1.7587591211e+00 3.0462601561e+00 
41100 5.4838338356e+00 -3.7237714618e-05 1.7587591211e+00 -3.0462601561e+00 1.7587591211e+00 3.0462601561e+00 
41200 5.4838338363e+00 -3.7234003978e-05 1.7587591211e+00 -3.0462601561e+00 1.7587591211e+00 3.0462601561e+00 
41300 5.4838338369e+00 -3.7237467632e-05 1.7587591211e+00 -3.0462601561e+00 1.7587591211e+00 3.0462601561e+00 
41400 5.4838338376e+00 -3.7247899458e-05 1.7587591211e+00 -3.0462601561e+00 1.7587591211e+00 3.0462601561e+00 
41500 5.4838338382e+00 -3.7265087526e-05 1.7587591211e+00 -3.0462601561e+00 1.7587591211e+00 3.0462601561e+00 
41600 5.4838338389e+00 -3.7288814797e-05 1.7587591211e+00 -3.0462601561e+00 1.7587591211e+00 3.0462601561e+00 
41700 5.4838338395e+00 -3.7318859793e-05 1.7587591211e+00 -3.0462601561e+00 1.7587591211e+00 3.0462601561e+00 
41800 5.4838338401e+00 -3.7354997243e-05 1.7587591211e+00 -3.0462601561e+00 1.7587591211e+00 3.0462601561e+00 
41900 5.4838338407e+00 -3.7396998721e-05 1.7587591211e+00 -3.0462601561e+00 1.7587591211e+00 3.0462601561e+00 
42000 5.4838338413e+00 -3.7444633247e-05 1.7587591211e+00 -3.0462601561e+00 1.7587591211e+00 3.0462601561e+00 
42100 5.4838338419e+00 -3.7497667874e-05 1.7587591211e+00 -3.0462601561e+00 1.7587591211e+00 3.0462601561e+00 
42200 5.4838338425e+00 -3.7555868254e-05 1.7587591211e+00 -3.0462601561e+00 1.7587591211e+00 3.0462601561e+00 
42300 5.4838338430e+00 -3.7618999175e-05 1.7587591211e+00 -3.0462601561e+00 1.7587591211e+00 3.0462601561e+00 
42400 5.4838338436e+00 -3.7686825082e-05 1.7587591211e+00 -3.0462601561e+00 1.7587591211e+00 3.0462601561e+00 
42500 5.4838338441e+00 -3.7759110573e-05 1.7587591211e+00 -3.0462601561e+00 1.7587591211e+00 3.0462601561e+00 
42600 5.4838338447e+00 -3.7835620873e-05 1.7587591211e+00 -3.0462601561e+00 1.7587591211e+00 3.0462601561e+00 
42700 5.4838338452e+00 -3.7916122286e-05 1.7587591211e+00 -3.0462601561e+00 1.7587591211e+00 3.0462601561e+00 
42800 5.4838338457e+00 -3.8000382618e-05 1.7587591211e+00 -3.0462601561e+00 1.7587591211e+00 3.0462601561e+00 
42900 5.4838338462e+00 -3.8088171594e-05 1.7587591211e+00 -3.0462601561e+00 1.7587591211e+00 3.0462601561e+00 
43000 5.4838338467e+00 -3.8179261233e-05 1.7587591211e+00 -3.0462601561e+00 1.7587591211e+00 3.0462601561e+00 
43100 5.4838338472e+00 -3.8273426219e-05 1.7587591211e+00 -3.0462601561e+00 1.7587591211e+00 3.0462601561e+00 
43200 5.4838338477e+00 -3.8370444235e-05 1.7587591211e+00 -3.0462601561e+00 1.7587591211e+00 3.0462601561e+00 
43300 5.4838338481e+00 -3.8470096290e-05 1.7587591211e+00 -3.0462601561e+00 1.7587591211e+00 3.0462601561e+00 
43400 5.4838338486e+00 -3.8572167015e-05 1.7587591211e+00 -3.0462601561e+00 1.7587591211e+00 3.0462601561e+00 
43500 5.4838338491e+00 -3.8676444940e-05 1.7587591211e+00 -3.0462601561e+00 1.7587591211e+00 3.0462601561e+00 
43600 5.4838338495e+00 -3.8782722757e-05 1.7587591211e+00 -3.0462601561e+00 1.7587591211e+00 3.0462601561e+00 
43700 5.4838338499e+00 -3.8890797551e-05 1.7587591211e+00 -3.0462601561e+00 1.7587591211e+00 3.0462601561e+00 
43800 5.4838338504e+00 -3.9000471030e-05 1.7587591211e+00 -3.0462601561e+00 1.7587591211e+00 3.0462601561e+00 
43900 5.4838338508e+00 -3.9111549713e-05 1.7587591211e+00 -3.0462601561e+00 1.7587591211e+00 3.0462601561e+00 
44000 5.4838338512e+00 -3.9223845119e-05 1.7587591211e+00 -3.0462601561e+00 1.7587591211e+00 3.0462601561e+00 
44100 5.4838338516e+00 -3.9337173928e-05 1.7587591211e+00 -3.0462601561e+00 1.7587591211e+00 3.0462601561e+00 
44200 5.4838338520e+00 -3.9451358126e-05 1.7587591211e+00 -3.0462601561e+00 1.7587591211e+00 3.0462601561e+00 
44300 5.4838338524e+00 -3.9566225134e-05 1.7587591211e+00 -3.0462601561e+00 1.7587591211e+00 3.0462601561e+00 
44400 5.4838338528e+00 -3.9681607917e-05 1.7587591211e+00 -3.0462601561e+00 1.7587591211e+00 3.0462601561e+00 
44500 5.4838338532e+00 -3.9797345086e-05 1.7587591211e+00 -3.0462601561e+00 1.7587591211e+00 3.0462601561e+00 
44600 5.4838338536e+00 -3.9913280967e-05 1.7587591211e+00 -3.0462601561e+00 1.7587591211e+00 3.0462601561e+00 
44700 5.4838338539e+00 -4.0029265677e-05 1.7587591211e+00 -3.0462601561e+00 1.7587591211e+00 3.0462601561e+00 
44800 5.4838338543e+00 -4.0145155167e-05 1.7587591211e+00 -3.0462601561e+00 1.7587591211e+00 3.0462601561e+00 
44900 5.4838338547e+00 -4.0260811261e-05 1.7587591211e+00 -3.0462601561e+00 1.7587591211e+00 3.0462601561e+00 
45000 5.4838338550e+00 -4.0376101678e-05 1.7587591211e+00 -3.0462601561e+00 1.7587591211e+00 3.0462601561e+00 
45100 5.4838338553e+00 -4.0490900039e-05 1.7587591211e+00 -3.0462601561e+00 1.7587591211e+00 3.0462601561e+00 
45200 5.4838338557e+00 -4.0605085869e-05 1.7587591211e+00 -3.0462601561e+00 1.7587591211e+00 3.0462601561e+00 
45300 5.4838338560e+00 -4.0718544582e-05 1.7587591211e+00 -3.0462601561e+00 1.7587591211e+00 3.0462601561e+00 
45400 5.4838338563e+00 -4.0831167450e-05 1.7587591211e+00 -3.0462601561e+00 1.7587591211e+00 3.0462601561e+00 
45500 5.4838338567e+00 -4.0942851571e-05 1.7587591211e+00 -3.0462601561e+00 1.7587591211e+00 3.0462601561e+00 
45600 5.4838338570e+00 -4.1053499823e-05 1.7587591211e+00 -3.0462601561e+00 1.7587591211e+00 3.0462601561e+00 
45700 5.4838338573e+00 -4.1163020804e-05 1.7587591211e+00 -3.0462601561e+00 1.7587591211e+00 3.0462601561e+00 
45800 5.4838338576e+00 -4.1271328773e-05 1.7587591211e+00 -3.0462601561e+00 1.7587591211e+00 3.0462601561e+00 
45900 5.4838338579e+00 -4.1378343568e-05 1.7587591211e+00 -3.0462601561e+00 1.7587591211e+00 3.0462601561e+00 
46000 5.4838338582e+00 -4.1483990529e-05 1.7587591211e+00 -3.0462601561e+00 1.7587591211e+00 3.0462601561e+00 
46100 5.4838338585e+00 -4.1588200409e-05 1.7587591211e+00 -3.0462601561e+00 1.7587591211e+00 3.0462601561e+00 
46200 5.4838338588e+00 -4.1690909277e-05 1.7587591211e+00 -3.0462601561e+00 1.7587591211e+00 3.0462601561e+00 
46300 5.4838338590e+00 -4.1792058414e-05 1.7587591211e+00 -3.0462601561e+00 1.7587591211e+00 3.0462601561e+00 
46400 5.4838338593e+00 -4.1891594203e-05 1.7587591211e+00 -3.0462601561e+00 1.7587591211e+00 3.0462601561e+00 
46500 5.4838338596e+00 -4.1989468020e-05 1.7587591211e+00 -3.0462601561e+00 1.7587591211e+00 3.0462601561e+00 
46600 5.4838338598e+00 -4.2085636108e-05 1.7587591211e+00 -3.0462601561e+00 1.7587591211e+00 3.0462601561e+00 
46700 5.4838338601e+00 -4.2180059459e-05 1.7587591211e+00 -3.0462601561e+00 1.7587591211e+00 3.0462601561e+00 
46800 5.4838338604e+00 -4.2272703681e-05 1.7587591211e+00 -3.0462601561e+00 1.7587591211e+00 3.0462601561e+00 
46900 5.4838338606e+00 -4.2363538870e-05 1.7587591211e+00 -3.0462601561e+00 1.7587591211e+00 3.0462601561e+00 
47000 5.4838338609e+00 -4.2452539472e-05 1.7587591211e+00 -3.0462601561e+00 1.7587591211e+00 3.0462601561e+00 
47100 5.4838338611e+00 -4.2539684149e-05 1.7587591211e+00 -3.0462601561e+00 1.7587591211e+00 3.0462601561e+00 
47200 5.4838338613e+00 -4.2624955634e-05 1.7587591211e+00 -3.0462601561e+00 1.7587591211e+00 3.0462601561e+00 
47300 5.4838338616e+00 -4.2708340594e-05 1.7587591211e+00 -3.0462601561e+00 1.7587591211e+00 3.0462601561e+00 
47400 5.4838338618e+00 -4.2789829479e-05 1.7587591211e+00 -3.0462601561e+00 1.7587591211e+00 3.0462601561e+00 
47500 5.4838338620e+00 -4.2869416386e-05 1.7587591211e+00 -3.0462601561e+00 1.7587591211e+00 3.0462601561e+00 
47600 5.4838338623e+00 -4.2947098906e-05 1.7587591211e+00 -3.0462601561e+00 1.7587591211e+00 3.0462601561e+00 
47700 5.4838338625e+00 -4.3022877979e-05 1.7587591211e+00 -3.0462601561e+00 1.7587591211e+00 3.0462601561e+00 
47800 5.4838338627e+00 -4.3096757746e-05 1.7587591211e+00 -3.0462601561e+00 1.7587591211e+00 3.0462601561e+00 
47900 5.4838338629e+00 -4.3168745405e-05 1.7587591211e+00 -3.0462601561e+00 1.7587591211e+00 3.0462601561e+00 
48000 5.4838338631e+00 -4.3238851062e-05 1.7587591211e+00 -3.0462601561e+00 1.7587591211e+00 3.0462601561e+00 
48100 5.4838338633e+00 -4.3307087586e-05 1.7587591211e+00 -3.0462601561e+00 1.7587591211e+00 3.0462601561e+00 
48200 5.4838338635e+00 -4.3373470460e-05 1.7587591211e+00 -3.0462601561e+00 1.7587591211e+00 3.0462601561e+00 
48300 5.4838338637e+00 -4.3438017644e-05 1.7587591211e+00 -3.0462601561e+00 1.7587591211e+00 3.0462601561e+00 
48400 5.4838338639e+00 -4.3500749425e-05 1.7587591211e+00 -3.0462601561e+00 1.7587591211e+00 3.0462601561e+00 
48500 5.4838338641e+00 -4.3561688280e-05 1.7587591211e+00 -3.0462601561e+00 1.7587591211e+00 3.0462601561e+00 
48600 5.4838338643e+00 -4.3620858737e-05 1.7587591211e+00 -3.0462601561e+00 1.7587591211e+00 3.0462601561e+00 
48700 5.4838338645e+00 -4.3678287234e-05 1.7587591211e+00 -3.0462601561e+00 1.7587591211e+00 3.0462601561e+00 
48800 5.4838338647e+00 -4.3734001989e-05 1.7587591211e+00 -3.0462601561e+00 1.7587591211e+00 3.0462601561e+00 
48900 5.4838338648e+00 -4.3788032861e-05 1.7587591211e+00 -3.0462601561e+00 1.7587591211e+00 3.0462601561e+00 
49000 5.4838338650e+00 -4.3840411228e-05 1.7587591211e+00 -3.0462601561e+00 1.7587591211e+00 3.0462601561e+00 
49100 5.4838338652e+00 -4.3891169849e-05 1.7587591211e+00 -3.0462601561e+00 1.7587591211e+00 3.0462601561e+00 
49200 5.4838338654e+00 -4.3940342750e-05 1.7587591211e+00 -3.0462601561e+00 1.7587591211e+00 3.0462601561e+00 
49300 5.4838338655e+00 -4.3987965093e-05 1.7587591211e+00 -3.0462601561e+00 1.7587591211e+00 3.0462601561e+00 
49400 5.4838338657e+00 -4.4034073065e-05 1.7587591211e+00 -3.0462601561e+00 1.7587591211e+00 3.0462601561e+00 
49500 5.4838338659e+00 -4.4078703758e-05 1.7587591211e+00 -3.0462601561e+00 1.7587591211e+00 3.0462601561e+00 
49600 5.4838338660e+00 -4.4121895058e-05 1.7587591211e+00 -3.0462601561e+00 1.7587591211e+00 3.0462601561e+00 
49700 5.4838338662e+00 -4.4163685533e-05 1.7587591211e+00 -3.0462601561e+00 1.7587591211e+00 3.0462601561e+00 
49800 5.4838338663e+00 -4.4204114336e-05 1.7587591211e+00 -3.0462601561e+00 1.7587591211e+00 3.0462601561e+00 
49900 5.4838338665e+00 -4.4243221094e-05 1.7587591211e+00 -3.0462601561e+00 1.7587591211e+00 3.0462601561e+00 
50000 5.4838338666e+00 -4.4281045812e-05 1.7587591211e+00 -3.0462601561e+00 1.7587591211e+00 3.0462601561e+00 
50100 5.4838338668e+00 -4.4317628784e-05 1.7587591211e+00 -3.0462601561e+00 1.7587591211e+00 3.0462601561e+00 
50200 5.4838338669e+00 -4.4353010491e-05 1.7587591211e+00 -3.0462601561e+00 1.7587591211e+00 3.0462601561e+00 
50300 5.4838338671e+00 -4.4387231524e-05 1.7587591211e+00 -3.0462601561e+00 1.7587591211e+00 3.0462601561e+00 
50400 5.4838338672e+00 -4.4420332494e-05 1.7587591211e+00 -3.0462601561e+00 1.7587591211e+00 3.0462601561e+00 
50500 5.4838338673e+00 -4.4452353954e-05 1.7587591211e+00 -3.0462601561e+00 1.7587591211e+00 3.0462601561e+00 
50600 5.4838338675e+00 -4.4483336320e-05 1.7587591211e+00 -3.0462601561e+00 1.7587591211e+00 3.0462601561e+00 
50700 5.4838338676e+00 -4.4513319800e-05 1.7587591211e+00 -3.0462601561e+00 1.7587591211e+00 3.0462601561e+00 
50800 5.4838338677e+00 -4.4542344326e-05 1.7587591211e+00 -3.0462601561e+00 1.7587591211e+00 3.0462601561e+00 
50900 5.4838338679e+00 -4.4570449486e-05 1.7587591211e+00 -3.0462601561e+00 1.7587591211e+00 3.0462601561e+00 
51000 5.4838338680e+00 -4.4597674462e-05 1.7587591211e+00 -3.0462601561e+00 1.7587591211e+00 3.0462601561e+00 
51100 5.4838338681e+00 -4.4624057973e-05 1.7587591211e+00 -3.0462601561e+00 1.7587591211e+00 3.0462601561e+00 
51200 5.4838338682e+00 -4.4649638218e-05 1.7587591211e+00 -3.0462601561e+00 1.7587591211e+00 3.0462601561e+00 
51300 5.4838338684e+00 -4.4674452827e-05 1.7587591211e+00 -3.0462601561e+00 1.7587591211e+00 3.0462601561e+00 
51400 5.4838338685e+00 -4.4698538811e-05 1.7587591211e+00 -3.0462601561e+00 1.7587591211e+00 3.0462601561e+00 
51500 5.4838338686e+00 -4.4721932518e-05 1.7587591211e+00 -3.0462601561e+00 1.7587591211e+00 3.0462601561e+00 
51600 5.4838338687e+00 -4.4744669591e-05 1.7587591211e+00 -3.0462601561e+00 1.7587591211e+00 3.0462601561e+00 
51700 5.4838338688e+00 -4.4766784933e-05 1.7587591211e+00 -3.0462601561e+00 1.7587591211e+00 3.0462601561e+00 
51800 5.4838338689e+00 -4.4788312664e-05 1.7587591211e+00 -3.0462601561e+00 1.7587591211e+00 3.0462601561e+00 
51900 5.4838338690e+00 -4.4809286101e-05 1.7587591211e+00 -3.0462601561e+00 1.7587591211e+00 3.0462601561e+00 
52000 5.4838338692e+00 -4.4829737717e-05 1.7587591211e+00 -3.0462601561e+00 1.7587591211e+00 3.0462601561e+00 
52100 5.4838338693e+00 -4.4849699128e-05 1.7587591211e+00 -3.0462601561e+00 1.7587591211e+00 3.0462601561e+00 
52200 5.4838338694e+00 -4.4869201057e-05 1.7587591211e+00 -3.0462601561e+00 1.7587591211e+00 3.0462601561e+00 
52300 5.4838338695e+00 -4.4888273324e-05 1.7587591211e+00 -3.0462601561e+00 1.7587591211e+00 3.0462601561e+00 
52400 5.4838338696e+00 -4.4906944823e-05 1.7587591211e+00 -3.0462601561e+00 1.7587591211e+00 3.0462601561e+00 
52500 5.4838338697e+00 -4.4925243510e-05 1.7587591211e+00 -3.0462601561e+00 1.7587591211e+00 3.0462601561e+00 
52600 5.4838338698e+00 -4.4943196390e-05 1.7587591211e+00 -3.0462601561e+00 1.7587591211e+00 3.0462601561e+00 
52700 5.4838338699e+00 -4.4960829507e-05 1.7587591211e+00 -3.0462601561e+00 1.7587591211e+00 3.0462601561e+00 
52800 5.4838338700e+00 -4.4978167936e-05 1.7587591211e+00 -3.0462601561e+00 1.7587591211e+00 3.0462601561e+00 
52900 5.4838338701e+00 -4.4995235781e-05 1.7587591211e+00 -3.0462601561e+00 1.7587591211e+00 3.0462601561e+00 
53000 5.4838338701e+00 -4.5012056169e-05 1.7587591211e+00 -3.0462601561e+00 1.7587591211e+00 3.0462601561e+00 
53100 5.4838338702e+00 -4.5028651251e-05 1.7587591211e+00 -3.0462601561e+00 1.7587591211e+00 3.0462601561e+00 
53200 5.4838338703e+00 -4.5045042202e-05 1.7587591211e+00 -3.0462601561e+00 1.7587591211e+00 3.0462601561e+00 
53300 5.4838338704e+00 -4.5061249226e-05 1.7587591211e+00 -3.0462601561e+00 1.7587591211e+00 3.0462601561e+00 
53400 5.4838338705e+00 -4.5077291559e-05 1.7587591211e+00 -3.0462601561e+00 1.7587591211e+00 3.0462601561e+00 
53500 5.4838338706e+00 -4.5093187477e-05 1.7587591211e+00 -3.0462601561e+00 1.7587591211e+00 3.0462601561e+00 
53600 5.4838338707e+00 -4.5108954306e-05 1.7587591211e+00 -3.0462601561e+00 1.7587591211e+00 3.0462601561e+00 
53700 5.4838338708e+00 -4.5124608425e-05 1.7587591211e+00 -3.0462601561e+00 1.7587591211e+00 3.0462601561e+00 
53800 5.4838338708e+00 -4.5140165292e-05 1.7587591211e+00 -3.0462601561e+00 1.7587591211e+00 3.0462601561e+00 
53900 5.4838338709e+00 -4.5155639439e-05 1.7587591211e+00 -3.0462601561e+00 1.7587591211e+00 3.0462601561e+00 
54000 5.4838338710e+00 -4.5171044499e-05 1.7587591211e+00 -3.0462601561e+00 1.7587591211e+00 3.0462601561e+00 
54100 5.4838338711e+00 -4.5186393215e-05 1.7587591211e+00 -3.0462601561e+00 1.7587591211e+00 3.0462601561e+00 
54200 5.4838338711e+00 -4.5201697461e-05 1.7587591211e+00 -3.0462601561e+00 1.7587591211e+00 3.0462601561e+00 
54300 5.4838338712e+00 -4.5216968257e-05 1.7587591211e+00 -3.0462601561e+00 1.7587591211e+00 3.0462601561e+00 
54400 5.4838338713e+00 -4.5232215786e-05 1.7587591211e+00 -3.0462601561e+00 1.7587591211e+00 3.0462601561e+00 
54500 5.4838338714e+00 -4.5247449414e-05 1.7587591211e+00 -3.0462601561e+00 1.7587591211e+00 3.0462601561e+00 
54600 5.4838338714e+00 -4.5262677715e-05 1.7587591211e+00 -3.0462601561e+00 1.7587591211e+00 3.0462601561e+00 
54700 5.4838338715e+00 -4.5277908486e-05 1.7587591211e+00 -3.0462601561e+00 1.7587591211e+00 3.0462601561e+00 
54800 5.4838338716e+00 -4.5293148771e-05 1.7587591211e+00 -3.0462601561e+00 1.7587591211e+00 3.0462601561e+00 
54900 5.4838338716e+00 -4.5308404881e-05 1.7587591211e+00 -3.0462601561e+00 1.7587591211e+00 3.0462601561e+00 
55000 5.4838338717e+00 -4.5323682422e-05 1.7587591211e+00 -3.0462601561e+00 1.7587591211e+00 3.0462601561e+00 
55100 5.4838338718e+00 -4.5338986312e-05 1.7587591211e+00 -3.0462601561e+00 1.7587591211e+00 3.0462601561e+00 
55200 5.4838338718e+00 -4.5354320808e-05 1.7587591211e+00 -3.0462601561e+00 1.7587591211e+00 3.0462601561e+00 
55300 5.4838338719e+00 -4.5369689528e-05 1.7587591211e+00 -3.0462601561e+00 1.7587591211e+00 3.0462601561e+00 
55400 5.4838338720e+00 -4.5385095476e-05 1.7587591211e+00 -3.0462601561e+00 1.7587591211e+00 3.0462601561e+00 
55500 5.4838338720e+00 -4.5400541066e-05 1.7587591211e+00 -3.0462601561e+00 1.7587591211e+00 3.0462601561e+00 
55600 5.4838338721e+00 -4.5416028146e-05 1.7587591211e+00 -3.0462601561e+00 1.7587591211e+00 3.0462601561e+00 
55700 5.4838338722e+00 -4.5431558023e-05 1.7587591211e+00 -3.0462601561e+00 1.7587591211e+00 3.0462601561e+00 
55800 5.4838338722e+00 -4.5447131488e-05 1.7587591211e+00 -3.0462601561e+00 1.7587591211e+00 3.0462601561e+00 
55900 5.4838338723e+00 -4.5462748838e-05 1.7587591211e+00 -3.0462601561e+00 1.7587591211e+00 3.0462601561e+00 
56000 5.4838338723e+00 -4.5478409901e-05 1.7587591211e+00 -3.0462601561e+00 1.7587591211e+00 3.0462601561e+00 
56100 5.4838338724e+00 -4.5494114063e-05 1.7587591211e+00 -3.0462601561e+00 1.7587591211e+00 3.0462601561e+00 
56200 5.4838338724e+00 -4.5509860288e-05 1.7587591211e+00 -3.0462601561e+00 1.7587591211e+00 3.0462601561e+00 
56300 5.4838338725e+00 -4.5525647146e-05 1.7587591211e+00 -3.0462601561e+00 1.7587591211e+00 3.0462601561e+00 
56400 5.4838338725e+00 -4.5541472833e-05 1.7587591211e+00 -3.0462601561e+00 1.7587591211e+00 3.0462601561e+00 
56500 5.4838338726e+00 -4.5557335195e-05 1.7587591211e+00 -3.0462601561e+00 1.7587591211e+00 3.0462601561e+00 
56600 5.4838338727e+00 -4.5573231753e-05 1.7587591211e+00 -3.0462601561e+00 1.7587591211e+00 3.0462601561e+00 
56700 5.4838338727e+00 -4.5589159721e-05 1.7587591211e+00 -3.0462601561e+00 1.7587591211e+00 3.0462601561e+00 
56800 5.4838338728e+00 -4.5605116037e-05 1.7587591211e+00 -3.0462601561e+00 1.7587591211e+00 3.0462601561e+00 
56900 5.4838338728e+00 -4.5621097373e-05 1.7587591211e+00 -3.0462601561e+00 1.7587591211e+00 3.0462601561e+00 
57000 5.4838338729e+00 -4.5636139460e-05 1.7587591211e+00 -3.0462601561e+00 1.7587591211e+00 3.0462601561e+00 
57000 5.4838338729e+00 -4.5636139460e-05 1.7587591211e+00 -3.0462601561e+00 1.7587591211e+00 3.0462601561e+00 
