# step Hamiltonian StressXX CellTensor1 CellTensor2 CellTensor3 CellTensor4 
0 4.9063034847e+00 -2.5349337553e-01 1.7439943123e+00 -3.0206867570e+00 1.7439943123e+00 3.0206867570e+00 
100 4.9119082672e+00 -2.5520533116e-01 1.7439943123e+00 -3.0206867570e+00 1.7439943123e+00 3.0206867570e+00 
200 4.9154179568e+00 -2.5188335521e-01 1.7513160974e+00 -3.0333684608e+00 1.7513160974e+00 3.0333684608e+00 
300 4.9189807965e+00 -2.4870520916e-01 1.7585122578e+00 -3.0458325762e+00 1.7585122578e+00 3.0458325762e+00 
400 4.9225499593e+00 -2.4567595738e-01 1.7655884447e+00 -3.0580888914e+00 1.7655884447e+00 3.0580888914e+00 
500 4.9260784303e+00 -2.4280043912e-01 1.7725503353e+00 -3.0701472397e+00 1.7725503353e+00 3.0701472397e+00 
600 4.9295203295e+00 -2.4008288247e-01 1.7794036300e+00 -3.0820174942e+00 1.7794036300e+00 3.0820174942e+00 
700 4.9328320061e+00 -2.3752661683e-01 1.7861540380e+00 -3.0937095440e+00 1.7861540380e+00 3.0937095440e+00 
800 4.9359729290e+00 -2.3513386673e-01 1.7928072559e+00 -3.1052332553e+00 1.7928072559e+00 3.1052332553e+00 
900 4.9389063865e+00 -2.3290561345e-01 1.7993689397e+00 -3.1165984252e+00 1.7993689397e+00 3.1165984252e+00 
1000 4.9416000154e+00 -2.3084151357e-01 1.8058446748e+00 -3.1278147273e+00 1.8058446748e+00 3.1278147273e+00 
1100 4.9440261720e+00 -2.2893986531e-01 1.8122399425e+00 -3.1388916560e+00 1.8122399425e+00 3.1388916560e+00 
1200 4.9461621598e+00 -2.2719761483e-01 1.8185600879e+00 -3.1498384688e+00 1.8185600879e+00 3.1498384688e+00 
1300 4.9479903301e+00 -2.2561039586e-01 1.8248102866e+00 -3.1606641305e+00 1.8248102866e+00 3.1606641305e+00 
1400 4.9494980686e+00 -2.2417259641e-01 1.8309955143e+00 -3.1713772593e+00 1.8309955143e+00 3.1713772593e+00 
1500 4.9506776826e+00 -2.2287744724e-01 1.8371205183e+00 -3.1819860772e+00 1.8371205183e+00 3.1819860772e+00 
1600 4.9515262049e+00 -2.2171712716e-01 1.8431897906e+00 -3.1924983653e+00 1.8431897906e+00 3.1924983653e+00 
1700 4.9520451250e+00 -2.2068288057e-01 1.8492075463e+00 -3.2029214239e+00 1.8492075463e+00 3.2029214239e+00 
1800 4.9522400656e+00 -2.1976514334e-01 1.8551777031e+00 -3.2132620388e+00 1.8551777031e+00 3.2132620388e+00 
1900 4.9521204131e+00 -2.1895367331e-01 1.8611038661e+00 -3.2235264543e+00 1.8611038661e+00 3.2235264543e+00 
2000 4.9516989175e+00 -2.1823768224e-01 1.8669893155e+00 -3.2337203516e+00 1.8669893155e+00 3.2337203516e+00 
2100 4.9509912710e+00 -2.1760596646e-01 1.8728369974e+00 -3.2438488338e+00 1.8728369974e+00 3.2438488338e+00 
2200 4.9500156760e+00 -2.1704703392e-01 1.8786495193e+00 -3.2539164170e+00 1.8786495193e+00 3.2539164170e+00 
2300 4.9487924123e+00 -2.1654922558e-01 1.8844291478e+00 -3.2639270272e+00 1.8844291478e+00 3.2639270272e+00 
2400 4.9473434102e+00 -2.1610082974e-01 1.8901778101e+00 -3.2738840024e+00 1.8901778101e+00 3.2738840024e+00 
2500 4.9456918369e+00 -2.1569018805e-01 1.8958970981e+00 -3.2837900998e+00 1.8958970981e+00 3.2837900998e+00 
2600 4.9438617027e+00 -2.1530579247e-01 1.9015882752e+00 -3.2936475077e+00 1.9015882752e+00 3.2936475077e+00 
2700 4.9418774890e+00 -2.1493637257e-01 1.9072522854e+00 -3.3034578611e+00 1.9072522854e+00 3.3034578611e+00 
2800 4.9397638046e+00 -2.1457097307e-01 1.9128897644e+00 -3.3132222611e+00 1.9128897644e+00 3.3132222611e+00 
2900 4.9375450710e+00 -2.1419902157e-01 1.9185010527e+00 -3.3229412976e+00 1.9185010527e+00 3.3229412976e+00 
3000 4.9352452382e+00 -2.1381038670e-01 1.9240862099e+00 -3.3326150736e+00 1.9240862099e+00 3.3326150736e+00 
3100 4.9328875332e+00 -2.1339542709e-01 1.9296450303e+00 -3.3422432330e+00 1.9296450303e+00 3.3422432330e+00 
3200 4.9304942399e+00 -2.1294503167e-01 1.9351770594e+00 -3.3518249885e+00 1.9351770594e+00 3.3518249885e+00 
3300 4.9280865111e+00 -2.1245065188e-01 1.9406816113e+00 -3.3613591520e+00 1.9406816113e+00 3.3613591520e+00 
3400 4.9256842116e+00 -2.1190432652e-01 1.9461577862e+00 -3.3708441652e+00 1.9461577862e+00 3.3708441652e+00 
3500 4.9233057901e+00 -2.1129869988e-01 1.9516044886e+00 -3.3802781306e+00 1.9516044886e+00 3.3802781306e+00 
3600 4.9209681802e+00 -2.1062703385e-01 1.9570204455e+00 -3.3896588430e+00 1.9570204455e+00 3.3896588430e+00 
3700 4.9186867268e+00 -2.0988321485e-01 1.9624042241e+00 -3.3989838212e+00 1.9624042241e+00 3.3989838212e+00 
3800 4.9164751379e+00 -2.0906175601e-01 1.9677542503e+00 -3.4082503383e+00 1.9677542503e+00 3.4082503383e+00 
3900 4.9143454581e+00 -2.0815779558e-01 1.9730688257e+00 -3.4174554530e+00 1.9730688257e+00 3.4174554530e+00 
4000 4.9123080632e+00 -2.0716709179e-01 1.9783461454e+00 -3.4265960388e+00 1.9783461454e+00 3.4265960388e+00 
4100 4.9103716723e+00 -2.0608601510e-01 1.9835843145e+00 -3.4356688138e+00 1.9835843145e+00 3.4356688138e+00 
4200 4.9085433778e+00 -2.0491153792e-01 1.9887813644e+00 -3.4446703682e+00 1.9887813644e+00 3.4446703682e+00 
4300 4.9068286884e+00 -2.0364122264e-01 1.9939352686e+00 -3.4535971923e+00 1.9939352686e+00 3.4535971923e+00 
4400 4.9052315860e+00 -2.0227320795e-01 1.9990439581e+00 -3.4624457020e+00 1.9990439581e+00 3.4624457020e+00 
4500 4.9037545925e+00 -2.0080619412e-01 2.0041053354e+00 -3.4712122646e+00 2.0041053354e+00 3.4712122646e+00 
4600 4.9023988474e+00 -1.9923942717e-01 2.0091172887e+00 -3.4798932224e+00 2.0091172887e+00 3.4798932224e+00 
4700 4.9011641916e+00 -1.9757268241e-01 2.0140777053e+00 -3.4884849160e+00 2.0140777053e+00 3.4884849160e+00 
4800 4.9000492585e+00 -1.9580624728e-01 2.0189844842e+00 -3.4969837063e+00 2.0189844842e+00 3.4969837063e+00 
4900 4.8990515704e+00 -1.9394090381e-01 2.0238355477e+00 -3.5053859948e+00 2.0238355477e+00 3.5053859948e+00 
5000 4.8981676383e+00 -1.9197791053e-01 2.0286288534e+00 -3.5136882438e+00 2.0286288534e+00 3.5136882438e+00 
5100 4.8973930648e+00 -1.8991898413e-01 2.0333624045e+00 -3.5218869948e+00 2.0333624045e+00 3.5218869948e+00 
5200 4.8967226485e+00 -1.8776628060e-01 2.0380342602e+00 -3.5299788863e+00 2.0380342602e+00 3.5299788863e+00 
5300 4.8961504898e+00 -1.8552237606e-01 2.0426425453e+00 -3.5379606701e+00 2.0426425453e+00 3.5379606701e+00 
5400 4.8956700965e+00 -1.8319024712e-01 2.0471854587e+00 -3.5458292270e+00 2.0471854587e+00 3.5458292270e+00 
5500 4.8952744881e+00 -1.8077325074e-01 2.0516612826e+00 -3.5535815813e+00 2.0516612826e+00 3.5535815813e+00 
5600 4.8949562997e+00 -1.7827510350e-01 2.0560683894e+00 -3.5612149142e+00 2.0560683894e+00 3.5612149142e+00 
5700 4.8947078824e+00 -1.7569986032e-01 2.0604052495e+00 -3.5687265764e+00 2.0604052495e+00 3.5687265764e+00 
5800 4.8945214022e+00 -1.7305189242e-01 2.0646704380e+00 -3.5761140995e+00 2.0646704380e+00 3.5761140995e+00 
5900 4.8943889340e+00 -1.7033586463e-01 2.0688626401e+00 -3.5833752066e+00 2.0688626401e+00 3.5833752066e+00 
6000 4.8943025528e+00 -1.6755671180e-01 2.0729806574e+00 -3.5905078217e+00 2.0729806574e+00 3.5905078217e+00 
6100 4.8942544198e+00 -1.6471961453e-01 2.0770234122e+00 -3.5975100784e+00 2.0770234122e+00 3.5975100784e+00 
6200 4.8942368629e+00 -1.6182997400e-01 2.0809899521e+00 -3.6043803271e+00 2.0809899521e+00 3.6043803271e+00 
6300 4.8942424528e+00 -1.5889338610e-01 2.0848794537e+00 -3.6111171415e+00 2.0848794537e+00 3.6111171415e+00 
6400 4.8942640717e+00 -1.5591561466e-01 2.0886912257e+00 -3.6177193242e+00 2.0886912257e+00 3.6177193242e+00 
6500 4.8942949767e+00 -1.5290256416e-01 2.0924247112e+00 -3.6241859108e+00 2.0924247112e+00 3.6241859108e+00 
6600 4.8943288552e+00 -1.4986025175e-01 2.0960794899e+00 -3.6305161732e+00 2.0960794899e+00 3.6305161732e+00 
6700 4.8943598747e+00 -1.4679477880e-01 2.0996552793e+00 -3.6367096221e+00 2.0996552793e+00 3.6367096221e+00 
6800 4.8943827232e+00 -1.4371230214e-01 2.1031519352e+00 -3.6427660079e+00 2.1031519352e+00 3.6427660079e+00 
6900 4.8943926437e+00 -1.4061900511e-01 2.1065694522e+00 -3.6486853209e+00 2.1065694522e+00 3.6486853209e+00 
7000 4.8943854601e+00 -1.3752106866e-01 2.1099079626e+00 -3.6544677905e+00 2.1099079626e+00 3.6544677905e+00 
7100 4.8943575951e+00 -1.3442464254e-01 2.1131677355e+00 -3.6601138828e+00 2.1131677355e+00 3.6601138828e+00 
7200 4.8943060810e+00 -1.3133581704e-01 2.1163491752e+00 -3.6656242980e+00 2.1163491752e+00 3.6656242980e+00 
7300 4.8942285618e+00 -1.2826059517e-01 2.1194528186e+00 -3.6709999660e+00 2.1194528186e+00 3.6709999660e+00 
7400 4.8941232885e+00 -1.2520486577e-01 2.1224793325e+00 -3.6762420419e+00 2.1224793325e+00 3.6762420419e+00 
7500 4.8939891071e+00 -1.2217437757e-01 2.1254295102e+00 -3.6813518996e+00 2.1254295102e+00 3.6813518996e+00 
7600 4.8938254389e+00 -1.1917471443e-01 2.1283042674e+00 -3.6863311251e+00 2.1283042674e+00 3.6863311251e+00 
7700 4.8936322554e+00 -1.1621127192e-01 2.1311046379e+00 -3.6911815091e+00 2.1311046379e+00 3.6911815091e+00 
7800 4.8934100465e+00 -1.1328923548e-01 2.1338317687e+00 -3.6959050381e+00 2.1338317687e+00 3.6959050381e+00 
7900 4.8931597835e+00 -1.1041356019e-01 2.1364869146e+00 -3.7005038858e+00 2.1364869146e+00 3.7005038858e+00 
8000 4.8928828775e+00 -1.0758895229e-01 2.1390714329e+00 -3.7049804028e+00 2.1390714329e+00 3.7049804028e+00 
8100 4.8925811339e+00 -1.0481985257e-01 2.1415867769e+00 -3.7093371064e+00 2.1415867769e+00 3.7093371064e+00 
8200 4.8922567032e+00 -1.0211042171e-01 2.1440344898e+00 -3.7135766696e+00 2.1440344898e+00 3.7135766696e+00 
8300 4.8919120299e+00 -9.9464527610e-02 2.1464161983e+00 -3.7177019096e+00 2.1464161983e+00 3.7177019096e+00 
8400 4.8915497996e+00 -9.6885734628e-02 2.1487336054e+00 -3.7217157765e+00 2.1487336054e+00 3.7217157765e+00 
8500 4.8911728849e+00 -9.4377294963e-02 2.1509884838e+00 -3.7256213404e+00 2.1509884838e+00 3.7256213404e+00 
8600 4.8907842918e+00 -9.1942141943e-02 2.1531826685e+00 -3.7294217798e+00 2.1531826685e+00 3.7294217798e+00 
8700 4.8903871063e+00 -8.9582885322e-02 2.1553180498e+00 -3.7331203688e+00 2.1553180498e+00 3.7331203688e+00 
8800 4.8899844431e+00 -8.7301808487e-02 2.1573965660e+00 -3.7367204644e+00 2.1573965660e+00 3.7367204644e+00 
8900 4.8895793964e+00 -8.5100867529e-02 2.1594201958e+00 -3.7402254941e+00 2.1594201958e+00 3.7402254941e+00 
9000 4.8891749926e+00 -8.2981692100e-02 2.1613909517e+00 -3.7436389433e+00 2.1613909517e+00 3.7436389433e+00 
9100 4.8887741481e+00 -8.0945587969e-02 2.1633108719e+00 -3.7469643427e+00 2.1633108719e+00 3.7469643427e+00 
9200 4.8883796294e+00 -7.8993541178e-02 2.1651820141e+00 -3.7502052560e+00 2.1651820141e+00 3.7502052560e+00 
9300 4.8879940190e+00 -7.7126223699e-02 2.1670064479e+00 -3.7533652680e+00 2.1670064479e+00 3.7533652680e+00 
9400 4.8876196849e+00 -7.5344000475e-02 2.1687862481e+00 -3.7564479724e+00 2.1687862481e+00 3.7564479724e+00 
9500 4.8872587557e+00 -7.3646937725e-02 2.1705234882e+00 -3.7594569606e+00 2.1705234882e+00 3.7594569606e+00 
9600 4.8869131005e+00 -7.2034812405e-02 2.1722202338e+00 -3.7623958102e+00 2.1722202338e+00 3.7623958102e+00 
9700 4.8865843145e+00 -7.0507122688e-02 2.1738785364e+00 -3.7652680746e+00 2.1738785364e+00 3.7652680746e+00 
9800 4.8862737090e+00 -6.9063099350e-02 2.1755004275e+00 -3.7680772723e+00 2.1755004275e+00 3.7680772723e+00 
9900 4.8859823071e+00 -6.7701717947e-02 2.1770879126e+00 -3.7708268772e+00 2.1770879126e+00 3.7708268772e+00 
10000 4.8857108442e+00 -6.6421711655e-02 2.1786429663e+00 -3.7735203091e+00 2.1786429663e+00 3.7735203091e+00 
10100 4.8854597725e+00 -6.5221584670e-02 2.1801675266e+00 -3.7761609251e+00 2.1801675266e+00 3.7761609251e+00 
10200 4.8852292706e+00 -6.4099626065e-02 2.1816634905e+00 -3.7787520105e+00 2.1816634905e+00 3.7787520105e+00 
10300 4.8850192562e+00 -6.3053923991e-02 2.1831327091e+00 -3.7812967719e+00 2.1831327091e+00 3.7812967719e+00 
10400 4.8848294029e+00 -6.2082380151e-02 2.1845769839e+00 -3.7837983292e+00 2.1845769839e+00 3.7837983292e+00 
10500 4.8846591593e+00 -6.1182724442e-02 2.1859980624e+00 -3.7862597093e+00 2.1859980624e+00 3.7862597093e+00 
10600 4.8845077710e+00 -6.0352529702e-02 2.1873976347e+00 -3.7886838397e+00 2.1873976347e+00 3.7886838397e+00 
10700 4.8843743042e+00 -5.9589226486e-02 2.1887773306e+00 -3.7910735431e+00 2.1887773306e+00 3.7910735431e+00 
10800 4.8842576707e+00 -5.8890117810e-02 2.1901387162e+00 -3.7934315321e+00 2.1901387162e+00 3.7934315321e+00 
10900 4.8841566542e+00 -5.8252393804e-02 2.1914832918e+00 -3.7957604053e+00 2.1914832918e+00 3.7957604053e+00 
11000 4.8840699363e+00 -5.7673146229e-02 2.1928124892e+00 -3.7980626427e+00 2.1928124892e+00 3.7980626427e+00 
11100 4.8839961228e+00 -5.7149382804e-02 2.1941276702e+00 -3.8003406031e+00 2.1941276702e+00 3.8003406031e+00 
11200 4.8839337693e+00 -5.6678041308e-02 2.1954301248e+00 -3.8025965206e+00 2.1954301248e+00 3.8025965206e+00 
11300 4.8838814062e+00 -5.6256003415e-02 2.1967210698e+00 -3.8048325029e+00 2.1967210698e+00 3.8048325029e+00 
11400 4.8838375617e+00 -5.5880108234e-02 2.1980016481e+00 -3.8070505296e+00 2.1980016481e+00 3.8070505296e+00 
11500 4.8838007838e+00 -5.5547165505e-02 2.1992729276e+00 -3.8092524504e+00 2.1992729276e+00 3.8092524504e+00 
11600 4.8837696601e+00 -5.5253968444e-02 2.2005359014e+00 -3.8114399850e+00 2.2005359014e+00 3.8114399850e+00 
11700 4.8837428360e+00 -5.4997306187e-02 2.2017914869e+00 -3.8136147229e+00 2.2017914869e+00 3.8136147229e+00 
11800 4.8837190298e+00 -5.4773975814e-02 2.2030405266e+00 -3.8157781232e+00 2.2030405266e+00 3.8157781232e+00 
11900 4.8836970466e+00 -5.4580793932e-02 2.2042837885e+00 -3.8179315159e+00 2.2042837885e+00 3.8179315159e+00 
12000 4.8836757888e+00 -5.4414607777e-02 2.2055219662e+00 -3.8200761026e+00 2.2055219662e+00 3.8200761026e+00 
12100 4.8836542650e+00 -5.4272305829e-02 2.2067556804e+00 -3.8222129584e+00 2.2067556804e+00 3.8222129584e+00 
12200 4.8836315962e+00 -5.4150827899e-02 2.2079854800e+00 -3.8243430337e+00 2.2079854800e+00 3.8243430337e+00 
12300 4.8836070200e+00 -5.4047174686e-02 2.2092118430e+00 -3.8264671568e+00 2.2092118430e+00 3.8264671568e+00 
12400 4.8835798923e+00 -5.3958416766e-02 2.2104351789e+00 -3.8285860366e+00 2.2104351789e+00 3.8285860366e+00 
12500 4.8835496874e+00 -5.3881703013e-02 2.2116558294e+00 -3.8307002655e+00 2.2116558294e+00 3.8307002655e+00 
12600 4.8835159958e+00 -5.3814268426e-02 2.2128740716e+00 -3.8328103227e+00 2.2128740716e+00 3.8328103227e+00 
12700 4.8834785211e+00 -5.3753441352e-02 2.2140901190e+00 -3.8349165786e+00 2.2140901190e+00 3.8349165786e+00 
12800 4.8834370747e+00 -5.3696650098e-02 2.2153041244e+00 -3.8370192977e+00 2.2153041244e+00 3.8370192977e+00 
12900 4.8833915697e+00 -5.3641428927e-02 2.2165161825e+00 -3.8391186438e+00 2.2165161825e+00 3.8391186438e+00 
13000 4.8833420131e+00 -5.3585423424e-02 2.2177263317e+00 -3.8412146838e+00 2.2177263317e+00 3.8412146838e+00 
13100 4.8832884984e+00 -5.3526395247e-02 2.2189345576e+00 -3.8433073923e+00 2.2189345576e+00 3.8433073923e+00 
13200 4.8832311961e+00 -5.3462226248e-02 2.2201407951e+00 -3.8453966570e+00 2.2201407951e+00 3.8453966570e+00 
13300 4.8831703447e+00 -5.3390921984e-02 2.2213449317e+00 -3.8474822828e+00 2.2213449317e+00 3.8474822828e+00 
13400 4.8831062409e+00 -5.3310614617e-02 2.2225468101e+00 -3.8495639974e+00 2.2225468101e+00 3.8495639974e+00 
13500 4.8830392305e+00 -5.3219565214e-02 2.2237462316e+00 -3.8516414563e+00 2.2237462316e+00 3.8516414563e+00 
13600 4.8829696982e+00 -5.3116165468e-02 2.2249429584e+00 -3.8537142479e+00 2.2249429584e+00 3.8537142479e+00 
13700 4.8828980582e+00 -5.2998938844e-02 2.2261367174e+00 -3.8557818991e+00 2.2261367174e+00 3.8557818991e+00 
13800 4.8828247456e+00 -5.2866541177e-02 2.2273272027e+00 -3.8578438801e+00 2.2273272027e+00 3.8578438801e+00 
13900 4.8827502073e+00 -5.2717760740e-02 2.2285140789e+00 -3.8598996100e+00 2.2285140789e+00 3.8598996100e+00 
14000 4.8826748940e+00 -5.2551517794e-02 2.2296969842e+00 -3.8619484621e+00 2.2296969842e+00 3.8619484621e+00 
14100 4.8825992529e+00 -5.2366863660e-02 2.2308755332e+00 -3.8639897689e+00 2.2308755332e+00 3.8639897689e+00 
14200 4.8825237205e+00 -5.2162979323e-02 2.2320493202e+00 -3.8660228276e+00 2.2320493202e+00 3.8660228276e+00 
14300 4.8824487166e+00 -5.1939173592e-02 2.2332179218e+00 -3.8680469049e+00 2.2332179218e+00 3.8680469049e+00 
14400 4.8823746392e+00 -5.1694880851e-02 2.2343809001e+00 -3.8700612424e+00 2.2343809001e+00 3.8700612424e+00 
14500 4.8823018595e+00 -5.1429658424e-02 2.2355378053e+00 -3.8720650610e+00 2.2355378053e+00 3.8720650610e+00 
14600 4.8822307181e+00 -5.1143183571e-02 2.2366881787e+00 -3.8740575663e+00 2.2366881787e+00 3.8740575663e+00 
14700 4.8821615223e+00 -5.0835250157e-02 2.2378315553e+00 -3.8760379526e+00 2.2378315553e+00 3.8760379526e+00 
14800 4.8820945433e+00 -5.0505765002e-02 2.2389674663e+00 -3.8780054081e+00 2.2389674663e+00 3.8780054081e+00 
14900 4.8820300149e+00 -5.0154743955e-02 2.2400954417e+00 -3.8799591188e+00 2.2400954417e+00 3.8799591188e+00 
15000 4.8819681322e+00 -4.9782307706e-02 2.2412150127e+00 -3.8818982727e+00 2.2412150127e+00 3.8818982727e+00 
15100 4.8819090518e+00 -4.9388677370e-02 2.2423257142e+00 -3.8838220641e+00 2.2423257142e+00 3.8838220641e+00 
15200 4.8818528918e+00 -4.8974169858e-02 2.2434270867e+00 -3.8857296973e+00 2.2434270867e+00 3.8857296973e+00 
15300 4.8817997326e+00 -4.8539193069e-02 2.2445186787e+00 -3.8876203900e+00 2.2445186787e+00 3.8876203900e+00 
15400 4.8817496183e+00 -4.8084240919e-02 2.2456000483e+00 -3.8894933772e+00 2.2456000483e+00 3.8894933772e+00 
15500 4.8817025584e+00 -4.7609888241e-02 2.2466707657e+00 -3.8913479141e+00 2.2466707657e+00 3.8913479141e+00 
15600 4.8816585303e+00 -4.7116785564e-02 2.2477304143e+00 -3.8931832793e+00 2.2477304143e+00 3.8931832793e+00 
15700 4.8816174812e+00 -4.6605653802e-02 2.2487785926e+00 -3.8949987774e+00 2.2487785926e+00 3.8949987774e+00 
15800 4.8815793310e+00 -4.6077278878e-02 2.2498149159e+00 -3.8967937419e+00 2.2498149159e+00 3.8967937419e+00 
15900 4.8815439753e+00 -4.5532506295e-02 2.2508390173e+00 -3.8985675376e+00 2.2508390173e+00 3.8985675376e+00 
16000 4.8815112884e+00 -4.4972235675e-02 2.2518505493e+00 -3.9003195624e+00 2.2518505493e+00 3.9003195624e+00 
16100 4.8814811264e+00 -4.4397415298e-02 2.2528491848e+00 -3.9020492499e+00 2.2528491848e+00 3.9020492499e+00 
16200 4.8814533301e+00 -4.3809036637e-02 2.2538346181e+00 -3.9037560703e+00 2.2538346181e+00 3.9037560703e+00 
16300 4.8814277288e+00 -4.3208128934e-02 2.2548065657e+00 -3.9054395330e+00 2.2548065657e+00 3.9054395330e+00 
16400 4.8814041426e+00 -4.2595753811e-02 2.2557647673e+00 -3.9070991869e+00 2.2557647673e+00 3.9070991869e+00 
16500 4.8813823858e+00 -4.1972999951e-02 2.2567089864e+00 -3.9087346224e+00 2.2567089864e+00 3.9087346224e+00 
16600 4.8813622699e+00 -4.1340977848e-02 2.2576390107e+00 -3.9103454717e+00 2.2576390107e+00 3.9103454717e+00 
16700 4.8813436060e+00 -4.0700814664e-02 2.2585546524e+00 -3.9119314097e+00 2.2585546524e+00 3.9119314097e+00 
16800 4.8813262075e+00 -4.0053649183e-02 2.2594557491e+00 -3.9134921549e+00 2.2594557491e+00 3.9134921549e+00 
16900 4.8813098923e+00 -3.9400626896e-02 2.2603421631e+00 -3.9150274690e+00 2.2603421631e+00 3.9150274690e+00 
17000 4.8812944851e+00 -3.8742895221e-02 2.2612137825e+00 -3.9165371580e+00 2.2612137825e+00 3.9165371580e+00 
17100 4.8812798188e+00 -3.8081598875e-02 2.2620705201e+00 -3.9180210712e+00 2.2620705201e+00 3.9180210712e+00 
17200 4.8812657368e+00 -3.7417875403e-02 2.2629123144e+00 -3.9194791016e+00 2.2629123144e+00 3.9194791016e+00 
17300 4.8812520936e+00 -3.6752850886e-02 2.2637391284e+00 -3.9209111855e+00 2.2637391284e+00 3.9209111855e+00 
17400 4.8812387562e+00 -3.6087635830e-02 2.2645509500e+00 -3.9223173018e+00 2.2645509500e+00 3.9223173018e+00 
17500 4.8812256051e+00 -3.5423321251e-02 2.2653477913e+00 -3.9236974713e+00 2.2653477913e+00 3.9236974713e+00 
17600 4.8812125348e+00 -3.4760974959e-02 2.2661296879e+00 -3.9250517561e+00 2.2661296879e+00 3.9250517561e+00 
17700 4.8811994537e+00 -3.4101638055e-02 2.2668966991e+00 -3.9263802583e+00 2.2668966991e+00 3.9263802583e+00 
17800 4.8811862850e+00 -3.3446321643e-02 2.2676489064e+00 -3.9276831195e+00 2.2676489064e+00 3.9276831195e+00 
17900 4.8811729660e+00 -3.2796003767e-02 2.2683864133e+00 -3.9289605190e+00 2.2683864133e+00 3.9289605190e+00 
18000 4.8811594479e+00 -3.2151626574e-02 2.2691093444e+00 -3.9302126725e+00 2.2691093444e+00 3.9302126725e+00 
18100 4.8811456958e+00 -3.1514093712e-02 2.2698178449e+00 -3.9314398312e+00 2.2698178449e+00 3.9314398312e+00 
18200 4.8811316873e+00 -3.0884267958e-02 2.2705120790e+00 -3.9326422800e+00 2.2705120790e+00 3.9326422800e+00 
18300 4.8811174124e+00 -3.0262969088e-02 2.2711922297e+00 -3.9338203356e+00 2.2711922297e+00 3.9338203356e+00 
18400 4.8811028721e+00 -2.9650971986e-02 2.2718584976e+00 -3.9349743454e+00 2.2718584976e+00 3.9349743454e+00 
18500 4.8810880780e+00 -2.9049004983e-02 2.2725110997e+00 -3.9361046854e+00 2.2725110997e+00 3.9361046854e+00 
18600 4.8810730506e+00 -2.8457748444e-02 2.2731502685e+00 -3.9372117583e+00 2.2731502685e+00 3.9372117583e+00 
18700 4.8810578185e+00 -2.7877833584e-02 2.2737762512e+00 -3.9382959921e+00 2.2737762512e+00 3.9382959921e+00 
18800 4.8810424173e+00 -2.7309841519e-02 2.2743893081e+00 -3.9393578379e+00 2.2743893081e+00 3.9393578379e+00 
18900 4.8810268882e+00 -2.6754302548e-02 2.2749897120e+00 -3.9403977679e+00 2.2749897120e+00 3.9403977679e+00 
19000 4.8810112771e+00 -2.6211695654e-02 2.2755777466e+00 -3.9414162737e+00 2.2755777466e+00 3.9414162737e+00 
19100 4.8809956331e+00 -2.5682448234e-02 2.2761537059e+00 -3.9424138644e+00 2.2761537059e+00 3.9424138644e+00 
19200 4.8809800075e+00 -2.5166936032e-02 2.2767178925e+00 -3.9433910643e+00 2.2767178925e+00 3.9433910643e+00 
19300 4.8809644531e+00 -2.4665483290e-02 2.2772706170e+00 -3.9443484112e+00 2.2772706170e+00 3.9443484112e+00 
19400 4.8809490226e+00 -2.4178363091e-02 2.2778121964e+00 -3.9452864543e+00 2.2778121964e+00 3.9452864543e+00 
19500 4.8809337680e+00 -2.3705797892e-02 2.2783429536e+00 -3.9462057527e+00 2.2783429536e+00 3.9462057527e+00 
19600 4.8809187396e+00 -2.3247960251e-02 2.2788632155e+00 -3.9471068727e+00 2.2788632155e+00 3.9471068727e+00 
19700 4.8809039853e+00 -2.2804973714e-02 2.2793733125e+00 -3.9479903867e+00 2.2793733125e+00 3.9479903867e+00 
19800 4.8808895499e+00 -2.2376913876e-02 2.2798735774e+00 -3.9488568708e+00 2.2798735774e+00 3.9488568708e+00 
19900 4.8808754746e+00 -2.1963809592e-02 2.2803643440e+00 -3.9497069035e+00 2.2803643440e+00 3.9497069035e+00 
20000 4.8808617963e+00 -2.1565644336e-02 2.2808459465e+00 -3.9505410635e+00 2.2808459465e+00 3.9505410635e+00 
20100 4.8808485475e+00 -2.1182357690e-02 2.2813187182e+00 -3.9513599281e+00 2.2813187182e+00 3.9513599281e+00 
20200 4.8808357556e+00 -2.0813846956e-02 2.2817829908e+00 -3.9521640719e+00 2.2817829908e+00 3.9521640719e+00 
20300 4.8808234432e+00 -2.0459968884e-02 2.2822390933e+00 -3.9529540647e+00 2.2822390933e+00 3.9529540647e+00 
20400 4.8808116279e+00 -2.0120541499e-02 2.2826873513e+00 -3.9537304703e+00 2.2826873513e+00 3.9537304703e+00 
20500 4.8808003217e+00 -1.9795346016e-02 2.2831280860e+00 -3.9544938451e+00 2.2831280860e+00 3.9544938451e+00 
20600 4.8807895321e+00 -1.9484128839e-02 2.2835616134e+00 -3.9552447366e+00 2.2835616134e+00 3.9552447366e+00 
20700 4.8807792613e+00 -1.9186603626e-02 2.2839882438e+00 -3.9559836821e+00 2.2839882438e+00 3.9559836821e+00 
20800 4.8807695069e+00 -1.8902453408e-02 2.2844082808e+00 -3.9567112075e+00 2.2844082808e+00 3.9567112075e+00 
20900 4.8807602622e+00 -1.8631332763e-02 2.2848220208e+00 -3.9574278263e+00 2.2848220208e+00 3.9574278263e+00 
21000 4.8807515163e+00 -1.8372870020e-02 2.2852297525e+00 -3.9581340383e+00 2.2852297525e+00 3.9581340383e+00 
21100 4.8807432546e+00 -1.8126669490e-02 2.2856317561e+00 -3.9588303289e+00 2.2856317561e+00 3.9588303289e+00 
21200 4.8807354592e+00 -1.7892313719e-02 2.2860283027e+00 -3.9595171679e+00 2.2860283027e+00 3.9595171679e+00 
21300 4.8807281092e+00 -1.7669365737e-02 2.2864196545e+00 -3.9601950090e+00 2.2864196545e+00 3.9601950090e+00 
21400 4.8807211814e+00 -1.7457371318e-02 2.2868060635e+00 -3.9608642890e+00 2.2868060635e+00 3.9608642890e+00 
21500 4.8807146504e+00 -1.7255861218e-02 2.2871877718e+00 -3.9615254272e+00 2.2871877718e+00 3.9615254272e+00 
21600 4.8807084895e+00 -1.7064353394e-02 2.2875650110e+00 -3.9621788246e+00 2.2875650110e+00 3.9621788246e+00 
21700 4.8807026706e+00 -1.6882355204e-02 2.2879380018e+00 -3.9628248637e+00 2.2879380018e+00 3.9628248637e+00 
21800 4.8806971651e+00 -1.6709365560e-02 2.2883069543e+00 -3.9634639082e+00 2.2883069543e+00 3.9634639082e+00 
21900 4.8806919441e+00 -1.6544877042e-02 2.2886720673e+00 -3.9640963024e+00 2.2886720673e+00 3.9640963024e+00 
22000 4.8806869788e+00 -1.6388377969e-02 2.2890335282e+00 -3.9647223711e+00 2.2890335282e+00 3.9647223711e+00 
22100 4.8806822411e+00 -1.6239354398e-02 2.2893915135e+00 -3.9653424198e+00 2.2893915135e+00 3.9653424198e+00 
22200 4.8806777034e+00 -1.6097292082e-02 2.2897461879e+00 -3.9659567339e+00 2.2897461879e+00 3.9659567339e+00 
22300 4.8806733394e+00 -1.5961678338e-02 2.2900977051e+00 -3.9665655796e+00 2.2900977051e+00 3.9665655796e+00 
22400 4.8806691242e+00 -1.5832003862e-02 2.2904462074e+00 -3.9671692032e+00 2.2904462074e+00 3.9671692032e+00 
22500 4.8806650344e+00 -1.5707764456e-02 2.2907918257e+00 -3.9677678316e+00 2.2907918257e+00 3.9677678316e+00 
22600 4.8806610486e+00 -1.5588462677e-02 2.2911346800e+00 -3.9683616727e+00 2.2911346800e+00 3.9683616727e+00 
22700 4.8806571470e+00 -1.5473609401e-02 2.2914748793e+00 -3.9689509151e+00 2.2914748793e+00 3.9689509151e+00 
22800 4.8806533123e+00 -1.5362725305e-02 2.2918125218e+00 -3.9695357292e+00 2.2918125218e+00 3.9695357292e+00 
22900 4.8806495288e+00 -1.5255342249e-02 2.2921476954e+00 -3.9701162669e+00 2.2921476954e+00 3.9701162669e+00 
23000 4.8806457834e+00 -1.5151004577e-02 2.2924804774e+00 -3.9706926623e+00 2.2924804774e+00 3.9706926623e+00 
23100 4.8806420649e+00 -1.5049270315e-02 2.2928109354e+00 -3.9712650323e+00 2.2928109354e+00 3.9712650323e+00 
23200 4.8806383642e+00 -1.4949712283e-02 2.2931391271e+00 -3.9718334769e+00 2.2931391271e+00 3.9718334769e+00 
23300 4.8806346743e+00 -1.4851919101e-02 2.2934651009e+00 -3.9723980801e+00 2.2934651009e+00 3.9723980801e+00 
23400 4.8806309903e+00 -1.4755496110e-02 2.2937888963e+00 -3.9729589102e+00 2.2937888963e+00 3.9729589102e+00 
23500 4.8806273089e+00 -1.4660066188e-02 2.2941105440e+00 -3.9735160204e+00 2.2941105440e+00 3.9735160204e+00 
23600 4.8806236288e+00 -1.4565270472e-02 2.2944300667e+00 -3.9740694499e+00 2.2944300667e+00 3.9740694499e+00 
23700 4.8806199501e+00 -1.4470768992e-02 2.2947474790e+00 -3.9746192242e+00 2.2947474790e+00 3.9746192242e+00 
23800 4.8806162744e+00 -1.4376241197e-02 2.2950627882e+00 -3.9751653557e+00 2.2950627882e+00 3.9751653557e+00 
23900 4.8806126045e+00 -1.4281386404e-02 2.2953759946e+00 -3.9757078452e+00 2.2953759946e+00 3.9757078452e+00 
24000 4.8806089445e+00 -1.4185924144e-02 2.2956870920e+00 -3.9762466816e+00 2.2956870920e+00 3.9762466816e+00 
24100 4.8806052991e+00 -1.4089594422e-02 2.2959960680e+00 -3.9767818437e+00 2.2959960680e+00 3.9767818437e+00 
24200 4.8806016741e+00 -1.3992157893e-02 2.2963029045e+00 -3.9773133001e+00 2.2963029045e+00 3.9773133001e+00 
24300 4.8805980755e+00 -1.3893395953e-02 2.2966075783e+00 -3.9778410106e+00 2.2966075783e+00 3.9778410106e+00 
24400 4.8805945100e+00 -1.3793110740e-02 2.2969100614e+00 -3.9783649268e+00 2.2969100614e+00 3.9783649268e+00 
24500 4.8805909843e+00 -1.3691125072e-02 2.2972103216e+00 -3.9788849926e+00 2.2972103216e+00 3.9788849926e+00 
24600 4.8805875055e+00 -1.3587282291e-02 2.2975083226e+00 -3.9794011455e+00 2.2975083226e+00 3.9794011455e+00 
24700 4.8805840803e+00 -1.3481446049e-02 2.2978040250e+00 -3.9799133171e+00 2.2978040250e+00 3.9799133171e+00 
24800 4.8805807154e+00 -1.3373500014e-02 2.2980973862e+00 -3.9804214337e+00 2.2980973862e+00 3.9804214337e+00 
24900 4.8805774173e+00 -1.3263347523e-02 2.2983883613e+00 -3.9809254173e+00 2.2983883613e+00 3.9809254173e+00 
25000 4.8805741918e+00 -1.3150911156e-02 2.2986769032e+00 -3.9814251865e+00 2.2986769032e+00 3.9814251865e+00 
25100 4.8805710444e+00 -1.3036132270e-02 2.2989629630e+00 -3.9819206567e+00 2.2989629630e+00 3.9819206567e+00 
25200 4.8805679801e+00 -1.2918970464e-02 2.2992464909e+00 -3.9824117413e+00 2.2992464909e+00 3.9824117413e+00 
25300 4.8805650031e+00 -1.2799403002e-02 2.2995274358e+00 -3.9828983522e+00 2.2995274358e+00 3.9828983522e+00 
25400 4.8805621171e+00 -1.2677424190e-02 2.2998057465e+00 -3.9833804005e+00 2.2998057465e+00 3.9833804005e+00 
25500 4.8805593249e+00 -1.2553044704e-02 2.3000813715e+00 -3.9838577969e+00 2.3000813715e+00 3.9838577969e+00 
25600 4.8805566287e+00 -1.2426290884e-02 2.3003542595e+00 -3.9843304528e+00 2.3003542595e+00 3.9843304528e+00 
25700 4.8805540301e+00 -1.2297203998e-02 2.3006243599e+00 -3.9847982805e+00 2.3006243599e+00 3.9847982805e+00 
25800 4.8805515297e+00 -1.2165839467e-02 2.3008916231e+00 -3.9852611939e+00 2.3008916231e+00 3.9852611939e+00 
25900 4.8805491276e+00 -1.2032266070e-02 2.3011560004e+00 -3.9857191089e+00 2.3011560004e+00 3.9857191089e+00 
26000 4.8805468232e+00 -1.1896565124e-02 2.3014174450e+00 -3.9861719441e+00 2.3014174450e+00 3.9861719441e+00 
26100 4.8805446151e+00 -1.1758829646e-02 2.3016759115e+00 -3.9866196213e+00 2.3016759115e+00 3.9866196213e+00 
26200 4.8805425017e+00 -1.1619163503e-02 2.3019313568e+00 -3.9870620656e+00 2.3019313568e+00 3.9870620656e+00 
26300 4.8805404804e+00 -1.1477680548e-02 2.3021837400e+00 -3.9874992061e+00 2.3021837400e+00 3.9874992061e+00 
26400 4.8805385485e+00 -1.1334503749e-02 2.3024330226e+00 -3.9879309762e+00 2.3024330226e+00 3.9879309762e+00 
26500 4.8805367026e+00 -1.1189764316e-02 2.3026791689e+00 -3.9883573141e+00 2.3026791689e+00 3.9883573141e+00 
26600 4.8805349390e+00 -1.1043600830e-02 2.3029221459e+00 -3.9887781626e+00 2.3029221459e+00 3.9887781626e+00 
26700 4.8805332538e+00 -1.0896158370e-02 2.3031619237e+00 -3.9891934699e+00 2.3031619237e+00 3.9891934699e+00 
26800 4.8805316429e+00 -1.0747587648e-02 2.3033984756e+00 -3.9896031897e+00 2.3033984756e+00 3.9896031897e+00 
26900 4.8805301018e+00 -1.0598044160e-02 2.3036317780e+00 -3.9900072814e+00 2.3036317780e+00 3.9900072814e+00 
27000 4.8805286260e+00 -1.0447687340e-02 2.3038618109e+00 -3.9904057100e+00 2.3038618109e+00 3.9904057100e+00 
27100 4.8805272112e+00 -1.0296679736e-02 2.3040885575e+00 -3.9907984467e+00 2.3040885575e+00 3.9907984467e+00 
27200 4.8805258526e+00 -1.0145186201e-02 2.3043120048e+00 -3.9911854688e+00 2.3043120048e+00 3.9911854688e+00 
27300 4.8805245459e+00 -9.9933731043e-03 2.3045321431e+00 -3.9915667595e+00 2.3045321431e+00 3.9915667595e+00 
27400 4.8805232867e+00 -9.8414075700e-03 2.3047489665e+00 -3.9919423087e+00 2.3047489665e+00 3.9919423087e+00 
27500 4.8805220708e+00 -9.6894567338e-03 2.3049624726e+00 -3.9923121121e+00 2.3049624726e+00 3.9923121121e+00 
27600 4.8805208942e+00 -9.5376870314e-03 2.3051726627e+00 -3.9926761719e+00 2.3051726627e+00 3.9926761719e+00 
27700 4.8805197531e+00 -9.3862635141e-03 2.3053795415e+00 -3.9930344966e+00 2.3053795415e+00 3.9930344966e+00 
27800 4.8805186439e+00 -9.2353491953e-03 2.3055831176e+00 -3.9933871007e+00 2.3055831176e+00 3.9933871007e+00 
27900 4.8805175633e+00 -9.0851044280e-03 2.3057834028e+00 -3.9937340048e+00 2.3057834028e+00 3.9937340048e+00 
28000 4.8805165084e+00 -8.9356863169e-03 2.3059804125e+00 -3.9940752356e+00 2.3059804125e+00 3.9940752356e+00 
28100 4.8805154765e+00 -8.7872481629e-03 2.3061741654e+00 -3.9944108256e+00 2.3061741654e+00 3.9944108256e+00 
28200 4.8805144651e+00 -8.6399389450e-03 2.3063646838e+00 -3.9947408131e+00 2.3063646838e+00 3.9947408131e+00 
28300 4.8805134722e+00 -8.4939028363e-03 2.3065519927e+00 -3.9950652417e+00 2.3065519927e+00 3.9950652417e+00 
28400 4.8805124961e+00 -8.3492787577e-03 2.3067361207e+00 -3.9953841608e+00 2.3067361207e+00 3.9953841608e+00 
28500 4.8805115352e+00 -8.2061999684e-03 2.3069170991e+00 -3.9956976245e+00 2.3069170991e+00 3.9956976245e+00 
28600 4.8805105884e+00 -8.0647936940e-03 2.3070949622e+00 -3.9960056923e+00 2.3070949622e+00 3.9960056923e+00 
28700 4.8805096548e+00 -7.9251807912e-03 2.3072697468e+00 -3.9963084282e+00 2.3072697468e+00 3.9963084282e+00 
28800 4.8805087337e+00 -7.7874754514e-03 2.3074414926e+00 -3.9966059007e+00 2.3074414926e+00 3.9966059007e+00 
28900 4.8805078247e+00 -7.6517849402e-03 2.3076102417e+00 -3.9968981826e+00 2.3076102417e+00 3.9968981826e+00 
29000 4.8805069276e+00 -7.5182093748e-03 2.3077760382e+00 -3.9971853507e+00 2.3077760382e+00 3.9971853507e+00 
29100 4.8805060425e+00 -7.3868415372e-03 2.3079389288e+00 -3.9974674854e+00 2.3079389288e+00 3.9974674854e+00 
29200 4.8805051694e+00 -7.2577667245e-03 2.3080989617e+00 -3.9977446706e+00 2.3080989617e+00 3.9977446706e+00 
29300 4.8805043088e+00 -7.1310626326e-03 2.3082561874e+00 -3.9980169935e+00 2.3082561874e+00 3.9980169935e+00 
29400 4.8805034609e+00 -7.0067992767e-03 2.3084106578e+00 -3.9982845440e+00 2.3084106578e+00 3.9982845440e+00 
29500 4.8805026265e+00 -6.8850389430e-03 2.3085624262e+00 -3.9985474146e+00 2.3085624262e+00 3.9985474146e+00 
29600 4.8805018061e+00 -6.7658361745e-03 2.3087115474e+00 -3.9988057001e+00 2.3087115474e+00 3.9988057001e+00 
29700 4.8805010003e+00 -6.6492377875e-03 2.3088580773e+00 -3.9990594974e+00 2.3088580773e+00 3.9990594974e+00 
29800 4.8805002098e+00 -6.5352829184e-03 2.3090020729e+00 -3.9993089051e+00 2.3090020729e+00 3.9993089051e+00 
29900 4.8804994354e+00 -6.4240030993e-03 2.3091435918e+00 -3.9995540230e+00 2.3091435918e+00 3.9995540230e+00 
30000 4.8804986776e+00 -6.3154223617e-03 2.3092826925e+00 -3.9997949524e+00 2.3092826925e+00 3.9997949524e+00 
30100 4.8804979373e+00 -6.2095573651e-03 2.3094194338e+00 -4.0000317953e+00 2.3094194338e+00 4.0000317953e+00 
30200 4.8804972149e+00 -6.1064175519e-03 2.3095538749e+00 -4.0002646541e+00 2.3095538749e+00 4.0002646541e+00 
30300 4.8804965111e+00 -6.0060053242e-03 2.3096860752e+00 -4.0004936318e+00 2.3096860752e+00 4.0004936318e+00 
30400 4.8804958263e+00 -5.9083162427e-03 2.3098160942e+00 -4.0007188313e+00 2.3098160942e+00 4.0007188313e+00 
30500 4.8804951609e+00 -5.8133392458e-03 2.3099439912e+00 -4.0009403554e+00 2.3099439912e+00 4.0009403554e+00 
30600 4.8804945152e+00 -5.7210568870e-03 2.3100698252e+00 -4.0011583063e+00 2.3100698252e+00 4.0011583063e+00 
30700 4.8804938895e+00 -5.6314455889e-03 2.3101936550e+00 -4.0013727858e+00 2.3101936550e+00 4.0013727858e+00 
30800 4.8804932839e+00 -5.5444759128e-03 2.3103155386e+00 -4.0015838944e+00 2.3103155386e+00 4.0015838944e+00 
30900 4.8804926984e+00 -5.4601128420e-03 2.3104355336e+00 -4.0017917317e+00 2.3104355336e+00 4.0017917317e+00 
31000 4.8804921330e+00 -5.3783160764e-03 2.3105536966e+00 -4.0019963960e+00 2.3105536966e+00 4.0019963960e+00 
31100 4.8804915876e+00 -5.2990403382e-03 2.3106700834e+00 -4.0021979840e+00 2.3106700834e+00 4.0021979840e+00 
31200 4.8804910618e+00 -5.2222356859e-03 2.3107847489e+00 -4.0023965905e+00 2.3107847489e+00 4.0023965905e+00 
31300 4.8804905554e+00 -5.1478478361e-03 2.3108977469e+00 -4.0025923087e+00 2.3108977469e+00 4.0025923087e+00 
31400 4.8804900679e+00 -5.0758184901e-03 2.3110091298e+00 -4.0027852295e+00 2.3110091298e+00 4.0027852295e+00 
31500 4.8804895990e+00 -5.0060856658e-03 2.3111189489e+00 -4.0029754417e+00 2.3111189489e+00 4.0029754417e+00 
31600 4.8804891479e+00 -4.9385840312e-03 2.3112272541e+00 -4.0031630319e+00 2.3112272541e+00 4.0031630319e+00 
31700 4.8804887142e+00 -4.8732452401e-03 2.3113340939e+00 -4.0033480839e+00 2.3113340939e+00 4.0033480839e+00 
31800 4.8804882972e+00 -4.8099982672e-03 2.3114395153e+00 -4.0035306791e+00 2.3114395153e+00 4.0035306791e+00 
31900 4.8804878962e+00 -4.7487697423e-03 2.3115435638e+00 -4.0037108963e+00 2.3115435638e+00 4.0037108963e+00 
32000 4.8804875105e+00 -4.6894842811e-03 2.3116462831e+00 -4.0038888115e+00 2.3116462831e+00 4.0038888115e+00 
32100 4.8804871393e+00 -4.6320648133e-03 2.3117477156e+00 -4.0040644976e+00 2.3117477156e+00 4.0040644976e+00 
32200 4.8804867818e+00 -4.5764329044e-03 2.3118479016e+00 -4.0042380250e+00 2.3118479016e+00 4.0042380250e+00 
32300 4.8804864374e+00 -4.5225090724e-03 2.3119468801e+00 -4.0044094608e+00 2.3119468801e+00 4.0044094608e+00 
32400 4.8804861052e+00 -4.4702130971e-03 2.3120446882e+00 -4.0045788693e+00 2.3120446882e+00 4.0045788693e+00 
32500 4.8804857844e+00 -4.4194643211e-03 2.3121413612e+00 -4.0047463118e+00 2.3121413612e+00 4.0047463118e+00 
32600 4.8804854745e+00 -4.3701819423e-03 2.3122369326e+00 -4.0049118465e+00 2.3122369326e+00 4.0049118465e+00 
32700 4.8804851746e+00 -4.3222852963e-03 2.3123314344e+00 -4.0050755284e+00 2.3123314344e+00 4.0050755284e+00 
32800 4.8804848840e+00 -4.2756941285e-03 2.3124248967e+00 -4.0052374098e+00 2.3124248967e+00 4.0052374098e+00 
32900 4.8804846022e+00 -4.2303288548e-03 2.3125173478e+00 -4.0053975397e+00 2.3125173478e+00 4.0053975397e+00 
33000 4.8804843285e+00 -4.1861108109e-03 2.3126088143e+00 -4.0055559643e+00 2.3126088143e+00 4.0055559643e+00 
33100 4.8804840623e+00 -4.1429624888e-03 2.3126993211e+00 -4.0057127268e+00 2.3126993211e+00 4.0057127268e+00 
33200 4.8804838031e+00 -4.1008077611e-03 2.3127888915e+00 -4.0058678673e+00 2.3127888915e+00 4.0058678673e+00 
33300 4.8804835504e+00 -4.0595720910e-03 2.3128775471e+00 -4.0060214233e+00 2.3128775471e+00 4.0060214233e+00 
33400 4.8804833038e+00 -4.0191827303e-03 2.3129653079e+00 -4.0061734294e+00 2.3129653079e+00 4.0061734294e+00 
33500 4.8804830629e+00 -3.9795689023e-03 2.3130521922e+00 -4.0063239174e+00 2.3130521922e+00 4.0063239174e+00 
33600 4.8804828274e+00 -3.9406619711e-03 2.3131382169e+00 -4.0064729166e+00 2.3131382169e+00 4.0064729166e+00 
33700 4.8804825969e+00 -3.9023955970e-03 2.3132233974e+00 -4.0066204536e+00 2.3132233974e+00 4.0066204536e+00 
33800 4.8804823711e+00 -3.8647058773e-03 2.3133077477e+00 -4.0067665525e+00 2.3133077477e+00 4.0067665525e+00 
33900 4.8804821500e+00 -3.8275314729e-03 2.3133912802e+00 -4.0069112351e+00 2.3133912802e+00 4.0069112351e+00 
34000 4.8804819332e+00 -3.7908137208e-03 2.3134740063e+00 -4.0070545208e+00 2.3134740063e+00 4.0070545208e+00 
34100 4.8804817207e+00 -3.7544967323e-03 2.3135559358e+00 -4.0071964269e+00 2.3135559358e+00 4.0071964269e+00 
34200 4.8804815123e+00 -3.7185274770e-03 2.3136370775e+00 -4.0073369685e+00 2.3136370775e+00 4.0073369685e+00 
34300 4.8804813080e+00 -3.6828558535e-03 2.3137174390e+00 -4.0074761588e+00 2.3137174390e+00 4.0074761588e+00 
34400 4.8804811077e+00 -3.6474347459e-03 2.3137970269e+00 -4.0076140090e+00 2.3137970269e+00 4.0076140090e+00 
34500 4.8804809114e+00 -3.6122200673e-03 2.3138758466e+00 -4.0077505287e+00 2.3138758466e+00 4.0077505287e+00 
34600 4.8804807191e+00 -3.5771707905e-03 2.3139539027e+00 -4.0078857258e+00 2.3139539027e+00 4.0078857258e+00 
34700 4.8804805308e+00 -3.5422489652e-03 2.3140311987e+00 -4.0080196065e+00 2.3140311987e+00 4.0080196065e+00 
34800 4.8804803465e+00 -3.5074197241e-03 2.3141077376e+00 -4.0081521758e+00 2.3141077376e+00 4.0081521758e+00 
34900 4.8804801662e+00 -3.4726512761e-03 2.3141835215e+00 -4.0082834372e+00 2.3141835215e+00 4.0082834372e+00 
35000 4.8804799901e+00 -3.4379148892e-03 2.3142585516e+00 -4.0084133932e+00 2.3142585516e+00 4.0084133932e+00 
35100 4.8804798180e+00 -3.4031848613e-03 2.3143328288e+00 -4.0085420451e+00 2.3143328288e+00 4.0085420451e+00 
35200 4.8804796501e+00 -3.3684384816e-03 2.3144063533e+00 -4.0086693933e+00 2.3144063533e+00 4.0086693933e+00 
35300 4.8804794865e+00 -3.3336559821e-03 2.3144791248e+00 -4.0087954372e+00 2.3144791248e+00 4.0087954372e+00 
35400 4.8804793270e+00 -3.2988204786e-03 2.3145511426e+00 -4.0089201757e+00 2.3145511426e+00 4.0089201757e+00 
35500 4.8804791719e+00 -3.2639179050e-03 2.3146224056e+00 -4.0090436068e+00 2.3146224056e+00 4.0090436068e+00 
35600 4.8804790210e+00 -3.2289369372e-03 2.3146929124e+00 -4.0091657283e+00 2.3146929124e+00 4.0091657283e+00 
35700 4.8804788744e+00 -3.1938689113e-03 2.3147626615e+00 -4.0092865372e+00 2.3147626615e+00 4.0092865372e+00 
35800 4.8804787322e+00 -3.1587077340e-03 2.3148316510e+00 -4.0094060304e+00 2.3148316510e+00 4.0094060304e+00 
35900 4.8804785942e+00 -3.1234497861e-03 2.3148998789e+00 -4.0095242047e+00 2.3148998789e+00 4.0095242047e+00 
36000 4.8804784605e+00 -3.0880938215e-03 2.3149673433e+00 -4.0096410564e+00 2.3149673433e+00 4.0096410564e+00 
36100 4.8804783310e+00 -3.0526408598e-03 2.3150340420e+00 -4.0097565820e+00 2.3150340420e+00 4.0097565820e+00 
36200 4.8804782058e+00 -3.0170940754e-03 2.3150999731e+00 -4.0098707780e+00 2.3150999731e+00 4.0098707780e+00 
36300 4.8804780846e+00 -2.9814586815e-03 2.3151651346e+00 -4.0099836411e+00 2.3151651346e+00 4.0099836411e+00 
36400 4.8804779676e+00 -2.9457418116e-03 2.3152295247e+00 -4.0100951679e+00 2.3152295247e+00 4.0100951679e+00 
36500 4.8804778545e+00 -2.9099523983e-03 2.3152931416e+00 -4.0102053557e+00 2.3152931416e+00 4.0102053557e+00 
36600 4.8804777453e+00 -2.8741010486e-03 2.3153559839e+00 -4.0103142017e+00 2.3153559839e+00 4.0103142017e+00 
36700 4.8804776399e+00 -2.8381999193e-03 2.3154180502e+00 -4.0104217037e+00 2.3154180502e+00 4.0104217037e+00 
36800 4.8804775382e+00 -2.8022625899e-03 2.3154793396e+00 -4.0105278601e+00 2.3154793396e+00 4.0105278601e+00 
36900 4.8804774400e+00 -2.7663039355e-03 2.3155398514e+00 -4.0106326696e+00 2.3155398514e+00 4.0106326696e+00 
37000 4.8804773453e+00 -2.7303399998e-03 2.3155995851e+00 -4.0107361314e+00 2.3155995851e+00 4.0107361314e+00 
37100 4.8804772540e+00 -2.6943878677e-03 2.3156585407e+00 -4.0108382455e+00 2.3156585407e+00 4.0108382455e+00 
37200 4.8804771658e+00 -2.6584655399e-03 2.3157167185e+00 -4.0109390124e+00 2.3157167185e+00 4.0109390124e+00 
37300 4.8804770807e+00 -2.6225918079e-03 2.3157741193e+00 -4.0110384334e+00 2.3157741193e+00 4.0110384334e+00 
37400 4.8804769985e+00 -2.5867861313e-03 2.3158307440e+00 -4.0111365104e+00 2.3158307440e+00 4.0111365104e+00 
37500 4.8804769191e+00 -2.5510685172e-03 2.3158865943e+00 -4.0112332459e+00 2.3158865943e+00 4.0112332459e+00 
37600 4.8804768423e+00 -2.5154594020e-03 2.3159416721e+00 -4.0113286435e+00 2.3159416721e+00 4.0113286435e+00 
37700 4.8804767681e+00 -2.4799795363e-03 2.3159959798e+00 -4.0114227071e+00 2.3159959798e+00 4.0114227071e+00 
37800 4.8804766963e+00 -2.4446498730e-03 2.3160495202e+00 -4.0115154419e+00 2.3160495202e+00 4.0115154419e+00 
37900 4.8804766267e+00 -2.4094914591e-03 2.3161022967e+00 -4.0116068535e+00 2.3161022967e+00 4.0116068535e+00 
38000 4.8804765593e+00 -2.3745253311e-03 2.3161543130e+00 -4.0116969483e+00 2.3161543130e+00 4.0116969483e+00 
38100 4.8804764940e+00 -2.3397724150e-03 2.3162055733e+00 -4.0117857337e+00 2.3162055733e+00 4.0117857337e+00 
38200 4.8804764306e+00 -2.3052534300e-03 2.3162560822e+00 -4.0118732177e+00 2.3162560822e+00 4.0118732177e+00 
38300 4.8804763690e+00 -2.2709887975e-03 2.3163058449e+00 -4.0119594092e+00 2.3163058449e+00 4.0119594092e+00 
38400 4.8804763091e+00 -2.2369985544e-03 2.3163548668e+00 -4.0120443177e+00 2.3163548668e+00 4.0120443177e+00 
38500 4.8804762509e+00 -2.2033022715e-03 2.3164031540e+00 -4.0121279536e+00 2.3164031540e+00 4.0121279536e+00 
38600 4.8804761943e+00 -2.1699189769e-03 2.3164507129e+00 -4.0122103280e+00 2.3164507129e+00 4.0122103280e+00 
38700 4.8804761391e+00 -2.1368670844e-03 2.3164975502e+00 -4.0122914526e+00 2.3164975502e+00 4.0122914526e+00 
38800 4.8804760854e+00 -2.1041643279e-03 2.3165436732e+00 -4.0123713399e+00 2.3165436732e+00 4.0123713399e+00 
38900 4.8804760330e+00 -2.0718276998e-03 2.3165890893e+00 -4.0124500030e+00 2.3165890893e+00 4.0124500030e+00 
39000 4.8804759819e+00 -2.0398733962e-03 2.3166338067e+00 -4.0125274557e+00 2.3166338067e+00 4.0125274557e+00 
39100 4.8804759321e+00 -2.0083167665e-03 2.3166778335e+00 -4.0126037124e+00 2.3166778335e+00 4.0126037124e+00 
39200 4.8804758835e+00 -1.9771722686e-03 2.3167211784e+00 -4.0126787879e+00 2.3167211784e+00 4.0126787879e+00 
39300 4.8804758360e+00 -1.9464534296e-03 2.3167638503e+00 -4.0127526979e+00 2.3167638503e+00 4.0127526979e+00 
39400 4.8804757897e+00 -1.9161728120e-03 2.3168058585e+00 -4.0128254581e+00 2.3168058585e+00 4.0128254581e+00 
39500 4.8804757446e+00 -1.8863419843e-03 2.3168472123e+00 -4.0128970851e+00 2.3168472123e+00 4.0128970851e+00 
39600 4.8804757005e+00 -1.8569714976e-03 2.3168879217e+00 -4.0129675958e+00 2.3168879217e+00 4.0129675958e+00 
39700 4.8804756575e+00 -1.8280708673e-03 2.3169279965e+00 -4.0130370074e+00 2.3169279965e+00 4.0130370074e+00 
39800 4.8804756155e+00 -1.7996485586e-03 2.3169674469e+00 -4.0131053376e+00 2.3169674469e+00 4.0131053376e+00 
39900 4.8804755746e+00 -1.7717119784e-03 2.3170062833e+00 -4.0131726042e+00 2.3170062833e+00 4.0131726042e+00 
40000 4.8804755348e+00 -1.7442674705e-03 2.3170445162e+00 -4.0132388255e+00 2.3170445162e+00 4.0132388255e+00 
40100 4.8804754959e+00 -1.7173203162e-03 2.3170821563e+00 -4.0133040199e+00 2.3170821563e+00 4.0133040199e+00 
40200 4.8804754581e+00 -1.6908747388e-03 2.3171192142e+00 -4.0133682061e+00 2.3171192142e+00 4.0133682061e+00 
40300 4.8804754213e+00 -1.6649339122e-03 2.3171557008e+00 -4.0134314029e+00 2.3171557008e+00 4.0134314029e+00 
40400 4.8804753855e+00 -1.6394999741e-03 2.3171916272e+00 -4.0134936291e+00 2.3171916272e+00 4.0134936291e+00 
40500 4.8804753507e+00 -1.6145740418e-03 2.3172270041e+00 -4.0135549038e+00 2.3172270041e+00 4.0135549038e+00 
40600 4.8804753169e+00 -1.5901562329e-03 2.3172618427e+00 -4.0136152460e+00 2.3172618427e+00 4.0136152460e+00 
40700 4.8804752841e+00 -1.5662456881e-03 2.3172961539e+00 -4.0136746748e+00 2.3172961539e+00 4.0136746748e+00 
40800 4.8804752523e+00 -1.5428405982e-03 2.3173299487e+00 -4.0137332090e+00 2.3173299487e+00 4.0137332090e+00 
40900 4.8804752214e+00 -1.5199382336e-03 2.3173632379e+00 -4.0137908677e+00 2.3173632379e+00 4.0137908677e+00 
41000 4.8804751915e+00 -1.4975349756e-03 2.3173960326e+00 -4.0138476697e+00 2.3173960326e+00 4.0138476697e+00 
41100 4.8804751625e+00 -1.4756263522e-03 2.3174283434e+00 -4.0139036336e+00 2.3174283434e+00 4.0139036336e+00 
41200 4.8804751344e+00 -1.4542070738e-03 2.3174601810e+00 -4.0139587781e+00 2.3174601810e+00 4.0139587781e+00 
41300 4.8804751073e+00 -1.4332710727e-03 2.3174915561e+00 -4.0140131213e+00 2.3174915561e+00 4.0140131213e+00 
41400 4.8804750811e+00 -1.4128115432e-03 2.3175224791e+00 -4.0140666815e+00 2.3175224791e+00 4.0140666815e+00 
41500 4.8804750557e+00 -1.3928209842e-03 2.3175529602e+00 -4.0141194764e+00 2.3175529602e+00 4.0141194764e+00 
41600 4.8804750313e+00 -1.3732912422e-03 2.3175830097e+00 -4.0141715235e+00 2.3175830097e+00 4.0141715235e+00 
41700 4.8804750076e+00 -1.3542135562e-03 2.3176126374e+00 -4.0142228403e+00 2.3176126374e+00 4.0142228403e+00 
41800 4.8804749848e+00 -1.3355786027e-03 2.3176418532e+00 -4.0142734434e+00 2.3176418532e+00 4.0142734434e+00 
41900 4.8804749628e+00 -1.3173765422e-03 2.3176706665e+00 -4.0143233497e+00 2.3176706665e+00 4.0143233497e+00 
42000 4.8804749416e+00 -1.2995970655e-03 2.3176990869e+00 -4.0143725751e+00 2.3176990869e+00 4.0143725751e+00 
42100 4.8804749211e+00 -1.2822294404e-03 2.3177271233e+00 -4.0144211356e+00 2.3177271233e+00 4.0144211356e+00 
42200 4.8804749014e+00 -1.2652625592e-03 2.3177547847e+00 -4.0144690466e+00 2.3177547847e+00 4.0144690466e+00 
42300 4.8804748823e+00 -1.2486849845e-03 2.3177820798e+00 -4.0145163230e+00 2.3177820798e+00 4.0145163230e+00 
42400 4.8804748640e+00 -1.2324849963e-03 2.3178090169e+00 -4.0145629795e+00 2.3178090169e+00 4.0145629795e+00 
42500 4.8804748463e+00 -1.2166506381e-03 2.3178356042e+00 -4.0146090301e+00 2.3178356042e+00 4.0146090301e+00 
42600 4.8804748292e+00 -1.2011697615e-03 2.3178618497e+00 -4.0146544885e+00 2.3178618497e+00 4.0146544885e+00 
42700 4.8804748127e+00 -1.1860300715e-03 2.3178877609e+00 -4.0146993681e+00 2.3178877609e+00 4.0146993681e+00 
42800 4.8804747968e+00 -1.1712191695e-03 2.3179133452e+00 -4.0147436814e+00 2.3179133452e+00 4.0147436814e+00 
42900 4.8804747814e+00 -1.1567245962e-03 2.3179386098e+00 -4.0147874409e+00 2.3179386098e+00 4.0147874409e+00 
43000 4.8804747666e+00 -1.1425338729e-03 2.3179635614e+00 -4.0148306584e+00 2.3179635614e+00 4.0148306584e+00 
43100 4.8804747522e+00 -1.1286345412e-03 2.3179882066e+00 -4.0148733453e+00 2.3179882066e+00 4.0148733453e+00 
43200 4.8804747384e+00 -1.1150142015e-03 2.3180125518e+00 -4.0149155123e+00 2.3180125518e+00 4.0149155123e+00 
43300 4.8804747250e+00 -1.1016605506e-03 2.3180366029e+00 -4.0149571701e+00 2.3180366029e+00 4.0149571701e+00 
43400 4.8804747120e+00 -1.0885614162e-03 2.3180603658e+00 -4.0149983285e+00 2.3180603658e+00 4.0149983285e+00 
43500 4.8804746994e+00 -1.0757047913e-03 2.3180838458e+00 -4.0150389972e+00 2.3180838458e+00 4.0150389972e+00 
43600 4.8804746873e+00 -1.0630788657e-03 2.3181070483e+00 -4.0150791851e+00 2.3181070483e+00 4.0150791851e+00 
43700 4.8804746755e+00 -1.0506720560e-03 2.3181299782e+00 -4.0151189009e+00 2.3181299782e+00 4.0151189009e+00 
43800 4.8804746641e+00 -1.0384730342e-03 2.3181526403e+00 -4.0151581528e+00 2.3181526403e+00 4.0151581528e+00 
43900 4.8804746530e+00 -1.0264707534e-03 2.3181750391e+00 -4.0151969486e+00 2.3181750391e+00 4.0151969486e+00 
44000 4.8804746423e+00 -1.0146544724e-03 2.3181971788e+00 -4.0152352956e+00 2.3181971788e+00 4.0152352956e+00 
44100 4.8804746318e+00 -1.0030137777e-03 2.3182190634e+00 -4.0152732008e+00 2.3182190634e+00 4.0152732008e+00 
44200 4.8804746217e+00 -9.9153860424e-04 2.3182406967e+00 -4.0153106708e+00 2.3182406967e+00 4.0153106708e+00 
44300 4.8804746119e+00 -9.8021925313e-04 2.3182620823e+00 -4.0153477118e+00 2.3182620823e+00 4.0153477118e+00 
44400 4.8804746024e+00 -9.6904640825e-04 2.3182832236e+00 -4.0153843296e+00 2.3182832236e+00 4.0153843296e+00 
44500 4.8804745931e+00 -9.5801115041e-04 2.3183041237e+00 -4.0154205296e+00 2.3183041237e+00 4.0154205296e+00 
44600 4.8804745841e+00 -9.4710496963e-04 2.3183247856e+00 -4.0154563171e+00 2.3183247856e+00 4.0154563171e+00 
44700 4.8804745754e+00 -9.3631977544e-04 2.3183452121e+00 -4.0154916969e+00 2.3183452121e+00 4.0154916969e+00 
44800 4.8804745669e+00 -9.2564790530e-04 2.3183654059e+00 -4.0155266735e+00 2.3183654059e+00 4.0155266735e+00 
44900 4.8804745587e+00 -9.1508213109e-04 2.3183853693e+00 -4.0155612511e+00 2.3183853693e+00 4.0155612511e+00 
45000 4.8804745507e+00 -9.0461566376e-04 2.3184051046e+00 -4.0155954338e+00 2.3184051046e+00 4.0155954338e+00 
45100 4.8804745429e+00 -8.9424215619e-04 2.3184246141e+00 -4.0156292252e+00 2.3184246141e+00 4.0156292252e+00 
45200 4.8804745354e+00 -8.8395570430e-04 2.3184438997e+00 -4.0156626288e+00 2.3184438997e+00 4.0156626288e+00 
45300 4.8804745281e+00 -8.7375084647e-04 2.3184629633e+00 -4.0156956479e+00 2.3184629633e+00 4.0156956479e+00 
45400 4.8804745210e+00 -8.6362256136e-04 2.3184818066e+00 -4.0157282855e+00 2.3184818066e+00 4.0157282855e+00 
45500 4.8804745142e+00 -8.5356626415e-04 2.3185004314e+00 -4.0157605445e+00 2.3185004314e+00 4.0157605445e+00 
45600 4.8804745075e+00 -8.4357780130e-04 2.3185188391e+00 -4.0157924277e+00 2.3185188391e+00 4.0157924277e+00 
45700 4.8804745011e+00 -8.3365344391e-04 2.3185370313e+00 -4.0158239375e+00 2.3185370313e+00 4.0158239375e+00 
45800 4.8804744949e+00 -8.2378987976e-04 2.3185550094e+00 -4.0158550764e+00 2.3185550094e+00 4.0158550764e+00 
45900 4.8804744889e+00 -8.1398420404e-04 2.3185727745e+00 -4.0158858466e+00 2.3185727745e+00 4.0158858466e+00 
46000 4.8804744830e+00 -8.0423390902e-04 2.3185903281e+00 -4.0159162503e+00 2.3185903281e+00 4.0159162503e+00 
46100 4.8804744774e+00 -7.9453687248e-04 2.3186076713e+00 -4.0159462895e+00 2.3186076713e+00 4.0159462895e+00 
46200 4.8804744720e+00 -7.8489134531e-04 2.3186248053e+00 -4.0159759664e+00 2.3186248053e+00 4.0159759664e+00 
46300 4.8804744668e+00 -7.7529593799e-04 2.3186417311e+00 -4.0160052828e+00 2.3186417311e+00 4.0160052828e+00 
46400 4.8804744617e+00 -7.6574960643e-04 2.3186584498e+00 -4.0160342405e+00 2.3186584498e+00 4.0160342405e+00 
46500 4.8804744569e+00 -7.5625163695e-04 2.3186749626e+00 -4.0160628415e+00 2.3186749626e+00 4.0160628415e+00 
46600 4.8804744522e+00 -7.4680163063e-04 2.3186912705e+00 -4.0160910876e+00 2.3186912705e+00 4.0160910876e+00 
46700 4.8804744477e+00 -7.3739948703e-04 2.3187073745e+00 -4.0161189805e+00 2.3187073745e+00 4.0161189805e+00 
46800 4.8804744434e+00 -7.2804538754e-04 2.3187232756e+00 -4.0161465220e+00 2.3187232756e+00 4.0161465220e+00 
46900 4.8804744392e+00 -7.1873977818e-04 2.3187389749e+00 -4.0161737140e+00 2.3187389749e+00 4.0161737140e+00 
47000 4.8804744352e+00 -7.0948335215e-04 2.3187544734e+00 -4.0162005582e+00 2.3187544734e+00 4.0162005582e+00 
47100 4.8804744314e+00 -7.0027703212e-04 2.3187697722e+00 -4.0162270565e+00 2.3187697722e+00 4.0162270565e+00 
47200 4.8804744277e+00 -6.9112195231e-04 2.3187848724e+00 -4.0162532108e+00 2.3187848724e+00 4.0162532108e+00 
47300 4.8804744241e+00 -6.8201944056e-04 2.3187997751e+00 -4.0162790230e+00 2.3187997751e+00 4.0162790230e+00 
47400 4.8804744207e+00 -6.7297100024e-04 2.3188144814e+00 -4.0163044951e+00 2.3188144814e+00 4.0163044951e+00 
47500 4.8804744174e+00 -6.6397829236e-04 2.3188289925e+00 -4.0163296291e+00 2.3188289925e+00 4.0163296291e+00 
47600 4.8804744143e+00 -6.5504311767e-04 2.3188433097e+00 -4.0163544271e+00 2.3188433097e+00 4.0163544271e+00 
47700 4.8804744113e+00 -6.4616739901e-04 2.3188574340e+00 -4.0163788912e+00 2.3188574340e+00 4.0163788912e+00 
47800 4.8804744084e+00 -6.3735316389e-04 2.3188713669e+00 -4.0164030237e+00 2.3188713669e+00 4.0164030237e+00 
47900 4.8804744056e+00 -6.2860252734e-04 2.3188851097e+00 -4.0164268269e+00 2.3188851097e+00 4.0164268269e+00 
48000 4.8804744030e+00 -6.1991767517e-04 2.3188986637e+00 -4.0164503031e+00 2.3188986637e+00 4.0164503031e+00 
48100 4.8804744004e+00 -6.1130084757e-04 2.3189120303e+00 -4.0164734548e+00 2.3189120303e+00 4.0164734548e+00 
48200 4.8804743980e+00 -6.0275432323e-04 2.3189252111e+00 -4.0164962846e+00 2.3189252111e+00 4.0164962846e+00 
48300 4.8804743957e+00 -5.9428040391e-04 2.3189382075e+00 -4.0165187951e+00 2.3189382075e+00 4.0165187951e+00 
48400 4.8804743934e+00 -5.8588139957e-04 2.3189510212e+00 -4.0165409889e+00 2.3189510212e+00 4.0165409889e+00 
48500 4.8804743913e+00 -5.7755961411e-04 2.3189636536e+00 -4.0165628690e+00 2.3189636536e+00 4.0165628690e+00 
48600 4.8804743892e+00 -5.6931733167e-04 2.3189761066e+00 -4.0165844382e+00 2.3189761066e+00 4.0165844382e+00 
48700 4.8804743872e+00 -5.6115680360e-04 2.3189883818e+00 -4.0166056995e+00 2.3189883818e+00 4.0166056995e+00 
48800 4.8804743853e+00 -5.5308023610e-04 2.3190004810e+00 -4.0166266559e+00 2.3190004810e+00 4.0166266559e+00 
48900 4.8804743835e+00 -5.4508977855e-04 2.3190124060e+00 -4.0166473106e+00 2.3190124060e+00 4.0166473106e+00 
49000 4.8804743817e+00 -5.3718751255e-04 2.3190241586e+00 -4.0166676667e+00 2.3190241586e+00 4.0166676667e+00 
49100 4.8804743800e+00 -5.2937544171e-04 2.3190357408e+00 -4.0166877277e+00 2.3190357408e+00 4.0166877277e+00 
49200 4.8804743784e+00 -5.2165548212e-04 2.3190471545e+00 -4.0167074968e+00 2.3190471545e+00 4.0167074968e+00 
49300 4.8804743768e+00 -5.1402945366e-04 2.3190584017e+00 -4.0167269775e+00 2.3190584017e+00 4.0167269775e+00 
49400 4.8804743753e+00 -5.0649907196e-04 2.3190694845e+00 -4.0167461734e+00 2.3190694845e+00 4.0167461734e+00 
49500 4.8804743739e+00 -4.9906594125e-04 2.3190804048e+00 -4.0167650879e+00 2.3190804048e+00 4.0167650879e+00 
49600 4.8804743725e+00 -4.9173154783e-04 2.3190911648e+00 -4.0167837248e+00 2.3190911648e+00 4.0167837248e+00 
49700 4.8804743712e+00 -4.8449725439e-04 2.3191017666e+00 -4.0168020877e+00 2.3191017666e+00 4.0168020877e+00 
49800 4.8804743700e+00 -4.7736429504e-04 2.3191122124e+00 -4.0168201804e+00 2.3191122124e+00 4.0168201804e+00 
49900 4.8804743687e+00 -4.7033377108e-04 2.3191225044e+00 -4.0168380066e+00 2.3191225044e+00 4.0168380066e+00 
50000 4.8804743676e+00 -4.6340664754e-04 2.3191326447e+00 -4.0168555702e+00 2.3191326447e+00 4.0168555702e+00 
50100 4.8804743665e+00 -4.5658375037e-04 2.3191426357e+00 -4.0168728750e+00 2.3191426357e+00 4.0168728750e+00 
50200 4.8804743654e+00 -4.4986576436e-04 2.3191524795e+00 -4.0168899250e+00 2.3191524795e+00 4.0168899250e+00 
50300 4.8804743644e+00 -4.4325323178e-04 2.3191621784e+00 -4.0169067240e+00 2.3191621784e+00 4.0169067240e+00 
50400 4.8804743634e+00 -4.3674655158e-04 2.3191717348e+00 -4.0169232761e+00 2.3191717348e+00 4.0169232761e+00 
50500 4.8804743625e+00 -4.3034597936e-04 2.3191811508e+00 -4.0169395851e+00 2.3191811508e+00 4.0169395851e+00 
50600 4.8804743616e+00 -4.2405162784e-04 2.3191904287e+00 -4.0169556550e+00 2.3191904287e+00 4.0169556550e+00 
50700 4.8804743607e+00 -4.1786346797e-04 2.3191995710e+00 -4.0169714898e+00 2.3191995710e+00 4.0169714898e+00 
50800 4.8804743599e+00 -4.1178133061e-04 2.3192085798e+00 -4.0169870935e+00 2.3192085798e+00 4.0169870935e+00 
50900 4.8804743592e+00 -4.0580490874e-04 2.3192174574e+00 -4.0170024700e+00 2.3192174574e+00 4.0170024700e+00 
51000 4.8804743584e+00 -3.9993376012e-04 2.3192262062e+00 -4.0170176233e+00 2.3192262062e+00 4.0170176233e+00 
51100 4.8804743578e+00 -3.9416731055e-04 2.3192348283e+00 -4.0170325573e+00 2.3192348283e+00 4.0170325573e+00 
51200 4.8804743571e+00 -3.8850485744e-04 2.3192433261e+00 -4.0170472759e+00 2.3192433261e+00 4.0170472759e+00 
51300 4.8804743565e+00 -3.8294557388e-04 2.3192517018e+00 -4.0170617830e+00 2.3192517018e+00 4.0170617830e+00 
51400 4.8804743559e+00 -3.7748851305e-04 2.3192599576e+00 -4.0170760825e+00 2.3192599576e+00 4.0170760825e+00 
51500 4.8804743554e+00 -3.7213261303e-04 2.3192680957e+00 -4.0170901782e+00 2.3192680957e+00 4.0170901782e+00 
51600 4.8804743548e+00 -3.6687670187e-04 2.3192761184e+00 -4.0171040738e+00 2.3192761184e+00 4.0171040738e+00 
51700 4.8804743544e+00 -3.6171950296e-04 2.3192840277e+00 -4.0171177731e+00 2.3192840277e+00 4.0171177731e+00 
51800 4.8804743539e+00 -3.5665964071e-04 2.3192918257e+00 -4.0171312798e+00 2.3192918257e+00 4.0171312798e+00 
51900 4.8804743535e+00 -3.5169564637e-04 2.3192995147e+00 -4.0171445975e+00 2.3192995147e+00 4.0171445975e+00 
52000 4.8804743531e+00 -3.4682596411e-04 2.3193070967e+00 -4.0171577298e+00 2.3193070967e+00 4.0171577298e+00 
52100 4.8804743527e+00 -3.4204895720e-04 2.3193145736e+00 -4.0171706802e+00 2.3193145736e+00 4.0171706802e+00 
52200 4.8804743524e+00 -3.3736291436e-04 2.3193219475e+00 -4.0171834522e+00 2.3193219475e+00 4.0171834522e+00 
52300 4.8804743521e+00 -3.3276605619e-04 2.3193292204e+00 -4.0171960492e+00 2.3193292204e+00 4.0171960492e+00 
52400 4.8804743518e+00 -3.2825654171e-04 2.3193363942e+00 -4.0172084745e+00 2.3193363942e+00 4.0172084745e+00 
52500 4.8804743516e+00 -3.2383247484e-04 2.3193434707e+00 -4.0172207314e+00 2.3193434707e+00 4.0172207314e+00 
52600 4.8804743513e+00 -3.1949191102e-04 2.3193504518e+00 -4.0172328231e+00 2.3193504518e+00 4.0172328231e+00 
52700 4.8804743511e+00 -3.1523286372e-04 2.3193573393e+00 -4.0172447527e+00 2.3193573393e+00 4.0172447527e+00 
52800 4.8804743509e+00 -3.1105331095e-04 2.3193641350e+00 -4.0172565232e+00 2.3193641350e+00 4.0172565232e+00 
52900 4.8804743508e+00 -3.0695120174e-04 2.3193708406e+00 -4.0172681376e+00 2.3193708406e+00 4.0172681376e+00 
53000 4.8804743506e+00 -3.0292446241e-04 2.3193774577e+00 -4.0172795987e+00 2.3193774577e+00 4.0172795987e+00 
53100 4.8804743505e+00 -2.9897100291e-04 2.3193839880e+00 -4.0172909096e+00 2.3193839880e+00 4.0172909096e+00 
53200 4.8804743504e+00 -2.9508872289e-04 2.3193904331e+00 -4.0173020727e+00 2.3193904331e+00 4.0173020727e+00 
53300 4.8804743503e+00 -2.9127551766e-04 2.3193967944e+00 -4.0173130909e+00 2.3193967944e+00 4.0173130909e+00 
53400 4.8804743502e+00 -2.8752928398e-04 2.3194030736e+00 -4.0173239667e+00 2.3194030736e+00 4.0173239667e+00 
53500 4.8804743501e+00 -2.8384792573e-04 2.3194092719e+00 -4.0173347025e+00 2.3194092719e+00 4.0173347025e+00 
53600 4.8804743501e+00 -2.8022935926e-04 2.3194153909e+00 -4.0173453009e+00 2.3194153909e+00 4.0173453009e+00 
53700 4.8804743501e+00 -2.7667151862e-04 2.3194214318e+00 -4.0173557641e+00 2.3194214318e+00 4.0173557641e+00 
53800 4.8804743500e+00 -2.7317236051e-04 2.3194273961e+00 -4.0173660945e+00 2.3194273961e+00 4.0173660945e+00 
53900 4.8804743500e+00 -2.6972986903e-04 2.3194332849e+00 -4.0173762942e+00 2.3194332849e+00 4.0173762942e+00 
54000 4.8804743500e+00 -2.6634206015e-04 2.3194390994e+00 -4.0173863653e+00 2.3194390994e+00 4.0173863653e+00 
54100 4.8804743500e+00 -2.6300698594e-04 2.3194448410e+00 -4.0173963099e+00 2.3194448410e+00 4.0173963099e+00 
54200 4.8804743501e+00 -2.5972273853e-04 2.3194505106e+00 -4.0174061300e+00 2.3194505106e+00 4.0174061300e+00 
54300 4.8804743501e+00 -2.5648745377e-04 2.3194561094e+00 -4.0174158274e+00 2.3194561094e+00 4.0174158274e+00 
54400 4.8804743501e+00 -2.5329931468e-04 2.3194616384e+00 -4.0174254040e+00 2.3194616384e+00 4.0174254040e+00 
54500 4.8804743502e+00 -2.5015655456e-04 2.3194670987e+00 -4.0174348615e+00 2.3194670987e+00 4.0174348615e+00 
54600 4.8804743503e+00 -2.4705745984e-04 2.3194724913e+00 -4.0174442016e+00 2.3194724913e+00 4.0174442016e+00 
54700 4.8804743503e+00 -2.4400037263e-04 2.3194778170e+00 -4.0174534261e+00 2.3194778170e+00 4.0174534261e+00 
54800 4.8804743504e+00 -2.4098369303e-04 2.3194830768e+00 -4.0174625363e+00 2.3194830768e+00 4.0174625363e+00 
54900 4.8804743505e+00 -2.3800588110e-04 2.3194882716e+00 -4.0174715340e+00 2.3194882716e+00 4.0174715340e+00 
55000 4.8804743506e+00 -2.3506545860e-04 2.3194934022e+00 -4.0174804204e+00 2.3194934022e+00 4.0174804204e+00 
55100 4.8804743507e+00 -2.3216101042e-04 2.3194984693e+00 -4.0174891970e+00 2.3194984693e+00 4.0174891970e+00 
55200 4.8804743508e+00 -2.2929118574e-04 2.3195034739e+00 -4.0174978651e+00 2.3195034739e+00 4.0174978651e+00 
55300 4.8804743509e+00 -2.2645469897e-04 2.3195084166e+00 -4.0175064261e+00 2.3195084166e+00 4.0175064261e+00 
55400 4.8804743510e+00 -2.2365033034e-04 2.3195132981e+00 -4.0175148811e+00 2.3195132981e+00 4.0175148811e+00 
55500 4.8804743511e+00 -2.2087692633e-04 2.3195181192e+00 -4.0175232315e+00 2.3195181192e+00 4.0175232315e+00 
55600 4.8804743513e+00 -2.1813339975e-04 2.3195228804e+00 -4.0175314782e+00 2.3195228804e+00 4.0175314782e+00 
55700 4.8804743514e+00 -2.1541872972e-04 2.3195275825e+00 -4.0175396225e+00 2.3195275825e+00 4.0175396225e+00 
55800 4.8804743515e+00 -2.1273196126e-04 2.3195322261e+00 -4.0175476655e+00 2.3195322261e+00 4.0175476655e+00 
55900 4.8804743517e+00 -2.1007220479e-04 2.3195368118e+00 -4.0175556081e+00 2.3195368118e+00 4.0175556081e+00 
56000 4.8804743518e+00 -2.0743863535e-04 2.3195413401e+00 -4.0175634514e+00 2.3195413401e+00 4.0175634514e+00 
56100 4.8804743520e+00 -2.0483049161e-04 2.3195458117e+00 -4.0175711963e+00 2.3195458117e+00 4.0175711963e+00 
56200 4.8804743521e+00 -2.0224707477e-04 2.3195502270e+00 -4.0175788439e+00 2.3195502270e+00 4.0175788439e+00 
56300 4.8804743523e+00 -1.9968774721e-04 2.3195545866e+00 -4.0175863949e+00 2.3195545866e+00 4.0175863949e+00 
56400 4.8804743524e+00 -1.9715193095e-04 2.3195588911e+00 -4.0175938505e+00 2.3195588911e+00 4.0175938505e+00 
56500 4.8804743526e+00 -1.9463910606e-04 2.3195631408e+00 -4.0176012113e+00 2.3195631408e+00 4.0176012113e+00 
56600 4.8804743528e+00 -1.9214880883e-04 2.3195673364e+00 -4.0176084783e+00 2.3195673364e+00 4.0176084783e+00 
56700 4.8804743530e+00 -1.8968062983e-04 2.3195714783e+00 -4.0176156523e+00 2.3195714783e+00 4.0176156523e+00 
56800 4.8804743531e+00 -1.8723421190e-04 2.3195755670e+00 -4.0176227341e+00 2.3195755670e+00 4.0176227341e+00 
56900 4.8804743533e+00 -1.8480924797e-04 2.3195796030e+00 -4.0176297246e+00 2.3195796030e+00 4.0176297246e+00 
57000 4.8804743535e+00 -1.8240547882e-04 2.3195835867e+00 -4.0176366245e+00 2.3195835867e+00 4.0176366245e+00 
57100 4.8804743537e+00 -1.8002269073e-04 2.3195875185e+00 -4.0176434347e+00 2.3195875185e+00 4.0176434347e+00 
57200 4.8804743538e+00 -1.7766071312e-04 2.3195913990e+00 -4.0176501559e+00 2.3195913990e+00 4.0176501559e+00 
57300 4.8804743540e+00 -1.7531941603e-04 2.3195952286e+00 -4.0176567889e+00 2.3195952286e+00 4.0176567889e+00 
57400 4.8804743542e+00 -1.7299870765e-04 2.3195990077e+00 -4.0176633345e+00 2.3195990077e+00 4.0176633345e+00 
57500 4.8804743544e+00 -1.7069853178e-04 2.3196027368e+00 -4.0176697934e+00 2.3196027368e+00 4.0176697934e+00 
57600 4.8804743546e+00 -1.6841886520e-04 2.3196064162e+00 -4.0176761665e+00 2.3196064162e+00 4.0176761665e+00 
57700 4.8804743548e+00 -1.6615971516e-04 2.3196100466e+00 -4.0176824544e+00 2.3196100466e+00 4.0176824544e+00 
57800 4.8804743550e+00 -1.6392111672e-04 2.3196136282e+00 -4.0176886580e+00 2.3196136282e+00 4.0176886580e+00 
57900 4.8804743552e+00 -1.6170313022e-04 2.3196171616e+00 -4.0176947780e+00 2.3196171616e+00 4.0176947780e+00 
58000 4.8804743554e+00 -1.5950583867e-04 2.3196206471e+00 -4.0177008151e+00 2.3196206471e+00 4.0177008151e+00 
58100 4.8804743556e+00 -1.5732934521e-04 2.3196240853e+00 -4.0177067702e+00 2.3196240853e+00 4.0177067702e+00 
58200 4.8804743558e+00 -1.5517377062e-04 2.3196274766e+00 -4.0177126441e+00 2.3196274766e+00 4.0177126441e+00 
58300 4.8804743560e+00 -1.5303925082e-04 2.3196308214e+00 -4.0177184375e+00 2.3196308214e+00 4.0177184375e+00 
58400 4.8804743562e+00 -1.5092593447e-04 2.3196341202e+00 -4.0177241511e+00 2.3196341202e+00 4.0177241511e+00 
58500 4.8804743564e+00 -1.4883398060e-04 2.3196373734e+00 -4.0177297859e+00 2.3196373734e+00 4.0177297859e+00 
58600 4.8804743566e+00 -1.4676355629e-04 2.3196405815e+00 -4.0177353425e+00 2.3196405815e+00 4.0177353425e+00 
58700 4.8804743568e+00 -1.4471483447e-04 2.3196437450e+00 -4.0177408219e+00 2.3196437450e+00 4.0177408219e+00 
58800 4.8804743570e+00 -1.4268799175e-04 2.3196468644e+00 -4.0177462247e+00 2.3196468644e+00 4.0177462247e+00 
58900 4.8804743572e+00 -1.4068320635e-04 2.3196499400e+00 -4.0177515519e+00 2.3196499400e+00 4.0177515519e+00 
59000 4.8804743574e+00 -1.3870065611e-04 2.3196529724e+00 -4.0177568042e+00 2.3196529724e+00 4.0177568042e+00 
59100 4.8804743576e+00 -1.3674051661e-04 2.3196559621e+00 -4.0177619825e+00 2.3196559621e+00 4.0177619825e+00 
59200 4.8804743578e+00 -1.3480295933e-04 2.3196589096e+00 -4.0177670876e+00 2.3196589096e+00 4.0177670876e+00 
59300 4.8804743580e+00 -1.3288815000e-04 2.3196618152e+00 -4.0177721203e+00 2.3196618152e+00 4.0177721203e+00 
59400 4.8804743582e+00 -1.3099624697e-04 2.3196646796e+00 -4.0177770816e+00 2.3196646796e+00 4.0177770816e+00 
59500 4.8804743584e+00 -1.2912739972e-04 2.3196675032e+00 -4.0177819722e+00 2.3196675032e+00 4.0177819722e+00 
59600 4.8804743586e+00 -1.2728174743e-04 2.3196702865e+00 -4.0177867931e+00 2.3196702865e+00 4.0177867931e+00 
59700 4.8804743588e+00 -1.2545941777e-04 2.3196730301e+00 -4.0177915450e+00 2.3196730301e+00 4.0177915450e+00 
59800 4.8804743590e+00 -1.2366052564e-04 2.3196757343e+00 -4.0177962289e+00 2.3196757343e+00 4.0177962289e+00 
59900 4.8804743592e+00 -1.2188517214e-04 2.3196783998e+00 -4.0178008456e+00 2.3196783998e+00 4.0178008456e+00 
60000 4.8804743594e+00 -1.2013344361e-04 2.3196810270e+00 -4.0178053961e+00 2.3196810270e+00 4.0178053961e+00 
60100 4.8804743595e+00 -1.1840541076e-04 2.3196836164e+00 -4.0178098811e+00 2.3196836164e+00 4.0178098811e+00 
60200 4.8804743597e+00 -1.1670112792e-04 2.3196861686e+00 -4.0178143016e+00 2.3196861686e+00 4.0178143016e+00 
60300 4.8804743599e+00 -1.1502063237e-04 2.3196886841e+00 -4.0178186585e+00 2.3196886841e+00 4.0178186585e+00 
60400 4.8804743601e+00 -1.1336394387e-04 2.3196911633e+00 -4.0178229527e+00 2.3196911633e+00 4.0178229527e+00 
60500 4.8804743603e+00 -1.1173106415e-04 2.3196936068e+00 -4.0178271850e+00 2.3196936068e+00 4.0178271850e+00 
60600 4.8804743605e+00 -1.1012197660e-04 2.3196960151e+00 -4.0178313563e+00 2.3196960151e+00 4.0178313563e+00 
60700 4.8804743607e+00 -1.0853664603e-04 2.3196983887e+00 -4.0178354675e+00 2.3196983887e+00 4.0178354675e+00 
60800 4.8804743609e+00 -1.0697501852e-04 2.3197007282e+00 -4.0178395196e+00 2.3197007282e+00 4.0178395196e+00 
60900 4.8804743611e+00 -1.0543702135e-04 2.3197030340e+00 -4.0178435133e+00 2.3197030340e+00 4.0178435133e+00 
61000 4.8804743612e+00 -1.0392256307e-04 2.3197053066e+00 -4.0178474497e+00 2.3197053066e+00 4.0178474497e+00 
61100 4.8804743614e+00 -1.0243153356e-04 2.3197075466e+00 -4.0178513295e+00 2.3197075466e+00 4.0178513295e+00 
61200 4.8804743616e+00 -1.0096380426e-04 2.3197097545e+00 -4.0178551536e+00 2.3197097545e+00 4.0178551536e+00 
61300 4.8804743618e+00 -9.9519228474e-05 2.3197119307e+00 -4.0178589229e+00 2.3197119307e+00 4.0178589229e+00 
61400 4.8804743620e+00 -9.8097641636e-05 2.3197140758e+00 -4.0178626383e+00 2.3197140758e+00 4.0178626383e+00 
61500 4.8804743621e+00 -9.6698861801e-05 2.3197161902e+00 -4.0178663006e+00 2.3197161902e+00 4.0178663006e+00 
61600 4.8804743623e+00 -9.5322690092e-05 2.3197182745e+00 -4.0178699107e+00 2.3197182745e+00 4.0178699107e+00 
61700 4.8804743625e+00 -9.3968911239e-05 2.3197203291e+00 -4.0178734694e+00 2.3197203291e+00 4.0178734694e+00 
61800 4.8804743627e+00 -9.2637294178e-05 2.3197223545e+00 -4.0178769775e+00 2.3197223545e+00 4.0178769775e+00 
61900 4.8804743628e+00 -9.1327592694e-05 2.3197243513e+00 -4.0178804360e+00 2.3197243513e+00 4.0178804360e+00 
62000 4.8804743630e+00 -9.0039546123e-05 2.3197263198e+00 -4.0178838455e+00 2.3197263198e+00 4.0178838455e+00 
62100 4.8804743632e+00 -8.8772880066e-05 2.3197282605e+00 -4.0178872070e+00 2.3197282605e+00 4.0178872070e+00 
62200 4.8804743633e+00 -8.7527307180e-05 2.3197301740e+00 -4.0178905211e+00 2.3197301740e+00 4.0178905211e+00 
62300 4.8804743635e+00 -8.6302527966e-05 2.3197320605e+00 -4.0178937888e+00 2.3197320605e+00 4.0178937888e+00 
62400 4.8804743637e+00 -8.5098231615e-05 2.3197339207e+00 -4.0178970107e+00 2.3197339207e+00 4.0178970107e+00 
62500 4.8804743638e+00 -8.3914096847e-05 2.3197357549e+00 -4.0179001877e+00 2.3197357549e+00 4.0179001877e+00 
62600 4.8804743640e+00 -8.2749792803e-05 2.3197375636e+00 -4.0179033205e+00 2.3197375636e+00 4.0179033205e+00 
62700 4.8804743641e+00 -8.1604979922e-05 2.3197393472e+00 -4.0179064097e+00 2.3197393472e+00 4.0179064097e+00 
62800 4.8804743643e+00 -8.0479310847e-05 2.3197411062e+00 -4.0179094563e+00 2.3197411062e+00 4.0179094563e+00 
62900 4.8804743645e+00 -7.9372431336e-05 2.3197428408e+00 -4.0179124608e+00 2.3197428408e+00 4.0179124608e+00 
63000 4.8804743646e+00 -7.8283981171e-05 2.3197445516e+00 -4.0179154240e+00 2.3197445516e+00 4.0179154240e+00 
63100 4.8804743648e+00 -7.7213595058e-05 2.3197462390e+00 -4.0179183466e+00 2.3197462390e+00 4.0179183466e+00 
63200 4.8804743649e+00 -7.6160903549e-05 2.3197479032e+00 -4.0179212292e+00 2.3197479032e+00 4.0179212292e+00 
63300 4.8804743651e+00 -7.5125533929e-05 2.3197495448e+00 -4.0179240725e+00 2.3197495448e+00 4.0179240725e+00 
63400 4.8804743652e+00 -7.4107111110e-05 2.3197511641e+00 -4.0179268771e+00 2.3197511641e+00 4.0179268771e+00 
63500 4.8804743654e+00 -7.3105258496e-05 2.3197527614e+00 -4.0179296437e+00 2.3197527614e+00 4.0179296437e+00 
63600 4.8804743655e+00 -7.2119598835e-05 2.3197543371e+00 -4.0179323729e+00 2.3197543371e+00 4.0179323729e+00 
63700 4.8804743657e+00 -7.1149755067e-05 2.3197558916e+00 -4.0179350654e+00 2.3197558916e+00 4.0179350654e+00 
63800 4.8804743658e+00 -7.0195351122e-05 2.3197574251e+00 -4.0179377216e+00 2.3197574251e+00 4.0179377216e+00 
63900 4.8804743661e+00 -6.9852354679e-05 2.3197574251e+00 -4.0179377216e+00 2.3197574251e+00 4.0179377216e+00 
64000 4.8804743663e+00 -6.9524456548e-05 2.3197574251e+00 -4.0179377216e+00 2.3197574251e+00 4.0179377216e+00 
64100 4.8804743665e+00 -6.9211621506e-05 2.3197574251e+00 -4.0179377216e+00 2.3197574251e+00 4.0179377216e+00 
64200 4.8804743667e+00 -6.8913800674e-05 2.3197574251e+00 -4.0179377216e+00 2.3197574251e+00 4.0179377216e+00 
64300 4.8804743669e+00 -6.8630929070e-05 2.3197574251e+00 -4.0179377216e+00 2.3197574251e+00 4.0179377216e+00 
64400 4.8804743672e+00 -6.8362923568e-05 2.3197574251e+00 -4.0179377216e+00 2.3197574251e+00 4.0179377216e+00 
64500 4.8804743674e+00 -6.8109681246e-05 2.3197574251e+00 -4.0179377216e+00 2.3197574251e+00 4.0179377216e+00 
64600 4.8804743676e+00 -6.7871078055e-05 2.3197574251e+00 -4.0179377216e+00 2.3197574251e+00 4.0179377216e+00 
64700 4.8804743678e+00 -6.7646967848e-05 2.3197574251e+00 -4.0179377216e+00 2.3197574251e+00 4.0179377216e+00 
64800 4.8804743680e+00 -6.7437181668e-05 2.3197574251e+00 -4.0179377216e+00 2.3197574251e+00 4.0179377216e+00 
64900 4.8804743682e+00 -6.7241527346e-05 2.3197574251e+00 -4.0179377216e+00 2.3197574251e+00 4.0179377216e+00 
65000 4.8804743683e+00 -6.7059789342e-05 2.3197574251e+00 -4.0179377216e+00 2.3197574251e+00 4.0179377216e+00 
65100 4.8804743685e+00 -6.6891728812e-05 2.3197574251e+00 -4.0179377216e+00 2.3197574251e+00 4.0179377216e+00 
65200 4.8804743687e+00 -6.6737083902e-05 2.3197574251e+00 -4.0179377216e+00 2.3197574251e+00 4.0179377216e+00 
65300 4.8804743689e+00 -6.6595570228e-05 2.3197574251e+00 -4.0179377216e+00 2.3197574251e+00 4.0179377216e+00 
65400 4.8804743691e+00 -6.6466881534e-05 2.3197574251e+00 -4.0179377216e+00 2.3197574251e+00 4.0179377216e+00 
65500 4.8804743693e+00 -6.6350690511e-05 2.3197574251e+00 -4.0179377216e+00 2.3197574251e+00 4.0179377216e+00 
65600 4.8804743694e+00 -6.6246649752e-05 2.3197574251e+00 -4.0179377216e+00 2.3197574251e+00 4.0179377216e+00 
65700 4.8804743696e+00 -6.6154392833e-05 2.3197574251e+00 -4.0179377216e+00 2.3197574251e+00 4.0179377216e+00 
65800 4.8804743698e+00 -6.6073535510e-05 2.3197574251e+00 -4.0179377216e+00 2.3197574251e+00 4.0179377216e+00 
65900 4.8804743699e+00 -6.6003677002e-05 2.3197574251e+00 -4.0179377216e+00 2.3197574251e+00 4.0179377216e+00 
66000 4.8804743701e+00 -6.5944401353e-05 2.3197574251e+00 -4.0179377216e+00 2.3197574251e+00 4.0179377216e+00 
66100 4.8804743703e+00 -6.5895278870e-05 2.3197574251e+00 -4.0179377216e+00 2.3197574251e+00 4.0179377216e+00 
66200 4.8804743704e+00 -6.5855867607e-05 2.3197574251e+00 -4.0179377216e+00 2.3197574251e+00 4.0179377216e+00 
66300 4.8804743706e+00 -6.5825714894e-05 2.3197574251e+00 -4.0179377216e+00 2.3197574251e+00 4.0179377216e+00 
66400 4.8804743707e+00 -6.5804358898e-05 2.3197574251e+00 -4.0179377216e+00 2.3197574251e+00 4.0179377216e+00 
66500 4.8804743709e+00 -6.5791330195e-05 2.3197574251e+00 -4.0179377216e+00 2.3197574251e+00 4.0179377216e+00 
66600 4.8804743710e+00 -6.5786153358e-05 2.3197574251e+00 -4.0179377216e+00 2.3197574251e+00 4.0179377216e+00 
66700 4.8804743712e+00 -6.5788348546e-05 2.3197574251e+00 -4.0179377216e+00 2.3197574251e+00 4.0179377216e+00 
66800 4.8804743713e+00 -6.5797433072e-05 2.3197574251e+00 -4.0179377216e+00 2.3197574251e+00 4.0179377216e+00 
66900 4.8804743714e+00 -6.5812922973e-05 2.3197574251e+00 -4.0179377216e+00 2.3197574251e+00 4.0179377216e+00 
67000 4.8804743716e+00 -6.5834334530e-05 2.3197574251e+00 -4.0179377216e+00 2.3197574251e+00 4.0179377216e+00 
67100 4.8804743717e+00 -6.5861185773e-05 2.3197574251e+00 -4.0179377216e+00 2.3197574251e+00 4.0179377216e+00 
67200 4.8804743718e+00 -6.5892997938e-05 2.3197574251e+00 -4.0179377216e+00 2.3197574251e+00 4.0179377216e+00 
67300 4.8804743720e+00 -6.5929296878e-05 2.3197574251e+00 -4.0179377216e+00 2.3197574251e+00 4.0179377216e+00 
67400 4.8804743721e+00 -6.5969614431e-05 2.3197574251e+00 -4.0179377216e+00 2.3197574251e+00 4.0179377216e+00 
67500 4.8804743722e+00 -6.6013489717e-05 2.3197574251e+00 -4.0179377216e+00 2.3197574251e+00 4.0179377216e+00 
67600 4.8804743724e+00 -6.6060470390e-05 2.3197574251e+00 -4.0179377216e+00 2.3197574251e+00 4.0179377216e+00 
67700 4.8804743725e+00 -6.6110113811e-05 2.3197574251e+00 -4.0179377216e+00 2.3197574251e+00 4.0179377216e+00 
67800 4.8804743726e+00 -6.6161988167e-05 2.3197574251e+00 -4.0179377216e+00 2.3197574251e+00 4.0179377216e+00 
67900 4.8804743727e+00 -6.6215673511e-05 2.3197574251e+00 -4.0179377216e+00 2.3197574251e+00 4.0179377216e+00 
68000 4.8804743728e+00 -6.6270762726e-05 2.3197574251e+00 -4.0179377216e+00 2.3197574251e+00 4.0179377216e+00 
68100 4.8804743730e+00 -6.6326862423e-05 2.3197574251e+00 -4.0179377216e+00 2.3197574251e+00 4.0179377216e+00 
68200 4.8804743731e+00 -6.6383593755e-05 2.3197574251e+00 -4.0179377216e+00 2.3197574251e+00 4.0179377216e+00 
68300 4.8804743732e+00 -6.6440593156e-05 2.3197574251e+00 -4.0179377216e+00 2.3197574251e+00 4.0179377216e+00 
68400 4.8804743733e+00 -6.6497513002e-05 2.3197574251e+00 -4.0179377216e+00 2.3197574251e+00 4.0179377216e+00 
68500 4.8804743734e+00 -6.6554022196e-05 2.3197574251e+00 -4.0179377216e+00 2.3197574251e+00 4.0179377216e+00 
68600 4.8804743735e+00 -6.6609806665e-05 2.3197574251e+00 -4.0179377216e+00 2.3197574251e+00 4.0179377216e+00 
68700 4.8804743736e+00 -6.6664569793e-05 2.3197574251e+00 -4.0179377216e+00 2.3197574251e+00 4.0179377216e+00 
68800 4.8804743737e+00 -6.6718032763e-05 2.3197574251e+00 -4.0179377216e+00 2.3197574251e+00 4.0179377216e+00 
68900 4.8804743738e+00 -6.6769934835e-05 2.3197574251e+00 -4.0179377216e+00 2.3197574251e+00 4.0179377216e+00 
69000 4.8804743739e+00 -6.6820033541e-05 2.3197574251e+00 -4.0179377216e+00 2.3197574251e+00 4.0179377216e+00 
69100 4.8804743740e+00 -6.6868104815e-05 2.3197574251e+00 -4.0179377216e+00 2.3197574251e+00 4.0179377216e+00 
69200 4.8804743741e+00 -6.6913943034e-05 2.3197574251e+00 -4.0179377216e+00 2.3197574251e+00 4.0179377216e+00 
69300 4.8804743742e+00 -6.6957361021e-05 2.3197574251e+00 -4.0179377216e+00 2.3197574251e+00 4.0179377216e+00 
69400 4.8804743743e+00 -6.6998189953e-05 2.3197574251e+00 -4.0179377216e+00 2.3197574251e+00 4.0179377216e+00 
69500 4.8804743744e+00 -6.7036279218e-05 2.3197574251e+00 -4.0179377216e+00 2.3197574251e+00 4.0179377216e+00 
69600 4.8804743745e+00 -6.7071496213e-05 2.3197574251e+00 -4.0179377216e+00 2.3197574251e+00 4.0179377216e+00 
69700 4.8804743745e+00 -6.7103726076e-05 2.3197574251e+00 -4.0179377216e+00 2.3197574251e+00 4.0179377216e+00 
69800 4.8804743746e+00 -6.7132871370e-05 2.3197574251e+00 -4.0179377216e+00 2.3197574251e+00 4.0179377216e+00 
69900 4.8804743747e+00 -6.7158851711e-05 2.3197574251e+00 -4.0179377216e+00 2.3197574251e+00 4.0179377216e+00 
70000 4.8804743748e+00 -6.7181603350e-05 2.3197574251e+00 -4.0179377216e+00 2.3197574251e+00 4.0179377216e+00 
70100 4.8804743749e+00 -6.7201078710e-05 2.3197574251e+00 -4.0179377216e+00 2.3197574251e+00 4.0179377216e+00 
70200 4.8804743750e+00 -6.7217245876e-05 2.3197574251e+00 -4.0179377216e+00 2.3197574251e+00 4.0179377216e+00 
70300 4.8804743750e+00 -6.7230088051e-05 2.3197574251e+00 -4.0179377216e+00 2.3197574251e+00 4.0179377216e+00 
70400 4.8804743751e+00 -6.7239602983e-05 2.3197574251e+00 -4.0179377216e+00 2.3197574251e+00 4.0179377216e+00 
70500 4.8804743752e+00 -6.7245802346e-05 2.3197574251e+00 -4.0179377216e+00 2.3197574251e+00 4.0179377216e+00 
70600 4.8804743753e+00 -6.7248711107e-05 2.3197574251e+00 -4.0179377216e+00 2.3197574251e+00 4.0179377216e+00 
70700 4.8804743753e+00 -6.7248366860e-05 2.3197574251e+00 -4.0179377216e+00 2.3197574251e+00 4.0179377216e+00 
70800 4.8804743754e+00 -6.7244819141e-05 2.3197574251e+00 -4.0179377216e+00 2.3197574251e+00 4.0179377216e+00 
70900 4.8804743755e+00 -6.7238128731e-05 2.3197574251e+00 -4.0179377216e+00 2.3197574251e+00 4.0179377216e+00 
71000 4.8804743755e+00 -6.7228366937e-05 2.3197574251e+00 -4.0179377216e+00 2.3197574251e+00 4.0179377216e+00 
71100 4.8804743756e+00 -6.7215614862e-05 2.3197574251e+00 -4.0179377216e+00 2.3197574251e+00 4.0179377216e+00 
71200 4.8804743757e+00 -6.7199962679e-05 2.3197574251e+00 -4.0179377216e+00 2.3197574251e+00 4.0179377216e+00 
71300 4.8804743758e+00 -6.7181508881e-05 2.3197574251e+00 -4.0179377216e+00 2.3197574251e+00 4.0179377216e+00 
71400 4.8804743758e+00 -6.7160359550e-05 2.3197574251e+00 -4.0179377216e+00 2.3197574251e+00 4.0179377216e+00 
71500 4.8804743759e+00 -6.7136627610e-05 2.3197574251e+00 -4.0179377216e+00 2.3197574251e+00 4.0179377216e+00 
71600 4.8804743759e+00 -6.7110432094e-05 2.3197574251e+00 -4.0179377216e+00 2.3197574251e+00 4.0179377216e+00 
71700 4.8804743760e+00 -6.7081897414e-05 2.3197574251e+00 -4.0179377216e+00 2.3197574251e+00 4.0179377216e+00 
71800 4.8804743761e+00 -6.7051152647e-05 2.3197574251e+00 -4.0179377216e+00 2.3197574251e+00 4.0179377216e+00 
71900 4.8804743761e+00 -6.7018330814e-05 2.3197574251e+00 -4.0179377216e+00 2.3197574251e+00 4.0179377216e+00 
72000 4.8804743762e+00 -6.6983568198e-05 2.3197574251e+00 -4.0179377216e+00 2.3197574251e+00 4.0179377216e+00 
72100 4.8804743763e+00 -6.6947003659e-05 2.3197574251e+00 -4.0179377216e+00 2.3197574251e+00 4.0179377216e+00 
72200 4.8804743763e+00 -6.6908777976e-05 2.3197574251e+00 -4.0179377216e+00 2.3197574251e+00 4.0179377216e+00 
72300 4.8804743764e+00 -6.6869033205e-05 2.3197574251e+00 -4.0179377216e+00 2.3197574251e+00 4.0179377216e+00 
72400 4.8804743764e+00 -6.6827912063e-05 2.3197574251e+00 -4.0179377216e+00 2.3197574251e+00 4.0179377216e+00 
72500 4.8804743765e+00 -6.6785557323e-05 2.3197574251e+00 -4.0179377216e+00 2.3197574251e+00 4.0179377216e+00 
72600 4.8804743765e+00 -6.6742111256e-05 2.3197574251e+00 -4.0179377216e+00 2.3197574251e+00 4.0179377216e+00 
72700 4.8804743766e+00 -6.6697715070e-05 2.3197574251e+00 -4.0179377216e+00 2.3197574251e+00 4.0179377216e+00 
72800 4.8804743766e+00 -6.6652508404e-05 2.3197574251e+00 -4.0179377216e+00 2.3197574251e+00 4.0179377216e+00 
72900 4.8804743767e+00 -6.6606628827e-05 2.3197574251e+00 -4.0179377216e+00 2.3197574251e+00 4.0179377216e+00 
73000 4.8804743767e+00 -6.6560211379e-05 2.3197574251e+00 -4.0179377216e+00 2.3197574251e+00 4.0179377216e+00 
73100 4.8804743768e+00 -6.6513388136e-05 2.3197574251e+00 -4.0179377216e+00 2.3197574251e+00 4.0179377216e+00 
73200 4.8804743768e+00 -6.6466287806e-05 2.3197574251e+00 -4.0179377216e+00 2.3197574251e+00 4.0179377216e+00 
73300 4.8804743768e+00 -6.6463455723e-05 2.3197574251e+00 -4.0179377216e+00 2.3197574251e+00 4.0179377216e+00 
73300 4.8804743768e+00 -6.6463455723e-05 2.3197574251e+00 -4.0179377216e+00 2.3197574251e+00 4.0179377216e+00 
