# step Hamiltonian StressXX CellTensor1 CellTensor2 CellTensor3 CellTensor4 
0 4.9374198564e+00 -1.4937447187e-02 1.6122881582e+00 -2.7925650064e+00 1.6122881582e+00 2.7925650064e+00 
100 4.9212171873e+00 -1.6140940356e-02 1.6122881582e+00 -2.7925650064e+00 1.6122881582e+00 2.7925650064e+00 
200 4.9059051834e+00 -1.6570536857e-02 1.6127887441e+00 -2.7934320467e+00 1.6127887441e+00 2.7934320467e+00 
300 4.8914501536e+00 -1.6742574603e-02 1.6133024945e+00 -2.7943218884e+00 1.6133024945e+00 2.7943218884e+00 
400 4.8778106143e+00 -1.6677926066e-02 1.6138214136e+00 -2.7952206828e+00 1.6138214136e+00 2.7952206828e+00 
500 4.8649462984e+00 -1.6396519662e-02 1.6143381628e+00 -2.7961157185e+00 1.6143381628e+00 2.7961157185e+00 
600 4.8528181453e+00 -1.5917398529e-02 1.6148460297e+00 -2.7969953698e+00 1.6148460297e+00 2.7969953698e+00 
700 4.8413883008e+00 -1.5258767461e-02 1.6153389005e+00 -2.7978490470e+00 1.6153389005e+00 2.7978490470e+00 
800 4.8306201231e+00 -1.4438029992e-02 1.6158112320e+00 -2.7986671493e+00 1.6158112320e+00 2.7986671493e+00 
900 4.8204781926e+00 -1.3471817386e-02 1.6162580260e+00 -2.7994410192e+00 1.6162580260e+00 2.7994410192e+00 
1000 4.8109283241e+00 -1.2376011105e-02 1.6166748034e+00 -2.8001628988e+00 1.6166748034e+00 2.8001628988e+00 
1100 4.8019375790e+00 -1.1165760111e-02 1.6170575798e+00 -2.8008258870e+00 1.6170575798e+00 2.8008258870e+00 
1200 4.7934742750e+00 -9.8554942216e-03 1.6174028414e+00 -2.8014238976e+00 1.6174028414e+00 2.8014238976e+00 
1300 4.7855079952e+00 -8.4589345452e-03 1.6177075213e+00 -2.8019516187e+00 1.6177075213e+00 2.8019516187e+00 
1400 4.7780095925e+00 -6.9891019200e-03 1.6179689766e+00 -2.8024044725e+00 1.6179689766e+00 2.8024044725e+00 
1500 4.7709511905e+00 -5.4583241166e-03 1.6181849652e+00 -2.8027785757e+00 1.6181849652e+00 2.8027785757e+00 
1600 4.7643061807e+00 -3.8782424689e-03 1.6183536239e+00 -2.8030707011e+00 1.6183536239e+00 2.8030707011e+00 
1700 4.7580492146e+00 -2.2598184831e-03 1.6184734460e+00 -2.8032782391e+00 1.6184734460e+00 2.8032782391e+00 
1800 4.7521561917e+00 -6.1334087629e-04 1.6185432597e+00 -2.8033991601e+00 1.6185432597e+00 2.8033991601e+00 
1900 4.7466042427e+00 1.0515665888e-03 1.6185622071e+00 -2.8034319779e+00 1.6185622071e+00 2.8034319779e+00 
2000 4.7413717088e+00 2.7259361903e-03 1.6185297226e+00 -2.8033757131e+00 1.6185297226e+00 2.8033757131e+00 
2100 4.7364381167e+00 4.4014460431e-03 1.6184455131e+00 -2.8032298579e+00 1.6184455131e+00 2.8032298579e+00 
2200 4.7317841500e+00 6.0704084560e-03 1.6183095374e+00 -2.8029943411e+00 1.6183095374e+00 2.8029943411e+00 
2300 4.7273916168e+00 7.7257567658e-03 1.6181219870e+00 -2.8026694943e+00 1.6181219870e+00 2.8026694943e+00 
2400 4.7232434152e+00 9.3610306085e-03 1.6178832669e+00 -2.8022560189e+00 1.6178832669e+00 2.8022560189e+00 
2500 4.7193234949e+00 1.0970359641e-02 1.6175939768e+00 -2.8017549538e+00 1.6175939768e+00 2.8017549538e+00 
2600 4.7156168181e+00 1.2548445760e-02 1.6172548937e+00 -2.8011676446e+00 1.6172548937e+00 2.8011676446e+00 
2700 4.7121093174e+00 1.4090543903e-02 1.6168669541e+00 -2.8004957135e+00 1.6168669541e+00 2.8004957135e+00 
2800 4.7087878532e+00 1.5592441539e-02 1.6164312376e+00 -2.7997410305e+00 1.6164312376e+00 2.7997410305e+00 
2900 4.7056401697e+00 1.7050436991e-02 1.6159489509e+00 -2.7989056854e+00 1.6159489509e+00 2.7989056854e+00 
3000 4.7026548507e+00 1.8461316731e-02 1.6154214123e+00 -2.7979919617e+00 1.6154214123e+00 2.7979919617e+00 
3100 4.6998212755e+00 1.9822331823e-02 1.6148500373e+00 -2.7970023112e+00 1.6148500373e+00 2.7970023112e+00 
3200 4.6971295738e+00 2.1131173677e-02 1.6142363247e+00 -2.7959393298e+00 1.6142363247e+00 2.7959393298e+00 
3300 4.6945705827e+00 2.2385949300e-02 1.6135818436e+00 -2.7948057352e+00 1.6135818436e+00 2.7948057352e+00 
3400 4.6921358033e+00 2.3585156218e-02 1.6128882207e+00 -2.7936043452e+00 1.6128882207e+00 2.7936043452e+00 
3500 4.6898173587e+00 2.4727657247e-02 1.6121571293e+00 -2.7923380578e+00 1.6121571293e+00 2.7923380578e+00 
3600 4.6876079534e+00 2.5812655274e-02 1.6113902780e+00 -2.7910098324e+00 1.6113902780e+00 2.7910098324e+00 
3700 4.6855008335e+00 2.6839668223e-02 1.6105894008e+00 -2.7896226723e+00 1.6105894008e+00 2.7896226723e+00 
3800 4.6834897492e+00 2.7808504346e-02 1.6097562477e+00 -2.7881796087e+00 1.6097562477e+00 2.7881796087e+00 
3900 4.6815689185e+00 2.8719237983e-02 1.6088925760e+00 -2.7866836856e+00 1.6088925760e+00 2.7866836856e+00 
4000 4.6797329924e+00 2.9572185912e-02 1.6080001429e+00 -2.7851379460e+00 1.6080001429e+00 2.7851379460e+00 
4100 4.6779770224e+00 3.0367884411e-02 1.6070806975e+00 -2.7835454199e+00 1.6070806975e+00 2.7835454199e+00 
4200 4.6762964297e+00 3.1107067114e-02 1.6061359750e+00 -2.7819091125e+00 1.6061359750e+00 2.7819091125e+00 
4300 4.6746869758e+00 3.1790643757e-02 1.6051676902e+00 -2.7802319941e+00 1.6051676902e+00 2.7802319941e+00 
4400 4.6731447354e+00 3.2419679872e-02 1.6041775328e+00 -2.7785169912e+00 1.6041775328e+00 2.7785169912e+00 
4500 4.6716660710e+00 3.2995377483e-02 1.6031671623e+00 -2.7767669781e+00 1.6031671623e+00 2.7767669781e+00 
4600 4.6702476091e+00 3.3519056857e-02 1.6021382039e+00 -2.7749847699e+00 1.6021382039e+00 2.7749847699e+00 
4700 4.6688862180e+00 3.3992139312e-02 1.6010922453e+00 -2.7731731164e+00 1.6010922453e+00 2.7731731164e+00 
4800 4.6675789878e+00 3.4416131121e-02 1.6000308329e+00 -2.7713346963e+00 1.6000308329e+00 2.7713346963e+00 
4900 4.6663232113e+00 3.4792608497e-02 1.5989554701e+00 -2.7694721133e+00 1.5989554701e+00 2.7694721133e+00 
5000 4.6651163667e+00 3.5123203668e-02 1.5978676143e+00 -2.7675878918e+00 1.5978676143e+00 2.7675878918e+00 
5100 4.6639561018e+00 3.5409592015e-02 1.5967686755e+00 -2.7656844739e+00 1.5967686755e+00 2.7656844739e+00 
5200 4.6628402197e+00 3.5653480257e-02 1.5956600149e+00 -2.7637642174e+00 1.5956600149e+00 2.7637642174e+00 
5300 4.6617666648e+00 3.5856595651e-02 1.5945429437e+00 -2.7618293933e+00 1.5945429437e+00 2.7618293933e+00 
5400 4.6607335115e+00 3.6020676175e-02 1.5934187225e+00 -2.7598821851e+00 1.5934187225e+00 2.7598821851e+00 
5500 4.6597389524e+00 3.6147461653e-02 1.5922885609e+00 -2.7579246877e+00 1.5922885609e+00 2.7579246877e+00 
5600 4.6587812890e+00 3.6238685776e-02 1.5911536170e+00 -2.7559589072e+00 1.5911536170e+00 2.7559589072e+00 
5700 4.6578589219e+00 3.6296068985e-02 1.5900149978e+00 -2.7539867610e+00 1.5900149978e+00 2.7539867610e+00 
5800 4.6569703432e+00 3.6321312152e-02 1.5888737594e+00 -2.7520100781e+00 1.5888737594e+00 2.7520100781e+00 
5900 4.6561141285e+00 3.6316091031e-02 1.5877309073e+00 -2.7500306002e+00 1.5877309073e+00 2.7500306002e+00 
6000 4.6552889306e+00 3.6282051406e-02 1.5865873971e+00 -2.7480499825e+00 1.5865873971e+00 2.7480499825e+00 
6100 4.6544934731e+00 3.6220804917e-02 1.5854441355e+00 -2.7460697953e+00 1.5854441355e+00 2.7460697953e+00 
6200 4.6537265452e+00 3.6133925486e-02 1.5843019807e+00 -2.7440915251e+00 1.5843019807e+00 2.7440915251e+00 
6300 4.6529869966e+00 3.6022946319e-02 1.5831617439e+00 -2.7421165771e+00 1.5831617439e+00 2.7421165771e+00 
6400 4.6522737330e+00 3.5889357423e-02 1.5820241903e+00 -2.7401462764e+00 1.5820241903e+00 2.7401462764e+00 
6500 4.6515857123e+00 3.5734603607e-02 1.5808900399e+00 -2.7381818703e+00 1.5808900399e+00 2.7381818703e+00 
6600 4.6509219407e+00 3.5560082914e-02 1.5797599695e+00 -2.7362245309e+00 1.5797599695e+00 2.7362245309e+00 
6700 4.6502814697e+00 3.5367145444e-02 1.5786346131e+00 -2.7342753566e+00 1.5786346131e+00 2.7342753566e+00 
6800 4.6496633931e+00 3.5157092543e-02 1.5775145642e+00 -2.7323353749e+00 1.5775145642e+00 2.7323353749e+00 
6900 4.6490668441e+00 3.4931176303e-02 1.5764003764e+00 -2.7304055450e+00 1.5764003764e+00 2.7304055450e+00 
7000 4.6484909934e+00 3.4690599349e-02 1.5752925651e+00 -2.7284867596e+00 1.5752925651e+00 2.7284867596e+00 
7100 4.6479350466e+00 3.4436514890e-02 1.5741916092e+00 -2.7265798479e+00 1.5741916092e+00 2.7265798479e+00 
7200 4.6473982423e+00 3.4170026980e-02 1.5730979518e+00 -2.7246855778e+00 1.5730979518e+00 2.7246855778e+00 
7300 4.6468798503e+00 3.3892190989e-02 1.5720120025e+00 -2.7228046585e+00 1.5720120025e+00 2.7228046585e+00 
7400 4.6463791705e+00 3.3604014238e-02 1.5709341381e+00 -2.7209377426e+00 1.5709341381e+00 2.7209377426e+00 
7500 4.6458955303e+00 3.3306456789e-02 1.5698647044e+00 -2.7190854291e+00 1.5698647044e+00 2.7190854291e+00 
7600 4.6454282844e+00 3.3000432354e-02 1.5688040174e+00 -2.7172482652e+00 1.5688040174e+00 2.7172482652e+00 
7700 4.6449768128e+00 3.2686809319e-02 1.5677523646e+00 -2.7154267492e+00 1.5677523646e+00 2.7154267492e+00 
7800 4.6445405198e+00 3.2366411858e-02 1.5667100066e+00 -2.7136213321e+00 1.5667100066e+00 2.7136213321e+00 
7900 4.6441188332e+00 3.2040021111e-02 1.5656771782e+00 -2.7118324208e+00 1.5656771782e+00 2.7118324208e+00 
8000 4.6437112029e+00 3.1708376434e-02 1.5646540896e+00 -2.7100603794e+00 1.5646540896e+00 2.7100603794e+00 
8100 4.6433171003e+00 3.1372176686e-02 1.5636409279e+00 -2.7083055319e+00 1.5636409279e+00 2.7083055319e+00 
8200 4.6429360171e+00 3.1032081555e-02 1.5626378581e+00 -2.7065681640e+00 1.5626378581e+00 2.7065681640e+00 
8300 4.6425674648e+00 3.0688712903e-02 1.5616450243e+00 -2.7048485255e+00 1.5616450243e+00 2.7048485255e+00 
8400 4.6422109738e+00 3.0342656131e-02 1.5606625509e+00 -2.7031468317e+00 1.5606625509e+00 2.7031468317e+00 
8500 4.6418660927e+00 2.9994461543e-02 1.5596905437e+00 -2.7014632659e+00 1.5596905437e+00 2.7014632659e+00 
8600 4.6415323873e+00 2.9644645719e-02 1.5587290909e+00 -2.6997979807e+00 1.5587290909e+00 2.6997979807e+00 
8700 4.6412094406e+00 2.9293692868e-02 1.5577782641e+00 -2.6981511003e+00 1.5577782641e+00 2.6981511003e+00 
8800 4.6408968516e+00 2.8942056179e-02 1.5568381192e+00 -2.6965227216e+00 1.5568381192e+00 2.6965227216e+00 
8900 4.6405942347e+00 2.8590159145e-02 1.5559086978e+00 -2.6949129165e+00 1.5559086978e+00 2.6949129165e+00 
9000 4.6403012197e+00 2.8238396874e-02 1.5549900274e+00 -2.6933217328e+00 1.5549900274e+00 2.6933217328e+00 
9100 4.6400174504e+00 2.7887137367e-02 1.5540821230e+00 -2.6917491961e+00 1.5540821230e+00 2.6917491961e+00 
9200 4.6397425849e+00 2.7536722770e-02 1.5531849872e+00 -2.6901953114e+00 1.5531849872e+00 2.6901953114e+00 
9300 4.6394762945e+00 2.7187470599e-02 1.5522986118e+00 -2.6886600641e+00 1.5522986118e+00 2.6886600641e+00 
9400 4.6392182634e+00 2.6839674929e-02 1.5514229776e+00 -2.6871434213e+00 1.5514229776e+00 2.6871434213e+00 
9500 4.6389681883e+00 2.6493607547e-02 1.5505580562e+00 -2.6856453334e+00 1.5505580562e+00 2.6856453334e+00 
9600 4.6387257779e+00 2.6149519072e-02 1.5497038098e+00 -2.6841657352e+00 1.5497038098e+00 2.6841657352e+00 
9700 4.6384907522e+00 2.5807640044e-02 1.5488601923e+00 -2.6827045468e+00 1.5488601923e+00 2.6827045468e+00 
9800 4.6382628425e+00 2.5468181964e-02 1.5480271498e+00 -2.6812616750e+00 1.5480271498e+00 2.6812616750e+00 
9900 4.6380417908e+00 2.5131338312e-02 1.5472046215e+00 -2.6798370141e+00 1.5472046215e+00 2.6798370141e+00 
10000 4.6378273490e+00 2.4797285511e-02 1.5463925395e+00 -2.6784304469e+00 1.5463925395e+00 2.6784304469e+00 
10100 4.6376192793e+00 2.4466183873e-02 1.5455908304e+00 -2.6770418459e+00 1.5455908304e+00 2.6770418459e+00 
10200 4.6374173532e+00 2.4138178490e-02 1.5447994147e+00 -2.6756710738e+00 1.5447994147e+00 2.6756710738e+00 
10300 4.6372213512e+00 2.3813400104e-02 1.5440182084e+00 -2.6743179847e+00 1.5440182084e+00 2.6743179847e+00 
10400 4.6370310627e+00 2.3491965928e-02 1.5432471224e+00 -2.6729824246e+00 1.5432471224e+00 2.6729824246e+00 
10500 4.6368462855e+00 2.3173980445e-02 1.5424860636e+00 -2.6716642322e+00 1.5424860636e+00 2.6716642322e+00 
10600 4.6366668254e+00 2.2859536159e-02 1.5417349353e+00 -2.6703632398e+00 1.5417349353e+00 2.6703632398e+00 
10700 4.6364924961e+00 2.2548714325e-02 1.5409936372e+00 -2.6690792738e+00 1.5409936372e+00 2.6690792738e+00 
10800 4.6363231187e+00 2.2241585634e-02 1.5402620661e+00 -2.6678121555e+00 1.5402620661e+00 2.6678121555e+00 
10900 4.6361585212e+00 2.1938210880e-02 1.5395401160e+00 -2.6665617012e+00 1.5395401160e+00 2.6665617012e+00 
11000 4.6359985389e+00 2.1638641582e-02 1.5388276786e+00 -2.6653277235e+00 1.5388276786e+00 2.6653277235e+00 
11100 4.6358430133e+00 2.1342920585e-02 1.5381246437e+00 -2.6641100312e+00 1.5381246437e+00 2.6641100312e+00 
11200 4.6356917923e+00 2.1051082631e-02 1.5374308990e+00 -2.6629084302e+00 1.5374308990e+00 2.6629084302e+00 
11300 4.6355447300e+00 2.0763154895e-02 1.5367463310e+00 -2.6617227237e+00 1.5367463310e+00 2.6617227237e+00 
11400 4.6354016861e+00 2.0479157507e-02 1.5360708248e+00 -2.6605527127e+00 1.5360708248e+00 2.6605527127e+00 
11500 4.6352625260e+00 2.0199104032e-02 1.5354042646e+00 -2.6593981964e+00 1.5354042646e+00 2.6593981964e+00 
11600 4.6351271203e+00 1.9923001937e-02 1.5347465335e+00 -2.6582589728e+00 1.5347465335e+00 2.6582589728e+00 
11700 4.6349953448e+00 1.9650853032e-02 1.5340975144e+00 -2.6571348387e+00 1.5340975144e+00 2.6571348387e+00 
11800 4.6348670800e+00 1.9382653882e-02 1.5334570895e+00 -2.6560255902e+00 1.5334570895e+00 2.6560255902e+00 
11900 4.6347422113e+00 1.9118396199e-02 1.5328251409e+00 -2.6549310231e+00 1.5328251409e+00 2.6549310231e+00 
12000 4.6346206283e+00 1.8858067219e-02 1.5322015505e+00 -2.6538509329e+00 1.5322015505e+00 2.6538509329e+00 
12100 4.6345022253e+00 1.8601650051e-02 1.5315862005e+00 -2.6527851155e+00 1.5315862005e+00 2.6527851155e+00 
12200 4.6343869003e+00 1.8349124010e-02 1.5309789732e+00 -2.6517333669e+00 1.5309789732e+00 2.6517333669e+00 
12300 4.6342745555e+00 1.8100464927e-02 1.5303797512e+00 -2.6506954839e+00 1.5303797512e+00 2.6506954839e+00 
12400 4.6341650965e+00 1.7855645449e-02 1.5297884176e+00 -2.6496712641e+00 1.5297884176e+00 2.6496712641e+00 
12500 4.6340584330e+00 1.7614635317e-02 1.5292048562e+00 -2.6486605061e+00 1.5292048562e+00 2.6486605061e+00 
12600 4.6339544777e+00 1.7377401626e-02 1.5286289513e+00 -2.6476630096e+00 1.5286289513e+00 2.6476630096e+00 
12700 4.6338531468e+00 1.7143909074e-02 1.5280605883e+00 -2.6466785760e+00 1.5280605883e+00 2.6466785760e+00 
12800 4.6337543597e+00 1.6914120191e-02 1.5274996531e+00 -2.6457070077e+00 1.5274996531e+00 2.6457070077e+00 
12900 4.6336580387e+00 1.6687995563e-02 1.5269460327e+00 -2.6447481091e+00 1.5269460327e+00 2.6447481091e+00 
13000 4.6335641090e+00 1.6465494030e-02 1.5263996153e+00 -2.6438016863e+00 1.5263996153e+00 2.6438016863e+00 
13100 4.6334724986e+00 1.6246572884e-02 1.5258602898e+00 -2.6428675471e+00 1.5258602898e+00 2.6428675471e+00 
13200 4.6333831381e+00 1.6031188043e-02 1.5253279465e+00 -2.6419455016e+00 1.5253279465e+00 2.6419455016e+00 
13300 4.6332959608e+00 1.5819294225e-02 1.5248024770e+00 -2.6410353617e+00 1.5248024770e+00 2.6410353617e+00 
13400 4.6332109022e+00 1.5610845104e-02 1.5242837739e+00 -2.6401369415e+00 1.5242837739e+00 2.6401369415e+00 
13500 4.6331279002e+00 1.5405793453e-02 1.5237717311e+00 -2.6392500573e+00 1.5237717311e+00 2.6392500573e+00 
13600 4.6330468950e+00 1.5204091289e-02 1.5232662439e+00 -2.6383745279e+00 1.5232662439e+00 2.6383745279e+00 
13700 4.6329678289e+00 1.5005689996e-02 1.5227672090e+00 -2.6375101740e+00 1.5227672090e+00 2.6375101740e+00 
13800 4.6328906462e+00 1.4810540446e-02 1.5222745243e+00 -2.6366568192e+00 1.5222745243e+00 2.6366568192e+00 
13900 4.6328152931e+00 1.4618593110e-02 1.5217880893e+00 -2.6358142891e+00 1.5217880893e+00 2.6358142891e+00 
14000 4.6327417178e+00 1.4429798161e-02 1.5213078049e+00 -2.6349824120e+00 1.5213078049e+00 2.6349824120e+00 
14100 4.6326698702e+00 1.4244105571e-02 1.5208335732e+00 -2.6341610186e+00 1.5208335732e+00 2.6341610186e+00 
14200 4.6325997020e+00 1.4061465201e-02 1.5203652979e+00 -2.6333499420e+00 1.5203652979e+00 2.6333499420e+00 
14300 4.6325311665e+00 1.3881826878e-02 1.5199028843e+00 -2.6325490182e+00 1.5199028843e+00 2.6325490182e+00 
14400 4.6324642185e+00 1.3705140477e-02 1.5194462390e+00 -2.6317580852e+00 1.5194462390e+00 2.6317580852e+00 
14500 4.6323988146e+00 1.3531355986e-02 1.5189952700e+00 -2.6309769841e+00 1.5189952700e+00 2.6309769841e+00 
14600 4.6323349124e+00 1.3360423577e-02 1.5185498869e+00 -2.6302055580e+00 1.5185498869e+00 2.6302055580e+00 
14700 4.6322724714e+00 1.3192293657e-02 1.5181100009e+00 -2.6294436530e+00 1.5181100009e+00 2.6294436530e+00 
14800 4.6322114521e+00 1.3026916929e-02 1.5176755243e+00 -2.6286911175e+00 1.5176755243e+00 2.6286911175e+00 
14900 4.6321518163e+00 1.2864244439e-02 1.5172463712e+00 -2.6279478026e+00 1.5172463712e+00 2.6279478026e+00 
15000 4.6320935272e+00 1.2704227619e-02 1.5168224571e+00 -2.6272135617e+00 1.5168224571e+00 2.6272135617e+00 
15100 4.6320365491e+00 1.2546818334e-02 1.5164036987e+00 -2.6264882509e+00 1.5164036987e+00 2.6264882509e+00 
15200 4.6319808474e+00 1.2391968913e-02 1.5159900144e+00 -2.6257717287e+00 1.5159900144e+00 2.6257717287e+00 
15300 4.6319263888e+00 1.2239632188e-02 1.5155813239e+00 -2.6250638561e+00 1.5155813239e+00 2.6250638561e+00 
15400 4.6318731406e+00 1.2089761518e-02 1.5151775486e+00 -2.6243644966e+00 1.5151775486e+00 2.6243644966e+00 
15500 4.6318210717e+00 1.1942310824e-02 1.5147786108e+00 -2.6236735161e+00 1.5147786108e+00 2.6236735161e+00 
15600 4.6317701516e+00 1.1797234605e-02 1.5143844346e+00 -2.6229907830e+00 1.5143844346e+00 2.6229907830e+00 
15700 4.6317203507e+00 1.1654487967e-02 1.5139949454e+00 -2.6223161678e+00 1.5139949454e+00 2.6223161678e+00 
15800 4.6316716405e+00 1.1514026633e-02 1.5136100698e+00 -2.6216495437e+00 1.5136100698e+00 2.6216495437e+00 
15900 4.6316239934e+00 1.1375806969e-02 1.5132297359e+00 -2.6209907861e+00 1.5132297359e+00 2.6209907861e+00 
16000 4.6315773824e+00 1.1239785989e-02 1.5128538731e+00 -2.6203397726e+00 1.5128538731e+00 2.6203397726e+00 
16100 4.6315317814e+00 1.1105921373e-02 1.5124824120e+00 -2.6196963832e+00 1.5124824120e+00 2.6196963832e+00 
16200 4.6314871652e+00 1.0974171473e-02 1.5121152847e+00 -2.6190605000e+00 1.5121152847e+00 2.6190605000e+00 
16300 4.6314435093e+00 1.0844495324e-02 1.5117524244e+00 -2.6184320075e+00 1.5117524244e+00 2.6184320075e+00 
16400 4.6314007897e+00 1.0716852647e-02 1.5113937656e+00 -2.6178107923e+00 1.5113937656e+00 2.6178107923e+00 
16500 4.6313589835e+00 1.0591203858e-02 1.5110392440e+00 -2.6171967429e+00 1.5110392440e+00 2.6171967429e+00 
16600 4.6313180681e+00 1.0467510066e-02 1.5106887967e+00 -2.6165897503e+00 1.5106887967e+00 2.6165897503e+00 
16700 4.6312780217e+00 1.0345733079e-02 1.5103423617e+00 -2.6159897072e+00 1.5103423617e+00 2.6159897072e+00 
16800 4.6312388232e+00 1.0225835404e-02 1.5099998783e+00 -2.6153965087e+00 1.5099998783e+00 2.6153965087e+00 
16900 4.6312004520e+00 1.0107780243e-02 1.5096612871e+00 -2.6148100515e+00 1.5096612871e+00 2.6148100515e+00 
17000 4.6311628881e+00 9.9915314974e-03 1.5093265297e+00 -2.6142302347e+00 1.5093265297e+00 2.6142302347e+00 
17100 4.6311261121e+00 9.8770537595e-03 1.5089955488e+00 -2.6136569589e+00 1.5089955488e+00 2.6136569589e+00 
17200 4.6310901050e+00 9.7643123123e-03 1.5086682881e+00 -2.6130901268e+00 1.5086682881e+00 2.6130901268e+00 
17300 4.6310548486e+00 9.6532731243e-03 1.5083446927e+00 -2.6125296431e+00 1.5083446927e+00 2.6125296431e+00 
17400 4.6310203250e+00 9.5439028446e-03 1.5080247084e+00 -2.6119754141e+00 1.5080247084e+00 2.6119754141e+00 
17500 4.6309865168e+00 9.4361687966e-03 1.5077082823e+00 -2.6114273479e+00 1.5077082823e+00 2.6114273479e+00 
17600 4.6309534071e+00 9.3300389723e-03 1.5073953623e+00 -2.6108853545e+00 1.5073953623e+00 2.6108853545e+00 
17700 4.6309209795e+00 9.2254820250e-03 1.5070858973e+00 -2.6103493456e+00 1.5070858973e+00 2.6103493456e+00 
17800 4.6308892181e+00 9.1224672618e-03 1.5067798375e+00 -2.6098192344e+00 1.5067798375e+00 2.6098192344e+00 
17900 4.6308581073e+00 9.0209646356e-03 1.5064771336e+00 -2.6092949359e+00 1.5064771336e+00 2.6092949359e+00 
18000 4.6308276320e+00 8.9209447371e-03 1.5061777376e+00 -2.6087763667e+00 1.5061777376e+00 2.6087763667e+00 
18100 4.6307977774e+00 8.8223787860e-03 1.5058816021e+00 -2.6082634451e+00 1.5058816021e+00 2.6082634451e+00 
18200 4.6307685293e+00 8.7252386217e-03 1.5055886809e+00 -2.6077560907e+00 1.5055886809e+00 2.6077560907e+00 
18300 4.6307398736e+00 8.6294966944e-03 1.5052989285e+00 -2.6072542248e+00 1.5052989285e+00 2.6072542248e+00 
18400 4.6307117968e+00 8.5351260556e-03 1.5050123003e+00 -2.6067577702e+00 1.5050123003e+00 2.6067577702e+00 
18500 4.6306842857e+00 8.4421003480e-03 1.5047287525e+00 -2.6062666510e+00 1.5047287525e+00 2.6062666510e+00 
18600 4.6306573273e+00 8.3503937959e-03 1.5044482423e+00 -2.6057807929e+00 1.5044482423e+00 2.6057807929e+00 
18700 4.6306309092e+00 8.2599811954e-03 1.5041707273e+00 -2.6053001230e+00 1.5041707273e+00 2.6053001230e+00 
18800 4.6306050191e+00 8.1708379035e-03 1.5038961664e+00 -2.6048245695e+00 1.5038961664e+00 2.6048245695e+00 
18900 4.6305796450e+00 8.0829398289e-03 1.5036245189e+00 -2.6043540623e+00 1.5036245189e+00 2.6043540623e+00 
19000 4.6305547755e+00 7.9962634206e-03 1.5033557451e+00 -2.6038885323e+00 1.5033557451e+00 2.6038885323e+00 
19100 4.6305303992e+00 7.9107856586e-03 1.5030898058e+00 -2.6034279120e+00 1.5030898058e+00 2.6034279120e+00 
19200 4.6305065050e+00 7.8264840429e-03 1.5028266627e+00 -2.6029721347e+00 1.5028266627e+00 2.6029721347e+00 
19300 4.6304830823e+00 7.7433365833e-03 1.5025662781e+00 -2.6025211354e+00 1.5025662781e+00 2.6025211354e+00 
19400 4.6304601205e+00 7.6613217891e-03 1.5023086151e+00 -2.6020748499e+00 1.5023086151e+00 2.6020748499e+00 
19500 4.6304376095e+00 7.5804186588e-03 1.5020536373e+00 -2.6016332155e+00 1.5020536373e+00 2.6016332155e+00 
19600 4.6304155394e+00 7.5006066698e-03 1.5018013092e+00 -2.6011961705e+00 1.5018013092e+00 2.6011961705e+00 
19700 4.6303939003e+00 7.4218657683e-03 1.5015515958e+00 -2.6007636541e+00 1.5015515958e+00 2.6007636541e+00 
19800 4.6303726830e+00 7.3441763590e-03 1.5013044627e+00 -2.6003356071e+00 1.5013044627e+00 2.6003356071e+00 
19900 4.6303518780e+00 7.2675192952e-03 1.5010598762e+00 -2.5999119708e+00 1.5010598762e+00 2.5999119708e+00 
20000 4.6303314765e+00 7.1918758689e-03 1.5008178031e+00 -2.5994926879e+00 1.5008178031e+00 2.5994926879e+00 
20100 4.6303114697e+00 7.1172278007e-03 1.5005782109e+00 -2.5990777020e+00 1.5005782109e+00 2.5990777020e+00 
20200 4.6302918490e+00 7.0435572303e-03 1.5003410676e+00 -2.5986669578e+00 1.5003410676e+00 2.5986669578e+00 
20300 4.6302726061e+00 6.9708467070e-03 1.5001063419e+00 -2.5982604009e+00 1.5001063419e+00 2.5982604009e+00 
20400 4.6302537328e+00 6.8990791798e-03 1.4998740028e+00 -2.5978579778e+00 1.4998740028e+00 2.5978579778e+00 
20500 4.6302352212e+00 6.8282379885e-03 1.4996440201e+00 -2.5974596360e+00 1.4996440201e+00 2.5974596360e+00 
20600 4.6302170635e+00 6.7583068542e-03 1.4994163639e+00 -2.5970653239e+00 1.4994163639e+00 2.5970653239e+00 
20700 4.6301992521e+00 6.6892698701e-03 1.4991910049e+00 -2.5966749908e+00 1.4991910049e+00 2.5966749908e+00 
20800 4.6301817798e+00 6.6211114932e-03 1.4989679145e+00 -2.5962885868e+00 1.4989679145e+00 2.5962885868e+00 
20900 4.6301646391e+00 6.5538165347e-03 1.4987470642e+00 -2.5959060629e+00 1.4987470642e+00 2.5959060629e+00 
21000 4.6301478233e+00 6.4873701520e-03 1.4985284264e+00 -2.5955273710e+00 1.4985284264e+00 2.5955273710e+00 
21100 4.6301313252e+00 6.4217578399e-03 1.4983119735e+00 -2.5951524638e+00 1.4983119735e+00 2.5951524638e+00 
21200 4.6301151383e+00 6.3569654224e-03 1.4980976789e+00 -2.5947812946e+00 1.4980976789e+00 2.5947812946e+00 
21300 4.6300992561e+00 6.2929790445e-03 1.4978855160e+00 -2.5944138176e+00 1.4978855160e+00 2.5944138176e+00 
21400 4.6300836720e+00 6.2297851643e-03 1.4976754588e+00 -2.5940499879e+00 1.4976754588e+00 2.5940499879e+00 
21500 4.6300683799e+00 6.1673705449e-03 1.4974674818e+00 -2.5936897612e+00 1.4974674818e+00 2.5936897612e+00 
21600 4.6300533737e+00 6.1057222472e-03 1.4972615598e+00 -2.5933330939e+00 1.4972615598e+00 2.5933330939e+00 
21700 4.6300386474e+00 6.0448276217e-03 1.4970576682e+00 -2.5929799431e+00 1.4970576682e+00 2.5929799431e+00 
21800 4.6300241953e+00 5.9846743018e-03 1.4968557824e+00 -2.5926302668e+00 1.4968557824e+00 2.5926302668e+00 
21900 4.6300100116e+00 5.9252501961e-03 1.4966558787e+00 -2.5922840233e+00 1.4966558787e+00 2.5922840233e+00 
22000 4.6299960907e+00 5.8665434819e-03 1.4964579334e+00 -2.5919411720e+00 1.4964579334e+00 2.5919411720e+00 
22100 4.6299824274e+00 5.8085425975e-03 1.4962619234e+00 -2.5916016727e+00 1.4962619234e+00 2.5916016727e+00 
22200 4.6299690162e+00 5.7512362364e-03 1.4960678258e+00 -2.5912654858e+00 1.4960678258e+00 2.5912654858e+00 
22300 4.6299558520e+00 5.6946133401e-03 1.4958756181e+00 -2.5909325724e+00 1.4958756181e+00 2.5909325724e+00 
22400 4.6299429298e+00 5.6386630918e-03 1.4956852784e+00 -2.5906028943e+00 1.4956852784e+00 2.5906028943e+00 
22500 4.6299302446e+00 5.5833749103e-03 1.4954967847e+00 -2.5902764136e+00 1.4954967847e+00 2.5902764136e+00 
22600 4.6299177917e+00 5.5287384437e-03 1.4953101156e+00 -2.5899530934e+00 1.4953101156e+00 2.5899530934e+00 
22700 4.6299055662e+00 5.4747435635e-03 1.4951252502e+00 -2.5896328970e+00 1.4951252502e+00 2.5896328970e+00 
22800 4.6298935635e+00 5.4213803588e-03 1.4949421674e+00 -2.5893157884e+00 1.4949421674e+00 2.5893157884e+00 
22900 4.6298817793e+00 5.3686391308e-03 1.4947608470e+00 -2.5890017322e+00 1.4947608470e+00 2.5890017322e+00 
23000 4.6298702090e+00 5.3165103868e-03 1.4945812688e+00 -2.5886906935e+00 1.4945812688e+00 2.5886906935e+00 
23100 4.6298588484e+00 5.2649848352e-03 1.4944034128e+00 -2.5883826379e+00 1.4944034128e+00 2.5883826379e+00 
23200 4.6298476933e+00 5.2140533800e-03 1.4942272595e+00 -2.5880775315e+00 1.4942272595e+00 2.5880775315e+00 
23300 4.6298367395e+00 5.1637071161e-03 1.4940527896e+00 -2.5877753408e+00 1.4940527896e+00 2.5877753408e+00 
23400 4.6298259831e+00 5.1139373237e-03 1.4938799842e+00 -2.5874760331e+00 1.4938799842e+00 2.5874760331e+00 
23500 4.6298154200e+00 5.0647354639e-03 1.4937088246e+00 -2.5871795759e+00 1.4937088246e+00 2.5871795759e+00 
23600 4.6298050466e+00 5.0160931737e-03 1.4935392922e+00 -2.5868859372e+00 1.4935392922e+00 2.5868859372e+00 
23700 4.6297948589e+00 4.9680022618e-03 1.4933713690e+00 -2.5865950856e+00 1.4933713690e+00 2.5865950856e+00 
23800 4.6297848534e+00 4.9204547035e-03 1.4932050369e+00 -2.5863069901e+00 1.4932050369e+00 2.5863069901e+00 
23900 4.6297750264e+00 4.8734426368e-03 1.4930402784e+00 -2.5860216200e+00 1.4930402784e+00 2.5860216200e+00 
24000 4.6297653744e+00 4.8269583583e-03 1.4928770761e+00 -2.5857389452e+00 1.4928770761e+00 2.5857389452e+00 
24100 4.6297558940e+00 4.7809943183e-03 1.4927154127e+00 -2.5854589360e+00 1.4927154127e+00 2.5854589360e+00 
24200 4.6297465819e+00 4.7355431178e-03 1.4925552714e+00 -2.5851815631e+00 1.4925552714e+00 2.5851815631e+00 
24300 4.6297374346e+00 4.6905975037e-03 1.4923966354e+00 -2.5849067975e+00 1.4923966354e+00 2.5849067975e+00 
24400 4.6297284491e+00 4.6461503657e-03 1.4922394883e+00 -2.5846346108e+00 1.4922394883e+00 2.5846346108e+00 
24500 4.6297196222e+00 4.6021947321e-03 1.4920838139e+00 -2.5843649749e+00 1.4920838139e+00 2.5843649749e+00 
24600 4.6297109508e+00 4.5587237665e-03 1.4919295962e+00 -2.5840978619e+00 1.4919295962e+00 2.5840978619e+00 
24700 4.6297024318e+00 4.5157307643e-03 1.4917768194e+00 -2.5838332447e+00 1.4917768194e+00 2.5838332447e+00 
24800 4.6296940623e+00 4.4732091492e-03 1.4916254678e+00 -2.5835710961e+00 1.4916254678e+00 2.5835710961e+00 
24900 4.6296858396e+00 4.4311524700e-03 1.4914755262e+00 -2.5833113897e+00 1.4914755262e+00 2.5833113897e+00 
25000 4.6296777606e+00 4.3895543972e-03 1.4913269794e+00 -2.5830540990e+00 1.4913269794e+00 2.5830540990e+00 
25100 4.6296698227e+00 4.3484087202e-03 1.4911798124e+00 -2.5827991983e+00 1.4911798124e+00 2.5827991983e+00 
25200 4.6296620231e+00 4.3077093441e-03 1.4910340105e+00 -2.5825466620e+00 1.4910340105e+00 2.5825466620e+00 
25300 4.6296543593e+00 4.2674502868e-03 1.4908895590e+00 -2.5822964647e+00 1.4908895590e+00 2.5822964647e+00 
25400 4.6296468286e+00 4.2276256763e-03 1.4907464438e+00 -2.5820485818e+00 1.4907464438e+00 2.5820485818e+00 
25500 4.6296394285e+00 4.1882297475e-03 1.4906046504e+00 -2.5818029885e+00 1.4906046504e+00 2.5818029885e+00 
25600 4.6296321564e+00 4.1492568400e-03 1.4904641650e+00 -2.5815596606e+00 1.4904641650e+00 2.5815596606e+00 
25700 4.6296250101e+00 4.1107013953e-03 1.4903249737e+00 -2.5813185743e+00 1.4903249737e+00 2.5813185743e+00 
25800 4.6296179870e+00 4.0725579541e-03 1.4901870629e+00 -2.5810797058e+00 1.4901870629e+00 2.5810797058e+00 
25900 4.6296110850e+00 4.0348211542e-03 1.4900504192e+00 -2.5808430318e+00 1.4900504192e+00 2.5808430318e+00 
26000 4.6296043016e+00 3.9974857279e-03 1.4899150291e+00 -2.5806085294e+00 1.4899150291e+00 2.5806085294e+00 
26100 4.6295976347e+00 3.9605464994e-03 1.4897808796e+00 -2.5803761757e+00 1.4897808796e+00 2.5803761757e+00 
26200 4.6295910820e+00 3.9239983832e-03 1.4896479578e+00 -2.5801459484e+00 1.4896479578e+00 2.5801459484e+00 
26300 4.6295846415e+00 3.8878363815e-03 1.4895162509e+00 -2.5799178252e+00 1.4895162509e+00 2.5799178252e+00 
26400 4.6295783110e+00 3.8520555819e-03 1.4893857461e+00 -2.5796917843e+00 1.4893857461e+00 2.5796917843e+00 
26500 4.6295720885e+00 3.8166511558e-03 1.4892564310e+00 -2.5794678040e+00 1.4892564310e+00 2.5794678040e+00 
26600 4.6295659720e+00 3.7816183561e-03 1.4891282934e+00 -2.5792458631e+00 1.4891282934e+00 2.5792458631e+00 
26700 4.6295599595e+00 3.7469525154e-03 1.4890013210e+00 -2.5790259404e+00 1.4890013210e+00 2.5790259404e+00 
26800 4.6295540491e+00 3.7126490439e-03 1.4888755017e+00 -2.5788080152e+00 1.4888755017e+00 2.5788080152e+00 
26900 4.6295482389e+00 3.6787034278e-03 1.4887508238e+00 -2.5785920667e+00 1.4887508238e+00 2.5785920667e+00 
27000 4.6295425270e+00 3.6451112276e-03 1.4886272755e+00 -2.5783780748e+00 1.4886272755e+00 2.5783780748e+00 
27100 4.6295369116e+00 3.6118680759e-03 1.4885048453e+00 -2.5781660193e+00 1.4885048453e+00 2.5781660193e+00 
27200 4.6295313910e+00 3.5789696763e-03 1.4883835215e+00 -2.5779558805e+00 1.4883835215e+00 2.5779558805e+00 
27300 4.6295259634e+00 3.5464118015e-03 1.4882632931e+00 -2.5777476386e+00 1.4882632931e+00 2.5777476386e+00 
27400 4.6295206271e+00 3.5141902916e-03 1.4881441487e+00 -2.5775412745e+00 1.4881441487e+00 2.5775412745e+00 
27500 4.6295153805e+00 3.4823010529e-03 1.4880260773e+00 -2.5773367689e+00 1.4880260773e+00 2.5773367689e+00 
27600 4.6295102219e+00 3.4507400560e-03 1.4879090681e+00 -2.5771341030e+00 1.4879090681e+00 2.5771341030e+00 
27700 4.6295051496e+00 3.4195033348e-03 1.4877931102e+00 -2.5769332581e+00 1.4877931102e+00 2.5769332581e+00 
27800 4.6295001622e+00 3.3885869846e-03 1.4876781931e+00 -2.5767342157e+00 1.4876781931e+00 2.5767342157e+00 
27900 4.6294952581e+00 3.3579871614e-03 1.4875643061e+00 -2.5765369577e+00 1.4875643061e+00 2.5765369577e+00 
28000 4.6294904358e+00 3.3277000799e-03 1.4874514389e+00 -2.5763414659e+00 1.4874514389e+00 2.5763414659e+00 
28100 4.6294856938e+00 3.2977220126e-03 1.4873395812e+00 -2.5761477227e+00 1.4873395812e+00 2.5761477227e+00 
28200 4.6294810306e+00 3.2680492885e-03 1.4872287228e+00 -2.5759557103e+00 1.4872287228e+00 2.5759557103e+00 
28300 4.6294764449e+00 3.2386782917e-03 1.4871188537e+00 -2.5757654115e+00 1.4871188537e+00 2.5757654115e+00 
28400 4.6294719352e+00 3.2096054605e-03 1.4870099640e+00 -2.5755768090e+00 1.4870099640e+00 2.5755768090e+00 
28500 4.6294675002e+00 3.1808272861e-03 1.4869020438e+00 -2.5753898858e+00 1.4869020438e+00 2.5753898858e+00 
28600 4.6294631385e+00 3.1523403116e-03 1.4867950836e+00 -2.5752046252e+00 1.4867950836e+00 2.5752046252e+00 
28700 4.6294588488e+00 3.1241411307e-03 1.4866890736e+00 -2.5750210105e+00 1.4866890736e+00 2.5750210105e+00 
28800 4.6294546299e+00 3.0962263868e-03 1.4865840044e+00 -2.5748390253e+00 1.4865840044e+00 2.5748390253e+00 
28900 4.6294504805e+00 3.0685927721e-03 1.4864798666e+00 -2.5746586534e+00 1.4864798666e+00 2.5746586534e+00 
29000 4.6294463993e+00 3.0412370264e-03 1.4863766511e+00 -2.5744798788e+00 1.4863766511e+00 2.5744798788e+00 
29100 4.6294423852e+00 3.0141559361e-03 1.4862743485e+00 -2.5743026856e+00 1.4862743485e+00 2.5743026856e+00 
29200 4.6294384369e+00 2.9873463336e-03 1.4861729500e+00 -2.5741270582e+00 1.4861729500e+00 2.5741270582e+00 
29300 4.6294345533e+00 2.9608050961e-03 1.4860724464e+00 -2.5739529809e+00 1.4860724464e+00 2.5739529809e+00 
29400 4.6294307332e+00 2.9345291447e-03 1.4859728291e+00 -2.5737804386e+00 1.4859728291e+00 2.5737804386e+00 
29500 4.6294269755e+00 2.9085154436e-03 1.4858740892e+00 -2.5736094161e+00 1.4858740892e+00 2.5736094161e+00 
29600 4.6294232792e+00 2.8827609994e-03 1.4857762180e+00 -2.5734398983e+00 1.4857762180e+00 2.5734398983e+00 
29700 4.6294196431e+00 2.8572628603e-03 1.4856792071e+00 -2.5732718705e+00 1.4856792071e+00 2.5732718705e+00 
29800 4.6294160662e+00 2.8320181148e-03 1.4855830480e+00 -2.5731053180e+00 1.4855830480e+00 2.5731053180e+00 
29900 4.6294125474e+00 2.8070238916e-03 1.4854877323e+00 -2.5729402264e+00 1.4854877323e+00 2.5729402264e+00 
30000 4.6294090857e+00 2.7822773586e-03 1.4853932518e+00 -2.5727765813e+00 1.4853932518e+00 2.5727765813e+00 
30100 4.6294056802e+00 2.7577757219e-03 1.4852995982e+00 -2.5726143685e+00 1.4852995982e+00 2.5726143685e+00 
30200 4.6294023299e+00 2.7335162254e-03 1.4852067635e+00 -2.5724535741e+00 1.4852067635e+00 2.5724535741e+00 
30300 4.6293990337e+00 2.7094961502e-03 1.4851147397e+00 -2.5722941841e+00 1.4851147397e+00 2.5722941841e+00 
30400 4.6293957908e+00 2.6857128136e-03 1.4850235188e+00 -2.5721361850e+00 1.4850235188e+00 2.5721361850e+00 
30500 4.6293926002e+00 2.6621635686e-03 1.4849330931e+00 -2.5719795631e+00 1.4849330931e+00 2.5719795631e+00 
30600 4.6293894611e+00 2.6388458033e-03 1.4848434548e+00 -2.5718243051e+00 1.4848434548e+00 2.5718243051e+00 
30700 4.6293863725e+00 2.6157569402e-03 1.4847545963e+00 -2.5716703976e+00 1.4847545963e+00 2.5716703976e+00 
30800 4.6293833335e+00 2.5928944356e-03 1.4846665100e+00 -2.5715178277e+00 1.4846665100e+00 2.5715178277e+00 
30900 4.6293803434e+00 2.5702557793e-03 1.4845791884e+00 -2.5713665822e+00 1.4845791884e+00 2.5713665822e+00 
31000 4.6293774012e+00 2.5478384934e-03 1.4844926241e+00 -2.5712166485e+00 1.4844926241e+00 2.5712166485e+00 
31100 4.6293745062e+00 2.5256401322e-03 1.4844068098e+00 -2.5710680137e+00 1.4844068098e+00 2.5710680137e+00 
31200 4.6293716575e+00 2.5036582818e-03 1.4843217383e+00 -2.5709206655e+00 1.4843217383e+00 2.5709206655e+00 
31300 4.6293688543e+00 2.4818905591e-03 1.4842374023e+00 -2.5707745913e+00 1.4842374023e+00 2.5707745913e+00 
31400 4.6293660959e+00 2.4603346114e-03 1.4841537948e+00 -2.5706297789e+00 1.4841537948e+00 2.5706297789e+00 
31500 4.6293633815e+00 2.4389881163e-03 1.4840709088e+00 -2.5704862161e+00 1.4840709088e+00 2.5704862161e+00 
31600 4.6293607103e+00 2.4178487807e-03 1.4839887373e+00 -2.5703438909e+00 1.4839887373e+00 2.5703438909e+00 
31700 4.6293580817e+00 2.3969143405e-03 1.4839072736e+00 -2.5702027915e+00 1.4839072736e+00 2.5702027915e+00 
31800 4.6293554948e+00 2.3761825602e-03 1.4838265107e+00 -2.5700629061e+00 1.4838265107e+00 2.5700629061e+00 
31900 4.6293529491e+00 2.3556512324e-03 1.4837464420e+00 -2.5699242230e+00 1.4837464420e+00 2.5699242230e+00 
32000 4.6293504437e+00 2.3353181773e-03 1.4836670608e+00 -2.5697867308e+00 1.4836670608e+00 2.5697867308e+00 
32100 4.6293479780e+00 2.3151812422e-03 1.4835883606e+00 -2.5696504181e+00 1.4835883606e+00 2.5696504181e+00 
32200 4.6293455513e+00 2.2952383013e-03 1.4835103349e+00 -2.5695152736e+00 1.4835103349e+00 2.5695152736e+00 
32300 4.6293431630e+00 2.2754872550e-03 1.4834329772e+00 -2.5693812862e+00 1.4834329772e+00 2.5693812862e+00 
32400 4.6293408125e+00 2.2559260299e-03 1.4833562812e+00 -2.5692484448e+00 1.4833562812e+00 2.5692484448e+00 
32500 4.6293384990e+00 2.2365525778e-03 1.4832802406e+00 -2.5691167386e+00 1.4832802406e+00 2.5691167386e+00 
32600 4.6293362220e+00 2.2173648759e-03 1.4832048491e+00 -2.5689861567e+00 1.4832048491e+00 2.5689861567e+00 
32700 4.6293339808e+00 2.1983609259e-03 1.4831301006e+00 -2.5688566885e+00 1.4831301006e+00 2.5688566885e+00 
32800 4.6293317749e+00 2.1795387541e-03 1.4830559891e+00 -2.5687283235e+00 1.4830559891e+00 2.5687283235e+00 
32900 4.6293296037e+00 2.1608964107e-03 1.4829825083e+00 -2.5686010511e+00 1.4829825083e+00 2.5686010511e+00 
33000 4.6293274665e+00 2.1424319696e-03 1.4829096525e+00 -2.5684748611e+00 1.4829096525e+00 2.5684748611e+00 
33100 4.6293253629e+00 2.1241435280e-03 1.4828374156e+00 -2.5683497432e+00 1.4828374156e+00 2.5683497432e+00 
33200 4.6293232922e+00 2.1060292059e-03 1.4827657919e+00 -2.5682256873e+00 1.4827657919e+00 2.5682256873e+00 
33300 4.6293212539e+00 2.0880871462e-03 1.4826947756e+00 -2.5681026834e+00 1.4826947756e+00 2.5681026834e+00 
33400 4.6293192475e+00 2.0703155140e-03 1.4826243608e+00 -2.5679807215e+00 1.4826243608e+00 2.5679807215e+00 
33500 4.6293172725e+00 2.0527124962e-03 1.4825545421e+00 -2.5678597919e+00 1.4825545421e+00 2.5678597919e+00 
33600 4.6293153283e+00 2.0352763016e-03 1.4824853137e+00 -2.5677398849e+00 1.4824853137e+00 2.5677398849e+00 
33700 4.6293134143e+00 2.0180051601e-03 1.4824166702e+00 -2.5676209908e+00 1.4824166702e+00 2.5676209908e+00 
33800 4.6293115302e+00 2.0008973228e-03 1.4823486060e+00 -2.5675031002e+00 1.4823486060e+00 2.5675031002e+00 
33900 4.6293096754e+00 1.9839510616e-03 1.4822811158e+00 -2.5673862036e+00 1.4822811158e+00 2.5673862036e+00 
34000 4.6293078495e+00 1.9671646687e-03 1.4822141940e+00 -2.5672702918e+00 1.4822141940e+00 2.5672702918e+00 
34100 4.6293060519e+00 1.9505364565e-03 1.4821478355e+00 -2.5671553555e+00 1.4821478355e+00 2.5671553555e+00 
34200 4.6293042822e+00 1.9340647574e-03 1.4820820350e+00 -2.5670413856e+00 1.4820820350e+00 2.5670413856e+00 
34300 4.6293025399e+00 1.9177479232e-03 1.4820167873e+00 -2.5669283732e+00 1.4820167873e+00 2.5669283732e+00 
34400 4.6293008246e+00 1.9015843252e-03 1.4819520871e+00 -2.5668163093e+00 1.4819520871e+00 2.5668163093e+00 
34500 4.6292991359e+00 1.8855723538e-03 1.4818879295e+00 -2.5667051850e+00 1.4818879295e+00 2.5667051850e+00 
34600 4.6292974733e+00 1.8697104182e-03 1.4818243093e+00 -2.5665949916e+00 1.4818243093e+00 2.5665949916e+00 
34700 4.6292958364e+00 1.8539969460e-03 1.4817612216e+00 -2.5664857206e+00 1.4817612216e+00 2.5664857206e+00 
34800 4.6292942247e+00 1.8384303832e-03 1.4816986615e+00 -2.5663773632e+00 1.4816986615e+00 2.5663773632e+00 
34900 4.6292926379e+00 1.8230091941e-03 1.4816366240e+00 -2.5662699111e+00 1.4816366240e+00 2.5662699111e+00 
35000 4.6292910755e+00 1.8077318604e-03 1.4815751043e+00 -2.5661633559e+00 1.4815751043e+00 2.5661633559e+00 
35100 4.6292895372e+00 1.7925968818e-03 1.4815140976e+00 -2.5660576892e+00 1.4815140976e+00 2.5660576892e+00 
35200 4.6292880225e+00 1.7776027750e-03 1.4814535992e+00 -2.5659529029e+00 1.4814535992e+00 2.5659529029e+00 
35300 4.6292865311e+00 1.7627480740e-03 1.4813936044e+00 -2.5658489889e+00 1.4813936044e+00 2.5658489889e+00 
35400 4.6292850627e+00 1.7480313298e-03 1.4813341085e+00 -2.5657459390e+00 1.4813341085e+00 2.5657459390e+00 
35500 4.6292836167e+00 1.7334511098e-03 1.4812751070e+00 -2.5656437453e+00 1.4812751070e+00 2.5656437453e+00 
35600 4.6292821929e+00 1.7190059982e-03 1.4812165953e+00 -2.5655424000e+00 1.4812165953e+00 2.5655424000e+00 
35700 4.6292807909e+00 1.7046945952e-03 1.4811585688e+00 -2.5654418953e+00 1.4811585688e+00 2.5654418953e+00 
35800 4.6292794104e+00 1.6905155171e-03 1.4811010232e+00 -2.5653422233e+00 1.4811010232e+00 2.5653422233e+00 
35900 4.6292780510e+00 1.6764673961e-03 1.4810439540e+00 -2.5652433766e+00 1.4810439540e+00 2.5652433766e+00 
36000 4.6292767123e+00 1.6625488798e-03 1.4809873569e+00 -2.5651453475e+00 1.4809873569e+00 2.5651453475e+00 
36100 4.6292753941e+00 1.6487586316e-03 1.4809312275e+00 -2.5650481285e+00 1.4809312275e+00 2.5650481285e+00 
36200 4.6292740960e+00 1.6350953299e-03 1.4808755616e+00 -2.5649517123e+00 1.4808755616e+00 2.5649517123e+00 
36300 4.6292728177e+00 1.6215576681e-03 1.4808203549e+00 -2.5648560915e+00 1.4808203549e+00 2.5648560915e+00 
36400 4.6292715589e+00 1.6081443545e-03 1.4807656032e+00 -2.5647612588e+00 1.4807656032e+00 2.5647612588e+00 
36500 4.6292703192e+00 1.5948541122e-03 1.4807113024e+00 -2.5646672071e+00 1.4807113024e+00 2.5646672071e+00 
36600 4.6292690983e+00 1.5816856785e-03 1.4806574484e+00 -2.5645739293e+00 1.4806574484e+00 2.5645739293e+00 
36700 4.6292678960e+00 1.5686378052e-03 1.4806040371e+00 -2.5644814182e+00 1.4806040371e+00 2.5644814182e+00 
36800 4.6292667120e+00 1.5557092583e-03 1.4805510646e+00 -2.5643896670e+00 1.4805510646e+00 2.5643896670e+00 
36900 4.6292655459e+00 1.5428988174e-03 1.4804985267e+00 -2.5642986687e+00 1.4804985267e+00 2.5642986687e+00 
37000 4.6292643975e+00 1.5302052762e-03 1.4804464196e+00 -2.5642084166e+00 1.4804464196e+00 2.5642084166e+00 
37100 4.6292632665e+00 1.5176274417e-03 1.4803947393e+00 -2.5641189038e+00 1.4803947393e+00 2.5641189038e+00 
37200 4.6292621526e+00 1.5051641347e-03 1.4803434821e+00 -2.5640301237e+00 1.4803434821e+00 2.5640301237e+00 
37300 4.6292610556e+00 1.4928141890e-03 1.4802926441e+00 -2.5639420696e+00 1.4802926441e+00 2.5639420696e+00 
37400 4.6292599752e+00 1.4805764514e-03 1.4802422214e+00 -2.5638547350e+00 1.4802422214e+00 2.5638547350e+00 
37500 4.6292589110e+00 1.4684497820e-03 1.4801922104e+00 -2.5637681134e+00 1.4801922104e+00 2.5637681134e+00 
37600 4.6292578630e+00 1.4564330532e-03 1.4801426073e+00 -2.5636821983e+00 1.4801426073e+00 2.5636821983e+00 
37700 4.6292568307e+00 1.4445251505e-03 1.4800934085e+00 -2.5635969835e+00 1.4800934085e+00 2.5635969835e+00 
37800 4.6292558140e+00 1.4327249715e-03 1.4800446103e+00 -2.5635124626e+00 1.4800446103e+00 2.5635124626e+00 
37900 4.6292548126e+00 1.4210314264e-03 1.4799962092e+00 -2.5634286293e+00 1.4799962092e+00 2.5634286293e+00 
38000 4.6292538263e+00 1.4094434373e-03 1.4799482015e+00 -2.5633454776e+00 1.4799482015e+00 2.5633454776e+00 
38100 4.6292528548e+00 1.3979599385e-03 1.4799005838e+00 -2.5632630012e+00 1.4799005838e+00 2.5632630012e+00 
38200 4.6292518979e+00 1.3865798761e-03 1.4798533525e+00 -2.5631811942e+00 1.4798533525e+00 2.5631811942e+00 
38300 4.6292509554e+00 1.3753022080e-03 1.4798065042e+00 -2.5631000506e+00 1.4798065042e+00 2.5631000506e+00 
38400 4.6292500270e+00 1.3641259035e-03 1.4797600354e+00 -2.5630195644e+00 1.4797600354e+00 2.5630195644e+00 
38500 4.6292491126e+00 1.3530499437e-03 1.4797139429e+00 -2.5629397297e+00 1.4797139429e+00 2.5629397297e+00 
38600 4.6292482118e+00 1.3420733205e-03 1.4796682231e+00 -2.5628605408e+00 1.4796682231e+00 2.5628605408e+00 
38700 4.6292473246e+00 1.3311950375e-03 1.4796228729e+00 -2.5627819918e+00 1.4796228729e+00 2.5627819918e+00 
38800 4.6292464506e+00 1.3204141090e-03 1.4795778888e+00 -2.5627040772e+00 1.4795778888e+00 2.5627040772e+00 
38900 4.6292455897e+00 1.3097295603e-03 1.4795332677e+00 -2.5626267912e+00 1.4795332677e+00 2.5626267912e+00 
39000 4.6292447417e+00 1.2991404275e-03 1.4794890064e+00 -2.5625501283e+00 1.4794890064e+00 2.5625501283e+00 
39100 4.6292439064e+00 1.2886457573e-03 1.4794451015e+00 -2.5624740829e+00 1.4794451015e+00 2.5624740829e+00 
39200 4.6292430835e+00 1.2782446070e-03 1.4794015501e+00 -2.5623986496e+00 1.4794015501e+00 2.5623986496e+00 
39300 4.6292422729e+00 1.2679360442e-03 1.4793583489e+00 -2.5623238229e+00 1.4793583489e+00 2.5623238229e+00 
39400 4.6292414744e+00 1.2577191469e-03 1.4793154949e+00 -2.5622495975e+00 1.4793154949e+00 2.5622495975e+00 
39500 4.6292406877e+00 1.2475930031e-03 1.4792729849e+00 -2.5621759681e+00 1.4792729849e+00 2.5621759681e+00 
39600 4.6292399128e+00 1.2375567109e-03 1.4792308160e+00 -2.5621029294e+00 1.4792308160e+00 2.5621029294e+00 
39700 4.6292391495e+00 1.2276093784e-03 1.4791889851e+00 -2.5620304761e+00 1.4791889851e+00 2.5620304761e+00 
39800 4.6292383975e+00 1.2177501232e-03 1.4791474892e+00 -2.5619586032e+00 1.4791474892e+00 2.5619586032e+00 
39900 4.6292376566e+00 1.2079780730e-03 1.4791063255e+00 -2.5618873056e+00 1.4791063255e+00 2.5618873056e+00 
40000 4.6292369268e+00 1.1982923648e-03 1.4790654910e+00 -2.5618165781e+00 1.4790654910e+00 2.5618165781e+00 
40100 4.6292362078e+00 1.1886921450e-03 1.4790249827e+00 -2.5617464157e+00 1.4790249827e+00 2.5617464157e+00 
40200 4.6292354995e+00 1.1791765694e-03 1.4789847979e+00 -2.5616768136e+00 1.4789847979e+00 2.5616768136e+00 
40300 4.6292348017e+00 1.1697448032e-03 1.4789449337e+00 -2.5616077668e+00 1.4789449337e+00 2.5616077668e+00 
40400 4.6292341142e+00 1.1603960206e-03 1.4789053873e+00 -2.5615392704e+00 1.4789053873e+00 2.5615392704e+00 
40500 4.6292334369e+00 1.1511294046e-03 1.4788661559e+00 -2.5614713196e+00 1.4788661559e+00 2.5614713196e+00 
40600 4.6292327696e+00 1.1419441475e-03 1.4788272367e+00 -2.5614039096e+00 1.4788272367e+00 2.5614039096e+00 
40700 4.6292321122e+00 1.1328394501e-03 1.4787886271e+00 -2.5613370358e+00 1.4787886271e+00 2.5613370358e+00 
40800 4.6292314646e+00 1.1238145220e-03 1.4787503243e+00 -2.5612706934e+00 1.4787503243e+00 2.5612706934e+00 
40900 4.6292308265e+00 1.1148685815e-03 1.4787123257e+00 -2.5612048779e+00 1.4787123257e+00 2.5612048779e+00 
41000 4.6292301978e+00 1.1060008552e-03 1.4786746286e+00 -2.5611395845e+00 1.4786746286e+00 2.5611395845e+00 
41100 4.6292295784e+00 1.0972105782e-03 1.4786372303e+00 -2.5610748089e+00 1.4786372303e+00 2.5610748089e+00 
41200 4.6292289681e+00 1.0884969939e-03 1.4786001284e+00 -2.5610105465e+00 1.4786001284e+00 2.5610105465e+00 
41300 4.6292283669e+00 1.0798593539e-03 1.4785633202e+00 -2.5609467928e+00 1.4785633202e+00 2.5609467928e+00 
41400 4.6292277745e+00 1.0712969180e-03 1.4785268032e+00 -2.5608835434e+00 1.4785268032e+00 2.5608835434e+00 
41500 4.6292271908e+00 1.0628089538e-03 1.4784905748e+00 -2.5608207940e+00 1.4784905748e+00 2.5608207940e+00 
41600 4.6292266157e+00 1.0543947369e-03 1.4784546326e+00 -2.5607585403e+00 1.4784546326e+00 2.5607585403e+00 
41700 4.6292260491e+00 1.0460535509e-03 1.4784189740e+00 -2.5606967779e+00 1.4784189740e+00 2.5606967779e+00 
41800 4.6292254908e+00 1.0377846869e-03 1.4783835967e+00 -2.5606355026e+00 1.4783835967e+00 2.5606355026e+00 
41900 4.6292249407e+00 1.0295874438e-03 1.4783484982e+00 -2.5605747102e+00 1.4783484982e+00 2.5605747102e+00 
42000 4.6292243987e+00 1.0214611279e-03 1.4783136762e+00 -2.5605143966e+00 1.4783136762e+00 2.5605143966e+00 
42100 4.6292238647e+00 1.0134050531e-03 1.4782791281e+00 -2.5604545577e+00 1.4782791281e+00 2.5604545577e+00 
42200 4.6292233385e+00 1.0054185408e-03 1.4782448517e+00 -2.5603951892e+00 1.4782448517e+00 2.5603951892e+00 
42300 4.6292228200e+00 9.9750091930e-04 1.4782108447e+00 -2.5603362873e+00 1.4782108447e+00 2.5603362873e+00 
42400 4.6292223091e+00 9.8965152451e-04 1.4781771047e+00 -2.5602778479e+00 1.4781771047e+00 2.5602778479e+00 
42500 4.6292218057e+00 9.8186969926e-04 1.4781436294e+00 -2.5602198670e+00 1.4781436294e+00 2.5602198670e+00 
42600 4.6292213097e+00 9.7415479350e-04 1.4781104166e+00 -2.5601623407e+00 1.4781104166e+00 2.5601623407e+00 
42700 4.6292208209e+00 9.6650616410e-04 1.4780774640e+00 -2.5601052652e+00 1.4780774640e+00 2.5601052652e+00 
42800 4.6292203393e+00 9.5892317486e-04 1.4780447694e+00 -2.5600486365e+00 1.4780447694e+00 2.5600486365e+00 
42900 4.6292198647e+00 9.5140519634e-04 1.4780123306e+00 -2.5599924509e+00 1.4780123306e+00 2.5599924509e+00 
43000 4.6292193971e+00 9.4395160584e-04 1.4779801455e+00 -2.5599367045e+00 1.4779801455e+00 2.5599367045e+00 
43100 4.6292189363e+00 9.3656178733e-04 1.4779482117e+00 -2.5598813937e+00 1.4779482117e+00 2.5598813937e+00 
43200 4.6292184822e+00 9.2923513132e-04 1.4779165273e+00 -2.5598265147e+00 1.4779165273e+00 2.5598265147e+00 
43300 4.6292180348e+00 9.2197103482e-04 1.4778850901e+00 -2.5597720638e+00 1.4778850901e+00 2.5597720638e+00 
43400 4.6292175938e+00 9.1476890128e-04 1.4778538980e+00 -2.5597180374e+00 1.4778538980e+00 2.5597180374e+00 
43500 4.6292171594e+00 9.0762814046e-04 1.4778229488e+00 -2.5596644320e+00 1.4778229488e+00 2.5596644320e+00 
43600 4.6292167312e+00 9.0054816844e-04 1.4777922407e+00 -2.5596112438e+00 1.4777922407e+00 2.5596112438e+00 
43700 4.6292163093e+00 8.9352840745e-04 1.4777617714e+00 -2.5595584695e+00 1.4777617714e+00 2.5595584695e+00 
43800 4.6292158935e+00 8.8656828589e-04 1.4777315390e+00 -2.5595061055e+00 1.4777315390e+00 2.5595061055e+00 
43900 4.6292154838e+00 8.7966723819e-04 1.4777015415e+00 -2.5594541483e+00 1.4777015415e+00 2.5594541483e+00 
44000 4.6292150800e+00 8.7282470479e-04 1.4776717769e+00 -2.5594025945e+00 1.4776717769e+00 2.5594025945e+00 
44100 4.6292146821e+00 8.6604013204e-04 1.4776422432e+00 -2.5593514406e+00 1.4776422432e+00 2.5593514406e+00 
44200 4.6292142900e+00 8.5931297213e-04 1.4776129385e+00 -2.5593006834e+00 1.4776129385e+00 2.5593006834e+00 
44300 4.6292139036e+00 8.5264268306e-04 1.4775838608e+00 -2.5592503194e+00 1.4775838608e+00 2.5592503194e+00 
44400 4.6292135228e+00 8.4602872852e-04 1.4775550083e+00 -2.5592003454e+00 1.4775550083e+00 2.5592003454e+00 
44500 4.6292131476e+00 8.3947057789e-04 1.4775263791e+00 -2.5591507581e+00 1.4775263791e+00 2.5591507581e+00 
44600 4.6292127777e+00 8.3296770609e-04 1.4774979712e+00 -2.5591015542e+00 1.4774979712e+00 2.5591015542e+00 
44700 4.6292124133e+00 8.2651959361e-04 1.4774697828e+00 -2.5590527305e+00 1.4774697828e+00 2.5590527305e+00 
44800 4.6292120541e+00 8.2012572637e-04 1.4774418121e+00 -2.5590042839e+00 1.4774418121e+00 2.5590042839e+00 
44900 4.6292117001e+00 8.1378559571e-04 1.4774140573e+00 -2.5589562111e+00 1.4774140573e+00 2.5589562111e+00 
45000 4.6292113513e+00 8.0749869828e-04 1.4773865165e+00 -2.5589085090e+00 1.4773865165e+00 2.5589085090e+00 
45100 4.6292110075e+00 8.0126453603e-04 1.4773591880e+00 -2.5588611746e+00 1.4773591880e+00 2.5588611746e+00 
45200 4.6292106687e+00 7.9508261611e-04 1.4773320699e+00 -2.5588142048e+00 1.4773320699e+00 2.5588142048e+00 
45300 4.6292103348e+00 7.8895245084e-04 1.4773051606e+00 -2.5587675964e+00 1.4773051606e+00 2.5587675964e+00 
45400 4.6292100057e+00 7.8287355761e-04 1.4772784583e+00 -2.5587213466e+00 1.4772784583e+00 2.5587213466e+00 
45500 4.6292096814e+00 7.7684545888e-04 1.4772519612e+00 -2.5586754523e+00 1.4772519612e+00 2.5586754523e+00 
45600 4.6292093617e+00 7.7086768208e-04 1.4772256677e+00 -2.5586299106e+00 1.4772256677e+00 2.5586299106e+00 
45700 4.6292090467e+00 7.6493975955e-04 1.4771995760e+00 -2.5585847185e+00 1.4771995760e+00 2.5585847185e+00 
45800 4.6292087362e+00 7.5906122851e-04 1.4771736845e+00 -2.5585398732e+00 1.4771736845e+00 2.5585398732e+00 
45900 4.6292084302e+00 7.5323163100e-04 1.4771479916e+00 -2.5584953717e+00 1.4771479916e+00 2.5584953717e+00 
46000 4.6292081287e+00 7.4745051380e-04 1.4771224955e+00 -2.5584512112e+00 1.4771224955e+00 2.5584512112e+00 
46100 4.6292078314e+00 7.4171742841e-04 1.4770971947e+00 -2.5584073889e+00 1.4770971947e+00 2.5584073889e+00 
46200 4.6292075385e+00 7.3603193097e-04 1.4770720875e+00 -2.5583639020e+00 1.4770720875e+00 2.5583639020e+00 
46300 4.6292072498e+00 7.3039358223e-04 1.4770471723e+00 -2.5583207476e+00 1.4770471723e+00 2.5583207476e+00 
46400 4.6292069652e+00 7.2480194747e-04 1.4770224476e+00 -2.5582779232e+00 1.4770224476e+00 2.5582779232e+00 
46500 4.6292066848e+00 7.1925659646e-04 1.4769979117e+00 -2.5582354258e+00 1.4769979117e+00 2.5582354258e+00 
46600 4.6292064083e+00 7.1375710345e-04 1.4769735632e+00 -2.5581932529e+00 1.4769735632e+00 2.5581932529e+00 
46700 4.6292061359e+00 7.0830304703e-04 1.4769494005e+00 -2.5581514018e+00 1.4769494005e+00 2.5581514018e+00 
46800 4.6292058673e+00 7.0289401016e-04 1.4769254219e+00 -2.5581098698e+00 1.4769254219e+00 2.5581098698e+00 
46900 4.6292056027e+00 6.9752958011e-04 1.4769016262e+00 -2.5580686543e+00 1.4769016262e+00 2.5580686543e+00 
47000 4.6292053418e+00 6.9220934836e-04 1.4768780116e+00 -2.5580277527e+00 1.4768780116e+00 2.5580277527e+00 
47100 4.6292050847e+00 6.8693291060e-04 1.4768545768e+00 -2.5579871623e+00 1.4768545768e+00 2.5579871623e+00 
47200 4.6292048313e+00 6.8169986669e-04 1.4768313202e+00 -2.5579468808e+00 1.4768313202e+00 2.5579468808e+00 
47300 4.6292045815e+00 6.7650982056e-04 1.4768082405e+00 -2.5579069055e+00 1.4768082405e+00 2.5579069055e+00 
47400 4.6292043353e+00 6.7136238022e-04 1.4767853361e+00 -2.5578672339e+00 1.4767853361e+00 2.5578672339e+00 
47500 4.6292040926e+00 6.6625715768e-04 1.4767626056e+00 -2.5578278636e+00 1.4767626056e+00 2.5578278636e+00 
47600 4.6292038534e+00 6.6119376891e-04 1.4767400476e+00 -2.5577887920e+00 1.4767400476e+00 2.5577887920e+00 
47700 4.6292036177e+00 6.5617183382e-04 1.4767176607e+00 -2.5577500168e+00 1.4767176607e+00 2.5577500168e+00 
47800 4.6292033853e+00 6.5119097617e-04 1.4766954435e+00 -2.5577115355e+00 1.4766954435e+00 2.5577115355e+00 
47900 4.6292031563e+00 6.4625082358e-04 1.4766733947e+00 -2.5576733457e+00 1.4766733947e+00 2.5576733457e+00 
48000 4.6292029305e+00 6.4135100744e-04 1.4766515127e+00 -2.5576354451e+00 1.4766515127e+00 2.5576354451e+00 
48100 4.6292027080e+00 6.3649116289e-04 1.4766297964e+00 -2.5575978313e+00 1.4766297964e+00 2.5575978313e+00 
48200 4.6292024886e+00 6.3167092878e-04 1.4766082443e+00 -2.5575605020e+00 1.4766082443e+00 2.5575605020e+00 
48300 4.6292022724e+00 6.2688994764e-04 1.4765868551e+00 -2.5575234548e+00 1.4765868551e+00 2.5575234548e+00 
48400 4.6292020593e+00 6.2214786558e-04 1.4765656275e+00 -2.5574866875e+00 1.4765656275e+00 2.5574866875e+00 
48500 4.6292018492e+00 6.1744433233e-04 1.4765445601e+00 -2.5574501978e+00 1.4765445601e+00 2.5574501978e+00 
48600 4.6292016422e+00 6.1277900115e-04 1.4765236517e+00 -2.5574139834e+00 1.4765236517e+00 2.5574139834e+00 
48700 4.6292014381e+00 6.0815152880e-04 1.4765029011e+00 -2.5573780422e+00 1.4765029011e+00 2.5573780422e+00 
48800 4.6292012369e+00 6.0356157549e-04 1.4764823068e+00 -2.5573423718e+00 1.4764823068e+00 2.5573423718e+00 
48900 4.6292010386e+00 5.9900880489e-04 1.4764618677e+00 -2.5573069702e+00 1.4764618677e+00 2.5573069702e+00 
49000 4.6292008431e+00 5.9449288401e-04 1.4764415824e+00 -2.5572718352e+00 1.4764415824e+00 2.5572718352e+00 
49100 4.6292006504e+00 5.9001348325e-04 1.4764214499e+00 -2.5572369645e+00 1.4764214499e+00 2.5572369645e+00 
49200 4.6292004604e+00 5.8557027630e-04 1.4764014687e+00 -2.5572023561e+00 1.4764014687e+00 2.5572023561e+00 
49300 4.6292002732e+00 5.8116294012e-04 1.4763816377e+00 -2.5571680079e+00 1.4763816377e+00 2.5571680079e+00 
49400 4.6292000886e+00 5.7679115492e-04 1.4763619558e+00 -2.5571339178e+00 1.4763619558e+00 2.5571339178e+00 
49500 4.6291999067e+00 5.7245460411e-04 1.4763424216e+00 -2.5571000836e+00 1.4763424216e+00 2.5571000836e+00 
49600 4.6291997274e+00 5.6815297425e-04 1.4763230341e+00 -2.5570665034e+00 1.4763230341e+00 2.5570665034e+00 
49700 4.6291995506e+00 5.6388595505e-04 1.4763037919e+00 -2.5570331751e+00 1.4763037919e+00 2.5570331751e+00 
49800 4.6291993763e+00 5.5965323931e-04 1.4762846941e+00 -2.5570000966e+00 1.4762846941e+00 2.5570000966e+00 
49900 4.6291992045e+00 5.5545452288e-04 1.4762657393e+00 -2.5569672660e+00 1.4762657393e+00 2.5569672660e+00 
50000 4.6291990352e+00 5.5128950466e-04 1.4762469266e+00 -2.5569346813e+00 1.4762469266e+00 2.5569346813e+00 
50100 4.6291988683e+00 5.4715788653e-04 1.4762282546e+00 -2.5569023405e+00 1.4762282546e+00 2.5569023405e+00 
50200 4.6291987037e+00 5.4305937334e-04 1.4762097224e+00 -2.5568702417e+00 1.4762097224e+00 2.5568702417e+00 
50300 4.6291985415e+00 5.3899367284e-04 1.4761913287e+00 -2.5568383830e+00 1.4761913287e+00 2.5568383830e+00 
50400 4.6291983816e+00 5.3496049572e-04 1.4761730725e+00 -2.5568067623e+00 1.4761730725e+00 2.5568067623e+00 
50500 4.6291982239e+00 5.3095955551e-04 1.4761549527e+00 -2.5567753779e+00 1.4761549527e+00 2.5567753779e+00 
50600 4.6291980685e+00 5.2699056856e-04 1.4761369682e+00 -2.5567442278e+00 1.4761369682e+00 2.5567442278e+00 
50700 4.6291979154e+00 5.2305325405e-04 1.4761191179e+00 -2.5567133102e+00 1.4761191179e+00 2.5567133102e+00 
50800 4.6291977643e+00 5.1914733391e-04 1.4761014007e+00 -2.5566826232e+00 1.4761014007e+00 2.5566826232e+00 
50900 4.6291976155e+00 5.1527253282e-04 1.4760838157e+00 -2.5566521650e+00 1.4760838157e+00 2.5566521650e+00 
51000 4.6291974687e+00 5.1142857815e-04 1.4760663617e+00 -2.5566219338e+00 1.4760663617e+00 2.5566219338e+00 
51100 4.6291973240e+00 5.0761519999e-04 1.4760490377e+00 -2.5565919277e+00 1.4760490377e+00 2.5565919277e+00 
51200 4.6291971814e+00 5.0383213105e-04 1.4760318427e+00 -2.5565621451e+00 1.4760318427e+00 2.5565621451e+00 
51300 4.6291970408e+00 5.0007910666e-04 1.4760147756e+00 -2.5565325840e+00 1.4760147756e+00 2.5565325840e+00 
51400 4.6291969022e+00 4.9635586476e-04 1.4759978354e+00 -2.5565032428e+00 1.4759978354e+00 2.5565032428e+00 
51500 4.6291967656e+00 4.9266214584e-04 1.4759810212e+00 -2.5564741197e+00 1.4759810212e+00 2.5564741197e+00 
51600 4.6291966309e+00 4.8899769294e-04 1.4759643319e+00 -2.5564452131e+00 1.4759643319e+00 2.5564452131e+00 
51700 4.6291964981e+00 4.8536225159e-04 1.4759477666e+00 -2.5564165211e+00 1.4759477666e+00 2.5564165211e+00 
51800 4.6291963672e+00 4.8175556982e-04 1.4759313242e+00 -2.5563880421e+00 1.4759313242e+00 2.5563880421e+00 
51900 4.6291962381e+00 4.7817739811e-04 1.4759150039e+00 -2.5563597744e+00 1.4759150039e+00 2.5563597744e+00 
52000 4.6291961109e+00 4.7462748936e-04 1.4758988045e+00 -2.5563317163e+00 1.4758988045e+00 2.5563317163e+00 
52100 4.6291959855e+00 4.7110559887e-04 1.4758827253e+00 -2.5563038662e+00 1.4758827253e+00 2.5563038662e+00 
52200 4.6291958618e+00 4.6761148434e-04 1.4758667652e+00 -2.5562762225e+00 1.4758667652e+00 2.5562762225e+00 
52300 4.6291957399e+00 4.6414490578e-04 1.4758509233e+00 -2.5562487836e+00 1.4758509233e+00 2.5562487836e+00 
52400 4.6291956197e+00 4.6070562556e-04 1.4758351987e+00 -2.5562215477e+00 1.4758351987e+00 2.5562215477e+00 
52500 4.6291955013e+00 4.5729340832e-04 1.4758195904e+00 -2.5561945134e+00 1.4758195904e+00 2.5561945134e+00 
52600 4.6291953845e+00 4.5390802099e-04 1.4758040976e+00 -2.5561676790e+00 1.4758040976e+00 2.5561676790e+00 
52700 4.6291952693e+00 4.5054923276e-04 1.4757887193e+00 -2.5561410430e+00 1.4757887193e+00 2.5561410430e+00 
52800 4.6291951558e+00 4.4721681501e-04 1.4757734546e+00 -2.5561146038e+00 1.4757734546e+00 2.5561146038e+00 
52900 4.6291950438e+00 4.4391054135e-04 1.4757583027e+00 -2.5560883599e+00 1.4757583027e+00 2.5560883599e+00 
53000 4.6291949335e+00 4.4063018756e-04 1.4757432626e+00 -2.5560623098e+00 1.4757432626e+00 2.5560623098e+00 
53100 4.6291948247e+00 4.3737553157e-04 1.4757283336e+00 -2.5560364519e+00 1.4757283336e+00 2.5560364519e+00 
53200 4.6291947175e+00 4.3414635345e-04 1.4757135146e+00 -2.5560107847e+00 1.4757135146e+00 2.5560107847e+00 
53300 4.6291946117e+00 4.3094243535e-04 1.4756988049e+00 -2.5559853068e+00 1.4756988049e+00 2.5559853068e+00 
53400 4.6291945075e+00 4.2776356155e-04 1.4756842036e+00 -2.5559600166e+00 1.4756842036e+00 2.5559600166e+00 
53500 4.6291944047e+00 4.2460951834e-04 1.4756697099e+00 -2.5559349128e+00 1.4756697099e+00 2.5559349128e+00 
53600 4.6291943034e+00 4.2148009410e-04 1.4756553229e+00 -2.5559099938e+00 1.4756553229e+00 2.5559099938e+00 
53700 4.6291942035e+00 4.1837507920e-04 1.4756410419e+00 -2.5558852582e+00 1.4756410419e+00 2.5558852582e+00 
53800 4.6291941050e+00 4.1529426600e-04 1.4756268658e+00 -2.5558607046e+00 1.4756268658e+00 2.5558607046e+00 
53900 4.6291940079e+00 4.1223744886e-04 1.4756127941e+00 -2.5558363316e+00 1.4756127941e+00 2.5558363316e+00 
54000 4.6291939122e+00 4.0920442408e-04 1.4755988257e+00 -2.5558121378e+00 1.4755988257e+00 2.5558121378e+00 
54100 4.6291938178e+00 4.0619498990e-04 1.4755849601e+00 -2.5557881217e+00 1.4755849601e+00 2.5557881217e+00 
54200 4.6291937248e+00 4.0320894646e-04 1.4755711962e+00 -2.5557642820e+00 1.4755711962e+00 2.5557642820e+00 
54300 4.6291936330e+00 4.0024609580e-04 1.4755575334e+00 -2.5557406174e+00 1.4755575334e+00 2.5557406174e+00 
54400 4.6291935426e+00 3.9730624184e-04 1.4755439709e+00 -2.5557171264e+00 1.4755439709e+00 2.5557171264e+00 
54500 4.6291934534e+00 3.9438919035e-04 1.4755305079e+00 -2.5556938078e+00 1.4755305079e+00 2.5556938078e+00 
54600 4.6291933655e+00 3.9149474892e-04 1.4755171436e+00 -2.5556706601e+00 1.4755171436e+00 2.5556706601e+00 
54700 4.6291932788e+00 3.8862272696e-04 1.4755038772e+00 -2.5556476822e+00 1.4755038772e+00 2.5556476822e+00 
54800 4.6291931933e+00 3.8577293569e-04 1.4754907081e+00 -2.5556248725e+00 1.4754907081e+00 2.5556248725e+00 
54900 4.6291931091e+00 3.8294518808e-04 1.4754776354e+00 -2.5556022300e+00 1.4754776354e+00 2.5556022300e+00 
55000 4.6291930260e+00 3.8013929888e-04 1.4754646585e+00 -2.5555797532e+00 1.4754646585e+00 2.5555797532e+00 
55100 4.6291929441e+00 3.7735508455e-04 1.4754517765e+00 -2.5555574409e+00 1.4754517765e+00 2.5555574409e+00 
55200 4.6291928634e+00 3.7459236329e-04 1.4754389887e+00 -2.5555352919e+00 1.4754389887e+00 2.5555352919e+00 
55300 4.6291927837e+00 3.7185095500e-04 1.4754262944e+00 -2.5555133048e+00 1.4754262944e+00 2.5555133048e+00 
55400 4.6291927052e+00 3.6913068126e-04 1.4754136930e+00 -2.5554914784e+00 1.4754136930e+00 2.5554914784e+00 
55500 4.6291926278e+00 3.6643136532e-04 1.4754011836e+00 -2.5554698116e+00 1.4754011836e+00 2.5554698116e+00 
55600 4.6291925515e+00 3.6375283207e-04 1.4753887656e+00 -2.5554483029e+00 1.4753887656e+00 2.5554483029e+00 
55700 4.6291924763e+00 3.6109490804e-04 1.4753764383e+00 -2.5554269514e+00 1.4753764383e+00 2.5554269514e+00 
55800 4.6291924021e+00 3.5845742136e-04 1.4753642009e+00 -2.5554057556e+00 1.4753642009e+00 2.5554057556e+00 
55900 4.6291923290e+00 3.5584020177e-04 1.4753520528e+00 -2.5553847145e+00 1.4753520528e+00 2.5553847145e+00 
56000 4.6291922568e+00 3.5324308059e-04 1.4753399933e+00 -2.5553638269e+00 1.4753399933e+00 2.5553638269e+00 
56100 4.6291921857e+00 3.5066589070e-04 1.4753280218e+00 -2.5553430915e+00 1.4753280218e+00 2.5553430915e+00 
56200 4.6291921156e+00 3.4810846652e-04 1.4753161374e+00 -2.5553225073e+00 1.4753161374e+00 2.5553225073e+00 
56300 4.6291920465e+00 3.4557064402e-04 1.4753043397e+00 -2.5553020730e+00 1.4753043397e+00 2.5553020730e+00 
56400 4.6291919784e+00 3.4305226068e-04 1.4752926279e+00 -2.5552817875e+00 1.4752926279e+00 2.5552817875e+00 
56500 4.6291919112e+00 3.4055315545e-04 1.4752810013e+00 -2.5552616497e+00 1.4752810013e+00 2.5552616497e+00 
56600 4.6291918449e+00 3.3807316882e-04 1.4752694593e+00 -2.5552416584e+00 1.4752694593e+00 2.5552416584e+00 
56700 4.6291917796e+00 3.3561214269e-04 1.4752580013e+00 -2.5552218126e+00 1.4752580013e+00 2.5552218126e+00 
56800 4.6291917152e+00 3.3316992046e-04 1.4752466267e+00 -2.5552021111e+00 1.4752466267e+00 2.5552021111e+00 
56900 4.6291916517e+00 3.3074634693e-04 1.4752353347e+00 -2.5551825528e+00 1.4752353347e+00 2.5551825528e+00 
57000 4.6291915890e+00 3.2834126836e-04 1.4752241247e+00 -2.5551631366e+00 1.4752241247e+00 2.5551631366e+00 
57100 4.6291915273e+00 3.2595453240e-04 1.4752129962e+00 -2.5551438615e+00 1.4752129962e+00 2.5551438615e+00 
57200 4.6291914664e+00 3.2358598808e-04 1.4752019485e+00 -2.5551247263e+00 1.4752019485e+00 2.5551247263e+00 
57300 4.6291914064e+00 3.2123548584e-04 1.4751909810e+00 -2.5551057300e+00 1.4751909810e+00 2.5551057300e+00 
57400 4.6291913472e+00 3.1890287747e-04 1.4751800931e+00 -2.5550868716e+00 1.4751800931e+00 2.5550868716e+00 
57500 4.6291912889e+00 3.1658801612e-04 1.4751692842e+00 -2.5550681500e+00 1.4751692842e+00 2.5550681500e+00 
57600 4.6291912313e+00 3.1429075625e-04 1.4751585536e+00 -2.5550495641e+00 1.4751585536e+00 2.5550495641e+00 
57700 4.6291911746e+00 3.1201095368e-04 1.4751479009e+00 -2.5550311130e+00 1.4751479009e+00 2.5550311130e+00 
57800 4.6291911187e+00 3.0974846553e-04 1.4751373253e+00 -2.5550127956e+00 1.4751373253e+00 2.5550127956e+00 
57900 4.6291910635e+00 3.0750315020e-04 1.4751268263e+00 -2.5549946108e+00 1.4751268263e+00 2.5549946108e+00 
58000 4.6291910091e+00 3.0527486739e-04 1.4751164034e+00 -2.5549765578e+00 1.4751164034e+00 2.5549765578e+00 
58100 4.6291909555e+00 3.0306347807e-04 1.4751060559e+00 -2.5549586354e+00 1.4751060559e+00 2.5549586354e+00 
58200 4.6291909026e+00 3.0086884447e-04 1.4750957834e+00 -2.5549408428e+00 1.4750957834e+00 2.5549408428e+00 
58300 4.6291908505e+00 2.9869083005e-04 1.4750855851e+00 -2.5549231789e+00 1.4750855851e+00 2.5549231789e+00 
58400 4.6291907991e+00 2.9652929952e-04 1.4750754606e+00 -2.5549056427e+00 1.4750754606e+00 2.5549056427e+00 
58500 4.6291907484e+00 2.9438411880e-04 1.4750654093e+00 -2.5548882333e+00 1.4750654093e+00 2.5548882333e+00 
58600 4.6291906984e+00 2.9225515501e-04 1.4750554306e+00 -2.5548709497e+00 1.4750554306e+00 2.5548709497e+00 
58700 4.6291906491e+00 2.9014227649e-04 1.4750455240e+00 -2.5548537911e+00 1.4750455240e+00 2.5548537911e+00 
58800 4.6291906006e+00 2.8804535275e-04 1.4750356890e+00 -2.5548367563e+00 1.4750356890e+00 2.5548367563e+00 
58900 4.6291905526e+00 2.8596425445e-04 1.4750259250e+00 -2.5548198446e+00 1.4750259250e+00 2.5548198446e+00 
59000 4.6291905054e+00 2.8389885344e-04 1.4750162315e+00 -2.5548030549e+00 1.4750162315e+00 2.5548030549e+00 
59100 4.6291904588e+00 2.8184902270e-04 1.4750066079e+00 -2.5547863864e+00 1.4750066079e+00 2.5547863864e+00 
59200 4.6291904129e+00 2.7981463636e-04 1.4749970537e+00 -2.5547698381e+00 1.4749970537e+00 2.5547698381e+00 
59300 4.6291903676e+00 2.7779556967e-04 1.4749875685e+00 -2.5547534092e+00 1.4749875685e+00 2.5547534092e+00 
59400 4.6291903229e+00 2.7579169897e-04 1.4749781516e+00 -2.5547370987e+00 1.4749781516e+00 2.5547370987e+00 
59500 4.6291902789e+00 2.7380290173e-04 1.4749688026e+00 -2.5547209057e+00 1.4749688026e+00 2.5547209057e+00 
59600 4.6291902355e+00 2.7182905652e-04 1.4749595210e+00 -2.5547048295e+00 1.4749595210e+00 2.5547048295e+00 
59700 4.6291901926e+00 2.6987004295e-04 1.4749503062e+00 -2.5546888690e+00 1.4749503062e+00 2.5546888690e+00 
59800 4.6291901504e+00 2.6792574173e-04 1.4749411578e+00 -2.5546730234e+00 1.4749411578e+00 2.5546730234e+00 
59900 4.6291901088e+00 2.6599603462e-04 1.4749320752e+00 -2.5546572919e+00 1.4749320752e+00 2.5546572919e+00 
60000 4.6291900677e+00 2.6408080443e-04 1.4749230580e+00 -2.5546416736e+00 1.4749230580e+00 2.5546416736e+00 
60100 4.6291900273e+00 2.6217993501e-04 1.4749141056e+00 -2.5546261677e+00 1.4749141056e+00 2.5546261677e+00 
60200 4.6291899874e+00 2.6029331122e-04 1.4749052176e+00 -2.5546107733e+00 1.4749052176e+00 2.5546107733e+00 
60300 4.6291899480e+00 2.5842081897e-04 1.4748963936e+00 -2.5545954896e+00 1.4748963936e+00 2.5545954896e+00 
60400 4.6291899092e+00 2.5656234514e-04 1.4748876330e+00 -2.5545803157e+00 1.4748876330e+00 2.5545803157e+00 
60500 4.6291898709e+00 2.5471777763e-04 1.4748789353e+00 -2.5545652509e+00 1.4748789353e+00 2.5545652509e+00 
60600 4.6291898332e+00 2.5288700532e-04 1.4748703001e+00 -2.5545502943e+00 1.4748703001e+00 2.5545502943e+00 
60700 4.6291897960e+00 2.5106991808e-04 1.4748617269e+00 -2.5545354451e+00 1.4748617269e+00 2.5545354451e+00 
60800 4.6291897593e+00 2.4926640672e-04 1.4748532152e+00 -2.5545207025e+00 1.4748532152e+00 2.5545207025e+00 
60900 4.6291897231e+00 2.4747636304e-04 1.4748447647e+00 -2.5545060657e+00 1.4748447647e+00 2.5545060657e+00 
61000 4.6291896874e+00 2.4569967976e-04 1.4748363748e+00 -2.5544915340e+00 1.4748363748e+00 2.5544915340e+00 
61100 4.6291896523e+00 2.4393625055e-04 1.4748280451e+00 -2.5544771065e+00 1.4748280451e+00 2.5544771065e+00 
61200 4.6291896176e+00 2.4218597003e-04 1.4748197751e+00 -2.5544627825e+00 1.4748197751e+00 2.5544627825e+00 
61300 4.6291895834e+00 2.4044873370e-04 1.4748115644e+00 -2.5544485611e+00 1.4748115644e+00 2.5544485611e+00 
61400 4.6291895496e+00 2.3872443802e-04 1.4748034126e+00 -2.5544344418e+00 1.4748034126e+00 2.5544344418e+00 
61500 4.6291895164e+00 2.3701298030e-04 1.4747953191e+00 -2.5544204235e+00 1.4747953191e+00 2.5544204235e+00 
61600 4.6291894836e+00 2.3531425880e-04 1.4747872837e+00 -2.5544065057e+00 1.4747872837e+00 2.5544065057e+00 
61700 4.6291894512e+00 2.3362817262e-04 1.4747793058e+00 -2.5543926876e+00 1.4747793058e+00 2.5543926876e+00 
61800 4.6291894193e+00 2.3195462175e-04 1.4747713850e+00 -2.5543789684e+00 1.4747713850e+00 2.5543789684e+00 
61900 4.6291893879e+00 2.3029350707e-04 1.4747635209e+00 -2.5543653474e+00 1.4747635209e+00 2.5543653474e+00 
62000 4.6291893569e+00 2.2864473029e-04 1.4747557131e+00 -2.5543518239e+00 1.4747557131e+00 2.5543518239e+00 
62100 4.6291893263e+00 2.2700819398e-04 1.4747479612e+00 -2.5543383971e+00 1.4747479612e+00 2.5543383971e+00 
62200 4.6291892961e+00 2.2538380156e-04 1.4747402647e+00 -2.5543250664e+00 1.4747402647e+00 2.5543250664e+00 
62300 4.6291892664e+00 2.2377145728e-04 1.4747326232e+00 -2.5543118310e+00 1.4747326232e+00 2.5543118310e+00 
62400 4.6291892371e+00 2.2217106622e-04 1.4747250364e+00 -2.5542986902e+00 1.4747250364e+00 2.5542986902e+00 
62500 4.6291892082e+00 2.2058253428e-04 1.4747175038e+00 -2.5542856433e+00 1.4747175038e+00 2.5542856433e+00 
62600 4.6291891797e+00 2.1900576816e-04 1.4747100250e+00 -2.5542726897e+00 1.4747100250e+00 2.5542726897e+00 
62700 4.6291891516e+00 2.1744067537e-04 1.4747025996e+00 -2.5542598285e+00 1.4747025996e+00 2.5542598285e+00 
62800 4.6291891238e+00 2.1588716423e-04 1.4746952272e+00 -2.5542470593e+00 1.4746952272e+00 2.5542470593e+00 
62900 4.6291890965e+00 2.1434514381e-04 1.4746879075e+00 -2.5542343811e+00 1.4746879075e+00 2.5542343811e+00 
63000 4.6291890695e+00 2.1281452399e-04 1.4746806401e+00 -2.5542217935e+00 1.4746806401e+00 2.5542217935e+00 
63100 4.6291890429e+00 2.1129521543e-04 1.4746734244e+00 -2.5542092957e+00 1.4746734244e+00 2.5542092957e+00 
63200 4.6291890167e+00 2.0978712952e-04 1.4746662603e+00 -2.5541968871e+00 1.4746662603e+00 2.5541968871e+00 
63300 4.6291889909e+00 2.0829017844e-04 1.4746591473e+00 -2.5541845669e+00 1.4746591473e+00 2.5541845669e+00 
63400 4.6291889654e+00 2.0680427511e-04 1.4746520850e+00 -2.5541723347e+00 1.4746520850e+00 2.5541723347e+00 
63500 4.6291889402e+00 2.0532933319e-04 1.4746450730e+00 -2.5541601896e+00 1.4746450730e+00 2.5541601896e+00 
63600 4.6291889155e+00 2.0386526707e-04 1.4746381110e+00 -2.5541481311e+00 1.4746381110e+00 2.5541481311e+00 
63700 4.6291888910e+00 2.0241199189e-04 1.4746311986e+00 -2.5541361585e+00 1.4746311986e+00 2.5541361585e+00 
63800 4.6291888669e+00 2.0096942349e-04 1.4746243355e+00 -2.5541242712e+00 1.4746243355e+00 2.5541242712e+00 
63900 4.6291888431e+00 1.9953747844e-04 1.4746175213e+00 -2.5541124685e+00 1.4746175213e+00 2.5541124685e+00 
64000 4.6291888197e+00 1.9811607401e-04 1.4746107555e+00 -2.5541007500e+00 1.4746107555e+00 2.5541007500e+00 
64100 4.6291887966e+00 1.9670512818e-04 1.4746040380e+00 -2.5540891148e+00 1.4746040380e+00 2.5540891148e+00 
64200 4.6291887738e+00 1.9530455961e-04 1.4745973682e+00 -2.5540775624e+00 1.4745973682e+00 2.5540775624e+00 
64300 4.6291887513e+00 1.9391428767e-04 1.4745907459e+00 -2.5540660923e+00 1.4745907459e+00 2.5540660923e+00 
64400 4.6291887291e+00 1.9253423240e-04 1.4745841707e+00 -2.5540547037e+00 1.4745841707e+00 2.5540547037e+00 
64500 4.6291887073e+00 1.9116431452e-04 1.4745776423e+00 -2.5540433962e+00 1.4745776423e+00 2.5540433962e+00 
64600 4.6291886857e+00 1.8980445540e-04 1.4745711603e+00 -2.5540321690e+00 1.4745711603e+00 2.5540321690e+00 
64700 4.6291886645e+00 1.8845457710e-04 1.4745647244e+00 -2.5540210217e+00 1.4745647244e+00 2.5540210217e+00 
64800 4.6291886435e+00 1.8711460232e-04 1.4745583342e+00 -2.5540099536e+00 1.4745583342e+00 2.5540099536e+00 
64900 4.6291886228e+00 1.8578445442e-04 1.4745519895e+00 -2.5539989641e+00 1.4745519895e+00 2.5539989641e+00 
65000 4.6291886024e+00 1.8446405741e-04 1.4745456898e+00 -2.5539880528e+00 1.4745456898e+00 2.5539880528e+00 
65100 4.6291885823e+00 1.8315333590e-04 1.4745394348e+00 -2.5539772189e+00 1.4745394348e+00 2.5539772189e+00 
65200 4.6291885625e+00 1.8185221519e-04 1.4745332243e+00 -2.5539664619e+00 1.4745332243e+00 2.5539664619e+00 
65300 4.6291885430e+00 1.8056062117e-04 1.4745270579e+00 -2.5539557814e+00 1.4745270579e+00 2.5539557814e+00 
65400 4.6291885237e+00 1.7927848034e-04 1.4745209352e+00 -2.5539451766e+00 1.4745209352e+00 2.5539451766e+00 
65500 4.6291885047e+00 1.7800571986e-04 1.4745148560e+00 -2.5539346471e+00 1.4745148560e+00 2.5539346471e+00 
65600 4.6291884859e+00 1.7674226745e-04 1.4745088199e+00 -2.5539241923e+00 1.4745088199e+00 2.5539241923e+00 
65700 4.6291884674e+00 1.7548805146e-04 1.4745028267e+00 -2.5539138117e+00 1.4745028267e+00 2.5539138117e+00 
65800 4.6291884492e+00 1.7424300084e-04 1.4744968759e+00 -2.5539035047e+00 1.4744968759e+00 2.5539035047e+00 
65900 4.6291884312e+00 1.7300704512e-04 1.4744909674e+00 -2.5538932708e+00 1.4744909674e+00 2.5538932708e+00 
66000 4.6291884135e+00 1.7178011442e-04 1.4744851007e+00 -2.5538831094e+00 1.4744851007e+00 2.5538831094e+00 
66100 4.6291883960e+00 1.7056213944e-04 1.4744792756e+00 -2.5538730201e+00 1.4744792756e+00 2.5538730201e+00 
66200 4.6291883788e+00 1.6935305147e-04 1.4744734918e+00 -2.5538630022e+00 1.4744734918e+00 2.5538630022e+00 
66300 4.6291883618e+00 1.6815278235e-04 1.4744677490e+00 -2.5538530554e+00 1.4744677490e+00 2.5538530554e+00 
66400 4.6291883450e+00 1.6696126450e-04 1.4744620468e+00 -2.5538431790e+00 1.4744620468e+00 2.5538431790e+00 
66500 4.6291883285e+00 1.6577843089e-04 1.4744563851e+00 -2.5538333725e+00 1.4744563851e+00 2.5538333725e+00 
66600 4.6291883122e+00 1.6460421505e-04 1.4744507634e+00 -2.5538236355e+00 1.4744507634e+00 2.5538236355e+00 
66700 4.6291882961e+00 1.6343855106e-04 1.4744451815e+00 -2.5538139674e+00 1.4744451815e+00 2.5538139674e+00 
66800 4.6291882802e+00 1.6228137354e-04 1.4744396392e+00 -2.5538043677e+00 1.4744396392e+00 2.5538043677e+00 
66900 4.6291882646e+00 1.6113261766e-04 1.4744341360e+00 -2.5537948360e+00 1.4744341360e+00 2.5537948360e+00 
67000 4.6291882492e+00 1.5999221911e-04 1.4744286718e+00 -2.5537853717e+00 1.4744286718e+00 2.5537853717e+00 
67100 4.6291882339e+00 1.5886011413e-04 1.4744232462e+00 -2.5537759743e+00 1.4744232462e+00 2.5537759743e+00 
67200 4.6291882189e+00 1.5773623947e-04 1.4744178590e+00 -2.5537666434e+00 1.4744178590e+00 2.5537666434e+00 
67300 4.6291882042e+00 1.5662053239e-04 1.4744125099e+00 -2.5537573785e+00 1.4744125099e+00 2.5537573785e+00 
67400 4.6291881896e+00 1.5551293070e-04 1.4744071986e+00 -2.5537481791e+00 1.4744071986e+00 2.5537481791e+00 
67500 4.6291881752e+00 1.5441337268e-04 1.4744019249e+00 -2.5537390447e+00 1.4744019249e+00 2.5537390447e+00 
67600 4.6291881610e+00 1.5332179715e-04 1.4743966884e+00 -2.5537299749e+00 1.4743966884e+00 2.5537299749e+00 
67700 4.6291881470e+00 1.5223814341e-04 1.4743914890e+00 -2.5537209691e+00 1.4743914890e+00 2.5537209691e+00 
67800 4.6291881332e+00 1.5116235127e-04 1.4743863262e+00 -2.5537120270e+00 1.4743863262e+00 2.5537120270e+00 
67900 4.6291881196e+00 1.5009436102e-04 1.4743811999e+00 -2.5537031480e+00 1.4743811999e+00 2.5537031480e+00 
68000 4.6291881062e+00 1.4903411344e-04 1.4743761099e+00 -2.5536943318e+00 1.4743761099e+00 2.5536943318e+00 
68100 4.6291880929e+00 1.4798154982e-04 1.4743710557e+00 -2.5536855777e+00 1.4743710557e+00 2.5536855777e+00 
68200 4.6291880799e+00 1.4693661188e-04 1.4743660373e+00 -2.5536768855e+00 1.4743660373e+00 2.5536768855e+00 
68300 4.6291880670e+00 1.4589924186e-04 1.4743610542e+00 -2.5536682546e+00 1.4743610542e+00 2.5536682546e+00 
68400 4.6291880543e+00 1.4486938245e-04 1.4743561063e+00 -2.5536596846e+00 1.4743561063e+00 2.5536596846e+00 
68500 4.6291880418e+00 1.4384697680e-04 1.4743511934e+00 -2.5536511751e+00 1.4743511934e+00 2.5536511751e+00 
68600 4.6291880295e+00 1.4283196854e-04 1.4743463151e+00 -2.5536427257e+00 1.4743463151e+00 2.5536427257e+00 
68700 4.6291880173e+00 1.4182430175e-04 1.4743414712e+00 -2.5536343358e+00 1.4743414712e+00 2.5536343358e+00 
68800 4.6291880053e+00 1.4082392096e-04 1.4743366614e+00 -2.5536260050e+00 1.4743366614e+00 2.5536260050e+00 
68900 4.6291879935e+00 1.3983077115e-04 1.4743318856e+00 -2.5536177330e+00 1.4743318856e+00 2.5536177330e+00 
69000 4.6291879818e+00 1.3884479775e-04 1.4743271434e+00 -2.5536095194e+00 1.4743271434e+00 2.5536095194e+00 
69100 4.6291879703e+00 1.3786594664e-04 1.4743224347e+00 -2.5536013636e+00 1.4743224347e+00 2.5536013636e+00 
69200 4.6291879589e+00 1.3689416411e-04 1.4743177591e+00 -2.5535932652e+00 1.4743177591e+00 2.5535932652e+00 
69300 4.6291879477e+00 1.3592939691e-04 1.4743131165e+00 -2.5535852240e+00 1.4743131165e+00 2.5535852240e+00 
69400 4.6291879367e+00 1.3497159222e-04 1.4743085065e+00 -2.5535772394e+00 1.4743085065e+00 2.5535772394e+00 
69500 4.6291879258e+00 1.3402069763e-04 1.4743039291e+00 -2.5535693110e+00 1.4743039291e+00 2.5535693110e+00 
69600 4.6291879151e+00 1.3307666115e-04 1.4742993839e+00 -2.5535614384e+00 1.4742993839e+00 2.5535614384e+00 
69700 4.6291879045e+00 1.3213943124e-04 1.4742948707e+00 -2.5535536213e+00 1.4742948707e+00 2.5535536213e+00 
69800 4.6291878940e+00 1.3120895675e-04 1.4742903892e+00 -2.5535458592e+00 1.4742903892e+00 2.5535458592e+00 
69900 4.6291878837e+00 1.3028518693e-04 1.4742859393e+00 -2.5535381518e+00 1.4742859393e+00 2.5535381518e+00 
70000 4.6291878736e+00 1.2936807146e-04 1.4742815207e+00 -2.5535304986e+00 1.4742815207e+00 2.5535304986e+00 
70100 4.6291878635e+00 1.2845756043e-04 1.4742771332e+00 -2.5535228992e+00 1.4742771332e+00 2.5535228992e+00 
70200 4.6291878537e+00 1.2755360430e-04 1.4742727766e+00 -2.5535153533e+00 1.4742727766e+00 2.5535153533e+00 
70300 4.6291878439e+00 1.2665615395e-04 1.4742684506e+00 -2.5535078605e+00 1.4742684506e+00 2.5535078605e+00 
70400 4.6291878343e+00 1.2576516065e-04 1.4742641551e+00 -2.5535004204e+00 1.4742641551e+00 2.5535004204e+00 
70500 4.6291878248e+00 1.2488057605e-04 1.4742598897e+00 -2.5534930326e+00 1.4742598897e+00 2.5534930326e+00 
70600 4.6291878155e+00 1.2400235220e-04 1.4742556544e+00 -2.5534856967e+00 1.4742556544e+00 2.5534856967e+00 
70700 4.6291878063e+00 1.2313044153e-04 1.4742514488e+00 -2.5534784124e+00 1.4742514488e+00 2.5534784124e+00 
70800 4.6291877972e+00 1.2226479684e-04 1.4742472727e+00 -2.5534711793e+00 1.4742472727e+00 2.5534711793e+00 
70900 4.6291877882e+00 1.2140537131e-04 1.4742431261e+00 -2.5534639970e+00 1.4742431261e+00 2.5534639970e+00 
71000 4.6291877794e+00 1.2055211851e-04 1.4742390085e+00 -2.5534568652e+00 1.4742390085e+00 2.5534568652e+00 
71100 4.6291877707e+00 1.1970499235e-04 1.4742349199e+00 -2.5534497835e+00 1.4742349199e+00 2.5534497835e+00 
71200 4.6291877621e+00 1.1886394713e-04 1.4742308600e+00 -2.5534427516e+00 1.4742308600e+00 2.5534427516e+00 
71300 4.6291877536e+00 1.1802893750e-04 1.4742268286e+00 -2.5534357690e+00 1.4742268286e+00 2.5534357690e+00 
71400 4.6291877452e+00 1.1719991848e-04 1.4742228255e+00 -2.5534288355e+00 1.4742228255e+00 2.5534288355e+00 
71500 4.6291877370e+00 1.1637684545e-04 1.4742188506e+00 -2.5534219506e+00 1.4742188506e+00 2.5534219506e+00 
71600 4.6291877289e+00 1.1555967413e-04 1.4742149035e+00 -2.5534151141e+00 1.4742149035e+00 2.5534151141e+00 
71700 4.6291877208e+00 1.1474836059e-04 1.4742109841e+00 -2.5534083256e+00 1.4742109841e+00 2.5534083256e+00 
71800 4.6291877129e+00 1.1394286127e-04 1.4742070923e+00 -2.5534015847e+00 1.4742070923e+00 2.5534015847e+00 
71900 4.6291877051e+00 1.1314313293e-04 1.4742032277e+00 -2.5533948911e+00 1.4742032277e+00 2.5533948911e+00 
72000 4.6291876974e+00 1.1234913269e-04 1.4741993903e+00 -2.5533882445e+00 1.4741993903e+00 2.5533882445e+00 
72100 4.6291876898e+00 1.1156081799e-04 1.4741955798e+00 -2.5533816445e+00 1.4741955798e+00 2.5533816445e+00 
72200 4.6291876824e+00 1.1077814663e-04 1.4741917960e+00 -2.5533750908e+00 1.4741917960e+00 2.5533750908e+00 
72300 4.6291876750e+00 1.1000107671e-04 1.4741880387e+00 -2.5533685830e+00 1.4741880387e+00 2.5533685830e+00 
72400 4.6291876677e+00 1.0922956671e-04 1.4741843078e+00 -2.5533621209e+00 1.4741843078e+00 2.5533621209e+00 
72500 4.6291876605e+00 1.0846357538e-04 1.4741806031e+00 -2.5533557041e+00 1.4741806031e+00 2.5533557041e+00 
72600 4.6291876534e+00 1.0770306183e-04 1.4741769243e+00 -2.5533493323e+00 1.4741769243e+00 2.5533493323e+00 
72700 4.6291876465e+00 1.0694798549e-04 1.4741732713e+00 -2.5533430051e+00 1.4741732713e+00 2.5533430051e+00 
72800 4.6291876396e+00 1.0619830610e-04 1.4741696440e+00 -2.5533367223e+00 1.4741696440e+00 2.5533367223e+00 
72900 4.6291876328e+00 1.0545398371e-04 1.4741660420e+00 -2.5533304835e+00 1.4741660420e+00 2.5533304835e+00 
73000 4.6291876261e+00 1.0471497870e-04 1.4741624653e+00 -2.5533242884e+00 1.4741624653e+00 2.5533242884e+00 
73100 4.6291876195e+00 1.0398125175e-04 1.4741589136e+00 -2.5533181367e+00 1.4741589136e+00 2.5533181367e+00 
73200 4.6291876130e+00 1.0325276385e-04 1.4741553868e+00 -2.5533120282e+00 1.4741553868e+00 2.5533120282e+00 
73300 4.6291876065e+00 1.0252947630e-04 1.4741518847e+00 -2.5533059623e+00 1.4741518847e+00 2.5533059623e+00 
73400 4.6291876002e+00 1.0181135069e-04 1.4741484071e+00 -2.5532999390e+00 1.4741484071e+00 2.5532999390e+00 
73500 4.6291875940e+00 1.0109834893e-04 1.4741449539e+00 -2.5532939578e+00 1.4741449539e+00 2.5532939578e+00 
73600 4.6291875878e+00 1.0039043321e-04 1.4741415248e+00 -2.5532880186e+00 1.4741415248e+00 2.5532880186e+00 
73700 4.6291875817e+00 9.9687566031e-05 1.4741381198e+00 -2.5532821208e+00 1.4741381198e+00 2.5532821208e+00 
73800 4.6291875757e+00 9.8989710168e-05 1.4741347386e+00 -2.5532762644e+00 1.4741347386e+00 2.5532762644e+00 
73900 4.6291875698e+00 9.8296828701e-05 1.4741313810e+00 -2.5532704490e+00 1.4741313810e+00 2.5532704490e+00 
74000 4.6291875640e+00 9.7608884991e-05 1.4741280470e+00 -2.5532646742e+00 1.4741280470e+00 2.5532646742e+00 
74100 4.6291875582e+00 9.6925842687e-05 1.4741247362e+00 -2.5532589398e+00 1.4741247362e+00 2.5532589398e+00 
74200 4.6291875526e+00 9.6247665719e-05 1.4741214487e+00 -2.5532532456e+00 1.4741214487e+00 2.5532532456e+00 
74300 4.6291875470e+00 9.5574318299e-05 1.4741181841e+00 -2.5532475912e+00 1.4741181841e+00 2.5532475912e+00 
74400 4.6291875415e+00 9.4905764916e-05 1.4741149423e+00 -2.5532419763e+00 1.4741149423e+00 2.5532419763e+00 
74500 4.6291875360e+00 9.4241970335e-05 1.4741117233e+00 -2.5532364007e+00 1.4741117233e+00 2.5532364007e+00 
74600 4.6291875307e+00 9.3582899595e-05 1.4741085267e+00 -2.5532308641e+00 1.4741085267e+00 2.5532308641e+00 
74700 4.6291875254e+00 9.2928518005e-05 1.4741053525e+00 -2.5532253662e+00 1.4741053525e+00 2.5532253662e+00 
74800 4.6291875202e+00 9.2278791144e-05 1.4741022004e+00 -2.5532199067e+00 1.4741022004e+00 2.5532199067e+00 
74900 4.6291875150e+00 9.1633684858e-05 1.4740990705e+00 -2.5532144854e+00 1.4740990705e+00 2.5532144854e+00 
75000 4.6291875099e+00 9.0993165253e-05 1.4740959623e+00 -2.5532091020e+00 1.4740959623e+00 2.5532091020e+00 
75100 4.6291875049e+00 9.0357198704e-05 1.4740928759e+00 -2.5532037562e+00 1.4740928759e+00 2.5532037562e+00 
75200 4.6291875000e+00 8.9725751840e-05 1.4740898111e+00 -2.5531984477e+00 1.4740898111e+00 2.5531984477e+00 
75300 4.6291874951e+00 8.9098791551e-05 1.4740867677e+00 -2.5531931763e+00 1.4740867677e+00 2.5531931763e+00 
75400 4.6291874903e+00 8.8476284981e-05 1.4740837455e+00 -2.5531879418e+00 1.4740837455e+00 2.5531879418e+00 
75500 4.6291874856e+00 8.7858199528e-05 1.4740807444e+00 -2.5531827438e+00 1.4740807444e+00 2.5531827438e+00 
75600 4.6291874809e+00 8.7244502842e-05 1.4740777643e+00 -2.5531775821e+00 1.4740777643e+00 2.5531775821e+00 
75700 4.6291874763e+00 8.6635162820e-05 1.4740748050e+00 -2.5531724565e+00 1.4740748050e+00 2.5531724565e+00 
75800 4.6291874718e+00 8.6030147608e-05 1.4740718664e+00 -2.5531673666e+00 1.4740718664e+00 2.5531673666e+00 
75900 4.6291874673e+00 8.5429425598e-05 1.4740689483e+00 -2.5531623123e+00 1.4740689483e+00 2.5531623123e+00 
76000 4.6291874629e+00 8.4832965422e-05 1.4740660506e+00 -2.5531572933e+00 1.4740660506e+00 2.5531572933e+00 
76100 4.6291874585e+00 8.4240735954e-05 1.4740631730e+00 -2.5531523093e+00 1.4740631730e+00 2.5531523093e+00 
76200 4.6291874542e+00 8.3652706309e-05 1.4740603156e+00 -2.5531473601e+00 1.4740603156e+00 2.5531473601e+00 
76300 4.6291874500e+00 8.3068845838e-05 1.4740574781e+00 -2.5531424454e+00 1.4740574781e+00 2.5531424454e+00 
76400 4.6291874458e+00 8.2489124125e-05 1.4740546604e+00 -2.5531375650e+00 1.4740546604e+00 2.5531375650e+00 
76500 4.6291874417e+00 8.1913510990e-05 1.4740518624e+00 -2.5531327187e+00 1.4740518624e+00 2.5531327187e+00 
76600 4.6291874376e+00 8.1341976482e-05 1.4740490839e+00 -2.5531279061e+00 1.4740490839e+00 2.5531279061e+00 
76700 4.6291874336e+00 8.0774490880e-05 1.4740463247e+00 -2.5531231272e+00 1.4740463247e+00 2.5531231272e+00 
76800 4.6291874297e+00 8.0211024691e-05 1.4740435849e+00 -2.5531183815e+00 1.4740435849e+00 2.5531183815e+00 
76900 4.6291874258e+00 7.9651548647e-05 1.4740408641e+00 -2.5531136690e+00 1.4740408641e+00 2.5531136690e+00 
77000 4.6291874219e+00 7.9096033704e-05 1.4740381623e+00 -2.5531089893e+00 1.4740381623e+00 2.5531089893e+00 
77100 4.6291874181e+00 7.8544451038e-05 1.4740354793e+00 -2.5531043423e+00 1.4740354793e+00 2.5531043423e+00 
77200 4.6291874144e+00 7.7996772047e-05 1.4740328150e+00 -2.5530997277e+00 1.4740328150e+00 2.5530997277e+00 
77300 4.6291874107e+00 7.7452968345e-05 1.4740301693e+00 -2.5530951452e+00 1.4740301693e+00 2.5530951452e+00 
77400 4.6291874071e+00 7.6913011766e-05 1.4740275421e+00 -2.5530905947e+00 1.4740275421e+00 2.5530905947e+00 
77500 4.6291874035e+00 7.6376874356e-05 1.4740249331e+00 -2.5530860758e+00 1.4740249331e+00 2.5530860758e+00 
77600 4.6291873999e+00 7.5844528372e-05 1.4740223424e+00 -2.5530815885e+00 1.4740223424e+00 2.5530815885e+00 
77700 4.6291873965e+00 7.5315946285e-05 1.4740197697e+00 -2.5530771325e+00 1.4740197697e+00 2.5530771325e+00 
77800 4.6291873930e+00 7.4791100776e-05 1.4740172149e+00 -2.5530727074e+00 1.4740172149e+00 2.5530727074e+00 
77900 4.6291873896e+00 7.4269964731e-05 1.4740146779e+00 -2.5530683133e+00 1.4740146779e+00 2.5530683133e+00 
78000 4.6291873863e+00 7.3752511242e-05 1.4740121586e+00 -2.5530639497e+00 1.4740121586e+00 2.5530639497e+00 
78100 4.6291873830e+00 7.3238713608e-05 1.4740096569e+00 -2.5530596165e+00 1.4740096569e+00 2.5530596165e+00 
78200 4.6291873797e+00 7.2728545327e-05 1.4740071725e+00 -2.5530553135e+00 1.4740071725e+00 2.5530553135e+00 
78300 4.6291873765e+00 7.2221980101e-05 1.4740047055e+00 -2.5530510405e+00 1.4740047055e+00 2.5530510405e+00 
78400 4.6291873733e+00 7.1718991830e-05 1.4740022556e+00 -2.5530467972e+00 1.4740022556e+00 2.5530467972e+00 
78500 4.6291873702e+00 7.1219554610e-05 1.4739998228e+00 -2.5530425835e+00 1.4739998228e+00 2.5530425835e+00 
78600 4.6291873671e+00 7.0723642737e-05 1.4739974070e+00 -2.5530383991e+00 1.4739974070e+00 2.5530383991e+00 
78700 4.6291873641e+00 7.0231230698e-05 1.4739950079e+00 -2.5530342438e+00 1.4739950079e+00 2.5530342438e+00 
78800 4.6291873613e+00 7.0709898337e-05 1.4739950079e+00 -2.5530342438e+00 1.4739950079e+00 2.5530342438e+00 
78900 4.6291873586e+00 7.1190985495e-05 1.4739950079e+00 -2.5530342438e+00 1.4739950079e+00 2.5530342438e+00 
79000 4.6291873557e+00 7.0693294087e-05 1.4739925930e+00 -2.5530300611e+00 1.4739925930e+00 2.5530300611e+00 
79100 4.6291873530e+00 7.1172225730e-05 1.4739925930e+00 -2.5530300611e+00 1.4739925930e+00 2.5530300611e+00 
79200 4.6291873502e+00 7.0672349289e-05 1.4739901788e+00 -2.5530258795e+00 1.4739901788e+00 2.5530258795e+00 
79300 4.6291873476e+00 7.1148508279e-05 1.4739901788e+00 -2.5530258795e+00 1.4739901788e+00 2.5530258795e+00 
79400 4.6291873448e+00 7.0645949529e-05 1.4739877653e+00 -2.5530216992e+00 1.4739877653e+00 2.5530216992e+00 
79500 4.6291873423e+00 7.1118818966e-05 1.4739877653e+00 -2.5530216992e+00 1.4739877653e+00 2.5530216992e+00 
79600 4.6291873396e+00 7.0613186251e-05 1.4739853528e+00 -2.5530175207e+00 1.4739853528e+00 2.5530175207e+00 
79700 4.6291873372e+00 7.1082333174e-05 1.4739853528e+00 -2.5530175207e+00 1.4739853528e+00 2.5530175207e+00 
79800 4.6291873346e+00 7.0573323075e-05 1.4739829416e+00 -2.5530133444e+00 1.4739829416e+00 2.5530133444e+00 
79900 4.6291873322e+00 7.1038385059e-05 1.4739829416e+00 -2.5530133444e+00 1.4739829416e+00 2.5530133444e+00 
80000 4.6291873297e+00 7.0525768052e-05 1.4739805319e+00 -2.5530091706e+00 1.4739805319e+00 2.5530091706e+00 
80100 4.6291873274e+00 7.0986442163e-05 1.4739805319e+00 -2.5530091706e+00 1.4739805319e+00 2.5530091706e+00 
80200 4.6291873249e+00 7.0470050742e-05 1.4739781239e+00 -2.5530049998e+00 1.4739781239e+00 2.5530049998e+00 
80300 4.6291873226e+00 7.0926084406e-05 1.4739781239e+00 -2.5530049998e+00 1.4739781239e+00 2.5530049998e+00 
80400 4.6291873202e+00 7.0405803240e-05 1.4739757179e+00 -2.5530008326e+00 1.4739757179e+00 2.5530008326e+00 
80500 4.6291873180e+00 7.0856986684e-05 1.4739757179e+00 -2.5530008326e+00 1.4739757179e+00 2.5530008326e+00 
80600 4.6291873157e+00 7.0332744419e-05 1.4739733143e+00 -2.5529966694e+00 1.4739733143e+00 2.5529966694e+00 
80700 4.6291873136e+00 7.0778904389e-05 1.4739733143e+00 -2.5529966694e+00 1.4739733143e+00 2.5529966694e+00 
80800 4.6291873113e+00 7.0250666808e-05 1.4739709134e+00 -2.5529925109e+00 1.4739709134e+00 2.5529925109e+00 
80900 4.6291873092e+00 7.0691661326e-05 1.4739709134e+00 -2.5529925109e+00 1.4739709134e+00 2.5529925109e+00 
81000 4.6291873072e+00 7.1133011938e-05 1.4739709134e+00 -2.5529925109e+00 1.4739709134e+00 2.5529925109e+00 
81100 4.6291873050e+00 7.0594837395e-05 1.4739685004e+00 -2.5529883315e+00 1.4739685004e+00 2.5529883315e+00 
81200 4.6291873030e+00 7.1030424146e-05 1.4739685004e+00 -2.5529883315e+00 1.4739685004e+00 2.5529883315e+00 
81300 4.6291873009e+00 7.0487914236e-05 1.4739660909e+00 -2.5529841581e+00 1.4739660909e+00 2.5529841581e+00 
81400 4.6291872990e+00 7.0917720178e-05 1.4739660909e+00 -2.5529841581e+00 1.4739660909e+00 2.5529841581e+00 
81500 4.6291872969e+00 7.0371000289e-05 1.4739636852e+00 -2.5529799914e+00 1.4739636852e+00 2.5529799914e+00 
81600 4.6291872950e+00 7.0795016374e-05 1.4739636852e+00 -2.5529799914e+00 1.4739636852e+00 2.5529799914e+00 
81700 4.6291872930e+00 7.0244217974e-05 1.4739612837e+00 -2.5529758318e+00 1.4739612837e+00 2.5529758318e+00 
81800 4.6291872912e+00 7.0662442608e-05 1.4739612837e+00 -2.5529758318e+00 1.4739612837e+00 2.5529758318e+00 
81900 4.6291872894e+00 7.1080755796e-05 1.4739612837e+00 -2.5529758318e+00 1.4739612837e+00 2.5529758318e+00 
82000 4.6291872874e+00 7.0520153382e-05 1.4739588725e+00 -2.5529716555e+00 1.4739588725e+00 2.5529716555e+00 
82100 4.6291872857e+00 7.0932251127e-05 1.4739588725e+00 -2.5529716555e+00 1.4739588725e+00 2.5529716555e+00 
82200 4.6291872838e+00 7.0367539755e-05 1.4739564663e+00 -2.5529674878e+00 1.4739564663e+00 2.5529674878e+00 
82300 4.6291872821e+00 7.0773501538e-05 1.4739564663e+00 -2.5529674878e+00 1.4739564663e+00 2.5529674878e+00 
82400 4.6291872802e+00 7.0204898053e-05 1.4739540655e+00 -2.5529633295e+00 1.4739540655e+00 2.5529633295e+00 
82500 4.6291872786e+00 7.0604798339e-05 1.4739540655e+00 -2.5529633295e+00 1.4739540655e+00 2.5529633295e+00 
82600 4.6291872770e+00 7.1004675224e-05 1.4739540655e+00 -2.5529633295e+00 1.4739540655e+00 2.5529633295e+00 
82700 4.6291872752e+00 7.0426682135e-05 1.4739516569e+00 -2.5529591576e+00 1.4739516569e+00 2.5529591576e+00 
82800 4.6291872736e+00 7.0820168816e-05 1.4739516569e+00 -2.5529591576e+00 1.4739516569e+00 2.5529591576e+00 
82900 4.6291872719e+00 7.0238411746e-05 1.4739492545e+00 -2.5529549966e+00 1.4739492545e+00 2.5529549966e+00 
83000 4.6291872704e+00 7.0625640483e-05 1.4739492545e+00 -2.5529549966e+00 1.4739492545e+00 2.5529549966e+00 
83100 4.6291872689e+00 7.1012767687e-05 1.4739492545e+00 -2.5529549966e+00 1.4739492545e+00 2.5529549966e+00 
83200 4.6291872672e+00 7.0421911503e-05 1.4739468456e+00 -2.5529508242e+00 1.4739468456e+00 2.5529508242e+00 
83300 4.6291872657e+00 7.0802523226e-05 1.4739468456e+00 -2.5529508242e+00 1.4739468456e+00 2.5529508242e+00 
83400 4.6291872641e+00 7.0208150188e-05 1.4739444438e+00 -2.5529466641e+00 1.4739444438e+00 2.5529466641e+00 
83500 4.6291872627e+00 7.0582417915e-05 1.4739444438e+00 -2.5529466641e+00 1.4739444438e+00 2.5529466641e+00 
83600 4.6291872613e+00 7.0956552450e-05 1.4739444438e+00 -2.5529466641e+00 1.4739444438e+00 2.5529466641e+00 
83700 4.6291872597e+00 7.0353516030e-05 1.4739420367e+00 -2.5529424950e+00 1.4739420367e+00 2.5529424950e+00 
83800 4.6291872584e+00 7.0721098139e-05 1.4739420367e+00 -2.5529424950e+00 1.4739420367e+00 2.5529424950e+00 
83900 4.6291872568e+00 7.0114866728e-05 1.4739396377e+00 -2.5529383398e+00 1.4739396377e+00 2.5529383398e+00 
84000 4.6291872555e+00 7.0476094959e-05 1.4739396377e+00 -2.5529383398e+00 1.4739396377e+00 2.5529383398e+00 
84100 4.6291872542e+00 7.0837189784e-05 1.4739396377e+00 -2.5529383398e+00 1.4739396377e+00 2.5529383398e+00 
84200 4.6291872527e+00 7.0222822086e-05 1.4739372347e+00 -2.5529341777e+00 1.4739372347e+00 2.5529341777e+00 
84300 4.6291872515e+00 7.0577389215e-05 1.4739372347e+00 -2.5529341777e+00 1.4739372347e+00 2.5529341777e+00 
84400 4.6291872502e+00 7.0931755823e-05 1.4739372347e+00 -2.5529341777e+00 1.4739372347e+00 2.5529341777e+00 
84500 4.6291872488e+00 7.0309335159e-05 1.4739348285e+00 -2.5529300100e+00 1.4739348285e+00 2.5529300100e+00 
84600 4.6291872476e+00 7.0657056995e-05 1.4739348285e+00 -2.5529300100e+00 1.4739348285e+00 2.5529300100e+00 
84700 4.6291872464e+00 7.1004535170e-05 1.4739348285e+00 -2.5529300100e+00 1.4739348285e+00 2.5529300100e+00 
84800 4.6291872450e+00 7.0374222454e-05 1.4739324198e+00 -2.5529258381e+00 1.4739324198e+00 2.5529258381e+00 
84900 4.6291872439e+00 7.0714982741e-05 1.4739324198e+00 -2.5529258381e+00 1.4739324198e+00 2.5529258381e+00 
85000 4.6291872425e+00 7.0082087827e-05 1.4739300210e+00 -2.5529216831e+00 1.4739300210e+00 2.5529216831e+00 
85100 4.6291872414e+00 7.0416402584e-05 1.4739300210e+00 -2.5529216831e+00 1.4739300210e+00 2.5529216831e+00 
85200 4.6291872403e+00 7.0750560255e-05 1.4739300210e+00 -2.5529216831e+00 1.4739300210e+00 2.5529216831e+00 
85300 4.6291872390e+00 7.0110563045e-05 1.4739276209e+00 -2.5529175261e+00 1.4739276209e+00 2.5529175261e+00 
85400 4.6291872379e+00 7.0438192474e-05 1.4739276209e+00 -2.5529175261e+00 1.4739276209e+00 2.5529175261e+00 
85500 4.6291872369e+00 7.0765634774e-05 1.4739276209e+00 -2.5529175261e+00 1.4739276209e+00 2.5529175261e+00 
85600 4.6291872356e+00 7.0118722989e-05 1.4739252203e+00 -2.5529133682e+00 1.4739252203e+00 2.5529133682e+00 
85700 4.6291872346e+00 7.0439592466e-05 1.4739252203e+00 -2.5529133682e+00 1.4739252203e+00 2.5529133682e+00 
85800 4.6291872336e+00 7.0760260608e-05 1.4739252203e+00 -2.5529133682e+00 1.4739252203e+00 2.5529133682e+00 
85900 4.6291872323e+00 7.0106670649e-05 1.4739228199e+00 -2.5529092106e+00 1.4739228199e+00 2.5529092106e+00 
86000 4.6291872313e+00 7.0420750857e-05 1.4739228199e+00 -2.5529092106e+00 1.4739228199e+00 2.5529092106e+00 
86100 4.6291872304e+00 7.0734627603e-05 1.4739228199e+00 -2.5529092106e+00 1.4739228199e+00 2.5529092106e+00 
86200 4.6291872292e+00 7.0074631377e-05 1.4739204204e+00 -2.5529050544e+00 1.4739204204e+00 2.5529050544e+00 
86300 4.6291872283e+00 7.0381927989e-05 1.4739204204e+00 -2.5529050544e+00 1.4739204204e+00 2.5529050544e+00 
86400 4.6291872273e+00 7.0689028245e-05 1.4739204204e+00 -2.5529050544e+00 1.4739204204e+00 2.5529050544e+00 
86500 4.6291872264e+00 7.0995793651e-05 1.4739204204e+00 -2.5529050544e+00 1.4739204204e+00 2.5529050544e+00 
86600 4.6291872253e+00 7.0325016535e-05 1.4739180120e+00 -2.5529008830e+00 1.4739180120e+00 2.5529008830e+00 
86700 4.6291872244e+00 7.0624960650e-05 1.4739180120e+00 -2.5529008830e+00 1.4739180120e+00 2.5529008830e+00 
86800 4.6291872235e+00 7.0924618835e-05 1.4739180120e+00 -2.5529008830e+00 1.4739180120e+00 2.5529008830e+00 
86900 4.6291872225e+00 7.0247791354e-05 1.4739156060e+00 -2.5528967157e+00 1.4739156060e+00 2.5528967157e+00 
87000 4.6291872216e+00 7.0540729045e-05 1.4739156060e+00 -2.5528967157e+00 1.4739156060e+00 2.5528967157e+00 
87100 4.6291872208e+00 7.0833426669e-05 1.4739156060e+00 -2.5528967157e+00 1.4739156060e+00 2.5528967157e+00 
87200 4.6291872197e+00 7.0150967523e-05 1.4739132031e+00 -2.5528925537e+00 1.4739132031e+00 2.5528925537e+00 
87300 4.6291872189e+00 7.0437042053e-05 1.4739132031e+00 -2.5528925537e+00 1.4739132031e+00 2.5528925537e+00 
87400 4.6291872181e+00 7.0722920212e-05 1.4739132031e+00 -2.5528925537e+00 1.4739132031e+00 2.5528925537e+00 
87500 4.6291872171e+00 7.0035233632e-05 1.4739108040e+00 -2.5528883983e+00 1.4739108040e+00 2.5528883983e+00 
87600 4.6291872163e+00 7.0314584091e-05 1.4739108040e+00 -2.5528883983e+00 1.4739108040e+00 2.5528883983e+00 
87700 4.6291872155e+00 7.0593780295e-05 1.4739108040e+00 -2.5528883983e+00 1.4739108040e+00 2.5528883983e+00 
87800 4.6291872148e+00 7.0872693626e-05 1.4739108040e+00 -2.5528883983e+00 1.4739108040e+00 2.5528883983e+00 
87900 4.6291872138e+00 7.0175943210e-05 1.4739083997e+00 -2.5528842340e+00 1.4739083997e+00 2.5528842340e+00 
88000 4.6291872131e+00 7.0448175971e-05 1.4739083997e+00 -2.5528842340e+00 1.4739083997e+00 2.5528842340e+00 
88100 4.6291872124e+00 7.0720199194e-05 1.4739083997e+00 -2.5528842340e+00 1.4739083997e+00 2.5528842340e+00 
88200 4.6291872114e+00 7.0018753884e-05 1.4739060007e+00 -2.5528800787e+00 1.4739060007e+00 2.5528800787e+00 
88300 4.6291872107e+00 7.0284247112e-05 1.4739060007e+00 -2.5528800787e+00 1.4739060007e+00 2.5528800787e+00 
88400 4.6291872100e+00 7.0549595251e-05 1.4739060007e+00 -2.5528800787e+00 1.4739060007e+00 2.5528800787e+00 
88500 4.6291872093e+00 7.0814675894e-05 1.4739060007e+00 -2.5528800787e+00 1.4739060007e+00 2.5528800787e+00 
88600 4.6291872084e+00 7.0104974081e-05 1.4739035984e+00 -2.5528759178e+00 1.4739035984e+00 2.5528759178e+00 
88700 4.6291872078e+00 7.0363426310e-05 1.4739035984e+00 -2.5528759178e+00 1.4739035984e+00 2.5528759178e+00 
88800 4.6291872071e+00 7.0621699676e-05 1.4739035984e+00 -2.5528759178e+00 1.4739035984e+00 2.5528759178e+00 
88900 4.6291872065e+00 7.0879678261e-05 1.4739035984e+00 -2.5528759178e+00 1.4739035984e+00 2.5528759178e+00 
89000 4.6291872056e+00 7.0161992934e-05 1.4739011939e+00 -2.5528717531e+00 1.4739011939e+00 2.5528717531e+00 
89100 4.6291872050e+00 7.0413300521e-05 1.4739011939e+00 -2.5528717531e+00 1.4739011939e+00 2.5528717531e+00 
89200 4.6291872044e+00 7.0664418554e-05 1.4739011939e+00 -2.5528717531e+00 1.4739011939e+00 2.5528717531e+00 
89300 4.6291872038e+00 7.0915235587e-05 1.4739011939e+00 -2.5528717531e+00 1.4739011939e+00 2.5528717531e+00 
89400 4.6291872029e+00 7.0189930600e-05 1.4738987882e+00 -2.5528675864e+00 1.4738987882e+00 2.5528675864e+00 
89500 4.6291872023e+00 7.0434073259e-05 1.4738987882e+00 -2.5528675864e+00 1.4738987882e+00 2.5528675864e+00 
89600 4.6291872018e+00 7.0678031571e-05 1.4738987882e+00 -2.5528675864e+00 1.4738987882e+00 2.5528675864e+00 
89700 4.6291872012e+00 7.0921697197e-05 1.4738987882e+00 -2.5528675864e+00 1.4738987882e+00 2.5528675864e+00 
89800 4.6291872004e+00 7.0189195284e-05 1.4738963823e+00 -2.5528634192e+00 1.4738963823e+00 2.5528634192e+00 
89900 4.6291871998e+00 7.0426210991e-05 1.4738963823e+00 -2.5528634192e+00 1.4738963823e+00 2.5528634192e+00 
90000 4.6291871993e+00 7.0663058530e-05 1.4738963823e+00 -2.5528634192e+00 1.4738963823e+00 2.5528634192e+00 
90100 4.6291871987e+00 7.0899631746e-05 1.4738963823e+00 -2.5528634192e+00 1.4738963823e+00 2.5528634192e+00 
90200 4.6291871980e+00 7.0160392575e-05 1.4738939771e+00 -2.5528592533e+00 1.4738939771e+00 2.5528592533e+00 
90300 4.6291871974e+00 7.0390360284e-05 1.4738939771e+00 -2.5528592533e+00 1.4738939771e+00 2.5528592533e+00 
90400 4.6291871969e+00 7.0620183570e-05 1.4738939771e+00 -2.5528592533e+00 1.4738939771e+00 2.5528592533e+00 
90500 4.6291871964e+00 7.0849757829e-05 1.4738939771e+00 -2.5528592533e+00 1.4738939771e+00 2.5528592533e+00 
90600 4.6291871957e+00 7.0104262782e-05 1.4738915736e+00 -2.5528550903e+00 1.4738915736e+00 2.5528550903e+00 
90700 4.6291871952e+00 7.0327290385e-05 1.4738915736e+00 -2.5528550903e+00 1.4738915736e+00 2.5528550903e+00 
90800 4.6291871947e+00 7.0550202486e-05 1.4738915736e+00 -2.5528550903e+00 1.4738915736e+00 2.5528550903e+00 
90900 4.6291871942e+00 7.0772895596e-05 1.4738915736e+00 -2.5528550903e+00 1.4738915736e+00 2.5528550903e+00 
91000 4.6291871935e+00 7.0021637118e-05 1.4738891727e+00 -2.5528509319e+00 1.4738891727e+00 2.5528509319e+00 
91100 4.6291871930e+00 7.0237852932e-05 1.4738891727e+00 -2.5528509319e+00 1.4738891727e+00 2.5528509319e+00 
91200 4.6291871926e+00 7.0453985649e-05 1.4738891727e+00 -2.5528509319e+00 1.4738891727e+00 2.5528509319e+00 
91300 4.6291871921e+00 7.0669932590e-05 1.4738891727e+00 -2.5528509319e+00 1.4738891727e+00 2.5528509319e+00 
91400 4.6291871917e+00 7.0885600125e-05 1.4738891727e+00 -2.5528509319e+00 1.4738891727e+00 2.5528509319e+00 
91500 4.6291871910e+00 7.0125750282e-05 1.4738867680e+00 -2.5528467668e+00 1.4738867680e+00 2.5528467668e+00 
91600 4.6291871906e+00 7.0334836644e-05 1.4738867680e+00 -2.5528467668e+00 1.4738867680e+00 2.5528467668e+00 
91700 4.6291871901e+00 7.0543804651e-05 1.4738867680e+00 -2.5528467668e+00 1.4738867680e+00 2.5528467668e+00 
91800 4.6291871897e+00 7.0752558333e-05 1.4738867680e+00 -2.5528467668e+00 1.4738867680e+00 2.5528467668e+00 
91900 4.6291871891e+00 6.9987714971e-05 1.4738843678e+00 -2.5528426095e+00 1.4738843678e+00 2.5528426095e+00 
92000 4.6291871886e+00 7.0190022397e-05 1.4738843678e+00 -2.5528426095e+00 1.4738843678e+00 2.5528426095e+00 
92100 4.6291871882e+00 7.0392270044e-05 1.4738843678e+00 -2.5528426095e+00 1.4738843678e+00 2.5528426095e+00 
92200 4.6291871878e+00 7.0594360434e-05 1.4738843678e+00 -2.5528426095e+00 1.4738843678e+00 2.5528426095e+00 
92300 4.6291871874e+00 7.0796204675e-05 1.4738843678e+00 -2.5528426095e+00 1.4738843678e+00 2.5528426095e+00 
92400 4.6291871868e+00 7.0023859710e-05 1.4738819661e+00 -2.5528384497e+00 1.4738819661e+00 2.5528384497e+00 
92500 4.6291871864e+00 7.0219209279e-05 1.4738819661e+00 -2.5528384497e+00 1.4738819661e+00 2.5528384497e+00 
92600 4.6291871861e+00 7.0414485103e-05 1.4738819661e+00 -2.5528384497e+00 1.4738819661e+00 2.5528384497e+00 
92700 4.6291871857e+00 7.0609594531e-05 1.4738819661e+00 -2.5528384497e+00 1.4738819661e+00 2.5528384497e+00 
92800 4.6291871853e+00 7.0804453072e-05 1.4738819661e+00 -2.5528384497e+00 1.4738819661e+00 2.5528384497e+00 
92900 4.6291871847e+00 7.0025040530e-05 1.4738795641e+00 -2.5528342893e+00 1.4738795641e+00 2.5528342893e+00 
93000 4.6291871844e+00 7.0213405970e-05 1.4738795641e+00 -2.5528342893e+00 1.4738795641e+00 2.5528342893e+00 
93100 4.6291871840e+00 7.0401703952e-05 1.4738795641e+00 -2.5528342893e+00 1.4738795641e+00 2.5528342893e+00 
93200 4.6291871837e+00 7.0589844856e-05 1.4738795641e+00 -2.5528342893e+00 1.4738795641e+00 2.5528342893e+00 
93300 4.6291871833e+00 7.0777746957e-05 1.4738795641e+00 -2.5528342893e+00 1.4738795641e+00 2.5528342893e+00 
93400 4.6291871828e+00 6.9991790977e-05 1.4738771631e+00 -2.5528301306e+00 1.4738771631e+00 2.5528301306e+00 
93500 4.6291871824e+00 7.0173233727e-05 1.4738771631e+00 -2.5528301306e+00 1.4738771631e+00 2.5528301306e+00 
93600 4.6291871821e+00 7.0354627874e-05 1.4738771631e+00 -2.5528301306e+00 1.4738771631e+00 2.5528301306e+00 
93700 4.6291871818e+00 7.0535885731e-05 1.4738771631e+00 -2.5528301306e+00 1.4738771631e+00 2.5528301306e+00 
93800 4.6291871815e+00 7.0716927335e-05 1.4738771631e+00 -2.5528301306e+00 1.4738771631e+00 2.5528301306e+00 
93900 4.6291871809e+00 6.9925001388e-05 1.4738747641e+00 -2.5528259754e+00 1.4738747641e+00 2.5528259754e+00 
94000 4.6291871806e+00 7.0099638437e-05 1.4738747641e+00 -2.5528259754e+00 1.4738747641e+00 2.5528259754e+00 
94100 4.6291871803e+00 7.0274253506e-05 1.4738747641e+00 -2.5528259754e+00 1.4738747641e+00 2.5528259754e+00 
94200 4.6291871800e+00 7.0448760156e-05 1.4738747641e+00 -2.5528259754e+00 1.4738747641e+00 2.5528259754e+00 
94300 4.6291871797e+00 7.0623079568e-05 1.4738747641e+00 -2.5528259754e+00 1.4738747641e+00 2.5528259754e+00 
94400 4.6291871794e+00 7.0797139836e-05 1.4738747641e+00 -2.5528259754e+00 1.4738747641e+00 2.5528259754e+00 
94500 4.6291871789e+00 6.9997128663e-05 1.4738723623e+00 -2.5528218154e+00 1.4738723623e+00 2.5528218154e+00 
94600 4.6291871786e+00 7.0164713452e-05 1.4738723623e+00 -2.5528218154e+00 1.4738723623e+00 2.5528218154e+00 
94700 4.6291871783e+00 7.0332253886e-05 1.4738723623e+00 -2.5528218154e+00 1.4738723623e+00 2.5528218154e+00 
94800 4.6291871781e+00 7.0499669028e-05 1.4738723623e+00 -2.5528218154e+00 1.4738723623e+00 2.5528218154e+00 
94900 4.6291871778e+00 7.0666885066e-05 1.4738723623e+00 -2.5528218154e+00 1.4738723623e+00 2.5528218154e+00 
95000 4.6291871775e+00 7.0833834666e-05 1.4738723623e+00 -2.5528218154e+00 1.4738723623e+00 2.5528218154e+00 
95100 4.6291871770e+00 7.0026238326e-05 1.4738699593e+00 -2.5528176533e+00 1.4738699593e+00 2.5528176533e+00 
95200 4.6291871768e+00 7.0186707061e-05 1.4738699593e+00 -2.5528176533e+00 1.4738699593e+00 2.5528176533e+00 
95300 4.6291871765e+00 7.0347135787e-05 1.4738699593e+00 -2.5528176533e+00 1.4738699593e+00 2.5528176533e+00 
95400 4.6291871763e+00 7.0507446720e-05 1.4738699593e+00 -2.5528176533e+00 1.4738699593e+00 2.5528176533e+00 
95500 4.6291871760e+00 7.0667568932e-05 1.4738699593e+00 -2.5528176533e+00 1.4738699593e+00 2.5528176533e+00 
95600 4.6291871758e+00 7.0827437726e-05 1.4738699593e+00 -2.5528176533e+00 1.4738699593e+00 2.5528176533e+00 
95700 4.6291871753e+00 7.0012895755e-05 1.4738675566e+00 -2.5528134916e+00 1.4738675566e+00 2.5528134916e+00 
95800 4.6291871751e+00 7.0166317324e-05 1.4738675566e+00 -2.5528134916e+00 1.4738675566e+00 2.5528134916e+00 
95900 4.6291871748e+00 7.0319718489e-05 1.4738675566e+00 -2.5528134916e+00 1.4738675566e+00 2.5528134916e+00 
96000 4.6291871746e+00 7.0473023315e-05 1.4738675566e+00 -2.5528134916e+00 1.4738675566e+00 2.5528134916e+00 
96100 4.6291871744e+00 7.0626162566e-05 1.4738675566e+00 -2.5528134916e+00 1.4738675566e+00 2.5528134916e+00 
96200 4.6291871741e+00 7.0779073091e-05 1.4738675566e+00 -2.5528134916e+00 1.4738675566e+00 2.5528134916e+00 
96300 4.6291871737e+00 6.9958294386e-05 1.4738651554e+00 -2.5528093327e+00 1.4738651554e+00 2.5528093327e+00 
96400 4.6291871735e+00 7.0104815198e-05 1.4738651554e+00 -2.5528093327e+00 1.4738651554e+00 2.5528093327e+00 
96500 4.6291871733e+00 7.0251343920e-05 1.4738651554e+00 -2.5528093327e+00 1.4738651554e+00 2.5528093327e+00 
96600 4.6291871730e+00 7.0397805724e-05 1.4738651554e+00 -2.5528093327e+00 1.4738651554e+00 2.5528093327e+00 
96700 4.6291871728e+00 7.0544132384e-05 1.4738651554e+00 -2.5528093327e+00 1.4738651554e+00 2.5528093327e+00 
96800 4.6291871726e+00 7.0690261676e-05 1.4738651554e+00 -2.5528093327e+00 1.4738651554e+00 2.5528093327e+00 
96900 4.6291871724e+00 7.0836136826e-05 1.4738651554e+00 -2.5528093327e+00 1.4738651554e+00 2.5528093327e+00 
97000 4.6291871720e+00 7.0007552476e-05 1.4738627524e+00 -2.5528051705e+00 1.4738627524e+00 2.5528051705e+00 
97100 4.6291871718e+00 7.0146999380e-05 1.4738627524e+00 -2.5528051705e+00 1.4738627524e+00 2.5528051705e+00 
97200 4.6291871716e+00 7.0286444991e-05 1.4738627524e+00 -2.5528051705e+00 1.4738627524e+00 2.5528051705e+00 
97300 4.6291871714e+00 7.0425818843e-05 1.4738627524e+00 -2.5528051705e+00 1.4738627524e+00 2.5528051705e+00 
97400 4.6291871712e+00 7.0565056688e-05 1.4738627524e+00 -2.5528051705e+00 1.4738627524e+00 2.5528051705e+00 
97500 4.6291871710e+00 7.0704099929e-05 1.4738627524e+00 -2.5528051705e+00 1.4738627524e+00 2.5528051705e+00 
97600 4.6291871709e+00 7.0842895103e-05 1.4738627524e+00 -2.5528051705e+00 1.4738627524e+00 2.5528051705e+00 
97700 4.6291871704e+00 7.0007179198e-05 1.4738603491e+00 -2.5528010078e+00 1.4738603491e+00 2.5528010078e+00 
97800 4.6291871703e+00 7.0139566584e-05 1.4738603491e+00 -2.5528010078e+00 1.4738603491e+00 2.5528010078e+00 
97900 4.6291871701e+00 7.0271967083e-05 1.4738603491e+00 -2.5528010078e+00 1.4738603491e+00 2.5528010078e+00 
98000 4.6291871699e+00 7.0404312528e-05 1.4738603491e+00 -2.5528010078e+00 1.4738603491e+00 2.5528010078e+00 
98100 4.6291871697e+00 7.0536540774e-05 1.4738603491e+00 -2.5528010078e+00 1.4738603491e+00 2.5528010078e+00 
98200 4.6291871696e+00 7.0668595144e-05 1.4738603491e+00 -2.5528010078e+00 1.4738603491e+00 2.5528010078e+00 
98300 4.6291871694e+00 7.0800423933e-05 1.4738603491e+00 -2.5528010078e+00 1.4738603491e+00 2.5528010078e+00 
98400 4.6291871690e+00 6.9958380283e-05 1.4738579472e+00 -2.5527968477e+00 1.4738579472e+00 2.5527968477e+00 
98500 4.6291871689e+00 7.0083854453e-05 1.4738579472e+00 -2.5527968477e+00 1.4738579472e+00 2.5527968477e+00 
98600 4.6291871687e+00 7.0209368394e-05 1.4738579472e+00 -2.5527968477e+00 1.4738579472e+00 2.5527968477e+00 
98700 4.6291871685e+00 7.0334855184e-05 1.4738579472e+00 -2.5527968477e+00 1.4738579472e+00 2.5527968477e+00 
98800 4.6291871684e+00 7.0460253818e-05 1.4738579472e+00 -2.5527968477e+00 1.4738579472e+00 2.5527968477e+00 
98900 4.6291871682e+00 7.0585508660e-05 1.4738579472e+00 -2.5527968477e+00 1.4738579472e+00 2.5527968477e+00 
99000 4.6291871681e+00 7.0710568953e-05 1.4738579472e+00 -2.5527968477e+00 1.4738579472e+00 2.5527968477e+00 
99100 4.6291871679e+00 7.0835388381e-05 1.4738579472e+00 -2.5527968477e+00 1.4738579472e+00 2.5527968477e+00 
99200 4.6291871676e+00 6.9985877515e-05 1.4738555441e+00 -2.5527926855e+00 1.4738555441e+00 2.5527926855e+00 
99300 4.6291871674e+00 7.0104323238e-05 1.4738555441e+00 -2.5527926855e+00 1.4738555441e+00 2.5527926855e+00 
99400 4.6291871673e+00 7.0222807076e-05 1.4738555441e+00 -2.5527926855e+00 1.4738555441e+00 2.5527926855e+00 
99500 4.6291871671e+00 7.0341265802e-05 1.4738555441e+00 -2.5527926855e+00 1.4738555441e+00 2.5527926855e+00 
99600 4.6291871670e+00 7.0459641779e-05 1.4738555441e+00 -2.5527926855e+00 1.4738555441e+00 2.5527926855e+00 
99700 4.6291871669e+00 7.0577882445e-05 1.4738555441e+00 -2.5527926855e+00 1.4738555441e+00 2.5527926855e+00 
99800 4.6291871667e+00 7.0695939847e-05 1.4738555441e+00 -2.5527926855e+00 1.4738555441e+00 2.5527926855e+00 
99900 4.6291871666e+00 7.0813770230e-05 1.4738555441e+00 -2.5527926855e+00 1.4738555441e+00 2.5527926855e+00 
100000 4.6291871662e+00 6.9957615029e-05 1.4738531418e+00 -2.5527885245e+00 1.4738531418e+00 2.5527885245e+00 
100100 4.6291871661e+00 7.0069108023e-05 1.4738531418e+00 -2.5527885245e+00 1.4738531418e+00 2.5527885245e+00 
100200 4.6291871660e+00 7.0180659268e-05 1.4738531418e+00 -2.5527885245e+00 1.4738531418e+00 2.5527885245e+00 
100300 4.6291871659e+00 7.0292207330e-05 1.4738531418e+00 -2.5527885245e+00 1.4738531418e+00 2.5527885245e+00 
100400 4.6291871657e+00 7.0403696207e-05 1.4738531418e+00 -2.5527885245e+00 1.4738531418e+00 2.5527885245e+00 
100500 4.6291871656e+00 7.0515074831e-05 1.4738531418e+00 -2.5527885245e+00 1.4738531418e+00 2.5527885245e+00 
100600 4.6291871655e+00 7.0626296616e-05 1.4738531418e+00 -2.5527885245e+00 1.4738531418e+00 2.5527885245e+00 
100700 4.6291871654e+00 7.0737319052e-05 1.4738531418e+00 -2.5527885245e+00 1.4738531418e+00 2.5527885245e+00 
100800 4.6291871650e+00 6.9875465244e-05 1.4738507421e+00 -2.5527843680e+00 1.4738507421e+00 2.5527843680e+00 
100900 4.6291871649e+00 6.9980215234e-05 1.4738507421e+00 -2.5527843680e+00 1.4738507421e+00 2.5527843680e+00 
101000 4.6291871648e+00 7.0085053838e-05 1.4738507421e+00 -2.5527843680e+00 1.4738507421e+00 2.5527843680e+00 
101100 4.6291871647e+00 7.0189920522e-05 1.4738507421e+00 -2.5527843680e+00 1.4738507421e+00 2.5527843680e+00 
101200 4.6291871646e+00 7.0294760102e-05 1.4738507421e+00 -2.5527843680e+00 1.4738507421e+00 2.5527843680e+00 
101300 4.6291871645e+00 7.0399522255e-05 1.4738507421e+00 -2.5527843680e+00 1.4738507421e+00 2.5527843680e+00 
101400 4.6291871644e+00 7.0504161073e-05 1.4738507421e+00 -2.5527843680e+00 1.4738507421e+00 2.5527843680e+00 
101500 4.6291871643e+00 7.0608634662e-05 1.4738507421e+00 -2.5527843680e+00 1.4738507421e+00 2.5527843680e+00 
101600 4.6291871642e+00 7.0712904776e-05 1.4738507421e+00 -2.5527843680e+00 1.4738507421e+00 2.5527843680e+00 
101700 4.6291871638e+00 6.9844665311e-05 1.4738483431e+00 -2.5527802130e+00 1.4738483431e+00 2.5527802130e+00 
101800 4.6291871637e+00 6.9942668062e-05 1.4738483431e+00 -2.5527802130e+00 1.4738483431e+00 2.5527802130e+00 
101900 4.6291871636e+00 7.0040765783e-05 1.4738483431e+00 -2.5527802130e+00 1.4738483431e+00 2.5527802130e+00 
102000 4.6291871635e+00 7.0138900873e-05 1.4738483431e+00 -2.5527802130e+00 1.4738483431e+00 2.5527802130e+00 
102100 4.6291871634e+00 7.0237020824e-05 1.4738483431e+00 -2.5527802130e+00 1.4738483431e+00 2.5527802130e+00 
102200 4.6291871633e+00 7.0335077749e-05 1.4738483431e+00 -2.5527802130e+00 1.4738483431e+00 2.5527802130e+00 
102300 4.6291871632e+00 7.0433027960e-05 1.4738483431e+00 -2.5527802130e+00 1.4738483431e+00 2.5527802130e+00 
102400 4.6291871632e+00 7.0530831585e-05 1.4738483431e+00 -2.5527802130e+00 1.4738483431e+00 2.5527802130e+00 
102500 4.6291871631e+00 7.0628452223e-05 1.4738483431e+00 -2.5527802130e+00 1.4738483431e+00 2.5527802130e+00 
102600 4.6291871630e+00 7.0725856630e-05 1.4738483431e+00 -2.5527802130e+00 1.4738483431e+00 2.5527802130e+00 
102700 4.6291871627e+00 6.9850597704e-05 1.4738459438e+00 -2.5527760572e+00 1.4738459438e+00 2.5527760572e+00 
102800 4.6291871626e+00 6.9941721499e-05 1.4738459438e+00 -2.5527760572e+00 1.4738459438e+00 2.5527760572e+00 
102900 4.6291871625e+00 7.0032940067e-05 1.4738459438e+00 -2.5527760572e+00 1.4738459438e+00 2.5527760572e+00 
103000 4.6291871624e+00 7.0124199254e-05 1.4738459438e+00 -2.5527760572e+00 1.4738459438e+00 2.5527760572e+00 
103100 4.6291871623e+00 7.0215449697e-05 1.4738459438e+00 -2.5527760572e+00 1.4738459438e+00 2.5527760572e+00 
103200 4.6291871622e+00 7.0306646381e-05 1.4738459438e+00 -2.5527760572e+00 1.4738459438e+00 2.5527760572e+00 
103300 4.6291871621e+00 7.0397748242e-05 1.4738459438e+00 -2.5527760572e+00 1.4738459438e+00 2.5527760572e+00 
103400 4.6291871621e+00 7.0488717801e-05 1.4738459438e+00 -2.5527760572e+00 1.4738459438e+00 2.5527760572e+00 
103500 4.6291871620e+00 7.0579520849e-05 1.4738459438e+00 -2.5527760572e+00 1.4738459438e+00 2.5527760572e+00 
103600 4.6291871619e+00 7.0670126142e-05 1.4738459438e+00 -2.5527760572e+00 1.4738459438e+00 2.5527760572e+00 
103700 4.6291871618e+00 7.0760505144e-05 1.4738459438e+00 -2.5527760572e+00 1.4738459438e+00 2.5527760572e+00 
103800 4.6291871615e+00 6.9877771917e-05 1.4738435433e+00 -2.5527718993e+00 1.4738435433e+00 2.5527718993e+00 
103900 4.6291871615e+00 6.9961859927e-05 1.4738435433e+00 -2.5527718993e+00 1.4738435433e+00 2.5527718993e+00 
104000 4.6291871614e+00 7.0046044626e-05 1.4738435433e+00 -2.5527718993e+00 1.4738435433e+00 2.5527718993e+00 
104100 4.6291871613e+00 7.0130275120e-05 1.4738435433e+00 -2.5527718993e+00 1.4738435433e+00 2.5527718993e+00 
104200 4.6291871612e+00 7.0214505022e-05 1.4738435433e+00 -2.5527718993e+00 1.4738435433e+00 2.5527718993e+00 
104300 4.6291871612e+00 7.0298692042e-05 1.4738435433e+00 -2.5527718993e+00 1.4738435433e+00 2.5527718993e+00 
104400 4.6291871611e+00 7.0382797606e-05 1.4738435433e+00 -2.5527718993e+00 1.4738435433e+00 2.5527718993e+00 
104500 4.6291871610e+00 7.0466786518e-05 1.4738435433e+00 -2.5527718993e+00 1.4738435433e+00 2.5527718993e+00 
104600 4.6291871610e+00 7.0550626656e-05 1.4738435433e+00 -2.5527718993e+00 1.4738435433e+00 2.5527718993e+00 
104700 4.6291871609e+00 7.0634288690e-05 1.4738435433e+00 -2.5527718993e+00 1.4738435433e+00 2.5527718993e+00 
104800 4.6291871608e+00 7.0717745836e-05 1.4738435433e+00 -2.5527718993e+00 1.4738435433e+00 2.5527718993e+00 
104900 4.6291871605e+00 6.9828732087e-05 1.4738411442e+00 -2.5527677440e+00 1.4738411442e+00 2.5527677440e+00 
105000 4.6291871605e+00 6.9905949268e-05 1.4738411442e+00 -2.5527677440e+00 1.4738411442e+00 2.5527677440e+00 
105100 4.6291871604e+00 6.9983288720e-05 1.4738411442e+00 -2.5527677440e+00 1.4738411442e+00 2.5527677440e+00 
105200 4.6291871604e+00 7.0060700801e-05 1.4738411442e+00 -2.5527677440e+00 1.4738411442e+00 2.5527677440e+00 
105300 4.6291871603e+00 7.0138140275e-05 1.4738411442e+00 -2.5527677440e+00 1.4738411442e+00 2.5527677440e+00 
105400 4.6291871602e+00 7.0215565903e-05 1.4738411442e+00 -2.5527677440e+00 1.4738411442e+00 2.5527677440e+00 
105500 4.6291871602e+00 7.0292940075e-05 1.4738411442e+00 -2.5527677440e+00 1.4738411442e+00 2.5527677440e+00 
105600 4.6291871601e+00 7.0370228478e-05 1.4738411442e+00 -2.5527677440e+00 1.4738411442e+00 2.5527677440e+00 
105700 4.6291871601e+00 7.0447399795e-05 1.4738411442e+00 -2.5527677440e+00 1.4738411442e+00 2.5527677440e+00 
105800 4.6291871600e+00 7.0524425434e-05 1.4738411442e+00 -2.5527677440e+00 1.4738411442e+00 2.5527677440e+00 
105900 4.6291871600e+00 7.0601279284e-05 1.4738411442e+00 -2.5527677440e+00 1.4738411442e+00 2.5527677440e+00 
106000 4.6291871599e+00 7.0677937493e-05 1.4738411442e+00 -2.5527677440e+00 1.4738411442e+00 2.5527677440e+00 
106100 4.6291871598e+00 7.0754378268e-05 1.4738411442e+00 -2.5527677440e+00 1.4738411442e+00 2.5527677440e+00 
106200 4.6291871596e+00 6.9857869843e-05 1.4738387438e+00 -2.5527635865e+00 1.4738387438e+00 2.5527635865e+00 
106300 4.6291871595e+00 6.9928055884e-05 1.4738387438e+00 -2.5527635865e+00 1.4738387438e+00 2.5527635865e+00 
106400 4.6291871595e+00 6.9998364335e-05 1.4738387438e+00 -2.5527635865e+00 1.4738387438e+00 2.5527635865e+00 
106500 4.6291871594e+00 7.0068748996e-05 1.4738387438e+00 -2.5527635865e+00 1.4738387438e+00 2.5527635865e+00 
106600 4.6291871594e+00 7.0139167777e-05 1.4738387438e+00 -2.5527635865e+00 1.4738387438e+00 2.5527635865e+00 
106700 4.6291871593e+00 7.0209582312e-05 1.4738387438e+00 -2.5527635865e+00 1.4738387438e+00 2.5527635865e+00 
106800 4.6291871593e+00 7.0279957620e-05 1.4738387438e+00 -2.5527635865e+00 1.4738387438e+00 2.5527635865e+00 
106900 4.6291871592e+00 7.0350261789e-05 1.4738387438e+00 -2.5527635865e+00 1.4738387438e+00 2.5527635865e+00 
107000 4.6291871592e+00 7.0420465701e-05 1.4738387438e+00 -2.5527635865e+00 1.4738387438e+00 2.5527635865e+00 
107100 4.6291871591e+00 7.0490542776e-05 1.4738387438e+00 -2.5527635865e+00 1.4738387438e+00 2.5527635865e+00 
107200 4.6291871591e+00 7.0560468745e-05 1.4738387438e+00 -2.5527635865e+00 1.4738387438e+00 2.5527635865e+00 
107300 4.6291871590e+00 7.0630221439e-05 1.4738387438e+00 -2.5527635865e+00 1.4738387438e+00 2.5527635865e+00 
107400 4.6291871590e+00 7.0699780610e-05 1.4738387438e+00 -2.5527635865e+00 1.4738387438e+00 2.5527635865e+00 
107500 4.6291871589e+00 7.0741784318e-05 1.4738387438e+00 -2.5527635865e+00 1.4738387438e+00 2.5527635865e+00 
107600 4.6291871587e+00 6.9785781021e-05 1.4738363439e+00 -2.5527594297e+00 1.4738363439e+00 2.5527594297e+00 
107600 4.6291871587e+00 6.9785781021e-05 1.4738363439e+00 -2.5527594297e+00 1.4738363439e+00 2.5527594297e+00 
