# step Hamiltonian StressXX CellTensor1 CellTensor2 CellTensor3 CellTensor4 
0 6.4932356268e+00 -3.2876711289e-02 1.4739512762e+00 -2.5529584983e+00 1.4739512762e+00 2.5529584983e+00 
100 6.4889459833e+00 -3.3030523460e-02 1.4739512762e+00 -2.5529584983e+00 1.4739512762e+00 2.5529584983e+00 
200 6.4847086600e+00 -3.2991201265e-02 1.4750718935e+00 -2.5548994643e+00 1.4750718935e+00 2.5548994643e+00 
300 6.4805799541e+00 -3.3029698364e-02 1.4761903260e+00 -2.5568366462e+00 1.4761903260e+00 2.5568366462e+00 
400 6.4765629981e+00 -3.3131647797e-02 1.4773092151e+00 -2.5587746191e+00 1.4773092151e+00 2.5587746191e+00 
500 6.4726589479e+00 -3.3285363264e-02 1.4784307081e+00 -2.5607171018e+00 1.4784307081e+00 2.5607171018e+00 
600 6.4688675000e+00 -3.3481287866e-02 1.4795565499e+00 -2.5626671171e+00 1.4795565499e+00 2.5626671171e+00 
700 6.4651872859e+00 -3.3711564673e-02 1.4806881576e+00 -2.5646271192e+00 1.4806881576e+00 2.5646271192e+00 
800 6.4616161737e+00 -3.3969700484e-02 1.4818266783e+00 -2.5665990948e+00 1.4818266783e+00 2.5665990948e+00 
900 6.4581514977e+00 -3.4250301319e-02 1.4829730363e+00 -2.5685846451e+00 1.4829730363e+00 2.5685846451e+00 
1000 6.4547902331e+00 -3.4548863403e-02 1.4841279710e+00 -2.5705850508e+00 1.4841279710e+00 2.5705850508e+00 
1100 6.4515291290e+00 -3.4861607325e-02 1.4852920680e+00 -2.5726013258e+00 1.4852920680e+00 2.5726013258e+00 
1200 6.4483648082e+00 -3.5185345930e-02 1.4864657831e+00 -2.5746342600e+00 1.4864657831e+00 2.5746342600e+00 
1300 6.4452938424e+00 -3.5517378697e-02 1.4876494636e+00 -2.5766844547e+00 1.4876494636e+00 2.5766844547e+00 
1400 6.4423128069e+00 -3.5855406980e-02 1.4888433646e+00 -2.5787523520e+00 1.4888433646e+00 2.5787523520e+00 
1500 6.4394183217e+00 -3.6197465764e-02 1.4900476631e+00 -2.5808382582e+00 1.4900476631e+00 2.5808382582e+00 
1600 6.4366070795e+00 -3.6541868526e-02 1.4912624692e+00 -2.5829423641e+00 1.4912624692e+00 2.5829423641e+00 
1700 6.4338758658e+00 -3.6887162532e-02 1.4924878359e+00 -2.5850647615e+00 1.4924878359e+00 2.5850647615e+00 
1800 6.4312215714e+00 -3.7232092471e-02 1.4937237672e+00 -2.5872054573e+00 1.4937237672e+00 2.5872054573e+00 
1900 6.4286412002e+00 -3.7575570755e-02 1.4949702248e+00 -2.5893643851e+00 1.4949702248e+00 2.5893643851e+00 
2000 6.4261318726e+00 -3.7916653181e-02 1.4962271338e+00 -2.5915414154e+00 1.4962271338e+00 2.5915414154e+00 
2100 6.4236908260e+00 -3.8254518897e-02 1.4974943879e+00 -2.5937363639e+00 1.4974943879e+00 2.5937363639e+00 
2200 6.4213154133e+00 -3.8588453831e-02 1.4987718535e+00 -2.5959489993e+00 1.4987718535e+00 2.5959489993e+00 
2300 6.4190030997e+00 -3.8917836922e-02 1.5000593735e+00 -2.5981790493e+00 1.5000593735e+00 2.5981790493e+00 
2400 6.4167514587e+00 -3.9242128612e-02 1.5013567702e+00 -2.6004262062e+00 1.5013567702e+00 2.6004262062e+00 
2500 6.4145581666e+00 -3.9560861160e-02 1.5026638485e+00 -2.6026901323e+00 1.5026638485e+00 2.6026901323e+00 
2600 6.4124209976e+00 -3.9873630434e-02 1.5039803982e+00 -2.6049704632e+00 1.5039803982e+00 2.6049704632e+00 
2700 6.4103378180e+00 -4.0180088908e-02 1.5053061961e+00 -2.6072668126e+00 1.5053061961e+00 2.6072668126e+00 
2800 6.4083065808e+00 -4.0479939620e-02 1.5066410083e+00 -2.6095787751e+00 1.5066410083e+00 2.6095787751e+00 
2900 6.4063253201e+00 -4.0772930922e-02 1.5079845915e+00 -2.6119059294e+00 1.5079845915e+00 2.6119059294e+00 
3000 6.4043921460e+00 -4.1058851873e-02 1.5093366947e+00 -2.6142478410e+00 1.5093366947e+00 2.6142478410e+00 
3100 6.4025052396e+00 -4.1337528142e-02 1.5106970609e+00 -2.6166040644e+00 1.5106970609e+00 2.6166040644e+00 
3200 6.4006628483e+00 -4.1608818352e-02 1.5120654280e+00 -2.6189741457e+00 1.5120654280e+00 2.6189741457e+00 
3300 6.3988632819e+00 -4.1872610759e-02 1.5134415299e+00 -2.6213576241e+00 1.5134415299e+00 2.6213576241e+00 
3400 6.3971049085e+00 -4.2128820230e-02 1.5148250979e+00 -2.6237540341e+00 1.5148250979e+00 2.6237540341e+00 
3500 6.3953861512e+00 -4.2377385450e-02 1.5162158611e+00 -2.6261629066e+00 1.5162158611e+00 2.6261629066e+00 
3600 6.3937054849e+00 -4.2618266340e-02 1.5176135476e+00 -2.6285837707e+00 1.5176135476e+00 2.6285837707e+00 
3700 6.3920614340e+00 -4.2851441646e-02 1.5190178851e+00 -2.6310161545e+00 1.5190178851e+00 2.6310161545e+00 
3800 6.3904525695e+00 -4.3076906668e-02 1.5204286014e+00 -2.6334595869e+00 1.5204286014e+00 2.6334595869e+00 
3900 6.3888775076e+00 -4.3294671137e-02 1.5218454252e+00 -2.6359135978e+00 1.5218454252e+00 2.6359135978e+00 
4000 6.3873349079e+00 -4.3504757198e-02 1.5232680865e+00 -2.6383777193e+00 1.5232680865e+00 2.6383777193e+00 
4100 6.3858234721e+00 -4.3707197511e-02 1.5246963166e+00 -2.6408514865e+00 1.5246963166e+00 2.6408514865e+00 
4200 6.3843419426e+00 -4.3902033452e-02 1.5261298493e+00 -2.6433344379e+00 1.5261298493e+00 2.6433344379e+00 
4300 6.3828891021e+00 -4.4089313422e-02 1.5275684203e+00 -2.6458261159e+00 1.5275684203e+00 2.6458261159e+00 
4400 6.3814637730e+00 -4.4269091240e-02 1.5290117680e+00 -2.6483260676e+00 1.5290117680e+00 2.6483260676e+00 
4500 6.3800648164e+00 -4.4441424648e-02 1.5304596336e+00 -2.6508338443e+00 1.5304596336e+00 2.6508338443e+00 
4600 6.3786911325e+00 -4.4606373902e-02 1.5319117609e+00 -2.6533490026e+00 1.5319117609e+00 2.6533490026e+00 
4700 6.3773416600e+00 -4.4764000460e-02 1.5333678968e+00 -2.6558711039e+00 1.5333678968e+00 2.6558711039e+00 
4800 6.3760153764e+00 -4.4914365776e-02 1.5348277909e+00 -2.6583997147e+00 1.5348277909e+00 2.6583997147e+00 
4900 6.3747112975e+00 -4.5057530179e-02 1.5362911960e+00 -2.6609344066e+00 1.5362911960e+00 2.6609344066e+00 
5000 6.3734284780e+00 -4.5193551859e-02 1.5377578675e+00 -2.6634747562e+00 1.5377578675e+00 2.6634747562e+00 
5100 6.3721660113e+00 -4.5322485951e-02 1.5392275639e+00 -2.6660203450e+00 1.5392275639e+00 2.6660203450e+00 
5200 6.3709230297e+00 -4.5444383715e-02 1.5407000461e+00 -2.6685707590e+00 1.5407000461e+00 2.6685707590e+00 
5300 6.3696987045e+00 -4.5559291817e-02 1.5421750777e+00 -2.6711255888e+00 1.5421750777e+00 2.6711255888e+00 
5400 6.3684922459e+00 -4.5667251709e-02 1.5436524248e+00 -2.6736844290e+00 1.5436524248e+00 2.6736844290e+00 
5500 6.3673029033e+00 -4.5768299106e-02 1.5451318556e+00 -2.6762468783e+00 1.5451318556e+00 2.6762468783e+00 
5600 6.3661299652e+00 -4.5862463556e-02 1.5466131403e+00 -2.6788125387e+00 1.5466131403e+00 2.6788125387e+00 
5700 6.3649727588e+00 -4.5949768111e-02 1.5480960510e+00 -2.6813810154e+00 1.5480960510e+00 2.6813810154e+00 
5800 6.3638306503e+00 -4.6030229083e-02 1.5495803615e+00 -2.6839519165e+00 1.5495803615e+00 2.6839519165e+00 
5900 6.3627030443e+00 -4.6103855891e-02 1.5510658467e+00 -2.6865248524e+00 1.5510658467e+00 2.6865248524e+00 
6000 6.3615893836e+00 -4.6170650995e-02 1.5525522830e+00 -2.6890994356e+00 1.5525522830e+00 2.6890994356e+00 
6100 6.3604891487e+00 -4.6230609914e-02 1.5540394475e+00 -2.6916752801e+00 1.5540394475e+00 2.6916752801e+00 
6200 6.3594018572e+00 -4.6283721316e-02 1.5555271182e+00 -2.6942520013e+00 1.5555271182e+00 2.6942520013e+00 
6300 6.3583270634e+00 -4.6329967184e-02 1.5570150734e+00 -2.6968292152e+00 1.5570150734e+00 2.6968292152e+00 
6400 6.3572643573e+00 -4.6369323059e-02 1.5585030917e+00 -2.6994065385e+00 1.5585030917e+00 2.6994065385e+00 
6500 6.3562133640e+00 -4.6401758335e-02 1.5599909518e+00 -2.7019835879e+00 1.5599909518e+00 2.7019835879e+00 
6600 6.3551737425e+00 -4.6427236620e-02 1.5614784324e+00 -2.7045599798e+00 1.5614784324e+00 2.7045599798e+00 
6700 6.3541451852e+00 -4.6445716155e-02 1.5629653116e+00 -2.7071353301e+00 1.5629653116e+00 2.7071353301e+00 
6800 6.3531274160e+00 -4.6457150272e-02 1.5644513672e+00 -2.7097092540e+00 1.5644513672e+00 2.7097092540e+00 
6900 6.3521201900e+00 -4.6461487906e-02 1.5659363764e+00 -2.7122813653e+00 1.5659363764e+00 2.7122813653e+00 
7000 6.3511232916e+00 -4.6458674138e-02 1.5674201154e+00 -2.7148512766e+00 1.5674201154e+00 2.7148512766e+00 
7100 6.3501365334e+00 -4.6448650776e-02 1.5689023596e+00 -2.7174185989e+00 1.5689023596e+00 2.7174185989e+00 
7200 6.3491597552e+00 -4.6431356958e-02 1.5703828835e+00 -2.7199829415e+00 1.5703828835e+00 2.7199829415e+00 
7300 6.3481928218e+00 -4.6406729785e-02 1.5718614603e+00 -2.7225439117e+00 1.5718614603e+00 2.7225439117e+00 
7400 6.3472356223e+00 -4.6374704965e-02 1.5733378622e+00 -2.7251011149e+00 1.5733378622e+00 2.7251011149e+00 
7500 6.3462880679e+00 -4.6335217472e-02 1.5748118603e+00 -2.7276541544e+00 1.5748118603e+00 2.7276541544e+00 
7600 6.3453500909e+00 -4.6288202215e-02 1.5762832241e+00 -2.7302026313e+00 1.5762832241e+00 2.7302026313e+00 
7700 6.3444216431e+00 -4.6233594702e-02 1.5777517223e+00 -2.7327461448e+00 1.5777517223e+00 2.7327461448e+00 
7800 6.3435026939e+00 -4.6171331716e-02 1.5792171222e+00 -2.7352842919e+00 1.5792171222e+00 2.7352842919e+00 
7900 6.3425932289e+00 -4.6101351970e-02 1.5806791900e+00 -2.7378166675e+00 1.5806791900e+00 2.7378166675e+00 
8000 6.3416932483e+00 -4.6023596769e-02 1.5821376907e+00 -2.7403428648e+00 1.5821376907e+00 2.7403428648e+00 
8100 6.3408027657e+00 -4.5938010638e-02 1.5835923884e+00 -2.7428624752e+00 1.5835923884e+00 2.7428624752e+00 
8200 6.3399218058e+00 -4.5844541959e-02 1.5850430463e+00 -2.7453750884e+00 1.5850430463e+00 2.7453750884e+00 
8300 6.3390504037e+00 -4.5743143563e-02 1.5864894268e+00 -2.7478802929e+00 1.5864894268e+00 2.7478802929e+00 
8400 6.3381886028e+00 -4.5633773318e-02 1.5879312916e+00 -2.7503776760e+00 1.5879312916e+00 2.7503776760e+00 
8500 6.3373364537e+00 -4.5516394680e-02 1.5893684019e+00 -2.7528668241e+00 1.5893684019e+00 2.7528668241e+00 
8600 6.3364940127e+00 -4.5390977221e-02 1.5908005187e+00 -2.7553473231e+00 1.5908005187e+00 2.7553473231e+00 
8700 6.3356613405e+00 -4.5257497128e-02 1.5922274027e+00 -2.7578187587e+00 1.5922274027e+00 2.7578187587e+00 
8800 6.3348385008e+00 -4.5115937667e-02 1.5936488147e+00 -2.7602807165e+00 1.5936488147e+00 2.7602807165e+00 
8900 6.3340255589e+00 -4.4966289610e-02 1.5950645159e+00 -2.7627327829e+00 1.5950645159e+00 2.7627327829e+00 
9000 6.3332225810e+00 -4.4808551639e-02 1.5964742679e+00 -2.7651745449e+00 1.5964742679e+00 2.7651745449e+00 
9100 6.3324296327e+00 -4.4642730699e-02 1.5978778329e+00 -2.7676055909e+00 1.5978778329e+00 2.7676055909e+00 
9200 6.3316467780e+00 -4.4468842326e-02 1.5992749745e+00 -2.7700255111e+00 1.5992749745e+00 2.7700255111e+00 
9300 6.3308740784e+00 -4.4286910926e-02 1.6006654571e+00 -2.7724338975e+00 1.6006654571e+00 2.7724338975e+00 
9400 6.3301115920e+00 -4.4096970027e-02 1.6020490468e+00 -2.7748303452e+00 1.6020490468e+00 2.7748303452e+00 
9500 6.3293593724e+00 -4.3899062484e-02 1.6034255114e+00 -2.7772144519e+00 1.6034255114e+00 2.7772144519e+00 
9600 6.3286174685e+00 -4.3693240645e-02 1.6047946210e+00 -2.7795858192e+00 1.6047946210e+00 2.7795858192e+00 
9700 6.3278859232e+00 -4.3479566486e-02 1.6061561476e+00 -2.7819440526e+00 1.6061561476e+00 2.7819440526e+00 
9800 6.3271647731e+00 -4.3258111701e-02 1.6075098662e+00 -2.7842887619e+00 1.6075098662e+00 2.7842887619e+00 
9900 6.3264540479e+00 -4.3028957752e-02 1.6088555544e+00 -2.7866195623e+00 1.6088555544e+00 2.7866195623e+00 
10000 6.3257537700e+00 -4.2792195890e-02 1.6101929931e+00 -2.7889360740e+00 1.6101929931e+00 2.7889360740e+00 
10100 6.3250639539e+00 -4.2547927129e-02 1.6115219666e+00 -2.7912379237e+00 1.6115219666e+00 2.7912379237e+00 
10200 6.3243846060e+00 -4.2296262193e-02 1.6128422630e+00 -2.7935247440e+00 1.6128422630e+00 2.7935247440e+00 
10300 6.3237157244e+00 -4.2037321425e-02 1.6141536742e+00 -2.7957961749e+00 1.6141536742e+00 2.7957961749e+00 
10400 6.3230572988e+00 -4.1771234654e-02 1.6154559965e+00 -2.7980518634e+00 1.6154559965e+00 2.7980518634e+00 
10500 6.3224093098e+00 -4.1498141048e-02 1.6167490309e+00 -2.8002914646e+00 1.6167490309e+00 2.8002914646e+00 
10600 6.3217717296e+00 -4.1218188914e-02 1.6180325828e+00 -2.8025146418e+00 1.6180325828e+00 2.8025146418e+00 
10700 6.3211445214e+00 -4.0931535483e-02 1.6193064630e+00 -2.8047210669e+00 1.6193064630e+00 2.8047210669e+00 
10800 6.3205276399e+00 -4.0638346664e-02 1.6205704873e+00 -2.8069104213e+00 1.6205704873e+00 2.8069104213e+00 
10900 6.3199210310e+00 -4.0338796762e-02 1.6218244773e+00 -2.8090823957e+00 1.6218244773e+00 2.8090823957e+00 
11000 6.3193246320e+00 -4.0033068185e-02 1.6230682601e+00 -2.8112366907e+00 1.6230682601e+00 2.8112366907e+00 
11100 6.3187383723e+00 -3.9721351112e-02 1.6243016689e+00 -2.8133730174e+00 1.6243016689e+00 2.8133730174e+00 
11200 6.3181621730e+00 -3.9403843151e-02 1.6255245431e+00 -2.8154910976e+00 1.6255245431e+00 2.8154910976e+00 
11300 6.3175959472e+00 -3.9080748970e-02 1.6267367283e+00 -2.8175906640e+00 1.6267367283e+00 2.8175906640e+00 
11400 6.3170396010e+00 -3.8752279911e-02 1.6279380768e+00 -2.8196714606e+00 1.6279380768e+00 2.8196714606e+00 
11500 6.3164930331e+00 -3.8418653584e-02 1.6291284476e+00 -2.8217332433e+00 1.6291284476e+00 2.8217332433e+00 
11600 6.3159561355e+00 -3.8080093454e-02 1.6303077065e+00 -2.8237757797e+00 1.6303077065e+00 2.8237757797e+00 
11700 6.3154287939e+00 -3.7736828404e-02 1.6314757264e+00 -2.8257988495e+00 1.6314757264e+00 2.8257988495e+00 
11800 6.3149108878e+00 -3.7389092291e-02 1.6326323873e+00 -2.8278022449e+00 1.6326323873e+00 2.8278022449e+00 
11900 6.3144022917e+00 -3.7037123495e-02 1.6337775765e+00 -2.8297857708e+00 1.6337775765e+00 2.8297857708e+00 
12000 6.3139028746e+00 -3.6681164455e-02 1.6349111887e+00 -2.8317492447e+00 1.6349111887e+00 2.8317492447e+00 
12100 6.3134125012e+00 -3.6321461197e-02 1.6360331260e+00 -2.8336924971e+00 1.6360331260e+00 2.8336924971e+00 
12200 6.3129310320e+00 -3.5958262863e-02 1.6371432981e+00 -2.8356153715e+00 1.6371432981e+00 2.8356153715e+00 
12300 6.3124583238e+00 -3.5591821232e-02 1.6382416222e+00 -2.8375177247e+00 1.6382416222e+00 2.8375177247e+00 
12400 6.3119942302e+00 -3.5222390242e-02 1.6393280234e+00 -2.8393994267e+00 1.6393280234e+00 2.8393994267e+00 
12500 6.3115386025e+00 -3.4850225509e-02 1.6404024342e+00 -2.8412603608e+00 1.6404024342e+00 2.8412603608e+00 
12600 6.3110912893e+00 -3.4475583847e-02 1.6414647950e+00 -2.8431004237e+00 1.6414647950e+00 2.8431004237e+00 
12700 6.3106521377e+00 -3.4098722797e-02 1.6425150538e+00 -2.8449195253e+00 1.6425150538e+00 2.8449195253e+00 
12800 6.3102209937e+00 -3.3719900151e-02 1.6435531664e+00 -2.8467175891e+00 1.6435531664e+00 2.8467175891e+00 
12900 6.3097977021e+00 -3.3339373489e-02 1.6445790963e+00 -2.8484945518e+00 1.6445790963e+00 2.8484945518e+00 
13000 6.3093821077e+00 -3.2957399721e-02 1.6455928145e+00 -2.8502503633e+00 1.6455928145e+00 2.8502503633e+00 
13100 6.3089740550e+00 -3.2574234633e-02 1.6465942998e+00 -2.8519849867e+00 1.6465942998e+00 2.8519849867e+00 
13200 6.3085733891e+00 -3.2190132449e-02 1.6475835384e+00 -2.8536983983e+00 1.6475835384e+00 2.8536983983e+00 
13300 6.3081799560e+00 -3.1805345397e-02 1.6485605241e+00 -2.8553905872e+00 1.6485605241e+00 2.8553905872e+00 
13400 6.3077936027e+00 -3.1420123292e-02 1.6495252581e+00 -2.8570615553e+00 1.6495252581e+00 2.8570615553e+00 
13500 6.3074141778e+00 -3.1034713127e-02 1.6504777486e+00 -2.8587113174e+00 1.6504777486e+00 2.8587113174e+00 
13600 6.3070415319e+00 -3.0649358682e-02 1.6514180115e+00 -2.8603399004e+00 1.6514180115e+00 2.8603399004e+00 
13700 6.3066755176e+00 -3.0264300140e-02 1.6523460693e+00 -2.8619473437e+00 1.6523460693e+00 2.8619473437e+00 
13800 6.3063159901e+00 -2.9879773726e-02 1.6532619517e+00 -2.8635336986e+00 1.6532619517e+00 2.8635336986e+00 
13900 6.3059628071e+00 -2.9496011358e-02 1.6541656952e+00 -2.8650990282e+00 1.6541656952e+00 2.8650990282e+00 
14000 6.3056158294e+00 -2.9113240312e-02 1.6550573428e+00 -2.8666434072e+00 1.6550573428e+00 2.8666434072e+00 
14100 6.3052749208e+00 -2.8731682906e-02 1.6559369443e+00 -2.8681669217e+00 1.6559369443e+00 2.8681669217e+00 
14200 6.3049399485e+00 -2.8351556202e-02 1.6568045556e+00 -2.8696696684e+00 1.6568045556e+00 2.8696696684e+00 
14300 6.3046107833e+00 -2.7973071728e-02 1.6576602387e+00 -2.8711517551e+00 1.6576602387e+00 2.8711517551e+00 
14400 6.3042872993e+00 -2.7596435208e-02 1.6585040619e+00 -2.8726132998e+00 1.6585040619e+00 2.8726132998e+00 
14500 6.3039693745e+00 -2.7221846321e-02 1.6593360991e+00 -2.8740544305e+00 1.6593360991e+00 2.8740544305e+00 
14600 6.3036568908e+00 -2.6849498476e-02 1.6601564299e+00 -2.8754752850e+00 1.6601564299e+00 2.8754752850e+00 
14700 6.3033497339e+00 -2.6479578600e-02 1.6609651391e+00 -2.8768760105e+00 1.6609651391e+00 2.8768760105e+00 
14800 6.3030477932e+00 -2.6112266949e-02 1.6617623170e+00 -2.8782567632e+00 1.6617623170e+00 2.8782567632e+00 
14900 6.3027509623e+00 -2.5747736942e-02 1.6625480589e+00 -2.8796177080e+00 1.6625480589e+00 2.8796177080e+00 
15000 6.3024591386e+00 -2.5386155000e-02 1.6633224646e+00 -2.8809590181e+00 1.6633224646e+00 2.8809590181e+00 
15100 6.3021722235e+00 -2.5027680420e-02 1.6640856388e+00 -2.8822808745e+00 1.6640856388e+00 2.8822808745e+00 
15200 6.3018901222e+00 -2.4672465255e-02 1.6648376904e+00 -2.8835834661e+00 1.6648376904e+00 2.8835834661e+00 
15300 6.3016127438e+00 -2.4320654217e-02 1.6655787324e+00 -2.8848669886e+00 1.6655787324e+00 2.8848669886e+00 
15400 6.3013400010e+00 -2.3972384599e-02 1.6663088819e+00 -2.8861316446e+00 1.6663088819e+00 2.8861316446e+00 
15500 6.3010718103e+00 -2.3627786208e-02 1.6670282596e+00 -2.8873776433e+00 1.6670282596e+00 2.8873776433e+00 
15600 6.3008080919e+00 -2.3286981324e-02 1.6677369897e+00 -2.8886051997e+00 1.6677369897e+00 2.8886051997e+00 
15700 6.3005487690e+00 -2.2950084671e-02 1.6684351994e+00 -2.8898145345e+00 1.6684351994e+00 2.8898145345e+00 
15800 6.3002937688e+00 -2.2617203402e-02 1.6691230194e+00 -2.8910058737e+00 1.6691230194e+00 2.8910058737e+00 
15900 6.3000430210e+00 -2.2288437104e-02 1.6698005828e+00 -2.8921794479e+00 1.6698005828e+00 2.8921794479e+00 
16000 6.2997964590e+00 -2.1963877819e-02 1.6704680254e+00 -2.8933354924e+00 1.6704680254e+00 2.8933354924e+00 
16100 6.2995540188e+00 -2.1643610072e-02 1.6711254854e+00 -2.8944742465e+00 1.6711254854e+00 2.8944742465e+00 
16200 6.2993156391e+00 -2.1327710926e-02 1.6717731030e+00 -2.8955959532e+00 1.6717731030e+00 2.8955959532e+00 
16300 6.2990812614e+00 -2.1016250040e-02 1.6724110205e+00 -2.8967008587e+00 1.6724110205e+00 2.8967008587e+00 
16400 6.2988508296e+00 -2.0709289742e-02 1.6730393818e+00 -2.8977892123e+00 1.6730393818e+00 2.8977892123e+00 
16500 6.2986242900e+00 -2.0406885123e-02 1.6736583321e+00 -2.8988612658e+00 1.6736583321e+00 2.8988612658e+00 
16600 6.2984015907e+00 -2.0109084129e-02 1.6742680182e+00 -2.8999172730e+00 1.6742680182e+00 2.8999172730e+00 
16700 6.2981826823e+00 -1.9815927678e-02 1.6748685877e+00 -2.9009574899e+00 1.6748685877e+00 2.9009574899e+00 
16800 6.2979675166e+00 -1.9527449778e-02 1.6754601892e+00 -2.9019821737e+00 1.6754601892e+00 2.9019821737e+00 
16900 6.2977560476e+00 -1.9243677659e-02 1.6760429718e+00 -2.9029915828e+00 1.6760429718e+00 2.9029915828e+00 
17000 6.2975482304e+00 -1.8964631919e-02 1.6766170852e+00 -2.9039859764e+00 1.6766170852e+00 2.9039859764e+00 
17100 6.2973440217e+00 -1.8690326667e-02 1.6771826794e+00 -2.9049656143e+00 1.6771826794e+00 2.9049656143e+00 
17200 6.2971433791e+00 -1.8420769688e-02 1.6777399044e+00 -2.9059307563e+00 1.6777399044e+00 2.9059307563e+00 
17300 6.2969462615e+00 -1.8155962603e-02 1.6782889100e+00 -2.9068816619e+00 1.6782889100e+00 2.9068816619e+00 
17400 6.2967526287e+00 -1.7895901050e-02 1.6788298460e+00 -2.9078185906e+00 1.6788298460e+00 2.9078185906e+00 
17500 6.2965624410e+00 -1.7640574856e-02 1.6793628616e+00 -2.9087418006e+00 1.6793628616e+00 2.9087418006e+00 
17600 6.2963756597e+00 -1.7389968226e-02 1.6798881052e+00 -2.9096515493e+00 1.6798881052e+00 2.9096515493e+00 
17700 6.2961922464e+00 -1.7144059935e-02 1.6804057248e+00 -2.9105480928e+00 1.6804057248e+00 2.9105480928e+00 
17800 6.2960121632e+00 -1.6902823521e-02 1.6809158673e+00 -2.9114316855e+00 1.6809158673e+00 2.9114316855e+00 
17900 6.2958353724e+00 -1.6666227484e-02 1.6814186785e+00 -2.9123025800e+00 1.6814186785e+00 2.9123025800e+00 
18000 6.2956618366e+00 -1.6434235492e-02 1.6819143030e+00 -2.9131610268e+00 1.6819143030e+00 2.9131610268e+00 
18100 6.2954915187e+00 -1.6206806585e-02 1.6824028841e+00 -2.9140072741e+00 1.6824028841e+00 2.9140072741e+00 
18200 6.2953243813e+00 -1.5983895384e-02 1.6828845636e+00 -2.9148415675e+00 1.6828845636e+00 2.9148415675e+00 
18300 6.2951603873e+00 -1.5765452299e-02 1.6833594817e+00 -2.9156641497e+00 1.6833594817e+00 2.9156641497e+00 
18400 6.2949994993e+00 -1.5551423747e-02 1.6838277769e+00 -2.9164752608e+00 1.6838277769e+00 2.9164752608e+00 
18500 6.2948416799e+00 -1.5341752359e-02 1.6842895859e+00 -2.9172751374e+00 1.6842895859e+00 2.9172751374e+00 
18600 6.2946868915e+00 -1.5136377197e-02 1.6847450433e+00 -2.9180640127e+00 1.6847450433e+00 2.9180640127e+00 
18700 6.2945350962e+00 -1.4935233965e-02 1.6851942819e+00 -2.9188421168e+00 1.6851942819e+00 2.9188421168e+00 
18800 6.2943862559e+00 -1.4738255225e-02 1.6856374322e+00 -2.9196096757e+00 1.6856374322e+00 2.9196096757e+00 
18900 6.2942403322e+00 -1.4545370610e-02 1.6860746227e+00 -2.9203669118e+00 1.6860746227e+00 2.9203669118e+00 
19000 6.2940972865e+00 -1.4356507031e-02 1.6865059793e+00 -2.9211140435e+00 1.6865059793e+00 2.9211140435e+00 
19100 6.2939570798e+00 -1.4171588892e-02 1.6869316259e+00 -2.9218512850e+00 1.6869316259e+00 2.9218512850e+00 
19200 6.2938196729e+00 -1.3990538298e-02 1.6873516838e+00 -2.9225788465e+00 1.6873516838e+00 2.9225788465e+00 
19300 6.2936850261e+00 -1.3813275257e-02 1.6877662716e+00 -2.9232969338e+00 1.6877662716e+00 2.9232969338e+00 
19400 6.2935530996e+00 -1.3639717887e-02 1.6881755058e+00 -2.9240057482e+00 1.6881755058e+00 2.9240057482e+00 
19500 6.2934238532e+00 -1.3469782617e-02 1.6885795000e+00 -2.9247054866e+00 1.6885795000e+00 2.9247054866e+00 
19600 6.2932972466e+00 -1.3303384383e-02 1.6889783652e+00 -2.9253963415e+00 1.6889783652e+00 2.9253963415e+00 
19700 6.2931732391e+00 -1.3140436823e-02 1.6893722099e+00 -2.9260785004e+00 1.6893722099e+00 2.9260785004e+00 
19800 6.2930517898e+00 -1.2980852469e-02 1.6897611396e+00 -2.9267521464e+00 1.6897611396e+00 2.9267521464e+00 
19900 6.2929328577e+00 -1.2824542932e-02 1.6901452573e+00 -2.9274174578e+00 1.6901452573e+00 2.9274174578e+00 
20000 6.2928164016e+00 -1.2671419088e-02 1.6905246632e+00 -2.9280746082e+00 1.6905246632e+00 2.9280746082e+00 
20100 6.2927023802e+00 -1.2521391252e-02 1.6908994548e+00 -2.9287237662e+00 1.6908994548e+00 2.9287237662e+00 
20200 6.2925907521e+00 -1.2374369358e-02 1.6912697266e+00 -2.9293650958e+00 1.6912697266e+00 2.9293650958e+00 
20300 6.2924814758e+00 -1.2230263125e-02 1.6916355705e+00 -2.9299987560e+00 1.6916355705e+00 2.9299987560e+00 
20400 6.2923745099e+00 -1.2088982221e-02 1.6919970757e+00 -2.9306249013e+00 1.6919970757e+00 2.9306249013e+00 
20500 6.2922698131e+00 -1.1950436427e-02 1.6923543283e+00 -2.9312436810e+00 1.6923543283e+00 2.9312436810e+00 
20600 6.2921673439e+00 -1.1814535786e-02 1.6927074119e+00 -2.9318552397e+00 1.6927074119e+00 2.9318552397e+00 
20700 6.2920670612e+00 -1.1681190761e-02 1.6930564073e+00 -2.9324597175e+00 1.6930564073e+00 2.9324597175e+00 
20800 6.2919689241e+00 -1.1550312370e-02 1.6934013925e+00 -2.9330572493e+00 1.6934013925e+00 2.9330572493e+00 
20900 6.2918728916e+00 -1.1421812331e-02 1.6937424427e+00 -2.9336479657e+00 1.6937424427e+00 2.9336479657e+00 
21000 6.2917789231e+00 -1.1295603195e-02 1.6940796307e+00 -2.9342319924e+00 1.6940796307e+00 2.9342319924e+00 
21100 6.2916869785e+00 -1.1171598470e-02 1.6944130263e+00 -2.9348094505e+00 1.6944130263e+00 2.9348094505e+00 
21200 6.2915970177e+00 -1.1049712748e-02 1.6947426968e+00 -2.9353804566e+00 1.6947426968e+00 2.9353804566e+00 
21300 6.2915090010e+00 -1.0929861819e-02 1.6950687070e+00 -2.9359451228e+00 1.6950687070e+00 2.9359451228e+00 
21400 6.2914228894e+00 -1.0811962781e-02 1.6953911189e+00 -2.9365035567e+00 1.6953911189e+00 2.9365035567e+00 
21500 6.2913386440e+00 -1.0695934146e-02 1.6957099923e+00 -2.9370558615e+00 1.6957099923e+00 2.9370558615e+00 
21600 6.2912562264e+00 -1.0581695942e-02 1.6960253842e+00 -2.9376021364e+00 1.6960253842e+00 2.9376021364e+00 
21700 6.2911755988e+00 -1.0469169801e-02 1.6963373495e+00 -2.9381424761e+00 1.6963373495e+00 2.9381424761e+00 
21800 6.2910967239e+00 -1.0358279050e-02 1.6966459405e+00 -2.9386769713e+00 1.6966459405e+00 2.9386769713e+00 
21900 6.2910195649e+00 -1.0248948792e-02 1.6969512071e+00 -2.9392057087e+00 1.6969512071e+00 2.9392057087e+00 
22000 6.2909440855e+00 -1.0141105982e-02 1.6972531973e+00 -2.9397287711e+00 1.6972531973e+00 2.9397287711e+00 
22100 6.2908702501e+00 -1.0034679497e-02 1.6975519566e+00 -2.9402462374e+00 1.6975519566e+00 2.9402462374e+00 
22200 6.2907980236e+00 -9.9296002024e-03 1.6978475285e+00 -2.9407581828e+00 1.6978475285e+00 2.9407581828e+00 
22300 6.2907273716e+00 -9.8258010060e-03 1.6981399542e+00 -2.9412646790e+00 1.6981399542e+00 2.9412646790e+00 
22400 6.2906582602e+00 -9.7232169160e-03 1.6984292731e+00 -2.9417657940e+00 1.6984292731e+00 2.9417657940e+00 
22500 6.2905906563e+00 -9.6217850860e-03 1.6987155226e+00 -2.9422615927e+00 1.6987155226e+00 2.9422615927e+00 
22600 6.2905245273e+00 -9.5214448577e-03 1.6989987381e+00 -2.9427521364e+00 1.6989987381e+00 2.9427521364e+00 
22700 6.2904598412e+00 -9.4221377972e-03 1.6992789533e+00 -2.9432374834e+00 1.6992789533e+00 2.9432374834e+00 
22800 6.2903965669e+00 -9.3238077260e-03 1.6995562002e+00 -2.9437176890e+00 1.6995562002e+00 2.9437176890e+00 
22900 6.2903346738e+00 -9.2264007471e-03 1.6998305088e+00 -2.9441928055e+00 1.6998305088e+00 2.9441928055e+00 
23000 6.2902741318e+00 -9.1298652656e-03 1.7001019078e+00 -2.9446628823e+00 1.7001019078e+00 2.9446628823e+00 
23100 6.2902149117e+00 -9.0341520041e-03 1.7003704242e+00 -2.9451279664e+00 1.7003704242e+00 2.9451279664e+00 
23200 6.2901569849e+00 -8.9392140132e-03 1.7006360836e+00 -2.9455881020e+00 1.7006360836e+00 2.9455881020e+00 
23300 6.2901003234e+00 -8.8450066775e-03 1.7008989101e+00 -2.9460433308e+00 1.7008989101e+00 2.9460433308e+00 
23400 6.2900448997e+00 -8.7514877161e-03 1.7011589265e+00 -2.9464936924e+00 1.7011589265e+00 2.9464936924e+00 
23500 6.2899906872e+00 -8.6586171793e-03 1.7014161543e+00 -2.9469392241e+00 1.7014161543e+00 2.9469392241e+00 
23600 6.2899376597e+00 -8.5663574399e-03 1.7016706139e+00 -2.9473799610e+00 1.7016706139e+00 2.9473799610e+00 
23700 6.2898857917e+00 -8.4746731811e-03 1.7019223244e+00 -2.9478159364e+00 1.7019223244e+00 2.9478159364e+00 
23800 6.2898350583e+00 -8.3835313793e-03 1.7021713041e+00 -2.9482471818e+00 1.7021713041e+00 2.9482471818e+00 
23900 6.2897854352e+00 -8.2929012834e-03 1.7024175699e+00 -2.9486737268e+00 1.7024175699e+00 2.9486737268e+00 
24000 6.2897368986e+00 -8.2027543901e-03 1.7026611382e+00 -2.9490955994e+00 1.7026611382e+00 2.9490955994e+00 
24100 6.2896894253e+00 -8.1130644151e-03 1.7029020243e+00 -2.9495128264e+00 1.7029020243e+00 2.9495128264e+00 
24200 6.2896429926e+00 -8.0238072610e-03 1.7031402427e+00 -2.9499254329e+00 1.7031402427e+00 2.9499254329e+00 
24300 6.2895975785e+00 -7.9349609815e-03 1.7033758074e+00 -2.9503334428e+00 1.7033758074e+00 2.9503334428e+00 
24400 6.2895531613e+00 -7.8465057427e-03 1.7036087314e+00 -2.9507368790e+00 1.7036087314e+00 2.9507368790e+00 
24500 6.2895097198e+00 -7.7584237808e-03 1.7038390273e+00 -2.9511357632e+00 1.7038390273e+00 2.9511357632e+00 
24600 6.2894672335e+00 -7.6706993572e-03 1.7040667071e+00 -2.9515301163e+00 1.7040667071e+00 2.9515301163e+00 
24700 6.2894256822e+00 -7.5833187108e-03 1.7042917825e+00 -2.9519199582e+00 1.7042917825e+00 2.9519199582e+00 
24800 6.2893850462e+00 -7.4962700072e-03 1.7045142645e+00 -2.9523053083e+00 1.7045142645e+00 2.9523053083e+00 
24900 6.2893453063e+00 -7.4095432861e-03 1.7047341638e+00 -2.9526861851e+00 1.7047341638e+00 2.9526861851e+00 
25000 6.2893064436e+00 -7.3231304063e-03 1.7049514910e+00 -2.9530626068e+00 1.7049514910e+00 2.9530626068e+00 
25100 6.2892684396e+00 -7.2370249882e-03 1.7051662561e+00 -2.9534345910e+00 1.7051662561e+00 2.9534345910e+00 
25200 6.2892312764e+00 -7.1512223547e-03 1.7053784693e+00 -2.9538021550e+00 1.7053784693e+00 2.9538021550e+00 
25300 6.2891949363e+00 -7.0657194706e-03 1.7055881403e+00 -2.9541653158e+00 1.7055881403e+00 2.9541653158e+00 
25400 6.2891594021e+00 -6.9805148799e-03 1.7057952789e+00 -2.9545240904e+00 1.7057952789e+00 2.9545240904e+00 
25500 6.2891246569e+00 -6.8956086421e-03 1.7059998948e+00 -2.9548784954e+00 1.7059998948e+00 2.9548784954e+00 
25600 6.2890906840e+00 -6.8110022671e-03 1.7062019975e+00 -2.9552285476e+00 1.7062019975e+00 2.9552285476e+00 
25700 6.2890574673e+00 -6.7266986490e-03 1.7064015968e+00 -2.9555742638e+00 1.7064015968e+00 2.9555742638e+00 
25800 6.2890249909e+00 -6.6427019994e-03 1.7065987025e+00 -2.9559156608e+00 1.7065987025e+00 2.9559156608e+00 
25900 6.2889932393e+00 -6.5590177795e-03 1.7067933243e+00 -2.9562527557e+00 1.7067933243e+00 2.9562527557e+00 
26000 6.2889621970e+00 -6.4756526318e-03 1.7069854724e+00 -2.9565855659e+00 1.7069854724e+00 2.9565855659e+00 
26100 6.2889318493e+00 -6.3926143117e-03 1.7071751568e+00 -2.9569141091e+00 1.7071751568e+00 2.9569141091e+00 
26200 6.2889021813e+00 -6.3099116184e-03 1.7073623881e+00 -2.9572384031e+00 1.7073623881e+00 2.9572384031e+00 
26300 6.2888731787e+00 -6.2275543260e-03 1.7075471768e+00 -2.9575584665e+00 1.7075471768e+00 2.9575584665e+00 
26400 6.2888448274e+00 -6.1455531144e-03 1.7077295339e+00 -2.9578743182e+00 1.7077295339e+00 2.9578743182e+00 
26500 6.2888171135e+00 -6.0639195012e-03 1.7079094705e+00 -2.9581859776e+00 1.7079094705e+00 2.9581859776e+00 
26600 6.2887900233e+00 -5.9826657726e-03 1.7080869981e+00 -2.9584934645e+00 1.7080869981e+00 2.9584934645e+00 
26700 6.2887635436e+00 -5.9018049161e-03 1.7082621288e+00 -2.9587967997e+00 1.7082621288e+00 2.9587967997e+00 
26800 6.2887376612e+00 -5.8213505530e-03 1.7084348747e+00 -2.9590960044e+00 1.7084348747e+00 2.9590960044e+00 
26900 6.2887123633e+00 -5.7413168720e-03 1.7086052484e+00 -2.9593911002e+00 1.7086052484e+00 2.9593911002e+00 
27000 6.2886876373e+00 -5.6617185635e-03 1.7087732629e+00 -2.9596821100e+00 1.7087732629e+00 2.9596821100e+00 
27100 6.2886634707e+00 -5.5825707551e-03 1.7089389318e+00 -2.9599690569e+00 1.7089389318e+00 2.9599690569e+00 
27200 6.2886398514e+00 -5.5038889479e-03 1.7091022688e+00 -2.9602519649e+00 1.7091022688e+00 2.9602519649e+00 
27300 6.2886167675e+00 -5.4256889543e-03 1.7092632883e+00 -2.9605308588e+00 1.7092632883e+00 2.9605308588e+00 
27400 6.2885942073e+00 -5.3479868365e-03 1.7094220050e+00 -2.9608057642e+00 1.7094220050e+00 2.9608057642e+00 
27500 6.2885721593e+00 -5.2707988477e-03 1.7095784341e+00 -2.9610767074e+00 1.7095784341e+00 2.9610767074e+00 
27600 6.2885506121e+00 -5.1941413731e-03 1.7097325914e+00 -2.9613437156e+00 1.7097325914e+00 2.9613437156e+00 
27700 6.2885295549e+00 -5.1180308736e-03 1.7098844929e+00 -2.9616068167e+00 1.7098844929e+00 2.9616068167e+00 
27800 6.2885089766e+00 -5.0424838309e-03 1.7100341552e+00 -2.9618660394e+00 1.7100341552e+00 2.9618660394e+00 
27900 6.2884888667e+00 -4.9675166940e-03 1.7101815954e+00 -2.9621214134e+00 1.7101815954e+00 2.9621214134e+00 
28000 6.2884692148e+00 -4.8931458279e-03 1.7103268310e+00 -2.9623729689e+00 1.7103268310e+00 2.9623729689e+00 
28100 6.2884500106e+00 -4.8193874640e-03 1.7104698801e+00 -2.9626207372e+00 1.7104698801e+00 2.9626207372e+00 
28200 6.2884312442e+00 -4.7462576520e-03 1.7106107611e+00 -2.9628647502e+00 1.7106107611e+00 2.9628647502e+00 
28300 6.2884129056e+00 -4.6737722141e-03 1.7107494929e+00 -2.9631050408e+00 1.7107494929e+00 2.9631050408e+00 
28400 6.2883949853e+00 -4.6019467017e-03 1.7108860949e+00 -2.9633416423e+00 1.7108860949e+00 2.9633416423e+00 
28500 6.2883774739e+00 -4.5307963526e-03 1.7110205868e+00 -2.9635745891e+00 1.7110205868e+00 2.9635745891e+00 
28600 6.2883603621e+00 -4.4603360521e-03 1.7111529889e+00 -2.9638039163e+00 1.7111529889e+00 2.9638039163e+00 
28700 6.2883436410e+00 -4.3905802943e-03 1.7112833219e+00 -2.9640296596e+00 1.7112833219e+00 2.9640296596e+00 
28800 6.2883273016e+00 -4.3215431475e-03 1.7114116067e+00 -2.9642518555e+00 1.7114116067e+00 2.9642518555e+00 
28900 6.2883113353e+00 -4.2532382194e-03 1.7115378650e+00 -2.9644705412e+00 1.7115378650e+00 2.9644705412e+00 
29000 6.2882957337e+00 -4.1856786268e-03 1.7116621184e+00 -2.9646857545e+00 1.7116621184e+00 2.9646857545e+00 
29100 6.2882804884e+00 -4.1188769655e-03 1.7117843893e+00 -2.9648975338e+00 1.7117843893e+00 2.9648975338e+00 
29200 6.2882655915e+00 -4.0528452830e-03 1.7119047001e+00 -2.9651059184e+00 1.7119047001e+00 2.9651059184e+00 
29300 6.2882510349e+00 -3.9875950539e-03 1.7120230739e+00 -2.9653109477e+00 1.7120230739e+00 2.9653109477e+00 
29400 6.2882368110e+00 -3.9231371563e-03 1.7121395338e+00 -2.9655126622e+00 1.7121395338e+00 2.9655126622e+00 
29500 6.2882229121e+00 -3.8594818512e-03 1.7122541033e+00 -2.9657111025e+00 1.7122541033e+00 2.9657111025e+00 
29600 6.2882093310e+00 -3.7966387634e-03 1.7123668064e+00 -2.9659063098e+00 1.7123668064e+00 2.9659063098e+00 
29700 6.2881960603e+00 -3.7346168643e-03 1.7124776669e+00 -2.9660983260e+00 1.7124776669e+00 2.9660983260e+00 
29800 6.2881830930e+00 -3.6734244579e-03 1.7125867094e+00 -2.9662871931e+00 1.7125867094e+00 2.9662871931e+00 
29900 6.2881704223e+00 -3.6130691668e-03 1.7126939584e+00 -2.9664729538e+00 1.7126939584e+00 2.9664729538e+00 
30000 6.2881580414e+00 -3.5535579221e-03 1.7127994386e+00 -2.9666556508e+00 1.7127994386e+00 2.9666556508e+00 
30100 6.2881459438e+00 -3.4948969542e-03 1.7129031750e+00 -2.9668353276e+00 1.7129031750e+00 2.9668353276e+00 
30200 6.2881341230e+00 -3.4370917851e-03 1.7130051928e+00 -2.9670120276e+00 1.7130051928e+00 2.9670120276e+00 
30300 6.2881225728e+00 -3.3801472238e-03 1.7131055172e+00 -2.9671857946e+00 1.7131055172e+00 2.9671857946e+00 
30400 6.2881112871e+00 -3.3240673623e-03 1.7132041737e+00 -2.9673566726e+00 1.7132041737e+00 2.9673566726e+00 
30500 6.2881002599e+00 -3.2688555737e-03 1.7133011878e+00 -2.9675247060e+00 1.7133011878e+00 2.9675247060e+00 
30600 6.2880894854e+00 -3.2145145126e-03 1.7133965851e+00 -2.9676899389e+00 1.7133965851e+00 2.9676899389e+00 
30700 6.2880789580e+00 -3.1610461160e-03 1.7134903913e+00 -2.9678524160e+00 1.7134903913e+00 2.9678524160e+00 
30800 6.2880686720e+00 -3.1084516065e-03 1.7135826321e+00 -2.9680121817e+00 1.7135826321e+00 2.9680121817e+00 
30900 6.2880586221e+00 -3.0567314972e-03 1.7136733333e+00 -2.9681692808e+00 1.7136733333e+00 2.9681692808e+00 
31000 6.2880488030e+00 -3.0058855974e-03 1.7137625206e+00 -2.9683237577e+00 1.7137625206e+00 2.9683237577e+00 
31100 6.2880392096e+00 -2.9559130204e-03 1.7138502197e+00 -2.9684756571e+00 1.7138502197e+00 2.9684756571e+00 
31200 6.2880298367e+00 -2.9068121918e-03 1.7139364565e+00 -2.9686250236e+00 1.7139364565e+00 2.9686250236e+00 
31300 6.2880206796e+00 -2.8585808601e-03 1.7140212565e+00 -2.9687719015e+00 1.7140212565e+00 2.9687719015e+00 
31400 6.2880117334e+00 -2.8112161078e-03 1.7141046453e+00 -2.9689163352e+00 1.7141046453e+00 2.9689163352e+00 
31500 6.2880029934e+00 -2.7647143639e-03 1.7141866484e+00 -2.9690583687e+00 1.7141866484e+00 2.9690583687e+00 
31600 6.2879944550e+00 -2.7190714173e-03 1.7142672912e+00 -2.9691980462e+00 1.7142672912e+00 2.9691980462e+00 
31700 6.2879861138e+00 -2.6742824319e-03 1.7143465989e+00 -2.9693354111e+00 1.7143465989e+00 2.9693354111e+00 
31800 6.2879779654e+00 -2.6303419615e-03 1.7144245967e+00 -2.9694705072e+00 1.7144245967e+00 2.9694705072e+00 
31900 6.2879700056e+00 -2.5872439667e-03 1.7145013093e+00 -2.9696033774e+00 1.7145013093e+00 2.9696033774e+00 
32000 6.2879622301e+00 -2.5449818324e-03 1.7145767617e+00 -2.9697340647e+00 1.7145767617e+00 2.9697340647e+00 
32100 6.2879546350e+00 -2.5035483854e-03 1.7146509782e+00 -2.9698626116e+00 1.7146509782e+00 2.9698626116e+00 
32200 6.2879472162e+00 -2.4629359137e-03 1.7147239834e+00 -2.9699890602e+00 1.7147239834e+00 2.9699890602e+00 
32300 6.2879399698e+00 -2.4231361857e-03 1.7147958011e+00 -2.9701134522e+00 1.7147958011e+00 2.9701134522e+00 
32400 6.2879328920e+00 -2.3841404705e-03 1.7148664554e+00 -2.9702358290e+00 1.7148664554e+00 2.9702358290e+00 
32500 6.2879259792e+00 -2.3459395582e-03 1.7149359698e+00 -2.9703562314e+00 1.7149359698e+00 2.9703562314e+00 
32600 6.2879192275e+00 -2.3085237816e-03 1.7150043675e+00 -2.9704746997e+00 1.7150043675e+00 2.9704746997e+00 
32700 6.2879126336e+00 -2.2718830369e-03 1.7150716717e+00 -2.9705912740e+00 1.7150716717e+00 2.9705912740e+00 
32800 6.2879061939e+00 -2.2360068064e-03 1.7151379050e+00 -2.9707059934e+00 1.7151379050e+00 2.9707059934e+00 
32900 6.2878999049e+00 -2.2008841800e-03 1.7152030899e+00 -2.9708188969e+00 1.7152030899e+00 2.9708188969e+00 
33000 6.2878937634e+00 -2.1665038779e-03 1.7152672484e+00 -2.9709300228e+00 1.7152672484e+00 2.9709300228e+00 
33100 6.2878877661e+00 -2.1328542736e-03 1.7153304023e+00 -2.9710394086e+00 1.7153304023e+00 2.9710394086e+00 
33200 6.2878819097e+00 -2.0999234158e-03 1.7153925731e+00 -2.9711470915e+00 1.7153925731e+00 2.9711470915e+00 
33300 6.2878761912e+00 -2.0676990519e-03 1.7154537817e+00 -2.9712531079e+00 1.7154537817e+00 2.9712531079e+00 
33400 6.2878706073e+00 -2.0361686509e-03 1.7155140488e+00 -2.9713574937e+00 1.7155140488e+00 2.9713574937e+00 
33500 6.2878651552e+00 -2.0053194258e-03 1.7155733949e+00 -2.9714602841e+00 1.7155733949e+00 2.9714602841e+00 
33600 6.2878598319e+00 -1.9751383567e-03 1.7156318398e+00 -2.9715615137e+00 1.7156318398e+00 2.9715615137e+00 
33700 6.2878546344e+00 -1.9456122136e-03 1.7156894031e+00 -2.9716612163e+00 1.7156894031e+00 2.9716612163e+00 
33800 6.2878495600e+00 -1.9167275789e-03 1.7157461041e+00 -2.9717594251e+00 1.7157461041e+00 2.9717594251e+00 
33900 6.2878446058e+00 -1.8884708694e-03 1.7158019613e+00 -2.9718561727e+00 1.7158019613e+00 2.9718561727e+00 
34000 6.2878397692e+00 -1.8608283592e-03 1.7158569933e+00 -2.9719514910e+00 1.7158569933e+00 2.9719514910e+00 
34100 6.2878350474e+00 -1.8337862007e-03 1.7159112181e+00 -2.9720454110e+00 1.7159112181e+00 2.9720454110e+00 
34200 6.2878304378e+00 -1.8073304470e-03 1.7159646531e+00 -2.9721379632e+00 1.7159646531e+00 2.9721379632e+00 
34300 6.2878259379e+00 -1.7814470724e-03 1.7160173156e+00 -2.9722291773e+00 1.7160173156e+00 2.9722291773e+00 
34400 6.2878215452e+00 -1.7561219940e-03 1.7160692223e+00 -2.9723190824e+00 1.7160692223e+00 2.9723190824e+00 
34500 6.2878172572e+00 -1.7313410913e-03 1.7161203896e+00 -2.9724077067e+00 1.7161203896e+00 2.9724077067e+00 
34600 6.2878130714e+00 -1.7070902272e-03 1.7161708333e+00 -2.9724950777e+00 1.7161708333e+00 2.9724950777e+00 
34700 6.2878089855e+00 -1.6833552666e-03 1.7162205690e+00 -2.9725812225e+00 1.7162205690e+00 2.9725812225e+00 
34800 6.2878049972e+00 -1.6601220962e-03 1.7162696117e+00 -2.9726661670e+00 1.7162696117e+00 2.9726661670e+00 
34900 6.2878011042e+00 -1.6373766429e-03 1.7163179762e+00 -2.9727499367e+00 1.7163179762e+00 2.9727499367e+00 
35000 6.2877973042e+00 -1.6151048914e-03 1.7163656767e+00 -2.9728325564e+00 1.7163656767e+00 2.9728325564e+00 
35100 6.2877935951e+00 -1.5932929025e-03 1.7164127270e+00 -2.9729140500e+00 1.7164127270e+00 2.9729140500e+00 
35200 6.2877899748e+00 -1.5719268293e-03 1.7164591407e+00 -2.9729944408e+00 1.7164591407e+00 2.9729944408e+00 
35300 6.2877864411e+00 -1.5509929337e-03 1.7165049307e+00 -2.9730737515e+00 1.7165049307e+00 2.9730737515e+00 
35400 6.2877829919e+00 -1.5304776025e-03 1.7165501097e+00 -2.9731520038e+00 1.7165501097e+00 2.9731520038e+00 
35500 6.2877796254e+00 -1.5103673619e-03 1.7165946900e+00 -2.9732292190e+00 1.7165946900e+00 2.9732292190e+00 
35600 6.2877763394e+00 -1.4906488925e-03 1.7166386833e+00 -2.9733054177e+00 1.7166386833e+00 2.9733054177e+00 
35700 6.2877731321e+00 -1.4713090430e-03 1.7166821011e+00 -2.9733806196e+00 1.7166821011e+00 2.9733806196e+00 
35800 6.2877700016e+00 -1.4523348431e-03 1.7167249546e+00 -2.9734548440e+00 1.7167249546e+00 2.9734548440e+00 
35900 6.2877669460e+00 -1.4337135164e-03 1.7167672543e+00 -2.9735281093e+00 1.7167672543e+00 2.9735281093e+00 
36000 6.2877639636e+00 -1.4154324923e-03 1.7168090107e+00 -2.9736004334e+00 1.7168090107e+00 2.9736004334e+00 
36100 6.2877610524e+00 -1.3974794166e-03 1.7168502336e+00 -2.9736718337e+00 1.7168502336e+00 2.9736718337e+00 
36200 6.2877582109e+00 -1.3798421630e-03 1.7168909327e+00 -2.9737423266e+00 1.7168909327e+00 2.9737423266e+00 
36300 6.2877554374e+00 -1.3625088422e-03 1.7169311172e+00 -2.9738119281e+00 1.7169311172e+00 2.9738119281e+00 
36400 6.2877527301e+00 -1.3454678113e-03 1.7169707960e+00 -2.9738806538e+00 1.7169707960e+00 2.9738806538e+00 
36500 6.2877500874e+00 -1.3287076827e-03 1.7170099776e+00 -2.9739485183e+00 1.7170099776e+00 2.9739485183e+00 
36600 6.2877475078e+00 -1.3122173314e-03 1.7170486702e+00 -2.9740155359e+00 1.7170486702e+00 2.9740155359e+00 
36700 6.2877449897e+00 -1.2959859026e-03 1.7170868818e+00 -2.9740817202e+00 1.7170868818e+00 2.9740817202e+00 
36800 6.2877425317e+00 -1.2800028182e-03 1.7171246198e+00 -2.9741470845e+00 1.7171246198e+00 2.9741470845e+00 
36900 6.2877401322e+00 -1.2642577827e-03 1.7171618917e+00 -2.9742116412e+00 1.7171618917e+00 2.9742116412e+00 
37000 6.2877377897e+00 -1.2487407882e-03 1.7171987042e+00 -2.9742754024e+00 1.7171987042e+00 2.9742754024e+00 
37100 6.2877355030e+00 -1.2334421195e-03 1.7172350642e+00 -2.9743383797e+00 1.7172350642e+00 2.9743383797e+00 
37200 6.2877332706e+00 -1.2183523579e-03 1.7172709779e+00 -2.9744005841e+00 1.7172709779e+00 2.9744005841e+00 
37300 6.2877310911e+00 -1.2034623842e-03 1.7173064515e+00 -2.9744620262e+00 1.7173064515e+00 2.9744620262e+00 
37400 6.2877289633e+00 -1.1887633824e-03 1.7173414909e+00 -2.9745227162e+00 1.7173414909e+00 2.9745227162e+00 
37500 6.2877268859e+00 -1.1742468408e-03 1.7173761016e+00 -2.9745826636e+00 1.7173761016e+00 2.9745826636e+00 
37600 6.2877248576e+00 -1.1599045546e-03 1.7174102889e+00 -2.9746418779e+00 1.7174102889e+00 2.9746418779e+00 
37700 6.2877228772e+00 -1.1457286262e-03 1.7174440580e+00 -2.9747003677e+00 1.7174440580e+00 2.9747003677e+00 
37800 6.2877209436e+00 -1.1317114664e-03 1.7174774138e+00 -2.9747581415e+00 1.7174774138e+00 2.9747581415e+00 
37900 6.2877190555e+00 -1.1178457937e-03 1.7175103608e+00 -2.9748152074e+00 1.7175103608e+00 2.9748152074e+00 
38000 6.2877172118e+00 -1.1041246342e-03 1.7175429035e+00 -2.9748715731e+00 1.7175429035e+00 2.9748715731e+00 
38100 6.2877154116e+00 -1.0905413203e-03 1.7175750462e+00 -2.9749272458e+00 1.7175750462e+00 2.9749272458e+00 
38200 6.2877136535e+00 -1.0770894895e-03 1.7176067928e+00 -2.9749822326e+00 1.7176067928e+00 2.9749822326e+00 
38300 6.2877119367e+00 -1.0637630820e-03 1.7176381473e+00 -2.9750365401e+00 1.7176381473e+00 2.9750365401e+00 
38400 6.2877102601e+00 -1.0505563385e-03 1.7176691132e+00 -2.9750901747e+00 1.7176691132e+00 2.9750901747e+00 
38500 6.2877086227e+00 -1.0374637969e-03 1.7176996942e+00 -2.9751431425e+00 1.7176996942e+00 2.9751431425e+00 
38600 6.2877070236e+00 -1.0244802897e-03 1.7177298935e+00 -2.9751954492e+00 1.7177298935e+00 2.9751954492e+00 
38700 6.2877054617e+00 -1.0116009397e-03 1.7177597144e+00 -2.9752471005e+00 1.7177597144e+00 2.9752471005e+00 
38800 6.2877039362e+00 -9.9882115600e-04 1.7177891598e+00 -2.9752981015e+00 1.7177891598e+00 2.9752981015e+00 
38900 6.2877024461e+00 -9.8613662978e-04 1.7178182327e+00 -2.9753484573e+00 1.7178182327e+00 2.9753484573e+00 
39000 6.2877009907e+00 -9.7354332925e-04 1.7178469360e+00 -2.9753981728e+00 1.7178469360e+00 2.9753981728e+00 
39100 6.2876995690e+00 -9.6103749468e-04 1.7178752722e+00 -2.9754472526e+00 1.7178752722e+00 2.9754472526e+00 
39200 6.2876981802e+00 -9.4861563290e-04 1.7179032440e+00 -2.9754957011e+00 1.7179032440e+00 2.9754957011e+00 
39300 6.2876968235e+00 -9.3627451163e-04 1.7179308538e+00 -2.9755435226e+00 1.7179308538e+00 2.9755435226e+00 
39400 6.2876954982e+00 -9.2401115348e-04 1.7179581039e+00 -2.9755907212e+00 1.7179581039e+00 2.9755907212e+00 
39500 6.2876942033e+00 -9.1182282974e-04 1.7179849967e+00 -2.9756373009e+00 1.7179849967e+00 2.9756373009e+00 
39600 6.2876929383e+00 -8.9970705390e-04 1.7180115343e+00 -2.9756832654e+00 1.7180115343e+00 2.9756832654e+00 
39700 6.2876917023e+00 -8.8766157505e-04 1.7180377189e+00 -2.9757286185e+00 1.7180377189e+00 2.9757286185e+00 
39800 6.2876904947e+00 -8.7568437092e-04 1.7180635526e+00 -2.9757733637e+00 1.7180635526e+00 2.9757733637e+00 
39900 6.2876893147e+00 -8.6377364098e-04 1.7180890373e+00 -2.9758175045e+00 1.7180890373e+00 2.9758175045e+00 
40000 6.2876881617e+00 -8.5192779916e-04 1.7181141750e+00 -2.9758610442e+00 1.7181141750e+00 2.9758610442e+00 
40100 6.2876870350e+00 -8.4014546656e-04 1.7181389675e+00 -2.9759039863e+00 1.7181389675e+00 2.9759039863e+00 
40200 6.2876859340e+00 -8.2842546404e-04 1.7181634169e+00 -2.9759463338e+00 1.7181634169e+00 2.9759463338e+00 
40300 6.2876848580e+00 -8.1676680466e-04 1.7181875248e+00 -2.9759880899e+00 1.7181875248e+00 2.9759880899e+00 
40400 6.2876838065e+00 -8.0516868604e-04 1.7182112931e+00 -2.9760292579e+00 1.7182112931e+00 2.9760292579e+00 
40500 6.2876827788e+00 -7.9363048270e-04 1.7182347236e+00 -2.9760698407e+00 1.7182347236e+00 2.9760698407e+00 
40600 6.2876817743e+00 -7.8215173831e-04 1.7182578180e+00 -2.9761098413e+00 1.7182578180e+00 2.9761098413e+00 
40700 6.2876807926e+00 -7.7073215789e-04 1.7182805781e+00 -2.9761492630e+00 1.7182805781e+00 2.9761492630e+00 
40800 6.2876798330e+00 -7.5937160004e-04 1.7183030056e+00 -2.9761881085e+00 1.7183030056e+00 2.9761881085e+00 
40900 6.2876788950e+00 -7.4807006914e-04 1.7183251022e+00 -2.9762263809e+00 1.7183251022e+00 2.9762263809e+00 
41000 6.2876779780e+00 -7.3682770752e-04 1.7183468697e+00 -2.9762640833e+00 1.7183468697e+00 2.9762640833e+00 
41100 6.2876770816e+00 -7.2564478772e-04 1.7183683097e+00 -2.9763012185e+00 1.7183683097e+00 2.9763012185e+00 
41200 6.2876762053e+00 -7.1452170476e-04 1.7183894241e+00 -2.9763377898e+00 1.7183894241e+00 2.9763377898e+00 
41300 6.2876753485e+00 -7.0345896845e-04 1.7184102146e+00 -2.9763737999e+00 1.7184102146e+00 2.9763737999e+00 
41400 6.2876745109e+00 -6.9245719575e-04 1.7184306830e+00 -2.9764092522e+00 1.7184306830e+00 2.9764092522e+00 
41500 6.2876736918e+00 -6.8151710330e-04 1.7184508309e+00 -2.9764441495e+00 1.7184508309e+00 2.9764441495e+00 
41600 6.2876728910e+00 -6.7063949986e-04 1.7184706604e+00 -2.9764784951e+00 1.7184706604e+00 2.9764784951e+00 
41700 6.2876721079e+00 -6.5982527905e-04 1.7184901731e+00 -2.9765122921e+00 1.7184901731e+00 2.9765122921e+00 
41800 6.2876713421e+00 -6.4907541206e-04 1.7185093710e+00 -2.9765455438e+00 1.7185093710e+00 2.9765455438e+00 
41900 6.2876705931e+00 -6.3839094050e-04 1.7185282558e+00 -2.9765782534e+00 1.7185282558e+00 2.9765782534e+00 
42000 6.2876698607e+00 -6.2777296946e-04 1.7185468296e+00 -2.9766104241e+00 1.7185468296e+00 2.9766104241e+00 
42100 6.2876691443e+00 -6.1722266058e-04 1.7185650943e+00 -2.9766420595e+00 1.7185650943e+00 2.9766420595e+00 
42200 6.2876684436e+00 -6.0674122540e-04 1.7185830518e+00 -2.9766731628e+00 1.7185830518e+00 2.9766731628e+00 
42300 6.2876677582e+00 -5.9632991875e-04 1.7186007042e+00 -2.9767037377e+00 1.7186007042e+00 2.9767037377e+00 
42400 6.2876670878e+00 -5.8599003238e-04 1.7186180536e+00 -2.9767337876e+00 1.7186180536e+00 2.9767337876e+00 
42500 6.2876664319e+00 -5.7572288871e-04 1.7186351019e+00 -2.9767633161e+00 1.7186351019e+00 2.9767633161e+00 
42600 6.2876657902e+00 -5.6552983476e-04 1.7186518513e+00 -2.9767923270e+00 1.7186518513e+00 2.9767923270e+00 
42700 6.2876651624e+00 -5.5541223634e-04 1.7186683041e+00 -2.9768208240e+00 1.7186683041e+00 2.9768208240e+00 
42800 6.2876645481e+00 -5.4537147227e-04 1.7186844623e+00 -2.9768488109e+00 1.7186844623e+00 2.9768488109e+00 
42900 6.2876639471e+00 -5.3540892893e-04 1.7187003283e+00 -2.9768762916e+00 1.7187003283e+00 2.9768762916e+00 
43000 6.2876633589e+00 -5.2552599495e-04 1.7187159043e+00 -2.9769032700e+00 1.7187159043e+00 2.9769032700e+00 
43100 6.2876627833e+00 -5.1572405609e-04 1.7187311927e+00 -2.9769297502e+00 1.7187311927e+00 2.9769297502e+00 
43200 6.2876622199e+00 -5.0600449034e-04 1.7187461957e+00 -2.9769557363e+00 1.7187461957e+00 2.9769557363e+00 
43300 6.2876616686e+00 -4.9636866322e-04 1.7187609159e+00 -2.9769812324e+00 1.7187609159e+00 2.9769812324e+00 
43400 6.2876611289e+00 -4.8681792325e-04 1.7187753557e+00 -2.9770062428e+00 1.7187753557e+00 2.9770062428e+00 
43500 6.2876606006e+00 -4.7735359773e-04 1.7187895174e+00 -2.9770307717e+00 1.7187895174e+00 2.9770307717e+00 
43600 6.2876600834e+00 -4.6797698857e-04 1.7188034038e+00 -2.9770548236e+00 1.7188034038e+00 2.9770548236e+00 
43700 6.2876595771e+00 -4.5868936852e-04 1.7188170173e+00 -2.9770784028e+00 1.7188170173e+00 2.9770784028e+00 
43800 6.2876590814e+00 -4.4949197740e-04 1.7188303604e+00 -2.9771015139e+00 1.7188303604e+00 2.9771015139e+00 
43900 6.2876585960e+00 -4.4038601875e-04 1.7188434360e+00 -2.9771241614e+00 1.7188434360e+00 2.9771241614e+00 
44000 6.2876581207e+00 -4.3137265653e-04 1.7188562465e+00 -2.9771463499e+00 1.7188562465e+00 2.9771463499e+00 
44100 6.2876576553e+00 -4.2245301211e-04 1.7188687948e+00 -2.9771680841e+00 1.7188687948e+00 2.9771680841e+00 
44200 6.2876571994e+00 -4.1362816145e-04 1.7188810835e+00 -2.9771893688e+00 1.7188810835e+00 2.9771893688e+00 
44300 6.2876567529e+00 -4.0489913247e-04 1.7188931154e+00 -2.9772102087e+00 1.7188931154e+00 2.9772102087e+00 
44400 6.2876563156e+00 -3.9626690267e-04 1.7189048933e+00 -2.9772306086e+00 1.7189048933e+00 2.9772306086e+00 
44500 6.2876558872e+00 -3.8773239686e-04 1.7189164201e+00 -2.9772505735e+00 1.7189164201e+00 2.9772505735e+00 
44600 6.2876554676e+00 -3.7929648523e-04 1.7189276985e+00 -2.9772701083e+00 1.7189276985e+00 2.9772701083e+00 
44700 6.2876550564e+00 -3.7095998146e-04 1.7189387314e+00 -2.9772892179e+00 1.7189387314e+00 2.9772892179e+00 
44800 6.2876546535e+00 -3.6272364116e-04 1.7189495218e+00 -2.9773079074e+00 1.7189495218e+00 2.9773079074e+00 
44900 6.2876542588e+00 -3.5458816040e-04 1.7189600726e+00 -2.9773261819e+00 1.7189600726e+00 2.9773261819e+00 
45000 6.2876538719e+00 -3.4655417451e-04 1.7189703866e+00 -2.9773440463e+00 1.7189703866e+00 2.9773440463e+00 
45100 6.2876534928e+00 -3.3862225694e-04 1.7189804669e+00 -2.9773615059e+00 1.7189804669e+00 2.9773615059e+00 
45200 6.2876531213e+00 -3.3079291847e-04 1.7189903164e+00 -2.9773785658e+00 1.7189903164e+00 2.9773785658e+00 
45300 6.2876527571e+00 -3.2306660646e-04 1.7189999382e+00 -2.9773952311e+00 1.7189999382e+00 2.9773952311e+00 
45400 6.2876524000e+00 -3.1544370429e-04 1.7190093351e+00 -2.9774115071e+00 1.7190093351e+00 2.9774115071e+00 
45500 6.2876520500e+00 -3.0792453102e-04 1.7190185103e+00 -2.9774273989e+00 1.7190185103e+00 2.9774273989e+00 
45600 6.2876517069e+00 -3.0050934113e-04 1.7190274667e+00 -2.9774429119e+00 1.7190274667e+00 2.9774429119e+00 
45700 6.2876513705e+00 -2.9319832454e-04 1.7190362074e+00 -2.9774580512e+00 1.7190362074e+00 2.9774580512e+00 
45800 6.2876510405e+00 -2.8599160660e-04 1.7190447354e+00 -2.9774728221e+00 1.7190447354e+00 2.9774728221e+00 
45900 6.2876507170e+00 -2.7888924838e-04 1.7190530537e+00 -2.9774872299e+00 1.7190530537e+00 2.9774872299e+00 
46000 6.2876503997e+00 -2.7189124703e-04 1.7190611654e+00 -2.9775012798e+00 1.7190611654e+00 2.9775012798e+00 
46100 6.2876500885e+00 -2.6499753628e-04 1.7190690735e+00 -2.9775149771e+00 1.7190690735e+00 2.9775149771e+00 
46200 6.2876497833e+00 -2.5820798707e-04 1.7190767811e+00 -2.9775283270e+00 1.7190767811e+00 2.9775283270e+00 
46300 6.2876494838e+00 -2.5152240830e-04 1.7190842912e+00 -2.9775413349e+00 1.7190842912e+00 2.9775413349e+00 
46400 6.2876491900e+00 -2.4494054768e-04 1.7190916068e+00 -2.9775540059e+00 1.7190916068e+00 2.9775540059e+00 
46500 6.2876489018e+00 -2.3846209277e-04 1.7190987310e+00 -2.9775663452e+00 1.7190987310e+00 2.9775663452e+00 
46600 6.2876486190e+00 -2.3208667195e-04 1.7191056666e+00 -2.9775783582e+00 1.7191056666e+00 2.9775783582e+00 
46700 6.2876483415e+00 -2.2581385573e-04 1.7191124168e+00 -2.9775900499e+00 1.7191124168e+00 2.9775900499e+00 
46800 6.2876480691e+00 -2.1964315793e-04 1.7191189846e+00 -2.9776014256e+00 1.7191189846e+00 2.9776014256e+00 
46900 6.2876478018e+00 -2.1357403705e-04 1.7191253729e+00 -2.9776124904e+00 1.7191253729e+00 2.9776124904e+00 
47000 6.2876475394e+00 -2.0760589775e-04 1.7191315846e+00 -2.9776232494e+00 1.7191315846e+00 2.9776232494e+00 
47100 6.2876472819e+00 -2.0173809235e-04 1.7191376227e+00 -2.9776337077e+00 1.7191376227e+00 2.9776337077e+00 
47200 6.2876470290e+00 -1.9596992236e-04 1.7191434901e+00 -2.9776438703e+00 1.7191434901e+00 2.9776438703e+00 
47300 6.2876467808e+00 -1.9030064023e-04 1.7191491897e+00 -2.9776537424e+00 1.7191491897e+00 2.9776537424e+00 
47400 6.2876465371e+00 -1.8472945096e-04 1.7191547245e+00 -2.9776633289e+00 1.7191547245e+00 2.9776633289e+00 
47500 6.2876462978e+00 -1.7925551391e-04 1.7191600972e+00 -2.9776726346e+00 1.7191600972e+00 2.9776726346e+00 
47600 6.2876460627e+00 -1.7387794459e-04 1.7191653106e+00 -2.9776816646e+00 1.7191653106e+00 2.9776816646e+00 
47700 6.2876458319e+00 -1.6859581654e-04 1.7191703677e+00 -2.9776904237e+00 1.7191703677e+00 2.9776904237e+00 
47800 6.2876456052e+00 -1.6340816314e-04 1.7191752711e+00 -2.9776989166e+00 1.7191752711e+00 2.9776989166e+00 
47900 6.2876453825e+00 -1.5831397960e-04 1.7191800236e+00 -2.9777071482e+00 1.7191800236e+00 2.9777071482e+00 
48000 6.2876451638e+00 -1.5331222488e-04 1.7191846279e+00 -2.9777151232e+00 1.7191846279e+00 2.9777151232e+00 
48100 6.2876449488e+00 -1.4840182365e-04 1.7191890868e+00 -2.9777228462e+00 1.7191890868e+00 2.9777228462e+00 
48200 6.2876447377e+00 -1.4358166824e-04 1.7191934029e+00 -2.9777303218e+00 1.7191934029e+00 2.9777303218e+00 
48300 6.2876445302e+00 -1.3885062069e-04 1.7191975787e+00 -2.9777375546e+00 1.7191975787e+00 2.9777375546e+00 
48400 6.2876443263e+00 -1.3420751472e-04 1.7192016169e+00 -2.9777445490e+00 1.7192016169e+00 2.9777445490e+00 
48500 6.2876441259e+00 -1.2965115772e-04 1.7192055201e+00 -2.9777513095e+00 1.7192055201e+00 2.9777513095e+00 
48600 6.2876439289e+00 -1.2518033278e-04 1.7192092908e+00 -2.9777578405e+00 1.7192092908e+00 2.9777578405e+00 
48700 6.2876437353e+00 -1.2079380067e-04 1.7192129314e+00 -2.9777641463e+00 1.7192129314e+00 2.9777641463e+00 
48800 6.2876435450e+00 -1.1649030181e-04 1.7192164445e+00 -2.9777702311e+00 1.7192164445e+00 2.9777702311e+00 
48900 6.2876433579e+00 -1.1226855829e-04 1.7192198324e+00 -2.9777760991e+00 1.7192198324e+00 2.9777760991e+00 
49000 6.2876431739e+00 -1.0812727579e-04 1.7192230975e+00 -2.9777817544e+00 1.7192230975e+00 2.9777817544e+00 
49100 6.2876429930e+00 -1.0406514551e-04 1.7192262421e+00 -2.9777872011e+00 1.7192262421e+00 2.9777872011e+00 
49200 6.2876428151e+00 -1.0008084613e-04 1.7192292687e+00 -2.9777924432e+00 1.7192292687e+00 2.9777924432e+00 
49300 6.2876426402e+00 -9.6173045642e-05 1.7192321793e+00 -2.9777974845e+00 1.7192321793e+00 2.9777974845e+00 
49400 6.2876424681e+00 -9.2340403237e-05 1.7192349763e+00 -2.9778023290e+00 1.7192349763e+00 2.9778023290e+00 
49500 6.2876422989e+00 -8.8581571123e-05 1.7192376618e+00 -2.9778069805e+00 1.7192376618e+00 2.9778069805e+00 
49600 6.2876421324e+00 -8.4895196312e-05 1.7192402380e+00 -2.9778114426e+00 1.7192402380e+00 2.9778114426e+00 
49700 6.2876419686e+00 -8.1279922362e-05 1.7192427069e+00 -2.9778157190e+00 1.7192427069e+00 2.9778157190e+00 
49800 6.2876418074e+00 -7.7734391104e-05 1.7192450708e+00 -2.9778198132e+00 1.7192450708e+00 2.9778198132e+00 
49900 6.2876416488e+00 -7.4257244296e-05 1.7192473315e+00 -2.9778237289e+00 1.7192473315e+00 2.9778237289e+00 
50000 6.2876414928e+00 -7.0847125248e-05 1.7192494911e+00 -2.9778274694e+00 1.7192494911e+00 2.9778274694e+00 
50100 6.2876413392e+00 -6.7502680403e-05 1.7192515515e+00 -2.9778310382e+00 1.7192515515e+00 2.9778310382e+00 
50200 6.2876411882e+00 -6.5721347446e-05 1.7192515515e+00 -2.9778310382e+00 1.7192515515e+00 2.9778310382e+00 
50300 6.2876410395e+00 -6.3936935051e-05 1.7192515515e+00 -2.9778310382e+00 1.7192515515e+00 2.9778310382e+00 
50400 6.2876408931e+00 -6.2149239430e-05 1.7192515515e+00 -2.9778310382e+00 1.7192515515e+00 2.9778310382e+00 
50500 6.2876407490e+00 -6.0358031824e-05 1.7192515515e+00 -2.9778310382e+00 1.7192515515e+00 2.9778310382e+00 
50600 6.2876406071e+00 -5.8563059974e-05 1.7192515515e+00 -2.9778310382e+00 1.7192515515e+00 2.9778310382e+00 
50700 6.2876404673e+00 -5.6764049640e-05 1.7192515515e+00 -2.9778310382e+00 1.7192515515e+00 2.9778310382e+00 
50800 6.2876403297e+00 -5.4960706147e-05 1.7192515515e+00 -2.9778310382e+00 1.7192515515e+00 2.9778310382e+00 
50900 6.2876401941e+00 -5.3152715953e-05 1.7192515515e+00 -2.9778310382e+00 1.7192515515e+00 2.9778310382e+00 
51000 6.2876400605e+00 -5.1339748235e-05 1.7192515515e+00 -2.9778310382e+00 1.7192515515e+00 2.9778310382e+00 
51100 6.2876399290e+00 -4.9521456484e-05 1.7192515515e+00 -2.9778310382e+00 1.7192515515e+00 2.9778310382e+00 
51200 6.2876397994e+00 -4.7697480103e-05 1.7192515515e+00 -2.9778310382e+00 1.7192515515e+00 2.9778310382e+00 
51300 6.2876396717e+00 -4.5867446000e-05 1.7192515515e+00 -2.9778310382e+00 1.7192515515e+00 2.9778310382e+00 
51400 6.2876395458e+00 -4.4030970181e-05 1.7192515515e+00 -2.9778310382e+00 1.7192515515e+00 2.9778310382e+00 
51500 6.2876394218e+00 -4.2187659324e-05 1.7192515515e+00 -2.9778310382e+00 1.7192515515e+00 2.9778310382e+00 
51600 6.2876392996e+00 -4.0337112333e-05 1.7192515515e+00 -2.9778310382e+00 1.7192515515e+00 2.9778310382e+00 
51700 6.2876391791e+00 -3.8478921886e-05 1.7192515515e+00 -2.9778310382e+00 1.7192515515e+00 2.9778310382e+00 
51800 6.2876390604e+00 -3.6612675936e-05 1.7192515515e+00 -2.9778310382e+00 1.7192515515e+00 2.9778310382e+00 
51900 6.2876389434e+00 -3.4737959197e-05 1.7192515515e+00 -2.9778310382e+00 1.7192515515e+00 2.9778310382e+00 
52000 6.2876388280e+00 -3.2854354599e-05 1.7192515515e+00 -2.9778310382e+00 1.7192515515e+00 2.9778310382e+00 
52100 6.2876387142e+00 -3.0961444692e-05 1.7192515515e+00 -2.9778310382e+00 1.7192515515e+00 2.9778310382e+00 
52200 6.2876386021e+00 -2.9058813028e-05 1.7192515515e+00 -2.9778310382e+00 1.7192515515e+00 2.9778310382e+00 
52300 6.2876384915e+00 -2.7146045494e-05 1.7192515515e+00 -2.9778310382e+00 1.7192515515e+00 2.9778310382e+00 
52400 6.2876383824e+00 -2.5222731602e-05 1.7192515515e+00 -2.9778310382e+00 1.7192515515e+00 2.9778310382e+00 
52500 6.2876382748e+00 -2.3288465732e-05 1.7192515515e+00 -2.9778310382e+00 1.7192515515e+00 2.9778310382e+00 
52600 6.2876381687e+00 -2.1342848334e-05 1.7192515515e+00 -2.9778310382e+00 1.7192515515e+00 2.9778310382e+00 
52700 6.2876380641e+00 -1.9385487069e-05 1.7192515515e+00 -2.9778310382e+00 1.7192515515e+00 2.9778310382e+00 
52800 6.2876379608e+00 -1.7415997913e-05 1.7192515515e+00 -2.9778310382e+00 1.7192515515e+00 2.9778310382e+00 
52900 6.2876378590e+00 -1.5434006198e-05 1.7192515515e+00 -2.9778310382e+00 1.7192515515e+00 2.9778310382e+00 
53000 6.2876377585e+00 -1.3439147609e-05 1.7192515515e+00 -2.9778310382e+00 1.7192515515e+00 2.9778310382e+00 
53100 6.2876376594e+00 -1.1431069122e-05 1.7192515515e+00 -2.9778310382e+00 1.7192515515e+00 2.9778310382e+00 
53200 6.2876375616e+00 -9.4094298854e-06 1.7192515515e+00 -2.9778310382e+00 1.7192515515e+00 2.9778310382e+00 
53300 6.2876374650e+00 -7.3739020567e-06 1.7192515515e+00 -2.9778310382e+00 1.7192515515e+00 2.9778310382e+00 
53400 6.2876373698e+00 -5.3241715730e-06 1.7192515515e+00 -2.9778310382e+00 1.7192515515e+00 2.9778310382e+00 
53500 6.2876372757e+00 -3.2599388746e-06 1.7192515515e+00 -2.9778310382e+00 1.7192515515e+00 2.9778310382e+00 
53600 6.2876371829e+00 -1.1809195681e-06 1.7192515515e+00 -2.9778310382e+00 1.7192515515e+00 2.9778310382e+00 
53700 6.2876370913e+00 9.1315496066e-07 1.7192515515e+00 -2.9778310382e+00 1.7192515515e+00 2.9778310382e+00 
53800 6.2876370009e+00 3.0225369935e-06 1.7192515515e+00 -2.9778310382e+00 1.7192515515e+00 2.9778310382e+00 
53900 6.2876369116e+00 5.1474619755e-06 1.7192515515e+00 -2.9778310382e+00 1.7192515515e+00 2.9778310382e+00 
54000 6.2876368235e+00 7.2881480681e-06 1.7192515515e+00 -2.9778310382e+00 1.7192515515e+00 2.9778310382e+00 
54100 6.2876367365e+00 9.4447957550e-06 1.7192515515e+00 -2.9778310382e+00 1.7192515515e+00 2.9778310382e+00 
54200 6.2876366506e+00 1.1617587497e-05 1.7192515515e+00 -2.9778310382e+00 1.7192515515e+00 2.9778310382e+00 
54300 6.2876365658e+00 1.3806687439e-05 1.7192515515e+00 -2.9778310382e+00 1.7192515515e+00 2.9778310382e+00 
54400 6.2876364820e+00 1.6012241174e-05 1.7192515515e+00 -2.9778310382e+00 1.7192515515e+00 2.9778310382e+00 
54500 6.2876363993e+00 1.8234375545e-05 1.7192515515e+00 -2.9778310382e+00 1.7192515515e+00 2.9778310382e+00 
54600 6.2876363176e+00 2.0473198502e-05 1.7192515515e+00 -2.9778310382e+00 1.7192515515e+00 2.9778310382e+00 
54700 6.2876362369e+00 2.2728799009e-05 1.7192515515e+00 -2.9778310382e+00 1.7192515515e+00 2.9778310382e+00 
54800 6.2876361571e+00 2.5001246986e-05 1.7192515515e+00 -2.9778310382e+00 1.7192515515e+00 2.9778310382e+00 
54900 6.2876360784e+00 2.7290593305e-05 1.7192515515e+00 -2.9778310382e+00 1.7192515515e+00 2.9778310382e+00 
55000 6.2876360006e+00 2.9596869827e-05 1.7192515515e+00 -2.9778310382e+00 1.7192515515e+00 2.9778310382e+00 
55100 6.2876359238e+00 3.1920089477e-05 1.7192515515e+00 -2.9778310382e+00 1.7192515515e+00 2.9778310382e+00 
55200 6.2876358479e+00 3.4260246358e-05 1.7192515515e+00 -2.9778310382e+00 1.7192515515e+00 2.9778310382e+00 
55300 6.2876357729e+00 3.6617315915e-05 1.7192515515e+00 -2.9778310382e+00 1.7192515515e+00 2.9778310382e+00 
55400 6.2876356988e+00 3.8991255115e-05 1.7192515515e+00 -2.9778310382e+00 1.7192515515e+00 2.9778310382e+00 
55500 6.2876356256e+00 4.1382002685e-05 1.7192515515e+00 -2.9778310382e+00 1.7192515515e+00 2.9778310382e+00 
55600 6.2876355533e+00 4.3789479369e-05 1.7192515515e+00 -2.9778310382e+00 1.7192515515e+00 2.9778310382e+00 
55700 6.2876354818e+00 4.6213588222e-05 1.7192515515e+00 -2.9778310382e+00 1.7192515515e+00 2.9778310382e+00 
55800 6.2876354111e+00 4.8654214929e-05 1.7192515515e+00 -2.9778310382e+00 1.7192515515e+00 2.9778310382e+00 
55900 6.2876353413e+00 5.1111228164e-05 1.7192515515e+00 -2.9778310382e+00 1.7192515515e+00 2.9778310382e+00 
56000 6.2876352723e+00 5.3584479964e-05 1.7192515515e+00 -2.9778310382e+00 1.7192515515e+00 2.9778310382e+00 
56100 6.2876352041e+00 5.6073806140e-05 1.7192515515e+00 -2.9778310382e+00 1.7192515515e+00 2.9778310382e+00 
56200 6.2876351367e+00 5.8579026695e-05 1.7192515515e+00 -2.9778310382e+00 1.7192515515e+00 2.9778310382e+00 
56300 6.2876350701e+00 6.1099946281e-05 1.7192515515e+00 -2.9778310382e+00 1.7192515515e+00 2.9778310382e+00 
56400 6.2876350042e+00 6.3636354675e-05 1.7192515515e+00 -2.9778310382e+00 1.7192515515e+00 2.9778310382e+00 
56500 6.2876349391e+00 6.6188027253e-05 1.7192515515e+00 -2.9778310382e+00 1.7192515515e+00 2.9778310382e+00 
56600 6.2876348748e+00 6.8754725511e-05 1.7192515515e+00 -2.9778310382e+00 1.7192515515e+00 2.9778310382e+00 
56700 6.2876348111e+00 7.1336197578e-05 1.7192515515e+00 -2.9778310382e+00 1.7192515515e+00 2.9778310382e+00 
56800 6.2876347481e+00 7.2345441486e-05 1.7192494769e+00 -2.9778274448e+00 1.7192494769e+00 2.9778274448e+00 
56900 6.2876346857e+00 7.3339311782e-05 1.7192473729e+00 -2.9778238006e+00 1.7192473729e+00 2.9778238006e+00 
57000 6.2876346240e+00 7.4317692404e-05 1.7192452400e+00 -2.9778201063e+00 1.7192452400e+00 2.9778201063e+00 
57100 6.2876345630e+00 7.5280467347e-05 1.7192430786e+00 -2.9778163628e+00 1.7192430786e+00 2.9778163628e+00 
57200 6.2876345026e+00 7.6227521713e-05 1.7192408893e+00 -2.9778125707e+00 1.7192408893e+00 2.9778125707e+00 
57300 6.2876344429e+00 7.7158742710e-05 1.7192386724e+00 -2.9778087309e+00 1.7192386724e+00 2.9778087309e+00 
57400 6.2876343838e+00 7.8074020572e-05 1.7192364284e+00 -2.9778048442e+00 1.7192364284e+00 2.9778048442e+00 
57500 6.2876343254e+00 7.8973249420e-05 1.7192341578e+00 -2.9778009114e+00 1.7192341578e+00 2.9778009114e+00 
57600 6.2876342676e+00 7.9856328047e-05 1.7192318611e+00 -2.9777969333e+00 1.7192318611e+00 2.9777969333e+00 
57700 6.2876342104e+00 8.0723160652e-05 1.7192295386e+00 -2.9777929107e+00 1.7192295386e+00 2.9777929107e+00 
57800 6.2876341538e+00 8.1573657513e-05 1.7192271910e+00 -2.9777888445e+00 1.7192271910e+00 2.9777888445e+00 
57900 6.2876340978e+00 8.2407735590e-05 1.7192248186e+00 -2.9777847354e+00 1.7192248186e+00 2.9777847354e+00 
58000 6.2876340424e+00 8.3225319079e-05 1.7192224219e+00 -2.9777805843e+00 1.7192224219e+00 2.9777805843e+00 
58100 6.2876339876e+00 8.4026339924e-05 1.7192200015e+00 -2.9777763919e+00 1.7192200015e+00 2.9777763919e+00 
58200 6.2876339334e+00 8.4810738250e-05 1.7192175577e+00 -2.9777721593e+00 1.7192175577e+00 2.9777721593e+00 
58300 6.2876338797e+00 8.5578462772e-05 1.7192150912e+00 -2.9777678871e+00 1.7192150912e+00 2.9777678871e+00 
58400 6.2876338266e+00 8.6329471135e-05 1.7192126023e+00 -2.9777635762e+00 1.7192126023e+00 2.9777635762e+00 
58500 6.2876337740e+00 8.7063730228e-05 1.7192100916e+00 -2.9777592275e+00 1.7192100916e+00 2.9777592275e+00 
58600 6.2876337220e+00 8.7781216427e-05 1.7192075595e+00 -2.9777548418e+00 1.7192075595e+00 2.9777548418e+00 
58700 6.2876336705e+00 8.8481915823e-05 1.7192050065e+00 -2.9777504200e+00 1.7192050065e+00 2.9777504200e+00 
58800 6.2876336195e+00 8.9165824387e-05 1.7192024332e+00 -2.9777459628e+00 1.7192024332e+00 2.9777459628e+00 
58900 6.2876335690e+00 8.9832948107e-05 1.7191998400e+00 -2.9777414712e+00 1.7191998400e+00 2.9777414712e+00 
59000 6.2876335191e+00 9.0483303081e-05 1.7191972273e+00 -2.9777369460e+00 1.7191972273e+00 2.9777369460e+00 
59100 6.2876334697e+00 9.1116915584e-05 1.7191945958e+00 -2.9777323880e+00 1.7191945958e+00 2.9777323880e+00 
59200 6.2876334207e+00 9.1733822090e-05 1.7191919458e+00 -2.9777277981e+00 1.7191919458e+00 2.9777277981e+00 
59300 6.2876333723e+00 9.2334069257e-05 1.7191892779e+00 -2.9777231771e+00 1.7191892779e+00 2.9777231771e+00 
59400 6.2876333243e+00 9.2917713907e-05 1.7191865925e+00 -2.9777185258e+00 1.7191865925e+00 2.9777185258e+00 
59500 6.2876332768e+00 9.3484822939e-05 1.7191838901e+00 -2.9777138452e+00 1.7191838901e+00 2.9777138452e+00 
59600 6.2876332298e+00 9.4035473249e-05 1.7191811712e+00 -2.9777091360e+00 1.7191811712e+00 2.9777091360e+00 
59700 6.2876331833e+00 9.4569751596e-05 1.7191784363e+00 -2.9777043990e+00 1.7191784363e+00 2.9777043990e+00 
59800 6.2876331372e+00 9.5087754466e-05 1.7191756859e+00 -2.9776996351e+00 1.7191756859e+00 2.9776996351e+00 
59900 6.2876330916e+00 9.5589587893e-05 1.7191729204e+00 -2.9776948451e+00 1.7191729204e+00 2.9776948451e+00 
60000 6.2876330464e+00 9.6075367273e-05 1.7191701403e+00 -2.9776900298e+00 1.7191701403e+00 2.9776900298e+00 
60100 6.2876330017e+00 9.6545217153e-05 1.7191673461e+00 -2.9776851901e+00 1.7191673461e+00 2.9776851901e+00 
60200 6.2876329574e+00 9.6999270993e-05 1.7191645381e+00 -2.9776803266e+00 1.7191645381e+00 2.9776803266e+00 
60300 6.2876329135e+00 9.7437670925e-05 1.7191617170e+00 -2.9776754403e+00 1.7191617170e+00 2.9776754403e+00 
60400 6.2876328701e+00 9.7860567481e-05 1.7191588832e+00 -2.9776705319e+00 1.7191588832e+00 2.9776705319e+00 
60500 6.2876328270e+00 9.8268119323e-05 1.7191560370e+00 -2.9776656022e+00 1.7191560370e+00 2.9776656022e+00 
60600 6.2876327844e+00 9.8660492937e-05 1.7191531790e+00 -2.9776606519e+00 1.7191531790e+00 2.9776606519e+00 
60700 6.2876327423e+00 9.9037862338e-05 1.7191503095e+00 -2.9776556819e+00 1.7191503095e+00 2.9776556819e+00 
60800 6.2876327005e+00 9.9400408748e-05 1.7191474291e+00 -2.9776506929e+00 1.7191474291e+00 2.9776506929e+00 
60900 6.2876326591e+00 9.9748320276e-05 1.7191445381e+00 -2.9776456855e+00 1.7191445381e+00 2.9776456855e+00 
61000 6.2876326181e+00 1.0008179157e-04 1.7191416370e+00 -2.9776406607e+00 1.7191416370e+00 2.9776406607e+00 
61100 6.2876325775e+00 1.0040102349e-04 1.7191387262e+00 -2.9776356190e+00 1.7191387262e+00 2.9776356190e+00 
61200 6.2876325373e+00 1.0070622276e-04 1.7191358061e+00 -2.9776305613e+00 1.7191358061e+00 2.9776305613e+00 
61300 6.2876324975e+00 1.0099760158e-04 1.7191328771e+00 -2.9776254881e+00 1.7191328771e+00 2.9776254881e+00 
61400 6.2876324581e+00 1.0127537731e-04 1.7191299397e+00 -2.9776204003e+00 1.7191299397e+00 2.9776204003e+00 
61500 6.2876324190e+00 1.0153977210e-04 1.7191269941e+00 -2.9776152985e+00 1.7191269941e+00 2.9776152985e+00 
61600 6.2876323803e+00 1.0179101250e-04 1.7191240409e+00 -2.9776101833e+00 1.7191240409e+00 2.9776101833e+00 
61700 6.2876323420e+00 1.0202932913e-04 1.7191210803e+00 -2.9776050555e+00 1.7191210803e+00 2.9776050555e+00 
61800 6.2876323040e+00 1.0225495629e-04 1.7191181128e+00 -2.9775999157e+00 1.7191181128e+00 2.9775999157e+00 
61900 6.2876322664e+00 1.0246813159e-04 1.7191151388e+00 -2.9775947645e+00 1.7191151388e+00 2.9775947645e+00 
62000 6.2876322291e+00 1.0266909562e-04 1.7191121585e+00 -2.9775896025e+00 1.7191121585e+00 2.9775896025e+00 
62100 6.2876321922e+00 1.0285809156e-04 1.7191091724e+00 -2.9775844304e+00 1.7191091724e+00 2.9775844304e+00 
62200 6.2876321556e+00 1.0303536482e-04 1.7191061808e+00 -2.9775792488e+00 1.7191061808e+00 2.9775792488e+00 
62300 6.2876321194e+00 1.0320116269e-04 1.7191031841e+00 -2.9775740582e+00 1.7191031841e+00 2.9775740582e+00 
62400 6.2876320835e+00 1.0335573402e-04 1.7191001825e+00 -2.9775688593e+00 1.7191001825e+00 2.9775688593e+00 
62500 6.2876320480e+00 1.0349932882e-04 1.7190971764e+00 -2.9775636526e+00 1.7190971764e+00 2.9775636526e+00 
62600 6.2876320127e+00 1.0363219794e-04 1.7190941661e+00 -2.9775584386e+00 1.7190941661e+00 2.9775584386e+00 
62700 6.2876319778e+00 1.0375459277e-04 1.7190911519e+00 -2.9775532180e+00 1.7190911519e+00 2.9775532180e+00 
62800 6.2876319433e+00 1.0386676487e-04 1.7190881342e+00 -2.9775479911e+00 1.7190881342e+00 2.9775479911e+00 
62900 6.2876319090e+00 1.0396896566e-04 1.7190851132e+00 -2.9775427586e+00 1.7190851132e+00 2.9775427586e+00 
63000 6.2876318751e+00 1.0406144612e-04 1.7190820893e+00 -2.9775375210e+00 1.7190820893e+00 2.9775375210e+00 
63100 6.2876318415e+00 1.0414445647e-04 1.7190790626e+00 -2.9775322787e+00 1.7190790626e+00 2.9775322787e+00 
63200 6.2876318081e+00 1.0421824589e-04 1.7190760335e+00 -2.9775270322e+00 1.7190760335e+00 2.9775270322e+00 
63300 6.2876317751e+00 1.0428306223e-04 1.7190730023e+00 -2.9775217819e+00 1.7190730023e+00 2.9775217819e+00 
63400 6.2876317424e+00 1.0433915172e-04 1.7190699692e+00 -2.9775165284e+00 1.7190699692e+00 2.9775165284e+00 
63500 6.2876317100e+00 1.0438675871e-04 1.7190669344e+00 -2.9775112720e+00 1.7190669344e+00 2.9775112720e+00 
63600 6.2876316779e+00 1.0442612541e-04 1.7190638983e+00 -2.9775060133e+00 1.7190638983e+00 2.9775060133e+00 
63700 6.2876316461e+00 1.0445749166e-04 1.7190608610e+00 -2.9775007525e+00 1.7190608610e+00 2.9775007525e+00 
63800 6.2876316146e+00 1.0448109466e-04 1.7190578228e+00 -2.9774954902e+00 1.7190578228e+00 2.9774954902e+00 
63900 6.2876315833e+00 1.0449716878e-04 1.7190547839e+00 -2.9774902267e+00 1.7190547839e+00 2.9774902267e+00 
64000 6.2876315524e+00 1.0450594530e-04 1.7190517445e+00 -2.9774849623e+00 1.7190517445e+00 2.9774849623e+00 
64100 6.2876315217e+00 1.0450765226e-04 1.7190487049e+00 -2.9774796975e+00 1.7190487049e+00 2.9774796975e+00 
64200 6.2876314913e+00 1.0450251422e-04 1.7190456652e+00 -2.9774744326e+00 1.7190456652e+00 2.9774744326e+00 
64300 6.2876314612e+00 1.0449075209e-04 1.7190426256e+00 -2.9774691679e+00 1.7190426256e+00 2.9774691679e+00 
64400 6.2876314313e+00 1.0447258296e-04 1.7190395864e+00 -2.9774639039e+00 1.7190395864e+00 2.9774639039e+00 
64500 6.2876314017e+00 1.0444821995e-04 1.7190365477e+00 -2.9774586407e+00 1.7190365477e+00 2.9774586407e+00 
64600 6.2876313724e+00 1.0441787206e-04 1.7190335097e+00 -2.9774533788e+00 1.7190335097e+00 2.9774533788e+00 
64700 6.2876313434e+00 1.0438174398e-04 1.7190304726e+00 -2.9774481183e+00 1.7190304726e+00 2.9774481183e+00 
64800 6.2876313146e+00 1.0434003606e-04 1.7190274366e+00 -2.9774428597e+00 1.7190274366e+00 2.9774428597e+00 
64900 6.2876312861e+00 1.0429294410e-04 1.7190244017e+00 -2.9774376032e+00 1.7190244017e+00 2.9774376032e+00 
65000 6.2876312578e+00 1.0424065928e-04 1.7190213682e+00 -2.9774323490e+00 1.7190213682e+00 2.9774323490e+00 
65100 6.2876312298e+00 1.0418336810e-04 1.7190183362e+00 -2.9774270975e+00 1.7190183362e+00 2.9774270975e+00 
65200 6.2876312020e+00 1.0412125224e-04 1.7190153059e+00 -2.9774218488e+00 1.7190153059e+00 2.9774218488e+00 
65300 6.2876311745e+00 1.0405448850e-04 1.7190122774e+00 -2.9774166033e+00 1.7190122774e+00 2.9774166033e+00 
65400 6.2876311473e+00 1.0398324877e-04 1.7190092508e+00 -2.9774113611e+00 1.7190092508e+00 2.9774113611e+00 
65500 6.2876311202e+00 1.0390769995e-04 1.7190062263e+00 -2.9774061225e+00 1.7190062263e+00 2.9774061225e+00 
65600 6.2876310935e+00 1.0382800390e-04 1.7190032040e+00 -2.9774008877e+00 1.7190032040e+00 2.9774008877e+00 
65700 6.2876310669e+00 1.0374431742e-04 1.7190001840e+00 -2.9773956569e+00 1.7190001840e+00 2.9773956569e+00 
65800 6.2876310406e+00 1.0365679222e-04 1.7189971664e+00 -2.9773904303e+00 1.7189971664e+00 2.9773904303e+00 
65900 6.2876310145e+00 1.0356557492e-04 1.7189941514e+00 -2.9773852081e+00 1.7189941514e+00 2.9773852081e+00 
66000 6.2876309887e+00 1.0347080704e-04 1.7189911390e+00 -2.9773799905e+00 1.7189911390e+00 2.9773799905e+00 
66100 6.2876309631e+00 1.0337262497e-04 1.7189881294e+00 -2.9773747777e+00 1.7189881294e+00 2.9773747777e+00 
66200 6.2876309377e+00 1.0327116004e-04 1.7189851226e+00 -2.9773695697e+00 1.7189851226e+00 2.9773695697e+00 
66300 6.2876309126e+00 1.0316653850e-04 1.7189821187e+00 -2.9773643669e+00 1.7189821187e+00 2.9773643669e+00 
66400 6.2876308876e+00 1.0305888154e-04 1.7189791179e+00 -2.9773591694e+00 1.7189791179e+00 2.9773591694e+00 
66500 6.2876308629e+00 1.0294830538e-04 1.7189761203e+00 -2.9773539773e+00 1.7189761203e+00 2.9773539773e+00 
66600 6.2876308385e+00 1.0283492126e-04 1.7189731258e+00 -2.9773487907e+00 1.7189731258e+00 2.9773487907e+00 
66700 6.2876308142e+00 1.0271883550e-04 1.7189701346e+00 -2.9773436098e+00 1.7189701346e+00 2.9773436098e+00 
66800 6.2876307901e+00 1.0260014958e-04 1.7189671468e+00 -2.9773384348e+00 1.7189671468e+00 2.9773384348e+00 
66900 6.2876307663e+00 1.0247896019e-04 1.7189641625e+00 -2.9773332658e+00 1.7189641625e+00 2.9773332658e+00 
67000 6.2876307427e+00 1.0235535931e-04 1.7189611816e+00 -2.9773281028e+00 1.7189611816e+00 2.9773281028e+00 
67100 6.2876307192e+00 1.0222943425e-04 1.7189582044e+00 -2.9773229461e+00 1.7189582044e+00 2.9773229461e+00 
67200 6.2876306960e+00 1.0210126778e-04 1.7189552308e+00 -2.9773177957e+00 1.7189552308e+00 2.9773177957e+00 
67300 6.2876306730e+00 1.0197093820e-04 1.7189522609e+00 -2.9773126517e+00 1.7189522609e+00 2.9773126517e+00 
67400 6.2876306502e+00 1.0183851940e-04 1.7189492949e+00 -2.9773075143e+00 1.7189492949e+00 2.9773075143e+00 
67500 6.2876306276e+00 1.0170408102e-04 1.7189463326e+00 -2.9773023836e+00 1.7189463326e+00 2.9773023836e+00 
67600 6.2876306052e+00 1.0156768847e-04 1.7189433743e+00 -2.9772972596e+00 1.7189433743e+00 2.9772972596e+00 
67700 6.2876305830e+00 1.0142940312e-04 1.7189404199e+00 -2.9772921425e+00 1.7189404199e+00 2.9772921425e+00 
67800 6.2876305610e+00 1.0128928234e-04 1.7189374696e+00 -2.9772870324e+00 1.7189374696e+00 2.9772870324e+00 
67900 6.2876305392e+00 1.0114737964e-04 1.7189345233e+00 -2.9772819293e+00 1.7189345233e+00 2.9772819293e+00 
68000 6.2876305176e+00 1.0100374478e-04 1.7189315812e+00 -2.9772768333e+00 1.7189315812e+00 2.9772768333e+00 
68100 6.2876304962e+00 1.0085842391e-04 1.7189286432e+00 -2.9772717446e+00 1.7189286432e+00 2.9772717446e+00 
68200 6.2876304749e+00 1.0071145962e-04 1.7189257094e+00 -2.9772666632e+00 1.7189257094e+00 2.9772666632e+00 
68300 6.2876304539e+00 1.0056289116e-04 1.7189227799e+00 -2.9772615891e+00 1.7189227799e+00 2.9772615891e+00 
68400 6.2876304330e+00 1.0041275447e-04 1.7189198548e+00 -2.9772565226e+00 1.7189198548e+00 2.9772565226e+00 
68500 6.2876304123e+00 1.0026108237e-04 1.7189169340e+00 -2.9772514636e+00 1.7189169340e+00 2.9772514636e+00 
68600 6.2876303918e+00 1.0010790465e-04 1.7189140176e+00 -2.9772464122e+00 1.7189140176e+00 2.9772464122e+00 
68700 6.2876303715e+00 9.9953248216e-05 1.7189111056e+00 -2.9772413686e+00 1.7189111056e+00 2.9772413686e+00 
68800 6.2876303514e+00 9.9797137190e-05 1.7189081981e+00 -2.9772363327e+00 1.7189081981e+00 2.9772363327e+00 
68900 6.2876303314e+00 9.9639593075e-05 1.7189052952e+00 -2.9772313047e+00 1.7189052952e+00 2.9772313047e+00 
69000 6.2876303116e+00 9.9480634857e-05 1.7189023969e+00 -2.9772262847e+00 1.7189023969e+00 2.9772262847e+00 
69100 6.2876302920e+00 9.9320279137e-05 1.7188995032e+00 -2.9772212726e+00 1.7188995032e+00 2.9772212726e+00 
69200 6.2876302726e+00 9.9158540266e-05 1.7188966141e+00 -2.9772162686e+00 1.7188966141e+00 2.9772162686e+00 
69300 6.2876302533e+00 9.8995430464e-05 1.7188937297e+00 -2.9772112727e+00 1.7188937297e+00 2.9772112727e+00 
69400 6.2876302342e+00 9.8830959944e-05 1.7188908501e+00 -2.9772062850e+00 1.7188908501e+00 2.9772062850e+00 
69500 6.2876302153e+00 9.8665137045e-05 1.7188879753e+00 -2.9772013057e+00 1.7188879753e+00 2.9772013057e+00 
69600 6.2876301965e+00 9.8497968354e-05 1.7188851052e+00 -2.9771963346e+00 1.7188851052e+00 2.9771963346e+00 
69700 6.2876301779e+00 9.8329458818e-05 1.7188822401e+00 -2.9771913720e+00 1.7188822401e+00 2.9771913720e+00 
69800 6.2876301595e+00 9.8159611878e-05 1.7188793798e+00 -2.9771864179e+00 1.7188793798e+00 2.9771864179e+00 
69900 6.2876301412e+00 9.7988429579e-05 1.7188765244e+00 -2.9771814723e+00 1.7188765244e+00 2.9771814723e+00 
70000 6.2876301231e+00 9.7815912693e-05 1.7188736741e+00 -2.9771765353e+00 1.7188736741e+00 2.9771765353e+00 
70100 6.2876301052e+00 9.7642060828e-05 1.7188708287e+00 -2.9771716070e+00 1.7188708287e+00 2.9771716070e+00 
70200 6.2876300874e+00 9.7466872540e-05 1.7188679884e+00 -2.9771666875e+00 1.7188679884e+00 2.9771666875e+00 
70300 6.2876300697e+00 9.7290345452e-05 1.7188651532e+00 -2.9771617768e+00 1.7188651532e+00 2.9771617768e+00 
70400 6.2876300523e+00 9.7112476353e-05 1.7188623232e+00 -2.9771568749e+00 1.7188623232e+00 2.9771568749e+00 
70500 6.2876300349e+00 9.6933261301e-05 1.7188594983e+00 -2.9771519821e+00 1.7188594983e+00 2.9771519821e+00 
70600 6.2876300178e+00 9.6752695735e-05 1.7188566786e+00 -2.9771470982e+00 1.7188566786e+00 2.9771470982e+00 
70700 6.2876300007e+00 9.6570774564e-05 1.7188538641e+00 -2.9771422234e+00 1.7188538641e+00 2.9771422234e+00 
70800 6.2876299839e+00 9.6387492270e-05 1.7188510550e+00 -2.9771373578e+00 1.7188510550e+00 2.9771373578e+00 
70900 6.2876299671e+00 9.6202842997e-05 1.7188482511e+00 -2.9771325014e+00 1.7188482511e+00 2.9771325014e+00 
71000 6.2876299506e+00 9.6016820645e-05 1.7188454527e+00 -2.9771276544e+00 1.7188454527e+00 2.9771276544e+00 
71100 6.2876299341e+00 9.5829418951e-05 1.7188426596e+00 -2.9771228166e+00 1.7188426596e+00 2.9771228166e+00 
71200 6.2876299179e+00 9.5640631578e-05 1.7188398720e+00 -2.9771179883e+00 1.7188398720e+00 2.9771179883e+00 
71300 6.2876299017e+00 9.5450452191e-05 1.7188370899e+00 -2.9771131696e+00 1.7188370899e+00 2.9771131696e+00 
71400 6.2876298857e+00 9.5258874540e-05 1.7188343133e+00 -2.9771083603e+00 1.7188343133e+00 2.9771083603e+00 
71500 6.2876298698e+00 9.5065892524e-05 1.7188315422e+00 -2.9771035608e+00 1.7188315422e+00 2.9771035608e+00 
71600 6.2876298541e+00 9.4871500272e-05 1.7188287768e+00 -2.9770987709e+00 1.7188287768e+00 2.9770987709e+00 
71700 6.2876298385e+00 9.4675692195e-05 1.7188260170e+00 -2.9770939909e+00 1.7188260170e+00 2.9770939909e+00 
71800 6.2876298231e+00 9.4478463068e-05 1.7188232629e+00 -2.9770892207e+00 1.7188232629e+00 2.9770892207e+00 
71900 6.2876298078e+00 9.4279808070e-05 1.7188205146e+00 -2.9770844604e+00 1.7188205146e+00 2.9770844604e+00 
72000 6.2876297926e+00 9.4079722855e-05 1.7188177720e+00 -2.9770797101e+00 1.7188177720e+00 2.9770797101e+00 
72100 6.2876297776e+00 9.3878203600e-05 1.7188150353e+00 -2.9770749699e+00 1.7188150353e+00 2.9770749699e+00 
72200 6.2876297627e+00 9.3675247049e-05 1.7188123044e+00 -2.9770702399e+00 1.7188123044e+00 2.9770702399e+00 
72300 6.2876297479e+00 9.3470850565e-05 1.7188095794e+00 -2.9770655200e+00 1.7188095794e+00 2.9770655200e+00 
72400 6.2876297332e+00 9.3265012170e-05 1.7188068603e+00 -2.9770608105e+00 1.7188068603e+00 2.9770608105e+00 
72500 6.2876297187e+00 9.3057730586e-05 1.7188041472e+00 -2.9770561113e+00 1.7188041472e+00 2.9770561113e+00 
72600 6.2876297043e+00 9.2849005267e-05 1.7188014402e+00 -2.9770514225e+00 1.7188014402e+00 2.9770514225e+00 
72700 6.2876296901e+00 9.2638836434e-05 1.7187987392e+00 -2.9770467443e+00 1.7187987392e+00 2.9770467443e+00 
72800 6.2876296759e+00 9.2427225103e-05 1.7187960443e+00 -2.9770420767e+00 1.7187960443e+00 2.9770420767e+00 
72900 6.2876296619e+00 9.2214173113e-05 1.7187933556e+00 -2.9770374197e+00 1.7187933556e+00 2.9770374197e+00 
73000 6.2876296480e+00 9.1999683146e-05 1.7187906731e+00 -2.9770327734e+00 1.7187906731e+00 2.9770327734e+00 
73100 6.2876296342e+00 9.1783758749e-05 1.7187879968e+00 -2.9770281379e+00 1.7187879968e+00 2.9770281379e+00 
73200 6.2876296206e+00 9.1566404350e-05 1.7187853268e+00 -2.9770235133e+00 1.7187853268e+00 2.9770235133e+00 
73300 6.2876296071e+00 9.1347625271e-05 1.7187826631e+00 -2.9770188997e+00 1.7187826631e+00 2.9770188997e+00 
73400 6.2876295937e+00 9.1127427739e-05 1.7187800058e+00 -2.9770142970e+00 1.7187800058e+00 2.9770142970e+00 
73500 6.2876295804e+00 9.0905818899e-05 1.7187773548e+00 -2.9770097055e+00 1.7187773548e+00 2.9770097055e+00 
73600 6.2876295672e+00 9.0682806809e-05 1.7187747103e+00 -2.9770051251e+00 1.7187747103e+00 2.9770051251e+00 
73700 6.2876295542e+00 9.0458400454e-05 1.7187720723e+00 -2.9770005559e+00 1.7187720723e+00 2.9770005559e+00 
73800 6.2876295412e+00 9.0232609740e-05 1.7187694409e+00 -2.9769959981e+00 1.7187694409e+00 2.9769959981e+00 
73900 6.2876295284e+00 9.0005445496e-05 1.7187668159e+00 -2.9769914516e+00 1.7187668159e+00 2.9769914516e+00 
74000 6.2876295157e+00 8.9776919464e-05 1.7187641976e+00 -2.9769869165e+00 1.7187641976e+00 2.9769869165e+00 
74100 6.2876295031e+00 8.9547044294e-05 1.7187615860e+00 -2.9769823930e+00 1.7187615860e+00 2.9769823930e+00 
74200 6.2876294906e+00 8.9315833546e-05 1.7187589810e+00 -2.9769778810e+00 1.7187589810e+00 2.9769778810e+00 
74300 6.2876294782e+00 8.9083301656e-05 1.7187563827e+00 -2.9769733807e+00 1.7187563827e+00 2.9769733807e+00 
74400 6.2876294659e+00 8.8849463950e-05 1.7187537912e+00 -2.9769688921e+00 1.7187537912e+00 2.9769688921e+00 
74500 6.2876294538e+00 8.8614336607e-05 1.7187512065e+00 -2.9769644152e+00 1.7187512065e+00 2.9769644152e+00 
74600 6.2876294417e+00 8.8377936654e-05 1.7187486286e+00 -2.9769599502e+00 1.7187486286e+00 2.9769599502e+00 
74700 6.2876294298e+00 8.8140281944e-05 1.7187460576e+00 -2.9769554971e+00 1.7187460576e+00 2.9769554971e+00 
74800 6.2876294179e+00 8.7901391144e-05 1.7187434935e+00 -2.9769510560e+00 1.7187434935e+00 2.9769510560e+00 
74900 6.2876294062e+00 8.7661283697e-05 1.7187409364e+00 -2.9769466269e+00 1.7187409364e+00 2.9769466269e+00 
75000 6.2876293945e+00 8.7419979815e-05 1.7187383862e+00 -2.9769422099e+00 1.7187383862e+00 2.9769422099e+00 
75100 6.2876293830e+00 8.7177500449e-05 1.7187358431e+00 -2.9769378050e+00 1.7187358431e+00 2.9769378050e+00 
75200 6.2876293716e+00 8.6933867260e-05 1.7187333070e+00 -2.9769334124e+00 1.7187333070e+00 2.9769334124e+00 
75300 6.2876293603e+00 8.6689102599e-05 1.7187307780e+00 -2.9769290320e+00 1.7187307780e+00 2.9769290320e+00 
75400 6.2876293490e+00 8.6443229477e-05 1.7187282561e+00 -2.9769246640e+00 1.7187282561e+00 2.9769246640e+00 
75500 6.2876293379e+00 8.6196271534e-05 1.7187257414e+00 -2.9769203083e+00 1.7187257414e+00 2.9769203083e+00 
75600 6.2876293269e+00 8.5948253016e-05 1.7187232338e+00 -2.9769159651e+00 1.7187232338e+00 2.9769159651e+00 
75700 6.2876293159e+00 8.5699198737e-05 1.7187207334e+00 -2.9769116344e+00 1.7187207334e+00 2.9769116344e+00 
75800 6.2876293051e+00 8.5449134055e-05 1.7187182403e+00 -2.9769073162e+00 1.7187182403e+00 2.9769073162e+00 
75900 6.2876292943e+00 8.5198084840e-05 1.7187157545e+00 -2.9769030106e+00 1.7187157545e+00 2.9769030106e+00 
76000 6.2876292837e+00 8.4946077433e-05 1.7187132760e+00 -2.9768987176e+00 1.7187132760e+00 2.9768987176e+00 
76100 6.2876292731e+00 8.4693138635e-05 1.7187108048e+00 -2.9768944373e+00 1.7187108048e+00 2.9768944373e+00 
76200 6.2876292627e+00 8.4439295650e-05 1.7187083409e+00 -2.9768901698e+00 1.7187083409e+00 2.9768901698e+00 
76300 6.2876292523e+00 8.4184576069e-05 1.7187058844e+00 -2.9768859151e+00 1.7187058844e+00 2.9768859151e+00 
76400 6.2876292420e+00 8.3929007828e-05 1.7187034354e+00 -2.9768816732e+00 1.7187034354e+00 2.9768816732e+00 
76500 6.2876292319e+00 8.3672619181e-05 1.7187009937e+00 -2.9768774441e+00 1.7187009937e+00 2.9768774441e+00 
76600 6.2876292218e+00 8.3415438665e-05 1.7186985595e+00 -2.9768732280e+00 1.7186985595e+00 2.9768732280e+00 
76700 6.2876292118e+00 8.3157495072e-05 1.7186961328e+00 -2.9768690248e+00 1.7186961328e+00 2.9768690248e+00 
76800 6.2876292019e+00 8.2898817402e-05 1.7186937136e+00 -2.9768648347e+00 1.7186937136e+00 2.9768648347e+00 
76900 6.2876291920e+00 8.2639434846e-05 1.7186913019e+00 -2.9768606575e+00 1.7186913019e+00 2.9768606575e+00 
77000 6.2876291823e+00 8.2379376746e-05 1.7186888978e+00 -2.9768564934e+00 1.7186888978e+00 2.9768564934e+00 
77100 6.2876291726e+00 8.2118672566e-05 1.7186865012e+00 -2.9768523424e+00 1.7186865012e+00 2.9768523424e+00 
77200 6.2876291631e+00 8.1857351859e-05 1.7186841122e+00 -2.9768482046e+00 1.7186841122e+00 2.9768482046e+00 
77300 6.2876291536e+00 8.1595444232e-05 1.7186817308e+00 -2.9768440799e+00 1.7186817308e+00 2.9768440799e+00 
77400 6.2876291442e+00 8.1332979327e-05 1.7186793571e+00 -2.9768399684e+00 1.7186793571e+00 2.9768399684e+00 
77500 6.2876291349e+00 8.1069986776e-05 1.7186769909e+00 -2.9768358701e+00 1.7186769909e+00 2.9768358701e+00 
77600 6.2876291256e+00 8.0806496177e-05 1.7186746324e+00 -2.9768317850e+00 1.7186746324e+00 2.9768317850e+00 
77700 6.2876291165e+00 8.0542537077e-05 1.7186722816e+00 -2.9768277133e+00 1.7186722816e+00 2.9768277133e+00 
77800 6.2876291074e+00 8.0278138924e-05 1.7186699384e+00 -2.9768236548e+00 1.7186699384e+00 2.9768236548e+00 
77900 6.2876290984e+00 8.0013331049e-05 1.7186676030e+00 -2.9768196096e+00 1.7186676030e+00 2.9768196096e+00 
78000 6.2876290895e+00 7.9748142641e-05 1.7186652752e+00 -2.9768155778e+00 1.7186652752e+00 2.9768155778e+00 
78100 6.2876290807e+00 7.9482602720e-05 1.7186629551e+00 -2.9768115594e+00 1.7186629551e+00 2.9768115594e+00 
78200 6.2876290719e+00 7.9216740109e-05 1.7186606428e+00 -2.9768075543e+00 1.7186606428e+00 2.9768075543e+00 
78300 6.2876290633e+00 7.8950583409e-05 1.7186583382e+00 -2.9768035626e+00 1.7186583382e+00 2.9768035626e+00 
78400 6.2876290547e+00 7.8684160979e-05 1.7186560413e+00 -2.9767995843e+00 1.7186560413e+00 2.9767995843e+00 
78500 6.2876290461e+00 7.8417500912e-05 1.7186537522e+00 -2.9767956194e+00 1.7186537522e+00 2.9767956194e+00 
78600 6.2876290377e+00 7.8150631012e-05 1.7186514708e+00 -2.9767916680e+00 1.7186514708e+00 2.9767916680e+00 
78700 6.2876290293e+00 7.7883578771e-05 1.7186491972e+00 -2.9767877300e+00 1.7186491972e+00 2.9767877300e+00 
78800 6.2876290210e+00 7.7616371355e-05 1.7186469314e+00 -2.9767838054e+00 1.7186469314e+00 2.9767838054e+00 
78900 6.2876290128e+00 7.7349035581e-05 1.7186446733e+00 -2.9767798944e+00 1.7186446733e+00 2.9767798944e+00 
79000 6.2876290047e+00 7.7081597899e-05 1.7186424230e+00 -2.9767759967e+00 1.7186424230e+00 2.9767759967e+00 
79100 6.2876289966e+00 7.6814084376e-05 1.7186401805e+00 -2.9767721126e+00 1.7186401805e+00 2.9767721126e+00 
79200 6.2876289886e+00 7.6546520680e-05 1.7186379458e+00 -2.9767682419e+00 1.7186379458e+00 2.9767682419e+00 
79300 6.2876289806e+00 7.6278932061e-05 1.7186357188e+00 -2.9767643847e+00 1.7186357188e+00 2.9767643847e+00 
79400 6.2876289728e+00 7.6011343341e-05 1.7186334997e+00 -2.9767605410e+00 1.7186334997e+00 2.9767605410e+00 
79500 6.2876289650e+00 7.5743778902e-05 1.7186312883e+00 -2.9767567108e+00 1.7186312883e+00 2.9767567108e+00 
79600 6.2876289573e+00 7.5476262669e-05 1.7186290847e+00 -2.9767528940e+00 1.7186290847e+00 2.9767528940e+00 
79700 6.2876289496e+00 7.5208818103e-05 1.7186268888e+00 -2.9767490907e+00 1.7186268888e+00 2.9767490907e+00 
79800 6.2876289420e+00 7.4941468185e-05 1.7186247008e+00 -2.9767453009e+00 1.7186247008e+00 2.9767453009e+00 
79900 6.2876289345e+00 7.4674235417e-05 1.7186225205e+00 -2.9767415246e+00 1.7186225205e+00 2.9767415246e+00 
80000 6.2876289271e+00 7.4407141798e-05 1.7186203480e+00 -2.9767377617e+00 1.7186203480e+00 2.9767377617e+00 
80100 6.2876289197e+00 7.4140208831e-05 1.7186181833e+00 -2.9767340122e+00 1.7186181833e+00 2.9767340122e+00 
80200 6.2876289124e+00 7.3873457514e-05 1.7186160263e+00 -2.9767302763e+00 1.7186160263e+00 2.9767302763e+00 
80300 6.2876289051e+00 7.3606908325e-05 1.7186138771e+00 -2.9767265537e+00 1.7186138771e+00 2.9767265537e+00 
80400 6.2876288979e+00 7.3340581225e-05 1.7186117356e+00 -2.9767228446e+00 1.7186117356e+00 2.9767228446e+00 
80500 6.2876288908e+00 7.3074495654e-05 1.7186096019e+00 -2.9767191489e+00 1.7186096019e+00 2.9767191489e+00 
80600 6.2876288837e+00 7.2808670528e-05 1.7186074759e+00 -2.9767154666e+00 1.7186074759e+00 2.9767154666e+00 
80700 6.2876288767e+00 7.2543124231e-05 1.7186053577e+00 -2.9767117977e+00 1.7186053577e+00 2.9767117977e+00 
80800 6.2876288698e+00 7.2277874624e-05 1.7186032472e+00 -2.9767081422e+00 1.7186032472e+00 2.9767081422e+00 
80900 6.2876288629e+00 7.2012939033e-05 1.7186011444e+00 -2.9767045000e+00 1.7186011444e+00 2.9767045000e+00 
81000 6.2876288561e+00 7.1748334256e-05 1.7185990493e+00 -2.9767008712e+00 1.7185990493e+00 2.9767008712e+00 
81100 6.2876288494e+00 7.1484076565e-05 1.7185969619e+00 -2.9766972557e+00 1.7185969619e+00 2.9766972557e+00 
81200 6.2876288427e+00 7.1220181705e-05 1.7185948821e+00 -2.9766936535e+00 1.7185948821e+00 2.9766936535e+00 
81300 6.2876288360e+00 7.0956664894e-05 1.7185928101e+00 -2.9766900646e+00 1.7185928101e+00 2.9766900646e+00 
81400 6.2876288295e+00 7.0693540834e-05 1.7185907457e+00 -2.9766864890e+00 1.7185907457e+00 2.9766864890e+00 
81500 6.2876288231e+00 7.2008013233e-05 1.7185907457e+00 -2.9766864890e+00 1.7185907457e+00 2.9766864890e+00 
81600 6.2876288167e+00 7.1717633656e-05 1.7185886507e+00 -2.9766828604e+00 1.7185886507e+00 2.9766828604e+00 
81700 6.2876288103e+00 7.1428220690e-05 1.7185865642e+00 -2.9766792464e+00 1.7185865642e+00 2.9766792464e+00 
81800 6.2876288039e+00 7.1139768552e-05 1.7185844861e+00 -2.9766756470e+00 1.7185844861e+00 2.9766756470e+00 
81900 6.2876287977e+00 7.0852271182e-05 1.7185824164e+00 -2.9766720622e+00 1.7185824164e+00 2.9766720622e+00 
82000 6.2876287914e+00 7.0565722314e-05 1.7185803550e+00 -2.9766684918e+00 1.7185803550e+00 2.9766684918e+00 
82100 6.2876287854e+00 7.1854505884e-05 1.7185803550e+00 -2.9766684918e+00 1.7185803550e+00 2.9766684918e+00 
82200 6.2876287793e+00 7.1541800640e-05 1.7185782645e+00 -2.9766648709e+00 1.7185782645e+00 2.9766648709e+00 
82300 6.2876287732e+00 7.1230556290e-05 1.7185761831e+00 -2.9766612658e+00 1.7185761831e+00 2.9766612658e+00 
82400 6.2876287672e+00 7.0920747845e-05 1.7185741107e+00 -2.9766576763e+00 1.7185741107e+00 2.9766576763e+00 
82500 6.2876287613e+00 7.0612350582e-05 1.7185720473e+00 -2.9766541025e+00 1.7185720473e+00 2.9766541025e+00 
82600 6.2876287556e+00 7.1880813094e-05 1.7185720473e+00 -2.9766541025e+00 1.7185720473e+00 2.9766541025e+00 
82700 6.2876287497e+00 7.1547111573e-05 1.7185699561e+00 -2.9766504802e+00 1.7185699561e+00 2.9766504802e+00 
82800 6.2876287439e+00 7.1215281745e-05 1.7185678745e+00 -2.9766468748e+00 1.7185678745e+00 2.9766468748e+00 
82900 6.2876287382e+00 7.0885282335e-05 1.7185658025e+00 -2.9766432861e+00 1.7185658025e+00 2.9766432861e+00 
83000 6.2876287325e+00 7.0557072920e-05 1.7185637402e+00 -2.9766397141e+00 1.7185637402e+00 2.9766397141e+00 
83100 6.2876287270e+00 7.1804895522e-05 1.7185637402e+00 -2.9766397141e+00 1.7185637402e+00 2.9766397141e+00 
83200 6.2876287214e+00 7.1452115458e-05 1.7185616511e+00 -2.9766360956e+00 1.7185616511e+00 2.9766360956e+00 
83300 6.2876287158e+00 7.1101542170e-05 1.7185595723e+00 -2.9766324950e+00 1.7185595723e+00 2.9766324950e+00 
83400 6.2876287104e+00 7.0753121230e-05 1.7185575036e+00 -2.9766289120e+00 1.7185575036e+00 2.9766289120e+00 
83500 6.2876287049e+00 7.0406799716e-05 1.7185554451e+00 -2.9766253466e+00 1.7185554451e+00 2.9766253466e+00 
83600 6.2876286997e+00 7.1633496154e-05 1.7185554451e+00 -2.9766253466e+00 1.7185554451e+00 2.9766253466e+00 
83700 6.2876286943e+00 7.1263246239e-05 1.7185533610e+00 -2.9766217368e+00 1.7185533610e+00 2.9766217368e+00 
83800 6.2876286890e+00 7.0895477781e-05 1.7185512877e+00 -2.9766181456e+00 1.7185512877e+00 2.9766181456e+00 
83900 6.2876286838e+00 7.0530126462e-05 1.7185492250e+00 -2.9766145730e+00 1.7185492250e+00 2.9766145730e+00 
84000 6.2876286787e+00 7.1740883325e-05 1.7185492250e+00 -2.9766145730e+00 1.7185492250e+00 2.9766145730e+00 
84100 6.2876286736e+00 7.1352156908e-05 1.7185471377e+00 -2.9766109578e+00 1.7185471377e+00 2.9766109578e+00 
84200 6.2876286685e+00 7.0966199560e-05 1.7185450618e+00 -2.9766073621e+00 1.7185450618e+00 2.9766073621e+00 
84300 6.2876286634e+00 7.0582937646e-05 1.7185429971e+00 -2.9766037859e+00 1.7185429971e+00 2.9766037859e+00 
84400 6.2876286585e+00 7.1777263229e-05 1.7185429971e+00 -2.9766037859e+00 1.7185429971e+00 2.9766037859e+00 
84500 6.2876286536e+00 7.1371134930e-05 1.7185409088e+00 -2.9766001689e+00 1.7185409088e+00 2.9766001689e+00 
84600 6.2876286486e+00 7.0968029603e-05 1.7185388323e+00 -2.9765965723e+00 1.7185388323e+00 2.9765965723e+00 
84700 6.2876286437e+00 7.0567866366e-05 1.7185367675e+00 -2.9765929960e+00 1.7185367675e+00 2.9765929960e+00 
84800 6.2876286390e+00 7.1745225438e-05 1.7185367675e+00 -2.9765929960e+00 1.7185367675e+00 2.9765929960e+00 
84900 6.2876286342e+00 7.1322674374e-05 1.7185346801e+00 -2.9765893805e+00 1.7185346801e+00 2.9765893805e+00 
85000 6.2876286295e+00 7.0903374118e-05 1.7185326050e+00 -2.9765857863e+00 1.7185326050e+00 2.9765857863e+00 
85100 6.2876286248e+00 7.0487238522e-05 1.7185305421e+00 -2.9765822133e+00 1.7185305421e+00 2.9765822133e+00 
85200 6.2876286203e+00 7.1647074743e-05 1.7185305421e+00 -2.9765822133e+00 1.7185305421e+00 2.9765822133e+00 
85300 6.2876286156e+00 7.1209013477e-05 1.7185284575e+00 -2.9765786027e+00 1.7185284575e+00 2.9765786027e+00 
85400 6.2876286110e+00 7.0774411905e-05 1.7185263857e+00 -2.9765750143e+00 1.7185263857e+00 2.9765750143e+00 
85500 6.2876286065e+00 7.0343180400e-05 1.7185243266e+00 -2.9765714477e+00 1.7185243266e+00 2.9765714477e+00 
85600 6.2876286021e+00 7.1484938992e-05 1.7185243266e+00 -2.9765714477e+00 1.7185243266e+00 2.9765714477e+00 
85700 6.2876285976e+00 7.1032239977e-05 1.7185222468e+00 -2.9765678453e+00 1.7185222468e+00 2.9765678453e+00 
85800 6.2876285932e+00 7.0583196896e-05 1.7185201801e+00 -2.9765642657e+00 1.7185201801e+00 2.9765642657e+00 
85900 6.2876285890e+00 7.1712801149e-05 1.7185201801e+00 -2.9765642657e+00 1.7185201801e+00 2.9765642657e+00 
86000 6.2876285846e+00 7.1242748596e-05 1.7185180936e+00 -2.9765606519e+00 1.7185180936e+00 2.9765606519e+00 
86100 6.2876285803e+00 7.0776622581e-05 1.7185160208e+00 -2.9765570617e+00 1.7185160208e+00 2.9765570617e+00 
86200 6.2876285760e+00 7.0314326347e-05 1.7185139616e+00 -2.9765534950e+00 1.7185139616e+00 2.9765534950e+00 
86300 6.2876285720e+00 7.1424880946e-05 1.7185139616e+00 -2.9765534950e+00 1.7185139616e+00 2.9765534950e+00 
86400 6.2876285678e+00 7.0942027406e-05 1.7185118835e+00 -2.9765498956e+00 1.7185118835e+00 2.9765498956e+00 
86500 6.2876285636e+00 7.0463271531e-05 1.7185098194e+00 -2.9765463206e+00 1.7185098194e+00 2.9765463206e+00 
86600 6.2876285596e+00 7.1560974966e-05 1.7185098194e+00 -2.9765463206e+00 1.7185098194e+00 2.9765463206e+00 
86700 6.2876285555e+00 7.1062125173e-05 1.7185077374e+00 -2.9765427143e+00 1.7185077374e+00 2.9765427143e+00 
86800 6.2876285515e+00 7.0567629971e-05 1.7185056698e+00 -2.9765391332e+00 1.7185056698e+00 2.9765391332e+00 
86900 6.2876285476e+00 7.1652197145e-05 1.7185056698e+00 -2.9765391332e+00 1.7185056698e+00 2.9765391332e+00 
87000 6.2876285436e+00 7.1138068952e-05 1.7185035851e+00 -2.9765355224e+00 1.7185035851e+00 2.9765355224e+00 
87100 6.2876285397e+00 7.0628542728e-05 1.7185015153e+00 -2.9765319374e+00 1.7185015153e+00 2.9765319374e+00 
87200 6.2876285360e+00 7.1699703361e-05 1.7185015153e+00 -2.9765319374e+00 1.7185015153e+00 2.9765319374e+00 
87300 6.2876285321e+00 7.1171004958e-05 1.7184994292e+00 -2.9765283242e+00 1.7184994292e+00 2.9765283242e+00 
87400 6.2876285282e+00 7.0647147715e-05 1.7184973585e+00 -2.9765247376e+00 1.7184973585e+00 2.9765247376e+00 
87500 6.2876285246e+00 7.1704649913e-05 1.7184973585e+00 -2.9765247376e+00 1.7184973585e+00 2.9765247376e+00 
87600 6.2876285208e+00 7.1162083376e-05 1.7184952722e+00 -2.9765211241e+00 1.7184952722e+00 2.9765211241e+00 
87700 6.2876285171e+00 7.0624590273e-05 1.7184932017e+00 -2.9765175379e+00 1.7184932017e+00 2.9765175379e+00 
87800 6.2876285135e+00 7.1668204021e-05 1.7184932017e+00 -2.9765175379e+00 1.7184932017e+00 2.9765175379e+00 
87900 6.2876285098e+00 7.1112468495e-05 1.7184911165e+00 -2.9765139262e+00 1.7184911165e+00 2.9765139262e+00 
88000 6.2876285062e+00 7.0562032874e-05 1.7184890475e+00 -2.9765103425e+00 1.7184890475e+00 2.9765103425e+00 
88100 6.2876285027e+00 7.1591553289e-05 1.7184890475e+00 -2.9765103425e+00 1.7184890475e+00 2.9765103425e+00 
88200 6.2876284992e+00 7.1023347684e-05 1.7184869645e+00 -2.9765067347e+00 1.7184869645e+00 2.9765067347e+00 
88300 6.2876284956e+00 7.0460663574e-05 1.7184848981e+00 -2.9765031555e+00 1.7184848981e+00 2.9765031555e+00 
88400 6.2876284923e+00 7.1475913801e-05 1.7184848981e+00 -2.9765031555e+00 1.7184848981e+00 2.9765031555e+00 
88500 6.2876284888e+00 7.0895938903e-05 1.7184828185e+00 -2.9764995535e+00 1.7184828185e+00 2.9764995535e+00 
88600 6.2876284853e+00 7.0321702949e-05 1.7184807557e+00 -2.9764959807e+00 1.7184807557e+00 2.9764959807e+00 
88700 6.2876284821e+00 7.1322536608e-05 1.7184807557e+00 -2.9764959807e+00 1.7184807557e+00 2.9764959807e+00 
88800 6.2876284787e+00 7.0731496582e-05 1.7184786805e+00 -2.9764923864e+00 1.7184786805e+00 2.9764923864e+00 
88900 6.2876284753e+00 7.0146409334e-05 1.7184766226e+00 -2.9764888219e+00 1.7184766226e+00 2.9764888219e+00 
89000 6.2876284721e+00 7.1132712454e-05 1.7184766226e+00 -2.9764888219e+00 1.7184766226e+00 2.9764888219e+00 
89100 6.2876284688e+00 7.0531315722e-05 1.7184745529e+00 -2.9764852372e+00 1.7184745529e+00 2.9764852372e+00 
89200 6.2876284657e+00 7.1510233740e-05 1.7184745529e+00 -2.9764852372e+00 1.7184745529e+00 2.9764852372e+00 
89300 6.2876284625e+00 7.0893012936e-05 1.7184724723e+00 -2.9764816334e+00 1.7184724723e+00 2.9764816334e+00 
89400 6.2876284592e+00 7.0282268026e-05 1.7184704096e+00 -2.9764780608e+00 1.7184704096e+00 2.9764780608e+00 
89500 6.2876284562e+00 7.1246492671e-05 1.7184704096e+00 -2.9764780608e+00 1.7184704096e+00 2.9764780608e+00 
89600 6.2876284530e+00 7.0620408544e-05 1.7184683367e+00 -2.9764744703e+00 1.7184683367e+00 2.9764744703e+00 
89700 6.2876284501e+00 7.1577162016e-05 1.7184683367e+00 -2.9764744703e+00 1.7184683367e+00 2.9764744703e+00 
89800 6.2876284470e+00 7.0936217592e-05 1.7184662541e+00 -2.9764708632e+00 1.7184662541e+00 2.9764708632e+00 
89900 6.2876284439e+00 7.0302239953e-05 1.7184641901e+00 -2.9764672883e+00 1.7184641901e+00 2.9764672883e+00 
90000 6.2876284410e+00 7.1244192690e-05 1.7184641901e+00 -2.9764672883e+00 1.7184641901e+00 2.9764672883e+00 
90100 6.2876284380e+00 7.0595829388e-05 1.7184621172e+00 -2.9764636979e+00 1.7184621172e+00 2.9764636979e+00 
90200 6.2876284351e+00 7.1530257795e-05 1.7184621172e+00 -2.9764636979e+00 1.7184621172e+00 2.9764636979e+00 
90300 6.2876284322e+00 7.0867980955e-05 1.7184600360e+00 -2.9764600931e+00 1.7184600360e+00 2.9764600931e+00 
90400 6.2876284292e+00 7.0213130741e-05 1.7184579740e+00 -2.9764565217e+00 1.7184579740e+00 2.9764565217e+00 
90500 6.2876284265e+00 7.1132706320e-05 1.7184579740e+00 -2.9764565217e+00 1.7184579740e+00 2.9764565217e+00 
90600 6.2876284236e+00 7.0464407128e-05 1.7184559044e+00 -2.9764529370e+00 1.7184559044e+00 2.9764529370e+00 
90700 6.2876284209e+00 7.1376438633e-05 1.7184559044e+00 -2.9764529370e+00 1.7184559044e+00 2.9764529370e+00 
90800 6.2876284180e+00 7.0695155698e-05 1.7184538276e+00 -2.9764493399e+00 1.7184538276e+00 2.9764493399e+00 
90900 6.2876284154e+00 7.1599640576e-05 1.7184538276e+00 -2.9764493399e+00 1.7184538276e+00 2.9764493399e+00 
91000 6.2876284126e+00 7.0905828022e-05 1.7184517444e+00 -2.9764457316e+00 1.7184517444e+00 2.9764457316e+00 
91100 6.2876284098e+00 7.0220138615e-05 1.7184496813e+00 -2.9764421582e+00 1.7184496813e+00 2.9764421582e+00 
91200 6.2876284072e+00 7.1109757727e-05 1.7184496813e+00 -2.9764421582e+00 1.7184496813e+00 2.9764421582e+00 
91300 6.2876284045e+00 7.0411975799e-05 1.7184476123e+00 -2.9764385746e+00 1.7184476123e+00 2.9764385746e+00 
91400 6.2876284019e+00 7.1294059467e-05 1.7184476123e+00 -2.9764385746e+00 1.7184476123e+00 2.9764385746e+00 
91500 6.2876283993e+00 7.0584632091e-05 1.7184455379e+00 -2.9764349817e+00 1.7184455379e+00 2.9764349817e+00 
91600 6.2876283968e+00 7.1459189958e-05 1.7184455379e+00 -2.9764349817e+00 1.7184455379e+00 2.9764349817e+00 
91700 6.2876283941e+00 7.0738553236e-05 1.7184434587e+00 -2.9764313805e+00 1.7184434587e+00 2.9764313805e+00 
91800 6.2876283915e+00 7.0026663074e-05 1.7184414005e+00 -2.9764278155e+00 1.7184414005e+00 2.9764278155e+00 
91900 6.2876283891e+00 7.0886416842e-05 1.7184414005e+00 -2.9764278155e+00 1.7184414005e+00 2.9764278155e+00 
92000 6.2876283866e+00 7.0163728273e-05 1.7184393380e+00 -2.9764242431e+00 1.7184393380e+00 2.9764242431e+00 
92100 6.2876283842e+00 7.1015998190e-05 1.7184393380e+00 -2.9764242431e+00 1.7184393380e+00 2.9764242431e+00 
92200 6.2876283817e+00 7.0282940783e-05 1.7184372717e+00 -2.9764206642e+00 1.7184372717e+00 2.9764206642e+00 
92300 6.2876283793e+00 7.1127748990e-05 1.7184372717e+00 -2.9764206642e+00 1.7184372717e+00 2.9764206642e+00 
92400 6.2876283769e+00 7.0384741581e-05 1.7184352022e+00 -2.9764170796e+00 1.7184352022e+00 2.9764170796e+00 
92500 6.2876283746e+00 7.1222109336e-05 1.7184352022e+00 -2.9764170796e+00 1.7184352022e+00 2.9764170796e+00 
92600 6.2876283721e+00 7.0469559931e-05 1.7184331299e+00 -2.9764134903e+00 1.7184331299e+00 2.9764134903e+00 
92700 6.2876283699e+00 7.1299507330e-05 1.7184331299e+00 -2.9764134903e+00 1.7184331299e+00 2.9764134903e+00 
92800 6.2876283675e+00 7.0537813149e-05 1.7184310553e+00 -2.9764098971e+00 1.7184310553e+00 2.9764098971e+00 
92900 6.2876283653e+00 7.1360358958e-05 1.7184310553e+00 -2.9764098971e+00 1.7184310553e+00 2.9764098971e+00 
93000 6.2876283630e+00 7.0589906599e-05 1.7184289790e+00 -2.9764063008e+00 1.7184289790e+00 2.9764063008e+00 
93100 6.2876283608e+00 7.1405068201e-05 1.7184289790e+00 -2.9764063008e+00 1.7184289790e+00 2.9764063008e+00 
93200 6.2876283585e+00 7.0626233892e-05 1.7184269014e+00 -2.9764027022e+00 1.7184269014e+00 2.9764027022e+00 
93300 6.2876283564e+00 7.1434027315e-05 1.7184269014e+00 -2.9764027022e+00 1.7184269014e+00 2.9764027022e+00 
93400 6.2876283541e+00 7.0647177248e-05 1.7184248229e+00 -2.9763991022e+00 1.7184248229e+00 2.9763991022e+00 
93500 6.2876283520e+00 7.1447617277e-05 1.7184248229e+00 -2.9763991022e+00 1.7184248229e+00 2.9763991022e+00 
93600 6.2876283498e+00 7.0653107998e-05 1.7184227440e+00 -2.9763955015e+00 1.7184227440e+00 2.9763955015e+00 
93700 6.2876283477e+00 7.1446208331e-05 1.7184227440e+00 -2.9763955015e+00 1.7184227440e+00 2.9763955015e+00 
93800 6.2876283456e+00 7.0644387171e-05 1.7184206652e+00 -2.9763919009e+00 1.7184206652e+00 2.9763919009e+00 
93900 6.2876283435e+00 7.1430160645e-05 1.7184206652e+00 -2.9763919009e+00 1.7184206652e+00 2.9763919009e+00 
94000 6.2876283414e+00 7.0621366167e-05 1.7184185868e+00 -2.9763883010e+00 1.7184185868e+00 2.9763883010e+00 
94100 6.2876283394e+00 7.1399824994e-05 1.7184185868e+00 -2.9763883010e+00 1.7184185868e+00 2.9763883010e+00 
94200 6.2876283373e+00 7.0584387478e-05 1.7184165093e+00 -2.9763847027e+00 1.7184165093e+00 2.9763847027e+00 
94300 6.2876283354e+00 7.1355543527e-05 1.7184165093e+00 -2.9763847027e+00 1.7184165093e+00 2.9763847027e+00 
94400 6.2876283333e+00 7.0533785436e-05 1.7184144331e+00 -2.9763811067e+00 1.7184144331e+00 2.9763811067e+00 
94500 6.2876283314e+00 7.1297650525e-05 1.7184144331e+00 -2.9763811067e+00 1.7184144331e+00 2.9763811067e+00 
94600 6.2876283293e+00 7.0469886980e-05 1.7184123586e+00 -2.9763775135e+00 1.7184123586e+00 2.9763775135e+00 
94700 6.2876283275e+00 7.1226473177e-05 1.7184123586e+00 -2.9763775135e+00 1.7184123586e+00 2.9763775135e+00 
94800 6.2876283255e+00 7.0393012426e-05 1.7184102862e+00 -2.9763739239e+00 1.7184102862e+00 2.9763739239e+00 
94900 6.2876283237e+00 7.1142332352e-05 1.7184102862e+00 -2.9763739239e+00 1.7184102862e+00 2.9763739239e+00 
95000 6.2876283217e+00 7.0303476205e-05 1.7184082162e+00 -2.9763703385e+00 1.7184082162e+00 2.9763703385e+00 
95100 6.2876283199e+00 7.1045543338e-05 1.7184082162e+00 -2.9763703385e+00 1.7184082162e+00 2.9763703385e+00 
95200 6.2876283179e+00 7.0201587593e-05 1.7184061490e+00 -2.9763667581e+00 1.7184061490e+00 2.9763667581e+00 
95300 6.2876283162e+00 7.0936416560e-05 1.7184061490e+00 -2.9763667581e+00 1.7184061490e+00 2.9763667581e+00 
95400 6.2876283143e+00 7.0087651403e-05 1.7184040850e+00 -2.9763631831e+00 1.7184040850e+00 2.9763631831e+00 
95500 6.2876283125e+00 7.0815258262e-05 1.7184040850e+00 -2.9763631831e+00 1.7184040850e+00 2.9763631831e+00 
95600 6.2876283107e+00 6.9961968619e-05 1.7184020245e+00 -2.9763596142e+00 1.7184020245e+00 2.9763596142e+00 
95700 6.2876283090e+00 7.0682371117e-05 1.7184020245e+00 -2.9763596142e+00 1.7184020245e+00 2.9763596142e+00 
95800 6.2876283073e+00 7.1402717194e-05 1.7184020245e+00 -2.9763596142e+00 1.7184020245e+00 2.9763596142e+00 
95900 6.2876283055e+00 7.0529080059e-05 1.7183999469e+00 -2.9763560157e+00 1.7183999469e+00 2.9763560157e+00 
96000 6.2876283038e+00 7.1242237266e-05 1.7183999469e+00 -2.9763560157e+00 1.7183999469e+00 2.9763560157e+00 
96100 6.2876283020e+00 7.0364979144e-05 1.7183978740e+00 -2.9763524253e+00 1.7183978740e+00 2.9763524253e+00 
96200 6.2876283004e+00 7.1070953969e-05 1.7183978740e+00 -2.9763524253e+00 1.7183978740e+00 2.9763524253e+00 
96300 6.2876282986e+00 7.0190322844e-05 1.7183958060e+00 -2.9763488435e+00 1.7183958060e+00 2.9763488435e+00 
96400 6.2876282970e+00 7.0889123462e-05 1.7183958060e+00 -2.9763488435e+00 1.7183958060e+00 2.9763488435e+00 
96500 6.2876282953e+00 7.0005363602e-05 1.7183937434e+00 -2.9763452709e+00 1.7183937434e+00 2.9763452709e+00 
96600 6.2876282937e+00 7.0697000466e-05 1.7183937434e+00 -2.9763452709e+00 1.7183937434e+00 2.9763452709e+00 
96700 6.2876282922e+00 7.1388600417e-05 1.7183937434e+00 -2.9763452709e+00 1.7183937434e+00 2.9763452709e+00 
96800 6.2876282905e+00 7.0486507914e-05 1.7183916662e+00 -2.9763416731e+00 1.7183916662e+00 2.9763416731e+00 
96900 6.2876282890e+00 7.1170950296e-05 1.7183916662e+00 -2.9763416731e+00 1.7183916662e+00 2.9763416731e+00 
97000 6.2876282873e+00 7.0266539223e-05 1.7183895953e+00 -2.9763380863e+00 1.7183895953e+00 2.9763380863e+00 
97100 6.2876282858e+00 7.0943825740e-05 1.7183895953e+00 -2.9763380863e+00 1.7183895953e+00 2.9763380863e+00 
97200 6.2876282842e+00 7.0037310345e-05 1.7183875311e+00 -2.9763345109e+00 1.7183875311e+00 2.9763345109e+00 
97300 6.2876282827e+00 7.0707445675e-05 1.7183875311e+00 -2.9763345109e+00 1.7183875311e+00 2.9763345109e+00 
97400 6.2876282813e+00 7.1377549708e-05 1.7183875311e+00 -2.9763345109e+00 1.7183875311e+00 2.9763345109e+00 
97500 6.2876282797e+00 7.0454180714e-05 1.7183854542e+00 -2.9763309136e+00 1.7183854542e+00 2.9763309136e+00 
97600 6.2876282783e+00 7.1117132744e-05 1.7183854542e+00 -2.9763309136e+00 1.7183854542e+00 2.9763309136e+00 
97700 6.2876282767e+00 7.0192401746e-05 1.7183833849e+00 -2.9763273295e+00 1.7183833849e+00 2.9763273295e+00 
97800 6.2876282753e+00 7.0848200123e-05 1.7183833849e+00 -2.9763273295e+00 1.7183833849e+00 2.9763273295e+00 
97900 6.2876282738e+00 6.9922297248e-05 1.7183813234e+00 -2.9763237589e+00 1.7183813234e+00 2.9763237589e+00 
98000 6.2876282724e+00 7.0570944445e-05 1.7183813234e+00 -2.9763237589e+00 1.7183813234e+00 2.9763237589e+00 
98100 6.2876282711e+00 7.1219553727e-05 1.7183813234e+00 -2.9763237589e+00 1.7183813234e+00 2.9763237589e+00 
98200 6.2876282695e+00 7.0278179182e-05 1.7183792511e+00 -2.9763201696e+00 1.7183792511e+00 2.9763201696e+00 
98300 6.2876282682e+00 7.0919635422e-05 1.7183792511e+00 -2.9763201696e+00 1.7183792511e+00 2.9763201696e+00 
98400 6.2876282667e+00 6.9977778262e-05 1.7183771876e+00 -2.9763165954e+00 1.7183771876e+00 2.9763165954e+00 
98500 6.2876282654e+00 7.0612080671e-05 1.7183771876e+00 -2.9763165954e+00 1.7183771876e+00 2.9763165954e+00 
98600 6.2876282641e+00 7.1246345300e-05 1.7183771876e+00 -2.9763165954e+00 1.7183771876e+00 2.9763165954e+00 
98700 6.2876282627e+00 7.0290006282e-05 1.7183751145e+00 -2.9763130047e+00 1.7183751145e+00 2.9763130047e+00 
98800 6.2876282614e+00 7.0917111225e-05 1.7183751145e+00 -2.9763130047e+00 1.7183751145e+00 2.9763130047e+00 
98900 6.2876282600e+00 6.9960935087e-05 1.7183730510e+00 -2.9763094307e+00 1.7183730510e+00 2.9763094307e+00 
99000 6.2876282588e+00 7.0580877668e-05 1.7183730510e+00 -2.9763094307e+00 1.7183730510e+00 2.9763094307e+00 
99100 6.2876282575e+00 7.1200776615e-05 1.7183730510e+00 -2.9763094307e+00 1.7183730510e+00 2.9763094307e+00 
99200 6.2876282561e+00 7.0231062203e-05 1.7183709792e+00 -2.9763058423e+00 1.7183709792e+00 2.9763058423e+00 
99300 6.2876282549e+00 7.0843791449e-05 1.7183709792e+00 -2.9763058423e+00 1.7183709792e+00 2.9763058423e+00 
99400 6.2876282536e+00 6.9874848141e-05 1.7183689179e+00 -2.9763022719e+00 1.7183689179e+00 2.9763022719e+00 
99500 6.2876282524e+00 7.0480404995e-05 1.7183689179e+00 -2.9763022719e+00 1.7183689179e+00 2.9763022719e+00 
99600 6.2876282512e+00 7.1085908854e-05 1.7183689179e+00 -2.9763022719e+00 1.7183689179e+00 2.9763022719e+00 
99700 6.2876282499e+00 7.0104334029e-05 1.7183668495e+00 -2.9762986893e+00 1.7183668495e+00 2.9762986893e+00 
99800 6.2876282487e+00 7.0702659645e-05 1.7183668495e+00 -2.9762986893e+00 1.7183668495e+00 2.9762986893e+00 
99900 6.2876282476e+00 7.1300938962e-05 1.7183668495e+00 -2.9762986893e+00 1.7183668495e+00 2.9762986893e+00 
100000 6.2876282463e+00 7.0307333167e-05 1.7183647748e+00 -2.9762950959e+00 1.7183647748e+00 2.9762950959e+00 
100100 6.2876282452e+00 7.0898421069e-05 1.7183647748e+00 -2.9762950959e+00 1.7183647748e+00 2.9762950959e+00 
100200 6.2876282439e+00 6.9906577670e-05 1.7183627118e+00 -2.9762915227e+00 1.7183627118e+00 2.9762915227e+00 
100300 6.2876282428e+00 7.0490468669e-05 1.7183627118e+00 -2.9762915227e+00 1.7183627118e+00 2.9762915227e+00 
100400 6.2876282417e+00 7.1074294906e-05 1.7183627118e+00 -2.9762915227e+00 1.7183627118e+00 2.9762915227e+00 
100500 6.2876282404e+00 7.0071258078e-05 1.7183606438e+00 -2.9762879407e+00 1.7183606438e+00 2.9762879407e+00 
100600 6.2876282394e+00 7.0647879317e-05 1.7183606438e+00 -2.9762879407e+00 1.7183606438e+00 2.9762879407e+00 
100700 6.2876282383e+00 7.1224438742e-05 1.7183606438e+00 -2.9762879407e+00 1.7183606438e+00 2.9762879407e+00 
100800 6.2876282371e+00 7.0210774135e-05 1.7183585713e+00 -2.9762843511e+00 1.7183585713e+00 2.9762843511e+00 
100900 6.2876282361e+00 7.0780115775e-05 1.7183585713e+00 -2.9762843511e+00 1.7183585713e+00 2.9762843511e+00 
101000 6.2876282349e+00 6.9769119502e-05 1.7183565118e+00 -2.9762807839e+00 1.7183565118e+00 2.9762807839e+00 
101100 6.2876282338e+00 7.0331239665e-05 1.7183565118e+00 -2.9762807839e+00 1.7183565118e+00 2.9762807839e+00 
101200 6.2876282328e+00 7.0893276523e-05 1.7183565118e+00 -2.9762807839e+00 1.7183565118e+00 2.9762807839e+00 
101300 6.2876282317e+00 6.9872443125e-05 1.7183544489e+00 -2.9762772110e+00 1.7183544489e+00 2.9762772110e+00 
101400 6.2876282307e+00 7.0427255415e-05 1.7183544489e+00 -2.9762772110e+00 1.7183544489e+00 2.9762772110e+00 
101500 6.2876282297e+00 7.0981987449e-05 1.7183544489e+00 -2.9762772110e+00 1.7183544489e+00 2.9762772110e+00 
101600 6.2876282285e+00 6.9951860582e-05 1.7183523835e+00 -2.9762736336e+00 1.7183523835e+00 2.9762736336e+00 
101700 6.2876282276e+00 7.0499363005e-05 1.7183523835e+00 -2.9762736336e+00 1.7183523835e+00 2.9762736336e+00 
101800 6.2876282266e+00 7.1046786055e-05 1.7183523835e+00 -2.9762736336e+00 1.7183523835e+00 2.9762736336e+00 
101900 6.2876282255e+00 7.0007893338e-05 1.7183503163e+00 -2.9762700529e+00 1.7183503163e+00 2.9762700529e+00 
102000 6.2876282246e+00 7.0548079934e-05 1.7183503163e+00 -2.9762700529e+00 1.7183503163e+00 2.9762700529e+00 
102100 6.2876282237e+00 7.1088186053e-05 1.7183503163e+00 -2.9762700529e+00 1.7183503163e+00 2.9762700529e+00 
102200 6.2876282226e+00 7.0041040096e-05 1.7183482477e+00 -2.9762664702e+00 1.7183482477e+00 2.9762664702e+00 
102300 6.2876282217e+00 7.0573901561e-05 1.7183482477e+00 -2.9762664702e+00 1.7183482477e+00 2.9762664702e+00 
102400 6.2876282207e+00 7.1106679765e-05 1.7183482477e+00 -2.9762664702e+00 1.7183482477e+00 2.9762664702e+00 
102500 6.2876282197e+00 7.0051779497e-05 1.7183461787e+00 -2.9762628865e+00 1.7183461787e+00 2.9762628865e+00 
102600 6.2876282188e+00 7.0577304146e-05 1.7183461787e+00 -2.9762628865e+00 1.7183461787e+00 2.9762628865e+00 
102700 6.2876282179e+00 7.1102741457e-05 1.7183461787e+00 -2.9762628865e+00 1.7183461787e+00 2.9762628865e+00 
102800 6.2876282169e+00 7.0040573647e-05 1.7183441098e+00 -2.9762593030e+00 1.7183441098e+00 2.9762593030e+00 
102900 6.2876282160e+00 7.0558748588e-05 1.7183441098e+00 -2.9762593030e+00 1.7183441098e+00 2.9762593030e+00 
103000 6.2876282152e+00 7.1076831266e-05 1.7183441098e+00 -2.9762593030e+00 1.7183441098e+00 2.9762593030e+00 
103100 6.2876282142e+00 7.0007872104e-05 1.7183420416e+00 -2.9762557208e+00 1.7183420416e+00 2.9762557208e+00 
103200 6.2876282133e+00 7.0518684547e-05 1.7183420416e+00 -2.9762557208e+00 1.7183420416e+00 2.9762557208e+00 
103300 6.2876282125e+00 7.1029399414e-05 1.7183420416e+00 -2.9762557208e+00 1.7183420416e+00 2.9762557208e+00 
103400 6.2876282115e+00 6.9954116092e-05 1.7183399748e+00 -2.9762521410e+00 1.7183399748e+00 2.9762521410e+00 
103500 6.2876282107e+00 7.0457554707e-05 1.7183399748e+00 -2.9762521410e+00 1.7183399748e+00 2.9762521410e+00 
103600 6.2876282099e+00 7.0960890516e-05 1.7183399748e+00 -2.9762521410e+00 1.7183399748e+00 2.9762521410e+00 
103700 6.2876282089e+00 6.9879742692e-05 1.7183379100e+00 -2.9762485647e+00 1.7183379100e+00 2.9762485647e+00 
103800 6.2876282081e+00 7.0375798953e-05 1.7183379100e+00 -2.9762485647e+00 1.7183379100e+00 2.9762485647e+00 
103900 6.2876282073e+00 7.0871747715e-05 1.7183379100e+00 -2.9762485647e+00 1.7183379100e+00 2.9762485647e+00 
104000 6.2876282064e+00 6.9785188874e-05 1.7183358478e+00 -2.9762449928e+00 1.7183358478e+00 2.9762449928e+00 
104100 6.2876282056e+00 7.0273858350e-05 1.7183358478e+00 -2.9762449928e+00 1.7183358478e+00 2.9762449928e+00 
104200 6.2876282049e+00 7.0762416589e-05 1.7183358478e+00 -2.9762449928e+00 1.7183358478e+00 2.9762449928e+00 
104300 6.2876282039e+00 6.9670895197e-05 1.7183337887e+00 -2.9762414265e+00 1.7183337887e+00 2.9762414265e+00 
104400 6.2876282032e+00 7.0152178731e-05 1.7183337887e+00 -2.9762414265e+00 1.7183337887e+00 2.9762414265e+00 
104500 6.2876282025e+00 7.0633348625e-05 1.7183337887e+00 -2.9762414265e+00 1.7183337887e+00 2.9762414265e+00 
104600 6.2876282017e+00 7.1114428527e-05 1.7183337887e+00 -2.9762414265e+00 1.7183337887e+00 2.9762414265e+00 
104700 6.2876282008e+00 7.0007577329e-05 1.7183317195e+00 -2.9762378423e+00 1.7183317195e+00 2.9762378423e+00 
104800 6.2876282001e+00 7.0481383799e-05 1.7183317195e+00 -2.9762378423e+00 1.7183317195e+00 2.9762378423e+00 
104900 6.2876281994e+00 7.0955091752e-05 1.7183317195e+00 -2.9762378423e+00 1.7183317195e+00 2.9762378423e+00 
105000 6.2876281985e+00 6.9844408386e-05 1.7183296548e+00 -2.9762342663e+00 1.7183296548e+00 2.9762342663e+00 
105100 6.2876281978e+00 7.0310842854e-05 1.7183296548e+00 -2.9762342663e+00 1.7183296548e+00 2.9762342663e+00 
105200 6.2876281971e+00 7.0777171653e-05 1.7183296548e+00 -2.9762342663e+00 1.7183296548e+00 2.9762342663e+00 
105300 6.2876281963e+00 6.9663065573e-05 1.7183275953e+00 -2.9762306992e+00 1.7183275953e+00 2.9762306992e+00 
105400 6.2876281956e+00 7.0122126130e-05 1.7183275953e+00 -2.9762306992e+00 1.7183275953e+00 2.9762306992e+00 
105500 6.2876281949e+00 7.0581075906e-05 1.7183275953e+00 -2.9762306992e+00 1.7183275953e+00 2.9762306992e+00 
105600 6.2876281942e+00 7.1039937819e-05 1.7183275953e+00 -2.9762306992e+00 1.7183275953e+00 2.9762306992e+00 
105700 6.2876281934e+00 6.9912503126e-05 1.7183255282e+00 -2.9762271188e+00 1.7183255282e+00 2.9762271188e+00 
105800 6.2876281928e+00 7.0364101268e-05 1.7183255282e+00 -2.9762271188e+00 1.7183255282e+00 2.9762271188e+00 
105900 6.2876281921e+00 7.0815601529e-05 1.7183255282e+00 -2.9762271188e+00 1.7183255282e+00 2.9762271188e+00 
106000 6.2876281913e+00 6.9685795411e-05 1.7183234676e+00 -2.9762235497e+00 1.7183234676e+00 2.9762235497e+00 
106100 6.2876281907e+00 7.0130036356e-05 1.7183234676e+00 -2.9762235497e+00 1.7183234676e+00 2.9762235497e+00 
106200 6.2876281900e+00 7.0574171798e-05 1.7183234676e+00 -2.9762235497e+00 1.7183234676e+00 2.9762235497e+00 
106300 6.2876281894e+00 7.1018223934e-05 1.7183234676e+00 -2.9762235497e+00 1.7183234676e+00 2.9762235497e+00 
106400 6.2876281886e+00 6.9876447959e-05 1.7183214011e+00 -2.9762199705e+00 1.7183214011e+00 2.9762199705e+00 
106500 6.2876281880e+00 7.0313245475e-05 1.7183214011e+00 -2.9762199705e+00 1.7183214011e+00 2.9762199705e+00 
106600 6.2876281874e+00 7.0749947889e-05 1.7183214011e+00 -2.9762199705e+00 1.7183214011e+00 2.9762199705e+00 
106700 6.2876281866e+00 6.9606792164e-05 1.7183193424e+00 -2.9762164047e+00 1.7183193424e+00 2.9762164047e+00 
106800 6.2876281860e+00 7.0036245894e-05 1.7183193424e+00 -2.9762164047e+00 1.7183193424e+00 2.9762164047e+00 
106900 6.2876281854e+00 7.0465595789e-05 1.7183193424e+00 -2.9762164047e+00 1.7183193424e+00 2.9762164047e+00 
107000 6.2876281849e+00 7.0894863797e-05 1.7183193424e+00 -2.9762164047e+00 1.7183193424e+00 2.9762164047e+00 
107100 6.2876281841e+00 6.9741039537e-05 1.7183172795e+00 -2.9762128316e+00 1.7183172795e+00 2.9762128316e+00 
107200 6.2876281835e+00 7.0163067551e-05 1.7183172795e+00 -2.9762128316e+00 1.7183172795e+00 2.9762128316e+00 
107300 6.2876281830e+00 7.0585001735e-05 1.7183172795e+00 -2.9762128316e+00 1.7183172795e+00 2.9762128316e+00 
107400 6.2876281824e+00 7.1006862994e-05 1.7183172795e+00 -2.9762128316e+00 1.7183172795e+00 2.9762128316e+00 
107500 6.2876281817e+00 6.9843128587e-05 1.7183152133e+00 -2.9762092529e+00 1.7183152133e+00 2.9762092529e+00 
107600 6.2876281811e+00 7.0257753260e-05 1.7183152133e+00 -2.9762092529e+00 1.7183152133e+00 2.9762092529e+00 
107700 6.2876281806e+00 7.0672289855e-05 1.7183152133e+00 -2.9762092529e+00 1.7183152133e+00 2.9762092529e+00 
107800 6.2876281800e+00 7.1086758285e-05 1.7183152133e+00 -2.9762092529e+00 1.7183152133e+00 2.9762092529e+00 
107900 6.2876281793e+00 6.9913840430e-05 1.7183131448e+00 -2.9762056702e+00 1.7183131448e+00 2.9762056702e+00 
108000 6.2876281788e+00 7.0321070761e-05 1.7183131448e+00 -2.9762056702e+00 1.7183131448e+00 2.9762056702e+00 
108100 6.2876281783e+00 7.0728214897e-05 1.7183131448e+00 -2.9762056702e+00 1.7183131448e+00 2.9762056702e+00 
108200 6.2876281776e+00 6.9555952896e-05 1.7183110868e+00 -2.9762021055e+00 1.7183110868e+00 2.9762021055e+00 
108300 6.2876281771e+00 6.9955862700e-05 1.7183110868e+00 -2.9762021055e+00 1.7183110868e+00 2.9762021055e+00 
108400 6.2876281765e+00 7.0355672688e-05 1.7183110868e+00 -2.9762021055e+00 1.7183110868e+00 2.9762021055e+00 
108500 6.2876281760e+00 7.0755403479e-05 1.7183110868e+00 -2.9762021055e+00 1.7183110868e+00 2.9762021055e+00 
108600 6.2876281754e+00 6.9575117494e-05 1.7183090279e+00 -2.9761985394e+00 1.7183090279e+00 2.9761985394e+00 
108700 6.2876281749e+00 6.9967624002e-05 1.7183090279e+00 -2.9761985394e+00 1.7183090279e+00 2.9761985394e+00 
108800 6.2876281744e+00 7.0360036561e-05 1.7183090279e+00 -2.9761985394e+00 1.7183090279e+00 2.9761985394e+00 
108900 6.2876281739e+00 7.0752375431e-05 1.7183090279e+00 -2.9761985394e+00 1.7183090279e+00 2.9761985394e+00 
109000 6.2876281732e+00 6.9564760213e-05 1.7183069691e+00 -2.9761949735e+00 1.7183069691e+00 2.9761949735e+00 
109100 6.2876281727e+00 6.9949884970e-05 1.7183069691e+00 -2.9761949735e+00 1.7183069691e+00 2.9761949735e+00 
109200 6.2876281723e+00 7.0334920281e-05 1.7183069691e+00 -2.9761949735e+00 1.7183069691e+00 2.9761949735e+00 
109300 6.2876281718e+00 7.0719886106e-05 1.7183069691e+00 -2.9761949735e+00 1.7183069691e+00 2.9761949735e+00 
109400 6.2876281712e+00 6.9525617259e-05 1.7183049113e+00 -2.9761914092e+00 1.7183049113e+00 2.9761914092e+00 
109500 6.2876281707e+00 6.9903379739e-05 1.7183049113e+00 -2.9761914092e+00 1.7183049113e+00 2.9761914092e+00 
109600 6.2876281702e+00 7.0281056261e-05 1.7183049113e+00 -2.9761914092e+00 1.7183049113e+00 2.9761914092e+00 
109700 6.2876281698e+00 7.0658666582e-05 1.7183049113e+00 -2.9761914092e+00 1.7183049113e+00 2.9761914092e+00 
109800 6.2876281693e+00 7.1036228592e-05 1.7183049113e+00 -2.9761914092e+00 1.7183049113e+00 2.9761914092e+00 
109900 6.2876281687e+00 6.9827500013e-05 1.7183028442e+00 -2.9761878290e+00 1.7183028442e+00 2.9761878290e+00 
110000 6.2876281683e+00 7.0197862609e-05 1.7183028442e+00 -2.9761878290e+00 1.7183028442e+00 2.9761878290e+00 
110100 6.2876281679e+00 7.0568153602e-05 1.7183028442e+00 -2.9761878290e+00 1.7183028442e+00 2.9761878290e+00 
110200 6.2876281674e+00 7.0938390549e-05 1.7183028442e+00 -2.9761878290e+00 1.7183028442e+00 2.9761878290e+00 
110300 6.2876281668e+00 6.9724505781e-05 1.7183007800e+00 -2.9761842537e+00 1.7183007800e+00 2.9761842537e+00 
110400 6.2876281664e+00 7.0087540963e-05 1.7183007800e+00 -2.9761842537e+00 1.7183007800e+00 2.9761842537e+00 
110500 6.2876281660e+00 7.0450498448e-05 1.7183007800e+00 -2.9761842537e+00 1.7183007800e+00 2.9761842537e+00 
110600 6.2876281656e+00 7.0813395801e-05 1.7183007800e+00 -2.9761842537e+00 1.7183007800e+00 2.9761842537e+00 
110700 6.2876281650e+00 6.9594946829e-05 1.7182987195e+00 -2.9761806847e+00 1.7182987195e+00 2.9761806847e+00 
110800 6.2876281646e+00 6.9950643077e-05 1.7182987195e+00 -2.9761806847e+00 1.7182987195e+00 2.9761806847e+00 
110900 6.2876281642e+00 7.0306256153e-05 1.7182987195e+00 -2.9761806847e+00 1.7182987195e+00 2.9761806847e+00 
111000 6.2876281638e+00 7.0661803918e-05 1.7182987195e+00 -2.9761806847e+00 1.7182987195e+00 2.9761806847e+00 
111100 6.2876281634e+00 7.1017302505e-05 1.7182987195e+00 -2.9761806847e+00 1.7182987195e+00 2.9761806847e+00 
111200 6.2876281628e+00 6.9786900210e-05 1.7182966530e+00 -2.9761771054e+00 1.7182966530e+00 2.9761771054e+00 
111300 6.2876281624e+00 7.0135194564e-05 1.7182966530e+00 -2.9761771054e+00 1.7182966530e+00 2.9761771054e+00 
111400 6.2876281620e+00 7.0483412113e-05 1.7182966530e+00 -2.9761771054e+00 1.7182966530e+00 2.9761771054e+00 
111500 6.2876281616e+00 7.0831569269e-05 1.7182966530e+00 -2.9761771054e+00 1.7182966530e+00 2.9761771054e+00 
111600 6.2876281611e+00 6.9597952619e-05 1.7182945919e+00 -2.9761735355e+00 1.7182945919e+00 2.9761735355e+00 
111700 6.2876281607e+00 6.9938902984e-05 1.7182945919e+00 -2.9761735355e+00 1.7182945919e+00 2.9761735355e+00 
111800 6.2876281604e+00 7.0279766962e-05 1.7182945919e+00 -2.9761735355e+00 1.7182945919e+00 2.9761735355e+00 
111900 6.2876281600e+00 7.0620561619e-05 1.7182945919e+00 -2.9761735355e+00 1.7182945919e+00 2.9761735355e+00 
112000 6.2876281596e+00 7.0961302391e-05 1.7182945919e+00 -2.9761735355e+00 1.7182945919e+00 2.9761735355e+00 
112100 6.2876281591e+00 6.9717367328e-05 1.7182925270e+00 -2.9761699590e+00 1.7182925270e+00 2.9761699590e+00 
112200 6.2876281587e+00 7.0050898189e-05 1.7182925270e+00 -2.9761699590e+00 1.7182925270e+00 2.9761699590e+00 
112300 6.2876281584e+00 7.0384346105e-05 1.7182925270e+00 -2.9761699590e+00 1.7182925270e+00 2.9761699590e+00 
112400 6.2876281580e+00 7.0717727192e-05 1.7182925270e+00 -2.9761699590e+00 1.7182925270e+00 2.9761699590e+00 
112500 6.2876281575e+00 6.9471850097e-05 1.7182904692e+00 -2.9761663948e+00 1.7182904692e+00 2.9761663948e+00 
112600 6.2876281572e+00 6.9798022305e-05 1.7182904692e+00 -2.9761663948e+00 1.7182904692e+00 2.9761663948e+00 
112700 6.2876281568e+00 7.0124101530e-05 1.7182904692e+00 -2.9761663948e+00 1.7182904692e+00 2.9761663948e+00 
112800 6.2876281565e+00 7.0450104940e-05 1.7182904692e+00 -2.9761663948e+00 1.7182904692e+00 2.9761663948e+00 
112900 6.2876281561e+00 7.0776048169e-05 1.7182904692e+00 -2.9761663948e+00 1.7182904692e+00 2.9761663948e+00 
113000 6.2876281556e+00 6.9521426740e-05 1.7182884097e+00 -2.9761628277e+00 1.7182884097e+00 2.9761628277e+00 
113100 6.2876281553e+00 6.9840166926e-05 1.7182884097e+00 -2.9761628277e+00 1.7182884097e+00 2.9761628277e+00 
113200 6.2876281550e+00 7.0158819237e-05 1.7182884097e+00 -2.9761628277e+00 1.7182884097e+00 2.9761628277e+00 
113300 6.2876281547e+00 7.0477400356e-05 1.7182884097e+00 -2.9761628277e+00 1.7182884097e+00 2.9761628277e+00 
113400 6.2876281543e+00 7.0795925441e-05 1.7182884097e+00 -2.9761628277e+00 1.7182884097e+00 2.9761628277e+00 
113500 6.2876281539e+00 6.9533435494e-05 1.7182863496e+00 -2.9761592595e+00 1.7182863496e+00 2.9761592595e+00 
113600 6.2876281536e+00 6.9844762354e-05 1.7182863496e+00 -2.9761592595e+00 1.7182863496e+00 2.9761592595e+00 
113700 6.2876281532e+00 7.0156004151e-05 1.7182863496e+00 -2.9761592595e+00 1.7182863496e+00 2.9761592595e+00 
113800 6.2876281529e+00 7.0467177171e-05 1.7182863496e+00 -2.9761592595e+00 1.7182863496e+00 2.9761592595e+00 
113900 6.2876281526e+00 7.0778296214e-05 1.7182863496e+00 -2.9761592595e+00 1.7182863496e+00 2.9761592595e+00 
114000 6.2876281522e+00 6.9508785562e-05 1.7182842901e+00 -2.9761556923e+00 1.7182842901e+00 2.9761556923e+00 
114100 6.2876281519e+00 6.9812711205e-05 1.7182842901e+00 -2.9761556923e+00 1.7182842901e+00 2.9761556923e+00 
114200 6.2876281516e+00 7.0116552970e-05 1.7182842901e+00 -2.9761556923e+00 1.7182842901e+00 2.9761556923e+00 
114300 6.2876281513e+00 7.0420326920e-05 1.7182842901e+00 -2.9761556923e+00 1.7182842901e+00 2.9761556923e+00 
114400 6.2876281510e+00 7.0724047667e-05 1.7182842901e+00 -2.9761556923e+00 1.7182842901e+00 2.9761556923e+00 
114500 6.2876281505e+00 6.9448340830e-05 1.7182822321e+00 -2.9761521277e+00 1.7182822321e+00 2.9761521277e+00 
114600 6.2876281502e+00 6.9744874680e-05 1.7182822321e+00 -2.9761521277e+00 1.7182822321e+00 2.9761521277e+00 
114700 6.2876281499e+00 7.0041325155e-05 1.7182822321e+00 -2.9761521277e+00 1.7182822321e+00 2.9761521277e+00 
114800 6.2876281497e+00 7.0337708286e-05 1.7182822321e+00 -2.9761521277e+00 1.7182822321e+00 2.9761521277e+00 
114900 6.2876281494e+00 7.0634038694e-05 1.7182822321e+00 -2.9761521277e+00 1.7182822321e+00 2.9761521277e+00 
115000 6.2876281491e+00 7.0930329502e-05 1.7182822321e+00 -2.9761521277e+00 1.7182822321e+00 2.9761521277e+00 
115100 6.2876281487e+00 6.9642587491e-05 1.7182801681e+00 -2.9761485528e+00 1.7182801681e+00 2.9761485528e+00 
115200 6.2876281484e+00 6.9931693164e-05 1.7182801681e+00 -2.9761485528e+00 1.7182801681e+00 2.9761485528e+00 
115300 6.2876281481e+00 7.0220724299e-05 1.7182801681e+00 -2.9761485528e+00 1.7182801681e+00 2.9761485528e+00 
115400 6.2876281479e+00 7.0509695413e-05 1.7182801681e+00 -2.9761485528e+00 1.7182801681e+00 2.9761485528e+00 
115500 6.2876281476e+00 7.0798619627e-05 1.7182801681e+00 -2.9761485528e+00 1.7182801681e+00 2.9761485528e+00 
115600 6.2876281472e+00 6.9506435337e-05 1.7182781080e+00 -2.9761449845e+00 1.7182781080e+00 2.9761449845e+00 
115700 6.2876281469e+00 6.9788173325e-05 1.7182781080e+00 -2.9761449845e+00 1.7182781080e+00 2.9761449845e+00 
115800 6.2876281467e+00 7.0069830117e-05 1.7182781080e+00 -2.9761449845e+00 1.7182781080e+00 2.9761449845e+00 
115900 6.2876281464e+00 7.0351420551e-05 1.7182781080e+00 -2.9761449845e+00 1.7182781080e+00 2.9761449845e+00 
116000 6.2876281462e+00 7.0632958145e-05 1.7182781080e+00 -2.9761449845e+00 1.7182781080e+00 2.9761449845e+00 
116100 6.2876281459e+00 7.0914455012e-05 1.7182781080e+00 -2.9761449845e+00 1.7182781080e+00 2.9761449845e+00 
116200 6.2876281455e+00 6.9612251243e-05 1.7182760444e+00 -2.9761414104e+00 1.7182760444e+00 2.9761414104e+00 
116300 6.2876281453e+00 6.9886559467e-05 1.7182760444e+00 -2.9761414104e+00 1.7182760444e+00 2.9761414104e+00 
116400 6.2876281450e+00 7.0160789604e-05 1.7182760444e+00 -2.9761414104e+00 1.7182760444e+00 2.9761414104e+00 
116500 6.2876281448e+00 7.0434955559e-05 1.7182760444e+00 -2.9761414104e+00 1.7182760444e+00 2.9761414104e+00 
116600 6.2876281445e+00 7.0709069943e-05 1.7182760444e+00 -2.9761414104e+00 1.7182760444e+00 2.9761414104e+00 
116700 6.2876281443e+00 7.0983143999e-05 1.7182760444e+00 -2.9761414104e+00 1.7182760444e+00 2.9761414104e+00 
116800 6.2876281439e+00 6.9671972638e-05 1.7182739789e+00 -2.9761378328e+00 1.7182739789e+00 2.9761378328e+00 
116900 6.2876281437e+00 6.9938849371e-05 1.7182739789e+00 -2.9761378328e+00 1.7182739789e+00 2.9761378328e+00 
117000 6.2876281435e+00 7.0205645991e-05 1.7182739789e+00 -2.9761378328e+00 1.7182739789e+00 2.9761378328e+00 
117100 6.2876281432e+00 7.0472375720e-05 1.7182739789e+00 -2.9761378328e+00 1.7182739789e+00 2.9761378328e+00 
117200 6.2876281430e+00 7.0739050532e-05 1.7182739789e+00 -2.9761378328e+00 1.7182739789e+00 2.9761378328e+00 
117300 6.2876281426e+00 6.9425907860e-05 1.7182719205e+00 -2.9761342674e+00 1.7182719205e+00 2.9761342674e+00 
117400 6.2876281424e+00 6.9685383325e-05 1.7182719205e+00 -2.9761342674e+00 1.7182719205e+00 2.9761342674e+00 
117500 6.2876281422e+00 6.9944767184e-05 1.7182719205e+00 -2.9761342674e+00 1.7182719205e+00 2.9761342674e+00 
117600 6.2876281420e+00 7.0204073778e-05 1.7182719205e+00 -2.9761342674e+00 1.7182719205e+00 2.9761342674e+00 
117700 6.2876281418e+00 7.0463316289e-05 1.7182719205e+00 -2.9761342674e+00 1.7182719205e+00 2.9761342674e+00 
117800 6.2876281415e+00 7.0722506656e-05 1.7182719205e+00 -2.9761342674e+00 1.7182719205e+00 2.9761342674e+00 
117900 6.2876281412e+00 6.9402241670e-05 1.7182698625e+00 -2.9761307030e+00 1.7182698625e+00 2.9761307030e+00 
118000 6.2876281410e+00 6.9654239723e-05 1.7182698625e+00 -2.9761307030e+00 1.7182698625e+00 2.9761307030e+00 
118100 6.2876281408e+00 6.9906148910e-05 1.7182698625e+00 -2.9761307030e+00 1.7182698625e+00 2.9761307030e+00 
118200 6.2876281406e+00 7.0157983578e-05 1.7182698625e+00 -2.9761307030e+00 1.7182698625e+00 2.9761307030e+00 
118300 6.2876281403e+00 7.0409756932e-05 1.7182698625e+00 -2.9761307030e+00 1.7182698625e+00 2.9761307030e+00 
118400 6.2876281402e+00 7.0661480960e-05 1.7182698625e+00 -2.9761307030e+00 1.7182698625e+00 2.9761307030e+00 
118500 6.2876281400e+00 7.0913166363e-05 1.7182698625e+00 -2.9761307030e+00 1.7182698625e+00 2.9761307030e+00 
118600 6.2876281396e+00 6.9581140056e-05 1.7182677990e+00 -2.9761271289e+00 1.7182677990e+00 2.9761271289e+00 
118700 6.2876281394e+00 6.9825637007e-05 1.7182677990e+00 -2.9761271289e+00 1.7182677990e+00 2.9761271289e+00 
118800 6.2876281392e+00 7.0070054550e-05 1.7182677990e+00 -2.9761271289e+00 1.7182677990e+00 2.9761271289e+00 
118900 6.2876281390e+00 7.0314405735e-05 1.7182677990e+00 -2.9761271289e+00 1.7182677990e+00 2.9761271289e+00 
119000 6.2876281388e+00 7.0558702481e-05 1.7182677990e+00 -2.9761271289e+00 1.7182677990e+00 2.9761271289e+00 
119100 6.2876281386e+00 7.0802955495e-05 1.7182677990e+00 -2.9761271289e+00 1.7182677990e+00 2.9761271289e+00 
119200 6.2876281383e+00 6.9465943223e-05 1.7182657387e+00 -2.9761235603e+00 1.7182657387e+00 2.9761235603e+00 
119300 6.2876281381e+00 6.9703008916e-05 1.7182657387e+00 -2.9761235603e+00 1.7182657387e+00 2.9761235603e+00 
119400 6.2876281379e+00 6.9939990681e-05 1.7182657387e+00 -2.9761235603e+00 1.7182657387e+00 2.9761235603e+00 
119500 6.2876281377e+00 7.0176901858e-05 1.7182657387e+00 -2.9761235603e+00 1.7182657387e+00 2.9761235603e+00 
119600 6.2876281376e+00 7.0413754718e-05 1.7182657387e+00 -2.9761235603e+00 1.7182657387e+00 2.9761235603e+00 
119700 6.2876281374e+00 7.0650560383e-05 1.7182657387e+00 -2.9761235603e+00 1.7182657387e+00 2.9761235603e+00 
119800 6.2876281372e+00 7.0887328774e-05 1.7182657387e+00 -2.9761235603e+00 1.7182657387e+00 2.9761235603e+00 
119900 6.2876281369e+00 6.9540942850e-05 1.7182636759e+00 -2.9761199875e+00 1.7182636759e+00 2.9761199875e+00 
120000 6.2876281367e+00 6.9770525881e-05 1.7182636759e+00 -2.9761199875e+00 1.7182636759e+00 2.9761199875e+00 
120100 6.2876281365e+00 7.0000029053e-05 1.7182636759e+00 -2.9761199875e+00 1.7182636759e+00 2.9761199875e+00 
120200 6.2876281364e+00 7.0229464984e-05 1.7182636759e+00 -2.9761199875e+00 1.7182636759e+00 2.9761199875e+00 
120300 6.2876281362e+00 7.0458845248e-05 1.7182636759e+00 -2.9761199875e+00 1.7182636759e+00 2.9761199875e+00 
120400 6.2876281360e+00 7.0688180305e-05 1.7182636759e+00 -2.9761199875e+00 1.7182636759e+00 2.9761199875e+00 
120500 6.2876281359e+00 7.0917479446e-05 1.7182636759e+00 -2.9761199875e+00 1.7182636759e+00 2.9761199875e+00 
120600 6.2876281355e+00 6.9562941414e-05 1.7182616123e+00 -2.9761164132e+00 1.7182616123e+00 2.9761164132e+00 
120700 6.2876281354e+00 6.9785053044e-05 1.7182616123e+00 -2.9761164132e+00 1.7182616123e+00 2.9761164132e+00 
120800 6.2876281352e+00 7.0007084507e-05 1.7182616123e+00 -2.9761164132e+00 1.7182616123e+00 2.9761164132e+00 
120900 6.2876281351e+00 7.0229047964e-05 1.7182616123e+00 -2.9761164132e+00 1.7182616123e+00 2.9761164132e+00 
121000 6.2876281349e+00 7.0450954580e-05 1.7182616123e+00 -2.9761164132e+00 1.7182616123e+00 2.9761164132e+00 
121100 6.2876281347e+00 7.0672814460e-05 1.7182616123e+00 -2.9761164132e+00 1.7182616123e+00 2.9761164132e+00 
121200 6.2876281346e+00 7.0894636585e-05 1.7182616123e+00 -2.9761164132e+00 1.7182616123e+00 2.9761164132e+00 
121300 6.2876281343e+00 6.9533119457e-05 1.7182595493e+00 -2.9761128400e+00 1.7182595493e+00 2.9761128400e+00 
121400 6.2876281341e+00 6.9747751866e-05 1.7182595493e+00 -2.9761128400e+00 1.7182595493e+00 2.9761128400e+00 
121500 6.2876281340e+00 6.9962301675e-05 1.7182595493e+00 -2.9761128400e+00 1.7182595493e+00 2.9761128400e+00 
121600 6.2876281338e+00 7.0176780939e-05 1.7182595493e+00 -2.9761128400e+00 1.7182595493e+00 2.9761128400e+00 
121700 6.2876281337e+00 7.0391200772e-05 1.7182595493e+00 -2.9761128400e+00 1.7182595493e+00 2.9761128400e+00 
121800 6.2876281335e+00 7.0605571276e-05 1.7182595493e+00 -2.9761128400e+00 1.7182595493e+00 2.9761128400e+00 
121900 6.2876281334e+00 7.0819901480e-05 1.7182595493e+00 -2.9761128400e+00 1.7182595493e+00 2.9761128400e+00 
122000 6.2876281331e+00 6.9452549095e-05 1.7182574885e+00 -2.9761092706e+00 1.7182574885e+00 2.9761092706e+00 
122100 6.2876281329e+00 6.9659692280e-05 1.7182574885e+00 -2.9761092706e+00 1.7182574885e+00 2.9761092706e+00 
122200 6.2876281328e+00 6.9866750842e-05 1.7182574885e+00 -2.9761092706e+00 1.7182574885e+00 2.9761092706e+00 
122300 6.2876281327e+00 7.0073737079e-05 1.7182574885e+00 -2.9761092706e+00 1.7182574885e+00 2.9761092706e+00 
122400 6.2876281325e+00 7.0280662388e-05 1.7182574885e+00 -2.9761092706e+00 1.7182574885e+00 2.9761092706e+00 
122500 6.2876281324e+00 7.0487537199e-05 1.7182574885e+00 -2.9761092706e+00 1.7182574885e+00 2.9761092706e+00 
122600 6.2876281323e+00 7.0694370918e-05 1.7182574885e+00 -2.9761092706e+00 1.7182574885e+00 2.9761092706e+00 
122700 6.2876281321e+00 7.0901171872e-05 1.7182574885e+00 -2.9761092706e+00 1.7182574885e+00 2.9761092706e+00 
122800 6.2876281318e+00 6.9524471608e-05 1.7182554254e+00 -2.9761056971e+00 1.7182554254e+00 2.9761056971e+00 
122900 6.2876281317e+00 6.9724090213e-05 1.7182554254e+00 -2.9761056971e+00 1.7182554254e+00 2.9761056971e+00 
123000 6.2876281316e+00 6.9923629575e-05 1.7182554254e+00 -2.9761056971e+00 1.7182554254e+00 2.9761056971e+00 
123100 6.2876281314e+00 7.0123101332e-05 1.7182554254e+00 -2.9761056971e+00 1.7182554254e+00 2.9761056971e+00 
123200 6.2876281313e+00 7.0322516243e-05 1.7182554254e+00 -2.9761056971e+00 1.7182554254e+00 2.9761056971e+00 
123300 6.2876281312e+00 7.0521884129e-05 1.7182554254e+00 -2.9761056971e+00 1.7182554254e+00 2.9761056971e+00 
123400 6.2876281311e+00 7.0721213811e-05 1.7182554254e+00 -2.9761056971e+00 1.7182554254e+00 2.9761056971e+00 
123500 6.2876281308e+00 6.9341046837e-05 1.7182533674e+00 -2.9761021326e+00 1.7182533674e+00 2.9761021326e+00 
123600 6.2876281307e+00 6.9533203107e-05 1.7182533674e+00 -2.9761021326e+00 1.7182533674e+00 2.9761021326e+00 
123700 6.2876281305e+00 6.9725276782e-05 1.7182533674e+00 -2.9761021326e+00 1.7182533674e+00 2.9761021326e+00 
123800 6.2876281304e+00 6.9917280246e-05 1.7182533674e+00 -2.9761021326e+00 1.7182533674e+00 2.9761021326e+00 
123900 6.2876281303e+00 7.0109225063e-05 1.7182533674e+00 -2.9761021326e+00 1.7182533674e+00 2.9761021326e+00 
124000 6.2876281302e+00 7.0301121908e-05 1.7182533674e+00 -2.9761021326e+00 1.7182533674e+00 2.9761021326e+00 
124100 6.2876281301e+00 7.0492980505e-05 1.7182533674e+00 -2.9761021326e+00 1.7182533674e+00 2.9761021326e+00 
124200 6.2876281299e+00 7.0684809580e-05 1.7182533674e+00 -2.9761021326e+00 1.7182533674e+00 2.9761021326e+00 
124300 6.2876281298e+00 7.0876616816e-05 1.7182533674e+00 -2.9761021326e+00 1.7182533674e+00 2.9761021326e+00 
124400 6.2876281295e+00 6.9485461255e-05 1.7182513050e+00 -2.9760985604e+00 1.7182513050e+00 2.9760985604e+00 
124500 6.2876281294e+00 6.9670108489e-05 1.7182513050e+00 -2.9760985604e+00 1.7182513050e+00 2.9760985604e+00 
124600 6.2876281293e+00 6.9854685757e-05 1.7182513050e+00 -2.9760985604e+00 1.7182513050e+00 2.9760985604e+00 
124700 6.2876281292e+00 7.0039204239e-05 1.7182513050e+00 -2.9760985604e+00 1.7182513050e+00 2.9760985604e+00 
124800 6.2876281291e+00 7.0223674295e-05 1.7182513050e+00 -2.9760985604e+00 1.7182513050e+00 2.9760985604e+00 
124900 6.2876281290e+00 7.0408105405e-05 1.7182513050e+00 -2.9760985604e+00 1.7182513050e+00 2.9760985604e+00 
125000 6.2876281289e+00 7.0592506115e-05 1.7182513050e+00 -2.9760985604e+00 1.7182513050e+00 2.9760985604e+00 
125100 6.2876281288e+00 7.0776884001e-05 1.7182513050e+00 -2.9760985604e+00 1.7182513050e+00 2.9760985604e+00 
125200 6.2876281285e+00 6.9380515561e-05 1.7182492454e+00 -2.9760949931e+00 1.7182492454e+00 2.9760949931e+00 
125300 6.2876281284e+00 6.9557741340e-05 1.7182492454e+00 -2.9760949931e+00 1.7182492454e+00 2.9760949931e+00 
125400 6.2876281283e+00 6.9734896313e-05 1.7182492454e+00 -2.9760949931e+00 1.7182492454e+00 2.9760949931e+00 
125500 6.2876281282e+00 6.9911991784e-05 1.7182492454e+00 -2.9760949931e+00 1.7182492454e+00 2.9760949931e+00 
125600 6.2876281281e+00 7.0089038295e-05 1.7182492454e+00 -2.9760949931e+00 1.7182492454e+00 2.9760949931e+00 
125700 6.2876281280e+00 7.0266045566e-05 1.7182492454e+00 -2.9760949931e+00 1.7182492454e+00 2.9760949931e+00 
125800 6.2876281279e+00 7.0443022435e-05 1.7182492454e+00 -2.9760949931e+00 1.7182492454e+00 2.9760949931e+00 
125900 6.2876281278e+00 7.0619976818e-05 1.7182492454e+00 -2.9760949931e+00 1.7182492454e+00 2.9760949931e+00 
126000 6.2876281277e+00 7.0796915663e-05 1.7182492454e+00 -2.9760949931e+00 1.7182492454e+00 2.9760949931e+00 
126100 6.2876281274e+00 6.9392657243e-05 1.7182471852e+00 -2.9760914248e+00 1.7182471852e+00 2.9760914248e+00 
126200 6.2876281273e+00 6.9562454630e-05 1.7182471852e+00 -2.9760914248e+00 1.7182471852e+00 2.9760914248e+00 
126300 6.2876281273e+00 6.9732186726e-05 1.7182471852e+00 -2.9760914248e+00 1.7182471852e+00 2.9760914248e+00 
126400 6.2876281272e+00 6.9901864300e-05 1.7182471852e+00 -2.9760914248e+00 1.7182471852e+00 2.9760914248e+00 
126500 6.2876281271e+00 7.0071497390e-05 1.7182471852e+00 -2.9760914248e+00 1.7182471852e+00 2.9760914248e+00 
126600 6.2876281270e+00 7.0241095247e-05 1.7182471852e+00 -2.9760914248e+00 1.7182471852e+00 2.9760914248e+00 
126700 6.2876281269e+00 7.0410666275e-05 1.7182471852e+00 -2.9760914248e+00 1.7182471852e+00 2.9760914248e+00 
126800 6.2876281268e+00 7.0580217991e-05 1.7182471852e+00 -2.9760914248e+00 1.7182471852e+00 2.9760914248e+00 
126900 6.2876281267e+00 7.0749756985e-05 1.7182471852e+00 -2.9760914248e+00 1.7182471852e+00 2.9760914248e+00 
127000 6.2876281265e+00 6.9339144415e-05 1.7182451265e+00 -2.9760878589e+00 1.7182451265e+00 2.9760878589e+00 
127100 6.2876281264e+00 6.9501551326e-05 1.7182451265e+00 -2.9760878589e+00 1.7182451265e+00 2.9760878589e+00 
127200 6.2876281263e+00 6.9663894984e-05 1.7182451265e+00 -2.9760878589e+00 1.7182451265e+00 2.9760878589e+00 
127300 6.2876281262e+00 6.9826185965e-05 1.7182451265e+00 -2.9760878589e+00 1.7182451265e+00 2.9760878589e+00 
127400 6.2876281261e+00 6.9988434163e-05 1.7182451265e+00 -2.9760878589e+00 1.7182451265e+00 2.9760878589e+00 
127500 6.2876281260e+00 7.0150648717e-05 1.7182451265e+00 -2.9760878589e+00 1.7182451265e+00 2.9760878589e+00 
127600 6.2876281259e+00 7.0312837973e-05 1.7182451265e+00 -2.9760878589e+00 1.7182451265e+00 2.9760878589e+00 
127700 6.2876281259e+00 7.0475009430e-05 1.7182451265e+00 -2.9760878589e+00 1.7182451265e+00 2.9760878589e+00 
127800 6.2876281258e+00 7.0637169707e-05 1.7182451265e+00 -2.9760878589e+00 1.7182451265e+00 2.9760878589e+00 
127900 6.2876281257e+00 7.0799324508e-05 1.7182451265e+00 -2.9760878589e+00 1.7182451265e+00 2.9760878589e+00 
128000 6.2876281254e+00 6.9380216753e-05 1.7182430663e+00 -2.9760842905e+00 1.7182430663e+00 2.9760842905e+00 
128100 6.2876281254e+00 6.9535246283e-05 1.7182430663e+00 -2.9760842905e+00 1.7182430663e+00 2.9760842905e+00 
128200 6.2876281253e+00 6.9690217237e-05 1.7182430663e+00 -2.9760842905e+00 1.7182430663e+00 2.9760842905e+00 
128300 6.2876281252e+00 6.9845139410e-05 1.7182430663e+00 -2.9760842905e+00 1.7182430663e+00 2.9760842905e+00 
128400 6.2876281251e+00 7.0000021950e-05 1.7182430663e+00 -2.9760842905e+00 1.7182430663e+00 2.9760842905e+00 
128500 6.2876281251e+00 7.0154873296e-05 1.7182430663e+00 -2.9760842905e+00 1.7182430663e+00 2.9760842905e+00 
128600 6.2876281250e+00 7.0309701130e-05 1.7182430663e+00 -2.9760842905e+00 1.7182430663e+00 2.9760842905e+00 
128700 6.2876281249e+00 7.0464512337e-05 1.7182430663e+00 -2.9760842905e+00 1.7182430663e+00 2.9760842905e+00 
128800 6.2876281248e+00 7.0619312963e-05 1.7182430663e+00 -2.9760842905e+00 1.7182430663e+00 2.9760842905e+00 
128900 6.2876281248e+00 7.0774108193e-05 1.7182430663e+00 -2.9760842905e+00 1.7182430663e+00 2.9760842905e+00 
129000 6.2876281245e+00 6.9348193549e-05 1.7182410068e+00 -2.9760807234e+00 1.7182410068e+00 2.9760807234e+00 
129100 6.2876281244e+00 6.9495864747e-05 1.7182410068e+00 -2.9760807234e+00 1.7182410068e+00 2.9760807234e+00 
129200 6.2876281244e+00 6.9643476219e-05 1.7182410068e+00 -2.9760807234e+00 1.7182410068e+00 2.9760807234e+00 
129300 6.2876281243e+00 6.9791037449e-05 1.7182410068e+00 -2.9760807234e+00 1.7182410068e+00 2.9760807234e+00 
129400 6.2876281242e+00 6.9938557322e-05 1.7182410068e+00 -2.9760807234e+00 1.7182410068e+00 2.9760807234e+00 
129500 6.2876281242e+00 7.0086044071e-05 1.7182410068e+00 -2.9760807234e+00 1.7182410068e+00 2.9760807234e+00 
129600 6.2876281241e+00 7.0233505225e-05 1.7182410068e+00 -2.9760807234e+00 1.7182410068e+00 2.9760807234e+00 
129700 6.2876281240e+00 7.0380947569e-05 1.7182410068e+00 -2.9760807234e+00 1.7182410068e+00 2.9760807234e+00 
129800 6.2876281240e+00 7.0528377107e-05 1.7182410068e+00 -2.9760807234e+00 1.7182410068e+00 2.9760807234e+00 
129900 6.2876281239e+00 7.0675799028e-05 1.7182410068e+00 -2.9760807234e+00 1.7182410068e+00 2.9760807234e+00 
130000 6.2876281238e+00 7.0823217691e-05 1.7182410068e+00 -2.9760807234e+00 1.7182410068e+00 2.9760807234e+00 
130100 6.2876281236e+00 6.9388820649e-05 1.7182389458e+00 -2.9760771537e+00 1.7182389458e+00 2.9760771537e+00 
130200 6.2876281235e+00 6.9529112151e-05 1.7182389458e+00 -2.9760771537e+00 1.7182389458e+00 2.9760771537e+00 
130300 6.2876281235e+00 6.9669343753e-05 1.7182389458e+00 -2.9760771537e+00 1.7182389458e+00 2.9760771537e+00 
130400 6.2876281234e+00 6.9809524269e-05 1.7182389458e+00 -2.9760771537e+00 1.7182389458e+00 2.9760771537e+00 
130500 6.2876281233e+00 6.9949661963e-05 1.7182389458e+00 -2.9760771537e+00 1.7182389458e+00 2.9760771537e+00 
130600 6.2876281233e+00 7.0089764495e-05 1.7182389458e+00 -2.9760771537e+00 1.7182389458e+00 2.9760771537e+00 
130700 6.2876281232e+00 7.0229838874e-05 1.7182389458e+00 -2.9760771537e+00 1.7182389458e+00 2.9760771537e+00 
130800 6.2876281231e+00 7.0369891416e-05 1.7182389458e+00 -2.9760771537e+00 1.7182389458e+00 2.9760771537e+00 
130900 6.2876281231e+00 7.0509927711e-05 1.7182389458e+00 -2.9760771537e+00 1.7182389458e+00 2.9760771537e+00 
131000 6.2876281230e+00 7.0649952592e-05 1.7182389458e+00 -2.9760771537e+00 1.7182389458e+00 2.9760771537e+00 
131100 6.2876281230e+00 7.0789970113e-05 1.7182389458e+00 -2.9760771537e+00 1.7182389458e+00 2.9760771537e+00 
131200 6.2876281227e+00 6.9348900045e-05 1.7182368859e+00 -2.9760735858e+00 1.7182368859e+00 2.9760735858e+00 
131300 6.2876281227e+00 6.9481784772e-05 1.7182368859e+00 -2.9760735858e+00 1.7182368859e+00 2.9760735858e+00 
131400 6.2876281226e+00 6.9614604968e-05 1.7182368859e+00 -2.9760735858e+00 1.7182368859e+00 2.9760735858e+00 
131500 6.2876281226e+00 6.9747369369e-05 1.7182368859e+00 -2.9760735858e+00 1.7182368859e+00 2.9760735858e+00 
131600 6.2876281225e+00 6.9880086217e-05 1.7182368859e+00 -2.9760735858e+00 1.7182368859e+00 2.9760735858e+00 
131700 6.2876281224e+00 7.0012763206e-05 1.7182368859e+00 -2.9760735858e+00 1.7182368859e+00 2.9760735858e+00 
131800 6.2876281224e+00 7.0145407434e-05 1.7182368859e+00 -2.9760735858e+00 1.7182368859e+00 2.9760735858e+00 
131900 6.2876281223e+00 7.0278025360e-05 1.7182368859e+00 -2.9760735858e+00 1.7182368859e+00 2.9760735858e+00 
132000 6.2876281223e+00 7.0410622768e-05 1.7182368859e+00 -2.9760735858e+00 1.7182368859e+00 2.9760735858e+00 
132100 6.2876281222e+00 7.0543204743e-05 1.7182368859e+00 -2.9760735858e+00 1.7182368859e+00 2.9760735858e+00 
132200 6.2876281222e+00 7.0675775635e-05 1.7182368859e+00 -2.9760735858e+00 1.7182368859e+00 2.9760735858e+00 
132300 6.2876281221e+00 7.0808339047e-05 1.7182368859e+00 -2.9760735858e+00 1.7182368859e+00 2.9760735858e+00 
132400 6.2876281219e+00 6.9359393806e-05 1.7182348254e+00 -2.9760700169e+00 1.7182348254e+00 2.9760700169e+00 
132500 6.2876281218e+00 6.9484821011e-05 1.7182348254e+00 -2.9760700169e+00 1.7182348254e+00 2.9760700169e+00 
132600 6.2876281218e+00 6.9610182405e-05 1.7182348254e+00 -2.9760700169e+00 1.7182348254e+00 2.9760700169e+00 
132700 6.2876281217e+00 6.9735486427e-05 1.7182348254e+00 -2.9760700169e+00 1.7182348254e+00 2.9760700169e+00 
132800 6.2876281217e+00 6.9860741058e-05 1.7182348254e+00 -2.9760700169e+00 1.7182348254e+00 2.9760700169e+00 
132900 6.2876281216e+00 6.9985953777e-05 1.7182348254e+00 -2.9760700169e+00 1.7182348254e+00 2.9760700169e+00 
133000 6.2876281216e+00 7.0111131510e-05 1.7182348254e+00 -2.9760700169e+00 1.7182348254e+00 2.9760700169e+00 
133100 6.2876281215e+00 7.0236280593e-05 1.7182348254e+00 -2.9760700169e+00 1.7182348254e+00 2.9760700169e+00 
133200 6.2876281215e+00 7.0361406731e-05 1.7182348254e+00 -2.9760700169e+00 1.7182348254e+00 2.9760700169e+00 
133300 6.2876281214e+00 7.0486514974e-05 1.7182348254e+00 -2.9760700169e+00 1.7182348254e+00 2.9760700169e+00 
133400 6.2876281214e+00 7.0611609687e-05 1.7182348254e+00 -2.9760700169e+00 1.7182348254e+00 2.9760700169e+00 
133500 6.2876281213e+00 7.0736694536e-05 1.7182348254e+00 -2.9760700169e+00 1.7182348254e+00 2.9760700169e+00 
133600 6.2876281211e+00 6.9281858629e-05 1.7182327670e+00 -2.9760664516e+00 1.7182327670e+00 2.9760664516e+00 
133700 6.2876281211e+00 6.9399809984e-05 1.7182327670e+00 -2.9760664516e+00 1.7182327670e+00 2.9760664516e+00 
133800 6.2876281210e+00 6.9517693675e-05 1.7182327670e+00 -2.9760664516e+00 1.7182327670e+00 2.9760664516e+00 
133900 6.2876281210e+00 6.9635518369e-05 1.7182327670e+00 -2.9760664516e+00 1.7182327670e+00 2.9760664516e+00 
134000 6.2876281209e+00 6.9753292327e-05 1.7182327670e+00 -2.9760664516e+00 1.7182327670e+00 2.9760664516e+00 
134100 6.2876281209e+00 6.9871023352e-05 1.7182327670e+00 -2.9760664516e+00 1.7182327670e+00 2.9760664516e+00 
134200 6.2876281208e+00 6.9988718728e-05 1.7182327670e+00 -2.9760664516e+00 1.7182327670e+00 2.9760664516e+00 
134300 6.2876281208e+00 7.0106385194e-05 1.7182327670e+00 -2.9760664516e+00 1.7182327670e+00 2.9760664516e+00 
134400 6.2876281208e+00 7.0224028897e-05 1.7182327670e+00 -2.9760664516e+00 1.7182327670e+00 2.9760664516e+00 
134500 6.2876281207e+00 7.0341655362e-05 1.7182327670e+00 -2.9760664516e+00 1.7182327670e+00 2.9760664516e+00 
134600 6.2876281207e+00 7.0459269471e-05 1.7182327670e+00 -2.9760664516e+00 1.7182327670e+00 2.9760664516e+00 
134700 6.2876281206e+00 7.0576875434e-05 1.7182327670e+00 -2.9760664516e+00 1.7182327670e+00 2.9760664516e+00 
134800 6.2876281206e+00 7.0694476776e-05 1.7182327670e+00 -2.9760664516e+00 1.7182327670e+00 2.9760664516e+00 
134900 6.2876281205e+00 7.0812076318e-05 1.7182327670e+00 -2.9760664516e+00 1.7182327670e+00 2.9760664516e+00 
135000 6.2876281203e+00 6.9348068261e-05 1.7182307064e+00 -2.9760628826e+00 1.7182307064e+00 2.9760628826e+00 
135100 6.2876281203e+00 6.9458540268e-05 1.7182307064e+00 -2.9760628826e+00 1.7182307064e+00 2.9760628826e+00 
135200 6.2876281203e+00 6.9568950171e-05 1.7182307064e+00 -2.9760628826e+00 1.7182307064e+00 2.9760628826e+00 
135300 6.2876281202e+00 6.9661652291e-05 1.7182307064e+00 -2.9760628826e+00 1.7182307064e+00 2.9760628826e+00 
135300 6.2876281202e+00 6.9661652291e-05 1.7182307064e+00 -2.9760628826e+00 1.7182307064e+00 2.9760628826e+00 
