# step Hamiltonian StressXX CellTensor1 CellTensor2 CellTensor3 CellTensor4 
0 6.9708357313e+00 -6.5075892352e-02 1.7438352029e+00 -3.0204111715e+00 1.7438352029e+00 3.0204111715e+00 
100 6.9630483103e+00 -6.0769834197e-02 1.7438352029e+00 -3.0204111715e+00 1.7438352029e+00 3.0204111715e+00 
200 6.9554606274e+00 -5.5415914256e-02 1.7455779119e+00 -3.0234296319e+00 1.7455779119e+00 3.0234296319e+00 
300 6.9482294155e+00 -5.0470391002e-02 1.7471654751e+00 -3.0261793721e+00 1.7471654751e+00 3.0261793721e+00 
400 6.9413641642e+00 -4.5911396421e-02 1.7486100245e+00 -3.0286814051e+00 1.7486100245e+00 3.0286814051e+00 
500 6.9348715320e+00 -4.1718393055e-02 1.7499229856e+00 -3.0309555204e+00 1.7499229856e+00 3.0309555204e+00 
600 6.9287554400e+00 -3.7872074132e-02 1.7511151274e+00 -3.0330203705e+00 1.7511151274e+00 3.0330203705e+00 
700 6.9230171813e+00 -3.4354274584e-02 1.7521966088e+00 -3.0348935513e+00 1.7521966088e+00 3.0348935513e+00 
800 6.9176555468e+00 -3.1147890337e-02 1.7531770203e+00 -3.0365916739e+00 1.7531770203e+00 3.0365916739e+00 
900 6.9126669656e+00 -2.8236803864e-02 1.7540654223e+00 -3.0381304313e+00 1.7540654223e+00 3.0381304313e+00 
1000 6.9080456584e+00 -2.5605814531e-02 1.7548703798e+00 -3.0395246586e+00 1.7548703798e+00 3.0395246586e+00 
1100 6.9037838028e+00 -2.3240572727e-02 1.7555999946e+00 -3.0407883885e+00 1.7555999946e+00 3.0407883885e+00 
1200 6.8998717080e+00 -2.1127517095e-02 1.7562619345e+00 -3.0419349020e+00 1.7562619345e+00 3.0419349020e+00 
1300 6.8962979968e+00 -1.9253814520e-02 1.7568634599e+00 -3.0429767745e+00 1.7568634599e+00 3.0429767745e+00 
1400 6.8930497931e+00 -1.7607302666e-02 1.7574114483e+00 -3.0439259182e+00 1.7574114483e+00 3.0439259182e+00 
1500 6.8901129117e+00 -1.6176435067e-02 1.7579124163e+00 -3.0447936203e+00 1.7579124163e+00 3.0447936203e+00 
1600 6.8874720499e+00 -1.4950228795e-02 1.7583725399e+00 -3.0455905778e+00 1.7583725399e+00 3.0455905778e+00 
1700 6.8851109764e+00 -1.3918214846e-02 1.7587976726e+00 -3.0463269291e+00 1.7587976726e+00 3.0463269291e+00 
1800 6.8830127185e+00 -1.3070391352e-02 1.7591933615e+00 -3.0470122825e+00 1.7591933615e+00 3.0470122825e+00 
1900 6.8811597429e+00 -1.2397179754e-02 1.7595648628e+00 -3.0476557416e+00 1.7595648628e+00 3.0476557416e+00 
2000 6.8795341309e+00 -1.1889384052e-02 1.7599171542e+00 -3.0482659283e+00 1.7599171542e+00 3.0482659283e+00 
2100 6.8781177451e+00 -1.1538153206e-02 1.7602549475e+00 -3.0488510034e+00 1.7602549475e+00 3.0488510034e+00 
2200 6.8768923869e+00 -1.1334946754e-02 1.7605826987e+00 -3.0494186850e+00 1.7605826987e+00 3.0494186850e+00 
2300 6.8758399445e+00 -1.1271503662e-02 1.7609046174e+00 -3.0499762647e+00 1.7609046174e+00 3.0499762647e+00 
2400 6.8749425291e+00 -1.1339814385e-02 1.7612246758e+00 -3.0505306220e+00 1.7612246758e+00 3.0505306220e+00 
2500 6.8741826003e+00 -1.1532096108e-02 1.7615466154e+00 -3.0510882378e+00 1.7615466154e+00 3.0510882378e+00 
2600 6.8735430795e+00 -1.1840771073e-02 1.7618739543e+00 -3.0516552053e+00 1.7618739543e+00 3.0516552053e+00 
2700 6.8730074506e+00 -1.2258447898e-02 1.7622099927e+00 -3.0522372410e+00 1.7622099927e+00 3.0522372410e+00 
2800 6.8725598495e+00 -1.2777905757e-02 1.7625578188e+00 -3.0528396934e+00 1.7625578188e+00 3.0528396934e+00 
2900 6.8721851409e+00 -1.3392081256e-02 1.7629203131e+00 -3.0534675519e+00 1.7629203131e+00 3.0534675519e+00 
3000 6.8718689831e+00 -1.4094057861e-02 1.7633001533e+00 -3.0541254546e+00 1.7633001533e+00 3.0541254546e+00 
3100 6.8715978816e+00 -1.4877057676e-02 1.7636998184e+00 -3.0548176948e+00 1.7636998184e+00 3.0548176948e+00 
3200 6.8713592314e+00 -1.5734435390e-02 1.7641215923e+00 -3.0555482286e+00 1.7641215923e+00 3.0555482286e+00 
3300 6.8711413485e+00 -1.6659674180e-02 1.7645675677e+00 -3.0563206807e+00 1.7645675677e+00 3.0563206807e+00 
3400 6.8709334918e+00 -1.7646383394e-02 1.7650396499e+00 -3.0571383510e+00 1.7650396499e+00 3.0571383510e+00 
3500 6.8707258748e+00 -1.8688297775e-02 1.7655395598e+00 -3.0580042203e+00 1.7655395598e+00 3.0580042203e+00 
3600 6.8705096692e+00 -1.9779278056e-02 1.7660688380e+00 -3.0589209570e+00 1.7660688380e+00 3.0589209570e+00 
3700 6.8702769999e+00 -2.0913312706e-02 1.7666288479e+00 -3.0598909227e+00 1.7666288479e+00 3.0598909227e+00 
3800 6.8700209333e+00 -2.2084520648e-02 1.7672207799e+00 -3.0609161789e+00 1.7672207799e+00 3.0609161789e+00 
3900 6.8697354580e+00 -2.3287154765e-02 1.7678456543e+00 -3.0619984932e+00 1.7678456543e+00 3.0619984932e+00 
4000 6.8694154605e+00 -2.4515606015e-02 1.7685043261e+00 -3.0631393461e+00 1.7685043261e+00 3.0631393461e+00 
4100 6.8690566950e+00 -2.5764407998e-02 1.7691974882e+00 -3.0643399383e+00 1.7691974882e+00 3.0643399383e+00 
4200 6.8686557493e+00 -2.7028241826e-02 1.7699256764e+00 -3.0656011972e+00 1.7699256764e+00 3.0656011972e+00 
4300 6.8682100061e+00 -2.8301941157e-02 1.7706892730e+00 -3.0669237853e+00 1.7706892730e+00 3.0669237853e+00 
4400 6.8677176019e+00 -2.9580497266e-02 1.7714885118e+00 -3.0683081074e+00 1.7714885118e+00 3.0683081074e+00 
4500 6.8671773827e+00 -3.0859064053e-02 1.7723234825e+00 -3.0697543191e+00 1.7723234825e+00 3.0697543191e+00 
4600 6.8665888582e+00 -3.2132962878e-02 1.7731941359e+00 -3.0712623350e+00 1.7731941359e+00 3.0712623350e+00 
4700 6.8659521537e+00 -3.3397687150e-02 1.7741002887e+00 -3.0728318377e+00 1.7741002887e+00 3.0728318377e+00 
4800 6.8652679624e+00 -3.4648906592e-02 1.7750416289e+00 -3.0744622868e+00 1.7750416289e+00 3.0744622868e+00 
4900 6.8645374956e+00 -3.5882471123e-02 1.7760177210e+00 -3.0761529278e+00 1.7760177210e+00 3.0761529278e+00 
5000 6.8637624340e+00 -3.7094414323e-02 1.7770280113e+00 -3.0779028020e+00 1.7770280113e+00 3.0779028020e+00 
5100 6.8629448789e+00 -3.8280956421e-02 1.7780718340e+00 -3.0797107560e+00 1.7780718340e+00 3.0797107560e+00 
5200 6.8620873040e+00 -3.9438506806e-02 1.7791484164e+00 -3.0815754514e+00 1.7791484164e+00 3.0815754514e+00 
5300 6.8611925080e+00 -4.0563666018e-02 1.7802568849e+00 -3.0834953751e+00 1.7802568849e+00 3.0834953751e+00 
5400 6.8602635688e+00 -4.1653227240e-02 1.7813962707e+00 -3.0854688493e+00 1.7813962707e+00 3.0854688493e+00 
5500 6.8593037987e+00 -4.2704177254e-02 1.7825655159e+00 -3.0874940413e+00 1.7825655159e+00 3.0874940413e+00 
5600 6.8583167018e+00 -4.3713696904e-02 1.7837634791e+00 -3.0895689744e+00 1.7837634791e+00 3.0895689744e+00 
5700 6.8573059324e+00 -4.4679161046e-02 1.7849889414e+00 -3.0916915374e+00 1.7849889414e+00 3.0916915374e+00 
5800 6.8562752562e+00 -4.5598138017e-02 1.7862406124e+00 -3.0938594952e+00 1.7862406124e+00 3.0938594952e+00 
5900 6.8552285129e+00 -4.6468388644e-02 1.7875171359e+00 -3.0960704989e+00 1.7875171359e+00 3.0960704989e+00 
6000 6.8541695815e+00 -4.7287864800e-02 1.7888170960e+00 -3.0983220957e+00 1.7888170960e+00 3.0983220957e+00 
6100 6.8531023471e+00 -4.8054707554e-02 1.7901390222e+00 -3.1006117390e+00 1.7901390222e+00 3.1006117390e+00 
6200 6.8520306706e+00 -4.8767244926e-02 1.7914813958e+00 -3.1029367983e+00 1.7914813958e+00 3.1029367983e+00 
6300 6.8509583602e+00 -4.9423989285e-02 1.7928426551e+00 -3.1052945687e+00 1.7928426551e+00 3.1052945687e+00 
6400 6.8498891456e+00 -5.0023634411e-02 1.7942212010e+00 -3.1076822802e+00 1.7942212010e+00 3.1076822802e+00 
6500 6.8488266542e+00 -5.0565052260e-02 1.7956154022e+00 -3.1100971075e+00 1.7956154022e+00 3.1100971075e+00 
6600 6.8477743895e+00 -5.1047289460e-02 1.7970236006e+00 -3.1125361787e+00 1.7970236006e+00 3.1125361787e+00 
6700 6.8467357114e+00 -5.1469563557e-02 1.7984441164e+00 -3.1149965843e+00 1.7984441164e+00 3.1149965843e+00 
6800 6.8457138198e+00 -5.1831259050e-02 1.7998752530e+00 -3.1174753855e+00 1.7998752530e+00 3.1174753855e+00 
6900 6.8447117391e+00 -5.2131923243e-02 1.8013153018e+00 -3.1199696232e+00 1.8013153018e+00 3.1199696232e+00 
7000 6.8437323049e+00 -5.2371261931e-02 1.8027625470e+00 -3.1224763254e+00 1.8027625470e+00 3.1224763254e+00 
7100 6.8427781535e+00 -5.2549134951e-02 1.8042152699e+00 -3.1249925153e+00 1.8042152699e+00 3.1249925153e+00 
7200 6.8418517127e+00 -5.2665551620e-02 1.8056717535e+00 -3.1275152189e+00 1.8056717535e+00 3.1275152189e+00 
7300 6.8409551940e+00 -5.2720666075e-02 1.8071302865e+00 -3.1300414720e+00 1.8071302865e+00 3.1300414720e+00 
7400 6.8400905877e+00 -5.2714772548e-02 1.8085891672e+00 -3.1325683277e+00 1.8085891672e+00 3.1325683277e+00 
7500 6.8392596586e+00 -5.2648300575e-02 1.8100467079e+00 -3.1350928622e+00 1.8100467079e+00 3.1350928622e+00 
7600 6.8384639440e+00 -5.2521810171e-02 1.8115012380e+00 -3.1376121821e+00 1.8115012380e+00 3.1376121821e+00 
7700 6.8377047527e+00 -5.2335986974e-02 1.8129511075e+00 -3.1401234298e+00 1.8129511075e+00 3.1401234298e+00 
7800 6.8369831658e+00 -5.2091637372e-02 1.8143946910e+00 -3.1426237898e+00 1.8143946910e+00 3.1426237898e+00 
7900 6.8363000385e+00 -5.1789683628e-02 1.8158303902e+00 -3.1451104938e+00 1.8158303902e+00 3.1451104938e+00 
8000 6.8356560038e+00 -5.1431159002e-02 1.8172566373e+00 -3.1475808263e+00 1.8172566373e+00 3.1475808263e+00 
8100 6.8350514762e+00 -5.1017202891e-02 1.8186718978e+00 -3.1500321293e+00 1.8186718978e+00 3.1500321293e+00 
8200 6.8344866578e+00 -5.0549055967e-02 1.8200746729e+00 -3.1524618071e+00 1.8200746729e+00 3.1524618071e+00 
8300 6.8339615445e+00 -5.0028055353e-02 1.8214635027e+00 -3.1548673309e+00 1.8214635027e+00 3.1548673309e+00 
8400 6.8334759333e+00 -4.9455629799e-02 1.8228369680e+00 -3.1572462425e+00 1.8228369680e+00 3.1572462425e+00 
8500 6.8330294308e+00 -4.8833294891e-02 1.8241936927e+00 -3.1595961587e+00 1.8241936927e+00 3.1595961587e+00 
8600 6.8326214619e+00 -4.8162648276e-02 1.8255323461e+00 -3.1619147744e+00 1.8255323461e+00 3.1619147744e+00 
8700 6.8322512799e+00 -4.7445364913e-02 1.8268516447e+00 -3.1641998665e+00 1.8268516447e+00 3.1641998665e+00 
8800 6.8319179760e+00 -4.6683192326e-02 1.8281503539e+00 -3.1664492969e+00 1.8281503539e+00 3.1664492969e+00 
8900 6.8316204910e+00 -4.5877945896e-02 1.8294272900e+00 -3.1686610151e+00 1.8294272900e+00 3.1686610151e+00 
9000 6.8313576258e+00 -4.5031504146e-02 1.8306813214e+00 -3.1708330611e+00 1.8306813214e+00 3.1708330611e+00 
9100 6.8311280534e+00 -4.4145804043e-02 1.8319113700e+00 -3.1729635679e+00 1.8319113700e+00 3.1729635679e+00 
9200 6.8309303308e+00 -4.3222836313e-02 1.8331164131e+00 -3.1750507636e+00 1.8331164131e+00 3.1750507636e+00 
9300 6.8307629109e+00 -4.2264640747e-02 1.8342954835e+00 -3.1770929735e+00 1.8342954835e+00 3.1770929735e+00 
9400 6.8306241551e+00 -4.1273301516e-02 1.8354476714e+00 -3.1790886215e+00 1.8354476714e+00 3.1790886215e+00 
9500 6.8305123456e+00 -4.0250942480e-02 1.8365721249e+00 -3.1810362322e+00 1.8365721249e+00 3.1810362322e+00 
9600 6.8304256978e+00 -3.9199722491e-02 1.8376680509e+00 -3.1829344317e+00 1.8376680509e+00 3.1829344317e+00 
9700 6.8303623728e+00 -3.8121830691e-02 1.8387347156e+00 -3.1847819491e+00 1.8387347156e+00 3.1847819491e+00 
9800 6.8303204899e+00 -3.7019481801e-02 1.8397714451e+00 -3.1865776173e+00 1.8397714451e+00 3.1865776173e+00 
9900 6.8302981385e+00 -3.5894911397e-02 1.8407776259e+00 -3.1883203735e+00 1.8407776259e+00 3.1883203735e+00 
10000 6.8302933901e+00 -3.4750371186e-02 1.8417527051e+00 -3.1900092602e+00 1.8417527051e+00 3.1900092602e+00 
10100 6.8303043103e+00 -3.3588124268e-02 1.8426961905e+00 -3.1916434249e+00 1.8426961905e+00 3.1916434249e+00 
10200 6.8303289699e+00 -3.2410440397e-02 1.8436076509e+00 -3.1932221206e+00 1.8436076509e+00 3.1932221206e+00 
10300 6.8303654561e+00 -3.1219591242e-02 1.8444867158e+00 -3.1947447056e+00 1.8444867158e+00 3.1947447056e+00 
10400 6.8304118828e+00 -3.0017845649e-02 1.8453330753e+00 -3.1962106433e+00 1.8453330753e+00 3.1962106433e+00 
10500 6.8304664011e+00 -2.8807464920e-02 1.8461464799e+00 -3.1976195014e+00 1.8461464799e+00 3.1976195014e+00 
10600 6.8305272089e+00 -2.7590698105e-02 1.8469267401e+00 -3.1989709518e+00 1.8469267401e+00 3.1989709518e+00 
10700 6.8305925596e+00 -2.6369777319e-02 1.8476737258e+00 -3.2002647690e+00 1.8476737258e+00 3.2002647690e+00 
10800 6.8306607707e+00 -2.5146913103e-02 1.8483873657e+00 -3.2015008295e+00 1.8483873657e+00 3.2015008295e+00 
10900 6.8307302319e+00 -2.3924289823e-02 1.8490676467e+00 -3.2026791107e+00 1.8490676467e+00 3.2026791107e+00 
11000 6.8307994120e+00 -2.2704061135e-02 1.8497146129e+00 -3.2037996890e+00 1.8497146129e+00 3.2037996890e+00 
11100 6.8308668654e+00 -2.1488345518e-02 1.8503283648e+00 -3.2048627385e+00 1.8503283648e+00 3.2048627385e+00 
11200 6.8309312378e+00 -2.0279221891e-02 1.8509090582e+00 -3.2058685289e+00 1.8509090582e+00 3.2058685289e+00 
11300 6.8309912717e+00 -1.9078725333e-02 1.8514569031e+00 -3.2068174241e+00 1.8514569031e+00 3.2068174241e+00 
11400 6.8310458098e+00 -1.7888842918e-02 1.8519721624e+00 -3.2077098795e+00 1.8519721624e+00 3.2077098795e+00 
11500 6.8310937995e+00 -1.6711509673e-02 1.8524551508e+00 -3.2085464399e+00 1.8524551508e+00 3.2085464399e+00 
11600 6.8311342950e+00 -1.5548604688e-02 1.8529062329e+00 -3.2093277370e+00 1.8529062329e+00 3.2093277370e+00 
11700 6.8311664596e+00 -1.4401947383e-02 1.8533258222e+00 -3.2100544870e+00 1.8533258222e+00 3.2100544870e+00 
11800 6.8311895667e+00 -1.3273293950e-02 1.8537143791e+00 -3.2107274873e+00 1.8537143791e+00 3.2107274873e+00 
11900 6.8312030006e+00 -1.2164333988e-02 1.8540724094e+00 -3.2113476141e+00 1.8540724094e+00 3.2113476141e+00 
12000 6.8312062558e+00 -1.1076687340e-02 1.8544004628e+00 -3.2119158191e+00 1.8544004628e+00 3.2119158191e+00 
12100 6.8311989366e+00 -1.0011901154e-02 1.8546991303e+00 -3.2124331265e+00 1.8546991303e+00 3.2124331265e+00 
12200 6.8311807548e+00 -8.9714471656e-03 1.8549690432e+00 -3.2129006293e+00 1.8549690432e+00 3.2129006293e+00 
12300 6.8311515279e+00 -7.9567192346e-03 1.8552108705e+00 -3.2133194864e+00 1.8552108705e+00 3.2133194864e+00 
12400 6.8311111755e+00 -6.9690311284e-03 1.8554253171e+00 -3.2136909188e+00 1.8554253171e+00 3.2136909188e+00 
12500 6.8310597164e+00 -6.0096145708e-03 1.8556131217e+00 -3.2140162059e+00 1.8556131217e+00 3.2140162059e+00 
12600 6.8309972638e+00 -5.0796175610e-03 1.8557750547e+00 -3.2142966822e+00 1.8557750547e+00 3.2142966822e+00 
12700 6.8309240209e+00 -4.1801029699e-03 1.8559119161e+00 -3.2145337331e+00 1.8559119161e+00 3.2145337331e+00 
12800 6.8308402758e+00 -3.3120474168e-03 1.8560245331e+00 -3.2147287915e+00 1.8560245331e+00 3.2147287915e+00 
12900 6.8307463958e+00 -2.4763404309e-03 1.8561137581e+00 -3.2148833337e+00 1.8561137581e+00 3.2148833337e+00 
13000 6.8306428212e+00 -1.6737838977e-03 1.8561804662e+00 -3.2149988754e+00 1.8561804662e+00 3.2149988754e+00 
13100 6.8305300595e+00 -9.0509178979e-04 1.8562255531e+00 -3.2150769683e+00 1.8562255531e+00 3.2150769683e+00 
13200 6.8304086785e+00 -1.7089017933e-04 1.8562499331e+00 -3.2151191956e+00 1.8562499331e+00 3.2151191956e+00 
13300 6.8302792995e+00 5.2828247173e-04 1.8562545362e+00 -3.2151271684e+00 1.8562545362e+00 3.2151271684e+00 
13400 6.8301425906e+00 1.1919747501e-03 1.8562403064e+00 -3.2151025218e+00 1.8562403064e+00 3.2151025218e+00 
13500 6.8299992595e+00 1.8198214655e-03 1.8562081993e+00 -3.2150469106e+00 1.8562081993e+00 3.2150469106e+00 
13600 6.8298500465e+00 2.4115425706e-03 1.8561591796e+00 -3.2149620060e+00 1.8561591796e+00 3.2149620060e+00 
13700 6.8296957174e+00 2.9669418359e-03 1.8560942194e+00 -3.2148494917e+00 1.8560942194e+00 3.2148494917e+00 
13800 6.8295370565e+00 3.4859052936e-03 1.8560142957e+00 -3.2147110597e+00 1.8560142957e+00 3.2147110597e+00 
13900 6.8293748599e+00 3.9683994615e-03 1.8559203881e+00 -3.2145484070e+00 1.8559203881e+00 3.2145484070e+00 
14000 6.8292099286e+00 4.4144693621e-03 1.8558134772e+00 -3.2143632320e+00 1.8558134772e+00 3.2143632320e+00 
14100 6.8290430621e+00 4.8242363517e-03 1.8556945423e+00 -3.2141572305e+00 1.8556945423e+00 3.2141572305e+00 
14200 6.8288750523e+00 5.1978957753e-03 1.8555645591e+00 -3.2139320931e+00 1.8555645591e+00 3.2139320931e+00 
14300 6.8287066773e+00 5.5357144638e-03 1.8554244985e+00 -3.2136895010e+00 1.8554244985e+00 3.2136895010e+00 
14400 6.8285386961e+00 5.8380280899e-03 1.8552753240e+00 -3.2134311232e+00 1.8552753240e+00 3.2134311232e+00 
14500 6.8283718434e+00 6.1052383994e-03 1.8551179904e+00 -3.2131586133e+00 1.8551179904e+00 3.2131586133e+00 
14600 6.8282068243e+00 6.3378103360e-03 1.8549534416e+00 -3.2128736065e+00 1.8549534416e+00 3.2128736065e+00 
14700 6.8280443107e+00 6.5362690749e-03 1.8547826094e+00 -3.2125777165e+00 1.8547826094e+00 3.2125777165e+00 
14800 6.8278849367e+00 6.7011969835e-03 1.8546064118e+00 -3.2122725333e+00 1.8546064118e+00 3.2122725333e+00 
14900 6.8277292954e+00 6.8332305244e-03 1.8544257512e+00 -3.2119596199e+00 1.8544257512e+00 3.2119596199e+00 
15000 6.8275779358e+00 6.9330571167e-03 1.8542415131e+00 -3.2116405101e+00 1.8542415131e+00 3.2116405101e+00 
15100 6.8274313605e+00 7.0014119711e-03 1.8540545649e+00 -3.2113167064e+00 1.8540545649e+00 3.2113167064e+00 
15200 6.8272900231e+00 7.0390749132e-03 1.8538657546e+00 -3.2109896773e+00 1.8538657546e+00 3.2109896773e+00 
15300 6.8271543272e+00 7.0468672080e-03 1.8536759093e+00 -3.2106608556e+00 1.8536759093e+00 3.2106608556e+00 
15400 6.8270246252e+00 7.0256483989e-03 1.8534858343e+00 -3.2103316362e+00 1.8534858343e+00 3.2103316362e+00 
15500 6.8269012170e+00 6.9763131732e-03 1.8532963123e+00 -3.2100033743e+00 1.8532963123e+00 3.2100033743e+00 
15600 6.8267843508e+00 6.8997882641e-03 1.8531081018e+00 -3.2096773843e+00 1.8531081018e+00 3.2096773843e+00 
15700 6.8266742225e+00 6.7970293996e-03 1.8529219369e+00 -3.2093549372e+00 1.8529219369e+00 3.2093549372e+00 
15800 6.8265709768e+00 6.6690183067e-03 1.8527385262e+00 -3.2090372604e+00 1.8527385262e+00 3.2090372604e+00 
15900 6.8264747079e+00 6.5167597790e-03 1.8525585517e+00 -3.2087255356e+00 1.8525585517e+00 3.2087255356e+00 
16000 6.8263854612e+00 6.3412788133e-03 1.8523826691e+00 -3.2084208980e+00 1.8523826691e+00 3.2084208980e+00 
16100 6.8263032349e+00 6.1436178230e-03 1.8522115063e+00 -3.2081244353e+00 1.8522115063e+00 3.2081244353e+00 
16200 6.8262279818e+00 5.9248339298e-03 1.8520456633e+00 -3.2078371868e+00 1.8520456633e+00 3.2078371868e+00 
16300 6.8261596120e+00 5.6859963414e-03 1.8518857118e+00 -3.2075601427e+00 1.8518857118e+00 3.2075601427e+00 
16400 6.8260979949e+00 5.4281838139e-03 1.8517321949e+00 -3.2072942435e+00 1.8517321949e+00 3.2072942435e+00 
16500 6.8260429626e+00 5.1524822050e-03 1.8515856264e+00 -3.2070403794e+00 1.8515856264e+00 3.2070403794e+00 
16600 6.8259943123e+00 4.8599821161e-03 1.8514464911e+00 -3.2067993901e+00 1.8514464911e+00 3.2067993901e+00 
16700 6.8259518094e+00 4.5517766262e-03 1.8513152444e+00 -3.2065720641e+00 1.8513152444e+00 3.2065720641e+00 
16800 6.8259151912e+00 4.2289591166e-03 1.8511923122e+00 -3.2063591392e+00 1.8511923122e+00 3.2063591392e+00 
16900 6.8258841694e+00 3.8926211861e-03 1.8510780908e+00 -3.2061613020e+00 1.8510780908e+00 3.2061613020e+00 
17000 6.8258584340e+00 3.5438506559e-03 1.8509729470e+00 -3.2059791877e+00 1.8509729470e+00 3.2059791877e+00 
17100 6.8258376564e+00 3.1837296628e-03 1.8508772185e+00 -3.2058133810e+00 1.8508772185e+00 3.2058133810e+00 
17200 6.8258214926e+00 2.8133328396e-03 1.8507912132e+00 -3.2056644154e+00 1.8507912132e+00 3.2056644154e+00 
17300 6.8258095868e+00 2.4337255794e-03 1.8507152102e+00 -3.2055327744e+00 1.8507152102e+00 3.2055327744e+00 
17400 6.8258015742e+00 2.0459623835e-03 1.8506494596e+00 -3.2054188911e+00 1.8506494596e+00 3.2054188911e+00 
17500 6.8257970847e+00 1.6510852894e-03 1.8505941830e+00 -3.2053231492e+00 1.8505941830e+00 3.2053231492e+00 
17600 6.8257957451e+00 1.2501223769e-03 1.8505495736e+00 -3.2052458834e+00 1.8505495736e+00 3.2052458834e+00 
17700 6.8257971828e+00 8.4408635032e-04 1.8505157966e+00 -3.2051873800e+00 1.8505157966e+00 3.2051873800e+00 
17800 6.8258010283e+00 4.3397319387e-04 1.8504929899e+00 -3.2051478776e+00 1.8504929899e+00 3.2051478776e+00 
17900 6.8258069174e+00 2.0760898324e-05 1.8504812640e+00 -3.2051275678e+00 1.8504812640e+00 3.2051275678e+00 
18000 6.8258144938e+00 -3.9406613433e-04 1.8504812640e+00 -3.2051275678e+00 1.8504812640e+00 3.2051275678e+00 
18100 6.8258234120e+00 -8.1063136180e-04 1.8504919117e+00 -3.2051460101e+00 1.8504919117e+00 3.2051460101e+00 
18200 6.8258333389e+00 -1.2274811464e-03 1.8505138149e+00 -3.2051839475e+00 1.8505138149e+00 3.2051839475e+00 
18300 6.8258439550e+00 -1.6437208664e-03 1.8505469809e+00 -3.2052413928e+00 1.8505469809e+00 3.2052413928e+00 
18400 6.8258549570e+00 -2.0584792680e-03 1.8505913929e+00 -3.2053183165e+00 1.8505913929e+00 3.2053183165e+00 
18500 6.8258660587e+00 -2.4709093539e-03 1.8506470100e+00 -3.2054146481e+00 1.8506470100e+00 3.2054146481e+00 
18600 6.8258769921e+00 -2.8801892156e-03 1.8507137683e+00 -3.2055302770e+00 1.8507137683e+00 3.2055302770e+00 
18700 6.8258875091e+00 -3.2855228073e-03 1.8507915818e+00 -3.2056650539e+00 1.8507915818e+00 3.2056650539e+00 
18800 6.8258973816e+00 -3.6861406656e-03 1.8508803425e+00 -3.2058187919e+00 1.8508803425e+00 3.2058187919e+00 
18900 6.8259064024e+00 -4.0813005733e-03 1.8509799214e+00 -3.2059912676e+00 1.8509799214e+00 3.2059912676e+00 
19000 6.8259143856e+00 -4.4702881701e-03 1.8510901695e+00 -3.2061822230e+00 1.8510901695e+00 3.2061822230e+00 
19100 6.8259211671e+00 -4.8524175105e-03 1.8512109183e+00 -3.2063913660e+00 1.8512109183e+00 3.2063913660e+00 
19200 6.8259266041e+00 -5.2270315690e-03 1.8513419804e+00 -3.2066183723e+00 1.8513419804e+00 3.2066183723e+00 
19300 6.8259305754e+00 -5.5935026933e-03 1.8514831510e+00 -3.2068628868e+00 1.8514831510e+00 3.2068628868e+00 
19400 6.8259329812e+00 -5.9512330065e-03 1.8516342077e+00 -3.2071245247e+00 1.8516342077e+00 3.2071245247e+00 
19500 6.8259337421e+00 -6.2996547581e-03 1.8517949122e+00 -3.2074028731e+00 1.8517949122e+00 3.2074028731e+00 
19600 6.8259327994e+00 -6.6382306251e-03 1.8519650107e+00 -3.2076974923e+00 1.8519650107e+00 3.2076974923e+00 
19700 6.8259301137e+00 -6.9664539613e-03 1.8521442348e+00 -3.2080079177e+00 1.8521442348e+00 3.2080079177e+00 
19800 6.8259256644e+00 -7.2838489986e-03 1.8523323026e+00 -3.2083336606e+00 1.8523323026e+00 3.2083336606e+00 
19900 6.8259194487e+00 -7.5899709967e-03 1.8525289190e+00 -3.2086742102e+00 1.8525289190e+00 3.2086742102e+00 
20000 6.8259114808e+00 -7.8844063450e-03 1.8527337771e+00 -3.2090290348e+00 1.8527337771e+00 3.2090290348e+00 
20100 6.8259017908e+00 -8.1667726145e-03 1.8529465588e+00 -3.2093975835e+00 1.8529465588e+00 3.2093975835e+00 
20200 6.8258904232e+00 -8.4367185611e-03 1.8531669357e+00 -3.2097792876e+00 1.8531669357e+00 3.2097792876e+00 
20300 6.8258774363e+00 -8.6939240813e-03 1.8533945701e+00 -3.2101735620e+00 1.8533945701e+00 3.2101735620e+00 
20400 6.8258629006e+00 -8.9381001188e-03 1.8536291157e+00 -3.2105798067e+00 1.8536291157e+00 3.2105798067e+00 
20500 6.8258468976e+00 -9.1689885248e-03 1.8538702182e+00 -3.2109974086e+00 1.8538702182e+00 3.2109974086e+00 
20600 6.8258295186e+00 -9.3863618714e-03 1.8541175169e+00 -3.2114257424e+00 1.8541175169e+00 3.2114257424e+00 
20700 6.8258108634e+00 -9.5900232180e-03 1.8543706447e+00 -3.2118641727e+00 1.8543706447e+00 3.2118641727e+00 
20800 6.8257910393e+00 -9.7798058332e-03 1.8546292296e+00 -3.2123120549e+00 1.8546292296e+00 3.2123120549e+00 
20900 6.8257701593e+00 -9.9555728717e-03 1.8548928952e+00 -3.2127687371e+00 1.8548928952e+00 3.2127687371e+00 
21000 6.8257483412e+00 -1.0117217007e-02 1.8551612615e+00 -3.2132335611e+00 1.8551612615e+00 3.2132335611e+00 
21100 6.8257257067e+00 -1.0264660022e-02 1.8554339457e+00 -3.2137058640e+00 1.8554339457e+00 3.2137058640e+00 
21200 6.8257023794e+00 -1.0397852358e-02 1.8557105633e+00 -3.2141849798e+00 1.8557105633e+00 3.2141849798e+00 
21300 6.8256784846e+00 -1.0516772620e-02 1.8559907286e+00 -3.2146702404e+00 1.8559907286e+00 3.2146702404e+00 
21400 6.8256541476e+00 -1.0621427049e-02 1.8562740555e+00 -3.2151609769e+00 1.8562740555e+00 3.2151609769e+00 
21500 6.8256294930e+00 -1.0711848946e-02 1.8565601582e+00 -3.2156565212e+00 1.8565601582e+00 3.2156565212e+00 
21600 6.8256046435e+00 -1.0788098072e-02 1.8568486521e+00 -3.2161562074e+00 1.8568486521e+00 3.2161562074e+00 
21700 6.8255797194e+00 -1.0850260001e-02 1.8571391545e+00 -3.2166593723e+00 1.8571391545e+00 3.2166593723e+00 
21800 6.8255548374e+00 -1.0898445442e-02 1.8574312851e+00 -3.2171653573e+00 1.8574312851e+00 3.2171653573e+00 
21900 6.8255301098e+00 -1.0932789535e-02 1.8577246669e+00 -3.2176735096e+00 1.8577246669e+00 3.2176735096e+00 
22000 6.8255056443e+00 -1.0953451108e-02 1.8580189268e+00 -3.2181831827e+00 1.8580189268e+00 3.2181831827e+00 
22100 6.8254815429e+00 -1.0960611906e-02 1.8583136962e+00 -3.2186937382e+00 1.8583136962e+00 3.2186937382e+00 
22200 6.8254579015e+00 -1.0954475800e-02 1.8586086115e+00 -3.2192045465e+00 1.8586086115e+00 3.2192045465e+00 
22300 6.8254348096e+00 -1.0935267956e-02 1.8589033149e+00 -3.2197149877e+00 1.8589033149e+00 3.2197149877e+00 
22400 6.8254123497e+00 -1.0903233996e-02 1.8591974549e+00 -3.2202244531e+00 1.8591974549e+00 3.2202244531e+00 
22500 6.8253905973e+00 -1.0858639127e-02 1.8594906868e+00 -3.2207323457e+00 1.8594906868e+00 3.2207323457e+00 
22600 6.8253696200e+00 -1.0801767249e-02 1.8597826733e+00 -3.2212380811e+00 1.8597826733e+00 3.2212380811e+00 
22700 6.8253494781e+00 -1.0732920051e-02 1.8600730848e+00 -3.2217410887e+00 1.8600730848e+00 3.2217410887e+00 
22800 6.8253302241e+00 -1.0652416084e-02 1.8603616003e+00 -3.2222408122e+00 1.8603616003e+00 3.2222408122e+00 
22900 6.8253119024e+00 -1.0560589825e-02 1.8606479073e+00 -3.2227367104e+00 1.8606479073e+00 3.2227367104e+00 
23000 6.8252945500e+00 -1.0457790723e-02 1.8609317025e+00 -3.2232282581e+00 1.8609317025e+00 3.2232282581e+00 
23100 6.8252781960e+00 -1.0344382239e-02 1.8612126922e+00 -3.2237149466e+00 1.8612126922e+00 3.2237149466e+00 
23200 6.8252628617e+00 -1.0220740871e-02 1.8614905927e+00 -3.2241962844e+00 1.8614905927e+00 3.2241962844e+00 
23300 6.8252485613e+00 -1.0087255183e-02 1.8617651305e+00 -3.2246717979e+00 1.8617651305e+00 3.2246717979e+00 
23400 6.8252353017e+00 -9.9443248145e-03 1.8620360428e+00 -3.2251410317e+00 1.8620360428e+00 3.2251410317e+00 
23500 6.8252230828e+00 -9.7923594981e-03 1.8623030774e+00 -3.2256035492e+00 1.8623030774e+00 3.2256035492e+00 
23600 6.8252118978e+00 -9.6317780731e-03 1.8625659936e+00 -3.2260589333e+00 1.8625659936e+00 3.2260589333e+00 
23700 6.8252017339e+00 -9.4630074977e-03 1.8628245616e+00 -3.2265067863e+00 1.8628245616e+00 3.2265067863e+00 
23800 6.8251925722e+00 -9.2864818658e-03 1.8630785636e+00 -3.2269467306e+00 1.8630785636e+00 3.2269467306e+00 
23900 6.8251843881e+00 -9.1026414283e-03 1.8633277932e+00 -3.2273784090e+00 1.8633277932e+00 3.2273784090e+00 
24000 6.8251771524e+00 -8.9119316197e-03 1.8635720562e+00 -3.2278014850e+00 1.8635720562e+00 3.2278014850e+00 
24100 6.8251708307e+00 -8.7148020938e-03 1.8638111702e+00 -3.2282156425e+00 1.8638111702e+00 3.2282156425e+00 
24200 6.8251653848e+00 -8.5117057689e-03 1.8640449649e+00 -3.2286205868e+00 1.8640449649e+00 3.2286205868e+00 
24300 6.8251607726e+00 -8.3030978848e-03 1.8642732824e+00 -3.2290160442e+00 1.8642732824e+00 3.2290160442e+00 
24400 6.8251569486e+00 -8.0894350724e-03 1.8644959767e+00 -3.2294017622e+00 1.8644959767e+00 3.2294017622e+00 
24500 6.8251538647e+00 -7.8711744394e-03 1.8647129145e+00 -3.2297775094e+00 1.8647129145e+00 3.2297775094e+00 
24600 6.8251514705e+00 -7.6487726716e-03 1.8649239744e+00 -3.2301430759e+00 1.8649239744e+00 3.2301430759e+00 
24700 6.8251497134e+00 -7.4226851521e-03 1.8651290475e+00 -3.2304982729e+00 1.8651290475e+00 3.2304982729e+00 
24800 6.8251485397e+00 -7.1933651012e-03 1.8653280368e+00 -3.2308429326e+00 1.8653280368e+00 3.2308429326e+00 
24900 6.8251478946e+00 -6.9612627355e-03 1.8655208578e+00 -3.2311769084e+00 1.8655208578e+00 3.2311769084e+00 
25000 6.8251477229e+00 -6.7268244511e-03 1.8657074379e+00 -3.2315000745e+00 1.8657074379e+00 3.2315000745e+00 
25100 6.8251479690e+00 -6.4904920288e-03 1.8658877162e+00 -3.2318123257e+00 1.8658877162e+00 3.2318123257e+00 
25200 6.8251485779e+00 -6.2527018652e-03 1.8660616440e+00 -3.2321135774e+00 1.8660616440e+00 3.2321135774e+00 
25300 6.8251494950e+00 -6.0138842296e-03 1.8662291839e+00 -3.2324037650e+00 1.8662291839e+00 3.2324037650e+00 
25400 6.8251506669e+00 -5.7744625471e-03 1.8663903101e+00 -3.2326828439e+00 1.8663903101e+00 3.2326828439e+00 
25500 6.8251520415e+00 -5.5348527113e-03 1.8665450083e+00 -3.2329507889e+00 1.8665450083e+00 3.2329507889e+00 
25600 6.8251535682e+00 -5.2954624246e-03 1.8666932749e+00 -3.2332075942e+00 1.8666932749e+00 3.2332075942e+00 
25700 6.8251551986e+00 -5.0566905696e-03 1.8668351174e+00 -3.2334532727e+00 1.8668351174e+00 3.2334532727e+00 
25800 6.8251568863e+00 -4.8189266099e-03 1.8669705539e+00 -3.2336878555e+00 1.8669705539e+00 3.2336878555e+00 
25900 6.8251585873e+00 -4.5825500237e-03 1.8670996127e+00 -3.2339113921e+00 1.8670996127e+00 3.2339113921e+00 
26000 6.8251602604e+00 -4.3479297686e-03 1.8672223325e+00 -3.2341239489e+00 1.8672223325e+00 3.2341239489e+00 
26100 6.8251618670e+00 -4.1154237787e-03 1.8673387615e+00 -3.2343256098e+00 1.8673387615e+00 3.2343256098e+00 
26200 6.8251633715e+00 -3.8853784958e-03 1.8674489574e+00 -3.2345164748e+00 1.8674489574e+00 3.2345164748e+00 
26300 6.8251647414e+00 -3.6581284329e-03 1.8675529874e+00 -3.2346966601e+00 1.8675529874e+00 3.2346966601e+00 
26400 6.8251659472e+00 -3.4339957719e-03 1.8676509274e+00 -3.2348662970e+00 1.8676509274e+00 3.2348662970e+00 
26500 6.8251669628e+00 -3.2132899952e-03 1.8677428617e+00 -3.2350255319e+00 1.8677428617e+00 3.2350255319e+00 
26600 6.8251677650e+00 -2.9963075515e-03 1.8678288830e+00 -3.2351745252e+00 1.8678288830e+00 3.2351745252e+00 
26700 6.8251683341e+00 -2.7833315548e-03 1.8679090919e+00 -3.2353134511e+00 1.8679090919e+00 3.2353134511e+00 
26800 6.8251686536e+00 -2.5746315190e-03 1.8679835963e+00 -3.2354424965e+00 1.8679835963e+00 3.2354424965e+00 
26900 6.8251687101e+00 -2.3704631242e-03 1.8680525115e+00 -3.2355618611e+00 1.8680525115e+00 3.2355618611e+00 
27000 6.8251684934e+00 -2.1710680191e-03 1.8681159593e+00 -3.2356717559e+00 1.8681159593e+00 3.2356717559e+00 
27100 6.8251679961e+00 -1.9766736546e-03 1.8681740681e+00 -3.2357724033e+00 1.8681740681e+00 3.2357724033e+00 
27200 6.8251672141e+00 -1.7874931522e-03 1.8682269722e+00 -3.2358640359e+00 1.8682269722e+00 3.2358640359e+00 
27300 6.8251661459e+00 -1.6037252038e-03 1.8682748117e+00 -3.2359468964e+00 1.8682748117e+00 3.2359468964e+00 
27400 6.8251647927e+00 -1.4255540038e-03 1.8683177318e+00 -3.2360212362e+00 1.8683177318e+00 3.2360212362e+00 
27500 6.8251631584e+00 -1.2531492137e-03 1.8683558827e+00 -3.2360873154e+00 1.8683558827e+00 3.2360873154e+00 
27600 6.8251612491e+00 -1.0866659559e-03 1.8683894189e+00 -3.2361454019e+00 1.8683894189e+00 3.2361454019e+00 
27700 6.8251590732e+00 -9.2624483918e-04 1.8684184993e+00 -3.2361957706e+00 1.8684184993e+00 3.2361957706e+00 
27800 6.8251566413e+00 -7.7201201267e-04 1.8684432862e+00 -3.2362387028e+00 1.8684432862e+00 3.2362387028e+00 
27900 6.8251539657e+00 -6.2407924875e-04 1.8684639455e+00 -3.2362744857e+00 1.8684639455e+00 3.2362744857e+00 
28000 6.8251510603e+00 -4.8254405359e-04 1.8684806458e+00 -3.2363034115e+00 1.8684806458e+00 3.2363034115e+00 
28100 6.8251479407e+00 -3.4748980445e-04 1.8684935586e+00 -3.2363257771e+00 1.8684935586e+00 3.2363257771e+00 
28200 6.8251446237e+00 -2.1898591286e-04 1.8685028573e+00 -3.2363418829e+00 1.8685028573e+00 3.2363418829e+00 
28300 6.8251411272e+00 -9.7088012546e-05 1.8685087172e+00 -3.2363520326e+00 1.8685087172e+00 3.2363520326e+00 
28400 6.8251374699e+00 1.8161828819e-05 1.8685113152e+00 -3.2363565324e+00 1.8685113152e+00 3.2363565324e+00 
28500 6.8251336714e+00 1.2718193653e-04 1.8685113152e+00 -3.2363565324e+00 1.8685113152e+00 3.2363565324e+00 
28600 6.8251297518e+00 2.2905395003e-04 1.8685079119e+00 -3.2363506378e+00 1.8685079119e+00 3.2363506378e+00 
28700 6.8251257313e+00 3.2423088958e-04 1.8685017826e+00 -3.2363400215e+00 1.8685017826e+00 3.2363400215e+00 
28800 6.8251216304e+00 4.1272238699e-04 1.8684931064e+00 -3.2363249938e+00 1.8684931064e+00 3.2363249938e+00 
28900 6.8251174698e+00 4.9455026348e-04 1.8684820621e+00 -3.2363058646e+00 1.8684820621e+00 3.2363058646e+00 
29000 6.8251132697e+00 5.6974819877e-04 1.8684688281e+00 -3.2362829427e+00 1.8684688281e+00 3.2362829427e+00 
29100 6.8251090502e+00 6.3836138430e-04 1.8684535817e+00 -3.2362565352e+00 1.8684535817e+00 3.2362565352e+00 
29200 6.8251048310e+00 7.0044616185e-04 1.8684364992e+00 -3.2362269473e+00 1.8684364992e+00 3.2362269473e+00 
29300 6.8251006309e+00 7.5606964868e-04 1.8684177550e+00 -3.2361944814e+00 1.8684177550e+00 3.2361944814e+00 
29400 6.8250964683e+00 8.0530935045e-04 1.8683975222e+00 -3.2361594371e+00 1.8683975222e+00 3.2361594371e+00 
29500 6.8250923605e+00 8.4825276301e-04 1.8683759714e+00 -3.2361221101e+00 1.8683759714e+00 3.2361221101e+00 
29600 6.8250883242e+00 8.8499696426e-04 1.8683532712e+00 -3.2360827922e+00 1.8683532712e+00 3.2360827922e+00 
29700 6.8250843747e+00 9.1564819728e-04 1.8683295874e+00 -3.2360417706e+00 1.8683295874e+00 3.2360417706e+00 
29800 6.8250805266e+00 9.4032144578e-04 1.8683050829e+00 -3.2359993277e+00 1.8683050829e+00 3.2359993277e+00 
29900 6.8250767930e+00 9.5914000299e-04 1.8682799179e+00 -3.2359557406e+00 1.8682799179e+00 3.2359557406e+00 
30000 6.8250731859e+00 9.7223503525e-04 1.8682542489e+00 -3.2359112806e+00 1.8682542489e+00 3.2359112806e+00 
30100 6.8250697163e+00 9.7974514107e-04 1.8682282291e+00 -3.2358662129e+00 1.8682282291e+00 3.2358662129e+00 
30200 6.8250663935e+00 9.8181590700e-04 1.8682020079e+00 -3.2358207965e+00 1.8682020079e+00 3.2358207965e+00 
30300 6.8250632259e+00 9.7859946117e-04 1.8681757309e+00 -3.2357752835e+00 1.8681757309e+00 3.2357752835e+00 
30400 6.8250602203e+00 9.7025402552e-04 1.8681495397e+00 -3.2357299189e+00 1.8681495397e+00 3.2357299189e+00 
30500 6.8250573823e+00 9.5694346770e-04 1.8681235714e+00 -3.2356849405e+00 1.8681235714e+00 3.2356849405e+00 
30600 6.8250547163e+00 9.3883685352e-04 1.8680979591e+00 -3.2356405786e+00 1.8680979591e+00 3.2356405786e+00 
30700 6.8250522254e+00 9.1610800095e-04 1.8680728310e+00 -3.2355970555e+00 1.8680728310e+00 3.2355970555e+00 
30800 6.8250499113e+00 8.8893503638e-04 1.8680483109e+00 -3.2355545855e+00 1.8680483109e+00 3.2355545855e+00 
30900 6.8250477747e+00 8.5749995406e-04 1.8680245178e+00 -3.2355133746e+00 1.8680245178e+00 3.2355133746e+00 
31000 6.8250458151e+00 8.2198817959e-04 1.8680015658e+00 -3.2354736206e+00 1.8680015658e+00 3.2354736206e+00 
31100 6.8250440310e+00 7.8258813793e-04 1.8679795640e+00 -3.2354355124e+00 1.8679795640e+00 3.2354355124e+00 
31200 6.8250424195e+00 7.3949082705e-04 1.8679586166e+00 -3.2353992304e+00 1.8679586166e+00 3.2353992304e+00 
31300 6.8250409771e+00 6.9288939751e-04 1.8679388226e+00 -3.2353649461e+00 1.8679388226e+00 3.2353649461e+00 
31400 6.8250396994e+00 6.4297873895e-04 1.8679202757e+00 -3.2353328220e+00 1.8679202757e+00 3.2353328220e+00 
31500 6.8250385808e+00 5.8995507380e-04 1.8679030646e+00 -3.2353030116e+00 1.8679030646e+00 3.2353030116e+00 
31600 6.8250376153e+00 5.3401555905e-04 1.8678872727e+00 -3.2352756592e+00 1.8678872727e+00 3.2352756592e+00 
31700 6.8250367961e+00 4.7535789643e-04 1.8678729781e+00 -3.2352509002e+00 1.8678729781e+00 3.2352509002e+00 
31800 6.8250361157e+00 4.1417995160e-04 1.8678602536e+00 -3.2352288606e+00 1.8678602536e+00 3.2352288606e+00 
31900 6.8250355662e+00 3.5067938277e-04 1.8678491666e+00 -3.2352096573e+00 1.8678491666e+00 3.2352096573e+00 
32000 6.8250351392e+00 2.8505327923e-04 1.8678397793e+00 -3.2351933982e+00 1.8678397793e+00 3.2351933982e+00 
32100 6.8250348260e+00 2.1749781016e-04 1.8678321488e+00 -3.2351801817e+00 1.8678321488e+00 3.2351801817e+00 
32200 6.8250346175e+00 1.4820788405e-04 1.8678263266e+00 -3.2351700973e+00 1.8678263266e+00 3.2351700973e+00 
32300 6.8250345045e+00 7.7376819190e-05 1.8678223592e+00 -3.2351632256e+00 1.8678223592e+00 3.2351632256e+00 
32400 6.8250344775e+00 5.1960253698e-06 1.8678202879e+00 -3.2351596380e+00 1.8678202879e+00 3.2351596380e+00 
32500 6.8250345272e+00 -6.8016874523e-05 1.8678202879e+00 -3.2351596380e+00 1.8678202879e+00 3.2351596380e+00 
32600 6.8250346445e+00 -1.4401565054e-04 1.8678202879e+00 -3.2351596380e+00 1.8678202879e+00 3.2351596380e+00 
32700 6.8250348194e+00 -2.1909029113e-04 1.8678241430e+00 -3.2351663154e+00 1.8678241430e+00 3.2351663154e+00 
32800 6.8250350430e+00 -2.9477493571e-04 1.8678300079e+00 -3.2351764736e+00 1.8678300079e+00 3.2351764736e+00 
32900 6.8250353062e+00 -3.7089204351e-04 1.8678378987e+00 -3.2351901409e+00 1.8678378987e+00 3.2351901409e+00 
33000 6.8250356001e+00 -4.4726764164e-04 1.8678478271e+00 -3.2352073374e+00 1.8678478271e+00 3.2352073374e+00 
33100 6.8250359164e+00 -5.2373155836e-04 1.8678598000e+00 -3.2352280749e+00 1.8678598000e+00 3.2352280749e+00 
33200 6.8250362468e+00 -6.0011764361e-04 1.8678738195e+00 -3.2352523576e+00 1.8678738195e+00 3.2352523576e+00 
33300 6.8250365836e+00 -6.7626397684e-04 1.8678898837e+00 -3.2352801816e+00 1.8678898837e+00 3.2352801816e+00 
33400 6.8250369196e+00 -7.5201306205e-04 1.8679079861e+00 -3.2353115358e+00 1.8679079861e+00 3.2353115358e+00 
33500 6.8250372478e+00 -8.2721200992e-04 1.8679281160e+00 -3.2353464018e+00 1.8679281160e+00 3.2353464018e+00 
33600 6.8250375620e+00 -9.0171270736e-04 1.8679502585e+00 -3.2353847538e+00 1.8679502585e+00 3.2353847538e+00 
33700 6.8250378561e+00 -9.7537197404e-04 1.8679743950e+00 -3.2354265594e+00 1.8679743950e+00 3.2354265594e+00 
33800 6.8250381249e+00 -1.0480517065e-03 1.8680005028e+00 -3.2354717794e+00 1.8680005028e+00 3.2354717794e+00 
33900 6.8250383635e+00 -1.1196190092e-03 1.8680285556e+00 -3.2355203684e+00 1.8680285556e+00 3.2355203684e+00 
34000 6.8250385677e+00 -1.1899463136e-03 1.8680585237e+00 -3.2355722745e+00 1.8680585237e+00 3.2355722745e+00 
34100 6.8250387338e+00 -1.2589114842e-03 1.8680903736e+00 -3.2356274401e+00 1.8680903736e+00 3.2356274401e+00 
34200 6.8250388586e+00 -1.3263979127e-03 1.8681240688e+00 -3.2356858020e+00 1.8681240688e+00 3.2356858020e+00 
34300 6.8250389394e+00 -1.3922945997e-03 1.8681595697e+00 -3.2357472914e+00 1.8681595697e+00 3.2357472914e+00 
34400 6.8250389742e+00 -1.4564962245e-03 1.8681968336e+00 -3.2358118344e+00 1.8681968336e+00 3.2358118344e+00 
34500 6.8250389614e+00 -1.5189032031e-03 1.8682358151e+00 -3.2358793523e+00 1.8682358151e+00 3.2358793523e+00 
34600 6.8250388998e+00 -1.5794217340e-03 1.8682764660e+00 -3.2359497617e+00 1.8682764660e+00 3.2359497617e+00 
34700 6.8250387890e+00 -1.6379638338e-03 1.8683187356e+00 -3.2360229749e+00 1.8683187356e+00 3.2360229749e+00 
34800 6.8250386287e+00 -1.6944473599e-03 1.8683625711e+00 -3.2360989000e+00 1.8683625711e+00 3.2360989000e+00 
34900 6.8250384194e+00 -1.7487960232e-03 1.8684079170e+00 -3.2361774415e+00 1.8684079170e+00 3.2361774415e+00 
35000 6.8250381617e+00 -1.8009393902e-03 1.8684547163e+00 -3.2362585003e+00 1.8684547163e+00 3.2362585003e+00 
35100 6.8250378569e+00 -1.8508128734e-03 1.8685029098e+00 -3.2363419739e+00 1.8685029098e+00 3.2363419739e+00 
35200 6.8250375063e+00 -1.8983577126e-03 1.8685524366e+00 -3.2364277569e+00 1.8685524366e+00 3.2364277569e+00 
35300 6.8250371119e+00 -1.9435209456e-03 1.8686032344e+00 -3.2365157412e+00 1.8686032344e+00 3.2365157412e+00 
35400 6.8250366757e+00 -1.9862553694e-03 1.8686552393e+00 -3.2366058163e+00 1.8686552393e+00 3.2366058163e+00 
35500 6.8250362003e+00 -2.0265194914e-03 1.8687083862e+00 -3.2366978695e+00 1.8687083862e+00 3.2366978695e+00 
35600 6.8250356881e+00 -2.0642774723e-03 1.8687626089e+00 -3.2367917860e+00 1.8687626089e+00 3.2367917860e+00 
35700 6.8250351421e+00 -2.0994990596e-03 1.8688178403e+00 -3.2368874496e+00 1.8688178403e+00 3.2368874496e+00 
35800 6.8250345652e+00 -2.1321595124e-03 1.8688740125e+00 -3.2369847426e+00 1.8688740125e+00 3.2369847426e+00 
35900 6.8250339607e+00 -2.1622395188e-03 1.8689310567e+00 -3.2370835461e+00 1.8689310567e+00 3.2370835461e+00 
36000 6.8250333317e+00 -2.1897251044e-03 1.8689889040e+00 -3.2371837405e+00 1.8689889040e+00 3.2371837405e+00 
36100 6.8250326818e+00 -2.2146075340e-03 1.8690474848e+00 -3.2372852054e+00 1.8690474848e+00 3.2372852054e+00 
36200 6.8250320141e+00 -2.2368832058e-03 1.8691067294e+00 -3.2373878200e+00 1.8691067294e+00 3.2373878200e+00 
36300 6.8250313322e+00 -2.2565535386e-03 1.8691665680e+00 -3.2374914635e+00 1.8691665680e+00 3.2374914635e+00 
36400 6.8250306394e+00 -2.2736248530e-03 1.8692269309e+00 -3.2375960151e+00 1.8692269309e+00 3.2375960151e+00 
36500 6.8250299392e+00 -2.2881082455e-03 1.8692877484e+00 -3.2377013543e+00 1.8692877484e+00 3.2377013543e+00 
36600 6.8250292348e+00 -2.3000194580e-03 1.8693489514e+00 -3.2378073610e+00 1.8693489514e+00 3.2378073610e+00 
36700 6.8250285295e+00 -2.3093787406e-03 1.8694104710e+00 -3.2379139161e+00 1.8694104710e+00 3.2379139161e+00 
36800 6.8250278264e+00 -2.3162107102e-03 1.8694722390e+00 -3.2380209012e+00 1.8694722390e+00 3.2380209012e+00 
36900 6.8250271285e+00 -2.3205442042e-03 1.8695341876e+00 -3.2381281993e+00 1.8695341876e+00 3.2381281993e+00 
37000 6.8250264387e+00 -2.3224121294e-03 1.8695962500e+00 -3.2382356946e+00 1.8695962500e+00 3.2382356946e+00 
37100 6.8250257596e+00 -2.3218513072e-03 1.8696583603e+00 -3.2383432729e+00 1.8696583603e+00 3.2383432729e+00 
37200 6.8250250939e+00 -2.3189023151e-03 1.8697204536e+00 -3.2384508216e+00 1.8697204536e+00 3.2384508216e+00 
37300 6.8250244439e+00 -2.3136093253e-03 1.8697824659e+00 -3.2385582301e+00 1.8697824659e+00 3.2385582301e+00 
37400 6.8250238118e+00 -2.3060199393e-03 1.8698443347e+00 -3.2386653899e+00 1.8698443347e+00 3.2386653899e+00 
37500 6.8250231995e+00 -2.2961850213e-03 1.8699059985e+00 -3.2387721947e+00 1.8699059985e+00 3.2387721947e+00 
37600 6.8250226089e+00 -2.2841585282e-03 1.8699673972e+00 -3.2388785404e+00 1.8699673972e+00 3.2388785404e+00 
37700 6.8250220414e+00 -2.2699973384e-03 1.8700284724e+00 -3.2389843257e+00 1.8700284724e+00 3.2389843257e+00 
37800 6.8250214985e+00 -2.2537610790e-03 1.8700891669e+00 -3.2390894517e+00 1.8700891669e+00 3.2390894517e+00 
37900 6.8250209812e+00 -2.2355119516e-03 1.8701494253e+00 -3.2391938224e+00 1.8701494253e+00 3.2391938224e+00 
38000 6.8250204906e+00 -2.2153145574e-03 1.8702091939e+00 -3.2392973446e+00 1.8702091939e+00 3.2392973446e+00 
38100 6.8250200272e+00 -2.1932357219e-03 1.8702684206e+00 -3.2393999283e+00 1.8702684206e+00 3.2393999283e+00 
38200 6.8250195918e+00 -2.1693443192e-03 1.8703270552e+00 -3.2395014863e+00 1.8703270552e+00 3.2395014863e+00 
38300 6.8250191845e+00 -2.1437110969e-03 1.8703850492e+00 -3.2396019349e+00 1.8703850492e+00 3.2396019349e+00 
38400 6.8250188054e+00 -2.1164085006e-03 1.8704423561e+00 -3.2397011935e+00 1.8704423561e+00 3.2397011935e+00 
38500 6.8250184546e+00 -2.0875105004e-03 1.8704989315e+00 -3.2397991849e+00 1.8704989315e+00 3.2397991849e+00 
38600 6.8250181318e+00 -2.0570924173e-03 1.8705547327e+00 -3.2398958354e+00 1.8705547327e+00 3.2398958354e+00 
38700 6.8250178366e+00 -2.0252307518e-03 1.8706097191e+00 -3.2399910746e+00 1.8706097191e+00 3.2399910746e+00 
38800 6.8250175684e+00 -1.9920030140e-03 1.8706638523e+00 -3.2400848360e+00 1.8706638523e+00 3.2400848360e+00 
38900 6.8250173266e+00 -1.9574875552e-03 1.8707170957e+00 -3.2401770564e+00 1.8707170957e+00 3.2401770564e+00 
39000 6.8250171102e+00 -1.9217634023e-03 1.8707694152e+00 -3.2402676763e+00 1.8707694152e+00 3.2402676763e+00 
39100 6.8250169184e+00 -1.8849100944e-03 1.8708207783e+00 -3.2403566399e+00 1.8708207783e+00 3.2403566399e+00 
39200 6.8250167500e+00 -1.8470075221e-03 1.8708711551e+00 -3.2404438950e+00 1.8708711551e+00 3.2404438950e+00 
39300 6.8250166039e+00 -1.8081357702e-03 1.8709205175e+00 -3.2405293933e+00 1.8709205175e+00 3.2405293933e+00 
39400 6.8250164789e+00 -1.7683749625e-03 1.8709688398e+00 -3.2406130900e+00 1.8709688398e+00 3.2406130900e+00 
39500 6.8250163735e+00 -1.7278051116e-03 1.8710160983e+00 -3.2406949441e+00 1.8710160983e+00 3.2406949441e+00 
39600 6.8250162866e+00 -1.6865059710e-03 1.8710622714e+00 -3.2407749182e+00 1.8710622714e+00 3.2407749182e+00 
39700 6.8250162165e+00 -1.6445568915e-03 1.8711073397e+00 -3.2408529788e+00 1.8711073397e+00 3.2408529788e+00 
39800 6.8250161619e+00 -1.6020366821e-03 1.8711512860e+00 -3.2409290960e+00 1.8711512860e+00 3.2409290960e+00 
39900 6.8250161213e+00 -1.5590234741e-03 1.8711940950e+00 -3.2410032434e+00 1.8711940950e+00 3.2410032434e+00 
40000 6.8250160932e+00 -1.5155945905e-03 1.8712357537e+00 -3.2410753983e+00 1.8712357537e+00 3.2410753983e+00 
40100 6.8250160761e+00 -1.4718264192e-03 1.8712762510e+00 -3.2411455417e+00 1.8712762510e+00 3.2411455417e+00 
40200 6.8250160686e+00 -1.4277942914e-03 1.8713155779e+00 -3.2412136580e+00 1.8713155779e+00 3.2412136580e+00 
40300 6.8250160691e+00 -1.3835723645e-03 1.8713537275e+00 -3.2412797350e+00 1.8713537275e+00 3.2412797350e+00 
40400 6.8250160763e+00 -1.3392335098e-03 1.8713906948e+00 -3.2413437642e+00 1.8713906948e+00 3.2413437642e+00 
40500 6.8250160888e+00 -1.2948492055e-03 1.8714264767e+00 -3.2414057403e+00 1.8714264767e+00 3.2414057403e+00 
40600 6.8250161052e+00 -1.2504894343e-03 1.8714610720e+00 -3.2414656612e+00 1.8714610720e+00 3.2414656612e+00 
40700 6.8250161243e+00 -1.2062225870e-03 1.8714944816e+00 -3.2415235282e+00 1.8714944816e+00 3.2415235282e+00 
40800 6.8250161449e+00 -1.1621153705e-03 1.8715267079e+00 -3.2415793457e+00 1.8715267079e+00 3.2415793457e+00 
40900 6.8250161657e+00 -1.1182327217e-03 1.8715577552e+00 -3.2416331213e+00 1.8715577552e+00 3.2416331213e+00 
41000 6.8250161858e+00 -1.0746377262e-03 1.8715876297e+00 -3.2416848654e+00 1.8715876297e+00 3.2416848654e+00 
41100 6.8250162042e+00 -1.0313915429e-03 1.8716163390e+00 -3.2417345914e+00 1.8716163390e+00 3.2417345914e+00 
41200 6.8250162199e+00 -9.8855333387e-04 1.8716438926e+00 -3.2417823156e+00 1.8716438926e+00 3.2417823156e+00 
41300 6.8250162321e+00 -9.4618019936e-04 1.8716703013e+00 -3.2418280569e+00 1.8716703013e+00 3.2418280569e+00 
41400 6.8250162400e+00 -9.0432711864e-04 1.8716955777e+00 -3.2418718369e+00 1.8716955777e+00 3.2418718369e+00 
41500 6.8250162430e+00 -8.6304689595e-04 1.8717197358e+00 -3.2419136799e+00 1.8717197358e+00 3.2419136799e+00 
41600 6.8250162405e+00 -8.2239011203e-04 1.8717427907e+00 -3.2419536122e+00 1.8717427907e+00 3.2419536122e+00 
41700 6.8250162320e+00 -7.8240508086e-04 1.8717647593e+00 -3.2419916630e+00 1.8717647593e+00 3.2419916630e+00 
41800 6.8250162171e+00 -7.4313781190e-04 1.8717856596e+00 -3.2420278632e+00 1.8717856596e+00 3.2420278632e+00 
41900 6.8250161956e+00 -7.0463197741e-04 1.8718055106e+00 -3.2420622463e+00 1.8718055106e+00 3.2420622463e+00 
42000 6.8250161670e+00 -6.6692888514e-04 1.8718243329e+00 -3.2420948475e+00 1.8718243329e+00 3.2420948475e+00 
42100 6.8250161314e+00 -6.3006745611e-04 1.8718421479e+00 -3.2421257039e+00 1.8718421479e+00 3.2421257039e+00 
42200 6.8250160886e+00 -5.9408420744e-04 1.8718589781e+00 -3.2421548546e+00 1.8718589781e+00 3.2421548546e+00 
42300 6.8250160387e+00 -5.5901324019e-04 1.8718748469e+00 -3.2421823403e+00 1.8718748469e+00 3.2421823403e+00 
42400 6.8250159816e+00 -5.2488623208e-04 1.8718897788e+00 -3.2422082031e+00 1.8718897788e+00 3.2422082031e+00 
42500 6.8250159175e+00 -4.9173243500e-04 1.8719037991e+00 -3.2422324869e+00 1.8719037991e+00 3.2422324869e+00 
42600 6.8250158466e+00 -4.5957867724e-04 1.8719169337e+00 -3.2422552366e+00 1.8719169337e+00 3.2422552366e+00 
42700 6.8250157691e+00 -4.2844937022e-04 1.8719292093e+00 -3.2422764987e+00 1.8719292093e+00 3.2422764987e+00 
42800 6.8250156855e+00 -3.9836651971e-04 1.8719406534e+00 -3.2422963204e+00 1.8719406534e+00 3.2422963204e+00 
42900 6.8250155959e+00 -3.6934974138e-04 1.8719512938e+00 -3.2423147502e+00 1.8719512938e+00 3.2423147502e+00 
43000 6.8250155007e+00 -3.4141628049e-04 1.8719611592e+00 -3.2423318375e+00 1.8719611592e+00 3.2423318375e+00 
43100 6.8250154005e+00 -3.1458103566e-04 1.8719702784e+00 -3.2423476325e+00 1.8719702784e+00 3.2423476325e+00 
43200 6.8250152957e+00 -2.8885658656e-04 1.8719786808e+00 -3.2423621859e+00 1.8719786808e+00 3.2423621859e+00 
43300 6.8250151867e+00 -2.6425322533e-04 1.8719863961e+00 -3.2423755492e+00 1.8719863961e+00 3.2423755492e+00 
43400 6.8250150740e+00 -2.4077899158e-04 1.8719934542e+00 -3.2423877742e+00 1.8719934542e+00 3.2423877742e+00 
43500 6.8250149582e+00 -2.1843971094e-04 1.8719998853e+00 -3.2423989131e+00 1.8719998853e+00 3.2423989131e+00 
43600 6.8250148398e+00 -1.9723903677e-04 1.8720057197e+00 -3.2424090186e+00 1.8720057197e+00 3.2424090186e+00 
43700 6.8250147193e+00 -1.7717849512e-04 1.8720109878e+00 -3.2424181433e+00 1.8720109878e+00 3.2424181433e+00 
43800 6.8250145973e+00 -1.5825753260e-04 1.8720157201e+00 -3.2424263398e+00 1.8720157201e+00 3.2424263398e+00 
43900 6.8250144743e+00 -1.4047356707e-04 1.8720199471e+00 -3.2424336611e+00 1.8720199471e+00 3.2424336611e+00 
44000 6.8250143508e+00 -1.2382204096e-04 1.8720236990e+00 -3.2424401596e+00 1.8720236990e+00 3.2424401596e+00 
44100 6.8250142274e+00 -1.0829647707e-04 1.8720270062e+00 -3.2424458878e+00 1.8720270062e+00 3.2424458878e+00 
44200 6.8250141045e+00 -9.3888536677e-05 1.8720298987e+00 -3.2424508978e+00 1.8720298987e+00 3.2424508978e+00 
44300 6.8250139826e+00 -8.0588079791e-05 1.8720324063e+00 -3.2424552412e+00 1.8720324063e+00 3.2424552412e+00 
44400 6.8250138622e+00 -6.8383227323e-05 1.8720345587e+00 -3.2424589693e+00 1.8720345587e+00 3.2424589693e+00 
44500 6.8250137439e+00 -5.8936579550e-05 1.8720345587e+00 -3.2424589693e+00 1.8720345587e+00 3.2424589693e+00 
44600 6.8250136278e+00 -5.0292890783e-05 1.8720345587e+00 -3.2424589693e+00 1.8720345587e+00 3.2424589693e+00 
44700 6.8250135145e+00 -4.2460543054e-05 1.8720345587e+00 -3.2424589693e+00 1.8720345587e+00 3.2424589693e+00 
44800 6.8250134042e+00 -3.5446102968e-05 1.8720345587e+00 -3.2424589693e+00 1.8720345587e+00 3.2424589693e+00 
44900 6.8250132973e+00 -2.9254359253e-05 1.8720345587e+00 -3.2424589693e+00 1.8720345587e+00 3.2424589693e+00 
45000 6.8250131942e+00 -2.3888362781e-05 1.8720345587e+00 -3.2424589693e+00 1.8720345587e+00 3.2424589693e+00 
45100 6.8250130950e+00 -1.9349468870e-05 1.8720345587e+00 -3.2424589693e+00 1.8720345587e+00 3.2424589693e+00 
45200 6.8250130001e+00 -1.5637381721e-05 1.8720345587e+00 -3.2424589693e+00 1.8720345587e+00 3.2424589693e+00 
45300 6.8250129095e+00 -1.2750200858e-05 1.8720345587e+00 -3.2424589693e+00 1.8720345587e+00 3.2424589693e+00 
45400 6.8250128236e+00 -1.0684469364e-05 1.8720345587e+00 -3.2424589693e+00 1.8720345587e+00 3.2424589693e+00 
45500 6.8250127423e+00 -9.4352238021e-06 1.8720345587e+00 -3.2424589693e+00 1.8720345587e+00 3.2424589693e+00 
45600 6.8250126658e+00 -8.9960456401e-06 1.8720345587e+00 -3.2424589693e+00 1.8720345587e+00 3.2424589693e+00 
45700 6.8250125941e+00 -9.3591140488e-06 1.8720345587e+00 -3.2424589693e+00 1.8720345587e+00 3.2424589693e+00 
45800 6.8250125273e+00 -1.0515259926e-05 1.8720345587e+00 -3.2424589693e+00 1.8720345587e+00 3.2424589693e+00 
45900 6.8250124654e+00 -1.2454020979e-05 1.8720345587e+00 -3.2424589693e+00 1.8720345587e+00 3.2424589693e+00 
46000 6.8250124083e+00 -1.5163697750e-05 1.8720345587e+00 -3.2424589693e+00 1.8720345587e+00 3.2424589693e+00 
46100 6.8250123559e+00 -1.8631410435e-05 1.8720345587e+00 -3.2424589693e+00 1.8720345587e+00 3.2424589693e+00 
46200 6.8250123083e+00 -2.2843156353e-05 1.8720345587e+00 -3.2424589693e+00 1.8720345587e+00 3.2424589693e+00 
46300 6.8250122651e+00 -2.7783867946e-05 1.8720345587e+00 -3.2424589693e+00 1.8720345587e+00 3.2424589693e+00 
46400 6.8250122264e+00 -3.3437471167e-05 1.8720345587e+00 -3.2424589693e+00 1.8720345587e+00 3.2424589693e+00 
46500 6.8250121920e+00 -3.9786944144e-05 1.8720345587e+00 -3.2424589693e+00 1.8720345587e+00 3.2424589693e+00 
46600 6.8250121617e+00 -4.6814375981e-05 1.8720345587e+00 -3.2424589693e+00 1.8720345587e+00 3.2424589693e+00 
46700 6.8250121353e+00 -5.4501025589e-05 1.8720345587e+00 -3.2424589693e+00 1.8720345587e+00 3.2424589693e+00 
46800 6.8250121127e+00 -6.2827380439e-05 1.8720345587e+00 -3.2424589693e+00 1.8720345587e+00 3.2424589693e+00 
46900 6.8250120935e+00 -7.1773215090e-05 1.8720345587e+00 -3.2424589693e+00 1.8720345587e+00 3.2424589693e+00 
47000 6.8250120775e+00 -7.9558110518e-05 1.8720364757e+00 -3.2424622896e+00 1.8720364757e+00 3.2424622896e+00 
47100 6.8250120645e+00 -8.7720236187e-05 1.8720386006e+00 -3.2424659700e+00 1.8720386006e+00 3.2424659700e+00 
47200 6.8250120542e+00 -9.6226973778e-05 1.8720409435e+00 -3.2424700281e+00 1.8720409435e+00 3.2424700281e+00 
47300 6.8250120464e+00 -1.0504594573e-04 1.8720435137e+00 -3.2424744796e+00 1.8720435137e+00 3.2424744796e+00 
47400 6.8250120408e+00 -1.1414506976e-04 1.8720463193e+00 -3.2424793392e+00 1.8720463193e+00 3.2424793392e+00 
47500 6.8250120373e+00 -1.2349261142e-04 1.8720493680e+00 -3.2424846196e+00 1.8720493680e+00 3.2424846196e+00 
47600 6.8250120355e+00 -1.3305723480e-04 1.8720526663e+00 -3.2424903325e+00 1.8720526663e+00 3.2424903325e+00 
47700 6.8250120352e+00 -1.4280805112e-04 1.8720562201e+00 -3.2424964878e+00 1.8720562201e+00 3.2424964878e+00 
47800 6.8250120361e+00 -1.5271466531e-04 1.8720600343e+00 -3.2425030942e+00 1.8720600343e+00 3.2425030942e+00 
47900 6.8250120380e+00 -1.6274722051e-04 1.8720641131e+00 -3.2425101589e+00 1.8720641131e+00 3.2425101589e+00 
48000 6.8250120408e+00 -1.7287644048e-04 1.8720684598e+00 -3.2425176876e+00 1.8720684598e+00 3.2425176876e+00 
48100 6.8250120441e+00 -1.8307366981e-04 1.8720730771e+00 -3.2425256850e+00 1.8720730771e+00 3.2425256850e+00 
48200 6.8250120478e+00 -1.9331091204e-04 1.8720779667e+00 -3.2425341540e+00 1.8720779667e+00 3.2425341540e+00 
48300 6.8250120516e+00 -2.0356086550e-04 1.8720831297e+00 -3.2425430966e+00 1.8720831297e+00 3.2425430966e+00 
48400 6.8250120554e+00 -2.1379695708e-04 1.8720885664e+00 -3.2425525133e+00 1.8720885664e+00 3.2425525133e+00 
48500 6.8250120590e+00 -2.2399337371e-04 1.8720942766e+00 -3.2425624035e+00 1.8720942766e+00 3.2425624035e+00 
48600 6.8250120623e+00 -2.3412509165e-04 1.8721002590e+00 -3.2425727654e+00 1.8721002590e+00 3.2425727654e+00 
48700 6.8250120651e+00 -2.4416790359e-04 1.8721065120e+00 -3.2425835960e+00 1.8721065120e+00 3.2425835960e+00 
48800 6.8250120672e+00 -2.5409844356e-04 1.8721130332e+00 -3.2425948910e+00 1.8721130332e+00 3.2425948910e+00 
48900 6.8250120686e+00 -2.6389420960e-04 1.8721198196e+00 -3.2426066454e+00 1.8721198196e+00 3.2426066454e+00 
49000 6.8250120691e+00 -2.7353358430e-04 1.8721268676e+00 -3.2426188529e+00 1.8721268676e+00 3.2426188529e+00 
49100 6.8250120688e+00 -2.8299585313e-04 1.8721341731e+00 -3.2426315063e+00 1.8721341731e+00 3.2426315063e+00 
49200 6.8250120674e+00 -2.9226122069e-04 1.8721417312e+00 -3.2426445973e+00 1.8721417312e+00 3.2426445973e+00 
49300 6.8250120649e+00 -3.0131082469e-04 1.8721495367e+00 -3.2426581169e+00 1.8721495367e+00 3.2426581169e+00 
49400 6.8250120613e+00 -3.1012674805e-04 1.8721575839e+00 -3.2426720551e+00 1.8721575839e+00 3.2426720551e+00 
49500 6.8250120566e+00 -3.1869202871e-04 1.8721658665e+00 -3.2426864010e+00 1.8721658665e+00 3.2426864010e+00 
49600 6.8250120507e+00 -3.2699066754e-04 1.8721743778e+00 -3.2427011430e+00 1.8721743778e+00 3.2427011430e+00 
49700 6.8250120437e+00 -3.3500763424e-04 1.8721831108e+00 -3.2427162689e+00 1.8721831108e+00 3.2427162689e+00 
49800 6.8250120355e+00 -3.4272887117e-04 1.8721920577e+00 -3.2427317655e+00 1.8721920577e+00 3.2427317655e+00 
49900 6.8250120261e+00 -3.5014129540e-04 1.8722012109e+00 -3.2427476192e+00 1.8722012109e+00 3.2427476192e+00 
50000 6.8250120157e+00 -3.5723279878e-04 1.8722105620e+00 -3.2427638158e+00 1.8722105620e+00 3.2427638158e+00 
50100 6.8250120041e+00 -3.6399224621e-04 1.8722201024e+00 -3.2427803402e+00 1.8722201024e+00 3.2427803402e+00 
50200 6.8250119916e+00 -3.7040947209e-04 1.8722298232e+00 -3.2427971773e+00 1.8722298232e+00 3.2427971773e+00 
50300 6.8250119780e+00 -3.7647527514e-04 1.8722397155e+00 -3.2428143111e+00 1.8722397155e+00 3.2428143111e+00 
50400 6.8250119635e+00 -3.8218141138e-04 1.8722497696e+00 -3.2428317254e+00 1.8722497696e+00 3.2428317254e+00 
50500 6.8250119482e+00 -3.8752058559e-04 1.8722599761e+00 -3.2428494036e+00 1.8722599761e+00 3.2428494036e+00 
50600 6.8250119321e+00 -3.9248644116e-04 1.8722703251e+00 -3.2428673286e+00 1.8722703251e+00 3.2428673286e+00 
50700 6.8250119153e+00 -3.9707354844e-04 1.8722808067e+00 -3.2428854832e+00 1.8722808067e+00 3.2428854832e+00 
50800 6.8250118979e+00 -4.0127739158e-04 1.8722914107e+00 -3.2429038499e+00 1.8722914107e+00 3.2429038499e+00 
50900 6.8250118800e+00 -4.0509435404e-04 1.8723021269e+00 -3.2429224109e+00 1.8723021269e+00 3.2429224109e+00 
51000 6.8250118616e+00 -4.0852170273e-04 1.8723129450e+00 -3.2429411484e+00 1.8723129450e+00 3.2429411484e+00 
51100 6.8250118428e+00 -4.1155757086e-04 1.8723238546e+00 -3.2429600443e+00 1.8723238546e+00 3.2429600443e+00 
51200 6.8250118238e+00 -4.1420093956e-04 1.8723348451e+00 -3.2429790805e+00 1.8723348451e+00 3.2429790805e+00 
51300 6.8250118047e+00 -4.1645161847e-04 1.8723459062e+00 -3.2429982389e+00 1.8723459062e+00 3.2429982389e+00 
51400 6.8250117854e+00 -4.1831022506e-04 1.8723570274e+00 -3.2430175013e+00 1.8723570274e+00 3.2430175013e+00 
51500 6.8250117661e+00 -4.1977816308e-04 1.8723681980e+00 -3.2430368495e+00 1.8723681980e+00 3.2430368495e+00 
51600 6.8250117469e+00 -4.2085760000e-04 1.8723794079e+00 -3.2430562655e+00 1.8723794079e+00 3.2430562655e+00 
51700 6.8250117279e+00 -4.2155144353e-04 1.8723906465e+00 -3.2430757313e+00 1.8723906465e+00 3.2430757313e+00 
51800 6.8250117091e+00 -4.2186331739e-04 1.8724019035e+00 -3.2430952291e+00 1.8724019035e+00 3.2430952291e+00 
51900 6.8250116906e+00 -4.2179753626e-04 1.8724131688e+00 -3.2431147412e+00 1.8724131688e+00 3.2431147412e+00 
52000 6.8250116726e+00 -4.2135908005e-04 1.8724244323e+00 -3.2431342501e+00 1.8724244323e+00 3.2431342501e+00 
52100 6.8250116549e+00 -4.2055356755e-04 1.8724356840e+00 -3.2431537386e+00 1.8724356840e+00 3.2431537386e+00 
52200 6.8250116378e+00 -4.1938722952e-04 1.8724469142e+00 -3.2431731898e+00 1.8724469142e+00 3.2431731898e+00 
52300 6.8250116212e+00 -4.1786688128e-04 1.8724581131e+00 -3.2431925869e+00 1.8724581131e+00 3.2431925869e+00 
52400 6.8250116053e+00 -4.1599989486e-04 1.8724692713e+00 -3.2432119135e+00 1.8724692713e+00 3.2432119135e+00 
52500 6.8250115900e+00 -4.1379417075e-04 1.8724803797e+00 -3.2432311537e+00 1.8724803797e+00 3.2432311537e+00 
52600 6.8250115755e+00 -4.1125810940e-04 1.8724914290e+00 -3.2432502918e+00 1.8724914290e+00 3.2432502918e+00 
52700 6.8250115616e+00 -4.0840058243e-04 1.8725024106e+00 -3.2432693125e+00 1.8725024106e+00 3.2432693125e+00 
52800 6.8250115485e+00 -4.0523090362e-04 1.8725133158e+00 -3.2432882009e+00 1.8725133158e+00 3.2432882009e+00 
52900 6.8250115362e+00 -4.0175879986e-04 1.8725241364e+00 -3.2433069426e+00 1.8725241364e+00 3.2433069426e+00 
53000 6.8250115248e+00 -3.9799438196e-04 1.8725348641e+00 -3.2433255236e+00 1.8725348641e+00 3.2433255236e+00 
53100 6.8250115141e+00 -3.9394811543e-04 1.8725454913e+00 -3.2433439304e+00 1.8725454913e+00 3.2433439304e+00 
53200 6.8250115042e+00 -3.8963079137e-04 1.8725560103e+00 -3.2433621499e+00 1.8725560103e+00 3.2433621499e+00 
53300 6.8250114952e+00 -3.8505349738e-04 1.8725664141e+00 -3.2433801697e+00 1.8725664141e+00 3.2433801697e+00 
53400 6.8250114870e+00 -3.8022758869e-04 1.8725766955e+00 -3.2433979777e+00 1.8725766955e+00 3.2433979777e+00 
53500 6.8250114796e+00 -3.7516465941e-04 1.8725868480e+00 -3.2434155624e+00 1.8725868480e+00 3.2434155624e+00 
53600 6.8250114730e+00 -3.6987651411e-04 1.8725968653e+00 -3.2434329128e+00 1.8725968653e+00 3.2434329128e+00 
53700 6.8250114671e+00 -3.6437513962e-04 1.8726067414e+00 -3.2434500186e+00 1.8726067414e+00 3.2434500186e+00 
53800 6.8250114620e+00 -3.5867267721e-04 1.8726164705e+00 -3.2434668699e+00 1.8726164705e+00 3.2434668699e+00 
53900 6.8250114577e+00 -3.5278139516e-04 1.8726260472e+00 -3.2434834574e+00 1.8726260472e+00 3.2434834574e+00 
54000 6.8250114540e+00 -3.4671366177e-04 1.8726354667e+00 -3.2434997724e+00 1.8726354667e+00 3.2434997724e+00 
54100 6.8250114511e+00 -3.4048191879e-04 1.8726447241e+00 -3.2435158066e+00 1.8726447241e+00 3.2435158066e+00 
54200 6.8250114487e+00 -3.3409865540e-04 1.8726538150e+00 -3.2435315526e+00 1.8726538150e+00 3.2435315526e+00 
54300 6.8250114470e+00 -3.2757638273e-04 1.8726627355e+00 -3.2435470033e+00 1.8726627355e+00 3.2435470033e+00 
54400 6.8250114458e+00 -3.2092760895e-04 1.8726714818e+00 -3.2435621523e+00 1.8726714818e+00 3.2435621523e+00 
54500 6.8250114452e+00 -3.1416481501e-04 1.8726800505e+00 -3.2435769937e+00 1.8726800505e+00 3.2435769937e+00 
54600 6.8250114450e+00 -3.0730043096e-04 1.8726884386e+00 -3.2435915224e+00 1.8726884386e+00 3.2435915224e+00 
54700 6.8250114453e+00 -3.0034681301e-04 1.8726966434e+00 -3.2436057335e+00 1.8726966434e+00 3.2436057335e+00 
54800 6.8250114460e+00 -2.9331622126e-04 1.8727046625e+00 -3.2436196230e+00 1.8727046625e+00 3.2436196230e+00 
54900 6.8250114471e+00 -2.8622079817e-04 1.8727124939e+00 -3.2436331873e+00 1.8727124939e+00 3.2436331873e+00 
55000 6.8250114484e+00 -2.7907254777e-04 1.8727201357e+00 -3.2436464234e+00 1.8727201357e+00 3.2436464234e+00 
55100 6.8250114501e+00 -2.7188331566e-04 1.8727275867e+00 -3.2436593290e+00 1.8727275867e+00 3.2436593290e+00 
55200 6.8250114520e+00 -2.6466476977e-04 1.8727348458e+00 -3.2436719020e+00 1.8727348458e+00 3.2436719020e+00 
55300 6.8250114541e+00 -2.5742838199e-04 1.8727419120e+00 -3.2436841411e+00 1.8727419120e+00 3.2436841411e+00 
55400 6.8250114563e+00 -2.5018541057e-04 1.8727487851e+00 -3.2436960455e+00 1.8727487851e+00 3.2436960455e+00 
55500 6.8250114587e+00 -2.4294688337e-04 1.8727554647e+00 -3.2437076150e+00 1.8727554647e+00 3.2437076150e+00 
55600 6.8250114611e+00 -2.3572358198e-04 1.8727619511e+00 -3.2437188497e+00 1.8727619511e+00 3.2437188497e+00 
55700 6.8250114636e+00 -2.2852602669e-04 1.8727682445e+00 -3.2437297503e+00 1.8727682445e+00 3.2437297503e+00 
55800 6.8250114662e+00 -2.2136446233e-04 1.8727743458e+00 -3.2437403181e+00 1.8727743458e+00 3.2437403181e+00 
55900 6.8250114687e+00 -2.1424884500e-04 1.8727802559e+00 -3.2437505546e+00 1.8727802559e+00 3.2437505546e+00 
56000 6.8250114712e+00 -2.0718882959e-04 1.8727859760e+00 -3.2437604621e+00 1.8727859760e+00 3.2437604621e+00 
56100 6.8250114736e+00 -2.0019375838e-04 1.8727915075e+00 -3.2437700430e+00 1.8727915075e+00 3.2437700430e+00 
56200 6.8250114759e+00 -1.9327265026e-04 1.8727968523e+00 -3.2437793005e+00 1.8727968523e+00 3.2437793005e+00 
56300 6.8250114782e+00 -1.8643419106e-04 1.8728020123e+00 -3.2437882379e+00 1.8728020123e+00 3.2437882379e+00 
56400 6.8250114803e+00 -1.7968672465e-04 1.8728069898e+00 -3.2437968590e+00 1.8728069898e+00 3.2437968590e+00 
56500 6.8250114822e+00 -1.7303824490e-04 1.8728117870e+00 -3.2438051681e+00 1.8728117870e+00 3.2438051681e+00 
56600 6.8250114841e+00 -1.6649638854e-04 1.8728164068e+00 -3.2438131698e+00 1.8728164068e+00 3.2438131698e+00 
56700 6.8250114857e+00 -1.6006842892e-04 1.8728208518e+00 -3.2438208689e+00 1.8728208518e+00 3.2438208689e+00 
56800 6.8250114872e+00 -1.5376127053e-04 1.8728251253e+00 -3.2438282707e+00 1.8728251253e+00 3.2438282707e+00 
56900 6.8250114884e+00 -1.4758144446e-04 1.8728292304e+00 -3.2438353809e+00 1.8728292304e+00 3.2438353809e+00 
57000 6.8250114895e+00 -1.4153510460e-04 1.8728331704e+00 -3.2438422053e+00 1.8728331704e+00 3.2438422053e+00 
57100 6.8250114904e+00 -1.3562802473e-04 1.8728369491e+00 -3.2438487501e+00 1.8728369491e+00 3.2438487501e+00 
57200 6.8250114912e+00 -1.2986559636e-04 1.8728405700e+00 -3.2438550217e+00 1.8728405700e+00 3.2438550217e+00 
57300 6.8250114917e+00 -1.2425282742e-04 1.8728440371e+00 -3.2438610269e+00 1.8728440371e+00 3.2438610269e+00 
57400 6.8250114920e+00 -1.1879434164e-04 1.8728473543e+00 -3.2438667725e+00 1.8728473543e+00 3.2438667725e+00 
57500 6.8250114922e+00 -1.1349437873e-04 1.8728505258e+00 -3.2438722656e+00 1.8728505258e+00 3.2438722656e+00 
57600 6.8250114922e+00 -1.0835679531e-04 1.8728535558e+00 -3.2438775137e+00 1.8728535558e+00 3.2438775137e+00 
57700 6.8250114920e+00 -1.0338506655e-04 1.8728564486e+00 -3.2438825243e+00 1.8728564486e+00 3.2438825243e+00 
57800 6.8250114916e+00 -9.8582288429e-05 1.8728592087e+00 -3.2438873049e+00 1.8728592087e+00 3.2438873049e+00 
57900 6.8250114911e+00 -9.3951180802e-05 1.8728618406e+00 -3.2438918634e+00 1.8728618406e+00 3.2438918634e+00 
58000 6.8250114905e+00 -8.9494090996e-05 1.8728643488e+00 -3.2438962078e+00 1.8728643488e+00 3.2438962078e+00 
58100 6.8250114897e+00 -8.5212998102e-05 1.8728667380e+00 -3.2439003461e+00 1.8728667380e+00 3.2439003461e+00 
58200 6.8250114888e+00 -8.1109517858e-05 1.8728690130e+00 -3.2439042864e+00 1.8728690130e+00 3.2439042864e+00 
58300 6.8250114879e+00 -7.7184908093e-05 1.8728711783e+00 -3.2439080369e+00 1.8728711783e+00 3.2439080369e+00 
58400 6.8250114868e+00 -7.3440074771e-05 1.8728732389e+00 -3.2439116060e+00 1.8728732389e+00 3.2439116060e+00 
58500 6.8250114856e+00 -6.9875578505e-05 1.8728751996e+00 -3.2439150019e+00 1.8728751996e+00 3.2439150019e+00 
58600 6.8250114846e+00 -6.8201635522e-05 1.8728751996e+00 -3.2439150019e+00 1.8728751996e+00 3.2439150019e+00 
58700 6.8250114834e+00 -6.6634135517e-05 1.8728751996e+00 -3.2439150019e+00 1.8728751996e+00 3.2439150019e+00 
58800 6.8250114823e+00 -6.5177007992e-05 1.8728751996e+00 -3.2439150019e+00 1.8728751996e+00 3.2439150019e+00 
58900 6.8250114811e+00 -6.3833851000e-05 1.8728751996e+00 -3.2439150019e+00 1.8728751996e+00 3.2439150019e+00 
59000 6.8250114799e+00 -6.2607932704e-05 1.8728751996e+00 -3.2439150019e+00 1.8728751996e+00 3.2439150019e+00 
59100 6.8250114786e+00 -6.1502193598e-05 1.8728751996e+00 -3.2439150019e+00 1.8728751996e+00 3.2439150019e+00 
59200 6.8250114774e+00 -6.0519249351e-05 1.8728751996e+00 -3.2439150019e+00 1.8728751996e+00 3.2439150019e+00 
59300 6.8250114763e+00 -5.9661394245e-05 1.8728751996e+00 -3.2439150019e+00 1.8728751996e+00 3.2439150019e+00 
59400 6.8250114752e+00 -5.8930605190e-05 1.8728751996e+00 -3.2439150019e+00 1.8728751996e+00 3.2439150019e+00 
59500 6.8250114741e+00 -5.8328546282e-05 1.8728751996e+00 -3.2439150019e+00 1.8728751996e+00 3.2439150019e+00 
59600 6.8250114731e+00 -5.7856573872e-05 1.8728751996e+00 -3.2439150019e+00 1.8728751996e+00 3.2439150019e+00 
59700 6.8250114722e+00 -5.7515742118e-05 1.8728751996e+00 -3.2439150019e+00 1.8728751996e+00 3.2439150019e+00 
59800 6.8250114714e+00 -5.7306809012e-05 1.8728751996e+00 -3.2439150019e+00 1.8728751996e+00 3.2439150019e+00 
59900 6.8250114707e+00 -5.7230242817e-05 1.8728751996e+00 -3.2439150019e+00 1.8728751996e+00 3.2439150019e+00 
60000 6.8250114701e+00 -5.7286228933e-05 1.8728751996e+00 -3.2439150019e+00 1.8728751996e+00 3.2439150019e+00 
60100 6.8250114696e+00 -5.7474677122e-05 1.8728751996e+00 -3.2439150019e+00 1.8728751996e+00 3.2439150019e+00 
60200 6.8250114692e+00 -5.7795229084e-05 1.8728751996e+00 -3.2439150019e+00 1.8728751996e+00 3.2439150019e+00 
60300 6.8250114689e+00 -5.8247266375e-05 1.8728751996e+00 -3.2439150019e+00 1.8728751996e+00 3.2439150019e+00 
60400 6.8250114688e+00 -5.8829918609e-05 1.8728751996e+00 -3.2439150019e+00 1.8728751996e+00 3.2439150019e+00 
60500 6.8250114688e+00 -5.9542071918e-05 1.8728751996e+00 -3.2439150019e+00 1.8728751996e+00 3.2439150019e+00 
60600 6.8250114690e+00 -6.0382377692e-05 1.8728751996e+00 -3.2439150019e+00 1.8728751996e+00 3.2439150019e+00 
60700 6.8250114693e+00 -6.1349261509e-05 1.8728751996e+00 -3.2439150019e+00 1.8728751996e+00 3.2439150019e+00 
60800 6.8250114697e+00 -6.2440932271e-05 1.8728751996e+00 -3.2439150019e+00 1.8728751996e+00 3.2439150019e+00 
60900 6.8250114702e+00 -6.3655391524e-05 1.8728751996e+00 -3.2439150019e+00 1.8728751996e+00 3.2439150019e+00 
61000 6.8250114709e+00 -6.4990442906e-05 1.8728751996e+00 -3.2439150019e+00 1.8728751996e+00 3.2439150019e+00 
61100 6.8250114717e+00 -6.6443701721e-05 1.8728751996e+00 -3.2439150019e+00 1.8728751996e+00 3.2439150019e+00 
61200 6.8250114726e+00 -6.8012604631e-05 1.8728751996e+00 -3.2439150019e+00 1.8728751996e+00 3.2439150019e+00 
61300 6.8250114737e+00 -6.9694419405e-05 1.8728751996e+00 -3.2439150019e+00 1.8728751996e+00 3.2439150019e+00 
61400 6.8250114748e+00 -7.1486254748e-05 1.8728751996e+00 -3.2439150019e+00 1.8728751996e+00 3.2439150019e+00 
61500 6.8250114760e+00 -7.1635587810e-05 1.8728771080e+00 -3.2439183074e+00 1.8728771080e+00 3.2439183074e+00 
61600 6.8250114772e+00 -7.1876081520e-05 1.8728790205e+00 -3.2439216199e+00 1.8728790205e+00 3.2439216199e+00 
61700 6.8250114785e+00 -7.2201797111e-05 1.8728809393e+00 -3.2439249435e+00 1.8728809393e+00 3.2439249435e+00 
61800 6.8250114799e+00 -7.2606820840e-05 1.8728828669e+00 -3.2439282821e+00 1.8728828669e+00 3.2439282821e+00 
61900 6.8250114814e+00 -7.3085274475e-05 1.8728848053e+00 -3.2439316395e+00 1.8728848053e+00 3.2439316395e+00 
62000 6.8250114829e+00 -7.3631325456e-05 1.8728867564e+00 -3.2439350189e+00 1.8728867564e+00 3.2439350189e+00 
62100 6.8250114845e+00 -7.4239196659e-05 1.8728887221e+00 -3.2439384237e+00 1.8728887221e+00 3.2439384237e+00 
62200 6.8250114862e+00 -7.4903175809e-05 1.8728907041e+00 -3.2439418565e+00 1.8728907041e+00 3.2439418565e+00 
62300 6.8250114879e+00 -7.5617624489e-05 1.8728927037e+00 -3.2439453200e+00 1.8728927037e+00 3.2439453200e+00 
62400 6.8250114896e+00 -7.6376986801e-05 1.8728947225e+00 -3.2439488166e+00 1.8728947225e+00 3.2439488166e+00 
62500 6.8250114913e+00 -7.7175797590e-05 1.8728967615e+00 -3.2439523482e+00 1.8728967615e+00 3.2439523482e+00 
62600 6.8250114931e+00 -7.8008690317e-05 1.8728988218e+00 -3.2439559168e+00 1.8728988218e+00 3.2439559168e+00 
62700 6.8250114949e+00 -7.8870404518e-05 1.8729009044e+00 -3.2439595240e+00 1.8729009044e+00 3.2439595240e+00 
62800 6.8250114967e+00 -7.9755792854e-05 1.8729030100e+00 -3.2439631709e+00 1.8729030100e+00 3.2439631709e+00 
62900 6.8250114985e+00 -8.0659827789e-05 1.8729051392e+00 -3.2439668588e+00 1.8729051392e+00 3.2439668588e+00 
63000 6.8250115003e+00 -8.1577607836e-05 1.8729072925e+00 -3.2439705885e+00 1.8729072925e+00 3.2439705885e+00 
63100 6.8250115021e+00 -8.2504363420e-05 1.8729094703e+00 -3.2439743606e+00 1.8729094703e+00 3.2439743606e+00 
63200 6.8250115038e+00 -8.3435462339e-05 1.8729116729e+00 -3.2439781756e+00 1.8729116729e+00 3.2439781756e+00 
63300 6.8250115055e+00 -8.4366414807e-05 1.8729139003e+00 -3.2439820336e+00 1.8729139003e+00 3.2439820336e+00 
63400 6.8250115073e+00 -8.5292878126e-05 1.8729161526e+00 -3.2439859346e+00 1.8729161526e+00 3.2439859346e+00 
63500 6.8250115089e+00 -8.6210660923e-05 1.8729184296e+00 -3.2439898785e+00 1.8729184296e+00 3.2439898785e+00 
63600 6.8250115106e+00 -8.7115727032e-05 1.8729207311e+00 -3.2439938649e+00 1.8729207311e+00 3.2439938649e+00 
63700 6.8250115122e+00 -8.8004198949e-05 1.8729230568e+00 -3.2439978930e+00 1.8729230568e+00 3.2439978930e+00 
63800 6.8250115138e+00 -8.8872360933e-05 1.8729254062e+00 -3.2440019623e+00 1.8729254062e+00 3.2440019623e+00 
63900 6.8250115153e+00 -8.9716661680e-05 1.8729277787e+00 -3.2440060717e+00 1.8729277787e+00 3.2440060717e+00 
64000 6.8250115168e+00 -9.0533716662e-05 1.8729301738e+00 -3.2440102201e+00 1.8729301738e+00 3.2440102201e+00 
64100 6.8250115182e+00 -9.1320310074e-05 1.8729325907e+00 -3.2440144063e+00 1.8729325907e+00 3.2440144063e+00 
64200 6.8250115196e+00 -9.2073396406e-05 1.8729350286e+00 -3.2440186288e+00 1.8729350286e+00 3.2440186288e+00 
64300 6.8250115210e+00 -9.2790101662e-05 1.8729374866e+00 -3.2440228862e+00 1.8729374866e+00 3.2440228862e+00 
64400 6.8250115223e+00 -9.3467724231e-05 1.8729399637e+00 -3.2440271767e+00 1.8729399637e+00 3.2440271767e+00 
64500 6.8250115235e+00 -9.4103735404e-05 1.8729424590e+00 -3.2440314986e+00 1.8729424590e+00 3.2440314986e+00 
64600 6.8250115247e+00 -9.4695779547e-05 1.8729449712e+00 -3.2440358498e+00 1.8729449712e+00 3.2440358498e+00 
64700 6.8250115259e+00 -9.5241673959e-05 1.8729474991e+00 -3.2440402284e+00 1.8729474991e+00 3.2440402284e+00 
64800 6.8250115270e+00 -9.5739408393e-05 1.8729500417e+00 -3.2440446323e+00 1.8729500417e+00 3.2440446323e+00 
64900 6.8250115281e+00 -9.6187144271e-05 1.8729525976e+00 -3.2440490591e+00 1.8729525976e+00 3.2440490591e+00 
65000 6.8250115291e+00 -9.6583213597e-05 1.8729551653e+00 -3.2440535067e+00 1.8729551653e+00 3.2440535067e+00 
65100 6.8250115301e+00 -9.6926117576e-05 1.8729577437e+00 -3.2440579725e+00 1.8729577437e+00 3.2440579725e+00 
65200 6.8250115311e+00 -9.7214524932e-05 1.8729603312e+00 -3.2440624542e+00 1.8729603312e+00 3.2440624542e+00 
65300 6.8250115320e+00 -9.7447269988e-05 1.8729629264e+00 -3.2440669493e+00 1.8729629264e+00 3.2440669493e+00 
65400 6.8250115329e+00 -9.7623350441e-05 1.8729655279e+00 -3.2440714551e+00 1.8729655279e+00 3.2440714551e+00 
65500 6.8250115338e+00 -9.7741924916e-05 1.8729681340e+00 -3.2440759690e+00 1.8729681340e+00 3.2440759690e+00 
65600 6.8250115346e+00 -9.7802310261e-05 1.8729707433e+00 -3.2440804884e+00 1.8729707433e+00 3.2440804884e+00 
65700 6.8250115355e+00 -9.7803978617e-05 1.8729733541e+00 -3.2440850106e+00 1.8729733541e+00 3.2440850106e+00 
65800 6.8250115363e+00 -9.7746554270e-05 1.8729759651e+00 -3.2440895329e+00 1.8729759651e+00 3.2440895329e+00 
65900 6.8250115370e+00 -9.7629810287e-05 1.8729785745e+00 -3.2440940525e+00 1.8729785745e+00 3.2440940525e+00 
66000 6.8250115378e+00 -9.7453664966e-05 1.8729811807e+00 -3.2440985667e+00 1.8729811807e+00 3.2440985667e+00 
66100 6.8250115385e+00 -9.7218178087e-05 1.8729837823e+00 -3.2441030727e+00 1.8729837823e+00 3.2441030727e+00 
66200 6.8250115393e+00 -9.6923547008e-05 1.8729863776e+00 -3.2441075679e+00 1.8729863776e+00 3.2441075679e+00 
66300 6.8250115400e+00 -9.6570102577e-05 1.8729889650e+00 -3.2441120494e+00 1.8729889650e+00 3.2441120494e+00 
66400 6.8250115407e+00 -9.6158304905e-05 1.8729915430e+00 -3.2441165145e+00 1.8729915430e+00 3.2441165145e+00 
66500 6.8250115414e+00 -9.5688739011e-05 1.8729941099e+00 -3.2441209607e+00 1.8729941099e+00 3.2441209607e+00 
66600 6.8250115422e+00 -9.5162110314e-05 1.8729966644e+00 -3.2441253851e+00 1.8729966644e+00 3.2441253851e+00 
66700 6.8250115429e+00 -9.4579240028e-05 1.8729992047e+00 -3.2441297851e+00 1.8729992047e+00 3.2441297851e+00 
66800 6.8250115436e+00 -9.3941060448e-05 1.8730017295e+00 -3.2441341582e+00 1.8730017295e+00 3.2441341582e+00 
66900 6.8250115443e+00 -9.3248610144e-05 1.8730042373e+00 -3.2441385018e+00 1.8730042373e+00 3.2441385018e+00 
67000 6.8250115451e+00 -9.2503029075e-05 1.8730067266e+00 -3.2441428134e+00 1.8730067266e+00 3.2441428134e+00 
67100 6.8250115458e+00 -9.1705553627e-05 1.8730091960e+00 -3.2441470904e+00 1.8730091960e+00 3.2441470904e+00 
67200 6.8250115465e+00 -9.0857511588e-05 1.8730116440e+00 -3.2441513306e+00 1.8730116440e+00 3.2441513306e+00 
67300 6.8250115473e+00 -8.9960317101e-05 1.8730140695e+00 -3.2441555316e+00 1.8730140695e+00 3.2441555316e+00 
67400 6.8250115481e+00 -8.9015465539e-05 1.8730164710e+00 -3.2441596911e+00 1.8730164710e+00 3.2441596911e+00 
67500 6.8250115489e+00 -8.8024528392e-05 1.8730188472e+00 -3.2441638069e+00 1.8730188472e+00 3.2441638069e+00 
67600 6.8250115497e+00 -8.6989148104e-05 1.8730211970e+00 -3.2441678769e+00 1.8730211970e+00 3.2441678769e+00 
67700 6.8250115505e+00 -8.5911032935e-05 1.8730235192e+00 -3.2441718990e+00 1.8730235192e+00 3.2441718990e+00 
67800 6.8250115513e+00 -8.4791951789e-05 1.8730258126e+00 -3.2441758713e+00 1.8730258126e+00 3.2441758713e+00 
67900 6.8250115521e+00 -8.3633729106e-05 1.8730280761e+00 -3.2441797918e+00 1.8730280761e+00 3.2441797918e+00 
68000 6.8250115530e+00 -8.2438239713e-05 1.8730303087e+00 -3.2441836587e+00 1.8730303087e+00 3.2441836587e+00 
68100 6.8250115539e+00 -8.1207403770e-05 1.8730325093e+00 -3.2441874704e+00 1.8730325093e+00 3.2441874704e+00 
68200 6.8250115547e+00 -7.9943181702e-05 1.8730346771e+00 -3.2441912251e+00 1.8730346771e+00 3.2441912251e+00 
68300 6.8250115556e+00 -7.8647569226e-05 1.8730368112e+00 -3.2441949214e+00 1.8730368112e+00 3.2441949214e+00 
68400 6.8250115565e+00 -7.7322592393e-05 1.8730389106e+00 -3.2441985578e+00 1.8730389106e+00 3.2441985578e+00 
68500 6.8250115575e+00 -7.5970302735e-05 1.8730409747e+00 -3.2442021329e+00 1.8730409747e+00 3.2442021329e+00 
68600 6.8250115584e+00 -7.4592772446e-05 1.8730430027e+00 -3.2442056455e+00 1.8730430027e+00 3.2442056455e+00 
68700 6.8250115593e+00 -7.3192089677e-05 1.8730449940e+00 -3.2442090944e+00 1.8730449940e+00 3.2442090944e+00 
68800 6.8250115603e+00 -7.1770353900e-05 1.8730469478e+00 -3.2442124785e+00 1.8730469478e+00 3.2442124785e+00 
68900 6.8250115612e+00 -7.0329671357e-05 1.8730488637e+00 -3.2442157969e+00 1.8730488637e+00 3.2442157969e+00 
69000 6.8250115624e+00 -7.0592647948e-05 1.8730488637e+00 -3.2442157969e+00 1.8730488637e+00 3.2442157969e+00 
69100 6.8250115635e+00 -7.0814076271e-05 1.8730488637e+00 -3.2442157969e+00 1.8730488637e+00 3.2442157969e+00 
69200 6.8250115644e+00 -6.9263537771e-05 1.8730507540e+00 -3.2442190711e+00 1.8730507540e+00 3.2442190711e+00 
69300 6.8250115655e+00 -6.9398780680e-05 1.8730507540e+00 -3.2442190711e+00 1.8730507540e+00 3.2442190711e+00 
69400 6.8250115666e+00 -6.9497948750e-05 1.8730507540e+00 -3.2442190711e+00 1.8730507540e+00 3.2442190711e+00 
69500 6.8250115677e+00 -6.9563031016e-05 1.8730507540e+00 -3.2442190711e+00 1.8730507540e+00 3.2442190711e+00 
69600 6.8250115688e+00 -6.9596023512e-05 1.8730507540e+00 -3.2442190711e+00 1.8730507540e+00 3.2442190711e+00 
69700 6.8250115699e+00 -6.9598924800e-05 1.8730507540e+00 -3.2442190711e+00 1.8730507540e+00 3.2442190711e+00 
69800 6.8250115710e+00 -6.9573731662e-05 1.8730507540e+00 -3.2442190711e+00 1.8730507540e+00 3.2442190711e+00 
69900 6.8250115721e+00 -6.9522434935e-05 1.8730507540e+00 -3.2442190711e+00 1.8730507540e+00 3.2442190711e+00 
70000 6.8250115731e+00 -6.9447015524e-05 1.8730507540e+00 -3.2442190711e+00 1.8730507540e+00 3.2442190711e+00 
70100 6.8250115742e+00 -6.9349440561e-05 1.8730507540e+00 -3.2442190711e+00 1.8730507540e+00 3.2442190711e+00 
70200 6.8250115752e+00 -6.9231659746e-05 1.8730507540e+00 -3.2442190711e+00 1.8730507540e+00 3.2442190711e+00 
70300 6.8250115763e+00 -6.9095601819e-05 1.8730507540e+00 -3.2442190711e+00 1.8730507540e+00 3.2442190711e+00 
70400 6.8250115773e+00 -6.8943171236e-05 1.8730507540e+00 -3.2442190711e+00 1.8730507540e+00 3.2442190711e+00 
70500 6.8250115783e+00 -6.8776244972e-05 1.8730507540e+00 -3.2442190711e+00 1.8730507540e+00 3.2442190711e+00 
70600 6.8250115793e+00 -6.8596669508e-05 1.8730507540e+00 -3.2442190711e+00 1.8730507540e+00 3.2442190711e+00 
70700 6.8250115802e+00 -6.8406257973e-05 1.8730507540e+00 -3.2442190711e+00 1.8730507540e+00 3.2442190711e+00 
70800 6.8250115812e+00 -6.8206787458e-05 1.8730507540e+00 -3.2442190711e+00 1.8730507540e+00 3.2442190711e+00 
70900 6.8250115821e+00 -6.7999996467e-05 1.8730507540e+00 -3.2442190711e+00 1.8730507540e+00 3.2442190711e+00 
71000 6.8250115830e+00 -6.7787582565e-05 1.8730507540e+00 -3.2442190711e+00 1.8730507540e+00 3.2442190711e+00 
71100 6.8250115839e+00 -6.7571200155e-05 1.8730507540e+00 -3.2442190711e+00 1.8730507540e+00 3.2442190711e+00 
71200 6.8250115848e+00 -6.7352458433e-05 1.8730507540e+00 -3.2442190711e+00 1.8730507540e+00 3.2442190711e+00 
71300 6.8250115857e+00 -6.7132919482e-05 1.8730507540e+00 -3.2442190711e+00 1.8730507540e+00 3.2442190711e+00 
71400 6.8250115866e+00 -6.6914096537e-05 1.8730507540e+00 -3.2442190711e+00 1.8730507540e+00 3.2442190711e+00 
71500 6.8250115874e+00 -6.6697452397e-05 1.8730507540e+00 -3.2442190711e+00 1.8730507540e+00 3.2442190711e+00 
71600 6.8250115882e+00 -6.6484397985e-05 1.8730507540e+00 -3.2442190711e+00 1.8730507540e+00 3.2442190711e+00 
71700 6.8250115891e+00 -6.6276291063e-05 1.8730507540e+00 -3.2442190711e+00 1.8730507540e+00 3.2442190711e+00 
71800 6.8250115899e+00 -6.6074435083e-05 1.8730507540e+00 -3.2442190711e+00 1.8730507540e+00 3.2442190711e+00 
71900 6.8250115906e+00 -6.5880078194e-05 1.8730507540e+00 -3.2442190711e+00 1.8730507540e+00 3.2442190711e+00 
72000 6.8250115914e+00 -6.5694412381e-05 1.8730507540e+00 -3.2442190711e+00 1.8730507540e+00 3.2442190711e+00 
72100 6.8250115922e+00 -6.5518572746e-05 1.8730507540e+00 -3.2442190711e+00 1.8730507540e+00 3.2442190711e+00 
72200 6.8250115929e+00 -6.5353636922e-05 1.8730507540e+00 -3.2442190711e+00 1.8730507540e+00 3.2442190711e+00 
72300 6.8250115937e+00 -6.5200624619e-05 1.8730507540e+00 -3.2442190711e+00 1.8730507540e+00 3.2442190711e+00 
72400 6.8250115944e+00 -6.5060497295e-05 1.8730507540e+00 -3.2442190711e+00 1.8730507540e+00 3.2442190711e+00 
72500 6.8250115951e+00 -6.4934157961e-05 1.8730507540e+00 -3.2442190711e+00 1.8730507540e+00 3.2442190711e+00 
72600 6.8250115958e+00 -6.4822451095e-05 1.8730507540e+00 -3.2442190711e+00 1.8730507540e+00 3.2442190711e+00 
72700 6.8250115965e+00 -6.4726162683e-05 1.8730507540e+00 -3.2442190711e+00 1.8730507540e+00 3.2442190711e+00 
72800 6.8250115972e+00 -6.4646020373e-05 1.8730507540e+00 -3.2442190711e+00 1.8730507540e+00 3.2442190711e+00 
72900 6.8250115978e+00 -6.4582693728e-05 1.8730507540e+00 -3.2442190711e+00 1.8730507540e+00 3.2442190711e+00 
73000 6.8250115985e+00 -6.4536794602e-05 1.8730507540e+00 -3.2442190711e+00 1.8730507540e+00 3.2442190711e+00 
73100 6.8250115992e+00 -6.4508877601e-05 1.8730507540e+00 -3.2442190711e+00 1.8730507540e+00 3.2442190711e+00 
73200 6.8250115998e+00 -6.4499440659e-05 1.8730507540e+00 -3.2442190711e+00 1.8730507540e+00 3.2442190711e+00 
73300 6.8250116005e+00 -6.4508925692e-05 1.8730507540e+00 -3.2442190711e+00 1.8730507540e+00 3.2442190711e+00 
73400 6.8250116011e+00 -6.4537719351e-05 1.8730507540e+00 -3.2442190711e+00 1.8730507540e+00 3.2442190711e+00 
73500 6.8250116017e+00 -6.4586153861e-05 1.8730507540e+00 -3.2442190711e+00 1.8730507540e+00 3.2442190711e+00 
73600 6.8250116024e+00 -6.4654507933e-05 1.8730507540e+00 -3.2442190711e+00 1.8730507540e+00 3.2442190711e+00 
73700 6.8250116030e+00 -6.4743007761e-05 1.8730507540e+00 -3.2442190711e+00 1.8730507540e+00 3.2442190711e+00 
73800 6.8250116036e+00 -6.4851828095e-05 1.8730507540e+00 -3.2442190711e+00 1.8730507540e+00 3.2442190711e+00 
73900 6.8250116042e+00 -6.4981093368e-05 1.8730507540e+00 -3.2442190711e+00 1.8730507540e+00 3.2442190711e+00 
74000 6.8250116048e+00 -6.5130878902e-05 1.8730507540e+00 -3.2442190711e+00 1.8730507540e+00 3.2442190711e+00 
74100 6.8250116054e+00 -6.5301212165e-05 1.8730507540e+00 -3.2442190711e+00 1.8730507540e+00 3.2442190711e+00 
74200 6.8250116060e+00 -6.5492074088e-05 1.8730507540e+00 -3.2442190711e+00 1.8730507540e+00 3.2442190711e+00 
74300 6.8250116066e+00 -6.5703400439e-05 1.8730507540e+00 -3.2442190711e+00 1.8730507540e+00 3.2442190711e+00 
74400 6.8250116072e+00 -6.5935083230e-05 1.8730507540e+00 -3.2442190711e+00 1.8730507540e+00 3.2442190711e+00 
74500 6.8250116078e+00 -6.6186972180e-05 1.8730507540e+00 -3.2442190711e+00 1.8730507540e+00 3.2442190711e+00 
74600 6.8250116084e+00 -6.6458876215e-05 1.8730507540e+00 -3.2442190711e+00 1.8730507540e+00 3.2442190711e+00 
74700 6.8250116090e+00 -6.6750564994e-05 1.8730507540e+00 -3.2442190711e+00 1.8730507540e+00 3.2442190711e+00 
74800 6.8250116095e+00 -6.7061770486e-05 1.8730507540e+00 -3.2442190711e+00 1.8730507540e+00 3.2442190711e+00 
74900 6.8250116101e+00 -6.7392188551e-05 1.8730507540e+00 -3.2442190711e+00 1.8730507540e+00 3.2442190711e+00 
75000 6.8250116107e+00 -6.7741480562e-05 1.8730507540e+00 -3.2442190711e+00 1.8730507540e+00 3.2442190711e+00 
75100 6.8250116113e+00 -6.8109275036e-05 1.8730507540e+00 -3.2442190711e+00 1.8730507540e+00 3.2442190711e+00 
75200 6.8250116118e+00 -6.8495169295e-05 1.8730507540e+00 -3.2442190711e+00 1.8730507540e+00 3.2442190711e+00 
75300 6.8250116124e+00 -6.8898731117e-05 1.8730507540e+00 -3.2442190711e+00 1.8730507540e+00 3.2442190711e+00 
75400 6.8250116130e+00 -6.9319500415e-05 1.8730507540e+00 -3.2442190711e+00 1.8730507540e+00 3.2442190711e+00 
75500 6.8250116135e+00 -6.9756990920e-05 1.8730507540e+00 -3.2442190711e+00 1.8730507540e+00 3.2442190711e+00 
75600 6.8250116141e+00 -7.0210691853e-05 1.8730507540e+00 -3.2442190711e+00 1.8730507540e+00 3.2442190711e+00 
75700 6.8250116146e+00 -7.0680069612e-05 1.8730507540e+00 -3.2442190711e+00 1.8730507540e+00 3.2442190711e+00 
75800 6.8250116152e+00 -7.1164569437e-05 1.8730507540e+00 -3.2442190711e+00 1.8730507540e+00 3.2442190711e+00 
75900 6.8250116156e+00 -6.9922641689e-05 1.8730526537e+00 -3.2442223615e+00 1.8730526537e+00 3.2442223615e+00 
76000 6.8250116161e+00 -7.0426701895e-05 1.8730526537e+00 -3.2442223615e+00 1.8730526537e+00 3.2442223615e+00 
76100 6.8250116166e+00 -7.0943730364e-05 1.8730526537e+00 -3.2442223615e+00 1.8730526537e+00 3.2442223615e+00 
76200 6.8250116170e+00 -6.9737550680e-05 1.8730545475e+00 -3.2442256416e+00 1.8730545475e+00 3.2442256416e+00 
76300 6.8250116176e+00 -7.0269754609e-05 1.8730545475e+00 -3.2442256416e+00 1.8730545475e+00 3.2442256416e+00 
76400 6.8250116181e+00 -7.0812680687e-05 1.8730545475e+00 -3.2442256416e+00 1.8730545475e+00 3.2442256416e+00 
76500 6.8250116185e+00 -6.9633346463e-05 1.8730564378e+00 -3.2442289157e+00 1.8730564378e+00 3.2442289157e+00 
76600 6.8250116190e+00 -7.0186918548e-05 1.8730564378e+00 -3.2442289157e+00 1.8730564378e+00 3.2442289157e+00 
76700 6.8250116195e+00 -7.0748924356e-05 1.8730564378e+00 -3.2442289157e+00 1.8730564378e+00 3.2442289157e+00 
76800 6.8250116198e+00 -6.9587945120e-05 1.8730583264e+00 -3.2442321868e+00 1.8730583264e+00 3.2442321868e+00 
76900 6.8250116203e+00 -7.0156021652e-05 1.8730583264e+00 -3.2442321868e+00 1.8730583264e+00 3.2442321868e+00 
77000 6.8250116208e+00 -7.0730247090e-05 1.8730583264e+00 -3.2442321868e+00 1.8730583264e+00 3.2442321868e+00 
77100 6.8250116212e+00 -6.9579678039e-05 1.8730602145e+00 -3.2442354571e+00 1.8730602145e+00 3.2442354571e+00 
77200 6.8250116216e+00 -7.0155443294e-05 1.8730602145e+00 -3.2442354571e+00 1.8730602145e+00 3.2442354571e+00 
77300 6.8250116221e+00 -7.0735117814e-05 1.8730602145e+00 -3.2442354571e+00 1.8730602145e+00 3.2442354571e+00 
77400 6.8250116224e+00 -6.9587670412e-05 1.8730621027e+00 -3.2442387276e+00 1.8730621027e+00 3.2442387276e+00 
77500 6.8250116229e+00 -7.0164479388e-05 1.8730621027e+00 -3.2442387276e+00 1.8730621027e+00 3.2442387276e+00 
77600 6.8250116233e+00 -7.0743040145e-05 1.8730621027e+00 -3.2442387276e+00 1.8730621027e+00 3.2442387276e+00 
77700 6.8250116236e+00 -6.9592170352e-05 1.8730639911e+00 -3.2442419985e+00 1.8730639911e+00 3.2442419985e+00 
77800 6.8250116241e+00 -7.0163657497e-05 1.8730639911e+00 -3.2442419985e+00 1.8730639911e+00 3.2442419985e+00 
77900 6.8250116245e+00 -7.0734853357e-05 1.8730639911e+00 -3.2442419985e+00 1.8730639911e+00 3.2442419985e+00 
78000 6.8250116248e+00 -6.9574828161e-05 1.8730658794e+00 -3.2442452690e+00 1.8730658794e+00 3.2442452690e+00 
78100 6.8250116252e+00 -7.0135001669e-05 1.8730658794e+00 -3.2442452690e+00 1.8730658794e+00 3.2442452690e+00 
78200 6.8250116256e+00 -7.0692982721e-05 1.8730658794e+00 -3.2442452690e+00 1.8730658794e+00 3.2442452690e+00 
78300 6.8250116261e+00 -7.1248302396e-05 1.8730658794e+00 -3.2442452690e+00 1.8730658794e+00 3.2442452690e+00 
78400 6.8250116263e+00 -7.0057546651e-05 1.8730677813e+00 -3.2442485632e+00 1.8730677813e+00 3.2442485632e+00 
78500 6.8250116267e+00 -7.0597246152e-05 1.8730677813e+00 -3.2442485632e+00 1.8730677813e+00 3.2442485632e+00 
78600 6.8250116271e+00 -7.1132592180e-05 1.8730677813e+00 -3.2442485632e+00 1.8730677813e+00 3.2442485632e+00 
78700 6.8250116274e+00 -6.9923068824e-05 1.8730696801e+00 -3.2442518520e+00 1.8730696801e+00 3.2442518520e+00 
78800 6.8250116277e+00 -7.0439606127e-05 1.8730696801e+00 -3.2442518520e+00 1.8730696801e+00 3.2442518520e+00 
78900 6.8250116281e+00 -7.0950282812e-05 1.8730696801e+00 -3.2442518520e+00 1.8730696801e+00 3.2442518520e+00 
79000 6.8250116283e+00 -6.9719114723e-05 1.8730715741e+00 -3.2442551325e+00 1.8730715741e+00 3.2442551325e+00 
79100 6.8250116287e+00 -7.0208185666e-05 1.8730715741e+00 -3.2442551325e+00 1.8730715741e+00 3.2442551325e+00 
79200 6.8250116291e+00 -7.0690086396e-05 1.8730715741e+00 -3.2442551325e+00 1.8730715741e+00 3.2442551325e+00 
79300 6.8250116294e+00 -7.1164555183e-05 1.8730715741e+00 -3.2442551325e+00 1.8730715741e+00 3.2442551325e+00 
79400 6.8250116296e+00 -6.9890460825e-05 1.8730734737e+00 -3.2442584228e+00 1.8730734737e+00 3.2442584228e+00 
79500 6.8250116300e+00 -7.0340415535e-05 1.8730734737e+00 -3.2442584228e+00 1.8730734737e+00 3.2442584228e+00 
79600 6.8250116303e+00 -7.0781889532e-05 1.8730734737e+00 -3.2442584228e+00 1.8730734737e+00 3.2442584228e+00 
79700 6.8250116305e+00 -6.9483188247e-05 1.8730753632e+00 -3.2442616955e+00 1.8730753632e+00 3.2442616955e+00 
79800 6.8250116308e+00 -6.9898304052e-05 1.8730753632e+00 -3.2442616955e+00 1.8730753632e+00 3.2442616955e+00 
79900 6.8250116312e+00 -7.0304098025e-05 1.8730753632e+00 -3.2442616955e+00 1.8730753632e+00 3.2442616955e+00 
80000 6.8250116315e+00 -7.0700464785e-05 1.8730753632e+00 -3.2442616955e+00 1.8730753632e+00 3.2442616955e+00 
80100 6.8250116318e+00 -7.1087318151e-05 1.8730753632e+00 -3.2442616955e+00 1.8730753632e+00 3.2442616955e+00 
80200 6.8250116320e+00 -6.9725605788e-05 1.8730772608e+00 -3.2442649822e+00 1.8730772608e+00 3.2442649822e+00 
80300 6.8250116323e+00 -7.0084315117e-05 1.8730772608e+00 -3.2442649822e+00 1.8730772608e+00 3.2442649822e+00 
80400 6.8250116326e+00 -7.0432983462e-05 1.8730772608e+00 -3.2442649822e+00 1.8730772608e+00 3.2442649822e+00 
80500 6.8250116329e+00 -7.0771607590e-05 1.8730772608e+00 -3.2442649822e+00 1.8730772608e+00 3.2442649822e+00 
80600 6.8250116331e+00 -6.9368946934e-05 1.8730791500e+00 -3.2442682544e+00 1.8730791500e+00 3.2442682544e+00 
80700 6.8250116334e+00 -6.9678649092e-05 1.8730791500e+00 -3.2442682544e+00 1.8730791500e+00 3.2442682544e+00 
80800 6.8250116337e+00 -6.9978022472e-05 1.8730791500e+00 -3.2442682544e+00 1.8730791500e+00 3.2442682544e+00 
80900 6.8250116340e+00 -7.0267141367e-05 1.8730791500e+00 -3.2442682544e+00 1.8730791500e+00 3.2442682544e+00 
81000 6.8250116342e+00 -7.0546095954e-05 1.8730791500e+00 -3.2442682544e+00 1.8730791500e+00 3.2442682544e+00 
81100 6.8250116345e+00 -7.0814991534e-05 1.8730791500e+00 -3.2442682544e+00 1.8730791500e+00 3.2442682544e+00 
81200 6.8250116347e+00 -6.9341638348e-05 1.8730810403e+00 -3.2442715285e+00 1.8730810403e+00 3.2442715285e+00 
81300 6.8250116350e+00 -6.9581889966e-05 1.8730810403e+00 -3.2442715285e+00 1.8730810403e+00 3.2442715285e+00 
81400 6.8250116352e+00 -6.9812104292e-05 1.8730810403e+00 -3.2442715285e+00 1.8730810403e+00 3.2442715285e+00 
81500 6.8250116355e+00 -7.0032451161e-05 1.8730810403e+00 -3.2442715285e+00 1.8730810403e+00 3.2442715285e+00 
81600 6.8250116358e+00 -7.0243112847e-05 1.8730810403e+00 -3.2442715285e+00 1.8730810403e+00 3.2442715285e+00 
81700 6.8250116360e+00 -7.0444283266e-05 1.8730810403e+00 -3.2442715285e+00 1.8730810403e+00 3.2442715285e+00 
81800 6.8250116363e+00 -7.0636167154e-05 1.8730810403e+00 -3.2442715285e+00 1.8730810403e+00 3.2442715285e+00 
81900 6.8250116366e+00 -7.0818979285e-05 1.8730810403e+00 -3.2442715285e+00 1.8730810403e+00 3.2442715285e+00 
82000 6.8250116367e+00 -6.9260542699e-05 1.8730829308e+00 -3.2442748029e+00 1.8730829308e+00 3.2442748029e+00 
82100 6.8250116369e+00 -6.9416992765e-05 1.8730829308e+00 -3.2442748029e+00 1.8730829308e+00 3.2442748029e+00 
82200 6.8250116372e+00 -6.9564690320e-05 1.8730829308e+00 -3.2442748029e+00 1.8730829308e+00 3.2442748029e+00 
82300 6.8250116374e+00 -6.9703894058e-05 1.8730829308e+00 -3.2442748029e+00 1.8730829308e+00 3.2442748029e+00 
82400 6.8250116377e+00 -6.9834869955e-05 1.8730829308e+00 -3.2442748029e+00 1.8730829308e+00 3.2442748029e+00 
82500 6.8250116379e+00 -6.9957890466e-05 1.8730829308e+00 -3.2442748029e+00 1.8730829308e+00 3.2442748029e+00 
82600 6.8250116382e+00 -7.0073233735e-05 1.8730829308e+00 -3.2442748029e+00 1.8730829308e+00 3.2442748029e+00 
82700 6.8250116384e+00 -7.0181182834e-05 1.8730829308e+00 -3.2442748029e+00 1.8730829308e+00 3.2442748029e+00 
82800 6.8250116386e+00 -7.0282025015e-05 1.8730829308e+00 -3.2442748029e+00 1.8730829308e+00 3.2442748029e+00 
82900 6.8250116389e+00 -7.0376050974e-05 1.8730829308e+00 -3.2442748029e+00 1.8730829308e+00 3.2442748029e+00 
83000 6.8250116391e+00 -7.0463554153e-05 1.8730829308e+00 -3.2442748029e+00 1.8730829308e+00 3.2442748029e+00 
83100 6.8250116393e+00 -7.0544830045e-05 1.8730829308e+00 -3.2442748029e+00 1.8730829308e+00 3.2442748029e+00 
83200 6.8250116396e+00 -7.0620175531e-05 1.8730829308e+00 -3.2442748029e+00 1.8730829308e+00 3.2442748029e+00 
83300 6.8250116398e+00 -7.0689888225e-05 1.8730829308e+00 -3.2442748029e+00 1.8730829308e+00 3.2442748029e+00 
83400 6.8250116400e+00 -7.0754265859e-05 1.8730829308e+00 -3.2442748029e+00 1.8730829308e+00 3.2442748029e+00 
83500 6.8250116401e+00 -6.9082791823e-05 1.8730848195e+00 -3.2442780742e+00 1.8730848195e+00 3.2442780742e+00 
83600 6.8250116403e+00 -6.9128499121e-05 1.8730848195e+00 -3.2442780742e+00 1.8730848195e+00 3.2442780742e+00 
83700 6.8250116405e+00 -6.9169382118e-05 1.8730848195e+00 -3.2442780742e+00 1.8730848195e+00 3.2442780742e+00 
83800 6.8250116407e+00 -6.9205744658e-05 1.8730848195e+00 -3.2442780742e+00 1.8730848195e+00 3.2442780742e+00 
83900 6.8250116409e+00 -6.9237888931e-05 1.8730848195e+00 -3.2442780742e+00 1.8730848195e+00 3.2442780742e+00 
84000 6.8250116411e+00 -6.9266114896e-05 1.8730848195e+00 -3.2442780742e+00 1.8730848195e+00 3.2442780742e+00 
84100 6.8250116413e+00 -6.9290719720e-05 1.8730848195e+00 -3.2442780742e+00 1.8730848195e+00 3.2442780742e+00 
84200 6.8250116415e+00 -6.9311997258e-05 1.8730848195e+00 -3.2442780742e+00 1.8730848195e+00 3.2442780742e+00 
84300 6.8250116417e+00 -6.9330237546e-05 1.8730848195e+00 -3.2442780742e+00 1.8730848195e+00 3.2442780742e+00 
84400 6.8250116419e+00 -6.9345726328e-05 1.8730848195e+00 -3.2442780742e+00 1.8730848195e+00 3.2442780742e+00 
84500 6.8250116421e+00 -6.9358744597e-05 1.8730848195e+00 -3.2442780742e+00 1.8730848195e+00 3.2442780742e+00 
84600 6.8250116423e+00 -6.9369568176e-05 1.8730848195e+00 -3.2442780742e+00 1.8730848195e+00 3.2442780742e+00 
84700 6.8250116425e+00 -6.9378467307e-05 1.8730848195e+00 -3.2442780742e+00 1.8730848195e+00 3.2442780742e+00 
84800 6.8250116427e+00 -6.9385706288e-05 1.8730848195e+00 -3.2442780742e+00 1.8730848195e+00 3.2442780742e+00 
84900 6.8250116429e+00 -6.9391543110e-05 1.8730848195e+00 -3.2442780742e+00 1.8730848195e+00 3.2442780742e+00 
85000 6.8250116430e+00 -6.9396229130e-05 1.8730848195e+00 -3.2442780742e+00 1.8730848195e+00 3.2442780742e+00 
85100 6.8250116432e+00 -6.9400008777e-05 1.8730848195e+00 -3.2442780742e+00 1.8730848195e+00 3.2442780742e+00 
85200 6.8250116434e+00 -6.9403119266e-05 1.8730848195e+00 -3.2442780742e+00 1.8730848195e+00 3.2442780742e+00 
85300 6.8250116436e+00 -6.9405790342e-05 1.8730848195e+00 -3.2442780742e+00 1.8730848195e+00 3.2442780742e+00 
85400 6.8250116437e+00 -6.9408244051e-05 1.8730848195e+00 -3.2442780742e+00 1.8730848195e+00 3.2442780742e+00 
85500 6.8250116439e+00 -6.9410694533e-05 1.8730848195e+00 -3.2442780742e+00 1.8730848195e+00 3.2442780742e+00 
85600 6.8250116441e+00 -6.9413347826e-05 1.8730848195e+00 -3.2442780742e+00 1.8730848195e+00 3.2442780742e+00 
85700 6.8250116442e+00 -6.9416401718e-05 1.8730848195e+00 -3.2442780742e+00 1.8730848195e+00 3.2442780742e+00 
85800 6.8250116444e+00 -6.9420045588e-05 1.8730848195e+00 -3.2442780742e+00 1.8730848195e+00 3.2442780742e+00 
85900 6.8250116445e+00 -6.9424460296e-05 1.8730848195e+00 -3.2442780742e+00 1.8730848195e+00 3.2442780742e+00 
86000 6.8250116447e+00 -6.9429818078e-05 1.8730848195e+00 -3.2442780742e+00 1.8730848195e+00 3.2442780742e+00 
86100 6.8250116448e+00 -6.9436282466e-05 1.8730848195e+00 -3.2442780742e+00 1.8730848195e+00 3.2442780742e+00 
86200 6.8250116450e+00 -6.9444008231e-05 1.8730848195e+00 -3.2442780742e+00 1.8730848195e+00 3.2442780742e+00 
86300 6.8250116451e+00 -6.9453141337e-05 1.8730848195e+00 -3.2442780742e+00 1.8730848195e+00 3.2442780742e+00 
86400 6.8250116453e+00 -6.9463818927e-05 1.8730848195e+00 -3.2442780742e+00 1.8730848195e+00 3.2442780742e+00 
86500 6.8250116454e+00 -6.9476169308e-05 1.8730848195e+00 -3.2442780742e+00 1.8730848195e+00 3.2442780742e+00 
86600 6.8250116456e+00 -6.9490311976e-05 1.8730848195e+00 -3.2442780742e+00 1.8730848195e+00 3.2442780742e+00 
86700 6.8250116457e+00 -6.9506357639e-05 1.8730848195e+00 -3.2442780742e+00 1.8730848195e+00 3.2442780742e+00 
86800 6.8250116459e+00 -6.9524408266e-05 1.8730848195e+00 -3.2442780742e+00 1.8730848195e+00 3.2442780742e+00 
86900 6.8250116460e+00 -6.9544557151e-05 1.8730848195e+00 -3.2442780742e+00 1.8730848195e+00 3.2442780742e+00 
87000 6.8250116461e+00 -6.9566888990e-05 1.8730848195e+00 -3.2442780742e+00 1.8730848195e+00 3.2442780742e+00 
87100 6.8250116463e+00 -6.9591479972e-05 1.8730848195e+00 -3.2442780742e+00 1.8730848195e+00 3.2442780742e+00 
87200 6.8250116464e+00 -6.9618397894e-05 1.8730848195e+00 -3.2442780742e+00 1.8730848195e+00 3.2442780742e+00 
87300 6.8250116465e+00 -6.9647702270e-05 1.8730848195e+00 -3.2442780742e+00 1.8730848195e+00 3.2442780742e+00 
87400 6.8250116467e+00 -6.9679444464e-05 1.8730848195e+00 -3.2442780742e+00 1.8730848195e+00 3.2442780742e+00 
87500 6.8250116468e+00 -6.9713667847e-05 1.8730848195e+00 -3.2442780742e+00 1.8730848195e+00 3.2442780742e+00 
87600 6.8250116469e+00 -6.9750407940e-05 1.8730848195e+00 -3.2442780742e+00 1.8730848195e+00 3.2442780742e+00 
87700 6.8250116470e+00 -6.9789692580e-05 1.8730848195e+00 -3.2442780742e+00 1.8730848195e+00 3.2442780742e+00 
87800 6.8250116472e+00 -6.9831542108e-05 1.8730848195e+00 -3.2442780742e+00 1.8730848195e+00 3.2442780742e+00 
87900 6.8250116473e+00 -6.9875969540e-05 1.8730848195e+00 -3.2442780742e+00 1.8730848195e+00 3.2442780742e+00 
88000 6.8250116474e+00 -6.9922980778e-05 1.8730848195e+00 -3.2442780742e+00 1.8730848195e+00 3.2442780742e+00 
88100 6.8250116475e+00 -6.9972574800e-05 1.8730848195e+00 -3.2442780742e+00 1.8730848195e+00 3.2442780742e+00 
88200 6.8250116476e+00 -7.0024743875e-05 1.8730848195e+00 -3.2442780742e+00 1.8730848195e+00 3.2442780742e+00 
88300 6.8250116478e+00 -7.0079473779e-05 1.8730848195e+00 -3.2442780742e+00 1.8730848195e+00 3.2442780742e+00 
88400 6.8250116479e+00 -7.0136744019e-05 1.8730848195e+00 -3.2442780742e+00 1.8730848195e+00 3.2442780742e+00 
88500 6.8250116480e+00 -7.0196528062e-05 1.8730848195e+00 -3.2442780742e+00 1.8730848195e+00 3.2442780742e+00 
88600 6.8250116481e+00 -7.0258793571e-05 1.8730848195e+00 -3.2442780742e+00 1.8730848195e+00 3.2442780742e+00 
88700 6.8250116482e+00 -7.0323502638e-05 1.8730848195e+00 -3.2442780742e+00 1.8730848195e+00 3.2442780742e+00 
88800 6.8250116483e+00 -7.0390612031e-05 1.8730848195e+00 -3.2442780742e+00 1.8730848195e+00 3.2442780742e+00 
88900 6.8250116484e+00 -7.0460073434e-05 1.8730848195e+00 -3.2442780742e+00 1.8730848195e+00 3.2442780742e+00 
89000 6.8250116485e+00 -7.0531833702e-05 1.8730848195e+00 -3.2442780742e+00 1.8730848195e+00 3.2442780742e+00 
89100 6.8250116486e+00 -7.0605835111e-05 1.8730848195e+00 -3.2442780742e+00 1.8730848195e+00 3.2442780742e+00 
89200 6.8250116487e+00 -7.0682015598e-05 1.8730848195e+00 -3.2442780742e+00 1.8730848195e+00 3.2442780742e+00 
89300 6.8250116488e+00 -7.0760309026e-05 1.8730848195e+00 -3.2442780742e+00 1.8730848195e+00 3.2442780742e+00 
89400 6.8250116488e+00 -6.9109684037e-05 1.8730867083e+00 -3.2442813458e+00 1.8730867083e+00 3.2442813458e+00 
89500 6.8250116489e+00 -6.9183099014e-05 1.8730867083e+00 -3.2442813458e+00 1.8730867083e+00 3.2442813458e+00 
89600 6.8250116490e+00 -6.9258029347e-05 1.8730867083e+00 -3.2442813458e+00 1.8730867083e+00 3.2442813458e+00 
89700 6.8250116491e+00 -6.9334406596e-05 1.8730867083e+00 -3.2442813458e+00 1.8730867083e+00 3.2442813458e+00 
89800 6.8250116492e+00 -6.9412160533e-05 1.8730867083e+00 -3.2442813458e+00 1.8730867083e+00 3.2442813458e+00 
89900 6.8250116493e+00 -6.9491219302e-05 1.8730867083e+00 -3.2442813458e+00 1.8730867083e+00 3.2442813458e+00 
90000 6.8250116494e+00 -6.9571509589e-05 1.8730867083e+00 -3.2442813458e+00 1.8730867083e+00 3.2442813458e+00 
90100 6.8250116495e+00 -6.9652956773e-05 1.8730867083e+00 -3.2442813458e+00 1.8730867083e+00 3.2442813458e+00 
90200 6.8250116495e+00 -6.9735485103e-05 1.8730867083e+00 -3.2442813458e+00 1.8730867083e+00 3.2442813458e+00 
90300 6.8250116496e+00 -6.9819017841e-05 1.8730867083e+00 -3.2442813458e+00 1.8730867083e+00 3.2442813458e+00 
90400 6.8250116497e+00 -6.9903477436e-05 1.8730867083e+00 -3.2442813458e+00 1.8730867083e+00 3.2442813458e+00 
90500 6.8250116498e+00 -6.9988785677e-05 1.8730867083e+00 -3.2442813458e+00 1.8730867083e+00 3.2442813458e+00 
90600 6.8250116499e+00 -7.0074863851e-05 1.8730867083e+00 -3.2442813458e+00 1.8730867083e+00 3.2442813458e+00 
90700 6.8250116500e+00 -7.0161632894e-05 1.8730867083e+00 -3.2442813458e+00 1.8730867083e+00 3.2442813458e+00 
90800 6.8250116501e+00 -7.0249013547e-05 1.8730867083e+00 -3.2442813458e+00 1.8730867083e+00 3.2442813458e+00 
90900 6.8250116501e+00 -7.0336926506e-05 1.8730867083e+00 -3.2442813458e+00 1.8730867083e+00 3.2442813458e+00 
91000 6.8250116502e+00 -7.0425292561e-05 1.8730867083e+00 -3.2442813458e+00 1.8730867083e+00 3.2442813458e+00 
91100 6.8250116503e+00 -7.0514032746e-05 1.8730867083e+00 -3.2442813458e+00 1.8730867083e+00 3.2442813458e+00 
91200 6.8250116504e+00 -7.0603068472e-05 1.8730867083e+00 -3.2442813458e+00 1.8730867083e+00 3.2442813458e+00 
91300 6.8250116505e+00 -7.0692321668e-05 1.8730867083e+00 -3.2442813458e+00 1.8730867083e+00 3.2442813458e+00 
91400 6.8250116505e+00 -7.0781714907e-05 1.8730867083e+00 -3.2442813458e+00 1.8730867083e+00 3.2442813458e+00 
91500 6.8250116505e+00 -6.9139694242e-05 1.8730885978e+00 -3.2442846184e+00 1.8730885978e+00 3.2442846184e+00 
91600 6.8250116506e+00 -6.9220245045e-05 1.8730885978e+00 -3.2442846184e+00 1.8730885978e+00 3.2442846184e+00 
91700 6.8250116506e+00 -6.9300331372e-05 1.8730885978e+00 -3.2442846184e+00 1.8730885978e+00 3.2442846184e+00 
91800 6.8250116507e+00 -6.9379891090e-05 1.8730885978e+00 -3.2442846184e+00 1.8730885978e+00 3.2442846184e+00 
91900 6.8250116508e+00 -6.9458864324e-05 1.8730885978e+00 -3.2442846184e+00 1.8730885978e+00 3.2442846184e+00 
92000 6.8250116508e+00 -6.9537193485e-05 1.8730885978e+00 -3.2442846184e+00 1.8730885978e+00 3.2442846184e+00 
92100 6.8250116509e+00 -6.9614823280e-05 1.8730885978e+00 -3.2442846184e+00 1.8730885978e+00 3.2442846184e+00 
92200 6.8250116510e+00 -6.9691700721e-05 1.8730885978e+00 -3.2442846184e+00 1.8730885978e+00 3.2442846184e+00 
92300 6.8250116510e+00 -6.9767775144e-05 1.8730885978e+00 -3.2442846184e+00 1.8730885978e+00 3.2442846184e+00 
92400 6.8250116511e+00 -6.9842998206e-05 1.8730885978e+00 -3.2442846184e+00 1.8730885978e+00 3.2442846184e+00 
92500 6.8250116512e+00 -6.9917323890e-05 1.8730885978e+00 -3.2442846184e+00 1.8730885978e+00 3.2442846184e+00 
92600 6.8250116512e+00 -6.9990708519e-05 1.8730885978e+00 -3.2442846184e+00 1.8730885978e+00 3.2442846184e+00 
92700 6.8250116513e+00 -7.0063110739e-05 1.8730885978e+00 -3.2442846184e+00 1.8730885978e+00 3.2442846184e+00 
92800 6.8250116514e+00 -7.0134491524e-05 1.8730885978e+00 -3.2442846184e+00 1.8730885978e+00 3.2442846184e+00 
92900 6.8250116514e+00 -7.0204814171e-05 1.8730885978e+00 -3.2442846184e+00 1.8730885978e+00 3.2442846184e+00 
93000 6.8250116515e+00 -7.0274044285e-05 1.8730885978e+00 -3.2442846184e+00 1.8730885978e+00 3.2442846184e+00 
93100 6.8250116516e+00 -7.0342149773e-05 1.8730885978e+00 -3.2442846184e+00 1.8730885978e+00 3.2442846184e+00 
93200 6.8250116516e+00 -7.0409100824e-05 1.8730885978e+00 -3.2442846184e+00 1.8730885978e+00 3.2442846184e+00 
93300 6.8250116517e+00 -7.0474869894e-05 1.8730885978e+00 -3.2442846184e+00 1.8730885978e+00 3.2442846184e+00 
93400 6.8250116517e+00 -7.0539431686e-05 1.8730885978e+00 -3.2442846184e+00 1.8730885978e+00 3.2442846184e+00 
93500 6.8250116518e+00 -7.0602763124e-05 1.8730885978e+00 -3.2442846184e+00 1.8730885978e+00 3.2442846184e+00 
93600 6.8250116519e+00 -7.0664843337e-05 1.8730885978e+00 -3.2442846184e+00 1.8730885978e+00 3.2442846184e+00 
93700 6.8250116519e+00 -7.0725653617e-05 1.8730885978e+00 -3.2442846184e+00 1.8730885978e+00 3.2442846184e+00 
93800 6.8250116518e+00 -6.9055079069e-05 1.8730904857e+00 -3.2442878885e+00 1.8730904857e+00 3.2442878885e+00 
93900 6.8250116519e+00 -6.9104415514e-05 1.8730904857e+00 -3.2442878885e+00 1.8730904857e+00 3.2442878885e+00 
94000 6.8250116519e+00 -6.9152061547e-05 1.8730904857e+00 -3.2442878885e+00 1.8730904857e+00 3.2442878885e+00 
94100 6.8250116520e+00 -6.9198018287e-05 1.8730904857e+00 -3.2442878885e+00 1.8730904857e+00 3.2442878885e+00 
94200 6.8250116520e+00 -6.9242289882e-05 1.8730904857e+00 -3.2442878885e+00 1.8730904857e+00 3.2442878885e+00 
94300 6.8250116521e+00 -6.9284883370e-05 1.8730904857e+00 -3.2442878885e+00 1.8730904857e+00 3.2442878885e+00 
94400 6.8250116521e+00 -6.9325808557e-05 1.8730904857e+00 -3.2442878885e+00 1.8730904857e+00 3.2442878885e+00 
94500 6.8250116522e+00 -6.9365077892e-05 1.8730904857e+00 -3.2442878885e+00 1.8730904857e+00 3.2442878885e+00 
94600 6.8250116522e+00 -6.9402706334e-05 1.8730904857e+00 -3.2442878885e+00 1.8730904857e+00 3.2442878885e+00 
94700 6.8250116523e+00 -6.9438711239e-05 1.8730904857e+00 -3.2442878885e+00 1.8730904857e+00 3.2442878885e+00 
94800 6.8250116523e+00 -6.9473112224e-05 1.8730904857e+00 -3.2442878885e+00 1.8730904857e+00 3.2442878885e+00 
94900 6.8250116524e+00 -6.9505931049e-05 1.8730904857e+00 -3.2442878885e+00 1.8730904857e+00 3.2442878885e+00 
95000 6.8250116524e+00 -6.9527975502e-05 1.8730904857e+00 -3.2442878885e+00 1.8730904857e+00 3.2442878885e+00 
95000 6.8250116524e+00 -6.9527975502e-05 1.8730904857e+00 -3.2442878885e+00 1.8730904857e+00 3.2442878885e+00 
