# step Hamiltonian StressXX CellTensor1 CellTensor2 CellTensor3 CellTensor4 
0 5.9446294182e+00 1.3379557708e-01 2.0436807272e+00 -3.5397588540e+00 2.0436807272e+00 3.5397588540e+00 
100 5.9531316785e+00 1.4011463681e-01 2.0436807272e+00 -3.5397588540e+00 2.0436807272e+00 3.5397588540e+00 
200 5.9594760092e+00 1.4439589144e-01 2.0402536899e+00 -3.5338230513e+00 2.0402536899e+00 3.5338230513e+00 
300 5.9641426878e+00 1.4729793486e-01 2.0367160397e+00 -3.5276956614e+00 2.0367160397e+00 3.5276956614e+00 
400 5.9672403839e+00 1.4886931241e-01 2.0331010471e+00 -3.5214343104e+00 2.0331010471e+00 3.5214343104e+00 
500 5.9689286081e+00 1.4922725286e-01 2.0294410088e+00 -3.5150949382e+00 2.0294410088e+00 3.5150949382e+00 
600 5.9694036629e+00 1.4854533205e-01 2.0257655604e+00 -3.5087288749e+00 2.0257655604e+00 3.5087288749e+00 
700 5.9688802633e+00 1.4703174839e-01 2.0221002685e+00 -3.5023804030e+00 2.0221002685e+00 3.5023804030e+00 
800 5.9675726911e+00 1.4490388106e-01 2.0184657403e+00 -3.4960852155e+00 2.0184657403e+00 3.4960852155e+00 
900 5.9656790743e+00 1.4236529211e-01 2.0148773500e+00 -3.4898699412e+00 2.0148773500e+00 3.4898699412e+00 
1000 5.9633709716e+00 1.3958953414e-01 2.0113455316e+00 -3.4837526524e+00 2.0113455316e+00 3.4837526524e+00 
1100 5.9607886795e+00 1.3671226073e-01 2.0078764776e+00 -3.4777440745e+00 2.0078764776e+00 3.4777440745e+00 
1200 5.9580412937e+00 1.3383063677e-01 2.0044730421e+00 -3.4718491513e+00 2.0044730421e+00 3.4718491513e+00 
1300 5.9552099104e+00 1.3100770461e-01 2.0011356705e+00 -3.4660686542e+00 2.0011356705e+00 3.4660686542e+00 
1400 5.9523523589e+00 1.2827918658e-01 1.9978632305e+00 -3.4604006217e+00 1.9978632305e+00 3.4604006217e+00 
1500 5.9495082403e+00 1.2566074543e-01 1.9946536820e+00 -3.4548415208e+00 1.9946536820e+00 3.4548415208e+00 
1600 5.9467035257e+00 1.2315449095e-01 1.9915045735e+00 -3.4493871048e+00 1.9915045735e+00 3.4493871048e+00 
1700 5.9439543728e+00 1.2075419356e-01 1.9884133786e+00 -3.4440329982e+00 1.9884133786e+00 3.4440329982e+00 
1800 5.9412700951e+00 1.1844912209e-01 1.9853777067e+00 -3.4387750602e+00 1.9853777067e+00 3.4387750602e+00 
1900 5.9386553624e+00 1.1622666832e-01 1.9823954174e+00 -3.4336095836e+00 1.9823954174e+00 3.4336095836e+00 
2000 5.9361117743e+00 1.1407401404e-01 1.9794646706e+00 -3.4285333812e+00 1.9794646706e+00 3.4285333812e+00 
2100 5.9336389542e+00 1.1197909982e-01 1.9765839347e+00 -3.4235438003e+00 1.9765839347e+00 3.4235438003e+00 
2200 5.9312352928e+00 1.0993111648e-01 1.9737519701e+00 -3.4186386937e+00 1.9737519701e+00 3.4186386937e+00 
2300 5.9288984437e+00 1.0792068959e-01 1.9709677998e+00 -3.4138163694e+00 1.9709677998e+00 3.4138163694e+00 
2400 5.9266256497e+00 1.0593987923e-01 1.9682306757e+00 -3.4090755314e+00 1.9682306757e+00 3.4090755314e+00 
2500 5.9244139535e+00 1.0398207827e-01 1.9655400433e+00 -3.4044152194e+00 1.9655400433e+00 3.4044152194e+00 
2600 5.9222603324e+00 1.0204186290e-01 1.9628955100e+00 -3.3998347532e+00 1.9628955100e+00 3.3998347532e+00 
2700 5.9201617824e+00 1.0011482814e-01 1.9602968155e+00 -3.3953336824e+00 1.9602968155e+00 3.3953336824e+00 
2800 5.9181153701e+00 9.8197427436e-02 1.9577438077e+00 -3.3909117431e+00 1.9577438077e+00 3.3909117431e+00 
2900 5.9161182632e+00 9.6286825975e-02 1.9552364205e+00 -3.3865688211e+00 1.9552364205e+00 3.3865688211e+00 
3000 5.9141677473e+00 9.4380772029e-02 1.9527746570e+00 -3.3823049217e+00 1.9527746570e+00 3.3823049217e+00 
3100 5.9122612343e+00 9.2477487175e-02 1.9503585748e+00 -3.3781201446e+00 1.9503585748e+00 3.3781201446e+00 
3200 5.9103962654e+00 9.0575574492e-02 1.9479882741e+00 -3.3740146632e+00 1.9479882741e+00 3.3740146632e+00 
3300 5.9085705101e+00 8.8673942941e-02 1.9456638880e+00 -3.3699887084e+00 1.9456638880e+00 3.3699887084e+00 
3400 5.9067817637e+00 8.6771745764e-02 1.9433855753e+00 -3.3660425551e+00 1.9433855753e+00 3.3660425551e+00 
3500 5.9050279434e+00 8.4868330791e-02 1.9411535140e+00 -3.3621765116e+00 1.9411535140e+00 3.3621765116e+00 
3600 5.9033070831e+00 8.2963200622e-02 1.9389678965e+00 -3.3583909110e+00 1.9389678965e+00 3.3583909110e+00 
3700 5.9016173287e+00 8.1055980932e-02 1.9368289254e+00 -3.3546861043e+00 1.9368289254e+00 3.3546861043e+00 
3800 5.8999569324e+00 7.9146395365e-02 1.9347368105e+00 -3.3510624551e+00 1.9347368105e+00 3.3510624551e+00 
3900 5.8983242475e+00 7.7234245743e-02 1.9326917666e+00 -3.3475203351e+00 1.9326917666e+00 3.3475203351e+00 
4000 5.8967177231e+00 7.5319396523e-02 1.9306940108e+00 -3.3440601206e+00 1.9306940108e+00 3.3440601206e+00 
4100 5.8951358988e+00 7.3401762626e-02 1.9287437613e+00 -3.3406821893e+00 1.9287437613e+00 3.3406821893e+00 
4200 5.8935773999e+00 7.1481299947e-02 1.9268412359e+00 -3.3373869186e+00 1.9268412359e+00 3.3373869186e+00 
4300 5.8920409323e+00 6.9557997968e-02 1.9249866508e+00 -3.3341746830e+00 1.9249866508e+00 3.3341746830e+00 
4400 5.8905252780e+00 6.7631874020e-02 1.9231802199e+00 -3.3310458529e+00 1.9231802199e+00 3.3310458529e+00 
4500 5.8890292906e+00 6.5702968839e-02 1.9214221538e+00 -3.3280007931e+00 1.9214221538e+00 3.3280007931e+00 
4600 5.8875518914e+00 6.3771343117e-02 1.9197126592e+00 -3.3250398616e+00 1.9197126592e+00 3.3250398616e+00 
4700 5.8860920646e+00 6.1837074839e-02 1.9180519383e+00 -3.3221634086e+00 1.9180519383e+00 3.3221634086e+00 
4800 5.8846488543e+00 5.9900257207e-02 1.9164401882e+00 -3.3193717757e+00 1.9164401882e+00 3.3193717757e+00 
4900 5.8832213602e+00 5.7960997034e-02 1.9148776007e+00 -3.3166652947e+00 1.9148776007e+00 3.3166652947e+00 
5000 5.8818087347e+00 5.6019413479e-02 1.9133643616e+00 -3.3140442876e+00 1.9133643616e+00 3.3140442876e+00 
5100 5.8804101791e+00 5.4075637051e-02 1.9119006502e+00 -3.3115090651e+00 1.9119006502e+00 3.3115090651e+00 
5200 5.8790249407e+00 5.2129808814e-02 1.9104866393e+00 -3.3090599264e+00 1.9104866393e+00 3.3090599264e+00 
5300 5.8776523101e+00 5.0182079737e-02 1.9091224947e+00 -3.3066971587e+00 1.9091224947e+00 3.3066971587e+00 
5400 5.8762916180e+00 4.8232610159e-02 1.9078083748e+00 -3.3044210362e+00 1.9078083748e+00 3.3044210362e+00 
5500 5.8749422330e+00 4.6281569333e-02 1.9065444302e+00 -3.3022318200e+00 1.9065444302e+00 3.3022318200e+00 
5600 5.8736035585e+00 4.4329135029e-02 1.9053308038e+00 -3.3001297573e+00 1.9053308038e+00 3.3001297573e+00 
5700 5.8722750312e+00 4.2375493178e-02 1.9041676299e+00 -3.2981150810e+00 1.9041676299e+00 3.2981150810e+00 
5800 5.8709561182e+00 4.0420837552e-02 1.9030550344e+00 -3.2961880092e+00 1.9030550344e+00 3.2961880092e+00 
5900 5.8696463151e+00 3.8465369459e-02 1.9019931346e+00 -3.2943487448e+00 1.9019931346e+00 3.2943487448e+00 
6000 5.8683451443e+00 3.6509297454e-02 1.9009820384e+00 -3.2925974749e+00 1.9009820384e+00 3.2925974749e+00 
6100 5.8670521528e+00 3.4552837063e-02 1.9000218447e+00 -3.2909343705e+00 1.9000218447e+00 3.2909343705e+00 
6200 5.8657669108e+00 3.2596210515e-02 1.8991126425e+00 -3.2893595861e+00 1.8991126425e+00 3.2893595861e+00 
6300 5.8644890098e+00 3.0639646477e-02 1.8982545114e+00 -3.2878732594e+00 1.8982545114e+00 3.2878732594e+00 
6400 5.8632180611e+00 2.8683379796e-02 1.8974475207e+00 -3.2864755105e+00 1.8974475207e+00 3.2864755105e+00 
6500 5.8619536944e+00 2.6727651247e-02 1.8966917297e+00 -3.2851664421e+00 1.8966917297e+00 3.2851664421e+00 
6600 5.8606955568e+00 2.4772707284e-02 1.8959871873e+00 -3.2839461388e+00 1.8959871873e+00 3.2839461388e+00 
6700 5.8594433109e+00 2.2818799799e-02 1.8953339317e+00 -3.2828146670e+00 1.8953339317e+00 3.2828146670e+00 
6800 5.8581966341e+00 2.0866185882e-02 1.8947319905e+00 -3.2817720742e+00 1.8947319905e+00 3.2817720742e+00 
6900 5.8569552173e+00 1.8915127597e-02 1.8941813803e+00 -3.2808183894e+00 1.8941813803e+00 3.2808183894e+00 
7000 5.8557187639e+00 1.6965891753e-02 1.8936821066e+00 -3.2799536221e+00 1.8936821066e+00 3.2799536221e+00 
7100 5.8544869889e+00 1.5018749697e-02 1.8932341639e+00 -3.2791777625e+00 1.8932341639e+00 3.2791777625e+00 
7200 5.8532596179e+00 1.3073977103e-02 1.8928375351e+00 -3.2784907812e+00 1.8928375351e+00 3.2784907812e+00 
7300 5.8520363864e+00 1.1131853782e-02 1.8924921917e+00 -3.2778926289e+00 1.8924921917e+00 3.2778926289e+00 
7400 5.8508170388e+00 9.1926634956e-03 1.8921980936e+00 -3.2773832361e+00 1.8921980936e+00 3.2773832361e+00 
7500 5.8496013281e+00 7.2566937806e-03 1.8919551892e+00 -3.2769625133e+00 1.8919551892e+00 3.2769625133e+00 
7600 5.8483890147e+00 5.3242357879e-03 1.8917634148e+00 -3.2766303503e+00 1.8917634148e+00 3.2766303503e+00 
7700 5.8471798663e+00 3.3955841305e-03 1.8916226950e+00 -3.2763866165e+00 1.8916226950e+00 3.2763866165e+00 
7800 5.8459736568e+00 1.4710367438e-03 1.8915329425e+00 -3.2762311606e+00 1.8915329425e+00 3.2762311606e+00 
7900 5.8447701662e+00 -4.4910524301e-04 1.8914940579e+00 -3.2761638105e+00 1.8914940579e+00 3.2761638105e+00 
8000 5.8435691803e+00 -2.3645376240e-03 1.8915059296e+00 -3.2761843729e+00 1.8915059296e+00 3.2761843729e+00 
8100 5.8423704894e+00 -4.2749532220e-03 1.8915684340e+00 -3.2762926337e+00 1.8915684340e+00 3.2762926337e+00 
8200 5.8411738888e+00 -6.1800419837e-03 1.8916814354e+00 -3.2764883578e+00 1.8916814354e+00 3.2764883578e+00 
8300 5.8399791781e+00 -8.0794910641e-03 1.8918447856e+00 -3.2767712887e+00 1.8918447856e+00 3.2767712887e+00 
8400 5.8387861608e+00 -9.9729849011e-03 1.8920583243e+00 -3.2771411486e+00 1.8920583243e+00 3.2771411486e+00 
8500 5.8375946440e+00 -1.1860205281e-02 1.8923218790e+00 -3.2775976387e+00 1.8923218790e+00 3.2775976387e+00 
8600 5.8364044384e+00 -1.3740831397e-02 1.8926352647e+00 -3.2781404387e+00 1.8926352647e+00 3.2781404387e+00 
8700 5.8352153577e+00 -1.5614539895e-02 1.8929982842e+00 -3.2787692069e+00 1.8929982842e+00 3.2787692069e+00 
8800 5.8340272188e+00 -1.7481004922e-02 1.8934107280e+00 -3.2794835805e+00 1.8934107280e+00 3.2794835805e+00 
8900 5.8328398410e+00 -1.9339898157e-02 1.8938723741e+00 -3.2802831750e+00 1.8938723741e+00 3.2802831750e+00 
9000 5.8316530468e+00 -2.1190888850e-02 1.8943829884e+00 -3.2811675850e+00 1.8943829884e+00 3.2811675850e+00 
9100 5.8304666607e+00 -2.3033643847e-02 1.8949423244e+00 -3.2821363833e+00 1.8949423244e+00 3.2821363833e+00 
9200 5.8292805100e+00 -2.4867827621e-02 1.8955501233e+00 -3.2831891218e+00 1.8955501233e+00 3.2831891218e+00 
9300 5.8280944241e+00 -2.6693102293e-02 1.8962061139e+00 -3.2843253308e+00 1.8962061139e+00 3.2843253308e+00 
9400 5.8269082347e+00 -2.8509127664e-02 1.8969100129e+00 -3.2855445197e+00 1.8969100129e+00 3.2855445197e+00 
9500 5.8257217757e+00 -3.0315561241e-02 1.8976615248e+00 -3.2868461765e+00 1.8976615248e+00 3.2868461765e+00 
9600 5.8245348833e+00 -3.2112058268e-02 1.8984603418e+00 -3.2882297682e+00 1.8984603418e+00 3.2882297682e+00 
9700 5.8233473958e+00 -3.3898271761e-02 1.8993061441e+00 -3.2896947407e+00 1.8993061441e+00 3.2896947407e+00 
9800 5.8221591537e+00 -3.5673852554e-02 1.9001985996e+00 -3.2912405190e+00 1.9001985996e+00 3.2912405190e+00 
9900 5.8209699995e+00 -3.7438449339e-02 1.9011373644e+00 -3.2928665072e+00 1.9011373644e+00 3.2928665072e+00 
10000 5.8197797782e+00 -3.9191708732e-02 1.9021220822e+00 -3.2945720886e+00 1.9021220822e+00 3.2945720886e+00 
10100 5.8185883368e+00 -4.0933275330e-02 1.9031523853e+00 -3.2963566259e+00 1.9031523853e+00 3.2963566259e+00 
10200 5.8173955250e+00 -4.2662791794e-02 1.9042278937e+00 -3.2982194611e+00 1.9042278937e+00 3.2982194611e+00 
10300 5.8162011945e+00 -4.4379898939e-02 1.9053482158e+00 -3.3001599160e+00 1.9053482158e+00 3.3001599160e+00 
10400 5.8150051996e+00 -4.6084235827e-02 1.9065129483e+00 -3.3021772917e+00 1.9065129483e+00 3.3021772917e+00 
10500 5.8138073972e+00 -4.7775439895e-02 1.9077216760e+00 -3.3042708696e+00 1.9077216760e+00 3.3042708696e+00 
10600 5.8126076468e+00 -4.9453147077e-02 1.9089739725e+00 -3.3064399107e+00 1.9089739725e+00 3.3064399107e+00 
10700 5.8114058107e+00 -5.1116991956e-02 1.9102693997e+00 -3.3086836564e+00 1.9102693997e+00 3.3086836564e+00 
10800 5.8102017539e+00 -5.2766607924e-02 1.9116075082e+00 -3.3110013283e+00 1.9116075082e+00 3.3110013283e+00 
10900 5.8089953445e+00 -5.4401627371e-02 1.9129878374e+00 -3.3133921286e+00 1.9129878374e+00 3.3133921286e+00 
11000 5.8077864535e+00 -5.6021681874e-02 1.9144099155e+00 -3.3158552401e+00 1.9144099155e+00 3.3158552401e+00 
11100 5.8065749555e+00 -5.7626402423e-02 1.9158732597e+00 -3.3183898266e+00 1.9158732597e+00 3.3183898266e+00 
11200 5.8053607279e+00 -5.9215419657e-02 1.9173773763e+00 -3.3209950330e+00 1.9173773763e+00 3.3209950330e+00 
11300 5.8041436519e+00 -6.0788364115e-02 1.9189217609e+00 -3.3236699856e+00 1.9189217609e+00 3.3236699856e+00 
11400 5.8029236122e+00 -6.2344866518e-02 1.9205058984e+00 -3.3264137923e+00 1.9205058984e+00 3.3264137923e+00 
11500 5.8017004972e+00 -6.3884558056e-02 1.9221292634e+00 -3.3292255429e+00 1.9221292634e+00 3.3292255429e+00 
11600 5.8004741991e+00 -6.5407070709e-02 1.9237913201e+00 -3.3321043095e+00 1.9237913201e+00 3.3321043095e+00 
11700 5.7992446141e+00 -6.6912037571e-02 1.9254915225e+00 -3.3350491466e+00 1.9254915225e+00 3.3350491466e+00 
11800 5.7980116426e+00 -6.8399093205e-02 1.9272293150e+00 -3.3380590914e+00 1.9272293150e+00 3.3380590914e+00 
11900 5.7967751891e+00 -6.9867874008e-02 1.9290041318e+00 -3.3411331643e+00 1.9290041318e+00 3.3411331643e+00 
12000 5.7955351625e+00 -7.1318018595e-02 1.9308153979e+00 -3.3442703692e+00 1.9308153979e+00 3.3442703692e+00 
12100 5.7942914762e+00 -7.2749168200e-02 1.9326625288e+00 -3.3474696938e+00 1.9326625288e+00 3.3474696938e+00 
12200 5.7930440482e+00 -7.4160967090e-02 1.9345449311e+00 -3.3507301101e+00 1.9345449311e+00 3.3507301101e+00 
12300 5.7917928012e+00 -7.5553062992e-02 1.9364620021e+00 -3.3540505746e+00 1.9364620021e+00 3.3540505746e+00 
12400 5.7905376627e+00 -7.6925107534e-02 1.9384131309e+00 -3.3574300288e+00 1.9384131309e+00 3.3574300288e+00 
12500 5.7892785653e+00 -7.8276756701e-02 1.9403976980e+00 -3.3608673998e+00 1.9403976980e+00 3.3608673998e+00 
12600 5.7880154464e+00 -7.9607671288e-02 1.9424150758e+00 -3.3643616006e+00 1.9424150758e+00 3.3643616006e+00 
12700 5.7867482486e+00 -8.0917517376e-02 1.9444646288e+00 -3.3679115306e+00 1.9444646288e+00 3.3679115306e+00 
12800 5.7854769199e+00 -8.2205966806e-02 1.9465457140e+00 -3.3715160760e+00 1.9465457140e+00 3.3715160760e+00 
12900 5.7842014134e+00 -8.3472697657e-02 1.9486576812e+00 -3.3751741104e+00 1.9486576812e+00 3.3751741104e+00 
13000 5.7829216877e+00 -8.4717394730e-02 1.9507998731e+00 -3.3788844955e+00 1.9507998731e+00 3.3788844955e+00 
13100 5.7816377069e+00 -8.5939750032e-02 1.9529716256e+00 -3.3826460814e+00 1.9529716256e+00 3.3826460814e+00 
13200 5.7803494406e+00 -8.7139463258e-02 1.9551722687e+00 -3.3864577069e+00 1.9551722687e+00 3.3864577069e+00 
13300 5.7790568638e+00 -8.8316242269e-02 1.9574011259e+00 -3.3903182009e+00 1.9574011259e+00 3.3903182009e+00 
13400 5.7777599573e+00 -8.9469803570e-02 1.9596575154e+00 -3.3942263822e+00 1.9596575154e+00 3.3942263822e+00 
13500 5.7764587078e+00 -9.0599872776e-02 1.9619407500e+00 -3.3981810604e+00 1.9619407500e+00 3.3981810604e+00 
13600 5.7751531072e+00 -9.1706185069e-02 1.9642501373e+00 -3.4021810366e+00 1.9642501373e+00 3.4021810366e+00 
13700 5.7738431537e+00 -9.2788485648e-02 1.9665849807e+00 -3.4062251039e+00 1.9665849807e+00 3.4062251039e+00 
13800 5.7725288509e+00 -9.3846530167e-02 1.9689445791e+00 -3.4103120482e+00 1.9689445791e+00 3.4103120482e+00 
13900 5.7712102083e+00 -9.4880085151e-02 1.9713282276e+00 -3.4144406487e+00 1.9713282276e+00 3.4144406487e+00 
14000 5.7698872413e+00 -9.5888928404e-02 1.9737352181e+00 -3.4186096785e+00 1.9737352181e+00 3.4186096785e+00 
14100 5.7685599711e+00 -9.6872849395e-02 1.9761648392e+00 -3.4228179056e+00 1.9761648392e+00 3.4228179056e+00 
14200 5.7672284245e+00 -9.7831649628e-02 1.9786163768e+00 -3.4270640933e+00 1.9786163768e+00 3.4270640933e+00 
14300 5.7658926345e+00 -9.8765142985e-02 1.9810891148e+00 -3.4313470012e+00 1.9810891148e+00 3.4313470012e+00 
14400 5.7645526395e+00 -9.9673156051e-02 1.9835823350e+00 -3.4356653852e+00 1.9835823350e+00 3.4356653852e+00 
14500 5.7632084839e+00 -1.0055552842e-01 1.9860953179e+00 -3.4400179994e+00 1.9860953179e+00 3.4400179994e+00 
14600 5.7618602179e+00 -1.0141211295e-01 1.9886273430e+00 -3.4444035954e+00 1.9886273430e+00 3.4444035954e+00 
14700 5.7605078974e+00 -1.0224277605e-01 1.9911776890e+00 -3.4488209243e+00 1.9911776890e+00 3.4488209243e+00 
14800 5.7591515841e+00 -1.0304739788e-01 1.9937456346e+00 -3.4532687366e+00 1.9937456346e+00 3.4532687366e+00 
14900 5.7577913451e+00 -1.0382587252e-01 1.9963304586e+00 -3.4577457830e+00 1.9963304586e+00 3.4577457830e+00 
15000 5.7564272535e+00 -1.0457810821e-01 1.9989314404e+00 -3.4622508156e+00 1.9989314404e+00 3.4622508156e+00 
15100 5.7550593879e+00 -1.0530402740e-01 2.0015478605e+00 -3.4667825882e+00 2.0015478605e+00 3.4667825882e+00 
15200 5.7536878325e+00 -1.0600356693e-01 2.0041790008e+00 -3.4713398568e+00 2.0041790008e+00 3.4713398568e+00 
15300 5.7523126771e+00 -1.0667667810e-01 2.0068241449e+00 -3.4759213809e+00 2.0068241449e+00 3.4759213809e+00 
15400 5.7509340168e+00 -1.0732332668e-01 2.0094825790e+00 -3.4805259238e+00 2.0094825790e+00 3.4805259238e+00 
15500 5.7495519525e+00 -1.0794349296e-01 2.0121535916e+00 -3.4851522533e+00 2.0121535916e+00 3.4851522533e+00 
15600 5.7481665904e+00 -1.0853717177e-01 2.0148364744e+00 -3.4897991426e+00 2.0148364744e+00 3.4897991426e+00 
15700 5.7467780420e+00 -1.0910437242e-01 2.0175305223e+00 -3.4944653705e+00 2.0175305223e+00 3.4944653705e+00 
15800 5.7453864242e+00 -1.0964511861e-01 2.0202350343e+00 -3.4991497227e+00 2.0202350343e+00 3.4991497227e+00 
15900 5.7439918593e+00 -1.1015944839e-01 2.0229493134e+00 -3.5038509919e+00 2.0229493134e+00 3.5038509919e+00 
16000 5.7425944747e+00 -1.1064741405e-01 2.0256726670e+00 -3.5085679787e+00 2.0256726670e+00 3.5085679787e+00 
16100 5.7411944032e+00 -1.1110908192e-01 2.0284044076e+00 -3.5132994922e+00 2.0284044076e+00 3.5132994922e+00 
16200 5.7397917827e+00 -1.1154453226e-01 2.0311438527e+00 -3.5180443504e+00 2.0311438527e+00 3.5180443504e+00 
16300 5.7383867562e+00 -1.1195385904e-01 2.0338903256e+00 -3.5228013810e+00 2.0338903256e+00 3.5228013810e+00 
16400 5.7369794718e+00 -1.1233716975e-01 2.0366431553e+00 -3.5275694219e+00 2.0366431553e+00 3.5275694219e+00 
16500 5.7355700827e+00 -1.1269458517e-01 2.0394016770e+00 -3.5323473217e+00 2.0394016770e+00 3.5323473217e+00 
16600 5.7341587471e+00 -1.1302623909e-01 2.0421652326e+00 -3.5371339403e+00 2.0421652326e+00 3.5371339403e+00 
16700 5.7327456281e+00 -1.1333227806e-01 2.0449331705e+00 -3.5419281494e+00 2.0449331705e+00 3.5419281494e+00 
16800 5.7313308937e+00 -1.1361286111e-01 2.0477048464e+00 -3.5467288329e+00 2.0477048464e+00 3.5467288329e+00 
16900 5.7299147170e+00 -1.1386815943e-01 2.0504796232e+00 -3.5515348873e+00 2.0504796232e+00 3.5515348873e+00 
17000 5.7284972756e+00 -1.1409835607e-01 2.0532568716e+00 -3.5563452226e+00 2.0532568716e+00 3.5563452226e+00 
17100 5.7270787520e+00 -1.1430364557e-01 2.0560359699e+00 -3.5611587621e+00 2.0560359699e+00 3.5611587621e+00 
17200 5.7256593334e+00 -1.1448423369e-01 2.0588163047e+00 -3.5659744432e+00 2.0588163047e+00 3.5659744432e+00 
17300 5.7242392118e+00 -1.1464033697e-01 2.0615972708e+00 -3.5707912178e+00 2.0615972708e+00 3.5707912178e+00 
17400 5.7228185836e+00 -1.1477218244e-01 2.0643782715e+00 -3.5756080523e+00 2.0643782715e+00 3.5756080523e+00 
17500 5.7213976498e+00 -1.1488000722e-01 2.0671587190e+00 -3.5804239286e+00 2.0671587190e+00 3.5804239286e+00 
17600 5.7199766159e+00 -1.1496405815e-01 2.0699380341e+00 -3.5852378436e+00 2.0699380341e+00 3.5852378436e+00 
17700 5.7185556917e+00 -1.1502459141e-01 2.0727156469e+00 -3.5900488101e+00 2.0727156469e+00 3.5900488101e+00 
17800 5.7171350914e+00 -1.1506187214e-01 2.0754909968e+00 -3.5948558571e+00 2.0754909968e+00 3.5948558571e+00 
17900 5.7157150334e+00 -1.1507617406e-01 2.0782635323e+00 -3.5996580294e+00 2.0782635323e+00 3.5996580294e+00 
18000 5.7142957402e+00 -1.1506777908e-01 2.0810327117e+00 -3.6044543888e+00 2.0810327117e+00 3.6044543888e+00 
18100 5.7128774384e+00 -1.1503697689e-01 2.0837980027e+00 -3.6092440134e+00 2.0837980027e+00 3.6092440134e+00 
18200 5.7114603585e+00 -1.1498406465e-01 2.0865588831e+00 -3.6140259985e+00 2.0865588831e+00 3.6140259985e+00 
18300 5.7100447348e+00 -1.1490934650e-01 2.0893148403e+00 -3.6187994563e+00 2.0893148403e+00 3.6187994563e+00 
18400 5.7086308052e+00 -1.1481313329e-01 2.0920653716e+00 -3.6235635164e+00 2.0920653716e+00 3.6235635164e+00 
18500 5.7072188114e+00 -1.1469574211e-01 2.0948099847e+00 -3.6283173257e+00 2.0948099847e+00 3.6283173257e+00 
18600 5.7058089983e+00 -1.1455749599e-01 2.0975481971e+00 -3.6330600486e+00 2.0975481971e+00 3.6330600486e+00 
18700 5.7044016140e+00 -1.1439872349e-01 2.1002795364e+00 -3.6377908672e+00 2.1002795364e+00 3.6377908672e+00 
18800 5.7029969100e+00 -1.1421975837e-01 2.1030035409e+00 -3.6425089813e+00 2.1030035409e+00 3.6425089813e+00 
18900 5.7015951404e+00 -1.1402093922e-01 2.1057197586e+00 -3.6472136083e+00 2.1057197586e+00 3.6472136083e+00 
19000 5.7001965622e+00 -1.1380260910e-01 2.1084277481e+00 -3.6519039838e+00 2.1084277481e+00 3.6519039838e+00 
19100 5.6988014350e+00 -1.1356511523e-01 2.1111270783e+00 -3.6565793609e+00 2.1111270783e+00 3.6565793609e+00 
19200 5.6974100205e+00 -1.1330880865e-01 2.1138173285e+00 -3.6612390109e+00 2.1138173285e+00 3.6612390109e+00 
19300 5.6960225828e+00 -1.1303404389e-01 2.1164980881e+00 -3.6658822228e+00 2.1164980881e+00 3.6658822228e+00 
19400 5.6946393876e+00 -1.1274117865e-01 2.1191689571e+00 -3.6705083036e+00 2.1191689571e+00 3.6705083036e+00 
19500 5.6932607026e+00 -1.1243057349e-01 2.1218295457e+00 -3.6751165782e+00 2.1218295457e+00 3.6751165782e+00 
19600 5.6918867965e+00 -1.1210259156e-01 2.1244794744e+00 -3.6797063894e+00 2.1244794744e+00 3.6797063894e+00 
19700 5.6905179394e+00 -1.1175759827e-01 2.1271183742e+00 -3.6842770978e+00 2.1271183742e+00 3.6842770978e+00 
19800 5.6891544022e+00 -1.1139596103e-01 2.1297458860e+00 -3.6888280817e+00 2.1297458860e+00 3.6888280817e+00 
19900 5.6877964565e+00 -1.1101804898e-01 2.1323616612e+00 -3.6933587374e+00 2.1323616612e+00 3.6933587374e+00 
20000 5.6864443739e+00 -1.1062423271e-01 2.1349653614e+00 -3.6978684784e+00 2.1349653614e+00 3.6978684784e+00 
20100 5.6850984262e+00 -1.1021488400e-01 2.1375566583e+00 -3.7023567362e+00 2.1375566583e+00 3.7023567362e+00 
20200 5.6837588850e+00 -1.0979037559e-01 2.1401352335e+00 -3.7068229594e+00 2.1401352335e+00 3.7068229594e+00 
20300 5.6824260210e+00 -1.0935108092e-01 2.1427007788e+00 -3.7112666143e+00 2.1427007788e+00 3.7112666143e+00 
20400 5.6811001042e+00 -1.0889737390e-01 2.1452529961e+00 -3.7156871844e+00 2.1452529961e+00 3.7156871844e+00 
20500 5.6797814031e+00 -1.0842962867e-01 2.1477915970e+00 -3.7200841700e+00 2.1477915970e+00 3.7200841700e+00 
20600 5.6784701847e+00 -1.0794821941e-01 2.1503163029e+00 -3.7244570889e+00 2.1503163029e+00 3.7244570889e+00 
20700 5.6771667141e+00 -1.0745352010e-01 2.1528268451e+00 -3.7288054755e+00 2.1528268451e+00 3.7288054755e+00 
20800 5.6758712541e+00 -1.0694590432e-01 2.1553229645e+00 -3.7331288812e+00 2.1553229645e+00 3.7331288812e+00 
20900 5.6745840647e+00 -1.0642574506e-01 2.1578044115e+00 -3.7374268736e+00 2.1578044115e+00 3.7374268736e+00 
21000 5.6733054032e+00 -1.0589341450e-01 2.1602709463e+00 -3.7416990372e+00 2.1602709463e+00 3.7416990372e+00 
21100 5.6720355233e+00 -1.0534928383e-01 2.1627223383e+00 -3.7459449726e+00 2.1627223383e+00 3.7459449726e+00 
21200 5.6707746753e+00 -1.0479372309e-01 2.1651583661e+00 -3.7501642965e+00 2.1651583661e+00 3.7501642965e+00 
21300 5.6695231053e+00 -1.0422710095e-01 2.1675788177e+00 -3.7543566417e+00 2.1675788177e+00 3.7543566417e+00 
21400 5.6682810550e+00 -1.0364978457e-01 2.1699834903e+00 -3.7585216568e+00 2.1699834903e+00 3.7585216568e+00 
21500 5.6670487617e+00 -1.0306213941e-01 2.1723721900e+00 -3.7626590060e+00 2.1723721900e+00 3.7626590060e+00 
21600 5.6658264574e+00 -1.0246452906e-01 2.1747447317e+00 -3.7667683689e+00 2.1747447317e+00 3.7667683689e+00 
21700 5.6646143690e+00 -1.0185731511e-01 2.1771009395e+00 -3.7708494404e+00 2.1771009395e+00 3.7708494404e+00 
21800 5.6634127174e+00 -1.0124085696e-01 2.1794406458e+00 -3.7749019306e+00 2.1794406458e+00 3.7749019306e+00 
21900 5.6622217180e+00 -1.0061551166e-01 2.1817636919e+00 -3.7789255644e+00 2.1817636919e+00 3.7789255644e+00 
22000 5.6610415795e+00 -9.9981633806e-02 2.1840699273e+00 -3.7829200814e+00 2.1840699273e+00 3.7829200814e+00 
22100 5.6598725043e+00 -9.9339575343e-02 2.1863592102e+00 -3.7868852357e+00 2.1863592102e+00 3.7868852357e+00 
22200 5.6587146880e+00 -9.8689685450e-02 2.1886314069e+00 -3.7908207958e+00 2.1886314069e+00 3.7908207958e+00 
22300 5.6575683188e+00 -9.8032310387e-02 2.1908863917e+00 -3.7947265440e+00 2.1908863917e+00 3.7947265440e+00 
22400 5.6564335780e+00 -9.7367793363e-02 2.1931240472e+00 -3.7986022770e+00 2.1931240472e+00 3.7986022770e+00 
22500 5.6553106388e+00 -9.6696474402e-02 2.1953442636e+00 -3.8024478047e+00 2.1953442636e+00 3.8024478047e+00 
22600 5.6541996672e+00 -9.6018690206e-02 2.1975469392e+00 -3.8062629508e+00 2.1975469392e+00 3.8062629508e+00 
22700 5.6531008205e+00 -9.5334774032e-02 2.1997319798e+00 -3.8100475520e+00 2.1997319798e+00 3.8100475520e+00 
22800 5.6520142484e+00 -9.4645055566e-02 2.2018992986e+00 -3.8138014584e+00 2.2018992986e+00 3.8138014584e+00 
22900 5.6509400919e+00 -9.3949860798e-02 2.2040488165e+00 -3.8175245325e+00 2.2040488165e+00 3.8175245325e+00 
23000 5.6498784834e+00 -9.3249511904e-02 2.2061804614e+00 -3.8212166498e+00 2.2061804614e+00 3.8212166498e+00 
23100 5.6488295468e+00 -9.2544327127e-02 2.2082941685e+00 -3.8248776978e+00 2.2082941685e+00 3.8248776978e+00 
23200 5.6477933971e+00 -9.1834620670e-02 2.2103898799e+00 -3.8285075766e+00 2.2103898799e+00 3.8285075766e+00 
23300 5.6467701405e+00 -9.1120702579e-02 2.2124675449e+00 -3.8321061978e+00 2.2124675449e+00 3.8321061978e+00 
23400 5.6457598741e+00 -9.0402878639e-02 2.2145271191e+00 -3.8356734851e+00 2.2145271191e+00 3.8356734851e+00 
23500 5.6447626859e+00 -8.9681450273e-02 2.2165685652e+00 -3.8392093734e+00 2.2165685652e+00 3.8392093734e+00 
23600 5.6437786549e+00 -8.8956714436e-02 2.2185918520e+00 -3.8427138090e+00 2.2185918520e+00 3.8427138090e+00 
23700 5.6428078510e+00 -8.8228963523e-02 2.2205969549e+00 -3.8461867491e+00 2.2205969549e+00 3.8461867491e+00 
23800 5.6418503349e+00 -8.7498485278e-02 2.2225838555e+00 -3.8496281618e+00 2.2225838555e+00 3.8496281618e+00 
23900 5.6409061580e+00 -8.6765562700e-02 2.2245525414e+00 -3.8530380258e+00 2.2245525414e+00 3.8530380258e+00 
24000 5.6399753630e+00 -8.6030473961e-02 2.2265030062e+00 -3.8564163300e+00 2.2265030062e+00 3.8564163300e+00 
24100 5.6390579830e+00 -8.5293492324e-02 2.2284352494e+00 -3.8597630733e+00 2.2284352494e+00 3.8597630733e+00 
24200 5.6381540427e+00 -8.4554886070e-02 2.2303492761e+00 -3.8630782647e+00 2.2303492761e+00 3.8630782647e+00 
24300 5.6372635574e+00 -8.3814918420e-02 2.2322450969e+00 -3.8663619228e+00 2.2322450969e+00 3.8663619228e+00 
24400 5.6363865337e+00 -8.3073847472e-02 2.2341227280e+00 -3.8696140753e+00 2.2341227280e+00 3.8696140753e+00 
24500 5.6355229698e+00 -8.2331926135e-02 2.2359821908e+00 -3.8728347592e+00 2.2359821908e+00 3.8728347592e+00 
24600 5.6346728548e+00 -8.1589402072e-02 2.2378235117e+00 -3.8760240206e+00 2.2378235117e+00 3.8760240206e+00 
24700 5.6338361699e+00 -8.0846517645e-02 2.2396467223e+00 -3.8791819140e+00 2.2396467223e+00 3.8791819140e+00 
24800 5.6330128876e+00 -8.0103509866e-02 2.2414518589e+00 -3.8823085024e+00 2.2414518589e+00 3.8823085024e+00 
24900 5.6322029726e+00 -7.9360610356e-02 2.2432389627e+00 -3.8854038570e+00 2.2432389627e+00 3.8854038570e+00 
25000 5.6314063815e+00 -7.8618045300e-02 2.2450080795e+00 -3.8884680571e+00 2.2450080795e+00 3.8884680571e+00 
25100 5.6306230632e+00 -7.7876035420e-02 2.2467592593e+00 -3.8915011895e+00 2.2467592593e+00 3.8915011895e+00 
25200 5.6298529593e+00 -7.7134795942e-02 2.2484925567e+00 -3.8945033487e+00 2.2484925567e+00 3.8945033487e+00 
25300 5.6290960038e+00 -7.6394536572e-02 2.2502080304e+00 -3.8974746362e+00 2.2502080304e+00 3.8974746362e+00 
25400 5.6283521238e+00 -7.5655461482e-02 2.2519057431e+00 -3.9004151608e+00 2.2519057431e+00 3.9004151608e+00 
25500 5.6276212397e+00 -7.4917769291e-02 2.2535857614e+00 -3.9033250380e+00 2.2535857614e+00 3.9033250380e+00 
25600 5.6269032650e+00 -7.4181653063e-02 2.2552481559e+00 -3.9062043898e+00 2.2552481559e+00 3.9062043898e+00 
25700 5.6261981072e+00 -7.3447300299e-02 2.2568930007e+00 -3.9090533445e+00 2.2568930007e+00 3.9090533445e+00 
25800 5.6255056677e+00 -7.2714892942e-02 2.2585203734e+00 -3.9118720366e+00 2.2585203734e+00 3.9118720366e+00 
25900 5.6248258418e+00 -7.1984607388e-02 2.2601303550e+00 -3.9146606065e+00 2.2601303550e+00 3.9146606065e+00 
26000 5.6241585196e+00 -7.1256614489e-02 2.2617230298e+00 -3.9174192003e+00 2.2617230298e+00 3.9174192003e+00 
26100 5.6235035857e+00 -7.0531079584e-02 2.2632984853e+00 -3.9201479693e+00 2.2632984853e+00 3.9201479693e+00 
26200 5.6228609200e+00 -6.9808162509e-02 2.2648568120e+00 -3.9228470702e+00 2.2648568120e+00 3.9228470702e+00 
26300 5.6222303975e+00 -6.9088017633e-02 2.2663981031e+00 -3.9255166647e+00 2.2663981031e+00 3.9255166647e+00 
26400 5.6216118886e+00 -6.8370793887e-02 2.2679224548e+00 -3.9281569193e+00 2.2679224548e+00 3.9281569193e+00 
26500 5.6210052600e+00 -6.7656634803e-02 2.2694299658e+00 -3.9307680050e+00 2.2694299658e+00 3.9307680050e+00 
26600 5.6204103741e+00 -6.6945678552e-02 2.2709207375e+00 -3.9333500972e+00 2.2709207375e+00 3.9333500972e+00 
26700 5.6198270899e+00 -6.6238057993e-02 2.2723948734e+00 -3.9359033755e+00 2.2723948734e+00 3.9359033755e+00 
26800 5.6192552630e+00 -6.5533900723e-02 2.2738524795e+00 -3.9384280234e+00 2.2738524795e+00 3.9384280234e+00 
26900 5.6186947461e+00 -6.4833329131e-02 2.2752936640e+00 -3.9409242282e+00 2.2752936640e+00 3.9409242282e+00 
27000 5.6181453890e+00 -6.4136460454e-02 2.2767185370e+00 -3.9433921806e+00 2.2767185370e+00 3.9433921806e+00 
27100 5.6176070389e+00 -6.3443406843e-02 2.2781272107e+00 -3.9458320750e+00 2.2781272107e+00 3.9458320750e+00 
27200 5.6170795409e+00 -6.2754275426e-02 2.2795197990e+00 -3.9482441087e+00 2.2795197990e+00 3.9482441087e+00 
27300 5.6165627379e+00 -6.2069168379e-02 2.2808964176e+00 -3.9506284821e+00 2.2808964176e+00 3.9506284821e+00 
27400 5.6160564714e+00 -6.1388182997e-02 2.2822571838e+00 -3.9529853983e+00 2.2822571838e+00 3.9529853983e+00 
27500 5.6155605810e+00 -6.0711411770e-02 2.2836022165e+00 -3.9553150632e+00 2.2836022165e+00 3.9553150632e+00 
27600 5.6150749052e+00 -6.0038942462e-02 2.2849316358e+00 -3.9576176850e+00 2.2849316358e+00 3.9576176850e+00 
27700 5.6145992816e+00 -5.9370858190e-02 2.2862455633e+00 -3.9598934743e+00 2.2862455633e+00 3.9598934743e+00 
27800 5.6141335467e+00 -5.8707237512e-02 2.2875441219e+00 -3.9621426437e+00 2.2875441219e+00 3.9621426437e+00 
27900 5.6136775367e+00 -5.8048154510e-02 2.2888274353e+00 -3.9643654078e+00 2.2888274353e+00 3.9643654078e+00 
28000 5.6132310872e+00 -5.7393678876e-02 2.2900956286e+00 -3.9665619830e+00 2.2900956286e+00 3.9665619830e+00 
28100 5.6127940336e+00 -5.6743876008e-02 2.2913488276e+00 -3.9687325873e+00 2.2913488276e+00 3.9687325873e+00 
28200 5.6123662116e+00 -5.6098807096e-02 2.2925871590e+00 -3.9708774402e+00 2.2925871590e+00 3.9708774402e+00 
28300 5.6119474568e+00 -5.5458529221e-02 2.2938107503e+00 -3.9729967625e+00 2.2938107503e+00 3.9729967625e+00 
28400 5.6115376053e+00 -5.4823095444e-02 2.2950197297e+00 -3.9750907762e+00 2.2950197297e+00 3.9750907762e+00 
28500 5.6111364938e+00 -5.4192554905e-02 2.2962142259e+00 -3.9771597043e+00 2.2962142259e+00 3.9771597043e+00 
28600 5.6107439596e+00 -5.3566952921e-02 2.2973943683e+00 -3.9792037709e+00 2.2973943683e+00 3.9792037709e+00 
28700 5.6103598409e+00 -5.2946331081e-02 2.2985602866e+00 -3.9812232006e+00 2.2985602866e+00 3.9812232006e+00 
28800 5.6099839770e+00 -5.2330727347e-02 2.2997121108e+00 -3.9832182187e+00 2.2997121108e+00 3.9832182187e+00 
28900 5.6096162082e+00 -5.1720176151e-02 2.3008499715e+00 -3.9851890513e+00 2.3008499715e+00 3.9851890513e+00 
29000 5.6092563762e+00 -5.1114708495e-02 2.3019739993e+00 -3.9871359244e+00 2.3019739993e+00 3.9871359244e+00 
29100 5.6089043241e+00 -5.0514352049e-02 2.3030843249e+00 -3.9890590649e+00 2.3030843249e+00 3.9890590649e+00 
29200 5.6085598965e+00 -4.9919131253e-02 2.3041810794e+00 -3.9909586993e+00 2.3041810794e+00 3.9909586993e+00 
29300 5.6082229395e+00 -4.9329067414e-02 2.3052643935e+00 -3.9928350545e+00 2.3052643935e+00 3.9928350545e+00 
29400 5.6078933011e+00 -4.8744178804e-02 2.3063343984e+00 -3.9946883572e+00 2.3063343984e+00 3.9946883572e+00 
29500 5.6075708309e+00 -4.8164480761e-02 2.3073912247e+00 -3.9965188342e+00 2.3073912247e+00 3.9965188342e+00 
29600 5.6072553806e+00 -4.7589985786e-02 2.3084350033e+00 -3.9983267117e+00 2.3084350033e+00 3.9983267117e+00 
29700 5.6069468038e+00 -4.7020703638e-02 2.3094658646e+00 -4.0001122158e+00 2.3094658646e+00 4.0001122158e+00 
29800 5.6066449560e+00 -4.6456641431e-02 2.3104839389e+00 -4.0018755722e+00 2.3104839389e+00 4.0018755722e+00 
29900 5.6063496949e+00 -4.5897803731e-02 2.3114893562e+00 -4.0036170060e+00 2.3114893562e+00 4.0036170060e+00 
30000 5.6060608803e+00 -4.5344192649e-02 2.3124822460e+00 -4.0053367417e+00 2.3124822460e+00 4.0053367417e+00 
30100 5.6057783743e+00 -4.4795807935e-02 2.3134627378e+00 -4.0070350033e+00 2.3134627378e+00 4.0070350033e+00 
30200 5.6055020411e+00 -4.4252647065e-02 2.3144309602e+00 -4.0087120137e+00 2.3144309602e+00 4.0087120137e+00 
30300 5.6052317473e+00 -4.3714705341e-02 2.3153870417e+00 -4.0103679955e+00 2.3153870417e+00 4.0103679955e+00 
30400 5.6049673617e+00 -4.3181975968e-02 2.3163311101e+00 -4.0120031699e+00 2.3163311101e+00 4.0120031699e+00 
30500 5.6047087553e+00 -4.2654450154e-02 2.3172632927e+00 -4.0136177575e+00 2.3172632927e+00 4.0136177575e+00 
30600 5.6044558018e+00 -4.2132117184e-02 2.3181837162e+00 -4.0152119778e+00 2.3181837162e+00 4.0152119778e+00 
30700 5.6042083769e+00 -4.1614964514e-02 2.3190925068e+00 -4.0167860492e+00 2.3190925068e+00 4.0167860492e+00 
30800 5.6039663588e+00 -4.1102977849e-02 2.3199897898e+00 -4.0183401890e+00 2.3199897898e+00 4.0183401890e+00 
30900 5.6037296282e+00 -4.0596141224e-02 2.3208756901e+00 -4.0198746133e+00 2.3208756901e+00 4.0198746133e+00 
31000 5.6034980680e+00 -4.0094437084e-02 2.3217503317e+00 -4.0213895371e+00 2.3217503317e+00 4.0213895371e+00 
31100 5.6032715635e+00 -3.9597846362e-02 2.3226138380e+00 -4.0228851739e+00 2.3226138380e+00 4.0228851739e+00 
31200 5.6030500024e+00 -3.9106348552e-02 2.3234663316e+00 -4.0243617361e+00 2.3234663316e+00 4.0243617361e+00 
31300 5.6028332747e+00 -3.8619921787e-02 2.3243079343e+00 -4.0258194346e+00 2.3243079343e+00 4.0258194346e+00 
31400 5.6026212727e+00 -3.8138542904e-02 2.3251387670e+00 -4.0272584791e+00 2.3251387670e+00 4.0272584791e+00 
31500 5.6024138912e+00 -3.7662187523e-02 2.3259589500e+00 -4.0286790777e+00 2.3259589500e+00 4.0286790777e+00 
31600 5.6022110271e+00 -3.7190830106e-02 2.3267686025e+00 -4.0300814370e+00 2.3267686025e+00 4.0300814370e+00 
31700 5.6020125797e+00 -3.6724444028e-02 2.3275678431e+00 -4.0314657623e+00 2.3275678431e+00 4.0314657623e+00 
31800 5.6018184504e+00 -3.6263001639e-02 2.3283567893e+00 -4.0328322573e+00 2.3283567893e+00 4.0328322573e+00 
31900 5.6016285431e+00 -3.5806474329e-02 2.3291355579e+00 -4.0341811240e+00 2.3291355579e+00 4.0341811240e+00 
32000 5.6014427635e+00 -3.5354832583e-02 2.3299042646e+00 -4.0355125631e+00 2.3299042646e+00 4.0355125631e+00 
32100 5.6012610198e+00 -3.4908046045e-02 2.3306630244e+00 -4.0368267735e+00 2.3306630244e+00 4.0368267735e+00 
32200 5.6010832222e+00 -3.4466083569e-02 2.3314119511e+00 -4.0381239526e+00 2.3314119511e+00 4.0381239526e+00 
32300 5.6009092830e+00 -3.4028913278e-02 2.3321511577e+00 -4.0394042961e+00 2.3321511577e+00 4.0394042961e+00 
32400 5.6007391165e+00 -3.3596502613e-02 2.3328807564e+00 -4.0406679980e+00 2.3328807564e+00 4.0406679980e+00 
32500 5.6005726391e+00 -3.3168818385e-02 2.3336008581e+00 -4.0419152508e+00 2.3336008581e+00 4.0419152508e+00 
32600 5.6004097692e+00 -3.2745826826e-02 2.3343115731e+00 -4.0431462453e+00 2.3343115731e+00 4.0431462453e+00 
32700 5.6002504272e+00 -3.2327493629e-02 2.3350130104e+00 -4.0443611704e+00 2.3350130104e+00 4.0443611704e+00 
32800 5.6000945351e+00 -3.1913784004e-02 2.3357052783e+00 -4.0455602136e+00 2.3357052783e+00 4.0455602136e+00 
32900 5.5999420172e+00 -3.1504662711e-02 2.3363884839e+00 -4.0467435604e+00 2.3363884839e+00 4.0467435604e+00 
33000 5.5997927994e+00 -3.1100094107e-02 2.3370627335e+00 -4.0479113949e+00 2.3370627335e+00 4.0479113949e+00 
33100 5.5996468092e+00 -3.0700042187e-02 2.3377281322e+00 -4.0490638992e+00 2.3377281322e+00 4.0490638992e+00 
33200 5.5995039763e+00 -3.0304470617e-02 2.3383847842e+00 -4.0502012539e+00 2.3383847842e+00 4.0502012539e+00 
33300 5.5993642318e+00 -2.9913342776e-02 2.3390327928e+00 -4.0513236377e+00 2.3390327928e+00 4.0513236377e+00 
33400 5.5992275085e+00 -2.9526621789e-02 2.3396722602e+00 -4.0524312278e+00 2.3396722602e+00 4.0524312278e+00 
33500 5.5990937408e+00 -2.9144270560e-02 2.3403032877e+00 -4.0535241994e+00 2.3403032877e+00 4.0535241994e+00 
33600 5.5989628649e+00 -2.8766251806e-02 2.3409259754e+00 -4.0546027262e+00 2.3409259754e+00 4.0546027262e+00 
33700 5.5988348182e+00 -2.8392528083e-02 2.3415404227e+00 -4.0556669800e+00 2.3415404227e+00 4.0556669800e+00 
33800 5.5987095400e+00 -2.8023061821e-02 2.3421467277e+00 -4.0567171311e+00 2.3421467277e+00 4.0567171311e+00 
33900 5.5985869707e+00 -2.7657815347e-02 2.3427449877e+00 -4.0577533478e+00 2.3427449877e+00 4.0577533478e+00 
34000 5.5984670524e+00 -2.7296750915e-02 2.3433352990e+00 -4.0587757970e+00 2.3433352990e+00 4.0587757970e+00 
34100 5.5983497285e+00 -2.6939830727e-02 2.3439177568e+00 -4.0597846436e+00 2.3439177568e+00 4.0597846436e+00 
34200 5.5982349437e+00 -2.6587016959e-02 2.3444924556e+00 -4.0607800510e+00 2.3444924556e+00 4.0607800510e+00 
34300 5.5981226441e+00 -2.6238271784e-02 2.3450594885e+00 -4.0617621808e+00 2.3450594885e+00 4.0617621808e+00 
34400 5.5980127769e+00 -2.5893557391e-02 2.3456189480e+00 -4.0627311931e+00 2.3456189480e+00 4.0627311931e+00 
34500 5.5979052909e+00 -2.5552836008e-02 2.3461709253e+00 -4.0636872459e+00 2.3461709253e+00 4.0636872459e+00 
34600 5.5978001358e+00 -2.5216069919e-02 2.3467155111e+00 -4.0646304961e+00 2.3467155111e+00 4.0646304961e+00 
34700 5.5976972625e+00 -2.4883221482e-02 2.3472527946e+00 -4.0655610985e+00 2.3472527946e+00 4.0655610985e+00 
34800 5.5975966232e+00 -2.4554253144e-02 2.3477828644e+00 -4.0664792063e+00 2.3477828644e+00 4.0664792063e+00 
34900 5.5974981712e+00 -2.4229127463e-02 2.3483058081e+00 -4.0673849714e+00 2.3483058081e+00 4.0673849714e+00 
35000 5.5974018607e+00 -2.3907807116e-02 2.3488217123e+00 -4.0682785436e+00 2.3488217123e+00 4.0682785436e+00 
35100 5.5973076471e+00 -2.3590254915e-02 2.3493306626e+00 -4.0691600714e+00 2.3493306626e+00 4.0691600714e+00 
35200 5.5972154867e+00 -2.3276433822e-02 2.3498327438e+00 -4.0700297015e+00 2.3498327438e+00 4.0700297015e+00 
35300 5.5971253370e+00 -2.2966306960e-02 2.3503280397e+00 -4.0708875792e+00 2.3503280397e+00 4.0708875792e+00 
35400 5.5970371562e+00 -2.2659837624e-02 2.3508166332e+00 -4.0717338481e+00 2.3508166332e+00 4.0717338481e+00 
35500 5.5969509036e+00 -2.2356989290e-02 2.3512986064e+00 -4.0725686501e+00 2.3512986064e+00 4.0725686501e+00 
35600 5.5968665394e+00 -2.2057725629e-02 2.3517740404e+00 -4.0733921258e+00 2.3517740404e+00 4.0733921258e+00 
35700 5.5967840246e+00 -2.1762010512e-02 2.3522430152e+00 -4.0742044141e+00 2.3522430152e+00 4.0742044141e+00 
35800 5.5967033211e+00 -2.1469808020e-02 2.3527056104e+00 -4.0750056524e+00 2.3527056104e+00 4.0750056524e+00 
35900 5.5966243916e+00 -2.1181082452e-02 2.3531619042e+00 -4.0757959765e+00 2.3531619042e+00 4.0757959765e+00 
36000 5.5965471996e+00 -2.0895798333e-02 2.3536119743e+00 -4.0765755209e+00 2.3536119743e+00 4.0765755209e+00 
36100 5.5964717095e+00 -2.0613920418e-02 2.3540558975e+00 -4.0773444182e+00 2.3540558975e+00 4.0773444182e+00 
36200 5.5963978864e+00 -2.0335413698e-02 2.3544937494e+00 -4.0781028001e+00 2.3544937494e+00 4.0781028001e+00 
36300 5.5963256959e+00 -2.0060243410e-02 2.3549256052e+00 -4.0788507962e+00 2.3549256052e+00 4.0788507962e+00 
36400 5.5962551048e+00 -1.9788375037e-02 2.3553515390e+00 -4.0795885352e+00 2.3553515390e+00 4.0795885352e+00 
36500 5.5961860802e+00 -1.9519774312e-02 2.3557716241e+00 -4.0803161440e+00 2.3557716241e+00 4.0803161440e+00 
36600 5.5961185900e+00 -1.9254407229e-02 2.3561859331e+00 -4.0810337482e+00 2.3561859331e+00 4.0810337482e+00 
36700 5.5960526028e+00 -1.8992240036e-02 2.3565945376e+00 -4.0817414719e+00 2.3565945376e+00 4.0817414719e+00 
36800 5.5959880879e+00 -1.8733239247e-02 2.3569975085e+00 -4.0824394380e+00 2.3569975085e+00 4.0824394380e+00 
36900 5.5959250150e+00 -1.8477371641e-02 2.3573949159e+00 -4.0831277679e+00 2.3573949159e+00 4.0831277679e+00 
37000 5.5958633546e+00 -1.8224604264e-02 2.3577868291e+00 -4.0838065814e+00 2.3577868291e+00 4.0838065814e+00 
37100 5.5958030778e+00 -1.7974904432e-02 2.3581733166e+00 -4.0844759974e+00 2.3581733166e+00 4.0844759974e+00 
37200 5.5957441562e+00 -1.7728239733e-02 2.3585544461e+00 -4.0851361331e+00 2.3585544461e+00 4.0851361331e+00 
37300 5.5956865620e+00 -1.7484578027e-02 2.3589302846e+00 -4.0857871044e+00 2.3589302846e+00 4.0857871044e+00 
37400 5.5956302679e+00 -1.7243887449e-02 2.3593008982e+00 -4.0864290261e+00 2.3593008982e+00 4.0864290261e+00 
37500 5.5955752472e+00 -1.7006136408e-02 2.3596663525e+00 -4.0870620115e+00 2.3596663525e+00 4.0870620115e+00 
37600 5.5955214737e+00 -1.6771293588e-02 2.3600267121e+00 -4.0876861727e+00 2.3600267121e+00 4.0876861727e+00 
37700 5.5954689217e+00 -1.6539327949e-02 2.3603820411e+00 -4.0883016204e+00 2.3603820411e+00 4.0883016204e+00 
37800 5.5954175660e+00 -1.6310208729e-02 2.3607324025e+00 -4.0889084642e+00 2.3607324025e+00 4.0889084642e+00 
37900 5.5953673820e+00 -1.6083905437e-02 2.3610778590e+00 -4.0895068124e+00 2.3610778590e+00 4.0895068124e+00 
38000 5.5953183453e+00 -1.5860387862e-02 2.3614184723e+00 -4.0900967720e+00 2.3614184723e+00 4.0900967720e+00 
38100 5.5952704322e+00 -1.5639626066e-02 2.3617543036e+00 -4.0906784488e+00 2.3617543036e+00 4.0906784488e+00 
38200 5.5952236195e+00 -1.5421590386e-02 2.3620854132e+00 -4.0912519475e+00 2.3620854132e+00 4.0912519475e+00 
38300 5.5951778842e+00 -1.5206251431e-02 2.3624118609e+00 -4.0918173715e+00 2.3624118609e+00 4.0918173715e+00 
38400 5.5951332039e+00 -1.4993580085e-02 2.3627337056e+00 -4.0923748229e+00 2.3627337056e+00 4.0923748229e+00 
38500 5.5950895565e+00 -1.4783547502e-02 2.3630510058e+00 -4.0929244029e+00 2.3630510058e+00 4.0929244029e+00 
38600 5.5950469206e+00 -1.4576125108e-02 2.3633638190e+00 -4.0934662114e+00 2.3633638190e+00 4.0934662114e+00 
38700 5.5950052748e+00 -1.4371284596e-02 2.3636722024e+00 -4.0940003470e+00 2.3636722024e+00 4.0940003470e+00 
38800 5.5949645985e+00 -1.4168997930e-02 2.3639762123e+00 -4.0945269075e+00 2.3639762123e+00 4.0945269075e+00 
38900 5.5949248712e+00 -1.3969237336e-02 2.3642759043e+00 -4.0950459894e+00 2.3642759043e+00 4.0950459894e+00 
39000 5.5948860728e+00 -1.3771975310e-02 2.3645713336e+00 -4.0955576880e+00 2.3645713336e+00 4.0955576880e+00 
39100 5.5948481838e+00 -1.3577184606e-02 2.3648625547e+00 -4.0960620976e+00 2.3648625547e+00 4.0960620976e+00 
39200 5.5948111849e+00 -1.3384838244e-02 2.3651496212e+00 -4.0965593115e+00 2.3651496212e+00 4.0965593115e+00 
39300 5.5947750572e+00 -1.3194909500e-02 2.3654325865e+00 -4.0970494217e+00 2.3654325865e+00 4.0970494217e+00 
39400 5.5947397820e+00 -1.3007371911e-02 2.3657115031e+00 -4.0975325195e+00 2.3657115031e+00 4.0975325195e+00 
39500 5.5947053412e+00 -1.2822199268e-02 2.3659864230e+00 -4.0980086947e+00 2.3659864230e+00 4.0980086947e+00 
39600 5.5946717170e+00 -1.2639365617e-02 2.3662573976e+00 -4.0984780365e+00 2.3662573976e+00 4.0984780365e+00 
39700 5.5946388917e+00 -1.2458845255e-02 2.3665244777e+00 -4.0989406327e+00 2.3665244777e+00 4.0989406327e+00 
39800 5.5946068482e+00 -1.2280612731e-02 2.3667877134e+00 -4.0993965704e+00 2.3667877134e+00 4.0993965704e+00 
39900 5.5945755696e+00 -1.2104642840e-02 2.3670471544e+00 -4.0998459354e+00 2.3670471544e+00 4.0998459354e+00 
40000 5.5945450393e+00 -1.1930910626e-02 2.3673028498e+00 -4.1002888128e+00 2.3673028498e+00 4.1002888128e+00 
40100 5.5945152411e+00 -1.1759391374e-02 2.3675548481e+00 -4.1007252865e+00 2.3675548481e+00 4.1007252865e+00 
40200 5.5944861590e+00 -1.1590060613e-02 2.3678031970e+00 -4.1011554396e+00 2.3678031970e+00 4.1011554396e+00 
40300 5.5944577773e+00 -1.1422894110e-02 2.3680479442e+00 -4.1015793541e+00 2.3680479442e+00 4.1015793541e+00 
40400 5.5944300808e+00 -1.1257867873e-02 2.3682891362e+00 -4.1019971110e+00 2.3682891362e+00 4.1019971110e+00 
40500 5.5944030544e+00 -1.1094958141e-02 2.3685268196e+00 -4.1024087906e+00 2.3685268196e+00 4.1024087906e+00 
40600 5.5943766832e+00 -1.0934141391e-02 2.3687610398e+00 -4.1028144720e+00 2.3687610398e+00 4.1028144720e+00 
40700 5.5943509528e+00 -1.0775394329e-02 2.3689918423e+00 -4.1032142336e+00 2.3689918423e+00 4.1032142336e+00 
40800 5.5943258490e+00 -1.0618693890e-02 2.3692192717e+00 -4.1036081529e+00 2.3692192717e+00 4.1036081529e+00 
40900 5.5943013578e+00 -1.0464017237e-02 2.3694433721e+00 -4.1039963062e+00 2.3694433721e+00 4.1039963062e+00 
41000 5.5942774657e+00 -1.0311341759e-02 2.3696641873e+00 -4.1043787693e+00 2.3696641873e+00 4.1043787693e+00 
41100 5.5942541590e+00 -1.0160645066e-02 2.3698817603e+00 -4.1047556168e+00 2.3698817603e+00 4.1047556168e+00 
41200 5.5942314248e+00 -1.0011904990e-02 2.3700961338e+00 -4.1051269226e+00 2.3700961338e+00 4.1051269226e+00 
41300 5.5942092501e+00 -9.8650995813e-03 2.3703073500e+00 -4.1054927598e+00 2.3703073500e+00 4.1054927598e+00 
41400 5.5941876223e+00 -9.7202071065e-03 2.3705154506e+00 -4.1058532005e+00 2.3705154506e+00 4.1058532005e+00 
41500 5.5941665289e+00 -9.5772060474e-03 2.3707204766e+00 -4.1062083160e+00 2.3707204766e+00 4.1062083160e+00 
41600 5.5941459579e+00 -9.4360750982e-03 2.3709224688e+00 -4.1065581768e+00 2.3709224688e+00 4.1065581768e+00 
41700 5.5941258973e+00 -9.2967931631e-03 2.3711214674e+00 -4.1069028525e+00 2.3711214674e+00 4.1069028525e+00 
41800 5.5941063355e+00 -9.1593393551e-03 2.3713175123e+00 -4.1072424121e+00 2.3713175123e+00 4.1072424121e+00 
41900 5.5940872609e+00 -9.0236929935e-03 2.3715106425e+00 -4.1075769235e+00 2.3715106425e+00 4.1075769235e+00 
42000 5.5940686624e+00 -8.8898336017e-03 2.3717008971e+00 -4.1079064541e+00 2.3717008971e+00 4.1079064541e+00 
42100 5.5940505290e+00 -8.7577409059e-03 2.3718883143e+00 -4.1082310702e+00 2.3718883143e+00 4.1082310702e+00 
42200 5.5940328500e+00 -8.6273948323e-03 2.3720729320e+00 -4.1085508375e+00 2.3720729320e+00 4.1085508375e+00 
42300 5.5940156147e+00 -8.4987755057e-03 2.3722547878e+00 -4.1088658210e+00 2.3722547878e+00 4.1088658210e+00 
42400 5.5939988129e+00 -8.3718632474e-03 2.3724339187e+00 -4.1091760849e+00 2.3724339187e+00 4.1091760849e+00 
42500 5.5939824344e+00 -8.2466385733e-03 2.3726103613e+00 -4.1094816924e+00 2.3726103613e+00 4.1094816924e+00 
42600 5.5939664692e+00 -8.1230821919e-03 2.3727841517e+00 -4.1097827062e+00 2.3727841517e+00 4.1097827062e+00 
42700 5.5939509078e+00 -8.0011750025e-03 2.3729553258e+00 -4.1100791883e+00 2.3729553258e+00 4.1100791883e+00 
42800 5.5939357405e+00 -7.8808980932e-03 2.3731239187e+00 -4.1103711998e+00 2.3731239187e+00 4.1103711998e+00 
42900 5.5939209580e+00 -7.7622327394e-03 2.3732899654e+00 -4.1106588012e+00 2.3732899654e+00 4.1106588012e+00 
43000 5.5939065513e+00 -7.6451604015e-03 2.3734535005e+00 -4.1109420522e+00 2.3734535005e+00 4.1109420522e+00 
43100 5.5938925114e+00 -7.5296627234e-03 2.3736145579e+00 -4.1112210119e+00 2.3736145579e+00 4.1112210119e+00 
43200 5.5938788295e+00 -7.4157215306e-03 2.3737731714e+00 -4.1114957386e+00 2.3737731714e+00 4.1114957386e+00 
43300 5.5938654971e+00 -7.3033188284e-03 2.3739293743e+00 -4.1117662898e+00 2.3739293743e+00 4.1117662898e+00 
43400 5.5938525058e+00 -7.1924368002e-03 2.3740831994e+00 -4.1120327227e+00 2.3740831994e+00 4.1120327227e+00 
43500 5.5938398474e+00 -7.0830578057e-03 2.3742346792e+00 -4.1122950934e+00 2.3742346792e+00 4.1122950934e+00 
43600 5.5938275139e+00 -6.9751643794e-03 2.3743838458e+00 -4.1125534576e+00 2.3743838458e+00 4.1125534576e+00 
43700 5.5938154974e+00 -6.8687392285e-03 2.3745307310e+00 -4.1128078702e+00 2.3745307310e+00 4.1128078702e+00 
43800 5.5938037903e+00 -6.7637652314e-03 2.3746753661e+00 -4.1130583855e+00 2.3746753661e+00 4.1130583855e+00 
43900 5.5937923850e+00 -6.6602254363e-03 2.3748177820e+00 -4.1133050572e+00 2.3748177820e+00 4.1133050572e+00 
44000 5.5937812742e+00 -6.5581030592e-03 2.3749580094e+00 -4.1135479382e+00 2.3749580094e+00 4.1135479382e+00 
44100 5.5937704507e+00 -6.4573814823e-03 2.3750960785e+00 -4.1137870809e+00 2.3750960785e+00 4.1137870809e+00 
44200 5.5937599074e+00 -6.3580442527e-03 2.3752320192e+00 -4.1140225370e+00 2.3752320192e+00 4.1140225370e+00 
44300 5.5937496375e+00 -6.2600750803e-03 2.3753658610e+00 -4.1142543577e+00 2.3753658610e+00 4.1142543577e+00 
44400 5.5937396343e+00 -6.1634578369e-03 2.3754976329e+00 -4.1144825935e+00 2.3754976329e+00 4.1144825935e+00 
44500 5.5937298911e+00 -6.0681765538e-03 2.3756273639e+00 -4.1147072942e+00 2.3756273639e+00 4.1147072942e+00 
44600 5.5937204015e+00 -5.9742154211e-03 2.3757550824e+00 -4.1149285091e+00 2.3757550824e+00 4.1149285091e+00 
44700 5.5937111594e+00 -5.8815587857e-03 2.3758808165e+00 -4.1151462869e+00 2.3758808165e+00 4.1151462869e+00 
44800 5.5937021584e+00 -5.7901911497e-03 2.3760045940e+00 -4.1153606758e+00 2.3760045940e+00 4.1153606758e+00 
44900 5.5936933926e+00 -5.7000971694e-03 2.3761264422e+00 -4.1155717232e+00 2.3761264422e+00 4.1155717232e+00 
45000 5.5936848561e+00 -5.6112616535e-03 2.3762463884e+00 -4.1157794760e+00 2.3762463884e+00 4.1157794760e+00 
45100 5.5936765433e+00 -5.5236695614e-03 2.3763644592e+00 -4.1159839807e+00 2.3763644592e+00 4.1159839807e+00 
45200 5.5936684484e+00 -5.4373060023e-03 2.3764806812e+00 -4.1161852830e+00 2.3764806812e+00 4.1161852830e+00 
45300 5.5936605661e+00 -5.3521562336e-03 2.3765950804e+00 -4.1163834283e+00 2.3765950804e+00 4.1163834283e+00 
45400 5.5936528909e+00 -5.2682056593e-03 2.3767076826e+00 -4.1165784611e+00 2.3767076826e+00 4.1165784611e+00 
45500 5.5936454176e+00 -5.1854398286e-03 2.3768185134e+00 -4.1167704256e+00 2.3768185134e+00 4.1167704256e+00 
45600 5.5936381412e+00 -5.1038444351e-03 2.3769275979e+00 -4.1169593654e+00 2.3769275979e+00 4.1169593654e+00 
45700 5.5936310566e+00 -5.0234053145e-03 2.3770349609e+00 -4.1171453236e+00 2.3770349609e+00 4.1171453236e+00 
45800 5.5936241590e+00 -4.9441084443e-03 2.3771406270e+00 -4.1173283428e+00 2.3771406270e+00 4.1173283428e+00 
45900 5.5936174437e+00 -4.8659399415e-03 2.3772446206e+00 -4.1175084648e+00 2.3772446206e+00 4.1175084648e+00 
46000 5.5936109059e+00 -4.7888860622e-03 2.3773469654e+00 -4.1176857313e+00 2.3773469654e+00 4.1176857313e+00 
46100 5.5936045411e+00 -4.7129331994e-03 2.3774476852e+00 -4.1178601832e+00 2.3774476852e+00 4.1178601832e+00 
46200 5.5935983450e+00 -4.6380678825e-03 2.3775468034e+00 -4.1180318609e+00 2.3775468034e+00 4.1180318609e+00 
46300 5.5935923132e+00 -4.5642767758e-03 2.3776443430e+00 -4.1182008045e+00 2.3776443430e+00 4.1182008045e+00 
46400 5.5935864415e+00 -4.4915466768e-03 2.3777403269e+00 -4.1183670533e+00 2.3777403269e+00 4.1183670533e+00 
46500 5.5935807258e+00 -4.4198645158e-03 2.3778347774e+00 -4.1185306464e+00 2.3778347774e+00 4.1185306464e+00 
46600 5.5935751620e+00 -4.3492173540e-03 2.3779277168e+00 -4.1186916223e+00 2.3779277168e+00 4.1186916223e+00 
46700 5.5935697462e+00 -4.2795923825e-03 2.3780191672e+00 -4.1188500189e+00 2.3780191672e+00 4.1188500189e+00 
46800 5.5935644747e+00 -4.2109769213e-03 2.3781091500e+00 -4.1190058738e+00 2.3781091500e+00 4.1190058738e+00 
46900 5.5935593437e+00 -4.1433584180e-03 2.3781976868e+00 -4.1191592240e+00 2.3781976868e+00 4.1191592240e+00 
47000 5.5935543495e+00 -4.0767244464e-03 2.3782847986e+00 -4.1193101061e+00 2.3782847986e+00 4.1193101061e+00 
47100 5.5935494885e+00 -4.0110627059e-03 2.3783705064e+00 -4.1194585563e+00 2.3783705064e+00 4.1194585563e+00 
47200 5.5935447575e+00 -3.9463610198e-03 2.3784548307e+00 -4.1196046102e+00 2.3784548307e+00 4.1196046102e+00 
47300 5.5935401528e+00 -3.8826073346e-03 2.3785377917e+00 -4.1197483030e+00 2.3785377917e+00 4.1197483030e+00 
47400 5.5935356714e+00 -3.8197897186e-03 2.3786194097e+00 -4.1198896695e+00 2.3786194097e+00 4.1198896695e+00 
47500 5.5935313098e+00 -3.7578963613e-03 2.3786997044e+00 -4.1200287441e+00 2.3786997044e+00 4.1200287441e+00 
47600 5.5935270651e+00 -3.6969155715e-03 2.3787786954e+00 -4.1201655605e+00 2.3787786954e+00 4.1201655605e+00 
47700 5.5935229342e+00 -3.6368357771e-03 2.3788564020e+00 -4.1203001522e+00 2.3788564020e+00 4.1203001522e+00 
47800 5.5935189140e+00 -3.5776455235e-03 2.3789328433e+00 -4.1204325524e+00 2.3789328433e+00 4.1204325524e+00 
47900 5.5935150016e+00 -3.5193334728e-03 2.3790080380e+00 -4.1205627935e+00 2.3790080380e+00 4.1205627935e+00 
48000 5.5935111944e+00 -3.4618884028e-03 2.3790820048e+00 -4.1206909077e+00 2.3790820048e+00 4.1206909077e+00 
48100 5.5935074893e+00 -3.4052992058e-03 2.3791547620e+00 -4.1208169268e+00 2.3791547620e+00 4.1208169268e+00 
48200 5.5935038839e+00 -3.3495548878e-03 2.3792263277e+00 -4.1209408822e+00 2.3792263277e+00 4.1209408822e+00 
48300 5.5935003755e+00 -3.2946445673e-03 2.3792967197e+00 -4.1210628048e+00 2.3792967197e+00 4.1210628048e+00 
48400 5.5934969614e+00 -3.2405574748e-03 2.3793659557e+00 -4.1211827251e+00 2.3793659557e+00 4.1211827251e+00 
48500 5.5934936393e+00 -3.1872829512e-03 2.3794340531e+00 -4.1213006733e+00 2.3794340531e+00 4.1213006733e+00 
48600 5.5934904066e+00 -3.1348104472e-03 2.3795010291e+00 -4.1214166790e+00 2.3795010291e+00 4.1214166790e+00 
48700 5.5934872611e+00 -3.0831295227e-03 2.3795669006e+00 -4.1215307718e+00 2.3795669006e+00 4.1215307718e+00 
48800 5.5934842004e+00 -3.0322298450e-03 2.3796316843e+00 -4.1216429805e+00 2.3796316843e+00 4.1216429805e+00 
48900 5.5934812223e+00 -2.9821011888e-03 2.3796953967e+00 -4.1217533337e+00 2.3796953967e+00 4.1217533337e+00 
49000 5.5934783245e+00 -2.9327334347e-03 2.3797580542e+00 -4.1218618596e+00 2.3797580542e+00 4.1218618596e+00 
49100 5.5934755050e+00 -2.8841165687e-03 2.3798196728e+00 -4.1219685861e+00 2.3798196728e+00 4.1219685861e+00 
49200 5.5934727617e+00 -2.8362406809e-03 2.3798802683e+00 -4.1220735406e+00 2.3798802683e+00 4.1220735406e+00 
49300 5.5934700925e+00 -2.7890959651e-03 2.3799398564e+00 -4.1221767503e+00 2.3799398564e+00 4.1221767503e+00 
49400 5.5934674955e+00 -2.7426727177e-03 2.3799984526e+00 -4.1222782419e+00 2.3799984526e+00 4.1222782419e+00 
49500 5.5934649688e+00 -2.6969613368e-03 2.3800560721e+00 -4.1223780417e+00 2.3800560721e+00 4.1223780417e+00 
49600 5.5934625104e+00 -2.6519523216e-03 2.3801127298e+00 -4.1224761758e+00 2.3801127298e+00 4.1224761758e+00 
49700 5.5934601187e+00 -2.6076362711e-03 2.3801684407e+00 -4.1225726698e+00 2.3801684407e+00 4.1225726698e+00 
49800 5.5934577917e+00 -2.5640038841e-03 2.3802232193e+00 -4.1226675491e+00 2.3802232193e+00 4.1226675491e+00 
49900 5.5934555278e+00 -2.5210459576e-03 2.3802770801e+00 -4.1227608387e+00 2.3802770801e+00 4.1227608387e+00 
50000 5.5934533253e+00 -2.4787533863e-03 2.3803300372e+00 -4.1228525633e+00 2.3803300372e+00 4.1228525633e+00 
50100 5.5934511825e+00 -2.4371171620e-03 2.3803821049e+00 -4.1229427470e+00 2.3803821049e+00 4.1229427470e+00 
50200 5.5934490979e+00 -2.3961283726e-03 2.3804332968e+00 -4.1230314140e+00 2.3804332968e+00 4.1230314140e+00 
50300 5.5934470699e+00 -2.3557782014e-03 2.3804836266e+00 -4.1231185879e+00 2.3804836266e+00 4.1231185879e+00 
50400 5.5934450970e+00 -2.3160579262e-03 2.3805331079e+00 -4.1232042919e+00 2.3805331079e+00 4.1232042919e+00 
50500 5.5934431777e+00 -2.2769589190e-03 2.3805817538e+00 -4.1232885492e+00 2.3805817538e+00 4.1232885492e+00 
50600 5.5934413106e+00 -2.2384726447e-03 2.3806295776e+00 -4.1233713823e+00 2.3806295776e+00 4.1233713823e+00 
50700 5.5934394943e+00 -2.2005906607e-03 2.3806765920e+00 -4.1234528137e+00 2.3806765920e+00 4.1234528137e+00 
50800 5.5934377274e+00 -2.1633046162e-03 2.3807228099e+00 -4.1235328655e+00 2.3807228099e+00 4.1235328655e+00 
50900 5.5934360086e+00 -2.1266062512e-03 2.3807682438e+00 -4.1236115594e+00 2.3807682438e+00 4.1236115594e+00 
51000 5.5934343367e+00 -2.0904873961e-03 2.3808129062e+00 -4.1236889168e+00 2.3808129062e+00 4.1236889168e+00 
51100 5.5934327103e+00 -2.0549399709e-03 2.3808568091e+00 -4.1237649589e+00 2.3808568091e+00 4.1237649589e+00 
51200 5.5934311283e+00 -2.0199559844e-03 2.3808999647e+00 -4.1238397066e+00 2.3808999647e+00 4.1238397066e+00 
51300 5.5934295895e+00 -1.9855275337e-03 2.3809423848e+00 -4.1239131804e+00 2.3809423848e+00 4.1239131804e+00 
51400 5.5934280927e+00 -1.9516468034e-03 2.3809840812e+00 -4.1239854007e+00 2.3809840812e+00 4.1239854007e+00 
51500 5.5934266367e+00 -1.9183060649e-03 2.3810250654e+00 -4.1240563873e+00 2.3810250654e+00 4.1240563873e+00 
51600 5.5934252206e+00 -1.8854976759e-03 2.3810653487e+00 -4.1241261601e+00 2.3810653487e+00 4.1241261601e+00 
51700 5.5934238432e+00 -1.8532140795e-03 2.3811049424e+00 -4.1241947383e+00 2.3811049424e+00 4.1241947383e+00 
51800 5.5934225035e+00 -1.8214478037e-03 2.3811438575e+00 -4.1242621413e+00 2.3811438575e+00 4.1242621413e+00 
51900 5.5934212004e+00 -1.7901914610e-03 2.3811821049e+00 -4.1243283878e+00 2.3811821049e+00 4.1243283878e+00 
52000 5.5934199331e+00 -1.7594377471e-03 2.3812196954e+00 -4.1243934964e+00 2.3812196954e+00 4.1243934964e+00 
52100 5.5934187005e+00 -1.7291794408e-03 2.3812566395e+00 -4.1244574855e+00 2.3812566395e+00 4.1244574855e+00 
52200 5.5934175017e+00 -1.6994094035e-03 2.3812929478e+00 -4.1245203732e+00 2.3812929478e+00 4.1245203732e+00 
52300 5.5934163359e+00 -1.6701205779e-03 2.3813286303e+00 -4.1245821773e+00 2.3813286303e+00 4.1245821773e+00 
52400 5.5934152021e+00 -1.6413059881e-03 2.3813636974e+00 -4.1246429152e+00 2.3813636974e+00 4.1246429152e+00 
52500 5.5934140994e+00 -1.6129587386e-03 2.3813981590e+00 -4.1247026044e+00 2.3813981590e+00 4.1247026044e+00 
52600 5.5934130271e+00 -1.5850720135e-03 2.3814320248e+00 -4.1247612618e+00 2.3814320248e+00 4.1247612618e+00 
52700 5.5934119843e+00 -1.5576390766e-03 2.3814653047e+00 -4.1248189043e+00 2.3814653047e+00 4.1248189043e+00 
52800 5.5934109702e+00 -1.5306532701e-03 2.3814980082e+00 -4.1248755483e+00 2.3814980082e+00 4.1248755483e+00 
52900 5.5934099842e+00 -1.5041080144e-03 2.3815301446e+00 -4.1249312102e+00 2.3815301446e+00 4.1249312102e+00 
53000 5.5934090253e+00 -1.4779968071e-03 2.3815617233e+00 -4.1249859061e+00 2.3815617233e+00 4.1249859061e+00 
53100 5.5934080929e+00 -1.4523132231e-03 2.3815927533e+00 -4.1250396517e+00 2.3815927533e+00 4.1250396517e+00 
53200 5.5934071864e+00 -1.4270509134e-03 2.3816232438e+00 -4.1250924627e+00 2.3816232438e+00 4.1250924627e+00 
53300 5.5934063049e+00 -1.4022036045e-03 2.3816532035e+00 -4.1251443544e+00 2.3816532035e+00 4.1251443544e+00 
53400 5.5934054478e+00 -1.3777650986e-03 2.3816826411e+00 -4.1251953420e+00 2.3816826411e+00 4.1251953420e+00 
53500 5.5934046146e+00 -1.3537292718e-03 2.3817115654e+00 -4.1252454402e+00 2.3817115654e+00 4.1252454402e+00 
53600 5.5934038044e+00 -1.3300900748e-03 2.3817399847e+00 -4.1252946639e+00 2.3817399847e+00 4.1252946639e+00 
53700 5.5934030168e+00 -1.3068415314e-03 2.3817679074e+00 -4.1253430275e+00 2.3817679074e+00 4.1253430275e+00 
53800 5.5934022511e+00 -1.2839777383e-03 2.3817953417e+00 -4.1253905451e+00 2.3817953417e+00 4.1253905451e+00 
53900 5.5934015067e+00 -1.2614928647e-03 2.3818222958e+00 -4.1254372309e+00 2.3818222958e+00 4.1254372309e+00 
54000 5.5934007831e+00 -1.2393811512e-03 2.3818487775e+00 -4.1254830986e+00 2.3818487775e+00 4.1254830986e+00 
54100 5.5934000797e+00 -1.2176369099e-03 2.3818747948e+00 -4.1255281618e+00 2.3818747948e+00 4.1255281618e+00 
54200 5.5933993960e+00 -1.1962545234e-03 2.3819003553e+00 -4.1255724339e+00 2.3819003553e+00 4.1255724339e+00 
54300 5.5933987314e+00 -1.1752284445e-03 2.3819254667e+00 -4.1256159281e+00 2.3819254667e+00 4.1256159281e+00 
54400 5.5933980855e+00 -1.1545531953e-03 2.3819501364e+00 -4.1256586574e+00 2.3819501364e+00 4.1256586574e+00 
54500 5.5933974577e+00 -1.1342233670e-03 2.3819743719e+00 -4.1257006345e+00 2.3819743719e+00 4.1257006345e+00 
54600 5.5933968476e+00 -1.1142336194e-03 2.3819981804e+00 -4.1257418721e+00 2.3819981804e+00 4.1257418721e+00 
54700 5.5933962546e+00 -1.0945786799e-03 2.3820215691e+00 -4.1257823824e+00 2.3820215691e+00 4.1257823824e+00 
54800 5.5933956784e+00 -1.0752533434e-03 2.3820445450e+00 -4.1258221778e+00 2.3820445450e+00 4.1258221778e+00 
54900 5.5933951184e+00 -1.0562524716e-03 2.3820671150e+00 -4.1258612702e+00 2.3820671150e+00 4.1258612702e+00 
55000 5.5933945743e+00 -1.0375709924e-03 2.3820892859e+00 -4.1258996714e+00 2.3820892859e+00 4.1258996714e+00 
55100 5.5933940456e+00 -1.0192038995e-03 2.3821110646e+00 -4.1259373931e+00 2.3821110646e+00 4.1259373931e+00 
55200 5.5933935320e+00 -1.0011462517e-03 2.3821324575e+00 -4.1259744467e+00 2.3821324575e+00 4.1259744467e+00 
55300 5.5933930329e+00 -9.8339317242e-04 2.3821534712e+00 -4.1260108435e+00 2.3821534712e+00 4.1260108435e+00 
55400 5.5933925481e+00 -9.6593984936e-04 2.3821741120e+00 -4.1260465945e+00 2.3821741120e+00 4.1260465945e+00 
55500 5.5933920771e+00 -9.4878153362e-04 2.3821943864e+00 -4.1260817108e+00 2.3821943864e+00 4.1260817108e+00 
55600 5.5933916196e+00 -9.3191353939e-04 2.3822143005e+00 -4.1261162029e+00 2.3822143005e+00 4.1261162029e+00 
55700 5.5933911752e+00 -9.1533124337e-04 2.3822338603e+00 -4.1261500815e+00 2.3822338603e+00 4.1261500815e+00 
55800 5.5933907436e+00 -8.9903008423e-04 2.3822530719e+00 -4.1261833571e+00 2.3822530719e+00 4.1261833571e+00 
55900 5.5933903244e+00 -8.8300556207e-04 2.3822719413e+00 -4.1262160398e+00 2.3822719413e+00 4.1262160398e+00 
56000 5.5933899173e+00 -8.6725323791e-04 2.3822904742e+00 -4.1262481396e+00 2.3822904742e+00 4.1262481396e+00 
56100 5.5933895220e+00 -8.5176873316e-04 2.3823086763e+00 -4.1262796666e+00 2.3823086763e+00 4.1262796666e+00 
56200 5.5933891382e+00 -8.3654772904e-04 2.3823265533e+00 -4.1263106305e+00 2.3823265533e+00 4.1263106305e+00 
56300 5.5933887655e+00 -8.2158596612e-04 2.3823441106e+00 -4.1263410407e+00 2.3823441106e+00 4.1263410407e+00 
56400 5.5933884036e+00 -8.0687924377e-04 2.3823613539e+00 -4.1263709069e+00 2.3823613539e+00 4.1263709069e+00 
56500 5.5933880524e+00 -7.9242341959e-04 2.3823782884e+00 -4.1264002383e+00 2.3823782884e+00 4.1264002383e+00 
56600 5.5933877114e+00 -7.7821440896e-04 2.3823949193e+00 -4.1264290439e+00 2.3823949193e+00 4.1264290439e+00 
56700 5.5933873804e+00 -7.6424818442e-04 2.3824112519e+00 -4.1264573329e+00 2.3824112519e+00 4.1264573329e+00 
56800 5.5933870592e+00 -7.5052077523e-04 2.3824272913e+00 -4.1264851139e+00 2.3824272913e+00 4.1264851139e+00 
56900 5.5933867475e+00 -7.3702826680e-04 2.3824430425e+00 -4.1265123958e+00 2.3824430425e+00 4.1265123958e+00 
57000 5.5933864450e+00 -7.2376680017e-04 2.3824585105e+00 -4.1265391870e+00 2.3824585105e+00 4.1265391870e+00 
57100 5.5933861514e+00 -7.1073257148e-04 2.3824737000e+00 -4.1265654960e+00 2.3824737000e+00 4.1265654960e+00 
57200 5.5933858667e+00 -6.9792183148e-04 2.3824886158e+00 -4.1265913311e+00 2.3824886158e+00 4.1265913311e+00 
57300 5.5933855904e+00 -6.8533088494e-04 2.3825032628e+00 -4.1266167003e+00 2.3825032628e+00 4.1266167003e+00 
57400 5.5933853224e+00 -6.7295609021e-04 2.3825176454e+00 -4.1266416117e+00 2.3825176454e+00 4.1266416117e+00 
57500 5.5933850625e+00 -6.6079385862e-04 2.3825317682e+00 -4.1266660731e+00 2.3825317682e+00 4.1266660731e+00 
57600 5.5933848105e+00 -6.4884065401e-04 2.3825456356e+00 -4.1266900923e+00 2.3825456356e+00 4.1266900923e+00 
57700 5.5933845661e+00 -6.3709299219e-04 2.3825592522e+00 -4.1267136769e+00 2.3825592522e+00 4.1267136769e+00 
57800 5.5933843291e+00 -6.2554744041e-04 2.3825726221e+00 -4.1267368343e+00 2.3825726221e+00 4.1267368343e+00 
57900 5.5933840994e+00 -6.1420061686e-04 2.3825857497e+00 -4.1267595719e+00 2.3825857497e+00 4.1267595719e+00 
58000 5.5933838767e+00 -6.0304919014e-04 2.3825986391e+00 -4.1267818970e+00 2.3825986391e+00 4.1267818970e+00 
58100 5.5933836608e+00 -5.9208987874e-04 2.3826112944e+00 -4.1268038166e+00 2.3826112944e+00 4.1268038166e+00 
58200 5.5933834516e+00 -5.8131945049e-04 2.3826237196e+00 -4.1268253377e+00 2.3826237196e+00 4.1268253377e+00 
58300 5.5933832489e+00 -5.7073472214e-04 2.3826359188e+00 -4.1268464673e+00 2.3826359188e+00 4.1268464673e+00 
58400 5.5933830526e+00 -5.6033255871e-04 2.3826478958e+00 -4.1268672120e+00 2.3826478958e+00 4.1268672120e+00 
58500 5.5933828623e+00 -5.5010987308e-04 2.3826596544e+00 -4.1268875785e+00 2.3826596544e+00 4.1268875785e+00 
58600 5.5933826781e+00 -5.4006362543e-04 2.3826711984e+00 -4.1269075734e+00 2.3826711984e+00 4.1269075734e+00 
58700 5.5933824997e+00 -5.3019082272e-04 2.3826825316e+00 -4.1269272030e+00 2.3826825316e+00 4.1269272030e+00 
58800 5.5933823269e+00 -5.2048851820e-04 2.3826936575e+00 -4.1269464737e+00 2.3826936575e+00 4.1269464737e+00 
58900 5.5933821596e+00 -5.1095381088e-04 2.3827045798e+00 -4.1269653916e+00 2.3827045798e+00 4.1269653916e+00 
59000 5.5933819977e+00 -5.0158384502e-04 2.3827153019e+00 -4.1269839629e+00 2.3827153019e+00 4.1269839629e+00 
59100 5.5933818411e+00 -4.9237580963e-04 2.3827258274e+00 -4.1270021936e+00 2.3827258274e+00 4.1270021936e+00 
59200 5.5933816894e+00 -4.8332693793e-04 2.3827361596e+00 -4.1270200895e+00 2.3827361596e+00 4.1270200895e+00 
59300 5.5933815428e+00 -4.7443450691e-04 2.3827463019e+00 -4.1270376564e+00 2.3827463019e+00 4.1270376564e+00 
59400 5.5933814009e+00 -4.6569583674e-04 2.3827562575e+00 -4.1270549001e+00 2.3827562575e+00 4.1270549001e+00 
59500 5.5933812637e+00 -4.5710829031e-04 2.3827660297e+00 -4.1270718261e+00 2.3827660297e+00 4.1270718261e+00 
59600 5.5933811311e+00 -4.4866927274e-04 2.3827756217e+00 -4.1270884398e+00 2.3827756217e+00 4.1270884398e+00 
59700 5.5933810028e+00 -4.4037623082e-04 2.3827850366e+00 -4.1271047468e+00 2.3827850366e+00 4.1271047468e+00 
59800 5.5933808789e+00 -4.3222665258e-04 2.3827942774e+00 -4.1271207524e+00 2.3827942774e+00 4.1271207524e+00 
59900 5.5933807592e+00 -4.2421806672e-04 2.3828033471e+00 -4.1271364616e+00 2.3828033471e+00 4.1271364616e+00 
60000 5.5933806435e+00 -4.1634804217e-04 2.3828122488e+00 -4.1271518798e+00 2.3828122488e+00 4.1271518798e+00 
60100 5.5933805318e+00 -4.0861418757e-04 2.3828209853e+00 -4.1271670118e+00 2.3828209853e+00 4.1271670118e+00 
60200 5.5933804239e+00 -4.0101415075e-04 2.3828295594e+00 -4.1271818627e+00 2.3828295594e+00 4.1271818627e+00 
60300 5.5933803198e+00 -3.9354561829e-04 2.3828379741e+00 -4.1271964374e+00 2.3828379741e+00 4.1271964374e+00 
60400 5.5933802193e+00 -3.8620631498e-04 2.3828462320e+00 -4.1272107405e+00 2.3828462320e+00 4.1272107405e+00 
60500 5.5933801224e+00 -3.7899400335e-04 2.3828543359e+00 -4.1272247768e+00 2.3828543359e+00 4.1272247768e+00 
60600 5.5933800289e+00 -3.7190648321e-04 2.3828622884e+00 -4.1272385510e+00 2.3828622884e+00 4.1272385510e+00 
60700 5.5933799387e+00 -3.6494159110e-04 2.3828700922e+00 -4.1272520676e+00 2.3828700922e+00 4.1272520676e+00 
60800 5.5933798518e+00 -3.5809719987e-04 2.3828777498e+00 -4.1272653309e+00 2.3828777498e+00 4.1272653309e+00 
60900 5.5933797681e+00 -3.5137121817e-04 2.3828852638e+00 -4.1272783455e+00 2.3828852638e+00 4.1272783455e+00 
61000 5.5933796875e+00 -3.4476158997e-04 2.3828926366e+00 -4.1272911156e+00 2.3828926366e+00 4.1272911156e+00 
61100 5.5933796098e+00 -3.3826629409e-04 2.3828998707e+00 -4.1273036454e+00 2.3828998707e+00 4.1273036454e+00 
61200 5.5933795350e+00 -3.3188334372e-04 2.3829069685e+00 -4.1273159392e+00 2.3829069685e+00 4.1273159392e+00 
61300 5.5933794631e+00 -3.2561078597e-04 2.3829139323e+00 -4.1273280009e+00 2.3829139323e+00 4.1273280009e+00 
61400 5.5933793939e+00 -3.1944670137e-04 2.3829207645e+00 -4.1273398346e+00 2.3829207645e+00 4.1273398346e+00 
61500 5.5933793274e+00 -3.1338920342e-04 2.3829274674e+00 -4.1273514443e+00 2.3829274674e+00 4.1273514443e+00 
61600 5.5933792634e+00 -3.0743643812e-04 2.3829340431e+00 -4.1273628338e+00 2.3829340431e+00 4.1273628338e+00 
61700 5.5933792020e+00 -3.0158658353e-04 2.3829404939e+00 -4.1273740069e+00 2.3829404939e+00 4.1273740069e+00 
61800 5.5933791431e+00 -2.9583784928e-04 2.3829468219e+00 -4.1273849673e+00 2.3829468219e+00 4.1273849673e+00 
61900 5.5933790865e+00 -2.9018847614e-04 2.3829530293e+00 -4.1273957189e+00 2.3829530293e+00 4.1273957189e+00 
62000 5.5933790322e+00 -2.8463673554e-04 2.3829591182e+00 -4.1274062651e+00 2.3829591182e+00 4.1274062651e+00 
62100 5.5933789802e+00 -2.7918092915e-04 2.3829650905e+00 -4.1274166095e+00 2.3829650905e+00 4.1274166095e+00 
62200 5.5933789303e+00 -2.7381938843e-04 2.3829709484e+00 -4.1274267556e+00 2.3829709484e+00 4.1274267556e+00 
62300 5.5933788826e+00 -2.6855047417e-04 2.3829766937e+00 -4.1274367068e+00 2.3829766937e+00 4.1274367068e+00 
62400 5.5933788369e+00 -2.6337257605e-04 2.3829823285e+00 -4.1274464665e+00 2.3829823285e+00 4.1274464665e+00 
62500 5.5933787933e+00 -2.5828411221e-04 2.3829878546e+00 -4.1274560380e+00 2.3829878546e+00 4.1274560380e+00 
62600 5.5933787515e+00 -2.5328352885e-04 2.3829932739e+00 -4.1274654246e+00 2.3829932739e+00 4.1274654246e+00 
62700 5.5933787117e+00 -2.4836929972e-04 2.3829985883e+00 -4.1274746294e+00 2.3829985883e+00 4.1274746294e+00 
62800 5.5933786737e+00 -2.4353992577e-04 2.3830037996e+00 -4.1274836556e+00 2.3830037996e+00 4.1274836556e+00 
62900 5.5933786374e+00 -2.3879393468e-04 2.3830089096e+00 -4.1274925062e+00 2.3830089096e+00 4.1274925062e+00 
63000 5.5933786029e+00 -2.3412988048e-04 2.3830139199e+00 -4.1275011844e+00 2.3830139199e+00 4.1275011844e+00 
63100 5.5933785700e+00 -2.2954634308e-04 2.3830188324e+00 -4.1275096931e+00 2.3830188324e+00 4.1275096931e+00 
63200 5.5933785388e+00 -2.2504192791e-04 2.3830236487e+00 -4.1275180351e+00 2.3830236487e+00 4.1275180351e+00 
63300 5.5933785091e+00 -2.2061526547e-04 2.3830283704e+00 -4.1275262135e+00 2.3830283704e+00 4.1275262135e+00 
63400 5.5933784810e+00 -2.1626501095e-04 2.3830329993e+00 -4.1275342310e+00 2.3830329993e+00 4.1275342310e+00 
63500 5.5933784544e+00 -2.1198984382e-04 2.3830375369e+00 -4.1275420903e+00 2.3830375369e+00 4.1275420903e+00 
63600 5.5933784292e+00 -2.0778846743e-04 2.3830419848e+00 -4.1275497943e+00 2.3830419848e+00 4.1275497943e+00 
63700 5.5933784053e+00 -2.0365960861e-04 2.3830463446e+00 -4.1275573456e+00 2.3830463446e+00 4.1275573456e+00 
63800 5.5933783829e+00 -1.9960201730e-04 2.3830506177e+00 -4.1275647468e+00 2.3830506177e+00 4.1275647468e+00 
63900 5.5933783617e+00 -1.9561446615e-04 2.3830548056e+00 -4.1275720005e+00 2.3830548056e+00 4.1275720005e+00 
64000 5.5933783418e+00 -1.9169575011e-04 2.3830589099e+00 -4.1275791094e+00 2.3830589099e+00 4.1275791094e+00 
64100 5.5933783232e+00 -1.8784468610e-04 2.3830629319e+00 -4.1275860758e+00 2.3830629319e+00 4.1275860758e+00 
64200 5.5933783057e+00 -1.8406011262e-04 2.3830668732e+00 -4.1275929022e+00 2.3830668732e+00 4.1275929022e+00 
64300 5.5933782894e+00 -1.8034088935e-04 2.3830707350e+00 -4.1275995911e+00 2.3830707350e+00 4.1275995911e+00 
64400 5.5933782742e+00 -1.7668589682e-04 2.3830745188e+00 -4.1276061448e+00 2.3830745188e+00 4.1276061448e+00 
64500 5.5933782601e+00 -1.7309403603e-04 2.3830782259e+00 -4.1276125657e+00 2.3830782259e+00 4.1276125657e+00 
64600 5.5933782470e+00 -1.6956422809e-04 2.3830818577e+00 -4.1276188560e+00 2.3830818577e+00 4.1276188560e+00 
64700 5.5933782350e+00 -1.6609541386e-04 2.3830854153e+00 -4.1276250181e+00 2.3830854153e+00 4.1276250181e+00 
64800 5.5933782240e+00 -1.6268655363e-04 2.3830889002e+00 -4.1276310541e+00 2.3830889002e+00 4.1276310541e+00 
64900 5.5933782139e+00 -1.5933662674e-04 2.3830923136e+00 -4.1276369662e+00 2.3830923136e+00 4.1276369662e+00 
65000 5.5933782047e+00 -1.5604463124e-04 2.3830956566e+00 -4.1276427566e+00 2.3830956566e+00 4.1276427566e+00 
65100 5.5933781964e+00 -1.5280958359e-04 2.3830989306e+00 -4.1276484273e+00 2.3830989306e+00 4.1276484273e+00 
65200 5.5933781890e+00 -1.4963051826e-04 2.3831021367e+00 -4.1276539804e+00 2.3831021367e+00 4.1276539804e+00 
65300 5.5933781824e+00 -1.4650648747e-04 2.3831052761e+00 -4.1276594180e+00 2.3831052761e+00 4.1276594180e+00 
65400 5.5933781766e+00 -1.4343656082e-04 2.3831083500e+00 -4.1276647421e+00 2.3831083500e+00 4.1276647421e+00 
65500 5.5933781717e+00 -1.4041982499e-04 2.3831113594e+00 -4.1276699546e+00 2.3831113594e+00 4.1276699546e+00 
65600 5.5933781674e+00 -1.3745538340e-04 2.3831143056e+00 -4.1276750575e+00 2.3831143056e+00 4.1276750575e+00 
65700 5.5933781639e+00 -1.3454235592e-04 2.3831171895e+00 -4.1276800526e+00 2.3831171895e+00 4.1276800526e+00 
65800 5.5933781611e+00 -1.3167987857e-04 2.3831200123e+00 -4.1276849419e+00 2.3831200123e+00 4.1276849419e+00 
65900 5.5933781590e+00 -1.2886710318e-04 2.3831227751e+00 -4.1276897272e+00 2.3831227751e+00 4.1276897272e+00 
66000 5.5933781575e+00 -1.2610319711e-04 2.3831254789e+00 -4.1276944102e+00 2.3831254789e+00 4.1276944102e+00 
66100 5.5933781567e+00 -1.2338734298e-04 2.3831281246e+00 -4.1276989928e+00 2.3831281246e+00 4.1276989928e+00 
66200 5.5933781565e+00 -1.2071873832e-04 2.3831307134e+00 -4.1277034766e+00 2.3831307134e+00 4.1277034766e+00 
66300 5.5933781569e+00 -1.1809659534e-04 2.3831332462e+00 -4.1277078635e+00 2.3831332462e+00 4.1277078635e+00 
66400 5.5933781578e+00 -1.1552014061e-04 2.3831357239e+00 -4.1277121551e+00 2.3831357239e+00 4.1277121551e+00 
66500 5.5933781593e+00 -1.1298861482e-04 2.3831381476e+00 -4.1277163531e+00 2.3831381476e+00 4.1277163531e+00 
66600 5.5933781614e+00 -1.1050127245e-04 2.3831405182e+00 -4.1277204591e+00 2.3831405182e+00 4.1277204591e+00 
66700 5.5933781639e+00 -1.0805738155e-04 2.3831428366e+00 -4.1277244747e+00 2.3831428366e+00 4.1277244747e+00 
66800 5.5933781669e+00 -1.0565622345e-04 2.3831451037e+00 -4.1277284014e+00 2.3831451037e+00 4.1277284014e+00 
66900 5.5933781704e+00 -1.0329709249e-04 2.3831473205e+00 -4.1277322409e+00 2.3831473205e+00 4.1277322409e+00 
67000 5.5933781744e+00 -1.0097929581e-04 2.3831494877e+00 -4.1277359947e+00 2.3831494877e+00 4.1277359947e+00 
67100 5.5933781788e+00 -9.8702153038e-05 2.3831516063e+00 -4.1277396643e+00 2.3831516063e+00 4.1277396643e+00 
67200 5.5933781836e+00 -9.6464996066e-05 2.3831536771e+00 -4.1277432510e+00 2.3831536771e+00 4.1277432510e+00 
67300 5.5933781888e+00 -9.4267168807e-05 2.3831557010e+00 -4.1277467565e+00 2.3831557010e+00 4.1277467565e+00 
67400 5.5933781945e+00 -9.2108026957e-05 2.3831576788e+00 -4.1277501821e+00 2.3831576788e+00 4.1277501821e+00 
67500 5.5933782004e+00 -8.9986937751e-05 2.3831596113e+00 -4.1277535293e+00 2.3831596113e+00 4.1277535293e+00 
67600 5.5933782068e+00 -8.7903279728e-05 2.3831614993e+00 -4.1277567994e+00 2.3831614993e+00 4.1277567994e+00 
67700 5.5933782135e+00 -8.5856442511e-05 2.3831633435e+00 -4.1277599937e+00 2.3831633435e+00 4.1277599937e+00 
67800 5.5933782205e+00 -8.3845826576e-05 2.3831651448e+00 -4.1277631137e+00 2.3831651448e+00 4.1277631137e+00 
67900 5.5933782279e+00 -8.1870843032e-05 2.3831669040e+00 -4.1277661606e+00 2.3831669040e+00 4.1277661606e+00 
68000 5.5933782355e+00 -7.9930913408e-05 2.3831686217e+00 -4.1277691357e+00 2.3831686217e+00 4.1277691357e+00 
68100 5.5933782434e+00 -7.8025469436e-05 2.3831702986e+00 -4.1277720403e+00 2.3831702986e+00 4.1277720403e+00 
68200 5.5933782516e+00 -7.6153952844e-05 2.3831719357e+00 -4.1277748757e+00 2.3831719357e+00 4.1277748757e+00 
68300 5.5933782601e+00 -7.4315815152e-05 2.3831735334e+00 -4.1277776431e+00 2.3831735334e+00 4.1277776431e+00 
68400 5.5933782689e+00 -7.2510517467e-05 2.3831750926e+00 -4.1277803437e+00 2.3831750926e+00 4.1277803437e+00 
68500 5.5933782778e+00 -7.0737530293e-05 2.3831766139e+00 -4.1277829786e+00 2.3831766139e+00 4.1277829786e+00 
68600 5.5933782870e+00 -6.8996333325e-05 2.3831780980e+00 -4.1277855492e+00 2.3831780980e+00 4.1277855492e+00 
68700 5.5933782965e+00 -6.8606474211e-05 2.3831780980e+00 -4.1277855492e+00 2.3831780980e+00 4.1277855492e+00 
68800 5.5933783062e+00 -6.8224109389e-05 2.3831780980e+00 -4.1277855492e+00 2.3831780980e+00 4.1277855492e+00 
68900 5.5933783161e+00 -6.7848988479e-05 2.3831780980e+00 -4.1277855492e+00 2.3831780980e+00 4.1277855492e+00 
69000 5.5933783262e+00 -6.7480864357e-05 2.3831780980e+00 -4.1277855492e+00 2.3831780980e+00 4.1277855492e+00 
69100 5.5933783365e+00 -6.7119493271e-05 2.3831780980e+00 -4.1277855492e+00 2.3831780980e+00 4.1277855492e+00 
69200 5.5933783469e+00 -6.6764634948e-05 2.3831780980e+00 -4.1277855492e+00 2.3831780980e+00 4.1277855492e+00 
69300 5.5933783575e+00 -6.6416052692e-05 2.3831780980e+00 -4.1277855492e+00 2.3831780980e+00 4.1277855492e+00 
69400 5.5933783682e+00 -6.6073513489e-05 2.3831780980e+00 -4.1277855492e+00 2.3831780980e+00 4.1277855492e+00 
69500 5.5933783791e+00 -6.5736788093e-05 2.3831780980e+00 -4.1277855492e+00 2.3831780980e+00 4.1277855492e+00 
69600 5.5933783901e+00 -6.5405651114e-05 2.3831780980e+00 -4.1277855492e+00 2.3831780980e+00 4.1277855492e+00 
69700 5.5933784012e+00 -6.5079881099e-05 2.3831780980e+00 -4.1277855492e+00 2.3831780980e+00 4.1277855492e+00 
69800 5.5933784124e+00 -6.4759260599e-05 2.3831780980e+00 -4.1277855492e+00 2.3831780980e+00 4.1277855492e+00 
69900 5.5933784238e+00 -6.4443576236e-05 2.3831780980e+00 -4.1277855492e+00 2.3831780980e+00 4.1277855492e+00 
70000 5.5933784352e+00 -6.4132618759e-05 2.3831780980e+00 -4.1277855492e+00 2.3831780980e+00 4.1277855492e+00 
70100 5.5933784467e+00 -6.3826183102e-05 2.3831780980e+00 -4.1277855492e+00 2.3831780980e+00 4.1277855492e+00 
70200 5.5933784584e+00 -6.3524068421e-05 2.3831780980e+00 -4.1277855492e+00 2.3831780980e+00 4.1277855492e+00 
70300 5.5933784701e+00 -6.3226078135e-05 2.3831780980e+00 -4.1277855492e+00 2.3831780980e+00 4.1277855492e+00 
70400 5.5933784819e+00 -6.2932019962e-05 2.3831780980e+00 -4.1277855492e+00 2.3831780980e+00 4.1277855492e+00 
70500 5.5933784937e+00 -6.2641705941e-05 2.3831780980e+00 -4.1277855492e+00 2.3831780980e+00 4.1277855492e+00 
70600 5.5933785056e+00 -6.2354952458e-05 2.3831780980e+00 -4.1277855492e+00 2.3831780980e+00 4.1277855492e+00 
70700 5.5933785176e+00 -6.2071580257e-05 2.3831780980e+00 -4.1277855492e+00 2.3831780980e+00 4.1277855492e+00 
70800 5.5933785296e+00 -6.1791414453e-05 2.3831780980e+00 -4.1277855492e+00 2.3831780980e+00 4.1277855492e+00 
70900 5.5933785416e+00 -6.1514284539e-05 2.3831780980e+00 -4.1277855492e+00 2.3831780980e+00 4.1277855492e+00 
71000 5.5933785537e+00 -6.1240024385e-05 2.3831780980e+00 -4.1277855492e+00 2.3831780980e+00 4.1277855492e+00 
71100 5.5933785658e+00 -6.0968472234e-05 2.3831780980e+00 -4.1277855492e+00 2.3831780980e+00 4.1277855492e+00 
71200 5.5933785780e+00 -6.0699470695e-05 2.3831780980e+00 -4.1277855492e+00 2.3831780980e+00 4.1277855492e+00 
71300 5.5933785902e+00 -6.0432866732e-05 2.3831780980e+00 -4.1277855492e+00 2.3831780980e+00 4.1277855492e+00 
71400 5.5933786024e+00 -6.0168511647e-05 2.3831780980e+00 -4.1277855492e+00 2.3831780980e+00 4.1277855492e+00 
71500 5.5933786146e+00 -5.9906261058e-05 2.3831780980e+00 -4.1277855492e+00 2.3831780980e+00 4.1277855492e+00 
71600 5.5933786268e+00 -5.9645974880e-05 2.3831780980e+00 -4.1277855492e+00 2.3831780980e+00 4.1277855492e+00 
71700 5.5933786391e+00 -5.9387517298e-05 2.3831780980e+00 -4.1277855492e+00 2.3831780980e+00 4.1277855492e+00 
71800 5.5933786513e+00 -5.9130756734e-05 2.3831780980e+00 -4.1277855492e+00 2.3831780980e+00 4.1277855492e+00 
71900 5.5933786635e+00 -5.8875565812e-05 2.3831780980e+00 -4.1277855492e+00 2.3831780980e+00 4.1277855492e+00 
72000 5.5933786758e+00 -5.8621821334e-05 2.3831780980e+00 -4.1277855492e+00 2.3831780980e+00 4.1277855492e+00 
72100 5.5933786880e+00 -5.8369404229e-05 2.3831780980e+00 -4.1277855492e+00 2.3831780980e+00 4.1277855492e+00 
72200 5.5933787002e+00 -5.8118199516e-05 2.3831780980e+00 -4.1277855492e+00 2.3831780980e+00 4.1277855492e+00 
72300 5.5933787124e+00 -5.7868096265e-05 2.3831780980e+00 -4.1277855492e+00 2.3831780980e+00 4.1277855492e+00 
72400 5.5933787246e+00 -5.7618987547e-05 2.3831780980e+00 -4.1277855492e+00 2.3831780980e+00 4.1277855492e+00 
72500 5.5933787367e+00 -5.7370770387e-05 2.3831780980e+00 -4.1277855492e+00 2.3831780980e+00 4.1277855492e+00 
72600 5.5933787488e+00 -5.7123345715e-05 2.3831780980e+00 -4.1277855492e+00 2.3831780980e+00 4.1277855492e+00 
72700 5.5933787609e+00 -5.6876618316e-05 2.3831780980e+00 -4.1277855492e+00 2.3831780980e+00 4.1277855492e+00 
72800 5.5933787730e+00 -5.6630496774e-05 2.3831780980e+00 -4.1277855492e+00 2.3831780980e+00 4.1277855492e+00 
72900 5.5933787850e+00 -5.6384893419e-05 2.3831780980e+00 -4.1277855492e+00 2.3831780980e+00 4.1277855492e+00 
73000 5.5933787970e+00 -5.6139724271e-05 2.3831780980e+00 -4.1277855492e+00 2.3831780980e+00 4.1277855492e+00 
73100 5.5933788090e+00 -5.5894908983e-05 2.3831780980e+00 -4.1277855492e+00 2.3831780980e+00 4.1277855492e+00 
73200 5.5933788209e+00 -5.5650370781e-05 2.3831780980e+00 -4.1277855492e+00 2.3831780980e+00 4.1277855492e+00 
73300 5.5933788328e+00 -5.5406036403e-05 2.3831780980e+00 -4.1277855492e+00 2.3831780980e+00 4.1277855492e+00 
73400 5.5933788446e+00 -5.5161836043e-05 2.3831780980e+00 -4.1277855492e+00 2.3831780980e+00 4.1277855492e+00 
73500 5.5933788564e+00 -5.4917703285e-05 2.3831780980e+00 -4.1277855492e+00 2.3831780980e+00 4.1277855492e+00 
73600 5.5933788682e+00 -5.4673575039e-05 2.3831780980e+00 -4.1277855492e+00 2.3831780980e+00 4.1277855492e+00 
73700 5.5933788798e+00 -5.4429391485e-05 2.3831780980e+00 -4.1277855492e+00 2.3831780980e+00 4.1277855492e+00 
73800 5.5933788915e+00 -5.4185096001e-05 2.3831780980e+00 -4.1277855492e+00 2.3831780980e+00 4.1277855492e+00 
73900 5.5933789031e+00 -5.3940635103e-05 2.3831780980e+00 -4.1277855492e+00 2.3831780980e+00 4.1277855492e+00 
74000 5.5933789146e+00 -5.3695958377e-05 2.3831780980e+00 -4.1277855492e+00 2.3831780980e+00 4.1277855492e+00 
74100 5.5933789260e+00 -5.3451018420e-05 2.3831780980e+00 -4.1277855492e+00 2.3831780980e+00 4.1277855492e+00 
74200 5.5933789374e+00 -5.3205770767e-05 2.3831780980e+00 -4.1277855492e+00 2.3831780980e+00 4.1277855492e+00 
74300 5.5933789488e+00 -5.2960173827e-05 2.3831780980e+00 -4.1277855492e+00 2.3831780980e+00 4.1277855492e+00 
74400 5.5933789601e+00 -5.2714188824e-05 2.3831780980e+00 -4.1277855492e+00 2.3831780980e+00 4.1277855492e+00 
74500 5.5933789713e+00 -5.2467779718e-05 2.3831780980e+00 -4.1277855492e+00 2.3831780980e+00 4.1277855492e+00 
74600 5.5933789824e+00 -5.2220913150e-05 2.3831780980e+00 -4.1277855492e+00 2.3831780980e+00 4.1277855492e+00 
74700 5.5933789935e+00 -5.1973558371e-05 2.3831780980e+00 -4.1277855492e+00 2.3831780980e+00 4.1277855492e+00 
74800 5.5933790045e+00 -5.1725687178e-05 2.3831780980e+00 -4.1277855492e+00 2.3831780980e+00 4.1277855492e+00 
74900 5.5933790155e+00 -5.1477273846e-05 2.3831780980e+00 -4.1277855492e+00 2.3831780980e+00 4.1277855492e+00 
75000 5.5933790263e+00 -5.1228295063e-05 2.3831780980e+00 -4.1277855492e+00 2.3831780980e+00 4.1277855492e+00 
75100 5.5933790371e+00 -5.0978729868e-05 2.3831780980e+00 -4.1277855492e+00 2.3831780980e+00 4.1277855492e+00 
75200 5.5933790479e+00 -5.0728559578e-05 2.3831780980e+00 -4.1277855492e+00 2.3831780980e+00 4.1277855492e+00 
75300 5.5933790585e+00 -5.0477767734e-05 2.3831780980e+00 -4.1277855492e+00 2.3831780980e+00 4.1277855492e+00 
75400 5.5933790691e+00 -5.0226340027e-05 2.3831780980e+00 -4.1277855492e+00 2.3831780980e+00 4.1277855492e+00 
75500 5.5933790796e+00 -4.9974264240e-05 2.3831780980e+00 -4.1277855492e+00 2.3831780980e+00 4.1277855492e+00 
75600 5.5933790901e+00 -4.9721530181e-05 2.3831780980e+00 -4.1277855492e+00 2.3831780980e+00 4.1277855492e+00 
75700 5.5933791005e+00 -4.9468129625e-05 2.3831780980e+00 -4.1277855492e+00 2.3831780980e+00 4.1277855492e+00 
75800 5.5933791107e+00 -4.9214056247e-05 2.3831780980e+00 -4.1277855492e+00 2.3831780980e+00 4.1277855492e+00 
75900 5.5933791210e+00 -4.8959305562e-05 2.3831780980e+00 -4.1277855492e+00 2.3831780980e+00 4.1277855492e+00 
76000 5.5933791311e+00 -4.8703874863e-05 2.3831780980e+00 -4.1277855492e+00 2.3831780980e+00 4.1277855492e+00 
76100 5.5933791411e+00 -4.8447763164e-05 2.3831780980e+00 -4.1277855492e+00 2.3831780980e+00 4.1277855492e+00 
76200 5.5933791511e+00 -4.8190971137e-05 2.3831780980e+00 -4.1277855492e+00 2.3831780980e+00 4.1277855492e+00 
76300 5.5933791610e+00 -4.7933501051e-05 2.3831780980e+00 -4.1277855492e+00 2.3831780980e+00 4.1277855492e+00 
76400 5.5933791709e+00 -4.7675356720e-05 2.3831780980e+00 -4.1277855492e+00 2.3831780980e+00 4.1277855492e+00 
76500 5.5933791806e+00 -4.7416543441e-05 2.3831780980e+00 -4.1277855492e+00 2.3831780980e+00 4.1277855492e+00 
76600 5.5933791903e+00 -4.7157067938e-05 2.3831780980e+00 -4.1277855492e+00 2.3831780980e+00 4.1277855492e+00 
76700 5.5933791999e+00 -4.6896938306e-05 2.3831780980e+00 -4.1277855492e+00 2.3831780980e+00 4.1277855492e+00 
76800 5.5933792094e+00 -4.6636163958e-05 2.3831780980e+00 -4.1277855492e+00 2.3831780980e+00 4.1277855492e+00 
76900 5.5933792188e+00 -4.6374755567e-05 2.3831780980e+00 -4.1277855492e+00 2.3831780980e+00 4.1277855492e+00 
77000 5.5933792281e+00 -4.6112725015e-05 2.3831780980e+00 -4.1277855492e+00 2.3831780980e+00 4.1277855492e+00 
77100 5.5933792374e+00 -4.5850085341e-05 2.3831780980e+00 -4.1277855492e+00 2.3831780980e+00 4.1277855492e+00 
77200 5.5933792466e+00 -4.5586850690e-05 2.3831780980e+00 -4.1277855492e+00 2.3831780980e+00 4.1277855492e+00 
77300 5.5933792557e+00 -4.5323036255e-05 2.3831780980e+00 -4.1277855492e+00 2.3831780980e+00 4.1277855492e+00 
77400 5.5933792647e+00 -4.5058658239e-05 2.3831780980e+00 -4.1277855492e+00 2.3831780980e+00 4.1277855492e+00 
77500 5.5933792737e+00 -4.4793733796e-05 2.3831780980e+00 -4.1277855492e+00 2.3831780980e+00 4.1277855492e+00 
77600 5.5933792825e+00 -4.4528280990e-05 2.3831780980e+00 -4.1277855492e+00 2.3831780980e+00 4.1277855492e+00 
77700 5.5933792913e+00 -4.4262318741e-05 2.3831780980e+00 -4.1277855492e+00 2.3831780980e+00 4.1277855492e+00 
77800 5.5933793000e+00 -4.3995866786e-05 2.3831780980e+00 -4.1277855492e+00 2.3831780980e+00 4.1277855492e+00 
77900 5.5933793086e+00 -4.3728945628e-05 2.3831780980e+00 -4.1277855492e+00 2.3831780980e+00 4.1277855492e+00 
78000 5.5933793172e+00 -4.3461576497e-05 2.3831780980e+00 -4.1277855492e+00 2.3831780980e+00 4.1277855492e+00 
78100 5.5933793256e+00 -4.3193781300e-05 2.3831780980e+00 -4.1277855492e+00 2.3831780980e+00 4.1277855492e+00 
78200 5.5933793340e+00 -4.2925582587e-05 2.3831780980e+00 -4.1277855492e+00 2.3831780980e+00 4.1277855492e+00 
78300 5.5933793423e+00 -4.2657003499e-05 2.3831780980e+00 -4.1277855492e+00 2.3831780980e+00 4.1277855492e+00 
78400 5.5933793505e+00 -4.2388067741e-05 2.3831780980e+00 -4.1277855492e+00 2.3831780980e+00 4.1277855492e+00 
78500 5.5933793587e+00 -4.2118799529e-05 2.3831780980e+00 -4.1277855492e+00 2.3831780980e+00 4.1277855492e+00 
78600 5.5933793668e+00 -4.1849223561e-05 2.3831780980e+00 -4.1277855492e+00 2.3831780980e+00 4.1277855492e+00 
78700 5.5933793747e+00 -4.1579364974e-05 2.3831780980e+00 -4.1277855492e+00 2.3831780980e+00 4.1277855492e+00 
78800 5.5933793827e+00 -4.1309249308e-05 2.3831780980e+00 -4.1277855492e+00 2.3831780980e+00 4.1277855492e+00 
78900 5.5933793905e+00 -4.1038902478e-05 2.3831780980e+00 -4.1277855492e+00 2.3831780980e+00 4.1277855492e+00 
79000 5.5933793982e+00 -4.0768350723e-05 2.3831780980e+00 -4.1277855492e+00 2.3831780980e+00 4.1277855492e+00 
79100 5.5933794059e+00 -4.0497620588e-05 2.3831780980e+00 -4.1277855492e+00 2.3831780980e+00 4.1277855492e+00 
79200 5.5933794135e+00 -4.0226738885e-05 2.3831780980e+00 -4.1277855492e+00 2.3831780980e+00 4.1277855492e+00 
79300 5.5933794210e+00 -3.9955732657e-05 2.3831780980e+00 -4.1277855492e+00 2.3831780980e+00 4.1277855492e+00 
79400 5.5933794285e+00 -3.9684629156e-05 2.3831780980e+00 -4.1277855492e+00 2.3831780980e+00 4.1277855492e+00 
79500 5.5933794358e+00 -3.9413455801e-05 2.3831780980e+00 -4.1277855492e+00 2.3831780980e+00 4.1277855492e+00 
79600 5.5933794431e+00 -3.9142240158e-05 2.3831780980e+00 -4.1277855492e+00 2.3831780980e+00 4.1277855492e+00 
79700 5.5933794503e+00 -3.8871009912e-05 2.3831780980e+00 -4.1277855492e+00 2.3831780980e+00 4.1277855492e+00 
79800 5.5933794575e+00 -3.8599792832e-05 2.3831780980e+00 -4.1277855492e+00 2.3831780980e+00 4.1277855492e+00 
79900 5.5933794646e+00 -3.8328616748e-05 2.3831780980e+00 -4.1277855492e+00 2.3831780980e+00 4.1277855492e+00 
80000 5.5933794715e+00 -3.8057509529e-05 2.3831780980e+00 -4.1277855492e+00 2.3831780980e+00 4.1277855492e+00 
80100 5.5933794785e+00 -3.7786499054e-05 2.3831780980e+00 -4.1277855492e+00 2.3831780980e+00 4.1277855492e+00 
80200 5.5933794853e+00 -3.7515613185e-05 2.3831780980e+00 -4.1277855492e+00 2.3831780980e+00 4.1277855492e+00 
80300 5.5933794921e+00 -3.7244879750e-05 2.3831780980e+00 -4.1277855492e+00 2.3831780980e+00 4.1277855492e+00 
80400 5.5933794988e+00 -3.6974326518e-05 2.3831780980e+00 -4.1277855492e+00 2.3831780980e+00 4.1277855492e+00 
80500 5.5933795054e+00 -3.6703981177e-05 2.3831780980e+00 -4.1277855492e+00 2.3831780980e+00 4.1277855492e+00 
80600 5.5933795119e+00 -3.6433871313e-05 2.3831780980e+00 -4.1277855492e+00 2.3831780980e+00 4.1277855492e+00 
80700 5.5933795184e+00 -3.6164024389e-05 2.3831780980e+00 -4.1277855492e+00 2.3831780980e+00 4.1277855492e+00 
80800 5.5933795248e+00 -3.5894467728e-05 2.3831780980e+00 -4.1277855492e+00 2.3831780980e+00 4.1277855492e+00 
80900 5.5933795312e+00 -3.5625228495e-05 2.3831780980e+00 -4.1277855492e+00 2.3831780980e+00 4.1277855492e+00 
81000 5.5933795375e+00 -3.5356333674e-05 2.3831780980e+00 -4.1277855492e+00 2.3831780980e+00 4.1277855492e+00 
81100 5.5933795437e+00 -3.5087810056e-05 2.3831780980e+00 -4.1277855492e+00 2.3831780980e+00 4.1277855492e+00 
81200 5.5933795498e+00 -3.4819684223e-05 2.3831780980e+00 -4.1277855492e+00 2.3831780980e+00 4.1277855492e+00 
81300 5.5933795558e+00 -3.4551982528e-05 2.3831780980e+00 -4.1277855492e+00 2.3831780980e+00 4.1277855492e+00 
81400 5.5933795618e+00 -3.4284731084e-05 2.3831780980e+00 -4.1277855492e+00 2.3831780980e+00 4.1277855492e+00 
81500 5.5933795678e+00 -3.4017955749e-05 2.3831780980e+00 -4.1277855492e+00 2.3831780980e+00 4.1277855492e+00 
81600 5.5933795736e+00 -3.3751682110e-05 2.3831780980e+00 -4.1277855492e+00 2.3831780980e+00 4.1277855492e+00 
81700 5.5933795794e+00 -3.3485935473e-05 2.3831780980e+00 -4.1277855492e+00 2.3831780980e+00 4.1277855492e+00 
81800 5.5933795852e+00 -3.3220740850e-05 2.3831780980e+00 -4.1277855492e+00 2.3831780980e+00 4.1277855492e+00 
81900 5.5933795908e+00 -3.2956122949e-05 2.3831780980e+00 -4.1277855492e+00 2.3831780980e+00 4.1277855492e+00 
82000 5.5933795964e+00 -3.2692106155e-05 2.3831780980e+00 -4.1277855492e+00 2.3831780980e+00 4.1277855492e+00 
82100 5.5933796020e+00 -3.2428714535e-05 2.3831780980e+00 -4.1277855492e+00 2.3831780980e+00 4.1277855492e+00 
82200 5.5933796074e+00 -3.2165971811e-05 2.3831780980e+00 -4.1277855492e+00 2.3831780980e+00 4.1277855492e+00 
82300 5.5933796128e+00 -3.1903901363e-05 2.3831780980e+00 -4.1277855492e+00 2.3831780980e+00 4.1277855492e+00 
82400 5.5933796182e+00 -3.1642526215e-05 2.3831780980e+00 -4.1277855492e+00 2.3831780980e+00 4.1277855492e+00 
82500 5.5933796235e+00 -3.1381869029e-05 2.3831780980e+00 -4.1277855492e+00 2.3831780980e+00 4.1277855492e+00 
82600 5.5933796287e+00 -3.1121952096e-05 2.3831780980e+00 -4.1277855492e+00 2.3831780980e+00 4.1277855492e+00 
82700 5.5933796338e+00 -3.0862797329e-05 2.3831780980e+00 -4.1277855492e+00 2.3831780980e+00 4.1277855492e+00 
82800 5.5933796389e+00 -3.0604426259e-05 2.3831780980e+00 -4.1277855492e+00 2.3831780980e+00 4.1277855492e+00 
82900 5.5933796440e+00 -3.0346860026e-05 2.3831780980e+00 -4.1277855492e+00 2.3831780980e+00 4.1277855492e+00 
83000 5.5933796489e+00 -3.0090119373e-05 2.3831780980e+00 -4.1277855492e+00 2.3831780980e+00 4.1277855492e+00 
83100 5.5933796539e+00 -2.9834224647e-05 2.3831780980e+00 -4.1277855492e+00 2.3831780980e+00 4.1277855492e+00 
83200 5.5933796587e+00 -2.9579195788e-05 2.3831780980e+00 -4.1277855492e+00 2.3831780980e+00 4.1277855492e+00 
83300 5.5933796635e+00 -2.9325052325e-05 2.3831780980e+00 -4.1277855492e+00 2.3831780980e+00 4.1277855492e+00 
83400 5.5933796683e+00 -2.9071813377e-05 2.3831780980e+00 -4.1277855492e+00 2.3831780980e+00 4.1277855492e+00 
83500 5.5933796730e+00 -2.8819497647e-05 2.3831780980e+00 -4.1277855492e+00 2.3831780980e+00 4.1277855492e+00 
83600 5.5933796776e+00 -2.8568123419e-05 2.3831780980e+00 -4.1277855492e+00 2.3831780980e+00 4.1277855492e+00 
83700 5.5933796822e+00 -2.8317708556e-05 2.3831780980e+00 -4.1277855492e+00 2.3831780980e+00 4.1277855492e+00 
83800 5.5933796867e+00 -2.8068270497e-05 2.3831780980e+00 -4.1277855492e+00 2.3831780980e+00 4.1277855492e+00 
83900 5.5933796911e+00 -2.7819826258e-05 2.3831780980e+00 -4.1277855492e+00 2.3831780980e+00 4.1277855492e+00 
84000 5.5933796956e+00 -2.7572392429e-05 2.3831780980e+00 -4.1277855492e+00 2.3831780980e+00 4.1277855492e+00 
84100 5.5933796999e+00 -2.7325985170e-05 2.3831780980e+00 -4.1277855492e+00 2.3831780980e+00 4.1277855492e+00 
84200 5.5933797042e+00 -2.7080620219e-05 2.3831780980e+00 -4.1277855492e+00 2.3831780980e+00 4.1277855492e+00 
84300 5.5933797085e+00 -2.6836312881e-05 2.3831780980e+00 -4.1277855492e+00 2.3831780980e+00 4.1277855492e+00 
84400 5.5933797127e+00 -2.6593078037e-05 2.3831780980e+00 -4.1277855492e+00 2.3831780980e+00 4.1277855492e+00 
84500 5.5933797168e+00 -2.6350930140e-05 2.3831780980e+00 -4.1277855492e+00 2.3831780980e+00 4.1277855492e+00 
84600 5.5933797209e+00 -2.6109883215e-05 2.3831780980e+00 -4.1277855492e+00 2.3831780980e+00 4.1277855492e+00 
84700 5.5933797249e+00 -2.5869950862e-05 2.3831780980e+00 -4.1277855492e+00 2.3831780980e+00 4.1277855492e+00 
84800 5.5933797289e+00 -2.5631146258e-05 2.3831780980e+00 -4.1277855492e+00 2.3831780980e+00 4.1277855492e+00 
84900 5.5933797329e+00 -2.5393482156e-05 2.3831780980e+00 -4.1277855492e+00 2.3831780980e+00 4.1277855492e+00 
85000 5.5933797368e+00 -2.5156970886e-05 2.3831780980e+00 -4.1277855492e+00 2.3831780980e+00 4.1277855492e+00 
85100 5.5933797406e+00 -2.4921624364e-05 2.3831780980e+00 -4.1277855492e+00 2.3831780980e+00 4.1277855492e+00 
85200 5.5933797444e+00 -2.4687454083e-05 2.3831780980e+00 -4.1277855492e+00 2.3831780980e+00 4.1277855492e+00 
85300 5.5933797482e+00 -2.4454471128e-05 2.3831780980e+00 -4.1277855492e+00 2.3831780980e+00 4.1277855492e+00 
85400 5.5933797519e+00 -2.4222686165e-05 2.3831780980e+00 -4.1277855492e+00 2.3831780980e+00 4.1277855492e+00 
85500 5.5933797555e+00 -2.3992109457e-05 2.3831780980e+00 -4.1277855492e+00 2.3831780980e+00 4.1277855492e+00 
85600 5.5933797591e+00 -2.3762750861e-05 2.3831780980e+00 -4.1277855492e+00 2.3831780980e+00 4.1277855492e+00 
85700 5.5933797627e+00 -2.3534619827e-05 2.3831780980e+00 -4.1277855492e+00 2.3831780980e+00 4.1277855492e+00 
85800 5.5933797662e+00 -2.3307725410e-05 2.3831780980e+00 -4.1277855492e+00 2.3831780980e+00 4.1277855492e+00 
85900 5.5933797697e+00 -2.3082076268e-05 2.3831780980e+00 -4.1277855492e+00 2.3831780980e+00 4.1277855492e+00 
86000 5.5933797731e+00 -2.2857680667e-05 2.3831780980e+00 -4.1277855492e+00 2.3831780980e+00 4.1277855492e+00 
86100 5.5933797765e+00 -2.2634546487e-05 2.3831780980e+00 -4.1277855492e+00 2.3831780980e+00 4.1277855492e+00 
86200 5.5933797799e+00 -2.2412681223e-05 2.3831780980e+00 -4.1277855492e+00 2.3831780980e+00 4.1277855492e+00 
86300 5.5933797832e+00 -2.2192091988e-05 2.3831780980e+00 -4.1277855492e+00 2.3831780980e+00 4.1277855492e+00 
86400 5.5933797864e+00 -2.1972785528e-05 2.3831780980e+00 -4.1277855492e+00 2.3831780980e+00 4.1277855492e+00 
86500 5.5933797896e+00 -2.1754768207e-05 2.3831780980e+00 -4.1277855492e+00 2.3831780980e+00 4.1277855492e+00 
86600 5.5933797928e+00 -2.1538046032e-05 2.3831780980e+00 -4.1277855492e+00 2.3831780980e+00 4.1277855492e+00 
86700 5.5933797959e+00 -2.1322624644e-05 2.3831780980e+00 -4.1277855492e+00 2.3831780980e+00 4.1277855492e+00 
86800 5.5933797990e+00 -2.1108509328e-05 2.3831780980e+00 -4.1277855492e+00 2.3831780980e+00 4.1277855492e+00 
86900 5.5933798021e+00 -2.0895705019e-05 2.3831780980e+00 -4.1277855492e+00 2.3831780980e+00 4.1277855492e+00 
87000 5.5933798051e+00 -2.0684216302e-05 2.3831780980e+00 -4.1277855492e+00 2.3831780980e+00 4.1277855492e+00 
87100 5.5933798081e+00 -2.0474047423e-05 2.3831780980e+00 -4.1277855492e+00 2.3831780980e+00 4.1277855492e+00 
87200 5.5933798110e+00 -2.0265202289e-05 2.3831780980e+00 -4.1277855492e+00 2.3831780980e+00 4.1277855492e+00 
87300 5.5933798139e+00 -2.0057684477e-05 2.3831780980e+00 -4.1277855492e+00 2.3831780980e+00 4.1277855492e+00 
87400 5.5933798167e+00 -1.9851497235e-05 2.3831780980e+00 -4.1277855492e+00 2.3831780980e+00 4.1277855492e+00 
87500 5.5933798196e+00 -1.9646643496e-05 2.3831780980e+00 -4.1277855492e+00 2.3831780980e+00 4.1277855492e+00 
87600 5.5933798224e+00 -1.9443125868e-05 2.3831780980e+00 -4.1277855492e+00 2.3831780980e+00 4.1277855492e+00 
87700 5.5933798251e+00 -1.9240946656e-05 2.3831780980e+00 -4.1277855492e+00 2.3831780980e+00 4.1277855492e+00 
87800 5.5933798278e+00 -1.9040107857e-05 2.3831780980e+00 -4.1277855492e+00 2.3831780980e+00 4.1277855492e+00 
87900 5.5933798305e+00 -1.8840611168e-05 2.3831780980e+00 -4.1277855492e+00 2.3831780980e+00 4.1277855492e+00 
88000 5.5933798331e+00 -1.8642457993e-05 2.3831780980e+00 -4.1277855492e+00 2.3831780980e+00 4.1277855492e+00 
88100 5.5933798357e+00 -1.8445649446e-05 2.3831780980e+00 -4.1277855492e+00 2.3831780980e+00 4.1277855492e+00 
88200 5.5933798383e+00 -1.8250186360e-05 2.3831780980e+00 -4.1277855492e+00 2.3831780980e+00 4.1277855492e+00 
88300 5.5933798408e+00 -1.8056069287e-05 2.3831780980e+00 -4.1277855492e+00 2.3831780980e+00 4.1277855492e+00 
88400 5.5933798433e+00 -1.7863298509e-05 2.3831780980e+00 -4.1277855492e+00 2.3831780980e+00 4.1277855492e+00 
88500 5.5933798458e+00 -1.7671874042e-05 2.3831780980e+00 -4.1277855492e+00 2.3831780980e+00 4.1277855492e+00 
88600 5.5933798483e+00 -1.7481795638e-05 2.3831780980e+00 -4.1277855492e+00 2.3831780980e+00 4.1277855492e+00 
88700 5.5933798507e+00 -1.7293062796e-05 2.3831780980e+00 -4.1277855492e+00 2.3831780980e+00 4.1277855492e+00 
88800 5.5933798530e+00 -1.7105674764e-05 2.3831780980e+00 -4.1277855492e+00 2.3831780980e+00 4.1277855492e+00 
88900 5.5933798554e+00 -1.6919630544e-05 2.3831780980e+00 -4.1277855492e+00 2.3831780980e+00 4.1277855492e+00 
89000 5.5933798577e+00 -1.6734928900e-05 2.3831780980e+00 -4.1277855492e+00 2.3831780980e+00 4.1277855492e+00 
89100 5.5933798600e+00 -1.6551568364e-05 2.3831780980e+00 -4.1277855492e+00 2.3831780980e+00 4.1277855492e+00 
89200 5.5933798622e+00 -1.6369547235e-05 2.3831780980e+00 -4.1277855492e+00 2.3831780980e+00 4.1277855492e+00 
89300 5.5933798644e+00 -1.6188863595e-05 2.3831780980e+00 -4.1277855492e+00 2.3831780980e+00 4.1277855492e+00 
89400 5.5933798666e+00 -1.6009515303e-05 2.3831780980e+00 -4.1277855492e+00 2.3831780980e+00 4.1277855492e+00 
89500 5.5933798688e+00 -1.5831500009e-05 2.3831780980e+00 -4.1277855492e+00 2.3831780980e+00 4.1277855492e+00 
89600 5.5933798709e+00 -1.5654815155e-05 2.3831780980e+00 -4.1277855492e+00 2.3831780980e+00 4.1277855492e+00 
89700 5.5933798730e+00 -1.5479457982e-05 2.3831780980e+00 -4.1277855492e+00 2.3831780980e+00 4.1277855492e+00 
89800 5.5933798751e+00 -1.5305425536e-05 2.3831780980e+00 -4.1277855492e+00 2.3831780980e+00 4.1277855492e+00 
89900 5.5933798771e+00 -1.5132714667e-05 2.3831780980e+00 -4.1277855492e+00 2.3831780980e+00 4.1277855492e+00 
90000 5.5933798791e+00 -1.4961322045e-05 2.3831780980e+00 -4.1277855492e+00 2.3831780980e+00 4.1277855492e+00 
90100 5.5933798811e+00 -1.4791244155e-05 2.3831780980e+00 -4.1277855492e+00 2.3831780980e+00 4.1277855492e+00 
90200 5.5933798831e+00 -1.4622477308e-05 2.3831780980e+00 -4.1277855492e+00 2.3831780980e+00 4.1277855492e+00 
90300 5.5933798850e+00 -1.4455017644e-05 2.3831780980e+00 -4.1277855492e+00 2.3831780980e+00 4.1277855492e+00 
90400 5.5933798869e+00 -1.4288861137e-05 2.3831780980e+00 -4.1277855492e+00 2.3831780980e+00 4.1277855492e+00 
90500 5.5933798888e+00 -1.4124003598e-05 2.3831780980e+00 -4.1277855492e+00 2.3831780980e+00 4.1277855492e+00 
90600 5.5933798907e+00 -1.3960440688e-05 2.3831780980e+00 -4.1277855492e+00 2.3831780980e+00 4.1277855492e+00 
90700 5.5933798925e+00 -1.3798167908e-05 2.3831780980e+00 -4.1277855492e+00 2.3831780980e+00 4.1277855492e+00 
90800 5.5933798943e+00 -1.3637180621e-05 2.3831780980e+00 -4.1277855492e+00 2.3831780980e+00 4.1277855492e+00 
90900 5.5933798961e+00 -1.3477474040e-05 2.3831780980e+00 -4.1277855492e+00 2.3831780980e+00 4.1277855492e+00 
91000 5.5933798978e+00 -1.3319043250e-05 2.3831780980e+00 -4.1277855492e+00 2.3831780980e+00 4.1277855492e+00 
91100 5.5933798996e+00 -1.3161883194e-05 2.3831780980e+00 -4.1277855492e+00 2.3831780980e+00 4.1277855492e+00 
91200 5.5933799013e+00 -1.3005988694e-05 2.3831780980e+00 -4.1277855492e+00 2.3831780980e+00 4.1277855492e+00 
91300 5.5933799030e+00 -1.2851354444e-05 2.3831780980e+00 -4.1277855492e+00 2.3831780980e+00 4.1277855492e+00 
91400 5.5933799046e+00 -1.2697975021e-05 2.3831780980e+00 -4.1277855492e+00 2.3831780980e+00 4.1277855492e+00 
91500 5.5933799063e+00 -1.2545844885e-05 2.3831780980e+00 -4.1277855492e+00 2.3831780980e+00 4.1277855492e+00 
91600 5.5933799079e+00 -1.2394958387e-05 2.3831780980e+00 -4.1277855492e+00 2.3831780980e+00 4.1277855492e+00 
91700 5.5933799095e+00 -1.2245309770e-05 2.3831780980e+00 -4.1277855492e+00 2.3831780980e+00 4.1277855492e+00 
91800 5.5933799111e+00 -1.2096893176e-05 2.3831780980e+00 -4.1277855492e+00 2.3831780980e+00 4.1277855492e+00 
91900 5.5933799126e+00 -1.1949702646e-05 2.3831780980e+00 -4.1277855492e+00 2.3831780980e+00 4.1277855492e+00 
92000 5.5933799142e+00 -1.1803732130e-05 2.3831780980e+00 -4.1277855492e+00 2.3831780980e+00 4.1277855492e+00 
92100 5.5933799157e+00 -1.1658975484e-05 2.3831780980e+00 -4.1277855492e+00 2.3831780980e+00 4.1277855492e+00 
92200 5.5933799171e+00 -1.1515426480e-05 2.3831780980e+00 -4.1277855492e+00 2.3831780980e+00 4.1277855492e+00 
92300 5.5933799186e+00 -1.1373078806e-05 2.3831780980e+00 -4.1277855492e+00 2.3831780980e+00 4.1277855492e+00 
92400 5.5933799201e+00 -1.1231926069e-05 2.3831780980e+00 -4.1277855492e+00 2.3831780980e+00 4.1277855492e+00 
92500 5.5933799215e+00 -1.1091961803e-05 2.3831780980e+00 -4.1277855492e+00 2.3831780980e+00 4.1277855492e+00 
92600 5.5933799229e+00 -1.0953179469e-05 2.3831780980e+00 -4.1277855492e+00 2.3831780980e+00 4.1277855492e+00 
92700 5.5933799243e+00 -1.0815572460e-05 2.3831780980e+00 -4.1277855492e+00 2.3831780980e+00 4.1277855492e+00 
92800 5.5933799257e+00 -1.0679134102e-05 2.3831780980e+00 -4.1277855492e+00 2.3831780980e+00 4.1277855492e+00 
92900 5.5933799270e+00 -1.0543857663e-05 2.3831780980e+00 -4.1277855492e+00 2.3831780980e+00 4.1277855492e+00 
93000 5.5933799283e+00 -1.0409736348e-05 2.3831780980e+00 -4.1277855492e+00 2.3831780980e+00 4.1277855492e+00 
93100 5.5933799296e+00 -1.0276763310e-05 2.3831780980e+00 -4.1277855492e+00 2.3831780980e+00 4.1277855492e+00 
93200 5.5933799309e+00 -1.0144931649e-05 2.3831780980e+00 -4.1277855492e+00 2.3831780980e+00 4.1277855492e+00 
93300 5.5933799322e+00 -1.0014234415e-05 2.3831780980e+00 -4.1277855492e+00 2.3831780980e+00 4.1277855492e+00 
93400 5.5933799335e+00 -9.8846646152e-06 2.3831780980e+00 -4.1277855492e+00 2.3831780980e+00 4.1277855492e+00 
93500 5.5933799347e+00 -9.7562152106e-06 2.3831780980e+00 -4.1277855492e+00 2.3831780980e+00 4.1277855492e+00 
93600 5.5933799359e+00 -9.6288791232e-06 2.3831780980e+00 -4.1277855492e+00 2.3831780980e+00 4.1277855492e+00 
93700 5.5933799371e+00 -9.5026492380e-06 2.3831780980e+00 -4.1277855492e+00 2.3831780980e+00 4.1277855492e+00 
93800 5.5933799383e+00 -9.3775184063e-06 2.3831780980e+00 -4.1277855492e+00 2.3831780980e+00 4.1277855492e+00 
93900 5.5933799395e+00 -9.2534794464e-06 2.3831780980e+00 -4.1277855492e+00 2.3831780980e+00 4.1277855492e+00 
94000 5.5933799407e+00 -9.1305251486e-06 2.3831780980e+00 -4.1277855492e+00 2.3831780980e+00 4.1277855492e+00 
94100 5.5933799418e+00 -9.0086482754e-06 2.3831780980e+00 -4.1277855492e+00 2.3831780980e+00 4.1277855492e+00 
94200 5.5933799429e+00 -8.8878415671e-06 2.3831780980e+00 -4.1277855492e+00 2.3831780980e+00 4.1277855492e+00 
94300 5.5933799440e+00 -8.7680977398e-06 2.3831780980e+00 -4.1277855492e+00 2.3831780980e+00 4.1277855492e+00 
94400 5.5933799451e+00 -8.6494094938e-06 2.3831780980e+00 -4.1277855492e+00 2.3831780980e+00 4.1277855492e+00 
94500 5.5933799462e+00 -8.5317695100e-06 2.3831780980e+00 -4.1277855492e+00 2.3831780980e+00 4.1277855492e+00 
94600 5.5933799473e+00 -8.4151704567e-06 2.3831780980e+00 -4.1277855492e+00 2.3831780980e+00 4.1277855492e+00 
94700 5.5933799483e+00 -8.2996049878e-06 2.3831780980e+00 -4.1277855492e+00 2.3831780980e+00 4.1277855492e+00 
94800 5.5933799493e+00 -8.1850657482e-06 2.3831780980e+00 -4.1277855492e+00 2.3831780980e+00 4.1277855492e+00 
94900 5.5933799504e+00 -8.0715453739e-06 2.3831780980e+00 -4.1277855492e+00 2.3831780980e+00 4.1277855492e+00 
95000 5.5933799514e+00 -7.9590364975e-06 2.3831780980e+00 -4.1277855492e+00 2.3831780980e+00 4.1277855492e+00 
95100 5.5933799523e+00 -7.8475317435e-06 2.3831780980e+00 -4.1277855492e+00 2.3831780980e+00 4.1277855492e+00 
95200 5.5933799533e+00 -7.7370237374e-06 2.3831780980e+00 -4.1277855492e+00 2.3831780980e+00 4.1277855492e+00 
95300 5.5933799543e+00 -7.6275051037e-06 2.3831780980e+00 -4.1277855492e+00 2.3831780980e+00 4.1277855492e+00 
95400 5.5933799552e+00 -7.5189684674e-06 2.3831780980e+00 -4.1277855492e+00 2.3831780980e+00 4.1277855492e+00 
95500 5.5933799562e+00 -7.4114064574e-06 2.3831780980e+00 -4.1277855492e+00 2.3831780980e+00 4.1277855492e+00 
95600 5.5933799571e+00 -7.3048117089e-06 2.3831780980e+00 -4.1277855492e+00 2.3831780980e+00 4.1277855492e+00 
95700 5.5933799580e+00 -7.1991768609e-06 2.3831780980e+00 -4.1277855492e+00 2.3831780980e+00 4.1277855492e+00 
95800 5.5933799589e+00 -7.0944945637e-06 2.3831780980e+00 -4.1277855492e+00 2.3831780980e+00 4.1277855492e+00 
95900 5.5933799598e+00 -6.9907574748e-06 2.3831780980e+00 -4.1277855492e+00 2.3831780980e+00 4.1277855492e+00 
96000 5.5933799606e+00 -6.8879582669e-06 2.3831780980e+00 -4.1277855492e+00 2.3831780980e+00 4.1277855492e+00 
96100 5.5933799615e+00 -6.7860896217e-06 2.3831780980e+00 -4.1277855492e+00 2.3831780980e+00 4.1277855492e+00 
96200 5.5933799623e+00 -6.6851442358e-06 2.3831780980e+00 -4.1277855492e+00 2.3831780980e+00 4.1277855492e+00 
96300 5.5933799632e+00 -6.5851148223e-06 2.3831780980e+00 -4.1277855492e+00 2.3831780980e+00 4.1277855492e+00 
96400 5.5933799640e+00 -6.4859941117e-06 2.3831780980e+00 -4.1277855492e+00 2.3831780980e+00 4.1277855492e+00 
96500 5.5933799648e+00 -6.3877748505e-06 2.3831780980e+00 -4.1277855492e+00 2.3831780980e+00 4.1277855492e+00 
96600 5.5933799656e+00 -6.2904498097e-06 2.3831780980e+00 -4.1277855492e+00 2.3831780980e+00 4.1277855492e+00 
96700 5.5933799664e+00 -6.1940117742e-06 2.3831780980e+00 -4.1277855492e+00 2.3831780980e+00 4.1277855492e+00 
96800 5.5933799672e+00 -6.0984535547e-06 2.3831780980e+00 -4.1277855492e+00 2.3831780980e+00 4.1277855492e+00 
96900 5.5933799679e+00 -6.0037679846e-06 2.3831780980e+00 -4.1277855492e+00 2.3831780980e+00 4.1277855492e+00 
97000 5.5933799687e+00 -5.9099479187e-06 2.3831780980e+00 -4.1277855492e+00 2.3831780980e+00 4.1277855492e+00 
97100 5.5933799694e+00 -5.8169862416e-06 2.3831780980e+00 -4.1277855492e+00 2.3831780980e+00 4.1277855492e+00 
97200 5.5933799701e+00 -5.7248758595e-06 2.3831780980e+00 -4.1277855492e+00 2.3831780980e+00 4.1277855492e+00 
97300 5.5933799709e+00 -5.6336097066e-06 2.3831780980e+00 -4.1277855492e+00 2.3831780980e+00 4.1277855492e+00 
97400 5.5933799716e+00 -5.5431807451e-06 2.3831780980e+00 -4.1277855492e+00 2.3831780980e+00 4.1277855492e+00 
97500 5.5933799723e+00 -5.4535819677e-06 2.3831780980e+00 -4.1277855492e+00 2.3831780980e+00 4.1277855492e+00 
97600 5.5933799730e+00 -5.3648063934e-06 2.3831780980e+00 -4.1277855492e+00 2.3831780980e+00 4.1277855492e+00 
97700 5.5933799736e+00 -5.2768470743e-06 2.3831780980e+00 -4.1277855492e+00 2.3831780980e+00 4.1277855492e+00 
97800 5.5933799743e+00 -5.1896970918e-06 2.3831780980e+00 -4.1277855492e+00 2.3831780980e+00 4.1277855492e+00 
97900 5.5933799750e+00 -5.1033495596e-06 2.3831780980e+00 -4.1277855492e+00 2.3831780980e+00 4.1277855492e+00 
98000 5.5933799756e+00 -5.0177976249e-06 2.3831780980e+00 -4.1277855492e+00 2.3831780980e+00 4.1277855492e+00 
98100 5.5933799763e+00 -4.9330344673e-06 2.3831780980e+00 -4.1277855492e+00 2.3831780980e+00 4.1277855492e+00 
98200 5.5933799769e+00 -4.8490532999e-06 2.3831780980e+00 -4.1277855492e+00 2.3831780980e+00 4.1277855492e+00 
98300 5.5933799775e+00 -4.7658473721e-06 2.3831780980e+00 -4.1277855492e+00 2.3831780980e+00 4.1277855492e+00 
98400 5.5933799781e+00 -4.6834099657e-06 2.3831780980e+00 -4.1277855492e+00 2.3831780980e+00 4.1277855492e+00 
98500 5.5933799788e+00 -4.6017343997e-06 2.3831780980e+00 -4.1277855492e+00 2.3831780980e+00 4.1277855492e+00 
98600 5.5933799794e+00 -4.5208140297e-06 2.3831780980e+00 -4.1277855492e+00 2.3831780980e+00 4.1277855492e+00 
98700 5.5933799799e+00 -4.4406422474e-06 2.3831780980e+00 -4.1277855492e+00 2.3831780980e+00 4.1277855492e+00 
98800 5.5933799805e+00 -4.3612124807e-06 2.3831780980e+00 -4.1277855492e+00 2.3831780980e+00 4.1277855492e+00 
98900 5.5933799811e+00 -4.2825181964e-06 2.3831780980e+00 -4.1277855492e+00 2.3831780980e+00 4.1277855492e+00 
99000 5.5933799817e+00 -4.2045528987e-06 2.3831780980e+00 -4.1277855492e+00 2.3831780980e+00 4.1277855492e+00 
99100 5.5933799822e+00 -4.1273101309e-06 2.3831780980e+00 -4.1277855492e+00 2.3831780980e+00 4.1277855492e+00 
99200 5.5933799828e+00 -4.0507834731e-06 2.3831780980e+00 -4.1277855492e+00 2.3831780980e+00 4.1277855492e+00 
99300 5.5933799833e+00 -3.9749665478e-06 2.3831780980e+00 -4.1277855492e+00 2.3831780980e+00 4.1277855492e+00 
99400 5.5933799838e+00 -3.8998530132e-06 2.3831780980e+00 -4.1277855492e+00 2.3831780980e+00 4.1277855492e+00 
99500 5.5933799844e+00 -3.8254365702e-06 2.3831780980e+00 -4.1277855492e+00 2.3831780980e+00 4.1277855492e+00 
99600 5.5933799849e+00 -3.7517109573e-06 2.3831780980e+00 -4.1277855492e+00 2.3831780980e+00 4.1277855492e+00 
99700 5.5933799854e+00 -3.6786699565e-06 2.3831780980e+00 -4.1277855492e+00 2.3831780980e+00 4.1277855492e+00 
99800 5.5933799859e+00 -3.6063073871e-06 2.3831780980e+00 -4.1277855492e+00 2.3831780980e+00 4.1277855492e+00 
99900 5.5933799864e+00 -3.5346171112e-06 2.3831780980e+00 -4.1277855492e+00 2.3831780980e+00 4.1277855492e+00 
100000 5.5933799869e+00 -3.4635930314e-06 2.3831780980e+00 -4.1277855492e+00 2.3831780980e+00 4.1277855492e+00 
100100 5.5933799874e+00 -3.3932290905e-06 2.3831780980e+00 -4.1277855492e+00 2.3831780980e+00 4.1277855492e+00 
100200 5.5933799878e+00 -3.3235192738e-06 2.3831780980e+00 -4.1277855492e+00 2.3831780980e+00 4.1277855492e+00 
100300 5.5933799883e+00 -3.2544576092e-06 2.3831780980e+00 -4.1277855492e+00 2.3831780980e+00 4.1277855492e+00 
100400 5.5933799888e+00 -3.1860381621e-06 2.3831780980e+00 -4.1277855492e+00 2.3831780980e+00 4.1277855492e+00 
100500 5.5933799892e+00 -3.1182550439e-06 2.3831780980e+00 -4.1277855492e+00 2.3831780980e+00 4.1277855492e+00 
100600 5.5933799897e+00 -3.0511024074e-06 2.3831780980e+00 -4.1277855492e+00 2.3831780980e+00 4.1277855492e+00 
100700 5.5933799901e+00 -2.9845744435e-06 2.3831780980e+00 -4.1277855492e+00 2.3831780980e+00 4.1277855492e+00 
100800 5.5933799905e+00 -2.9186653906e-06 2.3831780980e+00 -4.1277855492e+00 2.3831780980e+00 4.1277855492e+00 
100900 5.5933799910e+00 -2.8533695258e-06 2.3831780980e+00 -4.1277855492e+00 2.3831780980e+00 4.1277855492e+00 
101000 5.5933799914e+00 -2.7886811669e-06 2.3831780980e+00 -4.1277855492e+00 2.3831780980e+00 4.1277855492e+00 
101100 5.5933799918e+00 -2.7245946794e-06 2.3831780980e+00 -4.1277855492e+00 2.3831780980e+00 4.1277855492e+00 
101200 5.5933799922e+00 -2.6611044641e-06 2.3831780980e+00 -4.1277855492e+00 2.3831780980e+00 4.1277855492e+00 
101300 5.5933799926e+00 -2.5982049704e-06 2.3831780980e+00 -4.1277855492e+00 2.3831780980e+00 4.1277855492e+00 
101400 5.5933799930e+00 -2.5358906859e-06 2.3831780980e+00 -4.1277855492e+00 2.3831780980e+00 4.1277855492e+00 
101500 5.5933799934e+00 -2.4741561423e-06 2.3831780980e+00 -4.1277855492e+00 2.3831780980e+00 4.1277855492e+00 
101600 5.5933799938e+00 -2.4129959106e-06 2.3831780980e+00 -4.1277855492e+00 2.3831780980e+00 4.1277855492e+00 
101700 5.5933799942e+00 -2.3524046080e-06 2.3831780980e+00 -4.1277855492e+00 2.3831780980e+00 4.1277855492e+00 
101800 5.5933799946e+00 -2.2923768910e-06 2.3831780980e+00 -4.1277855492e+00 2.3831780980e+00 4.1277855492e+00 
101900 5.5933799949e+00 -2.2329074594e-06 2.3831780980e+00 -4.1277855492e+00 2.3831780980e+00 4.1277855492e+00 
102000 5.5933799953e+00 -2.1739910540e-06 2.3831780980e+00 -4.1277855492e+00 2.3831780980e+00 4.1277855492e+00 
102100 5.5933799957e+00 -2.1156224591e-06 2.3831780980e+00 -4.1277855492e+00 2.3831780980e+00 4.1277855492e+00 
102200 5.5933799960e+00 -2.0577964987e-06 2.3831780980e+00 -4.1277855492e+00 2.3831780980e+00 4.1277855492e+00 
102300 5.5933799964e+00 -2.0005080396e-06 2.3831780980e+00 -4.1277855492e+00 2.3831780980e+00 4.1277855492e+00 
102400 5.5933799967e+00 -1.9437519917e-06 2.3831780980e+00 -4.1277855492e+00 2.3831780980e+00 4.1277855492e+00 
102500 5.5933799970e+00 -1.8875233040e-06 2.3831780980e+00 -4.1277855492e+00 2.3831780980e+00 4.1277855492e+00 
102600 5.5933799974e+00 -1.8318169686e-06 2.3831780980e+00 -4.1277855492e+00 2.3831780980e+00 4.1277855492e+00 
102700 5.5933799977e+00 -1.7766280176e-06 2.3831780980e+00 -4.1277855492e+00 2.3831780980e+00 4.1277855492e+00 
102800 5.5933799980e+00 -1.7219515244e-06 2.3831780980e+00 -4.1277855492e+00 2.3831780980e+00 4.1277855492e+00 
102900 5.5933799983e+00 -1.6677826053e-06 2.3831780980e+00 -4.1277855492e+00 2.3831780980e+00 4.1277855492e+00 
103000 5.5933799987e+00 -1.6141164149e-06 2.3831780980e+00 -4.1277855492e+00 2.3831780980e+00 4.1277855492e+00 
103100 5.5933799990e+00 -1.5609481506e-06 2.3831780980e+00 -4.1277855492e+00 2.3831780980e+00 4.1277855492e+00 
103200 5.5933799993e+00 -1.5082730498e-06 2.3831780980e+00 -4.1277855492e+00 2.3831780980e+00 4.1277855492e+00 
103300 5.5933799996e+00 -1.4560863896e-06 2.3831780980e+00 -4.1277855492e+00 2.3831780980e+00 4.1277855492e+00 
103400 5.5933799999e+00 -1.4043834886e-06 2.3831780980e+00 -4.1277855492e+00 2.3831780980e+00 4.1277855492e+00 
103500 5.5933800002e+00 -1.3531597048e-06 2.3831780980e+00 -4.1277855492e+00 2.3831780980e+00 4.1277855492e+00 
103600 5.5933800005e+00 -1.3024104361e-06 2.3831780980e+00 -4.1277855492e+00 2.3831780980e+00 4.1277855492e+00 
103700 5.5933800008e+00 -1.2521311203e-06 2.3831780980e+00 -4.1277855492e+00 2.3831780980e+00 4.1277855492e+00 
103800 5.5933800010e+00 -1.2023172349e-06 2.3831780980e+00 -4.1277855492e+00 2.3831780980e+00 4.1277855492e+00 
103900 5.5933800013e+00 -1.1529642977e-06 2.3831780980e+00 -4.1277855492e+00 2.3831780980e+00 4.1277855492e+00 
104000 5.5933800016e+00 -1.1040678637e-06 2.3831780980e+00 -4.1277855492e+00 2.3831780980e+00 4.1277855492e+00 
104100 5.5933800019e+00 -1.0556235283e-06 2.3831780980e+00 -4.1277855492e+00 2.3831780980e+00 4.1277855492e+00 
104200 5.5933800021e+00 -1.0076269259e-06 2.3831780980e+00 -4.1277855492e+00 2.3831780980e+00 4.1277855492e+00 
104300 5.5933800024e+00 -9.6007372840e-07 2.3831780980e+00 -4.1277855492e+00 2.3831780980e+00 4.1277855492e+00 
104400 5.5933800026e+00 -9.1295964785e-07 2.3831780980e+00 -4.1277855492e+00 2.3831780980e+00 4.1277855492e+00 
104500 5.5933800029e+00 -8.6628043281e-07 2.3831780980e+00 -4.1277855492e+00 2.3831780980e+00 4.1277855492e+00 
104600 5.5933800031e+00 -8.2003187010e-07 2.3831780980e+00 -4.1277855492e+00 2.3831780980e+00 4.1277855492e+00 
104700 5.5933800034e+00 -7.7420978706e-07 2.3831780980e+00 -4.1277855492e+00 2.3831780980e+00 4.1277855492e+00 
104800 5.5933800036e+00 -7.2881004490e-07 2.3831780980e+00 -4.1277855492e+00 2.3831780980e+00 4.1277855492e+00 
104900 5.5933800039e+00 -6.8382854335e-07 2.3831780980e+00 -4.1277855492e+00 2.3831780980e+00 4.1277855492e+00 
105000 5.5933800041e+00 -6.3926122110e-07 2.3831780980e+00 -4.1277855492e+00 2.3831780980e+00 4.1277855492e+00 
105100 5.5933800043e+00 -5.9510405161e-07 2.3831780980e+00 -4.1277855492e+00 2.3831780980e+00 4.1277855492e+00 
105200 5.5933800046e+00 -5.5135304561e-07 2.3831780980e+00 -4.1277855492e+00 2.3831780980e+00 4.1277855492e+00 
105300 5.5933800048e+00 -5.0800425175e-07 2.3831780980e+00 -4.1277855492e+00 2.3831780980e+00 4.1277855492e+00 
105400 5.5933800050e+00 -4.6505375283e-07 2.3831780980e+00 -4.1277855492e+00 2.3831780980e+00 4.1277855492e+00 
105500 5.5933800052e+00 -4.2249766925e-07 2.3831780980e+00 -4.1277855492e+00 2.3831780980e+00 4.1277855492e+00 
105600 5.5933800055e+00 -3.8033215725e-07 2.3831780980e+00 -4.1277855492e+00 2.3831780980e+00 4.1277855492e+00 
105700 5.5933800057e+00 -3.3855340654e-07 2.3831780980e+00 -4.1277855492e+00 2.3831780980e+00 4.1277855492e+00 
105800 5.5933800059e+00 -2.9715764548e-07 2.3831780980e+00 -4.1277855492e+00 2.3831780980e+00 4.1277855492e+00 
105900 5.5933800061e+00 -2.5614113604e-07 2.3831780980e+00 -4.1277855492e+00 2.3831780980e+00 4.1277855492e+00 
106000 5.5933800063e+00 -2.1550017285e-07 2.3831780980e+00 -4.1277855492e+00 2.3831780980e+00 4.1277855492e+00 
106100 5.5933800065e+00 -1.7523108984e-07 2.3831780980e+00 -4.1277855492e+00 2.3831780980e+00 4.1277855492e+00 
106200 5.5933800067e+00 -1.3533025091e-07 2.3831780980e+00 -4.1277855492e+00 2.3831780980e+00 4.1277855492e+00 
106300 5.5933800069e+00 -9.5794056382e-08 2.3831780980e+00 -4.1277855492e+00 2.3831780980e+00 4.1277855492e+00 
106400 5.5933800071e+00 -5.6618941736e-08 2.3831780980e+00 -4.1277855492e+00 2.3831780980e+00 4.1277855492e+00 
106500 5.5933800073e+00 -1.7801374375e-08 2.3831780980e+00 -4.1277855492e+00 2.3831780980e+00 4.1277855492e+00 
106600 5.5933800075e+00 2.0662146223e-08 2.3831780980e+00 -4.1277855492e+00 2.3831780980e+00 4.1277855492e+00 
106700 5.5933800076e+00 5.8775082842e-08 2.3831780980e+00 -4.1277855492e+00 2.3831780980e+00 4.1277855492e+00 
106800 5.5933800078e+00 9.6540870305e-08 2.3831780980e+00 -4.1277855492e+00 2.3831780980e+00 4.1277855492e+00 
106900 5.5933800080e+00 1.3396290660e-07 2.3831780980e+00 -4.1277855492e+00 2.3831780980e+00 4.1277855492e+00 
107000 5.5933800082e+00 1.7104455936e-07 2.3831780980e+00 -4.1277855492e+00 2.3831780980e+00 4.1277855492e+00 
107100 5.5933800083e+00 2.0778916388e-07 2.3831780980e+00 -4.1277855492e+00 2.3831780980e+00 4.1277855492e+00 
107200 5.5933800085e+00 2.4420002151e-07 2.3831780980e+00 -4.1277855492e+00 2.3831780980e+00 4.1277855492e+00 
107300 5.5933800087e+00 2.8028040532e-07 2.3831780980e+00 -4.1277855492e+00 2.3831780980e+00 4.1277855492e+00 
107400 5.5933800089e+00 3.1603355222e-07 2.3831780980e+00 -4.1277855492e+00 2.3831780980e+00 4.1277855492e+00 
107500 5.5933800090e+00 3.5146267104e-07 2.3831780980e+00 -4.1277855492e+00 2.3831780980e+00 4.1277855492e+00 
107600 5.5933800092e+00 3.8657093904e-07 2.3831780980e+00 -4.1277855492e+00 2.3831780980e+00 4.1277855492e+00 
107700 5.5933800093e+00 4.2136150191e-07 2.3831780980e+00 -4.1277855492e+00 2.3831780980e+00 4.1277855492e+00 
107800 5.5933800095e+00 4.5583747562e-07 2.3831780980e+00 -4.1277855492e+00 2.3831780980e+00 4.1277855492e+00 
107900 5.5933800097e+00 4.9000194345e-07 2.3831780980e+00 -4.1277855492e+00 2.3831780980e+00 4.1277855492e+00 
108000 5.5933800098e+00 5.2385796138e-07 2.3831780980e+00 -4.1277855492e+00 2.3831780980e+00 4.1277855492e+00 
108100 5.5933800100e+00 5.5740855302e-07 2.3831780980e+00 -4.1277855492e+00 2.3831780980e+00 4.1277855492e+00 
108200 5.5933800101e+00 5.9065671518e-07 2.3831780980e+00 -4.1277855492e+00 2.3831780980e+00 4.1277855492e+00 
108300 5.5933800102e+00 6.2360541172e-07 2.3831780980e+00 -4.1277855492e+00 2.3831780980e+00 4.1277855492e+00 
108400 5.5933800104e+00 6.5625758110e-07 2.3831780980e+00 -4.1277855492e+00 2.3831780980e+00 4.1277855492e+00 
108500 5.5933800105e+00 6.8861612899e-07 2.3831780980e+00 -4.1277855492e+00 2.3831780980e+00 4.1277855492e+00 
108600 5.5933800107e+00 7.2068393484e-07 2.3831780980e+00 -4.1277855492e+00 2.3831780980e+00 4.1277855492e+00 
108700 5.5933800108e+00 7.5246384833e-07 2.3831780980e+00 -4.1277855492e+00 2.3831780980e+00 4.1277855492e+00 
108800 5.5933800109e+00 7.8395869149e-07 2.3831780980e+00 -4.1277855492e+00 2.3831780980e+00 4.1277855492e+00 
108900 5.5933800111e+00 8.1517125952e-07 2.3831780980e+00 -4.1277855492e+00 2.3831780980e+00 4.1277855492e+00 
109000 5.5933800112e+00 8.4610431593e-07 2.3831780980e+00 -4.1277855492e+00 2.3831780980e+00 4.1277855492e+00 
109100 5.5933800113e+00 8.7676060092e-07 2.3831780980e+00 -4.1277855492e+00 2.3831780980e+00 4.1277855492e+00 
109200 5.5933800115e+00 9.0714282565e-07 2.3831780980e+00 -4.1277855492e+00 2.3831780980e+00 4.1277855492e+00 
109300 5.5933800116e+00 9.3725367278e-07 2.3831780980e+00 -4.1277855492e+00 2.3831780980e+00 4.1277855492e+00 
109400 5.5933800117e+00 9.6709580104e-07 2.3831780980e+00 -4.1277855492e+00 2.3831780980e+00 4.1277855492e+00 
109500 5.5933800118e+00 9.9667183878e-07 2.3831780980e+00 -4.1277855492e+00 2.3831780980e+00 4.1277855492e+00 
109600 5.5933800120e+00 1.0259843930e-06 2.3831780980e+00 -4.1277855492e+00 2.3831780980e+00 4.1277855492e+00 
109700 5.5933800121e+00 1.0550360382e-06 2.3831780980e+00 -4.1277855492e+00 2.3831780980e+00 4.1277855492e+00 
109800 5.5933800122e+00 1.0838293275e-06 2.3831780980e+00 -4.1277855492e+00 2.3831780980e+00 4.1277855492e+00 
109900 5.5933800123e+00 1.1123667878e-06 2.3831780980e+00 -4.1277855492e+00 2.3831780980e+00 4.1277855492e+00 
110000 5.5933800124e+00 1.1406509181e-06 2.3831780980e+00 -4.1277855492e+00 2.3831780980e+00 4.1277855492e+00 
110100 5.5933800125e+00 1.1686841943e-06 2.3831780980e+00 -4.1277855492e+00 2.3831780980e+00 4.1277855492e+00 
110200 5.5933800127e+00 1.1964690661e-06 2.3831780980e+00 -4.1277855492e+00 2.3831780980e+00 4.1277855492e+00 
110300 5.5933800128e+00 1.2240079593e-06 2.3831780980e+00 -4.1277855492e+00 2.3831780980e+00 4.1277855492e+00 
110400 5.5933800129e+00 1.2513032741e-06 2.3831780980e+00 -4.1277855492e+00 2.3831780980e+00 4.1277855492e+00 
110500 5.5933800130e+00 1.2783573869e-06 2.3831780980e+00 -4.1277855492e+00 2.3831780980e+00 4.1277855492e+00 
110600 5.5933800131e+00 1.3051726495e-06 2.3831780980e+00 -4.1277855492e+00 2.3831780980e+00 4.1277855492e+00 
110700 5.5933800132e+00 1.3317513903e-06 2.3831780980e+00 -4.1277855492e+00 2.3831780980e+00 4.1277855492e+00 
110800 5.5933800133e+00 1.3580959126e-06 2.3831780980e+00 -4.1277855492e+00 2.3831780980e+00 4.1277855492e+00 
110900 5.5933800134e+00 1.3842084972e-06 2.3831780980e+00 -4.1277855492e+00 2.3831780980e+00 4.1277855492e+00 
111000 5.5933800135e+00 1.4100914020e-06 2.3831780980e+00 -4.1277855492e+00 2.3831780980e+00 4.1277855492e+00 
111100 5.5933800136e+00 1.4357468605e-06 2.3831780980e+00 -4.1277855492e+00 2.3831780980e+00 4.1277855492e+00 
111200 5.5933800137e+00 1.4611770844e-06 2.3831780980e+00 -4.1277855492e+00 2.3831780980e+00 4.1277855492e+00 
111300 5.5933800138e+00 1.4863842622e-06 2.3831780980e+00 -4.1277855492e+00 2.3831780980e+00 4.1277855492e+00 
111400 5.5933800139e+00 1.5113705606e-06 2.3831780980e+00 -4.1277855492e+00 2.3831780980e+00 4.1277855492e+00 
111500 5.5933800140e+00 1.5361381221e-06 2.3831780980e+00 -4.1277855492e+00 2.3831780980e+00 4.1277855492e+00 
111600 5.5933800141e+00 1.5606890692e-06 2.3831780980e+00 -4.1277855492e+00 2.3831780980e+00 4.1277855492e+00 
111700 5.5933800142e+00 1.5850255025e-06 2.3831780980e+00 -4.1277855492e+00 2.3831780980e+00 4.1277855492e+00 
111800 5.5933800142e+00 1.6091494989e-06 2.3831780980e+00 -4.1277855492e+00 2.3831780980e+00 4.1277855492e+00 
111900 5.5933800143e+00 1.6330631160e-06 2.3831780980e+00 -4.1277855492e+00 2.3831780980e+00 4.1277855492e+00 
112000 5.5933800144e+00 1.6567683887e-06 2.3831780980e+00 -4.1277855492e+00 2.3831780980e+00 4.1277855492e+00 
112100 5.5933800145e+00 1.6802673319e-06 2.3831780980e+00 -4.1277855492e+00 2.3831780980e+00 4.1277855492e+00 
112200 5.5933800146e+00 1.7035619391e-06 2.3831780980e+00 -4.1277855492e+00 2.3831780980e+00 4.1277855492e+00 
112300 5.5933800147e+00 1.7266541828e-06 2.3831780980e+00 -4.1277855492e+00 2.3831780980e+00 4.1277855492e+00 
112400 5.5933800147e+00 1.7495460162e-06 2.3831780980e+00 -4.1277855492e+00 2.3831780980e+00 4.1277855492e+00 
112500 5.5933800148e+00 1.7722393726e-06 2.3831780980e+00 -4.1277855492e+00 2.3831780980e+00 4.1277855492e+00 
112600 5.5933800149e+00 1.7947361616e-06 2.3831780980e+00 -4.1277855492e+00 2.3831780980e+00 4.1277855492e+00 
112700 5.5933800150e+00 1.8170382786e-06 2.3831780980e+00 -4.1277855492e+00 2.3831780980e+00 4.1277855492e+00 
112800 5.5933800151e+00 1.8391475939e-06 2.3831780980e+00 -4.1277855492e+00 2.3831780980e+00 4.1277855492e+00 
112900 5.5933800151e+00 1.8610659626e-06 2.3831780980e+00 -4.1277855492e+00 2.3831780980e+00 4.1277855492e+00 
113000 5.5933800152e+00 1.8827952182e-06 2.3831780980e+00 -4.1277855492e+00 2.3831780980e+00 4.1277855492e+00 
113100 5.5933800153e+00 1.9043371746e-06 2.3831780980e+00 -4.1277855492e+00 2.3831780980e+00 4.1277855492e+00 
113200 5.5933800154e+00 1.9256936293e-06 2.3831780980e+00 -4.1277855492e+00 2.3831780980e+00 4.1277855492e+00 
113300 5.5933800154e+00 1.9468663592e-06 2.3831780980e+00 -4.1277855492e+00 2.3831780980e+00 4.1277855492e+00 
113400 5.5933800155e+00 1.9678571238e-06 2.3831780980e+00 -4.1277855492e+00 2.3831780980e+00 4.1277855492e+00 
113500 5.5933800156e+00 1.9886676625e-06 2.3831780980e+00 -4.1277855492e+00 2.3831780980e+00 4.1277855492e+00 
113600 5.5933800156e+00 2.0092996983e-06 2.3831780980e+00 -4.1277855492e+00 2.3831780980e+00 4.1277855492e+00 
113700 5.5933800157e+00 2.0297549346e-06 2.3831780980e+00 -4.1277855492e+00 2.3831780980e+00 4.1277855492e+00 
113800 5.5933800158e+00 2.0500350598e-06 2.3831780980e+00 -4.1277855492e+00 2.3831780980e+00 4.1277855492e+00 
113900 5.5933800158e+00 2.0701417430e-06 2.3831780980e+00 -4.1277855492e+00 2.3831780980e+00 4.1277855492e+00 
114000 5.5933800159e+00 2.0900766345e-06 2.3831780980e+00 -4.1277855492e+00 2.3831780980e+00 4.1277855492e+00 
114100 5.5933800160e+00 2.1098413691e-06 2.3831780980e+00 -4.1277855492e+00 2.3831780980e+00 4.1277855492e+00 
114200 5.5933800160e+00 2.1294375646e-06 2.3831780980e+00 -4.1277855492e+00 2.3831780980e+00 4.1277855492e+00 
114300 5.5933800161e+00 2.1488668220e-06 2.3831780980e+00 -4.1277855492e+00 2.3831780980e+00 4.1277855492e+00 
114400 5.5933800161e+00 2.1681307239e-06 2.3831780980e+00 -4.1277855492e+00 2.3831780980e+00 4.1277855492e+00 
114500 5.5933800162e+00 2.1872308389e-06 2.3831780980e+00 -4.1277855492e+00 2.3831780980e+00 4.1277855492e+00 
114600 5.5933800163e+00 2.2061687161e-06 2.3831780980e+00 -4.1277855492e+00 2.3831780980e+00 4.1277855492e+00 
114700 5.5933800163e+00 2.2249458919e-06 2.3831780980e+00 -4.1277855492e+00 2.3831780980e+00 4.1277855492e+00 
114800 5.5933800164e+00 2.2435638850e-06 2.3831780980e+00 -4.1277855492e+00 2.3831780980e+00 4.1277855492e+00 
114900 5.5933800164e+00 2.2620241976e-06 2.3831780980e+00 -4.1277855492e+00 2.3831780980e+00 4.1277855492e+00 
115000 5.5933800165e+00 2.2803283165e-06 2.3831780980e+00 -4.1277855492e+00 2.3831780980e+00 4.1277855492e+00 
115100 5.5933800165e+00 2.2984777142e-06 2.3831780980e+00 -4.1277855492e+00 2.3831780980e+00 4.1277855492e+00 
115200 5.5933800166e+00 2.3164738463e-06 2.3831780980e+00 -4.1277855492e+00 2.3831780980e+00 4.1277855492e+00 
115300 5.5933800167e+00 2.3343181545e-06 2.3831780980e+00 -4.1277855492e+00 2.3831780980e+00 4.1277855492e+00 
115400 5.5933800167e+00 2.3520120643e-06 2.3831780980e+00 -4.1277855492e+00 2.3831780980e+00 4.1277855492e+00 
115500 5.5933800168e+00 2.3695569882e-06 2.3831780980e+00 -4.1277855492e+00 2.3831780980e+00 4.1277855492e+00 
115600 5.5933800168e+00 2.3869543211e-06 2.3831780980e+00 -4.1277855492e+00 2.3831780980e+00 4.1277855492e+00 
115700 5.5933800169e+00 2.4042054460e-06 2.3831780980e+00 -4.1277855492e+00 2.3831780980e+00 4.1277855492e+00 
115800 5.5933800169e+00 2.4213117300e-06 2.3831780980e+00 -4.1277855492e+00 2.3831780980e+00 4.1277855492e+00 
115900 5.5933800170e+00 2.4382745273e-06 2.3831780980e+00 -4.1277855492e+00 2.3831780980e+00 4.1277855492e+00 
116000 5.5933800170e+00 2.4550951752e-06 2.3831780980e+00 -4.1277855492e+00 2.3831780980e+00 4.1277855492e+00 
116100 5.5933800171e+00 2.4717750013e-06 2.3831780980e+00 -4.1277855492e+00 2.3831780980e+00 4.1277855492e+00 
116200 5.5933800171e+00 2.4747625160e-06 2.3831780980e+00 -4.1277855492e+00 2.3831780980e+00 4.1277855492e+00 
116200 5.5933800171e+00 2.4747625161e-06 2.3831780980e+00 -4.1277855492e+00 2.3831780980e+00 4.1277855492e+00 
