# step Hamiltonian StressXX CellTensor1 CellTensor2 CellTensor3 CellTensor4 
0 6.5333602067e+00 8.4916055021e-02 1.7865676565e+00 -3.0944259522e+00 1.7865676565e+00 3.0944259522e+00 
100 6.5268561069e+00 9.1188251207e-02 1.7865676565e+00 -3.0944259522e+00 1.7865676565e+00 3.0944259522e+00 
200 6.5201540480e+00 9.5666198649e-02 1.7840162135e+00 -3.0900067233e+00 1.7840162135e+00 3.0900067233e+00 
300 6.5134959702e+00 9.9653422974e-02 1.7813356829e+00 -3.0853639082e+00 1.7813356829e+00 3.0853639082e+00 
400 6.5068925411e+00 1.0317563981e-01 1.7785392616e+00 -3.0805203644e+00 1.7785392616e+00 3.0805203644e+00 
500 6.5003535184e+00 1.0625663675e-01 1.7756394789e+00 -3.0754977933e+00 1.7756394789e+00 3.0754977933e+00 
600 6.4938878405e+00 1.0891855165e-01 1.7726482538e+00 -3.0703168396e+00 1.7726482538e+00 3.0703168396e+00 
700 6.4875037022e+00 1.1118210345e-01 1.7695769441e+00 -3.0649971752e+00 1.7695769441e+00 3.0649971752e+00 
800 6.4812086176e+00 1.1306678441e-01 1.7664363870e+00 -3.0595575707e+00 1.7664363870e+00 3.0595575707e+00 
900 6.4750094742e+00 1.1459102142e-01 1.7632369347e+00 -3.0540159567e+00 1.7632369347e+00 3.0540159567e+00 
1000 6.4689125786e+00 1.1577231198e-01 1.7599884842e+00 -3.0483894753e+00 1.7599884842e+00 3.0483894753e+00 
1100 6.4629236962e+00 1.1662733953e-01 1.7567005028e+00 -3.0426945246e+00 1.7567005028e+00 3.0426945246e+00 
1200 6.4570480848e+00 1.1717207174e-01 1.7533820504e+00 -3.0369467964e+00 1.7533820504e+00 3.0369467964e+00 
1300 6.4512905244e+00 1.1742184456e-01 1.7500417976e+00 -3.0311613089e+00 1.7500417976e+00 3.0311613089e+00 
1400 6.4456553418e+00 1.1739143414e-01 1.7466880418e+00 -3.0253524334e+00 1.7466880418e+00 3.0253524334e+00 
1500 6.4401464322e+00 1.1709511840e-01 1.7433287207e+00 -3.0195339186e+00 1.7433287207e+00 3.0195339186e+00 
1600 6.4347672775e+00 1.1654672944e-01 1.7399714236e+00 -3.0137189094e+00 1.7399714236e+00 3.0137189094e+00 
1700 6.4295209612e+00 1.1575969801e-01 1.7366234011e+00 -3.0079199643e+00 1.7366234011e+00 3.0079199643e+00 
1800 6.4244101813e+00 1.1474709064e-01 1.7332915734e+00 -3.0021490694e+00 1.7332915734e+00 3.0021490694e+00 
1900 6.4194372608e+00 1.1352164043e-01 1.7299825370e+00 -2.9964176503e+00 1.7299825370e+00 2.9964176503e+00 
2000 6.4146041559e+00 1.1209577178e-01 1.7267025707e+00 -2.9907365820e+00 1.7267025707e+00 2.9907365820e+00 
2100 6.4099124636e+00 1.1048161992e-01 1.7234576405e+00 -2.9851161981e+00 1.7234576405e+00 2.9851161981e+00 
2200 6.4053634271e+00 1.0869104551e-01 1.7202534042e+00 -2.9795662980e+00 1.7202534042e+00 2.9795662980e+00 
2300 6.4009579414e+00 1.0673564493e-01 1.7170952149e+00 -2.9740961537e+00 1.7170952149e+00 2.9740961537e+00 
2400 6.3966965572e+00 1.0462675670e-01 1.7139881249e+00 -2.9687145160e+00 1.7139881249e+00 2.9687145160e+00 
2500 6.3925794861e+00 1.0237546455e-01 1.7109368888e+00 -2.9634296200e+00 1.7109368888e+00 2.9634296200e+00 
2600 6.3886066045e+00 9.9992597505e-02 1.7079459668e+00 -2.9582491911e+00 1.7079459668e+00 2.9582491911e+00 
2700 6.3847774591e+00 9.7488727648e-02 1.7050195281e+00 -2.9531804505e+00 1.7050195281e+00 2.9531804505e+00 
2800 6.3810912719e+00 9.4874165824e-02 1.7021614541e+00 -2.9482301212e+00 1.7021614541e+00 2.9482301212e+00 
2900 6.3775469473e+00 9.2158955875e-02 1.6993753425e+00 -2.9434044344e+00 1.6993753425e+00 2.9434044344e+00 
3000 6.3741430790e+00 8.9352867782e-02 1.6966645109e+00 -2.9387091363e+00 1.6966645109e+00 2.9387091363e+00 
3100 6.3708779592e+00 8.6465390143e-02 1.6940320011e+00 -2.9341494955e+00 1.6940320011e+00 2.9341494955e+00 
3200 6.3677495881e+00 8.3505722360e-02 1.6914805839e+00 -2.9297303113e+00 1.6914805839e+00 2.9297303113e+00 
3300 6.3647556855e+00 8.0482766889e-02 1.6890127642e+00 -2.9254559222e+00 1.6890127642e+00 2.9254559222e+00 
3400 6.3618937030e+00 7.7405121861e-02 1.6866307864e+00 -2.9213302156e+00 1.6866307864e+00 2.9213302156e+00 
3500 6.3591608384e+00 7.4281074348e-02 1.6843366404e+00 -2.9173566382e+00 1.6843366404e+00 2.9173566382e+00 
3600 6.3565540506e+00 7.1118594495e-02 1.6821320678e+00 -2.9135382065e+00 1.6821320678e+00 2.9135382065e+00 
3700 6.3540700764e+00 6.7925330715e-02 1.6800185691e+00 -2.9098775193e+00 1.6800185691e+00 2.9098775193e+00 
3800 6.3517054477e+00 6.4708606076e-02 1.6779974101e+00 -2.9063767693e+00 1.6779974101e+00 2.9063767693e+00 
3900 6.3494565103e+00 6.1475416003e-02 1.6760696301e+00 -2.9030377563e+00 1.6760696301e+00 2.9030377563e+00 
4000 6.3473194434e+00 5.8232427330e-02 1.6742360489e+00 -2.8998619006e+00 1.6742360489e+00 2.8998619006e+00 
4100 6.3452902796e+00 5.4985978763e-02 1.6724972757e+00 -2.8968502571e+00 1.6724972757e+00 2.8968502571e+00 
4200 6.3433649261e+00 5.1742082723e-02 1.6708537166e+00 -2.8940035292e+00 1.6708537166e+00 2.8940035292e+00 
4300 6.3415391849e+00 4.8506428545e-02 1.6693055834e+00 -2.8913220838e+00 1.6693055834e+00 2.8913220838e+00 
4400 6.3398087750e+00 4.5284386975e-02 1.6678529019e+00 -2.8888059656e+00 1.6678529019e+00 2.8888059656e+00 
4500 6.3381693536e+00 4.2081015880e-02 1.6664955208e+00 -2.8864549127e+00 1.6664955208e+00 2.8864549127e+00 
4600 6.3366165368e+00 3.8901067084e-02 1.6652331203e+00 -2.8842683707e+00 1.6652331203e+00 2.8842683707e+00 
4700 6.3351459213e+00 3.5748994200e-02 1.6640652202e+00 -2.8822455086e+00 1.6640652202e+00 2.8822455086e+00 
4800 6.3337531042e+00 3.2628961355e-02 1.6629911894e+00 -2.8803852326e+00 1.6629911894e+00 2.8803852326e+00 
4900 6.3324337036e+00 2.9544852680e-02 1.6620102537e+00 -2.8786862020e+00 1.6620102537e+00 2.8786862020e+00 
5000 6.3311833772e+00 2.6500282423e-02 1.6611215041e+00 -2.8771468426e+00 1.6611215041e+00 2.8771468426e+00 
5100 6.3299978412e+00 2.3498605572e-02 1.6603239056e+00 -2.8757653615e+00 1.6603239056e+00 2.8757653615e+00 
5200 6.3288728872e+00 2.0542928846e-02 1.6596163046e+00 -2.8745397607e+00 1.6596163046e+00 2.8745397607e+00 
5300 6.3278043988e+00 1.7636121946e-02 1.6589974371e+00 -2.8734678507e+00 1.6589974371e+00 2.8734678507e+00 
5400 6.3267883668e+00 1.4780828931e-02 1.6584659360e+00 -2.8725472638e+00 1.6584659360e+00 2.8725472638e+00 
5500 6.3258209031e+00 1.1979479634e-02 1.6580203385e+00 -2.8717754662e+00 1.6580203385e+00 2.8717754662e+00 
5600 6.3248982535e+00 9.2343009854e-03 1.6576590931e+00 -2.8711497708e+00 1.6576590931e+00 2.8711497708e+00 
5700 6.3240168090e+00 6.5473281887e-03 1.6573805665e+00 -2.8706673486e+00 1.6573805665e+00 2.8706673486e+00 
5800 6.3231731161e+00 3.9204156339e-03 1.6571830501e+00 -2.8703252401e+00 1.6571830501e+00 2.8703252401e+00 
5900 6.3223638853e+00 1.3552474985e-03 1.6570647659e+00 -2.8701203660e+00 1.6570647659e+00 2.8701203660e+00 
6000 6.3215859984e+00 -1.1466520357e-03 1.6570238731e+00 -2.8700495375e+00 1.6570238731e+00 2.8700495375e+00 
6100 6.3208365151e+00 -3.5839089982e-03 1.6570584729e+00 -2.8701094663e+00 1.6570584729e+00 2.8701094663e+00 
6200 6.3201126768e+00 -5.9552903216e-03 1.6571666148e+00 -2.8702967735e+00 1.6571666148e+00 2.8702967735e+00 
6300 6.3194119105e+00 -8.2596950409e-03 1.6573463010e+00 -2.8706079990e+00 1.6573463010e+00 2.8706079990e+00 
6400 6.3187318308e+00 -1.0496146026e-02 1.6575954916e+00 -2.8710396098e+00 1.6575954916e+00 2.8710396098e+00 
6500 6.3180702407e+00 -1.2663782265e-02 1.6579121092e+00 -2.8715880076e+00 1.6579121092e+00 2.8715880076e+00 
6600 6.3174251311e+00 -1.4761851699e-02 1.6582940435e+00 -2.8722495372e+00 1.6582940435e+00 2.8722495372e+00 
6700 6.3167946796e+00 -1.6789704622e-02 1.6587391549e+00 -2.8730204927e+00 1.6587391549e+00 2.8730204927e+00 
6800 6.3161772476e+00 -1.8746787637e-02 1.6592452790e+00 -2.8738971254e+00 1.6592452790e+00 2.8738971254e+00 
6900 6.3155713769e+00 -2.0632638148e-02 1.6598102302e+00 -2.8748756496e+00 1.6598102302e+00 2.8748756496e+00 
7000 6.3149757853e+00 -2.2446879396e-02 1.6604318050e+00 -2.8759522488e+00 1.6604318050e+00 2.8759522488e+00 
7100 6.3143893611e+00 -2.4189215992e-02 1.6611077858e+00 -2.8771230819e+00 1.6611077858e+00 2.8771230819e+00 
7200 6.3138111569e+00 -2.5859429957e-02 1.6618359440e+00 -2.8783842888e+00 1.6618359440e+00 2.8783842888e+00 
7300 6.3132403828e+00 -2.7457377212e-02 1.6626140426e+00 -2.8797319952e+00 1.6626140426e+00 2.8797319952e+00 
7400 6.3126763989e+00 -2.8982984513e-02 1.6634398401e+00 -2.8811623184e+00 1.6634398401e+00 2.8811623184e+00 
7500 6.3121187072e+00 -3.0436246796e-02 1.6643110923e+00 -2.8826713715e+00 1.6643110923e+00 2.8826713715e+00 
7600 6.3115669432e+00 -3.1817224897e-02 1.6652255557e+00 -2.8842552686e+00 1.6652255557e+00 2.8842552686e+00 
7700 6.3110208667e+00 -3.3126043619e-02 1.6661809898e+00 -2.8859101290e+00 1.6661809898e+00 2.8859101290e+00 
7800 6.3104803530e+00 -3.4362890119e-02 1.6671751596e+00 -2.8876320815e+00 1.6671751596e+00 2.8876320815e+00 
7900 6.3099453830e+00 -3.5528012569e-02 1.6682058380e+00 -2.8894172689e+00 1.6682058380e+00 2.8894172689e+00 
8000 6.3094160336e+00 -3.6621719083e-02 1.6692708082e+00 -2.8912618513e+00 1.6692708082e+00 2.8912618513e+00 
8100 6.3088924683e+00 -3.7644376848e-02 1.6703678659e+00 -2.8931620110e+00 1.6703678659e+00 2.8931620110e+00 
8200 6.3083749271e+00 -3.8596411458e-02 1.6714948214e+00 -2.8951139553e+00 1.6714948214e+00 2.8951139553e+00 
8300 6.3078637166e+00 -3.9478306399e-02 1.6726495020e+00 -2.8971139207e+00 1.6726495020e+00 2.8971139207e+00 
8400 6.3073592010e+00 -4.0290602672e-02 1.6738297536e+00 -2.8991581764e+00 1.6738297536e+00 2.8991581764e+00 
8500 6.3068617918e+00 -4.1033898512e-02 1.6750334431e+00 -2.9012430279e+00 1.6750334431e+00 2.9012430279e+00 
8600 6.3063719393e+00 -4.1708849193e-02 1.6762584603e+00 -2.9033648199e+00 1.6762584603e+00 2.9033648199e+00 
8700 6.3058901229e+00 -4.2316166875e-02 1.6775027197e+00 -2.9055199403e+00 1.6775027197e+00 2.9055199403e+00 
8800 6.3054168430e+00 -4.2856620483e-02 1.6787641622e+00 -2.9077048229e+00 1.6787641622e+00 2.9077048229e+00 
8900 6.3049526122e+00 -4.3331035599e-02 1.6800407575e+00 -2.9099159507e+00 1.6800407575e+00 2.9099159507e+00 
9000 6.3044979477e+00 -4.3740294324e-02 1.6813305052e+00 -2.9121498593e+00 1.6813305052e+00 2.9121498593e+00 
9100 6.3040533636e+00 -4.4085335120e-02 1.6826314371e+00 -2.9144031394e+00 1.6826314371e+00 2.9144031394e+00 
9200 6.3036193638e+00 -4.4367152589e-02 1.6839416186e+00 -2.9166724403e+00 1.6839416186e+00 2.9166724403e+00 
9300 6.3031964357e+00 -4.4586797187e-02 1.6852591504e+00 -2.9189544724e+00 1.6852591504e+00 2.9189544724e+00 
9400 6.3027850438e+00 -4.4745374858e-02 1.6865821702e+00 -2.9212460099e+00 1.6865821702e+00 2.9212460099e+00 
9500 6.3023856243e+00 -4.4844046559e-02 1.6879088543e+00 -2.9235438942e+00 1.6879088543e+00 2.9235438942e+00 
9600 6.3019985803e+00 -4.4884027684e-02 1.6892374191e+00 -2.9258450359e+00 1.6892374191e+00 2.9258450359e+00 
9700 6.3016242770e+00 -4.4866587366e-02 1.6905661224e+00 -2.9281464175e+00 1.6905661224e+00 2.9281464175e+00 
9800 6.3012630382e+00 -4.4793047638e-02 1.6918932651e+00 -2.9304450962e+00 1.6918932651e+00 2.9304450962e+00 
9900 6.3009151427e+00 -4.4664782470e-02 1.6932171928e+00 -2.9327382061e+00 1.6932171928e+00 2.9327382061e+00 
10000 6.3005808216e+00 -4.4483216646e-02 1.6945362963e+00 -2.9350229605e+00 1.6945362963e+00 2.9350229605e+00 
10100 6.3002602561e+00 -4.4249824496e-02 1.6958490140e+00 -2.9372966542e+00 1.6958490140e+00 2.9372966542e+00 
10200 6.2999535759e+00 -4.3966128464e-02 1.6971538322e+00 -2.9395566656e+00 1.6971538322e+00 2.9395566656e+00 
10300 6.2996608579e+00 -4.3633697526e-02 1.6984492869e+00 -2.9418004589e+00 1.6984492869e+00 2.9418004589e+00 
10400 6.2993821257e+00 -4.3254145434e-02 1.6997339644e+00 -2.9440255857e+00 1.6997339644e+00 2.9440255857e+00 
10500 6.2991173494e+00 -4.2829128805e-02 1.7010065029e+00 -2.9462296870e+00 1.7010065029e+00 2.9462296870e+00 
10600 6.2988664463e+00 -4.2360345038e-02 1.7022655930e+00 -2.9484104950e+00 1.7022655930e+00 2.9484104950e+00 
10700 6.2986292810e+00 -4.1849530082e-02 1.7035099787e+00 -2.9505658344e+00 1.7035099787e+00 2.9505658344e+00 
10800 6.2984056673e+00 -4.1298456029e-02 1.7047384587e+00 -2.9526936240e+00 1.7047384587e+00 2.9526936240e+00 
10900 6.2981953697e+00 -4.0708928565e-02 1.7059498862e+00 -2.9547918781e+00 1.7059498862e+00 2.9547918781e+00 
11000 6.2979981052e+00 -4.0082784264e-02 1.7071431707e+00 -2.9568587075e+00 1.7071431707e+00 2.9568587075e+00 
11100 6.2978135459e+00 -3.9421887739e-02 1.7083172777e+00 -2.9588923204e+00 1.7083172777e+00 2.9588923204e+00 
11200 6.2976413215e+00 -3.8728128661e-02 1.7094712297e+00 -2.9608910239e+00 1.7094712297e+00 2.9608910239e+00 
11300 6.2974810226e+00 -3.8003418643e-02 1.7106041064e+00 -2.9628532239e+00 1.7106041064e+00 2.9628532239e+00 
11400 6.2973322034e+00 -3.7249688014e-02 1.7117150452e+00 -2.9647774264e+00 1.7117150452e+00 2.9647774264e+00 
11500 6.2971943856e+00 -3.6468882481e-02 1.7128032413e+00 -2.9666622373e+00 1.7128032413e+00 2.9666622373e+00 
11600 6.2970670616e+00 -3.5662959700e-02 1.7138679479e+00 -2.9685063632e+00 1.7138679479e+00 2.9685063632e+00 
11700 6.2969496986e+00 -3.4833885760e-02 1.7149084763e+00 -2.9703086112e+00 1.7149084763e+00 2.9703086112e+00 
11800 6.2968417421e+00 -3.3983631606e-02 1.7159241958e+00 -2.9720678891e+00 1.7159241958e+00 2.9720678891e+00 
11900 6.2967426199e+00 -3.3114169402e-02 1.7169145338e+00 -2.9737832049e+00 1.7169145338e+00 2.9737832049e+00 
12000 6.2966517463e+00 -3.2227468864e-02 1.7178789752e+00 -2.9754536663e+00 1.7178789752e+00 2.9754536663e+00 
12100 6.2965685256e+00 -3.1325493559e-02 1.7188170622e+00 -2.9770784807e+00 1.7188170622e+00 2.9770784807e+00 
12200 6.2964923561e+00 -3.0410197216e-02 1.7197283942e+00 -2.9786569540e+00 1.7197283942e+00 2.9786569540e+00 
12300 6.2964226344e+00 -2.9483520031e-02 1.7206126269e+00 -2.9801884900e+00 1.7206126269e+00 2.9801884900e+00 
12400 6.2963587584e+00 -2.8547385008e-02 1.7214694719e+00 -2.9816725890e+00 1.7214694719e+00 2.9816725890e+00 
12500 6.2963001316e+00 -2.7603694353e-02 1.7222986959e+00 -2.9831088471e+00 1.7222986959e+00 2.9831088471e+00 
12600 6.2962461659e+00 -2.6654325910e-02 1.7231001200e+00 -2.9844969544e+00 1.7231001200e+00 2.9844969544e+00 
12700 6.2961962858e+00 -2.5701129696e-02 1.7238736189e+00 -2.9858366937e+00 1.7238736189e+00 2.9858366937e+00 
12800 6.2961499304e+00 -2.4745924517e-02 1.7246191196e+00 -2.9871279388e+00 1.7246191196e+00 2.9871279388e+00 
12900 6.2961065574e+00 -2.3790494695e-02 1.7253366009e+00 -2.9883706529e+00 1.7253366009e+00 2.9883706529e+00 
13000 6.2960656448e+00 -2.2836586920e-02 1.7260260918e+00 -2.9895648862e+00 1.7260260918e+00 2.9895648862e+00 
13100 6.2960266941e+00 -2.1885907238e-02 1.7266876706e+00 -2.9907107743e+00 1.7266876706e+00 2.9907107743e+00 
13200 6.2959892321e+00 -2.0940118185e-02 1.7273214635e+00 -2.9918085357e+00 1.7273214635e+00 2.9918085357e+00 
13300 6.2959528127e+00 -2.0000836080e-02 1.7279276431e+00 -2.9928584697e+00 1.7279276431e+00 2.9928584697e+00 
13400 6.2959170188e+00 -1.9069628485e-02 1.7285064275e+00 -2.9938609537e+00 1.7285064275e+00 2.9938609537e+00 
13500 6.2958814637e+00 -1.8148011841e-02 1.7290580784e+00 -2.9948164411e+00 1.7290580784e+00 2.9948164411e+00 
13600 6.2958457920e+00 -1.7237449290e-02 1.7295828997e+00 -2.9957254582e+00 1.7295828997e+00 2.9957254582e+00 
13700 6.2958096804e+00 -1.6339348672e-02 1.7300812360e+00 -2.9965886019e+00 1.7300812360e+00 2.9965886019e+00 
13800 6.2957728386e+00 -1.5455060725e-02 1.7305534708e+00 -2.9974065366e+00 1.7305534708e+00 2.9974065366e+00 
13900 6.2957350092e+00 -1.4585877465e-02 1.7310000252e+00 -2.9981799915e+00 1.7310000252e+00 2.9981799915e+00 
14000 6.2956959681e+00 -1.3733030764e-02 1.7314213559e+00 -2.9989097577e+00 1.7314213559e+00 2.9989097577e+00 
14100 6.2956555241e+00 -1.2897691118e-02 1.7318179536e+00 -2.9995966850e+00 1.7318179536e+00 2.9995966850e+00 
14200 6.2956135185e+00 -1.2080966598e-02 1.7321903412e+00 -3.0002416794e+00 1.7321903412e+00 3.0002416794e+00 
14300 6.2955698244e+00 -1.1283901989e-02 1.7325390723e+00 -3.0008456993e+00 1.7325390723e+00 3.0008456993e+00 
14400 6.2955243462e+00 -1.0507478112e-02 1.7328647289e+00 -3.0014097531e+00 1.7328647289e+00 3.0014097531e+00 
14500 6.2954770182e+00 -9.7526113110e-03 1.7331679200e+00 -3.0019348956e+00 1.7331679200e+00 3.0019348956e+00 
14600 6.2954278035e+00 -9.0201531177e-03 1.7334492798e+00 -3.0024222250e+00 1.7334492798e+00 3.0024222250e+00 
14700 6.2953766928e+00 -8.3108900730e-03 1.7337094657e+00 -3.0028728801e+00 1.7337094657e+00 3.0028728801e+00 
14800 6.2953237027e+00 -7.6255437029e-03 1.7339491564e+00 -3.0032880366e+00 1.7339491564e+00 3.0032880366e+00 
14900 6.2952688741e+00 -6.9647706426e-03 1.7341690505e+00 -3.0036689044e+00 1.7341690505e+00 3.0036689044e+00 
15000 6.2952122708e+00 -6.3291628995e-03 1.7343698644e+00 -3.0040167243e+00 1.7343698644e+00 3.0040167243e+00 
15100 6.2951539774e+00 -5.7192482472e-03 1.7345523305e+00 -3.0043327648e+00 1.7345523305e+00 3.0043327648e+00 
15200 6.2950940973e+00 -5.1354907450e-03 1.7347171955e+00 -3.0046183194e+00 1.7347171955e+00 3.0046183194e+00 
15300 6.2950327514e+00 -4.5782913733e-03 1.7348652186e+00 -3.0048747029e+00 1.7348652186e+00 3.0048747029e+00 
15400 6.2949700756e+00 -4.0479887790e-03 1.7349971697e+00 -3.0051032490e+00 1.7349971697e+00 3.0051032490e+00 
15500 6.2949062189e+00 -3.5448601240e-03 1.7351138280e+00 -3.0053053069e+00 1.7351138280e+00 3.0053053069e+00 
15600 6.2948413417e+00 -3.0691220309e-03 1.7352159796e+00 -3.0054822388e+00 1.7352159796e+00 3.0054822388e+00 
15700 6.2947756137e+00 -2.6209316180e-03 1.7353044167e+00 -3.0056354163e+00 1.7353044167e+00 3.0056354163e+00 
15800 6.2947092120e+00 -2.2003876209e-03 1.7353799351e+00 -3.0057662181e+00 1.7353799351e+00 3.0057662181e+00 
15900 6.2946423192e+00 -1.8075315928e-03 1.7354433334e+00 -3.0058760271e+00 1.7354433334e+00 3.0058760271e+00 
16000 6.2945751216e+00 -1.4423491802e-03 1.7354954106e+00 -3.0059662275e+00 1.7354954106e+00 3.0059662275e+00 
16100 6.2945078075e+00 -1.1047714695e-03 1.7355369652e+00 -3.0060382021e+00 1.7355369652e+00 3.0060382021e+00 
16200 6.2944405652e+00 -7.9467639935e-04 1.7355687932e+00 -3.0060933299e+00 1.7355687932e+00 3.0060933299e+00 
16300 6.2943735818e+00 -5.1189023620e-04 1.7355916871e+00 -3.0061329832e+00 1.7355916871e+00 3.0061329832e+00 
16400 6.2943070414e+00 -2.5618910849e-04 1.7356064340e+00 -3.0061585256e+00 1.7356064340e+00 3.0061585256e+00 
16500 6.2942411239e+00 -2.7300596473e-05 1.7356138144e+00 -3.0061713088e+00 1.7356138144e+00 3.0061713088e+00 
16600 6.2941760031e+00 1.7427592227e-04 1.7356138144e+00 -3.0061713088e+00 1.7356138144e+00 3.0061713088e+00 
16700 6.2941118464e+00 3.5056523157e-04 1.7356087938e+00 -3.0061626129e+00 1.7356087938e+00 3.0061626129e+00 
16800 6.2940488133e+00 5.0113255615e-04 1.7355986946e+00 -3.0061451206e+00 1.7355986946e+00 3.0061451206e+00 
16900 6.2939870537e+00 6.2642769256e-04 1.7355842577e+00 -3.0061201152e+00 1.7355842577e+00 3.0061201152e+00 
17000 6.2939267080e+00 7.2694031212e-04 1.7355662112e+00 -3.0060888576e+00 1.7355662112e+00 3.0060888576e+00 
17100 6.2938679058e+00 8.0319810483e-04 1.7355452687e+00 -3.0060525843e+00 1.7355452687e+00 3.0060525843e+00 
17200 6.2938107654e+00 8.5576489029e-04 1.7355221291e+00 -3.0060125053e+00 1.7355221291e+00 3.0060125053e+00 
17300 6.2937553930e+00 8.8523869874e-04 1.7354974748e+00 -3.0059698028e+00 1.7354974748e+00 3.0059698028e+00 
17400 6.2937018829e+00 8.9224982587e-04 1.7354719710e+00 -3.0059256289e+00 1.7354719710e+00 3.0059256289e+00 
17500 6.2936503165e+00 8.7745886502e-04 1.7354462648e+00 -3.0058811044e+00 1.7354462648e+00 3.0058811044e+00 
17600 6.2936007625e+00 8.4155472048e-04 1.7354209844e+00 -3.0058373174e+00 1.7354209844e+00 3.0058373174e+00 
17700 6.2935532767e+00 7.8525260577e-04 1.7353967380e+00 -3.0057953215e+00 1.7353967380e+00 3.0057953215e+00 
17800 6.2935079021e+00 7.0929203082e-04 1.7353741135e+00 -3.0057561347e+00 1.7353741135e+00 3.0057561347e+00 
17900 6.2934646688e+00 6.1443478216e-04 1.7353536772e+00 -3.0057207380e+00 1.7353536772e+00 3.0057207380e+00 
18000 6.2934235943e+00 5.0146290021e-04 1.7353359738e+00 -3.0056900748e+00 1.7353359738e+00 3.0056900748e+00 
18100 6.2933846840e+00 3.7117665776e-04 1.7353215252e+00 -3.0056650492e+00 1.7353215252e+00 3.0056650492e+00 
18200 6.2933479312e+00 2.2439254397e-04 1.7353108305e+00 -3.0056465254e+00 1.7353108305e+00 3.0056465254e+00 
18300 6.2933133181e+00 6.1941257946e-05 1.7353043650e+00 -3.0056353268e+00 1.7353043650e+00 3.0056353268e+00 
18400 6.2932808149e+00 -1.1347325258e-04 1.7353043650e+00 -3.0056353268e+00 1.7353043650e+00 3.0056353268e+00 
18500 6.2932503827e+00 -3.0477200879e-04 1.7353076346e+00 -3.0056409898e+00 1.7353076346e+00 3.0056409898e+00 
18600 6.2932219727e+00 -5.0917753033e-04 1.7353164161e+00 -3.0056561998e+00 1.7353164161e+00 3.0056561998e+00 
18700 6.2931955269e+00 -7.2582218979e-04 1.7353310871e+00 -3.0056816109e+00 1.7353310871e+00 3.0056816109e+00 
18800 6.2931709791e+00 -9.5383388680e-04 1.7353520002e+00 -3.0057178334e+00 1.7353520002e+00 3.0057178334e+00 
18900 6.2931482554e+00 -1.1923379124e-03 1.7353794827e+00 -3.0057654345e+00 1.7353794827e+00 3.0057654345e+00 
19000 6.2931272753e+00 -1.4404587764e-03 1.7354138367e+00 -3.0058249373e+00 1.7354138367e+00 3.0058249373e+00 
19100 6.2931079525e+00 -1.6973219949e-03 1.7354553387e+00 -3.0058968209e+00 1.7354553387e+00 3.0058968209e+00 
19200 6.2930901956e+00 -1.9620558343e-03 1.7355042403e+00 -3.0059815209e+00 1.7355042403e+00 3.0059815209e+00 
19300 6.2930739087e+00 -2.2337930091e-03 1.7355607676e+00 -3.0060794290e+00 1.7355607676e+00 3.0060794290e+00 
19400 6.2930589929e+00 -2.5116723314e-03 1.7356251216e+00 -3.0061908935e+00 1.7356251216e+00 3.0061908935e+00 
19500 6.2930453463e+00 -2.7948403078e-03 1.7356974785e+00 -3.0063162194e+00 1.7356974785e+00 3.0063162194e+00 
19600 6.2930328656e+00 -3.0824526842e-03 1.7357779897e+00 -3.0064556689e+00 1.7357779897e+00 3.0064556689e+00 
19700 6.2930214464e+00 -3.3736759336e-03 1.7358667822e+00 -3.0066094619e+00 1.7358667822e+00 3.0066094619e+00 
19800 6.2930109839e+00 -3.6676886872e-03 1.7359639586e+00 -3.0067777764e+00 1.7359639586e+00 3.0067777764e+00 
19900 6.2930013743e+00 -3.9636831057e-03 1.7360695981e+00 -3.0069607493e+00 1.7360695981e+00 3.0069607493e+00 
20000 6.2929925146e+00 -4.2608661909e-03 1.7361837561e+00 -3.0071584769e+00 1.7361837561e+00 3.0071584769e+00 
20100 6.2929843040e+00 -4.5584610351e-03 1.7363064654e+00 -3.0073710155e+00 1.7363064654e+00 3.0073710155e+00 
20200 6.2929766441e+00 -4.8557080079e-03 1.7364377359e+00 -3.0075983828e+00 1.7364377359e+00 3.0075983828e+00 
20300 6.2929694397e+00 -5.1518658796e-03 1.7365775559e+00 -3.0078405581e+00 1.7365775559e+00 3.0078405581e+00 
20400 6.2929625993e+00 -5.4462128811e-03 1.7367258919e+00 -3.0080974836e+00 1.7367258919e+00 3.0080974836e+00 
20500 6.2929560356e+00 -5.7380476988e-03 1.7368826897e+00 -3.0083690653e+00 1.7368826897e+00 3.0083690653e+00 
20600 6.2929496657e+00 -6.0266904052e-03 1.7370478746e+00 -3.0086551741e+00 1.7370478746e+00 3.0086551741e+00 
20700 6.2929434120e+00 -6.3114833248e-03 1.7372213526e+00 -3.0089556467e+00 1.7372213526e+00 3.0089556467e+00 
20800 6.2929372019e+00 -6.5917918355e-03 1.7374030103e+00 -3.0092702871e+00 1.7374030103e+00 3.0092702871e+00 
20900 6.2929309686e+00 -6.8670051054e-03 1.7375927162e+00 -3.0095988674e+00 1.7375927162e+00 3.0095988674e+00 
21000 6.2929246510e+00 -7.1365367660e-03 1.7377903211e+00 -3.0099411290e+00 1.7377903211e+00 3.0099411290e+00 
21100 6.2929181940e+00 -7.3998255214e-03 1.7379956588e+00 -3.0102967843e+00 1.7379956588e+00 3.0102967843e+00 
21200 6.2929115486e+00 -7.6563356944e-03 1.7382085470e+00 -3.0106655176e+00 1.7382085470e+00 3.0106655176e+00 
21300 6.2929046720e+00 -7.9055577112e-03 1.7384287881e+00 -3.0110469863e+00 1.7384287881e+00 3.0110469863e+00 
21400 6.2928975275e+00 -8.1470085234e-03 1.7386561695e+00 -3.0114408225e+00 1.7386561695e+00 3.0114408225e+00 
21500 6.2928900845e+00 -8.3802319698e-03 1.7388904652e+00 -3.0118466345e+00 1.7388904652e+00 3.0118466345e+00 
21600 6.2928823186e+00 -8.6047990789e-03 1.7391314357e+00 -3.0122640076e+00 1.7391314357e+00 3.0122640076e+00 
21700 6.2928742114e+00 -8.8203083111e-03 1.7393788294e+00 -3.0126925061e+00 1.7393788294e+00 3.0126925061e+00 
21800 6.2928657499e+00 -9.0263857453e-03 1.7396323832e+00 -3.0131316741e+00 1.7396323832e+00 3.0131316741e+00 
21900 6.2928569272e+00 -9.2226852064e-03 1.7398918233e+00 -3.0135810377e+00 1.7398918233e+00 3.0135810377e+00 
22000 6.2928477413e+00 -9.4088883396e-03 1.7401568662e+00 -3.0140401054e+00 1.7401568662e+00 3.0140401054e+00 
22100 6.2928381955e+00 -9.5847046284e-03 1.7404272192e+00 -3.0145083705e+00 1.7404272192e+00 3.0145083705e+00 
22200 6.2928282979e+00 -9.7498713610e-03 1.7407025814e+00 -3.0149853119e+00 1.7407025814e+00 3.0149853119e+00 
22300 6.2928180611e+00 -9.9041535440e-03 1.7409826445e+00 -3.0154703954e+00 1.7409826445e+00 3.0154703954e+00 
22400 6.2928075018e+00 -1.0047343766e-02 1.7412670938e+00 -3.0159630760e+00 1.7412670938e+00 3.0159630760e+00 
22500 6.2927966403e+00 -1.0179262012e-02 1.7415556084e+00 -3.0164627980e+00 1.7415556084e+00 3.0164627980e+00 
22600 6.2927855008e+00 -1.0299755430e-02 1.7418478628e+00 -3.0169689975e+00 1.7418478628e+00 3.0169689975e+00 
22700 6.2927741101e+00 -1.0408698052e-02 1.7421435272e+00 -3.0174811032e+00 1.7421435272e+00 3.0174811032e+00 
22800 6.2927624978e+00 -1.0505990468e-02 1.7424422682e+00 -3.0179985379e+00 1.7424422682e+00 3.0179985379e+00 
22900 6.2927506960e+00 -1.0591559458e-02 1.7427437501e+00 -3.0185207197e+00 1.7427437501e+00 3.0185207197e+00 
23000 6.2927387384e+00 -1.0665357586e-02 1.7430476349e+00 -3.0190470636e+00 1.7430476349e+00 3.0190470636e+00 
23100 6.2927266605e+00 -1.0727362743e-02 1.7433535838e+00 -3.0195769826e+00 1.7433535838e+00 3.0195769826e+00 
23200 6.2927144986e+00 -1.0777577664e-02 1.7436612574e+00 -3.0201098890e+00 1.7436612574e+00 3.0201098890e+00 
23300 6.2927022900e+00 -1.0816029398e-02 1.7439703167e+00 -3.0206451955e+00 1.7439703167e+00 3.0206451955e+00 
23400 6.2926900724e+00 -1.0842768748e-02 1.7442804238e+00 -3.0211823166e+00 1.7442804238e+00 3.0211823166e+00 
23500 6.2926778835e+00 -1.0857869673e-02 1.7445912422e+00 -3.0217206700e+00 1.7445912422e+00 3.0217206700e+00 
23600 6.2926657607e+00 -1.0861428663e-02 1.7449024381e+00 -3.0222596771e+00 1.7449024381e+00 3.0222596771e+00 
23700 6.2926537410e+00 -1.0853564076e-02 1.7452136805e+00 -3.0227987647e+00 1.7452136805e+00 3.0227987647e+00 
23800 6.2926418604e+00 -1.0834415453e-02 1.7455246420e+00 -3.0233373658e+00 1.7455246420e+00 3.0233373658e+00 
23900 6.2926301536e+00 -1.0804142800e-02 1.7458349996e+00 -3.0238749209e+00 1.7458349996e+00 3.0238749209e+00 
24000 6.2926186542e+00 -1.0762925851e-02 1.7461444350e+00 -3.0244108787e+00 1.7461444350e+00 3.0244108787e+00 
24100 6.2926073940e+00 -1.0710963302e-02 1.7464526352e+00 -3.0249446972e+00 1.7464526352e+00 3.0249446972e+00 
24200 6.2925964029e+00 -1.0648472024e-02 1.7467592933e+00 -3.0254758446e+00 1.7467592933e+00 3.0254758446e+00 
24300 6.2925857089e+00 -1.0575686257e-02 1.7470641087e+00 -3.0260038003e+00 1.7470641087e+00 3.0260038003e+00 
24400 6.2925753378e+00 -1.0492856788e-02 1.7473667876e+00 -3.0265280557e+00 1.7473667876e+00 3.0265280557e+00 
24500 6.2925653131e+00 -1.0400250105e-02 1.7476670439e+00 -3.0270481148e+00 1.7476670439e+00 3.0270481148e+00 
24600 6.2925556558e+00 -1.0298147547e-02 1.7479645990e+00 -3.0275634954e+00 1.7479645990e+00 3.0275634954e+00 
24700 6.2925463844e+00 -1.0186844435e-02 1.7482591827e+00 -3.0280737293e+00 1.7482591827e+00 3.0280737293e+00 
24800 6.2925375150e+00 -1.0066649188e-02 1.7485505333e+00 -3.0285783633e+00 1.7485505333e+00 3.0285783633e+00 
24900 6.2925290609e+00 -9.9378824434e-03 1.7488383982e+00 -3.0290769599e+00 1.7488383982e+00 3.0290769599e+00 
25000 6.2925210329e+00 -9.8008761549e-03 1.7491225340e+00 -3.0295690975e+00 1.7491225340e+00 3.0295690975e+00 
25100 6.2925134390e+00 -9.6559726974e-03 1.7494027070e+00 -3.0300543714e+00 1.7494027070e+00 3.0300543714e+00 
25200 6.2925062849e+00 -9.5035239621e-03 1.7496786933e+00 -3.0305323938e+00 1.7496786933e+00 3.0305323938e+00 
25300 6.2924995735e+00 -9.3438904520e-03 1.7499502795e+00 -3.0310027948e+00 1.7499502795e+00 3.0310027948e+00 
25400 6.2924933052e+00 -9.1774403779e-03 1.7502172622e+00 -3.0314652223e+00 1.7502172622e+00 3.0314652223e+00 
25500 6.2924874783e+00 -9.0045487565e-03 1.7504794487e+00 -3.0319193428e+00 1.7504794487e+00 3.0319193428e+00 
25600 6.2924820886e+00 -8.8255965128e-03 1.7507366574e+00 -3.0323648413e+00 1.7507366574e+00 3.0323648413e+00 
25700 6.2924771296e+00 -8.6409695879e-03 1.7509887172e+00 -3.0328014217e+00 1.7509887172e+00 3.0328014217e+00 
25800 6.2924725929e+00 -8.4510580547e-03 1.7512354685e+00 -3.0332288074e+00 1.7512354685e+00 3.0332288074e+00 
25900 6.2924684681e+00 -8.2562552428e-03 1.7514767625e+00 -3.0336467409e+00 1.7514767625e+00 3.0336467409e+00 
26000 6.2924647430e+00 -8.0569568743e-03 1.7517124619e+00 -3.0340549842e+00 1.7517124619e+00 3.0340549842e+00 
26100 6.2924614038e+00 -7.8535602122e-03 1.7519424406e+00 -3.0344533191e+00 1.7519424406e+00 3.0344533191e+00 
26200 6.2924584352e+00 -7.6464632228e-03 1.7521665841e+00 -3.0348415469e+00 1.7521665841e+00 3.0348415469e+00 
26300 6.2924558205e+00 -7.4360637541e-03 1.7523847888e+00 -3.0352194886e+00 1.7523847888e+00 3.0352194886e+00 
26400 6.2924535420e+00 -7.2227587307e-03 1.7525969629e+00 -3.0355869850e+00 1.7525969629e+00 3.0355869850e+00 
26500 6.2924515809e+00 -7.0069433677e-03 1.7528030257e+00 -3.0359438962e+00 1.7528030257e+00 3.0359438962e+00 
26600 6.2924499176e+00 -6.7890104045e-03 1.7530029077e+00 -3.0362901020e+00 1.7530029077e+00 3.0362901020e+00 
26700 6.2924485319e+00 -6.5693493587e-03 1.7531965508e+00 -3.0366255016e+00 1.7531965508e+00 3.0366255016e+00 
26800 6.2924474030e+00 -6.3483458039e-03 1.7533839076e+00 -3.0369500131e+00 1.7533839076e+00 3.0369500131e+00 
26900 6.2924465099e+00 -6.1263806691e-03 1.7535649419e+00 -3.0372635738e+00 1.7535649419e+00 3.0372635738e+00 
27000 6.2924458313e+00 -5.9038295640e-03 1.7537396284e+00 -3.0375661397e+00 1.7537396284e+00 3.0375661397e+00 
27100 6.2924453462e+00 -5.6810621286e-03 1.7539079523e+00 -3.0378576852e+00 1.7539079523e+00 3.0378576852e+00 
27200 6.2924450332e+00 -5.4584414100e-03 1.7540699092e+00 -3.0381382027e+00 1.7540699092e+00 3.0381382027e+00 
27300 6.2924448717e+00 -5.2363232651e-03 1.7542255051e+00 -3.0384077027e+00 1.7542255051e+00 3.0384077027e+00 
27400 6.2924448412e+00 -5.0150557924e-03 1.7543747561e+00 -3.0386662130e+00 1.7543747561e+00 3.0386662130e+00 
27500 6.2924449218e+00 -4.7949787911e-03 1.7545176880e+00 -3.0389137784e+00 1.7545176880e+00 3.0389137784e+00 
27600 6.2924450943e+00 -4.5764232498e-03 1.7546543364e+00 -3.0391504604e+00 1.7546543364e+00 3.0391504604e+00 
27700 6.2924453401e+00 -4.3597108644e-03 1.7547847462e+00 -3.0393763367e+00 1.7547847462e+00 3.0393763367e+00 
27800 6.2924456416e+00 -4.1451535858e-03 1.7549089711e+00 -3.0395915007e+00 1.7549089711e+00 3.0395915007e+00 
27900 6.2924459819e+00 -3.9330531978e-03 1.7550270741e+00 -3.0397960611e+00 1.7550270741e+00 3.0397960611e+00 
28000 6.2924463454e+00 -3.7237009252e-03 1.7551391264e+00 -3.0399901413e+00 1.7551391264e+00 3.0399901413e+00 
28100 6.2924467173e+00 -3.5173770727e-03 1.7552452074e+00 -3.0401738790e+00 1.7552452074e+00 3.0401738790e+00 
28200 6.2924470839e+00 -3.3143506940e-03 1.7553454045e+00 -3.0403474255e+00 1.7553454045e+00 3.0403474255e+00 
28300 6.2924474328e+00 -3.1148792917e-03 1.7554398127e+00 -3.0405109453e+00 1.7554398127e+00 3.0405109453e+00 
28400 6.2924477526e+00 -2.9192085476e-03 1.7555285343e+00 -3.0406646155e+00 1.7555285343e+00 3.0406646155e+00 
28500 6.2924480334e+00 -2.7275720832e-03 1.7556116782e+00 -3.0408086250e+00 1.7556116782e+00 3.0408086250e+00 
28600 6.2924482660e+00 -2.5401912508e-03 1.7556893603e+00 -3.0409431744e+00 1.7556893603e+00 3.0409431744e+00 
28700 6.2924484429e+00 -2.3572749537e-03 1.7557617025e+00 -3.0410684747e+00 1.7557617025e+00 3.0410684747e+00 
28800 6.2924485574e+00 -2.1790194967e-03 1.7558288326e+00 -3.0411847475e+00 1.7558288326e+00 3.0411847475e+00 
28900 6.2924486043e+00 -2.0056084651e-03 1.7558908840e+00 -3.0412922237e+00 1.7558908840e+00 3.0412922237e+00 
29000 6.2924485794e+00 -1.8372126324e-03 1.7559479952e+00 -3.0413911431e+00 1.7559479952e+00 3.0413911431e+00 
29100 6.2924484797e+00 -1.6739898970e-03 1.7560003094e+00 -3.0414817540e+00 1.7560003094e+00 3.0414817540e+00 
29200 6.2924483030e+00 -1.5160852451e-03 1.7560479745e+00 -3.0415643123e+00 1.7560479745e+00 3.0415643123e+00 
29300 6.2924480486e+00 -1.3636307417e-03 1.7560911422e+00 -3.0416390810e+00 1.7560911422e+00 3.0416390810e+00 
29400 6.2924477164e+00 -1.2167455476e-03 1.7561299681e+00 -3.0417063294e+00 1.7561299681e+00 3.0417063294e+00 
29500 6.2924473074e+00 -1.0755359619e-03 1.7561646110e+00 -3.0417663327e+00 1.7561646110e+00 3.0417663327e+00 
29600 6.2924468235e+00 -9.4009548968e-04 1.7561952328e+00 -3.0418193713e+00 1.7561952328e+00 3.0418193713e+00 
29700 6.2924462672e+00 -8.1050493402e-04 1.7562219980e+00 -3.0418657299e+00 1.7562219980e+00 3.0418657299e+00 
29800 6.2924456421e+00 -6.8683251095e-04 1.7562450733e+00 -3.0419056975e+00 1.7562450733e+00 3.0419056975e+00 
29900 6.2924449521e+00 -5.6913398751e-04 1.7562646273e+00 -3.0419395661e+00 1.7562646273e+00 3.0419395661e+00 
30000 6.2924442020e+00 -4.5745284129e-04 1.7562808303e+00 -3.0419676305e+00 1.7562808303e+00 3.0419676305e+00 
30100 6.2924433968e+00 -3.5182044112e-04 1.7562938537e+00 -3.0419901876e+00 1.7562938537e+00 3.0419901876e+00 
30200 6.2924425422e+00 -2.5225624758e-04 1.7563038697e+00 -3.0420075358e+00 1.7563038697e+00 3.0420075358e+00 
30300 6.2924416443e+00 -1.5876803289e-04 1.7563110512e+00 -3.0420199745e+00 1.7563110512e+00 3.0420199745e+00 
30400 6.2924407093e+00 -7.1352118880e-05 1.7563155711e+00 -3.0420278032e+00 1.7563155711e+00 3.0420278032e+00 
30500 6.2924397438e+00 1.0006367588e-05 1.7563176024e+00 -3.0420313216e+00 1.7563176024e+00 3.0420313216e+00 
30600 6.2924387545e+00 8.5620897334e-05 1.7563176024e+00 -3.0420313216e+00 1.7563176024e+00 3.0420313216e+00 
30700 6.2924377483e+00 1.5494510858e-04 1.7563151649e+00 -3.0420270997e+00 1.7563151649e+00 3.0420270997e+00 
30800 6.2924367319e+00 2.1832130979e-04 1.7563107538e+00 -3.0420194594e+00 1.7563107538e+00 3.0420194594e+00 
30900 6.2924357123e+00 2.7580625760e-04 1.7563045385e+00 -3.0420086942e+00 1.7563045385e+00 3.0420086942e+00 
31000 6.2924346960e+00 3.2746640057e-04 1.7562966866e+00 -3.0419950943e+00 1.7562966866e+00 3.0419950943e+00 
31100 6.2924336898e+00 3.7337753942e-04 1.7562873639e+00 -3.0419789470e+00 1.7562873639e+00 3.0419789470e+00 
31200 6.2924327000e+00 4.1362447651e-04 1.7562767342e+00 -3.0419605358e+00 1.7562767342e+00 3.0419605358e+00 
31300 6.2924317327e+00 4.4830065558e-04 1.7562649586e+00 -3.0419401399e+00 1.7562649586e+00 3.0419401399e+00 
31400 6.2924307938e+00 4.7750779251e-04 1.7562521957e+00 -3.0419180339e+00 1.7562521957e+00 3.0419180339e+00 
31500 6.2924298890e+00 5.0135549827e-04 1.7562386012e+00 -3.0418944876e+00 1.7562386012e+00 3.0418944876e+00 
31600 6.2924290233e+00 5.1996089475e-04 1.7562243277e+00 -3.0418697651e+00 1.7562243277e+00 3.0418697651e+00 
31700 6.2924282015e+00 5.3344822454e-04 1.7562095243e+00 -3.0418441249e+00 1.7562095243e+00 3.0418441249e+00 
31800 6.2924274281e+00 5.4194845555e-04 1.7561943369e+00 -3.0418178194e+00 1.7561943369e+00 3.0418178194e+00 
31900 6.2924267069e+00 5.4559888121e-04 1.7561789073e+00 -3.0417910946e+00 1.7561789073e+00 3.0417910946e+00 
32000 6.2924260415e+00 5.4454271739e-04 1.7561633736e+00 -3.0417641895e+00 1.7561633736e+00 3.0417641895e+00 
32100 6.2924254349e+00 5.3892869664e-04 1.7561478699e+00 -3.0417373362e+00 1.7561478699e+00 3.0417373362e+00 
32200 6.2924248896e+00 5.2891066078e-04 1.7561325258e+00 -3.0417107596e+00 1.7561325258e+00 3.0417107596e+00 
32300 6.2924244077e+00 5.1464715259e-04 1.7561174669e+00 -3.0416846767e+00 1.7561174669e+00 3.0416846767e+00 
32400 6.2924239909e+00 4.9630100743e-04 1.7561028139e+00 -3.0416592970e+00 1.7561028139e+00 3.0416592970e+00 
32500 6.2924236402e+00 4.7403894559e-04 1.7560886832e+00 -3.0416348219e+00 1.7560886832e+00 3.0416348219e+00 
32600 6.2924233563e+00 4.4803116617e-04 1.7560751862e+00 -3.0416114444e+00 1.7560751862e+00 3.0416114444e+00 
32700 6.2924231394e+00 4.1845094315e-04 1.7560624296e+00 -3.0415893494e+00 1.7560624296e+00 3.0415893494e+00 
32800 6.2924229892e+00 3.8547422454e-04 1.7560505152e+00 -3.0415687129e+00 1.7560505152e+00 3.0415687129e+00 
32900 6.2924229053e+00 3.4927923512e-04 1.7560395396e+00 -3.0415497026e+00 1.7560395396e+00 3.0415497026e+00 
33000 6.2924228864e+00 3.1004608371e-04 1.7560295945e+00 -3.0415324773e+00 1.7560295945e+00 3.0415324773e+00 
33100 6.2924229311e+00 2.6795637536e-04 1.7560207665e+00 -3.0415171867e+00 1.7560207665e+00 3.0415171867e+00 
33200 6.2924230377e+00 2.2319282926e-04 1.7560131368e+00 -3.0415039717e+00 1.7560131368e+00 3.0415039717e+00 
33300 6.2924232040e+00 1.7593890305e-04 1.7560067817e+00 -3.0414929644e+00 1.7560067817e+00 3.0414929644e+00 
33400 6.2924234277e+00 1.2637842385e-04 1.7560017721e+00 -3.0414842875e+00 1.7560017721e+00 3.0414842875e+00 
33500 6.2924237059e+00 7.4695226870e-05 1.7559981736e+00 -3.0414780547e+00 1.7559981736e+00 3.0414780547e+00 
33600 6.2924240358e+00 2.1072801951e-05 1.7559960468e+00 -3.0414743709e+00 1.7559960468e+00 3.0414743709e+00 
33700 6.2924244142e+00 -3.3698998551e-05 1.7559960468e+00 -3.0414743709e+00 1.7559960468e+00 3.0414743709e+00 
33800 6.2924248380e+00 -9.1639064050e-05 1.7559960468e+00 -3.0414743709e+00 1.7559960468e+00 3.0414743709e+00 
33900 6.2924253034e+00 -1.4997644624e-04 1.7559986561e+00 -3.0414788904e+00 1.7559986561e+00 3.0414788904e+00 
34000 6.2924258069e+00 -2.0952991219e-04 1.7560029265e+00 -3.0414862869e+00 1.7560029265e+00 3.0414862869e+00 
34100 6.2924263448e+00 -2.7012264902e-04 1.7560088926e+00 -3.0414966205e+00 1.7560088926e+00 3.0414966205e+00 
34200 6.2924269134e+00 -3.3158011764e-04 1.7560165840e+00 -3.0415099424e+00 1.7560165840e+00 3.0415099424e+00 
34300 6.2924275088e+00 -3.9373033771e-04 1.7560260253e+00 -3.0415262952e+00 1.7560260253e+00 3.0415262952e+00 
34400 6.2924281273e+00 -4.5640416138e-04 1.7560372361e+00 -3.0415457129e+00 1.7560372361e+00 3.0415457129e+00 
34500 6.2924287652e+00 -5.1943553551e-04 1.7560502314e+00 -3.0415682214e+00 1.7560502314e+00 3.0415682214e+00 
34600 6.2924294186e+00 -5.8266175215e-04 1.7560650213e+00 -3.0415938383e+00 1.7560650213e+00 3.0415938383e+00 
34700 6.2924300840e+00 -6.4592368701e-04 1.7560816113e+00 -3.0416225730e+00 1.7560816113e+00 3.0416225730e+00 
34800 6.2924307579e+00 -7.0906602574e-04 1.7561000024e+00 -3.0416544273e+00 1.7561000024e+00 3.0416544273e+00 
34900 6.2924314368e+00 -7.7193747791e-04 1.7561201911e+00 -3.0416893952e+00 1.7561201911e+00 3.0416893952e+00 
35000 6.2924321174e+00 -8.3439097844e-04 1.7561421696e+00 -3.0417274631e+00 1.7561421696e+00 3.0417274631e+00 
35100 6.2924327966e+00 -8.9628387645e-04 1.7561659260e+00 -3.0417686104e+00 1.7561659260e+00 3.0417686104e+00 
35200 6.2924334715e+00 -9.5747811146e-04 1.7561914443e+00 -3.0418128094e+00 1.7561914443e+00 3.0418128094e+00 
35300 6.2924341394e+00 -1.0178403768e-03 1.7562187045e+00 -3.0418600253e+00 1.7562187045e+00 3.0418600253e+00 
35400 6.2924347975e+00 -1.0772422701e-03 1.7562476827e+00 -3.0419102171e+00 1.7562476827e+00 3.0419102171e+00 
35500 6.2924354437e+00 -1.1355604315e-03 1.7562783517e+00 -3.0419633373e+00 1.7562783517e+00 3.0419633373e+00 
35600 6.2924360757e+00 -1.1926766684e-03 1.7563106804e+00 -3.0420193323e+00 1.7563106804e+00 3.0420193323e+00 
35700 6.2924366916e+00 -1.2484780677e-03 1.7563446345e+00 -3.0420781426e+00 1.7563446345e+00 3.0420781426e+00 
35800 6.2924372897e+00 -1.3028570959e-03 1.7563801766e+00 -3.0421397032e+00 1.7563801766e+00 3.0421397032e+00 
35900 6.2924378686e+00 -1.3557116856e-03 1.7564172660e+00 -3.0422039439e+00 1.7564172660e+00 3.0422039439e+00 
36000 6.2924384270e+00 -1.4069453106e-03 1.7564558592e+00 -3.0422707894e+00 1.7564558592e+00 3.0422707894e+00 
36100 6.2924389639e+00 -1.4564670476e-03 1.7564959100e+00 -3.0423401595e+00 1.7564959100e+00 3.0423401595e+00 
36200 6.2924394784e+00 -1.5041916269e-03 1.7565373697e+00 -3.0424119696e+00 1.7565373697e+00 3.0424119696e+00 
36300 6.2924399700e+00 -1.5500394695e-03 1.7565801868e+00 -3.0424861311e+00 1.7565801868e+00 3.0424861311e+00 
36400 6.2924404384e+00 -1.5939367139e-03 1.7566243079e+00 -3.0425625511e+00 1.7566243079e+00 3.0425625511e+00 
36500 6.2924408833e+00 -1.6358152303e-03 1.7566696774e+00 -3.0426411334e+00 1.7566696774e+00 3.0426411334e+00 
36600 6.2924413048e+00 -1.6756126237e-03 1.7567162378e+00 -3.0427217783e+00 1.7567162378e+00 3.0427217783e+00 
36700 6.2924417031e+00 -1.7132722259e-03 1.7567639296e+00 -3.0428043829e+00 1.7567639296e+00 3.0428043829e+00 
36800 6.2924420786e+00 -1.7487430760e-03 1.7568126920e+00 -3.0428888419e+00 1.7568126920e+00 3.0428888419e+00 
36900 6.2924424318e+00 -1.7819798913e-03 1.7568624625e+00 -3.0429750470e+00 1.7568624625e+00 3.0429750470e+00 
37000 6.2924427635e+00 -1.8129430268e-03 1.7569131776e+00 -3.0430628881e+00 1.7569131776e+00 3.0430628881e+00 
37100 6.2924430744e+00 -1.8415984254e-03 1.7569647724e+00 -3.0431522529e+00 1.7569647724e+00 3.0431522529e+00 
37200 6.2924433655e+00 -1.8679175577e-03 1.7570171812e+00 -3.0432430276e+00 1.7570171812e+00 3.0432430276e+00 
37300 6.2924436379e+00 -1.8918773529e-03 1.7570703374e+00 -3.0433350968e+00 1.7570703374e+00 3.0433350968e+00 
37400 6.2924438928e+00 -1.9134601204e-03 1.7571241738e+00 -3.0434283442e+00 1.7571241738e+00 3.0434283442e+00 
37500 6.2924441313e+00 -1.9326534625e-03 1.7571786227e+00 -3.0435226525e+00 1.7571786227e+00 3.0435226525e+00 
37600 6.2924443549e+00 -1.9494501791e-03 1.7572336161e+00 -3.0436179038e+00 1.7572336161e+00 3.0436179038e+00 
37700 6.2924445649e+00 -1.9638481641e-03 1.7572890857e+00 -3.0437139800e+00 1.7572890857e+00 3.0437139800e+00 
37800 6.2924447626e+00 -1.9758502941e-03 1.7573449632e+00 -3.0438107627e+00 1.7573449632e+00 3.0438107627e+00 
37900 6.2924449496e+00 -1.9854643099e-03 1.7574011804e+00 -3.0439081337e+00 1.7574011804e+00 3.0439081337e+00 
38000 6.2924451272e+00 -1.9927026916e-03 1.7574576693e+00 -3.0440059755e+00 1.7574576693e+00 3.0440059755e+00 
38100 6.2924452970e+00 -1.9975825261e-03 1.7575143624e+00 -3.0441041707e+00 1.7575143624e+00 3.0441041707e+00 
38200 6.2924454604e+00 -2.0001253698e-03 1.7575711925e+00 -3.0442026033e+00 1.7575711925e+00 3.0442026033e+00 
38300 6.2924456187e+00 -2.0003571044e-03 1.7576280931e+00 -3.0443011580e+00 1.7576280931e+00 3.0443011580e+00 
38400 6.2924457734e+00 -1.9983077886e-03 1.7576849984e+00 -3.0443997209e+00 1.7576849984e+00 3.0443997209e+00 
38500 6.2924459259e+00 -1.9940115037e-03 1.7577418436e+00 -3.0444981796e+00 1.7577418436e+00 3.0444981796e+00 
38600 6.2924460773e+00 -1.9875061958e-03 1.7577985647e+00 -3.0445964235e+00 1.7577985647e+00 3.0445964235e+00 
38700 6.2924462290e+00 -1.9788335129e-03 1.7578550990e+00 -3.0446943437e+00 1.7578550990e+00 3.0446943437e+00 
38800 6.2924463821e+00 -1.9680386396e-03 1.7579113847e+00 -3.0447918335e+00 1.7579113847e+00 3.0447918335e+00 
38900 6.2924465378e+00 -1.9551701269e-03 1.7579673616e+00 -3.0448887884e+00 1.7579673616e+00 3.0448887884e+00 
39000 6.2924466969e+00 -1.9402797207e-03 1.7580229708e+00 -3.0449851062e+00 1.7580229708e+00 3.0449851062e+00 
39100 6.2924468605e+00 -1.9234221868e-03 1.7580781546e+00 -3.0450806875e+00 1.7580781546e+00 3.0450806875e+00 
39200 6.2924470294e+00 -1.9046551346e-03 1.7581328573e+00 -3.0451754353e+00 1.7581328573e+00 3.0451754353e+00 
39300 6.2924472043e+00 -1.8840388380e-03 1.7581870246e+00 -3.0452692558e+00 1.7581870246e+00 3.0452692558e+00 
39400 6.2924473859e+00 -1.8616360564e-03 1.7582406039e+00 -3.0453620578e+00 1.7582406039e+00 3.0453620578e+00 
39500 6.2924475748e+00 -1.8375118536e-03 1.7582935444e+00 -3.0454537536e+00 1.7582935444e+00 3.0454537536e+00 
39600 6.2924477714e+00 -1.8117334172e-03 1.7583457974e+00 -3.0455442584e+00 1.7583457974e+00 3.0455442584e+00 
39700 6.2924479761e+00 -1.7843698766e-03 1.7583973158e+00 -3.0456334908e+00 1.7583973158e+00 3.0456334908e+00 
39800 6.2924481892e+00 -1.7554921228e-03 1.7584480545e+00 -3.0457213729e+00 1.7584480545e+00 3.0457213729e+00 
39900 6.2924484108e+00 -1.7251726269e-03 1.7584979707e+00 -3.0458078303e+00 1.7584979707e+00 3.0458078303e+00 
40000 6.2924486412e+00 -1.6934852613e-03 1.7585470234e+00 -3.0458927920e+00 1.7585470234e+00 3.0458927920e+00 
40100 6.2924488802e+00 -1.6605051207e-03 1.7585951738e+00 -3.0459761909e+00 1.7585951738e+00 3.0459761909e+00 
40200 6.2924491278e+00 -1.6263083456e-03 1.7586423851e+00 -3.0460579633e+00 1.7586423851e+00 3.0460579633e+00 
40300 6.2924493839e+00 -1.5909719472e-03 1.7586886229e+00 -3.0461380496e+00 1.7586886229e+00 3.0461380496e+00 
40400 6.2924496482e+00 -1.5545736346e-03 1.7587338549e+00 -3.0462163936e+00 1.7587338549e+00 3.0462163936e+00 
40500 6.2924499205e+00 -1.5171916445e-03 1.7587780509e+00 -3.0462929433e+00 1.7587780509e+00 3.0462929433e+00 
40600 6.2924502003e+00 -1.4789045738e-03 1.7588211830e+00 -3.0463676504e+00 1.7588211830e+00 3.0463676504e+00 
40700 6.2924504873e+00 -1.4397912147e-03 1.7588632257e+00 -3.0464404705e+00 1.7588632257e+00 3.0464404705e+00 
40800 6.2924507810e+00 -1.3999303942e-03 1.7589041554e+00 -3.0465113629e+00 1.7589041554e+00 3.0465113629e+00 
40900 6.2924510808e+00 -1.3594008155e-03 1.7589439511e+00 -3.0465802910e+00 1.7589439511e+00 3.0465802910e+00 
41000 6.2924513863e+00 -1.3182809050e-03 1.7589825938e+00 -3.0466472221e+00 1.7589825938e+00 3.0466472221e+00 
41100 6.2924516967e+00 -1.2766486619e-03 1.7590200668e+00 -3.0467121271e+00 1.7590200668e+00 3.0467121271e+00 
41200 6.2924520116e+00 -1.2345815125e-03 1.7590563555e+00 -3.0467749811e+00 1.7590563555e+00 3.0467749811e+00 
41300 6.2924523302e+00 -1.1921561694e-03 1.7590914478e+00 -3.0468357627e+00 1.7590914478e+00 3.0468357627e+00 
41400 6.2924526519e+00 -1.1494484942e-03 1.7591253335e+00 -3.0468944544e+00 1.7591253335e+00 3.0468944544e+00 
41500 6.2924529759e+00 -1.1065333661e-03 1.7591580046e+00 -3.0469510425e+00 1.7591580046e+00 3.0469510425e+00 
41600 6.2924533017e+00 -1.0634845547e-03 1.7591894553e+00 -3.0470055168e+00 1.7591894553e+00 3.0470055168e+00 
41700 6.2924536285e+00 -1.0203745980e-03 1.7592196820e+00 -3.0470578708e+00 1.7592196820e+00 3.0470578708e+00 
41800 6.2924539556e+00 -9.7727468572e-04 1.7592486828e+00 -3.0471081018e+00 1.7592486828e+00 3.0471081018e+00 
41900 6.2924542824e+00 -9.3425454809e-04 1.7592764582e+00 -3.0471562102e+00 1.7592764582e+00 3.0471562102e+00 
42000 6.2924546082e+00 -8.9138234951e-04 1.7593030105e+00 -3.0472022002e+00 1.7593030105e+00 3.0472022002e+00 
42100 6.2924549324e+00 -8.4872458817e-04 1.7593283440e+00 -3.0472460790e+00 1.7593283440e+00 3.0472460790e+00 
42200 6.2924552544e+00 -8.0634600114e-04 1.7593524647e+00 -3.0472878574e+00 1.7593524647e+00 3.0472878574e+00 
42300 6.2924555736e+00 -7.6430947502e-04 1.7593753808e+00 -3.0473275491e+00 1.7593753808e+00 3.0473275491e+00 
42400 6.2924558893e+00 -7.2267596233e-04 1.7593971019e+00 -3.0473651711e+00 1.7593971019e+00 3.0473651711e+00 
42500 6.2924562012e+00 -6.8150440365e-04 1.7594176395e+00 -3.0474007434e+00 1.7594176395e+00 3.0474007434e+00 
42600 6.2924565087e+00 -6.4085165551e-04 1.7594370069e+00 -3.0474342886e+00 1.7594370069e+00 3.0474342886e+00 
42700 6.2924568114e+00 -6.0077242397e-04 1.7594552187e+00 -3.0474658325e+00 1.7594552187e+00 3.0474658325e+00 
42800 6.2924571088e+00 -5.6131920407e-04 1.7594722915e+00 -3.0474954033e+00 1.7594722915e+00 3.0474954033e+00 
42900 6.2924574007e+00 -5.2254222498e-04 1.7594882428e+00 -3.0475230319e+00 1.7594882428e+00 3.0475230319e+00 
43000 6.2924576865e+00 -4.8448940091e-04 1.7595030921e+00 -3.0475487516e+00 1.7595030921e+00 3.0475487516e+00 
43100 6.2924579662e+00 -4.4720628769e-04 1.7595168599e+00 -3.0475725982e+00 1.7595168599e+00 3.0475725982e+00 
43200 6.2924582393e+00 -4.1073604504e-04 1.7595295682e+00 -3.0475946095e+00 1.7595295682e+00 3.0475946095e+00 
43300 6.2924585059e+00 -3.7511940446e-04 1.7595412399e+00 -3.0476148256e+00 1.7595412399e+00 3.0476148256e+00 
43400 6.2924587655e+00 -3.4039464256e-04 1.7595518995e+00 -3.0476332885e+00 1.7595518995e+00 3.0476332885e+00 
43500 6.2924590183e+00 -3.0659756001e-04 1.7595615723e+00 -3.0476500423e+00 1.7595615723e+00 3.0476500423e+00 
43600 6.2924592640e+00 -2.7376146574e-04 1.7595702846e+00 -3.0476651325e+00 1.7595702846e+00 3.0476651325e+00 
43700 6.2924595027e+00 -2.4191716648e-04 1.7595780638e+00 -3.0476786065e+00 1.7595780638e+00 3.0476786065e+00 
43800 6.2924597343e+00 -2.1109296152e-04 1.7595849381e+00 -3.0476905131e+00 1.7595849381e+00 3.0476905131e+00 
43900 6.2924599590e+00 -1.8131464251e-04 1.7595909365e+00 -3.0477009026e+00 1.7595909365e+00 3.0477009026e+00 
44000 6.2924601767e+00 -1.5260549823e-04 1.7595960887e+00 -3.0477098264e+00 1.7595960887e+00 3.0477098264e+00 
44100 6.2924603876e+00 -1.2498632418e-04 1.7596004251e+00 -3.0477173373e+00 1.7596004251e+00 3.0477173373e+00 
44200 6.2924605918e+00 -9.8475436974e-05 1.7596039766e+00 -3.0477234887e+00 1.7596039766e+00 3.0477234887e+00 
44300 6.2924607895e+00 -7.3088693174e-05 1.7596067749e+00 -3.0477283354e+00 1.7596067749e+00 3.0477283354e+00 
44400 6.2924609809e+00 -4.8839512657e-05 1.7596088517e+00 -3.0477319326e+00 1.7596088517e+00 3.0477319326e+00 
44500 6.2924611663e+00 -2.7135211355e-05 1.7596088517e+00 -3.0477319326e+00 1.7596088517e+00 3.0477319326e+00 
44600 6.2924613456e+00 -5.9318315523e-06 1.7596088517e+00 -3.0477319326e+00 1.7596088517e+00 3.0477319326e+00 
44700 6.2924615194e+00 1.4732093579e-05 1.7596088517e+00 -3.0477319326e+00 1.7596088517e+00 3.0477319326e+00 
44800 6.2924616878e+00 3.4820642349e-05 1.7596088517e+00 -3.0477319326e+00 1.7596088517e+00 3.0477319326e+00 
44900 6.2924618513e+00 5.4300475746e-05 1.7596088517e+00 -3.0477319326e+00 1.7596088517e+00 3.0477319326e+00 
45000 6.2924620101e+00 7.3140805051e-05 1.7596088517e+00 -3.0477319326e+00 1.7596088517e+00 3.0477319326e+00 
45100 6.2924621644e+00 8.9222047555e-05 1.7596067734e+00 -3.0477283329e+00 1.7596067734e+00 3.0477283329e+00 
45200 6.2924623145e+00 1.0414365743e-04 1.7596042381e+00 -3.0477239416e+00 1.7596042381e+00 3.0477239416e+00 
45300 6.2924624607e+00 1.1791234357e-04 1.7596012788e+00 -3.0477188160e+00 1.7596012788e+00 3.0477188160e+00 
45400 6.2924626034e+00 1.3053681279e-04 1.7595979283e+00 -3.0477130127e+00 1.7595979283e+00 3.0477130127e+00 
45500 6.2924627429e+00 1.4202770835e-04 1.7595942190e+00 -3.0477065880e+00 1.7595942190e+00 3.0477065880e+00 
45600 6.2924628794e+00 1.5239754606e-04 1.7595901832e+00 -3.0476995978e+00 1.7595901832e+00 3.0476995978e+00 
45700 6.2924630133e+00 1.6166064820e-04 1.7595858527e+00 -3.0476920972e+00 1.7595858527e+00 3.0476920972e+00 
45800 6.2924631448e+00 1.6983307530e-04 1.7595812590e+00 -3.0476841406e+00 1.7595812590e+00 3.0476841406e+00 
45900 6.2924632742e+00 1.7693255619e-04 1.7595764331e+00 -3.0476757818e+00 1.7595764331e+00 3.0476757818e+00 
46000 6.2924634017e+00 1.8297841622e-04 1.7595714054e+00 -3.0476670736e+00 1.7595714054e+00 3.0476670736e+00 
46100 6.2924635277e+00 1.8799150410e-04 1.7595662058e+00 -3.0476580678e+00 1.7595662058e+00 3.0476580678e+00 
46200 6.2924636523e+00 1.9199411730e-04 1.7595608639e+00 -3.0476488152e+00 1.7595608639e+00 3.0476488152e+00 
46300 6.2924637759e+00 1.9500992639e-04 1.7595554081e+00 -3.0476393656e+00 1.7595554081e+00 3.0476393656e+00 
46400 6.2924638985e+00 1.9706389836e-04 1.7595498667e+00 -3.0476297675e+00 1.7595498667e+00 3.0476297675e+00 
46500 6.2924640203e+00 1.9818221914e-04 1.7595442668e+00 -3.0476200683e+00 1.7595442668e+00 3.0476200683e+00 
46600 6.2924641416e+00 1.9839221550e-04 1.7595386352e+00 -3.0476103140e+00 1.7595386352e+00 3.0476103140e+00 
46700 6.2924642625e+00 1.9772227646e-04 1.7595329976e+00 -3.0476005494e+00 1.7595329976e+00 3.0476005494e+00 
46800 6.2924643832e+00 1.9620177443e-04 1.7595273790e+00 -3.0475908177e+00 1.7595273790e+00 3.0475908177e+00 
46900 6.2924645036e+00 1.9386098622e-04 1.7595218036e+00 -3.0475811608e+00 1.7595218036e+00 3.0475811608e+00 
47000 6.2924646241e+00 1.9073101397e-04 1.7595162947e+00 -3.0475716191e+00 1.7595162947e+00 3.0475716191e+00 
47100 6.2924647445e+00 1.8684370643e-04 1.7595108747e+00 -3.0475622314e+00 1.7595108747e+00 3.0475622314e+00 
47200 6.2924648650e+00 1.8223158041e-04 1.7595055652e+00 -3.0475530350e+00 1.7595055652e+00 3.0475530350e+00 
47300 6.2924649857e+00 1.7692774274e-04 1.7595003867e+00 -3.0475440656e+00 1.7595003867e+00 3.0475440656e+00 
47400 6.2924651065e+00 1.7096581288e-04 1.7594953589e+00 -3.0475353573e+00 1.7594953589e+00 3.0475353573e+00 
47500 6.2924652274e+00 1.6437984628e-04 1.7594905005e+00 -3.0475269423e+00 1.7594905005e+00 3.0475269423e+00 
47600 6.2924653486e+00 1.5720425855e-04 1.7594858293e+00 -3.0475188515e+00 1.7594858293e+00 3.0475188515e+00 
47700 6.2924654699e+00 1.4947375074e-04 1.7594813619e+00 -3.0475111139e+00 1.7594813619e+00 3.0475111139e+00 
47800 6.2924655913e+00 1.4122323565e-04 1.7594771143e+00 -3.0475037567e+00 1.7594771143e+00 3.0475037567e+00 
47900 6.2924657128e+00 1.3248776548e-04 1.7594731011e+00 -3.0474968056e+00 1.7594731011e+00 3.0474968056e+00 
48000 6.2924658343e+00 1.2330246084e-04 1.7594693361e+00 -3.0474902845e+00 1.7594693361e+00 3.0474902845e+00 
48100 6.2924659558e+00 1.1370244113e-04 1.7594658321e+00 -3.0474842154e+00 1.7594658321e+00 3.0474842154e+00 
48200 6.2924660771e+00 1.0372275665e-04 1.7594626010e+00 -3.0474786189e+00 1.7594626010e+00 3.0474786189e+00 
48300 6.2924661983e+00 9.3398322238e-05 1.7594596534e+00 -3.0474735135e+00 1.7594596534e+00 3.0474735135e+00 
48400 6.2924663191e+00 8.2763852784e-05 1.7594569992e+00 -3.0474689164e+00 1.7594569992e+00 3.0474689164e+00 
48500 6.2924664396e+00 7.1853800526e-05 1.7594546472e+00 -3.0474648426e+00 1.7594546472e+00 3.0474648426e+00 
48600 6.2924665596e+00 6.0702294298e-05 1.7594526053e+00 -3.0474613059e+00 1.7594526053e+00 3.0474613059e+00 
48700 6.2924666791e+00 5.1079453565e-05 1.7594526053e+00 -3.0474613059e+00 1.7594526053e+00 3.0474613059e+00 
48800 6.2924667979e+00 4.0962418923e-05 1.7594526053e+00 -3.0474613059e+00 1.7594526053e+00 3.0474613059e+00 
48900 6.2924669158e+00 3.0379473316e-05 1.7594526053e+00 -3.0474613059e+00 1.7594526053e+00 3.0474613059e+00 
49000 6.2924670327e+00 1.9358950880e-05 1.7594526053e+00 -3.0474613059e+00 1.7594526053e+00 3.0474613059e+00 
49100 6.2924671485e+00 7.9291814357e-06 1.7594526053e+00 -3.0474613059e+00 1.7594526053e+00 3.0474613059e+00 
49200 6.2924672633e+00 -3.8815631368e-06 1.7594526053e+00 -3.0474613059e+00 1.7594526053e+00 3.0474613059e+00 
49300 6.2924673768e+00 -1.6045120540e-05 1.7594526053e+00 -3.0474613059e+00 1.7594526053e+00 3.0474613059e+00 
49400 6.2924674890e+00 -2.8533487749e-05 1.7594526053e+00 -3.0474613059e+00 1.7594526053e+00 3.0474613059e+00 
49500 6.2924675999e+00 -4.1318868696e-05 1.7594526053e+00 -3.0474613059e+00 1.7594526053e+00 3.0474613059e+00 
49600 6.2924677093e+00 -5.4373719927e-05 1.7594526053e+00 -3.0474613059e+00 1.7594526053e+00 3.0474613059e+00 
49700 6.2924678172e+00 -6.7670794238e-05 1.7594526053e+00 -3.0474613059e+00 1.7594526053e+00 3.0474613059e+00 
49800 6.2924679235e+00 -8.1183182262e-05 1.7594526053e+00 -3.0474613059e+00 1.7594526053e+00 3.0474613059e+00 
49900 6.2924680279e+00 -9.2562402136e-05 1.7594549124e+00 -3.0474653018e+00 1.7594549124e+00 3.0474653018e+00 
50000 6.2924681306e+00 -1.0377197775e-04 1.7594575428e+00 -3.0474698579e+00 1.7594575428e+00 3.0474698579e+00 
50100 6.2924682313e+00 -1.1478824535e-04 1.7594604918e+00 -3.0474749657e+00 1.7594604918e+00 3.0474749657e+00 
50200 6.2924683301e+00 -1.2558853459e-04 1.7594637538e+00 -3.0474806157e+00 1.7594637538e+00 3.0474806157e+00 
50300 6.2924684270e+00 -1.3615118943e-04 1.7594673227e+00 -3.0474867973e+00 1.7594673227e+00 3.0474867973e+00 
50400 6.2924685218e+00 -1.4645558663e-04 1.7594711919e+00 -3.0474934987e+00 1.7594711919e+00 3.0474934987e+00 
50500 6.2924686146e+00 -1.5648215178e-04 1.7594753538e+00 -3.0475007074e+00 1.7594753538e+00 3.0475007074e+00 
50600 6.2924687054e+00 -1.6621237296e-04 1.7594798006e+00 -3.0475084096e+00 1.7594798006e+00 3.0475084096e+00 
50700 6.2924687940e+00 -1.7562881201e-04 1.7594845240e+00 -3.0475165906e+00 1.7594845240e+00 3.0475165906e+00 
50800 6.2924688806e+00 -1.8471511348e-04 1.7594895149e+00 -3.0475252352e+00 1.7594895149e+00 3.0475252352e+00 
50900 6.2924689651e+00 -1.9345601125e-04 1.7594947640e+00 -3.0475343269e+00 1.7594947640e+00 3.0475343269e+00 
51000 6.2924690475e+00 -2.0183733289e-04 1.7595002615e+00 -3.0475438488e+00 1.7595002615e+00 3.0475438488e+00 
51100 6.2924691279e+00 -2.0984600183e-04 1.7595059971e+00 -3.0475537832e+00 1.7595059971e+00 3.0475537832e+00 
51200 6.2924692062e+00 -2.1747003728e-04 1.7595119603e+00 -3.0475641118e+00 1.7595119603e+00 3.0475641118e+00 
51300 6.2924692826e+00 -2.2469855208e-04 1.7595181402e+00 -3.0475748156e+00 1.7595181402e+00 3.0475748156e+00 
51400 6.2924693569e+00 -2.3152174845e-04 1.7595245254e+00 -3.0475858752e+00 1.7595245254e+00 3.0475858752e+00 
51500 6.2924694293e+00 -2.3793091170e-04 1.7595311045e+00 -3.0475972705e+00 1.7595311045e+00 3.0475972705e+00 
51600 6.2924694998e+00 -2.4391840201e-04 1.7595378657e+00 -3.0476089813e+00 1.7595378657e+00 3.0476089813e+00 
51700 6.2924695685e+00 -2.4947764426e-04 1.7595447971e+00 -3.0476209867e+00 1.7595447971e+00 3.0476209867e+00 
51800 6.2924696354e+00 -2.5460311605e-04 1.7595518863e+00 -3.0476332657e+00 1.7595518863e+00 3.0476332657e+00 
51900 6.2924697006e+00 -2.5929033390e-04 1.7595591212e+00 -3.0476457969e+00 1.7595591212e+00 3.0476457969e+00 
52000 6.2924697641e+00 -2.6353583781e-04 1.7595664893e+00 -3.0476585587e+00 1.7595664893e+00 3.0476585587e+00 
52100 6.2924698259e+00 -2.6733717408e-04 1.7595739779e+00 -3.0476715295e+00 1.7595739779e+00 3.0476715295e+00 
52200 6.2924698863e+00 -2.7069287663e-04 1.7595815746e+00 -3.0476846872e+00 1.7595815746e+00 3.0476846872e+00 
52300 6.2924699451e+00 -2.7360244678e-04 1.7595892666e+00 -3.0476980101e+00 1.7595892666e+00 3.0476980101e+00 
52400 6.2924700026e+00 -2.7606633163e-04 1.7595970412e+00 -3.0477114762e+00 1.7595970412e+00 3.0477114762e+00 
52500 6.2924700587e+00 -2.7808590101e-04 1.7596048858e+00 -3.0477250634e+00 1.7596048858e+00 3.0477250634e+00 
52600 6.2924701135e+00 -2.7966342329e-04 1.7596127877e+00 -3.0477387500e+00 1.7596127877e+00 3.0477387500e+00 
52700 6.2924701671e+00 -2.8080203981e-04 1.7596207345e+00 -3.0477525141e+00 1.7596207345e+00 3.0477525141e+00 
52800 6.2924702196e+00 -2.8150573836e-04 1.7596287135e+00 -3.0477663343e+00 1.7596287135e+00 3.0477663343e+00 
52900 6.2924702710e+00 -2.8177932544e-04 1.7596367125e+00 -3.0477801890e+00 1.7596367125e+00 3.0477801890e+00 
53000 6.2924703215e+00 -2.8162839769e-04 1.7596447193e+00 -3.0477940571e+00 1.7596447193e+00 3.0477940571e+00 
53100 6.2924703709e+00 -2.8105931235e-04 1.7596527217e+00 -3.0478079177e+00 1.7596527217e+00 3.0478079177e+00 
53200 6.2924704195e+00 -2.8007915689e-04 1.7596607079e+00 -3.0478217502e+00 1.7596607079e+00 3.0478217502e+00 
53300 6.2924704673e+00 -2.7869571799e-04 1.7596686663e+00 -3.0478355344e+00 1.7596686663e+00 3.0478355344e+00 
53400 6.2924705143e+00 -2.7691744972e-04 1.7596765852e+00 -3.0478492505e+00 1.7596765852e+00 3.0478492505e+00 
53500 6.2924705606e+00 -2.7475344127e-04 1.7596844537e+00 -3.0478628791e+00 1.7596844537e+00 3.0478628791e+00 
53600 6.2924706062e+00 -2.7221338410e-04 1.7596922606e+00 -3.0478764010e+00 1.7596922606e+00 3.0478764010e+00 
53700 6.2924706512e+00 -2.6930753865e-04 1.7596999953e+00 -3.0478897979e+00 1.7596999953e+00 3.0478897979e+00 
53800 6.2924706957e+00 -2.6604670074e-04 1.7597076474e+00 -3.0479030517e+00 1.7597076474e+00 3.0479030517e+00 
53900 6.2924707396e+00 -2.6244216766e-04 1.7597152068e+00 -3.0479161450e+00 1.7597152068e+00 3.0479161450e+00 
54000 6.2924707830e+00 -2.5850570398e-04 1.7597226637e+00 -3.0479290608e+00 1.7597226637e+00 3.0479290608e+00 
54100 6.2924708260e+00 -2.5424950740e-04 1.7597300088e+00 -3.0479417828e+00 1.7597300088e+00 3.0479417828e+00 
54200 6.2924708686e+00 -2.4968617431e-04 1.7597372329e+00 -3.0479542954e+00 1.7597372329e+00 3.0479542954e+00 
54300 6.2924709107e+00 -2.4482866553e-04 1.7597443273e+00 -3.0479665833e+00 1.7597443273e+00 3.0479665833e+00 
54400 6.2924709525e+00 -2.3969027201e-04 1.7597512837e+00 -3.0479786321e+00 1.7597512837e+00 3.0479786321e+00 
54500 6.2924709938e+00 -2.3428458069e-04 1.7597580941e+00 -3.0479904279e+00 1.7597580941e+00 3.0479904279e+00 
54600 6.2924710349e+00 -2.2862544058e-04 1.7597647508e+00 -3.0480019577e+00 1.7597647508e+00 3.0480019577e+00 
54700 6.2924710756e+00 -2.2272692909e-04 1.7597712467e+00 -3.0480132090e+00 1.7597712467e+00 3.0480132090e+00 
54800 6.2924711160e+00 -2.1660331861e-04 1.7597775750e+00 -3.0480241699e+00 1.7597775750e+00 3.0480241699e+00 
54900 6.2924711561e+00 -2.1026904362e-04 1.7597837293e+00 -3.0480348294e+00 1.7597837293e+00 3.0480348294e+00 
55000 6.2924711958e+00 -2.0373866803e-04 1.7597897036e+00 -3.0480451772e+00 1.7597897036e+00 3.0480451772e+00 
55100 6.2924712353e+00 -1.9702685322e-04 1.7597954923e+00 -3.0480552036e+00 1.7597954923e+00 3.0480552036e+00 
55200 6.2924712744e+00 -1.9014832644e-04 1.7598010903e+00 -3.0480648996e+00 1.7598010903e+00 3.0480648996e+00 
55300 6.2924713132e+00 -1.8311784991e-04 1.7598064929e+00 -3.0480742571e+00 1.7598064929e+00 3.0480742571e+00 
55400 6.2924713517e+00 -1.7595019050e-04 1.7598116956e+00 -3.0480832686e+00 1.7598116956e+00 3.0480832686e+00 
55500 6.2924713899e+00 -1.6866009012e-04 1.7598166948e+00 -3.0480919273e+00 1.7598166948e+00 3.0480919273e+00 
55600 6.2924714277e+00 -1.6126223685e-04 1.7598214867e+00 -3.0481002273e+00 1.7598214867e+00 3.0481002273e+00 
55700 6.2924714651e+00 -1.5377123677e-04 1.7598260685e+00 -3.0481081632e+00 1.7598260685e+00 3.0481081632e+00 
55800 6.2924715022e+00 -1.4620158664e-04 1.7598304375e+00 -3.0481157304e+00 1.7598304375e+00 3.0481157304e+00 
55900 6.2924715389e+00 -1.3856764744e-04 1.7598345913e+00 -3.0481229251e+00 1.7598345913e+00 3.0481229251e+00 
56000 6.2924715752e+00 -1.3088361871e-04 1.7598385283e+00 -3.0481297441e+00 1.7598385283e+00 3.0481297441e+00 
56100 6.2924716111e+00 -1.2316351389e-04 1.7598422469e+00 -3.0481361849e+00 1.7598422469e+00 3.0481361849e+00 
56200 6.2924716466e+00 -1.1542113647e-04 1.7598457462e+00 -3.0481422459e+00 1.7598457462e+00 3.0481422459e+00 
56300 6.2924716816e+00 -1.0767005721e-04 1.7598490255e+00 -3.0481479258e+00 1.7598490255e+00 3.0481479258e+00 
56400 6.2924717162e+00 -9.9923592234e-05 1.7598520845e+00 -3.0481532242e+00 1.7598520845e+00 3.0481532242e+00 
56500 6.2924717503e+00 -9.2194782249e-05 1.7598549235e+00 -3.0481581415e+00 1.7598549235e+00 3.0481581415e+00 
56600 6.2924717840e+00 -8.4496372659e-05 1.7598575429e+00 -3.0481626784e+00 1.7598575429e+00 3.0481626784e+00 
56700 6.2924718171e+00 -7.6840794776e-05 1.7598599436e+00 -3.0481668365e+00 1.7598599436e+00 3.0481668365e+00 
56800 6.2924718497e+00 -6.9240148072e-05 1.7598621267e+00 -3.0481706178e+00 1.7598621267e+00 3.0481706178e+00 
56900 6.2924718820e+00 -6.3684393972e-05 1.7598621267e+00 -3.0481706178e+00 1.7598621267e+00 3.0481706178e+00 
57000 6.2924719136e+00 -5.7997404156e-05 1.7598621267e+00 -3.0481706178e+00 1.7598621267e+00 3.0481706178e+00 
57100 6.2924719447e+00 -5.2193382130e-05 1.7598621267e+00 -3.0481706178e+00 1.7598621267e+00 3.0481706178e+00 
57200 6.2924719751e+00 -4.6286213089e-05 1.7598621267e+00 -3.0481706178e+00 1.7598621267e+00 3.0481706178e+00 
57300 6.2924720049e+00 -4.0289450678e-05 1.7598621267e+00 -3.0481706178e+00 1.7598621267e+00 3.0481706178e+00 
57400 6.2924720342e+00 -3.4216304762e-05 1.7598621267e+00 -3.0481706178e+00 1.7598621267e+00 3.0481706178e+00 
57500 6.2924720628e+00 -2.8079630202e-05 1.7598621267e+00 -3.0481706178e+00 1.7598621267e+00 3.0481706178e+00 
57600 6.2924720909e+00 -2.1891916657e-05 1.7598621267e+00 -3.0481706178e+00 1.7598621267e+00 3.0481706178e+00 
57700 6.2924721183e+00 -1.5665279359e-05 1.7598621267e+00 -3.0481706178e+00 1.7598621267e+00 3.0481706178e+00 
57800 6.2924721452e+00 -9.4114508531e-06 1.7598621267e+00 -3.0481706178e+00 1.7598621267e+00 3.0481706178e+00 
57900 6.2924721715e+00 -3.1417737014e-06 1.7598621267e+00 -3.0481706178e+00 1.7598621267e+00 3.0481706178e+00 
58000 6.2924721972e+00 3.1328058695e-06 1.7598621267e+00 -3.0481706178e+00 1.7598621267e+00 3.0481706178e+00 
58100 6.2924722223e+00 9.4017434301e-06 1.7598621267e+00 -3.0481706178e+00 1.7598621267e+00 3.0481706178e+00 
58200 6.2924722469e+00 1.5654900899e-05 1.7598621267e+00 -3.0481706178e+00 1.7598621267e+00 3.0481706178e+00 
58300 6.2924722709e+00 2.1882550216e-05 1.7598621267e+00 -3.0481706178e+00 1.7598621267e+00 3.0481706178e+00 
58400 6.2924722944e+00 2.8075376178e-05 1.7598621267e+00 -3.0481706178e+00 1.7598621267e+00 3.0481706178e+00 
58500 6.2924723173e+00 3.4224478434e-05 1.7598621267e+00 -3.0481706178e+00 1.7598621267e+00 3.0481706178e+00 
58600 6.2924723398e+00 4.0321372687e-05 1.7598621267e+00 -3.0481706178e+00 1.7598621267e+00 3.0481706178e+00 
58700 6.2924723617e+00 4.6357991110e-05 1.7598621267e+00 -3.0481706178e+00 1.7598621267e+00 3.0481706178e+00 
58800 6.2924723832e+00 5.2326682002e-05 1.7598621267e+00 -3.0481706178e+00 1.7598621267e+00 3.0481706178e+00 
58900 6.2924724042e+00 5.8220208743e-05 1.7598621267e+00 -3.0481706178e+00 1.7598621267e+00 3.0481706178e+00 
59000 6.2924724247e+00 6.4031748007e-05 1.7598621267e+00 -3.0481706178e+00 1.7598621267e+00 3.0481706178e+00 
59100 6.2924724447e+00 6.9754887333e-05 1.7598621267e+00 -3.0481706178e+00 1.7598621267e+00 3.0481706178e+00 
59200 6.2924724644e+00 7.5383622036e-05 1.7598621267e+00 -3.0481706178e+00 1.7598621267e+00 3.0481706178e+00 
59300 6.2924724834e+00 7.8758444382e-05 1.7598599850e+00 -3.0481669082e+00 1.7598599850e+00 3.0481669082e+00 
59400 6.2924725019e+00 8.1925146448e-05 1.7598577473e+00 -3.0481630325e+00 1.7598577473e+00 3.0481630325e+00 
59500 6.2924725200e+00 8.4882824475e-05 1.7598554197e+00 -3.0481590009e+00 1.7598554197e+00 3.0481590009e+00 
59600 6.2924725377e+00 8.7631007496e-05 1.7598530081e+00 -3.0481548239e+00 1.7598530081e+00 3.0481548239e+00 
59700 6.2924725550e+00 9.0169647731e-05 1.7598505184e+00 -3.0481505115e+00 1.7598505184e+00 3.0481505115e+00 
59800 6.2924725719e+00 9.2499110441e-05 1.7598479565e+00 -3.0481460743e+00 1.7598479565e+00 3.0481460743e+00 
59900 6.2924725884e+00 9.4620163189e-05 1.7598453285e+00 -3.0481415224e+00 1.7598453285e+00 3.0481415224e+00 
60000 6.2924726046e+00 9.6533964612e-05 1.7598426402e+00 -3.0481368661e+00 1.7598426402e+00 3.0481368661e+00 
60100 6.2924726204e+00 9.8242052747e-05 1.7598398975e+00 -3.0481321156e+00 1.7598398975e+00 3.0481321156e+00 
60200 6.2924726359e+00 9.9746332855e-05 1.7598371063e+00 -3.0481272811e+00 1.7598371063e+00 3.0481272811e+00 
60300 6.2924726510e+00 1.0104906486e-04 1.7598342723e+00 -3.0481223725e+00 1.7598342723e+00 3.0481223725e+00 
60400 6.2924726659e+00 1.0215285042e-04 1.7598314013e+00 -3.0481173998e+00 1.7598314013e+00 3.0481173998e+00 
60500 6.2924726805e+00 1.0306061961e-04 1.7598284990e+00 -3.0481123728e+00 1.7598284990e+00 3.0481123728e+00 
60600 6.2924726948e+00 1.0377561732e-04 1.7598255708e+00 -3.0481073011e+00 1.7598255708e+00 3.0481073011e+00 
60700 6.2924727089e+00 1.0430138940e-04 1.7598226224e+00 -3.0481021942e+00 1.7598226224e+00 3.0481021942e+00 
60800 6.2924727227e+00 1.0464176843e-04 1.7598196589e+00 -3.0480970615e+00 1.7598196589e+00 3.0480970615e+00 
60900 6.2924727362e+00 1.0480085944e-04 1.7598166859e+00 -3.0480919119e+00 1.7598166859e+00 3.0480919119e+00 
61000 6.2924727496e+00 1.0478302533e-04 1.7598137083e+00 -3.0480867546e+00 1.7598137083e+00 3.0480867546e+00 
61100 6.2924727627e+00 1.0459287214e-04 1.7598107312e+00 -3.0480815981e+00 1.7598107312e+00 3.0480815981e+00 
61200 6.2924727756e+00 1.0423523426e-04 1.7598077594e+00 -3.0480764509e+00 1.7598077594e+00 3.0480764509e+00 
61300 6.2924727884e+00 1.0371515949e-04 1.7598047979e+00 -3.0480713214e+00 1.7598047979e+00 3.0480713214e+00 
61400 6.2924728009e+00 1.0303789406e-04 1.7598018511e+00 -3.0480662174e+00 1.7598018511e+00 3.0480662174e+00 
61500 6.2924728133e+00 1.0220886762e-04 1.7597989236e+00 -3.0480611467e+00 1.7597989236e+00 3.0480611467e+00 
61600 6.2924728255e+00 1.0123367820e-04 1.7597960196e+00 -3.0480561169e+00 1.7597960196e+00 3.0480561169e+00 
61700 6.2924728376e+00 1.0011807726e-04 1.7597931433e+00 -3.0480511350e+00 1.7597931433e+00 3.0480511350e+00 
61800 6.2924728494e+00 9.8867954690e-05 1.7597902987e+00 -3.0480462080e+00 1.7597902987e+00 3.0480462080e+00 
61900 6.2924728612e+00 9.7489324008e-05 1.7597874896e+00 -3.0480413425e+00 1.7597874896e+00 3.0480413425e+00 
62000 6.2924728727e+00 9.5988307580e-05 1.7597847197e+00 -3.0480365449e+00 1.7597847197e+00 3.0480365449e+00 
62100 6.2924728842e+00 9.4371122013e-05 1.7597819924e+00 -3.0480318211e+00 1.7597819924e+00 3.0480318211e+00 
62200 6.2924728955e+00 9.2644063686e-05 1.7597793111e+00 -3.0480271769e+00 1.7597793111e+00 3.0480271769e+00 
62300 6.2924729066e+00 9.0813494496e-05 1.7597766788e+00 -3.0480226177e+00 1.7597766788e+00 3.0480226177e+00 
62400 6.2924729177e+00 8.8885827759e-05 1.7597740986e+00 -3.0480181486e+00 1.7597740986e+00 3.0480181486e+00 
62500 6.2924729286e+00 8.6867514393e-05 1.7597715731e+00 -3.0480137743e+00 1.7597715731e+00 3.0480137743e+00 
62600 6.2924729393e+00 8.4765029318e-05 1.7597691049e+00 -3.0480094993e+00 1.7597691049e+00 3.0480094993e+00 
62700 6.2924729499e+00 8.2584858130e-05 1.7597666965e+00 -3.0480053279e+00 1.7597666965e+00 3.0480053279e+00 
62800 6.2924729604e+00 8.0333484071e-05 1.7597643501e+00 -3.0480012636e+00 1.7597643501e+00 3.0480012636e+00 
62900 6.2924729708e+00 7.8017375307e-05 1.7597620676e+00 -3.0479973102e+00 1.7597620676e+00 3.0479973102e+00 
63000 6.2924729810e+00 7.5642972536e-05 1.7597598508e+00 -3.0479934708e+00 1.7597598508e+00 3.0479934708e+00 
63100 6.2924729911e+00 7.3216676917e-05 1.7597577016e+00 -3.0479897482e+00 1.7597577016e+00 3.0479897482e+00 
63200 6.2924730011e+00 7.0744838391e-05 1.7597556213e+00 -3.0479861450e+00 1.7597556213e+00 3.0479861450e+00 
63300 6.2924730109e+00 6.8233744338e-05 1.7597536112e+00 -3.0479826634e+00 1.7597536112e+00 3.0479826634e+00 
63400 6.2924730207e+00 6.7639650127e-05 1.7597536112e+00 -3.0479826634e+00 1.7597536112e+00 3.0479826634e+00 
63500 6.2924730304e+00 6.6951797697e-05 1.7597536112e+00 -3.0479826634e+00 1.7597536112e+00 3.0479826634e+00 
63600 6.2924730399e+00 6.6176821974e-05 1.7597536112e+00 -3.0479826634e+00 1.7597536112e+00 3.0479826634e+00 
63700 6.2924730493e+00 6.5321294461e-05 1.7597536112e+00 -3.0479826634e+00 1.7597536112e+00 3.0479826634e+00 
63800 6.2924730585e+00 6.4391713253e-05 1.7597536112e+00 -3.0479826634e+00 1.7597536112e+00 3.0479826634e+00 
63900 6.2924730676e+00 6.3394493528e-05 1.7597536112e+00 -3.0479826634e+00 1.7597536112e+00 3.0479826634e+00 
64000 6.2924730764e+00 6.2335958500e-05 1.7597536112e+00 -3.0479826634e+00 1.7597536112e+00 3.0479826634e+00 
64100 6.2924730852e+00 6.1222330861e-05 1.7597536112e+00 -3.0479826634e+00 1.7597536112e+00 3.0479826634e+00 
64200 6.2924730937e+00 6.0059724681e-05 1.7597536112e+00 -3.0479826634e+00 1.7597536112e+00 3.0479826634e+00 
64300 6.2924731021e+00 5.8854137785e-05 1.7597536112e+00 -3.0479826634e+00 1.7597536112e+00 3.0479826634e+00 
64400 6.2924731104e+00 5.7611444606e-05 1.7597536112e+00 -3.0479826634e+00 1.7597536112e+00 3.0479826634e+00 
64500 6.2924731185e+00 5.6337389489e-05 1.7597536112e+00 -3.0479826634e+00 1.7597536112e+00 3.0479826634e+00 
64600 6.2924731264e+00 5.5037580476e-05 1.7597536112e+00 -3.0479826634e+00 1.7597536112e+00 3.0479826634e+00 
64700 6.2924731341e+00 5.3717483534e-05 1.7597536112e+00 -3.0479826634e+00 1.7597536112e+00 3.0479826634e+00 
64800 6.2924731417e+00 5.2382417256e-05 1.7597536112e+00 -3.0479826634e+00 1.7597536112e+00 3.0479826634e+00 
64900 6.2924731492e+00 5.1037547991e-05 1.7597536112e+00 -3.0479826634e+00 1.7597536112e+00 3.0479826634e+00 
65000 6.2924731564e+00 4.9687885430e-05 1.7597536112e+00 -3.0479826634e+00 1.7597536112e+00 3.0479826634e+00 
65100 6.2924731636e+00 4.8338278617e-05 1.7597536112e+00 -3.0479826634e+00 1.7597536112e+00 3.0479826634e+00 
65200 6.2924731706e+00 4.6993412402e-05 1.7597536112e+00 -3.0479826634e+00 1.7597536112e+00 3.0479826634e+00 
65300 6.2924731774e+00 4.5657804297e-05 1.7597536112e+00 -3.0479826634e+00 1.7597536112e+00 3.0479826634e+00 
65400 6.2924731841e+00 4.4335801760e-05 1.7597536112e+00 -3.0479826634e+00 1.7597536112e+00 3.0479826634e+00 
65500 6.2924731906e+00 4.3031579869e-05 1.7597536112e+00 -3.0479826634e+00 1.7597536112e+00 3.0479826634e+00 
65600 6.2924731970e+00 4.1749139392e-05 1.7597536112e+00 -3.0479826634e+00 1.7597536112e+00 3.0479826634e+00 
65700 6.2924732032e+00 4.0492305259e-05 1.7597536112e+00 -3.0479826634e+00 1.7597536112e+00 3.0479826634e+00 
65800 6.2924732094e+00 3.9264725373e-05 1.7597536112e+00 -3.0479826634e+00 1.7597536112e+00 3.0479826634e+00 
65900 6.2924732153e+00 3.8069869818e-05 1.7597536112e+00 -3.0479826634e+00 1.7597536112e+00 3.0479826634e+00 
66000 6.2924732212e+00 3.6911030396e-05 1.7597536112e+00 -3.0479826634e+00 1.7597536112e+00 3.0479826634e+00 
66100 6.2924732269e+00 3.5791320511e-05 1.7597536112e+00 -3.0479826634e+00 1.7597536112e+00 3.0479826634e+00 
66200 6.2924732325e+00 3.4713675401e-05 1.7597536112e+00 -3.0479826634e+00 1.7597536112e+00 3.0479826634e+00 
66300 6.2924732380e+00 3.3680852659e-05 1.7597536112e+00 -3.0479826634e+00 1.7597536112e+00 3.0479826634e+00 
66400 6.2924732434e+00 3.2695433085e-05 1.7597536112e+00 -3.0479826634e+00 1.7597536112e+00 3.0479826634e+00 
66500 6.2924732486e+00 3.1759821817e-05 1.7597536112e+00 -3.0479826634e+00 1.7597536112e+00 3.0479826634e+00 
66600 6.2924732537e+00 3.0876249752e-05 1.7597536112e+00 -3.0479826634e+00 1.7597536112e+00 3.0479826634e+00 
66700 6.2924732588e+00 3.0046775240e-05 1.7597536112e+00 -3.0479826634e+00 1.7597536112e+00 3.0479826634e+00 
66800 6.2924732637e+00 2.9273286031e-05 1.7597536112e+00 -3.0479826634e+00 1.7597536112e+00 3.0479826634e+00 
66900 6.2924732685e+00 2.8557501470e-05 1.7597536112e+00 -3.0479826634e+00 1.7597536112e+00 3.0479826634e+00 
67000 6.2924732733e+00 2.7900974929e-05 1.7597536112e+00 -3.0479826634e+00 1.7597536112e+00 3.0479826634e+00 
67100 6.2924732779e+00 2.7305096458e-05 1.7597536112e+00 -3.0479826634e+00 1.7597536112e+00 3.0479826634e+00 
67200 6.2924732824e+00 2.6771095643e-05 1.7597536112e+00 -3.0479826634e+00 1.7597536112e+00 3.0479826634e+00 
67300 6.2924732869e+00 2.6300044666e-05 1.7597536112e+00 -3.0479826634e+00 1.7597536112e+00 3.0479826634e+00 
67400 6.2924732913e+00 2.5892861539e-05 1.7597536112e+00 -3.0479826634e+00 1.7597536112e+00 3.0479826634e+00 
67500 6.2924732956e+00 2.5550313532e-05 1.7597536112e+00 -3.0479826634e+00 1.7597536112e+00 3.0479826634e+00 
67600 6.2924732998e+00 2.5273020740e-05 1.7597536112e+00 -3.0479826634e+00 1.7597536112e+00 3.0479826634e+00 
67700 6.2924733039e+00 2.5061459806e-05 1.7597536112e+00 -3.0479826634e+00 1.7597536112e+00 3.0479826634e+00 
67800 6.2924733080e+00 2.4915967786e-05 1.7597536112e+00 -3.0479826634e+00 1.7597536112e+00 3.0479826634e+00 
67900 6.2924733119e+00 2.4836746132e-05 1.7597536112e+00 -3.0479826634e+00 1.7597536112e+00 3.0479826634e+00 
68000 6.2924733159e+00 2.4823864792e-05 1.7597536112e+00 -3.0479826634e+00 1.7597536112e+00 3.0479826634e+00 
68100 6.2924733197e+00 2.4877266407e-05 1.7597536112e+00 -3.0479826634e+00 1.7597536112e+00 3.0479826634e+00 
68200 6.2924733235e+00 2.4996770613e-05 1.7597536112e+00 -3.0479826634e+00 1.7597536112e+00 3.0479826634e+00 
68300 6.2924733272e+00 2.5182078408e-05 1.7597536112e+00 -3.0479826634e+00 1.7597536112e+00 3.0479826634e+00 
68400 6.2924733309e+00 2.5432776594e-05 1.7597536112e+00 -3.0479826634e+00 1.7597536112e+00 3.0479826634e+00 
68500 6.2924733345e+00 2.5748342276e-05 1.7597536112e+00 -3.0479826634e+00 1.7597536112e+00 3.0479826634e+00 
68600 6.2924733380e+00 2.6128147429e-05 1.7597536112e+00 -3.0479826634e+00 1.7597536112e+00 3.0479826634e+00 
68700 6.2924733415e+00 2.6571463462e-05 1.7597536112e+00 -3.0479826634e+00 1.7597536112e+00 3.0479826634e+00 
68800 6.2924733449e+00 2.7077465862e-05 1.7597536112e+00 -3.0479826634e+00 1.7597536112e+00 3.0479826634e+00 
68900 6.2924733483e+00 2.7645238813e-05 1.7597536112e+00 -3.0479826634e+00 1.7597536112e+00 3.0479826634e+00 
69000 6.2924733516e+00 2.8273779858e-05 1.7597536112e+00 -3.0479826634e+00 1.7597536112e+00 3.0479826634e+00 
69100 6.2924733549e+00 2.8962004541e-05 1.7597536112e+00 -3.0479826634e+00 1.7597536112e+00 3.0479826634e+00 
69200 6.2924733581e+00 2.9708751061e-05 1.7597536112e+00 -3.0479826634e+00 1.7597536112e+00 3.0479826634e+00 
69300 6.2924733613e+00 3.0512784901e-05 1.7597536112e+00 -3.0479826634e+00 1.7597536112e+00 3.0479826634e+00 
69400 6.2924733644e+00 3.1372803420e-05 1.7597536112e+00 -3.0479826634e+00 1.7597536112e+00 3.0479826634e+00 
69500 6.2924733675e+00 3.2287440448e-05 1.7597536112e+00 -3.0479826634e+00 1.7597536112e+00 3.0479826634e+00 
69600 6.2924733705e+00 3.3255270821e-05 1.7597536112e+00 -3.0479826634e+00 1.7597536112e+00 3.0479826634e+00 
69700 6.2924733735e+00 3.4274814863e-05 1.7597536112e+00 -3.0479826634e+00 1.7597536112e+00 3.0479826634e+00 
69800 6.2924733764e+00 3.5344542844e-05 1.7597536112e+00 -3.0479826634e+00 1.7597536112e+00 3.0479826634e+00 
69900 6.2924733793e+00 3.6462879352e-05 1.7597536112e+00 -3.0479826634e+00 1.7597536112e+00 3.0479826634e+00 
70000 6.2924733822e+00 3.7628207627e-05 1.7597536112e+00 -3.0479826634e+00 1.7597536112e+00 3.0479826634e+00 
70100 6.2924733850e+00 3.8838873799e-05 1.7597536112e+00 -3.0479826634e+00 1.7597536112e+00 3.0479826634e+00 
70200 6.2924733878e+00 4.0093191075e-05 1.7597536112e+00 -3.0479826634e+00 1.7597536112e+00 3.0479826634e+00 
70300 6.2924733905e+00 4.1389443823e-05 1.7597536112e+00 -3.0479826634e+00 1.7597536112e+00 3.0479826634e+00 
70400 6.2924733932e+00 4.2725891599e-05 1.7597536112e+00 -3.0479826634e+00 1.7597536112e+00 3.0479826634e+00 
70500 6.2924733958e+00 4.4100773058e-05 1.7597536112e+00 -3.0479826634e+00 1.7597536112e+00 3.0479826634e+00 
70600 6.2924733984e+00 4.5512309790e-05 1.7597536112e+00 -3.0479826634e+00 1.7597536112e+00 3.0479826634e+00 
70700 6.2924734010e+00 4.6958710048e-05 1.7597536112e+00 -3.0479826634e+00 1.7597536112e+00 3.0479826634e+00 
70800 6.2924734035e+00 4.8438172369e-05 1.7597536112e+00 -3.0479826634e+00 1.7597536112e+00 3.0479826634e+00 
70900 6.2924734060e+00 4.9948889127e-05 1.7597536112e+00 -3.0479826634e+00 1.7597536112e+00 3.0479826634e+00 
71000 6.2924734085e+00 5.1489049926e-05 1.7597536112e+00 -3.0479826634e+00 1.7597536112e+00 3.0479826634e+00 
71100 6.2924734109e+00 5.3056844935e-05 1.7597536112e+00 -3.0479826634e+00 1.7597536112e+00 3.0479826634e+00 
71200 6.2924734133e+00 5.4650468060e-05 1.7597536112e+00 -3.0479826634e+00 1.7597536112e+00 3.0479826634e+00 
71300 6.2924734156e+00 5.6268120061e-05 1.7597536112e+00 -3.0479826634e+00 1.7597536112e+00 3.0479826634e+00 
71400 6.2924734179e+00 5.7908011496e-05 1.7597536112e+00 -3.0479826634e+00 1.7597536112e+00 3.0479826634e+00 
71500 6.2924734202e+00 5.9568365588e-05 1.7597536112e+00 -3.0479826634e+00 1.7597536112e+00 3.0479826634e+00 
71600 6.2924734224e+00 6.1247420951e-05 1.7597536112e+00 -3.0479826634e+00 1.7597536112e+00 3.0479826634e+00 
71700 6.2924734246e+00 6.2943434207e-05 1.7597536112e+00 -3.0479826634e+00 1.7597536112e+00 3.0479826634e+00 
71800 6.2924734268e+00 6.4654682494e-05 1.7597536112e+00 -3.0479826634e+00 1.7597536112e+00 3.0479826634e+00 
71900 6.2924734289e+00 6.6379465823e-05 1.7597536112e+00 -3.0479826634e+00 1.7597536112e+00 3.0479826634e+00 
72000 6.2924734310e+00 6.8116109342e-05 1.7597536112e+00 -3.0479826634e+00 1.7597536112e+00 3.0479826634e+00 
72100 6.2924734330e+00 6.9862965465e-05 1.7597536112e+00 -3.0479826634e+00 1.7597536112e+00 3.0479826634e+00 
72200 6.2924734350e+00 7.1618415888e-05 1.7597536112e+00 -3.0479826634e+00 1.7597536112e+00 3.0479826634e+00 
72300 6.2924734369e+00 7.1334261192e-05 1.7597515763e+00 -3.0479791389e+00 1.7597515763e+00 3.0479791389e+00 
72400 6.2924734386e+00 7.1057501843e-05 1.7597495495e+00 -3.0479756283e+00 1.7597495495e+00 3.0479756283e+00 
72500 6.2924734404e+00 7.0784766842e-05 1.7597475305e+00 -3.0479721314e+00 1.7597475305e+00 3.0479721314e+00 
72600 6.2924734421e+00 7.0512897688e-05 1.7597455193e+00 -3.0479686478e+00 1.7597455193e+00 3.0479686478e+00 
72700 6.2924734439e+00 7.2254002659e-05 1.7597455193e+00 -3.0479686478e+00 1.7597455193e+00 3.0479686478e+00 
72800 6.2924734455e+00 7.1923713010e-05 1.7597434663e+00 -3.0479650920e+00 1.7597434663e+00 3.0479650920e+00 
72900 6.2924734471e+00 7.1588979412e-05 1.7597414228e+00 -3.0479615524e+00 1.7597414228e+00 3.0479615524e+00 
73000 6.2924734486e+00 7.1247247954e-05 1.7597393887e+00 -3.0479580293e+00 1.7597393887e+00 3.0479580293e+00 
73100 6.2924734502e+00 7.0896162308e-05 1.7597373643e+00 -3.0479545230e+00 1.7597373643e+00 3.0479545230e+00 
73200 6.2924734516e+00 7.0533558693e-05 1.7597353499e+00 -3.0479510339e+00 1.7597353499e+00 3.0479510339e+00 
73300 6.2924734532e+00 7.2173157933e-05 1.7597353499e+00 -3.0479510339e+00 1.7597353499e+00 3.0479510339e+00 
73400 6.2924734547e+00 7.1730249804e-05 1.7597332992e+00 -3.0479474821e+00 1.7597332992e+00 3.0479474821e+00 
73500 6.2924734560e+00 7.1273374186e-05 1.7597312611e+00 -3.0479439520e+00 1.7597312611e+00 3.0479439520e+00 
73600 6.2924734574e+00 7.0800886907e-05 1.7597292360e+00 -3.0479404444e+00 1.7597292360e+00 3.0479404444e+00 
73700 6.2924734587e+00 7.0311318968e-05 1.7597272243e+00 -3.0479369600e+00 1.7597272243e+00 3.0479369600e+00 
73800 6.2924734602e+00 7.1812753636e-05 1.7597272243e+00 -3.0479369600e+00 1.7597272243e+00 3.0479369600e+00 
73900 6.2924734614e+00 7.1233928578e-05 1.7597251839e+00 -3.0479334258e+00 1.7597251839e+00 3.0479334258e+00 
74000 6.2924734627e+00 7.0637540251e-05 1.7597231599e+00 -3.0479299201e+00 1.7597231599e+00 3.0479299201e+00 
74100 6.2924734640e+00 7.2041289848e-05 1.7597231599e+00 -3.0479299201e+00 1.7597231599e+00 3.0479299201e+00 
74200 6.2924734652e+00 7.1355263320e-05 1.7597211129e+00 -3.0479263747e+00 1.7597211129e+00 3.0479263747e+00 
74300 6.2924734664e+00 7.0652011349e-05 1.7597190855e+00 -3.0479228631e+00 1.7597190855e+00 3.0479228631e+00 
74400 6.2924734677e+00 7.1949917014e-05 1.7597190855e+00 -3.0479228631e+00 1.7597190855e+00 3.0479228631e+00 
74500 6.2924734688e+00 7.1158434986e-05 1.7597170411e+00 -3.0479193221e+00 1.7597170411e+00 3.0479193221e+00 
74600 6.2924734699e+00 7.0350792202e-05 1.7597150192e+00 -3.0479158201e+00 1.7597150192e+00 3.0479158201e+00 
74700 6.2924734711e+00 7.1537003800e-05 1.7597150192e+00 -3.0479158201e+00 1.7597150192e+00 3.0479158201e+00 
74800 6.2924734722e+00 7.0644141610e-05 1.7597129866e+00 -3.0479122995e+00 1.7597129866e+00 3.0479122995e+00 
74900 6.2924734734e+00 7.1755768322e-05 1.7597129866e+00 -3.0479122995e+00 1.7597129866e+00 3.0479122995e+00 
75000 6.2924734744e+00 7.0782016301e-05 1.7597109478e+00 -3.0479087681e+00 1.7597109478e+00 3.0479087681e+00 
75100 6.2924734754e+00 6.9796167634e-05 1.7597089366e+00 -3.0479052847e+00 1.7597089366e+00 3.0479052847e+00 
75200 6.2924734765e+00 7.0792656959e-05 1.7597089366e+00 -3.0479052847e+00 1.7597089366e+00 3.0479052847e+00 
75300 6.2924734775e+00 6.9730847110e-05 1.7597069251e+00 -3.0479018007e+00 1.7597069251e+00 3.0479018007e+00 
75400 6.2924734786e+00 7.0652187900e-05 1.7597069251e+00 -3.0479018007e+00 1.7597069251e+00 3.0479018007e+00 
75500 6.2924734796e+00 7.1539047698e-05 1.7597069251e+00 -3.0479018007e+00 1.7597069251e+00 3.0479018007e+00 
75600 6.2924734806e+00 7.0348090797e-05 1.7597048924e+00 -3.0478982799e+00 1.7597048924e+00 3.0478982799e+00 
75700 6.2924734816e+00 7.1163485831e-05 1.7597048924e+00 -3.0478982799e+00 1.7597048924e+00 3.0478982799e+00 
75800 6.2924734825e+00 6.9912584452e-05 1.7597028704e+00 -3.0478947777e+00 1.7597028704e+00 3.0478947777e+00 
75900 6.2924734835e+00 7.0658220062e-05 1.7597028704e+00 -3.0478947777e+00 1.7597028704e+00 3.0478947777e+00 
76000 6.2924734845e+00 7.1372352986e-05 1.7597028704e+00 -3.0478947777e+00 1.7597028704e+00 3.0478947777e+00 
76100 6.2924734853e+00 7.0016567441e-05 1.7597008424e+00 -3.0478912651e+00 1.7597008424e+00 3.0478912651e+00 
76200 6.2924734863e+00 7.0665702886e-05 1.7597008424e+00 -3.0478912651e+00 1.7597008424e+00 3.0478912651e+00 
76300 6.2924734873e+00 7.1285823815e-05 1.7597008424e+00 -3.0478912651e+00 1.7597008424e+00 3.0478912651e+00 
76400 6.2924734881e+00 6.9841041370e-05 1.7596988169e+00 -3.0478877569e+00 1.7596988169e+00 3.0478877569e+00 
76500 6.2924734890e+00 7.0401321588e-05 1.7596988169e+00 -3.0478877569e+00 1.7596988169e+00 3.0478877569e+00 
76600 6.2924734899e+00 7.0935237613e-05 1.7596988169e+00 -3.0478877569e+00 1.7596988169e+00 3.0478877569e+00 
76700 6.2924734907e+00 6.9416955000e-05 1.7596968013e+00 -3.0478842658e+00 1.7596968013e+00 3.0478842658e+00 
76800 6.2924734916e+00 6.9896476230e-05 1.7596968013e+00 -3.0478842658e+00 1.7596968013e+00 3.0478842658e+00 
76900 6.2924734925e+00 7.0352394793e-05 1.7596968013e+00 -3.0478842658e+00 1.7596968013e+00 3.0478842658e+00 
77000 6.2924734933e+00 7.0786218617e-05 1.7596968013e+00 -3.0478842658e+00 1.7596968013e+00 3.0478842658e+00 
77100 6.2924734940e+00 6.9176368998e-05 1.7596947900e+00 -3.0478807821e+00 1.7596947900e+00 3.0478807821e+00 
77200 6.2924734949e+00 6.9564345667e-05 1.7596947900e+00 -3.0478807821e+00 1.7596947900e+00 3.0478807821e+00 
77300 6.2924734957e+00 6.9932973739e-05 1.7596947900e+00 -3.0478807821e+00 1.7596947900e+00 3.0478807821e+00 
77400 6.2924734965e+00 7.0283740114e-05 1.7596947900e+00 -3.0478807821e+00 1.7596947900e+00 3.0478807821e+00 
77500 6.2924734973e+00 7.0618104102e-05 1.7596947900e+00 -3.0478807821e+00 1.7596947900e+00 3.0478807821e+00 
77600 6.2924734981e+00 7.0937495766e-05 1.7596947900e+00 -3.0478807821e+00 1.7596947900e+00 3.0478807821e+00 
77700 6.2924734987e+00 6.9215922727e-05 1.7596927744e+00 -3.0478772910e+00 1.7596927744e+00 3.0478772910e+00 
77800 6.2924734995e+00 6.9503425337e-05 1.7596927744e+00 -3.0478772910e+00 1.7596927744e+00 3.0478772910e+00 
77900 6.2924735003e+00 6.9778406473e-05 1.7596927744e+00 -3.0478772910e+00 1.7596927744e+00 3.0478772910e+00 
78000 6.2924735010e+00 7.0042238182e-05 1.7596927744e+00 -3.0478772910e+00 1.7596927744e+00 3.0478772910e+00 
78100 6.2924735017e+00 7.0296256862e-05 1.7596927744e+00 -3.0478772910e+00 1.7596927744e+00 3.0478772910e+00 
78200 6.2924735024e+00 7.0541762097e-05 1.7596927744e+00 -3.0478772910e+00 1.7596927744e+00 3.0478772910e+00 
78300 6.2924735031e+00 7.0780015611e-05 1.7596927744e+00 -3.0478772910e+00 1.7596927744e+00 3.0478772910e+00 
78400 6.2924735037e+00 6.8989347890e-05 1.7596907632e+00 -3.0478738076e+00 1.7596907632e+00 3.0478738076e+00 
78500 6.2924735044e+00 6.9210630034e-05 1.7596907632e+00 -3.0478738076e+00 1.7596907632e+00 3.0478738076e+00 
78600 6.2924735050e+00 6.9426564164e-05 1.7596907632e+00 -3.0478738076e+00 1.7596907632e+00 3.0478738076e+00 
78700 6.2924735057e+00 6.9638325206e-05 1.7596907632e+00 -3.0478738076e+00 1.7596907632e+00 3.0478738076e+00 
78800 6.2924735063e+00 6.9847046721e-05 1.7596907632e+00 -3.0478738076e+00 1.7596907632e+00 3.0478738076e+00 
78900 6.2924735070e+00 7.0053820301e-05 1.7596907632e+00 -3.0478738076e+00 1.7596907632e+00 3.0478738076e+00 
79000 6.2924735076e+00 7.0259695046e-05 1.7596907632e+00 -3.0478738076e+00 1.7596907632e+00 3.0478738076e+00 
79100 6.2924735082e+00 7.0465677171e-05 1.7596907632e+00 -3.0478738076e+00 1.7596907632e+00 3.0478738076e+00 
79200 6.2924735088e+00 7.0672729676e-05 1.7596907632e+00 -3.0478738076e+00 1.7596907632e+00 3.0478738076e+00 
79300 6.2924735094e+00 7.0881772101e-05 1.7596907632e+00 -3.0478738076e+00 1.7596907632e+00 3.0478738076e+00 
79400 6.2924735099e+00 6.9067879846e-05 1.7596887492e+00 -3.0478703191e+00 1.7596887492e+00 3.0478703191e+00 
79500 6.2924735104e+00 6.9277379763e-05 1.7596887492e+00 -3.0478703191e+00 1.7596887492e+00 3.0478703191e+00 
79600 6.2924735110e+00 6.9489718851e-05 1.7596887492e+00 -3.0478703191e+00 1.7596887492e+00 3.0478703191e+00 
79700 6.2924735116e+00 6.9705715462e-05 1.7596887492e+00 -3.0478703191e+00 1.7596887492e+00 3.0478703191e+00 
79800 6.2924735121e+00 6.9926144817e-05 1.7596887492e+00 -3.0478703191e+00 1.7596887492e+00 3.0478703191e+00 
79900 6.2924735126e+00 7.0151739097e-05 1.7596887492e+00 -3.0478703191e+00 1.7596887492e+00 3.0478703191e+00 
80000 6.2924735132e+00 7.0383187636e-05 1.7596887492e+00 -3.0478703191e+00 1.7596887492e+00 3.0478703191e+00 
80100 6.2924735137e+00 7.0621137163e-05 1.7596887492e+00 -3.0478703191e+00 1.7596887492e+00 3.0478703191e+00 
80200 6.2924735142e+00 7.0866192115e-05 1.7596887492e+00 -3.0478703191e+00 1.7596887492e+00 3.0478703191e+00 
80300 6.2924735146e+00 6.9093556972e-05 1.7596867356e+00 -3.0478668315e+00 1.7596867356e+00 3.0478668315e+00 
80400 6.2924735151e+00 6.9348363141e-05 1.7596867356e+00 -3.0478668315e+00 1.7596867356e+00 3.0478668315e+00 
80500 6.2924735156e+00 6.9610191223e-05 1.7596867356e+00 -3.0478668315e+00 1.7596867356e+00 3.0478668315e+00 
80600 6.2924735160e+00 6.9879554179e-05 1.7596867356e+00 -3.0478668315e+00 1.7596867356e+00 3.0478668315e+00 
80700 6.2924735165e+00 7.0156925445e-05 1.7596867356e+00 -3.0478668315e+00 1.7596867356e+00 3.0478668315e+00 
80800 6.2924735170e+00 7.0442739449e-05 1.7596867356e+00 -3.0478668315e+00 1.7596867356e+00 3.0478668315e+00 
80900 6.2924735174e+00 7.0737392197e-05 1.7596867356e+00 -3.0478668315e+00 1.7596867356e+00 3.0478668315e+00 
81000 6.2924735177e+00 6.9019559566e-05 1.7596847257e+00 -3.0478633502e+00 1.7596847257e+00 3.0478633502e+00 
81100 6.2924735182e+00 6.9326832327e-05 1.7596847257e+00 -3.0478633502e+00 1.7596847257e+00 3.0478633502e+00 
81200 6.2924735186e+00 6.9642263643e-05 1.7596847257e+00 -3.0478633502e+00 1.7596847257e+00 3.0478633502e+00 
81300 6.2924735191e+00 6.9966175705e-05 1.7596847257e+00 -3.0478633502e+00 1.7596847257e+00 3.0478633502e+00 
81400 6.2924735195e+00 7.0298856125e-05 1.7596847257e+00 -3.0478633502e+00 1.7596847257e+00 3.0478633502e+00 
81500 6.2924735199e+00 7.0640558626e-05 1.7596847257e+00 -3.0478633502e+00 1.7596847257e+00 3.0478633502e+00 
81600 6.2924735203e+00 7.0991503795e-05 1.7596847257e+00 -3.0478633502e+00 1.7596847257e+00 3.0478633502e+00 
81700 6.2924735206e+00 6.9322928512e-05 1.7596827085e+00 -3.0478598563e+00 1.7596827085e+00 3.0478598563e+00 
81800 6.2924735210e+00 6.9686774886e-05 1.7596827085e+00 -3.0478598563e+00 1.7596827085e+00 3.0478598563e+00 
81900 6.2924735214e+00 7.0058684586e-05 1.7596827085e+00 -3.0478598563e+00 1.7596827085e+00 3.0478598563e+00 
82000 6.2924735218e+00 7.0438827011e-05 1.7596827085e+00 -3.0478598563e+00 1.7596827085e+00 3.0478598563e+00 
82100 6.2924735222e+00 7.0827342817e-05 1.7596827085e+00 -3.0478598563e+00 1.7596827085e+00 3.0478598563e+00 
82200 6.2924735224e+00 6.9200077504e-05 1.7596806960e+00 -3.0478563706e+00 1.7596806960e+00 3.0478563706e+00 
82300 6.2924735227e+00 6.9599547822e-05 1.7596806960e+00 -3.0478563706e+00 1.7596806960e+00 3.0478563706e+00 
82400 6.2924735231e+00 7.0006002632e-05 1.7596806960e+00 -3.0478563706e+00 1.7596806960e+00 3.0478563706e+00 
82500 6.2924735235e+00 7.0419548770e-05 1.7596806960e+00 -3.0478563706e+00 1.7596806960e+00 3.0478563706e+00 
82600 6.2924735238e+00 7.0840268660e-05 1.7596806960e+00 -3.0478563706e+00 1.7596806960e+00 3.0478563706e+00 
82700 6.2924735240e+00 6.9243576486e-05 1.7596786831e+00 -3.0478528842e+00 1.7596786831e+00 3.0478528842e+00 
82800 6.2924735244e+00 6.9672692775e-05 1.7596786831e+00 -3.0478528842e+00 1.7596786831e+00 3.0478528842e+00 
82900 6.2924735247e+00 7.0107444432e-05 1.7596786831e+00 -3.0478528842e+00 1.7596786831e+00 3.0478528842e+00 
83000 6.2924735251e+00 7.0547896912e-05 1.7596786831e+00 -3.0478528842e+00 1.7596786831e+00 3.0478528842e+00 
83100 6.2924735254e+00 7.0994095315e-05 1.7596786831e+00 -3.0478528842e+00 1.7596786831e+00 3.0478528842e+00 
83200 6.2924735256e+00 6.9417015888e-05 1.7596766659e+00 -3.0478493902e+00 1.7596766659e+00 3.0478493902e+00 
83300 6.2924735259e+00 6.9868645682e-05 1.7596766659e+00 -3.0478493902e+00 1.7596766659e+00 3.0478493902e+00 
83400 6.2924735262e+00 7.0324391211e-05 1.7596766659e+00 -3.0478493902e+00 1.7596766659e+00 3.0478493902e+00 
83500 6.2924735265e+00 7.0784296312e-05 1.7596766659e+00 -3.0478493902e+00 1.7596766659e+00 3.0478493902e+00 
83600 6.2924735267e+00 6.9225326755e-05 1.7596746546e+00 -3.0478459065e+00 1.7596746546e+00 3.0478459065e+00 
83700 6.2924735270e+00 6.9687516778e-05 1.7596746546e+00 -3.0478459065e+00 1.7596746546e+00 3.0478459065e+00 
83800 6.2924735273e+00 7.0152254981e-05 1.7596746546e+00 -3.0478459065e+00 1.7596746546e+00 3.0478459065e+00 
83900 6.2924735276e+00 7.0619595177e-05 1.7596746546e+00 -3.0478459065e+00 1.7596746546e+00 3.0478459065e+00 
84000 6.2924735279e+00 7.1089577108e-05 1.7596746546e+00 -3.0478459065e+00 1.7596746546e+00 3.0478459065e+00 
84100 6.2924735280e+00 6.9530431970e-05 1.7596726346e+00 -3.0478424079e+00 1.7596726346e+00 3.0478424079e+00 
84200 6.2924735283e+00 6.9999636625e-05 1.7596726346e+00 -3.0478424079e+00 1.7596726346e+00 3.0478424079e+00 
84300 6.2924735286e+00 7.0469870192e-05 1.7596726346e+00 -3.0478424079e+00 1.7596726346e+00 3.0478424079e+00 
84400 6.2924735289e+00 7.0941194337e-05 1.7596726346e+00 -3.0478424079e+00 1.7596726346e+00 3.0478424079e+00 
84500 6.2924735290e+00 6.9386096738e-05 1.7596706189e+00 -3.0478389165e+00 1.7596706189e+00 3.0478389165e+00 
84600 6.2924735293e+00 6.9853628442e-05 1.7596706189e+00 -3.0478389165e+00 1.7596706189e+00 3.0478389165e+00 
84700 6.2924735295e+00 7.0320719755e-05 1.7596706189e+00 -3.0478389165e+00 1.7596706189e+00 3.0478389165e+00 
84800 6.2924735298e+00 7.0787462148e-05 1.7596706189e+00 -3.0478389165e+00 1.7596706189e+00 3.0478389165e+00 
84900 6.2924735299e+00 6.9230760196e-05 1.7596686075e+00 -3.0478354327e+00 1.7596686075e+00 3.0478354327e+00 
85000 6.2924735302e+00 6.9690940590e-05 1.7596686075e+00 -3.0478354327e+00 1.7596686075e+00 3.0478354327e+00 
85100 6.2924735304e+00 7.0149343975e-05 1.7596686075e+00 -3.0478354327e+00 1.7596686075e+00 3.0478354327e+00 
85200 6.2924735307e+00 7.0606097677e-05 1.7596686075e+00 -3.0478354327e+00 1.7596686075e+00 3.0478354327e+00 
85300 6.2924735309e+00 7.1061320595e-05 1.7596686075e+00 -3.0478354327e+00 1.7596686075e+00 3.0478354327e+00 
85400 6.2924735310e+00 6.9484110667e-05 1.7596665883e+00 -3.0478319354e+00 1.7596665883e+00 3.0478319354e+00 
85500 6.2924735312e+00 6.9930472027e-05 1.7596665883e+00 -3.0478319354e+00 1.7596665883e+00 3.0478319354e+00 
85600 6.2924735315e+00 7.0373958472e-05 1.7596665883e+00 -3.0478319354e+00 1.7596665883e+00 3.0478319354e+00 
85700 6.2924735317e+00 7.0814730063e-05 1.7596665883e+00 -3.0478319354e+00 1.7596665883e+00 3.0478319354e+00 
85800 6.2924735318e+00 6.9228966279e-05 1.7596645762e+00 -3.0478284502e+00 1.7596645762e+00 3.0478284502e+00 
85900 6.2924735320e+00 6.9658656317e-05 1.7596645762e+00 -3.0478284502e+00 1.7596645762e+00 3.0478284502e+00 
86000 6.2924735322e+00 7.0084421450e-05 1.7596645762e+00 -3.0478284502e+00 1.7596645762e+00 3.0478284502e+00 
86100 6.2924735324e+00 7.0506465542e-05 1.7596645762e+00 -3.0478284502e+00 1.7596645762e+00 3.0478284502e+00 
86200 6.2924735326e+00 7.0924985515e-05 1.7596645762e+00 -3.0478284502e+00 1.7596645762e+00 3.0478284502e+00 
86300 6.2924735327e+00 6.9313038787e-05 1.7596625609e+00 -3.0478249596e+00 1.7596625609e+00 3.0478249596e+00 
86400 6.2924735329e+00 6.9718961287e-05 1.7596625609e+00 -3.0478249596e+00 1.7596625609e+00 3.0478249596e+00 
86500 6.2924735331e+00 7.0120259790e-05 1.7596625609e+00 -3.0478249596e+00 1.7596625609e+00 3.0478249596e+00 
86600 6.2924735333e+00 7.0517176298e-05 1.7596625609e+00 -3.0478249596e+00 1.7596625609e+00 3.0478249596e+00 
86700 6.2924735335e+00 7.0909945972e-05 1.7596625609e+00 -3.0478249596e+00 1.7596625609e+00 3.0478249596e+00 
86800 6.2924735336e+00 6.9272086351e-05 1.7596605460e+00 -3.0478214697e+00 1.7596605460e+00 3.0478214697e+00 
86900 6.2924735338e+00 6.9651129131e-05 1.7596605460e+00 -3.0478214697e+00 1.7596605460e+00 3.0478214697e+00 
87000 6.2924735340e+00 7.0025040134e-05 1.7596605460e+00 -3.0478214697e+00 1.7596605460e+00 3.0478214697e+00 
87100 6.2924735341e+00 7.0394099267e-05 1.7596605460e+00 -3.0478214697e+00 1.7596605460e+00 3.0478214697e+00 
87200 6.2924735343e+00 7.0758579354e-05 1.7596605460e+00 -3.0478214697e+00 1.7596605460e+00 3.0478214697e+00 
87300 6.2924735344e+00 6.9096353725e-05 1.7596585354e+00 -3.0478179873e+00 1.7596585354e+00 3.0478179873e+00 
87400 6.2924735345e+00 6.9446367215e-05 1.7596585354e+00 -3.0478179873e+00 1.7596585354e+00 3.0478179873e+00 
87500 6.2924735347e+00 6.9790931154e-05 1.7596585354e+00 -3.0478179873e+00 1.7596585354e+00 3.0478179873e+00 
87600 6.2924735349e+00 7.0130361408e-05 1.7596585354e+00 -3.0478179873e+00 1.7596585354e+00 3.0478179873e+00 
87700 6.2924735351e+00 7.0464966218e-05 1.7596585354e+00 -3.0478179873e+00 1.7596585354e+00 3.0478179873e+00 
87800 6.2924735353e+00 7.0795045974e-05 1.7596585354e+00 -3.0478179873e+00 1.7596585354e+00 3.0478179873e+00 
87900 6.2924735353e+00 6.9097450998e-05 1.7596565238e+00 -3.0478145031e+00 1.7596565238e+00 3.0478145031e+00 
88000 6.2924735354e+00 6.9413248459e-05 1.7596565238e+00 -3.0478145031e+00 1.7596565238e+00 3.0478145031e+00 
88100 6.2924735356e+00 6.9723727402e-05 1.7596565238e+00 -3.0478145031e+00 1.7596565238e+00 3.0478145031e+00 
88200 6.2924735358e+00 7.0029228001e-05 1.7596565238e+00 -3.0478145031e+00 1.7596565238e+00 3.0478145031e+00 
88300 6.2924735359e+00 7.0330081944e-05 1.7596565238e+00 -3.0478145031e+00 1.7596565238e+00 3.0478145031e+00 
88400 6.2924735361e+00 7.0626612185e-05 1.7596565238e+00 -3.0478145031e+00 1.7596565238e+00 3.0478145031e+00 
88500 6.2924735363e+00 7.0919132696e-05 1.7596565238e+00 -3.0478145031e+00 1.7596565238e+00 3.0478145031e+00 
88600 6.2924735363e+00 6.9180952456e-05 1.7596545087e+00 -3.0478110128e+00 1.7596545087e+00 3.0478110128e+00 
88700 6.2924735364e+00 6.9460246868e-05 1.7596545087e+00 -3.0478110128e+00 1.7596545087e+00 3.0478110128e+00 
88800 6.2924735366e+00 6.9734769360e-05 1.7596545087e+00 -3.0478110128e+00 1.7596545087e+00 3.0478110128e+00 
88900 6.2924735367e+00 7.0004869464e-05 1.7596545087e+00 -3.0478110128e+00 1.7596545087e+00 3.0478110128e+00 
89000 6.2924735369e+00 7.0270887168e-05 1.7596545087e+00 -3.0478110128e+00 1.7596545087e+00 3.0478110128e+00 
89100 6.2924735370e+00 7.0533152695e-05 1.7596545087e+00 -3.0478110128e+00 1.7596545087e+00 3.0478110128e+00 
89200 6.2924735372e+00 7.0791986275e-05 1.7596545087e+00 -3.0478110128e+00 1.7596545087e+00 3.0478110128e+00 
89300 6.2924735371e+00 6.9024329064e-05 1.7596524971e+00 -3.0478075287e+00 1.7596524971e+00 3.0478075287e+00 
89400 6.2924735373e+00 6.9271117774e-05 1.7596524971e+00 -3.0478075287e+00 1.7596524971e+00 3.0478075287e+00 
89500 6.2924735374e+00 6.9513728177e-05 1.7596524971e+00 -3.0478075287e+00 1.7596524971e+00 3.0478075287e+00 
89600 6.2924735376e+00 6.9752512078e-05 1.7596524971e+00 -3.0478075287e+00 1.7596524971e+00 3.0478075287e+00 
89700 6.2924735377e+00 6.9987810841e-05 1.7596524971e+00 -3.0478075287e+00 1.7596524971e+00 3.0478075287e+00 
89800 6.2924735378e+00 7.0219955169e-05 1.7596524971e+00 -3.0478075287e+00 1.7596524971e+00 3.0478075287e+00 
89900 6.2924735380e+00 7.0449264939e-05 1.7596524971e+00 -3.0478075287e+00 1.7596524971e+00 3.0478075287e+00 
90000 6.2924735381e+00 7.0676049017e-05 1.7596524971e+00 -3.0478075287e+00 1.7596524971e+00 3.0478075287e+00 
90100 6.2924735382e+00 7.0900605140e-05 1.7596524971e+00 -3.0478075287e+00 1.7596524971e+00 3.0478075287e+00 
90200 6.2924735382e+00 6.9096739655e-05 1.7596504825e+00 -3.0478040393e+00 1.7596504825e+00 3.0478040393e+00 
90300 6.2924735383e+00 6.9311577667e-05 1.7596504825e+00 -3.0478040393e+00 1.7596504825e+00 3.0478040393e+00 
90400 6.2924735384e+00 6.9523365199e-05 1.7596504825e+00 -3.0478040393e+00 1.7596504825e+00 3.0478040393e+00 
90500 6.2924735386e+00 6.9732427806e-05 1.7596504825e+00 -3.0478040393e+00 1.7596504825e+00 3.0478040393e+00 
90600 6.2924735387e+00 6.9939079832e-05 1.7596504825e+00 -3.0478040393e+00 1.7596504825e+00 3.0478040393e+00 
90700 6.2924735388e+00 7.0143624251e-05 1.7596504825e+00 -3.0478040393e+00 1.7596504825e+00 3.0478040393e+00 
90800 6.2924735389e+00 7.0346352564e-05 1.7596504825e+00 -3.0478040393e+00 1.7596504825e+00 3.0478040393e+00 
90900 6.2924735390e+00 7.0547544698e-05 1.7596504825e+00 -3.0478040393e+00 1.7596504825e+00 3.0478040393e+00 
91000 6.2924735392e+00 7.0747468950e-05 1.7596504825e+00 -3.0478040393e+00 1.7596504825e+00 3.0478040393e+00 
91100 6.2924735391e+00 6.8924271892e-05 1.7596484722e+00 -3.0478005574e+00 1.7596484722e+00 3.0478005574e+00 
91200 6.2924735392e+00 6.9116321273e-05 1.7596484722e+00 -3.0478005574e+00 1.7596484722e+00 3.0478005574e+00 
91300 6.2924735393e+00 6.9306193147e-05 1.7596484722e+00 -3.0478005574e+00 1.7596484722e+00 3.0478005574e+00 
91400 6.2924735395e+00 6.9494182130e-05 1.7596484722e+00 -3.0478005574e+00 1.7596484722e+00 3.0478005574e+00 
91500 6.2924735396e+00 6.9680571429e-05 1.7596484722e+00 -3.0478005574e+00 1.7596484722e+00 3.0478005574e+00 
91600 6.2924735397e+00 6.9865632779e-05 1.7596484722e+00 -3.0478005574e+00 1.7596484722e+00 3.0478005574e+00 
91700 6.2924735398e+00 7.0049626365e-05 1.7596484722e+00 -3.0478005574e+00 1.7596484722e+00 3.0478005574e+00 
91800 6.2924735399e+00 7.0232800802e-05 1.7596484722e+00 -3.0478005574e+00 1.7596484722e+00 3.0478005574e+00 
91900 6.2924735400e+00 7.0415393107e-05 1.7596484722e+00 -3.0478005574e+00 1.7596484722e+00 3.0478005574e+00 
92000 6.2924735401e+00 7.0597628716e-05 1.7596484722e+00 -3.0478005574e+00 1.7596484722e+00 3.0478005574e+00 
92100 6.2924735402e+00 7.0779721504e-05 1.7596484722e+00 -3.0478005574e+00 1.7596484722e+00 3.0478005574e+00 
92200 6.2924735401e+00 6.8938835254e-05 1.7596464611e+00 -3.0477970739e+00 1.7596464611e+00 3.0477970739e+00 
92300 6.2924735402e+00 6.9115137890e-05 1.7596464611e+00 -3.0477970739e+00 1.7596464611e+00 3.0477970739e+00 
92400 6.2924735403e+00 6.9290225464e-05 1.7596464611e+00 -3.0477970739e+00 1.7596464611e+00 3.0477970739e+00 
92500 6.2924735404e+00 6.9464339402e-05 1.7596464611e+00 -3.0477970739e+00 1.7596464611e+00 3.0477970739e+00 
92600 6.2924735405e+00 6.9637710235e-05 1.7596464611e+00 -3.0477970739e+00 1.7596464611e+00 3.0477970739e+00 
92700 6.2924735406e+00 6.9810557589e-05 1.7596464611e+00 -3.0477970739e+00 1.7596464611e+00 3.0477970739e+00 
92800 6.2924735407e+00 6.9983090201e-05 1.7596464611e+00 -3.0477970739e+00 1.7596464611e+00 3.0477970739e+00 
92900 6.2924735408e+00 7.0155505949e-05 1.7596464611e+00 -3.0477970739e+00 1.7596464611e+00 3.0477970739e+00 
93000 6.2924735409e+00 7.0327991901e-05 1.7596464611e+00 -3.0477970739e+00 1.7596464611e+00 3.0477970739e+00 
93100 6.2924735410e+00 7.0500724387e-05 1.7596464611e+00 -3.0477970739e+00 1.7596464611e+00 3.0477970739e+00 
93200 6.2924735411e+00 7.0673869071e-05 1.7596464611e+00 -3.0477970739e+00 1.7596464611e+00 3.0477970739e+00 
93300 6.2924735411e+00 7.0847581060e-05 1.7596464611e+00 -3.0477970739e+00 1.7596464611e+00 3.0477970739e+00 
93400 6.2924735411e+00 6.8997019839e-05 1.7596444479e+00 -3.0477935871e+00 1.7596444479e+00 3.0477935871e+00 
93500 6.2924735411e+00 6.9166183981e-05 1.7596444479e+00 -3.0477935871e+00 1.7596444479e+00 3.0477935871e+00 
93600 6.2924735412e+00 6.9334671982e-05 1.7596444479e+00 -3.0477935871e+00 1.7596444479e+00 3.0477935871e+00 
93700 6.2924735413e+00 6.9502671220e-05 1.7596444479e+00 -3.0477935871e+00 1.7596444479e+00 3.0477935871e+00 
93800 6.2924735414e+00 6.9670359477e-05 1.7596444479e+00 -3.0477935871e+00 1.7596444479e+00 3.0477935871e+00 
93900 6.2924735415e+00 6.9837904983e-05 1.7596444479e+00 -3.0477935871e+00 1.7596444479e+00 3.0477935871e+00 
94000 6.2924735416e+00 7.0005466474e-05 1.7596444479e+00 -3.0477935871e+00 1.7596444479e+00 3.0477935871e+00 
94100 6.2924735416e+00 7.0173193267e-05 1.7596444479e+00 -3.0477935871e+00 1.7596444479e+00 3.0477935871e+00 
94200 6.2924735417e+00 7.0341225340e-05 1.7596444479e+00 -3.0477935871e+00 1.7596444479e+00 3.0477935871e+00 
94300 6.2924735418e+00 7.0509693440e-05 1.7596444479e+00 -3.0477935871e+00 1.7596444479e+00 3.0477935871e+00 
94400 6.2924735419e+00 7.0678719185e-05 1.7596444479e+00 -3.0477935871e+00 1.7596444479e+00 3.0477935871e+00 
94500 6.2924735419e+00 7.0848415192e-05 1.7596444479e+00 -3.0477935871e+00 1.7596444479e+00 3.0477935871e+00 
94600 6.2924735419e+00 6.8993868698e-05 1.7596424348e+00 -3.0477901002e+00 1.7596424348e+00 3.0477901002e+00 
94700 6.2924735419e+00 6.9159101500e-05 1.7596424348e+00 -3.0477901002e+00 1.7596424348e+00 3.0477901002e+00 
94800 6.2924735420e+00 6.9323643208e-05 1.7596424348e+00 -3.0477901002e+00 1.7596424348e+00 3.0477901002e+00 
94900 6.2924735421e+00 6.9487645136e-05 1.7596424348e+00 -3.0477901002e+00 1.7596424348e+00 3.0477901002e+00 
95000 6.2924735421e+00 6.9651250637e-05 1.7596424348e+00 -3.0477901002e+00 1.7596424348e+00 3.0477901002e+00 
95100 6.2924735422e+00 6.9814595155e-05 1.7596424348e+00 -3.0477901002e+00 1.7596424348e+00 3.0477901002e+00 
95200 6.2924735423e+00 6.9977806275e-05 1.7596424348e+00 -3.0477901002e+00 1.7596424348e+00 3.0477901002e+00 
95300 6.2924735423e+00 7.0141003808e-05 1.7596424348e+00 -3.0477901002e+00 1.7596424348e+00 3.0477901002e+00 
95400 6.2924735424e+00 7.0304299860e-05 1.7596424348e+00 -3.0477901002e+00 1.7596424348e+00 3.0477901002e+00 
95500 6.2924735425e+00 7.0467798931e-05 1.7596424348e+00 -3.0477901002e+00 1.7596424348e+00 3.0477901002e+00 
95600 6.2924735425e+00 7.0631598015e-05 1.7596424348e+00 -3.0477901002e+00 1.7596424348e+00 3.0477901002e+00 
95700 6.2924735426e+00 7.0795786720e-05 1.7596424348e+00 -3.0477901002e+00 1.7596424348e+00 3.0477901002e+00 
95800 6.2924735425e+00 6.8936927278e-05 1.7596404231e+00 -3.0477866159e+00 1.7596404231e+00 3.0477866159e+00 
95900 6.2924735426e+00 6.9096033269e-05 1.7596404231e+00 -3.0477866159e+00 1.7596404231e+00 3.0477866159e+00 
96000 6.2924735426e+00 6.9254109185e-05 1.7596404231e+00 -3.0477866159e+00 1.7596404231e+00 3.0477866159e+00 
96100 6.2924735427e+00 6.9411289538e-05 1.7596404231e+00 -3.0477866159e+00 1.7596404231e+00 3.0477866159e+00 
96200 6.2924735428e+00 6.9567702381e-05 1.7596404231e+00 -3.0477866159e+00 1.7596404231e+00 3.0477866159e+00 
96300 6.2924735428e+00 6.9723469343e-05 1.7596404231e+00 -3.0477866159e+00 1.7596404231e+00 3.0477866159e+00 
96400 6.2924735429e+00 6.9878705668e-05 1.7596404231e+00 -3.0477866159e+00 1.7596404231e+00 3.0477866159e+00 
96500 6.2924735429e+00 7.0033520238e-05 1.7596404231e+00 -3.0477866159e+00 1.7596404231e+00 3.0477866159e+00 
96600 6.2924735430e+00 7.0188015643e-05 1.7596404231e+00 -3.0477866159e+00 1.7596404231e+00 3.0477866159e+00 
96700 6.2924735431e+00 7.0342288234e-05 1.7596404231e+00 -3.0477866159e+00 1.7596404231e+00 3.0477866159e+00 
96800 6.2924735431e+00 7.0496428195e-05 1.7596404231e+00 -3.0477866159e+00 1.7596404231e+00 3.0477866159e+00 
96900 6.2924735432e+00 7.0650519620e-05 1.7596404231e+00 -3.0477866159e+00 1.7596404231e+00 3.0477866159e+00 
97000 6.2924735432e+00 7.0804640589e-05 1.7596404231e+00 -3.0477866159e+00 1.7596404231e+00 3.0477866159e+00 
97100 6.2924735431e+00 6.8935082166e-05 1.7596384112e+00 -3.0477831312e+00 1.7596384112e+00 3.0477831312e+00 
97200 6.2924735432e+00 6.9083370315e-05 1.7596384112e+00 -3.0477831312e+00 1.7596384112e+00 3.0477831312e+00 
97300 6.2924735432e+00 6.9230241598e-05 1.7596384112e+00 -3.0477831312e+00 1.7596384112e+00 3.0477831312e+00 
97400 6.2924735433e+00 6.9375824260e-05 1.7596384112e+00 -3.0477831312e+00 1.7596384112e+00 3.0477831312e+00 
97500 6.2924735433e+00 6.9520241333e-05 1.7596384112e+00 -3.0477831312e+00 1.7596384112e+00 3.0477831312e+00 
97600 6.2924735434e+00 6.9663610615e-05 1.7596384112e+00 -3.0477831312e+00 1.7596384112e+00 3.0477831312e+00 
97700 6.2924735434e+00 6.9806044684e-05 1.7596384112e+00 -3.0477831312e+00 1.7596384112e+00 3.0477831312e+00 
97800 6.2924735435e+00 6.9947650880e-05 1.7596384112e+00 -3.0477831312e+00 1.7596384112e+00 3.0477831312e+00 
97900 6.2924735435e+00 7.0088531338e-05 1.7596384112e+00 -3.0477831312e+00 1.7596384112e+00 3.0477831312e+00 
98000 6.2924735436e+00 7.0228783009e-05 1.7596384112e+00 -3.0477831312e+00 1.7596384112e+00 3.0477831312e+00 
98100 6.2924735436e+00 7.0368497686e-05 1.7596384112e+00 -3.0477831312e+00 1.7596384112e+00 3.0477831312e+00 
98200 6.2924735437e+00 7.0507762039e-05 1.7596384112e+00 -3.0477831312e+00 1.7596384112e+00 3.0477831312e+00 
98300 6.2924735437e+00 7.0646657665e-05 1.7596384112e+00 -3.0477831312e+00 1.7596384112e+00 3.0477831312e+00 
98400 6.2924735438e+00 7.0785261146e-05 1.7596384112e+00 -3.0477831312e+00 1.7596384112e+00 3.0477831312e+00 
98500 6.2924735437e+00 6.8900408927e-05 1.7596363999e+00 -3.0477796474e+00 1.7596363999e+00 3.0477796474e+00 
98600 6.2924735437e+00 6.9032537104e-05 1.7596363999e+00 -3.0477796474e+00 1.7596363999e+00 3.0477796474e+00 
98700 6.2924735437e+00 6.9162928244e-05 1.7596363999e+00 -3.0477796474e+00 1.7596363999e+00 3.0477796474e+00 
98800 6.2924735438e+00 6.9291712684e-05 1.7596363999e+00 -3.0477796474e+00 1.7596363999e+00 3.0477796474e+00 
98900 6.2924735438e+00 6.9419016348e-05 1.7596363999e+00 -3.0477796474e+00 1.7596363999e+00 3.0477796474e+00 
99000 6.2924735439e+00 6.9544960719e-05 1.7596363999e+00 -3.0477796474e+00 1.7596363999e+00 3.0477796474e+00 
99100 6.2924735439e+00 6.9669662798e-05 1.7596363999e+00 -3.0477796474e+00 1.7596363999e+00 3.0477796474e+00 
99200 6.2924735440e+00 6.9793235063e-05 1.7596363999e+00 -3.0477796474e+00 1.7596363999e+00 3.0477796474e+00 
99300 6.2924735440e+00 6.9915785465e-05 1.7596363999e+00 -3.0477796474e+00 1.7596363999e+00 3.0477796474e+00 
99400 6.2924735440e+00 7.0037417402e-05 1.7596363999e+00 -3.0477796474e+00 1.7596363999e+00 3.0477796474e+00 
99500 6.2924735441e+00 7.0158229720e-05 1.7596363999e+00 -3.0477796474e+00 1.7596363999e+00 3.0477796474e+00 
99600 6.2924735441e+00 7.0278316720e-05 1.7596363999e+00 -3.0477796474e+00 1.7596363999e+00 3.0477796474e+00 
99700 6.2924735442e+00 7.0397768154e-05 1.7596363999e+00 -3.0477796474e+00 1.7596363999e+00 3.0477796474e+00 
99800 6.2924735442e+00 7.0516669264e-05 1.7596363999e+00 -3.0477796474e+00 1.7596363999e+00 3.0477796474e+00 
99900 6.2924735442e+00 7.0635100787e-05 1.7596363999e+00 -3.0477796474e+00 1.7596363999e+00 3.0477796474e+00 
100000 6.2924735443e+00 7.0753139008e-05 1.7596363999e+00 -3.0477796474e+00 1.7596363999e+00 3.0477796474e+00 
100100 6.2924735442e+00 6.8848530860e-05 1.7596343894e+00 -3.0477761652e+00 1.7596343894e+00 3.0477761652e+00 
100200 6.2924735442e+00 6.8959895387e-05 1.7596343894e+00 -3.0477761652e+00 1.7596343894e+00 3.0477761652e+00 
100300 6.2924735442e+00 6.9069424679e-05 1.7596343894e+00 -3.0477761652e+00 1.7596343894e+00 3.0477761652e+00 
100400 6.2924735443e+00 6.9177250745e-05 1.7596343894e+00 -3.0477761652e+00 1.7596343894e+00 3.0477761652e+00 
100500 6.2924735443e+00 6.9283501631e-05 1.7596343894e+00 -3.0477761652e+00 1.7596343894e+00 3.0477761652e+00 
100600 6.2924735443e+00 6.9388301366e-05 1.7596343894e+00 -3.0477761652e+00 1.7596343894e+00 3.0477761652e+00 
100700 6.2924735444e+00 6.9491769905e-05 1.7596343894e+00 -3.0477761652e+00 1.7596343894e+00 3.0477761652e+00 
100800 6.2924735444e+00 6.9594023060e-05 1.7596343894e+00 -3.0477761652e+00 1.7596343894e+00 3.0477761652e+00 
100900 6.2924735444e+00 6.9695172479e-05 1.7596343894e+00 -3.0477761652e+00 1.7596343894e+00 3.0477761652e+00 
101000 6.2924735445e+00 6.9795325597e-05 1.7596343894e+00 -3.0477761652e+00 1.7596343894e+00 3.0477761652e+00 
101100 6.2924735445e+00 6.9894585613e-05 1.7596343894e+00 -3.0477761652e+00 1.7596343894e+00 3.0477761652e+00 
101200 6.2924735445e+00 6.9993051479e-05 1.7596343894e+00 -3.0477761652e+00 1.7596343894e+00 3.0477761652e+00 
101300 6.2924735446e+00 7.0090817882e-05 1.7596343894e+00 -3.0477761652e+00 1.7596343894e+00 3.0477761652e+00 
101400 6.2924735446e+00 7.0187975244e-05 1.7596343894e+00 -3.0477761652e+00 1.7596343894e+00 3.0477761652e+00 
101500 6.2924735446e+00 7.0255669328e-05 1.7596343894e+00 -3.0477761652e+00 1.7596343894e+00 3.0477761652e+00 
101500 6.2924735446e+00 7.0255669328e-05 1.7596343894e+00 -3.0477761652e+00 1.7596343894e+00 3.0477761652e+00 
