# step Hamiltonian StressXX CellTensor1 CellTensor2 CellTensor3 CellTensor4 
0 6.3552348555e+00 1.8821030599e-01 2.5594246509e+00 -4.4330535334e+00 2.5594246509e+00 4.4330535334e+00 
100 6.3718542211e+00 2.0450994683e-01 2.5594246509e+00 -4.4330535334e+00 2.5594246509e+00 4.4330535334e+00 
200 6.3877396699e+00 2.1953883189e-01 2.5554304591e+00 -4.4261353903e+00 2.5554304591e+00 4.4261353903e+00 
300 6.4032749983e+00 2.3376806096e-01 2.5511361293e+00 -4.4186973930e+00 2.5511361293e+00 4.4186973930e+00 
400 6.4182765558e+00 2.4713484678e-01 2.5465558570e+00 -4.4107641286e+00 2.5465558570e+00 4.4107641286e+00 
500 6.4325418294e+00 2.5952721144e-01 2.5417050658e+00 -4.4023623119e+00 2.5417050658e+00 4.4023623119e+00 
600 6.4458609996e+00 2.7079340151e-01 2.5366014022e+00 -4.3935225072e+00 2.5366014022e+00 4.3935225072e+00 
700 6.4580317790e+00 2.8075893562e-01 2.5312655574e+00 -4.3842805528e+00 2.5312655574e+00 4.3842805528e+00 
800 6.4688776180e+00 2.8925254223e-01 2.5257217654e+00 -4.3746784235e+00 2.5257217654e+00 4.3746784235e+00 
900 6.4782676554e+00 2.9613917740e-01 2.5199977977e+00 -4.3647642206e+00 2.5199977977e+00 4.3647642206e+00 
1000 6.4861347377e+00 3.0135392787e-01 2.5141243040e+00 -4.3545910310e+00 2.5141243040e+00 4.3545910310e+00 
1100 6.4924864722e+00 3.0492693916e-01 2.5081334722e+00 -4.3442146061e+00 2.5081334722e+00 4.3442146061e+00 
1200 6.4974049048e+00 3.0698960683e-01 2.5020571714e+00 -4.3336901444e+00 2.5020571714e+00 4.3336901444e+00 
1300 6.5010335464e+00 3.0775783112e-01 2.4959249405e+00 -4.3230688088e+00 2.4959249405e+00 4.3230688088e+00 
1400 6.5035548809e+00 3.0749707237e-01 2.4897622788e+00 -4.3123947657e+00 2.4897622788e+00 4.3123947657e+00 
1500 6.5051647331e+00 3.0648100232e-01 2.4835896083e+00 -4.3017033867e+00 2.4835896083e+00 4.3017033867e+00 
1600 6.5060501071e+00 3.0495645163e-01 2.4774220478e+00 -4.2910208585e+00 2.4774220478e+00 4.2910208585e+00 
1700 6.5063745785e+00 3.0312237437e-01 2.4712698891e+00 -4.2803650072e+00 2.4712698891e+00 4.2803650072e+00 
1800 6.5062719131e+00 3.0112368326e-01 2.4651395048e+00 -4.2697468700e+00 2.4651395048e+00 4.2697468700e+00 
1900 6.5058461088e+00 2.9905599453e-01 2.4590343933e+00 -4.2591725067e+00 2.4590343933e+00 4.2591725067e+00 
2000 6.5051751964e+00 2.9697588800e-01 2.4529561449e+00 -4.2486446717e+00 2.4529561449e+00 4.2486446717e+00 
2100 6.5043164671e+00 2.9491228436e-01 2.4469052124e+00 -4.2381641492e+00 2.4469052124e+00 4.2381641492e+00 
2200 6.5033116200e+00 2.9287637878e-01 2.4408814618e+00 -4.2277307071e+00 2.4408814618e+00 4.2277307071e+00 
2300 6.5021911055e+00 2.9086916608e-01 2.4348845277e+00 -4.2173437125e+00 2.4348845277e+00 4.2173437125e+00 
2400 6.5009774683e+00 2.8888657589e-01 2.4289140196e+00 -4.2070024892e+00 2.4289140196e+00 4.2070024892e+00 
2500 6.4996877705e+00 2.8692267226e-01 2.4229696264e+00 -4.1967064980e+00 2.4229696264e+00 4.1967064980e+00 
2600 6.4983352799e+00 2.8497146489e-01 2.4170511549e+00 -4.1864554048e+00 2.4170511549e+00 4.1864554048e+00 
2700 6.4969306156e+00 2.8302780938e-01 2.4111585336e+00 -4.1762490853e+00 2.4111585336e+00 4.1762490853e+00 
2800 6.4954825138e+00 2.8108775432e-01 2.4052917956e+00 -4.1660875970e+00 2.4052917956e+00 4.1660875970e+00 
2900 6.4939983371e+00 2.7914857923e-01 2.3994510558e+00 -4.1559711389e+00 2.3994510558e+00 4.1559711389e+00 
3000 6.4924844126e+00 2.7720867807e-01 2.3936364859e+00 -4.1459000085e+00 2.3936364859e+00 4.1459000085e+00 
3100 6.4909462608e+00 2.7526738013e-01 2.3878482921e+00 -4.1358745627e+00 2.3878482921e+00 4.1358745627e+00 
3200 6.4893887510e+00 2.7332475933e-01 2.3820866955e+00 -4.1258951847e+00 2.3820866955e+00 4.1258951847e+00 
3300 6.4878162117e+00 2.7138145762e-01 2.3763519173e+00 -4.1159622574e+00 2.3763519173e+00 4.1159622574e+00 
3400 6.4862325102e+00 2.6943853319e-01 2.3706441660e+00 -4.1060761422e+00 2.3706441660e+00 4.1060761422e+00 
3500 6.4846411121e+00 2.6749733624e-01 2.3649636292e+00 -4.0962371639e+00 2.3649636292e+00 4.0962371639e+00 
3600 6.4830451282e+00 2.6555941093e-01 2.3593104669e+00 -4.0864455994e+00 2.3593104669e+00 4.0864455994e+00 
3700 6.4814473519e+00 2.6362642014e-01 2.3536848066e+00 -4.0767016701e+00 2.3536848066e+00 4.0767016701e+00 
3800 6.4798502904e+00 2.6170008928e-01 2.3480867413e+00 -4.0670055365e+00 2.3480867413e+00 4.0670055365e+00 
3900 6.4782561909e+00 2.5978216549e-01 2.3425163268e+00 -4.0573572955e+00 2.3425163268e+00 4.0573572955e+00 
4000 6.4766670634e+00 2.5787438887e-01 2.3369735813e+00 -4.0477569788e+00 2.3369735813e+00 4.0477569788e+00 
4100 6.4750847011e+00 2.5597847300e-01 2.3314584851e+00 -4.0382045520e+00 2.3314584851e+00 4.0382045520e+00 
4200 6.4735106975e+00 2.5409609255e-01 2.3259709806e+00 -4.0286999153e+00 2.3259709806e+00 4.0286999153e+00 
4300 6.4719464626e+00 2.5222887598e-01 2.3205109725e+00 -4.0192429039e+00 2.3205109725e+00 4.0192429039e+00 
4400 6.4703932369e+00 2.5037840208e-01 2.3150783287e+00 -4.0098332888e+00 2.3150783287e+00 4.0098332888e+00 
4500 6.4688521037e+00 2.4854619920e-01 2.3096728809e+00 -4.0004707786e+00 2.3096728809e+00 4.0004707786e+00 
4600 6.4673240011e+00 2.4673374616e-01 2.3042944251e+00 -3.9911550198e+00 2.3042944251e+00 3.9911550198e+00 
4700 6.4658097314e+00 2.4494247457e-01 2.2989427222e+00 -3.9818855986e+00 2.2989427222e+00 3.9818855986e+00 
4800 6.4643099707e+00 2.4317377159e-01 2.2936174992e+00 -3.9726620417e+00 2.2936174992e+00 3.9726620417e+00 
4900 6.4628252772e+00 2.4142898329e-01 2.2883184490e+00 -3.9634838176e+00 2.2883184490e+00 3.9634838176e+00 
5000 6.4613560981e+00 2.3970941793e-01 2.2830452317e+00 -3.9543503374e+00 2.2830452317e+00 3.9543503374e+00 
5100 6.4599027764e+00 2.3801634926e-01 2.2777974746e+00 -3.9452609553e+00 2.2777974746e+00 3.9452609553e+00 
5200 6.4584655571e+00 2.3635101952e-01 2.2725747726e+00 -3.9362149701e+00 2.2725747726e+00 3.9362149701e+00 
5300 6.4570445919e+00 2.3471464226e-01 2.2673766889e+00 -3.9272116251e+00 2.2673766889e+00 3.9272116251e+00 
5400 6.4556399443e+00 2.3310840472e-01 2.2622027551e+00 -3.9182501089e+00 2.2622027551e+00 3.9182501089e+00 
5500 6.4542515936e+00 2.3153346981e-01 2.2570524714e+00 -3.9093295559e+00 2.2570524714e+00 3.9093295559e+00 
5600 6.4528794387e+00 2.2999097777e-01 2.2519253071e+00 -3.9004490468e+00 2.2519253071e+00 3.9004490468e+00 
5700 6.4515233013e+00 2.2848204735e-01 2.2468207005e+00 -3.8916076088e+00 2.2468207005e+00 3.8916076088e+00 
5800 6.4501829292e+00 2.2700777661e-01 2.2417380591e+00 -3.8828042157e+00 2.2417380591e+00 3.8828042157e+00 
5900 6.4488579981e+00 2.2556924327e-01 2.2366767602e+00 -3.8740377888e+00 2.2366767602e+00 3.8740377888e+00 
6000 6.4475481149e+00 2.2416750471e-01 2.2316361504e+00 -3.8653071965e+00 2.2316361504e+00 3.8653071965e+00 
6100 6.4462528189e+00 2.2280359758e-01 2.2266155463e+00 -3.8566112552e+00 2.2266155463e+00 3.8566112552e+00 
6200 6.4449715842e+00 2.2147853693e-01 2.2216142346e+00 -3.8479487291e+00 2.2216142346e+00 3.8479487291e+00 
6300 6.4437038208e+00 2.2019331509e-01 2.2166314719e+00 -3.8393183310e+00 2.2166314719e+00 3.8393183310e+00 
6400 6.4424488764e+00 2.1894890007e-01 2.2116664856e+00 -3.8307187225e+00 2.2116664856e+00 3.8307187225e+00 
6500 6.4412060374e+00 2.1774623365e-01 2.2067184736e+00 -3.8221485143e+00 2.2067184736e+00 3.8221485143e+00 
6600 6.4399745301e+00 2.1658622904e-01 2.2017866050e+00 -3.8136062672e+00 2.2017866050e+00 3.8136062672e+00 
6700 6.4387535217e+00 2.1546976822e-01 2.1968700201e+00 -3.8050904925e+00 2.1968700201e+00 3.8050904925e+00 
6800 6.4375421210e+00 2.1439769886e-01 2.1919678315e+00 -3.7965996527e+00 2.1919678315e+00 3.7965996527e+00 
6900 6.4363393797e+00 2.1337083086e-01 2.1870791239e+00 -3.7881321628e+00 2.1870791239e+00 3.7881321628e+00 
7000 6.4351442927e+00 2.1238993249e-01 2.1822029551e+00 -3.7796863907e+00 2.1822029551e+00 3.7796863907e+00 
7100 6.4339557990e+00 2.1145572613e-01 2.1773383568e+00 -3.7712606593e+00 2.1773383568e+00 3.7712606593e+00 
7200 6.4327727826e+00 2.1056888355e-01 2.1724843351e+00 -3.7628532471e+00 2.1724843351e+00 3.7628532471e+00 
7300 6.4315940730e+00 2.0973002080e-01 2.1676398716e+00 -3.7544623902e+00 2.1676398716e+00 3.7544623902e+00 
7400 6.4304184461e+00 2.0893969260e-01 2.1628039246e+00 -3.7460862841e+00 2.1628039246e+00 3.7460862841e+00 
7500 6.4292446252e+00 2.0819838626e-01 2.1579754298e+00 -3.7377230860e+00 2.1579754298e+00 3.7377230860e+00 
7600 6.4280712816e+00 2.0750651511e-01 2.1531533025e+00 -3.7293709165e+00 2.1531533025e+00 3.7293709165e+00 
7700 6.4268970360e+00 2.0686441142e-01 2.1483364383e+00 -3.7210278629e+00 2.1483364383e+00 3.7210278629e+00 
7800 6.4257204594e+00 2.0627231874e-01 2.1435237151e+00 -3.7126919818e+00 2.1435237151e+00 3.7126919818e+00 
7900 6.4245400749e+00 2.0573038377e-01 2.1387139951e+00 -3.7043613024e+00 2.1387139951e+00 3.7043613024e+00 
8000 6.4233543588e+00 2.0523864754e-01 2.1339061269e+00 -3.6960338304e+00 2.1339061269e+00 3.6960338304e+00 
8100 6.4221617432e+00 2.0479703616e-01 2.1290989477e+00 -3.6877075517e+00 2.1290989477e+00 3.6877075517e+00 
8200 6.4209606174e+00 2.0440535083e-01 2.1242912858e+00 -3.6793804370e+00 2.1242912858e+00 3.6793804370e+00 
8300 6.4197493311e+00 2.0406325737e-01 2.1194819637e+00 -3.6710504469e+00 2.1194819637e+00 3.6710504469e+00 
8400 6.4185261972e+00 2.0377027513e-01 2.1146698012e+00 -3.6627155369e+00 2.1146698012e+00 3.6627155369e+00 
8500 6.4172894952e+00 2.0352576529e-01 2.1098536185e+00 -3.6543736638e+00 2.1098536185e+00 3.6543736638e+00 
8600 6.4160374753e+00 2.0332891870e-01 2.1050322404e+00 -3.6460227919e+00 2.1050322404e+00 3.6460227919e+00 
8700 6.4147683632e+00 2.0317874318e-01 2.1002044998e+00 -3.6376609000e+00 2.1002044998e+00 3.6376609000e+00 
8800 6.4134803651e+00 2.0307405032e-01 2.0953692428e+00 -3.6292859892e+00 2.0953692428e+00 3.6292859892e+00 
8900 6.4121716740e+00 2.0301344202e-01 2.0905253329e+00 -3.6208960911e+00 2.0905253329e+00 3.6208960911e+00 
9000 6.4108404766e+00 2.0299529669e-01 2.0856716565e+00 -3.6124892769e+00 2.0856716565e+00 3.6124892769e+00 
9100 6.4094849612e+00 2.0301775526e-01 2.0808071283e+00 -3.6040636669e+00 2.0808071283e+00 3.6040636669e+00 
9200 6.4081033266e+00 2.0307870730e-01 2.0759306974e+00 -3.5956174409e+00 2.0759306974e+00 3.5956174409e+00 
9300 6.4066937918e+00 2.0317577718e-01 2.0710413538e+00 -3.5871488493e+00 2.0710413538e+00 3.5871488493e+00 
9400 6.4052546075e+00 2.0330631073e-01 2.0661381348e+00 -3.5786562250e+00 2.0661381348e+00 3.5786562250e+00 
9500 6.4037840681e+00 2.0346736238e-01 2.0612201328e+00 -3.5701379956e+00 2.0612201328e+00 3.5701379956e+00 
9600 6.4022805257e+00 2.0365568338e-01 2.0562865024e+00 -3.5615926970e+00 2.0562865024e+00 3.5615926970e+00 
9700 6.4007424050e+00 2.0386771107e-01 2.0513364688e+00 -3.5530189874e+00 2.0513364688e+00 3.5530189874e+00 
9800 6.3991682198e+00 2.0409955983e-01 2.0463693362e+00 -3.5444156614e+00 2.0463693362e+00 3.5444156614e+00 
9900 6.3975565909e+00 2.0434701396e-01 2.0413844966e+00 -3.5357816658e+00 2.0413844966e+00 3.5357816658e+00 
10000 6.3959062652e+00 2.0460552290e-01 2.0363814385e+00 -3.5271161150e+00 2.0363814385e+00 3.5271161150e+00 
10100 6.3942161368e+00 2.0487019939e-01 2.0313597568e+00 -3.5184183072e+00 2.0313597568e+00 3.5184183072e+00 
10200 6.3924852688e+00 2.0513582082e-01 2.0263191620e+00 -3.5096877410e+00 2.0263191620e+00 3.5096877410e+00 
10300 6.3907129164e+00 2.0539683444e-01 2.0212594901e+00 -3.5009241322e+00 2.0212594901e+00 3.5009241322e+00 
10400 6.3888985513e+00 2.0564736683e-01 2.0161807121e+00 -3.4921274306e+00 2.0161807121e+00 3.4921274306e+00 
10500 6.3870418869e+00 2.0588123805e-01 2.0110829436e+00 -3.4832978366e+00 2.0110829436e+00 3.4832978366e+00 
10600 6.3851429035e+00 2.0609198108e-01 2.0059664545e+00 -3.4744358175e+00 2.0059664545e+00 3.4744358175e+00 
10700 6.3832018747e+00 2.0627286669e-01 2.0008316779e+00 -3.4655421235e+00 2.0008316779e+00 3.4655421235e+00 
10800 6.3812193925e+00 2.0641693427e-01 1.9956792188e+00 -3.4566178025e+00 1.9956792188e+00 3.4566178025e+00 
10900 6.3791963924e+00 2.0651702864e-01 1.9905098622e+00 -3.4476642142e+00 1.9905098622e+00 3.4476642142e+00 
11000 6.3771341773e+00 2.0656584312e-01 1.9853245803e+00 -3.4386830426e+00 1.9853245803e+00 3.4386830426e+00 
11100 6.3750344389e+00 2.0655596857e-01 1.9801245391e+00 -3.4296763071e+00 1.9801245391e+00 3.4296763071e+00 
11200 6.3728992777e+00 2.0647994844e-01 1.9749111032e+00 -3.4206463711e+00 1.9749111032e+00 3.4206463711e+00 
11300 6.3707312187e+00 2.0633033911e-01 1.9696858397e+00 -3.4115959494e+00 1.9696858397e+00 3.4115959494e+00 
11400 6.3685332238e+00 2.0609977520e-01 1.9644505213e+00 -3.4025281118e+00 1.9644505213e+00 3.4025281118e+00 
11500 6.3663086997e+00 2.0578103885e-01 1.9592071262e+00 -3.3934462852e+00 1.9592071262e+00 3.3934462852e+00 
11600 6.3640615001e+00 2.0536713197e-01 1.9539578380e+00 -3.3843542512e+00 1.9539578380e+00 3.3843542512e+00 
11700 6.3617959218e+00 2.0485135033e-01 1.9487050422e+00 -3.3752561421e+00 1.9487050422e+00 3.3752561421e+00 
11800 6.3595166948e+00 2.0422735811e-01 1.9434513222e+00 -3.3661564321e+00 1.9434513222e+00 3.3661564321e+00 
11900 6.3572289651e+00 2.0348926127e-01 1.9381994519e+00 -3.3570599259e+00 1.9381994519e+00 3.3570599259e+00 
12000 6.3549382692e+00 2.0263167844e-01 1.9329523873e+00 -3.3479717434e+00 1.9329523873e+00 3.3479717434e+00 
12100 6.3526505028e+00 2.0164980741e-01 1.9277132554e+00 -3.3388973007e+00 1.9277132554e+00 3.3388973007e+00 
12200 6.3503718800e+00 2.0053948590e-01 1.9224853416e+00 -3.3298422884e+00 1.9224853416e+00 3.3298422884e+00 
12300 6.3481088864e+00 1.9929724494e-01 1.9172720752e+00 -3.3208126462e+00 1.9172720752e+00 3.3208126462e+00 
12400 6.3458682246e+00 1.9792035366e-01 1.9120770130e+00 -3.3118145344e+00 1.9120770130e+00 3.3118145344e+00 
12500 6.3436567537e+00 1.9640685424e-01 1.9069038211e+00 -3.3028543033e+00 1.9069038211e+00 3.3028543033e+00 
12600 6.3414814229e+00 1.9475558628e-01 1.9017562566e+00 -3.2939384600e+00 1.9017562566e+00 3.2939384600e+00 
12700 6.3393492008e+00 1.9296619998e-01 1.8966381465e+00 -3.2850736334e+00 1.8966381465e+00 3.2850736334e+00 
12800 6.3372670017e+00 1.9103915784e-01 1.8915533678e+00 -3.2762665382e+00 1.8915533678e+00 3.2762665382e+00 
12900 6.3352416093e+00 1.8897572503e-01 1.8865058250e+00 -3.2675239378e+00 1.8865058250e+00 3.2675239378e+00 
13000 6.3332796009e+00 1.8677794887e-01 1.8814994297e+00 -3.2588526066e+00 1.8814994297e+00 3.2588526066e+00 
13100 6.3313872712e+00 1.8444862802e-01 1.8765380779e+00 -3.2502592933e+00 1.8765380779e+00 3.2502592933e+00 
13200 6.3295705600e+00 1.8199127245e-01 1.8716256301e+00 -3.2417506842e+00 1.8716256301e+00 3.2417506842e+00 
13300 6.3278349827e+00 1.7941005538e-01 1.8667658902e+00 -3.2333333677e+00 1.8667658902e+00 3.2333333677e+00 
13400 6.3261855662e+00 1.7670975836e-01 1.8619625861e+00 -3.2250138010e+00 1.8619625861e+00 3.2250138010e+00 
13500 6.3246267921e+00 1.7389571120e-01 1.8572193515e+00 -3.2167982776e+00 1.8572193515e+00 3.2167982776e+00 
13600 6.3231625455e+00 1.7097372797e-01 1.8525397086e+00 -3.2086928983e+00 1.8525397086e+00 3.2086928983e+00 
13700 6.3217960742e+00 1.6795004069e-01 1.8479270525e+00 -3.2007035437e+00 1.8479270525e+00 3.2007035437e+00 
13800 6.3205299554e+00 1.6483123199e-01 1.8433846374e+00 -3.1928358499e+00 1.8433846374e+00 3.1928358499e+00 
13900 6.3193660720e+00 1.6162416821e-01 1.8389155636e+00 -3.1850951870e+00 1.8389155636e+00 3.1850951870e+00 
14000 6.3183055989e+00 1.5833593382e-01 1.8345227670e+00 -3.1774866401e+00 1.8345227670e+00 3.1774866401e+00 
14100 6.3173489983e+00 1.5497376840e-01 1.8302090099e+00 -3.1700149937e+00 1.8302090099e+00 3.1700149937e+00 
14200 6.3164960247e+00 1.5154500693e-01 1.8259768736e+00 -3.1626847186e+00 1.8259768736e+00 3.1626847186e+00 
14300 6.3157457385e+00 1.4805702398e-01 1.8218287522e+00 -3.1554999615e+00 1.8218287522e+00 3.1554999615e+00 
14400 6.3150965283e+00 1.4451718232e-01 1.8177668484e+00 -3.1484645377e+00 1.8177668484e+00 3.1484645377e+00 
14500 6.3145461404e+00 1.4093278640e-01 1.8137931706e+00 -3.1415819259e+00 1.8137931706e+00 3.1415819259e+00 
14600 6.3140917161e+00 1.3731104066e-01 1.8099095313e+00 -3.1348552654e+00 1.8099095313e+00 3.1348552654e+00 
14700 6.3137298340e+00 1.3365901287e-01 1.8061175469e+00 -3.1282873557e+00 1.8061175469e+00 3.1282873557e+00 
14800 6.3134565584e+00 1.2998360250e-01 1.8024186381e+00 -3.1218806577e+00 1.8024186381e+00 3.1218806577e+00 
14900 6.3132674911e+00 1.2629151378e-01 1.7988140322e+00 -3.1156372972e+00 1.7988140322e+00 3.1156372972e+00 
15000 6.3131578269e+00 1.2258923343e-01 1.7953047657e+00 -3.1095590693e+00 1.7953047657e+00 3.1095590693e+00 
15100 6.3131224115e+00 1.1888301265e-01 1.7918916877e+00 -3.1036474448e+00 1.7918916877e+00 3.1036474448e+00 
15200 6.3131558006e+00 1.1517885317e-01 1.7885754643e+00 -3.0979035773e+00 1.7885754643e+00 3.0979035773e+00 
15300 6.3132523191e+00 1.1148249695e-01 1.7853565832e+00 -3.0923283118e+00 1.7853565832e+00 3.0923283118e+00 
15400 6.3134061214e+00 1.0779941915e-01 1.7822353595e+00 -3.0869221937e+00 1.7822353595e+00 3.0869221937e+00 
15500 6.3136112488e+00 1.0413482414e-01 1.7792119406e+00 -3.0816854786e+00 1.7792119406e+00 3.0816854786e+00 
15600 6.3138616870e+00 1.0049364404e-01 1.7762863131e+00 -3.0766181430e+00 1.7762863131e+00 3.0766181430e+00 
15700 6.3141514200e+00 9.6880539630e-02 1.7734583081e+00 -3.0717198948e+00 1.7734583081e+00 3.0717198948e+00 
15800 6.3144744820e+00 9.3299903044e-02 1.7707276087e+00 -3.0669901846e+00 1.7707276087e+00 3.0669901846e+00 
15900 6.3148250056e+00 8.9755862243e-02 1.7680937554e+00 -3.0624282170e+00 1.7680937554e+00 3.0624282170e+00 
16000 6.3151972669e+00 8.6252286740e-02 1.7655561537e+00 -3.0580329618e+00 1.7655561537e+00 3.0580329618e+00 
16100 6.3155857259e+00 8.2792794422e-02 1.7631140798e+00 -3.0538031658e+00 1.7631140798e+00 3.0538031658e+00 
16200 6.3159850636e+00 7.9380759210e-02 1.7607666879e+00 -3.0497373637e+00 1.7607666879e+00 3.0497373637e+00 
16300 6.3163902146e+00 7.6019319321e-02 1.7585130162e+00 -3.0458338899e+00 1.7585130162e+00 3.0458338899e+00 
16400 6.3167963949e+00 7.2711385966e-02 1.7563519936e+00 -3.0420908890e+00 1.7563519936e+00 3.0420908890e+00 
16500 6.3171991263e+00 6.9459652279e-02 1.7542824459e+00 -3.0385063271e+00 1.7542824459e+00 3.0385063271e+00 
16600 6.3175942556e+00 6.6266602371e-02 1.7523031018e+00 -3.0350780025e+00 1.7523031018e+00 3.0350780025e+00 
16700 6.3179779698e+00 6.3134520338e-02 1.7504125991e+00 -3.0318035559e+00 1.7504125991e+00 3.0318035559e+00 
16800 6.3183468079e+00 6.0065499153e-02 1.7486094909e+00 -3.0286804808e+00 1.7486094909e+00 3.0286804808e+00 
16900 6.3186976675e+00 5.7061449335e-02 1.7468922505e+00 -3.0257061332e+00 1.7468922505e+00 3.0257061332e+00 
17000 6.3190278090e+00 5.4124107330e-02 1.7452592777e+00 -3.0228777414e+00 1.7452592777e+00 3.0228777414e+00 
17100 6.3193348550e+00 5.1255043545e-02 1.7437089039e+00 -3.0201924152e+00 1.7437089039e+00 3.0201924152e+00 
17200 6.3196167878e+00 4.8455670006e-02 1.7422393972e+00 -3.0176471550e+00 1.7422393972e+00 3.0176471550e+00 
17300 6.3198719425e+00 4.5727247597e-02 1.7408489678e+00 -3.0152388606e+00 1.7408489678e+00 3.0152388606e+00 
17400 6.3200989986e+00 4.3070892878e-02 1.7395357725e+00 -3.0129643396e+00 1.7395357725e+00 3.0129643396e+00 
17500 6.3202969683e+00 4.0487584461e-02 1.7382979198e+00 -3.0108203158e+00 1.7382979198e+00 3.0108203158e+00 
17600 6.3204651828e+00 3.7978168964e-02 1.7371334744e+00 -3.0088034372e+00 1.7371334744e+00 3.0088034372e+00 
17700 6.3206032773e+00 3.5543366531e-02 1.7360404616e+00 -3.0069102835e+00 1.7360404616e+00 3.0069102835e+00 
17800 6.3207111735e+00 3.3183775948e-02 1.7350168717e+00 -3.0051373737e+00 1.7350168717e+00 3.0051373737e+00 
17900 6.3207890616e+00 3.0899879374e-02 1.7340606641e+00 -3.0034811736e+00 1.7340606641e+00 3.0034811736e+00 
18000 6.3208373804e+00 2.8692046698e-02 1.7331697716e+00 -3.0019381025e+00 1.7331697716e+00 3.0019381025e+00 
18100 6.3208567975e+00 2.6560539566e-02 1.7323421042e+00 -3.0005045406e+00 1.7323421042e+00 3.0005045406e+00 
18200 6.3208481880e+00 2.4505515087e-02 1.7315755530e+00 -2.9991768349e+00 1.7315755530e+00 2.9991768349e+00 
18300 6.3208126140e+00 2.2527029267e-02 1.7308679937e+00 -2.9979513063e+00 1.7308679937e+00 2.9979513063e+00 
18400 6.3207513024e+00 2.0625040186e-02 1.7302172908e+00 -2.9968242558e+00 1.7302172908e+00 2.9968242558e+00 
18500 6.3206656244e+00 1.8799410959e-02 1.7296213005e+00 -2.9957919703e+00 1.7296213005e+00 2.9957919703e+00 
18600 6.3205570742e+00 1.7049912496e-02 1.7290778744e+00 -2.9948507287e+00 1.7290778744e+00 2.9948507287e+00 
18700 6.3204272487e+00 1.5376226110e-02 1.7285848630e+00 -2.9939968079e+00 1.7285848630e+00 2.9939968079e+00 
18800 6.3202778269e+00 1.3777945987e-02 1.7281401187e+00 -2.9932264881e+00 1.7281401187e+00 2.9932264881e+00 
18900 6.3201105513e+00 1.2254581543e-02 1.7277414989e+00 -2.9925360585e+00 1.7277414989e+00 2.9925360585e+00 
19000 6.3199272089e+00 1.0805559705e-02 1.7273868694e+00 -2.9919218221e+00 1.7273868694e+00 2.9919218221e+00 
19100 6.3197296135e+00 9.4302271235e-03 1.7270741070e+00 -2.9913801018e+00 1.7270741070e+00 2.9913801018e+00 
19200 6.3195195897e+00 8.1278523517e-03 1.7268011025e+00 -2.9909072442e+00 1.7268011025e+00 2.9909072442e+00 
19300 6.3192989564e+00 6.8976280005e-03 1.7265657637e+00 -2.9904996253e+00 1.7265657637e+00 2.9904996253e+00 
19400 6.3190695132e+00 5.7386728922e-03 1.7263660176e+00 -2.9901536549e+00 1.7263660176e+00 2.9901536549e+00 
19500 6.3188330262e+00 4.6500342250e-03 1.7261998135e+00 -2.9898657811e+00 1.7261998135e+00 2.9898657811e+00 
19600 6.3185912166e+00 3.6306897650e-03 1.7260651254e+00 -2.9896324943e+00 1.7260651254e+00 2.9896324943e+00 
19700 6.3183457489e+00 2.6795500738e-03 1.7259599540e+00 -2.9894503322e+00 1.7259599540e+00 2.9894503322e+00 
19800 6.3180982220e+00 1.7954607847e-03 1.7258823297e+00 -2.9893158829e+00 1.7258823297e+00 2.9893158829e+00 
19900 6.3178501594e+00 9.7720493374e-04 1.7258303142e+00 -2.9892257894e+00 1.7258303142e+00 2.9892257894e+00 
20000 6.3176030030e+00 2.2350535336e-04 1.7258020031e+00 -2.9891767532e+00 1.7258020031e+00 2.9891767532e+00 
20100 6.3173581057e+00 -4.6697286691e-04 1.7257955277e+00 -2.9891655375e+00 1.7257955277e+00 2.9891655375e+00 
20200 6.3171167267e+00 -1.0956198484e-03 1.7258090569e+00 -2.9891889708e+00 1.7258090569e+00 2.9891889708e+00 
20300 6.3168800274e+00 -1.6638783176e-03 1.7258407992e+00 -2.9892439501e+00 1.7258407992e+00 2.9892439501e+00 
20400 6.3166490681e+00 -2.1732409261e-03 1.7258890043e+00 -2.9893274437e+00 1.7258890043e+00 2.9893274437e+00 
20500 6.3164248059e+00 -2.6252474949e-03 1.7259519648e+00 -2.9894364944e+00 1.7259519648e+00 2.9894364944e+00 
20600 6.3162080937e+00 -3.0214821853e-03 1.7260280175e+00 -2.9895682215e+00 1.7260280175e+00 2.9895682215e+00 
20700 6.3159996797e+00 -3.3635705977e-03 1.7261155452e+00 -2.9897198241e+00 1.7261155452e+00 2.9897198241e+00 
20800 6.3158002080e+00 -3.6531768005e-03 1.7262129780e+00 -2.9898885825e+00 1.7262129780e+00 2.9898885825e+00 
20900 6.3156102201e+00 -3.8920002937e-03 1.7263187938e+00 -2.9900718609e+00 1.7263187938e+00 2.9900718609e+00 
21000 6.3154301566e+00 -4.0817729116e-03 1.7264315205e+00 -2.9902671092e+00 1.7264315205e+00 2.9902671092e+00 
21100 6.3152603603e+00 -4.2242556681e-03 1.7265497360e+00 -2.9904718645e+00 1.7265497360e+00 2.9904718645e+00 
21200 6.3151010788e+00 -4.3212355525e-03 1.7266720697e+00 -2.9906837527e+00 1.7266720697e+00 2.9906837527e+00 
21300 6.3149524691e+00 -4.3745222803e-03 1.7267972031e+00 -2.9909004902e+00 1.7267972031e+00 2.9909004902e+00 
21400 6.3148146012e+00 -4.3859450064e-03 1.7269238704e+00 -2.9911198844e+00 1.7269238704e+00 2.9911198844e+00 
21500 6.3146874630e+00 -4.3573490087e-03 1.7270508592e+00 -2.9913398354e+00 1.7270508592e+00 2.9913398354e+00 
21600 6.3145709653e+00 -4.2905923483e-03 1.7271770107e+00 -2.9915583363e+00 1.7271770107e+00 2.9915583363e+00 
21700 6.3144649472e+00 -4.1875425163e-03 1.7273012205e+00 -2.9917734738e+00 1.7273012205e+00 2.9917734738e+00 
21800 6.3143691812e+00 -4.0500730734e-03 1.7274224382e+00 -2.9919834291e+00 1.7274224382e+00 2.9919834291e+00 
21900 6.3142833792e+00 -3.8800602937e-03 1.7275396684e+00 -2.9921864777e+00 1.7275396684e+00 2.9921864777e+00 
22000 6.3142071984e+00 -3.6793798193e-03 1.7276519697e+00 -2.9923809894e+00 1.7276519697e+00 2.9923809894e+00 
22100 6.3141402467e+00 -3.4499033365e-03 1.7277584558e+00 -2.9925654287e+00 1.7277584558e+00 2.9925654287e+00 
22200 6.3140820891e+00 -3.1934952821e-03 1.7278582943e+00 -2.9927383541e+00 1.7278582943e+00 2.9927383541e+00 
22300 6.3140322533e+00 -2.9120095899e-03 1.7279507071e+00 -2.9928984177e+00 1.7279507071e+00 2.9928984177e+00 
22400 6.3139902354e+00 -2.6072864861e-03 1.7280349697e+00 -2.9930443648e+00 1.7280349697e+00 2.9930443648e+00 
22500 6.3139555058e+00 -2.2811493444e-03 1.7281104111e+00 -2.9931750331e+00 1.7281104111e+00 2.9931750331e+00 
22600 6.3139275148e+00 -1.9354016083e-03 1.7281764128e+00 -2.9932893513e+00 1.7281764128e+00 2.9932893513e+00 
22700 6.3139056976e+00 -1.5718237915e-03 1.7282324085e+00 -2.9933863389e+00 1.7282324085e+00 2.9933863389e+00 
22800 6.3138894799e+00 -1.1921705647e-03 1.7282778836e+00 -2.9934651041e+00 1.7282778836e+00 2.9934651041e+00 
22900 6.3138782827e+00 -7.9816793802e-04 1.7283123739e+00 -2.9935248429e+00 1.7283123739e+00 2.9935248429e+00 
23000 6.3138715268e+00 -3.9151054654e-04 1.7283354649e+00 -2.9935648377e+00 1.7283354649e+00 2.9935648377e+00 
23100 6.3138686374e+00 2.6140951724e-05 1.7283467911e+00 -2.9935844554e+00 1.7283467911e+00 2.9935844554e+00 
23200 6.3138690490e+00 4.5377859369e-04 1.7283467911e+00 -2.9935844554e+00 1.7283467911e+00 2.9935844554e+00 
23300 6.3138722067e+00 8.8857292770e-04 1.7283336636e+00 -2.9935617178e+00 1.7283336636e+00 2.9935617178e+00 
23400 6.3138775724e+00 1.3296077968e-03 1.7283079576e+00 -2.9935171937e+00 1.7283079576e+00 2.9935171937e+00 
23500 6.3138846267e+00 1.7753819617e-03 1.7282694922e+00 -2.9934505696e+00 1.7282694922e+00 2.9934505696e+00 
23600 6.3138928721e+00 2.2244392474e-03 1.7282181294e+00 -2.9933616068e+00 1.7282181294e+00 2.9933616068e+00 
23700 6.3139018352e+00 2.6753703349e-03 1.7281537734e+00 -2.9932501388e+00 1.7281537734e+00 2.9932501388e+00 
23800 6.3139110694e+00 3.1268143990e-03 1.7280763685e+00 -2.9931160697e+00 1.7280763685e+00 2.9931160697e+00 
23900 6.3139201560e+00 3.5774605913e-03 1.7279858984e+00 -2.9929593707e+00 1.7279858984e+00 2.9929593707e+00 
24000 6.3139287063e+00 4.0260493650e-03 1.7278823841e+00 -2.9927800787e+00 1.7278823841e+00 2.9927800787e+00 
24100 6.3139363626e+00 4.4713736394e-03 1.7277658830e+00 -2.9925782929e+00 1.7277658830e+00 2.9925782929e+00 
24200 6.3139427990e+00 4.9122798042e-03 1.7276364870e+00 -2.9923541725e+00 1.7276364870e+00 2.9923541725e+00 
24300 6.3139477220e+00 5.3476685634e-03 1.7274943213e+00 -2.9921079344e+00 1.7274943213e+00 2.9921079344e+00 
24400 6.3139508712e+00 5.7764956190e-03 1.7273395426e+00 -2.9918398497e+00 1.7273395426e+00 2.9918398497e+00 
24500 6.3139520184e+00 6.1977721964e-03 1.7271723374e+00 -2.9915502418e+00 1.7271723374e+00 2.9915502418e+00 
24600 6.3139509685e+00 6.6105654139e-03 1.7269929209e+00 -2.9912394833e+00 1.7269929209e+00 2.9912394833e+00 
24700 6.3139475583e+00 7.0139984977e-03 1.7268015349e+00 -2.9909079931e+00 1.7268015349e+00 2.9909079931e+00 
24800 6.3139416559e+00 7.4072508483e-03 1.7265984467e+00 -2.9905562340e+00 1.7265984467e+00 2.9905562340e+00 
24900 6.3139331600e+00 7.7895579598e-03 1.7263839470e+00 -2.9901847096e+00 1.7263839470e+00 2.9901847096e+00 
25000 6.3139219988e+00 8.1602111982e-03 1.7261583486e+00 -2.9897939617e+00 1.7261583486e+00 2.9897939617e+00 
25100 6.3139081286e+00 8.5185574436e-03 1.7259219849e+00 -2.9893845677e+00 1.7259219849e+00 2.9893845677e+00 
25200 6.3138915327e+00 8.8639986006e-03 1.7256752080e+00 -2.9889571376e+00 1.7256752080e+00 2.9889571376e+00 
25300 6.3138722193e+00 9.1959909849e-03 1.7254183874e+00 -2.9885123112e+00 1.7254183874e+00 2.9885123112e+00 
25400 6.3138502209e+00 9.5140445905e-03 1.7251519084e+00 -2.9880507561e+00 1.7251519084e+00 2.9880507561e+00 
25500 6.3138255913e+00 9.8177222444e-03 1.7248761706e+00 -2.9875731643e+00 1.7248761706e+00 2.9875731643e+00 
25600 6.3137984051e+00 1.0106638656e-02 1.7245915864e+00 -2.9870802499e+00 1.7245915864e+00 2.9870802499e+00 
25700 6.3137687549e+00 1.0380459369e-02 1.7242985792e+00 -2.9865727467e+00 1.7242985792e+00 2.9865727467e+00 
25800 6.3137367499e+00 1.0638899617e-02 1.7239975827e+00 -2.9860514054e+00 1.7239975827e+00 2.9860514054e+00 
25900 6.3137025140e+00 1.0881723103e-02 1.7236890387e+00 -2.9855169915e+00 1.7236890387e+00 2.9855169915e+00 
26000 6.3136661837e+00 1.1108740690e-02 1.7233733962e+00 -2.9849702826e+00 1.7233733962e+00 2.9849702826e+00 
26100 6.3136279066e+00 1.1319809035e-02 1.7230511099e+00 -2.9844120663e+00 1.7230511099e+00 2.9844120663e+00 
26200 6.3135878393e+00 1.1514829143e-02 1.7227226388e+00 -2.9838431377e+00 1.7227226388e+00 2.9838431377e+00 
26300 6.3135461454e+00 1.1693744882e-02 1.7223884452e+00 -2.9832642975e+00 1.7223884452e+00 2.9832642975e+00 
26400 6.3135029943e+00 1.1856541435e-02 1.7220489933e+00 -2.9826763495e+00 1.7220489933e+00 2.9826763495e+00 
26500 6.3134585589e+00 1.2003243716e-02 1.7217047480e+00 -2.9820800991e+00 1.7217047480e+00 2.9820800991e+00 
26600 6.3134130147e+00 1.2133914748e-02 1.7213561737e+00 -2.9814763508e+00 1.7213561737e+00 2.9814763508e+00 
26700 6.3133665375e+00 1.2248654009e-02 1.7210037336e+00 -2.9808659066e+00 1.7210037336e+00 2.9808659066e+00 
26800 6.3133193024e+00 1.2347595761e-02 1.7206478880e+00 -2.9802495639e+00 1.7206478880e+00 2.9802495639e+00 
26900 6.3132714824e+00 1.2430907350e-02 1.7202890939e+00 -2.9796281143e+00 1.7202890939e+00 2.9796281143e+00 
27000 6.3132232472e+00 1.2498787508e-02 1.7199278037e+00 -2.9790023413e+00 1.7199278037e+00 2.9790023413e+00 
27100 6.3131747617e+00 1.2551464633e-02 1.7195644644e+00 -2.9783730192e+00 1.7195644644e+00 2.9783730192e+00 
27200 6.3131261854e+00 1.2589195079e-02 1.7191995167e+00 -2.9777409113e+00 1.7191995167e+00 2.9777409113e+00 
27300 6.3130776713e+00 1.2612261446e-02 1.7188333943e+00 -2.9771067687e+00 1.7188333943e+00 2.9771067687e+00 
27400 6.3130293649e+00 1.2620970875e-02 1.7184665230e+00 -2.9764713290e+00 1.7184665230e+00 2.9764713290e+00 
27500 6.3129814037e+00 1.2615653359e-02 1.7180993200e+00 -2.9758353148e+00 1.7180993200e+00 2.9758353148e+00 
27600 6.3129339165e+00 1.2596660070e-02 1.7177321933e+00 -2.9751994326e+00 1.7177321933e+00 2.9751994326e+00 
27700 6.3128870228e+00 1.2564361705e-02 1.7173655409e+00 -2.9745643720e+00 1.7173655409e+00 2.9745643720e+00 
27800 6.3128408326e+00 1.2519146855e-02 1.7169997506e+00 -2.9739308045e+00 1.7169997506e+00 2.9739308045e+00 
27900 6.3127954460e+00 1.2461420405e-02 1.7166351988e+00 -2.9732993825e+00 1.7166351988e+00 2.9732993825e+00 
28000 6.3127509529e+00 1.2391601960e-02 1.7162722510e+00 -2.9726707383e+00 1.7162722510e+00 2.9726707383e+00 
28100 6.3127074331e+00 1.2310124306e-02 1.7159112603e+00 -2.9720454841e+00 1.7159112603e+00 2.9720454841e+00 
28200 6.3126649560e+00 1.2217431907e-02 1.7155525676e+00 -2.9714242102e+00 1.7155525676e+00 2.9714242102e+00 
28300 6.3126235808e+00 1.2113979436e-02 1.7151965013e+00 -2.9708074852e+00 1.7151965013e+00 2.9708074852e+00 
28400 6.3125833568e+00 1.2000230348e-02 1.7148433766e+00 -2.9701958554e+00 1.7148433766e+00 2.9701958554e+00 
28500 6.3125443233e+00 1.1876655499e-02 1.7144934957e+00 -2.9695898437e+00 1.7144934957e+00 2.9695898437e+00 
28600 6.3125065101e+00 1.1743731794e-02 1.7141471468e+00 -2.9689899500e+00 1.7141471468e+00 2.9689899500e+00 
28700 6.3124699376e+00 1.1601940896e-02 1.7138046051e+00 -2.9683966502e+00 1.7138046051e+00 2.9683966502e+00 
28800 6.3124346176e+00 1.1451767968e-02 1.7134661313e+00 -2.9678103964e+00 1.7134661313e+00 2.9678103964e+00 
28900 6.3124005532e+00 1.1293700466e-02 1.7131319725e+00 -2.9672316164e+00 1.7131319725e+00 2.9672316164e+00 
29000 6.3123677396e+00 1.1128226975e-02 1.7128023616e+00 -2.9666607136e+00 1.7128023616e+00 2.9666607136e+00 
29100 6.3123361647e+00 1.0955836099e-02 1.7124775175e+00 -2.9660980671e+00 1.7124775175e+00 2.9660980671e+00 
29200 6.3123058092e+00 1.0777015390e-02 1.7121576448e+00 -2.9655440314e+00 1.7121576448e+00 2.9655440314e+00 
29300 6.3122766478e+00 1.0592250332e-02 1.7118429342e+00 -2.9649989366e+00 1.7118429342e+00 2.9649989366e+00 
29400 6.3122486490e+00 1.0402023364e-02 1.7115335620e+00 -2.9644630882e+00 1.7115335620e+00 2.9644630882e+00 
29500 6.3122217764e+00 1.0206812963e-02 1.7112296908e+00 -2.9639367679e+00 1.7112296908e+00 2.9639367679e+00 
29600 6.3121959889e+00 1.0007092760e-02 1.7109314691e+00 -2.9634202327e+00 1.7109314691e+00 2.9634202327e+00 
29700 6.3121712413e+00 9.8033307134e-03 1.7106390317e+00 -2.9629137163e+00 1.7106390317e+00 2.9629137163e+00 
29800 6.3121474850e+00 9.5959883232e-03 1.7103524997e+00 -2.9624174283e+00 1.7103524997e+00 2.9624174283e+00 
29900 6.3121246686e+00 9.3855198949e-03 1.7100719807e+00 -2.9619315552e+00 1.7100719807e+00 2.9619315552e+00 
30000 6.3121027384e+00 9.1723718450e-03 1.7097975692e+00 -2.9614562605e+00 1.7097975692e+00 2.9614562605e+00 
30100 6.3120816387e+00 8.9569820528e-03 1.7095293464e+00 -2.9609916851e+00 1.7095293464e+00 2.9609916851e+00 
30200 6.3120613131e+00 8.7397792556e-03 1.7092673810e+00 -2.9605379476e+00 1.7092673810e+00 2.9605379476e+00 
30300 6.3120417039e+00 8.5211824868e-03 1.7090117287e+00 -2.9600951449e+00 1.7090117287e+00 2.9600951449e+00 
30400 6.3120227535e+00 8.3016005553e-03 1.7087624333e+00 -2.9596633526e+00 1.7087624333e+00 2.9596633526e+00 
30500 6.3120044046e+00 8.0814315667e-03 1.7085195264e+00 -2.9592426255e+00 1.7085195264e+00 2.9592426255e+00 
30600 6.3119866002e+00 7.8610624841e-03 1.7082830279e+00 -2.9588329981e+00 1.7082830279e+00 2.9588329981e+00 
30700 6.3119692847e+00 7.6408687276e-03 1.7080529464e+00 -2.9584344853e+00 1.7080529464e+00 2.9584344853e+00 
30800 6.3119524037e+00 7.4212138128e-03 1.7078292794e+00 -2.9580470826e+00 1.7078292794e+00 2.9580470826e+00 
30900 6.3119359044e+00 7.2024490250e-03 1.7076120137e+00 -2.9576707673e+00 1.7076120137e+00 2.9576707673e+00 
31000 6.3119197364e+00 6.9849131306e-03 1.7074011256e+00 -2.9573054984e+00 1.7074011256e+00 2.9573054984e+00 
31100 6.3119038511e+00 6.7689321224e-03 1.7071965816e+00 -2.9569512178e+00 1.7071965816e+00 2.9569512178e+00 
31200 6.3118882027e+00 6.5548189995e-03 1.7069983384e+00 -2.9566078506e+00 1.7069983384e+00 2.9566078506e+00 
31300 6.3118727481e+00 6.3428735796e-03 1.7068063436e+00 -2.9562753058e+00 1.7068063436e+00 2.9562753058e+00 
31400 6.3118574468e+00 6.1333823431e-03 1.7066205358e+00 -2.9559534773e+00 1.7066205358e+00 2.9559534773e+00 
31500 6.3118422616e+00 5.9266183084e-03 1.7064408452e+00 -2.9556422439e+00 1.7064408452e+00 2.9556422439e+00 
31600 6.3118271580e+00 5.7228409364e-03 1.7062671937e+00 -2.9553414709e+00 1.7062671937e+00 2.9553414709e+00 
31700 6.3118121050e+00 5.5222960637e-03 1.7060994959e+00 -2.9550510096e+00 1.7060994959e+00 2.9550510096e+00 
31800 6.3117970744e+00 5.3252158645e-03 1.7059376586e+00 -2.9547706993e+00 1.7059376586e+00 2.9547706993e+00 
31900 6.3117820415e+00 5.1318188376e-03 1.7057815822e+00 -2.9545003669e+00 1.7057815822e+00 2.9545003669e+00 
32000 6.3117669845e+00 4.9423098209e-03 1.7056311601e+00 -2.9542398283e+00 1.7056311601e+00 2.9542398283e+00 
32100 6.3117518849e+00 4.7568800292e-03 1.7054862800e+00 -2.9539888886e+00 1.7054862800e+00 2.9539888886e+00 
32200 6.3117367271e+00 4.5757071168e-03 1.7053468238e+00 -2.9537473433e+00 1.7053468238e+00 2.9537473433e+00 
32300 6.3117214986e+00 4.3989552628e-03 1.7052126678e+00 -2.9535149784e+00 1.7052126678e+00 2.9535149784e+00 
32400 6.3117061897e+00 4.2267752781e-03 1.7050836839e+00 -2.9532915717e+00 1.7050836839e+00 2.9532915717e+00 
32500 6.3116907935e+00 4.0593047336e-03 1.7049597392e+00 -2.9530768931e+00 1.7049597392e+00 2.9530768931e+00 
32600 6.3116753057e+00 3.8966681088e-03 1.7048406965e+00 -2.9528707052e+00 1.7048406965e+00 2.9528707052e+00 
32700 6.3116597244e+00 3.7389769596e-03 1.7047264154e+00 -2.9526727644e+00 1.7047264154e+00 2.9526727644e+00 
32800 6.3116440501e+00 3.5863301038e-03 1.7046167515e+00 -2.9524828211e+00 1.7046167515e+00 2.9524828211e+00 
32900 6.3116282855e+00 3.4388138253e-03 1.7045115580e+00 -2.9523006205e+00 1.7045115580e+00 2.9523006205e+00 
33000 6.3116124352e+00 3.2965020939e-03 1.7044106851e+00 -2.9521259036e+00 1.7044106851e+00 2.9521259036e+00 
33100 6.3115965056e+00 3.1594568017e-03 1.7043139810e+00 -2.9519584071e+00 1.7043139810e+00 2.9519584071e+00 
33200 6.3115805049e+00 3.0277280135e-03 1.7042212918e+00 -2.9517978648e+00 1.7042212918e+00 2.9517978648e+00 
33300 6.3115644427e+00 2.9013542324e-03 1.7041324623e+00 -2.9516440076e+00 1.7041324623e+00 2.9516440076e+00 
33400 6.3115483297e+00 2.7803626777e-03 1.7040473360e+00 -2.9514965645e+00 1.7040473360e+00 2.9514965645e+00 
33500 6.3115321778e+00 2.6647695758e-03 1.7039657555e+00 -2.9513552630e+00 1.7039657555e+00 2.9513552630e+00 
33600 6.3115160001e+00 2.5545804624e-03 1.7038875630e+00 -2.9512198295e+00 1.7038875630e+00 2.9512198295e+00 
33700 6.3114998100e+00 2.4497904959e-03 1.7038126002e+00 -2.9510899902e+00 1.7038126002e+00 2.9510899902e+00 
33800 6.3114836218e+00 2.3503847801e-03 1.7037407093e+00 -2.9509654714e+00 1.7037407093e+00 2.9509654714e+00 
33900 6.3114674501e+00 2.2563386965e-03 1.7036717326e+00 -2.9508460003e+00 1.7036717326e+00 2.9508460003e+00 
34000 6.3114513098e+00 2.1676182452e-03 1.7036055131e+00 -2.9507313048e+00 1.7036055131e+00 2.9507313048e+00 
34100 6.3114352159e+00 2.0841803925e-03 1.7035418950e+00 -2.9506211149e+00 1.7035418950e+00 2.9506211149e+00 
34200 6.3114191835e+00 2.0059734262e-03 1.7034807234e+00 -2.9505151626e+00 1.7034807234e+00 2.9505151626e+00 
34300 6.3114032275e+00 1.9329373163e-03 1.7034218451e+00 -2.9504131824e+00 1.7034218451e+00 2.9504131824e+00 
34400 6.3113873623e+00 1.8650040812e-03 1.7033651085e+00 -2.9503149117e+00 1.7033651085e+00 2.9503149117e+00 
34500 6.3113716024e+00 1.8020981578e-03 1.7033103641e+00 -2.9502200916e+00 1.7033103641e+00 2.9502200916e+00 
34600 6.3113559613e+00 1.7441367760e-03 1.7032574645e+00 -2.9501284668e+00 1.7032574645e+00 2.9501284668e+00 
34700 6.3113404524e+00 1.6910303356e-03 1.7032062647e+00 -2.9500397862e+00 1.7032062647e+00 2.9500397862e+00 
34800 6.3113250882e+00 1.6426827854e-03 1.7031566224e+00 -2.9499538032e+00 1.7031566224e+00 2.9499538032e+00 
34900 6.3113098804e+00 1.5989920040e-03 1.7031083979e+00 -2.9498702760e+00 1.7031083979e+00 2.9498702760e+00 
35000 6.3112948403e+00 1.5598501807e-03 1.7030614548e+00 -2.9497889682e+00 1.7030614548e+00 2.9497889682e+00 
35100 6.3112799779e+00 1.5251441972e-03 1.7030156596e+00 -2.9497096484e+00 1.7030156596e+00 2.9497096484e+00 
35200 6.3112653027e+00 1.4947560079e-03 1.7029708820e+00 -2.9496320914e+00 1.7029708820e+00 2.9496320914e+00 
35300 6.3112508230e+00 1.4685630191e-03 1.7029269955e+00 -2.9495560777e+00 1.7029269955e+00 2.9495560777e+00 
35400 6.3112365466e+00 1.4464384658e-03 1.7028838769e+00 -2.9494813941e+00 1.7028838769e+00 2.9494813941e+00 
35500 6.3112224799e+00 1.4282517866e-03 1.7028414068e+00 -2.9494078338e+00 1.7028414068e+00 2.9494078338e+00 
35600 6.3112086287e+00 1.4138689939e-03 1.7027994696e+00 -2.9493351965e+00 1.7027994696e+00 2.9493351965e+00 
35700 6.3111949976e+00 1.4031530414e-03 1.7027579538e+00 -2.9492632890e+00 1.7027579538e+00 2.9492632890e+00 
35800 6.3111815905e+00 1.3959641865e-03 1.7027167516e+00 -2.9491919247e+00 1.7027167516e+00 2.9491919247e+00 
35900 6.3111684102e+00 1.3921603469e-03 1.7026757595e+00 -2.9491209243e+00 1.7026757595e+00 2.9491209243e+00 
36000 6.3111554587e+00 1.3915974528e-03 1.7026348781e+00 -2.9490501156e+00 1.7026348781e+00 2.9490501156e+00 
36100 6.3111427372e+00 1.3941297915e-03 1.7025940123e+00 -2.9489793339e+00 1.7025940123e+00 2.9489793339e+00 
36200 6.3111302460e+00 1.3996103465e-03 1.7025530711e+00 -2.9489084217e+00 1.7025530711e+00 2.9489084217e+00 
36300 6.3111179846e+00 1.4078911279e-03 1.7025119680e+00 -2.9488372290e+00 1.7025119680e+00 2.9488372290e+00 
36400 6.3111059517e+00 1.4188234964e-03 1.7024706207e+00 -2.9487656134e+00 1.7024706207e+00 2.9487656134e+00 
36500 6.3110941454e+00 1.4322584786e-03 1.7024289513e+00 -2.9486934399e+00 1.7024289513e+00 2.9486934399e+00 
36600 6.3110825631e+00 1.4480470733e-03 1.7023868863e+00 -2.9486205813e+00 1.7023868863e+00 2.9486205813e+00 
36700 6.3110712016e+00 1.4660405494e-03 1.7023443566e+00 -2.9485469176e+00 1.7023443566e+00 2.9485469176e+00 
36800 6.3110600571e+00 1.4860907347e-03 1.7023012973e+00 -2.9484723368e+00 1.7023012973e+00 2.9484723368e+00 
36900 6.3110491254e+00 1.5080502941e-03 1.7022576481e+00 -2.9483967340e+00 1.7022576481e+00 2.9483967340e+00 
37000 6.3110384016e+00 1.5317729986e-03 1.7022133527e+00 -2.9483200121e+00 1.7022133527e+00 2.9483200121e+00 
37100 6.3110278808e+00 1.5571139840e-03 1.7021683593e+00 -2.9482420813e+00 1.7021683593e+00 2.9482420813e+00 
37200 6.3110175573e+00 1.5839299989e-03 1.7021226204e+00 -2.9481628592e+00 1.7021226204e+00 2.9481628592e+00 
37300 6.3110074256e+00 1.6120796420e-03 1.7020760925e+00 -2.9480822705e+00 1.7020760925e+00 2.9480822705e+00 
37400 6.3109974795e+00 1.6414235887e-03 1.7020287364e+00 -2.9480002474e+00 1.7020287364e+00 2.9480002474e+00 
37500 6.3109877129e+00 1.6718248065e-03 1.7019805170e+00 -2.9479167290e+00 1.7019805170e+00 2.9479167290e+00 
37600 6.3109781195e+00 1.7031487590e-03 1.7019314032e+00 -2.9478316613e+00 1.7019314032e+00 2.9478316613e+00 
37700 6.3109686928e+00 1.7352635994e-03 1.7018813677e+00 -2.9477449972e+00 1.7018813677e+00 2.9477449972e+00 
37800 6.3109594264e+00 1.7680403515e-03 1.7018303872e+00 -2.9476566964e+00 1.7018303872e+00 2.9476566964e+00 
37900 6.3109503138e+00 1.8013530803e-03 1.7017784422e+00 -2.9475667251e+00 1.7017784422e+00 2.9475667251e+00 
38000 6.3109413487e+00 1.8350790502e-03 1.7017255168e+00 -2.9474750557e+00 1.7017255168e+00 2.9474750557e+00 
38100 6.3109325245e+00 1.8690988727e-03 1.7016715989e+00 -2.9473816672e+00 1.7016715989e+00 2.9473816672e+00 
38200 6.3109238352e+00 1.9032966421e-03 1.7016166797e+00 -2.9472865443e+00 1.7016166797e+00 2.9472865443e+00 
38300 6.3109152746e+00 1.9375600598e-03 1.7015607539e+00 -2.9471896780e+00 1.7015607539e+00 2.9471896780e+00 
38400 6.3109068368e+00 1.9717805476e-03 1.7015038195e+00 -2.9470910646e+00 1.7015038195e+00 2.9470910646e+00 
38500 6.3108985159e+00 2.0058533495e-03 1.7014458775e+00 -2.9469907061e+00 1.7014458775e+00 2.9469907061e+00 
38600 6.3108903066e+00 2.0396776227e-03 1.7013869323e+00 -2.9468886100e+00 1.7013869323e+00 2.9468886100e+00 
38700 6.3108822035e+00 2.0731565177e-03 1.7013269910e+00 -2.9467847887e+00 1.7013269910e+00 2.9467847887e+00 
38800 6.3108742017e+00 2.1061972469e-03 1.7012660637e+00 -2.9466792596e+00 1.7012660637e+00 2.9466792596e+00 
38900 6.3108662962e+00 2.1387111439e-03 1.7012041632e+00 -2.9465720448e+00 1.7012041632e+00 2.9465720448e+00 
39000 6.3108584828e+00 2.1706137112e-03 1.7011413049e+00 -2.9464631709e+00 1.7011413049e+00 2.9464631709e+00 
39100 6.3108507571e+00 2.2018246585e-03 1.7010775065e+00 -2.9463526689e+00 1.7010775065e+00 2.9463526689e+00 
39200 6.3108431154e+00 2.2322679306e-03 1.7010127884e+00 -2.9462405739e+00 1.7010127884e+00 2.9462405739e+00 
39300 6.3108355540e+00 2.2618717259e-03 1.7009471730e+00 -2.9461269246e+00 1.7009471730e+00 2.9461269246e+00 
39400 6.3108280695e+00 2.2905685055e-03 1.7008806848e+00 -2.9460117637e+00 1.7008806848e+00 2.9460117637e+00 
39500 6.3108206591e+00 2.3182949930e-03 1.7008133505e+00 -2.9458951373e+00 1.7008133505e+00 2.9458951373e+00 
39600 6.3108133201e+00 2.3449921655e-03 1.7007451984e+00 -2.9457770944e+00 1.7007451984e+00 2.9457770944e+00 
39700 6.3108060499e+00 2.3706052361e-03 1.7006762587e+00 -2.9456576874e+00 1.7006762587e+00 2.9456576874e+00 
39800 6.3107988465e+00 2.3950836283e-03 1.7006065633e+00 -2.9455369712e+00 1.7006065633e+00 2.9455369712e+00 
39900 6.3107917081e+00 2.4183809420e-03 1.7005361452e+00 -2.9454150037e+00 1.7005361452e+00 2.9454150037e+00 
40000 6.3107846329e+00 2.4404549128e-03 1.7004650393e+00 -2.9452918446e+00 1.7004650393e+00 2.9452918446e+00 
40100 6.3107776197e+00 2.4612673632e-03 1.7003932814e+00 -2.9451675562e+00 1.7003932814e+00 2.9451675562e+00 
40200 6.3107706674e+00 2.4807841469e-03 1.7003209084e+00 -2.9450422025e+00 1.7003209084e+00 2.9450422025e+00 
40300 6.3107637750e+00 2.4989750878e-03 1.7002479584e+00 -2.9449158495e+00 1.7002479584e+00 2.9449158495e+00 
40400 6.3107569419e+00 2.5158139108e-03 1.7001744704e+00 -2.9447885645e+00 1.7001744704e+00 2.9447885645e+00 
40500 6.3107501676e+00 2.5312781685e-03 1.7001004840e+00 -2.9446604163e+00 1.7001004840e+00 2.9446604163e+00 
40600 6.3107434518e+00 2.5453491614e-03 1.7000260396e+00 -2.9445314748e+00 1.7000260396e+00 2.9445314748e+00 
40700 6.3107367944e+00 2.5580118531e-03 1.6999511781e+00 -2.9444018109e+00 1.6999511781e+00 2.9444018109e+00 
40800 6.3107301953e+00 2.5692547813e-03 1.6998759409e+00 -2.9442714961e+00 1.6998759409e+00 2.9442714961e+00 
40900 6.3107236546e+00 2.5790699633e-03 1.6998003696e+00 -2.9441406028e+00 1.6998003696e+00 2.9441406028e+00 
41000 6.3107171727e+00 2.5874527983e-03 1.6997245062e+00 -2.9440092037e+00 1.6997245062e+00 2.9440092037e+00 
41100 6.3107107498e+00 2.5944019654e-03 1.6996483929e+00 -2.9438773715e+00 1.6996483929e+00 2.9438773715e+00 
41200 6.3107043864e+00 2.5999193185e-03 1.6995720718e+00 -2.9437451794e+00 1.6995720718e+00 2.9437451794e+00 
41300 6.3106980830e+00 2.6040097781e-03 1.6994955849e+00 -2.9436127002e+00 1.6994955849e+00 2.9436127002e+00 
41400 6.3106918401e+00 2.6066812201e-03 1.6994189742e+00 -2.9434800066e+00 1.6994189742e+00 2.9434800066e+00 
41500 6.3106856582e+00 2.6079443623e-03 1.6993422815e+00 -2.9433471709e+00 1.6993422815e+00 2.9433471709e+00 
41600 6.3106795381e+00 2.6078126489e-03 1.6992655481e+00 -2.9432142649e+00 1.6992655481e+00 2.9432142649e+00 
41700 6.3106734803e+00 2.6063021334e-03 1.6991888152e+00 -2.9430813595e+00 1.6991888152e+00 2.9430813595e+00 
41800 6.3106674854e+00 2.6034313594e-03 1.6991121232e+00 -2.9429485251e+00 1.6991121232e+00 2.9429485251e+00 
41900 6.3106615540e+00 2.5992212408e-03 1.6990355122e+00 -2.9428158311e+00 1.6990355122e+00 2.9428158311e+00 
42000 6.3106556868e+00 2.5936949410e-03 1.6989590217e+00 -2.9426833456e+00 1.6989590217e+00 2.9426833456e+00 
42100 6.3106498842e+00 2.5868777512e-03 1.6988826904e+00 -2.9425511359e+00 1.6988826904e+00 2.9425511359e+00 
42200 6.3106441468e+00 2.5787969688e-03 1.6988065563e+00 -2.9424192678e+00 1.6988065563e+00 2.9424192678e+00 
42300 6.3106384751e+00 2.5694817757e-03 1.6987306566e+00 -2.9422878057e+00 1.6987306566e+00 2.9422878057e+00 
42400 6.3106328695e+00 2.5589631161e-03 1.6986550277e+00 -2.9421568126e+00 1.6986550277e+00 2.9421568126e+00 
42500 6.3106273303e+00 2.5472735757e-03 1.6985797051e+00 -2.9420263499e+00 1.6985797051e+00 2.9420263499e+00 
42600 6.3106218579e+00 2.5344472612e-03 1.6985047232e+00 -2.9418964774e+00 1.6985047232e+00 2.9418964774e+00 
42700 6.3106164524e+00 2.5205196801e-03 1.6984301155e+00 -2.9417672532e+00 1.6984301155e+00 2.9417672532e+00 
42800 6.3106111140e+00 2.5055276230e-03 1.6983559146e+00 -2.9416387334e+00 1.6983559146e+00 2.9416387334e+00 
42900 6.3106058429e+00 2.4895090455e-03 1.6982821518e+00 -2.9415109725e+00 1.6982821518e+00 2.9415109725e+00 
43000 6.3106006389e+00 2.4725029534e-03 1.6982088574e+00 -2.9413840229e+00 1.6982088574e+00 2.9413840229e+00 
43100 6.3105955021e+00 2.4545492880e-03 1.6981360606e+00 -2.9412579351e+00 1.6981360606e+00 2.9412579351e+00 
43200 6.3105904323e+00 2.4356888143e-03 1.6980637892e+00 -2.9411327574e+00 1.6980637892e+00 2.9411327574e+00 
43300 6.3105854293e+00 2.4159630109e-03 1.6979920701e+00 -2.9410085363e+00 1.6979920701e+00 2.9410085363e+00 
43400 6.3105804927e+00 2.3954139621e-03 1.6979209289e+00 -2.9408853160e+00 1.6979209289e+00 2.9408853160e+00 
43500 6.3105756223e+00 2.3740842526e-03 1.6978503897e+00 -2.9407631387e+00 1.6978503897e+00 2.9407631387e+00 
43600 6.3105708175e+00 2.3520168642e-03 1.6977804758e+00 -2.9406420442e+00 1.6977804758e+00 2.9406420442e+00 
43700 6.3105660780e+00 2.3292550753e-03 1.6977112089e+00 -2.9405220703e+00 1.6977112089e+00 2.9405220703e+00 
43800 6.3105614030e+00 2.3058423636e-03 1.6976426095e+00 -2.9404032527e+00 1.6976426095e+00 2.9404032527e+00 
43900 6.3105567920e+00 2.2818223107e-03 1.6975746968e+00 -2.9402856246e+00 1.6975746968e+00 2.9402856246e+00 
44000 6.3105522443e+00 2.2572385104e-03 1.6975074890e+00 -2.9401692172e+00 1.6975074890e+00 2.9401692172e+00 
44100 6.3105477592e+00 2.2321344798e-03 1.6974410026e+00 -2.9400540593e+00 1.6974410026e+00 2.9400540593e+00 
44200 6.3105433359e+00 2.2065535730e-03 1.6973752530e+00 -2.9399401777e+00 1.6973752530e+00 2.9399401777e+00 
44300 6.3105389735e+00 2.1805388989e-03 1.6973102544e+00 -2.9398275969e+00 1.6973102544e+00 2.9398275969e+00 
44400 6.3105346712e+00 2.1541332413e-03 1.6972460197e+00 -2.9397163391e+00 1.6972460197e+00 2.9397163391e+00 
44500 6.3105304280e+00 2.1273789825e-03 1.6971825604e+00 -2.9396064244e+00 1.6971825604e+00 2.9396064244e+00 
44600 6.3105262430e+00 2.1003180308e-03 1.6971198870e+00 -2.9394978708e+00 1.6971198870e+00 2.9394978708e+00 
44700 6.3105221154e+00 2.0729917503e-03 1.6970580085e+00 -2.9393906941e+00 1.6970580085e+00 2.9393906941e+00 
44800 6.3105180440e+00 2.0454408951e-03 1.6969969328e+00 -2.9392849079e+00 1.6969969328e+00 2.9392849079e+00 
44900 6.3105140279e+00 2.0177055458e-03 1.6969366667e+00 -2.9391805239e+00 1.6969366667e+00 2.9391805239e+00 
45000 6.3105100660e+00 1.9898250507e-03 1.6968772156e+00 -2.9390775516e+00 1.6968772156e+00 2.9390775516e+00 
45100 6.3105061575e+00 1.9618379692e-03 1.6968185840e+00 -2.9389759987e+00 1.6968185840e+00 2.9389759987e+00 
45200 6.3105023011e+00 1.9337820190e-03 1.6967607750e+00 -2.9388758706e+00 1.6967607750e+00 2.9388758706e+00 
45300 6.3104984960e+00 1.9056940272e-03 1.6967037908e+00 -2.9387771710e+00 1.6967037908e+00 2.9387771710e+00 
45400 6.3104947410e+00 1.8776098840e-03 1.6966476324e+00 -2.9386799018e+00 1.6966476324e+00 2.9386799018e+00 
45500 6.3104910353e+00 1.8495645001e-03 1.6965922998e+00 -2.9385840629e+00 1.6965922998e+00 2.9385840629e+00 
45600 6.3104873777e+00 1.8215917674e-03 1.6965377918e+00 -2.9384896524e+00 1.6965377918e+00 2.9384896524e+00 
45700 6.3104837673e+00 1.7937245232e-03 1.6964841065e+00 -2.9383966668e+00 1.6964841065e+00 2.9383966668e+00 
45800 6.3104802032e+00 1.7659945170e-03 1.6964312409e+00 -2.9383051007e+00 1.6964312409e+00 2.9383051007e+00 
45900 6.3104766844e+00 1.7384323816e-03 1.6963791909e+00 -2.9382149475e+00 1.6963791909e+00 2.9382149475e+00 
46000 6.3104732099e+00 1.7110676060e-03 1.6963279516e+00 -2.9381261985e+00 1.6963279516e+00 2.9381261985e+00 
46100 6.3104697789e+00 1.6839285127e-03 1.6962775174e+00 -2.9380388439e+00 1.6962775174e+00 2.9380388439e+00 
46200 6.3104663905e+00 1.6570422371e-03 1.6962278817e+00 -2.9379528722e+00 1.6962278817e+00 2.9379528722e+00 
46300 6.3104630439e+00 1.6304347105e-03 1.6961790370e+00 -2.9378682708e+00 1.6961790370e+00 2.9378682708e+00 
46400 6.3104597382e+00 1.6041306455e-03 1.6961309752e+00 -2.9377850254e+00 1.6961309752e+00 2.9377850254e+00 
46500 6.3104564726e+00 1.5781535251e-03 1.6960836875e+00 -2.9377031206e+00 1.6960836875e+00 2.9377031206e+00 
46600 6.3104532465e+00 1.5525255935e-03 1.6960371643e+00 -2.9376225400e+00 1.6960371643e+00 2.9376225400e+00 
46700 6.3104500590e+00 1.5272678504e-03 1.6959913952e+00 -2.9375432658e+00 1.6959913952e+00 2.9375432658e+00 
46800 6.3104469094e+00 1.5024000480e-03 1.6959463696e+00 -2.9374652791e+00 1.6959463696e+00 2.9374652791e+00 
46900 6.3104437972e+00 1.4779406897e-03 1.6959020760e+00 -2.9373885602e+00 1.6959020760e+00 2.9373885602e+00 
47000 6.3104407216e+00 1.4539070324e-03 1.6958585023e+00 -2.9373130884e+00 1.6958585023e+00 2.9373130884e+00 
47100 6.3104376821e+00 1.4303150903e-03 1.6958156361e+00 -2.9372388419e+00 1.6958156361e+00 2.9372388419e+00 
47200 6.3104346781e+00 1.4071796418e-03 1.6957734643e+00 -2.9371657984e+00 1.6957734643e+00 2.9371657984e+00 
47300 6.3104317091e+00 1.3845142377e-03 1.6957319737e+00 -2.9370939345e+00 1.6957319737e+00 2.9370939345e+00 
47400 6.3104287744e+00 1.3623312125e-03 1.6956911504e+00 -2.9370232264e+00 1.6956911504e+00 2.9370232264e+00 
47500 6.3104258738e+00 1.3406416970e-03 1.6956509802e+00 -2.9369536495e+00 1.6956509802e+00 2.9369536495e+00 
47600 6.3104230066e+00 1.3194556334e-03 1.6956114485e+00 -2.9368851788e+00 1.6956114485e+00 2.9368851788e+00 
47700 6.3104201725e+00 1.2987817920e-03 1.6955725407e+00 -2.9368177885e+00 1.6955725407e+00 2.9368177885e+00 
47800 6.3104173710e+00 1.2786277896e-03 1.6955342417e+00 -2.9367514525e+00 1.6955342417e+00 2.9367514525e+00 
47900 6.3104146018e+00 1.2590001096e-03 1.6954965361e+00 -2.9366861445e+00 1.6954965361e+00 2.9366861445e+00 
48000 6.3104118644e+00 1.2399041244e-03 1.6954594084e+00 -2.9366218376e+00 1.6954594084e+00 2.9366218376e+00 
48100 6.3104091586e+00 1.2213441179e-03 1.6954228431e+00 -2.9365585046e+00 1.6954228431e+00 2.9365585046e+00 
48200 6.3104064840e+00 1.2033233107e-03 1.6953868244e+00 -2.9364961183e+00 1.6953868244e+00 2.9364961183e+00 
48300 6.3104038403e+00 1.1858438862e-03 1.6953513363e+00 -2.9364346512e+00 1.6953513363e+00 2.9364346512e+00 
48400 6.3104012272e+00 1.1689070174e-03 1.6953163631e+00 -2.9363740757e+00 1.6953163631e+00 2.9363740757e+00 
48500 6.3103986444e+00 1.1525128958e-03 1.6952818886e+00 -2.9363143642e+00 1.6952818886e+00 2.9363143642e+00 
48600 6.3103960917e+00 1.1366607605e-03 1.6952478969e+00 -2.9362554889e+00 1.6952478969e+00 2.9362554889e+00 
48700 6.3103935687e+00 1.1213489286e-03 1.6952143721e+00 -2.9361974222e+00 1.6952143721e+00 2.9361974222e+00 
48800 6.3103910753e+00 1.1065748265e-03 1.6951812983e+00 -2.9361401366e+00 1.6951812983e+00 2.9361401366e+00 
48900 6.3103886112e+00 1.0923350222e-03 1.6951486595e+00 -2.9360836047e+00 1.6951486595e+00 2.9360836047e+00 
49000 6.3103861761e+00 1.0786252574e-03 1.6951164402e+00 -2.9360277992e+00 1.6951164402e+00 2.9360277992e+00 
49100 6.3103837699e+00 1.0654404813e-03 1.6950846246e+00 -2.9359726930e+00 1.6950846246e+00 2.9359726930e+00 
49200 6.3103813922e+00 1.0527748845e-03 1.6950531974e+00 -2.9359182594e+00 1.6950531974e+00 2.9359182594e+00 
49300 6.3103790430e+00 1.0406219326e-03 1.6950221431e+00 -2.9358644719e+00 1.6950221431e+00 2.9358644719e+00 
49400 6.3103767219e+00 1.0289744017e-03 1.6949914468e+00 -2.9358113043e+00 1.6949914468e+00 2.9358113043e+00 
49500 6.3103744287e+00 1.0178244127e-03 1.6949610935e+00 -2.9357587308e+00 1.6949610935e+00 2.9357587308e+00 
49600 6.3103721633e+00 1.0071634666e-03 1.6949310686e+00 -2.9357067262e+00 1.6949310686e+00 2.9357067262e+00 
49700 6.3103699254e+00 9.9698247980e-04 1.6949013577e+00 -2.9356552653e+00 1.6949013577e+00 2.9356552653e+00 
49800 6.3103677148e+00 9.8727181920e-04 1.6948719465e+00 -2.9356043237e+00 1.6948719465e+00 2.9356043237e+00 
49900 6.3103655312e+00 9.7802133767e-04 1.6948428213e+00 -2.9355538774e+00 1.6948428213e+00 2.9355538774e+00 
50000 6.3103633745e+00 9.6922040915e-04 1.6948139686e+00 -2.9355039029e+00 1.6948139686e+00 2.9355039029e+00 
50100 6.3103612444e+00 9.6085796366e-04 1.6947853749e+00 -2.9354543773e+00 1.6947853749e+00 2.9354543773e+00 
50200 6.3103591407e+00 9.5292252212e-04 1.6947570275e+00 -2.9354052781e+00 1.6947570275e+00 2.9354052781e+00 
50300 6.3103570631e+00 9.4540223096e-04 1.6947289138e+00 -2.9353565837e+00 1.6947289138e+00 2.9353565837e+00 
50400 6.3103550114e+00 9.3828489622e-04 1.6947010214e+00 -2.9353082727e+00 1.6947010214e+00 2.9353082727e+00 
50500 6.3103529855e+00 9.3155801744e-04 1.6946733386e+00 -2.9352603246e+00 1.6946733386e+00 2.9352603246e+00 
50600 6.3103509849e+00 9.2520882097e-04 1.6946458538e+00 -2.9352127196e+00 1.6946458538e+00 2.9352127196e+00 
50700 6.3103490096e+00 9.1922429288e-04 1.6946185558e+00 -2.9351654382e+00 1.6946185558e+00 2.9351654382e+00 
50800 6.3103470591e+00 9.1359121122e-04 1.6945914340e+00 -2.9351184618e+00 1.6945914340e+00 2.9351184618e+00 
50900 6.3103451334e+00 9.0829617779e-04 1.6945644780e+00 -2.9350717726e+00 1.6945644780e+00 2.9350717726e+00 
51000 6.3103432320e+00 9.0332564919e-04 1.6945376778e+00 -2.9350253533e+00 1.6945376778e+00 2.9350253533e+00 
51100 6.3103413548e+00 8.9866596724e-04 1.6945110238e+00 -2.9349791873e+00 1.6945110238e+00 2.9349791873e+00 
51200 6.3103395015e+00 8.9430338866e-04 1.6944845069e+00 -2.9349332587e+00 1.6944845069e+00 2.9349332587e+00 
51300 6.3103376717e+00 8.9022411395e-04 1.6944581183e+00 -2.9348875523e+00 1.6944581183e+00 2.9348875523e+00 
51400 6.3103358653e+00 8.8641431562e-04 1.6944318497e+00 -2.9348420537e+00 1.6944318497e+00 2.9348420537e+00 
51500 6.3103340820e+00 8.8286016543e-04 1.6944056931e+00 -2.9347967491e+00 1.6944056931e+00 2.9347967491e+00 
51600 6.3103323214e+00 8.7954786088e-04 1.6943796410e+00 -2.9347516255e+00 1.6943796410e+00 2.9347516255e+00 
51700 6.3103305834e+00 8.7646365085e-04 1.6943536862e+00 -2.9347066704e+00 1.6943536862e+00 2.9347066704e+00 
51800 6.3103288675e+00 8.7359386023e-04 1.6943278220e+00 -2.9346618724e+00 1.6943278220e+00 2.9346618724e+00 
51900 6.3103271736e+00 8.7092491375e-04 1.6943020421e+00 -2.9346172203e+00 1.6943020421e+00 2.9346172203e+00 
52000 6.3103255013e+00 8.6844335881e-04 1.6942763406e+00 -2.9345727039e+00 1.6942763406e+00 2.9345727039e+00 
52100 6.3103238503e+00 8.6613588739e-04 1.6942507119e+00 -2.9345283138e+00 1.6942507119e+00 2.9345283138e+00 
52200 6.3103222204e+00 8.6398935694e-04 1.6942251509e+00 -2.9344840409e+00 1.6942251509e+00 2.9344840409e+00 
52300 6.3103206114e+00 8.6199081037e-04 1.6941996529e+00 -2.9344398770e+00 1.6941996529e+00 2.9344398770e+00 
52400 6.3103190228e+00 8.6012749497e-04 1.6941742135e+00 -2.9343958147e+00 1.6941742135e+00 2.9343958147e+00 
52500 6.3103174544e+00 8.5838688042e-04 1.6941488287e+00 -2.9343518469e+00 1.6941488287e+00 2.9343518469e+00 
52600 6.3103159060e+00 8.5675667576e-04 1.6941234949e+00 -2.9343079675e+00 1.6941234949e+00 2.9343079675e+00 
52700 6.3103143772e+00 8.5522484533e-04 1.6940982089e+00 -2.9342641707e+00 1.6940982089e+00 2.9342641707e+00 
52800 6.3103128678e+00 8.5377962376e-04 1.6940729676e+00 -2.9342204516e+00 1.6940729676e+00 2.9342204516e+00 
52900 6.3103113775e+00 8.5240952997e-04 1.6940477687e+00 -2.9341768058e+00 1.6940477687e+00 2.9341768058e+00 
53000 6.3103099060e+00 8.5110338010e-04 1.6940226098e+00 -2.9341332293e+00 1.6940226098e+00 2.9341332293e+00 
53100 6.3103084531e+00 8.4985029953e-04 1.6939974890e+00 -2.9340897189e+00 1.6939974890e+00 2.9340897189e+00 
53200 6.3103070185e+00 8.4863973390e-04 1.6939724049e+00 -2.9340462720e+00 1.6939724049e+00 2.9340462720e+00 
53300 6.3103056019e+00 8.4746145909e-04 1.6939473562e+00 -2.9340028863e+00 1.6939473562e+00 2.9340028863e+00 
53400 6.3103042031e+00 8.4630559037e-04 1.6939223419e+00 -2.9339595602e+00 1.6939223419e+00 2.9339595602e+00 
53500 6.3103028218e+00 8.4516259043e-04 1.6938973613e+00 -2.9339162925e+00 1.6938973613e+00 2.9339162925e+00 
53600 6.3103014578e+00 8.4402327664e-04 1.6938724141e+00 -2.9338730827e+00 1.6938724141e+00 2.9338730827e+00 
53700 6.3103001108e+00 8.4287882727e-04 1.6938475001e+00 -2.9338299304e+00 1.6938475001e+00 2.9338299304e+00 
53800 6.3102987806e+00 8.4172078688e-04 1.6938226196e+00 -2.9337868361e+00 1.6938226196e+00 2.9337868361e+00 
53900 6.3102974670e+00 8.4054107073e-04 1.6937977728e+00 -2.9337438003e+00 1.6937977728e+00 2.9337438003e+00 
54000 6.3102961697e+00 8.3933196846e-04 1.6937729606e+00 -2.9337008242e+00 1.6937729606e+00 2.9337008242e+00 
54100 6.3102948885e+00 8.3808614681e-04 1.6937481836e+00 -2.9336579093e+00 1.6937481836e+00 2.9336579093e+00 
54200 6.3102936231e+00 8.3679665151e-04 1.6937234431e+00 -2.9336150575e+00 1.6937234431e+00 2.9336150575e+00 
54300 6.3102923734e+00 8.3545690849e-04 1.6936987403e+00 -2.9335722709e+00 1.6936987403e+00 2.9335722709e+00 
54400 6.3102911391e+00 8.3406072413e-04 1.6936740767e+00 -2.9335295523e+00 1.6936740767e+00 2.9335295523e+00 
54500 6.3102899201e+00 8.3260228494e-04 1.6936494539e+00 -2.9334869044e+00 1.6936494539e+00 2.9334869044e+00 
54600 6.3102887161e+00 8.3107615632e-04 1.6936248739e+00 -2.9334443305e+00 1.6936248739e+00 2.9334443305e+00 
54700 6.3102875269e+00 8.2947728079e-04 1.6936003385e+00 -2.9334018340e+00 1.6936003385e+00 2.9334018340e+00 
54800 6.3102863523e+00 8.2780097541e-04 1.6935758500e+00 -2.9333594186e+00 1.6935758500e+00 2.9333594186e+00 
54900 6.3102851922e+00 8.2604292860e-04 1.6935514106e+00 -2.9333170884e+00 1.6935514106e+00 2.9333170884e+00 
55000 6.3102840463e+00 8.2419919633e-04 1.6935270228e+00 -2.9332748474e+00 1.6935270228e+00 2.9332748474e+00 
55100 6.3102829146e+00 8.2226619771e-04 1.6935026890e+00 -2.9332327001e+00 1.6935026890e+00 2.9332327001e+00 
55200 6.3102817967e+00 8.2024071000e-04 1.6934784120e+00 -2.9331906511e+00 1.6934784120e+00 2.9331906511e+00 
55300 6.3102806925e+00 8.1811986307e-04 1.6934541944e+00 -2.9331487050e+00 1.6934541944e+00 2.9331487050e+00 
55400 6.3102796019e+00 8.1590113337e-04 1.6934300391e+00 -2.9331068668e+00 1.6934300391e+00 2.9331068668e+00 
55500 6.3102785247e+00 8.1358233739e-04 1.6934059490e+00 -2.9330651415e+00 1.6934059490e+00 2.9330651415e+00 
55600 6.3102774607e+00 8.1116162466e-04 1.6933819270e+00 -2.9330235341e+00 1.6933819270e+00 2.9330235341e+00 
55700 6.3102764098e+00 8.0863747036e-04 1.6933579761e+00 -2.9329820500e+00 1.6933579761e+00 2.9329820500e+00 
55800 6.3102753718e+00 8.0600866743e-04 1.6933340994e+00 -2.9329406944e+00 1.6933340994e+00 2.9329406944e+00 
55900 6.3102743465e+00 8.0327431845e-04 1.6933103000e+00 -2.9328994726e+00 1.6933103000e+00 2.9328994726e+00 
56000 6.3102733339e+00 8.0043382702e-04 1.6932865810e+00 -2.9328583901e+00 1.6932865810e+00 2.9328583901e+00 
56100 6.3102723337e+00 7.9748688896e-04 1.6932629455e+00 -2.9328174523e+00 1.6932629455e+00 2.9328174523e+00 
56200 6.3102713458e+00 7.9443348312e-04 1.6932393968e+00 -2.9327766646e+00 1.6932393968e+00 2.9327766646e+00 
56300 6.3102703701e+00 7.9127386198e-04 1.6932159379e+00 -2.9327360326e+00 1.6932159379e+00 2.9327360326e+00 
56400 6.3102694064e+00 7.8800854198e-04 1.6931925719e+00 -2.9326955615e+00 1.6931925719e+00 2.9326955615e+00 
56500 6.3102684546e+00 7.8463829367e-04 1.6931693021e+00 -2.9326552570e+00 1.6931693021e+00 2.9326552570e+00 
56600 6.3102675146e+00 7.8116413170e-04 1.6931461314e+00 -2.9326151242e+00 1.6931461314e+00 2.9326151242e+00 
56700 6.3102665862e+00 7.7758730454e-04 1.6931230630e+00 -2.9325751687e+00 1.6931230630e+00 2.9325751687e+00 
56800 6.3102656692e+00 7.7390928422e-04 1.6931001000e+00 -2.9325353955e+00 1.6931001000e+00 2.9325353955e+00 
56900 6.3102647637e+00 7.7013175584e-04 1.6930772452e+00 -2.9324958099e+00 1.6930772452e+00 2.9324958099e+00 
57000 6.3102638693e+00 7.6625660708e-04 1.6930545017e+00 -2.9324564170e+00 1.6930545017e+00 2.9324564170e+00 
57100 6.3102629861e+00 7.6228591758e-04 1.6930318724e+00 -2.9324172218e+00 1.6930318724e+00 2.9324172218e+00 
57200 6.3102621138e+00 7.5822194835e-04 1.6930093600e+00 -2.9323782292e+00 1.6930093600e+00 2.9323782292e+00 
57300 6.3102612524e+00 7.5406713108e-04 1.6929869673e+00 -2.9323394439e+00 1.6929869673e+00 2.9323394439e+00 
57400 6.3102604017e+00 7.4982405758e-04 1.6929646970e+00 -2.9323008707e+00 1.6929646970e+00 2.9323008707e+00 
57500 6.3102595616e+00 7.4549546911e-04 1.6929425518e+00 -2.9322625140e+00 1.6929425518e+00 2.9322625140e+00 
57600 6.3102587320e+00 7.4108424585e-04 1.6929205341e+00 -2.9322243782e+00 1.6929205341e+00 2.9322243782e+00 
57700 6.3102579127e+00 7.3659339641e-04 1.6928986464e+00 -2.9321864676e+00 1.6928986464e+00 2.9321864676e+00 
57800 6.3102571037e+00 7.3202604740e-04 1.6928768910e+00 -2.9321487862e+00 1.6928768910e+00 2.9321487862e+00 
57900 6.3102563047e+00 7.2738543315e-04 1.6928552703e+00 -2.9321113381e+00 1.6928552703e+00 2.9321113381e+00 
58000 6.3102555158e+00 7.2267488550e-04 1.6928337864e+00 -2.9320741268e+00 1.6928337864e+00 2.9320741268e+00 
58100 6.3102547368e+00 7.1789782378e-04 1.6928124413e+00 -2.9320371560e+00 1.6928124413e+00 2.9320371560e+00 
58200 6.3102539675e+00 7.1305774486e-04 1.6927912371e+00 -2.9320004292e+00 1.6927912371e+00 2.9320004292e+00 
58300 6.3102532079e+00 7.0815821349e-04 1.6927701755e+00 -2.9319639495e+00 1.6927701755e+00 2.9319639495e+00 
58400 6.3102524578e+00 7.0320285267e-04 1.6927492584e+00 -2.9319277200e+00 1.6927492584e+00 2.9319277200e+00 
58500 6.3102517171e+00 6.9819533435e-04 1.6927284874e+00 -2.9318917436e+00 1.6927284874e+00 2.9318917436e+00 
58600 6.3102509858e+00 6.9313937022e-04 1.6927078641e+00 -2.9318560230e+00 1.6927078641e+00 2.9318560230e+00 
58700 6.3102502636e+00 6.8803870282e-04 1.6926873899e+00 -2.9318205606e+00 1.6926873899e+00 2.9318205606e+00 
58800 6.3102495505e+00 6.8289709681e-04 1.6926670660e+00 -2.9317853587e+00 1.6926670660e+00 2.9317853587e+00 
58900 6.3102488464e+00 6.7771833047e-04 1.6926468939e+00 -2.9317504194e+00 1.6926468939e+00 2.9317504194e+00 
59000 6.3102481512e+00 6.7250618751e-04 1.6926268744e+00 -2.9317157447e+00 1.6926268744e+00 2.9317157447e+00 
59100 6.3102474647e+00 6.6726444906e-04 1.6926070087e+00 -2.9316813363e+00 1.6926070087e+00 2.9316813363e+00 
59200 6.3102467868e+00 6.6199688598e-04 1.6925872976e+00 -2.9316471957e+00 1.6925872976e+00 2.9316471957e+00 
59300 6.3102461175e+00 6.5670725140e-04 1.6925677419e+00 -2.9316133242e+00 1.6925677419e+00 2.9316133242e+00 
59400 6.3102454566e+00 6.5139927356e-04 1.6925483422e+00 -2.9315797229e+00 1.6925483422e+00 2.9315797229e+00 
59500 6.3102448040e+00 6.4607664892e-04 1.6925290991e+00 -2.9315463929e+00 1.6925290991e+00 2.9315463929e+00 
59600 6.3102441597e+00 6.4074303554e-04 1.6925100130e+00 -2.9315133348e+00 1.6925100130e+00 2.9315133348e+00 
59700 6.3102435234e+00 6.3540204677e-04 1.6924910842e+00 -2.9314805492e+00 1.6924910842e+00 2.9314805492e+00 
59800 6.3102428952e+00 6.3005724525e-04 1.6924723130e+00 -2.9314480366e+00 1.6924723130e+00 2.9314480366e+00 
59900 6.3102422749e+00 6.2471213712e-04 1.6924536996e+00 -2.9314157971e+00 1.6924536996e+00 2.9314157971e+00 
60000 6.3102416624e+00 6.1937016664e-04 1.6924352438e+00 -2.9313838307e+00 1.6924352438e+00 2.9313838307e+00 
60100 6.3102410576e+00 6.1403471102e-04 1.6924169456e+00 -2.9313521374e+00 1.6924169456e+00 2.9313521374e+00 
60200 6.3102404604e+00 6.0870907559e-04 1.6923988049e+00 -2.9313207167e+00 1.6923988049e+00 2.9313207167e+00 
60300 6.3102398707e+00 6.0339648924e-04 1.6923808213e+00 -2.9312895682e+00 1.6923808213e+00 2.9312895682e+00 
60400 6.3102392884e+00 5.9810010021e-04 1.6923629945e+00 -2.9312586913e+00 1.6923629945e+00 2.9312586913e+00 
60500 6.3102387135e+00 5.9282297210e-04 1.6923453239e+00 -2.9312280850e+00 1.6923453239e+00 2.9312280850e+00 
60600 6.3102381458e+00 5.8756808024e-04 1.6923278091e+00 -2.9311977485e+00 1.6923278091e+00 2.9311977485e+00 
60700 6.3102375852e+00 5.8233830829e-04 1.6923104494e+00 -2.9311676806e+00 1.6923104494e+00 2.9311676806e+00 
60800 6.3102370317e+00 5.7713644523e-04 1.6922932440e+00 -2.9311378799e+00 1.6922932440e+00 2.9311378799e+00 
60900 6.3102364851e+00 5.7196518248e-04 1.6922761921e+00 -2.9311083452e+00 1.6922761921e+00 2.9311083452e+00 
61000 6.3102359453e+00 5.6682711149e-04 1.6922592929e+00 -2.9310790749e+00 1.6922592929e+00 2.9310790749e+00 
61100 6.3102354124e+00 5.6172472144e-04 1.6922425453e+00 -2.9310500671e+00 1.6922425453e+00 2.9310500671e+00 
61200 6.3102348861e+00 5.5666039731e-04 1.6922259482e+00 -2.9310213202e+00 1.6922259482e+00 2.9310213202e+00 
61300 6.3102343665e+00 5.5163641820e-04 1.6922095007e+00 -2.9309928323e+00 1.6922095007e+00 2.9309928323e+00 
61400 6.3102338533e+00 5.4665495590e-04 1.6921932014e+00 -2.9309646011e+00 1.6921932014e+00 2.9309646011e+00 
61500 6.3102333466e+00 5.4171807372e-04 1.6921770492e+00 -2.9309366246e+00 1.6921770492e+00 2.9309366246e+00 
61600 6.3102328462e+00 5.3682772559e-04 1.6921610427e+00 -2.9309089005e+00 1.6921610427e+00 2.9309089005e+00 
61700 6.3102323521e+00 5.3198575540e-04 1.6921451805e+00 -2.9308814264e+00 1.6921451805e+00 2.9308814264e+00 
61800 6.3102318642e+00 5.2719389653e-04 1.6921294613e+00 -2.9308541999e+00 1.6921294613e+00 2.9308541999e+00 
61900 6.3102313824e+00 5.2245377172e-04 1.6921138835e+00 -2.9308272183e+00 1.6921138835e+00 2.9308272183e+00 
62000 6.3102309067e+00 5.1776689304e-04 1.6920984456e+00 -2.9308004792e+00 1.6920984456e+00 2.9308004792e+00 
62100 6.3102304369e+00 5.1313466218e-04 1.6920831461e+00 -2.9307739796e+00 1.6920831461e+00 2.9307739796e+00 
62200 6.3102299729e+00 5.0855837088e-04 1.6920679833e+00 -2.9307477169e+00 1.6920679833e+00 2.9307477169e+00 
62300 6.3102295148e+00 5.0403920162e-04 1.6920529556e+00 -2.9307216881e+00 1.6920529556e+00 2.9307216881e+00 
62400 6.3102290624e+00 4.9957822846e-04 1.6920380613e+00 -2.9306958905e+00 1.6920380613e+00 2.9306958905e+00 
62500 6.3102286157e+00 4.9517641808e-04 1.6920232987e+00 -2.9306703209e+00 1.6920232987e+00 2.9306703209e+00 
62600 6.3102281745e+00 4.9083463103e-04 1.6920086660e+00 -2.9306449764e+00 1.6920086660e+00 2.9306449764e+00 
62700 6.3102277389e+00 4.8655362309e-04 1.6919941616e+00 -2.9306198539e+00 1.6919941616e+00 2.9306198539e+00 
62800 6.3102273088e+00 4.8233404688e-04 1.6919797835e+00 -2.9305949504e+00 1.6919797835e+00 2.9305949504e+00 
62900 6.3102268840e+00 4.7817645350e-04 1.6919655300e+00 -2.9305702625e+00 1.6919655300e+00 2.9305702625e+00 
63000 6.3102264645e+00 4.7408129447e-04 1.6919513992e+00 -2.9305457873e+00 1.6919513992e+00 2.9305457873e+00 
63100 6.3102260503e+00 4.7004892368e-04 1.6919373893e+00 -2.9305215215e+00 1.6919373893e+00 2.9305215215e+00 
63200 6.3102256412e+00 4.6607959953e-04 1.6919234985e+00 -2.9304974619e+00 1.6919234985e+00 2.9304974619e+00 
63300 6.3102252373e+00 4.6217348718e-04 1.6919097248e+00 -2.9304736052e+00 1.6919097248e+00 2.9304736052e+00 
63400 6.3102248385e+00 4.5833066092e-04 1.6918960665e+00 -2.9304499483e+00 1.6918960665e+00 2.9304499483e+00 
63500 6.3102244446e+00 4.5455110661e-04 1.6918825216e+00 -2.9304264879e+00 1.6918825216e+00 2.9304264879e+00 
63600 6.3102240557e+00 4.5083472431e-04 1.6918690884e+00 -2.9304032208e+00 1.6918690884e+00 2.9304032208e+00 
63700 6.3102236716e+00 4.4718133085e-04 1.6918557648e+00 -2.9303801437e+00 1.6918557648e+00 2.9303801437e+00 
63800 6.3102232924e+00 4.4359066264e-04 1.6918425491e+00 -2.9303572535e+00 1.6918425491e+00 2.9303572535e+00 
63900 6.3102229179e+00 4.4006237844e-04 1.6918294394e+00 -2.9303345469e+00 1.6918294394e+00 2.9303345469e+00 
64000 6.3102225481e+00 4.3659606221e-04 1.6918164339e+00 -2.9303120207e+00 1.6918164339e+00 2.9303120207e+00 
64100 6.3102221829e+00 4.3319122610e-04 1.6918035308e+00 -2.9302896718e+00 1.6918035308e+00 2.9302896718e+00 
64200 6.3102218223e+00 4.2984731340e-04 1.6917907282e+00 -2.9302674969e+00 1.6917907282e+00 2.9302674969e+00 
64300 6.3102214663e+00 4.2656370153e-04 1.6917780243e+00 -2.9302454931e+00 1.6917780243e+00 2.9302454931e+00 
64400 6.3102211147e+00 4.2333970516e-04 1.6917654173e+00 -2.9302236573e+00 1.6917654173e+00 2.9302236573e+00 
64500 6.3102207675e+00 4.2017457923e-04 1.6917529056e+00 -2.9302019863e+00 1.6917529056e+00 2.9302019863e+00 
64600 6.3102204247e+00 4.1706752212e-04 1.6917404872e+00 -2.9301804771e+00 1.6917404872e+00 2.9301804771e+00 
64700 6.3102200862e+00 4.1401767872e-04 1.6917281607e+00 -2.9301591269e+00 1.6917281607e+00 2.9301591269e+00 
64800 6.3102197519e+00 4.1102414358e-04 1.6917159242e+00 -2.9301379326e+00 1.6917159242e+00 2.9301379326e+00 
64900 6.3102194219e+00 4.0808596402e-04 1.6917037760e+00 -2.9301168915e+00 1.6917037760e+00 2.9301168915e+00 
65000 6.3102190960e+00 4.0520214328e-04 1.6916917147e+00 -2.9300960005e+00 1.6916917147e+00 2.9300960005e+00 
65100 6.3102187742e+00 4.0237164363e-04 1.6916797384e+00 -2.9300752571e+00 1.6916797384e+00 2.9300752571e+00 
65200 6.3102184564e+00 3.9959338943e-04 1.6916678458e+00 -2.9300546584e+00 1.6916678458e+00 2.9300546584e+00 
65300 6.3102181426e+00 3.9686627026e-04 1.6916560352e+00 -2.9300342018e+00 1.6916560352e+00 2.9300342018e+00 
65400 6.3102178328e+00 3.9418914391e-04 1.6916443051e+00 -2.9300138847e+00 1.6916443051e+00 2.9300138847e+00 
65500 6.3102175269e+00 3.9156083942e-04 1.6916326540e+00 -2.9299937045e+00 1.6916326540e+00 2.9299937045e+00 
65600 6.3102172248e+00 3.8898016008e-04 1.6916210806e+00 -2.9299736587e+00 1.6916210806e+00 2.9299736587e+00 
65700 6.3102169266e+00 3.8644588632e-04 1.6916095833e+00 -2.9299537449e+00 1.6916095833e+00 2.9299537449e+00 
65800 6.3102166321e+00 3.8395677861e-04 1.6915981609e+00 -2.9299339607e+00 1.6915981609e+00 2.9299339607e+00 
65900 6.3102163413e+00 3.8151158030e-04 1.6915868120e+00 -2.9299143038e+00 1.6915868120e+00 2.9299143038e+00 
66000 6.3102160542e+00 3.7910902043e-04 1.6915755353e+00 -2.9298947719e+00 1.6915755353e+00 2.9298947719e+00 
66100 6.3102157707e+00 3.7674781639e-04 1.6915643295e+00 -2.9298753629e+00 1.6915643295e+00 2.9298753629e+00 
66200 6.3102154907e+00 3.7442667663e-04 1.6915531934e+00 -2.9298560747e+00 1.6915531934e+00 2.9298560747e+00 
66300 6.3102152143e+00 3.7214430324e-04 1.6915421259e+00 -2.9298369052e+00 1.6915421259e+00 2.9298369052e+00 
66400 6.3102149414e+00 3.6989939447e-04 1.6915311257e+00 -2.9298178524e+00 1.6915311257e+00 2.9298178524e+00 
66500 6.3102146719e+00 3.6769064719e-04 1.6915201919e+00 -2.9297989144e+00 1.6915201919e+00 2.9297989144e+00 
66600 6.3102144058e+00 3.6551675930e-04 1.6915093233e+00 -2.9297800894e+00 1.6915093233e+00 2.9297800894e+00 
66700 6.3102141431e+00 3.6337643197e-04 1.6914985188e+00 -2.9297613755e+00 1.6914985188e+00 2.9297613755e+00 
66800 6.3102138837e+00 3.6126837194e-04 1.6914877776e+00 -2.9297427711e+00 1.6914877776e+00 2.9297427711e+00 
66900 6.3102136275e+00 3.5919129361e-04 1.6914770986e+00 -2.9297242746e+00 1.6914770986e+00 2.9297242746e+00 
67000 6.3102133746e+00 3.5714392114e-04 1.6914664809e+00 -2.9297058842e+00 1.6914664809e+00 2.9297058842e+00 
67100 6.3102131249e+00 3.5512499042e-04 1.6914559237e+00 -2.9296875986e+00 1.6914559237e+00 2.9296875986e+00 
67200 6.3102128783e+00 3.5313325098e-04 1.6914454261e+00 -2.9296694162e+00 1.6914454261e+00 2.9296694162e+00 
67300 6.3102126349e+00 3.5116746779e-04 1.6914349873e+00 -2.9296513357e+00 1.6914349873e+00 2.9296513357e+00 
67400 6.3102123945e+00 3.4922642297e-04 1.6914246065e+00 -2.9296333557e+00 1.6914246065e+00 2.9296333557e+00 
67500 6.3102121571e+00 3.4730891747e-04 1.6914142831e+00 -2.9296154750e+00 1.6914142831e+00 2.9296154750e+00 
67600 6.3102119228e+00 3.4541377259e-04 1.6914040163e+00 -2.9295976924e+00 1.6914040163e+00 2.9295976924e+00 
67700 6.3102116914e+00 3.4353983146e-04 1.6913938055e+00 -2.9295800067e+00 1.6913938055e+00 2.9295800067e+00 
67800 6.3102114629e+00 3.4168596039e-04 1.6913836499e+00 -2.9295624168e+00 1.6913836499e+00 2.9295624168e+00 
67900 6.3102112373e+00 3.3985105020e-04 1.6913735492e+00 -2.9295449217e+00 1.6913735492e+00 2.9295449217e+00 
68000 6.3102110145e+00 3.3803401737e-04 1.6913635026e+00 -2.9295275205e+00 1.6913635026e+00 2.9295275205e+00 
68100 6.3102107946e+00 3.3623380520e-04 1.6913535096e+00 -2.9295102123e+00 1.6913535096e+00 2.9295102123e+00 
68200 6.3102105774e+00 3.3444938482e-04 1.6913435699e+00 -2.9294929961e+00 1.6913435699e+00 2.9294929961e+00 
68300 6.3102103630e+00 3.3267975611e-04 1.6913336828e+00 -2.9294758711e+00 1.6913336828e+00 2.9294758711e+00 
68400 6.3102101512e+00 3.3092394858e-04 1.6913238480e+00 -2.9294588367e+00 1.6913238480e+00 2.9294588367e+00 
68500 6.3102099422e+00 3.2918102213e-04 1.6913140650e+00 -2.9294418921e+00 1.6913140650e+00 2.9294418921e+00 
68600 6.3102097358e+00 3.2745006777e-04 1.6913043335e+00 -2.9294250366e+00 1.6913043335e+00 2.9294250366e+00 
68700 6.3102095320e+00 3.2573020816e-04 1.6912946531e+00 -2.9294082697e+00 1.6912946531e+00 2.9294082697e+00 
68800 6.3102093307e+00 3.2402059821e-04 1.6912850235e+00 -2.9293915908e+00 1.6912850235e+00 2.9293915908e+00 
68900 6.3102091320e+00 3.2232042548e-04 1.6912754444e+00 -2.9293749992e+00 1.6912754444e+00 2.9293749992e+00 
69000 6.3102089358e+00 3.2062891058e-04 1.6912659155e+00 -2.9293584947e+00 1.6912659155e+00 2.9293584947e+00 
69100 6.3102087421e+00 3.1894530744e-04 1.6912564365e+00 -2.9293420767e+00 1.6912564365e+00 2.9293420767e+00 
69200 6.3102085508e+00 3.1726890357e-04 1.6912470073e+00 -2.9293257447e+00 1.6912470073e+00 2.9293257447e+00 
69300 6.3102083619e+00 3.1559902018e-04 1.6912376275e+00 -2.9293094986e+00 1.6912376275e+00 2.9293094986e+00 
69400 6.3102081754e+00 3.1393501226e-04 1.6912282971e+00 -2.9292933378e+00 1.6912282971e+00 2.9292933378e+00 
69500 6.3102079913e+00 3.1227626861e-04 1.6912190159e+00 -2.9292772622e+00 1.6912190159e+00 2.9292772622e+00 
69600 6.3102078094e+00 3.1062221178e-04 1.6912097836e+00 -2.9292612715e+00 1.6912097836e+00 2.9292612715e+00 
69700 6.3102076299e+00 3.0897229796e-04 1.6912006002e+00 -2.9292453653e+00 1.6912006002e+00 2.9292453653e+00 
69800 6.3102074527e+00 3.0732601682e-04 1.6911914655e+00 -2.9292295435e+00 1.6911914655e+00 2.9292295435e+00 
69900 6.3102072776e+00 3.0568289121e-04 1.6911823794e+00 -2.9292138060e+00 1.6911823794e+00 2.9292138060e+00 
70000 6.3102071048e+00 3.0404247697e-04 1.6911733419e+00 -2.9291981525e+00 1.6911733419e+00 2.9291981525e+00 
70100 6.3102069342e+00 3.0240436248e-04 1.6911643528e+00 -2.9291825830e+00 1.6911643528e+00 2.9291825830e+00 
70200 6.3102067657e+00 3.0076816834e-04 1.6911554121e+00 -2.9291670972e+00 1.6911554121e+00 2.9291670972e+00 
70300 6.3102065993e+00 2.9913354689e-04 1.6911465197e+00 -2.9291516952e+00 1.6911465197e+00 2.9291516952e+00 
70400 6.3102064350e+00 2.9750018171e-04 1.6911376756e+00 -2.9291363767e+00 1.6911376756e+00 2.9291363767e+00 
70500 6.3102062728e+00 2.9586778711e-04 1.6911288797e+00 -2.9291211419e+00 1.6911288797e+00 2.9291211419e+00 
70600 6.3102061127e+00 2.9423610753e-04 1.6911201321e+00 -2.9291059905e+00 1.6911201321e+00 2.9291059905e+00 
70700 6.3102059546e+00 2.9260491690e-04 1.6911114327e+00 -2.9290909227e+00 1.6911114327e+00 2.9290909227e+00 
70800 6.3102057984e+00 2.9097401804e-04 1.6911027814e+00 -2.9290759382e+00 1.6911027814e+00 2.9290759382e+00 
70900 6.3102056443e+00 2.8934324191e-04 1.6910941783e+00 -2.9290610373e+00 1.6910941783e+00 2.9290610373e+00 
71000 6.3102054920e+00 2.8771244693e-04 1.6910856234e+00 -2.9290462197e+00 1.6910856234e+00 2.9290462197e+00 
71100 6.3102053417e+00 2.8608151821e-04 1.6910771167e+00 -2.9290314857e+00 1.6910771167e+00 2.9290314857e+00 
71200 6.3102051933e+00 2.8445036675e-04 1.6910686582e+00 -2.9290168350e+00 1.6910686582e+00 2.9290168350e+00 
71300 6.3102050468e+00 2.8281892867e-04 1.6910602478e+00 -2.9290022678e+00 1.6910602478e+00 2.9290022678e+00 
71400 6.3102049021e+00 2.8118716437e-04 1.6910518856e+00 -2.9289877841e+00 1.6910518856e+00 2.9289877841e+00 
71500 6.3102047593e+00 2.7955505766e-04 1.6910435717e+00 -2.9289733839e+00 1.6910435717e+00 2.9289733839e+00 
71600 6.3102046182e+00 2.7792261493e-04 1.6910353059e+00 -2.9289590672e+00 1.6910353059e+00 2.9289590672e+00 
71700 6.3102044789e+00 2.7628986424e-04 1.6910270884e+00 -2.9289448341e+00 1.6910270884e+00 2.9289448341e+00 
71800 6.3102043414e+00 2.7465685445e-04 1.6910189191e+00 -2.9289306844e+00 1.6910189191e+00 2.9289306844e+00 
71900 6.3102042056e+00 2.7302365428e-04 1.6910107981e+00 -2.9289166184e+00 1.6910107981e+00 2.9289166184e+00 
72000 6.3102040716e+00 2.7139035144e-04 1.6910027253e+00 -2.9289026359e+00 1.6910027253e+00 2.9289026359e+00 
72100 6.3102039392e+00 2.6975705165e-04 1.6909947007e+00 -2.9288887370e+00 1.6909947007e+00 2.9288887370e+00 
72200 6.3102038085e+00 2.6812387778e-04 1.6909867245e+00 -2.9288749217e+00 1.6909867245e+00 2.9288749217e+00 
72300 6.3102036795e+00 2.6649096887e-04 1.6909787964e+00 -2.9288611899e+00 1.6909787964e+00 2.9288611899e+00 
72400 6.3102035520e+00 2.6485847921e-04 1.6909709167e+00 -2.9288475418e+00 1.6909709167e+00 2.9288475418e+00 
72500 6.3102034262e+00 2.6322657741e-04 1.6909630851e+00 -2.9288339771e+00 1.6909630851e+00 2.9288339771e+00 
72600 6.3102033020e+00 2.6159544550e-04 1.6909553018e+00 -2.9288204960e+00 1.6909553018e+00 2.9288204960e+00 
72700 6.3102031794e+00 2.5996527796e-04 1.6909475667e+00 -2.9288070984e+00 1.6909475667e+00 2.9288070984e+00 
72800 6.3102030583e+00 2.5833628082e-04 1.6909398797e+00 -2.9287937842e+00 1.6909398797e+00 2.9287937842e+00 
72900 6.3102029387e+00 2.5670867076e-04 1.6909322409e+00 -2.9287805533e+00 1.6909322409e+00 2.9287805533e+00 
73000 6.3102028206e+00 2.5508267422e-04 1.6909246501e+00 -2.9287674058e+00 1.6909246501e+00 2.9287674058e+00 
73100 6.3102027041e+00 2.5345852646e-04 1.6909171074e+00 -2.9287543415e+00 1.6909171074e+00 2.9287543415e+00 
73200 6.3102025890e+00 2.5183647075e-04 1.6909096127e+00 -2.9287413603e+00 1.6909096127e+00 2.9287413603e+00 
73300 6.3102024754e+00 2.5021675742e-04 1.6909021660e+00 -2.9287284621e+00 1.6909021660e+00 2.9287284621e+00 
73400 6.3102023632e+00 2.4859964310e-04 1.6908947671e+00 -2.9287156468e+00 1.6908947671e+00 2.9287156468e+00 
73500 6.3102022524e+00 2.4698538982e-04 1.6908874159e+00 -2.9287029143e+00 1.6908874159e+00 2.9287029143e+00 
73600 6.3102021430e+00 2.4537426423e-04 1.6908801125e+00 -2.9286902644e+00 1.6908801125e+00 2.9286902644e+00 
73700 6.3102020350e+00 2.4376653676e-04 1.6908728567e+00 -2.9286776969e+00 1.6908728567e+00 2.9286776969e+00 
73800 6.3102019284e+00 2.4216248088e-04 1.6908656484e+00 -2.9286652118e+00 1.6908656484e+00 2.9286652118e+00 
73900 6.3102018231e+00 2.4056237232e-04 1.6908584875e+00 -2.9286528088e+00 1.6908584875e+00 2.9286528088e+00 
74000 6.3102017191e+00 2.3896648832e-04 1.6908513739e+00 -2.9286404876e+00 1.6908513739e+00 2.9286404876e+00 
74100 6.3102016165e+00 2.3737510694e-04 1.6908443074e+00 -2.9286282482e+00 1.6908443074e+00 2.9286282482e+00 
74200 6.3102015152e+00 2.3578850632e-04 1.6908372880e+00 -2.9286160902e+00 1.6908372880e+00 2.9286160902e+00 
74300 6.3102014151e+00 2.3420696406e-04 1.6908303155e+00 -2.9286040134e+00 1.6908303155e+00 2.9286040134e+00 
74400 6.3102013163e+00 2.3263075653e-04 1.6908233897e+00 -2.9285920176e+00 1.6908233897e+00 2.9285920176e+00 
74500 6.3102012188e+00 2.3106015823e-04 1.6908165105e+00 -2.9285801024e+00 1.6908165105e+00 2.9285801024e+00 
74600 6.3102011225e+00 2.2949544126e-04 1.6908096777e+00 -2.9285682677e+00 1.6908096777e+00 2.9285682677e+00 
74700 6.3102010274e+00 2.2793687464e-04 1.6908028911e+00 -2.9285565130e+00 1.6908028911e+00 2.9285565130e+00 
74800 6.3102009335e+00 2.2638472387e-04 1.6907961507e+00 -2.9285448382e+00 1.6907961507e+00 2.9285448382e+00 
74900 6.3102008408e+00 2.2483925030e-04 1.6907894560e+00 -2.9285332428e+00 1.6907894560e+00 2.9285332428e+00 
75000 6.3102007493e+00 2.2330071071e-04 1.6907828071e+00 -2.9285217265e+00 1.6907828071e+00 2.9285217265e+00 
75100 6.3102006589e+00 2.2176935679e-04 1.6907762036e+00 -2.9285102889e+00 1.6907762036e+00 2.9285102889e+00 
75200 6.3102005697e+00 2.2024543470e-04 1.6907696454e+00 -2.9284989298e+00 1.6907696454e+00 2.9284989298e+00 
75300 6.3102004816e+00 2.1872918465e-04 1.6907631323e+00 -2.9284876486e+00 1.6907631323e+00 2.9284876486e+00 
75400 6.3102003947e+00 2.1722084051e-04 1.6907566639e+00 -2.9284764451e+00 1.6907566639e+00 2.9284764451e+00 
75500 6.3102003088e+00 2.1572062943e-04 1.6907502401e+00 -2.9284653188e+00 1.6907502401e+00 2.9284653188e+00 
75600 6.3102002240e+00 2.1422877150e-04 1.6907438607e+00 -2.9284542693e+00 1.6907438607e+00 2.9284542693e+00 
75700 6.3102001403e+00 2.1274547942e-04 1.6907375254e+00 -2.9284432962e+00 1.6907375254e+00 2.9284432962e+00 
75800 6.3102000576e+00 2.1127095823e-04 1.6907312339e+00 -2.9284323990e+00 1.6907312339e+00 2.9284323990e+00 
75900 6.3101999760e+00 2.0980540501e-04 1.6907249860e+00 -2.9284215773e+00 1.6907249860e+00 2.9284215773e+00 
76000 6.3101998954e+00 2.0834900866e-04 1.6907187814e+00 -2.9284108306e+00 1.6907187814e+00 2.9284108306e+00 
76100 6.3101998159e+00 2.0690194968e-04 1.6907126198e+00 -2.9284001585e+00 1.6907126198e+00 2.9284001585e+00 
76200 6.3101997373e+00 2.0546439997e-04 1.6907065010e+00 -2.9283895605e+00 1.6907065010e+00 2.9283895605e+00 
76300 6.3101996598e+00 2.0403652263e-04 1.6907004248e+00 -2.9283790361e+00 1.6907004248e+00 2.9283790361e+00 
76400 6.3101995832e+00 2.0261847188e-04 1.6906943907e+00 -2.9283685847e+00 1.6906943907e+00 2.9283685847e+00 
76500 6.3101995076e+00 2.0121039287e-04 1.6906883985e+00 -2.9283582060e+00 1.6906883985e+00 2.9283582060e+00 
76600 6.3101994330e+00 1.9981242163e-04 1.6906824480e+00 -2.9283478994e+00 1.6906824480e+00 2.9283478994e+00 
76700 6.3101993593e+00 1.9842468493e-04 1.6906765388e+00 -2.9283376643e+00 1.6906765388e+00 2.9283376643e+00 
76800 6.3101992865e+00 1.9704730029e-04 1.6906706706e+00 -2.9283275003e+00 1.6906706706e+00 2.9283275003e+00 
76900 6.3101992147e+00 1.9568037590e-04 1.6906648431e+00 -2.9283174068e+00 1.6906648431e+00 2.9283174068e+00 
77000 6.3101991437e+00 1.9432401060e-04 1.6906590560e+00 -2.9283073832e+00 1.6906590560e+00 2.9283073832e+00 
77100 6.3101990737e+00 1.9297829392e-04 1.6906533090e+00 -2.9282974292e+00 1.6906533090e+00 2.9282974292e+00 
77200 6.3101990046e+00 1.9164330605e-04 1.6906476018e+00 -2.9282875440e+00 1.6906476018e+00 2.9282875440e+00 
77300 6.3101989363e+00 1.9031911792e-04 1.6906419340e+00 -2.9282777272e+00 1.6906419340e+00 2.9282777272e+00 
77400 6.3101988689e+00 1.8900579125e-04 1.6906363054e+00 -2.9282679781e+00 1.6906363054e+00 2.9282679781e+00 
77500 6.3101988023e+00 1.8770337861e-04 1.6906307157e+00 -2.9282582964e+00 1.6906307157e+00 2.9282582964e+00 
77600 6.3101987366e+00 1.8641192352e-04 1.6906251644e+00 -2.9282486813e+00 1.6906251644e+00 2.9282486813e+00 
77700 6.3101986717e+00 1.8513146055e-04 1.6906196513e+00 -2.9282391323e+00 1.6906196513e+00 2.9282391323e+00 
77800 6.3101986077e+00 1.8386201547e-04 1.6906141760e+00 -2.9282296489e+00 1.6906141760e+00 2.9282296489e+00 
77900 6.3101985444e+00 1.8260360534e-04 1.6906087383e+00 -2.9282202305e+00 1.6906087383e+00 2.9282202305e+00 
78000 6.3101984820e+00 1.8135623870e-04 1.6906033378e+00 -2.9282108765e+00 1.6906033378e+00 2.9282108765e+00 
78100 6.3101984203e+00 1.8011991570e-04 1.6905979741e+00 -2.9282015864e+00 1.6905979741e+00 2.9282015864e+00 
78200 6.3101983595e+00 1.7889462830e-04 1.6905926470e+00 -2.9281923595e+00 1.6905926470e+00 2.9281923595e+00 
78300 6.3101982994e+00 1.7768036044e-04 1.6905873561e+00 -2.9281831955e+00 1.6905873561e+00 2.9281831955e+00 
78400 6.3101982400e+00 1.7647708822e-04 1.6905821012e+00 -2.9281740936e+00 1.6905821012e+00 2.9281740936e+00 
78500 6.3101981814e+00 1.7528478017e-04 1.6905768817e+00 -2.9281650533e+00 1.6905768817e+00 2.9281650533e+00 
78600 6.3101981236e+00 1.7410339738e-04 1.6905716976e+00 -2.9281560740e+00 1.6905716976e+00 2.9281560740e+00 
78700 6.3101980665e+00 1.7293289377e-04 1.6905665483e+00 -2.9281471553e+00 1.6905665483e+00 2.9281471553e+00 
78800 6.3101980101e+00 1.7177321633e-04 1.6905614337e+00 -2.9281382965e+00 1.6905614337e+00 2.9281382965e+00 
78900 6.3101979544e+00 1.7062430532e-04 1.6905563533e+00 -2.9281294970e+00 1.6905563533e+00 2.9281294970e+00 
79000 6.3101978994e+00 1.6948609456e-04 1.6905513069e+00 -2.9281207564e+00 1.6905513069e+00 2.9281207564e+00 
79100 6.3101978452e+00 1.6835851163e-04 1.6905462942e+00 -2.9281120741e+00 1.6905462942e+00 2.9281120741e+00 
79200 6.3101977916e+00 1.6724147817e-04 1.6905413148e+00 -2.9281034495e+00 1.6905413148e+00 2.9281034495e+00 
79300 6.3101977387e+00 1.6613491010e-04 1.6905363684e+00 -2.9280948821e+00 1.6905363684e+00 2.9280948821e+00 
79400 6.3101976865e+00 1.6503871791e-04 1.6905314547e+00 -2.9280863714e+00 1.6905314547e+00 2.9280863714e+00 
79500 6.3101976349e+00 1.6395280693e-04 1.6905265735e+00 -2.9280779168e+00 1.6905265735e+00 2.9280779168e+00 
79600 6.3101975840e+00 1.6287707756e-04 1.6905217243e+00 -2.9280695178e+00 1.6905217243e+00 2.9280695178e+00 
79700 6.3101975337e+00 1.6181142557e-04 1.6905169069e+00 -2.9280611739e+00 1.6905169069e+00 2.9280611739e+00 
79800 6.3101974841e+00 1.6075574238e-04 1.6905121211e+00 -2.9280528845e+00 1.6905121211e+00 2.9280528845e+00 
79900 6.3101974351e+00 1.5970991531e-04 1.6905073664e+00 -2.9280446492e+00 1.6905073664e+00 2.9280446492e+00 
80000 6.3101973867e+00 1.5867382784e-04 1.6905026427e+00 -2.9280364675e+00 1.6905026427e+00 2.9280364675e+00 
80100 6.3101973389e+00 1.5764735991e-04 1.6904979496e+00 -2.9280283388e+00 1.6904979496e+00 2.9280283388e+00 
80200 6.3101972917e+00 1.5663038820e-04 1.6904932869e+00 -2.9280202627e+00 1.6904932869e+00 2.9280202627e+00 
80300 6.3101972452e+00 1.5562278634e-04 1.6904886542e+00 -2.9280122387e+00 1.6904886542e+00 2.9280122387e+00 
80400 6.3101971992e+00 1.5462442522e-04 1.6904840513e+00 -2.9280042662e+00 1.6904840513e+00 2.9280042662e+00 
80500 6.3101971538e+00 1.5363517328e-04 1.6904794779e+00 -2.9279963449e+00 1.6904794779e+00 2.9279963449e+00 
80600 6.3101971090e+00 1.5265489669e-04 1.6904749338e+00 -2.9279884743e+00 1.6904749338e+00 2.9279884743e+00 
80700 6.3101970647e+00 1.5168345969e-04 1.6904704187e+00 -2.9279806538e+00 1.6904704187e+00 2.9279806538e+00 
80800 6.3101970211e+00 1.5072072479e-04 1.6904659322e+00 -2.9279728831e+00 1.6904659322e+00 2.9279728831e+00 
80900 6.3101969779e+00 1.4976655305e-04 1.6904614743e+00 -2.9279651617e+00 1.6904614743e+00 2.9279651617e+00 
81000 6.3101969353e+00 1.4882080431e-04 1.6904570445e+00 -2.9279574891e+00 1.6904570445e+00 2.9279574891e+00 
81100 6.3101968933e+00 1.4788333743e-04 1.6904526427e+00 -2.9279498650e+00 1.6904526427e+00 2.9279498650e+00 
81200 6.3101968518e+00 1.4695401054e-04 1.6904482687e+00 -2.9279422889e+00 1.6904482687e+00 2.9279422889e+00 
81300 6.3101968108e+00 1.4603268124e-04 1.6904439221e+00 -2.9279347603e+00 1.6904439221e+00 2.9279347603e+00 
81400 6.3101967703e+00 1.4511920685e-04 1.6904396027e+00 -2.9279272790e+00 1.6904396027e+00 2.9279272790e+00 
81500 6.3101967304e+00 1.4421344465e-04 1.6904353103e+00 -2.9279198444e+00 1.6904353103e+00 2.9279198444e+00 
81600 6.3101966909e+00 1.4331525202e-04 1.6904310448e+00 -2.9279124562e+00 1.6904310448e+00 2.9279124562e+00 
81700 6.3101966520e+00 1.4242448670e-04 1.6904268058e+00 -2.9279051141e+00 1.6904268058e+00 2.9279051141e+00 
81800 6.3101966135e+00 1.4154100701e-04 1.6904225931e+00 -2.9278978175e+00 1.6904225931e+00 2.9278978175e+00 
81900 6.3101965756e+00 1.4066467195e-04 1.6904184065e+00 -2.9278905662e+00 1.6904184065e+00 2.9278905662e+00 
82000 6.3101965381e+00 1.3979534150e-04 1.6904142459e+00 -2.9278833597e+00 1.6904142459e+00 2.9278833597e+00 
82100 6.3101965011e+00 1.3893287670e-04 1.6904101109e+00 -2.9278761978e+00 1.6904101109e+00 2.9278761978e+00 
82200 6.3101964646e+00 1.3807713988e-04 1.6904060015e+00 -2.9278690800e+00 1.6904060015e+00 2.9278690800e+00 
82300 6.3101964285e+00 1.3722799479e-04 1.6904019174e+00 -2.9278620061e+00 1.6904019174e+00 2.9278620061e+00 
82400 6.3101963929e+00 1.3638530679e-04 1.6903978583e+00 -2.9278549756e+00 1.6903978583e+00 2.9278549756e+00 
82500 6.3101963577e+00 1.3554894296e-04 1.6903938242e+00 -2.9278479883e+00 1.6903938242e+00 2.9278479883e+00 
82600 6.3101963230e+00 1.3471877225e-04 1.6903898148e+00 -2.9278410439e+00 1.6903898148e+00 2.9278410439e+00 
82700 6.3101962887e+00 1.3389466565e-04 1.6903858300e+00 -2.9278341419e+00 1.6903858300e+00 2.9278341419e+00 
82800 6.3101962549e+00 1.3307649624e-04 1.6903818695e+00 -2.9278272822e+00 1.6903818695e+00 2.9278272822e+00 
82900 6.3101962215e+00 1.3226413940e-04 1.6903779332e+00 -2.9278204643e+00 1.6903779332e+00 2.9278204643e+00 
83000 6.3101961885e+00 1.3145747282e-04 1.6903740210e+00 -2.9278136881e+00 1.6903740210e+00 2.9278136881e+00 
83100 6.3101961559e+00 1.3065637670e-04 1.6903701326e+00 -2.9278069532e+00 1.6903701326e+00 2.9278069532e+00 
83200 6.3101961238e+00 1.2986073376e-04 1.6903662678e+00 -2.9278002593e+00 1.6903662678e+00 2.9278002593e+00 
83300 6.3101960920e+00 1.2907042938e-04 1.6903624266e+00 -2.9277936061e+00 1.6903624266e+00 2.9277936061e+00 
83400 6.3101960607e+00 1.2828535166e-04 1.6903586088e+00 -2.9277869934e+00 1.6903586088e+00 2.9277869934e+00 
83500 6.3101960298e+00 1.2750539150e-04 1.6903548142e+00 -2.9277804210e+00 1.6903548142e+00 2.9277804210e+00 
83600 6.3101959992e+00 1.2673044265e-04 1.6903510426e+00 -2.9277738884e+00 1.6903510426e+00 2.9277738884e+00 
83700 6.3101959691e+00 1.2596040177e-04 1.6903472940e+00 -2.9277673956e+00 1.6903472940e+00 2.9277673956e+00 
83800 6.3101959393e+00 1.2519516851e-04 1.6903435681e+00 -2.9277609422e+00 1.6903435681e+00 2.9277609422e+00 
83900 6.3101959099e+00 1.2443464550e-04 1.6903398649e+00 -2.9277545280e+00 1.6903398649e+00 2.9277545280e+00 
84000 6.3101958808e+00 1.2367873843e-04 1.6903361841e+00 -2.9277481527e+00 1.6903361841e+00 2.9277481527e+00 
84100 6.3101958522e+00 1.2292735606e-04 1.6903325257e+00 -2.9277418162e+00 1.6903325257e+00 2.9277418162e+00 
84200 6.3101958239e+00 1.2218041025e-04 1.6903288895e+00 -2.9277355181e+00 1.6903288895e+00 2.9277355181e+00 
84300 6.3101957960e+00 1.2143781599e-04 1.6903252754e+00 -2.9277292583e+00 1.6903252754e+00 2.9277292583e+00 
84400 6.3101957684e+00 1.2069949135e-04 1.6903216833e+00 -2.9277230366e+00 1.6903216833e+00 2.9277230366e+00 
84500 6.3101957411e+00 1.1996535759e-04 1.6903181130e+00 -2.9277168526e+00 1.6903181130e+00 2.9277168526e+00 
84600 6.3101957143e+00 1.1923533904e-04 1.6903145644e+00 -2.9277107062e+00 1.6903145644e+00 2.9277107062e+00 
84700 6.3101956877e+00 1.1850936319e-04 1.6903110373e+00 -2.9277045973e+00 1.6903110373e+00 2.9277045973e+00 
84800 6.3101956615e+00 1.1778736060e-04 1.6903075318e+00 -2.9276985255e+00 1.6903075318e+00 2.9276985255e+00 
84900 6.3101956356e+00 1.1706926497e-04 1.6903040476e+00 -2.9276924907e+00 1.6903040476e+00 2.9276924907e+00 
85000 6.3101956101e+00 1.1635501302e-04 1.6903005846e+00 -2.9276864927e+00 1.6903005846e+00 2.9276864927e+00 
85100 6.3101955849e+00 1.1564454452e-04 1.6902971428e+00 -2.9276805312e+00 1.6902971428e+00 2.9276805312e+00 
85200 6.3101955600e+00 1.1493780226e-04 1.6902937220e+00 -2.9276746061e+00 1.6902937220e+00 2.9276746061e+00 
85300 6.3101955354e+00 1.1423473197e-04 1.6902903220e+00 -2.9276687173e+00 1.6902903220e+00 2.9276687173e+00 
85400 6.3101955111e+00 1.1353528234e-04 1.6902869429e+00 -2.9276628644e+00 1.6902869429e+00 2.9276628644e+00 
85500 6.3101954872e+00 1.1283940492e-04 1.6902835844e+00 -2.9276570474e+00 1.6902835844e+00 2.9276570474e+00 
85600 6.3101954635e+00 1.1214705408e-04 1.6902802465e+00 -2.9276512660e+00 1.6902802465e+00 2.9276512660e+00 
85700 6.3101954402e+00 1.1145818699e-04 1.6902769291e+00 -2.9276455201e+00 1.6902769291e+00 2.9276455201e+00 
85800 6.3101954171e+00 1.1077276353e-04 1.6902736321e+00 -2.9276398095e+00 1.6902736321e+00 2.9276398095e+00 
85900 6.3101953943e+00 1.1009074625e-04 1.6902703553e+00 -2.9276341339e+00 1.6902703553e+00 2.9276341339e+00 
86000 6.3101953718e+00 1.0941210028e-04 1.6902670987e+00 -2.9276284933e+00 1.6902670987e+00 2.9276284933e+00 
86100 6.3101953497e+00 1.0873679330e-04 1.6902638622e+00 -2.9276228875e+00 1.6902638622e+00 2.9276228875e+00 
86200 6.3101953277e+00 1.0806479546e-04 1.6902606456e+00 -2.9276173163e+00 1.6902606456e+00 2.9276173163e+00 
86300 6.3101953061e+00 1.0739607928e-04 1.6902574489e+00 -2.9276117794e+00 1.6902574489e+00 2.9276117794e+00 
86400 6.3101952848e+00 1.0673061962e-04 1.6902542720e+00 -2.9276062769e+00 1.6902542720e+00 2.9276062769e+00 
86500 6.3101952637e+00 1.0606839360e-04 1.6902511148e+00 -2.9276008084e+00 1.6902511148e+00 2.9276008084e+00 
86600 6.3101952429e+00 1.0540938049e-04 1.6902479771e+00 -2.9275953738e+00 1.6902479771e+00 2.9275953738e+00 
86700 6.3101952223e+00 1.0475356166e-04 1.6902448590e+00 -2.9275899730e+00 1.6902448590e+00 2.9275899730e+00 
86800 6.3101952020e+00 1.0410092049e-04 1.6902417602e+00 -2.9275846058e+00 1.6902417602e+00 2.9275846058e+00 
86900 6.3101951820e+00 1.0345144231e-04 1.6902386807e+00 -2.9275792720e+00 1.6902386807e+00 2.9275792720e+00 
87000 6.3101951622e+00 1.0280511430e-04 1.6902356205e+00 -2.9275739714e+00 1.6902356205e+00 2.9275739714e+00 
87100 6.3101951427e+00 1.0216192541e-04 1.6902325793e+00 -2.9275687040e+00 1.6902325793e+00 2.9275687040e+00 
87200 6.3101951234e+00 1.0152186626e-04 1.6902295572e+00 -2.9275634695e+00 1.6902295572e+00 2.9275634695e+00 
87300 6.3101951044e+00 1.0088492910e-04 1.6902265540e+00 -2.9275582678e+00 1.6902265540e+00 2.9275582678e+00 
87400 6.3101950856e+00 1.0025110772e-04 1.6902235697e+00 -2.9275530988e+00 1.6902235697e+00 2.9275530988e+00 
87500 6.3101950670e+00 9.9620397304e-05 1.6902206040e+00 -2.9275479622e+00 1.6902206040e+00 2.9275479622e+00 
87600 6.3101950487e+00 9.8992794432e-05 1.6902176571e+00 -2.9275428579e+00 1.6902176571e+00 2.9275428579e+00 
87700 6.3101950306e+00 9.8368296943e-05 1.6902147287e+00 -2.9275377858e+00 1.6902147287e+00 2.9275377858e+00 
87800 6.3101950128e+00 9.7746903878e-05 1.6902118187e+00 -2.9275327456e+00 1.6902118187e+00 2.9275327456e+00 
87900 6.3101949951e+00 9.7128615379e-05 1.6902089272e+00 -2.9275277373e+00 1.6902089272e+00 2.9275277373e+00 
88000 6.3101949777e+00 9.6513432625e-05 1.6902060539e+00 -2.9275227606e+00 1.6902060539e+00 2.9275227606e+00 
88100 6.3101949606e+00 9.5901357747e-05 1.6902031988e+00 -2.9275178155e+00 1.6902031988e+00 2.9275178155e+00 
88200 6.3101949436e+00 9.5292393740e-05 1.6902003619e+00 -2.9275129017e+00 1.6902003619e+00 2.9275129017e+00 
88300 6.3101949268e+00 9.4686544398e-05 1.6901975429e+00 -2.9275080191e+00 1.6901975429e+00 2.9275080191e+00 
88400 6.3101949103e+00 9.4083814229e-05 1.6901947418e+00 -2.9275031675e+00 1.6901947418e+00 2.9275031675e+00 
88500 6.3101948940e+00 9.3484208379e-05 1.6901919586e+00 -2.9274983469e+00 1.6901919586e+00 2.9274983469e+00 
88600 6.3101948779e+00 9.2887732566e-05 1.6901891931e+00 -2.9274935569e+00 1.6901891931e+00 2.9274935569e+00 
88700 6.3101948620e+00 9.2294392996e-05 1.6901864453e+00 -2.9274887975e+00 1.6901864453e+00 2.9274887975e+00 
88800 6.3101948462e+00 9.1704196297e-05 1.6901837150e+00 -2.9274840685e+00 1.6901837150e+00 2.9274840685e+00 
88900 6.3101948307e+00 9.1117149458e-05 1.6901810021e+00 -2.9274793697e+00 1.6901810021e+00 2.9274793697e+00 
89000 6.3101948154e+00 9.0533259746e-05 1.6901783066e+00 -2.9274747010e+00 1.6901783066e+00 2.9274747010e+00 
89100 6.3101948003e+00 8.9952534647e-05 1.6901756284e+00 -2.9274700621e+00 1.6901756284e+00 2.9274700621e+00 
89200 6.3101947854e+00 8.9374981812e-05 1.6901729674e+00 -2.9274654531e+00 1.6901729674e+00 2.9274654531e+00 
89300 6.3101947707e+00 8.8800608976e-05 1.6901703234e+00 -2.9274608736e+00 1.6901703234e+00 2.9274608736e+00 
89400 6.3101947561e+00 8.8229423914e-05 1.6901676965e+00 -2.9274563236e+00 1.6901676965e+00 2.9274563236e+00 
89500 6.3101947417e+00 8.7661434377e-05 1.6901650864e+00 -2.9274518028e+00 1.6901650864e+00 2.9274518028e+00 
89600 6.3101947276e+00 8.7096648039e-05 1.6901624931e+00 -2.9274473111e+00 1.6901624931e+00 2.9274473111e+00 
89700 6.3101947136e+00 8.6535072436e-05 1.6901599165e+00 -2.9274428483e+00 1.6901599165e+00 2.9274428483e+00 
89800 6.3101946997e+00 8.5976714927e-05 1.6901573566e+00 -2.9274384143e+00 1.6901573566e+00 2.9274384143e+00 
89900 6.3101946861e+00 8.5421582634e-05 1.6901548131e+00 -2.9274340090e+00 1.6901548131e+00 2.9274340090e+00 
90000 6.3101946726e+00 8.4869682403e-05 1.6901522861e+00 -2.9274296320e+00 1.6901522861e+00 2.9274296320e+00 
90100 6.3101946593e+00 8.4321020757e-05 1.6901497754e+00 -2.9274252833e+00 1.6901497754e+00 2.9274252833e+00 
90200 6.3101946462e+00 8.3775603851e-05 1.6901472809e+00 -2.9274209628e+00 1.6901472809e+00 2.9274209628e+00 
90300 6.3101946332e+00 8.3233437432e-05 1.6901448025e+00 -2.9274166701e+00 1.6901448025e+00 2.9274166701e+00 
90400 6.3101946204e+00 8.2694526813e-05 1.6901423402e+00 -2.9274124053e+00 1.6901423402e+00 2.9274124053e+00 
90500 6.3101946078e+00 8.2158876824e-05 1.6901398938e+00 -2.9274081680e+00 1.6901398938e+00 2.9274081680e+00 
90600 6.3101945953e+00 8.1626491780e-05 1.6901374633e+00 -2.9274039582e+00 1.6901374633e+00 2.9274039582e+00 
90700 6.3101945830e+00 8.1097375461e-05 1.6901350485e+00 -2.9273997757e+00 1.6901350485e+00 2.9273997757e+00 
90800 6.3101945708e+00 8.0571531072e-05 1.6901326494e+00 -2.9273956202e+00 1.6901326494e+00 2.9273956202e+00 
90900 6.3101945588e+00 8.0048961226e-05 1.6901302658e+00 -2.9273914917e+00 1.6901302658e+00 2.9273914917e+00 
91000 6.3101945470e+00 7.9529667910e-05 1.6901278977e+00 -2.9273873900e+00 1.6901278977e+00 2.9273873900e+00 
91100 6.3101945353e+00 7.9013652481e-05 1.6901255449e+00 -2.9273833149e+00 1.6901255449e+00 2.9273833149e+00 
91200 6.3101945237e+00 7.8500915619e-05 1.6901232074e+00 -2.9273792662e+00 1.6901232074e+00 2.9273792662e+00 
91300 6.3101945123e+00 7.7991457337e-05 1.6901208850e+00 -2.9273752438e+00 1.6901208850e+00 2.9273752438e+00 
91400 6.3101945011e+00 7.7485276953e-05 1.6901185778e+00 -2.9273712475e+00 1.6901185778e+00 2.9273712475e+00 
91500 6.3101944900e+00 7.6982373072e-05 1.6901162855e+00 -2.9273672771e+00 1.6901162855e+00 2.9273672771e+00 
91600 6.3101944790e+00 7.6482743588e-05 1.6901140080e+00 -2.9273633325e+00 1.6901140080e+00 2.9273633325e+00 
91700 6.3101944681e+00 7.5986385666e-05 1.6901117454e+00 -2.9273594135e+00 1.6901117454e+00 2.9273594135e+00 
91800 6.3101944575e+00 7.5493295732e-05 1.6901094974e+00 -2.9273555199e+00 1.6901094974e+00 2.9273555199e+00 
91900 6.3101944469e+00 7.5003469478e-05 1.6901072640e+00 -2.9273516515e+00 1.6901072640e+00 2.9273516515e+00 
92000 6.3101944365e+00 7.4516901850e-05 1.6901050451e+00 -2.9273478083e+00 1.6901050451e+00 2.9273478083e+00 
92100 6.3101944262e+00 7.4033587052e-05 1.6901028406e+00 -2.9273439900e+00 1.6901028406e+00 2.9273439900e+00 
92200 6.3101944160e+00 7.3553518538e-05 1.6901006504e+00 -2.9273401964e+00 1.6901006504e+00 2.9273401964e+00 
92300 6.3101944060e+00 7.3076689025e-05 1.6900984744e+00 -2.9273364275e+00 1.6900984744e+00 2.9273364275e+00 
92400 6.3101943961e+00 7.2603090487e-05 1.6900963125e+00 -2.9273326829e+00 1.6900963125e+00 2.9273326829e+00 
92500 6.3101943863e+00 7.2132714159e-05 1.6900941646e+00 -2.9273289627e+00 1.6900941646e+00 2.9273289627e+00 
92600 6.3101943766e+00 7.1665550560e-05 1.6900920306e+00 -2.9273252665e+00 1.6900920306e+00 2.9273252665e+00 
92700 6.3101943671e+00 7.1201589475e-05 1.6900899105e+00 -2.9273215943e+00 1.6900899105e+00 2.9273215943e+00 
92800 6.3101943577e+00 7.0740819985e-05 1.6900878040e+00 -2.9273179458e+00 1.6900878040e+00 2.9273179458e+00 
92900 6.3101943484e+00 7.0283230469e-05 1.6900857112e+00 -2.9273143209e+00 1.6900857112e+00 2.9273143209e+00 
93000 6.3101943394e+00 7.1679354664e-05 1.6900857112e+00 -2.9273143209e+00 1.6900857112e+00 2.9273143209e+00 
93100 6.3101943303e+00 7.1188829357e-05 1.6900835906e+00 -2.9273106480e+00 1.6900835906e+00 2.9273106480e+00 
93200 6.3101943214e+00 7.0702407852e-05 1.6900814845e+00 -2.9273070002e+00 1.6900814845e+00 2.9273070002e+00 
93300 6.3101943128e+00 7.2081644387e-05 1.6900814845e+00 -2.9273070002e+00 1.6900814845e+00 2.9273070002e+00 
93400 6.3101943040e+00 7.1563773902e-05 1.6900793520e+00 -2.9273033066e+00 1.6900793520e+00 2.9273033066e+00 
93500 6.3101942954e+00 7.1050813591e-05 1.6900772349e+00 -2.9272996395e+00 1.6900772349e+00 2.9272996395e+00 
93600 6.3101942869e+00 7.0542670144e-05 1.6900751329e+00 -2.9272959988e+00 1.6900751329e+00 2.9272959988e+00 
93700 6.3101942787e+00 7.1896691986e-05 1.6900751329e+00 -2.9272959988e+00 1.6900751329e+00 2.9272959988e+00 
93800 6.3101942704e+00 7.1358505237e-05 1.6900730059e+00 -2.9272923146e+00 1.6900730059e+00 2.9272923146e+00 
93900 6.3101942623e+00 7.0825834083e-05 1.6900708947e+00 -2.9272886581e+00 1.6900708947e+00 2.9272886581e+00 
94000 6.3101942542e+00 7.0298553025e-05 1.6900687994e+00 -2.9272850288e+00 1.6900687994e+00 2.9272850288e+00 
94100 6.3101942464e+00 7.1627588169e-05 1.6900687994e+00 -2.9272850288e+00 1.6900687994e+00 2.9272850288e+00 
94200 6.3101942385e+00 7.1071454351e-05 1.6900666803e+00 -2.9272813585e+00 1.6900666803e+00 2.9272813585e+00 
94300 6.3101942307e+00 7.0521317928e-05 1.6900645777e+00 -2.9272777167e+00 1.6900645777e+00 2.9272777167e+00 
94400 6.3101942232e+00 7.1833966225e-05 1.6900645777e+00 -2.9272777167e+00 1.6900645777e+00 2.9272777167e+00 
94500 6.3101942157e+00 7.1255978022e-05 1.6900624525e+00 -2.9272740357e+00 1.6900624525e+00 2.9272740357e+00 
94600 6.3101942082e+00 7.0684511907e-05 1.6900603444e+00 -2.9272703844e+00 1.6900603444e+00 2.9272703844e+00 
94700 6.3101942010e+00 7.1980651696e-05 1.6900603444e+00 -2.9272703844e+00 1.6900603444e+00 2.9272703844e+00 
94800 6.3101941937e+00 7.1382214267e-05 1.6900582149e+00 -2.9272666960e+00 1.6900582149e+00 2.9272666960e+00 
94900 6.3101941865e+00 7.0790751581e-05 1.6900561031e+00 -2.9272630382e+00 1.6900561031e+00 2.9272630382e+00 
95000 6.3101941794e+00 7.0206063353e-05 1.6900540087e+00 -2.9272594107e+00 1.6900540087e+00 2.9272594107e+00 
95100 6.3101941725e+00 7.1476655537e-05 1.6900540087e+00 -2.9272594107e+00 1.6900540087e+00 2.9272594107e+00 
95200 6.3101941656e+00 7.0865722962e-05 1.6900518941e+00 -2.9272557480e+00 1.6900518941e+00 2.9272557480e+00 
95300 6.3101941587e+00 7.0261969726e-05 1.6900497976e+00 -2.9272521167e+00 1.6900497976e+00 2.9272521167e+00 
95400 6.3101941522e+00 7.1515380268e-05 1.6900497976e+00 -2.9272521167e+00 1.6900497976e+00 2.9272521167e+00 
95500 6.3101941455e+00 7.0886105976e-05 1.6900476818e+00 -2.9272484521e+00 1.6900476818e+00 2.9272484521e+00 
95600 6.3101941389e+00 7.0264364535e-05 1.6900455846e+00 -2.9272448197e+00 1.6900455846e+00 2.9272448197e+00 
95700 6.3101941326e+00 7.1500212869e-05 1.6900455846e+00 -2.9272448197e+00 1.6900455846e+00 2.9272448197e+00 
95800 6.3101941261e+00 7.0853610401e-05 1.6900434693e+00 -2.9272411558e+00 1.6900434693e+00 2.9272411558e+00 
95900 6.3101941198e+00 7.0214851642e-05 1.6900413731e+00 -2.9272375251e+00 1.6900413731e+00 2.9272375251e+00 
96000 6.3101941137e+00 7.1432701937e-05 1.6900413731e+00 -2.9272375251e+00 1.6900413731e+00 2.9272375251e+00 
96100 6.3101941075e+00 7.0769694796e-05 1.6900392597e+00 -2.9272338647e+00 1.6900392597e+00 2.9272338647e+00 
96200 6.3101941014e+00 7.0114807608e-05 1.6900371660e+00 -2.9272302382e+00 1.6900371660e+00 2.9272302382e+00 
96300 6.3101940956e+00 7.1314186040e-05 1.6900371660e+00 -2.9272302382e+00 1.6900371660e+00 2.9272302382e+00 
96400 6.3101940896e+00 7.0635630329e-05 1.6900350562e+00 -2.9272265839e+00 1.6900350562e+00 2.9272265839e+00 
96500 6.3101940839e+00 7.1825566884e-05 1.6900350562e+00 -2.9272265839e+00 1.6900350562e+00 2.9272265839e+00 
96600 6.3101940781e+00 7.1124027674e-05 1.6900329312e+00 -2.9272229033e+00 1.6900329312e+00 2.9272229033e+00 
96700 6.3101940724e+00 7.0431326242e-05 1.6900308270e+00 -2.9272192587e+00 1.6900308270e+00 2.9272192587e+00 
96800 6.3101940669e+00 7.1601957922e-05 1.6900308270e+00 -2.9272192587e+00 1.6900308270e+00 2.9272192587e+00 
96900 6.3101940613e+00 7.0886775781e-05 1.6900287086e+00 -2.9272155896e+00 1.6900287086e+00 2.9272155896e+00 
97000 6.3101940558e+00 7.0180618303e-05 1.6900266114e+00 -2.9272119571e+00 1.6900266114e+00 2.9272119571e+00 
97100 6.3101940505e+00 7.1331400088e-05 1.6900266114e+00 -2.9272119571e+00 1.6900266114e+00 2.9272119571e+00 
97200 6.3101940451e+00 7.0603268024e-05 1.6900245011e+00 -2.9272083019e+00 1.6900245011e+00 2.9272083019e+00 
97300 6.3101940400e+00 7.1743671779e-05 1.6900245011e+00 -2.9272083019e+00 1.6900245011e+00 2.9272083019e+00 
97400 6.3101940347e+00 7.0994219271e-05 1.6900223785e+00 -2.9272046255e+00 1.6900223785e+00 2.9272046255e+00 
97500 6.3101940295e+00 7.0254399964e-05 1.6900202781e+00 -2.9272009875e+00 1.6900202781e+00 2.9272009875e+00 
97600 6.3101940246e+00 7.1374095347e-05 1.6900202781e+00 -2.9272009875e+00 1.6900202781e+00 2.9272009875e+00 
97700 6.3101940195e+00 7.0613436320e-05 1.6900181665e+00 -2.9271973300e+00 1.6900181665e+00 2.9271973300e+00 
97800 6.3101940147e+00 7.1722190637e-05 1.6900181665e+00 -2.9271973300e+00 1.6900181665e+00 2.9271973300e+00 
97900 6.3101940098e+00 7.0941338334e-05 1.6900160445e+00 -2.9271936547e+00 1.6900160445e+00 2.9271936547e+00 
98000 6.3101940049e+00 7.0170672142e-05 1.6900139457e+00 -2.9271900194e+00 1.6900139457e+00 2.9271900194e+00 
98100 6.3101940003e+00 7.1257897205e-05 1.6900139457e+00 -2.9271900194e+00 1.6900139457e+00 2.9271900194e+00 
98200 6.3101939956e+00 7.0467518451e-05 1.6900118375e+00 -2.9271863679e+00 1.6900118375e+00 2.9271863679e+00 
98300 6.3101939910e+00 7.1543276676e-05 1.6900118375e+00 -2.9271863679e+00 1.6900118375e+00 2.9271863679e+00 
98400 6.3101939864e+00 7.0733838106e-05 1.6900097208e+00 -2.9271827018e+00 1.6900097208e+00 2.9271827018e+00 
98500 6.3101939818e+00 6.9935102553e-05 1.6900076281e+00 -2.9271790771e+00 1.6900076281e+00 2.9271790771e+00 
98600 6.3101939775e+00 7.0988603403e-05 1.6900076281e+00 -2.9271790771e+00 1.6900076281e+00 2.9271790771e+00 
98700 6.3101939730e+00 7.0171307431e-05 1.6900055279e+00 -2.9271754394e+00 1.6900055279e+00 2.9271754394e+00 
98800 6.3101939688e+00 7.1212886719e-05 1.6900055279e+00 -2.9271754394e+00 1.6900055279e+00 2.9271754394e+00 
98900 6.3101939645e+00 7.0377698880e-05 1.6900034210e+00 -2.9271717901e+00 1.6900034210e+00 2.9271717901e+00 
99000 6.3101939604e+00 7.1407225637e-05 1.6900034210e+00 -2.9271717901e+00 1.6900034210e+00 2.9271717901e+00 
99100 6.3101939561e+00 7.0554803046e-05 1.6900013084e+00 -2.9271681310e+00 1.6900013084e+00 2.9271681310e+00 
99200 6.3101939521e+00 7.1572149619e-05 1.6900013084e+00 -2.9271681310e+00 1.6900013084e+00 2.9271681310e+00 
99300 6.3101939480e+00 7.0703139463e-05 1.6899991909e+00 -2.9271644633e+00 1.6899991909e+00 2.9271644633e+00 
99400 6.3101939441e+00 7.1708182790e-05 1.6899991909e+00 -2.9271644633e+00 1.6899991909e+00 2.9271644633e+00 
99500 6.3101939400e+00 7.0823223727e-05 1.6899970693e+00 -2.9271607887e+00 1.6899970693e+00 2.9271607887e+00 
99600 6.3101939360e+00 6.9950557189e-05 1.6899949739e+00 -2.9271571594e+00 1.6899949739e+00 2.9271571594e+00 
99700 6.3101939323e+00 7.0932175521e-05 1.6899949739e+00 -2.9271571594e+00 1.6899949739e+00 2.9271571594e+00 
99800 6.3101939284e+00 7.0044050151e-05 1.6899928754e+00 -2.9271535245e+00 1.6899928754e+00 2.9271535245e+00 
99900 6.3101939247e+00 7.1013049182e-05 1.6899928754e+00 -2.9271535245e+00 1.6899928754e+00 2.9271535245e+00 
100000 6.3101939209e+00 7.0110134856e-05 1.6899907744e+00 -2.9271498855e+00 1.6899907744e+00 2.9271498855e+00 
100100 6.3101939174e+00 7.1066451186e-05 1.6899907744e+00 -2.9271498855e+00 1.6899907744e+00 2.9271498855e+00 
100200 6.3101939137e+00 7.0149410755e-05 1.6899886718e+00 -2.9271462438e+00 1.6899886718e+00 2.9271462438e+00 
100300 6.3101939102e+00 7.1092990162e-05 1.6899886718e+00 -2.9271462438e+00 1.6899886718e+00 2.9271462438e+00 
100400 6.3101939066e+00 7.0162479962e-05 1.6899865684e+00 -2.9271426007e+00 1.6899865684e+00 2.9271426007e+00 
100500 6.3101939032e+00 7.1093277948e-05 1.6899865684e+00 -2.9271426007e+00 1.6899865684e+00 2.9271426007e+00 
100600 6.3101938997e+00 7.0149948245e-05 1.6899844651e+00 -2.9271389575e+00 1.6899844651e+00 2.9271389575e+00 
100700 6.3101938964e+00 7.1067930536e-05 1.6899844651e+00 -2.9271389575e+00 1.6899844651e+00 2.9271389575e+00 
100800 6.3101938930e+00 7.0112425879e-05 1.6899823625e+00 -2.9271353157e+00 1.6899823625e+00 2.9271353157e+00 
100900 6.3101938898e+00 7.1017568875e-05 1.6899823625e+00 -2.9271353157e+00 1.6899823625e+00 2.9271353157e+00 
101000 6.3101938864e+00 7.0050528384e-05 1.6899802613e+00 -2.9271316764e+00 1.6899802613e+00 2.9271316764e+00 
101100 6.3101938833e+00 7.0942819532e-05 1.6899802613e+00 -2.9271316764e+00 1.6899802613e+00 2.9271316764e+00 
101200 6.3101938800e+00 6.9964877101e-05 1.6899781624e+00 -2.9271280410e+00 1.6899781624e+00 2.9271280410e+00 
101300 6.3101938770e+00 7.0844315210e-05 1.6899781624e+00 -2.9271280410e+00 1.6899781624e+00 2.9271280410e+00 
101400 6.3101938738e+00 6.9856099617e-05 1.6899760664e+00 -2.9271244106e+00 1.6899760664e+00 2.9271244106e+00 
101500 6.3101938708e+00 7.0722695103e-05 1.6899760664e+00 -2.9271244106e+00 1.6899760664e+00 2.9271244106e+00 
101600 6.3101938677e+00 6.9724830038e-05 1.6899739740e+00 -2.9271207864e+00 1.6899739740e+00 2.9271207864e+00 
101700 6.3101938648e+00 7.0578605082e-05 1.6899739740e+00 -2.9271207864e+00 1.6899739740e+00 2.9271207864e+00 
101800 6.3101938619e+00 7.1430692511e-05 1.6899739740e+00 -2.9271207864e+00 1.6899739740e+00 2.9271207864e+00 
101900 6.3101938589e+00 7.0399761253e-05 1.6899718606e+00 -2.9271171259e+00 1.6899718606e+00 2.9271171259e+00 
102000 6.3101938562e+00 7.1239137194e-05 1.6899718606e+00 -2.9271171259e+00 1.6899718606e+00 2.9271171259e+00 
102100 6.3101938532e+00 7.0200522751e-05 1.6899697529e+00 -2.9271134753e+00 1.6899697529e+00 2.9271134753e+00 
102200 6.3101938505e+00 7.1027204941e-05 1.6899697529e+00 -2.9271134753e+00 1.6899697529e+00 2.9271134753e+00 
102300 6.3101938477e+00 6.9981466584e-05 1.6899676515e+00 -2.9271098355e+00 1.6899676515e+00 2.9271098355e+00 
102400 6.3101938450e+00 7.0795484893e-05 1.6899676515e+00 -2.9271098355e+00 1.6899676515e+00 2.9271098355e+00 
102500 6.3101938422e+00 6.9743178704e-05 1.6899655569e+00 -2.9271062076e+00 1.6899655569e+00 2.9271062076e+00 
102600 6.3101938397e+00 7.0544575389e-05 1.6899655569e+00 -2.9271062076e+00 1.6899655569e+00 2.9271062076e+00 
102700 6.3101938371e+00 7.1344391415e-05 1.6899655569e+00 -2.9271062076e+00 1.6899655569e+00 2.9271062076e+00 
102800 6.3101938344e+00 7.0263520007e-05 1.6899634461e+00 -2.9271025515e+00 1.6899634461e+00 2.9271025515e+00 
102900 6.3101938320e+00 7.1050854655e-05 1.6899634461e+00 -2.9271025515e+00 1.6899634461e+00 2.9271025515e+00 
103000 6.3101938293e+00 6.9965220746e-05 1.6899613439e+00 -2.9270989105e+00 1.6899613439e+00 2.9270989105e+00 
103100 6.3101938269e+00 7.0740113461e-05 1.6899613439e+00 -2.9270989105e+00 1.6899613439e+00 2.9270989105e+00 
103200 6.3101938244e+00 6.9650215047e-05 1.6899592510e+00 -2.9270952854e+00 1.6899592510e+00 2.9270952854e+00 
103300 6.3101938220e+00 7.0412718007e-05 1.6899592510e+00 -2.9270952854e+00 1.6899592510e+00 2.9270952854e+00 
103400 6.3101938197e+00 7.1173752781e-05 1.6899592510e+00 -2.9270952854e+00 1.6899592510e+00 2.9270952854e+00 
103500 6.3101938172e+00 7.0058669656e-05 1.6899571452e+00 -2.9270916381e+00 1.6899571452e+00 2.9270916381e+00 
103600 6.3101938150e+00 7.0807470416e-05 1.6899571452e+00 -2.9270916381e+00 1.6899571452e+00 2.9270916381e+00 
103700 6.3101938126e+00 6.9689789298e-05 1.6899550502e+00 -2.9270880095e+00 1.6899550502e+00 2.9270880095e+00 
103800 6.3101938104e+00 7.0426406478e-05 1.6899550502e+00 -2.9270880095e+00 1.6899550502e+00 2.9270880095e+00 
103900 6.3101938082e+00 7.1161659936e-05 1.6899550502e+00 -2.9270880095e+00 1.6899550502e+00 2.9270880095e+00 
104000 6.3101938059e+00 7.0021191083e-05 1.6899529448e+00 -2.9270843628e+00 1.6899529448e+00 2.9270843628e+00 
104100 6.3101938038e+00 7.0744414542e-05 1.6899529448e+00 -2.9270843628e+00 1.6899529448e+00 2.9270843628e+00 
104200 6.3101938015e+00 6.9602890424e-05 1.6899508517e+00 -2.9270807375e+00 1.6899508517e+00 2.9270807375e+00 
104300 6.3101937994e+00 7.0314133322e-05 1.6899508517e+00 -2.9270807375e+00 1.6899508517e+00 2.9270807375e+00 
104400 6.3101937974e+00 7.1024107248e-05 1.6899508517e+00 -2.9270807375e+00 1.6899508517e+00 2.9270807375e+00 
104500 6.3101937952e+00 6.9862050142e-05 1.6899487504e+00 -2.9270770978e+00 1.6899487504e+00 2.9270770978e+00 
104600 6.3101937932e+00 7.0560196361e-05 1.6899487504e+00 -2.9270770978e+00 1.6899487504e+00 2.9270770978e+00 
104700 6.3101937913e+00 7.1257162099e-05 1.6899487504e+00 -2.9270770978e+00 1.6899487504e+00 2.9270770978e+00 
104800 6.3101937892e+00 7.0076028816e-05 1.6899466421e+00 -2.9270734462e+00 1.6899466421e+00 2.9270734462e+00 
104900 6.3101937873e+00 7.0761300037e-05 1.6899466421e+00 -2.9270734462e+00 1.6899466421e+00 2.9270734462e+00 
105000 6.3101937852e+00 6.9581506572e-05 1.6899445485e+00 -2.9270698200e+00 1.6899445485e+00 2.9270698200e+00 
105100 6.3101937833e+00 7.0255120160e-05 1.6899445485e+00 -2.9270698200e+00 1.6899445485e+00 2.9270698200e+00 
105200 6.3101937815e+00 7.0927619442e-05 1.6899445485e+00 -2.9270698200e+00 1.6899445485e+00 2.9270698200e+00 
105300 6.3101937795e+00 6.9730740995e-05 1.6899424500e+00 -2.9270661852e+00 1.6899424500e+00 2.9270661852e+00 
105400 6.3101937777e+00 7.0391718816e-05 1.6899424500e+00 -2.9270661852e+00 1.6899424500e+00 2.9270661852e+00 
105500 6.3101937760e+00 7.1051655859e-05 1.6899424500e+00 -2.9270661852e+00 1.6899424500e+00 2.9270661852e+00 
105600 6.3101937741e+00 6.9839004719e-05 1.6899403478e+00 -2.9270625441e+00 1.6899403478e+00 2.9270625441e+00 
105700 6.3101937723e+00 7.0487539828e-05 1.6899403478e+00 -2.9270625441e+00 1.6899403478e+00 2.9270625441e+00 
105800 6.3101937706e+00 7.1135096867e-05 1.6899403478e+00 -2.9270625441e+00 1.6899403478e+00 2.9270625441e+00 
105900 6.3101937688e+00 6.9907914085e-05 1.6899382431e+00 -2.9270588987e+00 1.6899382431e+00 2.9270588987e+00 
106000 6.3101937671e+00 7.0544173200e-05 1.6899382431e+00 -2.9270588987e+00 1.6899382431e+00 2.9270588987e+00 
106100 6.3101937655e+00 7.1179506931e-05 1.6899382431e+00 -2.9270588987e+00 1.6899382431e+00 2.9270588987e+00 
106200 6.3101937637e+00 6.9938967676e-05 1.6899361371e+00 -2.9270552511e+00 1.6899361371e+00 2.9270552511e+00 
106300 6.3101937621e+00 7.0563093518e-05 1.6899361371e+00 -2.9270552511e+00 1.6899361371e+00 2.9270552511e+00 
106400 6.3101937606e+00 7.1186337590e-05 1.6899361371e+00 -2.9270552511e+00 1.6899361371e+00 2.9270552511e+00 
106500 6.3101937589e+00 6.9933556769e-05 1.6899340310e+00 -2.9270516031e+00 1.6899340310e+00 2.9270516031e+00 
106600 6.3101937573e+00 7.0545670863e-05 1.6899340310e+00 -2.9270516031e+00 1.6899340310e+00 2.9270516031e+00 
106700 6.3101937558e+00 7.1156938799e-05 1.6899340310e+00 -2.9270516031e+00 1.6899340310e+00 2.9270516031e+00 
106800 6.3101937542e+00 6.9892976763e-05 1.6899319256e+00 -2.9270479566e+00 1.6899319256e+00 2.9270479566e+00 
106900 6.3101937527e+00 7.0493182554e-05 1.6899319256e+00 -2.9270479566e+00 1.6899319256e+00 2.9270479566e+00 
107000 6.3101937512e+00 7.1092570941e-05 1.6899319256e+00 -2.9270479566e+00 1.6899319256e+00 2.9270479566e+00 
107100 6.3101937496e+00 6.9818439090e-05 1.6899298222e+00 -2.9270443133e+00 1.6899298222e+00 2.9270443133e+00 
107200 6.3101937482e+00 7.0406825252e-05 1.6899298222e+00 -2.9270443133e+00 1.6899298222e+00 2.9270443133e+00 
107300 6.3101937468e+00 7.0994417090e-05 1.6899298222e+00 -2.9270443133e+00 1.6899298222e+00 2.9270443133e+00 
107400 6.3101937453e+00 6.9711083262e-05 1.6899277217e+00 -2.9270406751e+00 1.6899277217e+00 2.9270406751e+00 
107500 6.3101937439e+00 7.0287727086e-05 1.6899277217e+00 -2.9270406751e+00 1.6899277217e+00 2.9270406751e+00 
107600 6.3101937426e+00 7.0863595162e-05 1.6899277217e+00 -2.9270406751e+00 1.6899277217e+00 2.9270406751e+00 
107700 6.3101937411e+00 6.9571988744e-05 1.6899256251e+00 -2.9270370436e+00 1.6899256251e+00 2.9270370436e+00 
107800 6.3101937398e+00 7.0136959499e-05 1.6899256251e+00 -2.9270370436e+00 1.6899256251e+00 2.9270370436e+00 
107900 6.3101937385e+00 7.0701169734e-05 1.6899256251e+00 -2.9270370436e+00 1.6899256251e+00 2.9270370436e+00 
108000 6.3101937372e+00 7.1264688916e-05 1.6899256251e+00 -2.9270370436e+00 1.6899256251e+00 2.9270370436e+00 
108100 6.3101937358e+00 6.9950231722e-05 1.6899235166e+00 -2.9270333916e+00 1.6899235166e+00 2.9270333916e+00 
108200 6.3101937345e+00 7.0502949401e-05 1.6899235166e+00 -2.9270333916e+00 1.6899235166e+00 2.9270333916e+00 
108300 6.3101937333e+00 7.1054971159e-05 1.6899235166e+00 -2.9270333916e+00 1.6899235166e+00 2.9270333916e+00 
108400 6.3101937319e+00 6.9734523574e-05 1.6899214142e+00 -2.9270297503e+00 1.6899214142e+00 2.9270297503e+00 
108500 6.3101937307e+00 7.0275760511e-05 1.6899214142e+00 -2.9270297503e+00 1.6899214142e+00 2.9270297503e+00 
108600 6.3101937296e+00 7.0816295832e-05 1.6899214142e+00 -2.9270297503e+00 1.6899214142e+00 2.9270297503e+00 
108700 6.3101937282e+00 6.9490631517e-05 1.6899193190e+00 -2.9270261212e+00 1.6899193190e+00 2.9270261212e+00 
108800 6.3101937271e+00 7.0020402276e-05 1.6899193190e+00 -2.9270261212e+00 1.6899193190e+00 2.9270261212e+00 
108900 6.3101937260e+00 7.0549466254e-05 1.6899193190e+00 -2.9270261212e+00 1.6899193190e+00 2.9270261212e+00 
109000 6.3101937248e+00 7.1077886886e-05 1.6899193190e+00 -2.9270261212e+00 1.6899193190e+00 2.9270261212e+00 
109100 6.3101937236e+00 6.9733256489e-05 1.6899172160e+00 -2.9270224787e+00 1.6899172160e+00 2.9270224787e+00 
109200 6.3101937225e+00 7.0250979282e-05 1.6899172160e+00 -2.9270224787e+00 1.6899172160e+00 2.9270224787e+00 
109300 6.3101937214e+00 7.0768038777e-05 1.6899172160e+00 -2.9270224787e+00 1.6899172160e+00 2.9270224787e+00 
109400 6.3101937202e+00 6.9420178742e-05 1.6899151222e+00 -2.9270188521e+00 1.6899151222e+00 2.9270188521e+00 
109500 6.3101937191e+00 6.9926544084e-05 1.6899151222e+00 -2.9270188521e+00 1.6899151222e+00 2.9270188521e+00 
109600 6.3101937181e+00 7.0432229244e-05 1.6899151222e+00 -2.9270188521e+00 1.6899151222e+00 2.9270188521e+00 
109700 6.3101937171e+00 7.0937294232e-05 1.6899151222e+00 -2.9270188521e+00 1.6899151222e+00 2.9270188521e+00 
109800 6.3101937159e+00 6.9573006943e-05 1.6899130233e+00 -2.9270152168e+00 1.6899130233e+00 2.9270152168e+00 
109900 6.3101937149e+00 7.0067429871e-05 1.6899130233e+00 -2.9270152168e+00 1.6899130233e+00 2.9270152168e+00 
110000 6.3101937139e+00 7.0561204400e-05 1.6899130233e+00 -2.9270152168e+00 1.6899130233e+00 2.9270152168e+00 
110100 6.3101937130e+00 7.1054387163e-05 1.6899130233e+00 -2.9270152168e+00 1.6899130233e+00 2.9270152168e+00 
110200 6.3101937118e+00 6.9675144935e-05 1.6899109210e+00 -2.9270115755e+00 1.6899109210e+00 2.9270115755e+00 
110300 6.3101937109e+00 7.0157716868e-05 1.6899109210e+00 -2.9270115755e+00 1.6899109210e+00 2.9270115755e+00 
110400 6.3101937100e+00 7.0639659187e-05 1.6899109210e+00 -2.9270115755e+00 1.6899109210e+00 2.9270115755e+00 
110500 6.3101937090e+00 7.1121025723e-05 1.6899109210e+00 -2.9270115755e+00 1.6899109210e+00 2.9270115755e+00 
110600 6.3101937080e+00 6.9728212013e-05 1.6899088167e+00 -2.9270079307e+00 1.6899088167e+00 2.9270079307e+00 
110700 6.3101937071e+00 7.0198982694e-05 1.6899088167e+00 -2.9270079307e+00 1.6899088167e+00 2.9270079307e+00 
110800 6.3101937062e+00 7.0669132067e-05 1.6899088167e+00 -2.9270079307e+00 1.6899088167e+00 2.9270079307e+00 
110900 6.3101937053e+00 7.1138711777e-05 1.6899088167e+00 -2.9270079307e+00 1.6899088167e+00 2.9270079307e+00 
111000 6.3101937043e+00 6.9733636517e-05 1.6899067119e+00 -2.9270042851e+00 1.6899067119e+00 2.9270042851e+00 
111100 6.3101937034e+00 7.0192624132e-05 1.6899067119e+00 -2.9270042851e+00 1.6899067119e+00 2.9270042851e+00 
111200 6.3101937026e+00 7.0650990916e-05 1.6899067119e+00 -2.9270042851e+00 1.6899067119e+00 2.9270042851e+00 
111300 6.3101937018e+00 7.1108786965e-05 1.6899067119e+00 -2.9270042851e+00 1.6899067119e+00 2.9270042851e+00 
111400 6.3101937008e+00 6.9692701202e-05 1.6899046080e+00 -2.9270006410e+00 1.6899046080e+00 2.9270006410e+00 
111500 6.3101937000e+00 7.0139902852e-05 1.6899046080e+00 -2.9270006410e+00 1.6899046080e+00 2.9270006410e+00 
111600 6.3101936992e+00 7.0586478972e-05 1.6899046080e+00 -2.9270006410e+00 1.6899046080e+00 2.9270006410e+00 
111700 6.3101936984e+00 7.1032478721e-05 1.6899046080e+00 -2.9270006410e+00 1.6899046080e+00 2.9270006410e+00 
111800 6.3101936974e+00 6.9606588003e-05 1.6899025063e+00 -2.9269970008e+00 1.6899025063e+00 2.9269970008e+00 
111900 6.3101936967e+00 7.0041989999e-05 1.6899025063e+00 -2.9269970008e+00 1.6899025063e+00 2.9269970008e+00 
112000 6.3101936959e+00 7.0476759121e-05 1.6899025063e+00 -2.9269970008e+00 1.6899025063e+00 2.9269970008e+00 
112100 6.3101936952e+00 7.0910944160e-05 1.6899025063e+00 -2.9269970008e+00 1.6899025063e+00 2.9269970008e+00 
112200 6.3101936943e+00 6.9476420246e-05 1.6899004082e+00 -2.9269933668e+00 1.6899004082e+00 2.9269933668e+00 
112300 6.3101936935e+00 6.9900007800e-05 1.6899004082e+00 -2.9269933668e+00 1.6899004082e+00 2.9269933668e+00 
112400 6.3101936928e+00 7.0322954810e-05 1.6899004082e+00 -2.9269933668e+00 1.6899004082e+00 2.9269933668e+00 
112500 6.3101936921e+00 7.0745310216e-05 1.6899004082e+00 -2.9269933668e+00 1.6899004082e+00 2.9269933668e+00 
112600 6.3101936913e+00 6.9303300889e-05 1.6898983151e+00 -2.9269897413e+00 1.6898983151e+00 2.9269897413e+00 
112700 6.3101936906e+00 6.9715066867e-05 1.6898983151e+00 -2.9269897413e+00 1.6898983151e+00 2.9269897413e+00 
112800 6.3101936899e+00 7.0126186367e-05 1.6898983151e+00 -2.9269897413e+00 1.6898983151e+00 2.9269897413e+00 
112900 6.3101936892e+00 7.0536708904e-05 1.6898983151e+00 -2.9269897413e+00 1.6898983151e+00 2.9269897413e+00 
113000 6.3101936886e+00 7.0946680353e-05 1.6898983151e+00 -2.9269897413e+00 1.6898983151e+00 2.9269897413e+00 
113100 6.3101936877e+00 6.9487005995e-05 1.6898962159e+00 -2.9269861055e+00 1.6898962159e+00 2.9269861055e+00 
113200 6.3101936871e+00 6.9886432781e-05 1.6898962159e+00 -2.9269861055e+00 1.6898962159e+00 2.9269861055e+00 
113300 6.3101936864e+00 7.0285244347e-05 1.6898962159e+00 -2.9269861055e+00 1.6898962159e+00 2.9269861055e+00 
113400 6.3101936858e+00 7.0683487504e-05 1.6898962159e+00 -2.9269861055e+00 1.6898962159e+00 2.9269861055e+00 
113500 6.3101936852e+00 7.1081205520e-05 1.6898962159e+00 -2.9269861055e+00 1.6898962159e+00 2.9269861055e+00 
113600 6.3101936844e+00 6.9605743767e-05 1.6898941128e+00 -2.9269824628e+00 1.6898941128e+00 2.9269824628e+00 
113700 6.3101936838e+00 6.9992943292e-05 1.6898941128e+00 -2.9269824628e+00 1.6898941128e+00 2.9269824628e+00 
113800 6.3101936832e+00 7.0379546043e-05 1.6898941128e+00 -2.9269824628e+00 1.6898941128e+00 2.9269824628e+00 
113900 6.3101936826e+00 7.0765596704e-05 1.6898941128e+00 -2.9269824628e+00 1.6898941128e+00 2.9269824628e+00 
114000 6.3101936819e+00 6.9286745433e-05 1.6898920190e+00 -2.9269788362e+00 1.6898920190e+00 2.9269788362e+00 
114100 6.3101936813e+00 6.9662270988e-05 1.6898920190e+00 -2.9269788362e+00 1.6898920190e+00 2.9269788362e+00 
114200 6.3101936807e+00 7.0037178771e-05 1.6898920190e+00 -2.9269788362e+00 1.6898920190e+00 2.9269788362e+00 
114300 6.3101936802e+00 7.0411515376e-05 1.6898920190e+00 -2.9269788362e+00 1.6898920190e+00 2.9269788362e+00 
114400 6.3101936796e+00 7.0785324090e-05 1.6898920190e+00 -2.9269788362e+00 1.6898920190e+00 2.9269788362e+00 
114500 6.3101936789e+00 6.9293721220e-05 1.6898899246e+00 -2.9269752087e+00 1.6898899246e+00 2.9269752087e+00 
114600 6.3101936784e+00 6.9657046521e-05 1.6898899246e+00 -2.9269752087e+00 1.6898899246e+00 2.9269752087e+00 
114700 6.3101936778e+00 7.0019774493e-05 1.6898899246e+00 -2.9269752087e+00 1.6898899246e+00 2.9269752087e+00 
114800 6.3101936773e+00 7.0381950660e-05 1.6898899246e+00 -2.9269752087e+00 1.6898899246e+00 2.9269752087e+00 
114900 6.3101936768e+00 7.0743617324e-05 1.6898899246e+00 -2.9269752087e+00 1.6898899246e+00 2.9269752087e+00 
115000 6.3101936761e+00 6.9240976099e-05 1.6898878315e+00 -2.9269715833e+00 1.6898878315e+00 2.9269715833e+00 
115100 6.3101936756e+00 6.9592198970e-05 1.6898878315e+00 -2.9269715833e+00 1.6898878315e+00 2.9269715833e+00 
115200 6.3101936751e+00 6.9942840581e-05 1.6898878315e+00 -2.9269715833e+00 1.6898878315e+00 2.9269715833e+00 
115300 6.3101936746e+00 7.0292945812e-05 1.6898878315e+00 -2.9269715833e+00 1.6898878315e+00 2.9269715833e+00 
115400 6.3101936741e+00 7.0642556413e-05 1.6898878315e+00 -2.9269715833e+00 1.6898878315e+00 2.9269715833e+00 
115500 6.3101936737e+00 7.0991710962e-05 1.6898878315e+00 -2.9269715833e+00 1.6898878315e+00 2.9269715833e+00 
115600 6.3101936730e+00 6.9470057457e-05 1.6898857310e+00 -2.9269679451e+00 1.6898857310e+00 2.9269679451e+00 
115700 6.3101936726e+00 6.9808830540e-05 1.6898857310e+00 -2.9269679451e+00 1.6898857310e+00 2.9269679451e+00 
115800 6.3101936721e+00 7.0147064437e-05 1.6898857310e+00 -2.9269679451e+00 1.6898857310e+00 2.9269679451e+00 
115900 6.3101936716e+00 7.0484800666e-05 1.6898857310e+00 -2.9269679451e+00 1.6898857310e+00 2.9269679451e+00 
116000 6.3101936712e+00 7.0822077709e-05 1.6898857310e+00 -2.9269679451e+00 1.6898857310e+00 2.9269679451e+00 
116100 6.3101936706e+00 6.9293000608e-05 1.6898836355e+00 -2.9269643156e+00 1.6898836355e+00 2.9269643156e+00 
116200 6.3101936701e+00 6.9619912905e-05 1.6898836355e+00 -2.9269643156e+00 1.6898836355e+00 2.9269643156e+00 
116300 6.3101936697e+00 6.9946283837e-05 1.6898836355e+00 -2.9269643156e+00 1.6898836355e+00 2.9269643156e+00 
116400 6.3101936693e+00 7.0272155304e-05 1.6898836355e+00 -2.9269643156e+00 1.6898836355e+00 2.9269643156e+00 
116500 6.3101936689e+00 7.0597566288e-05 1.6898836355e+00 -2.9269643156e+00 1.6898836355e+00 2.9269643156e+00 
116600 6.3101936685e+00 7.0922552820e-05 1.6898836355e+00 -2.9269643156e+00 1.6898836355e+00 2.9269643156e+00 
116700 6.3101936679e+00 6.9378557257e-05 1.6898815371e+00 -2.9269606810e+00 1.6898815371e+00 2.9269606810e+00 
116800 6.3101936675e+00 6.9693227752e-05 1.6898815371e+00 -2.9269606810e+00 1.6898815371e+00 2.9269606810e+00 
116900 6.3101936671e+00 7.0007384536e-05 1.6898815371e+00 -2.9269606810e+00 1.6898815371e+00 2.9269606810e+00 
117000 6.3101936667e+00 7.0321067442e-05 1.6898815371e+00 -2.9269606810e+00 1.6898815371e+00 2.9269606810e+00 
117100 6.3101936663e+00 7.0634313489e-05 1.6898815371e+00 -2.9269606810e+00 1.6898815371e+00 2.9269606810e+00 
117200 6.3101936659e+00 7.0947156855e-05 1.6898815371e+00 -2.9269606810e+00 1.6898815371e+00 2.9269606810e+00 
117300 6.3101936654e+00 6.9390377002e-05 1.6898794379e+00 -2.9269570452e+00 1.6898794379e+00 2.9269570452e+00 
117400 6.3101936650e+00 6.9692939246e-05 1.6898794379e+00 -2.9269570452e+00 1.6898794379e+00 2.9269570452e+00 
117500 6.3101936646e+00 6.9995004593e-05 1.6898794379e+00 -2.9269570452e+00 1.6898794379e+00 2.9269570452e+00 
117600 6.3101936643e+00 7.0296611468e-05 1.6898794379e+00 -2.9269570452e+00 1.6898794379e+00 2.9269570452e+00 
117700 6.3101936639e+00 7.0597795608e-05 1.6898794379e+00 -2.9269570452e+00 1.6898794379e+00 2.9269570452e+00 
117800 6.3101936636e+00 7.0898590012e-05 1.6898794379e+00 -2.9269570452e+00 1.6898794379e+00 2.9269570452e+00 
117900 6.3101936630e+00 6.9331040016e-05 1.6898773402e+00 -2.9269534118e+00 1.6898773402e+00 2.9269534118e+00 
118000 6.3101936627e+00 6.9621582522e-05 1.6898773402e+00 -2.9269534118e+00 1.6898773402e+00 2.9269534118e+00 
118100 6.3101936624e+00 6.9911638384e-05 1.6898773402e+00 -2.9269534118e+00 1.6898773402e+00 2.9269534118e+00 
118200 6.3101936620e+00 7.0201245306e-05 1.6898773402e+00 -2.9269534118e+00 1.6898773402e+00 2.9269534118e+00 
118300 6.3101936617e+00 7.0490438411e-05 1.6898773402e+00 -2.9269534118e+00 1.6898773402e+00 2.9269534118e+00 
118400 6.3101936614e+00 7.0779250202e-05 1.6898773402e+00 -2.9269534118e+00 1.6898773402e+00 2.9269534118e+00 
118500 6.3101936609e+00 6.9202857494e-05 1.6898752460e+00 -2.9269497845e+00 1.6898752460e+00 2.9269497845e+00 
118600 6.3101936606e+00 6.9481449099e-05 1.6898752460e+00 -2.9269497845e+00 1.6898752460e+00 2.9269497845e+00 
118700 6.3101936602e+00 6.9759561944e-05 1.6898752460e+00 -2.9269497845e+00 1.6898752460e+00 2.9269497845e+00 
118800 6.3101936599e+00 7.0037233628e-05 1.6898752460e+00 -2.9269497845e+00 1.6898752460e+00 2.9269497845e+00 
118900 6.3101936596e+00 7.0314499274e-05 1.6898752460e+00 -2.9269497845e+00 1.6898752460e+00 2.9269497845e+00 
119000 6.3101936593e+00 7.0591391480e-05 1.6898752460e+00 -2.9269497845e+00 1.6898752460e+00 2.9269497845e+00 
119100 6.3101936590e+00 7.0867940299e-05 1.6898752460e+00 -2.9269497845e+00 1.6898752460e+00 2.9269497845e+00 
119200 6.3101936586e+00 6.9276970319e-05 1.6898731491e+00 -2.9269461527e+00 1.6898731491e+00 2.9269461527e+00 
119300 6.3101936583e+00 6.9543355608e-05 1.6898731491e+00 -2.9269461527e+00 1.6898731491e+00 2.9269461527e+00 
119400 6.3101936580e+00 6.9809292966e-05 1.6898731491e+00 -2.9269461527e+00 1.6898731491e+00 2.9269461527e+00 
119500 6.3101936577e+00 7.0074817899e-05 1.6898731491e+00 -2.9269461527e+00 1.6898731491e+00 2.9269461527e+00 
119600 6.3101936574e+00 7.0339963528e-05 1.6898731491e+00 -2.9269461527e+00 1.6898731491e+00 2.9269461527e+00 
119700 6.3101936571e+00 7.0604760550e-05 1.6898731491e+00 -2.9269461527e+00 1.6898731491e+00 2.9269461527e+00 
119800 6.3101936569e+00 7.0869237217e-05 1.6898731491e+00 -2.9269461527e+00 1.6898731491e+00 2.9269461527e+00 
119900 6.3101936564e+00 6.9266169432e-05 1.6898710523e+00 -2.9269425207e+00 1.6898710523e+00 2.9269425207e+00 
120000 6.3101936562e+00 6.9520523322e-05 1.6898710523e+00 -2.9269425207e+00 1.6898710523e+00 2.9269425207e+00 
120100 6.3101936559e+00 6.9774447572e-05 1.6898710523e+00 -2.9269425207e+00 1.6898710523e+00 2.9269425207e+00 
120200 6.3101936556e+00 7.0027976318e-05 1.6898710523e+00 -2.9269425207e+00 1.6898710523e+00 2.9269425207e+00 
120300 6.3101936554e+00 7.0281141430e-05 1.6898710523e+00 -2.9269425207e+00 1.6898710523e+00 2.9269425207e+00 
120400 6.3101936551e+00 7.0533972464e-05 1.6898710523e+00 -2.9269425207e+00 1.6898710523e+00 2.9269425207e+00 
120500 6.3101936549e+00 7.0786496640e-05 1.6898710523e+00 -2.9269425207e+00 1.6898710523e+00 2.9269425207e+00 
120600 6.3101936545e+00 6.9173656436e-05 1.6898689578e+00 -2.9269388931e+00 1.6898689578e+00 2.9269388931e+00 
120700 6.3101936542e+00 6.9416093185e-05 1.6898689578e+00 -2.9269388931e+00 1.6898689578e+00 2.9269388931e+00 
120800 6.3101936540e+00 6.9658111585e-05 1.6898689578e+00 -2.9269388931e+00 1.6898689578e+00 2.9269388931e+00 
120900 6.3101936538e+00 6.9899745170e-05 1.6898689578e+00 -2.9269388931e+00 1.6898689578e+00 2.9269388931e+00 
121000 6.3101936535e+00 7.0141025308e-05 1.6898689578e+00 -2.9269388931e+00 1.6898689578e+00 2.9269388931e+00 
121100 6.3101936533e+00 7.0381981162e-05 1.6898689578e+00 -2.9269388931e+00 1.6898689578e+00 2.9269388931e+00 
121200 6.3101936531e+00 7.0622639663e-05 1.6898689578e+00 -2.9269388931e+00 1.6898689578e+00 2.9269388931e+00 
121300 6.3101936529e+00 7.0863025494e-05 1.6898689578e+00 -2.9269388931e+00 1.6898689578e+00 2.9269388931e+00 
121400 6.3101936525e+00 6.9236049236e-05 1.6898668611e+00 -2.9269352615e+00 1.6898668611e+00 2.9269352615e+00 
121500 6.3101936522e+00 6.9466398261e-05 1.6898668611e+00 -2.9269352615e+00 1.6898668611e+00 2.9269352615e+00 
121600 6.3101936520e+00 6.9696355891e-05 1.6898668611e+00 -2.9269352615e+00 1.6898668611e+00 2.9269352615e+00 
121700 6.3101936518e+00 6.9925953528e-05 1.6898668611e+00 -2.9269352615e+00 1.6898668611e+00 2.9269352615e+00 
121800 6.3101936516e+00 7.0155220522e-05 1.6898668611e+00 -2.9269352615e+00 1.6898668611e+00 2.9269352615e+00 
121900 6.3101936514e+00 7.0384184127e-05 1.6898668611e+00 -2.9269352615e+00 1.6898668611e+00 2.9269352615e+00 
122000 6.3101936512e+00 7.0612869481e-05 1.6898668611e+00 -2.9269352615e+00 1.6898668611e+00 2.9269352615e+00 
122100 6.3101936510e+00 7.0841299587e-05 1.6898668611e+00 -2.9269352615e+00 1.6898668611e+00 2.9269352615e+00 
122200 6.3101936506e+00 6.9202943142e-05 1.6898647651e+00 -2.9269316310e+00 1.6898647651e+00 2.9269316310e+00 
122300 6.3101936504e+00 6.9421369482e-05 1.6898647651e+00 -2.9269316310e+00 1.6898647651e+00 2.9269316310e+00 
122400 6.3101936502e+00 6.9639417589e-05 1.6898647651e+00 -2.9269316310e+00 1.6898647651e+00 2.9269316310e+00 
122500 6.3101936500e+00 6.9857117658e-05 1.6898647651e+00 -2.9269316310e+00 1.6898647651e+00 2.9269316310e+00 
122600 6.3101936499e+00 7.0074497949e-05 1.6898647651e+00 -2.9269316310e+00 1.6898647651e+00 2.9269316310e+00 
122700 6.3101936497e+00 7.0291584747e-05 1.6898647651e+00 -2.9269316310e+00 1.6898647651e+00 2.9269316310e+00 
122800 6.3101936495e+00 7.0508402336e-05 1.6898647651e+00 -2.9269316310e+00 1.6898647651e+00 2.9269316310e+00 
122900 6.3101936493e+00 7.0724972988e-05 1.6898647651e+00 -2.9269316310e+00 1.6898647651e+00 2.9269316310e+00 
123000 6.3101936490e+00 6.9077817367e-05 1.6898626724e+00 -2.9269280065e+00 1.6898626724e+00 2.9269280065e+00 
123100 6.3101936488e+00 6.9284414663e-05 1.6898626724e+00 -2.9269280065e+00 1.6898626724e+00 2.9269280065e+00 
123200 6.3101936486e+00 6.9490640822e-05 1.6898626724e+00 -2.9269280065e+00 1.6898626724e+00 2.9269280065e+00 
123300 6.3101936484e+00 6.9696525735e-05 1.6898626724e+00 -2.9269280065e+00 1.6898626724e+00 2.9269280065e+00 
123400 6.3101936483e+00 6.9902097461e-05 1.6898626724e+00 -2.9269280065e+00 1.6898626724e+00 2.9269280065e+00 
123500 6.3101936481e+00 7.0107382188e-05 1.6898626724e+00 -2.9269280065e+00 1.6898626724e+00 2.9269280065e+00 
123600 6.3101936479e+00 7.0312404210e-05 1.6898626724e+00 -2.9269280065e+00 1.6898626724e+00 2.9269280065e+00 
123700 6.3101936478e+00 7.0517185904e-05 1.6898626724e+00 -2.9269280065e+00 1.6898626724e+00 2.9269280065e+00 
123800 6.3101936476e+00 7.0721747717e-05 1.6898626724e+00 -2.9269280065e+00 1.6898626724e+00 2.9269280065e+00 
123900 6.3101936473e+00 6.9062680780e-05 1.6898605799e+00 -2.9269243821e+00 1.6898605799e+00 2.9269243821e+00 
124000 6.3101936471e+00 6.9257318508e-05 1.6898605799e+00 -2.9269243821e+00 1.6898605799e+00 2.9269243821e+00 
124100 6.3101936470e+00 6.9451607258e-05 1.6898605799e+00 -2.9269243821e+00 1.6898605799e+00 2.9269243821e+00 
124200 6.3101936468e+00 6.9645575473e-05 1.6898605799e+00 -2.9269243821e+00 1.6898605799e+00 2.9269243821e+00 
124300 6.3101936467e+00 6.9839249862e-05 1.6898605799e+00 -2.9269243821e+00 1.6898605799e+00 2.9269243821e+00 
124400 6.3101936465e+00 7.0032655371e-05 1.6898605799e+00 -2.9269243821e+00 1.6898605799e+00 2.9269243821e+00 
124500 6.3101936464e+00 7.0225815147e-05 1.6898605799e+00 -2.9269243821e+00 1.6898605799e+00 2.9269243821e+00 
124600 6.3101936462e+00 7.0418750528e-05 1.6898605799e+00 -2.9269243821e+00 1.6898605799e+00 2.9269243821e+00 
124700 6.3101936461e+00 7.0611481018e-05 1.6898605799e+00 -2.9269243821e+00 1.6898605799e+00 2.9269243821e+00 
124800 6.3101936459e+00 7.0804024296e-05 1.6898605799e+00 -2.9269243821e+00 1.6898605799e+00 2.9269243821e+00 
124900 6.3101936456e+00 6.9130787856e-05 1.6898584849e+00 -2.9269207535e+00 1.6898584849e+00 2.9269207535e+00 
125000 6.3101936455e+00 6.9313453201e-05 1.6898584849e+00 -2.9269207535e+00 1.6898584849e+00 2.9269207535e+00 
125100 6.3101936454e+00 6.9495794354e-05 1.6898584849e+00 -2.9269207535e+00 1.6898584849e+00 2.9269207535e+00 
125200 6.3101936452e+00 6.9677837443e-05 1.6898584849e+00 -2.9269207535e+00 1.6898584849e+00 2.9269207535e+00 
125300 6.3101936451e+00 6.9859606980e-05 1.6898584849e+00 -2.9269207535e+00 1.6898584849e+00 2.9269207535e+00 
125400 6.3101936450e+00 7.0041125835e-05 1.6898584849e+00 -2.9269207535e+00 1.6898584849e+00 2.9269207535e+00 
125500 6.3101936448e+00 7.0222415206e-05 1.6898584849e+00 -2.9269207535e+00 1.6898584849e+00 2.9269207535e+00 
125600 6.3101936447e+00 7.0403494608e-05 1.6898584849e+00 -2.9269207535e+00 1.6898584849e+00 2.9269207535e+00 
125700 6.3101936446e+00 7.0584381856e-05 1.6898584849e+00 -2.9269207535e+00 1.6898584849e+00 2.9269207535e+00 
125800 6.3101936445e+00 7.0765093059e-05 1.6898584849e+00 -2.9269207535e+00 1.6898584849e+00 2.9269207535e+00 
125900 6.3101936442e+00 6.9081047374e-05 1.6898563911e+00 -2.9269171269e+00 1.6898563911e+00 2.9269171269e+00 
126000 6.3101936440e+00 6.9251903890e-05 1.6898563911e+00 -2.9269171269e+00 1.6898563911e+00 2.9269171269e+00 
126100 6.3101936439e+00 6.9422443575e-05 1.6898563911e+00 -2.9269171269e+00 1.6898563911e+00 2.9269171269e+00 
126200 6.3101936438e+00 6.9592691502e-05 1.6898563911e+00 -2.9269171269e+00 1.6898563911e+00 2.9269171269e+00 
126300 6.3101936437e+00 6.9762671255e-05 1.6898563911e+00 -2.9269171269e+00 1.6898563911e+00 2.9269171269e+00 
126400 6.3101936436e+00 6.9932404904e-05 1.6898563911e+00 -2.9269171269e+00 1.6898563911e+00 2.9269171269e+00 
126500 6.3101936435e+00 7.0101912972e-05 1.6898563911e+00 -2.9269171269e+00 1.6898563911e+00 2.9269171269e+00 
126600 6.3101936433e+00 7.0271214420e-05 1.6898563911e+00 -2.9269171269e+00 1.6898563911e+00 2.9269171269e+00 
126700 6.3101936432e+00 7.0440326632e-05 1.6898563911e+00 -2.9269171269e+00 1.6898563911e+00 2.9269171269e+00 
126800 6.3101936431e+00 7.0609265405e-05 1.6898563911e+00 -2.9269171269e+00 1.6898563911e+00 2.9269171269e+00 
126900 6.3101936430e+00 7.0778044948e-05 1.6898563911e+00 -2.9269171269e+00 1.6898563911e+00 2.9269171269e+00 
127000 6.3101936427e+00 6.9081728492e-05 1.6898542969e+00 -2.9269134997e+00 1.6898542969e+00 2.9269134997e+00 
127100 6.3101936426e+00 6.9240679827e-05 1.6898542969e+00 -2.9269134997e+00 1.6898542969e+00 2.9269134997e+00 
127200 6.3101936425e+00 6.9399326139e-05 1.6898542969e+00 -2.9269134997e+00 1.6898542969e+00 2.9269134997e+00 
127300 6.3101936424e+00 6.9557691084e-05 1.6898542969e+00 -2.9269134997e+00 1.6898542969e+00 2.9269134997e+00 
127400 6.3101936423e+00 6.9715796954e-05 1.6898542969e+00 -2.9269134997e+00 1.6898542969e+00 2.9269134997e+00 
127500 6.3101936422e+00 6.9873664652e-05 1.6898542969e+00 -2.9269134997e+00 1.6898542969e+00 2.9269134997e+00 
127600 6.3101936421e+00 7.0031313657e-05 1.6898542969e+00 -2.9269134997e+00 1.6898542969e+00 2.9269134997e+00 
127700 6.3101936420e+00 7.0188762008e-05 1.6898542969e+00 -2.9269134997e+00 1.6898542969e+00 2.9269134997e+00 
127800 6.3101936419e+00 7.0346026289e-05 1.6898542969e+00 -2.9269134997e+00 1.6898542969e+00 2.9269134997e+00 
127900 6.3101936419e+00 7.0503121621e-05 1.6898542969e+00 -2.9269134997e+00 1.6898542969e+00 2.9269134997e+00 
128000 6.3101936418e+00 7.0660061652e-05 1.6898542969e+00 -2.9269134997e+00 1.6898542969e+00 2.9269134997e+00 
128100 6.3101936417e+00 7.0816858565e-05 1.6898542969e+00 -2.9269134997e+00 1.6898542969e+00 2.9269134997e+00 
128200 6.3101936414e+00 6.9107538004e-05 1.6898522016e+00 -2.9269098704e+00 1.6898522016e+00 2.9269098704e+00 
128300 6.3101936413e+00 6.9254527928e-05 1.6898522016e+00 -2.9269098704e+00 1.6898522016e+00 2.9269098704e+00 
128400 6.3101936412e+00 6.9401223513e-05 1.6898522016e+00 -2.9269098704e+00 1.6898522016e+00 2.9269098704e+00 
128500 6.3101936411e+00 6.9547646896e-05 1.6898522016e+00 -2.9269098704e+00 1.6898522016e+00 2.9269098704e+00 
128600 6.3101936411e+00 6.9693818981e-05 1.6898522016e+00 -2.9269098704e+00 1.6898522016e+00 2.9269098704e+00 
128700 6.3101936410e+00 6.9839759408e-05 1.6898522016e+00 -2.9269098704e+00 1.6898522016e+00 2.9269098704e+00 
128800 6.3101936409e+00 6.9985486526e-05 1.6898522016e+00 -2.9269098704e+00 1.6898522016e+00 2.9269098704e+00 
128900 6.3101936408e+00 7.0131017369e-05 1.6898522016e+00 -2.9269098704e+00 1.6898522016e+00 2.9269098704e+00 
129000 6.3101936407e+00 7.0276367649e-05 1.6898522016e+00 -2.9269098704e+00 1.6898522016e+00 2.9269098704e+00 
129100 6.3101936406e+00 7.0421551732e-05 1.6898522016e+00 -2.9269098704e+00 1.6898522016e+00 2.9269098704e+00 
129200 6.3101936406e+00 7.0566582646e-05 1.6898522016e+00 -2.9269098704e+00 1.6898522016e+00 2.9269098704e+00 
129300 6.3101936405e+00 7.0711472070e-05 1.6898522016e+00 -2.9269098704e+00 1.6898522016e+00 2.9269098704e+00 
129400 6.3101936402e+00 6.8993009657e-05 1.6898501093e+00 -2.9269062465e+00 1.6898501093e+00 2.9269062465e+00 
129500 6.3101936402e+00 6.9128108385e-05 1.6898501093e+00 -2.9269062465e+00 1.6898501093e+00 2.9269062465e+00 
129600 6.3101936401e+00 6.9262913892e-05 1.6898501093e+00 -2.9269062465e+00 1.6898501093e+00 2.9269062465e+00 
129700 6.3101936400e+00 6.9397448261e-05 1.6898501093e+00 -2.9269062465e+00 1.6898501093e+00 2.9269062465e+00 
129800 6.3101936399e+00 6.9531732450e-05 1.6898501093e+00 -2.9269062465e+00 1.6898501093e+00 2.9269062465e+00 
129900 6.3101936399e+00 6.9665786264e-05 1.6898501093e+00 -2.9269062465e+00 1.6898501093e+00 2.9269062465e+00 
130000 6.3101936398e+00 6.9799628316e-05 1.6898501093e+00 -2.9269062465e+00 1.6898501093e+00 2.9269062465e+00 
130100 6.3101936397e+00 6.9933276012e-05 1.6898501093e+00 -2.9269062465e+00 1.6898501093e+00 2.9269062465e+00 
130200 6.3101936397e+00 7.0066745522e-05 1.6898501093e+00 -2.9269062465e+00 1.6898501093e+00 2.9269062465e+00 
130300 6.3101936396e+00 7.0200051778e-05 1.6898501093e+00 -2.9269062465e+00 1.6898501093e+00 2.9269062465e+00 
130400 6.3101936395e+00 7.0333208453e-05 1.6898501093e+00 -2.9269062465e+00 1.6898501093e+00 2.9269062465e+00 
130500 6.3101936395e+00 7.0466227959e-05 1.6898501093e+00 -2.9269062465e+00 1.6898501093e+00 2.9269062465e+00 
130600 6.3101936394e+00 7.0599121450e-05 1.6898501093e+00 -2.9269062465e+00 1.6898501093e+00 2.9269062465e+00 
130700 6.3101936393e+00 7.0731898822e-05 1.6898501093e+00 -2.9269062465e+00 1.6898501093e+00 2.9269062465e+00 
130800 6.3101936391e+00 6.9000796900e-05 1.6898480165e+00 -2.9269026216e+00 1.6898480165e+00 2.9269026216e+00 
130900 6.3101936390e+00 6.9123826399e-05 1.6898480165e+00 -2.9269026216e+00 1.6898480165e+00 2.9269026216e+00 
131000 6.3101936390e+00 6.9246583209e-05 1.6898480165e+00 -2.9269026216e+00 1.6898480165e+00 2.9269026216e+00 
131100 6.3101936389e+00 6.9369088016e-05 1.6898480165e+00 -2.9269026216e+00 1.6898480165e+00 2.9269026216e+00 
131200 6.3101936388e+00 6.9491360479e-05 1.6898480165e+00 -2.9269026216e+00 1.6898480165e+00 2.9269026216e+00 
131300 6.3101936388e+00 6.9613419206e-05 1.6898480165e+00 -2.9269026216e+00 1.6898480165e+00 2.9269026216e+00 
131400 6.3101936387e+00 6.9735281719e-05 1.6898480165e+00 -2.9269026216e+00 1.6898480165e+00 2.9269026216e+00 
131500 6.3101936387e+00 6.9856964433e-05 1.6898480165e+00 -2.9269026216e+00 1.6898480165e+00 2.9269026216e+00 
131600 6.3101936386e+00 6.9978482638e-05 1.6898480165e+00 -2.9269026216e+00 1.6898480165e+00 2.9269026216e+00 
131700 6.3101936385e+00 7.0099850480e-05 1.6898480165e+00 -2.9269026216e+00 1.6898480165e+00 2.9269026216e+00 
131800 6.3101936385e+00 7.0221080955e-05 1.6898480165e+00 -2.9269026216e+00 1.6898480165e+00 2.9269026216e+00 
131900 6.3101936384e+00 7.0342185904e-05 1.6898480165e+00 -2.9269026216e+00 1.6898480165e+00 2.9269026216e+00 
132000 6.3101936384e+00 7.0463176003e-05 1.6898480165e+00 -2.9269026216e+00 1.6898480165e+00 2.9269026216e+00 
132100 6.3101936383e+00 7.0584060777e-05 1.6898480165e+00 -2.9269026216e+00 1.6898480165e+00 2.9269026216e+00 
132200 6.3101936383e+00 7.0704848594e-05 1.6898480165e+00 -2.9269026216e+00 1.6898480165e+00 2.9269026216e+00 
132300 6.3101936382e+00 7.0825546673e-05 1.6898480165e+00 -2.9269026216e+00 1.6898480165e+00 2.9269026216e+00 
132400 6.3101936380e+00 6.9079908523e-05 1.6898459209e+00 -2.9268989919e+00 1.6898459209e+00 2.9268989919e+00 
132500 6.3101936379e+00 6.9190891146e-05 1.6898459209e+00 -2.9268989919e+00 1.6898459209e+00 2.9268989919e+00 
132600 6.3101936379e+00 6.9301619948e-05 1.6898459209e+00 -2.9268989919e+00 1.6898459209e+00 2.9268989919e+00 
132700 6.3101936378e+00 6.9412113456e-05 1.6898459209e+00 -2.9268989919e+00 1.6898459209e+00 2.9268989919e+00 
132800 6.3101936378e+00 6.9522389308e-05 1.6898459209e+00 -2.9268989919e+00 1.6898459209e+00 2.9268989919e+00 
132900 6.3101936377e+00 6.9632464215e-05 1.6898459209e+00 -2.9268989919e+00 1.6898459209e+00 2.9268989919e+00 
133000 6.3101936377e+00 6.9742353945e-05 1.6898459209e+00 -2.9268989919e+00 1.6898459209e+00 2.9268989919e+00 
133100 6.3101936376e+00 6.9852073289e-05 1.6898459209e+00 -2.9268989919e+00 1.6898459209e+00 2.9268989919e+00 
133200 6.3101936376e+00 6.9961636049e-05 1.6898459209e+00 -2.9268989919e+00 1.6898459209e+00 2.9268989919e+00 
133300 6.3101936376e+00 7.0071055022e-05 1.6898459209e+00 -2.9268989919e+00 1.6898459209e+00 2.9268989919e+00 
133400 6.3101936375e+00 7.0180341987e-05 1.6898459209e+00 -2.9268989919e+00 1.6898459209e+00 2.9268989919e+00 
133500 6.3101936375e+00 7.0289507706e-05 1.6898459209e+00 -2.9268989919e+00 1.6898459209e+00 2.9268989919e+00 
133600 6.3101936374e+00 7.0398561908e-05 1.6898459209e+00 -2.9268989919e+00 1.6898459209e+00 2.9268989919e+00 
133700 6.3101936374e+00 7.0507513303e-05 1.6898459209e+00 -2.9268989919e+00 1.6898459209e+00 2.9268989919e+00 
133800 6.3101936373e+00 7.0616369574e-05 1.6898459209e+00 -2.9268989919e+00 1.6898459209e+00 2.9268989919e+00 
133900 6.3101936373e+00 7.0725137389e-05 1.6898459209e+00 -2.9268989919e+00 1.6898459209e+00 2.9268989919e+00 
134000 6.3101936371e+00 6.8970203082e-05 1.6898438282e+00 -2.9268953673e+00 1.6898438282e+00 2.9268953673e+00 
134100 6.3101936370e+00 6.9069270226e-05 1.6898438282e+00 -2.9268953673e+00 1.6898438282e+00 2.9268953673e+00 
134200 6.3101936370e+00 6.9168084176e-05 1.6898438282e+00 -2.9268953673e+00 1.6898438282e+00 2.9268953673e+00 
134300 6.3101936370e+00 6.9266663373e-05 1.6898438282e+00 -2.9268953673e+00 1.6898438282e+00 2.9268953673e+00 
134400 6.3101936369e+00 6.9365025478e-05 1.6898438282e+00 -2.9268953673e+00 1.6898438282e+00 2.9268953673e+00 
134500 6.3101936369e+00 6.9463187348e-05 1.6898438282e+00 -2.9268953673e+00 1.6898438282e+00 2.9268953673e+00 
134600 6.3101936368e+00 6.9561164992e-05 1.6898438282e+00 -2.9268953673e+00 1.6898438282e+00 2.9268953673e+00 
134700 6.3101936368e+00 6.9658973553e-05 1.6898438282e+00 -2.9268953673e+00 1.6898438282e+00 2.9268953673e+00 
134800 6.3101936368e+00 6.9756627287e-05 1.6898438282e+00 -2.9268953673e+00 1.6898438282e+00 2.9268953673e+00 
134900 6.3101936367e+00 6.9854139539e-05 1.6898438282e+00 -2.9268953673e+00 1.6898438282e+00 2.9268953673e+00 
135000 6.3101936367e+00 6.9951522734e-05 1.6898438282e+00 -2.9268953673e+00 1.6898438282e+00 2.9268953673e+00 
135100 6.3101936366e+00 7.0048788361e-05 1.6898438282e+00 -2.9268953673e+00 1.6898438282e+00 2.9268953673e+00 
135200 6.3101936366e+00 7.0145946970e-05 1.6898438282e+00 -2.9268953673e+00 1.6898438282e+00 2.9268953673e+00 
135300 6.3101936366e+00 7.0243008166e-05 1.6898438282e+00 -2.9268953673e+00 1.6898438282e+00 2.9268953673e+00 
135400 6.3101936365e+00 7.0339980604e-05 1.6898438282e+00 -2.9268953673e+00 1.6898438282e+00 2.9268953673e+00 
135500 6.3101936365e+00 7.0436872004e-05 1.6898438282e+00 -2.9268953673e+00 1.6898438282e+00 2.9268953673e+00 
135600 6.3101936365e+00 7.0533689138e-05 1.6898438282e+00 -2.9268953673e+00 1.6898438282e+00 2.9268953673e+00 
135700 6.3101936364e+00 7.0630437849e-05 1.6898438282e+00 -2.9268953673e+00 1.6898438282e+00 2.9268953673e+00 
135800 6.3101936364e+00 7.0727123054e-05 1.6898438282e+00 -2.9268953673e+00 1.6898438282e+00 2.9268953673e+00 
135900 6.3101936362e+00 6.8960064259e-05 1.6898417355e+00 -2.9268917426e+00 1.6898417355e+00 2.9268917426e+00 
136000 6.3101936362e+00 6.9047093400e-05 1.6898417355e+00 -2.9268917426e+00 1.6898417355e+00 2.9268917426e+00 
136100 6.3101936361e+00 6.9133889649e-05 1.6898417355e+00 -2.9268917426e+00 1.6898417355e+00 2.9268917426e+00 
136200 6.3101936361e+00 6.9220470097e-05 1.6898417355e+00 -2.9268917426e+00 1.6898417355e+00 2.9268917426e+00 
136300 6.3101936361e+00 6.9306851163e-05 1.6898417355e+00 -2.9268917426e+00 1.6898417355e+00 2.9268917426e+00 
136400 6.3101936360e+00 6.9389604002e-05 1.6898417355e+00 -2.9268917426e+00 1.6898417355e+00 2.9268917426e+00 
136400 6.3101936360e+00 6.9389604002e-05 1.6898417355e+00 -2.9268917426e+00 1.6898417355e+00 2.9268917426e+00 
