# step Hamiltonian StressXX CellTensor1 CellTensor2 CellTensor3 CellTensor4 
0 7.1871820163e+00 1.9081798938e-01 2.8378601290e+00 -4.9153179282e+00 2.8378601290e+00 4.9153179282e+00 
100 7.2163687846e+00 2.3721751511e-01 2.8378601290e+00 -4.9153179282e+00 2.8378601290e+00 4.9153179282e+00 
200 7.2423300316e+00 2.7949024928e-01 2.8336816426e+00 -4.9080805774e+00 2.8336816426e+00 4.9080805774e+00 
300 7.2659688147e+00 3.1826774523e-01 2.8287515009e+00 -4.8995413215e+00 2.8287515009e+00 4.8995413215e+00 
400 7.2876553043e+00 3.5399294809e-01 2.8231277823e+00 -4.8898007553e+00 2.8231277823e+00 4.8898007553e+00 
500 7.3076811270e+00 3.8705390489e-01 2.8168605911e+00 -4.8789456616e+00 2.8168605911e+00 4.8789456616e+00 
600 7.3262641098e+00 4.1777447992e-01 2.8099930844e+00 -4.8670507910e+00 2.8099930844e+00 4.8670507910e+00 
700 7.3435495622e+00 4.4639741881e-01 2.8025626427e+00 -4.8541808886e+00 2.8025626427e+00 4.8541808886e+00 
800 7.3596060990e+00 4.7305404591e-01 2.7946023319e+00 -4.8403932259e+00 2.7946023319e+00 4.8403932259e+00 
900 7.3744135656e+00 4.9771269398e-01 2.7861429076e+00 -4.8257410731e+00 2.7861429076e+00 4.8257410731e+00 
1000 7.3878411950e+00 5.2009882614e-01 2.7772157649e+00 -4.8102788084e+00 2.7772157649e+00 4.8102788084e+00 
1100 7.3996181018e+00 5.3959231083e-01 2.7678573711e+00 -4.7940695948e+00 2.7678573711e+00 4.7940695948e+00 
1200 7.4093104119e+00 5.5514945166e-01 2.7581156393e+00 -4.7771964204e+00 2.7581156393e+00 4.7771964204e+00 
1300 7.4163438122e+00 5.6538471490e-01 2.7480578557e+00 -4.7597758282e+00 2.7480578557e+00 4.7597758282e+00 
1400 7.4201331455e+00 5.6902287543e-01 2.7377773107e+00 -4.7419694019e+00 2.7377773107e+00 4.7419694019e+00 
1500 7.4203422410e+00 5.6575927722e-01 2.7273918509e+00 -4.7239812579e+00 2.7273918509e+00 4.7239812579e+00 
1600 7.4171421626e+00 5.5696093624e-01 2.7170266493e+00 -4.7060282021e+00 2.7170266493e+00 4.7060282021e+00 
1700 7.4112154064e+00 5.4530334097e-01 2.7067836611e+00 -4.6882868261e+00 2.7067836611e+00 4.6882868261e+00 
1800 7.4034528996e+00 5.3342712150e-01 2.6967170297e+00 -4.6708509091e+00 2.6967170297e+00 4.6708509091e+00 
1900 7.3946173071e+00 5.2287316449e-01 2.6868327917e+00 -4.6537309066e+00 2.6868327917e+00 4.6537309066e+00 
2000 7.3852096944e+00 5.1401896641e-01 2.6771083975e+00 -4.6368877618e+00 2.6771083975e+00 4.6368877618e+00 
2100 7.3755105503e+00 5.0658222861e-01 2.6675138916e+00 -4.6202695902e+00 2.6675138916e+00 4.6202695902e+00 
2200 7.3656673054e+00 5.0008821145e-01 2.6580241451e+00 -4.6038328671e+00 2.6580241451e+00 4.6038328671e+00 
2300 7.3557601613e+00 4.9410744145e-01 2.6486225717e+00 -4.5875488642e+00 2.6486225717e+00 4.5875488642e+00 
2400 7.3458380733e+00 4.8832499079e-01 2.6393004356e+00 -4.5714024509e+00 2.6393004356e+00 4.5714024509e+00 
2500 7.3359355502e+00 4.8253436244e-01 2.6300548281e+00 -4.5553885890e+00 2.6300548281e+00 4.5553885890e+00 
2600 7.3260799002e+00 4.7661040403e-01 2.6208867137e+00 -4.5395089490e+00 2.6208867137e+00 4.5395089490e+00 
2700 7.3162942700e+00 4.7048298893e-01 2.6117994483e+00 -4.5237693436e+00 2.6117994483e+00 4.5237693436e+00 
2800 7.3065989452e+00 4.6411718465e-01 2.6027977686e+00 -4.5081779771e+00 2.6027977686e+00 4.5081779771e+00 
2900 7.2970119507e+00 4.5749978731e-01 2.5938871396e+00 -4.4927443149e+00 2.5938871396e+00 4.4927443149e+00 
3000 7.2875493710e+00 4.5063064484e-01 2.5850733470e+00 -4.4774783783e+00 2.5850733470e+00 4.4774783783e+00 
3100 7.2782255536e+00 4.4351722633e-01 2.5763622487e+00 -4.4623903135e+00 2.5763622487e+00 4.4623903135e+00 
3200 7.2690532620e+00 4.3617128371e-01 2.5677596262e+00 -4.4474901342e+00 2.5677596262e+00 4.4474901342e+00 
3300 7.2600438029e+00 4.2860682596e-01 2.5592710973e+00 -4.4327875708e+00 2.5592710973e+00 4.4327875708e+00 
3400 7.2512071379e+00 4.2083890417e-01 2.5509020672e+00 -4.4182919856e+00 2.5509020672e+00 4.4182919856e+00 
3500 7.2425519855e+00 4.1288289296e-01 2.5426577022e+00 -4.4040123264e+00 2.5426577022e+00 4.4040123264e+00 
3600 7.2340859136e+00 4.0475407341e-01 2.5345429163e+00 -4.3899571050e+00 2.5345429163e+00 4.3899571050e+00 
3700 7.2258154244e+00 3.9646739802e-01 2.5265623673e+00 -4.3761343886e+00 2.5265623673e+00 4.3761343886e+00 
3800 7.2177460336e+00 3.8803736454e-01 2.5187204559e+00 -4.3625517997e+00 2.5187204559e+00 4.3625517997e+00 
3900 7.2098823421e+00 3.7947795400e-01 2.5110213291e+00 -4.3492165208e+00 2.5110213291e+00 4.3492165208e+00 
4000 7.2022281032e+00 3.7080260597e-01 2.5034688831e+00 -4.3361353007e+00 2.5034688831e+00 4.3361353007e+00 
4100 7.1947862836e+00 3.6202421458e-01 2.4960667690e+00 -4.3233144631e+00 2.4960667690e+00 4.3233144631e+00 
4200 7.1875591204e+00 3.5315513555e-01 2.4888183972e+00 -4.3107599147e+00 2.4888183972e+00 4.3107599147e+00 
4300 7.1805481732e+00 3.4420719839e-01 2.4817269423e+00 -4.2984771545e+00 2.4817269423e+00 4.2984771545e+00 
4400 7.1737543724e+00 3.3519172044e-01 2.4747953489e+00 -4.2864712826e+00 2.4747953489e+00 4.2864712826e+00 
4500 7.1671780640e+00 3.2611952101e-01 2.4680263360e+00 -4.2747470084e+00 2.4680263360e+00 4.2747470084e+00 
4600 7.1608190508e+00 3.1700093457e-01 2.4614224027e+00 -4.2633086604e+00 2.4614224027e+00 4.2633086604e+00 
4700 7.1546766308e+00 3.0784582272e-01 2.4549858327e+00 -4.2521601941e+00 2.4549858327e+00 4.2521601941e+00 
4800 7.1487496330e+00 2.9866358484e-01 2.4487186997e+00 -4.2413052014e+00 2.4487186997e+00 4.2413052014e+00 
4900 7.1430364503e+00 2.8946316751e-01 2.4426228728e+00 -4.2307469194e+00 2.4426228728e+00 4.2307469194e+00 
5000 7.1375350710e+00 2.8025307304e-01 2.4367000212e+00 -4.2204882395e+00 2.4367000212e+00 4.2204882395e+00 
5100 7.1322431073e+00 2.7104136720e-01 2.4309516202e+00 -4.2105317169e+00 2.4309516202e+00 4.2105317169e+00 
5200 7.1271578230e+00 2.6183568655e-01 2.4253789561e+00 -4.2008795796e+00 2.4253789561e+00 4.2008795796e+00 
5300 7.1222761590e+00 2.5264324555e-01 2.4199831324e+00 -4.1915337387e+00 2.4199831324e+00 4.1915337387e+00 
5400 7.1175947570e+00 2.4347084368e-01 2.4147650748e+00 -4.1824957980e+00 2.4147650748e+00 4.1824957980e+00 
5500 7.1131099830e+00 2.3432487288e-01 2.4097255380e+00 -4.1737670641e+00 2.4097255380e+00 4.1737670641e+00 
5600 7.1088179483e+00 2.2521132524e-01 2.4048651107e+00 -4.1653485571e+00 2.4048651107e+00 4.1653485571e+00 
5700 7.1047145305e+00 2.1613580138e-01 2.4001842224e+00 -4.1572410208e+00 2.4001842224e+00 4.1572410208e+00 
5800 7.1007953925e+00 2.0710351934e-01 2.3956831492e+00 -4.1494449332e+00 2.3956831492e+00 4.1494449332e+00 
5900 7.0970560011e+00 1.9811932432e-01 2.3913620200e+00 -4.1419605179e+00 2.3913620200e+00 4.1419605179e+00 
6000 7.0934916449e+00 1.8918769911e-01 2.3872208229e+00 -4.1347877542e+00 2.3872208229e+00 4.1347877542e+00 
6100 7.0900974509e+00 1.8031277531e-01 2.3832594115e+00 -4.1279263884e+00 2.3832594115e+00 4.1279263884e+00 
6200 7.0868684009e+00 1.7149834543e-01 2.3794775111e+00 -4.1213759446e+00 2.3794775111e+00 4.1213759446e+00 
6300 7.0837993466e+00 1.6274787570e-01 2.3758747245e+00 -4.1151357353e+00 2.3758747245e+00 4.1151357353e+00 
6400 7.0808850245e+00 1.5406451970e-01 2.3724505390e+00 -4.1092048720e+00 2.3724505390e+00 4.1092048720e+00 
6500 7.0781200703e+00 1.4545113269e-01 2.3692043316e+00 -4.1035822759e+00 2.3692043316e+00 4.1035822759e+00 
6600 7.0754990323e+00 1.3691028656e-01 2.3661353755e+00 -4.0982666879e+00 2.3661353755e+00 4.0982666879e+00 
6700 7.0730163845e+00 1.2844428541e-01 2.3632428455e+00 -4.0932566790e+00 2.3632428455e+00 4.0932566790e+00 
6800 7.0706665395e+00 1.2005518164e-01 2.3605258238e+00 -4.0885506594e+00 2.3605258238e+00 4.0885506594e+00 
6900 7.0684438605e+00 1.1174479243e-01 2.3579833055e+00 -4.0841468885e+00 2.3579833055e+00 4.0841468885e+00 
7000 7.0663426731e+00 1.0351471663e-01 2.3556142035e+00 -4.0800434835e+00 2.3556142035e+00 4.0800434835e+00 
7100 7.0643572767e+00 9.5366351826e-02 2.3534173537e+00 -4.0762384281e+00 2.3534173537e+00 4.0762384281e+00 
7200 7.0624819557e+00 8.7300911621e-02 2.3513915198e+00 -4.0727295808e+00 2.3513915198e+00 4.0727295808e+00 
7300 7.0607109901e+00 7.9319442938e-02 2.3495353973e+00 -4.0695146822e+00 2.3495353973e+00 4.0695146822e+00 
7400 7.0590386657e+00 7.1422843313e-02 2.3478476181e+00 -4.0665913629e+00 2.3478476181e+00 4.0665913629e+00 
7500 7.0574592847e+00 6.3611878045e-02 2.3463267543e+00 -4.0639571497e+00 2.3463267543e+00 4.0639571497e+00 
7600 7.0559671754e+00 5.5887197127e-02 2.3449713219e+00 -4.0616094717e+00 2.3449713219e+00 4.0616094717e+00 
7700 7.0545567017e+00 4.8249351859e-02 2.3437797836e+00 -4.0595456669e+00 2.3437797836e+00 4.0595456669e+00 
7800 7.0532222727e+00 4.0698811054e-02 2.3427505525e+00 -4.0577629864e+00 2.3427505525e+00 4.0577629864e+00 
7900 7.0519583521e+00 3.3235976748e-02 2.3418819945e+00 -4.0562585998e+00 2.3418819945e+00 4.0562585998e+00 
8000 7.0507594670e+00 2.5861199340e-02 2.3411724306e+00 -4.0550295991e+00 2.3411724306e+00 4.0550295991e+00 
8100 7.0496202170e+00 1.8574792063e-02 2.3406201394e+00 -4.0540730026e+00 2.3406201394e+00 4.0540730026e+00 
8200 7.0485352826e+00 1.1377044732e-02 2.3402233585e+00 -4.0533857579e+00 2.3402233585e+00 4.0533857579e+00 
8300 7.0474994342e+00 4.2682366838e-03 2.3399802866e+00 -4.0529647451e+00 2.3399802866e+00 4.0529647451e+00 
8400 7.0465075403e+00 -2.7513511519e-03 2.3398890848e+00 -4.0528067790e+00 2.3398890848e+00 4.0528067790e+00 
8500 7.0455545756e+00 -9.6814251105e-03 2.3399478774e+00 -4.0529086107e+00 2.3399478774e+00 4.0529086107e+00 
8600 7.0446356293e+00 -1.6521668633e-02 2.3401547531e+00 -4.0532669300e+00 2.3401547531e+00 4.0532669300e+00 
8700 7.0437459128e+00 -2.3271733138e-02 2.3405077657e+00 -4.0538783658e+00 2.3405077657e+00 4.0538783658e+00 
8800 7.0428807672e+00 -2.9931229963e-02 2.3410049347e+00 -4.0547394877e+00 2.3410049347e+00 4.0547394877e+00 
8900 7.0420356713e+00 -3.6499723410e-02 2.3416442455e+00 -4.0558468064e+00 2.3416442455e+00 4.0558468064e+00 
9000 7.0412062482e+00 -4.2976724921e-02 2.3424236497e+00 -4.0571967741e+00 2.3424236497e+00 4.0571967741e+00 
9100 7.0403882728e+00 -4.9361688400e-02 2.3433410655e+00 -4.0587857848e+00 2.3433410655e+00 4.0587857848e+00 
9200 7.0395776780e+00 -5.5654006690e-02 2.3443943774e+00 -4.0606101747e+00 2.3443943774e+00 4.0606101747e+00 
9300 7.0387705616e+00 -6.1853009206e-02 2.3455814367e+00 -4.0626662216e+00 2.3455814367e+00 4.0626662216e+00 
9400 7.0379631916e+00 -6.7957960714e-02 2.3469000607e+00 -4.0649501454e+00 2.3469000607e+00 4.0649501454e+00 
9500 7.0371520128e+00 -7.3968061239e-02 2.3483480334e+00 -4.0674581077e+00 2.3483480334e+00 4.0674581077e+00 
9600 7.0363336512e+00 -7.9882447079e-02 2.3499231049e+00 -4.0701862116e+00 2.3499231049e+00 4.0701862116e+00 
9700 7.0355049193e+00 -8.5700192879e-02 2.3516229918e+00 -4.0731305021e+00 2.3516229918e+00 4.0731305021e+00 
9800 7.0346628203e+00 -9.1420314733e-02 2.3534453769e+00 -4.0762869656e+00 2.3534453769e+00 4.0762869656e+00 
9900 7.0338045518e+00 -9.7041774249e-02 2.3553879093e+00 -4.0796515305e+00 2.3553879093e+00 4.0796515305e+00 
10000 7.0329275095e+00 -1.0256348353e-01 2.3574482049e+00 -4.0832200671e+00 2.3574482049e+00 4.0832200671e+00 
10100 7.0320292893e+00 -1.0798431097e-01 2.3596238464e+00 -4.0869883887e+00 2.3596238464e+00 4.0869883887e+00 
10200 7.0311076901e+00 -1.1330308784e-01 2.3619123838e+00 -4.0909522517e+00 2.3619123838e+00 4.0909522517e+00 
10300 7.0301607147e+00 -1.1851861553e-01 2.3643113348e+00 -4.0951073569e+00 2.3643113348e+00 4.0951073569e+00 
10400 7.0291865711e+00 -1.2362967341e-01 2.3668181860e+00 -4.0994493505e+00 2.3668181860e+00 4.0994493505e+00 
10500 7.0281836723e+00 -1.2863502713e-01 2.3694303931e+00 -4.1039738259e+00 2.3694303931e+00 4.1039738259e+00 
10600 7.0271506359e+00 -1.3353343736e-01 2.3721453824e+00 -4.1086763252e+00 2.3721453824e+00 4.1086763252e+00 
10700 7.0260862831e+00 -1.3832366886e-01 2.3749605516e+00 -4.1135523413e+00 2.3749605516e+00 4.1135523413e+00 
10800 7.0249896363e+00 -1.4300449970e-01 2.3778732716e+00 -4.1185973203e+00 2.3778732716e+00 4.1185973203e+00 
10900 7.0238599169e+00 -1.4757473057e-01 2.3808808877e+00 -4.1238066643e+00 2.3808808877e+00 4.1238066643e+00 
11000 7.0226965415e+00 -1.5203319416e-01 2.3839807216e+00 -4.1291757341e+00 2.3839807216e+00 4.1291757341e+00 
11100 7.0214991183e+00 -1.5637876436e-01 2.3871700729e+00 -4.1346998526e+00 2.3871700729e+00 4.1346998526e+00 
11200 7.0202674420e+00 -1.6061036538e-01 2.3904462215e+00 -4.1403743084e+00 2.3904462215e+00 4.1403743084e+00 
11300 7.0190014884e+00 -1.6472698046e-01 2.3938064295e+00 -4.1461943594e+00 2.3938064295e+00 4.1461943594e+00 
11400 7.0177014085e+00 -1.6872766031e-01 2.3972479439e+00 -4.1521552372e+00 2.3972479439e+00 4.1521552372e+00 
11500 7.0163675215e+00 -1.7261153112e-01 2.4007679987e+00 -4.1582521509e+00 2.4007679987e+00 4.1582521509e+00 
11600 7.0150003080e+00 -1.7637780199e-01 2.4043638177e+00 -4.1644802922e+00 2.4043638177e+00 4.1644802922e+00 
11700 7.0136004017e+00 -1.8002577187e-01 2.4080326173e+00 -4.1708348394e+00 2.4080326173e+00 4.1708348394e+00 
11800 7.0121685812e+00 -1.8355483584e-01 2.4117716089e+00 -4.1773109629e+00 2.4117716089e+00 4.1773109629e+00 
11900 7.0107057615e+00 -1.8696449075e-01 2.4155780023e+00 -4.1839038296e+00 2.4155780023e+00 4.1839038296e+00 
12000 7.0092129845e+00 -1.9025434013e-01 2.4194490082e+00 -4.1906086085e+00 2.4194490082e+00 4.1906086085e+00 
12100 7.0076914094e+00 -1.9342409842e-01 2.4233818413e+00 -4.1974204753e+00 2.4233818413e+00 4.1974204753e+00 
12200 7.0061423033e+00 -1.9647359446e-01 2.4273737236e+00 -4.2043346182e+00 2.4273737236e+00 4.2043346182e+00 
12300 7.0045670308e+00 -1.9940277418e-01 2.4314218868e+00 -4.2113462425e+00 2.4314218868e+00 4.2113462425e+00 
12400 7.0029670437e+00 -2.0221170266e-01 2.4355235757e+00 -4.2184505762e+00 2.4355235757e+00 4.2184505762e+00 
12500 7.0013438709e+00 -2.0490056531e-01 2.4396760514e+00 -4.2256428751e+00 2.4396760514e+00 4.2256428751e+00 
12600 6.9996991077e+00 -2.0746966852e-01 2.4438765937e+00 -4.2329184277e+00 2.4438765937e+00 4.2329184277e+00 
12700 6.9980344057e+00 -2.0991943946e-01 2.4481225041e+00 -4.2402725603e+00 2.4481225041e+00 4.2402725603e+00 
12800 6.9963514618e+00 -2.1225042530e-01 2.4524111090e+00 -4.2477006419e+00 2.4524111090e+00 4.2477006419e+00 
12900 6.9946520088e+00 -2.1446329182e-01 2.4567397621e+00 -4.2551980889e+00 2.4567397621e+00 4.2551980889e+00 
13000 6.9929378044e+00 -2.1655882144e-01 2.4611058469e+00 -4.2627603696e+00 2.4611058469e+00 4.2627603696e+00 
13100 6.9912106220e+00 -2.1853791066e-01 2.4655067797e+00 -4.2703830088e+00 2.4655067797e+00 4.2703830088e+00 
13200 6.9894722404e+00 -2.2040156710e-01 2.4699400116e+00 -4.2780615917e+00 2.4699400116e+00 4.2780615917e+00 
13300 6.9877244351e+00 -2.2215090605e-01 2.4744030309e+00 -4.2857917680e+00 2.4744030309e+00 4.2857917680e+00 
13400 6.9859689690e+00 -2.2378714662e-01 2.4788933656e+00 -4.2935692558e+00 2.4788933656e+00 4.2935692558e+00 
13500 6.9842075836e+00 -2.2531160763e-01 2.4834085848e+00 -4.3013898449e+00 2.4834085848e+00 4.3013898449e+00 
13600 6.9824419912e+00 -2.2672570314e-01 2.4879463012e+00 -4.3092494002e+00 2.4879463012e+00 4.3092494002e+00 
13700 6.9806738668e+00 -2.2803093779e-01 2.4925041725e+00 -4.3171438649e+00 2.4925041725e+00 4.3171438649e+00 
13800 6.9789048410e+00 -2.2922890195e-01 2.4970799033e+00 -4.3250692630e+00 2.4970799033e+00 4.3250692630e+00 
13900 6.9771364933e+00 -2.3032126670e-01 2.5016712461e+00 -4.3330217021e+00 2.5016712461e+00 4.3330217021e+00 
14000 6.9753703457e+00 -2.3130977876e-01 2.5062760033e+00 -4.3409973755e+00 2.5062760033e+00 4.3409973755e+00 
14100 6.9736078570e+00 -2.3219625533e-01 2.5108920278e+00 -4.3489925645e+00 2.5108920278e+00 4.3489925645e+00 
14200 6.9718504175e+00 -2.3298257893e-01 2.5155172245e+00 -4.3570036401e+00 2.5155172245e+00 4.3570036401e+00 
14300 6.9700993447e+00 -2.3367069229e-01 2.5201495508e+00 -4.3650270646e+00 2.5201495508e+00 4.3650270646e+00 
14400 6.9683558789e+00 -2.3426259318e-01 2.5247870177e+00 -4.3730593930e+00 2.5247870177e+00 4.3730593930e+00 
14500 6.9666211797e+00 -2.3476032947e-01 2.5294276904e+00 -4.3810972739e+00 2.5294276904e+00 4.3810972739e+00 
14600 6.9648963230e+00 -2.3516599415e-01 2.5340696887e+00 -4.3891374508e+00 2.5340696887e+00 4.3891374508e+00 
14700 6.9631822988e+00 -2.3548172059e-01 2.5387111876e+00 -4.3971767626e+00 2.5387111876e+00 4.3971767626e+00 
14800 6.9614800088e+00 -2.3570967782e-01 2.5433504173e+00 -4.4052121442e+00 2.5433504173e+00 4.4052121442e+00 
14900 6.9597902655e+00 -2.3585206608e-01 2.5479856638e+00 -4.4132406267e+00 2.5479856638e+00 4.4132406267e+00 
15000 6.9581137911e+00 -2.3591111244e-01 2.5526152687e+00 -4.4212593375e+00 2.5526152687e+00 4.4212593375e+00 
15100 6.9564512169e+00 -2.3588906668e-01 2.5572376292e+00 -4.4292655008e+00 2.5572376292e+00 4.4292655008e+00 
15200 6.9548030838e+00 -2.3578819725e-01 2.5618511983e+00 -4.4372564368e+00 2.5618511983e+00 4.4372564368e+00 
15300 6.9531698426e+00 -2.3561078752e-01 2.5664544840e+00 -4.4452295616e+00 2.5664544840e+00 4.4452295616e+00 
15400 6.9515518548e+00 -2.3535913211e-01 2.5710460499e+00 -4.4531823870e+00 2.5710460499e+00 4.4531823870e+00 
15500 6.9499493942e+00 -2.3503553351e-01 2.5756245140e+00 -4.4611125194e+00 2.5756245140e+00 4.4611125194e+00 
15600 6.9483626489e+00 -2.3464229877e-01 2.5801885489e+00 -4.4690176598e+00 2.5801885489e+00 4.4690176598e+00 
15700 6.9467917228e+00 -2.3418173650e-01 2.5847368811e+00 -4.4768956023e+00 2.5847368811e+00 4.4768956023e+00 
15800 6.9452366386e+00 -2.3365615388e-01 2.5892682906e+00 -4.4847442337e+00 2.5892682906e+00 4.4847442337e+00 
15900 6.9436973404e+00 -2.3306785403e-01 2.5937816100e+00 -4.4925615322e+00 2.5937816100e+00 4.4925615322e+00 
16000 6.9421736967e+00 -2.3241913337e-01 2.5982757243e+00 -4.5003455666e+00 2.5982757243e+00 4.5003455666e+00 
16100 6.9406655038e+00 -2.3171227922e-01 2.6027495701e+00 -4.5080944948e+00 2.6027495701e+00 4.5080944948e+00 
16200 6.9391724894e+00 -2.3094956757e-01 2.6072021347e+00 -4.5158065630e+00 2.6072021347e+00 4.5158065630e+00 
16300 6.9376943164e+00 -2.3013326093e-01 2.6116324557e+00 -4.5234801040e+00 2.6116324557e+00 4.5234801040e+00 
16400 6.9362305866e+00 -2.2926560633e-01 2.6160396199e+00 -4.5311135362e+00 2.6160396199e+00 4.5311135362e+00 
16500 6.9347808450e+00 -2.2834883348e-01 2.6204227626e+00 -4.5387053622e+00 2.6204227626e+00 4.5387053622e+00 
16600 6.9333445843e+00 -2.2738515300e-01 2.6247810672e+00 -4.5462541671e+00 2.6247810672e+00 4.5462541671e+00 
16700 6.9319212486e+00 -2.2637675476e-01 2.6291137636e+00 -4.5537586174e+00 2.6291137636e+00 4.5537586174e+00 
16800 6.9305102383e+00 -2.2532580638e-01 2.6334201280e+00 -4.5612174593e+00 2.6334201280e+00 4.5612174593e+00 
16900 6.9291109145e+00 -2.2423445173e-01 2.6376994815e+00 -4.5686295171e+00 2.6376994815e+00 4.5686295171e+00 
17000 6.9277226036e+00 -2.2310480961e-01 2.6419511899e+00 -4.5759936920e+00 2.6419511899e+00 4.5759936920e+00 
17100 6.9263446014e+00 -2.2193897245e-01 2.6461746620e+00 -4.5833089603e+00 2.6461746620e+00 4.5833089603e+00 
17200 6.9249761782e+00 -2.2073900508e-01 2.6503693492e+00 -4.5905743716e+00 2.6503693492e+00 4.5905743716e+00 
17300 6.9236165828e+00 -2.1950694362e-01 2.6545347445e+00 -4.5977890479e+00 2.6545347445e+00 4.5977890479e+00 
17400 6.9222650474e+00 -2.1824479441e-01 2.6586703814e+00 -4.6049521811e+00 2.6586703814e+00 4.6049521811e+00 
17500 6.9209207915e+00 -2.1695453294e-01 2.6627758332e+00 -4.6120630322e+00 2.6627758332e+00 4.6120630322e+00 
17600 6.9195830264e+00 -2.1563810293e-01 2.6668507118e+00 -4.6191209291e+00 2.6668507118e+00 4.6191209291e+00 
17700 6.9182509597e+00 -2.1429741541e-01 2.6708946672e+00 -4.6261252653e+00 2.6708946672e+00 4.6261252653e+00 
17800 6.9169237988e+00 -2.1293434783e-01 2.6749073859e+00 -4.6330754980e+00 2.6749073859e+00 4.6330754980e+00 
17900 6.9156007552e+00 -2.1155074325e-01 2.6788885906e+00 -4.6399711468e+00 2.6788885906e+00 4.6399711468e+00 
18000 6.9142810483e+00 -2.1014840958e-01 2.6828380388e+00 -4.6468117917e+00 2.6828380388e+00 4.6468117917e+00 
18100 6.9129639089e+00 -2.0872911880e-01 2.6867555222e+00 -4.6535970719e+00 2.6867555222e+00 4.6535970719e+00 
18200 6.9116485829e+00 -2.0729460627e-01 2.6906408653e+00 -4.6603266836e+00 2.6906408653e+00 4.6603266836e+00 
18300 6.9103343344e+00 -2.0584657008e-01 2.6944939250e+00 -4.6670003788e+00 2.6944939250e+00 4.6670003788e+00 
18400 6.9090204489e+00 -2.0438667041e-01 2.6983145893e+00 -4.6736179635e+00 2.6983145893e+00 4.6736179635e+00 
18500 6.9077062362e+00 -2.0291652894e-01 2.7021027765e+00 -4.6801792962e+00 2.7021027765e+00 4.6801792962e+00 
18600 6.9063910333e+00 -2.0143772827e-01 2.7058584342e+00 -4.6866842861e+00 2.7058584342e+00 4.6866842861e+00 
18700 6.9050742069e+00 -1.9995181142e-01 2.7095815382e+00 -4.6931328914e+00 2.7095815382e+00 4.6931328914e+00 
18800 6.9037551556e+00 -1.9846028134e-01 2.7132720920e+00 -4.6995251181e+00 2.7132720920e+00 4.6995251181e+00 
18900 6.9024333120e+00 -1.9696460045e-01 2.7169301255e+00 -4.7058610180e+00 2.7169301255e+00 4.7058610180e+00 
19000 6.9011081450e+00 -1.9546619020e-01 2.7205556943e+00 -4.7121406873e+00 2.7205556943e+00 4.7121406873e+00 
19100 6.8997791611e+00 -1.9396643076e-01 2.7241488784e+00 -4.7183642648e+00 2.7241488784e+00 4.7183642648e+00 
19200 6.8984459059e+00 -1.9246666058e-01 2.7277097819e+00 -4.7245319305e+00 2.7277097819e+00 4.7245319305e+00 
19300 6.8971079659e+00 -1.9096817619e-01 2.7312385315e+00 -4.7306439041e+00 2.7312385315e+00 4.7306439041e+00 
19400 6.8957649688e+00 -1.8947223183e-01 2.7347352759e+00 -4.7367004432e+00 2.7347352759e+00 4.7367004432e+00 
19500 6.8944165851e+00 -1.8798003930e-01 2.7382001850e+00 -4.7427018418e+00 2.7382001850e+00 4.7427018418e+00 
19600 6.8930625282e+00 -1.8649276776e-01 2.7416334487e+00 -4.7486484289e+00 2.7416334487e+00 4.7486484289e+00 
19700 6.8917025554e+00 -1.8501154356e-01 2.7450352762e+00 -4.7545405669e+00 2.7450352762e+00 4.7545405669e+00 
19800 6.8903364676e+00 -1.8353745015e-01 2.7484058950e+00 -4.7603786500e+00 2.7484058950e+00 4.7603786500e+00 
19900 6.8889641100e+00 -1.8207152805e-01 2.7517455503e+00 -4.7661631027e+00 2.7517455503e+00 4.7661631027e+00 
20000 6.8875853714e+00 -1.8061477478e-01 2.7550545039e+00 -4.7718943784e+00 2.7550545039e+00 4.7718943784e+00 
20100 6.8862001844e+00 -1.7916814493e-01 2.7583330334e+00 -4.7775729580e+00 2.7583330334e+00 4.7775729580e+00 
20200 6.8848085246e+00 -1.7773255022e-01 2.7615814313e+00 -4.7831993482e+00 2.7615814313e+00 4.7831993482e+00 
20300 6.8834104104e+00 -1.7630885961e-01 2.7648000042e+00 -4.7887740801e+00 2.7648000042e+00 4.7887740801e+00 
20400 6.8820059019e+00 -1.7489789948e-01 2.7679890723e+00 -4.7942977080e+00 2.7679890723e+00 4.7942977080e+00 
20500 6.8805951001e+00 -1.7350045380e-01 2.7711489680e+00 -4.7997708078e+00 2.7711489680e+00 4.7997708078e+00 
20600 6.8791781458e+00 -1.7211726441e-01 2.7742800353e+00 -4.8051939756e+00 2.7742800353e+00 4.8051939756e+00 
20700 6.8777552186e+00 -1.7074903130e-01 2.7773826296e+00 -4.8105678265e+00 2.7773826296e+00 4.8105678265e+00 
20800 6.8763265355e+00 -1.6939641295e-01 2.7804571158e+00 -4.8158929928e+00 2.7804571158e+00 4.8158929928e+00 
20900 6.8748923496e+00 -1.6806002670e-01 2.7835038686e+00 -4.8211701235e+00 2.7835038686e+00 4.8211701235e+00 
21000 6.8734529482e+00 -1.6674044919e-01 2.7865232711e+00 -4.8263998820e+00 2.7865232711e+00 4.8263998820e+00 
21100 6.8720086520e+00 -1.6543821677e-01 2.7895157144e+00 -4.8315829458e+00 2.7895157144e+00 4.8315829458e+00 
21200 6.8705598126e+00 -1.6415382607e-01 2.7924815965e+00 -4.8367200044e+00 2.7924815965e+00 4.8367200044e+00 
21300 6.8691068112e+00 -1.6288773450e-01 2.7954213221e+00 -4.8418117585e+00 2.7954213221e+00 4.8418117585e+00 
21400 6.8676500569e+00 -1.6164036080e-01 2.7983353014e+00 -4.8468589187e+00 2.7983353014e+00 4.8468589187e+00 
21500 6.8661899844e+00 -1.6041208570e-01 2.8012239499e+00 -4.8518622045e+00 2.8012239499e+00 4.8518622045e+00 
21600 6.8647270526e+00 -1.5920325254e-01 2.8040876871e+00 -4.8568223429e+00 2.8040876871e+00 4.8568223429e+00 
21700 6.8632617423e+00 -1.5801416793e-01 2.8069269365e+00 -4.8617400672e+00 2.8069269365e+00 4.8617400672e+00 
21800 6.8617945544e+00 -1.5684510249e-01 2.8097421247e+00 -4.8666161161e+00 2.8097421247e+00 4.8666161161e+00 
21900 6.8603260078e+00 -1.5569629155e-01 2.8125336806e+00 -4.8714512328e+00 2.8125336806e+00 4.8714512328e+00 
22000 6.8588566379e+00 -1.5456793594e-01 2.8153020351e+00 -4.8762461634e+00 2.8153020351e+00 4.8762461634e+00 
22100 6.8573869936e+00 -1.5346020275e-01 2.8180476202e+00 -4.8810016564e+00 2.8180476202e+00 4.8810016564e+00 
22200 6.8559176366e+00 -1.5237322615e-01 2.8207708689e+00 -4.8857184615e+00 2.8207708689e+00 4.8857184615e+00 
22300 6.8544491382e+00 -1.5130710821e-01 2.8234722142e+00 -4.8903973287e+00 2.8234722142e+00 4.8903973287e+00 
22400 6.8529820785e+00 -1.5026191976e-01 2.8261520886e+00 -4.8950390073e+00 2.8261520886e+00 4.8950390073e+00 
22500 6.8515170434e+00 -1.4923770123e-01 2.8288109238e+00 -4.8996442450e+00 2.8288109238e+00 4.8996442450e+00 
22600 6.8500546236e+00 -1.4823446353e-01 2.8314491502e+00 -4.9042137872e+00 2.8314491502e+00 4.9042137872e+00 
22700 6.8485954122e+00 -1.4725218896e-01 2.8340671962e+00 -4.9087483759e+00 2.8340671962e+00 4.9087483759e+00 
22800 6.8471400032e+00 -1.4629083207e-01 2.8366654879e+00 -4.9132487491e+00 2.8366654879e+00 4.9132487491e+00 
22900 6.8456889896e+00 -1.4535032061e-01 2.8392444486e+00 -4.9177156401e+00 2.8392444486e+00 4.9177156401e+00 
23000 6.8442429618e+00 -1.4443055638e-01 2.8418044983e+00 -4.9221497763e+00 2.8418044983e+00 4.9221497763e+00 
23100 6.8428025060e+00 -1.4353141623e-01 2.8443460536e+00 -4.9265518791e+00 2.8443460536e+00 4.9265518791e+00 
23200 6.8413682024e+00 -1.4265275289e-01 2.8468695267e+00 -4.9309226628e+00 2.8468695267e+00 4.9309226628e+00 
23300 6.8399406239e+00 -1.4179439595e-01 2.8493753258e+00 -4.9352628340e+00 2.8493753258e+00 4.9352628340e+00 
23400 6.8385203348e+00 -1.4095615274e-01 2.8518638539e+00 -4.9395730912e+00 2.8518638539e+00 4.9395730912e+00 
23500 6.8371078889e+00 -1.4013780929e-01 2.8543355093e+00 -4.9438541239e+00 2.8543355093e+00 4.9438541239e+00 
23600 6.8357038290e+00 -1.3933913118e-01 2.8567906846e+00 -4.9481066123e+00 2.8567906846e+00 4.9481066123e+00 
23700 6.8343086848e+00 -1.3855986451e-01 2.8592297666e+00 -4.9523312263e+00 2.8592297666e+00 4.9523312263e+00 
23800 6.8329229727e+00 -1.3779973674e-01 2.8616531364e+00 -4.9565286259e+00 2.8616531364e+00 4.9565286259e+00 
23900 6.8315471938e+00 -1.3705845765e-01 2.8640611683e+00 -4.9606994595e+00 2.8640611683e+00 4.9606994595e+00 
24000 6.8301818338e+00 -1.3633572014e-01 2.8664542305e+00 -4.9648443647e+00 2.8664542305e+00 4.9648443647e+00 
24100 6.8288273612e+00 -1.3563120117e-01 2.8688326839e+00 -4.9689639668e+00 2.8688326839e+00 4.9689639668e+00 
24200 6.8274842274e+00 -1.3494456261e-01 2.8711968826e+00 -4.9730588792e+00 2.8711968826e+00 4.9730588792e+00 
24300 6.8261528653e+00 -1.3427545205e-01 2.8735471734e+00 -4.9771297023e+00 2.8735471734e+00 4.9771297023e+00 
24400 6.8248336887e+00 -1.3362350368e-01 2.8758838957e+00 -4.9811770240e+00 2.8758838957e+00 4.9811770240e+00 
24500 6.8235270922e+00 -1.3298833910e-01 2.8782073810e+00 -4.9852014186e+00 2.8782073810e+00 4.9852014186e+00 
24600 6.8222334500e+00 -1.3236956815e-01 2.8805179532e+00 -4.9892034470e+00 2.8805179532e+00 4.9892034470e+00 
24700 6.8209531158e+00 -1.3176678965e-01 2.8828159279e+00 -4.9931836560e+00 2.8828159279e+00 4.9931836560e+00 
24800 6.8196864227e+00 -1.3117959226e-01 2.8851016130e+00 -4.9971425787e+00 2.8851016130e+00 4.9971425787e+00 
24900 6.8184336824e+00 -1.3060755518e-01 2.8873753077e+00 -5.0010807335e+00 2.8873753077e+00 5.0010807335e+00 
25000 6.8171951851e+00 -1.3005024896e-01 2.8896373031e+00 -5.0049986244e+00 2.8896373031e+00 5.0049986244e+00 
25100 6.8159711997e+00 -1.2950723618e-01 2.8918878817e+00 -5.0088967408e+00 2.8918878817e+00 5.0088967408e+00 
25200 6.8147619731e+00 -1.2897807223e-01 2.8941273173e+00 -5.0127755571e+00 2.8941273173e+00 5.0127755571e+00 
25300 6.8135677309e+00 -1.2846230598e-01 2.8963558753e+00 -5.0166355328e+00 2.8963558753e+00 5.0166355328e+00 
25400 6.8123886765e+00 -1.2795948046e-01 2.8985738121e+00 -5.0204771120e+00 2.8985738121e+00 5.0204771120e+00 
25500 6.8112249922e+00 -1.2746913360e-01 2.9007813755e+00 -5.0243007240e+00 2.9007813755e+00 5.0243007240e+00 
25600 6.8100768386e+00 -1.2699079880e-01 2.9029788043e+00 -5.0281067824e+00 2.9029788043e+00 5.0281067824e+00 
25700 6.8089443548e+00 -1.2652400568e-01 2.9051663286e+00 -5.0318956856e+00 2.9051663286e+00 5.0318956856e+00 
25800 6.8078276593e+00 -1.2606828060e-01 2.9073441695e+00 -5.0356678167e+00 2.9073441695e+00 5.0356678167e+00 
25900 6.8067268494e+00 -1.2562314738e-01 2.9095125392e+00 -5.0394235431e+00 2.9095125392e+00 5.0394235431e+00 
26000 6.8056420022e+00 -1.2518812783e-01 2.9116716409e+00 -5.0431632170e+00 2.9116716409e+00 5.0431632170e+00 
26100 6.8045731748e+00 -1.2476274237e-01 2.9138216691e+00 -5.0468871750e+00 2.9138216691e+00 5.0468871750e+00 
26200 6.8035204043e+00 -1.2434651061e-01 2.9159628092e+00 -5.0505957385e+00 2.9159628092e+00 5.0505957385e+00 
26300 6.8024837087e+00 -1.2393895189e-01 2.9180952378e+00 -5.0542892133e+00 2.9180952378e+00 5.0542892133e+00 
26400 6.8014630874e+00 -1.2353958584e-01 2.9202191228e+00 -5.0579678900e+00 2.9202191228e+00 5.0579678900e+00 
26500 6.8004585213e+00 -1.2314793291e-01 2.9223346231e+00 -5.0616320440e+00 2.9223346231e+00 5.0616320440e+00 
26600 6.7994699736e+00 -1.2276351490e-01 2.9244418890e+00 -5.0652819356e+00 2.9244418890e+00 5.0652819356e+00 
26700 6.7984973903e+00 -1.2238585548e-01 2.9265410620e+00 -5.0689178099e+00 2.9265410620e+00 5.0689178099e+00 
26800 6.7975407008e+00 -1.2201448064e-01 2.9286322751e+00 -5.0725398972e+00 2.9286322751e+00 5.0725398972e+00 
26900 6.7965998183e+00 -1.2164891924e-01 2.9307156527e+00 -5.0761484129e+00 2.9307156527e+00 5.0761484129e+00 
27000 6.7956746406e+00 -1.2128870344e-01 2.9327913106e+00 -5.0797435580e+00 2.9327913106e+00 5.0797435580e+00 
27100 6.7947650509e+00 -1.2093336917e-01 2.9348593566e+00 -5.0833255188e+00 2.9348593566e+00 5.0833255188e+00 
27200 6.7938709178e+00 -1.2058245662e-01 2.9369198899e+00 -5.0868944671e+00 2.9369198899e+00 5.0868944671e+00 
27300 6.7929920967e+00 -1.2023551061e-01 2.9389730017e+00 -5.0904505610e+00 2.9389730017e+00 5.0904505610e+00 
27400 6.7921284298e+00 -1.1989208111e-01 2.9410187749e+00 -5.0939939442e+00 2.9410187749e+00 5.0939939442e+00 
27500 6.7912797472e+00 -1.1955172359e-01 2.9430572849e+00 -5.0975247470e+00 2.9430572849e+00 5.0975247470e+00 
27600 6.7904458672e+00 -1.1921399944e-01 2.9450885988e+00 -5.1010430859e+00 2.9450885988e+00 5.1010430859e+00 
27700 6.7896265975e+00 -1.1887847643e-01 2.9471127764e+00 -5.1045490643e+00 2.9471127764e+00 5.1045490643e+00 
27800 6.7888217351e+00 -1.1854472902e-01 2.9491298696e+00 -5.1080427723e+00 2.9491298696e+00 5.1080427723e+00 
27900 6.7880310675e+00 -1.1821233880e-01 2.9511399233e+00 -5.1115242873e+00 2.9511399233e+00 5.1115242873e+00 
28000 6.7872543734e+00 -1.1788089484e-01 2.9531429747e+00 -5.1149936742e+00 2.9531429747e+00 5.1149936742e+00 
28100 6.7864914230e+00 -1.1754999406e-01 2.9551390542e+00 -5.1184509853e+00 2.9551390542e+00 5.1184509853e+00 
28200 6.7857419787e+00 -1.1721924157e-01 2.9571281852e+00 -5.1218962612e+00 2.9571281852e+00 5.1218962612e+00 
28300 6.7850057961e+00 -1.1688825102e-01 2.9591103841e+00 -5.1253295305e+00 2.9591103841e+00 5.1253295305e+00 
28400 6.7842826242e+00 -1.1655664494e-01 2.9610856610e+00 -5.1287508103e+00 2.9610856610e+00 5.1287508103e+00 
28500 6.7835722062e+00 -1.1622405507e-01 2.9630540192e+00 -5.1321601068e+00 2.9630540192e+00 5.1321601068e+00 
28600 6.7828742802e+00 -1.1589012264e-01 2.9650154561e+00 -5.1355574152e+00 2.9650154561e+00 5.1355574152e+00 
28700 6.7821885798e+00 -1.1555449873e-01 2.9669699627e+00 -5.1389427199e+00 2.9669699627e+00 5.1389427199e+00 
28800 6.7815148344e+00 -1.1521684451e-01 2.9689175242e+00 -5.1423159954e+00 2.9689175242e+00 5.1423159954e+00 
28900 6.7808527700e+00 -1.1487683154e-01 2.9708581202e+00 -5.1456772062e+00 2.9708581202e+00 5.1456772062e+00 
29000 6.7802021100e+00 -1.1453414209e-01 2.9727917245e+00 -5.1490263071e+00 2.9727917245e+00 5.1490263071e+00 
29100 6.7795625753e+00 -1.1418846934e-01 2.9747183059e+00 -5.1523632440e+00 2.9747183059e+00 5.1523632440e+00 
29200 6.7789338851e+00 -1.1383951765e-01 2.9766378278e+00 -5.1556879535e+00 2.9766378278e+00 5.1556879535e+00 
29300 6.7783157574e+00 -1.1348700283e-01 2.9785502489e+00 -5.1590003640e+00 2.9785502489e+00 5.1590003640e+00 
29400 6.7777079095e+00 -1.1313065235e-01 2.9804555230e+00 -5.1623003955e+00 2.9804555230e+00 5.1623003955e+00 
29500 6.7771100585e+00 -1.1277020555e-01 2.9823535995e+00 -5.1655879604e+00 2.9823535995e+00 5.1655879604e+00 
29600 6.7765219217e+00 -1.1240541386e-01 2.9842444234e+00 -5.1688629636e+00 2.9842444234e+00 5.1688629636e+00 
29700 6.7759432174e+00 -1.1203604101e-01 2.9861279359e+00 -5.1721253028e+00 2.9861279359e+00 5.1721253028e+00 
29800 6.7753736648e+00 -1.1166186317e-01 2.9880040739e+00 -5.1753748692e+00 2.9880040739e+00 5.1753748692e+00 
29900 6.7748129849e+00 -1.1128266916e-01 2.9898727710e+00 -5.1786115476e+00 2.9898727710e+00 5.1786115476e+00 
30000 6.7742609009e+00 -1.1089826058e-01 2.9917339574e+00 -5.1818352169e+00 2.9917339574e+00 5.1818352169e+00 
30100 6.7737171383e+00 -1.1050845197e-01 2.9935875598e+00 -5.1850457504e+00 2.9935875598e+00 5.1850457504e+00 
30200 6.7731814256e+00 -1.1011307094e-01 2.9954335021e+00 -5.1882430163e+00 2.9954335021e+00 5.1882430163e+00 
30300 6.7726534945e+00 -1.0971195825e-01 2.9972717056e+00 -5.1914268781e+00 2.9972717056e+00 5.1914268781e+00 
30400 6.7721330805e+00 -1.0930496796e-01 2.9991020888e+00 -5.1945971949e+00 2.9991020888e+00 5.1945971949e+00 
30500 6.7716199228e+00 -1.0889196746e-01 3.0009245681e+00 -5.1977538217e+00 3.0009245681e+00 5.1977538217e+00 
30600 6.7711137651e+00 -1.0847283758e-01 3.0027390578e+00 -5.2008966100e+00 3.0027390578e+00 5.2008966100e+00 
30700 6.7706143559e+00 -1.0804747264e-01 3.0045454703e+00 -5.2040254082e+00 3.0045454703e+00 5.2040254082e+00 
30800 6.7701214483e+00 -1.0761578045e-01 3.0063437164e+00 -5.2071400618e+00 3.0063437164e+00 5.2071400618e+00 
30900 6.7696348009e+00 -1.0717768235e-01 3.0081337055e+00 -5.2102404139e+00 3.0081337055e+00 5.2102404139e+00 
31000 6.7691541777e+00 -1.0673311322e-01 3.0099153460e+00 -5.2133263057e+00 3.0099153460e+00 5.2133263057e+00 
31100 6.7686793485e+00 -1.0628202146e-01 3.0116885451e+00 -5.2163975767e+00 3.0116885451e+00 5.2163975767e+00 
31200 6.7682100892e+00 -1.0582436894e-01 3.0134532095e+00 -5.2194540652e+00 3.0134532095e+00 5.2194540652e+00 
31300 6.7677461817e+00 -1.0536013097e-01 3.0152092454e+00 -5.2224956085e+00 3.0152092454e+00 5.2224956085e+00 
31400 6.7672874146e+00 -1.0488929620e-01 3.0169565587e+00 -5.2255220438e+00 3.0169565587e+00 5.2255220438e+00 
31500 6.7668335831e+00 -1.0441186656e-01 3.0186950551e+00 -5.2285332079e+00 3.0186950551e+00 5.2285332079e+00 
31600 6.7663844891e+00 -1.0392785714e-01 3.0204246407e+00 -5.2315289381e+00 3.0204246407e+00 5.2315289381e+00 
31700 6.7659399417e+00 -1.0343729605e-01 3.0221452219e+00 -5.2345090722e+00 3.0221452219e+00 5.2345090722e+00 
31800 6.7654997569e+00 -1.0294022430e-01 3.0238567057e+00 -5.2374734491e+00 3.0238567057e+00 5.2374734491e+00 
31900 6.7650637583e+00 -1.0243669560e-01 3.0255589999e+00 -5.2404219092e+00 3.0255589999e+00 5.2404219092e+00 
32000 6.7646317765e+00 -1.0192677620e-01 3.0272520134e+00 -5.2433542945e+00 3.0272520134e+00 5.2433542945e+00 
32100 6.7642036500e+00 -1.0141054466e-01 3.0289356562e+00 -5.2462704493e+00 3.0289356562e+00 5.2462704493e+00 
32200 6.7637792247e+00 -1.0088809167e-01 3.0306098396e+00 -5.2491702202e+00 3.0306098396e+00 5.2491702202e+00 
32300 6.7633583541e+00 -1.0035951974e-01 3.0322744769e+00 -5.2520534565e+00 3.0322744769e+00 5.2520534565e+00 
32400 6.7629408995e+00 -9.9824942996e-02 3.0339294828e+00 -5.2549200108e+00 3.0339294828e+00 5.2549200108e+00 
32500 6.7625267299e+00 -9.9284486848e-02 3.0355747742e+00 -5.2577697390e+00 3.0355747742e+00 5.2577697390e+00 
32600 6.7621157221e+00 -9.8738287725e-02 3.0372102700e+00 -5.2606025009e+00 3.0372102700e+00 5.2606025009e+00 
32700 6.7617077607e+00 -9.8186492733e-02 3.0388358916e+00 -5.2634181600e+00 3.0388358916e+00 5.2634181600e+00 
32800 6.7613027381e+00 -9.7629259324e-02 3.0404515627e+00 -5.2662165845e+00 3.0404515627e+00 5.2662165845e+00 
32900 6.7609005541e+00 -9.7066754935e-02 3.0420572098e+00 -5.2689976469e+00 3.0420572098e+00 5.2689976469e+00 
33000 6.7605011167e+00 -9.6499156616e-02 3.0436527622e+00 -5.2717612248e+00 3.0436527622e+00 5.2717612248e+00 
33100 6.7601043411e+00 -9.5926650635e-02 3.0452381522e+00 -5.2745072007e+00 3.0452381522e+00 5.2745072007e+00 
33200 6.7597101503e+00 -9.5349432076e-02 3.0468133149e+00 -5.2772354627e+00 3.0468133149e+00 5.2772354627e+00 
33300 6.7593184746e+00 -9.4767704412e-02 3.0483781891e+00 -5.2799459042e+00 3.0483781891e+00 5.2799459042e+00 
33400 6.7589292517e+00 -9.4181679068e-02 3.0499327166e+00 -5.2826384248e+00 3.0499327166e+00 5.2826384248e+00 
33500 6.7585424265e+00 -9.3591574972e-02 3.0514768428e+00 -5.2853129299e+00 3.0514768428e+00 5.2853129299e+00 
33600 6.7581579510e+00 -9.2997618086e-02 3.0530105168e+00 -5.2879693311e+00 3.0530105168e+00 5.2879693311e+00 
33700 6.7577757840e+00 -9.2400040931e-02 3.0545336911e+00 -5.2906075464e+00 3.0545336911e+00 5.2906075464e+00 
33800 6.7573958913e+00 -9.1799082103e-02 3.0560463224e+00 -5.2932275006e+00 3.0560463224e+00 5.2932275006e+00 
33900 6.7570182449e+00 -9.1194985768e-02 3.0575483709e+00 -5.2958291250e+00 3.0575483709e+00 5.2958291250e+00 
34000 6.7566428234e+00 -9.0588001160e-02 3.0590398010e+00 -5.2984123578e+00 3.0590398010e+00 5.2984123578e+00 
34100 6.7562696116e+00 -8.9978382064e-02 3.0605205811e+00 -5.3009771441e+00 3.0605205811e+00 5.3009771441e+00 
34200 6.7558985999e+00 -8.9366386298e-02 3.0619906837e+00 -5.3035234364e+00 3.0619906837e+00 5.3035234364e+00 
34300 6.7555297847e+00 -8.8752275182e-02 3.0634500853e+00 -5.3060511941e+00 3.0634500853e+00 5.3060511941e+00 
34400 6.7551631676e+00 -8.8136313007e-02 3.0648987667e+00 -5.3085603840e+00 3.0648987667e+00 5.3085603840e+00 
34500 6.7547987556e+00 -8.7518766506e-02 3.0663367131e+00 -5.3110509802e+00 3.0663367131e+00 5.3110509802e+00 
34600 6.7544365603e+00 -8.6899904315e-02 3.0677639137e+00 -5.3135229641e+00 3.0677639137e+00 5.3135229641e+00 
34700 6.7540765981e+00 -8.6279996438e-02 3.0691803621e+00 -5.3159763248e+00 3.0691803621e+00 5.3159763248e+00 
34800 6.7537188897e+00 -8.5659313713e-02 3.0705860563e+00 -5.3184110585e+00 3.0705860563e+00 5.3184110585e+00 
34900 6.7533634599e+00 -8.5038127281e-02 3.0719809984e+00 -5.3208271691e+00 3.0719809984e+00 5.3208271691e+00 
35000 6.7530103370e+00 -8.4416708057e-02 3.0733651950e+00 -5.3232246679e+00 3.0733651950e+00 5.3232246679e+00 
35100 6.7526595530e+00 -8.3795326210e-02 3.0747386567e+00 -5.3256035735e+00 3.0747386567e+00 5.3256035735e+00 
35200 6.7523111428e+00 -8.3174250643e-02 3.0761013988e+00 -5.3279639119e+00 3.0761013988e+00 5.3279639119e+00 
35300 6.7519651442e+00 -8.2553748490e-02 3.0774534404e+00 -5.3303057166e+00 3.0774534404e+00 5.3303057166e+00 
35400 6.7516215976e+00 -8.1934084612e-02 3.0787948050e+00 -5.3326290283e+00 3.0787948050e+00 5.3326290283e+00 
35500 6.7512805452e+00 -8.1315521114e-02 3.0801255202e+00 -5.3349338947e+00 3.0801255202e+00 5.3349338947e+00 
35600 6.7509420315e+00 -8.0698316865e-02 3.0814456178e+00 -5.3372203708e+00 3.0814456178e+00 5.3372203708e+00 
35700 6.7506061022e+00 -8.0082727034e-02 3.0827551336e+00 -5.3394885186e+00 3.0827551336e+00 5.3394885186e+00 
35800 6.7502728045e+00 -7.9469002646e-02 3.0840541071e+00 -5.3417384068e+00 3.0840541071e+00 5.3417384068e+00 
35900 6.7499421864e+00 -7.8857390141e-02 3.0853425821e+00 -5.3439701110e+00 3.0853425821e+00 5.3439701110e+00 
36000 6.7496142964e+00 -7.8248130960e-02 3.0866206060e+00 -5.3461837134e+00 3.0866206060e+00 5.3461837134e+00 
36100 6.7492891836e+00 -7.7641461142e-02 3.0878882300e+00 -5.3483793024e+00 3.0878882300e+00 5.3483793024e+00 
36200 6.7489668969e+00 -7.7037610944e-02 3.0891455088e+00 -5.3505569732e+00 3.0891455088e+00 5.3505569732e+00 
36300 6.7486474852e+00 -7.6436804475e-02 3.0903925007e+00 -5.3527168266e+00 3.0903925007e+00 5.3527168266e+00 
36400 6.7483309968e+00 -7.5839259353e-02 3.0916292676e+00 -5.3548589696e+00 3.0916292676e+00 5.3548589696e+00 
36500 6.7480174792e+00 -7.5245186379e-02 3.0928558744e+00 -5.3569835150e+00 3.0928558744e+00 5.3569835150e+00 
36600 6.7477069789e+00 -7.4654789239e-02 3.0940723895e+00 -5.3590905809e+00 3.0940723895e+00 5.3590905809e+00 
36700 6.7473995412e+00 -7.4068264218e-02 3.0952788842e+00 -5.3611802911e+00 3.0952788842e+00 5.3611802911e+00 
36800 6.7470952101e+00 -7.3485799943e-02 3.0964754328e+00 -5.3632527741e+00 3.0964754328e+00 5.3632527741e+00 
36900 6.7467940275e+00 -7.2907577147e-02 3.0976621126e+00 -5.3653081636e+00 3.0976621126e+00 5.3653081636e+00 
37000 6.7464960340e+00 -7.2333768453e-02 3.0988390032e+00 -5.3673465980e+00 3.0988390032e+00 5.3673465980e+00 
37100 6.7462012678e+00 -7.1764538182e-02 3.1000061872e+00 -5.3693682201e+00 3.1000061872e+00 5.3693682201e+00 
37200 6.7459097649e+00 -7.1200042190e-02 3.1011637495e+00 -5.3713731767e+00 3.1011637495e+00 5.3713731767e+00 
37300 6.7456215591e+00 -7.0640427716e-02 3.1023117771e+00 -5.3733616189e+00 3.1023117771e+00 5.3733616189e+00 
37400 6.7453366816e+00 -7.0085833262e-02 3.1034503594e+00 -5.3753337013e+00 3.1034503594e+00 5.3753337013e+00 
37500 6.7450551611e+00 -6.9536388494e-02 3.1045795878e+00 -5.3772895821e+00 3.1045795878e+00 5.3772895821e+00 
37600 6.7447770235e+00 -6.8992214168e-02 3.1056995553e+00 -5.3792294228e+00 3.1056995553e+00 5.3792294228e+00 
37700 6.7445022921e+00 -6.8453422069e-02 3.1068103570e+00 -5.3811533878e+00 3.1068103570e+00 5.3811533878e+00 
37800 6.7442309871e+00 -6.7920114984e-02 3.1079120893e+00 -5.3830616441e+00 3.1079120893e+00 5.3830616441e+00 
37900 6.7439631258e+00 -6.7392386689e-02 3.1090048501e+00 -5.3849543614e+00 3.1090048501e+00 5.3849543614e+00 
38000 6.7436987228e+00 -6.6870321962e-02 3.1100887388e+00 -5.3868317116e+00 3.1100887388e+00 5.3868317116e+00 
38100 6.7434377896e+00 -6.6353996612e-02 3.1111638556e+00 -5.3886938685e+00 3.1111638556e+00 5.3886938685e+00 
38200 6.7431803346e+00 -6.5843477531e-02 3.1122303019e+00 -5.3905410078e+00 3.1122303019e+00 5.3905410078e+00 
38300 6.7429263633e+00 -6.5338822766e-02 3.1132881800e+00 -5.3923733064e+00 3.1132881800e+00 5.3923733064e+00 
38400 6.7426758784e+00 -6.4840081610e-02 3.1143375929e+00 -5.3941909428e+00 3.1143375929e+00 5.3941909428e+00 
38500 6.7424288795e+00 -6.4347294707e-02 3.1153786440e+00 -5.3959940962e+00 3.1153786440e+00 5.3959940962e+00 
38600 6.7421853634e+00 -6.3860494181e-02 3.1164114374e+00 -5.3977829468e+00 3.1164114374e+00 5.3977829468e+00 
38700 6.7419453240e+00 -6.3379703776e-02 3.1174360773e+00 -5.3995576752e+00 3.1174360773e+00 5.3995576752e+00 
38800 6.7417087525e+00 -6.2904939016e-02 3.1184526683e+00 -5.4013184624e+00 3.1184526683e+00 5.4013184624e+00 
38900 6.7414756374e+00 -6.2436207378e-02 3.1194613148e+00 -5.4030654894e+00 3.1194613148e+00 5.4030654894e+00 
39000 6.7412459648e+00 -6.1973508475e-02 3.1204621213e+00 -5.4047989372e+00 3.1204621213e+00 5.4047989372e+00 
39100 6.7410197180e+00 -6.1516834264e-02 3.1214551921e+00 -5.4065189862e+00 3.1214551921e+00 5.4065189862e+00 
39200 6.7407968781e+00 -6.1066169254e-02 3.1224406310e+00 -5.4082258165e+00 3.1224406310e+00 5.4082258165e+00 
39300 6.7405774239e+00 -6.0621490729e-02 3.1234185416e+00 -5.4099196074e+00 3.1234185416e+00 5.4099196074e+00 
39400 6.7403613319e+00 -6.0182768989e-02 3.1243890268e+00 -5.4116005370e+00 3.1243890268e+00 5.4116005370e+00 
39500 6.7401485768e+00 -5.9749967587e-02 3.1253521889e+00 -5.4132687827e+00 3.1253521889e+00 5.4132687827e+00 
39600 6.7399391311e+00 -5.9323043589e-02 3.1263081293e+00 -5.4149245201e+00 3.1263081293e+00 5.4149245201e+00 
39700 6.7397329657e+00 -5.8901947830e-02 3.1272569489e+00 -5.4165679237e+00 3.1272569489e+00 5.4165679237e+00 
39800 6.7395300498e+00 -5.8486625184e-02 3.1281987471e+00 -5.4181991662e+00 3.1281987471e+00 5.4181991662e+00 
39900 6.7393303510e+00 -5.8077014839e-02 3.1291336228e+00 -5.4198184183e+00 3.1291336228e+00 5.4198184183e+00 
40000 6.7391338356e+00 -5.7673050574e-02 3.1300616733e+00 -5.4214258490e+00 3.1300616733e+00 5.4214258490e+00 
40100 6.7389404685e+00 -5.7274661043e-02 3.1309829951e+00 -5.4230216252e+00 3.1309829951e+00 5.4230216252e+00 
40200 6.7387502136e+00 -5.6881770060e-02 3.1318976831e+00 -5.4246059112e+00 3.1318976831e+00 5.4246059112e+00 
40300 6.7385630337e+00 -5.6494296891e-02 3.1328058308e+00 -5.4261788693e+00 3.1328058308e+00 5.4261788693e+00 
40400 6.7383788907e+00 -5.6112156545e-02 3.1337075306e+00 -5.4277406591e+00 3.1337075306e+00 5.4277406591e+00 
40500 6.7381977458e+00 -5.5735260061e-02 3.1346028731e+00 -5.4292914377e+00 3.1346028731e+00 5.4292914377e+00 
40600 6.7380195597e+00 -5.5363514806e-02 3.1354919473e+00 -5.4308313595e+00 3.1354919473e+00 5.4308313595e+00 
40700 6.7378442922e+00 -5.4996824761e-02 3.1363748409e+00 -5.4323605759e+00 3.1363748409e+00 5.4323605759e+00 
40800 6.7376719032e+00 -5.4635090815e-02 3.1372516395e+00 -5.4338792358e+00 3.1372516395e+00 5.4338792358e+00 
40900 6.7375023519e+00 -5.4278211052e-02 3.1381224275e+00 -5.4353874847e+00 3.1381224275e+00 5.4353874847e+00 
41000 6.7373355975e+00 -5.3926081036e-02 3.1389872870e+00 -5.4368854654e+00 3.1389872870e+00 5.4368854654e+00 
41100 6.7371715991e+00 -5.3578594094e-02 3.1398462988e+00 -5.4383733175e+00 3.1398462988e+00 5.4383733175e+00 
41200 6.7370103158e+00 -5.3235641591e-02 3.1406995415e+00 -5.4398511772e+00 3.1406995415e+00 5.4398511772e+00 
41300 6.7368517067e+00 -5.2897113210e-02 3.1415470921e+00 -5.4413191779e+00 3.1415470921e+00 5.4413191779e+00 
41400 6.7366957312e+00 -5.2562897216e-02 3.1423890256e+00 -5.4427774495e+00 3.1423890256e+00 5.4427774495e+00 
41500 6.7365423490e+00 -5.2232880723e-02 3.1432254152e+00 -5.4442261187e+00 3.1432254152e+00 5.4442261187e+00 
41600 6.7363915200e+00 -5.1906949948e-02 3.1440563321e+00 -5.4456653090e+00 3.1440563321e+00 5.4456653090e+00 
41700 6.7362432044e+00 -5.1584990466e-02 3.1448818456e+00 -5.4470951404e+00 3.1448818456e+00 5.4470951404e+00 
41800 6.7360973631e+00 -5.1266887452e-02 3.1457020232e+00 -5.4485157296e+00 3.1457020232e+00 5.4485157296e+00 
41900 6.7359539573e+00 -5.0952525922e-02 3.1465169303e+00 -5.4499271902e+00 3.1465169303e+00 5.4499271902e+00 
42000 6.7358129487e+00 -5.0641790957e-02 3.1473266306e+00 -5.4513296321e+00 3.1473266306e+00 5.4513296321e+00 
42100 6.7356742999e+00 -5.0334567933e-02 3.1481311856e+00 -5.4527231623e+00 3.1481311856e+00 5.4527231623e+00 
42200 6.7355379738e+00 -5.0030742730e-02 3.1489306551e+00 -5.4541078841e+00 3.1489306551e+00 5.4541078841e+00 
42300 6.7354039339e+00 -4.9730201940e-02 3.1497250969e+00 -5.4554838977e+00 3.1497250969e+00 5.4554838977e+00 
42400 6.7352721446e+00 -4.9432833065e-02 3.1505145671e+00 -5.4568513001e+00 3.1505145671e+00 5.4568513001e+00 
42500 6.7351425709e+00 -4.9138524705e-02 3.1512991196e+00 -5.4582101850e+00 3.1512991196e+00 5.4582101850e+00 
42600 6.7350151784e+00 -4.8847166739e-02 3.1520788068e+00 -5.4595606428e+00 3.1520788068e+00 5.4595606428e+00 
42700 6.7348899336e+00 -4.8558650500e-02 3.1528536790e+00 -5.4609027609e+00 3.1528536790e+00 5.4609027609e+00 
42800 6.7347668033e+00 -4.8272868929e-02 3.1536237850e+00 -5.4622366235e+00 3.1536237850e+00 5.4622366235e+00 
42900 6.7346457555e+00 -4.7989716738e-02 3.1543891715e+00 -5.4635623118e+00 3.1543891715e+00 5.4635623118e+00 
43000 6.7345267586e+00 -4.7709090547e-02 3.1551498836e+00 -5.4648799039e+00 3.1551498836e+00 5.4648799039e+00 
43100 6.7344097817e+00 -4.7430889023e-02 3.1559059649e+00 -5.4661894751e+00 3.1559059649e+00 5.4661894751e+00 
43200 6.7342947947e+00 -4.7155013007e-02 3.1566574571e+00 -5.4674910977e+00 3.1566574571e+00 5.4674910977e+00 
43300 6.7341817681e+00 -4.6881365626e-02 3.1574044002e+00 -5.4687848412e+00 3.1574044002e+00 5.4687848412e+00 
43400 6.7340706729e+00 -4.6609852407e-02 3.1581468328e+00 -5.4700707722e+00 3.1581468328e+00 5.4700707722e+00 
43500 6.7339614811e+00 -4.6340381373e-02 3.1588847920e+00 -5.4713489550e+00 3.1588847920e+00 5.4713489550e+00 
43600 6.7338541649e+00 -4.6072863132e-02 3.1596183131e+00 -5.4726194508e+00 3.1596183131e+00 5.4726194508e+00 
43700 6.7337486972e+00 -4.5807210962e-02 3.1603474302e+00 -5.4738823187e+00 3.1603474302e+00 5.4738823187e+00 
43800 6.7336450517e+00 -4.5543340879e-02 3.1610721759e+00 -5.4751376150e+00 3.1610721759e+00 5.4751376150e+00 
43900 6.7335432023e+00 -4.5281171705e-02 3.1617925813e+00 -5.4763853938e+00 3.1617925813e+00 5.4763853938e+00 
44000 6.7334431236e+00 -4.5020625123e-02 3.1625086763e+00 -5.4776257068e+00 3.1625086763e+00 5.4776257068e+00 
44100 6.7333447906e+00 -4.4761625725e-02 3.1632204896e+00 -5.4788586036e+00 3.1632204896e+00 5.4788586036e+00 
44200 6.7332481788e+00 -4.4504101048e-02 3.1639280485e+00 -5.4800841315e+00 3.1639280485e+00 5.4800841315e+00 
44300 6.7331532641e+00 -4.4247981610e-02 3.1646313791e+00 -5.4813023358e+00 3.1646313791e+00 5.4813023358e+00 
44400 6.7330600227e+00 -4.3993200935e-02 3.1653305065e+00 -5.4825132600e+00 3.1653305065e+00 5.4825132600e+00 
44500 6.7329684314e+00 -4.3739695563e-02 3.1660254546e+00 -5.4837169455e+00 3.1660254546e+00 5.4837169455e+00 
44600 6.7328784670e+00 -4.3487405068e-02 3.1667162464e+00 -5.4849134319e+00 3.1667162464e+00 5.4849134319e+00 
44700 6.7327901070e+00 -4.3236272055e-02 3.1674029037e+00 -5.4861027572e+00 3.1674029037e+00 5.4861027572e+00 
44800 6.7327033289e+00 -4.2986242158e-02 3.1680854475e+00 -5.4872849578e+00 3.1680854475e+00 5.4872849578e+00 
44900 6.7326181106e+00 -4.2737264029e-02 3.1687638979e+00 -5.4884600683e+00 3.1687638979e+00 5.4884600683e+00 
45000 6.7325344302e+00 -4.2489289319e-02 3.1694382741e+00 -5.4896281222e+00 3.1694382741e+00 5.4896281222e+00 
45100 6.7324522661e+00 -4.2242272661e-02 3.1701085945e+00 -5.4907891513e+00 3.1701085945e+00 5.4907891513e+00 
45200 6.7323715967e+00 -4.1996171634e-02 3.1707748770e+00 -5.4919431863e+00 3.1707748770e+00 5.4919431863e+00 
45300 6.7322924008e+00 -4.1750946736e-02 3.1714371383e+00 -5.4930902566e+00 3.1714371383e+00 5.4930902566e+00 
45400 6.7322146572e+00 -4.1506561338e-02 3.1720953949e+00 -5.4942303905e+00 3.1720953949e+00 5.4942303905e+00 
45500 6.7321383449e+00 -4.1262981646e-02 3.1727496626e+00 -5.4953636153e+00 3.1727496626e+00 5.4953636153e+00 
45600 6.7320634431e+00 -4.1020176648e-02 3.1733999564e+00 -5.4964899573e+00 3.1733999564e+00 5.4964899573e+00 
45700 6.7319899311e+00 -4.0778118061e-02 3.1740462911e+00 -5.4976094418e+00 3.1740462911e+00 5.4976094418e+00 
45800 6.7319177883e+00 -4.0536780278e-02 3.1746886808e+00 -5.4987220934e+00 3.1746886808e+00 5.4987220934e+00 
45900 6.7318469940e+00 -4.0296140299e-02 3.1753271393e+00 -5.4998279359e+00 3.1753271393e+00 5.4998279359e+00 
46000 6.7317775278e+00 -4.0056177674e-02 3.1759616799e+00 -5.5009269925e+00 3.1759616799e+00 5.5009269925e+00 
46100 6.7317093694e+00 -3.9816874429e-02 3.1765923157e+00 -5.5020192858e+00 3.1765923157e+00 5.5020192858e+00 
46200 6.7316424985e+00 -3.9578214996e-02 3.1772190594e+00 -5.5031048377e+00 3.1772190594e+00 5.5031048377e+00 
46300 6.7315768948e+00 -3.9340186142e-02 3.1778419234e+00 -5.5041836698e+00 3.1778419234e+00 5.5041836698e+00 
46400 6.7315125383e+00 -3.9102776887e-02 3.1784609200e+00 -5.5052558033e+00 3.1784609200e+00 5.5052558033e+00 
46500 6.7314494087e+00 -3.8865978428e-02 3.1790760611e+00 -5.5063212589e+00 3.1790760611e+00 5.5063212589e+00 
46600 6.7313874862e+00 -3.8629784060e-02 3.1796873585e+00 -5.5073800572e+00 3.1796873585e+00 5.5073800572e+00 
46700 6.7313267506e+00 -3.8394189085e-02 3.1802948241e+00 -5.5084322184e+00 3.1802948241e+00 5.5084322184e+00 
46800 6.7312671823e+00 -3.8159190736e-02 3.1808984695e+00 -5.5094777629e+00 3.1808984695e+00 5.5094777629e+00 
46900 6.7312087613e+00 -3.7924788087e-02 3.1814983061e+00 -5.5105167104e+00 3.1814983061e+00 5.5105167104e+00 
47000 6.7311514680e+00 -3.7690981964e-02 3.1820943456e+00 -5.5115490811e+00 3.1820943456e+00 5.5115490811e+00 
47100 6.7310952827e+00 -3.7457774861e-02 3.1826865994e+00 -5.5125748948e+00 3.1826865994e+00 5.5125748948e+00 
47200 6.7310401859e+00 -3.7225170848e-02 3.1832750791e+00 -5.5135941715e+00 3.1832750791e+00 5.5135941715e+00 
47300 6.7309861581e+00 -3.6993175485e-02 3.1838597963e+00 -5.5146069313e+00 3.1838597963e+00 5.5146069313e+00 
47400 6.7309331800e+00 -3.6761795728e-02 3.1844407625e+00 -5.5156131944e+00 3.1844407625e+00 5.5156131944e+00 
47500 6.7308812324e+00 -3.6531039842e-02 3.1850179895e+00 -5.5166129809e+00 3.1850179895e+00 5.5166129809e+00 
47600 6.7308302962e+00 -3.6300917312e-02 3.1855914892e+00 -5.5176063115e+00 3.1855914892e+00 5.5176063115e+00 
47700 6.7307803524e+00 -3.6071438755e-02 3.1861612735e+00 -5.5185932068e+00 3.1861612735e+00 5.5185932068e+00 
47800 6.7307313823e+00 -3.5842615825e-02 3.1867273545e+00 -5.5195736879e+00 3.1867273545e+00 5.5195736879e+00 
47900 6.7306833672e+00 -3.5614461134e-02 3.1872897445e+00 -5.5205477759e+00 3.1872897445e+00 5.5205477759e+00 
48000 6.7306362886e+00 -3.5386988158e-02 3.1878484558e+00 -5.5215154924e+00 3.1878484558e+00 5.5215154924e+00 
48100 6.7305901282e+00 -3.5160211154e-02 3.1884035013e+00 -5.5224768593e+00 3.1884035013e+00 5.5224768593e+00 
48200 6.7305448679e+00 -3.4934145075e-02 3.1889548936e+00 -5.5234318988e+00 3.1889548936e+00 5.5234318988e+00 
48300 6.7305004897e+00 -3.4708805487e-02 3.1895026459e+00 -5.5243806335e+00 3.1895026459e+00 5.5243806335e+00 
48400 6.7304569760e+00 -3.4484208483e-02 3.1900467713e+00 -5.5253230865e+00 3.1900467713e+00 5.5253230865e+00 
48500 6.7304143093e+00 -3.4260370609e-02 3.1905872835e+00 -5.5262592810e+00 3.1905872835e+00 5.5262592810e+00 
48600 6.7303724723e+00 -3.4037308778e-02 3.1911241961e+00 -5.5271892409e+00 3.1911241961e+00 5.5271892409e+00 
48700 6.7303314480e+00 -3.3815040201e-02 3.1916575232e+00 -5.5281129905e+00 3.1916575232e+00 5.5281129905e+00 
48800 6.7302912196e+00 -3.3593582306e-02 3.1921872789e+00 -5.5290305543e+00 3.1921872789e+00 5.5290305543e+00 
48900 6.7302517706e+00 -3.3372952666e-02 3.1927134777e+00 -5.5299419574e+00 3.1927134777e+00 5.5299419574e+00 
49000 6.7302130847e+00 -3.3153168933e-02 3.1932361344e+00 -5.5308472254e+00 3.1932361344e+00 5.5308472254e+00 
49100 6.7301751459e+00 -3.2934248763e-02 3.1937552640e+00 -5.5317463842e+00 3.1937552640e+00 5.5317463842e+00 
49200 6.7301379386e+00 -3.2716209755e-02 3.1942708817e+00 -5.5326394603e+00 3.1942708817e+00 5.5326394603e+00 
49300 6.7301014472e+00 -3.2499069387e-02 3.1947830030e+00 -5.5335264804e+00 3.1947830030e+00 5.5335264804e+00 
49400 6.7300656568e+00 -3.2282844951e-02 3.1952916437e+00 -5.5344074719e+00 3.1952916437e+00 5.5344074719e+00 
49500 6.7300305524e+00 -3.2067553501e-02 3.1957968197e+00 -5.5352824625e+00 3.1957968197e+00 5.5352824625e+00 
49600 6.7299961196e+00 -3.1853211790e-02 3.1962985474e+00 -5.5361514802e+00 3.1962985474e+00 5.5361514802e+00 
49700 6.7299623440e+00 -3.1639836223e-02 3.1967968431e+00 -5.5370145538e+00 3.1967968431e+00 5.5370145538e+00 
49800 6.7299292119e+00 -3.1427442803e-02 3.1972917237e+00 -5.5378717121e+00 3.1972917237e+00 5.5378717121e+00 
49900 6.7298967095e+00 -3.1216047085e-02 3.1977832060e+00 -5.5387229844e+00 3.1977832060e+00 5.5387229844e+00 
50000 6.7298648237e+00 -3.1005664130e-02 3.1982713073e+00 -5.5395684006e+00 3.1982713073e+00 5.5395684006e+00 
50100 6.7298335414e+00 -3.0796308463e-02 3.1987560449e+00 -5.5404079908e+00 3.1987560449e+00 5.5404079908e+00 
50200 6.7298028499e+00 -3.0587994036e-02 3.1992374364e+00 -5.5412417854e+00 3.1992374364e+00 5.5412417854e+00 
50300 6.7297727371e+00 -3.0380734187e-02 3.1997154996e+00 -5.5420698152e+00 3.1997154996e+00 5.5420698152e+00 
50400 6.7297431908e+00 -3.0174541613e-02 3.2001902526e+00 -5.5428921113e+00 3.2001902526e+00 5.5428921113e+00 
50500 6.7297141993e+00 -2.9969428331e-02 3.2006617133e+00 -5.5437087053e+00 3.2006617133e+00 5.5437087053e+00 
50600 6.7296857513e+00 -2.9765405658e-02 3.2011299002e+00 -5.5445196288e+00 3.2011299002e+00 5.5445196288e+00 
50700 6.7296578357e+00 -2.9562484180e-02 3.2015948318e+00 -5.5453249139e+00 3.2015948318e+00 5.5453249139e+00 
50800 6.7296304417e+00 -2.9360673732e-02 3.2020565266e+00 -5.5461245928e+00 3.2020565266e+00 5.5461245928e+00 
50900 6.7296035588e+00 -2.9159983380e-02 3.2025150034e+00 -5.5469186980e+00 3.2025150034e+00 5.5469186980e+00 
51000 6.7295771770e+00 -2.8960421399e-02 3.2029702812e+00 -5.5477072621e+00 3.2029702812e+00 5.5477072621e+00 
51100 6.7295512863e+00 -2.8761995265e-02 3.2034223787e+00 -5.5484903181e+00 3.2034223787e+00 5.5484903181e+00 
51200 6.7295258772e+00 -2.8564711637e-02 3.2038713153e+00 -5.5492678990e+00 3.2038713153e+00 5.5492678990e+00 
51300 6.7295009404e+00 -2.8368576354e-02 3.2043171099e+00 -5.5500400379e+00 3.2043171099e+00 5.5500400379e+00 
51400 6.7294764669e+00 -2.8173594423e-02 3.2047597819e+00 -5.5508067683e+00 3.2047597819e+00 5.5508067683e+00 
51500 6.7294524480e+00 -2.7979770020e-02 3.2051993506e+00 -5.5515681236e+00 3.2051993506e+00 5.5515681236e+00 
51600 6.7294288753e+00 -2.7787106482e-02 3.2056358352e+00 -5.5523241371e+00 3.2056358352e+00 5.5523241371e+00 
51700 6.7294057404e+00 -2.7595606313e-02 3.2060692552e+00 -5.5530748426e+00 3.2060692552e+00 5.5530748426e+00 
51800 6.7293830356e+00 -2.7405271186e-02 3.2064996299e+00 -5.5538202735e+00 3.2064996299e+00 5.5538202735e+00 
51900 6.7293607531e+00 -2.7216101945e-02 3.2069269788e+00 -5.5545604634e+00 3.2069269788e+00 5.5545604634e+00 
52000 6.7293388855e+00 -2.7028098617e-02 3.2073513212e+00 -5.5552954460e+00 3.2073513212e+00 5.5552954460e+00 
52100 6.7293174255e+00 -2.6841260415e-02 3.2077726765e+00 -5.5560252548e+00 3.2077726765e+00 5.5560252548e+00 
52200 6.7292963662e+00 -2.6655585756e-02 3.2081910641e+00 -5.5567499233e+00 3.2081910641e+00 5.5567499233e+00 
52300 6.7292757009e+00 -2.6471072268e-02 3.2086065032e+00 -5.5574694850e+00 3.2086065032e+00 5.5574694850e+00 
52400 6.7292554229e+00 -2.6287716809e-02 3.2090190131e+00 -5.5581839731e+00 3.2090190131e+00 5.5581839731e+00 
52500 6.7292355259e+00 -2.6105515483e-02 3.2094286130e+00 -5.5588934209e+00 3.2094286130e+00 5.5588934209e+00 
52600 6.7292160037e+00 -2.5924463655e-02 3.2098353219e+00 -5.5595978615e+00 3.2098353219e+00 5.5595978615e+00 
52700 6.7291968503e+00 -2.5744555975e-02 3.2102391589e+00 -5.5602973277e+00 3.2102391589e+00 5.5602973277e+00 
52800 6.7291780601e+00 -2.5565786396e-02 3.2106401429e+00 -5.5609918524e+00 3.2106401429e+00 5.5609918524e+00 
52900 6.7291596272e+00 -2.5388148198e-02 3.2110382928e+00 -5.5616814681e+00 3.2110382928e+00 5.5616814681e+00 
53000 6.7291415464e+00 -2.5211634011e-02 3.2114336270e+00 -5.5623662071e+00 3.2114336270e+00 5.5623662071e+00 
53100 6.7291238121e+00 -2.5036235840e-02 3.2118261643e+00 -5.5630461016e+00 3.2118261643e+00 5.5630461016e+00 
53200 6.7291064194e+00 -2.4861945092e-02 3.2122159230e+00 -5.5637211834e+00 3.2122159230e+00 5.5637211834e+00 
53300 6.7290893630e+00 -2.4688752601e-02 3.2126029213e+00 -5.5643914842e+00 3.2126029213e+00 5.5643914842e+00 
53400 6.7290726383e+00 -2.4516648658e-02 3.2129871774e+00 -5.5650570353e+00 3.2129871774e+00 5.5650570353e+00 
53500 6.7290562403e+00 -2.4345623037e-02 3.2133687091e+00 -5.5657178677e+00 3.2133687091e+00 5.5657178677e+00 
53600 6.7290401644e+00 -2.4175665027e-02 3.2137475344e+00 -5.5663740122e+00 3.2137475344e+00 5.5663740122e+00 
53700 6.7290244062e+00 -2.4006763460e-02 3.2141236706e+00 -5.5670254992e+00 3.2141236706e+00 5.5670254992e+00 
53800 6.7290089610e+00 -2.3838906742e-02 3.2144971352e+00 -5.5676723589e+00 3.2144971352e+00 5.5676723589e+00 
53900 6.7289938246e+00 -2.3672082883e-02 3.2148679453e+00 -5.5683146210e+00 3.2148679453e+00 5.5683146210e+00 
54000 6.7289789928e+00 -2.3506279530e-02 3.2152361181e+00 -5.5689523149e+00 3.2152361181e+00 5.5689523149e+00 
54100 6.7289644613e+00 -2.3341483998e-02 3.2156016702e+00 -5.5695854696e+00 3.2156016702e+00 5.5695854696e+00 
54200 6.7289502261e+00 -2.3177683299e-02 3.2159646181e+00 -5.5702141140e+00 3.2159646181e+00 5.5702141140e+00 
54300 6.7289362832e+00 -2.3014864180e-02 3.2163249784e+00 -5.5708382762e+00 3.2163249784e+00 5.5708382762e+00 
54400 6.7289226286e+00 -2.2853013145e-02 3.2166827670e+00 -5.5714579843e+00 3.2166827670e+00 5.5714579843e+00 
54500 6.7289092584e+00 -2.2692116496e-02 3.2170380000e+00 -5.5720732658e+00 3.2170380000e+00 5.5720732658e+00 
54600 6.7288961688e+00 -2.2532160360e-02 3.2173906929e+00 -5.5726841479e+00 3.2173906929e+00 5.5726841479e+00 
54700 6.7288833560e+00 -2.2373130720e-02 3.2177408613e+00 -5.5732906573e+00 3.2177408613e+00 5.5732906573e+00 
54800 6.7288708164e+00 -2.2215013450e-02 3.2180885203e+00 -5.5738928204e+00 3.2180885203e+00 5.5738928204e+00 
54900 6.7288585462e+00 -2.2057794341e-02 3.2184336850e+00 -5.5744906632e+00 3.2184336850e+00 5.5744906632e+00 
55000 6.7288465418e+00 -2.1901459133e-02 3.2187763701e+00 -5.5750842112e+00 3.2187763701e+00 5.5750842112e+00 
55100 6.7288347997e+00 -2.1745993546e-02 3.2191165902e+00 -5.5756734896e+00 3.2191165902e+00 5.5756734896e+00 
55200 6.7288233162e+00 -2.1591383309e-02 3.2194543594e+00 -5.5762585232e+00 3.2194543594e+00 5.5762585232e+00 
55300 6.7288120879e+00 -2.1437614187e-02 3.2197896920e+00 -5.5768393362e+00 3.2197896920e+00 5.5768393362e+00 
55400 6.7288011112e+00 -2.1284672012e-02 3.2201226017e+00 -5.5774159527e+00 3.2201226017e+00 5.5774159527e+00 
55500 6.7287903827e+00 -2.1132542708e-02 3.2204531021e+00 -5.5779883962e+00 3.2204531021e+00 5.5779883962e+00 
55600 6.7287798991e+00 -2.0981212320e-02 3.2207812066e+00 -5.5785566898e+00 3.2207812066e+00 5.5785566898e+00 
55700 6.7287696568e+00 -2.0830667038e-02 3.2211069283e+00 -5.5791208563e+00 3.2211069283e+00 5.5791208563e+00 
55800 6.7287596524e+00 -2.0680893223e-02 3.2214302801e+00 -5.5796809181e+00 3.2214302801e+00 5.5796809181e+00 
55900 6.7287498827e+00 -2.0531877430e-02 3.2217512747e+00 -5.5802368971e+00 3.2217512747e+00 5.5802368971e+00 
56000 6.7287403442e+00 -2.0383606435e-02 3.2220699246e+00 -5.5807888150e+00 3.2220699246e+00 5.5807888150e+00 
56100 6.7287310337e+00 -2.0236067253e-02 3.2223862421e+00 -5.5813366929e+00 3.2223862421e+00 5.5813366929e+00 
56200 6.7287219478e+00 -2.0089247165e-02 3.2227002391e+00 -5.5818805518e+00 3.2227002391e+00 5.5818805518e+00 
56300 6.7287130833e+00 -1.9943133731e-02 3.2230119276e+00 -5.5824204121e+00 3.2230119276e+00 5.5824204121e+00 
56400 6.7287044368e+00 -1.9797714819e-02 3.2233213192e+00 -5.5829562939e+00 3.2233213192e+00 5.5829562939e+00 
56500 6.7286960051e+00 -1.9652978613e-02 3.2236284252e+00 -5.5834882172e+00 3.2236284252e+00 5.5834882172e+00 
56600 6.7286877849e+00 -1.9508913643e-02 3.2239332570e+00 -5.5840162013e+00 3.2239332570e+00 5.5840162013e+00 
56700 6.7286797731e+00 -1.9365508788e-02 3.2242358256e+00 -5.5845402655e+00 3.2242358256e+00 5.5845402655e+00 
56800 6.7286719664e+00 -1.9222753304e-02 3.2245361419e+00 -5.5850604285e+00 3.2245361419e+00 5.5850604285e+00 
56900 6.7286643616e+00 -1.9080636829e-02 3.2248342165e+00 -5.5855767090e+00 3.2248342165e+00 5.5855767090e+00 
57000 6.7286569555e+00 -1.8939149401e-02 3.2251300601e+00 -5.5860891251e+00 3.2251300601e+00 5.5860891251e+00 
57100 6.7286497449e+00 -1.8798281471e-02 3.2254236829e+00 -5.5865976947e+00 3.2254236829e+00 5.5865976947e+00 
57200 6.7286427267e+00 -1.8658023910e-02 3.2257150952e+00 -5.5871024357e+00 3.2257150952e+00 5.5871024357e+00 
57300 6.7286358977e+00 -1.8518368023e-02 3.2260043071e+00 -5.5876033654e+00 3.2260043071e+00 5.5876033654e+00 
57400 6.7286292549e+00 -1.8379305557e-02 3.2262913285e+00 -5.5881005009e+00 3.2262913285e+00 5.5881005009e+00 
57500 6.7286227951e+00 -1.8240828708e-02 3.2265761691e+00 -5.5885938593e+00 3.2265761691e+00 5.5885938593e+00 
57600 6.7286165152e+00 -1.8102930129e-02 3.2268588386e+00 -5.5890834573e+00 3.2268588386e+00 5.5890834573e+00 
57700 6.7286104121e+00 -1.7965602935e-02 3.2271393466e+00 -5.5895693114e+00 3.2271393466e+00 5.5895693114e+00 
57800 6.7286044829e+00 -1.7828840708e-02 3.2274177024e+00 -5.5900514378e+00 3.2274177024e+00 5.5900514378e+00 
57900 6.7285987244e+00 -1.7692637501e-02 3.2276939154e+00 -5.5905298528e+00 3.2276939154e+00 5.5905298528e+00 
58000 6.7285931336e+00 -1.7556987843e-02 3.2279679948e+00 -5.5910045722e+00 3.2279679948e+00 5.5910045722e+00 
58100 6.7285877076e+00 -1.7421886735e-02 3.2282399497e+00 -5.5914756119e+00 3.2282399497e+00 5.5914756119e+00 
58200 6.7285824434e+00 -1.7287329657e-02 3.2285097892e+00 -5.5919429875e+00 3.2285097892e+00 5.5919429875e+00 
58300 6.7285773380e+00 -1.7153312564e-02 3.2287775221e+00 -5.5924067146e+00 3.2287775221e+00 5.5924067146e+00 
58400 6.7285723885e+00 -1.7019831885e-02 3.2290431574e+00 -5.5928668085e+00 3.2290431574e+00 5.5928668085e+00 
58500 6.7285675919e+00 -1.6886884525e-02 3.2293067040e+00 -5.5933232845e+00 3.2293067040e+00 5.5933232845e+00 
58600 6.7285629456e+00 -1.6754467856e-02 3.2295681705e+00 -5.5937761578e+00 3.2295681705e+00 5.5937761578e+00 
58700 6.7285584464e+00 -1.6622579718e-02 3.2298275657e+00 -5.5942254436e+00 3.2298275657e+00 5.5942254436e+00 
58800 6.7285540918e+00 -1.6491218412e-02 3.2300848984e+00 -5.5946711567e+00 3.2300848984e+00 5.5946711567e+00 
58900 6.7285498787e+00 -1.6360382695e-02 3.2303401770e+00 -5.5951133124e+00 3.2303401770e+00 5.5951133124e+00 
59000 6.7285458046e+00 -1.6230071775e-02 3.2305934104e+00 -5.5955519254e+00 3.2305934104e+00 5.5955519254e+00 
59100 6.7285418665e+00 -1.6100285302e-02 3.2308446070e+00 -5.5959870107e+00 3.2308446070e+00 5.5959870107e+00 
59200 6.7285380619e+00 -1.5971023361e-02 3.2310937755e+00 -5.5964185831e+00 3.2310937755e+00 5.5964185831e+00 
59300 6.7285343880e+00 -1.5842286464e-02 3.2313409244e+00 -5.5968466576e+00 3.2313409244e+00 5.5968466576e+00 
59400 6.7285308422e+00 -1.5714075541e-02 3.2315860623e+00 -5.5972712490e+00 3.2315860623e+00 5.5972712490e+00 
59500 6.7285274218e+00 -1.5586391930e-02 3.2318291979e+00 -5.5976923722e+00 3.2318291979e+00 5.5976923722e+00 
59600 6.7285241243e+00 -1.5459237365e-02 3.2320703398e+00 -5.5981100422e+00 3.2320703398e+00 5.5981100422e+00 
59700 6.7285209470e+00 -1.5332613968e-02 3.2323094965e+00 -5.5985242738e+00 3.2323094965e+00 5.5985242738e+00 
59800 6.7285178876e+00 -1.5206524237e-02 3.2325466768e+00 -5.5989350821e+00 3.2325466768e+00 5.5989350821e+00 
59900 6.7285149434e+00 -1.5080971031e-02 3.2327818893e+00 -5.5993424821e+00 3.2327818893e+00 5.5993424821e+00 
60000 6.7285121121e+00 -1.4955957560e-02 3.2330151428e+00 -5.5997464890e+00 3.2330151428e+00 5.5997464890e+00 
60100 6.7285093911e+00 -1.4831487374e-02 3.2332464460e+00 -5.6001471179e+00 3.2332464460e+00 5.6001471179e+00 
60200 6.7285067781e+00 -1.4707564344e-02 3.2334758078e+00 -5.6005443842e+00 3.2334758078e+00 5.6005443842e+00 
60300 6.7285042708e+00 -1.4584192655e-02 3.2337032370e+00 -5.6009383031e+00 3.2337032370e+00 5.6009383031e+00 
60400 6.7285018668e+00 -1.4461376787e-02 3.2339287426e+00 -5.6013288902e+00 3.2339287426e+00 5.6013288902e+00 
60500 6.7284995638e+00 -1.4339121501e-02 3.2341523335e+00 -5.6017161611e+00 3.2341523335e+00 5.6017161611e+00 
60600 6.7284973596e+00 -1.4217431828e-02 3.2343740189e+00 -5.6021001314e+00 3.2343740189e+00 5.6021001314e+00 
60700 6.7284952519e+00 -1.4096313051e-02 3.2345938078e+00 -5.6024808170e+00 3.2345938078e+00 5.6024808170e+00 
60800 6.7284932386e+00 -1.3975770690e-02 3.2348117096e+00 -5.6028582339e+00 3.2348117096e+00 5.6028582339e+00 
60900 6.7284913175e+00 -1.3855810487e-02 3.2350277334e+00 -5.6032323981e+00 3.2350277334e+00 5.6032323981e+00 
61000 6.7284894865e+00 -1.3736438391e-02 3.2352418886e+00 -5.6036033258e+00 3.2352418886e+00 5.6036033258e+00 
61100 6.7284877435e+00 -1.3617660542e-02 3.2354541848e+00 -5.6039710336e+00 3.2354541848e+00 5.6039710336e+00 
61200 6.7284860865e+00 -1.3499483257e-02 3.2356646314e+00 -5.6043355378e+00 3.2356646314e+00 5.6043355378e+00 
61300 6.7284845135e+00 -1.3381913011e-02 3.2358732381e+00 -5.6046968553e+00 3.2358732381e+00 5.6046968553e+00 
61400 6.7284830225e+00 -1.3264956421e-02 3.2360800147e+00 -5.6050550028e+00 3.2360800147e+00 5.6050550028e+00 
61500 6.7284816115e+00 -1.3148620236e-02 3.2362849709e+00 -5.6054099974e+00 3.2362849709e+00 5.6054099974e+00 
61600 6.7284802787e+00 -1.3032911314e-02 3.2364881168e+00 -5.6057618564e+00 3.2364881168e+00 5.6057618564e+00 
61700 6.7284790222e+00 -1.2917836609e-02 3.2366894623e+00 -5.6061105970e+00 3.2366894623e+00 5.6061105970e+00 
61800 6.7284778402e+00 -1.2803403159e-02 3.2368890176e+00 -5.6064562369e+00 3.2368890176e+00 5.6064562369e+00 
61900 6.7284767308e+00 -1.2689618063e-02 3.2370867929e+00 -5.6067987938e+00 3.2370867929e+00 5.6067987938e+00 
62000 6.7284756923e+00 -1.2576488470e-02 3.2372827985e+00 -5.6071382855e+00 3.2372827985e+00 5.6071382855e+00 
62100 6.7284747229e+00 -1.2464021565e-02 3.2374770450e+00 -5.6074747302e+00 3.2374770450e+00 5.6074747302e+00 
62200 6.7284738210e+00 -1.2352224550e-02 3.2376695428e+00 -5.6078081462e+00 3.2376695428e+00 5.6078081462e+00 
62300 6.7284729849e+00 -1.2241104630e-02 3.2378603026e+00 -5.6081385520e+00 3.2378603026e+00 5.6081385520e+00 
62400 6.7284722130e+00 -1.2130669001e-02 3.2380493352e+00 -5.6084659660e+00 3.2380493352e+00 5.6084659660e+00 
62500 6.7284715035e+00 -1.2020924831e-02 3.2382366515e+00 -5.6087904073e+00 3.2382366515e+00 5.6087904073e+00 
62600 6.7284708551e+00 -1.1911879249e-02 3.2384222624e+00 -5.6091118948e+00 3.2384222624e+00 5.6091118948e+00 
62700 6.7284702661e+00 -1.1803539328e-02 3.2386061790e+00 -5.6094304477e+00 3.2386061790e+00 5.6094304477e+00 
62800 6.7284697350e+00 -1.1695912075e-02 3.2387884125e+00 -5.6097460854e+00 3.2387884125e+00 5.6097460854e+00 
62900 6.7284692604e+00 -1.1589004413e-02 3.2389689741e+00 -5.6100588273e+00 3.2389689741e+00 5.6100588273e+00 
63000 6.7284688408e+00 -1.1482823172e-02 3.2391478754e+00 -5.6103686934e+00 3.2391478754e+00 5.6103686934e+00 
63100 6.7284684747e+00 -1.1377375073e-02 3.2393251277e+00 -5.6106757034e+00 3.2393251277e+00 5.6106757034e+00 
63200 6.7284681609e+00 -1.1272666715e-02 3.2395007426e+00 -5.6109798774e+00 3.2395007426e+00 5.6109798774e+00 
63300 6.7284678978e+00 -1.1168704568e-02 3.2396747319e+00 -5.6112812356e+00 3.2396747319e+00 5.6112812356e+00 
63400 6.7284676843e+00 -1.1065494954e-02 3.2398471073e+00 -5.6115797985e+00 3.2398471073e+00 5.6115797985e+00 
63500 6.7284675190e+00 -1.0963044039e-02 3.2400178806e+00 -5.6118755867e+00 3.2400178806e+00 5.6118755867e+00 
63600 6.7284674005e+00 -1.0861357826e-02 3.2401870640e+00 -5.6121686208e+00 3.2401870640e+00 5.6121686208e+00 
63700 6.7284673277e+00 -1.0760442135e-02 3.2403546693e+00 -5.6124589217e+00 3.2403546693e+00 5.6124589217e+00 
63800 6.7284672994e+00 -1.0660302600e-02 3.2405207087e+00 -5.6127465105e+00 3.2405207087e+00 5.6127465105e+00 
63900 6.7284673142e+00 -1.0560944659e-02 3.2406851945e+00 -5.6130314082e+00 3.2406851945e+00 5.6130314082e+00 
64000 6.7284673711e+00 -1.0462373540e-02 3.2408481390e+00 -5.6133136363e+00 3.2408481390e+00 5.6133136363e+00 
64100 6.7284674690e+00 -1.0364594255e-02 3.2410095544e+00 -5.6135932161e+00 3.2410095544e+00 5.6135932161e+00 
64200 6.7284676066e+00 -1.0267611594e-02 3.2411694534e+00 -5.6138701692e+00 3.2411694534e+00 5.6138701692e+00 
64300 6.7284677828e+00 -1.0171430109e-02 3.2413278483e+00 -5.6141445172e+00 3.2413278483e+00 5.6141445172e+00 
64400 6.7284679967e+00 -1.0076054117e-02 3.2414847518e+00 -5.6144162820e+00 3.2414847518e+00 5.6144162820e+00 
64500 6.7284682471e+00 -9.9814876834e-03 3.2416401764e+00 -5.6146854855e+00 3.2416401764e+00 5.6146854855e+00 
64600 6.7284685329e+00 -9.8877346199e-03 3.2417941350e+00 -5.6149521495e+00 3.2417941350e+00 5.6149521495e+00 
64700 6.7284688533e+00 -9.7947984778e-03 3.2419466403e+00 -5.6152162964e+00 3.2419466403e+00 5.6152162964e+00 
64800 6.7284692072e+00 -9.7026825414e-03 3.2420977050e+00 -5.6154779481e+00 3.2420977050e+00 5.6154779481e+00 
64900 6.7284695935e+00 -9.6113898231e-03 3.2422473420e+00 -5.6157371271e+00 3.2422473420e+00 5.6157371271e+00 
65000 6.7284700115e+00 -9.5209230582e-03 3.2423955642e+00 -5.6159938555e+00 3.2423955642e+00 5.6159938555e+00 
65100 6.7284704601e+00 -9.4312847004e-03 3.2425423846e+00 -5.6162481559e+00 3.2425423846e+00 5.6162481559e+00 
65200 6.7284709384e+00 -9.3424769182e-03 3.2426878161e+00 -5.6165000506e+00 3.2426878161e+00 5.6165000506e+00 
65300 6.7284714455e+00 -9.2545015907e-03 3.2428318717e+00 -5.6167495622e+00 3.2428318717e+00 5.6167495622e+00 
65400 6.7284719806e+00 -9.1673603050e-03 3.2429745644e+00 -5.6169967132e+00 3.2429745644e+00 5.6169967132e+00 
65500 6.7284725428e+00 -9.0810543535e-03 3.2431159073e+00 -5.6172415263e+00 3.2431159073e+00 5.6172415263e+00 
65600 6.7284731313e+00 -8.9955847314e-03 3.2432559134e+00 -5.6174840239e+00 3.2432559134e+00 5.6174840239e+00 
65700 6.7284737452e+00 -8.9109521350e-03 3.2433945958e+00 -5.6177242288e+00 3.2433945958e+00 5.6177242288e+00 
65800 6.7284743837e+00 -8.8271569606e-03 3.2435319675e+00 -5.6179621637e+00 3.2435319675e+00 5.6179621637e+00 
65900 6.7284750461e+00 -8.7441993031e-03 3.2436680417e+00 -5.6181978511e+00 3.2436680417e+00 5.6181978511e+00 
66000 6.7284757316e+00 -8.6620789560e-03 3.2438028314e+00 -5.6184313136e+00 3.2438028314e+00 5.6184313136e+00 
66100 6.7284764394e+00 -8.5807954111e-03 3.2439363496e+00 -5.6186625741e+00 3.2439363496e+00 5.6186625741e+00 
66200 6.7284771688e+00 -8.5003478585e-03 3.2440686095e+00 -5.6188916549e+00 3.2440686095e+00 5.6188916549e+00 
66300 6.7284779190e+00 -8.4207351879e-03 3.2441996241e+00 -5.6191185788e+00 3.2441996241e+00 5.6191185788e+00 
66400 6.7284786895e+00 -8.3419559892e-03 3.2443294063e+00 -5.6193433683e+00 3.2443294063e+00 5.6193433683e+00 
66500 6.7284794793e+00 -8.2640085543e-03 3.2444579693e+00 -5.6195660458e+00 3.2444579693e+00 5.6195660458e+00 
66600 6.7284802880e+00 -8.1868908787e-03 3.2445853259e+00 -5.6197866339e+00 3.2445853259e+00 5.6197866339e+00 
66700 6.7284811147e+00 -8.1106006641e-03 3.2447114891e+00 -5.6200051550e+00 3.2447114891e+00 5.6200051550e+00 
66800 6.7284819589e+00 -8.0351353205e-03 3.2448364717e+00 -5.6202216313e+00 3.2448364717e+00 5.6202216313e+00 
66900 6.7284828199e+00 -7.9604919694e-03 3.2449602867e+00 -5.6204360851e+00 3.2449602867e+00 5.6204360851e+00 
67000 6.7284836972e+00 -7.8866674472e-03 3.2450829468e+00 -5.6206485386e+00 3.2450829468e+00 5.6206485386e+00 
67100 6.7284845900e+00 -7.8136583085e-03 3.2452044647e+00 -5.6208590138e+00 3.2452044647e+00 5.6208590138e+00 
67200 6.7284854977e+00 -7.7414608300e-03 3.2453248532e+00 -5.6210675329e+00 3.2453248532e+00 5.6210675329e+00 
67300 6.7284864199e+00 -7.6700710151e-03 3.2454441249e+00 -5.6212741175e+00 3.2454441249e+00 5.6212741175e+00 
67400 6.7284873559e+00 -7.5994845977e-03 3.2455622924e+00 -5.6214787895e+00 3.2455622924e+00 5.6214787895e+00 
67500 6.7284883051e+00 -7.5296970477e-03 3.2456793681e+00 -5.6216815706e+00 3.2456793681e+00 5.6216815706e+00 
67600 6.7284892670e+00 -7.4607035757e-03 3.2457953645e+00 -5.6218824823e+00 3.2457953645e+00 5.6218824823e+00 
67700 6.7284902410e+00 -7.3924991382e-03 3.2459102939e+00 -5.6220815459e+00 3.2459102939e+00 5.6220815459e+00 
67800 6.7284912267e+00 -7.3250784433e-03 3.2460241686e+00 -5.6222787827e+00 3.2460241686e+00 5.6222787827e+00 
67900 6.7284922235e+00 -7.2584359567e-03 3.2461370008e+00 -5.6224742138e+00 3.2461370008e+00 5.6224742138e+00 
68000 6.7284932308e+00 -7.1925659072e-03 3.2462488026e+00 -5.6226678601e+00 3.2462488026e+00 5.6226678601e+00 
68100 6.7284942483e+00 -7.1274622934e-03 3.2463595860e+00 -5.6228597425e+00 3.2463595860e+00 5.6228597425e+00 
68200 6.7284952753e+00 -7.0631188897e-03 3.2464693628e+00 -5.6230498816e+00 3.2464693628e+00 5.6230498816e+00 
68300 6.7284963115e+00 -6.9995292535e-03 3.2465781450e+00 -5.6232382978e+00 3.2465781450e+00 5.6232382978e+00 
68400 6.7284973563e+00 -6.9366867314e-03 3.2466859441e+00 -5.6234250114e+00 3.2466859441e+00 5.6234250114e+00 
68500 6.7284984093e+00 -6.8745844663e-03 3.2467927719e+00 -5.6236100426e+00 3.2467927719e+00 5.6236100426e+00 
68600 6.7284994701e+00 -6.8132154047e-03 3.2468986398e+00 -5.6237934111e+00 3.2468986398e+00 5.6237934111e+00 
68700 6.7285005381e+00 -6.7525723038e-03 3.2470035592e+00 -5.6239751368e+00 3.2470035592e+00 5.6239751368e+00 
68800 6.7285016131e+00 -6.6926477389e-03 3.2471075413e+00 -5.6241552392e+00 3.2471075413e+00 5.6241552392e+00 
68900 6.7285026945e+00 -6.6334341109e-03 3.2472105974e+00 -5.6243337376e+00 3.2472105974e+00 5.6243337376e+00 
69000 6.7285037819e+00 -6.5749236538e-03 3.2473127384e+00 -5.6245106510e+00 3.2473127384e+00 5.6245106510e+00 
69100 6.7285048750e+00 -6.5171084423e-03 3.2474139753e+00 -5.6246859985e+00 3.2474139753e+00 5.6246859985e+00 
69200 6.7285059734e+00 -6.4599803999e-03 3.2475143189e+00 -5.6248597986e+00 3.2475143189e+00 5.6248597986e+00 
69300 6.7285070766e+00 -6.4035313066e-03 3.2476137798e+00 -5.6250320700e+00 3.2476137798e+00 5.6250320700e+00 
69400 6.7285081843e+00 -6.3477528064e-03 3.2477123685e+00 -5.6252028307e+00 3.2477123685e+00 5.6252028307e+00 
69500 6.7285092961e+00 -6.2926364158e-03 3.2478100956e+00 -5.6253720988e+00 3.2478100956e+00 5.6253720988e+00 
69600 6.7285104117e+00 -6.2381735317e-03 3.2479069711e+00 -5.6255398922e+00 3.2479069711e+00 5.6255398922e+00 
69700 6.7285115307e+00 -6.1843554387e-03 3.2480030053e+00 -5.6257062284e+00 3.2480030053e+00 5.6257062284e+00 
69800 6.7285126528e+00 -6.1311733182e-03 3.2480982082e+00 -5.6258711246e+00 3.2480982082e+00 5.6258711246e+00 
69900 6.7285137776e+00 -6.0786182556e-03 3.2481925896e+00 -5.6260345980e+00 3.2481925896e+00 5.6260345980e+00 
70000 6.7285149048e+00 -6.0266812485e-03 3.2482861593e+00 -5.6261966655e+00 3.2482861593e+00 5.6261966655e+00 
70100 6.7285160341e+00 -5.9753532151e-03 3.2483789269e+00 -5.6263573436e+00 3.2483789269e+00 5.6263573436e+00 
70200 6.7285171651e+00 -5.9246250015e-03 3.2484709017e+00 -5.6265166486e+00 3.2484709017e+00 5.6265166486e+00 
70300 6.7285182977e+00 -5.8744873904e-03 3.2485620931e+00 -5.6266745968e+00 3.2485620931e+00 5.6266745968e+00 
70400 6.7285194314e+00 -5.8249311081e-03 3.2486525102e+00 -5.6268312039e+00 3.2486525102e+00 5.6268312039e+00 
70500 6.7285205660e+00 -5.7759468333e-03 3.2487421622e+00 -5.6269864855e+00 3.2487421622e+00 5.6269864855e+00 
70600 6.7285217012e+00 -5.7275252041e-03 3.2488310577e+00 -5.6271404571e+00 3.2488310577e+00 5.6271404571e+00 
70700 6.7285228368e+00 -5.6796568262e-03 3.2489192056e+00 -5.6272931337e+00 3.2489192056e+00 5.6272931337e+00 
70800 6.7285239724e+00 -5.6323322804e-03 3.2490066144e+00 -5.6274445302e+00 3.2490066144e+00 5.6274445302e+00 
70900 6.7285251078e+00 -5.5855421298e-03 3.2490932925e+00 -5.6275946611e+00 3.2490932925e+00 5.6275946611e+00 
71000 6.7285262428e+00 -5.5392769281e-03 3.2491792483e+00 -5.6277435409e+00 3.2491792483e+00 5.6277435409e+00 
71100 6.7285273771e+00 -5.4935272259e-03 3.2492644898e+00 -5.6278911836e+00 3.2492644898e+00 5.6278911836e+00 
71200 6.7285285104e+00 -5.4482835787e-03 3.2493490251e+00 -5.6280376030e+00 3.2493490251e+00 5.6280376030e+00 
71300 6.7285296426e+00 -5.4035365537e-03 3.2494328620e+00 -5.6281828128e+00 3.2494328620e+00 5.6281828128e+00 
71400 6.7285307734e+00 -5.3592767372e-03 3.2495160082e+00 -5.6283268262e+00 3.2495160082e+00 5.6283268262e+00 
71500 6.7285319026e+00 -5.3154947406e-03 3.2495984713e+00 -5.6284696564e+00 3.2495984713e+00 5.6284696564e+00 
71600 6.7285330299e+00 -5.2721812083e-03 3.2496802586e+00 -5.6286113162e+00 3.2496802586e+00 5.6286113162e+00 
71700 6.7285341553e+00 -5.2293268233e-03 3.2497613773e+00 -5.6287518180e+00 3.2497613773e+00 5.6287518180e+00 
71800 6.7285352783e+00 -5.1869223144e-03 3.2498418348e+00 -5.6288911744e+00 3.2498418348e+00 5.6288911744e+00 
71900 6.7285363990e+00 -5.1449584618e-03 3.2499216378e+00 -5.6290293973e+00 3.2499216378e+00 5.6290293973e+00 
72000 6.7285375171e+00 -5.1034261042e-03 3.2500007932e+00 -5.6291664985e+00 3.2500007932e+00 5.6291664985e+00 
72100 6.7285386323e+00 -5.0623161437e-03 3.2500793078e+00 -5.6293024897e+00 3.2500793078e+00 5.6293024897e+00 
72200 6.7285397446e+00 -5.0216195526e-03 3.2501571880e+00 -5.6294373821e+00 3.2501571880e+00 5.6294373821e+00 
72300 6.7285408537e+00 -4.9813273783e-03 3.2502344402e+00 -5.6295711870e+00 3.2502344402e+00 5.6295711870e+00 
72400 6.7285419595e+00 -4.9414307495e-03 3.2503110708e+00 -5.6297039150e+00 3.2503110708e+00 5.6297039150e+00 
72500 6.7285430619e+00 -4.9019208808e-03 3.2503870858e+00 -5.6298355769e+00 3.2503870858e+00 5.6298355769e+00 
72600 6.7285441606e+00 -4.8627890785e-03 3.2504624913e+00 -5.6299661830e+00 3.2504624913e+00 5.6299661830e+00 
72700 6.7285452555e+00 -4.8240267451e-03 3.2505372931e+00 -5.6300957435e+00 3.2505372931e+00 5.6300957435e+00 
72800 6.7285463465e+00 -4.7856253844e-03 3.2506114969e+00 -5.6302242683e+00 3.2506114969e+00 5.6302242683e+00 
72900 6.7285474335e+00 -4.7475766058e-03 3.2506851083e+00 -5.6303517670e+00 3.2506851083e+00 5.6303517670e+00 
73000 6.7285485163e+00 -4.7098721291e-03 3.2507581329e+00 -5.6304782492e+00 3.2507581329e+00 5.6304782492e+00 
73100 6.7285495947e+00 -4.6725037881e-03 3.2508305758e+00 -5.6306037241e+00 3.2508305758e+00 5.6306037241e+00 
73200 6.7285506687e+00 -4.6354635356e-03 3.2509024424e+00 -5.6307282006e+00 3.2509024424e+00 5.6307282006e+00 
73300 6.7285517382e+00 -4.5987434462e-03 3.2509737377e+00 -5.6308516877e+00 3.2509737377e+00 5.6308516877e+00 
73400 6.7285528029e+00 -4.5623357206e-03 3.2510444666e+00 -5.6309741939e+00 3.2510444666e+00 5.6309741939e+00 
73500 6.7285538629e+00 -4.5262326890e-03 3.2511146341e+00 -5.6310957275e+00 3.2511146341e+00 5.6310957275e+00 
73600 6.7285549180e+00 -4.4904268142e-03 3.2511842448e+00 -5.6312162968e+00 3.2511842448e+00 5.6312162968e+00 
73700 6.7285559681e+00 -4.4549106948e-03 3.2512533034e+00 -5.6313359098e+00 3.2512533034e+00 5.6313359098e+00 
73800 6.7285570131e+00 -4.4196770679e-03 3.2513218143e+00 -5.6314545741e+00 3.2513218143e+00 5.6314545741e+00 
73900 6.7285580530e+00 -4.3847188123e-03 3.2513897819e+00 -5.6315722975e+00 3.2513897819e+00 5.6315722975e+00 
74000 6.7285590875e+00 -4.3500289503e-03 3.2514572105e+00 -5.6316890873e+00 3.2514572105e+00 5.6316890873e+00 
74100 6.7285601168e+00 -4.3156006505e-03 3.2515241043e+00 -5.6318049507e+00 3.2515241043e+00 5.6318049507e+00 
74200 6.7285611405e+00 -4.2814272301e-03 3.2515904673e+00 -5.6319198947e+00 3.2515904673e+00 5.6319198947e+00 
74300 6.7285621588e+00 -4.2475021561e-03 3.2516563034e+00 -5.6320339262e+00 3.2516563034e+00 5.6320339262e+00 
74400 6.7285631715e+00 -4.2138190479e-03 3.2517216165e+00 -5.6321470518e+00 3.2517216165e+00 5.6321470518e+00 
74500 6.7285641786e+00 -4.1803716783e-03 3.2517864104e+00 -5.6322592781e+00 3.2517864104e+00 5.6322592781e+00 
74600 6.7285651799e+00 -4.1471539753e-03 3.2518506887e+00 -5.6323706114e+00 3.2518506887e+00 5.6323706114e+00 
74700 6.7285661755e+00 -4.1141600229e-03 3.2519144549e+00 -5.6324810578e+00 3.2519144549e+00 5.6324810578e+00 
74800 6.7285671652e+00 -4.0813840624e-03 3.2519777126e+00 -5.6325906234e+00 3.2519777126e+00 5.6325906234e+00 
74900 6.7285681490e+00 -4.0488204935e-03 3.2520404652e+00 -5.6326993140e+00 3.2520404652e+00 5.6326993140e+00 
75000 6.7285691269e+00 -4.0164638743e-03 3.2521027158e+00 -5.6328071353e+00 3.2521027158e+00 5.6328071353e+00 
75100 6.7285700989e+00 -3.9843089225e-03 3.2521644678e+00 -5.6329140929e+00 3.2521644678e+00 5.6329140929e+00 
75200 6.7285710648e+00 -3.9523505154e-03 3.2522257243e+00 -5.6330201922e+00 3.2522257243e+00 5.6330201922e+00 
75300 6.7285720246e+00 -3.9205836903e-03 3.2522864883e+00 -5.6331254384e+00 3.2522864883e+00 5.6331254384e+00 
75400 6.7285729783e+00 -3.8890036442e-03 3.2523467627e+00 -5.6332298369e+00 3.2523467627e+00 5.6332298369e+00 
75500 6.7285739258e+00 -3.8576057341e-03 3.2524065506e+00 -5.6333333924e+00 3.2524065506e+00 5.6333333924e+00 
75600 6.7285748672e+00 -3.8263854763e-03 3.2524658546e+00 -5.6334361101e+00 3.2524658546e+00 5.6334361101e+00 
75700 6.7285758023e+00 -3.7953385464e-03 3.2525246776e+00 -5.6335379945e+00 3.2525246776e+00 5.6335379945e+00 
75800 6.7285767312e+00 -3.7644607783e-03 3.2525830223e+00 -5.6336390504e+00 3.2525830223e+00 5.6336390504e+00 
75900 6.7285776538e+00 -3.7337481637e-03 3.2526408913e+00 -5.6337392824e+00 3.2526408913e+00 5.6337392824e+00 
76000 6.7285785701e+00 -3.7031968514e-03 3.2526982871e+00 -5.6338386949e+00 3.2526982871e+00 5.6338386949e+00 
76100 6.7285794801e+00 -3.6728031458e-03 3.2527552122e+00 -5.6339372922e+00 3.2527552122e+00 5.6339372922e+00 
76200 6.7285803838e+00 -3.6425635063e-03 3.2528116692e+00 -5.6340350785e+00 3.2528116692e+00 5.6340350785e+00 
76300 6.7285812811e+00 -3.6124745458e-03 3.2528676604e+00 -5.6341320580e+00 3.2528676604e+00 5.6341320580e+00 
76400 6.7285821721e+00 -3.5825330293e-03 3.2529231880e+00 -5.6342282348e+00 3.2529231880e+00 5.6342282348e+00 
76500 6.7285830566e+00 -3.5527358725e-03 3.2529782546e+00 -5.6343236128e+00 3.2529782546e+00 5.6343236128e+00 
76600 6.7285839348e+00 -3.5230801400e-03 3.2530328622e+00 -5.6344181959e+00 3.2530328622e+00 5.6344181959e+00 
76700 6.7285848065e+00 -3.4935630438e-03 3.2530870130e+00 -5.6345119880e+00 3.2530870130e+00 5.6345119880e+00 
76800 6.7285856719e+00 -3.4641819415e-03 3.2531407093e+00 -5.6346049926e+00 3.2531407093e+00 5.6346049926e+00 
76900 6.7285865308e+00 -3.4349343339e-03 3.2531939531e+00 -5.6346972136e+00 3.2531939531e+00 5.6346972136e+00 
77000 6.7285873833e+00 -3.4058178637e-03 3.2532467465e+00 -5.6347886544e+00 3.2532467465e+00 5.6347886544e+00 
77100 6.7285882294e+00 -3.3768303127e-03 3.2532990915e+00 -5.6348793187e+00 3.2532990915e+00 5.6348793187e+00 
77200 6.7285890690e+00 -3.3479695998e-03 3.2533509902e+00 -5.6349692099e+00 3.2533509902e+00 5.6349692099e+00 
77300 6.7285899022e+00 -3.3192337791e-03 3.2534024445e+00 -5.6350583314e+00 3.2534024445e+00 5.6350583314e+00 
77400 6.7285907290e+00 -3.2906210367e-03 3.2534534564e+00 -5.6351466865e+00 3.2534534564e+00 5.6351466865e+00 
77500 6.7285915494e+00 -3.2621296891e-03 3.2535040277e+00 -5.6352342786e+00 3.2535040277e+00 5.6352342786e+00 
77600 6.7285923634e+00 -3.2337581801e-03 3.2535541604e+00 -5.6353211110e+00 3.2535541604e+00 5.6353211110e+00 
77700 6.7285931709e+00 -3.2055050783e-03 3.2536038563e+00 -5.6354071868e+00 3.2536038563e+00 5.6354071868e+00 
77800 6.7285939721e+00 -3.1773690746e-03 3.2536531173e+00 -5.6354925093e+00 3.2536531173e+00 5.6354925093e+00 
77900 6.7285947668e+00 -3.1493489793e-03 3.2537019451e+00 -5.6355770816e+00 3.2537019451e+00 5.6355770816e+00 
78000 6.7285955552e+00 -3.1214437196e-03 3.2537503416e+00 -5.6356609068e+00 3.2537503416e+00 5.6356609068e+00 
78100 6.7285963372e+00 -3.0936523363e-03 3.2537983086e+00 -5.6357439881e+00 3.2537983086e+00 5.6357439881e+00 
78200 6.7285971128e+00 -3.0659739812e-03 3.2538458478e+00 -5.6358263284e+00 3.2538458478e+00 5.6358263284e+00 
78300 6.7285978821e+00 -3.0384079145e-03 3.2538929610e+00 -5.6359079308e+00 3.2538929610e+00 5.6359079308e+00 
78400 6.7285986450e+00 -3.0109535010e-03 3.2539396499e+00 -5.6359887984e+00 3.2539396499e+00 5.6359887984e+00 
78500 6.7285994016e+00 -2.9836102079e-03 3.2539859163e+00 -5.6360689342e+00 3.2539859163e+00 5.6360689342e+00 
78600 6.7286001520e+00 -2.9563776016e-03 3.2540317619e+00 -5.6361483410e+00 3.2540317619e+00 5.6361483410e+00 
78700 6.7286008960e+00 -2.9292553441e-03 3.2540771884e+00 -5.6362270220e+00 3.2540771884e+00 5.6362270220e+00 
78800 6.7286016338e+00 -2.9022431908e-03 3.2541221975e+00 -5.6363049801e+00 3.2541221975e+00 5.6363049801e+00 
78900 6.7286023653e+00 -2.8753409867e-03 3.2541667909e+00 -5.6363822182e+00 3.2541667909e+00 5.6363822182e+00 
79000 6.7286030905e+00 -2.8485486635e-03 3.2542109704e+00 -5.6364587393e+00 3.2542109704e+00 5.6364587393e+00 
79100 6.7286038096e+00 -2.8218662367e-03 3.2542547376e+00 -5.6365345463e+00 3.2542547376e+00 5.6365345463e+00 
79200 6.7286045224e+00 -2.7952938022e-03 3.2542980943e+00 -5.6366096422e+00 3.2542980943e+00 5.6366096422e+00 
79300 6.7286052291e+00 -2.7688315332e-03 3.2543410421e+00 -5.6366840300e+00 3.2543410421e+00 5.6366840300e+00 
79400 6.7286059297e+00 -2.7424796771e-03 3.2543835828e+00 -5.6367577127e+00 3.2543835828e+00 5.6367577127e+00 
79500 6.7286066241e+00 -2.7162385524e-03 3.2544257180e+00 -5.6368306931e+00 3.2544257180e+00 5.6368306931e+00 
79600 6.7286073124e+00 -2.6901085456e-03 3.2544674496e+00 -5.6369029742e+00 3.2544674496e+00 5.6369029742e+00 
79700 6.7286079946e+00 -2.6640901080e-03 3.2545087791e+00 -5.6369745591e+00 3.2545087791e+00 5.6369745591e+00 
79800 6.7286086707e+00 -2.6381837524e-03 3.2545497084e+00 -5.6370454508e+00 3.2545497084e+00 5.6370454508e+00 
79900 6.7286093408e+00 -2.6123900506e-03 3.2545902392e+00 -5.6371156521e+00 3.2545902392e+00 5.6371156521e+00 
80000 6.7286100049e+00 -2.5867096295e-03 3.2546303732e+00 -5.6371851663e+00 3.2546303732e+00 5.6371851663e+00 
80100 6.7286106631e+00 -2.5611431687e-03 3.2546701122e+00 -5.6372539963e+00 3.2546701122e+00 5.6372539963e+00 
80200 6.7286113152e+00 -2.5356913973e-03 3.2547094580e+00 -5.6373221451e+00 3.2547094580e+00 5.6373221451e+00 
80300 6.7286119615e+00 -2.5103550905e-03 3.2547484122e+00 -5.6373896159e+00 3.2547484122e+00 5.6373896159e+00 
80400 6.7286126018e+00 -2.4851350673e-03 3.2547869768e+00 -5.6374564117e+00 3.2547869768e+00 5.6374564117e+00 
80500 6.7286132363e+00 -2.4600321869e-03 3.2548251535e+00 -5.6375225356e+00 3.2548251535e+00 5.6375225356e+00 
80600 6.7286138649e+00 -2.4350473462e-03 3.2548629441e+00 -5.6375879909e+00 3.2548629441e+00 5.6375879909e+00 
80700 6.7286144876e+00 -2.4101814767e-03 3.2549003505e+00 -5.6376527806e+00 3.2549003505e+00 5.6376527806e+00 
80800 6.7286151046e+00 -2.3854355418e-03 3.2549373745e+00 -5.6377169080e+00 3.2549373745e+00 5.6377169080e+00 
80900 6.7286157159e+00 -2.3608105338e-03 3.2549740179e+00 -5.6377803763e+00 3.2549740179e+00 5.6377803763e+00 
81000 6.7286163214e+00 -2.3363074713e-03 3.2550102826e+00 -5.6378431886e+00 3.2550102826e+00 5.6378431886e+00 
81100 6.7286169211e+00 -2.3119273965e-03 3.2550461705e+00 -5.6379053483e+00 3.2550461705e+00 5.6379053483e+00 
81200 6.7286175152e+00 -2.2876713724e-03 3.2550816836e+00 -5.6379668587e+00 3.2550816836e+00 5.6379668587e+00 
81300 6.7286181037e+00 -2.2635404800e-03 3.2551168236e+00 -5.6380277231e+00 3.2551168236e+00 5.6380277231e+00 
81400 6.7286186866e+00 -2.2395358163e-03 3.2551515926e+00 -5.6380879448e+00 3.2551515926e+00 5.6380879448e+00 
81500 6.7286192638e+00 -2.2156584911e-03 3.2551859926e+00 -5.6381475272e+00 3.2551859926e+00 5.6381475272e+00 
81600 6.7286198355e+00 -2.1919096250e-03 3.2552200254e+00 -5.6382064738e+00 3.2552200254e+00 5.6382064738e+00 
81700 6.7286204017e+00 -2.1682903466e-03 3.2552536931e+00 -5.6382647879e+00 3.2552536931e+00 5.6382647879e+00 
81800 6.7286209624e+00 -2.1448017904e-03 3.2552869976e+00 -5.6383224730e+00 3.2552869976e+00 5.6383224730e+00 
81900 6.7286215177e+00 -2.1214450946e-03 3.2553199410e+00 -5.6383795327e+00 3.2553199410e+00 5.6383795327e+00 
82000 6.7286220675e+00 -2.0982213982e-03 3.2553525253e+00 -5.6384359704e+00 3.2553525253e+00 5.6384359704e+00 
82100 6.7286226119e+00 -2.0751318394e-03 3.2553847526e+00 -5.6384917898e+00 3.2553847526e+00 5.6384917898e+00 
82200 6.7286231510e+00 -2.0521775535e-03 3.2554166250e+00 -5.6385469943e+00 3.2554166250e+00 5.6385469943e+00 
82300 6.7286236847e+00 -2.0293596703e-03 3.2554481445e+00 -5.6386015876e+00 3.2554481445e+00 5.6386015876e+00 
82400 6.7286242131e+00 -2.0066793124e-03 3.2554793132e+00 -5.6386555734e+00 3.2554793132e+00 5.6386555734e+00 
82500 6.7286247363e+00 -1.9841375932e-03 3.2555101333e+00 -5.6387089554e+00 3.2555101333e+00 5.6387089554e+00 
82600 6.7286252542e+00 -1.9617356149e-03 3.2555406068e+00 -5.6387617372e+00 3.2555406068e+00 5.6387617372e+00 
82700 6.7286257670e+00 -1.9394744670e-03 3.2555707361e+00 -5.6388139225e+00 3.2555707361e+00 5.6388139225e+00 
82800 6.7286262746e+00 -1.9173552240e-03 3.2556005231e+00 -5.6388655152e+00 3.2556005231e+00 5.6388655152e+00 
82900 6.7286267770e+00 -1.8953789438e-03 3.2556299702e+00 -5.6389165190e+00 3.2556299702e+00 5.6389165190e+00 
83000 6.7286272744e+00 -1.8735466665e-03 3.2556590795e+00 -5.6389669378e+00 3.2556590795e+00 5.6389669378e+00 
83100 6.7286277666e+00 -1.8518594122e-03 3.2556878532e+00 -5.6390167754e+00 3.2556878532e+00 5.6390167754e+00 
83200 6.7286282539e+00 -1.8303181798e-03 3.2557162936e+00 -5.6390660356e+00 3.2557162936e+00 5.6390660356e+00 
83300 6.7286287362e+00 -1.8089239454e-03 3.2557444030e+00 -5.6391147224e+00 3.2557444030e+00 5.6391147224e+00 
83400 6.7286292135e+00 -1.7876776611e-03 3.2557721835e+00 -5.6391628397e+00 3.2557721835e+00 5.6391628397e+00 
83500 6.7286296859e+00 -1.7665802534e-03 3.2557996375e+00 -5.6392103915e+00 3.2557996375e+00 5.6392103915e+00 
83600 6.7286301533e+00 -1.7456326218e-03 3.2558267673e+00 -5.6392573816e+00 3.2558267673e+00 5.6392573816e+00 
83700 6.7286306160e+00 -1.7248356382e-03 3.2558535752e+00 -5.6393038142e+00 3.2558535752e+00 5.6393038142e+00 
83800 6.7286310738e+00 -1.7041901451e-03 3.2558800634e+00 -5.6393496932e+00 3.2558800634e+00 5.6393496932e+00 
83900 6.7286315268e+00 -1.6836969546e-03 3.2559062344e+00 -5.6393950227e+00 3.2559062344e+00 5.6393950227e+00 
84000 6.7286319751e+00 -1.6633568477e-03 3.2559320905e+00 -5.6394398068e+00 3.2559320905e+00 5.6394398068e+00 
84100 6.7286324186e+00 -1.6431705731e-03 3.2559576340e+00 -5.6394840494e+00 3.2559576340e+00 5.6394840494e+00 
84200 6.7286328575e+00 -1.6231388462e-03 3.2559828673e+00 -5.6395277548e+00 3.2559828673e+00 5.6395277548e+00 
84300 6.7286332917e+00 -1.6032623484e-03 3.2560077929e+00 -5.6395709271e+00 3.2560077929e+00 5.6395709271e+00 
84400 6.7286337213e+00 -1.5835417263e-03 3.2560324130e+00 -5.6396135703e+00 3.2560324130e+00 5.6396135703e+00 
84500 6.7286341464e+00 -1.5639775909e-03 3.2560567300e+00 -5.6396556887e+00 3.2560567300e+00 5.6396556887e+00 
84600 6.7286345669e+00 -1.5445705168e-03 3.2560807465e+00 -5.6396972865e+00 3.2560807465e+00 5.6396972865e+00 
84700 6.7286349828e+00 -1.5253210418e-03 3.2561044648e+00 -5.6397383677e+00 3.2561044648e+00 5.6397383677e+00 
84800 6.7286353943e+00 -1.5062296662e-03 3.2561278873e+00 -5.6397789367e+00 3.2561278873e+00 5.6397789367e+00 
84900 6.7286358014e+00 -1.4872968525e-03 3.2561510165e+00 -5.6398189976e+00 3.2561510165e+00 5.6398189976e+00 
85000 6.7286362041e+00 -1.4685230245e-03 3.2561738548e+00 -5.6398585547e+00 3.2561738548e+00 5.6398585547e+00 
85100 6.7286366024e+00 -1.4499085673e-03 3.2561964046e+00 -5.6398976122e+00 3.2561964046e+00 5.6398976122e+00 
85200 6.7286369964e+00 -1.4314538268e-03 3.2562186685e+00 -5.6399361743e+00 3.2562186685e+00 5.6399361743e+00 
85300 6.7286373860e+00 -1.4131591096e-03 3.2562406488e+00 -5.6399742454e+00 3.2562406488e+00 5.6399742454e+00 
85400 6.7286377714e+00 -1.3950246822e-03 3.2562623481e+00 -5.6400118296e+00 3.2562623481e+00 5.6400118296e+00 
85500 6.7286381526e+00 -1.3770507714e-03 3.2562837687e+00 -5.6400489313e+00 3.2562837687e+00 5.6400489313e+00 
85600 6.7286385296e+00 -1.3592375641e-03 3.2563049133e+00 -5.6400855547e+00 3.2563049133e+00 5.6400855547e+00 
85700 6.7286389024e+00 -1.3415852065e-03 3.2563257842e+00 -5.6401217042e+00 3.2563257842e+00 5.6401217042e+00 
85800 6.7286392712e+00 -1.3240938052e-03 3.2563463839e+00 -5.6401573839e+00 3.2563463839e+00 5.6401573839e+00 
85900 6.7286396358e+00 -1.3067634260e-03 3.2563667148e+00 -5.6401925982e+00 3.2563667148e+00 5.6401925982e+00 
86000 6.7286399963e+00 -1.2895940949e-03 3.2563867796e+00 -5.6402273514e+00 3.2563867796e+00 5.6402273514e+00 
86100 6.7286403529e+00 -1.2725857975e-03 3.2564065806e+00 -5.6402616478e+00 3.2564065806e+00 5.6402616478e+00 
86200 6.7286407055e+00 -1.2557384796e-03 3.2564261204e+00 -5.6402954916e+00 3.2564261204e+00 5.6402954916e+00 
86300 6.7286410541e+00 -1.2390520470e-03 3.2564454013e+00 -5.6403288872e+00 3.2564454013e+00 5.6403288872e+00 
86400 6.7286413988e+00 -1.2225263659e-03 3.2564644260e+00 -5.6403618388e+00 3.2564644260e+00 5.6403618388e+00 
86500 6.7286417396e+00 -1.2061612632e-03 3.2564831967e+00 -5.6403943507e+00 3.2564831967e+00 5.6403943507e+00 
86600 6.7286420766e+00 -1.1899565265e-03 3.2565017161e+00 -5.6404264273e+00 3.2565017161e+00 5.6404264273e+00 
86700 6.7286424097e+00 -1.1739119048e-03 3.2565199866e+00 -5.6404580727e+00 3.2565199866e+00 5.6404580727e+00 
86800 6.7286427391e+00 -1.1580271084e-03 3.2565380107e+00 -5.6404892913e+00 3.2565380107e+00 5.6404892913e+00 
86900 6.7286430648e+00 -1.1423018096e-03 3.2565557907e+00 -5.6405200872e+00 3.2565557907e+00 5.6405200872e+00 
87000 6.7286433867e+00 -1.1267356432e-03 3.2565733292e+00 -5.6405504648e+00 3.2565733292e+00 5.6405504648e+00 
87100 6.7286437049e+00 -1.1113282066e-03 3.2565906286e+00 -5.6405804283e+00 3.2565906286e+00 5.6405804283e+00 
87200 6.7286440195e+00 -1.0960790605e-03 3.2566076914e+00 -5.6406099819e+00 3.2566076914e+00 5.6406099819e+00 
87300 6.7286443305e+00 -1.0809877293e-03 3.2566245200e+00 -5.6406391298e+00 3.2566245200e+00 5.6406391298e+00 
87400 6.7286446380e+00 -1.0660537017e-03 3.2566411167e+00 -5.6406678762e+00 3.2566411167e+00 5.6406678762e+00 
87500 6.7286449418e+00 -1.0512764315e-03 3.2566574841e+00 -5.6406962254e+00 3.2566574841e+00 5.6406962254e+00 
87600 6.7286452422e+00 -1.0366553376e-03 3.2566736246e+00 -5.6407241814e+00 3.2566736246e+00 5.6407241814e+00 
87700 6.7286455391e+00 -1.0221898051e-03 3.2566895404e+00 -5.6407517485e+00 3.2566895404e+00 5.6407517485e+00 
87800 6.7286458325e+00 -1.0078791858e-03 3.2567052341e+00 -5.6407789308e+00 3.2567052341e+00 5.6407789308e+00 
87900 6.7286461225e+00 -9.9372279863e-04 3.2567207081e+00 -5.6408057324e+00 3.2567207081e+00 5.6408057324e+00 
88000 6.7286464092e+00 -9.7971993077e-04 3.2567359646e+00 -5.6408321575e+00 3.2567359646e+00 5.6408321575e+00 
88100 6.7286466925e+00 -9.6586983793e-04 3.2567510060e+00 -5.6408582100e+00 3.2567510060e+00 5.6408582100e+00 
88200 6.7286469724e+00 -9.5217174527e-04 3.2567658348e+00 -5.6408838942e+00 3.2567658348e+00 5.6408838942e+00 
88300 6.7286472491e+00 -9.3862484804e-04 3.2567804531e+00 -5.6409092139e+00 3.2567804531e+00 5.6409092139e+00 
88400 6.7286475226e+00 -9.2522831236e-04 3.2567948635e+00 -5.6409341734e+00 3.2567948635e+00 5.6409341734e+00 
88500 6.7286477928e+00 -9.1198127599e-04 3.2568090681e+00 -5.6409587764e+00 3.2568090681e+00 5.6409587764e+00 
88600 6.7286480598e+00 -8.9888284906e-04 3.2568230692e+00 -5.6409830272e+00 3.2568230692e+00 5.6409830272e+00 
88700 6.7286483237e+00 -8.8593211485e-04 3.2568368692e+00 -5.6410069295e+00 3.2568368692e+00 5.6410069295e+00 
88800 6.7286485844e+00 -8.7312813065e-04 3.2568504704e+00 -5.6410304873e+00 3.2568504704e+00 5.6410304873e+00 
88900 6.7286488420e+00 -8.6046992846e-04 3.2568638748e+00 -5.6410537046e+00 3.2568638748e+00 5.6410537046e+00 
89000 6.7286490966e+00 -8.4795651589e-04 3.2568770850e+00 -5.6410765852e+00 3.2568770850e+00 5.6410765852e+00 
89100 6.7286493481e+00 -8.3558687695e-04 3.2568901029e+00 -5.6410991329e+00 3.2568901029e+00 5.6410991329e+00 
89200 6.7286495967e+00 -8.2335997284e-04 3.2569029309e+00 -5.6411213516e+00 3.2569029309e+00 5.6411213516e+00 
89300 6.7286498422e+00 -8.1127474286e-04 3.2569155711e+00 -5.6411432452e+00 3.2569155711e+00 5.6411432452e+00 
89400 6.7286500848e+00 -7.9933010517e-04 3.2569280258e+00 -5.6411648173e+00 3.2569280258e+00 5.6411648173e+00 
89500 6.7286503245e+00 -7.8752495769e-04 3.2569402970e+00 -5.6411860717e+00 3.2569402970e+00 5.6411860717e+00 
89600 6.7286505612e+00 -7.7585817892e-04 3.2569523870e+00 -5.6412070121e+00 3.2569523870e+00 5.6412070121e+00 
89700 6.7286507952e+00 -7.6432862878e-04 3.2569642978e+00 -5.6412276422e+00 3.2569642978e+00 5.6412276422e+00 
89800 6.7286510263e+00 -7.5293514949e-04 3.2569760316e+00 -5.6412479657e+00 3.2569760316e+00 5.6412479657e+00 
89900 6.7286512546e+00 -7.4167656639e-04 3.2569875904e+00 -5.6412679861e+00 3.2569875904e+00 5.6412679861e+00 
90000 6.7286514801e+00 -7.3055168879e-04 3.2569989763e+00 -5.6412877072e+00 3.2569989763e+00 5.6412877072e+00 
90100 6.7286517028e+00 -7.1955931085e-04 3.2570101914e+00 -5.6413071323e+00 3.2570101914e+00 5.6413071323e+00 
90200 6.7286519229e+00 -7.0869821240e-04 3.2570212377e+00 -5.6413262651e+00 3.2570212377e+00 5.6413262651e+00 
90300 6.7286521403e+00 -6.9796715978e-04 3.2570321173e+00 -5.6413451090e+00 3.2570321173e+00 5.6413451090e+00 
90400 6.7286523550e+00 -6.8736490668e-04 3.2570428321e+00 -5.6413636676e+00 3.2570428321e+00 5.6413636676e+00 
90500 6.7286525670e+00 -6.7689019503e-04 3.2570533841e+00 -5.6413819441e+00 3.2570533841e+00 5.6413819441e+00 
90600 6.7286527765e+00 -6.6654175574e-04 3.2570637752e+00 -5.6413999421e+00 3.2570637752e+00 5.6413999421e+00 
90700 6.7286529833e+00 -6.5631830958e-04 3.2570740075e+00 -5.6414176649e+00 3.2570740075e+00 5.6414176649e+00 
90800 6.7286531877e+00 -6.4621856802e-04 3.2570840827e+00 -5.6414351158e+00 3.2570840827e+00 5.6414351158e+00 
90900 6.7286533895e+00 -6.3624123398e-04 3.2570940029e+00 -5.6414522981e+00 3.2570940029e+00 5.6414522981e+00 
91000 6.7286535887e+00 -6.2638500269e-04 3.2571037700e+00 -5.6414692151e+00 3.2571037700e+00 5.6414692151e+00 
91100 6.7286537856e+00 -6.1664856245e-04 3.2571133856e+00 -5.6414858699e+00 3.2571133856e+00 5.6414858699e+00 
91200 6.7286539799e+00 -6.0703059544e-04 3.2571228518e+00 -5.6415022659e+00 3.2571228518e+00 5.6415022659e+00 
91300 6.7286541719e+00 -5.9752977848e-04 3.2571321703e+00 -5.6415184060e+00 3.2571321703e+00 5.6415184060e+00 
91400 6.7286543614e+00 -5.8814478384e-04 3.2571413430e+00 -5.6415342935e+00 3.2571413430e+00 5.6415342935e+00 
91500 6.7286545486e+00 -5.7887427992e-04 3.2571503715e+00 -5.6415499314e+00 3.2571503715e+00 5.6415499314e+00 
91600 6.7286547334e+00 -5.6971693209e-04 3.2571592577e+00 -5.6415653227e+00 3.2571592577e+00 5.6415653227e+00 
91700 6.7286549159e+00 -5.6067140336e-04 3.2571680034e+00 -5.6415804706e+00 3.2571680034e+00 5.6415804706e+00 
91800 6.7286550961e+00 -5.5173635513e-04 3.2571766101e+00 -5.6415953779e+00 3.2571766101e+00 5.6415953779e+00 
91900 6.7286552741e+00 -5.4291044790e-04 3.2571850796e+00 -5.6416100476e+00 3.2571850796e+00 5.6416100476e+00 
92000 6.7286554497e+00 -5.3419234197e-04 3.2571934137e+00 -5.6416244826e+00 3.2571934137e+00 5.6416244826e+00 
92100 6.7286556232e+00 -5.2558069811e-04 3.2572016139e+00 -5.6416386857e+00 3.2572016139e+00 5.6416386857e+00 
92200 6.7286557945e+00 -5.1707417828e-04 3.2572096819e+00 -5.6416526599e+00 3.2572096819e+00 5.6416526599e+00 
92300 6.7286559635e+00 -5.0867144625e-04 3.2572176192e+00 -5.6416664078e+00 3.2572176192e+00 5.6416664078e+00 
92400 6.7286561305e+00 -5.0037116824e-04 3.2572254276e+00 -5.6416799324e+00 3.2572254276e+00 5.6416799324e+00 
92500 6.7286562953e+00 -4.9217201360e-04 3.2572331086e+00 -5.6416932361e+00 3.2572331086e+00 5.6416932361e+00 
92600 6.7286564579e+00 -4.8407265537e-04 3.2572406636e+00 -5.6417063219e+00 3.2572406636e+00 5.6417063219e+00 
92700 6.7286566186e+00 -4.7607177093e-04 3.2572480944e+00 -5.6417191923e+00 3.2572480944e+00 5.6417191923e+00 
92800 6.7286567771e+00 -4.6816804257e-04 3.2572554022e+00 -5.6417318499e+00 3.2572554022e+00 5.6417318499e+00 
92900 6.7286569336e+00 -4.6036015805e-04 3.2572625888e+00 -5.6417442974e+00 3.2572625888e+00 5.6417442974e+00 
93000 6.7286570881e+00 -4.5264681120e-04 3.2572696555e+00 -5.6417565372e+00 3.2572696555e+00 5.6417565372e+00 
93100 6.7286572406e+00 -4.4502670241e-04 3.2572766037e+00 -5.6417685719e+00 3.2572766037e+00 5.6417685719e+00 
93200 6.7286573911e+00 -4.3749853920e-04 3.2572834350e+00 -5.6417804041e+00 3.2572834350e+00 5.6417804041e+00 
93300 6.7286575396e+00 -4.3006103670e-04 3.2572901507e+00 -5.6417920360e+00 3.2572901507e+00 5.6417920360e+00 
93400 6.7286576863e+00 -4.2271291818e-04 3.2572967522e+00 -5.6418034702e+00 3.2572967522e+00 5.6418034702e+00 
93500 6.7286578310e+00 -4.1545291550e-04 3.2573032409e+00 -5.6418147089e+00 3.2573032409e+00 5.6418147089e+00 
93600 6.7286579738e+00 -4.0827976960e-04 3.2573096182e+00 -5.6418257547e+00 3.2573096182e+00 5.6418257547e+00 
93700 6.7286581148e+00 -4.0119223092e-04 3.2573158853e+00 -5.6418366097e+00 3.2573158853e+00 5.6418366097e+00 
93800 6.7286582539e+00 -3.9418905986e-04 3.2573220436e+00 -5.6418472762e+00 3.2573220436e+00 5.6418472762e+00 
93900 6.7286583912e+00 -3.8726902717e-04 3.2573280945e+00 -5.6418577565e+00 3.2573280945e+00 5.6418577565e+00 
94000 6.7286585267e+00 -3.8043091437e-04 3.2573340390e+00 -5.6418680528e+00 3.2573340390e+00 5.6418680528e+00 
94100 6.7286586605e+00 -3.7367351414e-04 3.2573398786e+00 -5.6418781673e+00 3.2573398786e+00 5.6418781673e+00 
94200 6.7286587924e+00 -3.6699563066e-04 3.2573456145e+00 -5.6418881021e+00 3.2573456145e+00 5.6418881021e+00 
94300 6.7286589226e+00 -3.6039607999e-04 3.2573512479e+00 -5.6418978594e+00 3.2573512479e+00 5.6418978594e+00 
94400 6.7286590511e+00 -3.5387369040e-04 3.2573567799e+00 -5.6419074412e+00 3.2573567799e+00 5.6419074412e+00 
94500 6.7286591779e+00 -3.4742730265e-04 3.2573622118e+00 -5.6419168495e+00 3.2573622118e+00 5.6419168495e+00 
94600 6.7286593029e+00 -3.4105577037e-04 3.2573675448e+00 -5.6419260865e+00 3.2573675448e+00 5.6419260865e+00 
94700 6.7286594264e+00 -3.3475796030e-04 3.2573727799e+00 -5.6419351540e+00 3.2573727799e+00 5.6419351540e+00 
94800 6.7286595481e+00 -3.2853275256e-04 3.2573779184e+00 -5.6419440541e+00 3.2573779184e+00 5.6419440541e+00 
94900 6.7286596683e+00 -3.2237904093e-04 3.2573829613e+00 -5.6419527887e+00 3.2573829613e+00 5.6419527887e+00 
95000 6.7286597868e+00 -3.1629573308e-04 3.2573879097e+00 -5.6419613596e+00 3.2573879097e+00 5.6419613596e+00 
95100 6.7286599037e+00 -3.1028175079e-04 3.2573927648e+00 -5.6419697688e+00 3.2573927648e+00 5.6419697688e+00 
95200 6.7286600191e+00 -3.0433603018e-04 3.2573975275e+00 -5.6419780181e+00 3.2573975275e+00 5.6419780181e+00 
95300 6.7286601329e+00 -2.9845752189e-04 3.2574021990e+00 -5.6419861093e+00 3.2574021990e+00 5.6419861093e+00 
95400 6.7286602452e+00 -2.9264519129e-04 3.2574067802e+00 -5.6419940442e+00 3.2574067802e+00 5.6419940442e+00 
95500 6.7286603559e+00 -2.8689801861e-04 3.2574112722e+00 -5.6420018246e+00 3.2574112722e+00 5.6420018246e+00 
95600 6.7286604652e+00 -2.8121499912e-04 3.2574156760e+00 -5.6420094522e+00 3.2574156760e+00 5.6420094522e+00 
95700 6.7286605729e+00 -2.7559514324e-04 3.2574199925e+00 -5.6420169286e+00 3.2574199925e+00 5.6420169286e+00 
95800 6.7286606792e+00 -2.7003747672e-04 3.2574242228e+00 -5.6420242557e+00 3.2574242228e+00 5.6420242557e+00 
95900 6.7286607841e+00 -2.6454104069e-04 3.2574283677e+00 -5.6420314349e+00 3.2574283677e+00 5.6420314349e+00 
96000 6.7286608875e+00 -2.5910489180e-04 3.2574324283e+00 -5.6420384681e+00 3.2574324283e+00 5.6420384681e+00 
96100 6.7286609895e+00 -2.5372810226e-04 3.2574364055e+00 -5.6420453567e+00 3.2574364055e+00 5.6420453567e+00 
96200 6.7286610901e+00 -2.4840975999e-04 3.2574403001e+00 -5.6420521023e+00 3.2574403001e+00 5.6420521023e+00 
96300 6.7286611893e+00 -2.4314896859e-04 3.2574441130e+00 -5.6420587066e+00 3.2574441130e+00 5.6420587066e+00 
96400 6.7286612871e+00 -2.3794484742e-04 3.2574478452e+00 -5.6420651709e+00 3.2574478452e+00 5.6420651709e+00 
96500 6.7286613836e+00 -2.3279653166e-04 3.2574514975e+00 -5.6420714969e+00 3.2574514975e+00 5.6420714969e+00 
96600 6.7286614788e+00 -2.2770317230e-04 3.2574550708e+00 -5.6420776861e+00 3.2574550708e+00 5.6420776861e+00 
96700 6.7286615726e+00 -2.2266393615e-04 3.2574585659e+00 -5.6420837398e+00 3.2574585659e+00 5.6420837398e+00 
96800 6.7286616651e+00 -2.1767800584e-04 3.2574619837e+00 -5.6420896595e+00 3.2574619837e+00 5.6420896595e+00 
96900 6.7286617564e+00 -2.1274457983e-04 3.2574653249e+00 -5.6420954466e+00 3.2574653249e+00 5.6420954466e+00 
97000 6.7286618463e+00 -2.0786287234e-04 3.2574685904e+00 -5.6421011026e+00 3.2574685904e+00 5.6421011026e+00 
97100 6.7286619351e+00 -2.0303211337e-04 3.2574717810e+00 -5.6421066289e+00 3.2574717810e+00 5.6421066289e+00 
97200 6.7286620225e+00 -1.9825154859e-04 3.2574748974e+00 -5.6421120266e+00 3.2574748974e+00 5.6421120266e+00 
97300 6.7286621088e+00 -1.9352043935e-04 3.2574779404e+00 -5.6421172973e+00 3.2574779404e+00 5.6421172973e+00 
97400 6.7286621938e+00 -1.8883806254e-04 3.2574809108e+00 -5.6421224422e+00 3.2574809108e+00 5.6421224422e+00 
97500 6.7286622776e+00 -1.8420371060e-04 3.2574838093e+00 -5.6421274626e+00 3.2574838093e+00 5.6421274626e+00 
97600 6.7286623603e+00 -1.7961669134e-04 3.2574866367e+00 -5.6421323598e+00 3.2574866367e+00 5.6421323598e+00 
97700 6.7286624417e+00 -1.7507632794e-04 3.2574893937e+00 -5.6421371350e+00 3.2574893937e+00 5.6421371350e+00 
97800 6.7286625220e+00 -1.7058195876e-04 3.2574920810e+00 -5.6421417895e+00 3.2574920810e+00 5.6421417895e+00 
97900 6.7286626012e+00 -1.6613293728e-04 3.2574946993e+00 -5.6421463246e+00 3.2574946993e+00 5.6421463246e+00 
98000 6.7286626793e+00 -1.6172863197e-04 3.2574972493e+00 -5.6421507413e+00 3.2574972493e+00 5.6421507413e+00 
98100 6.7286627562e+00 -1.5736842615e-04 3.2574997317e+00 -5.6421550410e+00 3.2574997317e+00 5.6421550410e+00 
98200 6.7286628320e+00 -1.5305171787e-04 3.2575021472e+00 -5.6421592247e+00 3.2575021472e+00 5.6421592247e+00 
98300 6.7286629068e+00 -1.4877791976e-04 3.2575044964e+00 -5.6421632937e+00 3.2575044964e+00 5.6421632937e+00 
98400 6.7286629805e+00 -1.4454645884e-04 3.2575067800e+00 -5.6421672490e+00 3.2575067800e+00 5.6421672490e+00 
98500 6.7286630531e+00 -1.4035677646e-04 3.2575089987e+00 -5.6421710919e+00 3.2575089987e+00 5.6421710919e+00 
98600 6.7286631247e+00 -1.3620832802e-04 3.2575111531e+00 -5.6421748233e+00 3.2575111531e+00 5.6421748233e+00 
98700 6.7286631952e+00 -1.3210058288e-04 3.2575132437e+00 -5.6421784445e+00 3.2575132437e+00 5.6421784445e+00 
98800 6.7286632647e+00 -1.2803302415e-04 3.2575152714e+00 -5.6421819564e+00 3.2575152714e+00 5.6421819564e+00 
98900 6.7286633332e+00 -1.2400514852e-04 3.2575172366e+00 -5.6421853603e+00 3.2575172366e+00 5.6421853603e+00 
99000 6.7286634007e+00 -1.2001646607e-04 3.2575191399e+00 -5.6421886570e+00 3.2575191399e+00 5.6421886570e+00 
99100 6.7286634673e+00 -1.1606650006e-04 3.2575209821e+00 -5.6421918477e+00 3.2575209821e+00 5.6421918477e+00 
99200 6.7286635328e+00 -1.1215478676e-04 3.2575227636e+00 -5.6421949334e+00 3.2575227636e+00 5.6421949334e+00 
99300 6.7286635974e+00 -1.0828087523e-04 3.2575244851e+00 -5.6421979150e+00 3.2575244851e+00 5.6421979150e+00 
99400 6.7286636611e+00 -1.0444432713e-04 3.2575261471e+00 -5.6422007937e+00 3.2575261471e+00 5.6422007937e+00 
99500 6.7286637238e+00 -1.0064471648e-04 3.2575277502e+00 -5.6422035704e+00 3.2575277502e+00 5.6422035704e+00 
99600 6.7286637856e+00 -9.6881629465e-05 3.2575292950e+00 -5.6422062461e+00 3.2575292950e+00 5.6422062461e+00 
99700 6.7286638464e+00 -9.3154664241e-05 3.2575307821e+00 -5.6422088217e+00 3.2575307821e+00 5.6422088217e+00 
99800 6.7286639064e+00 -8.9463430665e-05 3.2575322119e+00 -5.6422112983e+00 3.2575322119e+00 5.6422112983e+00 
99900 6.7286639655e+00 -8.5807550097e-05 3.2575335851e+00 -5.6422136767e+00 3.2575335851e+00 5.6422136767e+00 
100000 6.7286640237e+00 -8.2186655181e-05 3.2575349021e+00 -5.6422159579e+00 3.2575349021e+00 5.6422159579e+00 
100100 6.7286640811e+00 -7.8600389596e-05 3.2575361636e+00 -5.6422181429e+00 3.2575361636e+00 5.6422181429e+00 
100200 6.7286641375e+00 -7.5048407839e-05 3.2575373701e+00 -5.6422202325e+00 3.2575373701e+00 5.6422202325e+00 
100300 6.7286641932e+00 -7.1530374992e-05 3.2575385220e+00 -5.6422222277e+00 3.2575385220e+00 5.6422222277e+00 
100400 6.7286642480e+00 -6.8045966471e-05 3.2575396199e+00 -5.6422241293e+00 3.2575396199e+00 5.6422241293e+00 
100500 6.7286643020e+00 -6.5196128482e-05 3.2575396199e+00 -5.6422241293e+00 3.2575396199e+00 5.6422241293e+00 
100600 6.7286643552e+00 -6.2361685384e-05 3.2575396199e+00 -5.6422241293e+00 3.2575396199e+00 5.6422241293e+00 
100700 6.7286644076e+00 -5.9541455925e-05 3.2575396199e+00 -5.6422241293e+00 3.2575396199e+00 5.6422241293e+00 
100800 6.7286644592e+00 -5.6734389824e-05 3.2575396199e+00 -5.6422241293e+00 3.2575396199e+00 5.6422241293e+00 
100900 6.7286645101e+00 -5.3939545820e-05 3.2575396199e+00 -5.6422241293e+00 3.2575396199e+00 5.6422241293e+00 
101000 6.7286645601e+00 -5.1156073806e-05 3.2575396199e+00 -5.6422241293e+00 3.2575396199e+00 5.6422241293e+00 
101100 6.7286646094e+00 -4.8383200228e-05 3.2575396199e+00 -5.6422241293e+00 3.2575396199e+00 5.6422241293e+00 
101200 6.7286646579e+00 -4.5620215975e-05 3.2575396199e+00 -5.6422241293e+00 3.2575396199e+00 5.6422241293e+00 
101300 6.7286647056e+00 -4.2866466360e-05 3.2575396199e+00 -5.6422241293e+00 3.2575396199e+00 5.6422241293e+00 
101400 6.7286647527e+00 -4.0121342724e-05 3.2575396199e+00 -5.6422241293e+00 3.2575396199e+00 5.6422241293e+00 
101500 6.7286647990e+00 -3.7384275404e-05 3.2575396199e+00 -5.6422241293e+00 3.2575396199e+00 5.6422241293e+00 
101600 6.7286648446e+00 -3.4654727853e-05 3.2575396199e+00 -5.6422241293e+00 3.2575396199e+00 5.6422241293e+00 
101700 6.7286648894e+00 -3.1932191671e-05 3.2575396199e+00 -5.6422241293e+00 3.2575396199e+00 5.6422241293e+00 
101800 6.7286649336e+00 -2.9216182442e-05 3.2575396199e+00 -5.6422241293e+00 3.2575396199e+00 5.6422241293e+00 
101900 6.7286649771e+00 -2.6506236258e-05 3.2575396199e+00 -5.6422241293e+00 3.2575396199e+00 5.6422241293e+00 
102000 6.7286650199e+00 -2.3801906807e-05 3.2575396199e+00 -5.6422241293e+00 3.2575396199e+00 5.6422241293e+00 
102100 6.7286650621e+00 -2.1102762937e-05 3.2575396199e+00 -5.6422241293e+00 3.2575396199e+00 5.6422241293e+00 
102200 6.7286651035e+00 -1.8408386662e-05 3.2575396199e+00 -5.6422241293e+00 3.2575396199e+00 5.6422241293e+00 
102300 6.7286651444e+00 -1.5718371517e-05 3.2575396199e+00 -5.6422241293e+00 3.2575396199e+00 5.6422241293e+00 
102400 6.7286651846e+00 -1.3032321231e-05 3.2575396199e+00 -5.6422241293e+00 3.2575396199e+00 5.6422241293e+00 
102500 6.7286652241e+00 -1.0349848642e-05 3.2575396199e+00 -5.6422241293e+00 3.2575396199e+00 5.6422241293e+00 
102600 6.7286652630e+00 -7.6705748757e-06 3.2575396199e+00 -5.6422241293e+00 3.2575396199e+00 5.6422241293e+00 
102700 6.7286653014e+00 -4.9941286773e-06 3.2575396199e+00 -5.6422241293e+00 3.2575396199e+00 5.6422241293e+00 
102800 6.7286653391e+00 -2.3201459512e-06 3.2575396199e+00 -5.6422241293e+00 3.2575396199e+00 5.6422241293e+00 
102900 6.7286653762e+00 3.5173059109e-07 3.2575396199e+00 -5.6422241293e+00 3.2575396199e+00 5.6422241293e+00 
103000 6.7286654127e+00 3.0218516517e-06 3.2575396199e+00 -5.6422241293e+00 3.2575396199e+00 5.6422241293e+00 
103100 6.7286654486e+00 5.6905614655e-06 3.2575396199e+00 -5.6422241293e+00 3.2575396199e+00 5.6422241293e+00 
103200 6.7286654840e+00 8.3581978392e-06 3.2575396199e+00 -5.6422241293e+00 3.2575396199e+00 5.6422241293e+00 
103300 6.7286655188e+00 1.1025092113e-05 3.2575396199e+00 -5.6422241293e+00 3.2575396199e+00 5.6422241293e+00 
103400 6.7286655530e+00 1.3691569080e-05 3.2575396199e+00 -5.6422241293e+00 3.2575396199e+00 5.6422241293e+00 
103500 6.7286655867e+00 1.6357946852e-05 3.2575396199e+00 -5.6422241293e+00 3.2575396199e+00 5.6422241293e+00 
103600 6.7286656198e+00 1.9024536690e-05 3.2575396199e+00 -5.6422241293e+00 3.2575396199e+00 5.6422241293e+00 
103700 6.7286656524e+00 2.1691642805e-05 3.2575396199e+00 -5.6422241293e+00 3.2575396199e+00 5.6422241293e+00 
103800 6.7286656845e+00 2.4359562143e-05 3.2575396199e+00 -5.6422241293e+00 3.2575396199e+00 5.6422241293e+00 
103900 6.7286657160e+00 2.7028584160e-05 3.2575396199e+00 -5.6422241293e+00 3.2575396199e+00 5.6422241293e+00 
104000 6.7286657471e+00 2.9698990571e-05 3.2575396199e+00 -5.6422241293e+00 3.2575396199e+00 5.6422241293e+00 
104100 6.7286657776e+00 3.2371055127e-05 3.2575396199e+00 -5.6422241293e+00 3.2575396199e+00 5.6422241293e+00 
104200 6.7286658076e+00 3.5045043355e-05 3.2575396199e+00 -5.6422241293e+00 3.2575396199e+00 5.6422241293e+00 
104300 6.7286658371e+00 3.7721212333e-05 3.2575396199e+00 -5.6422241293e+00 3.2575396199e+00 5.6422241293e+00 
104400 6.7286658662e+00 4.0399810457e-05 3.2575396199e+00 -5.6422241293e+00 3.2575396199e+00 5.6422241293e+00 
104500 6.7286658948e+00 4.3081077222e-05 3.2575396199e+00 -5.6422241293e+00 3.2575396199e+00 5.6422241293e+00 
104600 6.7286659229e+00 4.5765243008e-05 3.2575396199e+00 -5.6422241293e+00 3.2575396199e+00 5.6422241293e+00 
104700 6.7286659505e+00 4.8452528889e-05 3.2575396199e+00 -5.6422241293e+00 3.2575396199e+00 5.6422241293e+00 
104800 6.7286659777e+00 5.1143146451e-05 3.2575396199e+00 -5.6422241293e+00 3.2575396199e+00 5.6422241293e+00 
104900 6.7286660044e+00 5.3837297618e-05 3.2575396199e+00 -5.6422241293e+00 3.2575396199e+00 5.6422241293e+00 
105000 6.7286660307e+00 5.6535174521e-05 3.2575396199e+00 -5.6422241293e+00 3.2575396199e+00 5.6422241293e+00 
105100 6.7286660565e+00 5.9236959349e-05 3.2575396199e+00 -5.6422241293e+00 3.2575396199e+00 5.6422241293e+00 
105200 6.7286660820e+00 6.1942824250e-05 3.2575396199e+00 -5.6422241293e+00 3.2575396199e+00 5.6422241293e+00 
105300 6.7286661069e+00 6.4652931216e-05 3.2575396199e+00 -5.6422241293e+00 3.2575396199e+00 5.6422241293e+00 
105400 6.7286661315e+00 6.7367432029e-05 3.2575396199e+00 -5.6422241293e+00 3.2575396199e+00 5.6422241293e+00 
105500 6.7286661557e+00 7.0086468183e-05 3.2575396199e+00 -5.6422241293e+00 3.2575396199e+00 5.6422241293e+00 
105600 6.7286661794e+00 7.2810170848e-05 3.2575396199e+00 -5.6422241293e+00 3.2575396199e+00 5.6422241293e+00 
105700 6.7286662027e+00 7.4895057598e-05 3.2575385023e+00 -5.6422221936e+00 3.2575385023e+00 5.6422221936e+00 
105800 6.7286662256e+00 7.6952646224e-05 3.2575373528e+00 -5.6422202025e+00 3.2575373528e+00 5.6422202025e+00 
105900 6.7286662481e+00 7.8983442138e-05 3.2575361716e+00 -5.6422181567e+00 3.2575361716e+00 5.6422181567e+00 
106000 6.7286662702e+00 8.0987859990e-05 3.2575349593e+00 -5.6422160569e+00 3.2575349593e+00 5.6422160569e+00 
106100 6.7286662919e+00 8.2966239313e-05 3.2575337162e+00 -5.6422139038e+00 3.2575337162e+00 5.6422139038e+00 
106200 6.7286663132e+00 8.4918857223e-05 3.2575324428e+00 -5.6422116982e+00 3.2575324428e+00 5.6422116982e+00 
106300 6.7286663342e+00 8.6845938833e-05 3.2575311393e+00 -5.6422094406e+00 3.2575311393e+00 5.6422094406e+00 
106400 6.7286663548e+00 8.8747665937e-05 3.2575298063e+00 -5.6422071317e+00 3.2575298063e+00 5.6422071317e+00 
106500 6.7286663750e+00 9.0624184253e-05 3.2575284441e+00 -5.6422047724e+00 3.2575284441e+00 5.6422047724e+00 
106600 6.7286663949e+00 9.2475609621e-05 3.2575270531e+00 -5.6422023631e+00 3.2575270531e+00 5.6422023631e+00 
106700 6.7286664144e+00 9.4302033210e-05 3.2575256337e+00 -5.6421999046e+00 3.2575256337e+00 5.6421999046e+00 
106800 6.7286664335e+00 9.6103526042e-05 3.2575241863e+00 -5.6421973975e+00 3.2575241863e+00 5.6421973975e+00 
106900 6.7286664524e+00 9.7880142876e-05 3.2575227112e+00 -5.6421948426e+00 3.2575227112e+00 5.6421948426e+00 
107000 6.7286664708e+00 9.9631925539e-05 3.2575212088e+00 -5.6421922404e+00 3.2575212088e+00 5.6421922404e+00 
107100 6.7286664890e+00 1.0135890585e-04 3.2575196796e+00 -5.6421895916e+00 3.2575196796e+00 5.6421895916e+00 
107200 6.7286665068e+00 1.0306110815e-04 3.2575181238e+00 -5.6421868970e+00 3.2575181238e+00 5.6421868970e+00 
107300 6.7286665243e+00 1.0473855146e-04 3.2575165419e+00 -5.6421841570e+00 3.2575165419e+00 5.6421841570e+00 
107400 6.7286665415e+00 1.0639125145e-04 3.2575149342e+00 -5.6421813725e+00 3.2575149342e+00 5.6421813725e+00 
107500 6.7286665583e+00 1.0801922202e-04 3.2575133012e+00 -5.6421785441e+00 3.2575133012e+00 5.6421785441e+00 
107600 6.7286665749e+00 1.0962247680e-04 3.2575116432e+00 -5.6421756723e+00 3.2575116432e+00 5.6421756723e+00 
107700 6.7286665911e+00 1.1120103036e-04 3.2575099606e+00 -5.6421727580e+00 3.2575099606e+00 5.6421727580e+00 
107800 6.7286666070e+00 1.1275489929e-04 3.2575082538e+00 -5.6421698016e+00 3.2575082538e+00 5.6421698016e+00 
107900 6.7286666227e+00 1.1428410312e-04 3.2575065231e+00 -5.6421668040e+00 3.2575065231e+00 5.6421668040e+00 
108000 6.7286666380e+00 1.1578866514e-04 3.2575047689e+00 -5.6421637657e+00 3.2575047689e+00 5.6421637657e+00 
108100 6.7286666531e+00 1.1726861303e-04 3.2575029917e+00 -5.6421606874e+00 3.2575029917e+00 5.6421606874e+00 
108200 6.7286666679e+00 1.1872397943e-04 3.2575011917e+00 -5.6421575697e+00 3.2575011917e+00 5.6421575697e+00 
108300 6.7286666824e+00 1.2015480248e-04 3.2574993694e+00 -5.6421544134e+00 3.2574993694e+00 5.6421544134e+00 
108400 6.7286666966e+00 1.2156112614e-04 3.2574975251e+00 -5.6421512190e+00 3.2574975251e+00 5.6421512190e+00 
108500 6.7286667105e+00 1.2294300053e-04 3.2574956592e+00 -5.6421479872e+00 3.2574956592e+00 5.6421479872e+00 
108600 6.7286667242e+00 1.2430048222e-04 3.2574937721e+00 -5.6421447187e+00 3.2574937721e+00 5.6421447187e+00 
108700 6.7286667376e+00 1.2563363440e-04 3.2574918642e+00 -5.6421414141e+00 3.2574918642e+00 5.6421414141e+00 
108800 6.7286667508e+00 1.2694252700e-04 3.2574899358e+00 -5.6421380740e+00 3.2574899358e+00 5.6421380740e+00 
108900 6.7286667637e+00 1.2822723687e-04 3.2574879874e+00 -5.6421346992e+00 3.2574879874e+00 5.6421346992e+00 
109000 6.7286667764e+00 1.2948784774e-04 3.2574860192e+00 -5.6421312902e+00 3.2574860192e+00 5.6421312902e+00 
109100 6.7286667888e+00 1.3072445035e-04 3.2574840316e+00 -5.6421278477e+00 3.2574840316e+00 5.6421278477e+00 
109200 6.7286668009e+00 1.3193714234e-04 3.2574820251e+00 -5.6421243722e+00 3.2574820251e+00 5.6421243722e+00 
109300 6.7286668128e+00 1.3312602829e-04 3.2574800000e+00 -5.6421208646e+00 3.2574800000e+00 5.6421208646e+00 
109400 6.7286668245e+00 1.3429121961e-04 3.2574779566e+00 -5.6421173253e+00 3.2574779566e+00 5.6421173253e+00 
109500 6.7286668360e+00 1.3543283450e-04 3.2574758953e+00 -5.6421137551e+00 3.2574758953e+00 5.6421137551e+00 
109600 6.7286668472e+00 1.3655099780e-04 3.2574738165e+00 -5.6421101545e+00 3.2574738165e+00 5.6421101545e+00 
109700 6.7286668582e+00 1.3764584092e-04 3.2574717205e+00 -5.6421065242e+00 3.2574717205e+00 5.6421065242e+00 
109800 6.7286668689e+00 1.3871750164e-04 3.2574696078e+00 -5.6421028648e+00 3.2574696078e+00 5.6421028648e+00 
109900 6.7286668795e+00 1.3976612403e-04 3.2574674786e+00 -5.6420991769e+00 3.2574674786e+00 5.6420991769e+00 
110000 6.7286668898e+00 1.4079185824e-04 3.2574653332e+00 -5.6420954611e+00 3.2574653332e+00 5.6420954611e+00 
110100 6.7286668999e+00 1.4179486034e-04 3.2574631722e+00 -5.6420917180e+00 3.2574631722e+00 5.6420917180e+00 
110200 6.7286669099e+00 1.4277529217e-04 3.2574609957e+00 -5.6420879482e+00 3.2574609957e+00 5.6420879482e+00 
110300 6.7286669196e+00 1.4373332109e-04 3.2574588042e+00 -5.6420841524e+00 3.2574588042e+00 5.6420841524e+00 
110400 6.7286669291e+00 1.4466911986e-04 3.2574565980e+00 -5.6420803312e+00 3.2574565980e+00 5.6420803312e+00 
110500 6.7286669384e+00 1.4558286638e-04 3.2574543774e+00 -5.6420764850e+00 3.2574543774e+00 5.6420764850e+00 
110600 6.7286669475e+00 1.4647474354e-04 3.2574521428e+00 -5.6420726145e+00 3.2574521428e+00 5.6420726145e+00 
110700 6.7286669564e+00 1.4734493897e-04 3.2574498945e+00 -5.6420687204e+00 3.2574498945e+00 5.6420687204e+00 
110800 6.7286669651e+00 1.4819364485e-04 3.2574476328e+00 -5.6420648030e+00 3.2574476328e+00 5.6420648030e+00 
110900 6.7286669736e+00 1.4902105770e-04 3.2574453581e+00 -5.6420608632e+00 3.2574453581e+00 5.6420608632e+00 
111000 6.7286669820e+00 1.4982737817e-04 3.2574430707e+00 -5.6420569013e+00 3.2574430707e+00 5.6420569013e+00 
111100 6.7286669902e+00 1.5061281082e-04 3.2574407710e+00 -5.6420529180e+00 3.2574407710e+00 5.6420529180e+00 
111200 6.7286669981e+00 1.5137756392e-04 3.2574384591e+00 -5.6420489138e+00 3.2574384591e+00 5.6420489138e+00 
111300 6.7286670060e+00 1.5212184921e-04 3.2574361356e+00 -5.6420448892e+00 3.2574361356e+00 5.6420448892e+00 
111400 6.7286670136e+00 1.5284588171e-04 3.2574338006e+00 -5.6420408449e+00 3.2574338006e+00 5.6420408449e+00 
111500 6.7286670211e+00 1.5354987954e-04 3.2574314545e+00 -5.6420367813e+00 3.2574314545e+00 5.6420367813e+00 
111600 6.7286670284e+00 1.5423406362e-04 3.2574290976e+00 -5.6420326990e+00 3.2574290976e+00 5.6420326990e+00 
111700 6.7286670355e+00 1.5489865758e-04 3.2574267301e+00 -5.6420285985e+00 3.2574267301e+00 5.6420285985e+00 
111800 6.7286670425e+00 1.5554388745e-04 3.2574243525e+00 -5.6420244804e+00 3.2574243525e+00 5.6420244804e+00 
111900 6.7286670493e+00 1.5616998154e-04 3.2574219650e+00 -5.6420203451e+00 3.2574219650e+00 5.6420203451e+00 
112000 6.7286670560e+00 1.5677717017e-04 3.2574195679e+00 -5.6420161931e+00 3.2574195679e+00 5.6420161931e+00 
112100 6.7286670625e+00 1.5736568554e-04 3.2574171614e+00 -5.6420120250e+00 3.2574171614e+00 5.6420120250e+00 
112200 6.7286670688e+00 1.5793576149e-04 3.2574147459e+00 -5.6420078412e+00 3.2574147459e+00 5.6420078412e+00 
112300 6.7286670750e+00 1.5848763333e-04 3.2574123216e+00 -5.6420036423e+00 3.2574123216e+00 5.6420036423e+00 
112400 6.7286670811e+00 1.5902153765e-04 3.2574098889e+00 -5.6419994287e+00 3.2574098889e+00 5.6419994287e+00 
112500 6.7286670870e+00 1.5953771215e-04 3.2574074480e+00 -5.6419952009e+00 3.2574074480e+00 5.6419952009e+00 
112600 6.7286670928e+00 1.6003639544e-04 3.2574049992e+00 -5.6419909594e+00 3.2574049992e+00 5.6419909594e+00 
112700 6.7286670984e+00 1.6051782686e-04 3.2574025427e+00 -5.6419867046e+00 3.2574025427e+00 5.6419867046e+00 
112800 6.7286671039e+00 1.6098224636e-04 3.2574000788e+00 -5.6419824370e+00 3.2574000788e+00 5.6419824370e+00 
112900 6.7286671093e+00 1.6142989427e-04 3.2573976077e+00 -5.6419781571e+00 3.2573976077e+00 5.6419781571e+00 
113000 6.7286671145e+00 1.6186101120e-04 3.2573951298e+00 -5.6419738652e+00 3.2573951298e+00 5.6419738652e+00 
113100 6.7286671196e+00 1.6227583781e-04 3.2573926453e+00 -5.6419695619e+00 3.2573926453e+00 5.6419695619e+00 
113200 6.7286671245e+00 1.6267461474e-04 3.2573901544e+00 -5.6419652476e+00 3.2573901544e+00 5.6419652476e+00 
113300 6.7286671294e+00 1.6305758240e-04 3.2573876574e+00 -5.6419609226e+00 3.2573876574e+00 5.6419609226e+00 
113400 6.7286671341e+00 1.6342498084e-04 3.2573851545e+00 -5.6419565875e+00 3.2573851545e+00 5.6419565875e+00 
113500 6.7286671387e+00 1.6377704964e-04 3.2573826460e+00 -5.6419522426e+00 3.2573826460e+00 5.6419522426e+00 
113600 6.7286671432e+00 1.6411402773e-04 3.2573801321e+00 -5.6419478883e+00 3.2573801321e+00 5.6419478883e+00 
113700 6.7286671475e+00 1.6443615329e-04 3.2573776130e+00 -5.6419435251e+00 3.2573776130e+00 5.6419435251e+00 
113800 6.7286671518e+00 1.6474366363e-04 3.2573750889e+00 -5.6419391533e+00 3.2573750889e+00 5.6419391533e+00 
113900 6.7286671559e+00 1.6503679505e-04 3.2573725601e+00 -5.6419347733e+00 3.2573725601e+00 5.6419347733e+00 
114000 6.7286671599e+00 1.6531578271e-04 3.2573700269e+00 -5.6419303856e+00 3.2573700269e+00 5.6419303856e+00 
114100 6.7286671638e+00 1.6558086057e-04 3.2573674893e+00 -5.6419259904e+00 3.2573674893e+00 5.6419259904e+00 
114200 6.7286671676e+00 1.6583226124e-04 3.2573649477e+00 -5.6419215881e+00 3.2573649477e+00 5.6419215881e+00 
114300 6.7286671713e+00 1.6607021587e-04 3.2573624022e+00 -5.6419171792e+00 3.2573624022e+00 5.6419171792e+00 
114400 6.7286671749e+00 1.6629495410e-04 3.2573598530e+00 -5.6419127639e+00 3.2573598530e+00 5.6419127639e+00 
114500 6.7286671784e+00 1.6650670392e-04 3.2573573004e+00 -5.6419083427e+00 3.2573573004e+00 5.6419083427e+00 
114600 6.7286671818e+00 1.6670569159e-04 3.2573547445e+00 -5.6419039158e+00 3.2573547445e+00 5.6419039158e+00 
114700 6.7286671851e+00 1.6689214158e-04 3.2573521856e+00 -5.6418994837e+00 3.2573521856e+00 5.6418994837e+00 
114800 6.7286671882e+00 1.6706627646e-04 3.2573496239e+00 -5.6418950465e+00 3.2573496239e+00 5.6418950465e+00 
114900 6.7286671913e+00 1.6722831684e-04 3.2573470594e+00 -5.6418906048e+00 3.2573470594e+00 5.6418906048e+00 
115000 6.7286671943e+00 1.6737848128e-04 3.2573444925e+00 -5.6418861587e+00 3.2573444925e+00 5.6418861587e+00 
115100 6.7286671972e+00 1.6751698623e-04 3.2573419232e+00 -5.6418817086e+00 3.2573419232e+00 5.6418817086e+00 
115200 6.7286672001e+00 1.6764404600e-04 3.2573393518e+00 -5.6418772549e+00 3.2573393518e+00 5.6418772549e+00 
115300 6.7286672028e+00 1.6775987263e-04 3.2573367785e+00 -5.6418727978e+00 3.2573367785e+00 5.6418727978e+00 
115400 6.7286672054e+00 1.6786467589e-04 3.2573342034e+00 -5.6418683375e+00 3.2573342034e+00 5.6418683375e+00 
115500 6.7286672080e+00 1.6795866322e-04 3.2573316267e+00 -5.6418638745e+00 3.2573316267e+00 5.6418638745e+00 
115600 6.7286672105e+00 1.6804203963e-04 3.2573290485e+00 -5.6418594090e+00 3.2573290485e+00 5.6418594090e+00 
115700 6.7286672129e+00 1.6811500774e-04 3.2573264691e+00 -5.6418549413e+00 3.2573264691e+00 5.6418549413e+00 
115800 6.7286672152e+00 1.6817776766e-04 3.2573238885e+00 -5.6418504716e+00 3.2573238885e+00 5.6418504716e+00 
115900 6.7286672174e+00 1.6823051700e-04 3.2573213070e+00 -5.6418460003e+00 3.2573213070e+00 5.6418460003e+00 
116000 6.7286672196e+00 1.6827345080e-04 3.2573187246e+00 -5.6418415275e+00 3.2573187246e+00 5.6418415275e+00 
116100 6.7286672216e+00 1.6830676153e-04 3.2573161416e+00 -5.6418370536e+00 3.2573161416e+00 5.6418370536e+00 
116200 6.7286672236e+00 1.6833063905e-04 3.2573135581e+00 -5.6418325788e+00 3.2573135581e+00 5.6418325788e+00 
116300 6.7286672256e+00 1.6834527057e-04 3.2573109742e+00 -5.6418281034e+00 3.2573109742e+00 5.6418281034e+00 
116400 6.7286672274e+00 1.6835084065e-04 3.2573083901e+00 -5.6418236276e+00 3.2573083901e+00 5.6418236276e+00 
116500 6.7286672292e+00 1.6834753116e-04 3.2573058059e+00 -5.6418191516e+00 3.2573058059e+00 5.6418191516e+00 
116600 6.7286672309e+00 1.6833552128e-04 3.2573032218e+00 -5.6418146757e+00 3.2573032218e+00 5.6418146757e+00 
116700 6.7286672326e+00 1.6831498748e-04 3.2573006378e+00 -5.6418102002e+00 3.2573006378e+00 5.6418102002e+00 
116800 6.7286672341e+00 1.6828610349e-04 3.2572980541e+00 -5.6418057252e+00 3.2572980541e+00 5.6418057252e+00 
116900 6.7286672357e+00 1.6824904033e-04 3.2572954709e+00 -5.6418012509e+00 3.2572954709e+00 5.6418012509e+00 
117000 6.7286672371e+00 1.6820396628e-04 3.2572928883e+00 -5.6417967776e+00 3.2572928883e+00 5.6417967776e+00 
117100 6.7286672385e+00 1.6815104687e-04 3.2572903063e+00 -5.6417923055e+00 3.2572903063e+00 5.6417923055e+00 
117200 6.7286672398e+00 1.6809044490e-04 3.2572877252e+00 -5.6417878348e+00 3.2572877252e+00 5.6417878348e+00 
117300 6.7286672411e+00 1.6802232040e-04 3.2572851449e+00 -5.6417833658e+00 3.2572851449e+00 5.6417833658e+00 
117400 6.7286672423e+00 1.6794683070e-04 3.2572825658e+00 -5.6417788985e+00 3.2572825658e+00 5.6417788985e+00 
117500 6.7286672434e+00 1.6786413037e-04 3.2572799877e+00 -5.6417744332e+00 3.2572799877e+00 5.6417744332e+00 
117600 6.7286672445e+00 1.6777437126e-04 3.2572774110e+00 -5.6417699702e+00 3.2572774110e+00 5.6417699702e+00 
117700 6.7286672456e+00 1.6767770250e-04 3.2572748356e+00 -5.6417655095e+00 3.2572748356e+00 5.6417655095e+00 
117800 6.7286672465e+00 1.6757427052e-04 3.2572722617e+00 -5.6417610514e+00 3.2572722617e+00 5.6417610514e+00 
117900 6.7286672475e+00 1.6746421905e-04 3.2572696894e+00 -5.6417565960e+00 3.2572696894e+00 5.6417565960e+00 
118000 6.7286672483e+00 1.6734768912e-04 3.2572671188e+00 -5.6417521436e+00 3.2572671188e+00 5.6417521436e+00 
118100 6.7286672492e+00 1.6722481914e-04 3.2572645499e+00 -5.6417476942e+00 3.2572645499e+00 5.6417476942e+00 
118200 6.7286672499e+00 1.6709574482e-04 3.2572619830e+00 -5.6417432481e+00 3.2572619830e+00 5.6417432481e+00 
118300 6.7286672507e+00 1.6696059928e-04 3.2572594180e+00 -5.6417388055e+00 3.2572594180e+00 5.6417388055e+00 
118400 6.7286672513e+00 1.6681951300e-04 3.2572568551e+00 -5.6417343664e+00 3.2572568551e+00 5.6417343664e+00 
118500 6.7286672520e+00 1.6667261391e-04 3.2572542944e+00 -5.6417299311e+00 3.2572542944e+00 5.6417299311e+00 
118600 6.7286672525e+00 1.6652002733e-04 3.2572517359e+00 -5.6417254996e+00 3.2572517359e+00 5.6417254996e+00 
118700 6.7286672531e+00 1.6636187606e-04 3.2572491798e+00 -5.6417210723e+00 3.2572491798e+00 5.6417210723e+00 
118800 6.7286672536e+00 1.6619828040e-04 3.2572466260e+00 -5.6417166491e+00 3.2572466260e+00 5.6417166491e+00 
118900 6.7286672540e+00 1.6602935811e-04 3.2572440748e+00 -5.6417122303e+00 3.2572440748e+00 5.6417122303e+00 
119000 6.7286672544e+00 1.6585522452e-04 3.2572415262e+00 -5.6417078159e+00 3.2572415262e+00 5.6417078159e+00 
119100 6.7286672548e+00 1.6567599253e-04 3.2572389803e+00 -5.6417034062e+00 3.2572389803e+00 5.6417034062e+00 
119200 6.7286672551e+00 1.6549177258e-04 3.2572364371e+00 -5.6416990013e+00 3.2572364371e+00 5.6416990013e+00 
119300 6.7286672554e+00 1.6530267279e-04 3.2572338967e+00 -5.6416946012e+00 3.2572338967e+00 5.6416946012e+00 
119400 6.7286672556e+00 1.6510879888e-04 3.2572313592e+00 -5.6416902062e+00 3.2572313592e+00 5.6416902062e+00 
119500 6.7286672558e+00 1.6491025429e-04 3.2572288247e+00 -5.6416858163e+00 3.2572288247e+00 5.6416858163e+00 
119600 6.7286672560e+00 1.6470714014e-04 3.2572262933e+00 -5.6416814317e+00 3.2572262933e+00 5.6416814317e+00 
119700 6.7286672562e+00 1.6449955528e-04 3.2572237650e+00 -5.6416770525e+00 3.2572237650e+00 5.6416770525e+00 
119800 6.7286672562e+00 1.6428759639e-04 3.2572212398e+00 -5.6416726788e+00 3.2572212398e+00 5.6416726788e+00 
119900 6.7286672563e+00 1.6407135789e-04 3.2572187179e+00 -5.6416683108e+00 3.2572187179e+00 5.6416683108e+00 
120000 6.7286672563e+00 1.6385093208e-04 3.2572161993e+00 -5.6416639485e+00 3.2572161993e+00 5.6416639485e+00 
120100 6.7286672563e+00 1.6362640912e-04 3.2572136841e+00 -5.6416595920e+00 3.2572136841e+00 5.6416595920e+00 
120200 6.7286672563e+00 1.6339787707e-04 3.2572111724e+00 -5.6416552415e+00 3.2572111724e+00 5.6416552415e+00 
120300 6.7286672562e+00 1.6316542193e-04 3.2572086641e+00 -5.6416508971e+00 3.2572086641e+00 5.6416508971e+00 
120400 6.7286672561e+00 1.6292912769e-04 3.2572061595e+00 -5.6416465589e+00 3.2572061595e+00 5.6416465589e+00 
120500 6.7286672560e+00 1.6268907631e-04 3.2572036584e+00 -5.6416422269e+00 3.2572036584e+00 5.6416422269e+00 
120600 6.7286672558e+00 1.6244534784e-04 3.2572011610e+00 -5.6416379014e+00 3.2572011610e+00 5.6416379014e+00 
120700 6.7286672557e+00 1.6219802036e-04 3.2571986674e+00 -5.6416335823e+00 3.2571986674e+00 5.6416335823e+00 
120800 6.7286672554e+00 1.6194717009e-04 3.2571961775e+00 -5.6416292697e+00 3.2571961775e+00 5.6416292697e+00 
120900 6.7286672552e+00 1.6169287138e-04 3.2571936916e+00 -5.6416249639e+00 3.2571936916e+00 5.6416249639e+00 
121000 6.7286672549e+00 1.6143519676e-04 3.2571912095e+00 -5.6416206648e+00 3.2571912095e+00 5.6416206648e+00 
121100 6.7286672546e+00 1.6117421699e-04 3.2571887313e+00 -5.6416163725e+00 3.2571887313e+00 5.6416163725e+00 
121200 6.7286672543e+00 1.6091000104e-04 3.2571862572e+00 -5.6416120872e+00 3.2571862572e+00 5.6416120872e+00 
121300 6.7286672540e+00 1.6064261621e-04 3.2571837871e+00 -5.6416078089e+00 3.2571837871e+00 5.6416078089e+00 
121400 6.7286672536e+00 1.6037212809e-04 3.2571813212e+00 -5.6416035377e+00 3.2571813212e+00 5.6416035377e+00 
121500 6.7286672532e+00 1.6009860060e-04 3.2571788593e+00 -5.6415992737e+00 3.2571788593e+00 5.6415992737e+00 
121600 6.7286672528e+00 1.5982209609e-04 3.2571764017e+00 -5.6415950170e+00 3.2571764017e+00 5.6415950170e+00 
121700 6.7286672524e+00 1.5954267531e-04 3.2571739483e+00 -5.6415907676e+00 3.2571739483e+00 5.6415907676e+00 
121800 6.7286672519e+00 1.5926039745e-04 3.2571714992e+00 -5.6415865256e+00 3.2571714992e+00 5.6415865256e+00 
121900 6.7286672514e+00 1.5897532018e-04 3.2571690545e+00 -5.6415822912e+00 3.2571690545e+00 5.6415822912e+00 
122000 6.7286672509e+00 1.5868749972e-04 3.2571666141e+00 -5.6415780643e+00 3.2571666141e+00 5.6415780643e+00 
122100 6.7286672504e+00 1.5839699083e-04 3.2571641781e+00 -5.6415738451e+00 3.2571641781e+00 5.6415738451e+00 
122200 6.7286672499e+00 1.5810384683e-04 3.2571617466e+00 -5.6415696335e+00 3.2571617466e+00 5.6415696335e+00 
122300 6.7286672493e+00 1.5780811969e-04 3.2571593196e+00 -5.6415654298e+00 3.2571593196e+00 5.6415654298e+00 
122400 6.7286672487e+00 1.5750986000e-04 3.2571568971e+00 -5.6415612340e+00 3.2571568971e+00 5.6415612340e+00 
122500 6.7286672481e+00 1.5720911707e-04 3.2571544792e+00 -5.6415570460e+00 3.2571544792e+00 5.6415570460e+00 
122600 6.7286672475e+00 1.5690593887e-04 3.2571520659e+00 -5.6415528661e+00 3.2571520659e+00 5.6415528661e+00 
122700 6.7286672469e+00 1.5660037215e-04 3.2571496573e+00 -5.6415486942e+00 3.2571496573e+00 5.6415486942e+00 
122800 6.7286672462e+00 1.5629246243e-04 3.2571472533e+00 -5.6415445305e+00 3.2571472533e+00 5.6415445305e+00 
122900 6.7286672456e+00 1.5598225403e-04 3.2571448541e+00 -5.6415403749e+00 3.2571448541e+00 5.6415403749e+00 
123000 6.7286672449e+00 1.5566979010e-04 3.2571424596e+00 -5.6415362275e+00 3.2571424596e+00 5.6415362275e+00 
123100 6.7286672442e+00 1.5535511267e-04 3.2571400699e+00 -5.6415320885e+00 3.2571400699e+00 5.6415320885e+00 
123200 6.7286672435e+00 1.5503826264e-04 3.2571376851e+00 -5.6415279579e+00 3.2571376851e+00 5.6415279579e+00 
123300 6.7286672428e+00 1.5471927986e-04 3.2571353051e+00 -5.6415238356e+00 3.2571353051e+00 5.6415238356e+00 
123400 6.7286672421e+00 1.5439820312e-04 3.2571329301e+00 -5.6415197219e+00 3.2571329301e+00 5.6415197219e+00 
123500 6.7286672413e+00 1.5407507019e-04 3.2571305599e+00 -5.6415156166e+00 3.2571305599e+00 5.6415156166e+00 
123600 6.7286672406e+00 1.5374991784e-04 3.2571281947e+00 -5.6415115200e+00 3.2571281947e+00 5.6415115200e+00 
123700 6.7286672398e+00 1.5342278190e-04 3.2571258345e+00 -5.6415074320e+00 3.2571258345e+00 5.6415074320e+00 
123800 6.7286672390e+00 1.5309369725e-04 3.2571234793e+00 -5.6415033527e+00 3.2571234793e+00 5.6415033527e+00 
123900 6.7286672382e+00 1.5276269785e-04 3.2571211292e+00 -5.6414992821e+00 3.2571211292e+00 5.6414992821e+00 
124000 6.7286672374e+00 1.5242981679e-04 3.2571187841e+00 -5.6414952204e+00 3.2571187841e+00 5.6414952204e+00 
124100 6.7286672366e+00 1.5209508631e-04 3.2571164442e+00 -5.6414911675e+00 3.2571164442e+00 5.6414911675e+00 
124200 6.7286672358e+00 1.5175853779e-04 3.2571141094e+00 -5.6414871235e+00 3.2571141094e+00 5.6414871235e+00 
124300 6.7286672350e+00 1.5142020184e-04 3.2571117797e+00 -5.6414830884e+00 3.2571117797e+00 5.6414830884e+00 
124400 6.7286672341e+00 1.5108010824e-04 3.2571094553e+00 -5.6414790623e+00 3.2571094553e+00 5.6414790623e+00 
124500 6.7286672333e+00 1.5073828607e-04 3.2571071360e+00 -5.6414750453e+00 3.2571071360e+00 5.6414750453e+00 
124600 6.7286672324e+00 1.5039476364e-04 3.2571048220e+00 -5.6414710373e+00 3.2571048220e+00 5.6414710373e+00 
124700 6.7286672315e+00 1.5004956855e-04 3.2571025133e+00 -5.6414670385e+00 3.2571025133e+00 5.6414670385e+00 
124800 6.7286672307e+00 1.4970272772e-04 3.2571002099e+00 -5.6414630489e+00 3.2571002099e+00 5.6414630489e+00 
124900 6.7286672298e+00 1.4935426742e-04 3.2570979118e+00 -5.6414590684e+00 3.2570979118e+00 5.6414590684e+00 
125000 6.7286672289e+00 1.4900421326e-04 3.2570956190e+00 -5.6414550973e+00 3.2570956190e+00 5.6414550973e+00 
125100 6.7286672280e+00 1.4865259023e-04 3.2570933317e+00 -5.6414511354e+00 3.2570933317e+00 5.6414511354e+00 
125200 6.7286672271e+00 1.4829942274e-04 3.2570910497e+00 -5.6414471829e+00 3.2570910497e+00 5.6414471829e+00 
125300 6.7286672262e+00 1.4794473461e-04 3.2570887731e+00 -5.6414432398e+00 3.2570887731e+00 5.6414432398e+00 
125400 6.7286672252e+00 1.4758854910e-04 3.2570865020e+00 -5.6414393061e+00 3.2570865020e+00 5.6414393061e+00 
125500 6.7286672243e+00 1.4723088894e-04 3.2570842363e+00 -5.6414353819e+00 3.2570842363e+00 5.6414353819e+00 
125600 6.7286672234e+00 1.4687177634e-04 3.2570819762e+00 -5.6414314672e+00 3.2570819762e+00 5.6414314672e+00 
125700 6.7286672225e+00 1.4651123304e-04 3.2570797215e+00 -5.6414275620e+00 3.2570797215e+00 5.6414275620e+00 
125800 6.7286672215e+00 1.4614928027e-04 3.2570774724e+00 -5.6414236664e+00 3.2570774724e+00 5.6414236664e+00 
125900 6.7286672206e+00 1.4578593882e-04 3.2570752288e+00 -5.6414197804e+00 3.2570752288e+00 5.6414197804e+00 
126000 6.7286672196e+00 1.4542122902e-04 3.2570729909e+00 -5.6414159041e+00 3.2570729909e+00 5.6414159041e+00 
126100 6.7286672187e+00 1.4505517082e-04 3.2570707585e+00 -5.6414120375e+00 3.2570707585e+00 5.6414120375e+00 
126200 6.7286672177e+00 1.4468778372e-04 3.2570685317e+00 -5.6414081806e+00 3.2570685317e+00 5.6414081806e+00 
126300 6.7286672168e+00 1.4431908686e-04 3.2570663106e+00 -5.6414043335e+00 3.2570663106e+00 5.6414043335e+00 
126400 6.7286672158e+00 1.4394909901e-04 3.2570640951e+00 -5.6414004962e+00 3.2570640951e+00 5.6414004962e+00 
126500 6.7286672148e+00 1.4357783860e-04 3.2570618853e+00 -5.6413966687e+00 3.2570618853e+00 5.6413966687e+00 
126600 6.7286672139e+00 1.4320532367e-04 3.2570596812e+00 -5.6413928511e+00 3.2570596812e+00 5.6413928511e+00 
126700 6.7286672129e+00 1.4283157202e-04 3.2570574828e+00 -5.6413890434e+00 3.2570574828e+00 5.6413890434e+00 
126800 6.7286672119e+00 1.4245660108e-04 3.2570552902e+00 -5.6413852456e+00 3.2570552902e+00 5.6413852456e+00 
126900 6.7286672110e+00 1.4208042801e-04 3.2570531033e+00 -5.6413814578e+00 3.2570531033e+00 5.6413814578e+00 
127000 6.7286672100e+00 1.4170306973e-04 3.2570509221e+00 -5.6413776800e+00 3.2570509221e+00 5.6413776800e+00 
127100 6.7286672090e+00 1.4132454283e-04 3.2570487468e+00 -5.6413739122e+00 3.2570487468e+00 5.6413739122e+00 
127200 6.7286672080e+00 1.4094486372e-04 3.2570465773e+00 -5.6413701545e+00 3.2570465773e+00 5.6413701545e+00 
127300 6.7286672070e+00 1.4056404854e-04 3.2570444136e+00 -5.6413664069e+00 3.2570444136e+00 5.6413664069e+00 
127400 6.7286672061e+00 1.4018211323e-04 3.2570422558e+00 -5.6413626694e+00 3.2570422558e+00 5.6413626694e+00 
127500 6.7286672051e+00 1.3979907352e-04 3.2570401038e+00 -5.6413589420e+00 3.2570401038e+00 5.6413589420e+00 
127600 6.7286672041e+00 1.3941494494e-04 3.2570379577e+00 -5.6413552249e+00 3.2570379577e+00 5.6413552249e+00 
127700 6.7286672031e+00 1.3902974285e-04 3.2570358175e+00 -5.6413515179e+00 3.2570358175e+00 5.6413515179e+00 
127800 6.7286672021e+00 1.3864348243e-04 3.2570336832e+00 -5.6413478212e+00 3.2570336832e+00 5.6413478212e+00 
127900 6.7286672012e+00 1.3825617870e-04 3.2570315548e+00 -5.6413441348e+00 3.2570315548e+00 5.6413441348e+00 
128000 6.7286672002e+00 1.3786784657e-04 3.2570294324e+00 -5.6413404586e+00 3.2570294324e+00 5.6413404586e+00 
128100 6.7286671992e+00 1.3747850078e-04 3.2570273159e+00 -5.6413367928e+00 3.2570273159e+00 5.6413367928e+00 
128200 6.7286671982e+00 1.3708815596e-04 3.2570252054e+00 -5.6413331373e+00 3.2570252054e+00 5.6413331373e+00 
128300 6.7286671972e+00 1.3669682662e-04 3.2570231009e+00 -5.6413294922e+00 3.2570231009e+00 5.6413294922e+00 
128400 6.7286671962e+00 1.3630452719e-04 3.2570210024e+00 -5.6413258575e+00 3.2570210024e+00 5.6413258575e+00 
128500 6.7286671953e+00 1.3591127198e-04 3.2570189099e+00 -5.6413222332e+00 3.2570189099e+00 5.6413222332e+00 
128600 6.7286671943e+00 1.3551707524e-04 3.2570168235e+00 -5.6413186194e+00 3.2570168235e+00 5.6413186194e+00 
128700 6.7286671933e+00 1.3512195112e-04 3.2570147431e+00 -5.6413150161e+00 3.2570147431e+00 5.6413150161e+00 
128800 6.7286671923e+00 1.3472591374e-04 3.2570126688e+00 -5.6413114233e+00 3.2570126688e+00 5.6413114233e+00 
128900 6.7286671913e+00 1.3432897713e-04 3.2570106006e+00 -5.6413078410e+00 3.2570106006e+00 5.6413078410e+00 
129000 6.7286671904e+00 1.3393115530e-04 3.2570085384e+00 -5.6413042692e+00 3.2570085384e+00 5.6413042692e+00 
129100 6.7286671894e+00 1.3353246221e-04 3.2570064824e+00 -5.6413007080e+00 3.2570064824e+00 5.6413007080e+00 
129200 6.7286671884e+00 1.3313291177e-04 3.2570044324e+00 -5.6412971575e+00 3.2570044324e+00 5.6412971575e+00 
129300 6.7286671875e+00 1.3273251791e-04 3.2570023886e+00 -5.6412936175e+00 3.2570023886e+00 5.6412936175e+00 
129400 6.7286671865e+00 1.3233129450e-04 3.2570003510e+00 -5.6412900882e+00 3.2570003510e+00 5.6412900882e+00 
129500 6.7286671855e+00 1.3192925542e-04 3.2569983195e+00 -5.6412865695e+00 3.2569983195e+00 5.6412865695e+00 
129600 6.7286671846e+00 1.3152641454e-04 3.2569962942e+00 -5.6412830616e+00 3.2569962942e+00 5.6412830616e+00 
129700 6.7286671836e+00 1.3112278574e-04 3.2569942750e+00 -5.6412795643e+00 3.2569942750e+00 5.6412795643e+00 
129800 6.7286671827e+00 1.3071838291e-04 3.2569922621e+00 -5.6412760778e+00 3.2569922621e+00 5.6412760778e+00 
129900 6.7286671817e+00 1.3031321994e-04 3.2569902554e+00 -5.6412726021e+00 3.2569902554e+00 5.6412726021e+00 
130000 6.7286671807e+00 1.2990731075e-04 3.2569882549e+00 -5.6412691371e+00 3.2569882549e+00 5.6412691371e+00 
130100 6.7286671798e+00 1.2950066929e-04 3.2569862606e+00 -5.6412656829e+00 3.2569862606e+00 5.6412656829e+00 
130200 6.7286671789e+00 1.2909330954e-04 3.2569842725e+00 -5.6412622395e+00 3.2569842725e+00 5.6412622395e+00 
130300 6.7286671779e+00 1.2868524550e-04 3.2569822907e+00 -5.6412588069e+00 3.2569822907e+00 5.6412588069e+00 
130400 6.7286671770e+00 1.2827649123e-04 3.2569803152e+00 -5.6412553852e+00 3.2569803152e+00 5.6412553852e+00 
130500 6.7286671760e+00 1.2786706083e-04 3.2569783459e+00 -5.6412519743e+00 3.2569783459e+00 5.6412519743e+00 
130600 6.7286671751e+00 1.2745696843e-04 3.2569763830e+00 -5.6412485744e+00 3.2569763830e+00 5.6412485744e+00 
130700 6.7286671742e+00 1.2704622822e-04 3.2569744263e+00 -5.6412451853e+00 3.2569744263e+00 5.6412451853e+00 
130800 6.7286671733e+00 1.2663485447e-04 3.2569724759e+00 -5.6412418072e+00 3.2569724759e+00 5.6412418072e+00 
130900 6.7286671723e+00 1.2622286146e-04 3.2569705319e+00 -5.6412384400e+00 3.2569705319e+00 5.6412384400e+00 
131000 6.7286671714e+00 1.2581026358e-04 3.2569685941e+00 -5.6412350837e+00 3.2569685941e+00 5.6412350837e+00 
131100 6.7286671705e+00 1.2539707524e-04 3.2569666627e+00 -5.6412317384e+00 3.2569666627e+00 5.6412317384e+00 
131200 6.7286671696e+00 1.2498331095e-04 3.2569647377e+00 -5.6412284041e+00 3.2569647377e+00 5.6412284041e+00 
131300 6.7286671687e+00 1.2456898527e-04 3.2569628190e+00 -5.6412250808e+00 3.2569628190e+00 5.6412250808e+00 
131400 6.7286671678e+00 1.2415411284e-04 3.2569609066e+00 -5.6412217685e+00 3.2569609066e+00 5.6412217685e+00 
131500 6.7286671669e+00 1.2373870835e-04 3.2569590006e+00 -5.6412184673e+00 3.2569590006e+00 5.6412184673e+00 
131600 6.7286671660e+00 1.2332278660e-04 3.2569571010e+00 -5.6412151771e+00 3.2569571010e+00 5.6412151771e+00 
131700 6.7286671651e+00 1.2290636243e-04 3.2569552078e+00 -5.6412118979e+00 3.2569552078e+00 5.6412118979e+00 
131800 6.7286671642e+00 1.2248945078e-04 3.2569533210e+00 -5.6412086298e+00 3.2569533210e+00 5.6412086298e+00 
131900 6.7286671633e+00 1.2207206665e-04 3.2569514406e+00 -5.6412053728e+00 3.2569514406e+00 5.6412053728e+00 
132000 6.7286671625e+00 1.2165422513e-04 3.2569495665e+00 -5.6412021269e+00 3.2569495665e+00 5.6412021269e+00 
132100 6.7286671616e+00 1.2123594137e-04 3.2569476989e+00 -5.6411988921e+00 3.2569476989e+00 5.6411988921e+00 
132200 6.7286671607e+00 1.2081723061e-04 3.2569458377e+00 -5.6411956685e+00 3.2569458377e+00 5.6411956685e+00 
132300 6.7286671599e+00 1.2039810818e-04 3.2569439830e+00 -5.6411924559e+00 3.2569439830e+00 5.6411924559e+00 
132400 6.7286671590e+00 1.1997858947e-04 3.2569421346e+00 -5.6411892545e+00 3.2569421346e+00 5.6411892545e+00 
132500 6.7286671581e+00 1.1955868994e-04 3.2569402928e+00 -5.6411860643e+00 3.2569402928e+00 5.6411860643e+00 
132600 6.7286671573e+00 1.1913842515e-04 3.2569384573e+00 -5.6411828852e+00 3.2569384573e+00 5.6411828852e+00 
132700 6.7286671564e+00 1.1871781072e-04 3.2569366283e+00 -5.6411797173e+00 3.2569366283e+00 5.6411797173e+00 
132800 6.7286671556e+00 1.1829686236e-04 3.2569348058e+00 -5.6411765605e+00 3.2569348058e+00 5.6411765605e+00 
132900 6.7286671548e+00 1.1787559582e-04 3.2569329897e+00 -5.6411734150e+00 3.2569329897e+00 5.6411734150e+00 
133000 6.7286671539e+00 1.1745402697e-04 3.2569311801e+00 -5.6411702807e+00 3.2569311801e+00 5.6411702807e+00 
133100 6.7286671531e+00 1.1703217171e-04 3.2569293769e+00 -5.6411671575e+00 3.2569293769e+00 5.6411671575e+00 
133200 6.7286671523e+00 1.1661004604e-04 3.2569275803e+00 -5.6411640456e+00 3.2569275803e+00 5.6411640456e+00 
133300 6.7286671515e+00 1.1618766600e-04 3.2569257901e+00 -5.6411609449e+00 3.2569257901e+00 5.6411609449e+00 
133400 6.7286671507e+00 1.1576504772e-04 3.2569240064e+00 -5.6411578555e+00 3.2569240064e+00 5.6411578555e+00 
133500 6.7286671499e+00 1.1534220739e-04 3.2569222292e+00 -5.6411547772e+00 3.2569222292e+00 5.6411547772e+00 
133600 6.7286671491e+00 1.1491916124e-04 3.2569204585e+00 -5.6411517103e+00 3.2569204585e+00 5.6411517103e+00 
133700 6.7286671483e+00 1.1449592558e-04 3.2569186942e+00 -5.6411486545e+00 3.2569186942e+00 5.6411486545e+00 
133800 6.7286671475e+00 1.1407251678e-04 3.2569169365e+00 -5.6411456100e+00 3.2569169365e+00 5.6411456100e+00 
133900 6.7286671467e+00 1.1364895125e-04 3.2569151853e+00 -5.6411425768e+00 3.2569151853e+00 5.6411425768e+00 
134000 6.7286671459e+00 1.1322524545e-04 3.2569134405e+00 -5.6411395549e+00 3.2569134405e+00 5.6411395549e+00 
134100 6.7286671451e+00 1.1280141591e-04 3.2569117023e+00 -5.6411365442e+00 3.2569117023e+00 5.6411365442e+00 
134200 6.7286671444e+00 1.1237747918e-04 3.2569099706e+00 -5.6411335447e+00 3.2569099706e+00 5.6411335447e+00 
134300 6.7286671436e+00 1.1195345186e-04 3.2569082454e+00 -5.6411305566e+00 3.2569082454e+00 5.6411305566e+00 
134400 6.7286671428e+00 1.1152935060e-04 3.2569065267e+00 -5.6411275797e+00 3.2569065267e+00 5.6411275797e+00 
134500 6.7286671421e+00 1.1110519208e-04 3.2569048145e+00 -5.6411246141e+00 3.2569048145e+00 5.6411246141e+00 
134600 6.7286671413e+00 1.1068099300e-04 3.2569031088e+00 -5.6411216597e+00 3.2569031088e+00 5.6411216597e+00 
134700 6.7286671406e+00 1.1025677011e-04 3.2569014096e+00 -5.6411187167e+00 3.2569014096e+00 5.6411187167e+00 
134800 6.7286671399e+00 1.0983254016e-04 3.2568997169e+00 -5.6411157849e+00 3.2568997169e+00 5.6411157849e+00 
134900 6.7286671391e+00 1.0940831994e-04 3.2568980308e+00 -5.6411128644e+00 3.2568980308e+00 5.6411128644e+00 
135000 6.7286671384e+00 1.0898412626e-04 3.2568963511e+00 -5.6411099552e+00 3.2568963511e+00 5.6411099552e+00 
135100 6.7286671377e+00 1.0855997592e-04 3.2568946780e+00 -5.6411070572e+00 3.2568946780e+00 5.6411070572e+00 
135200 6.7286671370e+00 1.0813588577e-04 3.2568930114e+00 -5.6411041706e+00 3.2568930114e+00 5.6411041706e+00 
135300 6.7286671362e+00 1.0771187262e-04 3.2568913513e+00 -5.6411012952e+00 3.2568913513e+00 5.6411012952e+00 
135400 6.7286671355e+00 1.0728795331e-04 3.2568896977e+00 -5.6410984310e+00 3.2568896977e+00 5.6410984310e+00 
135500 6.7286671348e+00 1.0686414467e-04 3.2568880506e+00 -5.6410955782e+00 3.2568880506e+00 5.6410955782e+00 
135600 6.7286671341e+00 1.0644046354e-04 3.2568864100e+00 -5.6410927366e+00 3.2568864100e+00 5.6410927366e+00 
135700 6.7286671335e+00 1.0601692671e-04 3.2568847759e+00 -5.6410899063e+00 3.2568847759e+00 5.6410899063e+00 
135800 6.7286671328e+00 1.0559355099e-04 3.2568831483e+00 -5.6410870872e+00 3.2568831483e+00 5.6410870872e+00 
135900 6.7286671321e+00 1.0517035316e-04 3.2568815273e+00 -5.6410842794e+00 3.2568815273e+00 5.6410842794e+00 
136000 6.7286671314e+00 1.0474734997e-04 3.2568799127e+00 -5.6410814829e+00 3.2568799127e+00 5.6410814829e+00 
136100 6.7286671307e+00 1.0432455816e-04 3.2568783046e+00 -5.6410786976e+00 3.2568783046e+00 5.6410786976e+00 
136200 6.7286671301e+00 1.0390199441e-04 3.2568767030e+00 -5.6410759235e+00 3.2568767030e+00 5.6410759235e+00 
136300 6.7286671294e+00 1.0347967538e-04 3.2568751079e+00 -5.6410731607e+00 3.2568751079e+00 5.6410731607e+00 
136400 6.7286671288e+00 1.0305761770e-04 3.2568735192e+00 -5.6410704091e+00 3.2568735192e+00 5.6410704091e+00 
136500 6.7286671281e+00 1.0263583793e-04 3.2568719371e+00 -5.6410676688e+00 3.2568719371e+00 5.6410676688e+00 
136600 6.7286671275e+00 1.0221435260e-04 3.2568703614e+00 -5.6410649396e+00 3.2568703614e+00 5.6410649396e+00 
136700 6.7286671268e+00 1.0179317817e-04 3.2568687922e+00 -5.6410622216e+00 3.2568687922e+00 5.6410622216e+00 
136800 6.7286671262e+00 1.0137233104e-04 3.2568672294e+00 -5.6410595149e+00 3.2568672294e+00 5.6410595149e+00 
136900 6.7286671256e+00 1.0095182758e-04 3.2568656731e+00 -5.6410568193e+00 3.2568656731e+00 5.6410568193e+00 
137000 6.7286671250e+00 1.0053168404e-04 3.2568641233e+00 -5.6410541349e+00 3.2568641233e+00 5.6410541349e+00 
137100 6.7286671243e+00 1.0011191665e-04 3.2568625799e+00 -5.6410514617e+00 3.2568625799e+00 5.6410514617e+00 
137200 6.7286671237e+00 9.9692541516e-05 3.2568610430e+00 -5.6410487997e+00 3.2568610430e+00 5.6410487997e+00 
137300 6.7286671231e+00 9.9273574702e-05 3.2568595125e+00 -5.6410461488e+00 3.2568595125e+00 5.6410461488e+00 
137400 6.7286671225e+00 9.8855032160e-05 3.2568579884e+00 -5.6410435090e+00 3.2568579884e+00 5.6410435090e+00 
137500 6.7286671219e+00 9.8436929769e-05 3.2568564708e+00 -5.6410408804e+00 3.2568564708e+00 5.6410408804e+00 
137600 6.7286671213e+00 9.8019283313e-05 3.2568549596e+00 -5.6410382628e+00 3.2568549596e+00 5.6410382628e+00 
137700 6.7286671208e+00 9.7602108469e-05 3.2568534547e+00 -5.6410356564e+00 3.2568534547e+00 5.6410356564e+00 
137800 6.7286671202e+00 9.7185420814e-05 3.2568519563e+00 -5.6410330611e+00 3.2568519563e+00 5.6410330611e+00 
137900 6.7286671196e+00 9.6769235833e-05 3.2568504643e+00 -5.6410304769e+00 3.2568504643e+00 5.6410304769e+00 
138000 6.7286671190e+00 9.6353568885e-05 3.2568489787e+00 -5.6410279037e+00 3.2568489787e+00 5.6410279037e+00 
138100 6.7286671185e+00 9.5938435220e-05 3.2568474994e+00 -5.6410253415e+00 3.2568474994e+00 5.6410253415e+00 
138200 6.7286671179e+00 9.5523849971e-05 3.2568460266e+00 -5.6410227905e+00 3.2568460266e+00 5.6410227905e+00 
138300 6.7286671174e+00 9.5109828152e-05 3.2568445601e+00 -5.6410202504e+00 3.2568445601e+00 5.6410202504e+00 
138400 6.7286671168e+00 9.4696384643e-05 3.2568430999e+00 -5.6410177213e+00 3.2568430999e+00 5.6410177213e+00 
138500 6.7286671163e+00 9.4283534206e-05 3.2568416461e+00 -5.6410152033e+00 3.2568416461e+00 5.6410152033e+00 
138600 6.7286671157e+00 9.3871291459e-05 3.2568401986e+00 -5.6410126962e+00 3.2568401986e+00 5.6410126962e+00 
138700 6.7286671152e+00 9.3459670896e-05 3.2568387575e+00 -5.6410102000e+00 3.2568387575e+00 5.6410102000e+00 
138800 6.7286671147e+00 9.3048686855e-05 3.2568373227e+00 -5.6410077149e+00 3.2568373227e+00 5.6410077149e+00 
138900 6.7286671141e+00 9.2638353541e-05 3.2568358942e+00 -5.6410052406e+00 3.2568358942e+00 5.6410052406e+00 
139000 6.7286671136e+00 9.2228685015e-05 3.2568344719e+00 -5.6410027773e+00 3.2568344719e+00 5.6410027773e+00 
139100 6.7286671131e+00 9.1819695179e-05 3.2568330560e+00 -5.6410003248e+00 3.2568330560e+00 5.6410003248e+00 
139200 6.7286671126e+00 9.1411397784e-05 3.2568316464e+00 -5.6409978832e+00 3.2568316464e+00 5.6409978832e+00 
139300 6.7286671121e+00 9.1003806428e-05 3.2568302430e+00 -5.6409954525e+00 3.2568302430e+00 5.6409954525e+00 
139400 6.7286671116e+00 9.0596934548e-05 3.2568288459e+00 -5.6409930326e+00 3.2568288459e+00 5.6409930326e+00 
139500 6.7286671111e+00 9.0190795420e-05 3.2568274550e+00 -5.6409906235e+00 3.2568274550e+00 5.6409906235e+00 
139600 6.7286671106e+00 8.9785402150e-05 3.2568260704e+00 -5.6409882253e+00 3.2568260704e+00 5.6409882253e+00 
139700 6.7286671101e+00 8.9380767681e-05 3.2568246919e+00 -5.6409858378e+00 3.2568246919e+00 5.6409858378e+00 
139800 6.7286671097e+00 8.8976904784e-05 3.2568233197e+00 -5.6409834610e+00 3.2568233197e+00 5.6409834610e+00 
139900 6.7286671092e+00 8.8573826054e-05 3.2568219537e+00 -5.6409810951e+00 3.2568219537e+00 5.6409810951e+00 
140000 6.7286671087e+00 8.8171543914e-05 3.2568205939e+00 -5.6409787398e+00 3.2568205939e+00 5.6409787398e+00 
140100 6.7286671082e+00 8.7770070611e-05 3.2568192403e+00 -5.6409763952e+00 3.2568192403e+00 5.6409763952e+00 
140200 6.7286671078e+00 8.7369418205e-05 3.2568178928e+00 -5.6409740613e+00 3.2568178928e+00 5.6409740613e+00 
140300 6.7286671073e+00 8.6969598583e-05 3.2568165514e+00 -5.6409717380e+00 3.2568165514e+00 5.6409717380e+00 
140400 6.7286671069e+00 8.6570623433e-05 3.2568152163e+00 -5.6409694254e+00 3.2568152163e+00 5.6409694254e+00 
140500 6.7286671064e+00 8.6172504279e-05 3.2568138872e+00 -5.6409671234e+00 3.2568138872e+00 5.6409671234e+00 
140600 6.7286671060e+00 8.5775252438e-05 3.2568125642e+00 -5.6409648320e+00 3.2568125642e+00 5.6409648320e+00 
140700 6.7286671055e+00 8.5378879045e-05 3.2568112474e+00 -5.6409625511e+00 3.2568112474e+00 5.6409625511e+00 
140800 6.7286671051e+00 8.4983395043e-05 3.2568099366e+00 -5.6409602808e+00 3.2568099366e+00 5.6409602808e+00 
140900 6.7286671047e+00 8.4588811178e-05 3.2568086319e+00 -5.6409580210e+00 3.2568086319e+00 5.6409580210e+00 
141000 6.7286671043e+00 8.4195138011e-05 3.2568073332e+00 -5.6409557716e+00 3.2568073332e+00 5.6409557716e+00 
141100 6.7286671038e+00 8.3802385901e-05 3.2568060406e+00 -5.6409535328e+00 3.2568060406e+00 5.6409535328e+00 
141200 6.7286671034e+00 8.3410565008e-05 3.2568047541e+00 -5.6409513044e+00 3.2568047541e+00 5.6409513044e+00 
141300 6.7286671030e+00 8.3019685305e-05 3.2568034735e+00 -5.6409490864e+00 3.2568034735e+00 5.6409490864e+00 
141400 6.7286671026e+00 8.2629756554e-05 3.2568021990e+00 -5.6409468788e+00 3.2568021990e+00 5.6409468788e+00 
141500 6.7286671022e+00 8.2240788321e-05 3.2568009304e+00 -5.6409446816e+00 3.2568009304e+00 5.6409446816e+00 
141600 6.7286671018e+00 8.1852789984e-05 3.2567996678e+00 -5.6409424947e+00 3.2567996678e+00 5.6409424947e+00 
141700 6.7286671014e+00 8.1465770701e-05 3.2567984111e+00 -5.6409403181e+00 3.2567984111e+00 5.6409403181e+00 
141800 6.7286671010e+00 8.1079739439e-05 3.2567971604e+00 -5.6409381518e+00 3.2567971604e+00 5.6409381518e+00 
141900 6.7286671006e+00 8.0694704964e-05 3.2567959157e+00 -5.6409359958e+00 3.2567959157e+00 5.6409359958e+00 
142000 6.7286671003e+00 8.0310675835e-05 3.2567946768e+00 -5.6409338500e+00 3.2567946768e+00 5.6409338500e+00 
142100 6.7286670999e+00 7.9927660418e-05 3.2567934438e+00 -5.6409317145e+00 3.2567934438e+00 5.6409317145e+00 
142200 6.7286670995e+00 7.9545666863e-05 3.2567922167e+00 -5.6409295891e+00 3.2567922167e+00 5.6409295891e+00 
142300 6.7286670991e+00 7.9164703128e-05 3.2567909955e+00 -5.6409274738e+00 3.2567909955e+00 5.6409274738e+00 
142400 6.7286670988e+00 7.8784776964e-05 3.2567897801e+00 -5.6409253687e+00 3.2567897801e+00 5.6409253687e+00 
142500 6.7286670984e+00 7.8405895922e-05 3.2567885706e+00 -5.6409232737e+00 3.2567885706e+00 5.6409232737e+00 
142600 6.7286670981e+00 7.8028067352e-05 3.2567873668e+00 -5.6409211888e+00 3.2567873668e+00 5.6409211888e+00 
142700 6.7286670977e+00 7.7651298400e-05 3.2567861689e+00 -5.6409191139e+00 3.2567861689e+00 5.6409191139e+00 
142800 6.7286670974e+00 7.7275596005e-05 3.2567849768e+00 -5.6409170491e+00 3.2567849768e+00 5.6409170491e+00 
142900 6.7286670970e+00 7.6900966927e-05 3.2567837904e+00 -5.6409149942e+00 3.2567837904e+00 5.6409149942e+00 
143000 6.7286670967e+00 7.6527417703e-05 3.2567826098e+00 -5.6409129493e+00 3.2567826098e+00 5.6409129493e+00 
143100 6.7286670963e+00 7.6154954674e-05 3.2567814349e+00 -5.6409109143e+00 3.2567814349e+00 5.6409109143e+00 
143200 6.7286670960e+00 7.5783584001e-05 3.2567802657e+00 -5.6409088893e+00 3.2567802657e+00 5.6409088893e+00 
143300 6.7286670957e+00 7.5413311631e-05 3.2567791022e+00 -5.6409068741e+00 3.2567791022e+00 5.6409068741e+00 
143400 6.7286670954e+00 7.5044143317e-05 3.2567779444e+00 -5.6409048687e+00 3.2567779444e+00 5.6409048687e+00 
143500 6.7286670950e+00 7.4676084623e-05 3.2567767923e+00 -5.6409028732e+00 3.2567767923e+00 5.6409028732e+00 
143600 6.7286670947e+00 7.4309140915e-05 3.2567756458e+00 -5.6409008874e+00 3.2567756458e+00 5.6409008874e+00 
143700 6.7286670944e+00 7.3943317368e-05 3.2567745050e+00 -5.6408989115e+00 3.2567745050e+00 5.6408989115e+00 
143800 6.7286670941e+00 7.3578618960e-05 3.2567733698e+00 -5.6408969452e+00 3.2567733698e+00 5.6408969452e+00 
143900 6.7286670938e+00 7.3215050493e-05 3.2567722402e+00 -5.6408949886e+00 3.2567722402e+00 5.6408949886e+00 
144000 6.7286670935e+00 7.2852616569e-05 3.2567711161e+00 -5.6408930417e+00 3.2567711161e+00 5.6408930417e+00 
144100 6.7286670932e+00 7.2491321606e-05 3.2567699976e+00 -5.6408911045e+00 3.2567699976e+00 5.6408911045e+00 
144200 6.7286670929e+00 7.2131169839e-05 3.2567688847e+00 -5.6408891768e+00 3.2567688847e+00 5.6408891768e+00 
144300 6.7286670926e+00 7.1772165315e-05 3.2567677773e+00 -5.6408872587e+00 3.2567677773e+00 5.6408872587e+00 
144400 6.7286670923e+00 7.1414311907e-05 3.2567666754e+00 -5.6408853502e+00 3.2567666754e+00 5.6408853502e+00 
144500 6.7286670920e+00 7.1057613303e-05 3.2567655790e+00 -5.6408834512e+00 3.2567655790e+00 5.6408834512e+00 
144600 6.7286670918e+00 7.0702073015e-05 3.2567644881e+00 -5.6408815616e+00 3.2567644881e+00 5.6408815616e+00 
144700 6.7286670915e+00 7.0973338148e-05 3.2567644881e+00 -5.6408815616e+00 3.2567644881e+00 5.6408815616e+00 
144800 6.7286670913e+00 7.0627938687e-05 3.2567633984e+00 -5.6408796743e+00 3.2567633984e+00 5.6408796743e+00 
144900 6.7286670910e+00 7.0907969388e-05 3.2567633984e+00 -5.6408796743e+00 3.2567633984e+00 5.6408796743e+00 
145000 6.7286670908e+00 7.0571367220e-05 3.2567623098e+00 -5.6408777888e+00 3.2567623098e+00 5.6408777888e+00 
145100 6.7286670906e+00 7.0859161401e-05 3.2567623098e+00 -5.6408777888e+00 3.2567623098e+00 5.6408777888e+00 
145200 6.7286670903e+00 7.0530353718e-05 3.2567612219e+00 -5.6408759045e+00 3.2567612219e+00 5.6408759045e+00 
145300 6.7286670901e+00 7.0825171695e-05 3.2567612219e+00 -5.6408759045e+00 3.2567612219e+00 5.6408759045e+00 
145400 6.7286670898e+00 7.0503385814e-05 3.2567601346e+00 -5.6408740212e+00 3.2567601346e+00 5.6408740212e+00 
145500 6.7286670896e+00 7.0804663448e-05 3.2567601346e+00 -5.6408740212e+00 3.2567601346e+00 5.6408740212e+00 
145600 6.7286670894e+00 7.0489281126e-05 3.2567590475e+00 -5.6408721384e+00 3.2567590475e+00 5.6408721384e+00 
145700 6.7286670892e+00 7.0796569487e-05 3.2567590475e+00 -5.6408721384e+00 3.2567590475e+00 5.6408721384e+00 
145800 6.7286670889e+00 7.0487073837e-05 3.2567579606e+00 -5.6408702558e+00 3.2567579606e+00 5.6408702558e+00 
145900 6.7286670887e+00 7.0799996469e-05 3.2567579606e+00 -5.6408702558e+00 3.2567579606e+00 5.6408702558e+00 
146000 6.7286670885e+00 7.0495934383e-05 3.2567568737e+00 -5.6408683731e+00 3.2567568737e+00 5.6408683731e+00 
146100 6.7286670883e+00 7.0814156819e-05 3.2567568737e+00 -5.6408683731e+00 3.2567568737e+00 5.6408683731e+00 
146200 6.7286670881e+00 7.0515112287e-05 3.2567557865e+00 -5.6408664900e+00 3.2567557865e+00 5.6408664900e+00 
146300 6.7286670879e+00 7.0838320367e-05 3.2567557865e+00 -5.6408664900e+00 3.2567557865e+00 5.6408664900e+00 
146400 6.7286670877e+00 7.0543895782e-05 3.2567546989e+00 -5.6408646063e+00 3.2567546989e+00 5.6408646063e+00 
146500 6.7286670875e+00 7.0871780460e-05 3.2567546989e+00 -5.6408646063e+00 3.2567546989e+00 5.6408646063e+00 
146600 6.7286670873e+00 7.0581583812e-05 3.2567536108e+00 -5.6408627217e+00 3.2567536108e+00 5.6408627217e+00 
146700 6.7286670871e+00 7.0913830785e-05 3.2567536108e+00 -5.6408627217e+00 3.2567536108e+00 5.6408627217e+00 
146800 6.7286670869e+00 7.0627467241e-05 3.2567525221e+00 -5.6408608360e+00 3.2567525221e+00 5.6408608360e+00 
146900 6.7286670867e+00 7.0963750240e-05 3.2567525221e+00 -5.6408608360e+00 3.2567525221e+00 5.6408608360e+00 
147000 6.7286670865e+00 7.0680817028e-05 3.2567514326e+00 -5.6408589489e+00 3.2567514326e+00 5.6408589489e+00 
147100 6.7286670863e+00 7.1020793835e-05 3.2567514326e+00 -5.6408589489e+00 3.2567514326e+00 5.6408589489e+00 
147200 6.7286670861e+00 7.0740877576e-05 3.2567503423e+00 -5.6408570604e+00 3.2567503423e+00 5.6408570604e+00 
147300 6.7286670859e+00 7.0458206846e-05 3.2567492562e+00 -5.6408551793e+00 3.2567492562e+00 5.6408551793e+00 
147400 6.7286670858e+00 7.0796543121e-05 3.2567492562e+00 -5.6408551793e+00 3.2567492562e+00 5.6408551793e+00 
147500 6.7286670856e+00 7.0516938120e-05 3.2567481693e+00 -5.6408532967e+00 3.2567481693e+00 5.6408532967e+00 
147600 6.7286670854e+00 7.0858537567e-05 3.2567481693e+00 -5.6408532967e+00 3.2567481693e+00 5.6408532967e+00 
147700 6.7286670853e+00 7.0581376466e-05 3.2567470814e+00 -5.6408514124e+00 3.2567470814e+00 5.6408514124e+00 
147800 6.7286670851e+00 7.0925695341e-05 3.2567470814e+00 -5.6408514124e+00 3.2567470814e+00 5.6408514124e+00 
147900 6.7286670849e+00 7.0650406754e-05 3.2567459925e+00 -5.6408495264e+00 3.2567459925e+00 5.6408495264e+00 
148000 6.7286670848e+00 7.0996932539e-05 3.2567459925e+00 -5.6408495264e+00 3.2567459925e+00 5.6408495264e+00 
148100 6.7286670846e+00 7.0722979006e-05 3.2567449025e+00 -5.6408476384e+00 3.2567449025e+00 5.6408476384e+00 
148200 6.7286670844e+00 7.0445396008e-05 3.2567438167e+00 -5.6408457578e+00 3.2567438167e+00 5.6408457578e+00 
148300 6.7286670843e+00 7.0787812864e-05 3.2567438167e+00 -5.6408457578e+00 3.2567438167e+00 5.6408457578e+00 
148400 6.7286670841e+00 7.0511492897e-05 3.2567427299e+00 -5.6408438754e+00 3.2567427299e+00 5.6408438754e+00 
148500 6.7286670840e+00 7.0855409530e-05 3.2567427299e+00 -5.6408438754e+00 3.2567427299e+00 5.6408438754e+00 
148600 6.7286670838e+00 7.0579686231e-05 3.2567416421e+00 -5.6408419912e+00 3.2567416421e+00 5.6408419912e+00 
148700 6.7286670837e+00 7.0924495057e-05 3.2567416421e+00 -5.6408419912e+00 3.2567416421e+00 5.6408419912e+00 
148800 6.7286670835e+00 7.0648776556e-05 3.2567405532e+00 -5.6408401052e+00 3.2567405532e+00 5.6408401052e+00 
148900 6.7286670834e+00 7.0993922944e-05 3.2567405532e+00 -5.6408401052e+00 3.2567405532e+00 5.6408401052e+00 
149000 6.7286670833e+00 7.0717672309e-05 3.2567394633e+00 -5.6408382174e+00 3.2567394633e+00 5.6408382174e+00 
149100 6.7286670831e+00 7.0436864678e-05 3.2567383775e+00 -5.6408363369e+00 3.2567383775e+00 5.6408363369e+00 
149200 6.7286670830e+00 7.0775060948e-05 3.2567383775e+00 -5.6408363369e+00 3.2567383775e+00 5.6408363369e+00 
149300 6.7286670828e+00 7.0493683719e-05 3.2567372910e+00 -5.6408344548e+00 3.2567372910e+00 5.6408344548e+00 
149400 6.7286670827e+00 7.0831485010e-05 3.2567372910e+00 -5.6408344548e+00 3.2567372910e+00 5.6408344548e+00 
149500 6.7286670826e+00 7.0548914154e-05 3.2567362035e+00 -5.6408325713e+00 3.2567362035e+00 5.6408325713e+00 
149600 6.7286670825e+00 7.0885729614e-05 3.2567362035e+00 -5.6408325713e+00 3.2567362035e+00 5.6408325713e+00 
149700 6.7286670823e+00 7.0601428717e-05 3.2567351152e+00 -5.6408306863e+00 3.2567351152e+00 5.6408306863e+00 
149800 6.7286670822e+00 7.0936733277e-05 3.2567351152e+00 -5.6408306863e+00 3.2567351152e+00 5.6408306863e+00 
149900 6.7286670821e+00 7.0650232189e-05 3.2567340261e+00 -5.6408288000e+00 3.2567340261e+00 5.6408288000e+00 
150000 6.7286670820e+00 7.0983550754e-05 3.2567340261e+00 -5.6408288000e+00 3.2567340261e+00 5.6408288000e+00 
150100 6.7286670818e+00 7.0694431929e-05 3.2567329363e+00 -5.6408269124e+00 3.2567329363e+00 5.6408269124e+00 
150200 6.7286670817e+00 7.1025329173e-05 3.2567329363e+00 -5.6408269124e+00 3.2567329363e+00 5.6408269124e+00 
150300 6.7286670816e+00 7.0733218560e-05 3.2567318459e+00 -5.6408250237e+00 3.2567318459e+00 5.6408250237e+00 
150400 6.7286670815e+00 7.0435378627e-05 3.2567307599e+00 -5.6408231428e+00 3.2567307599e+00 5.6408231428e+00 
150500 6.7286670814e+00 7.0755397480e-05 3.2567307599e+00 -5.6408231428e+00 3.2567307599e+00 5.6408231428e+00 
150600 6.7286670812e+00 7.0454763293e-05 3.2567296736e+00 -5.6408212613e+00 3.2567296736e+00 5.6408212613e+00 
150700 6.7286670812e+00 7.0771910587e-05 3.2567296736e+00 -5.6408212613e+00 3.2567296736e+00 5.6408212613e+00 
150800 6.7286670810e+00 7.0468012200e-05 3.2567285871e+00 -5.6408193793e+00 3.2567285871e+00 5.6408193793e+00 
150900 6.7286670810e+00 7.0781810931e-05 3.2567285871e+00 -5.6408193793e+00 3.2567285871e+00 5.6408193793e+00 
151000 6.7286670808e+00 7.0474265699e-05 3.2567275004e+00 -5.6408174971e+00 3.2567275004e+00 5.6408174971e+00 
151100 6.7286670808e+00 7.0784307021e-05 3.2567275004e+00 -5.6408174971e+00 3.2567275004e+00 5.6408174971e+00 
151200 6.7286670806e+00 7.0472798757e-05 3.2567264137e+00 -5.6408156148e+00 3.2567264137e+00 5.6408156148e+00 
151300 6.7286670806e+00 7.0778726436e-05 3.2567264137e+00 -5.6408156148e+00 3.2567264137e+00 5.6408156148e+00 
151400 6.7286670804e+00 7.0462991835e-05 3.2567253270e+00 -5.6408137327e+00 3.2567253270e+00 5.6408137327e+00 
151500 6.7286670804e+00 7.0764491996e-05 3.2567253270e+00 -5.6408137327e+00 3.2567253270e+00 5.6408137327e+00 
151600 6.7286670803e+00 7.0444311293e-05 3.2567242406e+00 -5.6408118509e+00 3.2567242406e+00 5.6408118509e+00 
151700 6.7286670802e+00 7.0741105324e-05 3.2567242406e+00 -5.6408118509e+00 3.2567242406e+00 5.6408118509e+00 
151800 6.7286670801e+00 7.0416295647e-05 3.2567231545e+00 -5.6408099697e+00 3.2567231545e+00 5.6408099697e+00 
151900 6.7286670800e+00 7.0708135122e-05 3.2567231545e+00 -5.6408099697e+00 3.2567231545e+00 5.6408099697e+00 
152000 6.7286670799e+00 7.1004237437e-05 3.2567231545e+00 -5.6408099697e+00 3.2567231545e+00 5.6408099697e+00 
152100 6.7286670798e+00 7.0675942582e-05 3.2567220644e+00 -5.6408080816e+00 3.2567220644e+00 5.6408080816e+00 
152200 6.7286670798e+00 7.0966168937e-05 3.2567220644e+00 -5.6408080816e+00 3.2567220644e+00 5.6408080816e+00 
152300 6.7286670797e+00 7.0632328926e-05 3.2567209748e+00 -5.6408061945e+00 3.2567209748e+00 5.6408061945e+00 
152400 6.7286670796e+00 7.0916662483e-05 3.2567209748e+00 -5.6408061945e+00 3.2567209748e+00 5.6408061945e+00 
152500 6.7286670795e+00 7.0577340187e-05 3.2567198861e+00 -5.6408043087e+00 3.2567198861e+00 5.6408043087e+00 
152600 6.7286670794e+00 7.0855728510e-05 3.2567198861e+00 -5.6408043087e+00 3.2567198861e+00 5.6408043087e+00 
152700 6.7286670793e+00 7.0510960315e-05 3.2567187982e+00 -5.6408024245e+00 3.2567187982e+00 5.6408024245e+00 
152800 6.7286670793e+00 7.0783331745e-05 3.2567187982e+00 -5.6408024245e+00 3.2567187982e+00 5.6408024245e+00 
152900 6.7286670792e+00 7.0433140790e-05 3.2567177115e+00 -5.6408005422e+00 3.2567177115e+00 5.6408005422e+00 
153000 6.7286670791e+00 7.0699414651e-05 3.2567177115e+00 -5.6408005422e+00 3.2567177115e+00 5.6408005422e+00 
153100 6.7286670791e+00 7.0969434069e-05 3.2567177115e+00 -5.6408005422e+00 3.2567177115e+00 5.6408005422e+00 
153200 6.7286670790e+00 7.0614876123e-05 3.2567166219e+00 -5.6407986550e+00 3.2567166219e+00 5.6407986550e+00 
153300 6.7286670790e+00 7.0878076560e-05 3.2567166219e+00 -5.6407986550e+00 3.2567166219e+00 5.6407986550e+00 
153400 6.7286670789e+00 7.0517553295e-05 3.2567155337e+00 -5.6407967702e+00 3.2567155337e+00 5.6407967702e+00 
153500 6.7286670788e+00 7.0774026864e-05 3.2567155337e+00 -5.6407967702e+00 3.2567155337e+00 5.6407967702e+00 
153600 6.7286670787e+00 7.0407713609e-05 3.2567144471e+00 -5.6407948882e+00 3.2567144471e+00 5.6407948882e+00 
153700 6.7286670787e+00 7.0657502852e-05 3.2567144471e+00 -5.6407948882e+00 3.2567144471e+00 5.6407948882e+00 
153800 6.7286670786e+00 7.0910778404e-05 3.2567144471e+00 -5.6407948882e+00 3.2567144471e+00 5.6407948882e+00 
153900 6.7286670786e+00 7.0539756111e-05 3.2567133585e+00 -5.6407930025e+00 3.2567133585e+00 5.6407930025e+00 
154000 6.7286670785e+00 7.0785762103e-05 3.2567133585e+00 -5.6407930025e+00 3.2567133585e+00 5.6407930025e+00 
154100 6.7286670784e+00 7.0408654599e-05 3.2567122717e+00 -5.6407911202e+00 3.2567122717e+00 5.6407911202e+00 
154200 6.7286670784e+00 7.0647551916e-05 3.2567122717e+00 -5.6407911202e+00 3.2567122717e+00 5.6407911202e+00 
154300 6.7286670784e+00 7.0889757076e-05 3.2567122717e+00 -5.6407911202e+00 3.2567122717e+00 5.6407911202e+00 
154400 6.7286670783e+00 7.0507689593e-05 3.2567111833e+00 -5.6407892351e+00 3.2567111833e+00 5.6407892351e+00 
154500 6.7286670782e+00 7.0742322392e-05 3.2567111833e+00 -5.6407892351e+00 3.2567111833e+00 5.6407892351e+00 
154600 6.7286670782e+00 7.0354093459e-05 3.2567100972e+00 -5.6407873539e+00 3.2567100972e+00 5.6407873539e+00 
154700 6.7286670781e+00 7.0581371762e-05 3.2567100972e+00 -5.6407873539e+00 3.2567100972e+00 5.6407873539e+00 
154800 6.7286670781e+00 7.0811846480e-05 3.2567100972e+00 -5.6407873539e+00 3.2567100972e+00 5.6407873539e+00 
154900 6.7286670780e+00 7.0418635470e-05 3.2567090101e+00 -5.6407854709e+00 3.2567090101e+00 5.6407854709e+00 
155000 6.7286670780e+00 7.0641355171e-05 3.2567090101e+00 -5.6407854709e+00 3.2567090101e+00 5.6407854709e+00 
155100 6.7286670780e+00 7.0867118954e-05 3.2567090101e+00 -5.6407854709e+00 3.2567090101e+00 5.6407854709e+00 
155200 6.7286670779e+00 7.0468576801e-05 3.2567079220e+00 -5.6407835864e+00 3.2567079220e+00 5.6407835864e+00 
155300 6.7286670779e+00 7.0686329847e-05 3.2567079220e+00 -5.6407835864e+00 3.2567079220e+00 5.6407835864e+00 
155400 6.7286670778e+00 7.0907028158e-05 3.2567079220e+00 -5.6407835864e+00 3.2567079220e+00 5.6407835864e+00 
155500 6.7286670778e+00 7.0502980894e-05 3.2567068334e+00 -5.6407817008e+00 3.2567068334e+00 5.6407817008e+00 
155600 6.7286670777e+00 7.0715497650e-05 3.2567068334e+00 -5.6407817008e+00 3.2567068334e+00 5.6407817008e+00 
155700 6.7286670777e+00 7.0305135566e-05 3.2567057477e+00 -5.6407798203e+00 3.2567057477e+00 5.6407798203e+00 
155800 6.7286670777e+00 7.0509818288e-05 3.2567057477e+00 -5.6407798203e+00 3.2567057477e+00 5.6407798203e+00 
155900 6.7286670776e+00 7.0717489427e-05 3.2567057477e+00 -5.6407798203e+00 3.2567057477e+00 5.6407798203e+00 
156000 6.7286670776e+00 7.0302120513e-05 3.2567046620e+00 -5.6407779398e+00 3.2567046620e+00 5.6407779398e+00 
156100 6.7286670775e+00 7.0501690579e-05 3.2567046620e+00 -5.6407779398e+00 3.2567046620e+00 5.6407779398e+00 
156200 6.7286670775e+00 7.0704143381e-05 3.2567046620e+00 -5.6407779398e+00 3.2567046620e+00 5.6407779398e+00 
156300 6.7286670775e+00 7.0909238336e-05 3.2567046620e+00 -5.6407779398e+00 3.2567046620e+00 5.6407779398e+00 
156400 6.7286670774e+00 7.0489305123e-05 3.2567035733e+00 -5.6407760542e+00 3.2567035733e+00 5.6407760542e+00 
156500 6.7286670774e+00 7.0685723420e-05 3.2567035733e+00 -5.6407760542e+00 3.2567035733e+00 5.6407760542e+00 
156600 6.7286670774e+00 7.0884815306e-05 3.2567035733e+00 -5.6407760542e+00 3.2567035733e+00 5.6407760542e+00 
156700 6.7286670773e+00 7.0459116426e-05 3.2567024850e+00 -5.6407741692e+00 3.2567024850e+00 5.6407741692e+00 
156800 6.7286670773e+00 7.0649570311e-05 3.2567024850e+00 -5.6407741692e+00 3.2567024850e+00 5.6407741692e+00 
156900 6.7286670773e+00 7.0842703856e-05 3.2567024850e+00 -5.6407741692e+00 3.2567024850e+00 5.6407741692e+00 
157000 6.7286670773e+00 7.0411419924e-05 3.2567013974e+00 -5.6407722854e+00 3.2567013974e+00 5.6407722854e+00 
157100 6.7286670772e+00 7.0595919884e-05 3.2567013974e+00 -5.6407722854e+00 3.2567013974e+00 5.6407722854e+00 
157200 6.7286670772e+00 7.0783091273e-05 3.2567013974e+00 -5.6407722854e+00 3.2567013974e+00 5.6407722854e+00 
157300 6.7286670772e+00 7.0346361278e-05 3.2567003107e+00 -5.6407704031e+00 3.2567003107e+00 5.6407704031e+00 
157400 6.7286670772e+00 7.0524884528e-05 3.2567003107e+00 -5.6407704031e+00 3.2567003107e+00 5.6407704031e+00 
157500 6.7286670771e+00 7.0706062121e-05 3.2567003107e+00 -5.6407704031e+00 3.2567003107e+00 5.6407704031e+00 
157600 6.7286670771e+00 7.0889672806e-05 3.2567003107e+00 -5.6407704031e+00 3.2567003107e+00 5.6407704031e+00 
157700 6.7286670771e+00 7.0448235805e-05 3.2566992223e+00 -5.6407685180e+00 3.2566992223e+00 5.6407685180e+00 
157800 6.7286670771e+00 7.0622799192e-05 3.2566992223e+00 -5.6407685180e+00 3.2566992223e+00 5.6407685180e+00 
157900 6.7286670771e+00 7.0799865618e-05 3.2566992223e+00 -5.6407685180e+00 3.2566992223e+00 5.6407685180e+00 
158000 6.7286670770e+00 7.0352731200e-05 3.2566981353e+00 -5.6407666353e+00 3.2566981353e+00 5.6407666353e+00 
158100 6.7286670770e+00 7.0520856986e-05 3.2566981353e+00 -5.6407666353e+00 3.2566981353e+00 5.6407666353e+00 
158200 6.7286670770e+00 7.0691510873e-05 3.2566981353e+00 -5.6407666353e+00 3.2566981353e+00 5.6407666353e+00 
158300 6.7286670770e+00 7.0864480785e-05 3.2566981353e+00 -5.6407666353e+00 3.2566981353e+00 5.6407666353e+00 
158400 6.7286670769e+00 7.0412516733e-05 3.2566970473e+00 -5.6407647508e+00 3.2566970473e+00 5.6407647508e+00 
158500 6.7286670769e+00 7.0576230798e-05 3.2566970473e+00 -5.6407647508e+00 3.2566970473e+00 5.6407647508e+00 
158600 6.7286670769e+00 7.0742349084e-05 3.2566970473e+00 -5.6407647508e+00 3.2566970473e+00 5.6407647508e+00 
158700 6.7286670769e+00 7.0284680974e-05 3.2566959612e+00 -5.6407628696e+00 3.2566959612e+00 5.6407628696e+00 
158800 6.7286670769e+00 7.0441682807e-05 3.2566959612e+00 -5.6407628696e+00 3.2566959612e+00 5.6407628696e+00 
158900 6.7286670769e+00 7.0601123197e-05 3.2566959612e+00 -5.6407628696e+00 3.2566959612e+00 5.6407628696e+00 
159000 6.7286670769e+00 7.0762792182e-05 3.2566959612e+00 -5.6407628696e+00 3.2566959612e+00 5.6407628696e+00 
159100 6.7286670768e+00 7.0300341553e-05 3.2566948748e+00 -5.6407609879e+00 3.2566948748e+00 5.6407609879e+00 
159200 6.7286670768e+00 7.0452603584e-05 3.2566948748e+00 -5.6407609879e+00 3.2566948748e+00 5.6407609879e+00 
159300 6.7286670768e+00 7.0607185792e-05 3.2566948748e+00 -5.6407609879e+00 3.2566948748e+00 5.6407609879e+00 
159400 6.7286670768e+00 7.0763890819e-05 3.2566948748e+00 -5.6407609879e+00 3.2566948748e+00 5.6407609879e+00 
159500 6.7286670768e+00 7.0296371443e-05 3.2566937884e+00 -5.6407591061e+00 3.2566937884e+00 5.6407591061e+00 
159600 6.7286670768e+00 7.0443487175e-05 3.2566937884e+00 -5.6407591061e+00 3.2566937884e+00 5.6407591061e+00 
159700 6.7286670768e+00 7.0592843579e-05 3.2566937884e+00 -5.6407591061e+00 3.2566937884e+00 5.6407591061e+00 
159800 6.7286670768e+00 7.0744249277e-05 3.2566937884e+00 -5.6407591061e+00 3.2566937884e+00 5.6407591061e+00 
159900 6.7286670767e+00 7.0271536061e-05 3.2566927022e+00 -5.6407572249e+00 3.2566927022e+00 5.6407572249e+00 
160000 6.7286670767e+00 7.0413223105e-05 3.2566927022e+00 -5.6407572249e+00 3.2566927022e+00 5.6407572249e+00 
160100 6.7286670767e+00 7.0557089713e-05 3.2566927022e+00 -5.6407572249e+00 3.2566927022e+00 5.6407572249e+00 
160200 6.7286670767e+00 7.0702947416e-05 3.2566927022e+00 -5.6407572249e+00 3.2566927022e+00 5.6407572249e+00 
160300 6.7286670767e+00 7.0850638627e-05 3.2566927022e+00 -5.6407572249e+00 3.2566927022e+00 5.6407572249e+00 
160400 6.7286670767e+00 7.0373081916e-05 3.2566916145e+00 -5.6407553408e+00 3.2566916145e+00 5.6407553408e+00 
160500 6.7286670767e+00 7.0510680776e-05 3.2566916145e+00 -5.6407553408e+00 3.2566916145e+00 5.6407553408e+00 
160600 6.7286670767e+00 7.0650313390e-05 3.2566916145e+00 -5.6407553408e+00 3.2566916145e+00 5.6407553408e+00 
160700 6.7286670767e+00 7.0791806602e-05 3.2566916145e+00 -5.6407553408e+00 3.2566916145e+00 5.6407553408e+00 
160800 6.7286670766e+00 7.0308587108e-05 3.2566905276e+00 -5.6407534583e+00 3.2566905276e+00 5.6407534583e+00 
160900 6.7286670766e+00 7.0440017626e-05 3.2566905276e+00 -5.6407534583e+00 3.2566905276e+00 5.6407534583e+00 
161000 6.7286670766e+00 7.0573477126e-05 3.2566905276e+00 -5.6407534583e+00 3.2566905276e+00 5.6407534583e+00 
161100 6.7286670766e+00 7.0708785522e-05 3.2566905276e+00 -5.6407534583e+00 3.2566905276e+00 5.6407534583e+00 
161200 6.7286670767e+00 7.0845792116e-05 3.2566905276e+00 -5.6407534583e+00 3.2566905276e+00 5.6407534583e+00 
161300 6.7286670766e+00 7.0357464593e-05 3.2566894399e+00 -5.6407515744e+00 3.2566894399e+00 5.6407515744e+00 
161400 6.7286670766e+00 7.0484124853e-05 3.2566894399e+00 -5.6407515744e+00 3.2566894399e+00 5.6407515744e+00 
161500 6.7286670766e+00 7.0612697608e-05 3.2566894399e+00 -5.6407515744e+00 3.2566894399e+00 5.6407515744e+00 
161600 6.7286670766e+00 7.0743012821e-05 3.2566894399e+00 -5.6407515744e+00 3.2566894399e+00 5.6407515744e+00 
161700 6.7286670766e+00 7.0248932035e-05 3.2566883538e+00 -5.6407496932e+00 3.2566883538e+00 5.6407496932e+00 
161800 6.7286670766e+00 7.0368964605e-05 3.2566883538e+00 -5.6407496932e+00 3.2566883538e+00 5.6407496932e+00 
161900 6.7286670766e+00 7.0490914212e-05 3.2566883538e+00 -5.6407496932e+00 3.2566883538e+00 5.6407496932e+00 
162000 6.7286670766e+00 7.0614602406e-05 3.2566883538e+00 -5.6407496932e+00 3.2566883538e+00 5.6407496932e+00 
162100 6.7286670766e+00 7.0739879934e-05 3.2566883538e+00 -5.6407496932e+00 3.2566883538e+00 5.6407496932e+00 
162200 6.7286670766e+00 7.0240653416e-05 3.2566872677e+00 -5.6407478120e+00 3.2566872677e+00 5.6407478120e+00 
162300 6.7286670766e+00 7.0355390618e-05 3.2566872677e+00 -5.6407478120e+00 3.2566872677e+00 5.6407478120e+00 
162400 6.7286670766e+00 7.0471934477e-05 3.2566872677e+00 -5.6407478120e+00 3.2566872677e+00 5.6407478120e+00 
162500 6.7286670766e+00 7.0590116340e-05 3.2566872677e+00 -5.6407478120e+00 3.2566872677e+00 5.6407478120e+00 
162600 6.7286670766e+00 7.0709795227e-05 3.2566872677e+00 -5.6407478120e+00 3.2566872677e+00 5.6407478120e+00 
162700 6.7286670766e+00 7.0830852776e-05 3.2566872677e+00 -5.6407478120e+00 3.2566872677e+00 5.6407478120e+00 
162800 6.7286670766e+00 7.0326416769e-05 3.2566861802e+00 -5.6407459285e+00 3.2566861802e+00 5.6407459285e+00 
162900 6.7286670766e+00 7.0436567823e-05 3.2566861802e+00 -5.6407459285e+00 3.2566861802e+00 5.6407459285e+00 
163000 6.7286670766e+00 7.0548380201e-05 3.2566861802e+00 -5.6407459285e+00 3.2566861802e+00 5.6407459285e+00 
163100 6.7286670766e+00 7.0661699956e-05 3.2566861802e+00 -5.6407459285e+00 3.2566861802e+00 5.6407459285e+00 
163200 6.7286670766e+00 7.0776398400e-05 3.2566861802e+00 -5.6407459285e+00 3.2566861802e+00 5.6407459285e+00 
163300 6.7286670766e+00 7.0266077071e-05 3.2566850936e+00 -5.6407440464e+00 3.2566850936e+00 5.6407440464e+00 
163400 6.7286670766e+00 7.0369855911e-05 3.2566850936e+00 -5.6407440464e+00 3.2566850936e+00 5.6407440464e+00 
163500 6.7286670766e+00 7.0475275194e-05 3.2566850936e+00 -5.6407440464e+00 3.2566850936e+00 5.6407440464e+00 
163600 6.7286670766e+00 7.0582176611e-05 3.2566850936e+00 -5.6407440464e+00 3.2566850936e+00 5.6407440464e+00 
163700 6.7286670766e+00 7.0690427950e-05 3.2566850936e+00 -5.6407440464e+00 3.2566850936e+00 5.6407440464e+00 
163800 6.7286670766e+00 7.0799918293e-05 3.2566850936e+00 -5.6407440464e+00 3.2566850936e+00 5.6407440464e+00 
163900 6.7286670766e+00 7.0284056153e-05 3.2566840066e+00 -5.6407421637e+00 3.2566840066e+00 5.6407421637e+00 
164000 6.7286670766e+00 7.0382384448e-05 3.2566840066e+00 -5.6407421637e+00 3.2566840066e+00 5.6407421637e+00 
164100 6.7286670766e+00 7.0482250657e-05 3.2566840066e+00 -5.6407421637e+00 3.2566840066e+00 5.6407421637e+00 
164200 6.7286670766e+00 7.0583504949e-05 3.2566840066e+00 -5.6407421637e+00 3.2566840066e+00 5.6407421637e+00 
164300 6.7286670766e+00 7.0686022238e-05 3.2566840066e+00 -5.6407421637e+00 3.2566840066e+00 5.6407421637e+00 
164400 6.7286670766e+00 7.0789697643e-05 3.2566840066e+00 -5.6407421637e+00 3.2566840066e+00 5.6407421637e+00 
164500 6.7286670766e+00 7.0268035595e-05 3.2566829198e+00 -5.6407402812e+00 3.2566829198e+00 5.6407402812e+00 
164600 6.7286670766e+00 7.0360403604e-05 3.2566829198e+00 -5.6407402812e+00 3.2566829198e+00 5.6407402812e+00 
164700 6.7286670766e+00 7.0454241794e-05 3.2566829198e+00 -5.6407402812e+00 3.2566829198e+00 5.6407402812e+00 
164800 6.7286670766e+00 7.0549403567e-05 3.2566829198e+00 -5.6407402812e+00 3.2566829198e+00 5.6407402812e+00 
164900 6.7286670766e+00 7.0645766639e-05 3.2566829198e+00 -5.6407402812e+00 3.2566829198e+00 5.6407402812e+00 
165000 6.7286670766e+00 7.0743228585e-05 3.2566829198e+00 -5.6407402812e+00 3.2566829198e+00 5.6407402812e+00 
165100 6.7286670766e+00 7.0215707484e-05 3.2566818337e+00 -5.6407384000e+00 3.2566818337e+00 5.6407384000e+00 
165200 6.7286670766e+00 7.0301758464e-05 3.2566818337e+00 -5.6407384000e+00 3.2566818337e+00 5.6407384000e+00 
165300 6.7286670766e+00 7.0389225857e-05 3.2566818337e+00 -5.6407384000e+00 3.2566818337e+00 5.6407384000e+00 
165400 6.7286670766e+00 7.0477964717e-05 3.2566818337e+00 -5.6407384000e+00 3.2566818337e+00 5.6407384000e+00 
165500 6.7286670766e+00 7.0567854285e-05 3.2566818337e+00 -5.6407384000e+00 3.2566818337e+00 5.6407384000e+00 
165600 6.7286670767e+00 7.0658793564e-05 3.2566818337e+00 -5.6407384000e+00 3.2566818337e+00 5.6407384000e+00 
165700 6.7286670767e+00 7.0750697769e-05 3.2566818337e+00 -5.6407384000e+00 3.2566818337e+00 5.6407384000e+00 
165800 6.7286670766e+00 7.0217434056e-05 3.2566807474e+00 -5.6407365186e+00 3.2566807474e+00 5.6407365186e+00 
165900 6.7286670766e+00 7.0297699630e-05 3.2566807474e+00 -5.6407365186e+00 3.2566807474e+00 5.6407365186e+00 
166000 6.7286670767e+00 7.0379285166e-05 3.2566807474e+00 -5.6407365186e+00 3.2566807474e+00 5.6407365186e+00 
166100 6.7286670767e+00 7.0462054463e-05 3.2566807474e+00 -5.6407365186e+00 3.2566807474e+00 5.6407365186e+00 
166200 6.7286670767e+00 7.0545894188e-05 3.2566807474e+00 -5.6407365186e+00 3.2566807474e+00 5.6407365186e+00 
166300 6.7286670767e+00 7.0630709629e-05 3.2566807474e+00 -5.6407365186e+00 3.2566807474e+00 5.6407365186e+00 
166400 6.7286670767e+00 7.0716421358e-05 3.2566807474e+00 -5.6407365186e+00 3.2566807474e+00 5.6407365186e+00 
166500 6.7286670767e+00 7.0177204789e-05 3.2566796617e+00 -5.6407346380e+00 3.2566796617e+00 5.6407346380e+00 
166600 6.7286670767e+00 7.0251160047e-05 3.2566796617e+00 -5.6407346380e+00 3.2566796617e+00 5.6407346380e+00 
166700 6.7286670767e+00 7.0326378231e-05 3.2566796617e+00 -5.6407346380e+00 3.2566796617e+00 5.6407346380e+00 
166800 6.7286670767e+00 7.0402726098e-05 3.2566796617e+00 -5.6407346380e+00 3.2566796617e+00 5.6407346380e+00 
166900 6.7286670767e+00 7.0480092857e-05 3.2566796617e+00 -5.6407346380e+00 3.2566796617e+00 5.6407346380e+00 
167000 6.7286670767e+00 7.0558386037e-05 3.2566796617e+00 -5.6407346380e+00 3.2566796617e+00 5.6407346380e+00 
167100 6.7286670767e+00 7.0637528173e-05 3.2566796617e+00 -5.6407346380e+00 3.2566796617e+00 5.6407346380e+00 
167200 6.7286670767e+00 7.0717454158e-05 3.2566796617e+00 -5.6407346380e+00 3.2566796617e+00 5.6407346380e+00 
167300 6.7286670767e+00 7.0172342699e-05 3.2566785760e+00 -5.6407327575e+00 3.2566785760e+00 5.6407327575e+00 
167400 6.7286670767e+00 7.0240320875e-05 3.2566785760e+00 -5.6407327575e+00 3.2566785760e+00 5.6407327575e+00 
167500 6.7286670767e+00 7.0309479831e-05 3.2566785760e+00 -5.6407327575e+00 3.2566785760e+00 5.6407327575e+00 
167600 6.7286670767e+00 7.0379693332e-05 3.2566785760e+00 -5.6407327575e+00 3.2566785760e+00 5.6407327575e+00 
167700 6.7286670768e+00 7.0450856484e-05 3.2566785760e+00 -5.6407327575e+00 3.2566785760e+00 5.6407327575e+00 
167800 6.7286670768e+00 7.0522881765e-05 3.2566785760e+00 -5.6407327575e+00 3.2566785760e+00 5.6407327575e+00 
167900 6.7286670768e+00 7.0595695884e-05 3.2566785760e+00 -5.6407327575e+00 3.2566785760e+00 5.6407327575e+00 
168000 6.7286670768e+00 7.0669237235e-05 3.2566785760e+00 -5.6407327575e+00 3.2566785760e+00 5.6407327575e+00 
168100 6.7286670768e+00 7.0743453864e-05 3.2566785760e+00 -5.6407327575e+00 3.2566785760e+00 5.6407327575e+00 
168200 6.7286670768e+00 7.0176363154e-05 3.2566774898e+00 -5.6407308763e+00 3.2566774898e+00 5.6407308763e+00 
168200 6.7286670768e+00 7.0176363153e-05 3.2566774898e+00 -5.6407308763e+00 3.2566774898e+00 5.6407308763e+00 
