# step Hamiltonian StressXX CellTensor1 CellTensor2 CellTensor3 CellTensor4 
0 4.7721026028e+00 -1.1601887738e-02 2.5594246509e+00 -4.4330535334e+00 2.5594246509e+00 4.4330535334e+00 
100 4.7660474271e+00 -1.1405051444e-02 2.5594246509e+00 -4.4330535334e+00 2.5594246509e+00 4.4330535334e+00 
200 4.7607536732e+00 -1.0618721591e-02 2.5596474591e+00 -4.4334394486e+00 2.5596474591e+00 4.4334394486e+00 
300 4.7561562701e+00 -9.3430190127e-03 2.5598548873e+00 -4.4337987249e+00 2.5598548873e+00 4.4337987249e+00 
400 4.7521879680e+00 -7.6152755917e-03 2.5600373807e+00 -4.4341148126e+00 2.5600373807e+00 4.4341148126e+00 
500 4.7487822829e+00 -5.4731273175e-03 2.5601861158e+00 -4.4343724294e+00 2.5601861158e+00 4.4343724294e+00 
600 4.7458742425e+00 -2.9543054986e-03 2.5602930058e+00 -4.4345575683e+00 2.5602930058e+00 4.4345575683e+00 
700 4.7434010469e+00 -9.6448147674e-05 2.5603507007e+00 -4.4346574988e+00 2.5603507007e+00 4.4346574988e+00 
800 4.7413026489e+00 3.0630791383e-03 2.5603525842e+00 -4.4346607611e+00 2.5603525842e+00 4.4346607611e+00 
900 4.7395222553e+00 6.4873596162e-03 2.5602927669e+00 -4.4345571545e+00 2.5602927669e+00 4.4345571545e+00 
1000 4.7380067513e+00 1.0140102592e-02 2.5601660762e+00 -4.4343377198e+00 2.5601660762e+00 4.4343377198e+00 
1100 4.7367070448e+00 1.3985821920e-02 2.5599680427e+00 -4.4339947157e+00 2.5599680427e+00 4.4339947157e+00 
1200 4.7355783308e+00 1.7990013962e-02 2.5596948836e+00 -4.4335215902e+00 2.5596948836e+00 4.4335215902e+00 
1300 4.7345802745e+00 2.2119331340e-02 2.5593434823e+00 -4.4329129453e+00 2.5593434823e+00 4.4329129453e+00 
1400 4.7336771116e+00 2.6341747624e-02 2.5589113654e+00 -4.4321644970e+00 2.5589113654e+00 4.4321644970e+00 
1500 4.7328376688e+00 3.0626707548e-02 2.5583966766e+00 -4.4312730297e+00 2.5583966766e+00 4.4312730297e+00 
1600 4.7320353060e+00 3.4945257475e-02 2.5577981471e+00 -4.4302363464e+00 2.5577981471e+00 4.4302363464e+00 
1700 4.7312477866e+00 3.9270151580e-02 2.5571150655e+00 -4.4290532142e+00 2.5571150655e+00 4.4290532142e+00 
1800 4.7304570819e+00 4.3575930438e-02 2.5563472434e+00 -4.4277233074e+00 2.5563472434e+00 4.4277233074e+00 
1900 4.7296491191e+00 4.7838970312e-02 2.5554949823e+00 -4.4262471478e+00 2.5554949823e+00 4.4262471478e+00 
2000 4.7288134841e+00 5.2037503137e-02 2.5545590374e+00 -4.4246260437e+00 2.5545590374e+00 4.4246260437e+00 
2100 4.7279430882e+00 5.6151608911e-02 2.5535405829e+00 -4.4228620288e+00 2.5535405829e+00 4.4228620288e+00 
2200 4.7270338131e+00 6.0163183647e-02 2.5524411765e+00 -4.4209578010e+00 2.5524411765e+00 4.4209578010e+00 
2300 4.7260841432e+00 6.4055887138e-02 2.5512627252e+00 -4.4189166635e+00 2.5512627252e+00 4.4189166635e+00 
2400 4.7250947962e+00 6.7815075433e-02 2.5500074521e+00 -4.4167424666e+00 2.5500074521e+00 4.4167424666e+00 
2500 4.7240683622e+00 7.1427723103e-02 2.5486778642e+00 -4.4144395529e+00 2.5486778642e+00 4.4144395529e+00 
2600 4.7230089570e+00 7.4882340134e-02 2.5472767226e+00 -4.4120127044e+00 2.5472767226e+00 4.4120127044e+00 
2700 4.7219218965e+00 7.8168887677e-02 2.5458070131e+00 -4.4094670929e+00 2.5458070131e+00 4.4094670929e+00 
2800 4.7208133961e+00 8.1278696077e-02 2.5442719198e+00 -4.4068082333e+00 2.5442719198e+00 4.4068082333e+00 
2900 4.7196902970e+00 8.4204387653e-02 2.5426747991e+00 -4.4040419391e+00 2.5426747991e+00 4.4040419391e+00 
3000 4.7185598212e+00 8.6939805726e-02 2.5410191559e+00 -4.4011742811e+00 2.5410191559e+00 4.4011742811e+00 
3100 4.7174293546e+00 8.9479950523e-02 2.5393086209e+00 -4.3982115476e+00 2.5393086209e+00 4.3982115476e+00 
3200 4.7163062576e+00 9.1820921855e-02 2.5375469289e+00 -4.3951602074e+00 2.5375469289e+00 4.3951602074e+00 
3300 4.7151977026e+00 9.3959867860e-02 2.5357378983e+00 -4.3920268745e+00 2.5357378983e+00 4.3920268745e+00 
3400 4.7141105350e+00 9.5894938762e-02 2.5338854115e+00 -4.3888182733e+00 2.5338854115e+00 4.3888182733e+00 
3500 4.7130511580e+00 9.7625244340e-02 2.5319933963e+00 -4.3855412068e+00 2.5319933963e+00 4.3855412068e+00 
3600 4.7120254385e+00 9.9150813789e-02 2.5300658074e+00 -4.3822025249e+00 2.5300658074e+00 4.3822025249e+00 
3700 4.7110386315e+00 1.0047255668e-01 2.5281066092e+00 -4.3788090942e+00 2.5281066092e+00 4.3788090942e+00 
3800 4.7100953244e+00 1.0159222391e-01 2.5261197590e+00 -4.3753677686e+00 2.5261197590e+00 4.3753677686e+00 
3900 4.7091993961e+00 1.0251236771e-01 2.5241091905e+00 -4.3718853619e+00 2.5241091905e+00 4.3718853619e+00 
4000 4.7083539933e+00 1.0323630008e-01 2.5220787987e+00 -4.3683686201e+00 2.5220787987e+00 4.3683686201e+00 
4100 4.7075615197e+00 1.0376804916e-01 2.5200324248e+00 -4.3648241965e+00 2.5200324248e+00 4.3648241965e+00 
4200 4.7068236399e+00 1.0411231341e-01 2.5179738420e+00 -4.3612586265e+00 2.5179738420e+00 4.3612586265e+00 
4300 4.7061412945e+00 1.0427441359e-01 2.5159067424e+00 -4.3576783050e+00 2.5159067424e+00 4.3576783050e+00 
4400 4.7055147268e+00 1.0426024263e-01 2.5138347243e+00 -4.3540894643e+00 2.5138347243e+00 4.3540894643e+00 
4500 4.7049435196e+00 1.0407621388e-01 2.5117612806e+00 -4.3504981544e+00 2.5117612806e+00 4.3504981544e+00 
4600 4.7044266401e+00 1.0372920795e-01 2.5096897881e+00 -4.3469102241e+00 2.5096897881e+00 4.3469102241e+00 
4700 4.7039624936e+00 1.0322651884e-01 2.5076234976e+00 -4.3433313041e+00 2.5076234976e+00 4.3433313041e+00 
4800 4.7035489819e+00 1.0257579957e-01 2.5055655255e+00 -4.3397667918e+00 2.5055655255e+00 4.3397667918e+00 
4900 4.7031835672e+00 1.0178500812e-01 2.5035188454e+00 -4.3362218379e+00 2.5035188454e+00 4.3362218379e+00 
5000 4.7028633399e+00 1.0086235396e-01 2.5014862818e+00 -4.3327013346e+00 2.5014862818e+00 4.3327013346e+00 
5100 4.7025850869e+00 9.9816245635e-02 2.4994705044e+00 -4.3292099056e+00 2.4994705044e+00 4.3292099056e+00 
5200 4.7023453622e+00 9.8655239963e-02 2.4974740226e+00 -4.3257518977e+00 2.4974740226e+00 4.3257518977e+00 
5300 4.7021405554e+00 9.7387992992e-02 2.4954991827e+00 -4.3223313747e+00 2.4954991827e+00 4.3223313747e+00 
5400 4.7019669588e+00 9.6023213155e-02 2.4935481644e+00 -4.3189521119e+00 2.4935481644e+00 4.3189521119e+00 
5500 4.7018208320e+00 9.4569616803e-02 2.4916229791e+00 -4.3156175931e+00 2.4916229791e+00 4.3156175931e+00 
5600 4.7016984613e+00 9.3035886312e-02 2.4897254689e+00 -4.3123310090e+00 2.4897254689e+00 4.3123310090e+00 
5700 4.7015962148e+00 9.1430630890e-02 2.4878573062e+00 -4.3090952564e+00 2.4878573062e+00 4.3090952564e+00 
5800 4.7015105925e+00 8.9762350184e-02 2.4860199949e+00 -4.3059129398e+00 2.4860199949e+00 4.3059129398e+00 
5900 4.7014382694e+00 8.8039400713e-02 2.4842148711e+00 -4.3027863737e+00 2.4842148711e+00 4.3027863737e+00 
6000 4.7013761323e+00 8.6269965160e-02 2.4824431056e+00 -4.2997175857e+00 2.4824431056e+00 4.2997175857e+00 
6100 4.7013213108e+00 8.4462024476e-02 2.4807057063e+00 -4.2967083220e+00 2.4807057063e+00 4.2967083220e+00 
6200 4.7012712005e+00 8.2623332766e-02 2.4790035222e+00 -4.2937600526e+00 2.4790035222e+00 4.2937600526e+00 
6300 4.7012234804e+00 8.0761394893e-02 2.4773372465e+00 -4.2908739783e+00 2.4773372465e+00 4.2908739783e+00 
6400 4.7011761237e+00 7.8883446698e-02 2.4757074213e+00 -4.2880510383e+00 2.4757074213e+00 4.2880510383e+00 
6500 4.7011274026e+00 7.6996437752e-02 2.4741144426e+00 -4.2852919184e+00 2.4741144426e+00 4.2852919184e+00 
6600 4.7010758870e+00 7.5107016538e-02 2.4725585655e+00 -4.2825970601e+00 2.4725585655e+00 4.2825970601e+00 
6700 4.7010204392e+00 7.3221517932e-02 2.4710399094e+00 -4.2799666706e+00 2.4710399094e+00 4.2799666706e+00 
6800 4.7009602027e+00 7.1345952880e-02 2.4695584644e+00 -4.2774007325e+00 2.4695584644e+00 4.2774007325e+00 
6900 4.7008945884e+00 6.9486000146e-02 2.4681140970e+00 -4.2748990149e+00 2.4681140970e+00 4.2748990149e+00 
7000 4.7008232558e+00 6.7647000007e-02 2.4667065569e+00 -4.2724610839e+00 2.4667065569e+00 4.2724610839e+00 
7100 4.7007460932e+00 6.5833949767e-02 2.4653354832e+00 -4.2700863146e+00 2.4653354832e+00 4.2700863146e+00 
7200 4.7006631945e+00 6.4051500989e-02 2.4640004113e+00 -4.2677739022e+00 2.4640004113e+00 4.2677739022e+00 
7300 4.7005748351e+00 6.2303958300e-02 2.4627007794e+00 -4.2655228738e+00 2.4627007794e+00 4.2655228738e+00 
7400 4.7004814465e+00 6.0595279683e-02 2.4614359359e+00 -4.2633321006e+00 2.4614359359e+00 4.2633321006e+00 
7500 4.7003835910e+00 5.8929078118e-02 2.4602051457e+00 -4.2612003094e+00 2.4602051457e+00 4.2612003094e+00 
7600 4.7002819358e+00 5.7308624487e-02 2.4590075973e+00 -4.2591260947e+00 2.4590075973e+00 4.2591260947e+00 
7700 4.7001772283e+00 5.5736851626e-02 2.4578424098e+00 -4.2571079308e+00 2.4578424098e+00 4.2571079308e+00 
7800 4.7000702718e+00 5.4216359431e-02 2.4567086397e+00 -4.2551441834e+00 2.4567086397e+00 4.2551441834e+00 
7900 4.6999619028e+00 5.2749420939e-02 2.4556052875e+00 -4.2532331213e+00 2.4556052875e+00 4.2532331213e+00 
8000 4.6998529696e+00 5.1337989270e-02 2.4545313044e+00 -4.2513729279e+00 2.4545313044e+00 4.2513729279e+00 
8100 4.6997443129e+00 4.9983705379e-02 2.4534855988e+00 -4.2495617127e+00 2.4534855988e+00 4.2495617127e+00 
8200 4.6996367483e+00 4.8687906517e-02 2.4524670429e+00 -4.2477975221e+00 2.4524670429e+00 4.2477975221e+00 
8300 4.6995310508e+00 4.7451635348e-02 2.4514744786e+00 -4.2460783505e+00 2.4514744786e+00 4.2460783505e+00 
8400 4.6994279416e+00 4.6275649648e-02 2.4505067241e+00 -4.2444021504e+00 2.4505067241e+00 4.2444021504e+00 
8500 4.6993280770e+00 4.5160432520e-02 2.4495625790e+00 -4.2427668432e+00 2.4495625790e+00 4.2427668432e+00 
8600 4.6992320397e+00 4.4106203081e-02 2.4486408308e+00 -4.2411703284e+00 2.4486408308e+00 4.2411703284e+00 
8700 4.6991403318e+00 4.3112927556e-02 2.4477402598e+00 -4.2396104937e+00 2.4477402598e+00 4.2396104937e+00 
8800 4.6990533706e+00 4.2180330733e-02 2.4468596447e+00 -4.2380852236e+00 2.4468596447e+00 4.2380852236e+00 
8900 4.6989714859e+00 4.1307907742e-02 2.4459977674e+00 -4.2365924084e+00 2.4459977674e+00 4.2365924084e+00 
9000 4.6988949190e+00 4.0494936092e-02 2.4451534181e+00 -4.2351299525e+00 2.4451534181e+00 4.2351299525e+00 
9100 4.6988238243e+00 3.9740487952e-02 2.4443253995e+00 -4.2336957822e+00 2.4443253995e+00 4.2336957822e+00 
9200 4.6987582710e+00 3.9043442618e-02 2.4435125314e+00 -4.2322878533e+00 2.4435125314e+00 4.2322878533e+00 
9300 4.6986982479e+00 3.8402499131e-02 2.4427136545e+00 -4.2309041579e+00 2.4427136545e+00 4.2309041579e+00 
9400 4.6986436677e+00 3.7816189016e-02 2.4419276344e+00 -4.2295427313e+00 2.4419276344e+00 4.2295427313e+00 
9500 4.6985943739e+00 3.7282889100e-02 2.4411533652e+00 -4.2282016576e+00 2.4411533652e+00 4.2282016576e+00 
9600 4.6985501470e+00 3.6800834374e-02 2.4403897723e+00 -4.2268790760e+00 2.4403897723e+00 4.2268790760e+00 
9700 4.6985107128e+00 3.6368130866e-02 2.4396358162e+00 -4.2255731856e+00 2.4396358162e+00 4.2255731856e+00 
9800 4.6984757499e+00 3.5982768490e-02 2.4388904943e+00 -4.2242822502e+00 2.4388904943e+00 4.2242822502e+00 
9900 4.6984448980e+00 3.5642633832e-02 2.4381528443e+00 -4.2230046029e+00 2.4381528443e+00 4.2230046029e+00 
10000 4.6984177668e+00 3.5345522846e-02 2.4374219456e+00 -4.2217386493e+00 2.4374219456e+00 4.2217386493e+00 
10100 4.6983939439e+00 3.5089153414e-02 2.4366969220e+00 -4.2204828715e+00 2.4366969220e+00 4.2204828715e+00 
10200 4.6983730031e+00 3.4871177748e-02 2.4359769427e+00 -4.2192358309e+00 2.4359769427e+00 4.2192358309e+00 
10300 4.6983545124e+00 3.4689194589e-02 2.4352612243e+00 -4.2179961703e+00 2.4352612243e+00 4.2179961703e+00 
10400 4.6983380412e+00 3.4540761176e-02 2.4345490317e+00 -4.2167626164e+00 2.4345490317e+00 4.2167626164e+00 
10500 4.6983231672e+00 3.4423404944e-02 2.4338396789e+00 -4.2155339813e+00 2.4338396789e+00 4.2155339813e+00 
10600 4.6983094830e+00 3.4334634928e-02 2.4331325301e+00 -4.2143091636e+00 2.4331325301e+00 4.2143091636e+00 
10700 4.6982966013e+00 3.4271952834e-02 2.4324269997e+00 -4.2130871493e+00 2.4324269997e+00 4.2130871493e+00 
10800 4.6982841601e+00 3.4232863745e-02 2.4317225532e+00 -4.2118670120e+00 2.4317225532e+00 4.2118670120e+00 
10900 4.6982718266e+00 3.4214886438e-02 2.4310187062e+00 -4.2106479132e+00 2.4310187062e+00 4.2106479132e+00 
11000 4.6982593006e+00 3.4215563286e-02 2.4303150251e+00 -4.2094291019e+00 2.4303150251e+00 4.2094291019e+00 
11100 4.6982463172e+00 3.4232469708e-02 2.4296111264e+00 -4.2082099136e+00 2.4296111264e+00 4.2082099136e+00 
11200 4.6982326483e+00 3.4263223154e-02 2.4289066760e+00 -4.2069897696e+00 2.4289066760e+00 4.2069897696e+00 
11300 4.6982181041e+00 3.4305491603e-02 2.4282013882e+00 -4.2057681753e+00 2.4282013882e+00 4.2057681753e+00 
11400 4.6982025328e+00 3.4357001542e-02 2.4274950253e+00 -4.2045447189e+00 2.4274950253e+00 4.2045447189e+00 
11500 4.6981858210e+00 3.4415545429e-02 2.4267873960e+00 -4.2033190690e+00 2.4267873960e+00 4.2033190690e+00 
11600 4.6981678921e+00 3.4478988600e-02 2.4260783543e+00 -4.2020909728e+00 2.4260783543e+00 4.2020909728e+00 
11700 4.6981487052e+00 3.4545275635e-02 2.4253677980e+00 -4.2008602531e+00 2.4253677980e+00 4.2008602531e+00 
11800 4.6981282527e+00 3.4612436152e-02 2.4246556671e+00 -4.1996268063e+00 2.4246556671e+00 4.1996268063e+00 
11900 4.6981065583e+00 3.4678590030e-02 2.4239419423e+00 -4.1983905987e+00 2.4239419423e+00 4.1983905987e+00 
12000 4.6980836741e+00 3.4741952057e-02 2.4232266429e+00 -4.1971516638e+00 2.4232266429e+00 4.1971516638e+00 
12100 4.6980596771e+00 3.4800835996e-02 2.4225098252e+00 -4.1959100990e+00 2.4225098252e+00 4.1959100990e+00 
12200 4.6980346664e+00 3.4853658080e-02 2.4217915801e+00 -4.1946660620e+00 2.4217915801e+00 4.1946660620e+00 
12300 4.6980087599e+00 3.4898939919e-02 2.4210720315e+00 -4.1934197674e+00 2.4210720315e+00 4.1934197674e+00 
12400 4.6979820900e+00 3.4935310849e-02 2.4203513341e+00 -4.1921714829e+00 2.4203513341e+00 4.1921714829e+00 
12500 4.6979548010e+00 3.4961509704e-02 2.4196296708e+00 -4.1909215254e+00 2.4196296708e+00 4.1909215254e+00 
12600 4.6979270452e+00 3.4976386052e-02 2.4189072510e+00 -4.1896702575e+00 2.4189072510e+00 4.1896702575e+00 
12700 4.6978989795e+00 3.4978900868e-02 2.4181843080e+00 -4.1884180834e+00 2.4181843080e+00 4.1884180834e+00 
12800 4.6978707626e+00 3.4968126700e-02 2.4174610968e+00 -4.1871654450e+00 2.4174610968e+00 4.1871654450e+00 
12900 4.6978425516e+00 3.4943247309e-02 2.4167378921e+00 -4.1859128178e+00 2.4167378921e+00 4.1859128178e+00 
13000 4.6978144993e+00 3.4903556824e-02 2.4160149858e+00 -4.1846607072e+00 2.4160149858e+00 4.1846607072e+00 
13100 4.6977867524e+00 3.4848458423e-02 2.4152926844e+00 -4.1834096446e+00 2.4152926844e+00 4.1834096446e+00 
13200 4.6977594482e+00 3.4777462562e-02 2.4145713076e+00 -4.1821601833e+00 2.4145713076e+00 4.1821601833e+00 
13300 4.6977327138e+00 3.4690184778e-02 2.4138511853e+00 -4.1809128949e+00 2.4138511853e+00 4.1809128949e+00 
13400 4.6977066638e+00 3.4586343091e-02 2.4131326559e+00 -4.1796683654e+00 2.4131326559e+00 4.1796683654e+00 
13500 4.6976813997e+00 3.4465755026e-02 2.4124160639e+00 -4.1784271916e+00 2.4124160639e+00 4.1784271916e+00 
13600 4.6976570083e+00 3.4328334296e-02 2.4117017581e+00 -4.1771899778e+00 2.4117017581e+00 4.1771899778e+00 
13700 4.6976335617e+00 3.4174087153e-02 2.4109900896e+00 -4.1759573317e+00 2.4109900896e+00 4.1759573317e+00 
13800 4.6976111170e+00 3.4003108463e-02 2.4102814095e+00 -4.1747298618e+00 2.4102814095e+00 4.1747298618e+00 
13900 4.6975897159e+00 3.3815577508e-02 2.4095760676e+00 -4.1735081738e+00 2.4095760676e+00 4.1735081738e+00 
14000 4.6975693851e+00 3.3611753568e-02 2.4088744102e+00 -4.1722928676e+00 2.4088744102e+00 4.1722928676e+00 
14100 4.6975501372e+00 3.3391971296e-02 2.4081767788e+00 -4.1710845345e+00 2.4081767788e+00 4.1710845345e+00 
14200 4.6975319709e+00 3.3156635933e-02 2.4074835081e+00 -4.1698837544e+00 2.4074835081e+00 4.1698837544e+00 
14300 4.6975148723e+00 3.2906218375e-02 2.4067949249e+00 -4.1686910933e+00 2.4067949249e+00 4.1686910933e+00 
14400 4.6974988155e+00 3.2641250141e-02 2.4061113465e+00 -4.1675071008e+00 2.4061113465e+00 4.1675071008e+00 
14500 4.6974837643e+00 3.2362318256e-02 2.4054330795e+00 -4.1663323079e+00 2.4054330795e+00 4.1663323079e+00 
14600 4.6974696733e+00 3.2070060086e-02 2.4047604188e+00 -4.1651672253e+00 2.4047604188e+00 4.1651672253e+00 
14700 4.6974564890e+00 3.1765158154e-02 2.4040936459e+00 -4.1640123409e+00 2.4040936459e+00 4.1640123409e+00 
14800 4.6974441515e+00 3.1448334956e-02 2.4034330289e+00 -4.1628681187e+00 2.4034330289e+00 4.1628681187e+00 
14900 4.6974325958e+00 3.1120347813e-02 2.4027788208e+00 -4.1617349970e+00 2.4027788208e+00 4.1617349970e+00 
15000 4.6974217532e+00 3.0781983773e-02 2.4021312591e+00 -4.1606133873e+00 2.4021312591e+00 4.1606133873e+00 
15100 4.6974115524e+00 3.0434054593e-02 2.4014905653e+00 -4.1595036730e+00 2.4014905653e+00 4.1595036730e+00 
15200 4.6974019212e+00 3.0077391829e-02 2.4008569439e+00 -4.1584062085e+00 2.4008569439e+00 4.1584062085e+00 
15300 4.6973927874e+00 2.9712842028e-02 2.4002305825e+00 -4.1573213187e+00 2.4002305825e+00 4.1573213187e+00 
15400 4.6973840800e+00 2.9341262081e-02 2.3996116510e+00 -4.1562492980e+00 2.3996116510e+00 4.1562492980e+00 
15500 4.6973757303e+00 2.8963514713e-02 2.3990003017e+00 -4.1551904100e+00 2.3990003017e+00 4.1551904100e+00 
15600 4.6973676725e+00 2.8580464155e-02 2.3983966691e+00 -4.1541448875e+00 2.3983966691e+00 4.1541448875e+00 
15700 4.6973598450e+00 2.8192971997e-02 2.3978008694e+00 -4.1531129322e+00 2.3978008694e+00 4.1531129322e+00 
15800 4.6973521906e+00 2.7801893239e-02 2.3972130011e+00 -4.1520947145e+00 2.3972130011e+00 4.1520947145e+00 
15900 4.6973446570e+00 2.7408072545e-02 2.3966331450e+00 -4.1510903742e+00 2.3966331450e+00 4.1510903742e+00 
16000 4.6973371976e+00 2.7012340720e-02 2.3960613641e+00 -4.1501000206e+00 2.3960613641e+00 4.1501000206e+00 
16100 4.6973297716e+00 2.6615511405e-02 2.3954977040e+00 -4.1491237328e+00 2.3954977040e+00 4.1491237328e+00 
16200 4.6973223438e+00 2.6218378000e-02 2.3949421935e+00 -4.1481615604e+00 2.3949421935e+00 4.1481615604e+00 
16300 4.6973148852e+00 2.5821710827e-02 2.3943948446e+00 -4.1472135243e+00 2.3943948446e+00 4.1472135243e+00 
16400 4.6973073726e+00 2.5426254519e-02 2.3938556533e+00 -4.1462796174e+00 2.3938556533e+00 4.1462796174e+00 
16500 4.6972997886e+00 2.5032725652e-02 2.3933245996e+00 -4.1453598056e+00 2.3933245996e+00 4.1453598056e+00 
16600 4.6972921213e+00 2.4641810618e-02 2.3928016490e+00 -4.1444540285e+00 2.3928016490e+00 4.1444540285e+00 
16700 4.6972843641e+00 2.4254163723e-02 2.3922867520e+00 -4.1435622007e+00 2.3922867520e+00 4.1435622007e+00 
16800 4.6972765151e+00 2.3870405532e-02 2.3917798456e+00 -4.1426842132e+00 2.3917798456e+00 4.1426842132e+00 
16900 4.6972685768e+00 2.3491121437e-02 2.3912808537e+00 -4.1418199339e+00 2.3912808537e+00 4.1418199339e+00 
17000 4.6972605559e+00 2.3116860454e-02 2.3907896877e+00 -4.1409692094e+00 2.3907896877e+00 4.1409692094e+00 
17100 4.6972524624e+00 2.2748134241e-02 2.3903062475e+00 -4.1401318662e+00 2.3903062475e+00 4.1401318662e+00 
17200 4.6972443093e+00 2.2385416333e-02 2.3898304218e+00 -4.1393077121e+00 2.3898304218e+00 4.1393077121e+00 
17300 4.6972361120e+00 2.2029141587e-02 2.3893620897e+00 -4.1384965371e+00 2.3893620897e+00 4.1384965371e+00 
17400 4.6972278881e+00 2.1679705825e-02 2.3889011208e+00 -4.1376981155e+00 2.3889011208e+00 4.1376981155e+00 
17500 4.6972196565e+00 2.1337465675e-02 2.3884473762e+00 -4.1369122068e+00 2.3884473762e+00 4.1369122068e+00 
17600 4.6972114370e+00 2.1002738594e-02 2.3880007095e+00 -4.1361385573e+00 2.3880007095e+00 4.1361385573e+00 
17700 4.6972032499e+00 2.0675803073e-02 2.3875609673e+00 -4.1353769015e+00 2.3875609673e+00 4.1353769015e+00 
17800 4.6971951158e+00 2.0356899002e-02 2.3871279903e+00 -4.1346269634e+00 2.3871279903e+00 4.1346269634e+00 
17900 4.6971870549e+00 2.0046228202e-02 2.3867016141e+00 -4.1338884581e+00 2.3867016141e+00 4.1338884581e+00 
18000 4.6971790866e+00 1.9743955096e-02 2.3862816697e+00 -4.1331610930e+00 2.3862816697e+00 4.1331610930e+00 
18100 4.6971712295e+00 1.9450207525e-02 2.3858679845e+00 -4.1324445694e+00 2.3858679845e+00 4.1324445694e+00 
18200 4.6971635009e+00 1.9165077690e-02 2.3854603833e+00 -4.1317385834e+00 2.3854603833e+00 4.1317385834e+00 
18300 4.6971559165e+00 1.8888623210e-02 2.3850586886e+00 -4.1310428276e+00 2.3850586886e+00 4.1310428276e+00 
18400 4.6971484906e+00 1.8620868295e-02 2.3846627214e+00 -4.1303569923e+00 2.3846627214e+00 4.1303569923e+00 
18500 4.6971412355e+00 1.8361805008e-02 2.3842723022e+00 -4.1296807665e+00 2.3842723022e+00 4.1296807665e+00 
18600 4.6971341616e+00 1.8111394620e-02 2.3838872516e+00 -4.1290138392e+00 2.3838872516e+00 4.1290138392e+00 
18700 4.6971272777e+00 1.7869569042e-02 2.3835073906e+00 -4.1283559008e+00 2.3835073906e+00 4.1283559008e+00 
18800 4.6971205901e+00 1.7636232323e-02 2.3831325418e+00 -4.1277066435e+00 2.3831325418e+00 4.1277066435e+00 
18900 4.6971141036e+00 1.7411262212e-02 2.3827625293e+00 -4.1270657631e+00 2.3827625293e+00 4.1270657631e+00 
19000 4.6971078210e+00 1.7194511761e-02 2.3823971799e+00 -4.1264329594e+00 2.3823971799e+00 4.1264329594e+00 
19100 4.6971017432e+00 1.6985810974e-02 2.3820363232e+00 -4.1258079373e+00 2.3820363232e+00 4.1258079373e+00 
19200 4.6970958693e+00 1.6784968484e-02 2.3816797924e+00 -4.1251904078e+00 2.3816797924e+00 4.1251904078e+00 
19300 4.6970901972e+00 1.6591773252e-02 2.3813274244e+00 -4.1245800885e+00 2.3813274244e+00 4.1245800885e+00 
19400 4.6970847229e+00 1.6405996281e-02 2.3809790605e+00 -4.1239767046e+00 2.3809790605e+00 4.1239767046e+00 
19500 4.6970794414e+00 1.6227392336e-02 2.3806345468e+00 -4.1233799893e+00 2.3806345468e+00 4.1233799893e+00 
19600 4.6970743465e+00 1.6055701660e-02 2.3802937342e+00 -4.1227896846e+00 2.3802937342e+00 4.1227896846e+00 
19700 4.6970694310e+00 1.5890651682e-02 2.3799564791e+00 -4.1222055416e+00 2.3799564791e+00 4.1222055416e+00 
19800 4.6970646869e+00 1.5731958709e-02 2.3796226436e+00 -4.1216273216e+00 2.3796226436e+00 4.1216273216e+00 
19900 4.6970601057e+00 1.5579329597e-02 2.3792920955e+00 -4.1210547955e+00 2.3792920955e+00 4.1210547955e+00 
20000 4.6970556783e+00 1.5432463388e-02 2.3789647088e+00 -4.1204877451e+00 2.3789647088e+00 4.1204877451e+00 
20100 4.6970513953e+00 1.5291052915e-02 2.3786403637e+00 -4.1199259628e+00 2.3786403637e+00 4.1199259628e+00 
20200 4.6970472474e+00 1.5154786370e-02 2.3783189467e+00 -4.1193692523e+00 2.3783189467e+00 4.1193692523e+00 
20300 4.6970432251e+00 1.5023348821e-02 2.3780003509e+00 -4.1188174282e+00 2.3780003509e+00 4.1188174282e+00 
20400 4.6970393190e+00 1.4896423682e-02 2.3776844759e+00 -4.1182703166e+00 2.3776844759e+00 4.1182703166e+00 
20500 4.6970355201e+00 1.4773694131e-02 2.3773712279e+00 -4.1177277553e+00 2.3773712279e+00 4.1177277553e+00 
20600 4.6970318197e+00 1.4654844465e-02 2.3770605198e+00 -4.1171895930e+00 2.3770605198e+00 4.1171895930e+00 
20700 4.6970282096e+00 1.4539561397e-02 2.3767522709e+00 -4.1166556901e+00 2.3767522709e+00 4.1166556901e+00 
20800 4.6970246820e+00 1.4427535290e-02 2.3764464071e+00 -4.1161259185e+00 2.3764464071e+00 4.1161259185e+00 
20900 4.6970212299e+00 1.4318461322e-02 2.3761428608e+00 -4.1156001610e+00 2.3761428608e+00 4.1156001610e+00 
21000 4.6970178466e+00 1.4212040581e-02 2.3758415709e+00 -4.1150783115e+00 2.3758415709e+00 4.1150783115e+00 
21100 4.6970145264e+00 1.4107981092e-02 2.3755424823e+00 -4.1145602748e+00 2.3755424823e+00 4.1145602748e+00 
21200 4.6970112642e+00 1.4005998770e-02 2.3752455462e+00 -4.1140459664e+00 2.3752455462e+00 4.1140459664e+00 
21300 4.6970080554e+00 1.3905818299e-02 2.3749507196e+00 -4.1135353118e+00 2.3749507196e+00 4.1135353118e+00 
21400 4.6970048963e+00 1.3807173936e-02 2.3746579655e+00 -4.1130282468e+00 2.3746579655e+00 4.1130282468e+00 
21500 4.6970017838e+00 1.3709810243e-02 2.3743672522e+00 -4.1125247166e+00 2.3743672522e+00 4.1125247166e+00 
21600 4.6969987153e+00 1.3613482745e-02 2.3740785535e+00 -4.1120246759e+00 2.3740785535e+00 4.1120246759e+00 
21700 4.6969956891e+00 1.3517958507e-02 2.3737918484e+00 -4.1115280881e+00 2.3737918484e+00 4.1115280881e+00 
21800 4.6969927037e+00 1.3423016643e-02 2.3735071207e+00 -4.1110349252e+00 2.3735071207e+00 4.1110349252e+00 
21900 4.6969897583e+00 1.3328448750e-02 2.3732243587e+00 -4.1105451671e+00 2.3732243587e+00 4.1105451671e+00 
22000 4.6969868526e+00 1.3234059270e-02 2.3729435554e+00 -4.1100588015e+00 2.3729435554e+00 4.1100588015e+00 
22100 4.6969839866e+00 1.3139665783e-02 2.3726647077e+00 -4.1095758230e+00 2.3726647077e+00 4.1095758230e+00 
22200 4.6969811607e+00 1.3045099226e-02 2.3723878162e+00 -4.1090962330e+00 2.3723878162e+00 4.1090962330e+00 
22300 4.6969783756e+00 1.2950204047e-02 2.3721128855e+00 -4.1086200389e+00 2.3721128855e+00 4.1086200389e+00 
22400 4.6969756322e+00 1.2854838300e-02 2.3718399230e+00 -4.1081472541e+00 2.3718399230e+00 4.1081472541e+00 
22500 4.6969729314e+00 1.2758873665e-02 2.3715689394e+00 -4.1076778968e+00 2.3715689394e+00 4.1076778968e+00 
22600 4.6969702746e+00 1.2662195421e-02 2.3712999480e+00 -4.1072119900e+00 2.3712999480e+00 4.1072119900e+00 
22700 4.6969676629e+00 1.2564702345e-02 2.3710329646e+00 -4.1067495611e+00 2.3710329646e+00 4.1067495611e+00 
22800 4.6969650976e+00 1.2466306572e-02 2.3707680069e+00 -4.1062906409e+00 2.3707680069e+00 4.1062906409e+00 
22900 4.6969625800e+00 1.2366933394e-02 2.3705050947e+00 -4.1058352636e+00 2.3705050947e+00 4.1058352636e+00 
23000 4.6969601111e+00 1.2266521009e-02 2.3702442493e+00 -4.1053834662e+00 2.3702442493e+00 4.1053834662e+00 
23100 4.6969576921e+00 1.2165020225e-02 2.3699854933e+00 -4.1049352876e+00 2.3699854933e+00 4.1049352876e+00 
23200 4.6969553239e+00 1.2062394123e-02 2.3697288504e+00 -4.1044907690e+00 2.3697288504e+00 4.1044907690e+00 
23300 4.6969530072e+00 1.1958617681e-02 2.3694743449e+00 -4.1040499527e+00 2.3694743449e+00 4.1040499527e+00 
23400 4.6969507427e+00 1.1853677351e-02 2.3692220019e+00 -4.1036128818e+00 2.3692220019e+00 4.1036128818e+00 
23500 4.6969485307e+00 1.1747570619e-02 2.3689718466e+00 -4.1031796001e+00 2.3689718466e+00 4.1031796001e+00 
23600 4.6969463714e+00 1.1640305518e-02 2.3687239044e+00 -4.1027501514e+00 2.3687239044e+00 4.1027501514e+00 
23700 4.6969442650e+00 1.1531900130e-02 2.3684782002e+00 -4.1023245794e+00 2.3684782002e+00 4.1023245794e+00 
23800 4.6969422110e+00 1.1422382050e-02 2.3682347591e+00 -4.1019029269e+00 2.3682347591e+00 4.1019029269e+00 
23900 4.6969402092e+00 1.1311787839e-02 2.3679936050e+00 -4.1014852359e+00 2.3679936050e+00 4.1014852359e+00 
24000 4.6969382590e+00 1.1200162459e-02 2.3677547615e+00 -4.1010715468e+00 2.3677547615e+00 4.1010715468e+00 
24100 4.6969363594e+00 1.1087558690e-02 2.3675182510e+00 -4.1006618986e+00 2.3675182510e+00 4.1006618986e+00 
24200 4.6969345097e+00 1.0974036541e-02 2.3672840950e+00 -4.1002563284e+00 2.3672840950e+00 4.1002563284e+00 
24300 4.6969327087e+00 1.0859662647e-02 2.3670523134e+00 -4.0998548709e+00 2.3670523134e+00 4.0998548709e+00 
24400 4.6969309552e+00 1.0744509669e-02 2.3668229250e+00 -4.0994575585e+00 2.3668229250e+00 4.0994575585e+00 
24500 4.6969292477e+00 1.0628655687e-02 2.3665959469e+00 -4.0990644210e+00 2.3665959469e+00 4.0990644210e+00 
24600 4.6969275849e+00 1.0512183595e-02 2.3663713947e+00 -4.0986754851e+00 2.3663713947e+00 4.0986754851e+00 
24700 4.6969259651e+00 1.0395180497e-02 2.3661492820e+00 -4.0982907748e+00 2.3661492820e+00 4.0982907748e+00 
24800 4.6969243869e+00 1.0277737116e-02 2.3659296209e+00 -4.0979103106e+00 2.3659296209e+00 4.0979103106e+00 
24900 4.6969228485e+00 1.0159947202e-02 2.3657124213e+00 -4.0975341098e+00 2.3657124213e+00 4.0975341098e+00 
25000 4.6969213484e+00 1.0041906957e-02 2.3654976912e+00 -4.0971621864e+00 2.3654976912e+00 4.0971621864e+00 
25100 4.6969198849e+00 9.9237144714e-03 2.3652854366e+00 -4.0967945506e+00 2.3652854366e+00 4.0967945506e+00 
25200 4.6969184562e+00 9.8054691723e-03 2.3650756613e+00 -4.0964312091e+00 2.3650756613e+00 4.0964312091e+00 
25300 4.6969170610e+00 9.6872712926e-03 2.3648683672e+00 -4.0960721652e+00 2.3648683672e+00 4.0960721652e+00 
25400 4.6969156975e+00 9.5692213545e-03 2.3646635539e+00 -4.0957174181e+00 2.3646635539e+00 4.0957174181e+00 
25500 4.6969143644e+00 9.4514196747e-03 2.3644612188e+00 -4.0953669636e+00 2.3644612188e+00 4.0953669636e+00 
25600 4.6969130601e+00 9.3339658898e-03 2.3642613575e+00 -4.0950207936e+00 2.3642613575e+00 4.0950207936e+00 
25700 4.6969117835e+00 9.2169585043e-03 2.3640639632e+00 -4.0946788966e+00 2.3640639632e+00 4.0946788966e+00 
25800 4.6969105331e+00 9.1004944621e-03 2.3638690270e+00 -4.0943412572e+00 2.3638690270e+00 4.0943412572e+00 
25900 4.6969093079e+00 8.9846687423e-03 2.3636765381e+00 -4.0940078567e+00 2.3636765381e+00 4.0940078567e+00 
26000 4.6969081069e+00 8.8695739797e-03 2.3634864836e+00 -4.0936786726e+00 2.3634864836e+00 4.0936786726e+00 
26100 4.6969069290e+00 8.7553001116e-03 2.3632988486e+00 -4.0933536792e+00 2.3632988486e+00 4.0933536792e+00 
26200 4.6969057734e+00 8.6419340503e-03 2.3631136163e+00 -4.0930328474e+00 2.3631136163e+00 4.0930328474e+00 
26300 4.6969046393e+00 8.5295593834e-03 2.3629307680e+00 -4.0927161450e+00 2.3629307680e+00 4.0927161450e+00 
26400 4.6969035262e+00 8.4182560993e-03 2.3627502835e+00 -4.0924035366e+00 2.3627502835e+00 4.0924035366e+00 
26500 4.6969024333e+00 8.3081003415e-03 2.3625721404e+00 -4.0920949838e+00 2.3625721404e+00 4.0920949838e+00 
26600 4.6969013603e+00 8.1991641882e-03 2.3623963152e+00 -4.0917904455e+00 2.3623963152e+00 4.0917904455e+00 
26700 4.6969003066e+00 8.0915154605e-03 2.3622227824e+00 -4.0914898779e+00 2.3622227824e+00 4.0914898779e+00 
26800 4.6968992721e+00 7.9852175559e-03 2.3620515154e+00 -4.0911932347e+00 2.3620515154e+00 4.0911932347e+00 
26900 4.6968982563e+00 7.8803293085e-03 2.3618824860e+00 -4.0909004672e+00 2.3618824860e+00 4.0909004672e+00 
27000 4.6968972591e+00 7.7769048755e-03 2.3617156649e+00 -4.0906115246e+00 2.3617156649e+00 4.0906115246e+00 
27100 4.6968962804e+00 7.6749936485e-03 2.3615510216e+00 -4.0903263540e+00 2.3615510216e+00 4.0903263540e+00 
27200 4.6968953199e+00 7.5746401892e-03 2.3613885244e+00 -4.0900449007e+00 2.3613885244e+00 4.0900449007e+00 
27300 4.6968943776e+00 7.4758841903e-03 2.3612281409e+00 -4.0897671084e+00 2.3612281409e+00 4.0897671084e+00 
27400 4.6968934535e+00 7.3787604577e-03 2.3610698377e+00 -4.0894929191e+00 2.3610698377e+00 4.0894929191e+00 
27500 4.6968925475e+00 7.2832989169e-03 2.3609135806e+00 -4.0892222739e+00 2.3609135806e+00 4.0892222739e+00 
27600 4.6968916595e+00 7.1895246393e-03 2.3607593348e+00 -4.0889551123e+00 2.3607593348e+00 4.0889551123e+00 
27700 4.6968907896e+00 7.0974578896e-03 2.3606070650e+00 -4.0886913733e+00 2.3606070650e+00 4.0886913733e+00 
27800 4.6968899376e+00 7.0071141927e-03 2.3604567354e+00 -4.0884309948e+00 2.3604567354e+00 4.0884309948e+00 
27900 4.6968891036e+00 6.9185044182e-03 2.3603083099e+00 -4.0881739142e+00 2.3603083099e+00 4.0881739142e+00 
28000 4.6968882875e+00 6.8316348830e-03 2.3601617520e+00 -4.0879200686e+00 2.3601617520e+00 4.0879200686e+00 
28100 4.6968874892e+00 6.7465074689e-03 2.3600170254e+00 -4.0876693948e+00 2.3600170254e+00 4.0876693948e+00 
28200 4.6968867087e+00 6.6631197561e-03 2.3598740934e+00 -4.0874218293e+00 2.3598740934e+00 4.0874218293e+00 
28300 4.6968859457e+00 6.5814651697e-03 2.3597329195e+00 -4.0871773089e+00 2.3597329195e+00 4.0871773089e+00 
28400 4.6968852003e+00 6.5015331390e-03 2.3595934673e+00 -4.0869357705e+00 2.3595934673e+00 4.0869357705e+00 
28500 4.6968844721e+00 6.4233092680e-03 2.3594557005e+00 -4.0866971515e+00 2.3594557005e+00 4.0866971515e+00 
28600 4.6968837611e+00 6.3467755160e-03 2.3593195834e+00 -4.0864613897e+00 2.3593195834e+00 4.0864613897e+00 
28700 4.6968830670e+00 6.2719103874e-03 2.3591850803e+00 -4.0862284235e+00 2.3591850803e+00 4.0862284235e+00 
28800 4.6968823896e+00 6.1986891288e-03 2.3590521562e+00 -4.0859981922e+00 2.3590521562e+00 4.0859981922e+00 
28900 4.6968817285e+00 6.1270839328e-03 2.3589207765e+00 -4.0857706359e+00 2.3589207765e+00 4.0857706359e+00 
29000 4.6968810836e+00 6.0570641473e-03 2.3587909072e+00 -4.0855456957e+00 2.3587909072e+00 4.0855456957e+00 
29100 4.6968804544e+00 5.9885964893e-03 2.3586625149e+00 -4.0853233138e+00 2.3586625149e+00 4.0853233138e+00 
29200 4.6968798406e+00 5.9216452611e-03 2.3585355671e+00 -4.0851034337e+00 2.3585355671e+00 4.0851034337e+00 
29300 4.6968792420e+00 5.8561725695e-03 2.3584100317e+00 -4.0848860000e+00 2.3584100317e+00 4.0848860000e+00 
29400 4.6968786581e+00 5.7921385456e-03 2.3582858777e+00 -4.0846709590e+00 2.3582858777e+00 4.0846709590e+00 
29500 4.6968780885e+00 5.7295015647e-03 2.3581630748e+00 -4.0844582581e+00 2.3581630748e+00 4.0844582581e+00 
29600 4.6968775329e+00 5.6682184652e-03 2.3580415935e+00 -4.0842478463e+00 2.3580415935e+00 4.0842478463e+00 
29700 4.6968769909e+00 5.6082447661e-03 2.3579214054e+00 -4.0840396745e+00 2.3579214054e+00 4.0840396745e+00 
29800 4.6968764620e+00 5.5495348814e-03 2.3578024829e+00 -4.0838336947e+00 2.3578024829e+00 4.0838336947e+00 
29900 4.6968759458e+00 5.4920423311e-03 2.3576847995e+00 -4.0836298609e+00 2.3576847995e+00 4.0836298609e+00 
30000 4.6968754420e+00 5.4357199483e-03 2.3575683293e+00 -4.0834281287e+00 2.3575683293e+00 4.0834281287e+00 
30100 4.6968749502e+00 5.3805200804e-03 2.3574530479e+00 -4.0832284555e+00 2.3574530479e+00 4.0832284555e+00 
30200 4.6968744700e+00 5.3263947855e-03 2.3573389316e+00 -4.0830308002e+00 2.3573389316e+00 4.0830308002e+00 
30300 4.6968740009e+00 5.2732960223e-03 2.3572259578e+00 -4.0828351238e+00 2.3572259578e+00 4.0828351238e+00 
30400 4.6968735427e+00 5.2211758326e-03 2.3571141048e+00 -4.0826413888e+00 2.3571141048e+00 4.0826413888e+00 
30500 4.6968730949e+00 5.1699865172e-03 2.3570033521e+00 -4.0824495595e+00 2.3570033521e+00 4.0824495595e+00 
30600 4.6968726572e+00 5.1196808030e-03 2.3568936801e+00 -4.0822596020e+00 2.3568936801e+00 4.0822596020e+00 
30700 4.6968722294e+00 5.0702120028e-03 2.3567850702e+00 -4.0820714840e+00 2.3567850702e+00 4.0820714840e+00 
30800 4.6968718110e+00 5.0215341658e-03 2.3566775047e+00 -4.0818851752e+00 2.3566775047e+00 4.0818851752e+00 
30900 4.6968714018e+00 4.9736022194e-03 2.3565709671e+00 -4.0817006466e+00 2.3565709671e+00 4.0817006466e+00 
31000 4.6968710015e+00 4.9263721016e-03 2.3564654416e+00 -4.0815178711e+00 2.3564654416e+00 4.0815178711e+00 
31100 4.6968706098e+00 4.8798008844e-03 2.3563609135e+00 -4.0813368232e+00 2.3563609135e+00 4.0813368232e+00 
31200 4.6968702265e+00 4.8338468871e-03 2.3562573690e+00 -4.0811574788e+00 2.3562573690e+00 4.0811574788e+00 
31300 4.6968698514e+00 4.7884697806e-03 2.3561547951e+00 -4.0809798156e+00 2.3561547951e+00 4.0809798156e+00 
31400 4.6968694842e+00 4.7436306810e-03 2.3560531796e+00 -4.0808038124e+00 2.3560531796e+00 4.0808038124e+00 
31500 4.6968691248e+00 4.6992922346e-03 2.3559525113e+00 -4.0806294498e+00 2.3559525113e+00 4.0806294498e+00 
31600 4.6968687729e+00 4.6554186920e-03 2.3558527797e+00 -4.0804567096e+00 2.3558527797e+00 4.0804567096e+00 
31700 4.6968684284e+00 4.6119759737e-03 2.3557539750e+00 -4.0802855749e+00 2.3557539750e+00 4.0802855749e+00 
31800 4.6968680911e+00 4.5689317251e-03 2.3556560882e+00 -4.0801160300e+00 2.3556560882e+00 4.0801160300e+00 
31900 4.6968677609e+00 4.5262553626e-03 2.3555591110e+00 -4.0799480605e+00 2.3555591110e+00 4.0799480605e+00 
32000 4.6968674376e+00 4.4839181106e-03 2.3554630356e+00 -4.0797816530e+00 2.3554630356e+00 4.0797816530e+00 
32100 4.6968671211e+00 4.4418930291e-03 2.3553678550e+00 -4.0796167954e+00 2.3553678550e+00 4.0796167954e+00 
32200 4.6968668113e+00 4.4001550325e-03 2.3552735627e+00 -4.0794534762e+00 2.3552735627e+00 4.0794534762e+00 
32300 4.6968665080e+00 4.3586809004e-03 2.3551801526e+00 -4.0792916852e+00 2.3551801526e+00 4.0792916852e+00 
32400 4.6968662113e+00 4.3174492795e-03 2.3550876193e+00 -4.0791314128e+00 2.3550876193e+00 4.0791314128e+00 
32500 4.6968659208e+00 4.2764406782e-03 2.3549959577e+00 -4.0789726503e+00 2.3549959577e+00 4.0789726503e+00 
32600 4.6968656367e+00 4.2356374531e-03 2.3549051632e+00 -4.0788153896e+00 2.3549051632e+00 4.0788153896e+00 
32700 4.6968653587e+00 4.1950237885e-03 2.3548152315e+00 -4.0786596234e+00 2.3548152315e+00 4.0786596234e+00 
32800 4.6968650867e+00 4.1545856693e-03 2.3547261588e+00 -4.0785053449e+00 2.3547261588e+00 4.0785053449e+00 
32900 4.6968648208e+00 4.1143108473e-03 2.3546379413e+00 -4.0783525478e+00 2.3546379413e+00 4.0783525478e+00 
33000 4.6968645607e+00 4.0741888011e-03 2.3545505757e+00 -4.0782012262e+00 2.3545505757e+00 4.0782012262e+00 
33100 4.6968643064e+00 4.0342106912e-03 2.3544640589e+00 -4.0780513747e+00 2.3544640589e+00 4.0780513747e+00 
33200 4.6968640579e+00 3.9943693088e-03 2.3543783879e+00 -4.0779029881e+00 2.3543783879e+00 4.0779029881e+00 
33300 4.6968638149e+00 3.9546590212e-03 2.3542935599e+00 -4.0777560617e+00 2.3542935599e+00 4.0777560617e+00 
33400 4.6968635774e+00 3.9150757113e-03 2.3542095722e+00 -4.0776105907e+00 2.3542095722e+00 4.0776105907e+00 
33500 4.6968633454e+00 3.8756167145e-03 2.3541264221e+00 -4.0774665706e+00 2.3541264221e+00 4.0774665706e+00 
33600 4.6968631187e+00 3.8362807514e-03 2.3540441072e+00 -4.0773239970e+00 2.3540441072e+00 4.0773239970e+00 
33700 4.6968628972e+00 3.7970678576e-03 2.3539626249e+00 -4.0771828655e+00 2.3539626249e+00 4.0771828655e+00 
33800 4.6968626808e+00 3.7579793113e-03 2.3538819727e+00 -4.0770431717e+00 2.3538819727e+00 4.0770431717e+00 
33900 4.6968624695e+00 3.7190175575e-03 2.3538021480e+00 -4.0769049113e+00 2.3538021480e+00 4.0769049113e+00 
34000 4.6968622630e+00 3.6801861319e-03 2.3537231482e+00 -4.0767680797e+00 2.3537231482e+00 4.0767680797e+00 
34100 4.6968620614e+00 3.6414895827e-03 2.3536449707e+00 -4.0766326722e+00 2.3536449707e+00 4.0766326722e+00 
34200 4.6968618645e+00 3.6029333907e-03 2.3535676126e+00 -4.0764986841e+00 2.3535676126e+00 4.0764986841e+00 
34300 4.6968616722e+00 3.5645238904e-03 2.3534910711e+00 -4.0763661102e+00 2.3534910711e+00 4.0763661102e+00 
34400 4.6968614844e+00 3.5262681892e-03 2.3534153430e+00 -4.0762349454e+00 2.3534153430e+00 4.0762349454e+00 
34500 4.6968613010e+00 3.4881740877e-03 2.3533404253e+00 -4.0761051842e+00 2.3533404253e+00 4.0761051842e+00 
34600 4.6968611219e+00 3.4502500004e-03 2.3532663146e+00 -4.0759768206e+00 2.3532663146e+00 4.0759768206e+00 
34700 4.6968609469e+00 3.4125048764e-03 2.3531930073e+00 -4.0758498486e+00 2.3531930073e+00 4.0758498486e+00 
34800 4.6968607761e+00 3.3749481222e-03 2.3531204997e+00 -4.0757242618e+00 2.3531204997e+00 4.0757242618e+00 
34900 4.6968606092e+00 3.3375895249e-03 2.3530487879e+00 -4.0756000533e+00 2.3530487879e+00 4.0756000533e+00 
35000 4.6968604462e+00 3.3004391780e-03 2.3529778677e+00 -4.0754772159e+00 2.3529778677e+00 4.0754772159e+00 
35100 4.6968602870e+00 3.2635074082e-03 2.3529077348e+00 -4.0753557422e+00 2.3529077348e+00 4.0753557422e+00 
35200 4.6968601315e+00 3.2268047048e-03 2.3528383846e+00 -4.0752356242e+00 2.3528383846e+00 4.0752356242e+00 
35300 4.6968599795e+00 3.1903416515e-03 2.3527698124e+00 -4.0751168535e+00 2.3527698124e+00 4.0751168535e+00 
35400 4.6968598310e+00 3.1541288605e-03 2.3527020130e+00 -4.0749994216e+00 2.3527020130e+00 4.0749994216e+00 
35500 4.6968596860e+00 3.1181769093e-03 2.3526349813e+00 -4.0748833192e+00 2.3526349813e+00 4.0748833192e+00 
35600 4.6968595442e+00 3.0824962808e-03 2.3525687117e+00 -4.0747685369e+00 2.3525687117e+00 4.0747685369e+00 
35700 4.6968594057e+00 3.0470973058e-03 2.3525031986e+00 -4.0746550649e+00 2.3525031986e+00 4.0746550649e+00 
35800 4.6968592703e+00 3.0119901094e-03 2.3524384360e+00 -4.0745428928e+00 2.3524384360e+00 4.0745428928e+00 
35900 4.6968591380e+00 2.9771845598e-03 2.3523744178e+00 -4.0744320101e+00 2.3523744178e+00 4.0744320101e+00 
36000 4.6968590087e+00 2.9426902210e-03 2.3523111377e+00 -4.0743224057e+00 2.3523111377e+00 4.0743224057e+00 
36100 4.6968588822e+00 2.9085163091e-03 2.3522485891e+00 -4.0742140683e+00 2.3522485891e+00 4.0742140683e+00 
36200 4.6968587587e+00 2.8746716512e-03 2.3521867652e+00 -4.0741069861e+00 2.3521867652e+00 4.0741069861e+00 
36300 4.6968586379e+00 2.8411646487e-03 2.3521256591e+00 -4.0740011473e+00 2.3521256591e+00 4.0740011473e+00 
36400 4.6968585198e+00 2.8080032438e-03 2.3520652636e+00 -4.0738965393e+00 2.3520652636e+00 4.0738965393e+00 
36500 4.6968584044e+00 2.7751948888e-03 2.3520055716e+00 -4.0737931497e+00 2.3520055716e+00 4.0737931497e+00 
36600 4.6968582916e+00 2.7427465206e-03 2.3519465755e+00 -4.0736909654e+00 2.3519465755e+00 4.0736909654e+00 
36700 4.6968581813e+00 2.7106645365e-03 2.3518882677e+00 -4.0735899734e+00 2.3518882677e+00 4.0735899734e+00 
36800 4.6968580735e+00 2.6789547753e-03 2.3518306406e+00 -4.0734901602e+00 2.3518306406e+00 4.0734901602e+00 
36900 4.6968579681e+00 2.6476225005e-03 2.3517736861e+00 -4.0733915122e+00 2.3517736861e+00 4.0733915122e+00 
37000 4.6968578651e+00 2.6166723877e-03 2.3517173964e+00 -4.0732940157e+00 2.3517173964e+00 4.0732940157e+00 
37100 4.6968577645e+00 2.5861085145e-03 2.3516617634e+00 -4.0731976565e+00 2.3516617634e+00 4.0731976565e+00 
37200 4.6968576661e+00 2.5559343539e-03 2.3516067789e+00 -4.0731024205e+00 2.3516067789e+00 4.0731024205e+00 
37300 4.6968575699e+00 2.5261527707e-03 2.3515524347e+00 -4.0730082936e+00 2.3515524347e+00 4.0730082936e+00 
37400 4.6968574760e+00 2.4967660210e-03 2.3514987225e+00 -4.0729152613e+00 2.3514987225e+00 4.0729152613e+00 
37500 4.6968573841e+00 2.4677757538e-03 2.3514456338e+00 -4.0728233091e+00 2.3514456338e+00 4.0728233091e+00 
37600 4.6968572944e+00 2.4391830162e-03 2.3513931605e+00 -4.0727324225e+00 2.3513931605e+00 4.0727324225e+00 
37700 4.6968572068e+00 2.4109882607e-03 2.3513412939e+00 -4.0726425869e+00 2.3513412939e+00 4.0726425869e+00 
37800 4.6968571211e+00 2.3831913547e-03 2.3512900257e+00 -4.0725537879e+00 2.3512900257e+00 4.0725537879e+00 
37900 4.6968570375e+00 2.3557915926e-03 2.3512393475e+00 -4.0724660106e+00 2.3512393475e+00 4.0724660106e+00 
38000 4.6968569557e+00 2.3287877101e-03 2.3511892509e+00 -4.0723792407e+00 2.3511892509e+00 4.0723792407e+00 
38100 4.6968568759e+00 2.3021779000e-03 2.3511397274e+00 -4.0722934636e+00 2.3511397274e+00 4.0722934636e+00 
38200 4.6968567980e+00 2.2759598305e-03 2.3510907689e+00 -4.0722086649e+00 2.3510907689e+00 4.0722086649e+00 
38300 4.6968567218e+00 2.2501306644e-03 2.3510423668e+00 -4.0721248301e+00 2.3510423668e+00 4.0721248301e+00 
38400 4.6968566475e+00 2.2246870806e-03 2.3509945131e+00 -4.0720419450e+00 2.3509945131e+00 4.0720419450e+00 
38500 4.6968565749e+00 2.1996252962e-03 2.3509471995e+00 -4.0719599954e+00 2.3509471995e+00 4.0719599954e+00 
38600 4.6968565040e+00 2.1749410906e-03 2.3509004180e+00 -4.0718789674e+00 2.3509004180e+00 4.0718789674e+00 
38700 4.6968564348e+00 2.1506298299e-03 2.3508541605e+00 -4.0717988472e+00 2.3508541605e+00 4.0717988472e+00 
38800 4.6968563672e+00 2.1266864928e-03 2.3508084192e+00 -4.0717196209e+00 2.3508084192e+00 4.0717196209e+00 
38900 4.6968563012e+00 2.1031056968e-03 2.3507631862e+00 -4.0716412751e+00 2.3507631862e+00 4.0716412751e+00 
39000 4.6968562368e+00 2.0798817252e-03 2.3507184540e+00 -4.0715637966e+00 2.3507184540e+00 4.0715637966e+00 
39100 4.6968561740e+00 2.0570085550e-03 2.3506742148e+00 -4.0714871722e+00 2.3506742148e+00 4.0714871722e+00 
39200 4.6968561126e+00 2.0344798841e-03 2.3506304614e+00 -4.0714113890e+00 2.3506304614e+00 4.0714113890e+00 
39300 4.6968560527e+00 2.0122891596e-03 2.3505871863e+00 -4.0713364343e+00 2.3505871863e+00 4.0713364343e+00 
39400 4.6968559942e+00 1.9904296060e-03 2.3505443825e+00 -4.0712622959e+00 2.3505443825e+00 4.0712622959e+00 
39500 4.6968559371e+00 1.9688942529e-03 2.3505020429e+00 -4.0711889615e+00 2.3505020429e+00 4.0711889615e+00 
39600 4.6968558814e+00 1.9476759630e-03 2.3504601606e+00 -4.0711164193e+00 2.3504601606e+00 4.0711164193e+00 
39700 4.6968558269e+00 1.9267674595e-03 2.3504187289e+00 -4.0710446575e+00 2.3504187289e+00 4.0710446575e+00 
39800 4.6968557738e+00 1.9061613533e-03 2.3503777413e+00 -4.0709736648e+00 2.3503777413e+00 4.0709736648e+00 
39900 4.6968557220e+00 1.8858501693e-03 2.3503371913e+00 -4.0709034302e+00 2.3503371913e+00 4.0709034302e+00 
40000 4.6968556714e+00 1.8658263731e-03 2.3502970727e+00 -4.0708339427e+00 2.3502970727e+00 4.0708339427e+00 
40100 4.6968556220e+00 1.8460823954e-03 2.3502573794e+00 -4.0707651919e+00 2.3502573794e+00 4.0707651919e+00 
40200 4.6968555737e+00 1.8266106571e-03 2.3502181054e+00 -4.0706971675e+00 2.3502181054e+00 4.0706971675e+00 
40300 4.6968555266e+00 1.8074035928e-03 2.3501792451e+00 -4.0706298594e+00 2.3501792451e+00 4.0706298594e+00 
40400 4.6968554806e+00 1.7884536736e-03 2.3501407927e+00 -4.0705632579e+00 2.3501407927e+00 4.0705632579e+00 
40500 4.6968554358e+00 1.7697534287e-03 2.3501027429e+00 -4.0704973537e+00 2.3501027429e+00 4.0704973537e+00 
40600 4.6968553919e+00 1.7512954663e-03 2.3500650903e+00 -4.0704321375e+00 2.3500650903e+00 4.0704321375e+00 
40700 4.6968553491e+00 1.7330724932e-03 2.3500278298e+00 -4.0703676005e+00 2.3500278298e+00 4.0703676005e+00 
40800 4.6968553074e+00 1.7150773333e-03 2.3499909565e+00 -4.0703037340e+00 2.3499909565e+00 4.0703037340e+00 
40900 4.6968552666e+00 1.6973029447e-03 2.3499544654e+00 -4.0702405296e+00 2.3499544654e+00 4.0702405296e+00 
41000 4.6968552267e+00 1.6797424363e-03 2.3499183520e+00 -4.0701779793e+00 2.3499183520e+00 4.0701779793e+00 
41100 4.6968551878e+00 1.6623890823e-03 2.3498826117e+00 -4.0701160752e+00 2.3498826117e+00 4.0701160752e+00 
41200 4.6968551499e+00 1.6452363362e-03 2.3498472400e+00 -4.0700548097e+00 2.3498472400e+00 4.0700548097e+00 
41300 4.6968551128e+00 1.6282778431e-03 2.3498122328e+00 -4.0699941754e+00 2.3498122328e+00 4.0699941754e+00 
41400 4.6968550766e+00 1.6115074508e-03 2.3497775859e+00 -4.0699341652e+00 2.3497775859e+00 4.0699341652e+00 
41500 4.6968550412e+00 1.5949192201e-03 2.3497432953e+00 -4.0698747723e+00 2.3497432953e+00 4.0698747723e+00 
41600 4.6968550067e+00 1.5785074330e-03 2.3497093573e+00 -4.0698159898e+00 2.3497093573e+00 4.0698159898e+00 
41700 4.6968549730e+00 1.5622666009e-03 2.3496757679e+00 -4.0697578113e+00 2.3496757679e+00 4.0697578113e+00 
41800 4.6968549401e+00 1.5461914701e-03 2.3496425237e+00 -4.0697002307e+00 2.3496425237e+00 4.0697002307e+00 
41900 4.6968549080e+00 1.5302770273e-03 2.3496096211e+00 -4.0696432417e+00 2.3496096211e+00 4.0696432417e+00 
42000 4.6968548766e+00 1.5145185037e-03 2.3495770567e+00 -4.0695868384e+00 2.3495770567e+00 4.0695868384e+00 
42100 4.6968548460e+00 1.4989113773e-03 2.3495448271e+00 -4.0695310152e+00 2.3495448271e+00 4.0695310152e+00 
42200 4.6968548161e+00 1.4834513749e-03 2.3495129293e+00 -4.0694757666e+00 2.3495129293e+00 4.0694757666e+00 
42300 4.6968547870e+00 1.4681344727e-03 2.3494813600e+00 -4.0694210870e+00 2.3494813600e+00 4.0694210870e+00 
42400 4.6968547585e+00 1.4529568958e-03 2.3494501163e+00 -4.0693669713e+00 2.3494501163e+00 4.0693669713e+00 
42500 4.6968547307e+00 1.4379151167e-03 2.3494191952e+00 -4.0693134143e+00 2.3494191952e+00 4.0693134143e+00 
42600 4.6968547035e+00 1.4230058533e-03 2.3493885937e+00 -4.0692604110e+00 2.3493885937e+00 4.0692604110e+00 
42700 4.6968546771e+00 1.4082260653e-03 2.3493583092e+00 -4.0692079567e+00 2.3493583092e+00 4.0692079567e+00 
42800 4.6968546512e+00 1.3935729504e-03 2.3493283388e+00 -4.0691560465e+00 2.3493283388e+00 4.0691560465e+00 
42900 4.6968546260e+00 1.3790439394e-03 2.3492986799e+00 -4.0691046757e+00 2.3492986799e+00 4.0691046757e+00 
43000 4.6968546014e+00 1.3646366904e-03 2.3492693298e+00 -4.0690538400e+00 2.3492693298e+00 4.0690538400e+00 
43100 4.6968545774e+00 1.3503490828e-03 2.3492402860e+00 -4.0690035346e+00 2.3492402860e+00 4.0690035346e+00 
43200 4.6968545539e+00 1.3361792101e-03 2.3492115460e+00 -4.0689537554e+00 2.3492115460e+00 4.0689537554e+00 
43300 4.6968545311e+00 1.3221253728e-03 2.3491831072e+00 -4.0689044979e+00 2.3491831072e+00 4.0689044979e+00 
43400 4.6968545088e+00 1.3081860699e-03 2.3491549671e+00 -4.0688557579e+00 2.3491549671e+00 4.0688557579e+00 
43500 4.6968544870e+00 1.2943599908e-03 2.3491271234e+00 -4.0688075312e+00 2.3491271234e+00 4.0688075312e+00 
43600 4.6968544658e+00 1.2806460065e-03 2.3490995736e+00 -4.0687598136e+00 2.3490995736e+00 4.0687598136e+00 
43700 4.6968544451e+00 1.2670431599e-03 2.3490723155e+00 -4.0687126010e+00 2.3490723155e+00 4.0687126010e+00 
43800 4.6968544249e+00 1.2535506568e-03 2.3490453465e+00 -4.0686658894e+00 2.3490453465e+00 4.0686658894e+00 
43900 4.6968544052e+00 1.2401678556e-03 2.3490186644e+00 -4.0686196747e+00 2.3490186644e+00 4.0686196747e+00 
44000 4.6968543859e+00 1.2268942576e-03 2.3489922669e+00 -4.0685739529e+00 2.3489922669e+00 4.0685739529e+00 
44100 4.6968543672e+00 1.2137294972e-03 2.3489661516e+00 -4.0685287199e+00 2.3489661516e+00 4.0685287199e+00 
44200 4.6968543489e+00 1.2006733309e-03 2.3489403163e+00 -4.0684839717e+00 2.3489403163e+00 4.0684839717e+00 
44300 4.6968543311e+00 1.1877256276e-03 2.3489147586e+00 -4.0684397045e+00 2.3489147586e+00 4.0684397045e+00 
44400 4.6968543137e+00 1.1748863582e-03 2.3488894762e+00 -4.0683959141e+00 2.3488894762e+00 4.0683959141e+00 
44500 4.6968542967e+00 1.1621555854e-03 2.3488644668e+00 -4.0683525966e+00 2.3488644668e+00 4.0683525966e+00 
44600 4.6968542802e+00 1.1495334534e-03 2.3488397282e+00 -4.0683097480e+00 2.3488397282e+00 4.0683097480e+00 
44700 4.6968542641e+00 1.1370201780e-03 2.3488152580e+00 -4.0682673644e+00 2.3488152580e+00 4.0682673644e+00 
44800 4.6968542483e+00 1.1246160366e-03 2.3487910539e+00 -4.0682254417e+00 2.3487910539e+00 4.0682254417e+00 
44900 4.6968542330e+00 1.1123213588e-03 2.3487671136e+00 -4.0681839760e+00 2.3487671136e+00 4.0681839760e+00 
45000 4.6968542180e+00 1.1001365167e-03 2.3487434348e+00 -4.0681429631e+00 2.3487434348e+00 4.0681429631e+00 
45100 4.6968542035e+00 1.0880619158e-03 2.3487200152e+00 -4.0681023991e+00 2.3487200152e+00 4.0681023991e+00 
45200 4.6968541892e+00 1.0760979863e-03 2.3486968524e+00 -4.0680622799e+00 2.3486968524e+00 4.0680622799e+00 
45300 4.6968541754e+00 1.0642451742e-03 2.3486739440e+00 -4.0680226014e+00 2.3486739440e+00 4.0680226014e+00 
45400 4.6968541619e+00 1.0525039333e-03 2.3486512877e+00 -4.0679833596e+00 2.3486512877e+00 4.0679833596e+00 
45500 4.6968541487e+00 1.0408747173e-03 2.3486288812e+00 -4.0679445504e+00 2.3486288812e+00 4.0679445504e+00 
45600 4.6968541358e+00 1.0293579722e-03 2.3486067220e+00 -4.0679061696e+00 2.3486067220e+00 4.0679061696e+00 
45700 4.6968541233e+00 1.0179541296e-03 2.3485848078e+00 -4.0678682131e+00 2.3485848078e+00 4.0678682131e+00 
45800 4.6968541111e+00 1.0066635995e-03 2.3485631362e+00 -4.0678306767e+00 2.3485631362e+00 4.0678306767e+00 
45900 4.6968540992e+00 9.9548676434e-04 2.3485417048e+00 -4.0677935564e+00 2.3485417048e+00 4.0677935564e+00 
46000 4.6968540876e+00 9.8442397312e-04 2.3485205111e+00 -4.0677568478e+00 2.3485205111e+00 4.0677568478e+00 
46100 4.6968540763e+00 9.7347553609e-04 2.3484995527e+00 -4.0677205469e+00 2.3484995527e+00 4.0677205469e+00 
46200 4.6968540652e+00 9.6264171975e-04 2.3484788273e+00 -4.0676846494e+00 2.3484788273e+00 4.0676846494e+00 
46300 4.6968540545e+00 9.5192274240e-04 2.3484583323e+00 -4.0676491510e+00 2.3484583323e+00 4.0676491510e+00 
46400 4.6968540440e+00 9.4131877005e-04 2.3484380654e+00 -4.0676140477e+00 2.3484380654e+00 4.0676140477e+00 
46500 4.6968540338e+00 9.3082991291e-04 2.3484180240e+00 -4.0675793350e+00 2.3484180240e+00 4.0675793350e+00 
46600 4.6968540238e+00 9.2045622216e-04 2.3483982058e+00 -4.0675450089e+00 2.3483982058e+00 4.0675450089e+00 
46700 4.6968540141e+00 9.1019768733e-04 2.3483786083e+00 -4.0675110650e+00 2.3483786083e+00 4.0675110650e+00 
46800 4.6968540046e+00 9.0005423398e-04 2.3483592291e+00 -4.0674774992e+00 2.3483592291e+00 4.0674774992e+00 
46900 4.6968539954e+00 8.9002572184e-04 2.3483400656e+00 -4.0674443071e+00 2.3483400656e+00 4.0674443071e+00 
47000 4.6968539865e+00 8.8011194342e-04 2.3483211155e+00 -4.0674114846e+00 2.3483211155e+00 4.0674114846e+00 
47100 4.6968539777e+00 8.7031262295e-04 2.3483023764e+00 -4.0673790274e+00 2.3483023764e+00 4.0673790274e+00 
47200 4.6968539692e+00 8.6062741575e-04 2.3482838457e+00 -4.0673469314e+00 2.3482838457e+00 4.0673469314e+00 
47300 4.6968539609e+00 8.5105590799e-04 2.3482655212e+00 -4.0673151923e+00 2.3482655212e+00 4.0673151923e+00 
47400 4.6968539528e+00 8.4159761676e-04 2.3482474002e+00 -4.0672838059e+00 2.3482474002e+00 4.0672838059e+00 
47500 4.6968539449e+00 8.3225199053e-04 2.3482294806e+00 -4.0672527682e+00 2.3482294806e+00 4.0672527682e+00 
47600 4.6968539372e+00 8.2301840995e-04 2.3482117597e+00 -4.0672220748e+00 2.3482117597e+00 4.0672220748e+00 
47700 4.6968539297e+00 8.1389618893e-04 2.3481942354e+00 -4.0671917218e+00 2.3481942354e+00 4.0671917218e+00 
47800 4.6968539224e+00 8.0488457603e-04 2.3481769052e+00 -4.0671617049e+00 2.3481769052e+00 4.0671617049e+00 
47900 4.6968539153e+00 7.9598275612e-04 2.3481597667e+00 -4.0671320202e+00 2.3481597667e+00 4.0671320202e+00 
48000 4.6968539084e+00 7.8718985231e-04 2.3481428176e+00 -4.0671026636e+00 2.3481428176e+00 4.0671026636e+00 
48100 4.6968539017e+00 7.7850492812e-04 2.3481260557e+00 -4.0670736310e+00 2.3481260557e+00 4.0670736310e+00 
48200 4.6968538951e+00 7.6992698985e-04 2.3481094785e+00 -4.0670449186e+00 2.3481094785e+00 4.0670449186e+00 
48300 4.6968538887e+00 7.6145498917e-04 2.3480930840e+00 -4.0670165223e+00 2.3480930840e+00 4.0670165223e+00 
48400 4.6968538825e+00 7.5308782586e-04 2.3480768696e+00 -4.0669884383e+00 2.3480768696e+00 4.0669884383e+00 
48500 4.6968538765e+00 7.4482435076e-04 2.3480608334e+00 -4.0669606627e+00 2.3480608334e+00 4.0669606627e+00 
48600 4.6968538706e+00 7.3666336880e-04 2.3480449730e+00 -4.0669331917e+00 2.3480449730e+00 4.0669331917e+00 
48700 4.6968538649e+00 7.2860364219e-04 2.3480292863e+00 -4.0669060215e+00 2.3480292863e+00 4.0669060215e+00 
48800 4.6968538593e+00 7.2064389372e-04 2.3480137711e+00 -4.0668791484e+00 2.3480137711e+00 4.0668791484e+00 
48900 4.6968538538e+00 7.1278281005e-04 2.3479984253e+00 -4.0668525687e+00 2.3479984253e+00 4.0668525687e+00 
49000 4.6968538486e+00 7.0501904526e-04 2.3479832468e+00 -4.0668262787e+00 2.3479832468e+00 4.0668262787e+00 
49100 4.6968538434e+00 6.9735122419e-04 2.3479682335e+00 -4.0668002750e+00 2.3479682335e+00 4.0668002750e+00 
49200 4.6968538384e+00 6.8977794602e-04 2.3479533834e+00 -4.0667745539e+00 2.3479533834e+00 4.0667745539e+00 
49300 4.6968538335e+00 6.8229778778e-04 2.3479386945e+00 -4.0667491119e+00 2.3479386945e+00 4.0667491119e+00 
49400 4.6968538288e+00 6.7490930780e-04 2.3479241648e+00 -4.0667239458e+00 2.3479241648e+00 4.0667239458e+00 
49500 4.6968538242e+00 6.6761104927e-04 2.3479097924e+00 -4.0666990519e+00 2.3479097924e+00 4.0666990519e+00 
49600 4.6968538197e+00 6.6040154363e-04 2.3478955752e+00 -4.0666744272e+00 2.3478955752e+00 4.0666744272e+00 
49700 4.6968538153e+00 6.5327931399e-04 2.3478815116e+00 -4.0666500682e+00 2.3478815116e+00 4.0666500682e+00 
49800 4.6968538111e+00 6.4624287849e-04 2.3478675995e+00 -4.0666259717e+00 2.3478675995e+00 4.0666259717e+00 
49900 4.6968538070e+00 6.3929075354e-04 2.3478538371e+00 -4.0666021347e+00 2.3478538371e+00 4.0666021347e+00 
50000 4.6968538030e+00 6.3242145701e-04 2.3478402228e+00 -4.0665785539e+00 2.3478402228e+00 4.0665785539e+00 
50100 4.6968537990e+00 6.2563351129e-04 2.3478267547e+00 -4.0665552264e+00 2.3478267547e+00 4.0665552264e+00 
50200 4.6968537953e+00 6.1892544629e-04 2.3478134310e+00 -4.0665321492e+00 2.3478134310e+00 4.0665321492e+00 
50300 4.6968537916e+00 6.1229580228e-04 2.3478002501e+00 -4.0665093192e+00 2.3478002501e+00 4.0665093192e+00 
50400 4.6968537880e+00 6.0574313262e-04 2.3477872103e+00 -4.0664867337e+00 2.3477872103e+00 4.0664867337e+00 
50500 4.6968537845e+00 5.9926600635e-04 2.3477743101e+00 -4.0664643897e+00 2.3477743101e+00 4.0664643897e+00 
50600 4.6968537811e+00 5.9286301069e-04 2.3477615476e+00 -4.0664422846e+00 2.3477615476e+00 4.0664422846e+00 
50700 4.6968537778e+00 5.8653275330e-04 2.3477489215e+00 -4.0664204155e+00 2.3477489215e+00 4.0664204155e+00 
50800 4.6968537746e+00 5.8027386449e-04 2.3477364301e+00 -4.0663987798e+00 2.3477364301e+00 4.0663987798e+00 
50900 4.6968537715e+00 5.7408499924e-04 2.3477240720e+00 -4.0663773749e+00 2.3477240720e+00 4.0663773749e+00 
51000 4.6968537684e+00 5.6796483901e-04 2.3477118456e+00 -4.0663561981e+00 2.3477118456e+00 4.0663561981e+00 
51100 4.6968537655e+00 5.6191209351e-04 2.3476997495e+00 -4.0663352470e+00 2.3476997495e+00 4.0663352470e+00 
51200 4.6968537626e+00 5.5592550220e-04 2.3476877822e+00 -4.0663145191e+00 2.3476877822e+00 4.0663145191e+00 
51300 4.6968537599e+00 5.5000383566e-04 2.3476759424e+00 -4.0662940119e+00 2.3476759424e+00 4.0662940119e+00 
51400 4.6968537572e+00 5.4414589688e-04 2.3476642286e+00 -4.0662737230e+00 2.3476642286e+00 4.0662737230e+00 
51500 4.6968537545e+00 5.3835052225e-04 2.3476526395e+00 -4.0662536501e+00 2.3476526395e+00 4.0662536501e+00 
51600 4.6968537520e+00 5.3261658253e-04 2.3476411738e+00 -4.0662337909e+00 2.3476411738e+00 4.0662337909e+00 
51700 4.6968537495e+00 5.2694298353e-04 2.3476298301e+00 -4.0662141432e+00 2.3476298301e+00 4.0662141432e+00 
51800 4.6968537471e+00 5.2132866680e-04 2.3476186073e+00 -4.0661947046e+00 2.3476186073e+00 4.0661947046e+00 
51900 4.6968537448e+00 5.1577261000e-04 2.3476075039e+00 -4.0661754730e+00 2.3476075039e+00 4.0661754730e+00 
52000 4.6968537425e+00 5.1027382723e-04 2.3475965189e+00 -4.0661564463e+00 2.3475965189e+00 4.0661564463e+00 
52100 4.6968537403e+00 5.0483136922e-04 2.3475856509e+00 -4.0661376224e+00 2.3475856509e+00 4.0661376224e+00 
52200 4.6968537382e+00 4.9944432330e-04 2.3475748987e+00 -4.0661189992e+00 2.3475748987e+00 4.0661189992e+00 
52300 4.6968537361e+00 4.9411181333e-04 2.3475642613e+00 -4.0661005746e+00 2.3475642613e+00 4.0661005746e+00 
52400 4.6968537341e+00 4.8883299946e-04 2.3475537374e+00 -4.0660823466e+00 2.3475537374e+00 4.0660823466e+00 
52500 4.6968537321e+00 4.8360707776e-04 2.3475433258e+00 -4.0660643133e+00 2.3475433258e+00 4.0660643133e+00 
52600 4.6968537303e+00 4.7843327977e-04 2.3475330256e+00 -4.0660464727e+00 2.3475330256e+00 4.0660464727e+00 
52700 4.6968537284e+00 4.7331087191e-04 2.3475228354e+00 -4.0660288229e+00 2.3475228354e+00 4.0660288229e+00 
52800 4.6968537266e+00 4.6823915478e-04 2.3475127544e+00 -4.0660113620e+00 2.3475127544e+00 4.0660113620e+00 
52900 4.6968537249e+00 4.6321746243e-04 2.3475027813e+00 -4.0659940881e+00 2.3475027813e+00 4.0659940881e+00 
53000 4.6968537232e+00 4.5824516146e-04 2.3474929151e+00 -4.0659769994e+00 2.3474929151e+00 4.0659769994e+00 
53100 4.6968537216e+00 4.5332165009e-04 2.3474831548e+00 -4.0659600941e+00 2.3474831548e+00 4.0659600941e+00 
53200 4.6968537200e+00 4.4844635712e-04 2.3474734994e+00 -4.0659433703e+00 2.3474734994e+00 4.0659433703e+00 
53300 4.6968537185e+00 4.4361874089e-04 2.3474639477e+00 -4.0659268263e+00 2.3474639477e+00 4.0659268263e+00 
53400 4.6968537170e+00 4.3883828809e-04 2.3474544988e+00 -4.0659104604e+00 2.3474544988e+00 4.0659104604e+00 
53500 4.6968537156e+00 4.3410451257e-04 2.3474451517e+00 -4.0658942707e+00 2.3474451517e+00 4.0658942707e+00 
53600 4.6968537142e+00 4.2941695412e-04 2.3474359054e+00 -4.0658782556e+00 2.3474359054e+00 4.0658782556e+00 
53700 4.6968537129e+00 4.2477517715e-04 2.3474267589e+00 -4.0658624134e+00 2.3474267589e+00 4.0658624134e+00 
53800 4.6968537116e+00 4.2017876943e-04 2.3474177112e+00 -4.0658467424e+00 2.3474177112e+00 4.0658467424e+00 
53900 4.6968537103e+00 4.1562734069e-04 2.3474087614e+00 -4.0658312409e+00 2.3474087614e+00 4.0658312409e+00 
54000 4.6968537091e+00 4.1112052130e-04 2.3473999085e+00 -4.0658159072e+00 2.3473999085e+00 4.0658159072e+00 
54100 4.6968537079e+00 4.0665796087e-04 2.3473911516e+00 -4.0658007398e+00 2.3473911516e+00 4.0658007398e+00 
54200 4.6968537068e+00 4.0223932693e-04 2.3473824897e+00 -4.0657857369e+00 2.3473824897e+00 4.0657857369e+00 
54300 4.6968537057e+00 3.9786430348e-04 2.3473739219e+00 -4.0657708970e+00 2.3473739219e+00 4.0657708970e+00 
54400 4.6968537046e+00 3.9353258968e-04 2.3473654472e+00 -4.0657562185e+00 2.3473654472e+00 4.0657562185e+00 
54500 4.6968537036e+00 3.8924389847e-04 2.3473570648e+00 -4.0657416997e+00 2.3473570648e+00 4.0657416997e+00 
54600 4.6968537026e+00 3.8499795520e-04 2.3473487737e+00 -4.0657273391e+00 2.3473487737e+00 4.0657273391e+00 
54700 4.6968537016e+00 3.8079449637e-04 2.3473405730e+00 -4.0657131350e+00 2.3473405730e+00 4.0657131350e+00 
54800 4.6968537007e+00 3.7663326828e-04 2.3473324618e+00 -4.0656990861e+00 2.3473324618e+00 4.0656990861e+00 
54900 4.6968536998e+00 3.7251402578e-04 2.3473244392e+00 -4.0656851905e+00 2.3473244392e+00 4.0656851905e+00 
55000 4.6968536989e+00 3.6843653105e-04 2.3473165043e+00 -4.0656714470e+00 2.3473165043e+00 4.0656714470e+00 
55100 4.6968536981e+00 3.6440055243e-04 2.3473086563e+00 -4.0656578538e+00 2.3473086563e+00 4.0656578538e+00 
55200 4.6968536973e+00 3.6040586320e-04 2.3473008942e+00 -4.0656444094e+00 2.3473008942e+00 4.0656444094e+00 
55300 4.6968536965e+00 3.5645224055e-04 2.3472932172e+00 -4.0656311124e+00 2.3472932172e+00 4.0656311124e+00 
55400 4.6968536958e+00 3.5253946448e-04 2.3472856244e+00 -4.0656179613e+00 2.3472856244e+00 4.0656179613e+00 
55500 4.6968536950e+00 3.4866731681e-04 2.3472781149e+00 -4.0656049544e+00 2.3472781149e+00 4.0656049544e+00 
55600 4.6968536943e+00 3.4483558019e-04 2.3472706878e+00 -4.0655920904e+00 2.3472706878e+00 4.0655920904e+00 
55700 4.6968536937e+00 3.4104403728e-04 2.3472633423e+00 -4.0655793677e+00 2.3472633423e+00 4.0655793677e+00 
55800 4.6968536930e+00 3.3729246978e-04 2.3472560776e+00 -4.0655667848e+00 2.3472560776e+00 4.0655667848e+00 
55900 4.6968536924e+00 3.3358065776e-04 2.3472488928e+00 -4.0655543404e+00 2.3472488928e+00 4.0655543404e+00 
56000 4.6968536918e+00 3.2990837887e-04 2.3472417870e+00 -4.0655420328e+00 2.3472417870e+00 4.0655420328e+00 
56100 4.6968536912e+00 3.2627540767e-04 2.3472347595e+00 -4.0655298607e+00 2.3472347595e+00 4.0655298607e+00 
56200 4.6968536906e+00 3.2268151500e-04 2.3472278093e+00 -4.0655178226e+00 2.3472278093e+00 4.0655178226e+00 
56300 4.6968536901e+00 3.1912646749e-04 2.3472209356e+00 -4.0655059170e+00 2.3472209356e+00 4.0655059170e+00 
56400 4.6968536896e+00 3.1561002698e-04 2.3472141376e+00 -4.0654941426e+00 2.3472141376e+00 4.0654941426e+00 
56500 4.6968536891e+00 3.1213195015e-04 2.3472074146e+00 -4.0654824979e+00 2.3472074146e+00 4.0654824979e+00 
56600 4.6968536886e+00 3.0869198807e-04 2.3472007656e+00 -4.0654709815e+00 2.3472007656e+00 4.0654709815e+00 
56700 4.6968536882e+00 3.0528988597e-04 2.3471941898e+00 -4.0654595920e+00 2.3471941898e+00 4.0654595920e+00 
56800 4.6968536877e+00 3.0192538287e-04 2.3471876865e+00 -4.0654483280e+00 2.3471876865e+00 4.0654483280e+00 
56900 4.6968536873e+00 2.9859821145e-04 2.3471812549e+00 -4.0654371880e+00 2.3471812549e+00 4.0654371880e+00 
57000 4.6968536869e+00 2.9530809783e-04 2.3471748941e+00 -4.0654261708e+00 2.3471748941e+00 4.0654261708e+00 
57100 4.6968536865e+00 2.9205476151e-04 2.3471686034e+00 -4.0654152750e+00 2.3471686034e+00 4.0654152750e+00 
57200 4.6968536861e+00 2.8883791527e-04 2.3471623820e+00 -4.0654044992e+00 2.3471623820e+00 4.0654044992e+00 
57300 4.6968536858e+00 2.8565726518e-04 2.3471562291e+00 -4.0653938420e+00 2.3471562291e+00 4.0653938420e+00 
57400 4.6968536854e+00 2.8251251065e-04 2.3471501439e+00 -4.0653833022e+00 2.3471501439e+00 4.0653833022e+00 
57500 4.6968536851e+00 2.7940334447e-04 2.3471441257e+00 -4.0653728784e+00 2.3471441257e+00 4.0653728784e+00 
57600 4.6968536848e+00 2.7632945295e-04 2.3471381737e+00 -4.0653625692e+00 2.3471381737e+00 4.0653625692e+00 
57700 4.6968536845e+00 2.7329051610e-04 2.3471322872e+00 -4.0653523735e+00 2.3471322872e+00 4.0653523735e+00 
57800 4.6968536842e+00 2.7028620777e-04 2.3471264654e+00 -4.0653422898e+00 2.3471264654e+00 4.0653422898e+00 
57900 4.6968536840e+00 2.6731619596e-04 2.3471207076e+00 -4.0653323170e+00 2.3471207076e+00 4.0653323170e+00 
58000 4.6968536837e+00 2.6438014299e-04 2.3471150130e+00 -4.0653224538e+00 2.3471150130e+00 4.0653224538e+00 
58100 4.6968536835e+00 2.6147770587e-04 2.3471093810e+00 -4.0653126988e+00 2.3471093810e+00 4.0653126988e+00 
58200 4.6968536833e+00 2.5860853656e-04 2.3471038108e+00 -4.0653030509e+00 2.3471038108e+00 4.0653030509e+00 
58300 4.6968536830e+00 2.5577228236e-04 2.3470983017e+00 -4.0652935089e+00 2.3470983017e+00 4.0652935089e+00 
58400 4.6968536828e+00 2.5296858621e-04 2.3470928530e+00 -4.0652840715e+00 2.3470928530e+00 4.0652840715e+00 
58500 4.6968536826e+00 2.5019708712e-04 2.3470874640e+00 -4.0652747375e+00 2.3470874640e+00 4.0652747375e+00 
58600 4.6968536825e+00 2.4745742058e-04 2.3470821341e+00 -4.0652655058e+00 2.3470821341e+00 4.0652655058e+00 
58700 4.6968536823e+00 2.4474921890e-04 2.3470768625e+00 -4.0652563751e+00 2.3470768625e+00 4.0652563751e+00 
58800 4.6968536821e+00 2.4207211170e-04 2.3470716486e+00 -4.0652473443e+00 2.3470716486e+00 4.0652473443e+00 
58900 4.6968536820e+00 2.3942572631e-04 2.3470664917e+00 -4.0652384123e+00 2.3470664917e+00 4.0652384123e+00 
59000 4.6968536818e+00 2.3680968821e-04 2.3470613912e+00 -4.0652295780e+00 2.3470613912e+00 4.0652295780e+00 
59100 4.6968536817e+00 2.3422362147e-04 2.3470563463e+00 -4.0652208401e+00 2.3470563463e+00 4.0652208401e+00 
59200 4.6968536816e+00 2.3166714919e-04 2.3470513566e+00 -4.0652121976e+00 2.3470513566e+00 4.0652121976e+00 
59300 4.6968536815e+00 2.2913989397e-04 2.3470464213e+00 -4.0652036495e+00 2.3470464213e+00 4.0652036495e+00 
59400 4.6968536814e+00 2.2664147831e-04 2.3470415399e+00 -4.0651951946e+00 2.3470415399e+00 4.0651951946e+00 
59500 4.6968536813e+00 2.2417152506e-04 2.3470367117e+00 -4.0651868318e+00 2.3470367117e+00 4.0651868318e+00 
59600 4.6968536812e+00 2.2172965786e-04 2.3470319360e+00 -4.0651785602e+00 2.3470319360e+00 4.0651785602e+00 
59700 4.6968536811e+00 2.1931550155e-04 2.3470272124e+00 -4.0651703786e+00 2.3470272124e+00 4.0651703786e+00 
59800 4.6968536810e+00 2.1692868259e-04 2.3470225402e+00 -4.0651622862e+00 2.3470225402e+00 4.0651622862e+00 
59900 4.6968536809e+00 2.1456882946e-04 2.3470179189e+00 -4.0651542817e+00 2.3470179189e+00 4.0651542817e+00 
60000 4.6968536809e+00 2.1223557303e-04 2.3470133478e+00 -4.0651463644e+00 2.3470133478e+00 4.0651463644e+00 
60100 4.6968536808e+00 2.0992854700e-04 2.3470088264e+00 -4.0651385331e+00 2.3470088264e+00 4.0651385331e+00 
60200 4.6968536808e+00 2.0764738814e-04 2.3470043541e+00 -4.0651307869e+00 2.3470043541e+00 4.0651307869e+00 
60300 4.6968536807e+00 2.0539173677e-04 2.3469999304e+00 -4.0651231249e+00 2.3469999304e+00 4.0651231249e+00 
60400 4.6968536807e+00 2.0316123699e-04 2.3469955548e+00 -4.0651155461e+00 2.3469955548e+00 4.0651155461e+00 
60500 4.6968536807e+00 2.0095553702e-04 2.3469912267e+00 -4.0651080496e+00 2.3469912267e+00 4.0651080496e+00 
60600 4.6968536806e+00 1.9877428950e-04 2.3469869456e+00 -4.0651006344e+00 2.3469869456e+00 4.0651006344e+00 
60700 4.6968536806e+00 1.9661715176e-04 2.3469827109e+00 -4.0650932998e+00 2.3469827109e+00 4.0650932998e+00 
60800 4.6968536806e+00 1.9448378604e-04 2.3469785222e+00 -4.0650860447e+00 2.3469785222e+00 4.0650860447e+00 
60900 4.6968536806e+00 1.9237385978e-04 2.3469743789e+00 -4.0650788683e+00 2.3469743789e+00 4.0650788683e+00 
61000 4.6968536806e+00 1.9028704576e-04 2.3469702806e+00 -4.0650717698e+00 2.3469702806e+00 4.0650717698e+00 
61100 4.6968536806e+00 1.8822302235e-04 2.3469662267e+00 -4.0650647483e+00 2.3469662267e+00 4.0650647483e+00 
61200 4.6968536806e+00 1.8618147363e-04 2.3469622168e+00 -4.0650578029e+00 2.3469622168e+00 4.0650578029e+00 
61300 4.6968536806e+00 1.8416208959e-04 2.3469582503e+00 -4.0650509328e+00 2.3469582503e+00 4.0650509328e+00 
61400 4.6968536806e+00 1.8216456621e-04 2.3469543269e+00 -4.0650441373e+00 2.3469543269e+00 4.0650441373e+00 
61500 4.6968536807e+00 1.8018860558e-04 2.3469504460e+00 -4.0650374154e+00 2.3469504460e+00 4.0650374154e+00 
61600 4.6968536807e+00 1.7823391602e-04 2.3469466073e+00 -4.0650307664e+00 2.3469466073e+00 4.0650307664e+00 
61700 4.6968536807e+00 1.7630021209e-04 2.3469428101e+00 -4.0650241896e+00 2.3469428101e+00 4.0650241896e+00 
61800 4.6968536807e+00 1.7438721468e-04 2.3469390542e+00 -4.0650176841e+00 2.3469390542e+00 4.0650176841e+00 
61900 4.6968536808e+00 1.7249465103e-04 2.3469353390e+00 -4.0650112492e+00 2.3469353390e+00 4.0650112492e+00 
62000 4.6968536808e+00 1.7062225470e-04 2.3469316641e+00 -4.0650048841e+00 2.3469316641e+00 4.0650048841e+00 
62100 4.6968536808e+00 1.6876976563e-04 2.3469280291e+00 -4.0649985880e+00 2.3469280291e+00 4.0649985880e+00 
62200 4.6968536809e+00 1.6693693006e-04 2.3469244335e+00 -4.0649923604e+00 2.3469244335e+00 4.0649923604e+00 
62300 4.6968536809e+00 1.6512350049e-04 2.3469208770e+00 -4.0649862003e+00 2.3469208770e+00 4.0649862003e+00 
62400 4.6968536810e+00 1.6332923568e-04 2.3469173591e+00 -4.0649801072e+00 2.3469173591e+00 4.0649801072e+00 
62500 4.6968536810e+00 1.6155390047e-04 2.3469138795e+00 -4.0649740803e+00 2.3469138795e+00 4.0649740803e+00 
62600 4.6968536811e+00 1.5979726581e-04 2.3469104377e+00 -4.0649681188e+00 2.3469104377e+00 4.0649681188e+00 
62700 4.6968536811e+00 1.5805910857e-04 2.3469070332e+00 -4.0649622222e+00 2.3469070332e+00 4.0649622222e+00 
62800 4.6968536812e+00 1.5633921146e-04 2.3469036658e+00 -4.0649563897e+00 2.3469036658e+00 4.0649563897e+00 
62900 4.6968536813e+00 1.5463736291e-04 2.3469003351e+00 -4.0649506207e+00 2.3469003351e+00 4.0649506207e+00 
63000 4.6968536813e+00 1.5295335694e-04 2.3468970406e+00 -4.0649449144e+00 2.3468970406e+00 4.0649449144e+00 
63100 4.6968536814e+00 1.5128699296e-04 2.3468937820e+00 -4.0649392703e+00 2.3468937820e+00 4.0649392703e+00 
63200 4.6968536815e+00 1.4963807570e-04 2.3468905588e+00 -4.0649336877e+00 2.3468905588e+00 4.0649336877e+00 
63300 4.6968536815e+00 1.4800641498e-04 2.3468873708e+00 -4.0649281659e+00 2.3468873708e+00 4.0649281659e+00 
63400 4.6968536816e+00 1.4639182556e-04 2.3468842176e+00 -4.0649227043e+00 2.3468842176e+00 4.0649227043e+00 
63500 4.6968536817e+00 1.4479412697e-04 2.3468810987e+00 -4.0649173023e+00 2.3468810987e+00 4.0649173023e+00 
63600 4.6968536817e+00 1.4321314333e-04 2.3468780139e+00 -4.0649119592e+00 2.3468780139e+00 4.0649119592e+00 
63700 4.6968536818e+00 1.4164870316e-04 2.3468749628e+00 -4.0649066745e+00 2.3468749628e+00 4.0649066745e+00 
63800 4.6968536819e+00 1.4010063920e-04 2.3468719449e+00 -4.0649014475e+00 2.3468719449e+00 4.0649014475e+00 
63900 4.6968536820e+00 1.3856878819e-04 2.3468689601e+00 -4.0648962776e+00 2.3468689601e+00 4.0648962776e+00 
64000 4.6968536821e+00 1.3705299072e-04 2.3468660079e+00 -4.0648911642e+00 2.3468660079e+00 4.0648911642e+00 
64100 4.6968536821e+00 1.3555309100e-04 2.3468630880e+00 -4.0648861068e+00 2.3468630880e+00 4.0648861068e+00 
64200 4.6968536822e+00 1.3406893669e-04 2.3468602000e+00 -4.0648811047e+00 2.3468602000e+00 4.0648811047e+00 
64300 4.6968536823e+00 1.3260037869e-04 2.3468573437e+00 -4.0648761574e+00 2.3468573437e+00 4.0648761574e+00 
64400 4.6968536824e+00 1.3114727097e-04 2.3468545186e+00 -4.0648712642e+00 2.3468545186e+00 4.0648712642e+00 
64500 4.6968536825e+00 1.2970947035e-04 2.3468517245e+00 -4.0648664247e+00 2.3468517245e+00 4.0648664247e+00 
64600 4.6968536826e+00 1.2828683634e-04 2.3468489610e+00 -4.0648616382e+00 2.3468489610e+00 4.0648616382e+00 
64700 4.6968536827e+00 1.2687923096e-04 2.3468462279e+00 -4.0648569042e+00 2.3468462279e+00 4.0648569042e+00 
64800 4.6968536827e+00 1.2548651852e-04 2.3468435247e+00 -4.0648522222e+00 2.3468435247e+00 4.0648522222e+00 
64900 4.6968536828e+00 1.2410856550e-04 2.3468408512e+00 -4.0648475915e+00 2.3468408512e+00 4.0648475915e+00 
65000 4.6968536829e+00 1.2274524033e-04 2.3468382070e+00 -4.0648430117e+00 2.3468382070e+00 4.0648430117e+00 
65100 4.6968536830e+00 1.2139641328e-04 2.3468355919e+00 -4.0648384821e+00 2.3468355919e+00 4.0648384821e+00 
65200 4.6968536831e+00 1.2006195624e-04 2.3468330055e+00 -4.0648340024e+00 2.3468330055e+00 4.0648340024e+00 
65300 4.6968536832e+00 1.1874174261e-04 2.3468304475e+00 -4.0648295719e+00 2.3468304475e+00 4.0648295719e+00 
65400 4.6968536833e+00 1.1743564715e-04 2.3468279177e+00 -4.0648251901e+00 2.3468279177e+00 4.0648251901e+00 
65500 4.6968536834e+00 1.1614354584e-04 2.3468254157e+00 -4.0648208565e+00 2.3468254157e+00 4.0648208565e+00 
65600 4.6968536835e+00 1.1486531571e-04 2.3468229412e+00 -4.0648165706e+00 2.3468229412e+00 4.0648165706e+00 
65700 4.6968536836e+00 1.1360083479e-04 2.3468204940e+00 -4.0648123318e+00 2.3468204940e+00 4.0648123318e+00 
65800 4.6968536837e+00 1.1234998191e-04 2.3468180737e+00 -4.0648081397e+00 2.3468180737e+00 4.0648081397e+00 
65900 4.6968536838e+00 1.1111263667e-04 2.3468156800e+00 -4.0648039937e+00 2.3468156800e+00 4.0648039937e+00 
66000 4.6968536839e+00 1.0988867928e-04 2.3468133127e+00 -4.0647998934e+00 2.3468133127e+00 4.0647998934e+00 
66100 4.6968536840e+00 1.0867799050e-04 2.3468109714e+00 -4.0647958383e+00 2.3468109714e+00 4.0647958383e+00 
66200 4.6968536840e+00 1.0748045152e-04 2.3468086560e+00 -4.0647918279e+00 2.3468086560e+00 4.0647918279e+00 
66300 4.6968536841e+00 1.0629594393e-04 2.3468063661e+00 -4.0647878616e+00 2.3468063661e+00 4.0647878616e+00 
66400 4.6968536842e+00 1.0512434959e-04 2.3468041014e+00 -4.0647839390e+00 2.3468041014e+00 4.0647839390e+00 
66500 4.6968536843e+00 1.0396555063e-04 2.3468018617e+00 -4.0647800597e+00 2.3468018617e+00 4.0647800597e+00 
66600 4.6968536844e+00 1.0281942935e-04 2.3467996466e+00 -4.0647762231e+00 2.3467996466e+00 4.0647762231e+00 
66700 4.6968536845e+00 1.0168586819e-04 2.3467974560e+00 -4.0647724288e+00 2.3467974560e+00 4.0647724288e+00 
66800 4.6968536846e+00 1.0056474969e-04 2.3467952895e+00 -4.0647686764e+00 2.3467952895e+00 4.0647686764e+00 
66900 4.6968536847e+00 9.9455956452e-05 2.3467931469e+00 -4.0647649653e+00 2.3467931469e+00 4.0647649653e+00 
67000 4.6968536848e+00 9.8359371110e-05 2.3467910279e+00 -4.0647612951e+00 2.3467910279e+00 4.0647612951e+00 
67100 4.6968536849e+00 9.7274876320e-05 2.3467889323e+00 -4.0647576654e+00 2.3467889323e+00 4.0647576654e+00 
67200 4.6968536850e+00 9.6202354738e-05 2.3467868598e+00 -4.0647540757e+00 2.3467868598e+00 4.0647540757e+00 
67300 4.6968536851e+00 9.5141689027e-05 2.3467848101e+00 -4.0647505256e+00 2.3467848101e+00 4.0647505256e+00 
67400 4.6968536852e+00 9.4092761830e-05 2.3467827831e+00 -4.0647470146e+00 2.3467827831e+00 4.0647470146e+00 
67500 4.6968536853e+00 9.3055455801e-05 2.3467807784e+00 -4.0647435423e+00 2.3467807784e+00 4.0647435423e+00 
67600 4.6968536854e+00 9.2029653595e-05 2.3467787957e+00 -4.0647401083e+00 2.3467787957e+00 4.0647401083e+00 
67700 4.6968536855e+00 9.1015237900e-05 2.3467768350e+00 -4.0647367122e+00 2.3467768350e+00 4.0647367122e+00 
67800 4.6968536856e+00 9.0012091441e-05 2.3467748958e+00 -4.0647333535e+00 2.3467748958e+00 4.0647333535e+00 
67900 4.6968536857e+00 8.9020097011e-05 2.3467729780e+00 -4.0647300318e+00 2.3467729780e+00 4.0647300318e+00 
68000 4.6968536858e+00 8.8039137493e-05 2.3467710814e+00 -4.0647267467e+00 2.3467710814e+00 4.0647267467e+00 
68100 4.6968536858e+00 8.7069095901e-05 2.3467692056e+00 -4.0647234978e+00 2.3467692056e+00 4.0647234978e+00 
68200 4.6968536859e+00 8.6109855402e-05 2.3467673506e+00 -4.0647202847e+00 2.3467673506e+00 4.0647202847e+00 
68300 4.6968536860e+00 8.5161299365e-05 2.3467655159e+00 -4.0647171070e+00 2.3467655159e+00 4.0647171070e+00 
68400 4.6968536861e+00 8.4223311392e-05 2.3467637015e+00 -4.0647139643e+00 2.3467637015e+00 4.0647139643e+00 
68500 4.6968536862e+00 8.3295775364e-05 2.3467619070e+00 -4.0647108562e+00 2.3467619070e+00 4.0647108562e+00 
68600 4.6968536863e+00 8.2378575491e-05 2.3467601323e+00 -4.0647077823e+00 2.3467601323e+00 4.0647077823e+00 
68700 4.6968536864e+00 8.1471596341e-05 2.3467583772e+00 -4.0647047423e+00 2.3467583772e+00 4.0647047423e+00 
68800 4.6968536865e+00 8.0574722912e-05 2.3467566413e+00 -4.0647017358e+00 2.3467566413e+00 4.0647017358e+00 
68900 4.6968536866e+00 7.9687840651e-05 2.3467549246e+00 -4.0646987623e+00 2.3467549246e+00 4.0646987623e+00 
69000 4.6968536867e+00 7.8810835533e-05 2.3467532268e+00 -4.0646958216e+00 2.3467532268e+00 4.0646958216e+00 
69100 4.6968536868e+00 7.7943594083e-05 2.3467515476e+00 -4.0646929132e+00 2.3467515476e+00 4.0646929132e+00 
69200 4.6968536868e+00 7.7086003450e-05 2.3467498870e+00 -4.0646900369e+00 2.3467498870e+00 4.0646900369e+00 
69300 4.6968536869e+00 7.6237951441e-05 2.3467482446e+00 -4.0646871921e+00 2.3467482446e+00 4.0646871921e+00 
69400 4.6968536870e+00 7.5399326566e-05 2.3467466202e+00 -4.0646843787e+00 2.3467466202e+00 4.0646843787e+00 
69500 4.6968536871e+00 7.4570018102e-05 2.3467450138e+00 -4.0646815962e+00 2.3467450138e+00 4.0646815962e+00 
69600 4.6968536872e+00 7.3749916136e-05 2.3467434250e+00 -4.0646788444e+00 2.3467434250e+00 4.0646788444e+00 
69700 4.6968536873e+00 7.2938911597e-05 2.3467418536e+00 -4.0646761228e+00 2.3467418536e+00 4.0646761228e+00 
69800 4.6968536874e+00 7.2136896323e-05 2.3467402996e+00 -4.0646734311e+00 2.3467402996e+00 4.0646734311e+00 
69900 4.6968536875e+00 7.1343763086e-05 2.3467387626e+00 -4.0646707690e+00 2.3467387626e+00 4.0646707690e+00 
70000 4.6968536875e+00 7.0559405645e-05 2.3467372426e+00 -4.0646681361e+00 2.3467372426e+00 4.0646681361e+00 
70100 4.6968536877e+00 7.0325350612e-05 2.3467372426e+00 -4.0646681361e+00 2.3467372426e+00 4.0646681361e+00 
70200 4.6968536879e+00 7.0100052572e-05 2.3467372426e+00 -4.0646681361e+00 2.3467372426e+00 4.0646681361e+00 
70300 4.6968536880e+00 6.9883855724e-05 2.3467372426e+00 -4.0646681361e+00 2.3467372426e+00 4.0646681361e+00 
70400 4.6968536882e+00 6.9677086149e-05 2.3467372426e+00 -4.0646681361e+00 2.3467372426e+00 4.0646681361e+00 
70500 4.6968536884e+00 6.9480047672e-05 2.3467372426e+00 -4.0646681361e+00 2.3467372426e+00 4.0646681361e+00 
70600 4.6968536885e+00 6.9293018321e-05 2.3467372426e+00 -4.0646681361e+00 2.3467372426e+00 4.0646681361e+00 
70700 4.6968536887e+00 6.9116247342e-05 2.3467372426e+00 -4.0646681361e+00 2.3467372426e+00 4.0646681361e+00 
70800 4.6968536888e+00 6.8949952732e-05 2.3467372426e+00 -4.0646681361e+00 2.3467372426e+00 4.0646681361e+00 
70900 4.6968536890e+00 6.8794319236e-05 2.3467372426e+00 -4.0646681361e+00 2.3467372426e+00 4.0646681361e+00 
71000 4.6968536891e+00 6.8649496808e-05 2.3467372426e+00 -4.0646681361e+00 2.3467372426e+00 4.0646681361e+00 
71100 4.6968536893e+00 6.8515599473e-05 2.3467372426e+00 -4.0646681361e+00 2.3467372426e+00 4.0646681361e+00 
71200 4.6968536894e+00 6.8392704583e-05 2.3467372426e+00 -4.0646681361e+00 2.3467372426e+00 4.0646681361e+00 
71300 4.6968536896e+00 6.8280852411e-05 2.3467372426e+00 -4.0646681361e+00 2.3467372426e+00 4.0646681361e+00 
71400 4.6968536897e+00 6.8180046089e-05 2.3467372426e+00 -4.0646681361e+00 2.3467372426e+00 4.0646681361e+00 
71500 4.6968536899e+00 6.8090251832e-05 2.3467372426e+00 -4.0646681361e+00 2.3467372426e+00 4.0646681361e+00 
71600 4.6968536900e+00 6.8011399439e-05 2.3467372426e+00 -4.0646681361e+00 2.3467372426e+00 4.0646681361e+00 
71700 4.6968536901e+00 6.7943383044e-05 2.3467372426e+00 -4.0646681361e+00 2.3467372426e+00 4.0646681361e+00 
71800 4.6968536903e+00 6.7886062085e-05 2.3467372426e+00 -4.0646681361e+00 2.3467372426e+00 4.0646681361e+00 
71900 4.6968536904e+00 6.7839262486e-05 2.3467372426e+00 -4.0646681361e+00 2.3467372426e+00 4.0646681361e+00 
72000 4.6968536905e+00 6.7802778009e-05 2.3467372426e+00 -4.0646681361e+00 2.3467372426e+00 4.0646681361e+00 
72100 4.6968536907e+00 6.7776371759e-05 2.3467372426e+00 -4.0646681361e+00 2.3467372426e+00 4.0646681361e+00 
72200 4.6968536908e+00 6.7759777852e-05 2.3467372426e+00 -4.0646681361e+00 2.3467372426e+00 4.0646681361e+00 
72300 4.6968536909e+00 6.7752703172e-05 2.3467372426e+00 -4.0646681361e+00 2.3467372426e+00 4.0646681361e+00 
72400 4.6968536910e+00 6.7754829251e-05 2.3467372426e+00 -4.0646681361e+00 2.3467372426e+00 4.0646681361e+00 
72500 4.6968536912e+00 6.7765814217e-05 2.3467372426e+00 -4.0646681361e+00 2.3467372426e+00 4.0646681361e+00 
72600 4.6968536913e+00 6.7785294822e-05 2.3467372426e+00 -4.0646681361e+00 2.3467372426e+00 4.0646681361e+00 
72700 4.6968536914e+00 6.7812888510e-05 2.3467372426e+00 -4.0646681361e+00 2.3467372426e+00 4.0646681361e+00 
72800 4.6968536915e+00 6.7848195528e-05 2.3467372426e+00 -4.0646681361e+00 2.3467372426e+00 4.0646681361e+00 
72900 4.6968536916e+00 6.7890801051e-05 2.3467372426e+00 -4.0646681361e+00 2.3467372426e+00 4.0646681361e+00 
73000 4.6968536917e+00 6.7940277323e-05 2.3467372426e+00 -4.0646681361e+00 2.3467372426e+00 4.0646681361e+00 
73100 4.6968536919e+00 6.7996185784e-05 2.3467372426e+00 -4.0646681361e+00 2.3467372426e+00 4.0646681361e+00 
73200 4.6968536920e+00 6.8058079196e-05 2.3467372426e+00 -4.0646681361e+00 2.3467372426e+00 4.0646681361e+00 
73300 4.6968536921e+00 6.8125503718e-05 2.3467372426e+00 -4.0646681361e+00 2.3467372426e+00 4.0646681361e+00 
73400 4.6968536922e+00 6.8198000965e-05 2.3467372426e+00 -4.0646681361e+00 2.3467372426e+00 4.0646681361e+00 
73500 4.6968536923e+00 6.8275110015e-05 2.3467372426e+00 -4.0646681361e+00 2.3467372426e+00 4.0646681361e+00 
73600 4.6968536924e+00 6.8356369350e-05 2.3467372426e+00 -4.0646681361e+00 2.3467372426e+00 4.0646681361e+00 
73700 4.6968536925e+00 6.8441318744e-05 2.3467372426e+00 -4.0646681361e+00 2.3467372426e+00 4.0646681361e+00 
73800 4.6968536926e+00 6.8529501082e-05 2.3467372426e+00 -4.0646681361e+00 2.3467372426e+00 4.0646681361e+00 
73900 4.6968536927e+00 6.8620464094e-05 2.3467372426e+00 -4.0646681361e+00 2.3467372426e+00 4.0646681361e+00 
74000 4.6968536928e+00 6.8713762007e-05 2.3467372426e+00 -4.0646681361e+00 2.3467372426e+00 4.0646681361e+00 
74100 4.6968536929e+00 6.8808957117e-05 2.3467372426e+00 -4.0646681361e+00 2.3467372426e+00 4.0646681361e+00 
74200 4.6968536930e+00 6.8905621273e-05 2.3467372426e+00 -4.0646681361e+00 2.3467372426e+00 4.0646681361e+00 
74300 4.6968536931e+00 6.9003337248e-05 2.3467372426e+00 -4.0646681361e+00 2.3467372426e+00 4.0646681361e+00 
74400 4.6968536932e+00 6.9101700025e-05 2.3467372426e+00 -4.0646681361e+00 2.3467372426e+00 4.0646681361e+00 
74500 4.6968536933e+00 6.9200317988e-05 2.3467372426e+00 -4.0646681361e+00 2.3467372426e+00 4.0646681361e+00 
74600 4.6968536934e+00 6.9298813997e-05 2.3467372426e+00 -4.0646681361e+00 2.3467372426e+00 4.0646681361e+00 
74700 4.6968536935e+00 6.9396826372e-05 2.3467372426e+00 -4.0646681361e+00 2.3467372426e+00 4.0646681361e+00 
74800 4.6968536936e+00 6.9494009764e-05 2.3467372426e+00 -4.0646681361e+00 2.3467372426e+00 4.0646681361e+00 
74900 4.6968536937e+00 6.9590035934e-05 2.3467372426e+00 -4.0646681361e+00 2.3467372426e+00 4.0646681361e+00 
75000 4.6968536937e+00 6.9684594418e-05 2.3467372426e+00 -4.0646681361e+00 2.3467372426e+00 4.0646681361e+00 
75100 4.6968536938e+00 6.9777393096e-05 2.3467372426e+00 -4.0646681361e+00 2.3467372426e+00 4.0646681361e+00 
75200 4.6968536939e+00 6.9868158664e-05 2.3467372426e+00 -4.0646681361e+00 2.3467372426e+00 4.0646681361e+00 
75300 4.6968536940e+00 6.9956636997e-05 2.3467372426e+00 -4.0646681361e+00 2.3467372426e+00 4.0646681361e+00 
75400 4.6968536941e+00 7.0042593426e-05 2.3467372426e+00 -4.0646681361e+00 2.3467372426e+00 4.0646681361e+00 
75500 4.6968536941e+00 7.0125812919e-05 2.3467372426e+00 -4.0646681361e+00 2.3467372426e+00 4.0646681361e+00 
75600 4.6968536942e+00 7.0206100165e-05 2.3467372426e+00 -4.0646681361e+00 2.3467372426e+00 4.0646681361e+00 
75700 4.6968536943e+00 7.0283279576e-05 2.3467372426e+00 -4.0646681361e+00 2.3467372426e+00 4.0646681361e+00 
75800 4.6968536944e+00 7.0357195210e-05 2.3467372426e+00 -4.0646681361e+00 2.3467372426e+00 4.0646681361e+00 
75900 4.6968536945e+00 7.0427710601e-05 2.3467372426e+00 -4.0646681361e+00 2.3467372426e+00 4.0646681361e+00 
76000 4.6968536945e+00 7.0494708524e-05 2.3467372426e+00 -4.0646681361e+00 2.3467372426e+00 4.0646681361e+00 
76100 4.6968536946e+00 7.0558090678e-05 2.3467372426e+00 -4.0646681361e+00 2.3467372426e+00 4.0646681361e+00 
76200 4.6968536947e+00 7.0617777315e-05 2.3467372426e+00 -4.0646681361e+00 2.3467372426e+00 4.0646681361e+00 
76300 4.6968536947e+00 7.0673706793e-05 2.3467372426e+00 -4.0646681361e+00 2.3467372426e+00 4.0646681361e+00 
76400 4.6968536948e+00 7.0725835069e-05 2.3467372426e+00 -4.0646681361e+00 2.3467372426e+00 4.0646681361e+00 
76500 4.6968536948e+00 7.0231234091e-05 2.3467357357e+00 -4.0646655261e+00 2.3467357357e+00 4.0646655261e+00 
76600 4.6968536949e+00 7.0269536116e-05 2.3467357357e+00 -4.0646655261e+00 2.3467357357e+00 4.0646655261e+00 
76700 4.6968536949e+00 7.0303554548e-05 2.3467357357e+00 -4.0646655261e+00 2.3467357357e+00 4.0646655261e+00 
76800 4.6968536950e+00 7.0333324034e-05 2.3467357357e+00 -4.0646655261e+00 2.3467357357e+00 4.0646655261e+00 
76900 4.6968536951e+00 7.0358897976e-05 2.3467357357e+00 -4.0646655261e+00 2.3467357357e+00 4.0646655261e+00 
77000 4.6968536951e+00 7.0380347229e-05 2.3467357357e+00 -4.0646655261e+00 2.3467357357e+00 4.0646655261e+00 
77100 4.6968536952e+00 7.0397758802e-05 2.3467357357e+00 -4.0646655261e+00 2.3467357357e+00 4.0646655261e+00 
77200 4.6968536952e+00 7.0411234558e-05 2.3467357357e+00 -4.0646655261e+00 2.3467357357e+00 4.0646655261e+00 
77300 4.6968536953e+00 7.0420889943e-05 2.3467357357e+00 -4.0646655261e+00 2.3467357357e+00 4.0646655261e+00 
77400 4.6968536954e+00 7.0426852723e-05 2.3467357357e+00 -4.0646655261e+00 2.3467357357e+00 4.0646655261e+00 
77500 4.6968536954e+00 7.0429261735e-05 2.3467357357e+00 -4.0646655261e+00 2.3467357357e+00 4.0646655261e+00 
77600 4.6968536955e+00 7.0428265666e-05 2.3467357357e+00 -4.0646655261e+00 2.3467357357e+00 4.0646655261e+00 
77700 4.6968536955e+00 7.0424021847e-05 2.3467357357e+00 -4.0646655261e+00 2.3467357357e+00 4.0646655261e+00 
77800 4.6968536956e+00 7.0416695092e-05 2.3467357357e+00 -4.0646655261e+00 2.3467357357e+00 4.0646655261e+00 
77900 4.6968536957e+00 7.0406456539e-05 2.3467357357e+00 -4.0646655261e+00 2.3467357357e+00 4.0646655261e+00 
78000 4.6968536957e+00 7.0393482554e-05 2.3467357357e+00 -4.0646655261e+00 2.3467357357e+00 4.0646655261e+00 
78100 4.6968536958e+00 7.0377953648e-05 2.3467357357e+00 -4.0646655261e+00 2.3467357357e+00 4.0646655261e+00 
78200 4.6968536958e+00 7.0360053433e-05 2.3467357357e+00 -4.0646655261e+00 2.3467357357e+00 4.0646655261e+00 
78300 4.6968536959e+00 7.0339967634e-05 2.3467357357e+00 -4.0646655261e+00 2.3467357357e+00 4.0646655261e+00 
78400 4.6968536959e+00 7.0317883120e-05 2.3467357357e+00 -4.0646655261e+00 2.3467357357e+00 4.0646655261e+00 
78500 4.6968536960e+00 7.0293986992e-05 2.3467357357e+00 -4.0646655261e+00 2.3467357357e+00 4.0646655261e+00 
78600 4.6968536960e+00 7.0268465715e-05 2.3467357357e+00 -4.0646655261e+00 2.3467357357e+00 4.0646655261e+00 
78700 4.6968536961e+00 7.0241504287e-05 2.3467357357e+00 -4.0646655261e+00 2.3467357357e+00 4.0646655261e+00 
78800 4.6968536961e+00 7.0226975976e-05 2.3467357357e+00 -4.0646655261e+00 2.3467357357e+00 4.0646655261e+00 
78800 4.6968536961e+00 7.0226975976e-05 2.3467357357e+00 -4.0646655261e+00 2.3467357357e+00 4.0646655261e+00 
