# step Hamiltonian StressXX CellTensor1 CellTensor2 CellTensor3 CellTensor4 
0 3.9406829138e+00 -6.2871151132e-01 1.6087831444e+00 -2.7864941444e+00 1.6087831444e+00 2.7864941444e+00 
100 3.9518085653e+00 -6.2197530773e-01 1.6087831444e+00 -2.7864941444e+00 1.6087831444e+00 2.7864941444e+00 
200 3.9493776071e+00 -5.9380969220e-01 1.6281520096e+00 -2.8200420031e+00 1.6281520096e+00 2.8200420031e+00 
300 3.9490852833e+00 -5.6823011900e-01 1.6464213687e+00 -2.8516854612e+00 1.6464213687e+00 2.8516854612e+00 
400 3.9502116527e+00 -5.4499595877e-01 1.6637077223e+00 -2.8816263039e+00 1.6637077223e+00 2.8816263039e+00 
500 3.9521350913e+00 -5.2389943187e-01 1.6801132922e+00 -2.9100415846e+00 1.6801132922e+00 2.9100415846e+00 
600 3.9543258027e+00 -5.0475844565e-01 1.6957283779e+00 -2.9370877064e+00 1.6957283779e+00 2.9370877064e+00 
700 3.9563407350e+00 -4.8741064897e-01 1.7106331938e+00 -2.9629036048e+00 1.7106331938e+00 2.9629036048e+00 
800 3.9578190536e+00 -4.7170861228e-01 1.7248993030e+00 -2.9876132308e+00 1.7248993030e+00 2.9876132308e+00 
900 3.9584775964e+00 -4.5751604625e-01 1.7385907377e+00 -3.0113274913e+00 1.7385907377e+00 3.0113274913e+00 
1000 3.9581059543e+00 -4.4470496574e-01 1.7517648787e+00 -3.0341457729e+00 1.7517648787e+00 3.0341457729e+00 
1100 3.9565609923e+00 -4.3315369504e-01 1.7644731523e+00 -3.0561571483e+00 1.7644731523e+00 3.0561571483e+00 
1200 3.9537607644e+00 -4.2274559702e-01 1.7767615914e+00 -3.0774413493e+00 1.7767615914e+00 3.0774413493e+00 
1300 3.9496778797e+00 -4.1336839858e-01 1.7886712989e+00 -3.0980695677e+00 1.7886712989e+00 3.0980695677e+00 
1400 3.9443324492e+00 -4.0491397957e-01 1.8002388410e+00 -3.1181051384e+00 1.8002388410e+00 3.1181051384e+00 
1500 3.9377847902e+00 -3.9727849421e-01 1.8114965957e+00 -3.1376041415e+00 1.8114965957e+00 3.1376041415e+00 
1600 3.9301280863e+00 -3.9036270275e-01 1.8224730692e+00 -3.1566159513e+00 1.8224730692e+00 3.1566159513e+00 
1700 3.9214811995e+00 -3.8407240627e-01 1.8331931945e+00 -3.1751837530e+00 1.8331931945e+00 3.1751837530e+00 
1800 3.9119818171e+00 -3.7831889680e-01 1.8436786173e+00 -3.1933450380e+00 1.8436786173e+00 3.1933450380e+00 
1900 3.9017800853e+00 -3.7301935652e-01 1.8539479732e+00 -3.2111320842e+00 1.8539479732e+00 3.2111320842e+00 
2000 3.8910328473e+00 -3.6809716141e-01 1.8640171579e+00 -3.2285724236e+00 1.8640171579e+00 3.2285724236e+00 
2100 3.8798985684e+00 -3.6348206444e-01 1.8738995889e+00 -3.2456892962e+00 1.8738995889e+00 3.2456892962e+00 
2200 3.8685329881e+00 -3.5911025043e-01 1.8836064587e+00 -3.2625020880e+00 1.8836064587e+00 3.2625020880e+00 
2300 3.8570855127e+00 -3.5492426757e-01 1.8931469766e+00 -3.2790267497e+00 1.8931469766e+00 3.2790267497e+00 
2400 3.8456963278e+00 -3.5087284971e-01 1.9025285970e+00 -3.2952761928e+00 1.9025285970e+00 3.2952761928e+00 
2500 3.8344941923e+00 -3.4691064928e-01 1.9117572340e+00 -3.3112606611e+00 1.9117572340e+00 3.3112606611e+00 
2600 3.8235948563e+00 -3.4299790303e-01 1.9208374601e+00 -3.3269880739e+00 1.9208374601e+00 3.3269880739e+00 
2700 3.8131000361e+00 -3.3910005252e-01 1.9297726875e+00 -3.3424643418e+00 1.9297726875e+00 3.3424643418e+00 
2800 3.8030968760e+00 -3.3518734003e-01 1.9385653344e+00 -3.3576936530e+00 1.9385653344e+00 3.3576936530e+00 
2900 3.7936578219e+00 -3.3123439754e-01 1.9472169739e+00 -3.3726787322e+00 1.9472169739e+00 3.3726787322e+00 
3000 3.7848408371e+00 -3.2721984292e-01 1.9557284672e+00 -3.3874210710e+00 1.9557284672e+00 3.3874210710e+00 
3100 3.7766898929e+00 -3.2312589461e-01 1.9641000826e+00 -3.4019211342e+00 1.9641000826e+00 3.4019211342e+00 
3200 3.7692356739e+00 -3.1893801231e-01 1.9723316005e+00 -3.4161785414e+00 1.9723316005e+00 3.4161785414e+00 
3300 3.7624964438e+00 -3.1464456856e-01 1.9804224061e+00 -3.4301922277e+00 1.9804224061e+00 3.4301922277e+00 
3400 3.7564790250e+00 -3.1023655382e-01 1.9883715708e+00 -3.4439605849e+00 1.9883715708e+00 3.4439605849e+00 
3500 3.7511798524e+00 -3.0570731545e-01 1.9961779243e+00 -3.4574815858e+00 1.9961779243e+00 3.4574815858e+00 
3600 3.7465860683e+00 -3.0105232962e-01 2.0038401174e+00 -3.4707528936e+00 2.0038401174e+00 3.4707528936e+00 
3700 3.7426766305e+00 -2.9626900422e-01 2.0113566782e+00 -3.4837719588e+00 2.0113566782e+00 3.4837719588e+00 
3800 3.7394234140e+00 -2.9135650979e-01 2.0187260611e+00 -3.4965361044e+00 2.0187260611e+00 3.4965361044e+00 
3900 3.7367922876e+00 -2.8631563527e-01 2.0259466911e+00 -3.5090426023e+00 2.0259466911e+00 3.5090426023e+00 
4000 3.7347441543e+00 -2.8114866499e-01 2.0330170028e+00 -3.5212887416e+00 2.0330170028e+00 3.5212887416e+00 
4100 3.7332359454e+00 -2.7585927317e-01 2.0399354766e+00 -3.5332718896e+00 2.0399354766e+00 3.5332718896e+00 
4200 3.7322215618e+00 -2.7045243217e-01 2.0467006700e+00 -3.5449895483e+00 2.0467006700e+00 3.5449895483e+00 
4300 3.7316527600e+00 -2.6493433104e-01 2.0533112476e+00 -3.5564394047e+00 2.0533112476e+00 3.5564394047e+00 
4400 3.7314799767e+00 -2.5931230067e-01 2.0597660078e+00 -3.5676193772e+00 2.0597660078e+00 3.5676193772e+00 
4500 3.7316530951e+00 -2.5359474256e-01 2.0660639070e+00 -3.5785276586e+00 2.0660639070e+00 3.5785276586e+00 
4600 3.7321221484e+00 -2.4779105793e-01 2.0722040830e+00 -3.5891627554e+00 2.0722040830e+00 3.5891627554e+00 
4700 3.7328379630e+00 -2.4191157473e-01 2.0781858749e+00 -3.5995235229e+00 2.0781858749e+00 3.5995235229e+00 
4800 3.7337527403e+00 -2.3596747018e-01 2.0840088425e+00 -3.6096091985e+00 2.0840088425e+00 3.6096091985e+00 
4900 3.7348205784e+00 -2.2997068697e-01 2.0896727824e+00 -3.6194194303e+00 2.0896727824e+00 3.6194194303e+00 
5000 3.7359979324e+00 -2.2393384183e-01 2.0951777435e+00 -3.6289543027e+00 2.0951777435e+00 3.6289543027e+00 
5100 3.7372440152e+00 -2.1787012573e-01 2.1005240392e+00 -3.6382143584e+00 2.1005240392e+00 3.6382143584e+00 
5200 3.7385211364e+00 -2.1179319542e-01 2.1057122578e+00 -3.6472006166e+00 2.1057122578e+00 3.6472006166e+00 
5300 3.7397949816e+00 -2.0571705700e-01 2.1107432704e+00 -3.6559145860e+00 2.1107432704e+00 3.6559145860e+00 
5400 3.7410348295e+00 -1.9965594244e-01 2.1156182363e+00 -3.6643582747e+00 2.1156182363e+00 3.6643582747e+00 
5500 3.7422137087e+00 -1.9362418087e-01 2.1203386058e+00 -3.6725341945e+00 2.1203386058e+00 3.6725341945e+00 
5600 3.7433084929e+00 -1.8763606684e-01 2.1249061197e+00 -3.6804453607e+00 2.1249061197e+00 3.6804453607e+00 
5700 3.7442999364e+00 -1.8170572815e-01 2.1293228069e+00 -3.6880952872e+00 2.1293228069e+00 3.6880952872e+00 
5800 3.7451726513e+00 -1.7584699608e-01 2.1335909782e+00 -3.6954879768e+00 2.1335909782e+00 3.6954879768e+00 
5900 3.7459150274e+00 -1.7007328098e-01 2.1377132185e+00 -3.7026279064e+00 2.1377132185e+00 3.7026279064e+00 
6000 3.7465191001e+00 -1.6439745604e-01 2.1416923755e+00 -3.7095200085e+00 2.1416923755e+00 3.7095200085e+00 
6100 3.7469803690e+00 -1.5883175160e-01 2.1455315466e+00 -3.7161696479e+00 2.1455315466e+00 3.7161696479e+00 
6200 3.7472975719e+00 -1.5338766216e-01 2.1492340636e+00 -3.7225825955e+00 2.1492340636e+00 3.7225825955e+00 
6300 3.7474724224e+00 -1.4807586748e-01 2.1528034756e+00 -3.7287649985e+00 2.1528034756e+00 3.7287649985e+00 
6400 3.7475093148e+00 -1.4290616864e-01 2.1562435302e+00 -3.7347233478e+00 2.1562435302e+00 3.7347233478e+00 
6500 3.7474150052e+00 -1.3788743923e-01 2.1595581539e+00 -3.7404644444e+00 2.1595581539e+00 3.7404644444e+00 
6600 3.7471982762e+00 -1.3302759132e-01 2.1627514312e+00 -3.7459953630e+00 2.1627514312e+00 3.7459953630e+00 
6700 3.7468695906e+00 -1.2833355542e-01 2.1658275839e+00 -3.7513234158e+00 2.1658275839e+00 3.7513234158e+00 
6800 3.7464407436e+00 -1.2381127307e-01 2.1687909494e+00 -3.7564561154e+00 2.1687909494e+00 3.7564561154e+00 
6900 3.7459245184e+00 -1.1946570076e-01 2.1716459594e+00 -3.7614011377e+00 2.1716459594e+00 3.7614011377e+00 
7000 3.7453343522e+00 -1.1530082359e-01 2.1743971189e+00 -3.7661662857e+00 2.1743971189e+00 3.7661662857e+00 
7100 3.7446840174e+00 -1.1131967711e-01 2.1770489856e+00 -3.7707594536e+00 2.1770489856e+00 3.7707594536e+00 
7200 3.7439873234e+00 -1.0752437595e-01 2.1796061499e+00 -3.7751885921e+00 2.1796061499e+00 3.7751885921e+00 
7300 3.7432578419e+00 -1.0391614799e-01 2.1820732157e+00 -3.7794616754e+00 2.1820732157e+00 3.7794616754e+00 
7400 3.7425086606e+00 -1.0049537281e-01 2.1844547816e+00 -3.7835866686e+00 2.1844547816e+00 3.7835866686e+00 
7500 3.7417521655e+00 -9.7261623679e-02 2.1867554242e+00 -3.7875714984e+00 2.1867554242e+00 3.7875714984e+00 
7600 3.7409998552e+00 -9.4213712151e-02 2.1889796805e+00 -3.7914240234e+00 2.1889796805e+00 3.7914240234e+00 
7700 3.7402621884e+00 -9.1349734634e-02 2.1911320334e+00 -3.7951520079e+00 2.1911320334e+00 3.7951520079e+00 
7800 3.7395484634e+00 -8.8667120375e-02 2.1932168964e+00 -3.7987630967e+00 2.1932168964e+00 3.7987630967e+00 
7900 3.7388667312e+00 -8.6162680342e-02 2.1952386009e+00 -3.8022647915e+00 2.1952386009e+00 3.8022647915e+00 
8000 3.7382237406e+00 -8.3832656536e-02 2.1972013832e+00 -3.8056644301e+00 2.1972013832e+00 3.8056644301e+00 
8100 3.7376249147e+00 -8.1672771315e-02 2.1991093734e+00 -3.8089691662e+00 2.1991093734e+00 3.8089691662e+00 
8200 3.7370743554e+00 -7.9678276324e-02 2.2009665856e+00 -3.8121859521e+00 2.2009665856e+00 3.8121859521e+00 
8300 3.7365748764e+00 -7.7844000681e-02 2.2027769082e+00 -3.8153215227e+00 2.2027769082e+00 3.8153215227e+00 
8400 3.7361280592e+00 -7.6164398083e-02 2.2045440958e+00 -3.8183823814e+00 2.2045440958e+00 3.8183823814e+00 
8500 3.7357343309e+00 -7.4633592570e-02 2.2062717622e+00 -3.8213747874e+00 2.2062717622e+00 3.8213747874e+00 
8600 3.7353930602e+00 -7.3245422708e-02 2.2079633743e+00 -3.8243047456e+00 2.2079633743e+00 3.8243047456e+00 
8700 3.7351026671e+00 -7.1993484047e-02 2.2096222466e+00 -3.8271779967e+00 2.2096222466e+00 3.8271779967e+00 
8800 3.7348607443e+00 -7.0871169730e-02 2.2112515370e+00 -3.8300000104e+00 2.2112515370e+00 3.8300000104e+00 
8900 3.7346641853e+00 -6.9871709211e-02 2.2128542430e+00 -3.8327759787e+00 2.2128542430e+00 3.8327759787e+00 
9000 3.7345093164e+00 -6.8988205090e-02 2.2144331995e+00 -3.8355108115e+00 2.2144331995e+00 3.8355108115e+00 
9100 3.7343920292e+00 -6.8213668080e-02 2.2159910764e+00 -3.8382091335e+00 2.2159910764e+00 3.8382091335e+00 
9200 3.7343079098e+00 -6.7541050214e-02 2.2175303777e+00 -3.8408752816e+00 2.2175303777e+00 3.8408752816e+00 
9300 3.7342523634e+00 -6.6963276340e-02 2.2190534409e+00 -3.8435133043e+00 2.2190534409e+00 3.8435133043e+00 
9400 3.7342207301e+00 -6.6473274038e-02 2.2205624370e+00 -3.8461269622e+00 2.2205624370e+00 3.8461269622e+00 
9500 3.7342083910e+00 -6.6064002027e-02 2.2220593716e+00 -3.8487197291e+00 2.2220593716e+00 3.8487197291e+00 
9600 3.7342108630e+00 -6.5728477160e-02 2.2235460862e+00 -3.8512947943e+00 2.2235460862e+00 3.8512947943e+00 
9700 3.7342238810e+00 -6.5459800072e-02 2.2250242601e+00 -3.8538550666e+00 2.2250242601e+00 3.8538550666e+00 
9800 3.7342434663e+00 -6.5251179525e-02 2.2264954128e+00 -3.8564031778e+00 2.2264954128e+00 3.8564031778e+00 
9900 3.7342659818e+00 -6.5095955476e-02 2.2279609072e+00 -3.8589414886e+00 2.2279609072e+00 3.8589414886e+00 
10000 3.7342881738e+00 -6.4987620872e-02 2.2294219531e+00 -3.8614720944e+00 2.2294219531e+00 3.8614720944e+00 
10100 3.7343072007e+00 -6.4919842154e-02 2.2308796112e+00 -3.8639968322e+00 2.2308796112e+00 3.8639968322e+00 
10200 3.7343206489e+00 -6.4886478429e-02 2.2323347972e+00 -3.8665172882e+00 2.2323347972e+00 3.8665172882e+00 
10300 3.7343265378e+00 -6.4881599277e-02 2.2337882869e+00 -3.8690348063e+00 2.2337882869e+00 3.8690348063e+00 
10400 3.7343233149e+00 -6.4899501119e-02 2.2352407214e+00 -3.8715504967e+00 2.2352407214e+00 3.8715504967e+00 
10500 3.7343098408e+00 -6.4934722107e-02 2.2366926125e+00 -3.8740652458e+00 2.2366926125e+00 3.8740652458e+00 
10600 3.7342853678e+00 -6.4982055464e-02 2.2381443485e+00 -3.8765797262e+00 2.2381443485e+00 3.8765797262e+00 
10700 3.7342495115e+00 -6.5036561235e-02 2.2395962002e+00 -3.8790944072e+00 2.2395962002e+00 3.8790944072e+00 
10800 3.7342022180e+00 -6.5093576390e-02 2.2410483277e+00 -3.8816095658e+00 2.2410483277e+00 3.8816095658e+00 
10900 3.7341437268e+00 -6.5148723275e-02 2.2425007864e+00 -3.8841252981e+00 2.2425007864e+00 3.8841252981e+00 
11000 3.7340745326e+00 -6.5197916362e-02 2.2439535340e+00 -3.8866415307e+00 2.2439535340e+00 3.8866415307e+00 
11100 3.7339953445e+00 -6.5237367328e-02 2.2454064372e+00 -3.8891580329e+00 2.2454064372e+00 3.8891580329e+00 
11200 3.7339070468e+00 -6.5263588449e-02 2.2468592788e+00 -3.8916744284e+00 2.2468592788e+00 3.8916744284e+00 
11300 3.7338106588e+00 -6.5273394360e-02 2.2483117644e+00 -3.8941902072e+00 2.2483117644e+00 3.8941902072e+00 
11400 3.7337072975e+00 -6.5263902207e-02 2.2497635296e+00 -3.8967047382e+00 2.2497635296e+00 3.8967047382e+00 
11500 3.7335981421e+00 -6.5232530259e-02 2.2512141467e+00 -3.8992172808e+00 2.2512141467e+00 3.8992172808e+00 
11600 3.7334844011e+00 -6.5176995046e-02 2.2526631320e+00 -3.9017269969e+00 2.2526631320e+00 3.9017269969e+00 
11700 3.7333672831e+00 -6.5095307093e-02 2.2541099521e+00 -3.9042329629e+00 2.2541099521e+00 3.9042329629e+00 
11800 3.7332479700e+00 -6.4985765346e-02 2.2555540310e+00 -3.9067341809e+00 2.2555540310e+00 3.9067341809e+00 
11900 3.7331275949e+00 -6.4846950380e-02 2.2569947564e+00 -3.9092295904e+00 2.2569947564e+00 3.9092295904e+00 
12000 3.7330072229e+00 -6.4677716488e-02 2.2584314860e+00 -3.9117180792e+00 2.2584314860e+00 3.9117180792e+00 
12100 3.7328878357e+00 -6.4477182739e-02 2.2598635539e+00 -3.9141984936e+00 2.2598635539e+00 3.9141984936e+00 
12200 3.7327703201e+00 -6.4244723136e-02 2.2612902764e+00 -3.9166696494e+00 2.2612902764e+00 3.9166696494e+00 
12300 3.7326554588e+00 -6.3979955938e-02 2.2627109575e+00 -3.9191303412e+00 2.2627109575e+00 3.9191303412e+00 
12400 3.7325439256e+00 -6.3682732285e-02 2.2641248945e+00 -3.9215793519e+00 2.2641248945e+00 3.9215793519e+00 
12500 3.7324362825e+00 -6.3353124196e-02 2.2655313831e+00 -3.9240154617e+00 2.2655313831e+00 3.9240154617e+00 
12600 3.7323329800e+00 -6.2991412056e-02 2.2669297226e+00 -3.9264374567e+00 2.2669297226e+00 3.9264374567e+00 
12700 3.7322343594e+00 -6.2598071680e-02 2.2683192196e+00 -3.9288441361e+00 2.2683192196e+00 3.9288441361e+00 
12800 3.7321406569e+00 -6.2173761039e-02 2.2696991932e+00 -3.9312343206e+00 2.2696991932e+00 3.9312343206e+00 
12900 3.7320520102e+00 -6.1719306747e-02 2.2710689785e+00 -3.9336068582e+00 2.2710689785e+00 3.9336068582e+00 
13000 3.7319684651e+00 -6.1235690375e-02 2.2724279301e+00 -3.9359606315e+00 2.2724279301e+00 3.9359606315e+00 
13100 3.7318899845e+00 -6.0724034689e-02 2.2737754258e+00 -3.9382945626e+00 2.2737754258e+00 3.9382945626e+00 
13200 3.7318164573e+00 -6.0185589871e-02 2.2751108694e+00 -3.9406076186e+00 2.2751108694e+00 3.9406076186e+00 
13300 3.7317477080e+00 -5.9621719795e-02 2.2764336932e+00 -3.9428988168e+00 2.2764336932e+00 3.9428988168e+00 
13400 3.7316835071e+00 -5.9033888439e-02 2.2777433609e+00 -3.9451672277e+00 2.2777433609e+00 3.9451672277e+00 
13500 3.7316235806e+00 -5.8423646465e-02 2.2790393692e+00 -3.9474119798e+00 2.2790393692e+00 3.9474119798e+00 
13600 3.7315676197e+00 -5.7792618058e-02 2.2803212496e+00 -3.9496322619e+00 2.2803212496e+00 3.9496322619e+00 
13700 3.7315152909e+00 -5.7142488050e-02 2.2815885703e+00 -3.9518273258e+00 2.2815885703e+00 3.9518273258e+00 
13800 3.7314662442e+00 -5.6474989395e-02 2.2828409371e+00 -3.9539964886e+00 2.2828409371e+00 3.9539964886e+00 
13900 3.7314201219e+00 -5.5791891031e-02 2.2840779940e+00 -3.9561391341e+00 2.2840779940e+00 3.9561391341e+00 
14000 3.7313765658e+00 -5.5094986176e-02 2.2852994248e+00 -3.9582547142e+00 2.2852994248e+00 3.9582547142e+00 
14100 3.7313352246e+00 -5.4386081094e-02 2.2865049523e+00 -3.9603427491e+00 2.2865049523e+00 3.9603427491e+00 
14200 3.7312957593e+00 -5.3666984364e-02 2.2876943395e+00 -3.9624028281e+00 2.2876943395e+00 3.9624028281e+00 
14300 3.7312578487e+00 -5.2939496681e-02 2.2888673888e+00 -3.9644346092e+00 2.2888673888e+00 3.9644346092e+00 
14400 3.7312211934e+00 -5.2205401215e-02 2.2900239423e+00 -3.9664378187e+00 2.2900239423e+00 3.9664378187e+00 
14500 3.7311855194e+00 -5.1466454557e-02 2.2911638809e+00 -3.9684122501e+00 2.2911638809e+00 3.9684122501e+00 
14600 3.7311505802e+00 -5.0724378262e-02 2.2922871235e+00 -3.9703577634e+00 2.2922871235e+00 3.9703577634e+00 
14700 3.7311161591e+00 -4.9980851002e-02 2.2933936266e+00 -3.9722742830e+00 2.2933936266e+00 3.9722742830e+00 
14800 3.7310820696e+00 -4.9237501350e-02 2.2944833830e+00 -3.9741617964e+00 2.2944833830e+00 3.9741617964e+00 
14900 3.7310481559e+00 -4.8495901200e-02 2.2955564205e+00 -3.9760203520e+00 2.2955564205e+00 3.9760203520e+00 
15000 3.7310142925e+00 -4.7757559813e-02 2.2966128010e+00 -3.9778500566e+00 2.2966128010e+00 3.9778500566e+00 
15100 3.7309803835e+00 -4.7023918512e-02 2.2976526184e+00 -3.9796510733e+00 2.2976526184e+00 3.9796510733e+00 
15200 3.7309463604e+00 -4.6296346006e-02 2.2986759978e+00 -3.9814236184e+00 2.2986759978e+00 3.9814236184e+00 
15300 3.7309121813e+00 -4.5576134342e-02 2.2996830933e+00 -3.9831679590e+00 2.2996830933e+00 3.9831679590e+00 
15400 3.7308778277e+00 -4.4864495478e-02 2.3006740865e+00 -3.9848844095e+00 2.3006740865e+00 3.9848844095e+00 
15500 3.7308433029e+00 -4.4162558463e-02 2.3016491847e+00 -3.9865733291e+00 2.3016491847e+00 3.9865733291e+00 
15600 3.7308086288e+00 -4.3471367213e-02 2.3026086191e+00 -3.9882351182e+00 2.3026086191e+00 3.9882351182e+00 
15700 3.7307738437e+00 -4.2791878854e-02 2.3035526426e+00 -3.9898702149e+00 2.3035526426e+00 3.9898702149e+00 
15800 3.7307389990e+00 -4.2124962631e-02 2.3044815286e+00 -3.9914790926e+00 2.3044815286e+00 3.9914790926e+00 
15900 3.7307041568e+00 -4.1471399351e-02 2.3053955681e+00 -3.9930622556e+00 2.3053955681e+00 3.9930622556e+00 
16000 3.7306693872e+00 -4.0831881328e-02 2.3062950688e+00 -3.9946202364e+00 2.3062950688e+00 3.9946202364e+00 
16100 3.7306347654e+00 -4.0207012824e-02 2.3071803521e+00 -3.9961535921e+00 2.3071803521e+00 3.9961535921e+00 
16200 3.7306003699e+00 -3.9597310950e-02 2.3080517522e+00 -3.9976629013e+00 2.3080517522e+00 3.9976629013e+00 
16300 3.7305662796e+00 -3.9003206990e-02 2.3089096134e+00 -3.9991487606e+00 2.3089096134e+00 3.9991487606e+00 
16400 3.7305325723e+00 -3.8425048140e-02 2.3097542889e+00 -4.0006117813e+00 2.3097542889e+00 4.0006117813e+00 
16500 3.7304993227e+00 -3.7863099613e-02 2.3105861382e+00 -4.0020525867e+00 2.3105861382e+00 4.0020525867e+00 
16600 3.7304666010e+00 -3.7317547091e-02 2.3114055264e+00 -4.0034718085e+00 2.3114055264e+00 4.0034718085e+00 
16700 3.7304344715e+00 -3.6788499488e-02 2.3122128213e+00 -4.0048700844e+00 2.3122128213e+00 4.0048700844e+00 
16800 3.7304029917e+00 -3.6275991996e-02 2.3130083927e+00 -4.0062480545e+00 2.3130083927e+00 4.0062480545e+00 
16900 3.7303722115e+00 -3.5779989388e-02 2.3137926104e+00 -4.0076063593e+00 2.3137926104e+00 4.0076063593e+00 
17000 3.7303421726e+00 -3.5300389528e-02 2.3145658426e+00 -4.0089456369e+00 2.3145658426e+00 4.0089456369e+00 
17100 3.7303129085e+00 -3.4837027088e-02 2.3153284549e+00 -4.0102665201e+00 2.3153284549e+00 4.0102665201e+00 
17200 3.7302844440e+00 -3.4389677413e-02 2.3160808085e+00 -4.0115696347e+00 2.3160808085e+00 4.0115696347e+00 
17300 3.7302567956e+00 -3.3958060524e-02 2.3168232591e+00 -4.0128555970e+00 2.3168232591e+00 4.0128555970e+00 
17400 3.7302299717e+00 -3.3541845218e-02 2.3175561560e+00 -4.0141250116e+00 2.3175561560e+00 4.0141250116e+00 
17500 3.7302039732e+00 -3.3140653250e-02 2.3182798405e+00 -4.0153784699e+00 2.3182798405e+00 4.0153784699e+00 
17600 3.7301787935e+00 -3.2754063553e-02 2.3189946454e+00 -4.0166165483e+00 2.3189946454e+00 4.0166165483e+00 
17700 3.7301544200e+00 -3.2381616493e-02 2.3197008938e+00 -4.0178398065e+00 2.3197008938e+00 4.0178398065e+00 
17800 3.7301308339e+00 -3.2022818109e-02 2.3203988985e+00 -4.0190487860e+00 2.3203988985e+00 4.0190487860e+00 
17900 3.7301080118e+00 -3.1677144341e-02 2.3210889610e+00 -4.0202440093e+00 2.3210889610e+00 4.0202440093e+00 
18000 3.7300859260e+00 -3.1344045195e-02 2.3217713712e+00 -4.0214259784e+00 2.3217713712e+00 4.0214259784e+00 
18100 3.7300645452e+00 -3.1022948856e-02 2.3224464067e+00 -4.0225951742e+00 2.3224464067e+00 4.0225951742e+00 
18200 3.7300438359e+00 -3.0713265704e-02 2.3231143324e+00 -4.0237520556e+00 2.3231143324e+00 4.0237520556e+00 
18300 3.7300237627e+00 -3.0414392228e-02 2.3237754003e+00 -4.0248970586e+00 2.3237754003e+00 4.0248970586e+00 
18400 3.7300042891e+00 -3.0125714822e-02 2.3244298486e+00 -4.0260305964e+00 2.3244298486e+00 4.0260305964e+00 
18500 3.7299853784e+00 -2.9846613440e-02 2.3250779024e+00 -4.0271530586e+00 2.3250779024e+00 4.0271530586e+00 
18600 3.7299669941e+00 -2.9576465104e-02 2.3257197731e+00 -4.0282648112e+00 2.3257197731e+00 4.0282648112e+00 
18700 3.7299491004e+00 -2.9314647257e-02 2.3263556583e+00 -4.0293661966e+00 2.3263556583e+00 4.0293661966e+00 
18800 3.7299316633e+00 -2.9060540939e-02 2.3269857418e+00 -4.0304575333e+00 2.3269857418e+00 4.0304575333e+00 
18900 3.7299146500e+00 -2.8813533783e-02 2.3276101943e+00 -4.0315391168e+00 2.3276101943e+00 4.0315391168e+00 
19000 3.7298980303e+00 -2.8573022828e-02 2.3282291727e+00 -4.0326112189e+00 2.3282291727e+00 4.0326112189e+00 
19100 3.7298817760e+00 -2.8338417136e-02 2.3288428211e+00 -4.0336740889e+00 2.3288428211e+00 4.0336740889e+00 
19200 3.7298658615e+00 -2.8109140217e-02 2.3294512702e+00 -4.0347279538e+00 2.3294512702e+00 4.0347279538e+00 
19300 3.7298502641e+00 -2.7884632244e-02 2.3300546388e+00 -4.0357730188e+00 2.3300546388e+00 4.0357730188e+00 
19400 3.7298349635e+00 -2.7664352074e-02 2.3306530330e+00 -4.0368094681e+00 2.3306530330e+00 4.0368094681e+00 
19500 3.7298199424e+00 -2.7447779060e-02 2.3312465475e+00 -4.0378374653e+00 2.3312465475e+00 4.0378374653e+00 
19600 3.7298051858e+00 -2.7234414665e-02 2.3318352655e+00 -4.0388571547e+00 2.3318352655e+00 4.0388571547e+00 
19700 3.7297906816e+00 -2.7023783871e-02 2.3324192594e+00 -4.0398686618e+00 2.3324192594e+00 4.0398686618e+00 
19800 3.7297764198e+00 -2.6815436389e-02 2.3329985914e+00 -4.0408720942e+00 2.3329985914e+00 4.0408720942e+00 
19900 3.7297623927e+00 -2.6608947677e-02 2.3335733139e+00 -4.0418675428e+00 2.3335733139e+00 4.0418675428e+00 
20000 3.7297485947e+00 -2.6403919762e-02 2.3341434702e+00 -4.0428550825e+00 2.3341434702e+00 4.0428550825e+00 
20100 3.7297350218e+00 -2.6199981883e-02 2.3347090949e+00 -4.0438347733e+00 2.3347090949e+00 4.0438347733e+00 
20200 3.7297216716e+00 -2.5996790948e-02 2.3352702148e+00 -4.0448066614e+00 2.3352702148e+00 4.0448066614e+00 
20300 3.7297085432e+00 -2.5794031822e-02 2.3358268489e+00 -4.0457707800e+00 2.3358268489e+00 4.0457707800e+00 
20400 3.7296956364e+00 -2.5591417449e-02 2.3363790099e+00 -4.0467271508e+00 2.3363790099e+00 4.0467271508e+00 
20500 3.7296829521e+00 -2.5388688815e-02 2.3369267039e+00 -4.0476757847e+00 2.3369267039e+00 4.0476757847e+00 
20600 3.7296704918e+00 -2.5185614761e-02 2.3374699317e+00 -4.0486166829e+00 2.3374699317e+00 4.0486166829e+00 
20700 3.7296582571e+00 -2.4981991658e-02 2.3380086891e+00 -4.0495498380e+00 2.3380086891e+00 4.0495498380e+00 
20800 3.7296462501e+00 -2.4777642948e-02 2.3385429673e+00 -4.0504752351e+00 2.3385429673e+00 4.0504752351e+00 
20900 3.7296344728e+00 -2.4572418566e-02 2.3390727540e+00 -4.0513928525e+00 2.3390727540e+00 4.0513928525e+00 
21000 3.7296229271e+00 -2.4366194239e-02 2.3395980335e+00 -4.0523026633e+00 2.3395980335e+00 4.0523026633e+00 
21100 3.7296116146e+00 -2.4158870700e-02 2.3401187874e+00 -4.0532046355e+00 2.3401187874e+00 4.0532046355e+00 
21200 3.7296005365e+00 -2.3950372788e-02 2.3406349954e+00 -4.0540987339e+00 2.3406349954e+00 4.0540987339e+00 
21300 3.7295896935e+00 -2.3740648478e-02 2.3411466353e+00 -4.0549849202e+00 2.3411466353e+00 4.0549849202e+00 
21400 3.7295790859e+00 -2.3529667831e-02 2.3416536839e+00 -4.0558631543e+00 2.3416536839e+00 4.0558631543e+00 
21500 3.7295687133e+00 -2.3317421884e-02 2.3421561175e+00 -4.0567333948e+00 2.3421561175e+00 4.0567333948e+00 
21600 3.7295585747e+00 -2.3103921474e-02 2.3426539120e+00 -4.0575956001e+00 2.3426539120e+00 4.0575956001e+00 
21700 3.7295486686e+00 -2.2889196030e-02 2.3431470435e+00 -4.0584497290e+00 2.3431470435e+00 4.0584497290e+00 
21800 3.7295389925e+00 -2.2673292318e-02 2.3436354890e+00 -4.0592957414e+00 2.3436354890e+00 4.0592957414e+00 
21900 3.7295295439e+00 -2.2456273161e-02 2.3441192262e+00 -4.0601335988e+00 2.3441192262e+00 4.0601335988e+00 
22000 3.7295203192e+00 -2.2238216140e-02 2.3445982342e+00 -4.0609632650e+00 2.3445982342e+00 4.0609632650e+00 
22100 3.7295113147e+00 -2.2019212281e-02 2.3450724938e+00 -4.0617847067e+00 2.3450724938e+00 4.0617847067e+00 
22200 3.7295025259e+00 -2.1799364739e-02 2.3455419878e+00 -4.0625978941e+00 2.3455419878e+00 4.0625978941e+00 
22300 3.7294939482e+00 -2.1578787489e-02 2.3460067009e+00 -4.0634028009e+00 2.3460067009e+00 4.0634028009e+00 
22400 3.7294855763e+00 -2.1357604017e-02 2.3464666206e+00 -4.0641994051e+00 2.3464666206e+00 4.0641994051e+00 
22500 3.7294774050e+00 -2.1135946045e-02 2.3469217367e+00 -4.0649876893e+00 2.3469217367e+00 4.0649876893e+00 
22600 3.7294694287e+00 -2.0913952257e-02 2.3473720419e+00 -4.0657676408e+00 2.3473720419e+00 4.0657676408e+00 
22700 3.7294616417e+00 -2.0691767079e-02 2.3478175319e+00 -4.0665392521e+00 2.3478175319e+00 4.0665392521e+00 
22800 3.7294540381e+00 -2.0469539468e-02 2.3482582053e+00 -4.0673025208e+00 2.3482582053e+00 4.0673025208e+00 
22900 3.7294466122e+00 -2.0247421759e-02 2.3486940639e+00 -4.0680574501e+00 2.3486940639e+00 4.0680574501e+00 
23000 3.7294393582e+00 -2.0025568547e-02 2.3491251128e+00 -4.0688040487e+00 2.3491251128e+00 4.0688040487e+00 
23100 3.7294322703e+00 -1.9804135614e-02 2.3495513603e+00 -4.0695423311e+00 2.3495513603e+00 4.0695423311e+00 
23200 3.7294253431e+00 -1.9583278910e-02 2.3499728180e+00 -4.0702723171e+00 2.3499728180e+00 4.0702723171e+00 
23300 3.7294185712e+00 -1.9363153590e-02 2.3503895006e+00 -4.0709940326e+00 2.3503895006e+00 4.0709940326e+00 
23400 3.7294119493e+00 -1.9143913099e-02 2.3508014263e+00 -4.0717075089e+00 2.3508014263e+00 4.0717075089e+00 
23500 3.7294054724e+00 -1.8925708322e-02 2.3512086165e+00 -4.0724127830e+00 2.3512086165e+00 4.0724127830e+00 
23600 3.7293991360e+00 -1.8708686789e-02 2.3516110957e+00 -4.0731098973e+00 2.3516110957e+00 4.0731098973e+00 
23700 3.7293929354e+00 -1.8492991946e-02 2.3520088913e+00 -4.0737988997e+00 2.3520088913e+00 4.0737988997e+00 
23800 3.7293868667e+00 -1.8278762481e-02 2.3524020341e+00 -4.0744798429e+00 2.3524020341e+00 4.0744798429e+00 
23900 3.7293809257e+00 -1.8066131717e-02 2.3527905576e+00 -4.0751527852e+00 2.3527905576e+00 4.0751527852e+00 
24000 3.7293751090e+00 -1.7855227067e-02 2.3531744979e+00 -4.0758177894e+00 2.3531744979e+00 4.0758177894e+00 
24100 3.7293694131e+00 -1.7646169546e-02 2.3535538940e+00 -4.0764749228e+00 2.3535538940e+00 4.0764749228e+00 
24200 3.7293638349e+00 -1.7439073353e-02 2.3539287874e+00 -4.0771242573e+00 2.3539287874e+00 4.0771242573e+00 
24300 3.7293583716e+00 -1.7234045505e-02 2.3542992220e+00 -4.0777658687e+00 2.3542992220e+00 4.0777658687e+00 
24400 3.7293530205e+00 -1.7031185534e-02 2.3546652437e+00 -4.0783998369e+00 2.3546652437e+00 4.0783998369e+00 
24500 3.7293477792e+00 -1.6830585246e-02 2.3550269006e+00 -4.0790262451e+00 2.3550269006e+00 4.0790262451e+00 
24600 3.7293426453e+00 -1.6632328524e-02 2.3553842429e+00 -4.0796451800e+00 2.3553842429e+00 4.0796451800e+00 
24700 3.7293376169e+00 -1.6436491202e-02 2.3557373221e+00 -4.0802567311e+00 2.3557373221e+00 4.0802567311e+00 
24800 3.7293326920e+00 -1.6243140976e-02 2.3560861915e+00 -4.0808609908e+00 2.3560861915e+00 4.0808609908e+00 
24900 3.7293278688e+00 -1.6052337373e-02 2.3564309060e+00 -4.0814580536e+00 2.3564309060e+00 4.0814580536e+00 
25000 3.7293231455e+00 -1.5864131769e-02 2.3567715212e+00 -4.0820480165e+00 2.3567715212e+00 4.0820480165e+00 
25100 3.7293185205e+00 -1.5678567441e-02 2.3571080941e+00 -4.0826309779e+00 2.3571080941e+00 4.0826309779e+00 
25200 3.7293139923e+00 -1.5495679679e-02 2.3574406825e+00 -4.0832070379e+00 2.3574406825e+00 4.0832070379e+00 
25300 3.7293095594e+00 -1.5315495917e-02 2.3577693448e+00 -4.0837762978e+00 2.3577693448e+00 4.0837762978e+00 
25400 3.7293052203e+00 -1.5138035919e-02 2.3580941401e+00 -4.0843388597e+00 2.3580941401e+00 4.0843388597e+00 
25500 3.7293009735e+00 -1.4963311984e-02 2.3584151277e+00 -4.0848948265e+00 2.3584151277e+00 4.0848948265e+00 
25600 3.7292968176e+00 -1.4791329191e-02 2.3587323672e+00 -4.0854443014e+00 2.3587323672e+00 4.0854443014e+00 
25700 3.7292927512e+00 -1.4622085671e-02 2.3590459182e+00 -4.0859873876e+00 2.3590459182e+00 4.0859873876e+00 
25800 3.7292887727e+00 -1.4455572896e-02 2.3593558402e+00 -4.0865241883e+00 2.3593558402e+00 4.0865241883e+00 
25900 3.7292848809e+00 -1.4291776002e-02 2.3596621926e+00 -4.0870548062e+00 2.3596621926e+00 4.0870548062e+00 
26000 3.7292810740e+00 -1.4130674118e-02 2.3599650342e+00 -4.0875793434e+00 2.3599650342e+00 4.0875793434e+00 
26100 3.7292773507e+00 -1.3972240723e-02 2.3602644237e+00 -4.0880979011e+00 2.3602644237e+00 4.0880979011e+00 
26200 3.7292737094e+00 -1.3816444008e-02 2.3605604188e+00 -4.0886105797e+00 2.3605604188e+00 4.0886105797e+00 
26300 3.7292701486e+00 -1.3663247251e-02 2.3608530766e+00 -4.0891174779e+00 2.3608530766e+00 4.0891174779e+00 
26400 3.7292666667e+00 -1.3512609203e-02 2.3611424535e+00 -4.0896186933e+00 2.3611424535e+00 4.0896186933e+00 
26500 3.7292632620e+00 -1.3364484474e-02 2.3614286048e+00 -4.0901143220e+00 2.3614286048e+00 4.0901143220e+00 
26600 3.7292599331e+00 -1.3218823927e-02 2.3617115850e+00 -4.0906044581e+00 2.3617115850e+00 4.0906044581e+00 
26700 3.7292566782e+00 -1.3075575069e-02 2.3619914474e+00 -4.0910891940e+00 2.3619914474e+00 4.0910891940e+00 
26800 3.7292534958e+00 -1.2934682443e-02 2.3622682442e+00 -4.0915686200e+00 2.3622682442e+00 4.0915686200e+00 
26900 3.7292503842e+00 -1.2796088014e-02 2.3625420262e+00 -4.0920428244e+00 2.3625420262e+00 4.0920428244e+00 
27000 3.7292473417e+00 -1.2659731553e-02 2.3628128432e+00 -4.0925118933e+00 2.3628128432e+00 4.0925118933e+00 
27100 3.7292443669e+00 -1.2525551008e-02 2.3630807437e+00 -4.0929759104e+00 2.3630807437e+00 4.0929759104e+00 
27200 3.7292414580e+00 -1.2393482872e-02 2.3633457745e+00 -4.0934349573e+00 2.3633457745e+00 4.0934349573e+00 
27300 3.7292386135e+00 -1.2263462536e-02 2.3636079814e+00 -4.0938891130e+00 2.3636079814e+00 4.0938891130e+00 
27400 3.7292358318e+00 -1.2135424632e-02 2.3638674087e+00 -4.0943384542e+00 2.3638674087e+00 4.0943384542e+00 
27500 3.7292331114e+00 -1.2009303363e-02 2.3641240991e+00 -4.0947830551e+00 2.3641240991e+00 4.0947830551e+00 
27600 3.7292304508e+00 -1.1885032816e-02 2.3643780942e+00 -4.0952229875e+00 2.3643780942e+00 4.0952229875e+00 
27700 3.7292278484e+00 -1.1762547264e-02 2.3646294340e+00 -4.0956583207e+00 2.3646294340e+00 4.0956583207e+00 
27800 3.7292253030e+00 -1.1641781447e-02 2.3648781569e+00 -4.0960891215e+00 2.3648781569e+00 4.0960891215e+00 
27900 3.7292228130e+00 -1.1522670840e-02 2.3651243003e+00 -4.0965154544e+00 2.3651243003e+00 4.0965154544e+00 
28000 3.7292203771e+00 -1.1405151898e-02 2.3653679000e+00 -4.0969373814e+00 2.3653679000e+00 4.0969373814e+00 
28100 3.7292179940e+00 -1.1289162294e-02 2.3656089903e+00 -4.0973549620e+00 2.3656089903e+00 4.0973549620e+00 
28200 3.7292156624e+00 -1.1174641123e-02 2.3658476044e+00 -4.0977682537e+00 2.3658476044e+00 4.0977682537e+00 
28300 3.7292133812e+00 -1.1061529103e-02 2.3660837740e+00 -4.0981773115e+00 2.3660837740e+00 4.0981773115e+00 
28400 3.7292111490e+00 -1.0949768746e-02 2.3663175297e+00 -4.0985821883e+00 2.3663175297e+00 4.0985821883e+00 
28500 3.7292089648e+00 -1.0839304516e-02 2.3665489007e+00 -4.0989829347e+00 2.3665489007e+00 4.0989829347e+00 
28600 3.7292068275e+00 -1.0730082969e-02 2.3667779152e+00 -4.0993795994e+00 2.3667779152e+00 4.0993795994e+00 
28700 3.7292047360e+00 -1.0622052870e-02 2.3670046001e+00 -4.0997722291e+00 2.3670046001e+00 4.0997722291e+00 
28800 3.7292026893e+00 -1.0515165296e-02 2.3672289811e+00 -4.1001608685e+00 2.3672289811e+00 4.1001608685e+00 
28900 3.7292006863e+00 -1.0409373723e-02 2.3674510832e+00 -4.1005455606e+00 2.3674510832e+00 4.1005455606e+00 
29000 3.7291987262e+00 -1.0304634091e-02 2.3676709301e+00 -4.1009263466e+00 2.3676709301e+00 4.1009263466e+00 
29100 3.7291968080e+00 -1.0200904853e-02 2.3678885446e+00 -4.1013032660e+00 2.3678885446e+00 4.1013032660e+00 
29200 3.7291949308e+00 -1.0098147014e-02 2.3681039488e+00 -4.1016763569e+00 2.3681039488e+00 4.1016763569e+00 
29300 3.7291930938e+00 -9.9963241476e-03 2.3683171636e+00 -4.1020456558e+00 2.3683171636e+00 4.1020456558e+00 
29400 3.7291912961e+00 -9.8954024012e-03 2.3685282095e+00 -4.1024111980e+00 2.3685282095e+00 4.1024111980e+00 
29500 3.7291895368e+00 -9.7953504873e-03 2.3687371061e+00 -4.1027730175e+00 2.3687371061e+00 4.1027730175e+00 
29600 3.7291878154e+00 -9.6961396614e-03 2.3689438722e+00 -4.1031311470e+00 2.3689438722e+00 4.1031311470e+00 
29700 3.7291861308e+00 -9.5977436866e-03 2.3691485263e+00 -4.1034856182e+00 2.3691485263e+00 4.1034856182e+00 
29800 3.7291844824e+00 -9.5001387887e-03 2.3693510860e+00 -4.1038364619e+00 2.3693510860e+00 4.1038364619e+00 
29900 3.7291828695e+00 -9.4033035986e-03 2.3695515686e+00 -4.1041837079e+00 2.3695515686e+00 4.1041837079e+00 
30000 3.7291812914e+00 -9.3072190867e-03 2.3697499908e+00 -4.1045273853e+00 2.3697499908e+00 4.1045273853e+00 
30100 3.7291797472e+00 -9.2118684874e-03 2.3699463691e+00 -4.1048675225e+00 2.3699463691e+00 4.1048675225e+00 
30200 3.7291782364e+00 -9.1172372159e-03 2.3701407193e+00 -4.1052041470e+00 2.3701407193e+00 4.1052041470e+00 
30300 3.7291767582e+00 -9.0233127781e-03 2.3703330573e+00 -4.1055372861e+00 2.3703330573e+00 4.1055372861e+00 
30400 3.7291753120e+00 -8.9300846740e-03 2.3705233984e+00 -4.1058669665e+00 2.3705233984e+00 4.1058669665e+00 
30500 3.7291738972e+00 -8.8375442961e-03 2.3707117577e+00 -4.1061932144e+00 2.3707117577e+00 4.1061932144e+00 
30600 3.7291725130e+00 -8.7456848227e-03 2.3708981502e+00 -4.1065160557e+00 2.3708981502e+00 4.1065160557e+00 
30700 3.7291711588e+00 -8.6545011081e-03 2.3710825908e+00 -4.1068355162e+00 2.3710825908e+00 4.1068355162e+00 
30800 3.7291698341e+00 -8.5639895694e-03 2.3712650942e+00 -4.1071516214e+00 2.3712650942e+00 4.1071516214e+00 
30900 3.7291685381e+00 -8.4741480717e-03 2.3714456750e+00 -4.1074643965e+00 2.3714456750e+00 4.1074643965e+00 
31000 3.7291672703e+00 -8.3849758117e-03 2.3716243477e+00 -4.1077738668e+00 2.3716243477e+00 4.1077738668e+00 
31100 3.7291660300e+00 -8.2964732002e-03 2.3718011270e+00 -4.1080800574e+00 2.3718011270e+00 4.1080800574e+00 
31200 3.7291648167e+00 -8.2086417452e-03 2.3719760273e+00 -4.1083829937e+00 2.3719760273e+00 4.1083829937e+00 
31300 3.7291636298e+00 -8.1214839356e-03 2.3721490632e+00 -4.1086827007e+00 2.3721490632e+00 4.1086827007e+00 
31400 3.7291624687e+00 -8.0350031257e-03 2.3723202494e+00 -4.1089792038e+00 2.3723202494e+00 4.1089792038e+00 
31500 3.7291613329e+00 -7.9492034222e-03 2.3724896005e+00 -4.1092725284e+00 2.3724896005e+00 4.1092725284e+00 
31600 3.7291602217e+00 -7.8640895728e-03 2.3726571312e+00 -4.1095627001e+00 2.3726571312e+00 4.1095627001e+00 
31700 3.7291591347e+00 -7.7796668585e-03 2.3728228564e+00 -4.1098497446e+00 2.3728228564e+00 4.1098497446e+00 
31800 3.7291580714e+00 -7.6959409881e-03 2.3729867910e+00 -4.1101336877e+00 2.3729867910e+00 4.1101336877e+00 
31900 3.7291570311e+00 -7.6129179977e-03 2.3731489501e+00 -4.1104145555e+00 2.3731489501e+00 4.1104145555e+00 
32000 3.7291560134e+00 -7.5306041529e-03 2.3733093489e+00 -4.1106923743e+00 2.3733093489e+00 4.1106923743e+00 
32100 3.7291550178e+00 -7.4490058563e-03 2.3734680026e+00 -4.1109671706e+00 2.3734680026e+00 4.1109671706e+00 
32200 3.7291540437e+00 -7.3681295594e-03 2.3736249267e+00 -4.1112389712e+00 2.3736249267e+00 4.1112389712e+00 
32300 3.7291530908e+00 -7.2879816792e-03 2.3737801368e+00 -4.1115078029e+00 2.3737801368e+00 4.1115078029e+00 
32400 3.7291521585e+00 -7.2085685201e-03 2.3739336485e+00 -4.1117736930e+00 2.3739336485e+00 4.1117736930e+00 
32500 3.7291512465e+00 -7.1298962005e-03 2.3740854776e+00 -4.1120366688e+00 2.3740854776e+00 4.1120366688e+00 
32600 3.7291503541e+00 -7.0519705859e-03 2.3742356401e+00 -4.1122967578e+00 2.3742356401e+00 4.1122967578e+00 
32700 3.7291494811e+00 -6.9747972262e-03 2.3743841520e+00 -4.1125539879e+00 2.3743841520e+00 4.1125539879e+00 
32800 3.7291486269e+00 -6.8983812990e-03 2.3745310294e+00 -4.1128083871e+00 2.3745310294e+00 4.1128083871e+00 
32900 3.7291477912e+00 -6.8227275588e-03 2.3746762887e+00 -4.1130599835e+00 2.3746762887e+00 4.1130599835e+00 
33000 3.7291469736e+00 -6.7478402909e-03 2.3748199461e+00 -4.1133088054e+00 2.3748199461e+00 4.1133088054e+00 
33100 3.7291461736e+00 -6.6737232714e-03 2.3749620180e+00 -4.1135548813e+00 2.3749620180e+00 4.1135548813e+00 
33200 3.7291453910e+00 -6.6003797324e-03 2.3751025211e+00 -4.1137982398e+00 2.3751025211e+00 4.1137982398e+00 
33300 3.7291446252e+00 -6.5278123321e-03 2.3752414718e+00 -4.1140389095e+00 2.3752414718e+00 4.1140389095e+00 
33400 3.7291438760e+00 -6.4560231309e-03 2.3753788868e+00 -4.1142769192e+00 2.3753788868e+00 4.1142769192e+00 
33500 3.7291431430e+00 -6.3850135716e-03 2.3755147827e+00 -4.1145122978e+00 2.3755147827e+00 4.1145122978e+00 
33600 3.7291424258e+00 -6.3147844651e-03 2.3756491762e+00 -4.1147450741e+00 2.3756491762e+00 4.1147450741e+00 
33700 3.7291417241e+00 -6.2453359804e-03 2.3757820839e+00 -4.1149752771e+00 2.3757820839e+00 4.1149752771e+00 
33800 3.7291410376e+00 -6.1766676393e-03 2.3759135226e+00 -4.1152029356e+00 2.3759135226e+00 4.1152029356e+00 
33900 3.7291403659e+00 -6.1087783153e-03 2.3760435089e+00 -4.1154280784e+00 2.3760435089e+00 4.1154280784e+00 
34000 3.7291397087e+00 -6.0416662365e-03 2.3761720594e+00 -4.1156507345e+00 2.3761720594e+00 4.1156507345e+00 
34100 3.7291390658e+00 -5.9753289924e-03 2.3762991908e+00 -4.1158709325e+00 2.3762991908e+00 4.1158709325e+00 
34200 3.7291384367e+00 -5.9097635440e-03 2.3764249195e+00 -4.1160887010e+00 2.3764249195e+00 4.1160887010e+00 
34300 3.7291378213e+00 -5.8449662376e-03 2.3765492621e+00 -4.1163040687e+00 2.3765492621e+00 4.1163040687e+00 
34400 3.7291372192e+00 -5.7809328212e-03 2.3766722349e+00 -4.1165170637e+00 2.3766722349e+00 4.1165170637e+00 
34500 3.7291366302e+00 -5.7176584642e-03 2.3767938541e+00 -4.1167277145e+00 2.3767938541e+00 4.1167277145e+00 
34600 3.7291360539e+00 -5.6551377794e-03 2.3769141360e+00 -4.1169360489e+00 2.3769141360e+00 4.1169360489e+00 
34700 3.7291354901e+00 -5.5933648470e-03 2.3770330967e+00 -4.1171420948e+00 2.3770330967e+00 4.1171420948e+00 
34800 3.7291349385e+00 -5.5323332409e-03 2.3771507520e+00 -4.1173458797e+00 2.3771507520e+00 4.1173458797e+00 
34900 3.7291343989e+00 -5.4720360570e-03 2.3772671177e+00 -4.1175474311e+00 2.3772671177e+00 4.1175474311e+00 
35000 3.7291338709e+00 -5.4124659426e-03 2.3773822096e+00 -4.1177467760e+00 2.3773822096e+00 4.1177467760e+00 
35100 3.7291333545e+00 -5.3536151268e-03 2.3774960430e+00 -4.1179439412e+00 2.3774960430e+00 4.1179439412e+00 
35200 3.7291328492e+00 -5.2954754530e-03 2.3776086332e+00 -4.1181389532e+00 2.3776086332e+00 4.1181389532e+00 
35300 3.7291323549e+00 -5.2380384109e-03 2.3777199954e+00 -4.1183318383e+00 2.3777199954e+00 4.1183318383e+00 
35400 3.7291318713e+00 -5.1812951700e-03 2.3778301446e+00 -4.1185226223e+00 2.3778301446e+00 4.1185226223e+00 
35500 3.7291313982e+00 -5.1252366128e-03 2.3779390955e+00 -4.1187113308e+00 2.3779390955e+00 4.1187113308e+00 
35600 3.7291309354e+00 -5.0698533687e-03 2.3780468627e+00 -4.1188979890e+00 2.3780468627e+00 4.1188979890e+00 
35700 3.7291304827e+00 -5.0151358472e-03 2.3781534605e+00 -4.1190826218e+00 2.3781534605e+00 4.1190826218e+00 
35800 3.7291300397e+00 -4.9610742715e-03 2.3782589031e+00 -4.1192652537e+00 2.3782589031e+00 4.1192652537e+00 
35900 3.7291296064e+00 -4.9076587114e-03 2.3783632044e+00 -4.1194459089e+00 2.3783632044e+00 4.1194459089e+00 
36000 3.7291291825e+00 -4.8548791150e-03 2.3784663782e+00 -4.1196246111e+00 2.3784663782e+00 4.1196246111e+00 
36100 3.7291287678e+00 -4.8027253412e-03 2.3785684379e+00 -4.1198013838e+00 2.3785684379e+00 4.1198013838e+00 
36200 3.7291283620e+00 -4.7511871895e-03 2.3786693970e+00 -4.1199762500e+00 2.3786693970e+00 4.1199762500e+00 
36300 3.7291279651e+00 -4.7002544301e-03 2.3787692684e+00 -4.1201492323e+00 2.3787692684e+00 4.1201492323e+00 
36400 3.7291275768e+00 -4.6499168324e-03 2.3788680650e+00 -4.1203203530e+00 2.3788680650e+00 4.1203203530e+00 
36500 3.7291271969e+00 -4.6001641919e-03 2.3789657995e+00 -4.1204896341e+00 2.3789657995e+00 4.1204896341e+00 
36600 3.7291268253e+00 -4.5509863571e-03 2.3790624842e+00 -4.1206570971e+00 2.3790624842e+00 4.1206570971e+00 
36700 3.7291264617e+00 -4.5023732533e-03 2.3791581315e+00 -4.1208227630e+00 2.3791581315e+00 4.1208227630e+00 
36800 3.7291261060e+00 -4.4543149059e-03 2.3792527533e+00 -4.1209866527e+00 2.3792527533e+00 4.1209866527e+00 
36900 3.7291257580e+00 -4.4068014624e-03 2.3793463613e+00 -4.1211487866e+00 2.3793463613e+00 4.1211487866e+00 
37000 3.7291254175e+00 -4.3598232124e-03 2.3794389672e+00 -4.1213091847e+00 2.3794389672e+00 4.1213091847e+00 
37100 3.7291250845e+00 -4.3133706059e-03 2.3795305823e+00 -4.1214678667e+00 2.3795305823e+00 4.1214678667e+00 
37200 3.7291247586e+00 -4.2674342705e-03 2.3796212178e+00 -4.1216248520e+00 2.3796212178e+00 4.1216248520e+00 
37300 3.7291244398e+00 -4.2220050266e-03 2.3797108846e+00 -4.1217801595e+00 2.3797108846e+00 4.1217801595e+00 
37400 3.7291241279e+00 -4.1770739010e-03 2.3797995935e+00 -4.1219338078e+00 2.3797995935e+00 4.1219338078e+00 
37500 3.7291238228e+00 -4.1326321391e-03 2.3798873551e+00 -4.1220858153e+00 2.3798873551e+00 4.1220858153e+00 
37600 3.7291235242e+00 -4.0886712157e-03 2.3799741798e+00 -4.1222362000e+00 2.3799741798e+00 4.1222362000e+00 
37700 3.7291232322e+00 -4.0451828433e-03 2.3800600777e+00 -4.1223849796e+00 2.3800600777e+00 4.1223849796e+00 
37800 3.7291229464e+00 -4.0021589802e-03 2.3801450588e+00 -4.1225321713e+00 2.3801450588e+00 4.1225321713e+00 
37900 3.7291226669e+00 -3.9595918357e-03 2.3802291332e+00 -4.1226777923e+00 2.3802291332e+00 4.1226777923e+00 
38000 3.7291223934e+00 -3.9174738752e-03 2.3803123104e+00 -4.1228218594e+00 2.3803123104e+00 4.1228218594e+00 
38100 3.7291221258e+00 -3.8757978228e-03 2.3803945999e+00 -4.1229643891e+00 2.3803945999e+00 4.1229643891e+00 
38200 3.7291218640e+00 -3.8345566633e-03 2.3804760112e+00 -4.1231053976e+00 2.3804760112e+00 4.1231053976e+00 
38300 3.7291216079e+00 -3.7937436426e-03 2.3805565535e+00 -4.1232449009e+00 2.3805565535e+00 4.1232449009e+00 
38400 3.7291213574e+00 -3.7533522665e-03 2.3806362358e+00 -4.1233829147e+00 2.3806362358e+00 4.1233829147e+00 
38500 3.7291211122e+00 -3.7133762993e-03 2.3807150671e+00 -4.1235194545e+00 2.3807150671e+00 4.1235194545e+00 
38600 3.7291208724e+00 -3.6738097604e-03 2.3807930562e+00 -4.1236545356e+00 2.3807930562e+00 4.1236545356e+00 
38700 3.7291206378e+00 -3.6346469204e-03 2.3808702118e+00 -4.1237881730e+00 2.3808702118e+00 4.1237881730e+00 
38800 3.7291204082e+00 -3.5958822961e-03 2.3809465424e+00 -4.1239203815e+00 2.3809465424e+00 4.1239203815e+00 
38900 3.7291201836e+00 -3.5575106446e-03 2.3810220565e+00 -4.1240511758e+00 2.3810220565e+00 4.1240511758e+00 
39000 3.7291199639e+00 -3.5195269567e-03 2.3810967624e+00 -4.1241805703e+00 2.3810967624e+00 4.1241805703e+00 
39100 3.7291197490e+00 -3.4819264496e-03 2.3811706684e+00 -4.1243085791e+00 2.3811706684e+00 4.1243085791e+00 
39200 3.7291195387e+00 -3.4447045588e-03 2.3812437825e+00 -4.1244352165e+00 2.3812437825e+00 4.1244352165e+00 
39300 3.7291193330e+00 -3.4078569297e-03 2.3813161128e+00 -4.1245604963e+00 2.3813161128e+00 4.1245604963e+00 
39400 3.7291191317e+00 -3.3713794084e-03 2.3813876673e+00 -4.1246844322e+00 2.3813876673e+00 4.1246844322e+00 
39500 3.7291189348e+00 -3.3352680327e-03 2.3814584536e+00 -4.1248070378e+00 2.3814584536e+00 4.1248070378e+00 
39600 3.7291187421e+00 -3.2995190219e-03 2.3815284797e+00 -4.1249283265e+00 2.3815284797e+00 4.1249283265e+00 
39700 3.7291185536e+00 -3.2641287669e-03 2.3815977532e+00 -4.1250483117e+00 2.3815977532e+00 4.1250483117e+00 
39800 3.7291183693e+00 -3.2290938201e-03 2.3816662816e+00 -4.1251670065e+00 2.3816662816e+00 4.1251670065e+00 
39900 3.7291181889e+00 -3.1944108851e-03 2.3817340726e+00 -4.1252844239e+00 2.3817340726e+00 4.1252844239e+00 
40000 3.7291180124e+00 -3.1600768059e-03 2.3818011335e+00 -4.1254005768e+00 2.3818011335e+00 4.1254005768e+00 
40100 3.7291178397e+00 -3.1260885569e-03 2.3818674718e+00 -4.1255154781e+00 2.3818674718e+00 4.1255154781e+00 
40200 3.7291176708e+00 -3.0924432325e-03 2.3819330948e+00 -4.1256291403e+00 2.3819330948e+00 4.1256291403e+00 
40300 3.7291175056e+00 -3.0591380363e-03 2.3819980096e+00 -4.1257415762e+00 2.3819980096e+00 4.1257415762e+00 
40400 3.7291173439e+00 -3.0261702719e-03 2.3820622236e+00 -4.1258527981e+00 2.3820622236e+00 4.1258527981e+00 
40500 3.7291171857e+00 -2.9935373318e-03 2.3821257439e+00 -4.1259628184e+00 2.3821257439e+00 4.1259628184e+00 
40600 3.7291170310e+00 -2.9612366887e-03 2.3821885774e+00 -4.1260716494e+00 2.3821885774e+00 4.1260716494e+00 
40700 3.7291168796e+00 -2.9292658857e-03 2.3822507314e+00 -4.1261793032e+00 2.3822507314e+00 4.1261793032e+00 
40800 3.7291167315e+00 -2.8976225270e-03 2.3823122127e+00 -4.1262857920e+00 2.3823122127e+00 4.1262857920e+00 
40900 3.7291165867e+00 -2.8663042694e-03 2.3823730283e+00 -4.1263911277e+00 2.3823730283e+00 4.1263911277e+00 
41000 3.7291164449e+00 -2.8353088140e-03 2.3824331851e+00 -4.1264953222e+00 2.3824331851e+00 4.1264953222e+00 
41100 3.7291163063e+00 -2.8046338978e-03 2.3824926898e+00 -4.1265983874e+00 2.3824926898e+00 4.1265983874e+00 
41200 3.7291161706e+00 -2.7742772866e-03 2.3825515493e+00 -4.1267003350e+00 2.3825515493e+00 4.1267003350e+00 
41300 3.7291160379e+00 -2.7442367675e-03 2.3826097702e+00 -4.1268011767e+00 2.3826097702e+00 4.1268011767e+00 
41400 3.7291159080e+00 -2.7145101426e-03 2.3826673594e+00 -4.1269009240e+00 2.3826673594e+00 4.1269009240e+00 
41500 3.7291157810e+00 -2.6850952223e-03 2.3827243233e+00 -4.1269995883e+00 2.3827243233e+00 4.1269995883e+00 
41600 3.7291156568e+00 -2.6559898200e-03 2.3827806686e+00 -4.1270971812e+00 2.3827806686e+00 4.1270971812e+00 
41700 3.7291155352e+00 -2.6271917466e-03 2.3828364018e+00 -4.1271937140e+00 2.3828364018e+00 4.1271937140e+00 
41800 3.7291154162e+00 -2.5986988057e-03 2.3828915294e+00 -4.1272891978e+00 2.3828915294e+00 4.1272891978e+00 
41900 3.7291152999e+00 -2.5705087895e-03 2.3829460579e+00 -4.1273836439e+00 2.3829460579e+00 4.1273836439e+00 
42000 3.7291151861e+00 -2.5426194746e-03 2.3829999936e+00 -4.1274770633e+00 2.3829999936e+00 4.1274770633e+00 
42100 3.7291150747e+00 -2.5150286189e-03 2.3830533429e+00 -4.1275694671e+00 2.3830533429e+00 4.1275694671e+00 
42200 3.7291149657e+00 -2.4877339587e-03 2.3831061121e+00 -4.1276608661e+00 2.3831061121e+00 4.1276608661e+00 
42300 3.7291148592e+00 -2.4607332062e-03 2.3831583075e+00 -4.1277512711e+00 2.3831583075e+00 4.1277512711e+00 
42400 3.7291147549e+00 -2.4340240472e-03 2.3832099353e+00 -4.1278406930e+00 2.3832099353e+00 4.1278406930e+00 
42500 3.7291146529e+00 -2.4076041399e-03 2.3832610016e+00 -4.1279291424e+00 2.3832610016e+00 4.1279291424e+00 
42600 3.7291145531e+00 -2.3814711134e-03 2.3833115124e+00 -4.1280166298e+00 2.3833115124e+00 4.1280166298e+00 
42700 3.7291144554e+00 -2.3556225673e-03 2.3833614740e+00 -4.1281031658e+00 2.3833614740e+00 4.1281031658e+00 
42800 3.7291143599e+00 -2.3300560707e-03 2.3834108922e+00 -4.1281887607e+00 2.3834108922e+00 4.1281887607e+00 
42900 3.7291142665e+00 -2.3047691625e-03 2.3834597731e+00 -4.1282734248e+00 2.3834597731e+00 4.1282734248e+00 
43000 3.7291141751e+00 -2.2797593517e-03 2.3835081225e+00 -4.1283571685e+00 2.3835081225e+00 4.1283571685e+00 
43100 3.7291140856e+00 -2.2550241177e-03 2.3835559463e+00 -4.1284400017e+00 2.3835559463e+00 4.1284400017e+00 
43200 3.7291139981e+00 -2.2305609115e-03 2.3836032502e+00 -4.1285219345e+00 2.3836032502e+00 4.1285219345e+00 
43300 3.7291139126e+00 -2.2063671564e-03 2.3836500401e+00 -4.1286029769e+00 2.3836500401e+00 4.1286029769e+00 
43400 3.7291138288e+00 -2.1824402499e-03 2.3836963215e+00 -4.1286831386e+00 2.3836963215e+00 4.1286831386e+00 
43500 3.7291137469e+00 -2.1587775648e-03 2.3837421001e+00 -4.1287624296e+00 2.3837421001e+00 4.1287624296e+00 
43600 3.7291136668e+00 -2.1353764512e-03 2.3837873815e+00 -4.1288408593e+00 2.3837873815e+00 4.1288408593e+00 
43700 3.7291135884e+00 -2.1122342388e-03 2.3838321713e+00 -4.1289184373e+00 2.3838321713e+00 4.1289184373e+00 
43800 3.7291135117e+00 -2.0893482385e-03 2.3838764747e+00 -4.1289951732e+00 2.3838764747e+00 4.1289951732e+00 
43900 3.7291134366e+00 -2.0667157449e-03 2.3839202974e+00 -4.1290710762e+00 2.3839202974e+00 4.1290710762e+00 
44000 3.7291133632e+00 -2.0443340389e-03 2.3839636445e+00 -4.1291461556e+00 2.3839636445e+00 4.1291461556e+00 
44100 3.7291132914e+00 -2.0222003898e-03 2.3840065214e+00 -4.1292204206e+00 2.3840065214e+00 4.1292204206e+00 
44200 3.7291132212e+00 -2.0003120582e-03 2.3840489333e+00 -4.1292938803e+00 2.3840489333e+00 4.1292938803e+00 
44300 3.7291131524e+00 -1.9786662984e-03 2.3840908854e+00 -4.1293665434e+00 2.3840908854e+00 4.1293665434e+00 
44400 3.7291130852e+00 -1.9572603611e-03 2.3841323829e+00 -4.1294384191e+00 2.3841323829e+00 4.1294384191e+00 
44500 3.7291130194e+00 -1.9360914960e-03 2.3841734306e+00 -4.1295095159e+00 2.3841734306e+00 4.1295095159e+00 
44600 3.7291129551e+00 -1.9151569547e-03 2.3842140337e+00 -4.1295798425e+00 2.3842140337e+00 4.1295798425e+00 
44700 3.7291128921e+00 -1.8944539928e-03 2.3842541971e+00 -4.1296494076e+00 2.3842541971e+00 4.1296494076e+00 
44800 3.7291128306e+00 -1.8739798733e-03 2.3842939257e+00 -4.1297182194e+00 2.3842939257e+00 4.1297182194e+00 
44900 3.7291127703e+00 -1.8537318683e-03 2.3843332242e+00 -4.1297862865e+00 2.3843332242e+00 4.1297862865e+00 
45000 3.7291127114e+00 -1.8337072623e-03 2.3843720975e+00 -4.1298536170e+00 2.3843720975e+00 4.1298536170e+00 
45100 3.7291126537e+00 -1.8139033539e-03 2.3844105502e+00 -4.1299202191e+00 2.3844105502e+00 4.1299202191e+00 
45200 3.7291125973e+00 -1.7943174588e-03 2.3844485870e+00 -4.1299861008e+00 2.3844485870e+00 4.1299861008e+00 
45300 3.7291125421e+00 -1.7749469117e-03 2.3844862125e+00 -4.1300512701e+00 2.3844862125e+00 4.1300512701e+00 
45400 3.7291124882e+00 -1.7557890682e-03 2.3845234313e+00 -4.1301157348e+00 2.3845234313e+00 4.1301157348e+00 
45500 3.7291124354e+00 -1.7368413076e-03 2.3845602477e+00 -4.1301795028e+00 2.3845602477e+00 4.1301795028e+00 
45600 3.7291123837e+00 -1.7181010340e-03 2.3845966663e+00 -4.1302425816e+00 2.3845966663e+00 4.1302425816e+00 
45700 3.7291123332e+00 -1.6995656787e-03 2.3846326914e+00 -4.1303049789e+00 2.3846326914e+00 4.1303049789e+00 
45800 3.7291122837e+00 -1.6812327017e-03 2.3846683273e+00 -4.1303667020e+00 2.3846683273e+00 4.1303667020e+00 
45900 3.7291122353e+00 -1.6630995930e-03 2.3847035782e+00 -4.1304277585e+00 2.3847035782e+00 4.1304277585e+00 
46000 3.7291121880e+00 -1.6451638743e-03 2.3847384485e+00 -4.1304881555e+00 2.3847384485e+00 4.1304881555e+00 
46100 3.7291121417e+00 -1.6274231003e-03 2.3847729421e+00 -4.1305479003e+00 2.3847729421e+00 4.1305479003e+00 
46200 3.7291120965e+00 -1.6098748597e-03 2.3848070633e+00 -4.1306070000e+00 2.3848070633e+00 4.1306070000e+00 
46300 3.7291120522e+00 -1.5925167760e-03 2.3848408162e+00 -4.1306654615e+00 2.3848408162e+00 4.1306654615e+00 
46400 3.7291120088e+00 -1.5753465090e-03 2.3848742046e+00 -4.1307232920e+00 2.3848742046e+00 4.1307232920e+00 
46500 3.7291119664e+00 -1.5583617549e-03 2.3849072325e+00 -4.1307804980e+00 2.3849072325e+00 4.1307804980e+00 
46600 3.7291119249e+00 -1.5415602472e-03 2.3849399039e+00 -4.1308370866e+00 2.3849399039e+00 4.1308370866e+00 
46700 3.7291118844e+00 -1.5249397572e-03 2.3849722226e+00 -4.1308930642e+00 2.3849722226e+00 4.1308930642e+00 
46800 3.7291118447e+00 -1.5084980941e-03 2.3850041925e+00 -4.1309484376e+00 2.3850041925e+00 4.1309484376e+00 
46900 3.7291118058e+00 -1.4922331054e-03 2.3850358172e+00 -4.1310032132e+00 2.3850358172e+00 4.1310032132e+00 
47000 3.7291117679e+00 -1.4761426771e-03 2.3850671005e+00 -4.1310573975e+00 2.3850671005e+00 4.1310573975e+00 
47100 3.7291117307e+00 -1.4602247335e-03 2.3850980461e+00 -4.1311109968e+00 2.3850980461e+00 4.1311109968e+00 
47200 3.7291116943e+00 -1.4444772372e-03 2.3851286575e+00 -4.1311640175e+00 2.3851286575e+00 4.1311640175e+00 
47300 3.7291116588e+00 -1.4288981886e-03 2.3851589385e+00 -4.1312164656e+00 2.3851589385e+00 4.1312164656e+00 
47400 3.7291116240e+00 -1.4134856260e-03 2.3851888925e+00 -4.1312683475e+00 2.3851888925e+00 4.1312683475e+00 
47500 3.7291115900e+00 -1.3982376250e-03 2.3852185231e+00 -4.1313196691e+00 2.3852185231e+00 4.1313196691e+00 
47600 3.7291115567e+00 -1.3831522977e-03 2.3852478336e+00 -4.1313704364e+00 2.3852478336e+00 4.1313704364e+00 
47700 3.7291115241e+00 -1.3682277927e-03 2.3852768275e+00 -4.1314206554e+00 2.3852768275e+00 4.1314206554e+00 
47800 3.7291114922e+00 -1.3534622939e-03 2.3853055083e+00 -4.1314703319e+00 2.3853055083e+00 4.1314703319e+00 
47900 3.7291114611e+00 -1.3388540201e-03 2.3853338792e+00 -4.1315194718e+00 2.3853338792e+00 4.1315194718e+00 
48000 3.7291114306e+00 -1.3244012241e-03 2.3853619435e+00 -4.1315680806e+00 2.3853619435e+00 4.1315680806e+00 
48100 3.7291114007e+00 -1.3101021919e-03 2.3853897046e+00 -4.1316161642e+00 2.3853897046e+00 4.1316161642e+00 
48200 3.7291113715e+00 -1.2959552418e-03 2.3854171656e+00 -4.1316637281e+00 2.3854171656e+00 4.1316637281e+00 
48300 3.7291113430e+00 -1.2819587235e-03 2.3854443298e+00 -4.1317107778e+00 2.3854443298e+00 4.1317107778e+00 
48400 3.7291113151e+00 -1.2681110170e-03 2.3854712003e+00 -4.1317573189e+00 2.3854712003e+00 4.1317573189e+00 
48500 3.7291112878e+00 -1.2544105320e-03 2.3854977802e+00 -4.1318033567e+00 2.3854977802e+00 4.1318033567e+00 
48600 3.7291112610e+00 -1.2408557064e-03 2.3855240727e+00 -4.1318488966e+00 2.3855240727e+00 4.1318488966e+00 
48700 3.7291112349e+00 -1.2274450055e-03 2.3855500808e+00 -4.1318939439e+00 2.3855500808e+00 4.1318939439e+00 
48800 3.7291112093e+00 -1.2141769212e-03 2.3855758075e+00 -4.1319385039e+00 2.3855758075e+00 4.1319385039e+00 
48900 3.7291111843e+00 -1.2010499706e-03 2.3856012558e+00 -4.1319825817e+00 2.3856012558e+00 4.1319825817e+00 
49000 3.7291111598e+00 -1.1880626949e-03 2.3856264288e+00 -4.1320261825e+00 2.3856264288e+00 4.1320261825e+00 
49100 3.7291111359e+00 -1.1752136591e-03 2.3856513292e+00 -4.1320693114e+00 2.3856513292e+00 4.1320693114e+00 
49200 3.7291111124e+00 -1.1625014498e-03 2.3856759602e+00 -4.1321119734e+00 2.3856759602e+00 4.1321119734e+00 
49300 3.7291110895e+00 -1.1499246754e-03 2.3857003244e+00 -4.1321541735e+00 2.3857003244e+00 4.1321541735e+00 
49400 3.7291110671e+00 -1.1374819641e-03 2.3857244248e+00 -4.1321959166e+00 2.3857244248e+00 4.1321959166e+00 
49500 3.7291110452e+00 -1.1251719637e-03 2.3857482642e+00 -4.1322372076e+00 2.3857482642e+00 4.1322372076e+00 
49600 3.7291110237e+00 -1.1129933402e-03 2.3857718453e+00 -4.1322780514e+00 2.3857718453e+00 4.1322780514e+00 
49700 3.7291110028e+00 -1.1009447769e-03 2.3857951710e+00 -4.1323184526e+00 2.3857951710e+00 4.1323184526e+00 
49800 3.7291109822e+00 -1.0890249739e-03 2.3858182440e+00 -4.1323584162e+00 2.3858182440e+00 4.1323584162e+00 
49900 3.7291109621e+00 -1.0772326468e-03 2.3858410669e+00 -4.1323979466e+00 2.3858410669e+00 4.1323979466e+00 
50000 3.7291109425e+00 -1.0655665260e-03 2.3858636424e+00 -4.1324370486e+00 2.3858636424e+00 4.1324370486e+00 
50100 3.7291109233e+00 -1.0540253562e-03 2.3858859733e+00 -4.1324757268e+00 2.3858859733e+00 4.1324757268e+00 
50200 3.7291109045e+00 -1.0426078951e-03 2.3859080621e+00 -4.1325139858e+00 2.3859080621e+00 4.1325139858e+00 
50300 3.7291108861e+00 -1.0313129134e-03 2.3859299114e+00 -4.1325518299e+00 2.3859299114e+00 4.1325518299e+00 
50400 3.7291108681e+00 -1.0201391936e-03 2.3859515239e+00 -4.1325892637e+00 2.3859515239e+00 4.1325892637e+00 
50500 3.7291108505e+00 -1.0090855295e-03 2.3859729019e+00 -4.1326262916e+00 2.3859729019e+00 4.1326262916e+00 
50600 3.7291108333e+00 -9.9815072584e-04 2.3859940482e+00 -4.1326629180e+00 2.3859940482e+00 4.1326629180e+00 
50700 3.7291108165e+00 -9.8733359746e-04 2.3860149651e+00 -4.1326991471e+00 2.3860149651e+00 4.1326991471e+00 
50800 3.7291108000e+00 -9.7663296906e-04 2.3860356551e+00 -4.1327349833e+00 2.3860356551e+00 4.1327349833e+00 
50900 3.7291107839e+00 -9.6604767459e-04 2.3860561207e+00 -4.1327704308e+00 2.3860561207e+00 4.1327704308e+00 
51000 3.7291107681e+00 -9.5557655694e-04 2.3860763644e+00 -4.1328054938e+00 2.3860763644e+00 4.1328054938e+00 
51100 3.7291107527e+00 -9.4521846752e-04 2.3860963884e+00 -4.1328401765e+00 2.3860963884e+00 4.1328401765e+00 
51200 3.7291107376e+00 -9.3497226592e-04 2.3861161952e+00 -4.1328744829e+00 2.3861161952e+00 4.1328744829e+00 
51300 3.7291107228e+00 -9.2483681969e-04 2.3861357872e+00 -4.1329084172e+00 2.3861357872e+00 4.1329084172e+00 
51400 3.7291107084e+00 -9.1481100402e-04 2.3861551666e+00 -4.1329419833e+00 2.3861551666e+00 4.1329419833e+00 
51500 3.7291106943e+00 -9.0489370156e-04 2.3861743358e+00 -4.1329751853e+00 2.3861743358e+00 4.1329751853e+00 
51600 3.7291106805e+00 -8.9508380223e-04 2.3861932970e+00 -4.1330080270e+00 2.3861932970e+00 4.1330080270e+00 
51700 3.7291106670e+00 -8.8538020308e-04 2.3862120525e+00 -4.1330405125e+00 2.3862120525e+00 4.1330405125e+00 
51800 3.7291106537e+00 -8.7578180817e-04 2.3862306045e+00 -4.1330726456e+00 2.3862306045e+00 4.1330726456e+00 
51900 3.7291106408e+00 -8.6628752850e-04 2.3862489553e+00 -4.1331044300e+00 2.3862489553e+00 4.1331044300e+00 
52000 3.7291106282e+00 -8.5689628193e-04 2.3862671069e+00 -4.1331358697e+00 2.3862671069e+00 4.1331358697e+00 
52100 3.7291106158e+00 -8.4760699317e-04 2.3862850617e+00 -4.1331669682e+00 2.3862850617e+00 4.1331669682e+00 
52200 3.7291106037e+00 -8.3841859377e-04 2.3863028217e+00 -4.1331977294e+00 2.3863028217e+00 4.1331977294e+00 
52300 3.7291105918e+00 -8.2933002213e-04 2.3863203890e+00 -4.1332281570e+00 2.3863203890e+00 4.1332281570e+00 
52400 3.7291105803e+00 -8.2034022354e-04 2.3863377658e+00 -4.1332582544e+00 2.3863377658e+00 4.1332582544e+00 
52500 3.7291105689e+00 -8.1144815024e-04 2.3863549541e+00 -4.1332880254e+00 2.3863549541e+00 4.1332880254e+00 
52600 3.7291105578e+00 -8.0265276150e-04 2.3863719560e+00 -4.1333174735e+00 2.3863719560e+00 4.1333174735e+00 
52700 3.7291105470e+00 -7.9395302369e-04 2.3863887734e+00 -4.1333466021e+00 2.3863887734e+00 4.1333466021e+00 
52800 3.7291105364e+00 -7.8534791039e-04 2.3864054085e+00 -4.1333754149e+00 2.3864054085e+00 4.1333754149e+00 
52900 3.7291105260e+00 -7.7683640251e-04 2.3864218631e+00 -4.1334039152e+00 2.3864218631e+00 4.1334039152e+00 
53000 3.7291105159e+00 -7.6841748839e-04 2.3864381393e+00 -4.1334321064e+00 2.3864381393e+00 4.1334321064e+00 
53100 3.7291105059e+00 -7.6009016394e-04 2.3864542390e+00 -4.1334599918e+00 2.3864542390e+00 4.1334599918e+00 
53200 3.7291104962e+00 -7.5185343278e-04 2.3864701641e+00 -4.1334875749e+00 2.3864701641e+00 4.1334875749e+00 
53300 3.7291104867e+00 -7.4370630638e-04 2.3864859165e+00 -4.1335148590e+00 2.3864859165e+00 4.1335148590e+00 
53400 3.7291104774e+00 -7.3564780416e-04 2.3865014982e+00 -4.1335418472e+00 2.3865014982e+00 4.1335418472e+00 
53500 3.7291104684e+00 -7.2767695370e-04 2.3865169109e+00 -4.1335685427e+00 2.3865169109e+00 4.1335685427e+00 
53600 3.7291104595e+00 -7.1979279081e-04 2.3865321565e+00 -4.1335949489e+00 2.3865321565e+00 4.1335949489e+00 
53700 3.7291104508e+00 -7.1199435973e-04 2.3865472368e+00 -4.1336210688e+00 2.3865472368e+00 4.1336210688e+00 
53800 3.7291104423e+00 -7.0428071321e-04 2.3865621536e+00 -4.1336469055e+00 2.3865621536e+00 4.1336469055e+00 
53900 3.7291104339e+00 -6.9665091271e-04 2.3865769088e+00 -4.1336724622e+00 2.3865769088e+00 4.1336724622e+00 
54000 3.7291104258e+00 -6.8910402844e-04 2.3865915040e+00 -4.1336977418e+00 2.3865915040e+00 4.1336977418e+00 
54100 3.7291104178e+00 -6.8163913957e-04 2.3866059410e+00 -4.1337227474e+00 2.3866059410e+00 4.1337227474e+00 
54200 3.7291104101e+00 -6.7425533429e-04 2.3866202215e+00 -4.1337474820e+00 2.3866202215e+00 4.1337474820e+00 
54300 3.7291104024e+00 -6.6695170993e-04 2.3866343473e+00 -4.1337719485e+00 2.3866343473e+00 4.1337719485e+00 
54400 3.7291103950e+00 -6.5972737304e-04 2.3866483199e+00 -4.1337961499e+00 2.3866483199e+00 4.1337961499e+00 
54500 3.7291103877e+00 -6.5258143951e-04 2.3866621411e+00 -4.1338200890e+00 2.3866621411e+00 4.1338200890e+00 
54600 3.7291103806e+00 -6.4551303465e-04 2.3866758126e+00 -4.1338437686e+00 2.3866758126e+00 4.1338437686e+00 
54700 3.7291103736e+00 -6.3852129321e-04 2.3866893359e+00 -4.1338671916e+00 2.3866893359e+00 4.1338671916e+00 
54800 3.7291103668e+00 -6.3160535950e-04 2.3867027126e+00 -4.1338903608e+00 2.3867027126e+00 4.1338903608e+00 
54900 3.7291103601e+00 -6.2476438741e-04 2.3867159444e+00 -4.1339132789e+00 2.3867159444e+00 4.1339132789e+00 
55000 3.7291103536e+00 -6.1799754042e-04 2.3867290327e+00 -4.1339359486e+00 2.3867290327e+00 4.1339359486e+00 
55100 3.7291103472e+00 -6.1130399168e-04 2.3867419793e+00 -4.1339583727e+00 2.3867419793e+00 4.1339583727e+00 
55200 3.7291103409e+00 -6.0468292400e-04 2.3867547855e+00 -4.1339805538e+00 2.3867547855e+00 4.1339805538e+00 
55300 3.7291103348e+00 -5.9813352984e-04 2.3867674530e+00 -4.1340024945e+00 2.3867674530e+00 4.1340024945e+00 
55400 3.7291103288e+00 -5.9165501133e-04 2.3867799832e+00 -4.1340241974e+00 2.3867799832e+00 4.1340241974e+00 
55500 3.7291103230e+00 -5.8524658024e-04 2.3867923777e+00 -4.1340456652e+00 2.3867923777e+00 4.1340456652e+00 
55600 3.7291103173e+00 -5.7890745793e-04 2.3868046378e+00 -4.1340669004e+00 2.3868046378e+00 4.1340669004e+00 
55700 3.7291103117e+00 -5.7263687538e-04 2.3868167650e+00 -4.1340879054e+00 2.3868167650e+00 4.1340879054e+00 
55800 3.7291103062e+00 -5.6643407305e-04 2.3868287609e+00 -4.1341086828e+00 2.3868287609e+00 4.1341086828e+00 
55900 3.7291103008e+00 -5.6029830092e-04 2.3868406267e+00 -4.1341292350e+00 2.3868406267e+00 4.1341292350e+00 
56000 3.7291102956e+00 -5.5422881833e-04 2.3868523640e+00 -4.1341495646e+00 2.3868523640e+00 4.1341495646e+00 
56100 3.7291102905e+00 -5.4822489399e-04 2.3868639740e+00 -4.1341696737e+00 2.3868639740e+00 4.1341696737e+00 
56200 3.7291102855e+00 -5.4228580583e-04 2.3868754582e+00 -4.1341895650e+00 2.3868754582e+00 4.1341895650e+00 
56300 3.7291102806e+00 -5.3641084094e-04 2.3868868180e+00 -4.1342092407e+00 2.3868868180e+00 4.1342092407e+00 
56400 3.7291102758e+00 -5.3059929549e-04 2.3868980546e+00 -4.1342287031e+00 2.3868980546e+00 4.1342287031e+00 
56500 3.7291102711e+00 -5.2485047457e-04 2.3869091694e+00 -4.1342479545e+00 2.3869091694e+00 4.1342479545e+00 
56600 3.7291102665e+00 -5.1916369214e-04 2.3869201638e+00 -4.1342669973e+00 2.3869201638e+00 4.1342669973e+00 
56700 3.7291102620e+00 -5.1353827087e-04 2.3869310390e+00 -4.1342858337e+00 2.3869310390e+00 4.1342858337e+00 
56800 3.7291102576e+00 -5.0797354204e-04 2.3869417963e+00 -4.1343044659e+00 2.3869417963e+00 4.1343044659e+00 
56900 3.7291102533e+00 -5.0246884541e-04 2.3869524370e+00 -4.1343228961e+00 2.3869524370e+00 4.1343228961e+00 
57000 3.7291102492e+00 -4.9702352908e-04 2.3869629623e+00 -4.1343411265e+00 2.3869629623e+00 4.1343411265e+00 
57100 3.7291102450e+00 -4.9163694937e-04 2.3869733735e+00 -4.1343591593e+00 2.3869733735e+00 4.1343591593e+00 
57200 3.7291102410e+00 -4.8630847067e-04 2.3869836719e+00 -4.1343769965e+00 2.3869836719e+00 4.1343769965e+00 
57300 3.7291102371e+00 -4.8103746532e-04 2.3869938586e+00 -4.1343946404e+00 2.3869938586e+00 4.1343946404e+00 
57400 3.7291102333e+00 -4.7582331343e-04 2.3870039348e+00 -4.1344120929e+00 2.3870039348e+00 4.1344120929e+00 
57500 3.7291102295e+00 -4.7066540279e-04 2.3870139017e+00 -4.1344293562e+00 2.3870139017e+00 4.1344293562e+00 
57600 3.7291102258e+00 -4.6556312870e-04 2.3870237606e+00 -4.1344464323e+00 2.3870237606e+00 4.1344464323e+00 
57700 3.7291102222e+00 -4.6051589380e-04 2.3870335126e+00 -4.1344633232e+00 2.3870335126e+00 4.1344633232e+00 
57800 3.7291102187e+00 -4.5552310798e-04 2.3870431588e+00 -4.1344800309e+00 2.3870431588e+00 4.1344800309e+00 
57900 3.7291102153e+00 -4.5058418821e-04 2.3870527004e+00 -4.1344965574e+00 2.3870527004e+00 4.1344965574e+00 
58000 3.7291102119e+00 -4.4569855840e-04 2.3870621385e+00 -4.1345129046e+00 2.3870621385e+00 4.1345129046e+00 
58100 3.7291102086e+00 -4.4086564924e-04 2.3870714742e+00 -4.1345290746e+00 2.3870714742e+00 4.1345290746e+00 
58200 3.7291102054e+00 -4.3608489810e-04 2.3870807086e+00 -4.1345450691e+00 2.3870807086e+00 4.1345450691e+00 
58300 3.7291102022e+00 -4.3135574887e-04 2.3870898429e+00 -4.1345608902e+00 2.3870898429e+00 4.1345608902e+00 
58400 3.7291101992e+00 -4.2667765181e-04 2.3870988781e+00 -4.1345765396e+00 2.3870988781e+00 4.1345765396e+00 
58500 3.7291101961e+00 -4.2205006348e-04 2.3871078153e+00 -4.1345920192e+00 2.3871078153e+00 4.1345920192e+00 
58600 3.7291101932e+00 -4.1747244652e-04 2.3871166555e+00 -4.1346073309e+00 2.3871166555e+00 4.1346073309e+00 
58700 3.7291101903e+00 -4.1294426961e-04 2.3871253998e+00 -4.1346224764e+00 2.3871253998e+00 4.1346224764e+00 
58800 3.7291101875e+00 -4.0846500728e-04 2.3871340492e+00 -4.1346374576e+00 2.3871340492e+00 4.1346374576e+00 
58900 3.7291101847e+00 -4.0403413985e-04 2.3871426047e+00 -4.1346522763e+00 2.3871426047e+00 4.1346522763e+00 
59000 3.7291101820e+00 -3.9965115327e-04 2.3871510674e+00 -4.1346669342e+00 2.3871510674e+00 4.1346669342e+00 
59100 3.7291101794e+00 -3.9531553902e-04 2.3871594383e+00 -4.1346814330e+00 2.3871594383e+00 4.1346814330e+00 
59200 3.7291101768e+00 -3.9102679403e-04 2.3871677184e+00 -4.1346957744e+00 2.3871677184e+00 4.1346957744e+00 
59300 3.7291101743e+00 -3.8678442054e-04 2.3871759086e+00 -4.1347099602e+00 2.3871759086e+00 4.1347099602e+00 
59400 3.7291101718e+00 -3.8258792600e-04 2.3871840099e+00 -4.1347239921e+00 2.3871840099e+00 4.1347239921e+00 
59500 3.7291101694e+00 -3.7843682303e-04 2.3871920232e+00 -4.1347378717e+00 2.3871920232e+00 4.1347378717e+00 
59600 3.7291101671e+00 -3.7433062925e-04 2.3871999496e+00 -4.1347516006e+00 2.3871999496e+00 4.1347516006e+00 
59700 3.7291101647e+00 -3.7026886724e-04 2.3872077900e+00 -4.1347651805e+00 2.3872077900e+00 4.1347651805e+00 
59800 3.7291101625e+00 -3.6625106446e-04 2.3872155453e+00 -4.1347786131e+00 2.3872155453e+00 4.1347786131e+00 
59900 3.7291101603e+00 -3.6227675317e-04 2.3872232164e+00 -4.1347918998e+00 2.3872232164e+00 4.1347918998e+00 
60000 3.7291101581e+00 -3.5834547030e-04 2.3872308042e+00 -4.1348050423e+00 2.3872308042e+00 4.1348050423e+00 
60100 3.7291101560e+00 -3.5445675747e-04 2.3872383097e+00 -4.1348180422e+00 2.3872383097e+00 4.1348180422e+00 
60200 3.7291101539e+00 -3.5061016086e-04 2.3872457337e+00 -4.1348309009e+00 2.3872457337e+00 4.1348309009e+00 
60300 3.7291101519e+00 -3.4680523115e-04 2.3872530771e+00 -4.1348436201e+00 2.3872530771e+00 4.1348436201e+00 
60400 3.7291101499e+00 -3.4304152348e-04 2.3872603408e+00 -4.1348562011e+00 2.3872603408e+00 4.1348562011e+00 
60500 3.7291101480e+00 -3.3931859739e-04 2.3872675256e+00 -4.1348686456e+00 2.3872675256e+00 4.1348686456e+00 
60600 3.7291101461e+00 -3.3563601677e-04 2.3872746325e+00 -4.1348809551e+00 2.3872746325e+00 4.1348809551e+00 
60700 3.7291101443e+00 -3.3199334978e-04 2.3872816622e+00 -4.1348931308e+00 2.3872816622e+00 4.1348931308e+00 
60800 3.7291101424e+00 -3.2839016884e-04 2.3872886155e+00 -4.1349051745e+00 2.3872886155e+00 4.1349051745e+00 
60900 3.7291101407e+00 -3.2482605056e-04 2.3872954934e+00 -4.1349170873e+00 2.3872954934e+00 4.1349170873e+00 
61000 3.7291101389e+00 -3.2130057572e-04 2.3873022967e+00 -4.1349288708e+00 2.3873022967e+00 4.1349288708e+00 
61100 3.7291101372e+00 -3.1781332922e-04 2.3873090260e+00 -4.1349405265e+00 2.3873090260e+00 4.1349405265e+00 
61200 3.7291101356e+00 -3.1436390003e-04 2.3873156823e+00 -4.1349520555e+00 2.3873156823e+00 4.1349520555e+00 
61300 3.7291101340e+00 -3.1095188117e-04 2.3873222664e+00 -4.1349634594e+00 2.3873222664e+00 4.1349634594e+00 
61400 3.7291101324e+00 -3.0757686968e-04 2.3873287790e+00 -4.1349747395e+00 2.3873287790e+00 4.1349747395e+00 
61500 3.7291101308e+00 -3.0423846660e-04 2.3873352208e+00 -4.1349858972e+00 2.3873352208e+00 4.1349858972e+00 
61600 3.7291101293e+00 -3.0093627689e-04 2.3873415928e+00 -4.1349969337e+00 2.3873415928e+00 4.1349969337e+00 
61700 3.7291101278e+00 -2.9766990947e-04 2.3873478955e+00 -4.1350078504e+00 2.3873478955e+00 4.1350078504e+00 
61800 3.7291101264e+00 -2.9443897715e-04 2.3873541298e+00 -4.1350186485e+00 2.3873541298e+00 4.1350186485e+00 
61900 3.7291101250e+00 -2.9124309660e-04 2.3873602965e+00 -4.1350293295e+00 2.3873602965e+00 4.1350293295e+00 
62000 3.7291101236e+00 -2.8808188837e-04 2.3873663962e+00 -4.1350398944e+00 2.3873663962e+00 4.1350398944e+00 
62100 3.7291101222e+00 -2.8495497683e-04 2.3873724296e+00 -4.1350503447e+00 2.3873724296e+00 4.1350503447e+00 
62200 3.7291101209e+00 -2.8186199014e-04 2.3873783976e+00 -4.1350606815e+00 2.3873783976e+00 4.1350606815e+00 
62300 3.7291101196e+00 -2.7880256026e-04 2.3873843008e+00 -4.1350709061e+00 2.3873843008e+00 4.1350709061e+00 
62400 3.7291101183e+00 -2.7577632292e-04 2.3873901399e+00 -4.1350810197e+00 2.3873901399e+00 4.1350810197e+00 
62500 3.7291101171e+00 -2.7278291758e-04 2.3873959155e+00 -4.1350910235e+00 2.3873959155e+00 4.1350910235e+00 
62600 3.7291101159e+00 -2.6982198741e-04 2.3874016285e+00 -4.1351009187e+00 2.3874016285e+00 4.1351009187e+00 
62700 3.7291101147e+00 -2.6689317932e-04 2.3874072795e+00 -4.1351107064e+00 2.3874072795e+00 4.1351107064e+00 
62800 3.7291101135e+00 -2.6399614385e-04 2.3874128691e+00 -4.1351203879e+00 2.3874128691e+00 4.1351203879e+00 
62900 3.7291101124e+00 -2.6113053524e-04 2.3874183980e+00 -4.1351299643e+00 2.3874183980e+00 4.1351299643e+00 
63000 3.7291101113e+00 -2.5829601134e-04 2.3874238669e+00 -4.1351394367e+00 2.3874238669e+00 4.1351394367e+00 
63100 3.7291101102e+00 -2.5549223363e-04 2.3874292764e+00 -4.1351488062e+00 2.3874292764e+00 4.1351488062e+00 
63200 3.7291101091e+00 -2.5271886720e-04 2.3874346272e+00 -4.1351580741e+00 2.3874346272e+00 4.1351580741e+00 
63300 3.7291101081e+00 -2.4997558067e-04 2.3874399199e+00 -4.1351672413e+00 2.3874399199e+00 4.1351672413e+00 
63400 3.7291101071e+00 -2.4726204625e-04 2.3874451551e+00 -4.1351763089e+00 2.3874451551e+00 4.1351763089e+00 
63500 3.7291101061e+00 -2.4457793967e-04 2.3874503335e+00 -4.1351852782e+00 2.3874503335e+00 4.1351852782e+00 
63600 3.7291101051e+00 -2.4192294015e-04 2.3874554557e+00 -4.1351941500e+00 2.3874554557e+00 4.1351941500e+00 
63700 3.7291101042e+00 -2.3929673041e-04 2.3874605222e+00 -4.1352029255e+00 2.3874605222e+00 4.1352029255e+00 
63800 3.7291101032e+00 -2.3669899660e-04 2.3874655337e+00 -4.1352116057e+00 2.3874655337e+00 4.1352116057e+00 
63900 3.7291101023e+00 -2.3412942834e-04 2.3874704909e+00 -4.1352201917e+00 2.3874704909e+00 4.1352201917e+00 
64000 3.7291101014e+00 -2.3158771861e-04 2.3874753941e+00 -4.1352286845e+00 2.3874753941e+00 4.1352286845e+00 
64100 3.7291101006e+00 -2.2907356380e-04 2.3874802442e+00 -4.1352370850e+00 2.3874802442e+00 4.1352370850e+00 
64200 3.7291100997e+00 -2.2658666363e-04 2.3874850416e+00 -4.1352453944e+00 2.3874850416e+00 4.1352453944e+00 
64300 3.7291100989e+00 -2.2412672118e-04 2.3874897869e+00 -4.1352536135e+00 2.3874897869e+00 4.1352536135e+00 
64400 3.7291100981e+00 -2.2169344277e-04 2.3874944807e+00 -4.1352617433e+00 2.3874944807e+00 4.1352617433e+00 
64500 3.7291100973e+00 -2.1928653804e-04 2.3874991235e+00 -4.1352697849e+00 2.3874991235e+00 4.1352697849e+00 
64600 3.7291100965e+00 -2.1690571983e-04 2.3875037159e+00 -4.1352777391e+00 2.3875037159e+00 4.1352777391e+00 
64700 3.7291100957e+00 -2.1455070420e-04 2.3875082584e+00 -4.1352856070e+00 2.3875082584e+00 4.1352856070e+00 
64800 3.7291100950e+00 -2.1222121040e-04 2.3875127516e+00 -4.1352933895e+00 2.3875127516e+00 4.1352933895e+00 
64900 3.7291100943e+00 -2.0991696079e-04 2.3875171960e+00 -4.1353010874e+00 2.3875171960e+00 4.1353010874e+00 
65000 3.7291100936e+00 -2.0763768089e-04 2.3875215921e+00 -4.1353087017e+00 2.3875215921e+00 4.1353087017e+00 
65100 3.7291100929e+00 -2.0538309925e-04 2.3875259405e+00 -4.1353162334e+00 2.3875259405e+00 4.1353162334e+00 
65200 3.7291100922e+00 -2.0315294751e-04 2.3875302417e+00 -4.1353236832e+00 2.3875302417e+00 4.1353236832e+00 
65300 3.7291100915e+00 -2.0094696031e-04 2.3875344962e+00 -4.1353310522e+00 2.3875344962e+00 4.1353310522e+00 
65400 3.7291100909e+00 -1.9876487528e-04 2.3875387044e+00 -4.1353383411e+00 2.3875387044e+00 4.1353383411e+00 
65500 3.7291100902e+00 -1.9660643299e-04 2.3875428670e+00 -4.1353455508e+00 2.3875428670e+00 4.1353455508e+00 
65600 3.7291100896e+00 -1.9447137692e-04 2.3875469843e+00 -4.1353526823e+00 2.3875469843e+00 4.1353526823e+00 
65700 3.7291100890e+00 -1.9235945346e-04 2.3875510569e+00 -4.1353597362e+00 2.3875510569e+00 4.1353597362e+00 
65800 3.7291100884e+00 -1.9027041182e-04 2.3875550853e+00 -4.1353667136e+00 2.3875550853e+00 4.1353667136e+00 
65900 3.7291100878e+00 -1.8820400404e-04 2.3875590699e+00 -4.1353736152e+00 2.3875590699e+00 4.1353736152e+00 
66000 3.7291100872e+00 -1.8615998493e-04 2.3875630113e+00 -4.1353804418e+00 2.3875630113e+00 4.1353804418e+00 
66100 3.7291100867e+00 -1.8413811206e-04 2.3875669098e+00 -4.1353871943e+00 2.3875669098e+00 4.1353871943e+00 
66200 3.7291100861e+00 -1.8213814571e-04 2.3875707660e+00 -4.1353938734e+00 2.3875707660e+00 4.1353938734e+00 
66300 3.7291100856e+00 -1.8015984882e-04 2.3875745803e+00 -4.1354004799e+00 2.3875745803e+00 4.1354004799e+00 
66400 3.7291100851e+00 -1.7820298700e-04 2.3875783532e+00 -4.1354070147e+00 2.3875783532e+00 4.1354070147e+00 
66500 3.7291100846e+00 -1.7626732844e-04 2.3875820850e+00 -4.1354134785e+00 2.3875820850e+00 4.1354134785e+00 
66600 3.7291100841e+00 -1.7435264395e-04 2.3875857764e+00 -4.1354198721e+00 2.3875857764e+00 4.1354198721e+00 
66700 3.7291100836e+00 -1.7245870684e-04 2.3875894276e+00 -4.1354261962e+00 2.3875894276e+00 4.1354261962e+00 
66800 3.7291100831e+00 -1.7058529296e-04 2.3875930392e+00 -4.1354324517e+00 2.3875930392e+00 4.1354324517e+00 
66900 3.7291100827e+00 -1.6873218063e-04 2.3875966115e+00 -4.1354386391e+00 2.3875966115e+00 4.1354386391e+00 
67000 3.7291100822e+00 -1.6689915061e-04 2.3876001450e+00 -4.1354447593e+00 2.3876001450e+00 4.1354447593e+00 
67100 3.7291100818e+00 -1.6508598608e-04 2.3876036402e+00 -4.1354508131e+00 2.3876036402e+00 4.1354508131e+00 
67200 3.7291100813e+00 -1.6329247260e-04 2.3876070973e+00 -4.1354568010e+00 2.3876070973e+00 4.1354568010e+00 
67300 3.7291100809e+00 -1.6151839808e-04 2.3876105169e+00 -4.1354627239e+00 2.3876105169e+00 4.1354627239e+00 
67400 3.7291100805e+00 -1.5976355277e-04 2.3876138993e+00 -4.1354685825e+00 2.3876138993e+00 4.1354685825e+00 
67500 3.7291100801e+00 -1.5802772918e-04 2.3876172450e+00 -4.1354743773e+00 2.3876172450e+00 4.1354743773e+00 
67600 3.7291100797e+00 -1.5631072209e-04 2.3876205543e+00 -4.1354801093e+00 2.3876205543e+00 4.1354801093e+00 
67700 3.7291100793e+00 -1.5461232853e-04 2.3876238277e+00 -4.1354857789e+00 2.3876238277e+00 4.1354857789e+00 
67800 3.7291100789e+00 -1.5293234771e-04 2.3876270655e+00 -4.1354913869e+00 2.3876270655e+00 4.1354913869e+00 
67900 3.7291100785e+00 -1.5127058101e-04 2.3876302681e+00 -4.1354969340e+00 2.3876302681e+00 4.1354969340e+00 
68000 3.7291100782e+00 -1.4962683199e-04 2.3876334359e+00 -4.1355024207e+00 2.3876334359e+00 4.1355024207e+00 
68100 3.7291100778e+00 -1.4800090629e-04 2.3876365692e+00 -4.1355078479e+00 2.3876365692e+00 4.1355078479e+00 
68200 3.7291100775e+00 -1.4639261166e-04 2.3876396685e+00 -4.1355132161e+00 2.3876396685e+00 4.1355132161e+00 
68300 3.7291100771e+00 -1.4480175792e-04 2.3876427342e+00 -4.1355185259e+00 2.3876427342e+00 4.1355185259e+00 
68400 3.7291100768e+00 -1.4322815693e-04 2.3876457665e+00 -4.1355237780e+00 2.3876457665e+00 4.1355237780e+00 
68500 3.7291100765e+00 -1.4167162254e-04 2.3876487659e+00 -4.1355289731e+00 2.3876487659e+00 4.1355289731e+00 
68600 3.7291100761e+00 -1.4013197064e-04 2.3876517326e+00 -4.1355341117e+00 2.3876517326e+00 4.1355341117e+00 
68700 3.7291100758e+00 -1.3860901904e-04 2.3876546671e+00 -4.1355391944e+00 2.3876546671e+00 4.1355391944e+00 
68800 3.7291100755e+00 -1.3710258751e-04 2.3876575698e+00 -4.1355442219e+00 2.3876575698e+00 4.1355442219e+00 
68900 3.7291100752e+00 -1.3561249775e-04 2.3876604408e+00 -4.1355491947e+00 2.3876604408e+00 4.1355491947e+00 
69000 3.7291100749e+00 -1.3413857334e-04 2.3876632807e+00 -4.1355541135e+00 2.3876632807e+00 4.1355541135e+00 
69100 3.7291100747e+00 -1.3268063975e-04 2.3876660897e+00 -4.1355589788e+00 2.3876660897e+00 4.1355589788e+00 
69200 3.7291100744e+00 -1.3131556178e-04 2.3876688681e+00 -4.1355637913e+00 2.3876688681e+00 4.1355637913e+00 
69300 3.7291100741e+00 -1.2999858507e-04 2.3876716180e+00 -4.1355685542e+00 2.3876716180e+00 4.1355685542e+00 
69400 3.7291100738e+00 -1.2870019483e-04 2.3876743403e+00 -4.1355732693e+00 2.3876743403e+00 4.1355732693e+00 
69500 3.7291100736e+00 -1.2741128450e-04 2.3876770354e+00 -4.1355779374e+00 2.3876770354e+00 4.1355779374e+00 
69600 3.7291100733e+00 -1.2612301926e-04 2.3876797035e+00 -4.1355825586e+00 2.3876797035e+00 4.1355825586e+00 
69700 3.7291100730e+00 -1.2485283646e-04 2.3876823446e+00 -4.1355871332e+00 2.3876823446e+00 4.1355871332e+00 
69800 3.7291100728e+00 -1.2360033367e-04 2.3876849591e+00 -4.1355916617e+00 2.3876849591e+00 4.1355916617e+00 
69900 3.7291100725e+00 -1.2234767000e-04 2.3876875474e+00 -4.1355961447e+00 2.3876875474e+00 4.1355961447e+00 
70000 3.7291100723e+00 -1.2111246175e-04 2.3876901095e+00 -4.1356005823e+00 2.3876901095e+00 4.1356005823e+00 
70100 3.7291100721e+00 -1.1988557572e-04 2.3876926457e+00 -4.1356049751e+00 2.3876926457e+00 4.1356049751e+00 
70200 3.7291100718e+00 -1.1866303222e-04 2.3876951562e+00 -4.1356093234e+00 2.3876951562e+00 4.1356093234e+00 
70300 3.7291100716e+00 -1.1745253822e-04 2.3876976410e+00 -4.1356136274e+00 2.3876976410e+00 4.1356136274e+00 
70400 3.7291100714e+00 -1.1625898158e-04 2.3877001006e+00 -4.1356178874e+00 2.3877001006e+00 4.1356178874e+00 
70500 3.7291100712e+00 -1.1507314342e-04 2.3877025351e+00 -4.1356221042e+00 2.3877025351e+00 4.1356221042e+00 
70600 3.7291100710e+00 -1.1389494878e-04 2.3877049448e+00 -4.1356262779e+00 2.3877049448e+00 4.1356262779e+00 
70700 3.7291100708e+00 -1.1273338713e-04 2.3877073298e+00 -4.1356304089e+00 2.3877073298e+00 4.1356304089e+00 
70800 3.7291100706e+00 -1.1157914414e-04 2.3877096906e+00 -4.1356344978e+00 2.3877096906e+00 4.1356344978e+00 
70900 3.7291100704e+00 -1.1043216701e-04 2.3877120271e+00 -4.1356385448e+00 2.3877120271e+00 4.1356385448e+00 
71000 3.7291100702e+00 -1.0930161764e-04 2.3877143396e+00 -4.1356425501e+00 2.3877143396e+00 4.1356425501e+00 
71100 3.7291100700e+00 -1.0817806427e-04 2.3877166284e+00 -4.1356465145e+00 2.3877166284e+00 4.1356465145e+00 
71200 3.7291100698e+00 -1.0706147197e-04 2.3877188937e+00 -4.1356504381e+00 2.3877188937e+00 4.1356504381e+00 
71300 3.7291100696e+00 -1.0596117965e-04 2.3877211357e+00 -4.1356543213e+00 2.3877211357e+00 4.1356543213e+00 
71400 3.7291100694e+00 -1.0486762186e-04 2.3877233545e+00 -4.1356581645e+00 2.3877233545e+00 4.1356581645e+00 
71500 3.7291100693e+00 -1.0378077764e-04 2.3877255505e+00 -4.1356619680e+00 2.3877255505e+00 4.1356619680e+00 
71600 3.7291100691e+00 -1.0271016369e-04 2.3877277237e+00 -4.1356657321e+00 2.3877277237e+00 4.1356657321e+00 
71700 3.7291100689e+00 -1.0164606972e-04 2.3877298745e+00 -4.1356694574e+00 2.3877298745e+00 4.1356694574e+00 
71800 3.7291100688e+00 -1.0058848514e-04 2.3877320030e+00 -4.1356731441e+00 2.3877320030e+00 4.1356731441e+00 
71900 3.7291100686e+00 -9.9547102570e-05 2.3877341094e+00 -4.1356767924e+00 2.3877341094e+00 4.1356767924e+00 
72000 3.7291100684e+00 -9.8512059876e-05 2.3877361939e+00 -4.1356804030e+00 2.3877361939e+00 4.1356804030e+00 
72100 3.7291100683e+00 -9.7493165084e-05 2.3877382568e+00 -4.1356839760e+00 2.3877382568e+00 4.1356839760e+00 
72200 3.7291100681e+00 -9.6475229646e-05 2.3877402983e+00 -4.1356875120e+00 2.3877402983e+00 4.1356875120e+00 
72300 3.7291100680e+00 -9.5463564071e-05 2.3877423186e+00 -4.1356910111e+00 2.3877423186e+00 4.1356910111e+00 
72400 3.7291100679e+00 -9.4463455702e-05 2.3877443176e+00 -4.1356944736e+00 2.3877443176e+00 4.1356944736e+00 
72500 3.7291100677e+00 -9.3479560617e-05 2.3877462957e+00 -4.1356978997e+00 2.3877462957e+00 4.1356978997e+00 
72600 3.7291100676e+00 -9.2501705116e-05 2.3877482532e+00 -4.1357012902e+00 2.3877482532e+00 4.1357012902e+00 
72700 3.7291100674e+00 -9.1540029577e-05 2.3877501902e+00 -4.1357046452e+00 2.3877501902e+00 4.1357046452e+00 
72800 3.7291100673e+00 -9.0584253273e-05 2.3877521071e+00 -4.1357079653e+00 2.3877521071e+00 4.1357079653e+00 
72900 3.7291100672e+00 -8.9634377735e-05 2.3877540039e+00 -4.1357112507e+00 2.3877540039e+00 4.1357112507e+00 
73000 3.7291100671e+00 -8.8690408143e-05 2.3877558809e+00 -4.1357145017e+00 2.3877558809e+00 4.1357145017e+00 
73100 3.7291100669e+00 -8.7762700722e-05 2.3877577381e+00 -4.1357177185e+00 2.3877577381e+00 4.1357177185e+00 
73200 3.7291100668e+00 -8.6840767257e-05 2.3877595758e+00 -4.1357209016e+00 2.3877595758e+00 4.1357209016e+00 
73300 3.7291100667e+00 -8.5935065598e-05 2.3877613943e+00 -4.1357240512e+00 2.3877613943e+00 4.1357240512e+00 
73400 3.7291100666e+00 -8.5035003606e-05 2.3877631938e+00 -4.1357271681e+00 2.3877631938e+00 4.1357271681e+00 
73500 3.7291100665e+00 -8.4135106269e-05 2.3877649744e+00 -4.1357302522e+00 2.3877649744e+00 4.1357302522e+00 
73600 3.7291100664e+00 -8.3246450683e-05 2.3877667362e+00 -4.1357333037e+00 2.3877667362e+00 4.1357333037e+00 
73700 3.7291100663e+00 -8.2374096978e-05 2.3877684794e+00 -4.1357363230e+00 2.3877684794e+00 4.1357363230e+00 
73800 3.7291100662e+00 -8.1507256100e-05 2.3877702043e+00 -4.1357393107e+00 2.3877702043e+00 4.1357393107e+00 
73900 3.7291100661e+00 -8.0645929527e-05 2.3877719111e+00 -4.1357422669e+00 2.3877719111e+00 4.1357422669e+00 
74000 3.7291100660e+00 -7.9800915693e-05 2.3877735998e+00 -4.1357451918e+00 2.3877735998e+00 4.1357451918e+00 
74100 3.7291100659e+00 -7.8955750001e-05 2.3877752708e+00 -4.1357480861e+00 2.3877752708e+00 4.1357480861e+00 
74200 3.7291100658e+00 -7.8121610021e-05 2.3877769242e+00 -4.1357509498e+00 2.3877769242e+00 4.1357509498e+00 
74300 3.7291100657e+00 -7.7292850202e-05 2.3877785600e+00 -4.1357537832e+00 2.3877785600e+00 4.1357537832e+00 
74400 3.7291100656e+00 -7.6480446533e-05 2.3877801785e+00 -4.1357565865e+00 2.3877801785e+00 4.1357565865e+00 
74500 3.7291100655e+00 -7.5673285523e-05 2.3877817800e+00 -4.1357593604e+00 2.3877817800e+00 4.1357593604e+00 
74600 3.7291100654e+00 -7.4871364931e-05 2.3877833646e+00 -4.1357621050e+00 2.3877833646e+00 4.1357621050e+00 
74700 3.7291100653e+00 -7.4074684201e-05 2.3877849324e+00 -4.1357648205e+00 2.3877849324e+00 4.1357648205e+00 
74800 3.7291100652e+00 -7.3294386999e-05 2.3877864836e+00 -4.1357675071e+00 2.3877864836e+00 4.1357675071e+00 
74900 3.7291100652e+00 -7.2519188593e-05 2.3877880183e+00 -4.1357701655e+00 2.3877880183e+00 4.1357701655e+00 
75000 3.7291100651e+00 -7.1749084936e-05 2.3877895369e+00 -4.1357727956e+00 2.3877895369e+00 4.1357727956e+00 
75100 3.7291100650e+00 -7.0995339548e-05 2.3877910393e+00 -4.1357753979e+00 2.3877910393e+00 4.1357753979e+00 
75200 3.7291100649e+00 -7.0235237028e-05 2.3877925259e+00 -4.1357779728e+00 2.3877925259e+00 4.1357779728e+00 
75200 3.7291100649e+00 -7.0235237028e-05 2.3877925259e+00 -4.1357779728e+00 2.3877925259e+00 4.1357779728e+00 
