# step Hamiltonian StressXX CellTensor1 CellTensor2 CellTensor3 CellTensor4 
0 5.6088452594e+00 2.4436081846e-01 2.8237630504e+00 -4.8909010719e+00 2.8237630504e+00 4.8909010719e+00 
100 5.5595688864e+00 2.6464808317e-01 2.8237630504e+00 -4.8909010719e+00 2.8237630504e+00 4.8909010719e+00 
200 5.5184477338e+00 2.8422437255e-01 2.8190782600e+00 -4.8827867768e+00 2.8190782600e+00 4.8827867768e+00 
300 5.4853286109e+00 3.0313653686e-01 2.8140386781e+00 -4.8740579650e+00 2.8140386781e+00 4.8740579650e+00 
400 5.4593852269e+00 3.2150701026e-01 2.8086542523e+00 -4.8647318659e+00 2.8086542523e+00 4.8647318659e+00 
500 5.4398432139e+00 3.3947287423e-01 2.8029326938e+00 -4.8548218359e+00 2.8029326938e+00 4.8548218359e+00 
600 5.4259653378e+00 3.5717399249e-01 2.7968792061e+00 -4.8443368876e+00 2.7968792061e+00 4.8443368876e+00 
700 5.4170380629e+00 3.7473987077e-01 2.7904964175e+00 -4.8332815734e+00 2.7904964175e+00 4.8332815734e+00 
800 5.4123569934e+00 3.9227150813e-01 2.7837845432e+00 -4.8216562661e+00 2.7837845432e+00 4.8216562661e+00 
900 5.4112067028e+00 4.0980972305e-01 2.7767418714e+00 -4.8094580007e+00 2.7767418714e+00 4.8094580007e+00 
1000 5.4128270783e+00 4.2727247803e-01 2.7693658216e+00 -4.7966823078e+00 2.7693658216e+00 4.7966823078e+00 
1100 5.4163534249e+00 4.4432912837e-01 2.7616551473e+00 -4.7833270281e+00 2.7616551473e+00 4.7833270281e+00 
1200 5.4207142066e+00 4.6016518649e-01 2.7536144479e+00 -4.7694001282e+00 2.7536144479e+00 4.7694001282e+00 
1300 5.4244829660e+00 4.7311596600e-01 2.7452630290e+00 -4.7549350463e+00 2.7452630290e+00 4.7549350463e+00 
1400 5.4257515971e+00 4.8033764170e-01 2.7366505996e+00 -4.7400178810e+00 2.7366505996e+00 4.7400178810e+00 
1500 5.4222716810e+00 4.7820575662e-01 2.7278792919e+00 -4.7248255305e+00 2.7278792919e+00 4.7248255305e+00 
1600 5.4122384001e+00 4.6446275407e-01 2.7191188449e+00 -4.7096519912e+00 2.7191188449e+00 4.7096519912e+00 
1700 5.3955078625e+00 4.4118142186e-01 2.7105826449e+00 -4.6948668592e+00 2.7105826449e+00 4.6948668592e+00 
1800 5.3738783130e+00 4.1435197980e-01 2.7024486005e+00 -4.6807782809e+00 2.7024486005e+00 4.6807782809e+00 
1900 5.3498058408e+00 3.8944557945e-01 2.6947860030e+00 -4.6675062727e+00 2.6947860030e+00 4.6675062727e+00 
2000 5.3250994876e+00 3.6860155571e-01 2.6875633318e+00 -4.6549962392e+00 2.6875633318e+00 4.6549962392e+00 
2100 5.3006886205e+00 3.5148681939e-01 2.6807087137e+00 -4.6431236925e+00 2.6807087137e+00 4.6431236925e+00 
2200 5.2769545872e+00 3.3701054275e-01 2.6741555362e+00 -4.6317732560e+00 2.6741555362e+00 4.6317732560e+00 
2300 5.2540326412e+00 3.2420691149e-01 2.6678567650e+00 -4.6208634643e+00 2.6678567650e+00 4.6208634643e+00 
2400 5.2319638720e+00 3.1243037315e-01 2.6617829088e+00 -4.6103432368e+00 2.6617829088e+00 4.6103432368e+00 
2500 5.2107552976e+00 3.0129944399e-01 2.6559162525e+00 -4.6001818900e+00 2.6559162525e+00 4.6001818900e+00 
2600 5.1904010806e+00 2.9060345722e-01 2.6502460442e+00 -4.5903608012e+00 2.6502460442e+00 4.5903608012e+00 
2700 5.1708896528e+00 2.8023163125e-01 2.6447653634e+00 -4.5808679835e+00 2.6447653634e+00 4.5808679835e+00 
2800 5.1522060980e+00 2.7012863728e-01 2.6394692814e+00 -4.5716949004e+00 2.6394692814e+00 4.5716949004e+00 
2900 5.1343330144e+00 2.6026889155e-01 2.6343538366e+00 -4.5628346902e+00 2.6343538366e+00 4.5628346902e+00 
3000 5.1172509233e+00 2.5064223111e-01 2.6294154834e+00 -4.5542812114e+00 2.6294154834e+00 4.5542812114e+00 
3100 5.1009385620e+00 2.4124609501e-01 2.6246508052e+00 -4.5460285467e+00 2.6246508052e+00 4.5460285467e+00 
3200 5.0853731637e+00 2.3208132108e-01 2.6200563736e+00 -4.5380707578e+00 2.6200563736e+00 4.5380707578e+00 
3300 5.0705307419e+00 2.2314992745e-01 2.6156286860e+00 -4.5304017778e+00 2.6156286860e+00 4.5304017778e+00 
3400 5.0563863782e+00 2.1445397628e-01 2.6113641438e+00 -4.5230153742e+00 2.6113641438e+00 4.5230153742e+00 
3500 5.0429145027e+00 2.0599502503e-01 2.6072590541e+00 -4.5159051501e+00 2.6072590541e+00 4.5159051501e+00 
3600 5.0300891584e+00 1.9777389352e-01 2.6033096397e+00 -4.5090645638e+00 2.6033096397e+00 4.5090645638e+00 
3700 5.0178842422e+00 1.8979059826e-01 2.5995120560e+00 -4.5024869558e+00 2.5995120560e+00 4.5024869558e+00 
3800 5.0062737198e+00 1.8204437215e-01 2.5958624073e+00 -4.4961655788e+00 2.5958624073e+00 4.4961655788e+00 
3900 4.9952318107e+00 1.7453372492e-01 2.5923567643e+00 -4.4900936272e+00 2.5923567643e+00 4.4900936272e+00 
4000 4.9847331448e+00 1.6725652005e-01 2.5889911801e+00 -4.4842642643e+00 2.5889911801e+00 4.4842642643e+00 
4100 4.9747528906e+00 1.6021005534e-01 2.5857617041e+00 -4.4786706478e+00 2.5857617041e+00 4.4786706478e+00 
4200 4.9652668580e+00 1.5339114045e-01 2.5826643958e+00 -4.4733059523e+00 2.5826643958e+00 4.4733059523e+00 
4300 4.9562515765e+00 1.4679616850e-01 2.5796953358e+00 -4.4681633896e+00 2.5796953358e+00 4.4681633896e+00 
4400 4.9476843538e+00 1.4042118052e-01 2.5768506364e+00 -4.4632362257e+00 2.5768506364e+00 4.4632362257e+00 
4500 4.9395433159e+00 1.3426192282e-01 2.5741264504e+00 -4.4585177972e+00 2.5741264504e+00 4.4585177972e+00 
4600 4.9318074311e+00 1.2831389745e-01 2.5715189788e+00 -4.4540015240e+00 2.5715189788e+00 4.4540015240e+00 
4700 4.9244565228e+00 1.2257240664e-01 2.5690244779e+00 -4.4496809217e+00 2.5690244779e+00 4.4496809217e+00 
4800 4.9174712703e+00 1.1703259187e-01 2.5666392648e+00 -4.4455496113e+00 2.5666392648e+00 4.4455496113e+00 
4900 4.9108332017e+00 1.1168946818e-01 2.5643597226e+00 -4.4416013284e+00 2.5643597226e+00 4.4416013284e+00 
5000 4.9045246804e+00 1.0653795454e-01 2.5621823049e+00 -4.4378299303e+00 2.5621823049e+00 4.4378299303e+00 
5100 4.8985288859e+00 1.0157290064e-01 2.5601035391e+00 -4.4342294024e+00 2.5601035391e+00 4.4342294024e+00 
5200 4.8928297912e+00 9.6789110793e-02 2.5581200300e+00 -4.4307938639e+00 2.5581200300e+00 4.4307938639e+00 
5300 4.8874121372e+00 9.2181365167e-02 2.5562284618e+00 -4.4275175716e+00 2.5562284618e+00 4.4275175716e+00 
5400 4.8822614055e+00 8.7744438850e-02 2.5544256002e+00 -4.4243949238e+00 2.5544256002e+00 4.4243949238e+00 
5500 4.8773637897e+00 8.3473118880e-02 2.5527082944e+00 -4.4214204628e+00 2.5527082944e+00 4.4214204628e+00 
5600 4.8727061666e+00 7.9362219564e-02 2.5510734777e+00 -4.4185888773e+00 2.5510734777e+00 4.4185888773e+00 
5700 4.8682760670e+00 7.5406596221e-02 2.5495181687e+00 -4.4158950031e+00 2.5495181687e+00 4.4158950031e+00 
5800 4.8640616474e+00 7.1601157512e-02 2.5480394717e+00 -4.4133338246e+00 2.5480394717e+00 4.4133338246e+00 
5900 4.8600516612e+00 6.7940876480e-02 2.5466345764e+00 -4.4109004746e+00 2.5466345764e+00 4.4109004746e+00 
6000 4.8562354317e+00 6.4420800390e-02 2.5453007583e+00 -4.4085902340e+00 2.5453007583e+00 4.4085902340e+00 
6100 4.8526028255e+00 6.1036059473e-02 2.5440353782e+00 -4.4063985313e+00 2.5440353782e+00 4.4063985313e+00 
6200 4.8491442267e+00 5.7781874620e-02 2.5428358811e+00 -4.4043209414e+00 2.5428358811e+00 4.4043209414e+00 
6300 4.8458505125e+00 5.4653564123e-02 2.5416997958e+00 -4.4023531839e+00 2.5416997958e+00 4.4023531839e+00 
6400 4.8427130299e+00 5.1646549483e-02 2.5406247336e+00 -4.4004911215e+00 2.5406247336e+00 4.4004911215e+00 
6500 4.8397235726e+00 4.8756360376e-02 2.5396083870e+00 -4.3987307576e+00 2.5396083870e+00 4.3987307576e+00 
6600 4.8368743604e+00 4.5978638799e-02 2.5386485286e+00 -4.3970682341e+00 2.5386485286e+00 4.3970682341e+00 
6700 4.8341580179e+00 4.3309142456e-02 2.5377430093e+00 -4.3954998287e+00 2.5377430093e+00 4.3954998287e+00 
6800 4.8315675554e+00 4.0743747433e-02 2.5368897568e+00 -4.3940219519e+00 2.5368897568e+00 4.3940219519e+00 
6900 4.8290963505e+00 3.8278450200e-02 2.5360867736e+00 -4.3926311442e+00 2.5360867736e+00 4.3926311442e+00 
7000 4.8267381298e+00 3.5909368998e-02 2.5353321355e+00 -4.3913240728e+00 2.5353321355e+00 4.3913240728e+00 
7100 4.8244869524e+00 3.3632744639e-02 2.5346239897e+00 -4.3900975283e+00 2.5346239897e+00 4.3900975283e+00 
7200 4.8223371935e+00 3.1444940782e-02 2.5339605525e+00 -4.3889484213e+00 2.5339605525e+00 4.3889484213e+00 
7300 4.8202835294e+00 2.9342443708e-02 2.5333401076e+00 -4.3878737793e+00 2.5333401076e+00 4.3878737793e+00 
7400 4.8183209221e+00 2.7321861661e-02 2.5327610041e+00 -4.3868707425e+00 2.5327610041e+00 4.3868707425e+00 
7500 4.8164446059e+00 2.5379923777e-02 2.5322216541e+00 -4.3859365609e+00 2.5322216541e+00 4.3859365609e+00 
7600 4.8146500735e+00 2.3513478644e-02 2.5317205312e+00 -4.3850685906e+00 2.5317205312e+00 4.3850685906e+00 
7700 4.8129330633e+00 2.1719492550e-02 2.5312561679e+00 -4.3842642898e+00 2.5312561679e+00 4.3842642898e+00 
7800 4.8112895473e+00 1.9995047429e-02 2.5308271541e+00 -4.3835212160e+00 2.5308271541e+00 4.3835212160e+00 
7900 4.8097157187e+00 1.8337338570e-02 2.5304321345e+00 -4.3828370220e+00 2.5304321345e+00 4.3828370220e+00 
8000 4.8082079815e+00 1.6743672097e-02 2.5300698070e+00 -4.3822094524e+00 2.5300698070e+00 4.3822094524e+00 
8100 4.8067629388e+00 1.5211462272e-02 2.5297389207e+00 -4.3816363406e+00 2.5297389207e+00 4.3816363406e+00 
8200 4.8053773831e+00 1.3738228645e-02 2.5294382739e+00 -4.3811156050e+00 2.5294382739e+00 4.3811156050e+00 
8300 4.8040482863e+00 1.2321593074e-02 2.5291667119e+00 -4.3806452459e+00 2.5291667119e+00 4.3806452459e+00 
8400 4.8027727900e+00 1.0959276651e-02 2.5289231259e+00 -4.3802233425e+00 2.5289231259e+00 4.3802233425e+00 
8500 4.8015481966e+00 9.6490965500e-03 2.5287064503e+00 -4.3798480493e+00 2.5287064503e+00 4.3798480493e+00 
8600 4.8003719608e+00 8.3889628321e-03 2.5285156615e+00 -4.3795175935e+00 2.5285156615e+00 4.3795175935e+00 
8700 4.7992416810e+00 7.1768752086e-03 2.5283497762e+00 -4.3792302717e+00 2.5283497762e+00 4.3792302717e+00 
8800 4.7981550917e+00 6.0109198002e-03 2.5282078495e+00 -4.3789844474e+00 2.5282078495e+00 4.3789844474e+00 
8900 4.7971100559e+00 4.8892658982e-03 2.5280889733e+00 -4.3787785479e+00 2.5280889733e+00 4.3787785479e+00 
9000 4.7961045577e+00 3.8101627458e-03 2.5279922751e+00 -4.3786110616e+00 2.5279922751e+00 4.3786110616e+00 
9100 4.7951366957e+00 2.7719363526e-03 2.5279169160e+00 -4.3784805358e+00 2.5279169160e+00 4.3784805358e+00 
9200 4.7942046765e+00 1.7729863537e-03 2.5278620897e+00 -4.3783855739e+00 2.5278620897e+00 4.3783855739e+00 
9300 4.7933068081e+00 8.1178292449e-04 2.5278270209e+00 -4.3783248329e+00 2.5278270209e+00 4.3783248329e+00 
9400 4.7924414946e+00 -1.1313624161e-04 2.5278109640e+00 -4.3782970216e+00 2.5278109640e+00 4.3782970216e+00 
9500 4.7916072301e+00 -1.0031688834e-03 2.5278132018e+00 -4.3783008976e+00 2.5278132018e+00 4.3783008976e+00 
9600 4.7908025936e+00 -1.8596510454e-03 2.5278330445e+00 -4.3783352661e+00 2.5278330445e+00 4.3783352661e+00 
9700 4.7900262440e+00 -2.6838598683e-03 2.5278698281e+00 -4.3783989771e+00 2.5278698281e+00 4.3783989771e+00 
9800 4.7892769150e+00 -3.4770162932e-03 2.5279229136e+00 -4.3784909241e+00 2.5279229136e+00 4.3784909241e+00 
9900 4.7885534111e+00 -4.2402876763e-03 2.5279916862e+00 -4.3786100415e+00 2.5279916862e+00 4.3786100415e+00 
10000 4.7878546029e+00 -4.9747903115e-03 2.5280755533e+00 -4.3787553038e+00 2.5280755533e+00 4.3787553038e+00 
10100 4.7871794233e+00 -5.6815918601e-03 2.5281739448e+00 -4.3789257228e+00 2.5281739448e+00 4.3789257228e+00 
10200 4.7865268634e+00 -6.3617136863e-03 2.5282863112e+00 -4.3791203471e+00 2.5282863112e+00 4.3791203471e+00 
10300 4.7858959695e+00 -7.0161330982e-03 2.5284121230e+00 -4.3793382596e+00 2.5284121230e+00 4.3793382596e+00 
10400 4.7852858389e+00 -7.6457854958e-03 2.5285508701e+00 -4.3795785766e+00 2.5285508701e+00 4.3795785766e+00 
10500 4.7846956175e+00 -8.2515664254e-03 2.5287020607e+00 -4.3798404464e+00 2.5287020607e+00 4.3798404464e+00 
10600 4.7841244961e+00 -8.8343335428e-03 2.5288652206e+00 -4.3801230476e+00 2.5288652206e+00 4.3801230476e+00 
10700 4.7835717084e+00 -9.3949084866e-03 2.5290398925e+00 -4.3804255882e+00 2.5290398925e+00 4.3804255882e+00 
10800 4.7830365275e+00 -9.9340786629e-03 2.5292256354e+00 -4.3807473044e+00 2.5292256354e+00 4.3807473044e+00 
10900 4.7825182639e+00 -1.0452598945e-02 2.5294220237e+00 -4.3810874589e+00 2.5294220237e+00 4.3810874589e+00 
11000 4.7820162633e+00 -1.0951193289e-02 2.5296286469e+00 -4.3814453406e+00 2.5296286469e+00 4.3814453406e+00 
11100 4.7815299041e+00 -1.1430556269e-02 2.5298451085e+00 -4.3818202631e+00 2.5298451085e+00 4.3818202631e+00 
11200 4.7810585955e+00 -1.1891354535e-02 2.5300710260e+00 -4.3822115637e+00 2.5300710260e+00 4.3822115637e+00 
11300 4.7806017755e+00 -1.2334228191e-02 2.5303060300e+00 -4.3826186027e+00 2.5303060300e+00 4.3826186027e+00 
11400 4.7801589094e+00 -1.2759792108e-02 2.5305497639e+00 -4.3830407622e+00 2.5305497639e+00 4.3830407622e+00 
11500 4.7797294878e+00 -1.3168637161e-02 2.5308018831e+00 -4.3834774454e+00 2.5308018831e+00 4.3834774454e+00 
11600 4.7793130253e+00 -1.3561331404e-02 2.5310620549e+00 -4.3839280761e+00 2.5310620549e+00 4.3839280761e+00 
11700 4.7789090590e+00 -1.3938421177e-02 2.5313299576e+00 -4.3843920973e+00 2.5313299576e+00 4.3843920973e+00 
11800 4.7785171469e+00 -1.4300432153e-02 2.5316052808e+00 -4.3848689710e+00 2.5316052808e+00 4.3848689710e+00 
11900 4.7781368670e+00 -1.4647870332e-02 2.5318877240e+00 -4.3853581771e+00 2.5318877240e+00 4.3853581771e+00 
12000 4.7777678159e+00 -1.4981222972e-02 2.5321769973e+00 -4.3858592131e+00 2.5321769973e+00 4.3858592131e+00 
12100 4.7774096079e+00 -1.5300959475e-02 2.5324728201e+00 -4.3863715932e+00 2.5324728201e+00 4.3863715932e+00 
12200 4.7770618736e+00 -1.5607532217e-02 2.5327749214e+00 -4.3868948479e+00 2.5327749214e+00 4.3868948479e+00 
12300 4.7767242596e+00 -1.5901377336e-02 2.5330830389e+00 -4.3874285232e+00 2.5330830389e+00 4.3874285232e+00 
12400 4.7763964269e+00 -1.6182915473e-02 2.5333969194e+00 -4.3879721801e+00 2.5333969194e+00 4.3879721801e+00 
12500 4.7760780506e+00 -1.6452552468e-02 2.5337163177e+00 -4.3885253943e+00 2.5337163177e+00 4.3885253943e+00 
12600 4.7757688187e+00 -1.6710680025e-02 2.5340409970e+00 -4.3890877553e+00 2.5340409970e+00 4.3890877553e+00 
12700 4.7754684318e+00 -1.6957676327e-02 2.5343707281e+00 -4.3896588663e+00 2.5343707281e+00 4.3896588663e+00 
12800 4.7751766024e+00 -1.7193906630e-02 2.5347052895e+00 -4.3902383435e+00 2.5347052895e+00 4.3902383435e+00 
12900 4.7748930538e+00 -1.7419723811e-02 2.5350444668e+00 -4.3908258159e+00 2.5350444668e+00 4.3908258159e+00 
13000 4.7746175202e+00 -1.7635468891e-02 2.5353880528e+00 -4.3914209243e+00 2.5353880528e+00 4.3914209243e+00 
13100 4.7743497456e+00 -1.7841471531e-02 2.5357358471e+00 -4.3920233218e+00 2.5357358471e+00 4.3920233218e+00 
13200 4.7740894837e+00 -1.8038050493e-02 2.5360876559e+00 -4.3926326725e+00 2.5360876559e+00 4.3926326725e+00 
13300 4.7738364971e+00 -1.8225514082e-02 2.5364432917e+00 -4.3932486518e+00 2.5364432917e+00 4.3932486518e+00 
13400 4.7735905571e+00 -1.8404160562e-02 2.5368025733e+00 -4.3938709457e+00 2.5368025733e+00 4.3938709457e+00 
13500 4.7733514432e+00 -1.8574278546e-02 2.5371653252e+00 -4.3944992504e+00 2.5371653252e+00 4.3944992504e+00 
13600 4.7731189429e+00 -1.8736147369e-02 2.5375313779e+00 -4.3951332723e+00 2.5375313779e+00 4.3951332723e+00 
13700 4.7728928508e+00 -1.8890037438e-02 2.5379005674e+00 -4.3957727274e+00 2.5379005674e+00 4.3957727274e+00 
13800 4.7726729691e+00 -1.9036210569e-02 2.5382727353e+00 -4.3964173410e+00 2.5382727353e+00 4.3964173410e+00 
13900 4.7724591066e+00 -1.9174920296e-02 2.5386477281e+00 -4.3970668475e+00 2.5386477281e+00 4.3970668475e+00 
14000 4.7722510785e+00 -1.9306412177e-02 2.5390253975e+00 -4.3977209902e+00 2.5390253975e+00 4.3977209902e+00 
14100 4.7720487066e+00 -1.9430924072e-02 2.5394056004e+00 -4.3983795209e+00 2.5394056004e+00 4.3983795209e+00 
14200 4.7718518184e+00 -1.9548686418e-02 2.5397881980e+00 -4.3990421995e+00 2.5397881980e+00 4.3990421995e+00 
14300 4.7716602474e+00 -1.9659922484e-02 2.5401730565e+00 -4.3997087939e+00 2.5401730565e+00 4.3997087939e+00 
14400 4.7714738325e+00 -1.9764848613e-02 2.5405600463e+00 -4.4003790799e+00 2.5405600463e+00 4.4003790799e+00 
14500 4.7712924179e+00 -1.9863674458e-02 2.5409490423e+00 -4.4010528407e+00 2.5409490423e+00 4.4010528407e+00 
14600 4.7711158530e+00 -1.9956603202e-02 2.5413399235e+00 -4.4017298668e+00 2.5413399235e+00 4.4017298668e+00 
14700 4.7709439921e+00 -2.0043831771e-02 2.5417325730e+00 -4.4024099557e+00 2.5417325730e+00 4.4024099557e+00 
14800 4.7707766942e+00 -2.0125551037e-02 2.5421268778e+00 -4.4030929117e+00 2.5421268778e+00 4.4030929117e+00 
14900 4.7706138228e+00 -2.0201946010e-02 2.5425227289e+00 -4.4037785459e+00 2.5425227289e+00 4.4037785459e+00 
15000 4.7704552459e+00 -2.0273196023e-02 2.5429200208e+00 -4.4044666756e+00 2.5429200208e+00 4.4044666756e+00 
15100 4.7703008358e+00 -2.0339474913e-02 2.5433186516e+00 -4.4051571244e+00 2.5433186516e+00 4.4051571244e+00 
15200 4.7701504686e+00 -2.0400951189e-02 2.5437185230e+00 -4.4058497220e+00 2.5437185230e+00 4.4058497220e+00 
15300 4.7700040247e+00 -2.0457788195e-02 2.5441195400e+00 -4.4065443038e+00 2.5441195400e+00 4.4065443038e+00 
15400 4.7698613880e+00 -2.0510144270e-02 2.5445216109e+00 -4.4072407110e+00 2.5445216109e+00 4.4072407110e+00 
15500 4.7697224463e+00 -2.0558172896e-02 2.5449246470e+00 -4.4079387901e+00 2.5449246470e+00 4.4079387901e+00 
15600 4.7695870908e+00 -2.0602022847e-02 2.5453285631e+00 -4.4086383932e+00 2.5453285631e+00 4.4086383932e+00 
15700 4.7694552163e+00 -2.0641838329e-02 2.5457332764e+00 -4.4093393772e+00 2.5457332764e+00 4.4093393772e+00 
15800 4.7693267208e+00 -2.0677759112e-02 2.5461387074e+00 -4.4100416044e+00 2.5461387074e+00 4.4100416044e+00 
15900 4.7692015054e+00 -2.0709920667e-02 2.5465447794e+00 -4.4107449416e+00 2.5465447794e+00 4.4107449416e+00 
16000 4.7690794746e+00 -2.0738454287e-02 2.5469514180e+00 -4.4114492605e+00 2.5469514180e+00 4.4114492605e+00 
16100 4.7689605357e+00 -2.0763487211e-02 2.5473585520e+00 -4.4121544371e+00 2.5473585520e+00 4.4121544371e+00 
16200 4.7688445989e+00 -2.0785142744e-02 2.5477661122e+00 -4.4128603521e+00 2.5477661122e+00 4.4128603521e+00 
16300 4.7687315772e+00 -2.0803540369e-02 2.5481740322e+00 -4.4135668904e+00 2.5481740322e+00 4.4135668904e+00 
16400 4.7686213865e+00 -2.0818795860e-02 2.5485822480e+00 -4.4142739408e+00 2.5485822480e+00 4.4142739408e+00 
16500 4.7685139451e+00 -2.0831021388e-02 2.5489906977e+00 -4.4149813964e+00 2.5489906977e+00 4.4149813964e+00 
16600 4.7684091739e+00 -2.0840325627e-02 2.5493993217e+00 -4.4156891540e+00 2.5493993217e+00 4.4156891540e+00 
16700 4.7683069965e+00 -2.0846813853e-02 2.5498080628e+00 -4.4163971142e+00 2.5498080628e+00 4.4163971142e+00 
16800 4.7682073385e+00 -2.0850588045e-02 2.5502168655e+00 -4.4171051814e+00 2.5502168655e+00 4.4171051814e+00 
16900 4.7681101280e+00 -2.0851746979e-02 2.5506256767e+00 -4.4178132632e+00 2.5506256767e+00 4.4178132632e+00 
17000 4.7680152955e+00 -2.0850386318e-02 2.5510344451e+00 -4.4185212708e+00 2.5510344451e+00 4.4185212708e+00 
17100 4.7679227735e+00 -2.0846598710e-02 2.5514431214e+00 -4.4192291188e+00 2.5514431214e+00 4.4192291188e+00 
17200 4.7678324964e+00 -2.0840473867e-02 2.5518516579e+00 -4.4199367248e+00 2.5518516579e+00 4.4199367248e+00 
17300 4.7677444010e+00 -2.0832098655e-02 2.5522600090e+00 -4.4206440097e+00 2.5522600090e+00 4.4206440097e+00 
17400 4.7676584259e+00 -2.0821557176e-02 2.5526681307e+00 -4.4213508973e+00 2.5526681307e+00 4.4213508973e+00 
17500 4.7675745115e+00 -2.0808930848e-02 2.5530759807e+00 -4.4220573141e+00 2.5530759807e+00 4.4220573141e+00 
17600 4.7674926002e+00 -2.0794298486e-02 2.5534835182e+00 -4.4227631898e+00 2.5534835182e+00 4.4227631898e+00 
17700 4.7674126361e+00 -2.0777736374e-02 2.5538907041e+00 -4.4234684565e+00 2.5538907041e+00 4.4234684565e+00 
17800 4.7673345650e+00 -2.0759318343e-02 2.5542975008e+00 -4.4241730491e+00 2.5542975008e+00 4.4241730491e+00 
17900 4.7672583345e+00 -2.0739115843e-02 2.5547038722e+00 -4.4248769050e+00 2.5547038722e+00 4.4248769050e+00 
18000 4.7671838936e+00 -2.0717198011e-02 2.5551097836e+00 -4.4255799640e+00 2.5551097836e+00 4.4255799640e+00 
18100 4.7671111931e+00 -2.0693631744e-02 2.5555152015e+00 -4.4262821685e+00 2.5555152015e+00 4.4262821685e+00 
18200 4.7670401852e+00 -2.0668481760e-02 2.5559200940e+00 -4.4269834628e+00 2.5559200940e+00 4.4269834628e+00 
18300 4.7669708235e+00 -2.0641810668e-02 2.5563244303e+00 -4.4276837939e+00 2.5563244303e+00 4.4276837939e+00 
18400 4.7669030632e+00 -2.0613679029e-02 2.5567281809e+00 -4.4283831105e+00 2.5567281809e+00 4.4283831105e+00 
18500 4.7668368606e+00 -2.0584145418e-02 2.5571313177e+00 -4.4290813638e+00 2.5571313177e+00 4.4290813638e+00 
18600 4.7667721736e+00 -2.0553266484e-02 2.5575338133e+00 -4.4297785068e+00 2.5575338133e+00 4.4297785068e+00 
18700 4.7667089612e+00 -2.0521097009e-02 2.5579356419e+00 -4.4304744943e+00 2.5579356419e+00 4.4304744943e+00 
18800 4.7666471838e+00 -2.0487689964e-02 2.5583367786e+00 -4.4311692833e+00 2.5583367786e+00 4.4311692833e+00 
18900 4.7665868029e+00 -2.0453096563e-02 2.5587371993e+00 -4.4318628325e+00 2.5587371993e+00 4.4318628325e+00 
19000 4.7665277811e+00 -2.0417366320e-02 2.5591368814e+00 -4.4325551022e+00 2.5591368814e+00 4.4325551022e+00 
19100 4.7664700823e+00 -2.0380547099e-02 2.5595358030e+00 -4.4332460546e+00 2.5595358030e+00 4.4332460546e+00 
19200 4.7664136713e+00 -2.0342685165e-02 2.5599339431e+00 -4.4339356534e+00 2.5599339431e+00 4.4339356534e+00 
19300 4.7663585142e+00 -2.0303825235e-02 2.5603312816e+00 -4.4346238640e+00 2.5603312816e+00 4.4346238640e+00 
19400 4.7663045779e+00 -2.0264010525e-02 2.5607277997e+00 -4.4353106534e+00 2.5607277997e+00 4.4353106534e+00 
19500 4.7662518303e+00 -2.0223282797e-02 2.5611234788e+00 -4.4359959898e+00 2.5611234788e+00 4.4359959898e+00 
19600 4.7662002404e+00 -2.0181682403e-02 2.5615183017e+00 -4.4366798430e+00 2.5615183017e+00 4.4366798430e+00 
19700 4.7661497781e+00 -2.0139248333e-02 2.5619122516e+00 -4.4373621843e+00 2.5619122516e+00 4.4373621843e+00 
19800 4.7661004140e+00 -2.0096018254e-02 2.5623053128e+00 -4.4380429862e+00 2.5623053128e+00 4.4380429862e+00 
19900 4.7660521197e+00 -2.0052028555e-02 2.5626974700e+00 -4.4387222225e+00 2.5626974700e+00 4.4387222225e+00 
20000 4.7660048678e+00 -2.0007314386e-02 2.5630887089e+00 -4.4393998681e+00 2.5630887089e+00 4.4393998681e+00 
20100 4.7659586315e+00 -1.9961909696e-02 2.5634790157e+00 -4.4400758994e+00 2.5634790157e+00 4.4400758994e+00 
20200 4.7659133847e+00 -1.9915847277e-02 2.5638683775e+00 -4.4407502938e+00 2.5638683775e+00 4.4407502938e+00 
20300 4.7658691023e+00 -1.9869158791e-02 2.5642567818e+00 -4.4414230298e+00 2.5642567818e+00 4.4414230298e+00 
20400 4.7658257599e+00 -1.9821874819e-02 2.5646442169e+00 -4.4420940870e+00 2.5646442169e+00 4.4420940870e+00 
20500 4.7657833336e+00 -1.9774024884e-02 2.5650306715e+00 -4.4427634460e+00 2.5650306715e+00 4.4427634460e+00 
20600 4.7657418005e+00 -1.9725637495e-02 2.5654161351e+00 -4.4434310886e+00 2.5654161351e+00 4.4434310886e+00 
20700 4.7657011380e+00 -1.9676740171e-02 2.5658005977e+00 -4.4440969973e+00 2.5658005977e+00 4.4440969973e+00 
20800 4.7656613244e+00 -1.9627359481e-02 2.5661840498e+00 -4.4447611557e+00 2.5661840498e+00 4.4447611557e+00 
20900 4.7656223386e+00 -1.9577521070e-02 2.5665664823e+00 -4.4454235484e+00 2.5665664823e+00 4.4454235484e+00 
21000 4.7655841601e+00 -1.9527249692e-02 2.5669478869e+00 -4.4460841605e+00 2.5669478869e+00 4.4460841605e+00 
21100 4.7655467689e+00 -1.9476569237e-02 2.5673282556e+00 -4.4467429784e+00 2.5673282556e+00 4.4467429784e+00 
21200 4.7655101457e+00 -1.9425502761e-02 2.5677075809e+00 -4.4473999890e+00 2.5677075809e+00 4.4473999890e+00 
21300 4.7654742715e+00 -1.9374072512e-02 2.5680858556e+00 -4.4480551802e+00 2.5680858556e+00 4.4480551802e+00 
21400 4.7654391281e+00 -1.9322299958e-02 2.5684630733e+00 -4.4487085403e+00 2.5684630733e+00 4.4487085403e+00 
21500 4.7654046977e+00 -1.9270205815e-02 2.5688392276e+00 -4.4493600588e+00 2.5688392276e+00 4.4493600588e+00 
21600 4.7653709629e+00 -1.9217810065e-02 2.5692143129e+00 -4.4500097255e+00 2.5692143129e+00 4.4500097255e+00 
21700 4.7653379071e+00 -1.9165131987e-02 2.5695883237e+00 -4.4506575311e+00 2.5695883237e+00 4.4506575311e+00 
21800 4.7653055138e+00 -1.9112190179e-02 2.5699612549e+00 -4.4513034670e+00 2.5699612549e+00 4.4513034670e+00 
21900 4.7652737672e+00 -1.9059002579e-02 2.5703331020e+00 -4.4519475250e+00 2.5703331020e+00 4.4519475250e+00 
22000 4.7652426517e+00 -1.9005586487e-02 2.5707038606e+00 -4.4525896977e+00 2.5707038606e+00 4.4525896977e+00 
22100 4.7652121524e+00 -1.8951958590e-02 2.5710735267e+00 -4.4532299782e+00 2.5710735267e+00 4.4532299782e+00 
22200 4.7651822546e+00 -1.8898134977e-02 2.5714420967e+00 -4.4538683602e+00 2.5714420967e+00 4.4538683602e+00 
22300 4.7651529442e+00 -1.8844131164e-02 2.5718095672e+00 -4.4545048378e+00 2.5718095672e+00 4.4545048378e+00 
22400 4.7651242072e+00 -1.8789962110e-02 2.5721759353e+00 -4.4551394059e+00 2.5721759353e+00 4.4551394059e+00 
22500 4.7650960302e+00 -1.8735642238e-02 2.5725411982e+00 -4.4557720598e+00 2.5725411982e+00 4.4557720598e+00 
22600 4.7650684001e+00 -1.8681185452e-02 2.5729053533e+00 -4.4564027951e+00 2.5729053533e+00 4.4564027951e+00 
22700 4.7650413042e+00 -1.8626605155e-02 2.5732683987e+00 -4.4570316080e+00 2.5732683987e+00 4.4570316080e+00 
22800 4.7650147300e+00 -1.8571914264e-02 2.5736303322e+00 -4.4576584952e+00 2.5736303322e+00 4.4576584952e+00 
22900 4.7649886655e+00 -1.8517125231e-02 2.5739911522e+00 -4.4582834539e+00 2.5739911522e+00 4.4582834539e+00 
23000 4.7649630989e+00 -1.8462250053e-02 2.5743508573e+00 -4.4589064814e+00 2.5743508573e+00 4.4589064814e+00 
23100 4.7649380187e+00 -1.8407300293e-02 2.5747094464e+00 -4.4595275758e+00 2.5747094464e+00 4.4595275758e+00 
23200 4.7649134139e+00 -1.8352287090e-02 2.5750669183e+00 -4.4601467353e+00 2.5750669183e+00 4.4601467353e+00 
23300 4.7648892735e+00 -1.8297221176e-02 2.5754232723e+00 -4.4607639586e+00 2.5754232723e+00 4.4607639586e+00 
23400 4.7648655870e+00 -1.8242112890e-02 2.5757785079e+00 -4.4613792448e+00 2.5757785079e+00 4.4613792448e+00 
23500 4.7648423441e+00 -1.8186972191e-02 2.5761326248e+00 -4.4619925932e+00 2.5761326248e+00 4.4619925932e+00 
23600 4.7648195348e+00 -1.8131808670e-02 2.5764856227e+00 -4.4626040034e+00 2.5764856227e+00 4.4626040034e+00 
23700 4.7647971492e+00 -1.8076631563e-02 2.5768375016e+00 -4.4632134757e+00 2.5768375016e+00 4.4632134757e+00 
23800 4.7647751780e+00 -1.8021449765e-02 2.5771882618e+00 -4.4638210102e+00 2.5771882618e+00 4.4638210102e+00 
23900 4.7647536117e+00 -1.7966271839e-02 2.5775379037e+00 -4.4644266076e+00 2.5775379037e+00 4.4644266076e+00 
24000 4.7647324414e+00 -1.7911106027e-02 2.5778864277e+00 -4.4650302689e+00 2.5778864277e+00 4.4650302689e+00 
24100 4.7647116583e+00 -1.7855960265e-02 2.5782338345e+00 -4.4656319952e+00 2.5782338345e+00 4.4656319952e+00 
24200 4.7646912537e+00 -1.7800842189e-02 2.5785801251e+00 -4.4662317880e+00 2.5785801251e+00 4.4662317880e+00 
24300 4.7646712194e+00 -1.7745759148e-02 2.5789253003e+00 -4.4668296490e+00 2.5789253003e+00 4.4668296490e+00 
24400 4.7646515471e+00 -1.7690718213e-02 2.5792693613e+00 -4.4674255802e+00 2.5792693613e+00 4.4674255802e+00 
24500 4.7646322289e+00 -1.7635726186e-02 2.5796123094e+00 -4.4680195837e+00 2.5796123094e+00 4.4680195837e+00 
24600 4.7646132571e+00 -1.7580789609e-02 2.5799541460e+00 -4.4686116620e+00 2.5799541460e+00 4.4686116620e+00 
24700 4.7645946241e+00 -1.7525914776e-02 2.5802948725e+00 -4.4692018177e+00 2.5802948725e+00 4.4692018177e+00 
24800 4.7645763225e+00 -1.7471107735e-02 2.5806344907e+00 -4.4697900536e+00 2.5806344907e+00 4.4697900536e+00 
24900 4.7645583451e+00 -1.7416374304e-02 2.5809730022e+00 -4.4703763727e+00 2.5809730022e+00 4.4703763727e+00 
25000 4.7645406850e+00 -1.7361720075e-02 2.5813104089e+00 -4.4709607783e+00 2.5813104089e+00 4.4709607783e+00 
25100 4.7645233353e+00 -1.7307150419e-02 2.5816467128e+00 -4.4715432738e+00 2.5816467128e+00 4.4715432738e+00 
25200 4.7645062893e+00 -1.7252670501e-02 2.5819819160e+00 -4.4721238628e+00 2.5819819160e+00 4.4721238628e+00 
25300 4.7644895405e+00 -1.7198285278e-02 2.5823160207e+00 -4.4727025490e+00 2.5823160207e+00 4.4727025490e+00 
25400 4.7644730826e+00 -1.7143999516e-02 2.5826490290e+00 -4.4732793364e+00 2.5826490290e+00 4.4732793364e+00 
25500 4.7644569094e+00 -1.7089817787e-02 2.5829809434e+00 -4.4738542289e+00 2.5829809434e+00 4.4738542289e+00 
25600 4.7644410148e+00 -1.7035744481e-02 2.5833117662e+00 -4.4744272309e+00 2.5833117662e+00 4.4744272309e+00 
25700 4.7644253930e+00 -1.6981783812e-02 2.5836415001e+00 -4.4749983467e+00 2.5836415001e+00 4.4749983467e+00 
25800 4.7644100381e+00 -1.6927939824e-02 2.5839701475e+00 -4.4755675808e+00 2.5839701475e+00 4.4755675808e+00 
25900 4.7643949446e+00 -1.6874216394e-02 2.5842977113e+00 -4.4761349378e+00 2.5842977113e+00 4.4761349378e+00 
26000 4.7643801070e+00 -1.6820617240e-02 2.5846241940e+00 -4.4767004225e+00 2.5846241940e+00 4.4767004225e+00 
26100 4.7643655200e+00 -1.6767145927e-02 2.5849495986e+00 -4.4772640397e+00 2.5849495986e+00 4.4772640397e+00 
26200 4.7643511782e+00 -1.6713805871e-02 2.5852739278e+00 -4.4778257945e+00 2.5852739278e+00 4.4778257945e+00 
26300 4.7643370767e+00 -1.6660600345e-02 2.5855971848e+00 -4.4783856919e+00 2.5855971848e+00 4.4783856919e+00 
26400 4.7643232104e+00 -1.6607532482e-02 2.5859193723e+00 -4.4789437372e+00 2.5859193723e+00 4.4789437372e+00 
26500 4.7643095745e+00 -1.6554605283e-02 2.5862404936e+00 -4.4794999356e+00 2.5862404936e+00 4.4794999356e+00 
26600 4.7642961642e+00 -1.6501821616e-02 2.5865605518e+00 -4.4800542926e+00 2.5865605518e+00 4.4800542926e+00 
26700 4.7642829750e+00 -1.6449184228e-02 2.5868795499e+00 -4.4806068136e+00 2.5868795499e+00 4.4806068136e+00 
26800 4.7642700021e+00 -1.6396695744e-02 2.5871974913e+00 -4.4811575042e+00 2.5871974913e+00 4.4811575042e+00 
26900 4.7642572413e+00 -1.6344358671e-02 2.5875143792e+00 -4.4817063701e+00 2.5875143792e+00 4.4817063701e+00 
27000 4.7642446883e+00 -1.6292175404e-02 2.5878302169e+00 -4.4822534170e+00 2.5878302169e+00 4.4822534170e+00 
27100 4.7642323387e+00 -1.6240148230e-02 2.5881450077e+00 -4.4827986508e+00 2.5881450077e+00 4.4827986508e+00 
27200 4.7642201885e+00 -1.6188279331e-02 2.5884587552e+00 -4.4833420772e+00 2.5884587552e+00 4.4833420772e+00 
27300 4.7642082337e+00 -1.6136570786e-02 2.5887714626e+00 -4.4838837024e+00 2.5887714626e+00 4.4838837024e+00 
27400 4.7641964703e+00 -1.6085024577e-02 2.5890831335e+00 -4.4844235322e+00 2.5890831335e+00 4.4844235322e+00 
27500 4.7641848945e+00 -1.6033642590e-02 2.5893937714e+00 -4.4849615728e+00 2.5893937714e+00 4.4849615728e+00 
27600 4.7641735026e+00 -1.5982426620e-02 2.5897033798e+00 -4.4854978303e+00 2.5897033798e+00 4.4854978303e+00 
27700 4.7641622907e+00 -1.5931378375e-02 2.5900119623e+00 -4.4860323109e+00 2.5900119623e+00 4.4860323109e+00 
27800 4.7641512555e+00 -1.5880499475e-02 2.5903195225e+00 -4.4865650209e+00 2.5903195225e+00 4.4865650209e+00 
27900 4.7641403933e+00 -1.5829791459e-02 2.5906260641e+00 -4.4870959665e+00 2.5906260641e+00 4.4870959665e+00 
28000 4.7641297008e+00 -1.5779255786e-02 2.5909315907e+00 -4.4876251540e+00 2.5909315907e+00 4.4876251540e+00 
28100 4.7641191745e+00 -1.5728893837e-02 2.5912361060e+00 -4.4881525899e+00 2.5912361060e+00 4.4881525899e+00 
28200 4.7641088113e+00 -1.5678706919e-02 2.5915396136e+00 -4.4886782807e+00 2.5915396136e+00 4.4886782807e+00 
28300 4.7640986080e+00 -1.5628696268e-02 2.5918421174e+00 -4.4892022326e+00 2.5918421174e+00 4.4892022326e+00 
28400 4.7640885613e+00 -1.5578863048e-02 2.5921436211e+00 -4.4897244523e+00 2.5921436211e+00 4.4897244523e+00 
28500 4.7640786682e+00 -1.5529208359e-02 2.5924441285e+00 -4.4902449463e+00 2.5924441285e+00 4.4902449463e+00 
28600 4.7640689258e+00 -1.5479733233e-02 2.5927436433e+00 -4.4907637212e+00 2.5927436433e+00 4.4907637212e+00 
28700 4.7640593312e+00 -1.5430438641e-02 2.5930421693e+00 -4.4912807834e+00 2.5930421693e+00 4.4912807834e+00 
28800 4.7640498814e+00 -1.5381325494e-02 2.5933397104e+00 -4.4917961398e+00 2.5933397104e+00 4.4917961398e+00 
28900 4.7640405737e+00 -1.5332394642e-02 2.5936362705e+00 -4.4923097968e+00 2.5936362705e+00 4.4923097968e+00 
29000 4.7640314054e+00 -1.5283646880e-02 2.5939318533e+00 -4.4928217613e+00 2.5939318533e+00 4.4928217613e+00 
29100 4.7640223737e+00 -1.5235082948e-02 2.5942264627e+00 -4.4933320398e+00 2.5942264627e+00 4.4933320398e+00 
29200 4.7640134761e+00 -1.5186703533e-02 2.5945201027e+00 -4.4938406391e+00 2.5945201027e+00 4.4938406391e+00 
29300 4.7640047100e+00 -1.5138509272e-02 2.5948127770e+00 -4.4943475659e+00 2.5948127770e+00 4.4943475659e+00 
29400 4.7639960729e+00 -1.5090500750e-02 2.5951044896e+00 -4.4948528270e+00 2.5951044896e+00 4.4948528270e+00 
29500 4.7639875624e+00 -1.5042678508e-02 2.5953952445e+00 -4.4953564291e+00 2.5953952445e+00 4.4953564291e+00 
29600 4.7639791761e+00 -1.4995043038e-02 2.5956850454e+00 -4.4958583790e+00 2.5956850454e+00 4.4958583790e+00 
29700 4.7639709116e+00 -1.4947594788e-02 2.5959738963e+00 -4.4963586835e+00 2.5959738963e+00 4.4963586835e+00 
29800 4.7639627666e+00 -1.4900334164e-02 2.5962618012e+00 -4.4968573494e+00 2.5962618012e+00 4.4968573494e+00 
29900 4.7639547389e+00 -1.4853261529e-02 2.5965487639e+00 -4.4973543835e+00 2.5965487639e+00 4.4973543835e+00 
30000 4.7639468264e+00 -1.4806377208e-02 2.5968347885e+00 -4.4978497925e+00 2.5968347885e+00 4.4978497925e+00 
30100 4.7639390268e+00 -1.4759681484e-02 2.5971198788e+00 -4.4983435834e+00 2.5971198788e+00 4.4983435834e+00 
30200 4.7639313381e+00 -1.4713174606e-02 2.5974040388e+00 -4.4988357629e+00 2.5974040388e+00 4.4988357629e+00 
30300 4.7639237582e+00 -1.4666856784e-02 2.5976872724e+00 -4.4993263379e+00 2.5976872724e+00 4.4993263379e+00 
30400 4.7639162851e+00 -1.4620728195e-02 2.5979695835e+00 -4.4998153152e+00 2.5979695835e+00 4.4998153152e+00 
30500 4.7639089169e+00 -1.4574788981e-02 2.5982509762e+00 -4.5003027016e+00 2.5982509762e+00 4.5003027016e+00 
30600 4.7639016515e+00 -1.4529039251e-02 2.5985314543e+00 -4.5007885040e+00 2.5985314543e+00 4.5007885040e+00 
30700 4.7638944872e+00 -1.4483479084e-02 2.5988110219e+00 -4.5012727291e+00 2.5988110219e+00 4.5012727291e+00 
30800 4.7638874221e+00 -1.4438108527e-02 2.5990896827e+00 -4.5017553839e+00 2.5990896827e+00 4.5017553839e+00 
30900 4.7638804544e+00 -1.4392927599e-02 2.5993674408e+00 -4.5022364751e+00 2.5993674408e+00 4.5022364751e+00 
31000 4.7638735822e+00 -1.4347936290e-02 2.5996443002e+00 -4.5027160095e+00 2.5996443002e+00 4.5027160095e+00 
31100 4.7638668040e+00 -1.4303134561e-02 2.5999202647e+00 -4.5031939940e+00 2.5999202647e+00 4.5031939940e+00 
31200 4.7638601179e+00 -1.4258522348e-02 2.6001953382e+00 -4.5036704354e+00 2.6001953382e+00 4.5036704354e+00 
31300 4.7638535224e+00 -1.4214099563e-02 2.6004695248e+00 -4.5041453405e+00 2.6004695248e+00 4.5041453405e+00 
31400 4.7638470158e+00 -1.4169866090e-02 2.6007428283e+00 -4.5046187160e+00 2.6007428283e+00 4.5046187160e+00 
31500 4.7638405965e+00 -1.4125821791e-02 2.6010152526e+00 -4.5050905688e+00 2.6010152526e+00 4.5050905688e+00 
31600 4.7638342630e+00 -1.4081966505e-02 2.6012868018e+00 -4.5055609057e+00 2.6012868018e+00 4.5055609057e+00 
31700 4.7638280137e+00 -1.4038300049e-02 2.6015574795e+00 -4.5060297334e+00 2.6015574795e+00 4.5060297334e+00 
31800 4.7638218471e+00 -1.3994822217e-02 2.6018272899e+00 -4.5064970586e+00 2.6018272899e+00 4.5064970586e+00 
31900 4.7638157618e+00 -1.3951532783e-02 2.6020962367e+00 -4.5069628882e+00 2.6020962367e+00 4.5069628882e+00 
32000 4.7638097564e+00 -1.3908431502e-02 2.6023643239e+00 -4.5074272288e+00 2.6023643239e+00 4.5074272288e+00 
32100 4.7638038294e+00 -1.3865518110e-02 2.6026315553e+00 -4.5078900871e+00 2.6026315553e+00 4.5078900871e+00 
32200 4.7637979794e+00 -1.3822792322e-02 2.6028979348e+00 -4.5083514700e+00 2.6028979348e+00 4.5083514700e+00 
32300 4.7637922052e+00 -1.3780253836e-02 2.6031634663e+00 -4.5088113840e+00 2.6031634663e+00 4.5088113840e+00 
32400 4.7637865054e+00 -1.3737902335e-02 2.6034281536e+00 -4.5092698359e+00 2.6034281536e+00 4.5092698359e+00 
32500 4.7637808787e+00 -1.3695737483e-02 2.6036920006e+00 -4.5097268323e+00 2.6036920006e+00 4.5097268323e+00 
32600 4.7637753238e+00 -1.3653758928e-02 2.6039550111e+00 -4.5101823799e+00 2.6039550111e+00 4.5101823799e+00 
32700 4.7637698395e+00 -1.3611966302e-02 2.6042171890e+00 -4.5106364853e+00 2.6042171890e+00 4.5106364853e+00 
32800 4.7637644246e+00 -1.3570359225e-02 2.6044785381e+00 -4.5110891552e+00 2.6044785381e+00 4.5110891552e+00 
32900 4.7637590779e+00 -1.3528937300e-02 2.6047390621e+00 -4.5115403960e+00 2.6047390621e+00 4.5115403960e+00 
33000 4.7637537983e+00 -1.3487700116e-02 2.6049987649e+00 -4.5119902145e+00 2.6049987649e+00 4.5119902145e+00 
33100 4.7637485845e+00 -1.3446647250e-02 2.6052576503e+00 -4.5124386172e+00 2.6052576503e+00 4.5124386172e+00 
33200 4.7637434355e+00 -1.3405778265e-02 2.6055157221e+00 -4.5128856106e+00 2.6055157221e+00 4.5128856106e+00 
33300 4.7637383501e+00 -1.3365092712e-02 2.6057729840e+00 -4.5133312013e+00 2.6057729840e+00 4.5133312013e+00 
33400 4.7637333273e+00 -1.3324590132e-02 2.6060294398e+00 -4.5137753958e+00 2.6060294398e+00 4.5137753958e+00 
33500 4.7637283660e+00 -1.3284270050e-02 2.6062850933e+00 -4.5142182005e+00 2.6062850933e+00 4.5142182005e+00 
33600 4.7637234653e+00 -1.3244131985e-02 2.6065399481e+00 -4.5146596221e+00 2.6065399481e+00 4.5146596221e+00 
33700 4.7637186240e+00 -1.3204175443e-02 2.6067940080e+00 -4.5150996668e+00 2.6067940080e+00 4.5150996668e+00 
33800 4.7637138412e+00 -1.3164399918e-02 2.6070472768e+00 -4.5155383411e+00 2.6070472768e+00 4.5155383411e+00 
33900 4.7637091159e+00 -1.3124804898e-02 2.6072997580e+00 -4.5159756515e+00 2.6072997580e+00 4.5159756515e+00 
34000 4.7637044472e+00 -1.3085389858e-02 2.6075514555e+00 -4.5164116043e+00 2.6075514555e+00 4.5164116043e+00 
34100 4.7636998340e+00 -1.3046154267e-02 2.6078023729e+00 -4.5168462060e+00 2.6078023729e+00 4.5168462060e+00 
34200 4.7636952756e+00 -1.3007097584e-02 2.6080525139e+00 -4.5172794628e+00 2.6080525139e+00 4.5172794628e+00 
34300 4.7636907710e+00 -1.2968219259e-02 2.6083018820e+00 -4.5177113811e+00 2.6083018820e+00 4.5177113811e+00 
34400 4.7636863192e+00 -1.2929518735e-02 2.6085504810e+00 -4.5181419672e+00 2.6085504810e+00 4.5181419672e+00 
34500 4.7636819195e+00 -1.2890995446e-02 2.6087983145e+00 -4.5185712274e+00 2.6087983145e+00 4.5185712274e+00 
34600 4.7636775710e+00 -1.2852648822e-02 2.6090453861e+00 -4.5189991680e+00 2.6090453861e+00 4.5189991680e+00 
34700 4.7636732729e+00 -1.2814478281e-02 2.6092916994e+00 -4.5194257951e+00 2.6092916994e+00 4.5194257951e+00 
34800 4.7636690243e+00 -1.2776483238e-02 2.6095372580e+00 -4.5198511150e+00 2.6095372580e+00 4.5198511150e+00 
34900 4.7636648245e+00 -1.2738663101e-02 2.6097820654e+00 -4.5202751340e+00 2.6097820654e+00 4.5202751340e+00 
35000 4.7636606726e+00 -1.2701017271e-02 2.6100261253e+00 -4.5206978581e+00 2.6100261253e+00 4.5206978581e+00 
35100 4.7636565678e+00 -1.2663545142e-02 2.6102694411e+00 -4.5211192935e+00 2.6102694411e+00 4.5211192935e+00 
35200 4.7636525095e+00 -1.2626246106e-02 2.6105120165e+00 -4.5215394464e+00 2.6105120165e+00 4.5215394464e+00 
35300 4.7636484969e+00 -1.2589119547e-02 2.6107538549e+00 -4.5219583228e+00 2.6107538549e+00 4.5219583228e+00 
35400 4.7636445292e+00 -1.2552164843e-02 2.6109949599e+00 -4.5223759288e+00 2.6109949599e+00 4.5223759288e+00 
35500 4.7636406058e+00 -1.2515381370e-02 2.6112353348e+00 -4.5227922705e+00 2.6112353348e+00 4.5227922705e+00 
35600 4.7636367259e+00 -1.2478768497e-02 2.6114749833e+00 -4.5232073538e+00 2.6114749833e+00 4.5232073538e+00 
35700 4.7636328888e+00 -1.2442325590e-02 2.6117139088e+00 -4.5236211849e+00 2.6117139088e+00 4.5236211849e+00 
35800 4.7636290939e+00 -1.2406052010e-02 2.6119521148e+00 -4.5240337697e+00 2.6119521148e+00 4.5240337697e+00 
35900 4.7636253405e+00 -1.2369947114e-02 2.6121896046e+00 -4.5244451141e+00 2.6121896046e+00 4.5244451141e+00 
36000 4.7636216279e+00 -1.2334010257e-02 2.6124263817e+00 -4.5248552241e+00 2.6124263817e+00 4.5248552241e+00 
36100 4.7636179556e+00 -1.2298240788e-02 2.6126624495e+00 -4.5252641055e+00 2.6126624495e+00 4.5252641055e+00 
36200 4.7636143229e+00 -1.2262638054e-02 2.6128978114e+00 -4.5256717644e+00 2.6128978114e+00 4.5256717644e+00 
36300 4.7636107291e+00 -1.2227201399e-02 2.6131324708e+00 -4.5260782064e+00 2.6131324708e+00 4.5260782064e+00 
36400 4.7636071737e+00 -1.2191930163e-02 2.6133664311e+00 -4.5264834375e+00 2.6133664311e+00 4.5264834375e+00 
36500 4.7636036561e+00 -1.2156823685e-02 2.6135996956e+00 -4.5268874634e+00 2.6135996956e+00 4.5268874634e+00 
36600 4.7636001756e+00 -1.2121881298e-02 2.6138322676e+00 -4.5272902900e+00 2.6138322676e+00 4.5272902900e+00 
36700 4.7635967318e+00 -1.2087102337e-02 2.6140641505e+00 -4.5276919230e+00 2.6140641505e+00 4.5276919230e+00 
36800 4.7635933240e+00 -1.2052486131e-02 2.6142953476e+00 -4.5280923681e+00 2.6142953476e+00 4.5280923681e+00 
36900 4.7635899518e+00 -1.2018032009e-02 2.6145258622e+00 -4.5284916310e+00 2.6145258622e+00 4.5284916310e+00 
37000 4.7635866145e+00 -1.1983739298e-02 2.6147556975e+00 -4.5288897175e+00 2.6147556975e+00 4.5288897175e+00 
37100 4.7635833117e+00 -1.1949607322e-02 2.6149848569e+00 -4.5292866331e+00 2.6149848569e+00 4.5292866331e+00 
37200 4.7635800427e+00 -1.1915635404e-02 2.6152133435e+00 -4.5296823836e+00 2.6152133435e+00 4.5296823836e+00 
37300 4.7635768072e+00 -1.1881822865e-02 2.6154411606e+00 -4.5300769744e+00 2.6154411606e+00 4.5300769744e+00 
37400 4.7635736045e+00 -1.1848169025e-02 2.6156683115e+00 -4.5304704113e+00 2.6156683115e+00 4.5304704113e+00 
37500 4.7635704343e+00 -1.1814673203e-02 2.6158947993e+00 -4.5308626997e+00 2.6158947993e+00 4.5308626997e+00 
37600 4.7635672960e+00 -1.1781334717e-02 2.6161206273e+00 -4.5312538452e+00 2.6161206273e+00 4.5312538452e+00 
37700 4.7635641891e+00 -1.1748152884e-02 2.6163457985e+00 -4.5316438532e+00 2.6163457985e+00 4.5316438532e+00 
37800 4.7635611132e+00 -1.1715127018e-02 2.6165703163e+00 -4.5320327294e+00 2.6165703163e+00 4.5320327294e+00 
37900 4.7635580678e+00 -1.1682256435e-02 2.6167941836e+00 -4.5324204790e+00 2.6167941836e+00 4.5324204790e+00 
38000 4.7635550525e+00 -1.1649540450e-02 2.6170174038e+00 -4.5328071076e+00 2.6170174038e+00 4.5328071076e+00 
38100 4.7635520668e+00 -1.1616978375e-02 2.6172399798e+00 -4.5331926206e+00 2.6172399798e+00 4.5331926206e+00 
38200 4.7635491103e+00 -1.1584569525e-02 2.6174619148e+00 -4.5335770232e+00 2.6174619148e+00 4.5335770232e+00 
38300 4.7635461825e+00 -1.1552313213e-02 2.6176832118e+00 -4.5339603210e+00 2.6176832118e+00 4.5339603210e+00 
38400 4.7635432831e+00 -1.1520208750e-02 2.6179038740e+00 -4.5343425192e+00 2.6179038740e+00 4.5343425192e+00 
38500 4.7635404115e+00 -1.1488255450e-02 2.6181239045e+00 -4.5347236230e+00 2.6181239045e+00 4.5347236230e+00 
38600 4.7635375675e+00 -1.1456452626e-02 2.6183433061e+00 -4.5351036379e+00 2.6183433061e+00 4.5351036379e+00 
38700 4.7635347506e+00 -1.1424799589e-02 2.6185620821e+00 -4.5354825690e+00 2.6185620821e+00 4.5354825690e+00 
38800 4.7635319604e+00 -1.1393295653e-02 2.6187802354e+00 -4.5358604216e+00 2.6187802354e+00 4.5358604216e+00 
38900 4.7635291966e+00 -1.1361940132e-02 2.6189977690e+00 -4.5362372008e+00 2.6189977690e+00 4.5362372008e+00 
39000 4.7635264587e+00 -1.1330732337e-02 2.6192146859e+00 -4.5366129119e+00 2.6192146859e+00 4.5366129119e+00 
39100 4.7635237464e+00 -1.1299671583e-02 2.6194309890e+00 -4.5369875599e+00 2.6194309890e+00 4.5369875599e+00 
39200 4.7635210593e+00 -1.1268757185e-02 2.6196466814e+00 -4.5373611501e+00 2.6196466814e+00 4.5373611501e+00 
39300 4.7635183971e+00 -1.1237988457e-02 2.6198617660e+00 -4.5377336875e+00 2.6198617660e+00 4.5377336875e+00 
39400 4.7635157593e+00 -1.1207364714e-02 2.6200762457e+00 -4.5381051772e+00 2.6200762457e+00 4.5381051772e+00 
39500 4.7635131458e+00 -1.1176885272e-02 2.6202901234e+00 -4.5384756242e+00 2.6202901234e+00 4.5384756242e+00 
39600 4.7635105560e+00 -1.1146549449e-02 2.6205034020e+00 -4.5388450336e+00 2.6205034020e+00 4.5388450336e+00 
39700 4.7635079897e+00 -1.1116356562e-02 2.6207160844e+00 -4.5392134104e+00 2.6207160844e+00 4.5392134104e+00 
39800 4.7635054466e+00 -1.1086305930e-02 2.6209281735e+00 -4.5395807595e+00 2.6209281735e+00 4.5395807595e+00 
39900 4.7635029263e+00 -1.1056396873e-02 2.6211396721e+00 -4.5399470859e+00 2.6211396721e+00 4.5399470859e+00 
40000 4.7635004285e+00 -1.1026628710e-02 2.6213505832e+00 -4.5403123945e+00 2.6213505832e+00 4.5403123945e+00 
40100 4.7634979528e+00 -1.0997000764e-02 2.6215609094e+00 -4.5406766902e+00 2.6215609094e+00 4.5406766902e+00 
40200 4.7634954991e+00 -1.0967512358e-02 2.6217706537e+00 -4.5410399780e+00 2.6217706537e+00 4.5410399780e+00 
40300 4.7634930669e+00 -1.0938162815e-02 2.6219798188e+00 -4.5414022625e+00 2.6219798188e+00 4.5414022625e+00 
40400 4.7634906560e+00 -1.0908951462e-02 2.6221884075e+00 -4.5417635488e+00 2.6221884075e+00 4.5417635488e+00 
40500 4.7634882661e+00 -1.0879877624e-02 2.6223964226e+00 -4.5421238415e+00 2.6223964226e+00 4.5421238415e+00 
40600 4.7634858969e+00 -1.0850940629e-02 2.6226038668e+00 -4.5424831455e+00 2.6226038668e+00 4.5424831455e+00 
40700 4.7634835481e+00 -1.0822139807e-02 2.6228107430e+00 -4.5428414655e+00 2.6228107430e+00 4.5428414655e+00 
40800 4.7634812194e+00 -1.0793474489e-02 2.6230170537e+00 -4.5431988062e+00 2.6230170537e+00 4.5431988062e+00 
40900 4.7634789106e+00 -1.0764944008e-02 2.6232228018e+00 -4.5435551723e+00 2.6232228018e+00 4.5435551723e+00 
41000 4.7634766213e+00 -1.0736547696e-02 2.6234279900e+00 -4.5439105686e+00 2.6234279900e+00 4.5439105686e+00 
41100 4.7634743514e+00 -1.0708284890e-02 2.6236326208e+00 -4.5442649997e+00 2.6236326208e+00 4.5442649997e+00 
41200 4.7634721006e+00 -1.0680154926e-02 2.6238366971e+00 -4.5446184702e+00 2.6238366971e+00 4.5446184702e+00 
41300 4.7634698685e+00 -1.0652157143e-02 2.6240402215e+00 -4.5449709847e+00 2.6240402215e+00 4.5449709847e+00 
41400 4.7634676550e+00 -1.0624290882e-02 2.6242431965e+00 -4.5453225478e+00 2.6242431965e+00 4.5453225478e+00 
41500 4.7634654598e+00 -1.0596555486e-02 2.6244456249e+00 -4.5456731641e+00 2.6244456249e+00 4.5456731641e+00 
41600 4.7634632827e+00 -1.0568950297e-02 2.6246475093e+00 -4.5460228381e+00 2.6246475093e+00 4.5460228381e+00 
41700 4.7634611233e+00 -1.0541474661e-02 2.6248488523e+00 -4.5463715743e+00 2.6248488523e+00 4.5463715743e+00 
41800 4.7634589816e+00 -1.0514127927e-02 2.6250496564e+00 -4.5467193772e+00 2.6250496564e+00 4.5467193772e+00 
41900 4.7634568571e+00 -1.0486909444e-02 2.6252499242e+00 -4.5470662514e+00 2.6252499242e+00 4.5470662514e+00 
42000 4.7634547498e+00 -1.0459818563e-02 2.6254496584e+00 -4.5474122011e+00 2.6254496584e+00 4.5474122011e+00 
42100 4.7634526594e+00 -1.0432854638e-02 2.6256488615e+00 -4.5477572309e+00 2.6256488615e+00 4.5477572309e+00 
42200 4.7634505857e+00 -1.0406017024e-02 2.6258475359e+00 -4.5481013451e+00 2.6258475359e+00 4.5481013451e+00 
42300 4.7634485284e+00 -1.0379305078e-02 2.6260456843e+00 -4.5484445481e+00 2.6260456843e+00 4.5484445481e+00 
42400 4.7634464873e+00 -1.0352718159e-02 2.6262433091e+00 -4.5487868443e+00 2.6262433091e+00 4.5487868443e+00 
42500 4.7634444622e+00 -1.0326255630e-02 2.6264404128e+00 -4.5491282380e+00 2.6264404128e+00 4.5491282380e+00 
42600 4.7634424530e+00 -1.0299916853e-02 2.6266369980e+00 -4.5494687335e+00 2.6266369980e+00 4.5494687335e+00 
42700 4.7634404593e+00 -1.0273701194e-02 2.6268330670e+00 -4.5498083351e+00 2.6268330670e+00 4.5498083351e+00 
42800 4.7634384811e+00 -1.0247608020e-02 2.6270286224e+00 -4.5501470470e+00 2.6270286224e+00 4.5501470470e+00 
42900 4.7634365181e+00 -1.0221636702e-02 2.6272236667e+00 -4.5504848735e+00 2.6272236667e+00 4.5504848735e+00 
43000 4.7634345700e+00 -1.0195786612e-02 2.6274182021e+00 -4.5508218188e+00 2.6274182021e+00 4.5508218188e+00 
43100 4.7634326368e+00 -1.0170057123e-02 2.6276122312e+00 -4.5511578871e+00 2.6276122312e+00 4.5511578871e+00 
43200 4.7634307182e+00 -1.0144447612e-02 2.6278057564e+00 -4.5514930825e+00 2.6278057564e+00 4.5514930825e+00 
43300 4.7634288141e+00 -1.0118957457e-02 2.6279987800e+00 -4.5518274092e+00 2.6279987800e+00 4.5518274092e+00 
43400 4.7634269242e+00 -1.0093586039e-02 2.6281913045e+00 -4.5521608713e+00 2.6281913045e+00 4.5521608713e+00 
43500 4.7634250484e+00 -1.0068332742e-02 2.6283833321e+00 -4.5524934730e+00 2.6283833321e+00 4.5524934730e+00 
43600 4.7634231864e+00 -1.0043196951e-02 2.6285748654e+00 -4.5528252183e+00 2.6285748654e+00 4.5528252183e+00 
43700 4.7634213382e+00 -1.0018178053e-02 2.6287659065e+00 -4.5531561113e+00 2.6287659065e+00 4.5531561113e+00 
43800 4.7634195036e+00 -9.9932754373e-03 2.6289564579e+00 -4.5534861559e+00 2.6289564579e+00 4.5534861559e+00 
43900 4.7634176823e+00 -9.9684884975e-03 2.6291465218e+00 -4.5538153563e+00 2.6291465218e+00 4.5538153563e+00 
44000 4.7634158742e+00 -9.9438166274e-03 2.6293361006e+00 -4.5541437164e+00 2.6293361006e+00 4.5541437164e+00 
44100 4.7634140792e+00 -9.9192592241e-03 2.6295251965e+00 -4.5544712402e+00 2.6295251965e+00 4.5544712402e+00 
44200 4.7634122970e+00 -9.8948156867e-03 2.6297138119e+00 -4.5547979316e+00 2.6297138119e+00 4.5547979316e+00 
44300 4.7634105276e+00 -9.8704854168e-03 2.6299019490e+00 -4.5551237946e+00 2.6299019490e+00 4.5551237946e+00 
44400 4.7634087707e+00 -9.8462678184e-03 2.6300896100e+00 -4.5554488330e+00 2.6300896100e+00 4.5554488330e+00 
44500 4.7634070263e+00 -9.8221622977e-03 2.6302767973e+00 -4.5557730509e+00 2.6302767973e+00 4.5557730509e+00 
44600 4.7634052941e+00 -9.7981682635e-03 2.6304635130e+00 -4.5560964519e+00 2.6304635130e+00 4.5560964519e+00 
44700 4.7634035740e+00 -9.7742851269e-03 2.6306497593e+00 -4.5564190400e+00 2.6306497593e+00 4.5564190400e+00 
44800 4.7634018659e+00 -9.7505123015e-03 2.6308355385e+00 -4.5567408190e+00 2.6308355385e+00 4.5567408190e+00 
44900 4.7634001695e+00 -9.7268492031e-03 2.6310208528e+00 -4.5570617928e+00 2.6310208528e+00 4.5570617928e+00 
45000 4.7633984849e+00 -9.7032952501e-03 2.6312057043e+00 -4.5573819649e+00 2.6312057043e+00 4.5573819649e+00 
45100 4.7633968117e+00 -9.6798498633e-03 2.6313900952e+00 -4.5577013394e+00 2.6313900952e+00 4.5577013394e+00 
45200 4.7633951500e+00 -9.6565124660e-03 2.6315740277e+00 -4.5580199198e+00 2.6315740277e+00 4.5580199198e+00 
45300 4.7633934995e+00 -9.6332824837e-03 2.6317575039e+00 -4.5583377099e+00 2.6317575039e+00 4.5583377099e+00 
45400 4.7633918601e+00 -9.6101593447e-03 2.6319405260e+00 -4.5586547134e+00 2.6319405260e+00 4.5586547134e+00 
45500 4.7633902317e+00 -9.5871424794e-03 2.6321230960e+00 -4.5589709341e+00 2.6321230960e+00 4.5589709341e+00 
45600 4.7633886141e+00 -9.5642313209e-03 2.6323052162e+00 -4.5592863754e+00 2.6323052162e+00 4.5592863754e+00 
45700 4.7633870073e+00 -9.5414253047e-03 2.6324868885e+00 -4.5596010411e+00 2.6324868885e+00 4.5596010411e+00 
45800 4.7633854110e+00 -9.5187238686e-03 2.6326681151e+00 -4.5599149349e+00 2.6326681151e+00 4.5599149349e+00 
45900 4.7633838252e+00 -9.4961264532e-03 2.6328488981e+00 -4.5602280602e+00 2.6328488981e+00 4.5602280602e+00 
46000 4.7633822498e+00 -9.4736325012e-03 2.6330292396e+00 -4.5605404207e+00 2.6330292396e+00 4.5605404207e+00 
46100 4.7633806845e+00 -9.4512414581e-03 2.6332091415e+00 -4.5608520200e+00 2.6332091415e+00 4.5608520200e+00 
46200 4.7633791294e+00 -9.4289527716e-03 2.6333886059e+00 -4.5611628616e+00 2.6333886059e+00 4.5611628616e+00 
46300 4.7633775842e+00 -9.4067658920e-03 2.6335676350e+00 -4.5614729489e+00 2.6335676350e+00 4.5614729489e+00 
46400 4.7633760489e+00 -9.3846802722e-03 2.6337462306e+00 -4.5617822856e+00 2.6337462306e+00 4.5617822856e+00 
46500 4.7633745234e+00 -9.3626953673e-03 2.6339243948e+00 -4.5620908750e+00 2.6339243948e+00 4.5620908750e+00 
46600 4.7633730075e+00 -9.3408106350e-03 2.6341021296e+00 -4.5623987208e+00 2.6341021296e+00 4.5623987208e+00 
46700 4.7633715011e+00 -9.3190255357e-03 2.6342794370e+00 -4.5627058262e+00 2.6342794370e+00 4.5627058262e+00 
46800 4.7633700041e+00 -9.2973395319e-03 2.6344563189e+00 -4.5630121947e+00 2.6344563189e+00 4.5630121947e+00 
46900 4.7633685164e+00 -9.2757520888e-03 2.6346327774e+00 -4.5633178297e+00 2.6346327774e+00 4.5633178297e+00 
47000 4.7633670379e+00 -9.2542626741e-03 2.6348088144e+00 -4.5636227347e+00 2.6348088144e+00 4.5636227347e+00 
47100 4.7633655685e+00 -9.2328707578e-03 2.6349844318e+00 -4.5639269130e+00 2.6349844318e+00 4.5639269130e+00 
47200 4.7633641081e+00 -9.2115758126e-03 2.6351596315e+00 -4.5642303679e+00 2.6351596315e+00 4.5642303679e+00 
47300 4.7633626565e+00 -9.1903773135e-03 2.6353344156e+00 -4.5645331027e+00 2.6353344156e+00 4.5645331027e+00 
47400 4.7633612138e+00 -9.1692747380e-03 2.6355087858e+00 -4.5648351209e+00 2.6355087858e+00 4.5648351209e+00 
47500 4.7633597797e+00 -9.1482675662e-03 2.6356827442e+00 -4.5651364256e+00 2.6356827442e+00 4.5651364256e+00 
47600 4.7633583542e+00 -9.1273552804e-03 2.6358562926e+00 -4.5654370202e+00 2.6358562926e+00 4.5654370202e+00 
47700 4.7633569372e+00 -9.1065373657e-03 2.6360294328e+00 -4.5657369078e+00 2.6360294328e+00 4.5657369078e+00 
47800 4.7633555286e+00 -9.0858133094e-03 2.6362021668e+00 -4.5660360918e+00 2.6362021668e+00 4.5660360918e+00 
47900 4.7633541283e+00 -9.0651826014e-03 2.6363744963e+00 -4.5663345754e+00 2.6363744963e+00 4.5663345754e+00 
48000 4.7633527362e+00 -9.0446447340e-03 2.6365464234e+00 -4.5666323618e+00 2.6365464234e+00 4.5666323618e+00 
48100 4.7633513522e+00 -9.0241992019e-03 2.6367179497e+00 -4.5669294541e+00 2.6367179497e+00 4.5669294541e+00 
48200 4.7633499762e+00 -9.0038455024e-03 2.6368890772e+00 -4.5672258556e+00 2.6368890772e+00 4.5672258556e+00 
48300 4.7633486081e+00 -8.9835831350e-03 2.6370598076e+00 -4.5675215693e+00 2.6370598076e+00 4.5675215693e+00 
48400 4.7633472479e+00 -8.9634116019e-03 2.6372301427e+00 -4.5678165984e+00 2.6372301427e+00 4.5678165984e+00 
48500 4.7633458955e+00 -8.9433304077e-03 2.6374000844e+00 -4.5681109461e+00 2.6374000844e+00 4.5681109461e+00 
48600 4.7633445507e+00 -8.9233390592e-03 2.6375696345e+00 -4.5684046154e+00 2.6375696345e+00 4.5684046154e+00 
48700 4.7633432135e+00 -8.9034370659e-03 2.6377387946e+00 -4.5686976094e+00 2.6377387946e+00 4.5686976094e+00 
48800 4.7633418839e+00 -8.8836239395e-03 2.6379075667e+00 -4.5689899312e+00 2.6379075667e+00 4.5689899312e+00 
48900 4.7633405616e+00 -8.8638991944e-03 2.6380759524e+00 -4.5692815838e+00 2.6380759524e+00 4.5692815838e+00 
49000 4.7633392467e+00 -8.8442623471e-03 2.6382439535e+00 -4.5695725702e+00 2.6382439535e+00 4.5695725702e+00 
49100 4.7633379391e+00 -8.8247129166e-03 2.6384115717e+00 -4.5698628935e+00 2.6384115717e+00 4.5698628935e+00 
49200 4.7633366386e+00 -8.8052504245e-03 2.6385788088e+00 -4.5701525567e+00 2.6385788088e+00 4.5701525567e+00 
49300 4.7633353453e+00 -8.7858743946e-03 2.6387456665e+00 -4.5704415627e+00 2.6387456665e+00 4.5704415627e+00 
49400 4.7633340589e+00 -8.7665843530e-03 2.6389121465e+00 -4.5707299145e+00 2.6389121465e+00 4.5707299145e+00 
49500 4.7633327796e+00 -8.7473798285e-03 2.6390782505e+00 -4.5710176150e+00 2.6390782505e+00 4.5710176150e+00 
49600 4.7633315071e+00 -8.7282603519e-03 2.6392439802e+00 -4.5713046672e+00 2.6392439802e+00 4.5713046672e+00 
49700 4.7633302414e+00 -8.7092254568e-03 2.6394093372e+00 -4.5715910740e+00 2.6394093372e+00 4.5715910740e+00 
49800 4.7633289825e+00 -8.6902746787e-03 2.6395743233e+00 -4.5718768383e+00 2.6395743233e+00 4.5718768383e+00 
49900 4.7633277302e+00 -8.6714075558e-03 2.6397389401e+00 -4.5721619629e+00 2.6397389401e+00 4.5721619629e+00 
50000 4.7633264845e+00 -8.6526236286e-03 2.6399031892e+00 -4.5724464508e+00 2.6399031892e+00 4.5724464508e+00 
50100 4.7633252454e+00 -8.6339224398e-03 2.6400670724e+00 -4.5727303048e+00 2.6400670724e+00 4.5727303048e+00 
50200 4.7633240127e+00 -8.6153035345e-03 2.6402305912e+00 -4.5730135276e+00 2.6402305912e+00 4.5730135276e+00 
50300 4.7633227864e+00 -8.5967664603e-03 2.6403937472e+00 -4.5732961222e+00 2.6403937472e+00 4.5732961222e+00 
50400 4.7633215664e+00 -8.5783107668e-03 2.6405565422e+00 -4.5735780913e+00 2.6405565422e+00 4.5735780913e+00 
50500 4.7633203527e+00 -8.5599360063e-03 2.6407189776e+00 -4.5738594377e+00 2.6407189776e+00 4.5738594377e+00 
50600 4.7633191451e+00 -8.5416417330e-03 2.6408810551e+00 -4.5741401642e+00 2.6408810551e+00 4.5741401642e+00 
50700 4.7633179437e+00 -8.5234275038e-03 2.6410427763e+00 -4.5744202735e+00 2.6410427763e+00 4.5744202735e+00 
50800 4.7633167484e+00 -8.5052928777e-03 2.6412041428e+00 -4.5746997684e+00 2.6412041428e+00 4.5746997684e+00 
50900 4.7633155591e+00 -8.4872374159e-03 2.6413651561e+00 -4.5749786516e+00 2.6413651561e+00 4.5749786516e+00 
51000 4.7633143757e+00 -8.4692606821e-03 2.6415258177e+00 -4.5752569258e+00 2.6415258177e+00 4.5752569258e+00 
51100 4.7633131982e+00 -8.4513622420e-03 2.6416861294e+00 -4.5755345937e+00 2.6416861294e+00 4.5755345937e+00 
51200 4.7633120265e+00 -8.4335416639e-03 2.6418460925e+00 -4.5758116580e+00 2.6418460925e+00 4.5758116580e+00 
51300 4.7633108606e+00 -8.4157985182e-03 2.6420057087e+00 -4.5760881213e+00 2.6420057087e+00 4.5760881213e+00 
51400 4.7633097003e+00 -8.3981323773e-03 2.6421649794e+00 -4.5763639863e+00 2.6421649794e+00 4.5763639863e+00 
51500 4.7633085458e+00 -8.3805428163e-03 2.6423239062e+00 -4.5766392556e+00 2.6423239062e+00 4.5766392556e+00 
51600 4.7633073968e+00 -8.3630294122e-03 2.6424824906e+00 -4.5769139318e+00 2.6424824906e+00 4.5769139318e+00 
51700 4.7633062533e+00 -8.3455917445e-03 2.6426407341e+00 -4.5771880176e+00 2.6426407341e+00 4.5771880176e+00 
51800 4.7633051154e+00 -8.3282293945e-03 2.6427986381e+00 -4.5774615154e+00 2.6427986381e+00 4.5774615154e+00 
51900 4.7633039828e+00 -8.3109419462e-03 2.6429562043e+00 -4.5777344280e+00 2.6429562043e+00 4.5777344280e+00 
52000 4.7633028556e+00 -8.2937289855e-03 2.6431134340e+00 -4.5780067579e+00 2.6431134340e+00 4.5780067579e+00 
52100 4.7633017338e+00 -8.2765901005e-03 2.6432703287e+00 -4.5782785075e+00 2.6432703287e+00 4.5782785075e+00 
52200 4.7633006172e+00 -8.2595248817e-03 2.6434268899e+00 -4.5785496794e+00 2.6434268899e+00 4.5785496794e+00 
52300 4.7632995058e+00 -8.2425329214e-03 2.6435831191e+00 -4.5788202763e+00 2.6435831191e+00 4.5788202763e+00 
52400 4.7632983996e+00 -8.2256138146e-03 2.6437390176e+00 -4.5790903004e+00 2.6437390176e+00 4.5790903004e+00 
52500 4.7632972985e+00 -8.2087671579e-03 2.6438945869e+00 -4.5793597544e+00 2.6438945869e+00 4.5793597544e+00 
52600 4.7632962025e+00 -8.1919925504e-03 2.6440498285e+00 -4.5796286407e+00 2.6440498285e+00 4.5796286407e+00 
52700 4.7632951115e+00 -8.1752895933e-03 2.6442047438e+00 -4.5798969618e+00 2.6442047438e+00 4.5798969618e+00 
52800 4.7632940254e+00 -8.1586578899e-03 2.6443593341e+00 -4.5801647201e+00 2.6443593341e+00 4.5801647201e+00 
52900 4.7632929443e+00 -8.1420970456e-03 2.6445136009e+00 -4.5804319180e+00 2.6445136009e+00 4.5804319180e+00 
53000 4.7632918680e+00 -8.1256066679e-03 2.6446675456e+00 -4.5806985580e+00 2.6446675456e+00 4.5806985580e+00 
53100 4.7632907966e+00 -8.1091863664e-03 2.6448211695e+00 -4.5809646425e+00 2.6448211695e+00 4.5809646425e+00 
53200 4.7632897299e+00 -8.0928357530e-03 2.6449744741e+00 -4.5812301739e+00 2.6449744741e+00 4.5812301739e+00 
53300 4.7632886680e+00 -8.0765544415e-03 2.6451274607e+00 -4.5814951544e+00 2.6451274607e+00 4.5814951544e+00 
53400 4.7632876108e+00 -8.0603420477e-03 2.6452801307e+00 -4.5817595866e+00 2.6452801307e+00 4.5817595866e+00 
53500 4.7632865582e+00 -8.0441981898e-03 2.6454324855e+00 -4.5820234728e+00 2.6454324855e+00 4.5820234728e+00 
53600 4.7632855102e+00 -8.0281224877e-03 2.6455845263e+00 -4.5822868152e+00 2.6455845263e+00 4.5822868152e+00 
53700 4.7632844667e+00 -8.0121145636e-03 2.6457362546e+00 -4.5825496163e+00 2.6457362546e+00 4.5825496163e+00 
53800 4.7632834278e+00 -7.9961740417e-03 2.6458876716e+00 -4.5828118783e+00 2.6458876716e+00 4.5828118783e+00 
53900 4.7632823934e+00 -7.9803005481e-03 2.6460387787e+00 -4.5830736036e+00 2.6460387787e+00 4.5830736036e+00 
54000 4.7632813633e+00 -7.9644937111e-03 2.6461895773e+00 -4.5833347943e+00 2.6461895773e+00 4.5833347943e+00 
54100 4.7632803377e+00 -7.9487531610e-03 2.6463400686e+00 -4.5835954529e+00 2.6463400686e+00 4.5835954529e+00 
54200 4.7632793165e+00 -7.9330785301e-03 2.6464902539e+00 -4.5838555815e+00 2.6464902539e+00 4.5838555815e+00 
54300 4.7632782995e+00 -7.9174694527e-03 2.6466401345e+00 -4.5841151823e+00 2.6466401345e+00 4.5841151823e+00 
54400 4.7632772868e+00 -7.9019255649e-03 2.6467897118e+00 -4.5843742578e+00 2.6467897118e+00 4.5843742578e+00 
54500 4.7632762783e+00 -7.8864465052e-03 2.6469389870e+00 -4.5846328100e+00 2.6469389870e+00 4.5846328100e+00 
54600 4.7632752741e+00 -7.8710319137e-03 2.6470879613e+00 -4.5848908411e+00 2.6470879613e+00 4.5848908411e+00 
54700 4.7632742740e+00 -7.8556814327e-03 2.6472366361e+00 -4.5851483534e+00 2.6472366361e+00 4.5851483534e+00 
54800 4.7632732780e+00 -7.8403947063e-03 2.6473850126e+00 -4.5854053491e+00 2.6473850126e+00 4.5854053491e+00 
54900 4.7632722861e+00 -7.8251713806e-03 2.6475330921e+00 -4.5856618303e+00 2.6475330921e+00 4.5856618303e+00 
55000 4.7632712982e+00 -7.8100111038e-03 2.6476808758e+00 -4.5859177991e+00 2.6476808758e+00 4.5859177991e+00 
55100 4.7632703144e+00 -7.7949135258e-03 2.6478283649e+00 -4.5861732578e+00 2.6478283649e+00 4.5861732578e+00 
55200 4.7632693345e+00 -7.7798782985e-03 2.6479755608e+00 -4.5864282085e+00 2.6479755608e+00 4.5864282085e+00 
55300 4.7632683586e+00 -7.7649050759e-03 2.6481224645e+00 -4.5866826532e+00 2.6481224645e+00 4.5866826532e+00 
55400 4.7632673865e+00 -7.7499935136e-03 2.6482690774e+00 -4.5869365941e+00 2.6482690774e+00 4.5869365941e+00 
55500 4.7632664184e+00 -7.7351432693e-03 2.6484154006e+00 -4.5871900334e+00 2.6484154006e+00 4.5871900334e+00 
55600 4.7632654540e+00 -7.7203540026e-03 2.6485614354e+00 -4.5874429730e+00 2.6485614354e+00 4.5874429730e+00 
55700 4.7632644935e+00 -7.7056253748e-03 2.6487071829e+00 -4.5876954151e+00 2.6487071829e+00 4.5876954151e+00 
55800 4.7632635368e+00 -7.6909570493e-03 2.6488526443e+00 -4.5879473617e+00 2.6488526443e+00 4.5879473617e+00 
55900 4.7632625837e+00 -7.6763486911e-03 2.6489978209e+00 -4.5881988149e+00 2.6489978209e+00 4.5881988149e+00 
56000 4.7632616344e+00 -7.6617999674e-03 2.6491427138e+00 -4.5884497768e+00 2.6491427138e+00 4.5884497768e+00 
56100 4.7632606888e+00 -7.6473105469e-03 2.6492873241e+00 -4.5887002493e+00 2.6492873241e+00 4.5887002493e+00 
56200 4.7632597468e+00 -7.6328801004e-03 2.6494316531e+00 -4.5889502344e+00 2.6494316531e+00 4.5889502344e+00 
56300 4.7632588084e+00 -7.6185083003e-03 2.6495757020e+00 -4.5891997343e+00 2.6495757020e+00 4.5891997343e+00 
56400 4.7632578736e+00 -7.6041948210e-03 2.6497194717e+00 -4.5894487508e+00 2.6497194717e+00 4.5894487508e+00 
56500 4.7632569424e+00 -7.5899393387e-03 2.6498629636e+00 -4.5896972860e+00 2.6498629636e+00 4.5896972860e+00 
56600 4.7632560146e+00 -7.5757415313e-03 2.6500061787e+00 -4.5899453418e+00 2.6500061787e+00 4.5899453418e+00 
56700 4.7632550904e+00 -7.5616010785e-03 2.6501491181e+00 -4.5901929203e+00 2.6501491181e+00 4.5901929203e+00 
56800 4.7632541696e+00 -7.5475176618e-03 2.6502917831e+00 -4.5904400232e+00 2.6502917831e+00 4.5904400232e+00 
56900 4.7632532522e+00 -7.5334909646e-03 2.6504341747e+00 -4.5906866527e+00 2.6504341747e+00 4.5906866527e+00 
57000 4.7632523383e+00 -7.5195206719e-03 2.6505762940e+00 -4.5909328106e+00 2.6505762940e+00 4.5909328106e+00 
57100 4.7632514277e+00 -7.5056064705e-03 2.6507181422e+00 -4.5911784988e+00 2.6507181422e+00 4.5911784988e+00 
57200 4.7632505205e+00 -7.4917480491e-03 2.6508597203e+00 -4.5914237193e+00 2.6508597203e+00 4.5914237193e+00 
57300 4.7632496166e+00 -7.4779450978e-03 2.6510010295e+00 -4.5916684739e+00 2.6510010295e+00 4.5916684739e+00 
57400 4.7632487160e+00 -7.4641973088e-03 2.6511420707e+00 -4.5919127646e+00 2.6511420707e+00 4.5919127646e+00 
57500 4.7632478187e+00 -7.4505043759e-03 2.6512828452e+00 -4.5921565932e+00 2.6512828452e+00 4.5921565932e+00 
57600 4.7632469246e+00 -7.4368659944e-03 2.6514233540e+00 -4.5923999615e+00 2.6514233540e+00 4.5923999615e+00 
57700 4.7632460337e+00 -7.4232818616e-03 2.6515635981e+00 -4.5926428715e+00 2.6515635981e+00 4.5926428715e+00 
57800 4.7632451460e+00 -7.4097516764e-03 2.6517035787e+00 -4.5928853249e+00 2.6517035787e+00 4.5928853249e+00 
57900 4.7632442615e+00 -7.3962751393e-03 2.6518432967e+00 -4.5931273237e+00 2.6518432967e+00 4.5931273237e+00 
58000 4.7632433801e+00 -7.3828519526e-03 2.6519827533e+00 -4.5933688695e+00 2.6519827533e+00 4.5933688695e+00 
58100 4.7632425018e+00 -7.3694818203e-03 2.6521219495e+00 -4.5936099644e+00 2.6521219495e+00 4.5936099644e+00 
58200 4.7632416266e+00 -7.3561644478e-03 2.6522608863e+00 -4.5938506099e+00 2.6522608863e+00 4.5938506099e+00 
58300 4.7632407545e+00 -7.3428995425e-03 2.6523995647e+00 -4.5940908081e+00 2.6523995647e+00 4.5940908081e+00 
58400 4.7632398854e+00 -7.3296868132e-03 2.6525379859e+00 -4.5943305605e+00 2.6525379859e+00 4.5943305605e+00 
58500 4.7632390193e+00 -7.3165259705e-03 2.6526761507e+00 -4.5945698691e+00 2.6526761507e+00 4.5945698691e+00 
58600 4.7632381562e+00 -7.3034167266e-03 2.6528140603e+00 -4.5948087355e+00 2.6528140603e+00 4.5948087355e+00 
58700 4.7632372961e+00 -7.2903587951e-03 2.6529517156e+00 -4.5950471615e+00 2.6529517156e+00 4.5950471615e+00 
58800 4.7632364390e+00 -7.2773518915e-03 2.6530891177e+00 -4.5952851489e+00 2.6530891177e+00 4.5952851489e+00 
58900 4.7632355847e+00 -7.2643957329e-03 2.6532262675e+00 -4.5955226994e+00 2.6532262675e+00 4.5955226994e+00 
59000 4.7632347334e+00 -7.2514900377e-03 2.6533631661e+00 -4.5957598147e+00 2.6533631661e+00 4.5957598147e+00 
59100 4.7632338850e+00 -7.2386345261e-03 2.6534998144e+00 -4.5959964965e+00 2.6534998144e+00 4.5959964965e+00 
59200 4.7632330394e+00 -7.2258289201e-03 2.6536362135e+00 -4.5962327465e+00 2.6536362135e+00 4.5962327465e+00 
59300 4.7632321966e+00 -7.2130729427e-03 2.6537723642e+00 -4.5964685665e+00 2.6537723642e+00 4.5964685665e+00 
59400 4.7632313567e+00 -7.2003663191e-03 2.6539082676e+00 -4.5967039582e+00 2.6539082676e+00 4.5967039582e+00 
59500 4.7632305195e+00 -7.1877087756e-03 2.6540439247e+00 -4.5969389231e+00 2.6540439247e+00 4.5969389231e+00 
59600 4.7632296851e+00 -7.1751000401e-03 2.6541793363e+00 -4.5971734630e+00 2.6541793363e+00 4.5971734630e+00 
59700 4.7632288535e+00 -7.1625398424e-03 2.6543145036e+00 -4.5974075795e+00 2.6543145036e+00 4.5974075795e+00 
59800 4.7632280246e+00 -7.1500279134e-03 2.6544494273e+00 -4.5976412742e+00 2.6544494273e+00 4.5976412742e+00 
59900 4.7632271985e+00 -7.1375639857e-03 2.6545841085e+00 -4.5978745489e+00 2.6545841085e+00 4.5978745489e+00 
60000 4.7632263750e+00 -7.1251477935e-03 2.6547185481e+00 -4.5981074051e+00 2.6547185481e+00 4.5981074051e+00 
60100 4.7632255542e+00 -7.1127790723e-03 2.6548527470e+00 -4.5983398445e+00 2.6548527470e+00 4.5983398445e+00 
60200 4.7632247360e+00 -7.1004575594e-03 2.6549867062e+00 -4.5985718686e+00 2.6549867062e+00 4.5985718686e+00 
60300 4.7632239205e+00 -7.0881829932e-03 2.6551204266e+00 -4.5988034791e+00 2.6551204266e+00 4.5988034791e+00 
60400 4.7632231076e+00 -7.0759551139e-03 2.6552539091e+00 -4.5990346776e+00 2.6552539091e+00 4.5990346776e+00 
60500 4.7632222973e+00 -7.0637736631e-03 2.6553871546e+00 -4.5992654656e+00 2.6553871546e+00 4.5992654656e+00 
60600 4.7632214896e+00 -7.0516383838e-03 2.6555201641e+00 -4.5994958448e+00 2.6555201641e+00 4.5994958448e+00 
60700 4.7632206844e+00 -7.0395490205e-03 2.6556529384e+00 -4.5997258166e+00 2.6556529384e+00 4.5997258166e+00 
60800 4.7632198818e+00 -7.0275053191e-03 2.6557854785e+00 -4.5999553827e+00 2.6557854785e+00 4.5999553827e+00 
60900 4.7632190817e+00 -7.0155070272e-03 2.6559177852e+00 -4.6001845446e+00 2.6559177852e+00 4.6001845446e+00 
61000 4.7632182841e+00 -7.0035538934e-03 2.6560498594e+00 -4.6004133039e+00 2.6560498594e+00 4.6004133039e+00 
61100 4.7632174889e+00 -6.9916456680e-03 2.6561817020e+00 -4.6006416620e+00 2.6561817020e+00 4.6006416620e+00 
61200 4.7632166963e+00 -6.9797821029e-03 2.6563133139e+00 -4.6008696205e+00 2.6563133139e+00 4.6008696205e+00 
61300 4.7632159061e+00 -6.9679629509e-03 2.6564446960e+00 -4.6010971810e+00 2.6564446960e+00 4.6010971810e+00 
61400 4.7632151184e+00 -6.9561879667e-03 2.6565758491e+00 -4.6013243449e+00 2.6565758491e+00 4.6013243449e+00 
61500 4.7632143331e+00 -6.9444569062e-03 2.6567067742e+00 -4.6015511136e+00 2.6567067742e+00 4.6015511136e+00 
61600 4.7632135501e+00 -6.9327695267e-03 2.6568374719e+00 -4.6017774889e+00 2.6568374719e+00 4.6017774889e+00 
61700 4.7632127696e+00 -6.9211255868e-03 2.6569679433e+00 -4.6020034720e+00 2.6569679433e+00 4.6020034720e+00 
61800 4.7632119915e+00 -6.9095248467e-03 2.6570981892e+00 -4.6022290644e+00 2.6570981892e+00 4.6022290644e+00 
61900 4.7632112157e+00 -6.8979670676e-03 2.6572282104e+00 -4.6024542677e+00 2.6572282104e+00 4.6024542677e+00 
62000 4.7632104422e+00 -6.8864520126e-03 2.6573580077e+00 -4.6026790833e+00 2.6573580077e+00 4.6026790833e+00 
62100 4.7632096711e+00 -6.8749794456e-03 2.6574875821e+00 -4.6029035126e+00 2.6574875821e+00 4.6029035126e+00 
62200 4.7632089022e+00 -6.8635491322e-03 2.6576169342e+00 -4.6031275572e+00 2.6576169342e+00 4.6031275572e+00 
62300 4.7632081357e+00 -6.8521608392e-03 2.6577460651e+00 -4.6033512183e+00 2.6577460651e+00 4.6033512183e+00 
62400 4.7632073714e+00 -6.8408143348e-03 2.6578749753e+00 -4.6035744975e+00 2.6578749753e+00 4.6035744975e+00 
62500 4.7632066094e+00 -6.8295093886e-03 2.6580036659e+00 -4.6037973961e+00 2.6580036659e+00 4.6037973961e+00 
62600 4.7632058497e+00 -6.8182457712e-03 2.6581321376e+00 -4.6040199156e+00 2.6581321376e+00 4.6040199156e+00 
62700 4.7632050922e+00 -6.8070232548e-03 2.6582603912e+00 -4.6042420573e+00 2.6582603912e+00 4.6042420573e+00 
62800 4.7632043369e+00 -6.7958416130e-03 2.6583884275e+00 -4.6044638228e+00 2.6583884275e+00 4.6044638228e+00 
62900 4.7632035838e+00 -6.7847006203e-03 2.6585162474e+00 -4.6046852132e+00 2.6585162474e+00 4.6046852132e+00 
63000 4.7632028329e+00 -6.7736000528e-03 2.6586438516e+00 -4.6049062301e+00 2.6586438516e+00 4.6049062301e+00 
63100 4.7632020842e+00 -6.7625396878e-03 2.6587712408e+00 -4.6051268748e+00 2.6587712408e+00 4.6051268748e+00 
63200 4.7632013377e+00 -6.7515193039e-03 2.6588984160e+00 -4.6053471487e+00 2.6588984160e+00 4.6053471487e+00 
63300 4.7632005933e+00 -6.7405386810e-03 2.6590253778e+00 -4.6055670530e+00 2.6590253778e+00 4.6055670530e+00 
63400 4.7631998510e+00 -6.7295976001e-03 2.6591521271e+00 -4.6057865893e+00 2.6591521271e+00 4.6057865893e+00 
63500 4.7631991109e+00 -6.7186958436e-03 2.6592786647e+00 -4.6060057587e+00 2.6592786647e+00 4.6060057587e+00 
63600 4.7631983729e+00 -6.7078331951e-03 2.6594049912e+00 -4.6062245627e+00 2.6594049912e+00 4.6062245627e+00 
63700 4.7631976370e+00 -6.6970094395e-03 2.6595311075e+00 -4.6064430025e+00 2.6595311075e+00 4.6064430025e+00 
63800 4.7631969031e+00 -6.6862243629e-03 2.6596570143e+00 -4.6066610795e+00 2.6596570143e+00 4.6066610795e+00 
63900 4.7631961714e+00 -6.6754777526e-03 2.6597827124e+00 -4.6068787950e+00 2.6597827124e+00 4.6068787950e+00 
64000 4.7631954416e+00 -6.6647693971e-03 2.6599082026e+00 -4.6070961503e+00 2.6599082026e+00 4.6070961503e+00 
64100 4.7631947140e+00 -6.6540990862e-03 2.6600334855e+00 -4.6073131467e+00 2.6600334855e+00 4.6073131467e+00 
64200 4.7631939884e+00 -6.6434666108e-03 2.6601585620e+00 -4.6075297855e+00 2.6601585620e+00 4.6075297855e+00 
64300 4.7631932648e+00 -6.6328717632e-03 2.6602834327e+00 -4.6077460680e+00 2.6602834327e+00 4.6077460680e+00 
64400 4.7631925432e+00 -6.6223143366e-03 2.6604080984e+00 -4.6079619953e+00 2.6604080984e+00 4.6079619953e+00 
64500 4.7631918236e+00 -6.6117941256e-03 2.6605325599e+00 -4.6081775689e+00 2.6605325599e+00 4.6081775689e+00 
64600 4.7631911060e+00 -6.6013109260e-03 2.6606568178e+00 -4.6083927900e+00 2.6606568178e+00 4.6083927900e+00 
64700 4.7631903903e+00 -6.5908645347e-03 2.6607808729e+00 -4.6086076598e+00 2.6607808729e+00 4.6086076598e+00 
64800 4.7631896767e+00 -6.5804547497e-03 2.6609047260e+00 -4.6088221795e+00 2.6609047260e+00 4.6088221795e+00 
64900 4.7631889649e+00 -6.5700813702e-03 2.6610283776e+00 -4.6090363505e+00 2.6610283776e+00 4.6090363505e+00 
65000 4.7631882552e+00 -6.5597441968e-03 2.6611518286e+00 -4.6092501739e+00 2.6611518286e+00 4.6092501739e+00 
65100 4.7631875473e+00 -6.5494430308e-03 2.6612750797e+00 -4.6094636509e+00 2.6612750797e+00 4.6094636509e+00 
65200 4.7631868414e+00 -6.5391776750e-03 2.6613981315e+00 -4.6096767829e+00 2.6613981315e+00 4.6096767829e+00 
65300 4.7631861374e+00 -6.5289479332e-03 2.6615209847e+00 -4.6098895710e+00 2.6615209847e+00 4.6098895710e+00 
65400 4.7631854352e+00 -6.5187536104e-03 2.6616436401e+00 -4.6101020163e+00 2.6616436401e+00 4.6101020163e+00 
65500 4.7631847350e+00 -6.5085945126e-03 2.6617660984e+00 -4.6103141202e+00 2.6617660984e+00 4.6103141202e+00 
65600 4.7631840366e+00 -6.4984704470e-03 2.6618883601e+00 -4.6105258838e+00 2.6618883601e+00 4.6105258838e+00 
65700 4.7631833401e+00 -6.4883812220e-03 2.6620104261e+00 -4.6107373083e+00 2.6620104261e+00 4.6107373083e+00 
65800 4.7631826455e+00 -6.4783266469e-03 2.6621322970e+00 -4.6109483948e+00 2.6621322970e+00 4.6109483948e+00 
65900 4.7631819527e+00 -6.4683065323e-03 2.6622539734e+00 -4.6111591446e+00 2.6622539734e+00 4.6111591446e+00 
66000 4.7631812617e+00 -6.4583206898e-03 2.6623754561e+00 -4.6113695588e+00 2.6623754561e+00 4.6113695588e+00 
66100 4.7631805726e+00 -6.4483689320e-03 2.6624967457e+00 -4.6115796386e+00 2.6624967457e+00 4.6115796386e+00 
66200 4.7631798853e+00 -6.4384510728e-03 2.6626178429e+00 -4.6117893851e+00 2.6626178429e+00 4.6117893851e+00 
66300 4.7631791997e+00 -6.4285669269e-03 2.6627387484e+00 -4.6119987994e+00 2.6627387484e+00 4.6119987994e+00 
66400 4.7631785160e+00 -6.4187163103e-03 2.6628594627e+00 -4.6122078828e+00 2.6628594627e+00 4.6122078828e+00 
66500 4.7631778340e+00 -6.4088990401e-03 2.6629799866e+00 -4.6124166364e+00 2.6629799866e+00 4.6124166364e+00 
66600 4.7631771539e+00 -6.3991149341e-03 2.6631003207e+00 -4.6126250612e+00 2.6631003207e+00 4.6126250612e+00 
66700 4.7631764755e+00 -6.3893638116e-03 2.6632204657e+00 -4.6128331584e+00 2.6632204657e+00 4.6128331584e+00 
66800 4.7631757988e+00 -6.3796454926e-03 2.6633404222e+00 -4.6130409291e+00 2.6633404222e+00 4.6130409291e+00 
66900 4.7631751239e+00 -6.3699597983e-03 2.6634601909e+00 -4.6132483745e+00 2.6634601909e+00 4.6132483745e+00 
67000 4.7631744508e+00 -6.3603065510e-03 2.6635797723e+00 -4.6134554956e+00 2.6635797723e+00 4.6134554956e+00 
67100 4.7631737793e+00 -6.3506855739e-03 2.6636991671e+00 -4.6136622936e+00 2.6636991671e+00 4.6136622936e+00 
67200 4.7631731096e+00 -6.3410966912e-03 2.6638183760e+00 -4.6138687694e+00 2.6638183760e+00 4.6138687694e+00 
67300 4.7631724416e+00 -6.3315397282e-03 2.6639373996e+00 -4.6140749243e+00 2.6639373996e+00 4.6140749243e+00 
67400 4.7631717753e+00 -6.3220145113e-03 2.6640562385e+00 -4.6142807593e+00 2.6640562385e+00 4.6142807593e+00 
67500 4.7631711107e+00 -6.3125208676e-03 2.6641748933e+00 -4.6144862755e+00 2.6641748933e+00 4.6144862755e+00 
67600 4.7631704478e+00 -6.3030586255e-03 2.6642933647e+00 -4.6146914738e+00 2.6642933647e+00 4.6146914738e+00 
67700 4.7631697865e+00 -6.2936276143e-03 2.6644116531e+00 -4.6148963555e+00 2.6644116531e+00 4.6148963555e+00 
67800 4.7631691269e+00 -6.2842276643e-03 2.6645297594e+00 -4.6151009216e+00 2.6645297594e+00 4.6151009216e+00 
67900 4.7631684690e+00 -6.2748586067e-03 2.6646476840e+00 -4.6153051730e+00 2.6646476840e+00 4.6153051730e+00 
68000 4.7631678128e+00 -6.2655202738e-03 2.6647654277e+00 -4.6155091110e+00 2.6647654277e+00 4.6155091110e+00 
68100 4.7631671581e+00 -6.2562124988e-03 2.6648829908e+00 -4.6157127364e+00 2.6648829908e+00 4.6157127364e+00 
68200 4.7631665051e+00 -6.2469351158e-03 2.6650003742e+00 -4.6159160503e+00 2.6650003742e+00 4.6159160503e+00 
68300 4.7631658538e+00 -6.2376879600e-03 2.6651175783e+00 -4.6161190538e+00 2.6651175783e+00 4.6161190538e+00 
68400 4.7631652040e+00 -6.2284708675e-03 2.6652346038e+00 -4.6163217479e+00 2.6652346038e+00 4.6163217479e+00 
68500 4.7631645559e+00 -6.2192836753e-03 2.6653514513e+00 -4.6165241336e+00 2.6653514513e+00 4.6165241336e+00 
68600 4.7631639094e+00 -6.2101262214e-03 2.6654681212e+00 -4.6167262119e+00 2.6654681212e+00 4.6167262119e+00 
68700 4.7631632644e+00 -6.2009983448e-03 2.6655846143e+00 -4.6169279838e+00 2.6655846143e+00 4.6169279838e+00 
68800 4.7631626211e+00 -6.1918998853e-03 2.6657009311e+00 -4.6171294504e+00 2.6657009311e+00 4.6171294504e+00 
68900 4.7631619793e+00 -6.1828306838e-03 2.6658170721e+00 -4.6173306125e+00 2.6658170721e+00 4.6173306125e+00 
69000 4.7631613391e+00 -6.1737905818e-03 2.6659330379e+00 -4.6175314713e+00 2.6659330379e+00 4.6175314713e+00 
69100 4.7631607005e+00 -6.1647794222e-03 2.6660488292e+00 -4.6177320276e+00 2.6660488292e+00 4.6177320276e+00 
69200 4.7631600635e+00 -6.1557970483e-03 2.6661644464e+00 -4.6179322826e+00 2.6661644464e+00 4.6179322826e+00 
69300 4.7631594279e+00 -6.1468433048e-03 2.6662798902e+00 -4.6181322370e+00 2.6662798902e+00 4.6181322370e+00 
69400 4.7631587940e+00 -6.1379180368e-03 2.6663951611e+00 -4.6183318920e+00 2.6663951611e+00 4.6183318920e+00 
69500 4.7631581615e+00 -6.1290210908e-03 2.6665102596e+00 -4.6185312485e+00 2.6665102596e+00 4.6185312485e+00 
69600 4.7631575306e+00 -6.1201523139e-03 2.6666251863e+00 -4.6187303074e+00 2.6666251863e+00 4.6187303074e+00 
69700 4.7631569012e+00 -6.1113115540e-03 2.6667399418e+00 -4.6189290697e+00 2.6667399418e+00 4.6189290697e+00 
69800 4.7631562734e+00 -6.1024986602e-03 2.6668545265e+00 -4.6191275363e+00 2.6668545265e+00 4.6191275363e+00 
69900 4.7631556470e+00 -6.0937134822e-03 2.6669689411e+00 -4.6193257082e+00 2.6669689411e+00 4.6193257082e+00 
70000 4.7631550222e+00 -6.0849558708e-03 2.6670831861e+00 -4.6195235864e+00 2.6670831861e+00 4.6195235864e+00 
70100 4.7631543988e+00 -6.0762256774e-03 2.6671972620e+00 -4.6197211717e+00 2.6671972620e+00 4.6197211717e+00 
70200 4.7631537769e+00 -6.0675227545e-03 2.6673111694e+00 -4.6199184650e+00 2.6673111694e+00 4.6199184650e+00 
70300 4.7631531565e+00 -6.0588469553e-03 2.6674249088e+00 -4.6201154674e+00 2.6674249088e+00 4.6201154674e+00 
70400 4.7631525376e+00 -6.0501981340e-03 2.6675384807e+00 -4.6203121797e+00 2.6675384807e+00 4.6203121797e+00 
70500 4.7631519202e+00 -6.0415761455e-03 2.6676518856e+00 -4.6205086028e+00 2.6676518856e+00 4.6205086028e+00 
70600 4.7631513042e+00 -6.0329808457e-03 2.6677651241e+00 -4.6207047377e+00 2.6677651241e+00 4.6207047377e+00 
70700 4.7631506897e+00 -6.0244120912e-03 2.6678781968e+00 -4.6209005852e+00 2.6678781968e+00 4.6209005852e+00 
70800 4.7631500766e+00 -6.0158697395e-03 2.6679911040e+00 -4.6210961462e+00 2.6679911040e+00 4.6210961462e+00 
70900 4.7631494650e+00 -6.0073536489e-03 2.6681038463e+00 -4.6212914217e+00 2.6681038463e+00 4.6212914217e+00 
71000 4.7631488548e+00 -5.9988636786e-03 2.6682164243e+00 -4.6214864126e+00 2.6682164243e+00 4.6214864126e+00 
71100 4.7631482460e+00 -5.9903996885e-03 2.6683288385e+00 -4.6216811196e+00 2.6683288385e+00 4.6216811196e+00 
71200 4.7631476387e+00 -5.9819615394e-03 2.6684410893e+00 -4.6218755437e+00 2.6684410893e+00 4.6218755437e+00 
71300 4.7631470328e+00 -5.9735490930e-03 2.6685531773e+00 -4.6220696858e+00 2.6685531773e+00 4.6220696858e+00 
71400 4.7631464283e+00 -5.9651622115e-03 2.6686651029e+00 -4.6222635467e+00 2.6686651029e+00 4.6222635467e+00 
71500 4.7631458252e+00 -5.9568007583e-03 2.6687768668e+00 -4.6224571273e+00 2.6687768668e+00 4.6224571273e+00 
71600 4.7631452235e+00 -5.9484645973e-03 2.6688884692e+00 -4.6226504284e+00 2.6688884692e+00 4.6226504284e+00 
71700 4.7631446232e+00 -5.9401535933e-03 2.6689999109e+00 -4.6228434510e+00 2.6689999109e+00 4.6228434510e+00 
71800 4.7631440243e+00 -5.9318676118e-03 2.6691111922e+00 -4.6230361959e+00 2.6691111922e+00 4.6230361959e+00 
71900 4.7631434268e+00 -5.9236065194e-03 2.6692223136e+00 -4.6232286638e+00 2.6692223136e+00 4.6232286638e+00 
72000 4.7631428306e+00 -5.9153701830e-03 2.6693332756e+00 -4.6234208557e+00 2.6693332756e+00 4.6234208557e+00 
72100 4.7631422359e+00 -5.9071584707e-03 2.6694440788e+00 -4.6236127724e+00 2.6694440788e+00 4.6236127724e+00 
72200 4.7631416425e+00 -5.8989712511e-03 2.6695547235e+00 -4.6238044147e+00 2.6695547235e+00 4.6238044147e+00 
72300 4.7631410504e+00 -5.8908083936e-03 2.6696652103e+00 -4.6239957835e+00 2.6696652103e+00 4.6239957835e+00 
72400 4.7631404597e+00 -5.8826697686e-03 2.6697755397e+00 -4.6241868796e+00 2.6697755397e+00 4.6241868796e+00 
72500 4.7631398704e+00 -5.8745552469e-03 2.6698857121e+00 -4.6243777037e+00 2.6698857121e+00 4.6243777037e+00 
72600 4.7631392824e+00 -5.8664647003e-03 2.6699957279e+00 -4.6245682568e+00 2.6699957279e+00 4.6245682568e+00 
72700 4.7631386958e+00 -5.8583980014e-03 2.6701055878e+00 -4.6247585396e+00 2.6701055878e+00 4.6247585396e+00 
72800 4.7631381105e+00 -5.8503550232e-03 2.6702152920e+00 -4.6249485529e+00 2.6702152920e+00 4.6249485529e+00 
72900 4.7631375265e+00 -5.8423356398e-03 2.6703248411e+00 -4.6251382975e+00 2.6703248411e+00 4.6251382975e+00 
73000 4.7631369439e+00 -5.8343397259e-03 2.6704342356e+00 -4.6253277743e+00 2.6704342356e+00 4.6253277743e+00 
73100 4.7631363625e+00 -5.8263671570e-03 2.6705434759e+00 -4.6255169840e+00 2.6705434759e+00 4.6255169840e+00 
73200 4.7631357825e+00 -5.8184178091e-03 2.6706525624e+00 -4.6257059275e+00 2.6706525624e+00 4.6257059275e+00 
73300 4.7631352038e+00 -5.8104915593e-03 2.6707614957e+00 -4.6258946054e+00 2.6707614957e+00 4.6258946054e+00 
73400 4.7631346264e+00 -5.8025882850e-03 2.6708702761e+00 -4.6260830186e+00 2.6708702761e+00 4.6260830186e+00 
73500 4.7631340504e+00 -5.7947078646e-03 2.6709789041e+00 -4.6262711679e+00 2.6709789041e+00 4.6262711679e+00 
73600 4.7631334756e+00 -5.7868501772e-03 2.6710873802e+00 -4.6264590540e+00 2.6710873802e+00 4.6264590540e+00 
73700 4.7631329020e+00 -5.7790151025e-03 2.6711957048e+00 -4.6266466777e+00 2.6711957048e+00 4.6266466777e+00 
73800 4.7631323298e+00 -5.7712025209e-03 2.6713038783e+00 -4.6268340398e+00 2.6713038783e+00 4.6268340398e+00 
73900 4.7631317589e+00 -5.7634123136e-03 2.6714119013e+00 -4.6270211410e+00 2.6714119013e+00 4.6270211410e+00 
74000 4.7631311892e+00 -5.7556443625e-03 2.6715197740e+00 -4.6272079820e+00 2.6715197740e+00 4.6272079820e+00 
74100 4.7631306208e+00 -5.7478985500e-03 2.6716274970e+00 -4.6273945638e+00 2.6716274970e+00 4.6273945638e+00 
74200 4.7631300537e+00 -5.7401747595e-03 2.6717350707e+00 -4.6275808869e+00 2.6717350707e+00 4.6275808869e+00 
74300 4.7631294879e+00 -5.7324728747e-03 2.6718424956e+00 -4.6277669521e+00 2.6718424956e+00 4.6277669521e+00 
74400 4.7631289233e+00 -5.7247927804e-03 2.6719497719e+00 -4.6279527603e+00 2.6719497719e+00 4.6279527603e+00 
74500 4.7631283599e+00 -5.7171343617e-03 2.6720569003e+00 -4.6281383120e+00 2.6720569003e+00 4.6281383120e+00 
74600 4.7631277978e+00 -5.7094975046e-03 2.6721638810e+00 -4.6283236081e+00 2.6721638810e+00 4.6283236081e+00 
74700 4.7631272370e+00 -5.7018820957e-03 2.6722707146e+00 -4.6285086492e+00 2.6722707146e+00 4.6285086492e+00 
74800 4.7631266773e+00 -5.6942880223e-03 2.6723774014e+00 -4.6286934362e+00 2.6723774014e+00 4.6286934362e+00 
74900 4.7631261190e+00 -5.6867151723e-03 2.6724839418e+00 -4.6288779696e+00 2.6724839418e+00 4.6288779696e+00 
75000 4.7631255618e+00 -5.6791634343e-03 2.6725903363e+00 -4.6290622504e+00 2.6725903363e+00 4.6290622504e+00 
75100 4.7631250059e+00 -5.6716326975e-03 2.6726965853e+00 -4.6292462790e+00 2.6726965853e+00 4.6292462790e+00 
75200 4.7631244512e+00 -5.6641228519e-03 2.6728026892e+00 -4.6294300564e+00 2.6728026892e+00 4.6294300564e+00 
75300 4.7631238977e+00 -5.6566337879e-03 2.6729086484e+00 -4.6296135831e+00 2.6729086484e+00 4.6296135831e+00 
75400 4.7631233455e+00 -5.6491653968e-03 2.6730144633e+00 -4.6297968598e+00 2.6730144633e+00 4.6297968598e+00 
75500 4.7631227944e+00 -5.6417175703e-03 2.6731201343e+00 -4.6299798874e+00 2.6731201343e+00 4.6299798874e+00 
75600 4.7631222446e+00 -5.6342902009e-03 2.6732256618e+00 -4.6301626664e+00 2.6732256618e+00 4.6301626664e+00 
75700 4.7631216960e+00 -5.6268831818e-03 2.6733310463e+00 -4.6303451976e+00 2.6733310463e+00 4.6303451976e+00 
75800 4.7631211485e+00 -5.6194964066e-03 2.6734362880e+00 -4.6305274816e+00 2.6734362880e+00 4.6305274816e+00 
75900 4.7631206023e+00 -5.6121297696e-03 2.6735413875e+00 -4.6307095192e+00 2.6735413875e+00 4.6307095192e+00 
76000 4.7631200572e+00 -5.6047831658e-03 2.6736463450e+00 -4.6308913110e+00 2.6736463450e+00 4.6308913110e+00 
76100 4.7631195133e+00 -5.5974564909e-03 2.6737511610e+00 -4.6310728577e+00 2.6737511610e+00 4.6310728577e+00 
76200 4.7631189707e+00 -5.5901496409e-03 2.6738558359e+00 -4.6312541599e+00 2.6738558359e+00 4.6312541599e+00 
76300 4.7631184291e+00 -5.5828625126e-03 2.6739603701e+00 -4.6314352184e+00 2.6739603701e+00 4.6314352184e+00 
76400 4.7631178888e+00 -5.5755950036e-03 2.6740647639e+00 -4.6316160338e+00 2.6740647639e+00 4.6316160338e+00 
76500 4.7631173497e+00 -5.5683470117e-03 2.6741690178e+00 -4.6317966068e+00 2.6741690178e+00 4.6317966068e+00 
76600 4.7631168117e+00 -5.5611184357e-03 2.6742731320e+00 -4.6319769380e+00 2.6742731320e+00 4.6319769380e+00 
76700 4.7631162748e+00 -5.5539091746e-03 2.6743771071e+00 -4.6321570281e+00 2.6743771071e+00 4.6321570281e+00 
76800 4.7631157392e+00 -5.5467191283e-03 2.6744809434e+00 -4.6323368778e+00 2.6744809434e+00 4.6323368778e+00 
76900 4.7631152046e+00 -5.5395481972e-03 2.6745846411e+00 -4.6325164876e+00 2.6745846411e+00 4.6325164876e+00 
77000 4.7631146713e+00 -5.5323962823e-03 2.6746882008e+00 -4.6326958583e+00 2.6746882008e+00 4.6326958583e+00 
77100 4.7631141391e+00 -5.5252632851e-03 2.6747916228e+00 -4.6328749904e+00 2.6747916228e+00 4.6328749904e+00 
77200 4.7631136080e+00 -5.5181491077e-03 2.6748949075e+00 -4.6330538847e+00 2.6748949075e+00 4.6330538847e+00 
77300 4.7631130781e+00 -5.5110536529e-03 2.6749980552e+00 -4.6332325417e+00 2.6749980552e+00 4.6332325417e+00 
77400 4.7631125493e+00 -5.5039768240e-03 2.6751010663e+00 -4.6334109622e+00 2.6751010663e+00 4.6334109622e+00 
77500 4.7631120216e+00 -5.4969185247e-03 2.6752039411e+00 -4.6335891466e+00 2.6752039411e+00 4.6335891466e+00 
77600 4.7631114951e+00 -5.4898786595e-03 2.6753066801e+00 -4.6337670957e+00 2.6753066801e+00 4.6337670957e+00 
77700 4.7631109697e+00 -5.4828571335e-03 2.6754092835e+00 -4.6339448101e+00 2.6754092835e+00 4.6339448101e+00 
77800 4.7631104454e+00 -5.4758538521e-03 2.6755117518e+00 -4.6341222904e+00 2.6755117518e+00 4.6341222904e+00 
77900 4.7631099223e+00 -5.4688687214e-03 2.6756140853e+00 -4.6342995372e+00 2.6756140853e+00 4.6342995372e+00 
78000 4.7631094002e+00 -5.4619016481e-03 2.6757162843e+00 -4.6344765511e+00 2.6757162843e+00 4.6344765511e+00 
78100 4.7631088793e+00 -5.4549525394e-03 2.6758183493e+00 -4.6346533328e+00 2.6758183493e+00 4.6346533328e+00 
78200 4.7631083595e+00 -5.4480213031e-03 2.6759202805e+00 -4.6348298828e+00 2.6759202805e+00 4.6348298828e+00 
78300 4.7631078408e+00 -5.4411078474e-03 2.6760220783e+00 -4.6350062017e+00 2.6760220783e+00 4.6350062017e+00 
78400 4.7631073232e+00 -5.4342120812e-03 2.6761237430e+00 -4.6351822902e+00 2.6761237430e+00 4.6351822902e+00 
78500 4.7631068067e+00 -5.4273339138e-03 2.6762252751e+00 -4.6353581489e+00 2.6762252751e+00 4.6353581489e+00 
78600 4.7631062913e+00 -5.4204732552e-03 2.6763266747e+00 -4.6355337783e+00 2.6763266747e+00 4.6355337783e+00 
78700 4.7631057770e+00 -5.4136300157e-03 2.6764279424e+00 -4.6357091791e+00 2.6764279424e+00 4.6357091791e+00 
78800 4.7631052637e+00 -5.4068041065e-03 2.6765290784e+00 -4.6358843518e+00 2.6765290784e+00 4.6358843518e+00 
78900 4.7631047516e+00 -5.3999954389e-03 2.6766300831e+00 -4.6360592970e+00 2.6766300831e+00 4.6360592970e+00 
79000 4.7631042405e+00 -5.3932039250e-03 2.6767309567e+00 -4.6362340153e+00 2.6767309567e+00 4.6362340153e+00 
79100 4.7631037306e+00 -5.3864294772e-03 2.6768316997e+00 -4.6364085072e+00 2.6768316997e+00 4.6364085072e+00 
79200 4.7631032217e+00 -5.3796720088e-03 2.6769323124e+00 -4.6365827735e+00 2.6769323124e+00 4.6365827735e+00 
79300 4.7631027139e+00 -5.3729314331e-03 2.6770327950e+00 -4.6367568146e+00 2.6770327950e+00 4.6367568146e+00 
79400 4.7631022071e+00 -5.3662076644e-03 2.6771331480e+00 -4.6369306310e+00 2.6771331480e+00 4.6369306310e+00 
79500 4.7631017014e+00 -5.3595006171e-03 2.6772333717e+00 -4.6371042235e+00 2.6772333717e+00 4.6371042235e+00 
79600 4.7631011968e+00 -5.3528102064e-03 2.6773334663e+00 -4.6372775925e+00 2.6773334663e+00 4.6372775925e+00 
79700 4.7631006933e+00 -5.3461363479e-03 2.6774334323e+00 -4.6374507386e+00 2.6774334323e+00 4.6374507386e+00 
79800 4.7631001908e+00 -5.3394789576e-03 2.6775332699e+00 -4.6376236623e+00 2.6775332699e+00 4.6376236623e+00 
79900 4.7630996893e+00 -5.3328379522e-03 2.6776329794e+00 -4.6377963643e+00 2.6776329794e+00 4.6377963643e+00 
80000 4.7630991890e+00 -5.3262132487e-03 2.6777325612e+00 -4.6379688451e+00 2.6777325612e+00 4.6379688451e+00 
80100 4.7630986896e+00 -5.3196047646e-03 2.6778320156e+00 -4.6381411052e+00 2.6778320156e+00 4.6381411052e+00 
80200 4.7630981913e+00 -5.3130124181e-03 2.6779313429e+00 -4.6383131452e+00 2.6779313429e+00 4.6383131452e+00 
80300 4.7630976941e+00 -5.3064361277e-03 2.6780305435e+00 -4.6384849655e+00 2.6780305435e+00 4.6384849655e+00 
80400 4.7630971979e+00 -5.2998758124e-03 2.6781296176e+00 -4.6386565669e+00 2.6781296176e+00 4.6386565669e+00 
80500 4.7630967027e+00 -5.2933313917e-03 2.6782285655e+00 -4.6388279498e+00 2.6782285655e+00 4.6388279498e+00 
80600 4.7630962086e+00 -5.2868027856e-03 2.6783273876e+00 -4.6389991147e+00 2.6783273876e+00 4.6389991147e+00 
80700 4.7630957155e+00 -5.2802899146e-03 2.6784260842e+00 -4.6391700622e+00 2.6784260842e+00 4.6391700622e+00 
80800 4.7630952235e+00 -5.2737926995e-03 2.6785246556e+00 -4.6393407928e+00 2.6785246556e+00 4.6393407928e+00 
80900 4.7630947324e+00 -5.2673110618e-03 2.6786231020e+00 -4.6395113071e+00 2.6786231020e+00 4.6395113071e+00 
81000 4.7630942424e+00 -5.2608449232e-03 2.6787214239e+00 -4.6396816055e+00 2.6787214239e+00 4.6396816055e+00 
81100 4.7630937534e+00 -5.2543942063e-03 2.6788196214e+00 -4.6398516886e+00 2.6788196214e+00 4.6398516886e+00 
81200 4.7630932655e+00 -5.2479588336e-03 2.6789176950e+00 -4.6400215570e+00 2.6789176950e+00 4.6400215570e+00 
81300 4.7630927785e+00 -5.2415387286e-03 2.6790156448e+00 -4.6401912110e+00 2.6790156448e+00 4.6401912110e+00 
81400 4.7630922926e+00 -5.2351338148e-03 2.6791134712e+00 -4.6403606514e+00 2.6791134712e+00 4.6403606514e+00 
81500 4.7630918077e+00 -5.2287440163e-03 2.6792111745e+00 -4.6405298785e+00 2.6792111745e+00 4.6405298785e+00 
81600 4.7630913237e+00 -5.2223692579e-03 2.6793087550e+00 -4.6406988929e+00 2.6793087550e+00 4.6406988929e+00 
81700 4.7630908408e+00 -5.2160094646e-03 2.6794062130e+00 -4.6408676951e+00 2.6794062130e+00 4.6408676951e+00 
81800 4.7630903589e+00 -5.2096645617e-03 2.6795035488e+00 -4.6410362856e+00 2.6795035488e+00 4.6410362856e+00 
81900 4.7630898780e+00 -5.2033344754e-03 2.6796007626e+00 -4.6412046649e+00 2.6796007626e+00 4.6412046649e+00 
82000 4.7630893981e+00 -5.1970191318e-03 2.6796978548e+00 -4.6413728335e+00 2.6796978548e+00 4.6413728335e+00 
82100 4.7630889192e+00 -5.1907184579e-03 2.6797948256e+00 -4.6415407919e+00 2.6797948256e+00 4.6415407919e+00 
82200 4.7630884413e+00 -5.1844323809e-03 2.6798916754e+00 -4.6417085406e+00 2.6798916754e+00 4.6417085406e+00 
82300 4.7630879643e+00 -5.1781608285e-03 2.6799884044e+00 -4.6418760801e+00 2.6799884044e+00 4.6418760801e+00 
82400 4.7630874884e+00 -5.1719037287e-03 2.6800850129e+00 -4.6420434109e+00 2.6800850129e+00 4.6420434109e+00 
82500 4.7630870134e+00 -5.1656610101e-03 2.6801815011e+00 -4.6422105334e+00 2.6801815011e+00 4.6422105334e+00 
82600 4.7630865394e+00 -5.1594326017e-03 2.6802778694e+00 -4.6423774483e+00 2.6802778694e+00 4.6423774483e+00 
82700 4.7630860664e+00 -5.1532184328e-03 2.6803741181e+00 -4.6425441559e+00 2.6803741181e+00 4.6425441559e+00 
82800 4.7630855944e+00 -5.1470184332e-03 2.6804702474e+00 -4.6427106567e+00 2.6804702474e+00 4.6427106567e+00 
82900 4.7630851234e+00 -5.1408325331e-03 2.6805662576e+00 -4.6428769512e+00 2.6805662576e+00 4.6428769512e+00 
83000 4.7630846533e+00 -5.1346606632e-03 2.6806621490e+00 -4.6430430399e+00 2.6806621490e+00 4.6430430399e+00 
83100 4.7630841842e+00 -5.1285027545e-03 2.6807579218e+00 -4.6432089233e+00 2.6807579218e+00 4.6432089233e+00 
83200 4.7630837161e+00 -5.1223587384e-03 2.6808535763e+00 -4.6433746018e+00 2.6808535763e+00 4.6433746018e+00 
83300 4.7630832489e+00 -5.1162285469e-03 2.6809491128e+00 -4.6435400760e+00 2.6809491128e+00 4.6435400760e+00 
83400 4.7630827827e+00 -5.1101121121e-03 2.6810445316e+00 -4.6437053462e+00 2.6810445316e+00 4.6437053462e+00 
83500 4.7630823174e+00 -5.1040093668e-03 2.6811398330e+00 -4.6438704129e+00 2.6811398330e+00 4.6438704129e+00 
83600 4.7630818531e+00 -5.0979202440e-03 2.6812350171e+00 -4.6440352767e+00 2.6812350171e+00 4.6440352767e+00 
83700 4.7630813898e+00 -5.0918446772e-03 2.6813300843e+00 -4.6441999379e+00 2.6813300843e+00 4.6441999379e+00 
83800 4.7630809274e+00 -5.0857826002e-03 2.6814250349e+00 -4.6443643971e+00 2.6814250349e+00 4.6443643971e+00 
83900 4.7630804660e+00 -5.0797339473e-03 2.6815198690e+00 -4.6445286546e+00 2.6815198690e+00 4.6445286546e+00 
84000 4.7630800055e+00 -5.0736986531e-03 2.6816145870e+00 -4.6446927110e+00 2.6816145870e+00 4.6446927110e+00 
84100 4.7630795460e+00 -5.0676766527e-03 2.6817091891e+00 -4.6448565667e+00 2.6817091891e+00 4.6448565667e+00 
84200 4.7630790874e+00 -5.0616678816e-03 2.6818036756e+00 -4.6450202221e+00 2.6818036756e+00 4.6450202221e+00 
84300 4.7630786297e+00 -5.0556722754e-03 2.6818980468e+00 -4.6451836777e+00 2.6818980468e+00 4.6451836777e+00 
84400 4.7630781730e+00 -5.0496897704e-03 2.6819923028e+00 -4.6453469340e+00 2.6819923028e+00 4.6453469340e+00 
84500 4.7630777173e+00 -5.0437203032e-03 2.6820864440e+00 -4.6455099913e+00 2.6820864440e+00 4.6455099913e+00 
84600 4.7630772624e+00 -5.0377638108e-03 2.6821804706e+00 -4.6456728502e+00 2.6821804706e+00 4.6456728502e+00 
84700 4.7630768085e+00 -5.0318202303e-03 2.6822743829e+00 -4.6458355110e+00 2.6822743829e+00 4.6458355110e+00 
84800 4.7630763555e+00 -5.0258894996e-03 2.6823681811e+00 -4.6459979742e+00 2.6823681811e+00 4.6459979742e+00 
84900 4.7630759035e+00 -5.0199715568e-03 2.6824618654e+00 -4.6461602403e+00 2.6824618654e+00 4.6461602403e+00 
85000 4.7630754524e+00 -5.0140663401e-03 2.6825554362e+00 -4.6463223096e+00 2.6825554362e+00 4.6463223096e+00 
85100 4.7630750022e+00 -5.0081737885e-03 2.6826488936e+00 -4.6464841826e+00 2.6826488936e+00 4.6464841826e+00 
85200 4.7630745529e+00 -5.0022938412e-03 2.6827422380e+00 -4.6466458598e+00 2.6827422380e+00 4.6466458598e+00 
85300 4.7630741045e+00 -4.9964264376e-03 2.6828354695e+00 -4.6468073416e+00 2.6828354695e+00 4.6468073416e+00 
85400 4.7630736571e+00 -4.9905715177e-03 2.6829285884e+00 -4.6469686283e+00 2.6829285884e+00 4.6469686283e+00 
85500 4.7630732106e+00 -4.9847290217e-03 2.6830215950e+00 -4.6471297204e+00 2.6830215950e+00 4.6471297204e+00 
85600 4.7630727650e+00 -4.9788988902e-03 2.6831144895e+00 -4.6472906183e+00 2.6831144895e+00 4.6472906183e+00 
85700 4.7630723203e+00 -4.9730810642e-03 2.6832072721e+00 -4.6474513226e+00 2.6832072721e+00 4.6474513226e+00 
85800 4.7630718765e+00 -4.9672754850e-03 2.6832999431e+00 -4.6476118334e+00 2.6832999431e+00 4.6476118334e+00 
85900 4.7630714336e+00 -4.9614820942e-03 2.6833925027e+00 -4.6477721514e+00 2.6833925027e+00 4.6477721514e+00 
86000 4.7630709916e+00 -4.9557008340e-03 2.6834849512e+00 -4.6479322768e+00 2.6834849512e+00 4.6479322768e+00 
86100 4.7630705505e+00 -4.9499316466e-03 2.6835772888e+00 -4.6480922102e+00 2.6835772888e+00 4.6480922102e+00 
86200 4.7630701103e+00 -4.9441744748e-03 2.6836695157e+00 -4.6482519518e+00 2.6836695157e+00 4.6482519518e+00 
86300 4.7630696711e+00 -4.9384292616e-03 2.6837616321e+00 -4.6484115022e+00 2.6837616321e+00 4.6484115022e+00 
86400 4.7630692327e+00 -4.9326959504e-03 2.6838536384e+00 -4.6485708617e+00 2.6838536384e+00 4.6485708617e+00 
86500 4.7630687952e+00 -4.9269744849e-03 2.6839455347e+00 -4.6487300308e+00 2.6839455347e+00 4.6487300308e+00 
86600 4.7630683586e+00 -4.9212648092e-03 2.6840373212e+00 -4.6488890098e+00 2.6840373212e+00 4.6488890098e+00 
86700 4.7630679229e+00 -4.9155668677e-03 2.6841289983e+00 -4.6490477991e+00 2.6841289983e+00 4.6490477991e+00 
86800 4.7630674881e+00 -4.9098806052e-03 2.6842205661e+00 -4.6492063992e+00 2.6842205661e+00 4.6492063992e+00 
86900 4.7630670541e+00 -4.9042059666e-03 2.6843120248e+00 -4.6493648103e+00 2.6843120248e+00 4.6493648103e+00 
87000 4.7630666211e+00 -4.8985428974e-03 2.6844033747e+00 -4.6495230330e+00 2.6844033747e+00 4.6495230330e+00 
87100 4.7630661889e+00 -4.8928913434e-03 2.6844946161e+00 -4.6496810677e+00 2.6844946161e+00 4.6496810677e+00 
87200 4.7630657576e+00 -4.8872512504e-03 2.6845857490e+00 -4.6498389146e+00 2.6845857490e+00 4.6498389146e+00 
87300 4.7630653272e+00 -4.8816225650e-03 2.6846767738e+00 -4.6499965742e+00 2.6846767738e+00 4.6499965742e+00 
87400 4.7630648977e+00 -4.8760052338e-03 2.6847676908e+00 -4.6501540469e+00 2.6847676908e+00 4.6501540469e+00 
87500 4.7630644690e+00 -4.8703992038e-03 2.6848585000e+00 -4.6503113331e+00 2.6848585000e+00 4.6503113331e+00 
87600 4.7630640412e+00 -4.8648044223e-03 2.6849492017e+00 -4.6504684331e+00 2.6849492017e+00 4.6504684331e+00 
87700 4.7630636143e+00 -4.8592208370e-03 2.6850397962e+00 -4.6506253473e+00 2.6850397962e+00 4.6506253473e+00 
87800 4.7630631883e+00 -4.8536483958e-03 2.6851302836e+00 -4.6507820762e+00 2.6851302836e+00 4.6507820762e+00 
87900 4.7630627631e+00 -4.8480870470e-03 2.6852206643e+00 -4.6509386201e+00 2.6852206643e+00 4.6509386201e+00 
88000 4.7630623387e+00 -4.8425367392e-03 2.6853109383e+00 -4.6510949793e+00 2.6853109383e+00 4.6510949793e+00 
88100 4.7630619153e+00 -4.8369974212e-03 2.6854011060e+00 -4.6512511542e+00 2.6854011060e+00 4.6512511542e+00 
88200 4.7630614927e+00 -4.8314690422e-03 2.6854911675e+00 -4.6514071453e+00 2.6854911675e+00 4.6514071453e+00 
88300 4.7630610710e+00 -4.8259515518e-03 2.6855811230e+00 -4.6515629529e+00 2.6855811230e+00 4.6515629529e+00 
88400 4.7630606501e+00 -4.8204448997e-03 2.6856709728e+00 -4.6517185773e+00 2.6856709728e+00 4.6517185773e+00 
88500 4.7630602301e+00 -4.8149490361e-03 2.6857607171e+00 -4.6518740189e+00 2.6857607171e+00 4.6518740189e+00 
88600 4.7630598109e+00 -4.8094639113e-03 2.6858503560e+00 -4.6520292782e+00 2.6858503560e+00 4.6520292782e+00 
88700 4.7630593926e+00 -4.8039894760e-03 2.6859398899e+00 -4.6521843553e+00 2.6859398899e+00 4.6521843553e+00 
88800 4.7630589751e+00 -4.7985256812e-03 2.6860293188e+00 -4.6523392508e+00 2.6860293188e+00 4.6523392508e+00 
88900 4.7630585585e+00 -4.7930724782e-03 2.6861186431e+00 -4.6524939650e+00 2.6861186431e+00 4.6524939650e+00 
89000 4.7630581427e+00 -4.7876298186e-03 2.6862078629e+00 -4.6526484982e+00 2.6862078629e+00 4.6526484982e+00 
89100 4.7630577277e+00 -4.7821976542e-03 2.6862969784e+00 -4.6528028508e+00 2.6862969784e+00 4.6528028508e+00 
89200 4.7630573137e+00 -4.7767759372e-03 2.6863859899e+00 -4.6529570232e+00 2.6863859899e+00 4.6529570232e+00 
89300 4.7630569004e+00 -4.7713646201e-03 2.6864748975e+00 -4.6531110157e+00 2.6864748975e+00 4.6531110157e+00 
89400 4.7630564880e+00 -4.7659636556e-03 2.6865637014e+00 -4.6532648286e+00 2.6865637014e+00 4.6532648286e+00 
89500 4.7630560764e+00 -4.7605729966e-03 2.6866524019e+00 -4.6534184623e+00 2.6866524019e+00 4.6534184623e+00 
89600 4.7630556657e+00 -4.7551925966e-03 2.6867409991e+00 -4.6535719172e+00 2.6867409991e+00 4.6535719172e+00 
89700 4.7630552558e+00 -4.7498224090e-03 2.6868294933e+00 -4.6537251937e+00 2.6868294933e+00 4.6537251937e+00 
89800 4.7630548467e+00 -4.7444623877e-03 2.6869178846e+00 -4.6538782919e+00 2.6869178846e+00 4.6538782919e+00 
89900 4.7630544384e+00 -4.7391124869e-03 2.6870061733e+00 -4.6540312124e+00 2.6870061733e+00 4.6540312124e+00 
90000 4.7630540310e+00 -4.7337726609e-03 2.6870943595e+00 -4.6541839554e+00 2.6870943595e+00 4.6541839554e+00 
90100 4.7630536244e+00 -4.7284428645e-03 2.6871824435e+00 -4.6543365213e+00 2.6871824435e+00 4.6543365213e+00 
90200 4.7630532186e+00 -4.7231230525e-03 2.6872704254e+00 -4.6544889104e+00 2.6872704254e+00 4.6544889104e+00 
90300 4.7630528137e+00 -4.7178131803e-03 2.6873583054e+00 -4.6546411231e+00 2.6873583054e+00 4.6546411231e+00 
90400 4.7630524096e+00 -4.7125132034e-03 2.6874460838e+00 -4.6547931597e+00 2.6874460838e+00 4.6547931597e+00 
90500 4.7630520063e+00 -4.7072230774e-03 2.6875337607e+00 -4.6549450206e+00 2.6875337607e+00 4.6549450206e+00 
90600 4.7630516038e+00 -4.7019427584e-03 2.6876213363e+00 -4.6550967060e+00 2.6876213363e+00 4.6550967060e+00 
90700 4.7630512021e+00 -4.6966722027e-03 2.6877088108e+00 -4.6552482163e+00 2.6877088108e+00 4.6552482163e+00 
90800 4.7630508012e+00 -4.6914113669e-03 2.6877961845e+00 -4.6553995519e+00 2.6877961845e+00 4.6553995519e+00 
90900 4.7630504012e+00 -4.6861602078e-03 2.6878834574e+00 -4.6555507131e+00 2.6878834574e+00 4.6555507131e+00 
91000 4.7630500019e+00 -4.6809186824e-03 2.6879706298e+00 -4.6557017001e+00 2.6879706298e+00 4.6557017001e+00 
91100 4.7630496035e+00 -4.6756867481e-03 2.6880577019e+00 -4.6558525134e+00 2.6880577019e+00 4.6558525134e+00 
91200 4.7630492059e+00 -4.6704643626e-03 2.6881446738e+00 -4.6560031532e+00 2.6881446738e+00 4.6560031532e+00 
91300 4.7630488091e+00 -4.6652514835e-03 2.6882315458e+00 -4.6561536199e+00 2.6882315458e+00 4.6561536199e+00 
91400 4.7630484131e+00 -4.6600480691e-03 2.6883183181e+00 -4.6563039138e+00 2.6883183181e+00 4.6563039138e+00 
91500 4.7630480178e+00 -4.6548540777e-03 2.6884049907e+00 -4.6564540352e+00 2.6884049907e+00 4.6564540352e+00 
91600 4.7630476234e+00 -4.6496694678e-03 2.6884915639e+00 -4.6566039845e+00 2.6884915639e+00 4.6566039845e+00 
91700 4.7630472298e+00 -4.6444941985e-03 2.6885780380e+00 -4.6567537619e+00 2.6885780380e+00 4.6567537619e+00 
91800 4.7630468370e+00 -4.6393282287e-03 2.6886644130e+00 -4.6569033678e+00 2.6886644130e+00 4.6569033678e+00 
91900 4.7630464450e+00 -4.6341715178e-03 2.6887506892e+00 -4.6570528025e+00 2.6887506892e+00 4.6570528025e+00 
92000 4.7630460538e+00 -4.6290240253e-03 2.6888368667e+00 -4.6572020663e+00 2.6888368667e+00 4.6572020663e+00 
92100 4.7630456633e+00 -4.6238857113e-03 2.6889229457e+00 -4.6573511595e+00 2.6889229457e+00 4.6573511595e+00 
92200 4.7630452737e+00 -4.6187565356e-03 2.6890089264e+00 -4.6575000825e+00 2.6890089264e+00 4.6575000825e+00 
92300 4.7630448848e+00 -4.6136364587e-03 2.6890948090e+00 -4.6576488355e+00 2.6890948090e+00 4.6576488355e+00 
92400 4.7630444967e+00 -4.6085254410e-03 2.6891805936e+00 -4.6577974189e+00 2.6891805936e+00 4.6577974189e+00 
92500 4.7630441095e+00 -4.6034234435e-03 2.6892662805e+00 -4.6579458329e+00 2.6892662805e+00 4.6579458329e+00 
92600 4.7630437230e+00 -4.5983304271e-03 2.6893518698e+00 -4.6580940779e+00 2.6893518698e+00 4.6580940779e+00 
92700 4.7630433372e+00 -4.5932463530e-03 2.6894373617e+00 -4.6582421542e+00 2.6894373617e+00 4.6582421542e+00 
92800 4.7630429523e+00 -4.5881711829e-03 2.6895227563e+00 -4.6583900621e+00 2.6895227563e+00 4.6583900621e+00 
92900 4.7630425682e+00 -4.5831048784e-03 2.6896080539e+00 -4.6585378018e+00 2.6896080539e+00 4.6585378018e+00 
93000 4.7630421848e+00 -4.5780474015e-03 2.6896932546e+00 -4.6586853737e+00 2.6896932546e+00 4.6586853737e+00 
93100 4.7630418022e+00 -4.5729987144e-03 2.6897783585e+00 -4.6588327781e+00 2.6897783585e+00 4.6588327781e+00 
93200 4.7630414203e+00 -4.5679587795e-03 2.6898633660e+00 -4.6589800153e+00 2.6898633660e+00 4.6589800153e+00 
93300 4.7630410393e+00 -4.5629275594e-03 2.6899482770e+00 -4.6591270856e+00 2.6899482770e+00 4.6591270856e+00 
93400 4.7630406590e+00 -4.5579050171e-03 2.6900330919e+00 -4.6592739892e+00 2.6900330919e+00 4.6592739892e+00 
93500 4.7630402795e+00 -4.5528911156e-03 2.6901178107e+00 -4.6594207265e+00 2.6901178107e+00 4.6594207265e+00 
93600 4.7630399007e+00 -4.5478858183e-03 2.6902024337e+00 -4.6595672978e+00 2.6902024337e+00 4.6595672978e+00 
93700 4.7630395228e+00 -4.5428890886e-03 2.6902869610e+00 -4.6597137033e+00 2.6902869610e+00 4.6597137033e+00 
93800 4.7630391456e+00 -4.5379008905e-03 2.6903713927e+00 -4.6598599434e+00 2.6903713927e+00 4.6598599434e+00 
93900 4.7630387691e+00 -4.5329211878e-03 2.6904557291e+00 -4.6600060183e+00 2.6904557291e+00 4.6600060183e+00 
94000 4.7630383934e+00 -4.5279499447e-03 2.6905399703e+00 -4.6601519284e+00 2.6905399703e+00 4.6601519284e+00 
94100 4.7630380185e+00 -4.5229871257e-03 2.6906241165e+00 -4.6602976739e+00 2.6906241165e+00 4.6602976739e+00 
94200 4.7630376443e+00 -4.5180326953e-03 2.6907081678e+00 -4.6604432550e+00 2.6907081678e+00 4.6604432550e+00 
94300 4.7630372709e+00 -4.5130866185e-03 2.6907921245e+00 -4.6605886722e+00 2.6907921245e+00 4.6605886722e+00 
94400 4.7630368982e+00 -4.5081488603e-03 2.6908759866e+00 -4.6607339256e+00 2.6908759866e+00 4.6607339256e+00 
94500 4.7630365263e+00 -4.5032193860e-03 2.6909597543e+00 -4.6608790156e+00 2.6909597543e+00 4.6608790156e+00 
94600 4.7630361552e+00 -4.4982981609e-03 2.6910434279e+00 -4.6610239424e+00 2.6910434279e+00 4.6610239424e+00 
94700 4.7630357848e+00 -4.4933851509e-03 2.6911270074e+00 -4.6611687064e+00 2.6911270074e+00 4.6611687064e+00 
94800 4.7630354152e+00 -4.4884803219e-03 2.6912104930e+00 -4.6613133077e+00 2.6912104930e+00 4.6613133077e+00 
94900 4.7630350463e+00 -4.4835836398e-03 2.6912938849e+00 -4.6614577467e+00 2.6912938849e+00 4.6614577467e+00 
95000 4.7630346781e+00 -4.4786950711e-03 2.6913771833e+00 -4.6616020237e+00 2.6913771833e+00 4.6616020237e+00 
95100 4.7630343107e+00 -4.4738145821e-03 2.6914603882e+00 -4.6617461389e+00 2.6914603882e+00 4.6617461389e+00 
95200 4.7630339440e+00 -4.4689421397e-03 2.6915434999e+00 -4.6618900926e+00 2.6915434999e+00 4.6618900926e+00 
95300 4.7630335781e+00 -4.4640777108e-03 2.6916265185e+00 -4.6620338851e+00 2.6916265185e+00 4.6620338851e+00 
95400 4.7630332129e+00 -4.4592212624e-03 2.6917094443e+00 -4.6621775167e+00 2.6917094443e+00 4.6621775167e+00 
95500 4.7630328485e+00 -4.4543727619e-03 2.6917922772e+00 -4.6623209875e+00 2.6917922772e+00 4.6623209875e+00 
95600 4.7630324848e+00 -4.4495321768e-03 2.6918750175e+00 -4.6624642980e+00 2.6918750175e+00 4.6624642980e+00 
95700 4.7630321218e+00 -4.4446994748e-03 2.6919576654e+00 -4.6626074483e+00 2.6919576654e+00 4.6626074483e+00 
95800 4.7630317596e+00 -4.4398746237e-03 2.6920402210e+00 -4.6627504387e+00 2.6920402210e+00 4.6627504387e+00 
95900 4.7630313981e+00 -4.4350575917e-03 2.6921226844e+00 -4.6628932696e+00 2.6921226844e+00 4.6628932696e+00 
96000 4.7630310373e+00 -4.4302483471e-03 2.6922050558e+00 -4.6630359411e+00 2.6922050558e+00 4.6630359411e+00 
96100 4.7630306773e+00 -4.4254468584e-03 2.6922873354e+00 -4.6631784535e+00 2.6922873354e+00 4.6631784535e+00 
96200 4.7630303180e+00 -4.4206530941e-03 2.6923695233e+00 -4.6633208072e+00 2.6923695233e+00 4.6633208072e+00 
96300 4.7630299594e+00 -4.4158670233e-03 2.6924516197e+00 -4.6634630023e+00 2.6924516197e+00 4.6634630023e+00 
96400 4.7630296016e+00 -4.4110886148e-03 2.6925336247e+00 -4.6636050391e+00 2.6925336247e+00 4.6636050391e+00 
96500 4.7630292445e+00 -4.4063178380e-03 2.6926155385e+00 -4.6637469179e+00 2.6926155385e+00 4.6637469179e+00 
96600 4.7630288881e+00 -4.4015546623e-03 2.6926973611e+00 -4.6638886389e+00 2.6926973611e+00 4.6638886389e+00 
96700 4.7630285324e+00 -4.3967990573e-03 2.6927790929e+00 -4.6640302024e+00 2.6927790929e+00 4.6640302024e+00 
96800 4.7630281774e+00 -4.3920509927e-03 2.6928607338e+00 -4.6641716087e+00 2.6928607338e+00 4.6641716087e+00 
96900 4.7630278232e+00 -4.3873104386e-03 2.6929422842e+00 -4.6643128580e+00 2.6929422842e+00 4.6643128580e+00 
97000 4.7630274697e+00 -4.3825773651e-03 2.6930237440e+00 -4.6644539506e+00 2.6930237440e+00 4.6644539506e+00 
97100 4.7630271168e+00 -4.3778517425e-03 2.6931051135e+00 -4.6645948867e+00 2.6931051135e+00 4.6645948867e+00 
97200 4.7630267648e+00 -4.3731335414e-03 2.6931863928e+00 -4.6647356665e+00 2.6931863928e+00 4.6647356665e+00 
97300 4.7630264134e+00 -4.3684227324e-03 2.6932675820e+00 -4.6648762904e+00 2.6932675820e+00 4.6648762904e+00 
97400 4.7630260627e+00 -4.3637192864e-03 2.6933486814e+00 -4.6650167586e+00 2.6933486814e+00 4.6650167586e+00 
97500 4.7630257128e+00 -4.3590231745e-03 2.6934296910e+00 -4.6651570713e+00 2.6934296910e+00 4.6651570713e+00 
97600 4.7630253635e+00 -4.3543343679e-03 2.6935106109e+00 -4.6652972288e+00 2.6935106109e+00 4.6652972288e+00 
97700 4.7630250150e+00 -4.3496528379e-03 2.6935914414e+00 -4.6654372314e+00 2.6935914414e+00 4.6654372314e+00 
97800 4.7630246672e+00 -4.3449785562e-03 2.6936721826e+00 -4.6655770792e+00 2.6936721826e+00 4.6655770792e+00 
97900 4.7630243200e+00 -4.3403114945e-03 2.6937528346e+00 -4.6657167725e+00 2.6937528346e+00 4.6657167725e+00 
98000 4.7630239736e+00 -4.3356516247e-03 2.6938333975e+00 -4.6658563116e+00 2.6938333975e+00 4.6658563116e+00 
98100 4.7630236279e+00 -4.3309989188e-03 2.6939138716e+00 -4.6659956968e+00 2.6939138716e+00 4.6659956968e+00 
98200 4.7630232829e+00 -4.3263533492e-03 2.6939942568e+00 -4.6661349282e+00 2.6939942568e+00 4.6661349282e+00 
98300 4.7630229386e+00 -4.3217148883e-03 2.6940745535e+00 -4.6662740061e+00 2.6940745535e+00 4.6662740061e+00 
98400 4.7630225950e+00 -4.3170835086e-03 2.6941547617e+00 -4.6664129307e+00 2.6941547617e+00 4.6664129307e+00 
98500 4.7630222520e+00 -4.3124591829e-03 2.6942348815e+00 -4.6665517023e+00 2.6942348815e+00 4.6665517023e+00 
98600 4.7630219098e+00 -4.3078418841e-03 2.6943149132e+00 -4.6666903212e+00 2.6943149132e+00 4.6666903212e+00 
98700 4.7630215683e+00 -4.3032315853e-03 2.6943948567e+00 -4.6668287875e+00 2.6943948567e+00 4.6668287875e+00 
98800 4.7630212275e+00 -4.2986282597e-03 2.6944747124e+00 -4.6669671016e+00 2.6944747124e+00 4.6669671016e+00 
98900 4.7630208873e+00 -4.2940318808e-03 2.6945544802e+00 -4.6671052635e+00 2.6945544802e+00 4.6671052635e+00 
99000 4.7630205479e+00 -4.2894424221e-03 2.6946341604e+00 -4.6672432737e+00 2.6946341604e+00 4.6672432737e+00 
99100 4.7630202091e+00 -4.2848598573e-03 2.6947137531e+00 -4.6673811323e+00 2.6947137531e+00 4.6673811323e+00 
99200 4.7630198710e+00 -4.2802841603e-03 2.6947932584e+00 -4.6675188395e+00 2.6947932584e+00 4.6675188395e+00 
99300 4.7630195336e+00 -4.2757153052e-03 2.6948726765e+00 -4.6676563956e+00 2.6948726765e+00 4.6676563956e+00 
99400 4.7630191969e+00 -4.2711532662e-03 2.6949520075e+00 -4.6677938009e+00 2.6949520075e+00 4.6677938009e+00 
99500 4.7630188609e+00 -4.2665980176e-03 2.6950312514e+00 -4.6679310555e+00 2.6950312514e+00 4.6679310555e+00 
99600 4.7630185256e+00 -4.2620495339e-03 2.6951104086e+00 -4.6680681596e+00 2.6951104086e+00 4.6680681596e+00 
99700 4.7630181909e+00 -4.2575077898e-03 2.6951894790e+00 -4.6682051136e+00 2.6951894790e+00 4.6682051136e+00 
99800 4.7630178569e+00 -4.2529727602e-03 2.6952684628e+00 -4.6683419177e+00 2.6952684628e+00 4.6683419177e+00 
99900 4.7630175236e+00 -4.2484444200e-03 2.6953473602e+00 -4.6684785720e+00 2.6953473602e+00 4.6684785720e+00 
100000 4.7630171910e+00 -4.2439227442e-03 2.6954261713e+00 -4.6686150768e+00 2.6954261713e+00 4.6686150768e+00 
100100 4.7630168590e+00 -4.2394077083e-03 2.6955048962e+00 -4.6687514323e+00 2.6955048962e+00 4.6687514323e+00 
100200 4.7630165278e+00 -4.2348992876e-03 2.6955835351e+00 -4.6688876388e+00 2.6955835351e+00 4.6688876388e+00 
100300 4.7630161972e+00 -4.2303974577e-03 2.6956620880e+00 -4.6690236965e+00 2.6956620880e+00 4.6690236965e+00 
100400 4.7630158672e+00 -4.2259021944e-03 2.6957405551e+00 -4.6691596055e+00 2.6957405551e+00 4.6691596055e+00 
100500 4.7630155380e+00 -4.2214134734e-03 2.6958189366e+00 -4.6692953662e+00 2.6958189366e+00 4.6692953662e+00 
100600 4.7630152094e+00 -4.2169312708e-03 2.6958972326e+00 -4.6694309788e+00 2.6958972326e+00 4.6694309788e+00 
100700 4.7630148815e+00 -4.2124555627e-03 2.6959754431e+00 -4.6695664434e+00 2.6959754431e+00 4.6695664434e+00 
100800 4.7630145542e+00 -4.2079863256e-03 2.6960535684e+00 -4.6697017604e+00 2.6960535684e+00 4.6697017604e+00 
100900 4.7630142276e+00 -4.2035235357e-03 2.6961316085e+00 -4.6698369298e+00 2.6961316085e+00 4.6698369298e+00 
101000 4.7630139017e+00 -4.1990671698e-03 2.6962095636e+00 -4.6699719520e+00 2.6962095636e+00 4.6699719520e+00 
101100 4.7630135765e+00 -4.1946172044e-03 2.6962874338e+00 -4.6701068271e+00 2.6962874338e+00 4.6701068271e+00 
101200 4.7630132519e+00 -4.1901736166e-03 2.6963652192e+00 -4.6702415554e+00 2.6963652192e+00 4.6702415554e+00 
101300 4.7630129279e+00 -4.1857363833e-03 2.6964429200e+00 -4.6703761371e+00 2.6964429200e+00 4.6703761371e+00 
101400 4.7630126046e+00 -4.1813054817e-03 2.6965205363e+00 -4.6705105725e+00 2.6965205363e+00 4.6705105725e+00 
101500 4.7630122820e+00 -4.1768808890e-03 2.6965980681e+00 -4.6706448616e+00 2.6965980681e+00 4.6706448616e+00 
101600 4.7630119600e+00 -4.1724625827e-03 2.6966755157e+00 -4.6707790048e+00 2.6966755157e+00 4.6707790048e+00 
101700 4.7630116387e+00 -4.1680505403e-03 2.6967528792e+00 -4.6709130022e+00 2.6967528792e+00 4.6709130022e+00 
101800 4.7630113181e+00 -4.1636447396e-03 2.6968301586e+00 -4.6710468541e+00 2.6968301586e+00 4.6710468541e+00 
101900 4.7630109981e+00 -4.1592451584e-03 2.6969073541e+00 -4.6711805607e+00 2.6969073541e+00 4.6711805607e+00 
102000 4.7630106787e+00 -4.1548517746e-03 2.6969844659e+00 -4.6713141221e+00 2.6969844659e+00 4.6713141221e+00 
102100 4.7630103600e+00 -4.1504645663e-03 2.6970614940e+00 -4.6714475387e+00 2.6970614940e+00 4.6714475387e+00 
102200 4.7630100420e+00 -4.1460835119e-03 2.6971384385e+00 -4.6715808106e+00 2.6971384385e+00 4.6715808106e+00 
102300 4.7630097246e+00 -4.1417085896e-03 2.6972152997e+00 -4.6717139380e+00 2.6972152997e+00 4.6717139380e+00 
102400 4.7630094078e+00 -4.1373397779e-03 2.6972920776e+00 -4.6718469212e+00 2.6972920776e+00 4.6718469212e+00 
102500 4.7630090917e+00 -4.1329770555e-03 2.6973687722e+00 -4.6719797603e+00 2.6973687722e+00 4.6719797603e+00 
102600 4.7630087762e+00 -4.1286204011e-03 2.6974453839e+00 -4.6721124555e+00 2.6974453839e+00 4.6721124555e+00 
102700 4.7630084614e+00 -4.1242697936e-03 2.6975219126e+00 -4.6722450071e+00 2.6975219126e+00 4.6722450071e+00 
102800 4.7630081472e+00 -4.1199252121e-03 2.6975983585e+00 -4.6723774153e+00 2.6975983585e+00 4.6723774153e+00 
102900 4.7630078337e+00 -4.1155866356e-03 2.6976747217e+00 -4.6725096802e+00 2.6976747217e+00 4.6725096802e+00 
103000 4.7630075208e+00 -4.1112540434e-03 2.6977510023e+00 -4.6726418021e+00 2.6977510023e+00 4.6726418021e+00 
103100 4.7630072085e+00 -4.1069274149e-03 2.6978272004e+00 -4.6727737812e+00 2.6978272004e+00 4.6727737812e+00 
103200 4.7630068969e+00 -4.1026067296e-03 2.6979033163e+00 -4.6729056177e+00 2.6979033163e+00 4.6729056177e+00 
103300 4.7630065859e+00 -4.0982919672e-03 2.6979793499e+00 -4.6730373117e+00 2.6979793499e+00 4.6730373117e+00 
103400 4.7630062755e+00 -4.0939831074e-03 2.6980553014e+00 -4.6731688636e+00 2.6980553014e+00 4.6731688636e+00 
103500 4.7630059658e+00 -4.0896801302e-03 2.6981311709e+00 -4.6733002734e+00 2.6981311709e+00 4.6733002734e+00 
103600 4.7630056567e+00 -4.0853830154e-03 2.6982069585e+00 -4.6734315414e+00 2.6982069585e+00 4.6734315414e+00 
103700 4.7630053482e+00 -4.0810917432e-03 2.6982826644e+00 -4.6735626679e+00 2.6982826644e+00 4.6735626679e+00 
103800 4.7630050404e+00 -4.0768062940e-03 2.6983582886e+00 -4.6736936529e+00 2.6983582886e+00 4.6736936529e+00 
103900 4.7630047332e+00 -4.0725266479e-03 2.6984338313e+00 -4.6738244967e+00 2.6984338313e+00 4.6738244967e+00 
104000 4.7630044266e+00 -4.0682527856e-03 2.6985092926e+00 -4.6739551994e+00 2.6985092926e+00 4.6739551994e+00 
104100 4.7630041206e+00 -4.0639846876e-03 2.6985846726e+00 -4.6740857614e+00 2.6985846726e+00 4.6740857614e+00 
104200 4.7630038153e+00 -4.0597223346e-03 2.6986599714e+00 -4.6742161827e+00 2.6986599714e+00 4.6742161827e+00 
104300 4.7630035106e+00 -4.0554657076e-03 2.6987351891e+00 -4.6743464637e+00 2.6987351891e+00 4.6743464637e+00 
104400 4.7630032065e+00 -4.0512147873e-03 2.6988103258e+00 -4.6744766043e+00 2.6988103258e+00 4.6744766043e+00 
104500 4.7630029030e+00 -4.0469695549e-03 2.6988853818e+00 -4.6746066050e+00 2.6988853818e+00 4.6746066050e+00 
104600 4.7630026002e+00 -4.0427299916e-03 2.6989603569e+00 -4.6747364658e+00 2.6989603569e+00 4.6747364658e+00 
104700 4.7630022980e+00 -4.0384960786e-03 2.6990352515e+00 -4.6748661870e+00 2.6990352515e+00 4.6748661870e+00 
104800 4.7630019964e+00 -4.0342677974e-03 2.6991100655e+00 -4.6749957687e+00 2.6991100655e+00 4.6749957687e+00 
104900 4.7630016954e+00 -4.0300451295e-03 2.6991847992e+00 -4.6751252112e+00 2.6991847992e+00 4.6751252112e+00 
105000 4.7630013950e+00 -4.0258280564e-03 2.6992594525e+00 -4.6752545146e+00 2.6992594525e+00 4.6752545146e+00 
105100 4.7630010952e+00 -4.0216165600e-03 2.6993340257e+00 -4.6753836791e+00 2.6993340257e+00 4.6753836791e+00 
105200 4.7630007961e+00 -4.0174106221e-03 2.6994085188e+00 -4.6755127049e+00 2.6994085188e+00 4.6755127049e+00 
105300 4.7630004975e+00 -4.0132102246e-03 2.6994829319e+00 -4.6756415922e+00 2.6994829319e+00 4.6756415922e+00 
105400 4.7630001996e+00 -4.0090153497e-03 2.6995572652e+00 -4.6757703413e+00 2.6995572652e+00 4.6757703413e+00 
105500 4.7629999023e+00 -4.0048259794e-03 2.6996315187e+00 -4.6758989522e+00 2.6996315187e+00 4.6758989522e+00 
105600 4.7629996056e+00 -4.0006420961e-03 2.6997056927e+00 -4.6760274252e+00 2.6997056927e+00 4.6760274252e+00 
105700 4.7629993095e+00 -3.9964636821e-03 2.6997797870e+00 -4.6761557604e+00 2.6997797870e+00 4.6761557604e+00 
105800 4.7629990140e+00 -3.9922907200e-03 2.6998538020e+00 -4.6762839581e+00 2.6998538020e+00 4.6762839581e+00 
105900 4.7629987191e+00 -3.9881231923e-03 2.6999277376e+00 -4.6764120184e+00 2.6999277376e+00 4.6764120184e+00 
106000 4.7629984248e+00 -3.9839610818e-03 2.7000015941e+00 -4.6765399415e+00 2.7000015941e+00 4.6765399415e+00 
106100 4.7629981311e+00 -3.9798043712e-03 2.7000753714e+00 -4.6766677276e+00 2.7000753714e+00 4.6766677276e+00 
106200 4.7629978380e+00 -3.9756530435e-03 2.7001490698e+00 -4.6767953769e+00 2.7001490698e+00 4.6767953769e+00 
106300 4.7629975455e+00 -3.9715070817e-03 2.7002226893e+00 -4.6769228896e+00 2.7002226893e+00 4.6769228896e+00 
106400 4.7629972536e+00 -3.9673664689e-03 2.7002962300e+00 -4.6770502658e+00 2.7002962300e+00 4.6770502658e+00 
106500 4.7629969623e+00 -3.9632311883e-03 2.7003696920e+00 -4.6771775057e+00 2.7003696920e+00 4.6771775057e+00 
106600 4.7629966716e+00 -3.9591012232e-03 2.7004430754e+00 -4.6773046096e+00 2.7004430754e+00 4.6773046096e+00 
106700 4.7629963815e+00 -3.9549765571e-03 2.7005163804e+00 -4.6774315776e+00 2.7005163804e+00 4.6774315776e+00 
106800 4.7629960920e+00 -3.9508571735e-03 2.7005896071e+00 -4.6775584098e+00 2.7005896071e+00 4.6775584098e+00 
106900 4.7629958031e+00 -3.9467430559e-03 2.7006627554e+00 -4.6776851065e+00 2.7006627554e+00 4.6776851065e+00 
107000 4.7629955148e+00 -3.9426341881e-03 2.7007358257e+00 -4.6778116679e+00 2.7007358257e+00 4.6778116679e+00 
107100 4.7629952270e+00 -3.9385305539e-03 2.7008088179e+00 -4.6779380941e+00 2.7008088179e+00 4.6779380941e+00 
107200 4.7629949399e+00 -3.9344321373e-03 2.7008817321e+00 -4.6780643852e+00 2.7008817321e+00 4.6780643852e+00 
107300 4.7629946533e+00 -3.9303389222e-03 2.7009545685e+00 -4.6781905416e+00 2.7009545685e+00 4.6781905416e+00 
107400 4.7629943674e+00 -3.9262508927e-03 2.7010273271e+00 -4.6783165633e+00 2.7010273271e+00 4.6783165633e+00 
107500 4.7629940820e+00 -3.9221680330e-03 2.7011000082e+00 -4.6784424505e+00 2.7011000082e+00 4.6784424505e+00 
107600 4.7629937972e+00 -3.9180903274e-03 2.7011726117e+00 -4.6785682034e+00 2.7011726117e+00 4.6785682034e+00 
107700 4.7629935130e+00 -3.9140177604e-03 2.7012451377e+00 -4.6786938222e+00 2.7012451377e+00 4.6786938222e+00 
107800 4.7629932293e+00 -3.9099503163e-03 2.7013175864e+00 -4.6788193071e+00 2.7013175864e+00 4.6788193071e+00 
107900 4.7629929463e+00 -3.9058879797e-03 2.7013899579e+00 -4.6789446582e+00 2.7013899579e+00 4.6789446582e+00 
108000 4.7629926638e+00 -3.9018307354e-03 2.7014622523e+00 -4.6790698757e+00 2.7014622523e+00 4.6790698757e+00 
108100 4.7629923819e+00 -3.8977785680e-03 2.7015344696e+00 -4.6791949598e+00 2.7015344696e+00 4.6791949598e+00 
108200 4.7629921006e+00 -3.8937314625e-03 2.7016066100e+00 -4.6793199106e+00 2.7016066100e+00 4.6793199106e+00 
108300 4.7629918199e+00 -3.8896894037e-03 2.7016786736e+00 -4.6794447284e+00 2.7016786736e+00 4.6794447284e+00 
108400 4.7629915397e+00 -3.8856523767e-03 2.7017506605e+00 -4.6795694133e+00 2.7017506605e+00 4.6795694133e+00 
108500 4.7629912601e+00 -3.8816203665e-03 2.7018225707e+00 -4.6796939655e+00 2.7018225707e+00 4.6796939655e+00 
108600 4.7629909811e+00 -3.8775933585e-03 2.7018944044e+00 -4.6798183851e+00 2.7018944044e+00 4.6798183851e+00 
108700 4.7629907027e+00 -3.8735713379e-03 2.7019661616e+00 -4.6799426723e+00 2.7019661616e+00 4.6799426723e+00 
108800 4.7629904248e+00 -3.8695542900e-03 2.7020378425e+00 -4.6800668273e+00 2.7020378425e+00 4.6800668273e+00 
108900 4.7629901476e+00 -3.8655422004e-03 2.7021094472e+00 -4.6801908502e+00 2.7021094472e+00 4.6801908502e+00 
109000 4.7629898708e+00 -3.8615350546e-03 2.7021809758e+00 -4.6803147413e+00 2.7021809758e+00 4.6803147413e+00 
109100 4.7629895947e+00 -3.8575328382e-03 2.7022524283e+00 -4.6804385007e+00 2.7022524283e+00 4.6804385007e+00 
109200 4.7629893191e+00 -3.8535355370e-03 2.7023238048e+00 -4.6805621285e+00 2.7023238048e+00 4.6805621285e+00 
109300 4.7629890441e+00 -3.8495431367e-03 2.7023951056e+00 -4.6806856250e+00 2.7023951056e+00 4.6806856250e+00 
109400 4.7629887696e+00 -3.8455556234e-03 2.7024663305e+00 -4.6808089902e+00 2.7024663305e+00 4.6808089902e+00 
109500 4.7629884957e+00 -3.8415729829e-03 2.7025374798e+00 -4.6809322244e+00 2.7025374798e+00 4.6809322244e+00 
109600 4.7629882224e+00 -3.8375952013e-03 2.7026085536e+00 -4.6810553278e+00 2.7026085536e+00 4.6810553278e+00 
109700 4.7629879496e+00 -3.8336222647e-03 2.7026795519e+00 -4.6811783005e+00 2.7026795519e+00 4.6811783005e+00 
109800 4.7629876774e+00 -3.8296541595e-03 2.7027504748e+00 -4.6813011426e+00 2.7027504748e+00 4.6813011426e+00 
109900 4.7629874058e+00 -3.8256908718e-03 2.7028213225e+00 -4.6814238543e+00 2.7028213225e+00 4.6814238543e+00 
110000 4.7629871347e+00 -3.8217323882e-03 2.7028920950e+00 -4.6815464359e+00 2.7028920950e+00 4.6815464359e+00 
110100 4.7629868642e+00 -3.8177786950e-03 2.7029627924e+00 -4.6816688874e+00 2.7029627924e+00 4.6816688874e+00 
110200 4.7629865942e+00 -3.8138297788e-03 2.7030334148e+00 -4.6817912090e+00 2.7030334148e+00 4.6817912090e+00 
110300 4.7629863248e+00 -3.8098856263e-03 2.7031039623e+00 -4.6819134009e+00 2.7031039623e+00 4.6819134009e+00 
110400 4.7629860559e+00 -3.8059462241e-03 2.7031744350e+00 -4.6820354632e+00 2.7031744350e+00 4.6820354632e+00 
110500 4.7629857876e+00 -3.8020115591e-03 2.7032448331e+00 -4.6821573962e+00 2.7032448331e+00 4.6821573962e+00 
110600 4.7629855198e+00 -3.7980816181e-03 2.7033151565e+00 -4.6822791999e+00 2.7033151565e+00 4.6822791999e+00 
110700 4.7629852526e+00 -3.7941563881e-03 2.7033854054e+00 -4.6824008745e+00 2.7033854054e+00 4.6824008745e+00 
110800 4.7629849860e+00 -3.7902358561e-03 2.7034555798e+00 -4.6825224203e+00 2.7034555798e+00 4.6825224203e+00 
110900 4.7629847199e+00 -3.7863200091e-03 2.7035256800e+00 -4.6826438373e+00 2.7035256800e+00 4.6826438373e+00 
111000 4.7629844543e+00 -3.7824088344e-03 2.7035957059e+00 -4.6827651257e+00 2.7035957059e+00 4.6827651257e+00 
111100 4.7629841893e+00 -3.7785023193e-03 2.7036656576e+00 -4.6828862857e+00 2.7036656576e+00 4.6828862857e+00 
111200 4.7629839248e+00 -3.7746004509e-03 2.7037355353e+00 -4.6830073174e+00 2.7037355353e+00 4.6830073174e+00 
111300 4.7629836609e+00 -3.7707032168e-03 2.7038053391e+00 -4.6831282210e+00 2.7038053391e+00 4.6831282210e+00 
111400 4.7629833975e+00 -3.7668106045e-03 2.7038750689e+00 -4.6832489967e+00 2.7038750689e+00 4.6832489967e+00 
111500 4.7629831347e+00 -3.7629226014e-03 2.7039447250e+00 -4.6833696446e+00 2.7039447250e+00 4.6833696446e+00 
111600 4.7629828724e+00 -3.7590391952e-03 2.7040143074e+00 -4.6834901648e+00 2.7040143074e+00 4.6834901648e+00 
111700 4.7629826106e+00 -3.7551603736e-03 2.7040838162e+00 -4.6836105576e+00 2.7040838162e+00 4.6836105576e+00 
111800 4.7629823494e+00 -3.7512861244e-03 2.7041532515e+00 -4.6837308230e+00 2.7041532515e+00 4.6837308230e+00 
111900 4.7629820887e+00 -3.7474164354e-03 2.7042226133e+00 -4.6838509613e+00 2.7042226133e+00 4.6838509613e+00 
112000 4.7629818286e+00 -3.7435512945e-03 2.7042919019e+00 -4.6839709725e+00 2.7042919019e+00 4.6839709725e+00 
112100 4.7629815690e+00 -3.7396906897e-03 2.7043611172e+00 -4.6840908569e+00 2.7043611172e+00 4.6840908569e+00 
112200 4.7629813099e+00 -3.7358346090e-03 2.7044302593e+00 -4.6842106147e+00 2.7044302593e+00 4.6842106147e+00 
112300 4.7629810514e+00 -3.7319830406e-03 2.7044993284e+00 -4.6843302458e+00 2.7044993284e+00 4.6843302458e+00 
112400 4.7629807934e+00 -3.7281359727e-03 2.7045683245e+00 -4.6844497506e+00 2.7045683245e+00 4.6844497506e+00 
112500 4.7629805359e+00 -3.7242933936e-03 2.7046372477e+00 -4.6845691291e+00 2.7046372477e+00 4.6845691291e+00 
112600 4.7629802790e+00 -3.7204552915e-03 2.7047060982e+00 -4.6846883816e+00 2.7047060982e+00 4.6846883816e+00 
112700 4.7629800226e+00 -3.7166216548e-03 2.7047748759e+00 -4.6848075081e+00 2.7047748759e+00 4.6848075081e+00 
112800 4.7629797667e+00 -3.7127924721e-03 2.7048435810e+00 -4.6849265089e+00 2.7048435810e+00 4.6849265089e+00 
112900 4.7629795114e+00 -3.7089677319e-03 2.7049122136e+00 -4.6850453840e+00 2.7049122136e+00 4.6850453840e+00 
113000 4.7629792566e+00 -3.7051474228e-03 2.7049807738e+00 -4.6851641336e+00 2.7049807738e+00 4.6851641336e+00 
113100 4.7629790023e+00 -3.7013315333e-03 2.7050492615e+00 -4.6852827580e+00 2.7050492615e+00 4.6852827580e+00 
113200 4.7629787485e+00 -3.6975200524e-03 2.7051176771e+00 -4.6854012571e+00 2.7051176771e+00 4.6854012571e+00 
113300 4.7629784953e+00 -3.6937129688e-03 2.7051860204e+00 -4.6855196313e+00 2.7051860204e+00 4.6855196313e+00 
113400 4.7629782425e+00 -3.6899102713e-03 2.7052542917e+00 -4.6856378805e+00 2.7052542917e+00 4.6856378805e+00 
113500 4.7629779903e+00 -3.6861119489e-03 2.7053224909e+00 -4.6857560051e+00 2.7053224909e+00 4.6857560051e+00 
113600 4.7629777387e+00 -3.6823179905e-03 2.7053906182e+00 -4.6858740051e+00 2.7053906182e+00 4.6858740051e+00 
113700 4.7629774875e+00 -3.6785283853e-03 2.7054586737e+00 -4.6859918806e+00 2.7054586737e+00 4.6859918806e+00 
113800 4.7629772369e+00 -3.6747431224e-03 2.7055266574e+00 -4.6861096319e+00 2.7055266574e+00 4.6861096319e+00 
113900 4.7629769868e+00 -3.6709621909e-03 2.7055945695e+00 -4.6862272591e+00 2.7055945695e+00 4.6862272591e+00 
114000 4.7629767372e+00 -3.6671855801e-03 2.7056624100e+00 -4.6863447623e+00 2.7056624100e+00 4.6863447623e+00 
114100 4.7629764881e+00 -3.6634132793e-03 2.7057301790e+00 -4.6864621416e+00 2.7057301790e+00 4.6864621416e+00 
114200 4.7629762395e+00 -3.6596452779e-03 2.7057978766e+00 -4.6865793973e+00 2.7057978766e+00 4.6865793973e+00 
114300 4.7629759914e+00 -3.6558815654e-03 2.7058655029e+00 -4.6866965294e+00 2.7058655029e+00 4.6866965294e+00 
114400 4.7629757439e+00 -3.6521221311e-03 2.7059330579e+00 -4.6868135382e+00 2.7059330579e+00 4.6868135382e+00 
114500 4.7629754969e+00 -3.6483669647e-03 2.7060005418e+00 -4.6869304237e+00 2.7060005418e+00 4.6869304237e+00 
114600 4.7629752503e+00 -3.6446160558e-03 2.7060679546e+00 -4.6870471861e+00 2.7060679546e+00 4.6870471861e+00 
114700 4.7629750043e+00 -3.6408693941e-03 2.7061352964e+00 -4.6871638256e+00 2.7061352964e+00 4.6871638256e+00 
114800 4.7629747588e+00 -3.6371269693e-03 2.7062025674e+00 -4.6872803422e+00 2.7062025674e+00 4.6872803422e+00 
114900 4.7629745138e+00 -3.6333887712e-03 2.7062697675e+00 -4.6873967362e+00 2.7062697675e+00 4.6873967362e+00 
115000 4.7629742694e+00 -3.6296547897e-03 2.7063368968e+00 -4.6875130077e+00 2.7063368968e+00 4.6875130077e+00 
115100 4.7629740254e+00 -3.6259250147e-03 2.7064039556e+00 -4.6876291568e+00 2.7064039556e+00 4.6876291568e+00 
115200 4.7629737819e+00 -3.6221994361e-03 2.7064709437e+00 -4.6877451837e+00 2.7064709437e+00 4.6877451837e+00 
115300 4.7629735389e+00 -3.6184780440e-03 2.7065378614e+00 -4.6878610885e+00 2.7065378614e+00 4.6878610885e+00 
115400 4.7629732965e+00 -3.6147608284e-03 2.7066047086e+00 -4.6879768714e+00 2.7066047086e+00 4.6879768714e+00 
115500 4.7629730545e+00 -3.6110477796e-03 2.7066714856e+00 -4.6880925324e+00 2.7066714856e+00 4.6880925324e+00 
115600 4.7629728130e+00 -3.6073388877e-03 2.7067381923e+00 -4.6882080718e+00 2.7067381923e+00 4.6882080718e+00 
115700 4.7629725721e+00 -3.6036341430e-03 2.7068048288e+00 -4.6883234897e+00 2.7068048288e+00 4.6883234897e+00 
115800 4.7629723316e+00 -3.5999335358e-03 2.7068713953e+00 -4.6884387862e+00 2.7068713953e+00 4.6884387862e+00 
115900 4.7629720916e+00 -3.5962370564e-03 2.7069378918e+00 -4.6885539615e+00 2.7069378918e+00 4.6885539615e+00 
116000 4.7629718522e+00 -3.5925446953e-03 2.7070043183e+00 -4.6886690157e+00 2.7070043183e+00 4.6886690157e+00 
116100 4.7629716132e+00 -3.5888564430e-03 2.7070706751e+00 -4.6887839489e+00 2.7070706751e+00 4.6887839489e+00 
116200 4.7629713747e+00 -3.5851722900e-03 2.7071369621e+00 -4.6888987613e+00 2.7071369621e+00 4.6888987613e+00 
116300 4.7629711367e+00 -3.5814922269e-03 2.7072031794e+00 -4.6890134531e+00 2.7072031794e+00 4.6890134531e+00 
116400 4.7629708993e+00 -3.5778162443e-03 2.7072693271e+00 -4.6891280243e+00 2.7072693271e+00 4.6891280243e+00 
116500 4.7629706623e+00 -3.5741443329e-03 2.7073354053e+00 -4.6892424752e+00 2.7073354053e+00 4.6892424752e+00 
116600 4.7629704258e+00 -3.5704764835e-03 2.7074014141e+00 -4.6893568057e+00 2.7074014141e+00 4.6893568057e+00 
116700 4.7629701897e+00 -3.5668126869e-03 2.7074673536e+00 -4.6894710162e+00 2.7074673536e+00 4.6894710162e+00 
116800 4.7629699542e+00 -3.5631529339e-03 2.7075332237e+00 -4.6895851067e+00 2.7075332237e+00 4.6895851067e+00 
116900 4.7629697192e+00 -3.5594972154e-03 2.7075990247e+00 -4.6896990774e+00 2.7075990247e+00 4.6896990774e+00 
117000 4.7629694846e+00 -3.5558455224e-03 2.7076647566e+00 -4.6898129283e+00 2.7076647566e+00 4.6898129283e+00 
117100 4.7629692506e+00 -3.5521978459e-03 2.7077304195e+00 -4.6899266597e+00 2.7077304195e+00 4.6899266597e+00 
117200 4.7629690170e+00 -3.5485541769e-03 2.7077960134e+00 -4.6900402717e+00 2.7077960134e+00 4.6900402717e+00 
117300 4.7629687839e+00 -3.5449145067e-03 2.7078615384e+00 -4.6901537644e+00 2.7078615384e+00 4.6901537644e+00 
117400 4.7629685513e+00 -3.5412788262e-03 2.7079269947e+00 -4.6902671379e+00 2.7079269947e+00 4.6902671379e+00 
117500 4.7629683192e+00 -3.5376471268e-03 2.7079923822e+00 -4.6903803924e+00 2.7079923822e+00 4.6903803924e+00 
117600 4.7629680875e+00 -3.5340193996e-03 2.7080577011e+00 -4.6904935281e+00 2.7080577011e+00 4.6904935281e+00 
117700 4.7629678564e+00 -3.5303956361e-03 2.7081229514e+00 -4.6906065450e+00 2.7081229514e+00 4.6906065450e+00 
117800 4.7629676257e+00 -3.5267758275e-03 2.7081881333e+00 -4.6907194433e+00 2.7081881333e+00 4.6907194433e+00 
117900 4.7629673955e+00 -3.5231599653e-03 2.7082532467e+00 -4.6908322231e+00 2.7082532467e+00 4.6908322231e+00 
118000 4.7629671658e+00 -3.5195480409e-03 2.7083182919e+00 -4.6909448846e+00 2.7083182919e+00 4.6909448846e+00 
118100 4.7629669365e+00 -3.5159400458e-03 2.7083832688e+00 -4.6910574279e+00 2.7083832688e+00 4.6910574279e+00 
118200 4.7629667078e+00 -3.5123359717e-03 2.7084481775e+00 -4.6911698531e+00 2.7084481775e+00 4.6911698531e+00 
118300 4.7629664795e+00 -3.5087358099e-03 2.7085130181e+00 -4.6912821603e+00 2.7085130181e+00 4.6912821603e+00 
118400 4.7629662517e+00 -3.5051395523e-03 2.7085777907e+00 -4.6913943498e+00 2.7085777907e+00 4.6913943498e+00 
118500 4.7629660243e+00 -3.5015471905e-03 2.7086424954e+00 -4.6915064216e+00 2.7086424954e+00 4.6915064216e+00 
118600 4.7629657975e+00 -3.4979587162e-03 2.7087071323e+00 -4.6916183759e+00 2.7087071323e+00 4.6916183759e+00 
118700 4.7629655711e+00 -3.4943741213e-03 2.7087717013e+00 -4.6917302128e+00 2.7087717013e+00 4.6917302128e+00 
118800 4.7629653451e+00 -3.4907933975e-03 2.7088362026e+00 -4.6918419324e+00 2.7088362026e+00 4.6918419324e+00 
118900 4.7629651197e+00 -3.4872165368e-03 2.7089006363e+00 -4.6919535348e+00 2.7089006363e+00 4.6919535348e+00 
119000 4.7629648947e+00 -3.4836435310e-03 2.7089650025e+00 -4.6920650203e+00 2.7089650025e+00 4.6920650203e+00 
119100 4.7629646702e+00 -3.4800743721e-03 2.7090293012e+00 -4.6921763888e+00 2.7090293012e+00 4.6921763888e+00 
119200 4.7629644461e+00 -3.4765090522e-03 2.7090935325e+00 -4.6922876407e+00 2.7090935325e+00 4.6922876407e+00 
119300 4.7629642225e+00 -3.4729475633e-03 2.7091576964e+00 -4.6923987759e+00 2.7091576964e+00 4.6923987759e+00 
119400 4.7629639994e+00 -3.4693898974e-03 2.7092217931e+00 -4.6925097946e+00 2.7092217931e+00 4.6925097946e+00 
119500 4.7629637767e+00 -3.4658360468e-03 2.7092858226e+00 -4.6926206970e+00 2.7092858226e+00 4.6926206970e+00 
119600 4.7629635546e+00 -3.4622860035e-03 2.7093497850e+00 -4.6927314832e+00 2.7093497850e+00 4.6927314832e+00 
119700 4.7629633328e+00 -3.4587397600e-03 2.7094136804e+00 -4.6928421532e+00 2.7094136804e+00 4.6928421532e+00 
119800 4.7629631116e+00 -3.4551973083e-03 2.7094775089e+00 -4.6929527074e+00 2.7094775089e+00 4.6929527074e+00 
119900 4.7629628907e+00 -3.4516586409e-03 2.7095412705e+00 -4.6930631456e+00 2.7095412705e+00 4.6930631456e+00 
120000 4.7629626704e+00 -3.4481237500e-03 2.7096049652e+00 -4.6931734682e+00 2.7096049652e+00 4.6931734682e+00 
120100 4.7629624505e+00 -3.4445926282e-03 2.7096685933e+00 -4.6932836752e+00 2.7096685933e+00 4.6932836752e+00 
120200 4.7629622311e+00 -3.4410652677e-03 2.7097321547e+00 -4.6933937668e+00 2.7097321547e+00 4.6933937668e+00 
120300 4.7629620121e+00 -3.4375416612e-03 2.7097956495e+00 -4.6935037430e+00 2.7097956495e+00 4.6935037430e+00 
120400 4.7629617936e+00 -3.4340218011e-03 2.7098590778e+00 -4.6936136041e+00 2.7098590778e+00 4.6936136041e+00 
120500 4.7629615755e+00 -3.4305056800e-03 2.7099224397e+00 -4.6937233501e+00 2.7099224397e+00 4.6937233501e+00 
120600 4.7629613579e+00 -3.4269932905e-03 2.7099857352e+00 -4.6938329811e+00 2.7099857352e+00 4.6938329811e+00 
120700 4.7629611408e+00 -3.4234846253e-03 2.7100489644e+00 -4.6939424974e+00 2.7100489644e+00 4.6939424974e+00 
120800 4.7629609241e+00 -3.4199796770e-03 2.7101121274e+00 -4.6940518990e+00 2.7101121274e+00 4.6940518990e+00 
120900 4.7629607078e+00 -3.4164784383e-03 2.7101752243e+00 -4.6941611860e+00 2.7101752243e+00 4.6941611860e+00 
121000 4.7629604920e+00 -3.4129809021e-03 2.7102382552e+00 -4.6942703586e+00 2.7102382552e+00 4.6942703586e+00 
121100 4.7629602767e+00 -3.4094870611e-03 2.7103012200e+00 -4.6943794169e+00 2.7103012200e+00 4.6943794169e+00 
121200 4.7629600618e+00 -3.4059969081e-03 2.7103641189e+00 -4.6944883610e+00 2.7103641189e+00 4.6944883610e+00 
121300 4.7629598473e+00 -3.4025104361e-03 2.7104269520e+00 -4.6945971911e+00 2.7104269520e+00 4.6945971911e+00 
121400 4.7629596333e+00 -3.3990276380e-03 2.7104897193e+00 -4.6947059072e+00 2.7104897193e+00 4.6947059072e+00 
121500 4.7629594198e+00 -3.3955485067e-03 2.7105524209e+00 -4.6948145096e+00 2.7105524209e+00 4.6948145096e+00 
121600 4.7629592066e+00 -3.3920730353e-03 2.7106150569e+00 -4.6949229982e+00 2.7106150569e+00 4.6949229982e+00 
121700 4.7629589940e+00 -3.3886012167e-03 2.7106776273e+00 -4.6950313734e+00 2.7106776273e+00 4.6950313734e+00 
121800 4.7629587818e+00 -3.3851330440e-03 2.7107401322e+00 -4.6951396351e+00 2.7107401322e+00 4.6951396351e+00 
121900 4.7629585700e+00 -3.3816685104e-03 2.7108025717e+00 -4.6952477835e+00 2.7108025717e+00 4.6952477835e+00 
122000 4.7629583586e+00 -3.3782076089e-03 2.7108649459e+00 -4.6953558187e+00 2.7108649459e+00 4.6953558187e+00 
122100 4.7629581478e+00 -3.3747503329e-03 2.7109272548e+00 -4.6954637409e+00 2.7109272548e+00 4.6954637409e+00 
122200 4.7629579373e+00 -3.3712966754e-03 2.7109894985e+00 -4.6955715502e+00 2.7109894985e+00 4.6955715502e+00 
122300 4.7629577273e+00 -3.3678466298e-03 2.7110516771e+00 -4.6956792467e+00 2.7110516771e+00 4.6956792467e+00 
122400 4.7629575177e+00 -3.3644001893e-03 2.7111137906e+00 -4.6957868304e+00 2.7111137906e+00 4.6957868304e+00 
122500 4.7629573086e+00 -3.3609573473e-03 2.7111758391e+00 -4.6958943017e+00 2.7111758391e+00 4.6958943017e+00 
122600 4.7629570999e+00 -3.3575180971e-03 2.7112378228e+00 -4.6960016604e+00 2.7112378228e+00 4.6960016604e+00 
122700 4.7629568916e+00 -3.3540824321e-03 2.7112997416e+00 -4.6961089069e+00 2.7112997416e+00 4.6961089069e+00 
122800 4.7629566838e+00 -3.3506503458e-03 2.7113615956e+00 -4.6962160412e+00 2.7113615956e+00 4.6962160412e+00 
122900 4.7629564764e+00 -3.3472218317e-03 2.7114233849e+00 -4.6963230634e+00 2.7114233849e+00 4.6963230634e+00 
123000 4.7629562694e+00 -3.3437968831e-03 2.7114851095e+00 -4.6964299737e+00 2.7114851095e+00 4.6964299737e+00 
123100 4.7629560629e+00 -3.3403754937e-03 2.7115467697e+00 -4.6965367721e+00 2.7115467697e+00 4.6965367721e+00 
123200 4.7629558568e+00 -3.3369576571e-03 2.7116083653e+00 -4.6966434589e+00 2.7116083653e+00 4.6966434589e+00 
123300 4.7629556511e+00 -3.3335433668e-03 2.7116698965e+00 -4.6967500341e+00 2.7116698965e+00 4.6967500341e+00 
123400 4.7629554459e+00 -3.3301326165e-03 2.7117313633e+00 -4.6968564978e+00 2.7117313633e+00 4.6968564978e+00 
123500 4.7629552411e+00 -3.3267253998e-03 2.7117927659e+00 -4.6969628501e+00 2.7117927659e+00 4.6969628501e+00 
123600 4.7629550367e+00 -3.3233217105e-03 2.7118541042e+00 -4.6970690913e+00 2.7118541042e+00 4.6970690913e+00 
123700 4.7629548327e+00 -3.3199215423e-03 2.7119153784e+00 -4.6971752213e+00 2.7119153784e+00 4.6971752213e+00 
123800 4.7629546292e+00 -3.3165248890e-03 2.7119765886e+00 -4.6972812404e+00 2.7119765886e+00 4.6972812404e+00 
123900 4.7629544261e+00 -3.3131317443e-03 2.7120377347e+00 -4.6973871486e+00 2.7120377347e+00 4.6973871486e+00 
124000 4.7629542234e+00 -3.3097421021e-03 2.7120988169e+00 -4.6974929460e+00 2.7120988169e+00 4.6974929460e+00 
124100 4.7629540212e+00 -3.3063559563e-03 2.7121598352e+00 -4.6975986329e+00 2.7121598352e+00 4.6975986329e+00 
124200 4.7629538194e+00 -3.3029733008e-03 2.7122207898e+00 -4.6977042092e+00 2.7122207898e+00 4.6977042092e+00 
124300 4.7629536180e+00 -3.2995941295e-03 2.7122816805e+00 -4.6978096751e+00 2.7122816805e+00 4.6978096751e+00 
124400 4.7629534170e+00 -3.2962184364e-03 2.7123425077e+00 -4.6979150308e+00 2.7123425077e+00 4.6979150308e+00 
124500 4.7629532164e+00 -3.2928462154e-03 2.7124032712e+00 -4.6980202764e+00 2.7124032712e+00 4.6980202764e+00 
124600 4.7629530163e+00 -3.2894774606e-03 2.7124639712e+00 -4.6981254119e+00 2.7124639712e+00 4.6981254119e+00 
124700 4.7629528165e+00 -3.2861121660e-03 2.7125246078e+00 -4.6982304375e+00 2.7125246078e+00 4.6982304375e+00 
124800 4.7629526172e+00 -3.2827503258e-03 2.7125851810e+00 -4.6983353533e+00 2.7125851810e+00 4.6983353533e+00 
124900 4.7629524184e+00 -3.2793919340e-03 2.7126456908e+00 -4.6984401594e+00 2.7126456908e+00 4.6984401594e+00 
125000 4.7629522199e+00 -3.2760369848e-03 2.7127061374e+00 -4.6985448560e+00 2.7127061374e+00 4.6985448560e+00 
125100 4.7629520218e+00 -3.2726854723e-03 2.7127665208e+00 -4.6986494432e+00 2.7127665208e+00 4.6986494432e+00 
125200 4.7629518242e+00 -3.2693373908e-03 2.7128268411e+00 -4.6987539210e+00 2.7128268411e+00 4.6987539210e+00 
125300 4.7629516270e+00 -3.2659927346e-03 2.7128870984e+00 -4.6988582896e+00 2.7128870984e+00 4.6988582896e+00 
125400 4.7629514302e+00 -3.2626514978e-03 2.7129472926e+00 -4.6989625491e+00 2.7129472926e+00 4.6989625491e+00 
125500 4.7629512338e+00 -3.2593136748e-03 2.7130074240e+00 -4.6990666997e+00 2.7130074240e+00 4.6990666997e+00 
125600 4.7629510378e+00 -3.2559792598e-03 2.7130674925e+00 -4.6991707414e+00 2.7130674925e+00 4.6991707414e+00 
125700 4.7629508422e+00 -3.2526482473e-03 2.7131274982e+00 -4.6992746743e+00 2.7131274982e+00 4.6992746743e+00 
125800 4.7629506470e+00 -3.2493206316e-03 2.7131874412e+00 -4.6993784986e+00 2.7131874412e+00 4.6993784986e+00 
125900 4.7629504523e+00 -3.2459964072e-03 2.7132473216e+00 -4.6994822145e+00 2.7132473216e+00 4.6994822145e+00 
126000 4.7629502579e+00 -3.2426755684e-03 2.7133071393e+00 -4.6995858219e+00 2.7133071393e+00 4.6995858219e+00 
126100 4.7629500640e+00 -3.2393581098e-03 2.7133668946e+00 -4.6996893210e+00 2.7133668946e+00 4.6996893210e+00 
126200 4.7629498704e+00 -3.2360440257e-03 2.7134265874e+00 -4.6997927120e+00 2.7134265874e+00 4.6997927120e+00 
126300 4.7629496773e+00 -3.2327333109e-03 2.7134862178e+00 -4.6998959949e+00 2.7134862178e+00 4.6998959949e+00 
126400 4.7629494846e+00 -3.2294259597e-03 2.7135457860e+00 -4.6999991699e+00 2.7135457860e+00 4.6999991699e+00 
126500 4.7629492923e+00 -3.2261219667e-03 2.7136052918e+00 -4.7001022371e+00 2.7136052918e+00 4.7001022371e+00 
126600 4.7629491004e+00 -3.2228213267e-03 2.7136647355e+00 -4.7002051966e+00 2.7136647355e+00 4.7002051966e+00 
126700 4.7629489088e+00 -3.2195240341e-03 2.7137241171e+00 -4.7003080485e+00 2.7137241171e+00 4.7003080485e+00 
126800 4.7629487177e+00 -3.2162300837e-03 2.7137834366e+00 -4.7004107929e+00 2.7137834366e+00 4.7004107929e+00 
126900 4.7629485270e+00 -3.2129394701e-03 2.7138426941e+00 -4.7005134299e+00 2.7138426941e+00 4.7005134299e+00 
127000 4.7629483367e+00 -3.2096521881e-03 2.7139018897e+00 -4.7006159597e+00 2.7139018897e+00 4.7006159597e+00 
127100 4.7629481468e+00 -3.2063682323e-03 2.7139610235e+00 -4.7007183824e+00 2.7139610235e+00 4.7007183824e+00 
127200 4.7629479573e+00 -3.2030875975e-03 2.7140200954e+00 -4.7008206980e+00 2.7140200954e+00 4.7008206980e+00 
127300 4.7629477682e+00 -3.1998102786e-03 2.7140791056e+00 -4.7009229067e+00 2.7140791056e+00 4.7009229067e+00 
127400 4.7629475795e+00 -3.1965362703e-03 2.7141380542e+00 -4.7010250087e+00 2.7141380542e+00 4.7010250087e+00 
127500 4.7629473911e+00 -3.1932655675e-03 2.7141969412e+00 -4.7011270039e+00 2.7141969412e+00 4.7011270039e+00 
127600 4.7629472032e+00 -3.1899981650e-03 2.7142557667e+00 -4.7012288926e+00 2.7142557667e+00 4.7012288926e+00 
127700 4.7629470157e+00 -3.1867340577e-03 2.7143145306e+00 -4.7013306748e+00 2.7143145306e+00 4.7013306748e+00 
127800 4.7629468285e+00 -3.1834732406e-03 2.7143732332e+00 -4.7014323506e+00 2.7143732332e+00 4.7014323506e+00 
127900 4.7629466418e+00 -3.1802157085e-03 2.7144318745e+00 -4.7015339203e+00 2.7144318745e+00 4.7015339203e+00 
128000 4.7629464555e+00 -3.1769614564e-03 2.7144904544e+00 -4.7016353838e+00 2.7144904544e+00 4.7016353838e+00 
128100 4.7629462695e+00 -3.1737104793e-03 2.7145489732e+00 -4.7017367412e+00 2.7145489732e+00 4.7017367412e+00 
128200 4.7629460839e+00 -3.1704627722e-03 2.7146074308e+00 -4.7018379928e+00 2.7146074308e+00 4.7018379928e+00 
128300 4.7629458987e+00 -3.1672183302e-03 2.7146658274e+00 -4.7019391386e+00 2.7146658274e+00 4.7019391386e+00 
128400 4.7629457140e+00 -3.1639771483e-03 2.7147241629e+00 -4.7020401787e+00 2.7147241629e+00 4.7020401787e+00 
128500 4.7629455296e+00 -3.1607392216e-03 2.7147824375e+00 -4.7021411133e+00 2.7147824375e+00 4.7021411133e+00 
128600 4.7629453455e+00 -3.1575045452e-03 2.7148406512e+00 -4.7022419424e+00 2.7148406512e+00 4.7022419424e+00 
128700 4.7629451619e+00 -3.1542731141e-03 2.7148988041e+00 -4.7023426661e+00 2.7148988041e+00 4.7023426661e+00 
128800 4.7629449787e+00 -3.1510449237e-03 2.7149568962e+00 -4.7024432846e+00 2.7149568962e+00 4.7024432846e+00 
128900 4.7629447958e+00 -3.1478199690e-03 2.7150149276e+00 -4.7025437980e+00 2.7150149276e+00 4.7025437980e+00 
129000 4.7629446134e+00 -3.1445982452e-03 2.7150728984e+00 -4.7026442063e+00 2.7150728984e+00 4.7026442063e+00 
129100 4.7629444313e+00 -3.1413797476e-03 2.7151308086e+00 -4.7027445098e+00 2.7151308086e+00 4.7027445098e+00 
129200 4.7629442496e+00 -3.1381644713e-03 2.7151886584e+00 -4.7028447084e+00 2.7151886584e+00 4.7028447084e+00 
129300 4.7629440683e+00 -3.1349524118e-03 2.7152464476e+00 -4.7029448024e+00 2.7152464476e+00 4.7029448024e+00 
129400 4.7629438873e+00 -3.1317435642e-03 2.7153041765e+00 -4.7030447917e+00 2.7153041765e+00 4.7030447917e+00 
129500 4.7629437068e+00 -3.1285379238e-03 2.7153618451e+00 -4.7031446766e+00 2.7153618451e+00 4.7031446766e+00 
129600 4.7629435266e+00 -3.1253354860e-03 2.7154194534e+00 -4.7032444572e+00 2.7154194534e+00 4.7032444572e+00 
129700 4.7629433468e+00 -3.1221362461e-03 2.7154770016e+00 -4.7033441335e+00 2.7154770016e+00 4.7033441335e+00 
129800 4.7629431674e+00 -3.1189401996e-03 2.7155344896e+00 -4.7034437056e+00 2.7155344896e+00 4.7034437056e+00 
129900 4.7629429883e+00 -3.1157473418e-03 2.7155919175e+00 -4.7035431737e+00 2.7155919175e+00 4.7035431737e+00 
130000 4.7629428097e+00 -3.1125576680e-03 2.7156492854e+00 -4.7036425379e+00 2.7156492854e+00 4.7036425379e+00 
130100 4.7629426314e+00 -3.1093711739e-03 2.7157065934e+00 -4.7037417983e+00 2.7157065934e+00 4.7037417983e+00 
130200 4.7629424535e+00 -3.1061878547e-03 2.7157638416e+00 -4.7038409550e+00 2.7157638416e+00 4.7038409550e+00 
130300 4.7629422759e+00 -3.1030077061e-03 2.7158210299e+00 -4.7039400080e+00 2.7158210299e+00 4.7039400080e+00 
130400 4.7629420987e+00 -3.0998307234e-03 2.7158781584e+00 -4.7040389576e+00 2.7158781584e+00 4.7040389576e+00 
130500 4.7629419220e+00 -3.0966569023e-03 2.7159352273e+00 -4.7041378037e+00 2.7159352273e+00 4.7041378037e+00 
130600 4.7629417455e+00 -3.0934862382e-03 2.7159922365e+00 -4.7042365466e+00 2.7159922365e+00 4.7042365466e+00 
130700 4.7629415695e+00 -3.0903187267e-03 2.7160491862e+00 -4.7043351864e+00 2.7160491862e+00 4.7043351864e+00 
130800 4.7629413938e+00 -3.0871543634e-03 2.7161060764e+00 -4.7044337230e+00 2.7161060764e+00 4.7044337230e+00 
130900 4.7629412185e+00 -3.0839931439e-03 2.7161629071e+00 -4.7045321567e+00 2.7161629071e+00 4.7045321567e+00 
131000 4.7629410436e+00 -3.0808350638e-03 2.7162196784e+00 -4.7046304875e+00 2.7162196784e+00 4.7046304875e+00 
131100 4.7629408690e+00 -3.0776801188e-03 2.7162763904e+00 -4.7047287156e+00 2.7162763904e+00 4.7047287156e+00 
131200 4.7629406948e+00 -3.0745283045e-03 2.7163330432e+00 -4.7048268411e+00 2.7163330432e+00 4.7048268411e+00 
131300 4.7629405210e+00 -3.0713796166e-03 2.7163896367e+00 -4.7049248640e+00 2.7163896367e+00 4.7049248640e+00 
131400 4.7629403475e+00 -3.0682340508e-03 2.7164461712e+00 -4.7050227845e+00 2.7164461712e+00 4.7050227845e+00 
131500 4.7629401744e+00 -3.0650916028e-03 2.7165026465e+00 -4.7051206026e+00 2.7165026465e+00 4.7051206026e+00 
131600 4.7629400017e+00 -3.0619522683e-03 2.7165590628e+00 -4.7052183186e+00 2.7165590628e+00 4.7052183186e+00 
131700 4.7629398293e+00 -3.0588160432e-03 2.7166154202e+00 -4.7053159324e+00 2.7166154202e+00 4.7053159324e+00 
131800 4.7629396573e+00 -3.0556829231e-03 2.7166717187e+00 -4.7054134443e+00 2.7166717187e+00 4.7054134443e+00 
131900 4.7629394856e+00 -3.0525529039e-03 2.7167279583e+00 -4.7055108542e+00 2.7167279583e+00 4.7055108542e+00 
132000 4.7629393144e+00 -3.0494259814e-03 2.7167841392e+00 -4.7056081623e+00 2.7167841392e+00 4.7056081623e+00 
132100 4.7629391434e+00 -3.0463021514e-03 2.7168402614e+00 -4.7057053688e+00 2.7168402614e+00 4.7057053688e+00 
132200 4.7629389729e+00 -3.0431814098e-03 2.7168963249e+00 -4.7058024737e+00 2.7168963249e+00 4.7058024737e+00 
132300 4.7629388027e+00 -3.0400637524e-03 2.7169523299e+00 -4.7058994770e+00 2.7169523299e+00 4.7058994770e+00 
132400 4.7629386328e+00 -3.0369491751e-03 2.7170082763e+00 -4.7059963791e+00 2.7170082763e+00 4.7059963791e+00 
132500 4.7629384633e+00 -3.0338376739e-03 2.7170641642e+00 -4.7060931798e+00 2.7170641642e+00 4.7060931798e+00 
132600 4.7629382942e+00 -3.0307292445e-03 2.7171199937e+00 -4.7061898794e+00 2.7171199937e+00 4.7061898794e+00 
132700 4.7629381254e+00 -3.0276238831e-03 2.7171757649e+00 -4.7062864779e+00 2.7171757649e+00 4.7062864779e+00 
132800 4.7629379570e+00 -3.0245215855e-03 2.7172314778e+00 -4.7063829754e+00 2.7172314778e+00 4.7063829754e+00 
132900 4.7629377890e+00 -3.0214223476e-03 2.7172871324e+00 -4.7064793721e+00 2.7172871324e+00 4.7064793721e+00 
133000 4.7629376213e+00 -3.0183261656e-03 2.7173427289e+00 -4.7065756681e+00 2.7173427289e+00 4.7065756681e+00 
133100 4.7629374539e+00 -3.0152330353e-03 2.7173982673e+00 -4.7066718634e+00 2.7173982673e+00 4.7066718634e+00 
133200 4.7629372869e+00 -3.0121429529e-03 2.7174537477e+00 -4.7067679581e+00 2.7174537477e+00 4.7067679581e+00 
133300 4.7629371203e+00 -3.0090559143e-03 2.7175091700e+00 -4.7068639525e+00 2.7175091700e+00 4.7068639525e+00 
133400 4.7629369540e+00 -3.0059719157e-03 2.7175645344e+00 -4.7069598464e+00 2.7175645344e+00 4.7069598464e+00 
133500 4.7629367880e+00 -3.0028909530e-03 2.7176198410e+00 -4.7070556402e+00 2.7176198410e+00 4.7070556402e+00 
133600 4.7629366225e+00 -2.9998130224e-03 2.7176750897e+00 -4.7071513338e+00 2.7176750897e+00 4.7071513338e+00 
133700 4.7629364572e+00 -2.9967381200e-03 2.7177302807e+00 -4.7072469274e+00 2.7177302807e+00 4.7072469274e+00 
133800 4.7629362923e+00 -2.9936662419e-03 2.7177854140e+00 -4.7073424211e+00 2.7177854140e+00 4.7073424211e+00 
133900 4.7629361278e+00 -2.9905973842e-03 2.7178404896e+00 -4.7074378149e+00 2.7178404896e+00 4.7074378149e+00 
134000 4.7629359636e+00 -2.9875315432e-03 2.7178955077e+00 -4.7075331090e+00 2.7178955077e+00 4.7075331090e+00 
134100 4.7629357997e+00 -2.9844687149e-03 2.7179504683e+00 -4.7076283035e+00 2.7179504683e+00 4.7076283035e+00 
134200 4.7629356362e+00 -2.9814088956e-03 2.7180053714e+00 -4.7077233985e+00 2.7180053714e+00 4.7077233985e+00 
134300 4.7629354731e+00 -2.9783520814e-03 2.7180602171e+00 -4.7078183940e+00 2.7180602171e+00 4.7078183940e+00 
134400 4.7629353103e+00 -2.9752982686e-03 2.7181150055e+00 -4.7079132903e+00 2.7181150055e+00 4.7079132903e+00 
134500 4.7629351478e+00 -2.9722474534e-03 2.7181697366e+00 -4.7080080873e+00 2.7181697366e+00 4.7080080873e+00 
134600 4.7629349857e+00 -2.9691996321e-03 2.7182244104e+00 -4.7081027853e+00 2.7182244104e+00 4.7081027853e+00 
134700 4.7629348239e+00 -2.9661548009e-03 2.7182790272e+00 -4.7081973842e+00 2.7182790272e+00 4.7081973842e+00 
134800 4.7629346625e+00 -2.9631129561e-03 2.7183335868e+00 -4.7082918842e+00 2.7183335868e+00 4.7082918842e+00 
134900 4.7629345014e+00 -2.9600740940e-03 2.7183880893e+00 -4.7083862854e+00 2.7183880893e+00 4.7083862854e+00 
135000 4.7629343406e+00 -2.9570382109e-03 2.7184425349e+00 -4.7084805879e+00 2.7184425349e+00 4.7084805879e+00 
135100 4.7629341802e+00 -2.9540053032e-03 2.7184969235e+00 -4.7085747918e+00 2.7184969235e+00 4.7085747918e+00 
135200 4.7629340201e+00 -2.9509753670e-03 2.7185512553e+00 -4.7086688972e+00 2.7185512553e+00 4.7086688972e+00 
135300 4.7629338604e+00 -2.9479483990e-03 2.7186055303e+00 -4.7087629042e+00 2.7186055303e+00 4.7087629042e+00 
135400 4.7629337010e+00 -2.9449243952e-03 2.7186597485e+00 -4.7088568129e+00 2.7186597485e+00 4.7088568129e+00 
135500 4.7629335419e+00 -2.9419033523e-03 2.7187139100e+00 -4.7089506233e+00 2.7187139100e+00 4.7089506233e+00 
135600 4.7629333832e+00 -2.9388852665e-03 2.7187680149e+00 -4.7090443357e+00 2.7187680149e+00 4.7090443357e+00 
135700 4.7629332248e+00 -2.9358701343e-03 2.7188220631e+00 -4.7091379501e+00 2.7188220631e+00 4.7091379501e+00 
135800 4.7629330667e+00 -2.9328579521e-03 2.7188760549e+00 -4.7092314666e+00 2.7188760549e+00 4.7092314666e+00 
135900 4.7629329090e+00 -2.9298487163e-03 2.7189299902e+00 -4.7093248852e+00 2.7189299902e+00 4.7093248852e+00 
136000 4.7629327516e+00 -2.9268424235e-03 2.7189838691e+00 -4.7094182062e+00 2.7189838691e+00 4.7094182062e+00 
136100 4.7629325946e+00 -2.9238390699e-03 2.7190376916e+00 -4.7095114296e+00 2.7190376916e+00 4.7095114296e+00 
136200 4.7629324378e+00 -2.9208386522e-03 2.7190914579e+00 -4.7096045554e+00 2.7190914579e+00 4.7096045554e+00 
136300 4.7629322814e+00 -2.9178411668e-03 2.7191451679e+00 -4.7096975839e+00 2.7191451679e+00 4.7096975839e+00 
136400 4.7629321254e+00 -2.9148466103e-03 2.7191988217e+00 -4.7097905150e+00 2.7191988217e+00 4.7097905150e+00 
136500 4.7629319697e+00 -2.9118549791e-03 2.7192524194e+00 -4.7098833490e+00 2.7192524194e+00 4.7098833490e+00 
136600 4.7629318143e+00 -2.9088662698e-03 2.7193059610e+00 -4.7099760858e+00 2.7193059610e+00 4.7099760858e+00 
136700 4.7629316592e+00 -2.9058804789e-03 2.7193594467e+00 -4.7100687256e+00 2.7193594467e+00 4.7100687256e+00 
136800 4.7629315044e+00 -2.9028976030e-03 2.7194128763e+00 -4.7101612686e+00 2.7194128763e+00 4.7101612686e+00 
136900 4.7629313500e+00 -2.8999176386e-03 2.7194662501e+00 -4.7102537147e+00 2.7194662501e+00 4.7102537147e+00 
137000 4.7629311959e+00 -2.8969405824e-03 2.7195195681e+00 -4.7103460641e+00 2.7195195681e+00 4.7103460641e+00 
137100 4.7629310422e+00 -2.8939664310e-03 2.7195728302e+00 -4.7104383168e+00 2.7195728302e+00 4.7104383168e+00 
137200 4.7629308887e+00 -2.8909951809e-03 2.7196260367e+00 -4.7105304731e+00 2.7196260367e+00 4.7105304731e+00 
137300 4.7629307356e+00 -2.8880268288e-03 2.7196791874e+00 -4.7106225329e+00 2.7196791874e+00 4.7106225329e+00 
137400 4.7629305828e+00 -2.8850613713e-03 2.7197322826e+00 -4.7107144965e+00 2.7197322826e+00 4.7107144965e+00 
137500 4.7629304304e+00 -2.8820988050e-03 2.7197853222e+00 -4.7108063638e+00 2.7197853222e+00 4.7108063638e+00 
137600 4.7629302782e+00 -2.8791391267e-03 2.7198383063e+00 -4.7108981349e+00 2.7198383063e+00 4.7108981349e+00 
137700 4.7629301264e+00 -2.8761823330e-03 2.7198912350e+00 -4.7109898101e+00 2.7198912350e+00 4.7109898101e+00 
137800 4.7629299749e+00 -2.8732284205e-03 2.7199441083e+00 -4.7110813893e+00 2.7199441083e+00 4.7110813893e+00 
137900 4.7629298238e+00 -2.8702773861e-03 2.7199969262e+00 -4.7111728727e+00 2.7199969262e+00 4.7111728727e+00 
138000 4.7629296729e+00 -2.8673292263e-03 2.7200496889e+00 -4.7112642603e+00 2.7200496889e+00 4.7112642603e+00 
138100 4.7629295224e+00 -2.8643839379e-03 2.7201023964e+00 -4.7113555523e+00 2.7201023964e+00 4.7113555523e+00 
138200 4.7629293721e+00 -2.8614415176e-03 2.7201550487e+00 -4.7114467488e+00 2.7201550487e+00 4.7114467488e+00 
138300 4.7629292223e+00 -2.8585019623e-03 2.7202076459e+00 -4.7115378498e+00 2.7202076459e+00 4.7115378498e+00 
138400 4.7629290727e+00 -2.8555652686e-03 2.7202601880e+00 -4.7116288555e+00 2.7202601880e+00 4.7116288555e+00 
138500 4.7629289234e+00 -2.8526314332e-03 2.7203126752e+00 -4.7117197659e+00 2.7203126752e+00 4.7117197659e+00 
138600 4.7629287745e+00 -2.8497004531e-03 2.7203651074e+00 -4.7118105812e+00 2.7203651074e+00 4.7118105812e+00 
138700 4.7629286258e+00 -2.8467723250e-03 2.7204174848e+00 -4.7119013014e+00 2.7204174848e+00 4.7119013014e+00 
138800 4.7629284775e+00 -2.8438470456e-03 2.7204698073e+00 -4.7119919266e+00 2.7204698073e+00 4.7119919266e+00 
138900 4.7629283295e+00 -2.8409246118e-03 2.7205220750e+00 -4.7120824570e+00 2.7205220750e+00 4.7120824570e+00 
139000 4.7629281818e+00 -2.8380050204e-03 2.7205742880e+00 -4.7121728926e+00 2.7205742880e+00 4.7121728926e+00 
139100 4.7629280345e+00 -2.8350882683e-03 2.7206264464e+00 -4.7122632336e+00 2.7206264464e+00 4.7122632336e+00 
139200 4.7629278874e+00 -2.8321743523e-03 2.7206785501e+00 -4.7123534799e+00 2.7206785501e+00 4.7123534799e+00 
139300 4.7629277407e+00 -2.8292632692e-03 2.7207305994e+00 -4.7124436318e+00 2.7207305994e+00 4.7124436318e+00 
139400 4.7629275942e+00 -2.8263550160e-03 2.7207825941e+00 -4.7125336893e+00 2.7207825941e+00 4.7125336893e+00 
139500 4.7629274481e+00 -2.8234495894e-03 2.7208345344e+00 -4.7126236525e+00 2.7208345344e+00 4.7126236525e+00 
139600 4.7629273023e+00 -2.8205469865e-03 2.7208864202e+00 -4.7127135215e+00 2.7208864202e+00 4.7127135215e+00 
139700 4.7629271568e+00 -2.8176472040e-03 2.7209382518e+00 -4.7128032964e+00 2.7209382518e+00 4.7128032964e+00 
139800 4.7629270116e+00 -2.8147502389e-03 2.7209900291e+00 -4.7128929773e+00 2.7209900291e+00 4.7128929773e+00 
139900 4.7629268667e+00 -2.8118560882e-03 2.7210417522e+00 -4.7129825643e+00 2.7210417522e+00 4.7129825643e+00 
140000 4.7629267221e+00 -2.8089647487e-03 2.7210934211e+00 -4.7130720574e+00 2.7210934211e+00 4.7130720574e+00 
140100 4.7629265778e+00 -2.8060762174e-03 2.7211450359e+00 -4.7131614569e+00 2.7211450359e+00 4.7131614569e+00 
140200 4.7629264339e+00 -2.8031904912e-03 2.7211965966e+00 -4.7132507627e+00 2.7211965966e+00 4.7132507627e+00 
140300 4.7629262902e+00 -2.8003075671e-03 2.7212481033e+00 -4.7133399750e+00 2.7212481033e+00 4.7133399750e+00 
140400 4.7629261468e+00 -2.7974274422e-03 2.7212995561e+00 -4.7134290939e+00 2.7212995561e+00 4.7134290939e+00 
140500 4.7629260038e+00 -2.7945501132e-03 2.7213509550e+00 -4.7135181194e+00 2.7213509550e+00 4.7135181194e+00 
140600 4.7629258610e+00 -2.7916755774e-03 2.7214023001e+00 -4.7136070516e+00 2.7214023001e+00 4.7136070516e+00 
140700 4.7629257186e+00 -2.7888038315e-03 2.7214535914e+00 -4.7136958907e+00 2.7214535914e+00 4.7136958907e+00 
140800 4.7629255764e+00 -2.7859348728e-03 2.7215048290e+00 -4.7137846368e+00 2.7215048290e+00 4.7137846368e+00 
140900 4.7629254346e+00 -2.7830686981e-03 2.7215560128e+00 -4.7138732899e+00 2.7215560128e+00 4.7138732899e+00 
141000 4.7629252931e+00 -2.7802053045e-03 2.7216071431e+00 -4.7139618501e+00 2.7216071431e+00 4.7139618501e+00 
141100 4.7629251518e+00 -2.7773446891e-03 2.7216582198e+00 -4.7140503175e+00 2.7216582198e+00 4.7140503175e+00 
141200 4.7629250109e+00 -2.7744868489e-03 2.7217092430e+00 -4.7141386923e+00 2.7217092430e+00 4.7141386923e+00 
141300 4.7629248702e+00 -2.7716317810e-03 2.7217602127e+00 -4.7142269744e+00 2.7217602127e+00 4.7142269744e+00 
141400 4.7629247299e+00 -2.7687794824e-03 2.7218111290e+00 -4.7143151641e+00 2.7218111290e+00 4.7143151641e+00 
141500 4.7629245898e+00 -2.7659299502e-03 2.7218619920e+00 -4.7144032613e+00 2.7218619920e+00 4.7144032613e+00 
141600 4.7629244501e+00 -2.7630831815e-03 2.7219128017e+00 -4.7144912663e+00 2.7219128017e+00 4.7144912663e+00 
141700 4.7629243107e+00 -2.7602391734e-03 2.7219635581e+00 -4.7145791790e+00 2.7219635581e+00 4.7145791790e+00 
141800 4.7629241715e+00 -2.7573979229e-03 2.7220142614e+00 -4.7146669996e+00 2.7220142614e+00 4.7146669996e+00 
141900 4.7629240326e+00 -2.7545594273e-03 2.7220649115e+00 -4.7147547282e+00 2.7220649115e+00 4.7147547282e+00 
142000 4.7629238941e+00 -2.7517236836e-03 2.7221155085e+00 -4.7148423648e+00 2.7221155085e+00 4.7148423648e+00 
142100 4.7629237558e+00 -2.7488906890e-03 2.7221660525e+00 -4.7149299096e+00 2.7221660525e+00 4.7149299096e+00 
142200 4.7629236178e+00 -2.7460604406e-03 2.7222165435e+00 -4.7150173626e+00 2.7222165435e+00 4.7150173626e+00 
142300 4.7629234802e+00 -2.7432329356e-03 2.7222669816e+00 -4.7151047239e+00 2.7222669816e+00 4.7151047239e+00 
142400 4.7629233428e+00 -2.7404081710e-03 2.7223173669e+00 -4.7151919937e+00 2.7223173669e+00 4.7151919937e+00 
142500 4.7629232057e+00 -2.7375861441e-03 2.7223676993e+00 -4.7152791721e+00 2.7223676993e+00 4.7152791721e+00 
142600 4.7629230689e+00 -2.7347668521e-03 2.7224179790e+00 -4.7153662590e+00 2.7224179790e+00 4.7153662590e+00 
142700 4.7629229324e+00 -2.7319502921e-03 2.7224682059e+00 -4.7154532546e+00 2.7224682059e+00 4.7154532546e+00 
142800 4.7629227961e+00 -2.7291364614e-03 2.7225183802e+00 -4.7155401591e+00 2.7225183802e+00 4.7155401591e+00 
142900 4.7629226602e+00 -2.7263253571e-03 2.7225685019e+00 -4.7156269724e+00 2.7225685019e+00 4.7156269724e+00 
143000 4.7629225246e+00 -2.7235169764e-03 2.7226185710e+00 -4.7157136947e+00 2.7226185710e+00 4.7157136947e+00 
143100 4.7629223892e+00 -2.7207113165e-03 2.7226685877e+00 -4.7158003261e+00 2.7226685877e+00 4.7158003261e+00 
143200 4.7629222541e+00 -2.7179083748e-03 2.7227185519e+00 -4.7158868666e+00 2.7227185519e+00 4.7158868666e+00 
143300 4.7629221194e+00 -2.7151081483e-03 2.7227684637e+00 -4.7159733164e+00 2.7227684637e+00 4.7159733164e+00 
143400 4.7629219849e+00 -2.7123106344e-03 2.7228183232e+00 -4.7160596756e+00 2.7228183232e+00 4.7160596756e+00 
143500 4.7629218507e+00 -2.7095158303e-03 2.7228681304e+00 -4.7161459442e+00 2.7228681304e+00 4.7161459442e+00 
143600 4.7629217167e+00 -2.7067237333e-03 2.7229178854e+00 -4.7162321223e+00 2.7229178854e+00 4.7162321223e+00 
143700 4.7629215831e+00 -2.7039343406e-03 2.7229675882e+00 -4.7163182100e+00 2.7229675882e+00 4.7163182100e+00 
143800 4.7629214497e+00 -2.7011476495e-03 2.7230172388e+00 -4.7164042075e+00 2.7230172388e+00 4.7164042075e+00 
143900 4.7629213167e+00 -2.6983636572e-03 2.7230668374e+00 -4.7164901148e+00 2.7230668374e+00 4.7164901148e+00 
144000 4.7629211839e+00 -2.6955823612e-03 2.7231163839e+00 -4.7165759319e+00 2.7231163839e+00 4.7165759319e+00 
144100 4.7629210514e+00 -2.6928037585e-03 2.7231658785e+00 -4.7166616591e+00 2.7231658785e+00 4.7166616591e+00 
144200 4.7629209192e+00 -2.6900278467e-03 2.7232153212e+00 -4.7167472963e+00 2.7232153212e+00 4.7167472963e+00 
144300 4.7629207872e+00 -2.6872546229e-03 2.7232647120e+00 -4.7168328437e+00 2.7232647120e+00 4.7168328437e+00 
144400 4.7629206556e+00 -2.6844840845e-03 2.7233140510e+00 -4.7169183013e+00 2.7233140510e+00 4.7169183013e+00 
144500 4.7629205242e+00 -2.6817162288e-03 2.7233633382e+00 -4.7170036693e+00 2.7233633382e+00 4.7170036693e+00 
144600 4.7629203931e+00 -2.6789510532e-03 2.7234125738e+00 -4.7170889477e+00 2.7234125738e+00 4.7170889477e+00 
144700 4.7629202623e+00 -2.6761885550e-03 2.7234617576e+00 -4.7171741367e+00 2.7234617576e+00 4.7171741367e+00 
144800 4.7629201317e+00 -2.6734287315e-03 2.7235108899e+00 -4.7172592362e+00 2.7235108899e+00 4.7172592362e+00 
144900 4.7629200015e+00 -2.6706715801e-03 2.7235599706e+00 -4.7173442465e+00 2.7235599706e+00 4.7173442465e+00 
145000 4.7629198715e+00 -2.6679170981e-03 2.7236089998e+00 -4.7174291676e+00 2.7236089998e+00 4.7174291676e+00 
145100 4.7629197418e+00 -2.6651652830e-03 2.7236579776e+00 -4.7175139996e+00 2.7236579776e+00 4.7175139996e+00 
145200 4.7629196123e+00 -2.6624161321e-03 2.7237069039e+00 -4.7175987425e+00 2.7237069039e+00 4.7175987425e+00 
145300 4.7629194832e+00 -2.6596696427e-03 2.7237557789e+00 -4.7176833965e+00 2.7237557789e+00 4.7176833965e+00 
145400 4.7629193543e+00 -2.6569258124e-03 2.7238046026e+00 -4.7177679617e+00 2.7238046026e+00 4.7177679617e+00 
145500 4.7629192257e+00 -2.6541846384e-03 2.7238533751e+00 -4.7178524381e+00 2.7238533751e+00 4.7178524381e+00 
145600 4.7629190974e+00 -2.6514461182e-03 2.7239020964e+00 -4.7179368258e+00 2.7239020964e+00 4.7179368258e+00 
145700 4.7629189693e+00 -2.6487102491e-03 2.7239507665e+00 -4.7180211250e+00 2.7239507665e+00 4.7180211250e+00 
145800 4.7629188415e+00 -2.6459770287e-03 2.7239993856e+00 -4.7181053356e+00 2.7239993856e+00 4.7181053356e+00 
145900 4.7629187140e+00 -2.6432464543e-03 2.7240479536e+00 -4.7181894579e+00 2.7240479536e+00 4.7181894579e+00 
146000 4.7629185867e+00 -2.6405185233e-03 2.7240964706e+00 -4.7182734919e+00 2.7240964706e+00 4.7182734919e+00 
146100 4.7629184598e+00 -2.6377932332e-03 2.7241449367e+00 -4.7183574376e+00 2.7241449367e+00 4.7183574376e+00 
146200 4.7629183331e+00 -2.6350705815e-03 2.7241933519e+00 -4.7184412952e+00 2.7241933519e+00 4.7184412952e+00 
146300 4.7629182066e+00 -2.6323505656e-03 2.7242417163e+00 -4.7185250648e+00 2.7242417163e+00 4.7185250648e+00 
146400 4.7629180805e+00 -2.6296331829e-03 2.7242900299e+00 -4.7186087464e+00 2.7242900299e+00 4.7186087464e+00 
146500 4.7629179546e+00 -2.6269184309e-03 2.7243382928e+00 -4.7186923401e+00 2.7243382928e+00 4.7186923401e+00 
146600 4.7629178290e+00 -2.6242063071e-03 2.7243865050e+00 -4.7187758461e+00 2.7243865050e+00 4.7187758461e+00 
146700 4.7629177036e+00 -2.6214968089e-03 2.7244346665e+00 -4.7188592643e+00 2.7244346665e+00 4.7188592643e+00 
146800 4.7629175785e+00 -2.6187899339e-03 2.7244827775e+00 -4.7189425950e+00 2.7244827775e+00 4.7189425950e+00 
146900 4.7629174537e+00 -2.6160856794e-03 2.7245308380e+00 -4.7190258381e+00 2.7245308380e+00 4.7190258381e+00 
147000 4.7629173291e+00 -2.6133840431e-03 2.7245788479e+00 -4.7191089939e+00 2.7245788479e+00 4.7191089939e+00 
147100 4.7629172048e+00 -2.6106850225e-03 2.7246268075e+00 -4.7191920622e+00 2.7246268075e+00 4.7191920622e+00 
147200 4.7629170808e+00 -2.6079886149e-03 2.7246747167e+00 -4.7192750434e+00 2.7246747167e+00 4.7192750434e+00 
147300 4.7629169570e+00 -2.6052948180e-03 2.7247225755e+00 -4.7193579373e+00 2.7247225755e+00 4.7193579373e+00 
147400 4.7629168336e+00 -2.6026036292e-03 2.7247703841e+00 -4.7194407442e+00 2.7247703841e+00 4.7194407442e+00 
147500 4.7629167103e+00 -2.5999150461e-03 2.7248181425e+00 -4.7195234641e+00 2.7248181425e+00 4.7195234641e+00 
147600 4.7629165873e+00 -2.5972290662e-03 2.7248658507e+00 -4.7196060971e+00 2.7248658507e+00 4.7196060971e+00 
147700 4.7629164646e+00 -2.5945456870e-03 2.7249135087e+00 -4.7196886433e+00 2.7249135087e+00 4.7196886433e+00 
147800 4.7629163422e+00 -2.5918649061e-03 2.7249611167e+00 -4.7197711028e+00 2.7249611167e+00 4.7197711028e+00 
147900 4.7629162200e+00 -2.5891867211e-03 2.7250086747e+00 -4.7198534756e+00 2.7250086747e+00 4.7198534756e+00 
148000 4.7629160981e+00 -2.5865111294e-03 2.7250561827e+00 -4.7199357619e+00 2.7250561827e+00 4.7199357619e+00 
148100 4.7629159764e+00 -2.5838381287e-03 2.7251036408e+00 -4.7200179617e+00 2.7251036408e+00 4.7200179617e+00 
148200 4.7629158550e+00 -2.5811677165e-03 2.7251510490e+00 -4.7201000751e+00 2.7251510490e+00 4.7201000751e+00 
148300 4.7629157338e+00 -2.5784998904e-03 2.7251984074e+00 -4.7201821023e+00 2.7251984074e+00 4.7201821023e+00 
148400 4.7629156130e+00 -2.5758346479e-03 2.7252457160e+00 -4.7202640432e+00 2.7252457160e+00 4.7202640432e+00 
148500 4.7629154923e+00 -2.5731719866e-03 2.7252929749e+00 -4.7203458980e+00 2.7252929749e+00 4.7203458980e+00 
148600 4.7629153720e+00 -2.5705119042e-03 2.7253401841e+00 -4.7204276668e+00 2.7253401841e+00 4.7204276668e+00 
148700 4.7629152518e+00 -2.5678543982e-03 2.7253873437e+00 -4.7205093496e+00 2.7253873437e+00 4.7205093496e+00 
148800 4.7629151320e+00 -2.5651994662e-03 2.7254344537e+00 -4.7205909466e+00 2.7254344537e+00 4.7205909466e+00 
148900 4.7629150124e+00 -2.5625471058e-03 2.7254815142e+00 -4.7206724578e+00 2.7254815142e+00 4.7206724578e+00 
149000 4.7629148930e+00 -2.5598973146e-03 2.7255285253e+00 -4.7207538833e+00 2.7255285253e+00 4.7207538833e+00 
149100 4.7629147739e+00 -2.5572500902e-03 2.7255754869e+00 -4.7208352232e+00 2.7255754869e+00 4.7208352232e+00 
149200 4.7629146551e+00 -2.5546054303e-03 2.7256223992e+00 -4.7209164776e+00 2.7256223992e+00 4.7209164776e+00 
149300 4.7629145365e+00 -2.5519633325e-03 2.7256692621e+00 -4.7209976466e+00 2.7256692621e+00 4.7209976466e+00 
149400 4.7629144182e+00 -2.5493237944e-03 2.7257160757e+00 -4.7210787302e+00 2.7257160757e+00 4.7210787302e+00 
149500 4.7629143001e+00 -2.5466868136e-03 2.7257628402e+00 -4.7211597285e+00 2.7257628402e+00 4.7211597285e+00 
149600 4.7629141823e+00 -2.5440523878e-03 2.7258095554e+00 -4.7212406417e+00 2.7258095554e+00 4.7212406417e+00 
149700 4.7629140647e+00 -2.5414205147e-03 2.7258562215e+00 -4.7213214698e+00 2.7258562215e+00 4.7213214698e+00 
149800 4.7629139473e+00 -2.5387911917e-03 2.7259028386e+00 -4.7214022130e+00 2.7259028386e+00 4.7214022130e+00 
149900 4.7629138303e+00 -2.5361644168e-03 2.7259494066e+00 -4.7214828711e+00 2.7259494066e+00 4.7214828711e+00 
150000 4.7629137134e+00 -2.5335401874e-03 2.7259959257e+00 -4.7215634445e+00 2.7259959257e+00 4.7215634445e+00 
150100 4.7629135969e+00 -2.5309185012e-03 2.7260423958e+00 -4.7216439331e+00 2.7260423958e+00 4.7216439331e+00 
150200 4.7629134805e+00 -2.5282993559e-03 2.7260888171e+00 -4.7217243371e+00 2.7260888171e+00 4.7217243371e+00 
150300 4.7629133645e+00 -2.5256827493e-03 2.7261351895e+00 -4.7218046565e+00 2.7261351895e+00 4.7218046565e+00 
150400 4.7629132486e+00 -2.5230686789e-03 2.7261815131e+00 -4.7218848914e+00 2.7261815131e+00 4.7218848914e+00 
150500 4.7629131330e+00 -2.5204571425e-03 2.7262277880e+00 -4.7219650418e+00 2.7262277880e+00 4.7219650418e+00 
150600 4.7629130177e+00 -2.5178481376e-03 2.7262740142e+00 -4.7220451080e+00 2.7262740142e+00 4.7220451080e+00 
150700 4.7629129026e+00 -2.5152416622e-03 2.7263201918e+00 -4.7221250899e+00 2.7263201918e+00 4.7221250899e+00 
150800 4.7629127878e+00 -2.5126377137e-03 2.7263663208e+00 -4.7222049877e+00 2.7263663208e+00 4.7222049877e+00 
150900 4.7629126732e+00 -2.5100362900e-03 2.7264124013e+00 -4.7222848014e+00 2.7264124013e+00 4.7222848014e+00 
151000 4.7629125588e+00 -2.5074373887e-03 2.7264584333e+00 -4.7223645312e+00 2.7264584333e+00 4.7223645312e+00 
151100 4.7629124447e+00 -2.5048410075e-03 2.7265044168e+00 -4.7224441770e+00 2.7265044168e+00 4.7224441770e+00 
151200 4.7629123308e+00 -2.5022471443e-03 2.7265503520e+00 -4.7225237390e+00 2.7265503520e+00 4.7225237390e+00 
151300 4.7629122172e+00 -2.4996557965e-03 2.7265962388e+00 -4.7226032173e+00 2.7265962388e+00 4.7226032173e+00 
151400 4.7629121038e+00 -2.4970669621e-03 2.7266420773e+00 -4.7226826120e+00 2.7266420773e+00 4.7226826120e+00 
151500 4.7629119907e+00 -2.4944806387e-03 2.7266878676e+00 -4.7227619230e+00 2.7266878676e+00 4.7227619230e+00 
151600 4.7629118778e+00 -2.4918968241e-03 2.7267336097e+00 -4.7228411507e+00 2.7267336097e+00 4.7228411507e+00 
151700 4.7629117651e+00 -2.4893155160e-03 2.7267793036e+00 -4.7229202949e+00 2.7267793036e+00 4.7229202949e+00 
151800 4.7629116527e+00 -2.4867367121e-03 2.7268249494e+00 -4.7229993558e+00 2.7268249494e+00 4.7229993558e+00 
151900 4.7629115406e+00 -2.4841604102e-03 2.7268705472e+00 -4.7230783335e+00 2.7268705472e+00 4.7230783335e+00 
152000 4.7629114286e+00 -2.4815866081e-03 2.7269160970e+00 -4.7231572280e+00 2.7269160970e+00 4.7231572280e+00 
152100 4.7629113169e+00 -2.4790153034e-03 2.7269615988e+00 -4.7232360395e+00 2.7269615988e+00 4.7232360395e+00 
152200 4.7629112055e+00 -2.4764464940e-03 2.7270070528e+00 -4.7233147680e+00 2.7270070528e+00 4.7233147680e+00 
152300 4.7629110942e+00 -2.4738801776e-03 2.7270524588e+00 -4.7233934136e+00 2.7270524588e+00 4.7233934136e+00 
152400 4.7629109833e+00 -2.4713163520e-03 2.7270978171e+00 -4.7234719764e+00 2.7270978171e+00 4.7234719764e+00 
152500 4.7629108725e+00 -2.4687550149e-03 2.7271431276e+00 -4.7235504565e+00 2.7271431276e+00 4.7235504565e+00 
152600 4.7629107620e+00 -2.4661961641e-03 2.7271883904e+00 -4.7236288540e+00 2.7271883904e+00 4.7236288540e+00 
152700 4.7629106517e+00 -2.4636397975e-03 2.7272336055e+00 -4.7237071688e+00 2.7272336055e+00 4.7237071688e+00 
152800 4.7629105417e+00 -2.4610859127e-03 2.7272787730e+00 -4.7237854012e+00 2.7272787730e+00 4.7237854012e+00 
152900 4.7629104319e+00 -2.4585345076e-03 2.7273238929e+00 -4.7238635513e+00 2.7273238929e+00 4.7238635513e+00 
153000 4.7629103223e+00 -2.4559855800e-03 2.7273689653e+00 -4.7239416190e+00 2.7273689653e+00 4.7239416190e+00 
153100 4.7629102130e+00 -2.4534391276e-03 2.7274139903e+00 -4.7240196044e+00 2.7274139903e+00 4.7240196044e+00 
153200 4.7629101039e+00 -2.4508951483e-03 2.7274589678e+00 -4.7240975078e+00 2.7274589678e+00 4.7240975078e+00 
153300 4.7629099951e+00 -2.4483536398e-03 2.7275038979e+00 -4.7241753291e+00 2.7275038979e+00 4.7241753291e+00 
153400 4.7629098864e+00 -2.4458146000e-03 2.7275487807e+00 -4.7242530683e+00 2.7275487807e+00 4.7242530683e+00 
153500 4.7629097780e+00 -2.4432780266e-03 2.7275936162e+00 -4.7243307257e+00 2.7275936162e+00 4.7243307257e+00 
153600 4.7629096699e+00 -2.4407439176e-03 2.7276384045e+00 -4.7244083013e+00 2.7276384045e+00 4.7244083013e+00 
153700 4.7629095619e+00 -2.4382122706e-03 2.7276831456e+00 -4.7244857952e+00 2.7276831456e+00 4.7244857952e+00 
153800 4.7629094542e+00 -2.4356830836e-03 2.7277278396e+00 -4.7245632074e+00 2.7277278396e+00 4.7245632074e+00 
153900 4.7629093467e+00 -2.4331563543e-03 2.7277724864e+00 -4.7246405380e+00 2.7277724864e+00 4.7246405380e+00 
154000 4.7629092395e+00 -2.4306320806e-03 2.7278170863e+00 -4.7247177872e+00 2.7278170863e+00 4.7247177872e+00 
154100 4.7629091325e+00 -2.4281102604e-03 2.7278616391e+00 -4.7247949549e+00 2.7278616391e+00 4.7247949549e+00 
154200 4.7629090257e+00 -2.4255908913e-03 2.7279061449e+00 -4.7248720413e+00 2.7279061449e+00 4.7248720413e+00 
154300 4.7629089191e+00 -2.4230739713e-03 2.7279506039e+00 -4.7249490465e+00 2.7279506039e+00 4.7249490465e+00 
154400 4.7629088128e+00 -2.4205594983e-03 2.7279950160e+00 -4.7250259705e+00 2.7279950160e+00 4.7250259705e+00 
154500 4.7629087067e+00 -2.4180474700e-03 2.7280393813e+00 -4.7251028135e+00 2.7280393813e+00 4.7251028135e+00 
154600 4.7629086008e+00 -2.4155378844e-03 2.7280836998e+00 -4.7251795754e+00 2.7280836998e+00 4.7251795754e+00 
154700 4.7629084952e+00 -2.4130307392e-03 2.7281279717e+00 -4.7252562564e+00 2.7281279717e+00 4.7252562564e+00 
154800 4.7629083898e+00 -2.4105260324e-03 2.7281721968e+00 -4.7253328567e+00 2.7281721968e+00 4.7253328567e+00 
154900 4.7629082846e+00 -2.4080237618e-03 2.7282163753e+00 -4.7254093761e+00 2.7282163753e+00 4.7254093761e+00 
155000 4.7629081796e+00 -2.4055239252e-03 2.7282605073e+00 -4.7254858149e+00 2.7282605073e+00 4.7254858149e+00 
155100 4.7629080749e+00 -2.4030265205e-03 2.7283045927e+00 -4.7255621731e+00 2.7283045927e+00 4.7255621731e+00 
155200 4.7629079703e+00 -2.4005315457e-03 2.7283486316e+00 -4.7256384508e+00 2.7283486316e+00 4.7256384508e+00 
155300 4.7629078660e+00 -2.3980389985e-03 2.7283926242e+00 -4.7257146480e+00 2.7283926242e+00 4.7257146480e+00 
155400 4.7629077620e+00 -2.3955488768e-03 2.7284365703e+00 -4.7257907649e+00 2.7284365703e+00 4.7257907649e+00 
155500 4.7629076581e+00 -2.3930611786e-03 2.7284804701e+00 -4.7258668016e+00 2.7284804701e+00 4.7258668016e+00 
155600 4.7629075545e+00 -2.3905759016e-03 2.7285243235e+00 -4.7259427581e+00 2.7285243235e+00 4.7259427581e+00 
155700 4.7629074511e+00 -2.3880930439e-03 2.7285681308e+00 -4.7260186344e+00 2.7285681308e+00 4.7260186344e+00 
155800 4.7629073479e+00 -2.3856126033e-03 2.7286118918e+00 -4.7260944308e+00 2.7286118918e+00 4.7260944308e+00 
155900 4.7629072449e+00 -2.3831345776e-03 2.7286556067e+00 -4.7261701472e+00 2.7286556067e+00 4.7261701472e+00 
156000 4.7629071422e+00 -2.3806589648e-03 2.7286992755e+00 -4.7262457837e+00 2.7286992755e+00 4.7262457837e+00 
156100 4.7629070396e+00 -2.3781857628e-03 2.7287428982e+00 -4.7263213404e+00 2.7287428982e+00 4.7263213404e+00 
156200 4.7629069373e+00 -2.3757149694e-03 2.7287864749e+00 -4.7263968175e+00 2.7287864749e+00 4.7263968175e+00 
156300 4.7629068353e+00 -2.3732465826e-03 2.7288300056e+00 -4.7264722149e+00 2.7288300056e+00 4.7264722149e+00 
156400 4.7629067334e+00 -2.3707806004e-03 2.7288734904e+00 -4.7265475328e+00 2.7288734904e+00 4.7265475328e+00 
156500 4.7629066317e+00 -2.3683170205e-03 2.7289169293e+00 -4.7266227713e+00 2.7289169293e+00 4.7266227713e+00 
156600 4.7629065303e+00 -2.3658558409e-03 2.7289603224e+00 -4.7266979303e+00 2.7289603224e+00 4.7266979303e+00 
156700 4.7629064291e+00 -2.3633970596e-03 2.7290036698e+00 -4.7267730101e+00 2.7290036698e+00 4.7267730101e+00 
156800 4.7629063281e+00 -2.3609406744e-03 2.7290469713e+00 -4.7268480106e+00 2.7290469713e+00 4.7268480106e+00 
156900 4.7629062273e+00 -2.3584866833e-03 2.7290902272e+00 -4.7269229320e+00 2.7290902272e+00 4.7269229320e+00 
157000 4.7629061267e+00 -2.3560350842e-03 2.7291334375e+00 -4.7269977743e+00 2.7291334375e+00 4.7269977743e+00 
157100 4.7629060264e+00 -2.3535858750e-03 2.7291766021e+00 -4.7270725377e+00 2.7291766021e+00 4.7270725377e+00 
157200 4.7629059263e+00 -2.3511390537e-03 2.7292197212e+00 -4.7271472221e+00 2.7292197212e+00 4.7271472221e+00 
157300 4.7629058263e+00 -2.3486946182e-03 2.7292627948e+00 -4.7272218278e+00 2.7292627948e+00 4.7272218278e+00 
157400 4.7629057266e+00 -2.3462525665e-03 2.7293058229e+00 -4.7272963546e+00 2.7293058229e+00 4.7272963546e+00 
157500 4.7629056271e+00 -2.3438128964e-03 2.7293488056e+00 -4.7273708029e+00 2.7293488056e+00 4.7273708029e+00 
157600 4.7629055279e+00 -2.3413756059e-03 2.7293917429e+00 -4.7274451725e+00 2.7293917429e+00 4.7274451725e+00 
157700 4.7629054288e+00 -2.3389406930e-03 2.7294346349e+00 -4.7275194636e+00 2.7294346349e+00 4.7275194636e+00 
157800 4.7629053299e+00 -2.3365081557e-03 2.7294774817e+00 -4.7275936763e+00 2.7294774817e+00 4.7275936763e+00 
157900 4.7629052313e+00 -2.3340779918e-03 2.7295202831e+00 -4.7276678107e+00 2.7295202831e+00 4.7276678107e+00 
158000 4.7629051329e+00 -2.3316501993e-03 2.7295630395e+00 -4.7277418668e+00 2.7295630395e+00 4.7277418668e+00 
158100 4.7629050346e+00 -2.3292247763e-03 2.7296057506e+00 -4.7278158447e+00 2.7296057506e+00 4.7278158447e+00 
158200 4.7629049366e+00 -2.3268017205e-03 2.7296484167e+00 -4.7278897445e+00 2.7296484167e+00 4.7278897445e+00 
158300 4.7629048388e+00 -2.3243810301e-03 2.7296910377e+00 -4.7279635663e+00 2.7296910377e+00 4.7279635663e+00 
158400 4.7629047412e+00 -2.3219627030e-03 2.7297336137e+00 -4.7280373101e+00 2.7297336137e+00 4.7280373101e+00 
158500 4.7629046438e+00 -2.3195467371e-03 2.7297761448e+00 -4.7281109760e+00 2.7297761448e+00 4.7281109760e+00 
158600 4.7629045467e+00 -2.3171331304e-03 2.7298186309e+00 -4.7281845642e+00 2.7298186309e+00 4.7281845642e+00 
158700 4.7629044497e+00 -2.3147218809e-03 2.7298610722e+00 -4.7282580746e+00 2.7298610722e+00 4.7282580746e+00 
158800 4.7629043530e+00 -2.3123129865e-03 2.7299034686e+00 -4.7283315074e+00 2.7299034686e+00 4.7283315074e+00 
158900 4.7629042564e+00 -2.3099064453e-03 2.7299458203e+00 -4.7284048626e+00 2.7299458203e+00 4.7284048626e+00 
159000 4.7629041601e+00 -2.3075022553e-03 2.7299881272e+00 -4.7284781404e+00 2.7299881272e+00 4.7284781404e+00 
159100 4.7629040639e+00 -2.3051004143e-03 2.7300303894e+00 -4.7285513407e+00 2.7300303894e+00 4.7285513407e+00 
159200 4.7629039680e+00 -2.3027009204e-03 2.7300726070e+00 -4.7286244637e+00 2.7300726070e+00 4.7286244637e+00 
159300 4.7629038723e+00 -2.3003037716e-03 2.7301147800e+00 -4.7286975095e+00 2.7301147800e+00 4.7286975095e+00 
159400 4.7629037768e+00 -2.2979089659e-03 2.7301569085e+00 -4.7287704781e+00 2.7301569085e+00 4.7287704781e+00 
159500 4.7629036814e+00 -2.2955165013e-03 2.7301989924e+00 -4.7288433696e+00 2.7301989924e+00 4.7288433696e+00 
159600 4.7629035863e+00 -2.2931263757e-03 2.7302410319e+00 -4.7289161841e+00 2.7302410319e+00 4.7289161841e+00 
159700 4.7629034914e+00 -2.2907385872e-03 2.7302830269e+00 -4.7289889217e+00 2.7302830269e+00 4.7289889217e+00 
159800 4.7629033967e+00 -2.2883531338e-03 2.7303249776e+00 -4.7290615824e+00 2.7303249776e+00 4.7290615824e+00 
159900 4.7629033022e+00 -2.2859700134e-03 2.7303668839e+00 -4.7291341663e+00 2.7303668839e+00 4.7291341663e+00 
160000 4.7629032079e+00 -2.2835892241e-03 2.7304087460e+00 -4.7292066735e+00 2.7304087460e+00 4.7292066735e+00 
160100 4.7629031138e+00 -2.2812107638e-03 2.7304505638e+00 -4.7292791041e+00 2.7304505638e+00 4.7292791041e+00 
160200 4.7629030199e+00 -2.2788346307e-03 2.7304923375e+00 -4.7293514582e+00 2.7304923375e+00 4.7293514582e+00 
160300 4.7629029262e+00 -2.2764608227e-03 2.7305340669e+00 -4.7294237357e+00 2.7305340669e+00 4.7294237357e+00 
160400 4.7629028327e+00 -2.2740893378e-03 2.7305757523e+00 -4.7294959369e+00 2.7305757523e+00 4.7294959369e+00 
160500 4.7629027395e+00 -2.2717201741e-03 2.7306173936e+00 -4.7295680618e+00 2.7306173936e+00 4.7295680618e+00 
160600 4.7629026464e+00 -2.2693533295e-03 2.7306589909e+00 -4.7296401104e+00 2.7306589909e+00 4.7296401104e+00 
160700 4.7629025535e+00 -2.2669888020e-03 2.7307005442e+00 -4.7297120829e+00 2.7307005442e+00 4.7297120829e+00 
160800 4.7629024608e+00 -2.2646265898e-03 2.7307420536e+00 -4.7297839793e+00 2.7307420536e+00 4.7297839793e+00 
160900 4.7629023683e+00 -2.2622666909e-03 2.7307835192e+00 -4.7298557996e+00 2.7307835192e+00 4.7298557996e+00 
161000 4.7629022760e+00 -2.2599091032e-03 2.7308249408e+00 -4.7299275441e+00 2.7308249408e+00 4.7299275441e+00 
161100 4.7629021839e+00 -2.2575538247e-03 2.7308663187e+00 -4.7299992127e+00 2.7308663187e+00 4.7299992127e+00 
161200 4.7629020920e+00 -2.2552008537e-03 2.7309076528e+00 -4.7300708055e+00 2.7309076528e+00 4.7300708055e+00 
161300 4.7629020003e+00 -2.2528501879e-03 2.7309489433e+00 -4.7301423226e+00 2.7309489433e+00 4.7301423226e+00 
161400 4.7629019088e+00 -2.2505018256e-03 2.7309901900e+00 -4.7302137641e+00 2.7309901900e+00 4.7302137641e+00 
161500 4.7629018175e+00 -2.2481557647e-03 2.7310313932e+00 -4.7302851300e+00 2.7310313932e+00 4.7302851300e+00 
161600 4.7629017264e+00 -2.2458120033e-03 2.7310725527e+00 -4.7303564205e+00 2.7310725527e+00 4.7303564205e+00 
161700 4.7629016355e+00 -2.2434705395e-03 2.7311136688e+00 -4.7304276355e+00 2.7311136688e+00 4.7304276355e+00 
161800 4.7629015447e+00 -2.2411313712e-03 2.7311547413e+00 -4.7304987753e+00 2.7311547413e+00 4.7304987753e+00 
161900 4.7629014542e+00 -2.2387944965e-03 2.7311957704e+00 -4.7305698398e+00 2.7311957704e+00 4.7305698398e+00 
162000 4.7629013639e+00 -2.2364599135e-03 2.7312367561e+00 -4.7306408291e+00 2.7312367561e+00 4.7306408291e+00 
162100 4.7629012737e+00 -2.2341276202e-03 2.7312776985e+00 -4.7307117434e+00 2.7312776985e+00 4.7307117434e+00 
162200 4.7629011838e+00 -2.2317976148e-03 2.7313185975e+00 -4.7307825826e+00 2.7313185975e+00 4.7307825826e+00 
162300 4.7629010940e+00 -2.2294698951e-03 2.7313594533e+00 -4.7308533469e+00 2.7313594533e+00 4.7308533469e+00 
162400 4.7629010045e+00 -2.2271444594e-03 2.7314002659e+00 -4.7309240363e+00 2.7314002659e+00 4.7309240363e+00 
162500 4.7629009151e+00 -2.2248213056e-03 2.7314410353e+00 -4.7309946510e+00 2.7314410353e+00 4.7309946510e+00 
162600 4.7629008259e+00 -2.2225004318e-03 2.7314817615e+00 -4.7310651909e+00 2.7314817615e+00 4.7310651909e+00 
162700 4.7629007370e+00 -2.2201818361e-03 2.7315224447e+00 -4.7311356562e+00 2.7315224447e+00 4.7311356562e+00 
162800 4.7629006482e+00 -2.2178655166e-03 2.7315630848e+00 -4.7312060469e+00 2.7315630848e+00 4.7312060469e+00 
162900 4.7629005596e+00 -2.2155514712e-03 2.7316036819e+00 -4.7312763632e+00 2.7316036819e+00 4.7312763632e+00 
163000 4.7629004711e+00 -2.2132396982e-03 2.7316442360e+00 -4.7313466050e+00 2.7316442360e+00 4.7313466050e+00 
163100 4.7629003829e+00 -2.2109301956e-03 2.7316847472e+00 -4.7314167725e+00 2.7316847472e+00 4.7314167725e+00 
163200 4.7629002949e+00 -2.2086229613e-03 2.7317252156e+00 -4.7314868657e+00 2.7317252156e+00 4.7314868657e+00 
163300 4.7629002070e+00 -2.2063179936e-03 2.7317656411e+00 -4.7315568848e+00 2.7317656411e+00 4.7315568848e+00 
163400 4.7629001194e+00 -2.2040152905e-03 2.7318060239e+00 -4.7316268297e+00 2.7318060239e+00 4.7316268297e+00 
163500 4.7629000319e+00 -2.2017148501e-03 2.7318463639e+00 -4.7316967007e+00 2.7318463639e+00 4.7316967007e+00 
163600 4.7628999446e+00 -2.1994166704e-03 2.7318866611e+00 -4.7317664976e+00 2.7318866611e+00 4.7317664976e+00 
163700 4.7628998575e+00 -2.1971207496e-03 2.7319269158e+00 -4.7318362207e+00 2.7319269158e+00 4.7318362207e+00 
163800 4.7628997706e+00 -2.1948270857e-03 2.7319671278e+00 -4.7319058700e+00 2.7319671278e+00 4.7319058700e+00 
163900 4.7628996839e+00 -2.1925356768e-03 2.7320072973e+00 -4.7319754455e+00 2.7320072973e+00 4.7319754455e+00 
164000 4.7628995974e+00 -2.1902465210e-03 2.7320474242e+00 -4.7320449474e+00 2.7320474242e+00 4.7320449474e+00 
164100 4.7628995110e+00 -2.1879596164e-03 2.7320875086e+00 -4.7321143757e+00 2.7320875086e+00 4.7321143757e+00 
164200 4.7628994249e+00 -2.1856749611e-03 2.7321275506e+00 -4.7321837304e+00 2.7321275506e+00 4.7321837304e+00 
164300 4.7628993389e+00 -2.1833925532e-03 2.7321675502e+00 -4.7322530118e+00 2.7321675502e+00 4.7322530118e+00 
164400 4.7628992531e+00 -2.1811123908e-03 2.7322075075e+00 -4.7323222198e+00 2.7322075075e+00 4.7323222198e+00 
164500 4.7628991675e+00 -2.1788344719e-03 2.7322474224e+00 -4.7323913545e+00 2.7322474224e+00 4.7323913545e+00 
164600 4.7628990821e+00 -2.1765587948e-03 2.7322872951e+00 -4.7324604159e+00 2.7322872951e+00 4.7324604159e+00 
164700 4.7628989968e+00 -2.1742853574e-03 2.7323271255e+00 -4.7325294043e+00 2.7323271255e+00 4.7325294043e+00 
164800 4.7628989118e+00 -2.1720141579e-03 2.7323669138e+00 -4.7325983196e+00 2.7323669138e+00 4.7325983196e+00 
164900 4.7628988269e+00 -2.1697451944e-03 2.7324066599e+00 -4.7326671619e+00 2.7324066599e+00 4.7326671619e+00 
165000 4.7628987422e+00 -2.1674784650e-03 2.7324463639e+00 -4.7327359312e+00 2.7324463639e+00 4.7327359312e+00 
165100 4.7628986577e+00 -2.1652139679e-03 2.7324860259e+00 -4.7328046278e+00 2.7324860259e+00 4.7328046278e+00 
165200 4.7628985734e+00 -2.1629517010e-03 2.7325256458e+00 -4.7328732515e+00 2.7325256458e+00 4.7328732515e+00 
165300 4.7628984892e+00 -2.1606916626e-03 2.7325652238e+00 -4.7329418026e+00 2.7325652238e+00 4.7329418026e+00 
165400 4.7628984053e+00 -2.1584338507e-03 2.7326047598e+00 -4.7330102811e+00 2.7326047598e+00 4.7330102811e+00 
165500 4.7628983215e+00 -2.1561782635e-03 2.7326442540e+00 -4.7330786870e+00 2.7326442540e+00 4.7330786870e+00 
165600 4.7628982379e+00 -2.1539248991e-03 2.7326837063e+00 -4.7331470204e+00 2.7326837063e+00 4.7331470204e+00 
165700 4.7628981544e+00 -2.1516737556e-03 2.7327231169e+00 -4.7332152814e+00 2.7327231169e+00 4.7332152814e+00 
165800 4.7628980712e+00 -2.1494248311e-03 2.7327624856e+00 -4.7332834701e+00 2.7327624856e+00 4.7332834701e+00 
165900 4.7628979881e+00 -2.1471781238e-03 2.7328018127e+00 -4.7333515866e+00 2.7328018127e+00 4.7333515866e+00 
166000 4.7628979052e+00 -2.1449336317e-03 2.7328410981e+00 -4.7334196309e+00 2.7328410981e+00 4.7334196309e+00 
166100 4.7628978225e+00 -2.1426913530e-03 2.7328803418e+00 -4.7334876031e+00 2.7328803418e+00 4.7334876031e+00 
166200 4.7628977400e+00 -2.1404512859e-03 2.7329195440e+00 -4.7335555032e+00 2.7329195440e+00 4.7335555032e+00 
166300 4.7628976576e+00 -2.1382134284e-03 2.7329587046e+00 -4.7336233314e+00 2.7329587046e+00 4.7336233314e+00 
166400 4.7628975754e+00 -2.1359777787e-03 2.7329978237e+00 -4.7336910877e+00 2.7329978237e+00 4.7336910877e+00 
166500 4.7628974934e+00 -2.1337443349e-03 2.7330369014e+00 -4.7337587721e+00 2.7330369014e+00 4.7337587721e+00 
166600 4.7628974116e+00 -2.1315130952e-03 2.7330759376e+00 -4.7338263849e+00 2.7330759376e+00 4.7338263849e+00 
166700 4.7628973300e+00 -2.1292840576e-03 2.7331149325e+00 -4.7338939260e+00 2.7331149325e+00 4.7338939260e+00 
166800 4.7628972485e+00 -2.1270572204e-03 2.7331538860e+00 -4.7339613954e+00 2.7331538860e+00 4.7339613954e+00 
166900 4.7628971672e+00 -2.1248325817e-03 2.7331927982e+00 -4.7340287934e+00 2.7331927982e+00 4.7340287934e+00 
167000 4.7628970861e+00 -2.1226101395e-03 2.7332316692e+00 -4.7340961199e+00 2.7332316692e+00 4.7340961199e+00 
167100 4.7628970051e+00 -2.1203898921e-03 2.7332704990e+00 -4.7341633751e+00 2.7332704990e+00 4.7341633751e+00 
167200 4.7628969243e+00 -2.1181718376e-03 2.7333092876e+00 -4.7342305589e+00 2.7333092876e+00 4.7342305589e+00 
167300 4.7628968437e+00 -2.1159559742e-03 2.7333480351e+00 -4.7342976715e+00 2.7333480351e+00 4.7342976715e+00 
167400 4.7628967633e+00 -2.1137422999e-03 2.7333867415e+00 -4.7343647129e+00 2.7333867415e+00 4.7343647129e+00 
167500 4.7628966830e+00 -2.1115308129e-03 2.7334254068e+00 -4.7344316833e+00 2.7334254068e+00 4.7344316833e+00 
167600 4.7628966029e+00 -2.1093215114e-03 2.7334640312e+00 -4.7344985826e+00 2.7334640312e+00 4.7344985826e+00 
167700 4.7628965230e+00 -2.1071143936e-03 2.7335026146e+00 -4.7345654110e+00 2.7335026146e+00 4.7345654110e+00 
167800 4.7628964433e+00 -2.1049094575e-03 2.7335411570e+00 -4.7346321686e+00 2.7335411570e+00 4.7346321686e+00 
167900 4.7628963637e+00 -2.1027067013e-03 2.7335796586e+00 -4.7346988553e+00 2.7335796586e+00 4.7346988553e+00 
168000 4.7628962843e+00 -2.1005061233e-03 2.7336181194e+00 -4.7347654713e+00 2.7336181194e+00 4.7347654713e+00 
168100 4.7628962051e+00 -2.0983077215e-03 2.7336565394e+00 -4.7348320167e+00 2.7336565394e+00 4.7348320167e+00 
168200 4.7628961260e+00 -2.0961114941e-03 2.7336949186e+00 -4.7348984914e+00 2.7336949186e+00 4.7348984914e+00 
168300 4.7628960471e+00 -2.0939174393e-03 2.7337332571e+00 -4.7349648957e+00 2.7337332571e+00 4.7349648957e+00 
168400 4.7628959684e+00 -2.0917255552e-03 2.7337715550e+00 -4.7350312295e+00 2.7337715550e+00 4.7350312295e+00 
168500 4.7628958899e+00 -2.0895358400e-03 2.7338098122e+00 -4.7350974930e+00 2.7338098122e+00 4.7350974930e+00 
168600 4.7628958115e+00 -2.0873482918e-03 2.7338480289e+00 -4.7351636862e+00 2.7338480289e+00 4.7351636862e+00 
168700 4.7628957333e+00 -2.0851629089e-03 2.7338862050e+00 -4.7352298091e+00 2.7338862050e+00 4.7352298091e+00 
168800 4.7628956552e+00 -2.0829796894e-03 2.7339243406e+00 -4.7352958619e+00 2.7339243406e+00 4.7352958619e+00 
168900 4.7628955774e+00 -2.0807986314e-03 2.7339624357e+00 -4.7353618446e+00 2.7339624357e+00 4.7353618446e+00 
169000 4.7628954996e+00 -2.0786197331e-03 2.7340004904e+00 -4.7354277573e+00 2.7340004904e+00 4.7354277573e+00 
169100 4.7628954221e+00 -2.0764429927e-03 2.7340385048e+00 -4.7354936001e+00 2.7340385048e+00 4.7354936001e+00 
169200 4.7628953447e+00 -2.0742684084e-03 2.7340764788e+00 -4.7355593730e+00 2.7340764788e+00 4.7355593730e+00 
169300 4.7628952675e+00 -2.0720959784e-03 2.7341144125e+00 -4.7356250761e+00 2.7341144125e+00 4.7356250761e+00 
169400 4.7628951905e+00 -2.0699257007e-03 2.7341523059e+00 -4.7356907095e+00 2.7341523059e+00 4.7356907095e+00 
169500 4.7628951136e+00 -2.0677575736e-03 2.7341901592e+00 -4.7357562732e+00 2.7341901592e+00 4.7357562732e+00 
169600 4.7628950369e+00 -2.0655915954e-03 2.7342279722e+00 -4.7358217674e+00 2.7342279722e+00 4.7358217674e+00 
169700 4.7628949603e+00 -2.0634277640e-03 2.7342657452e+00 -4.7358871920e+00 2.7342657452e+00 4.7358871920e+00 
169800 4.7628948840e+00 -2.0612660778e-03 2.7343034780e+00 -4.7359525472e+00 2.7343034780e+00 4.7359525472e+00 
169900 4.7628948077e+00 -2.0591065349e-03 2.7343411708e+00 -4.7360178331e+00 2.7343411708e+00 4.7360178331e+00 
170000 4.7628947317e+00 -2.0569491335e-03 2.7343788236e+00 -4.7360830496e+00 2.7343788236e+00 4.7360830496e+00 
170100 4.7628946558e+00 -2.0547938718e-03 2.7344164364e+00 -4.7361481969e+00 2.7344164364e+00 4.7361481969e+00 
170200 4.7628945801e+00 -2.0526407480e-03 2.7344540093e+00 -4.7362132751e+00 2.7344540093e+00 4.7362132751e+00 
170300 4.7628945045e+00 -2.0504897602e-03 2.7344915423e+00 -4.7362782841e+00 2.7344915423e+00 4.7362782841e+00 
170400 4.7628944291e+00 -2.0483409066e-03 2.7345290355e+00 -4.7363432242e+00 2.7345290355e+00 4.7363432242e+00 
170500 4.7628943539e+00 -2.0461941855e-03 2.7345664888e+00 -4.7364080953e+00 2.7345664888e+00 4.7364080953e+00 
170600 4.7628942788e+00 -2.0440495950e-03 2.7346039024e+00 -4.7364728975e+00 2.7346039024e+00 4.7364728975e+00 
170700 4.7628942039e+00 -2.0419071333e-03 2.7346412763e+00 -4.7365376310e+00 2.7346412763e+00 4.7365376310e+00 
170800 4.7628941291e+00 -2.0397667986e-03 2.7346786105e+00 -4.7366022957e+00 2.7346786105e+00 4.7366022957e+00 
170900 4.7628940545e+00 -2.0376285891e-03 2.7347159050e+00 -4.7366668917e+00 2.7347159050e+00 4.7366668917e+00 
171000 4.7628939801e+00 -2.0354925030e-03 2.7347531599e+00 -4.7367314191e+00 2.7347531599e+00 4.7367314191e+00 
171100 4.7628939058e+00 -2.0333585385e-03 2.7347903753e+00 -4.7367958781e+00 2.7347903753e+00 4.7367958781e+00 
171200 4.7628938317e+00 -2.0312266938e-03 2.7348275511e+00 -4.7368602685e+00 2.7348275511e+00 4.7368602685e+00 
171300 4.7628937577e+00 -2.0290969672e-03 2.7348646875e+00 -4.7369245906e+00 2.7348646875e+00 4.7369245906e+00 
171400 4.7628936839e+00 -2.0269693567e-03 2.7349017844e+00 -4.7369888444e+00 2.7349017844e+00 4.7369888444e+00 
171500 4.7628936103e+00 -2.0248438606e-03 2.7349388420e+00 -4.7370530299e+00 2.7349388420e+00 4.7370530299e+00 
171600 4.7628935368e+00 -2.0227204771e-03 2.7349758601e+00 -4.7371171472e+00 2.7349758601e+00 4.7371171472e+00 
171700 4.7628934635e+00 -2.0205992044e-03 2.7350128390e+00 -4.7371811965e+00 2.7350128390e+00 4.7371811965e+00 
171800 4.7628933903e+00 -2.0184800407e-03 2.7350497785e+00 -4.7372451777e+00 2.7350497785e+00 4.7372451777e+00 
171900 4.7628933173e+00 -2.0163629842e-03 2.7350866789e+00 -4.7373090909e+00 2.7350866789e+00 4.7373090909e+00 
172000 4.7628932445e+00 -2.0142480332e-03 2.7351235400e+00 -4.7373729363e+00 2.7351235400e+00 4.7373729363e+00 
172100 4.7628931718e+00 -2.0121351858e-03 2.7351603620e+00 -4.7374367138e+00 2.7351603620e+00 4.7374367138e+00 
172200 4.7628930993e+00 -2.0100244402e-03 2.7351971448e+00 -4.7375004235e+00 2.7351971448e+00 4.7375004235e+00 
172300 4.7628930269e+00 -2.0079157948e-03 2.7352338886e+00 -4.7375640656e+00 2.7352338886e+00 4.7375640656e+00 
172400 4.7628929547e+00 -2.0058092476e-03 2.7352705933e+00 -4.7376276401e+00 2.7352705933e+00 4.7376276401e+00 
172500 4.7628928826e+00 -2.0037047968e-03 2.7353072590e+00 -4.7376911470e+00 2.7353072590e+00 4.7376911470e+00 
172600 4.7628928107e+00 -2.0016024408e-03 2.7353438858e+00 -4.7377545864e+00 2.7353438858e+00 4.7377545864e+00 
172700 4.7628927389e+00 -1.9995021777e-03 2.7353804736e+00 -4.7378179584e+00 2.7353804736e+00 4.7378179584e+00 
172800 4.7628926673e+00 -1.9974040058e-03 2.7354170226e+00 -4.7378812631e+00 2.7354170226e+00 4.7378812631e+00 
172900 4.7628925959e+00 -1.9953079232e-03 2.7354535327e+00 -4.7379445005e+00 2.7354535327e+00 4.7379445005e+00 
173000 4.7628925246e+00 -1.9932139282e-03 2.7354900041e+00 -4.7380076706e+00 2.7354900041e+00 4.7380076706e+00 
173100 4.7628924534e+00 -1.9911220190e-03 2.7355264366e+00 -4.7380707737e+00 2.7355264366e+00 4.7380707737e+00 
173200 4.7628923824e+00 -1.9890321938e-03 2.7355628305e+00 -4.7381338097e+00 2.7355628305e+00 4.7381338097e+00 
173300 4.7628923116e+00 -1.9869444509e-03 2.7355991856e+00 -4.7381967787e+00 2.7355991856e+00 4.7381967787e+00 
173400 4.7628922409e+00 -1.9848587884e-03 2.7356355022e+00 -4.7382596807e+00 2.7356355022e+00 4.7382596807e+00 
173500 4.7628921704e+00 -1.9827752046e-03 2.7356717801e+00 -4.7383225159e+00 2.7356717801e+00 4.7383225159e+00 
173600 4.7628921000e+00 -1.9806936978e-03 2.7357080194e+00 -4.7383852843e+00 2.7357080194e+00 4.7383852843e+00 
173700 4.7628920298e+00 -1.9786142661e-03 2.7357442203e+00 -4.7384479860e+00 2.7357442203e+00 4.7384479860e+00 
173800 4.7628919597e+00 -1.9765369078e-03 2.7357803826e+00 -4.7385106210e+00 2.7357803826e+00 4.7385106210e+00 
173900 4.7628918898e+00 -1.9744616211e-03 2.7358165065e+00 -4.7385731895e+00 2.7358165065e+00 4.7385731895e+00 
174000 4.7628918200e+00 -1.9723884043e-03 2.7358525920e+00 -4.7386356914e+00 2.7358525920e+00 4.7386356914e+00 
174100 4.7628917504e+00 -1.9703172555e-03 2.7358886391e+00 -4.7386981268e+00 2.7358886391e+00 4.7386981268e+00 
174200 4.7628916809e+00 -1.9682481731e-03 2.7359246479e+00 -4.7387604959e+00 2.7359246479e+00 4.7387604959e+00 
174300 4.7628916116e+00 -1.9661811552e-03 2.7359606185e+00 -4.7388227987e+00 2.7359606185e+00 4.7388227987e+00 
174400 4.7628915424e+00 -1.9641162001e-03 2.7359965507e+00 -4.7388850352e+00 2.7359965507e+00 4.7388850352e+00 
174500 4.7628914734e+00 -1.9620533060e-03 2.7360324448e+00 -4.7389472055e+00 2.7360324448e+00 4.7389472055e+00 
174600 4.7628914045e+00 -1.9599924712e-03 2.7360683007e+00 -4.7390093098e+00 2.7360683007e+00 4.7390093098e+00 
174700 4.7628913358e+00 -1.9579336939e-03 2.7361041184e+00 -4.7390713479e+00 2.7361041184e+00 4.7390713479e+00 
174800 4.7628912672e+00 -1.9558769723e-03 2.7361398981e+00 -4.7391333201e+00 2.7361398981e+00 4.7391333201e+00 
174900 4.7628911987e+00 -1.9538223047e-03 2.7361756397e+00 -4.7391952264e+00 2.7361756397e+00 4.7391952264e+00 
175000 4.7628911305e+00 -1.9517696893e-03 2.7362113433e+00 -4.7392570669e+00 2.7362113433e+00 4.7392570669e+00 
175100 4.7628910623e+00 -1.9497191244e-03 2.7362470090e+00 -4.7393188416e+00 2.7362470090e+00 4.7393188416e+00 
175200 4.7628909943e+00 -1.9476706082e-03 2.7362826366e+00 -4.7393805505e+00 2.7362826366e+00 4.7393805505e+00 
175300 4.7628909265e+00 -1.9456241390e-03 2.7363182264e+00 -4.7394421939e+00 2.7363182264e+00 4.7394421939e+00 
175400 4.7628908588e+00 -1.9435797150e-03 2.7363537784e+00 -4.7395037716e+00 2.7363537784e+00 4.7395037716e+00 
175500 4.7628907912e+00 -1.9415373344e-03 2.7363892925e+00 -4.7395652839e+00 2.7363892925e+00 4.7395652839e+00 
175600 4.7628907238e+00 -1.9394969956e-03 2.7364247688e+00 -4.7396267307e+00 2.7364247688e+00 4.7396267307e+00 
175700 4.7628906565e+00 -1.9374586967e-03 2.7364602074e+00 -4.7396881122e+00 2.7364602074e+00 4.7396881122e+00 
175800 4.7628905894e+00 -1.9354224360e-03 2.7364956083e+00 -4.7397494283e+00 2.7364956083e+00 4.7397494283e+00 
175900 4.7628905224e+00 -1.9333882118e-03 2.7365309716e+00 -4.7398106792e+00 2.7365309716e+00 4.7398106792e+00 
176000 4.7628904556e+00 -1.9313560223e-03 2.7365662972e+00 -4.7398718650e+00 2.7365662972e+00 4.7398718650e+00 
176100 4.7628903889e+00 -1.9293258658e-03 2.7366015852e+00 -4.7399329856e+00 2.7366015852e+00 4.7399329856e+00 
176200 4.7628903224e+00 -1.9272977404e-03 2.7366368357e+00 -4.7399940412e+00 2.7366368357e+00 4.7399940412e+00 
176300 4.7628902560e+00 -1.9252716446e-03 2.7366720486e+00 -4.7400550319e+00 2.7366720486e+00 4.7400550319e+00 
176400 4.7628901897e+00 -1.9232475765e-03 2.7367072241e+00 -4.7401159576e+00 2.7367072241e+00 4.7401159576e+00 
176500 4.7628901236e+00 -1.9212255344e-03 2.7367423622e+00 -4.7401768185e+00 2.7367423622e+00 4.7401768185e+00 
176600 4.7628900576e+00 -1.9192055166e-03 2.7367774629e+00 -4.7402376147e+00 2.7367774629e+00 4.7402376147e+00 
176700 4.7628899918e+00 -1.9171875213e-03 2.7368125262e+00 -4.7402983461e+00 2.7368125262e+00 4.7402983461e+00 
176800 4.7628899261e+00 -1.9151715467e-03 2.7368475522e+00 -4.7403590129e+00 2.7368475522e+00 4.7403590129e+00 
176900 4.7628898606e+00 -1.9131575913e-03 2.7368825409e+00 -4.7404196151e+00 2.7368825409e+00 4.7404196151e+00 
177000 4.7628897952e+00 -1.9111456531e-03 2.7369174924e+00 -4.7404801529e+00 2.7369174924e+00 4.7404801529e+00 
177100 4.7628897299e+00 -1.9091357305e-03 2.7369524066e+00 -4.7405406262e+00 2.7369524066e+00 4.7405406262e+00 
177200 4.7628896648e+00 -1.9071278217e-03 2.7369872837e+00 -4.7406010351e+00 2.7369872837e+00 4.7406010351e+00 
177300 4.7628895998e+00 -1.9051219250e-03 2.7370221237e+00 -4.7406613797e+00 2.7370221237e+00 4.7406613797e+00 
177400 4.7628895349e+00 -1.9031180387e-03 2.7370569266e+00 -4.7407216601e+00 2.7370569266e+00 4.7407216601e+00 
177500 4.7628894702e+00 -1.9011161611e-03 2.7370916925e+00 -4.7407818763e+00 2.7370916925e+00 4.7407818763e+00 
177600 4.7628894057e+00 -1.8991162903e-03 2.7371264213e+00 -4.7408420284e+00 2.7371264213e+00 4.7408420284e+00 
177700 4.7628893412e+00 -1.8971184248e-03 2.7371611132e+00 -4.7409021165e+00 2.7371611132e+00 4.7409021165e+00 
177800 4.7628892770e+00 -1.8951225627e-03 2.7371957681e+00 -4.7409621406e+00 2.7371957681e+00 4.7409621406e+00 
177900 4.7628892128e+00 -1.8931287023e-03 2.7372303861e+00 -4.7410221008e+00 2.7372303861e+00 4.7410221008e+00 
178000 4.7628891488e+00 -1.8911368420e-03 2.7372649673e+00 -4.7410819971e+00 2.7372649673e+00 4.7410819971e+00 
178100 4.7628890849e+00 -1.8891469799e-03 2.7372995116e+00 -4.7411418297e+00 2.7372995116e+00 4.7411418297e+00 
178200 4.7628890212e+00 -1.8871591144e-03 2.7373340192e+00 -4.7412015986e+00 2.7373340192e+00 4.7412015986e+00 
178300 4.7628889576e+00 -1.8851732437e-03 2.7373684900e+00 -4.7412613038e+00 2.7373684900e+00 4.7412613038e+00 
178400 4.7628888941e+00 -1.8831893661e-03 2.7374029241e+00 -4.7413209454e+00 2.7374029241e+00 4.7413209454e+00 
178500 4.7628888308e+00 -1.8812074799e-03 2.7374373216e+00 -4.7413805235e+00 2.7374373216e+00 4.7413805235e+00 
178600 4.7628887676e+00 -1.8792275833e-03 2.7374716824e+00 -4.7414400382e+00 2.7374716824e+00 4.7414400382e+00 
178700 4.7628887046e+00 -1.8772496748e-03 2.7375060066e+00 -4.7414994895e+00 2.7375060066e+00 4.7414994895e+00 
178800 4.7628886416e+00 -1.8752737524e-03 2.7375402943e+00 -4.7415588775e+00 2.7375402943e+00 4.7415588775e+00 
178900 4.7628885789e+00 -1.8732998146e-03 2.7375745454e+00 -4.7416182022e+00 2.7375745454e+00 4.7416182022e+00 
179000 4.7628885162e+00 -1.8713278595e-03 2.7376087601e+00 -4.7416774637e+00 2.7376087601e+00 4.7416774637e+00 
179100 4.7628884537e+00 -1.8693578856e-03 2.7376429383e+00 -4.7417366621e+00 2.7376429383e+00 4.7417366621e+00 
179200 4.7628883913e+00 -1.8673898910e-03 2.7376770801e+00 -4.7417957975e+00 2.7376770801e+00 4.7417957975e+00 
179300 4.7628883291e+00 -1.8654238741e-03 2.7377111856e+00 -4.7418548698e+00 2.7377111856e+00 4.7418548698e+00 
179400 4.7628882670e+00 -1.8634598331e-03 2.7377452547e+00 -4.7419138793e+00 2.7377452547e+00 4.7419138793e+00 
179500 4.7628882050e+00 -1.8614977664e-03 2.7377792875e+00 -4.7419728258e+00 2.7377792875e+00 4.7419728258e+00 
179600 4.7628881432e+00 -1.8595376721e-03 2.7378132841e+00 -4.7420317096e+00 2.7378132841e+00 4.7420317096e+00 
179700 4.7628880815e+00 -1.8575795487e-03 2.7378472444e+00 -4.7420905307e+00 2.7378472444e+00 4.7420905307e+00 
179800 4.7628880199e+00 -1.8556233944e-03 2.7378811686e+00 -4.7421492890e+00 2.7378811686e+00 4.7421492890e+00 
179900 4.7628879585e+00 -1.8536692075e-03 2.7379150566e+00 -4.7422079848e+00 2.7379150566e+00 4.7422079848e+00 
180000 4.7628878971e+00 -1.8517169863e-03 2.7379489085e+00 -4.7422666180e+00 2.7379489085e+00 4.7422666180e+00 
180100 4.7628878360e+00 -1.8497667290e-03 2.7379827243e+00 -4.7423251888e+00 2.7379827243e+00 4.7423251888e+00 
180200 4.7628877749e+00 -1.8478184341e-03 2.7380165041e+00 -4.7423836971e+00 2.7380165041e+00 4.7423836971e+00 
180300 4.7628877140e+00 -1.8458720997e-03 2.7380502479e+00 -4.7424421431e+00 2.7380502479e+00 4.7424421431e+00 
180400 4.7628876532e+00 -1.8439277242e-03 2.7380839558e+00 -4.7425005268e+00 2.7380839558e+00 4.7425005268e+00 
180500 4.7628875926e+00 -1.8419853059e-03 2.7381176277e+00 -4.7425588483e+00 2.7381176277e+00 4.7425588483e+00 
180600 4.7628875321e+00 -1.8400448431e-03 2.7381512638e+00 -4.7426171077e+00 2.7381512638e+00 4.7426171077e+00 
180700 4.7628874717e+00 -1.8381063340e-03 2.7381848640e+00 -4.7426753049e+00 2.7381848640e+00 4.7426753049e+00 
180800 4.7628874114e+00 -1.8361697770e-03 2.7382184284e+00 -4.7427334401e+00 2.7382184284e+00 4.7427334401e+00 
180900 4.7628873513e+00 -1.8342351704e-03 2.7382519570e+00 -4.7427915134e+00 2.7382519570e+00 4.7427915134e+00 
181000 4.7628872913e+00 -1.8323025124e-03 2.7382854499e+00 -4.7428495248e+00 2.7382854499e+00 4.7428495248e+00 
181100 4.7628872314e+00 -1.8303718014e-03 2.7383189070e+00 -4.7429074743e+00 2.7383189070e+00 4.7429074743e+00 
181200 4.7628871717e+00 -1.8284430358e-03 2.7383523286e+00 -4.7429653621e+00 2.7383523286e+00 4.7429653621e+00 
181300 4.7628871121e+00 -1.8265162137e-03 2.7383857144e+00 -4.7430231881e+00 2.7383857144e+00 4.7430231881e+00 
181400 4.7628870526e+00 -1.8245913335e-03 2.7384190648e+00 -4.7430809526e+00 2.7384190648e+00 4.7430809526e+00 
181500 4.7628869932e+00 -1.8226683936e-03 2.7384523795e+00 -4.7431386554e+00 2.7384523795e+00 4.7431386554e+00 
181600 4.7628869340e+00 -1.8207473921e-03 2.7384856587e+00 -4.7431962967e+00 2.7384856587e+00 4.7431962967e+00 
181700 4.7628868749e+00 -1.8188283275e-03 2.7385189025e+00 -4.7432538766e+00 2.7385189025e+00 4.7432538766e+00 
181800 4.7628868159e+00 -1.8169111980e-03 2.7385521108e+00 -4.7433113951e+00 2.7385521108e+00 4.7433113951e+00 
181900 4.7628867571e+00 -1.8149960020e-03 2.7385852837e+00 -4.7433688523e+00 2.7385852837e+00 4.7433688523e+00 
182000 4.7628866983e+00 -1.8130827377e-03 2.7386184213e+00 -4.7434262482e+00 2.7386184213e+00 4.7434262482e+00 
182100 4.7628866398e+00 -1.8111714035e-03 2.7386515235e+00 -4.7434835829e+00 2.7386515235e+00 4.7434835829e+00 
182200 4.7628865813e+00 -1.8092619978e-03 2.7386845904e+00 -4.7435408565e+00 2.7386845904e+00 4.7435408565e+00 
182300 4.7628865229e+00 -1.8073545187e-03 2.7387176220e+00 -4.7435980690e+00 2.7387176220e+00 4.7435980690e+00 
182400 4.7628864647e+00 -1.8054489646e-03 2.7387506185e+00 -4.7436552205e+00 2.7387506185e+00 4.7436552205e+00 
182500 4.7628864066e+00 -1.8035453339e-03 2.7387835797e+00 -4.7437123110e+00 2.7387835797e+00 4.7437123110e+00 
182600 4.7628863487e+00 -1.8016436248e-03 2.7388165058e+00 -4.7437693407e+00 2.7388165058e+00 4.7437693407e+00 
182700 4.7628862908e+00 -1.7997438357e-03 2.7388493968e+00 -4.7438263095e+00 2.7388493968e+00 4.7438263095e+00 
182800 4.7628862331e+00 -1.7978459649e-03 2.7388822527e+00 -4.7438832176e+00 2.7388822527e+00 4.7438832176e+00 
182900 4.7628861755e+00 -1.7959500107e-03 2.7389150736e+00 -4.7439400650e+00 2.7389150736e+00 4.7439400650e+00 
183000 4.7628861181e+00 -1.7940559715e-03 2.7389478594e+00 -4.7439968518e+00 2.7389478594e+00 4.7439968518e+00 
183100 4.7628860607e+00 -1.7921638455e-03 2.7389806103e+00 -4.7440535780e+00 2.7389806103e+00 4.7440535780e+00 
183200 4.7628860035e+00 -1.7902736311e-03 2.7390133263e+00 -4.7441102437e+00 2.7390133263e+00 4.7441102437e+00 
183300 4.7628859464e+00 -1.7883853266e-03 2.7390460073e+00 -4.7441668489e+00 2.7390460073e+00 4.7441668489e+00 
183400 4.7628858894e+00 -1.7864989303e-03 2.7390786535e+00 -4.7442233938e+00 2.7390786535e+00 4.7442233938e+00 
183500 4.7628858326e+00 -1.7846144406e-03 2.7391112649e+00 -4.7442798784e+00 2.7391112649e+00 4.7442798784e+00 
183600 4.7628857759e+00 -1.7827318558e-03 2.7391438415e+00 -4.7443363027e+00 2.7391438415e+00 4.7443363027e+00 
183700 4.7628857193e+00 -1.7808511742e-03 2.7391763833e+00 -4.7443926668e+00 2.7391763833e+00 4.7443926668e+00 
183800 4.7628856628e+00 -1.7789723942e-03 2.7392088904e+00 -4.7444489708e+00 2.7392088904e+00 4.7444489708e+00 
183900 4.7628856064e+00 -1.7770955140e-03 2.7392413629e+00 -4.7445052147e+00 2.7392413629e+00 4.7445052147e+00 
184000 4.7628855502e+00 -1.7752205320e-03 2.7392738007e+00 -4.7445613986e+00 2.7392738007e+00 4.7445613986e+00 
184100 4.7628854941e+00 -1.7733474466e-03 2.7393062039e+00 -4.7446175226e+00 2.7393062039e+00 4.7446175226e+00 
184200 4.7628854381e+00 -1.7714762561e-03 2.7393385725e+00 -4.7446735867e+00 2.7393385725e+00 4.7446735867e+00 
184300 4.7628853822e+00 -1.7696069587e-03 2.7393709066e+00 -4.7447295909e+00 2.7393709066e+00 4.7447295909e+00 
184400 4.7628853264e+00 -1.7677395529e-03 2.7394032061e+00 -4.7447855354e+00 2.7394032061e+00 4.7447855354e+00 
184500 4.7628852708e+00 -1.7658740369e-03 2.7394354712e+00 -4.7448414203e+00 2.7394354712e+00 4.7448414203e+00 
184600 4.7628852153e+00 -1.7640104092e-03 2.7394677019e+00 -4.7448972454e+00 2.7394677019e+00 4.7448972454e+00 
184700 4.7628851599e+00 -1.7621486680e-03 2.7394998982e+00 -4.7449530110e+00 2.7394998982e+00 4.7449530110e+00 
184800 4.7628851046e+00 -1.7602888117e-03 2.7395320601e+00 -4.7450087171e+00 2.7395320601e+00 4.7450087171e+00 
184900 4.7628850495e+00 -1.7584308386e-03 2.7395641878e+00 -4.7450643638e+00 2.7395641878e+00 4.7450643638e+00 
185000 4.7628849944e+00 -1.7565747471e-03 2.7395962811e+00 -4.7451199511e+00 2.7395962811e+00 4.7451199511e+00 
185100 4.7628849395e+00 -1.7547205355e-03 2.7396283401e+00 -4.7451754790e+00 2.7396283401e+00 4.7451754790e+00 
185200 4.7628848847e+00 -1.7528682021e-03 2.7396603650e+00 -4.7452309477e+00 2.7396603650e+00 4.7452309477e+00 
185300 4.7628848300e+00 -1.7510177454e-03 2.7396923557e+00 -4.7452863571e+00 2.7396923557e+00 4.7452863571e+00 
185400 4.7628847755e+00 -1.7491691635e-03 2.7397243122e+00 -4.7453417075e+00 2.7397243122e+00 4.7453417075e+00 
185500 4.7628847210e+00 -1.7473224550e-03 2.7397562346e+00 -4.7453969987e+00 2.7397562346e+00 4.7453969987e+00 
185600 4.7628846667e+00 -1.7454776180e-03 2.7397881230e+00 -4.7454522310e+00 2.7397881230e+00 4.7454522310e+00 
185700 4.7628846125e+00 -1.7436346510e-03 2.7398199773e+00 -4.7455074042e+00 2.7398199773e+00 4.7455074042e+00 
185800 4.7628845584e+00 -1.7417935524e-03 2.7398517976e+00 -4.7455625186e+00 2.7398517976e+00 4.7455625186e+00 
185900 4.7628845044e+00 -1.7399543204e-03 2.7398835839e+00 -4.7456175742e+00 2.7398835839e+00 4.7456175742e+00 
186000 4.7628844505e+00 -1.7381169534e-03 2.7399153363e+00 -4.7456725709e+00 2.7399153363e+00 4.7456725709e+00 
186100 4.7628843968e+00 -1.7362814498e-03 2.7399470548e+00 -4.7457275090e+00 2.7399470548e+00 4.7457275090e+00 
186200 4.7628843432e+00 -1.7344478078e-03 2.7399787395e+00 -4.7457823884e+00 2.7399787395e+00 4.7457823884e+00 
186300 4.7628842896e+00 -1.7326160260e-03 2.7400103903e+00 -4.7458372092e+00 2.7400103903e+00 4.7458372092e+00 
186400 4.7628842362e+00 -1.7307861026e-03 2.7400420073e+00 -4.7458919715e+00 2.7400420073e+00 4.7458919715e+00 
186500 4.7628841830e+00 -1.7289580359e-03 2.7400735906e+00 -4.7459466753e+00 2.7400735906e+00 4.7459466753e+00 
186600 4.7628841298e+00 -1.7271318243e-03 2.7401051401e+00 -4.7460013207e+00 2.7401051401e+00 4.7460013207e+00 
186700 4.7628840767e+00 -1.7253074663e-03 2.7401366560e+00 -4.7460559078e+00 2.7401366560e+00 4.7460559078e+00 
186800 4.7628840238e+00 -1.7234849601e-03 2.7401681382e+00 -4.7461104366e+00 2.7401681382e+00 4.7461104366e+00 
186900 4.7628839710e+00 -1.7216643040e-03 2.7401995867e+00 -4.7461649071e+00 2.7401995867e+00 4.7461649071e+00 
187000 4.7628839183e+00 -1.7198454965e-03 2.7402310017e+00 -4.7462193195e+00 2.7402310017e+00 4.7462193195e+00 
187100 4.7628838657e+00 -1.7180285360e-03 2.7402623832e+00 -4.7462736738e+00 2.7402623832e+00 4.7462736738e+00 
187200 4.7628838132e+00 -1.7162134206e-03 2.7402937311e+00 -4.7463279700e+00 2.7402937311e+00 4.7463279700e+00 
187300 4.7628837608e+00 -1.7144001490e-03 2.7403250456e+00 -4.7463822083e+00 2.7403250456e+00 4.7463822083e+00 
187400 4.7628837085e+00 -1.7125887193e-03 2.7403563266e+00 -4.7464363886e+00 2.7403563266e+00 4.7464363886e+00 
187500 4.7628836564e+00 -1.7107791299e-03 2.7403875743e+00 -4.7464905110e+00 2.7403875743e+00 4.7464905110e+00 
187600 4.7628836044e+00 -1.7089713793e-03 2.7404187885e+00 -4.7465445757e+00 2.7404187885e+00 4.7465445757e+00 
187700 4.7628835524e+00 -1.7071654658e-03 2.7404499694e+00 -4.7465985826e+00 2.7404499694e+00 4.7465985826e+00 
187800 4.7628835006e+00 -1.7053613876e-03 2.7404811170e+00 -4.7466525318e+00 2.7404811170e+00 4.7466525318e+00 
187900 4.7628834489e+00 -1.7035591434e-03 2.7405122313e+00 -4.7467064234e+00 2.7405122313e+00 4.7467064234e+00 
188000 4.7628833974e+00 -1.7017587312e-03 2.7405433124e+00 -4.7467602574e+00 2.7405433124e+00 4.7467602574e+00 
188100 4.7628833459e+00 -1.6999601497e-03 2.7405743603e+00 -4.7468140340e+00 2.7405743603e+00 4.7468140340e+00 
188200 4.7628832945e+00 -1.6981633970e-03 2.7406053750e+00 -4.7468677531e+00 2.7406053750e+00 4.7468677531e+00 
188300 4.7628832433e+00 -1.6963684716e-03 2.7406363566e+00 -4.7469214148e+00 2.7406363566e+00 4.7469214148e+00 
188400 4.7628831921e+00 -1.6945753719e-03 2.7406673051e+00 -4.7469750191e+00 2.7406673051e+00 4.7469750191e+00 
188500 4.7628831411e+00 -1.6927840962e-03 2.7406982206e+00 -4.7470285662e+00 2.7406982206e+00 4.7470285662e+00 
188600 4.7628830902e+00 -1.6909946429e-03 2.7407291030e+00 -4.7470820561e+00 2.7407291030e+00 4.7470820561e+00 
188700 4.7628830394e+00 -1.6892070103e-03 2.7407599524e+00 -4.7471354889e+00 2.7407599524e+00 4.7471354889e+00 
188800 4.7628829887e+00 -1.6874211969e-03 2.7407907689e+00 -4.7471888646e+00 2.7407907689e+00 4.7471888646e+00 
188900 4.7628829381e+00 -1.6856372010e-03 2.7408215524e+00 -4.7472421832e+00 2.7408215524e+00 4.7472421832e+00 
189000 4.7628828876e+00 -1.6838550210e-03 2.7408523030e+00 -4.7472954449e+00 2.7408523030e+00 4.7472954449e+00 
189100 4.7628828372e+00 -1.6820746553e-03 2.7408830208e+00 -4.7473486496e+00 2.7408830208e+00 4.7473486496e+00 
189200 4.7628827869e+00 -1.6802961022e-03 2.7409137058e+00 -4.7474017976e+00 2.7409137058e+00 4.7474017976e+00 
189300 4.7628827368e+00 -1.6785193602e-03 2.7409443579e+00 -4.7474548887e+00 2.7409443579e+00 4.7474548887e+00 
189400 4.7628826867e+00 -1.6767444275e-03 2.7409749774e+00 -4.7475079231e+00 2.7409749774e+00 4.7475079231e+00 
189500 4.7628826368e+00 -1.6749713026e-03 2.7410055641e+00 -4.7475609008e+00 2.7410055641e+00 4.7475609008e+00 
189600 4.7628825870e+00 -1.6731999839e-03 2.7410361181e+00 -4.7476138219e+00 2.7410361181e+00 4.7476138219e+00 
189700 4.7628825372e+00 -1.6714304698e-03 2.7410666394e+00 -4.7476666864e+00 2.7410666394e+00 4.7476666864e+00 
189800 4.7628824876e+00 -1.6696627585e-03 2.7410971282e+00 -4.7477194945e+00 2.7410971282e+00 4.7477194945e+00 
189900 4.7628824381e+00 -1.6678968486e-03 2.7411275843e+00 -4.7477722461e+00 2.7411275843e+00 4.7477722461e+00 
190000 4.7628823887e+00 -1.6661327384e-03 2.7411580079e+00 -4.7478249413e+00 2.7411580079e+00 4.7478249413e+00 
190100 4.7628823394e+00 -1.6643704262e-03 2.7411883990e+00 -4.7478775803e+00 2.7411883990e+00 4.7478775803e+00 
190200 4.7628822902e+00 -1.6626099106e-03 2.7412187577e+00 -4.7479301629e+00 2.7412187577e+00 4.7479301629e+00 
190300 4.7628822411e+00 -1.6608511897e-03 2.7412490838e+00 -4.7479826894e+00 2.7412490838e+00 4.7479826894e+00 
190400 4.7628821921e+00 -1.6590942622e-03 2.7412793776e+00 -4.7480351597e+00 2.7412793776e+00 4.7480351597e+00 
190500 4.7628821433e+00 -1.6573391262e-03 2.7413096389e+00 -4.7480875739e+00 2.7413096389e+00 4.7480875739e+00 
190600 4.7628820945e+00 -1.6555857803e-03 2.7413398680e+00 -4.7481399321e+00 2.7413398680e+00 4.7481399321e+00 
190700 4.7628820458e+00 -1.6538342228e-03 2.7413700647e+00 -4.7481922344e+00 2.7413700647e+00 4.7481922344e+00 
190800 4.7628819973e+00 -1.6520844521e-03 2.7414002291e+00 -4.7482444807e+00 2.7414002291e+00 4.7482444807e+00 
190900 4.7628819488e+00 -1.6503364665e-03 2.7414303613e+00 -4.7482966711e+00 2.7414303613e+00 4.7482966711e+00 
191000 4.7628819005e+00 -1.6485902646e-03 2.7414604612e+00 -4.7483488058e+00 2.7414604612e+00 4.7483488058e+00 
191100 4.7628818522e+00 -1.6468458447e-03 2.7414905290e+00 -4.7484008848e+00 2.7414905290e+00 4.7484008848e+00 
191200 4.7628818041e+00 -1.6451032051e-03 2.7415205647e+00 -4.7484529080e+00 2.7415205647e+00 4.7484529080e+00 
191300 4.7628817560e+00 -1.6433623443e-03 2.7415505682e+00 -4.7485048757e+00 2.7415505682e+00 4.7485048757e+00 
191400 4.7628817081e+00 -1.6416232607e-03 2.7415805397e+00 -4.7485567878e+00 2.7415805397e+00 4.7485567878e+00 
191500 4.7628816603e+00 -1.6398859526e-03 2.7416104791e+00 -4.7486086444e+00 2.7416104791e+00 4.7486086444e+00 
191600 4.7628816126e+00 -1.6381504186e-03 2.7416403865e+00 -4.7486604455e+00 2.7416403865e+00 4.7486604455e+00 
191700 4.7628815649e+00 -1.6364166569e-03 2.7416702619e+00 -4.7487121912e+00 2.7416702619e+00 4.7487121912e+00 
191800 4.7628815174e+00 -1.6346846659e-03 2.7417001054e+00 -4.7487638817e+00 2.7417001054e+00 4.7487638817e+00 
191900 4.7628814700e+00 -1.6329544441e-03 2.7417299170e+00 -4.7488155168e+00 2.7417299170e+00 4.7488155168e+00 
192000 4.7628814227e+00 -1.6312259899e-03 2.7417596967e+00 -4.7488670968e+00 2.7417596967e+00 4.7488670968e+00 
192100 4.7628813755e+00 -1.6294993017e-03 2.7417894445e+00 -4.7489186215e+00 2.7417894445e+00 4.7489186215e+00 
192200 4.7628813283e+00 -1.6277743778e-03 2.7418191605e+00 -4.7489700912e+00 2.7418191605e+00 4.7489700912e+00 
192300 4.7628812813e+00 -1.6260512168e-03 2.7418488448e+00 -4.7490215059e+00 2.7418488448e+00 4.7490215059e+00 
192400 4.7628812344e+00 -1.6243298169e-03 2.7418784973e+00 -4.7490728655e+00 2.7418784973e+00 4.7490728655e+00 
192500 4.7628811876e+00 -1.6226101766e-03 2.7419081181e+00 -4.7491241703e+00 2.7419081181e+00 4.7491241703e+00 
192600 4.7628811409e+00 -1.6208922943e-03 2.7419377072e+00 -4.7491754201e+00 2.7419377072e+00 4.7491754201e+00 
192700 4.7628810943e+00 -1.6191761684e-03 2.7419672647e+00 -4.7492266152e+00 2.7419672647e+00 4.7492266152e+00 
192800 4.7628810478e+00 -1.6174617974e-03 2.7419967906e+00 -4.7492777555e+00 2.7419967906e+00 4.7492777555e+00 
192900 4.7628810014e+00 -1.6157491795e-03 2.7420262849e+00 -4.7493288411e+00 2.7420262849e+00 4.7493288411e+00 
193000 4.7628809551e+00 -1.6140383134e-03 2.7420557476e+00 -4.7493798720e+00 2.7420557476e+00 4.7493798720e+00 
193100 4.7628809089e+00 -1.6123291972e-03 2.7420851788e+00 -4.7494308484e+00 2.7420851788e+00 4.7494308484e+00 
193200 4.7628808628e+00 -1.6106218296e-03 2.7421145786e+00 -4.7494817703e+00 2.7421145786e+00 4.7494817703e+00 
193300 4.7628808168e+00 -1.6089162088e-03 2.7421439469e+00 -4.7495326376e+00 2.7421439469e+00 4.7495326376e+00 
193400 4.7628807709e+00 -1.6072123333e-03 2.7421732838e+00 -4.7495834506e+00 2.7421732838e+00 4.7495834506e+00 
193500 4.7628807251e+00 -1.6055102015e-03 2.7422025893e+00 -4.7496342092e+00 2.7422025893e+00 4.7496342092e+00 
193600 4.7628806794e+00 -1.6038098119e-03 2.7422318634e+00 -4.7496849135e+00 2.7422318634e+00 4.7496849135e+00 
193700 4.7628806337e+00 -1.6021111628e-03 2.7422611062e+00 -4.7497355636e+00 2.7422611062e+00 4.7497355636e+00 
193800 4.7628805882e+00 -1.6004142526e-03 2.7422903178e+00 -4.7497861595e+00 2.7422903178e+00 4.7497861595e+00 
193900 4.7628805428e+00 -1.5987190799e-03 2.7423194981e+00 -4.7498367013e+00 2.7423194981e+00 4.7498367013e+00 
194000 4.7628804975e+00 -1.5970256429e-03 2.7423486472e+00 -4.7498871890e+00 2.7423486472e+00 4.7498871890e+00 
194100 4.7628804523e+00 -1.5953339402e-03 2.7423777651e+00 -4.7499376226e+00 2.7423777651e+00 4.7499376226e+00 
194200 4.7628804072e+00 -1.5936439701e-03 2.7424068518e+00 -4.7499880024e+00 2.7424068518e+00 4.7499880024e+00 
194300 4.7628803621e+00 -1.5919557311e-03 2.7424359074e+00 -4.7500383282e+00 2.7424359074e+00 4.7500383282e+00 
194400 4.7628803172e+00 -1.5902692215e-03 2.7424649320e+00 -4.7500886001e+00 2.7424649320e+00 4.7500886001e+00 
194500 4.7628802724e+00 -1.5885844399e-03 2.7424939254e+00 -4.7501388183e+00 2.7424939254e+00 4.7501388183e+00 
194600 4.7628802277e+00 -1.5869013846e-03 2.7425228879e+00 -4.7501889828e+00 2.7425228879e+00 4.7501889828e+00 
194700 4.7628801830e+00 -1.5852200541e-03 2.7425518194e+00 -4.7502390935e+00 2.7425518194e+00 4.7502390935e+00 
194800 4.7628801385e+00 -1.5835404468e-03 2.7425807199e+00 -4.7502891507e+00 2.7425807199e+00 4.7502891507e+00 
194900 4.7628800940e+00 -1.5818625611e-03 2.7426095895e+00 -4.7503391543e+00 2.7426095895e+00 4.7503391543e+00 
195000 4.7628800497e+00 -1.5801863955e-03 2.7426384282e+00 -4.7503891043e+00 2.7426384282e+00 4.7503891043e+00 
195100 4.7628800054e+00 -1.5785119483e-03 2.7426672360e+00 -4.7504390010e+00 2.7426672360e+00 4.7504390010e+00 
195200 4.7628799613e+00 -1.5768392180e-03 2.7426960130e+00 -4.7504888442e+00 2.7426960130e+00 4.7504888442e+00 
195300 4.7628799172e+00 -1.5751682031e-03 2.7427247592e+00 -4.7505386341e+00 2.7427247592e+00 4.7505386341e+00 
195400 4.7628798733e+00 -1.5734989020e-03 2.7427534746e+00 -4.7505883707e+00 2.7427534746e+00 4.7505883707e+00 
195500 4.7628798294e+00 -1.5718313131e-03 2.7427821593e+00 -4.7506380541e+00 2.7427821593e+00 4.7506380541e+00 
195600 4.7628797856e+00 -1.5701654348e-03 2.7428108133e+00 -4.7506876843e+00 2.7428108133e+00 4.7506876843e+00 
195700 4.7628797419e+00 -1.5685012656e-03 2.7428394367e+00 -4.7507372613e+00 2.7428394367e+00 4.7507372613e+00 
195800 4.7628796984e+00 -1.5668388039e-03 2.7428680294e+00 -4.7507867854e+00 2.7428680294e+00 4.7507867854e+00 
195900 4.7628796549e+00 -1.5651780482e-03 2.7428965915e+00 -4.7508362564e+00 2.7428965915e+00 4.7508362564e+00 
196000 4.7628796115e+00 -1.5635189968e-03 2.7429251230e+00 -4.7508856744e+00 2.7429251230e+00 4.7508856744e+00 
196100 4.7628795682e+00 -1.5618616483e-03 2.7429536240e+00 -4.7509350396e+00 2.7429536240e+00 4.7509350396e+00 
196200 4.7628795249e+00 -1.5602060011e-03 2.7429820945e+00 -4.7509843519e+00 2.7429820945e+00 4.7509843519e+00 
196300 4.7628794818e+00 -1.5585520535e-03 2.7430105345e+00 -4.7510336115e+00 2.7430105345e+00 4.7510336115e+00 
196400 4.7628794388e+00 -1.5568998042e-03 2.7430389441e+00 -4.7510828183e+00 2.7430389441e+00 4.7510828183e+00 
196500 4.7628793959e+00 -1.5552492514e-03 2.7430673232e+00 -4.7511319724e+00 2.7430673232e+00 4.7511319724e+00 
196600 4.7628793530e+00 -1.5536003936e-03 2.7430956720e+00 -4.7511810739e+00 2.7430956720e+00 4.7511810739e+00 
196700 4.7628793103e+00 -1.5519532293e-03 2.7431239904e+00 -4.7512301229e+00 2.7431239904e+00 4.7512301229e+00 
196800 4.7628792676e+00 -1.5503077570e-03 2.7431522785e+00 -4.7512791193e+00 2.7431522785e+00 4.7512791193e+00 
196900 4.7628792251e+00 -1.5486639750e-03 2.7431805364e+00 -4.7513280633e+00 2.7431805364e+00 4.7513280633e+00 
197000 4.7628791826e+00 -1.5470218819e-03 2.7432087639e+00 -4.7513769549e+00 2.7432087639e+00 4.7513769549e+00 
197100 4.7628791402e+00 -1.5453814760e-03 2.7432369613e+00 -4.7514257941e+00 2.7432369613e+00 4.7514257941e+00 
197200 4.7628790979e+00 -1.5437427558e-03 2.7432651285e+00 -4.7514745811e+00 2.7432651285e+00 4.7514745811e+00 
197300 4.7628790557e+00 -1.5421057198e-03 2.7432932655e+00 -4.7515233158e+00 2.7432932655e+00 4.7515233158e+00 
197400 4.7628790136e+00 -1.5404703664e-03 2.7433213723e+00 -4.7515719984e+00 2.7433213723e+00 4.7515719984e+00 
197500 4.7628789716e+00 -1.5388366941e-03 2.7433494491e+00 -4.7516206288e+00 2.7433494491e+00 4.7516206288e+00 
197600 4.7628789297e+00 -1.5372047013e-03 2.7433774959e+00 -4.7516692072e+00 2.7433774959e+00 4.7516692072e+00 
197700 4.7628788879e+00 -1.5355743864e-03 2.7434055125e+00 -4.7517177335e+00 2.7434055125e+00 4.7517177335e+00 
197800 4.7628788461e+00 -1.5339457480e-03 2.7434334992e+00 -4.7517662079e+00 2.7434334992e+00 4.7517662079e+00 
197900 4.7628788045e+00 -1.5323187845e-03 2.7434614560e+00 -4.7518146303e+00 2.7434614560e+00 4.7518146303e+00 
198000 4.7628787629e+00 -1.5306934943e-03 2.7434893828e+00 -4.7518630010e+00 2.7434893828e+00 4.7518630010e+00 
198100 4.7628787214e+00 -1.5290698760e-03 2.7435172796e+00 -4.7519113198e+00 2.7435172796e+00 4.7519113198e+00 
198200 4.7628786800e+00 -1.5274479278e-03 2.7435451466e+00 -4.7519595868e+00 2.7435451466e+00 4.7519595868e+00 
198300 4.7628786388e+00 -1.5258276484e-03 2.7435729838e+00 -4.7520078022e+00 2.7435729838e+00 4.7520078022e+00 
198400 4.7628785975e+00 -1.5242090362e-03 2.7436007912e+00 -4.7520559660e+00 2.7436007912e+00 4.7520559660e+00 
198500 4.7628785564e+00 -1.5225920896e-03 2.7436285687e+00 -4.7521040782e+00 2.7436285687e+00 4.7521040782e+00 
198600 4.7628785154e+00 -1.5209768071e-03 2.7436563166e+00 -4.7521521388e+00 2.7436563166e+00 4.7521521388e+00 
198700 4.7628784745e+00 -1.5193631871e-03 2.7436840347e+00 -4.7522001480e+00 2.7436840347e+00 4.7522001480e+00 
198800 4.7628784336e+00 -1.5177512282e-03 2.7437117231e+00 -4.7522481057e+00 2.7437117231e+00 4.7522481057e+00 
198900 4.7628783929e+00 -1.5161409287e-03 2.7437393819e+00 -4.7522960121e+00 2.7437393819e+00 4.7522960121e+00 
199000 4.7628783522e+00 -1.5145322872e-03 2.7437670110e+00 -4.7523438672e+00 2.7437670110e+00 4.7523438672e+00 
199100 4.7628783116e+00 -1.5129253021e-03 2.7437946106e+00 -4.7523916710e+00 2.7437946106e+00 4.7523916710e+00 
199200 4.7628782711e+00 -1.5113199719e-03 2.7438221806e+00 -4.7524394237e+00 2.7438221806e+00 4.7524394237e+00 
199300 4.7628782307e+00 -1.5097162951e-03 2.7438497210e+00 -4.7524871251e+00 2.7438497210e+00 4.7524871251e+00 
199400 4.7628781904e+00 -1.5081142700e-03 2.7438772320e+00 -4.7525347755e+00 2.7438772320e+00 4.7525347755e+00 
199500 4.7628781501e+00 -1.5065138953e-03 2.7439047135e+00 -4.7525823749e+00 2.7439047135e+00 4.7525823749e+00 
199600 4.7628781100e+00 -1.5049151693e-03 2.7439321655e+00 -4.7526299232e+00 2.7439321655e+00 4.7526299232e+00 
199700 4.7628780699e+00 -1.5033180906e-03 2.7439595882e+00 -4.7526774206e+00 2.7439595882e+00 4.7526774206e+00 
199800 4.7628780299e+00 -1.5017226575e-03 2.7439869814e+00 -4.7527248672e+00 2.7439869814e+00 4.7527248672e+00 
199900 4.7628779900e+00 -1.5001288687e-03 2.7440143454e+00 -4.7527722629e+00 2.7440143454e+00 4.7527722629e+00 
200000 4.7628779502e+00 -1.4985367224e-03 2.7440416800e+00 -4.7528196078e+00 2.7440416800e+00 4.7528196078e+00 
200100 4.7628779105e+00 -1.4969462174e-03 2.7440689853e+00 -4.7528669020e+00 2.7440689853e+00 4.7528669020e+00 
200200 4.7628778709e+00 -1.4953573519e-03 2.7440962614e+00 -4.7529141456e+00 2.7440962614e+00 4.7529141456e+00 
200300 4.7628778313e+00 -1.4937701245e-03 2.7441235082e+00 -4.7529613385e+00 2.7441235082e+00 4.7529613385e+00 
200400 4.7628777919e+00 -1.4921845336e-03 2.7441507259e+00 -4.7530084809e+00 2.7441507259e+00 4.7530084809e+00 
200500 4.7628777525e+00 -1.4906005778e-03 2.7441779144e+00 -4.7530555728e+00 2.7441779144e+00 4.7530555728e+00 
200600 4.7628777132e+00 -1.4890182555e-03 2.7442050738e+00 -4.7531026142e+00 2.7442050738e+00 4.7531026142e+00 
200700 4.7628776740e+00 -1.4874375652e-03 2.7442322041e+00 -4.7531496052e+00 2.7442322041e+00 4.7531496052e+00 
200800 4.7628776349e+00 -1.4858585054e-03 2.7442593053e+00 -4.7531965459e+00 2.7442593053e+00 4.7531965459e+00 
200900 4.7628775958e+00 -1.4842810746e-03 2.7442863774e+00 -4.7532434362e+00 2.7442863774e+00 4.7532434362e+00 
201000 4.7628775569e+00 -1.4827052712e-03 2.7443134206e+00 -4.7532902764e+00 2.7443134206e+00 4.7532902764e+00 
201100 4.7628775180e+00 -1.4811310937e-03 2.7443404348e+00 -4.7533370663e+00 2.7443404348e+00 4.7533370663e+00 
201200 4.7628774792e+00 -1.4795585407e-03 2.7443674200e+00 -4.7533838061e+00 2.7443674200e+00 4.7533838061e+00 
201300 4.7628774405e+00 -1.4779876105e-03 2.7443943763e+00 -4.7534304958e+00 2.7443943763e+00 4.7534304958e+00 
201400 4.7628774019e+00 -1.4764183018e-03 2.7444213038e+00 -4.7534771355e+00 2.7444213038e+00 4.7534771355e+00 
201500 4.7628773634e+00 -1.4748506129e-03 2.7444482023e+00 -4.7535237252e+00 2.7444482023e+00 4.7535237252e+00 
201600 4.7628773249e+00 -1.4732845424e-03 2.7444750721e+00 -4.7535702650e+00 2.7444750721e+00 4.7535702650e+00 
201700 4.7628772866e+00 -1.4717200887e-03 2.7445019131e+00 -4.7536167549e+00 2.7445019131e+00 4.7536167549e+00 
201800 4.7628772483e+00 -1.4701572504e-03 2.7445287253e+00 -4.7536631950e+00 2.7445287253e+00 4.7536631950e+00 
201900 4.7628772101e+00 -1.4685960260e-03 2.7445555087e+00 -4.7537095853e+00 2.7445555087e+00 4.7537095853e+00 
202000 4.7628771719e+00 -1.4670364138e-03 2.7445822635e+00 -4.7537559259e+00 2.7445822635e+00 4.7537559259e+00 
202100 4.7628771339e+00 -1.4654784125e-03 2.7446089896e+00 -4.7538022168e+00 2.7446089896e+00 4.7538022168e+00 
202200 4.7628770960e+00 -1.4639220205e-03 2.7446356870e+00 -4.7538484582e+00 2.7446356870e+00 4.7538484582e+00 
202300 4.7628770581e+00 -1.4623672364e-03 2.7446623558e+00 -4.7538946499e+00 2.7446623558e+00 4.7538946499e+00 
202400 4.7628770203e+00 -1.4608140585e-03 2.7446889961e+00 -4.7539407922e+00 2.7446889961e+00 4.7539407922e+00 
202500 4.7628769826e+00 -1.4592624855e-03 2.7447156078e+00 -4.7539868850e+00 2.7447156078e+00 4.7539868850e+00 
202600 4.7628769449e+00 -1.4577125157e-03 2.7447421909e+00 -4.7540329284e+00 2.7447421909e+00 4.7540329284e+00 
202700 4.7628769074e+00 -1.4561641478e-03 2.7447687456e+00 -4.7540789224e+00 2.7447687456e+00 4.7540789224e+00 
202800 4.7628768699e+00 -1.4546173802e-03 2.7447952718e+00 -4.7541248672e+00 2.7447952718e+00 4.7541248672e+00 
202900 4.7628768325e+00 -1.4530722114e-03 2.7448217696e+00 -4.7541707627e+00 2.7448217696e+00 4.7541707627e+00 
203000 4.7628767952e+00 -1.4515286399e-03 2.7448482390e+00 -4.7542166090e+00 2.7448482390e+00 4.7542166090e+00 
203100 4.7628767580e+00 -1.4499866643e-03 2.7448746800e+00 -4.7542624062e+00 2.7448746800e+00 4.7542624062e+00 
203200 4.7628767209e+00 -1.4484462829e-03 2.7449010927e+00 -4.7543081543e+00 2.7449010927e+00 4.7543081543e+00 
203300 4.7628766838e+00 -1.4469074944e-03 2.7449274770e+00 -4.7543538533e+00 2.7449274770e+00 4.7543538533e+00 
203400 4.7628766468e+00 -1.4453702972e-03 2.7449538331e+00 -4.7543995033e+00 2.7449538331e+00 4.7543995033e+00 
203500 4.7628766099e+00 -1.4438346898e-03 2.7449801609e+00 -4.7544451044e+00 2.7449801609e+00 4.7544451044e+00 
203600 4.7628765731e+00 -1.4423006708e-03 2.7450064605e+00 -4.7544906567e+00 2.7450064605e+00 4.7544906567e+00 
203700 4.7628765364e+00 -1.4407682387e-03 2.7450327319e+00 -4.7545361601e+00 2.7450327319e+00 4.7545361601e+00 
203800 4.7628764997e+00 -1.4392373919e-03 2.7450589751e+00 -4.7545816147e+00 2.7450589751e+00 4.7545816147e+00 
203900 4.7628764631e+00 -1.4377081290e-03 2.7450851902e+00 -4.7546270205e+00 2.7450851902e+00 4.7546270205e+00 
204000 4.7628764266e+00 -1.4361804484e-03 2.7451113772e+00 -4.7546723777e+00 2.7451113772e+00 4.7546723777e+00 
204100 4.7628763902e+00 -1.4346543488e-03 2.7451375361e+00 -4.7547176863e+00 2.7451375361e+00 4.7547176863e+00 
204200 4.7628763538e+00 -1.4331298286e-03 2.7451636670e+00 -4.7547629463e+00 2.7451636670e+00 4.7547629463e+00 
204300 4.7628763175e+00 -1.4316068863e-03 2.7451897698e+00 -4.7548081578e+00 2.7451897698e+00 4.7548081578e+00 
204400 4.7628762813e+00 -1.4300855204e-03 2.7452158447e+00 -4.7548533208e+00 2.7452158447e+00 4.7548533208e+00 
204500 4.7628762452e+00 -1.4285657295e-03 2.7452418916e+00 -4.7548984353e+00 2.7452418916e+00 4.7548984353e+00 
204600 4.7628762092e+00 -1.4270475121e-03 2.7452679106e+00 -4.7549435015e+00 2.7452679106e+00 4.7549435015e+00 
204700 4.7628761732e+00 -1.4255308667e-03 2.7452939017e+00 -4.7549885194e+00 2.7452939017e+00 4.7549885194e+00 
204800 4.7628761374e+00 -1.4240157918e-03 2.7453198649e+00 -4.7550334890e+00 2.7453198649e+00 4.7550334890e+00 
204900 4.7628761016e+00 -1.4225022859e-03 2.7453458003e+00 -4.7550784104e+00 2.7453458003e+00 4.7550784104e+00 
205000 4.7628760658e+00 -1.4209903476e-03 2.7453717078e+00 -4.7551232836e+00 2.7453717078e+00 4.7551232836e+00 
205100 4.7628760302e+00 -1.4194799753e-03 2.7453975876e+00 -4.7551681087e+00 2.7453975876e+00 4.7551681087e+00 
205200 4.7628759946e+00 -1.4179711677e-03 2.7454234397e+00 -4.7552128858e+00 2.7454234397e+00 4.7552128858e+00 
205300 4.7628759591e+00 -1.4164639232e-03 2.7454492640e+00 -4.7552576148e+00 2.7454492640e+00 4.7552576148e+00 
205400 4.7628759237e+00 -1.4149582403e-03 2.7454750606e+00 -4.7553022958e+00 2.7454750606e+00 4.7553022958e+00 
205500 4.7628758883e+00 -1.4134541176e-03 2.7455008295e+00 -4.7553469290e+00 2.7455008295e+00 4.7553469290e+00 
205600 4.7628758531e+00 -1.4119515536e-03 2.7455265709e+00 -4.7553915143e+00 2.7455265709e+00 4.7553915143e+00 
205700 4.7628758179e+00 -1.4104505468e-03 2.7455522846e+00 -4.7554360517e+00 2.7455522846e+00 4.7554360517e+00 
205800 4.7628757828e+00 -1.4089510958e-03 2.7455779707e+00 -4.7554805414e+00 2.7455779707e+00 4.7554805414e+00 
205900 4.7628757477e+00 -1.4074531990e-03 2.7456036293e+00 -4.7555249834e+00 2.7456036293e+00 4.7555249834e+00 
206000 4.7628757128e+00 -1.4059568551e-03 2.7456292604e+00 -4.7555693777e+00 2.7456292604e+00 4.7555693777e+00 
206100 4.7628756779e+00 -1.4044620625e-03 2.7456548640e+00 -4.7556137244e+00 2.7456548640e+00 4.7556137244e+00 
206200 4.7628756431e+00 -1.4029688198e-03 2.7456804401e+00 -4.7556580236e+00 2.7456804401e+00 4.7556580236e+00 
206300 4.7628756083e+00 -1.4014771255e-03 2.7457059888e+00 -4.7557022752e+00 2.7457059888e+00 4.7557022752e+00 
206400 4.7628755737e+00 -1.3999869782e-03 2.7457315101e+00 -4.7557464794e+00 2.7457315101e+00 4.7557464794e+00 
206500 4.7628755391e+00 -1.3984983763e-03 2.7457570040e+00 -4.7557906362e+00 2.7457570040e+00 4.7557906362e+00 
206600 4.7628755046e+00 -1.3970113185e-03 2.7457824706e+00 -4.7558347456e+00 2.7457824706e+00 4.7558347456e+00 
206700 4.7628754701e+00 -1.3955258032e-03 2.7458079098e+00 -4.7558788076e+00 2.7458079098e+00 4.7558788076e+00 
206800 4.7628754358e+00 -1.3940418290e-03 2.7458333218e+00 -4.7559228225e+00 2.7458333218e+00 4.7559228225e+00 
206900 4.7628754015e+00 -1.3925593944e-03 2.7458587065e+00 -4.7559667901e+00 2.7458587065e+00 4.7559667901e+00 
207000 4.7628753673e+00 -1.3910784980e-03 2.7458840640e+00 -4.7560107105e+00 2.7458840640e+00 4.7560107105e+00 
207100 4.7628753331e+00 -1.3895991384e-03 2.7459093943e+00 -4.7560545839e+00 2.7459093943e+00 4.7560545839e+00 
207200 4.7628752991e+00 -1.3881213139e-03 2.7459346974e+00 -4.7560984102e+00 2.7459346974e+00 4.7560984102e+00 
207300 4.7628752651e+00 -1.3866450233e-03 2.7459599734e+00 -4.7561421894e+00 2.7459599734e+00 4.7561421894e+00 
207400 4.7628752311e+00 -1.3851702650e-03 2.7459852222e+00 -4.7561859218e+00 2.7459852222e+00 4.7561859218e+00 
207500 4.7628751973e+00 -1.3836970376e-03 2.7460104440e+00 -4.7562296071e+00 2.7460104440e+00 4.7562296071e+00 
207600 4.7628751635e+00 -1.3822253397e-03 2.7460356387e+00 -4.7562732457e+00 2.7460356387e+00 4.7562732457e+00 
207700 4.7628751298e+00 -1.3807551697e-03 2.7460608064e+00 -4.7563168374e+00 2.7460608064e+00 4.7563168374e+00 
207800 4.7628750962e+00 -1.3792865262e-03 2.7460859471e+00 -4.7563603823e+00 2.7460859471e+00 4.7563603823e+00 
207900 4.7628750626e+00 -1.3778194079e-03 2.7461110608e+00 -4.7564038806e+00 2.7461110608e+00 4.7564038806e+00 
208000 4.7628750292e+00 -1.3763538131e-03 2.7461361476e+00 -4.7564473322e+00 2.7461361476e+00 4.7564473322e+00 
208100 4.7628749957e+00 -1.3748897405e-03 2.7461612075e+00 -4.7564907371e+00 2.7461612075e+00 4.7564907371e+00 
208200 4.7628749624e+00 -1.3734271886e-03 2.7461862404e+00 -4.7565340955e+00 2.7461862404e+00 4.7565340955e+00 
208300 4.7628749291e+00 -1.3719661561e-03 2.7462112466e+00 -4.7565774074e+00 2.7462112466e+00 4.7565774074e+00 
208400 4.7628748959e+00 -1.3705066413e-03 2.7462362259e+00 -4.7566206728e+00 2.7462362259e+00 4.7566206728e+00 
208500 4.7628748628e+00 -1.3690486430e-03 2.7462611784e+00 -4.7566638918e+00 2.7462611784e+00 4.7566638918e+00 
208600 4.7628748298e+00 -1.3675921595e-03 2.7462861041e+00 -4.7567070644e+00 2.7462861041e+00 4.7567070644e+00 
208700 4.7628747968e+00 -1.3661371896e-03 2.7463110030e+00 -4.7567501907e+00 2.7463110030e+00 4.7567501907e+00 
208800 4.7628747639e+00 -1.3646837318e-03 2.7463358753e+00 -4.7567932707e+00 2.7463358753e+00 4.7567932707e+00 
208900 4.7628747310e+00 -1.3632317845e-03 2.7463607209e+00 -4.7568363045e+00 2.7463607209e+00 4.7568363045e+00 
209000 4.7628746983e+00 -1.3617813464e-03 2.7463855398e+00 -4.7568792921e+00 2.7463855398e+00 4.7568792921e+00 
209100 4.7628746656e+00 -1.3603324161e-03 2.7464103321e+00 -4.7569222336e+00 2.7464103321e+00 4.7569222336e+00 
209200 4.7628746330e+00 -1.3588849920e-03 2.7464350978e+00 -4.7569651290e+00 2.7464350978e+00 4.7569651290e+00 
209300 4.7628746004e+00 -1.3574390728e-03 2.7464598369e+00 -4.7570079784e+00 2.7464598369e+00 4.7570079784e+00 
209400 4.7628745679e+00 -1.3559946570e-03 2.7464845494e+00 -4.7570507818e+00 2.7464845494e+00 4.7570507818e+00 
209500 4.7628745355e+00 -1.3545517432e-03 2.7465092355e+00 -4.7570935393e+00 2.7465092355e+00 4.7570935393e+00 
209600 4.7628745032e+00 -1.3531103300e-03 2.7465338950e+00 -4.7571362509e+00 2.7465338950e+00 4.7571362509e+00 
209700 4.7628744709e+00 -1.3516704159e-03 2.7465585281e+00 -4.7571789167e+00 2.7465585281e+00 4.7571789167e+00 
209800 4.7628744387e+00 -1.3502319994e-03 2.7465831348e+00 -4.7572215366e+00 2.7465831348e+00 4.7572215366e+00 
209900 4.7628744065e+00 -1.3487950792e-03 2.7466077150e+00 -4.7572641109e+00 2.7466077150e+00 4.7572641109e+00 
210000 4.7628743745e+00 -1.3473596538e-03 2.7466322689e+00 -4.7573066394e+00 2.7466322689e+00 4.7573066394e+00 
210100 4.7628743425e+00 -1.3459257218e-03 2.7466567964e+00 -4.7573491223e+00 2.7466567964e+00 4.7573491223e+00 
210200 4.7628743106e+00 -1.3444932818e-03 2.7466812976e+00 -4.7573915597e+00 2.7466812976e+00 4.7573915597e+00 
210300 4.7628742787e+00 -1.3430623323e-03 2.7467057725e+00 -4.7574339514e+00 2.7467057725e+00 4.7574339514e+00 
210400 4.7628742469e+00 -1.3416328719e-03 2.7467302212e+00 -4.7574762977e+00 2.7467302212e+00 4.7574762977e+00 
210500 4.7628742152e+00 -1.3402048991e-03 2.7467546436e+00 -4.7575185986e+00 2.7467546436e+00 4.7575185986e+00 
210600 4.7628741835e+00 -1.3387784126e-03 2.7467790397e+00 -4.7575608540e+00 2.7467790397e+00 4.7575608540e+00 
210700 4.7628741519e+00 -1.3373534110e-03 2.7468034098e+00 -4.7576030641e+00 2.7468034098e+00 4.7576030641e+00 
210800 4.7628741204e+00 -1.3359298927e-03 2.7468277536e+00 -4.7576452289e+00 2.7468277536e+00 4.7576452289e+00 
210900 4.7628740890e+00 -1.3345078564e-03 2.7468520713e+00 -4.7576873484e+00 2.7468520713e+00 4.7576873484e+00 
211000 4.7628740576e+00 -1.3330873007e-03 2.7468763629e+00 -4.7577294227e+00 2.7468763629e+00 4.7577294227e+00 
211100 4.7628740263e+00 -1.3316682241e-03 2.7469006285e+00 -4.7577714519e+00 2.7469006285e+00 4.7577714519e+00 
211200 4.7628739950e+00 -1.3302506253e-03 2.7469248680e+00 -4.7578134359e+00 2.7469248680e+00 4.7578134359e+00 
211300 4.7628739639e+00 -1.3288345027e-03 2.7469490815e+00 -4.7578553749e+00 2.7469490815e+00 4.7578553749e+00 
211400 4.7628739328e+00 -1.3274198551e-03 2.7469732690e+00 -4.7578972689e+00 2.7469732690e+00 4.7578972689e+00 
211500 4.7628739017e+00 -1.3260066808e-03 2.7469974305e+00 -4.7579391179e+00 2.7469974305e+00 4.7579391179e+00 
211600 4.7628738707e+00 -1.3245949787e-03 2.7470215661e+00 -4.7579809220e+00 2.7470215661e+00 4.7579809220e+00 
211700 4.7628738398e+00 -1.3231847472e-03 2.7470456758e+00 -4.7580226812e+00 2.7470456758e+00 4.7580226812e+00 
211800 4.7628738090e+00 -1.3217759849e-03 2.7470697596e+00 -4.7580643956e+00 2.7470697596e+00 4.7580643956e+00 
211900 4.7628737782e+00 -1.3203686904e-03 2.7470938176e+00 -4.7581060652e+00 2.7470938176e+00 4.7581060652e+00 
212000 4.7628737475e+00 -1.3189628623e-03 2.7471178497e+00 -4.7581476901e+00 2.7471178497e+00 4.7581476901e+00 
212100 4.7628737169e+00 -1.3175584992e-03 2.7471418561e+00 -4.7581892703e+00 2.7471418561e+00 4.7581892703e+00 
212200 4.7628736863e+00 -1.3161555996e-03 2.7471658366e+00 -4.7582308058e+00 2.7471658366e+00 4.7582308058e+00 
212300 4.7628736558e+00 -1.3147541623e-03 2.7471897914e+00 -4.7582722968e+00 2.7471897914e+00 4.7582722968e+00 
212400 4.7628736253e+00 -1.3133541857e-03 2.7472137206e+00 -4.7583137433e+00 2.7472137206e+00 4.7583137433e+00 
212500 4.7628735949e+00 -1.3119556684e-03 2.7472376240e+00 -4.7583551452e+00 2.7472376240e+00 4.7583551452e+00 
212600 4.7628735646e+00 -1.3105586091e-03 2.7472615017e+00 -4.7583965027e+00 2.7472615017e+00 4.7583965027e+00 
212700 4.7628735344e+00 -1.3091630064e-03 2.7472853539e+00 -4.7584378158e+00 2.7472853539e+00 4.7584378158e+00 
212800 4.7628735042e+00 -1.3077688588e-03 2.7473091804e+00 -4.7584790845e+00 2.7473091804e+00 4.7584790845e+00 
212900 4.7628734741e+00 -1.3063761649e-03 2.7473329813e+00 -4.7585203090e+00 2.7473329813e+00 4.7585203090e+00 
213000 4.7628734440e+00 -1.3049849233e-03 2.7473567567e+00 -4.7585614891e+00 2.7473567567e+00 4.7585614891e+00 
213100 4.7628734140e+00 -1.3035951327e-03 2.7473805066e+00 -4.7586026251e+00 2.7473805066e+00 4.7586026251e+00 
213200 4.7628733841e+00 -1.3022067916e-03 2.7474042309e+00 -4.7586437169e+00 2.7474042309e+00 4.7586437169e+00 
213300 4.7628733543e+00 -1.3008198987e-03 2.7474279298e+00 -4.7586847646e+00 2.7474279298e+00 4.7586847646e+00 
213400 4.7628733245e+00 -1.2994344525e-03 2.7474516033e+00 -4.7587257682e+00 2.7474516033e+00 4.7587257682e+00 
213500 4.7628732947e+00 -1.2980504516e-03 2.7474752513e+00 -4.7587667278e+00 2.7474752513e+00 4.7587667278e+00 
213600 4.7628732651e+00 -1.2966678947e-03 2.7474988739e+00 -4.7588076434e+00 2.7474988739e+00 4.7588076434e+00 
213700 4.7628732355e+00 -1.2952867803e-03 2.7475224712e+00 -4.7588485151e+00 2.7475224712e+00 4.7588485151e+00 
213800 4.7628732059e+00 -1.2939071071e-03 2.7475460431e+00 -4.7588893429e+00 2.7475460431e+00 4.7588893429e+00 
213900 4.7628731765e+00 -1.2925288736e-03 2.7475695898e+00 -4.7589301268e+00 2.7475695898e+00 4.7589301268e+00 
214000 4.7628731471e+00 -1.2911520785e-03 2.7475931111e+00 -4.7589708670e+00 2.7475931111e+00 4.7589708670e+00 
214100 4.7628731177e+00 -1.2897767204e-03 2.7476166072e+00 -4.7590115634e+00 2.7476166072e+00 4.7590115634e+00 
214200 4.7628730884e+00 -1.2884027979e-03 2.7476400781e+00 -4.7590522161e+00 2.7476400781e+00 4.7590522161e+00 
214300 4.7628730592e+00 -1.2870303095e-03 2.7476635237e+00 -4.7590928252e+00 2.7476635237e+00 4.7590928252e+00 
214400 4.7628730300e+00 -1.2856592540e-03 2.7476869442e+00 -4.7591333907e+00 2.7476869442e+00 4.7591333907e+00 
214500 4.7628730010e+00 -1.2842896299e-03 2.7477103395e+00 -4.7591739126e+00 2.7477103395e+00 4.7591739126e+00 
214600 4.7628729719e+00 -1.2829214359e-03 2.7477337098e+00 -4.7592143910e+00 2.7477337098e+00 4.7592143910e+00 
214700 4.7628729430e+00 -1.2815546704e-03 2.7477570549e+00 -4.7592548259e+00 2.7477570549e+00 4.7592548259e+00 
214800 4.7628729141e+00 -1.2801893323e-03 2.7477803749e+00 -4.7592952174e+00 2.7477803749e+00 4.7592952174e+00 
214900 4.7628728852e+00 -1.2788254200e-03 2.7478036699e+00 -4.7593355655e+00 2.7478036699e+00 4.7593355655e+00 
215000 4.7628728564e+00 -1.2774629323e-03 2.7478269399e+00 -4.7593758703e+00 2.7478269399e+00 4.7593758703e+00 
215100 4.7628728277e+00 -1.2761018677e-03 2.7478501849e+00 -4.7594161319e+00 2.7478501849e+00 4.7594161319e+00 
215200 4.7628727991e+00 -1.2747422248e-03 2.7478734050e+00 -4.7594563501e+00 2.7478734050e+00 4.7594563501e+00 
215300 4.7628727705e+00 -1.2733840022e-03 2.7478966001e+00 -4.7594965252e+00 2.7478966001e+00 4.7594965252e+00 
215400 4.7628727419e+00 -1.2720271987e-03 2.7479197702e+00 -4.7595366572e+00 2.7479197702e+00 4.7595366572e+00 
215500 4.7628727135e+00 -1.2706718127e-03 2.7479429156e+00 -4.7595767460e+00 2.7479429156e+00 4.7595767460e+00 
215600 4.7628726850e+00 -1.2693178430e-03 2.7479660360e+00 -4.7596167918e+00 2.7479660360e+00 4.7596167918e+00 
215700 4.7628726567e+00 -1.2679652882e-03 2.7479891316e+00 -4.7596567946e+00 2.7479891316e+00 4.7596567946e+00 
215800 4.7628726284e+00 -1.2666141468e-03 2.7480122024e+00 -4.7596967545e+00 2.7480122024e+00 4.7596967545e+00 
215900 4.7628726002e+00 -1.2652644175e-03 2.7480352485e+00 -4.7597366714e+00 2.7480352485e+00 4.7597366714e+00 
216000 4.7628725720e+00 -1.2639160989e-03 2.7480582698e+00 -4.7597765454e+00 2.7480582698e+00 4.7597765454e+00 
216100 4.7628725439e+00 -1.2625691898e-03 2.7480812663e+00 -4.7598163766e+00 2.7480812663e+00 4.7598163766e+00 
216200 4.7628725159e+00 -1.2612236886e-03 2.7481042382e+00 -4.7598561650e+00 2.7481042382e+00 4.7598561650e+00 
216300 4.7628724879e+00 -1.2598795940e-03 2.7481271854e+00 -4.7598959107e+00 2.7481271854e+00 4.7598959107e+00 
216400 4.7628724600e+00 -1.2585369047e-03 2.7481501079e+00 -4.7599356138e+00 2.7481501079e+00 4.7599356138e+00 
216500 4.7628724321e+00 -1.2571956193e-03 2.7481730059e+00 -4.7599752741e+00 2.7481730059e+00 4.7599752741e+00 
216600 4.7628724043e+00 -1.2558557364e-03 2.7481958792e+00 -4.7600148919e+00 2.7481958792e+00 4.7600148919e+00 
216700 4.7628723766e+00 -1.2545172546e-03 2.7482187279e+00 -4.7600544671e+00 2.7482187279e+00 4.7600544671e+00 
216800 4.7628723489e+00 -1.2531801727e-03 2.7482415522e+00 -4.7600939998e+00 2.7482415522e+00 4.7600939998e+00 
216900 4.7628723213e+00 -1.2518444891e-03 2.7482643519e+00 -4.7601334901e+00 2.7482643519e+00 4.7601334901e+00 
217000 4.7628722937e+00 -1.2505102027e-03 2.7482871271e+00 -4.7601729379e+00 2.7482871271e+00 4.7601729379e+00 
217100 4.7628722662e+00 -1.2491773119e-03 2.7483098778e+00 -4.7602123434e+00 2.7483098778e+00 4.7602123434e+00 
217200 4.7628722387e+00 -1.2478458155e-03 2.7483326042e+00 -4.7602517065e+00 2.7483326042e+00 4.7602517065e+00 
217300 4.7628722114e+00 -1.2465157120e-03 2.7483553061e+00 -4.7602910273e+00 2.7483553061e+00 4.7602910273e+00 
217400 4.7628721840e+00 -1.2451870002e-03 2.7483779836e+00 -4.7603303059e+00 2.7483779836e+00 4.7603303059e+00 
217500 4.7628721568e+00 -1.2438596787e-03 2.7484006367e+00 -4.7603695424e+00 2.7484006367e+00 4.7603695424e+00 
217600 4.7628721296e+00 -1.2425337461e-03 2.7484232655e+00 -4.7604087366e+00 2.7484232655e+00 4.7604087366e+00 
217700 4.7628721024e+00 -1.2412092010e-03 2.7484458701e+00 -4.7604478888e+00 2.7484458701e+00 4.7604478888e+00 
217800 4.7628720753e+00 -1.2398860421e-03 2.7484684503e+00 -4.7604869989e+00 2.7484684503e+00 4.7604869989e+00 
217900 4.7628720483e+00 -1.2385642681e-03 2.7484910063e+00 -4.7605260670e+00 2.7484910063e+00 4.7605260670e+00 
218000 4.7628720213e+00 -1.2372438775e-03 2.7485135380e+00 -4.7605650931e+00 2.7485135380e+00 4.7605650931e+00 
218100 4.7628719944e+00 -1.2359248691e-03 2.7485360456e+00 -4.7606040773e+00 2.7485360456e+00 4.7606040773e+00 
218200 4.7628719675e+00 -1.2346072415e-03 2.7485585289e+00 -4.7606430197e+00 2.7485585289e+00 4.7606430197e+00 
218300 4.7628719407e+00 -1.2332909934e-03 2.7485809881e+00 -4.7606819201e+00 2.7485809881e+00 4.7606819201e+00 
218400 4.7628719140e+00 -1.2319761233e-03 2.7486034232e+00 -4.7607207788e+00 2.7486034232e+00 4.7607207788e+00 
218500 4.7628718873e+00 -1.2306626300e-03 2.7486258342e+00 -4.7607595958e+00 2.7486258342e+00 4.7607595958e+00 
218600 4.7628718607e+00 -1.2293505121e-03 2.7486482211e+00 -4.7607983710e+00 2.7486482211e+00 4.7607983710e+00 
218700 4.7628718341e+00 -1.2280397682e-03 2.7486705839e+00 -4.7608371046e+00 2.7486705839e+00 4.7608371046e+00 
218800 4.7628718076e+00 -1.2267303971e-03 2.7486929228e+00 -4.7608757966e+00 2.7486929228e+00 4.7608757966e+00 
218900 4.7628717812e+00 -1.2254223973e-03 2.7487152376e+00 -4.7609144470e+00 2.7487152376e+00 4.7609144470e+00 
219000 4.7628717548e+00 -1.2241157676e-03 2.7487375284e+00 -4.7609530559e+00 2.7487375284e+00 4.7609530559e+00 
219100 4.7628717284e+00 -1.2228105065e-03 2.7487597953e+00 -4.7609916233e+00 2.7487597953e+00 4.7609916233e+00 
219200 4.7628717022e+00 -1.2215066128e-03 2.7487820383e+00 -4.7610301493e+00 2.7487820383e+00 4.7610301493e+00 
219300 4.7628716759e+00 -1.2202040850e-03 2.7488042574e+00 -4.7610686339e+00 2.7488042574e+00 4.7610686339e+00 
219400 4.7628716498e+00 -1.2189029220e-03 2.7488264526e+00 -4.7611070771e+00 2.7488264526e+00 4.7611070771e+00 
219500 4.7628716236e+00 -1.2176031223e-03 2.7488486240e+00 -4.7611454790e+00 2.7488486240e+00 4.7611454790e+00 
219600 4.7628715976e+00 -1.2163046845e-03 2.7488707715e+00 -4.7611838397e+00 2.7488707715e+00 4.7611838397e+00 
219700 4.7628715716e+00 -1.2150076074e-03 2.7488928953e+00 -4.7612221591e+00 2.7488928953e+00 4.7612221591e+00 
219800 4.7628715456e+00 -1.2137118897e-03 2.7489149952e+00 -4.7612604374e+00 2.7489149952e+00 4.7612604374e+00 
219900 4.7628715198e+00 -1.2124175299e-03 2.7489370715e+00 -4.7612986746e+00 2.7489370715e+00 4.7612986746e+00 
220000 4.7628714939e+00 -1.2111245268e-03 2.7489591240e+00 -4.7613368706e+00 2.7489591240e+00 4.7613368706e+00 
220100 4.7628714682e+00 -1.2098328790e-03 2.7489811528e+00 -4.7613750257e+00 2.7489811528e+00 4.7613750257e+00 
220200 4.7628714424e+00 -1.2085425852e-03 2.7490031579e+00 -4.7614131397e+00 2.7490031579e+00 4.7614131397e+00 
220300 4.7628714168e+00 -1.2072536440e-03 2.7490251394e+00 -4.7614512128e+00 2.7490251394e+00 4.7614512128e+00 
220400 4.7628713912e+00 -1.2059660542e-03 2.7490470973e+00 -4.7614892449e+00 2.7490470973e+00 4.7614892449e+00 
220500 4.7628713656e+00 -1.2046798144e-03 2.7490690316e+00 -4.7615272362e+00 2.7490690316e+00 4.7615272362e+00 
220600 4.7628713401e+00 -1.2033949233e-03 2.7490909423e+00 -4.7615651867e+00 2.7490909423e+00 4.7615651867e+00 
220700 4.7628713147e+00 -1.2021113795e-03 2.7491128295e+00 -4.7616030964e+00 2.7491128295e+00 4.7616030964e+00 
220800 4.7628712893e+00 -1.2008291818e-03 2.7491346931e+00 -4.7616409653e+00 2.7491346931e+00 4.7616409653e+00 
220900 4.7628712639e+00 -1.1995483287e-03 2.7491565333e+00 -4.7616787936e+00 2.7491565333e+00 4.7616787936e+00 
221000 4.7628712387e+00 -1.1982688191e-03 2.7491783500e+00 -4.7617165812e+00 2.7491783500e+00 4.7617165812e+00 
221100 4.7628712134e+00 -1.1969906515e-03 2.7492001432e+00 -4.7617543282e+00 2.7492001432e+00 4.7617543282e+00 
221200 4.7628711883e+00 -1.1957138247e-03 2.7492219130e+00 -4.7617920347e+00 2.7492219130e+00 4.7617920347e+00 
221300 4.7628711631e+00 -1.1944383372e-03 2.7492436595e+00 -4.7618297006e+00 2.7492436595e+00 4.7618297006e+00 
221400 4.7628711381e+00 -1.1931641879e-03 2.7492653825e+00 -4.7618673261e+00 2.7492653825e+00 4.7618673261e+00 
221500 4.7628711131e+00 -1.1918913754e-03 2.7492870823e+00 -4.7619049111e+00 2.7492870823e+00 4.7619049111e+00 
221600 4.7628710881e+00 -1.1906198983e-03 2.7493087587e+00 -4.7619424557e+00 2.7493087587e+00 4.7619424557e+00 
221700 4.7628710632e+00 -1.1893497554e-03 2.7493304118e+00 -4.7619799600e+00 2.7493304118e+00 4.7619799600e+00 
221800 4.7628710384e+00 -1.1880809454e-03 2.7493520416e+00 -4.7620174240e+00 2.7493520416e+00 4.7620174240e+00 
221900 4.7628710136e+00 -1.1868134668e-03 2.7493736482e+00 -4.7620548477e+00 2.7493736482e+00 4.7620548477e+00 
222000 4.7628709889e+00 -1.1855473185e-03 2.7493952316e+00 -4.7620922312e+00 2.7493952316e+00 4.7620922312e+00 
222100 4.7628709642e+00 -1.1842824991e-03 2.7494167917e+00 -4.7621295745e+00 2.7494167917e+00 4.7621295745e+00 
222200 4.7628709395e+00 -1.1830190073e-03 2.7494383287e+00 -4.7621668777e+00 2.7494383287e+00 4.7621668777e+00 
222300 4.7628709150e+00 -1.1817568417e-03 2.7494598426e+00 -4.7622041408e+00 2.7494598426e+00 4.7622041408e+00 
222400 4.7628708904e+00 -1.1804960012e-03 2.7494813333e+00 -4.7622413638e+00 2.7494813333e+00 4.7622413638e+00 
222500 4.7628708660e+00 -1.1792364843e-03 2.7495028010e+00 -4.7622785469e+00 2.7495028010e+00 4.7622785469e+00 
222600 4.7628708415e+00 -1.1779782897e-03 2.7495242456e+00 -4.7623156899e+00 2.7495242456e+00 4.7623156899e+00 
222700 4.7628708172e+00 -1.1767214162e-03 2.7495456671e+00 -4.7623527931e+00 2.7495456671e+00 4.7623527931e+00 
222800 4.7628707929e+00 -1.1754658625e-03 2.7495670656e+00 -4.7623898564e+00 2.7495670656e+00 4.7623898564e+00 
222900 4.7628707686e+00 -1.1742116272e-03 2.7495884411e+00 -4.7624268798e+00 2.7495884411e+00 4.7624268798e+00 
223000 4.7628707444e+00 -1.1729587091e-03 2.7496097936e+00 -4.7624638635e+00 2.7496097936e+00 4.7624638635e+00 
223100 4.7628707202e+00 -1.1717071068e-03 2.7496311232e+00 -4.7625008074e+00 2.7496311232e+00 4.7625008074e+00 
223200 4.7628706961e+00 -1.1704568190e-03 2.7496524298e+00 -4.7625377116e+00 2.7496524298e+00 4.7625377116e+00 
223300 4.7628706721e+00 -1.1692078445e-03 2.7496737136e+00 -4.7625745761e+00 2.7496737136e+00 4.7625745761e+00 
223400 4.7628706481e+00 -1.1679601819e-03 2.7496949744e+00 -4.7626114011e+00 2.7496949744e+00 4.7626114011e+00 
223500 4.7628706241e+00 -1.1667138300e-03 2.7497162125e+00 -4.7626481864e+00 2.7497162125e+00 4.7626481864e+00 
223600 4.7628706002e+00 -1.1654687875e-03 2.7497374277e+00 -4.7626849322e+00 2.7497374277e+00 4.7626849322e+00 
223700 4.7628705764e+00 -1.1642250529e-03 2.7497586201e+00 -4.7627216385e+00 2.7497586201e+00 4.7627216385e+00 
223800 4.7628705526e+00 -1.1629826252e-03 2.7497797897e+00 -4.7627583053e+00 2.7497797897e+00 4.7627583053e+00 
223900 4.7628705288e+00 -1.1617415029e-03 2.7498009365e+00 -4.7627949328e+00 2.7498009365e+00 4.7627949328e+00 
224000 4.7628705052e+00 -1.1605016848e-03 2.7498220607e+00 -4.7628315208e+00 2.7498220607e+00 4.7628315208e+00 
224100 4.7628704815e+00 -1.1592631696e-03 2.7498431621e+00 -4.7628680696e+00 2.7498431621e+00 4.7628680696e+00 
224200 4.7628704579e+00 -1.1580259559e-03 2.7498642408e+00 -4.7629045790e+00 2.7498642408e+00 4.7629045790e+00 
224300 4.7628704344e+00 -1.1567900426e-03 2.7498852969e+00 -4.7629410492e+00 2.7498852969e+00 4.7629410492e+00 
224400 4.7628704109e+00 -1.1555554283e-03 2.7499063304e+00 -4.7629774802e+00 2.7499063304e+00 4.7629774802e+00 
224500 4.7628703875e+00 -1.1543221117e-03 2.7499273412e+00 -4.7630138721e+00 2.7499273412e+00 4.7630138721e+00 
224600 4.7628703641e+00 -1.1530900916e-03 2.7499483295e+00 -4.7630502248e+00 2.7499483295e+00 4.7630502248e+00 
224700 4.7628703407e+00 -1.1518593666e-03 2.7499692952e+00 -4.7630865385e+00 2.7499692952e+00 4.7630865385e+00 
224800 4.7628703175e+00 -1.1506299355e-03 2.7499902383e+00 -4.7631228131e+00 2.7499902383e+00 4.7631228131e+00 
224900 4.7628702942e+00 -1.1494017970e-03 2.7500111590e+00 -4.7631590487e+00 2.7500111590e+00 4.7631590487e+00 
225000 4.7628702710e+00 -1.1481749498e-03 2.7500320571e+00 -4.7631952454e+00 2.7500320571e+00 4.7631952454e+00 
225100 4.7628702479e+00 -1.1469493926e-03 2.7500529328e+00 -4.7632314031e+00 2.7500529328e+00 4.7632314031e+00 
225200 4.7628702248e+00 -1.1457251241e-03 2.7500737861e+00 -4.7632675220e+00 2.7500737861e+00 4.7632675220e+00 
225300 4.7628702018e+00 -1.1445021432e-03 2.7500946169e+00 -4.7633036021e+00 2.7500946169e+00 4.7633036021e+00 
225400 4.7628701788e+00 -1.1432804484e-03 2.7501154253e+00 -4.7633396433e+00 2.7501154253e+00 4.7633396433e+00 
225500 4.7628701559e+00 -1.1420600385e-03 2.7501362114e+00 -4.7633756459e+00 2.7501362114e+00 4.7633756459e+00 
225600 4.7628701330e+00 -1.1408409122e-03 2.7501569751e+00 -4.7634116097e+00 2.7501569751e+00 4.7634116097e+00 
225700 4.7628701101e+00 -1.1396230684e-03 2.7501777165e+00 -4.7634475349e+00 2.7501777165e+00 4.7634475349e+00 
225800 4.7628700873e+00 -1.1384065056e-03 2.7501984356e+00 -4.7634834214e+00 2.7501984356e+00 4.7634834214e+00 
225900 4.7628700646e+00 -1.1371912226e-03 2.7502191325e+00 -4.7635192694e+00 2.7502191325e+00 4.7635192694e+00 
226000 4.7628700419e+00 -1.1359772181e-03 2.7502398070e+00 -4.7635550788e+00 2.7502398070e+00 4.7635550788e+00 
226100 4.7628700193e+00 -1.1347644909e-03 2.7502604594e+00 -4.7635908497e+00 2.7502604594e+00 4.7635908497e+00 
226200 4.7628699967e+00 -1.1335530398e-03 2.7502810896e+00 -4.7636265822e+00 2.7502810896e+00 4.7636265822e+00 
226300 4.7628699741e+00 -1.1323428633e-03 2.7503016975e+00 -4.7636622763e+00 2.7503016975e+00 4.7636622763e+00 
226400 4.7628699517e+00 -1.1311339603e-03 2.7503222834e+00 -4.7636979320e+00 2.7503222834e+00 4.7636979320e+00 
226500 4.7628699292e+00 -1.1299263295e-03 2.7503428470e+00 -4.7637335493e+00 2.7503428470e+00 4.7637335493e+00 
226600 4.7628699068e+00 -1.1287199696e-03 2.7503633886e+00 -4.7637691284e+00 2.7503633886e+00 4.7637691284e+00 
226700 4.7628698845e+00 -1.1275148794e-03 2.7503839081e+00 -4.7638046692e+00 2.7503839081e+00 4.7638046692e+00 
226800 4.7628698622e+00 -1.1263110576e-03 2.7504044055e+00 -4.7638401718e+00 2.7504044055e+00 4.7638401718e+00 
226900 4.7628698399e+00 -1.1251085029e-03 2.7504248809e+00 -4.7638756362e+00 2.7504248809e+00 4.7638756362e+00 
227000 4.7628698177e+00 -1.1239072141e-03 2.7504453343e+00 -4.7639110625e+00 2.7504453343e+00 4.7639110625e+00 
227100 4.7628697955e+00 -1.1227071899e-03 2.7504657657e+00 -4.7639464507e+00 2.7504657657e+00 4.7639464507e+00 
227200 4.7628697734e+00 -1.1215084291e-03 2.7504861751e+00 -4.7639818009e+00 2.7504861751e+00 4.7639818009e+00 
227300 4.7628697514e+00 -1.1203109303e-03 2.7505065626e+00 -4.7640171130e+00 2.7505065626e+00 4.7640171130e+00 
227400 4.7628697294e+00 -1.1191146924e-03 2.7505269282e+00 -4.7640523872e+00 2.7505269282e+00 4.7640523872e+00 
227500 4.7628697074e+00 -1.1179197140e-03 2.7505472719e+00 -4.7640876235e+00 2.7505472719e+00 4.7640876235e+00 
227600 4.7628696855e+00 -1.1167259940e-03 2.7505675937e+00 -4.7641228219e+00 2.7505675937e+00 4.7641228219e+00 
227700 4.7628696636e+00 -1.1155335310e-03 2.7505878936e+00 -4.7641579824e+00 2.7505878936e+00 4.7641579824e+00 
227800 4.7628696418e+00 -1.1143423239e-03 2.7506081717e+00 -4.7641931051e+00 2.7506081717e+00 4.7641931051e+00 
227900 4.7628696200e+00 -1.1131523713e-03 2.7506284280e+00 -4.7642281901e+00 2.7506284280e+00 4.7642281901e+00 
228000 4.7628695983e+00 -1.1119636720e-03 2.7506486626e+00 -4.7642632373e+00 2.7506486626e+00 4.7642632373e+00 
228100 4.7628695766e+00 -1.1107762248e-03 2.7506688753e+00 -4.7642982469e+00 2.7506688753e+00 4.7642982469e+00 
228200 4.7628695550e+00 -1.1095900283e-03 2.7506890664e+00 -4.7643332188e+00 2.7506890664e+00 4.7643332188e+00 
228300 4.7628695334e+00 -1.1084050815e-03 2.7507092357e+00 -4.7643681531e+00 2.7507092357e+00 4.7643681531e+00 
228400 4.7628695118e+00 -1.1072213829e-03 2.7507293834e+00 -4.7644030499e+00 2.7507293834e+00 4.7644030499e+00 
228500 4.7628694903e+00 -1.1060389314e-03 2.7507495094e+00 -4.7644379091e+00 2.7507495094e+00 4.7644379091e+00 
228600 4.7628694689e+00 -1.1048577257e-03 2.7507696137e+00 -4.7644727308e+00 2.7507696137e+00 4.7644727308e+00 
228700 4.7628694475e+00 -1.1036777646e-03 2.7507896964e+00 -4.7645075152e+00 2.7507896964e+00 4.7645075152e+00 
228800 4.7628694261e+00 -1.1024990468e-03 2.7508097576e+00 -4.7645422621e+00 2.7508097576e+00 4.7645422621e+00 
228900 4.7628694048e+00 -1.1013215710e-03 2.7508297971e+00 -4.7645769716e+00 2.7508297971e+00 4.7645769716e+00 
229000 4.7628693836e+00 -1.1001453362e-03 2.7508498151e+00 -4.7646116438e+00 2.7508498151e+00 4.7646116438e+00 
229100 4.7628693623e+00 -1.0989703409e-03 2.7508698116e+00 -4.7646462787e+00 2.7508698116e+00 4.7646462787e+00 
229200 4.7628693412e+00 -1.0977965840e-03 2.7508897866e+00 -4.7646808764e+00 2.7508897866e+00 4.7646808764e+00 
229300 4.7628693200e+00 -1.0966240641e-03 2.7509097401e+00 -4.7647154369e+00 2.7509097401e+00 4.7647154369e+00 
229400 4.7628692990e+00 -1.0954527802e-03 2.7509296722e+00 -4.7647499602e+00 2.7509296722e+00 4.7647499602e+00 
229500 4.7628692779e+00 -1.0942827310e-03 2.7509495828e+00 -4.7647844464e+00 2.7509495828e+00 4.7647844464e+00 
229600 4.7628692569e+00 -1.0931139151e-03 2.7509694720e+00 -4.7648188955e+00 2.7509694720e+00 4.7648188955e+00 
229700 4.7628692360e+00 -1.0919463314e-03 2.7509893398e+00 -4.7648533076e+00 2.7509893398e+00 4.7648533076e+00 
229800 4.7628692151e+00 -1.0907799786e-03 2.7510091863e+00 -4.7648876827e+00 2.7510091863e+00 4.7648876827e+00 
229900 4.7628691942e+00 -1.0896148556e-03 2.7510290114e+00 -4.7649220208e+00 2.7510290114e+00 4.7649220208e+00 
230000 4.7628691734e+00 -1.0884509610e-03 2.7510488152e+00 -4.7649563220e+00 2.7510488152e+00 4.7649563220e+00 
230100 4.7628691527e+00 -1.0872882937e-03 2.7510685977e+00 -4.7649905862e+00 2.7510685977e+00 4.7649905862e+00 
230200 4.7628691319e+00 -1.0861268524e-03 2.7510883589e+00 -4.7650248137e+00 2.7510883589e+00 4.7650248137e+00 
230300 4.7628691113e+00 -1.0849666358e-03 2.7511080989e+00 -4.7650590043e+00 2.7511080989e+00 4.7650590043e+00 
230400 4.7628690906e+00 -1.0838076428e-03 2.7511278176e+00 -4.7650931582e+00 2.7511278176e+00 4.7650931582e+00 
230500 4.7628690701e+00 -1.0826498722e-03 2.7511475151e+00 -4.7651272753e+00 2.7511475151e+00 4.7651272753e+00 
230600 4.7628690495e+00 -1.0814933227e-03 2.7511671915e+00 -4.7651613558e+00 2.7511671915e+00 4.7651613558e+00 
230700 4.7628690290e+00 -1.0803379930e-03 2.7511868467e+00 -4.7651953996e+00 2.7511868467e+00 4.7651953996e+00 
230800 4.7628690086e+00 -1.0791838820e-03 2.7512064807e+00 -4.7652294068e+00 2.7512064807e+00 4.7652294068e+00 
230900 4.7628689882e+00 -1.0780309884e-03 2.7512260937e+00 -4.7652633774e+00 2.7512260937e+00 4.7652633774e+00 
231000 4.7628689678e+00 -1.0768793110e-03 2.7512456855e+00 -4.7652973115e+00 2.7512456855e+00 4.7652973115e+00 
231100 4.7628689475e+00 -1.0757288487e-03 2.7512652563e+00 -4.7653312090e+00 2.7512652563e+00 4.7653312090e+00 
231200 4.7628689272e+00 -1.0745796000e-03 2.7512848061e+00 -4.7653650702e+00 2.7512848061e+00 4.7653650702e+00 
231300 4.7628689070e+00 -1.0734315640e-03 2.7513043348e+00 -4.7653988949e+00 2.7513043348e+00 4.7653988949e+00 
231400 4.7628688868e+00 -1.0722847393e-03 2.7513238425e+00 -4.7654326832e+00 2.7513238425e+00 4.7654326832e+00 
231500 4.7628688666e+00 -1.0711391246e-03 2.7513433292e+00 -4.7654664352e+00 2.7513433292e+00 4.7654664352e+00 
231600 4.7628688465e+00 -1.0699947189e-03 2.7513627950e+00 -4.7655001510e+00 2.7513627950e+00 4.7655001510e+00 
231700 4.7628688265e+00 -1.0688515209e-03 2.7513822398e+00 -4.7655338304e+00 2.7513822398e+00 4.7655338304e+00 
231800 4.7628688064e+00 -1.0677095294e-03 2.7514016637e+00 -4.7655674736e+00 2.7514016637e+00 4.7655674736e+00 
231900 4.7628687865e+00 -1.0665687431e-03 2.7514210668e+00 -4.7656010807e+00 2.7514210668e+00 4.7656010807e+00 
232000 4.7628687665e+00 -1.0654291608e-03 2.7514404489e+00 -4.7656346516e+00 2.7514404489e+00 4.7656346516e+00 
232100 4.7628687467e+00 -1.0642907814e-03 2.7514598103e+00 -4.7656681863e+00 2.7514598103e+00 4.7656681863e+00 
232200 4.7628687268e+00 -1.0631536036e-03 2.7514791508e+00 -4.7657016851e+00 2.7514791508e+00 4.7657016851e+00 
232300 4.7628687070e+00 -1.0620176262e-03 2.7514984704e+00 -4.7657351478e+00 2.7514984704e+00 4.7657351478e+00 
232400 4.7628686873e+00 -1.0608828480e-03 2.7515177694e+00 -4.7657685745e+00 2.7515177694e+00 4.7657685745e+00 
232500 4.7628686675e+00 -1.0597492679e-03 2.7515370475e+00 -4.7658019652e+00 2.7515370475e+00 4.7658019652e+00 
232600 4.7628686479e+00 -1.0586168845e-03 2.7515563050e+00 -4.7658353201e+00 2.7515563050e+00 4.7658353201e+00 
232700 4.7628686282e+00 -1.0574856967e-03 2.7515755417e+00 -4.7658686390e+00 2.7515755417e+00 4.7658686390e+00 
232800 4.7628686087e+00 -1.0563557033e-03 2.7515947577e+00 -4.7659019222e+00 2.7515947577e+00 4.7659019222e+00 
232900 4.7628685891e+00 -1.0552269031e-03 2.7516139531e+00 -4.7659351695e+00 2.7516139531e+00 4.7659351695e+00 
233000 4.7628685696e+00 -1.0540992949e-03 2.7516331278e+00 -4.7659683811e+00 2.7516331278e+00 4.7659683811e+00 
233100 4.7628685501e+00 -1.0529728775e-03 2.7516522819e+00 -4.7660015569e+00 2.7516522819e+00 4.7660015569e+00 
233200 4.7628685307e+00 -1.0518476496e-03 2.7516714153e+00 -4.7660346971e+00 2.7516714153e+00 4.7660346971e+00 
233300 4.7628685113e+00 -1.0507236101e-03 2.7516905283e+00 -4.7660678016e+00 2.7516905283e+00 4.7660678016e+00 
233400 4.7628684920e+00 -1.0496007578e-03 2.7517096206e+00 -4.7661008706e+00 2.7517096206e+00 4.7661008706e+00 
233500 4.7628684727e+00 -1.0484790915e-03 2.7517286924e+00 -4.7661339039e+00 2.7517286924e+00 4.7661339039e+00 
233600 4.7628684535e+00 -1.0473586100e-03 2.7517477437e+00 -4.7661669017e+00 2.7517477437e+00 4.7661669017e+00 
233700 4.7628684343e+00 -1.0462393121e-03 2.7517667745e+00 -4.7661998641e+00 2.7517667745e+00 4.7661998641e+00 
233800 4.7628684151e+00 -1.0451211966e-03 2.7517857849e+00 -4.7662327909e+00 2.7517857849e+00 4.7662327909e+00 
233900 4.7628683960e+00 -1.0440042623e-03 2.7518047748e+00 -4.7662656824e+00 2.7518047748e+00 4.7662656824e+00 
234000 4.7628683769e+00 -1.0428885080e-03 2.7518237442e+00 -4.7662985385e+00 2.7518237442e+00 4.7662985385e+00 
234100 4.7628683578e+00 -1.0417739325e-03 2.7518426933e+00 -4.7663313592e+00 2.7518426933e+00 4.7663313592e+00 
234200 4.7628683388e+00 -1.0406605347e-03 2.7518616220e+00 -4.7663641447e+00 2.7518616220e+00 4.7663641447e+00 
234300 4.7628683199e+00 -1.0395483133e-03 2.7518805303e+00 -4.7663968948e+00 2.7518805303e+00 4.7663968948e+00 
234400 4.7628683009e+00 -1.0384372672e-03 2.7518994183e+00 -4.7664296098e+00 2.7518994183e+00 4.7664296098e+00 
234500 4.7628682821e+00 -1.0373273952e-03 2.7519182860e+00 -4.7664622896e+00 2.7519182860e+00 4.7664622896e+00 
234600 4.7628682632e+00 -1.0362186961e-03 2.7519371333e+00 -4.7664949342e+00 2.7519371333e+00 4.7664949342e+00 
234700 4.7628682444e+00 -1.0351111686e-03 2.7519559604e+00 -4.7665275437e+00 2.7519559604e+00 4.7665275437e+00 
234800 4.7628682257e+00 -1.0340048117e-03 2.7519747673e+00 -4.7665601181e+00 2.7519747673e+00 4.7665601181e+00 
234900 4.7628682069e+00 -1.0328996241e-03 2.7519935539e+00 -4.7665926574e+00 2.7519935539e+00 4.7665926574e+00 
235000 4.7628681883e+00 -1.0317956047e-03 2.7520123203e+00 -4.7666251618e+00 2.7520123203e+00 4.7666251618e+00 
235100 4.7628681696e+00 -1.0306927523e-03 2.7520310665e+00 -4.7666576312e+00 2.7520310665e+00 4.7666576312e+00 
235200 4.7628681510e+00 -1.0295910656e-03 2.7520497926e+00 -4.7666900657e+00 2.7520497926e+00 4.7666900657e+00 
235300 4.7628681325e+00 -1.0284905436e-03 2.7520684985e+00 -4.7667224653e+00 2.7520684985e+00 4.7667224653e+00 
235400 4.7628681140e+00 -1.0273911850e-03 2.7520871843e+00 -4.7667548301e+00 2.7520871843e+00 4.7667548301e+00 
235500 4.7628680955e+00 -1.0262929886e-03 2.7521058500e+00 -4.7667871600e+00 2.7521058500e+00 4.7667871600e+00 
235600 4.7628680770e+00 -1.0251959534e-03 2.7521244956e+00 -4.7668194551e+00 2.7521244956e+00 4.7668194551e+00 
235700 4.7628680586e+00 -1.0241000780e-03 2.7521431212e+00 -4.7668517156e+00 2.7521431212e+00 4.7668517156e+00 
235800 4.7628680403e+00 -1.0230053614e-03 2.7521617267e+00 -4.7668839413e+00 2.7521617267e+00 4.7668839413e+00 
235900 4.7628680220e+00 -1.0219118024e-03 2.7521803122e+00 -4.7669161323e+00 2.7521803122e+00 4.7669161323e+00 
236000 4.7628680037e+00 -1.0208193998e-03 2.7521988777e+00 -4.7669482887e+00 2.7521988777e+00 4.7669482887e+00 
236100 4.7628679855e+00 -1.0197281523e-03 2.7522174233e+00 -4.7669804106e+00 2.7522174233e+00 4.7669804106e+00 
236200 4.7628679673e+00 -1.0186380590e-03 2.7522359489e+00 -4.7670124978e+00 2.7522359489e+00 4.7670124978e+00 
236300 4.7628679491e+00 -1.0175491185e-03 2.7522544545e+00 -4.7670445506e+00 2.7522544545e+00 4.7670445506e+00 
236400 4.7628679310e+00 -1.0164613297e-03 2.7522729403e+00 -4.7670765689e+00 2.7522729403e+00 4.7670765689e+00 
236500 4.7628679129e+00 -1.0153746915e-03 2.7522914062e+00 -4.7671085527e+00 2.7522914062e+00 4.7671085527e+00 
236600 4.7628678948e+00 -1.0142892026e-03 2.7523098522e+00 -4.7671405021e+00 2.7523098522e+00 4.7671405021e+00 
236700 4.7628678768e+00 -1.0132048620e-03 2.7523282783e+00 -4.7671724172e+00 2.7523282783e+00 4.7671724172e+00 
236800 4.7628678589e+00 -1.0121216684e-03 2.7523466847e+00 -4.7672042979e+00 2.7523466847e+00 4.7672042979e+00 
236900 4.7628678410e+00 -1.0110396207e-03 2.7523650712e+00 -4.7672361443e+00 2.7523650712e+00 4.7672361443e+00 
237000 4.7628678231e+00 -1.0099587178e-03 2.7523834380e+00 -4.7672679565e+00 2.7523834380e+00 4.7672679565e+00 
237100 4.7628678052e+00 -1.0088789584e-03 2.7524017850e+00 -4.7672997344e+00 2.7524017850e+00 4.7672997344e+00 
237200 4.7628677874e+00 -1.0078003414e-03 2.7524201122e+00 -4.7673314782e+00 2.7524201122e+00 4.7673314782e+00 
237300 4.7628677696e+00 -1.0067228657e-03 2.7524384198e+00 -4.7673631878e+00 2.7524384198e+00 4.7673631878e+00 
237400 4.7628677519e+00 -1.0056465301e-03 2.7524567077e+00 -4.7673948633e+00 2.7524567077e+00 4.7673948633e+00 
237500 4.7628677342e+00 -1.0045713334e-03 2.7524749758e+00 -4.7674265047e+00 2.7524749758e+00 4.7674265047e+00 
237600 4.7628677165e+00 -1.0034972744e-03 2.7524932244e+00 -4.7674581121e+00 2.7524932244e+00 4.7674581121e+00 
237700 4.7628676989e+00 -1.0024243521e-03 2.7525114533e+00 -4.7674896855e+00 2.7525114533e+00 4.7674896855e+00 
237800 4.7628676813e+00 -1.0013525653e-03 2.7525296626e+00 -4.7675212249e+00 2.7525296626e+00 4.7675212249e+00 
237900 4.7628676638e+00 -1.0002819128e-03 2.7525478523e+00 -4.7675527304e+00 2.7525478523e+00 4.7675527304e+00 
238000 4.7628676463e+00 -9.9921239346e-04 2.7525660224e+00 -4.7675842020e+00 2.7525660224e+00 4.7675842020e+00 
238100 4.7628676288e+00 -9.9814400613e-04 2.7525841730e+00 -4.7676156397e+00 2.7525841730e+00 4.7676156397e+00 
238200 4.7628676114e+00 -9.9707674966e-04 2.7526023040e+00 -4.7676470436e+00 2.7526023040e+00 4.7676470436e+00 
238300 4.7628675940e+00 -9.9601062291e-04 2.7526204156e+00 -4.7676784137e+00 2.7526204156e+00 4.7676784137e+00 
238400 4.7628675767e+00 -9.9494562472e-04 2.7526385076e+00 -4.7677097501e+00 2.7526385076e+00 4.7677097501e+00 
238500 4.7628675593e+00 -9.9388175395e-04 2.7526565802e+00 -4.7677410527e+00 2.7526565802e+00 4.7677410527e+00 
238600 4.7628675421e+00 -9.9281900946e-04 2.7526746334e+00 -4.7677723217e+00 2.7526746334e+00 4.7677723217e+00 
238700 4.7628675248e+00 -9.9175739010e-04 2.7526926671e+00 -4.7678035571e+00 2.7526926671e+00 4.7678035571e+00 
238800 4.7628675076e+00 -9.9069689472e-04 2.7527106815e+00 -4.7678347588e+00 2.7527106815e+00 4.7678347588e+00 
238900 4.7628674904e+00 -9.8963752218e-04 2.7527286764e+00 -4.7678659270e+00 2.7527286764e+00 4.7678659270e+00 
239000 4.7628674733e+00 -9.8857927135e-04 2.7527466520e+00 -4.7678970616e+00 2.7527466520e+00 4.7678970616e+00 
239100 4.7628674562e+00 -9.8752214107e-04 2.7527646083e+00 -4.7679281628e+00 2.7527646083e+00 4.7679281628e+00 
239200 4.7628674392e+00 -9.8646613021e-04 2.7527825452e+00 -4.7679592305e+00 2.7527825452e+00 4.7679592305e+00 
239300 4.7628674221e+00 -9.8541123763e-04 2.7528004628e+00 -4.7679902647e+00 2.7528004628e+00 4.7679902647e+00 
239400 4.7628674052e+00 -9.8435746220e-04 2.7528183612e+00 -4.7680212656e+00 2.7528183612e+00 4.7680212656e+00 
239500 4.7628673882e+00 -9.8330480277e-04 2.7528362403e+00 -4.7680522331e+00 2.7528362403e+00 4.7680522331e+00 
239600 4.7628673713e+00 -9.8225325821e-04 2.7528541002e+00 -4.7680831673e+00 2.7528541002e+00 4.7680831673e+00 
239700 4.7628673544e+00 -9.8120282738e-04 2.7528719408e+00 -4.7681140682e+00 2.7528719408e+00 4.7681140682e+00 
239800 4.7628673376e+00 -9.8015350915e-04 2.7528897623e+00 -4.7681449359e+00 2.7528897623e+00 4.7681449359e+00 
239900 4.7628673208e+00 -9.7910530239e-04 2.7529075646e+00 -4.7681757704e+00 2.7529075646e+00 4.7681757704e+00 
240000 4.7628673040e+00 -9.7805820596e-04 2.7529253477e+00 -4.7682065716e+00 2.7529253477e+00 4.7682065716e+00 
240100 4.7628672873e+00 -9.7701221874e-04 2.7529431117e+00 -4.7682373398e+00 2.7529431117e+00 4.7682373398e+00 
240200 4.7628672706e+00 -9.7596733958e-04 2.7529608566e+00 -4.7682680748e+00 2.7529608566e+00 4.7682680748e+00 
240300 4.7628672539e+00 -9.7492356738e-04 2.7529785824e+00 -4.7682987768e+00 2.7529785824e+00 4.7682987768e+00 
240400 4.7628672373e+00 -9.7388090099e-04 2.7529962891e+00 -4.7683294458e+00 2.7529962891e+00 4.7683294458e+00 
240500 4.7628672207e+00 -9.7283933928e-04 2.7530139768e+00 -4.7683600817e+00 2.7530139768e+00 4.7683600817e+00 
240600 4.7628672042e+00 -9.7179888114e-04 2.7530316454e+00 -4.7683906847e+00 2.7530316454e+00 4.7683906847e+00 
240700 4.7628671877e+00 -9.7075952544e-04 2.7530492950e+00 -4.7684212548e+00 2.7530492950e+00 4.7684212548e+00 
240800 4.7628671712e+00 -9.6972127105e-04 2.7530669257e+00 -4.7684517919e+00 2.7530669257e+00 4.7684517919e+00 
240900 4.7628671548e+00 -9.6868411685e-04 2.7530845374e+00 -4.7684822962e+00 2.7530845374e+00 4.7684822962e+00 
241000 4.7628671383e+00 -9.6764806171e-04 2.7531021301e+00 -4.7685127677e+00 2.7531021301e+00 4.7685127677e+00 
241100 4.7628671220e+00 -9.6661310453e-04 2.7531197039e+00 -4.7685432064e+00 2.7531197039e+00 4.7685432064e+00 
241200 4.7628671056e+00 -9.6557924416e-04 2.7531372588e+00 -4.7685736124e+00 2.7531372588e+00 4.7685736124e+00 
241300 4.7628670893e+00 -9.6454647951e-04 2.7531547948e+00 -4.7686039856e+00 2.7531547948e+00 4.7686039856e+00 
241400 4.7628670731e+00 -9.6351480944e-04 2.7531723119e+00 -4.7686343262e+00 2.7531723119e+00 4.7686343262e+00 
241500 4.7628670568e+00 -9.6248423284e-04 2.7531898102e+00 -4.7686646341e+00 2.7531898102e+00 4.7686646341e+00 
241600 4.7628670406e+00 -9.6145474860e-04 2.7532072896e+00 -4.7686949094e+00 2.7532072896e+00 4.7686949094e+00 
241700 4.7628670245e+00 -9.6042635560e-04 2.7532247503e+00 -4.7687251522e+00 2.7532247503e+00 4.7687251522e+00 
241800 4.7628670084e+00 -9.5939905272e-04 2.7532421922e+00 -4.7687553623e+00 2.7532421922e+00 4.7687553623e+00 
241900 4.7628669923e+00 -9.5837283885e-04 2.7532596152e+00 -4.7687855400e+00 2.7532596152e+00 4.7687855400e+00 
242000 4.7628669762e+00 -9.5734771288e-04 2.7532770196e+00 -4.7688156853e+00 2.7532770196e+00 4.7688156853e+00 
242100 4.7628669602e+00 -9.5632367370e-04 2.7532944052e+00 -4.7688457980e+00 2.7532944052e+00 4.7688457980e+00 
242200 4.7628669442e+00 -9.5530072020e-04 2.7533117721e+00 -4.7688758784e+00 2.7533117721e+00 4.7688758784e+00 
242300 4.7628669283e+00 -9.5427885126e-04 2.7533291204e+00 -4.7689059264e+00 2.7533291204e+00 4.7689059264e+00 
242400 4.7628669123e+00 -9.5325806578e-04 2.7533464499e+00 -4.7689359421e+00 2.7533464499e+00 4.7689359421e+00 
242500 4.7628668965e+00 -9.5223836265e-04 2.7533637608e+00 -4.7689659255e+00 2.7533637608e+00 4.7689659255e+00 
242600 4.7628668806e+00 -9.5121974077e-04 2.7533810531e+00 -4.7689958766e+00 2.7533810531e+00 4.7689958766e+00 
242700 4.7628668648e+00 -9.5020219903e-04 2.7533983268e+00 -4.7690257955e+00 2.7533983268e+00 4.7690257955e+00 
242800 4.7628668490e+00 -9.4918573632e-04 2.7534155819e+00 -4.7690556822e+00 2.7534155819e+00 4.7690556822e+00 
242900 4.7628668333e+00 -9.4817035154e-04 2.7534328185e+00 -4.7690855368e+00 2.7534328185e+00 4.7690855368e+00 
243000 4.7628668175e+00 -9.4715604359e-04 2.7534500364e+00 -4.7691153592e+00 2.7534500364e+00 4.7691153592e+00 
243100 4.7628668019e+00 -9.4614281137e-04 2.7534672359e+00 -4.7691451496e+00 2.7534672359e+00 4.7691451496e+00 
243200 4.7628667862e+00 -9.4513065377e-04 2.7534844169e+00 -4.7691749078e+00 2.7534844169e+00 4.7691749078e+00 
243300 4.7628667706e+00 -9.4411956970e-04 2.7535015793e+00 -4.7692046341e+00 2.7535015793e+00 4.7692046341e+00 
243400 4.7628667550e+00 -9.4310955805e-04 2.7535187233e+00 -4.7692343284e+00 2.7535187233e+00 4.7692343284e+00 
243500 4.7628667395e+00 -9.4210061774e-04 2.7535358489e+00 -4.7692639907e+00 2.7535358489e+00 4.7692639907e+00 
243600 4.7628667240e+00 -9.4109274766e-04 2.7535529560e+00 -4.7692936211e+00 2.7535529560e+00 4.7692936211e+00 
243700 4.7628667085e+00 -9.4008594671e-04 2.7535700447e+00 -4.7693232196e+00 2.7535700447e+00 4.7693232196e+00 
243800 4.7628666931e+00 -9.3908021381e-04 2.7535871150e+00 -4.7693527863e+00 2.7535871150e+00 4.7693527863e+00 
243900 4.7628666777e+00 -9.3807554785e-04 2.7536041670e+00 -4.7693823212e+00 2.7536041670e+00 4.7693823212e+00 
244000 4.7628666623e+00 -9.3707194775e-04 2.7536212006e+00 -4.7694118243e+00 2.7536212006e+00 4.7694118243e+00 
244100 4.7628666469e+00 -9.3606941242e-04 2.7536382159e+00 -4.7694412956e+00 2.7536382159e+00 4.7694412956e+00 
244200 4.7628666316e+00 -9.3506794076e-04 2.7536552129e+00 -4.7694707352e+00 2.7536552129e+00 4.7694707352e+00 
244300 4.7628666163e+00 -9.3406753168e-04 2.7536721916e+00 -4.7695001432e+00 2.7536721916e+00 4.7695001432e+00 
244400 4.7628666011e+00 -9.3306818409e-04 2.7536891520e+00 -4.7695295195e+00 2.7536891520e+00 4.7695295195e+00 
244500 4.7628665859e+00 -9.3206989691e-04 2.7537060941e+00 -4.7695588642e+00 2.7537060941e+00 4.7695588642e+00 
244600 4.7628665707e+00 -9.3107266905e-04 2.7537230181e+00 -4.7695881773e+00 2.7537230181e+00 4.7695881773e+00 
244700 4.7628665556e+00 -9.3007649942e-04 2.7537399238e+00 -4.7696174588e+00 2.7537399238e+00 4.7696174588e+00 
244800 4.7628665404e+00 -9.2908138693e-04 2.7537568113e+00 -4.7696467089e+00 2.7537568113e+00 4.7696467089e+00 
244900 4.7628665254e+00 -9.2808733052e-04 2.7537736807e+00 -4.7696759275e+00 2.7537736807e+00 4.7696759275e+00 
245000 4.7628665103e+00 -9.2709432908e-04 2.7537905319e+00 -4.7697051146e+00 2.7537905319e+00 4.7697051146e+00 
245100 4.7628664953e+00 -9.2610238153e-04 2.7538073650e+00 -4.7697342704e+00 2.7538073650e+00 4.7697342704e+00 
245200 4.7628664803e+00 -9.2511148681e-04 2.7538241799e+00 -4.7697633948e+00 2.7538241799e+00 4.7697633948e+00 
245300 4.7628664654e+00 -9.2412164382e-04 2.7538409768e+00 -4.7697924878e+00 2.7538409768e+00 4.7697924878e+00 
245400 4.7628664505e+00 -9.2313285149e-04 2.7538577556e+00 -4.7698215495e+00 2.7538577556e+00 4.7698215495e+00 
245500 4.7628664356e+00 -9.2214510874e-04 2.7538745163e+00 -4.7698505800e+00 2.7538745163e+00 4.7698505800e+00 
245600 4.7628664207e+00 -9.2115841449e-04 2.7538912590e+00 -4.7698795792e+00 2.7538912590e+00 4.7698795792e+00 
245700 4.7628664059e+00 -9.2017276766e-04 2.7539079837e+00 -4.7699085472e+00 2.7539079837e+00 4.7699085472e+00 
245800 4.7628663911e+00 -9.1918816719e-04 2.7539246904e+00 -4.7699374840e+00 2.7539246904e+00 4.7699374840e+00 
245900 4.7628663763e+00 -9.1820461199e-04 2.7539413791e+00 -4.7699663897e+00 2.7539413791e+00 4.7699663897e+00 
246000 4.7628663616e+00 -9.1722210099e-04 2.7539580499e+00 -4.7699952643e+00 2.7539580499e+00 4.7699952643e+00 
246100 4.7628663469e+00 -9.1624063312e-04 2.7539747027e+00 -4.7700241078e+00 2.7539747027e+00 4.7700241078e+00 
246200 4.7628663323e+00 -9.1526020730e-04 2.7539913376e+00 -4.7700529203e+00 2.7539913376e+00 4.7700529203e+00 
246300 4.7628663176e+00 -9.1428082248e-04 2.7540079546e+00 -4.7700817018e+00 2.7540079546e+00 4.7700817018e+00 
246400 4.7628663030e+00 -9.1330247757e-04 2.7540245537e+00 -4.7701104523e+00 2.7540245537e+00 4.7701104523e+00 
246500 4.7628662885e+00 -9.1232517151e-04 2.7540411349e+00 -4.7701391718e+00 2.7540411349e+00 4.7701391718e+00 
246600 4.7628662739e+00 -9.1134890324e-04 2.7540576983e+00 -4.7701678605e+00 2.7540576983e+00 4.7701678605e+00 
246700 4.7628662594e+00 -9.1037367167e-04 2.7540742439e+00 -4.7701965183e+00 2.7540742439e+00 4.7701965183e+00 
246800 4.7628662449e+00 -9.0939947576e-04 2.7540907717e+00 -4.7702251453e+00 2.7540907717e+00 4.7702251453e+00 
246900 4.7628662305e+00 -9.0842631443e-04 2.7541072817e+00 -4.7702537414e+00 2.7541072817e+00 4.7702537414e+00 
247000 4.7628662161e+00 -9.0745418662e-04 2.7541237739e+00 -4.7702823068e+00 2.7541237739e+00 4.7702823068e+00 
247100 4.7628662017e+00 -9.0648309127e-04 2.7541402484e+00 -4.7703108414e+00 2.7541402484e+00 4.7703108414e+00 
247200 4.7628661874e+00 -9.0551302731e-04 2.7541567052e+00 -4.7703393453e+00 2.7541567052e+00 4.7703393453e+00 
247300 4.7628661730e+00 -9.0454399369e-04 2.7541731442e+00 -4.7703678186e+00 2.7541731442e+00 4.7703678186e+00 
247400 4.7628661587e+00 -9.0357598934e-04 2.7541895655e+00 -4.7703962612e+00 2.7541895655e+00 4.7703962612e+00 
247500 4.7628661445e+00 -9.0260901320e-04 2.7542059692e+00 -4.7704246732e+00 2.7542059692e+00 4.7704246732e+00 
247600 4.7628661303e+00 -9.0164306423e-04 2.7542223553e+00 -4.7704530546e+00 2.7542223553e+00 4.7704530546e+00 
247700 4.7628661161e+00 -9.0067814135e-04 2.7542387237e+00 -4.7704814055e+00 2.7542387237e+00 4.7704814055e+00 
247800 4.7628661019e+00 -8.9971424352e-04 2.7542550744e+00 -4.7705097259e+00 2.7542550744e+00 4.7705097259e+00 
247900 4.7628660878e+00 -8.9875136968e-04 2.7542714076e+00 -4.7705380158e+00 2.7542714076e+00 4.7705380158e+00 
248000 4.7628660737e+00 -8.9778951877e-04 2.7542877232e+00 -4.7705662753e+00 2.7542877232e+00 4.7705662753e+00 
248100 4.7628660596e+00 -8.9682868974e-04 2.7543040213e+00 -4.7705945043e+00 2.7543040213e+00 4.7705945043e+00 
248200 4.7628660455e+00 -8.9586888154e-04 2.7543203018e+00 -4.7706227030e+00 2.7543203018e+00 4.7706227030e+00 
248300 4.7628660315e+00 -8.9491009312e-04 2.7543365648e+00 -4.7706508713e+00 2.7543365648e+00 4.7706508713e+00 
248400 4.7628660176e+00 -8.9395232343e-04 2.7543528103e+00 -4.7706790094e+00 2.7543528103e+00 4.7706790094e+00 
248500 4.7628660036e+00 -8.9299557142e-04 2.7543690383e+00 -4.7707071171e+00 2.7543690383e+00 4.7707071171e+00 
248600 4.7628659897e+00 -8.9203983603e-04 2.7543852488e+00 -4.7707351946e+00 2.7543852488e+00 4.7707351946e+00 
248700 4.7628659758e+00 -8.9108511623e-04 2.7544014419e+00 -4.7707632418e+00 2.7544014419e+00 4.7707632418e+00 
248800 4.7628659619e+00 -8.9013141096e-04 2.7544176176e+00 -4.7707912589e+00 2.7544176176e+00 4.7707912589e+00 
248900 4.7628659481e+00 -8.8917871918e-04 2.7544337759e+00 -4.7708192459e+00 2.7544337759e+00 4.7708192459e+00 
249000 4.7628659343e+00 -8.8822703985e-04 2.7544499167e+00 -4.7708472027e+00 2.7544499167e+00 4.7708472027e+00 
249100 4.7628659205e+00 -8.8727637192e-04 2.7544660402e+00 -4.7708751294e+00 2.7544660402e+00 4.7708751294e+00 
249200 4.7628659068e+00 -8.8632671434e-04 2.7544821464e+00 -4.7709030261e+00 2.7544821464e+00 4.7709030261e+00 
249300 4.7628658931e+00 -8.8537806609e-04 2.7544982352e+00 -4.7709308928e+00 2.7544982352e+00 4.7709308928e+00 
249400 4.7628658794e+00 -8.8443042611e-04 2.7545143067e+00 -4.7709587294e+00 2.7545143067e+00 4.7709587294e+00 
249500 4.7628658657e+00 -8.8348379336e-04 2.7545303610e+00 -4.7709865362e+00 2.7545303610e+00 4.7709865362e+00 
249600 4.7628658521e+00 -8.8253816681e-04 2.7545463979e+00 -4.7710143130e+00 2.7545463979e+00 4.7710143130e+00 
249700 4.7628658385e+00 -8.8159354543e-04 2.7545624176e+00 -4.7710420599e+00 2.7545624176e+00 4.7710420599e+00 
249800 4.7628658249e+00 -8.8064992816e-04 2.7545784200e+00 -4.7710697769e+00 2.7545784200e+00 4.7710697769e+00 
249900 4.7628658114e+00 -8.7970731398e-04 2.7545944052e+00 -4.7710974641e+00 2.7545944052e+00 4.7710974641e+00 
250000 4.7628657979e+00 -8.7876570185e-04 2.7546103732e+00 -4.7711251215e+00 2.7546103732e+00 4.7711251215e+00 
250100 4.7628657844e+00 -8.7782509074e-04 2.7546263241e+00 -4.7711527492e+00 2.7546263241e+00 4.7711527492e+00 
250200 4.7628657710e+00 -8.7688547961e-04 2.7546422577e+00 -4.7711803471e+00 2.7546422577e+00 4.7711803471e+00 
250300 4.7628657575e+00 -8.7594686743e-04 2.7546581743e+00 -4.7712079153e+00 2.7546581743e+00 4.7712079153e+00 
250400 4.7628657442e+00 -8.7500925317e-04 2.7546740737e+00 -4.7712354539e+00 2.7546740737e+00 4.7712354539e+00 
250500 4.7628657308e+00 -8.7407263580e-04 2.7546899559e+00 -4.7712629628e+00 2.7546899559e+00 4.7712629628e+00 
250600 4.7628657175e+00 -8.7313701429e-04 2.7547058211e+00 -4.7712904421e+00 2.7547058211e+00 4.7712904421e+00 
250700 4.7628657042e+00 -8.7220238762e-04 2.7547216692e+00 -4.7713178918e+00 2.7547216692e+00 4.7713178918e+00 
250800 4.7628656909e+00 -8.7126875474e-04 2.7547375003e+00 -4.7713453120e+00 2.7547375003e+00 4.7713453120e+00 
250900 4.7628656776e+00 -8.7033611465e-04 2.7547533143e+00 -4.7713727027e+00 2.7547533143e+00 4.7713727027e+00 
251000 4.7628656644e+00 -8.6940446630e-04 2.7547691113e+00 -4.7714000639e+00 2.7547691113e+00 4.7714000639e+00 
251100 4.7628656512e+00 -8.6847380869e-04 2.7547848913e+00 -4.7714273957e+00 2.7547848913e+00 4.7714273957e+00 
251200 4.7628656381e+00 -8.6754414077e-04 2.7548006543e+00 -4.7714546980e+00 2.7548006543e+00 4.7714546980e+00 
251300 4.7628656249e+00 -8.6661546154e-04 2.7548164004e+00 -4.7714819710e+00 2.7548164004e+00 4.7714819710e+00 
251400 4.7628656118e+00 -8.6568776996e-04 2.7548321295e+00 -4.7715092146e+00 2.7548321295e+00 4.7715092146e+00 
251500 4.7628655987e+00 -8.6476106502e-04 2.7548478417e+00 -4.7715364289e+00 2.7548478417e+00 4.7715364289e+00 
251600 4.7628655857e+00 -8.6383534570e-04 2.7548635370e+00 -4.7715636140e+00 2.7548635370e+00 4.7715636140e+00 
251700 4.7628655727e+00 -8.6291061098e-04 2.7548792154e+00 -4.7715907697e+00 2.7548792154e+00 4.7715907697e+00 
251800 4.7628655597e+00 -8.6198685984e-04 2.7548948769e+00 -4.7716178962e+00 2.7548948769e+00 4.7716178962e+00 
251900 4.7628655467e+00 -8.6106409126e-04 2.7549105215e+00 -4.7716449936e+00 2.7549105215e+00 4.7716449936e+00 
252000 4.7628655338e+00 -8.6014230423e-04 2.7549261493e+00 -4.7716720618e+00 2.7549261493e+00 4.7716720618e+00 
252100 4.7628655209e+00 -8.5922149772e-04 2.7549417603e+00 -4.7716991008e+00 2.7549417603e+00 4.7716991008e+00 
252200 4.7628655080e+00 -8.5830167074e-04 2.7549573545e+00 -4.7717261108e+00 2.7549573545e+00 4.7717261108e+00 
252300 4.7628654951e+00 -8.5738282226e-04 2.7549729320e+00 -4.7717530916e+00 2.7549729320e+00 4.7717530916e+00 
252400 4.7628654823e+00 -8.5646495127e-04 2.7549884926e+00 -4.7717800435e+00 2.7549884926e+00 4.7717800435e+00 
252500 4.7628654695e+00 -8.5554805676e-04 2.7550040365e+00 -4.7718069663e+00 2.7550040365e+00 4.7718069663e+00 
252600 4.7628654567e+00 -8.5463213773e-04 2.7550195637e+00 -4.7718338602e+00 2.7550195637e+00 4.7718338602e+00 
252700 4.7628654440e+00 -8.5371719315e-04 2.7550350742e+00 -4.7718607251e+00 2.7550350742e+00 4.7718607251e+00 
252800 4.7628654313e+00 -8.5280322202e-04 2.7550505680e+00 -4.7718875611e+00 2.7550505680e+00 4.7718875611e+00 
252900 4.7628654186e+00 -8.5189022333e-04 2.7550660451e+00 -4.7719143682e+00 2.7550660451e+00 4.7719143682e+00 
253000 4.7628654059e+00 -8.5097819608e-04 2.7550815055e+00 -4.7719411465e+00 2.7550815055e+00 4.7719411465e+00 
253100 4.7628653933e+00 -8.5006713926e-04 2.7550969493e+00 -4.7719678960e+00 2.7550969493e+00 4.7719678960e+00 
253200 4.7628653807e+00 -8.4915705187e-04 2.7551123765e+00 -4.7719946167e+00 2.7551123765e+00 4.7719946167e+00 
253300 4.7628653681e+00 -8.4824793289e-04 2.7551277871e+00 -4.7720213086e+00 2.7551277871e+00 4.7720213086e+00 
253400 4.7628653556e+00 -8.4733978134e-04 2.7551431811e+00 -4.7720479718e+00 2.7551431811e+00 4.7720479718e+00 
253500 4.7628653430e+00 -8.4643259620e-04 2.7551585585e+00 -4.7720746063e+00 2.7551585585e+00 4.7720746063e+00 
253600 4.7628653305e+00 -8.4552637647e-04 2.7551739194e+00 -4.7721012121e+00 2.7551739194e+00 4.7721012121e+00 
253700 4.7628653181e+00 -8.4462112116e-04 2.7551892637e+00 -4.7721277893e+00 2.7551892637e+00 4.7721277893e+00 
253800 4.7628653056e+00 -8.4371682927e-04 2.7552045916e+00 -4.7721543379e+00 2.7552045916e+00 4.7721543379e+00 
253900 4.7628652932e+00 -8.4281349979e-04 2.7552199029e+00 -4.7721808579e+00 2.7552199029e+00 4.7721808579e+00 
254000 4.7628652808e+00 -8.4191113173e-04 2.7552351978e+00 -4.7722073494e+00 2.7552351978e+00 4.7722073494e+00 
254100 4.7628652685e+00 -8.4100972409e-04 2.7552504762e+00 -4.7722338124e+00 2.7552504762e+00 4.7722338124e+00 
254200 4.7628652561e+00 -8.4010927588e-04 2.7552657382e+00 -4.7722602468e+00 2.7552657382e+00 4.7722602468e+00 
254300 4.7628652438e+00 -8.3920978610e-04 2.7552809837e+00 -4.7722866529e+00 2.7552809837e+00 4.7722866529e+00 
254400 4.7628652315e+00 -8.3831125376e-04 2.7552962128e+00 -4.7723130305e+00 2.7552962128e+00 4.7723130305e+00 
254500 4.7628652193e+00 -8.3741367786e-04 2.7553114256e+00 -4.7723393797e+00 2.7553114256e+00 4.7723393797e+00 
254600 4.7628652071e+00 -8.3651705742e-04 2.7553266219e+00 -4.7723657006e+00 2.7553266219e+00 4.7723657006e+00 
254700 4.7628651948e+00 -8.3562139144e-04 2.7553418019e+00 -4.7723919932e+00 2.7553418019e+00 4.7723919932e+00 
254800 4.7628651827e+00 -8.3472667893e-04 2.7553569656e+00 -4.7724182574e+00 2.7553569656e+00 4.7724182574e+00 
254900 4.7628651705e+00 -8.3383291891e-04 2.7553721130e+00 -4.7724444934e+00 2.7553721130e+00 4.7724444934e+00 
255000 4.7628651584e+00 -8.3294011038e-04 2.7553872440e+00 -4.7724707012e+00 2.7553872440e+00 4.7724707012e+00 
255100 4.7628651463e+00 -8.3204825235e-04 2.7554023588e+00 -4.7724968807e+00 2.7554023588e+00 4.7724968807e+00 
255200 4.7628651342e+00 -8.3115734385e-04 2.7554174573e+00 -4.7725230321e+00 2.7554174573e+00 4.7725230321e+00 
255300 4.7628651222e+00 -8.3026738389e-04 2.7554325396e+00 -4.7725491553e+00 2.7554325396e+00 4.7725491553e+00 
255400 4.7628651102e+00 -8.2937837147e-04 2.7554476056e+00 -4.7725752504e+00 2.7554476056e+00 4.7725752504e+00 
255500 4.7628650982e+00 -8.2849030562e-04 2.7554626554e+00 -4.7726013175e+00 2.7554626554e+00 4.7726013175e+00 
255600 4.7628650862e+00 -8.2760318536e-04 2.7554776890e+00 -4.7726273565e+00 2.7554776890e+00 4.7726273565e+00 
255700 4.7628650742e+00 -8.2671700970e-04 2.7554927064e+00 -4.7726533674e+00 2.7554927064e+00 4.7726533674e+00 
255800 4.7628650623e+00 -8.2583177767e-04 2.7555077077e+00 -4.7726793504e+00 2.7555077077e+00 4.7726793504e+00 
255900 4.7628650504e+00 -8.2494748827e-04 2.7555226928e+00 -4.7727053054e+00 2.7555226928e+00 4.7727053054e+00 
256000 4.7628650386e+00 -8.2406414054e-04 2.7555376618e+00 -4.7727312324e+00 2.7555376618e+00 4.7727312324e+00 
256100 4.7628650267e+00 -8.2318173349e-04 2.7555526147e+00 -4.7727571316e+00 2.7555526147e+00 4.7727571316e+00 
256200 4.7628650149e+00 -8.2230026615e-04 2.7555675515e+00 -4.7727830029e+00 2.7555675515e+00 4.7727830029e+00 
256300 4.7628650031e+00 -8.2141973755e-04 2.7555824722e+00 -4.7728088463e+00 2.7555824722e+00 4.7728088463e+00 
256400 4.7628649914e+00 -8.2054014670e-04 2.7555973769e+00 -4.7728346620e+00 2.7555973769e+00 4.7728346620e+00 
256500 4.7628649796e+00 -8.1966149263e-04 2.7556122655e+00 -4.7728604498e+00 2.7556122655e+00 4.7728604498e+00 
256600 4.7628649679e+00 -8.1878377437e-04 2.7556271381e+00 -4.7728862099e+00 2.7556271381e+00 4.7728862099e+00 
256700 4.7628649562e+00 -8.1790699094e-04 2.7556419947e+00 -4.7729119423e+00 2.7556419947e+00 4.7729119423e+00 
256800 4.7628649446e+00 -8.1703114138e-04 2.7556568353e+00 -4.7729376469e+00 2.7556568353e+00 4.7729376469e+00 
256900 4.7628649329e+00 -8.1615622472e-04 2.7556716599e+00 -4.7729633240e+00 2.7556716599e+00 4.7729633240e+00 
257000 4.7628649213e+00 -8.1528223997e-04 2.7556864686e+00 -4.7729889733e+00 2.7556864686e+00 4.7729889733e+00 
257100 4.7628649097e+00 -8.1440918619e-04 2.7557012613e+00 -4.7730145951e+00 2.7557012613e+00 4.7730145951e+00 
257200 4.7628648982e+00 -8.1353706238e-04 2.7557160382e+00 -4.7730401893e+00 2.7557160382e+00 4.7730401893e+00 
257300 4.7628648866e+00 -8.1266586760e-04 2.7557307991e+00 -4.7730657560e+00 2.7557307991e+00 4.7730657560e+00 
257400 4.7628648751e+00 -8.1179560087e-04 2.7557455441e+00 -4.7730912951e+00 2.7557455441e+00 4.7730912951e+00 
257500 4.7628648636e+00 -8.1092626123e-04 2.7557602733e+00 -4.7731168068e+00 2.7557602733e+00 4.7731168068e+00 
257600 4.7628648522e+00 -8.1005784772e-04 2.7557749866e+00 -4.7731422910e+00 2.7557749866e+00 4.7731422910e+00 
257700 4.7628648407e+00 -8.0919035936e-04 2.7557896840e+00 -4.7731677477e+00 2.7557896840e+00 4.7731677477e+00 
257800 4.7628648293e+00 -8.0832379521e-04 2.7558043657e+00 -4.7731931771e+00 2.7558043657e+00 4.7731931771e+00 
257900 4.7628648179e+00 -8.0745815428e-04 2.7558190315e+00 -4.7732185791e+00 2.7558190315e+00 4.7732185791e+00 
258000 4.7628648066e+00 -8.0659343564e-04 2.7558336816e+00 -4.7732439538e+00 2.7558336816e+00 4.7732439538e+00 
258100 4.7628647952e+00 -8.0572963831e-04 2.7558483159e+00 -4.7732693011e+00 2.7558483159e+00 4.7732693011e+00 
258200 4.7628647839e+00 -8.0486676134e-04 2.7558629345e+00 -4.7732946212e+00 2.7558629345e+00 4.7732946212e+00 
258300 4.7628647726e+00 -8.0400480376e-04 2.7558775373e+00 -4.7733199140e+00 2.7558775373e+00 4.7733199140e+00 
258400 4.7628647613e+00 -8.0314376463e-04 2.7558921244e+00 -4.7733451796e+00 2.7558921244e+00 4.7733451796e+00 
258500 4.7628647501e+00 -8.0228364298e-04 2.7559066958e+00 -4.7733704181e+00 2.7559066958e+00 4.7733704181e+00 
258600 4.7628647389e+00 -8.0142443787e-04 2.7559212515e+00 -4.7733956293e+00 2.7559212515e+00 4.7733956293e+00 
258700 4.7628647277e+00 -8.0056614833e-04 2.7559357916e+00 -4.7734208134e+00 2.7559357916e+00 4.7734208134e+00 
258800 4.7628647165e+00 -7.9970877341e-04 2.7559503160e+00 -4.7734459704e+00 2.7559503160e+00 4.7734459704e+00 
258900 4.7628647054e+00 -7.9885231216e-04 2.7559648248e+00 -4.7734711004e+00 2.7559648248e+00 4.7734711004e+00 
259000 4.7628646943e+00 -7.9799676364e-04 2.7559793179e+00 -4.7734962033e+00 2.7559793179e+00 4.7734962033e+00 
259100 4.7628646832e+00 -7.9714212688e-04 2.7559937955e+00 -4.7735212792e+00 2.7559937955e+00 4.7735212792e+00 
259200 4.7628646721e+00 -7.9628840093e-04 2.7560082575e+00 -4.7735463281e+00 2.7560082575e+00 4.7735463281e+00 
259300 4.7628646610e+00 -7.9543558486e-04 2.7560227039e+00 -4.7735713500e+00 2.7560227039e+00 4.7735713500e+00 
259400 4.7628646500e+00 -7.9458367771e-04 2.7560371348e+00 -4.7735963450e+00 2.7560371348e+00 4.7735963450e+00 
259500 4.7628646390e+00 -7.9373267853e-04 2.7560515501e+00 -4.7736213131e+00 2.7560515501e+00 4.7736213131e+00 
259600 4.7628646280e+00 -7.9288258638e-04 2.7560659500e+00 -4.7736462543e+00 2.7560659500e+00 4.7736462543e+00 
259700 4.7628646171e+00 -7.9203340031e-04 2.7560803343e+00 -4.7736711687e+00 2.7560803343e+00 4.7736711687e+00 
259800 4.7628646061e+00 -7.9118511938e-04 2.7560947031e+00 -4.7736960563e+00 2.7560947031e+00 4.7736960563e+00 
259900 4.7628645952e+00 -7.9033774265e-04 2.7561090565e+00 -4.7737209171e+00 2.7561090565e+00 4.7737209171e+00 
260000 4.7628645843e+00 -7.8949126916e-04 2.7561233945e+00 -4.7737457511e+00 2.7561233945e+00 4.7737457511e+00 
260100 4.7628645735e+00 -7.8864569799e-04 2.7561377170e+00 -4.7737705584e+00 2.7561377170e+00 4.7737705584e+00 
260200 4.7628645626e+00 -7.8780102819e-04 2.7561520241e+00 -4.7737953391e+00 2.7561520241e+00 4.7737953391e+00 
260300 4.7628645518e+00 -7.8695725881e-04 2.7561663158e+00 -4.7738200930e+00 2.7561663158e+00 4.7738200930e+00 
260400 4.7628645410e+00 -7.8611438893e-04 2.7561805921e+00 -4.7738448203e+00 2.7561805921e+00 4.7738448203e+00 
260500 4.7628645303e+00 -7.8527241760e-04 2.7561948530e+00 -4.7738695210e+00 2.7561948530e+00 4.7738695210e+00 
260600 4.7628645195e+00 -7.8443134388e-04 2.7562090986e+00 -4.7738941951e+00 2.7562090986e+00 4.7738941951e+00 
260700 4.7628645088e+00 -7.8359116684e-04 2.7562233289e+00 -4.7739188427e+00 2.7562233289e+00 4.7739188427e+00 
260800 4.7628644981e+00 -7.8275188555e-04 2.7562375438e+00 -4.7739434637e+00 2.7562375438e+00 4.7739434637e+00 
260900 4.7628644874e+00 -7.8191349906e-04 2.7562517435e+00 -4.7739680582e+00 2.7562517435e+00 4.7739680582e+00 
261000 4.7628644768e+00 -7.8107600645e-04 2.7562659279e+00 -4.7739926263e+00 2.7562659279e+00 4.7739926263e+00 
261100 4.7628644662e+00 -7.8023940678e-04 2.7562800970e+00 -4.7740171679e+00 2.7562800970e+00 4.7740171679e+00 
261200 4.7628644556e+00 -7.7940369913e-04 2.7562942509e+00 -4.7740416831e+00 2.7562942509e+00 4.7740416831e+00 
261300 4.7628644450e+00 -7.7856888255e-04 2.7563083895e+00 -4.7740661719e+00 2.7563083895e+00 4.7740661719e+00 
261400 4.7628644344e+00 -7.7773495612e-04 2.7563225129e+00 -4.7740906344e+00 2.7563225129e+00 4.7740906344e+00 
261500 4.7628644239e+00 -7.7690191891e-04 2.7563366211e+00 -4.7741150705e+00 2.7563366211e+00 4.7741150705e+00 
261600 4.7628644134e+00 -7.7606977000e-04 2.7563507141e+00 -4.7741394804e+00 2.7563507141e+00 4.7741394804e+00 
261700 4.7628644029e+00 -7.7523850845e-04 2.7563647920e+00 -4.7741638639e+00 2.7563647920e+00 4.7741638639e+00 
261800 4.7628643924e+00 -7.7440813333e-04 2.7563788547e+00 -4.7741882212e+00 2.7563788547e+00 4.7741882212e+00 
261900 4.7628643819e+00 -7.7357864373e-04 2.7563929023e+00 -4.7742125524e+00 2.7563929023e+00 4.7742125524e+00 
262000 4.7628643715e+00 -7.7275003872e-04 2.7564069347e+00 -4.7742368573e+00 2.7564069347e+00 4.7742368573e+00 
262100 4.7628643611e+00 -7.7192231737e-04 2.7564209521e+00 -4.7742611361e+00 2.7564209521e+00 4.7742611361e+00 
262200 4.7628643507e+00 -7.7109547876e-04 2.7564349544e+00 -4.7742853887e+00 2.7564349544e+00 4.7742853887e+00 
262300 4.7628643404e+00 -7.7026952197e-04 2.7564489416e+00 -4.7743096152e+00 2.7564489416e+00 4.7743096152e+00 
262400 4.7628643301e+00 -7.6944444608e-04 2.7564629137e+00 -4.7743338157e+00 2.7564629137e+00 4.7743338157e+00 
262500 4.7628643197e+00 -7.6862025017e-04 2.7564768708e+00 -4.7743579901e+00 2.7564768708e+00 4.7743579901e+00 
262600 4.7628643094e+00 -7.6779693331e-04 2.7564908129e+00 -4.7743821385e+00 2.7564908129e+00 4.7743821385e+00 
262700 4.7628642992e+00 -7.6697449460e-04 2.7565047400e+00 -4.7744062610e+00 2.7565047400e+00 4.7744062610e+00 
262800 4.7628642889e+00 -7.6615293310e-04 2.7565186521e+00 -4.7744303574e+00 2.7565186521e+00 4.7744303574e+00 
262900 4.7628642787e+00 -7.6533224791e-04 2.7565325492e+00 -4.7744544279e+00 2.7565325492e+00 4.7744544279e+00 
263000 4.7628642685e+00 -7.6451243811e-04 2.7565464314e+00 -4.7744784726e+00 2.7565464314e+00 4.7744784726e+00 
263100 4.7628642583e+00 -7.6369350278e-04 2.7565602986e+00 -4.7745024913e+00 2.7565602986e+00 4.7745024913e+00 
263200 4.7628642482e+00 -7.6287544102e-04 2.7565741509e+00 -4.7745264842e+00 2.7565741509e+00 4.7745264842e+00 
263300 4.7628642380e+00 -7.6205825190e-04 2.7565879883e+00 -4.7745504513e+00 2.7565879883e+00 4.7745504513e+00 
263400 4.7628642279e+00 -7.6124193451e-04 2.7566018108e+00 -4.7745743925e+00 2.7566018108e+00 4.7745743925e+00 
263500 4.7628642178e+00 -7.6042648795e-04 2.7566156184e+00 -4.7745983080e+00 2.7566156184e+00 4.7745983080e+00 
263600 4.7628642078e+00 -7.5961191130e-04 2.7566294112e+00 -4.7746221978e+00 2.7566294112e+00 4.7746221978e+00 
263700 4.7628641977e+00 -7.5879820365e-04 2.7566431891e+00 -4.7746460619e+00 2.7566431891e+00 4.7746460619e+00 
263800 4.7628641877e+00 -7.5798536410e-04 2.7566569522e+00 -4.7746699003e+00 2.7566569522e+00 4.7746699003e+00 
263900 4.7628641777e+00 -7.5717339173e-04 2.7566707005e+00 -4.7746937130e+00 2.7566707005e+00 4.7746937130e+00 
264000 4.7628641677e+00 -7.5636228564e-04 2.7566844340e+00 -4.7747175001e+00 2.7566844340e+00 4.7747175001e+00 
264100 4.7628641577e+00 -7.5555204493e-04 2.7566981527e+00 -4.7747412616e+00 2.7566981527e+00 4.7747412616e+00 
264200 4.7628641478e+00 -7.5474266868e-04 2.7567118566e+00 -4.7747649975e+00 2.7567118566e+00 4.7747649975e+00 
264300 4.7628641379e+00 -7.5393415599e-04 2.7567255458e+00 -4.7747887079e+00 2.7567255458e+00 4.7747887079e+00 
264400 4.7628641280e+00 -7.5312650596e-04 2.7567392203e+00 -4.7748123927e+00 2.7567392203e+00 4.7748123927e+00 
264500 4.7628641181e+00 -7.5231971769e-04 2.7567528800e+00 -4.7748360521e+00 2.7567528800e+00 4.7748360521e+00 
264600 4.7628641082e+00 -7.5151379027e-04 2.7567665251e+00 -4.7748596860e+00 2.7567665251e+00 4.7748596860e+00 
264700 4.7628640984e+00 -7.5070872281e-04 2.7567801554e+00 -4.7748832945e+00 2.7567801554e+00 4.7748832945e+00 
264800 4.7628640886e+00 -7.4990451440e-04 2.7567937711e+00 -4.7749068776e+00 2.7567937711e+00 4.7749068776e+00 
264900 4.7628640788e+00 -7.4910116414e-04 2.7568073722e+00 -4.7749304353e+00 2.7568073722e+00 4.7749304353e+00 
265000 4.7628640690e+00 -7.4829867114e-04 2.7568209586e+00 -4.7749539676e+00 2.7568209586e+00 4.7749539676e+00 
265100 4.7628640593e+00 -7.4749703450e-04 2.7568345303e+00 -4.7749774746e+00 2.7568345303e+00 4.7749774746e+00 
265200 4.7628640496e+00 -7.4669625332e-04 2.7568480875e+00 -4.7750009563e+00 2.7568480875e+00 4.7750009563e+00 
265300 4.7628640398e+00 -7.4589632671e-04 2.7568616301e+00 -4.7750244128e+00 2.7568616301e+00 4.7750244128e+00 
265400 4.7628640302e+00 -7.4509725376e-04 2.7568751581e+00 -4.7750478440e+00 2.7568751581e+00 4.7750478440e+00 
265500 4.7628640205e+00 -7.4429903360e-04 2.7568886716e+00 -4.7750712499e+00 2.7568886716e+00 4.7750712499e+00 
265600 4.7628640108e+00 -7.4350166532e-04 2.7569021705e+00 -4.7750946307e+00 2.7569021705e+00 4.7750946307e+00 
265700 4.7628640012e+00 -7.4270514803e-04 2.7569156548e+00 -4.7751179864e+00 2.7569156548e+00 4.7751179864e+00 
265800 4.7628639916e+00 -7.4190948084e-04 2.7569291247e+00 -4.7751413169e+00 2.7569291247e+00 4.7751413169e+00 
265900 4.7628639820e+00 -7.4111466286e-04 2.7569425801e+00 -4.7751646222e+00 2.7569425801e+00 4.7751646222e+00 
266000 4.7628639725e+00 -7.4032069320e-04 2.7569560210e+00 -4.7751879026e+00 2.7569560210e+00 4.7751879026e+00 
266100 4.7628639629e+00 -7.3952757097e-04 2.7569694474e+00 -4.7752111578e+00 2.7569694474e+00 4.7752111578e+00 
266200 4.7628639534e+00 -7.3873529528e-04 2.7569828594e+00 -4.7752343880e+00 2.7569828594e+00 4.7752343880e+00 
266300 4.7628639439e+00 -7.3794386525e-04 2.7569962569e+00 -4.7752575933e+00 2.7569962569e+00 4.7752575933e+00 
266400 4.7628639344e+00 -7.3715327999e-04 2.7570096400e+00 -4.7752807735e+00 2.7570096400e+00 4.7752807735e+00 
266500 4.7628639250e+00 -7.3636353862e-04 2.7570230088e+00 -4.7753039288e+00 2.7570230088e+00 4.7753039288e+00 
266600 4.7628639155e+00 -7.3557464025e-04 2.7570363631e+00 -4.7753270592e+00 2.7570363631e+00 4.7753270592e+00 
266700 4.7628639061e+00 -7.3478658399e-04 2.7570497031e+00 -4.7753501647e+00 2.7570497031e+00 4.7753501647e+00 
266800 4.7628638967e+00 -7.3399936896e-04 2.7570630287e+00 -4.7753732453e+00 2.7570630287e+00 4.7753732453e+00 
266900 4.7628638873e+00 -7.3321299429e-04 2.7570763399e+00 -4.7753963011e+00 2.7570763399e+00 4.7753963011e+00 
267000 4.7628638780e+00 -7.3242745909e-04 2.7570896369e+00 -4.7754193321e+00 2.7570896369e+00 4.7754193321e+00 
267100 4.7628638686e+00 -7.3164276248e-04 2.7571029195e+00 -4.7754423383e+00 2.7571029195e+00 4.7754423383e+00 
267200 4.7628638593e+00 -7.3085890358e-04 2.7571161878e+00 -4.7754653197e+00 2.7571161878e+00 4.7754653197e+00 
267300 4.7628638500e+00 -7.3007588151e-04 2.7571294419e+00 -4.7754882764e+00 2.7571294419e+00 4.7754882764e+00 
267400 4.7628638408e+00 -7.2929369540e-04 2.7571426817e+00 -4.7755112084e+00 2.7571426817e+00 4.7755112084e+00 
267500 4.7628638315e+00 -7.2851234436e-04 2.7571559072e+00 -4.7755341157e+00 2.7571559072e+00 4.7755341157e+00 
267600 4.7628638223e+00 -7.2773182753e-04 2.7571691185e+00 -4.7755569984e+00 2.7571691185e+00 4.7755569984e+00 
267700 4.7628638130e+00 -7.2695214403e-04 2.7571823156e+00 -4.7755798564e+00 2.7571823156e+00 4.7755798564e+00 
267800 4.7628638038e+00 -7.2617329298e-04 2.7571954985e+00 -4.7756026898e+00 2.7571954985e+00 4.7756026898e+00 
267900 4.7628637947e+00 -7.2539527350e-04 2.7572086672e+00 -4.7756254987e+00 2.7572086672e+00 4.7756254987e+00 
268000 4.7628637855e+00 -7.2461808474e-04 2.7572218218e+00 -4.7756482830e+00 2.7572218218e+00 4.7756482830e+00 
268100 4.7628637764e+00 -7.2384172581e-04 2.7572349621e+00 -4.7756710428e+00 2.7572349621e+00 4.7756710428e+00 
268200 4.7628637672e+00 -7.2306619585e-04 2.7572480884e+00 -4.7756937781e+00 2.7572480884e+00 4.7756937781e+00 
268300 4.7628637582e+00 -7.2229149398e-04 2.7572612005e+00 -4.7757164890e+00 2.7572612005e+00 4.7757164890e+00 
268400 4.7628637491e+00 -7.2151761933e-04 2.7572742985e+00 -4.7757391754e+00 2.7572742985e+00 4.7757391754e+00 
268500 4.7628637400e+00 -7.2074457105e-04 2.7572873824e+00 -4.7757618374e+00 2.7572873824e+00 4.7757618374e+00 
268600 4.7628637310e+00 -7.1997234825e-04 2.7573004522e+00 -4.7757844750e+00 2.7573004522e+00 4.7757844750e+00 
268700 4.7628637220e+00 -7.1920095008e-04 2.7573135080e+00 -4.7758070882e+00 2.7573135080e+00 4.7758070882e+00 
268800 4.7628637129e+00 -7.1843037567e-04 2.7573265497e+00 -4.7758296771e+00 2.7573265497e+00 4.7758296771e+00 
268900 4.7628637040e+00 -7.1766062414e-04 2.7573395773e+00 -4.7758522417e+00 2.7573395773e+00 4.7758522417e+00 
269000 4.7628636950e+00 -7.1689169465e-04 2.7573525910e+00 -4.7758747820e+00 2.7573525910e+00 4.7758747820e+00 
269100 4.7628636861e+00 -7.1612358633e-04 2.7573655906e+00 -4.7758972980e+00 2.7573655906e+00 4.7758972980e+00 
269200 4.7628636771e+00 -7.1535629830e-04 2.7573785763e+00 -4.7759197899e+00 2.7573785763e+00 4.7759197899e+00 
269300 4.7628636682e+00 -7.1458982972e-04 2.7573915480e+00 -4.7759422575e+00 2.7573915480e+00 4.7759422575e+00 
269400 4.7628636593e+00 -7.1382417972e-04 2.7574045057e+00 -4.7759647009e+00 2.7574045057e+00 4.7759647009e+00 
269500 4.7628636505e+00 -7.1305934744e-04 2.7574174495e+00 -4.7759871202e+00 2.7574174495e+00 4.7759871202e+00 
269600 4.7628636416e+00 -7.1229533203e-04 2.7574303793e+00 -4.7760095154e+00 2.7574303793e+00 4.7760095154e+00 
269700 4.7628636328e+00 -7.1153213262e-04 2.7574432953e+00 -4.7760318864e+00 2.7574432953e+00 4.7760318864e+00 
269800 4.7628636240e+00 -7.1076974836e-04 2.7574561973e+00 -4.7760542334e+00 2.7574561973e+00 4.7760542334e+00 
269900 4.7628636152e+00 -7.1000817838e-04 2.7574690855e+00 -4.7760765563e+00 2.7574690855e+00 4.7760765563e+00 
270000 4.7628636064e+00 -7.0924742185e-04 2.7574819598e+00 -4.7760988552e+00 2.7574819598e+00 4.7760988552e+00 
270100 4.7628635977e+00 -7.0848747789e-04 2.7574948202e+00 -4.7761211302e+00 2.7574948202e+00 4.7761211302e+00 
270200 4.7628635889e+00 -7.0772834566e-04 2.7575076668e+00 -4.7761433811e+00 2.7575076668e+00 4.7761433811e+00 
270300 4.7628635802e+00 -7.0697002431e-04 2.7575204995e+00 -4.7761656081e+00 2.7575204995e+00 4.7761656081e+00 
270400 4.7628635715e+00 -7.0621251297e-04 2.7575333185e+00 -4.7761878112e+00 2.7575333185e+00 4.7761878112e+00 
270500 4.7628635629e+00 -7.0545581081e-04 2.7575461236e+00 -4.7762099904e+00 2.7575461236e+00 4.7762099904e+00 
270600 4.7628635542e+00 -7.0469991697e-04 2.7575589150e+00 -4.7762321457e+00 2.7575589150e+00 4.7762321457e+00 
270700 4.7628635456e+00 -7.0394483059e-04 2.7575716926e+00 -4.7762542772e+00 2.7575716926e+00 4.7762542772e+00 
270800 4.7628635369e+00 -7.0319055084e-04 2.7575844565e+00 -4.7762763848e+00 2.7575844565e+00 4.7762763848e+00 
270900 4.7628635283e+00 -7.0243707686e-04 2.7575972066e+00 -4.7762984687e+00 2.7575972066e+00 4.7762984687e+00 
271000 4.7628635198e+00 -7.0168440781e-04 2.7576099430e+00 -4.7763205288e+00 2.7576099430e+00 4.7763205288e+00 
271100 4.7628635112e+00 -7.0093254283e-04 2.7576226657e+00 -4.7763425652e+00 2.7576226657e+00 4.7763425652e+00 
271200 4.7628635026e+00 -7.0018148109e-04 2.7576353747e+00 -4.7763645778e+00 2.7576353747e+00 4.7763645778e+00 
271300 4.7628634941e+00 -6.9943122174e-04 2.7576480701e+00 -4.7763865668e+00 2.7576480701e+00 4.7763865668e+00 
271400 4.7628634856e+00 -6.9868176394e-04 2.7576607518e+00 -4.7764085321e+00 2.7576607518e+00 4.7764085321e+00 
271500 4.7628634771e+00 -6.9793310683e-04 2.7576734198e+00 -4.7764304737e+00 2.7576734198e+00 4.7764304737e+00 
271600 4.7628634686e+00 -6.9718524959e-04 2.7576860742e+00 -4.7764523918e+00 2.7576860742e+00 4.7764523918e+00 
271700 4.7628634602e+00 -6.9643819137e-04 2.7576987149e+00 -4.7764742863e+00 2.7576987149e+00 4.7764742863e+00 
271800 4.7628634517e+00 -6.9569193132e-04 2.7577113421e+00 -4.7764961572e+00 2.7577113421e+00 4.7764961572e+00 
271900 4.7628634433e+00 -6.9494646862e-04 2.7577239557e+00 -4.7765180045e+00 2.7577239557e+00 4.7765180045e+00 
272000 4.7628634349e+00 -6.9420180241e-04 2.7577365557e+00 -4.7765398284e+00 2.7577365557e+00 4.7765398284e+00 
272100 4.7628634265e+00 -6.9345793186e-04 2.7577491422e+00 -4.7765616288e+00 2.7577491422e+00 4.7765616288e+00 
272200 4.7628634182e+00 -6.9271485614e-04 2.7577617151e+00 -4.7765834057e+00 2.7577617151e+00 4.7765834057e+00 
272300 4.7628634098e+00 -6.9197257441e-04 2.7577742744e+00 -4.7766051591e+00 2.7577742744e+00 4.7766051591e+00 
272400 4.7628634015e+00 -6.9123108583e-04 2.7577868203e+00 -4.7766268892e+00 2.7577868203e+00 4.7766268892e+00 
272500 4.7628633932e+00 -6.9049038957e-04 2.7577993527e+00 -4.7766485959e+00 2.7577993527e+00 4.7766485959e+00 
272600 4.7628633849e+00 -6.8975048479e-04 2.7578118715e+00 -4.7766702792e+00 2.7578118715e+00 4.7766702792e+00 
272700 4.7628633766e+00 -6.8901137067e-04 2.7578243769e+00 -4.7766919392e+00 2.7578243769e+00 4.7766919392e+00 
272800 4.7628633684e+00 -6.8827304636e-04 2.7578368689e+00 -4.7767135759e+00 2.7578368689e+00 4.7767135759e+00 
272900 4.7628633601e+00 -6.8753551104e-04 2.7578493474e+00 -4.7767351893e+00 2.7578493474e+00 4.7767351893e+00 
273000 4.7628633519e+00 -6.8679876387e-04 2.7578618125e+00 -4.7767567795e+00 2.7578618125e+00 4.7767567795e+00 
273100 4.7628633437e+00 -6.8606280403e-04 2.7578742641e+00 -4.7767783464e+00 2.7578742641e+00 4.7767783464e+00 
273200 4.7628633355e+00 -6.8532763069e-04 2.7578867024e+00 -4.7767998901e+00 2.7578867024e+00 4.7767998901e+00 
273300 4.7628633273e+00 -6.8459324302e-04 2.7578991273e+00 -4.7768214106e+00 2.7578991273e+00 4.7768214106e+00 
273400 4.7628633192e+00 -6.8385964020e-04 2.7579115388e+00 -4.7768429080e+00 2.7579115388e+00 4.7768429080e+00 
273500 4.7628633111e+00 -6.8312682138e-04 2.7579239369e+00 -4.7768643822e+00 2.7579239369e+00 4.7768643822e+00 
273600 4.7628633029e+00 -6.8239478576e-04 2.7579363218e+00 -4.7768858333e+00 2.7579363218e+00 4.7768858333e+00 
273700 4.7628632948e+00 -6.8166353250e-04 2.7579486932e+00 -4.7769072614e+00 2.7579486932e+00 4.7769072614e+00 
273800 4.7628632868e+00 -6.8093306079e-04 2.7579610514e+00 -4.7769286663e+00 2.7579610514e+00 4.7769286663e+00 
273900 4.7628632787e+00 -6.8020336979e-04 2.7579733963e+00 -4.7769500483e+00 2.7579733963e+00 4.7769500483e+00 
274000 4.7628632707e+00 -6.7947445869e-04 2.7579857279e+00 -4.7769714072e+00 2.7579857279e+00 4.7769714072e+00 
274100 4.7628632626e+00 -6.7874632666e-04 2.7579980462e+00 -4.7769927432e+00 2.7579980462e+00 4.7769927432e+00 
274200 4.7628632546e+00 -6.7801897288e-04 2.7580103513e+00 -4.7770140562e+00 2.7580103513e+00 4.7770140562e+00 
274300 4.7628632466e+00 -6.7729239654e-04 2.7580226431e+00 -4.7770353462e+00 2.7580226431e+00 4.7770353462e+00 
274400 4.7628632386e+00 -6.7656659681e-04 2.7580349217e+00 -4.7770566134e+00 2.7580349217e+00 4.7770566134e+00 
274500 4.7628632307e+00 -6.7584157288e-04 2.7580471871e+00 -4.7770778576e+00 2.7580471871e+00 4.7770778576e+00 
274600 4.7628632227e+00 -6.7511732393e-04 2.7580594392e+00 -4.7770990791e+00 2.7580594392e+00 4.7770990791e+00 
274700 4.7628632148e+00 -6.7439384913e-04 2.7580716782e+00 -4.7771202776e+00 2.7580716782e+00 4.7771202776e+00 
274800 4.7628632069e+00 -6.7367114769e-04 2.7580839041e+00 -4.7771414534e+00 2.7580839041e+00 4.7771414534e+00 
274900 4.7628631990e+00 -6.7294921877e-04 2.7580961167e+00 -4.7771626064e+00 2.7580961167e+00 4.7771626064e+00 
275000 4.7628631911e+00 -6.7222806157e-04 2.7581083163e+00 -4.7771837366e+00 2.7581083163e+00 4.7771837366e+00 
275100 4.7628631833e+00 -6.7150767527e-04 2.7581205027e+00 -4.7772048440e+00 2.7581205027e+00 4.7772048440e+00 
275200 4.7628631754e+00 -6.7078805906e-04 2.7581326760e+00 -4.7772259288e+00 2.7581326760e+00 4.7772259288e+00 
275300 4.7628631676e+00 -6.7006921213e-04 2.7581448362e+00 -4.7772469909e+00 2.7581448362e+00 4.7772469909e+00 
275400 4.7628631598e+00 -6.6935113367e-04 2.7581569833e+00 -4.7772680303e+00 2.7581569833e+00 4.7772680303e+00 
275500 4.7628631520e+00 -6.6863382286e-04 2.7581691173e+00 -4.7772890471e+00 2.7581691173e+00 4.7772890471e+00 
275600 4.7628631443e+00 -6.6791727890e-04 2.7581812383e+00 -4.7773100412e+00 2.7581812383e+00 4.7773100412e+00 
275700 4.7628631365e+00 -6.6720150098e-04 2.7581933462e+00 -4.7773310128e+00 2.7581933462e+00 4.7773310128e+00 
275800 4.7628631288e+00 -6.6648648829e-04 2.7582054411e+00 -4.7773519618e+00 2.7582054411e+00 4.7773519618e+00 
275900 4.7628631210e+00 -6.6577224002e-04 2.7582175230e+00 -4.7773728882e+00 2.7582175230e+00 4.7773728882e+00 
276000 4.7628631133e+00 -6.6505875537e-04 2.7582295919e+00 -4.7773937922e+00 2.7582295919e+00 4.7773937922e+00 
276100 4.7628631056e+00 -6.6434603353e-04 2.7582416478e+00 -4.7774146736e+00 2.7582416478e+00 4.7774146736e+00 
276200 4.7628630980e+00 -6.6363407371e-04 2.7582536908e+00 -4.7774355326e+00 2.7582536908e+00 4.7774355326e+00 
276300 4.7628630903e+00 -6.6292287508e-04 2.7582657208e+00 -4.7774563691e+00 2.7582657208e+00 4.7774563691e+00 
276400 4.7628630827e+00 -6.6221243685e-04 2.7582777378e+00 -4.7774771832e+00 2.7582777378e+00 4.7774771832e+00 
276500 4.7628630750e+00 -6.6150275823e-04 2.7582897419e+00 -4.7774979749e+00 2.7582897419e+00 4.7774979749e+00 
276600 4.7628630674e+00 -6.6079383840e-04 2.7583017331e+00 -4.7775187443e+00 2.7583017331e+00 4.7775187443e+00 
276700 4.7628630598e+00 -6.6008567657e-04 2.7583137114e+00 -4.7775394913e+00 2.7583137114e+00 4.7775394913e+00 
276800 4.7628630523e+00 -6.5937827193e-04 2.7583256767e+00 -4.7775602159e+00 2.7583256767e+00 4.7775602159e+00 
276900 4.7628630447e+00 -6.5867162369e-04 2.7583376293e+00 -4.7775809183e+00 2.7583376293e+00 4.7775809183e+00 
277000 4.7628630372e+00 -6.5796573105e-04 2.7583495689e+00 -4.7776015984e+00 2.7583495689e+00 4.7776015984e+00 
277100 4.7628630296e+00 -6.5726059321e-04 2.7583614957e+00 -4.7776222562e+00 2.7583614957e+00 4.7776222562e+00 
277200 4.7628630221e+00 -6.5655620938e-04 2.7583734097e+00 -4.7776428919e+00 2.7583734097e+00 4.7776428919e+00 
277300 4.7628630146e+00 -6.5585257876e-04 2.7583853109e+00 -4.7776635053e+00 2.7583853109e+00 4.7776635053e+00 
277400 4.7628630072e+00 -6.5514970055e-04 2.7583971992e+00 -4.7776840965e+00 2.7583971992e+00 4.7776840965e+00 
277500 4.7628629997e+00 -6.5444757396e-04 2.7584090748e+00 -4.7777046656e+00 2.7584090748e+00 4.7777046656e+00 
277600 4.7628629923e+00 -6.5374619820e-04 2.7584209376e+00 -4.7777252125e+00 2.7584209376e+00 4.7777252125e+00 
277700 4.7628629848e+00 -6.5304557248e-04 2.7584327876e+00 -4.7777457373e+00 2.7584327876e+00 4.7777457373e+00 
277800 4.7628629774e+00 -6.5234569599e-04 2.7584446248e+00 -4.7777662401e+00 2.7584446248e+00 4.7777662401e+00 
277900 4.7628629700e+00 -6.5164656796e-04 2.7584564494e+00 -4.7777867208e+00 2.7584564494e+00 4.7777867208e+00 
278000 4.7628629626e+00 -6.5094818759e-04 2.7584682612e+00 -4.7778071794e+00 2.7584682612e+00 4.7778071794e+00 
278100 4.7628629553e+00 -6.5025055409e-04 2.7584800603e+00 -4.7778276161e+00 2.7584800603e+00 4.7778276161e+00 
278200 4.7628629479e+00 -6.4955366667e-04 2.7584918467e+00 -4.7778480307e+00 2.7584918467e+00 4.7778480307e+00 
278300 4.7628629406e+00 -6.4885752455e-04 2.7585036204e+00 -4.7778684234e+00 2.7585036204e+00 4.7778684234e+00 
278400 4.7628629333e+00 -6.4816212693e-04 2.7585153814e+00 -4.7778887941e+00 2.7585153814e+00 4.7778887941e+00 
278500 4.7628629260e+00 -6.4746747304e-04 2.7585271298e+00 -4.7779091429e+00 2.7585271298e+00 4.7779091429e+00 
278600 4.7628629187e+00 -6.4677356208e-04 2.7585388656e+00 -4.7779294699e+00 2.7585388656e+00 4.7779294699e+00 
278700 4.7628629114e+00 -6.4608039327e-04 2.7585505887e+00 -4.7779497749e+00 2.7585505887e+00 4.7779497749e+00 
278800 4.7628629042e+00 -6.4538796584e-04 2.7585622992e+00 -4.7779700581e+00 2.7585622992e+00 4.7779700581e+00 
278900 4.7628628969e+00 -6.4469627898e-04 2.7585739971e+00 -4.7779903195e+00 2.7585739971e+00 4.7779903195e+00 
279000 4.7628628897e+00 -6.4400533193e-04 2.7585856825e+00 -4.7780105591e+00 2.7585856825e+00 4.7780105591e+00 
279100 4.7628628825e+00 -6.4331512389e-04 2.7585973552e+00 -4.7780307769e+00 2.7585973552e+00 4.7780307769e+00 
279200 4.7628628753e+00 -6.4262565410e-04 2.7586090154e+00 -4.7780509729e+00 2.7586090154e+00 4.7780509729e+00 
279300 4.7628628681e+00 -6.4193692177e-04 2.7586206631e+00 -4.7780711472e+00 2.7586206631e+00 4.7780711472e+00 
279400 4.7628628610e+00 -6.4124892611e-04 2.7586322982e+00 -4.7780912998e+00 2.7586322982e+00 4.7780912998e+00 
279500 4.7628628538e+00 -6.4056166636e-04 2.7586439208e+00 -4.7781114308e+00 2.7586439208e+00 4.7781114308e+00 
279600 4.7628628467e+00 -6.3987514173e-04 2.7586555309e+00 -4.7781315400e+00 2.7586555309e+00 4.7781315400e+00 
279700 4.7628628396e+00 -6.3918935144e-04 2.7586671285e+00 -4.7781516277e+00 2.7586671285e+00 4.7781516277e+00 
279800 4.7628628325e+00 -6.3850429473e-04 2.7586787136e+00 -4.7781716937e+00 2.7586787136e+00 4.7781716937e+00 
279900 4.7628628254e+00 -6.3781997082e-04 2.7586902862e+00 -4.7781917381e+00 2.7586902862e+00 4.7781917381e+00 
280000 4.7628628183e+00 -6.3713637892e-04 2.7587018464e+00 -4.7782117610e+00 2.7587018464e+00 4.7782117610e+00 
280100 4.7628628113e+00 -6.3645351827e-04 2.7587133942e+00 -4.7782317623e+00 2.7587133942e+00 4.7782317623e+00 
280200 4.7628628042e+00 -6.3577138810e-04 2.7587249295e+00 -4.7782517421e+00 2.7587249295e+00 4.7782517421e+00 
280300 4.7628627972e+00 -6.3508998762e-04 2.7587364525e+00 -4.7782717004e+00 2.7587364525e+00 4.7782717004e+00 
280400 4.7628627902e+00 -6.3440931608e-04 2.7587479630e+00 -4.7782916372e+00 2.7587479630e+00 4.7782916372e+00 
280500 4.7628627832e+00 -6.3372937270e-04 2.7587594612e+00 -4.7783115526e+00 2.7587594612e+00 4.7783115526e+00 
280600 4.7628627762e+00 -6.3305015670e-04 2.7587709469e+00 -4.7783314465e+00 2.7587709469e+00 4.7783314465e+00 
280700 4.7628627693e+00 -6.3237166733e-04 2.7587824203e+00 -4.7783513191e+00 2.7587824203e+00 4.7783513191e+00 
280800 4.7628627623e+00 -6.3169390381e-04 2.7587938814e+00 -4.7783711702e+00 2.7587938814e+00 4.7783711702e+00 
280900 4.7628627554e+00 -6.3101686537e-04 2.7588053302e+00 -4.7783910000e+00 2.7588053302e+00 4.7783910000e+00 
281000 4.7628627485e+00 -6.3034055126e-04 2.7588167666e+00 -4.7784108085e+00 2.7588167666e+00 4.7784108085e+00 
281100 4.7628627416e+00 -6.2966496069e-04 2.7588281907e+00 -4.7784305956e+00 2.7588281907e+00 4.7784305956e+00 
281200 4.7628627347e+00 -6.2899009291e-04 2.7588396025e+00 -4.7784503615e+00 2.7588396025e+00 4.7784503615e+00 
281300 4.7628627278e+00 -6.2831594715e-04 2.7588510021e+00 -4.7784701061e+00 2.7588510021e+00 4.7784701061e+00 
281400 4.7628627209e+00 -6.2764252265e-04 2.7588623894e+00 -4.7784898295e+00 2.7588623894e+00 4.7784898295e+00 
281500 4.7628627141e+00 -6.2696981865e-04 2.7588737644e+00 -4.7785095316e+00 2.7588737644e+00 4.7785095316e+00 
281600 4.7628627073e+00 -6.2629783437e-04 2.7588851272e+00 -4.7785292125e+00 2.7588851272e+00 4.7785292125e+00 
281700 4.7628627004e+00 -6.2562656908e-04 2.7588964778e+00 -4.7785488723e+00 2.7588964778e+00 4.7785488723e+00 
281800 4.7628626936e+00 -6.2495602199e-04 2.7589078161e+00 -4.7785685109e+00 2.7589078161e+00 4.7785685109e+00 
281900 4.7628626869e+00 -6.2428619235e-04 2.7589191423e+00 -4.7785881284e+00 2.7589191423e+00 4.7785881284e+00 
282000 4.7628626801e+00 -6.2361707940e-04 2.7589304562e+00 -4.7786077247e+00 2.7589304562e+00 4.7786077247e+00 
282100 4.7628626733e+00 -6.2294868239e-04 2.7589417580e+00 -4.7786273000e+00 2.7589417580e+00 4.7786273000e+00 
282200 4.7628626666e+00 -6.2228100056e-04 2.7589530477e+00 -4.7786468543e+00 2.7589530477e+00 4.7786468543e+00 
282300 4.7628626599e+00 -6.2161403314e-04 2.7589643252e+00 -4.7786663875e+00 2.7589643252e+00 4.7786663875e+00 
282400 4.7628626531e+00 -6.2094777938e-04 2.7589755905e+00 -4.7786858996e+00 2.7589755905e+00 4.7786858996e+00 
282500 4.7628626464e+00 -6.2028223854e-04 2.7589868438e+00 -4.7787053908e+00 2.7589868438e+00 4.7787053908e+00 
282600 4.7628626398e+00 -6.1961740985e-04 2.7589980849e+00 -4.7787248610e+00 2.7589980849e+00 4.7787248610e+00 
282700 4.7628626331e+00 -6.1895329255e-04 2.7590093139e+00 -4.7787443103e+00 2.7590093139e+00 4.7787443103e+00 
282800 4.7628626264e+00 -6.1828988591e-04 2.7590205309e+00 -4.7787637386e+00 2.7590205309e+00 4.7787637386e+00 
282900 4.7628626198e+00 -6.1762718915e-04 2.7590317358e+00 -4.7787831461e+00 2.7590317358e+00 4.7787831461e+00 
283000 4.7628626132e+00 -6.1696520155e-04 2.7590429286e+00 -4.7788025326e+00 2.7590429286e+00 4.7788025326e+00 
283100 4.7628626066e+00 -6.1630392233e-04 2.7590541094e+00 -4.7788218983e+00 2.7590541094e+00 4.7788218983e+00 
283200 4.7628626000e+00 -6.1564335075e-04 2.7590652782e+00 -4.7788412432e+00 2.7590652782e+00 4.7788412432e+00 
283300 4.7628625934e+00 -6.1498348607e-04 2.7590764349e+00 -4.7788605672e+00 2.7590764349e+00 4.7788605672e+00 
283400 4.7628625868e+00 -6.1432432753e-04 2.7590875796e+00 -4.7788798705e+00 2.7590875796e+00 4.7788798705e+00 
283500 4.7628625803e+00 -6.1366587439e-04 2.7590987124e+00 -4.7788991530e+00 2.7590987124e+00 4.7788991530e+00 
283600 4.7628625737e+00 -6.1300812590e-04 2.7591098332e+00 -4.7789184147e+00 2.7591098332e+00 4.7789184147e+00 
283700 4.7628625672e+00 -6.1235108131e-04 2.7591209420e+00 -4.7789376557e+00 2.7591209420e+00 4.7789376557e+00 
283800 4.7628625607e+00 -6.1169473988e-04 2.7591320388e+00 -4.7789568761e+00 2.7591320388e+00 4.7789568761e+00 
283900 4.7628625542e+00 -6.1103910087e-04 2.7591431238e+00 -4.7789760757e+00 2.7591431238e+00 4.7789760757e+00 
284000 4.7628625477e+00 -6.1038416352e-04 2.7591541968e+00 -4.7789952547e+00 2.7591541968e+00 4.7789952547e+00 
284100 4.7628625412e+00 -6.0972992710e-04 2.7591652578e+00 -4.7790144130e+00 2.7591652578e+00 4.7790144130e+00 
284200 4.7628625348e+00 -6.0907639086e-04 2.7591763070e+00 -4.7790335508e+00 2.7591763070e+00 4.7790335508e+00 
284300 4.7628625283e+00 -6.0842355407e-04 2.7591873443e+00 -4.7790526679e+00 2.7591873443e+00 4.7790526679e+00 
284400 4.7628625219e+00 -6.0777141597e-04 2.7591983697e+00 -4.7790717645e+00 2.7591983697e+00 4.7790717645e+00 
284500 4.7628625155e+00 -6.0711997584e-04 2.7592093833e+00 -4.7790908406e+00 2.7592093833e+00 4.7790908406e+00 
284600 4.7628625091e+00 -6.0646923293e-04 2.7592203850e+00 -4.7791098961e+00 2.7592203850e+00 4.7791098961e+00 
284700 4.7628625027e+00 -6.0581918650e-04 2.7592313749e+00 -4.7791289311e+00 2.7592313749e+00 4.7791289311e+00 
284800 4.7628624963e+00 -6.0516983582e-04 2.7592423529e+00 -4.7791479456e+00 2.7592423529e+00 4.7791479456e+00 
284900 4.7628624899e+00 -6.0452118015e-04 2.7592533192e+00 -4.7791669397e+00 2.7592533192e+00 4.7791669397e+00 
285000 4.7628624836e+00 -6.0387321875e-04 2.7592642736e+00 -4.7791859134e+00 2.7592642736e+00 4.7791859134e+00 
285100 4.7628624773e+00 -6.0322595088e-04 2.7592752163e+00 -4.7792048666e+00 2.7592752163e+00 4.7792048666e+00 
285200 4.7628624709e+00 -6.0257937581e-04 2.7592861471e+00 -4.7792237995e+00 2.7592861471e+00 4.7792237995e+00 
285300 4.7628624646e+00 -6.0193349281e-04 2.7592970663e+00 -4.7792427119e+00 2.7592970663e+00 4.7792427119e+00 
285400 4.7628624583e+00 -6.0128830115e-04 2.7593079736e+00 -4.7792616041e+00 2.7593079736e+00 4.7792616041e+00 
285500 4.7628624521e+00 -6.0064380008e-04 2.7593188693e+00 -4.7792804759e+00 2.7593188693e+00 4.7792804759e+00 
285600 4.7628624458e+00 -5.9999998889e-04 2.7593297532e+00 -4.7792993274e+00 2.7593297532e+00 4.7792993274e+00 
285700 4.7628624396e+00 -5.9935686683e-04 2.7593406254e+00 -4.7793181586e+00 2.7593406254e+00 4.7793181586e+00 
285800 4.7628624333e+00 -5.9871443318e-04 2.7593514859e+00 -4.7793369696e+00 2.7593514859e+00 4.7793369696e+00 
285900 4.7628624271e+00 -5.9807268720e-04 2.7593623348e+00 -4.7793557603e+00 2.7593623348e+00 4.7793557603e+00 
286000 4.7628624209e+00 -5.9743162818e-04 2.7593731719e+00 -4.7793745308e+00 2.7593731719e+00 4.7793745308e+00 
286100 4.7628624147e+00 -5.9679125537e-04 2.7593839974e+00 -4.7793932811e+00 2.7593839974e+00 4.7793932811e+00 
286200 4.7628624085e+00 -5.9615156806e-04 2.7593948113e+00 -4.7794120113e+00 2.7593948113e+00 4.7794120113e+00 
286300 4.7628624023e+00 -5.9551256551e-04 2.7594056135e+00 -4.7794307213e+00 2.7594056135e+00 4.7794307213e+00 
286400 4.7628623962e+00 -5.9487424700e-04 2.7594164041e+00 -4.7794494112e+00 2.7594164041e+00 4.7794494112e+00 
286500 4.7628623900e+00 -5.9423661181e-04 2.7594271831e+00 -4.7794680809e+00 2.7594271831e+00 4.7794680809e+00 
286600 4.7628623839e+00 -5.9359965921e-04 2.7594379505e+00 -4.7794867306e+00 2.7594379505e+00 4.7794867306e+00 
286700 4.7628623778e+00 -5.9296338847e-04 2.7594487063e+00 -4.7795053602e+00 2.7594487063e+00 4.7795053602e+00 
286800 4.7628623717e+00 -5.9232779887e-04 2.7594594506e+00 -4.7795239698e+00 2.7594594506e+00 4.7795239698e+00 
286900 4.7628623656e+00 -5.9169288970e-04 2.7594701832e+00 -4.7795425594e+00 2.7594701832e+00 4.7795425594e+00 
287000 4.7628623595e+00 -5.9105866023e-04 2.7594809044e+00 -4.7795611289e+00 2.7594809044e+00 4.7795611289e+00 
287100 4.7628623534e+00 -5.9042510973e-04 2.7594916140e+00 -4.7795796785e+00 2.7594916140e+00 4.7795796785e+00 
287200 4.7628623474e+00 -5.8979223749e-04 2.7595023121e+00 -4.7795982081e+00 2.7595023121e+00 4.7795982081e+00 
287300 4.7628623413e+00 -5.8916004279e-04 2.7595129986e+00 -4.7796167178e+00 2.7595129986e+00 4.7796167178e+00 
287400 4.7628623353e+00 -5.8852852492e-04 2.7595236737e+00 -4.7796352076e+00 2.7595236737e+00 4.7796352076e+00 
287500 4.7628623293e+00 -5.8789768314e-04 2.7595343373e+00 -4.7796536775e+00 2.7595343373e+00 4.7796536775e+00 
287600 4.7628623233e+00 -5.8726751675e-04 2.7595449894e+00 -4.7796721275e+00 2.7595449894e+00 4.7796721275e+00 
287700 4.7628623173e+00 -5.8663802502e-04 2.7595556301e+00 -4.7796905577e+00 2.7595556301e+00 4.7796905577e+00 
287800 4.7628623113e+00 -5.8600920725e-04 2.7595662593e+00 -4.7797089680e+00 2.7595662593e+00 4.7797089680e+00 
287900 4.7628623054e+00 -5.8538106272e-04 2.7595768771e+00 -4.7797273586e+00 2.7595768771e+00 4.7797273586e+00 
288000 4.7628622994e+00 -5.8475359071e-04 2.7595874835e+00 -4.7797457293e+00 2.7595874835e+00 4.7797457293e+00 
288100 4.7628622935e+00 -5.8412679051e-04 2.7595980784e+00 -4.7797640803e+00 2.7595980784e+00 4.7797640803e+00 
288200 4.7628622876e+00 -5.8350066141e-04 2.7596086620e+00 -4.7797824116e+00 2.7596086620e+00 4.7797824116e+00 
288300 4.7628622816e+00 -5.8287520269e-04 2.7596192342e+00 -4.7798007231e+00 2.7596192342e+00 4.7798007231e+00 
288400 4.7628622757e+00 -5.8225041365e-04 2.7596297950e+00 -4.7798190149e+00 2.7596297950e+00 4.7798190149e+00 
288500 4.7628622699e+00 -5.8162629356e-04 2.7596403444e+00 -4.7798372871e+00 2.7596403444e+00 4.7798372871e+00 
288600 4.7628622640e+00 -5.8100284174e-04 2.7596508825e+00 -4.7798555396e+00 2.7596508825e+00 4.7798555396e+00 
288700 4.7628622581e+00 -5.8038005745e-04 2.7596614092e+00 -4.7798737725e+00 2.7596614092e+00 4.7798737725e+00 
288800 4.7628622523e+00 -5.7975794000e-04 2.7596719247e+00 -4.7798919857e+00 2.7596719247e+00 4.7798919857e+00 
288900 4.7628622464e+00 -5.7913648868e-04 2.7596824288e+00 -4.7799101794e+00 2.7596824288e+00 4.7799101794e+00 
289000 4.7628622406e+00 -5.7851570278e-04 2.7596929216e+00 -4.7799283535e+00 2.7596929216e+00 4.7799283535e+00 
289100 4.7628622348e+00 -5.7789558159e-04 2.7597034031e+00 -4.7799465080e+00 2.7597034031e+00 4.7799465080e+00 
289200 4.7628622290e+00 -5.7727612441e-04 2.7597138734e+00 -4.7799646430e+00 2.7597138734e+00 4.7799646430e+00 
289300 4.7628622232e+00 -5.7665733054e-04 2.7597243324e+00 -4.7799827585e+00 2.7597243324e+00 4.7799827585e+00 
289400 4.7628622175e+00 -5.7603919926e-04 2.7597347801e+00 -4.7800008546e+00 2.7597347801e+00 4.7800008546e+00 
289500 4.7628622117e+00 -5.7542172988e-04 2.7597452166e+00 -4.7800189311e+00 2.7597452166e+00 4.7800189311e+00 
289600 4.7628622060e+00 -5.7480492170e-04 2.7597556419e+00 -4.7800369882e+00 2.7597556419e+00 4.7800369882e+00 
289700 4.7628622002e+00 -5.7418877400e-04 2.7597660559e+00 -4.7800550259e+00 2.7597660559e+00 4.7800550259e+00 
289800 4.7628621945e+00 -5.7357328610e-04 2.7597764588e+00 -4.7800730442e+00 2.7597764588e+00 4.7800730442e+00 
289900 4.7628621888e+00 -5.7295845728e-04 2.7597868505e+00 -4.7800910431e+00 2.7597868505e+00 4.7800910431e+00 
290000 4.7628621831e+00 -5.7234428686e-04 2.7597972310e+00 -4.7801090226e+00 2.7597972310e+00 4.7801090226e+00 
290100 4.7628621774e+00 -5.7173077412e-04 2.7598076003e+00 -4.7801269828e+00 2.7598076003e+00 4.7801269828e+00 
290200 4.7628621717e+00 -5.7111791838e-04 2.7598179585e+00 -4.7801449237e+00 2.7598179585e+00 4.7801449237e+00 
290300 4.7628621661e+00 -5.7050571893e-04 2.7598283055e+00 -4.7801628453e+00 2.7598283055e+00 4.7801628453e+00 
290400 4.7628621604e+00 -5.6989417508e-04 2.7598386414e+00 -4.7801807476e+00 2.7598386414e+00 4.7801807476e+00 
290500 4.7628621548e+00 -5.6928328613e-04 2.7598489662e+00 -4.7801986306e+00 2.7598489662e+00 4.7801986306e+00 
290600 4.7628621492e+00 -5.6867305139e-04 2.7598592798e+00 -4.7802164944e+00 2.7598592798e+00 4.7802164944e+00 
290700 4.7628621435e+00 -5.6806347016e-04 2.7598695824e+00 -4.7802343390e+00 2.7598695824e+00 4.7802343390e+00 
290800 4.7628621379e+00 -5.6745454174e-04 2.7598798739e+00 -4.7802521644e+00 2.7598798739e+00 4.7802521644e+00 
290900 4.7628621323e+00 -5.6684626545e-04 2.7598901543e+00 -4.7802699706e+00 2.7598901543e+00 4.7802699706e+00 
291000 4.7628621268e+00 -5.6623864059e-04 2.7599004237e+00 -4.7802877577e+00 2.7599004237e+00 4.7802877577e+00 
291100 4.7628621212e+00 -5.6563166646e-04 2.7599106820e+00 -4.7803055256e+00 2.7599106820e+00 4.7803055256e+00 
291200 4.7628621157e+00 -5.6502534239e-04 2.7599209293e+00 -4.7803232745e+00 2.7599209293e+00 4.7803232745e+00 
291300 4.7628621101e+00 -5.6441966767e-04 2.7599311656e+00 -4.7803410042e+00 2.7599311656e+00 4.7803410042e+00 
291400 4.7628621046e+00 -5.6381464162e-04 2.7599413908e+00 -4.7803587149e+00 2.7599413908e+00 4.7803587149e+00 
291500 4.7628620991e+00 -5.6321026354e-04 2.7599516051e+00 -4.7803764065e+00 2.7599516051e+00 4.7803764065e+00 
291600 4.7628620936e+00 -5.6260653275e-04 2.7599618084e+00 -4.7803940791e+00 2.7599618084e+00 4.7803940791e+00 
291700 4.7628620881e+00 -5.6200344857e-04 2.7599720007e+00 -4.7804117326e+00 2.7599720007e+00 4.7804117326e+00 
291800 4.7628620826e+00 -5.6140101030e-04 2.7599821820e+00 -4.7804293672e+00 2.7599821820e+00 4.7804293672e+00 
291900 4.7628620771e+00 -5.6079921726e-04 2.7599923524e+00 -4.7804469828e+00 2.7599923524e+00 4.7804469828e+00 
292000 4.7628620717e+00 -5.6019806876e-04 2.7600025118e+00 -4.7804645795e+00 2.7600025118e+00 4.7804645795e+00 
292100 4.7628620662e+00 -5.5959756411e-04 2.7600126603e+00 -4.7804821572e+00 2.7600126603e+00 4.7804821572e+00 
292200 4.7628620608e+00 -5.5899770264e-04 2.7600227979e+00 -4.7804997161e+00 2.7600227979e+00 4.7804997161e+00 
292300 4.7628620554e+00 -5.5839848367e-04 2.7600329246e+00 -4.7805172560e+00 2.7600329246e+00 4.7805172560e+00 
292400 4.7628620499e+00 -5.5779990649e-04 2.7600430404e+00 -4.7805347771e+00 2.7600430404e+00 4.7805347771e+00 
292500 4.7628620445e+00 -5.5720197044e-04 2.7600531453e+00 -4.7805522793e+00 2.7600531453e+00 4.7805522793e+00 
292600 4.7628620392e+00 -5.5660467484e-04 2.7600632394e+00 -4.7805697627e+00 2.7600632394e+00 4.7805697627e+00 
292700 4.7628620338e+00 -5.5600801900e-04 2.7600733226e+00 -4.7805872273e+00 2.7600733226e+00 4.7805872273e+00 
292800 4.7628620284e+00 -5.5541200223e-04 2.7600833949e+00 -4.7806046731e+00 2.7600833949e+00 4.7806046731e+00 
292900 4.7628620231e+00 -5.5481662388e-04 2.7600934564e+00 -4.7806221002e+00 2.7600934564e+00 4.7806221002e+00 
293000 4.7628620177e+00 -5.5422188324e-04 2.7601035071e+00 -4.7806395085e+00 2.7601035071e+00 4.7806395085e+00 
293100 4.7628620124e+00 -5.5362777966e-04 2.7601135470e+00 -4.7806568981e+00 2.7601135470e+00 4.7806568981e+00 
293200 4.7628620071e+00 -5.5303431244e-04 2.7601235761e+00 -4.7806742690e+00 2.7601235761e+00 4.7806742690e+00 
293300 4.7628620018e+00 -5.5244148091e-04 2.7601335944e+00 -4.7806916212e+00 2.7601335944e+00 4.7806916212e+00 
293400 4.7628619965e+00 -5.5184928441e-04 2.7601436019e+00 -4.7807089547e+00 2.7601436019e+00 4.7807089547e+00 
293500 4.7628619912e+00 -5.5125772224e-04 2.7601535987e+00 -4.7807262696e+00 2.7601535987e+00 4.7807262696e+00 
293600 4.7628619859e+00 -5.5066679374e-04 2.7601635847e+00 -4.7807435659e+00 2.7601635847e+00 4.7807435659e+00 
293700 4.7628619807e+00 -5.5007649824e-04 2.7601735599e+00 -4.7807608435e+00 2.7601735599e+00 4.7807608435e+00 
293800 4.7628619754e+00 -5.4948683505e-04 2.7601835245e+00 -4.7807781026e+00 2.7601835245e+00 4.7807781026e+00 
293900 4.7628619702e+00 -5.4889780351e-04 2.7601934783e+00 -4.7807953431e+00 2.7601934783e+00 4.7807953431e+00 
294000 4.7628619649e+00 -5.4830940295e-04 2.7602034214e+00 -4.7808125651e+00 2.7602034214e+00 4.7808125651e+00 
294100 4.7628619597e+00 -5.4772163269e-04 2.7602133538e+00 -4.7808297685e+00 2.7602133538e+00 4.7808297685e+00 
294200 4.7628619545e+00 -5.4713449207e-04 2.7602232755e+00 -4.7808469535e+00 2.7602232755e+00 4.7808469535e+00 
294300 4.7628619493e+00 -5.4654798042e-04 2.7602331866e+00 -4.7808641199e+00 2.7602331866e+00 4.7808641199e+00 
294400 4.7628619441e+00 -5.4596209706e-04 2.7602430870e+00 -4.7808812679e+00 2.7602430870e+00 4.7808812679e+00 
294500 4.7628619390e+00 -5.4537684132e-04 2.7602529768e+00 -4.7808983975e+00 2.7602529768e+00 4.7808983975e+00 
294600 4.7628619338e+00 -5.4479221255e-04 2.7602628559e+00 -4.7809155086e+00 2.7602628559e+00 4.7809155086e+00 
294700 4.7628619287e+00 -5.4420821007e-04 2.7602727244e+00 -4.7809326013e+00 2.7602727244e+00 4.7809326013e+00 
294800 4.7628619235e+00 -5.4362483322e-04 2.7602825822e+00 -4.7809496757e+00 2.7602825822e+00 4.7809496757e+00 
294900 4.7628619184e+00 -5.4304208133e-04 2.7602924295e+00 -4.7809667317e+00 2.7602924295e+00 4.7809667317e+00 
295000 4.7628619133e+00 -5.4245995374e-04 2.7603022662e+00 -4.7809837693e+00 2.7603022662e+00 4.7809837693e+00 
295100 4.7628619082e+00 -5.4187844978e-04 2.7603120923e+00 -4.7810007886e+00 2.7603120923e+00 4.7810007886e+00 
295200 4.7628619031e+00 -5.4129756879e-04 2.7603219078e+00 -4.7810177896e+00 2.7603219078e+00 4.7810177896e+00 
295300 4.7628618980e+00 -5.4071731011e-04 2.7603317128e+00 -4.7810347723e+00 2.7603317128e+00 4.7810347723e+00 
295400 4.7628618929e+00 -5.4013767307e-04 2.7603415072e+00 -4.7810517368e+00 2.7603415072e+00 4.7810517368e+00 
295500 4.7628618879e+00 -5.3955865702e-04 2.7603512911e+00 -4.7810686830e+00 2.7603512911e+00 4.7810686830e+00 
295600 4.7628618828e+00 -5.3898026128e-04 2.7603610645e+00 -4.7810856110e+00 2.7603610645e+00 4.7810856110e+00 
295700 4.7628618778e+00 -5.3840248521e-04 2.7603708274e+00 -4.7811025208e+00 2.7603708274e+00 4.7811025208e+00 
295800 4.7628618727e+00 -5.3782532815e-04 2.7603805797e+00 -4.7811194123e+00 2.7603805797e+00 4.7811194123e+00 
295900 4.7628618677e+00 -5.3724878942e-04 2.7603903216e+00 -4.7811362858e+00 2.7603903216e+00 4.7811362858e+00 
296000 4.7628618627e+00 -5.3667286839e-04 2.7604000530e+00 -4.7811531410e+00 2.7604000530e+00 4.7811531410e+00 
296100 4.7628618577e+00 -5.3609756438e-04 2.7604097739e+00 -4.7811699782e+00 2.7604097739e+00 4.7811699782e+00 
296200 4.7628618527e+00 -5.3552287674e-04 2.7604194844e+00 -4.7811867972e+00 2.7604194844e+00 4.7811867972e+00 
296300 4.7628618478e+00 -5.3494880482e-04 2.7604291845e+00 -4.7812035982e+00 2.7604291845e+00 4.7812035982e+00 
296400 4.7628618428e+00 -5.3437534797e-04 2.7604388741e+00 -4.7812203811e+00 2.7604388741e+00 4.7812203811e+00 
296500 4.7628618378e+00 -5.3380250551e-04 2.7604485532e+00 -4.7812371459e+00 2.7604485532e+00 4.7812371459e+00 
296600 4.7628618329e+00 -5.3323027682e-04 2.7604582220e+00 -4.7812538927e+00 2.7604582220e+00 4.7812538927e+00 
296700 4.7628618280e+00 -5.3265866122e-04 2.7604678804e+00 -4.7812706215e+00 2.7604678804e+00 4.7812706215e+00 
296800 4.7628618230e+00 -5.3208765806e-04 2.7604775284e+00 -4.7812873323e+00 2.7604775284e+00 4.7812873323e+00 
296900 4.7628618181e+00 -5.3151726671e-04 2.7604871660e+00 -4.7813040251e+00 2.7604871660e+00 4.7813040251e+00 
297000 4.7628618132e+00 -5.3094748649e-04 2.7604967932e+00 -4.7813207000e+00 2.7604967932e+00 4.7813207000e+00 
297100 4.7628618083e+00 -5.3037831677e-04 2.7605064101e+00 -4.7813373569e+00 2.7605064101e+00 4.7813373569e+00 
297200 4.7628618035e+00 -5.2980975689e-04 2.7605160166e+00 -4.7813539959e+00 2.7605160166e+00 4.7813539959e+00 
297300 4.7628617986e+00 -5.2924180621e-04 2.7605256129e+00 -4.7813706171e+00 2.7605256129e+00 4.7813706171e+00 
297400 4.7628617937e+00 -5.2867446407e-04 2.7605351988e+00 -4.7813872203e+00 2.7605351988e+00 4.7813872203e+00 
297500 4.7628617889e+00 -5.2810772982e-04 2.7605447743e+00 -4.7814038057e+00 2.7605447743e+00 4.7814038057e+00 
297600 4.7628617840e+00 -5.2754160283e-04 2.7605543396e+00 -4.7814203733e+00 2.7605543396e+00 4.7814203733e+00 
297700 4.7628617792e+00 -5.2697608244e-04 2.7605638946e+00 -4.7814369230e+00 2.7605638946e+00 4.7814369230e+00 
297800 4.7628617744e+00 -5.2641116801e-04 2.7605734393e+00 -4.7814534550e+00 2.7605734393e+00 4.7814534550e+00 
297900 4.7628617696e+00 -5.2584685889e-04 2.7605829738e+00 -4.7814699691e+00 2.7605829738e+00 4.7814699691e+00 
298000 4.7628617648e+00 -5.2528315444e-04 2.7605924980e+00 -4.7814864655e+00 2.7605924980e+00 4.7814864655e+00 
298100 4.7628617600e+00 -5.2472005402e-04 2.7606020120e+00 -4.7815029442e+00 2.7606020120e+00 4.7815029442e+00 
298200 4.7628617552e+00 -5.2415755697e-04 2.7606115157e+00 -4.7815194052e+00 2.7606115157e+00 4.7815194052e+00 
298300 4.7628617505e+00 -5.2359566266e-04 2.7606210092e+00 -4.7815358484e+00 2.7606210092e+00 4.7815358484e+00 
298400 4.7628617457e+00 -5.2303437045e-04 2.7606304925e+00 -4.7815522740e+00 2.7606304925e+00 4.7815522740e+00 
298500 4.7628617410e+00 -5.2247367970e-04 2.7606399656e+00 -4.7815686818e+00 2.7606399656e+00 4.7815686818e+00 
298600 4.7628617362e+00 -5.2191358976e-04 2.7606494285e+00 -4.7815850721e+00 2.7606494285e+00 4.7815850721e+00 
298700 4.7628617315e+00 -5.2135409999e-04 2.7606588813e+00 -4.7816014447e+00 2.7606588813e+00 4.7816014447e+00 
298800 4.7628617268e+00 -5.2079520976e-04 2.7606683238e+00 -4.7816177997e+00 2.7606683238e+00 4.7816177997e+00 
298900 4.7628617221e+00 -5.2023691842e-04 2.7606777563e+00 -4.7816341372e+00 2.7606777563e+00 4.7816341372e+00 
299000 4.7628617174e+00 -5.1967922535e-04 2.7606871785e+00 -4.7816504570e+00 2.7606871785e+00 4.7816504570e+00 
299100 4.7628617127e+00 -5.1912212989e-04 2.7606965907e+00 -4.7816667593e+00 2.7606965907e+00 4.7816667593e+00 
299200 4.7628617080e+00 -5.1856563143e-04 2.7607059927e+00 -4.7816830441e+00 2.7607059927e+00 4.7816830441e+00 
299300 4.7628617034e+00 -5.1800972931e-04 2.7607153846e+00 -4.7816993114e+00 2.7607153846e+00 4.7816993114e+00 
299400 4.7628616987e+00 -5.1745442290e-04 2.7607247664e+00 -4.7817155611e+00 2.7607247664e+00 4.7817155611e+00 
299500 4.7628616941e+00 -5.1689971157e-04 2.7607341381e+00 -4.7817317934e+00 2.7607341381e+00 4.7817317934e+00 
299600 4.7628616895e+00 -5.1634559469e-04 2.7607434998e+00 -4.7817480083e+00 2.7607434998e+00 4.7817480083e+00 
299700 4.7628616848e+00 -5.1579207162e-04 2.7607528513e+00 -4.7817642057e+00 2.7607528513e+00 4.7817642057e+00 
299800 4.7628616802e+00 -5.1523914173e-04 2.7607621929e+00 -4.7817803856e+00 2.7607621929e+00 4.7817803856e+00 
299900 4.7628616756e+00 -5.1468680439e-04 2.7607715243e+00 -4.7817965482e+00 2.7607715243e+00 4.7817965482e+00 
300000 4.7628616710e+00 -5.1413505896e-04 2.7607808458e+00 -4.7818126934e+00 2.7607808458e+00 4.7818126934e+00 
300100 4.7628616664e+00 -5.1358390482e-04 2.7607901572e+00 -4.7818288213e+00 2.7607901572e+00 4.7818288213e+00 
300200 4.7628616619e+00 -5.1303334134e-04 2.7607994586e+00 -4.7818449318e+00 2.7607994586e+00 4.7818449318e+00 
300300 4.7628616573e+00 -5.1248336788e-04 2.7608087500e+00 -4.7818610249e+00 2.7608087500e+00 4.7818610249e+00 
300400 4.7628616527e+00 -5.1193398381e-04 2.7608180314e+00 -4.7818771008e+00 2.7608180314e+00 4.7818771008e+00 
300500 4.7628616482e+00 -5.1138518852e-04 2.7608273028e+00 -4.7818931594e+00 2.7608273028e+00 4.7818931594e+00 
300600 4.7628616437e+00 -5.1083698137e-04 2.7608365642e+00 -4.7819092007e+00 2.7608365642e+00 4.7819092007e+00 
300700 4.7628616391e+00 -5.1028936173e-04 2.7608458157e+00 -4.7819252247e+00 2.7608458157e+00 4.7819252247e+00 
300800 4.7628616346e+00 -5.0974232898e-04 2.7608550573e+00 -4.7819412316e+00 2.7608550573e+00 4.7819412316e+00 
300900 4.7628616301e+00 -5.0919588250e-04 2.7608642889e+00 -4.7819572212e+00 2.7608642889e+00 4.7819572212e+00 
301000 4.7628616256e+00 -5.0865002165e-04 2.7608735106e+00 -4.7819731936e+00 2.7608735106e+00 4.7819731936e+00 
301100 4.7628616211e+00 -5.0810474582e-04 2.7608827223e+00 -4.7819891488e+00 2.7608827223e+00 4.7819891488e+00 
301200 4.7628616167e+00 -5.0756005438e-04 2.7608919242e+00 -4.7820050869e+00 2.7608919242e+00 4.7820050869e+00 
301300 4.7628616122e+00 -5.0701594670e-04 2.7609011162e+00 -4.7820210079e+00 2.7609011162e+00 4.7820210079e+00 
301400 4.7628616077e+00 -5.0647242217e-04 2.7609102982e+00 -4.7820369117e+00 2.7609102982e+00 4.7820369117e+00 
301500 4.7628616033e+00 -5.0592948017e-04 2.7609194704e+00 -4.7820527984e+00 2.7609194704e+00 4.7820527984e+00 
301600 4.7628615988e+00 -5.0538712007e-04 2.7609286328e+00 -4.7820686681e+00 2.7609286328e+00 4.7820686681e+00 
301700 4.7628615944e+00 -5.0484534125e-04 2.7609377853e+00 -4.7820845206e+00 2.7609377853e+00 4.7820845206e+00 
301800 4.7628615900e+00 -5.0430414310e-04 2.7609469279e+00 -4.7821003562e+00 2.7609469279e+00 4.7821003562e+00 
301900 4.7628615856e+00 -5.0376352498e-04 2.7609560607e+00 -4.7821161747e+00 2.7609560607e+00 4.7821161747e+00 
302000 4.7628615812e+00 -5.0322348630e-04 2.7609651837e+00 -4.7821319762e+00 2.7609651837e+00 4.7821319762e+00 
302100 4.7628615768e+00 -5.0268402642e-04 2.7609742969e+00 -4.7821477607e+00 2.7609742969e+00 4.7821477607e+00 
302200 4.7628615724e+00 -5.0214514473e-04 2.7609834003e+00 -4.7821635282e+00 2.7609834003e+00 4.7821635282e+00 
302300 4.7628615680e+00 -5.0160684062e-04 2.7609924939e+00 -4.7821792788e+00 2.7609924939e+00 4.7821792788e+00 
302400 4.7628615637e+00 -5.0106911347e-04 2.7610015777e+00 -4.7821950124e+00 2.7610015777e+00 4.7821950124e+00 
302500 4.7628615593e+00 -5.0053196266e-04 2.7610106518e+00 -4.7822107291e+00 2.7610106518e+00 4.7822107291e+00 
302600 4.7628615550e+00 -4.9999538758e-04 2.7610197161e+00 -4.7822264289e+00 2.7610197161e+00 4.7822264289e+00 
302700 4.7628615507e+00 -4.9945938761e-04 2.7610287706e+00 -4.7822421119e+00 2.7610287706e+00 4.7822421119e+00 
302800 4.7628615463e+00 -4.9892396215e-04 2.7610378154e+00 -4.7822577779e+00 2.7610378154e+00 4.7822577779e+00 
302900 4.7628615420e+00 -4.9838911058e-04 2.7610468505e+00 -4.7822734272e+00 2.7610468505e+00 4.7822734272e+00 
303000 4.7628615377e+00 -4.9785483228e-04 2.7610558759e+00 -4.7822890596e+00 2.7610558759e+00 4.7822890596e+00 
303100 4.7628615334e+00 -4.9732112665e-04 2.7610648915e+00 -4.7823046752e+00 2.7610648915e+00 4.7823046752e+00 
303200 4.7628615291e+00 -4.9678799307e-04 2.7610738975e+00 -4.7823202739e+00 2.7610738975e+00 4.7823202739e+00 
303300 4.7628615248e+00 -4.9625543094e-04 2.7610828938e+00 -4.7823358560e+00 2.7610828938e+00 4.7823358560e+00 
303400 4.7628615206e+00 -4.9572343964e-04 2.7610918804e+00 -4.7823514212e+00 2.7610918804e+00 4.7823514212e+00 
303500 4.7628615163e+00 -4.9519201857e-04 2.7611008574e+00 -4.7823669698e+00 2.7611008574e+00 4.7823669698e+00 
303600 4.7628615121e+00 -4.9466116712e-04 2.7611098247e+00 -4.7823825016e+00 2.7611098247e+00 4.7823825016e+00 
303700 4.7628615078e+00 -4.9413088469e-04 2.7611187823e+00 -4.7823980167e+00 2.7611187823e+00 4.7823980167e+00 
303800 4.7628615036e+00 -4.9360117065e-04 2.7611277303e+00 -4.7824135151e+00 2.7611277303e+00 4.7824135151e+00 
303900 4.7628614994e+00 -4.9307202441e-04 2.7611366687e+00 -4.7824289969e+00 2.7611366687e+00 4.7824289969e+00 
304000 4.7628614952e+00 -4.9254344537e-04 2.7611455975e+00 -4.7824444620e+00 2.7611455975e+00 4.7824444620e+00 
304100 4.7628614909e+00 -4.9201543291e-04 2.7611545167e+00 -4.7824599105e+00 2.7611545167e+00 4.7824599105e+00 
304200 4.7628614868e+00 -4.9148798644e-04 2.7611634263e+00 -4.7824753424e+00 2.7611634263e+00 4.7824753424e+00 
304300 4.7628614826e+00 -4.9096110535e-04 2.7611723264e+00 -4.7824907577e+00 2.7611723264e+00 4.7824907577e+00 
304400 4.7628614784e+00 -4.9043478903e-04 2.7611812168e+00 -4.7825061564e+00 2.7611812168e+00 4.7825061564e+00 
304500 4.7628614742e+00 -4.8990903688e-04 2.7611900977e+00 -4.7825215386e+00 2.7611900977e+00 4.7825215386e+00 
304600 4.7628614701e+00 -4.8938384831e-04 2.7611989690e+00 -4.7825369042e+00 2.7611989690e+00 4.7825369042e+00 
304700 4.7628614659e+00 -4.8885922271e-04 2.7612078308e+00 -4.7825522533e+00 2.7612078308e+00 4.7825522533e+00 
304800 4.7628614618e+00 -4.8833515947e-04 2.7612166831e+00 -4.7825675859e+00 2.7612166831e+00 4.7825675859e+00 
304900 4.7628614576e+00 -4.8781165801e-04 2.7612255259e+00 -4.7825829020e+00 2.7612255259e+00 4.7825829020e+00 
305000 4.7628614535e+00 -4.8728871772e-04 2.7612343591e+00 -4.7825982016e+00 2.7612343591e+00 4.7825982016e+00 
305100 4.7628614494e+00 -4.8676633800e-04 2.7612431829e+00 -4.7826134848e+00 2.7612431829e+00 4.7826134848e+00 
305200 4.7628614453e+00 -4.8624451825e-04 2.7612519971e+00 -4.7826287516e+00 2.7612519971e+00 4.7826287516e+00 
305300 4.7628614412e+00 -4.8572325788e-04 2.7612608019e+00 -4.7826440019e+00 2.7612608019e+00 4.7826440019e+00 
305400 4.7628614371e+00 -4.8520255629e-04 2.7612695973e+00 -4.7826592358e+00 2.7612695973e+00 4.7826592358e+00 
305500 4.7628614330e+00 -4.8468241288e-04 2.7612783831e+00 -4.7826744534e+00 2.7612783831e+00 4.7826744534e+00 
305600 4.7628614289e+00 -4.8416282706e-04 2.7612871595e+00 -4.7826896546e+00 2.7612871595e+00 4.7826896546e+00 
305700 4.7628614249e+00 -4.8364379823e-04 2.7612959265e+00 -4.7827048395e+00 2.7612959265e+00 4.7827048395e+00 
305800 4.7628614208e+00 -4.8312532580e-04 2.7613046841e+00 -4.7827200080e+00 2.7613046841e+00 4.7827200080e+00 
305900 4.7628614168e+00 -4.8260740917e-04 2.7613134322e+00 -4.7827351602e+00 2.7613134322e+00 4.7827351602e+00 
306000 4.7628614127e+00 -4.8209004776e-04 2.7613221709e+00 -4.7827502962e+00 2.7613221709e+00 4.7827502962e+00 
306100 4.7628614087e+00 -4.8157324096e-04 2.7613309003e+00 -4.7827654158e+00 2.7613309003e+00 4.7827654158e+00 
306200 4.7628614047e+00 -4.8105698819e-04 2.7613396202e+00 -4.7827805192e+00 2.7613396202e+00 4.7827805192e+00 
306300 4.7628614007e+00 -4.8054128885e-04 2.7613483308e+00 -4.7827956064e+00 2.7613483308e+00 4.7827956064e+00 
306400 4.7628613967e+00 -4.8002614236e-04 2.7613570320e+00 -4.7828106773e+00 2.7613570320e+00 4.7828106773e+00 
306500 4.7628613927e+00 -4.7951154813e-04 2.7613657239e+00 -4.7828257321e+00 2.7613657239e+00 4.7828257321e+00 
306600 4.7628613887e+00 -4.7899750556e-04 2.7613744064e+00 -4.7828407706e+00 2.7613744064e+00 4.7828407706e+00 
306700 4.7628613847e+00 -4.7848401406e-04 2.7613830796e+00 -4.7828557930e+00 2.7613830796e+00 4.7828557930e+00 
306800 4.7628613808e+00 -4.7797107306e-04 2.7613917434e+00 -4.7828707992e+00 2.7613917434e+00 4.7828707992e+00 
306900 4.7628613768e+00 -4.7745868195e-04 2.7614003980e+00 -4.7828857893e+00 2.7614003980e+00 4.7828857893e+00 
307000 4.7628613728e+00 -4.7694684016e-04 2.7614090432e+00 -4.7829007633e+00 2.7614090432e+00 4.7829007633e+00 
307100 4.7628613689e+00 -4.7643554709e-04 2.7614176791e+00 -4.7829157212e+00 2.7614176791e+00 4.7829157212e+00 
307200 4.7628613650e+00 -4.7592480217e-04 2.7614263058e+00 -4.7829306630e+00 2.7614263058e+00 4.7829306630e+00 
307300 4.7628613610e+00 -4.7541460480e-04 2.7614349232e+00 -4.7829455887e+00 2.7614349232e+00 4.7829455887e+00 
307400 4.7628613571e+00 -4.7490495441e-04 2.7614435313e+00 -4.7829604984e+00 2.7614435313e+00 4.7829604984e+00 
307500 4.7628613532e+00 -4.7439585040e-04 2.7614521301e+00 -4.7829753921e+00 2.7614521301e+00 4.7829753921e+00 
307600 4.7628613493e+00 -4.7388729220e-04 2.7614607197e+00 -4.7829902697e+00 2.7614607197e+00 4.7829902697e+00 
307700 4.7628613454e+00 -4.7337927922e-04 2.7614693001e+00 -4.7830051314e+00 2.7614693001e+00 4.7830051314e+00 
307800 4.7628613415e+00 -4.7287181087e-04 2.7614778713e+00 -4.7830199770e+00 2.7614778713e+00 4.7830199770e+00 
307900 4.7628613377e+00 -4.7236488659e-04 2.7614864332e+00 -4.7830348067e+00 2.7614864332e+00 4.7830348067e+00 
308000 4.7628613338e+00 -4.7185850578e-04 2.7614949859e+00 -4.7830496205e+00 2.7614949859e+00 4.7830496205e+00 
308100 4.7628613299e+00 -4.7135266787e-04 2.7615035295e+00 -4.7830644183e+00 2.7615035295e+00 4.7830644183e+00 
308200 4.7628613261e+00 -4.7084737228e-04 2.7615120638e+00 -4.7830792003e+00 2.7615120638e+00 4.7830792003e+00 
308300 4.7628613223e+00 -4.7034261843e-04 2.7615205890e+00 -4.7830939663e+00 2.7615205890e+00 4.7830939663e+00 
308400 4.7628613184e+00 -4.6983840573e-04 2.7615291050e+00 -4.7831087165e+00 2.7615291050e+00 4.7831087165e+00 
308500 4.7628613146e+00 -4.6933473362e-04 2.7615376119e+00 -4.7831234508e+00 2.7615376119e+00 4.7831234508e+00 
308600 4.7628613108e+00 -4.6883160151e-04 2.7615461096e+00 -4.7831381693e+00 2.7615461096e+00 4.7831381693e+00 
308700 4.7628613070e+00 -4.6832900883e-04 2.7615545982e+00 -4.7831528719e+00 2.7615545982e+00 4.7831528719e+00 
308800 4.7628613032e+00 -4.6782695500e-04 2.7615630776e+00 -4.7831675587e+00 2.7615630776e+00 4.7831675587e+00 
308900 4.7628612994e+00 -4.6732543945e-04 2.7615715480e+00 -4.7831822298e+00 2.7615715480e+00 4.7831822298e+00 
309000 4.7628612956e+00 -4.6682446160e-04 2.7615800092e+00 -4.7831968851e+00 2.7615800092e+00 4.7831968851e+00 
309100 4.7628612918e+00 -4.6632402088e-04 2.7615884613e+00 -4.7832115246e+00 2.7615884613e+00 4.7832115246e+00 
309200 4.7628612880e+00 -4.6582411671e-04 2.7615969044e+00 -4.7832261484e+00 2.7615969044e+00 4.7832261484e+00 
309300 4.7628612843e+00 -4.6532474852e-04 2.7616053383e+00 -4.7832407564e+00 2.7616053383e+00 4.7832407564e+00 
309400 4.7628612805e+00 -4.6482591574e-04 2.7616137632e+00 -4.7832553488e+00 2.7616137632e+00 4.7832553488e+00 
309500 4.7628612768e+00 -4.6432761780e-04 2.7616221791e+00 -4.7832699254e+00 2.7616221791e+00 4.7832699254e+00 
309600 4.7628612731e+00 -4.6382985412e-04 2.7616305859e+00 -4.7832844864e+00 2.7616305859e+00 4.7832844864e+00 
309700 4.7628612693e+00 -4.6333262414e-04 2.7616389836e+00 -4.7832990318e+00 2.7616389836e+00 4.7832990318e+00 
309800 4.7628612656e+00 -4.6283592728e-04 2.7616473723e+00 -4.7833135615e+00 2.7616473723e+00 4.7833135615e+00 
309900 4.7628612619e+00 -4.6233976297e-04 2.7616557521e+00 -4.7833280756e+00 2.7616557521e+00 4.7833280756e+00 
310000 4.7628612582e+00 -4.6184413065e-04 2.7616641228e+00 -4.7833425741e+00 2.7616641228e+00 4.7833425741e+00 
310100 4.7628612545e+00 -4.6134902975e-04 2.7616724845e+00 -4.7833570570e+00 2.7616724845e+00 4.7833570570e+00 
310200 4.7628612508e+00 -4.6085445970e-04 2.7616808372e+00 -4.7833715243e+00 2.7616808372e+00 4.7833715243e+00 
310300 4.7628612471e+00 -4.6036041993e-04 2.7616891809e+00 -4.7833859761e+00 2.7616891809e+00 4.7833859761e+00 
310400 4.7628612435e+00 -4.5986690988e-04 2.7616975157e+00 -4.7834004123e+00 2.7616975157e+00 4.7834004123e+00 
310500 4.7628612398e+00 -4.5937392898e-04 2.7617058415e+00 -4.7834148330e+00 2.7617058415e+00 4.7834148330e+00 
310600 4.7628612361e+00 -4.5888147667e-04 2.7617141583e+00 -4.7834292382e+00 2.7617141583e+00 4.7834292382e+00 
310700 4.7628612325e+00 -4.5838955237e-04 2.7617224663e+00 -4.7834436280e+00 2.7617224663e+00 4.7834436280e+00 
310800 4.7628612288e+00 -4.5789815554e-04 2.7617307652e+00 -4.7834580022e+00 2.7617307652e+00 4.7834580022e+00 
310900 4.7628612252e+00 -4.5740728559e-04 2.7617390553e+00 -4.7834723610e+00 2.7617390553e+00 4.7834723610e+00 
311000 4.7628612216e+00 -4.5691694198e-04 2.7617473365e+00 -4.7834867044e+00 2.7617473365e+00 4.7834867044e+00 
311100 4.7628612180e+00 -4.5642712413e-04 2.7617556087e+00 -4.7835010324e+00 2.7617556087e+00 4.7835010324e+00 
311200 4.7628612144e+00 -4.5593783149e-04 2.7617638721e+00 -4.7835153449e+00 2.7617638721e+00 4.7835153449e+00 
311300 4.7628612108e+00 -4.5544906350e-04 2.7617721265e+00 -4.7835296421e+00 2.7617721265e+00 4.7835296421e+00 
311400 4.7628612072e+00 -4.5496081959e-04 2.7617803721e+00 -4.7835439239e+00 2.7617803721e+00 4.7835439239e+00 
311500 4.7628612036e+00 -4.5447309920e-04 2.7617886089e+00 -4.7835581903e+00 2.7617886089e+00 4.7835581903e+00 
311600 4.7628612000e+00 -4.5398590178e-04 2.7617968367e+00 -4.7835724414e+00 2.7617968367e+00 4.7835724414e+00 
311700 4.7628611964e+00 -4.5349922676e-04 2.7618050558e+00 -4.7835866772e+00 2.7618050558e+00 4.7835866772e+00 
311800 4.7628611929e+00 -4.5301307360e-04 2.7618132660e+00 -4.7836008977e+00 2.7618132660e+00 4.7836008977e+00 
311900 4.7628611893e+00 -4.5252744172e-04 2.7618214674e+00 -4.7836151029e+00 2.7618214674e+00 4.7836151029e+00 
312000 4.7628611858e+00 -4.5204233057e-04 2.7618296599e+00 -4.7836292928e+00 2.7618296599e+00 4.7836292928e+00 
312100 4.7628611822e+00 -4.5155773961e-04 2.7618378437e+00 -4.7836434675e+00 2.7618378437e+00 4.7836434675e+00 
312200 4.7628611787e+00 -4.5107366826e-04 2.7618460186e+00 -4.7836576269e+00 2.7618460186e+00 4.7836576269e+00 
312300 4.7628611752e+00 -4.5059011598e-04 2.7618541848e+00 -4.7836717711e+00 2.7618541848e+00 4.7836717711e+00 
312400 4.7628611717e+00 -4.5010708221e-04 2.7618623422e+00 -4.7836859002e+00 2.7618623422e+00 4.7836859002e+00 
312500 4.7628611681e+00 -4.4962456639e-04 2.7618704908e+00 -4.7837000140e+00 2.7618704908e+00 4.7837000140e+00 
312600 4.7628611646e+00 -4.4914256798e-04 2.7618786307e+00 -4.7837141126e+00 2.7618786307e+00 4.7837141126e+00 
312700 4.7628611611e+00 -4.4866108642e-04 2.7618867618e+00 -4.7837281961e+00 2.7618867618e+00 4.7837281961e+00 
312800 4.7628611577e+00 -4.4818012116e-04 2.7618948841e+00 -4.7837422645e+00 2.7618948841e+00 4.7837422645e+00 
312900 4.7628611542e+00 -4.4769967164e-04 2.7619029978e+00 -4.7837563177e+00 2.7619029978e+00 4.7837563177e+00 
313000 4.7628611507e+00 -4.4721973732e-04 2.7619111027e+00 -4.7837703558e+00 2.7619111027e+00 4.7837703558e+00 
313100 4.7628611472e+00 -4.4674031764e-04 2.7619191989e+00 -4.7837843789e+00 2.7619191989e+00 4.7837843789e+00 
313200 4.7628611438e+00 -4.4626141206e-04 2.7619272864e+00 -4.7837983868e+00 2.7619272864e+00 4.7837983868e+00 
313300 4.7628611403e+00 -4.4578302002e-04 2.7619353652e+00 -4.7838123798e+00 2.7619353652e+00 4.7838123798e+00 
313400 4.7628611369e+00 -4.4530514097e-04 2.7619434353e+00 -4.7838263576e+00 2.7619434353e+00 4.7838263576e+00 
313500 4.7628611335e+00 -4.4482777437e-04 2.7619514968e+00 -4.7838403205e+00 2.7619514968e+00 4.7838403205e+00 
313600 4.7628611300e+00 -4.4435091967e-04 2.7619595496e+00 -4.7838542683e+00 2.7619595496e+00 4.7838542683e+00 
313700 4.7628611266e+00 -4.4387457633e-04 2.7619675937e+00 -4.7838682011e+00 2.7619675937e+00 4.7838682011e+00 
313800 4.7628611232e+00 -4.4339874378e-04 2.7619756292e+00 -4.7838821190e+00 2.7619756292e+00 4.7838821190e+00 
313900 4.7628611198e+00 -4.4292342150e-04 2.7619836560e+00 -4.7838960219e+00 2.7619836560e+00 4.7838960219e+00 
314000 4.7628611164e+00 -4.4244860893e-04 2.7619916742e+00 -4.7839099098e+00 2.7619916742e+00 4.7839099098e+00 
314100 4.7628611130e+00 -4.4197430553e-04 2.7619996838e+00 -4.7839237829e+00 2.7619996838e+00 4.7839237829e+00 
314200 4.7628611096e+00 -4.4150051076e-04 2.7620076848e+00 -4.7839376410e+00 2.7620076848e+00 4.7839376410e+00 
314300 4.7628611062e+00 -4.4102722406e-04 2.7620156772e+00 -4.7839514842e+00 2.7620156772e+00 4.7839514842e+00 
314400 4.7628611029e+00 -4.4055444491e-04 2.7620236610e+00 -4.7839653126e+00 2.7620236610e+00 4.7839653126e+00 
314500 4.7628610995e+00 -4.4008217275e-04 2.7620316362e+00 -4.7839791260e+00 2.7620316362e+00 4.7839791260e+00 
314600 4.7628610962e+00 -4.3961040704e-04 2.7620396029e+00 -4.7839929247e+00 2.7620396029e+00 4.7839929247e+00 
314700 4.7628610928e+00 -4.3913914724e-04 2.7620475609e+00 -4.7840067085e+00 2.7620475609e+00 4.7840067085e+00 
314800 4.7628610895e+00 -4.3866839281e-04 2.7620555105e+00 -4.7840204774e+00 2.7620555105e+00 4.7840204774e+00 
314900 4.7628610861e+00 -4.3819814322e-04 2.7620634514e+00 -4.7840342316e+00 2.7620634514e+00 4.7840342316e+00 
315000 4.7628610828e+00 -4.3772839791e-04 2.7620713839e+00 -4.7840479710e+00 2.7620713839e+00 4.7840479710e+00 
315100 4.7628610795e+00 -4.3725915635e-04 2.7620793078e+00 -4.7840616957e+00 2.7620793078e+00 4.7840616957e+00 
315200 4.7628610762e+00 -4.3679041801e-04 2.7620872232e+00 -4.7840754055e+00 2.7620872232e+00 4.7840754055e+00 
315300 4.7628610729e+00 -4.3632218234e-04 2.7620951301e+00 -4.7840891007e+00 2.7620951301e+00 4.7840891007e+00 
315400 4.7628610696e+00 -4.3585444881e-04 2.7621030285e+00 -4.7841027811e+00 2.7621030285e+00 4.7841027811e+00 
315500 4.7628610663e+00 -4.3538721688e-04 2.7621109184e+00 -4.7841164468e+00 2.7621109184e+00 4.7841164468e+00 
315600 4.7628610630e+00 -4.3492048601e-04 2.7621187998e+00 -4.7841300978e+00 2.7621187998e+00 4.7841300978e+00 
315700 4.7628610597e+00 -4.3445425567e-04 2.7621266728e+00 -4.7841437342e+00 2.7621266728e+00 4.7841437342e+00 
315800 4.7628610565e+00 -4.3398852532e-04 2.7621345373e+00 -4.7841573559e+00 2.7621345373e+00 4.7841573559e+00 
315900 4.7628610532e+00 -4.3352329443e-04 2.7621423933e+00 -4.7841709630e+00 2.7621423933e+00 4.7841709630e+00 
316000 4.7628610500e+00 -4.3305856247e-04 2.7621502409e+00 -4.7841845554e+00 2.7621502409e+00 4.7841845554e+00 
316100 4.7628610467e+00 -4.3259432889e-04 2.7621580801e+00 -4.7841981332e+00 2.7621580801e+00 4.7841981332e+00 
316200 4.7628610435e+00 -4.3213059317e-04 2.7621659108e+00 -4.7842116965e+00 2.7621659108e+00 4.7842116965e+00 
316300 4.7628610402e+00 -4.3166735478e-04 2.7621737331e+00 -4.7842252451e+00 2.7621737331e+00 4.7842252451e+00 
316400 4.7628610370e+00 -4.3120461317e-04 2.7621815470e+00 -4.7842387792e+00 2.7621815470e+00 4.7842387792e+00 
316500 4.7628610338e+00 -4.3074236783e-04 2.7621893525e+00 -4.7842522987e+00 2.7621893525e+00 4.7842522987e+00 
316600 4.7628610306e+00 -4.3028061822e-04 2.7621971497e+00 -4.7842658037e+00 2.7621971497e+00 4.7842658037e+00 
316700 4.7628610274e+00 -4.2981936381e-04 2.7622049384e+00 -4.7842792942e+00 2.7622049384e+00 4.7842792942e+00 
316800 4.7628610242e+00 -4.2935860407e-04 2.7622127188e+00 -4.7842927702e+00 2.7622127188e+00 4.7842927702e+00 
316900 4.7628610210e+00 -4.2889833848e-04 2.7622204908e+00 -4.7843062318e+00 2.7622204908e+00 4.7843062318e+00 
317000 4.7628610178e+00 -4.2843856649e-04 2.7622282544e+00 -4.7843196788e+00 2.7622282544e+00 4.7843196788e+00 
317100 4.7628610146e+00 -4.2797928759e-04 2.7622360098e+00 -4.7843331114e+00 2.7622360098e+00 4.7843331114e+00 
317200 4.7628610114e+00 -4.2752050125e-04 2.7622437567e+00 -4.7843465295e+00 2.7622437567e+00 4.7843465295e+00 
317300 4.7628610083e+00 -4.2706220694e-04 2.7622514954e+00 -4.7843599333e+00 2.7622514954e+00 4.7843599333e+00 
317400 4.7628610051e+00 -4.2660440413e-04 2.7622592257e+00 -4.7843733226e+00 2.7622592257e+00 4.7843733226e+00 
317500 4.7628610020e+00 -4.2614709230e-04 2.7622669477e+00 -4.7843866975e+00 2.7622669477e+00 4.7843866975e+00 
317600 4.7628609988e+00 -4.2569027093e-04 2.7622746615e+00 -4.7844000581e+00 2.7622746615e+00 4.7844000581e+00 
317700 4.7628609957e+00 -4.2523393948e-04 2.7622823669e+00 -4.7844134043e+00 2.7622823669e+00 4.7844134043e+00 
317800 4.7628609925e+00 -4.2477809744e-04 2.7622900640e+00 -4.7844267362e+00 2.7622900640e+00 4.7844267362e+00 
317900 4.7628609894e+00 -4.2432274428e-04 2.7622977529e+00 -4.7844400537e+00 2.7622977529e+00 4.7844400537e+00 
318000 4.7628609863e+00 -4.2386787948e-04 2.7623054335e+00 -4.7844533569e+00 2.7623054335e+00 4.7844533569e+00 
318100 4.7628609832e+00 -4.2341350251e-04 2.7623131059e+00 -4.7844666458e+00 2.7623131059e+00 4.7844666458e+00 
318200 4.7628609801e+00 -4.2295961286e-04 2.7623207700e+00 -4.7844799205e+00 2.7623207700e+00 4.7844799205e+00 
318300 4.7628609770e+00 -4.2250621000e-04 2.7623284259e+00 -4.7844931808e+00 2.7623284259e+00 4.7844931808e+00 
318400 4.7628609739e+00 -4.2205329341e-04 2.7623360735e+00 -4.7845064270e+00 2.7623360735e+00 4.7845064270e+00 
318500 4.7628609708e+00 -4.2160086257e-04 2.7623437130e+00 -4.7845196588e+00 2.7623437130e+00 4.7845196588e+00 
318600 4.7628609677e+00 -4.2114891696e-04 2.7623513442e+00 -4.7845328765e+00 2.7623513442e+00 4.7845328765e+00 
318700 4.7628609647e+00 -4.2069745607e-04 2.7623589672e+00 -4.7845460800e+00 2.7623589672e+00 4.7845460800e+00 
318800 4.7628609616e+00 -4.2024647937e-04 2.7623665820e+00 -4.7845592692e+00 2.7623665820e+00 4.7845592692e+00 
318900 4.7628609585e+00 -4.1979598635e-04 2.7623741887e+00 -4.7845724443e+00 2.7623741887e+00 4.7845724443e+00 
319000 4.7628609555e+00 -4.1934597648e-04 2.7623817871e+00 -4.7845856052e+00 2.7623817871e+00 4.7845856052e+00 
319100 4.7628609524e+00 -4.1889644926e-04 2.7623893774e+00 -4.7845987520e+00 2.7623893774e+00 4.7845987520e+00 
319200 4.7628609494e+00 -4.1844740416e-04 2.7623969596e+00 -4.7846118847e+00 2.7623969596e+00 4.7846118847e+00 
319300 4.7628609464e+00 -4.1799884066e-04 2.7624045336e+00 -4.7846250032e+00 2.7624045336e+00 4.7846250032e+00 
319400 4.7628609434e+00 -4.1755075827e-04 2.7624120994e+00 -4.7846381077e+00 2.7624120994e+00 4.7846381077e+00 
319500 4.7628609403e+00 -4.1710315645e-04 2.7624196572e+00 -4.7846511980e+00 2.7624196572e+00 4.7846511980e+00 
319600 4.7628609373e+00 -4.1665603469e-04 2.7624272068e+00 -4.7846642743e+00 2.7624272068e+00 4.7846642743e+00 
319700 4.7628609343e+00 -4.1620939249e-04 2.7624347483e+00 -4.7846773366e+00 2.7624347483e+00 4.7846773366e+00 
319800 4.7628609313e+00 -4.1576322933e-04 2.7624422816e+00 -4.7846903848e+00 2.7624422816e+00 4.7846903848e+00 
319900 4.7628609283e+00 -4.1531754468e-04 2.7624498069e+00 -4.7847034189e+00 2.7624498069e+00 4.7847034189e+00 
320000 4.7628609253e+00 -4.1487233806e-04 2.7624573241e+00 -4.7847164391e+00 2.7624573241e+00 4.7847164391e+00 
320100 4.7628609224e+00 -4.1442760893e-04 2.7624648332e+00 -4.7847294453e+00 2.7624648332e+00 4.7847294453e+00 
320200 4.7628609194e+00 -4.1398335679e-04 2.7624723343e+00 -4.7847424375e+00 2.7624723343e+00 4.7847424375e+00 
320300 4.7628609164e+00 -4.1353958114e-04 2.7624798273e+00 -4.7847554157e+00 2.7624798273e+00 4.7847554157e+00 
320400 4.7628609135e+00 -4.1309628145e-04 2.7624873122e+00 -4.7847683800e+00 2.7624873122e+00 4.7847683800e+00 
320500 4.7628609105e+00 -4.1265345723e-04 2.7624947891e+00 -4.7847813304e+00 2.7624947891e+00 4.7847813304e+00 
320600 4.7628609076e+00 -4.1221110795e-04 2.7625022580e+00 -4.7847942668e+00 2.7625022580e+00 4.7847942668e+00 
320700 4.7628609046e+00 -4.1176923312e-04 2.7625097188e+00 -4.7848071894e+00 2.7625097188e+00 4.7848071894e+00 
320800 4.7628609017e+00 -4.1132783223e-04 2.7625171716e+00 -4.7848200980e+00 2.7625171716e+00 4.7848200980e+00 
320900 4.7628608987e+00 -4.1088690476e-04 2.7625246164e+00 -4.7848329928e+00 2.7625246164e+00 4.7848329928e+00 
321000 4.7628608958e+00 -4.1044645021e-04 2.7625320532e+00 -4.7848458737e+00 2.7625320532e+00 4.7848458737e+00 
321100 4.7628608929e+00 -4.1000646808e-04 2.7625394820e+00 -4.7848587408e+00 2.7625394820e+00 4.7848587408e+00 
321200 4.7628608900e+00 -4.0956695786e-04 2.7625469029e+00 -4.7848715941e+00 2.7625469029e+00 4.7848715941e+00 
321300 4.7628608871e+00 -4.0912791905e-04 2.7625543157e+00 -4.7848844335e+00 2.7625543157e+00 4.7848844335e+00 
321400 4.7628608842e+00 -4.0868935113e-04 2.7625617206e+00 -4.7848972591e+00 2.7625617206e+00 4.7848972591e+00 
321500 4.7628608813e+00 -4.0825125361e-04 2.7625691175e+00 -4.7849100710e+00 2.7625691175e+00 4.7849100710e+00 
321600 4.7628608784e+00 -4.0781362598e-04 2.7625765065e+00 -4.7849228691e+00 2.7625765065e+00 4.7849228691e+00 
321700 4.7628608755e+00 -4.0737646775e-04 2.7625838876e+00 -4.7849356534e+00 2.7625838876e+00 4.7849356534e+00 
321800 4.7628608727e+00 -4.0693977840e-04 2.7625912607e+00 -4.7849484240e+00 2.7625912607e+00 4.7849484240e+00 
321900 4.7628608698e+00 -4.0650355743e-04 2.7625986259e+00 -4.7849611809e+00 2.7625986259e+00 4.7849611809e+00 
322000 4.7628608669e+00 -4.0606780435e-04 2.7626059831e+00 -4.7849739241e+00 2.7626059831e+00 4.7849739241e+00 
322100 4.7628608641e+00 -4.0563251865e-04 2.7626133325e+00 -4.7849866535e+00 2.7626133325e+00 4.7849866535e+00 
322200 4.7628608612e+00 -4.0519769983e-04 2.7626206740e+00 -4.7849993693e+00 2.7626206740e+00 4.7849993693e+00 
322300 4.7628608584e+00 -4.0476334740e-04 2.7626280075e+00 -4.7850120715e+00 2.7626280075e+00 4.7850120715e+00 
322400 4.7628608556e+00 -4.0432946085e-04 2.7626353332e+00 -4.7850247600e+00 2.7626353332e+00 4.7850247600e+00 
322500 4.7628608527e+00 -4.0389603968e-04 2.7626426511e+00 -4.7850374348e+00 2.7626426511e+00 4.7850374348e+00 
322600 4.7628608499e+00 -4.0346308340e-04 2.7626499610e+00 -4.7850500960e+00 2.7626499610e+00 4.7850500960e+00 
322700 4.7628608471e+00 -4.0303059151e-04 2.7626572631e+00 -4.7850627436e+00 2.7626572631e+00 4.7850627436e+00 
322800 4.7628608443e+00 -4.0259856351e-04 2.7626645574e+00 -4.7850753777e+00 2.7626645574e+00 4.7850753777e+00 
322900 4.7628608415e+00 -4.0216699891e-04 2.7626718438e+00 -4.7850879981e+00 2.7626718438e+00 4.7850879981e+00 
323000 4.7628608387e+00 -4.0173589720e-04 2.7626791224e+00 -4.7851006050e+00 2.7626791224e+00 4.7851006050e+00 
323100 4.7628608359e+00 -4.0130525790e-04 2.7626863932e+00 -4.7851131983e+00 2.7626863932e+00 4.7851131983e+00 
323200 4.7628608331e+00 -4.0087508051e-04 2.7626936561e+00 -4.7851257782e+00 2.7626936561e+00 4.7851257782e+00 
323300 4.7628608303e+00 -4.0044536453e-04 2.7627009113e+00 -4.7851383445e+00 2.7627009113e+00 4.7851383445e+00 
323400 4.7628608275e+00 -4.0001610947e-04 2.7627081586e+00 -4.7851508972e+00 2.7627081586e+00 4.7851508972e+00 
323500 4.7628608248e+00 -3.9958731483e-04 2.7627153982e+00 -4.7851634365e+00 2.7627153982e+00 4.7851634365e+00 
323600 4.7628608220e+00 -3.9915898013e-04 2.7627226300e+00 -4.7851759624e+00 2.7627226300e+00 4.7851759624e+00 
323700 4.7628608192e+00 -3.9873110487e-04 2.7627298540e+00 -4.7851884747e+00 2.7627298540e+00 4.7851884747e+00 
323800 4.7628608165e+00 -3.9830368856e-04 2.7627370703e+00 -4.7852009737e+00 2.7627370703e+00 4.7852009737e+00 
323900 4.7628608137e+00 -3.9787673070e-04 2.7627442788e+00 -4.7852134591e+00 2.7627442788e+00 4.7852134591e+00 
324000 4.7628608110e+00 -3.9745023082e-04 2.7627514795e+00 -4.7852259312e+00 2.7627514795e+00 4.7852259312e+00 
324100 4.7628608083e+00 -3.9702418840e-04 2.7627586725e+00 -4.7852383899e+00 2.7627586725e+00 4.7852383899e+00 
324200 4.7628608055e+00 -3.9659860298e-04 2.7627658578e+00 -4.7852508352e+00 2.7627658578e+00 4.7852508352e+00 
324300 4.7628608028e+00 -3.9617347405e-04 2.7627730354e+00 -4.7852632671e+00 2.7627730354e+00 4.7852632671e+00 
324400 4.7628608001e+00 -3.9574880112e-04 2.7627802052e+00 -4.7852756856e+00 2.7627802052e+00 4.7852756856e+00 
324500 4.7628607974e+00 -3.9532458372e-04 2.7627873674e+00 -4.7852880908e+00 2.7627873674e+00 4.7852880908e+00 
324600 4.7628607947e+00 -3.9490082135e-04 2.7627945219e+00 -4.7853004827e+00 2.7627945219e+00 4.7853004827e+00 
324700 4.7628607920e+00 -3.9447751353e-04 2.7628016686e+00 -4.7853128613e+00 2.7628016686e+00 4.7853128613e+00 
324800 4.7628607893e+00 -3.9405465976e-04 2.7628088077e+00 -4.7853252266e+00 2.7628088077e+00 4.7853252266e+00 
324900 4.7628607866e+00 -3.9363225956e-04 2.7628159391e+00 -4.7853375785e+00 2.7628159391e+00 4.7853375785e+00 
325000 4.7628607839e+00 -3.9321031245e-04 2.7628230629e+00 -4.7853499172e+00 2.7628230629e+00 4.7853499172e+00 
325100 4.7628607812e+00 -3.9278881794e-04 2.7628301790e+00 -4.7853622427e+00 2.7628301790e+00 4.7853622427e+00 
325200 4.7628607786e+00 -3.9236777554e-04 2.7628372874e+00 -4.7853745549e+00 2.7628372874e+00 4.7853745549e+00 
325300 4.7628607759e+00 -3.9194718478e-04 2.7628443883e+00 -4.7853868539e+00 2.7628443883e+00 4.7853868539e+00 
325400 4.7628607733e+00 -3.9152704516e-04 2.7628514814e+00 -4.7853991396e+00 2.7628514814e+00 4.7853991396e+00 
325500 4.7628607706e+00 -3.9110735621e-04 2.7628585670e+00 -4.7854114122e+00 2.7628585670e+00 4.7854114122e+00 
325600 4.7628607680e+00 -3.9068811745e-04 2.7628656449e+00 -4.7854236715e+00 2.7628656449e+00 4.7854236715e+00 
325700 4.7628607653e+00 -3.9026932838e-04 2.7628727153e+00 -4.7854359177e+00 2.7628727153e+00 4.7854359177e+00 
325800 4.7628607627e+00 -3.8985098853e-04 2.7628797780e+00 -4.7854481508e+00 2.7628797780e+00 4.7854481508e+00 
325900 4.7628607600e+00 -3.8943309741e-04 2.7628868332e+00 -4.7854603707e+00 2.7628868332e+00 4.7854603707e+00 
326000 4.7628607574e+00 -3.8901565456e-04 2.7628938808e+00 -4.7854725774e+00 2.7628938808e+00 4.7854725774e+00 
326100 4.7628607548e+00 -3.8859865948e-04 2.7629009208e+00 -4.7854847711e+00 2.7629009208e+00 4.7854847711e+00 
326200 4.7628607522e+00 -3.8818211169e-04 2.7629079532e+00 -4.7854969516e+00 2.7629079532e+00 4.7854969516e+00 
326300 4.7628607496e+00 -3.8776601073e-04 2.7629149781e+00 -4.7855091191e+00 2.7629149781e+00 4.7855091191e+00 
326400 4.7628607470e+00 -3.8735035610e-04 2.7629219955e+00 -4.7855212735e+00 2.7629219955e+00 4.7855212735e+00 
326500 4.7628607444e+00 -3.8693514734e-04 2.7629290053e+00 -4.7855334148e+00 2.7629290053e+00 4.7855334148e+00 
326600 4.7628607418e+00 -3.8652038396e-04 2.7629360075e+00 -4.7855455431e+00 2.7629360075e+00 4.7855455431e+00 
326700 4.7628607392e+00 -3.8610606548e-04 2.7629430023e+00 -4.7855576583e+00 2.7629430023e+00 4.7855576583e+00 
326800 4.7628607366e+00 -3.8569219143e-04 2.7629499895e+00 -4.7855697606e+00 2.7629499895e+00 4.7855697606e+00 
326900 4.7628607341e+00 -3.8527876134e-04 2.7629569692e+00 -4.7855818498e+00 2.7629569692e+00 4.7855818498e+00 
327000 4.7628607315e+00 -3.8486577473e-04 2.7629639414e+00 -4.7855939260e+00 2.7629639414e+00 4.7855939260e+00 
327100 4.7628607289e+00 -3.8445323112e-04 2.7629709062e+00 -4.7856059893e+00 2.7629709062e+00 4.7856059893e+00 
327200 4.7628607264e+00 -3.8404113004e-04 2.7629778634e+00 -4.7856180396e+00 2.7629778634e+00 4.7856180396e+00 
327300 4.7628607238e+00 -3.8362947101e-04 2.7629848132e+00 -4.7856300770e+00 2.7629848132e+00 4.7856300770e+00 
327400 4.7628607213e+00 -3.8321825356e-04 2.7629917555e+00 -4.7856421014e+00 2.7629917555e+00 4.7856421014e+00 
327500 4.7628607187e+00 -3.8280747722e-04 2.7629986903e+00 -4.7856541129e+00 2.7629986903e+00 4.7856541129e+00 
327600 4.7628607162e+00 -3.8239714152e-04 2.7630056177e+00 -4.7856661115e+00 2.7630056177e+00 4.7856661115e+00 
327700 4.7628607137e+00 -3.8198724598e-04 2.7630125377e+00 -4.7856780972e+00 2.7630125377e+00 4.7856780972e+00 
327800 4.7628607111e+00 -3.8157779013e-04 2.7630194502e+00 -4.7856900700e+00 2.7630194502e+00 4.7856900700e+00 
327900 4.7628607086e+00 -3.8116877351e-04 2.7630263553e+00 -4.7857020300e+00 2.7630263553e+00 4.7857020300e+00 
328000 4.7628607061e+00 -3.8076019563e-04 2.7630332530e+00 -4.7857139771e+00 2.7630332530e+00 4.7857139771e+00 
328100 4.7628607036e+00 -3.8035205603e-04 2.7630401432e+00 -4.7857259114e+00 2.7630401432e+00 4.7857259114e+00 
328200 4.7628607011e+00 -3.7994435425e-04 2.7630470261e+00 -4.7857378329e+00 2.7630470261e+00 4.7857378329e+00 
328300 4.7628606986e+00 -3.7953708980e-04 2.7630539015e+00 -4.7857497415e+00 2.7630539015e+00 4.7857497415e+00 
328400 4.7628606961e+00 -3.7913026223e-04 2.7630607696e+00 -4.7857616374e+00 2.7630607696e+00 4.7857616374e+00 
328500 4.7628606936e+00 -3.7872387107e-04 2.7630676303e+00 -4.7857735204e+00 2.7630676303e+00 4.7857735204e+00 
328600 4.7628606911e+00 -3.7831791584e-04 2.7630744836e+00 -4.7857853907e+00 2.7630744836e+00 4.7857853907e+00 
328700 4.7628606886e+00 -3.7791239608e-04 2.7630813296e+00 -4.7857972483e+00 2.7630813296e+00 4.7857972483e+00 
328800 4.7628606862e+00 -3.7750731132e-04 2.7630881682e+00 -4.7858090931e+00 2.7630881682e+00 4.7858090931e+00 
328900 4.7628606837e+00 -3.7710266111e-04 2.7630949995e+00 -4.7858209252e+00 2.7630949995e+00 4.7858209252e+00 
329000 4.7628606812e+00 -3.7669844496e-04 2.7631018234e+00 -4.7858327446e+00 2.7631018234e+00 4.7858327446e+00 
329100 4.7628606788e+00 -3.7629466242e-04 2.7631086400e+00 -4.7858445513e+00 2.7631086400e+00 4.7858445513e+00 
329200 4.7628606763e+00 -3.7589131303e-04 2.7631154492e+00 -4.7858563453e+00 2.7631154492e+00 4.7858563453e+00 
329300 4.7628606739e+00 -3.7548839631e-04 2.7631222512e+00 -4.7858681266e+00 2.7631222512e+00 4.7858681266e+00 
329400 4.7628606715e+00 -3.7508591181e-04 2.7631290458e+00 -4.7858798952e+00 2.7631290458e+00 4.7858798952e+00 
329500 4.7628606690e+00 -3.7468385906e-04 2.7631358332e+00 -4.7858916513e+00 2.7631358332e+00 4.7858916513e+00 
329600 4.7628606666e+00 -3.7428223760e-04 2.7631426132e+00 -4.7859033947e+00 2.7631426132e+00 4.7859033947e+00 
329700 4.7628606642e+00 -3.7388104696e-04 2.7631493860e+00 -4.7859151254e+00 2.7631493860e+00 4.7859151254e+00 
329800 4.7628606618e+00 -3.7348028669e-04 2.7631561515e+00 -4.7859268436e+00 2.7631561515e+00 4.7859268436e+00 
329900 4.7628606593e+00 -3.7307995633e-04 2.7631629097e+00 -4.7859385492e+00 2.7631629097e+00 4.7859385492e+00 
330000 4.7628606569e+00 -3.7268005540e-04 2.7631696607e+00 -4.7859502422e+00 2.7631696607e+00 4.7859502422e+00 
330100 4.7628606545e+00 -3.7228058346e-04 2.7631764044e+00 -4.7859619226e+00 2.7631764044e+00 4.7859619226e+00 
330200 4.7628606521e+00 -3.7188154005e-04 2.7631831408e+00 -4.7859735905e+00 2.7631831408e+00 4.7859735905e+00 
330300 4.7628606497e+00 -3.7148292470e-04 2.7631898701e+00 -4.7859852459e+00 2.7631898701e+00 4.7859852459e+00 
330400 4.7628606474e+00 -3.7108473695e-04 2.7631965921e+00 -4.7859968887e+00 2.7631965921e+00 4.7859968887e+00 
330500 4.7628606450e+00 -3.7068697635e-04 2.7632033068e+00 -4.7860085191e+00 2.7632033068e+00 4.7860085191e+00 
330600 4.7628606426e+00 -3.7028964244e-04 2.7632100144e+00 -4.7860201369e+00 2.7632100144e+00 4.7860201369e+00 
330700 4.7628606402e+00 -3.6989273477e-04 2.7632167147e+00 -4.7860317423e+00 2.7632167147e+00 4.7860317423e+00 
330800 4.7628606379e+00 -3.6949625287e-04 2.7632234079e+00 -4.7860433352e+00 2.7632234079e+00 4.7860433352e+00 
330900 4.7628606355e+00 -3.6910019628e-04 2.7632300939e+00 -4.7860549156e+00 2.7632300939e+00 4.7860549156e+00 
331000 4.7628606331e+00 -3.6870456457e-04 2.7632367727e+00 -4.7860664836e+00 2.7632367727e+00 4.7860664836e+00 
331100 4.7628606308e+00 -3.6830935725e-04 2.7632434443e+00 -4.7860780391e+00 2.7632434443e+00 4.7860780391e+00 
331200 4.7628606284e+00 -3.6791457390e-04 2.7632501087e+00 -4.7860895823e+00 2.7632501087e+00 4.7860895823e+00 
331300 4.7628606261e+00 -3.6752021404e-04 2.7632567660e+00 -4.7861011130e+00 2.7632567660e+00 4.7861011130e+00 
331400 4.7628606238e+00 -3.6712627723e-04 2.7632634161e+00 -4.7861126314e+00 2.7632634161e+00 4.7861126314e+00 
331500 4.7628606214e+00 -3.6673276301e-04 2.7632700591e+00 -4.7861241374e+00 2.7632700591e+00 4.7861241374e+00 
331600 4.7628606191e+00 -3.6633967092e-04 2.7632766950e+00 -4.7861356310e+00 2.7632766950e+00 4.7861356310e+00 
331700 4.7628606168e+00 -3.6594700053e-04 2.7632833237e+00 -4.7861471123e+00 2.7632833237e+00 4.7861471123e+00 
331800 4.7628606145e+00 -3.6555475137e-04 2.7632899453e+00 -4.7861585813e+00 2.7632899453e+00 4.7861585813e+00 
331900 4.7628606121e+00 -3.6516292299e-04 2.7632965598e+00 -4.7861700379e+00 2.7632965598e+00 4.7861700379e+00 
332000 4.7628606098e+00 -3.6477151494e-04 2.7633031671e+00 -4.7861814822e+00 2.7633031671e+00 4.7861814822e+00 
332100 4.7628606075e+00 -3.6438052677e-04 2.7633097674e+00 -4.7861929142e+00 2.7633097674e+00 4.7861929142e+00 
332200 4.7628606052e+00 -3.6398995804e-04 2.7633163606e+00 -4.7862043340e+00 2.7633163606e+00 4.7862043340e+00 
332300 4.7628606029e+00 -3.6359980829e-04 2.7633229467e+00 -4.7862157415e+00 2.7633229467e+00 4.7862157415e+00 
332400 4.7628606007e+00 -3.6321007707e-04 2.7633295258e+00 -4.7862271367e+00 2.7633295258e+00 4.7862271367e+00 
332500 4.7628605984e+00 -3.6282076393e-04 2.7633360977e+00 -4.7862385197e+00 2.7633360977e+00 4.7862385197e+00 
332600 4.7628605961e+00 -3.6243186843e-04 2.7633426626e+00 -4.7862498904e+00 2.7633426626e+00 4.7862498904e+00 
332700 4.7628605938e+00 -3.6204339012e-04 2.7633492205e+00 -4.7862612490e+00 2.7633492205e+00 4.7862612490e+00 
332800 4.7628605916e+00 -3.6165532855e-04 2.7633557713e+00 -4.7862725953e+00 2.7633557713e+00 4.7862725953e+00 
332900 4.7628605893e+00 -3.6126768328e-04 2.7633623151e+00 -4.7862839294e+00 2.7633623151e+00 4.7862839294e+00 
333000 4.7628605870e+00 -3.6088045385e-04 2.7633688518e+00 -4.7862952514e+00 2.7633688518e+00 4.7862952514e+00 
333100 4.7628605848e+00 -3.6049363983e-04 2.7633753815e+00 -4.7863065612e+00 2.7633753815e+00 4.7863065612e+00 
333200 4.7628605825e+00 -3.6010724076e-04 2.7633819043e+00 -4.7863178589e+00 2.7633819043e+00 4.7863178589e+00 
333300 4.7628605803e+00 -3.5972125620e-04 2.7633884200e+00 -4.7863291444e+00 2.7633884200e+00 4.7863291444e+00 
333400 4.7628605781e+00 -3.5933568572e-04 2.7633949287e+00 -4.7863404178e+00 2.7633949287e+00 4.7863404178e+00 
333500 4.7628605758e+00 -3.5895052886e-04 2.7634014304e+00 -4.7863516791e+00 2.7634014304e+00 4.7863516791e+00 
333600 4.7628605736e+00 -3.5856578517e-04 2.7634079251e+00 -4.7863629283e+00 2.7634079251e+00 4.7863629283e+00 
333700 4.7628605714e+00 -3.5818145423e-04 2.7634144128e+00 -4.7863741654e+00 2.7634144128e+00 4.7863741654e+00 
333800 4.7628605692e+00 -3.5779753558e-04 2.7634208936e+00 -4.7863853904e+00 2.7634208936e+00 4.7863853904e+00 
333900 4.7628605669e+00 -3.5741402879e-04 2.7634273674e+00 -4.7863966034e+00 2.7634273674e+00 4.7863966034e+00 
334000 4.7628605647e+00 -3.5703093340e-04 2.7634338343e+00 -4.7864078044e+00 2.7634338343e+00 4.7864078044e+00 
334100 4.7628605625e+00 -3.5664824899e-04 2.7634402942e+00 -4.7864189933e+00 2.7634402942e+00 4.7864189933e+00 
334200 4.7628605603e+00 -3.5626597511e-04 2.7634467472e+00 -4.7864301701e+00 2.7634467472e+00 4.7864301701e+00 
334300 4.7628605581e+00 -3.5588411132e-04 2.7634531932e+00 -4.7864413350e+00 2.7634531932e+00 4.7864413350e+00 
334400 4.7628605559e+00 -3.5550265718e-04 2.7634596324e+00 -4.7864524879e+00 2.7634596324e+00 4.7864524879e+00 
334500 4.7628605538e+00 -3.5512161225e-04 2.7634660646e+00 -4.7864636288e+00 2.7634660646e+00 4.7864636288e+00 
334600 4.7628605516e+00 -3.5474097610e-04 2.7634724899e+00 -4.7864747578e+00 2.7634724899e+00 4.7864747578e+00 
334700 4.7628605494e+00 -3.5436074827e-04 2.7634789083e+00 -4.7864858747e+00 2.7634789083e+00 4.7864858747e+00 
334800 4.7628605472e+00 -3.5398092835e-04 2.7634853198e+00 -4.7864969798e+00 2.7634853198e+00 4.7864969798e+00 
334900 4.7628605451e+00 -3.5360151589e-04 2.7634917244e+00 -4.7865080729e+00 2.7634917244e+00 4.7865080729e+00 
335000 4.7628605429e+00 -3.5322251044e-04 2.7634981221e+00 -4.7865191541e+00 2.7634981221e+00 4.7865191541e+00 
335100 4.7628605407e+00 -3.5284391159e-04 2.7635045130e+00 -4.7865302234e+00 2.7635045130e+00 4.7865302234e+00 
335200 4.7628605386e+00 -3.5246571888e-04 2.7635108970e+00 -4.7865412808e+00 2.7635108970e+00 4.7865412808e+00 
335300 4.7628605364e+00 -3.5208793189e-04 2.7635172741e+00 -4.7865523263e+00 2.7635172741e+00 4.7865523263e+00 
335400 4.7628605343e+00 -3.5171055018e-04 2.7635236444e+00 -4.7865633600e+00 2.7635236444e+00 4.7865633600e+00 
335500 4.7628605321e+00 -3.5133357331e-04 2.7635300078e+00 -4.7865743818e+00 2.7635300078e+00 4.7865743818e+00 
335600 4.7628605300e+00 -3.5095700086e-04 2.7635363644e+00 -4.7865853918e+00 2.7635363644e+00 4.7865853918e+00 
335700 4.7628605279e+00 -3.5058083238e-04 2.7635427142e+00 -4.7865963899e+00 2.7635427142e+00 4.7865963899e+00 
335800 4.7628605258e+00 -3.5020506745e-04 2.7635490572e+00 -4.7866073763e+00 2.7635490572e+00 4.7866073763e+00 
335900 4.7628605236e+00 -3.4982970563e-04 2.7635553933e+00 -4.7866183508e+00 2.7635553933e+00 4.7866183508e+00 
336000 4.7628605215e+00 -3.4945474649e-04 2.7635617227e+00 -4.7866293135e+00 2.7635617227e+00 4.7866293135e+00 
336100 4.7628605194e+00 -3.4908018960e-04 2.7635680452e+00 -4.7866402645e+00 2.7635680452e+00 4.7866402645e+00 
336200 4.7628605173e+00 -3.4870603453e-04 2.7635743610e+00 -4.7866512037e+00 2.7635743610e+00 4.7866512037e+00 
336300 4.7628605152e+00 -3.4833228084e-04 2.7635806700e+00 -4.7866621312e+00 2.7635806700e+00 4.7866621312e+00 
336400 4.7628605131e+00 -3.4795892810e-04 2.7635869721e+00 -4.7866730469e+00 2.7635869721e+00 4.7866730469e+00 
336500 4.7628605110e+00 -3.4758597590e-04 2.7635932676e+00 -4.7866839509e+00 2.7635932676e+00 4.7866839509e+00 
336600 4.7628605089e+00 -3.4721342378e-04 2.7635995562e+00 -4.7866948432e+00 2.7635995562e+00 4.7866948432e+00 
336700 4.7628605068e+00 -3.4684127134e-04 2.7636058381e+00 -4.7867057238e+00 2.7636058381e+00 4.7867057238e+00 
336800 4.7628605047e+00 -3.4646951813e-04 2.7636121133e+00 -4.7867165927e+00 2.7636121133e+00 4.7867165927e+00 
336900 4.7628605027e+00 -3.4609816374e-04 2.7636183817e+00 -4.7867274499e+00 2.7636183817e+00 4.7867274499e+00 
337000 4.7628605006e+00 -3.4572720772e-04 2.7636246434e+00 -4.7867382954e+00 2.7636246434e+00 4.7867382954e+00 
337100 4.7628604985e+00 -3.4535664967e-04 2.7636308984e+00 -4.7867491293e+00 2.7636308984e+00 4.7867491293e+00 
337200 4.7628604965e+00 -3.4498648914e-04 2.7636371466e+00 -4.7867599516e+00 2.7636371466e+00 4.7867599516e+00 
337300 4.7628604944e+00 -3.4461672571e-04 2.7636433881e+00 -4.7867707623e+00 2.7636433881e+00 4.7867707623e+00 
337400 4.7628604924e+00 -3.4424735896e-04 2.7636496230e+00 -4.7867815613e+00 2.7636496230e+00 4.7867815613e+00 
337500 4.7628604903e+00 -3.4387838847e-04 2.7636558511e+00 -4.7867923488e+00 2.7636558511e+00 4.7867923488e+00 
337600 4.7628604883e+00 -3.4350981380e-04 2.7636620726e+00 -4.7868031246e+00 2.7636620726e+00 4.7868031246e+00 
337700 4.7628604862e+00 -3.4314163453e-04 2.7636682873e+00 -4.7868138889e+00 2.7636682873e+00 4.7868138889e+00 
337800 4.7628604842e+00 -3.4277385024e-04 2.7636744954e+00 -4.7868246416e+00 2.7636744954e+00 4.7868246416e+00 
337900 4.7628604822e+00 -3.4240646050e-04 2.7636806968e+00 -4.7868353828e+00 2.7636806968e+00 4.7868353828e+00 
338000 4.7628604801e+00 -3.4203946489e-04 2.7636868916e+00 -4.7868461124e+00 2.7636868916e+00 4.7868461124e+00 
338100 4.7628604781e+00 -3.4167286300e-04 2.7636930797e+00 -4.7868568305e+00 2.7636930797e+00 4.7868568305e+00 
338200 4.7628604761e+00 -3.4130665439e-04 2.7636992611e+00 -4.7868675371e+00 2.7636992611e+00 4.7868675371e+00 
338300 4.7628604741e+00 -3.4094083864e-04 2.7637054359e+00 -4.7868782322e+00 2.7637054359e+00 4.7868782322e+00 
338400 4.7628604721e+00 -3.4057541534e-04 2.7637116041e+00 -4.7868889158e+00 2.7637116041e+00 4.7868889158e+00 
338500 4.7628604701e+00 -3.4021038406e-04 2.7637177657e+00 -4.7868995880e+00 2.7637177657e+00 4.7868995880e+00 
338600 4.7628604681e+00 -3.3984574439e-04 2.7637239206e+00 -4.7869102486e+00 2.7637239206e+00 4.7869102486e+00 
338700 4.7628604661e+00 -3.3948149589e-04 2.7637300690e+00 -4.7869208979e+00 2.7637300690e+00 4.7869208979e+00 
338800 4.7628604641e+00 -3.3911763816e-04 2.7637362107e+00 -4.7869315356e+00 2.7637362107e+00 4.7869315356e+00 
338900 4.7628604621e+00 -3.3875417077e-04 2.7637423458e+00 -4.7869421620e+00 2.7637423458e+00 4.7869421620e+00 
339000 4.7628604601e+00 -3.3839109331e-04 2.7637484744e+00 -4.7869527770e+00 2.7637484744e+00 4.7869527770e+00 
339100 4.7628604581e+00 -3.3802840535e-04 2.7637545963e+00 -4.7869633805e+00 2.7637545963e+00 4.7869633805e+00 
339200 4.7628604561e+00 -3.3766610648e-04 2.7637607117e+00 -4.7869739727e+00 2.7637607117e+00 4.7869739727e+00 
339300 4.7628604542e+00 -3.3730419629e-04 2.7637668205e+00 -4.7869845534e+00 2.7637668205e+00 4.7869845534e+00 
339400 4.7628604522e+00 -3.3694267435e-04 2.7637729228e+00 -4.7869951229e+00 2.7637729228e+00 4.7869951229e+00 
339500 4.7628604502e+00 -3.3658154024e-04 2.7637790185e+00 -4.7870056809e+00 2.7637790185e+00 4.7870056809e+00 
339600 4.7628604483e+00 -3.3622079356e-04 2.7637851077e+00 -4.7870162277e+00 2.7637851077e+00 4.7870162277e+00 
339700 4.7628604463e+00 -3.3586043389e-04 2.7637911903e+00 -4.7870267631e+00 2.7637911903e+00 4.7870267631e+00 
339800 4.7628604444e+00 -3.3550046081e-04 2.7637972664e+00 -4.7870372872e+00 2.7637972664e+00 4.7870372872e+00 
339900 4.7628604424e+00 -3.3514087391e-04 2.7638033359e+00 -4.7870477999e+00 2.7638033359e+00 4.7870477999e+00 
340000 4.7628604405e+00 -3.3478167277e-04 2.7638093990e+00 -4.7870583014e+00 2.7638093990e+00 4.7870583014e+00 
340100 4.7628604385e+00 -3.3442285697e-04 2.7638154555e+00 -4.7870687916e+00 2.7638154555e+00 4.7870687916e+00 
340200 4.7628604366e+00 -3.3406442612e-04 2.7638215055e+00 -4.7870792706e+00 2.7638215055e+00 4.7870792706e+00 
340300 4.7628604347e+00 -3.3370637979e-04 2.7638275490e+00 -4.7870897383e+00 2.7638275490e+00 4.7870897383e+00 
340400 4.7628604327e+00 -3.3334871757e-04 2.7638335861e+00 -4.7871001947e+00 2.7638335861e+00 4.7871001947e+00 
340500 4.7628604308e+00 -3.3299143905e-04 2.7638396166e+00 -4.7871106400e+00 2.7638396166e+00 4.7871106400e+00 
340600 4.7628604289e+00 -3.3263454381e-04 2.7638456407e+00 -4.7871210740e+00 2.7638456407e+00 4.7871210740e+00 
340700 4.7628604270e+00 -3.3227803145e-04 2.7638516583e+00 -4.7871314968e+00 2.7638516583e+00 4.7871314968e+00 
340800 4.7628604251e+00 -3.3192190156e-04 2.7638576694e+00 -4.7871419084e+00 2.7638576694e+00 4.7871419084e+00 
340900 4.7628604232e+00 -3.3156615372e-04 2.7638636741e+00 -4.7871523088e+00 2.7638636741e+00 4.7871523088e+00 
341000 4.7628604213e+00 -3.3121078753e-04 2.7638696724e+00 -4.7871626980e+00 2.7638696724e+00 4.7871626980e+00 
341100 4.7628604194e+00 -3.3085580257e-04 2.7638756642e+00 -4.7871730761e+00 2.7638756642e+00 4.7871730761e+00 
341200 4.7628604175e+00 -3.3050119844e-04 2.7638816495e+00 -4.7871834431e+00 2.7638816495e+00 4.7871834431e+00 
341300 4.7628604156e+00 -3.3014697473e-04 2.7638876285e+00 -4.7871937989e+00 2.7638876285e+00 4.7871937989e+00 
341400 4.7628604137e+00 -3.2979313103e-04 2.7638936010e+00 -4.7872041436e+00 2.7638936010e+00 4.7872041436e+00 
341500 4.7628604118e+00 -3.2943966693e-04 2.7638995671e+00 -4.7872144772e+00 2.7638995671e+00 4.7872144772e+00 
341600 4.7628604100e+00 -3.2908658203e-04 2.7639055268e+00 -4.7872247997e+00 2.7639055268e+00 4.7872247997e+00 
341700 4.7628604081e+00 -3.2873387592e-04 2.7639114801e+00 -4.7872351111e+00 2.7639114801e+00 4.7872351111e+00 
341800 4.7628604062e+00 -3.2838154819e-04 2.7639174270e+00 -4.7872454114e+00 2.7639174270e+00 4.7872454114e+00 
341900 4.7628604044e+00 -3.2802959843e-04 2.7639233675e+00 -4.7872557007e+00 2.7639233675e+00 4.7872557007e+00 
342000 4.7628604025e+00 -3.2767802625e-04 2.7639293016e+00 -4.7872659789e+00 2.7639293016e+00 4.7872659789e+00 
342100 4.7628604006e+00 -3.2732683124e-04 2.7639352294e+00 -4.7872762461e+00 2.7639352294e+00 4.7872762461e+00 
342200 4.7628603988e+00 -3.2697601298e-04 2.7639411508e+00 -4.7872865022e+00 2.7639411508e+00 4.7872865022e+00 
342300 4.7628603969e+00 -3.2662557109e-04 2.7639470658e+00 -4.7872967474e+00 2.7639470658e+00 4.7872967474e+00 
342400 4.7628603951e+00 -3.2627550515e-04 2.7639529745e+00 -4.7873069815e+00 2.7639529745e+00 4.7873069815e+00 
342500 4.7628603933e+00 -3.2592581475e-04 2.7639588768e+00 -4.7873172047e+00 2.7639588768e+00 4.7873172047e+00 
342600 4.7628603914e+00 -3.2557649951e-04 2.7639647728e+00 -4.7873274168e+00 2.7639647728e+00 4.7873274168e+00 
342700 4.7628603896e+00 -3.2522755901e-04 2.7639706625e+00 -4.7873376180e+00 2.7639706625e+00 4.7873376180e+00 
342800 4.7628603878e+00 -3.2487899285e-04 2.7639765458e+00 -4.7873478083e+00 2.7639765458e+00 4.7873478083e+00 
342900 4.7628603859e+00 -3.2453080064e-04 2.7639824228e+00 -4.7873579876e+00 2.7639824228e+00 4.7873579876e+00 
343000 4.7628603841e+00 -3.2418298197e-04 2.7639882935e+00 -4.7873681560e+00 2.7639882935e+00 4.7873681560e+00 
343100 4.7628603823e+00 -3.2383553643e-04 2.7639941580e+00 -4.7873783134e+00 2.7639941580e+00 4.7873783134e+00 
343200 4.7628603805e+00 -3.2348846364e-04 2.7640000161e+00 -4.7873884599e+00 2.7640000161e+00 4.7873884599e+00 
343300 4.7628603787e+00 -3.2314176319e-04 2.7640058679e+00 -4.7873985956e+00 2.7640058679e+00 4.7873985956e+00 
343400 4.7628603769e+00 -3.2279543467e-04 2.7640117134e+00 -4.7874087204e+00 2.7640117134e+00 4.7874087204e+00 
343500 4.7628603751e+00 -3.2244947770e-04 2.7640175527e+00 -4.7874188343e+00 2.7640175527e+00 4.7874188343e+00 
343600 4.7628603733e+00 -3.2210389187e-04 2.7640233857e+00 -4.7874289373e+00 2.7640233857e+00 4.7874289373e+00 
343700 4.7628603715e+00 -3.2175867678e-04 2.7640292124e+00 -4.7874390295e+00 2.7640292124e+00 4.7874390295e+00 
343800 4.7628603697e+00 -3.2141383204e-04 2.7640350329e+00 -4.7874491108e+00 2.7640350329e+00 4.7874491108e+00 
343900 4.7628603679e+00 -3.2106935725e-04 2.7640408471e+00 -4.7874591813e+00 2.7640408471e+00 4.7874591813e+00 
344000 4.7628603661e+00 -3.2072525202e-04 2.7640466550e+00 -4.7874692410e+00 2.7640466550e+00 4.7874692410e+00 
344100 4.7628603643e+00 -3.2038151593e-04 2.7640524568e+00 -4.7874792899e+00 2.7640524568e+00 4.7874792899e+00 
344200 4.7628603626e+00 -3.2003814861e-04 2.7640582523e+00 -4.7874893280e+00 2.7640582523e+00 4.7874893280e+00 
344300 4.7628603608e+00 -3.1969514966e-04 2.7640640416e+00 -4.7874993554e+00 2.7640640416e+00 4.7874993554e+00 
344400 4.7628603590e+00 -3.1935251867e-04 2.7640698246e+00 -4.7875093719e+00 2.7640698246e+00 4.7875093719e+00 
344500 4.7628603573e+00 -3.1901025525e-04 2.7640756015e+00 -4.7875193777e+00 2.7640756015e+00 4.7875193777e+00 
344600 4.7628603555e+00 -3.1866835902e-04 2.7640813721e+00 -4.7875293728e+00 2.7640813721e+00 4.7875293728e+00 
344700 4.7628603537e+00 -3.1832682957e-04 2.7640871366e+00 -4.7875393571e+00 2.7640871366e+00 4.7875393571e+00 
344800 4.7628603520e+00 -3.1798566652e-04 2.7640928949e+00 -4.7875493307e+00 2.7640928949e+00 4.7875493307e+00 
344900 4.7628603502e+00 -3.1764486946e-04 2.7640986469e+00 -4.7875592936e+00 2.7640986469e+00 4.7875592936e+00 
345000 4.7628603485e+00 -3.1730443801e-04 2.7641043928e+00 -4.7875692458e+00 2.7641043928e+00 4.7875692458e+00 
345100 4.7628603468e+00 -3.1696437178e-04 2.7641101326e+00 -4.7875791874e+00 2.7641101326e+00 4.7875791874e+00 
345200 4.7628603450e+00 -3.1662467036e-04 2.7641158662e+00 -4.7875891182e+00 2.7641158662e+00 4.7875891182e+00 
345300 4.7628603433e+00 -3.1628533338e-04 2.7641215936e+00 -4.7875990384e+00 2.7641215936e+00 4.7875990384e+00 
345400 4.7628603416e+00 -3.1594636044e-04 2.7641273148e+00 -4.7876089479e+00 2.7641273148e+00 4.7876089479e+00 
345500 4.7628603398e+00 -3.1560775115e-04 2.7641330300e+00 -4.7876188468e+00 2.7641330300e+00 4.7876188468e+00 
345600 4.7628603381e+00 -3.1526950512e-04 2.7641387389e+00 -4.7876287350e+00 2.7641387389e+00 4.7876287350e+00 
345700 4.7628603364e+00 -3.1493162196e-04 2.7641444418e+00 -4.7876386127e+00 2.7641444418e+00 4.7876386127e+00 
345800 4.7628603347e+00 -3.1459410128e-04 2.7641501385e+00 -4.7876484797e+00 2.7641501385e+00 4.7876484797e+00 
345900 4.7628603330e+00 -3.1425694269e-04 2.7641558291e+00 -4.7876583361e+00 2.7641558291e+00 4.7876583361e+00 
346000 4.7628603313e+00 -3.1392014580e-04 2.7641615136e+00 -4.7876681820e+00 2.7641615136e+00 4.7876681820e+00 
346100 4.7628603296e+00 -3.1358371023e-04 2.7641671920e+00 -4.7876780172e+00 2.7641671920e+00 4.7876780172e+00 
346200 4.7628603279e+00 -3.1324763558e-04 2.7641728643e+00 -4.7876878420e+00 2.7641728643e+00 4.7876878420e+00 
346300 4.7628603262e+00 -3.1291192147e-04 2.7641785306e+00 -4.7876976561e+00 2.7641785306e+00 4.7876976561e+00 
346400 4.7628603245e+00 -3.1257656752e-04 2.7641841907e+00 -4.7877074597e+00 2.7641841907e+00 4.7877074597e+00 
346500 4.7628603228e+00 -3.1224157334e-04 2.7641898447e+00 -4.7877172528e+00 2.7641898447e+00 4.7877172528e+00 
346600 4.7628603211e+00 -3.1190693853e-04 2.7641954927e+00 -4.7877270354e+00 2.7641954927e+00 4.7877270354e+00 
346700 4.7628603194e+00 -3.1157266272e-04 2.7642011346e+00 -4.7877368075e+00 2.7642011346e+00 4.7877368075e+00 
346800 4.7628603177e+00 -3.1123874552e-04 2.7642067705e+00 -4.7877465691e+00 2.7642067705e+00 4.7877465691e+00 
346900 4.7628603161e+00 -3.1090518654e-04 2.7642124003e+00 -4.7877563202e+00 2.7642124003e+00 4.7877563202e+00 
347000 4.7628603144e+00 -3.1057198541e-04 2.7642180240e+00 -4.7877660608e+00 2.7642180240e+00 4.7877660608e+00 
347100 4.7628603127e+00 -3.1023914173e-04 2.7642236418e+00 -4.7877757910e+00 2.7642236418e+00 4.7877757910e+00 
347200 4.7628603111e+00 -3.0990665512e-04 2.7642292535e+00 -4.7877855107e+00 2.7642292535e+00 4.7877855107e+00 
347300 4.7628603094e+00 -3.0957452521e-04 2.7642348591e+00 -4.7877952200e+00 2.7642348591e+00 4.7877952200e+00 
347400 4.7628603077e+00 -3.0924275160e-04 2.7642404588e+00 -4.7878049189e+00 2.7642404588e+00 4.7878049189e+00 
347500 4.7628603061e+00 -3.0891133391e-04 2.7642460524e+00 -4.7878146074e+00 2.7642460524e+00 4.7878146074e+00 
347600 4.7628603044e+00 -3.0858027177e-04 2.7642516400e+00 -4.7878242854e+00 2.7642516400e+00 4.7878242854e+00 
347700 4.7628603028e+00 -3.0824956479e-04 2.7642572216e+00 -4.7878339531e+00 2.7642572216e+00 4.7878339531e+00 
347800 4.7628603012e+00 -3.0791921259e-04 2.7642627973e+00 -4.7878436104e+00 2.7642627973e+00 4.7878436104e+00 
347900 4.7628602995e+00 -3.0758921479e-04 2.7642683669e+00 -4.7878532573e+00 2.7642683669e+00 4.7878532573e+00 
348000 4.7628602979e+00 -3.0725957101e-04 2.7642739306e+00 -4.7878628938e+00 2.7642739306e+00 4.7878628938e+00 
348100 4.7628602962e+00 -3.0693028087e-04 2.7642794883e+00 -4.7878725200e+00 2.7642794883e+00 4.7878725200e+00 
348200 4.7628602946e+00 -3.0660134398e-04 2.7642850400e+00 -4.7878821359e+00 2.7642850400e+00 4.7878821359e+00 
348300 4.7628602930e+00 -3.0627275998e-04 2.7642905858e+00 -4.7878917414e+00 2.7642905858e+00 4.7878917414e+00 
348400 4.7628602914e+00 -3.0594452848e-04 2.7642961256e+00 -4.7879013367e+00 2.7642961256e+00 4.7879013367e+00 
348500 4.7628602898e+00 -3.0561664911e-04 2.7643016594e+00 -4.7879109216e+00 2.7643016594e+00 4.7879109216e+00 
348600 4.7628602881e+00 -3.0528912148e-04 2.7643071874e+00 -4.7879204962e+00 2.7643071874e+00 4.7879204962e+00 
348700 4.7628602865e+00 -3.0496194521e-04 2.7643127093e+00 -4.7879300606e+00 2.7643127093e+00 4.7879300606e+00 
348800 4.7628602849e+00 -3.0463511994e-04 2.7643182254e+00 -4.7879396147e+00 2.7643182254e+00 4.7879396147e+00 
348900 4.7628602833e+00 -3.0430864529e-04 2.7643237355e+00 -4.7879491585e+00 2.7643237355e+00 4.7879491585e+00 
349000 4.7628602817e+00 -3.0398252087e-04 2.7643292397e+00 -4.7879586921e+00 2.7643292397e+00 4.7879586921e+00 
349100 4.7628602801e+00 -3.0365674632e-04 2.7643347381e+00 -4.7879682154e+00 2.7643347381e+00 4.7879682154e+00 
349200 4.7628602785e+00 -3.0333132125e-04 2.7643402305e+00 -4.7879777286e+00 2.7643402305e+00 4.7879777286e+00 
349300 4.7628602769e+00 -3.0300624529e-04 2.7643457170e+00 -4.7879872315e+00 2.7643457170e+00 4.7879872315e+00 
349400 4.7628602754e+00 -3.0268151808e-04 2.7643511976e+00 -4.7879967242e+00 2.7643511976e+00 4.7879967242e+00 
349500 4.7628602738e+00 -3.0235713922e-04 2.7643566723e+00 -4.7880062067e+00 2.7643566723e+00 4.7880062067e+00 
349600 4.7628602722e+00 -3.0203310836e-04 2.7643621412e+00 -4.7880156790e+00 2.7643621412e+00 4.7880156790e+00 
349700 4.7628602706e+00 -3.0170942511e-04 2.7643676042e+00 -4.7880251412e+00 2.7643676042e+00 4.7880251412e+00 
349800 4.7628602690e+00 -3.0138608910e-04 2.7643730613e+00 -4.7880345932e+00 2.7643730613e+00 4.7880345932e+00 
349900 4.7628602675e+00 -3.0106309997e-04 2.7643785125e+00 -4.7880440350e+00 2.7643785125e+00 4.7880440350e+00 
350000 4.7628602659e+00 -3.0074045733e-04 2.7643839579e+00 -4.7880534668e+00 2.7643839579e+00 4.7880534668e+00 
350100 4.7628602643e+00 -3.0041816082e-04 2.7643893975e+00 -4.7880628884e+00 2.7643893975e+00 4.7880628884e+00 
350200 4.7628602628e+00 -3.0009621006e-04 2.7643948312e+00 -4.7880722998e+00 2.7643948312e+00 4.7880722998e+00 
350300 4.7628602612e+00 -2.9977460468e-04 2.7644002591e+00 -4.7880817012e+00 2.7644002591e+00 4.7880817012e+00 
350400 4.7628602597e+00 -2.9945334432e-04 2.7644056811e+00 -4.7880910925e+00 2.7644056811e+00 4.7880910925e+00 
350500 4.7628602581e+00 -2.9913242860e-04 2.7644110974e+00 -4.7881004737e+00 2.7644110974e+00 4.7881004737e+00 
350600 4.7628602566e+00 -2.9881185716e-04 2.7644165078e+00 -4.7881098448e+00 2.7644165078e+00 4.7881098448e+00 
350700 4.7628602550e+00 -2.9849162962e-04 2.7644219124e+00 -4.7881192059e+00 2.7644219124e+00 4.7881192059e+00 
350800 4.7628602535e+00 -2.9817174561e-04 2.7644273112e+00 -4.7881285569e+00 2.7644273112e+00 4.7881285569e+00 
350900 4.7628602520e+00 -2.9785220477e-04 2.7644327042e+00 -4.7881378978e+00 2.7644327042e+00 4.7881378978e+00 
351000 4.7628602504e+00 -2.9753300672e-04 2.7644380915e+00 -4.7881472288e+00 2.7644380915e+00 4.7881472288e+00 
351100 4.7628602489e+00 -2.9721415110e-04 2.7644434729e+00 -4.7881565497e+00 2.7644434729e+00 4.7881565497e+00 
351200 4.7628602474e+00 -2.9689563755e-04 2.7644488486e+00 -4.7881658606e+00 2.7644488486e+00 4.7881658606e+00 
351300 4.7628602458e+00 -2.9657746569e-04 2.7644542185e+00 -4.7881751616e+00 2.7644542185e+00 4.7881751616e+00 
351400 4.7628602443e+00 -2.9625963516e-04 2.7644595826e+00 -4.7881844525e+00 2.7644595826e+00 4.7881844525e+00 
351500 4.7628602428e+00 -2.9594214559e-04 2.7644649409e+00 -4.7881937335e+00 2.7644649409e+00 4.7881937335e+00 
351600 4.7628602413e+00 -2.9562499661e-04 2.7644702936e+00 -4.7882030045e+00 2.7644702936e+00 4.7882030045e+00 
351700 4.7628602398e+00 -2.9530818787e-04 2.7644756404e+00 -4.7882122655e+00 2.7644756404e+00 4.7882122655e+00 
351800 4.7628602383e+00 -2.9499171899e-04 2.7644809815e+00 -4.7882215166e+00 2.7644809815e+00 4.7882215166e+00 
351900 4.7628602368e+00 -2.9467558961e-04 2.7644863169e+00 -4.7882307578e+00 2.7644863169e+00 4.7882307578e+00 
352000 4.7628602353e+00 -2.9435979936e-04 2.7644916466e+00 -4.7882399890e+00 2.7644916466e+00 4.7882399890e+00 
352100 4.7628602338e+00 -2.9404434789e-04 2.7644969705e+00 -4.7882492104e+00 2.7644969705e+00 4.7882492104e+00 
352200 4.7628602323e+00 -2.9372923483e-04 2.7645022888e+00 -4.7882584218e+00 2.7645022888e+00 4.7882584218e+00 
352300 4.7628602308e+00 -2.9341445981e-04 2.7645076013e+00 -4.7882676233e+00 2.7645076013e+00 4.7882676233e+00 
352400 4.7628602293e+00 -2.9310002247e-04 2.7645129081e+00 -4.7882768150e+00 2.7645129081e+00 4.7882768150e+00 
352500 4.7628602278e+00 -2.9278592245e-04 2.7645182092e+00 -4.7882859968e+00 2.7645182092e+00 4.7882859968e+00 
352600 4.7628602263e+00 -2.9247215939e-04 2.7645235046e+00 -4.7882951688e+00 2.7645235046e+00 4.7882951688e+00 
352700 4.7628602249e+00 -2.9215873293e-04 2.7645287944e+00 -4.7883043309e+00 2.7645287944e+00 4.7883043309e+00 
352800 4.7628602234e+00 -2.9184564270e-04 2.7645340785e+00 -4.7883134831e+00 2.7645340785e+00 4.7883134831e+00 
352900 4.7628602219e+00 -2.9153288835e-04 2.7645393568e+00 -4.7883226256e+00 2.7645393568e+00 4.7883226256e+00 
353000 4.7628602204e+00 -2.9122046950e-04 2.7645446296e+00 -4.7883317582e+00 2.7645446296e+00 4.7883317582e+00 
353100 4.7628602190e+00 -2.9090838582e-04 2.7645498966e+00 -4.7883408810e+00 2.7645498966e+00 4.7883408810e+00 
353200 4.7628602175e+00 -2.9059663692e-04 2.7645551580e+00 -4.7883499940e+00 2.7645551580e+00 4.7883499940e+00 
353300 4.7628602160e+00 -2.9028522246e-04 2.7645604138e+00 -4.7883590973e+00 2.7645604138e+00 4.7883590973e+00 
353400 4.7628602146e+00 -2.8997414207e-04 2.7645656639e+00 -4.7883681907e+00 2.7645656639e+00 4.7883681907e+00 
353500 4.7628602131e+00 -2.8966339541e-04 2.7645709084e+00 -4.7883772745e+00 2.7645709084e+00 4.7883772745e+00 
353600 4.7628602117e+00 -2.8935298209e-04 2.7645761472e+00 -4.7883863484e+00 2.7645761472e+00 4.7883863484e+00 
353700 4.7628602102e+00 -2.8904290178e-04 2.7645813805e+00 -4.7883954126e+00 2.7645813805e+00 4.7883954126e+00 
353800 4.7628602088e+00 -2.8873315412e-04 2.7645866081e+00 -4.7884044671e+00 2.7645866081e+00 4.7884044671e+00 
353900 4.7628602074e+00 -2.8842373874e-04 2.7645918301e+00 -4.7884135119e+00 2.7645918301e+00 4.7884135119e+00 
354000 4.7628602059e+00 -2.8811465529e-04 2.7645970465e+00 -4.7884225469e+00 2.7645970465e+00 4.7884225469e+00 
354100 4.7628602045e+00 -2.8780590341e-04 2.7646022573e+00 -4.7884315723e+00 2.7646022573e+00 4.7884315723e+00 
354200 4.7628602031e+00 -2.8749748275e-04 2.7646074625e+00 -4.7884405879e+00 2.7646074625e+00 4.7884405879e+00 
354300 4.7628602016e+00 -2.8718939295e-04 2.7646126621e+00 -4.7884495939e+00 2.7646126621e+00 4.7884495939e+00 
354400 4.7628602002e+00 -2.8688163365e-04 2.7646178561e+00 -4.7884585903e+00 2.7646178561e+00 4.7884585903e+00 
354500 4.7628601988e+00 -2.8657420451e-04 2.7646230445e+00 -4.7884675769e+00 2.7646230445e+00 4.7884675769e+00 
354600 4.7628601974e+00 -2.8626710517e-04 2.7646282274e+00 -4.7884765539e+00 2.7646282274e+00 4.7884765539e+00 
354700 4.7628601959e+00 -2.8596033527e-04 2.7646334047e+00 -4.7884855213e+00 2.7646334047e+00 4.7884855213e+00 
354800 4.7628601945e+00 -2.8565389446e-04 2.7646385765e+00 -4.7884944791e+00 2.7646385765e+00 4.7884944791e+00 
354900 4.7628601931e+00 -2.8534778239e-04 2.7646437427e+00 -4.7885034272e+00 2.7646437427e+00 4.7885034272e+00 
355000 4.7628601917e+00 -2.8504199870e-04 2.7646489034e+00 -4.7885123657e+00 2.7646489034e+00 4.7885123657e+00 
355100 4.7628601903e+00 -2.8473654304e-04 2.7646540585e+00 -4.7885212947e+00 2.7646540585e+00 4.7885212947e+00 
355200 4.7628601889e+00 -2.8443141506e-04 2.7646592081e+00 -4.7885302140e+00 2.7646592081e+00 4.7885302140e+00 
355300 4.7628601875e+00 -2.8412661441e-04 2.7646643521e+00 -4.7885391238e+00 2.7646643521e+00 4.7885391238e+00 
355400 4.7628601861e+00 -2.8382214073e-04 2.7646694907e+00 -4.7885480240e+00 2.7646694907e+00 4.7885480240e+00 
355500 4.7628601847e+00 -2.8351799368e-04 2.7646746237e+00 -4.7885569147e+00 2.7646746237e+00 4.7885569147e+00 
355600 4.7628601833e+00 -2.8321417290e-04 2.7646797512e+00 -4.7885657958e+00 2.7646797512e+00 4.7885657958e+00 
355700 4.7628601820e+00 -2.8291067805e-04 2.7646848732e+00 -4.7885746673e+00 2.7646848732e+00 4.7885746673e+00 
355800 4.7628601806e+00 -2.8260750877e-04 2.7646899897e+00 -4.7885835294e+00 2.7646899897e+00 4.7885835294e+00 
355900 4.7628601792e+00 -2.8230466472e-04 2.7646951008e+00 -4.7885923819e+00 2.7646951008e+00 4.7885923819e+00 
356000 4.7628601778e+00 -2.8200214554e-04 2.7647002063e+00 -4.7886012250e+00 2.7647002063e+00 4.7886012250e+00 
356100 4.7628601764e+00 -2.8169995089e-04 2.7647053063e+00 -4.7886100585e+00 2.7647053063e+00 4.7886100585e+00 
356200 4.7628601751e+00 -2.8139808042e-04 2.7647104009e+00 -4.7886188826e+00 2.7647104009e+00 4.7886188826e+00 
356300 4.7628601737e+00 -2.8109653378e-04 2.7647154900e+00 -4.7886276972e+00 2.7647154900e+00 4.7886276972e+00 
356400 4.7628601723e+00 -2.8079531062e-04 2.7647205737e+00 -4.7886365023e+00 2.7647205737e+00 4.7886365023e+00 
356500 4.7628601710e+00 -2.8049441059e-04 2.7647256519e+00 -4.7886452980e+00 2.7647256519e+00 4.7886452980e+00 
356600 4.7628601696e+00 -2.8019383336e-04 2.7647307246e+00 -4.7886540842e+00 2.7647307246e+00 4.7886540842e+00 
356700 4.7628601683e+00 -2.7989357857e-04 2.7647357919e+00 -4.7886628610e+00 2.7647357919e+00 4.7886628610e+00 
356800 4.7628601669e+00 -2.7959364587e-04 2.7647408537e+00 -4.7886716284e+00 2.7647408537e+00 4.7886716284e+00 
356900 4.7628601656e+00 -2.7929403493e-04 2.7647459102e+00 -4.7886803864e+00 2.7647459102e+00 4.7886803864e+00 
357000 4.7628601642e+00 -2.7899474539e-04 2.7647509611e+00 -4.7886891350e+00 2.7647509611e+00 4.7886891350e+00 
357100 4.7628601629e+00 -2.7869577691e-04 2.7647560067e+00 -4.7886978742e+00 2.7647560067e+00 4.7886978742e+00 
357200 4.7628601615e+00 -2.7839712914e-04 2.7647610469e+00 -4.7887066040e+00 2.7647610469e+00 4.7887066040e+00 
357300 4.7628601602e+00 -2.7809880175e-04 2.7647660816e+00 -4.7887153244e+00 2.7647660816e+00 4.7887153244e+00 
357400 4.7628601588e+00 -2.7780079438e-04 2.7647711109e+00 -4.7887240355e+00 2.7647711109e+00 4.7887240355e+00 
357500 4.7628601575e+00 -2.7750310670e-04 2.7647761349e+00 -4.7887327372e+00 2.7647761349e+00 4.7887327372e+00 
357600 4.7628601562e+00 -2.7720573836e-04 2.7647811534e+00 -4.7887414296e+00 2.7647811534e+00 4.7887414296e+00 
357700 4.7628601548e+00 -2.7690868901e-04 2.7647861666e+00 -4.7887501126e+00 2.7647861666e+00 4.7887501126e+00 
357800 4.7628601535e+00 -2.7661195832e-04 2.7647911744e+00 -4.7887587863e+00 2.7647911744e+00 4.7887587863e+00 
357900 4.7628601522e+00 -2.7631554595e-04 2.7647961768e+00 -4.7887674507e+00 2.7647961768e+00 4.7887674507e+00 
358000 4.7628601509e+00 -2.7601945154e-04 2.7648011738e+00 -4.7887761059e+00 2.7648011738e+00 4.7887761059e+00 
358100 4.7628601496e+00 -2.7572367477e-04 2.7648061655e+00 -4.7887847517e+00 2.7648061655e+00 4.7887847517e+00 
358200 4.7628601483e+00 -2.7542821528e-04 2.7648111518e+00 -4.7887933882e+00 2.7648111518e+00 4.7887933882e+00 
358300 4.7628601469e+00 -2.7513307275e-04 2.7648161328e+00 -4.7888020155e+00 2.7648161328e+00 4.7888020155e+00 
358400 4.7628601456e+00 -2.7483824682e-04 2.7648211084e+00 -4.7888106335e+00 2.7648211084e+00 4.7888106335e+00 
358500 4.7628601443e+00 -2.7454373715e-04 2.7648260786e+00 -4.7888192423e+00 2.7648260786e+00 4.7888192423e+00 
358600 4.7628601430e+00 -2.7424954342e-04 2.7648310436e+00 -4.7888278418e+00 2.7648310436e+00 4.7888278418e+00 
358700 4.7628601417e+00 -2.7395566528e-04 2.7648360032e+00 -4.7888364321e+00 2.7648360032e+00 4.7888364321e+00 
358800 4.7628601404e+00 -2.7366210239e-04 2.7648409575e+00 -4.7888450132e+00 2.7648409575e+00 4.7888450132e+00 
358900 4.7628601391e+00 -2.7336885441e-04 2.7648459064e+00 -4.7888535851e+00 2.7648459064e+00 4.7888535851e+00 
359000 4.7628601378e+00 -2.7307592100e-04 2.7648508501e+00 -4.7888621477e+00 2.7648508501e+00 4.7888621477e+00 
359100 4.7628601366e+00 -2.7278330183e-04 2.7648557884e+00 -4.7888707012e+00 2.7648557884e+00 4.7888707012e+00 
359200 4.7628601353e+00 -2.7249099657e-04 2.7648607215e+00 -4.7888792455e+00 2.7648607215e+00 4.7888792455e+00 
359300 4.7628601340e+00 -2.7219900486e-04 2.7648656492e+00 -4.7888877806e+00 2.7648656492e+00 4.7888877806e+00 
359400 4.7628601327e+00 -2.7190732638e-04 2.7648705717e+00 -4.7888963066e+00 2.7648705717e+00 4.7888963066e+00 
359500 4.7628601314e+00 -2.7161596078e-04 2.7648754889e+00 -4.7889048234e+00 2.7648754889e+00 4.7889048234e+00 
359600 4.7628601302e+00 -2.7132490775e-04 2.7648804008e+00 -4.7889133310e+00 2.7648804008e+00 4.7889133310e+00 
359700 4.7628601289e+00 -2.7103416692e-04 2.7648853074e+00 -4.7889218296e+00 2.7648853074e+00 4.7889218296e+00 
359800 4.7628601276e+00 -2.7074373799e-04 2.7648902088e+00 -4.7889303190e+00 2.7648902088e+00 4.7889303190e+00 
359900 4.7628601264e+00 -2.7045362060e-04 2.7648951049e+00 -4.7889387993e+00 2.7648951049e+00 4.7889387993e+00 
360000 4.7628601251e+00 -2.7016381442e-04 2.7648999957e+00 -4.7889472705e+00 2.7648999957e+00 4.7889472705e+00 
360100 4.7628601238e+00 -2.6987431912e-04 2.7649048813e+00 -4.7889557326e+00 2.7649048813e+00 4.7889557326e+00 
360200 4.7628601226e+00 -2.6958513437e-04 2.7649097617e+00 -4.7889641856e+00 2.7649097617e+00 4.7889641856e+00 
360300 4.7628601213e+00 -2.6929625983e-04 2.7649146368e+00 -4.7889726296e+00 2.7649146368e+00 4.7889726296e+00 
360400 4.7628601201e+00 -2.6900769517e-04 2.7649195067e+00 -4.7889810645e+00 2.7649195067e+00 4.7889810645e+00 
360500 4.7628601188e+00 -2.6871944005e-04 2.7649243714e+00 -4.7889894903e+00 2.7649243714e+00 4.7889894903e+00 
360600 4.7628601176e+00 -2.6843149415e-04 2.7649292308e+00 -4.7889979071e+00 2.7649292308e+00 4.7889979071e+00 
360700 4.7628601163e+00 -2.6814385713e-04 2.7649340850e+00 -4.7890063148e+00 2.7649340850e+00 4.7890063148e+00 
360800 4.7628601151e+00 -2.6785652867e-04 2.7649389340e+00 -4.7890147136e+00 2.7649389340e+00 4.7890147136e+00 
360900 4.7628601138e+00 -2.6756950842e-04 2.7649437778e+00 -4.7890231033e+00 2.7649437778e+00 4.7890231033e+00 
361000 4.7628601126e+00 -2.6728279606e-04 2.7649486165e+00 -4.7890314840e+00 2.7649486165e+00 4.7890314840e+00 
361100 4.7628601114e+00 -2.6699639125e-04 2.7649534499e+00 -4.7890398557e+00 2.7649534499e+00 4.7890398557e+00 
361200 4.7628601101e+00 -2.6671029368e-04 2.7649582781e+00 -4.7890482185e+00 2.7649582781e+00 4.7890482185e+00 
361300 4.7628601089e+00 -2.6642450300e-04 2.7649631011e+00 -4.7890565722e+00 2.7649631011e+00 4.7890565722e+00 
361400 4.7628601077e+00 -2.6613901889e-04 2.7649679190e+00 -4.7890649170e+00 2.7649679190e+00 4.7890649170e+00 
361500 4.7628601065e+00 -2.6585384102e-04 2.7649727317e+00 -4.7890732529e+00 2.7649727317e+00 4.7890732529e+00 
361600 4.7628601052e+00 -2.6556896906e-04 2.7649775392e+00 -4.7890815797e+00 2.7649775392e+00 4.7890815797e+00 
361700 4.7628601040e+00 -2.6528440269e-04 2.7649823416e+00 -4.7890898977e+00 2.7649823416e+00 4.7890898977e+00 
361800 4.7628601028e+00 -2.6500014156e-04 2.7649871388e+00 -4.7890982067e+00 2.7649871388e+00 4.7890982067e+00 
361900 4.7628601016e+00 -2.6471618536e-04 2.7649919309e+00 -4.7891065068e+00 2.7649919309e+00 4.7891065068e+00 
362000 4.7628601004e+00 -2.6443253376e-04 2.7649967178e+00 -4.7891147980e+00 2.7649967178e+00 4.7891147980e+00 
362100 4.7628600992e+00 -2.6414918644e-04 2.7650014996e+00 -4.7891230803e+00 2.7650014996e+00 4.7891230803e+00 
362200 4.7628600980e+00 -2.6386614305e-04 2.7650062763e+00 -4.7891313537e+00 2.7650062763e+00 4.7891313537e+00 
362300 4.7628600968e+00 -2.6358340329e-04 2.7650110478e+00 -4.7891396183e+00 2.7650110478e+00 4.7891396183e+00 
362400 4.7628600956e+00 -2.6330096682e-04 2.7650158142e+00 -4.7891478739e+00 2.7650158142e+00 4.7891478739e+00 
362500 4.7628600944e+00 -2.6301883331e-04 2.7650205755e+00 -4.7891561207e+00 2.7650205755e+00 4.7891561207e+00 
362600 4.7628600932e+00 -2.6273700245e-04 2.7650253317e+00 -4.7891643587e+00 2.7650253317e+00 4.7891643587e+00 
362700 4.7628600920e+00 -2.6245547390e-04 2.7650300828e+00 -4.7891725878e+00 2.7650300828e+00 4.7891725878e+00 
362800 4.7628600908e+00 -2.6217424735e-04 2.7650348287e+00 -4.7891808081e+00 2.7650348287e+00 4.7891808081e+00 
362900 4.7628600896e+00 -2.6189332247e-04 2.7650395696e+00 -4.7891890195e+00 2.7650395696e+00 4.7891890195e+00 
363000 4.7628600884e+00 -2.6161269892e-04 2.7650443054e+00 -4.7891972222e+00 2.7650443054e+00 4.7891972222e+00 
363100 4.7628600872e+00 -2.6133237640e-04 2.7650490361e+00 -4.7892054160e+00 2.7650490361e+00 4.7892054160e+00 
363200 4.7628600861e+00 -2.6105235458e-04 2.7650537618e+00 -4.7892136011e+00 2.7650537618e+00 4.7892136011e+00 
363300 4.7628600849e+00 -2.6077263313e-04 2.7650584824e+00 -4.7892217773e+00 2.7650584824e+00 4.7892217773e+00 
363400 4.7628600837e+00 -2.6049321173e-04 2.7650631979e+00 -4.7892299448e+00 2.7650631979e+00 4.7892299448e+00 
363500 4.7628600825e+00 -2.6021409007e-04 2.7650679083e+00 -4.7892381035e+00 2.7650679083e+00 4.7892381035e+00 
363600 4.7628600814e+00 -2.5993526781e-04 2.7650726137e+00 -4.7892462535e+00 2.7650726137e+00 4.7892462535e+00 
363700 4.7628600802e+00 -2.5965674463e-04 2.7650773140e+00 -4.7892543947e+00 2.7650773140e+00 4.7892543947e+00 
363800 4.7628600790e+00 -2.5937852023e-04 2.7650820093e+00 -4.7892625272e+00 2.7650820093e+00 4.7892625272e+00 
363900 4.7628600779e+00 -2.5910059426e-04 2.7650866996e+00 -4.7892706510e+00 2.7650866996e+00 4.7892706510e+00 
364000 4.7628600767e+00 -2.5882296643e-04 2.7650913848e+00 -4.7892787660e+00 2.7650913848e+00 4.7892787660e+00 
364100 4.7628600756e+00 -2.5854563639e-04 2.7650960650e+00 -4.7892868723e+00 2.7650960650e+00 4.7892868723e+00 
364200 4.7628600744e+00 -2.5826860384e-04 2.7651007401e+00 -4.7892949699e+00 2.7651007401e+00 4.7892949699e+00 
364300 4.7628600732e+00 -2.5799186846e-04 2.7651054103e+00 -4.7893030589e+00 2.7651054103e+00 4.7893030589e+00 
364400 4.7628600721e+00 -2.5771542992e-04 2.7651100754e+00 -4.7893111391e+00 2.7651100754e+00 4.7893111391e+00 
364500 4.7628600709e+00 -2.5743928791e-04 2.7651147355e+00 -4.7893192107e+00 2.7651147355e+00 4.7893192107e+00 
364600 4.7628600698e+00 -2.5716344210e-04 2.7651193907e+00 -4.7893272736e+00 2.7651193907e+00 4.7893272736e+00 
364700 4.7628600687e+00 -2.5688789219e-04 2.7651240408e+00 -4.7893353279e+00 2.7651240408e+00 4.7893353279e+00 
364800 4.7628600675e+00 -2.5661263785e-04 2.7651286860e+00 -4.7893433735e+00 2.7651286860e+00 4.7893433735e+00 
364900 4.7628600664e+00 -2.5633767877e-04 2.7651333261e+00 -4.7893514105e+00 2.7651333261e+00 4.7893514105e+00 
365000 4.7628600652e+00 -2.5606301463e-04 2.7651379613e+00 -4.7893594389e+00 2.7651379613e+00 4.7893594389e+00 
365100 4.7628600641e+00 -2.5578864510e-04 2.7651425915e+00 -4.7893674586e+00 2.7651425915e+00 4.7893674586e+00 
365200 4.7628600630e+00 -2.5551456989e-04 2.7651472167e+00 -4.7893754698e+00 2.7651472167e+00 4.7893754698e+00 
365300 4.7628600619e+00 -2.5524078866e-04 2.7651518370e+00 -4.7893834723e+00 2.7651518370e+00 4.7893834723e+00 
365400 4.7628600607e+00 -2.5496730111e-04 2.7651564523e+00 -4.7893914663e+00 2.7651564523e+00 4.7893914663e+00 
365500 4.7628600596e+00 -2.5469410691e-04 2.7651610627e+00 -4.7893994517e+00 2.7651610627e+00 4.7893994517e+00 
365600 4.7628600585e+00 -2.5442120576e-04 2.7651656681e+00 -4.7894074285e+00 2.7651656681e+00 4.7894074285e+00 
365700 4.7628600574e+00 -2.5414859734e-04 2.7651702686e+00 -4.7894153967e+00 2.7651702686e+00 4.7894153967e+00 
365800 4.7628600563e+00 -2.5387628134e-04 2.7651748641e+00 -4.7894233564e+00 2.7651748641e+00 4.7894233564e+00 
365900 4.7628600551e+00 -2.5360425743e-04 2.7651794547e+00 -4.7894313076e+00 2.7651794547e+00 4.7894313076e+00 
366000 4.7628600540e+00 -2.5333252531e-04 2.7651840404e+00 -4.7894392502e+00 2.7651840404e+00 4.7894392502e+00 
366100 4.7628600529e+00 -2.5306108467e-04 2.7651886211e+00 -4.7894471843e+00 2.7651886211e+00 4.7894471843e+00 
366200 4.7628600518e+00 -2.5278993518e-04 2.7651931970e+00 -4.7894551099e+00 2.7651931970e+00 4.7894551099e+00 
366300 4.7628600507e+00 -2.5251907655e-04 2.7651977679e+00 -4.7894630270e+00 2.7651977679e+00 4.7894630270e+00 
366400 4.7628600496e+00 -2.5224850845e-04 2.7652023339e+00 -4.7894709356e+00 2.7652023339e+00 4.7894709356e+00 
366500 4.7628600485e+00 -2.5197823057e-04 2.7652068950e+00 -4.7894788357e+00 2.7652068950e+00 4.7894788357e+00 
366600 4.7628600474e+00 -2.5170824261e-04 2.7652114513e+00 -4.7894867273e+00 2.7652114513e+00 4.7894867273e+00 
366700 4.7628600463e+00 -2.5143854425e-04 2.7652160026e+00 -4.7894946104e+00 2.7652160026e+00 4.7894946104e+00 
366800 4.7628600452e+00 -2.5116913518e-04 2.7652205491e+00 -4.7895024851e+00 2.7652205491e+00 4.7895024851e+00 
366900 4.7628600441e+00 -2.5090001509e-04 2.7652250906e+00 -4.7895103514e+00 2.7652250906e+00 4.7895103514e+00 
367000 4.7628600431e+00 -2.5063118366e-04 2.7652296273e+00 -4.7895182092e+00 2.7652296273e+00 4.7895182092e+00 
367100 4.7628600420e+00 -2.5036264060e-04 2.7652341592e+00 -4.7895260585e+00 2.7652341592e+00 4.7895260585e+00 
367200 4.7628600409e+00 -2.5009438559e-04 2.7652386861e+00 -4.7895338995e+00 2.7652386861e+00 4.7895338995e+00 
367300 4.7628600398e+00 -2.4982641831e-04 2.7652432083e+00 -4.7895417320e+00 2.7652432083e+00 4.7895417320e+00 
367400 4.7628600387e+00 -2.4955873847e-04 2.7652477255e+00 -4.7895495561e+00 2.7652477255e+00 4.7895495561e+00 
367500 4.7628600377e+00 -2.4929134575e-04 2.7652522379e+00 -4.7895573718e+00 2.7652522379e+00 4.7895573718e+00 
367600 4.7628600366e+00 -2.4902423985e-04 2.7652567455e+00 -4.7895651792e+00 2.7652567455e+00 4.7895651792e+00 
367700 4.7628600355e+00 -2.4875742045e-04 2.7652612482e+00 -4.7895729782e+00 2.7652612482e+00 4.7895729782e+00 
367800 4.7628600344e+00 -2.4849088725e-04 2.7652657461e+00 -4.7895807687e+00 2.7652657461e+00 4.7895807687e+00 
367900 4.7628600334e+00 -2.4822463994e-04 2.7652702392e+00 -4.7895885510e+00 2.7652702392e+00 4.7895885510e+00 
368000 4.7628600323e+00 -2.4795867822e-04 2.7652747275e+00 -4.7895963249e+00 2.7652747275e+00 4.7895963249e+00 
368100 4.7628600312e+00 -2.4769300177e-04 2.7652792109e+00 -4.7896040904e+00 2.7652792109e+00 4.7896040904e+00 
368200 4.7628600302e+00 -2.4742761030e-04 2.7652836895e+00 -4.7896118476e+00 2.7652836895e+00 4.7896118476e+00 
368300 4.7628600291e+00 -2.4716250349e-04 2.7652881634e+00 -4.7896195965e+00 2.7652881634e+00 4.7896195965e+00 
368400 4.7628600281e+00 -2.4689768105e-04 2.7652926324e+00 -4.7896273371e+00 2.7652926324e+00 4.7896273371e+00 
368500 4.7628600270e+00 -2.4663314265e-04 2.7652970966e+00 -4.7896350693e+00 2.7652970966e+00 4.7896350693e+00 
368600 4.7628600260e+00 -2.4636888801e-04 2.7653015560e+00 -4.7896427933e+00 2.7653015560e+00 4.7896427933e+00 
368700 4.7628600249e+00 -2.4610491681e-04 2.7653060107e+00 -4.7896505090e+00 2.7653060107e+00 4.7896505090e+00 
368800 4.7628600239e+00 -2.4584122875e-04 2.7653104606e+00 -4.7896582164e+00 2.7653104606e+00 4.7896582164e+00 
368900 4.7628600228e+00 -2.4557782353e-04 2.7653149056e+00 -4.7896659155e+00 2.7653149056e+00 4.7896659155e+00 
369000 4.7628600218e+00 -2.4531470084e-04 2.7653193460e+00 -4.7896736064e+00 2.7653193460e+00 4.7896736064e+00 
369100 4.7628600208e+00 -2.4505186038e-04 2.7653237815e+00 -4.7896812890e+00 2.7653237815e+00 4.7896812890e+00 
369200 4.7628600197e+00 -2.4478930185e-04 2.7653282123e+00 -4.7896889634e+00 2.7653282123e+00 4.7896889634e+00 
369300 4.7628600187e+00 -2.4452702494e-04 2.7653326384e+00 -4.7896966295e+00 2.7653326384e+00 4.7896966295e+00 
369400 4.7628600177e+00 -2.4426502936e-04 2.7653370597e+00 -4.7897042874e+00 2.7653370597e+00 4.7897042874e+00 
369500 4.7628600166e+00 -2.4400331479e-04 2.7653414762e+00 -4.7897119371e+00 2.7653414762e+00 4.7897119371e+00 
369600 4.7628600156e+00 -2.4374188094e-04 2.7653458880e+00 -4.7897195786e+00 2.7653458880e+00 4.7897195786e+00 
369700 4.7628600146e+00 -2.4348072750e-04 2.7653502951e+00 -4.7897272119e+00 2.7653502951e+00 4.7897272119e+00 
369800 4.7628600135e+00 -2.4321985418e-04 2.7653546975e+00 -4.7897348370e+00 2.7653546975e+00 4.7897348370e+00 
369900 4.7628600125e+00 -2.4295926068e-04 2.7653590951e+00 -4.7897424539e+00 2.7653590951e+00 4.7897424539e+00 
370000 4.7628600115e+00 -2.4269894669e-04 2.7653634880e+00 -4.7897500626e+00 2.7653634880e+00 4.7897500626e+00 
370100 4.7628600105e+00 -2.4243891191e-04 2.7653678762e+00 -4.7897576632e+00 2.7653678762e+00 4.7897576632e+00 
370200 4.7628600095e+00 -2.4217915604e-04 2.7653722597e+00 -4.7897652556e+00 2.7653722597e+00 4.7897652556e+00 
370300 4.7628600085e+00 -2.4191967879e-04 2.7653766385e+00 -4.7897728399e+00 2.7653766385e+00 4.7897728399e+00 
370400 4.7628600074e+00 -2.4166047986e-04 2.7653810125e+00 -4.7897804160e+00 2.7653810125e+00 4.7897804160e+00 
370500 4.7628600064e+00 -2.4140155894e-04 2.7653853819e+00 -4.7897879840e+00 2.7653853819e+00 4.7897879840e+00 
370600 4.7628600054e+00 -2.4114291574e-04 2.7653897466e+00 -4.7897955439e+00 2.7653897466e+00 4.7897955439e+00 
370700 4.7628600044e+00 -2.4088454996e-04 2.7653941067e+00 -4.7898030957e+00 2.7653941067e+00 4.7898030957e+00 
370800 4.7628600034e+00 -2.4062646130e-04 2.7653984620e+00 -4.7898106393e+00 2.7653984620e+00 4.7898106393e+00 
370900 4.7628600024e+00 -2.4036864946e-04 2.7654028127e+00 -4.7898181749e+00 2.7654028127e+00 4.7898181749e+00 
371000 4.7628600014e+00 -2.4011111415e-04 2.7654071587e+00 -4.7898257024e+00 2.7654071587e+00 4.7898257024e+00 
371100 4.7628600004e+00 -2.3985385507e-04 2.7654115000e+00 -4.7898332218e+00 2.7654115000e+00 4.7898332218e+00 
371200 4.7628599994e+00 -2.3959687193e-04 2.7654158367e+00 -4.7898407332e+00 2.7654158367e+00 4.7898407332e+00 
371300 4.7628599984e+00 -2.3934016442e-04 2.7654201687e+00 -4.7898482365e+00 2.7654201687e+00 4.7898482365e+00 
371400 4.7628599975e+00 -2.3908373225e-04 2.7654244961e+00 -4.7898557317e+00 2.7654244961e+00 4.7898557317e+00 
371500 4.7628599965e+00 -2.3882757513e-04 2.7654288188e+00 -4.7898632189e+00 2.7654288188e+00 4.7898632189e+00 
371600 4.7628599955e+00 -2.3857169275e-04 2.7654331369e+00 -4.7898706980e+00 2.7654331369e+00 4.7898706980e+00 
371700 4.7628599945e+00 -2.3831608483e-04 2.7654374504e+00 -4.7898781692e+00 2.7654374504e+00 4.7898781692e+00 
371800 4.7628599935e+00 -2.3806075108e-04 2.7654417592e+00 -4.7898856323e+00 2.7654417592e+00 4.7898856323e+00 
371900 4.7628599925e+00 -2.3780569118e-04 2.7654460634e+00 -4.7898930874e+00 2.7654460634e+00 4.7898930874e+00 
372000 4.7628599916e+00 -2.3755090486e-04 2.7654503630e+00 -4.7899005345e+00 2.7654503630e+00 4.7899005345e+00 
372100 4.7628599906e+00 -2.3729639182e-04 2.7654546580e+00 -4.7899079736e+00 2.7654546580e+00 4.7899079736e+00 
372200 4.7628599896e+00 -2.3704215176e-04 2.7654589483e+00 -4.7899154048e+00 2.7654589483e+00 4.7899154048e+00 
372300 4.7628599887e+00 -2.3678818440e-04 2.7654632341e+00 -4.7899228279e+00 2.7654632341e+00 4.7899228279e+00 
372400 4.7628599877e+00 -2.3653448943e-04 2.7654675153e+00 -4.7899302431e+00 2.7654675153e+00 4.7899302431e+00 
372500 4.7628599867e+00 -2.3628106657e-04 2.7654717918e+00 -4.7899376504e+00 2.7654717918e+00 4.7899376504e+00 
372600 4.7628599858e+00 -2.3602791552e-04 2.7654760638e+00 -4.7899450497e+00 2.7654760638e+00 4.7899450497e+00 
372700 4.7628599848e+00 -2.3577503599e-04 2.7654803312e+00 -4.7899524410e+00 2.7654803312e+00 4.7899524410e+00 
372800 4.7628599838e+00 -2.3552242770e-04 2.7654845941e+00 -4.7899598245e+00 2.7654845941e+00 4.7899598245e+00 
372900 4.7628599829e+00 -2.3527009034e-04 2.7654888523e+00 -4.7899672000e+00 2.7654888523e+00 4.7899672000e+00 
373000 4.7628599819e+00 -2.3501802363e-04 2.7654931060e+00 -4.7899745676e+00 2.7654931060e+00 4.7899745676e+00 
373100 4.7628599810e+00 -2.3476622728e-04 2.7654973551e+00 -4.7899819272e+00 2.7654973551e+00 4.7899819272e+00 
373200 4.7628599800e+00 -2.3451470100e-04 2.7655015997e+00 -4.7899892790e+00 2.7655015997e+00 4.7899892790e+00 
373300 4.7628599791e+00 -2.3426344449e-04 2.7655058397e+00 -4.7899966229e+00 2.7655058397e+00 4.7899966229e+00 
373400 4.7628599781e+00 -2.3401245747e-04 2.7655100751e+00 -4.7900039590e+00 2.7655100751e+00 4.7900039590e+00 
373500 4.7628599772e+00 -2.3376173965e-04 2.7655143060e+00 -4.7900112871e+00 2.7655143060e+00 4.7900112871e+00 
373600 4.7628599762e+00 -2.3351129074e-04 2.7655185324e+00 -4.7900186074e+00 2.7655185324e+00 4.7900186074e+00 
373700 4.7628599753e+00 -2.3326111045e-04 2.7655227542e+00 -4.7900259198e+00 2.7655227542e+00 4.7900259198e+00 
373800 4.7628599743e+00 -2.3301119849e-04 2.7655269715e+00 -4.7900332244e+00 2.7655269715e+00 4.7900332244e+00 
373900 4.7628599734e+00 -2.3276155458e-04 2.7655311843e+00 -4.7900405212e+00 2.7655311843e+00 4.7900405212e+00 
374000 4.7628599725e+00 -2.3251217842e-04 2.7655353926e+00 -4.7900478101e+00 2.7655353926e+00 4.7900478101e+00 
374100 4.7628599715e+00 -2.3226306973e-04 2.7655395963e+00 -4.7900550912e+00 2.7655395963e+00 4.7900550912e+00 
374200 4.7628599706e+00 -2.3201422822e-04 2.7655437956e+00 -4.7900623645e+00 2.7655437956e+00 4.7900623645e+00 
374300 4.7628599697e+00 -2.3176565360e-04 2.7655479903e+00 -4.7900696300e+00 2.7655479903e+00 4.7900696300e+00 
374400 4.7628599688e+00 -2.3151734560e-04 2.7655521805e+00 -4.7900768877e+00 2.7655521805e+00 4.7900768877e+00 
374500 4.7628599678e+00 -2.3126930391e-04 2.7655563663e+00 -4.7900841376e+00 2.7655563663e+00 4.7900841376e+00 
374600 4.7628599669e+00 -2.3102152826e-04 2.7655605475e+00 -4.7900913797e+00 2.7655605475e+00 4.7900913797e+00 
374700 4.7628599660e+00 -2.3077401836e-04 2.7655647243e+00 -4.7900986141e+00 2.7655647243e+00 4.7900986141e+00 
374800 4.7628599651e+00 -2.3052677392e-04 2.7655688966e+00 -4.7901058407e+00 2.7655688966e+00 4.7901058407e+00 
374900 4.7628599641e+00 -2.3027979467e-04 2.7655730644e+00 -4.7901130595e+00 2.7655730644e+00 4.7901130595e+00 
375000 4.7628599632e+00 -2.3003308030e-04 2.7655772277e+00 -4.7901202706e+00 2.7655772277e+00 4.7901202706e+00 
375100 4.7628599623e+00 -2.2978663055e-04 2.7655813865e+00 -4.7901274740e+00 2.7655813865e+00 4.7901274740e+00 
375200 4.7628599614e+00 -2.2954044513e-04 2.7655855410e+00 -4.7901346696e+00 2.7655855410e+00 4.7901346696e+00 
375300 4.7628599605e+00 -2.2929452374e-04 2.7655896909e+00 -4.7901418575e+00 2.7655896909e+00 4.7901418575e+00 
375400 4.7628599596e+00 -2.2904886612e-04 2.7655938364e+00 -4.7901490377e+00 2.7655938364e+00 4.7901490377e+00 
375500 4.7628599587e+00 -2.2880347197e-04 2.7655979774e+00 -4.7901562102e+00 2.7655979774e+00 4.7901562102e+00 
375600 4.7628599578e+00 -2.2855834101e-04 2.7656021140e+00 -4.7901633750e+00 2.7656021140e+00 4.7901633750e+00 
375700 4.7628599569e+00 -2.2831347296e-04 2.7656062462e+00 -4.7901705321e+00 2.7656062462e+00 4.7901705321e+00 
375800 4.7628599560e+00 -2.2806886754e-04 2.7656103739e+00 -4.7901776816e+00 2.7656103739e+00 4.7901776816e+00 
375900 4.7628599551e+00 -2.2782452446e-04 2.7656144972e+00 -4.7901848233e+00 2.7656144972e+00 4.7901848233e+00 
376000 4.7628599542e+00 -2.2758044345e-04 2.7656186161e+00 -4.7901919575e+00 2.7656186161e+00 4.7901919575e+00 
376100 4.7628599533e+00 -2.2733662422e-04 2.7656227306e+00 -4.7901990839e+00 2.7656227306e+00 4.7901990839e+00 
376200 4.7628599524e+00 -2.2709306649e-04 2.7656268406e+00 -4.7902062027e+00 2.7656268406e+00 4.7902062027e+00 
376300 4.7628599515e+00 -2.2684976999e-04 2.7656309462e+00 -4.7902133139e+00 2.7656309462e+00 4.7902133139e+00 
376400 4.7628599506e+00 -2.2660673442e-04 2.7656350475e+00 -4.7902204174e+00 2.7656350475e+00 4.7902204174e+00 
376500 4.7628599497e+00 -2.2636395951e-04 2.7656391443e+00 -4.7902275133e+00 2.7656391443e+00 4.7902275133e+00 
376600 4.7628599488e+00 -2.2612144498e-04 2.7656432367e+00 -4.7902346016e+00 2.7656432367e+00 4.7902346016e+00 
376700 4.7628599480e+00 -2.2587919056e-04 2.7656473248e+00 -4.7902416824e+00 2.7656473248e+00 4.7902416824e+00 
376800 4.7628599471e+00 -2.2563719595e-04 2.7656514084e+00 -4.7902487555e+00 2.7656514084e+00 4.7902487555e+00 
376900 4.7628599462e+00 -2.2539546088e-04 2.7656554877e+00 -4.7902558210e+00 2.7656554877e+00 4.7902558210e+00 
377000 4.7628599453e+00 -2.2515398508e-04 2.7656595626e+00 -4.7902628789e+00 2.7656595626e+00 4.7902628789e+00 
377100 4.7628599444e+00 -2.2491276826e-04 2.7656636332e+00 -4.7902699293e+00 2.7656636332e+00 4.7902699293e+00 
377200 4.7628599436e+00 -2.2467181015e-04 2.7656676993e+00 -4.7902769721e+00 2.7656676993e+00 4.7902769721e+00 
377300 4.7628599427e+00 -2.2443111047e-04 2.7656717611e+00 -4.7902840073e+00 2.7656717611e+00 4.7902840073e+00 
377400 4.7628599418e+00 -2.2419066894e-04 2.7656758186e+00 -4.7902910350e+00 2.7656758186e+00 4.7902910350e+00 
377500 4.7628599410e+00 -2.2395048528e-04 2.7656798717e+00 -4.7902980552e+00 2.7656798717e+00 4.7902980552e+00 
377600 4.7628599401e+00 -2.2371055922e-04 2.7656839204e+00 -4.7903050678e+00 2.7656839204e+00 4.7903050678e+00 
377700 4.7628599392e+00 -2.2347089048e-04 2.7656879648e+00 -4.7903120729e+00 2.7656879648e+00 4.7903120729e+00 
377800 4.7628599384e+00 -2.2323147879e-04 2.7656920049e+00 -4.7903190705e+00 2.7656920049e+00 4.7903190705e+00 
377900 4.7628599375e+00 -2.2299232386e-04 2.7656960406e+00 -4.7903260606e+00 2.7656960406e+00 4.7903260606e+00 
378000 4.7628599367e+00 -2.2275342543e-04 2.7657000720e+00 -4.7903330432e+00 2.7657000720e+00 4.7903330432e+00 
378100 4.7628599358e+00 -2.2251478321e-04 2.7657040991e+00 -4.7903400183e+00 2.7657040991e+00 4.7903400183e+00 
378200 4.7628599349e+00 -2.2227639694e-04 2.7657081218e+00 -4.7903469859e+00 2.7657081218e+00 4.7903469859e+00 
378300 4.7628599341e+00 -2.2203826633e-04 2.7657121402e+00 -4.7903539460e+00 2.7657121402e+00 4.7903539460e+00 
378400 4.7628599332e+00 -2.2180039111e-04 2.7657161544e+00 -4.7903608987e+00 2.7657161544e+00 4.7903608987e+00 
378500 4.7628599324e+00 -2.2156277102e-04 2.7657201642e+00 -4.7903678439e+00 2.7657201642e+00 4.7903678439e+00 
378600 4.7628599315e+00 -2.2132540576e-04 2.7657241697e+00 -4.7903747817e+00 2.7657241697e+00 4.7903747817e+00 
378700 4.7628599307e+00 -2.2108829508e-04 2.7657281709e+00 -4.7903817120e+00 2.7657281709e+00 4.7903817120e+00 
378800 4.7628599299e+00 -2.2085143870e-04 2.7657321679e+00 -4.7903886349e+00 2.7657321679e+00 4.7903886349e+00 
378900 4.7628599290e+00 -2.2061483634e-04 2.7657361605e+00 -4.7903955503e+00 2.7657361605e+00 4.7903955503e+00 
379000 4.7628599282e+00 -2.2037848773e-04 2.7657401489e+00 -4.7904024584e+00 2.7657401489e+00 4.7904024584e+00 
379100 4.7628599273e+00 -2.2014239260e-04 2.7657441329e+00 -4.7904093590e+00 2.7657441329e+00 4.7904093590e+00 
379200 4.7628599265e+00 -2.1990655067e-04 2.7657481127e+00 -4.7904162522e+00 2.7657481127e+00 4.7904162522e+00 
379300 4.7628599257e+00 -2.1967096168e-04 2.7657520883e+00 -4.7904231380e+00 2.7657520883e+00 4.7904231380e+00 
379400 4.7628599248e+00 -2.1943562536e-04 2.7657560595e+00 -4.7904300165e+00 2.7657560595e+00 4.7904300165e+00 
379500 4.7628599240e+00 -2.1920054143e-04 2.7657600266e+00 -4.7904368875e+00 2.7657600266e+00 4.7904368875e+00 
379600 4.7628599232e+00 -2.1896570961e-04 2.7657639893e+00 -4.7904437512e+00 2.7657639893e+00 4.7904437512e+00 
379700 4.7628599223e+00 -2.1873112965e-04 2.7657679478e+00 -4.7904506076e+00 2.7657679478e+00 4.7904506076e+00 
379800 4.7628599215e+00 -2.1849680127e-04 2.7657719021e+00 -4.7904574565e+00 2.7657719021e+00 4.7904574565e+00 
379900 4.7628599207e+00 -2.1826272419e-04 2.7657758521e+00 -4.7904642982e+00 2.7657758521e+00 4.7904642982e+00 
380000 4.7628599199e+00 -2.1802889816e-04 2.7657797979e+00 -4.7904711325e+00 2.7657797979e+00 4.7904711325e+00 
380100 4.7628599190e+00 -2.1779532289e-04 2.7657837394e+00 -4.7904779594e+00 2.7657837394e+00 4.7904779594e+00 
380200 4.7628599182e+00 -2.1756199813e-04 2.7657876767e+00 -4.7904847791e+00 2.7657876767e+00 4.7904847791e+00 
380300 4.7628599174e+00 -2.1732892360e-04 2.7657916098e+00 -4.7904915914e+00 2.7657916098e+00 4.7904915914e+00 
380400 4.7628599166e+00 -2.1709609903e-04 2.7657955387e+00 -4.7904983964e+00 2.7657955387e+00 4.7904983964e+00 
380500 4.7628599158e+00 -2.1686352416e-04 2.7657994634e+00 -4.7905051941e+00 2.7657994634e+00 4.7905051941e+00 
380600 4.7628599150e+00 -2.1663119871e-04 2.7658033838e+00 -4.7905119845e+00 2.7658033838e+00 4.7905119845e+00 
380700 4.7628599142e+00 -2.1639912242e-04 2.7658073001e+00 -4.7905187676e+00 2.7658073001e+00 4.7905187676e+00 
380800 4.7628599134e+00 -2.1616729502e-04 2.7658112121e+00 -4.7905255435e+00 2.7658112121e+00 4.7905255435e+00 
380900 4.7628599125e+00 -2.1593571625e-04 2.7658151199e+00 -4.7905323121e+00 2.7658151199e+00 4.7905323121e+00 
381000 4.7628599117e+00 -2.1570438583e-04 2.7658190236e+00 -4.7905390734e+00 2.7658190236e+00 4.7905390734e+00 
381100 4.7628599109e+00 -2.1547330351e-04 2.7658229231e+00 -4.7905458275e+00 2.7658229231e+00 4.7905458275e+00 
381200 4.7628599101e+00 -2.1524246900e-04 2.7658268184e+00 -4.7905525743e+00 2.7658268184e+00 4.7905525743e+00 
381300 4.7628599093e+00 -2.1501188206e-04 2.7658307095e+00 -4.7905593139e+00 2.7658307095e+00 4.7905593139e+00 
381400 4.7628599085e+00 -2.1478154240e-04 2.7658345964e+00 -4.7905660463e+00 2.7658345964e+00 4.7905660463e+00 
381500 4.7628599077e+00 -2.1455144978e-04 2.7658384792e+00 -4.7905727714e+00 2.7658384792e+00 4.7905727714e+00 
381600 4.7628599069e+00 -2.1432160391e-04 2.7658423578e+00 -4.7905794894e+00 2.7658423578e+00 4.7905794894e+00 
381700 4.7628599062e+00 -2.1409200454e-04 2.7658462322e+00 -4.7905862001e+00 2.7658462322e+00 4.7905862001e+00 
381800 4.7628599054e+00 -2.1386265140e-04 2.7658501025e+00 -4.7905929036e+00 2.7658501025e+00 4.7905929036e+00 
381900 4.7628599046e+00 -2.1363354423e-04 2.7658539686e+00 -4.7905995999e+00 2.7658539686e+00 4.7905995999e+00 
382000 4.7628599038e+00 -2.1340468276e-04 2.7658578306e+00 -4.7906062891e+00 2.7658578306e+00 4.7906062891e+00 
382100 4.7628599030e+00 -2.1317606673e-04 2.7658616884e+00 -4.7906129711e+00 2.7658616884e+00 4.7906129711e+00 
382200 4.7628599022e+00 -2.1294769587e-04 2.7658655421e+00 -4.7906196459e+00 2.7658655421e+00 4.7906196459e+00 
382300 4.7628599014e+00 -2.1271956993e-04 2.7658693917e+00 -4.7906263135e+00 2.7658693917e+00 4.7906263135e+00 
382400 4.7628599007e+00 -2.1249168863e-04 2.7658732371e+00 -4.7906329740e+00 2.7658732371e+00 4.7906329740e+00 
382500 4.7628598999e+00 -2.1226405172e-04 2.7658770784e+00 -4.7906396274e+00 2.7658770784e+00 4.7906396274e+00 
382600 4.7628598991e+00 -2.1203665894e-04 2.7658809156e+00 -4.7906462736e+00 2.7658809156e+00 4.7906462736e+00 
382700 4.7628598983e+00 -2.1180951001e-04 2.7658847487e+00 -4.7906529127e+00 2.7658847487e+00 4.7906529127e+00 
382800 4.7628598975e+00 -2.1158260469e-04 2.7658885777e+00 -4.7906595446e+00 2.7658885777e+00 4.7906595446e+00 
382900 4.7628598968e+00 -2.1135594271e-04 2.7658924025e+00 -4.7906661695e+00 2.7658924025e+00 4.7906661695e+00 
383000 4.7628598960e+00 -2.1112952380e-04 2.7658962233e+00 -4.7906727872e+00 2.7658962233e+00 4.7906727872e+00 
383100 4.7628598952e+00 -2.1090334771e-04 2.7659000400e+00 -4.7906793979e+00 2.7659000400e+00 4.7906793979e+00 
383200 4.7628598945e+00 -2.1067741417e-04 2.7659038525e+00 -4.7906860014e+00 2.7659038525e+00 4.7906860014e+00 
383300 4.7628598937e+00 -2.1045172293e-04 2.7659076610e+00 -4.7906925979e+00 2.7659076610e+00 4.7906925979e+00 
383400 4.7628598929e+00 -2.1022627372e-04 2.7659114654e+00 -4.7906991873e+00 2.7659114654e+00 4.7906991873e+00 
383500 4.7628598922e+00 -2.1000106629e-04 2.7659152657e+00 -4.7907057696e+00 2.7659152657e+00 4.7907057696e+00 
383600 4.7628598914e+00 -2.0977610037e-04 2.7659190619e+00 -4.7907123449e+00 2.7659190619e+00 4.7907123449e+00 
383700 4.7628598907e+00 -2.0955137571e-04 2.7659228541e+00 -4.7907189131e+00 2.7659228541e+00 4.7907189131e+00 
383800 4.7628598899e+00 -2.0932689204e-04 2.7659266422e+00 -4.7907254743e+00 2.7659266422e+00 4.7907254743e+00 
383900 4.7628598891e+00 -2.0910264911e-04 2.7659304262e+00 -4.7907320284e+00 2.7659304262e+00 4.7907320284e+00 
384000 4.7628598884e+00 -2.0887864666e-04 2.7659342062e+00 -4.7907385755e+00 2.7659342062e+00 4.7907385755e+00 
384100 4.7628598876e+00 -2.0865488443e-04 2.7659379821e+00 -4.7907451156e+00 2.7659379821e+00 4.7907451156e+00 
384200 4.7628598869e+00 -2.0843136217e-04 2.7659417540e+00 -4.7907516486e+00 2.7659417540e+00 4.7907516486e+00 
384300 4.7628598861e+00 -2.0820807961e-04 2.7659455218e+00 -4.7907581747e+00 2.7659455218e+00 4.7907581747e+00 
384400 4.7628598854e+00 -2.0798503650e-04 2.7659492856e+00 -4.7907646937e+00 2.7659492856e+00 4.7907646937e+00 
384500 4.7628598846e+00 -2.0776223258e-04 2.7659530453e+00 -4.7907712058e+00 2.7659530453e+00 4.7907712058e+00 
384600 4.7628598839e+00 -2.0753966759e-04 2.7659568010e+00 -4.7907777109e+00 2.7659568010e+00 4.7907777109e+00 
384700 4.7628598831e+00 -2.0731734128e-04 2.7659605527e+00 -4.7907842090e+00 2.7659605527e+00 4.7907842090e+00 
384800 4.7628598824e+00 -2.0709525339e-04 2.7659643003e+00 -4.7907907001e+00 2.7659643003e+00 4.7907907001e+00 
384900 4.7628598817e+00 -2.0687340367e-04 2.7659680440e+00 -4.7907971843e+00 2.7659680440e+00 4.7907971843e+00 
385000 4.7628598809e+00 -2.0665179185e-04 2.7659717836e+00 -4.7908036615e+00 2.7659717836e+00 4.7908036615e+00 
385100 4.7628598802e+00 -2.0643041769e-04 2.7659755192e+00 -4.7908101318e+00 2.7659755192e+00 4.7908101318e+00 
385200 4.7628598795e+00 -2.0620928093e-04 2.7659792508e+00 -4.7908165951e+00 2.7659792508e+00 4.7908165951e+00 
385300 4.7628598787e+00 -2.0598838131e-04 2.7659829784e+00 -4.7908230515e+00 2.7659829784e+00 4.7908230515e+00 
385400 4.7628598780e+00 -2.0576771858e-04 2.7659867020e+00 -4.7908295009e+00 2.7659867020e+00 4.7908295009e+00 
385500 4.7628598773e+00 -2.0554729249e-04 2.7659904216e+00 -4.7908359435e+00 2.7659904216e+00 4.7908359435e+00 
385600 4.7628598765e+00 -2.0532710278e-04 2.7659941372e+00 -4.7908423791e+00 2.7659941372e+00 4.7908423791e+00 
385700 4.7628598758e+00 -2.0510714919e-04 2.7659978489e+00 -4.7908488079e+00 2.7659978489e+00 4.7908488079e+00 
385800 4.7628598751e+00 -2.0488743148e-04 2.7660015565e+00 -4.7908552297e+00 2.7660015565e+00 4.7908552297e+00 
385900 4.7628598743e+00 -2.0466794938e-04 2.7660052602e+00 -4.7908616447e+00 2.7660052602e+00 4.7908616447e+00 
386000 4.7628598736e+00 -2.0444870265e-04 2.7660089599e+00 -4.7908680528e+00 2.7660089599e+00 4.7908680528e+00 
386100 4.7628598729e+00 -2.0422969104e-04 2.7660126556e+00 -4.7908744540e+00 2.7660126556e+00 4.7908744540e+00 
386200 4.7628598722e+00 -2.0401091429e-04 2.7660163474e+00 -4.7908808483e+00 2.7660163474e+00 4.7908808483e+00 
386300 4.7628598715e+00 -2.0379237215e-04 2.7660200352e+00 -4.7908872358e+00 2.7660200352e+00 4.7908872358e+00 
386400 4.7628598707e+00 -2.0357406436e-04 2.7660237191e+00 -4.7908936164e+00 2.7660237191e+00 4.7908936164e+00 
386500 4.7628598700e+00 -2.0335599068e-04 2.7660273990e+00 -4.7908999902e+00 2.7660273990e+00 4.7908999902e+00 
386600 4.7628598693e+00 -2.0313815086e-04 2.7660310749e+00 -4.7909063571e+00 2.7660310749e+00 4.7909063571e+00 
386700 4.7628598686e+00 -2.0292054464e-04 2.7660347470e+00 -4.7909127172e+00 2.7660347470e+00 4.7909127172e+00 
386800 4.7628598679e+00 -2.0270317177e-04 2.7660384150e+00 -4.7909190705e+00 2.7660384150e+00 4.7909190705e+00 
386900 4.7628598672e+00 -2.0248603200e-04 2.7660420792e+00 -4.7909254170e+00 2.7660420792e+00 4.7909254170e+00 
387000 4.7628598665e+00 -2.0226912509e-04 2.7660457394e+00 -4.7909317567e+00 2.7660457394e+00 4.7909317567e+00 
387100 4.7628598658e+00 -2.0205245078e-04 2.7660493957e+00 -4.7909380896e+00 2.7660493957e+00 4.7909380896e+00 
387200 4.7628598651e+00 -2.0183600881e-04 2.7660530481e+00 -4.7909444157e+00 2.7660530481e+00 4.7909444157e+00 
387300 4.7628598644e+00 -2.0161979895e-04 2.7660566965e+00 -4.7909507350e+00 2.7660566965e+00 4.7909507350e+00 
387400 4.7628598637e+00 -2.0140382095e-04 2.7660603410e+00 -4.7909570475e+00 2.7660603410e+00 4.7909570475e+00 
387500 4.7628598630e+00 -2.0118807455e-04 2.7660639817e+00 -4.7909633532e+00 2.7660639817e+00 4.7909633532e+00 
387600 4.7628598623e+00 -2.0097255950e-04 2.7660676184e+00 -4.7909696522e+00 2.7660676184e+00 4.7909696522e+00 
387700 4.7628598616e+00 -2.0075727556e-04 2.7660712512e+00 -4.7909759444e+00 2.7660712512e+00 4.7909759444e+00 
387800 4.7628598609e+00 -2.0054222248e-04 2.7660748801e+00 -4.7909822299e+00 2.7660748801e+00 4.7909822299e+00 
387900 4.7628598602e+00 -2.0032740001e-04 2.7660785052e+00 -4.7909885087e+00 2.7660785052e+00 4.7909885087e+00 
388000 4.7628598595e+00 -2.0011280790e-04 2.7660821263e+00 -4.7909947807e+00 2.7660821263e+00 4.7909947807e+00 
388100 4.7628598588e+00 -1.9989844591e-04 2.7660857436e+00 -4.7910010460e+00 2.7660857436e+00 4.7910010460e+00 
388200 4.7628598581e+00 -1.9968431378e-04 2.7660893570e+00 -4.7910073045e+00 2.7660893570e+00 4.7910073045e+00 
388300 4.7628598574e+00 -1.9947041128e-04 2.7660929665e+00 -4.7910135564e+00 2.7660929665e+00 4.7910135564e+00 
388400 4.7628598567e+00 -1.9925673816e-04 2.7660965721e+00 -4.7910198015e+00 2.7660965721e+00 4.7910198015e+00 
388500 4.7628598560e+00 -1.9904329416e-04 2.7661001739e+00 -4.7910260400e+00 2.7661001739e+00 4.7910260400e+00 
388600 4.7628598554e+00 -1.9883007905e-04 2.7661037718e+00 -4.7910322717e+00 2.7661037718e+00 4.7910322717e+00 
388700 4.7628598547e+00 -1.9861709257e-04 2.7661073658e+00 -4.7910384968e+00 2.7661073658e+00 4.7910384968e+00 
388800 4.7628598540e+00 -1.9840433448e-04 2.7661109560e+00 -4.7910447152e+00 2.7661109560e+00 4.7910447152e+00 
388900 4.7628598533e+00 -1.9819180455e-04 2.7661145423e+00 -4.7910509269e+00 2.7661145423e+00 4.7910509269e+00 
389000 4.7628598526e+00 -1.9797950251e-04 2.7661181248e+00 -4.7910571320e+00 2.7661181248e+00 4.7910571320e+00 
389100 4.7628598520e+00 -1.9776742813e-04 2.7661217035e+00 -4.7910633304e+00 2.7661217035e+00 4.7910633304e+00 
389200 4.7628598513e+00 -1.9755558116e-04 2.7661252783e+00 -4.7910695221e+00 2.7661252783e+00 4.7910695221e+00 
389300 4.7628598506e+00 -1.9734396136e-04 2.7661288493e+00 -4.7910757073e+00 2.7661288493e+00 4.7910757073e+00 
389400 4.7628598499e+00 -1.9713256848e-04 2.7661324164e+00 -4.7910818857e+00 2.7661324164e+00 4.7910818857e+00 
389500 4.7628598493e+00 -1.9692140229e-04 2.7661359798e+00 -4.7910880576e+00 2.7661359798e+00 4.7910880576e+00 
389600 4.7628598486e+00 -1.9671046253e-04 2.7661395393e+00 -4.7910942228e+00 2.7661395393e+00 4.7910942228e+00 
389700 4.7628598479e+00 -1.9649974896e-04 2.7661430950e+00 -4.7911003815e+00 2.7661430950e+00 4.7911003815e+00 
389800 4.7628598473e+00 -1.9628926135e-04 2.7661466468e+00 -4.7911065335e+00 2.7661466468e+00 4.7911065335e+00 
389900 4.7628598466e+00 -1.9607899944e-04 2.7661501949e+00 -4.7911126789e+00 2.7661501949e+00 4.7911126789e+00 
390000 4.7628598459e+00 -1.9586896300e-04 2.7661537392e+00 -4.7911188178e+00 2.7661537392e+00 4.7911188178e+00 
390100 4.7628598453e+00 -1.9565915179e-04 2.7661572796e+00 -4.7911249500e+00 2.7661572796e+00 4.7911249500e+00 
390200 4.7628598446e+00 -1.9544956555e-04 2.7661608163e+00 -4.7911310757e+00 2.7661608163e+00 4.7911310757e+00 
390300 4.7628598440e+00 -1.9524020406e-04 2.7661643491e+00 -4.7911371948e+00 2.7661643491e+00 4.7911371948e+00 
390400 4.7628598433e+00 -1.9503106707e-04 2.7661678782e+00 -4.7911433073e+00 2.7661678782e+00 4.7911433073e+00 
390500 4.7628598426e+00 -1.9482215433e-04 2.7661714035e+00 -4.7911494133e+00 2.7661714035e+00 4.7911494133e+00 
390600 4.7628598420e+00 -1.9461346561e-04 2.7661749250e+00 -4.7911555128e+00 2.7661749250e+00 4.7911555128e+00 
390700 4.7628598413e+00 -1.9440500067e-04 2.7661784428e+00 -4.7911616057e+00 2.7661784428e+00 4.7911616057e+00 
390800 4.7628598407e+00 -1.9419675926e-04 2.7661819567e+00 -4.7911676920e+00 2.7661819567e+00 4.7911676920e+00 
390900 4.7628598400e+00 -1.9398874115e-04 2.7661854669e+00 -4.7911737719e+00 2.7661854669e+00 4.7911737719e+00 
391000 4.7628598394e+00 -1.9378094610e-04 2.7661889734e+00 -4.7911798452e+00 2.7661889734e+00 4.7911798452e+00 
391100 4.7628598387e+00 -1.9357337386e-04 2.7661924760e+00 -4.7911859120e+00 2.7661924760e+00 4.7911859120e+00 
391200 4.7628598381e+00 -1.9336602420e-04 2.7661959749e+00 -4.7911919723e+00 2.7661959749e+00 4.7911919723e+00 
391300 4.7628598374e+00 -1.9315889688e-04 2.7661994701e+00 -4.7911980261e+00 2.7661994701e+00 4.7911980261e+00 
391400 4.7628598368e+00 -1.9295199166e-04 2.7662029615e+00 -4.7912040734e+00 2.7662029615e+00 4.7912040734e+00 
391500 4.7628598362e+00 -1.9274530831e-04 2.7662064492e+00 -4.7912101142e+00 2.7662064492e+00 4.7912101142e+00 
391600 4.7628598355e+00 -1.9253884657e-04 2.7662099331e+00 -4.7912161486e+00 2.7662099331e+00 4.7912161486e+00 
391700 4.7628598349e+00 -1.9233260622e-04 2.7662134133e+00 -4.7912221764e+00 2.7662134133e+00 4.7912221764e+00 
391800 4.7628598342e+00 -1.9212658702e-04 2.7662168898e+00 -4.7912281978e+00 2.7662168898e+00 4.7912281978e+00 
391900 4.7628598336e+00 -1.9192078873e-04 2.7662203625e+00 -4.7912342128e+00 2.7662203625e+00 4.7912342128e+00 
392000 4.7628598330e+00 -1.9171521111e-04 2.7662238315e+00 -4.7912402213e+00 2.7662238315e+00 4.7912402213e+00 
392100 4.7628598323e+00 -1.9150985393e-04 2.7662272968e+00 -4.7912462233e+00 2.7662272968e+00 4.7912462233e+00 
392200 4.7628598317e+00 -1.9130471694e-04 2.7662307584e+00 -4.7912522190e+00 2.7662307584e+00 4.7912522190e+00 
392300 4.7628598311e+00 -1.9109979992e-04 2.7662342162e+00 -4.7912582081e+00 2.7662342162e+00 4.7912582081e+00 
392400 4.7628598304e+00 -1.9089510263e-04 2.7662376704e+00 -4.7912641909e+00 2.7662376704e+00 4.7912641909e+00 
392500 4.7628598298e+00 -1.9069062482e-04 2.7662411208e+00 -4.7912701673e+00 2.7662411208e+00 4.7912701673e+00 
392600 4.7628598292e+00 -1.9048636627e-04 2.7662445676e+00 -4.7912761372e+00 2.7662445676e+00 4.7912761372e+00 
392700 4.7628598286e+00 -1.9028232674e-04 2.7662480106e+00 -4.7912821007e+00 2.7662480106e+00 4.7912821007e+00 
392800 4.7628598279e+00 -1.9007850600e-04 2.7662514500e+00 -4.7912880579e+00 2.7662514500e+00 4.7912880579e+00 
392900 4.7628598273e+00 -1.8987490380e-04 2.7662548857e+00 -4.7912940086e+00 2.7662548857e+00 4.7912940086e+00 
393000 4.7628598267e+00 -1.8967151992e-04 2.7662583176e+00 -4.7912999530e+00 2.7662583176e+00 4.7912999530e+00 
393100 4.7628598261e+00 -1.8946835412e-04 2.7662617459e+00 -4.7913058910e+00 2.7662617459e+00 4.7913058910e+00 
393200 4.7628598254e+00 -1.8926540617e-04 2.7662651706e+00 -4.7913118226e+00 2.7662651706e+00 4.7913118226e+00 
393300 4.7628598248e+00 -1.8906267583e-04 2.7662685915e+00 -4.7913177479e+00 2.7662685915e+00 4.7913177479e+00 
393400 4.7628598242e+00 -1.8886016286e-04 2.7662720088e+00 -4.7913236668e+00 2.7662720088e+00 4.7913236668e+00 
393500 4.7628598236e+00 -1.8865786705e-04 2.7662754224e+00 -4.7913295794e+00 2.7662754224e+00 4.7913295794e+00 
393600 4.7628598230e+00 -1.8845578814e-04 2.7662788324e+00 -4.7913354856e+00 2.7662788324e+00 4.7913354856e+00 
393700 4.7628598224e+00 -1.8825392591e-04 2.7662822387e+00 -4.7913413855e+00 2.7662822387e+00 4.7913413855e+00 
393800 4.7628598218e+00 -1.8805228013e-04 2.7662856414e+00 -4.7913472791e+00 2.7662856414e+00 4.7913472791e+00 
393900 4.7628598211e+00 -1.8785085056e-04 2.7662890404e+00 -4.7913531663e+00 2.7662890404e+00 4.7913531663e+00 
394000 4.7628598205e+00 -1.8764963698e-04 2.7662924357e+00 -4.7913590473e+00 2.7662924357e+00 4.7913590473e+00 
394100 4.7628598199e+00 -1.8744863914e-04 2.7662958274e+00 -4.7913649219e+00 2.7662958274e+00 4.7913649219e+00 
394200 4.7628598193e+00 -1.8724785683e-04 2.7662992155e+00 -4.7913707902e+00 2.7662992155e+00 4.7913707902e+00 
394300 4.7628598187e+00 -1.8704728980e-04 2.7663026000e+00 -4.7913766523e+00 2.7663026000e+00 4.7913766523e+00 
394400 4.7628598181e+00 -1.8684693782e-04 2.7663059808e+00 -4.7913825080e+00 2.7663059808e+00 4.7913825080e+00 
394500 4.7628598175e+00 -1.8664680067e-04 2.7663093580e+00 -4.7913883575e+00 2.7663093580e+00 4.7913883575e+00 
394600 4.7628598169e+00 -1.8644687812e-04 2.7663127316e+00 -4.7913942007e+00 2.7663127316e+00 4.7913942007e+00 
394700 4.7628598163e+00 -1.8624716993e-04 2.7663161015e+00 -4.7914000376e+00 2.7663161015e+00 4.7914000376e+00 
394800 4.7628598157e+00 -1.8604767587e-04 2.7663194679e+00 -4.7914058683e+00 2.7663194679e+00 4.7914058683e+00 
394900 4.7628598151e+00 -1.8584839571e-04 2.7663228306e+00 -4.7914116927e+00 2.7663228306e+00 4.7914116927e+00 
395000 4.7628598145e+00 -1.8564932923e-04 2.7663261897e+00 -4.7914175109e+00 2.7663261897e+00 4.7914175109e+00 
395100 4.7628598139e+00 -1.8545047619e-04 2.7663295452e+00 -4.7914233228e+00 2.7663295452e+00 4.7914233228e+00 
395200 4.7628598133e+00 -1.8525183637e-04 2.7663328971e+00 -4.7914291285e+00 2.7663328971e+00 4.7914291285e+00 
395300 4.7628598127e+00 -1.8505340954e-04 2.7663362455e+00 -4.7914349280e+00 2.7663362455e+00 4.7914349280e+00 
395400 4.7628598122e+00 -1.8485519546e-04 2.7663395902e+00 -4.7914407212e+00 2.7663395902e+00 4.7914407212e+00 
395500 4.7628598116e+00 -1.8465719391e-04 2.7663429314e+00 -4.7914465083e+00 2.7663429314e+00 4.7914465083e+00 
395600 4.7628598110e+00 -1.8445940466e-04 2.7663462689e+00 -4.7914522891e+00 2.7663462689e+00 4.7914522891e+00 
395700 4.7628598104e+00 -1.8426182749e-04 2.7663496029e+00 -4.7914580638e+00 2.7663496029e+00 4.7914580638e+00 
395800 4.7628598098e+00 -1.8406446216e-04 2.7663529333e+00 -4.7914638322e+00 2.7663529333e+00 4.7914638322e+00 
395900 4.7628598092e+00 -1.8386730845e-04 2.7663562602e+00 -4.7914695945e+00 2.7663562602e+00 4.7914695945e+00 
396000 4.7628598086e+00 -1.8367036613e-04 2.7663595835e+00 -4.7914753506e+00 2.7663595835e+00 4.7914753506e+00 
396100 4.7628598081e+00 -1.8347363497e-04 2.7663629032e+00 -4.7914811005e+00 2.7663629032e+00 4.7914811005e+00 
396200 4.7628598075e+00 -1.8327711475e-04 2.7663662193e+00 -4.7914868442e+00 2.7663662193e+00 4.7914868442e+00 
396300 4.7628598069e+00 -1.8308080524e-04 2.7663695319e+00 -4.7914925818e+00 2.7663695319e+00 4.7914925818e+00 
396400 4.7628598063e+00 -1.8288470621e-04 2.7663728410e+00 -4.7914983132e+00 2.7663728410e+00 4.7914983132e+00 
396500 4.7628598057e+00 -1.8268881745e-04 2.7663761465e+00 -4.7915040385e+00 2.7663761465e+00 4.7915040385e+00 
396600 4.7628598052e+00 -1.8249313871e-04 2.7663794484e+00 -4.7915097577e+00 2.7663794484e+00 4.7915097577e+00 
396700 4.7628598046e+00 -1.8229766978e-04 2.7663827468e+00 -4.7915154707e+00 2.7663827468e+00 4.7915154707e+00 
396800 4.7628598040e+00 -1.8210241043e-04 2.7663860417e+00 -4.7915211776e+00 2.7663860417e+00 4.7915211776e+00 
396900 4.7628598034e+00 -1.8190736044e-04 2.7663893331e+00 -4.7915268784e+00 2.7663893331e+00 4.7915268784e+00 
397000 4.7628598029e+00 -1.8171251958e-04 2.7663926209e+00 -4.7915325730e+00 2.7663926209e+00 4.7915325730e+00 
397100 4.7628598023e+00 -1.8151788763e-04 2.7663959052e+00 -4.7915382616e+00 2.7663959052e+00 4.7915382616e+00 
397200 4.7628598017e+00 -1.8132346436e-04 2.7663991859e+00 -4.7915439440e+00 2.7663991859e+00 4.7915439440e+00 
397300 4.7628598012e+00 -1.8112924955e-04 2.7664024632e+00 -4.7915496204e+00 2.7664024632e+00 4.7915496204e+00 
397400 4.7628598006e+00 -1.8093524298e-04 2.7664057369e+00 -4.7915552907e+00 2.7664057369e+00 4.7915552907e+00 
397500 4.7628598000e+00 -1.8074144441e-04 2.7664090071e+00 -4.7915609549e+00 2.7664090071e+00 4.7915609549e+00 
397600 4.7628597995e+00 -1.8054785364e-04 2.7664122738e+00 -4.7915666130e+00 2.7664122738e+00 4.7915666130e+00 
397700 4.7628597989e+00 -1.8035447042e-04 2.7664155371e+00 -4.7915722650e+00 2.7664155371e+00 4.7915722650e+00 
397800 4.7628597983e+00 -1.8016129455e-04 2.7664187968e+00 -4.7915779110e+00 2.7664187968e+00 4.7915779110e+00 
397900 4.7628597978e+00 -1.7996832580e-04 2.7664220530e+00 -4.7915835510e+00 2.7664220530e+00 4.7915835510e+00 
398000 4.7628597972e+00 -1.7977556395e-04 2.7664253057e+00 -4.7915891848e+00 2.7664253057e+00 4.7915891848e+00 
398100 4.7628597967e+00 -1.7958300877e-04 2.7664285550e+00 -4.7915948127e+00 2.7664285550e+00 4.7915948127e+00 
398200 4.7628597961e+00 -1.7939066005e-04 2.7664318007e+00 -4.7916004345e+00 2.7664318007e+00 4.7916004345e+00 
398300 4.7628597956e+00 -1.7919851755e-04 2.7664350430e+00 -4.7916060503e+00 2.7664350430e+00 4.7916060503e+00 
398400 4.7628597950e+00 -1.7900658107e-04 2.7664382818e+00 -4.7916116601e+00 2.7664382818e+00 4.7916116601e+00 
398500 4.7628597944e+00 -1.7881485037e-04 2.7664415171e+00 -4.7916172638e+00 2.7664415171e+00 4.7916172638e+00 
398600 4.7628597939e+00 -1.7862332525e-04 2.7664447490e+00 -4.7916228615e+00 2.7664447490e+00 4.7916228615e+00 
398700 4.7628597933e+00 -1.7843200546e-04 2.7664479774e+00 -4.7916284533e+00 2.7664479774e+00 4.7916284533e+00 
398800 4.7628597928e+00 -1.7824089081e-04 2.7664512023e+00 -4.7916340390e+00 2.7664512023e+00 4.7916340390e+00 
398900 4.7628597923e+00 -1.7804998106e-04 2.7664544238e+00 -4.7916396188e+00 2.7664544238e+00 4.7916396188e+00 
399000 4.7628597917e+00 -1.7785927600e-04 2.7664576418e+00 -4.7916451926e+00 2.7664576418e+00 4.7916451926e+00 
399100 4.7628597912e+00 -1.7766877540e-04 2.7664608564e+00 -4.7916507604e+00 2.7664608564e+00 4.7916507604e+00 
399200 4.7628597906e+00 -1.7747847906e-04 2.7664640675e+00 -4.7916563222e+00 2.7664640675e+00 4.7916563222e+00 
399300 4.7628597901e+00 -1.7728838673e-04 2.7664672751e+00 -4.7916618780e+00 2.7664672751e+00 4.7916618780e+00 
399400 4.7628597895e+00 -1.7709849822e-04 2.7664704794e+00 -4.7916674279e+00 2.7664704794e+00 4.7916674279e+00 
399500 4.7628597890e+00 -1.7690881330e-04 2.7664736802e+00 -4.7916729719e+00 2.7664736802e+00 4.7916729719e+00 
399600 4.7628597884e+00 -1.7671933175e-04 2.7664768776e+00 -4.7916785099e+00 2.7664768776e+00 4.7916785099e+00 
399700 4.7628597879e+00 -1.7653005335e-04 2.7664800715e+00 -4.7916840420e+00 2.7664800715e+00 4.7916840420e+00 
399800 4.7628597874e+00 -1.7634097788e-04 2.7664832620e+00 -4.7916895681e+00 2.7664832620e+00 4.7916895681e+00 
399900 4.7628597868e+00 -1.7615210513e-04 2.7664864491e+00 -4.7916950883e+00 2.7664864491e+00 4.7916950883e+00 
400000 4.7628597863e+00 -1.7596343488e-04 2.7664896328e+00 -4.7917006026e+00 2.7664896328e+00 4.7917006026e+00 
400100 4.7628597858e+00 -1.7577496692e-04 2.7664928131e+00 -4.7917061110e+00 2.7664928131e+00 4.7917061110e+00 
400200 4.7628597852e+00 -1.7558670101e-04 2.7664959899e+00 -4.7917116135e+00 2.7664959899e+00 4.7917116135e+00 
400300 4.7628597847e+00 -1.7539863696e-04 2.7664991634e+00 -4.7917171101e+00 2.7664991634e+00 4.7917171101e+00 
400400 4.7628597842e+00 -1.7521077453e-04 2.7665023334e+00 -4.7917226007e+00 2.7665023334e+00 4.7917226007e+00 
400500 4.7628597836e+00 -1.7502311352e-04 2.7665055001e+00 -4.7917280855e+00 2.7665055001e+00 4.7917280855e+00 
400600 4.7628597831e+00 -1.7483565371e-04 2.7665086633e+00 -4.7917335645e+00 2.7665086633e+00 4.7917335645e+00 
400700 4.7628597826e+00 -1.7464839488e-04 2.7665118232e+00 -4.7917390375e+00 2.7665118232e+00 4.7917390375e+00 
400800 4.7628597821e+00 -1.7446133682e-04 2.7665149797e+00 -4.7917445047e+00 2.7665149797e+00 4.7917445047e+00 
400900 4.7628597815e+00 -1.7427447930e-04 2.7665181327e+00 -4.7917499660e+00 2.7665181327e+00 4.7917499660e+00 
401000 4.7628597810e+00 -1.7408782212e-04 2.7665212825e+00 -4.7917554214e+00 2.7665212825e+00 4.7917554214e+00 
401100 4.7628597805e+00 -1.7390136506e-04 2.7665244288e+00 -4.7917608710e+00 2.7665244288e+00 4.7917608710e+00 
401200 4.7628597800e+00 -1.7371510791e-04 2.7665275717e+00 -4.7917663148e+00 2.7665275717e+00 4.7917663148e+00 
401300 4.7628597794e+00 -1.7352905045e-04 2.7665307113e+00 -4.7917717527e+00 2.7665307113e+00 4.7917717527e+00 
401400 4.7628597789e+00 -1.7334319246e-04 2.7665338476e+00 -4.7917771848e+00 2.7665338476e+00 4.7917771848e+00 
401500 4.7628597784e+00 -1.7315753374e-04 2.7665369804e+00 -4.7917826111e+00 2.7665369804e+00 4.7917826111e+00 
401600 4.7628597779e+00 -1.7297207406e-04 2.7665401099e+00 -4.7917880315e+00 2.7665401099e+00 4.7917880315e+00 
401700 4.7628597774e+00 -1.7278681322e-04 2.7665432361e+00 -4.7917934462e+00 2.7665432361e+00 4.7917934462e+00 
401800 4.7628597769e+00 -1.7260175100e-04 2.7665463589e+00 -4.7917988550e+00 2.7665463589e+00 4.7917988550e+00 
401900 4.7628597763e+00 -1.7241688719e-04 2.7665494783e+00 -4.7918042581e+00 2.7665494783e+00 4.7918042581e+00 
402000 4.7628597758e+00 -1.7223222157e-04 2.7665525944e+00 -4.7918096553e+00 2.7665525944e+00 4.7918096553e+00 
402100 4.7628597753e+00 -1.7204775394e-04 2.7665557072e+00 -4.7918150468e+00 2.7665557072e+00 4.7918150468e+00 
402200 4.7628597748e+00 -1.7186348407e-04 2.7665588166e+00 -4.7918204324e+00 2.7665588166e+00 4.7918204324e+00 
402300 4.7628597743e+00 -1.7167941176e-04 2.7665619227e+00 -4.7918258123e+00 2.7665619227e+00 4.7918258123e+00 
402400 4.7628597738e+00 -1.7149553679e-04 2.7665650254e+00 -4.7918311865e+00 2.7665650254e+00 4.7918311865e+00 
402500 4.7628597733e+00 -1.7131185896e-04 2.7665681249e+00 -4.7918365548e+00 2.7665681249e+00 4.7918365548e+00 
402600 4.7628597728e+00 -1.7112837805e-04 2.7665712210e+00 -4.7918419175e+00 2.7665712210e+00 4.7918419175e+00 
402700 4.7628597723e+00 -1.7094509385e-04 2.7665743138e+00 -4.7918472743e+00 2.7665743138e+00 4.7918472743e+00 
402800 4.7628597718e+00 -1.7076200615e-04 2.7665774032e+00 -4.7918526255e+00 2.7665774032e+00 4.7918526255e+00 
402900 4.7628597713e+00 -1.7057911473e-04 2.7665804894e+00 -4.7918579708e+00 2.7665804894e+00 4.7918579708e+00 
403000 4.7628597708e+00 -1.7039641940e-04 2.7665835722e+00 -4.7918633105e+00 2.7665835722e+00 4.7918633105e+00 
403100 4.7628597703e+00 -1.7021391993e-04 2.7665866518e+00 -4.7918686444e+00 2.7665866518e+00 4.7918686444e+00 
403200 4.7628597698e+00 -1.7003161611e-04 2.7665897280e+00 -4.7918739726e+00 2.7665897280e+00 4.7918739726e+00 
403300 4.7628597693e+00 -1.6984950774e-04 2.7665928010e+00 -4.7918792951e+00 2.7665928010e+00 4.7918792951e+00 
403400 4.7628597688e+00 -1.6966759461e-04 2.7665958706e+00 -4.7918846119e+00 2.7665958706e+00 4.7918846119e+00 
403500 4.7628597683e+00 -1.6948587651e-04 2.7665989370e+00 -4.7918899230e+00 2.7665989370e+00 4.7918899230e+00 
403600 4.7628597678e+00 -1.6930435322e-04 2.7666020001e+00 -4.7918952284e+00 2.7666020001e+00 4.7918952284e+00 
403700 4.7628597673e+00 -1.6912302454e-04 2.7666050599e+00 -4.7919005281e+00 2.7666050599e+00 4.7919005281e+00 
403800 4.7628597668e+00 -1.6894189026e-04 2.7666081164e+00 -4.7919058222e+00 2.7666081164e+00 4.7919058222e+00 
403900 4.7628597663e+00 -1.6876095017e-04 2.7666111696e+00 -4.7919111105e+00 2.7666111696e+00 4.7919111105e+00 
404000 4.7628597658e+00 -1.6858020406e-04 2.7666142195e+00 -4.7919163932e+00 2.7666142195e+00 4.7919163932e+00 
404100 4.7628597653e+00 -1.6839965172e-04 2.7666172662e+00 -4.7919216702e+00 2.7666172662e+00 4.7919216702e+00 
404200 4.7628597648e+00 -1.6821929295e-04 2.7666203097e+00 -4.7919269416e+00 2.7666203097e+00 4.7919269416e+00 
404300 4.7628597643e+00 -1.6803912754e-04 2.7666233498e+00 -4.7919322073e+00 2.7666233498e+00 4.7919322073e+00 
404400 4.7628597638e+00 -1.6785915528e-04 2.7666263867e+00 -4.7919374674e+00 2.7666263867e+00 4.7919374674e+00 
404500 4.7628597634e+00 -1.6767937596e-04 2.7666294204e+00 -4.7919427218e+00 2.7666294204e+00 4.7919427218e+00 
404600 4.7628597629e+00 -1.6749978938e-04 2.7666324508e+00 -4.7919479706e+00 2.7666324508e+00 4.7919479706e+00 
404700 4.7628597624e+00 -1.6732039532e-04 2.7666354779e+00 -4.7919532137e+00 2.7666354779e+00 4.7919532137e+00 
404800 4.7628597619e+00 -1.6714119359e-04 2.7666385018e+00 -4.7919584513e+00 2.7666385018e+00 4.7919584513e+00 
404900 4.7628597614e+00 -1.6696218398e-04 2.7666415224e+00 -4.7919636832e+00 2.7666415224e+00 4.7919636832e+00 
405000 4.7628597609e+00 -1.6678336627e-04 2.7666445399e+00 -4.7919689095e+00 2.7666445399e+00 4.7919689095e+00 
405100 4.7628597605e+00 -1.6660474026e-04 2.7666475540e+00 -4.7919741302e+00 2.7666475540e+00 4.7919741302e+00 
405200 4.7628597600e+00 -1.6642630576e-04 2.7666505650e+00 -4.7919793454e+00 2.7666505650e+00 4.7919793454e+00 
405300 4.7628597595e+00 -1.6624806254e-04 2.7666535727e+00 -4.7919845549e+00 2.7666535727e+00 4.7919845549e+00 
405400 4.7628597590e+00 -1.6607001042e-04 2.7666565772e+00 -4.7919897588e+00 2.7666565772e+00 4.7919897588e+00 
405500 4.7628597586e+00 -1.6589214917e-04 2.7666595785e+00 -4.7919949572e+00 2.7666595785e+00 4.7919949572e+00 
405600 4.7628597581e+00 -1.6571447860e-04 2.7666625766e+00 -4.7920001500e+00 2.7666625766e+00 4.7920001500e+00 
405700 4.7628597576e+00 -1.6553699850e-04 2.7666655714e+00 -4.7920053372e+00 2.7666655714e+00 4.7920053372e+00 
405800 4.7628597571e+00 -1.6535970867e-04 2.7666685630e+00 -4.7920105189e+00 2.7666685630e+00 4.7920105189e+00 
405900 4.7628597567e+00 -1.6518260890e-04 2.7666715515e+00 -4.7920156950e+00 2.7666715515e+00 4.7920156950e+00 
406000 4.7628597562e+00 -1.6500569899e-04 2.7666745367e+00 -4.7920208655e+00 2.7666745367e+00 4.7920208655e+00 
406100 4.7628597557e+00 -1.6482897873e-04 2.7666775187e+00 -4.7920260306e+00 2.7666775187e+00 4.7920260306e+00 
406200 4.7628597553e+00 -1.6465244793e-04 2.7666804975e+00 -4.7920311900e+00 2.7666804975e+00 4.7920311900e+00 
406300 4.7628597548e+00 -1.6447610638e-04 2.7666834732e+00 -4.7920363440e+00 2.7666834732e+00 4.7920363440e+00 
406400 4.7628597543e+00 -1.6429995387e-04 2.7666864456e+00 -4.7920414924e+00 2.7666864456e+00 4.7920414924e+00 
406500 4.7628597539e+00 -1.6412399020e-04 2.7666894149e+00 -4.7920466353e+00 2.7666894149e+00 4.7920466353e+00 
406600 4.7628597534e+00 -1.6394821517e-04 2.7666923809e+00 -4.7920517727e+00 2.7666923809e+00 4.7920517727e+00 
406700 4.7628597529e+00 -1.6377262858e-04 2.7666953438e+00 -4.7920569046e+00 2.7666953438e+00 4.7920569046e+00 
406800 4.7628597525e+00 -1.6359723022e-04 2.7666983035e+00 -4.7920620310e+00 2.7666983035e+00 4.7920620310e+00 
406900 4.7628597520e+00 -1.6342201989e-04 2.7667012601e+00 -4.7920671518e+00 2.7667012601e+00 4.7920671518e+00 
407000 4.7628597515e+00 -1.6324699739e-04 2.7667042135e+00 -4.7920722672e+00 2.7667042135e+00 4.7920722672e+00 
407100 4.7628597511e+00 -1.6307216253e-04 2.7667071637e+00 -4.7920773771e+00 2.7667071637e+00 4.7920773771e+00 
407200 4.7628597506e+00 -1.6289751509e-04 2.7667101107e+00 -4.7920824816e+00 2.7667101107e+00 4.7920824816e+00 
407300 4.7628597502e+00 -1.6272305487e-04 2.7667130546e+00 -4.7920875805e+00 2.7667130546e+00 4.7920875805e+00 
407400 4.7628597497e+00 -1.6254878168e-04 2.7667159953e+00 -4.7920926740e+00 2.7667159953e+00 4.7920926740e+00 
407500 4.7628597493e+00 -1.6237469532e-04 2.7667189329e+00 -4.7920977621e+00 2.7667189329e+00 4.7920977621e+00 
407600 4.7628597488e+00 -1.6220079558e-04 2.7667218673e+00 -4.7921028446e+00 2.7667218673e+00 4.7921028446e+00 
407700 4.7628597483e+00 -1.6202708226e-04 2.7667247986e+00 -4.7921079218e+00 2.7667247986e+00 4.7921079218e+00 
407800 4.7628597479e+00 -1.6185355517e-04 2.7667277268e+00 -4.7921129934e+00 2.7667277268e+00 4.7921129934e+00 
407900 4.7628597474e+00 -1.6168021410e-04 2.7667306518e+00 -4.7921180597e+00 2.7667306518e+00 4.7921180597e+00 
408000 4.7628597470e+00 -1.6150705885e-04 2.7667335736e+00 -4.7921231205e+00 2.7667335736e+00 4.7921231205e+00 
408100 4.7628597465e+00 -1.6133408922e-04 2.7667364923e+00 -4.7921281759e+00 2.7667364923e+00 4.7921281759e+00 
408200 4.7628597461e+00 -1.6116130502e-04 2.7667394080e+00 -4.7921332259e+00 2.7667394080e+00 4.7921332259e+00 
408300 4.7628597456e+00 -1.6098870605e-04 2.7667423204e+00 -4.7921382704e+00 2.7667423204e+00 4.7921382704e+00 
408400 4.7628597452e+00 -1.6081629210e-04 2.7667452298e+00 -4.7921433096e+00 2.7667452298e+00 4.7921433096e+00 
408500 4.7628597447e+00 -1.6064406299e-04 2.7667481360e+00 -4.7921483433e+00 2.7667481360e+00 4.7921483433e+00 
408600 4.7628597443e+00 -1.6047201850e-04 2.7667510391e+00 -4.7921533717e+00 2.7667510391e+00 4.7921533717e+00 
408700 4.7628597439e+00 -1.6030015844e-04 2.7667539392e+00 -4.7921583947e+00 2.7667539392e+00 4.7921583947e+00 
408800 4.7628597434e+00 -1.6012848262e-04 2.7667568361e+00 -4.7921634122e+00 2.7667568361e+00 4.7921634122e+00 
408900 4.7628597430e+00 -1.5995699083e-04 2.7667597298e+00 -4.7921684244e+00 2.7667597298e+00 4.7921684244e+00 
409000 4.7628597425e+00 -1.5978568288e-04 2.7667626205e+00 -4.7921734313e+00 2.7667626205e+00 4.7921734313e+00 
409100 4.7628597421e+00 -1.5961455857e-04 2.7667655081e+00 -4.7921784327e+00 2.7667655081e+00 4.7921784327e+00 
409200 4.7628597417e+00 -1.5944361771e-04 2.7667683926e+00 -4.7921834288e+00 2.7667683926e+00 4.7921834288e+00 
409300 4.7628597412e+00 -1.5927286009e-04 2.7667712740e+00 -4.7921884196e+00 2.7667712740e+00 4.7921884196e+00 
409400 4.7628597408e+00 -1.5910228552e-04 2.7667741524e+00 -4.7921934049e+00 2.7667741524e+00 4.7921934049e+00 
409500 4.7628597403e+00 -1.5893189381e-04 2.7667770276e+00 -4.7921983850e+00 2.7667770276e+00 4.7921983850e+00 
409600 4.7628597399e+00 -1.5876168475e-04 2.7667798997e+00 -4.7922033597e+00 2.7667798997e+00 4.7922033597e+00 
409700 4.7628597395e+00 -1.5859165815e-04 2.7667827688e+00 -4.7922083291e+00 2.7667827688e+00 4.7922083291e+00 
409800 4.7628597390e+00 -1.5842181382e-04 2.7667856348e+00 -4.7922132931e+00 2.7667856348e+00 4.7922132931e+00 
409900 4.7628597386e+00 -1.5825215156e-04 2.7667884977e+00 -4.7922182518e+00 2.7667884977e+00 4.7922182518e+00 
410000 4.7628597382e+00 -1.5808267117e-04 2.7667913576e+00 -4.7922232053e+00 2.7667913576e+00 4.7922232053e+00 
410100 4.7628597377e+00 -1.5791337247e-04 2.7667942144e+00 -4.7922281534e+00 2.7667942144e+00 4.7922281534e+00 
410200 4.7628597373e+00 -1.5774425524e-04 2.7667970681e+00 -4.7922330962e+00 2.7667970681e+00 4.7922330962e+00 
410300 4.7628597369e+00 -1.5757531931e-04 2.7667999188e+00 -4.7922380337e+00 2.7667999188e+00 4.7922380337e+00 
410400 4.7628597365e+00 -1.5740656446e-04 2.7668027664e+00 -4.7922429659e+00 2.7668027664e+00 4.7922429659e+00 
410500 4.7628597360e+00 -1.5723799052e-04 2.7668056109e+00 -4.7922478928e+00 2.7668056109e+00 4.7922478928e+00 
410600 4.7628597356e+00 -1.5706959729e-04 2.7668084524e+00 -4.7922528144e+00 2.7668084524e+00 4.7922528144e+00 
410700 4.7628597352e+00 -1.5690138456e-04 2.7668112909e+00 -4.7922577308e+00 2.7668112909e+00 4.7922577308e+00 
410800 4.7628597347e+00 -1.5673335216e-04 2.7668141263e+00 -4.7922626419e+00 2.7668141263e+00 4.7922626419e+00 
410900 4.7628597343e+00 -1.5656549988e-04 2.7668169587e+00 -4.7922675477e+00 2.7668169587e+00 4.7922675477e+00 
411000 4.7628597339e+00 -1.5639782753e-04 2.7668197880e+00 -4.7922724483e+00 2.7668197880e+00 4.7922724483e+00 
411100 4.7628597335e+00 -1.5623033491e-04 2.7668226143e+00 -4.7922773436e+00 2.7668226143e+00 4.7922773436e+00 
411200 4.7628597331e+00 -1.5606302185e-04 2.7668254376e+00 -4.7922822336e+00 2.7668254376e+00 4.7922822336e+00 
411300 4.7628597326e+00 -1.5589588813e-04 2.7668282579e+00 -4.7922871185e+00 2.7668282579e+00 4.7922871185e+00 
411400 4.7628597322e+00 -1.5572893358e-04 2.7668310751e+00 -4.7922919981e+00 2.7668310751e+00 4.7922919981e+00 
411500 4.7628597318e+00 -1.5556215799e-04 2.7668338893e+00 -4.7922968724e+00 2.7668338893e+00 4.7922968724e+00 
411600 4.7628597314e+00 -1.5539556117e-04 2.7668367005e+00 -4.7923017415e+00 2.7668367005e+00 4.7923017415e+00 
411700 4.7628597310e+00 -1.5522914294e-04 2.7668395087e+00 -4.7923066055e+00 2.7668395087e+00 4.7923066055e+00 
411800 4.7628597306e+00 -1.5506290311e-04 2.7668423139e+00 -4.7923114642e+00 2.7668423139e+00 4.7923114642e+00 
411900 4.7628597301e+00 -1.5489684147e-04 2.7668451160e+00 -4.7923163176e+00 2.7668451160e+00 4.7923163176e+00 
412000 4.7628597297e+00 -1.5473095784e-04 2.7668479152e+00 -4.7923211659e+00 2.7668479152e+00 4.7923211659e+00 
412100 4.7628597293e+00 -1.5456525203e-04 2.7668507114e+00 -4.7923260090e+00 2.7668507114e+00 4.7923260090e+00 
412200 4.7628597289e+00 -1.5439972384e-04 2.7668535045e+00 -4.7923308469e+00 2.7668535045e+00 4.7923308469e+00 
412300 4.7628597285e+00 -1.5423437309e-04 2.7668562947e+00 -4.7923356796e+00 2.7668562947e+00 4.7923356796e+00 
412400 4.7628597281e+00 -1.5406919959e-04 2.7668590819e+00 -4.7923405072e+00 2.7668590819e+00 4.7923405072e+00 
412500 4.7628597277e+00 -1.5390420314e-04 2.7668618661e+00 -4.7923453295e+00 2.7668618661e+00 4.7923453295e+00 
412600 4.7628597273e+00 -1.5373938356e-04 2.7668646473e+00 -4.7923501467e+00 2.7668646473e+00 4.7923501467e+00 
412700 4.7628597269e+00 -1.5357474065e-04 2.7668674255e+00 -4.7923549587e+00 2.7668674255e+00 4.7923549587e+00 
412800 4.7628597264e+00 -1.5341027423e-04 2.7668702007e+00 -4.7923597656e+00 2.7668702007e+00 4.7923597656e+00 
412900 4.7628597260e+00 -1.5324598410e-04 2.7668729730e+00 -4.7923645673e+00 2.7668729730e+00 4.7923645673e+00 
413000 4.7628597256e+00 -1.5308187008e-04 2.7668757423e+00 -4.7923693639e+00 2.7668757423e+00 4.7923693639e+00 
413100 4.7628597252e+00 -1.5291793198e-04 2.7668785086e+00 -4.7923741553e+00 2.7668785086e+00 4.7923741553e+00 
413200 4.7628597248e+00 -1.5275416961e-04 2.7668812720e+00 -4.7923789416e+00 2.7668812720e+00 4.7923789416e+00 
413300 4.7628597244e+00 -1.5259058278e-04 2.7668840324e+00 -4.7923837228e+00 2.7668840324e+00 4.7923837228e+00 
413400 4.7628597240e+00 -1.5242717130e-04 2.7668867898e+00 -4.7923884988e+00 2.7668867898e+00 4.7923884988e+00 
413500 4.7628597236e+00 -1.5226393499e-04 2.7668895443e+00 -4.7923932697e+00 2.7668895443e+00 4.7923932697e+00 
413600 4.7628597232e+00 -1.5210087365e-04 2.7668922959e+00 -4.7923980355e+00 2.7668922959e+00 4.7923980355e+00 
413700 4.7628597228e+00 -1.5193798710e-04 2.7668950445e+00 -4.7924027962e+00 2.7668950445e+00 4.7924027962e+00 
413800 4.7628597224e+00 -1.5177527514e-04 2.7668977901e+00 -4.7924075518e+00 2.7668977901e+00 4.7924075518e+00 
413900 4.7628597220e+00 -1.5161273761e-04 2.7669005328e+00 -4.7924123023e+00 2.7669005328e+00 4.7924123023e+00 
414000 4.7628597216e+00 -1.5145037429e-04 2.7669032726e+00 -4.7924170477e+00 2.7669032726e+00 4.7924170477e+00 
414100 4.7628597212e+00 -1.5128818502e-04 2.7669060094e+00 -4.7924217880e+00 2.7669060094e+00 4.7924217880e+00 
414200 4.7628597208e+00 -1.5112616960e-04 2.7669087433e+00 -4.7924265232e+00 2.7669087433e+00 4.7924265232e+00 
414300 4.7628597204e+00 -1.5096432784e-04 2.7669114742e+00 -4.7924312534e+00 2.7669114742e+00 4.7924312534e+00 
414400 4.7628597201e+00 -1.5080265956e-04 2.7669142023e+00 -4.7924359785e+00 2.7669142023e+00 4.7924359785e+00 
414500 4.7628597197e+00 -1.5064116458e-04 2.7669169274e+00 -4.7924406985e+00 2.7669169274e+00 4.7924406985e+00 
414600 4.7628597193e+00 -1.5047984270e-04 2.7669196495e+00 -4.7924454135e+00 2.7669196495e+00 4.7924454135e+00 
414700 4.7628597189e+00 -1.5031869374e-04 2.7669223688e+00 -4.7924501234e+00 2.7669223688e+00 4.7924501234e+00 
414800 4.7628597185e+00 -1.5015771752e-04 2.7669250852e+00 -4.7924548282e+00 2.7669250852e+00 4.7924548282e+00 
414900 4.7628597181e+00 -1.4999691384e-04 2.7669277986e+00 -4.7924595281e+00 2.7669277986e+00 4.7924595281e+00 
415000 4.7628597177e+00 -1.4983628253e-04 2.7669305091e+00 -4.7924642228e+00 2.7669305091e+00 4.7924642228e+00 
415100 4.7628597173e+00 -1.4967582340e-04 2.7669332168e+00 -4.7924689126e+00 2.7669332168e+00 4.7924689126e+00 
415200 4.7628597169e+00 -1.4951553627e-04 2.7669359215e+00 -4.7924735973e+00 2.7669359215e+00 4.7924735973e+00 
415300 4.7628597166e+00 -1.4935542094e-04 2.7669386233e+00 -4.7924782770e+00 2.7669386233e+00 4.7924782770e+00 
415400 4.7628597162e+00 -1.4919547724e-04 2.7669413222e+00 -4.7924829517e+00 2.7669413222e+00 4.7924829517e+00 
415500 4.7628597158e+00 -1.4903570499e-04 2.7669440183e+00 -4.7924876214e+00 2.7669440183e+00 4.7924876214e+00 
415600 4.7628597154e+00 -1.4887610399e-04 2.7669467114e+00 -4.7924922860e+00 2.7669467114e+00 4.7924922860e+00 
415700 4.7628597150e+00 -1.4871667406e-04 2.7669494017e+00 -4.7924969457e+00 2.7669494017e+00 4.7924969457e+00 
415800 4.7628597146e+00 -1.4855741502e-04 2.7669520891e+00 -4.7925016004e+00 2.7669520891e+00 4.7925016004e+00 
415900 4.7628597143e+00 -1.4839832669e-04 2.7669547736e+00 -4.7925062500e+00 2.7669547736e+00 4.7925062500e+00 
416000 4.7628597139e+00 -1.4823940888e-04 2.7669574552e+00 -4.7925108947e+00 2.7669574552e+00 4.7925108947e+00 
416100 4.7628597135e+00 -1.4808066141e-04 2.7669601339e+00 -4.7925155345e+00 2.7669601339e+00 4.7925155345e+00 
416200 4.7628597131e+00 -1.4792208410e-04 2.7669628098e+00 -4.7925201692e+00 2.7669628098e+00 4.7925201692e+00 
416300 4.7628597127e+00 -1.4776367676e-04 2.7669654828e+00 -4.7925247990e+00 2.7669654828e+00 4.7925247990e+00 
416400 4.7628597124e+00 -1.4760543922e-04 2.7669681529e+00 -4.7925294238e+00 2.7669681529e+00 4.7925294238e+00 
416500 4.7628597120e+00 -1.4744737128e-04 2.7669708202e+00 -4.7925340437e+00 2.7669708202e+00 4.7925340437e+00 
416600 4.7628597116e+00 -1.4728947278e-04 2.7669734846e+00 -4.7925386586e+00 2.7669734846e+00 4.7925386586e+00 
416700 4.7628597112e+00 -1.4713174352e-04 2.7669761462e+00 -4.7925432685e+00 2.7669761462e+00 4.7925432685e+00 
416800 4.7628597109e+00 -1.4697418332e-04 2.7669788049e+00 -4.7925478736e+00 2.7669788049e+00 4.7925478736e+00 
416900 4.7628597105e+00 -1.4681679201e-04 2.7669814608e+00 -4.7925524737e+00 2.7669814608e+00 4.7925524737e+00 
417000 4.7628597101e+00 -1.4665956939e-04 2.7669841138e+00 -4.7925570688e+00 2.7669841138e+00 4.7925570688e+00 
417100 4.7628597098e+00 -1.4650251530e-04 2.7669867640e+00 -4.7925616590e+00 2.7669867640e+00 4.7925616590e+00 
417200 4.7628597094e+00 -1.4634562955e-04 2.7669894113e+00 -4.7925662444e+00 2.7669894113e+00 4.7925662444e+00 
417300 4.7628597090e+00 -1.4618891196e-04 2.7669920558e+00 -4.7925708247e+00 2.7669920558e+00 4.7925708247e+00 
417400 4.7628597086e+00 -1.4603236234e-04 2.7669946974e+00 -4.7925754002e+00 2.7669946974e+00 4.7925754002e+00 
417500 4.7628597083e+00 -1.4587598052e-04 2.7669973363e+00 -4.7925799708e+00 2.7669973363e+00 4.7925799708e+00 
417600 4.7628597079e+00 -1.4571976632e-04 2.7669999723e+00 -4.7925845365e+00 2.7669999723e+00 4.7925845365e+00 
417700 4.7628597075e+00 -1.4556371956e-04 2.7670026054e+00 -4.7925890973e+00 2.7670026054e+00 4.7925890973e+00 
417800 4.7628597072e+00 -1.4540784006e-04 2.7670052358e+00 -4.7925936532e+00 2.7670052358e+00 4.7925936532e+00 
417900 4.7628597068e+00 -1.4525212763e-04 2.7670078633e+00 -4.7925982042e+00 2.7670078633e+00 4.7925982042e+00 
418000 4.7628597065e+00 -1.4509658211e-04 2.7670104880e+00 -4.7926027503e+00 2.7670104880e+00 4.7926027503e+00 
418100 4.7628597061e+00 -1.4494120330e-04 2.7670131099e+00 -4.7926072916e+00 2.7670131099e+00 4.7926072916e+00 
418200 4.7628597057e+00 -1.4478599104e-04 2.7670157290e+00 -4.7926118280e+00 2.7670157290e+00 4.7926118280e+00 
418300 4.7628597054e+00 -1.4463094514e-04 2.7670183453e+00 -4.7926163596e+00 2.7670183453e+00 4.7926163596e+00 
418400 4.7628597050e+00 -1.4447606542e-04 2.7670209588e+00 -4.7926208862e+00 2.7670209588e+00 4.7926208862e+00 
418500 4.7628597046e+00 -1.4432135171e-04 2.7670235695e+00 -4.7926254081e+00 2.7670235695e+00 4.7926254081e+00 
418600 4.7628597043e+00 -1.4416680383e-04 2.7670261774e+00 -4.7926299250e+00 2.7670261774e+00 4.7926299250e+00 
418700 4.7628597039e+00 -1.4401242159e-04 2.7670287824e+00 -4.7926344372e+00 2.7670287824e+00 4.7926344372e+00 
418800 4.7628597036e+00 -1.4385820483e-04 2.7670313847e+00 -4.7926389445e+00 2.7670313847e+00 4.7926389445e+00 
418900 4.7628597032e+00 -1.4370415336e-04 2.7670339842e+00 -4.7926434470e+00 2.7670339842e+00 4.7926434470e+00 
419000 4.7628597029e+00 -1.4355026701e-04 2.7670365810e+00 -4.7926479446e+00 2.7670365810e+00 4.7926479446e+00 
419100 4.7628597025e+00 -1.4339654559e-04 2.7670391749e+00 -4.7926524374e+00 2.7670391749e+00 4.7926524374e+00 
419200 4.7628597021e+00 -1.4324298894e-04 2.7670417660e+00 -4.7926569255e+00 2.7670417660e+00 4.7926569255e+00 
419300 4.7628597018e+00 -1.4308959688e-04 2.7670443544e+00 -4.7926614087e+00 2.7670443544e+00 4.7926614087e+00 
419400 4.7628597014e+00 -1.4293636922e-04 2.7670469400e+00 -4.7926658871e+00 2.7670469400e+00 4.7926658871e+00 
419500 4.7628597011e+00 -1.4278330579e-04 2.7670495229e+00 -4.7926703607e+00 2.7670495229e+00 4.7926703607e+00 
419600 4.7628597007e+00 -1.4263040642e-04 2.7670521029e+00 -4.7926748295e+00 2.7670521029e+00 4.7926748295e+00 
419700 4.7628597004e+00 -1.4247767094e-04 2.7670546802e+00 -4.7926792935e+00 2.7670546802e+00 4.7926792935e+00 
419800 4.7628597000e+00 -1.4232509915e-04 2.7670572548e+00 -4.7926837527e+00 2.7670572548e+00 4.7926837527e+00 
419900 4.7628596997e+00 -1.4217269089e-04 2.7670598265e+00 -4.7926882071e+00 2.7670598265e+00 4.7926882071e+00 
420000 4.7628596993e+00 -1.4202044599e-04 2.7670623956e+00 -4.7926926568e+00 2.7670623956e+00 4.7926926568e+00 
420100 4.7628596990e+00 -1.4186836426e-04 2.7670649618e+00 -4.7926971017e+00 2.7670649618e+00 4.7926971017e+00 
420200 4.7628596986e+00 -1.4171644554e-04 2.7670675253e+00 -4.7927015419e+00 2.7670675253e+00 4.7927015419e+00 
420300 4.7628596983e+00 -1.4156468964e-04 2.7670700861e+00 -4.7927059773e+00 2.7670700861e+00 4.7927059773e+00 
420400 4.7628596980e+00 -1.4141309640e-04 2.7670726441e+00 -4.7927104079e+00 2.7670726441e+00 4.7927104079e+00 
420500 4.7628596976e+00 -1.4126166563e-04 2.7670751994e+00 -4.7927148338e+00 2.7670751994e+00 4.7927148338e+00 
420600 4.7628596973e+00 -1.4111039717e-04 2.7670777520e+00 -4.7927192549e+00 2.7670777520e+00 4.7927192549e+00 
420700 4.7628596969e+00 -1.4095929084e-04 2.7670803018e+00 -4.7927236713e+00 2.7670803018e+00 4.7927236713e+00 
420800 4.7628596966e+00 -1.4080834646e-04 2.7670828489e+00 -4.7927280830e+00 2.7670828489e+00 4.7927280830e+00 
420900 4.7628596962e+00 -1.4065756386e-04 2.7670853932e+00 -4.7927324899e+00 2.7670853932e+00 4.7927324899e+00 
421000 4.7628596959e+00 -1.4050694287e-04 2.7670879348e+00 -4.7927368921e+00 2.7670879348e+00 4.7927368921e+00 
421100 4.7628596956e+00 -1.4035648332e-04 2.7670904737e+00 -4.7927412896e+00 2.7670904737e+00 4.7927412896e+00 
421200 4.7628596952e+00 -1.4020618503e-04 2.7670930099e+00 -4.7927456824e+00 2.7670930099e+00 4.7927456824e+00 
421300 4.7628596949e+00 -1.4005604782e-04 2.7670955433e+00 -4.7927500705e+00 2.7670955433e+00 4.7927500705e+00 
421400 4.7628596945e+00 -1.3990607153e-04 2.7670980741e+00 -4.7927544539e+00 2.7670980741e+00 4.7927544539e+00 
421500 4.7628596942e+00 -1.3975625598e-04 2.7671006021e+00 -4.7927588325e+00 2.7671006021e+00 4.7927588325e+00 
421600 4.7628596939e+00 -1.3960660101e-04 2.7671031274e+00 -4.7927632065e+00 2.7671031274e+00 4.7927632065e+00 
421700 4.7628596935e+00 -1.3945710643e-04 2.7671056501e+00 -4.7927675758e+00 2.7671056501e+00 4.7927675758e+00 
421800 4.7628596932e+00 -1.3930777207e-04 2.7671081700e+00 -4.7927719404e+00 2.7671081700e+00 4.7927719404e+00 
421900 4.7628596929e+00 -1.3915859777e-04 2.7671106872e+00 -4.7927763003e+00 2.7671106872e+00 4.7927763003e+00 
422000 4.7628596925e+00 -1.3900958335e-04 2.7671132017e+00 -4.7927806556e+00 2.7671132017e+00 4.7927806556e+00 
422100 4.7628596922e+00 -1.3886072864e-04 2.7671157135e+00 -4.7927850062e+00 2.7671157135e+00 4.7927850062e+00 
422200 4.7628596919e+00 -1.3871203347e-04 2.7671182226e+00 -4.7927893521e+00 2.7671182226e+00 4.7927893521e+00 
422300 4.7628596915e+00 -1.3856349767e-04 2.7671207291e+00 -4.7927936934e+00 2.7671207291e+00 4.7927936934e+00 
422400 4.7628596912e+00 -1.3841512106e-04 2.7671232328e+00 -4.7927980300e+00 2.7671232328e+00 4.7927980300e+00 
422500 4.7628596909e+00 -1.3826690348e-04 2.7671257339e+00 -4.7928023620e+00 2.7671257339e+00 4.7928023620e+00 
422600 4.7628596905e+00 -1.3811884475e-04 2.7671282323e+00 -4.7928066893e+00 2.7671282323e+00 4.7928066893e+00 
422700 4.7628596902e+00 -1.3797094471e-04 2.7671307280e+00 -4.7928110120e+00 2.7671307280e+00 4.7928110120e+00 
422800 4.7628596899e+00 -1.3782320318e-04 2.7671332210e+00 -4.7928153301e+00 2.7671332210e+00 4.7928153301e+00 
422900 4.7628596895e+00 -1.3767562000e-04 2.7671357114e+00 -4.7928196435e+00 2.7671357114e+00 4.7928196435e+00 
423000 4.7628596892e+00 -1.3752819499e-04 2.7671381991e+00 -4.7928239523e+00 2.7671381991e+00 4.7928239523e+00 
423100 4.7628596889e+00 -1.3738092798e-04 2.7671406841e+00 -4.7928282565e+00 2.7671406841e+00 4.7928282565e+00 
423200 4.7628596886e+00 -1.3723381881e-04 2.7671431664e+00 -4.7928325561e+00 2.7671431664e+00 4.7928325561e+00 
423300 4.7628596882e+00 -1.3708686730e-04 2.7671456461e+00 -4.7928368511e+00 2.7671456461e+00 4.7928368511e+00 
423400 4.7628596879e+00 -1.3694007329e-04 2.7671481232e+00 -4.7928411414e+00 2.7671481232e+00 4.7928411414e+00 
423500 4.7628596876e+00 -1.3679343661e-04 2.7671505976e+00 -4.7928454272e+00 2.7671505976e+00 4.7928454272e+00 
423600 4.7628596873e+00 -1.3664695708e-04 2.7671530693e+00 -4.7928497084e+00 2.7671530693e+00 4.7928497084e+00 
423700 4.7628596870e+00 -1.3650063455e-04 2.7671555384e+00 -4.7928539850e+00 2.7671555384e+00 4.7928539850e+00 
423800 4.7628596866e+00 -1.3635446883e-04 2.7671580049e+00 -4.7928582570e+00 2.7671580049e+00 4.7928582570e+00 
423900 4.7628596863e+00 -1.3620845977e-04 2.7671604687e+00 -4.7928625244e+00 2.7671604687e+00 4.7928625244e+00 
424000 4.7628596860e+00 -1.3606260719e-04 2.7671629298e+00 -4.7928667873e+00 2.7671629298e+00 4.7928667873e+00 
424100 4.7628596857e+00 -1.3591691093e-04 2.7671653883e+00 -4.7928710455e+00 2.7671653883e+00 4.7928710455e+00 
424200 4.7628596854e+00 -1.3577137082e-04 2.7671678442e+00 -4.7928752993e+00 2.7671678442e+00 4.7928752993e+00 
424300 4.7628596850e+00 -1.3562598668e-04 2.7671702975e+00 -4.7928795484e+00 2.7671702975e+00 4.7928795484e+00 
424400 4.7628596847e+00 -1.3548075837e-04 2.7671727481e+00 -4.7928837930e+00 2.7671727481e+00 4.7928837930e+00 
424500 4.7628596844e+00 -1.3533568569e-04 2.7671751961e+00 -4.7928880331e+00 2.7671751961e+00 4.7928880331e+00 
424600 4.7628596841e+00 -1.3519076850e-04 2.7671776415e+00 -4.7928922686e+00 2.7671776415e+00 4.7928922686e+00 
424700 4.7628596838e+00 -1.3504600662e-04 2.7671800842e+00 -4.7928964996e+00 2.7671800842e+00 4.7928964996e+00 
424800 4.7628596835e+00 -1.3490139989e-04 2.7671825244e+00 -4.7929007260e+00 2.7671825244e+00 4.7929007260e+00 
424900 4.7628596831e+00 -1.3475694813e-04 2.7671849619e+00 -4.7929049479e+00 2.7671849619e+00 4.7929049479e+00 
425000 4.7628596828e+00 -1.3461265119e-04 2.7671873968e+00 -4.7929091653e+00 2.7671873968e+00 4.7929091653e+00 
425100 4.7628596825e+00 -1.3446850890e-04 2.7671898291e+00 -4.7929133782e+00 2.7671898291e+00 4.7929133782e+00 
425200 4.7628596822e+00 -1.3432452108e-04 2.7671922588e+00 -4.7929175866e+00 2.7671922588e+00 4.7929175866e+00 
425300 4.7628596819e+00 -1.3418068759e-04 2.7671946859e+00 -4.7929217904e+00 2.7671946859e+00 4.7929217904e+00 
425400 4.7628596816e+00 -1.3403700824e-04 2.7671971104e+00 -4.7929259897e+00 2.7671971104e+00 4.7929259897e+00 
425500 4.7628596813e+00 -1.3389348287e-04 2.7671995323e+00 -4.7929301846e+00 2.7671995323e+00 4.7929301846e+00 
425600 4.7628596810e+00 -1.3375011133e-04 2.7672019516e+00 -4.7929343749e+00 2.7672019516e+00 4.7929343749e+00 
425700 4.7628596807e+00 -1.3360689343e-04 2.7672043683e+00 -4.7929385608e+00 2.7672043683e+00 4.7929385608e+00 
425800 4.7628596804e+00 -1.3346382903e-04 2.7672067824e+00 -4.7929427421e+00 2.7672067824e+00 4.7929427421e+00 
425900 4.7628596800e+00 -1.3332091795e-04 2.7672091939e+00 -4.7929469190e+00 2.7672091939e+00 4.7929469190e+00 
426000 4.7628596797e+00 -1.3317816003e-04 2.7672116029e+00 -4.7929510914e+00 2.7672116029e+00 4.7929510914e+00 
426100 4.7628596794e+00 -1.3303555511e-04 2.7672140092e+00 -4.7929552594e+00 2.7672140092e+00 4.7929552594e+00 
426200 4.7628596791e+00 -1.3289310301e-04 2.7672164130e+00 -4.7929594229e+00 2.7672164130e+00 4.7929594229e+00 
426300 4.7628596788e+00 -1.3275080359e-04 2.7672188142e+00 -4.7929635819e+00 2.7672188142e+00 4.7929635819e+00 
426400 4.7628596785e+00 -1.3260865666e-04 2.7672212128e+00 -4.7929677364e+00 2.7672212128e+00 4.7929677364e+00 
426500 4.7628596782e+00 -1.3246666208e-04 2.7672236089e+00 -4.7929718865e+00 2.7672236089e+00 4.7929718865e+00 
426600 4.7628596779e+00 -1.3232481967e-04 2.7672260024e+00 -4.7929760322e+00 2.7672260024e+00 4.7929760322e+00 
426700 4.7628596776e+00 -1.3218312927e-04 2.7672283933e+00 -4.7929801734e+00 2.7672283933e+00 4.7929801734e+00 
426800 4.7628596773e+00 -1.3204159073e-04 2.7672307817e+00 -4.7929843102e+00 2.7672307817e+00 4.7929843102e+00 
426900 4.7628596770e+00 -1.3190020387e-04 2.7672331675e+00 -4.7929884425e+00 2.7672331675e+00 4.7929884425e+00 
427000 4.7628596767e+00 -1.3175896853e-04 2.7672355507e+00 -4.7929925704e+00 2.7672355507e+00 4.7929925704e+00 
427100 4.7628596764e+00 -1.3161788456e-04 2.7672379314e+00 -4.7929966939e+00 2.7672379314e+00 4.7929966939e+00 
427200 4.7628596761e+00 -1.3147695178e-04 2.7672403096e+00 -4.7930008130e+00 2.7672403096e+00 4.7930008130e+00 
427300 4.7628596758e+00 -1.3133617004e-04 2.7672426852e+00 -4.7930049276e+00 2.7672426852e+00 4.7930049276e+00 
427400 4.7628596755e+00 -1.3119553918e-04 2.7672450582e+00 -4.7930090379e+00 2.7672450582e+00 4.7930090379e+00 
427500 4.7628596752e+00 -1.3105505902e-04 2.7672474287e+00 -4.7930131437e+00 2.7672474287e+00 4.7930131437e+00 
427600 4.7628596749e+00 -1.3091472942e-04 2.7672497967e+00 -4.7930172452e+00 2.7672497967e+00 4.7930172452e+00 
427700 4.7628596746e+00 -1.3077455021e-04 2.7672521621e+00 -4.7930213422e+00 2.7672521621e+00 4.7930213422e+00 
427800 4.7628596743e+00 -1.3063452122e-04 2.7672545250e+00 -4.7930254349e+00 2.7672545250e+00 4.7930254349e+00 
427900 4.7628596740e+00 -1.3049464230e-04 2.7672568854e+00 -4.7930295231e+00 2.7672568854e+00 4.7930295231e+00 
428000 4.7628596737e+00 -1.3035491329e-04 2.7672592432e+00 -4.7930336070e+00 2.7672592432e+00 4.7930336070e+00 
428100 4.7628596735e+00 -1.3021533402e-04 2.7672615985e+00 -4.7930376865e+00 2.7672615985e+00 4.7930376865e+00 
428200 4.7628596732e+00 -1.3007590433e-04 2.7672639513e+00 -4.7930417617e+00 2.7672639513e+00 4.7930417617e+00 
428300 4.7628596729e+00 -1.2993662407e-04 2.7672663016e+00 -4.7930458324e+00 2.7672663016e+00 4.7930458324e+00 
428400 4.7628596726e+00 -1.2979749307e-04 2.7672686493e+00 -4.7930498988e+00 2.7672686493e+00 4.7930498988e+00 
428500 4.7628596723e+00 -1.2965851118e-04 2.7672709946e+00 -4.7930539609e+00 2.7672709946e+00 4.7930539609e+00 
428600 4.7628596720e+00 -1.2951967822e-04 2.7672733373e+00 -4.7930580186e+00 2.7672733373e+00 4.7930580186e+00 
428700 4.7628596717e+00 -1.2938099405e-04 2.7672756775e+00 -4.7930620720e+00 2.7672756775e+00 4.7930620720e+00 
428800 4.7628596714e+00 -1.2924245851e-04 2.7672780152e+00 -4.7930661210e+00 2.7672780152e+00 4.7930661210e+00 
428900 4.7628596711e+00 -1.2910407142e-04 2.7672803504e+00 -4.7930701656e+00 2.7672803504e+00 4.7930701656e+00 
429000 4.7628596708e+00 -1.2896583264e-04 2.7672826831e+00 -4.7930742060e+00 2.7672826831e+00 4.7930742060e+00 
429100 4.7628596706e+00 -1.2882774201e-04 2.7672850133e+00 -4.7930782420e+00 2.7672850133e+00 4.7930782420e+00 
429200 4.7628596703e+00 -1.2868979936e-04 2.7672873409e+00 -4.7930822737e+00 2.7672873409e+00 4.7930822737e+00 
429300 4.7628596700e+00 -1.2855200454e-04 2.7672896661e+00 -4.7930863010e+00 2.7672896661e+00 4.7930863010e+00 
429400 4.7628596697e+00 -1.2841435739e-04 2.7672919888e+00 -4.7930903241e+00 2.7672919888e+00 4.7930903241e+00 
429500 4.7628596694e+00 -1.2827685775e-04 2.7672943091e+00 -4.7930943428e+00 2.7672943091e+00 4.7930943428e+00 
429600 4.7628596691e+00 -1.2813950546e-04 2.7672966268e+00 -4.7930983572e+00 2.7672966268e+00 4.7930983572e+00 
429700 4.7628596688e+00 -1.2800230036e-04 2.7672989420e+00 -4.7931023674e+00 2.7672989420e+00 4.7931023674e+00 
429800 4.7628596686e+00 -1.2786524230e-04 2.7673012548e+00 -4.7931063732e+00 2.7673012548e+00 4.7931063732e+00 
429900 4.7628596683e+00 -1.2772833112e-04 2.7673035651e+00 -4.7931103747e+00 2.7673035651e+00 4.7931103747e+00 
430000 4.7628596680e+00 -1.2759156666e-04 2.7673058729e+00 -4.7931143720e+00 2.7673058729e+00 4.7931143720e+00 
430100 4.7628596677e+00 -1.2745494877e-04 2.7673081783e+00 -4.7931183649e+00 2.7673081783e+00 4.7931183649e+00 
430200 4.7628596674e+00 -1.2731847727e-04 2.7673104811e+00 -4.7931223536e+00 2.7673104811e+00 4.7931223536e+00 
430300 4.7628596672e+00 -1.2718215203e-04 2.7673127815e+00 -4.7931263380e+00 2.7673127815e+00 4.7931263380e+00 
430400 4.7628596669e+00 -1.2704597288e-04 2.7673150795e+00 -4.7931303182e+00 2.7673150795e+00 4.7931303182e+00 
430500 4.7628596666e+00 -1.2690993966e-04 2.7673173749e+00 -4.7931342940e+00 2.7673173749e+00 4.7931342940e+00 
430600 4.7628596663e+00 -1.2677405223e-04 2.7673196679e+00 -4.7931382657e+00 2.7673196679e+00 4.7931382657e+00 
430700 4.7628596661e+00 -1.2663831041e-04 2.7673219585e+00 -4.7931422330e+00 2.7673219585e+00 4.7931422330e+00 
430800 4.7628596658e+00 -1.2650271406e-04 2.7673242466e+00 -4.7931461961e+00 2.7673242466e+00 4.7931461961e+00 
430900 4.7628596655e+00 -1.2636726302e-04 2.7673265323e+00 -4.7931501550e+00 2.7673265323e+00 4.7931501550e+00 
431000 4.7628596652e+00 -1.2623195713e-04 2.7673288155e+00 -4.7931541096e+00 2.7673288155e+00 4.7931541096e+00 
431100 4.7628596649e+00 -1.2609679625e-04 2.7673310962e+00 -4.7931580600e+00 2.7673310962e+00 4.7931580600e+00 
431200 4.7628596647e+00 -1.2596178020e-04 2.7673333745e+00 -4.7931620062e+00 2.7673333745e+00 4.7931620062e+00 
431300 4.7628596644e+00 -1.2582690884e-04 2.7673356504e+00 -4.7931659481e+00 2.7673356504e+00 4.7931659481e+00 
431400 4.7628596641e+00 -1.2569218201e-04 2.7673379238e+00 -4.7931698858e+00 2.7673379238e+00 4.7931698858e+00 
431500 4.7628596639e+00 -1.2555759956e-04 2.7673401948e+00 -4.7931738193e+00 2.7673401948e+00 4.7931738193e+00 
431600 4.7628596636e+00 -1.2542316133e-04 2.7673424634e+00 -4.7931777485e+00 2.7673424634e+00 4.7931777485e+00 
431700 4.7628596633e+00 -1.2528886716e-04 2.7673447295e+00 -4.7931816736e+00 2.7673447295e+00 4.7931816736e+00 
431800 4.7628596630e+00 -1.2515471691e-04 2.7673469932e+00 -4.7931855944e+00 2.7673469932e+00 4.7931855944e+00 
431900 4.7628596628e+00 -1.2502071042e-04 2.7673492545e+00 -4.7931895111e+00 2.7673492545e+00 4.7931895111e+00 
432000 4.7628596625e+00 -1.2488684753e-04 2.7673515133e+00 -4.7931934235e+00 2.7673515133e+00 4.7931934235e+00 
432100 4.7628596622e+00 -1.2475312809e-04 2.7673537698e+00 -4.7931973318e+00 2.7673537698e+00 4.7931973318e+00 
432200 4.7628596620e+00 -1.2461955194e-04 2.7673560238e+00 -4.7932012358e+00 2.7673560238e+00 4.7932012358e+00 
432300 4.7628596617e+00 -1.2448611894e-04 2.7673582754e+00 -4.7932051357e+00 2.7673582754e+00 4.7932051357e+00 
432400 4.7628596614e+00 -1.2435282892e-04 2.7673605246e+00 -4.7932090314e+00 2.7673605246e+00 4.7932090314e+00 
432500 4.7628596612e+00 -1.2421968174e-04 2.7673627714e+00 -4.7932129230e+00 2.7673627714e+00 4.7932129230e+00 
432600 4.7628596609e+00 -1.2408667724e-04 2.7673650157e+00 -4.7932168103e+00 2.7673650157e+00 4.7932168103e+00 
432700 4.7628596606e+00 -1.2395381527e-04 2.7673672577e+00 -4.7932206935e+00 2.7673672577e+00 4.7932206935e+00 
432800 4.7628596604e+00 -1.2382109568e-04 2.7673694973e+00 -4.7932245726e+00 2.7673694973e+00 4.7932245726e+00 
432900 4.7628596601e+00 -1.2368851830e-04 2.7673717344e+00 -4.7932284474e+00 2.7673717344e+00 4.7932284474e+00 
433000 4.7628596598e+00 -1.2355608300e-04 2.7673739692e+00 -4.7932323182e+00 2.7673739692e+00 4.7932323182e+00 
433100 4.7628596596e+00 -1.2342378961e-04 2.7673762015e+00 -4.7932361847e+00 2.7673762015e+00 4.7932361847e+00 
433200 4.7628596593e+00 -1.2329163799e-04 2.7673784315e+00 -4.7932400472e+00 2.7673784315e+00 4.7932400472e+00 
433300 4.7628596591e+00 -1.2315962799e-04 2.7673806591e+00 -4.7932439055e+00 2.7673806591e+00 4.7932439055e+00 
433400 4.7628596588e+00 -1.2302775944e-04 2.7673828843e+00 -4.7932477596e+00 2.7673828843e+00 4.7932477596e+00 
433500 4.7628596585e+00 -1.2289603220e-04 2.7673851071e+00 -4.7932516097e+00 2.7673851071e+00 4.7932516097e+00 
433600 4.7628596583e+00 -1.2276444612e-04 2.7673873276e+00 -4.7932554556e+00 2.7673873276e+00 4.7932554556e+00 
433700 4.7628596580e+00 -1.2263300105e-04 2.7673895456e+00 -4.7932592974e+00 2.7673895456e+00 4.7932592974e+00 
433800 4.7628596577e+00 -1.2250169683e-04 2.7673917613e+00 -4.7932631350e+00 2.7673917613e+00 4.7932631350e+00 
433900 4.7628596575e+00 -1.2237053331e-04 2.7673939746e+00 -4.7932669686e+00 2.7673939746e+00 4.7932669686e+00 
434000 4.7628596572e+00 -1.2223951035e-04 2.7673961856e+00 -4.7932707981e+00 2.7673961856e+00 4.7932707981e+00 
434100 4.7628596570e+00 -1.2210862779e-04 2.7673983941e+00 -4.7932746234e+00 2.7673983941e+00 4.7932746234e+00 
434200 4.7628596567e+00 -1.2197788548e-04 2.7674006003e+00 -4.7932784446e+00 2.7674006003e+00 4.7932784446e+00 
434300 4.7628596565e+00 -1.2184728327e-04 2.7674028042e+00 -4.7932822618e+00 2.7674028042e+00 4.7932822618e+00 
434400 4.7628596562e+00 -1.2171682102e-04 2.7674050056e+00 -4.7932860749e+00 2.7674050056e+00 4.7932860749e+00 
434500 4.7628596560e+00 -1.2158649856e-04 2.7674072047e+00 -4.7932898838e+00 2.7674072047e+00 4.7932898838e+00 
434600 4.7628596557e+00 -1.2145631575e-04 2.7674094015e+00 -4.7932936887e+00 2.7674094015e+00 4.7932936887e+00 
434700 4.7628596554e+00 -1.2132627245e-04 2.7674115959e+00 -4.7932974896e+00 2.7674115959e+00 4.7932974896e+00 
434800 4.7628596552e+00 -1.2119636849e-04 2.7674137880e+00 -4.7933012863e+00 2.7674137880e+00 4.7933012863e+00 
434900 4.7628596549e+00 -1.2106660373e-04 2.7674159777e+00 -4.7933050790e+00 2.7674159777e+00 4.7933050790e+00 
435000 4.7628596547e+00 -1.2093697803e-04 2.7674181650e+00 -4.7933088676e+00 2.7674181650e+00 4.7933088676e+00 
435100 4.7628596544e+00 -1.2080749123e-04 2.7674203500e+00 -4.7933126522e+00 2.7674203500e+00 4.7933126522e+00 
435200 4.7628596542e+00 -1.2067814318e-04 2.7674225327e+00 -4.7933164327e+00 2.7674225327e+00 4.7933164327e+00 
435300 4.7628596539e+00 -1.2054893374e-04 2.7674247130e+00 -4.7933202091e+00 2.7674247130e+00 4.7933202091e+00 
435400 4.7628596537e+00 -1.2041986276e-04 2.7674268910e+00 -4.7933239815e+00 2.7674268910e+00 4.7933239815e+00 
435500 4.7628596534e+00 -1.2029093008e-04 2.7674290667e+00 -4.7933277499e+00 2.7674290667e+00 4.7933277499e+00 
435600 4.7628596532e+00 -1.2016213556e-04 2.7674312400e+00 -4.7933315142e+00 2.7674312400e+00 4.7933315142e+00 
435700 4.7628596529e+00 -1.2003347905e-04 2.7674334110e+00 -4.7933352745e+00 2.7674334110e+00 4.7933352745e+00 
435800 4.7628596527e+00 -1.1990496040e-04 2.7674355797e+00 -4.7933390308e+00 2.7674355797e+00 4.7933390308e+00 
435900 4.7628596524e+00 -1.1977657947e-04 2.7674377461e+00 -4.7933427830e+00 2.7674377461e+00 4.7933427830e+00 
436000 4.7628596522e+00 -1.1964833610e-04 2.7674399101e+00 -4.7933465312e+00 2.7674399101e+00 4.7933465312e+00 
436100 4.7628596519e+00 -1.1952023016e-04 2.7674420718e+00 -4.7933502754e+00 2.7674420718e+00 4.7933502754e+00 
436200 4.7628596517e+00 -1.1939226149e-04 2.7674442312e+00 -4.7933540156e+00 2.7674442312e+00 4.7933540156e+00 
436300 4.7628596514e+00 -1.1926442994e-04 2.7674463883e+00 -4.7933577518e+00 2.7674463883e+00 4.7933577518e+00 
436400 4.7628596512e+00 -1.1913673537e-04 2.7674485431e+00 -4.7933614840e+00 2.7674485431e+00 4.7933614840e+00 
436500 4.7628596510e+00 -1.1900917762e-04 2.7674506956e+00 -4.7933652121e+00 2.7674506956e+00 4.7933652121e+00 
436600 4.7628596507e+00 -1.1888175657e-04 2.7674528457e+00 -4.7933689363e+00 2.7674528457e+00 4.7933689363e+00 
436700 4.7628596505e+00 -1.1875447205e-04 2.7674549936e+00 -4.7933726565e+00 2.7674549936e+00 4.7933726565e+00 
436800 4.7628596502e+00 -1.1862732392e-04 2.7674571391e+00 -4.7933763727e+00 2.7674571391e+00 4.7933763727e+00 
436900 4.7628596500e+00 -1.1850031203e-04 2.7674592824e+00 -4.7933800850e+00 2.7674592824e+00 4.7933800850e+00 
437000 4.7628596497e+00 -1.1837343624e-04 2.7674614233e+00 -4.7933837932e+00 2.7674614233e+00 4.7933837932e+00 
437100 4.7628596495e+00 -1.1824669641e-04 2.7674635620e+00 -4.7933874975e+00 2.7674635620e+00 4.7933874975e+00 
437200 4.7628596493e+00 -1.1812009238e-04 2.7674656984e+00 -4.7933911978e+00 2.7674656984e+00 4.7933911978e+00 
437300 4.7628596490e+00 -1.1799362401e-04 2.7674678325e+00 -4.7933948941e+00 2.7674678325e+00 4.7933948941e+00 
437400 4.7628596488e+00 -1.1786729116e-04 2.7674699643e+00 -4.7933985865e+00 2.7674699643e+00 4.7933985865e+00 
437500 4.7628596485e+00 -1.1774109367e-04 2.7674720938e+00 -4.7934022749e+00 2.7674720938e+00 4.7934022749e+00 
437600 4.7628596483e+00 -1.1761503141e-04 2.7674742210e+00 -4.7934059594e+00 2.7674742210e+00 4.7934059594e+00 
437700 4.7628596481e+00 -1.1748910423e-04 2.7674763460e+00 -4.7934096399e+00 2.7674763460e+00 4.7934096399e+00 
437800 4.7628596478e+00 -1.1736331198e-04 2.7674784686e+00 -4.7934133165e+00 2.7674784686e+00 4.7934133165e+00 
437900 4.7628596476e+00 -1.1723765452e-04 2.7674805890e+00 -4.7934169892e+00 2.7674805890e+00 4.7934169892e+00 
438000 4.7628596473e+00 -1.1711213171e-04 2.7674827072e+00 -4.7934206579e+00 2.7674827072e+00 4.7934206579e+00 
438100 4.7628596471e+00 -1.1698674340e-04 2.7674848230e+00 -4.7934243227e+00 2.7674848230e+00 4.7934243227e+00 
438200 4.7628596469e+00 -1.1686148944e-04 2.7674869366e+00 -4.7934279835e+00 2.7674869366e+00 4.7934279835e+00 
438300 4.7628596466e+00 -1.1673636969e-04 2.7674890480e+00 -4.7934316404e+00 2.7674890480e+00 4.7934316404e+00 
438400 4.7628596464e+00 -1.1661138401e-04 2.7674911570e+00 -4.7934352935e+00 2.7674911570e+00 4.7934352935e+00 
438500 4.7628596462e+00 -1.1648653226e-04 2.7674932638e+00 -4.7934389425e+00 2.7674932638e+00 4.7934389425e+00 
438600 4.7628596459e+00 -1.1636181429e-04 2.7674953684e+00 -4.7934425877e+00 2.7674953684e+00 4.7934425877e+00 
438700 4.7628596457e+00 -1.1623722995e-04 2.7674974707e+00 -4.7934462290e+00 2.7674974707e+00 4.7934462290e+00 
438800 4.7628596455e+00 -1.1611277911e-04 2.7674995707e+00 -4.7934498664e+00 2.7674995707e+00 4.7934498664e+00 
438900 4.7628596452e+00 -1.1598846161e-04 2.7675016685e+00 -4.7934534999e+00 2.7675016685e+00 4.7934534999e+00 
439000 4.7628596450e+00 -1.1586427733e-04 2.7675037640e+00 -4.7934571295e+00 2.7675037640e+00 4.7934571295e+00 
439100 4.7628596448e+00 -1.1574022610e-04 2.7675058573e+00 -4.7934607552e+00 2.7675058573e+00 4.7934607552e+00 
439200 4.7628596445e+00 -1.1561630780e-04 2.7675079484e+00 -4.7934643770e+00 2.7675079484e+00 4.7934643770e+00 
439300 4.7628596443e+00 -1.1549252228e-04 2.7675100372e+00 -4.7934679949e+00 2.7675100372e+00 4.7934679949e+00 
439400 4.7628596441e+00 -1.1536886939e-04 2.7675121238e+00 -4.7934716090e+00 2.7675121238e+00 4.7934716090e+00 
439500 4.7628596439e+00 -1.1524534900e-04 2.7675142081e+00 -4.7934752192e+00 2.7675142081e+00 4.7934752192e+00 
439600 4.7628596436e+00 -1.1512196096e-04 2.7675162903e+00 -4.7934788255e+00 2.7675162903e+00 4.7934788255e+00 
439700 4.7628596434e+00 -1.1499870513e-04 2.7675183701e+00 -4.7934824279e+00 2.7675183701e+00 4.7934824279e+00 
439800 4.7628596432e+00 -1.1487558137e-04 2.7675204478e+00 -4.7934860265e+00 2.7675204478e+00 4.7934860265e+00 
439900 4.7628596429e+00 -1.1475258953e-04 2.7675225232e+00 -4.7934896213e+00 2.7675225232e+00 4.7934896213e+00 
440000 4.7628596427e+00 -1.1462972948e-04 2.7675245964e+00 -4.7934932122e+00 2.7675245964e+00 4.7934932122e+00 
440100 4.7628596425e+00 -1.1450700107e-04 2.7675266674e+00 -4.7934967992e+00 2.7675266674e+00 4.7934967992e+00 
440200 4.7628596423e+00 -1.1438440416e-04 2.7675287361e+00 -4.7935003824e+00 2.7675287361e+00 4.7935003824e+00 
440300 4.7628596420e+00 -1.1426193862e-04 2.7675308027e+00 -4.7935039618e+00 2.7675308027e+00 4.7935039618e+00 
440400 4.7628596418e+00 -1.1413960429e-04 2.7675328670e+00 -4.7935075373e+00 2.7675328670e+00 4.7935075373e+00 
440500 4.7628596416e+00 -1.1401740104e-04 2.7675349291e+00 -4.7935111090e+00 2.7675349291e+00 4.7935111090e+00 
440600 4.7628596414e+00 -1.1389532874e-04 2.7675369891e+00 -4.7935146769e+00 2.7675369891e+00 4.7935146769e+00 
440700 4.7628596411e+00 -1.1377338723e-04 2.7675390468e+00 -4.7935182409e+00 2.7675390468e+00 4.7935182409e+00 
440800 4.7628596409e+00 -1.1365157637e-04 2.7675411023e+00 -4.7935218011e+00 2.7675411023e+00 4.7935218011e+00 
440900 4.7628596407e+00 -1.1352989604e-04 2.7675431555e+00 -4.7935253575e+00 2.7675431555e+00 4.7935253575e+00 
441000 4.7628596405e+00 -1.1340834608e-04 2.7675452066e+00 -4.7935289101e+00 2.7675452066e+00 4.7935289101e+00 
441100 4.7628596403e+00 -1.1328692636e-04 2.7675472555e+00 -4.7935324589e+00 2.7675472555e+00 4.7935324589e+00 
441200 4.7628596400e+00 -1.1316563674e-04 2.7675493022e+00 -4.7935360039e+00 2.7675493022e+00 4.7935360039e+00 
441300 4.7628596398e+00 -1.1304447708e-04 2.7675513468e+00 -4.7935395451e+00 2.7675513468e+00 4.7935395451e+00 
441400 4.7628596396e+00 -1.1292344723e-04 2.7675533891e+00 -4.7935430825e+00 2.7675533891e+00 4.7935430825e+00 
441500 4.7628596394e+00 -1.1280254707e-04 2.7675554292e+00 -4.7935466161e+00 2.7675554292e+00 4.7935466161e+00 
441600 4.7628596391e+00 -1.1268177644e-04 2.7675574671e+00 -4.7935501460e+00 2.7675574671e+00 4.7935501460e+00 
441700 4.7628596389e+00 -1.1256113522e-04 2.7675595029e+00 -4.7935536720e+00 2.7675595029e+00 4.7935536720e+00 
441800 4.7628596387e+00 -1.1244062326e-04 2.7675615365e+00 -4.7935571943e+00 2.7675615365e+00 4.7935571943e+00 
441900 4.7628596385e+00 -1.1232024043e-04 2.7675635679e+00 -4.7935607128e+00 2.7675635679e+00 4.7935607128e+00 
442000 4.7628596383e+00 -1.1219998658e-04 2.7675655971e+00 -4.7935642275e+00 2.7675655971e+00 4.7935642275e+00 
442100 4.7628596381e+00 -1.1207986157e-04 2.7675676242e+00 -4.7935677385e+00 2.7675676242e+00 4.7935677385e+00 
442200 4.7628596378e+00 -1.1195986528e-04 2.7675696491e+00 -4.7935712456e+00 2.7675696491e+00 4.7935712456e+00 
442300 4.7628596376e+00 -1.1183999755e-04 2.7675716718e+00 -4.7935747491e+00 2.7675716718e+00 4.7935747491e+00 
442400 4.7628596374e+00 -1.1172025826e-04 2.7675736923e+00 -4.7935782488e+00 2.7675736923e+00 4.7935782488e+00 
442500 4.7628596372e+00 -1.1160064727e-04 2.7675757107e+00 -4.7935817447e+00 2.7675757107e+00 4.7935817447e+00 
442600 4.7628596370e+00 -1.1148116443e-04 2.7675777269e+00 -4.7935852369e+00 2.7675777269e+00 4.7935852369e+00 
442700 4.7628596368e+00 -1.1136180961e-04 2.7675797410e+00 -4.7935887253e+00 2.7675797410e+00 4.7935887253e+00 
442800 4.7628596366e+00 -1.1124258267e-04 2.7675817529e+00 -4.7935922101e+00 2.7675817529e+00 4.7935922101e+00 
442900 4.7628596363e+00 -1.1112348348e-04 2.7675837626e+00 -4.7935956910e+00 2.7675837626e+00 4.7935956910e+00 
443000 4.7628596361e+00 -1.1100451190e-04 2.7675857702e+00 -4.7935991683e+00 2.7675857702e+00 4.7935991683e+00 
443100 4.7628596359e+00 -1.1088566779e-04 2.7675877756e+00 -4.7936026418e+00 2.7675877756e+00 4.7936026418e+00 
443200 4.7628596357e+00 -1.1076695101e-04 2.7675897789e+00 -4.7936061116e+00 2.7675897789e+00 4.7936061116e+00 
443300 4.7628596355e+00 -1.1064836144e-04 2.7675917801e+00 -4.7936095777e+00 2.7675917801e+00 4.7936095777e+00 
443400 4.7628596353e+00 -1.1052989892e-04 2.7675937791e+00 -4.7936130401e+00 2.7675937791e+00 4.7936130401e+00 
443500 4.7628596351e+00 -1.1041156333e-04 2.7675957759e+00 -4.7936164987e+00 2.7675957759e+00 4.7936164987e+00 
443600 4.7628596349e+00 -1.1029335453e-04 2.7675977707e+00 -4.7936199537e+00 2.7675977707e+00 4.7936199537e+00 
443700 4.7628596346e+00 -1.1017527238e-04 2.7675997632e+00 -4.7936234049e+00 2.7675997632e+00 4.7936234049e+00 
443800 4.7628596344e+00 -1.1005731674e-04 2.7676017537e+00 -4.7936268525e+00 2.7676017537e+00 4.7936268525e+00 
443900 4.7628596342e+00 -1.0993948749e-04 2.7676037420e+00 -4.7936302964e+00 2.7676037420e+00 4.7936302964e+00 
444000 4.7628596340e+00 -1.0982178449e-04 2.7676057282e+00 -4.7936337365e+00 2.7676057282e+00 4.7936337365e+00 
444100 4.7628596338e+00 -1.0970420759e-04 2.7676077122e+00 -4.7936371730e+00 2.7676077122e+00 4.7936371730e+00 
444200 4.7628596336e+00 -1.0958675668e-04 2.7676096942e+00 -4.7936406058e+00 2.7676096942e+00 4.7936406058e+00 
444300 4.7628596334e+00 -1.0946943160e-04 2.7676116740e+00 -4.7936440350e+00 2.7676116740e+00 4.7936440350e+00 
444400 4.7628596332e+00 -1.0935223222e-04 2.7676136517e+00 -4.7936474604e+00 2.7676136517e+00 4.7936474604e+00 
444500 4.7628596330e+00 -1.0923515842e-04 2.7676156272e+00 -4.7936508822e+00 2.7676156272e+00 4.7936508822e+00 
444600 4.7628596328e+00 -1.0911821005e-04 2.7676176007e+00 -4.7936543003e+00 2.7676176007e+00 4.7936543003e+00 
444700 4.7628596326e+00 -1.0900138698e-04 2.7676195720e+00 -4.7936577148e+00 2.7676195720e+00 4.7936577148e+00 
444800 4.7628596324e+00 -1.0888468908e-04 2.7676215413e+00 -4.7936611256e+00 2.7676215413e+00 4.7936611256e+00 
444900 4.7628596322e+00 -1.0876811621e-04 2.7676235084e+00 -4.7936645327e+00 2.7676235084e+00 4.7936645327e+00 
445000 4.7628596320e+00 -1.0865166824e-04 2.7676254734e+00 -4.7936679362e+00 2.7676254734e+00 4.7936679362e+00 
445100 4.7628596318e+00 -1.0853534503e-04 2.7676274363e+00 -4.7936713361e+00 2.7676274363e+00 4.7936713361e+00 
445200 4.7628596316e+00 -1.0841914645e-04 2.7676293971e+00 -4.7936747323e+00 2.7676293971e+00 4.7936747323e+00 
445300 4.7628596314e+00 -1.0830307237e-04 2.7676313558e+00 -4.7936781249e+00 2.7676313558e+00 4.7936781249e+00 
445400 4.7628596312e+00 -1.0818712266e-04 2.7676333124e+00 -4.7936815138e+00 2.7676333124e+00 4.7936815138e+00 
445500 4.7628596310e+00 -1.0807129717e-04 2.7676352669e+00 -4.7936848991e+00 2.7676352669e+00 4.7936848991e+00 
445600 4.7628596308e+00 -1.0795559578e-04 2.7676372193e+00 -4.7936882808e+00 2.7676372193e+00 4.7936882808e+00 
445700 4.7628596305e+00 -1.0784001835e-04 2.7676391696e+00 -4.7936916588e+00 2.7676391696e+00 4.7936916588e+00 
445800 4.7628596303e+00 -1.0772456475e-04 2.7676411179e+00 -4.7936950333e+00 2.7676411179e+00 4.7936950333e+00 
445900 4.7628596301e+00 -1.0760923485e-04 2.7676430640e+00 -4.7936984041e+00 2.7676430640e+00 4.7936984041e+00 
446000 4.7628596299e+00 -1.0749402851e-04 2.7676450081e+00 -4.7937017713e+00 2.7676450081e+00 4.7937017713e+00 
446100 4.7628596298e+00 -1.0737894560e-04 2.7676469500e+00 -4.7937051349e+00 2.7676469500e+00 4.7937051349e+00 
446200 4.7628596296e+00 -1.0726398600e-04 2.7676488899e+00 -4.7937084949e+00 2.7676488899e+00 4.7937084949e+00 
446300 4.7628596294e+00 -1.0714914956e-04 2.7676508278e+00 -4.7937118513e+00 2.7676508278e+00 4.7937118513e+00 
446400 4.7628596292e+00 -1.0703443616e-04 2.7676527635e+00 -4.7937152041e+00 2.7676527635e+00 4.7937152041e+00 
446500 4.7628596290e+00 -1.0691984566e-04 2.7676546972e+00 -4.7937185533e+00 2.7676546972e+00 4.7937185533e+00 
446600 4.7628596288e+00 -1.0680537793e-04 2.7676566288e+00 -4.7937218989e+00 2.7676566288e+00 4.7937218989e+00 
446700 4.7628596286e+00 -1.0669103284e-04 2.7676585583e+00 -4.7937252410e+00 2.7676585583e+00 4.7937252410e+00 
446800 4.7628596284e+00 -1.0657681026e-04 2.7676604858e+00 -4.7937285794e+00 2.7676604858e+00 4.7937285794e+00 
446900 4.7628596282e+00 -1.0646271005e-04 2.7676624112e+00 -4.7937319143e+00 2.7676624112e+00 4.7937319143e+00 
447000 4.7628596280e+00 -1.0634873209e-04 2.7676643345e+00 -4.7937352456e+00 2.7676643345e+00 4.7937352456e+00 
447100 4.7628596278e+00 -1.0623487625e-04 2.7676662558e+00 -4.7937385734e+00 2.7676662558e+00 4.7937385734e+00 
447200 4.7628596276e+00 -1.0612114239e-04 2.7676681750e+00 -4.7937418975e+00 2.7676681750e+00 4.7937418975e+00 
447300 4.7628596274e+00 -1.0600753038e-04 2.7676700921e+00 -4.7937452182e+00 2.7676700921e+00 4.7937452182e+00 
447400 4.7628596272e+00 -1.0589404009e-04 2.7676720072e+00 -4.7937485352e+00 2.7676720072e+00 4.7937485352e+00 
447500 4.7628596270e+00 -1.0578067140e-04 2.7676739203e+00 -4.7937518487e+00 2.7676739203e+00 4.7937518487e+00 
447600 4.7628596268e+00 -1.0566742416e-04 2.7676758313e+00 -4.7937551587e+00 2.7676758313e+00 4.7937551587e+00 
447700 4.7628596266e+00 -1.0555429825e-04 2.7676777402e+00 -4.7937584651e+00 2.7676777402e+00 4.7937584651e+00 
447800 4.7628596264e+00 -1.0544129355e-04 2.7676796472e+00 -4.7937617679e+00 2.7676796472e+00 4.7937617679e+00 
447900 4.7628596262e+00 -1.0532840991e-04 2.7676815520e+00 -4.7937650673e+00 2.7676815520e+00 4.7937650673e+00 
448000 4.7628596260e+00 -1.0521564722e-04 2.7676834549e+00 -4.7937683631e+00 2.7676834549e+00 4.7937683631e+00 
448100 4.7628596259e+00 -1.0510300533e-04 2.7676853556e+00 -4.7937716553e+00 2.7676853556e+00 4.7937716553e+00 
448200 4.7628596257e+00 -1.0499048413e-04 2.7676872544e+00 -4.7937749441e+00 2.7676872544e+00 4.7937749441e+00 
448300 4.7628596255e+00 -1.0487808348e-04 2.7676891511e+00 -4.7937782293e+00 2.7676891511e+00 4.7937782293e+00 
448400 4.7628596253e+00 -1.0476580325e-04 2.7676910458e+00 -4.7937815110e+00 2.7676910458e+00 4.7937815110e+00 
448500 4.7628596251e+00 -1.0465364331e-04 2.7676929385e+00 -4.7937847892e+00 2.7676929385e+00 4.7937847892e+00 
448600 4.7628596249e+00 -1.0454160354e-04 2.7676948291e+00 -4.7937880638e+00 2.7676948291e+00 4.7937880638e+00 
448700 4.7628596247e+00 -1.0442968380e-04 2.7676967177e+00 -4.7937913350e+00 2.7676967177e+00 4.7937913350e+00 
448800 4.7628596245e+00 -1.0431788397e-04 2.7676986043e+00 -4.7937946026e+00 2.7676986043e+00 4.7937946026e+00 
448900 4.7628596243e+00 -1.0420620392e-04 2.7677004888e+00 -4.7937978668e+00 2.7677004888e+00 4.7937978668e+00 
449000 4.7628596242e+00 -1.0409464351e-04 2.7677023714e+00 -4.7938011275e+00 2.7677023714e+00 4.7938011275e+00 
449100 4.7628596240e+00 -1.0398320263e-04 2.7677042519e+00 -4.7938043846e+00 2.7677042519e+00 4.7938043846e+00 
449200 4.7628596238e+00 -1.0387188114e-04 2.7677061304e+00 -4.7938076383e+00 2.7677061304e+00 4.7938076383e+00 
449300 4.7628596236e+00 -1.0376067891e-04 2.7677080069e+00 -4.7938108885e+00 2.7677080069e+00 4.7938108885e+00 
449400 4.7628596234e+00 -1.0364959582e-04 2.7677098814e+00 -4.7938141352e+00 2.7677098814e+00 4.7938141352e+00 
449500 4.7628596232e+00 -1.0353863174e-04 2.7677117539e+00 -4.7938173784e+00 2.7677117539e+00 4.7938173784e+00 
449600 4.7628596230e+00 -1.0342778654e-04 2.7677136243e+00 -4.7938206182e+00 2.7677136243e+00 4.7938206182e+00 
449700 4.7628596229e+00 -1.0331706010e-04 2.7677154928e+00 -4.7938238545e+00 2.7677154928e+00 4.7938238545e+00 
449800 4.7628596227e+00 -1.0320645228e-04 2.7677173593e+00 -4.7938270873e+00 2.7677173593e+00 4.7938270873e+00 
449900 4.7628596225e+00 -1.0309596296e-04 2.7677192238e+00 -4.7938303166e+00 2.7677192238e+00 4.7938303166e+00 
450000 4.7628596223e+00 -1.0298559201e-04 2.7677210862e+00 -4.7938335425e+00 2.7677210862e+00 4.7938335425e+00 
450100 4.7628596221e+00 -1.0287533930e-04 2.7677229467e+00 -4.7938367650e+00 2.7677229467e+00 4.7938367650e+00 
450200 4.7628596219e+00 -1.0276520472e-04 2.7677248052e+00 -4.7938399840e+00 2.7677248052e+00 4.7938399840e+00 
450300 4.7628596218e+00 -1.0265518812e-04 2.7677266617e+00 -4.7938431995e+00 2.7677266617e+00 4.7938431995e+00 
450400 4.7628596216e+00 -1.0254528939e-04 2.7677285162e+00 -4.7938464116e+00 2.7677285162e+00 4.7938464116e+00 
450500 4.7628596214e+00 -1.0243550840e-04 2.7677303687e+00 -4.7938496202e+00 2.7677303687e+00 4.7938496202e+00 
450600 4.7628596212e+00 -1.0231237198e-04 2.7677322192e+00 -4.7938528255e+00 2.7677322192e+00 4.7938528255e+00 
450700 4.7628596210e+00 -1.0218135631e-04 2.7677340675e+00 -4.7938560268e+00 2.7677340675e+00 4.7938560268e+00 
450800 4.7628596209e+00 -1.0204789636e-04 2.7677359135e+00 -4.7938592241e+00 2.7677359135e+00 4.7938592241e+00 
450900 4.7628596207e+00 -1.0191470124e-04 2.7677377570e+00 -4.7938624172e+00 2.7677377570e+00 4.7938624172e+00 
451000 4.7628596205e+00 -1.0178177374e-04 2.7677395981e+00 -4.7938656061e+00 2.7677395981e+00 4.7938656061e+00 
451100 4.7628596204e+00 -1.0164642772e-04 2.7677414368e+00 -4.7938687908e+00 2.7677414368e+00 4.7938687908e+00 
451200 4.7628596202e+00 -1.0151405479e-04 2.7677432731e+00 -4.7938719713e+00 2.7677432731e+00 4.7938719713e+00 
451300 4.7628596200e+00 -1.0138195607e-04 2.7677451070e+00 -4.7938751477e+00 2.7677451070e+00 4.7938751477e+00 
451400 4.7628596199e+00 -1.0124744732e-04 2.7677469385e+00 -4.7938783199e+00 2.7677469385e+00 4.7938783199e+00 
451500 4.7628596197e+00 -1.0111322846e-04 2.7677487675e+00 -4.7938814880e+00 2.7677487675e+00 4.7938814880e+00 
451600 4.7628596195e+00 -1.0098198500e-04 2.7677505942e+00 -4.7938846518e+00 2.7677505942e+00 4.7938846518e+00 
451700 4.7628596193e+00 -1.0084833759e-04 2.7677524184e+00 -4.7938878115e+00 2.7677524184e+00 4.7938878115e+00 
451800 4.7628596192e+00 -1.0071498294e-04 2.7677542403e+00 -4.7938909670e+00 2.7677542403e+00 4.7938909670e+00 
451900 4.7628596190e+00 -1.0058192184e-04 2.7677560597e+00 -4.7938941184e+00 2.7677560597e+00 4.7938941184e+00 
452000 4.7628596188e+00 -1.0044915490e-04 2.7677578767e+00 -4.7938972656e+00 2.7677578767e+00 4.7938972656e+00 
452100 4.7628596187e+00 -1.0031668259e-04 2.7677596914e+00 -4.7939004086e+00 2.7677596914e+00 4.7939004086e+00 
452200 4.7628596185e+00 -1.0018182465e-04 2.7677615036e+00 -4.7939035475e+00 2.7677615036e+00 4.7939035475e+00 
452300 4.7628596183e+00 -1.0004995433e-04 2.7677633134e+00 -4.7939066822e+00 2.7677633134e+00 4.7939066822e+00 
452400 4.7628596182e+00 -9.9918379784e-05 2.7677651208e+00 -4.7939098127e+00 2.7677651208e+00 4.7939098127e+00 
452500 4.7628596180e+00 -9.9784421651e-05 2.7677669259e+00 -4.7939129391e+00 2.7677669259e+00 4.7939129391e+00 
452600 4.7628596179e+00 -9.9653450188e-05 2.7677687285e+00 -4.7939160613e+00 2.7677687285e+00 4.7939160613e+00 
452700 4.7628596177e+00 -9.9520096023e-05 2.7677705287e+00 -4.7939191795e+00 2.7677705287e+00 4.7939191795e+00 
452800 4.7628596175e+00 -9.9387049414e-05 2.7677723266e+00 -4.7939222934e+00 2.7677723266e+00 4.7939222934e+00 
452900 4.7628596174e+00 -9.9256988479e-05 2.7677741220e+00 -4.7939254032e+00 2.7677741220e+00 4.7939254032e+00 
453000 4.7628596172e+00 -9.9124545532e-05 2.7677759151e+00 -4.7939285089e+00 2.7677759151e+00 4.7939285089e+00 
453100 4.7628596170e+00 -9.8992409575e-05 2.7677777058e+00 -4.7939316105e+00 2.7677777058e+00 4.7939316105e+00 
453200 4.7628596169e+00 -9.8860580457e-05 2.7677794941e+00 -4.7939347079e+00 2.7677794941e+00 4.7939347079e+00 
453300 4.7628596167e+00 -9.8729057944e-05 2.7677812800e+00 -4.7939378012e+00 2.7677812800e+00 4.7939378012e+00 
453400 4.7628596165e+00 -9.8597841732e-05 2.7677830635e+00 -4.7939408904e+00 2.7677830635e+00 4.7939408904e+00 
453500 4.7628596164e+00 -9.8466931448e-05 2.7677848447e+00 -4.7939439755e+00 2.7677848447e+00 4.7939439755e+00 
453600 4.7628596162e+00 -9.8336326664e-05 2.7677866235e+00 -4.7939470564e+00 2.7677866235e+00 4.7939470564e+00 
453700 4.7628596161e+00 -9.8203350490e-05 2.7677884000e+00 -4.7939501333e+00 2.7677884000e+00 4.7939501333e+00 
453800 4.7628596159e+00 -9.8073366612e-05 2.7677901740e+00 -4.7939532061e+00 2.7677901740e+00 4.7939532061e+00 
453900 4.7628596157e+00 -9.7943687113e-05 2.7677919457e+00 -4.7939562747e+00 2.7677919457e+00 4.7939562747e+00 
454000 4.7628596156e+00 -9.7811635262e-05 2.7677937150e+00 -4.7939593393e+00 2.7677937150e+00 4.7939593393e+00 
454100 4.7628596154e+00 -9.7682573839e-05 2.7677954820e+00 -4.7939623998e+00 2.7677954820e+00 4.7939623998e+00 
454200 4.7628596153e+00 -9.7551139268e-05 2.7677972466e+00 -4.7939654562e+00 2.7677972466e+00 4.7939654562e+00 
454300 4.7628596151e+00 -9.7422693868e-05 2.7677990089e+00 -4.7939685085e+00 2.7677990089e+00 4.7939685085e+00 
454400 4.7628596150e+00 -9.7291874297e-05 2.7678007688e+00 -4.7939715568e+00 2.7678007688e+00 4.7939715568e+00 
454500 4.7628596148e+00 -9.7161366735e-05 2.7678025264e+00 -4.7939746010e+00 2.7678025264e+00 4.7939746010e+00 
454600 4.7628596146e+00 -9.7033846460e-05 2.7678042816e+00 -4.7939776411e+00 2.7678042816e+00 4.7939776411e+00 
454700 4.7628596145e+00 -9.6903950311e-05 2.7678060345e+00 -4.7939806772e+00 2.7678060345e+00 4.7939806772e+00 
454800 4.7628596143e+00 -9.6774364167e-05 2.7678077850e+00 -4.7939837093e+00 2.7678077850e+00 4.7939837093e+00 
454900 4.7628596142e+00 -9.6645087460e-05 2.7678095333e+00 -4.7939867373e+00 2.7678095333e+00 4.7939867373e+00 
455000 4.7628596140e+00 -9.6516119569e-05 2.7678112791e+00 -4.7939897612e+00 2.7678112791e+00 4.7939897612e+00 
455100 4.7628596139e+00 -9.6387459826e-05 2.7678130227e+00 -4.7939927811e+00 2.7678130227e+00 4.7939927811e+00 
455200 4.7628596137e+00 -9.6259107526e-05 2.7678147639e+00 -4.7939957970e+00 2.7678147639e+00 4.7939957970e+00 
455300 4.7628596136e+00 -9.6131061921e-05 2.7678165028e+00 -4.7939988089e+00 2.7678165028e+00 4.7939988089e+00 
455400 4.7628596134e+00 -9.6000646504e-05 2.7678182394e+00 -4.7940018167e+00 2.7678182394e+00 4.7940018167e+00 
455500 4.7628596133e+00 -9.5873223042e-05 2.7678199736e+00 -4.7940048205e+00 2.7678199736e+00 4.7940048205e+00 
455600 4.7628596131e+00 -9.5746104312e-05 2.7678217055e+00 -4.7940078203e+00 2.7678217055e+00 4.7940078203e+00 
455700 4.7628596129e+00 -9.5616613530e-05 2.7678234352e+00 -4.7940108161e+00 2.7678234352e+00 4.7940108161e+00 
455800 4.7628596128e+00 -9.5490112601e-05 2.7678251625e+00 -4.7940138079e+00 2.7678251625e+00 4.7940138079e+00 
455900 4.7628596126e+00 -9.5361238073e-05 2.7678268875e+00 -4.7940167956e+00 2.7678268875e+00 4.7940167956e+00 
456000 4.7628596125e+00 -9.5235352019e-05 2.7678286101e+00 -4.7940197794e+00 2.7678286101e+00 4.7940197794e+00 
456100 4.7628596123e+00 -9.5107090669e-05 2.7678303305e+00 -4.7940227592e+00 2.7678303305e+00 4.7940227592e+00 
456200 4.7628596122e+00 -9.4981816271e-05 2.7678320486e+00 -4.7940257350e+00 2.7678320486e+00 4.7940257350e+00 
456300 4.7628596120e+00 -9.4854164767e-05 2.7678337644e+00 -4.7940287069e+00 2.7678337644e+00 4.7940287069e+00 
456400 4.7628596119e+00 -9.4726822225e-05 2.7678354779e+00 -4.7940316748e+00 2.7678354779e+00 4.7940316748e+00 
456500 4.7628596117e+00 -9.4599787969e-05 2.7678371892e+00 -4.7940346387e+00 2.7678371892e+00 4.7940346387e+00 
456600 4.7628596116e+00 -9.4473061279e-05 2.7678388981e+00 -4.7940375986e+00 2.7678388981e+00 4.7940375986e+00 
456700 4.7628596114e+00 -9.4346641392e-05 2.7678406047e+00 -4.7940405546e+00 2.7678406047e+00 4.7940405546e+00 
456800 4.7628596113e+00 -9.4220527508e-05 2.7678423090e+00 -4.7940435066e+00 2.7678423090e+00 4.7940435066e+00 
456900 4.7628596111e+00 -9.4094718795e-05 2.7678440111e+00 -4.7940464546e+00 2.7678440111e+00 4.7940464546e+00 
457000 4.7628596110e+00 -9.3969214393e-05 2.7678457109e+00 -4.7940493987e+00 2.7678457109e+00 4.7940493987e+00 
457100 4.7628596109e+00 -9.3844013412e-05 2.7678474084e+00 -4.7940523389e+00 2.7678474084e+00 4.7940523389e+00 
457200 4.7628596107e+00 -9.3719114942e-05 2.7678491036e+00 -4.7940552752e+00 2.7678491036e+00 4.7940552752e+00 
457300 4.7628596106e+00 -9.3594518050e-05 2.7678507966e+00 -4.7940582075e+00 2.7678507966e+00 4.7940582075e+00 
457400 4.7628596104e+00 -9.3467544323e-05 2.7678524874e+00 -4.7940611360e+00 2.7678524874e+00 4.7940611360e+00 
457500 4.7628596103e+00 -9.3343558621e-05 2.7678541758e+00 -4.7940640605e+00 2.7678541758e+00 4.7940640605e+00 
457600 4.7628596101e+00 -9.3217194295e-05 2.7678558620e+00 -4.7940669811e+00 2.7678558620e+00 4.7940669811e+00 
457700 4.7628596100e+00 -9.3093816671e-05 2.7678575460e+00 -4.7940698977e+00 2.7678575460e+00 4.7940698977e+00 
457800 4.7628596098e+00 -9.2968058496e-05 2.7678592276e+00 -4.7940728105e+00 2.7678592276e+00 4.7940728105e+00 
457900 4.7628596097e+00 -9.2845285558e-05 2.7678609071e+00 -4.7940757193e+00 2.7678609071e+00 4.7940757193e+00 
458000 4.7628596095e+00 -9.2720130041e-05 2.7678625843e+00 -4.7940786243e+00 2.7678625843e+00 4.7940786243e+00 
458100 4.7628596094e+00 -9.2597958175e-05 2.7678642592e+00 -4.7940815254e+00 2.7678642592e+00 4.7940815254e+00 
458200 4.7628596093e+00 -9.2473401633e-05 2.7678659319e+00 -4.7940844227e+00 2.7678659319e+00 4.7940844227e+00 
458300 4.7628596091e+00 -9.2349148417e-05 2.7678676024e+00 -4.7940873160e+00 2.7678676024e+00 4.7940873160e+00 
458400 4.7628596090e+00 -9.2225197777e-05 2.7678692707e+00 -4.7940902055e+00 2.7678692707e+00 4.7940902055e+00 
458500 4.7628596088e+00 -9.2101548918e-05 2.7678709367e+00 -4.7940930911e+00 2.7678709367e+00 4.7940930911e+00 
458600 4.7628596087e+00 -9.1978201015e-05 2.7678726004e+00 -4.7940959728e+00 2.7678726004e+00 4.7940959728e+00 
458700 4.7628596085e+00 -9.1855153208e-05 2.7678742620e+00 -4.7940988507e+00 2.7678742620e+00 4.7940988507e+00 
458800 4.7628596084e+00 -9.1732404613e-05 2.7678759213e+00 -4.7941017247e+00 2.7678759213e+00 4.7941017247e+00 
458900 4.7628596083e+00 -9.1609954320e-05 2.7678775784e+00 -4.7941045948e+00 2.7678775784e+00 4.7941045948e+00 
459000 4.7628596081e+00 -9.1487801398e-05 2.7678792332e+00 -4.7941074612e+00 2.7678792332e+00 4.7941074612e+00 
459100 4.7628596080e+00 -9.1365944896e-05 2.7678808859e+00 -4.7941103237e+00 2.7678808859e+00 4.7941103237e+00 
459200 4.7628596078e+00 -9.1241703813e-05 2.7678825364e+00 -4.7941131824e+00 2.7678825364e+00 4.7941131824e+00 
459300 4.7628596077e+00 -9.1120447980e-05 2.7678841846e+00 -4.7941160372e+00 2.7678841846e+00 4.7941160372e+00 
459400 4.7628596076e+00 -9.0999486039e-05 2.7678858306e+00 -4.7941188882e+00 2.7678858306e+00 4.7941188882e+00 
459500 4.7628596074e+00 -9.0876136445e-05 2.7678874745e+00 -4.7941217354e+00 2.7678874745e+00 4.7941217354e+00 
459600 4.7628596073e+00 -9.0755769861e-05 2.7678891161e+00 -4.7941245788e+00 2.7678891161e+00 4.7941245788e+00 
459700 4.7628596071e+00 -9.0633013601e-05 2.7678907555e+00 -4.7941274184e+00 2.7678907555e+00 4.7941274184e+00 
459800 4.7628596070e+00 -9.0513238902e-05 2.7678923927e+00 -4.7941302541e+00 2.7678923927e+00 4.7941302541e+00 
459900 4.7628596069e+00 -9.0391072418e-05 2.7678940278e+00 -4.7941330861e+00 2.7678940278e+00 4.7941330861e+00 
460000 4.7628596067e+00 -9.0271885934e-05 2.7678956607e+00 -4.7941359143e+00 2.7678956607e+00 4.7941359143e+00 
460100 4.7628596066e+00 -9.0150305499e-05 2.7678972913e+00 -4.7941387387e+00 2.7678972913e+00 4.7941387387e+00 
460200 4.7628596065e+00 -9.0029021854e-05 2.7678989198e+00 -4.7941415594e+00 2.7678989198e+00 4.7941415594e+00 
460300 4.7628596063e+00 -8.9908034232e-05 2.7679005462e+00 -4.7941443762e+00 2.7679005462e+00 4.7941443762e+00 
460400 4.7628596062e+00 -8.9787341830e-05 2.7679021703e+00 -4.7941471893e+00 2.7679021703e+00 4.7941471893e+00 
460500 4.7628596061e+00 -8.9666943814e-05 2.7679037922e+00 -4.7941499986e+00 2.7679037922e+00 4.7941499986e+00 
460600 4.7628596059e+00 -8.9546839322e-05 2.7679054120e+00 -4.7941528041e+00 2.7679054120e+00 4.7941528041e+00 
460700 4.7628596058e+00 -8.9427027467e-05 2.7679070296e+00 -4.7941556058e+00 2.7679070296e+00 4.7941556058e+00 
460800 4.7628596056e+00 -8.9307507340e-05 2.7679086450e+00 -4.7941584038e+00 2.7679086450e+00 4.7941584038e+00 
460900 4.7628596055e+00 -8.9188278014e-05 2.7679102583e+00 -4.7941611981e+00 2.7679102583e+00 4.7941611981e+00 
461000 4.7628596054e+00 -8.9069338542e-05 2.7679118694e+00 -4.7941639886e+00 2.7679118694e+00 4.7941639886e+00 
461100 4.7628596052e+00 -8.8950687964e-05 2.7679134783e+00 -4.7941667754e+00 2.7679134783e+00 4.7941667754e+00 
461200 4.7628596051e+00 -8.8832325306e-05 2.7679150852e+00 -4.7941695585e+00 2.7679150852e+00 4.7941695585e+00 
461300 4.7628596050e+00 -8.8711566233e-05 2.7679166898e+00 -4.7941723379e+00 2.7679166898e+00 4.7941723379e+00 
461400 4.7628596048e+00 -8.8593787069e-05 2.7679182923e+00 -4.7941751135e+00 2.7679182923e+00 4.7941751135e+00 
461500 4.7628596047e+00 -8.8473609541e-05 2.7679198927e+00 -4.7941778854e+00 2.7679198927e+00 4.7941778854e+00 
461600 4.7628596046e+00 -8.8356410597e-05 2.7679214909e+00 -4.7941806536e+00 2.7679214909e+00 4.7941806536e+00 
461700 4.7628596044e+00 -8.8236811245e-05 2.7679230870e+00 -4.7941834181e+00 2.7679230870e+00 4.7941834181e+00 
461800 4.7628596043e+00 -8.8120189036e-05 2.7679246809e+00 -4.7941861788e+00 2.7679246809e+00 4.7941861788e+00 
461900 4.7628596042e+00 -8.8001164306e-05 2.7679262727e+00 -4.7941889359e+00 2.7679262727e+00 4.7941889359e+00 
462000 4.7628596041e+00 -8.7885115174e-05 2.7679278624e+00 -4.7941916893e+00 2.7679278624e+00 4.7941916893e+00 
462100 4.7628596039e+00 -8.7766661368e-05 2.7679294499e+00 -4.7941944390e+00 2.7679294499e+00 4.7941944390e+00 
462200 4.7628596038e+00 -8.7648496751e-05 2.7679310353e+00 -4.7941971851e+00 2.7679310353e+00 4.7941971851e+00 
462300 4.7628596037e+00 -8.7530620559e-05 2.7679326186e+00 -4.7941999274e+00 2.7679326186e+00 4.7941999274e+00 
462400 4.7628596035e+00 -8.7415717129e-05 2.7679341998e+00 -4.7942026660e+00 2.7679341998e+00 4.7942026660e+00 
462500 4.7628596034e+00 -8.7298404872e-05 2.7679357789e+00 -4.7942054011e+00 2.7679357789e+00 4.7942054011e+00 
462600 4.7628596033e+00 -8.7181378193e-05 2.7679373558e+00 -4.7942081324e+00 2.7679373558e+00 4.7942081324e+00 
462700 4.7628596031e+00 -8.7064636263e-05 2.7679389307e+00 -4.7942108602e+00 2.7679389307e+00 4.7942108602e+00 
462800 4.7628596030e+00 -8.6948178224e-05 2.7679405034e+00 -4.7942135842e+00 2.7679405034e+00 4.7942135842e+00 
462900 4.7628596029e+00 -8.6832003203e-05 2.7679420740e+00 -4.7942163046e+00 2.7679420740e+00 4.7942163046e+00 
463000 4.7628596028e+00 -8.6713424280e-05 2.7679436426e+00 -4.7942190214e+00 2.7679436426e+00 4.7942190214e+00 
463100 4.7628596026e+00 -8.6597823092e-05 2.7679452089e+00 -4.7942217345e+00 2.7679452089e+00 4.7942217345e+00 
463200 4.7628596025e+00 -8.6482502566e-05 2.7679467732e+00 -4.7942244439e+00 2.7679467732e+00 4.7942244439e+00 
463300 4.7628596024e+00 -8.6367461722e-05 2.7679483355e+00 -4.7942271497e+00 2.7679483355e+00 4.7942271497e+00 
463400 4.7628596023e+00 -8.6250012932e-05 2.7679498956e+00 -4.7942298520e+00 2.7679498956e+00 4.7942298520e+00 
463500 4.7628596021e+00 -8.6135538988e-05 2.7679514536e+00 -4.7942325505e+00 2.7679514536e+00 4.7942325505e+00 
463600 4.7628596020e+00 -8.6021342124e-05 2.7679530096e+00 -4.7942352455e+00 2.7679530096e+00 4.7942352455e+00 
463700 4.7628596019e+00 -8.5904734232e-05 2.7679545634e+00 -4.7942379369e+00 2.7679545634e+00 4.7942379369e+00 
463800 4.7628596018e+00 -8.5791098904e-05 2.7679561152e+00 -4.7942406247e+00 2.7679561152e+00 4.7942406247e+00 
463900 4.7628596016e+00 -8.5675050552e-05 2.7679576649e+00 -4.7942433088e+00 2.7679576649e+00 4.7942433088e+00 
464000 4.7628596015e+00 -8.5559285760e-05 2.7679592125e+00 -4.7942459894e+00 2.7679592125e+00 4.7942459894e+00 
464100 4.7628596014e+00 -8.5446491561e-05 2.7679607581e+00 -4.7942486663e+00 2.7679607581e+00 4.7942486663e+00 
464200 4.7628596013e+00 -8.5331281364e-05 2.7679623016e+00 -4.7942513397e+00 2.7679623016e+00 4.7942513397e+00 
464300 4.7628596011e+00 -8.5216352161e-05 2.7679638430e+00 -4.7942540095e+00 2.7679638430e+00 4.7942540095e+00 
464400 4.7628596010e+00 -8.5101703198e-05 2.7679653823e+00 -4.7942566758e+00 2.7679653823e+00 4.7942566758e+00 
464500 4.7628596009e+00 -8.4990022009e-05 2.7679669196e+00 -4.7942593384e+00 2.7679669196e+00 4.7942593384e+00 
464600 4.7628596008e+00 -8.4875920762e-05 2.7679684548e+00 -4.7942619975e+00 2.7679684548e+00 4.7942619975e+00 
464700 4.7628596006e+00 -8.4762096973e-05 2.7679699880e+00 -4.7942646530e+00 2.7679699880e+00 4.7942646530e+00 
464800 4.7628596005e+00 -8.4648549832e-05 2.7679715191e+00 -4.7942673050e+00 2.7679715191e+00 4.7942673050e+00 
464900 4.7628596004e+00 -8.4535278503e-05 2.7679730482e+00 -4.7942699534e+00 2.7679730482e+00 4.7942699534e+00 
465000 4.7628596003e+00 -8.4422282136e-05 2.7679745752e+00 -4.7942725983e+00 2.7679745752e+00 4.7942725983e+00 
465100 4.7628596001e+00 -8.4309559860e-05 2.7679761002e+00 -4.7942752397e+00 2.7679761002e+00 4.7942752397e+00 
465200 4.7628596000e+00 -8.4194421516e-05 2.7679776231e+00 -4.7942778775e+00 2.7679776231e+00 4.7942778775e+00 
465300 4.7628595999e+00 -8.4082255149e-05 2.7679791440e+00 -4.7942805117e+00 2.7679791440e+00 4.7942805117e+00 
465400 4.7628595998e+00 -8.3970360542e-05 2.7679806628e+00 -4.7942831424e+00 2.7679806628e+00 4.7942831424e+00 
465500 4.7628595997e+00 -8.3858736739e-05 2.7679821797e+00 -4.7942857696e+00 2.7679821797e+00 4.7942857696e+00 
465600 4.7628595995e+00 -8.3744692953e-05 2.7679836945e+00 -4.7942883933e+00 2.7679836945e+00 4.7942883933e+00 
465700 4.7628595994e+00 -8.3633618263e-05 2.7679852072e+00 -4.7942910135e+00 2.7679852072e+00 4.7942910135e+00 
465800 4.7628595993e+00 -8.3520121717e-05 2.7679867179e+00 -4.7942936301e+00 2.7679867179e+00 4.7942936301e+00 
465900 4.7628595992e+00 -8.3409592941e-05 2.7679882266e+00 -4.7942962432e+00 2.7679882266e+00 4.7942962432e+00 
466000 4.7628595991e+00 -8.3296640373e-05 2.7679897333e+00 -4.7942988529e+00 2.7679897333e+00 4.7942988529e+00 
466100 4.7628595989e+00 -8.3186654155e-05 2.7679912379e+00 -4.7943014590e+00 2.7679912379e+00 4.7943014590e+00 
466200 4.7628595988e+00 -8.3074242168e-05 2.7679927406e+00 -4.7943040617e+00 2.7679927406e+00 4.7943040617e+00 
466300 4.7628595987e+00 -8.2964795028e-05 2.7679942412e+00 -4.7943066608e+00 2.7679942412e+00 4.7943066608e+00 
466400 4.7628595986e+00 -8.2852920120e-05 2.7679957399e+00 -4.7943092566e+00 2.7679957399e+00 4.7943092566e+00 
466500 4.7628595985e+00 -8.2741317461e-05 2.7679972365e+00 -4.7943118488e+00 2.7679972365e+00 4.7943118488e+00 
466600 4.7628595984e+00 -8.2629986326e-05 2.7679987311e+00 -4.7943144375e+00 2.7679987311e+00 4.7943144375e+00 
466700 4.7628595982e+00 -8.2518925962e-05 2.7680002237e+00 -4.7943170228e+00 2.7680002237e+00 4.7943170228e+00 
466800 4.7628595981e+00 -8.2410827070e-05 2.7680017143e+00 -4.7943196046e+00 2.7680017143e+00 4.7943196046e+00 
466900 4.7628595980e+00 -8.2300295629e-05 2.7680032029e+00 -4.7943221829e+00 2.7680032029e+00 4.7943221829e+00 
467000 4.7628595979e+00 -8.2190032239e-05 2.7680046895e+00 -4.7943247579e+00 2.7680046895e+00 4.7943247579e+00 
467100 4.7628595978e+00 -8.2080036107e-05 2.7680061742e+00 -4.7943273294e+00 2.7680061742e+00 4.7943273294e+00 
467200 4.7628595977e+00 -8.1970306420e-05 2.7680076568e+00 -4.7943298974e+00 2.7680076568e+00 4.7943298974e+00 
467300 4.7628595975e+00 -8.1858150277e-05 2.7680091375e+00 -4.7943324620e+00 2.7680091375e+00 4.7943324620e+00 
467400 4.7628595974e+00 -8.1748961260e-05 2.7680106162e+00 -4.7943350231e+00 2.7680106162e+00 4.7943350231e+00 
467500 4.7628595973e+00 -8.1640036499e-05 2.7680120928e+00 -4.7943375808e+00 2.7680120928e+00 4.7943375808e+00 
467600 4.7628595972e+00 -8.1531375092e-05 2.7680135675e+00 -4.7943401350e+00 2.7680135675e+00 4.7943401350e+00 
467700 4.7628595971e+00 -8.1420283542e-05 2.7680150403e+00 -4.7943426859e+00 2.7680150403e+00 4.7943426859e+00 
467800 4.7628595970e+00 -8.1312156400e-05 2.7680165110e+00 -4.7943452333e+00 2.7680165110e+00 4.7943452333e+00 
467900 4.7628595969e+00 -8.1204290215e-05 2.7680179798e+00 -4.7943477773e+00 2.7680179798e+00 4.7943477773e+00 
468000 4.7628595967e+00 -8.1093991081e-05 2.7680194466e+00 -4.7943503179e+00 2.7680194466e+00 4.7943503179e+00 
468100 4.7628595966e+00 -8.0986654225e-05 2.7680209115e+00 -4.7943528551e+00 2.7680209115e+00 4.7943528551e+00 
468200 4.7628595965e+00 -8.0876882600e-05 2.7680223744e+00 -4.7943553889e+00 2.7680223744e+00 4.7943553889e+00 
468300 4.7628595964e+00 -8.0770071891e-05 2.7680238353e+00 -4.7943579193e+00 2.7680238353e+00 4.7943579193e+00 
468400 4.7628595963e+00 -8.0660824553e-05 2.7680252943e+00 -4.7943604463e+00 2.7680252943e+00 4.7943604463e+00 
468500 4.7628595962e+00 -8.0554536689e-05 2.7680267513e+00 -4.7943629699e+00 2.7680267513e+00 4.7943629699e+00 
468600 4.7628595961e+00 -8.0445810311e-05 2.7680282064e+00 -4.7943654902e+00 2.7680282064e+00 4.7943654902e+00 
468700 4.7628595960e+00 -8.0337348138e-05 2.7680296595e+00 -4.7943680071e+00 2.7680296595e+00 4.7943680071e+00 
468800 4.7628595958e+00 -8.0229149479e-05 2.7680311107e+00 -4.7943705206e+00 2.7680311107e+00 4.7943705206e+00 
468900 4.7628595957e+00 -8.0123907659e-05 2.7680325599e+00 -4.7943730307e+00 2.7680325599e+00 4.7943730307e+00 
469000 4.7628595956e+00 -8.0016223692e-05 2.7680340072e+00 -4.7943755375e+00 2.7680340072e+00 4.7943755375e+00 
469100 4.7628595955e+00 -7.9908800710e-05 2.7680354525e+00 -4.7943780409e+00 2.7680354525e+00 4.7943780409e+00 
469200 4.7628595954e+00 -7.9801637970e-05 2.7680368960e+00 -4.7943805410e+00 2.7680368960e+00 4.7943805410e+00 
469300 4.7628595953e+00 -7.9694734713e-05 2.7680383374e+00 -4.7943830377e+00 2.7680383374e+00 4.7943830377e+00 
469400 4.7628595952e+00 -7.9588090159e-05 2.7680397770e+00 -4.7943855311e+00 2.7680397770e+00 4.7943855311e+00 
469500 4.7628595951e+00 -7.9481703518e-05 2.7680412146e+00 -4.7943880212e+00 2.7680412146e+00 4.7943880212e+00 
469600 4.7628595950e+00 -7.9375573983e-05 2.7680426503e+00 -4.7943905079e+00 2.7680426503e+00 4.7943905079e+00 
469700 4.7628595949e+00 -7.9269700738e-05 2.7680440841e+00 -4.7943929913e+00 2.7680440841e+00 4.7943929913e+00 
469800 4.7628595947e+00 -7.9161387961e-05 2.7680455160e+00 -4.7943954713e+00 2.7680455160e+00 4.7943954713e+00 
469900 4.7628595946e+00 -7.9056034977e-05 2.7680469459e+00 -4.7943979480e+00 2.7680469459e+00 4.7943979480e+00 
470000 4.7628595945e+00 -7.8950936092e-05 2.7680483739e+00 -4.7944004214e+00 2.7680483739e+00 4.7944004214e+00 
470100 4.7628595944e+00 -7.8843395083e-05 2.7680498000e+00 -4.7944028915e+00 2.7680498000e+00 4.7944028915e+00 
470200 4.7628595943e+00 -7.8738811915e-05 2.7680512242e+00 -4.7944053582e+00 2.7680512242e+00 4.7944053582e+00 
470300 4.7628595942e+00 -7.8634480505e-05 2.7680526465e+00 -4.7944078217e+00 2.7680526465e+00 4.7944078217e+00 
470400 4.7628595941e+00 -7.8527704295e-05 2.7680540669e+00 -4.7944102819e+00 2.7680540669e+00 4.7944102819e+00 
470500 4.7628595940e+00 -7.8423883810e-05 2.7680554853e+00 -4.7944127387e+00 2.7680554853e+00 4.7944127387e+00 
470600 4.7628595939e+00 -7.8317616795e-05 2.7680569019e+00 -4.7944151924e+00 2.7680569019e+00 4.7944151924e+00 
470700 4.7628595938e+00 -7.8214304156e-05 2.7680583166e+00 -4.7944176426e+00 2.7680583166e+00 4.7944176426e+00 
470800 4.7628595937e+00 -7.8108543227e-05 2.7680597294e+00 -4.7944200897e+00 2.7680597294e+00 4.7944200897e+00 
470900 4.7628595936e+00 -7.8003039094e-05 2.7680611403e+00 -4.7944225334e+00 2.7680611403e+00 4.7944225334e+00 
471000 4.7628595935e+00 -7.7900487405e-05 2.7680625493e+00 -4.7944249738e+00 2.7680625493e+00 4.7944249738e+00 
471100 4.7628595934e+00 -7.7795484835e-05 2.7680639564e+00 -4.7944274111e+00 2.7680639564e+00 4.7944274111e+00 
471200 4.7628595933e+00 -7.7690736743e-05 2.7680653616e+00 -4.7944298450e+00 2.7680653616e+00 4.7944298450e+00 
471300 4.7628595931e+00 -7.7586242441e-05 2.7680667650e+00 -4.7944322756e+00 2.7680667650e+00 4.7944322756e+00 
471400 4.7628595930e+00 -7.7482001226e-05 2.7680681664e+00 -4.7944347030e+00 2.7680681664e+00 4.7944347030e+00 
471500 4.7628595929e+00 -7.7378012376e-05 2.7680695660e+00 -4.7944371272e+00 2.7680695660e+00 4.7944371272e+00 
471600 4.7628595928e+00 -7.7274275150e-05 2.7680709637e+00 -4.7944395480e+00 2.7680709637e+00 4.7944395480e+00 
471700 4.7628595927e+00 -7.7170788798e-05 2.7680723595e+00 -4.7944419656e+00 2.7680723595e+00 4.7944419656e+00 
471800 4.7628595926e+00 -7.7067552554e-05 2.7680737534e+00 -4.7944443800e+00 2.7680737534e+00 4.7944443800e+00 
471900 4.7628595925e+00 -7.6964565642e-05 2.7680751455e+00 -4.7944467912e+00 2.7680751455e+00 4.7944467912e+00 
472000 4.7628595924e+00 -7.6861827276e-05 2.7680765357e+00 -4.7944491991e+00 2.7680765357e+00 4.7944491991e+00 
472100 4.7628595923e+00 -7.6759336662e-05 2.7680779241e+00 -4.7944516038e+00 2.7680779241e+00 4.7944516038e+00 
472200 4.7628595922e+00 -7.6657092995e-05 2.7680793106e+00 -4.7944540053e+00 2.7680793106e+00 4.7944540053e+00 
472300 4.7628595921e+00 -7.6555095467e-05 2.7680806953e+00 -4.7944564036e+00 2.7680806953e+00 4.7944564036e+00 
472400 4.7628595920e+00 -7.6450645615e-05 2.7680820781e+00 -4.7944587987e+00 2.7680820781e+00 4.7944587987e+00 
472500 4.7628595919e+00 -7.6349147973e-05 2.7680834590e+00 -4.7944611906e+00 2.7680834590e+00 4.7944611906e+00 
472600 4.7628595918e+00 -7.6247894302e-05 2.7680848381e+00 -4.7944635793e+00 2.7680848381e+00 4.7944635793e+00 
472700 4.7628595917e+00 -7.6144185835e-05 2.7680862154e+00 -4.7944659648e+00 2.7680862154e+00 4.7944659648e+00 
472800 4.7628595916e+00 -7.6043427591e-05 2.7680875908e+00 -4.7944683470e+00 2.7680875908e+00 4.7944683470e+00 
472900 4.7628595915e+00 -7.5940212939e-05 2.7680889643e+00 -4.7944707261e+00 2.7680889643e+00 4.7944707261e+00 
473000 4.7628595914e+00 -7.5839947244e-05 2.7680903360e+00 -4.7944731020e+00 2.7680903360e+00 4.7944731020e+00 
473100 4.7628595913e+00 -7.5737223491e-05 2.7680917059e+00 -4.7944754747e+00 2.7680917059e+00 4.7944754747e+00 
473200 4.7628595912e+00 -7.5637447360e-05 2.7680930740e+00 -4.7944778442e+00 2.7680930740e+00 4.7944778442e+00 
473300 4.7628595911e+00 -7.5535211500e-05 2.7680944402e+00 -4.7944802106e+00 2.7680944402e+00 4.7944802106e+00 
473400 4.7628595910e+00 -7.5433223333e-05 2.7680958046e+00 -4.7944825738e+00 2.7680958046e+00 4.7944825738e+00 
473500 4.7628595909e+00 -7.5331482230e-05 2.7680971672e+00 -4.7944849338e+00 2.7680971672e+00 4.7944849338e+00 
473600 4.7628595908e+00 -7.5232686307e-05 2.7680985279e+00 -4.7944872906e+00 2.7680985279e+00 4.7944872906e+00 
473700 4.7628595907e+00 -7.5131427420e-05 2.7680998868e+00 -4.7944896444e+00 2.7680998868e+00 4.7944896444e+00 
473800 4.7628595906e+00 -7.5030413310e-05 2.7681012439e+00 -4.7944919949e+00 2.7681012439e+00 4.7944919949e+00 
473900 4.7628595905e+00 -7.4929643305e-05 2.7681025992e+00 -4.7944943423e+00 2.7681025992e+00 4.7944943423e+00 
474000 4.7628595904e+00 -7.4829116714e-05 2.7681039526e+00 -4.7944966865e+00 2.7681039526e+00 4.7944966865e+00 
474100 4.7628595903e+00 -7.4728832832e-05 2.7681053042e+00 -4.7944990276e+00 2.7681053042e+00 4.7944990276e+00 
474200 4.7628595902e+00 -7.4628790942e-05 2.7681066541e+00 -4.7945013656e+00 2.7681066541e+00 4.7945013656e+00 
474300 4.7628595901e+00 -7.4528990316e-05 2.7681080021e+00 -4.7945037004e+00 2.7681080021e+00 4.7945037004e+00 
474400 4.7628595900e+00 -7.4429430213e-05 2.7681093483e+00 -4.7945060321e+00 2.7681093483e+00 4.7945060321e+00 
474500 4.7628595899e+00 -7.4330109888e-05 2.7681106927e+00 -4.7945083607e+00 2.7681106927e+00 4.7945083607e+00 
474600 4.7628595898e+00 -7.4231028582e-05 2.7681120353e+00 -4.7945106862e+00 2.7681120353e+00 4.7945106862e+00 
474700 4.7628595897e+00 -7.4132185533e-05 2.7681133761e+00 -4.7945130086e+00 2.7681133761e+00 4.7945130086e+00 
474800 4.7628595896e+00 -7.4030880247e-05 2.7681147152e+00 -4.7945153278e+00 2.7681147152e+00 4.7945153278e+00 
474900 4.7628595895e+00 -7.3932521343e-05 2.7681160524e+00 -4.7945176440e+00 2.7681160524e+00 4.7945176440e+00 
475000 4.7628595894e+00 -7.3834398649e-05 2.7681173878e+00 -4.7945199570e+00 2.7681173878e+00 4.7945199570e+00 
475100 4.7628595893e+00 -7.3733811385e-05 2.7681187215e+00 -4.7945222669e+00 2.7681187215e+00 4.7945222669e+00 
475200 4.7628595892e+00 -7.3636168619e-05 2.7681200533e+00 -4.7945245738e+00 2.7681200533e+00 4.7945245738e+00 
475300 4.7628595891e+00 -7.3538759900e-05 2.7681213834e+00 -4.7945268775e+00 2.7681213834e+00 4.7945268775e+00 
475400 4.7628595891e+00 -7.3438884228e-05 2.7681227117e+00 -4.7945291782e+00 2.7681227117e+00 4.7945291782e+00 
475500 4.7628595890e+00 -7.3341951034e-05 2.7681240382e+00 -4.7945314758e+00 2.7681240382e+00 4.7945314758e+00 
475600 4.7628595889e+00 -7.3242549347e-05 2.7681253630e+00 -4.7945337704e+00 2.7681253630e+00 4.7945337704e+00 
475700 4.7628595888e+00 -7.3143388435e-05 2.7681266859e+00 -4.7945360618e+00 2.7681266859e+00 4.7945360618e+00 
475800 4.7628595887e+00 -7.3047168258e-05 2.7681280071e+00 -4.7945383501e+00 2.7681280071e+00 4.7945383501e+00 
475900 4.7628595886e+00 -7.2948477302e-05 2.7681293265e+00 -4.7945406355e+00 2.7681293265e+00 4.7945406355e+00 
476000 4.7628595885e+00 -7.2850025050e-05 2.7681306442e+00 -4.7945429177e+00 2.7681306442e+00 4.7945429177e+00 
476100 4.7628595884e+00 -7.2754511639e-05 2.7681319600e+00 -4.7945451969e+00 2.7681319600e+00 4.7945451969e+00 
476200 4.7628595883e+00 -7.2656525105e-05 2.7681332742e+00 -4.7945474730e+00 2.7681332742e+00 4.7945474730e+00 
476300 4.7628595882e+00 -7.2558775119e-05 2.7681345866e+00 -4.7945497461e+00 2.7681345866e+00 4.7945497461e+00 
476400 4.7628595881e+00 -7.2461261040e-05 2.7681358972e+00 -4.7945520162e+00 2.7681358972e+00 4.7945520162e+00 
476500 4.7628595880e+00 -7.2363982216e-05 2.7681372060e+00 -4.7945542831e+00 2.7681372060e+00 4.7945542831e+00 
476600 4.7628595879e+00 -7.2266937979e-05 2.7681385131e+00 -4.7945565471e+00 2.7681385131e+00 4.7945565471e+00 
476700 4.7628595878e+00 -7.2170127650e-05 2.7681398184e+00 -4.7945588080e+00 2.7681398184e+00 4.7945588080e+00 
476800 4.7628595877e+00 -7.2073550539e-05 2.7681411220e+00 -4.7945610659e+00 2.7681411220e+00 4.7945610659e+00 
476900 4.7628595876e+00 -7.1977205945e-05 2.7681424239e+00 -4.7945633207e+00 2.7681424239e+00 4.7945633207e+00 
477000 4.7628595876e+00 -7.1881093160e-05 2.7681437240e+00 -4.7945655726e+00 2.7681437240e+00 4.7945655726e+00 
477100 4.7628595875e+00 -7.1785211468e-05 2.7681450223e+00 -4.7945678214e+00 2.7681450223e+00 4.7945678214e+00 
477200 4.7628595874e+00 -7.1689560146e-05 2.7681463190e+00 -4.7945700672e+00 2.7681463190e+00 4.7945700672e+00 
477300 4.7628595873e+00 -7.1594138463e-05 2.7681476139e+00 -4.7945723101e+00 2.7681476139e+00 4.7945723101e+00 
477400 4.7628595872e+00 -7.1496244045e-05 2.7681489070e+00 -4.7945745499e+00 2.7681489070e+00 4.7945745499e+00 
477500 4.7628595871e+00 -7.1401289265e-05 2.7681501984e+00 -4.7945767867e+00 2.7681501984e+00 4.7945767867e+00 
477600 4.7628595870e+00 -7.1306562165e-05 2.7681514881e+00 -4.7945790205e+00 2.7681514881e+00 4.7945790205e+00 
477700 4.7628595869e+00 -7.1209360126e-05 2.7681527761e+00 -4.7945812514e+00 2.7681527761e+00 4.7945812514e+00 
477800 4.7628595868e+00 -7.1115095900e-05 2.7681540623e+00 -4.7945834792e+00 2.7681540623e+00 4.7945834792e+00 
477900 4.7628595867e+00 -7.1018355293e-05 2.7681553469e+00 -4.7945857040e+00 2.7681553469e+00 4.7945857040e+00 
478000 4.7628595866e+00 -7.0924551338e-05 2.7681566296e+00 -4.7945879259e+00 2.7681566296e+00 4.7945879259e+00 
478100 4.7628595866e+00 -7.0828269527e-05 2.7681579107e+00 -4.7945901447e+00 2.7681579107e+00 4.7945901447e+00 
478200 4.7628595865e+00 -7.0734923150e-05 2.7681591901e+00 -4.7945923606e+00 2.7681591901e+00 4.7945923606e+00 
478300 4.7628595864e+00 -7.0639097422e-05 2.7681604677e+00 -4.7945945736e+00 2.7681604677e+00 4.7945945736e+00 
478300 4.7628595864e+00 -7.0639097422e-05 2.7681604677e+00 -4.7945945736e+00 2.7681604677e+00 4.7945945736e+00 
