# step Hamiltonian StressXX CellTensor1 CellTensor2 CellTensor3 CellTensor4 
0 5.7438828218e+00 1.7032470216e-01 2.5594246509e+00 -4.4330535334e+00 2.5594246509e+00 4.4330535334e+00 
100 5.7513257853e+00 1.8214902445e-01 2.5594246509e+00 -4.4330535334e+00 2.5594246509e+00 4.4330535334e+00 
200 5.7587148969e+00 1.9294655485e-01 2.5558670787e+00 -4.4268916377e+00 2.5558670787e+00 4.4268916377e+00 
300 5.7663409496e+00 2.0312711916e-01 2.5520934280e+00 -4.4203554829e+00 2.5520934280e+00 4.4203554829e+00 
400 5.7740281266e+00 2.1265292483e-01 2.5481148462e+00 -4.4134643772e+00 2.5481148462e+00 4.4134643772e+00 
500 5.7815853217e+00 2.2145229945e-01 2.5439432370e+00 -4.4062389380e+00 2.5439432370e+00 4.4062389380e+00 
600 5.7888169607e+00 2.2942809376e-01 2.5395919401e+00 -4.3987022708e+00 2.5395919401e+00 4.3987022708e+00 
700 5.7955352726e+00 2.3647010576e-01 2.5350762548e+00 -4.3908808744e+00 2.5350762548e+00 4.3908808744e+00 
800 5.8015736833e+00 2.4247153821e-01 2.5304137232e+00 -4.3828051328e+00 2.5304137232e+00 4.3828051328e+00 
900 5.8068001304e+00 2.4734801069e-01 2.5256240939e+00 -4.3745092514e+00 2.5256240939e+00 4.3745092514e+00 
1000 5.8111282542e+00 2.5105590280e-01 2.5207289092e+00 -4.3660305428e+00 2.5207289092e+00 4.3660305428e+00 
1100 5.8145240204e+00 2.5360562633e-01 2.5157507246e+00 -4.3574080741e+00 2.5157507246e+00 4.3574080741e+00 
1200 5.8170058245e+00 2.5506577217e-01 2.5107120542e+00 -4.3486808411e+00 2.5107120542e+00 4.3486808411e+00 
1300 5.8186375919e+00 2.5555634960e-01 2.5056342200e+00 -4.3398857742e+00 2.5056342200e+00 4.3398857742e+00 
1400 5.8195163135e+00 2.5523277377e-01 2.5005363194e+00 -4.3310559513e+00 2.5005363194e+00 4.3310559513e+00 
1500 5.8197569714e+00 2.5426519316e-01 2.4954344983e+00 -4.3222193381e+00 2.4954344983e+00 4.3222193381e+00 
1600 5.8194781867e+00 2.5281869714e-01 2.4903416278e+00 -4.3133982275e+00 2.4903416278e+00 4.3133982275e+00 
1700 5.8187911047e+00 2.5103865181e-01 2.4852673714e+00 -4.3046093577e+00 2.4852673714e+00 4.3046093577e+00 
1800 5.8177925917e+00 2.4904289837e-01 2.4802185494e+00 -4.2958645414e+00 2.4802185494e+00 4.2958645414e+00 
1900 5.8165624736e+00 2.4692020263e-01 2.4751996629e+00 -4.2871715750e+00 2.4751996629e+00 4.2871715750e+00 
2000 5.8151637639e+00 2.4473302689e-01 2.4702134570e+00 -4.2785352130e+00 2.4702134570e+00 4.2785352130e+00 
2100 5.8136446388e+00 2.4252247204e-01 2.4652614342e+00 -4.2699580580e+00 2.4652614342e+00 4.2699580580e+00 
2200 5.8120411242e+00 2.4031369803e-01 2.4603442749e+00 -4.2614412883e+00 2.4603442749e+00 4.2614412883e+00 
2300 5.8103798088e+00 2.3812080187e-01 2.4554621525e+00 -4.2529852043e+00 2.4554621525e+00 4.2529852043e+00 
2400 5.8086802230e+00 2.3595071294e-01 2.4506149535e+00 -4.2445896092e+00 2.4506149535e+00 4.2445896092e+00 
2500 5.8069567531e+00 2.3380604743e-01 2.4458024204e+00 -4.2362540575e+00 2.4458024204e+00 4.2362540575e+00 
2600 5.8052200980e+00 2.3168705859e-01 2.4410242392e+00 -4.2279780048e+00 2.4410242392e+00 4.2279780048e+00 
2700 5.8034783339e+00 2.2959288642e-01 2.4362800864e+00 -4.2197608911e+00 2.4362800864e+00 4.2197608911e+00 
2800 5.8017376719e+00 2.2752230592e-01 2.4315696523e+00 -4.2116021799e+00 2.4315696523e+00 4.2116021799e+00 
2900 5.8000029862e+00 2.2547413800e-01 2.4268926486e+00 -4.2035013719e+00 2.4268926486e+00 4.2035013719e+00 
3000 5.7982781787e+00 2.2344744637e-01 2.4222488077e+00 -4.1954580034e+00 2.4222488077e+00 4.1954580034e+00 
3100 5.7965664300e+00 2.2144160595e-01 2.4176378776e+00 -4.1874716383e+00 2.4176378776e+00 4.1874716383e+00 
3200 5.7948703706e+00 2.1945630000e-01 2.4130596162e+00 -4.1795418570e+00 2.4130596162e+00 4.1795418570e+00 
3300 5.7931922003e+00 2.1749148173e-01 2.4085137848e+00 -4.1716682460e+00 2.4085137848e+00 4.1716682460e+00 
3400 5.7915337715e+00 2.1554732198e-01 2.4040001424e+00 -4.1638503880e+00 2.4040001424e+00 4.1638503880e+00 
3500 5.7898966486e+00 2.1362415519e-01 2.3995184412e+00 -4.1560878539e+00 2.3995184412e+00 4.1560878539e+00 
3600 5.7882821517e+00 2.1172242986e-01 2.3950684237e+00 -4.1483801975e+00 2.3950684237e+00 4.1483801975e+00 
3700 5.7866913898e+00 2.0984266636e-01 2.3906498195e+00 -4.1407269504e+00 2.3906498195e+00 4.1407269504e+00 
3800 5.7851252862e+00 2.0798542263e-01 2.3862623441e+00 -4.1331276202e+00 2.3862623441e+00 4.1331276202e+00 
3900 5.7835845992e+00 2.0615126766e-01 2.3819056983e+00 -4.1255816882e+00 2.3819056983e+00 4.1255816882e+00 
4000 5.7820699397e+00 2.0434076157e-01 2.3775795670e+00 -4.1180886092e+00 2.3775795670e+00 4.1180886092e+00 
4100 5.7805817858e+00 2.0255444150e-01 2.3732836205e+00 -4.1106478114e+00 2.3732836205e+00 4.1106478114e+00 
4200 5.7791204954e+00 2.0079281202e-01 2.3690175136e+00 -4.1032586976e+00 2.3690175136e+00 4.1032586976e+00 
4300 5.7776863181e+00 1.9905633924e-01 2.3647808873e+00 -4.0959206456e+00 2.3647808873e+00 4.0959206456e+00 
4400 5.7762794050e+00 1.9734544776e-01 2.3605733688e+00 -4.0886330097e+00 2.3605733688e+00 4.0886330097e+00 
4500 5.7748998182e+00 1.9566051965e-01 2.3563945725e+00 -4.0813951223e+00 2.3563945725e+00 4.0813951223e+00 
4600 5.7735475394e+00 1.9400189502e-01 2.3522441012e+00 -4.0742062951e+00 2.3522441012e+00 4.0742062951e+00 
4700 5.7722224774e+00 1.9236987366e-01 2.3481215463e+00 -4.0670658205e+00 2.3481215463e+00 4.0670658205e+00 
4800 5.7709244753e+00 1.9076471739e-01 2.3440264890e+00 -4.0599729732e+00 2.3440264890e+00 4.0599729732e+00 
4900 5.7696533174e+00 1.8918665281e-01 2.3399585011e+00 -4.0529270115e+00 2.3399585011e+00 4.0529270115e+00 
5000 5.7684087344e+00 1.8763587437e-01 2.3359171455e+00 -4.0459271783e+00 2.3359171455e+00 4.0459271783e+00 
5100 5.7671904095e+00 1.8611254745e-01 2.3319019772e+00 -4.0389727027e+00 2.3319019772e+00 4.0389727027e+00 
5200 5.7659979834e+00 1.8461681142e-01 2.3279125433e+00 -4.0320628006e+00 2.3279125433e+00 4.0320628006e+00 
5300 5.7648310585e+00 1.8314878260e-01 2.3239483843e+00 -4.0251966757e+00 2.3239483843e+00 4.0251966757e+00 
5400 5.7636892036e+00 1.8170855704e-01 2.3200090339e+00 -4.0183735208e+00 2.3200090339e+00 4.0183735208e+00 
5500 5.7625719574e+00 1.8029621307e-01 2.3160940201e+00 -4.0115925179e+00 2.3160940201e+00 4.0115925179e+00 
5600 5.7614788320e+00 1.7891181372e-01 2.3122028648e+00 -4.0048528392e+00 2.3122028648e+00 4.0048528392e+00 
5700 5.7604093163e+00 1.7755540880e-01 2.3083350849e+00 -3.9981536479e+00 2.3083350849e+00 3.9981536479e+00 
5800 5.7593628788e+00 1.7622703679e-01 2.3044901920e+00 -3.9914940981e+00 2.3044901920e+00 3.9914940981e+00 
5900 5.7583389700e+00 1.7492672658e-01 2.3006676931e+00 -3.9848733358e+00 2.3006676931e+00 3.9848733358e+00 
6000 5.7573370253e+00 1.7365449882e-01 2.2968670905e+00 -3.9782904990e+00 2.2968670905e+00 3.9782904990e+00 
6100 5.7563564664e+00 1.7241036726e-01 2.2930878822e+00 -3.9717447182e+00 2.2930878822e+00 3.9717447182e+00 
6200 5.7553967040e+00 1.7119433976e-01 2.2893295617e+00 -3.9652351162e+00 2.2893295617e+00 3.9652351162e+00 
6300 5.7544571390e+00 1.7000641916e-01 2.2855916188e+00 -3.9587608092e+00 2.2855916188e+00 3.9587608092e+00 
6400 5.7535371642e+00 1.6884660402e-01 2.2818735391e+00 -3.9523209061e+00 2.2818735391e+00 3.9523209061e+00 
6500 5.7526361661e+00 1.6771488914e-01 2.2781748042e+00 -3.9459145095e+00 2.2781748042e+00 3.9459145095e+00 
6600 5.7517535253e+00 1.6661126600e-01 2.2744948923e+00 -3.9395407150e+00 2.2744948923e+00 3.9395407150e+00 
6700 5.7508886186e+00 1.6553572305e-01 2.2708332776e+00 -3.9331986124e+00 2.2708332776e+00 3.9331986124e+00 
6800 5.7500408194e+00 1.6448824584e-01 2.2671894309e+00 -3.9268872846e+00 2.2671894309e+00 3.9268872846e+00 
6900 5.7492094986e+00 1.6346881712e-01 2.2635628192e+00 -3.9206058090e+00 2.2635628192e+00 3.9206058090e+00 
7000 5.7483940256e+00 1.6247741680e-01 2.2599529065e+00 -3.9143532567e+00 2.2599529065e+00 3.9143532567e+00 
7100 5.7475937689e+00 1.6151402180e-01 2.2563591529e+00 -3.9081286930e+00 2.2563591529e+00 3.9081286930e+00 
7200 5.7468080968e+00 1.6057860588e-01 2.2527810157e+00 -3.9019311775e+00 2.2527810157e+00 3.9019311775e+00 
7300 5.7460363778e+00 1.5967113931e-01 2.2492179486e+00 -3.8957597643e+00 2.2492179486e+00 3.8957597643e+00 
7400 5.7452779811e+00 1.5879158856e-01 2.2456694024e+00 -3.8896135019e+00 2.2456694024e+00 3.8896135019e+00 
7500 5.7445322770e+00 1.5793991585e-01 2.2421348247e+00 -3.8834914339e+00 2.2421348247e+00 3.8834914339e+00 
7600 5.7437986373e+00 1.5711607869e-01 2.2386136605e+00 -3.8773925985e+00 2.2386136605e+00 3.8773925985e+00 
7700 5.7430764358e+00 1.5632002934e-01 2.2351053516e+00 -3.8713160292e+00 2.2351053516e+00 3.8713160292e+00 
7800 5.7423650481e+00 1.5555171422e-01 2.2316093373e+00 -3.8652607548e+00 2.2316093373e+00 3.8652607548e+00 
7900 5.7416638522e+00 1.5481107326e-01 2.2281250545e+00 -3.8592257999e+00 2.2281250545e+00 3.8592257999e+00 
8000 5.7409722286e+00 1.5409803921e-01 2.2246519374e+00 -3.8532101848e+00 2.2246519374e+00 3.8532101848e+00 
8100 5.7402895605e+00 1.5341253692e-01 2.2211894184e+00 -3.8472129259e+00 2.2211894184e+00 3.8472129259e+00 
8200 5.7396152337e+00 1.5275448252e-01 2.2177369276e+00 -3.8412330364e+00 2.2177369276e+00 3.8412330364e+00 
8300 5.7389486374e+00 1.5212378262e-01 2.2142938933e+00 -3.8352695261e+00 2.2142938933e+00 3.8352695261e+00 
8400 5.7382891634e+00 1.5152033342e-01 2.2108597423e+00 -3.8293214021e+00 2.2108597423e+00 3.8293214021e+00 
8500 5.7376362070e+00 1.5094401976e-01 2.2074339002e+00 -3.8233876694e+00 2.2074339002e+00 3.8233876694e+00 
8600 5.7369891667e+00 1.5039471418e-01 2.2040157912e+00 -3.8174673310e+00 2.2040157912e+00 3.8174673310e+00 
8700 5.7363474444e+00 1.4987227591e-01 2.2006048389e+00 -3.8115593884e+00 2.2006048389e+00 3.8115593884e+00 
8800 5.7357104455e+00 1.4937654978e-01 2.1972004666e+00 -3.8056628426e+00 2.1972004666e+00 3.8056628426e+00 
8900 5.7350775792e+00 1.4890736514e-01 2.1938020973e+00 -3.7997766942e+00 2.1938020973e+00 3.7997766942e+00 
9000 5.7344482583e+00 1.4846453470e-01 2.1904091542e+00 -3.7938999444e+00 2.1904091542e+00 3.7938999444e+00 
9100 5.7338218997e+00 1.4804785333e-01 2.1870210614e+00 -3.7880315955e+00 2.1870210614e+00 3.7880315955e+00 
9200 5.7331979242e+00 1.4765709683e-01 2.1836372438e+00 -3.7821706515e+00 2.1836372438e+00 3.7821706515e+00 
9300 5.7325757570e+00 1.4729202062e-01 2.1802571280e+00 -3.7763161192e+00 2.1802571280e+00 3.7763161192e+00 
9400 5.7319548280e+00 1.4695235845e-01 2.1768801426e+00 -3.7704670090e+00 2.1768801426e+00 3.7704670090e+00 
9500 5.7313345716e+00 1.4663782100e-01 2.1735057188e+00 -3.7646223355e+00 2.1735057188e+00 3.7646223355e+00 
9600 5.7307144274e+00 1.4634809447e-01 2.1701332908e+00 -3.7587811188e+00 2.1701332908e+00 3.7587811188e+00 
9700 5.7300938403e+00 1.4608283913e-01 2.1667622965e+00 -3.7529423855e+00 2.1667622965e+00 3.7529423855e+00 
9800 5.7294722612e+00 1.4584168784e-01 2.1633921783e+00 -3.7471051695e+00 2.1633921783e+00 3.7471051695e+00 
9900 5.7288491469e+00 1.4562424451e-01 2.1600223834e+00 -3.7412685136e+00 2.1600223834e+00 3.7412685136e+00 
10000 5.7282239612e+00 1.4543008256e-01 2.1566523649e+00 -3.7354314703e+00 2.1566523649e+00 3.7354314703e+00 
10100 5.7275961748e+00 1.4525874332e-01 2.1532815822e+00 -3.7295931034e+00 2.1532815822e+00 3.7295931034e+00 
10200 5.7269652666e+00 1.4510973445e-01 2.1499095021e+00 -3.7237524893e+00 2.1499095021e+00 3.7237524893e+00 
10300 5.7263307236e+00 1.4498252833e-01 2.1465355994e+00 -3.7179087183e+00 2.1465355994e+00 3.7179087183e+00 
10400 5.7256920424e+00 1.4487656040e-01 2.1431593578e+00 -3.7120608965e+00 2.1431593578e+00 3.7120608965e+00 
10500 5.7250487295e+00 1.4479122758e-01 2.1397802713e+00 -3.7062081469e+00 2.1397802713e+00 3.7062081469e+00 
10600 5.7244003023e+00 1.4472588664e-01 2.1363978443e+00 -3.7003496115e+00 2.1363978443e+00 3.7003496115e+00 
10700 5.7237462903e+00 1.4467985262e-01 2.1330115934e+00 -3.6944844529e+00 2.1330115934e+00 3.6944844529e+00 
10800 5.7230862358e+00 1.4465239723e-01 2.1296210480e+00 -3.6886118560e+00 2.1296210480e+00 3.6886118560e+00 
10900 5.7224196956e+00 1.4464274739e-01 2.1262257517e+00 -3.6827310303e+00 2.1262257517e+00 3.6827310303e+00 
11000 5.7217462417e+00 1.4465008376e-01 2.1228252633e+00 -3.6768412116e+00 2.1228252633e+00 3.6768412116e+00 
11100 5.7210654629e+00 1.4467353934e-01 2.1194191580e+00 -3.6709416641e+00 2.1194191580e+00 3.6709416641e+00 
11200 5.7203769662e+00 1.4471219821e-01 2.1160070286e+00 -3.6650316827e+00 2.1160070286e+00 3.6650316827e+00 
11300 5.7196803786e+00 1.4476509433e-01 2.1125884870e+00 -3.6591105950e+00 2.1125884870e+00 3.6591105950e+00 
11400 5.7189753483e+00 1.4483121055e-01 2.1091631654e+00 -3.6531777640e+00 2.1091631654e+00 3.6531777640e+00 
11500 5.7182615465e+00 1.4490947766e-01 2.1057307175e+00 -3.6472325898e+00 2.1057307175e+00 3.6472325898e+00 
11600 5.7175386698e+00 1.4499877371e-01 2.1022908202e+00 -3.6412745129e+00 2.1022908202e+00 3.6412745129e+00 
11700 5.7168064412e+00 1.4509792350e-01 2.0988431748e+00 -3.6353030159e+00 2.0988431748e+00 3.6353030159e+00 
11800 5.7160646130e+00 1.4520569828e-01 2.0953875086e+00 -3.6293176264e+00 2.0953875086e+00 3.6293176264e+00 
11900 5.7153129681e+00 1.4532081571e-01 2.0919235762e+00 -3.6233179195e+00 2.0919235762e+00 3.6233179195e+00 
12000 5.7145513228e+00 1.4544194012e-01 2.0884511612e+00 -3.6173035203e+00 2.0884511612e+00 3.6173035203e+00 
12100 5.7137795285e+00 1.4556768303e-01 2.0849700777e+00 -3.6112741069e+00 2.0849700777e+00 3.6112741069e+00 
12200 5.7129974741e+00 1.4569660404e-01 2.0814801717e+00 -3.6052294123e+00 2.0814801717e+00 3.6052294123e+00 
12300 5.7122050884e+00 1.4582721202e-01 2.0779813224e+00 -3.5991692276e+00 2.0779813224e+00 3.5991692276e+00 
12400 5.7114023423e+00 1.4595796679e-01 2.0744734444e+00 -3.5930934046e+00 2.0744734444e+00 3.5930934046e+00 
12500 5.7105892508e+00 1.4608728106e-01 2.0709564882e+00 -3.5870018578e+00 2.0709564882e+00 3.5870018578e+00 
12600 5.7097658757e+00 1.4621352292e-01 2.0674304425e+00 -3.5808945676e+00 2.0674304425e+00 3.5808945676e+00 
12700 5.7089323275e+00 1.4633501871e-01 2.0638953352e+00 -3.5747715820e+00 2.0638953352e+00 3.5747715820e+00 
12800 5.7080887674e+00 1.4645005636e-01 2.0603512346e+00 -3.5686330197e+00 2.0603512346e+00 3.5686330197e+00 
12900 5.7072354096e+00 1.4655688927e-01 2.0567982510e+00 -3.5624790717e+00 2.0567982510e+00 3.5624790717e+00 
13000 5.7063725229e+00 1.4665374056e-01 2.0532365379e+00 -3.5563100037e+00 2.0532365379e+00 3.5563100037e+00 
13100 5.7055004322e+00 1.4673880794e-01 2.0496662929e+00 -3.5501261578e+00 2.0496662929e+00 3.5501261578e+00 
13200 5.7046195204e+00 1.4681026896e-01 2.0460877586e+00 -3.5439279546e+00 2.0460877586e+00 3.5439279546e+00 
13300 5.7037302293e+00 1.4686628680e-01 2.0425012240e+00 -3.5377158944e+00 2.0425012240e+00 3.5377158944e+00 
13400 5.7028330604e+00 1.4690501654e-01 2.0389070248e+00 -3.5314905588e+00 2.0389070248e+00 3.5314905588e+00 
13500 5.7019285757e+00 1.4692461181e-01 2.0353055443e+00 -3.5252526116e+00 2.0353055443e+00 3.5252526116e+00 
13600 5.7010173979e+00 1.4692323192e-01 2.0316972136e+00 -3.5190027995e+00 2.0316972136e+00 3.5190027995e+00 
13700 5.7001002101e+00 1.4689904938e-01 2.0280825122e+00 -3.5127419531e+00 2.0280825122e+00 3.5127419531e+00 
13800 5.6991777553e+00 1.4685025768e-01 2.0244619679e+00 -3.5064709864e+00 2.0244619679e+00 3.5064709864e+00 
13900 5.6982508351e+00 1.4677507943e-01 2.0208361569e+00 -3.5001908975e+00 2.0208361569e+00 3.5001908975e+00 
14000 5.6973203085e+00 1.4667177470e-01 2.0172057032e+00 -3.4939027673e+00 2.0172057032e+00 3.4939027673e+00 
14100 5.6963870894e+00 1.4653864954e-01 2.0135712787e+00 -3.4876077593e+00 2.0135712787e+00 3.4876077593e+00 
14200 5.6954521445e+00 1.4637406457e-01 2.0099336018e+00 -3.4813071181e+00 2.0099336018e+00 3.4813071181e+00 
14300 5.6945164895e+00 1.4617644357e-01 2.0062934371e+00 -3.4750021679e+00 2.0062934371e+00 3.4750021679e+00 
14400 5.6935811857e+00 1.4594428203e-01 2.0026515938e+00 -3.4686943102e+00 2.0026515938e+00 3.4686943102e+00 
14500 5.6926473358e+00 1.4567615554e-01 1.9990089246e+00 -3.4623850222e+00 1.9990089246e+00 3.4623850222e+00 
14600 5.6917160789e+00 1.4537072791e-01 1.9953663241e+00 -3.4560758530e+00 1.9953663241e+00 3.4560758530e+00 
14700 5.6907885850e+00 1.4502675895e-01 1.9917247267e+00 -3.4497684213e+00 1.9917247267e+00 3.4497684213e+00 
14800 5.6898660493e+00 1.4464311190e-01 1.9880851049e+00 -3.4434644114e+00 1.9880851049e+00 3.4434644114e+00 
14900 5.6889496860e+00 1.4421876024e-01 1.9844484668e+00 -3.4371655695e+00 1.9844484668e+00 3.4371655695e+00 
15000 5.6880407211e+00 1.4375279401e-01 1.9808158538e+00 -3.4308736992e+00 1.9808158538e+00 3.4308736992e+00 
15100 5.6871403856e+00 1.4324442539e-01 1.9771883378e+00 -3.4245906572e+00 1.9771883378e+00 3.4245906572e+00 
15200 5.6862499078e+00 1.4269299360e-01 1.9735670185e+00 -3.4183183482e+00 1.9735670185e+00 3.4183183482e+00 
15300 5.6853705061e+00 1.4209796896e-01 1.9699530204e+00 -3.4120587198e+00 1.9699530204e+00 3.4120587198e+00 
15400 5.6845033802e+00 1.4145895615e-01 1.9663474894e+00 -3.4058137571e+00 1.9663474894e+00 3.4058137571e+00 
15500 5.6836497042e+00 1.4077569655e-01 1.9627515902e+00 -3.3995854769e+00 1.9627515902e+00 3.3995854769e+00 
15600 5.6828106181e+00 1.4004806969e-01 1.9591665021e+00 -3.3933759220e+00 1.9591665021e+00 3.3933759220e+00 
15700 5.6819872199e+00 1.3927609377e-01 1.9555934160e+00 -3.3871871555e+00 1.9555934160e+00 3.3871871555e+00 
15800 5.6811805583e+00 1.3845992525e-01 1.9520335311e+00 -3.3810212540e+00 1.9520335311e+00 3.3810212540e+00 
15900 5.6803916254e+00 1.3759985751e-01 1.9484880510e+00 -3.3748803023e+00 1.9484880510e+00 3.3748803023e+00 
16000 5.6796213492e+00 1.3669631865e-01 1.9449581802e+00 -3.3687663866e+00 1.9449581802e+00 3.3687663866e+00 
16100 5.6788705879e+00 1.3574986839e-01 1.9414451205e+00 -3.3626815889e+00 1.9414451205e+00 3.3626815889e+00 
16200 5.6781401232e+00 1.3476119419e-01 1.9379500680e+00 -3.3566279804e+00 1.9379500680e+00 3.3566279804e+00 
16300 5.6774306555e+00 1.3373110661e-01 1.9344742090e+00 -3.3506076159e+00 1.9344742090e+00 3.3506076159e+00 
16400 5.6767427993e+00 1.3266053391e-01 1.9310187168e+00 -3.3446225279e+00 1.9310187168e+00 3.3446225279e+00 
16500 5.6760770788e+00 1.3155051612e-01 1.9275847487e+00 -3.3386747207e+00 1.9275847487e+00 3.3386747207e+00 
16600 5.6754339256e+00 1.3040219850e-01 1.9241734426e+00 -3.3327661651e+00 1.9241734426e+00 3.3327661651e+00 
16700 5.6748136759e+00 1.2921682454e-01 1.9207859138e+00 -3.3268987932e+00 1.9207859138e+00 3.3268987932e+00 
16800 5.6742165695e+00 1.2799572857e-01 1.9174232526e+00 -3.3210744932e+00 1.9174232526e+00 3.3210744932e+00 
16900 5.6736427492e+00 1.2674032810e-01 1.9140865212e+00 -3.3152951047e+00 1.9140865212e+00 3.3152951047e+00 
17000 5.6730922611e+00 1.2545211588e-01 1.9107767510e+00 -3.3095624147e+00 1.9107767510e+00 3.3095624147e+00 
17100 5.6725650560e+00 1.2413265188e-01 1.9074949408e+00 -3.3038781527e+00 1.9074949408e+00 3.3038781527e+00 
17200 5.6720609916e+00 1.2278355513e-01 1.9042420541e+00 -3.2982439876e+00 1.9042420541e+00 3.2982439876e+00 
17300 5.6715798351e+00 1.2140649567e-01 1.9010190171e+00 -3.2926615238e+00 1.9010190171e+00 3.2926615238e+00 
17400 5.6711212670e+00 1.2000318649e-01 1.8978267174e+00 -3.2871322985e+00 1.8978267174e+00 3.2871322985e+00 
17500 5.6706848856e+00 1.1857537566e-01 1.8946660017e+00 -3.2816577784e+00 1.8946660017e+00 3.2816577784e+00 
17600 5.6702702116e+00 1.1712483859e-01 1.8915376751e+00 -3.2762393577e+00 1.8915376751e+00 3.2762393577e+00 
17700 5.6698766939e+00 1.1565337065e-01 1.8884424992e+00 -3.2708783558e+00 1.8884424992e+00 3.2708783558e+00 
17800 5.6695037156e+00 1.1416277993e-01 1.8853811917e+00 -3.2655760157e+00 1.8853811917e+00 3.2655760157e+00 
17900 5.6691506001e+00 1.1265488046e-01 1.8823544251e+00 -3.2603335021e+00 1.8823544251e+00 3.2603335021e+00 
18000 5.6688166183e+00 1.1113148566e-01 1.8793628263e+00 -3.2551519010e+00 1.8793628263e+00 3.2551519010e+00 
18100 5.6685009951e+00 1.0959440224e-01 1.8764069761e+00 -3.2500322182e+00 1.8764069761e+00 3.2500322182e+00 
18200 5.6682029165e+00 1.0804542443e-01 1.8734874087e+00 -3.2449753793e+00 1.8734874087e+00 3.2449753793e+00 
18300 5.6679215372e+00 1.0648632867e-01 1.8706046121e+00 -3.2399822290e+00 1.8706046121e+00 3.2399822290e+00 
18400 5.6676559870e+00 1.0491886863e-01 1.8677590272e+00 -3.2350535314e+00 1.8677590272e+00 3.2350535314e+00 
18500 5.6674053785e+00 1.0334477068e-01 1.8649510490e+00 -3.2301899705e+00 1.8649510490e+00 3.2301899705e+00 
18600 5.6671688137e+00 1.0176572975e-01 1.8621810261e+00 -3.2253921500e+00 1.8621810261e+00 3.2253921500e+00 
18700 5.6669453904e+00 1.0018340552e-01 1.8594492614e+00 -3.2206605949e+00 1.8594492614e+00 3.2206605949e+00 
18800 5.6667342088e+00 9.8599419097e-02 1.8567560129e+00 -3.2159957516e+00 1.8567560129e+00 3.2159957516e+00 
18900 5.6665343778e+00 9.7015349947e-02 1.8541014938e+00 -3.2113979896e+00 1.8541014938e+00 3.2113979896e+00 
19000 5.6663450197e+00 9.5432733246e-02 1.8514858737e+00 -3.2068676028e+00 1.8514858737e+00 3.2068676028e+00 
19100 5.6661652764e+00 9.3853057541e-02 1.8489092793e+00 -3.2024048103e+00 1.8489092793e+00 3.2024048103e+00 
19200 5.6659943134e+00 9.2277762723e-02 1.8463717953e+00 -3.1980097591e+00 1.8463717953e+00 3.1980097591e+00 
19300 5.6658313246e+00 9.0708238307e-02 1.8438734653e+00 -3.1936825246e+00 1.8438734653e+00 3.1936825246e+00 
19400 5.6656755356e+00 8.9145821984e-02 1.8414142932e+00 -3.1894231136e+00 1.8414142932e+00 3.1894231136e+00 
19500 5.6655262074e+00 8.7591798439e-02 1.8389942440e+00 -3.1852314654e+00 1.8389942440e+00 3.1852314654e+00 
19600 5.6653826385e+00 8.6047398409e-02 1.8366132450e+00 -3.1811074541e+00 1.8366132450e+00 3.1811074541e+00 
19700 5.6652441682e+00 8.4513797966e-02 1.8342711873e+00 -3.1770508912e+00 1.8342711873e+00 3.1770508912e+00 
19800 5.6651101772e+00 8.2992118011e-02 1.8319679269e+00 -3.1730615271e+00 1.8319679269e+00 3.1730615271e+00 
19900 5.6649800899e+00 8.1483423953e-02 1.8297032858e+00 -3.1691390538e+00 1.8297032858e+00 3.1691390538e+00 
20000 5.6648533744e+00 7.9988725572e-02 1.8274770539e+00 -3.1652831071e+00 1.8274770539e+00 3.1652831071e+00 
20100 5.6647295437e+00 7.8508977040e-02 1.8252889897e+00 -3.1614932687e+00 1.8252889897e+00 3.1614932687e+00 
20200 5.6646081549e+00 7.7045077091e-02 1.8231388222e+00 -3.1577690694e+00 1.8231388222e+00 3.1577690694e+00 
20300 5.6644888096e+00 7.5597869325e-02 1.8210262520e+00 -3.1541099903e+00 1.8210262520e+00 3.1541099903e+00 
20400 5.6643711525e+00 7.4168142638e-02 1.8189509526e+00 -3.1505154664e+00 1.8189509526e+00 3.1505154664e+00 
20500 5.6642548707e+00 7.2756631763e-02 1.8169125724e+00 -3.1469848884e+00 1.8169125724e+00 3.1469848884e+00 
20600 5.6641396924e+00 7.1364017917e-02 1.8149107355e+00 -3.1435176051e+00 1.8149107355e+00 3.1435176051e+00 
20700 5.6640253851e+00 6.9990929542e-02 1.8129450432e+00 -3.1401129262e+00 1.8129450432e+00 3.1401129262e+00 
20800 5.6639117540e+00 6.8637943123e-02 1.8110150758e+00 -3.1367701246e+00 1.8110150758e+00 3.1367701246e+00 
20900 5.6637986398e+00 6.7305584099e-02 1.8091203937e+00 -3.1334884388e+00 1.8091203937e+00 3.1334884388e+00 
21000 5.6636859168e+00 6.5994327832e-02 1.8072605385e+00 -3.1302670752e+00 1.8072605385e+00 3.1302670752e+00 
21100 5.6635734906e+00 6.4704600649e-02 1.8054350351e+00 -3.1271052106e+00 1.8054350351e+00 3.1271052106e+00 
21200 5.6634612957e+00 6.3436780935e-02 1.8036433925e+00 -3.1240019946e+00 1.8036433925e+00 3.1240019946e+00 
21300 5.6633492931e+00 6.2191200288e-02 1.8018851053e+00 -3.1209565518e+00 1.8018851053e+00 3.1209565518e+00 
21400 5.6632374680e+00 6.0968144716e-02 1.8001596550e+00 -3.1179679842e+00 1.8001596550e+00 3.1179679842e+00 
21500 5.6631258272e+00 5.9767855878e-02 1.7984665114e+00 -3.1150353734e+00 1.7984665114e+00 3.1150353734e+00 
21600 5.6630143967e+00 5.8590532367e-02 1.7968051336e+00 -3.1121577828e+00 1.7968051336e+00 3.1121577828e+00 
21700 5.6629032196e+00 5.7436331028e-02 1.7951749718e+00 -3.1093342596e+00 1.7951749718e+00 3.1093342596e+00 
21800 5.6627923535e+00 5.6305368302e-02 1.7935754677e+00 -3.1065638373e+00 1.7935754677e+00 3.1065638373e+00 
21900 5.6626818681e+00 5.5197721606e-02 1.7920060565e+00 -3.1038455374e+00 1.7920060565e+00 3.1038455374e+00 
22000 5.6625718437e+00 5.4113430725e-02 1.7904661675e+00 -3.1011783714e+00 1.7904661675e+00 3.1011783714e+00 
22100 5.6624623683e+00 5.3052499241e-02 1.7889552255e+00 -3.0985613430e+00 1.7889552255e+00 3.0985613430e+00 
22200 5.6623535365e+00 5.2014895959e-02 1.7874726517e+00 -3.0959934498e+00 1.7874726517e+00 3.0959934498e+00 
22300 5.6622454469e+00 5.1000556367e-02 1.7860178648e+00 -3.0934736851e+00 1.7860178648e+00 3.0934736851e+00 
22400 5.6621382009e+00 5.0009384089e-02 1.7845902824e+00 -3.0910010397e+00 1.7845902824e+00 3.0910010397e+00 
22500 5.6620319011e+00 4.9041252359e-02 1.7831893212e+00 -3.0885745038e+00 1.7831893212e+00 3.0885745038e+00 
22600 5.6619266495e+00 4.8096005494e-02 1.7818143986e+00 -3.0861930680e+00 1.7818143986e+00 3.0861930680e+00 
22700 5.6618225468e+00 4.7173460366e-02 1.7804649334e+00 -3.0838557258e+00 1.7804649334e+00 3.0838557258e+00 
22800 5.6617196907e+00 4.6273407878e-02 1.7791403467e+00 -3.0815614742e+00 1.7791403467e+00 3.0815614742e+00 
22900 5.6616181749e+00 4.5395614431e-02 1.7778400623e+00 -3.0793093157e+00 1.7778400623e+00 3.0793093157e+00 
23000 5.6615180888e+00 4.4539823393e-02 1.7765635083e+00 -3.0770982593e+00 1.7765635083e+00 3.0770982593e+00 
23100 5.6614195161e+00 4.3705756542e-02 1.7753101171e+00 -3.0749273220e+00 1.7753101171e+00 3.0749273220e+00 
23200 5.6613225342e+00 4.2893115515e-02 1.7740793264e+00 -3.0727955300e+00 1.7740793264e+00 3.0727955300e+00 
23300 5.6612272140e+00 4.2101583231e-02 1.7728705800e+00 -3.0707019198e+00 1.7728705800e+00 3.0707019198e+00 
23400 5.6611336196e+00 4.1330825298e-02 1.7716833281e+00 -3.0686455391e+00 1.7716833281e+00 3.0686455391e+00 
23500 5.6610418072e+00 4.0580491403e-02 1.7705170280e+00 -3.0666254482e+00 1.7705170280e+00 3.0666254482e+00 
23600 5.6609518258e+00 3.9850216674e-02 1.7693711449e+00 -3.0646407204e+00 1.7693711449e+00 3.0646407204e+00 
23700 5.6608637166e+00 3.9139623028e-02 1.7682451520e+00 -3.0626904435e+00 1.7682451520e+00 3.0626904435e+00 
23800 5.6607775132e+00 3.8448320482e-02 1.7671385312e+00 -3.0607737201e+00 1.7671385312e+00 3.0607737201e+00 
23900 5.6606932413e+00 3.7775908438e-02 1.7660507734e+00 -3.0588896684e+00 1.7660507734e+00 3.0588896684e+00 
24000 5.6606109194e+00 3.7121976941e-02 1.7649813791e+00 -3.0570374231e+00 1.7649813791e+00 3.0570374231e+00 
24100 5.6605305584e+00 3.6486107902e-02 1.7639298584e+00 -3.0552161358e+00 1.7639298584e+00 3.0552161358e+00 
24200 5.6604521622e+00 3.5867876284e-02 1.7628957317e+00 -3.0534249758e+00 1.7628957317e+00 3.0534249758e+00 
24300 5.6603757279e+00 3.5266851260e-02 1.7618785296e+00 -3.0516631301e+00 1.7618785296e+00 3.0516631301e+00 
24400 5.6603012461e+00 3.4682597326e-02 1.7608777935e+00 -3.0499298042e+00 1.7608777935e+00 3.0499298042e+00 
24500 5.6602287014e+00 3.4114675379e-02 1.7598930754e+00 -3.0482242225e+00 1.7598930754e+00 3.0482242225e+00 
24600 5.6601580726e+00 3.3562643758e-02 1.7589239387e+00 -3.0465456284e+00 1.7589239387e+00 3.0465456284e+00 
24700 5.6600893332e+00 3.3026059239e-02 1.7579699574e+00 -3.0448932845e+00 1.7579699574e+00 3.0448932845e+00 
24800 5.6600224520e+00 3.2504477996e-02 1.7570307174e+00 -3.0432664729e+00 1.7570307174e+00 3.0432664729e+00 
24900 5.6599573933e+00 3.1997456511e-02 1.7561058154e+00 -3.0416644957e+00 1.7561058154e+00 3.0416644957e+00 
25000 5.6598941174e+00 3.1504552452e-02 1.7551948598e+00 -3.0400866743e+00 1.7551948598e+00 3.0400866743e+00 
25100 5.6598325812e+00 3.1025325497e-02 1.7542974703e+00 -3.0385323502e+00 1.7542974703e+00 3.0385323502e+00 
25200 5.6597727387e+00 3.0559338126e-02 1.7534132783e+00 -3.0370008846e+00 1.7534132783e+00 3.0370008846e+00 
25300 5.6597145410e+00 3.0106156358e-02 1.7525419262e+00 -3.0354916586e+00 1.7525419262e+00 3.0354916586e+00 
25400 5.6596579374e+00 2.9665350457e-02 1.7516830681e+00 -3.0340040728e+00 1.7516830681e+00 3.0340040728e+00 
25500 5.6596028753e+00 2.9236495584e-02 1.7508363693e+00 -3.0325375474e+00 1.7508363693e+00 3.0325375474e+00 
25600 5.6595493007e+00 2.8819172412e-02 1.7500015063e+00 -3.0310915222e+00 1.7500015063e+00 3.0310915222e+00 
25700 5.6594971588e+00 2.8412967698e-02 1.7491781667e+00 -3.0296654562e+00 1.7491781667e+00 3.0296654562e+00 
25800 5.6594463942e+00 2.8017474812e-02 1.7483660491e+00 -3.0282588272e+00 1.7483660491e+00 3.0282588272e+00 
25900 5.6593969513e+00 2.7632294223e-02 1.7475648629e+00 -3.0268711321e+00 1.7475648629e+00 3.0268711321e+00 
26000 5.6593487745e+00 2.7257033947e-02 1.7467743283e+00 -3.0255018860e+00 1.7467743283e+00 3.0255018860e+00 
26100 5.6593018089e+00 2.6891309951e-02 1.7459941759e+00 -3.0241506224e+00 1.7459941759e+00 3.0241506224e+00 
26200 5.6592560000e+00 2.6534746527e-02 1.7452241466e+00 -3.0228168926e+00 1.7452241466e+00 3.0228168926e+00 
26300 5.6592112944e+00 2.6186976615e-02 1.7444639916e+00 -3.0215002654e+00 1.7444639916e+00 3.0215002654e+00 
26400 5.6591676396e+00 2.5847642096e-02 1.7437134717e+00 -3.0202003268e+00 1.7437134717e+00 3.0202003268e+00 
26500 5.6591249848e+00 2.5516394052e-02 1.7429723577e+00 -3.0189166797e+00 1.7429723577e+00 3.0189166797e+00 
26600 5.6590832806e+00 2.5192892983e-02 1.7422404296e+00 -3.0176489431e+00 1.7422404296e+00 3.0176489431e+00 
26700 5.6590424793e+00 2.4876808997e-02 1.7415174769e+00 -3.0163967522e+00 1.7415174769e+00 3.0163967522e+00 
26800 5.6590025350e+00 2.4567821965e-02 1.7408032978e+00 -3.0151597577e+00 1.7408032978e+00 3.0151597577e+00 
26900 5.6589634037e+00 2.4265621641e-02 1.7400976993e+00 -3.0139376254e+00 1.7400976993e+00 3.0139376254e+00 
27000 5.6589250435e+00 2.3969907763e-02 1.7394004971e+00 -3.0127300357e+00 1.7394004971e+00 3.0127300357e+00 
27100 5.6588874146e+00 2.3680390110e-02 1.7387115148e+00 -3.0115366833e+00 1.7387115148e+00 3.0115366833e+00 
27200 5.6588504791e+00 2.3396788547e-02 1.7380305840e+00 -3.0103572766e+00 1.7380305840e+00 3.0103572766e+00 
27300 5.6588142016e+00 2.3118833033e-02 1.7373575441e+00 -3.0091915373e+00 1.7373575441e+00 3.0091915373e+00 
27400 5.6587785486e+00 2.2846263611e-02 1.7366922419e+00 -3.0080392000e+00 1.7366922419e+00 3.0080392000e+00 
27500 5.6587434888e+00 2.2578830370e-02 1.7360345312e+00 -3.0069000117e+00 1.7360345312e+00 3.0069000117e+00 
27600 5.6587089931e+00 2.2316293392e-02 1.7353842728e+00 -3.0057737312e+00 1.7353842728e+00 3.0057737312e+00 
27700 5.6586750345e+00 2.2058422669e-02 1.7347413341e+00 -3.0046601286e+00 1.7347413341e+00 3.0046601286e+00 
27800 5.6586415880e+00 2.1804998011e-02 1.7341055887e+00 -3.0035589854e+00 1.7341055887e+00 3.0035589854e+00 
27900 5.6586086306e+00 2.1555808929e-02 1.7334769165e+00 -3.0024700932e+00 1.7334769165e+00 3.0024700932e+00 
28000 5.6585761414e+00 2.1310654504e-02 1.7328552030e+00 -3.0013932538e+00 1.7328552030e+00 3.0013932538e+00 
28100 5.6585441011e+00 2.1069343240e-02 1.7322403394e+00 -3.0003282787e+00 1.7322403394e+00 3.0003282787e+00 
28200 5.6585124924e+00 2.0831692906e-02 1.7316322220e+00 -2.9992749885e+00 1.7316322220e+00 2.9992749885e+00 
28300 5.6584812996e+00 2.0597530362e-02 1.7310307523e+00 -2.9982332124e+00 1.7310307523e+00 2.9982332124e+00 
28400 5.6584505086e+00 2.0366691371e-02 1.7304358365e+00 -2.9972027880e+00 1.7304358365e+00 2.9972027880e+00 
28500 5.6584201068e+00 2.0139020408e-02 1.7298473854e+00 -2.9961835609e+00 1.7298473854e+00 2.9961835609e+00 
28600 5.6583900833e+00 1.9914370453e-02 1.7292653141e+00 -2.9951753838e+00 1.7292653141e+00 2.9951753838e+00 
28700 5.6583604280e+00 1.9692602780e-02 1.7286895417e+00 -2.9941781167e+00 1.7286895417e+00 2.9941781167e+00 
28800 5.6583311326e+00 1.9473586731e-02 1.7281199912e+00 -2.9931916263e+00 1.7281199912e+00 2.9931916263e+00 
28900 5.6583021894e+00 1.9257199496e-02 1.7275565891e+00 -2.9922157852e+00 1.7275565891e+00 2.9922157852e+00 
29000 5.6582735922e+00 1.9043325876e-02 1.7269992654e+00 -2.9912504723e+00 1.7269992654e+00 2.9912504723e+00 
29100 5.6582453354e+00 1.8831858048e-02 1.7264479533e+00 -2.9902955717e+00 1.7264479533e+00 2.9902955717e+00 
29200 5.6582174143e+00 1.8622695325e-02 1.7259025889e+00 -2.9893509728e+00 1.7259025889e+00 2.9893509728e+00 
29300 5.6581898252e+00 1.8415743909e-02 1.7253631110e+00 -2.9884165697e+00 1.7253631110e+00 2.9884165697e+00 
29400 5.6581625648e+00 1.8210916651e-02 1.7248294612e+00 -2.9874922611e+00 1.7248294612e+00 2.9874922611e+00 
29500 5.6581356305e+00 1.8008132798e-02 1.7243015833e+00 -2.9865779498e+00 1.7243015833e+00 2.9865779498e+00 
29600 5.6581090201e+00 1.7807317749e-02 1.7237794233e+00 -2.9856735423e+00 1.7237794233e+00 2.9856735423e+00 
29700 5.6580827320e+00 1.7608402806e-02 1.7232629295e+00 -2.9847789487e+00 1.7232629295e+00 2.9847789487e+00 
29800 5.6580567647e+00 1.7411324928e-02 1.7227520518e+00 -2.9838940826e+00 1.7227520518e+00 2.9838940826e+00 
29900 5.6580311172e+00 1.7216026482e-02 1.7222467419e+00 -2.9830188602e+00 1.7222467419e+00 2.9830188602e+00 
30000 5.6580057888e+00 1.7022455001e-02 1.7217469531e+00 -2.9821532005e+00 1.7217469531e+00 2.9821532005e+00 
30100 5.6579807786e+00 1.6830562938e-02 1.7212526400e+00 -2.9812970252e+00 1.7212526400e+00 2.9812970252e+00 
30200 5.6579560862e+00 1.6640307433e-02 1.7207637587e+00 -2.9804502579e+00 1.7207637587e+00 2.9804502579e+00 
30300 5.6579317110e+00 1.6451650067e-02 1.7202802662e+00 -2.9796128243e+00 1.7202802662e+00 2.9796128243e+00 
30400 5.6579076526e+00 1.6264556636e-02 1.7198021206e+00 -2.9787846518e+00 1.7198021206e+00 2.9787846518e+00 
30500 5.6578839105e+00 1.6078996917e-02 1.7193292810e+00 -2.9779656696e+00 1.7193292810e+00 2.9779656696e+00 
30600 5.6578604840e+00 1.5894944444e-02 1.7188617072e+00 -2.9771558080e+00 1.7188617072e+00 2.9771558080e+00 
30700 5.6578373727e+00 1.5712376285e-02 1.7183993596e+00 -2.9763549984e+00 1.7183993596e+00 2.9763549984e+00 
30800 5.6578145756e+00 1.5531272830e-02 1.7179421993e+00 -2.9755631736e+00 1.7179421993e+00 2.9755631736e+00 
30900 5.6577920920e+00 1.5351617571e-02 1.7174901878e+00 -2.9747802667e+00 1.7174901878e+00 2.9747802667e+00 
31000 5.6577699208e+00 1.5173396903e-02 1.7170432871e+00 -2.9740062120e+00 1.7170432871e+00 2.9740062120e+00 
31100 5.6577480608e+00 1.4996599919e-02 1.7166014594e+00 -2.9732409440e+00 1.7166014594e+00 2.9732409440e+00 
31200 5.6577265106e+00 1.4821218214e-02 1.7161646671e+00 -2.9724843976e+00 1.7161646671e+00 2.9724843976e+00 
31300 5.6577052686e+00 1.4647245696e-02 1.7157328730e+00 -2.9717365083e+00 1.7157328730e+00 2.9717365083e+00 
31400 5.6576843331e+00 1.4474678401e-02 1.7153060397e+00 -2.9709972113e+00 1.7153060397e+00 2.9709972113e+00 
31500 5.6576637021e+00 1.4303514312e-02 1.7148841300e+00 -2.9702664423e+00 1.7148841300e+00 2.9702664423e+00 
31600 5.6576433734e+00 1.4133753189e-02 1.7144671067e+00 -2.9695441367e+00 1.7144671067e+00 2.9695441367e+00 
31700 5.6576233448e+00 1.3965396402e-02 1.7140549323e+00 -2.9688302298e+00 1.7140549323e+00 2.9688302298e+00 
31800 5.6576036136e+00 1.3798446767e-02 1.7136475696e+00 -2.9681246568e+00 1.7136475696e+00 2.9681246568e+00 
31900 5.6575841772e+00 1.3632908396e-02 1.7132449808e+00 -2.9674273525e+00 1.7132449808e+00 2.9674273525e+00 
32000 5.6575650326e+00 1.3468786543e-02 1.7128471281e+00 -2.9667382515e+00 1.7128471281e+00 2.9667382515e+00 
32100 5.6575461767e+00 1.3306087466e-02 1.7124539736e+00 -2.9660572880e+00 1.7124539736e+00 2.9660572880e+00 
32200 5.6575276064e+00 1.3144818287e-02 1.7120654790e+00 -2.9653843955e+00 1.7120654790e+00 2.9653843955e+00 
32300 5.6575093183e+00 1.2984986862e-02 1.7116816056e+00 -2.9647195073e+00 1.7116816056e+00 2.9647195073e+00 
32400 5.6574913089e+00 1.2826601659e-02 1.7113023147e+00 -2.9640625561e+00 1.7113023147e+00 2.9640625561e+00 
32500 5.6574735745e+00 1.2669671637e-02 1.7109275669e+00 -2.9634134740e+00 1.7109275669e+00 2.9634134740e+00 
32600 5.6574561114e+00 1.2514206132e-02 1.7105573229e+00 -2.9627721925e+00 1.7105573229e+00 2.9627721925e+00 
32700 5.6574389158e+00 1.2360214754e-02 1.7101915427e+00 -2.9621386426e+00 1.7101915427e+00 2.9621386426e+00 
32800 5.6574219837e+00 1.2207707282e-02 1.7098301861e+00 -2.9615127547e+00 1.7098301861e+00 2.9615127547e+00 
32900 5.6574053112e+00 1.2056693572e-02 1.7094732126e+00 -2.9608944584e+00 1.7094732126e+00 2.9608944584e+00 
33000 5.6573888942e+00 1.1907183463e-02 1.7091205812e+00 -2.9602836828e+00 1.7091205812e+00 2.9602836828e+00 
33100 5.6573727287e+00 1.1759186698e-02 1.7087722506e+00 -2.9596803566e+00 1.7087722506e+00 2.9596803566e+00 
33200 5.6573568104e+00 1.1612712837e-02 1.7084281792e+00 -2.9590844075e+00 1.7084281792e+00 2.9590844075e+00 
33300 5.6573411354e+00 1.1467771193e-02 1.7080883251e+00 -2.9584957629e+00 1.7080883251e+00 2.9584957629e+00 
33400 5.6573256993e+00 1.1324370756e-02 1.7077526459e+00 -2.9579143494e+00 1.7077526459e+00 2.9579143494e+00 
33500 5.6573104981e+00 1.1182520131e-02 1.7074210989e+00 -2.9573400932e+00 1.7074210989e+00 2.9573400932e+00 
33600 5.6572955276e+00 1.1042227480e-02 1.7070936412e+00 -2.9567729199e+00 1.7070936412e+00 2.9567729199e+00 
33700 5.6572807838e+00 1.0903500470e-02 1.7067702296e+00 -2.9562127545e+00 1.7067702296e+00 2.9562127545e+00 
33800 5.6572662624e+00 1.0766346220e-02 1.7064508205e+00 -2.9556595216e+00 1.7064508205e+00 2.9556595216e+00 
33900 5.6572519596e+00 1.0630771259e-02 1.7061353700e+00 -2.9551131454e+00 1.7061353700e+00 2.9551131454e+00 
34000 5.6572378713e+00 1.0496781481e-02 1.7058238341e+00 -2.9545735494e+00 1.7058238341e+00 2.9545735494e+00 
34100 5.6572239936e+00 1.0364382117e-02 1.7055161685e+00 -2.9540406570e+00 1.7055161685e+00 2.9540406570e+00 
34200 5.6572103225e+00 1.0233577696e-02 1.7052123287e+00 -2.9535143910e+00 1.7052123287e+00 2.9535143910e+00 
34300 5.6571968543e+00 1.0104372017e-02 1.7049122700e+00 -2.9529946740e+00 1.7049122700e+00 2.9529946740e+00 
34400 5.6571835853e+00 9.9767681294e-03 1.7046159474e+00 -2.9524814283e+00 1.7046159474e+00 2.9524814283e+00 
34500 5.6571705118e+00 9.8507683080e-03 1.7043233160e+00 -2.9519745758e+00 1.7043233160e+00 2.9519745758e+00 
34600 5.6571576302e+00 9.7263740374e-03 1.7040343306e+00 -2.9514740385e+00 1.7040343306e+00 2.9514740385e+00 
34700 5.6571449370e+00 9.6035859981e-03 1.7037489461e+00 -2.9509797379e+00 1.7037489461e+00 2.9509797379e+00 
34800 5.6571324287e+00 9.4824040560e-03 1.7034671169e+00 -2.9504915956e+00 1.7034671169e+00 2.9504915956e+00 
34900 5.6571201022e+00 9.3628272545e-03 1.7031887979e+00 -2.9500095329e+00 1.7031887979e+00 2.9500095329e+00 
35000 5.6571079540e+00 9.2448538105e-03 1.7029139436e+00 -2.9495334713e+00 1.7029139436e+00 2.9495334713e+00 
35100 5.6570959811e+00 9.1284811121e-03 1.7026425086e+00 -2.9490633321e+00 1.7026425086e+00 2.9490633321e+00 
35200 5.6570841805e+00 9.0137057202e-03 1.7023744476e+00 -2.9485990368e+00 1.7023744476e+00 2.9485990368e+00 
35300 5.6570725490e+00 8.9005233712e-03 1.7021097153e+00 -2.9481405069e+00 1.7021097153e+00 2.9481405069e+00 
35400 5.6570610839e+00 8.7889289836e-03 1.7018482663e+00 -2.9476876641e+00 1.7018482663e+00 2.9476876641e+00 
35500 5.6570497822e+00 8.6789166654e-03 1.7015900557e+00 -2.9472404301e+00 1.7015900557e+00 2.9472404301e+00 
35600 5.6570386414e+00 8.5704797249e-03 1.7013350383e+00 -2.9467987271e+00 1.7013350383e+00 2.9467987271e+00 
35700 5.6570276587e+00 8.4636106825e-03 1.7010831694e+00 -2.9463624774e+00 1.7010831694e+00 2.9463624774e+00 
35800 5.6570168316e+00 8.3583012850e-03 1.7008344043e+00 -2.9459316035e+00 1.7008344043e+00 2.9459316035e+00 
35900 5.6570061576e+00 8.2545425213e-03 1.7005886984e+00 -2.9455060284e+00 1.7005886984e+00 2.9455060284e+00 
36000 5.6569956343e+00 8.1523246397e-03 1.7003460076e+00 -2.9450856755e+00 1.7003460076e+00 2.9450856755e+00 
36100 5.6569852593e+00 8.0516371668e-03 1.7001062877e+00 -2.9446704686e+00 1.7001062877e+00 2.9446704686e+00 
36200 5.6569750304e+00 7.9524689280e-03 1.6998694952e+00 -2.9442603319e+00 1.6998694952e+00 2.9442603319e+00 
36300 5.6569649454e+00 7.8548080687e-03 1.6996355864e+00 -2.9438551901e+00 1.6996355864e+00 2.9438551901e+00 
36400 5.6569550021e+00 7.7586420768e-03 1.6994045184e+00 -2.9434549684e+00 1.6994045184e+00 2.9434549684e+00 
36500 5.6569451985e+00 7.6639578065e-03 1.6991762482e+00 -2.9430595928e+00 1.6991762482e+00 2.9430595928e+00 
36600 5.6569355324e+00 7.5707415031e-03 1.6989507334e+00 -2.9426689897e+00 1.6989507334e+00 2.9426689897e+00 
36700 5.6569260020e+00 7.4789788278e-03 1.6987279318e+00 -2.9422830862e+00 1.6987279318e+00 2.9422830862e+00 
36800 5.6569166054e+00 7.3886548841e-03 1.6985078019e+00 -2.9419018100e+00 1.6985078019e+00 2.9419018100e+00 
36900 5.6569073406e+00 7.2997542441e-03 1.6982903023e+00 -2.9415250895e+00 1.6982903023e+00 2.9415250895e+00 
37000 5.6568982059e+00 7.2122609764e-03 1.6980753920e+00 -2.9411528540e+00 1.6980753920e+00 2.9411528540e+00 
37100 5.6568891994e+00 7.1261586726e-03 1.6978630307e+00 -2.9407850334e+00 1.6978630307e+00 2.9407850334e+00 
37200 5.6568803195e+00 7.0414304761e-03 1.6976531783e+00 -2.9404215584e+00 1.6976531783e+00 2.9404215584e+00 
37300 5.6568715644e+00 6.9580591098e-03 1.6974457953e+00 -2.9400623606e+00 1.6974457953e+00 2.9400623606e+00 
37400 5.6568629324e+00 6.8760269046e-03 1.6972408427e+00 -2.9397073723e+00 1.6972408427e+00 2.9397073723e+00 
37500 5.6568544219e+00 6.7953158277e-03 1.6970382819e+00 -2.9393565266e+00 1.6970382819e+00 2.9393565266e+00 
37600 5.6568460313e+00 6.7159075107e-03 1.6968380748e+00 -2.9390097578e+00 1.6968380748e+00 2.9390097578e+00 
37700 5.6568377591e+00 6.6377832787e-03 1.6966401839e+00 -2.9386670006e+00 1.6966401839e+00 2.9386670006e+00 
37800 5.6568296036e+00 6.5609241778e-03 1.6964445721e+00 -2.9383281911e+00 1.6964445721e+00 2.9383281911e+00 
37900 5.6568215634e+00 6.4853110032e-03 1.6962512030e+00 -2.9379932660e+00 1.6962512030e+00 2.9379932660e+00 
38000 5.6568136370e+00 6.4109243275e-03 1.6960600406e+00 -2.9376621630e+00 1.6960600406e+00 2.9376621630e+00 
38100 5.6568058228e+00 6.3377445273e-03 1.6958710495e+00 -2.9373348208e+00 1.6958710495e+00 2.9373348208e+00 
38200 5.6567981194e+00 6.2657518112e-03 1.6956841948e+00 -2.9370111790e+00 1.6956841948e+00 2.9370111790e+00 
38300 5.6567905254e+00 6.1949262456e-03 1.6954994423e+00 -2.9366911783e+00 1.6954994423e+00 2.9366911783e+00 
38400 5.6567830393e+00 6.1252477815e-03 1.6953167582e+00 -2.9363747602e+00 1.6953167582e+00 2.9363747602e+00 
38500 5.6567756598e+00 6.0566962799e-03 1.6951361094e+00 -2.9360618673e+00 1.6951361094e+00 2.9360618673e+00 
38600 5.6567683854e+00 5.9892515370e-03 1.6949574633e+00 -2.9357524431e+00 1.6949574633e+00 2.9357524431e+00 
38700 5.6567612147e+00 5.9228933089e-03 1.6947807879e+00 -2.9354464323e+00 1.6947807879e+00 2.9354464323e+00 
38800 5.6567541464e+00 5.8576013351e-03 1.6946060517e+00 -2.9351437803e+00 1.6946060517e+00 2.9351437803e+00 
38900 5.6567471791e+00 5.7933553623e-03 1.6944332238e+00 -2.9348444337e+00 1.6944332238e+00 2.9348444337e+00 
39000 5.6567403116e+00 5.7301351665e-03 1.6942622741e+00 -2.9345483401e+00 1.6942622741e+00 2.9345483401e+00 
39100 5.6567335424e+00 5.6679205755e-03 1.6940931728e+00 -2.9342554480e+00 1.6940931728e+00 2.9342554480e+00 
39200 5.6567268702e+00 5.6066914893e-03 1.6939258907e+00 -2.9339657070e+00 1.6939258907e+00 2.9339657070e+00 
39300 5.6567202938e+00 5.5464279010e-03 1.6937603994e+00 -2.9336790676e+00 1.6937603994e+00 2.9336790676e+00 
39400 5.6567138119e+00 5.4871099164e-03 1.6935966709e+00 -2.9333954815e+00 1.6935966709e+00 2.9333954815e+00 
39500 5.6567074232e+00 5.4287177725e-03 1.6934346777e+00 -2.9331149011e+00 1.6934346777e+00 2.9331149011e+00 
39600 5.6567011263e+00 5.3712318561e-03 1.6932743930e+00 -2.9328372799e+00 1.6932743930e+00 2.9328372799e+00 
39700 5.6566949201e+00 5.3146327204e-03 1.6931157906e+00 -2.9325625724e+00 1.6931157906e+00 2.9325625724e+00 
39800 5.6566888033e+00 5.2589011021e-03 1.6929588447e+00 -2.9322907342e+00 1.6929588447e+00 2.9322907342e+00 
39900 5.6566827747e+00 5.2040179364e-03 1.6928035303e+00 -2.9320217216e+00 1.6928035303e+00 2.9320217216e+00 
40000 5.6566768330e+00 5.1499643721e-03 1.6926498225e+00 -2.9317554921e+00 1.6926498225e+00 2.9317554921e+00 
40100 5.6566709771e+00 5.0967217858e-03 1.6924976975e+00 -2.9314920038e+00 1.6924976975e+00 2.9314920038e+00 
40200 5.6566652057e+00 5.0442717945e-03 1.6923471317e+00 -2.9312312162e+00 1.6923471317e+00 2.9312312162e+00 
40300 5.6566595176e+00 4.9925962682e-03 1.6921981021e+00 -2.9309730893e+00 1.6921981021e+00 2.9309730893e+00 
40400 5.6566539117e+00 4.9416773415e-03 1.6920505861e+00 -2.9307175842e+00 1.6920505861e+00 2.9307175842e+00 
40500 5.6566483869e+00 4.8914974242e-03 1.6919045620e+00 -2.9304646629e+00 1.6919045620e+00 2.9304646629e+00 
40600 5.6566429419e+00 4.8420392112e-03 1.6917600081e+00 -2.9302142882e+00 1.6917600081e+00 2.9302142882e+00 
40700 5.6566375757e+00 4.7932856917e-03 1.6916169035e+00 -2.9299664238e+00 1.6916169035e+00 2.9299664238e+00 
40800 5.6566322870e+00 4.7452201572e-03 1.6914752279e+00 -2.9297210344e+00 1.6914752279e+00 2.9297210344e+00 
40900 5.6566270748e+00 4.6978262095e-03 1.6913349611e+00 -2.9294780853e+00 1.6913349611e+00 2.9294780853e+00 
41000 5.6566219381e+00 4.6510877673e-03 1.6911960838e+00 -2.9292375427e+00 1.6911960838e+00 2.9292375427e+00 
41100 5.6566168756e+00 4.6049890722e-03 1.6910585768e+00 -2.9289993736e+00 1.6910585768e+00 2.9289993736e+00 
41200 5.6566118864e+00 4.5595146942e-03 1.6909224216e+00 -2.9287635459e+00 1.6909224216e+00 2.9287635459e+00 
41300 5.6566069694e+00 4.5146495360e-03 1.6907876001e+00 -2.9285300283e+00 1.6907876001e+00 2.9285300283e+00 
41400 5.6566021235e+00 4.4703788375e-03 1.6906540946e+00 -2.9282987899e+00 1.6906540946e+00 2.9282987899e+00 
41500 5.6565973477e+00 4.4266881786e-03 1.6905218878e+00 -2.9280698009e+00 1.6905218878e+00 2.9280698009e+00 
41600 5.6565926410e+00 4.3835634819e-03 1.6903909628e+00 -2.9278430322e+00 1.6903909628e+00 2.9278430322e+00 
41700 5.6565880024e+00 4.3409910147e-03 1.6902613032e+00 -2.9276184552e+00 1.6902613032e+00 2.9276184552e+00 
41800 5.6565834309e+00 4.2989573906e-03 1.6901328930e+00 -2.9273960422e+00 1.6901328930e+00 2.9273960422e+00 
41900 5.6565789256e+00 4.2574495699e-03 1.6900057165e+00 -2.9271757661e+00 1.6900057165e+00 2.9271757661e+00 
42000 5.6565744854e+00 4.2164548598e-03 1.6898797585e+00 -2.9269576003e+00 1.6898797585e+00 2.9269576003e+00 
42100 5.6565701094e+00 4.1759609147e-03 1.6897550039e+00 -2.9267415191e+00 1.6897550039e+00 2.9267415191e+00 
42200 5.6565657967e+00 4.1359557342e-03 1.6896314384e+00 -2.9265274973e+00 1.6896314384e+00 2.9265274973e+00 
42300 5.6565615464e+00 4.0964276629e-03 1.6895090476e+00 -2.9263155103e+00 1.6895090476e+00 2.9263155103e+00 
42400 5.6565573575e+00 4.0573653877e-03 1.6893878178e+00 -2.9261055341e+00 1.6893878178e+00 2.9261055341e+00 
42500 5.6565532292e+00 4.0187579356e-03 1.6892677353e+00 -2.9258975451e+00 1.6892677353e+00 2.9258975451e+00 
42600 5.6565491606e+00 3.9805946712e-03 1.6891487870e+00 -2.9256915206e+00 1.6891487870e+00 2.9256915206e+00 
42700 5.6565451509e+00 3.9428652935e-03 1.6890309599e+00 -2.9254874382e+00 1.6890309599e+00 2.9254874382e+00 
42800 5.6565411991e+00 3.9055598320e-03 1.6889142415e+00 -2.9252852760e+00 1.6889142415e+00 2.9252852760e+00 
42900 5.6565373044e+00 3.8686686429e-03 1.6887986195e+00 -2.9250850127e+00 1.6887986195e+00 2.9250850127e+00 
43000 5.6565334661e+00 3.8321824048e-03 1.6886840817e+00 -2.9248866274e+00 1.6886840817e+00 2.9248866274e+00 
43100 5.6565296832e+00 3.7960921142e-03 1.6885706164e+00 -2.9246900998e+00 1.6885706164e+00 2.9246900998e+00 
43200 5.6565259551e+00 3.7603890803e-03 1.6884582122e+00 -2.9244954099e+00 1.6884582122e+00 2.9244954099e+00 
43300 5.6565222808e+00 3.7250649197e-03 1.6883468577e+00 -2.9243025383e+00 1.6883468577e+00 2.9243025383e+00 
43400 5.6565186597e+00 3.6901115515e-03 1.6882365420e+00 -2.9241114659e+00 1.6882365420e+00 2.9241114659e+00 
43500 5.6565150910e+00 3.6555211909e-03 1.6881272542e+00 -2.9239221739e+00 1.6881272542e+00 2.9239221739e+00 
43600 5.6565115739e+00 3.6212863433e-03 1.6880189839e+00 -2.9237346442e+00 1.6880189839e+00 2.9237346442e+00 
43700 5.6565081077e+00 3.5873997987e-03 1.6879117206e+00 -2.9235488588e+00 1.6879117206e+00 2.9235488588e+00 
43800 5.6565046916e+00 3.5538546246e-03 1.6878054543e+00 -2.9233648002e+00 1.6878054543e+00 2.9233648002e+00 
43900 5.6565013250e+00 3.5206441601e-03 1.6877001751e+00 -2.9231824512e+00 1.6877001751e+00 2.9231824512e+00 
44000 5.6564980070e+00 3.4877620088e-03 1.6875958732e+00 -2.9230017950e+00 1.6875958732e+00 2.9230017950e+00 
44100 5.6564947372e+00 3.4552020322e-03 1.6874925390e+00 -2.9228228149e+00 1.6874925390e+00 2.9228228149e+00 
44200 5.6564915146e+00 3.4229583430e-03 1.6873901632e+00 -2.9226454949e+00 1.6873901632e+00 2.9226454949e+00 
44300 5.6564883388e+00 3.3910252976e-03 1.6872887366e+00 -2.9224698189e+00 1.6872887366e+00 2.9224698189e+00 
44400 5.6564852089e+00 3.3593974895e-03 1.6871882502e+00 -2.9222957713e+00 1.6871882502e+00 2.9222957713e+00 
44500 5.6564821244e+00 3.3280697419e-03 1.6870886951e+00 -2.9221233368e+00 1.6870886951e+00 2.9221233368e+00 
44600 5.6564790846e+00 3.2970371008e-03 1.6869900626e+00 -2.9219525002e+00 1.6869900626e+00 2.9219525002e+00 
44700 5.6564760889e+00 3.2662948274e-03 1.6868923440e+00 -2.9217832467e+00 1.6868923440e+00 2.9217832467e+00 
44800 5.6564731366e+00 3.2358383912e-03 1.6867955309e+00 -2.9216155616e+00 1.6867955309e+00 2.9216155616e+00 
44900 5.6564702271e+00 3.2056634627e-03 1.6866996151e+00 -2.9214494305e+00 1.6866996151e+00 2.9214494305e+00 
45000 5.6564673599e+00 3.1757659061e-03 1.6866045883e+00 -2.9212848393e+00 1.6866045883e+00 2.9212848393e+00 
45100 5.6564645343e+00 3.1461417723e-03 1.6865104425e+00 -2.9211217739e+00 1.6865104425e+00 2.9211217739e+00 
45200 5.6564617497e+00 3.1167872916e-03 1.6864171696e+00 -2.9209602205e+00 1.6864171696e+00 2.9209602205e+00 
45300 5.6564590056e+00 3.0876988665e-03 1.6863247619e+00 -2.9208001657e+00 1.6863247619e+00 2.9208001657e+00 
45400 5.6564563013e+00 3.0588730651e-03 1.6862332116e+00 -2.9206415959e+00 1.6862332116e+00 2.9206415959e+00 
45500 5.6564536364e+00 3.0303066135e-03 1.6861425111e+00 -2.9204844980e+00 1.6861425111e+00 2.9204844980e+00 
45600 5.6564510102e+00 3.0019963894e-03 1.6860526527e+00 -2.9203288587e+00 1.6860526527e+00 2.9203288587e+00 
45700 5.6564484222e+00 2.9739394152e-03 1.6859636291e+00 -2.9201746653e+00 1.6859636291e+00 2.9201746653e+00 
45800 5.6564458719e+00 2.9461328512e-03 1.6858754328e+00 -2.9200219049e+00 1.6858754328e+00 2.9200219049e+00 
45900 5.6564433587e+00 2.9185739888e-03 1.6857880567e+00 -2.9198705649e+00 1.6857880567e+00 2.9198705649e+00 
46000 5.6564408821e+00 2.8912602444e-03 1.6857014933e+00 -2.9197206328e+00 1.6857014933e+00 2.9197206328e+00 
46100 5.6564384416e+00 2.8641891530e-03 1.6856157357e+00 -2.9195720962e+00 1.6856157357e+00 2.9195720962e+00 
46200 5.6564360366e+00 2.8373583616e-03 1.6855307767e+00 -2.9194249429e+00 1.6855307767e+00 2.9194249429e+00 
46300 5.6564336667e+00 2.8107656233e-03 1.6854466093e+00 -2.9192791607e+00 1.6854466093e+00 2.9192791607e+00 
46400 5.6564313314e+00 2.7844087914e-03 1.6853632265e+00 -2.9191347376e+00 1.6853632265e+00 2.9191347376e+00 
46500 5.6564290301e+00 2.7582858134e-03 1.6852806216e+00 -2.9189916616e+00 1.6852806216e+00 2.9189916616e+00 
46600 5.6564267624e+00 2.7323947255e-03 1.6851987877e+00 -2.9188499211e+00 1.6851987877e+00 2.9188499211e+00 
46700 5.6564245278e+00 2.7067336468e-03 1.6851177179e+00 -2.9187095042e+00 1.6851177179e+00 2.9187095042e+00 
46800 5.6564223259e+00 2.6813007742e-03 1.6850374057e+00 -2.9185703992e+00 1.6850374057e+00 2.9185703992e+00 
46900 5.6564201561e+00 2.6560943768e-03 1.6849578442e+00 -2.9184325948e+00 1.6849578442e+00 2.9184325948e+00 
47000 5.6564180180e+00 2.6311127914e-03 1.6848790270e+00 -2.9182960794e+00 1.6848790270e+00 2.9182960794e+00 
47100 5.6564159112e+00 2.6063544168e-03 1.6848009474e+00 -2.9181608416e+00 1.6848009474e+00 2.9181608416e+00 
47200 5.6564138352e+00 2.5818177098e-03 1.6847235990e+00 -2.9180268702e+00 1.6847235990e+00 2.9180268702e+00 
47300 5.6564117895e+00 2.5575011802e-03 1.6846469752e+00 -2.9178941539e+00 1.6846469752e+00 2.9178941539e+00 
47400 5.6564097738e+00 2.5334033865e-03 1.6845710696e+00 -2.9177626816e+00 1.6845710696e+00 2.9177626816e+00 
47500 5.6564077876e+00 2.5095229316e-03 1.6844958759e+00 -2.9176324422e+00 1.6844958759e+00 2.9176324422e+00 
47600 5.6564058304e+00 2.4858584587e-03 1.6844213876e+00 -2.9175034247e+00 1.6844213876e+00 2.9175034247e+00 
47700 5.6564039019e+00 2.4624086474e-03 1.6843475984e+00 -2.9173756181e+00 1.6843475984e+00 2.9173756181e+00 
47800 5.6564020017e+00 2.4391722102e-03 1.6842745022e+00 -2.9172490116e+00 1.6842745022e+00 2.9172490116e+00 
47900 5.6564001293e+00 2.4161478882e-03 1.6842020925e+00 -2.9171235944e+00 1.6842020925e+00 2.9171235944e+00 
48000 5.6563982844e+00 2.3933344486e-03 1.6841303633e+00 -2.9169993558e+00 1.6841303633e+00 2.9169993558e+00 
48100 5.6563964665e+00 2.3707306807e-03 1.6840593083e+00 -2.9168762849e+00 1.6840593083e+00 2.9168762849e+00 
48200 5.6563946752e+00 2.3483353931e-03 1.6839889214e+00 -2.9167543712e+00 1.6839889214e+00 2.9167543712e+00 
48300 5.6563929102e+00 2.3261474107e-03 1.6839191965e+00 -2.9166336041e+00 1.6839191965e+00 2.9166336041e+00 
48400 5.6563911712e+00 2.3041655719e-03 1.6838501275e+00 -2.9165139732e+00 1.6838501275e+00 2.9165139732e+00 
48500 5.6563894576e+00 2.2823887262e-03 1.6837817084e+00 -2.9163954678e+00 1.6837817084e+00 2.9163954678e+00 
48600 5.6563877692e+00 2.2608157311e-03 1.6837139332e+00 -2.9162780777e+00 1.6837139332e+00 2.9162780777e+00 
48700 5.6563861056e+00 2.2394454507e-03 1.6836467959e+00 -2.9161617925e+00 1.6836467959e+00 2.9161617925e+00 
48800 5.6563844664e+00 2.2182767525e-03 1.6835802905e+00 -2.9160466018e+00 1.6835802905e+00 2.9160466018e+00 
48900 5.6563828512e+00 2.1973085062e-03 1.6835144112e+00 -2.9159324955e+00 1.6835144112e+00 2.9159324955e+00 
49000 5.6563812598e+00 2.1765395812e-03 1.6834491521e+00 -2.9158194633e+00 1.6834491521e+00 2.9158194633e+00 
49100 5.6563796918e+00 2.1559688454e-03 1.6833845072e+00 -2.9157074952e+00 1.6833845072e+00 2.9157074952e+00 
49200 5.6563781468e+00 2.1355951628e-03 1.6833204709e+00 -2.9155965810e+00 1.6833204709e+00 2.9155965810e+00 
49300 5.6563766246e+00 2.1154173930e-03 1.6832570373e+00 -2.9154867108e+00 1.6832570373e+00 2.9154867108e+00 
49400 5.6563751247e+00 2.0954343890e-03 1.6831942007e+00 -2.9153778745e+00 1.6831942007e+00 2.9153778745e+00 
49500 5.6563736469e+00 2.0756449963e-03 1.6831319553e+00 -2.9152700624e+00 1.6831319553e+00 2.9152700624e+00 
49600 5.6563721908e+00 2.0560480518e-03 1.6830702954e+00 -2.9151632644e+00 1.6830702954e+00 2.9151632644e+00 
49700 5.6563707561e+00 2.0366423827e-03 1.6830092155e+00 -2.9150574709e+00 1.6830092155e+00 2.9150574709e+00 
49800 5.6563693425e+00 2.0174268056e-03 1.6829487099e+00 -2.9149526721e+00 1.6829487099e+00 2.9149526721e+00 
49900 5.6563679497e+00 1.9984001258e-03 1.6828887730e+00 -2.9148488583e+00 1.6828887730e+00 2.9148488583e+00 
50000 5.6563665775e+00 1.9795611367e-03 1.6828293993e+00 -2.9147460200e+00 1.6828293993e+00 2.9147460200e+00 
50100 5.6563652254e+00 1.9609086188e-03 1.6827705832e+00 -2.9146441475e+00 1.6827705832e+00 2.9146441475e+00 
50200 5.6563638933e+00 1.9424413399e-03 1.6827123192e+00 -2.9145432314e+00 1.6827123192e+00 2.9145432314e+00 
50300 5.6563625807e+00 1.9241580539e-03 1.6826546020e+00 -2.9144432622e+00 1.6826546020e+00 2.9144432622e+00 
50400 5.6563612875e+00 1.9060575013e-03 1.6825974260e+00 -2.9143442306e+00 1.6825974260e+00 2.9143442306e+00 
50500 5.6563600133e+00 1.8881384085e-03 1.6825407860e+00 -2.9142461272e+00 1.6825407860e+00 2.9142461272e+00 
50600 5.6563587580e+00 1.8703994876e-03 1.6824846766e+00 -2.9141489428e+00 1.6824846766e+00 2.9141489428e+00 
50700 5.6563575211e+00 1.8528394367e-03 1.6824290924e+00 -2.9140526682e+00 1.6824290924e+00 2.9140526682e+00 
50800 5.6563563024e+00 1.8354569396e-03 1.6823740283e+00 -2.9139572944e+00 1.6823740283e+00 2.9139572944e+00 
50900 5.6563551017e+00 1.8182506663e-03 1.6823194790e+00 -2.9138628122e+00 1.6823194790e+00 2.9138628122e+00 
51000 5.6563539188e+00 1.8012192725e-03 1.6822654393e+00 -2.9137692127e+00 1.6822654393e+00 2.9137692127e+00 
51100 5.6563527532e+00 1.7843614004e-03 1.6822119041e+00 -2.9136764869e+00 1.6822119041e+00 2.9136764869e+00 
51200 5.6563516049e+00 1.7676756787e-03 1.6821588682e+00 -2.9135846261e+00 1.6821588682e+00 2.9135846261e+00 
51300 5.6563504735e+00 1.7511607229e-03 1.6821063266e+00 -2.9134936214e+00 1.6821063266e+00 2.9134936214e+00 
51400 5.6563493588e+00 1.7348151358e-03 1.6820542742e+00 -2.9134034641e+00 1.6820542742e+00 2.9134034641e+00 
51500 5.6563482605e+00 1.7186375080e-03 1.6820027061e+00 -2.9133141455e+00 1.6820027061e+00 2.9133141455e+00 
51600 5.6563471785e+00 1.7026264179e-03 1.6819516174e+00 -2.9132256572e+00 1.6819516174e+00 2.9132256572e+00 
51700 5.6563461124e+00 1.6867804329e-03 1.6819010030e+00 -2.9131379906e+00 1.6819010030e+00 2.9131379906e+00 
51800 5.6563450621e+00 1.6710981093e-03 1.6818508582e+00 -2.9130511372e+00 1.6818508582e+00 2.9130511372e+00 
51900 5.6563440273e+00 1.6555779934e-03 1.6818011781e+00 -2.9129650888e+00 1.6818011781e+00 2.9129650888e+00 
52000 5.6563430078e+00 1.6402186214e-03 1.6817519580e+00 -2.9128798370e+00 1.6817519580e+00 2.9128798370e+00 
52100 5.6563420033e+00 1.6250185211e-03 1.6817031931e+00 -2.9127953736e+00 1.6817031931e+00 2.9127953736e+00 
52200 5.6563410137e+00 1.6099762114e-03 1.6816548786e+00 -2.9127116906e+00 1.6816548786e+00 2.9127116906e+00 
52300 5.6563400387e+00 1.5950902039e-03 1.6816070100e+00 -2.9126287798e+00 1.6816070100e+00 2.9126287798e+00 
52400 5.6563390781e+00 1.5803590029e-03 1.6815595827e+00 -2.9125466332e+00 1.6815595827e+00 2.9125466332e+00 
52500 5.6563381318e+00 1.5657811067e-03 1.6815125921e+00 -2.9124652430e+00 1.6815125921e+00 2.9124652430e+00 
52600 5.6563371994e+00 1.5513550079e-03 1.6814660336e+00 -2.9123846013e+00 1.6814660336e+00 2.9123846013e+00 
52700 5.6563362808e+00 1.5370791942e-03 1.6814199027e+00 -2.9123047004e+00 1.6814199027e+00 2.9123047004e+00 
52800 5.6563353758e+00 1.5229521495e-03 1.6813741952e+00 -2.9122255326e+00 1.6813741952e+00 2.9122255326e+00 
52900 5.6563344842e+00 1.5089723541e-03 1.6813289065e+00 -2.9121470902e+00 1.6813289065e+00 2.9121470902e+00 
53000 5.6563336058e+00 1.4951382860e-03 1.6812840323e+00 -2.9120693659e+00 1.6812840323e+00 2.9120693659e+00 
53100 5.6563327404e+00 1.4814484211e-03 1.6812395683e+00 -2.9119923520e+00 1.6812395683e+00 2.9119923520e+00 
53200 5.6563318878e+00 1.4679012344e-03 1.6811955103e+00 -2.9119160412e+00 1.6811955103e+00 2.9119160412e+00 
53300 5.6563310479e+00 1.4544952007e-03 1.6811518540e+00 -2.9118404263e+00 1.6811518540e+00 2.9118404263e+00 
53400 5.6563302203e+00 1.4412287949e-03 1.6811085953e+00 -2.9117655001e+00 1.6811085953e+00 2.9117655001e+00 
53500 5.6563294051e+00 1.4281004936e-03 1.6810657300e+00 -2.9116912553e+00 1.6810657300e+00 2.9116912553e+00 
53600 5.6563286019e+00 1.4151087748e-03 1.6810232542e+00 -2.9116176849e+00 1.6810232542e+00 2.9116176849e+00 
53700 5.6563278106e+00 1.4022521195e-03 1.6809811637e+00 -2.9115447820e+00 1.6809811637e+00 2.9115447820e+00 
53800 5.6563270311e+00 1.3895290119e-03 1.6809394545e+00 -2.9114725396e+00 1.6809394545e+00 2.9114725396e+00 
53900 5.6563262631e+00 1.3769379403e-03 1.6808981227e+00 -2.9114009509e+00 1.6808981227e+00 2.9114009509e+00 
54000 5.6563255065e+00 1.3644773978e-03 1.6808571645e+00 -2.9113300092e+00 1.6808571645e+00 2.9113300092e+00 
54100 5.6563247611e+00 1.3521458829e-03 1.6808165759e+00 -2.9112597077e+00 1.6808165759e+00 2.9112597077e+00 
54200 5.6563240268e+00 1.3399419001e-03 1.6807763532e+00 -2.9111900399e+00 1.6807763532e+00 2.9111900399e+00 
54300 5.6563233033e+00 1.3278639609e-03 1.6807364926e+00 -2.9111209993e+00 1.6807364926e+00 2.9111209993e+00 
54400 5.6563225906e+00 1.3159105839e-03 1.6806969903e+00 -2.9110525793e+00 1.6806969903e+00 2.9110525793e+00 
54500 5.6563218885e+00 1.3040802958e-03 1.6806578427e+00 -2.9109847736e+00 1.6806578427e+00 2.9109847736e+00 
54600 5.6563211968e+00 1.2923716317e-03 1.6806190461e+00 -2.9109175760e+00 1.6806190461e+00 2.9109175760e+00 
54700 5.6563205154e+00 1.2807831362e-03 1.6805805970e+00 -2.9108509802e+00 1.6805805970e+00 2.9108509802e+00 
54800 5.6563198441e+00 1.2693133631e-03 1.6805424917e+00 -2.9107849800e+00 1.6805424917e+00 2.9107849800e+00 
54900 5.6563191827e+00 1.2579608768e-03 1.6805047269e+00 -2.9107195693e+00 1.6805047269e+00 2.9107195693e+00 
55000 5.6563185312e+00 1.2467242522e-03 1.6804672990e+00 -2.9106547422e+00 1.6804672990e+00 2.9106547422e+00 
55100 5.6563178894e+00 1.2356020755e-03 1.6804302045e+00 -2.9105904928e+00 1.6804302045e+00 2.9105904928e+00 
55200 5.6563172571e+00 1.2245929446e-03 1.6803934402e+00 -2.9105268151e+00 1.6803934402e+00 2.9105268151e+00 
55300 5.6563166342e+00 1.2136954694e-03 1.6803570026e+00 -2.9104637034e+00 1.6803570026e+00 2.9104637034e+00 
55400 5.6563160206e+00 1.2029082723e-03 1.6803208886e+00 -2.9104011520e+00 1.6803208886e+00 2.9104011520e+00 
55500 5.6563154160e+00 1.1922299888e-03 1.6802850947e+00 -2.9103391552e+00 1.6802850947e+00 2.9103391552e+00 
55600 5.6563148205e+00 1.1816592676e-03 1.6802496178e+00 -2.9102777074e+00 1.6802496178e+00 2.9102777074e+00 
55700 5.6563142338e+00 1.1711947710e-03 1.6802144547e+00 -2.9102168032e+00 1.6802144547e+00 2.9102168032e+00 
55800 5.6563136559e+00 1.1608351753e-03 1.6801796023e+00 -2.9101564370e+00 1.6801796023e+00 2.9101564370e+00 
55900 5.6563130866e+00 1.1505791712e-03 1.6801450574e+00 -2.9100966036e+00 1.6801450574e+00 2.9100966036e+00 
56000 5.6563125257e+00 1.1404254638e-03 1.6801108171e+00 -2.9100372975e+00 1.6801108171e+00 2.9100372975e+00 
56100 5.6563119732e+00 1.1303727732e-03 1.6800768782e+00 -2.9099785137e+00 1.6800768782e+00 2.9099785137e+00 
56200 5.6563114289e+00 1.1204198344e-03 1.6800432378e+00 -2.9099202468e+00 1.6800432378e+00 2.9099202468e+00 
56300 5.6563108927e+00 1.1105653977e-03 1.6800098929e+00 -2.9098624918e+00 1.6800098929e+00 2.9098624918e+00 
56400 5.6563103644e+00 1.1008082291e-03 1.6799768407e+00 -2.9098052436e+00 1.6799768407e+00 2.9098052436e+00 
56500 5.6563098441e+00 1.0911471100e-03 1.6799440782e+00 -2.9097484973e+00 1.6799440782e+00 2.9097484973e+00 
56600 5.6563093315e+00 1.0815808377e-03 1.6799116026e+00 -2.9096922480e+00 1.6799116026e+00 2.9096922480e+00 
56700 5.6563088265e+00 1.0721082255e-03 1.6798794111e+00 -2.9096364907e+00 1.6798794111e+00 2.9096364907e+00 
56800 5.6563083291e+00 1.0627281026e-03 1.6798475009e+00 -2.9095812206e+00 1.6798475009e+00 2.9095812206e+00 
56900 5.6563078391e+00 1.0534393144e-03 1.6798158694e+00 -2.9095264331e+00 1.6798158694e+00 2.9095264331e+00 
57000 5.6563073563e+00 1.0442407227e-03 1.6797845137e+00 -2.9094721234e+00 1.6797845137e+00 2.9094721234e+00 
57100 5.6563068808e+00 1.0351312054e-03 1.6797534312e+00 -2.9094182870e+00 1.6797534312e+00 2.9094182870e+00 
57200 5.6563064124e+00 1.0261096567e-03 1.6797226193e+00 -2.9093649192e+00 1.6797226193e+00 2.9093649192e+00 
57300 5.6563059509e+00 1.0171749871e-03 1.6796920753e+00 -2.9093120156e+00 1.6796920753e+00 2.9093120156e+00 
57400 5.6563054963e+00 1.0083261236e-03 1.6796617968e+00 -2.9092595716e+00 1.6796617968e+00 2.9092595716e+00 
57500 5.6563050485e+00 9.9956200934e-04 1.6796317812e+00 -2.9092075830e+00 1.6796317812e+00 2.9092075830e+00 
57600 5.6563046074e+00 9.9088160389e-04 1.6796020259e+00 -2.9091560453e+00 1.6796020259e+00 2.9091560453e+00 
57700 5.6563041729e+00 9.8228388295e-04 1.6795725284e+00 -2.9091049542e+00 1.6795725284e+00 2.9091049542e+00 
57800 5.6563037448e+00 9.7376783844e-04 1.6795432864e+00 -2.9090543056e+00 1.6795432864e+00 2.9090543056e+00 
57900 5.6563033231e+00 9.6533247837e-04 1.6795142975e+00 -2.9090040952e+00 1.6795142975e+00 2.9090040952e+00 
58000 5.6563029078e+00 9.5697682676e-04 1.6794855591e+00 -2.9089543189e+00 1.6794855591e+00 2.9089543189e+00 
58100 5.6563024986e+00 9.4869992354e-04 1.6794570690e+00 -2.9089049726e+00 1.6794570690e+00 2.9089049726e+00 
58200 5.6563020955e+00 9.4050082445e-04 1.6794288248e+00 -2.9088560523e+00 1.6794288248e+00 2.9088560523e+00 
58300 5.6563016985e+00 9.3237860087e-04 1.6794008243e+00 -2.9088075540e+00 1.6794008243e+00 2.9088075540e+00 
58400 5.6563013074e+00 9.2433233972e-04 1.6793730651e+00 -2.9087594736e+00 1.6793730651e+00 2.9087594736e+00 
58500 5.6563009221e+00 9.1636114329e-04 1.6793455450e+00 -2.9087118074e+00 1.6793455450e+00 2.9087118074e+00 
58600 5.6563005426e+00 9.0846412911e-04 1.6793182618e+00 -2.9086645515e+00 1.6793182618e+00 2.9086645515e+00 
58700 5.6563001687e+00 9.0064042974e-04 1.6792912133e+00 -2.9086177021e+00 1.6792912133e+00 2.9086177021e+00 
58800 5.6562998004e+00 8.9288919261e-04 1.6792643973e+00 -2.9085712554e+00 1.6792643973e+00 2.9085712554e+00 
58900 5.6562994377e+00 8.8520957986e-04 1.6792378116e+00 -2.9085252077e+00 1.6792378116e+00 2.9085252077e+00 
59000 5.6562990803e+00 8.7760076809e-04 1.6792114542e+00 -2.9084795553e+00 1.6792114542e+00 2.9084795553e+00 
59100 5.6562987283e+00 8.7006194822e-04 1.6791853229e+00 -2.9084342947e+00 1.6791853229e+00 2.9084342947e+00 
59200 5.6562983816e+00 8.6259232525e-04 1.6791594157e+00 -2.9083894221e+00 1.6791594157e+00 2.9083894221e+00 
59300 5.6562980400e+00 8.5519111803e-04 1.6791337306e+00 -2.9083449340e+00 1.6791337306e+00 2.9083449340e+00 
59400 5.6562977036e+00 8.4785755908e-04 1.6791082654e+00 -2.9083008271e+00 1.6791082654e+00 2.9083008271e+00 
59500 5.6562973722e+00 8.4059089435e-04 1.6790830182e+00 -2.9082570976e+00 1.6790830182e+00 2.9082570976e+00 
59600 5.6562970457e+00 8.3339038297e-04 1.6790579870e+00 -2.9082137423e+00 1.6790579870e+00 2.9082137423e+00 
59700 5.6562967241e+00 8.2625529706e-04 1.6790331699e+00 -2.9081707578e+00 1.6790331699e+00 2.9081707578e+00 
59800 5.6562964074e+00 8.1918492145e-04 1.6790085648e+00 -2.9081281406e+00 1.6790085648e+00 2.9081281406e+00 
59900 5.6562960953e+00 8.1217855347e-04 1.6789841700e+00 -2.9080858875e+00 1.6789841700e+00 2.9080858875e+00 
60000 5.6562957880e+00 8.0523550270e-04 1.6789599834e+00 -2.9080439952e+00 1.6789599834e+00 2.9080439952e+00 
60100 5.6562954852e+00 7.9835509074e-04 1.6789360033e+00 -2.9080024604e+00 1.6789360033e+00 2.9080024604e+00 
60200 5.6562951870e+00 7.9153665092e-04 1.6789122277e+00 -2.9079612799e+00 1.6789122277e+00 2.9079612799e+00 
60300 5.6562948933e+00 7.8477952811e-04 1.6788886549e+00 -2.9079204505e+00 1.6788886549e+00 2.9079204505e+00 
60400 5.6562946039e+00 7.7808307845e-04 1.6788652830e+00 -2.9078799691e+00 1.6788652830e+00 2.9078799691e+00 
60500 5.6562943189e+00 7.7144666908e-04 1.6788421101e+00 -2.9078398326e+00 1.6788421101e+00 2.9078398326e+00 
60600 5.6562940381e+00 7.6486967794e-04 1.6788191346e+00 -2.9078000379e+00 1.6788191346e+00 2.9078000379e+00 
60700 5.6562937615e+00 7.5835149348e-04 1.6787963547e+00 -2.9077605819e+00 1.6787963547e+00 2.9077605819e+00 
60800 5.6562934891e+00 7.5189151444e-04 1.6787737686e+00 -2.9077214616e+00 1.6787737686e+00 2.9077214616e+00 
60900 5.6562932208e+00 7.4548914959e-04 1.6787513745e+00 -2.9076826740e+00 1.6787513745e+00 2.9076826740e+00 
61000 5.6562929565e+00 7.3914381749e-04 1.6787291709e+00 -2.9076442162e+00 1.6787291709e+00 2.9076442162e+00 
61100 5.6562926961e+00 7.3285494627e-04 1.6787071560e+00 -2.9076060852e+00 1.6787071560e+00 2.9076060852e+00 
61200 5.6562924397e+00 7.2662197335e-04 1.6786853281e+00 -2.9075682781e+00 1.6786853281e+00 2.9075682781e+00 
61300 5.6562921871e+00 7.2044434522e-04 1.6786636855e+00 -2.9075307922e+00 1.6786636855e+00 2.9075307922e+00 
61400 5.6562919383e+00 7.1432151724e-04 1.6786422267e+00 -2.9074936244e+00 1.6786422267e+00 2.9074936244e+00 
61500 5.6562916932e+00 7.0825295333e-04 1.6786209500e+00 -2.9074567720e+00 1.6786209500e+00 2.9074567720e+00 
61600 5.6562914518e+00 7.0223812583e-04 1.6785998538e+00 -2.9074202323e+00 1.6785998538e+00 2.9074202323e+00 
61700 5.6562912140e+00 6.9627651521e-04 1.6785789364e+00 -2.9073840024e+00 1.6785789364e+00 2.9073840024e+00 
61800 5.6562909798e+00 6.9036760987e-04 1.6785581964e+00 -2.9073480796e+00 1.6785581964e+00 2.9073480796e+00 
61900 5.6562907491e+00 6.8451090592e-04 1.6785376321e+00 -2.9073124613e+00 1.6785376321e+00 2.9073124613e+00 
62000 5.6562905218e+00 6.7870590697e-04 1.6785172421e+00 -2.9072771447e+00 1.6785172421e+00 2.9072771447e+00 
62100 5.6562902980e+00 6.7295212389e-04 1.6784970247e+00 -2.9072421271e+00 1.6784970247e+00 2.9072421271e+00 
62200 5.6562900775e+00 6.6724907466e-04 1.6784769785e+00 -2.9072074061e+00 1.6784769785e+00 2.9072074061e+00 
62300 5.6562898603e+00 6.6159628412e-04 1.6784571019e+00 -2.9071729788e+00 1.6784571019e+00 2.9071729788e+00 
62400 5.6562896464e+00 6.5599328376e-04 1.6784373935e+00 -2.9071388428e+00 1.6784373935e+00 2.9071388428e+00 
62500 5.6562894357e+00 6.5043961159e-04 1.6784178517e+00 -2.9071049955e+00 1.6784178517e+00 2.9071049955e+00 
62600 5.6562892282e+00 6.4493481189e-04 1.6783984752e+00 -2.9070714344e+00 1.6783984752e+00 2.9070714344e+00 
62700 5.6562890237e+00 6.3947843504e-04 1.6783792624e+00 -2.9070381569e+00 1.6783792624e+00 2.9070381569e+00 
62800 5.6562888224e+00 6.3407003735e-04 1.6783602120e+00 -2.9070051606e+00 1.6783602120e+00 2.9070051606e+00 
62900 5.6562886241e+00 6.2870918089e-04 1.6783413224e+00 -2.9069724429e+00 1.6783413224e+00 2.9069724429e+00 
63000 5.6562884287e+00 6.2339543329e-04 1.6783225924e+00 -2.9069400015e+00 1.6783225924e+00 2.9069400015e+00 
63100 5.6562882363e+00 6.1812836761e-04 1.6783040205e+00 -2.9069078340e+00 1.6783040205e+00 2.9069078340e+00 
63200 5.6562880468e+00 6.1290756215e-04 1.6782856052e+00 -2.9068759379e+00 1.6782856052e+00 2.9068759379e+00 
63300 5.6562878601e+00 6.0773260032e-04 1.6782673453e+00 -2.9068443108e+00 1.6782673453e+00 2.9068443108e+00 
63400 5.6562876762e+00 6.0260307045e-04 1.6782492394e+00 -2.9068129504e+00 1.6782492394e+00 2.9068129504e+00 
63500 5.6562874951e+00 5.9751856568e-04 1.6782312861e+00 -2.9067818544e+00 1.6782312861e+00 2.9067818544e+00 
63600 5.6562873167e+00 5.9247868382e-04 1.6782134841e+00 -2.9067510204e+00 1.6782134841e+00 2.9067510204e+00 
63700 5.6562871410e+00 5.8748302717e-04 1.6781958321e+00 -2.9067204462e+00 1.6781958321e+00 2.9067204462e+00 
63800 5.6562869679e+00 5.8253120243e-04 1.6781783287e+00 -2.9066901295e+00 1.6781783287e+00 2.9066901295e+00 
63900 5.6562867975e+00 5.7762282056e-04 1.6781609727e+00 -2.9066600679e+00 1.6781609727e+00 2.9066600679e+00 
64000 5.6562866296e+00 5.7275749666e-04 1.6781437627e+00 -2.9066302594e+00 1.6781437627e+00 2.9066302594e+00 
64100 5.6562864642e+00 5.6793484983e-04 1.6781266975e+00 -2.9066007017e+00 1.6781266975e+00 2.9066007017e+00 
64200 5.6562863013e+00 5.6315450310e-04 1.6781097759e+00 -2.9065713925e+00 1.6781097759e+00 2.9065713925e+00 
64300 5.6562861409e+00 5.5841608328e-04 1.6780929965e+00 -2.9065423297e+00 1.6780929965e+00 2.9065423297e+00 
64400 5.6562859828e+00 5.5371922086e-04 1.6780763581e+00 -2.9065135112e+00 1.6780763581e+00 2.9065135112e+00 
64500 5.6562858272e+00 5.4906354996e-04 1.6780598595e+00 -2.9064849347e+00 1.6780598595e+00 2.9064849347e+00 
64600 5.6562856739e+00 5.4444870815e-04 1.6780434994e+00 -2.9064565983e+00 1.6780434994e+00 2.9064565983e+00 
64700 5.6562855229e+00 5.3987433643e-04 1.6780272767e+00 -2.9064284998e+00 1.6780272767e+00 2.9064284998e+00 
64800 5.6562853742e+00 5.3534007912e-04 1.6780111902e+00 -2.9064006371e+00 1.6780111902e+00 2.9064006371e+00 
64900 5.6562852277e+00 5.3084558377e-04 1.6779952386e+00 -2.9063730081e+00 1.6779952386e+00 2.9063730081e+00 
65000 5.6562850834e+00 5.2639050108e-04 1.6779794208e+00 -2.9063456108e+00 1.6779794208e+00 2.9063456108e+00 
65100 5.6562849413e+00 5.2197448483e-04 1.6779637355e+00 -2.9063184432e+00 1.6779637355e+00 2.9063184432e+00 
65200 5.6562848013e+00 5.1759719181e-04 1.6779481817e+00 -2.9062915033e+00 1.6779481817e+00 2.9062915033e+00 
65300 5.6562846634e+00 5.1325828176e-04 1.6779327583e+00 -2.9062647890e+00 1.6779327583e+00 2.9062647890e+00 
65400 5.6562845276e+00 5.0895741728e-04 1.6779174639e+00 -2.9062382984e+00 1.6779174639e+00 2.9062382984e+00 
65500 5.6562843939e+00 5.0469426380e-04 1.6779022976e+00 -2.9062120296e+00 1.6779022976e+00 2.9062120296e+00 
65600 5.6562842622e+00 5.0046848951e-04 1.6778872582e+00 -2.9061859805e+00 1.6778872582e+00 2.9061859805e+00 
65700 5.6562841324e+00 4.9627976530e-04 1.6778723445e+00 -2.9061601494e+00 1.6778723445e+00 2.9061601494e+00 
65800 5.6562840046e+00 4.9212776470e-04 1.6778575556e+00 -2.9061345342e+00 1.6778575556e+00 2.9061345342e+00 
65900 5.6562838788e+00 4.8801216386e-04 1.6778428903e+00 -2.9061091331e+00 1.6778428903e+00 2.9061091331e+00 
66000 5.6562837548e+00 4.8393264151e-04 1.6778283474e+00 -2.9060839442e+00 1.6778283474e+00 2.9060839442e+00 
66100 5.6562836327e+00 4.7988887887e-04 1.6778139261e+00 -2.9060589656e+00 1.6778139261e+00 2.9060589656e+00 
66200 5.6562835124e+00 4.7588055965e-04 1.6777996251e+00 -2.9060341955e+00 1.6777996251e+00 2.9060341955e+00 
66300 5.6562833940e+00 4.7190737000e-04 1.6777854434e+00 -2.9060096322e+00 1.6777854434e+00 2.9060096322e+00 
66400 5.6562832773e+00 4.6796899850e-04 1.6777713800e+00 -2.9059852737e+00 1.6777713800e+00 2.9059852737e+00 
66500 5.6562831624e+00 4.6406513608e-04 1.6777574339e+00 -2.9059611183e+00 1.6777574339e+00 2.9059611183e+00 
66600 5.6562830492e+00 4.6019547604e-04 1.6777436040e+00 -2.9059371642e+00 1.6777436040e+00 2.9059371642e+00 
66700 5.6562829377e+00 4.5635971398e-04 1.6777298893e+00 -2.9059134096e+00 1.6777298893e+00 2.9059134096e+00 
66800 5.6562828280e+00 4.5255754783e-04 1.6777162888e+00 -2.9058898529e+00 1.6777162888e+00 2.9058898529e+00 
66900 5.6562827198e+00 4.4878867775e-04 1.6777028015e+00 -2.9058664922e+00 1.6777028015e+00 2.9058664922e+00 
67000 5.6562826133e+00 4.4505280618e-04 1.6776894264e+00 -2.9058433259e+00 1.6776894264e+00 2.9058433259e+00 
67100 5.6562825084e+00 4.4134963779e-04 1.6776761626e+00 -2.9058203522e+00 1.6776761626e+00 2.9058203522e+00 
67200 5.6562824051e+00 4.3767887946e-04 1.6776630090e+00 -2.9057975696e+00 1.6776630090e+00 2.9057975696e+00 
67300 5.6562823033e+00 4.3404024026e-04 1.6776499647e+00 -2.9057749762e+00 1.6776499647e+00 2.9057749762e+00 
67400 5.6562822031e+00 4.3043343145e-04 1.6776370288e+00 -2.9057525705e+00 1.6776370288e+00 2.9057525705e+00 
67500 5.6562821044e+00 4.2685816647e-04 1.6776242002e+00 -2.9057303508e+00 1.6776242002e+00 2.9057303508e+00 
67600 5.6562820072e+00 4.2331416090e-04 1.6776114781e+00 -2.9057083155e+00 1.6776114781e+00 2.9057083155e+00 
67700 5.6562819114e+00 4.1980113248e-04 1.6775988616e+00 -2.9056864630e+00 1.6775988616e+00 2.9056864630e+00 
67800 5.6562818171e+00 4.1631880107e-04 1.6775863496e+00 -2.9056647917e+00 1.6775863496e+00 2.9056647917e+00 
67900 5.6562817242e+00 4.1286688867e-04 1.6775739414e+00 -2.9056432999e+00 1.6775739414e+00 2.9056432999e+00 
68000 5.6562816328e+00 4.0944511940e-04 1.6775616359e+00 -2.9056219862e+00 1.6775616359e+00 2.9056219862e+00 
68100 5.6562815427e+00 4.0605321950e-04 1.6775494324e+00 -2.9056008491e+00 1.6775494324e+00 2.9056008491e+00 
68200 5.6562814539e+00 4.0269091728e-04 1.6775373298e+00 -2.9055798868e+00 1.6775373298e+00 2.9055798868e+00 
68300 5.6562813665e+00 3.9935794320e-04 1.6775253274e+00 -2.9055590980e+00 1.6775253274e+00 2.9055590980e+00 
68400 5.6562812804e+00 3.9605402979e-04 1.6775134242e+00 -2.9055384811e+00 1.6775134242e+00 2.9055384811e+00 
68500 5.6562811957e+00 3.9277891166e-04 1.6775016194e+00 -2.9055180346e+00 1.6775016194e+00 2.9055180346e+00 
68600 5.6562811122e+00 3.8953232553e-04 1.6774899122e+00 -2.9054977571e+00 1.6774899122e+00 2.9054977571e+00 
68700 5.6562810299e+00 3.8631401019e-04 1.6774783016e+00 -2.9054776470e+00 1.6774783016e+00 2.9054776470e+00 
68800 5.6562809489e+00 3.8312370653e-04 1.6774667869e+00 -2.9054577029e+00 1.6774667869e+00 2.9054577029e+00 
68900 5.6562808691e+00 3.7996115749e-04 1.6774553672e+00 -2.9054379234e+00 1.6774553672e+00 2.9054379234e+00 
69000 5.6562807906e+00 3.7682610810e-04 1.6774440417e+00 -2.9054183071e+00 1.6774440417e+00 2.9054183071e+00 
69100 5.6562807132e+00 3.7371830547e-04 1.6774328096e+00 -2.9053988524e+00 1.6774328096e+00 2.9053988524e+00 
69200 5.6562806370e+00 3.7063749877e-04 1.6774216700e+00 -2.9053795581e+00 1.6774216700e+00 2.9053795581e+00 
69300 5.6562805619e+00 3.6758343924e-04 1.6774106222e+00 -2.9053604227e+00 1.6774106222e+00 2.9053604227e+00 
69400 5.6562804880e+00 3.6455588019e-04 1.6773996653e+00 -2.9053414449e+00 1.6773996653e+00 2.9053414449e+00 
69500 5.6562804152e+00 3.6155457699e-04 1.6773887986e+00 -2.9053226233e+00 1.6773887986e+00 2.9053226233e+00 
69600 5.6562803435e+00 3.5857928708e-04 1.6773780213e+00 -2.9053039564e+00 1.6773780213e+00 2.9053039564e+00 
69700 5.6562802728e+00 3.5562976995e-04 1.6773673327e+00 -2.9052854431e+00 1.6773673327e+00 2.9052854431e+00 
69800 5.6562802033e+00 3.5270578716e-04 1.6773567318e+00 -2.9052670820e+00 1.6773567318e+00 2.9052670820e+00 
69900 5.6562801348e+00 3.4980710232e-04 1.6773462181e+00 -2.9052488716e+00 1.6773462181e+00 2.9052488716e+00 
70000 5.6562800673e+00 3.4693348108e-04 1.6773357907e+00 -2.9052308109e+00 1.6773357907e+00 2.9052308109e+00 
70100 5.6562800008e+00 3.4408469116e-04 1.6773254489e+00 -2.9052128984e+00 1.6773254489e+00 2.9052128984e+00 
70200 5.6562799354e+00 3.4126050232e-04 1.6773151920e+00 -2.9051951328e+00 1.6773151920e+00 2.9051951328e+00 
70300 5.6562798709e+00 3.3846068636e-04 1.6773050192e+00 -2.9051775130e+00 1.6773050192e+00 2.9051775130e+00 
70400 5.6562798074e+00 3.3568501711e-04 1.6772949298e+00 -2.9051600376e+00 1.6772949298e+00 2.9051600376e+00 
70500 5.6562797449e+00 3.3293327046e-04 1.6772849230e+00 -2.9051427055e+00 1.6772849230e+00 2.9051427055e+00 
70600 5.6562796833e+00 3.3020522432e-04 1.6772749983e+00 -2.9051255153e+00 1.6772749983e+00 2.9051255153e+00 
70700 5.6562796227e+00 3.2750065861e-04 1.6772651548e+00 -2.9051084659e+00 1.6772651548e+00 2.9051084659e+00 
70800 5.6562795630e+00 3.2481935530e-04 1.6772553919e+00 -2.9050915560e+00 1.6772553919e+00 2.9050915560e+00 
70900 5.6562795041e+00 3.2216109835e-04 1.6772457088e+00 -2.9050747844e+00 1.6772457088e+00 2.9050747844e+00 
71000 5.6562794462e+00 3.1952567376e-04 1.6772361050e+00 -2.9050581501e+00 1.6772361050e+00 2.9050581501e+00 
71100 5.6562793892e+00 3.1691286951e-04 1.6772265796e+00 -2.9050416517e+00 1.6772265796e+00 2.9050416517e+00 
71200 5.6562793330e+00 3.1432247559e-04 1.6772171321e+00 -2.9050252881e+00 1.6772171321e+00 2.9050252881e+00 
71300 5.6562792776e+00 3.1175428398e-04 1.6772077617e+00 -2.9050090582e+00 1.6772077617e+00 2.9050090582e+00 
71400 5.6562792231e+00 3.0920808862e-04 1.6771984679e+00 -2.9049929608e+00 1.6771984679e+00 2.9049929608e+00 
71500 5.6562791694e+00 3.0668368548e-04 1.6771892499e+00 -2.9049769947e+00 1.6771892499e+00 2.9049769947e+00 
71600 5.6562791166e+00 3.0418087244e-04 1.6771801071e+00 -2.9049611590e+00 1.6771801071e+00 2.9049611590e+00 
71700 5.6562790645e+00 3.0169944938e-04 1.6771710389e+00 -2.9049454524e+00 1.6771710389e+00 2.9049454524e+00 
71800 5.6562790132e+00 2.9923921810e-04 1.6771620446e+00 -2.9049298738e+00 1.6771620446e+00 2.9049298738e+00 
71900 5.6562789627e+00 2.9679998237e-04 1.6771531236e+00 -2.9049144222e+00 1.6771531236e+00 2.9049144222e+00 
72000 5.6562789130e+00 2.9438154787e-04 1.6771442753e+00 -2.9048990965e+00 1.6771442753e+00 2.9048990965e+00 
72100 5.6562788640e+00 2.9198372221e-04 1.6771354990e+00 -2.9048838955e+00 1.6771354990e+00 2.9048838955e+00 
72200 5.6562788157e+00 2.8960631490e-04 1.6771267942e+00 -2.9048688183e+00 1.6771267942e+00 2.9048688183e+00 
72300 5.6562787682e+00 2.8724913737e-04 1.6771181602e+00 -2.9048538638e+00 1.6771181602e+00 2.9048538638e+00 
72400 5.6562787214e+00 2.8491200292e-04 1.6771095965e+00 -2.9048390309e+00 1.6771095965e+00 2.9048390309e+00 
72500 5.6562786753e+00 2.8259472672e-04 1.6771011023e+00 -2.9048243187e+00 1.6771011023e+00 2.9048243187e+00 
72600 5.6562786300e+00 2.8029712584e-04 1.6770926772e+00 -2.9048097260e+00 1.6770926772e+00 2.9048097260e+00 
72700 5.6562785853e+00 2.7801901915e-04 1.6770843206e+00 -2.9047952519e+00 1.6770843206e+00 2.9047952519e+00 
72800 5.6562785412e+00 2.7576022740e-04 1.6770760319e+00 -2.9047808953e+00 1.6770760319e+00 2.9047808953e+00 
72900 5.6562784979e+00 2.7352057316e-04 1.6770678104e+00 -2.9047666554e+00 1.6770678104e+00 2.9047666554e+00 
73000 5.6562784552e+00 2.7129988078e-04 1.6770596557e+00 -2.9047525310e+00 1.6770596557e+00 2.9047525310e+00 
73100 5.6562784131e+00 2.6909797646e-04 1.6770515671e+00 -2.9047385212e+00 1.6770515671e+00 2.9047385212e+00 
73200 5.6562783717e+00 2.6691468813e-04 1.6770435442e+00 -2.9047246250e+00 1.6770435442e+00 2.9047246250e+00 
73300 5.6562783309e+00 2.6474984554e-04 1.6770355863e+00 -2.9047108416e+00 1.6770355863e+00 2.9047108416e+00 
73400 5.6562782908e+00 2.6260328015e-04 1.6770276929e+00 -2.9046971698e+00 1.6770276929e+00 2.9046971698e+00 
73500 5.6562782512e+00 2.6047482520e-04 1.6770198635e+00 -2.9046836089e+00 1.6770198635e+00 2.9046836089e+00 
73600 5.6562782122e+00 2.5836431563e-04 1.6770120975e+00 -2.9046701578e+00 1.6770120975e+00 2.9046701578e+00 
73700 5.6562781739e+00 2.5627158810e-04 1.6770043944e+00 -2.9046568156e+00 1.6770043944e+00 2.9046568156e+00 
73800 5.6562781361e+00 2.5419648096e-04 1.6769967536e+00 -2.9046435814e+00 1.6769967536e+00 2.9046435814e+00 
73900 5.6562780989e+00 2.5213883425e-04 1.6769891747e+00 -2.9046304544e+00 1.6769891747e+00 2.9046304544e+00 
74000 5.6562780622e+00 2.5009848965e-04 1.6769816571e+00 -2.9046174335e+00 1.6769816571e+00 2.9046174335e+00 
74100 5.6562780261e+00 2.4807529052e-04 1.6769742003e+00 -2.9046045180e+00 1.6769742003e+00 2.9046045180e+00 
74200 5.6562779906e+00 2.4606908181e-04 1.6769668038e+00 -2.9045917068e+00 1.6769668038e+00 2.9045917068e+00 
74300 5.6562779556e+00 2.4407971012e-04 1.6769594671e+00 -2.9045789993e+00 1.6769594671e+00 2.9045789993e+00 
74400 5.6562779211e+00 2.4210702363e-04 1.6769521897e+00 -2.9045663944e+00 1.6769521897e+00 2.9045663944e+00 
74500 5.6562778871e+00 2.4015087210e-04 1.6769449710e+00 -2.9045538913e+00 1.6769449710e+00 2.9045538913e+00 
74600 5.6562778537e+00 2.3821110686e-04 1.6769378106e+00 -2.9045414892e+00 1.6769378106e+00 2.9045414892e+00 
74700 5.6562778208e+00 2.3628758079e-04 1.6769307081e+00 -2.9045291872e+00 1.6769307081e+00 2.9045291872e+00 
74800 5.6562777883e+00 2.3438014829e-04 1.6769236628e+00 -2.9045169845e+00 1.6769236628e+00 2.9045169845e+00 
74900 5.6562777564e+00 2.3248866528e-04 1.6769166745e+00 -2.9045048802e+00 1.6769166745e+00 2.9045048802e+00 
75000 5.6562777249e+00 2.3061298918e-04 1.6769097424e+00 -2.9044928736e+00 1.6769097424e+00 2.9044928736e+00 
75100 5.6562776940e+00 2.2875297889e-04 1.6769028663e+00 -2.9044809638e+00 1.6769028663e+00 2.9044809638e+00 
75200 5.6562776634e+00 2.2690849475e-04 1.6768960456e+00 -2.9044691500e+00 1.6768960456e+00 2.9044691500e+00 
75300 5.6562776334e+00 2.2507939857e-04 1.6768892799e+00 -2.9044574314e+00 1.6768892799e+00 2.9044574314e+00 
75400 5.6562776038e+00 2.2326555359e-04 1.6768825687e+00 -2.9044458073e+00 1.6768825687e+00 2.9044458073e+00 
75500 5.6562775747e+00 2.2146682445e-04 1.6768759115e+00 -2.9044342767e+00 1.6768759115e+00 2.9044342767e+00 
75600 5.6562775460e+00 2.1968307718e-04 1.6768693080e+00 -2.9044228391e+00 1.6768693080e+00 2.9044228391e+00 
75700 5.6562775177e+00 2.1791417919e-04 1.6768627576e+00 -2.9044114934e+00 1.6768627576e+00 2.9044114934e+00 
75800 5.6562774899e+00 2.1615999927e-04 1.6768562599e+00 -2.9044002392e+00 1.6768562599e+00 2.9044002392e+00 
75900 5.6562774625e+00 2.1442040753e-04 1.6768498145e+00 -2.9043890754e+00 1.6768498145e+00 2.9043890754e+00 
76000 5.6562774355e+00 2.1269527542e-04 1.6768434210e+00 -2.9043780015e+00 1.6768434210e+00 2.9043780015e+00 
76100 5.6562774089e+00 2.1098447569e-04 1.6768370788e+00 -2.9043670166e+00 1.6768370788e+00 2.9043670166e+00 
76200 5.6562773827e+00 2.0928788239e-04 1.6768307877e+00 -2.9043561200e+00 1.6768307877e+00 2.9043561200e+00 
76300 5.6562773569e+00 2.0760537084e-04 1.6768245471e+00 -2.9043453110e+00 1.6768245471e+00 2.9043453110e+00 
76400 5.6562773315e+00 2.0593681765e-04 1.6768183567e+00 -2.9043345889e+00 1.6768183567e+00 2.9043345889e+00 
76500 5.6562773065e+00 2.0428210063e-04 1.6768122160e+00 -2.9043239529e+00 1.6768122160e+00 2.9043239529e+00 
76600 5.6562772819e+00 2.0264109886e-04 1.6768061246e+00 -2.9043134023e+00 1.6768061246e+00 2.9043134023e+00 
76700 5.6562772577e+00 2.0101369260e-04 1.6768000822e+00 -2.9043029364e+00 1.6768000822e+00 2.9043029364e+00 
76800 5.6562772338e+00 1.9939976332e-04 1.6767940882e+00 -2.9042925546e+00 1.6767940882e+00 2.9042925546e+00 
76900 5.6562772103e+00 1.9779919368e-04 1.6767881423e+00 -2.9042822560e+00 1.6767881423e+00 2.9042822560e+00 
77000 5.6562771871e+00 1.9621186750e-04 1.6767822442e+00 -2.9042720401e+00 1.6767822442e+00 2.9042720401e+00 
77100 5.6562771643e+00 1.9463766974e-04 1.6767763933e+00 -2.9042619062e+00 1.6767763933e+00 2.9042619062e+00 
77200 5.6562771418e+00 1.9307648652e-04 1.6767705894e+00 -2.9042518535e+00 1.6767705894e+00 2.9042518535e+00 
77300 5.6562771197e+00 1.9152820504e-04 1.6767648320e+00 -2.9042418814e+00 1.6767648320e+00 2.9042418814e+00 
77400 5.6562770979e+00 1.8999271365e-04 1.6767591208e+00 -2.9042319893e+00 1.6767591208e+00 2.9042319893e+00 
77500 5.6562770764e+00 1.8846990177e-04 1.6767534553e+00 -2.9042221764e+00 1.6767534553e+00 2.9042221764e+00 
77600 5.6562770553e+00 1.8695965989e-04 1.6767478352e+00 -2.9042124421e+00 1.6767478352e+00 2.9042124421e+00 
77700 5.6562770345e+00 1.8546187957e-04 1.6767422602e+00 -2.9042027858e+00 1.6767422602e+00 2.9042027858e+00 
77800 5.6562770140e+00 1.8397645343e-04 1.6767367298e+00 -2.9041932068e+00 1.6767367298e+00 2.9041932068e+00 
77900 5.6562769938e+00 1.8250327510e-04 1.6767312436e+00 -2.9041837046e+00 1.6767312436e+00 2.9041837046e+00 
78000 5.6562769740e+00 1.8104223925e-04 1.6767258014e+00 -2.9041742783e+00 1.6767258014e+00 2.9041742783e+00 
78100 5.6562769544e+00 1.7959324156e-04 1.6767204027e+00 -2.9041649276e+00 1.6767204027e+00 2.9041649276e+00 
78200 5.6562769351e+00 1.7815617869e-04 1.6767150472e+00 -2.9041556516e+00 1.6767150472e+00 2.9041556516e+00 
78300 5.6562769161e+00 1.7673094828e-04 1.6767097346e+00 -2.9041464498e+00 1.6767097346e+00 2.9041464498e+00 
78400 5.6562768974e+00 1.7531744896e-04 1.6767044644e+00 -2.9041373216e+00 1.6767044644e+00 2.9041373216e+00 
78500 5.6562768790e+00 1.7391558030e-04 1.6766992364e+00 -2.9041282664e+00 1.6766992364e+00 2.9041282664e+00 
78600 5.6562768609e+00 1.7252524280e-04 1.6766940501e+00 -2.9041192835e+00 1.6766940501e+00 2.9041192835e+00 
78700 5.6562768431e+00 1.7114633793e-04 1.6766889053e+00 -2.9041103725e+00 1.6766889053e+00 2.9041103725e+00 
78800 5.6562768255e+00 1.6977876804e-04 1.6766838016e+00 -2.9041015326e+00 1.6766838016e+00 2.9041015326e+00 
78900 5.6562768082e+00 1.6842243641e-04 1.6766787387e+00 -2.9040927634e+00 1.6766787387e+00 2.9040927634e+00 
79000 5.6562767911e+00 1.6707724722e-04 1.6766737162e+00 -2.9040840641e+00 1.6766737162e+00 2.9040840641e+00 
79100 5.6562767743e+00 1.6574310551e-04 1.6766687338e+00 -2.9040754344e+00 1.6766687338e+00 2.9040754344e+00 
79200 5.6562767578e+00 1.6441991722e-04 1.6766637912e+00 -2.9040668735e+00 1.6766637912e+00 2.9040668735e+00 
79300 5.6562767415e+00 1.6310758914e-04 1.6766588880e+00 -2.9040583809e+00 1.6766588880e+00 2.9040583809e+00 
79400 5.6562767255e+00 1.6180602892e-04 1.6766540239e+00 -2.9040499561e+00 1.6766540239e+00 2.9040499561e+00 
79500 5.6562767097e+00 1.6051514503e-04 1.6766491986e+00 -2.9040415985e+00 1.6766491986e+00 2.9040415985e+00 
79600 5.6562766941e+00 1.5923484681e-04 1.6766444119e+00 -2.9040333076e+00 1.6766444119e+00 2.9040333076e+00 
79700 5.6562766788e+00 1.5796504439e-04 1.6766396632e+00 -2.9040250827e+00 1.6766396632e+00 2.9040250827e+00 
79800 5.6562766637e+00 1.5670564872e-04 1.6766349525e+00 -2.9040169234e+00 1.6766349525e+00 2.9040169234e+00 
79900 5.6562766489e+00 1.5545657155e-04 1.6766302793e+00 -2.9040088292e+00 1.6766302793e+00 2.9040088292e+00 
80000 5.6562766342e+00 1.5421772543e-04 1.6766256433e+00 -2.9040007994e+00 1.6766256433e+00 2.9040007994e+00 
80100 5.6562766198e+00 1.5298902368e-04 1.6766210442e+00 -2.9039928337e+00 1.6766210442e+00 2.9039928337e+00 
80200 5.6562766057e+00 1.5177038041e-04 1.6766164818e+00 -2.9039849313e+00 1.6766164818e+00 2.9039849313e+00 
80300 5.6562765917e+00 1.5056171049e-04 1.6766119557e+00 -2.9039770919e+00 1.6766119557e+00 2.9039770919e+00 
80400 5.6562765779e+00 1.4936292954e-04 1.6766074657e+00 -2.9039693149e+00 1.6766074657e+00 2.9039693149e+00 
80500 5.6562765644e+00 1.4817395392e-04 1.6766030114e+00 -2.9039615998e+00 1.6766030114e+00 2.9039615998e+00 
80600 5.6562765510e+00 1.4699470076e-04 1.6765985925e+00 -2.9039539461e+00 1.6765985925e+00 2.9039539461e+00 
80700 5.6562765379e+00 1.4582508788e-04 1.6765942088e+00 -2.9039463533e+00 1.6765942088e+00 2.9039463533e+00 
80800 5.6562765250e+00 1.4466503385e-04 1.6765898599e+00 -2.9039388208e+00 1.6765898599e+00 2.9039388208e+00 
80900 5.6562765122e+00 1.4351445796e-04 1.6765855457e+00 -2.9039313483e+00 1.6765855457e+00 2.9039313483e+00 
81000 5.6562764997e+00 1.4237328018e-04 1.6765812657e+00 -2.9039239352e+00 1.6765812657e+00 2.9039239352e+00 
81100 5.6562764873e+00 1.4124142121e-04 1.6765770198e+00 -2.9039165810e+00 1.6765770198e+00 2.9039165810e+00 
81200 5.6562764752e+00 1.4011880243e-04 1.6765728076e+00 -2.9039092853e+00 1.6765728076e+00 2.9039092853e+00 
81300 5.6562764632e+00 1.3900534588e-04 1.6765686288e+00 -2.9039020475e+00 1.6765686288e+00 2.9039020475e+00 
81400 5.6562764514e+00 1.3790097433e-04 1.6765644833e+00 -2.9038948673e+00 1.6765644833e+00 2.9038948673e+00 
81500 5.6562764398e+00 1.3680561117e-04 1.6765603707e+00 -2.9038877440e+00 1.6765603707e+00 2.9038877440e+00 
81600 5.6562764283e+00 1.3571918049e-04 1.6765562908e+00 -2.9038806773e+00 1.6765562908e+00 2.9038806773e+00 
81700 5.6562764170e+00 1.3464160702e-04 1.6765522432e+00 -2.9038736668e+00 1.6765522432e+00 2.9038736668e+00 
81800 5.6562764060e+00 1.3357281615e-04 1.6765482278e+00 -2.9038667118e+00 1.6765482278e+00 2.9038667118e+00 
81900 5.6562763950e+00 1.3251273390e-04 1.6765442442e+00 -2.9038598121e+00 1.6765442442e+00 2.9038598121e+00 
82000 5.6562763843e+00 1.3146128695e-04 1.6765402922e+00 -2.9038529671e+00 1.6765402922e+00 2.9038529671e+00 
82100 5.6562763737e+00 1.3041840259e-04 1.6765363716e+00 -2.9038461764e+00 1.6765363716e+00 2.9038461764e+00 
82200 5.6562763632e+00 1.2938400874e-04 1.6765324821e+00 -2.9038394396e+00 1.6765324821e+00 2.9038394396e+00 
82300 5.6562763530e+00 1.2835803396e-04 1.6765286234e+00 -2.9038327561e+00 1.6765286234e+00 2.9038327561e+00 
82400 5.6562763428e+00 1.2734040741e-04 1.6765247954e+00 -2.9038261257e+00 1.6765247954e+00 2.9038261257e+00 
82500 5.6562763329e+00 1.2633105885e-04 1.6765209976e+00 -2.9038195478e+00 1.6765209976e+00 2.9038195478e+00 
82600 5.6562763231e+00 1.2532991866e-04 1.6765172300e+00 -2.9038130220e+00 1.6765172300e+00 2.9038130220e+00 
82700 5.6562763134e+00 1.2433691779e-04 1.6765134921e+00 -2.9038065480e+00 1.6765134921e+00 2.9038065480e+00 
82800 5.6562763039e+00 1.2335198783e-04 1.6765097840e+00 -2.9038001252e+00 1.6765097840e+00 2.9038001252e+00 
82900 5.6562762945e+00 1.2237506090e-04 1.6765061051e+00 -2.9037937533e+00 1.6765061051e+00 2.9037937533e+00 
83000 5.6562762853e+00 1.2140606975e-04 1.6765024554e+00 -2.9037874318e+00 1.6765024554e+00 2.9037874318e+00 
83100 5.6562762762e+00 1.2044494767e-04 1.6764988346e+00 -2.9037811604e+00 1.6764988346e+00 2.9037811604e+00 
83200 5.6562762672e+00 1.1949162855e-04 1.6764952424e+00 -2.9037749386e+00 1.6764952424e+00 2.9037749386e+00 
83300 5.6562762584e+00 1.1854604682e-04 1.6764916787e+00 -2.9037687660e+00 1.6764916787e+00 2.9037687660e+00 
83400 5.6562762498e+00 1.1760813749e-04 1.6764881432e+00 -2.9037626423e+00 1.6764881432e+00 2.9037626423e+00 
83500 5.6562762412e+00 1.1667783611e-04 1.6764846356e+00 -2.9037565670e+00 1.6764846356e+00 2.9037565670e+00 
83600 5.6562762328e+00 1.1575507880e-04 1.6764811558e+00 -2.9037505397e+00 1.6764811558e+00 2.9037505397e+00 
83700 5.6562762245e+00 1.1483980222e-04 1.6764777034e+00 -2.9037445601e+00 1.6764777034e+00 2.9037445601e+00 
83800 5.6562762164e+00 1.1393194357e-04 1.6764742784e+00 -2.9037386278e+00 1.6764742784e+00 2.9037386278e+00 
83900 5.6562762083e+00 1.1303144059e-04 1.6764708805e+00 -2.9037327424e+00 1.6764708805e+00 2.9037327424e+00 
84000 5.6562762004e+00 1.1213823154e-04 1.6764675093e+00 -2.9037269034e+00 1.6764675093e+00 2.9037269034e+00 
84100 5.6562761926e+00 1.1125225524e-04 1.6764641649e+00 -2.9037211106e+00 1.6764641649e+00 2.9037211106e+00 
84200 5.6562761849e+00 1.1037345100e-04 1.6764608468e+00 -2.9037153636e+00 1.6764608468e+00 2.9037153636e+00 
84300 5.6562761774e+00 1.0950175867e-04 1.6764575549e+00 -2.9037096619e+00 1.6764575549e+00 2.9037096619e+00 
84400 5.6562761699e+00 1.0863711861e-04 1.6764542891e+00 -2.9037040053e+00 1.6764542891e+00 2.9037040053e+00 
84500 5.6562761626e+00 1.0777947169e-04 1.6764510490e+00 -2.9036983933e+00 1.6764510490e+00 2.9036983933e+00 
84600 5.6562761554e+00 1.0692875930e-04 1.6764478345e+00 -2.9036928256e+00 1.6764478345e+00 2.9036928256e+00 
84700 5.6562761483e+00 1.0608492332e-04 1.6764446453e+00 -2.9036873018e+00 1.6764446453e+00 2.9036873018e+00 
84800 5.6562761413e+00 1.0524790613e-04 1.6764414814e+00 -2.9036818216e+00 1.6764414814e+00 2.9036818216e+00 
84900 5.6562761344e+00 1.0441765061e-04 1.6764383423e+00 -2.9036763847e+00 1.6764383423e+00 2.9036763847e+00 
85000 5.6562761276e+00 1.0359410013e-04 1.6764352281e+00 -2.9036709906e+00 1.6764352281e+00 2.9036709906e+00 
85100 5.6562761209e+00 1.0277719854e-04 1.6764321383e+00 -2.9036656391e+00 1.6764321383e+00 2.9036656391e+00 
85200 5.6562761144e+00 1.0196689018e-04 1.6764290730e+00 -2.9036603297e+00 1.6764290730e+00 2.9036603297e+00 
85300 5.6562761079e+00 1.0116311988e-04 1.6764260318e+00 -2.9036550622e+00 1.6764260318e+00 2.9036550622e+00 
85400 5.6562761015e+00 1.0036583292e-04 1.6764230146e+00 -2.9036498362e+00 1.6764230146e+00 2.9036498362e+00 
85500 5.6562760952e+00 9.9574975083e-05 1.6764200211e+00 -2.9036446514e+00 1.6764200211e+00 2.9036446514e+00 
85600 5.6562760890e+00 9.8790492590e-05 1.6764170513e+00 -2.9036395074e+00 1.6764170513e+00 2.9036395074e+00 
85700 5.6562760829e+00 9.8012332143e-05 1.6764141048e+00 -2.9036344040e+00 1.6764141048e+00 2.9036344040e+00 
85800 5.6562760769e+00 9.7240440901e-05 1.6764111815e+00 -2.9036293407e+00 1.6764111815e+00 2.9036293407e+00 
85900 5.6562760710e+00 9.6474766478e-05 1.6764082812e+00 -2.9036243174e+00 1.6764082812e+00 2.9036243174e+00 
86000 5.6562760652e+00 9.5715256945e-05 1.6764054038e+00 -2.9036193335e+00 1.6764054038e+00 2.9036193335e+00 
86100 5.6562760595e+00 9.4961860814e-05 1.6764025490e+00 -2.9036143889e+00 1.6764025490e+00 2.9036143889e+00 
86200 5.6562760538e+00 9.4214527053e-05 1.6763997167e+00 -2.9036094832e+00 1.6763997167e+00 2.9036094832e+00 
86300 5.6562760483e+00 9.3473205066e-05 1.6763969067e+00 -2.9036046161e+00 1.6763969067e+00 2.9036046161e+00 
86400 5.6562760428e+00 9.2737844695e-05 1.6763941188e+00 -2.9035997873e+00 1.6763941188e+00 2.9035997873e+00 
86500 5.6562760374e+00 9.2008396220e-05 1.6763913528e+00 -2.9035949964e+00 1.6763913528e+00 2.9035949964e+00 
86600 5.6562760321e+00 9.1284810349e-05 1.6763886086e+00 -2.9035902433e+00 1.6763886086e+00 2.9035902433e+00 
86700 5.6562760269e+00 9.0567038222e-05 1.6763858859e+00 -2.9035855275e+00 1.6763858859e+00 2.9035855275e+00 
86800 5.6562760218e+00 8.9855031398e-05 1.6763831846e+00 -2.9035808488e+00 1.6763831846e+00 2.9035808488e+00 
86900 5.6562760167e+00 8.9148741862e-05 1.6763805046e+00 -2.9035762068e+00 1.6763805046e+00 2.9035762068e+00 
87000 5.6562760117e+00 8.8448122013e-05 1.6763778457e+00 -2.9035716014e+00 1.6763778457e+00 2.9035716014e+00 
87100 5.6562760068e+00 8.7753124662e-05 1.6763752076e+00 -2.9035670321e+00 1.6763752076e+00 2.9035670321e+00 
87200 5.6562760020e+00 8.7063703038e-05 1.6763725902e+00 -2.9035624987e+00 1.6763725902e+00 2.9035624987e+00 
87300 5.6562759972e+00 8.6379810769e-05 1.6763699934e+00 -2.9035580009e+00 1.6763699934e+00 2.9035580009e+00 
87400 5.6562759925e+00 8.5701401891e-05 1.6763674171e+00 -2.9035535385e+00 1.6763674171e+00 2.9035535385e+00 
87500 5.6562759879e+00 8.5028430837e-05 1.6763648609e+00 -2.9035491111e+00 1.6763648609e+00 2.9035491111e+00 
87600 5.6562759833e+00 8.4360852441e-05 1.6763623248e+00 -2.9035447184e+00 1.6763623248e+00 2.9035447184e+00 
87700 5.6562759789e+00 8.3698621928e-05 1.6763598086e+00 -2.9035403603e+00 1.6763598086e+00 2.9035403603e+00 
87800 5.6562759745e+00 8.3041694912e-05 1.6763573122e+00 -2.9035360363e+00 1.6763573122e+00 2.9035360363e+00 
87900 5.6562759701e+00 8.2390027397e-05 1.6763548353e+00 -2.9035317463e+00 1.6763548353e+00 2.9035317463e+00 
88000 5.6562759658e+00 8.1743575769e-05 1.6763523779e+00 -2.9035274899e+00 1.6763523779e+00 2.9035274899e+00 
88100 5.6562759616e+00 8.1102296794e-05 1.6763499398e+00 -2.9035232669e+00 1.6763499398e+00 2.9035232669e+00 
88200 5.6562759575e+00 8.0466147614e-05 1.6763475208e+00 -2.9035190771e+00 1.6763475208e+00 2.9035190771e+00 
88300 5.6562759534e+00 7.9835085748e-05 1.6763451207e+00 -2.9035149201e+00 1.6763451207e+00 2.9035149201e+00 
88400 5.6562759494e+00 7.9209069084e-05 1.6763427395e+00 -2.9035107957e+00 1.6763427395e+00 2.9035107957e+00 
88500 5.6562759454e+00 7.8588055874e-05 1.6763403769e+00 -2.9035067036e+00 1.6763403769e+00 2.9035067036e+00 
88600 5.6562759415e+00 7.7972004740e-05 1.6763380329e+00 -2.9035026436e+00 1.6763380329e+00 2.9035026436e+00 
88700 5.6562759377e+00 7.7360874660e-05 1.6763357072e+00 -2.9034986155e+00 1.6763357072e+00 2.9034986155e+00 
88800 5.6562759339e+00 7.6754624974e-05 1.6763333998e+00 -2.9034946189e+00 1.6763333998e+00 2.9034946189e+00 
88900 5.6562759302e+00 7.6153215373e-05 1.6763311104e+00 -2.9034906536e+00 1.6763311104e+00 2.9034906536e+00 
89000 5.6562759265e+00 7.5556605902e-05 1.6763288390e+00 -2.9034867194e+00 1.6763288390e+00 2.9034867194e+00 
89100 5.6562759229e+00 7.4964756951e-05 1.6763265854e+00 -2.9034828159e+00 1.6763265854e+00 2.9034828159e+00 
89200 5.6562759194e+00 7.4377629260e-05 1.6763243494e+00 -2.9034789431e+00 1.6763243494e+00 2.9034789431e+00 
89300 5.6562759159e+00 7.3795183910e-05 1.6763221309e+00 -2.9034751006e+00 1.6763221309e+00 2.9034751006e+00 
89400 5.6562759124e+00 7.3217382318e-05 1.6763199298e+00 -2.9034712882e+00 1.6763199298e+00 2.9034712882e+00 
89500 5.6562759090e+00 7.2644186240e-05 1.6763177459e+00 -2.9034675056e+00 1.6763177459e+00 2.9034675056e+00 
89600 5.6562759057e+00 7.2075557765e-05 1.6763155792e+00 -2.9034637526e+00 1.6763155792e+00 2.9034637526e+00 
89700 5.6562759024e+00 7.1511459310e-05 1.6763134293e+00 -2.9034600290e+00 1.6763134293e+00 2.9034600290e+00 
89800 5.6562758992e+00 7.0951853621e-05 1.6763112963e+00 -2.9034563346e+00 1.6763112963e+00 2.9034563346e+00 
89900 5.6562758960e+00 7.0396703769e-05 1.6763091800e+00 -2.9034526690e+00 1.6763091800e+00 2.9034526690e+00 
90000 5.6562758930e+00 7.1036933221e-05 1.6763091800e+00 -2.9034526690e+00 1.6763091800e+00 2.9034526690e+00 
90100 5.6562758899e+00 7.0474847057e-05 1.6763070612e+00 -2.9034489991e+00 1.6763070612e+00 2.9034489991e+00 
90200 5.6562758871e+00 7.1109551277e-05 1.6763070612e+00 -2.9034489991e+00 1.6763070612e+00 2.9034489991e+00 
90300 5.6562758840e+00 7.0540668406e-05 1.6763049402e+00 -2.9034453254e+00 1.6763049402e+00 2.9034453254e+00 
90400 5.6562758813e+00 7.1169769283e-05 1.6763049402e+00 -2.9034453254e+00 1.6763049402e+00 2.9034453254e+00 
90500 5.6562758784e+00 7.0594214040e-05 1.6763028174e+00 -2.9034416485e+00 1.6763028174e+00 2.9034416485e+00 
90600 5.6562758757e+00 7.1217619949e-05 1.6763028174e+00 -2.9034416485e+00 1.6763028174e+00 2.9034416485e+00 
90700 5.6562758728e+00 7.0635503376e-05 1.6763006931e+00 -2.9034379692e+00 1.6763006931e+00 2.9034379692e+00 
90800 5.6562758702e+00 7.1253110750e-05 1.6763006931e+00 -2.9034379692e+00 1.6763006931e+00 2.9034379692e+00 
90900 5.6562758675e+00 7.0664532664e-05 1.6762985678e+00 -2.9034342881e+00 1.6762985678e+00 2.9034342881e+00 
91000 5.6562758650e+00 7.1276227701e-05 1.6762985678e+00 -2.9034342881e+00 1.6762985678e+00 2.9034342881e+00 
91100 5.6562758623e+00 7.0681278805e-05 1.6762964418e+00 -2.9034306057e+00 1.6762964418e+00 2.9034306057e+00 
91200 5.6562758598e+00 7.1286939247e-05 1.6762964418e+00 -2.9034306057e+00 1.6762964418e+00 2.9034306057e+00 
91300 5.6562758573e+00 7.0685703246e-05 1.6762943155e+00 -2.9034269229e+00 1.6762943155e+00 2.9034269229e+00 
91400 5.6562758549e+00 7.1285200206e-05 1.6762943155e+00 -2.9034269229e+00 1.6762943155e+00 2.9034269229e+00 
91500 5.6562758524e+00 7.0677755856e-05 1.6762921892e+00 -2.9034232400e+00 1.6762921892e+00 2.9034232400e+00 
91600 5.6562758501e+00 7.1270955654e-05 1.6762921892e+00 -2.9034232400e+00 1.6762921892e+00 2.9034232400e+00 
91700 5.6562758476e+00 7.0657378755e-05 1.6762900634e+00 -2.9034195580e+00 1.6762900634e+00 2.9034195580e+00 
91800 5.6562758454e+00 7.1244144714e-05 1.6762900634e+00 -2.9034195580e+00 1.6762900634e+00 2.9034195580e+00 
91900 5.6562758430e+00 7.0624509993e-05 1.6762879383e+00 -2.9034158773e+00 1.6762879383e+00 2.9034158773e+00 
92000 5.6562758409e+00 7.1204704201e-05 1.6762879383e+00 -2.9034158773e+00 1.6762879383e+00 2.9034158773e+00 
92100 5.6562758386e+00 7.0579087073e-05 1.6762858144e+00 -2.9034121986e+00 1.6762858144e+00 2.9034121986e+00 
92200 5.6562758365e+00 7.1152572064e-05 1.6762858144e+00 -2.9034121986e+00 1.6762858144e+00 2.9034121986e+00 
92300 5.6562758343e+00 7.0521050258e-05 1.6762836921e+00 -2.9034085226e+00 1.6762836921e+00 2.9034085226e+00 
92400 5.6562758323e+00 7.1087690608e-05 1.6762836921e+00 -2.9034085226e+00 1.6762836921e+00 2.9034085226e+00 
92500 5.6562758301e+00 7.0450345628e-05 1.6762815717e+00 -2.9034048500e+00 1.6762815717e+00 2.9034048500e+00 
92600 5.6562758281e+00 7.1010009450e-05 1.6762815717e+00 -2.9034048500e+00 1.6762815717e+00 2.9034048500e+00 
92700 5.6562758260e+00 7.0366927906e-05 1.6762794536e+00 -2.9034011814e+00 1.6762794536e+00 2.9034011814e+00 
92800 5.6562758241e+00 7.0919488228e-05 1.6762794536e+00 -2.9034011814e+00 1.6762794536e+00 2.9034011814e+00 
92900 5.6562758221e+00 7.0270762973e-05 1.6762773382e+00 -2.9033975174e+00 1.6762773382e+00 2.9033975174e+00 
93000 5.6562758203e+00 7.0816098995e-05 1.6762773382e+00 -2.9033975174e+00 1.6762773382e+00 2.9033975174e+00 
93100 5.6562758183e+00 7.0161830117e-05 1.6762752259e+00 -2.9033938588e+00 1.6762752259e+00 2.9033938588e+00 
93200 5.6562758165e+00 7.0699828349e-05 1.6762752259e+00 -2.9033938588e+00 1.6762752259e+00 2.9033938588e+00 
93300 5.6562758147e+00 7.1236340810e-05 1.6762752259e+00 -2.9033938588e+00 1.6762752259e+00 2.9033938588e+00 
93400 5.6562758128e+00 7.0566026133e-05 1.6762731011e+00 -2.9033901785e+00 1.6762731011e+00 2.9033901785e+00 
93500 5.6562758112e+00 7.1094970461e-05 1.6762731011e+00 -2.9033901785e+00 1.6762731011e+00 2.9033901785e+00 
93600 5.6562758093e+00 7.0419416689e-05 1.6762709805e+00 -2.9033865054e+00 1.6762709805e+00 2.9033865054e+00 
93700 5.6562758077e+00 7.0940693857e-05 1.6762709805e+00 -2.9033865054e+00 1.6762709805e+00 2.9033865054e+00 
93800 5.6562758059e+00 7.0260025337e-05 1.6762688644e+00 -2.9033828404e+00 1.6762688644e+00 2.9033828404e+00 
93900 5.6562758043e+00 7.0773547175e-05 1.6762688644e+00 -2.9033828404e+00 1.6762688644e+00 2.9033828404e+00 
94000 5.6562758025e+00 7.0087898844e-05 1.6762667534e+00 -2.9033791839e+00 1.6762667534e+00 2.9033791839e+00 
94100 5.6562758010e+00 7.0593588681e-05 1.6762667534e+00 -2.9033791839e+00 1.6762667534e+00 2.9033791839e+00 
94200 5.6562757995e+00 7.1097557921e-05 1.6762667534e+00 -2.9033791839e+00 1.6762667534e+00 2.9033791839e+00 
94300 5.6562757978e+00 7.0396790385e-05 1.6762646327e+00 -2.9033755107e+00 1.6762646327e+00 2.9033755107e+00 
94400 5.6562757964e+00 7.0892759347e-05 1.6762646327e+00 -2.9033755107e+00 1.6762646327e+00 2.9033755107e+00 
94500 5.6562757947e+00 7.0187414224e-05 1.6762625181e+00 -2.9033718481e+00 1.6762625181e+00 2.9033718481e+00 
94600 5.6562757933e+00 7.0675328969e-05 1.6762625181e+00 -2.9033718481e+00 1.6762625181e+00 2.9033718481e+00 
94700 5.6562757919e+00 7.1161423871e-05 1.6762625181e+00 -2.9033718481e+00 1.6762625181e+00 2.9033718481e+00 
94800 5.6562757904e+00 7.0441590756e-05 1.6762603955e+00 -2.9033681717e+00 1.6762603955e+00 2.9033681717e+00 
94900 5.6562757890e+00 7.0919499439e-05 1.6762603955e+00 -2.9033681717e+00 1.6762603955e+00 2.9033681717e+00 
95000 5.6562757875e+00 7.0195542549e-05 1.6762582801e+00 -2.9033645077e+00 1.6762582801e+00 2.9033645077e+00 
95100 5.6562757862e+00 7.0665236523e-05 1.6762582801e+00 -2.9033645077e+00 1.6762582801e+00 2.9033645077e+00 
95200 5.6562757849e+00 7.1133040223e-05 1.6762582801e+00 -2.9033645077e+00 1.6762582801e+00 2.9033645077e+00 
95300 5.6562757834e+00 7.0395315070e-05 1.6762561583e+00 -2.9033608326e+00 1.6762561583e+00 2.9033608326e+00 
95400 5.6562757822e+00 7.0854811488e-05 1.6762561583e+00 -2.9033608326e+00 1.6762561583e+00 2.9033608326e+00 
95500 5.6562757808e+00 7.0113468166e-05 1.6762540448e+00 -2.9033571720e+00 1.6762540448e+00 2.9033571720e+00 
95600 5.6562757796e+00 7.0564655629e-05 1.6762540448e+00 -2.9033571720e+00 1.6762540448e+00 2.9033571720e+00 
95700 5.6562757784e+00 7.1013912992e-05 1.6762540448e+00 -2.9033571720e+00 1.6762540448e+00 2.9033571720e+00 
95800 5.6562757770e+00 7.0259607154e-05 1.6762519266e+00 -2.9033535031e+00 1.6762519266e+00 2.9033535031e+00 
95900 5.6562757759e+00 7.0700503567e-05 1.6762519266e+00 -2.9033535031e+00 1.6762519266e+00 2.9033535031e+00 
96000 5.6562757747e+00 7.1139453157e-05 1.6762519266e+00 -2.9033535031e+00 1.6762519266e+00 2.9033535031e+00 
96100 5.6562757734e+00 7.0372692431e-05 1.6762498046e+00 -2.9033498277e+00 1.6762498046e+00 2.9033498277e+00 
96200 5.6562757723e+00 7.0803248051e-05 1.6762498046e+00 -2.9033498277e+00 1.6762498046e+00 2.9033498277e+00 
96300 5.6562757711e+00 7.0033781724e-05 1.6762476926e+00 -2.9033461697e+00 1.6762476926e+00 2.9033461697e+00 
96400 5.6562757700e+00 7.0455981278e-05 1.6762476926e+00 -2.9033461697e+00 1.6762476926e+00 2.9033461697e+00 
96500 5.6562757690e+00 7.0876239020e-05 1.6762476926e+00 -2.9033461697e+00 1.6762476926e+00 2.9033461697e+00 
96600 5.6562757678e+00 7.0095235317e-05 1.6762455785e+00 -2.9033425079e+00 1.6762455785e+00 2.9033425079e+00 
96700 5.6562757667e+00 7.0507143625e-05 1.6762455785e+00 -2.9033425079e+00 1.6762455785e+00 2.9033425079e+00 
96800 5.6562757657e+00 7.0917119671e-05 1.6762455785e+00 -2.9033425079e+00 1.6762455785e+00 2.9033425079e+00 
96900 5.6562757646e+00 7.0125145941e-05 1.6762434631e+00 -2.9033388440e+00 1.6762434631e+00 2.9033388440e+00 
97000 5.6562757636e+00 7.0526796607e-05 1.6762434631e+00 -2.9033388440e+00 1.6762434631e+00 2.9033388440e+00 
97100 5.6562757627e+00 7.0926532082e-05 1.6762434631e+00 -2.9033388440e+00 1.6762434631e+00 2.9033388440e+00 
97200 5.6562757616e+00 7.0124169411e-05 1.6762413475e+00 -2.9033351796e+00 1.6762413475e+00 2.9033351796e+00 
97300 5.6562757606e+00 7.0515620215e-05 1.6762413475e+00 -2.9033351796e+00 1.6762413475e+00 2.9033351796e+00 
97400 5.6562757597e+00 7.0905180038e-05 1.6762413475e+00 -2.9033351796e+00 1.6762413475e+00 2.9033351796e+00 
97500 5.6562757587e+00 7.0093021012e-05 1.6762392325e+00 -2.9033315163e+00 1.6762392325e+00 2.9033315163e+00 
97600 5.6562757578e+00 7.0474352673e-05 1.6762392325e+00 -2.9033315163e+00 1.6762392325e+00 2.9033315163e+00 
97700 5.6562757569e+00 7.0853824268e-05 1.6762392325e+00 -2.9033315163e+00 1.6762392325e+00 2.9033315163e+00 
97800 5.6562757559e+00 7.0032470680e-05 1.6762371190e+00 -2.9033278557e+00 1.6762371190e+00 2.9033278557e+00 
97900 5.6562757550e+00 7.0403785476e-05 1.6762371190e+00 -2.9033278557e+00 1.6762371190e+00 2.9033278557e+00 
98000 5.6562757542e+00 7.0773277363e-05 1.6762371190e+00 -2.9033278557e+00 1.6762371190e+00 2.9033278557e+00 
98100 5.6562757532e+00 6.9943337879e-05 1.6762350079e+00 -2.9033241992e+00 1.6762350079e+00 2.9033241992e+00 
98200 5.6562757524e+00 7.0304758153e-05 1.6762350079e+00 -2.9033241992e+00 1.6762350079e+00 2.9033241992e+00 
98300 5.6562757516e+00 7.0664398406e-05 1.6762350079e+00 -2.9033241992e+00 1.6762350079e+00 2.9033241992e+00 
98400 5.6562757509e+00 7.1022262822e-05 1.6762350079e+00 -2.9033241992e+00 1.6762350079e+00 2.9033241992e+00 
98500 5.6562757499e+00 7.0176520910e-05 1.6762328894e+00 -2.9033205298e+00 1.6762328894e+00 2.9033205298e+00 
98600 5.6562757492e+00 7.0526394641e-05 1.6762328894e+00 -2.9033205298e+00 1.6762328894e+00 2.9033205298e+00 
98700 5.6562757484e+00 7.0874537924e-05 1.6762328894e+00 -2.9033205298e+00 1.6762328894e+00 2.9033205298e+00 
98800 5.6562757475e+00 7.0021613607e-05 1.6762307753e+00 -2.9033168681e+00 1.6762307753e+00 2.9033168681e+00 
98900 5.6562757468e+00 7.0361871222e-05 1.6762307753e+00 -2.9033168681e+00 1.6762307753e+00 2.9033168681e+00 
99000 5.6562757461e+00 7.0700448645e-05 1.6762307753e+00 -2.9033168681e+00 1.6762307753e+00 2.9033168681e+00 
99100 5.6562757454e+00 7.1037352325e-05 1.6762307753e+00 -2.9033168681e+00 1.6762307753e+00 2.9033168681e+00 
99200 5.6562757446e+00 7.0170481108e-05 1.6762286564e+00 -2.9033131979e+00 1.6762286564e+00 2.9033131979e+00 
99300 5.6562757439e+00 7.0499603685e-05 1.6762286564e+00 -2.9033131979e+00 1.6762286564e+00 2.9033131979e+00 
99400 5.6562757433e+00 7.0827104216e-05 1.6762286564e+00 -2.9033131979e+00 1.6762286564e+00 2.9033131979e+00 
99500 5.6562757424e+00 6.9954432902e-05 1.6762265437e+00 -2.9033095387e+00 1.6762265437e+00 2.9033095387e+00 
99600 5.6562757418e+00 7.0274273162e-05 1.6762265437e+00 -2.9033095387e+00 1.6762265437e+00 2.9033095387e+00 
99700 5.6562757412e+00 7.0592547193e-05 1.6762265437e+00 -2.9033095387e+00 1.6762265437e+00 2.9033095387e+00 
99800 5.6562757405e+00 7.0909263149e-05 1.6762265437e+00 -2.9033095387e+00 1.6762265437e+00 2.9033095387e+00 
99900 5.6562757398e+00 7.0024472032e-05 1.6762244285e+00 -2.9033058751e+00 1.6762244285e+00 2.9033058751e+00 
100000 5.6562757392e+00 7.0333650959e-05 1.6762244285e+00 -2.9033058751e+00 1.6762244285e+00 2.9033058751e+00 
100100 5.6562757386e+00 7.0641328121e-05 1.6762244285e+00 -2.9033058751e+00 1.6762244285e+00 2.9033058751e+00 
100200 5.6562757380e+00 7.0947511764e-05 1.6762244285e+00 -2.9033058751e+00 1.6762244285e+00 2.9033058751e+00 
100300 5.6562757372e+00 7.0051596760e-05 1.6762223122e+00 -2.9033022096e+00 1.6762223122e+00 2.9033022096e+00 
100400 5.6562757367e+00 7.0350370220e-05 1.6762223122e+00 -2.9033022096e+00 1.6762223122e+00 2.9033022096e+00 
100500 5.6562757361e+00 7.0647706642e-05 1.6762223122e+00 -2.9033022096e+00 1.6762223122e+00 2.9033022096e+00 
100600 5.6562757356e+00 7.0943614292e-05 1.6762223122e+00 -2.9033022096e+00 1.6762223122e+00 2.9033022096e+00 
100700 5.6562757349e+00 7.0037545185e-05 1.6762201961e+00 -2.9032985443e+00 1.6762201961e+00 2.9032985443e+00 
100800 5.6562757344e+00 7.0326172313e-05 1.6762201961e+00 -2.9032985443e+00 1.6762201961e+00 2.9032985443e+00 
100900 5.6562757338e+00 7.0613427111e-05 1.6762201961e+00 -2.9032985443e+00 1.6762201961e+00 2.9032985443e+00 
101000 5.6562757333e+00 7.0899317808e-05 1.6762201961e+00 -2.9032985443e+00 1.6762201961e+00 2.9032985443e+00 
101100 5.6562757326e+00 6.9984037315e-05 1.6762180812e+00 -2.9032948812e+00 1.6762180812e+00 2.9032948812e+00 
101200 5.6562757322e+00 7.0262779413e-05 1.6762180812e+00 -2.9032948812e+00 1.6762180812e+00 2.9032948812e+00 
101300 5.6562757317e+00 7.0540213679e-05 1.6762180812e+00 -2.9032948812e+00 1.6762180812e+00 2.9032948812e+00 
101400 5.6562757312e+00 7.0816348271e-05 1.6762180812e+00 -2.9032948812e+00 1.6762180812e+00 2.9032948812e+00 
101500 5.6562757305e+00 6.9892771577e-05 1.6762159688e+00 -2.9032912225e+00 1.6762159688e+00 2.9032912225e+00 
101600 5.6562757301e+00 7.0161891351e-05 1.6762159688e+00 -2.9032912225e+00 1.6762159688e+00 2.9032912225e+00 
101700 5.6562757296e+00 7.0429767448e-05 1.6762159688e+00 -2.9032912225e+00 1.6762159688e+00 2.9032912225e+00 
101800 5.6562757292e+00 7.0696407940e-05 1.6762159688e+00 -2.9032912225e+00 1.6762159688e+00 2.9032912225e+00 
101900 5.6562757287e+00 7.0961819709e-05 1.6762159688e+00 -2.9032912225e+00 1.6762159688e+00 2.9032912225e+00 
102000 5.6562757281e+00 7.0025118619e-05 1.6762138521e+00 -2.9032875562e+00 1.6762138521e+00 2.9032875562e+00 
102100 5.6562757277e+00 7.0283644517e-05 1.6762138521e+00 -2.9032875562e+00 1.6762138521e+00 2.9032875562e+00 
102200 5.6562757273e+00 7.0540994048e-05 1.6762138521e+00 -2.9032875562e+00 1.6762138521e+00 2.9032875562e+00 
102300 5.6562757269e+00 7.0797174105e-05 1.6762138521e+00 -2.9032875562e+00 1.6762138521e+00 2.9032875562e+00 
102400 5.6562757263e+00 6.9854078618e-05 1.6762117403e+00 -2.9032838984e+00 1.6762117403e+00 2.9032838984e+00 
102500 5.6562757259e+00 7.0103501651e-05 1.6762117403e+00 -2.9032838984e+00 1.6762117403e+00 2.9032838984e+00 
102600 5.6562757255e+00 7.0351807588e-05 1.6762117403e+00 -2.9032838984e+00 1.6762117403e+00 2.9032838984e+00 
102700 5.6562757251e+00 7.0599003363e-05 1.6762117403e+00 -2.9032838984e+00 1.6762117403e+00 2.9032838984e+00 
102800 5.6562757247e+00 7.0845094765e-05 1.6762117403e+00 -2.9032838984e+00 1.6762117403e+00 2.9032838984e+00 
102900 5.6562757242e+00 6.9891154566e-05 1.6762096270e+00 -2.9032802382e+00 1.6762096270e+00 2.9032802382e+00 
103000 5.6562757238e+00 7.0130612884e-05 1.6762096270e+00 -2.9032802382e+00 1.6762096270e+00 2.9032802382e+00 
103100 5.6562757234e+00 7.0369016102e-05 1.6762096270e+00 -2.9032802382e+00 1.6762096270e+00 2.9032802382e+00 
103200 5.6562757231e+00 7.0606370181e-05 1.6762096270e+00 -2.9032802382e+00 1.6762096270e+00 2.9032802382e+00 
103300 5.6562757227e+00 7.0842679975e-05 1.6762096270e+00 -2.9032802382e+00 1.6762096270e+00 2.9032802382e+00 
103400 5.6562757222e+00 6.9879049278e-05 1.6762075139e+00 -2.9032765780e+00 1.6762075139e+00 2.9032765780e+00 
103500 5.6562757219e+00 7.0108843601e-05 1.6762075139e+00 -2.9032765780e+00 1.6762075139e+00 2.9032765780e+00 
103600 5.6562757215e+00 7.0337640340e-05 1.6762075139e+00 -2.9032765780e+00 1.6762075139e+00 2.9032765780e+00 
103700 5.6562757212e+00 7.0565444684e-05 1.6762075139e+00 -2.9032765780e+00 1.6762075139e+00 2.9032765780e+00 
103800 5.6562757209e+00 7.0792260751e-05 1.6762075139e+00 -2.9032765780e+00 1.6762075139e+00 2.9032765780e+00 
103900 5.6562757204e+00 6.9820036132e-05 1.6762054022e+00 -2.9032729205e+00 1.6762054022e+00 2.9032729205e+00 
104000 5.6562757201e+00 7.0040449814e-05 1.6762054022e+00 -2.9032729205e+00 1.6762054022e+00 2.9032729205e+00 
104100 5.6562757198e+00 7.0259919950e-05 1.6762054022e+00 -2.9032729205e+00 1.6762054022e+00 2.9032729205e+00 
104200 5.6562757194e+00 7.0478451156e-05 1.6762054022e+00 -2.9032729205e+00 1.6762054022e+00 2.9032729205e+00 
104300 5.6562757191e+00 7.0696047026e-05 1.6762054022e+00 -2.9032729205e+00 1.6762054022e+00 2.9032729205e+00 
104400 5.6562757189e+00 7.0912710143e-05 1.6762054022e+00 -2.9032729205e+00 1.6762054022e+00 2.9032729205e+00 
104500 5.6562757184e+00 6.9928338699e-05 1.6762032869e+00 -2.9032692567e+00 1.6762032869e+00 2.9032692567e+00 
104600 5.6562757181e+00 7.0138698529e-05 1.6762032869e+00 -2.9032692567e+00 1.6762032869e+00 2.9032692567e+00 
104700 5.6562757178e+00 7.0348166206e-05 1.6762032869e+00 -2.9032692567e+00 1.6762032869e+00 2.9032692567e+00 
104800 5.6562757175e+00 7.0556745098e-05 1.6762032869e+00 -2.9032692567e+00 1.6762032869e+00 2.9032692567e+00 
104900 5.6562757173e+00 7.0764437620e-05 1.6762032869e+00 -2.9032692567e+00 1.6762032869e+00 2.9032692567e+00 
105000 5.6562757168e+00 6.9773642714e-05 1.6762011761e+00 -2.9032656006e+00 1.6762011761e+00 2.9032656006e+00 
105100 5.6562757166e+00 6.9975133631e-05 1.6762011761e+00 -2.9032656006e+00 1.6762011761e+00 2.9032656006e+00 
105200 5.6562757163e+00 7.0175778469e-05 1.6762011761e+00 -2.9032656006e+00 1.6762011761e+00 2.9032656006e+00 
105300 5.6562757161e+00 7.0375580593e-05 1.6762011761e+00 -2.9032656006e+00 1.6762011761e+00 2.9032656006e+00 
105400 5.6562757158e+00 7.0574542451e-05 1.6762011761e+00 -2.9032656006e+00 1.6762011761e+00 2.9032656006e+00 
105500 5.6562757156e+00 7.0772665593e-05 1.6762011761e+00 -2.9032656006e+00 1.6762011761e+00 2.9032656006e+00 
105600 5.6562757151e+00 6.9772199820e-05 1.6761990649e+00 -2.9032619441e+00 1.6761990649e+00 2.9032619441e+00 
105700 5.6562757149e+00 6.9964213733e-05 1.6761990649e+00 -2.9032619441e+00 1.6761990649e+00 2.9032619441e+00 
105800 5.6562757147e+00 7.0155426988e-05 1.6761990649e+00 -2.9032619441e+00 1.6761990649e+00 2.9032619441e+00 
105900 5.6562757144e+00 7.0345842320e-05 1.6761990649e+00 -2.9032619441e+00 1.6761990649e+00 2.9032619441e+00 
106000 5.6562757142e+00 7.0535461605e-05 1.6761990649e+00 -2.9032619441e+00 1.6761990649e+00 2.9032619441e+00 
106100 5.6562757140e+00 7.0724285877e-05 1.6761990649e+00 -2.9032619441e+00 1.6761990649e+00 2.9032619441e+00 
106200 5.6562757136e+00 6.9715374369e-05 1.6761969553e+00 -2.9032582900e+00 1.6761969553e+00 2.9032582900e+00 
106300 5.6562757134e+00 6.9898178468e-05 1.6761969553e+00 -2.9032582900e+00 1.6761969553e+00 2.9032582900e+00 
106400 5.6562757132e+00 7.0080224374e-05 1.6761969553e+00 -2.9032582900e+00 1.6761969553e+00 2.9032582900e+00 
106500 5.6562757129e+00 7.0261514522e-05 1.6761969553e+00 -2.9032582900e+00 1.6761969553e+00 2.9032582900e+00 
106600 5.6562757127e+00 7.0442050538e-05 1.6761969553e+00 -2.9032582900e+00 1.6761969553e+00 2.9032582900e+00 
106700 5.6562757125e+00 7.0621833255e-05 1.6761969553e+00 -2.9032582900e+00 1.6761969553e+00 2.9032582900e+00 
106800 5.6562757123e+00 7.0800862737e-05 1.6761969553e+00 -2.9032582900e+00 1.6761969553e+00 2.9032582900e+00 
106900 5.6562757120e+00 6.9780891888e-05 1.6761948433e+00 -2.9032546320e+00 1.6761948433e+00 2.9032546320e+00 
107000 5.6562757118e+00 6.9953977256e-05 1.6761948433e+00 -2.9032546320e+00 1.6761948433e+00 2.9032546320e+00 
107100 5.6562757116e+00 7.0126343765e-05 1.6761948433e+00 -2.9032546320e+00 1.6761948433e+00 2.9032546320e+00 
107200 5.6562757114e+00 7.0297993170e-05 1.6761948433e+00 -2.9032546320e+00 1.6761948433e+00 2.9032546320e+00 
107300 5.6562757112e+00 7.0468926483e-05 1.6761948433e+00 -2.9032546320e+00 1.6761948433e+00 2.9032546320e+00 
107400 5.6562757110e+00 7.0639144001e-05 1.6761948433e+00 -2.9032546320e+00 1.6761948433e+00 2.9032546320e+00 
107500 5.6562757108e+00 7.0808645314e-05 1.6761948433e+00 -2.9032546320e+00 1.6761948433e+00 2.9032546320e+00 
107600 5.6562757105e+00 6.9779042014e-05 1.6761927312e+00 -2.9032509736e+00 1.6761927312e+00 2.9032509736e+00 
107700 5.6562757103e+00 6.9942671587e-05 1.6761927312e+00 -2.9032509736e+00 1.6761927312e+00 2.9032509736e+00 
107800 5.6562757101e+00 7.0105618330e-05 1.6761927312e+00 -2.9032509736e+00 1.6761927312e+00 2.9032509736e+00 
107900 5.6562757100e+00 7.0267883791e-05 1.6761927312e+00 -2.9032509736e+00 1.6761927312e+00 2.9032509736e+00 
108000 5.6562757098e+00 7.0429468839e-05 1.6761927312e+00 -2.9032509736e+00 1.6761927312e+00 2.9032509736e+00 
108100 5.6562757097e+00 7.0590373680e-05 1.6761927312e+00 -2.9032509736e+00 1.6761927312e+00 2.9032509736e+00 
108200 5.6562757095e+00 7.0750597879e-05 1.6761927312e+00 -2.9032509736e+00 1.6761927312e+00 2.9032509736e+00 
108300 5.6562757092e+00 6.9712726510e-05 1.6761906207e+00 -2.9032473182e+00 1.6761906207e+00 2.9032473182e+00 
108400 5.6562757090e+00 6.9867153805e-05 1.6761906207e+00 -2.9032473182e+00 1.6761906207e+00 2.9032473182e+00 
108500 5.6562757089e+00 7.0020934037e-05 1.6761906207e+00 -2.9032473182e+00 1.6761906207e+00 2.9032473182e+00 
108600 5.6562757087e+00 7.0174068926e-05 1.6761906207e+00 -2.9032473182e+00 1.6761906207e+00 2.9032473182e+00 
108700 5.6562757086e+00 7.0326559559e-05 1.6761906207e+00 -2.9032473182e+00 1.6761906207e+00 2.9032473182e+00 
108800 5.6562757084e+00 7.0478406405e-05 1.6761906207e+00 -2.9032473182e+00 1.6761906207e+00 2.9032473182e+00 
108900 5.6562757083e+00 7.0629609326e-05 1.6761906207e+00 -2.9032473182e+00 1.6761906207e+00 2.9032473182e+00 
109000 5.6562757081e+00 7.0780167598e-05 1.6761906207e+00 -2.9032473182e+00 1.6761906207e+00 2.9032473182e+00 
109100 5.6562757078e+00 6.9732156257e-05 1.6761885094e+00 -2.9032436613e+00 1.6761885094e+00 2.9032436613e+00 
109200 5.6562757077e+00 6.9876987060e-05 1.6761885094e+00 -2.9032436613e+00 1.6761885094e+00 2.9032436613e+00 
109300 5.6562757075e+00 7.0021206285e-05 1.6761885094e+00 -2.9032436613e+00 1.6761885094e+00 2.9032436613e+00 
109400 5.6562757074e+00 7.0164815587e-05 1.6761885094e+00 -2.9032436613e+00 1.6761885094e+00 2.9032436613e+00 
109500 5.6562757073e+00 7.0307816038e-05 1.6761885094e+00 -2.9032436613e+00 1.6761885094e+00 2.9032436613e+00 
109600 5.6562757072e+00 7.0450208145e-05 1.6761885094e+00 -2.9032436613e+00 1.6761885094e+00 2.9032436613e+00 
109700 5.6562757070e+00 7.0591991853e-05 1.6761885094e+00 -2.9032436613e+00 1.6761885094e+00 2.9032436613e+00 
109800 5.6562757069e+00 7.0733166570e-05 1.6761885094e+00 -2.9032436613e+00 1.6761885094e+00 2.9032436613e+00 
109900 5.6562757066e+00 6.9676593910e-05 1.6761863994e+00 -2.9032400068e+00 1.6761863994e+00 2.9032400068e+00 
110000 5.6562757065e+00 6.9812115937e-05 1.6761863994e+00 -2.9032400068e+00 1.6761863994e+00 2.9032400068e+00 
110100 5.6562757064e+00 6.9947062679e-05 1.6761863994e+00 -2.9032400068e+00 1.6761863994e+00 2.9032400068e+00 
110200 5.6562757063e+00 7.0081436086e-05 1.6761863994e+00 -2.9032400068e+00 1.6761863994e+00 2.9032400068e+00 
110300 5.6562757062e+00 7.0215237564e-05 1.6761863994e+00 -2.9032400068e+00 1.6761863994e+00 2.9032400068e+00 
110400 5.6562757060e+00 7.0348467983e-05 1.6761863994e+00 -2.9032400068e+00 1.6761863994e+00 2.9032400068e+00 
110500 5.6562757059e+00 7.0481127689e-05 1.6761863994e+00 -2.9032400068e+00 1.6761863994e+00 2.9032400068e+00 
110600 5.6562757058e+00 7.0613216517e-05 1.6761863994e+00 -2.9032400068e+00 1.6761863994e+00 2.9032400068e+00 
110700 5.6562757057e+00 7.0744733806e-05 1.6761863994e+00 -2.9032400068e+00 1.6761863994e+00 2.9032400068e+00 
110800 5.6562757054e+00 6.9678336014e-05 1.6761842891e+00 -2.9032363516e+00 1.6761842891e+00 2.9032363516e+00 
110900 5.6562757053e+00 6.9804274693e-05 1.6761842891e+00 -2.9032363516e+00 1.6761842891e+00 2.9032363516e+00 
111000 5.6562757052e+00 6.9929675599e-05 1.6761842891e+00 -2.9032363516e+00 1.6761842891e+00 2.9032363516e+00 
111100 5.6562757051e+00 7.0054540781e-05 1.6761842891e+00 -2.9032363516e+00 1.6761842891e+00 2.9032363516e+00 
111200 5.6562757050e+00 7.0178871783e-05 1.6761842891e+00 -2.9032363516e+00 1.6761842891e+00 2.9032363516e+00 
111300 5.6562757049e+00 7.0302669653e-05 1.6761842891e+00 -2.9032363516e+00 1.6761842891e+00 2.9032363516e+00 
111400 5.6562757048e+00 7.0425934953e-05 1.6761842891e+00 -2.9032363516e+00 1.6761842891e+00 2.9032363516e+00 
111500 5.6562757048e+00 7.0548667765e-05 1.6761842891e+00 -2.9032363516e+00 1.6761842891e+00 2.9032363516e+00 
111600 5.6562757047e+00 7.0670867707e-05 1.6761842891e+00 -2.9032363516e+00 1.6761842891e+00 2.9032363516e+00 
111700 5.6562757046e+00 7.0792533951e-05 1.6761842891e+00 -2.9032363516e+00 1.6761842891e+00 2.9032363516e+00 
111800 5.6562757043e+00 6.9715504260e-05 1.6761821774e+00 -2.9032326940e+00 1.6761821774e+00 2.9032326940e+00 
111900 5.6562757042e+00 6.9831664204e-05 1.6761821774e+00 -2.9032326940e+00 1.6761821774e+00 2.9032326940e+00 
112000 5.6562757041e+00 6.9947324024e-05 1.6761821774e+00 -2.9032326940e+00 1.6761821774e+00 2.9032326940e+00 
112100 5.6562757040e+00 7.0062485786e-05 1.6761821774e+00 -2.9032326940e+00 1.6761821774e+00 2.9032326940e+00 
112200 5.6562757040e+00 7.0177151099e-05 1.6761821774e+00 -2.9032326940e+00 1.6761821774e+00 2.9032326940e+00 
112300 5.6562757039e+00 7.0291321118e-05 1.6761821774e+00 -2.9032326940e+00 1.6761821774e+00 2.9032326940e+00 
112400 5.6562757038e+00 7.0404996549e-05 1.6761821774e+00 -2.9032326940e+00 1.6761821774e+00 2.9032326940e+00 
112500 5.6562757037e+00 7.0518177661e-05 1.6761821774e+00 -2.9032326940e+00 1.6761821774e+00 2.9032326940e+00 
112600 5.6562757036e+00 7.0630864297e-05 1.6761821774e+00 -2.9032326940e+00 1.6761821774e+00 2.9032326940e+00 
112700 5.6562757036e+00 7.0743055886e-05 1.6761821774e+00 -2.9032326940e+00 1.6761821774e+00 2.9032326940e+00 
112800 5.6562757033e+00 6.9657418709e-05 1.6761800672e+00 -2.9032290390e+00 1.6761800672e+00 2.9032290390e+00 
112900 5.6562757032e+00 6.9764185260e-05 1.6761800672e+00 -2.9032290390e+00 1.6761800672e+00 2.9032290390e+00 
113000 5.6562757032e+00 6.9870491289e-05 1.6761800672e+00 -2.9032290390e+00 1.6761800672e+00 2.9032290390e+00 
113100 5.6562757031e+00 6.9976339243e-05 1.6761800672e+00 -2.9032290390e+00 1.6761800672e+00 2.9032290390e+00 
113200 5.6562757030e+00 7.0081731138e-05 1.6761800672e+00 -2.9032290390e+00 1.6761800672e+00 2.9032290390e+00 
113300 5.6562757030e+00 7.0186668560e-05 1.6761800672e+00 -2.9032290390e+00 1.6761800672e+00 2.9032290390e+00 
113400 5.6562757029e+00 7.0291152666e-05 1.6761800672e+00 -2.9032290390e+00 1.6761800672e+00 2.9032290390e+00 
113500 5.6562757028e+00 7.0395184198e-05 1.6761800672e+00 -2.9032290390e+00 1.6761800672e+00 2.9032290390e+00 
113600 5.6562757028e+00 7.0498763492e-05 1.6761800672e+00 -2.9032290390e+00 1.6761800672e+00 2.9032290390e+00 
113700 5.6562757027e+00 7.0601890480e-05 1.6761800672e+00 -2.9032290390e+00 1.6761800672e+00 2.9032290390e+00 
113800 5.6562757026e+00 7.0704564713e-05 1.6761800672e+00 -2.9032290390e+00 1.6761800672e+00 2.9032290390e+00 
113900 5.6562757026e+00 7.0806785368e-05 1.6761800672e+00 -2.9032290390e+00 1.6761800672e+00 2.9032290390e+00 
114000 5.6562757023e+00 6.9710130156e-05 1.6761779550e+00 -2.9032253806e+00 1.6761779550e+00 2.9032253806e+00 
114100 5.6562757023e+00 6.9807004069e-05 1.6761779550e+00 -2.9032253806e+00 1.6761779550e+00 2.9032253806e+00 
114200 5.6562757022e+00 6.9903458460e-05 1.6761779550e+00 -2.9032253806e+00 1.6761779550e+00 2.9032253806e+00 
114300 5.6562757021e+00 6.9999495699e-05 1.6761779550e+00 -2.9032253806e+00 1.6761779550e+00 2.9032253806e+00 
114400 5.6562757021e+00 7.0095117758e-05 1.6761779550e+00 -2.9032253806e+00 1.6761779550e+00 2.9032253806e+00 
114500 5.6562757020e+00 7.0190326220e-05 1.6761779550e+00 -2.9032253806e+00 1.6761779550e+00 2.9032253806e+00 
114600 5.6562757020e+00 7.0285122282e-05 1.6761779550e+00 -2.9032253806e+00 1.6761779550e+00 2.9032253806e+00 
114700 5.6562757019e+00 7.0379506759e-05 1.6761779550e+00 -2.9032253806e+00 1.6761779550e+00 2.9032253806e+00 
114800 5.6562757019e+00 7.0473480094e-05 1.6761779550e+00 -2.9032253806e+00 1.6761779550e+00 2.9032253806e+00 
114900 5.6562757018e+00 7.0567042369e-05 1.6761779550e+00 -2.9032253806e+00 1.6761779550e+00 2.9032253806e+00 
115000 5.6562757018e+00 7.0660193311e-05 1.6761779550e+00 -2.9032253806e+00 1.6761779550e+00 2.9032253806e+00 
115100 5.6562757017e+00 7.0752932307e-05 1.6761779550e+00 -2.9032253806e+00 1.6761779550e+00 2.9032253806e+00 
115200 5.6562757015e+00 6.9647739519e-05 1.6761758445e+00 -2.9032217251e+00 1.6761758445e+00 2.9032217251e+00 
115300 5.6562757014e+00 6.9735219108e-05 1.6761758445e+00 -2.9032217251e+00 1.6761758445e+00 2.9032217251e+00 
115400 5.6562757014e+00 6.9822321588e-05 1.6761758445e+00 -2.9032217251e+00 1.6761758445e+00 2.9032217251e+00 
115500 5.6562757013e+00 6.9909049644e-05 1.6761758445e+00 -2.9032217251e+00 1.6761758445e+00 2.9032217251e+00 
115600 5.6562757013e+00 6.9995405589e-05 1.6761758445e+00 -2.9032217251e+00 1.6761758445e+00 2.9032217251e+00 
115700 5.6562757012e+00 7.0081391366e-05 1.6761758445e+00 -2.9032217251e+00 1.6761758445e+00 2.9032217251e+00 
115800 5.6562757012e+00 7.0167008556e-05 1.6761758445e+00 -2.9032217251e+00 1.6761758445e+00 2.9032217251e+00 
115900 5.6562757011e+00 7.0252258369e-05 1.6761758445e+00 -2.9032217251e+00 1.6761758445e+00 2.9032217251e+00 
116000 5.6562757011e+00 7.0337141667e-05 1.6761758445e+00 -2.9032217251e+00 1.6761758445e+00 2.9032217251e+00 
116100 5.6562757011e+00 7.0421658956e-05 1.6761758445e+00 -2.9032217251e+00 1.6761758445e+00 2.9032217251e+00 
116200 5.6562757010e+00 7.0505810407e-05 1.6761758445e+00 -2.9032217251e+00 1.6761758445e+00 2.9032217251e+00 
116300 5.6562757010e+00 7.0589595858e-05 1.6761758445e+00 -2.9032217251e+00 1.6761758445e+00 2.9032217251e+00 
116400 5.6562757009e+00 7.0673014828e-05 1.6761758445e+00 -2.9032217251e+00 1.6761758445e+00 2.9032217251e+00 
116500 5.6562757009e+00 7.0756066530e-05 1.6761758445e+00 -2.9032217251e+00 1.6761758445e+00 2.9032217251e+00 
116600 5.6562757007e+00 6.9641168372e-05 1.6761737338e+00 -2.9032180693e+00 1.6761737338e+00 2.9032180693e+00 
116700 5.6562757006e+00 6.9719049377e-05 1.6761737338e+00 -2.9032180693e+00 1.6761737338e+00 2.9032180693e+00 
116800 5.6562757006e+00 6.9796597630e-05 1.6761737338e+00 -2.9032180693e+00 1.6761737338e+00 2.9032180693e+00 
116900 5.6562757006e+00 6.9873815772e-05 1.6761737338e+00 -2.9032180693e+00 1.6761737338e+00 2.9032180693e+00 
117000 5.6562757005e+00 6.9950706107e-05 1.6761737338e+00 -2.9032180693e+00 1.6761737338e+00 2.9032180693e+00 
117100 5.6562757005e+00 7.0027270596e-05 1.6761737338e+00 -2.9032180693e+00 1.6761737338e+00 2.9032180693e+00 
117200 5.6562757004e+00 7.0103510866e-05 1.6761737338e+00 -2.9032180693e+00 1.6761737338e+00 2.9032180693e+00 
117300 5.6562757004e+00 7.0179428209e-05 1.6761737338e+00 -2.9032180693e+00 1.6761737338e+00 2.9032180693e+00 
117400 5.6562757004e+00 7.0223569020e-05 1.6761737338e+00 -2.9032180693e+00 1.6761737338e+00 2.9032180693e+00 
117400 5.6562757004e+00 7.0223569020e-05 1.6761737338e+00 -2.9032180693e+00 1.6761737338e+00 2.9032180693e+00 
