# step Hamiltonian StressXX CellTensor1 CellTensor2 CellTensor3 CellTensor4 
0 5.6851098672e+00 2.4157900798e-01 2.8237630504e+00 -4.8909010719e+00 2.8237630504e+00 4.8909010719e+00 
100 5.6928541415e+00 2.8601097506e-01 2.8237630504e+00 -4.8909010719e+00 2.8237630504e+00 4.8909010719e+00 
200 5.7009508815e+00 3.2708175095e-01 2.8187002083e+00 -4.8821319721e+00 2.8187002083e+00 4.8821319721e+00 
300 5.7100263965e+00 3.6470670448e-01 2.8129002068e+00 -4.8720860748e+00 2.8129002068e+00 4.8720860748e+00 
400 5.7200303101e+00 3.9915944003e-01 2.8064199504e+00 -4.8608619414e+00 2.8064199504e+00 4.8608619414e+00 
500 5.7309343600e+00 4.3075871289e-01 2.7993114200e+00 -4.8485496056e+00 2.7993114200e+00 4.8485496056e+00 
600 5.7427107677e+00 4.5984864616e-01 2.7916209422e+00 -4.8352293074e+00 2.7916209422e+00 4.8352293074e+00 
700 5.7553136677e+00 4.8677559615e-01 2.7833887741e+00 -4.8209707739e+00 2.7833887741e+00 4.8209707739e+00 
800 5.7686625564e+00 5.1186009938e-01 2.7746490694e+00 -4.8058331614e+00 2.7746490694e+00 4.8058331614e+00 
900 5.7826244821e+00 5.3535712274e-01 2.7654303261e+00 -4.7898658295e+00 2.7654303261e+00 4.7898658295e+00 
1000 5.7969884150e+00 5.5738837727e-01 2.7557565383e+00 -4.7731103376e+00 2.7557565383e+00 4.7731103376e+00 
1100 5.8114205493e+00 5.7781499340e-01 2.7456495823e+00 -4.7556045763e+00 2.7456495823e+00 4.7556045763e+00 
1200 5.8253846229e+00 5.9600127584e-01 2.7351339559e+00 -4.7373909771e+00 2.7351339559e+00 4.7373909771e+00 
1300 5.8380163839e+00 6.1043390608e-01 2.7242459333e+00 -4.7185323689e+00 2.7242459333e+00 4.7185323689e+00 
1400 5.8479895180e+00 6.1832936555e-01 2.7130499220e+00 -4.6991403084e+00 2.7130499220e+00 4.6991403084e+00 
1500 5.8535598603e+00 6.1590126161e-01 2.7016624669e+00 -4.6794166575e+00 2.7016624669e+00 4.6794166575e+00 
1600 5.8531488196e+00 6.0050723531e-01 2.6902719556e+00 -4.6596877132e+00 2.6902719556e+00 4.6596877132e+00 
1700 5.8464522167e+00 5.7414105812e-01 2.6791189883e+00 -4.6403702073e+00 2.6791189883e+00 4.6403702073e+00 
1800 5.8349180644e+00 5.4357126883e-01 2.6684110501e+00 -4.6218235143e+00 2.6684110501e+00 4.6218235143e+00 
1900 5.8207236232e+00 5.1531573795e-01 2.6582322558e+00 -4.6041933254e+00 2.6582322558e+00 4.6041933254e+00 
2000 5.8055221580e+00 4.9194071396e-01 2.6485453404e+00 -4.5874150957e+00 2.6485453404e+00 4.5874150957e+00 
2100 5.7901647847e+00 4.7295034502e-01 2.6392637887e+00 -4.5713389766e+00 2.6392637887e+00 4.5713389766e+00 
2200 5.7749998365e+00 4.5693140389e-01 2.6303089840e+00 -4.5558288000e+00 2.6303089840e+00 4.5558288000e+00 
2300 5.7601556500e+00 4.4266585564e-01 2.6216278920e+00 -4.5407927074e+00 2.6216278920e+00 4.5407927074e+00 
2400 5.7456796514e+00 4.2935969571e-01 2.6131898619e+00 -4.5261776107e+00 2.6131898619e+00 4.5261776107e+00 
2500 5.7315911342e+00 4.1655721725e-01 2.6049789389e+00 -4.5119558748e+00 2.6049789389e+00 4.5119558748e+00 
2600 5.7178990696e+00 4.0401651362e-01 2.5969876368e+00 -4.4981145335e+00 2.5969876368e+00 4.4981145335e+00 
2700 5.7046078915e+00 3.9161821831e-01 2.5892129709e+00 -4.4846484173e+00 2.5892129709e+00 4.4846484173e+00 
2800 5.6917194227e+00 3.7930976241e-01 2.5816541678e+00 -4.4715561862e+00 2.5816541678e+00 4.4715561862e+00 
2900 5.6792335898e+00 3.6707379702e-01 2.5743114074e+00 -4.4588381522e+00 2.5743114074e+00 4.4588381522e+00 
3000 5.6671487547e+00 3.5491093011e-01 2.5671851544e+00 -4.4464951198e+00 2.5671851544e+00 4.4464951198e+00 
3100 5.6554619196e+00 3.4283046515e-01 2.5602758119e+00 -4.4345277876e+00 2.5602758119e+00 4.4345277876e+00 
3200 5.6441688886e+00 3.3084549658e-01 2.5535835514e+00 -4.4229364524e+00 2.5535835514e+00 4.4229364524e+00 
3300 5.6332644117e+00 3.1897034819e-01 2.5471082345e+00 -4.4117208745e+00 2.5471082345e+00 4.4117208745e+00 
3400 5.6227423185e+00 3.0721926405e-01 2.5408493850e+00 -4.4008802291e+00 2.5408493850e+00 4.4008802291e+00 
3500 5.6125956456e+00 2.9560576600e-01 2.5348061865e+00 -4.3904131023e+00 2.5348061865e+00 4.3904131023e+00 
3600 5.6028167567e+00 2.8414236386e-01 2.5289774929e+00 -4.3803175089e+00 2.5289774929e+00 4.3803175089e+00 
3700 5.5933974545e+00 2.7284045028e-01 2.5233618452e+00 -4.3705909217e+00 2.5233618452e+00 4.3705909217e+00 
3800 5.5843290859e+00 2.6171029027e-01 2.5179574912e+00 -4.3612303060e+00 2.5179574912e+00 4.3612303060e+00 
3900 5.5756026381e+00 2.5076105702e-01 2.5127624059e+00 -4.3522321543e+00 2.5127624059e+00 4.3522321543e+00 
4000 5.5672088259e+00 2.4000088866e-01 2.5077743119e+00 -4.3435925221e+00 2.5077743119e+00 4.3435925221e+00 
4100 5.5591381707e+00 2.2943695220e-01 2.5029906993e+00 -4.3353070620e+00 2.5029906993e+00 4.3353070620e+00 
4200 5.5513810710e+00 2.1907550800e-01 2.4984088444e+00 -4.3273710565e+00 2.4984088444e+00 4.3273710565e+00 
4300 5.5439278642e+00 2.0892197115e-01 2.4940258283e+00 -4.3197794500e+00 2.4940258283e+00 4.3197794500e+00 
4400 5.5367688806e+00 1.9898096856e-01 2.4898385542e+00 -4.3125268785e+00 2.4898385542e+00 4.3125268785e+00 
4500 5.5298944902e+00 1.8925639111e-01 2.4858437639e+00 -4.3056076987e+00 2.4858437639e+00 4.3056076987e+00 
4600 5.5232951424e+00 1.7975144114e-01 2.4820380538e+00 -4.2990160154e+00 2.4820380538e+00 4.2990160154e+00 
4700 5.5169613989e+00 1.7046867561e-01 2.4784178903e+00 -4.2927457084e+00 2.4784178903e+00 4.2927457084e+00 
4800 5.5108839614e+00 1.6141004535e-01 2.4749796243e+00 -4.2867904570e+00 2.4749796243e+00 4.2867904570e+00 
4900 5.5050536938e+00 1.5257693097e-01 2.4717195055e+00 -4.2811437655e+00 2.4717195055e+00 4.2811437655e+00 
5000 5.4994616399e+00 1.4397017597e-01 2.4686336954e+00 -4.2757989858e+00 2.4686336954e+00 4.2757989858e+00 
5100 5.4940990366e+00 1.3559011741e-01 2.4657182811e+00 -4.2707493401e+00 2.4657182811e+00 4.2707493401e+00 
5200 5.4889573241e+00 1.2743661476e-01 2.4629692872e+00 -4.2659879430e+00 2.4629692872e+00 4.2659879430e+00 
5300 5.4840281523e+00 1.1950907705e-01 2.4603826882e+00 -4.2615078220e+00 2.4603826882e+00 4.2615078220e+00 
5400 5.4793033858e+00 1.1180648884e-01 2.4579544196e+00 -4.2573019375e+00 2.4579544196e+00 4.2573019375e+00 
5500 5.4747751053e+00 1.0432743528e-01 2.4556803899e+00 -4.2533632024e+00 2.4556803899e+00 4.2533632024e+00 
5600 5.4704356083e+00 9.7070126248e-02 2.4535564901e+00 -4.2496845001e+00 2.4535564901e+00 4.2496845001e+00 
5700 5.4662774078e+00 9.0032420141e-02 2.4515786047e+00 -4.2462587020e+00 2.4515786047e+00 4.2462587020e+00 
5800 5.4622932300e+00 8.3211847049e-02 2.4497426209e+00 -4.2430786848e+00 2.4497426209e+00 4.2430786848e+00 
5900 5.4584760113e+00 7.6605631697e-02 2.4480444379e+00 -4.2401373456e+00 2.4480444379e+00 4.2401373456e+00 
6000 5.4548188949e+00 7.0210716086e-02 2.4464799755e+00 -4.2374276173e+00 2.4464799755e+00 4.2374276173e+00 
6100 5.4513152259e+00 6.4023781914e-02 2.4450451825e+00 -4.2349424829e+00 2.4450451825e+00 4.2349424829e+00 
6200 5.4479585478e+00 5.8041272773e-02 2.4437360438e+00 -4.2326749881e+00 2.4437360438e+00 4.2326749881e+00 
6300 5.4447425976e+00 5.2259416117e-02 2.4425485880e+00 -4.2306182544e+00 2.4425485880e+00 4.2306182544e+00 
6400 5.4416613016e+00 4.6674244977e-02 2.4414788939e+00 -4.2287654898e+00 2.4414788939e+00 4.2287654898e+00 
6500 5.4387087712e+00 4.1281619366e-02 2.4405230962e+00 -4.2271099996e+00 2.4405230962e+00 4.2271099996e+00 
6600 5.4358792986e+00 3.6077247334e-02 2.4396773915e+00 -4.2256451962e+00 2.4396773915e+00 4.2256451962e+00 
6700 5.4331673529e+00 3.1056705605e-02 2.4389380433e+00 -4.2243646074e+00 2.4389380433e+00 4.2243646074e+00 
6800 5.4305675770e+00 2.6215459734e-02 2.4383013860e+00 -4.2232618846e+00 2.4383013860e+00 4.2232618846e+00 
6900 5.4280747838e+00 2.1548883702e-02 2.4377638294e+00 -4.2223308094e+00 2.4377638294e+00 4.2223308094e+00 
7000 5.4256839532e+00 1.7052278903e-02 2.4373218623e+00 -4.2215652998e+00 2.4373218623e+00 4.2215652998e+00 
7100 5.4233902295e+00 1.2720892432e-02 2.4369720547e+00 -4.2209594154e+00 2.4369720547e+00 4.2209594154e+00 
7200 5.4211889188e+00 8.5499346364e-03 2.4367110615e+00 -4.2205073618e+00 2.4367110615e+00 4.2205073618e+00 
7300 5.4190754865e+00 4.5345958479e-03 2.4365356235e+00 -4.2202034944e+00 2.4365356235e+00 4.2202034944e+00 
7400 5.4170455553e+00 6.7006226927e-04 2.4364425699e+00 -4.2200423209e+00 2.4364425699e+00 4.2200423209e+00 
7500 5.4150949031e+00 -3.0484690449e-03 2.4364288191e+00 -4.2200185037e+00 2.4364288191e+00 4.2200185037e+00 
7600 5.4132194611e+00 -6.6257761385e-03 2.4364913796e+00 -4.2201268616e+00 2.4364913796e+00 4.2201268616e+00 
7700 5.4114153120e+00 -1.0066599066e-02 2.4366273505e+00 -4.2203623701e+00 2.4366273505e+00 4.2203623701e+00 
7800 5.4096786884e+00 -1.3375627785e-02 2.4368339217e+00 -4.2207201619e+00 2.4368339217e+00 4.2207201619e+00 
7900 5.4080059704e+00 -1.6557491033e-02 2.4371083737e+00 -4.2211955267e+00 2.4371083737e+00 4.2211955267e+00 
8000 5.4063936845e+00 -1.9616746198e-02 2.4374480770e+00 -4.2217839101e+00 2.4374480770e+00 4.2217839101e+00 
8100 5.4048385012e+00 -2.2557870173e-02 2.4378504914e+00 -4.2224809124e+00 2.4378504914e+00 4.2224809124e+00 
8200 5.4033372333e+00 -2.5385251180e-02 2.4383131651e+00 -4.2232822867e+00 2.4383131651e+00 4.2232822867e+00 
8300 5.4018868338e+00 -2.8103181544e-02 2.4388337330e+00 -4.2241839368e+00 2.4388337330e+00 4.2241839368e+00 
8400 5.4004843935e+00 -3.0715851395e-02 2.4394099160e+00 -4.2251819149e+00 2.4394099160e+00 4.2251819149e+00 
8500 5.3991271391e+00 -3.3227343259e-02 2.4400395185e+00 -4.2262724185e+00 2.4400395185e+00 4.2262724185e+00 
8600 5.3978124302e+00 -3.5641627513e-02 2.4407204273e+00 -4.2274517871e+00 2.4407204273e+00 4.2274517871e+00 
8700 5.3965377571e+00 -3.7962558653e-02 2.4414506093e+00 -4.2287164995e+00 2.4414506093e+00 4.2287164995e+00 
8800 5.3953007378e+00 -4.0193872341e-02 2.4422281096e+00 -4.2300631696e+00 2.4422281096e+00 4.2300631696e+00 
8900 5.3940991153e+00 -4.2339183187e-02 2.4430510493e+00 -4.2314885429e+00 2.4430510493e+00 4.2314885429e+00 
9000 5.3929307541e+00 -4.4401983206e-02 2.4439176232e+00 -4.2329894929e+00 2.4439176232e+00 4.2329894929e+00 
9100 5.3917936375e+00 -4.6385640925e-02 2.4448260976e+00 -4.2345630168e+00 2.4448260976e+00 4.2345630168e+00 
9200 5.3906858640e+00 -4.8293401073e-02 2.4457748081e+00 -4.2362062314e+00 2.4457748081e+00 4.2362062314e+00 
9300 5.3896056436e+00 -5.0128384808e-02 2.4467621567e+00 -4.2379163694e+00 2.4467621567e+00 4.2379163694e+00 
9400 5.3885512947e+00 -5.1893590449e-02 2.4477866102e+00 -4.2396907750e+00 2.4477866102e+00 4.2396907750e+00 
9500 5.3875212402e+00 -5.3591894647e-02 2.4488466972e+00 -4.2415268995e+00 2.4488466972e+00 4.2415268995e+00 
9600 5.3865140035e+00 -5.5226053961e-02 2.4499410059e+00 -4.2434222977e+00 2.4499410059e+00 4.2434222977e+00 
9700 5.3855282052e+00 -5.6798706792e-02 2.4510681817e+00 -4.2453746235e+00 2.4510681817e+00 4.2453746235e+00 
9800 5.3845625588e+00 -5.8312375631e-02 2.4522269251e+00 -4.2473816259e+00 2.4522269251e+00 4.2473816259e+00 
9900 5.3836158670e+00 -5.9769469583e-02 2.4534159889e+00 -4.2494411448e+00 2.4534159889e+00 4.2494411448e+00 
10000 5.3826870178e+00 -6.1172287134e-02 2.4546341764e+00 -4.2515511074e+00 2.4546341764e+00 4.2515511074e+00 
10100 5.3817749803e+00 -6.2523019110e-02 2.4558803388e+00 -4.2537095242e+00 2.4558803388e+00 4.2537095242e+00 
10200 5.3808788013e+00 -6.3823751812e-02 2.4571533735e+00 -4.2559144849e+00 2.4571533735e+00 4.2559144849e+00 
10300 5.3799976010e+00 -6.5076470282e-02 2.4584522214e+00 -4.2581641555e+00 2.4584522214e+00 4.2581641555e+00 
10400 5.3791305693e+00 -6.6283061680e-02 2.4597758654e+00 -4.2604567740e+00 2.4597758654e+00 4.2604567740e+00 
10500 5.3782769622e+00 -6.7445318738e-02 2.4611233278e+00 -4.2627906474e+00 2.4611233278e+00 4.2627906474e+00 
10600 5.3774360976e+00 -6.8564943276e-02 2.4624936689e+00 -4.2651641479e+00 2.4624936689e+00 4.2651641479e+00 
10700 5.3766073522e+00 -6.9643549742e-02 2.4638859852e+00 -4.2675757105e+00 2.4638859852e+00 4.2675757105e+00 
10800 5.3757901577e+00 -7.0682668774e-02 2.4652994070e+00 -4.2700238288e+00 2.4652994070e+00 4.2700238288e+00 
10900 5.3749839973e+00 -7.1683750756e-02 2.4667330973e+00 -4.2725070532e+00 2.4667330973e+00 4.2725070532e+00 
11000 5.3741884023e+00 -7.2648169343e-02 2.4681862497e+00 -4.2750239871e+00 2.4681862497e+00 4.2750239871e+00 
11100 5.3734029492e+00 -7.3577224966e-02 2.4696580873e+00 -4.2775732845e+00 2.4696580873e+00 4.2775732845e+00 
11200 5.3726272561e+00 -7.4472148273e-02 2.4711478607e+00 -4.2801536477e+00 2.4711478607e+00 4.2801536477e+00 
11300 5.3718609798e+00 -7.5334103520e-02 2.4726548468e+00 -4.2827638243e+00 2.4726548468e+00 4.2827638243e+00 
11400 5.3711038131e+00 -7.6164191890e-02 2.4741783476e+00 -4.2854026051e+00 2.4741783476e+00 4.2854026051e+00 
11500 5.3703554820e+00 -7.6963454734e-02 2.4757176886e+00 -4.2880688219e+00 2.4757176886e+00 4.2880688219e+00 
11600 5.3696157427e+00 -7.7732876725e-02 2.4772722177e+00 -4.2907613453e+00 2.4772722177e+00 4.2907613453e+00 
11700 5.3688843795e+00 -7.8473388925e-02 2.4788413040e+00 -4.2934790824e+00 2.4788413040e+00 4.2934790824e+00 
11800 5.3681612019e+00 -7.9185871758e-02 2.4804243367e+00 -4.2962209754e+00 2.4804243367e+00 4.2962209754e+00 
11900 5.3674460431e+00 -7.9871157879e-02 2.4820207240e+00 -4.2989859994e+00 2.4820207240e+00 4.2989859994e+00 
12000 5.3667387569e+00 -8.0530034946e-02 2.4836298923e+00 -4.3017731607e+00 2.4836298923e+00 4.3017731607e+00 
12100 5.3660392165e+00 -8.1163248289e-02 2.4852512851e+00 -4.3045814953e+00 2.4852512851e+00 4.3045814953e+00 
12200 5.3653473119e+00 -8.1771503470e-02 2.4868843620e+00 -4.3074100675e+00 2.4868843620e+00 4.3074100675e+00 
12300 5.3646629485e+00 -8.2355468741e-02 2.4885285982e+00 -4.3102579682e+00 2.4885285982e+00 4.3102579682e+00 
12400 5.3639860457e+00 -8.2915777400e-02 2.4901834835e+00 -4.3131243137e+00 2.4901834835e+00 4.3131243137e+00 
12500 5.3633165344e+00 -8.3453030034e-02 2.4918485217e+00 -4.3160082443e+00 2.4918485217e+00 4.3160082443e+00 
12600 5.3626543564e+00 -8.3967796668e-02 2.4935232296e+00 -4.3189089236e+00 2.4935232296e+00 4.3189089236e+00 
12700 5.3619994629e+00 -8.4460618803e-02 2.4952071370e+00 -4.3218255366e+00 2.4952071370e+00 4.3218255366e+00 
12800 5.3613518128e+00 -8.4932011361e-02 2.4968997852e+00 -4.3247572894e+00 2.4968997852e+00 4.3247572894e+00 
12900 5.3607113719e+00 -8.5382464528e-02 2.4986007275e+00 -4.3277034078e+00 2.4986007275e+00 4.3277034078e+00 
13000 5.3600781118e+00 -8.5812445501e-02 2.5003095277e+00 -4.3306631366e+00 2.5003095277e+00 4.3306631366e+00 
13100 5.3594520089e+00 -8.6222400139e-02 2.5020257603e+00 -4.3336357386e+00 2.5020257603e+00 4.3336357386e+00 
13200 5.3588330434e+00 -8.6612754531e-02 2.5037490097e+00 -4.3366204942e+00 2.5037490097e+00 4.3366204942e+00 
13300 5.3582211985e+00 -8.6983916464e-02 2.5054788700e+00 -4.3396167002e+00 2.5054788700e+00 4.3396167002e+00 
13400 5.3576164599e+00 -8.7336276819e-02 2.5072149444e+00 -4.3426236692e+00 2.5072149444e+00 4.3426236692e+00 
13500 5.3570188147e+00 -8.7670210868e-02 2.5089568449e+00 -4.3456407294e+00 2.5089568449e+00 4.3456407294e+00 
13600 5.3564282511e+00 -8.7986079511e-02 2.5107041922e+00 -4.3486672237e+00 2.5107041922e+00 4.3486672237e+00 
13700 5.3558447577e+00 -8.8284230418e-02 2.5124566151e+00 -4.3517025091e+00 2.5124566151e+00 4.3517025091e+00 
13800 5.3552683232e+00 -8.8564999112e-02 2.5142137501e+00 -4.3547459563e+00 2.5142137501e+00 4.3547459563e+00 
13900 5.3546989359e+00 -8.8828709970e-02 2.5159752418e+00 -4.3577969494e+00 2.5159752418e+00 4.3577969494e+00 
14000 5.3541365830e+00 -8.9075677167e-02 2.5177407419e+00 -4.3608548853e+00 2.5177407419e+00 4.3608548853e+00 
14100 5.3535812507e+00 -8.9306205549e-02 2.5195099094e+00 -4.3639191732e+00 2.5195099094e+00 4.3639191732e+00 
14200 5.3530329238e+00 -8.9520591446e-02 2.5212824102e+00 -4.3669892347e+00 2.5212824102e+00 4.3669892347e+00 
14300 5.3524915854e+00 -8.9719123424e-02 2.5230579172e+00 -4.3700645030e+00 2.5230579172e+00 4.3700645030e+00 
14400 5.3519572165e+00 -8.9902082991e-02 2.5248361097e+00 -4.3731444227e+00 2.5248361097e+00 4.3731444227e+00 
14500 5.3514297962e+00 -9.0069745235e-02 2.5266166736e+00 -4.3762284499e+00 2.5266166736e+00 4.3762284499e+00 
14600 5.3509093013e+00 -9.0222379425e-02 2.5283993011e+00 -4.3793160513e+00 2.5283993011e+00 4.3793160513e+00 
14700 5.3503957064e+00 -9.0360249557e-02 2.5301836906e+00 -4.3824067046e+00 2.5301836906e+00 4.3824067046e+00 
14800 5.3498889835e+00 -9.0483614856e-02 2.5319695465e+00 -4.3854998978e+00 2.5319695465e+00 4.3854998978e+00 
14900 5.3493891021e+00 -9.0592730237e-02 2.5337565793e+00 -4.3885951293e+00 2.5337565793e+00 4.3885951293e+00 
15000 5.3488960295e+00 -9.0687846726e-02 2.5355445051e+00 -4.3916919076e+00 2.5355445051e+00 4.3916919076e+00 
15100 5.3484097300e+00 -9.0769211839e-02 2.5373330459e+00 -4.3947897513e+00 2.5373330459e+00 4.3947897513e+00 
15200 5.3479301659e+00 -9.0837069933e-02 2.5391219295e+00 -4.3978881885e+00 2.5391219295e+00 4.3978881885e+00 
15300 5.3474572965e+00 -9.0891662510e-02 2.5409108891e+00 -4.4009867574e+00 2.5409108891e+00 4.4009867574e+00 
15400 5.3469910790e+00 -9.0933228506e-02 2.5426996633e+00 -4.4040850052e+00 2.5426996633e+00 4.4040850052e+00 
15500 5.3465314680e+00 -9.0962004539e-02 2.5444879964e+00 -4.4071824890e+00 2.5444879964e+00 4.4071824890e+00 
15600 5.3460784157e+00 -9.0978225129e-02 2.5462756379e+00 -4.4102787749e+00 2.5462756379e+00 4.4102787749e+00 
15700 5.3456318721e+00 -9.0982122901e-02 2.5480623426e+00 -4.4133734383e+00 2.5480623426e+00 4.4133734383e+00 
15800 5.3451917849e+00 -9.0973928753e-02 2.5498478708e+00 -4.4164660638e+00 2.5498478708e+00 4.4164660638e+00 
15900 5.3447580997e+00 -9.0953872012e-02 2.5516319876e+00 -4.4195562447e+00 2.5516319876e+00 4.4195562447e+00 
16000 5.3443307601e+00 -9.0922180555e-02 2.5534144635e+00 -4.4226435836e+00 2.5534144635e+00 4.4226435836e+00 
16100 5.3439097077e+00 -9.0879080928e-02 2.5551950742e+00 -4.4257276917e+00 2.5551950742e+00 4.4257276917e+00 
16200 5.3434948823e+00 -9.0824798430e-02 2.5569736001e+00 -4.4288081890e+00 2.5569736001e+00 4.4288081890e+00 
16300 5.3430862217e+00 -9.0759557193e-02 2.5587498270e+00 -4.4318847043e+00 2.5587498270e+00 4.4318847043e+00 
16400 5.3426836626e+00 -9.0683580239e-02 2.5605235454e+00 -4.4349568747e+00 2.5605235454e+00 4.4349568747e+00 
16500 5.3422871396e+00 -9.0597089525e-02 2.5622945509e+00 -4.4380243462e+00 2.5622945509e+00 4.4380243462e+00 
16600 5.3418965862e+00 -9.0500305975e-02 2.5640626439e+00 -4.4410867731e+00 2.5640626439e+00 4.4410867731e+00 
16700 5.3415119347e+00 -9.0393449501e-02 2.5658276297e+00 -4.4441438181e+00 2.5658276297e+00 4.4441438181e+00 
16800 5.3411331158e+00 -9.0276739013e-02 2.5675893183e+00 -4.4471951522e+00 2.5675893183e+00 4.4471951522e+00 
16900 5.3407600596e+00 -9.0150392413e-02 2.5693475246e+00 -4.4502404548e+00 2.5693475246e+00 4.4502404548e+00 
17000 5.3403926949e+00 -9.0014626591e-02 2.5711020681e+00 -4.4532794135e+00 2.5711020681e+00 4.4532794135e+00 
17100 5.3400309497e+00 -8.9869657402e-02 2.5728527733e+00 -4.4563117238e+00 2.5728527733e+00 4.4563117238e+00 
17200 5.3396747514e+00 -8.9715699645e-02 2.5745994690e+00 -4.4593370895e+00 2.5745994690e+00 4.4593370895e+00 
17300 5.3393240266e+00 -8.9552967026e-02 2.5763419888e+00 -4.4623552224e+00 2.5763419888e+00 4.4623552224e+00 
17400 5.3389787015e+00 -8.9381672123e-02 2.5780801709e+00 -4.4653658420e+00 2.5780801709e+00 4.4653658420e+00 
17500 5.3386387016e+00 -8.9202026344e-02 2.5798138579e+00 -4.4683686760e+00 2.5798138579e+00 4.4683686760e+00 
17600 5.3383039523e+00 -8.9014239876e-02 2.5815428971e+00 -4.4713634596e+00 2.5815428971e+00 4.4713634596e+00 
17700 5.3379743787e+00 -8.8818521635e-02 2.5832671400e+00 -4.4743499360e+00 2.5832671400e+00 4.4743499360e+00 
17800 5.3376499058e+00 -8.8615079215e-02 2.5849864427e+00 -4.4773278557e+00 2.5849864427e+00 4.4773278557e+00 
17900 5.3373304583e+00 -8.8404118822e-02 2.5867006658e+00 -4.4802969771e+00 2.5867006658e+00 4.4802969771e+00 
18000 5.3370159612e+00 -8.8185845224e-02 2.5884096738e+00 -4.4832570659e+00 2.5884096738e+00 4.4832570659e+00 
18100 5.3367063394e+00 -8.7960461684e-02 2.5901133360e+00 -4.4862078953e+00 2.5901133360e+00 4.4862078953e+00 
18200 5.3364015182e+00 -8.7728169896e-02 2.5918115255e+00 -4.4891492458e+00 2.5918115255e+00 4.4891492458e+00 
18300 5.3361014228e+00 -8.7489169925e-02 2.5935041198e+00 -4.4920809052e+00 2.5935041198e+00 4.4920809052e+00 
18400 5.3358059792e+00 -8.7243660142e-02 2.5951910007e+00 -4.4950026685e+00 2.5951910007e+00 4.4950026685e+00 
18500 5.3355151133e+00 -8.6991837157e-02 2.5968720537e+00 -4.4979143377e+00 2.5968720537e+00 4.4979143377e+00 
18600 5.3352287519e+00 -8.6733895756e-02 2.5985471686e+00 -4.5008157218e+00 2.5985471686e+00 4.5008157218e+00 
18700 5.3349468219e+00 -8.6470028838e-02 2.6002162392e+00 -4.5037066369e+00 2.6002162392e+00 4.5037066369e+00 
18800 5.3346692513e+00 -8.6200427350e-02 2.6018791632e+00 -4.5065869057e+00 2.6018791632e+00 4.5065869057e+00 
18900 5.3343959681e+00 -8.5925280224e-02 2.6035358421e+00 -4.5094563578e+00 2.6035358421e+00 4.5094563578e+00 
19000 5.3341269016e+00 -8.5644774321e-02 2.6051861814e+00 -4.5123148294e+00 2.6051861814e+00 4.5123148294e+00 
19100 5.3338619813e+00 -8.5359094362e-02 2.6068300903e+00 -4.5151621631e+00 2.6068300903e+00 4.5151621631e+00 
19200 5.3336011378e+00 -8.5068422879e-02 2.6084674817e+00 -4.5179982082e+00 2.6084674817e+00 4.5179982082e+00 
19300 5.3333443024e+00 -8.4772940151e-02 2.6100982722e+00 -4.5208228202e+00 2.6100982722e+00 4.5208228202e+00 
19400 5.3330914072e+00 -8.4472824157e-02 2.6117223821e+00 -4.5236358610e+00 2.6117223821e+00 4.5236358610e+00 
19500 5.3328423853e+00 -8.4168250515e-02 2.6133397350e+00 -4.5264371984e+00 2.6133397350e+00 4.5264371984e+00 
19600 5.3325971707e+00 -8.3859392439e-02 2.6149502583e+00 -4.5292267066e+00 2.6149502583e+00 4.5292267066e+00 
19700 5.3323556980e+00 -8.3546420686e-02 2.6165538826e+00 -4.5320042654e+00 2.6165538826e+00 4.5320042654e+00 
19800 5.3321179033e+00 -8.3229503514e-02 2.6181505421e+00 -4.5347697607e+00 2.6181505421e+00 4.5347697607e+00 
19900 5.3318837232e+00 -8.2908806634e-02 2.6197401741e+00 -4.5375230842e+00 2.6197401741e+00 4.5375230842e+00 
20000 5.3316530955e+00 -8.2584493176e-02 2.6213227194e+00 -4.5402641330e+00 2.6213227194e+00 4.5402641330e+00 
20100 5.3314259591e+00 -8.2256723645e-02 2.6228981217e+00 -4.5429928099e+00 2.6228981217e+00 4.5429928099e+00 
20200 5.3312022538e+00 -8.1925655888e-02 2.6244663282e+00 -4.5457090231e+00 2.6244663282e+00 4.5457090231e+00 
20300 5.3309819204e+00 -8.1591445061e-02 2.6260272888e+00 -4.5484126862e+00 2.6260272888e+00 4.5484126862e+00 
20400 5.3307649008e+00 -8.1254243602e-02 2.6275809567e+00 -4.5511037179e+00 2.6275809567e+00 4.5511037179e+00 
20500 5.3305511379e+00 -8.0914201196e-02 2.6291272879e+00 -4.5537820421e+00 2.6291272879e+00 4.5537820421e+00 
20600 5.3303405757e+00 -8.0571464760e-02 2.6306662413e+00 -4.5564475877e+00 2.6306662413e+00 4.5564475877e+00 
20700 5.3301331592e+00 -8.0226178415e-02 2.6321977787e+00 -4.5591002884e+00 2.6321977787e+00 4.5591002884e+00 
20800 5.3299288345e+00 -7.9878483468e-02 2.6337218647e+00 -4.5617400827e+00 2.6337218647e+00 4.5617400827e+00 
20900 5.3297275488e+00 -7.9528518397e-02 2.6352384665e+00 -4.5643669140e+00 2.6352384665e+00 4.5643669140e+00 
21000 5.3295292501e+00 -7.9176418839e-02 2.6367475539e+00 -4.5669807301e+00 2.6367475539e+00 4.5669807301e+00 
21100 5.3293338876e+00 -7.8822317574e-02 2.6382490994e+00 -4.5695814832e+00 2.6382490994e+00 4.5695814832e+00 
21200 5.3291414117e+00 -7.8466344524e-02 2.6397430780e+00 -4.5721691300e+00 2.6397430780e+00 4.5721691300e+00 
21300 5.3289517734e+00 -7.8108626739e-02 2.6412294670e+00 -4.5747436313e+00 2.6412294670e+00 4.5747436313e+00 
21400 5.3287649251e+00 -7.7749288404e-02 2.6427082463e+00 -4.5773049522e+00 2.6427082463e+00 4.5773049522e+00 
21500 5.3285808200e+00 -7.7388450828e-02 2.6441793981e+00 -4.5798530618e+00 2.6441793981e+00 4.5798530618e+00 
21600 5.3283994123e+00 -7.7026232456e-02 2.6456429067e+00 -4.5823879331e+00 2.6456429067e+00 4.5823879331e+00 
21700 5.3282206572e+00 -7.6662748867e-02 2.6470987587e+00 -4.5849095427e+00 2.6470987587e+00 4.5849095427e+00 
21800 5.3280445108e+00 -7.6298112784e-02 2.6485469430e+00 -4.5874178714e+00 2.6485469430e+00 4.5874178714e+00 
21900 5.3278709303e+00 -7.5932434081e-02 2.6499874503e+00 -4.5899129033e+00 2.6499874503e+00 4.5899129033e+00 
22000 5.3276998736e+00 -7.5565819799e-02 2.6514202735e+00 -4.5923946260e+00 2.6514202735e+00 4.5923946260e+00 
22100 5.3275312997e+00 -7.5198374154e-02 2.6528454075e+00 -4.5948630305e+00 2.6528454075e+00 4.5948630305e+00 
22200 5.3273651683e+00 -7.4830198557e-02 2.6542628491e+00 -4.5973181113e+00 2.6542628491e+00 4.5973181113e+00 
22300 5.3272014402e+00 -7.4461391633e-02 2.6556725968e+00 -4.5997598659e+00 2.6556725968e+00 4.5997598659e+00 
22400 5.3270400768e+00 -7.4092049235e-02 2.6570746510e+00 -4.6021882951e+00 2.6570746510e+00 4.6021882951e+00 
22500 5.3268810406e+00 -7.3722264473e-02 2.6584690139e+00 -4.6046034024e+00 2.6584690139e+00 4.6046034024e+00 
22600 5.3267242947e+00 -7.3352127733e-02 2.6598556893e+00 -4.6070051946e+00 2.6598556893e+00 4.6070051946e+00 
22700 5.3265698030e+00 -7.2981726706e-02 2.6612346825e+00 -4.6093936810e+00 2.6612346825e+00 4.6093936810e+00 
22800 5.3264175304e+00 -7.2611146412e-02 2.6626060007e+00 -4.6117688738e+00 2.6626060007e+00 4.6117688738e+00 
22900 5.3262674424e+00 -7.2240469231e-02 2.6639696524e+00 -4.6141307877e+00 2.6639696524e+00 4.6141307877e+00 
23000 5.3261195051e+00 -7.1869774934e-02 2.6653256474e+00 -4.6164794401e+00 2.6653256474e+00 4.6164794401e+00 
23100 5.3259736856e+00 -7.1499140711e-02 2.6666739973e+00 -4.6188148506e+00 2.6666739973e+00 4.6188148506e+00 
23200 5.3258299515e+00 -7.1128641211e-02 2.6680147148e+00 -4.6211370414e+00 2.6680147148e+00 4.6211370414e+00 
23300 5.3256882712e+00 -7.0758348569e-02 2.6693478139e+00 -4.6234460368e+00 2.6693478139e+00 4.6234460368e+00 
23400 5.3255486137e+00 -7.0388332449e-02 2.6706733100e+00 -4.6257418633e+00 2.6706733100e+00 4.6257418633e+00 
23500 5.3254109486e+00 -7.0018660076e-02 2.6719912196e+00 -4.6280245497e+00 2.6719912196e+00 4.6280245497e+00 
23600 5.3252752461e+00 -6.9649396276e-02 2.6733015603e+00 -4.6302941264e+00 2.6733015603e+00 4.6302941264e+00 
23700 5.3251414772e+00 -6.9280603514e-02 2.6746043511e+00 -4.6325506262e+00 2.6746043511e+00 4.6325506262e+00 
23800 5.3250096133e+00 -6.8912341936e-02 2.6758996116e+00 -4.6347940833e+00 2.6758996116e+00 4.6347940833e+00 
23900 5.3248796265e+00 -6.8544669409e-02 2.6771873630e+00 -4.6370245341e+00 2.6771873630e+00 4.6370245341e+00 
24000 5.3247514892e+00 -6.8177641562e-02 2.6784676269e+00 -4.6392420163e+00 2.6784676269e+00 4.6392420163e+00 
24100 5.3246251747e+00 -6.7811311828e-02 2.6797404263e+00 -4.6414465695e+00 2.6797404263e+00 4.6414465695e+00 
24200 5.3245006565e+00 -6.7445731488e-02 2.6810057848e+00 -4.6436382346e+00 2.6810057848e+00 4.6436382346e+00 
24300 5.3243779087e+00 -6.7080949717e-02 2.6822637269e+00 -4.6458170543e+00 2.6822637269e+00 4.6458170543e+00 
24400 5.3242569061e+00 -6.6717013620e-02 2.6835142781e+00 -4.6479830724e+00 2.6835142781e+00 4.6479830724e+00 
24500 5.3241376236e+00 -6.6353968288e-02 2.6847574643e+00 -4.6501363342e+00 2.6847574643e+00 4.6501363342e+00 
24600 5.3240200367e+00 -6.5991856831e-02 2.6859933126e+00 -4.6522768862e+00 2.6859933126e+00 4.6522768862e+00 
24700 5.3239041215e+00 -6.5630720433e-02 2.6872218504e+00 -4.6544047760e+00 2.6872218504e+00 4.6544047760e+00 
24800 5.3237898543e+00 -6.5270598391e-02 2.6884431059e+00 -4.6565200526e+00 2.6884431059e+00 4.6565200526e+00 
24900 5.3236772120e+00 -6.4911528163e-02 2.6896571079e+00 -4.6586227658e+00 2.6896571079e+00 4.6586227658e+00 
25000 5.3235661716e+00 -6.4553545414e-02 2.6908638859e+00 -4.6607129666e+00 2.6908638859e+00 4.6607129666e+00 
25100 5.3234567109e+00 -6.4196684060e-02 2.6920634698e+00 -4.6627907068e+00 2.6920634698e+00 4.6627907068e+00 
25200 5.3233488077e+00 -6.3840976314e-02 2.6932558900e+00 -4.6648560393e+00 2.6932558900e+00 4.6648560393e+00 
25300 5.3232424404e+00 -6.3486452735e-02 2.6944411776e+00 -4.6669090177e+00 2.6944411776e+00 4.6669090177e+00 
25400 5.3231375877e+00 -6.3133142267e-02 2.6956193640e+00 -4.6689496963e+00 2.6956193640e+00 4.6689496963e+00 
25500 5.3230342285e+00 -6.2781072291e-02 2.6967904810e+00 -4.6709781304e+00 2.6967904810e+00 4.6709781304e+00 
25600 5.3229323421e+00 -6.2430268666e-02 2.6979545608e+00 -4.6729943758e+00 2.6979545608e+00 4.6729943758e+00 
25700 5.3228319082e+00 -6.2080755774e-02 2.6991116360e+00 -4.6749984889e+00 2.6991116360e+00 4.6749984889e+00 
25800 5.3227329068e+00 -6.1732556567e-02 2.7002617397e+00 -4.6769905268e+00 2.7002617397e+00 4.6769905268e+00 
25900 5.3226353181e+00 -6.1385692608e-02 2.7014049050e+00 -4.6789705472e+00 2.7014049050e+00 4.6789705472e+00 
26000 5.3225391226e+00 -6.1040184120e-02 2.7025411655e+00 -4.6809386081e+00 2.7025411655e+00 4.6809386081e+00 
26100 5.3224443012e+00 -6.0696050022e-02 2.7036705550e+00 -4.6828947681e+00 2.7036705550e+00 4.6828947681e+00 
26200 5.3223508349e+00 -6.0353307977e-02 2.7047931076e+00 -4.6848390863e+00 2.7047931076e+00 4.6848390863e+00 
26300 5.3222587051e+00 -6.0011974433e-02 2.7059088575e+00 -4.6867716219e+00 2.7059088575e+00 4.6867716219e+00 
26400 5.3221678934e+00 -5.9672064667e-02 2.7070178393e+00 -4.6886924346e+00 2.7070178393e+00 4.6886924346e+00 
26500 5.3220783817e+00 -5.9333592821e-02 2.7081200875e+00 -4.6906015846e+00 2.7081200875e+00 4.6906015846e+00 
26600 5.3219901520e+00 -5.8996571949e-02 2.7092156370e+00 -4.6924991319e+00 2.7092156370e+00 4.6924991319e+00 
26700 5.3219031868e+00 -5.8661014053e-02 2.7103045227e+00 -4.6943851373e+00 2.7103045227e+00 4.6943851373e+00 
26800 5.3218174686e+00 -5.8326930122e-02 2.7113867796e+00 -4.6962596612e+00 2.7113867796e+00 4.6962596612e+00 
26900 5.3217329801e+00 -5.7994330175e-02 2.7124624429e+00 -4.6981227647e+00 2.7124624429e+00 4.6981227647e+00 
27000 5.3216497046e+00 -5.7663223294e-02 2.7135315478e+00 -4.6999745087e+00 2.7135315478e+00 4.6999745087e+00 
27100 5.3215676251e+00 -5.7333617666e-02 2.7145941296e+00 -4.7018149544e+00 2.7145941296e+00 4.7018149544e+00 
27200 5.3214867251e+00 -5.7005520616e-02 2.7156502236e+00 -4.7036441629e+00 2.7156502236e+00 4.7036441629e+00 
27300 5.3214069883e+00 -5.6678938643e-02 2.7166998653e+00 -4.7054621956e+00 2.7166998653e+00 4.7054621956e+00 
27400 5.3213283986e+00 -5.6353877459e-02 2.7177430899e+00 -4.7072691137e+00 2.7177430899e+00 4.7072691137e+00 
27500 5.3212509400e+00 -5.6030342019e-02 2.7187799329e+00 -4.7090649784e+00 2.7187799329e+00 4.7090649784e+00 
27600 5.3211745968e+00 -5.5708336556e-02 2.7198104297e+00 -4.7108498512e+00 2.7198104297e+00 4.7108498512e+00 
27700 5.3210993534e+00 -5.5387864615e-02 2.7208346157e+00 -4.7126237933e+00 2.7208346157e+00 4.7126237933e+00 
27800 5.3210251945e+00 -5.5068929083e-02 2.7218525260e+00 -4.7143868658e+00 2.7218525260e+00 4.7143868658e+00 
27900 5.3209521050e+00 -5.4751532222e-02 2.7228641962e+00 -4.7161391299e+00 2.7228641962e+00 4.7161391299e+00 
28000 5.3208800697e+00 -5.4435675697e-02 2.7238696613e+00 -4.7178806466e+00 2.7238696613e+00 4.7178806466e+00 
28100 5.3208090740e+00 -5.4121360608e-02 2.7248689566e+00 -4.7196114768e+00 2.7248689566e+00 4.7196114768e+00 
28200 5.3207391032e+00 -5.3808587517e-02 2.7258621172e+00 -4.7213316814e+00 2.7258621172e+00 4.7213316814e+00 
28300 5.3206701428e+00 -5.3497356476e-02 2.7268491780e+00 -4.7230413209e+00 2.7268491780e+00 4.7230413209e+00 
28400 5.3206021785e+00 -5.3187667055e-02 2.7278301740e+00 -4.7247404558e+00 2.7278301740e+00 4.7247404558e+00 
28500 5.3205351963e+00 -5.2879518368e-02 2.7288051400e+00 -4.7264291464e+00 2.7288051400e+00 4.7264291464e+00 
28600 5.3204691822e+00 -5.2572909096e-02 2.7297741107e+00 -4.7281074530e+00 2.7297741107e+00 4.7281074530e+00 
28700 5.3204041224e+00 -5.2267837515e-02 2.7307371208e+00 -4.7297754354e+00 2.7307371208e+00 4.7297754354e+00 
28800 5.3203400033e+00 -5.1964301519e-02 2.7316942047e+00 -4.7314331533e+00 2.7316942047e+00 4.7314331533e+00 
28900 5.3202768114e+00 -5.1662298641e-02 2.7326453967e+00 -4.7330806662e+00 2.7326453967e+00 4.7330806662e+00 
29000 5.3202145336e+00 -5.1361826077e-02 2.7335907312e+00 -4.7347180335e+00 2.7335907312e+00 4.7347180335e+00 
29100 5.3201531566e+00 -5.1062880706e-02 2.7345302421e+00 -4.7363453141e+00 2.7345302421e+00 4.7363453141e+00 
29200 5.3200926675e+00 -5.0765459111e-02 2.7354639634e+00 -4.7379625670e+00 2.7354639634e+00 4.7379625670e+00 
29300 5.3200330535e+00 -5.0469557601e-02 2.7363919290e+00 -4.7395698505e+00 2.7363919290e+00 4.7395698505e+00 
29400 5.3199743019e+00 -5.0175172226e-02 2.7373141725e+00 -4.7411672230e+00 2.7373141725e+00 4.7411672230e+00 
29500 5.3199164003e+00 -4.9882298799e-02 2.7382307273e+00 -4.7427547426e+00 2.7382307273e+00 4.7427547426e+00 
29600 5.3198593362e+00 -4.9590932912e-02 2.7391416269e+00 -4.7443324669e+00 2.7391416269e+00 4.7443324669e+00 
29700 5.3198030975e+00 -4.9301069951e-02 2.7400469044e+00 -4.7459004535e+00 2.7400469044e+00 4.7459004535e+00 
29800 5.3197476722e+00 -4.9012705115e-02 2.7409465927e+00 -4.7474587594e+00 2.7409465927e+00 4.7474587594e+00 
29900 5.3196930484e+00 -4.8725833432e-02 2.7418407249e+00 -4.7490074417e+00 2.7418407249e+00 4.7490074417e+00 
30000 5.3196392142e+00 -4.8440449769e-02 2.7427293335e+00 -4.7505465570e+00 2.7427293335e+00 4.7505465570e+00 
30100 5.3195861582e+00 -4.8156548850e-02 2.7436124510e+00 -4.7520761614e+00 2.7436124510e+00 4.7520761614e+00 
30200 5.3195338688e+00 -4.7874125271e-02 2.7444901099e+00 -4.7535963112e+00 2.7444901099e+00 4.7535963112e+00 
30300 5.3194823349e+00 -4.7593173507e-02 2.7453623422e+00 -4.7551070619e+00 2.7453623422e+00 4.7551070619e+00 
30400 5.3194315451e+00 -4.7313687928e-02 2.7462291800e+00 -4.7566084690e+00 2.7462291800e+00 4.7566084690e+00 
30500 5.3193814885e+00 -4.7035662811e-02 2.7470906551e+00 -4.7581005876e+00 2.7470906551e+00 4.7581005876e+00 
30600 5.3193321543e+00 -4.6759092349e-02 2.7479467991e+00 -4.7595834726e+00 2.7479467991e+00 4.7595834726e+00 
30700 5.3192835316e+00 -4.6483970661e-02 2.7487976435e+00 -4.7610571784e+00 2.7487976435e+00 4.7610571784e+00 
30800 5.3192356099e+00 -4.6210291805e-02 2.7496432197e+00 -4.7625217592e+00 2.7496432197e+00 4.7625217592e+00 
30900 5.3191883788e+00 -4.5938049782e-02 2.7504835586e+00 -4.7639772689e+00 2.7504835586e+00 4.7639772689e+00 
31000 5.3191418279e+00 -4.5667238551e-02 2.7513186913e+00 -4.7654237611e+00 2.7513186913e+00 4.7654237611e+00 
31100 5.3190959471e+00 -4.5397852032e-02 2.7521486484e+00 -4.7668612891e+00 2.7521486484e+00 4.7668612891e+00 
31200 5.3190507262e+00 -4.5129884114e-02 2.7529734607e+00 -4.7682899058e+00 2.7529734607e+00 4.7682899058e+00 
31300 5.3190061555e+00 -4.4863328667e-02 2.7537931585e+00 -4.7697096640e+00 2.7537931585e+00 4.7697096640e+00 
31400 5.3189622251e+00 -4.4598179543e-02 2.7546077719e+00 -4.7711206159e+00 2.7546077719e+00 4.7711206159e+00 
31500 5.3189189254e+00 -4.4334430584e-02 2.7554173312e+00 -4.7725228136e+00 2.7554173312e+00 4.7725228136e+00 
31600 5.3188762469e+00 -4.4072075630e-02 2.7562218660e+00 -4.7739163089e+00 2.7562218660e+00 4.7739163089e+00 
31700 5.3188341802e+00 -4.3811108524e-02 2.7570214063e+00 -4.7753011532e+00 2.7570214063e+00 4.7753011532e+00 
31800 5.3187927161e+00 -4.3551523112e-02 2.7578159814e+00 -4.7766773977e+00 2.7578159814e+00 4.7766773977e+00 
31900 5.3187518455e+00 -4.3293313254e-02 2.7586056208e+00 -4.7780450932e+00 2.7586056208e+00 4.7780450932e+00 
32000 5.3187115593e+00 -4.3036472825e-02 2.7593903535e+00 -4.7794042902e+00 2.7593903535e+00 4.7794042902e+00 
32100 5.3186718487e+00 -4.2780995721e-02 2.7601702087e+00 -4.7807550391e+00 2.7601702087e+00 4.7807550391e+00 
32200 5.3186327049e+00 -4.2526875858e-02 2.7609452153e+00 -4.7820973897e+00 2.7609452153e+00 4.7820973897e+00 
32300 5.3185941195e+00 -4.2274107181e-02 2.7617154017e+00 -4.7834313918e+00 2.7617154017e+00 4.7834313918e+00 
32400 5.3185560838e+00 -4.2022683664e-02 2.7624807966e+00 -4.7847570947e+00 2.7624807966e+00 4.7847570947e+00 
32500 5.3185185894e+00 -4.1772599311e-02 2.7632414284e+00 -4.7860745475e+00 2.7632414284e+00 4.7860745475e+00 
32600 5.3184816283e+00 -4.1523848162e-02 2.7639973251e+00 -4.7873837991e+00 2.7639973251e+00 4.7873837991e+00 
32700 5.3184451922e+00 -4.1276424292e-02 2.7647485148e+00 -4.7886848979e+00 2.7647485148e+00 4.7886848979e+00 
32800 5.3184092731e+00 -4.1030321814e-02 2.7654950254e+00 -4.7899778921e+00 2.7654950254e+00 4.7899778921e+00 
32900 5.3183738631e+00 -4.0785534883e-02 2.7662368846e+00 -4.7912628299e+00 2.7662368846e+00 4.7912628299e+00 
33000 5.3183389545e+00 -4.0542057692e-02 2.7669741198e+00 -4.7925397588e+00 2.7669741198e+00 4.7925397588e+00 
33100 5.3183045396e+00 -4.0299884477e-02 2.7677067585e+00 -4.7938087262e+00 2.7677067585e+00 4.7938087262e+00 
33200 5.3182706109e+00 -4.0059009517e-02 2.7684348279e+00 -4.7950697794e+00 2.7684348279e+00 4.7950697794e+00 
33300 5.3182371608e+00 -3.9819427136e-02 2.7691583550e+00 -4.7963229651e+00 2.7691583550e+00 4.7963229651e+00 
33400 5.3182041822e+00 -3.9581131700e-02 2.7698773668e+00 -4.7975683300e+00 2.7698773668e+00 4.7975683300e+00 
33500 5.3181716678e+00 -3.9344117621e-02 2.7705918900e+00 -4.7988059205e+00 2.7705918900e+00 4.7988059205e+00 
33600 5.3181396105e+00 -3.9108379356e-02 2.7713019512e+00 -4.8000357827e+00 2.7713019512e+00 4.8000357827e+00 
33700 5.3181080033e+00 -3.8873911407e-02 2.7720075770e+00 -4.8012579623e+00 2.7720075770e+00 4.8012579623e+00 
33800 5.3180768394e+00 -3.8640708319e-02 2.7727087935e+00 -4.8024725049e+00 2.7727087935e+00 4.8024725049e+00 
33900 5.3180461119e+00 -3.8408764685e-02 2.7734056270e+00 -4.8036794559e+00 2.7734056270e+00 4.8036794559e+00 
34000 5.3180158141e+00 -3.8178075138e-02 2.7740981034e+00 -4.8048788603e+00 2.7740981034e+00 4.8048788603e+00 
34100 5.3179859395e+00 -3.7948634360e-02 2.7747862487e+00 -4.8060707630e+00 2.7747862487e+00 4.8060707630e+00 
34200 5.3179564817e+00 -3.7720437072e-02 2.7754700887e+00 -4.8072552085e+00 2.7754700887e+00 4.8072552085e+00 
34300 5.3179274342e+00 -3.7493478041e-02 2.7761496488e+00 -4.8084322411e+00 2.7761496488e+00 4.8084322411e+00 
34400 5.3178987908e+00 -3.7267752074e-02 2.7768249546e+00 -4.8096019050e+00 2.7768249546e+00 4.8096019050e+00 
34500 5.3178705453e+00 -3.7043254021e-02 2.7774960313e+00 -4.8107642441e+00 2.7774960313e+00 4.8107642441e+00 
34600 5.3178426916e+00 -3.6819978771e-02 2.7781629042e+00 -4.8119193018e+00 2.7781629042e+00 4.8119193018e+00 
34700 5.3178152238e+00 -3.6597921253e-02 2.7788255983e+00 -4.8130671216e+00 2.7788255983e+00 4.8130671216e+00 
34800 5.3177881359e+00 -3.6377076436e-02 2.7794841385e+00 -4.8142077466e+00 2.7794841385e+00 4.8142077466e+00 
34900 5.3177614222e+00 -3.6157439325e-02 2.7801385495e+00 -4.8153412199e+00 2.7801385495e+00 4.8153412199e+00 
35000 5.3177350770e+00 -3.5939004963e-02 2.7807888561e+00 -4.8164675839e+00 2.7807888561e+00 4.8164675839e+00 
35100 5.3177090946e+00 -3.5721768427e-02 2.7814350828e+00 -4.8175868813e+00 2.7814350828e+00 4.8175868813e+00 
35200 5.3176834695e+00 -3.5505724830e-02 2.7820772538e+00 -4.8186991542e+00 2.7820772538e+00 4.8186991542e+00 
35300 5.3176581963e+00 -3.5290869318e-02 2.7827153936e+00 -4.8198044447e+00 2.7827153936e+00 4.8198044447e+00 
35400 5.3176332697e+00 -3.5077197067e-02 2.7833495261e+00 -4.8209027945e+00 2.7833495261e+00 4.8209027945e+00 
35500 5.3176086843e+00 -3.4864703288e-02 2.7839796755e+00 -4.8219942453e+00 2.7839796755e+00 4.8219942453e+00 
35600 5.3175844350e+00 -3.4653383219e-02 2.7846058656e+00 -4.8230788383e+00 2.7846058656e+00 4.8230788383e+00 
35700 5.3175605167e+00 -3.4443232126e-02 2.7852281202e+00 -4.8241566148e+00 2.7852281202e+00 4.8241566148e+00 
35800 5.3175369244e+00 -3.4234245305e-02 2.7858464628e+00 -4.8252276157e+00 2.7858464628e+00 4.8252276157e+00 
35900 5.3175136532e+00 -3.4026418077e-02 2.7864609171e+00 -4.8262918817e+00 2.7864609171e+00 4.8262918817e+00 
36000 5.3174906982e+00 -3.3819745787e-02 2.7870715063e+00 -4.8273494532e+00 2.7870715063e+00 4.8273494532e+00 
36100 5.3174680545e+00 -3.3614223805e-02 2.7876782538e+00 -4.8284003707e+00 2.7876782538e+00 4.8284003707e+00 
36200 5.3174457176e+00 -3.3409847524e-02 2.7882811827e+00 -4.8294446742e+00 2.7882811827e+00 4.8294446742e+00 
36300 5.3174236828e+00 -3.3206612358e-02 2.7888803160e+00 -4.8304824035e+00 2.7888803160e+00 4.8304824035e+00 
36400 5.3174019456e+00 -3.3004513741e-02 2.7894756767e+00 -4.8315135985e+00 2.7894756767e+00 4.8315135985e+00 
36500 5.3173805014e+00 -3.2803547128e-02 2.7900672875e+00 -4.8325382985e+00 2.7900672875e+00 4.8325382985e+00 
36600 5.3173593459e+00 -3.2603707990e-02 2.7906551712e+00 -4.8335565428e+00 2.7906551712e+00 4.8335565428e+00 
36700 5.3173384747e+00 -3.2404991816e-02 2.7912393502e+00 -4.8345683706e+00 2.7912393502e+00 4.8345683706e+00 
36800 5.3173178837e+00 -3.2207394112e-02 2.7918198471e+00 -4.8355738207e+00 2.7918198471e+00 4.8355738207e+00 
36900 5.3172975685e+00 -3.2010910397e-02 2.7923966841e+00 -4.8365729318e+00 2.7923966841e+00 4.8365729318e+00 
37000 5.3172775251e+00 -3.1815536206e-02 2.7929698836e+00 -4.8375657424e+00 2.7929698836e+00 4.8375657424e+00 
37100 5.3172577494e+00 -3.1621267086e-02 2.7935394676e+00 -4.8385522908e+00 2.7935394676e+00 4.8385522908e+00 
37200 5.3172382374e+00 -3.1428098596e-02 2.7941054580e+00 -4.8395326150e+00 2.7941054580e+00 4.8395326150e+00 
37300 5.3172189853e+00 -3.1236026307e-02 2.7946678769e+00 -4.8405067531e+00 2.7946678769e+00 4.8405067531e+00 
37400 5.3171999890e+00 -3.1045045799e-02 2.7952267459e+00 -4.8414747427e+00 2.7952267459e+00 4.8414747427e+00 
37500 5.3171812449e+00 -3.0855152663e-02 2.7957820868e+00 -4.8424366213e+00 2.7957820868e+00 4.8424366213e+00 
37600 5.3171627493e+00 -3.0666342497e-02 2.7963339211e+00 -4.8433924263e+00 2.7963339211e+00 4.8433924263e+00 
37700 5.3171444983e+00 -3.0478610908e-02 2.7968822702e+00 -4.8443421948e+00 2.7968822702e+00 4.8443421948e+00 
37800 5.3171264885e+00 -3.0291953509e-02 2.7974271555e+00 -4.8452859638e+00 2.7974271555e+00 4.8452859638e+00 
37900 5.3171087162e+00 -3.0106365920e-02 2.7979685982e+00 -4.8462237701e+00 2.7979685982e+00 4.8462237701e+00 
38000 5.3170911780e+00 -2.9921843766e-02 2.7985066194e+00 -4.8471556502e+00 2.7985066194e+00 4.8471556502e+00 
38100 5.3170738703e+00 -2.9738382679e-02 2.7990412402e+00 -4.8480816406e+00 2.7990412402e+00 4.8480816406e+00 
38200 5.3170567900e+00 -2.9555978292e-02 2.7995724815e+00 -4.8490017774e+00 2.7995724815e+00 4.8490017774e+00 
38300 5.3170399335e+00 -2.9374626244e-02 2.8001003640e+00 -4.8499160967e+00 2.8001003640e+00 4.8499160967e+00 
38400 5.3170232976e+00 -2.9194322177e-02 2.8006249085e+00 -4.8508246344e+00 2.8006249085e+00 4.8508246344e+00 
38500 5.3170068792e+00 -2.9015061735e-02 2.8011461355e+00 -4.8517274261e+00 2.8011461355e+00 4.8517274261e+00 
38600 5.3169906750e+00 -2.8836840564e-02 2.8016640655e+00 -4.8526245073e+00 2.8016640655e+00 4.8526245073e+00 
38700 5.3169746819e+00 -2.8659654313e-02 2.8021787190e+00 -4.8535159132e+00 2.8021787190e+00 4.8535159132e+00 
38800 5.3169588968e+00 -2.8483498631e-02 2.8026901162e+00 -4.8544016791e+00 2.8026901162e+00 4.8544016791e+00 
38900 5.3169433167e+00 -2.8308369167e-02 2.8031982773e+00 -4.8552818399e+00 2.8031982773e+00 4.8552818399e+00 
39000 5.3169279387e+00 -2.8134261573e-02 2.8037032222e+00 -4.8561564303e+00 2.8037032222e+00 4.8561564303e+00 
39100 5.3169127598e+00 -2.7961171499e-02 2.8042049712e+00 -4.8570254849e+00 2.8042049712e+00 4.8570254849e+00 
39200 5.3168977772e+00 -2.7789094596e-02 2.8047035438e+00 -4.8578890381e+00 2.8047035438e+00 4.8578890381e+00 
39300 5.3168829880e+00 -2.7618026514e-02 2.8051989601e+00 -4.8587471242e+00 2.8051989601e+00 4.8587471242e+00 
39400 5.3168683894e+00 -2.7447962902e-02 2.8056912395e+00 -4.8595997771e+00 2.8056912395e+00 4.8595997771e+00 
39500 5.3168539788e+00 -2.7278899409e-02 2.8061804016e+00 -4.8604470308e+00 2.8061804016e+00 4.8604470308e+00 
39600 5.3168397533e+00 -2.7110831682e-02 2.8066664660e+00 -4.8612889190e+00 2.8066664660e+00 4.8612889190e+00 
39700 5.3168257104e+00 -2.6943755368e-02 2.8071494520e+00 -4.8621254752e+00 2.8071494520e+00 4.8621254752e+00 
39800 5.3168118475e+00 -2.6777666110e-02 2.8076293787e+00 -4.8629567328e+00 2.8076293787e+00 4.8629567328e+00 
39900 5.3167981619e+00 -2.6612559552e-02 2.8081062655e+00 -4.8637827248e+00 2.8081062655e+00 4.8637827248e+00 
40000 5.3167846512e+00 -2.6448431334e-02 2.8085801312e+00 -4.8646034844e+00 2.8085801312e+00 4.8646034844e+00 
40100 5.3167713128e+00 -2.6285277098e-02 2.8090509949e+00 -4.8654190443e+00 2.8090509949e+00 4.8654190443e+00 
40200 5.3167581444e+00 -2.6123092480e-02 2.8095188755e+00 -4.8662294372e+00 2.8095188755e+00 4.8662294372e+00 
40300 5.3167451435e+00 -2.5961873116e-02 2.8099837916e+00 -4.8670346955e+00 2.8099837916e+00 4.8670346955e+00 
40400 5.3167323077e+00 -2.5801614640e-02 2.8104457620e+00 -4.8678348517e+00 2.8104457620e+00 4.8678348517e+00 
40500 5.3167196348e+00 -2.5642312685e-02 2.8109048051e+00 -4.8686299377e+00 2.8109048051e+00 4.8686299377e+00 
40600 5.3167071224e+00 -2.5483962881e-02 2.8113609395e+00 -4.8694199856e+00 2.8113609395e+00 4.8694199856e+00 
40700 5.3166947682e+00 -2.5326560856e-02 2.8118141835e+00 -4.8702050272e+00 2.8118141835e+00 4.8702050272e+00 
40800 5.3166825702e+00 -2.5170102239e-02 2.8122645553e+00 -4.8709850941e+00 2.8122645553e+00 4.8709850941e+00 
40900 5.3166705259e+00 -2.5014582653e-02 2.8127120731e+00 -4.8717602176e+00 2.8127120731e+00 4.8717602176e+00 
41000 5.3166586334e+00 -2.4859997724e-02 2.8131567550e+00 -4.8725304292e+00 2.8131567550e+00 4.8725304292e+00 
41100 5.3166468905e+00 -2.4706343073e-02 2.8135986189e+00 -4.8732957600e+00 2.8135986189e+00 4.8732957600e+00 
41200 5.3166352950e+00 -2.4553614322e-02 2.8140376827e+00 -4.8740562408e+00 2.8140376827e+00 4.8740562408e+00 
41300 5.3166238451e+00 -2.4401807091e-02 2.8144739641e+00 -4.8748119024e+00 2.8144739641e+00 4.8748119024e+00 
41400 5.3166125385e+00 -2.4250916999e-02 2.8149074809e+00 -4.8755627755e+00 2.8149074809e+00 4.8755627755e+00 
41500 5.3166013734e+00 -2.4100939665e-02 2.8153382505e+00 -4.8763088904e+00 2.8153382505e+00 4.8763088904e+00 
41600 5.3165903478e+00 -2.3951870706e-02 2.8157662906e+00 -4.8770502775e+00 2.8157662906e+00 4.8770502775e+00 
41700 5.3165794598e+00 -2.3803705740e-02 2.8161916184e+00 -4.8777869669e+00 2.8161916184e+00 4.8777869669e+00 
41800 5.3165687075e+00 -2.3656440384e-02 2.8166142512e+00 -4.8785189884e+00 2.8166142512e+00 4.8785189884e+00 
41900 5.3165580889e+00 -2.3510070255e-02 2.8170342063e+00 -4.8792463719e+00 2.8170342063e+00 4.8792463719e+00 
42000 5.3165476023e+00 -2.3364590971e-02 2.8174515007e+00 -4.8799691470e+00 2.8174515007e+00 4.8799691470e+00 
42100 5.3165372459e+00 -2.3219998149e-02 2.8178661513e+00 -4.8806873431e+00 2.8178661513e+00 4.8806873431e+00 
42200 5.3165270178e+00 -2.3076287408e-02 2.8182781752e+00 -4.8814009894e+00 2.8182781752e+00 4.8814009894e+00 
42300 5.3165169164e+00 -2.2933454368e-02 2.8186875892e+00 -4.8821101151e+00 2.8186875892e+00 4.8821101151e+00 
42400 5.3165069398e+00 -2.2791494650e-02 2.8190944098e+00 -4.8828147491e+00 2.8190944098e+00 4.8828147491e+00 
42500 5.3164970865e+00 -2.2650403874e-02 2.8194986538e+00 -4.8835149202e+00 2.8194986538e+00 4.8835149202e+00 
42600 5.3164873546e+00 -2.2510177666e-02 2.8199003376e+00 -4.8842106571e+00 2.8199003376e+00 4.8842106571e+00 
42700 5.3164777427e+00 -2.2370811651e-02 2.8202994778e+00 -4.8849019881e+00 2.8202994778e+00 4.8849019881e+00 
42800 5.3164682489e+00 -2.2232301458e-02 2.8206960906e+00 -4.8855889416e+00 2.8206960906e+00 4.8855889416e+00 
42900 5.3164588719e+00 -2.2094642716e-02 2.8210901922e+00 -4.8862715456e+00 2.8210901922e+00 4.8862715456e+00 
43000 5.3164496099e+00 -2.1957831060e-02 2.8214817989e+00 -4.8869498282e+00 2.8214817989e+00 4.8869498282e+00 
43100 5.3164404614e+00 -2.1821862126e-02 2.8218709266e+00 -4.8876238172e+00 2.8218709266e+00 4.8876238172e+00 
43200 5.3164314250e+00 -2.1686731554e-02 2.8222575913e+00 -4.8882935402e+00 2.8222575913e+00 4.8882935402e+00 
43300 5.3164224990e+00 -2.1552434987e-02 2.8226418090e+00 -4.8889590247e+00 2.8226418090e+00 4.8889590247e+00 
43400 5.3164136820e+00 -2.1418968074e-02 2.8230235953e+00 -4.8896202980e+00 2.8230235953e+00 4.8896202980e+00 
43500 5.3164049726e+00 -2.1286326466e-02 2.8234029660e+00 -4.8902773873e+00 2.8234029660e+00 4.8902773873e+00 
43600 5.3163963694e+00 -2.1154505819e-02 2.8237799366e+00 -4.8909303196e+00 2.8237799366e+00 4.8909303196e+00 
43700 5.3163878708e+00 -2.1023501795e-02 2.8241545227e+00 -4.8915791217e+00 2.8241545227e+00 4.8915791217e+00 
43800 5.3163794755e+00 -2.0893310061e-02 2.8245267396e+00 -4.8922238204e+00 2.8245267396e+00 4.8922238204e+00 
43900 5.3163711822e+00 -2.0763926287e-02 2.8248966028e+00 -4.8928644421e+00 2.8248966028e+00 4.8928644421e+00 
44000 5.3163629895e+00 -2.0635346152e-02 2.8252641273e+00 -4.8935010133e+00 2.8252641273e+00 4.8935010133e+00 
44100 5.3163548960e+00 -2.0507565340e-02 2.8256293284e+00 -4.8941335601e+00 2.8256293284e+00 4.8941335601e+00 
44200 5.3163469005e+00 -2.0380579539e-02 2.8259922211e+00 -4.8947621087e+00 2.8259922211e+00 4.8947621087e+00 
44300 5.3163390016e+00 -2.0254384448e-02 2.8263528203e+00 -4.8953866849e+00 2.8263528203e+00 4.8953866849e+00 
44400 5.3163311981e+00 -2.0128975768e-02 2.8267111410e+00 -4.8960073145e+00 2.8267111410e+00 4.8960073145e+00 
44500 5.3163234887e+00 -2.0004349211e-02 2.8270671979e+00 -4.8966240231e+00 2.8270671979e+00 4.8966240231e+00 
44600 5.3163158722e+00 -1.9880500495e-02 2.8274210056e+00 -4.8972368361e+00 2.8274210056e+00 4.8972368361e+00 
44700 5.3163083474e+00 -1.9757425346e-02 2.8277725789e+00 -4.8978457789e+00 2.8277725789e+00 4.8978457789e+00 
44800 5.3163009130e+00 -1.9635119497e-02 2.8281219322e+00 -4.8984508765e+00 2.8281219322e+00 4.8984508765e+00 
44900 5.3162935679e+00 -1.9513578691e-02 2.8284690799e+00 -4.8990521540e+00 2.8284690799e+00 4.8990521540e+00 
45000 5.3162863110e+00 -1.9392798678e-02 2.8288140364e+00 -4.8996496361e+00 2.8288140364e+00 4.8996496361e+00 
45100 5.3162791410e+00 -1.9272775218e-02 2.8291568159e+00 -4.9002433477e+00 2.8291568159e+00 4.9002433477e+00 
45200 5.3162720569e+00 -1.9153504080e-02 2.8294974326e+00 -4.9008333131e+00 2.8294974326e+00 4.9008333131e+00 
45300 5.3162650575e+00 -1.9034981042e-02 2.8298359006e+00 -4.9014195569e+00 2.8298359006e+00 4.9014195569e+00 
45400 5.3162581417e+00 -1.8917201891e-02 2.8301722338e+00 -4.9020021031e+00 2.8301722338e+00 4.9020021031e+00 
45500 5.3162513085e+00 -1.8800162425e-02 2.8305064462e+00 -4.9025809760e+00 2.8305064462e+00 4.9025809760e+00 
45600 5.3162445567e+00 -1.8683858452e-02 2.8308385516e+00 -4.9031561995e+00 2.8308385516e+00 4.9031561995e+00 
45700 5.3162378854e+00 -1.8568285791e-02 2.8311685638e+00 -4.9037277973e+00 2.8311685638e+00 4.9037277973e+00 
45800 5.3162312935e+00 -1.8453440269e-02 2.8314964963e+00 -4.9042957930e+00 2.8314964963e+00 4.9042957930e+00 
45900 5.3162247799e+00 -1.8339317728e-02 2.8318223627e+00 -4.9048602103e+00 2.8318223627e+00 4.9048602103e+00 
46000 5.3162183437e+00 -1.8225914017e-02 2.8321461766e+00 -4.9054210723e+00 2.8321461766e+00 4.9054210723e+00 
46100 5.3162119839e+00 -1.8113225000e-02 2.8324679513e+00 -4.9059784025e+00 2.8324679513e+00 4.9059784025e+00 
46200 5.3162056995e+00 -1.8001246550e-02 2.8327877001e+00 -4.9065322237e+00 2.8327877001e+00 4.9065322237e+00 
46300 5.3161994895e+00 -1.7889974552e-02 2.8331054363e+00 -4.9070825589e+00 2.8331054363e+00 4.9070825589e+00 
46400 5.3161933529e+00 -1.7779404906e-02 2.8334211730e+00 -4.9076294309e+00 2.8334211730e+00 4.9076294309e+00 
46500 5.3161872890e+00 -1.7669533520e-02 2.8337349233e+00 -4.9081728623e+00 2.8337349233e+00 4.9081728623e+00 
46600 5.3161812966e+00 -1.7560356317e-02 2.8340467001e+00 -4.9087128756e+00 2.8340467001e+00 4.9087128756e+00 
46700 5.3161753750e+00 -1.7451869233e-02 2.8343565164e+00 -4.9092494931e+00 2.8343565164e+00 4.9092494931e+00 
46800 5.3161695231e+00 -1.7344068215e-02 2.8346643849e+00 -4.9097827371e+00 2.8346643849e+00 4.9097827371e+00 
46900 5.3161637402e+00 -1.7236949226e-02 2.8349703185e+00 -4.9103126296e+00 2.8349703185e+00 4.9103126296e+00 
47000 5.3161580254e+00 -1.7130508238e-02 2.8352743297e+00 -4.9108391925e+00 2.8352743297e+00 4.9108391925e+00 
47100 5.3161523777e+00 -1.7024741241e-02 2.8355764312e+00 -4.9113624477e+00 2.8355764312e+00 4.9113624477e+00 
47200 5.3161467964e+00 -1.6919644236e-02 2.8358766355e+00 -4.9118824167e+00 2.8358766355e+00 4.9118824167e+00 
47300 5.3161412806e+00 -1.6815213238e-02 2.8361749549e+00 -4.9123991210e+00 2.8361749549e+00 4.9123991210e+00 
47400 5.3161358295e+00 -1.6711444276e-02 2.8364714018e+00 -4.9129125822e+00 2.8364714018e+00 4.9129125822e+00 
47500 5.3161304422e+00 -1.6608333396e-02 2.8367659885e+00 -4.9134228212e+00 2.8367659885e+00 4.9134228212e+00 
47600 5.3161251180e+00 -1.6505876653e-02 2.8370587271e+00 -4.9139298594e+00 2.8370587271e+00 4.9139298594e+00 
47700 5.3161198562e+00 -1.6404070121e-02 2.8373496298e+00 -4.9144337176e+00 2.8373496298e+00 4.9144337176e+00 
47800 5.3161146558e+00 -1.6302909888e-02 2.8376387085e+00 -4.9149344166e+00 2.8376387085e+00 4.9149344166e+00 
47900 5.3161095161e+00 -1.6202392054e-02 2.8379259752e+00 -4.9154319772e+00 2.8379259752e+00 4.9154319772e+00 
48000 5.3161044364e+00 -1.6102512737e-02 2.8382114419e+00 -4.9159264200e+00 2.8382114419e+00 4.9159264200e+00 
48100 5.3160994160e+00 -1.6003268069e-02 2.8384951202e+00 -4.9164177652e+00 2.8384951202e+00 4.9164177652e+00 
48200 5.3160944540e+00 -1.5904654197e-02 2.8387770219e+00 -4.9169060333e+00 2.8387770219e+00 4.9169060333e+00 
48300 5.3160895498e+00 -1.5806667283e-02 2.8390571587e+00 -4.9173912444e+00 2.8390571587e+00 4.9173912444e+00 
48400 5.3160847026e+00 -1.5709303506e-02 2.8393355420e+00 -4.9178734185e+00 2.8393355420e+00 4.9178734185e+00 
48500 5.3160799118e+00 -1.5612559060e-02 2.8396121835e+00 -4.9183525756e+00 2.8396121835e+00 4.9183525756e+00 
48600 5.3160751766e+00 -1.5516430154e-02 2.8398870945e+00 -4.9188287354e+00 2.8398870945e+00 4.9188287354e+00 
48700 5.3160704964e+00 -1.5420913013e-02 2.8401602863e+00 -4.9193019175e+00 2.8401602863e+00 4.9193019175e+00 
48800 5.3160658704e+00 -1.5326003879e-02 2.8404317702e+00 -4.9197721415e+00 2.8404317702e+00 4.9197721415e+00 
48900 5.3160612981e+00 -1.5231699008e-02 2.8407015575e+00 -4.9202394267e+00 2.8407015575e+00 4.9202394267e+00 
49000 5.3160567787e+00 -1.5137994675e-02 2.8409696592e+00 -4.9207037925e+00 2.8409696592e+00 4.9207037925e+00 
49100 5.3160523116e+00 -1.5044887170e-02 2.8412360864e+00 -4.9211652579e+00 2.8412360864e+00 4.9211652579e+00 
49200 5.3160478961e+00 -1.4952372798e-02 2.8415008501e+00 -4.9216238420e+00 2.8415008501e+00 4.9216238420e+00 
49300 5.3160435317e+00 -1.4860447883e-02 2.8417639611e+00 -4.9220795637e+00 2.8417639611e+00 4.9220795637e+00 
49400 5.3160392176e+00 -1.4769108763e-02 2.8420254303e+00 -4.9225324417e+00 2.8420254303e+00 4.9225324417e+00 
49500 5.3160349533e+00 -1.4678351795e-02 2.8422852685e+00 -4.9229824946e+00 2.8422852685e+00 4.9229824946e+00 
49600 5.3160307382e+00 -1.4588173350e-02 2.8425434863e+00 -4.9234297409e+00 2.8425434863e+00 4.9234297409e+00 
49700 5.3160265717e+00 -1.4498569819e-02 2.8428000944e+00 -4.9238741992e+00 2.8428000944e+00 4.9238741992e+00 
49800 5.3160224531e+00 -1.4409537608e-02 2.8430551033e+00 -4.9243158876e+00 2.8430551033e+00 4.9243158876e+00 
49900 5.3160183819e+00 -1.4321073139e-02 2.8433085235e+00 -4.9247548242e+00 2.8433085235e+00 4.9247548242e+00 
50000 5.3160143575e+00 -1.4233172853e-02 2.8435603654e+00 -4.9251910272e+00 2.8435603654e+00 4.9251910272e+00 
50100 5.3160103794e+00 -1.4145833207e-02 2.8438106393e+00 -4.9256245144e+00 2.8438106393e+00 4.9256245144e+00 
50200 5.3160064469e+00 -1.4059050676e-02 2.8440593556e+00 -4.9260553036e+00 2.8440593556e+00 4.9260553036e+00 
50300 5.3160025596e+00 -1.3972821750e-02 2.8443065244e+00 -4.9264834125e+00 2.8443065244e+00 4.9264834125e+00 
50400 5.3159987168e+00 -1.3887142938e-02 2.8445521558e+00 -4.9269088587e+00 2.8445521558e+00 4.9269088587e+00 
50500 5.3159949181e+00 -1.3802010767e-02 2.8447962600e+00 -4.9273316595e+00 2.8447962600e+00 4.9273316595e+00 
50600 5.3159911629e+00 -1.3717421779e-02 2.8450388469e+00 -4.9277518324e+00 2.8450388469e+00 4.9277518324e+00 
50700 5.3159874507e+00 -1.3633372535e-02 2.8452799265e+00 -4.9281693944e+00 2.8452799265e+00 4.9281693944e+00 
50800 5.3159837809e+00 -1.3549859612e-02 2.8455195086e+00 -4.9285843628e+00 2.8455195086e+00 4.9285843628e+00 
50900 5.3159801531e+00 -1.3466879607e-02 2.8457576031e+00 -4.9289967545e+00 2.8457576031e+00 4.9289967545e+00 
51000 5.3159765668e+00 -1.3384429131e-02 2.8459942196e+00 -4.9294065864e+00 2.8459942196e+00 4.9294065864e+00 
51100 5.3159730214e+00 -1.3302504816e-02 2.8462293679e+00 -4.9298138752e+00 2.8462293679e+00 4.9298138752e+00 
51200 5.3159695164e+00 -1.3221103307e-02 2.8464630575e+00 -4.9302186375e+00 2.8464630575e+00 4.9302186375e+00 
51300 5.3159660514e+00 -1.3140221271e-02 2.8466952981e+00 -4.9306208900e+00 2.8466952981e+00 4.9306208900e+00 
51400 5.3159626260e+00 -1.3059855390e-02 2.8469260990e+00 -4.9310206489e+00 2.8469260990e+00 4.9310206489e+00 
51500 5.3159592395e+00 -1.2980002365e-02 2.8471554698e+00 -4.9314179307e+00 2.8471554698e+00 4.9314179307e+00 
51600 5.3159558916e+00 -1.2900658912e-02 2.8473834197e+00 -4.9318127515e+00 2.8473834197e+00 4.9318127515e+00 
51700 5.3159525818e+00 -1.2821821768e-02 2.8476099580e+00 -4.9322051274e+00 2.8476099580e+00 4.9322051274e+00 
51800 5.3159493096e+00 -1.2743487685e-02 2.8478350940e+00 -4.9325950744e+00 2.8478350940e+00 4.9325950744e+00 
51900 5.3159460746e+00 -1.2665653432e-02 2.8480588369e+00 -4.9329826084e+00 2.8480588369e+00 4.9329826084e+00 
52000 5.3159428764e+00 -1.2588315799e-02 2.8482811956e+00 -4.9333677451e+00 2.8482811956e+00 4.9333677451e+00 
52100 5.3159397144e+00 -1.2511471591e-02 2.8485021794e+00 -4.9337505002e+00 2.8485021794e+00 4.9337505002e+00 
52200 5.3159365884e+00 -1.2435117630e-02 2.8487217972e+00 -4.9341308893e+00 2.8487217972e+00 4.9341308893e+00 
52300 5.3159334978e+00 -1.2359250758e-02 2.8489400578e+00 -4.9345089278e+00 2.8489400578e+00 4.9345089278e+00 
52400 5.3159304422e+00 -1.2283867831e-02 2.8491569702e+00 -4.9348846311e+00 2.8491569702e+00 4.9348846311e+00 
52500 5.3159274213e+00 -1.2208965727e-02 2.8493725431e+00 -4.9352580144e+00 2.8493725431e+00 4.9352580144e+00 
52600 5.3159244345e+00 -1.2134541337e-02 2.8495867853e+00 -4.9356290928e+00 2.8495867853e+00 4.9356290928e+00 
52700 5.3159214816e+00 -1.2060591573e-02 2.8497997056e+00 -4.9359978814e+00 2.8497997056e+00 4.9359978814e+00 
52800 5.3159185621e+00 -1.1987113363e-02 2.8500113124e+00 -4.9363643952e+00 2.8500113124e+00 4.9363643952e+00 
52900 5.3159156755e+00 -1.1914103651e-02 2.8502216144e+00 -4.9367286489e+00 2.8502216144e+00 4.9367286489e+00 
53000 5.3159128216e+00 -1.1841559402e-02 2.8504306200e+00 -4.9370906573e+00 2.8504306200e+00 4.9370906573e+00 
53100 5.3159100000e+00 -1.1769477596e-02 2.8506383378e+00 -4.9374504351e+00 2.8506383378e+00 4.9374504351e+00 
53200 5.3159072101e+00 -1.1697855229e-02 2.8508447761e+00 -4.9378079968e+00 2.8508447761e+00 4.9378079968e+00 
53300 5.3159044518e+00 -1.1626689319e-02 2.8510499433e+00 -4.9381633567e+00 2.8510499433e+00 4.9381633567e+00 
53400 5.3159017246e+00 -1.1555976896e-02 2.8512538476e+00 -4.9385165294e+00 2.8512538476e+00 4.9385165294e+00 
53500 5.3158990281e+00 -1.1485715010e-02 2.8514564973e+00 -4.9388675289e+00 2.8514564973e+00 4.9388675289e+00 
53600 5.3158963620e+00 -1.1415900730e-02 2.8516579005e+00 -4.9392163695e+00 2.8516579005e+00 4.9392163695e+00 
53700 5.3158937260e+00 -1.1346531138e-02 2.8518580654e+00 -4.9395630652e+00 2.8518580654e+00 4.9395630652e+00 
53800 5.3158911196e+00 -1.1277603337e-02 2.8520570000e+00 -4.9399076300e+00 2.8520570000e+00 4.9399076300e+00 
53900 5.3158885425e+00 -1.1209114445e-02 2.8522547122e+00 -4.9402500777e+00 2.8522547122e+00 4.9402500777e+00 
54000 5.3158859944e+00 -1.1141061598e-02 2.8524512102e+00 -4.9405904221e+00 2.8524512102e+00 4.9405904221e+00 
54100 5.3158834750e+00 -1.1073441948e-02 2.8526465017e+00 -4.9409286769e+00 2.8526465017e+00 4.9409286769e+00 
54200 5.3158809839e+00 -1.1006252665e-02 2.8528405945e+00 -4.9412648556e+00 2.8528405945e+00 4.9412648556e+00 
54300 5.3158785208e+00 -1.0939490936e-02 2.8530334966e+00 -4.9415989718e+00 2.8530334966e+00 4.9415989718e+00 
54400 5.3158760853e+00 -1.0873153966e-02 2.8532252156e+00 -4.9419310388e+00 2.8532252156e+00 4.9419310388e+00 
54500 5.3158736772e+00 -1.0807238974e-02 2.8534157592e+00 -4.9422610700e+00 2.8534157592e+00 4.9422610700e+00 
54600 5.3158712961e+00 -1.0741743197e-02 2.8536051350e+00 -4.9425890785e+00 2.8536051350e+00 4.9425890785e+00 
54700 5.3158689417e+00 -1.0676663891e-02 2.8537933506e+00 -4.9429150775e+00 2.8537933506e+00 4.9429150775e+00 
54800 5.3158666137e+00 -1.0611998327e-02 2.8539804135e+00 -4.9432390801e+00 2.8539804135e+00 4.9432390801e+00 
54900 5.3158643118e+00 -1.0547743791e-02 2.8541663313e+00 -4.9435610991e+00 2.8541663313e+00 4.9435610991e+00 
55000 5.3158620356e+00 -1.0483897588e-02 2.8543511113e+00 -4.9438811475e+00 2.8543511113e+00 4.9438811475e+00 
55100 5.3158597850e+00 -1.0420457040e-02 2.8545347609e+00 -4.9441992379e+00 2.8545347609e+00 4.9441992379e+00 
55200 5.3158575595e+00 -1.0357419484e-02 2.8547172875e+00 -4.9445153832e+00 2.8547172875e+00 4.9445153832e+00 
55300 5.3158553589e+00 -1.0294782273e-02 2.8548986983e+00 -4.9448295959e+00 2.8548986983e+00 4.9448295959e+00 
55400 5.3158531830e+00 -1.0232542778e-02 2.8550790005e+00 -4.9451418885e+00 2.8550790005e+00 4.9451418885e+00 
55500 5.3158510314e+00 -1.0170698386e-02 2.8552582013e+00 -4.9454522734e+00 2.8552582013e+00 4.9454522734e+00 
55600 5.3158489038e+00 -1.0109246500e-02 2.8554363079e+00 -4.9457607630e+00 2.8554363079e+00 4.9457607630e+00 
55700 5.3158468000e+00 -1.0048184538e-02 2.8556133272e+00 -4.9460673695e+00 2.8556133272e+00 4.9460673695e+00 
55800 5.3158447197e+00 -9.9875099370e-03 2.8557892664e+00 -4.9463721052e+00 2.8557892664e+00 4.9463721052e+00 
55900 5.3158426626e+00 -9.9272201478e-03 2.8559641325e+00 -4.9466749821e+00 2.8559641325e+00 4.9466749821e+00 
56000 5.3158406285e+00 -9.8673126379e-03 2.8561379323e+00 -4.9469760122e+00 2.8561379323e+00 4.9469760122e+00 
56100 5.3158386170e+00 -9.8077848911e-03 2.8563106728e+00 -4.9472752075e+00 2.8563106728e+00 4.9472752075e+00 
56200 5.3158366280e+00 -9.7486344067e-03 2.8564823607e+00 -4.9475725797e+00 2.8564823607e+00 4.9475725797e+00 
56300 5.3158346612e+00 -9.6898587002e-03 2.8566530030e+00 -4.9478681408e+00 2.8566530030e+00 4.9478681408e+00 
56400 5.3158327163e+00 -9.6314553025e-03 2.8568226063e+00 -4.9481619023e+00 2.8568226063e+00 4.9481619023e+00 
56500 5.3158307930e+00 -9.5734217606e-03 2.8569911773e+00 -4.9484538759e+00 2.8569911773e+00 4.9484538759e+00 
56600 5.3158288912e+00 -9.5157556369e-03 2.8571587227e+00 -4.9487440730e+00 2.8571587227e+00 4.9487440730e+00 
56700 5.3158270106e+00 -9.4584545095e-03 2.8573252491e+00 -4.9490325052e+00 2.8573252491e+00 4.9490325052e+00 
56800 5.3158251509e+00 -9.4015159720e-03 2.8574907631e+00 -4.9493191839e+00 2.8574907631e+00 4.9493191839e+00 
56900 5.3158233118e+00 -9.3449376335e-03 2.8576552712e+00 -4.9496041202e+00 2.8576552712e+00 4.9496041202e+00 
57000 5.3158214933e+00 -9.2887171184e-03 2.8578187798e+00 -4.9498873255e+00 2.8578187798e+00 4.9498873255e+00 
57100 5.3158196949e+00 -9.2328520664e-03 2.8579812955e+00 -4.9501688108e+00 2.8579812955e+00 4.9501688108e+00 
57200 5.3158179166e+00 -9.1773401324e-03 2.8581428245e+00 -4.9504485873e+00 2.8581428245e+00 4.9504485873e+00 
57300 5.3158161580e+00 -9.1221789866e-03 2.8583033733e+00 -4.9507266660e+00 2.8583033733e+00 4.9507266660e+00 
57400 5.3158144190e+00 -9.0673663143e-03 2.8584629481e+00 -4.9510030576e+00 2.8584629481e+00 4.9510030576e+00 
57500 5.3158126992e+00 -9.0128998156e-03 2.8586215552e+00 -4.9512777732e+00 2.8586215552e+00 4.9512777732e+00 
57600 5.3158109986e+00 -8.9587772058e-03 2.8587792008e+00 -4.9515508234e+00 2.8587792008e+00 4.9515508234e+00 
57700 5.3158093168e+00 -8.9049962149e-03 2.8589358911e+00 -4.9518222189e+00 2.8589358911e+00 4.9518222189e+00 
57800 5.3158076537e+00 -8.8515545878e-03 2.8590916322e+00 -4.9520919704e+00 2.8590916322e+00 4.9520919704e+00 
57900 5.3158060091e+00 -8.7984500842e-03 2.8592464302e+00 -4.9523600885e+00 2.8592464302e+00 4.9523600885e+00 
58000 5.3158043827e+00 -8.7456804782e-03 2.8594002912e+00 -4.9526265835e+00 2.8594002912e+00 4.9526265835e+00 
58100 5.3158027743e+00 -8.6932435588e-03 2.8595532211e+00 -4.9528914659e+00 2.8595532211e+00 4.9528914659e+00 
58200 5.3158011838e+00 -8.6411371292e-03 2.8597052260e+00 -4.9531547461e+00 2.8597052260e+00 4.9531547461e+00 
58300 5.3157996109e+00 -8.5893590073e-03 2.8598563117e+00 -4.9534164343e+00 2.8598563117e+00 4.9534164343e+00 
58400 5.3157980554e+00 -8.5379070251e-03 2.8600064842e+00 -4.9536765406e+00 2.8600064842e+00 4.9536765406e+00 
58500 5.3157965171e+00 -8.4867790292e-03 2.8601557493e+00 -4.9539350753e+00 2.8601557493e+00 4.9539350753e+00 
58600 5.3157949959e+00 -8.4359728801e-03 2.8603041127e+00 -4.9541920484e+00 2.8603041127e+00 4.9541920484e+00 
58700 5.3157934915e+00 -8.3854864526e-03 2.8604515804e+00 -4.9544474698e+00 2.8604515804e+00 4.9544474698e+00 
58800 5.3157920038e+00 -8.3353176355e-03 2.8605981579e+00 -4.9547013495e+00 2.8605981579e+00 4.9547013495e+00 
58900 5.3157905325e+00 -8.2854643315e-03 2.8607438510e+00 -4.9549536974e+00 2.8607438510e+00 4.9549536974e+00 
59000 5.3157890776e+00 -8.2359244575e-03 2.8608886653e+00 -4.9552045232e+00 2.8608886653e+00 4.9552045232e+00 
59100 5.3157876387e+00 -8.1866959439e-03 2.8610326065e+00 -4.9554538366e+00 2.8610326065e+00 4.9554538366e+00 
59200 5.3157862157e+00 -8.1377767349e-03 2.8611756801e+00 -4.9557016473e+00 2.8611756801e+00 4.9557016473e+00 
59300 5.3157848084e+00 -8.0891647886e-03 2.8613178916e+00 -4.9559479649e+00 2.8613178916e+00 4.9559479649e+00 
59400 5.3157834167e+00 -8.0408580764e-03 2.8614592466e+00 -4.9561927990e+00 2.8614592466e+00 4.9561927990e+00 
59500 5.3157820404e+00 -7.9928545835e-03 2.8615997505e+00 -4.9564361589e+00 2.8615997505e+00 4.9564361589e+00 
59600 5.3157806793e+00 -7.9451523083e-03 2.8617394088e+00 -4.9566780540e+00 2.8617394088e+00 4.9566780540e+00 
59700 5.3157793332e+00 -7.8977492628e-03 2.8618782267e+00 -4.9569184938e+00 2.8618782267e+00 4.9569184938e+00 
59800 5.3157780020e+00 -7.8506434721e-03 2.8620162098e+00 -4.9571574874e+00 2.8620162098e+00 4.9571574874e+00 
59900 5.3157766855e+00 -7.8038329746e-03 2.8621533632e+00 -4.9573950441e+00 2.8621533632e+00 4.9573950441e+00 
60000 5.3157753835e+00 -7.7573158218e-03 2.8622896923e+00 -4.9576311730e+00 2.8622896923e+00 4.9576311730e+00 
60100 5.3157740959e+00 -7.7110900784e-03 2.8624252023e+00 -4.9578658832e+00 2.8624252023e+00 4.9578658832e+00 
60200 5.3157728225e+00 -7.6651538219e-03 2.8625598984e+00 -4.9580991837e+00 2.8625598984e+00 4.9580991837e+00 
60300 5.3157715631e+00 -7.6195051429e-03 2.8626937858e+00 -4.9583310834e+00 2.8626937858e+00 4.9583310834e+00 
60400 5.3157703176e+00 -7.5741421446e-03 2.8628268696e+00 -4.9585615914e+00 2.8628268696e+00 4.9585615914e+00 
60500 5.3157690859e+00 -7.5290629431e-03 2.8629591549e+00 -4.9587907163e+00 2.8629591549e+00 4.9587907163e+00 
60600 5.3157678677e+00 -7.4842656673e-03 2.8630906468e+00 -4.9590184670e+00 2.8630906468e+00 4.9590184670e+00 
60700 5.3157666630e+00 -7.4397484585e-03 2.8632213504e+00 -4.9592448522e+00 2.8632213504e+00 4.9592448522e+00 
60800 5.3157654716e+00 -7.3955094705e-03 2.8633512706e+00 -4.9594698806e+00 2.8633512706e+00 4.9594698806e+00 
60900 5.3157642932e+00 -7.3515468699e-03 2.8634804124e+00 -4.9596935607e+00 2.8634804124e+00 4.9596935607e+00 
61000 5.3157631279e+00 -7.3078588353e-03 2.8636087806e+00 -4.9599159011e+00 2.8636087806e+00 4.9599159011e+00 
61100 5.3157619754e+00 -7.2644435578e-03 2.8637363804e+00 -4.9601369103e+00 2.8637363804e+00 4.9601369103e+00 
61200 5.3157608356e+00 -7.2212992407e-03 2.8638632164e+00 -4.9603565966e+00 2.8638632164e+00 4.9603565966e+00 
61300 5.3157597083e+00 -7.1784240994e-03 2.8639892935e+00 -4.9605749686e+00 2.8639892935e+00 4.9605749686e+00 
61400 5.3157585934e+00 -7.1358163614e-03 2.8641146165e+00 -4.9607920345e+00 2.8641146165e+00 4.9607920345e+00 
61500 5.3157574909e+00 -7.0934742662e-03 2.8642391902e+00 -4.9610078025e+00 2.8642391902e+00 4.9610078025e+00 
61600 5.3157564004e+00 -7.0513960654e-03 2.8643630194e+00 -4.9612222808e+00 2.8643630194e+00 4.9612222808e+00 
61700 5.3157553220e+00 -7.0095800222e-03 2.8644861086e+00 -4.9614354777e+00 2.8644861086e+00 4.9614354777e+00 
61800 5.3157542554e+00 -6.9680244118e-03 2.8646084627e+00 -4.9616474011e+00 2.8646084627e+00 4.9616474011e+00 
61900 5.3157532005e+00 -6.9267275208e-03 2.8647300862e+00 -4.9618580592e+00 2.8647300862e+00 4.9618580592e+00 
62000 5.3157521573e+00 -6.8856876478e-03 2.8648509837e+00 -4.9620674599e+00 2.8648509837e+00 4.9620674599e+00 
62100 5.3157511255e+00 -6.8449031027e-03 2.8649711599e+00 -4.9622756111e+00 2.8649711599e+00 4.9622756111e+00 
62200 5.3157501051e+00 -6.8043722071e-03 2.8650906192e+00 -4.9624825207e+00 2.8650906192e+00 4.9624825207e+00 
62300 5.3157490959e+00 -6.7640932938e-03 2.8652093662e+00 -4.9626881966e+00 2.8652093662e+00 4.9626881966e+00 
62400 5.3157480977e+00 -6.7240647071e-03 2.8653274054e+00 -4.9628926465e+00 2.8653274054e+00 4.9628926465e+00 
62500 5.3157471106e+00 -6.6842848025e-03 2.8654447412e+00 -4.9630958781e+00 2.8654447412e+00 4.9630958781e+00 
62600 5.3157461343e+00 -6.6447519467e-03 2.8655613781e+00 -4.9632978990e+00 2.8655613781e+00 4.9632978990e+00 
62700 5.3157451687e+00 -6.6054645175e-03 2.8656773204e+00 -4.9634987170e+00 2.8656773204e+00 4.9634987170e+00 
62800 5.3157442137e+00 -6.5664209038e-03 2.8657925725e+00 -4.9636983396e+00 2.8657925725e+00 4.9636983396e+00 
62900 5.3157432692e+00 -6.5276195055e-03 2.8659071388e+00 -4.9638967742e+00 2.8659071388e+00 4.9638967742e+00 
63000 5.3157423351e+00 -6.4890587334e-03 2.8660210236e+00 -4.9640940284e+00 2.8660210236e+00 4.9640940284e+00 
63100 5.3157414113e+00 -6.4507370090e-03 2.8661342311e+00 -4.9642901096e+00 2.8661342311e+00 4.9642901096e+00 
63200 5.3157404976e+00 -6.4126527649e-03 2.8662467656e+00 -4.9644850250e+00 2.8662467656e+00 4.9644850250e+00 
63300 5.3157395939e+00 -6.3748044440e-03 2.8663586313e+00 -4.9646787821e+00 2.8663586313e+00 4.9646787821e+00 
63400 5.3157387001e+00 -6.3371905000e-03 2.8664698324e+00 -4.9648713881e+00 2.8664698324e+00 4.9648713881e+00 
63500 5.3157378162e+00 -6.2998093973e-03 2.8665803731e+00 -4.9650628502e+00 2.8665803731e+00 4.9650628502e+00 
63600 5.3157369419e+00 -6.2626596107e-03 2.8666902575e+00 -4.9652531756e+00 2.8666902575e+00 4.9652531756e+00 
63700 5.3157360773e+00 -6.2257396252e-03 2.8667994897e+00 -4.9654423713e+00 2.8667994897e+00 4.9654423713e+00 
63800 5.3157352221e+00 -6.1890479365e-03 2.8669080739e+00 -4.9656304446e+00 2.8669080739e+00 4.9656304446e+00 
63900 5.3157343763e+00 -6.1525830503e-03 2.8670160140e+00 -4.9658174023e+00 2.8670160140e+00 4.9658174023e+00 
64000 5.3157335398e+00 -6.1163434828e-03 2.8671233141e+00 -4.9660032515e+00 2.8671233141e+00 4.9660032515e+00 
64100 5.3157327125e+00 -6.0803277599e-03 2.8672299781e+00 -4.9661879991e+00 2.8672299781e+00 4.9661879991e+00 
64200 5.3157318942e+00 -6.0445344182e-03 2.8673360102e+00 -4.9663716520e+00 2.8673360102e+00 4.9663716520e+00 
64300 5.3157310849e+00 -6.0089620037e-03 2.8674414141e+00 -4.9665542170e+00 2.8674414141e+00 4.9665542170e+00 
64400 5.3157302845e+00 -5.9736090727e-03 2.8675461939e+00 -4.9667357010e+00 2.8675461939e+00 4.9667357010e+00 
64500 5.3157294928e+00 -5.9384741914e-03 2.8676503535e+00 -4.9669161106e+00 2.8676503535e+00 4.9669161106e+00 
64600 5.3157287099e+00 -5.9035559356e-03 2.8677538966e+00 -4.9670954525e+00 2.8677538966e+00 4.9670954525e+00 
64700 5.3157279355e+00 -5.8688528909e-03 2.8678568272e+00 -4.9672737335e+00 2.8678568272e+00 4.9672737335e+00 
64800 5.3157271696e+00 -5.8343636528e-03 2.8679591490e+00 -4.9674509601e+00 2.8679591490e+00 4.9674509601e+00 
64900 5.3157264121e+00 -5.8000868261e-03 2.8680608659e+00 -4.9676271390e+00 2.8680608659e+00 4.9676271390e+00 
65000 5.3157256629e+00 -5.7660210253e-03 2.8681619816e+00 -4.9678022765e+00 2.8681619816e+00 4.9678022765e+00 
65100 5.3157249219e+00 -5.7321648745e-03 2.8682624999e+00 -4.9679763793e+00 2.8682624999e+00 4.9679763793e+00 
65200 5.3157241890e+00 -5.6985170069e-03 2.8683624245e+00 -4.9681494538e+00 2.8683624245e+00 4.9681494538e+00 
65300 5.3157234641e+00 -5.6650760655e-03 2.8684617591e+00 -4.9683215063e+00 2.8684617591e+00 4.9683215063e+00 
65400 5.3157227472e+00 -5.6318407023e-03 2.8685605073e+00 -4.9684925431e+00 2.8685605073e+00 4.9684925431e+00 
65500 5.3157220381e+00 -5.5988095784e-03 2.8686586727e+00 -4.9686625708e+00 2.8686586727e+00 4.9686625708e+00 
65600 5.3157213368e+00 -5.5659813644e-03 2.8687562591e+00 -4.9688315954e+00 2.8687562591e+00 4.9688315954e+00 
65700 5.3157206432e+00 -5.5333547399e-03 2.8688532700e+00 -4.9689996232e+00 2.8688532700e+00 4.9689996232e+00 
65800 5.3157199572e+00 -5.5009283934e-03 2.8689497090e+00 -4.9691666604e+00 2.8689497090e+00 4.9691666604e+00 
65900 5.3157192787e+00 -5.4687010224e-03 2.8690455796e+00 -4.9693327132e+00 2.8690455796e+00 4.9693327132e+00 
66000 5.3157186076e+00 -5.4366713336e-03 2.8691408854e+00 -4.9694977876e+00 2.8691408854e+00 4.9694977876e+00 
66100 5.3157179439e+00 -5.4048380422e-03 2.8692356298e+00 -4.9696618897e+00 2.8692356298e+00 4.9696618897e+00 
66200 5.3157172874e+00 -5.3731998725e-03 2.8693298163e+00 -4.9698250256e+00 2.8693298163e+00 4.9698250256e+00 
66300 5.3157166381e+00 -5.3417555572e-03 2.8694234485e+00 -4.9699872012e+00 2.8694234485e+00 4.9699872012e+00 
66400 5.3157159959e+00 -5.3105038379e-03 2.8695165296e+00 -4.9701484225e+00 2.8695165296e+00 4.9701484225e+00 
66500 5.3157153607e+00 -5.2794434649e-03 2.8696090632e+00 -4.9703086953e+00 2.8696090632e+00 4.9703086953e+00 
66600 5.3157147325e+00 -5.2485731968e-03 2.8697010526e+00 -4.9704680256e+00 2.8697010526e+00 4.9704680256e+00 
66700 5.3157141112e+00 -5.2178918010e-03 2.8697925011e+00 -4.9706264192e+00 2.8697925011e+00 4.9706264192e+00 
66800 5.3157134967e+00 -5.1873980529e-03 2.8698834122e+00 -4.9707838818e+00 2.8698834122e+00 4.9707838818e+00 
66900 5.3157128888e+00 -5.1570907368e-03 2.8699737892e+00 -4.9709404192e+00 2.8699737892e+00 4.9709404192e+00 
67000 5.3157122877e+00 -5.1269686450e-03 2.8700636352e+00 -4.9710960372e+00 2.8700636352e+00 4.9710960372e+00 
67100 5.3157116931e+00 -5.0970305781e-03 2.8701529537e+00 -4.9712507414e+00 2.8701529537e+00 4.9712507414e+00 
67200 5.3157111050e+00 -5.0672753450e-03 2.8702417479e+00 -4.9714045374e+00 2.8702417479e+00 4.9714045374e+00 
67300 5.3157105233e+00 -5.0377017626e-03 2.8703300210e+00 -4.9715574308e+00 2.8703300210e+00 4.9715574308e+00 
67400 5.3157099480e+00 -5.0083086560e-03 2.8704177762e+00 -4.9717094273e+00 2.8704177762e+00 4.9717094273e+00 
67500 5.3157093790e+00 -4.9790948584e-03 2.8705050167e+00 -4.9718605323e+00 2.8705050167e+00 4.9718605323e+00 
67600 5.3157088163e+00 -4.9500592109e-03 2.8705917457e+00 -4.9720107513e+00 2.8705917457e+00 4.9720107513e+00 
67700 5.3157082596e+00 -4.9212005625e-03 2.8706779663e+00 -4.9721600898e+00 2.8706779663e+00 4.9721600898e+00 
67800 5.3157077091e+00 -4.8925177701e-03 2.8707636817e+00 -4.9723085532e+00 2.8707636817e+00 4.9723085532e+00 
67900 5.3157071646e+00 -4.8640096984e-03 2.8708488949e+00 -4.9724561469e+00 2.8708488949e+00 4.9724561469e+00 
68000 5.3157066260e+00 -4.8356752199e-03 2.8709336091e+00 -4.9726028762e+00 2.8709336091e+00 4.9726028762e+00 
68100 5.3157060933e+00 -4.8075132148e-03 2.8710178274e+00 -4.9727487464e+00 2.8710178274e+00 4.9727487464e+00 
68200 5.3157055664e+00 -4.7795225709e-03 2.8711015527e+00 -4.9728937629e+00 2.8711015527e+00 4.9728937629e+00 
68300 5.3157050453e+00 -4.7517021836e-03 2.8711847881e+00 -4.9730379308e+00 2.8711847881e+00 4.9730379308e+00 
68400 5.3157045299e+00 -4.7240509559e-03 2.8712675366e+00 -4.9731812554e+00 2.8712675366e+00 4.9731812554e+00 
68500 5.3157040201e+00 -4.6965677984e-03 2.8713498012e+00 -4.9733237419e+00 2.8713498012e+00 4.9733237419e+00 
68600 5.3157035159e+00 -4.6692516288e-03 2.8714315848e+00 -4.9734653954e+00 2.8714315848e+00 4.9734653954e+00 
68700 5.3157030173e+00 -4.6421013725e-03 2.8715128905e+00 -4.9736062209e+00 2.8715128905e+00 4.9736062209e+00 
68800 5.3157025240e+00 -4.6151159622e-03 2.8715937211e+00 -4.9737462237e+00 2.8715937211e+00 4.9737462237e+00 
68900 5.3157020362e+00 -4.5882943377e-03 2.8716740796e+00 -4.9738854086e+00 2.8716740796e+00 4.9738854086e+00 
69000 5.3157015536e+00 -4.5616354462e-03 2.8717539688e+00 -4.9740237808e+00 2.8717539688e+00 4.9740237808e+00 
69100 5.3157010764e+00 -4.5351382421e-03 2.8718333916e+00 -4.9741613452e+00 2.8718333916e+00 4.9741613452e+00 
69200 5.3157006043e+00 -4.5088016867e-03 2.8719123509e+00 -4.9742981067e+00 2.8719123509e+00 4.9742981067e+00 
69300 5.3157001375e+00 -4.4826247487e-03 2.8719908495e+00 -4.9744340703e+00 2.8719908495e+00 4.9744340703e+00 
69400 5.3156996757e+00 -4.4566064036e-03 2.8720688903e+00 -4.9745692408e+00 2.8720688903e+00 4.9745692408e+00 
69500 5.3156992189e+00 -4.4307456340e-03 2.8721464759e+00 -4.9747036230e+00 2.8721464759e+00 4.9747036230e+00 
69600 5.3156987672e+00 -4.4050414294e-03 2.8722236092e+00 -4.9748372219e+00 2.8722236092e+00 4.9748372219e+00 
69700 5.3156983204e+00 -4.3794927861e-03 2.8723002931e+00 -4.9749700422e+00 2.8723002931e+00 4.9749700422e+00 
69800 5.3156978784e+00 -4.3540987073e-03 2.8723765301e+00 -4.9751020886e+00 2.8723765301e+00 4.9751020886e+00 
69900 5.3156974413e+00 -4.3288582032e-03 2.8724523230e+00 -4.9752333658e+00 2.8724523230e+00 4.9752333658e+00 
70000 5.3156970090e+00 -4.3037702903e-03 2.8725276746e+00 -4.9753638786e+00 2.8725276746e+00 4.9753638786e+00 
70100 5.3156965814e+00 -4.2788339921e-03 2.8726025875e+00 -4.9754936316e+00 2.8726025875e+00 4.9754936316e+00 
70200 5.3156961585e+00 -4.2540483388e-03 2.8726770645e+00 -4.9756226294e+00 2.8726770645e+00 4.9756226294e+00 
70300 5.3156957401e+00 -4.2294123669e-03 2.8727511081e+00 -4.9757508767e+00 2.8727511081e+00 4.9757508767e+00 
70400 5.3156953264e+00 -4.2049251196e-03 2.8728247210e+00 -4.9758783779e+00 2.8728247210e+00 4.9758783779e+00 
70500 5.3156949171e+00 -4.1805856468e-03 2.8728979058e+00 -4.9760051378e+00 2.8728979058e+00 4.9760051378e+00 
70600 5.3156945124e+00 -4.1563930046e-03 2.8729706651e+00 -4.9761311606e+00 2.8729706651e+00 4.9761311606e+00 
70700 5.3156941120e+00 -4.1323462556e-03 2.8730430016e+00 -4.9762564511e+00 2.8730430016e+00 4.9762564511e+00 
70800 5.3156937160e+00 -4.1084444687e-03 2.8731149177e+00 -4.9763810135e+00 2.8731149177e+00 4.9763810135e+00 
70900 5.3156933244e+00 -4.0846867193e-03 2.8731864161e+00 -4.9765048523e+00 2.8731864161e+00 4.9765048523e+00 
71000 5.3156929370e+00 -4.0610720888e-03 2.8732574993e+00 -4.9766279720e+00 2.8732574993e+00 4.9766279720e+00 
71100 5.3156925539e+00 -4.0375996652e-03 2.8733281697e+00 -4.9767503768e+00 2.8733281697e+00 4.9767503768e+00 
71200 5.3156921749e+00 -4.0142685423e-03 2.8733984300e+00 -4.9768720712e+00 2.8733984300e+00 4.9768720712e+00 
71300 5.3156918001e+00 -3.9910778203e-03 2.8734682826e+00 -4.9769930593e+00 2.8734682826e+00 4.9769930593e+00 
71400 5.3156914293e+00 -3.9680266054e-03 2.8735377299e+00 -4.9771133456e+00 2.8735377299e+00 4.9771133456e+00 
71500 5.3156910627e+00 -3.9451140099e-03 2.8736067744e+00 -4.9772329343e+00 2.8736067744e+00 4.9772329343e+00 
71600 5.3156907000e+00 -3.9223391521e-03 2.8736754187e+00 -4.9773518296e+00 2.8736754187e+00 4.9773518296e+00 
71700 5.3156903413e+00 -3.8997011563e-03 2.8737436650e+00 -4.9774700356e+00 2.8737436650e+00 4.9774700356e+00 
71800 5.3156899864e+00 -3.8771991527e-03 2.8738115158e+00 -4.9775875567e+00 2.8738115158e+00 4.9775875567e+00 
71900 5.3156896355e+00 -3.8548322774e-03 2.8738789735e+00 -4.9777043969e+00 2.8738789735e+00 4.9777043969e+00 
72000 5.3156892884e+00 -3.8325996723e-03 2.8739460404e+00 -4.9778205603e+00 2.8739460404e+00 4.9778205603e+00 
72100 5.3156889451e+00 -3.8105004851e-03 2.8740127191e+00 -4.9779360510e+00 2.8740127191e+00 4.9779360510e+00 
72200 5.3156886055e+00 -3.7885338694e-03 2.8740790116e+00 -4.9780508731e+00 2.8740790116e+00 4.9780508731e+00 
72300 5.3156882696e+00 -3.7666989844e-03 2.8741449206e+00 -4.9781650307e+00 2.8741449206e+00 4.9781650307e+00 
72400 5.3156879375e+00 -3.7449949950e-03 2.8742104481e+00 -4.9782785278e+00 2.8742104481e+00 4.9782785278e+00 
72500 5.3156876089e+00 -3.7234210717e-03 2.8742755966e+00 -4.9783913683e+00 2.8742755966e+00 4.9783913683e+00 
72600 5.3156872839e+00 -3.7019763907e-03 2.8743403683e+00 -4.9785035561e+00 2.8743403683e+00 4.9785035561e+00 
72700 5.3156869625e+00 -3.6806601337e-03 2.8744047655e+00 -4.9786150954e+00 2.8744047655e+00 4.9786150954e+00 
72800 5.3156866445e+00 -3.6594714879e-03 2.8744687905e+00 -4.9787259899e+00 2.8744687905e+00 4.9787259899e+00 
72900 5.3156863301e+00 -3.6384096462e-03 2.8745324455e+00 -4.9788362436e+00 2.8745324455e+00 4.9788362436e+00 
73000 5.3156860190e+00 -3.6174738065e-03 2.8745957327e+00 -4.9789458602e+00 2.8745957327e+00 4.9789458602e+00 
73100 5.3156857114e+00 -3.5966631725e-03 2.8746586543e+00 -4.9790548437e+00 2.8746586543e+00 4.9790548437e+00 
73200 5.3156854071e+00 -3.5759769532e-03 2.8747212127e+00 -4.9791631979e+00 2.8747212127e+00 4.9791631979e+00 
73300 5.3156851062e+00 -3.5554143627e-03 2.8747834098e+00 -4.9792709266e+00 2.8747834098e+00 4.9792709266e+00 
73400 5.3156848085e+00 -3.5349746207e-03 2.8748452480e+00 -4.9793780334e+00 2.8748452480e+00 4.9793780334e+00 
73500 5.3156845141e+00 -3.5146569520e-03 2.8749067293e+00 -4.9794845223e+00 2.8749067293e+00 4.9794845223e+00 
73600 5.3156842229e+00 -3.4944605865e-03 2.8749678560e+00 -4.9795903967e+00 2.8749678560e+00 4.9795903967e+00 
73700 5.3156839348e+00 -3.4743847595e-03 2.8750286301e+00 -4.9796956606e+00 2.8750286301e+00 4.9796956606e+00 
73800 5.3156836499e+00 -3.4544287113e-03 2.8750890538e+00 -4.9798003175e+00 2.8750890538e+00 4.9798003175e+00 
73900 5.3156833681e+00 -3.4345916875e-03 2.8751491292e+00 -4.9799043711e+00 2.8751491292e+00 4.9799043711e+00 
74000 5.3156830894e+00 -3.4148729384e-03 2.8752088583e+00 -4.9800078250e+00 2.8752088583e+00 4.9800078250e+00 
74100 5.3156828138e+00 -3.3952717197e-03 2.8752682433e+00 -4.9801106828e+00 2.8752682433e+00 4.9801106828e+00 
74200 5.3156825411e+00 -3.3757872919e-03 2.8753272862e+00 -4.9802129481e+00 2.8753272862e+00 4.9802129481e+00 
74300 5.3156822714e+00 -3.3564189205e-03 2.8753859891e+00 -4.9803146245e+00 2.8753859891e+00 4.9803146245e+00 
74400 5.3156820047e+00 -3.3371658760e-03 2.8754443539e+00 -4.9804157154e+00 2.8754443539e+00 4.9804157154e+00 
74500 5.3156817409e+00 -3.3180274336e-03 2.8755023828e+00 -4.9805162244e+00 2.8755023828e+00 4.9805162244e+00 
74600 5.3156814799e+00 -3.2990028737e-03 2.8755600778e+00 -4.9806161549e+00 2.8755600778e+00 4.9806161549e+00 
74700 5.3156812218e+00 -3.2800914812e-03 2.8756174408e+00 -4.9807155105e+00 2.8756174408e+00 4.9807155105e+00 
74800 5.3156809665e+00 -3.2612925460e-03 2.8756744738e+00 -4.9808142946e+00 2.8756744738e+00 4.9808142946e+00 
74900 5.3156807140e+00 -3.2426053624e-03 2.8757311788e+00 -4.9809125106e+00 2.8757311788e+00 4.9809125106e+00 
75000 5.3156804643e+00 -3.2240292300e-03 2.8757875578e+00 -4.9810101618e+00 2.8757875578e+00 4.9810101618e+00 
75100 5.3156802173e+00 -3.2055634526e-03 2.8758436127e+00 -4.9811072518e+00 2.8758436127e+00 4.9811072518e+00 
75200 5.3156799729e+00 -3.1872073388e-03 2.8758993454e+00 -4.9812037837e+00 2.8758993454e+00 4.9812037837e+00 
75300 5.3156797313e+00 -3.1689602019e-03 2.8759547580e+00 -4.9812997610e+00 2.8759547580e+00 4.9812997610e+00 
75400 5.3156794922e+00 -3.1508213598e-03 2.8760098522e+00 -4.9813951871e+00 2.8760098522e+00 4.9813951871e+00 
75500 5.3156792558e+00 -3.1327901347e-03 2.8760646300e+00 -4.9814900650e+00 2.8760646300e+00 4.9814900650e+00 
75600 5.3156790220e+00 -3.1148658537e-03 2.8761190933e+00 -4.9815843983e+00 2.8761190933e+00 4.9815843983e+00 
75700 5.3156787907e+00 -3.0970478481e-03 2.8761732440e+00 -4.9816781900e+00 2.8761732440e+00 4.9816781900e+00 
75800 5.3156785619e+00 -3.0793354538e-03 2.8762270839e+00 -4.9817714434e+00 2.8762270839e+00 4.9817714434e+00 
75900 5.3156783357e+00 -3.0617280111e-03 2.8762806149e+00 -4.9818641618e+00 2.8762806149e+00 4.9818641618e+00 
76000 5.3156781119e+00 -3.0442248647e-03 2.8763338388e+00 -4.9819563483e+00 2.8763338388e+00 4.9819563483e+00 
76100 5.3156778905e+00 -3.0268253636e-03 2.8763867574e+00 -4.9820480061e+00 2.8763867574e+00 4.9820480061e+00 
76200 5.3156776716e+00 -3.0095288612e-03 2.8764393726e+00 -4.9821391383e+00 2.8764393726e+00 4.9821391383e+00 
76300 5.3156774550e+00 -2.9923347153e-03 2.8764916862e+00 -4.9822297481e+00 2.8764916862e+00 4.9822297481e+00 
76400 5.3156772408e+00 -2.9752422877e-03 2.8765437000e+00 -4.9823198386e+00 2.8765437000e+00 4.9823198386e+00 
76500 5.3156770290e+00 -2.9582509447e-03 2.8765954157e+00 -4.9824094129e+00 2.8765954157e+00 4.9824094129e+00 
76600 5.3156768194e+00 -2.9413600568e-03 2.8766468352e+00 -4.9824984740e+00 2.8766468352e+00 4.9824984740e+00 
76700 5.3156766122e+00 -2.9245689985e-03 2.8766979602e+00 -4.9825870250e+00 2.8766979602e+00 4.9825870250e+00 
76800 5.3156764072e+00 -2.9078771485e-03 2.8767487924e+00 -4.9826750690e+00 2.8767487924e+00 4.9826750690e+00 
76900 5.3156762044e+00 -2.8912838899e-03 2.8767993335e+00 -4.9827626089e+00 2.8767993335e+00 4.9827626089e+00 
77000 5.3156760039e+00 -2.8747886095e-03 2.8768495854e+00 -4.9828496477e+00 2.8768495854e+00 4.9828496477e+00 
77100 5.3156758055e+00 -2.8583906984e-03 2.8768995498e+00 -4.9829361885e+00 2.8768995498e+00 4.9829361885e+00 
77200 5.3156756094e+00 -2.8420895517e-03 2.8769492282e+00 -4.9830222341e+00 2.8769492282e+00 4.9830222341e+00 
77300 5.3156754153e+00 -2.8258845685e-03 2.8769986225e+00 -4.9831077875e+00 2.8769986225e+00 4.9831077875e+00 
77400 5.3156752234e+00 -2.8097751519e-03 2.8770477343e+00 -4.9831928517e+00 2.8770477343e+00 4.9831928517e+00 
77500 5.3156750335e+00 -2.7937607089e-03 2.8770965654e+00 -4.9832774295e+00 2.8770965654e+00 4.9832774295e+00 
77600 5.3156748458e+00 -2.7778406505e-03 2.8771451172e+00 -4.9833615238e+00 2.8771451172e+00 4.9833615238e+00 
77700 5.3156746600e+00 -2.7620143915e-03 2.8771933916e+00 -4.9834451375e+00 2.8771933916e+00 4.9834451375e+00 
77800 5.3156744763e+00 -2.7462813506e-03 2.8772413902e+00 -4.9835282734e+00 2.8772413902e+00 4.9835282734e+00 
77900 5.3156742947e+00 -2.7306409504e-03 2.8772891145e+00 -4.9836109344e+00 2.8772891145e+00 4.9836109344e+00 
78000 5.3156741149e+00 -2.7150926173e-03 2.8773365663e+00 -4.9836931232e+00 2.8773365663e+00 4.9836931232e+00 
78100 5.3156739372e+00 -2.6996357815e-03 2.8773837470e+00 -4.9837748428e+00 2.8773837470e+00 4.9837748428e+00 
78200 5.3156737614e+00 -2.6842698769e-03 2.8774306585e+00 -4.9838560957e+00 2.8774306585e+00 4.9838560957e+00 
78300 5.3156735875e+00 -2.6689943411e-03 2.8774773021e+00 -4.9839368849e+00 2.8774773021e+00 4.9839368849e+00 
78400 5.3156734155e+00 -2.6538086155e-03 2.8775236796e+00 -4.9840172130e+00 2.8775236796e+00 4.9840172130e+00 
78500 5.3156732454e+00 -2.6387121452e-03 2.8775697924e+00 -4.9840970828e+00 2.8775697924e+00 4.9840970828e+00 
78600 5.3156730771e+00 -2.6237043789e-03 2.8776156422e+00 -4.9841764969e+00 2.8776156422e+00 4.9841764969e+00 
78700 5.3156729107e+00 -2.6087847690e-03 2.8776612305e+00 -4.9842554582e+00 2.8776612305e+00 4.9842554582e+00 
78800 5.3156727461e+00 -2.5939527713e-03 2.8777065588e+00 -4.9843339691e+00 2.8777065588e+00 4.9843339691e+00 
78900 5.3156725833e+00 -2.5792078455e-03 2.8777516287e+00 -4.9844120325e+00 2.8777516287e+00 4.9844120325e+00 
79000 5.3156724223e+00 -2.5645494547e-03 2.8777964417e+00 -4.9844896509e+00 2.8777964417e+00 4.9844896509e+00 
79100 5.3156722630e+00 -2.5499770653e-03 2.8778409994e+00 -4.9845668270e+00 2.8778409994e+00 4.9845668270e+00 
79200 5.3156721054e+00 -2.5354901476e-03 2.8778853031e+00 -4.9846435634e+00 2.8778853031e+00 4.9846435634e+00 
79300 5.3156719496e+00 -2.5210881752e-03 2.8779293545e+00 -4.9847198626e+00 2.8779293545e+00 4.9847198626e+00 
79400 5.3156717955e+00 -2.5067706251e-03 2.8779731550e+00 -4.9847957273e+00 2.8779731550e+00 4.9847957273e+00 
79500 5.3156716431e+00 -2.4925369779e-03 2.8780167061e+00 -4.9848711600e+00 2.8780167061e+00 4.9848711600e+00 
79600 5.3156714923e+00 -2.4783867173e-03 2.8780600092e+00 -4.9849461632e+00 2.8780600092e+00 4.9849461632e+00 
79700 5.3156713432e+00 -2.4643193308e-03 2.8781030659e+00 -4.9850207395e+00 2.8781030659e+00 4.9850207395e+00 
79800 5.3156711957e+00 -2.4503343089e-03 2.8781458775e+00 -4.9850948915e+00 2.8781458775e+00 4.9850948915e+00 
79900 5.3156710498e+00 -2.4364311456e-03 2.8781884456e+00 -4.9851686215e+00 2.8781884456e+00 4.9851686215e+00 
80000 5.3156709055e+00 -2.4226093382e-03 2.8782307714e+00 -4.9852419320e+00 2.8782307714e+00 4.9852419320e+00 
80100 5.3156707627e+00 -2.4088683874e-03 2.8782728566e+00 -4.9853148256e+00 2.8782728566e+00 4.9853148256e+00 
80200 5.3156706216e+00 -2.3952077969e-03 2.8783147024e+00 -4.9853873047e+00 2.8783147024e+00 4.9853873047e+00 
80300 5.3156704819e+00 -2.3816270739e-03 2.8783563103e+00 -4.9854593718e+00 2.8783563103e+00 4.9854593718e+00 
80400 5.3156703438e+00 -2.3681257286e-03 2.8783976817e+00 -4.9855310291e+00 2.8783976817e+00 4.9855310291e+00 
80500 5.3156702072e+00 -2.3547032746e-03 2.8784388180e+00 -4.9856022793e+00 2.8784388180e+00 4.9856022793e+00 
80600 5.3156700721e+00 -2.3413592286e-03 2.8784797205e+00 -4.9856731245e+00 2.8784797205e+00 4.9856731245e+00 
80700 5.3156699385e+00 -2.3280931105e-03 2.8785203907e+00 -4.9857435673e+00 2.8785203907e+00 4.9857435673e+00 
80800 5.3156698063e+00 -2.3149044431e-03 2.8785608299e+00 -4.9858136100e+00 2.8785608299e+00 4.9858136100e+00 
80900 5.3156696756e+00 -2.3017927526e-03 2.8786010394e+00 -4.9858832549e+00 2.8786010394e+00 4.9858832549e+00 
81000 5.3156695463e+00 -2.2887575683e-03 2.8786410205e+00 -4.9859525043e+00 2.8786410205e+00 4.9859525043e+00 
81100 5.3156694184e+00 -2.2757984222e-03 2.8786807748e+00 -4.9860213607e+00 2.8786807748e+00 4.9860213607e+00 
81200 5.3156692919e+00 -2.2629148497e-03 2.8787203034e+00 -4.9860898262e+00 2.8787203034e+00 4.9860898262e+00 
81300 5.3156691668e+00 -2.2501063892e-03 2.8787596076e+00 -4.9861579032e+00 2.8787596076e+00 4.9861579032e+00 
81400 5.3156690430e+00 -2.2373725819e-03 2.8787986889e+00 -4.9862255939e+00 2.8787986889e+00 4.9862255939e+00 
81500 5.3156689206e+00 -2.2247129722e-03 2.8788375485e+00 -4.9862929007e+00 2.8788375485e+00 4.9862929007e+00 
81600 5.3156687996e+00 -2.2121271073e-03 2.8788761876e+00 -4.9863598257e+00 2.8788761876e+00 4.9863598257e+00 
81700 5.3156686798e+00 -2.1996145374e-03 2.8789146077e+00 -4.9864263712e+00 2.8789146077e+00 4.9864263712e+00 
81800 5.3156685614e+00 -2.1871748156e-03 2.8789528099e+00 -4.9864925394e+00 2.8789528099e+00 4.9864925394e+00 
81900 5.3156684442e+00 -2.1748074980e-03 2.8789907956e+00 -4.9865583325e+00 2.8789907956e+00 4.9865583325e+00 
82000 5.3156683284e+00 -2.1625121435e-03 2.8790285660e+00 -4.9866237528e+00 2.8790285660e+00 4.9866237528e+00 
82100 5.3156682138e+00 -2.1502883138e-03 2.8790661224e+00 -4.9866888023e+00 2.8790661224e+00 4.9866888023e+00 
82200 5.3156681004e+00 -2.1381355736e-03 2.8791034660e+00 -4.9867534833e+00 2.8791034660e+00 4.9867534833e+00 
82300 5.3156679883e+00 -2.1260534902e-03 2.8791405980e+00 -4.9868177979e+00 2.8791405980e+00 4.9868177979e+00 
82400 5.3156678774e+00 -2.1140416339e-03 2.8791775197e+00 -4.9868817482e+00 2.8791775197e+00 4.9868817482e+00 
82500 5.3156677677e+00 -2.1020995778e-03 2.8792142324e+00 -4.9869453364e+00 2.8792142324e+00 4.9869453364e+00 
82600 5.3156676593e+00 -2.0902268975e-03 2.8792507372e+00 -4.9870085646e+00 2.8792507372e+00 4.9870085646e+00 
82700 5.3156675520e+00 -2.0784231716e-03 2.8792870354e+00 -4.9870714349e+00 2.8792870354e+00 4.9870714349e+00 
82800 5.3156674458e+00 -2.0666879813e-03 2.8793231282e+00 -4.9871339494e+00 2.8793231282e+00 4.9871339494e+00 
82900 5.3156673409e+00 -2.0550209106e-03 2.8793590167e+00 -4.9871961101e+00 2.8793590167e+00 4.9871961101e+00 
83000 5.3156672370e+00 -2.0434215461e-03 2.8793947021e+00 -4.9872579192e+00 2.8793947021e+00 4.9872579192e+00 
83100 5.3156671343e+00 -2.0318894771e-03 2.8794301857e+00 -4.9873193786e+00 2.8794301857e+00 4.9873193786e+00 
83200 5.3156670328e+00 -2.0204242955e-03 2.8794654687e+00 -4.9873804903e+00 2.8794654687e+00 4.9873804903e+00 
83300 5.3156669323e+00 -2.0090255959e-03 2.8795005520e+00 -4.9874412566e+00 2.8795005520e+00 4.9874412566e+00 
83400 5.3156668330e+00 -1.9976929756e-03 2.8795354371e+00 -4.9875016792e+00 2.8795354371e+00 4.9875016792e+00 
83500 5.3156667347e+00 -1.9864260342e-03 2.8795701249e+00 -4.9875617603e+00 2.8795701249e+00 4.9875617603e+00 
83600 5.3156666375e+00 -1.9752243742e-03 2.8796046167e+00 -4.9876215018e+00 2.8796046167e+00 4.9876215018e+00 
83700 5.3156665413e+00 -1.9640876004e-03 2.8796389136e+00 -4.9876809057e+00 2.8796389136e+00 4.9876809057e+00 
83800 5.3156664462e+00 -1.9530153204e-03 2.8796730167e+00 -4.9877399740e+00 2.8796730167e+00 4.9877399740e+00 
83900 5.3156663522e+00 -1.9420071441e-03 2.8797069271e+00 -4.9877987086e+00 2.8797069271e+00 4.9877987086e+00 
84000 5.3156662591e+00 -1.9310626839e-03 2.8797406460e+00 -4.9878571115e+00 2.8797406460e+00 4.9878571115e+00 
84100 5.3156661671e+00 -1.9201815550e-03 2.8797741745e+00 -4.9879151845e+00 2.8797741745e+00 4.9879151845e+00 
84200 5.3156660761e+00 -1.9093633747e-03 2.8798075136e+00 -4.9879729296e+00 2.8798075136e+00 4.9879729296e+00 
84300 5.3156659861e+00 -1.8986077629e-03 2.8798406646e+00 -4.9880303487e+00 2.8798406646e+00 4.9880303487e+00 
84400 5.3156658971e+00 -1.8879143420e-03 2.8798736284e+00 -4.9880874438e+00 2.8798736284e+00 4.9880874438e+00 
84500 5.3156658090e+00 -1.8772827368e-03 2.8799064062e+00 -4.9881442166e+00 2.8799064062e+00 4.9881442166e+00 
84600 5.3156657219e+00 -1.8667125744e-03 2.8799389990e+00 -4.9882006690e+00 2.8799389990e+00 4.9882006690e+00 
84700 5.3156656357e+00 -1.8562034843e-03 2.8799714080e+00 -4.9882568030e+00 2.8799714080e+00 4.9882568030e+00 
84800 5.3156655505e+00 -1.8457550986e-03 2.8800036341e+00 -4.9883126203e+00 2.8800036341e+00 4.9883126203e+00 
84900 5.3156654663e+00 -1.8353670514e-03 2.8800356785e+00 -4.9883681228e+00 2.8800356785e+00 4.9883681228e+00 
85000 5.3156653829e+00 -1.8250389795e-03 2.8800675422e+00 -4.9884233123e+00 2.8800675422e+00 4.9884233123e+00 
85100 5.3156653005e+00 -1.8147705217e-03 2.8800992262e+00 -4.9884781906e+00 2.8800992262e+00 4.9884781906e+00 
85200 5.3156652189e+00 -1.8045613193e-03 2.8801307316e+00 -4.9885327596e+00 2.8801307316e+00 4.9885327596e+00 
85300 5.3156651382e+00 -1.7944110158e-03 2.8801620594e+00 -4.9885870209e+00 2.8801620594e+00 4.9885870209e+00 
85400 5.3156650585e+00 -1.7843192572e-03 2.8801932107e+00 -4.9886409765e+00 2.8801932107e+00 4.9886409765e+00 
85500 5.3156649796e+00 -1.7742856914e-03 2.8802241864e+00 -4.9886946281e+00 2.8802241864e+00 4.9886946281e+00 
85600 5.3156649015e+00 -1.7643099687e-03 2.8802549877e+00 -4.9887479774e+00 2.8802549877e+00 4.9887479774e+00 
85700 5.3156648243e+00 -1.7543917419e-03 2.8802856154e+00 -4.9888010262e+00 2.8802856154e+00 4.9888010262e+00 
85800 5.3156647480e+00 -1.7445306655e-03 2.8803160706e+00 -4.9888537761e+00 2.8803160706e+00 4.9888537761e+00 
85900 5.3156646725e+00 -1.7347263965e-03 2.8803463543e+00 -4.9889062291e+00 2.8803463543e+00 4.9889062291e+00 
86000 5.3156645978e+00 -1.7249785942e-03 2.8803764675e+00 -4.9889583867e+00 2.8803764675e+00 4.9889583867e+00 
86100 5.3156645239e+00 -1.7152869198e-03 2.8804064112e+00 -4.9890102507e+00 2.8804064112e+00 4.9890102507e+00 
86200 5.3156644508e+00 -1.7056510368e-03 2.8804361864e+00 -4.9890618227e+00 2.8804361864e+00 4.9890618227e+00 
86300 5.3156643786e+00 -1.6960706109e-03 2.8804657939e+00 -4.9891131045e+00 2.8804657939e+00 4.9891131045e+00 
86400 5.3156643071e+00 -1.6865453096e-03 2.8804952349e+00 -4.9891640978e+00 2.8804952349e+00 4.9891640978e+00 
86500 5.3156642364e+00 -1.6770748030e-03 2.8805245102e+00 -4.9892148041e+00 2.8805245102e+00 4.9892148041e+00 
86600 5.3156641664e+00 -1.6676587629e-03 2.8805536208e+00 -4.9892652252e+00 2.8805536208e+00 4.9892652252e+00 
86700 5.3156640973e+00 -1.6582968634e-03 2.8805825677e+00 -4.9893153627e+00 2.8805825677e+00 4.9893153627e+00 
86800 5.3156640289e+00 -1.6489887806e-03 2.8806113518e+00 -4.9893652182e+00 2.8806113518e+00 4.9893652182e+00 
86900 5.3156639612e+00 -1.6397341925e-03 2.8806399741e+00 -4.9894147934e+00 2.8806399741e+00 4.9894147934e+00 
87000 5.3156638943e+00 -1.6305327794e-03 2.8806684354e+00 -4.9894640899e+00 2.8806684354e+00 4.9894640899e+00 
87100 5.3156638281e+00 -1.6213842235e-03 2.8806967367e+00 -4.9895131092e+00 2.8806967367e+00 4.9895131092e+00 
87200 5.3156637626e+00 -1.6122882091e-03 2.8807248790e+00 -4.9895618531e+00 2.8807248790e+00 4.9895618531e+00 
87300 5.3156636979e+00 -1.6032444222e-03 2.8807528631e+00 -4.9896103230e+00 2.8807528631e+00 4.9896103230e+00 
87400 5.3156636338e+00 -1.5942525512e-03 2.8807806900e+00 -4.9896585205e+00 2.8807806900e+00 4.9896585205e+00 
87500 5.3156635705e+00 -1.5853122862e-03 2.8808083605e+00 -4.9897064473e+00 2.8808083605e+00 4.9897064473e+00 
87600 5.3156635078e+00 -1.5764233193e-03 2.8808358756e+00 -4.9897541049e+00 2.8808358756e+00 4.9897541049e+00 
87700 5.3156634458e+00 -1.5675853447e-03 2.8808632362e+00 -4.9898014948e+00 2.8808632362e+00 4.9898014948e+00 
87800 5.3156633845e+00 -1.5587980582e-03 2.8808904431e+00 -4.9898486185e+00 2.8808904431e+00 4.9898486185e+00 
87900 5.3156633239e+00 -1.5500611579e-03 2.8809174973e+00 -4.9898954777e+00 2.8809174973e+00 4.9898954777e+00 
88000 5.3156632640e+00 -1.5413743436e-03 2.8809443995e+00 -4.9899420737e+00 2.8809443995e+00 4.9899420737e+00 
88100 5.3156632046e+00 -1.5327373170e-03 2.8809711508e+00 -4.9899884082e+00 2.8809711508e+00 4.9899884082e+00 
88200 5.3156631460e+00 -1.5241497816e-03 2.8809977518e+00 -4.9900344827e+00 2.8809977518e+00 4.9900344827e+00 
88300 5.3156630880e+00 -1.5156114430e-03 2.8810242037e+00 -4.9900802986e+00 2.8810242037e+00 4.9900802986e+00 
88400 5.3156630306e+00 -1.5071220086e-03 2.8810505070e+00 -4.9901258574e+00 2.8810505070e+00 4.9901258574e+00 
88500 5.3156629738e+00 -1.4986811873e-03 2.8810766629e+00 -4.9901711606e+00 2.8810766629e+00 4.9901711606e+00 
88600 5.3156629177e+00 -1.4902886903e-03 2.8811026719e+00 -4.9902162096e+00 2.8811026719e+00 4.9902162096e+00 
88700 5.3156628622e+00 -1.4819442304e-03 2.8811285351e+00 -4.9902610060e+00 2.8811285351e+00 4.9902610060e+00 
88800 5.3156628072e+00 -1.4736475221e-03 2.8811542533e+00 -4.9903055512e+00 2.8811542533e+00 4.9903055512e+00 
88900 5.3156627529e+00 -1.4653982819e-03 2.8811798272e+00 -4.9903498465e+00 2.8811798272e+00 4.9903498465e+00 
89000 5.3156626992e+00 -1.4571962280e-03 2.8812052578e+00 -4.9903938936e+00 2.8812052578e+00 4.9903938936e+00 
89100 5.3156626460e+00 -1.4490410802e-03 2.8812305458e+00 -4.9904376937e+00 2.8812305458e+00 4.9904376937e+00 
89200 5.3156625935e+00 -1.4409325604e-03 2.8812556921e+00 -4.9904812483e+00 2.8812556921e+00 4.9904812483e+00 
89300 5.3156625415e+00 -1.4328703920e-03 2.8812806974e+00 -4.9905245587e+00 2.8812806974e+00 4.9905245587e+00 
89400 5.3156624901e+00 -1.4248543001e-03 2.8813055626e+00 -4.9905676265e+00 2.8813055626e+00 4.9905676265e+00 
89500 5.3156624392e+00 -1.4168840117e-03 2.8813302885e+00 -4.9906104530e+00 2.8813302885e+00 4.9906104530e+00 
89600 5.3156623889e+00 -1.4089592555e-03 2.8813548758e+00 -4.9906530396e+00 2.8813548758e+00 4.9906530396e+00 
89700 5.3156623392e+00 -1.4010797616e-03 2.8813793255e+00 -4.9906953876e+00 2.8813793255e+00 4.9906953876e+00 
89800 5.3156622900e+00 -1.3932452621e-03 2.8814036382e+00 -4.9907374984e+00 2.8814036382e+00 4.9907374984e+00 
89900 5.3156622413e+00 -1.3854554908e-03 2.8814278147e+00 -4.9907793734e+00 2.8814278147e+00 4.9907793734e+00 
90000 5.3156621932e+00 -1.3777101828e-03 2.8814518558e+00 -4.9908210139e+00 2.8814518558e+00 4.9908210139e+00 
90100 5.3156621456e+00 -1.3700090754e-03 2.8814757624e+00 -4.9908624213e+00 2.8814757624e+00 4.9908624213e+00 
90200 5.3156620985e+00 -1.3623519070e-03 2.8814995351e+00 -4.9909035968e+00 2.8814995351e+00 4.9909035968e+00 
90300 5.3156620519e+00 -1.3547384179e-03 2.8815231748e+00 -4.9909445420e+00 2.8815231748e+00 4.9909445420e+00 
90400 5.3156620058e+00 -1.3471683501e-03 2.8815466822e+00 -4.9909852579e+00 2.8815466822e+00 4.9909852579e+00 
90500 5.3156619603e+00 -1.3396414470e-03 2.8815700580e+00 -4.9910257460e+00 2.8815700580e+00 4.9910257460e+00 
90600 5.3156619152e+00 -1.3321574538e-03 2.8815933030e+00 -4.9910660076e+00 2.8815933030e+00 4.9910660076e+00 
90700 5.3156618706e+00 -1.3247161171e-03 2.8816164180e+00 -4.9911060439e+00 2.8816164180e+00 4.9911060439e+00 
90800 5.3156618265e+00 -1.3173171851e-03 2.8816394037e+00 -4.9911458562e+00 2.8816394037e+00 4.9911458562e+00 
90900 5.3156617829e+00 -1.3099604078e-03 2.8816622608e+00 -4.9911854459e+00 2.8816622608e+00 4.9911854459e+00 
91000 5.3156617398e+00 -1.3026455365e-03 2.8816849900e+00 -4.9912248142e+00 2.8816849900e+00 4.9912248142e+00 
91100 5.3156616971e+00 -1.2953723241e-03 2.8817075922e+00 -4.9912639623e+00 2.8817075922e+00 4.9912639623e+00 
91200 5.3156616549e+00 -1.2881405251e-03 2.8817300680e+00 -4.9913028915e+00 2.8817300680e+00 4.9913028915e+00 
91300 5.3156616132e+00 -1.2809498955e-03 2.8817524182e+00 -4.9913416031e+00 2.8817524182e+00 4.9913416031e+00 
91400 5.3156615719e+00 -1.2738001928e-03 2.8817746434e+00 -4.9913800983e+00 2.8817746434e+00 4.9913800983e+00 
91500 5.3156615311e+00 -1.2666911761e-03 2.8817967444e+00 -4.9914183784e+00 2.8817967444e+00 4.9914183784e+00 
91600 5.3156614907e+00 -1.2596226057e-03 2.8818187219e+00 -4.9914564445e+00 2.8818187219e+00 4.9914564445e+00 
91700 5.3156614508e+00 -1.2525942438e-03 2.8818405766e+00 -4.9914942979e+00 2.8818405766e+00 4.9914942979e+00 
91800 5.3156614113e+00 -1.2456058537e-03 2.8818623091e+00 -4.9915319398e+00 2.8818623091e+00 4.9915319398e+00 
91900 5.3156613722e+00 -1.2386572005e-03 2.8818839203e+00 -4.9915693714e+00 2.8818839203e+00 4.9915693714e+00 
92000 5.3156613336e+00 -1.2317480504e-03 2.8819054107e+00 -4.9916065940e+00 2.8819054107e+00 4.9916065940e+00 
92100 5.3156612954e+00 -1.2248781715e-03 2.8819267811e+00 -4.9916436086e+00 2.8819267811e+00 4.9916436086e+00 
92200 5.3156612576e+00 -1.2180473328e-03 2.8819480322e+00 -4.9916804165e+00 2.8819480322e+00 4.9916804165e+00 
92300 5.3156612202e+00 -1.2112553052e-03 2.8819691646e+00 -4.9917170189e+00 2.8819691646e+00 4.9917170189e+00 
92400 5.3156611832e+00 -1.2045018606e-03 2.8819901790e+00 -4.9917534169e+00 2.8819901790e+00 4.9917534169e+00 
92500 5.3156611466e+00 -1.1977867728e-03 2.8820110760e+00 -4.9917896117e+00 2.8820110760e+00 4.9917896117e+00 
92600 5.3156611105e+00 -1.1911098166e-03 2.8820318565e+00 -4.9918256044e+00 2.8820318565e+00 4.9918256044e+00 
92700 5.3156610747e+00 -1.1844707682e-03 2.8820525209e+00 -4.9918613963e+00 2.8820525209e+00 4.9918613963e+00 
92800 5.3156610393e+00 -1.1778694054e-03 2.8820730700e+00 -4.9918969884e+00 2.8820730700e+00 4.9918969884e+00 
92900 5.3156610043e+00 -1.1713055074e-03 2.8820935044e+00 -4.9919323818e+00 2.8820935044e+00 4.9919323818e+00 
93000 5.3156609697e+00 -1.1647788544e-03 2.8821138249e+00 -4.9919675778e+00 2.8821138249e+00 4.9919675778e+00 
93100 5.3156609354e+00 -1.1582892282e-03 2.8821340319e+00 -4.9920025775e+00 2.8821340319e+00 4.9920025775e+00 
93200 5.3156609016e+00 -1.1518364121e-03 2.8821541262e+00 -4.9920373819e+00 2.8821541262e+00 4.9920373819e+00 
93300 5.3156608681e+00 -1.1454201905e-03 2.8821741085e+00 -4.9920719921e+00 2.8821741085e+00 4.9920719921e+00 
93400 5.3156608349e+00 -1.1390403490e-03 2.8821939792e+00 -4.9921064093e+00 2.8821939792e+00 4.9921064093e+00 
93500 5.3156608022e+00 -1.1326966750e-03 2.8822137392e+00 -4.9921406346e+00 2.8822137392e+00 4.9921406346e+00 
93600 5.3156607698e+00 -1.1263889567e-03 2.8822333890e+00 -4.9921746690e+00 2.8822333890e+00 4.9921746690e+00 
93700 5.3156607377e+00 -1.1201169840e-03 2.8822529292e+00 -4.9922085137e+00 2.8822529292e+00 4.9922085137e+00 
93800 5.3156607060e+00 -1.1138805477e-03 2.8822723605e+00 -4.9922421697e+00 2.8822723605e+00 4.9922421697e+00 
93900 5.3156606746e+00 -1.1076794402e-03 2.8822916835e+00 -4.9922756381e+00 2.8822916835e+00 4.9922756381e+00 
94000 5.3156606436e+00 -1.1015134551e-03 2.8823108988e+00 -4.9923089199e+00 2.8823108988e+00 4.9923089199e+00 
94100 5.3156606129e+00 -1.0953823872e-03 2.8823300070e+00 -4.9923420163e+00 2.8823300070e+00 4.9923420163e+00 
94200 5.3156605826e+00 -1.0892860325e-03 2.8823490087e+00 -4.9923749282e+00 2.8823490087e+00 4.9923749282e+00 
94300 5.3156605526e+00 -1.0832241886e-03 2.8823679045e+00 -4.9924076567e+00 2.8823679045e+00 4.9924076567e+00 
94400 5.3156605229e+00 -1.0771966538e-03 2.8823866951e+00 -4.9924402029e+00 2.8823866951e+00 4.9924402029e+00 
94500 5.3156604936e+00 -1.0712032281e-03 2.8824053809e+00 -4.9924725678e+00 2.8824053809e+00 4.9924725678e+00 
94600 5.3156604645e+00 -1.0652437124e-03 2.8824239627e+00 -4.9925047524e+00 2.8824239627e+00 4.9925047524e+00 
94700 5.3156604358e+00 -1.0593179091e-03 2.8824424410e+00 -4.9925367577e+00 2.8824424410e+00 4.9925367577e+00 
94800 5.3156604074e+00 -1.0534256217e-03 2.8824608164e+00 -4.9925685848e+00 2.8824608164e+00 4.9925685848e+00 
94900 5.3156603793e+00 -1.0475666547e-03 2.8824790894e+00 -4.9926002346e+00 2.8824790894e+00 4.9926002346e+00 
95000 5.3156603515e+00 -1.0417408141e-03 2.8824972607e+00 -4.9926317082e+00 2.8824972607e+00 4.9926317082e+00 
95100 5.3156603240e+00 -1.0359479070e-03 2.8825153308e+00 -4.9926630066e+00 2.8825153308e+00 4.9926630066e+00 
95200 5.3156602968e+00 -1.0301877415e-03 2.8825333004e+00 -4.9926941307e+00 2.8825333004e+00 4.9926941307e+00 
95300 5.3156602700e+00 -1.0244601270e-03 2.8825511699e+00 -4.9927250816e+00 2.8825511699e+00 4.9927250816e+00 
95400 5.3156602434e+00 -1.0187648742e-03 2.8825689399e+00 -4.9927558602e+00 2.8825689399e+00 4.9927558602e+00 
95500 5.3156602171e+00 -1.0131017948e-03 2.8825866111e+00 -4.9927864676e+00 2.8825866111e+00 4.9927864676e+00 
95600 5.3156601911e+00 -1.0074707016e-03 2.8826041839e+00 -4.9928169046e+00 2.8826041839e+00 4.9928169046e+00 
95700 5.3156601653e+00 -1.0018714087e-03 2.8826216589e+00 -4.9928471722e+00 2.8826216589e+00 4.9928471722e+00 
95800 5.3156601399e+00 -9.9630373112e-04 2.8826390367e+00 -4.9928772714e+00 2.8826390367e+00 4.9928772714e+00 
95900 5.3156601147e+00 -9.9076748525e-04 2.8826563178e+00 -4.9929072032e+00 2.8826563178e+00 4.9929072032e+00 
96000 5.3156600898e+00 -9.8526248843e-04 2.8826735028e+00 -4.9929369685e+00 2.8826735028e+00 4.9929369685e+00 
96100 5.3156600652e+00 -9.7978855919e-04 2.8826905922e+00 -4.9929665682e+00 2.8826905922e+00 4.9929665682e+00 
96200 5.3156600408e+00 -9.7434551712e-04 2.8827075866e+00 -4.9929960033e+00 2.8827075866e+00 4.9929960033e+00 
96300 5.3156600168e+00 -9.6893318292e-04 2.8827244864e+00 -4.9930252747e+00 2.8827244864e+00 4.9930252747e+00 
96400 5.3156599929e+00 -9.6355137839e-04 2.8827412923e+00 -4.9930543833e+00 2.8827412923e+00 4.9930543833e+00 
96500 5.3156599694e+00 -9.5819992642e-04 2.8827580047e+00 -4.9930833301e+00 2.8827580047e+00 4.9930833301e+00 
96600 5.3156599461e+00 -9.5287865094e-04 2.8827746242e+00 -4.9931121159e+00 2.8827746242e+00 4.9931121159e+00 
96700 5.3156599230e+00 -9.4758737699e-04 2.8827911514e+00 -4.9931407418e+00 2.8827911514e+00 4.9931407418e+00 
96800 5.3156599002e+00 -9.4232593064e-04 2.8828075866e+00 -4.9931692085e+00 2.8828075866e+00 4.9931692085e+00 
96900 5.3156598777e+00 -9.3709413904e-04 2.8828239305e+00 -4.9931975169e+00 2.8828239305e+00 4.9931975169e+00 
97000 5.3156598554e+00 -9.3189183037e-04 2.8828401836e+00 -4.9932256681e+00 2.8828401836e+00 4.9932256681e+00 
97100 5.3156598333e+00 -9.2671883385e-04 2.8828563464e+00 -4.9932536628e+00 2.8828563464e+00 4.9932536628e+00 
97200 5.3156598115e+00 -9.2157497976e-04 2.8828724193e+00 -4.9932815020e+00 2.8828724193e+00 4.9932815020e+00 
97300 5.3156597899e+00 -9.1646009938e-04 2.8828884029e+00 -4.9933091864e+00 2.8828884029e+00 4.9933091864e+00 
97400 5.3156597686e+00 -9.1137402502e-04 2.8829042978e+00 -4.9933367171e+00 2.8829042978e+00 4.9933367171e+00 
97500 5.3156597475e+00 -9.0631659002e-04 2.8829201043e+00 -4.9933640948e+00 2.8829201043e+00 4.9933640948e+00 
97600 5.3156597266e+00 -9.0128762870e-04 2.8829358231e+00 -4.9933913205e+00 2.8829358231e+00 4.9933913205e+00 
97700 5.3156597059e+00 -8.9628697640e-04 2.8829514545e+00 -4.9934183949e+00 2.8829514545e+00 4.9934183949e+00 
97800 5.3156596855e+00 -8.9131446946e-04 2.8829669991e+00 -4.9934453190e+00 2.8829669991e+00 4.9934453190e+00 
97900 5.3156596653e+00 -8.8636994519e-04 2.8829824574e+00 -4.9934720936e+00 2.8829824574e+00 4.9934720936e+00 
98000 5.3156596453e+00 -8.8145324190e-04 2.8829978299e+00 -4.9934987194e+00 2.8829978299e+00 4.9934987194e+00 
98100 5.3156596256e+00 -8.7656419887e-04 2.8830131170e+00 -4.9935251975e+00 2.8830131170e+00 4.9935251975e+00 
98200 5.3156596060e+00 -8.7170265635e-04 2.8830283192e+00 -4.9935515285e+00 2.8830283192e+00 4.9935515285e+00 
98300 5.3156595867e+00 -8.6686845555e-04 2.8830434371e+00 -4.9935777134e+00 2.8830434371e+00 4.9935777134e+00 
98400 5.3156595676e+00 -8.6206143865e-04 2.8830584710e+00 -4.9936037529e+00 2.8830584710e+00 4.9936037529e+00 
98500 5.3156595487e+00 -8.5728144875e-04 2.8830734215e+00 -4.9936296479e+00 2.8830734215e+00 4.9936296479e+00 
98600 5.3156595300e+00 -8.5252832994e-04 2.8830882890e+00 -4.9936553992e+00 2.8830882890e+00 4.9936553992e+00 
98700 5.3156595115e+00 -8.4780192722e-04 2.8831030740e+00 -4.9936810076e+00 2.8831030740e+00 4.9936810076e+00 
98800 5.3156594932e+00 -8.4310208653e-04 2.8831177769e+00 -4.9937064738e+00 2.8831177769e+00 4.9937064738e+00 
98900 5.3156594751e+00 -8.3842865473e-04 2.8831323983e+00 -4.9937317988e+00 2.8831323983e+00 4.9937317988e+00 
99000 5.3156594572e+00 -8.3378147961e-04 2.8831469385e+00 -4.9937569832e+00 2.8831469385e+00 4.9937569832e+00 
99100 5.3156594395e+00 -8.2916040989e-04 2.8831613981e+00 -4.9937820280e+00 2.8831613981e+00 4.9937820280e+00 
99200 5.3156594219e+00 -8.2456529516e-04 2.8831757775e+00 -4.9938069338e+00 2.8831757775e+00 4.9938069338e+00 
99300 5.3156594046e+00 -8.1999598595e-04 2.8831900771e+00 -4.9938317014e+00 2.8831900771e+00 4.9938317014e+00 
99400 5.3156593875e+00 -8.1545233367e-04 2.8832042974e+00 -4.9938563317e+00 2.8832042974e+00 4.9938563317e+00 
99500 5.3156593706e+00 -8.1093419063e-04 2.8832184389e+00 -4.9938808254e+00 2.8832184389e+00 4.9938808254e+00 
99600 5.3156593538e+00 -8.0644141002e-04 2.8832325019e+00 -4.9939051833e+00 2.8832325019e+00 4.9939051833e+00 
99700 5.3156593372e+00 -8.0197384592e-04 2.8832464869e+00 -4.9939294061e+00 2.8832464869e+00 4.9939294061e+00 
99800 5.3156593208e+00 -7.9753135328e-04 2.8832603944e+00 -4.9939534945e+00 2.8832603944e+00 4.9939534945e+00 
99900 5.3156593046e+00 -7.9311378791e-04 2.8832742248e+00 -4.9939774495e+00 2.8832742248e+00 4.9939774495e+00 
100000 5.3156592886e+00 -7.8872100650e-04 2.8832879785e+00 -4.9940012716e+00 2.8832879785e+00 4.9940012716e+00 
100100 5.3156592727e+00 -7.8435286659e-04 2.8833016560e+00 -4.9940249617e+00 2.8833016560e+00 4.9940249617e+00 
100200 5.3156592570e+00 -7.8000922657e-04 2.8833152576e+00 -4.9940485204e+00 2.8833152576e+00 4.9940485204e+00 
100300 5.3156592415e+00 -7.7568994570e-04 2.8833287839e+00 -4.9940719486e+00 2.8833287839e+00 4.9940719486e+00 
100400 5.3156592262e+00 -7.7139488404e-04 2.8833422352e+00 -4.9940952469e+00 2.8833422352e+00 4.9940952469e+00 
100500 5.3156592110e+00 -7.6712390253e-04 2.8833556119e+00 -4.9941184162e+00 2.8833556119e+00 4.9941184162e+00 
100600 5.3156591960e+00 -7.6287686293e-04 2.8833689146e+00 -4.9941414570e+00 2.8833689146e+00 4.9941414570e+00 
100700 5.3156591812e+00 -7.5865362779e-04 2.8833821435e+00 -4.9941643702e+00 2.8833821435e+00 4.9941643702e+00 
100800 5.3156591665e+00 -7.5445406054e-04 2.8833952991e+00 -4.9941871564e+00 2.8833952991e+00 4.9941871564e+00 
100900 5.3156591519e+00 -7.5027802539e-04 2.8834083819e+00 -4.9942098164e+00 2.8834083819e+00 4.9942098164e+00 
101000 5.3156591376e+00 -7.4612538736e-04 2.8834213922e+00 -4.9942323508e+00 2.8834213922e+00 4.9942323508e+00 
101100 5.3156591234e+00 -7.4199601229e-04 2.8834343304e+00 -4.9942547605e+00 2.8834343304e+00 4.9942547605e+00 
101200 5.3156591093e+00 -7.3788976681e-04 2.8834471969e+00 -4.9942770460e+00 2.8834471969e+00 4.9942770460e+00 
101300 5.3156590954e+00 -7.3380651836e-04 2.8834599922e+00 -4.9942992080e+00 2.8834599922e+00 4.9942992080e+00 
101400 5.3156590817e+00 -7.2974613515e-04 2.8834727166e+00 -4.9943212474e+00 2.8834727166e+00 4.9943212474e+00 
101500 5.3156590681e+00 -7.2570848618e-04 2.8834853706e+00 -4.9943431647e+00 2.8834853706e+00 4.9943431647e+00 
101600 5.3156590546e+00 -7.2169344125e-04 2.8834979544e+00 -4.9943649606e+00 2.8834979544e+00 4.9943649606e+00 
101700 5.3156590413e+00 -7.1770087090e-04 2.8835104686e+00 -4.9943866359e+00 2.8835104686e+00 4.9943866359e+00 
101800 5.3156590282e+00 -7.1373064649e-04 2.8835229136e+00 -4.9944081911e+00 2.8835229136e+00 4.9944081911e+00 
101900 5.3156590152e+00 -7.0978264010e-04 2.8835352896e+00 -4.9944296270e+00 2.8835352896e+00 4.9944296270e+00 
102000 5.3156590023e+00 -7.0585672459e-04 2.8835475971e+00 -4.9944509442e+00 2.8835475971e+00 4.9944509442e+00 
102100 5.3156589896e+00 -7.0195277358e-04 2.8835598365e+00 -4.9944721435e+00 2.8835598365e+00 4.9944721435e+00 
102200 5.3156589770e+00 -6.9807066143e-04 2.8835720081e+00 -4.9944932254e+00 2.8835720081e+00 4.9944932254e+00 
102300 5.3156589645e+00 -6.9421026326e-04 2.8835841124e+00 -4.9945141906e+00 2.8835841124e+00 4.9945141906e+00 
102400 5.3156589522e+00 -6.9037145491e-04 2.8835961497e+00 -4.9945350398e+00 2.8835961497e+00 4.9945350398e+00 
102500 5.3156589400e+00 -6.8655411299e-04 2.8836081204e+00 -4.9945557736e+00 2.8836081204e+00 4.9945557736e+00 
102600 5.3156589280e+00 -6.8275811481e-04 2.8836200248e+00 -4.9945763927e+00 2.8836200248e+00 4.9945763927e+00 
102700 5.3156589161e+00 -6.7898333844e-04 2.8836318634e+00 -4.9945968977e+00 2.8836318634e+00 4.9945968977e+00 
102800 5.3156589043e+00 -6.7522966264e-04 2.8836436365e+00 -4.9946172893e+00 2.8836436365e+00 4.9946172893e+00 
102900 5.3156588926e+00 -6.7149696690e-04 2.8836553444e+00 -4.9946375680e+00 2.8836553444e+00 4.9946375680e+00 
103000 5.3156588811e+00 -6.6778513145e-04 2.8836669876e+00 -4.9946577346e+00 2.8836669876e+00 4.9946577346e+00 
103100 5.3156588697e+00 -6.6409403720e-04 2.8836785663e+00 -4.9946777896e+00 2.8836785663e+00 4.9946777896e+00 
103200 5.3156588584e+00 -6.6042356576e-04 2.8836900810e+00 -4.9946977336e+00 2.8836900810e+00 4.9946977336e+00 
103300 5.3156588473e+00 -6.5677359948e-04 2.8837015320e+00 -4.9947175674e+00 2.8837015320e+00 4.9947175674e+00 
103400 5.3156588363e+00 -6.5314402137e-04 2.8837129197e+00 -4.9947372914e+00 2.8837129197e+00 4.9947372914e+00 
103500 5.3156588253e+00 -6.4953471514e-04 2.8837242445e+00 -4.9947569064e+00 2.8837242445e+00 4.9947569064e+00 
103600 5.3156588146e+00 -6.4594556520e-04 2.8837355065e+00 -4.9947764129e+00 2.8837355065e+00 4.9947764129e+00 
103700 5.3156588039e+00 -6.4237645663e-04 2.8837467064e+00 -4.9947958116e+00 2.8837467064e+00 4.9947958116e+00 
103800 5.3156587933e+00 -6.3882727521e-04 2.8837578442e+00 -4.9948151030e+00 2.8837578442e+00 4.9948151030e+00 
103900 5.3156587829e+00 -6.3529790736e-04 2.8837689205e+00 -4.9948342877e+00 2.8837689205e+00 4.9948342877e+00 
104000 5.3156587726e+00 -6.3178824021e-04 2.8837799356e+00 -4.9948533663e+00 2.8837799356e+00 4.9948533663e+00 
104100 5.3156587623e+00 -6.2829816152e-04 2.8837908898e+00 -4.9948723395e+00 2.8837908898e+00 4.9948723395e+00 
104200 5.3156587522e+00 -6.2482755975e-04 2.8838017834e+00 -4.9948912078e+00 2.8838017834e+00 4.9948912078e+00 
104300 5.3156587423e+00 -6.2137632398e-04 2.8838126168e+00 -4.9949099718e+00 2.8838126168e+00 4.9949099718e+00 
104400 5.3156587324e+00 -6.1794434398e-04 2.8838233904e+00 -4.9949286321e+00 2.8838233904e+00 4.9949286321e+00 
104500 5.3156587226e+00 -6.1453151015e-04 2.8838341043e+00 -4.9949471893e+00 2.8838341043e+00 4.9949471893e+00 
104600 5.3156587129e+00 -6.1113771353e-04 2.8838447591e+00 -4.9949656439e+00 2.8838447591e+00 4.9949656439e+00 
104700 5.3156587034e+00 -6.0776284582e-04 2.8838553550e+00 -4.9949839965e+00 2.8838553550e+00 4.9949839965e+00 
104800 5.3156586939e+00 -6.0440679935e-04 2.8838658923e+00 -4.9950022477e+00 2.8838658923e+00 4.9950022477e+00 
104900 5.3156586846e+00 -6.0106946709e-04 2.8838763714e+00 -4.9950203981e+00 2.8838763714e+00 4.9950203981e+00 
105000 5.3156586753e+00 -5.9775074262e-04 2.8838867927e+00 -4.9950384482e+00 2.8838867927e+00 4.9950384482e+00 
105100 5.3156586662e+00 -5.9445052017e-04 2.8838971563e+00 -4.9950563985e+00 2.8838971563e+00 4.9950563985e+00 
105200 5.3156586571e+00 -5.9116869459e-04 2.8839074627e+00 -4.9950742497e+00 2.8839074627e+00 4.9950742497e+00 
105300 5.3156586482e+00 -5.8790516132e-04 2.8839177121e+00 -4.9950920022e+00 2.8839177121e+00 4.9950920022e+00 
105400 5.3156586393e+00 -5.8465981646e-04 2.8839279050e+00 -4.9951096567e+00 2.8839279050e+00 4.9951096567e+00 
105500 5.3156586306e+00 -5.8143255669e-04 2.8839380415e+00 -4.9951272137e+00 2.8839380415e+00 4.9951272137e+00 
105600 5.3156586219e+00 -5.7822327930e-04 2.8839481220e+00 -4.9951446737e+00 2.8839481220e+00 4.9951446737e+00 
105700 5.3156586133e+00 -5.7503188219e-04 2.8839581469e+00 -4.9951620373e+00 2.8839581469e+00 4.9951620373e+00 
105800 5.3156586049e+00 -5.7185826387e-04 2.8839681164e+00 -4.9951793050e+00 2.8839681164e+00 4.9951793050e+00 
105900 5.3156585965e+00 -5.6870232341e-04 2.8839780308e+00 -4.9951964773e+00 2.8839780308e+00 4.9951964773e+00 
106000 5.3156585882e+00 -5.6556396051e-04 2.8839878905e+00 -4.9952135548e+00 2.8839878905e+00 4.9952135548e+00 
106100 5.3156585800e+00 -5.6244307545e-04 2.8839976958e+00 -4.9952305380e+00 2.8839976958e+00 4.9952305380e+00 
106200 5.3156585719e+00 -5.5933956907e-04 2.8840074469e+00 -4.9952474274e+00 2.8840074469e+00 4.9952474274e+00 
106300 5.3156585639e+00 -5.5625334283e-04 2.8840171441e+00 -4.9952642235e+00 2.8840171441e+00 4.9952642235e+00 
106400 5.3156585560e+00 -5.5318429874e-04 2.8840267879e+00 -4.9952809270e+00 2.8840267879e+00 4.9952809270e+00 
106500 5.3156585481e+00 -5.5013233939e-04 2.8840363783e+00 -4.9952975382e+00 2.8840363783e+00 4.9952975382e+00 
106600 5.3156585404e+00 -5.4709736795e-04 2.8840459159e+00 -4.9953140577e+00 2.8840459159e+00 4.9953140577e+00 
106700 5.3156585327e+00 -5.4407928815e-04 2.8840554008e+00 -4.9953304860e+00 2.8840554008e+00 4.9953304860e+00 
106800 5.3156585251e+00 -5.4107800427e-04 2.8840648333e+00 -4.9953468237e+00 2.8840648333e+00 4.9953468237e+00 
106900 5.3156585176e+00 -5.3809342118e-04 2.8840742138e+00 -4.9953630711e+00 2.8840742138e+00 4.9953630711e+00 
107000 5.3156585102e+00 -5.3512544429e-04 2.8840835425e+00 -4.9953792289e+00 2.8840835425e+00 4.9953792289e+00 
107100 5.3156585028e+00 -5.3217397955e-04 2.8840928197e+00 -4.9953952975e+00 2.8840928197e+00 4.9953952975e+00 
107200 5.3156584956e+00 -5.2923893348e-04 2.8841020458e+00 -4.9954112775e+00 2.8841020458e+00 4.9954112775e+00 
107300 5.3156584884e+00 -5.2632021314e-04 2.8841112209e+00 -4.9954271693e+00 2.8841112209e+00 4.9954271693e+00 
107400 5.3156584813e+00 -5.2341772614e-04 2.8841203454e+00 -4.9954429733e+00 2.8841203454e+00 4.9954429733e+00 
107500 5.3156584743e+00 -5.2053138061e-04 2.8841294195e+00 -4.9954586902e+00 2.8841294195e+00 4.9954586902e+00 
107600 5.3156584673e+00 -5.1766108524e-04 2.8841384436e+00 -4.9954743203e+00 2.8841384436e+00 4.9954743203e+00 
107700 5.3156584604e+00 -5.1480674923e-04 2.8841474179e+00 -4.9954898642e+00 2.8841474179e+00 4.9954898642e+00 
107800 5.3156584536e+00 -5.1196828234e-04 2.8841563426e+00 -4.9955053224e+00 2.8841563426e+00 4.9955053224e+00 
107900 5.3156584469e+00 -5.0914559482e-04 2.8841652182e+00 -4.9955206953e+00 2.8841652182e+00 4.9955206953e+00 
108000 5.3156584403e+00 -5.0633859748e-04 2.8841740447e+00 -4.9955359833e+00 2.8841740447e+00 4.9955359833e+00 
108100 5.3156584337e+00 -5.0354720161e-04 2.8841828226e+00 -4.9955511871e+00 2.8841828226e+00 4.9955511871e+00 
108200 5.3156584272e+00 -5.0077131906e-04 2.8841915521e+00 -4.9955663070e+00 2.8841915521e+00 4.9955663070e+00 
108300 5.3156584208e+00 -4.9801086216e-04 2.8842002334e+00 -4.9955813434e+00 2.8842002334e+00 4.9955813434e+00 
108400 5.3156584144e+00 -4.9526574377e-04 2.8842088668e+00 -4.9955962970e+00 2.8842088668e+00 4.9955962970e+00 
108500 5.3156584081e+00 -4.9253587725e-04 2.8842174527e+00 -4.9956111681e+00 2.8842174527e+00 4.9956111681e+00 
108600 5.3156584019e+00 -4.8982117647e-04 2.8842259911e+00 -4.9956259571e+00 2.8842259911e+00 4.9956259571e+00 
108700 5.3156583957e+00 -4.8712155578e-04 2.8842344825e+00 -4.9956406646e+00 2.8842344825e+00 4.9956406646e+00 
108800 5.3156583896e+00 -4.8443693007e-04 2.8842429271e+00 -4.9956552910e+00 2.8842429271e+00 4.9956552910e+00 
108900 5.3156583836e+00 -4.8176721467e-04 2.8842513251e+00 -4.9956698368e+00 2.8842513251e+00 4.9956698368e+00 
109000 5.3156583777e+00 -4.7911232546e-04 2.8842596767e+00 -4.9956843024e+00 2.8842596767e+00 4.9956843024e+00 
109100 5.3156583718e+00 -4.7647217877e-04 2.8842679824e+00 -4.9956986881e+00 2.8842679824e+00 4.9956986881e+00 
109200 5.3156583659e+00 -4.7384669143e-04 2.8842762422e+00 -4.9957129946e+00 2.8842762422e+00 4.9957129946e+00 
109300 5.3156583602e+00 -4.7123578075e-04 2.8842844566e+00 -4.9957272222e+00 2.8842844566e+00 4.9957272222e+00 
109400 5.3156583545e+00 -4.6863936452e-04 2.8842926256e+00 -4.9957413714e+00 2.8842926256e+00 4.9957413714e+00 
109500 5.3156583488e+00 -4.6605736100e-04 2.8843007496e+00 -4.9957554426e+00 2.8843007496e+00 4.9957554426e+00 
109600 5.3156583433e+00 -4.6348968896e-04 2.8843088288e+00 -4.9957694362e+00 2.8843088288e+00 4.9957694362e+00 
109700 5.3156583378e+00 -4.6093626759e-04 2.8843168635e+00 -4.9957833527e+00 2.8843168635e+00 4.9957833527e+00 
109800 5.3156583323e+00 -4.5839701658e-04 2.8843248539e+00 -4.9957971924e+00 2.8843248539e+00 4.9957971924e+00 
109900 5.3156583269e+00 -4.5587185608e-04 2.8843328002e+00 -4.9958109559e+00 2.8843328002e+00 4.9958109559e+00 
110000 5.3156583216e+00 -4.5336070671e-04 2.8843407028e+00 -4.9958246435e+00 2.8843407028e+00 4.9958246435e+00 
110100 5.3156583163e+00 -4.5086348954e-04 2.8843485618e+00 -4.9958382557e+00 2.8843485618e+00 4.9958382557e+00 
110200 5.3156583111e+00 -4.4838012609e-04 2.8843563775e+00 -4.9958517929e+00 2.8843563775e+00 4.9958517929e+00 
110300 5.3156583059e+00 -4.4591053835e-04 2.8843641501e+00 -4.9958652555e+00 2.8843641501e+00 4.9958652555e+00 
110400 5.3156583008e+00 -4.4345464876e-04 2.8843718799e+00 -4.9958786439e+00 2.8843718799e+00 4.9958786439e+00 
110500 5.3156582958e+00 -4.4101238020e-04 2.8843795671e+00 -4.9958919585e+00 2.8843795671e+00 4.9958919585e+00 
110600 5.3156582908e+00 -4.3858365601e-04 2.8843872119e+00 -4.9959051998e+00 2.8843872119e+00 4.9959051998e+00 
110700 5.3156582858e+00 -4.3616839996e-04 2.8843948146e+00 -4.9959183681e+00 2.8843948146e+00 4.9959183681e+00 
110800 5.3156582809e+00 -4.3376653626e-04 2.8844023755e+00 -4.9959314638e+00 2.8844023755e+00 4.9959314638e+00 
110900 5.3156582761e+00 -4.3137798958e-04 2.8844098947e+00 -4.9959444874e+00 2.8844098947e+00 4.9959444874e+00 
111000 5.3156582713e+00 -4.2900268500e-04 2.8844173724e+00 -4.9959574393e+00 2.8844173724e+00 4.9959574393e+00 
111100 5.3156582666e+00 -4.2664054805e-04 2.8844248090e+00 -4.9959703198e+00 2.8844248090e+00 4.9959703198e+00 
111200 5.3156582619e+00 -4.2429150468e-04 2.8844322046e+00 -4.9959831293e+00 2.8844322046e+00 4.9959831293e+00 
111300 5.3156582573e+00 -4.2195548128e-04 2.8844395594e+00 -4.9959958683e+00 2.8844395594e+00 4.9959958683e+00 
111400 5.3156582527e+00 -4.1963240464e-04 2.8844468738e+00 -4.9960085371e+00 2.8844468738e+00 4.9960085371e+00 
111500 5.3156582482e+00 -4.1732220200e-04 2.8844541478e+00 -4.9960211361e+00 2.8844541478e+00 4.9960211361e+00 
111600 5.3156582437e+00 -4.1502480102e-04 2.8844613818e+00 -4.9960336658e+00 2.8844613818e+00 4.9960336658e+00 
111700 5.3156582393e+00 -4.1274012975e-04 2.8844685760e+00 -4.9960461264e+00 2.8844685760e+00 4.9960461264e+00 
111800 5.3156582349e+00 -4.1046811668e-04 2.8844757305e+00 -4.9960585184e+00 2.8844757305e+00 4.9960585184e+00 
111900 5.3156582306e+00 -4.0820869071e-04 2.8844828456e+00 -4.9960708422e+00 2.8844828456e+00 4.9960708422e+00 
112000 5.3156582263e+00 -4.0596178114e-04 2.8844899216e+00 -4.9960830981e+00 2.8844899216e+00 4.9960830981e+00 
112100 5.3156582221e+00 -4.0372731768e-04 2.8844969586e+00 -4.9960952865e+00 2.8844969586e+00 4.9960952865e+00 
112200 5.3156582179e+00 -4.0150523045e-04 2.8845039568e+00 -4.9961074078e+00 2.8845039568e+00 4.9961074078e+00 
112300 5.3156582138e+00 -3.9929544998e-04 2.8845109165e+00 -4.9961194623e+00 2.8845109165e+00 4.9961194623e+00 
112400 5.3156582097e+00 -3.9709790718e-04 2.8845178379e+00 -4.9961314505e+00 2.8845178379e+00 4.9961314505e+00 
112500 5.3156582056e+00 -3.9491253337e-04 2.8845247211e+00 -4.9961433727e+00 2.8845247211e+00 4.9961433727e+00 
112600 5.3156582016e+00 -3.9273926026e-04 2.8845315665e+00 -4.9961552292e+00 2.8845315665e+00 4.9961552292e+00 
112700 5.3156581977e+00 -3.9057801997e-04 2.8845383742e+00 -4.9961670204e+00 2.8845383742e+00 4.9961670204e+00 
112800 5.3156581937e+00 -3.8842874499e-04 2.8845451444e+00 -4.9961787468e+00 2.8845451444e+00 4.9961787468e+00 
112900 5.3156581899e+00 -3.8629136820e-04 2.8845518773e+00 -4.9961904086e+00 2.8845518773e+00 4.9961904086e+00 
113000 5.3156581860e+00 -3.8416582289e-04 2.8845585732e+00 -4.9962020061e+00 2.8845585732e+00 4.9962020061e+00 
113100 5.3156581822e+00 -3.8205204269e-04 2.8845652322e+00 -4.9962135399e+00 2.8845652322e+00 4.9962135399e+00 
113200 5.3156581785e+00 -3.7994996167e-04 2.8845718545e+00 -4.9962250101e+00 2.8845718545e+00 4.9962250101e+00 
113300 5.3156581748e+00 -3.7785951422e-04 2.8845784404e+00 -4.9962364172e+00 2.8845784404e+00 4.9962364172e+00 
113400 5.3156581711e+00 -3.7578063514e-04 2.8845849901e+00 -4.9962477616e+00 2.8845849901e+00 4.9962477616e+00 
113500 5.3156581675e+00 -3.7371325961e-04 2.8845915037e+00 -4.9962590435e+00 2.8845915037e+00 4.9962590435e+00 
113600 5.3156581639e+00 -3.7165732315e-04 2.8845979814e+00 -4.9962702633e+00 2.8845979814e+00 4.9962702633e+00 
113700 5.3156581603e+00 -3.6961276169e-04 2.8846044235e+00 -4.9962814213e+00 2.8846044235e+00 4.9962814213e+00 
113800 5.3156581568e+00 -3.6757951150e-04 2.8846108302e+00 -4.9962925179e+00 2.8846108302e+00 4.9962925179e+00 
113900 5.3156581533e+00 -3.6555750922e-04 2.8846172016e+00 -4.9963035535e+00 2.8846172016e+00 4.9963035535e+00 
114000 5.3156581499e+00 -3.6354669186e-04 2.8846235379e+00 -4.9963145284e+00 2.8846235379e+00 4.9963145284e+00 
114100 5.3156581465e+00 -3.6154699679e-04 2.8846298394e+00 -4.9963254428e+00 2.8846298394e+00 4.9963254428e+00 
114200 5.3156581432e+00 -3.5955836174e-04 2.8846361061e+00 -4.9963362972e+00 2.8846361061e+00 4.9963362972e+00 
114300 5.3156581398e+00 -3.5758072479e-04 2.8846423385e+00 -4.9963470919e+00 2.8846423385e+00 4.9963470919e+00 
114400 5.3156581366e+00 -3.5561402439e-04 2.8846485365e+00 -4.9963578271e+00 2.8846485365e+00 4.9963578271e+00 
114500 5.3156581333e+00 -3.5365819932e-04 2.8846547004e+00 -4.9963685033e+00 2.8846547004e+00 4.9963685033e+00 
114600 5.3156581301e+00 -3.5171318873e-04 2.8846608304e+00 -4.9963791208e+00 2.8846608304e+00 4.9963791208e+00 
114700 5.3156581269e+00 -3.4977893212e-04 2.8846669266e+00 -4.9963896798e+00 2.8846669266e+00 4.9963896798e+00 
114800 5.3156581238e+00 -3.4785536931e-04 2.8846729894e+00 -4.9964001808e+00 2.8846729894e+00 4.9964001808e+00 
114900 5.3156581207e+00 -3.4594244050e-04 2.8846790187e+00 -4.9964106240e+00 2.8846790187e+00 4.9964106240e+00 
115000 5.3156581176e+00 -3.4404008620e-04 2.8846850149e+00 -4.9964210097e+00 2.8846850149e+00 4.9964210097e+00 
115100 5.3156581145e+00 -3.4214824729e-04 2.8846909782e+00 -4.9964313383e+00 2.8846909782e+00 4.9964313383e+00 
115200 5.3156581115e+00 -3.4026686497e-04 2.8846969086e+00 -4.9964416101e+00 2.8846969086e+00 4.9964416101e+00 
115300 5.3156581085e+00 -3.3839588077e-04 2.8847028064e+00 -4.9964518254e+00 2.8847028064e+00 4.9964518254e+00 
115400 5.3156581056e+00 -3.3653523658e-04 2.8847086717e+00 -4.9964619845e+00 2.8847086717e+00 4.9964619845e+00 
115500 5.3156581027e+00 -3.3468487459e-04 2.8847145048e+00 -4.9964720877e+00 2.8847145048e+00 4.9964720877e+00 
115600 5.3156580998e+00 -3.3284473736e-04 2.8847203058e+00 -4.9964821353e+00 2.8847203058e+00 4.9964821353e+00 
115700 5.3156580970e+00 -3.3101476773e-04 2.8847260749e+00 -4.9964921277e+00 2.8847260749e+00 4.9964921277e+00 
115800 5.3156580941e+00 -3.2919490891e-04 2.8847318123e+00 -4.9965020651e+00 2.8847318123e+00 4.9965020651e+00 
115900 5.3156580914e+00 -3.2738510441e-04 2.8847375181e+00 -4.9965119479e+00 2.8847375181e+00 4.9965119479e+00 
116000 5.3156580886e+00 -3.2558529806e-04 2.8847431925e+00 -4.9965217763e+00 2.8847431925e+00 4.9965217763e+00 
116100 5.3156580859e+00 -3.2379543404e-04 2.8847488358e+00 -4.9965315506e+00 2.8847488358e+00 4.9965315506e+00 
116200 5.3156580832e+00 -3.2201545681e-04 2.8847544480e+00 -4.9965412713e+00 2.8847544480e+00 4.9965412713e+00 
116300 5.3156580805e+00 -3.2024531118e-04 2.8847600293e+00 -4.9965509384e+00 2.8847600293e+00 4.9965509384e+00 
116400 5.3156580779e+00 -3.1848494224e-04 2.8847655800e+00 -4.9965605524e+00 2.8847655800e+00 4.9965605524e+00 
116500 5.3156580753e+00 -3.1673429544e-04 2.8847711001e+00 -4.9965701135e+00 2.8847711001e+00 4.9965701135e+00 
116600 5.3156580727e+00 -3.1499331649e-04 2.8847765898e+00 -4.9965796221e+00 2.8847765898e+00 4.9965796221e+00 
116700 5.3156580701e+00 -3.1326195144e-04 2.8847820494e+00 -4.9965890784e+00 2.8847820494e+00 4.9965890784e+00 
116800 5.3156580676e+00 -3.1154014665e-04 2.8847874790e+00 -4.9965984826e+00 2.8847874790e+00 4.9965984826e+00 
116900 5.3156580651e+00 -3.0982784877e-04 2.8847928787e+00 -4.9966078352e+00 2.8847928787e+00 4.9966078352e+00 
117000 5.3156580627e+00 -3.0812500477e-04 2.8847982487e+00 -4.9966171363e+00 2.8847982487e+00 4.9966171363e+00 
117100 5.3156580602e+00 -3.0643156190e-04 2.8848035892e+00 -4.9966263864e+00 2.8848035892e+00 4.9966263864e+00 
117200 5.3156580578e+00 -3.0474746773e-04 2.8848089003e+00 -4.9966355855e+00 2.8848089003e+00 4.9966355855e+00 
117300 5.3156580554e+00 -3.0307267012e-04 2.8848141823e+00 -4.9966447341e+00 2.8848141823e+00 4.9966447341e+00 
117400 5.3156580531e+00 -3.0140711724e-04 2.8848194352e+00 -4.9966538324e+00 2.8848194352e+00 4.9966538324e+00 
117500 5.3156580507e+00 -2.9975075753e-04 2.8848246592e+00 -4.9966628807e+00 2.8848246592e+00 4.9966628807e+00 
117600 5.3156580484e+00 -2.9810353974e-04 2.8848298545e+00 -4.9966718792e+00 2.8848298545e+00 4.9966718792e+00 
117700 5.3156580461e+00 -2.9646541291e-04 2.8848350212e+00 -4.9966808283e+00 2.8848350212e+00 4.9966808283e+00 
117800 5.3156580439e+00 -2.9483632637e-04 2.8848401596e+00 -4.9966897281e+00 2.8848401596e+00 4.9966897281e+00 
117900 5.3156580416e+00 -2.9321622973e-04 2.8848452697e+00 -4.9966985791e+00 2.8848452697e+00 4.9966985791e+00 
118000 5.3156580394e+00 -2.9160507291e-04 2.8848503517e+00 -4.9967073814e+00 2.8848503517e+00 4.9967073814e+00 
118100 5.3156580372e+00 -2.9000280608e-04 2.8848554058e+00 -4.9967161353e+00 2.8848554058e+00 4.9967161353e+00 
118200 5.3156580351e+00 -2.8840937972e-04 2.8848604321e+00 -4.9967248411e+00 2.8848604321e+00 4.9967248411e+00 
118300 5.3156580329e+00 -2.8682474458e-04 2.8848654308e+00 -4.9967334991e+00 2.8848654308e+00 4.9967334991e+00 
118400 5.3156580308e+00 -2.8524885170e-04 2.8848704020e+00 -4.9967421094e+00 2.8848704020e+00 4.9967421094e+00 
118500 5.3156580287e+00 -2.8368165238e-04 2.8848753458e+00 -4.9967506725e+00 2.8848753458e+00 4.9967506725e+00 
118600 5.3156580267e+00 -2.8212309821e-04 2.8848802625e+00 -4.9967591885e+00 2.8848802625e+00 4.9967591885e+00 
118700 5.3156580246e+00 -2.8057314105e-04 2.8848851522e+00 -4.9967676577e+00 2.8848851522e+00 4.9967676577e+00 
118800 5.3156580226e+00 -2.7903173304e-04 2.8848900150e+00 -4.9967760803e+00 2.8848900150e+00 4.9967760803e+00 
118900 5.3156580206e+00 -2.7749882659e-04 2.8848948511e+00 -4.9967844566e+00 2.8848948511e+00 4.9967844566e+00 
119000 5.3156580186e+00 -2.7597437437e-04 2.8848996606e+00 -4.9967927870e+00 2.8848996606e+00 4.9967927870e+00 
119100 5.3156580166e+00 -2.7445832932e-04 2.8849044437e+00 -4.9968010715e+00 2.8849044437e+00 4.9968010715e+00 
119200 5.3156580147e+00 -2.7295064466e-04 2.8849092005e+00 -4.9968093105e+00 2.8849092005e+00 4.9968093105e+00 
119300 5.3156580128e+00 -2.7145127386e-04 2.8849139312e+00 -4.9968175043e+00 2.8849139312e+00 4.9968175043e+00 
119400 5.3156580109e+00 -2.6996017068e-04 2.8849186359e+00 -4.9968256530e+00 2.8849186359e+00 4.9968256530e+00 
119500 5.3156580090e+00 -2.6847728910e-04 2.8849233147e+00 -4.9968337570e+00 2.8849233147e+00 4.9968337570e+00 
119600 5.3156580072e+00 -2.6700258339e-04 2.8849279678e+00 -4.9968418164e+00 2.8849279678e+00 4.9968418164e+00 
119700 5.3156580053e+00 -2.6553600808e-04 2.8849325953e+00 -4.9968498315e+00 2.8849325953e+00 4.9968498315e+00 
119800 5.3156580035e+00 -2.6407751795e-04 2.8849371975e+00 -4.9968578026e+00 2.8849371975e+00 4.9968578026e+00 
119900 5.3156580017e+00 -2.6262706803e-04 2.8849417743e+00 -4.9968657300e+00 2.8849417743e+00 4.9968657300e+00 
120000 5.3156580000e+00 -2.6118461361e-04 2.8849463260e+00 -4.9968736137e+00 2.8849463260e+00 4.9968736137e+00 
120100 5.3156579982e+00 -2.5975011025e-04 2.8849508527e+00 -4.9968814542e+00 2.8849508527e+00 4.9968814542e+00 
120200 5.3156579965e+00 -2.5832351373e-04 2.8849553545e+00 -4.9968892515e+00 2.8849553545e+00 4.9968892515e+00 
120300 5.3156579948e+00 -2.5690478010e-04 2.8849598316e+00 -4.9968970061e+00 2.8849598316e+00 4.9968970061e+00 
120400 5.3156579931e+00 -2.5549386566e-04 2.8849642840e+00 -4.9969047180e+00 2.8849642840e+00 4.9969047180e+00 
120500 5.3156579914e+00 -2.5409072695e-04 2.8849687121e+00 -4.9969123875e+00 2.8849687121e+00 4.9969123875e+00 
120600 5.3156579897e+00 -2.5269532075e-04 2.8849731158e+00 -4.9969200150e+00 2.8849731158e+00 4.9969200150e+00 
120700 5.3156579881e+00 -2.5130760411e-04 2.8849774953e+00 -4.9969276005e+00 2.8849774953e+00 4.9969276005e+00 
120800 5.3156579864e+00 -2.4992753428e-04 2.8849818507e+00 -4.9969351444e+00 2.8849818507e+00 4.9969351444e+00 
120900 5.3156579848e+00 -2.4855506881e-04 2.8849861823e+00 -4.9969426468e+00 2.8849861823e+00 4.9969426468e+00 
121000 5.3156579833e+00 -2.4719016542e-04 2.8849904900e+00 -4.9969501080e+00 2.8849904900e+00 4.9969501080e+00 
121100 5.3156579817e+00 -2.4583278213e-04 2.8849947741e+00 -4.9969575283e+00 2.8849947741e+00 4.9969575283e+00 
121200 5.3156579801e+00 -2.4448287717e-04 2.8849990346e+00 -4.9969649077e+00 2.8849990346e+00 4.9969649077e+00 
121300 5.3156579786e+00 -2.4314040901e-04 2.8850032718e+00 -4.9969722467e+00 2.8850032718e+00 4.9969722467e+00 
121400 5.3156579771e+00 -2.4180533634e-04 2.8850074856e+00 -4.9969795453e+00 2.8850074856e+00 4.9969795453e+00 
121500 5.3156579756e+00 -2.4047761811e-04 2.8850116763e+00 -4.9969868039e+00 2.8850116763e+00 4.9969868039e+00 
121600 5.3156579741e+00 -2.3915721348e-04 2.8850158441e+00 -4.9969940225e+00 2.8850158441e+00 4.9969940225e+00 
121700 5.3156579726e+00 -2.3784408186e-04 2.8850199889e+00 -4.9970012016e+00 2.8850199889e+00 4.9970012016e+00 
121800 5.3156579712e+00 -2.3653818286e-04 2.8850241109e+00 -4.9970083412e+00 2.8850241109e+00 4.9970083412e+00 
121900 5.3156579697e+00 -2.3523947636e-04 2.8850282103e+00 -4.9970154416e+00 2.8850282103e+00 4.9970154416e+00 
122000 5.3156579683e+00 -2.3394792242e-04 2.8850322872e+00 -4.9970225030e+00 2.8850322872e+00 4.9970225030e+00 
122100 5.3156579669e+00 -2.3266348136e-04 2.8850363418e+00 -4.9970295256e+00 2.8850363418e+00 4.9970295256e+00 
122200 5.3156579655e+00 -2.3138611371e-04 2.8850403740e+00 -4.9970365097e+00 2.8850403740e+00 4.9970365097e+00 
122300 5.3156579641e+00 -2.3011578022e-04 2.8850443841e+00 -4.9970434554e+00 2.8850443841e+00 4.9970434554e+00 
122400 5.3156579628e+00 -2.2885244186e-04 2.8850483722e+00 -4.9970503629e+00 2.8850483722e+00 4.9970503629e+00 
122500 5.3156579614e+00 -2.2759605984e-04 2.8850523384e+00 -4.9970572325e+00 2.8850523384e+00 4.9970572325e+00 
122600 5.3156579601e+00 -2.2634659556e-04 2.8850562828e+00 -4.9970640644e+00 2.8850562828e+00 4.9970640644e+00 
122700 5.3156579588e+00 -2.2510401066e-04 2.8850602055e+00 -4.9970708588e+00 2.8850602055e+00 4.9970708588e+00 
122800 5.3156579575e+00 -2.2386826699e-04 2.8850641067e+00 -4.9970776159e+00 2.8850641067e+00 4.9970776159e+00 
122900 5.3156579562e+00 -2.2263932660e-04 2.8850679865e+00 -4.9970843359e+00 2.8850679865e+00 4.9970843359e+00 
123000 5.3156579549e+00 -2.2141715178e-04 2.8850718450e+00 -4.9970910190e+00 2.8850718450e+00 4.9970910190e+00 
123100 5.3156579536e+00 -2.2020170500e-04 2.8850756823e+00 -4.9970976654e+00 2.8850756823e+00 4.9970976654e+00 
123200 5.3156579524e+00 -2.1899294898e-04 2.8850794985e+00 -4.9971042752e+00 2.8850794985e+00 4.9971042752e+00 
123300 5.3156579512e+00 -2.1779084661e-04 2.8850832937e+00 -4.9971108488e+00 2.8850832937e+00 4.9971108488e+00 
123400 5.3156579499e+00 -2.1659536102e-04 2.8850870682e+00 -4.9971173863e+00 2.8850870682e+00 4.9971173863e+00 
123500 5.3156579487e+00 -2.1540645554e-04 2.8850908219e+00 -4.9971238880e+00 2.8850908219e+00 4.9971238880e+00 
123600 5.3156579475e+00 -2.1422409369e-04 2.8850945550e+00 -4.9971303539e+00 2.8850945550e+00 4.9971303539e+00 
123700 5.3156579464e+00 -2.1304823922e-04 2.8850982676e+00 -4.9971367843e+00 2.8850982676e+00 4.9971367843e+00 
123800 5.3156579452e+00 -2.1187885606e-04 2.8851019598e+00 -4.9971431794e+00 2.8851019598e+00 4.9971431794e+00 
123900 5.3156579440e+00 -2.1071590836e-04 2.8851056318e+00 -4.9971495394e+00 2.8851056318e+00 4.9971495394e+00 
124000 5.3156579429e+00 -2.0955936046e-04 2.8851092835e+00 -4.9971558645e+00 2.8851092835e+00 4.9971558645e+00 
124100 5.3156579418e+00 -2.0840917691e-04 2.8851129153e+00 -4.9971621548e+00 2.8851129153e+00 4.9971621548e+00 
124200 5.3156579407e+00 -2.0726532246e-04 2.8851165271e+00 -4.9971684107e+00 2.8851165271e+00 4.9971684107e+00 
124300 5.3156579395e+00 -2.0612776205e-04 2.8851201191e+00 -4.9971746322e+00 2.8851201191e+00 4.9971746322e+00 
124400 5.3156579385e+00 -2.0499646081e-04 2.8851236913e+00 -4.9971808195e+00 2.8851236913e+00 4.9971808195e+00 
124500 5.3156579374e+00 -2.0387138409e-04 2.8851272440e+00 -4.9971869728e+00 2.8851272440e+00 4.9971869728e+00 
124600 5.3156579363e+00 -2.0275249742e-04 2.8851307771e+00 -4.9971930924e+00 2.8851307771e+00 4.9971930924e+00 
124700 5.3156579353e+00 -2.0163976652e-04 2.8851342909e+00 -4.9971991784e+00 2.8851342909e+00 4.9971991784e+00 
124800 5.3156579342e+00 -2.0053315730e-04 2.8851377853e+00 -4.9972052310e+00 2.8851377853e+00 4.9972052310e+00 
124900 5.3156579332e+00 -1.9943263588e-04 2.8851412606e+00 -4.9972112504e+00 2.8851412606e+00 4.9972112504e+00 
125000 5.3156579322e+00 -1.9833816856e-04 2.8851447168e+00 -4.9972172367e+00 2.8851447168e+00 4.9972172367e+00 
125100 5.3156579311e+00 -1.9724972181e-04 2.8851481540e+00 -4.9972231901e+00 2.8851481540e+00 4.9972231901e+00 
125200 5.3156579301e+00 -1.9616726233e-04 2.8851515724e+00 -4.9972291109e+00 2.8851515724e+00 4.9972291109e+00 
125300 5.3156579292e+00 -1.9509075696e-04 2.8851549720e+00 -4.9972349992e+00 2.8851549720e+00 4.9972349992e+00 
125400 5.3156579282e+00 -1.9402017277e-04 2.8851583529e+00 -4.9972408552e+00 2.8851583529e+00 4.9972408552e+00 
125500 5.3156579272e+00 -1.9295547697e-04 2.8851617153e+00 -4.9972466790e+00 2.8851617153e+00 4.9972466790e+00 
125600 5.3156579262e+00 -1.9189663700e-04 2.8851650593e+00 -4.9972524708e+00 2.8851650593e+00 4.9972524708e+00 
125700 5.3156579253e+00 -1.9084362045e-04 2.8851683848e+00 -4.9972582309e+00 2.8851683848e+00 4.9972582309e+00 
125800 5.3156579244e+00 -1.8979639510e-04 2.8851716922e+00 -4.9972639594e+00 2.8851716922e+00 4.9972639594e+00 
125900 5.3156579234e+00 -1.8875492891e-04 2.8851749813e+00 -4.9972696564e+00 2.8851749813e+00 4.9972696564e+00 
126000 5.3156579225e+00 -1.8771919003e-04 2.8851782524e+00 -4.9972753221e+00 2.8851782524e+00 4.9972753221e+00 
126100 5.3156579216e+00 -1.8668914677e-04 2.8851815056e+00 -4.9972809568e+00 2.8851815056e+00 4.9972809568e+00 
126200 5.3156579207e+00 -1.8566476764e-04 2.8851847409e+00 -4.9972865605e+00 2.8851847409e+00 4.9972865605e+00 
126300 5.3156579198e+00 -1.8464602131e-04 2.8851879585e+00 -4.9972921335e+00 2.8851879585e+00 4.9972921335e+00 
126400 5.3156579190e+00 -1.8363287663e-04 2.8851911584e+00 -4.9972976758e+00 2.8851911584e+00 4.9972976758e+00 
126500 5.3156579181e+00 -1.8262530262e-04 2.8851943407e+00 -4.9973031878e+00 2.8851943407e+00 4.9973031878e+00 
126600 5.3156579172e+00 -1.8162326847e-04 2.8851975056e+00 -4.9973086695e+00 2.8851975056e+00 4.9973086695e+00 
126700 5.3156579164e+00 -1.8062674357e-04 2.8852006531e+00 -4.9973141212e+00 2.8852006531e+00 4.9973141212e+00 
126800 5.3156579156e+00 -1.7963569746e-04 2.8852037833e+00 -4.9973195429e+00 2.8852037833e+00 4.9973195429e+00 
126900 5.3156579147e+00 -1.7865009983e-04 2.8852068964e+00 -4.9973249348e+00 2.8852068964e+00 4.9973249348e+00 
127000 5.3156579139e+00 -1.7766992058e-04 2.8852099923e+00 -4.9973302972e+00 2.8852099923e+00 4.9973302972e+00 
127100 5.3156579131e+00 -1.7669512976e-04 2.8852130713e+00 -4.9973356302e+00 2.8852130713e+00 4.9973356302e+00 
127200 5.3156579123e+00 -1.7572569759e-04 2.8852161334e+00 -4.9973409338e+00 2.8852161334e+00 4.9973409338e+00 
127300 5.3156579115e+00 -1.7476159444e-04 2.8852191787e+00 -4.9973462084e+00 2.8852191787e+00 4.9973462084e+00 
127400 5.3156579107e+00 -1.7380279088e-04 2.8852222072e+00 -4.9973514540e+00 2.8852222072e+00 4.9973514540e+00 
127500 5.3156579099e+00 -1.7284925760e-04 2.8852252192e+00 -4.9973566709e+00 2.8852252192e+00 4.9973566709e+00 
127600 5.3156579092e+00 -1.7190096550e-04 2.8852282146e+00 -4.9973618591e+00 2.8852282146e+00 4.9973618591e+00 
127700 5.3156579084e+00 -1.7095788562e-04 2.8852311936e+00 -4.9973670189e+00 2.8852311936e+00 4.9973670189e+00 
127800 5.3156579077e+00 -1.7001998915e-04 2.8852341562e+00 -4.9973721503e+00 2.8852341562e+00 4.9973721503e+00 
127900 5.3156579069e+00 -1.6908724747e-04 2.8852371026e+00 -4.9973772536e+00 2.8852371026e+00 4.9973772536e+00 
128000 5.3156579062e+00 -1.6815963209e-04 2.8852400328e+00 -4.9973823289e+00 2.8852400328e+00 4.9973823289e+00 
128100 5.3156579055e+00 -1.6723711470e-04 2.8852429470e+00 -4.9973873763e+00 2.8852429470e+00 4.9973873763e+00 
128200 5.3156579047e+00 -1.6631966715e-04 2.8852458451e+00 -4.9973923960e+00 2.8852458451e+00 4.9973923960e+00 
128300 5.3156579040e+00 -1.6540726142e-04 2.8852487273e+00 -4.9973973882e+00 2.8852487273e+00 4.9973973882e+00 
128400 5.3156579033e+00 -1.6449986968e-04 2.8852515938e+00 -4.9974023530e+00 2.8852515938e+00 4.9974023530e+00 
128500 5.3156579026e+00 -1.6359746424e-04 2.8852544445e+00 -4.9974072906e+00 2.8852544445e+00 4.9974072906e+00 
128600 5.3156579019e+00 -1.6270001757e-04 2.8852572795e+00 -4.9974122011e+00 2.8852572795e+00 4.9974122011e+00 
128700 5.3156579013e+00 -1.6180750227e-04 2.8852600990e+00 -4.9974170846e+00 2.8852600990e+00 4.9974170846e+00 
128800 5.3156579006e+00 -1.6091989113e-04 2.8852629031e+00 -4.9974219413e+00 2.8852629031e+00 4.9974219413e+00 
128900 5.3156578999e+00 -1.6003715708e-04 2.8852656917e+00 -4.9974267714e+00 2.8852656917e+00 4.9974267714e+00 
129000 5.3156578993e+00 -1.5915927318e-04 2.8852684651e+00 -4.9974315750e+00 2.8852684651e+00 4.9974315750e+00 
129100 5.3156578986e+00 -1.5828621265e-04 2.8852712232e+00 -4.9974363522e+00 2.8852712232e+00 4.9974363522e+00 
129200 5.3156578980e+00 -1.5741794889e-04 2.8852739662e+00 -4.9974411033e+00 2.8852739662e+00 4.9974411033e+00 
129300 5.3156578973e+00 -1.5655445540e-04 2.8852766942e+00 -4.9974458282e+00 2.8852766942e+00 4.9974458282e+00 
129400 5.3156578967e+00 -1.5569570587e-04 2.8852794072e+00 -4.9974505273e+00 2.8852794072e+00 4.9974505273e+00 
129500 5.3156578961e+00 -1.5484167410e-04 2.8852821053e+00 -4.9974552005e+00 2.8852821053e+00 4.9974552005e+00 
129600 5.3156578955e+00 -1.5399233407e-04 2.8852847886e+00 -4.9974598481e+00 2.8852847886e+00 4.9974598481e+00 
129700 5.3156578949e+00 -1.5314765989e-04 2.8852874572e+00 -4.9974644702e+00 2.8852874572e+00 4.9974644702e+00 
129800 5.3156578943e+00 -1.5230762580e-04 2.8852901111e+00 -4.9974690670e+00 2.8852901111e+00 4.9974690670e+00 
129900 5.3156578937e+00 -1.5147220620e-04 2.8852927505e+00 -4.9974736386e+00 2.8852927505e+00 4.9974736386e+00 
130000 5.3156578931e+00 -1.5064137564e-04 2.8852953754e+00 -4.9974781850e+00 2.8852953754e+00 4.9974781850e+00 
130100 5.3156578925e+00 -1.4981510880e-04 2.8852979859e+00 -4.9974827065e+00 2.8852979859e+00 4.9974827065e+00 
130200 5.3156578919e+00 -1.4899338050e-04 2.8853005821e+00 -4.9974872033e+00 2.8853005821e+00 4.9974872033e+00 
130300 5.3156578913e+00 -1.4817616571e-04 2.8853031640e+00 -4.9974916753e+00 2.8853031640e+00 4.9974916753e+00 
130400 5.3156578908e+00 -1.4736343952e-04 2.8853057318e+00 -4.9974961228e+00 2.8853057318e+00 4.9974961228e+00 
130500 5.3156578902e+00 -1.4655517718e-04 2.8853082855e+00 -4.9975005459e+00 2.8853082855e+00 4.9975005459e+00 
130600 5.3156578897e+00 -1.4575135407e-04 2.8853108252e+00 -4.9975049448e+00 2.8853108252e+00 4.9975049448e+00 
130700 5.3156578891e+00 -1.4495194571e-04 2.8853133509e+00 -4.9975093195e+00 2.8853133509e+00 4.9975093195e+00 
130800 5.3156578886e+00 -1.4415692775e-04 2.8853158628e+00 -4.9975136702e+00 2.8853158628e+00 4.9975136702e+00 
130900 5.3156578880e+00 -1.4336627597e-04 2.8853183609e+00 -4.9975179971e+00 2.8853183609e+00 4.9975179971e+00 
131000 5.3156578875e+00 -1.4257996631e-04 2.8853208453e+00 -4.9975223002e+00 2.8853208453e+00 4.9975223002e+00 
131100 5.3156578870e+00 -1.4179797482e-04 2.8853233161e+00 -4.9975265798e+00 2.8853233161e+00 4.9975265798e+00 
131200 5.3156578865e+00 -1.4102027768e-04 2.8853257733e+00 -4.9975308358e+00 2.8853257733e+00 4.9975308358e+00 
131300 5.3156578860e+00 -1.4024685124e-04 2.8853282171e+00 -4.9975350685e+00 2.8853282171e+00 4.9975350685e+00 
131400 5.3156578855e+00 -1.3947767193e-04 2.8853306474e+00 -4.9975392780e+00 2.8853306474e+00 4.9975392780e+00 
131500 5.3156578850e+00 -1.3871271635e-04 2.8853330644e+00 -4.9975434644e+00 2.8853330644e+00 4.9975434644e+00 
131600 5.3156578845e+00 -1.3795196121e-04 2.8853354682e+00 -4.9975476278e+00 2.8853354682e+00 4.9975476278e+00 
131700 5.3156578840e+00 -1.3719538335e-04 2.8853378588e+00 -4.9975517684e+00 2.8853378588e+00 4.9975517684e+00 
131800 5.3156578835e+00 -1.3644295977e-04 2.8853402362e+00 -4.9975558863e+00 2.8853402362e+00 4.9975558863e+00 
131900 5.3156578830e+00 -1.3569466755e-04 2.8853426006e+00 -4.9975599816e+00 2.8853426006e+00 4.9975599816e+00 
132000 5.3156578825e+00 -1.3495048393e-04 2.8853449521e+00 -4.9975640544e+00 2.8853449521e+00 4.9975640544e+00 
132100 5.3156578821e+00 -1.3421038626e-04 2.8853472906e+00 -4.9975681049e+00 2.8853472906e+00 4.9975681049e+00 
132200 5.3156578816e+00 -1.3347435203e-04 2.8853496164e+00 -4.9975721331e+00 2.8853496164e+00 4.9975721331e+00 
132300 5.3156578812e+00 -1.3274235885e-04 2.8853519293e+00 -4.9975761393e+00 2.8853519293e+00 4.9975761393e+00 
132400 5.3156578807e+00 -1.3201438444e-04 2.8853542296e+00 -4.9975801235e+00 2.8853542296e+00 4.9975801235e+00 
132500 5.3156578803e+00 -1.3129040668e-04 2.8853565173e+00 -4.9975840859e+00 2.8853565173e+00 4.9975840859e+00 
132600 5.3156578798e+00 -1.3057040352e-04 2.8853587924e+00 -4.9975880265e+00 2.8853587924e+00 4.9975880265e+00 
132700 5.3156578794e+00 -1.2985435309e-04 2.8853610550e+00 -4.9975919455e+00 2.8853610550e+00 4.9975919455e+00 
132800 5.3156578789e+00 -1.2914223359e-04 2.8853633053e+00 -4.9975958430e+00 2.8853633053e+00 4.9975958430e+00 
132900 5.3156578785e+00 -1.2843402338e-04 2.8853655431e+00 -4.9975997191e+00 2.8853655431e+00 4.9975997191e+00 
133000 5.3156578781e+00 -1.2772970092e-04 2.8853677688e+00 -4.9976035740e+00 2.8853677688e+00 4.9976035740e+00 
133100 5.3156578777e+00 -1.2702924480e-04 2.8853699822e+00 -4.9976074077e+00 2.8853699822e+00 4.9976074077e+00 
133200 5.3156578773e+00 -1.2633263372e-04 2.8853721834e+00 -4.9976112204e+00 2.8853721834e+00 4.9976112204e+00 
133300 5.3156578769e+00 -1.2563984649e-04 2.8853743726e+00 -4.9976150122e+00 2.8853743726e+00 4.9976150122e+00 
133400 5.3156578765e+00 -1.2495086207e-04 2.8853765498e+00 -4.9976187832e+00 2.8853765498e+00 4.9976187832e+00 
133500 5.3156578760e+00 -1.2426565950e-04 2.8853787150e+00 -4.9976225335e+00 2.8853787150e+00 4.9976225335e+00 
133600 5.3156578757e+00 -1.2358421797e-04 2.8853808684e+00 -4.9976262633e+00 2.8853808684e+00 4.9976262633e+00 
133700 5.3156578753e+00 -1.2290651675e-04 2.8853830100e+00 -4.9976299726e+00 2.8853830100e+00 4.9976299726e+00 
133800 5.3156578749e+00 -1.2223253526e-04 2.8853851398e+00 -4.9976336615e+00 2.8853851398e+00 4.9976336615e+00 
133900 5.3156578745e+00 -1.2156225300e-04 2.8853872579e+00 -4.9976373302e+00 2.8853872579e+00 4.9976373302e+00 
134000 5.3156578741e+00 -1.2089564962e-04 2.8853893644e+00 -4.9976409788e+00 2.8853893644e+00 4.9976409788e+00 
134100 5.3156578737e+00 -1.2023270485e-04 2.8853914594e+00 -4.9976446074e+00 2.8853914594e+00 4.9976446074e+00 
134200 5.3156578734e+00 -1.1957339856e-04 2.8853935429e+00 -4.9976482161e+00 2.8853935429e+00 4.9976482161e+00 
134300 5.3156578730e+00 -1.1891771070e-04 2.8853956149e+00 -4.9976518050e+00 2.8853956149e+00 4.9976518050e+00 
134400 5.3156578726e+00 -1.1826562137e-04 2.8853976756e+00 -4.9976553742e+00 2.8853976756e+00 4.9976553742e+00 
134500 5.3156578723e+00 -1.1761711075e-04 2.8853997250e+00 -4.9976589238e+00 2.8853997250e+00 4.9976589238e+00 
134600 5.3156578719e+00 -1.1697215915e-04 2.8854017631e+00 -4.9976624540e+00 2.8854017631e+00 4.9976624540e+00 
134700 5.3156578716e+00 -1.1633074696e-04 2.8854037901e+00 -4.9976659648e+00 2.8854037901e+00 4.9976659648e+00 
134800 5.3156578712e+00 -1.1569285472e-04 2.8854058059e+00 -4.9976694563e+00 2.8854058059e+00 4.9976694563e+00 
134900 5.3156578709e+00 -1.1505846304e-04 2.8854078107e+00 -4.9976729287e+00 2.8854078107e+00 4.9976729287e+00 
135000 5.3156578705e+00 -1.1442755266e-04 2.8854098045e+00 -4.9976763821e+00 2.8854098045e+00 4.9976763821e+00 
135100 5.3156578702e+00 -1.1380010443e-04 2.8854117874e+00 -4.9976798165e+00 2.8854117874e+00 4.9976798165e+00 
135200 5.3156578699e+00 -1.1317609928e-04 2.8854137594e+00 -4.9976832321e+00 2.8854137594e+00 4.9976832321e+00 
135300 5.3156578695e+00 -1.1255551827e-04 2.8854157206e+00 -4.9976866290e+00 2.8854157206e+00 4.9976866290e+00 
135400 5.3156578692e+00 -1.1193834256e-04 2.8854176710e+00 -4.9976900072e+00 2.8854176710e+00 4.9976900072e+00 
135500 5.3156578689e+00 -1.1132455341e-04 2.8854196107e+00 -4.9976933669e+00 2.8854196107e+00 4.9976933669e+00 
135600 5.3156578686e+00 -1.1071413218e-04 2.8854215398e+00 -4.9976967082e+00 2.8854215398e+00 4.9976967082e+00 
135700 5.3156578683e+00 -1.1010706035e-04 2.8854234583e+00 -4.9977000311e+00 2.8854234583e+00 4.9977000311e+00 
135800 5.3156578680e+00 -1.0950331949e-04 2.8854253663e+00 -4.9977033359e+00 2.8854253663e+00 4.9977033359e+00 
135900 5.3156578676e+00 -1.0890289126e-04 2.8854272638e+00 -4.9977066225e+00 2.8854272638e+00 4.9977066225e+00 
136000 5.3156578673e+00 -1.0830575745e-04 2.8854291509e+00 -4.9977098911e+00 2.8854291509e+00 4.9977098911e+00 
136100 5.3156578670e+00 -1.0771189994e-04 2.8854310277e+00 -4.9977131417e+00 2.8854310277e+00 4.9977131417e+00 
136200 5.3156578667e+00 -1.0712130069e-04 2.8854328942e+00 -4.9977163746e+00 2.8854328942e+00 4.9977163746e+00 
136300 5.3156578665e+00 -1.0653394178e-04 2.8854347504e+00 -4.9977195897e+00 2.8854347504e+00 4.9977195897e+00 
136400 5.3156578662e+00 -1.0594980540e-04 2.8854365965e+00 -4.9977227871e+00 2.8854365965e+00 4.9977227871e+00 
136500 5.3156578659e+00 -1.0536887381e-04 2.8854384324e+00 -4.9977259671e+00 2.8854384324e+00 4.9977259671e+00 
136600 5.3156578656e+00 -1.0479112940e-04 2.8854402583e+00 -4.9977291296e+00 2.8854402583e+00 4.9977291296e+00 
136700 5.3156578653e+00 -1.0421655462e-04 2.8854420742e+00 -4.9977322748e+00 2.8854420742e+00 4.9977322748e+00 
136800 5.3156578650e+00 -1.0364513204e-04 2.8854438801e+00 -4.9977354027e+00 2.8854438801e+00 4.9977354027e+00 
136900 5.3156578648e+00 -1.0307684434e-04 2.8854456761e+00 -4.9977385134e+00 2.8854456761e+00 4.9977385134e+00 
137000 5.3156578645e+00 -1.0251167427e-04 2.8854474622e+00 -4.9977416071e+00 2.8854474622e+00 4.9977416071e+00 
137100 5.3156578642e+00 -1.0194960468e-04 2.8854492386e+00 -4.9977446839e+00 2.8854492386e+00 4.9977446839e+00 
137200 5.3156578639e+00 -1.0139061852e-04 2.8854510052e+00 -4.9977477437e+00 2.8854510052e+00 4.9977477437e+00 
137300 5.3156578637e+00 -1.0083469885e-04 2.8854527621e+00 -4.9977507868e+00 2.8854527621e+00 4.9977507868e+00 
137400 5.3156578634e+00 -1.0028182880e-04 2.8854545094e+00 -4.9977538132e+00 2.8854545094e+00 4.9977538132e+00 
137500 5.3156578632e+00 -9.9731991594e-05 2.8854562471e+00 -4.9977568230e+00 2.8854562471e+00 4.9977568230e+00 
137600 5.3156578629e+00 -9.9185170566e-05 2.8854579753e+00 -4.9977598164e+00 2.8854579753e+00 4.9977598164e+00 
137700 5.3156578627e+00 -9.8641349127e-05 2.8854596940e+00 -4.9977627932e+00 2.8854596940e+00 4.9977627932e+00 
137800 5.3156578624e+00 -9.8100510790e-05 2.8854614033e+00 -4.9977657538e+00 2.8854614033e+00 4.9977657538e+00 
137900 5.3156578622e+00 -9.7562639151e-05 2.8854631032e+00 -4.9977686981e+00 2.8854631032e+00 4.9977686981e+00 
138000 5.3156578619e+00 -9.7027717903e-05 2.8854647938e+00 -4.9977716263e+00 2.8854647938e+00 4.9977716263e+00 
138100 5.3156578617e+00 -9.6495730828e-05 2.8854664751e+00 -4.9977745385e+00 2.8854664751e+00 4.9977745385e+00 
138200 5.3156578614e+00 -9.5966661791e-05 2.8854681472e+00 -4.9977774346e+00 2.8854681472e+00 4.9977774346e+00 
138300 5.3156578612e+00 -9.5440494756e-05 2.8854698102e+00 -4.9977803149e+00 2.8854698102e+00 4.9977803149e+00 
138400 5.3156578610e+00 -9.4917213770e-05 2.8854714640e+00 -4.9977831794e+00 2.8854714640e+00 4.9977831794e+00 
138500 5.3156578607e+00 -9.4396802970e-05 2.8854731087e+00 -4.9977860282e+00 2.8854731087e+00 4.9977860282e+00 
138600 5.3156578605e+00 -9.3879246578e-05 2.8854747444e+00 -4.9977888613e+00 2.8854747444e+00 4.9977888613e+00 
138700 5.3156578603e+00 -9.3364528909e-05 2.8854763712e+00 -4.9977916789e+00 2.8854763712e+00 4.9977916789e+00 
138800 5.3156578601e+00 -9.2852634359e-05 2.8854779890e+00 -4.9977944811e+00 2.8854779890e+00 4.9977944811e+00 
138900 5.3156578598e+00 -9.2343547411e-05 2.8854795980e+00 -4.9977972679e+00 2.8854795980e+00 4.9977972679e+00 
139000 5.3156578596e+00 -9.1837252638e-05 2.8854811981e+00 -4.9978000395e+00 2.8854811981e+00 4.9978000395e+00 
139100 5.3156578594e+00 -9.1333734694e-05 2.8854827895e+00 -4.9978027958e+00 2.8854827895e+00 4.9978027958e+00 
139200 5.3156578592e+00 -9.0832978320e-05 2.8854843721e+00 -4.9978055370e+00 2.8854843721e+00 4.9978055370e+00 
139300 5.3156578590e+00 -9.0334968339e-05 2.8854859461e+00 -4.9978082632e+00 2.8854859461e+00 4.9978082632e+00 
139400 5.3156578588e+00 -8.9839689660e-05 2.8854875114e+00 -4.9978109744e+00 2.8854875114e+00 4.9978109744e+00 
139500 5.3156578586e+00 -8.9347127275e-05 2.8854890682e+00 -4.9978136708e+00 2.8854890682e+00 4.9978136708e+00 
139600 5.3156578584e+00 -8.8857266260e-05 2.8854906164e+00 -4.9978163524e+00 2.8854906164e+00 4.9978163524e+00 
139700 5.3156578582e+00 -8.8370091770e-05 2.8854921561e+00 -4.9978190193e+00 2.8854921561e+00 4.9978190193e+00 
139800 5.3156578580e+00 -8.7885589045e-05 2.8854936874e+00 -4.9978216715e+00 2.8854936874e+00 4.9978216715e+00 
139900 5.3156578578e+00 -8.7403743405e-05 2.8854952103e+00 -4.9978243092e+00 2.8854952103e+00 4.9978243092e+00 
140000 5.3156578576e+00 -8.6924540254e-05 2.8854967248e+00 -4.9978269325e+00 2.8854967248e+00 4.9978269325e+00 
140100 5.3156578574e+00 -8.6447965071e-05 2.8854982311e+00 -4.9978295414e+00 2.8854982311e+00 4.9978295414e+00 
140200 5.3156578572e+00 -8.5974003421e-05 2.8854997290e+00 -4.9978321359e+00 2.8854997290e+00 4.9978321359e+00 
140300 5.3156578570e+00 -8.5502640946e-05 2.8855012188e+00 -4.9978347163e+00 2.8855012188e+00 4.9978347163e+00 
140400 5.3156578568e+00 -8.5033863366e-05 2.8855027004e+00 -4.9978372825e+00 2.8855027004e+00 4.9978372825e+00 
140500 5.3156578566e+00 -8.4567656483e-05 2.8855041739e+00 -4.9978398346e+00 2.8855041739e+00 4.9978398346e+00 
140600 5.3156578564e+00 -8.4104006176e-05 2.8855056393e+00 -4.9978423727e+00 2.8855056393e+00 4.9978423727e+00 
140700 5.3156578562e+00 -8.3642898401e-05 2.8855070966e+00 -4.9978448969e+00 2.8855070966e+00 4.9978448969e+00 
140800 5.3156578561e+00 -8.3184319193e-05 2.8855085460e+00 -4.9978474073e+00 2.8855085460e+00 4.9978474073e+00 
140900 5.3156578559e+00 -8.2728254661e-05 2.8855099874e+00 -4.9978499039e+00 2.8855099874e+00 4.9978499039e+00 
141000 5.3156578557e+00 -8.2274690997e-05 2.8855114209e+00 -4.9978523868e+00 2.8855114209e+00 4.9978523868e+00 
141100 5.3156578555e+00 -8.1823614461e-05 2.8855128465e+00 -4.9978548561e+00 2.8855128465e+00 4.9978548561e+00 
141200 5.3156578554e+00 -8.1375011397e-05 2.8855142644e+00 -4.9978573119e+00 2.8855142644e+00 4.9978573119e+00 
141300 5.3156578552e+00 -8.0928868219e-05 2.8855156744e+00 -4.9978597542e+00 2.8855156744e+00 4.9978597542e+00 
141400 5.3156578550e+00 -8.0485171414e-05 2.8855170768e+00 -4.9978621831e+00 2.8855170768e+00 4.9978621831e+00 
141500 5.3156578549e+00 -8.0043907553e-05 2.8855184714e+00 -4.9978645987e+00 2.8855184714e+00 4.9978645987e+00 
141600 5.3156578547e+00 -7.9605063271e-05 2.8855198584e+00 -4.9978670010e+00 2.8855198584e+00 4.9978670010e+00 
141700 5.3156578545e+00 -7.9168625282e-05 2.8855212378e+00 -4.9978693902e+00 2.8855212378e+00 4.9978693902e+00 
141800 5.3156578544e+00 -7.8734580373e-05 2.8855226096e+00 -4.9978717663e+00 2.8855226096e+00 4.9978717663e+00 
141900 5.3156578542e+00 -7.8302915402e-05 2.8855239739e+00 -4.9978741293e+00 2.8855239739e+00 4.9978741293e+00 
142000 5.3156578541e+00 -7.7873617299e-05 2.8855253307e+00 -4.9978764794e+00 2.8855253307e+00 4.9978764794e+00 
142100 5.3156578539e+00 -7.7446673070e-05 2.8855266801e+00 -4.9978788166e+00 2.8855266801e+00 4.9978788166e+00 
142200 5.3156578538e+00 -7.7022069791e-05 2.8855280221e+00 -4.9978811410e+00 2.8855280221e+00 4.9978811410e+00 
142300 5.3156578536e+00 -7.6599794606e-05 2.8855293567e+00 -4.9978834526e+00 2.8855293567e+00 4.9978834526e+00 
142400 5.3156578535e+00 -7.6179834733e-05 2.8855306841e+00 -4.9978857516e+00 2.8855306841e+00 4.9978857516e+00 
142500 5.3156578533e+00 -7.5762177461e-05 2.8855320041e+00 -4.9978880379e+00 2.8855320041e+00 4.9978880379e+00 
142600 5.3156578532e+00 -7.5346810147e-05 2.8855333169e+00 -4.9978903118e+00 2.8855333169e+00 4.9978903118e+00 
142700 5.3156578530e+00 -7.4933720219e-05 2.8855346225e+00 -4.9978925731e+00 2.8855346225e+00 4.9978925731e+00 
142800 5.3156578529e+00 -7.4522895173e-05 2.8855359209e+00 -4.9978948221e+00 2.8855359209e+00 4.9978948221e+00 
142900 5.3156578527e+00 -7.4114322577e-05 2.8855372122e+00 -4.9978970587e+00 2.8855372122e+00 4.9978970587e+00 
143000 5.3156578526e+00 -7.3707990065e-05 2.8855384965e+00 -4.9978992831e+00 2.8855384965e+00 4.9978992831e+00 
143100 5.3156578524e+00 -7.3303885340e-05 2.8855397737e+00 -4.9979014952e+00 2.8855397737e+00 4.9979014952e+00 
143200 5.3156578523e+00 -7.2901996170e-05 2.8855410439e+00 -4.9979036953e+00 2.8855410439e+00 4.9979036953e+00 
143300 5.3156578522e+00 -7.2502310396e-05 2.8855423071e+00 -4.9979058833e+00 2.8855423071e+00 4.9979058833e+00 
143400 5.3156578520e+00 -7.2104815921e-05 2.8855435634e+00 -4.9979080592e+00 2.8855435634e+00 4.9979080592e+00 
143500 5.3156578519e+00 -7.1709500718e-05 2.8855448128e+00 -4.9979102233e+00 2.8855448128e+00 4.9979102233e+00 
143600 5.3156578518e+00 -7.1316352823e-05 2.8855460554e+00 -4.9979123755e+00 2.8855460554e+00 4.9979123755e+00 
143700 5.3156578516e+00 -7.0925360342e-05 2.8855472911e+00 -4.9979145159e+00 2.8855472911e+00 4.9979145159e+00 
143800 5.3156578515e+00 -7.0536511442e-05 2.8855485201e+00 -4.9979166445e+00 2.8855485201e+00 4.9979166445e+00 
143900 5.3156578514e+00 -7.0766824771e-05 2.8855485201e+00 -4.9979166445e+00 2.8855485201e+00 4.9979166445e+00 
144000 5.3156578513e+00 -7.0380346384e-05 2.8855497463e+00 -4.9979187684e+00 2.8855497463e+00 4.9979187684e+00 
144100 5.3156578513e+00 -7.0611373860e-05 2.8855497463e+00 -4.9979187684e+00 2.8855497463e+00 4.9979187684e+00 
144200 5.3156578512e+00 -7.0844420026e-05 2.8855497463e+00 -4.9979187684e+00 2.8855497463e+00 4.9979187684e+00 
144300 5.3156578511e+00 -7.0459528062e-05 2.8855509739e+00 -4.9979208946e+00 2.8855509739e+00 4.9979208946e+00 
144400 5.3156578510e+00 -7.0692417574e-05 2.8855509739e+00 -4.9979208946e+00 2.8855509739e+00 4.9979208946e+00 
144500 5.3156578509e+00 -7.0926978482e-05 2.8855509739e+00 -4.9979208946e+00 2.8855509739e+00 4.9979208946e+00 
144600 5.3156578508e+00 -7.0542572574e-05 2.8855522029e+00 -4.9979230233e+00 2.8855522029e+00 4.9979230233e+00 
144700 5.3156578508e+00 -7.0776393440e-05 2.8855522029e+00 -4.9979230233e+00 2.8855522029e+00 4.9979230233e+00 
144800 5.3156578506e+00 -7.0392509300e-05 2.8855534293e+00 -4.9979251475e+00 2.8855534293e+00 4.9979251475e+00 
144900 5.3156578506e+00 -7.0625482162e-05 2.8855534293e+00 -4.9979251475e+00 2.8855534293e+00 4.9979251475e+00 
145000 5.3156578505e+00 -7.0859817107e-05 2.8855534293e+00 -4.9979251475e+00 2.8855534293e+00 4.9979251475e+00 
145100 5.3156578504e+00 -7.0475483713e-05 2.8855546571e+00 -4.9979272742e+00 2.8855546571e+00 4.9979272742e+00 
145200 5.3156578504e+00 -7.0708521632e-05 2.8855546571e+00 -4.9979272742e+00 2.8855546571e+00 4.9979272742e+00 
145300 5.3156578503e+00 -7.0942727236e-05 2.8855546571e+00 -4.9979272742e+00 2.8855546571e+00 4.9979272742e+00 
145400 5.3156578502e+00 -7.0557358053e-05 2.8855558864e+00 -4.9979294033e+00 2.8855558864e+00 4.9979294033e+00 
145500 5.3156578501e+00 -7.0789911433e-05 2.8855558864e+00 -4.9979294033e+00 2.8855558864e+00 4.9979294033e+00 
145600 5.3156578500e+00 -7.0404222947e-05 2.8855571130e+00 -4.9979315279e+00 2.8855571130e+00 4.9979315279e+00 
145700 5.3156578500e+00 -7.0635110724e-05 2.8855571130e+00 -4.9979315279e+00 2.8855571130e+00 4.9979315279e+00 
145800 5.3156578499e+00 -7.0866978338e-05 2.8855571130e+00 -4.9979315279e+00 2.8855571130e+00 4.9979315279e+00 
145900 5.3156578498e+00 -7.0479746609e-05 2.8855583410e+00 -4.9979336548e+00 2.8855583410e+00 4.9979336548e+00 
146000 5.3156578498e+00 -7.0709592501e-05 2.8855583410e+00 -4.9979336548e+00 2.8855583410e+00 4.9979336548e+00 
146100 5.3156578497e+00 -7.0940260192e-05 2.8855583410e+00 -4.9979336548e+00 2.8855583410e+00 4.9979336548e+00 
146200 5.3156578496e+00 -7.0551037918e-05 2.8855595702e+00 -4.9979357839e+00 2.8855595702e+00 4.9979357839e+00 
146300 5.3156578496e+00 -7.0779388191e-05 2.8855595702e+00 -4.9979357839e+00 2.8855595702e+00 4.9979357839e+00 
146400 5.3156578495e+00 -7.0389267371e-05 2.8855607967e+00 -4.9979379081e+00 2.8855607967e+00 4.9979379081e+00 
146500 5.3156578494e+00 -7.0615316676e-05 2.8855607967e+00 -4.9979379081e+00 2.8855607967e+00 4.9979379081e+00 
146600 5.3156578494e+00 -7.0842037437e-05 2.8855607967e+00 -4.9979379081e+00 2.8855607967e+00 4.9979379081e+00 
146700 5.3156578493e+00 -7.0449574937e-05 2.8855620242e+00 -4.9979400343e+00 2.8855620242e+00 4.9979400343e+00 
146800 5.3156578492e+00 -7.0673676551e-05 2.8855620242e+00 -4.9979400343e+00 2.8855620242e+00 4.9979400343e+00 
146900 5.3156578492e+00 -7.0898309120e-05 2.8855620242e+00 -4.9979400343e+00 2.8855620242e+00 4.9979400343e+00 
147000 5.3156578491e+00 -7.0503133952e-05 2.8855632527e+00 -4.9979421621e+00 2.8855632527e+00 4.9979421621e+00 
147100 5.3156578490e+00 -7.0724886865e-05 2.8855632527e+00 -4.9979421621e+00 2.8855632527e+00 4.9979421621e+00 
147200 5.3156578489e+00 -7.0328372157e-05 2.8855644782e+00 -4.9979442847e+00 2.8855644782e+00 4.9979442847e+00 
147300 5.3156578489e+00 -7.0547285443e-05 2.8855644782e+00 -4.9979442847e+00 2.8855644782e+00 4.9979442847e+00 
147400 5.3156578489e+00 -7.0766608218e-05 2.8855644782e+00 -4.9979442847e+00 2.8855644782e+00 4.9979442847e+00 
147500 5.3156578488e+00 -7.0367152338e-05 2.8855657044e+00 -4.9979464086e+00 2.8855657044e+00 4.9979464086e+00 
147600 5.3156578487e+00 -7.0583354667e-05 2.8855657044e+00 -4.9979464086e+00 2.8855657044e+00 4.9979464086e+00 
147700 5.3156578487e+00 -7.0799844706e-05 2.8855657044e+00 -4.9979464086e+00 2.8855657044e+00 4.9979464086e+00 
147800 5.3156578486e+00 -7.0397152391e-05 2.8855669312e+00 -4.9979485335e+00 2.8855669312e+00 4.9979485335e+00 
147900 5.3156578485e+00 -7.0610301438e-05 2.8855669312e+00 -4.9979485335e+00 2.8855669312e+00 4.9979485335e+00 
148000 5.3156578485e+00 -7.0823638781e-05 2.8855669312e+00 -4.9979485335e+00 2.8855669312e+00 4.9979485335e+00 
148100 5.3156578484e+00 -7.0417491964e-05 2.8855681584e+00 -4.9979506591e+00 2.8855681584e+00 4.9979506591e+00 
148200 5.3156578484e+00 -7.0627304497e-05 2.8855681584e+00 -4.9979506591e+00 2.8855681584e+00 4.9979506591e+00 
148300 5.3156578483e+00 -7.0837221199e-05 2.8855681584e+00 -4.9979506591e+00 2.8855681584e+00 4.9979506591e+00 
148400 5.3156578483e+00 -7.0427455300e-05 2.8855693858e+00 -4.9979527850e+00 2.8855693858e+00 4.9979527850e+00 
148500 5.3156578482e+00 -7.0633690905e-05 2.8855693858e+00 -4.9979527850e+00 2.8855693858e+00 4.9979527850e+00 
148600 5.3156578482e+00 -7.0839958739e-05 2.8855693858e+00 -4.9979527850e+00 2.8855693858e+00 4.9979527850e+00 
148700 5.3156578481e+00 -7.0426451988e-05 2.8855706133e+00 -4.9979549111e+00 2.8855706133e+00 4.9979549111e+00 
148800 5.3156578481e+00 -7.0628905578e-05 2.8855706133e+00 -4.9979549111e+00 2.8855706133e+00 4.9979549111e+00 
148900 5.3156578480e+00 -7.0831330030e-05 2.8855706133e+00 -4.9979549111e+00 2.8855706133e+00 4.9979549111e+00 
149000 5.3156578479e+00 -7.0413997573e-05 2.8855718407e+00 -4.9979570369e+00 2.8855718407e+00 4.9979570369e+00 
149100 5.3156578479e+00 -7.0612495304e-05 2.8855718407e+00 -4.9979570369e+00 2.8855718407e+00 4.9979570369e+00 
149200 5.3156578479e+00 -7.0810912112e-05 2.8855718407e+00 -4.9979570369e+00 2.8855718407e+00 4.9979570369e+00 
149300 5.3156578478e+00 -7.0389702185e-05 2.8855730676e+00 -4.9979591621e+00 2.8855730676e+00 4.9979591621e+00 
149400 5.3156578478e+00 -7.0584098866e-05 2.8855730676e+00 -4.9979591621e+00 2.8855730676e+00 4.9979591621e+00 
149500 5.3156578477e+00 -7.0778371738e-05 2.8855730676e+00 -4.9979591621e+00 2.8855730676e+00 4.9979591621e+00 
149600 5.3156578476e+00 -7.0353262838e-05 2.8855742941e+00 -4.9979612863e+00 2.8855742941e+00 4.9979612863e+00 
149700 5.3156578476e+00 -7.0543440061e-05 2.8855742941e+00 -4.9979612863e+00 2.8855742941e+00 4.9979612863e+00 
149800 5.3156578476e+00 -7.0684075764e-05 2.8855742941e+00 -4.9979612863e+00 2.8855742941e+00 4.9979612863e+00 
149800 5.3156578476e+00 -7.0684075765e-05 2.8855742941e+00 -4.9979612863e+00 2.8855742941e+00 4.9979612863e+00 
