# step Hamiltonian StressXX CellTensor1 CellTensor2 CellTensor3 CellTensor4 
0 6.6963447093e+00 -3.2555742461e-01 1.7438352029e+00 -3.0204111715e+00 1.7438352029e+00 3.0204111715e+00 
100 6.6749744256e+00 -3.2886107601e-01 1.7438352029e+00 -3.0204111715e+00 1.7438352029e+00 3.0204111715e+00 
200 6.6520869308e+00 -3.2352327041e-01 1.7532729024e+00 -3.0367577464e+00 1.7532729024e+00 3.0367577464e+00 
300 6.6313505922e+00 -3.1822249338e-01 1.7625072187e+00 -3.0527520514e+00 1.7625072187e+00 3.0527520514e+00 
400 6.6127506133e+00 -3.1297467188e-01 1.7715424374e+00 -3.0684015093e+00 1.7715424374e+00 3.0684015093e+00 
500 6.5962498084e+00 -3.0779989565e-01 1.7803831366e+00 -3.0837140495e+00 1.7803831366e+00 3.0837140495e+00 
600 6.5817902803e+00 -3.0272130211e-01 1.7890343016e+00 -3.0986983069e+00 1.7890343016e+00 3.0986983069e+00 
700 6.5692953379e+00 -2.9776408451e-01 1.7975014053e+00 -3.1133637606e+00 1.7975014053e+00 3.1133637606e+00 
800 6.5586715929e+00 -2.9295461791e-01 1.8057904590e+00 -3.1277208227e+00 1.8057904590e+00 3.1277208227e+00 
900 6.5498111825e+00 -2.8831969430e-01 1.8139080387e+00 -3.1417808832e+00 1.8139080387e+00 3.1417808832e+00 
1000 6.5425940666e+00 -2.8388585677e-01 1.8218612896e+00 -3.1555563180e+00 1.8218612896e+00 3.1555563180e+00 
1100 6.5368903544e+00 -2.7967882216e-01 1.8296579132e+00 -3.1690604661e+00 1.8296579132e+00 3.1690604661e+00 
1200 6.5325626204e+00 -2.7572298314e-01 1.8373061387e+00 -3.1823075812e+00 1.8373061387e+00 3.1823075812e+00 
1300 6.5294681716e+00 -2.7204098169e-01 1.8448146830e+00 -3.1953127615e+00 1.8448146830e+00 3.1953127615e+00 
1400 6.5274612346e+00 -2.6865334793e-01 1.8521926997e+00 -3.2080918613e+00 1.8521926997e+00 3.2080918613e+00 
1500 6.5263950314e+00 -2.6557819954e-01 1.8594497195e+00 -3.2206613884e+00 1.8594497195e+00 3.2206613884e+00 
1600 6.5261237221e+00 -2.6283099854e-01 1.8665955848e+00 -3.2330383901e+00 1.8665955848e+00 3.2330383901e+00 
1700 6.5265041908e+00 -2.6042436288e-01 1.8736403781e+00 -3.2452403300e+00 1.8736403781e+00 3.2452403300e+00 
1800 6.5273976599e+00 -2.5836793098e-01 1.8805943476e+00 -3.2572849585e+00 1.8805943476e+00 3.2572849585e+00 
1900 6.5286711197e+00 -2.5666827748e-01 1.8874678302e+00 -3.2691901796e+00 1.8874678302e+00 3.2691901796e+00 
2000 6.5301985649e+00 -2.5532887844e-01 1.8942711733e+00 -3.2809739155e+00 1.8942711733e+00 3.2809739155e+00 
2100 6.5318620350e+00 -2.5435012389e-01 1.9010146572e+00 -3.2926539723e+00 1.9010146572e+00 3.2926539723e+00 
2200 6.5335524563e+00 -2.5372937499e-01 1.9077084189e+00 -3.3042479076e+00 1.9077084189e+00 3.3042479076e+00 
2300 6.5351702910e+00 -2.5346106283e-01 1.9143623780e+00 -3.3157729028e+00 1.9143623780e+00 3.3157729028e+00 
2400 6.5366259984e+00 -2.5353682496e-01 1.9209861668e+00 -3.3272456415e+00 1.9209861668e+00 3.3272456415e+00 
2500 6.5378403189e+00 -2.5394567538e-01 1.9275890641e+00 -3.3386821952e+00 1.9275890641e+00 3.3386821952e+00 
2600 6.5387443922e+00 -2.5467420316e-01 1.9341799351e+00 -3.3500979186e+00 1.9341799351e+00 3.3500979186e+00 
2700 6.5392797232e+00 -2.5570679460e-01 1.9407671761e+00 -3.3615073547e+00 1.9407671761e+00 3.3615073547e+00 
2800 6.5393980123e+00 -2.5702587345e-01 1.9473586666e+00 -3.3729241512e+00 1.9473586666e+00 3.3729241512e+00 
2900 6.5390608650e+00 -2.5861215393e-01 1.9539617275e+00 -3.3843609880e+00 1.9539617275e+00 3.3843609880e+00 
3000 6.5382393985e+00 -2.6044490091e-01 1.9605830864e+00 -3.3958295181e+00 1.9605830864e+00 3.3958295181e+00 
3100 6.5369137615e+00 -2.6250219255e-01 1.9672288506e+00 -3.4073403194e+00 1.9672288506e+00 3.4073403194e+00 
3200 6.5350725846e+00 -2.6476118021e-01 1.9739044865e+00 -3.4189028599e+00 1.9739044865e+00 3.4189028599e+00 
3300 6.5327123765e+00 -2.6719834163e-01 1.9806148061e+00 -3.4305254743e+00 1.9806148061e+00 3.4305254743e+00 
3400 6.5298368813e+00 -2.6978972361e-01 1.9873639602e+00 -3.4422153522e+00 1.9873639602e+00 3.4422153522e+00 
3500 6.5264564103e+00 -2.7251117083e-01 1.9941554382e+00 -3.4539785372e+00 1.9941554382e+00 3.4539785372e+00 
3600 6.5225871609e+00 -2.7533853852e-01 2.0009920733e+00 -3.4658199365e+00 2.0009920733e+00 3.4658199365e+00 
3700 6.5182505345e+00 -2.7824788686e-01 2.0078760532e+00 -3.4777433394e+00 2.0078760532e+00 3.4777433394e+00 
3800 6.5134724620e+00 -2.8121565594e-01 2.0148089355e+00 -3.4897514438e+00 2.0148089355e+00 3.4897514438e+00 
3900 6.5082827450e+00 -2.8421882033e-01 2.0217916680e+00 -3.5018458913e+00 2.0217916680e+00 3.5018458913e+00 
4000 6.5027144209e+00 -2.8723502317e-01 2.0288246116e+00 -3.5140273069e+00 2.0288246116e+00 3.5140273069e+00 
4100 6.4968031561e+00 -2.9024268980e-01 2.0359075668e+00 -3.5262953451e+00 2.0359075668e+00 3.5262953451e+00 
4200 6.4905866720e+00 -2.9322112155e-01 2.0430398027e+00 -3.5386487402e+00 2.0430398027e+00 3.5386487402e+00 
4300 6.4841042066e+00 -2.9615057066e-01 2.0502200881e+00 -3.5510853593e+00 2.0502200881e+00 3.5510853593e+00 
4400 6.4773960146e+00 -2.9901229719e-01 2.0574467229e+00 -3.5636022579e+00 2.0574467229e+00 3.5636022579e+00 
4500 6.4705029065e+00 -3.0178860954e-01 2.0647175719e+00 -3.5761957378e+00 2.0647175719e+00 3.5761957378e+00 
4600 6.4634658268e+00 -3.0446288966e-01 2.0720300978e+00 -3.5888614042e+00 2.0720300978e+00 3.5888614042e+00 
4700 6.4563254724e+00 -3.0701960484e-01 2.0793813950e+00 -3.6015942245e+00 2.0793813950e+00 3.6015942245e+00 
4800 6.4491219490e+00 -3.0944430727e-01 2.0867682225e+00 -3.6143885849e+00 2.0867682225e+00 3.6143885849e+00 
4900 6.4418944653e+00 -3.1172362311e-01 2.0941870364e+00 -3.6272383476e+00 2.0941870364e+00 3.6272383476e+00 
5000 6.4346810628e+00 -3.1384523250e-01 2.1016340219e+00 -3.6401369049e+00 2.1016340219e+00 3.6401369049e+00 
5100 6.4275183799e+00 -3.1579784203e-01 2.1091051232e+00 -3.6530772319e+00 2.1091051232e+00 3.6530772319e+00 
5200 6.4204414477e+00 -3.1757115085e-01 2.1165960729e+00 -3.6660519374e+00 2.1165960729e+00 3.6660519374e+00 
5300 6.4134835164e+00 -3.1915581194e-01 2.1241024198e+00 -3.6790533115e+00 2.1241024198e+00 3.6790533115e+00 
5400 6.4066759092e+00 -3.2054338950e-01 2.1316195546e+00 -3.6920733709e+00 2.1316195546e+00 3.6920733709e+00 
5500 6.4000479012e+00 -3.2172631371e-01 2.1391427349e+00 -3.7051039015e+00 2.1391427349e+00 3.7051039015e+00 
5600 6.3936266235e+00 -3.2269783365e-01 2.1466671079e+00 -3.7181364977e+00 2.1466671079e+00 3.7181364977e+00 
5700 6.3874369867e+00 -3.2345196946e-01 2.1541877311e+00 -3.7311625993e+00 2.1541877311e+00 3.7311625993e+00 
5800 6.3815016251e+00 -3.2398346432e-01 2.1616995925e+00 -3.7441735248e+00 2.1616995925e+00 3.7441735248e+00 
5900 6.3758408583e+00 -3.2428773706e-01 2.1691976279e+00 -3.7571605032e+00 2.1691976279e+00 3.7571605032e+00 
6000 6.3704726676e+00 -3.2436083590e-01 2.1766767376e+00 -3.7701147012e+00 2.1766767376e+00 3.7701147012e+00 
6100 6.3654126877e+00 -3.2419939389e-01 2.1841318009e+00 -3.7830272495e+00 2.1841318009e+00 3.7830272495e+00 
6200 6.3606742099e+00 -3.2380058651e-01 2.1915576892e+00 -3.7958892654e+00 2.1915576892e+00 3.7958892654e+00 
6300 6.3562681968e+00 -3.2316209171e-01 2.1989492786e+00 -3.8086918737e+00 2.1989492786e+00 3.8086918737e+00 
6400 6.3522033064e+00 -3.2228205281e-01 2.2063014598e+00 -3.8214262252e+00 2.2063014598e+00 3.8214262252e+00 
6500 6.3484859261e+00 -3.2115904445e-01 2.2136091484e+00 -3.8340835131e+00 2.2136091484e+00 3.8340835131e+00 
6600 6.3451202128e+00 -3.1979204190e-01 2.2208672924e+00 -3.8466549874e+00 2.2208672924e+00 3.8466549874e+00 
6700 6.3421081408e+00 -3.1818039378e-01 2.2280708807e+00 -3.8591319682e+00 2.2280708807e+00 3.8591319682e+00 
6800 6.3394495561e+00 -3.1632379850e-01 2.2352149486e+00 -3.8715058568e+00 2.2352149486e+00 3.8715058568e+00 
6900 6.3371422353e+00 -3.1422228442e-01 2.2422945847e+00 -3.8837681462e+00 2.2422945847e+00 3.8837681462e+00 
7000 6.3351819505e+00 -3.1187619388e-01 2.2493049352e+00 -3.8959104295e+00 2.2493049352e+00 3.8959104295e+00 
7100 6.3335625382e+00 -3.0928617122e-01 2.2562412093e+00 -3.9079244086e+00 2.2562412093e+00 3.9079244086e+00 
7200 6.3322759732e+00 -3.0645315473e-01 2.2630986829e+00 -3.9198019012e+00 2.2630986829e+00 3.9198019012e+00 
7300 6.3313124462e+00 -3.0337837271e-01 2.2698727026e+00 -3.9315348477e+00 2.2698727026e+00 3.9315348477e+00 
7400 6.3306604464e+00 -3.0006334355e-01 2.2765586899e+00 -3.9431153173e+00 2.2765586899e+00 3.9431153173e+00 
7500 6.3303068476e+00 -2.9650987984e-01 2.2831521438e+00 -3.9545355145e+00 2.2831521438e+00 3.9545355145e+00 
7600 6.3302369990e+00 -2.9272009662e-01 2.2896486454e+00 -3.9657877853e+00 2.2896486454e+00 3.9657877853e+00 
7700 6.3304348207e+00 -2.8869642347e-01 2.2960438607e+00 -3.9768646231e+00 2.2960438607e+00 3.9768646231e+00 
7800 6.3308829039e+00 -2.8444162059e-01 2.3023335448e+00 -3.9877586755e+00 2.3023335448e+00 3.9877586755e+00 
7900 6.3315626157e+00 -2.7995879858e-01 2.3085135458e+00 -3.9984627513e+00 2.3085135458e+00 3.9984627513e+00 
8000 6.3324542102e+00 -2.7525144186e-01 2.3145798095e+00 -4.0089698282e+00 2.3145798095e+00 4.0089698282e+00 
8100 6.3335369447e+00 -2.7032343541e-01 2.3205283836e+00 -4.0192730608e+00 2.3205283836e+00 4.0192730608e+00 
8200 6.3347892022e+00 -2.6517909457e-01 2.3263554237e+00 -4.0293657903e+00 2.3263554237e+00 4.0293657903e+00 
8300 6.3361886201e+00 -2.5982319758e-01 2.3320571988e+00 -4.0392415545e+00 2.3320571988e+00 4.0392415545e+00 
8400 6.3377122264e+00 -2.5426102037e-01 2.3376300980e+00 -4.0488940990e+00 2.3376300980e+00 4.0488940990e+00 
8500 6.3393365818e+00 -2.4849837301e-01 2.3430706375e+00 -4.0583173899e+00 2.3430706375e+00 4.0583173899e+00 
8600 6.3410379299e+00 -2.4254163733e-01 2.3483754690e+00 -4.0675056275e+00 2.3483754690e+00 4.0675056275e+00 
8700 6.3427923541e+00 -2.3639780484e-01 2.3535413876e+00 -4.0764532611e+00 2.3535413876e+00 4.0764532611e+00 
8800 6.3445759413e+00 -2.3007451416e-01 2.3585653422e+00 -4.0851550056e+00 2.3585653422e+00 4.0851550056e+00 
8900 6.3463649530e+00 -2.2358008712e-01 2.3634444448e+00 -4.0936058593e+00 2.3634444448e+00 4.0936058593e+00 
9000 6.3481360018e+00 -2.1692356237e-01 2.3681759822e+00 -4.1018011224e+00 2.3681759822e+00 4.1018011224e+00 
9100 6.3498662339e+00 -2.1011472551e-01 2.3727574269e+00 -4.1097364174e+00 2.3727574269e+00 4.1097364174e+00 
9200 6.3515335160e+00 -2.0316413456e-01 2.3771864500e+00 -4.1174077105e+00 2.3771864500e+00 4.1174077105e+00 
9300 6.3531166242e+00 -1.9608313961e-01 2.3814609337e+00 -4.1248113334e+00 2.3814609337e+00 4.1248113334e+00 
9400 6.3545954352e+00 -1.8888389553e-01 2.3855789844e+00 -4.1319440065e+00 2.3855789844e+00 4.1319440065e+00 
9500 6.3559511164e+00 -1.8157936653e-01 2.3895389466e+00 -4.1388028621e+00 2.3895389466e+00 4.1388028621e+00 
9600 6.3571663122e+00 -1.7418332164e-01 2.3933394163e+00 -4.1453854689e+00 2.3933394163e+00 4.1453854689e+00 
9700 6.3582253253e+00 -1.6671032014e-01 2.3969792551e+00 -4.1516898546e+00 2.3969792551e+00 4.1516898546e+00 
9800 6.3591142885e+00 -1.5917568616e-01 2.4004576034e+00 -4.1577145305e+00 2.4004576034e+00 4.1577145305e+00 
9900 6.3598213246e+00 -1.5159547202e-01 2.4037738935e+00 -4.1634585135e+00 2.4037738935e+00 4.1634585135e+00 
10000 6.3603366915e+00 -1.4398640975e-01 2.4069278627e+00 -4.1689213483e+00 2.4069278627e+00 4.1689213483e+00 
10100 6.3606529076e+00 -1.3636585091e-01 2.4099195642e+00 -4.1741031273e+00 2.4099195642e+00 4.1741031273e+00 
10200 6.3607648559e+00 -1.2875169466e-01 2.4127493786e+00 -4.1790045096e+00 2.4127493786e+00 4.1790045096e+00 
10300 6.3606698624e+00 -1.2116230451e-01 2.4154180229e+00 -4.1836267372e+00 2.4154180229e+00 4.1836267372e+00 
10400 6.3603677466e+00 -1.1361641438e-01 2.4179265587e+00 -4.1879716486e+00 2.4179265587e+00 4.1879716486e+00 
10500 6.3598608413e+00 -1.0613302469e-01 2.4202763984e+00 -4.1920416904e+00 2.4202763984e+00 4.1920416904e+00 
10600 6.3591539789e+00 -9.8731289621e-02 2.4224693098e+00 -4.1958399244e+00 2.4224693098e+00 4.1958399244e+00 
10700 6.3582544440e+00 -9.1430396667e-02 2.4245074186e+00 -4.1993700324e+00 2.4245074186e+00 4.1993700324e+00 
10800 6.3571718908e+00 -8.4249439932e-02 2.4263932086e+00 -4.2026363165e+00 2.4263932086e+00 4.2026363165e+00 
10900 6.3559182244e+00 -7.7207288771e-02 2.4281295200e+00 -4.2056436959e+00 2.4281295200e+00 4.2056436959e+00 
11000 6.3545074476e+00 -7.0322453527e-02 2.4297195445e+00 -4.2083976992e+00 2.4297195445e+00 4.2083976992e+00 
11100 6.3529554744e+00 -6.3612950299e-02 2.4311668191e+00 -4.2109044524e+00 2.4311668191e+00 4.2109044524e+00 
11200 6.3512799112e+00 -5.7096166823e-02 2.4324752166e+00 -4.2131706634e+00 2.4324752166e+00 4.2131706634e+00 
11300 6.3494998100e+00 -5.0788731631e-02 2.4336489337e+00 -4.2152036010e+00 2.4336489337e+00 4.2152036010e+00 
11400 6.3476353960e+00 -4.4706388743e-02 2.4346924770e+00 -4.2170110710e+00 2.4346924770e+00 4.2170110710e+00 
11500 6.3457077748e+00 -3.8863880095e-02 2.4356106463e+00 -4.2186013869e+00 2.4356106463e+00 4.2186013869e+00 
11600 6.3437386233e+00 -3.3274837842e-02 2.4364085161e+00 -4.2199833378e+00 2.4364085161e+00 4.2199833378e+00 
11700 6.3417498706e+00 -2.7951688503e-02 2.4370914145e+00 -4.2211661526e+00 2.4370914145e+00 4.2211661526e+00 
11800 6.3397633732e+00 -2.2905570602e-02 2.4376649011e+00 -4.2221594605e+00 2.4376649011e+00 4.2221594605e+00 
11900 6.3378005929e+00 -1.8146267182e-02 2.4381347423e+00 -4.2229732493e+00 2.4381347423e+00 4.2229732493e+00 
12000 6.3358822818e+00 -1.3682154099e-02 2.4385068859e+00 -4.2236178210e+00 2.4385068859e+00 4.2236178210e+00 
12100 6.3340281816e+00 -9.5201646083e-03 2.4387874350e+00 -4.2241037463e+00 2.4387874350e+00 4.2241037463e+00 
12200 6.3322567425e+00 -5.6657702560e-03 2.4389826199e+00 -4.2244418165e+00 2.4389826199e+00 4.2244418165e+00 
12300 6.3305848681e+00 -2.1229776849e-03 2.4390987711e+00 -4.2246429963e+00 2.4390987711e+00 4.2246429963e+00 
12400 6.3290276905e+00 1.1056594692e-03 2.4391422910e+00 -4.2247183749e+00 2.4391422910e+00 4.2247183749e+00 
12500 6.3275983805e+00 4.0190147392e-03 2.4391196261e+00 -4.2246791181e+00 2.4391196261e+00 4.2246791181e+00 
12600 6.3263079960e+00 6.6173504702e-03 2.4390372400e+00 -4.2245364212e+00 2.4390372400e+00 4.2245364212e+00 
12700 6.3251653706e+00 8.9022685517e-03 2.4389015863e+00 -4.2243014621e+00 2.4389015863e+00 4.2243014621e+00 
12800 6.3241770442e+00 1.0876651951e-02 2.4387190828e+00 -4.2239853569e+00 2.4387190828e+00 4.2239853569e+00 
12900 6.3233472364e+00 1.2544598781e-02 2.4384960870e+00 -4.2235991167e+00 2.4384960870e+00 4.2235991167e+00 
13000 6.3226778606e+00 1.3911350600e-02 2.4382388715e+00 -4.2231536064e+00 2.4382388715e+00 4.2231536064e+00 
13100 6.3221685785e+00 1.4983216529e-02 2.4379536025e+00 -4.2226595060e+00 2.4379536025e+00 4.2226595060e+00 
13200 6.3218168917e+00 1.5767494636e-02 2.4376463181e+00 -4.2221272738e+00 2.4376463181e+00 4.2221272738e+00 
13300 6.3216182668e+00 1.6272391867e-02 2.4373229089e+00 -4.2215671126e+00 2.4373229089e+00 4.2215671126e+00 
13400 6.3215662911e+00 1.6506943601e-02 2.4369890996e+00 -4.2209889380e+00 2.4369890996e+00 4.2209889380e+00 
13500 6.3216528529e+00 1.6480933739e-02 2.4366504325e+00 -4.2204023493e+00 2.4366504325e+00 4.2204023493e+00 
13600 6.3218683433e+00 1.6204816016e-02 2.4363122520e+00 -4.2198166036e+00 2.4363122520e+00 4.2198166036e+00 
13700 6.3222018726e+00 1.5689637097e-02 2.4359796910e+00 -4.2192405911e+00 2.4359796910e+00 4.2192405911e+00 
13800 6.3226414978e+00 1.4946961823e-02 2.4356576586e+00 -4.2186828145e+00 2.4356576586e+00 4.2186828145e+00 
13900 6.3231744556e+00 1.3988800882e-02 2.4353508287e+00 -4.2181513696e+00 2.4353508287e+00 4.2181513696e+00 
14000 6.3237873956e+00 1.2827541044e-02 2.4350636314e+00 -4.2176539292e+00 2.4350636314e+00 4.2176539292e+00 
14100 6.3244666104e+00 1.1475878047e-02 2.4348002438e+00 -4.2171977286e+00 2.4348002438e+00 4.2171977286e+00 
14200 6.3251982573e+00 9.9467521445e-03 2.4345645840e+00 -4.2167895538e+00 2.4345645840e+00 4.2167895538e+00 
14300 6.3259685695e+00 8.2532863009e-03 2.4343603049e+00 -4.2164357320e+00 2.4343603049e+00 4.2164357320e+00 
14400 6.3267640519e+00 6.4087270019e-03 2.4341907903e+00 -4.2161421241e+00 2.4341907903e+00 4.2161421241e+00 
14500 6.3275716604e+00 4.4263876400e-03 2.4340591517e+00 -4.2159141194e+00 2.4340591517e+00 4.2159141194e+00 
14600 6.3283789622e+00 2.3195944462e-03 2.4339682262e+00 -4.2157566319e+00 2.4339682262e+00 4.2157566319e+00 
14700 6.3291742761e+00 1.0163495045e-04 2.4339205759e+00 -4.2156740991e+00 2.4339205759e+00 4.2156740991e+00 
14800 6.3299467905e+00 -2.2142910259e-03 2.4339184880e+00 -4.2156704828e+00 2.4339184880e+00 4.2156704828e+00 
14900 6.3306866612e+00 -4.6151178269e-03 2.4339639764e+00 -4.2157492709e+00 2.4339639764e+00 4.2157492709e+00 
15000 6.3313850863e+00 -7.0879578288e-03 2.4340587836e+00 -4.2159134818e+00 2.4340587836e+00 4.2159134818e+00 
15100 6.3320343608e+00 -9.6201426662e-03 2.4342043846e+00 -4.2161656702e+00 2.4342043846e+00 4.2161656702e+00 
15200 6.3326279106e+00 -1.2199261756e-02 2.4344019907e+00 -4.2165079340e+00 2.4344019907e+00 4.2165079340e+00 
15300 6.3331603077e+00 -1.4813198051e-02 2.4346525547e+00 -4.2169419236e+00 2.4346525547e+00 4.2169419236e+00 
15400 6.3336272671e+00 -1.7450160970e-02 2.4349567769e+00 -4.2174688519e+00 2.4349567769e+00 4.2174688519e+00 
15500 6.3340256281e+00 -2.0098716429e-02 2.4353151116e+00 -4.2180895057e+00 2.4353151116e+00 4.2180895057e+00 
15600 6.3343533206e+00 -2.2747813947e-02 2.4357277745e+00 -4.2188042589e+00 2.4357277745e+00 4.2188042589e+00 
15700 6.3346093191e+00 -2.5386810792e-02 2.4361947508e+00 -4.2196130854e+00 2.4361947508e+00 4.2196130854e+00 
15800 6.3347935857e+00 -2.8005493154e-02 2.4367158034e+00 -4.2205155751e+00 2.4367158034e+00 4.2205155751e+00 
15900 6.3349070038e+00 -3.0594094362e-02 2.4372904825e+00 -4.2215109486e+00 2.4372904825e+00 4.2215109486e+00 
16000 6.3349513046e+00 -3.3143310189e-02 2.4379181346e+00 -4.2225980738e+00 2.4379181346e+00 4.2225980738e+00 
16100 6.3349289886e+00 -3.5644311293e-02 2.4385979123e+00 -4.2237754834e+00 2.4385979123e+00 4.2237754834e+00 
16200 6.3348432421e+00 -3.8088752894e-02 2.4393287850e+00 -4.2250413920e+00 2.4393287850e+00 4.2250413920e+00 
16300 6.3346978522e+00 -4.0468781777e-02 2.4401095486e+00 -4.2263937143e+00 2.4401095486e+00 4.2263937143e+00 
16400 6.3344971202e+00 -4.2777040764e-02 2.4409388367e+00 -4.2278300833e+00 2.4409388367e+00 4.2278300833e+00 
16500 6.3342457751e+00 -4.5006670794e-02 2.4418151306e+00 -4.2293478689e+00 2.4418151306e+00 4.2293478689e+00 
16600 6.3339488891e+00 -4.7151310764e-02 2.4427367709e+00 -4.2309441966e+00 2.4427367709e+00 4.2309441966e+00 
16700 6.3336117945e+00 -4.9205095315e-02 2.4437019672e+00 -4.2326159658e+00 2.4437019672e+00 4.2326159658e+00 
16800 6.3332400042e+00 -5.1162650729e-02 2.4447088100e+00 -4.2343598686e+00 2.4447088100e+00 4.2343598686e+00 
16900 6.3328391361e+00 -5.3019089139e-02 2.4457552802e+00 -4.2361724082e+00 2.4457552802e+00 4.2361724082e+00 
17000 6.3324148415e+00 -5.4770001226e-02 2.4468392604e+00 -4.2380499169e+00 2.4468392604e+00 4.2380499169e+00 
17100 6.3319727386e+00 -5.6411447587e-02 2.4479585447e+00 -4.2399885742e+00 2.4479585447e+00 4.2399885742e+00 
17200 6.3315183513e+00 -5.7939948982e-02 2.4491108491e+00 -4.2419844240e+00 2.4491108491e+00 4.2419844240e+00 
17300 6.3310570529e+00 -5.9352475599e-02 2.4502938215e+00 -4.2440333923e+00 2.4502938215e+00 4.2440333923e+00 
17400 6.3305940164e+00 -6.0646435548e-02 2.4515050510e+00 -4.2461313033e+00 2.4515050510e+00 4.2461313033e+00 
17500 6.3301341692e+00 -6.1819662712e-02 2.4527420775e+00 -4.2482738960e+00 2.4527420775e+00 4.2482738960e+00 
17600 6.3296821545e+00 -6.2870404125e-02 2.4540024006e+00 -4.2504568398e+00 2.4540024006e+00 4.2504568398e+00 
17700 6.3292422978e+00 -6.3797307001e-02 2.4552834889e+00 -4.2526757497e+00 2.4552834889e+00 4.2526757497e+00 
17800 6.3288185790e+00 -6.4599405551e-02 2.4565827875e+00 -4.2549262010e+00 2.4565827875e+00 4.2549262010e+00 
17900 6.3284146098e+00 -6.5276107689e-02 2.4578977272e+00 -4.2572037433e+00 2.4578977272e+00 4.2572037433e+00 
18000 6.3280336166e+00 -6.5827181735e-02 2.4592257317e+00 -4.2595039145e+00 2.4592257317e+00 4.2595039145e+00 
18100 6.3276784275e+00 -6.6252743187e-02 2.4605642251e+00 -4.2618222531e+00 2.4605642251e+00 4.2618222531e+00 
18200 6.3273514649e+00 -6.6553241643e-02 2.4619106395e+00 -4.2641543113e+00 2.4619106395e+00 4.2641543113e+00 
18300 6.3270547422e+00 -6.6729447933e-02 2.4632624214e+00 -4.2664956663e+00 2.4632624214e+00 4.2664956663e+00 
18400 6.3267898641e+00 -6.6782441490e-02 2.4646170388e+00 -4.2688419324e+00 2.4646170388e+00 4.2688419324e+00 
18500 6.3265580314e+00 -6.6713598011e-02 2.4659719867e+00 -4.2711887711e+00 2.4659719867e+00 4.2711887711e+00 
18600 6.3263600495e+00 -6.6524577422e-02 2.4673247940e+00 -4.2735319019e+00 2.4673247940e+00 4.2735319019e+00 
18700 6.3261963393e+00 -6.6217312154e-02 2.4686730281e+00 -4.2758671120e+00 2.4686730281e+00 4.2758671120e+00 
18800 6.3260669517e+00 -6.5793995737e-02 2.4700143014e+00 -4.2781902655e+00 2.4700143014e+00 4.2781902655e+00 
18900 6.3259715848e+00 -6.5257071701e-02 2.4713462756e+00 -4.2804973125e+00 2.4713462756e+00 4.2804973125e+00 
19000 6.3259096034e+00 -6.4609222768e-02 2.4726666668e+00 -4.2827842972e+00 2.4726666668e+00 4.2827842972e+00 
19100 6.3258800601e+00 -6.3853360308e-02 2.4739732503e+00 -4.2850473662e+00 2.4739732503e+00 4.2850473662e+00 
19200 6.3258817193e+00 -6.2992614036e-02 2.4752638647e+00 -4.2872827758e+00 2.4752638647e+00 4.2872827758e+00 
19300 6.3259130813e+00 -6.2030321902e-02 2.4765364161e+00 -4.2894868994e+00 2.4765364161e+00 4.2894868994e+00 
19400 6.3259724092e+00 -6.0970020150e-02 2.4777888820e+00 -4.2916562340e+00 2.4777888820e+00 4.2916562340e+00 
19500 6.3260577555e+00 -5.9815433487e-02 2.4790193149e+00 -4.2937874064e+00 2.4790193149e+00 4.2937874064e+00 
19600 6.3261669904e+00 -5.8570465321e-02 2.4802258461e+00 -4.2958771798e+00 2.4802258461e+00 4.2958771798e+00 
19700 6.3262978301e+00 -5.7239188022e-02 2.4814066884e+00 -4.2979224586e+00 2.4814066884e+00 4.2979224586e+00 
19800 6.3264478655e+00 -5.5825833156e-02 2.4825601394e+00 -4.2999202943e+00 2.4825601394e+00 4.2999202943e+00 
19900 6.3266145908e+00 -5.4334781637e-02 2.4836845844e+00 -4.3018678901e+00 2.4836845844e+00 4.3018678901e+00 
20000 6.3267954324e+00 -5.2770553757e-02 2.4847784988e+00 -4.3037626055e+00 2.4847784988e+00 4.3037626055e+00 
20100 6.3269877766e+00 -5.1137799045e-02 2.4858404508e+00 -4.3056019603e+00 2.4858404508e+00 4.3056019603e+00 
20200 6.3271889974e+00 -4.9441285912e-02 2.4868691034e+00 -4.3073836389e+00 2.4868691034e+00 4.3073836389e+00 
20300 6.3273964831e+00 -4.7685891039e-02 2.4878632164e+00 -4.3091054931e+00 2.4878632164e+00 4.3091054931e+00 
20400 6.3276076619e+00 -4.5876588485e-02 2.4888216484e+00 -4.3107655459e+00 2.4888216484e+00 4.3107655459e+00 
20500 6.3278200263e+00 -4.4018438467e-02 2.4897433580e+00 -4.3123619939e+00 2.4897433580e+00 4.3123619939e+00 
20600 6.3280311564e+00 -4.2116575815e-02 2.4906274058e+00 -4.3138932096e+00 2.4906274058e+00 4.3138932096e+00 
20700 6.3282387411e+00 -4.0176198053e-02 2.4914729550e+00 -4.3153577437e+00 2.4914729550e+00 4.3153577437e+00 
20800 6.3284405983e+00 -3.8202553128e-02 2.4922792724e+00 -4.3167543265e+00 2.4922792724e+00 4.3167543265e+00 
20900 6.3286346925e+00 -3.6200926764e-02 2.4930457297e+00 -4.3180818694e+00 2.4930457297e+00 4.3180818694e+00 
21000 6.3288191512e+00 -3.4176629458e-02 2.4937718031e+00 -4.3193394654e+00 2.4937718031e+00 4.3193394654e+00 
21100 6.3289922784e+00 -3.2134983126e-02 2.4944570742e+00 -4.3205263898e+00 2.4944570742e+00 4.3205263898e+00 
21200 6.3291525672e+00 -3.0081307427e-02 2.4951012297e+00 -4.3216420998e+00 2.4951012297e+00 4.3216420998e+00 
21300 6.3292987086e+00 -2.8020905795e-02 2.4957040613e+00 -4.3226862348e+00 2.4957040613e+00 4.3226862348e+00 
21400 6.3294295993e+00 -2.5959051219e-02 2.4962654651e+00 -4.3236586148e+00 2.4962654651e+00 4.3236586148e+00 
21500 6.3295443465e+00 -2.3900971811e-02 2.4967854409e+00 -4.3245592393e+00 2.4967854409e+00 4.3245592393e+00 
21600 6.3296422708e+00 -2.1851836228e-02 2.4972640911e+00 -4.3253882857e+00 2.4972640911e+00 4.3253882857e+00 
21700 6.3297229066e+00 -1.9816739002e-02 2.4977016194e+00 -4.3261461069e+00 2.4977016194e+00 4.3261461069e+00 
21800 6.3297859998e+00 -1.7800685852e-02 2.4980983294e+00 -4.3268332288e+00 2.4980983294e+00 4.3268332288e+00 
21900 6.3298315042e+00 -1.5808579041e-02 2.4984546226e+00 -4.3274503467e+00 2.4984546226e+00 4.3274503467e+00 
22000 6.3298595752e+00 -1.3845202868e-02 2.4987709964e+00 -4.3279983222e+00 2.4987709964e+00 4.3279983222e+00 
22100 6.3298705612e+00 -1.1915209367e-02 2.4990480418e+00 -4.3284781789e+00 2.4990480418e+00 4.3284781789e+00 
22200 6.3298649937e+00 -1.0023104310e-02 2.4992864405e+00 -4.3288910976e+00 2.4992864405e+00 4.3288910976e+00 
22300 6.3298435753e+00 -8.1732335794e-03 2.4994869625e+00 -4.3292384119e+00 2.4994869625e+00 4.3292384119e+00 
22400 6.3298071659e+00 -6.3697700190e-03 2.4996504625e+00 -4.3295216023e+00 2.4996504625e+00 4.3295216023e+00 
22500 6.3297567680e+00 -4.6167008311e-03 2.4997778768e+00 -4.3297422903e+00 2.4997778768e+00 4.3297422903e+00 
22600 6.3296935104e+00 -2.9178156140e-03 2.4998702196e+00 -4.3299022327e+00 2.4998702196e+00 4.3299022327e+00 
22700 6.3296186309e+00 -1.2766951139e-03 2.4999285792e+00 -4.3300033144e+00 2.4999285792e+00 4.3300033144e+00 
22800 6.3295334580e+00 3.0329922886e-04 2.4999541139e+00 -4.3300475418e+00 2.4999541139e+00 4.3300475418e+00 
22900 6.3294393927e+00 1.8190348709e-03 2.4999480478e+00 -4.3300370350e+00 2.4999480478e+00 4.3300370350e+00 
23000 6.3293378894e+00 3.2676168279e-03 2.4999116664e+00 -4.3299740206e+00 2.4999116664e+00 4.3299740206e+00 
23100 6.3292304367e+00 4.6463953518e-03 2.4998463120e+00 -4.3298608236e+00 2.4998463120e+00 4.3298608236e+00 
23200 6.3291185384e+00 5.9529725716e-03 2.4997533790e+00 -4.3296998588e+00 2.4997533790e+00 4.3296998588e+00 
23300 6.3290036953e+00 7.1852080587e-03 2.4996343087e+00 -4.3294936231e+00 2.4996343087e+00 4.3294936231e+00 
23400 6.3288873871e+00 8.3412232817e-03 2.4994905849e+00 -4.3292446861e+00 2.4994905849e+00 4.3292446861e+00 
23500 6.3287710548e+00 9.4194049310e-03 2.4993237283e+00 -4.3289556820e+00 2.4993237283e+00 4.3289556820e+00 
23600 6.3286560851e+00 1.0418407096e-02 2.4991352916e+00 -4.3286293001e+00 2.4991352916e+00 4.3286293001e+00 
23700 6.3285437953e+00 1.1337152293e-02 2.4989268543e+00 -4.3282682760e+00 2.4989268543e+00 4.3282682760e+00 
23800 6.3284354193e+00 1.2174831347e-02 2.4987000173e+00 -4.3278753828e+00 2.4987000173e+00 4.3278753828e+00 
23900 6.3283320957e+00 1.2930902147e-02 2.4984563979e+00 -4.3274534217e+00 2.4984563979e+00 4.3274534217e+00 
24000 6.3282348575e+00 1.3605087284e-02 2.4981976246e+00 -4.3270052131e+00 2.4981976246e+00 4.3270052131e+00 
24100 6.3281446225e+00 1.4197370620e-02 2.4979253315e+00 -4.3265335876e+00 2.4979253315e+00 4.3265335876e+00 
24200 6.3280621870e+00 1.4707992815e-02 2.4976411536e+00 -4.3260413771e+00 2.4976411536e+00 4.3260413771e+00 
24300 6.3279882201e+00 1.5137445857e-02 2.4973467217e+00 -4.3255314062e+00 2.4973467217e+00 4.3255314062e+00 
24400 6.3279232601e+00 1.5486466652e-02 2.4970436573e+00 -4.3250064832e+00 2.4970436573e+00 4.3250064832e+00 
24500 6.3278677132e+00 1.5756029722e-02 2.4967335677e+00 -4.3244693922e+00 2.4967335677e+00 4.3244693922e+00 
24600 6.3278218531e+00 1.5947339088e-02 2.4964180415e+00 -4.3239228847e+00 2.4964180415e+00 4.3239228847e+00 
24700 6.3277858233e+00 1.6061819373e-02 2.4960986439e+00 -4.3233696719e+00 2.4960986439e+00 4.3233696719e+00 
24800 6.3277596401e+00 1.6101106231e-02 2.4957769123e+00 -4.3228124165e+00 2.4957769123e+00 4.3228124165e+00 
24900 6.3277431978e+00 1.6067036126e-02 2.4954543522e+00 -4.3222537260e+00 2.4954543522e+00 4.3222537260e+00 
25000 6.3277362748e+00 1.5961635582e-02 2.4951324331e+00 -4.3216961457e+00 2.4951324331e+00 4.3216961457e+00 
25100 6.3277385412e+00 1.5787109920e-02 2.4948125844e+00 -4.3211421516e+00 2.4948125844e+00 4.3211421516e+00 
25200 6.3277495678e+00 1.5545831604e-02 2.4944961924e+00 -4.3205941445e+00 2.4944961924e+00 4.3205941445e+00 
25300 6.3277688350e+00 1.5240328225e-02 2.4941845963e+00 -4.3200544442e+00 2.4941845963e+00 4.3200544442e+00 
25400 6.3277957438e+00 1.4873270218e-02 2.4938790853e+00 -4.3195252836e+00 2.4938790853e+00 4.3195252836e+00 
25500 6.3278296268e+00 1.4447458366e-02 2.4935808957e+00 -4.3190088042e+00 2.4935808957e+00 4.3190088042e+00 
25600 6.3278697590e+00 1.3965811157e-02 2.4932912083e+00 -4.3185070509e+00 2.4932912083e+00 4.3185070509e+00 
25700 6.3279153699e+00 1.3431352066e-02 2.4930111458e+00 -4.3180219683e+00 2.4930111458e+00 4.3180219683e+00 
25800 6.3279656551e+00 1.2847196804e-02 2.4927417705e+00 -4.3175553967e+00 2.4927417705e+00 4.3175553967e+00 
25900 6.3280197881e+00 1.2216540605e-02 2.4924840829e+00 -4.3171090686e+00 2.4924840829e+00 4.3171090686e+00 
26000 6.3280769314e+00 1.1542645606e-02 2.4922390193e+00 -4.3166846061e+00 2.4922390193e+00 4.3166846061e+00 
26100 6.3281362478e+00 1.0828828353e-02 2.4920074511e+00 -4.3162835181e+00 2.4920074511e+00 4.3162835181e+00 
26200 6.3281969105e+00 1.0078447505e-02 2.4917901831e+00 -4.3159071989e+00 2.4917901831e+00 4.3159071989e+00 
26300 6.3282581137e+00 9.2948917542e-03 2.4915879527e+00 -4.3155569257e+00 2.4915879527e+00 4.3155569257e+00 
26400 6.3283190811e+00 8.4815680264e-03 2.4914014296e+00 -4.3152338581e+00 2.4914014296e+00 4.3152338581e+00 
26500 6.3283790743e+00 7.6418899806e-03 2.4912312147e+00 -4.3149390373e+00 2.4912312147e+00 4.3149390373e+00 
26600 6.3284374009e+00 6.7792668523e-03 2.4910778405e+00 -4.3146733854e+00 2.4910778405e+00 4.3146733854e+00 
26700 6.3284934200e+00 5.8970926665e-03 2.4909417708e+00 -4.3144377058e+00 2.4909417708e+00 4.3144377058e+00 
26800 6.3285465488e+00 4.9987358485e-03 2.4908234010e+00 -4.3142326832e+00 2.4908234010e+00 4.3142326832e+00 
26900 6.3285962663e+00 4.0875292569e-03 2.4907230586e+00 -4.3140588852e+00 2.4907230586e+00 4.3140588852e+00 
27000 6.3286421173e+00 3.1667606596e-03 2.4906410040e+00 -4.3139167624e+00 2.4906410040e+00 4.3139167624e+00 
27100 6.3286837148e+00 2.2396636699e-03 2.4905774311e+00 -4.3138066508e+00 2.4905774311e+00 4.3138066508e+00 
27200 6.3287207415e+00 1.3094091587e-03 2.4905324685e+00 -4.3137287733e+00 2.4905324685e+00 4.3137287733e+00 
27300 6.3287529505e+00 3.7909715384e-04 2.4905061808e+00 -4.3136832417e+00 2.4905061808e+00 4.3136832417e+00 
27400 6.3287801647e+00 -5.4825076387e-04 2.4904985700e+00 -4.3136700593e+00 2.4904985700e+00 4.3136700593e+00 
27500 6.3288022764e+00 -1.4696985610e-03 2.4905095768e+00 -4.3136891238e+00 2.4905095768e+00 4.3136891238e+00 
27600 6.3288192442e+00 -2.3824023449e-03 2.4905390829e+00 -4.3137402297e+00 2.4905390829e+00 4.3137402297e+00 
27700 6.3288310913e+00 -3.2836164476e-03 2.4905869121e+00 -4.3138230723e+00 2.4905869121e+00 4.3138230723e+00 
27800 6.3288379017e+00 -4.1706990018e-03 2.4906528329e+00 -4.3139372506e+00 2.4906528329e+00 4.3139372506e+00 
27900 6.3288398163e+00 -5.0411170113e-03 2.4907365604e+00 -4.3140822708e+00 2.4907365604e+00 4.3140822708e+00 
28000 6.3288370287e+00 -5.8924509194e-03 2.4908377584e+00 -4.3142575509e+00 2.4908377584e+00 4.3142575509e+00 
28100 6.3288297800e+00 -6.7223986844e-03 2.4909560418e+00 -4.3144624239e+00 2.4909560418e+00 4.3144624239e+00 
28200 6.3288183541e+00 -7.5287793675e-03 2.4910909792e+00 -4.3146961422e+00 2.4910909792e+00 4.3146961422e+00 
28300 6.3288030718e+00 -8.3095362448e-03 2.4912420948e+00 -4.3149578821e+00 2.4912420948e+00 4.3149578821e+00 
28400 6.3287842856e+00 -9.0627394529e-03 2.4914088716e+00 -4.3152467481e+00 2.4914088716e+00 4.3152467481e+00 
28500 6.3287623738e+00 -9.7865881818e-03 2.4915907536e+00 -4.3155617770e+00 2.4915907536e+00 4.3155617770e+00 
28600 6.3287377348e+00 -1.0479412426e-02 2.4917871486e+00 -4.3159019430e+00 2.4917871486e+00 4.3159019430e+00 
28700 6.3287107816e+00 -1.1139674312e-02 2.4919974306e+00 -4.3162661621e+00 2.4919974306e+00 4.3162661621e+00 
28800 6.3286819359e+00 -1.1765969007e-02 2.4922209429e+00 -4.3166532967e+00 2.4922209429e+00 4.3166532967e+00 
28900 6.3286516231e+00 -1.2357025241e-02 2.4924570005e+00 -4.3170621605e+00 2.4924570005e+00 4.3170621605e+00 
29000 6.3286202668e+00 -1.2911705437e-02 2.4927048930e+00 -4.3174915230e+00 2.4927048930e+00 4.3174915230e+00 
29100 6.3285882842e+00 -1.3429005483e-02 2.4929638874e+00 -4.3179401143e+00 2.4929638874e+00 4.3179401143e+00 
29200 6.3285560813e+00 -1.3908054153e-02 2.4932332304e+00 -4.3184066301e+00 2.4932332304e+00 4.3184066301e+00 
29300 6.3285240488e+00 -1.4348112186e-02 2.4935121516e+00 -4.3188897358e+00 2.4935121516e+00 4.3188897358e+00 
29400 6.3284925581e+00 -1.4748571061e-02 2.4937998660e+00 -4.3193880718e+00 2.4937998660e+00 4.3193880718e+00 
29500 6.3284619581e+00 -1.5108951456e-02 2.4940955766e+00 -4.3199002577e+00 2.4940955766e+00 4.3199002577e+00 
29600 6.3284325721e+00 -1.5428901426e-02 2.4943984772e+00 -4.3204248968e+00 2.4943984772e+00 4.3204248968e+00 
29700 6.3284046949e+00 -1.5708194309e-02 2.4947077545e+00 -4.3209605809e+00 2.4947077545e+00 4.3209605809e+00 
29800 6.3283785913e+00 -1.5946726367e-02 2.4950225915e+00 -4.3215058945e+00 2.4950225915e+00 4.3215058945e+00 
29900 6.3283544937e+00 -1.6144514191e-02 2.4953421691e+00 -4.3220594192e+00 2.4953421691e+00 4.3220594192e+00 
30000 6.3283326017e+00 -1.6301691872e-02 2.4956656691e+00 -4.3226197376e+00 2.4956656691e+00 4.3226197376e+00 
30100 6.3283130803e+00 -1.6418507951e-02 2.4959922763e+00 -4.3231854378e+00 2.4959922763e+00 4.3231854378e+00 
30200 6.3282960602e+00 -1.6495322169e-02 2.4963211809e+00 -4.3237551174e+00 2.4963211809e+00 4.3237551174e+00 
30300 6.3282816379e+00 -1.6532602022e-02 2.4966515808e+00 -4.3243273868e+00 2.4966515808e+00 4.3243273868e+00 
30400 6.3282698754e+00 -1.6530919133e-02 2.4969826836e+00 -4.3249008737e+00 2.4969826836e+00 4.3249008737e+00 
30500 6.3282608019e+00 -1.6490945459e-02 2.4973137089e+00 -4.3254742262e+00 2.4973137089e+00 4.3254742262e+00 
30600 6.3282544142e+00 -1.6413449334e-02 2.4976438898e+00 -4.3260461164e+00 2.4976438898e+00 4.3260461164e+00 
30700 6.3282506784e+00 -1.6299291364e-02 2.4979724757e+00 -4.3266152438e+00 2.4979724757e+00 4.3266152438e+00 
30800 6.3282495316e+00 -1.6149420187e-02 2.4982987332e+00 -4.3271803384e+00 2.4982987332e+00 4.3271803384e+00 
30900 6.3282508840e+00 -1.5964868101e-02 2.4986219485e+00 -4.3277401637e+00 2.4986219485e+00 4.3277401637e+00 
31000 6.3282546209e+00 -1.5746746573e-02 2.4989414288e+00 -4.3282935198e+00 2.4989414288e+00 4.3282935198e+00 
31100 6.3282606049e+00 -1.5496241646e-02 2.4992565037e+00 -4.3288392456e+00 2.4992565037e+00 4.3288392456e+00 
31200 6.3282686790e+00 -1.5214609235e-02 2.4995665272e+00 -4.3293762220e+00 2.4995665272e+00 4.3293762220e+00 
31300 6.3282786687e+00 -1.4903170343e-02 2.4998708783e+00 -4.3299033736e+00 2.4998708783e+00 4.3299033736e+00 
31400 6.3282903849e+00 -1.4563306192e-02 2.5001689630e+00 -4.3304196715e+00 2.5001689630e+00 4.3304196715e+00 
31500 6.3283036267e+00 -1.4196453287e-02 2.5004602151e+00 -4.3309241349e+00 2.5004602151e+00 4.3309241349e+00 
31600 6.3283181841e+00 -1.3804098416e-02 2.5007440973e+00 -4.3314158333e+00 2.5007440973e+00 4.3314158333e+00 
31700 6.3283338410e+00 -1.3387773601e-02 2.5010201022e+00 -4.3318938878e+00 2.5010201022e+00 4.3318938878e+00 
31800 6.3283503776e+00 -1.2949051009e-02 2.5012877532e+00 -4.3323574730e+00 2.5012877532e+00 4.3323574730e+00 
31900 6.3283675732e+00 -1.2489537834e-02 2.5015466054e+00 -4.3328058180e+00 2.5015466054e+00 4.3328058180e+00 
32000 6.3283852091e+00 -1.2010871162e-02 2.5017962459e+00 -4.3332382080e+00 2.5017962459e+00 4.3332382080e+00 
32100 6.3284030703e+00 -1.1514712824e-02 2.5020362947e+00 -4.3336539847e+00 2.5020362947e+00 4.3336539847e+00 
32200 6.3284209485e+00 -1.1002744255e-02 2.5022664050e+00 -4.3340525476e+00 2.5022664050e+00 4.3340525476e+00 
32300 6.3284386439e+00 -1.0476661376e-02 2.5024862638e+00 -4.3344333542e+00 2.5024862638e+00 4.3344333542e+00 
32400 6.3284559671e+00 -9.9381694891e-03 2.5026955918e+00 -4.3347959208e+00 2.5026955918e+00 4.3347959208e+00 
32500 6.3284727409e+00 -9.3889782293e-03 2.5028941437e+00 -4.3351398229e+00 2.5028941437e+00 4.3351398229e+00 
32600 6.3284888019e+00 -8.8307965575e-03 2.5030817085e+00 -4.3354646946e+00 2.5030817085e+00 4.3354646946e+00 
32700 6.3285040020e+00 -8.2653278249e-03 2.5032581090e+00 -4.3357702293e+00 2.5032581090e+00 4.3357702293e+00 
32800 6.3285182090e+00 -7.6942649146e-03 2.5034232023e+00 -4.3360561792e+00 2.5034232023e+00 4.3360561792e+00 
32900 6.3285313077e+00 -7.1192854753e-03 2.5035768787e+00 -4.3363223546e+00 2.5035768787e+00 4.3363223546e+00 
33000 6.3285432008e+00 -6.5420472590e-03 2.5037190623e+00 -4.3365686238e+00 2.5037190623e+00 4.3365686238e+00 
33100 6.3285538090e+00 -5.9641835777e-03 2.5038497101e+00 -4.3367949123e+00 2.5038497101e+00 4.3367949123e+00 
33200 6.3285630712e+00 -5.3872988900e-03 2.5039688113e+00 -4.3370012017e+00 2.5039688113e+00 4.3370012017e+00 
33300 6.3285709444e+00 -4.8129645313e-03 2.5040763872e+00 -4.3371875287e+00 2.5040763872e+00 4.3371875287e+00 
33400 6.3285774038e+00 -4.2427145999e-03 2.5041724904e+00 -4.3373539844e+00 2.5041724904e+00 4.3373539844e+00 
33500 6.3285824420e+00 -3.6780420108e-03 2.5042572038e+00 -4.3375007123e+00 2.5042572038e+00 4.3375007123e+00 
33600 6.3285860684e+00 -3.1203947295e-03 2.5043306400e+00 -4.3376279074e+00 2.5043306400e+00 4.3376279074e+00 
33700 6.3285883086e+00 -2.5711721956e-03 2.5043929402e+00 -4.3377358146e+00 2.5043929402e+00 4.3377358146e+00 
33800 6.3285892033e+00 -2.0317219485e-03 2.5044442736e+00 -4.3378247267e+00 2.5044442736e+00 4.3378247267e+00 
33900 6.3285888069e+00 -1.5033364626e-03 2.5044848361e+00 -4.3378949829e+00 2.5044848361e+00 4.3378949829e+00 
34000 6.3285871871e+00 -9.8725020365e-04 2.5045148490e+00 -4.3379469668e+00 2.5045148490e+00 4.3379469668e+00 
34100 6.3285844225e+00 -4.8463691249e-04 2.5045345585e+00 -4.3379811046e+00 2.5045345585e+00 4.3379811046e+00 
34200 6.3285806022e+00 3.3928758747e-06 2.5045442337e+00 -4.3379978625e+00 2.5045442337e+00 4.3379978625e+00 
34300 6.3285758236e+00 4.7581985997e-04 2.5045442337e+00 -4.3379978625e+00 2.5045442337e+00 4.3379978625e+00 
34400 6.3285701912e+00 9.3161509231e-04 2.5045347345e+00 -4.3379814095e+00 2.5045347345e+00 4.3379814095e+00 
34500 6.3285638151e+00 1.3698956280e-03 2.5045161360e+00 -4.3379491959e+00 2.5045161360e+00 4.3379491959e+00 
34600 6.3285568092e+00 1.7898236567e-03 2.5044887875e+00 -4.3379018270e+00 2.5044887875e+00 4.3379018270e+00 
34700 6.3285492900e+00 2.1906332623e-03 2.5044530553e+00 -4.3378399369e+00 2.5044530553e+00 4.3378399369e+00 
34800 6.3285413751e+00 2.5716313957e-03 2.5044093207e+00 -4.3377641863e+00 2.5044093207e+00 4.3377641863e+00 
34900 6.3285331812e+00 2.9321985900e-03 2.5043579788e+00 -4.3376752596e+00 2.5043579788e+00 4.3376752596e+00 
35000 6.3285248235e+00 3.2717894194e-03 2.5042994371e+00 -4.3375738624e+00 2.5042994371e+00 4.3375738624e+00 
35100 6.3285164141e+00 3.5899327048e-03 2.5042341139e+00 -4.3374607193e+00 2.5042341139e+00 4.3374607193e+00 
35200 6.3285080603e+00 3.8862314686e-03 2.5041624370e+00 -4.3373365713e+00 2.5041624370e+00 4.3373365713e+00 
35300 6.3284998644e+00 4.1603626442e-03 2.5040848420e+00 -4.3372021727e+00 2.5040848420e+00 4.3372021727e+00 
35400 6.3284919221e+00 4.4120765451e-03 2.5040017709e+00 -4.3370582894e+00 2.5040017709e+00 4.3370582894e+00 
35500 6.3284843216e+00 4.6411960997e-03 2.5039136709e+00 -4.3369056958e+00 2.5039136709e+00 4.3369056958e+00 
35600 6.3284771432e+00 4.8476158605e-03 2.5038209926e+00 -4.3367451723e+00 2.5038209926e+00 4.3367451723e+00 
35700 6.3284704586e+00 5.0313007946e-03 2.5037241889e+00 -4.3365775033e+00 2.5037241889e+00 4.3365775033e+00 
35800 6.3284643302e+00 5.1922848645e-03 2.5036237132e+00 -4.3364034744e+00 2.5036237132e+00 4.3364034744e+00 
35900 6.3284588108e+00 5.3306694111e-03 2.5035200186e+00 -4.3362238699e+00 2.5035200186e+00 4.3362238699e+00 
36000 6.3284539436e+00 5.4466213454e-03 2.5034135558e+00 -4.3360394710e+00 2.5034135558e+00 4.3360394710e+00 
36100 6.3284497619e+00 5.5403711643e-03 2.5033047727e+00 -4.3358510532e+00 2.5033047727e+00 4.3358510532e+00 
36200 6.3284462893e+00 5.6122107983e-03 2.5031941124e+00 -4.3356593839e+00 2.5031941124e+00 4.3356593839e+00 
36300 6.3284435396e+00 5.6624913051e-03 2.5030820122e+00 -4.3354652207e+00 2.5030820122e+00 4.3354652207e+00 
36400 6.3284415173e+00 5.6916204205e-03 2.5029689027e+00 -4.3352693093e+00 2.5029689027e+00 4.3352693093e+00 
36500 6.3284402178e+00 5.7000599798e-03 2.5028552062e+00 -4.3350723811e+00 2.5028552062e+00 4.3350723811e+00 
36600 6.3284396279e+00 5.6883232213e-03 2.5027413359e+00 -4.3348751520e+00 2.5027413359e+00 4.3348751520e+00 
36700 6.3284397266e+00 5.6569719860e-03 2.5026276949e+00 -4.3346783200e+00 2.5026276949e+00 4.3346783200e+00 
36800 6.3284404852e+00 5.6066138252e-03 2.5025146751e+00 -4.3344825640e+00 2.5025146751e+00 4.3344825640e+00 
36900 6.3284418684e+00 5.5378990302e-03 2.5024026563e+00 -4.3342885418e+00 2.5024026563e+00 4.3342885418e+00 
37000 6.3284438349e+00 5.4515175952e-03 2.5022920055e+00 -4.3340968889e+00 2.5022920055e+00 4.3340968889e+00 
37100 6.3284463381e+00 5.3481961279e-03 2.5021830758e+00 -4.3339082172e+00 2.5021830758e+00 4.3339082172e+00 
37200 6.3284493270e+00 5.2286947189e-03 2.5020762060e+00 -4.3337231132e+00 2.5020762060e+00 4.3337231132e+00 
37300 6.3284527470e+00 5.0938037827e-03 2.5019717196e+00 -4.3335421374e+00 2.5019717196e+00 4.3335421374e+00 
37400 6.3284565408e+00 4.9443408816e-03 2.5018699245e+00 -4.3333658232e+00 2.5018699245e+00 4.3333658232e+00 
37500 6.3284606488e+00 4.7811475455e-03 2.5017711122e+00 -4.3331946753e+00 2.5017711122e+00 4.3331946753e+00 
37600 6.3284650107e+00 4.6050860969e-03 2.5016755576e+00 -4.3330291698e+00 2.5016755576e+00 4.3330291698e+00 
37700 6.3284695655e+00 4.4170364932e-03 2.5015835181e+00 -4.3328697528e+00 2.5015835181e+00 4.3328697528e+00 
37800 6.3284742526e+00 4.2178931959e-03 2.5014952338e+00 -4.3327168399e+00 2.5014952338e+00 4.3327168399e+00 
37900 6.3284790127e+00 4.0085620768e-03 2.5014109269e+00 -4.3325708159e+00 2.5014109269e+00 4.3325708159e+00 
38000 6.3284837880e+00 3.7899573708e-03 2.5013308013e+00 -4.3324320343e+00 2.5013308013e+00 4.3324320343e+00 
38100 6.3284885233e+00 3.5629986836e-03 2.5012550428e+00 -4.3323008169e+00 2.5012550428e+00 4.3323008169e+00 
38200 6.3284931661e+00 3.3286080623e-03 2.5011838190e+00 -4.3321774535e+00 2.5011838190e+00 4.3321774535e+00 
38300 6.3284976677e+00 3.0877071380e-03 2.5011172786e+00 -4.3320622022e+00 2.5011172786e+00 4.3320622022e+00 
38400 6.3285019828e+00 2.8412143456e-03 2.5010555523e+00 -4.3319552891e+00 2.5010555523e+00 4.3319552891e+00 
38500 6.3285060708e+00 2.5900422296e-03 2.5009987522e+00 -4.3318569085e+00 2.5009987522e+00 4.3318569085e+00 
38600 6.3285098953e+00 2.3350948396e-03 2.5009469722e+00 -4.3317672229e+00 2.5009469722e+00 4.3317672229e+00 
38700 6.3285134247e+00 2.0772652231e-03 2.5009002882e+00 -4.3316863638e+00 2.5009002882e+00 4.3316863638e+00 
38800 6.3285166326e+00 1.8174330197e-03 2.5008587579e+00 -4.3316144313e+00 2.5008587579e+00 4.3316144313e+00 
38900 6.3285194974e+00 1.5564621603e-03 2.5008224218e+00 -4.3315514953e+00 2.5008224218e+00 4.3315514953e+00 
39000 6.3285220024e+00 1.2951986768e-03 2.5007913029e+00 -4.3314975957e+00 2.5007913029e+00 4.3314975957e+00 
39100 6.3285241363e+00 1.0344686246e-03 2.5007654072e+00 -4.3314527430e+00 2.5007654072e+00 4.3314527430e+00 
39200 6.3285258923e+00 7.7507612118e-04 2.5007447242e+00 -4.3314169190e+00 2.5007447242e+00 4.3314169190e+00 
39300 6.3285272689e+00 5.1780150235e-04 2.5007292273e+00 -4.3313900776e+00 2.5007292273e+00 4.3313900776e+00 
39400 6.3285282686e+00 2.6339959977e-04 2.5007188743e+00 -4.3313721457e+00 2.5007188743e+00 4.3313721457e+00 
39500 6.3285288988e+00 1.2598139356e-05 2.5007136078e+00 -4.3313630239e+00 2.5007136078e+00 4.3313630239e+00 
39600 6.3285291705e+00 -2.3380719626e-04 2.5007136078e+00 -4.3313630239e+00 2.5007136078e+00 4.3313630239e+00 
39700 6.3285290987e+00 -4.7533933399e-04 2.5007182826e+00 -4.3313711209e+00 2.5007182826e+00 4.3313711209e+00 
39800 6.3285287017e+00 -7.1126456735e-04 2.5007277867e+00 -4.3313875824e+00 2.5007277867e+00 4.3313875824e+00 
39900 6.3285280011e+00 -9.4097714612e-04 2.5007420078e+00 -4.3314122142e+00 2.5007420078e+00 4.3314122142e+00 
40000 6.3285270207e+00 -1.1639045861e-03 2.5007608218e+00 -4.3314448009e+00 2.5007608218e+00 4.3314448009e+00 
40100 6.3285257869e+00 -1.3795085322e-03 2.5007840928e+00 -4.3314851076e+00 2.5007840928e+00 4.3314851076e+00 
40200 6.3285243277e+00 -1.5872855015e-03 2.5008116744e+00 -4.3315328803e+00 2.5008116744e+00 4.3315328803e+00 
40300 6.3285226725e+00 -1.7867675052e-03 2.5008434099e+00 -4.3315878477e+00 2.5008434099e+00 4.3315878477e+00 
40400 6.3285208518e+00 -1.9775225550e-03 2.5008791333e+00 -4.3316497224e+00 2.5008791333e+00 4.3316497224e+00 
40500 6.3285188967e+00 -2.1591550518e-03 2.5009186699e+00 -4.3317182019e+00 2.5009186699e+00 4.3317182019e+00 
40600 6.3285168384e+00 -2.3313060623e-03 2.5009618373e+00 -4.3317929700e+00 2.5009618373e+00 4.3317929700e+00 
40700 6.3285147079e+00 -2.4936534835e-03 2.5010084456e+00 -4.3318736980e+00 2.5010084456e+00 4.3318736980e+00 
40800 6.3285125359e+00 -2.6459120994e-03 2.5010582988e+00 -4.3319600461e+00 2.5010582988e+00 4.3319600461e+00 
40900 6.3285103518e+00 -2.7878335317e-03 2.5011111948e+00 -4.3320516648e+00 2.5011111948e+00 4.3320516648e+00 
41000 6.3285081843e+00 -2.9192060879e-03 2.5011669269e+00 -4.3321481956e+00 2.5011669269e+00 4.3321481956e+00 
41100 6.3285060601e+00 -3.0398545097e-03 2.5012252840e+00 -4.3322492731e+00 2.5012252840e+00 4.3322492731e+00 
41200 6.3285040047e+00 -3.1496396257e-03 2.5012860516e+00 -4.3323545256e+00 2.5012860516e+00 4.3323545256e+00 
41300 6.3285020413e+00 -3.2484579102e-03 2.5013490122e+00 -4.3324635766e+00 2.5013490122e+00 4.3324635766e+00 
41400 6.3285001911e+00 -3.3362409534e-03 2.5014139466e+00 -4.3325760463e+00 2.5014139466e+00 4.3325760463e+00 
41500 6.3284984729e+00 -3.4129548460e-03 2.5014806340e+00 -4.3326915523e+00 2.5014806340e+00 4.3326915523e+00 
41600 6.3284969034e+00 -3.4785994808e-03 2.5015488530e+00 -4.3328097111e+00 2.5015488530e+00 4.3328097111e+00 
41700 6.3284954964e+00 -3.5332077773e-03 2.5016183823e+00 -4.3329301392e+00 2.5016183823e+00 4.3329301392e+00 
41800 6.3284942633e+00 -3.5768448305e-03 2.5016890010e+00 -4.3330524545e+00 2.5016890010e+00 4.3330524545e+00 
41900 6.3284932132e+00 -3.6096069908e-03 2.5017604900e+00 -4.3331762770e+00 2.5017604900e+00 4.3331762770e+00 
42000 6.3284923521e+00 -3.6316208763e-03 2.5018326317e+00 -4.3333012301e+00 2.5018326317e+00 4.3333012301e+00 
42100 6.3284916840e+00 -3.6430423232e-03 2.5019052112e+00 -4.3334269416e+00 2.5019052112e+00 4.3334269416e+00 
42200 6.3284912101e+00 -3.6440552777e-03 2.5019780169e+00 -4.3335530448e+00 2.5019780169e+00 4.3335530448e+00 
42300 6.3284909294e+00 -3.6348706338e-03 2.5020508408e+00 -4.3336791794e+00 2.5020508408e+00 4.3336791794e+00 
42400 6.3284908386e+00 -3.6157250213e-03 2.5021234790e+00 -4.3338049924e+00 2.5021234790e+00 4.3338049924e+00 
42500 6.3284909322e+00 -3.5868795477e-03 2.5021957324e+00 -4.3339301391e+00 2.5021957324e+00 4.3339301391e+00 
42600 6.3284912028e+00 -3.5486184984e-03 2.5022674074e+00 -4.3340542838e+00 2.5022674074e+00 4.3340542838e+00 
42700 6.3284916413e+00 -3.5012479999e-03 2.5023383158e+00 -4.3341771007e+00 2.5023383158e+00 4.3341771007e+00 
42800 6.3284922369e+00 -3.4450946497e-03 2.5024082757e+00 -4.3342982747e+00 2.5024082757e+00 4.3342982747e+00 
42900 6.3284929774e+00 -3.3805041169e-03 2.5024771116e+00 -4.3344175020e+00 2.5024771116e+00 4.3344175020e+00 
43000 6.3284938494e+00 -3.3078397187e-03 2.5025446550e+00 -4.3345344907e+00 2.5025446550e+00 4.3345344907e+00 
43100 6.3284948385e+00 -3.2274809765e-03 2.5026107448e+00 -4.3346489616e+00 2.5026107448e+00 4.3346489616e+00 
43200 6.3284959295e+00 -3.1398221547e-03 2.5026752274e+00 -4.3347606487e+00 2.5026752274e+00 4.3347606487e+00 
43300 6.3284971067e+00 -3.0452707891e-03 2.5027379570e+00 -4.3348692995e+00 2.5027379570e+00 4.3348692995e+00 
43400 6.3284983540e+00 -2.9442462060e-03 2.5027987960e+00 -4.3349746758e+00 2.5027987960e+00 4.3349746758e+00 
43500 6.3284996551e+00 -2.8371780386e-03 2.5028576153e+00 -4.3350765538e+00 2.5028576153e+00 4.3350765538e+00 
43600 6.3285009938e+00 -2.7245047427e-03 2.5029142943e+00 -4.3351747247e+00 2.5029142943e+00 4.3351747247e+00 
43700 6.3285023541e+00 -2.6066721180e-03 2.5029687211e+00 -4.3352689948e+00 2.5029687211e+00 4.3352689948e+00 
43800 6.3285037204e+00 -2.4841318366e-03 2.5030207929e+00 -4.3353591858e+00 2.5030207929e+00 4.3353591858e+00 
43900 6.3285050777e+00 -2.3573399846e-03 2.5030704158e+00 -4.3354451350e+00 2.5030704158e+00 4.3354451350e+00 
44000 6.3285064116e+00 -2.2267556194e-03 2.5031175049e+00 -4.3355266958e+00 2.5031175049e+00 4.3355266958e+00 
44100 6.3285077088e+00 -2.0928393472e-03 2.5031619847e+00 -4.3356037370e+00 2.5031619847e+00 4.3356037370e+00 
44200 6.3285089568e+00 -1.9560519235e-03 2.5032037887e+00 -4.3356761437e+00 2.5032037887e+00 4.3356761437e+00 
44300 6.3285101443e+00 -1.8168528812e-03 2.5032428598e+00 -4.3357438168e+00 2.5032428598e+00 4.3357438168e+00 
44400 6.3285112610e+00 -1.6756991889e-03 2.5032791498e+00 -4.3358066730e+00 2.5032791498e+00 4.3358066730e+00 
44500 6.3285122981e+00 -1.5330439436e-03 2.5033126200e+00 -4.3358646451e+00 2.5033126200e+00 4.3358646451e+00 
44600 6.3285132479e+00 -1.3893350995e-03 2.5033432404e+00 -4.3359176811e+00 2.5033432404e+00 4.3359176811e+00 
44700 6.3285141041e+00 -1.2450142382e-03 2.5033709900e+00 -4.3359657449e+00 2.5033709900e+00 4.3359657449e+00 
44800 6.3285148617e+00 -1.1005153806e-03 2.5033958568e+00 -4.3360088154e+00 2.5033958568e+00 4.3360088154e+00 
44900 6.3285155172e+00 -9.5626384578e-04 2.5034178373e+00 -4.3360468868e+00 2.5034178373e+00 4.3360468868e+00 
45000 6.3285160684e+00 -8.1267515758e-04 2.5034369365e+00 -4.3360799675e+00 2.5034369365e+00 4.3360799675e+00 
45100 6.3285165141e+00 -6.7015400222e-04 2.5034531677e+00 -4.3361080808e+00 2.5034531677e+00 4.3361080808e+00 
45200 6.3285168548e+00 -5.2909323896e-04 2.5034665523e+00 -4.3361312636e+00 2.5034665523e+00 4.3361312636e+00 
45300 6.3285170920e+00 -3.8987296594e-04 2.5034771195e+00 -4.3361495666e+00 2.5034771195e+00 4.3361495666e+00 
45400 6.3285172284e+00 -2.5285964293e-04 2.5034849061e+00 -4.3361630534e+00 2.5034849061e+00 4.3361630534e+00 
45500 6.3285172676e+00 -1.1840527281e-04 2.5034899563e+00 -4.3361718005e+00 2.5034899563e+00 4.3361718005e+00 
45600 6.3285172144e+00 1.3153356881e-05 2.5034923211e+00 -4.3361758965e+00 2.5034923211e+00 4.3361758965e+00 
45700 6.3285170744e+00 1.4159569276e-04 2.5034923211e+00 -4.3361758965e+00 2.5034923211e+00 4.3361758965e+00 
45800 6.3285168538e+00 2.6641780877e-04 2.5034894931e+00 -4.3361709983e+00 2.5034894931e+00 4.3361709983e+00 
45900 6.3285165597e+00 3.8743186352e-04 2.5034841722e+00 -4.3361617822e+00 2.5034841722e+00 4.3361617822e+00 
46000 6.3285161995e+00 5.0436827188e-04 2.5034764344e+00 -4.3361483799e+00 2.5034764344e+00 4.3361483799e+00 
46100 6.3285157814e+00 6.1697551676e-04 2.5034663610e+00 -4.3361309323e+00 2.5034663610e+00 4.3361309323e+00 
46200 6.3285153135e+00 7.2502052792e-04 2.5034540386e+00 -4.3361095893e+00 2.5034540386e+00 4.3361095893e+00 
46300 6.3285148045e+00 8.2828899637e-04 2.5034395582e+00 -4.3360845085e+00 2.5034395582e+00 4.3360845085e+00 
46400 6.3285142629e+00 9.2658562459e-04 2.5034230152e+00 -4.3360558552e+00 2.5034230152e+00 4.3360558552e+00 
46500 6.3285136975e+00 1.0197343129e-03 2.5034045089e+00 -4.3360238012e+00 2.5034045089e+00 4.3360238012e+00 
46600 6.3285131167e+00 1.1075782826e-03 2.5033841419e+00 -4.3359885247e+00 2.5033841419e+00 4.3359885247e+00 
46700 6.3285125288e+00 1.1899801373e-03 2.5033620203e+00 -4.3359502090e+00 2.5033620203e+00 4.3359502090e+00 
46800 6.3285119420e+00 1.2668218622e-03 2.5033382527e+00 -4.3359090423e+00 2.5033382527e+00 4.3359090423e+00 
46900 6.3285113638e+00 1.3380047642e-03 2.5033129501e+00 -4.3358652169e+00 2.5033129501e+00 4.3358652169e+00 
47000 6.3285108015e+00 1.4034493528e-03 2.5032862255e+00 -4.3358189285e+00 2.5032862255e+00 4.3358189285e+00 
47100 6.3285102617e+00 1.4630951642e-03 2.5032581934e+00 -4.3357703755e+00 2.5032581934e+00 4.3357703755e+00 
47200 6.3285097507e+00 1.5169005301e-03 2.5032289697e+00 -4.3357197584e+00 2.5032289697e+00 4.3357197584e+00 
47300 6.3285092739e+00 1.5648422931e-03 2.5031986708e+00 -4.3356672793e+00 2.5031986708e+00 4.3356672793e+00 
47400 6.3285088362e+00 1.6069154706e-03 2.5031674140e+00 -4.3356131410e+00 2.5031674140e+00 4.3356131410e+00 
47500 6.3285084417e+00 1.6431328696e-03 2.5031353165e+00 -4.3355575464e+00 2.5031353165e+00 4.3355575464e+00 
47600 6.3285080940e+00 1.6735246548e-03 2.5031024950e+00 -4.3355006980e+00 2.5031024950e+00 4.3355006980e+00 
47700 6.3285077957e+00 1.6981378719e-03 2.5030690661e+00 -4.3354427974e+00 2.5030690661e+00 4.3354427974e+00 
47800 6.3285075489e+00 1.7170359288e-03 2.5030351451e+00 -4.3353840444e+00 2.5030351451e+00 4.3353840444e+00 
47900 6.3285073548e+00 1.7302980376e-03 2.5030008461e+00 -4.3353246368e+00 2.5030008461e+00 4.3353246368e+00 
48000 6.3285072142e+00 1.7380186204e-03 2.5029662817e+00 -4.3352647695e+00 2.5029662817e+00 4.3352647695e+00 
48100 6.3285071269e+00 1.7403066798e-03 2.5029315626e+00 -4.3352046343e+00 2.5029315626e+00 4.3352046343e+00 
48200 6.3285070923e+00 1.7372851393e-03 2.5028967973e+00 -4.3351444190e+00 2.5028967973e+00 4.3351444190e+00 
48300 6.3285071090e+00 1.7290901549e-03 2.5028620919e+00 -4.3350843075e+00 2.5028620919e+00 4.3350843075e+00 
48400 6.3285071752e+00 1.7158704011e-03 2.5028275497e+00 -4.3350244787e+00 2.5028275497e+00 4.3350244787e+00 
48500 6.3285072885e+00 1.6977863342e-03 2.5027932712e+00 -4.3349651065e+00 2.5027932712e+00 4.3349651065e+00 
48600 6.3285074461e+00 1.6750094364e-03 2.5027593534e+00 -4.3349063592e+00 2.5027593534e+00 4.3349063592e+00 
48700 6.3285076447e+00 1.6477214419e-03 2.5027258902e+00 -4.3348483993e+00 2.5027258902e+00 4.3348483993e+00 
48800 6.3285078807e+00 1.6161135500e-03 2.5026929718e+00 -4.3347913828e+00 2.5026929718e+00 4.3347913828e+00 
48900 6.3285081501e+00 1.5803856265e-03 2.5026606843e+00 -4.3347354594e+00 2.5026606843e+00 4.3347354594e+00 
49000 6.3285084489e+00 1.5407453968e-03 2.5026291103e+00 -4.3346807715e+00 2.5026291103e+00 4.3346807715e+00 
49100 6.3285087727e+00 1.4974076332e-03 2.5025983278e+00 -4.3346274547e+00 2.5025983278e+00 4.3346274547e+00 
49200 6.3285091170e+00 1.4505933399e-03 2.5025684108e+00 -4.3345756370e+00 2.5025684108e+00 4.3345756370e+00 
49300 6.3285094774e+00 1.4005289367e-03 2.5025394288e+00 -4.3345254386e+00 2.5025394288e+00 4.3345254386e+00 
49400 6.3285098495e+00 1.3474454458e-03 2.5025114467e+00 -4.3344769722e+00 2.5025114467e+00 4.3344769722e+00 
49500 6.3285102286e+00 1.2915776834e-03 2.5024845249e+00 -4.3344303422e+00 2.5024845249e+00 4.3344303422e+00 
49600 6.3285106105e+00 1.2331634583e-03 2.5024587190e+00 -4.3343856452e+00 2.5024587190e+00 4.3343856452e+00 
49700 6.3285109910e+00 1.1724427798e-03 2.5024340800e+00 -4.3343429692e+00 2.5024340800e+00 4.3343429692e+00 
49800 6.3285113661e+00 1.1096570780e-03 2.5024106540e+00 -4.3343023941e+00 2.5024106540e+00 4.3343023941e+00 
49900 6.3285117321e+00 1.0450484381e-03 2.5023884823e+00 -4.3342639916e+00 2.5023884823e+00 4.3342639916e+00 
50000 6.3285120853e+00 9.7885884969e-04 2.5023676013e+00 -4.3342278246e+00 2.5023676013e+00 4.3342278246e+00 
50100 6.3285124227e+00 9.1132947548e-04 2.5023480427e+00 -4.3341939481e+00 2.5023480427e+00 4.3341939481e+00 
50200 6.3285127413e+00 8.4269993858e-04 2.5023298332e+00 -4.3341624084e+00 2.5023298332e+00 4.3341624084e+00 
50300 6.3285130385e+00 7.7320763192e-04 2.5023129949e+00 -4.3341332436e+00 2.5023129949e+00 4.3341332436e+00 
50400 6.3285133123e+00 7.0308705049e-04 2.5022975451e+00 -4.3341064837e+00 2.5022975451e+00 4.3341064837e+00 
50500 6.3285135608e+00 6.3256914828e-04 2.5022834962e+00 -4.3340821504e+00 2.5022834962e+00 4.3340821504e+00 
50600 6.3285137825e+00 5.6188072103e-04 2.5022708564e+00 -4.3340602576e+00 2.5022708564e+00 4.3340602576e+00 
50700 6.3285139764e+00 4.9124381627e-04 2.5022596290e+00 -4.3340408112e+00 2.5022596290e+00 4.3340408112e+00 
50800 6.3285141418e+00 4.2087517155e-04 2.5022498130e+00 -4.3340238094e+00 2.5022498130e+00 4.3340238094e+00 
50900 6.3285142783e+00 3.5098568212e-04 2.5022414031e+00 -4.3340092429e+00 2.5022414031e+00 4.3340092429e+00 
51000 6.3285143860e+00 2.8177989867e-04 2.5022343897e+00 -4.3339970953e+00 2.5022343897e+00 4.3339970953e+00 
51100 6.3285144651e+00 2.1345555617e-04 2.5022287591e+00 -4.3339873429e+00 2.5022287591e+00 4.3339873429e+00 
51200 6.3285145165e+00 1.4620313428e-04 2.5022244938e+00 -4.3339799552e+00 2.5022244938e+00 4.3339799552e+00 
51300 6.3285145410e+00 8.0205450017e-05 2.5022215723e+00 -4.3339748951e+00 2.5022215723e+00 4.3339748951e+00 
51400 6.3285145398e+00 1.5637282917e-05 2.5022199696e+00 -4.3339721191e+00 2.5022199696e+00 4.3339721191e+00 
51500 6.3285145144e+00 -4.7215393525e-05 2.5022199696e+00 -4.3339721191e+00 2.5022199696e+00 4.3339721191e+00 
51600 6.3285144667e+00 -1.0879381632e-04 2.5022199696e+00 -4.3339721191e+00 2.5022199696e+00 4.3339721191e+00 
51700 6.3285143983e+00 -1.6811239687e-04 2.5022221436e+00 -4.3339758845e+00 2.5022221436e+00 4.3339758845e+00 
51800 6.3285143113e+00 -2.2538927694e-04 2.5022255028e+00 -4.3339817029e+00 2.5022255028e+00 4.3339817029e+00 
51900 6.3285142080e+00 -2.8049432521e-04 2.5022300066e+00 -4.3339895037e+00 2.5022300066e+00 4.3339895037e+00 
52000 6.3285140904e+00 -3.3330699781e-04 2.5022356115e+00 -4.3339992116e+00 2.5022356115e+00 4.3339992116e+00 
52100 6.3285139609e+00 -3.8371648169e-04 2.5022422717e+00 -4.3340107474e+00 2.5022422717e+00 4.3340107474e+00 
52200 6.3285138219e+00 -4.3162180567e-04 2.5022499392e+00 -4.3340240279e+00 2.5022499392e+00 4.3340240279e+00 
52300 6.3285136758e+00 -4.7693191951e-04 2.5022585638e+00 -4.3340389662e+00 2.5022585638e+00 4.3340389662e+00 
52400 6.3285135248e+00 -5.1956574158e-04 2.5022680939e+00 -4.3340554727e+00 2.5022680939e+00 4.3340554727e+00 
52500 6.3285133712e+00 -5.5945217572e-04 2.5022784758e+00 -4.3340734547e+00 2.5022784758e+00 4.3340734547e+00 
52600 6.3285132172e+00 -5.9653009796e-04 2.5022896546e+00 -4.3340928171e+00 2.5022896546e+00 4.3340928171e+00 
52700 6.3285130649e+00 -6.3074831391e-04 2.5023015743e+00 -4.3341134626e+00 2.5023015743e+00 4.3341134626e+00 
52800 6.3285129164e+00 -6.6206548747e-04 2.5023141777e+00 -4.3341352923e+00 2.5023141777e+00 4.3341352923e+00 
52900 6.3285127734e+00 -6.9045004207e-04 2.5023274068e+00 -4.3341582057e+00 2.5023274068e+00 4.3341582057e+00 
53000 6.3285126376e+00 -7.1588003490e-04 2.5023412029e+00 -4.3341821014e+00 2.5023412029e+00 4.3341821014e+00 
53100 6.3285125107e+00 -7.3834300558e-04 2.5023555072e+00 -4.3342068770e+00 2.5023555072e+00 4.3342068770e+00 
53200 6.3285123938e+00 -7.5783579993e-04 2.5023702601e+00 -4.3342324299e+00 2.5023702601e+00 4.3342324299e+00 
53300 6.3285122883e+00 -7.7436437028e-04 2.5023854025e+00 -4.3342586573e+00 2.5023854025e+00 4.3342586573e+00 
53400 6.3285121951e+00 -7.8794355306e-04 2.5024008751e+00 -4.3342854565e+00 2.5024008751e+00 4.3342854565e+00 
53500 6.3285121149e+00 -7.9859682513e-04 2.5024166188e+00 -4.3343127255e+00 2.5024166188e+00 4.3343127255e+00 
53600 6.3285120485e+00 -8.0635603993e-04 2.5024325754e+00 -4.3343403630e+00 2.5024325754e+00 4.3343403630e+00 
53700 6.3285119961e+00 -8.1126114463e-04 2.5024486868e+00 -4.3343682689e+00 2.5024486868e+00 4.3343682689e+00 
53800 6.3285119580e+00 -8.1335987960e-04 2.5024648962e+00 -4.3343963443e+00 2.5024648962e+00 4.3343963443e+00 
53900 6.3285119342e+00 -8.1270746142e-04 2.5024811474e+00 -4.3344244922e+00 2.5024811474e+00 4.3344244922e+00 
54000 6.3285119246e+00 -8.0936625079e-04 2.5024973854e+00 -4.3344526174e+00 2.5024973854e+00 4.3344526174e+00 
54100 6.3285119289e+00 -8.0340540653e-04 2.5025135566e+00 -4.3344806267e+00 2.5025135566e+00 4.3344806267e+00 
54200 6.3285119467e+00 -7.9490052710e-04 2.5025296086e+00 -4.3345084295e+00 2.5025296086e+00 4.3345084295e+00 
54300 6.3285119772e+00 -7.8393328081e-04 2.5025454906e+00 -4.3345359379e+00 2.5025454906e+00 4.3345359379e+00 
54400 6.3285120198e+00 -7.7059102624e-04 2.5025611533e+00 -4.3345630665e+00 2.5025611533e+00 4.3345630665e+00 
54500 6.3285120737e+00 -7.5496642404e-04 2.5025765494e+00 -4.3345897333e+00 2.5025765494e+00 4.3345897333e+00 
54600 6.3285121378e+00 -7.3715704146e-04 2.5025916331e+00 -4.3346158592e+00 2.5025916331e+00 4.3346158592e+00 
54700 6.3285122112e+00 -7.1726495090e-04 2.5026063610e+00 -4.3346413687e+00 2.5026063610e+00 4.3346413687e+00 
54800 6.3285122928e+00 -6.9539632397e-04 2.5026206914e+00 -4.3346661896e+00 2.5026206914e+00 4.3346661896e+00 
54900 6.3285123813e+00 -6.7166102197e-04 2.5026345848e+00 -4.3346902536e+00 2.5026345848e+00 4.3346902536e+00 
55000 6.3285124758e+00 -6.4617218446e-04 2.5026480039e+00 -4.3347134962e+00 2.5026480039e+00 4.3347134962e+00 
55100 6.3285125748e+00 -6.1904581693e-04 2.5026609137e+00 -4.3347358566e+00 2.5026609137e+00 4.3347358566e+00 
55200 6.3285126772e+00 -5.9040037881e-04 2.5026732814e+00 -4.3347572782e+00 2.5026732814e+00 4.3347572782e+00 
55300 6.3285127819e+00 -5.6035637320e-04 2.5026850768e+00 -4.3347777084e+00 2.5026850768e+00 4.3347777084e+00 
55400 6.3285128876e+00 -5.2903593921e-04 2.5026962719e+00 -4.3347970989e+00 2.5026962719e+00 4.3347970989e+00 
55500 6.3285129932e+00 -4.9656244835e-04 2.5027068413e+00 -4.3348154055e+00 2.5027068413e+00 4.3348154055e+00 
55600 6.3285130976e+00 -4.6306010585e-04 2.5027167618e+00 -4.3348325884e+00 2.5027167618e+00 4.3348325884e+00 
55700 6.3285131998e+00 -4.2865355807e-04 2.5027260129e+00 -4.3348486118e+00 2.5027260129e+00 4.3348486118e+00 
55800 6.3285132988e+00 -3.9346750710e-04 2.5027345767e+00 -4.3348634447e+00 2.5027345767e+00 4.3348634447e+00 
55900 6.3285133938e+00 -3.5762633335e-04 2.5027424374e+00 -4.3348770599e+00 2.5027424374e+00 4.3348770599e+00 
56000 6.3285134838e+00 -3.2125372738e-04 2.5027495821e+00 -4.3348894348e+00 2.5027495821e+00 4.3348894348e+00 
56100 6.3285135683e+00 -2.8447233150e-04 2.5027560001e+00 -4.3349005512e+00 2.5027560001e+00 4.3349005512e+00 
56200 6.3285136466e+00 -2.4740339233e-04 2.5027616833e+00 -4.3349103947e+00 2.5027616833e+00 4.3349103947e+00 
56300 6.3285137181e+00 -2.1016642494e-04 2.5027666259e+00 -4.3349189556e+00 2.5027666259e+00 4.3349189556e+00 
56400 6.3285137825e+00 -1.7287888940e-04 2.5027708246e+00 -4.3349262279e+00 2.5027708246e+00 4.3349262279e+00 
56500 6.3285138395e+00 -1.3565588040e-04 2.5027742784e+00 -4.3349322100e+00 2.5027742784e+00 4.3349322100e+00 
56600 6.3285138888e+00 -9.8609830653e-05 2.5027769885e+00 -4.3349369041e+00 2.5027769885e+00 4.3349369041e+00 
56700 6.3285139303e+00 -6.1850228653e-05 2.5027789585e+00 -4.3349403162e+00 2.5027789585e+00 4.3349403162e+00 
56800 6.3285139639e+00 -2.5955933465e-05 2.5027789585e+00 -4.3349403162e+00 2.5027789585e+00 4.3349403162e+00 
56900 6.3285139898e+00 9.7122191170e-06 2.5027789585e+00 -4.3349403162e+00 2.5027789585e+00 4.3349403162e+00 
57000 6.3285140080e+00 4.5055797659e-05 2.5027789585e+00 -4.3349403162e+00 2.5027789585e+00 4.3349403162e+00 
57100 6.3285140190e+00 7.9979776456e-05 2.5027789585e+00 -4.3349403162e+00 2.5027789585e+00 4.3349403162e+00 
57200 6.3285140229e+00 1.1378154196e-04 2.5027773607e+00 -4.3349375487e+00 2.5027773607e+00 4.3349375487e+00 
57300 6.3285140202e+00 1.4671543718e-04 2.5027750876e+00 -4.3349336116e+00 2.5027750876e+00 4.3349336116e+00 
57400 6.3285140112e+00 1.7869919992e-04 2.5027721565e+00 -4.3349285348e+00 2.5027721565e+00 4.3349285348e+00 
57500 6.3285139965e+00 2.0965520043e-04 2.5027685865e+00 -4.3349223514e+00 2.5027685865e+00 4.3349223514e+00 
57600 6.3285139766e+00 2.3951057640e-04 2.5027643980e+00 -4.3349150967e+00 2.5027643980e+00 4.3349150967e+00 
57700 6.3285139521e+00 2.6819735063e-04 2.5027596131e+00 -4.3349068090e+00 2.5027596131e+00 4.3349068090e+00 
57800 6.3285139236e+00 2.9565253137e-04 2.5027542551e+00 -4.3348975286e+00 2.5027542551e+00 4.3348975286e+00 
57900 6.3285138917e+00 3.2181819549e-04 2.5027483485e+00 -4.3348872982e+00 2.5027483485e+00 4.3348872982e+00 
58000 6.3285138570e+00 3.4664155447e-04 2.5027419192e+00 -4.3348761623e+00 2.5027419192e+00 4.3348761623e+00 
58100 6.3285138203e+00 3.7007500346e-04 2.5027349940e+00 -4.3348641675e+00 2.5027349940e+00 4.3348641675e+00 
58200 6.3285137820e+00 3.9207615359e-04 2.5027276006e+00 -4.3348513617e+00 2.5027276006e+00 4.3348513617e+00 
58300 6.3285137428e+00 4.1260784773e-04 2.5027197676e+00 -4.3348377946e+00 2.5027197676e+00 4.3348377946e+00 
58400 6.3285137034e+00 4.3163816015e-04 2.5027115244e+00 -4.3348235170e+00 2.5027115244e+00 4.3348235170e+00 
58500 6.3285136642e+00 4.4914038027e-04 2.5027029010e+00 -4.3348085808e+00 2.5027029010e+00 4.3348085808e+00 
58600 6.3285136260e+00 4.6509298097e-04 2.5026939279e+00 -4.3347930390e+00 2.5026939279e+00 4.3347930390e+00 
58700 6.3285135891e+00 4.7947957187e-04 2.5026846361e+00 -4.3347769450e+00 2.5026846361e+00 4.3347769450e+00 
58800 6.3285135540e+00 4.9228883808e-04 2.5026750568e+00 -4.3347603532e+00 2.5026750568e+00 4.3347603532e+00 
58900 6.3285135212e+00 5.0351446486e-04 2.5026652215e+00 -4.3347433180e+00 2.5026652215e+00 4.3347433180e+00 
59000 6.3285134911e+00 5.1315504876e-04 2.5026551620e+00 -4.3347258944e+00 2.5026551620e+00 4.3347258944e+00 
59100 6.3285134639e+00 5.2121399578e-04 2.5026449098e+00 -4.3347081370e+00 2.5026449098e+00 4.3347081370e+00 
59200 6.3285134399e+00 5.2769940723e-04 2.5026344965e+00 -4.3346901007e+00 2.5026344965e+00 4.3346901007e+00 
59300 6.3285134195e+00 5.3262395376e-04 2.5026239537e+00 -4.3346718400e+00 2.5026239537e+00 4.3346718400e+00 
59400 6.3285134027e+00 5.3600473832e-04 2.5026133123e+00 -4.3346534087e+00 2.5026133123e+00 4.3346534087e+00 
59500 6.3285133897e+00 5.3786314864e-04 2.5026026035e+00 -4.3346348603e+00 2.5026026035e+00 4.3346348603e+00 
59600 6.3285133805e+00 5.3822470002e-04 2.5025918574e+00 -4.3346162476e+00 2.5025918574e+00 4.3346162476e+00 
59700 6.3285133752e+00 5.3711886892e-04 2.5025811040e+00 -4.3345976223e+00 2.5025811040e+00 4.3345976223e+00 
59800 6.3285133738e+00 5.3457891833e-04 2.5025703728e+00 -4.3345790351e+00 2.5025703728e+00 4.3345790351e+00 
59900 6.3285133761e+00 5.3064171534e-04 2.5025596922e+00 -4.3345605358e+00 2.5025596922e+00 4.3345605358e+00 
60000 6.3285133821e+00 5.2534754192e-04 2.5025490902e+00 -4.3345421727e+00 2.5025490902e+00 4.3345421727e+00 
60100 6.3285133915e+00 5.1873989941e-04 2.5025385940e+00 -4.3345239926e+00 2.5025385940e+00 4.3345239926e+00 
60200 6.3285134043e+00 5.1086530761e-04 2.5025282297e+00 -4.3345060412e+00 2.5025282297e+00 4.3345060412e+00 
60300 6.3285134201e+00 5.0177309911e-04 2.5025180227e+00 -4.3344883622e+00 2.5025180227e+00 4.3344883622e+00 
60400 6.3285134388e+00 4.9151520967e-04 2.5025079974e+00 -4.3344709978e+00 2.5025079974e+00 4.3344709978e+00 
60500 6.3285134600e+00 4.8014596525e-04 2.5024981769e+00 -4.3344539883e+00 2.5024981769e+00 4.3344539883e+00 
60600 6.3285134834e+00 4.6772186662e-04 2.5024885836e+00 -4.3344373721e+00 2.5024885836e+00 4.3344373721e+00 
60700 6.3285135088e+00 4.5430137201e-04 2.5024792385e+00 -4.3344211859e+00 2.5024792385e+00 4.3344211859e+00 
60800 6.3285135358e+00 4.3994467873e-04 2.5024701614e+00 -4.3344054640e+00 2.5024701614e+00 4.3344054640e+00 
60900 6.3285135642e+00 4.2471350427e-04 2.5024613712e+00 -4.3343902389e+00 2.5024613712e+00 4.3343902389e+00 
61000 6.3285135934e+00 4.0867086772e-04 2.5024528853e+00 -4.3343755409e+00 2.5024528853e+00 4.3343755409e+00 
61100 6.3285136234e+00 3.9188087201e-04 2.5024447199e+00 -4.3343613980e+00 2.5024447199e+00 4.3343613980e+00 
61200 6.3285136536e+00 3.7440848769e-04 2.5024368900e+00 -4.3343478361e+00 2.5024368900e+00 4.3343478361e+00 
61300 6.3285136838e+00 3.5631933892e-04 2.5024294091e+00 -4.3343348789e+00 2.5024294091e+00 4.3343348789e+00 
61400 6.3285137137e+00 3.3767949219e-04 2.5024222896e+00 -4.3343225476e+00 2.5024222896e+00 4.3343225476e+00 
61500 6.3285137431e+00 3.1855524831e-04 2.5024155426e+00 -4.3343108614e+00 2.5024155426e+00 4.3343108614e+00 
61600 6.3285137715e+00 2.9901293842e-04 2.5024091776e+00 -4.3342998370e+00 2.5024091776e+00 4.3342998370e+00 
61700 6.3285137989e+00 2.7911872426e-04 2.5024032031e+00 -4.3342894888e+00 2.5024032031e+00 4.3342894888e+00 
61800 6.3285138250e+00 2.5893840348e-04 2.5023976261e+00 -4.3342798292e+00 2.5023976261e+00 4.3342798292e+00 
61900 6.3285138495e+00 2.3853722032e-04 2.5023924523e+00 -4.3342708679e+00 2.5023924523e+00 4.3342708679e+00 
62000 6.3285138724e+00 2.1797968210e-04 2.5023876861e+00 -4.3342626126e+00 2.5023876861e+00 4.3342626126e+00 
62100 6.3285138934e+00 1.9732938203e-04 2.5023833307e+00 -4.3342550688e+00 2.5023833307e+00 4.3342550688e+00 
62200 6.3285139124e+00 1.7664882862e-04 2.5023793879e+00 -4.3342482396e+00 2.5023793879e+00 4.3342482396e+00 
62300 6.3285139294e+00 1.5599928220e-04 2.5023758582e+00 -4.3342421261e+00 2.5023758582e+00 4.3342421261e+00 
62400 6.3285139443e+00 1.3544059870e-04 2.5023727412e+00 -4.3342367273e+00 2.5023727412e+00 4.3342367273e+00 
62500 6.3285139571e+00 1.1503108118e-04 2.5023700350e+00 -4.3342320399e+00 2.5023700350e+00 4.3342320399e+00 
62600 6.3285139676e+00 9.4827339270e-05 2.5023677365e+00 -4.3342280589e+00 2.5023677365e+00 4.3342280589e+00 
62700 6.3285139760e+00 7.4884156707e-05 2.5023658418e+00 -4.3342247771e+00 2.5023658418e+00 4.3342247771e+00 
62800 6.3285139824e+00 5.5254367414e-05 2.5023643455e+00 -4.3342221855e+00 2.5023643455e+00 4.3342221855e+00 
62900 6.3285139866e+00 3.6411286001e-05 2.5023643455e+00 -4.3342221855e+00 2.5023643455e+00 4.3342221855e+00 
63000 6.3285139889e+00 1.7841166802e-05 2.5023643455e+00 -4.3342221855e+00 2.5023643455e+00 4.3342221855e+00 
63100 6.3285139893e+00 -4.0865250737e-07 2.5023643455e+00 -4.3342221855e+00 2.5023643455e+00 4.3342221855e+00 
63200 6.3285139879e+00 -1.8292947169e-05 2.5023643455e+00 -4.3342221855e+00 2.5023643455e+00 4.3342221855e+00 
63300 6.3285139849e+00 -3.5768698561e-05 2.5023643455e+00 -4.3342221855e+00 2.5023643455e+00 4.3342221855e+00 
63400 6.3285139805e+00 -5.2795176909e-05 2.5023643455e+00 -4.3342221855e+00 2.5023643455e+00 4.3342221855e+00 
63500 6.3285139749e+00 -6.9334013658e-05 2.5023643455e+00 -4.3342221855e+00 2.5023643455e+00 4.3342221855e+00 
63600 6.3285139681e+00 -8.5349263675e-05 2.5023643455e+00 -4.3342221855e+00 2.5023643455e+00 4.3342221855e+00 
63700 6.3285139603e+00 -1.0015487814e-04 2.5023660509e+00 -4.3342251393e+00 2.5023660509e+00 4.3342251393e+00 
63800 6.3285139517e+00 -1.1424764801e-04 2.5023680521e+00 -4.3342286055e+00 2.5023680521e+00 4.3342286055e+00 
63900 6.3285139424e+00 -1.2760186929e-04 2.5023703349e+00 -4.3342325594e+00 2.5023703349e+00 4.3342325594e+00 
64000 6.3285139327e+00 -1.4019457494e-04 2.5023728845e+00 -4.3342369755e+00 2.5023728845e+00 4.3342369755e+00 
64100 6.3285139227e+00 -1.5200554433e-04 2.5023756857e+00 -4.3342418273e+00 2.5023756857e+00 4.3342418273e+00 
64200 6.3285139126e+00 -1.6301730429e-04 2.5023787230e+00 -4.3342470880e+00 2.5023787230e+00 4.3342470880e+00 
64300 6.3285139025e+00 -1.7321512197e-04 2.5023819802e+00 -4.3342527297e+00 2.5023819802e+00 4.3342527297e+00 
64400 6.3285138925e+00 -1.8258698950e-04 2.5023854412e+00 -4.3342587243e+00 2.5023854412e+00 4.3342587243e+00 
64500 6.3285138830e+00 -1.9112360098e-04 2.5023890895e+00 -4.3342650433e+00 2.5023890895e+00 4.3342650433e+00 
64600 6.3285138738e+00 -1.9881832176e-04 2.5023929083e+00 -4.3342716577e+00 2.5023929083e+00 4.3342716577e+00 
64700 6.3285138653e+00 -2.0566715047e-04 2.5023968809e+00 -4.3342785384e+00 2.5023968809e+00 4.3342785384e+00 
64800 6.3285138574e+00 -2.1166867406e-04 2.5024009903e+00 -4.3342856561e+00 2.5024009903e+00 4.3342856561e+00 
64900 6.3285138503e+00 -2.1682401595e-04 2.5024052196e+00 -4.3342929814e+00 2.5024052196e+00 4.3342929814e+00 
65000 6.3285138441e+00 -2.2113677790e-04 2.5024095519e+00 -4.3343004852e+00 2.5024095519e+00 4.3343004852e+00 
65100 6.3285138388e+00 -2.2461297562e-04 2.5024139704e+00 -4.3343081383e+00 2.5024139704e+00 4.3343081383e+00 
65200 6.3285138345e+00 -2.2726096868e-04 2.5024184583e+00 -4.3343159116e+00 2.5024184583e+00 4.3343159116e+00 
65300 6.3285138312e+00 -2.2909138492e-04 2.5024229991e+00 -4.3343237765e+00 2.5024229991e+00 4.3343237765e+00 
65400 6.3285138289e+00 -2.3011703970e-04 2.5024275765e+00 -4.3343317048e+00 2.5024275765e+00 4.3343317048e+00 
65500 6.3285138277e+00 -2.3035285049e-04 2.5024321744e+00 -4.3343396686e+00 2.5024321744e+00 4.3343396686e+00 
65600 6.3285138276e+00 -2.2981574700e-04 2.5024367770e+00 -4.3343476405e+00 2.5024367770e+00 4.3343476405e+00 
65700 6.3285138285e+00 -2.2852457721e-04 2.5024413688e+00 -4.3343555938e+00 2.5024413688e+00 4.3343555938e+00 
65800 6.3285138303e+00 -2.2650000986e-04 2.5024459349e+00 -4.3343635024e+00 2.5024459349e+00 4.3343635024e+00 
65900 6.3285138332e+00 -2.2376443357e-04 2.5024504604e+00 -4.3343713409e+00 2.5024504604e+00 4.3343713409e+00 
66000 6.3285138369e+00 -2.2034185299e-04 2.5024549313e+00 -4.3343790847e+00 2.5024549313e+00 4.3343790847e+00 
66100 6.3285138415e+00 -2.1625778248e-04 2.5024593339e+00 -4.3343867101e+00 2.5024593339e+00 4.3343867101e+00 
66200 6.3285138469e+00 -2.1153913755e-04 2.5024636548e+00 -4.3343941941e+00 2.5024636548e+00 4.3343941941e+00 
66300 6.3285138530e+00 -2.0621412454e-04 2.5024678814e+00 -4.3344015149e+00 2.5024678814e+00 4.3344015149e+00 
66400 6.3285138598e+00 -2.0031212877e-04 2.5024720016e+00 -4.3344086513e+00 2.5024720016e+00 4.3344086513e+00 
66500 6.3285138671e+00 -1.9386360169e-04 2.5024760039e+00 -4.3344155834e+00 2.5024760039e+00 4.3344155834e+00 
66600 6.3285138748e+00 -1.8689994726e-04 2.5024798773e+00 -4.3344222924e+00 2.5024798773e+00 4.3344222924e+00 
66700 6.3285138830e+00 -1.7945340803e-04 2.5024836116e+00 -4.3344287604e+00 2.5024836116e+00 4.3344287604e+00 
66800 6.3285138914e+00 -1.7155695107e-04 2.5024871971e+00 -4.3344349707e+00 2.5024871971e+00 4.3344349707e+00 
66900 6.3285139000e+00 -1.6324415437e-04 2.5024906249e+00 -4.3344409077e+00 2.5024906249e+00 4.3344409077e+00 
67000 6.3285139088e+00 -1.5454909376e-04 2.5024938865e+00 -4.3344465570e+00 2.5024938865e+00 4.3344465570e+00 
67100 6.3285139175e+00 -1.4550623093e-04 2.5024969744e+00 -4.3344519054e+00 2.5024969744e+00 4.3344519054e+00 
67200 6.3285139262e+00 -1.3615030258e-04 2.5024998816e+00 -4.3344569409e+00 2.5024998816e+00 4.3344569409e+00 
67300 6.3285139348e+00 -1.2651621130e-04 2.5025026019e+00 -4.3344616526e+00 2.5025026019e+00 4.3344616526e+00 
67400 6.3285139432e+00 -1.1663891825e-04 2.5025051297e+00 -4.3344660308e+00 2.5025051297e+00 4.3344660308e+00 
67500 6.3285139512e+00 -1.0655333802e-04 2.5025074601e+00 -4.3344700673e+00 2.5025074601e+00 4.3344700673e+00 
67600 6.3285139590e+00 -9.6294235941e-05 2.5025095891e+00 -4.3344737547e+00 2.5025095891e+00 4.3344737547e+00 
67700 6.3285139663e+00 -8.5896127970e-05 2.5025115130e+00 -4.3344770871e+00 2.5025115130e+00 4.3344770871e+00 
67800 6.3285139732e+00 -7.5393183634e-05 2.5025132292e+00 -4.3344800596e+00 2.5025132292e+00 4.3344800596e+00 
67900 6.3285139796e+00 -6.4819132033e-05 2.5025147356e+00 -4.3344826687e+00 2.5025147356e+00 4.3344826687e+00 
68000 6.3285139855e+00 -5.4702672265e-05 2.5025147356e+00 -4.3344826687e+00 2.5025147356e+00 4.3344826687e+00 
68100 6.3285139908e+00 -4.4508628659e-05 2.5025147356e+00 -4.3344826687e+00 2.5025147356e+00 4.3344826687e+00 
68200 6.3285139956e+00 -3.4267945385e-05 2.5025147356e+00 -4.3344826687e+00 2.5025147356e+00 4.3344826687e+00 
68300 6.3285139997e+00 -2.4010939139e-05 2.5025147356e+00 -4.3344826687e+00 2.5025147356e+00 4.3344826687e+00 
68400 6.3285140032e+00 -1.3767216549e-05 2.5025147356e+00 -4.3344826687e+00 2.5025147356e+00 4.3344826687e+00 
68500 6.3285140061e+00 -3.5655967153e-06 2.5025147356e+00 -4.3344826687e+00 2.5025147356e+00 4.3344826687e+00 
68600 6.3285140084e+00 6.5659610881e-06 2.5025147356e+00 -4.3344826687e+00 2.5025147356e+00 4.3344826687e+00 
68700 6.3285140102e+00 1.6600424586e-05 2.5025147356e+00 -4.3344826687e+00 2.5025147356e+00 4.3344826687e+00 
68800 6.3285140115e+00 2.6511750427e-05 2.5025147356e+00 -4.3344826687e+00 2.5025147356e+00 4.3344826687e+00 
68900 6.3285140122e+00 3.6274940972e-05 2.5025147356e+00 -4.3344826687e+00 2.5025147356e+00 4.3344826687e+00 
69000 6.3285140125e+00 4.5866095882e-05 2.5025147356e+00 -4.3344826687e+00 2.5025147356e+00 4.3344826687e+00 
69100 6.3285140123e+00 5.5262458568e-05 2.5025147356e+00 -4.3344826687e+00 2.5025147356e+00 4.3344826687e+00 
69200 6.3285140118e+00 6.4442457491e-05 2.5025147356e+00 -4.3344826687e+00 2.5025147356e+00 4.3344826687e+00 
69300 6.3285140109e+00 7.3385742436e-05 2.5025147356e+00 -4.3344826687e+00 2.5025147356e+00 4.3344826687e+00 
69400 6.3285140097e+00 8.1512128692e-05 2.5025132693e+00 -4.3344801291e+00 2.5025132693e+00 4.3344801291e+00 
69500 6.3285140081e+00 8.9292711571e-05 2.5025116407e+00 -4.3344773083e+00 2.5025116407e+00 4.3344773083e+00 
69600 6.3285140063e+00 9.6711871217e-05 2.5025098567e+00 -4.3344742182e+00 2.5025098567e+00 4.3344742182e+00 
69700 6.3285140044e+00 1.0375539910e-04 2.5025079244e+00 -4.3344708713e+00 2.5025079244e+00 4.3344708713e+00 
69800 6.3285140022e+00 1.1041050996e-04 2.5025058513e+00 -4.3344672808e+00 2.5025058513e+00 4.3344672808e+00 
69900 6.3285140000e+00 1.1666584918e-04 2.5025036453e+00 -4.3344634598e+00 2.5025036453e+00 4.3344634598e+00 
70000 6.3285139977e+00 1.2251149564e-04 2.5025013144e+00 -4.3344594225e+00 2.5025013144e+00 4.3344594225e+00 
70100 6.3285139954e+00 1.2793896020e-04 2.5024988666e+00 -4.3344551828e+00 2.5024988666e+00 4.3344551828e+00 
70200 6.3285139932e+00 1.3294117980e-04 2.5024963103e+00 -4.3344507553e+00 2.5024963103e+00 4.3344507553e+00 
70300 6.3285139910e+00 1.3751250749e-04 2.5024936542e+00 -4.3344461547e+00 2.5024936542e+00 4.3344461547e+00 
70400 6.3285139889e+00 1.4164869829e-04 2.5024909067e+00 -4.3344413958e+00 2.5024909067e+00 4.3344413958e+00 
70500 6.3285139869e+00 1.4534689121e-04 2.5024880765e+00 -4.3344364939e+00 2.5024880765e+00 4.3344364939e+00 
70600 6.3285139852e+00 1.4860558745e-04 2.5024851725e+00 -4.3344314639e+00 2.5024851725e+00 4.3344314639e+00 
70700 6.3285139836e+00 1.5142462502e-04 2.5024822033e+00 -4.3344263212e+00 2.5024822033e+00 4.3344263212e+00 
70800 6.3285139822e+00 1.5380514982e-04 2.5024791778e+00 -4.3344210809e+00 2.5024791778e+00 4.3344210809e+00 
70900 6.3285139811e+00 1.5574958345e-04 2.5024761048e+00 -4.3344157582e+00 2.5024761048e+00 4.3344157582e+00 
71000 6.3285139802e+00 1.5726158800e-04 2.5024729929e+00 -4.3344103682e+00 2.5024729929e+00 4.3344103682e+00 
71100 6.3285139796e+00 1.5834602766e-04 2.5024698507e+00 -4.3344049259e+00 2.5024698507e+00 4.3344049259e+00 
71200 6.3285139793e+00 1.5900892780e-04 2.5024666869e+00 -4.3343994460e+00 2.5024666869e+00 4.3343994460e+00 
71300 6.3285139792e+00 1.5925743131e-04 2.5024635099e+00 -4.3343939432e+00 2.5024635099e+00 4.3343939432e+00 
71400 6.3285139795e+00 1.5909975262e-04 2.5024603279e+00 -4.3343884318e+00 2.5024603279e+00 4.3343884318e+00 
71500 6.3285139799e+00 1.5854512949e-04 2.5024571490e+00 -4.3343829259e+00 2.5024571490e+00 4.3343829259e+00 
71600 6.3285139807e+00 1.5760377281e-04 2.5024539812e+00 -4.3343774391e+00 2.5024539812e+00 4.3343774391e+00 
71700 6.3285139817e+00 1.5628681460e-04 2.5024508322e+00 -4.3343719849e+00 2.5024508322e+00 4.3343719849e+00 
71800 6.3285139830e+00 1.5460625435e-04 2.5024477096e+00 -4.3343665763e+00 2.5024477096e+00 4.3343665763e+00 
71900 6.3285139845e+00 1.5257490404e-04 2.5024446205e+00 -4.3343612258e+00 2.5024446205e+00 4.3343612258e+00 
72000 6.3285139862e+00 1.5020633183e-04 2.5024415720e+00 -4.3343559456e+00 2.5024415720e+00 4.3343559456e+00 
72100 6.3285139881e+00 1.4751480484e-04 2.5024385708e+00 -4.3343507474e+00 2.5024385708e+00 4.3343507474e+00 
72200 6.3285139902e+00 1.4451523098e-04 2.5024356233e+00 -4.3343456423e+00 2.5024356233e+00 4.3343456423e+00 
72300 6.3285139924e+00 1.4122310034e-04 2.5024327358e+00 -4.3343406410e+00 2.5024327358e+00 4.3343406410e+00 
72400 6.3285139947e+00 1.3765442592e-04 2.5024299141e+00 -4.3343357537e+00 2.5024299141e+00 4.3343357537e+00 
72500 6.3285139972e+00 1.3382568427e-04 2.5024271637e+00 -4.3343309898e+00 2.5024271637e+00 4.3343309898e+00 
72600 6.3285139997e+00 1.2975375599e-04 2.5024244898e+00 -4.3343263584e+00 2.5024244898e+00 4.3343263584e+00 
72700 6.3285140023e+00 1.2545586637e-04 2.5024218972e+00 -4.3343218680e+00 2.5024218972e+00 4.3343218680e+00 
72800 6.3285140049e+00 1.2094952630e-04 2.5024193906e+00 -4.3343175263e+00 2.5024193906e+00 4.3343175263e+00 
72900 6.3285140076e+00 1.1625247367e-04 2.5024169739e+00 -4.3343133405e+00 2.5024169739e+00 4.3343133405e+00 
73000 6.3285140102e+00 1.1138261534e-04 2.5024146511e+00 -4.3343093173e+00 2.5024146511e+00 4.3343093173e+00 
73100 6.3285140128e+00 1.0635797000e-04 2.5024124256e+00 -4.3343054626e+00 2.5024124256e+00 4.3343054626e+00 
73200 6.3285140153e+00 1.0119661181e-04 2.5024103005e+00 -4.3343017818e+00 2.5024103005e+00 4.3343017818e+00 
73300 6.3285140178e+00 9.5916615317e-05 2.5024082785e+00 -4.3342982797e+00 2.5024082785e+00 4.3342982797e+00 
73400 6.3285140201e+00 9.0536001446e-05 2.5024063620e+00 -4.3342949602e+00 2.5024063620e+00 4.3342949602e+00 
73500 6.3285140224e+00 8.5072684941e-05 2.5024045530e+00 -4.3342918270e+00 2.5024045530e+00 4.3342918270e+00 
73600 6.3285140245e+00 7.9544423261e-05 2.5024028532e+00 -4.3342888828e+00 2.5024028532e+00 4.3342888828e+00 
73700 6.3285140265e+00 7.3968767112e-05 2.5024012639e+00 -4.3342861299e+00 2.5024012639e+00 4.3342861299e+00 
73800 6.3285140284e+00 6.8363012681e-05 2.5023997859e+00 -4.3342835700e+00 2.5023997859e+00 4.3342835700e+00 
73900 6.3285140301e+00 6.3266953423e-05 2.5023997859e+00 -4.3342835700e+00 2.5023997859e+00 4.3342835700e+00 
74000 6.3285140317e+00 5.8140809805e-05 2.5023997859e+00 -4.3342835700e+00 2.5023997859e+00 4.3342835700e+00 
74100 6.3285140332e+00 5.3000696040e-05 2.5023997859e+00 -4.3342835700e+00 2.5023997859e+00 4.3342835700e+00 
74200 6.3285140344e+00 4.7862378615e-05 2.5023997859e+00 -4.3342835700e+00 2.5023997859e+00 4.3342835700e+00 
74300 6.3285140354e+00 4.2741231825e-05 2.5023997859e+00 -4.3342835700e+00 2.5023997859e+00 4.3342835700e+00 
74400 6.3285140363e+00 3.7652196285e-05 2.5023997859e+00 -4.3342835700e+00 2.5023997859e+00 4.3342835700e+00 
74500 6.3285140371e+00 3.2609740413e-05 2.5023997859e+00 -4.3342835700e+00 2.5023997859e+00 4.3342835700e+00 
74600 6.3285140376e+00 2.7627824865e-05 2.5023997859e+00 -4.3342835700e+00 2.5023997859e+00 4.3342835700e+00 
74700 6.3285140380e+00 2.2719869917e-05 2.5023997859e+00 -4.3342835700e+00 2.5023997859e+00 4.3342835700e+00 
74800 6.3285140383e+00 1.7898725774e-05 2.5023997859e+00 -4.3342835700e+00 2.5023997859e+00 4.3342835700e+00 
74900 6.3285140384e+00 1.3176645774e-05 2.5023997859e+00 -4.3342835700e+00 2.5023997859e+00 4.3342835700e+00 
75000 6.3285140385e+00 8.5652624744e-06 2.5023997859e+00 -4.3342835700e+00 2.5023997859e+00 4.3342835700e+00 
75100 6.3285140384e+00 4.0755665719e-06 2.5023997859e+00 -4.3342835700e+00 2.5023997859e+00 4.3342835700e+00 
75200 6.3285140382e+00 -2.8211137866e-07 2.5023997859e+00 -4.3342835700e+00 2.5023997859e+00 4.3342835700e+00 
75300 6.3285140380e+00 -4.4981164856e-06 2.5023997859e+00 -4.3342835700e+00 2.5023997859e+00 4.3342835700e+00 
75400 6.3285140377e+00 -8.5634823275e-06 2.5023997859e+00 -4.3342835700e+00 2.5023997859e+00 4.3342835700e+00 
75500 6.3285140373e+00 -1.2469941116e-05 2.5023997859e+00 -4.3342835700e+00 2.5023997859e+00 4.3342835700e+00 
75600 6.3285140369e+00 -1.6209931280e-05 2.5023997859e+00 -4.3342835700e+00 2.5023997859e+00 4.3342835700e+00 
75700 6.3285140365e+00 -1.9776602471e-05 2.5023997859e+00 -4.3342835700e+00 2.5023997859e+00 4.3342835700e+00 
75800 6.3285140361e+00 -2.3163818166e-05 2.5023997859e+00 -4.3342835700e+00 2.5023997859e+00 4.3342835700e+00 
75900 6.3285140357e+00 -2.6366155833e-05 2.5023997859e+00 -4.3342835700e+00 2.5023997859e+00 4.3342835700e+00 
76000 6.3285140353e+00 -2.9378904818e-05 2.5023997859e+00 -4.3342835700e+00 2.5023997859e+00 4.3342835700e+00 
76100 6.3285140349e+00 -3.2198061979e-05 2.5023997859e+00 -4.3342835700e+00 2.5023997859e+00 4.3342835700e+00 
76200 6.3285140346e+00 -3.4820325177e-05 2.5023997859e+00 -4.3342835700e+00 2.5023997859e+00 4.3342835700e+00 
76300 6.3285140343e+00 -3.7243084718e-05 2.5023997859e+00 -4.3342835700e+00 2.5023997859e+00 4.3342835700e+00 
76400 6.3285140340e+00 -3.9464412815e-05 2.5023997859e+00 -4.3342835700e+00 2.5023997859e+00 4.3342835700e+00 
76500 6.3285140338e+00 -4.1483051181e-05 2.5023997859e+00 -4.3342835700e+00 2.5023997859e+00 4.3342835700e+00 
76600 6.3285140336e+00 -4.3298396841e-05 2.5023997859e+00 -4.3342835700e+00 2.5023997859e+00 4.3342835700e+00 
76700 6.3285140336e+00 -4.4910486264e-05 2.5023997859e+00 -4.3342835700e+00 2.5023997859e+00 4.3342835700e+00 
76800 6.3285140336e+00 -4.6319977922e-05 2.5023997859e+00 -4.3342835700e+00 2.5023997859e+00 4.3342835700e+00 
76900 6.3285140336e+00 -4.7528133356e-05 2.5023997859e+00 -4.3342835700e+00 2.5023997859e+00 4.3342835700e+00 
77000 6.3285140337e+00 -4.8536796889e-05 2.5023997859e+00 -4.3342835700e+00 2.5023997859e+00 4.3342835700e+00 
77100 6.3285140339e+00 -4.9348374051e-05 2.5023997859e+00 -4.3342835700e+00 2.5023997859e+00 4.3342835700e+00 
77200 6.3285140342e+00 -4.9965808849e-05 2.5023997859e+00 -4.3342835700e+00 2.5023997859e+00 4.3342835700e+00 
77300 6.3285140345e+00 -5.0392559964e-05 2.5023997859e+00 -4.3342835700e+00 2.5023997859e+00 4.3342835700e+00 
77400 6.3285140349e+00 -5.0632576017e-05 2.5023997859e+00 -4.3342835700e+00 2.5023997859e+00 4.3342835700e+00 
77500 6.3285140354e+00 -5.0690269965e-05 2.5023997859e+00 -4.3342835700e+00 2.5023997859e+00 4.3342835700e+00 
77600 6.3285140359e+00 -5.0570492752e-05 2.5023997859e+00 -4.3342835700e+00 2.5023997859e+00 4.3342835700e+00 
77700 6.3285140365e+00 -5.0278506339e-05 2.5023997859e+00 -4.3342835700e+00 2.5023997859e+00 4.3342835700e+00 
77800 6.3285140371e+00 -4.9819956167e-05 2.5023997859e+00 -4.3342835700e+00 2.5023997859e+00 4.3342835700e+00 
77900 6.3285140378e+00 -4.9200843213e-05 2.5023997859e+00 -4.3342835700e+00 2.5023997859e+00 4.3342835700e+00 
78000 6.3285140385e+00 -4.8427495688e-05 2.5023997859e+00 -4.3342835700e+00 2.5023997859e+00 4.3342835700e+00 
78100 6.3285140392e+00 -4.7506540492e-05 2.5023997859e+00 -4.3342835700e+00 2.5023997859e+00 4.3342835700e+00 
78200 6.3285140400e+00 -4.6444874547e-05 2.5023997859e+00 -4.3342835700e+00 2.5023997859e+00 4.3342835700e+00 
78300 6.3285140407e+00 -4.5249636068e-05 2.5023997859e+00 -4.3342835700e+00 2.5023997859e+00 4.3342835700e+00 
78400 6.3285140415e+00 -4.3928175864e-05 2.5023997859e+00 -4.3342835700e+00 2.5023997859e+00 4.3342835700e+00 
78500 6.3285140423e+00 -4.2488028779e-05 2.5023997859e+00 -4.3342835700e+00 2.5023997859e+00 4.3342835700e+00 
78600 6.3285140431e+00 -4.0936885368e-05 2.5023997859e+00 -4.3342835700e+00 2.5023997859e+00 4.3342835700e+00 
78700 6.3285140439e+00 -3.9282563819e-05 2.5023997859e+00 -4.3342835700e+00 2.5023997859e+00 4.3342835700e+00 
78800 6.3285140447e+00 -3.7532982300e-05 2.5023997859e+00 -4.3342835700e+00 2.5023997859e+00 4.3342835700e+00 
78900 6.3285140454e+00 -3.5696131730e-05 2.5023997859e+00 -4.3342835700e+00 2.5023997859e+00 4.3342835700e+00 
79000 6.3285140462e+00 -3.3780049080e-05 2.5023997859e+00 -4.3342835700e+00 2.5023997859e+00 4.3342835700e+00 
79100 6.3285140469e+00 -3.1792791272e-05 2.5023997859e+00 -4.3342835700e+00 2.5023997859e+00 4.3342835700e+00 
79200 6.3285140476e+00 -2.9742409730e-05 2.5023997859e+00 -4.3342835700e+00 2.5023997859e+00 4.3342835700e+00 
79300 6.3285140483e+00 -2.7636925644e-05 2.5023997859e+00 -4.3342835700e+00 2.5023997859e+00 4.3342835700e+00 
79400 6.3285140489e+00 -2.5484306003e-05 2.5023997859e+00 -4.3342835700e+00 2.5023997859e+00 4.3342835700e+00 
79500 6.3285140495e+00 -2.3292440490e-05 2.5023997859e+00 -4.3342835700e+00 2.5023997859e+00 4.3342835700e+00 
79600 6.3285140501e+00 -2.1069119199e-05 2.5023997859e+00 -4.3342835700e+00 2.5023997859e+00 4.3342835700e+00 
79700 6.3285140506e+00 -1.8822011325e-05 2.5023997859e+00 -4.3342835700e+00 2.5023997859e+00 4.3342835700e+00 
79800 6.3285140511e+00 -1.6558644780e-05 2.5023997859e+00 -4.3342835700e+00 2.5023997859e+00 4.3342835700e+00 
79900 6.3285140515e+00 -1.4286386822e-05 2.5023997859e+00 -4.3342835700e+00 2.5023997859e+00 4.3342835700e+00 
80000 6.3285140519e+00 -1.2012425719e-05 2.5023997859e+00 -4.3342835700e+00 2.5023997859e+00 4.3342835700e+00 
80100 6.3285140523e+00 -9.7437534626e-06 2.5023997859e+00 -4.3342835700e+00 2.5023997859e+00 4.3342835700e+00 
80200 6.3285140527e+00 -7.4871495673e-06 2.5023997859e+00 -4.3342835700e+00 2.5023997859e+00 4.3342835700e+00 
80300 6.3285140530e+00 -5.2491659870e-06 2.5023997859e+00 -4.3342835700e+00 2.5023997859e+00 4.3342835700e+00 
80400 6.3285140532e+00 -3.0361131349e-06 2.5023997859e+00 -4.3342835700e+00 2.5023997859e+00 4.3342835700e+00 
80500 6.3285140535e+00 -8.5404703886e-07 2.5023997859e+00 -4.3342835700e+00 2.5023997859e+00 4.3342835700e+00 
80600 6.3285140537e+00 1.2912423534e-06 2.5023997859e+00 -4.3342835700e+00 2.5023997859e+00 4.3342835700e+00 
80700 6.3285140539e+00 3.3942417100e-06 2.5023997859e+00 -4.3342835700e+00 2.5023997859e+00 4.3342835700e+00 
80800 6.3285140540e+00 5.4497237465e-06 2.5023997859e+00 -4.3342835700e+00 2.5023997859e+00 4.3342835700e+00 
80900 6.3285140541e+00 7.4527554661e-06 2.5023997859e+00 -4.3342835700e+00 2.5023997859e+00 4.3342835700e+00 
81000 6.3285140543e+00 9.3987052925e-06 2.5023997859e+00 -4.3342835700e+00 2.5023997859e+00 4.3342835700e+00 
81100 6.3285140543e+00 1.1283249038e-05 2.5023997859e+00 -4.3342835700e+00 2.5023997859e+00 4.3342835700e+00 
81200 6.3285140544e+00 1.3102374800e-05 2.5023997859e+00 -4.3342835700e+00 2.5023997859e+00 4.3342835700e+00 
81300 6.3285140545e+00 1.4852386712e-05 2.5023997859e+00 -4.3342835700e+00 2.5023997859e+00 4.3342835700e+00 
81400 6.3285140546e+00 1.6529907650e-05 2.5023997859e+00 -4.3342835700e+00 2.5023997859e+00 4.3342835700e+00 
81500 6.3285140546e+00 1.8131880841e-05 2.5023997859e+00 -4.3342835700e+00 2.5023997859e+00 4.3342835700e+00 
81600 6.3285140547e+00 1.9655570454e-05 2.5023997859e+00 -4.3342835700e+00 2.5023997859e+00 4.3342835700e+00 
81700 6.3285140547e+00 2.1098561192e-05 2.5023997859e+00 -4.3342835700e+00 2.5023997859e+00 4.3342835700e+00 
81800 6.3285140548e+00 2.2458756865e-05 2.5023997859e+00 -4.3342835700e+00 2.5023997859e+00 4.3342835700e+00 
81900 6.3285140548e+00 2.3734378058e-05 2.5023997859e+00 -4.3342835700e+00 2.5023997859e+00 4.3342835700e+00 
82000 6.3285140549e+00 2.4923958839e-05 2.5023997859e+00 -4.3342835700e+00 2.5023997859e+00 4.3342835700e+00 
82100 6.3285140549e+00 2.6026342618e-05 2.5023997859e+00 -4.3342835700e+00 2.5023997859e+00 4.3342835700e+00 
82200 6.3285140550e+00 2.7040677156e-05 2.5023997859e+00 -4.3342835700e+00 2.5023997859e+00 4.3342835700e+00 
82300 6.3285140551e+00 2.7966408744e-05 2.5023997859e+00 -4.3342835700e+00 2.5023997859e+00 4.3342835700e+00 
82400 6.3285140552e+00 2.8803275653e-05 2.5023997859e+00 -4.3342835700e+00 2.5023997859e+00 4.3342835700e+00 
82500 6.3285140553e+00 2.9551300825e-05 2.5023997859e+00 -4.3342835700e+00 2.5023997859e+00 4.3342835700e+00 
82600 6.3285140554e+00 3.0210783916e-05 2.5023997859e+00 -4.3342835700e+00 2.5023997859e+00 4.3342835700e+00 
82700 6.3285140556e+00 3.0782292674e-05 2.5023997859e+00 -4.3342835700e+00 2.5023997859e+00 4.3342835700e+00 
82800 6.3285140557e+00 3.1266653738e-05 2.5023997859e+00 -4.3342835700e+00 2.5023997859e+00 4.3342835700e+00 
82900 6.3285140559e+00 3.1664942885e-05 2.5023997859e+00 -4.3342835700e+00 2.5023997859e+00 4.3342835700e+00 
83000 6.3285140560e+00 3.1978474760e-05 2.5023997859e+00 -4.3342835700e+00 2.5023997859e+00 4.3342835700e+00 
83100 6.3285140562e+00 3.2208792181e-05 2.5023997859e+00 -4.3342835700e+00 2.5023997859e+00 4.3342835700e+00 
83200 6.3285140564e+00 3.2357654997e-05 2.5023997859e+00 -4.3342835700e+00 2.5023997859e+00 4.3342835700e+00 
83300 6.3285140566e+00 3.2427028602e-05 2.5023997859e+00 -4.3342835700e+00 2.5023997859e+00 4.3342835700e+00 
83400 6.3285140568e+00 3.2419072105e-05 2.5023997859e+00 -4.3342835700e+00 2.5023997859e+00 4.3342835700e+00 
83500 6.3285140570e+00 3.2336126270e-05 2.5023997859e+00 -4.3342835700e+00 2.5023997859e+00 4.3342835700e+00 
83600 6.3285140573e+00 3.2180701164e-05 2.5023997859e+00 -4.3342835700e+00 2.5023997859e+00 4.3342835700e+00 
83700 6.3285140575e+00 3.1955463680e-05 2.5023997859e+00 -4.3342835700e+00 2.5023997859e+00 4.3342835700e+00 
83800 6.3285140578e+00 3.1663224870e-05 2.5023997859e+00 -4.3342835700e+00 2.5023997859e+00 4.3342835700e+00 
83900 6.3285140580e+00 3.1306927213e-05 2.5023997859e+00 -4.3342835700e+00 2.5023997859e+00 4.3342835700e+00 
84000 6.3285140583e+00 3.0889631809e-05 2.5023997859e+00 -4.3342835700e+00 2.5023997859e+00 4.3342835700e+00 
84100 6.3285140585e+00 3.0414505563e-05 2.5023997859e+00 -4.3342835700e+00 2.5023997859e+00 4.3342835700e+00 
84200 6.3285140588e+00 2.9884808390e-05 2.5023997859e+00 -4.3342835700e+00 2.5023997859e+00 4.3342835700e+00 
84300 6.3285140590e+00 2.9303880499e-05 2.5023997859e+00 -4.3342835700e+00 2.5023997859e+00 4.3342835700e+00 
84400 6.3285140593e+00 2.8675129756e-05 2.5023997859e+00 -4.3342835700e+00 2.5023997859e+00 4.3342835700e+00 
84500 6.3285140595e+00 2.8002019203e-05 2.5023997859e+00 -4.3342835700e+00 2.5023997859e+00 4.3342835700e+00 
84600 6.3285140598e+00 2.7288054732e-05 2.5023997859e+00 -4.3342835700e+00 2.5023997859e+00 4.3342835700e+00 
84700 6.3285140600e+00 2.6536772996e-05 2.5023997859e+00 -4.3342835700e+00 2.5023997859e+00 4.3342835700e+00 
84800 6.3285140603e+00 2.5751729534e-05 2.5023997859e+00 -4.3342835700e+00 2.5023997859e+00 4.3342835700e+00 
84900 6.3285140605e+00 2.4936487152e-05 2.5023997859e+00 -4.3342835700e+00 2.5023997859e+00 4.3342835700e+00 
85000 6.3285140608e+00 2.4094604636e-05 2.5023997859e+00 -4.3342835700e+00 2.5023997859e+00 4.3342835700e+00 
85100 6.3285140610e+00 2.3229625764e-05 2.5023997859e+00 -4.3342835700e+00 2.5023997859e+00 4.3342835700e+00 
85200 6.3285140612e+00 2.2345068680e-05 2.5023997859e+00 -4.3342835700e+00 2.5023997859e+00 4.3342835700e+00 
85300 6.3285140614e+00 2.1444415630e-05 2.5023997859e+00 -4.3342835700e+00 2.5023997859e+00 4.3342835700e+00 
85400 6.3285140616e+00 2.0531103095e-05 2.5023997859e+00 -4.3342835700e+00 2.5023997859e+00 4.3342835700e+00 
85500 6.3285140618e+00 1.9608512340e-05 2.5023997859e+00 -4.3342835700e+00 2.5023997859e+00 4.3342835700e+00 
85600 6.3285140620e+00 1.8679960394e-05 2.5023997859e+00 -4.3342835700e+00 2.5023997859e+00 4.3342835700e+00 
85700 6.3285140622e+00 1.7748691483e-05 2.5023997859e+00 -4.3342835700e+00 2.5023997859e+00 4.3342835700e+00 
85800 6.3285140623e+00 1.6817868906e-05 2.5023997859e+00 -4.3342835700e+00 2.5023997859e+00 4.3342835700e+00 
85900 6.3285140625e+00 1.5890567404e-05 2.5023997859e+00 -4.3342835700e+00 2.5023997859e+00 4.3342835700e+00 
86000 6.3285140626e+00 1.4969766018e-05 2.5023997859e+00 -4.3342835700e+00 2.5023997859e+00 4.3342835700e+00 
86100 6.3285140628e+00 1.4058341414e-05 2.5023997859e+00 -4.3342835700e+00 2.5023997859e+00 4.3342835700e+00 
86200 6.3285140629e+00 1.3159061732e-05 2.5023997859e+00 -4.3342835700e+00 2.5023997859e+00 4.3342835700e+00 
86300 6.3285140630e+00 1.2274580937e-05 2.5023997859e+00 -4.3342835700e+00 2.5023997859e+00 4.3342835700e+00 
86400 6.3285140631e+00 1.1407433678e-05 2.5023997859e+00 -4.3342835700e+00 2.5023997859e+00 4.3342835700e+00 
86500 6.3285140633e+00 1.0560030654e-05 2.5023997859e+00 -4.3342835700e+00 2.5023997859e+00 4.3342835700e+00 
86600 6.3285140634e+00 9.7346544928e-06 2.5023997859e+00 -4.3342835700e+00 2.5023997859e+00 4.3342835700e+00 
86700 6.3285140635e+00 8.9334561534e-06 2.5023997859e+00 -4.3342835700e+00 2.5023997859e+00 4.3342835700e+00 
86800 6.3285140636e+00 8.1584518190e-06 2.5023997859e+00 -4.3342835700e+00 2.5023997859e+00 4.3342835700e+00 
86900 6.3285140637e+00 7.4115202944e-06 2.5023997859e+00 -4.3342835700e+00 2.5023997859e+00 4.3342835700e+00 
87000 6.3285140637e+00 6.6944009223e-06 2.5023997859e+00 -4.3342835700e+00 2.5023997859e+00 4.3342835700e+00 
87100 6.3285140638e+00 6.0086919629e-06 2.5023997859e+00 -4.3342835700e+00 2.5023997859e+00 4.3342835700e+00 
87200 6.3285140639e+00 5.3558494692e-06 2.5023997859e+00 -4.3342835700e+00 2.5023997859e+00 4.3342835700e+00 
87300 6.3285140640e+00 4.7371866376e-06 2.5023997859e+00 -4.3342835700e+00 2.5023997859e+00 4.3342835700e+00 
87400 6.3285140641e+00 4.1538736073e-06 2.5023997859e+00 -4.3342835700e+00 2.5023997859e+00 4.3342835700e+00 
87500 6.3285140641e+00 3.6069377296e-06 2.5023997859e+00 -4.3342835700e+00 2.5023997859e+00 4.3342835700e+00 
87600 6.3285140642e+00 3.0972642376e-06 2.5023997859e+00 -4.3342835700e+00 2.5023997859e+00 4.3342835700e+00 
87700 6.3285140643e+00 2.6255973899e-06 2.5023997859e+00 -4.3342835700e+00 2.5023997859e+00 4.3342835700e+00 
87800 6.3285140644e+00 2.1925419687e-06 2.5023997859e+00 -4.3342835700e+00 2.5023997859e+00 4.3342835700e+00 
87900 6.3285140644e+00 1.7985652043e-06 2.5023997859e+00 -4.3342835700e+00 2.5023997859e+00 4.3342835700e+00 
88000 6.3285140645e+00 1.4439990553e-06 2.5023997859e+00 -4.3342835700e+00 2.5023997859e+00 4.3342835700e+00 
88100 6.3285140646e+00 1.1290428593e-06 2.5023997859e+00 -4.3342835700e+00 2.5023997859e+00 4.3342835700e+00 
88200 6.3285140647e+00 8.5376631605e-07 2.5023997859e+00 -4.3342835700e+00 2.5023997859e+00 4.3342835700e+00 
88300 6.3285140648e+00 6.1811278628e-07 2.5023997859e+00 -4.3342835700e+00 2.5023997859e+00 4.3342835700e+00 
88400 6.3285140649e+00 4.2190290216e-07 2.5023997859e+00 -4.3342835700e+00 2.5023997859e+00 4.3342835700e+00 
88500 6.3285140649e+00 2.6483845658e-07 2.5023997859e+00 -4.3342835700e+00 2.5023997859e+00 4.3342835700e+00 
88600 6.3285140650e+00 1.4650654987e-07 2.5023997859e+00 -4.3342835700e+00 2.5023997859e+00 4.3342835700e+00 
88700 6.3285140651e+00 6.6383986322e-08 2.5023997859e+00 -4.3342835700e+00 2.5023997859e+00 4.3342835700e+00 
88800 6.3285140652e+00 2.3841887438e-08 2.5023997859e+00 -4.3342835700e+00 2.5023997859e+00 4.3342835700e+00 
88900 6.3285140653e+00 1.8150516272e-08 2.5023997859e+00 -4.3342835700e+00 2.5023997859e+00 4.3342835700e+00 
89000 6.3285140654e+00 4.8484262435e-08 2.5023997859e+00 -4.3342835700e+00 2.5023997859e+00 4.3342835700e+00 
89100 6.3285140655e+00 1.1392681163e-07 2.5023997859e+00 -4.3342835700e+00 2.5023997859e+00 4.3342835700e+00 
89200 6.3285140656e+00 2.1347644862e-07 2.5023997859e+00 -4.3342835700e+00 2.5023997859e+00 4.3342835700e+00 
89300 6.3285140657e+00 3.4605147139e-07 2.5023997859e+00 -4.3342835700e+00 2.5023997859e+00 4.3342835700e+00 
89400 6.3285140658e+00 5.1049571611e-07 2.5023997859e+00 -4.3342835700e+00 2.5023997859e+00 4.3342835700e+00 
89500 6.3285140659e+00 7.0558415242e-07 2.5023997859e+00 -4.3342835700e+00 2.5023997859e+00 4.3342835700e+00 
89600 6.3285140660e+00 9.3002856085e-07 2.5023997859e+00 -4.3342835700e+00 2.5023997859e+00 4.3342835700e+00 
89700 6.3285140661e+00 1.1824832206e-06 2.5023997859e+00 -4.3342835700e+00 2.5023997859e+00 4.3342835700e+00 
89800 6.3285140662e+00 1.4615506450e-06 2.5023997859e+00 -4.3342835700e+00 2.5023997859e+00 4.3342835700e+00 
89900 6.3285140663e+00 1.7657873166e-06 2.5023997859e+00 -4.3342835700e+00 2.5023997859e+00 4.3342835700e+00 
90000 6.3285140664e+00 2.0937093997e-06 2.5023997859e+00 -4.3342835700e+00 2.5023997859e+00 4.3342835700e+00 
90100 6.3285140665e+00 2.4437984315e-06 2.5023997859e+00 -4.3342835700e+00 2.5023997859e+00 4.3342835700e+00 
90200 6.3285140666e+00 2.8145069632e-06 2.5023997859e+00 -4.3342835700e+00 2.5023997859e+00 4.3342835700e+00 
90300 6.3285140667e+00 3.2042641436e-06 2.5023997859e+00 -4.3342835700e+00 2.5023997859e+00 4.3342835700e+00 
90400 6.3285140668e+00 3.6114811978e-06 2.5023997859e+00 -4.3342835700e+00 2.5023997859e+00 4.3342835700e+00 
90500 6.3285140669e+00 4.0345568631e-06 2.5023997859e+00 -4.3342835700e+00 2.5023997859e+00 4.3342835700e+00 
90600 6.3285140670e+00 4.4718826590e-06 2.5023997859e+00 -4.3342835700e+00 2.5023997859e+00 4.3342835700e+00 
90700 6.3285140671e+00 4.9218480714e-06 2.5023997859e+00 -4.3342835700e+00 2.5023997859e+00 4.3342835700e+00 
90800 6.3285140671e+00 5.3828456011e-06 2.5023997859e+00 -4.3342835700e+00 2.5023997859e+00 4.3342835700e+00 
90900 6.3285140672e+00 5.8532756480e-06 2.5023997859e+00 -4.3342835700e+00 2.5023997859e+00 4.3342835700e+00 
91000 6.3285140673e+00 6.3315512564e-06 2.5023997859e+00 -4.3342835700e+00 2.5023997859e+00 4.3342835700e+00 
91100 6.3285140674e+00 6.8161026797e-06 2.5023997859e+00 -4.3342835700e+00 2.5023997859e+00 4.3342835700e+00 
91200 6.3285140675e+00 7.3053817832e-06 2.5023997859e+00 -4.3342835700e+00 2.5023997859e+00 4.3342835700e+00 
91300 6.3285140676e+00 7.7978662443e-06 2.5023997859e+00 -4.3342835700e+00 2.5023997859e+00 4.3342835700e+00 
91400 6.3285140676e+00 8.2920635619e-06 2.5023997859e+00 -4.3342835700e+00 2.5023997859e+00 4.3342835700e+00 
91500 6.3285140677e+00 8.7865148802e-06 2.5023997859e+00 -4.3342835700e+00 2.5023997859e+00 4.3342835700e+00 
91600 6.3285140678e+00 9.2797985811e-06 2.5023997859e+00 -4.3342835700e+00 2.5023997859e+00 4.3342835700e+00 
91700 6.3285140679e+00 9.7705336951e-06 2.5023997859e+00 -4.3342835700e+00 2.5023997859e+00 4.3342835700e+00 
91800 6.3285140679e+00 1.0257383056e-05 2.5023997859e+00 -4.3342835700e+00 2.5023997859e+00 4.3342835700e+00 
91900 6.3285140680e+00 1.0739056264e-05 2.5023997859e+00 -4.3342835700e+00 2.5023997859e+00 4.3342835700e+00 
92000 6.3285140681e+00 1.1214312421e-05 2.5023997859e+00 -4.3342835700e+00 2.5023997859e+00 4.3342835700e+00 
92100 6.3285140681e+00 1.1681962618e-05 2.5023997859e+00 -4.3342835700e+00 2.5023997859e+00 4.3342835700e+00 
92200 6.3285140682e+00 1.2140872226e-05 2.5023997859e+00 -4.3342835700e+00 2.5023997859e+00 4.3342835700e+00 
92300 6.3285140682e+00 1.2589962928e-05 2.5023997859e+00 -4.3342835700e+00 2.5023997859e+00 4.3342835700e+00 
92400 6.3285140683e+00 1.3028214537e-05 2.5023997859e+00 -4.3342835700e+00 2.5023997859e+00 4.3342835700e+00 
92500 6.3285140684e+00 1.3454666592e-05 2.5023997859e+00 -4.3342835700e+00 2.5023997859e+00 4.3342835700e+00 
92600 6.3285140684e+00 1.3868419702e-05 2.5023997859e+00 -4.3342835700e+00 2.5023997859e+00 4.3342835700e+00 
92700 6.3285140685e+00 1.4268636700e-05 2.5023997859e+00 -4.3342835700e+00 2.5023997859e+00 4.3342835700e+00 
92800 6.3285140685e+00 1.4654543535e-05 2.5023997859e+00 -4.3342835700e+00 2.5023997859e+00 4.3342835700e+00 
92900 6.3285140686e+00 1.5025429978e-05 2.5023997859e+00 -4.3342835700e+00 2.5023997859e+00 4.3342835700e+00 
93000 6.3285140686e+00 1.5380650093e-05 2.5023997859e+00 -4.3342835700e+00 2.5023997859e+00 4.3342835700e+00 
93100 6.3285140687e+00 1.5719622501e-05 2.5023997859e+00 -4.3342835700e+00 2.5023997859e+00 4.3342835700e+00 
93200 6.3285140687e+00 1.6041830444e-05 2.5023997859e+00 -4.3342835700e+00 2.5023997859e+00 4.3342835700e+00 
93300 6.3285140688e+00 1.6346821637e-05 2.5023997859e+00 -4.3342835700e+00 2.5023997859e+00 4.3342835700e+00 
93400 6.3285140688e+00 1.6634207935e-05 2.5023997859e+00 -4.3342835700e+00 2.5023997859e+00 4.3342835700e+00 
93500 6.3285140689e+00 1.6903664811e-05 2.5023997859e+00 -4.3342835700e+00 2.5023997859e+00 4.3342835700e+00 
93600 6.3285140689e+00 1.7154930638e-05 2.5023997859e+00 -4.3342835700e+00 2.5023997859e+00 4.3342835700e+00 
93700 6.3285140689e+00 1.7387805816e-05 2.5023997859e+00 -4.3342835700e+00 2.5023997859e+00 4.3342835700e+00 
93800 6.3285140690e+00 1.7602151717e-05 2.5023997859e+00 -4.3342835700e+00 2.5023997859e+00 4.3342835700e+00 
93900 6.3285140690e+00 1.7797889486e-05 2.5023997859e+00 -4.3342835700e+00 2.5023997859e+00 4.3342835700e+00 
94000 6.3285140691e+00 1.7974998664e-05 2.5023997859e+00 -4.3342835700e+00 2.5023997859e+00 4.3342835700e+00 
94100 6.3285140691e+00 1.8133515699e-05 2.5023997859e+00 -4.3342835700e+00 2.5023997859e+00 4.3342835700e+00 
94200 6.3285140692e+00 1.8273532302e-05 2.5023997859e+00 -4.3342835700e+00 2.5023997859e+00 4.3342835700e+00 
94300 6.3285140692e+00 1.8395193683e-05 2.5023997859e+00 -4.3342835700e+00 2.5023997859e+00 4.3342835700e+00 
94400 6.3285140693e+00 1.8498696662e-05 2.5023997859e+00 -4.3342835700e+00 2.5023997859e+00 4.3342835700e+00 
94500 6.3285140693e+00 1.8584287701e-05 2.5023997859e+00 -4.3342835700e+00 2.5023997859e+00 4.3342835700e+00 
94600 6.3285140694e+00 1.8652260794e-05 2.5023997859e+00 -4.3342835700e+00 2.5023997859e+00 4.3342835700e+00 
94700 6.3285140694e+00 1.8702955305e-05 2.5023997859e+00 -4.3342835700e+00 2.5023997859e+00 4.3342835700e+00 
94800 6.3285140695e+00 1.8736753694e-05 2.5023997859e+00 -4.3342835700e+00 2.5023997859e+00 4.3342835700e+00 
94900 6.3285140695e+00 1.8754079200e-05 2.5023997859e+00 -4.3342835700e+00 2.5023997859e+00 4.3342835700e+00 
95000 6.3285140695e+00 1.8755393440e-05 2.5023997859e+00 -4.3342835700e+00 2.5023997859e+00 4.3342835700e+00 
95100 6.3285140696e+00 1.8741193969e-05 2.5023997859e+00 -4.3342835700e+00 2.5023997859e+00 4.3342835700e+00 
95200 6.3285140696e+00 1.8712011790e-05 2.5023997859e+00 -4.3342835700e+00 2.5023997859e+00 4.3342835700e+00 
95300 6.3285140697e+00 1.8668408818e-05 2.5023997859e+00 -4.3342835700e+00 2.5023997859e+00 4.3342835700e+00 
95400 6.3285140697e+00 1.8610975339e-05 2.5023997859e+00 -4.3342835700e+00 2.5023997859e+00 4.3342835700e+00 
95500 6.3285140698e+00 1.8540327432e-05 2.5023997859e+00 -4.3342835700e+00 2.5023997859e+00 4.3342835700e+00 
95600 6.3285140698e+00 1.8457104401e-05 2.5023997859e+00 -4.3342835700e+00 2.5023997859e+00 4.3342835700e+00 
95700 6.3285140699e+00 1.8361966167e-05 2.5023997859e+00 -4.3342835700e+00 2.5023997859e+00 4.3342835700e+00 
95800 6.3285140699e+00 1.8255590730e-05 2.5023997859e+00 -4.3342835700e+00 2.5023997859e+00 4.3342835700e+00 
95900 6.3285140699e+00 1.8138671571e-05 2.5023997859e+00 -4.3342835700e+00 2.5023997859e+00 4.3342835700e+00 
96000 6.3285140700e+00 1.8011915137e-05 2.5023997859e+00 -4.3342835700e+00 2.5023997859e+00 4.3342835700e+00 
96100 6.3285140700e+00 1.8001371062e-05 2.5023997859e+00 -4.3342835700e+00 2.5023997859e+00 4.3342835700e+00 
96100 6.3285140700e+00 1.8001371063e-05 2.5023997859e+00 -4.3342835700e+00 2.5023997859e+00 4.3342835700e+00 
