# step Hamiltonian StressXX CellTensor1 CellTensor2 CellTensor3 CellTensor4 
0 5.1321346834e+00 1.3942014604e-01 2.0436807272e+00 -3.5397588540e+00 2.0436807272e+00 3.5397588540e+00 
100 5.1364039050e+00 1.4128048894e-01 2.0436807272e+00 -3.5397588540e+00 2.0436807272e+00 3.5397588540e+00 
200 5.1394758254e+00 1.4167595137e-01 2.0402251827e+00 -3.5337736752e+00 2.0402251827e+00 3.5337736752e+00 
300 5.1417599346e+00 1.4118878631e-01 2.0367541026e+00 -3.5277615882e+00 2.0367541026e+00 3.5277615882e+00 
400 5.1432530586e+00 1.3986091289e-01 2.0332890630e+00 -3.5217599635e+00 2.0332890630e+00 3.5217599635e+00 
500 5.1439984752e+00 1.3778040074e-01 2.0298507565e+00 -3.5158046421e+00 2.0298507565e+00 3.5158046421e+00 
600 5.1440748907e+00 1.3507018872e-01 2.0264578484e+00 -3.5099279529e+00 2.0264578484e+00 3.5099279529e+00 
700 5.1435831306e+00 1.3187257563e-01 2.0231260963e+00 -3.5041571889e+00 2.0231260963e+00 3.5041571889e+00 
800 5.1426328783e+00 1.2833291697e-01 2.0198678438e+00 -3.4985137300e+00 2.0198678438e+00 3.4985137300e+00 
900 5.1413314902e+00 1.2458574935e-01 2.0166919126e+00 -3.4930128559e+00 2.0166919126e+00 3.4930128559e+00 
1000 5.1397760850e+00 1.2074537095e-01 2.0136038382e+00 -3.4876641540e+00 2.0136038382e+00 3.4876641540e+00 
1100 5.1380491441e+00 1.1690138569e-01 2.0106063428e+00 -3.4824723398e+00 2.0106063428e+00 3.4824723398e+00 
1200 5.1362171176e+00 1.1311849076e-01 2.0076999267e+00 -3.4774382794e+00 2.0076999267e+00 3.4774382794e+00 
1300 5.1343311601e+00 1.0943915724e-01 2.0048834700e+00 -3.4725600333e+00 2.0048834700e+00 3.4725600333e+00 
1400 5.1324290852e+00 1.0588778870e-01 2.0021547754e+00 -3.4678337956e+00 2.0021547754e+00 3.4678337956e+00 
1500 5.1305378015e+00 1.0247522906e-01 1.9995110125e+00 -3.4632546640e+00 1.9995110125e+00 3.4632546640e+00 
1600 5.1286757340e+00 9.9202896152e-02 1.9969490533e+00 -3.4588172205e+00 1.9969490533e+00 3.4588172205e+00 
1700 5.1268549620e+00 9.6066186544e-02 1.9944657074e+00 -3.4545159392e+00 1.9944657074e+00 3.4545159392e+00 
1800 5.1250829660e+00 9.3057061491e-02 1.9920578738e+00 -3.4503454491e+00 1.9920578738e+00 3.4503454491e+00 
1900 5.1233639810e+00 9.0165878991e-02 1.9897226291e+00 -3.4463006865e+00 1.9897226291e+00 3.4463006865e+00 
2000 5.1217000043e+00 8.7382606425e-02 1.9874572694e+00 -3.4423769685e+00 1.9874572694e+00 3.4423769685e+00 
2100 5.1200915229e+00 8.4697563235e-02 1.9852593233e+00 -3.4385700142e+00 1.9852593233e+00 3.4385700142e+00 
2200 5.1185380266e+00 8.2101829054e-02 1.9831265445e+00 -3.4348759330e+00 1.9831265445e+00 3.4348759330e+00 
2300 5.1170383645e+00 7.9587427035e-02 1.9810568952e+00 -3.4312911952e+00 1.9810568952e+00 3.4312911952e+00 
2400 5.1155909873e+00 7.7147364976e-02 1.9790485237e+00 -3.4278125937e+00 1.9790485237e+00 3.4278125937e+00 
2500 5.1141941122e+00 7.4775592905e-02 1.9770997415e+00 -3.4244372040e+00 1.9770997415e+00 3.4244372040e+00 
2600 5.1128458321e+00 7.2466916797e-02 1.9752090008e+00 -3.4211623449e+00 1.9752090008e+00 3.4211623449e+00 
2700 5.1115441895e+00 7.0216893935e-02 1.9733748736e+00 -3.4179855435e+00 1.9733748736e+00 3.4179855435e+00 
2800 5.1102872237e+00 6.8021725479e-02 1.9715960344e+00 -3.4149045035e+00 1.9715960344e+00 3.4149045035e+00 
2900 5.1090730022e+00 6.5878155012e-02 1.9698712440e+00 -3.4119170790e+00 1.9698712440e+00 3.4119170790e+00 
3000 5.1078996411e+00 6.3783377458e-02 1.9681993371e+00 -3.4090212512e+00 1.9681993371e+00 3.4090212512e+00 
3100 5.1067653171e+00 6.1734960014e-02 1.9665792111e+00 -3.4062151107e+00 1.9665792111e+00 3.4062151107e+00 
3200 5.1056682745e+00 5.9730775162e-02 1.9650098174e+00 -3.4034968410e+00 1.9650098174e+00 3.4034968410e+00 
3300 5.1046068300e+00 5.7768944886e-02 1.9634901540e+00 -3.4008647068e+00 1.9634901540e+00 3.4008647068e+00 
3400 5.1035793735e+00 5.5847794885e-02 1.9620192598e+00 -3.3983170433e+00 1.9620192598e+00 3.3983170433e+00 
3500 5.1025843682e+00 5.3965817357e-02 1.9605962096e+00 -3.3958522481e+00 1.9605962096e+00 3.3958522481e+00 
3600 5.1016203500e+00 5.2121641031e-02 1.9592201103e+00 -3.3934687743e+00 1.9592201103e+00 3.3934687743e+00 
3700 5.1006859252e+00 5.0314007177e-02 1.9578900980e+00 -3.3911651253e+00 1.9578900980e+00 3.3911651253e+00 
3800 5.0997797688e+00 4.8541750511e-02 1.9566053348e+00 -3.3889398503e+00 1.9566053348e+00 3.3889398503e+00 
3900 5.0989006215e+00 4.6803784050e-02 1.9553650076e+00 -3.3867915405e+00 1.9553650076e+00 3.3867915405e+00 
4000 5.0980472873e+00 4.5099087136e-02 1.9541683255e+00 -3.3847188262e+00 1.9541683255e+00 3.3847188262e+00 
4100 5.0972186307e+00 4.3426695974e-02 1.9530145189e+00 -3.3827203746e+00 1.9530145189e+00 3.3827203746e+00 
4200 5.0964135736e+00 4.1785696164e-02 1.9519028381e+00 -3.3807948870e+00 1.9519028381e+00 3.3807948870e+00 
4300 5.0956310928e+00 4.0175216786e-02 1.9508325524e+00 -3.3789410978e+00 1.9508325524e+00 3.3789410978e+00 
4400 5.0948702172e+00 3.8594425711e-02 1.9498029489e+00 -3.3771577722e+00 1.9498029489e+00 3.3771577722e+00 
4500 5.0941300249e+00 3.7042525866e-02 1.9488133320e+00 -3.3754437054e+00 1.9488133320e+00 3.3754437054e+00 
4600 5.0934096409e+00 3.5518752222e-02 1.9478630225e+00 -3.3737977212e+00 1.9478630225e+00 3.3737977212e+00 
4700 5.0927082341e+00 3.4022369360e-02 1.9469513573e+00 -3.3722186707e+00 1.9469513573e+00 3.3722186707e+00 
4800 5.0920250153e+00 3.2552669475e-02 1.9460776882e+00 -3.3707054315e+00 1.9460776882e+00 3.3707054315e+00 
4900 5.0913592350e+00 3.1108970706e-02 1.9452413820e+00 -3.3692569067e+00 1.9452413820e+00 3.3692569067e+00 
5000 5.0907101805e+00 2.9690615733e-02 1.9444418196e+00 -3.3678720239e+00 1.9444418196e+00 3.3678720239e+00 
5100 5.0900771745e+00 2.8296970569e-02 1.9436783956e+00 -3.3665497347e+00 1.9436783956e+00 3.3665497347e+00 
5200 5.0894595730e+00 2.6927423495e-02 1.9429505179e+00 -3.3652890136e+00 1.9429505179e+00 3.3652890136e+00 
5300 5.0888567631e+00 2.5581384126e-02 1.9422576072e+00 -3.3640888571e+00 1.9422576072e+00 3.3640888571e+00 
5400 5.0882681614e+00 2.4258282550e-02 1.9415990968e+00 -3.3629482836e+00 1.9415990968e+00 3.3629482836e+00 
5500 5.0876932122e+00 2.2957568548e-02 1.9409744318e+00 -3.3618663320e+00 1.9409744318e+00 3.3618663320e+00 
5600 5.0871313864e+00 2.1678710868e-02 1.9403830689e+00 -3.3608420615e+00 1.9403830689e+00 3.3608420615e+00 
5700 5.0865821793e+00 2.0421196534e-02 1.9398244764e+00 -3.3598745509e+00 1.9398244764e+00 3.3598745509e+00 
5800 5.0860451097e+00 1.9184530200e-02 1.9392981331e+00 -3.3589628975e+00 1.9392981331e+00 3.3589628975e+00 
5900 5.0855197182e+00 1.7968233527e-02 1.9388035285e+00 -3.3581062173e+00 1.9388035285e+00 3.3581062173e+00 
6000 5.0850055664e+00 1.6771844589e-02 1.9383401624e+00 -3.3573036436e+00 1.9383401624e+00 3.3573036436e+00 
6100 5.0845022353e+00 1.5594917299e-02 1.9379075443e+00 -3.3565543271e+00 1.9379075443e+00 3.3565543271e+00 
6200 5.0840093245e+00 1.4437020855e-02 1.9375051934e+00 -3.3558574348e+00 1.9375051934e+00 3.3558574348e+00 
6300 5.0835264509e+00 1.3297739203e-02 1.9371326380e+00 -3.3552121501e+00 1.9371326380e+00 3.3552121501e+00 
6400 5.0830532481e+00 1.2176670517e-02 1.9367894156e+00 -3.3546176714e+00 1.9367894156e+00 3.3546176714e+00 
6500 5.0825893650e+00 1.1073426696e-02 1.9364750722e+00 -3.3540732126e+00 1.9364750722e+00 3.3540732126e+00 
6600 5.0821344654e+00 9.9876328772e-03 1.9361891621e+00 -3.3535780018e+00 1.9361891621e+00 3.3535780018e+00 
6700 5.0816882269e+00 8.9189269587e-03 1.9359312480e+00 -3.3531312815e+00 1.9359312480e+00 3.3531312815e+00 
6800 5.0812503404e+00 7.8669591439e-03 1.9357009002e+00 -3.3527323074e+00 1.9357009002e+00 3.3527323074e+00 
6900 5.0808205092e+00 6.8313914949e-03 1.9354976967e+00 -3.3523803487e+00 1.9354976967e+00 3.3523803487e+00 
7000 5.0803984483e+00 5.8118975022e-03 1.9353212231e+00 -3.3520746873e+00 1.9353212231e+00 3.3520746873e+00 
7100 5.0799838839e+00 4.8081616673e-03 1.9351710717e+00 -3.3518146175e+00 1.9351710717e+00 3.3518146175e+00 
7200 5.0795765530e+00 3.8198790989e-03 1.9350468421e+00 -3.3515994456e+00 1.9350468421e+00 3.3515994456e+00 
7300 5.0791762024e+00 2.8467551224e-03 1.9349481405e+00 -3.3514284893e+00 1.9349481405e+00 3.3514284893e+00 
7400 5.0787825886e+00 1.8885049022e-03 1.9348745794e+00 -3.3513010778e+00 1.9348745794e+00 3.3513010778e+00 
7500 5.0783954771e+00 9.4485307684e-04 1.9348257779e+00 -3.3512165510e+00 1.9348257779e+00 3.3512165510e+00 
7600 5.0780146419e+00 1.5533406707e-05 1.9348013609e+00 -3.3511742596e+00 1.9348013609e+00 3.3511742596e+00 
7700 5.0776398647e+00 -8.9964367577e-04 1.9348013609e+00 -3.3511742596e+00 1.9348013609e+00 3.3511742596e+00 
7800 5.0772709364e+00 -1.8010623963e-03 1.9348246099e+00 -3.3512145282e+00 1.9348246099e+00 3.3512145282e+00 
7900 5.0769076544e+00 -2.6888966675e-03 1.9348711534e+00 -3.3512951438e+00 1.9348711534e+00 3.3512951438e+00 
8000 5.0765498233e+00 -3.5633794308e-03 1.9349406390e+00 -3.3514154964e+00 1.9349406390e+00 3.3514154964e+00 
8100 5.0761972546e+00 -4.4247361163e-03 1.9350327195e+00 -3.3515749846e+00 1.9350327195e+00 3.3515749846e+00 
8200 5.0758497660e+00 -5.2731849208e-03 1.9351470530e+00 -3.3517730159e+00 1.9351470530e+00 3.3517730159e+00 
8300 5.0755071814e+00 -6.1089370776e-03 1.9352833023e+00 -3.3520090066e+00 1.9352833023e+00 3.3520090066e+00 
8400 5.0751693307e+00 -6.9321971163e-03 1.9354411350e+00 -3.3522823808e+00 1.9354411350e+00 3.3522823808e+00 
8500 5.0748360494e+00 -7.7431631151e-03 1.9356202234e+00 -3.3525925712e+00 1.9356202234e+00 3.3525925712e+00 
8600 5.0745071783e+00 -8.5420269435e-03 1.9358202445e+00 -3.3529390178e+00 1.9358202445e+00 3.3529390178e+00 
8700 5.0741825633e+00 -9.3289744966e-03 1.9360408794e+00 -3.3533211686e+00 1.9360408794e+00 3.3533211686e+00 
8800 5.0738620555e+00 -1.0104185921e-02 1.9362818136e+00 -3.3537384788e+00 1.9362818136e+00 3.3537384788e+00 
8900 5.0735455106e+00 -1.0867835833e-02 1.9365427366e+00 -3.3541904109e+00 1.9365427366e+00 3.3541904109e+00 
9000 5.0732327887e+00 -1.1620093528e-02 1.9368233423e+00 -3.3546764342e+00 1.9368233423e+00 3.3546764342e+00 
9100 5.0729237546e+00 -1.2361123184e-02 1.9371233282e+00 -3.3551960250e+00 1.9371233282e+00 3.3551960250e+00 
9200 5.0726182770e+00 -1.3091084053e-02 1.9374423957e+00 -3.3557486662e+00 1.9374423957e+00 3.3557486662e+00 
9300 5.0723162289e+00 -1.3810130652e-02 1.9377802500e+00 -3.3563338470e+00 1.9377802500e+00 3.3563338470e+00 
9400 5.0720174871e+00 -1.4518412942e-02 1.9381365999e+00 -3.3569510630e+00 1.9381365999e+00 3.3569510630e+00 
9500 5.0717219321e+00 -1.5216076503e-02 1.9385111576e+00 -3.3575998160e+00 1.9385111576e+00 3.3575998160e+00 
9600 5.0714294482e+00 -1.5903262699e-02 1.9389036389e+00 -3.3582796136e+00 1.9389036389e+00 3.3582796136e+00 
9700 5.0711399231e+00 -1.6580108841e-02 1.9393137631e+00 -3.3589899695e+00 1.9393137631e+00 3.3589899695e+00 
9800 5.0708532478e+00 -1.7246748341e-02 1.9397412524e+00 -3.3597304027e+00 1.9397412524e+00 3.3597304027e+00 
9900 5.0705693167e+00 -1.7903310862e-02 1.9401858325e+00 -3.3605004380e+00 1.9401858325e+00 3.3605004380e+00 
10000 5.0702880273e+00 -1.8549922461e-02 1.9406472321e+00 -3.3612996056e+00 1.9406472321e+00 3.3612996056e+00 
10100 5.0700092803e+00 -1.9186705727e-02 1.9411251830e+00 -3.3621274409e+00 1.9411251830e+00 3.3621274409e+00 
10200 5.0697329791e+00 -1.9813779915e-02 1.9416194201e+00 -3.3629834846e+00 1.9416194201e+00 3.3629834846e+00 
10300 5.0694590301e+00 -2.0431261073e-02 1.9421296809e+00 -3.3638672823e+00 1.9421296809e+00 3.3638672823e+00 
10400 5.0691873427e+00 -2.1039262165e-02 1.9426557061e+00 -3.3647783847e+00 1.9426557061e+00 3.3647783847e+00 
10500 5.0689178286e+00 -2.1637893192e-02 1.9431972390e+00 -3.3657163471e+00 1.9431972390e+00 3.3657163471e+00 
10600 5.0686504024e+00 -2.2227261303e-02 1.9437540257e+00 -3.3666807299e+00 1.9437540257e+00 3.3666807299e+00 
10700 5.0683849812e+00 -2.2807470907e-02 1.9443258149e+00 -3.3676710979e+00 1.9443258149e+00 3.3676710979e+00 
10800 5.0681214845e+00 -2.3378623777e-02 1.9449123580e+00 -3.3686870203e+00 1.9449123580e+00 3.3686870203e+00 
10900 5.0678598343e+00 -2.3940819155e-02 1.9455134089e+00 -3.3697280710e+00 1.9455134089e+00 3.3697280710e+00 
11000 5.0675999548e+00 -2.4494153845e-02 1.9461287241e+00 -3.3707938283e+00 1.9461287241e+00 3.3707938283e+00 
11100 5.0673417725e+00 -2.5038722313e-02 1.9467580626e+00 -3.3718838745e+00 1.9467580626e+00 3.3718838745e+00 
11200 5.0670852163e+00 -2.5574616774e-02 1.9474011857e+00 -3.3729977963e+00 1.9474011857e+00 3.3729977963e+00 
11300 5.0668302171e+00 -2.6101927281e-02 1.9480578571e+00 -3.3741351845e+00 1.9480578571e+00 3.3741351845e+00 
11400 5.0665767079e+00 -2.6620741807e-02 1.9487278429e+00 -3.3752956340e+00 1.9487278429e+00 3.3752956340e+00 
11500 5.0663246238e+00 -2.7131146331e-02 1.9494109115e+00 -3.3764787436e+00 1.9494109115e+00 3.3764787436e+00 
11600 5.0660739018e+00 -2.7633224911e-02 1.9501068335e+00 -3.3776841159e+00 1.9501068335e+00 3.3776841159e+00 
11700 5.0658244809e+00 -2.8127059760e-02 1.9508153818e+00 -3.3789113575e+00 1.9508153818e+00 3.3789113575e+00 
11800 5.0655763020e+00 -2.8612731323e-02 1.9515363314e+00 -3.3801600789e+00 1.9515363314e+00 3.3801600789e+00 
11900 5.0653293079e+00 -2.9090318340e-02 1.9522694595e+00 -3.3814298940e+00 1.9522694595e+00 3.3814298940e+00 
12000 5.0650834431e+00 -2.9559897918e-02 1.9530145454e+00 -3.3827204206e+00 1.9530145454e+00 3.3827204206e+00 
12100 5.0648386539e+00 -3.0021545593e-02 1.9537713704e+00 -3.3840312800e+00 1.9537713704e+00 3.3840312800e+00 
12200 5.0645948884e+00 -3.0475335395e-02 1.9545397181e+00 -3.3853620971e+00 1.9545397181e+00 3.3853620971e+00 
12300 5.0643520963e+00 -3.0921339905e-02 1.9553193738e+00 -3.3867125004e+00 1.9553193738e+00 3.3867125004e+00 
12400 5.0641102289e+00 -3.1359630314e-02 1.9561101250e+00 -3.3880821217e+00 1.9561101250e+00 3.3880821217e+00 
12500 5.0638692393e+00 -3.1790276480e-02 1.9569117611e+00 -3.3894705962e+00 1.9569117611e+00 3.3894705962e+00 
12600 5.0636290818e+00 -3.2213346979e-02 1.9577240735e+00 -3.3908775626e+00 1.9577240735e+00 3.3908775626e+00 
12700 5.0633897125e+00 -3.2628909160e-02 1.9585468555e+00 -3.3923026628e+00 1.9585468555e+00 3.3923026628e+00 
12800 5.0631510891e+00 -3.3037029191e-02 1.9593799023e+00 -3.3937455421e+00 1.9593799023e+00 3.3937455421e+00 
12900 5.0629131704e+00 -3.3437772109e-02 1.9602230108e+00 -3.3952058488e+00 1.9602230108e+00 3.3952058488e+00 
13000 5.0626759170e+00 -3.3831201868e-02 1.9610759799e+00 -3.3966832348e+00 1.9610759799e+00 3.3966832348e+00 
13100 5.0624392907e+00 -3.4217381381e-02 1.9619386105e+00 -3.3981773547e+00 1.9619386105e+00 3.3981773547e+00 
13200 5.0622032546e+00 -3.4596372561e-02 1.9628107049e+00 -3.3996878666e+00 1.9628107049e+00 3.3996878666e+00 
13300 5.0619677733e+00 -3.4968236368e-02 1.9636920676e+00 -3.4012144314e+00 1.9636920676e+00 3.4012144314e+00 
13400 5.0617328126e+00 -3.5333032845e-02 1.9645825045e+00 -3.4027567134e+00 1.9645825045e+00 3.4027567134e+00 
13500 5.0614983396e+00 -3.5690821157e-02 1.9654818235e+00 -3.4043143796e+00 1.9654818235e+00 3.4043143796e+00 
13600 5.0612643226e+00 -3.6041659627e-02 1.9663898341e+00 -3.4058871001e+00 1.9663898341e+00 3.4058871001e+00 
13700 5.0610307313e+00 -3.6385605776e-02 1.9673063476e+00 -3.4074745481e+00 1.9673063476e+00 3.4074745481e+00 
13800 5.0607975365e+00 -3.6722716351e-02 1.9682311770e+00 -3.4090763996e+00 1.9682311770e+00 3.4090763996e+00 
13900 5.0605647099e+00 -3.7053047364e-02 1.9691641369e+00 -3.4106923336e+00 1.9691641369e+00 3.4106923336e+00 
14000 5.0603322248e+00 -3.7376654121e-02 1.9701050437e+00 -3.4123220319e+00 1.9701050437e+00 3.4123220319e+00 
14100 5.0601000552e+00 -3.7693591251e-02 1.9710537152e+00 -3.4139651792e+00 1.9710537152e+00 3.4139651792e+00 
14200 5.0598681765e+00 -3.8003912742e-02 1.9720099712e+00 -3.4156214632e+00 1.9720099712e+00 3.4156214632e+00 
14300 5.0596365650e+00 -3.8307671962e-02 1.9729736328e+00 -3.4172905740e+00 1.9729736328e+00 3.4172905740e+00 
14400 5.0594051982e+00 -3.8604921693e-02 1.9739445229e+00 -3.4189722050e+00 1.9739445229e+00 3.4189722050e+00 
14500 5.0591740543e+00 -3.8895714152e-02 1.9749224660e+00 -3.4206660521e+00 1.9749224660e+00 3.4206660521e+00 
14600 5.0589431127e+00 -3.9180101023e-02 1.9759072881e+00 -3.4223718140e+00 1.9759072881e+00 3.4223718140e+00 
14700 5.0587123540e+00 -3.9458133475e-02 1.9768988168e+00 -3.4240891921e+00 1.9768988168e+00 3.4240891921e+00 
14800 5.0584817593e+00 -3.9729862191e-02 1.9778968813e+00 -3.4258178906e+00 1.9778968813e+00 3.4258178906e+00 
14900 5.0582513109e+00 -3.9995337388e-02 1.9789013124e+00 -3.4275576163e+00 1.9789013124e+00 3.4275576163e+00 
15000 5.0580209921e+00 -4.0254608840e-02 1.9799119424e+00 -3.4293080787e+00 1.9799119424e+00 3.4293080787e+00 
15100 5.0577907867e+00 -4.0507725901e-02 1.9809286051e+00 -3.4310689902e+00 1.9809286051e+00 3.4310689902e+00 
15200 5.0575606798e+00 -4.0754737522e-02 1.9819511358e+00 -3.4328400654e+00 1.9819511358e+00 3.4328400654e+00 
15300 5.0573306571e+00 -4.0995692274e-02 1.9829793716e+00 -3.4346210219e+00 1.9829793716e+00 3.4346210219e+00 
15400 5.0571007051e+00 -4.1230638366e-02 1.9840131507e+00 -3.4364115798e+00 1.9840131507e+00 3.4364115798e+00 
15500 5.0568708114e+00 -4.1459623662e-02 1.9850523130e+00 -3.4382114618e+00 1.9850523130e+00 3.4382114618e+00 
15600 5.0566409640e+00 -4.1682695701e-02 1.9860967000e+00 -3.4400203932e+00 1.9860967000e+00 3.4400203932e+00 
15700 5.0564111519e+00 -4.1899901712e-02 1.9871461546e+00 -3.4418381018e+00 1.9871461546e+00 3.4418381018e+00 
15800 5.0561813649e+00 -4.2111288633e-02 1.9882005210e+00 -3.4436643180e+00 1.9882005210e+00 3.4436643180e+00 
15900 5.0559515933e+00 -4.2316903123e-02 1.9892596452e+00 -3.4454987749e+00 1.9892596452e+00 3.4454987749e+00 
16000 5.0557218283e+00 -4.2516791582e-02 1.9903233744e+00 -3.4473412080e+00 1.9903233744e+00 3.4473412080e+00 
16100 5.0554920618e+00 -4.2711000160e-02 1.9913915574e+00 -3.4491913552e+00 1.9913915574e+00 3.4491913552e+00 
16200 5.0552622863e+00 -4.2899574775e-02 1.9924640444e+00 -3.4510489572e+00 1.9924640444e+00 3.4510489572e+00 
16300 5.0550324951e+00 -4.3082561127e-02 1.9935406871e+00 -3.4529137570e+00 1.9935406871e+00 3.4529137570e+00 
16400 5.0548026819e+00 -4.3260004706e-02 1.9946213385e+00 -3.4547855001e+00 1.9946213385e+00 3.4547855001e+00 
16500 5.0545728413e+00 -4.3431950813e-02 1.9957058532e+00 -3.4566639347e+00 1.9957058532e+00 3.4566639347e+00 
16600 5.0543429684e+00 -4.3598444561e-02 1.9967940871e+00 -3.4585488111e+00 1.9967940871e+00 3.4585488111e+00 
16700 5.0541130588e+00 -4.3759530897e-02 1.9978858976e+00 -3.4604398824e+00 1.9978858976e+00 3.4604398824e+00 
16800 5.0538831089e+00 -4.3915254606e-02 1.9989811435e+00 -3.4623369039e+00 1.9989811435e+00 3.4623369039e+00 
16900 5.0536531156e+00 -4.4065660324e-02 2.0000796850e+00 -3.4642396336e+00 2.0000796850e+00 3.4642396336e+00 
17000 5.0534230762e+00 -4.4210792549e-02 2.0011813837e+00 -3.4661478316e+00 2.0011813837e+00 3.4661478316e+00 
17100 5.0531929888e+00 -4.4350695650e-02 2.0022861025e+00 -3.4680612609e+00 2.0022861025e+00 3.4680612609e+00 
17200 5.0529628517e+00 -4.4485413873e-02 2.0033937060e+00 -3.4699796864e+00 2.0033937060e+00 3.4699796864e+00 
17300 5.0527326641e+00 -4.4614991357e-02 2.0045040599e+00 -3.4719028758e+00 2.0045040599e+00 3.4719028758e+00 
17400 5.0525024254e+00 -4.4739472135e-02 2.0056170314e+00 -3.4738305990e+00 2.0056170314e+00 3.4738305990e+00 
17500 5.0522721357e+00 -4.4858900146e-02 2.0067324891e+00 -3.4757626283e+00 2.0067324891e+00 3.4757626283e+00 
17600 5.0520417954e+00 -4.4973319243e-02 2.0078503028e+00 -3.4776987384e+00 2.0078503028e+00 3.4776987384e+00 
17700 5.0518114054e+00 -4.5082773198e-02 2.0089703439e+00 -3.4796387065e+00 2.0089703439e+00 3.4796387065e+00 
17800 5.0515809671e+00 -4.5187305712e-02 2.0100924851e+00 -3.4815823121e+00 2.0100924851e+00 3.4815823121e+00 
17900 5.0513504824e+00 -4.5286960417e-02 2.0112166004e+00 -3.4835293369e+00 2.0112166004e+00 3.4835293369e+00 
18000 5.0511199535e+00 -4.5381780887e-02 2.0123425652e+00 -3.4854795652e+00 2.0123425652e+00 3.4854795652e+00 
18100 5.0508893830e+00 -4.5471810642e-02 2.0134702563e+00 -3.4874327835e+00 2.0134702563e+00 3.4874327835e+00 
18200 5.0506587740e+00 -4.5557093153e-02 2.0145995519e+00 -3.4893887807e+00 2.0145995519e+00 3.4893887807e+00 
18300 5.0504281300e+00 -4.5637671846e-02 2.0157303312e+00 -3.4913473480e+00 2.0157303312e+00 3.4913473480e+00 
18400 5.0501974547e+00 -4.5713590112e-02 2.0168624753e+00 -3.4933082790e+00 2.0168624753e+00 3.4933082790e+00 
18500 5.0499667523e+00 -4.5784891306e-02 2.0179958661e+00 -3.4952713695e+00 2.0179958661e+00 3.4952713695e+00 
18600 5.0497360275e+00 -4.5851618754e-02 2.0191303872e+00 -3.4972364178e+00 2.0191303872e+00 3.4972364178e+00 
18700 5.0495052850e+00 -4.5913815756e-02 2.0202659234e+00 -3.4992032242e+00 2.0202659234e+00 3.4992032242e+00 
18800 5.0492745302e+00 -4.5971525592e-02 2.0214023609e+00 -3.5011715916e+00 2.0214023609e+00 3.5011715916e+00 
18900 5.0490437685e+00 -4.6024791521e-02 2.0225395871e+00 -3.5031413251e+00 2.0225395871e+00 3.5031413251e+00 
19000 5.0488130058e+00 -4.6073656790e-02 2.0236774907e+00 -3.5051122321e+00 2.0236774907e+00 3.5051122321e+00 
19100 5.0485822483e+00 -4.6118164631e-02 2.0248159620e+00 -3.5070841222e+00 2.0248159620e+00 3.5070841222e+00 
19200 5.0483515025e+00 -4.6158358268e-02 2.0259548923e+00 -3.5090568073e+00 2.0259548923e+00 3.5090568073e+00 
19300 5.0481207751e+00 -4.6194280917e-02 2.0270941744e+00 -3.5110301017e+00 2.0270941744e+00 3.5110301017e+00 
19400 5.0478900731e+00 -4.6225975789e-02 2.0282337022e+00 -3.5130038219e+00 2.0282337022e+00 3.5130038219e+00 
19500 5.0476594038e+00 -4.6253486091e-02 2.0293733713e+00 -3.5149777865e+00 2.0293733713e+00 3.5149777865e+00 
19600 5.0474287747e+00 -4.6276855030e-02 2.0305130781e+00 -3.5169518166e+00 2.0305130781e+00 3.5169518166e+00 
19700 5.0471981937e+00 -4.6296125809e-02 2.0316527206e+00 -3.5189257354e+00 2.0316527206e+00 3.5189257354e+00 
19800 5.0469676689e+00 -4.6311341636e-02 2.0327921981e+00 -3.5208993683e+00 2.0327921981e+00 3.5208993683e+00 
19900 5.0467372083e+00 -4.6322545716e-02 2.0339314110e+00 -3.5228725430e+00 2.0339314110e+00 3.5228725430e+00 
20000 5.0465068206e+00 -4.6329781260e-02 2.0350702613e+00 -3.5248450895e+00 2.0350702613e+00 3.5248450895e+00 
20100 5.0462765145e+00 -4.6333091477e-02 2.0362086519e+00 -3.5268168399e+00 2.0362086519e+00 3.5268168399e+00 
20200 5.0460462989e+00 -4.6332519584e-02 2.0373464872e+00 -3.5287876285e+00 2.0373464872e+00 3.5287876285e+00 
20300 5.0458161828e+00 -4.6328108795e-02 2.0384836730e+00 -3.5307572920e+00 2.0384836730e+00 3.5307572920e+00 
20400 5.0455861757e+00 -4.6319902331e-02 2.0396201160e+00 -3.5327256690e+00 2.0396201160e+00 3.5327256690e+00 
20500 5.0453562869e+00 -4.6307943411e-02 2.0407557245e+00 -3.5346926006e+00 2.0407557245e+00 3.5346926006e+00 
20600 5.0451265262e+00 -4.6292275258e-02 2.0418904078e+00 -3.5366579299e+00 2.0418904078e+00 3.5366579299e+00 
20700 5.0448969034e+00 -4.6272941094e-02 2.0430240768e+00 -3.5386215021e+00 2.0430240768e+00 3.5386215021e+00 
20800 5.0446674284e+00 -4.6249984139e-02 2.0441566433e+00 -3.5405831649e+00 2.0441566433e+00 3.5405831649e+00 
20900 5.0444381116e+00 -4.6223447613e-02 2.0452880206e+00 -3.5425427678e+00 2.0452880206e+00 3.5425427678e+00 
21000 5.0442089630e+00 -4.6193374732e-02 2.0464181231e+00 -3.5445001628e+00 2.0464181231e+00 3.5445001628e+00 
21100 5.0439799933e+00 -4.6159808704e-02 2.0475468665e+00 -3.5464552037e+00 2.0475468665e+00 3.5464552037e+00 
21200 5.0437512130e+00 -4.6122792735e-02 2.0486741677e+00 -3.5484077466e+00 2.0486741677e+00 3.5484077466e+00 
21300 5.0435226328e+00 -4.6082370016e-02 2.0497999449e+00 -3.5503576500e+00 2.0497999449e+00 3.5503576500e+00 
21400 5.0432942635e+00 -4.6038583732e-02 2.0509241176e+00 -3.5523047741e+00 2.0509241176e+00 3.5523047741e+00 
21500 5.0430661161e+00 -4.5991477051e-02 2.0520466062e+00 -3.5542489814e+00 2.0520466062e+00 3.5542489814e+00 
21600 5.0428382017e+00 -4.5941093126e-02 2.0531673327e+00 -3.5561901367e+00 2.0531673327e+00 3.5561901367e+00 
21700 5.0426105313e+00 -4.5887475092e-02 2.0542862202e+00 -3.5581281066e+00 2.0542862202e+00 3.5581281066e+00 
21800 5.0423831164e+00 -4.5830666059e-02 2.0554031928e+00 -3.5600627600e+00 2.0554031928e+00 3.5600627600e+00 
21900 5.0421559682e+00 -4.5770709117e-02 2.0565181762e+00 -3.5619939678e+00 2.0565181762e+00 3.5619939678e+00 
22000 5.0419290981e+00 -4.5707647326e-02 2.0576310969e+00 -3.5639216031e+00 2.0576310969e+00 3.5639216031e+00 
22100 5.0417025178e+00 -4.5641523713e-02 2.0587418829e+00 -3.5658455409e+00 2.0587418829e+00 3.5658455409e+00 
22200 5.0414762388e+00 -4.5572381274e-02 2.0598504633e+00 -3.5677656585e+00 2.0598504633e+00 3.5677656585e+00 
22300 5.0412502727e+00 -4.5500262964e-02 2.0609567683e+00 -3.5696818350e+00 2.0609567683e+00 3.5696818350e+00 
22400 5.0410246314e+00 -4.5425211699e-02 2.0620607295e+00 -3.5715939517e+00 2.0620607295e+00 3.5715939517e+00 
22500 5.0407993266e+00 -4.5347270346e-02 2.0631622793e+00 -3.5735018920e+00 2.0631622793e+00 3.5735018920e+00 
22600 5.0405743702e+00 -4.5266481727e-02 2.0642613517e+00 -3.5754055412e+00 2.0642613517e+00 3.5754055412e+00 
22700 5.0403497740e+00 -4.5182888607e-02 2.0653578816e+00 -3.5773047868e+00 2.0653578816e+00 3.5773047868e+00 
22800 5.0401255500e+00 -4.5096533694e-02 2.0664518052e+00 -3.5791995180e+00 2.0664518052e+00 3.5791995180e+00 
22900 5.0399017102e+00 -4.5007459635e-02 2.0675430598e+00 -3.5810896264e+00 2.0675430598e+00 3.5810896264e+00 
23000 5.0396782666e+00 -4.4915709009e-02 2.0686315839e+00 -3.5829750054e+00 2.0686315839e+00 3.5829750054e+00 
23100 5.0394552313e+00 -4.4821324326e-02 2.0697173170e+00 -3.5848555503e+00 2.0697173170e+00 3.5848555503e+00 
23200 5.0392326163e+00 -4.4724348019e-02 2.0708001999e+00 -3.5867311585e+00 2.0708001999e+00 3.5867311585e+00 
23300 5.0390104338e+00 -4.4624822443e-02 2.0718801745e+00 -3.5886017294e+00 2.0718801745e+00 3.5886017294e+00 
23400 5.0387886958e+00 -4.4522789866e-02 2.0729571838e+00 -3.5904671643e+00 2.0729571838e+00 3.5904671643e+00 
23500 5.0385674145e+00 -4.4418292468e-02 2.0740311721e+00 -3.5923273665e+00 2.0740311721e+00 3.5923273665e+00 
23600 5.0383466019e+00 -4.4311372332e-02 2.0751020844e+00 -3.5941822411e+00 2.0751020844e+00 3.5941822411e+00 
23700 5.0381262703e+00 -4.4202071446e-02 2.0761698673e+00 -3.5960316953e+00 2.0761698673e+00 3.5960316953e+00 
23800 5.0379064317e+00 -4.4090431688e-02 2.0772344682e+00 -3.5978756382e+00 2.0772344682e+00 3.5978756382e+00 
23900 5.0376870983e+00 -4.3976494830e-02 2.0782958358e+00 -3.5997139807e+00 2.0782958358e+00 3.5997139807e+00 
24000 5.0374682822e+00 -4.3860302529e-02 2.0793539196e+00 -3.6015466356e+00 2.0793539196e+00 3.6015466356e+00 
24100 5.0372499955e+00 -4.3741896319e-02 2.0804086705e+00 -3.6033735178e+00 2.0804086705e+00 3.6033735178e+00 
24200 5.0370322503e+00 -4.3621317612e-02 2.0814600403e+00 -3.6051945438e+00 2.0814600403e+00 3.6051945438e+00 
24300 5.0368150586e+00 -4.3498607688e-02 2.0825079820e+00 -3.6070096320e+00 2.0825079820e+00 3.6070096320e+00 
24400 5.0365984325e+00 -4.3373807690e-02 2.0835524496e+00 -3.6088187030e+00 2.0835524496e+00 3.6088187030e+00 
24500 5.0363823839e+00 -4.3246958622e-02 2.0845933981e+00 -3.6106216787e+00 2.0845933981e+00 3.6106216787e+00 
24600 5.0361669249e+00 -4.3118101338e-02 2.0856307837e+00 -3.6124184833e+00 2.0856307837e+00 3.6124184833e+00 
24700 5.0359520673e+00 -4.2987276543e-02 2.0866645636e+00 -3.6142090425e+00 2.0866645636e+00 3.6142090425e+00 
24800 5.0357378231e+00 -4.2854524782e-02 2.0876946959e+00 -3.6159932840e+00 2.0876946959e+00 3.6159932840e+00 
24900 5.0355242041e+00 -4.2719886437e-02 2.0887211399e+00 -3.6177711371e+00 2.0887211399e+00 3.6177711371e+00 
25000 5.0353112221e+00 -4.2583401722e-02 2.0897438559e+00 -3.6195425332e+00 2.0897438559e+00 3.6195425332e+00 
25100 5.0350988889e+00 -4.2445110677e-02 2.0907628052e+00 -3.6213074052e+00 2.0907628052e+00 3.6213074052e+00 
25200 5.0348872160e+00 -4.2305053161e-02 2.0917779501e+00 -3.6230656877e+00 2.0917779501e+00 3.6230656877e+00 
25300 5.0346762152e+00 -4.2163268849e-02 2.0927892539e+00 -3.6248173173e+00 2.0927892539e+00 3.6248173173e+00 
25400 5.0344658979e+00 -4.2019797224e-02 2.0937966809e+00 -3.6265622321e+00 2.0937966809e+00 3.6265622321e+00 
25500 5.0342562758e+00 -4.1874677575e-02 2.0948001965e+00 -3.6283003721e+00 2.0948001965e+00 3.6283003721e+00 
25600 5.0340473601e+00 -4.1727948986e-02 2.0957997669e+00 -3.6300316788e+00 2.0957997669e+00 3.6300316788e+00 
25700 5.0338391623e+00 -4.1579650338e-02 2.0967953594e+00 -3.6317560956e+00 2.0967953594e+00 3.6317560956e+00 
25800 5.0336316937e+00 -4.1429820295e-02 2.0977869423e+00 -3.6334735675e+00 2.0977869423e+00 3.6334735675e+00 
25900 5.0334249653e+00 -4.1278497306e-02 2.0987744846e+00 -3.6351840410e+00 2.0987744846e+00 3.6351840410e+00 
26000 5.0332189883e+00 -4.1125719597e-02 2.0997579566e+00 -3.6368874645e+00 2.0997579566e+00 3.6368874645e+00 
26100 5.0330137738e+00 -4.0971525163e-02 2.1007373294e+00 -3.6385837879e+00 2.1007373294e+00 3.6385837879e+00 
26200 5.0328093326e+00 -4.0815951766e-02 2.1017125749e+00 -3.6402729627e+00 2.1017125749e+00 3.6402729627e+00 
26300 5.0326056756e+00 -4.0659036930e-02 2.1026836661e+00 -3.6419549420e+00 2.1026836661e+00 3.6419549420e+00 
26400 5.0324028135e+00 -4.0500817934e-02 2.1036505770e+00 -3.6436296807e+00 2.1036505770e+00 3.6436296807e+00 
26500 5.0322007569e+00 -4.0341331806e-02 2.1046132821e+00 -3.6452971349e+00 2.1046132821e+00 3.6452971349e+00 
26600 5.0319995164e+00 -4.0180615322e-02 2.1055717573e+00 -3.6469572626e+00 2.1055717573e+00 3.6469572626e+00 
26700 5.0317991024e+00 -4.0018704996e-02 2.1065259791e+00 -3.6486100232e+00 2.1065259791e+00 3.6486100232e+00 
26800 5.0315995252e+00 -3.9855637080e-02 2.1074759249e+00 -3.6502553777e+00 2.1074759249e+00 3.6502553777e+00 
26900 5.0314007950e+00 -3.9691447553e-02 2.1084215731e+00 -3.6518932884e+00 2.1084215731e+00 3.6518932884e+00 
27000 5.0312029219e+00 -3.9526172124e-02 2.1093629029e+00 -3.6535237194e+00 2.1093629029e+00 3.6535237194e+00 
27100 5.0310059159e+00 -3.9359846219e-02 2.1102998942e+00 -3.6551466360e+00 2.1102998942e+00 3.6551466360e+00 
27200 5.0308097867e+00 -3.9192504983e-02 2.1112325281e+00 -3.6567620053e+00 2.1112325281e+00 3.6567620053e+00 
27300 5.0306145442e+00 -3.9024183272e-02 2.1121607863e+00 -3.6583697956e+00 2.1121607863e+00 3.6583697956e+00 
27400 5.0304201979e+00 -3.8854915650e-02 2.1130846512e+00 -3.6599699766e+00 2.1130846512e+00 3.6599699766e+00 
27500 5.0302267572e+00 -3.8684736382e-02 2.1140041064e+00 -3.6615625197e+00 2.1140041064e+00 3.6615625197e+00 
27600 5.0300342316e+00 -3.8513679432e-02 2.1149191360e+00 -3.6631473974e+00 2.1149191360e+00 3.6631473974e+00 
27700 5.0298426302e+00 -3.8341778461e-02 2.1158297250e+00 -3.6647245838e+00 2.1158297250e+00 3.6647245838e+00 
27800 5.0296519620e+00 -3.8169066818e-02 2.1167358592e+00 -3.6662940543e+00 2.1167358592e+00 3.6662940543e+00 
27900 5.0294622361e+00 -3.7995577537e-02 2.1176375252e+00 -3.6678557856e+00 2.1176375252e+00 3.6678557856e+00 
28000 5.0292734611e+00 -3.7821343337e-02 2.1185347103e+00 -3.6694097559e+00 2.1185347103e+00 3.6694097559e+00 
28100 5.0290856458e+00 -3.7646396615e-02 2.1194274028e+00 -3.6709559446e+00 2.1194274028e+00 3.6709559446e+00 
28200 5.0288987985e+00 -3.7470769441e-02 2.1203155914e+00 -3.6724943323e+00 2.1203155914e+00 3.6724943323e+00 
28300 5.0287129277e+00 -3.7294493557e-02 2.1211992657e+00 -3.6740249012e+00 2.1211992657e+00 3.6740249012e+00 
28400 5.0285280415e+00 -3.7117600375e-02 2.1220784162e+00 -3.6755476346e+00 2.1220784162e+00 3.6755476346e+00 
28500 5.0283441479e+00 -3.6940120968e-02 2.1229530340e+00 -3.6770625170e+00 2.1229530340e+00 3.6770625170e+00 
28600 5.0281612549e+00 -3.6762086072e-02 2.1238231108e+00 -3.6785695342e+00 2.1238231108e+00 3.6785695342e+00 
28700 5.0279793701e+00 -3.6583526081e-02 2.1246886391e+00 -3.6800686732e+00 2.1246886391e+00 3.6800686732e+00 
28800 5.0277985011e+00 -3.6404471043e-02 2.1255496122e+00 -3.6815599224e+00 2.1255496122e+00 3.6815599224e+00 
28900 5.0276186554e+00 -3.6224950660e-02 2.1264060240e+00 -3.6830432711e+00 2.1264060240e+00 3.6830432711e+00 
29000 5.0274398400e+00 -3.6044994281e-02 2.1272578690e+00 -3.6845187100e+00 2.1272578690e+00 3.6845187100e+00 
29100 5.0272620622e+00 -3.5864630905e-02 2.1281051426e+00 -3.6859862308e+00 2.1281051426e+00 3.6859862308e+00 
29200 5.0270853288e+00 -3.5683889171e-02 2.1289478405e+00 -3.6874458265e+00 2.1289478405e+00 3.6874458265e+00 
29300 5.0269096465e+00 -3.5502797363e-02 2.1297859594e+00 -3.6888974910e+00 2.1297859594e+00 3.6888974910e+00 
29400 5.0267350219e+00 -3.5321383405e-02 2.1306194965e+00 -3.6903412196e+00 2.1306194965e+00 3.6903412196e+00 
29500 5.0265614614e+00 -3.5139674855e-02 2.1314484496e+00 -3.6917770085e+00 2.1314484496e+00 3.6917770085e+00 
29600 5.0263889712e+00 -3.4957698911e-02 2.1322728172e+00 -3.6932048550e+00 2.1322728172e+00 3.6932048550e+00 
29700 5.0262175572e+00 -3.4775482400e-02 2.1330925983e+00 -3.6946247575e+00 2.1330925983e+00 3.6946247575e+00 
29800 5.0260472255e+00 -3.4593051786e-02 2.1339077925e+00 -3.6960367153e+00 2.1339077925e+00 3.6960367153e+00 
29900 5.0258779816e+00 -3.4410433160e-02 2.1347184002e+00 -3.6974407290e+00 2.1347184002e+00 3.6974407290e+00 
30000 5.0257098311e+00 -3.4227652242e-02 2.1355244222e+00 -3.6988368000e+00 2.1355244222e+00 3.6988368000e+00 
30100 5.0255427793e+00 -3.4044734381e-02 2.1363258598e+00 -3.7002249306e+00 2.1363258598e+00 3.7002249306e+00 
30200 5.0253768312e+00 -3.3861704551e-02 2.1371227150e+00 -3.7016051244e+00 2.1371227150e+00 3.7016051244e+00 
30300 5.0252119920e+00 -3.3678587353e-02 2.1379149904e+00 -3.7029773857e+00 2.1379149904e+00 3.7029773857e+00 
30400 5.0250482662e+00 -3.3495407011e-02 2.1387026891e+00 -3.7043417198e+00 2.1387026891e+00 3.7043417198e+00 
30500 5.0248856586e+00 -3.3312187374e-02 2.1394858145e+00 -3.7056981329e+00 2.1394858145e+00 3.7056981329e+00 
30600 5.0247241735e+00 -3.3128951912e-02 2.1402643709e+00 -3.7070466321e+00 2.1402643709e+00 3.7070466321e+00 
30700 5.0245638151e+00 -3.2945723719e-02 2.1410383629e+00 -3.7083872255e+00 2.1410383629e+00 3.7083872255e+00 
30800 5.0244045874e+00 -3.2762525511e-02 2.1418077955e+00 -3.7097199219e+00 2.1418077955e+00 3.7097199219e+00 
30900 5.0242464944e+00 -3.2579379625e-02 2.1425726745e+00 -3.7110447311e+00 2.1425726745e+00 3.7110447311e+00 
31000 5.0240895395e+00 -3.2396308022e-02 2.1433330059e+00 -3.7123616637e+00 2.1433330059e+00 3.7123616637e+00 
31100 5.0239337263e+00 -3.2213332281e-02 2.1440887963e+00 -3.7136707312e+00 2.1440887963e+00 3.7136707312e+00 
31200 5.0237790580e+00 -3.2030473606e-02 2.1448400528e+00 -3.7149719456e+00 2.1448400528e+00 3.7149719456e+00 
31300 5.0236255378e+00 -3.1847752821e-02 2.1455867829e+00 -3.7162653200e+00 2.1455867829e+00 3.7162653200e+00 
31400 5.0234731684e+00 -3.1665190375e-02 2.1463289945e+00 -3.7175508682e+00 2.1463289945e+00 3.7175508682e+00 
31500 5.0233219527e+00 -3.1482806337e-02 2.1470666960e+00 -3.7188286047e+00 2.1470666960e+00 3.7188286047e+00 
31600 5.0231718930e+00 -3.1300620403e-02 2.1477998963e+00 -3.7200985449e+00 2.1477998963e+00 3.7200985449e+00 
31700 5.0230229917e+00 -3.1118651891e-02 2.1485286045e+00 -3.7213607045e+00 2.1485286045e+00 3.7213607045e+00 
31800 5.0228752510e+00 -3.0936919744e-02 2.1492528304e+00 -3.7226151005e+00 2.1492528304e+00 3.7226151005e+00 
31900 5.0227286727e+00 -3.0755442533e-02 2.1499725839e+00 -3.7238617502e+00 2.1499725839e+00 3.7238617502e+00 
32000 5.0225832586e+00 -3.0574238457e-02 2.1506878755e+00 -3.7251006716e+00 2.1506878755e+00 3.7251006716e+00 
32100 5.0224390102e+00 -3.0393325342e-02 2.1513987160e+00 -3.7263318835e+00 2.1513987160e+00 3.7263318835e+00 
32200 5.0222959289e+00 -3.0212720644e-02 2.1521051167e+00 -3.7275554053e+00 2.1521051167e+00 3.7275554053e+00 
32300 5.0221540160e+00 -3.0032441452e-02 2.1528070889e+00 -3.7287712569e+00 2.1528070889e+00 3.7287712569e+00 
32400 5.0220132723e+00 -2.9852504487e-02 2.1535046448e+00 -3.7299794591e+00 2.1535046448e+00 3.7299794591e+00 
32500 5.0218736986e+00 -2.9672926106e-02 2.1541977964e+00 -3.7311800329e+00 2.1541977964e+00 3.7311800329e+00 
32600 5.0217352956e+00 -2.9493722302e-02 2.1548865564e+00 -3.7323730003e+00 2.1548865564e+00 3.7323730003e+00 
32700 5.0215980637e+00 -2.9314908707e-02 2.1555709378e+00 -3.7335583835e+00 2.1555709378e+00 3.7335583835e+00 
32800 5.0214620031e+00 -2.9136500592e-02 2.1562509537e+00 -3.7347362056e+00 2.1562509537e+00 3.7347362056e+00 
32900 5.0213271138e+00 -2.8958512872e-02 2.1569266176e+00 -3.7359064899e+00 2.1569266176e+00 3.7359064899e+00 
33000 5.0211933958e+00 -2.8780960108e-02 2.1575979435e+00 -3.7370692605e+00 2.1575979435e+00 3.7370692605e+00 
33100 5.0210608487e+00 -2.8603856507e-02 2.1582649455e+00 -3.7382245419e+00 2.1582649455e+00 3.7382245419e+00 
33200 5.0209294721e+00 -2.8427215925e-02 2.1589276380e+00 -3.7393723589e+00 2.1589276380e+00 3.7393723589e+00 
33300 5.0207992652e+00 -2.8251051872e-02 2.1595860357e+00 -3.7405127372e+00 2.1595860357e+00 3.7405127372e+00 
33400 5.0206702271e+00 -2.8075377512e-02 2.1602401536e+00 -3.7416457026e+00 2.1602401536e+00 3.7416457026e+00 
33500 5.0205423569e+00 -2.7900205665e-02 2.1608900070e+00 -3.7427712816e+00 2.1608900070e+00 3.7427712816e+00 
33600 5.0204156533e+00 -2.7725548813e-02 2.1615356112e+00 -3.7438895009e+00 2.1615356112e+00 3.7438895009e+00 
33700 5.0202901150e+00 -2.7551419101e-02 2.1621769821e+00 -3.7450003879e+00 2.1621769821e+00 3.7450003879e+00 
33800 5.0201657403e+00 -2.7377828340e-02 2.1628141355e+00 -3.7461039701e+00 2.1628141355e+00 3.7461039701e+00 
33900 5.0200425276e+00 -2.7204788008e-02 2.1634470878e+00 -3.7472002756e+00 2.1634470878e+00 3.7472002756e+00 
34000 5.0199204750e+00 -2.7032309257e-02 2.1640758553e+00 -3.7482893329e+00 2.1640758553e+00 3.7482893329e+00 
34100 5.0197995803e+00 -2.6860402915e-02 2.1647004547e+00 -3.7493711708e+00 2.1647004547e+00 3.7493711708e+00 
34200 5.0196798414e+00 -2.6689079486e-02 2.1653209028e+00 -3.7504458184e+00 2.1653209028e+00 3.7504458184e+00 
34300 5.0195612557e+00 -2.6518349158e-02 2.1659372167e+00 -3.7515133053e+00 2.1659372167e+00 3.7515133053e+00 
34400 5.0194438209e+00 -2.6348221802e-02 2.1665494135e+00 -3.7525736613e+00 2.1665494135e+00 3.7525736613e+00 
34500 5.0193275341e+00 -2.6178706979e-02 2.1671575107e+00 -3.7536269166e+00 2.1671575107e+00 3.7536269166e+00 
34600 5.0192123924e+00 -2.6009813942e-02 2.1677615260e+00 -3.7546731017e+00 2.1677615260e+00 3.7546731017e+00 
34700 5.0190983929e+00 -2.5841551638e-02 2.1683614770e+00 -3.7557122473e+00 2.1683614770e+00 3.7557122473e+00 
34800 5.0189855323e+00 -2.5673928715e-02 2.1689573816e+00 -3.7567443844e+00 2.1689573816e+00 3.7567443844e+00 
34900 5.0188738072e+00 -2.5506953523e-02 2.1695492581e+00 -3.7577695445e+00 2.1695492581e+00 3.7577695445e+00 
35000 5.0187632142e+00 -2.5340634117e-02 2.1701371245e+00 -3.7587877591e+00 2.1701371245e+00 3.7587877591e+00 
35100 5.0186537496e+00 -2.5174978263e-02 2.1707209994e+00 -3.7597990600e+00 2.1707209994e+00 3.7597990600e+00 
35200 5.0185454097e+00 -2.5009993443e-02 2.1713009012e+00 -3.7608034793e+00 2.1713009012e+00 3.7608034793e+00 
35300 5.0184381904e+00 -2.4845686853e-02 2.1718768485e+00 -3.7618010494e+00 2.1718768485e+00 3.7618010494e+00 
35400 5.0183320878e+00 -2.4682065412e-02 2.1724488601e+00 -3.7627918026e+00 2.1724488601e+00 3.7627918026e+00 
35500 5.0182270976e+00 -2.4519135766e-02 2.1730169550e+00 -3.7637757718e+00 2.1730169550e+00 3.7637757718e+00 
35600 5.0181232154e+00 -2.4356904288e-02 2.1735811521e+00 -3.7647529898e+00 2.1735811521e+00 3.7647529898e+00 
35700 5.0180204368e+00 -2.4195377085e-02 2.1741414705e+00 -3.7657234897e+00 2.1741414705e+00 3.7657234897e+00 
35800 5.0179187571e+00 -2.4034560002e-02 2.1746979294e+00 -3.7666873049e+00 2.1746979294e+00 3.7666873049e+00 
35900 5.0178181717e+00 -2.3874458623e-02 2.1752505482e+00 -3.7676444687e+00 2.1752505482e+00 3.7676444687e+00 
36000 5.0177186756e+00 -2.3715078279e-02 2.1757993462e+00 -3.7685950146e+00 2.1757993462e+00 3.7685950146e+00 
36100 5.0176202638e+00 -2.3556424050e-02 2.1763443428e+00 -3.7695389766e+00 2.1763443428e+00 3.7695389766e+00 
36200 5.0175229313e+00 -2.3398500769e-02 2.1768855577e+00 -3.7704763883e+00 2.1768855577e+00 3.7704763883e+00 
36300 5.0174266728e+00 -2.3241313026e-02 2.1774230105e+00 -3.7714072838e+00 2.1774230105e+00 3.7714072838e+00 
36400 5.0173314830e+00 -2.3084865173e-02 2.1779567208e+00 -3.7723316972e+00 2.1779567208e+00 3.7723316972e+00 
36500 5.0172373565e+00 -2.2929161326e-02 2.1784867084e+00 -3.7732496626e+00 2.1784867084e+00 3.7732496626e+00 
36600 5.0171442875e+00 -2.2774205373e-02 2.1790129931e+00 -3.7741612144e+00 2.1790129931e+00 3.7741612144e+00 
36700 5.0170522706e+00 -2.2620000972e-02 2.1795355948e+00 -3.7750663870e+00 2.1795355948e+00 3.7750663870e+00 
36800 5.0169612999e+00 -2.2466551564e-02 2.1800545333e+00 -3.7759652149e+00 2.1800545333e+00 3.7759652149e+00 
36900 5.0168713696e+00 -2.2313860365e-02 2.1805698285e+00 -3.7768577325e+00 2.1805698285e+00 3.7768577325e+00 
37000 5.0167824736e+00 -2.2161930384e-02 2.1810815006e+00 -3.7777439745e+00 2.1810815006e+00 3.7777439745e+00 
37100 5.0166946059e+00 -2.2010764413e-02 2.1815895694e+00 -3.7786239755e+00 2.1815895694e+00 3.7786239755e+00 
37200 5.0166077604e+00 -2.1860365045e-02 2.1820940551e+00 -3.7794977703e+00 2.1820940551e+00 3.7794977703e+00 
37300 5.0165219308e+00 -2.1710734665e-02 2.1825949776e+00 -3.7803653935e+00 2.1825949776e+00 3.7803653935e+00 
37400 5.0164371108e+00 -2.1561875463e-02 2.1830923571e+00 -3.7812268801e+00 2.1830923571e+00 3.7812268801e+00 
37500 5.0163532939e+00 -2.1413789437e-02 2.1835862136e+00 -3.7820822647e+00 2.1835862136e+00 3.7820822647e+00 
37600 5.0162704738e+00 -2.1266478391e-02 2.1840765673e+00 -3.7829315822e+00 2.1840765673e+00 3.7829315822e+00 
37700 5.0161886437e+00 -2.1119943948e-02 2.1845634382e+00 -3.7837748674e+00 2.1845634382e+00 3.7837748674e+00 
37800 5.0161077970e+00 -2.0974187544e-02 2.1850468465e+00 -3.7846121551e+00 2.1850468465e+00 3.7846121551e+00 
37900 5.0160279271e+00 -2.0829210443e-02 2.1855268123e+00 -3.7854434803e+00 2.1855268123e+00 3.7854434803e+00 
38000 5.0159490271e+00 -2.0685013731e-02 2.1860033557e+00 -3.7862688776e+00 2.1860033557e+00 3.7862688776e+00 
38100 5.0158710902e+00 -2.0541598325e-02 2.1864764968e+00 -3.7870883820e+00 2.1864764968e+00 3.7870883820e+00 
38200 5.0157941094e+00 -2.0398964978e-02 2.1869462557e+00 -3.7879020282e+00 2.1869462557e+00 3.7879020282e+00 
38300 5.0157180778e+00 -2.0257114278e-02 2.1874126524e+00 -3.7887098510e+00 2.1874126524e+00 3.7887098510e+00 
38400 5.0156429884e+00 -2.0116046659e-02 2.1878757069e+00 -3.7895118850e+00 2.1878757069e+00 3.7895118850e+00 
38500 5.0155688340e+00 -1.9975762396e-02 2.1883354394e+00 -3.7903081651e+00 2.1883354394e+00 3.7903081651e+00 
38600 5.0154956075e+00 -1.9836261616e-02 2.1887918698e+00 -3.7910987257e+00 2.1887918698e+00 3.7910987257e+00 
38700 5.0154233017e+00 -1.9697544300e-02 2.1892450181e+00 -3.7918836016e+00 2.1892450181e+00 3.7918836016e+00 
38800 5.0153519093e+00 -1.9559610284e-02 2.1896949042e+00 -3.7926628272e+00 2.1896949042e+00 3.7926628272e+00 
38900 5.0152814232e+00 -1.9422459265e-02 2.1901415481e+00 -3.7934364370e+00 2.1901415481e+00 3.7934364370e+00 
39000 5.0152118358e+00 -1.9286090807e-02 2.1905849695e+00 -3.7942044655e+00 2.1905849695e+00 3.7942044655e+00 
39100 5.0151431400e+00 -1.9150504339e-02 2.1910251884e+00 -3.7949669469e+00 2.1910251884e+00 3.7949669469e+00 
39200 5.0150753282e+00 -1.9015699162e-02 2.1914622245e+00 -3.7957239156e+00 2.1914622245e+00 3.7957239156e+00 
39300 5.0150083931e+00 -1.8881674453e-02 2.1918960975e+00 -3.7964754057e+00 2.1918960975e+00 3.7964754057e+00 
39400 5.0149423271e+00 -1.8748429268e-02 2.1923268271e+00 -3.7972214514e+00 2.1923268271e+00 3.7972214514e+00 
39500 5.0148771228e+00 -1.8615962544e-02 2.1927544330e+00 -3.7979620865e+00 2.1927544330e+00 3.7979620865e+00 
39600 5.0148127727e+00 -1.8484273105e-02 2.1931789348e+00 -3.7986973452e+00 2.1931789348e+00 3.7986973452e+00 
39700 5.0147492692e+00 -1.8353359663e-02 2.1936003520e+00 -3.7994272611e+00 2.1936003520e+00 3.7994272611e+00 
39800 5.0146866047e+00 -1.8223220823e-02 2.1940187040e+00 -3.8001518681e+00 2.1940187040e+00 3.8001518681e+00 
39900 5.0146247716e+00 -1.8093855084e-02 2.1944340103e+00 -3.8008711997e+00 2.1944340103e+00 3.8008711997e+00 
40000 5.0145637625e+00 -1.7965260846e-02 2.1948462902e+00 -3.8015852895e+00 2.1948462902e+00 3.8015852895e+00 
40100 5.0145035695e+00 -1.7837436410e-02 2.1952555631e+00 -3.8022941708e+00 2.1952555631e+00 3.8022941708e+00 
40200 5.0144441852e+00 -1.7710379984e-02 2.1956618480e+00 -3.8029978770e+00 2.1956618480e+00 3.8029978770e+00 
40300 5.0143856018e+00 -1.7584089681e-02 2.1960651643e+00 -3.8036964412e+00 2.1960651643e+00 3.8036964412e+00 
40400 5.0143278118e+00 -1.7458563530e-02 2.1964655309e+00 -3.8043898966e+00 2.1964655309e+00 3.8043898966e+00 
40500 5.0142708074e+00 -1.7333799470e-02 2.1968629669e+00 -3.8050782759e+00 2.1968629669e+00 3.8050782759e+00 
40600 5.0142145811e+00 -1.7209795361e-02 2.1972574912e+00 -3.8057616121e+00 2.1972574912e+00 3.8057616121e+00 
40700 5.0141591252e+00 -1.7086548983e-02 2.1976491228e+00 -3.8064399378e+00 2.1976491228e+00 3.8064399378e+00 
40800 5.0141044319e+00 -1.6964058038e-02 2.1980378803e+00 -3.8071132856e+00 2.1980378803e+00 3.8071132856e+00 
40900 5.0140504938e+00 -1.6842320155e-02 2.1984237825e+00 -3.8077816879e+00 2.1984237825e+00 3.8077816879e+00 
41000 5.0139973031e+00 -1.6721332892e-02 2.1988068481e+00 -3.8084451769e+00 2.1988068481e+00 3.8084451769e+00 
41100 5.0139448523e+00 -1.6601093739e-02 2.1991870956e+00 -3.8091037849e+00 2.1991870956e+00 3.8091037849e+00 
41200 5.0138931336e+00 -1.6481600120e-02 2.1995645434e+00 -3.8097575437e+00 2.1995645434e+00 3.8097575437e+00 
41300 5.0138421395e+00 -1.6362849397e-02 2.1999392100e+00 -3.8104064853e+00 2.1999392100e+00 3.8104064853e+00 
41400 5.0137918623e+00 -1.6244838871e-02 2.2003111137e+00 -3.8110506414e+00 2.2003111137e+00 3.8110506414e+00 
41500 5.0137422946e+00 -1.6127565785e-02 2.2006802727e+00 -3.8116900435e+00 2.2006802727e+00 3.8116900435e+00 
41600 5.0136934287e+00 -1.6011027328e-02 2.2010467052e+00 -3.8123247232e+00 2.2010467052e+00 3.8123247232e+00 
41700 5.0136452571e+00 -1.5895220636e-02 2.2014104291e+00 -3.8129547115e+00 2.2014104291e+00 3.8129547115e+00 
41800 5.0135977722e+00 -1.5780142792e-02 2.2017714625e+00 -3.8135800398e+00 2.2017714625e+00 3.8135800398e+00 
41900 5.0135509666e+00 -1.5665790836e-02 2.2021298233e+00 -3.8142007389e+00 2.2021298233e+00 3.8142007389e+00 
42000 5.0135048328e+00 -1.5552161758e-02 2.2024855292e+00 -3.8148168396e+00 2.2024855292e+00 3.8148168396e+00 
42100 5.0134593632e+00 -1.5439252505e-02 2.2028385980e+00 -3.8154283726e+00 2.2028385980e+00 3.8154283726e+00 
42200 5.0134145505e+00 -1.5327059986e-02 2.2031890472e+00 -3.8160353685e+00 2.2031890472e+00 3.8160353685e+00 
42300 5.0133703874e+00 -1.5215581068e-02 2.2035368945e+00 -3.8166378575e+00 2.2035368945e+00 3.8166378575e+00 
42400 5.0133268663e+00 -1.5104812581e-02 2.2038821571e+00 -3.8172358699e+00 2.2038821571e+00 3.8172358699e+00 
42500 5.0132839799e+00 -1.4994751321e-02 2.2042248524e+00 -3.8178294357e+00 2.2042248524e+00 3.8178294357e+00 
42600 5.0132417211e+00 -1.4885394052e-02 2.2045649978e+00 -3.8184185848e+00 2.2045649978e+00 3.8184185848e+00 
42700 5.0132000824e+00 -1.4776737505e-02 2.2049026103e+00 -3.8190033468e+00 2.2049026103e+00 3.8190033468e+00 
42800 5.0131590566e+00 -1.4668778383e-02 2.2052377070e+00 -3.8195837513e+00 2.2052377070e+00 3.8195837513e+00 
42900 5.0131186366e+00 -1.4561513363e-02 2.2055703049e+00 -3.8201598277e+00 2.2055703049e+00 3.8201598277e+00 
43000 5.0130788151e+00 -1.4454939094e-02 2.2059004208e+00 -3.8207316052e+00 2.2059004208e+00 3.8207316052e+00 
43100 5.0130395851e+00 -1.4349052204e-02 2.2062280715e+00 -3.8212991129e+00 2.2062280715e+00 3.8212991129e+00 
43200 5.0130009394e+00 -1.4243849297e-02 2.2065532737e+00 -3.8218623796e+00 2.2065532737e+00 3.8218623796e+00 
43300 5.0129628710e+00 -1.4139326959e-02 2.2068760440e+00 -3.8224214341e+00 2.2068760440e+00 3.8224214341e+00 
43400 5.0129253729e+00 -1.4035481757e-02 2.2071963988e+00 -3.8229763050e+00 2.2071963988e+00 3.8229763050e+00 
43500 5.0128884381e+00 -1.3932310240e-02 2.2075143546e+00 -3.8235270206e+00 2.2075143546e+00 3.8235270206e+00 
43600 5.0128520597e+00 -1.3829808942e-02 2.2078299277e+00 -3.8240736093e+00 2.2078299277e+00 3.8240736093e+00 
43700 5.0128162308e+00 -1.3727974384e-02 2.2081431343e+00 -3.8246160989e+00 2.2081431343e+00 3.8246160989e+00 
43800 5.0127809445e+00 -1.3626803073e-02 2.2084539904e+00 -3.8251545175e+00 2.2084539904e+00 3.8251545175e+00 
43900 5.0127461942e+00 -1.3526291508e-02 2.2087625121e+00 -3.8256888928e+00 2.2087625121e+00 3.8256888928e+00 
44000 5.0127119730e+00 -1.3426436175e-02 2.2090687153e+00 -3.8262192523e+00 2.2090687153e+00 3.8262192523e+00 
44100 5.0126782743e+00 -1.3327233554e-02 2.2093726159e+00 -3.8267456235e+00 2.2093726159e+00 3.8267456235e+00 
44200 5.0126450914e+00 -1.3228680118e-02 2.2096742295e+00 -3.8272680336e+00 2.2096742295e+00 3.8272680336e+00 
44300 5.0126124178e+00 -1.3130772332e-02 2.2099735718e+00 -3.8277865097e+00 2.2099735718e+00 3.8277865097e+00 
44400 5.0125802468e+00 -1.3033506660e-02 2.2102706583e+00 -3.8283010786e+00 2.2102706583e+00 3.8283010786e+00 
44500 5.0125485720e+00 -1.2936879560e-02 2.2105655044e+00 -3.8288117671e+00 2.2105655044e+00 3.8288117671e+00 
44600 5.0125173869e+00 -1.2840887489e-02 2.2108581256e+00 -3.8293186018e+00 2.2108581256e+00 3.8293186018e+00 
44700 5.0124866851e+00 -1.2745526902e-02 2.2111485370e+00 -3.8298216092e+00 2.2111485370e+00 3.8298216092e+00 
44800 5.0124564604e+00 -1.2650794256e-02 2.2114367538e+00 -3.8303208153e+00 2.2114367538e+00 3.8303208153e+00 
44900 5.0124267064e+00 -1.2556686008e-02 2.2117227911e+00 -3.8308162464e+00 2.2117227911e+00 3.8308162464e+00 
45000 5.0123974168e+00 -1.2463198615e-02 2.2120066638e+00 -3.8313079284e+00 2.2120066638e+00 3.8313079284e+00 
45100 5.0123685855e+00 -1.2370328540e-02 2.2122883868e+00 -3.8317958869e+00 2.2122883868e+00 3.8317958869e+00 
45200 5.0123402064e+00 -1.2278072249e-02 2.2125679749e+00 -3.8322801477e+00 2.2125679749e+00 3.8322801477e+00 
45300 5.0123122734e+00 -1.2186426212e-02 2.2128454427e+00 -3.8327607361e+00 2.2128454427e+00 3.8327607361e+00 
45400 5.0122847804e+00 -1.2095386905e-02 2.2131208049e+00 -3.8332376773e+00 2.2131208049e+00 3.8332376773e+00 
45500 5.0122577215e+00 -1.2004950810e-02 2.2133940759e+00 -3.8337109966e+00 2.2133940759e+00 3.8337109966e+00 
45600 5.0122310908e+00 -1.1915114418e-02 2.2136652702e+00 -3.8341807189e+00 2.2136652702e+00 3.8341807189e+00 
45700 5.0122048824e+00 -1.1825874226e-02 2.2139344020e+00 -3.8346468689e+00 2.2139344020e+00 3.8346468689e+00 
45800 5.0121790906e+00 -1.1737226740e-02 2.2142014856e+00 -3.8351094713e+00 2.2142014856e+00 3.8351094713e+00 
45900 5.0121537095e+00 -1.1649168477e-02 2.2144665351e+00 -3.8355685505e+00 2.2144665351e+00 3.8355685505e+00 
46000 5.0121287335e+00 -1.1561695961e-02 2.2147295646e+00 -3.8360241309e+00 2.2147295646e+00 3.8360241309e+00 
46100 5.0121041569e+00 -1.1474805730e-02 2.2149905880e+00 -3.8364762367e+00 2.2149905880e+00 3.8364762367e+00 
46200 5.0120799742e+00 -1.1388494332e-02 2.2152496191e+00 -3.8369248917e+00 2.2152496191e+00 3.8369248917e+00 
46300 5.0120561798e+00 -1.1302758325e-02 2.2155066717e+00 -3.8373701199e+00 2.2155066717e+00 3.8373701199e+00 
46400 5.0120327683e+00 -1.1217594283e-02 2.2157617595e+00 -3.8378119450e+00 2.2157617595e+00 3.8378119450e+00 
46500 5.0120097343e+00 -1.1132998789e-02 2.2160148961e+00 -3.8382503904e+00 2.2160148961e+00 3.8382503904e+00 
46600 5.0119870724e+00 -1.1048968443e-02 2.2162660950e+00 -3.8386854796e+00 2.2162660950e+00 3.8386854796e+00 
46700 5.0119647773e+00 -1.0965499856e-02 2.2165153696e+00 -3.8391172359e+00 2.2165153696e+00 3.8391172359e+00 
46800 5.0119428438e+00 -1.0882589655e-02 2.2167627332e+00 -3.8395456821e+00 2.2167627332e+00 3.8395456821e+00 
46900 5.0119212666e+00 -1.0800234481e-02 2.2170081990e+00 -3.8399708415e+00 2.2170081990e+00 3.8399708415e+00 
47000 5.0119000407e+00 -1.0718430990e-02 2.2172517802e+00 -3.8403927365e+00 2.2172517802e+00 3.8403927365e+00 
47100 5.0118791609e+00 -1.0637175855e-02 2.2174934899e+00 -3.8408113900e+00 2.2174934899e+00 3.8408113900e+00 
47200 5.0118586224e+00 -1.0556465763e-02 2.2177333411e+00 -3.8412268244e+00 2.2177333411e+00 3.8412268244e+00 
47300 5.0118384200e+00 -1.0476297418e-02 2.2179713466e+00 -3.8416390620e+00 2.2179713466e+00 3.8416390620e+00 
47400 5.0118185488e+00 -1.0396667540e-02 2.2182075192e+00 -3.8420481251e+00 2.2182075192e+00 3.8420481251e+00 
47500 5.0117990042e+00 -1.0317572867e-02 2.2184418718e+00 -3.8424540355e+00 2.2184418718e+00 3.8424540355e+00 
47600 5.0117797811e+00 -1.0239010152e-02 2.2186744168e+00 -3.8428568154e+00 2.2186744168e+00 3.8428568154e+00 
47700 5.0117608749e+00 -1.0160976167e-02 2.2189051669e+00 -3.8432564863e+00 2.2189051669e+00 3.8432564863e+00 
47800 5.0117422810e+00 -1.0083467700e-02 2.2191341346e+00 -3.8436530699e+00 2.2191341346e+00 3.8436530699e+00 
47900 5.0117239946e+00 -1.0006481558e-02 2.2193613322e+00 -3.8440465878e+00 2.2193613322e+00 3.8440465878e+00 
48000 5.0117060112e+00 -9.9300145667e-03 2.2195867721e+00 -3.8444370611e+00 2.2195867721e+00 3.8444370611e+00 
48100 5.0116883263e+00 -9.8540635670e-03 2.2198104665e+00 -3.8448245111e+00 2.2198104665e+00 3.8448245111e+00 
48200 5.0116709354e+00 -9.7786254202e-03 2.2200324275e+00 -3.8452089588e+00 2.2200324275e+00 3.8452089588e+00 
48300 5.0116538340e+00 -9.7036970052e-03 2.2202526672e+00 -3.8455904253e+00 2.2202526672e+00 3.8455904253e+00 
48400 5.0116370179e+00 -9.6292752197e-03 2.2204711977e+00 -3.8459689311e+00 2.2204711977e+00 3.8459689311e+00 
48500 5.0116204827e+00 -9.5553569797e-03 2.2206880307e+00 -3.8463444970e+00 2.2206880307e+00 3.8463444970e+00 
48600 5.0116042242e+00 -9.4819392200e-03 2.2209031783e+00 -3.8467171435e+00 2.2209031783e+00 3.8467171435e+00 
48700 5.0115882381e+00 -9.4090188943e-03 2.2211166520e+00 -3.8470868909e+00 2.2211166520e+00 3.8470868909e+00 
48800 5.0115725203e+00 -9.3365929748e-03 2.2213284637e+00 -3.8474537594e+00 2.2213284637e+00 3.8474537594e+00 
48900 5.0115570668e+00 -9.2646584528e-03 2.2215386249e+00 -3.8478177693e+00 2.2215386249e+00 3.8478177693e+00 
49000 5.0115418734e+00 -9.1932123386e-03 2.2217471471e+00 -3.8481789404e+00 2.2217471471e+00 3.8481789404e+00 
49100 5.0115269361e+00 -9.1222516611e-03 2.2219540418e+00 -3.8485372925e+00 2.2219540418e+00 3.8485372925e+00 
49200 5.0115122511e+00 -9.0517734685e-03 2.2221593204e+00 -3.8488928455e+00 2.2221593204e+00 3.8488928455e+00 
49300 5.0114978144e+00 -8.9817748278e-03 2.2223629942e+00 -3.8492456188e+00 2.2223629942e+00 3.8492456188e+00 
49400 5.0114836222e+00 -8.9122528250e-03 2.2225650744e+00 -3.8495956320e+00 2.2225650744e+00 3.8495956320e+00 
49500 5.0114696706e+00 -8.8432045651e-03 2.2227655722e+00 -3.8499429043e+00 2.2227655722e+00 3.8499429043e+00 
49600 5.0114559561e+00 -8.7746271718e-03 2.2229644986e+00 -3.8502874550e+00 2.2229644986e+00 3.8502874550e+00 
49700 5.0114424747e+00 -8.7065177880e-03 2.2231618647e+00 -3.8506293031e+00 2.2231618647e+00 3.8506293031e+00 
49800 5.0114292230e+00 -8.6388735753e-03 2.2233576814e+00 -3.8509684676e+00 2.2233576814e+00 3.8509684676e+00 
49900 5.0114161973e+00 -8.5716917139e-03 2.2235519596e+00 -3.8513049674e+00 2.2235519596e+00 3.8513049674e+00 
50000 5.0114033940e+00 -8.5049694029e-03 2.2237447102e+00 -3.8516388211e+00 2.2237447102e+00 3.8516388211e+00 
50100 5.0113908097e+00 -8.4387038602e-03 2.2239359437e+00 -3.8519700473e+00 2.2239359437e+00 3.8519700473e+00 
50200 5.0113784409e+00 -8.3728923219e-03 2.2241256709e+00 -3.8522986644e+00 2.2241256709e+00 3.8522986644e+00 
50300 5.0113662841e+00 -8.3075320430e-03 2.2243139024e+00 -3.8526246910e+00 2.2243139024e+00 3.8526246910e+00 
50400 5.0113543362e+00 -8.2426202965e-03 2.2245006487e+00 -3.8529481451e+00 2.2245006487e+00 3.8529481451e+00 
50500 5.0113425936e+00 -8.1781543742e-03 2.2246859203e+00 -3.8532690449e+00 2.2246859203e+00 3.8532690449e+00 
50600 5.0113310531e+00 -8.1141315855e-03 2.2248697275e+00 -3.8535874083e+00 2.2248697275e+00 3.8535874083e+00 
50700 5.0113197116e+00 -8.0505492584e-03 2.2250520807e+00 -3.8539032533e+00 2.2250520807e+00 3.8539032533e+00 
50800 5.0113085658e+00 -7.9874047386e-03 2.2252329902e+00 -3.8542165977e+00 2.2252329902e+00 3.8542165977e+00 
50900 5.0112976127e+00 -7.9246953898e-03 2.2254124660e+00 -3.8545274590e+00 2.2254124660e+00 3.8545274590e+00 
51000 5.0112868490e+00 -7.8624185933e-03 2.2255905184e+00 -3.8548358548e+00 2.2255905184e+00 3.8548358548e+00 
51100 5.0112762718e+00 -7.8005717481e-03 2.2257671575e+00 -3.8551418025e+00 2.2257671575e+00 3.8551418025e+00 
51200 5.0112658780e+00 -7.7391522707e-03 2.2259423931e+00 -3.8554453196e+00 2.2259423931e+00 3.8554453196e+00 
51300 5.0112556648e+00 -7.6781575949e-03 2.2261162353e+00 -3.8557464230e+00 2.2261162353e+00 3.8557464230e+00 
51400 5.0112456291e+00 -7.6175851716e-03 2.2262886938e+00 -3.8560451300e+00 2.2262886938e+00 3.8560451300e+00 
51500 5.0112357681e+00 -7.5574324689e-03 2.2264597786e+00 -3.8563414576e+00 2.2264597786e+00 3.8563414576e+00 
51600 5.0112260790e+00 -7.4976969717e-03 2.2266294994e+00 -3.8566354225e+00 2.2266294994e+00 3.8566354225e+00 
51700 5.0112165589e+00 -7.4383761818e-03 2.2267978658e+00 -3.8569270417e+00 2.2267978658e+00 3.8569270417e+00 
51800 5.0112072051e+00 -7.3794676174e-03 2.2269648874e+00 -3.8572163317e+00 2.2269648874e+00 3.8572163317e+00 
51900 5.0111980150e+00 -7.3209688132e-03 2.2271305739e+00 -3.8575033091e+00 2.2271305739e+00 3.8575033091e+00 
52000 5.0111889857e+00 -7.2628773204e-03 2.2272949347e+00 -3.8577879903e+00 2.2272949347e+00 3.8577879903e+00 
52100 5.0111801147e+00 -7.2051907061e-03 2.2274579792e+00 -3.8580703917e+00 2.2274579792e+00 3.8580703917e+00 
52200 5.0111713993e+00 -7.1479065534e-03 2.2276197169e+00 -3.8583505296e+00 2.2276197169e+00 3.8583505296e+00 
52300 5.0111628371e+00 -7.0910224613e-03 2.2277801571e+00 -3.8586284201e+00 2.2277801571e+00 3.8586284201e+00 
52400 5.0111544254e+00 -7.0345360445e-03 2.2279393089e+00 -3.8589040792e+00 2.2279393089e+00 3.8589040792e+00 
52500 5.0111461619e+00 -6.9784449330e-03 2.2280971817e+00 -3.8591775229e+00 2.2280971817e+00 3.8591775229e+00 
52600 5.0111380440e+00 -6.9227467723e-03 2.2282537845e+00 -3.8594487669e+00 2.2282537845e+00 3.8594487669e+00 
52700 5.0111300693e+00 -6.8674392230e-03 2.2284091265e+00 -3.8597178271e+00 2.2284091265e+00 3.8597178271e+00 
52800 5.0111222355e+00 -6.8125199605e-03 2.2285632167e+00 -3.8599847191e+00 2.2285632167e+00 3.8599847191e+00 
52900 5.0111145402e+00 -6.7579866754e-03 2.2287160640e+00 -3.8602494584e+00 2.2287160640e+00 3.8602494584e+00 
53000 5.0111069811e+00 -6.7038370727e-03 2.2288676773e+00 -3.8605120605e+00 2.2288676773e+00 3.8605120605e+00 
53100 5.0110995559e+00 -6.6500688719e-03 2.2290180656e+00 -3.8607725407e+00 2.2290180656e+00 3.8607725407e+00 
53200 5.0110922625e+00 -6.5966798069e-03 2.2291672377e+00 -3.8610309142e+00 2.2291672377e+00 3.8610309142e+00 
53300 5.0110850985e+00 -6.5436676258e-03 2.2293152022e+00 -3.8612871963e+00 2.2293152022e+00 3.8612871963e+00 
53400 5.0110780619e+00 -6.4910300905e-03 2.2294619679e+00 -3.8615414019e+00 2.2294619679e+00 3.8615414019e+00 
53500 5.0110711504e+00 -6.4387649770e-03 2.2296075434e+00 -3.8617935460e+00 2.2296075434e+00 3.8617935460e+00 
53600 5.0110643621e+00 -6.3868700747e-03 2.2297519373e+00 -3.8620436436e+00 2.2297519373e+00 3.8620436436e+00 
53700 5.0110576947e+00 -6.3353431867e-03 2.2298951581e+00 -3.8622917094e+00 2.2298951581e+00 3.8622917094e+00 
53800 5.0110511464e+00 -6.2841821294e-03 2.2300372143e+00 -3.8625377580e+00 2.2300372143e+00 3.8625377580e+00 
53900 5.0110447150e+00 -6.2333847324e-03 2.2301781144e+00 -3.8627818041e+00 2.2301781144e+00 3.8627818041e+00 
54000 5.0110383986e+00 -6.1829488380e-03 2.2303178667e+00 -3.8630238621e+00 2.2303178667e+00 3.8630238621e+00 
54100 5.0110321952e+00 -6.1328723019e-03 2.2304564795e+00 -3.8632639466e+00 2.2304564795e+00 3.8632639466e+00 
54200 5.0110261030e+00 -6.0831529922e-03 2.2305939611e+00 -3.8635020717e+00 2.2305939611e+00 3.8635020717e+00 
54300 5.0110201200e+00 -6.0337887894e-03 2.2307303198e+00 -3.8637382518e+00 2.2307303198e+00 3.8637382518e+00 
54400 5.0110142444e+00 -5.9847775867e-03 2.2308655636e+00 -3.8639725010e+00 2.2308655636e+00 3.8639725010e+00 
54500 5.0110084743e+00 -5.9361172893e-03 2.2309997007e+00 -3.8642048333e+00 2.2309997007e+00 3.8642048333e+00 
54600 5.0110028080e+00 -5.8878058147e-03 2.2311327392e+00 -3.8644352627e+00 2.2311327392e+00 3.8644352627e+00 
54700 5.0109972437e+00 -5.8398410921e-03 2.2312646870e+00 -3.8646638031e+00 2.2312646870e+00 3.8646638031e+00 
54800 5.0109917796e+00 -5.7922210627e-03 2.2313955522e+00 -3.8648904683e+00 2.2313955522e+00 3.8648904683e+00 
54900 5.0109864140e+00 -5.7449436791e-03 2.2315253427e+00 -3.8651152720e+00 2.2315253427e+00 3.8651152720e+00 
55000 5.0109811453e+00 -5.6980069057e-03 2.2316540663e+00 -3.8653382277e+00 2.2316540663e+00 3.8653382277e+00 
55100 5.0109759717e+00 -5.6514087179e-03 2.2317817308e+00 -3.8655593492e+00 2.2317817308e+00 3.8655593492e+00 
55200 5.0109708917e+00 -5.6051471026e-03 2.2319083441e+00 -3.8657786498e+00 2.2319083441e+00 3.8657786498e+00 
55300 5.0109659036e+00 -5.5592200577e-03 2.2320339137e+00 -3.8659961428e+00 2.2320339137e+00 3.8659961428e+00 
55400 5.0109610058e+00 -5.5136255919e-03 2.2321584475e+00 -3.8662118416e+00 2.2321584475e+00 3.8662118416e+00 
55500 5.0109561969e+00 -5.4683617249e-03 2.2322819530e+00 -3.8664257594e+00 2.2322819530e+00 3.8664257594e+00 
55600 5.0109514752e+00 -5.4234264868e-03 2.2324044378e+00 -3.8666379093e+00 2.2324044378e+00 3.8666379093e+00 
55700 5.0109468392e+00 -5.3788179186e-03 2.2325259094e+00 -3.8668483043e+00 2.2325259094e+00 3.8668483043e+00 
55800 5.0109422875e+00 -5.3345340714e-03 2.2326463753e+00 -3.8670569574e+00 2.2326463753e+00 3.8670569574e+00 
55900 5.0109378185e+00 -5.2905730067e-03 2.2327658430e+00 -3.8672638815e+00 2.2327658430e+00 3.8672638815e+00 
56000 5.0109334310e+00 -5.2469327962e-03 2.2328843198e+00 -3.8674690894e+00 2.2328843198e+00 3.8674690894e+00 
56100 5.0109291234e+00 -5.2036115215e-03 2.2330018131e+00 -3.8676725937e+00 2.2330018131e+00 3.8676725937e+00 
56200 5.0109248943e+00 -5.1606072744e-03 2.2331183302e+00 -3.8678744072e+00 2.2331183302e+00 3.8678744072e+00 
56300 5.0109207424e+00 -5.1179181561e-03 2.2332338783e+00 -3.8680745424e+00 2.2332338783e+00 3.8680745424e+00 
56400 5.0109166664e+00 -5.0755422778e-03 2.2333484646e+00 -3.8682730118e+00 2.2333484646e+00 3.8682730118e+00 
56500 5.0109126649e+00 -5.0334777602e-03 2.2334620964e+00 -3.8684698277e+00 2.2334620964e+00 3.8684698277e+00 
56600 5.0109087366e+00 -4.9917227334e-03 2.2335747806e+00 -3.8686650025e+00 2.2335747806e+00 3.8686650025e+00 
56700 5.0109048802e+00 -4.9502753369e-03 2.2336865245e+00 -3.8688585485e+00 2.2336865245e+00 3.8688585485e+00 
56800 5.0109010945e+00 -4.9091337195e-03 2.2337973349e+00 -3.8690504779e+00 2.2337973349e+00 3.8690504779e+00 
56900 5.0108973783e+00 -4.8682960390e-03 2.2339072190e+00 -3.8692408026e+00 2.2339072190e+00 3.8692408026e+00 
57000 5.0108937302e+00 -4.8277604625e-03 2.2340161836e+00 -3.8694295348e+00 2.2340161836e+00 3.8694295348e+00 
57100 5.0108901492e+00 -4.7875251657e-03 2.2341242356e+00 -3.8696166864e+00 2.2341242356e+00 3.8696166864e+00 
57200 5.0108866340e+00 -4.7475883335e-03 2.2342313819e+00 -3.8698022693e+00 2.2342313819e+00 3.8698022693e+00 
57300 5.0108831835e+00 -4.7079481593e-03 2.2343376293e+00 -3.8699862952e+00 2.2343376293e+00 3.8699862952e+00 
57400 5.0108797965e+00 -4.6686028454e-03 2.2344429846e+00 -3.8701687759e+00 2.2344429846e+00 3.8701687759e+00 
57500 5.0108764719e+00 -4.6295506024e-03 2.2345474544e+00 -3.8703497230e+00 2.2345474544e+00 3.8703497230e+00 
57600 5.0108732087e+00 -4.5907896497e-03 2.2346510456e+00 -3.8705291481e+00 2.2346510456e+00 3.8705291481e+00 
57700 5.0108700057e+00 -4.5523182148e-03 2.2347537646e+00 -3.8707070628e+00 2.2347537646e+00 3.8707070628e+00 
57800 5.0108668618e+00 -4.5141345338e-03 2.2348556182e+00 -3.8708834783e+00 2.2348556182e+00 3.8708834783e+00 
57900 5.0108637761e+00 -4.4762368508e-03 2.2349566128e+00 -3.8710584061e+00 2.2349566128e+00 3.8710584061e+00 
58000 5.0108607474e+00 -4.4386234183e-03 2.2350567551e+00 -3.8712318576e+00 2.2350567551e+00 3.8712318576e+00 
58100 5.0108577748e+00 -4.4012924967e-03 2.2351560513e+00 -3.8714038437e+00 2.2351560513e+00 3.8714038437e+00 
58200 5.0108548573e+00 -4.3642423544e-03 2.2352545081e+00 -3.8715743759e+00 2.2352545081e+00 3.8715743759e+00 
58300 5.0108519938e+00 -4.3274712679e-03 2.2353521317e+00 -3.8717434650e+00 2.2353521317e+00 3.8717434650e+00 
58400 5.0108491835e+00 -4.2909775215e-03 2.2354489286e+00 -3.8719111221e+00 2.2354489286e+00 3.8719111221e+00 
58500 5.0108464254e+00 -4.2547594073e-03 2.2355449051e+00 -3.8720773582e+00 2.2355449051e+00 3.8720773582e+00 
58600 5.0108437185e+00 -4.2188152250e-03 2.2356400673e+00 -3.8722421840e+00 2.2356400673e+00 3.8722421840e+00 
58700 5.0108410620e+00 -4.1831432823e-03 2.2357344216e+00 -3.8724056105e+00 2.2357344216e+00 3.8724056105e+00 
58800 5.0108384549e+00 -4.1477418941e-03 2.2358279741e+00 -3.8725676482e+00 2.2358279741e+00 3.8725676482e+00 
58900 5.0108358963e+00 -4.1126093832e-03 2.2359207311e+00 -3.8727283079e+00 2.2359207311e+00 3.8727283079e+00 
59000 5.0108333855e+00 -4.0777440797e-03 2.2360126985e+00 -3.8728876002e+00 2.2360126985e+00 3.8728876002e+00 
59100 5.0108309214e+00 -4.0431443212e-03 2.2361038825e+00 -3.8730455355e+00 2.2361038825e+00 3.8730455355e+00 
59200 5.0108285033e+00 -4.0088084526e-03 2.2361942891e+00 -3.8732021243e+00 2.2361942891e+00 3.8732021243e+00 
59300 5.0108261304e+00 -3.9747348262e-03 2.2362839243e+00 -3.8733573771e+00 2.2362839243e+00 3.8733573771e+00 
59400 5.0108238019e+00 -3.9409218017e-03 2.2363727941e+00 -3.8735113041e+00 2.2363727941e+00 3.8735113041e+00 
59500 5.0108215168e+00 -3.9073677458e-03 2.2364609044e+00 -3.8736639155e+00 2.2364609044e+00 3.8736639155e+00 
59600 5.0108192746e+00 -3.8740710324e-03 2.2365482610e+00 -3.8738152216e+00 2.2365482610e+00 3.8738152216e+00 
59700 5.0108170743e+00 -3.8410300428e-03 2.2366348698e+00 -3.8739652325e+00 2.2366348698e+00 3.8739652325e+00 
59800 5.0108149153e+00 -3.8082431650e-03 2.2367207366e+00 -3.8741139582e+00 2.2367207366e+00 3.8741139582e+00 
59900 5.0108127967e+00 -3.7757087944e-03 2.2368058672e+00 -3.8742614087e+00 2.2368058672e+00 3.8742614087e+00 
60000 5.0108107179e+00 -3.7434253331e-03 2.2368902673e+00 -3.8744075940e+00 2.2368902673e+00 3.8744075940e+00 
60100 5.0108086782e+00 -3.7113911905e-03 2.2369739426e+00 -3.8745525238e+00 2.2369739426e+00 3.8745525238e+00 
60200 5.0108066768e+00 -3.6796047825e-03 2.2370568987e+00 -3.8746962080e+00 2.2370568987e+00 3.8746962080e+00 
60300 5.0108047130e+00 -3.6480645324e-03 2.2371391413e+00 -3.8748386564e+00 2.2371391413e+00 3.8748386564e+00 
60400 5.0108027862e+00 -3.6167688699e-03 2.2372206760e+00 -3.8749798785e+00 2.2372206760e+00 3.8749798785e+00 
60500 5.0108008956e+00 -3.5857162318e-03 2.2373015082e+00 -3.8751198841e+00 2.2373015082e+00 3.8751198841e+00 
60600 5.0107990407e+00 -3.5549050616e-03 2.2373816435e+00 -3.8752586825e+00 2.2373816435e+00 3.8752586825e+00 
60700 5.0107972207e+00 -3.5243338095e-03 2.2374610874e+00 -3.8753962834e+00 2.2374610874e+00 3.8753962834e+00 
60800 5.0107954351e+00 -3.4940009325e-03 2.2375398453e+00 -3.8755326960e+00 2.2375398453e+00 3.8755326960e+00 
60900 5.0107936832e+00 -3.4639048944e-03 2.2376179226e+00 -3.8756679299e+00 2.2376179226e+00 3.8756679299e+00 
61000 5.0107919644e+00 -3.4340441654e-03 2.2376953247e+00 -3.8758019942e+00 2.2376953247e+00 3.8758019942e+00 
61100 5.0107902781e+00 -3.4044172226e-03 2.2377720568e+00 -3.8759348982e+00 2.2377720568e+00 3.8759348982e+00 
61200 5.0107886237e+00 -3.3750225495e-03 2.2378481244e+00 -3.8760666510e+00 2.2378481244e+00 3.8760666510e+00 
61300 5.0107870006e+00 -3.3458586365e-03 2.2379235326e+00 -3.8761972619e+00 2.2379235326e+00 3.8761972619e+00 
61400 5.0107854082e+00 -3.3169239803e-03 2.2379982866e+00 -3.8763267397e+00 2.2379982866e+00 3.8763267397e+00 
61500 5.0107838460e+00 -3.2882170843e-03 2.2380723917e+00 -3.8764550935e+00 2.2380723917e+00 3.8764550935e+00 
61600 5.0107823135e+00 -3.2597364583e-03 2.2381458531e+00 -3.8765823322e+00 2.2381458531e+00 3.8765823322e+00 
61700 5.0107808100e+00 -3.2314806188e-03 2.2382186757e+00 -3.8767084648e+00 2.2382186757e+00 3.8767084648e+00 
61800 5.0107793351e+00 -3.2034480885e-03 2.2382908648e+00 -3.8768334999e+00 2.2382908648e+00 3.8768334999e+00 
61900 5.0107778882e+00 -3.1756373970e-03 2.2383624253e+00 -3.8769574463e+00 2.2383624253e+00 3.8769574463e+00 
62000 5.0107764688e+00 -3.1480470799e-03 2.2384333623e+00 -3.8770803128e+00 2.2384333623e+00 3.8770803128e+00 
62100 5.0107750764e+00 -3.1206756796e-03 2.2385036807e+00 -3.8772021080e+00 2.2385036807e+00 3.8772021080e+00 
62200 5.0107737106e+00 -3.0935217447e-03 2.2385733856e+00 -3.8773228403e+00 2.2385733856e+00 3.8773228403e+00 
62300 5.0107723707e+00 -3.0665838304e-03 2.2386424818e+00 -3.8774425184e+00 2.2386424818e+00 3.8774425184e+00 
62400 5.0107710564e+00 -3.0398604980e-03 2.2387109742e+00 -3.8775611507e+00 2.2387109742e+00 3.8775611507e+00 
62500 5.0107697672e+00 -3.0133503156e-03 2.2387788676e+00 -3.8776787456e+00 2.2387788676e+00 3.8776787456e+00 
62600 5.0107685025e+00 -2.9870518573e-03 2.2388461669e+00 -3.8777953114e+00 2.2388461669e+00 3.8777953114e+00 
62700 5.0107672620e+00 -2.9609637037e-03 2.2389128769e+00 -3.8779108565e+00 2.2389128769e+00 3.8779108565e+00 
62800 5.0107660452e+00 -2.9350844418e-03 2.2389790022e+00 -3.8780253890e+00 2.2389790022e+00 3.8780253890e+00 
62900 5.0107648517e+00 -2.9094126649e-03 2.2390445477e+00 -3.8781389170e+00 2.2390445477e+00 3.8781389170e+00 
63000 5.0107636810e+00 -2.8839469727e-03 2.2391095180e+00 -3.8782514489e+00 2.2391095180e+00 3.8782514489e+00 
63100 5.0107625327e+00 -2.8586859710e-03 2.2391739177e+00 -3.8783629925e+00 2.2391739177e+00 3.8783629925e+00 
63200 5.0107614064e+00 -2.8336282721e-03 2.2392377515e+00 -3.8784735558e+00 2.2392377515e+00 3.8784735558e+00 
63300 5.0107603017e+00 -2.8087724946e-03 2.2393010240e+00 -3.8785831470e+00 2.2393010240e+00 3.8785831470e+00 
63400 5.0107592182e+00 -2.7841172633e-03 2.2393637396e+00 -3.8786917737e+00 2.2393637396e+00 3.8786917737e+00 
63500 5.0107581555e+00 -2.7596612094e-03 2.2394259031e+00 -3.8787994439e+00 2.2394259031e+00 3.8787994439e+00 
63600 5.0107571132e+00 -2.7354029702e-03 2.2394875187e+00 -3.8789061653e+00 2.2394875187e+00 3.8789061653e+00 
63700 5.0107560909e+00 -2.7113411895e-03 2.2395485911e+00 -3.8790119458e+00 2.2395485911e+00 3.8790119458e+00 
63800 5.0107550882e+00 -2.6874745172e-03 2.2396091246e+00 -3.8791167928e+00 2.2396091246e+00 3.8791167928e+00 
63900 5.0107541049e+00 -2.6638016095e-03 2.2396691236e+00 -3.8792207141e+00 2.2396691236e+00 3.8792207141e+00 
64000 5.0107531404e+00 -2.6403211289e-03 2.2397285925e+00 -3.8793237173e+00 2.2397285925e+00 3.8793237173e+00 
64100 5.0107521946e+00 -2.6170317441e-03 2.2397875356e+00 -3.8794258098e+00 2.2397875356e+00 3.8794258098e+00 
64200 5.0107512669e+00 -2.5939321301e-03 2.2398459573e+00 -3.8795269991e+00 2.2398459573e+00 3.8795269991e+00 
64300 5.0107503572e+00 -2.5710209681e-03 2.2399038618e+00 -3.8796272927e+00 2.2399038618e+00 3.8796272927e+00 
64400 5.0107494649e+00 -2.5482969455e-03 2.2399612534e+00 -3.8797266978e+00 2.2399612534e+00 3.8797266978e+00 
64500 5.0107485899e+00 -2.5257587560e-03 2.2400181362e+00 -3.8798252218e+00 2.2400181362e+00 3.8798252218e+00 
64600 5.0107477319e+00 -2.5034050995e-03 2.2400745145e+00 -3.8799228719e+00 2.2400745145e+00 3.8799228719e+00 
64700 5.0107468903e+00 -2.4812346822e-03 2.2401303925e+00 -3.8800196554e+00 2.2401303925e+00 3.8800196554e+00 
64800 5.0107460651e+00 -2.4592462163e-03 2.2401857742e+00 -3.8801155793e+00 2.2401857742e+00 3.8801155793e+00 
64900 5.0107452558e+00 -2.4374384205e-03 2.2402406638e+00 -3.8802106508e+00 2.2402406638e+00 3.8802106508e+00 
65000 5.0107444622e+00 -2.4158100196e-03 2.2402950652e+00 -3.8803048769e+00 2.2402950652e+00 3.8803048769e+00 
65100 5.0107436839e+00 -2.3943597444e-03 2.2403489827e+00 -3.8803982647e+00 2.2403489827e+00 3.8803982647e+00 
65200 5.0107429208e+00 -2.3730863323e-03 2.2404024201e+00 -3.8804908210e+00 2.2404024201e+00 3.8804908210e+00 
65300 5.0107421724e+00 -2.3519885265e-03 2.2404553815e+00 -3.8805825528e+00 2.2404553815e+00 3.8805825528e+00 
65400 5.0107414385e+00 -2.3310650768e-03 2.2405078707e+00 -3.8806734669e+00 2.2405078707e+00 3.8806734669e+00 
65500 5.0107407189e+00 -2.3103147388e-03 2.2405598919e+00 -3.8807635701e+00 2.2405598919e+00 3.8807635701e+00 
65600 5.0107400133e+00 -2.2897362747e-03 2.2406114487e+00 -3.8808528692e+00 2.2406114487e+00 3.8808528692e+00 
65700 5.0107393214e+00 -2.2693284525e-03 2.2406625451e+00 -3.8809413708e+00 2.2406625451e+00 3.8809413708e+00 
65800 5.0107386429e+00 -2.2490900467e-03 2.2407131850e+00 -3.8810290816e+00 2.2407131850e+00 3.8810290816e+00 
65900 5.0107379776e+00 -2.2290198378e-03 2.2407633721e+00 -3.8811160082e+00 2.2407633721e+00 3.8811160082e+00 
66000 5.0107373253e+00 -2.2091166125e-03 2.2408131102e+00 -3.8812021572e+00 2.2408131102e+00 3.8812021572e+00 
66100 5.0107366857e+00 -2.1893791638e-03 2.2408624032e+00 -3.8812875351e+00 2.2408624032e+00 3.8812875351e+00 
66200 5.0107360585e+00 -2.1698062907e-03 2.2409112546e+00 -3.8813721482e+00 2.2409112546e+00 3.8813721482e+00 
66300 5.0107354436e+00 -2.1503967986e-03 2.2409596683e+00 -3.8814560031e+00 2.2409596683e+00 3.8814560031e+00 
66400 5.0107348406e+00 -2.1311494987e-03 2.2410076478e+00 -3.8815391062e+00 2.2410076478e+00 3.8815391062e+00 
66500 5.0107342495e+00 -2.1120632089e-03 2.2410551969e+00 -3.8816214636e+00 2.2410551969e+00 3.8816214636e+00 
66600 5.0107336698e+00 -2.0931367527e-03 2.2411023191e+00 -3.8817030817e+00 2.2411023191e+00 3.8817030817e+00 
66700 5.0107331015e+00 -2.0743689602e-03 2.2411490181e+00 -3.8817839667e+00 2.2411490181e+00 3.8817839667e+00 
66800 5.0107325443e+00 -2.0557586673e-03 2.2411952974e+00 -3.8818641248e+00 2.2411952974e+00 3.8818641248e+00 
66900 5.0107319980e+00 -2.0373047164e-03 2.2412411606e+00 -3.8819435621e+00 2.2412411606e+00 3.8819435621e+00 
67000 5.0107314624e+00 -2.0190059558e-03 2.2412866111e+00 -3.8820222847e+00 2.2412866111e+00 3.8820222847e+00 
67100 5.0107309373e+00 -2.0008612400e-03 2.2413316525e+00 -3.8821002987e+00 2.2413316525e+00 3.8821002987e+00 
67200 5.0107304225e+00 -1.9828694296e-03 2.2413762882e+00 -3.8821776100e+00 2.2413762882e+00 3.8821776100e+00 
67300 5.0107299177e+00 -1.9650293915e-03 2.2414205216e+00 -3.8822542245e+00 2.2414205216e+00 3.8822542245e+00 
67400 5.0107294229e+00 -1.9473399985e-03 2.2414643562e+00 -3.8823301483e+00 2.2414643562e+00 3.8823301483e+00 
67500 5.0107289377e+00 -1.9298001297e-03 2.2415077954e+00 -3.8824053871e+00 2.2415077954e+00 3.8824053871e+00 
67600 5.0107284621e+00 -1.9124086702e-03 2.2415508424e+00 -3.8824799468e+00 2.2415508424e+00 3.8824799468e+00 
67700 5.0107279958e+00 -1.8951645113e-03 2.2415935007e+00 -3.8825538332e+00 2.2415935007e+00 3.8825538332e+00 
67800 5.0107275387e+00 -1.8780665504e-03 2.2416357736e+00 -3.8826270519e+00 2.2416357736e+00 3.8826270519e+00 
67900 5.0107270906e+00 -1.8611136908e-03 2.2416776642e+00 -3.8826996086e+00 2.2416776642e+00 3.8826996086e+00 
68000 5.0107266513e+00 -1.8443048423e-03 2.2417191760e+00 -3.8827715091e+00 2.2417191760e+00 3.8827715091e+00 
68100 5.0107262206e+00 -1.8276389204e-03 2.2417603120e+00 -3.8828427589e+00 2.2417603120e+00 3.8828427589e+00 
68200 5.0107257984e+00 -1.8111148468e-03 2.2418010756e+00 -3.8829133635e+00 2.2418010756e+00 3.8829133635e+00 
68300 5.0107253846e+00 -1.7947315494e-03 2.2418414700e+00 -3.8829833285e+00 2.2418414700e+00 3.8829833285e+00 
68400 5.0107249789e+00 -1.7784879621e-03 2.2418814981e+00 -3.8830526593e+00 2.2418814981e+00 3.8830526593e+00 
68500 5.0107245812e+00 -1.7623830247e-03 2.2419211633e+00 -3.8831213615e+00 2.2419211633e+00 3.8831213615e+00 
68600 5.0107241913e+00 -1.7464156833e-03 2.2419604687e+00 -3.8831894403e+00 2.2419604687e+00 3.8831894403e+00 
68700 5.0107238091e+00 -1.7305848899e-03 2.2419994172e+00 -3.8832569011e+00 2.2419994172e+00 3.8832569011e+00 
68800 5.0107234345e+00 -1.7148896026e-03 2.2420380120e+00 -3.8833237492e+00 2.2420380120e+00 3.8833237492e+00 
68900 5.0107230673e+00 -1.6993287855e-03 2.2420762561e+00 -3.8833899899e+00 2.2420762561e+00 3.8833899899e+00 
69000 5.0107227074e+00 -1.6839014086e-03 2.2421141525e+00 -3.8834556285e+00 2.2421141525e+00 3.8834556285e+00 
69100 5.0107223545e+00 -1.6686064482e-03 2.2421517042e+00 -3.8835206700e+00 2.2421517042e+00 3.8835206700e+00 
69200 5.0107220087e+00 -1.6534428863e-03 2.2421889143e+00 -3.8835851197e+00 2.2421889143e+00 3.8835851197e+00 
69300 5.0107216697e+00 -1.6384097111e-03 2.2422257855e+00 -3.8836489826e+00 2.2422257855e+00 3.8836489826e+00 
69400 5.0107213374e+00 -1.6235059166e-03 2.2422623210e+00 -3.8837122639e+00 2.2422623210e+00 3.8837122639e+00 
69500 5.0107210117e+00 -1.6087305031e-03 2.2422985235e+00 -3.8837749684e+00 2.2422985235e+00 3.8837749684e+00 
69600 5.0107206925e+00 -1.5940824764e-03 2.2423343959e+00 -3.8838371013e+00 2.2423343959e+00 3.8838371013e+00 
69700 5.0107203796e+00 -1.5795608487e-03 2.2423699412e+00 -3.8838986675e+00 2.2423699412e+00 3.8838986675e+00 
69800 5.0107200729e+00 -1.5651646378e-03 2.2424051621e+00 -3.8839596719e+00 2.2424051621e+00 3.8839596719e+00 
69900 5.0107197723e+00 -1.5508928676e-03 2.2424400614e+00 -3.8840201193e+00 2.2424400614e+00 3.8840201193e+00 
70000 5.0107194777e+00 -1.5367445679e-03 2.2424746420e+00 -3.8840800146e+00 2.2424746420e+00 3.8840800146e+00 
70100 5.0107191889e+00 -1.5227187744e-03 2.2425089065e+00 -3.8841393625e+00 2.2425089065e+00 3.8841393625e+00 
70200 5.0107189059e+00 -1.5088145287e-03 2.2425428579e+00 -3.8841981680e+00 2.2425428579e+00 3.8841981680e+00 
70300 5.0107186285e+00 -1.4950308783e-03 2.2425764986e+00 -3.8842564355e+00 2.2425764986e+00 3.8842564355e+00 
70400 5.0107183566e+00 -1.4813668765e-03 2.2426098316e+00 -3.8843141699e+00 2.2426098316e+00 3.8843141699e+00 
70500 5.0107180902e+00 -1.4678215825e-03 2.2426428594e+00 -3.8843713758e+00 2.2426428594e+00 3.8843713758e+00 
70600 5.0107178290e+00 -1.4543940614e-03 2.2426755848e+00 -3.8844280577e+00 2.2426755848e+00 3.8844280577e+00 
70700 5.0107175731e+00 -1.4410833841e-03 2.2427080103e+00 -3.8844842203e+00 2.2427080103e+00 3.8844842203e+00 
70800 5.0107173223e+00 -1.4278886272e-03 2.2427401386e+00 -3.8845398682e+00 2.2427401386e+00 3.8845398682e+00 
70900 5.0107170764e+00 -1.4148088733e-03 2.2427719722e+00 -3.8845950056e+00 2.2427719722e+00 3.8845950056e+00 
71000 5.0107168355e+00 -1.4018432107e-03 2.2428035138e+00 -3.8846496373e+00 2.2428035138e+00 3.8846496373e+00 
71100 5.0107165994e+00 -1.3889907334e-03 2.2428347659e+00 -3.8847037675e+00 2.2428347659e+00 3.8847037675e+00 
71200 5.0107163681e+00 -1.3762505414e-03 2.2428657310e+00 -3.8847574007e+00 2.2428657310e+00 3.8847574007e+00 
71300 5.0107161413e+00 -1.3636217401e-03 2.2428964117e+00 -3.8848105413e+00 2.2428964117e+00 3.8848105413e+00 
71400 5.0107159191e+00 -1.3511034409e-03 2.2429268105e+00 -3.8848631934e+00 2.2429268105e+00 3.8848631934e+00 
71500 5.0107157013e+00 -1.3386947609e-03 2.2429569298e+00 -3.8849153615e+00 2.2429569298e+00 3.8849153615e+00 
71600 5.0107154879e+00 -1.3263948228e-03 2.2429867720e+00 -3.8849670498e+00 2.2429867720e+00 3.8849670498e+00 
71700 5.0107152788e+00 -1.3142027549e-03 2.2430163397e+00 -3.8850182625e+00 2.2430163397e+00 3.8850182625e+00 
71800 5.0107150738e+00 -1.3021176915e-03 2.2430456352e+00 -3.8850690038e+00 2.2430456352e+00 3.8850690038e+00 
71900 5.0107148730e+00 -1.2901387722e-03 2.2430746609e+00 -3.8851192779e+00 2.2430746609e+00 3.8851192779e+00 
72000 5.0107146762e+00 -1.2782651425e-03 2.2431034192e+00 -3.8851690887e+00 2.2431034192e+00 3.8851690887e+00 
72100 5.0107144834e+00 -1.2664959533e-03 2.2431319125e+00 -3.8852184406e+00 2.2431319125e+00 3.8852184406e+00 
72200 5.0107142944e+00 -1.2548303612e-03 2.2431601431e+00 -3.8852673374e+00 2.2431601431e+00 3.8852673374e+00 
72300 5.0107141092e+00 -1.2432675285e-03 2.2431881133e+00 -3.8853157832e+00 2.2431881133e+00 3.8853157832e+00 
72400 5.0107139278e+00 -1.2318066228e-03 2.2432158254e+00 -3.8853637820e+00 2.2432158254e+00 3.8853637820e+00 
72500 5.0107137500e+00 -1.2204468176e-03 2.2432432818e+00 -3.8854113377e+00 2.2432432818e+00 3.8854113377e+00 
72600 5.0107135758e+00 -1.2091872915e-03 2.2432704845e+00 -3.8854584543e+00 2.2432704845e+00 3.8854584543e+00 
72700 5.0107134051e+00 -1.1980272291e-03 2.2432974360e+00 -3.8855051357e+00 2.2432974360e+00 3.8855051357e+00 
72800 5.0107132378e+00 -1.1869658202e-03 2.2433241385e+00 -3.8855513857e+00 2.2433241385e+00 3.8855513857e+00 
72900 5.0107130739e+00 -1.1760022599e-03 2.2433505940e+00 -3.8855972080e+00 2.2433505940e+00 3.8855972080e+00 
73000 5.0107129133e+00 -1.1651357493e-03 2.2433768049e+00 -3.8856426066e+00 2.2433768049e+00 3.8856426066e+00 
73100 5.0107127559e+00 -1.1543654944e-03 2.2434027733e+00 -3.8856875852e+00 2.2434027733e+00 3.8856875852e+00 
73200 5.0107126017e+00 -1.1436907069e-03 2.2434285014e+00 -3.8857321475e+00 2.2434285014e+00 3.8857321475e+00 
73300 5.0107124507e+00 -1.1331106038e-03 2.2434539912e+00 -3.8857762972e+00 2.2434539912e+00 3.8857762972e+00 
73400 5.0107123027e+00 -1.1226244076e-03 2.2434792450e+00 -3.8858200380e+00 2.2434792450e+00 3.8858200380e+00 
73500 5.0107121576e+00 -1.1122313461e-03 2.2435042647e+00 -3.8858633735e+00 2.2435042647e+00 3.8858633735e+00 
73600 5.0107120155e+00 -1.1019306523e-03 2.2435290526e+00 -3.8859063073e+00 2.2435290526e+00 3.8859063073e+00 
73700 5.0107118763e+00 -1.0917215647e-03 2.2435536106e+00 -3.8859488431e+00 2.2435536106e+00 3.8859488431e+00 
73800 5.0107117399e+00 -1.0816033270e-03 2.2435779408e+00 -3.8859909843e+00 2.2435779408e+00 3.8859909843e+00 
73900 5.0107116063e+00 -1.0715751883e-03 2.2436020453e+00 -3.8860327345e+00 2.2436020453e+00 3.8860327345e+00 
74000 5.0107114754e+00 -1.0616364028e-03 2.2436259260e+00 -3.8860740971e+00 2.2436259260e+00 3.8860740971e+00 
74100 5.0107113471e+00 -1.0517862299e-03 2.2436495850e+00 -3.8861150757e+00 2.2436495850e+00 3.8861150757e+00 
74200 5.0107112214e+00 -1.0420239346e-03 2.2436730243e+00 -3.8861556736e+00 2.2436730243e+00 3.8861556736e+00 
74300 5.0107110983e+00 -1.0323487865e-03 2.2436962457e+00 -3.8861958943e+00 2.2436962457e+00 3.8861958943e+00 
74400 5.0107109777e+00 -1.0227600609e-03 2.2437192513e+00 -3.8862357411e+00 2.2437192513e+00 3.8862357411e+00 
74500 5.0107108595e+00 -1.0132570380e-03 2.2437420429e+00 -3.8862752174e+00 2.2437420429e+00 3.8862752174e+00 
74600 5.0107107437e+00 -1.0038390031e-03 2.2437646226e+00 -3.8863143265e+00 2.2437646226e+00 3.8863143265e+00 
74700 5.0107106303e+00 -9.9450524675e-04 2.2437869921e+00 -3.8863530718e+00 2.2437869921e+00 3.8863530718e+00 
74800 5.0107105192e+00 -9.8525506444e-04 2.2438091535e+00 -3.8863914563e+00 2.2438091535e+00 3.8863914563e+00 
74900 5.0107104103e+00 -9.7608775681e-04 2.2438311085e+00 -3.8864294835e+00 2.2438311085e+00 3.8864294835e+00 
75000 5.0107103037e+00 -9.6700262951e-04 2.2438528590e+00 -3.8864671565e+00 2.2438528590e+00 3.8864671565e+00 
75100 5.0107101992e+00 -9.5799899323e-04 2.2438744069e+00 -3.8865044785e+00 2.2438744069e+00 3.8865044785e+00 
75200 5.0107100969e+00 -9.4907616363e-04 2.2438957539e+00 -3.8865414526e+00 2.2438957539e+00 3.8865414526e+00 
75300 5.0107099967e+00 -9.4023346136e-04 2.2439169019e+00 -3.8865780820e+00 2.2439169019e+00 3.8865780820e+00 
75400 5.0107098985e+00 -9.3147021199e-04 2.2439378526e+00 -3.8866143698e+00 2.2439378526e+00 3.8866143698e+00 
75500 5.0107098023e+00 -9.2278574605e-04 2.2439586079e+00 -3.8866503190e+00 2.2439586079e+00 3.8866503190e+00 
75600 5.0107097080e+00 -9.1417939896e-04 2.2439791695e+00 -3.8866859327e+00 2.2439791695e+00 3.8866859327e+00 
75700 5.0107096157e+00 -9.0565051101e-04 2.2439995391e+00 -3.8867212139e+00 2.2439995391e+00 3.8867212139e+00 
75800 5.0107095253e+00 -8.9719842735e-04 2.2440197185e+00 -3.8867561657e+00 2.2440197185e+00 3.8867561657e+00 
75900 5.0107094367e+00 -8.8882249797e-04 2.2440397094e+00 -3.8867907910e+00 2.2440397094e+00 3.8867907910e+00 
76000 5.0107093499e+00 -8.8052207766e-04 2.2440595135e+00 -3.8868250927e+00 2.2440595135e+00 3.8868250927e+00 
76100 5.0107092650e+00 -8.7229652600e-04 2.2440791325e+00 -3.8868590738e+00 2.2440791325e+00 3.8868590738e+00 
76200 5.0107091817e+00 -8.6414520733e-04 2.2440985681e+00 -3.8868927371e+00 2.2440985681e+00 3.8868927371e+00 
76300 5.0107091002e+00 -8.5606749074e-04 2.2441178218e+00 -3.8869260856e+00 2.2441178218e+00 3.8869260856e+00 
76400 5.0107090203e+00 -8.4806275000e-04 2.2441368954e+00 -3.8869591220e+00 2.2441368954e+00 3.8869591220e+00 
76500 5.0107089421e+00 -8.4013036362e-04 2.2441557905e+00 -3.8869918493e+00 2.2441557905e+00 3.8869918493e+00 
76600 5.0107088654e+00 -8.3226971473e-04 2.2441745088e+00 -3.8870242702e+00 2.2441745088e+00 3.8870242702e+00 
76700 5.0107087904e+00 -8.2448019112e-04 2.2441930517e+00 -3.8870563875e+00 2.2441930517e+00 3.8870563875e+00 
76800 5.0107087169e+00 -8.1676118519e-04 2.2442114209e+00 -3.8870882039e+00 2.2442114209e+00 3.8870882039e+00 
76900 5.0107086449e+00 -8.0911209396e-04 2.2442296180e+00 -3.8871197222e+00 2.2442296180e+00 3.8871197222e+00 
77000 5.0107085743e+00 -8.0153231899e-04 2.2442476445e+00 -3.8871509450e+00 2.2442476445e+00 3.8871509450e+00 
77100 5.0107085053e+00 -7.9402126640e-04 2.2442655020e+00 -3.8871818751e+00 2.2442655020e+00 3.8871818751e+00 
77200 5.0107084376e+00 -7.8657834681e-04 2.2442831920e+00 -3.8872125152e+00 2.2442831920e+00 3.8872125152e+00 
77300 5.0107083714e+00 -7.7920297536e-04 2.2443007161e+00 -3.8872428677e+00 2.2443007161e+00 3.8872428677e+00 
77400 5.0107083065e+00 -7.7189457165e-04 2.2443180757e+00 -3.8872729355e+00 2.2443180757e+00 3.8872729355e+00 
77500 5.0107082429e+00 -7.6465255972e-04 2.2443352724e+00 -3.8873027210e+00 2.2443352724e+00 3.8873027210e+00 
77600 5.0107081807e+00 -7.5747636805e-04 2.2443523076e+00 -3.8873322268e+00 2.2443523076e+00 3.8873322268e+00 
77700 5.0107081197e+00 -7.5036542950e-04 2.2443691828e+00 -3.8873614555e+00 2.2443691828e+00 3.8873614555e+00 
77800 5.0107080600e+00 -7.4331918131e-04 2.2443858994e+00 -3.8873904095e+00 2.2443858994e+00 3.8873904095e+00 
77900 5.0107080015e+00 -7.3633706508e-04 2.2444024589e+00 -3.8874190915e+00 2.2444024589e+00 3.8874190915e+00 
78000 5.0107079443e+00 -7.2941852670e-04 2.2444188628e+00 -3.8874475039e+00 2.2444188628e+00 3.8874475039e+00 
78100 5.0107078882e+00 -7.2256301641e-04 2.2444351124e+00 -3.8874756490e+00 2.2444351124e+00 3.8874756490e+00 
78200 5.0107078333e+00 -7.1576998867e-04 2.2444512092e+00 -3.8875035295e+00 2.2444512092e+00 3.8875035295e+00 
78300 5.0107077795e+00 -7.0903890222e-04 2.2444671546e+00 -3.8875311476e+00 2.2444671546e+00 3.8875311476e+00 
78400 5.0107077268e+00 -7.0236922002e-04 2.2444829498e+00 -3.8875585059e+00 2.2444829498e+00 3.8875585059e+00 
78500 5.0107076752e+00 -6.9576040923e-04 2.2444985964e+00 -3.8875856065e+00 2.2444985964e+00 3.8875856065e+00 
78600 5.0107076247e+00 -6.8921194118e-04 2.2445140957e+00 -3.8876124520e+00 2.2445140957e+00 3.8876124520e+00 
78700 5.0107075753e+00 -6.8272329136e-04 2.2445294490e+00 -3.8876390447e+00 2.2445294490e+00 3.8876390447e+00 
78800 5.0107075268e+00 -6.7629393937e-04 2.2445446576e+00 -3.8876653868e+00 2.2445446576e+00 3.8876653868e+00 
78900 5.0107074794e+00 -6.6992336892e-04 2.2445597229e+00 -3.8876914807e+00 2.2445597229e+00 3.8876914807e+00 
79000 5.0107074329e+00 -6.6361106781e-04 2.2445746462e+00 -3.8877173286e+00 2.2445746462e+00 3.8877173286e+00 
79100 5.0107073874e+00 -6.5735652786e-04 2.2445894287e+00 -3.8877429327e+00 2.2445894287e+00 3.8877429327e+00 
79200 5.0107073429e+00 -6.5115924495e-04 2.2446040719e+00 -3.8877682954e+00 2.2446040719e+00 3.8877682954e+00 
79300 5.0107072993e+00 -6.4501871893e-04 2.2446185769e+00 -3.8877934188e+00 2.2446185769e+00 3.8877934188e+00 
79400 5.0107072566e+00 -6.3893445365e-04 2.2446329450e+00 -3.8878183051e+00 2.2446329450e+00 3.8878183051e+00 
79500 5.0107072148e+00 -6.3290595690e-04 2.2446471775e+00 -3.8878429566e+00 2.2446471775e+00 3.8878429566e+00 
79600 5.0107071738e+00 -6.2693274042e-04 2.2446612757e+00 -3.8878673753e+00 2.2446612757e+00 3.8878673753e+00 
79700 5.0107071337e+00 -6.2101431981e-04 2.2446752407e+00 -3.8878915633e+00 2.2446752407e+00 3.8878915633e+00 
79800 5.0107070945e+00 -6.1515021460e-04 2.2446890737e+00 -3.8879155229e+00 2.2446890737e+00 3.8879155229e+00 
79900 5.0107070560e+00 -6.0933994814e-04 2.2447027761e+00 -3.8879392561e+00 2.2447027761e+00 3.8879392561e+00 
80000 5.0107070184e+00 -6.0358304761e-04 2.2447163490e+00 -3.8879627650e+00 2.2447163490e+00 3.8879627650e+00 
80100 5.0107069815e+00 -5.9787904402e-04 2.2447297935e+00 -3.8879860516e+00 2.2447297935e+00 3.8879860516e+00 
80200 5.0107069455e+00 -5.9222747213e-04 2.2447431109e+00 -3.8880091180e+00 2.2447431109e+00 3.8880091180e+00 
80300 5.0107069101e+00 -5.8662787048e-04 2.2447563023e+00 -3.8880319663e+00 2.2447563023e+00 3.8880319663e+00 
80400 5.0107068755e+00 -5.8107978133e-04 2.2447693690e+00 -3.8880545984e+00 2.2447693690e+00 3.8880545984e+00 
80500 5.0107068417e+00 -5.7558275065e-04 2.2447823120e+00 -3.8880770163e+00 2.2447823120e+00 3.8880770163e+00 
80600 5.0107068085e+00 -5.7013632810e-04 2.2447951324e+00 -3.8880992220e+00 2.2447951324e+00 3.8880992220e+00 
80700 5.0107067761e+00 -5.6474006698e-04 2.2448078315e+00 -3.8881212174e+00 2.2448078315e+00 3.8881212174e+00 
80800 5.0107067443e+00 -5.5939352425e-04 2.2448204103e+00 -3.8881430046e+00 2.2448204103e+00 3.8881430046e+00 
80900 5.0107067132e+00 -5.5409626047e-04 2.2448328700e+00 -3.8881645853e+00 2.2448328700e+00 3.8881645853e+00 
81000 5.0107066827e+00 -5.4884783977e-04 2.2448452116e+00 -3.8881859616e+00 2.2448452116e+00 3.8881859616e+00 
81100 5.0107066529e+00 -5.4364782988e-04 2.2448574362e+00 -3.8882071353e+00 2.2448574362e+00 3.8882071353e+00 
81200 5.0107066237e+00 -5.3849580203e-04 2.2448695450e+00 -3.8882281083e+00 2.2448695450e+00 3.8882281083e+00 
81300 5.0107065951e+00 -5.3339133099e-04 2.2448815389e+00 -3.8882488824e+00 2.2448815389e+00 3.8882488824e+00 
81400 5.0107065671e+00 -5.2833399502e-04 2.2448934191e+00 -3.8882694595e+00 2.2448934191e+00 3.8882694595e+00 
81500 5.0107065397e+00 -5.2332337583e-04 2.2449051866e+00 -3.8882898413e+00 2.2449051866e+00 3.8882898413e+00 
81600 5.0107065129e+00 -5.1835905860e-04 2.2449168424e+00 -3.8883100298e+00 2.2449168424e+00 3.8883100298e+00 
81700 5.0107064867e+00 -5.1344063189e-04 2.2449283876e+00 -3.8883300266e+00 2.2449283876e+00 3.8883300266e+00 
81800 5.0107064610e+00 -5.0856768771e-04 2.2449398231e+00 -3.8883498336e+00 2.2449398231e+00 3.8883498336e+00 
81900 5.0107064358e+00 -5.0373982141e-04 2.2449511501e+00 -3.8883694525e+00 2.2449511501e+00 3.8883694525e+00 
82000 5.0107064112e+00 -4.9895663168e-04 2.2449623695e+00 -3.8883888851e+00 2.2449623695e+00 3.8883888851e+00 
82100 5.0107063871e+00 -4.9421772057e-04 2.2449734824e+00 -3.8884081331e+00 2.2449734824e+00 3.8884081331e+00 
82200 5.0107063635e+00 -4.8952269340e-04 2.2449844896e+00 -3.8884271981e+00 2.2449844896e+00 3.8884271981e+00 
82300 5.0107063404e+00 -4.8487115880e-04 2.2449953922e+00 -3.8884460820e+00 2.2449953922e+00 3.8884460820e+00 
82400 5.0107063177e+00 -4.8026272864e-04 2.2450061911e+00 -3.8884647863e+00 2.2450061911e+00 3.8884647863e+00 
82500 5.0107062956e+00 -4.7569701803e-04 2.2450168874e+00 -3.8884833128e+00 2.2450168874e+00 3.8884833128e+00 
82600 5.0107062739e+00 -4.7117364528e-04 2.2450274819e+00 -3.8885016630e+00 2.2450274819e+00 3.8885016630e+00 
82700 5.0107062527e+00 -4.6669223190e-04 2.2450379756e+00 -3.8885198387e+00 2.2450379756e+00 3.8885198387e+00 
82800 5.0107062320e+00 -4.6225240257e-04 2.2450483695e+00 -3.8885378414e+00 2.2450483695e+00 3.8885378414e+00 
82900 5.0107062117e+00 -4.5785378510e-04 2.2450586644e+00 -3.8885556727e+00 2.2450586644e+00 3.8885556727e+00 
83000 5.0107061918e+00 -4.5349601043e-04 2.2450688613e+00 -3.8885733343e+00 2.2450688613e+00 3.8885733343e+00 
83100 5.0107061723e+00 -4.4917871259e-04 2.2450789612e+00 -3.8885908278e+00 2.2450789612e+00 3.8885908278e+00 
83200 5.0107061533e+00 -4.4490152870e-04 2.2450889648e+00 -3.8886081546e+00 2.2450889648e+00 3.8886081546e+00 
83300 5.0107061346e+00 -4.4066409891e-04 2.2450988731e+00 -3.8886253163e+00 2.2450988731e+00 3.8886253163e+00 
83400 5.0107061164e+00 -4.3646606644e-04 2.2451086871e+00 -3.8886423145e+00 2.2451086871e+00 3.8886423145e+00 
83500 5.0107060985e+00 -4.3230707747e-04 2.2451184074e+00 -3.8886591507e+00 2.2451184074e+00 3.8886591507e+00 
83600 5.0107060810e+00 -4.2818678120e-04 2.2451280352e+00 -3.8886758264e+00 2.2451280352e+00 3.8886758264e+00 
83700 5.0107060639e+00 -4.2410482980e-04 2.2451375711e+00 -3.8886923431e+00 2.2451375711e+00 3.8886923431e+00 
83800 5.0107060472e+00 -4.2006087835e-04 2.2451470161e+00 -3.8887087023e+00 2.2451470161e+00 3.8887087023e+00 
83900 5.0107060308e+00 -4.1605458489e-04 2.2451563709e+00 -3.8887249054e+00 2.2451563709e+00 3.8887249054e+00 
84000 5.0107060147e+00 -4.1208561033e-04 2.2451656365e+00 -3.8887409539e+00 2.2451656365e+00 3.8887409539e+00 
84100 5.0107059990e+00 -4.0815361848e-04 2.2451748137e+00 -3.8887568492e+00 2.2451748137e+00 3.8887568492e+00 
84200 5.0107059837e+00 -4.0425827601e-04 2.2451839033e+00 -3.8887725928e+00 2.2451839033e+00 3.8887725928e+00 
84300 5.0107059686e+00 -4.0039925239e-04 2.2451929061e+00 -3.8887881861e+00 2.2451929061e+00 3.8887881861e+00 
84400 5.0107059539e+00 -3.9657621994e-04 2.2452018229e+00 -3.8888036305e+00 2.2452018229e+00 3.8888036305e+00 
84500 5.0107059395e+00 -3.9278885377e-04 2.2452106546e+00 -3.8888189274e+00 2.2452106546e+00 3.8888189274e+00 
84600 5.0107059254e+00 -3.8903683176e-04 2.2452194018e+00 -3.8888340781e+00 2.2452194018e+00 3.8888340781e+00 
84700 5.0107059116e+00 -3.8531983452e-04 2.2452280655e+00 -3.8888490840e+00 2.2452280655e+00 3.8888490840e+00 
84800 5.0107058982e+00 -3.8163754542e-04 2.2452366464e+00 -3.8888639465e+00 2.2452366464e+00 3.8888639465e+00 
84900 5.0107058849e+00 -3.7798965053e-04 2.2452451452e+00 -3.8888786669e+00 2.2452451452e+00 3.8888786669e+00 
85000 5.0107058720e+00 -3.7437583861e-04 2.2452535628e+00 -3.8888932466e+00 2.2452535628e+00 3.8888932466e+00 
85100 5.0107058594e+00 -3.7079580108e-04 2.2452618998e+00 -3.8889076868e+00 2.2452618998e+00 3.8889076868e+00 
85200 5.0107058470e+00 -3.6724923203e-04 2.2452701571e+00 -3.8889219888e+00 2.2452701571e+00 3.8889219888e+00 
85300 5.0107058349e+00 -3.6373582815e-04 2.2452783354e+00 -3.8889361541e+00 2.2452783354e+00 3.8889361541e+00 
85400 5.0107058231e+00 -3.6025528877e-04 2.2452864354e+00 -3.8889501837e+00 2.2452864354e+00 3.8889501837e+00 
85500 5.0107058115e+00 -3.5680731578e-04 2.2452944579e+00 -3.8889640791e+00 2.2452944579e+00 3.8889640791e+00 
85600 5.0107058001e+00 -3.5339161366e-04 2.2453024036e+00 -3.8889778414e+00 2.2453024036e+00 3.8889778414e+00 
85700 5.0107057890e+00 -3.5000788942e-04 2.2453102732e+00 -3.8889914719e+00 2.2453102732e+00 3.8889914719e+00 
85800 5.0107057782e+00 -3.4665585262e-04 2.2453180674e+00 -3.8890049718e+00 2.2453180674e+00 3.8890049718e+00 
85900 5.0107057676e+00 -3.4333521532e-04 2.2453257869e+00 -3.8890183425e+00 2.2453257869e+00 3.8890183425e+00 
86000 5.0107057572e+00 -3.4004569205e-04 2.2453334325e+00 -3.8890315849e+00 2.2453334325e+00 3.8890315849e+00 
86100 5.0107057470e+00 -3.3678699984e-04 2.2453410047e+00 -3.8890447005e+00 2.2453410047e+00 3.8890447005e+00 
86200 5.0107057371e+00 -3.3355885817e-04 2.2453485044e+00 -3.8890576904e+00 2.2453485044e+00 3.8890576904e+00 
86300 5.0107057273e+00 -3.3036098892e-04 2.2453559322e+00 -3.8890705557e+00 2.2453559322e+00 3.8890705557e+00 
86400 5.0107057178e+00 -3.2719311641e-04 2.2453632887e+00 -3.8890832976e+00 2.2453632887e+00 3.8890832976e+00 
86500 5.0107057085e+00 -3.2405496736e-04 2.2453705747e+00 -3.8890959172e+00 2.2453705747e+00 3.8890959172e+00 
86600 5.0107056994e+00 -3.2094627084e-04 2.2453777908e+00 -3.8891084158e+00 2.2453777908e+00 3.8891084158e+00 
86700 5.0107056905e+00 -3.1786675830e-04 2.2453849376e+00 -3.8891207945e+00 2.2453849376e+00 3.8891207945e+00 
86800 5.0107056817e+00 -3.1481616352e-04 2.2453920159e+00 -3.8891330544e+00 2.2453920159e+00 3.8891330544e+00 
86900 5.0107056732e+00 -3.1179422258e-04 2.2453990261e+00 -3.8891451965e+00 2.2453990261e+00 3.8891451965e+00 
87000 5.0107056649e+00 -3.0880067389e-04 2.2454059691e+00 -3.8891572221e+00 2.2454059691e+00 3.8891572221e+00 
87100 5.0107056567e+00 -3.0583525813e-04 2.2454128454e+00 -3.8891691321e+00 2.2454128454e+00 3.8891691321e+00 
87200 5.0107056487e+00 -3.0289771824e-04 2.2454196556e+00 -3.8891809278e+00 2.2454196556e+00 3.8891809278e+00 
87300 5.0107056409e+00 -2.9998779942e-04 2.2454264004e+00 -3.8891926101e+00 2.2454264004e+00 3.8891926101e+00 
87400 5.0107056333e+00 -2.9710524908e-04 2.2454330804e+00 -3.8892041802e+00 2.2454330804e+00 3.8892041802e+00 
87500 5.0107056258e+00 -2.9424981685e-04 2.2454396961e+00 -3.8892156390e+00 2.2454396961e+00 3.8892156390e+00 
87600 5.0107056185e+00 -2.9142125456e-04 2.2454462483e+00 -3.8892269877e+00 2.2454462483e+00 3.8892269877e+00 
87700 5.0107056113e+00 -2.8861931621e-04 2.2454527375e+00 -3.8892382273e+00 2.2454527375e+00 3.8892382273e+00 
87800 5.0107056043e+00 -2.8584375795e-04 2.2454591642e+00 -3.8892493588e+00 2.2454591642e+00 3.8892493588e+00 
87900 5.0107055975e+00 -2.8309433807e-04 2.2454655292e+00 -3.8892603831e+00 2.2454655292e+00 3.8892603831e+00 
88000 5.0107055908e+00 -2.8037081701e-04 2.2454718328e+00 -3.8892713015e+00 2.2454718328e+00 3.8892713015e+00 
88100 5.0107055842e+00 -2.7767295727e-04 2.2454780759e+00 -3.8892821147e+00 2.2454780759e+00 3.8892821147e+00 
88200 5.0107055778e+00 -2.7500052348e-04 2.2454842588e+00 -3.8892928239e+00 2.2454842588e+00 3.8892928239e+00 
88300 5.0107055716e+00 -2.7235328233e-04 2.2454903822e+00 -3.8893034299e+00 2.2454903822e+00 3.8893034299e+00 
88400 5.0107055654e+00 -2.6973100255e-04 2.2454964467e+00 -3.8893139339e+00 2.2454964467e+00 3.8893139339e+00 
88500 5.0107055595e+00 -2.6713345492e-04 2.2455024527e+00 -3.8893243367e+00 2.2455024527e+00 3.8893243367e+00 
88600 5.0107055536e+00 -2.6456041224e-04 2.2455084009e+00 -3.8893346392e+00 2.2455084009e+00 3.8893346392e+00 
88700 5.0107055479e+00 -2.6201164933e-04 2.2455142918e+00 -3.8893448425e+00 2.2455142918e+00 3.8893448425e+00 
88800 5.0107055423e+00 -2.5948694298e-04 2.2455201259e+00 -3.8893549475e+00 2.2455201259e+00 3.8893549475e+00 
88900 5.0107055368e+00 -2.5698607195e-04 2.2455259038e+00 -3.8893649551e+00 2.2455259038e+00 3.8893649551e+00 
89000 5.0107055314e+00 -2.5450881696e-04 2.2455316260e+00 -3.8893748662e+00 2.2455316260e+00 3.8893748662e+00 
89100 5.0107055262e+00 -2.5205496069e-04 2.2455372930e+00 -3.8893846818e+00 2.2455372930e+00 3.8893846818e+00 
89200 5.0107055211e+00 -2.4962428773e-04 2.2455429053e+00 -3.8893944026e+00 2.2455429053e+00 3.8893944026e+00 
89300 5.0107055161e+00 -2.4721658456e-04 2.2455484636e+00 -3.8894040298e+00 2.2455484636e+00 3.8894040298e+00 
89400 5.0107055112e+00 -2.4483163958e-04 2.2455539682e+00 -3.8894135640e+00 2.2455539682e+00 3.8894135640e+00 
89500 5.0107055064e+00 -2.4246924306e-04 2.2455594196e+00 -3.8894230062e+00 2.2455594196e+00 3.8894230062e+00 
89600 5.0107055017e+00 -2.4012918713e-04 2.2455648185e+00 -3.8894323573e+00 2.2455648185e+00 3.8894323573e+00 
89700 5.0107054971e+00 -2.3781126576e-04 2.2455701652e+00 -3.8894416182e+00 2.2455701652e+00 3.8894416182e+00 
89800 5.0107054926e+00 -2.3551527475e-04 2.2455754604e+00 -3.8894507896e+00 2.2455754604e+00 3.8894507896e+00 
89900 5.0107054882e+00 -2.3324101173e-04 2.2455807044e+00 -3.8894598724e+00 2.2455807044e+00 3.8894598724e+00 
90000 5.0107054839e+00 -2.3098827613e-04 2.2455858977e+00 -3.8894688676e+00 2.2455858977e+00 3.8894688676e+00 
90100 5.0107054798e+00 -2.2875686914e-04 2.2455910409e+00 -3.8894777758e+00 2.2455910409e+00 3.8894777758e+00 
90200 5.0107054757e+00 -2.2654659375e-04 2.2455961343e+00 -3.8894865979e+00 2.2455961343e+00 3.8894865979e+00 
90300 5.0107054717e+00 -2.2435725469e-04 2.2456011786e+00 -3.8894953348e+00 2.2456011786e+00 3.8894953348e+00 
90400 5.0107054678e+00 -2.2218865844e-04 2.2456061741e+00 -3.8895039873e+00 2.2456061741e+00 3.8895039873e+00 
90500 5.0107054639e+00 -2.2004061320e-04 2.2456111212e+00 -3.8895125560e+00 2.2456111212e+00 3.8895125560e+00 
90600 5.0107054602e+00 -2.1791292889e-04 2.2456160206e+00 -3.8895210420e+00 2.2456160206e+00 3.8895210420e+00 
90700 5.0107054565e+00 -2.1580541712e-04 2.2456208726e+00 -3.8895294458e+00 2.2456208726e+00 3.8895294458e+00 
90800 5.0107054530e+00 -2.1371789118e-04 2.2456256776e+00 -3.8895377684e+00 2.2456256776e+00 3.8895377684e+00 
90900 5.0107054495e+00 -2.1165016604e-04 2.2456304361e+00 -3.8895460104e+00 2.2456304361e+00 3.8895460104e+00 
91000 5.0107054460e+00 -2.0960205832e-04 2.2456351486e+00 -3.8895541727e+00 2.2456351486e+00 3.8895541727e+00 
91100 5.0107054427e+00 -2.0757338628e-04 2.2456398155e+00 -3.8895622559e+00 2.2456398155e+00 3.8895622559e+00 
91200 5.0107054394e+00 -2.0556396982e-04 2.2456444372e+00 -3.8895702610e+00 2.2456444372e+00 3.8895702610e+00 
91300 5.0107054362e+00 -2.0357363044e-04 2.2456490141e+00 -3.8895781885e+00 2.2456490141e+00 3.8895781885e+00 
91400 5.0107054331e+00 -2.0160219125e-04 2.2456535468e+00 -3.8895860392e+00 2.2456535468e+00 3.8895860392e+00 
91500 5.0107054301e+00 -1.9964947693e-04 2.2456580355e+00 -3.8895938139e+00 2.2456580355e+00 3.8895938139e+00 
91600 5.0107054271e+00 -1.9771531374e-04 2.2456624807e+00 -3.8896015133e+00 2.2456624807e+00 3.8896015133e+00 
91700 5.0107054242e+00 -1.9579952953e-04 2.2456668829e+00 -3.8896091380e+00 2.2456668829e+00 3.8896091380e+00 
91800 5.0107054213e+00 -1.9390195364e-04 2.2456712424e+00 -3.8896166889e+00 2.2456712424e+00 3.8896166889e+00 
91900 5.0107054186e+00 -1.9202241700e-04 2.2456755596e+00 -3.8896241666e+00 2.2456755596e+00 3.8896241666e+00 
92000 5.0107054158e+00 -1.9016075203e-04 2.2456798350e+00 -3.8896315718e+00 2.2456798350e+00 3.8896315718e+00 
92100 5.0107054132e+00 -1.8831679265e-04 2.2456840689e+00 -3.8896389051e+00 2.2456840689e+00 3.8896389051e+00 
92200 5.0107054106e+00 -1.8649037430e-04 2.2456882618e+00 -3.8896461674e+00 2.2456882618e+00 3.8896461674e+00 
92300 5.0107054081e+00 -1.8468133388e-04 2.2456924140e+00 -3.8896533592e+00 2.2456924140e+00 3.8896533592e+00 
92400 5.0107054056e+00 -1.8288950978e-04 2.2456965259e+00 -3.8896604812e+00 2.2456965259e+00 3.8896604812e+00 
92500 5.0107054031e+00 -1.8111474183e-04 2.2457005979e+00 -3.8896675341e+00 2.2457005979e+00 3.8896675341e+00 
92600 5.0107054008e+00 -1.7935687132e-04 2.2457046304e+00 -3.8896745186e+00 2.2457046304e+00 3.8896745186e+00 
92700 5.0107053985e+00 -1.7761574094e-04 2.2457086237e+00 -3.8896814352e+00 2.2457086237e+00 3.8896814352e+00 
92800 5.0107053962e+00 -1.7589119484e-04 2.2457125783e+00 -3.8896882847e+00 2.2457125783e+00 3.8896882847e+00 
92900 5.0107053940e+00 -1.7418307856e-04 2.2457164944e+00 -3.8896950677e+00 2.2457164944e+00 3.8896950677e+00 
93000 5.0107053918e+00 -1.7249123902e-04 2.2457203725e+00 -3.8897017848e+00 2.2457203725e+00 3.8897017848e+00 
93100 5.0107053897e+00 -1.7081552455e-04 2.2457242130e+00 -3.8897084367e+00 2.2457242130e+00 3.8897084367e+00 
93200 5.0107053877e+00 -1.6915578484e-04 2.2457280161e+00 -3.8897150239e+00 2.2457280161e+00 3.8897150239e+00 
93300 5.0107053856e+00 -1.6751187093e-04 2.2457317823e+00 -3.8897215471e+00 2.2457317823e+00 3.8897215471e+00 
93400 5.0107053837e+00 -1.6588363523e-04 2.2457355118e+00 -3.8897280069e+00 2.2457355118e+00 3.8897280069e+00 
93500 5.0107053818e+00 -1.6427093146e-04 2.2457392051e+00 -3.8897344039e+00 2.2457392051e+00 3.8897344039e+00 
93600 5.0107053799e+00 -1.6267361469e-04 2.2457428625e+00 -3.8897407387e+00 2.2457428625e+00 3.8897407387e+00 
93700 5.0107053780e+00 -1.6109154129e-04 2.2457464844e+00 -3.8897470118e+00 2.2457464844e+00 3.8897470118e+00 
93800 5.0107053763e+00 -1.5952456893e-04 2.2457500710e+00 -3.8897532240e+00 2.2457500710e+00 3.8897532240e+00 
93900 5.0107053745e+00 -1.5797255658e-04 2.2457536227e+00 -3.8897593757e+00 2.2457536227e+00 3.8897593757e+00 
94000 5.0107053728e+00 -1.5643536447e-04 2.2457571398e+00 -3.8897654676e+00 2.2457571398e+00 3.8897654676e+00 
94100 5.0107053711e+00 -1.5491285414e-04 2.2457606227e+00 -3.8897715002e+00 2.2457606227e+00 3.8897715002e+00 
94200 5.0107053695e+00 -1.5340488834e-04 2.2457640717e+00 -3.8897774740e+00 2.2457640717e+00 3.8897774740e+00 
94300 5.0107053679e+00 -1.5191133109e-04 2.2457674871e+00 -3.8897833897e+00 2.2457674871e+00 3.8897833897e+00 
94400 5.0107053663e+00 -1.5043204764e-04 2.2457708693e+00 -3.8897892478e+00 2.2457708693e+00 3.8897892478e+00 
94500 5.0107053648e+00 -1.4896690448e-04 2.2457742185e+00 -3.8897950488e+00 2.2457742185e+00 3.8897950488e+00 
94600 5.0107053633e+00 -1.4751576929e-04 2.2457775351e+00 -3.8898007934e+00 2.2457775351e+00 3.8898007934e+00 
94700 5.0107053619e+00 -1.4607851098e-04 2.2457808194e+00 -3.8898064819e+00 2.2457808194e+00 3.8898064819e+00 
94800 5.0107053605e+00 -1.4465499962e-04 2.2457840717e+00 -3.8898121151e+00 2.2457840717e+00 3.8898121151e+00 
94900 5.0107053591e+00 -1.4324510650e-04 2.2457872923e+00 -3.8898176933e+00 2.2457872923e+00 3.8898176933e+00 
95000 5.0107053577e+00 -1.4184870406e-04 2.2457904815e+00 -3.8898232171e+00 2.2457904815e+00 3.8898232171e+00 
95100 5.0107053564e+00 -1.4046566591e-04 2.2457936396e+00 -3.8898286871e+00 2.2457936396e+00 3.8898286871e+00 
95200 5.0107053551e+00 -1.3909586680e-04 2.2457967669e+00 -3.8898341038e+00 2.2457967669e+00 3.8898341038e+00 
95300 5.0107053539e+00 -1.3773918264e-04 2.2457998637e+00 -3.8898394676e+00 2.2457998637e+00 3.8898394676e+00 
95400 5.0107053526e+00 -1.3639549047e-04 2.2458029303e+00 -3.8898447791e+00 2.2458029303e+00 3.8898447791e+00 
95500 5.0107053514e+00 -1.3506466843e-04 2.2458059670e+00 -3.8898500388e+00 2.2458059670e+00 3.8898500388e+00 
95600 5.0107053503e+00 -1.3374659580e-04 2.2458089740e+00 -3.8898552471e+00 2.2458089740e+00 3.8898552471e+00 
95700 5.0107053491e+00 -1.3244115294e-04 2.2458119517e+00 -3.8898604047e+00 2.2458119517e+00 3.8898604047e+00 
95800 5.0107053480e+00 -1.3114822133e-04 2.2458149004e+00 -3.8898655118e+00 2.2458149004e+00 3.8898655118e+00 
95900 5.0107053469e+00 -1.2986768351e-04 2.2458178202e+00 -3.8898705691e+00 2.2458178202e+00 3.8898705691e+00 
96000 5.0107053459e+00 -1.2859942310e-04 2.2458207115e+00 -3.8898755770e+00 2.2458207115e+00 3.8898755770e+00 
96100 5.0107053448e+00 -1.2734332479e-04 2.2458235746e+00 -3.8898805361e+00 2.2458235746e+00 3.8898805361e+00 
96200 5.0107053438e+00 -1.2609927432e-04 2.2458264097e+00 -3.8898854466e+00 2.2458264097e+00 3.8898854466e+00 
96300 5.0107053428e+00 -1.2486715848e-04 2.2458292171e+00 -3.8898903092e+00 2.2458292171e+00 3.8898903092e+00 
96400 5.0107053418e+00 -1.2364686509e-04 2.2458319971e+00 -3.8898951243e+00 2.2458319971e+00 3.8898951243e+00 
96500 5.0107053409e+00 -1.2243828299e-04 2.2458347499e+00 -3.8898998923e+00 2.2458347499e+00 3.8898998923e+00 
96600 5.0107053400e+00 -1.2124130207e-04 2.2458374758e+00 -3.8899046137e+00 2.2458374758e+00 3.8899046137e+00 
96700 5.0107053391e+00 -1.2005581320e-04 2.2458401751e+00 -3.8899092889e+00 2.2458401751e+00 3.8899092889e+00 
96800 5.0107053382e+00 -1.1888170825e-04 2.2458428479e+00 -3.8899139184e+00 2.2458428479e+00 3.8899139184e+00 
96900 5.0107053374e+00 -1.1771888011e-04 2.2458454946e+00 -3.8899185026e+00 2.2458454946e+00 3.8899185026e+00 
97000 5.0107053365e+00 -1.1656722262e-04 2.2458481154e+00 -3.8899230420e+00 2.2458481154e+00 3.8899230420e+00 
97100 5.0107053357e+00 -1.1542663061e-04 2.2458507106e+00 -3.8899275370e+00 2.2458507106e+00 3.8899275370e+00 
97200 5.0107053349e+00 -1.1429699988e-04 2.2458532804e+00 -3.8899319880e+00 2.2458532804e+00 3.8899319880e+00 
97300 5.0107053341e+00 -1.1317822718e-04 2.2458558250e+00 -3.8899363954e+00 2.2458558250e+00 3.8899363954e+00 
97400 5.0107053334e+00 -1.1207021020e-04 2.2458583447e+00 -3.8899407597e+00 2.2458583447e+00 3.8899407597e+00 
97500 5.0107053326e+00 -1.1097284759e-04 2.2458608398e+00 -3.8899450812e+00 2.2458608398e+00 3.8899450812e+00 
97600 5.0107053319e+00 -1.0988603891e-04 2.2458633104e+00 -3.8899493604e+00 2.2458633104e+00 3.8899493604e+00 
97700 5.0107053312e+00 -1.0880968467e-04 2.2458657568e+00 -3.8899535977e+00 2.2458657568e+00 3.8899535977e+00 
97800 5.0107053305e+00 -1.0774368627e-04 2.2458681792e+00 -3.8899577935e+00 2.2458681792e+00 3.8899577935e+00 
97900 5.0107053299e+00 -1.0668794603e-04 2.2458705779e+00 -3.8899619482e+00 2.2458705779e+00 3.8899619482e+00 
98000 5.0107053292e+00 -1.0564236717e-04 2.2458729531e+00 -3.8899660622e+00 2.2458729531e+00 3.8899660622e+00 
98100 5.0107053286e+00 -1.0460685379e-04 2.2458753051e+00 -3.8899701358e+00 2.2458753051e+00 3.8899701358e+00 
98200 5.0107053279e+00 -1.0358131089e-04 2.2458776339e+00 -3.8899741695e+00 2.2458776339e+00 3.8899741695e+00 
98300 5.0107053273e+00 -1.0256564434e-04 2.2458799400e+00 -3.8899781637e+00 2.2458799400e+00 3.8899781637e+00 
98400 5.0107053268e+00 -1.0155976086e-04 2.2458822234e+00 -3.8899821187e+00 2.2458822234e+00 3.8899821187e+00 
98500 5.0107053262e+00 -1.0056356805e-04 2.2458844844e+00 -3.8899860349e+00 2.2458844844e+00 3.8899860349e+00 
98600 5.0107053256e+00 -9.9576974365e-05 2.2458867232e+00 -3.8899899127e+00 2.2458867232e+00 3.8899899127e+00 
98700 5.0107053251e+00 -9.8599889087e-05 2.2458889401e+00 -3.8899937524e+00 2.2458889401e+00 3.8899937524e+00 
98800 5.0107053245e+00 -9.7632222346e-05 2.2458911352e+00 -3.8899975545e+00 2.2458911352e+00 3.8899975545e+00 
98900 5.0107053240e+00 -9.6673885100e-05 2.2458933088e+00 -3.8900013192e+00 2.2458933088e+00 3.8900013192e+00 
99000 5.0107053235e+00 -9.5724789129e-05 2.2458954610e+00 -3.8900050470e+00 2.2458954610e+00 3.8900050470e+00 
99100 5.0107053230e+00 -9.4784847028e-05 2.2458975922e+00 -3.8900087382e+00 2.2458975922e+00 3.8900087382e+00 
99200 5.0107053225e+00 -9.3853972200e-05 2.2458997023e+00 -3.8900123931e+00 2.2458997023e+00 3.8900123931e+00 
99300 5.0107053221e+00 -9.2932078846e-05 2.2459017918e+00 -3.8900160122e+00 2.2459017918e+00 3.8900160122e+00 
99400 5.0107053216e+00 -9.2019081963e-05 2.2459038607e+00 -3.8900195957e+00 2.2459038607e+00 3.8900195957e+00 
99500 5.0107053212e+00 -9.1114897331e-05 2.2459059093e+00 -3.8900231439e+00 2.2459059093e+00 3.8900231439e+00 
99600 5.0107053207e+00 -9.0219441513e-05 2.2459079378e+00 -3.8900266573e+00 2.2459079378e+00 3.8900266573e+00 
99700 5.0107053203e+00 -8.9332631842e-05 2.2459099463e+00 -3.8900301362e+00 2.2459099463e+00 3.8900301362e+00 
99800 5.0107053199e+00 -8.8454386415e-05 2.2459119351e+00 -3.8900335809e+00 2.2459119351e+00 3.8900335809e+00 
99900 5.0107053195e+00 -8.7584624088e-05 2.2459139043e+00 -3.8900369917e+00 2.2459139043e+00 3.8900369917e+00 
100000 5.0107053191e+00 -8.6723264471e-05 2.2459158542e+00 -3.8900403690e+00 2.2459158542e+00 3.8900403690e+00 
100100 5.0107053187e+00 -8.5870227914e-05 2.2459177849e+00 -3.8900437130e+00 2.2459177849e+00 3.8900437130e+00 
100200 5.0107053183e+00 -8.5025435510e-05 2.2459196966e+00 -3.8900470242e+00 2.2459196966e+00 3.8900470242e+00 
100300 5.0107053180e+00 -8.4188809079e-05 2.2459215895e+00 -3.8900503028e+00 2.2459215895e+00 3.8900503028e+00 
100400 5.0107053176e+00 -8.3360271169e-05 2.2459234637e+00 -3.8900535491e+00 2.2459234637e+00 3.8900535491e+00 
100500 5.0107053173e+00 -8.2539745043e-05 2.2459253195e+00 -3.8900567634e+00 2.2459253195e+00 3.8900567634e+00 
100600 5.0107053169e+00 -8.1727154681e-05 2.2459271571e+00 -3.8900599462e+00 2.2459271571e+00 3.8900599462e+00 
100700 5.0107053166e+00 -8.0922424765e-05 2.2459289765e+00 -3.8900630975e+00 2.2459289765e+00 3.8900630975e+00 
100800 5.0107053163e+00 -8.0125480675e-05 2.2459307781e+00 -3.8900662179e+00 2.2459307781e+00 3.8900662179e+00 
100900 5.0107053160e+00 -7.9336248486e-05 2.2459325619e+00 -3.8900693075e+00 2.2459325619e+00 3.8900693075e+00 
101000 5.0107053157e+00 -7.8554654958e-05 2.2459343281e+00 -3.8900723667e+00 2.2459343281e+00 3.8900723667e+00 
101100 5.0107053154e+00 -7.7780627533e-05 2.2459360769e+00 -3.8900753957e+00 2.2459360769e+00 3.8900753957e+00 
101200 5.0107053151e+00 -7.7014094327e-05 2.2459378085e+00 -3.8900783949e+00 2.2459378085e+00 3.8900783949e+00 
101300 5.0107053148e+00 -7.6254984123e-05 2.2459395230e+00 -3.8900813646e+00 2.2459395230e+00 3.8900813646e+00 
101400 5.0107053145e+00 -7.5503226366e-05 2.2459412206e+00 -3.8900843049e+00 2.2459412206e+00 3.8900843049e+00 
101500 5.0107053143e+00 -7.4758751157e-05 2.2459429015e+00 -3.8900872163e+00 2.2459429015e+00 3.8900872163e+00 
101600 5.0107053140e+00 -7.4021489251e-05 2.2459445658e+00 -3.8900900990e+00 2.2459445658e+00 3.8900900990e+00 
101700 5.0107053138e+00 -7.3291372041e-05 2.2459462137e+00 -3.8900929532e+00 2.2459462137e+00 3.8900929532e+00 
101800 5.0107053135e+00 -7.2568331564e-05 2.2459478453e+00 -3.8900957793e+00 2.2459478453e+00 3.8900957793e+00 
101900 5.0107053133e+00 -7.1852300487e-05 2.2459494609e+00 -3.8900985775e+00 2.2459494609e+00 3.8900985775e+00 
102000 5.0107053131e+00 -7.1143212104e-05 2.2459510605e+00 -3.8901013481e+00 2.2459510605e+00 3.8901013481e+00 
102100 5.0107053128e+00 -7.0441000331e-05 2.2459526443e+00 -3.8901040913e+00 2.2459526443e+00 3.8901040913e+00 
102200 5.0107053127e+00 -7.0732082952e-05 2.2459526443e+00 -3.8901040913e+00 2.2459526443e+00 3.8901040913e+00 
102300 5.0107053125e+00 -7.0033334250e-05 2.2459542189e+00 -3.8901068187e+00 2.2459542189e+00 3.8901068187e+00 
102400 5.0107053124e+00 -7.0322049460e-05 2.2459542189e+00 -3.8901068187e+00 2.2459542189e+00 3.8901068187e+00 
102500 5.0107053123e+00 -7.0611400058e-05 2.2459542189e+00 -3.8901068187e+00 2.2459542189e+00 3.8901068187e+00 
102600 5.0107053122e+00 -7.0901296472e-05 2.2459542189e+00 -3.8901068187e+00 2.2459542189e+00 3.8901068187e+00 
102700 5.0107053120e+00 -7.0198706838e-05 2.2459557974e+00 -3.8901095526e+00 2.2459557974e+00 3.8901095526e+00 
102800 5.0107053119e+00 -7.0485690032e-05 2.2459557974e+00 -3.8901095526e+00 2.2459557974e+00 3.8901095526e+00 
102900 5.0107053118e+00 -7.0773053614e-05 2.2459557974e+00 -3.8901095526e+00 2.2459557974e+00 3.8901095526e+00 
103000 5.0107053116e+00 -7.0069559350e-05 2.2459573729e+00 -3.8901122816e+00 2.2459573729e+00 3.8901122816e+00 
103100 5.0107053115e+00 -7.0353702479e-05 2.2459573729e+00 -3.8901122816e+00 2.2459573729e+00 3.8901122816e+00 
103200 5.0107053114e+00 -7.0638076868e-05 2.2459573729e+00 -3.8901122816e+00 2.2459573729e+00 3.8901122816e+00 
103300 5.0107053114e+00 -7.0922606500e-05 2.2459573729e+00 -3.8901122816e+00 2.2459573729e+00 3.8901122816e+00 
103400 5.0107053112e+00 -7.0213955301e-05 2.2459589518e+00 -3.8901150163e+00 2.2459589518e+00 3.8901150163e+00 
103500 5.0107053111e+00 -7.0494828390e-05 2.2459589518e+00 -3.8901150163e+00 2.2459589518e+00 3.8901150163e+00 
103600 5.0107053111e+00 -7.0775729398e-05 2.2459589518e+00 -3.8901150163e+00 2.2459589518e+00 3.8901150163e+00 
103700 5.0107053109e+00 -7.0065376519e-05 2.2459605275e+00 -3.8901177453e+00 2.2459605275e+00 3.8901177453e+00 
103800 5.0107053108e+00 -7.0342387398e-05 2.2459605275e+00 -3.8901177453e+00 2.2459605275e+00 3.8901177453e+00 
103900 5.0107053108e+00 -7.0619311736e-05 2.2459605275e+00 -3.8901177453e+00 2.2459605275e+00 3.8901177453e+00 
104000 5.0107053107e+00 -7.0896084404e-05 2.2459605275e+00 -3.8901177453e+00 2.2459605275e+00 3.8901177453e+00 
104100 5.0107053106e+00 -7.0179734376e-05 2.2459621058e+00 -3.8901204790e+00 2.2459621058e+00 3.8901204790e+00 
104200 5.0107053105e+00 -7.0452269562e-05 2.2459621058e+00 -3.8901204790e+00 2.2459621058e+00 3.8901204790e+00 
104300 5.0107053105e+00 -7.0724556607e-05 2.2459621058e+00 -3.8901204790e+00 2.2459621058e+00 3.8901204790e+00 
104400 5.0107053103e+00 -7.0006023957e-05 2.2459636802e+00 -3.8901232061e+00 2.2459636802e+00 3.8901232061e+00 
104500 5.0107053103e+00 -7.0273900476e-05 2.2459636802e+00 -3.8901232061e+00 2.2459636802e+00 3.8901232061e+00 
104600 5.0107053103e+00 -7.0541442836e-05 2.2459636802e+00 -3.8901232061e+00 2.2459636802e+00 3.8901232061e+00 
104700 5.0107053102e+00 -7.0808594928e-05 2.2459636802e+00 -3.8901232061e+00 2.2459636802e+00 3.8901232061e+00 
104800 5.0107053101e+00 -7.0083604603e-05 2.2459652566e+00 -3.8901259365e+00 2.2459652566e+00 3.8901259365e+00 
104900 5.0107053101e+00 -7.0346072862e-05 2.2459652566e+00 -3.8901259365e+00 2.2459652566e+00 3.8901259365e+00 
105000 5.0107053100e+00 -7.0608080056e-05 2.2459652566e+00 -3.8901259365e+00 2.2459652566e+00 3.8901259365e+00 
105100 5.0107053100e+00 -7.0869574873e-05 2.2459652566e+00 -3.8901259365e+00 2.2459652566e+00 3.8901259365e+00 
105200 5.0107053099e+00 -7.0137947524e-05 2.2459668343e+00 -3.8901286691e+00 2.2459668343e+00 3.8901286691e+00 
105300 5.0107053099e+00 -7.0394525000e-05 2.2459668343e+00 -3.8901286691e+00 2.2459668343e+00 3.8901286691e+00 
105400 5.0107053098e+00 -7.0650533091e-05 2.2459668343e+00 -3.8901286691e+00 2.2459668343e+00 3.8901286691e+00 
105500 5.0107053098e+00 -7.0905924844e-05 2.2459668343e+00 -3.8901286691e+00 2.2459668343e+00 3.8901286691e+00 
105600 5.0107053097e+00 -7.0167577847e-05 2.2459684128e+00 -3.8901314032e+00 2.2459684128e+00 3.8901314032e+00 
105700 5.0107053097e+00 -7.0417855111e-05 2.2459684128e+00 -3.8901314032e+00 2.2459684128e+00 3.8901314032e+00 
105800 5.0107053097e+00 -7.0667471575e-05 2.2459684128e+00 -3.8901314032e+00 2.2459684128e+00 3.8901314032e+00 
105900 5.0107053097e+00 -7.0916384271e-05 2.2459684128e+00 -3.8901314032e+00 2.2459684128e+00 3.8901314032e+00 
106000 5.0107053095e+00 -7.0171320872e-05 2.2459699916e+00 -3.8901341377e+00 2.2459699916e+00 3.8901341377e+00 
106100 5.0107053095e+00 -7.0414955267e-05 2.2459699916e+00 -3.8901341377e+00 2.2459699916e+00 3.8901341377e+00 
106200 5.0107053095e+00 -7.0657852881e-05 2.2459699916e+00 -3.8901341377e+00 2.2459699916e+00 3.8901341377e+00 
106300 5.0107053095e+00 -7.0899974390e-05 2.2459699916e+00 -3.8901341377e+00 2.2459699916e+00 3.8901341377e+00 
106400 5.0107053094e+00 -7.0148273998e-05 2.2459715699e+00 -3.8901368715e+00 2.2459715699e+00 3.8901368715e+00 
106500 5.0107053094e+00 -7.0384984032e-05 2.2459715699e+00 -3.8901368715e+00 2.2459715699e+00 3.8901368715e+00 
106600 5.0107053094e+00 -7.0620895408e-05 2.2459715699e+00 -3.8901368715e+00 2.2459715699e+00 3.8901368715e+00 
106700 5.0107053094e+00 -7.0855972148e-05 2.2459715699e+00 -3.8901368715e+00 2.2459715699e+00 3.8901368715e+00 
106800 5.0107053093e+00 -7.0097781557e-05 2.2459731473e+00 -3.8901396036e+00 2.2459731473e+00 3.8901396036e+00 
106900 5.0107053093e+00 -7.0327341824e-05 2.2459731473e+00 -3.8901396036e+00 2.2459731473e+00 3.8901396036e+00 
107000 5.0107053093e+00 -7.0556054454e-05 2.2459731473e+00 -3.8901396036e+00 2.2459731473e+00 3.8901396036e+00 
107100 5.0107053093e+00 -7.0783886537e-05 2.2459731473e+00 -3.8901396036e+00 2.2459731473e+00 3.8901396036e+00 
107200 5.0107053092e+00 -7.0019411947e-05 2.2459747231e+00 -3.8901423330e+00 2.2459747231e+00 3.8901423330e+00 
107300 5.0107053092e+00 -7.0241648466e-05 2.2459747231e+00 -3.8901423330e+00 2.2459747231e+00 3.8901423330e+00 
107400 5.0107053092e+00 -7.0463000152e-05 2.2459747231e+00 -3.8901423330e+00 2.2459747231e+00 3.8901423330e+00 
107500 5.0107053092e+00 -7.0683436902e-05 2.2459747231e+00 -3.8901423330e+00 2.2459747231e+00 3.8901423330e+00 
107600 5.0107053092e+00 -7.0902929796e-05 2.2459747231e+00 -3.8901423330e+00 2.2459747231e+00 3.8901423330e+00 
107700 5.0107053091e+00 -7.0128381755e-05 2.2459763016e+00 -3.8901450669e+00 2.2459763016e+00 3.8901450669e+00 
107800 5.0107053091e+00 -7.0342157771e-05 2.2459763016e+00 -3.8901450669e+00 2.2459763016e+00 3.8901450669e+00 
107900 5.0107053091e+00 -7.0554997198e-05 2.2459763016e+00 -3.8901450669e+00 2.2459763016e+00 3.8901450669e+00 
108000 5.0107053092e+00 -7.0766873540e-05 2.2459763016e+00 -3.8901450669e+00 2.2459763016e+00 3.8901450669e+00 
108100 5.0107053091e+00 -6.9986592482e-05 2.2459778770e+00 -3.8901477956e+00 2.2459778770e+00 3.8901477956e+00 
108200 5.0107053091e+00 -7.0192727725e-05 2.2459778770e+00 -3.8901477956e+00 2.2459778770e+00 3.8901477956e+00 
108300 5.0107053091e+00 -7.0397913941e-05 2.2459778770e+00 -3.8901477956e+00 2.2459778770e+00 3.8901477956e+00 
108400 5.0107053091e+00 -7.0602126854e-05 2.2459778770e+00 -3.8901477956e+00 2.2459778770e+00 3.8901477956e+00 
108500 5.0107053091e+00 -7.0805343237e-05 2.2459778770e+00 -3.8901477956e+00 2.2459778770e+00 3.8901477956e+00 
108600 5.0107053090e+00 -7.0015826593e-05 2.2459794533e+00 -3.8901505258e+00 2.2459794533e+00 3.8901505258e+00 
108700 5.0107053090e+00 -7.0213242411e-05 2.2459794533e+00 -3.8901505258e+00 2.2459794533e+00 3.8901505258e+00 
108800 5.0107053091e+00 -7.0409685106e-05 2.2459794533e+00 -3.8901505258e+00 2.2459794533e+00 3.8901505258e+00 
108900 5.0107053091e+00 -7.0605133343e-05 2.2459794533e+00 -3.8901505258e+00 2.2459794533e+00 3.8901505258e+00 
109000 5.0107053091e+00 -7.0799566754e-05 2.2459794533e+00 -3.8901505258e+00 2.2459794533e+00 3.8901505258e+00 
109100 5.0107053090e+00 -7.0001326485e-05 2.2459810294e+00 -3.8901532558e+00 2.2459810294e+00 3.8901532558e+00 
109200 5.0107053090e+00 -7.0189931320e-05 2.2459810294e+00 -3.8901532558e+00 2.2459810294e+00 3.8901532558e+00 
109300 5.0107053090e+00 -7.0377552870e-05 2.2459810294e+00 -3.8901532558e+00 2.2459810294e+00 3.8901532558e+00 
109400 5.0107053091e+00 -7.0564172367e-05 2.2459810294e+00 -3.8901532558e+00 2.2459810294e+00 3.8901532558e+00 
109500 5.0107053091e+00 -7.0749771946e-05 2.2459810294e+00 -3.8901532558e+00 2.2459810294e+00 3.8901532558e+00 
109600 5.0107053090e+00 -6.9943387043e-05 2.2459826044e+00 -3.8901559838e+00 2.2459826044e+00 3.8901559838e+00 
109700 5.0107053090e+00 -7.0123157704e-05 2.2459826044e+00 -3.8901559838e+00 2.2459826044e+00 3.8901559838e+00 
109800 5.0107053090e+00 -7.0301947023e-05 2.2459826044e+00 -3.8901559838e+00 2.2459826044e+00 3.8901559838e+00 
109900 5.0107053090e+00 -7.0479738472e-05 2.2459826044e+00 -3.8901559838e+00 2.2459826044e+00 3.8901559838e+00 
110000 5.0107053091e+00 -7.0656516359e-05 2.2459826044e+00 -3.8901559838e+00 2.2459826044e+00 3.8901559838e+00 
110100 5.0107053091e+00 -7.0832265798e-05 2.2459826044e+00 -3.8901559838e+00 2.2459826044e+00 3.8901559838e+00 
110200 5.0107053090e+00 -7.0014863163e-05 2.2459841813e+00 -3.8901587150e+00 2.2459841813e+00 3.8901587150e+00 
110300 5.0107053090e+00 -7.0184770849e-05 2.2459841813e+00 -3.8901587150e+00 2.2459841813e+00 3.8901587150e+00 
110400 5.0107053090e+00 -7.0353697186e-05 2.2459841813e+00 -3.8901587150e+00 2.2459841813e+00 3.8901587150e+00 
110500 5.0107053091e+00 -7.0521628279e-05 2.2459841813e+00 -3.8901587150e+00 2.2459841813e+00 3.8901587150e+00 
110600 5.0107053091e+00 -7.0688550989e-05 2.2459841813e+00 -3.8901587150e+00 2.2459841813e+00 3.8901587150e+00 
110700 5.0107053091e+00 -7.0854452907e-05 2.2459841813e+00 -3.8901587150e+00 2.2459841813e+00 3.8901587150e+00 
110800 5.0107053090e+00 -7.0026896114e-05 2.2459857587e+00 -3.8901614471e+00 2.2459857587e+00 3.8901614471e+00 
110900 5.0107053090e+00 -7.0186977519e-05 2.2459857587e+00 -3.8901614471e+00 2.2459857587e+00 3.8901614471e+00 
111000 5.0107053091e+00 -7.0346092233e-05 2.2459857587e+00 -3.8901614471e+00 2.2459857587e+00 3.8901614471e+00 
111100 5.0107053091e+00 -7.0504228538e-05 2.2459857587e+00 -3.8901614471e+00 2.2459857587e+00 3.8901614471e+00 
111200 5.0107053091e+00 -7.0661375406e-05 2.2459857587e+00 -3.8901614471e+00 2.2459857587e+00 3.8901614471e+00 
111300 5.0107053091e+00 -7.0817522470e-05 2.2459857587e+00 -3.8901614471e+00 2.2459857587e+00 3.8901614471e+00 
111400 5.0107053090e+00 -6.9980745681e-05 2.2459873352e+00 -3.8901641777e+00 2.2459873352e+00 3.8901641777e+00 
111500 5.0107053091e+00 -7.0131122007e-05 2.2459873352e+00 -3.8901641777e+00 2.2459873352e+00 3.8901641777e+00 
111600 5.0107053091e+00 -7.0280558324e-05 2.2459873352e+00 -3.8901641777e+00 2.2459873352e+00 3.8901641777e+00 
111700 5.0107053091e+00 -7.0429044703e-05 2.2459873352e+00 -3.8901641777e+00 2.2459873352e+00 3.8901641777e+00 
111800 5.0107053091e+00 -7.0576571845e-05 2.2459873352e+00 -3.8901641777e+00 2.2459873352e+00 3.8901641777e+00 
111900 5.0107053091e+00 -7.0723131052e-05 2.2459873352e+00 -3.8901641777e+00 2.2459873352e+00 3.8901641777e+00 
112000 5.0107053091e+00 -6.9878117127e-05 2.2459889096e+00 -3.8901669047e+00 2.2459889096e+00 3.8901669047e+00 
112100 5.0107053091e+00 -7.0018979083e-05 2.2459889096e+00 -3.8901669047e+00 2.2459889096e+00 3.8901669047e+00 
112200 5.0107053091e+00 -7.0158937455e-05 2.2459889096e+00 -3.8901669047e+00 2.2459889096e+00 3.8901669047e+00 
112300 5.0107053091e+00 -7.0297983761e-05 2.2459889096e+00 -3.8901669047e+00 2.2459889096e+00 3.8901669047e+00 
112400 5.0107053092e+00 -7.0436110101e-05 2.2459889096e+00 -3.8901669047e+00 2.2459889096e+00 3.8901669047e+00 
112500 5.0107053092e+00 -7.0573309121e-05 2.2459889096e+00 -3.8901669047e+00 2.2459889096e+00 3.8901669047e+00 
112600 5.0107053092e+00 -7.0709574000e-05 2.2459889096e+00 -3.8901669047e+00 2.2459889096e+00 3.8901669047e+00 
112700 5.0107053092e+00 -7.0844898421e-05 2.2459889096e+00 -3.8901669047e+00 2.2459889096e+00 3.8901669047e+00 
112800 5.0107053091e+00 -6.9986967488e-05 2.2459904868e+00 -3.8901696364e+00 2.2459904868e+00 3.8901696364e+00 
112900 5.0107053092e+00 -7.0116649941e-05 2.2459904868e+00 -3.8901696364e+00 2.2459904868e+00 3.8901696364e+00 
113000 5.0107053092e+00 -7.0245463040e-05 2.2459904868e+00 -3.8901696364e+00 2.2459904868e+00 3.8901696364e+00 
113100 5.0107053092e+00 -7.0373400334e-05 2.2459904868e+00 -3.8901696364e+00 2.2459904868e+00 3.8901696364e+00 
113200 5.0107053092e+00 -7.0500455868e-05 2.2459904868e+00 -3.8901696364e+00 2.2459904868e+00 3.8901696364e+00 
113300 5.0107053092e+00 -7.0626624157e-05 2.2459904868e+00 -3.8901696364e+00 2.2459904868e+00 3.8901696364e+00 
113400 5.0107053093e+00 -7.0751900176e-05 2.2459904868e+00 -3.8901696364e+00 2.2459904868e+00 3.8901696364e+00 
113500 5.0107053092e+00 -6.9885268128e-05 2.2459920619e+00 -3.8901723645e+00 2.2459920619e+00 3.8901723645e+00 
113600 5.0107053092e+00 -7.0005007099e-05 2.2459920619e+00 -3.8901723645e+00 2.2459920619e+00 3.8901723645e+00 
113700 5.0107053092e+00 -7.0123928344e-05 2.2459920619e+00 -3.8901723645e+00 2.2459920619e+00 3.8901723645e+00 
113800 5.0107053092e+00 -7.0242026500e-05 2.2459920619e+00 -3.8901723645e+00 2.2459920619e+00 3.8901723645e+00 
113900 5.0107053093e+00 -7.0359296655e-05 2.2459920619e+00 -3.8901723645e+00 2.2459920619e+00 3.8901723645e+00 
114000 5.0107053093e+00 -7.0475734320e-05 2.2459920619e+00 -3.8901723645e+00 2.2459920619e+00 3.8901723645e+00 
114100 5.0107053093e+00 -7.0591335419e-05 2.2459920619e+00 -3.8901723645e+00 2.2459920619e+00 3.8901723645e+00 
114200 5.0107053093e+00 -7.0706096262e-05 2.2459920619e+00 -3.8901723645e+00 2.2459920619e+00 3.8901723645e+00 
114300 5.0107053093e+00 -7.0820013538e-05 2.2459920619e+00 -3.8901723645e+00 2.2459920619e+00 3.8901723645e+00 
114400 5.0107053093e+00 -6.9941113147e-05 2.2459936384e+00 -3.8901750953e+00 2.2459936384e+00 3.8901750953e+00 
114500 5.0107053093e+00 -7.0049592000e-05 2.2459936384e+00 -3.8901750953e+00 2.2459936384e+00 3.8901750953e+00 
114600 5.0107053093e+00 -7.0157306610e-05 2.2459936384e+00 -3.8901750953e+00 2.2459936384e+00 3.8901750953e+00 
114700 5.0107053093e+00 -7.0264253033e-05 2.2459936384e+00 -3.8901750953e+00 2.2459936384e+00 3.8901750953e+00 
114800 5.0107053093e+00 -7.0370427709e-05 2.2459936384e+00 -3.8901750953e+00 2.2459936384e+00 3.8901750953e+00 
114900 5.0107053094e+00 -7.0465322424e-05 2.2459936384e+00 -3.8901750953e+00 2.2459936384e+00 3.8901750953e+00 
114900 5.0107053094e+00 -7.0465322424e-05 2.2459936384e+00 -3.8901750953e+00 2.2459936384e+00 3.8901750953e+00 
