# step Hamiltonian StressXX CellTensor1 CellTensor2 CellTensor3 CellTensor4 
0 4.9063236171e+00 4.9844530596e-02 1.6387017056e+00 -2.8383146126e+00 1.6387017056e+00 2.8383146126e+00 
100 4.9060660602e+00 4.8361903364e-02 1.6387017056e+00 -2.8383146126e+00 1.6387017056e+00 2.8383146126e+00 
200 4.9053012375e+00 4.5255999171e-02 1.6372263108e+00 -2.8357591539e+00 1.6372263108e+00 2.8357591539e+00 
300 4.9041406420e+00 4.2223312095e-02 1.6358444119e+00 -2.8333656347e+00 1.6358444119e+00 2.8333656347e+00 
400 4.9026053469e+00 3.9267109707e-02 1.6345540155e+00 -2.8311306025e+00 1.6345540155e+00 2.8311306025e+00 
500 4.9007216495e+00 3.6391838567e-02 1.6333530060e+00 -2.8290503931e+00 1.6333530060e+00 2.8290503931e+00 
600 4.8985197537e+00 3.3602792211e-02 1.6322391103e+00 -2.8271210691e+00 1.6322391103e+00 2.8271210691e+00 
700 4.8960325966e+00 3.0905808178e-02 1.6312098720e+00 -2.8253383761e+00 1.6312098720e+00 2.8253383761e+00 
800 4.8932948152e+00 2.8306997195e-02 1.6302626360e+00 -2.8236977152e+00 1.6302626360e+00 2.8236977152e+00 
900 4.8903418506e+00 2.5812506138e-02 1.6293945402e+00 -2.8221941292e+00 1.6293945402e+00 2.8221941292e+00 
1000 4.8872091819e+00 2.3428315159e-02 1.6286025155e+00 -2.8208223022e+00 1.6286025155e+00 2.8208223022e+00 
1100 4.8839316835e+00 2.1160068283e-02 1.6278832918e+00 -2.8195765702e+00 1.6278832918e+00 2.8195765702e+00 
1200 4.8805430959e+00 1.9012935992e-02 1.6272334092e+00 -2.8184509406e+00 1.6272334092e+00 2.8184509406e+00 
1300 4.8770756007e+00 1.6991507637e-02 1.6266492337e+00 -2.8174391189e+00 1.6266492337e+00 2.8174391189e+00 
1400 4.8735594908e+00 1.5099711131e-02 1.6261269762e+00 -2.8165345423e+00 1.6261269762e+00 2.8165345423e+00 
1500 4.8700229243e+00 1.3340757093e-02 1.6256627138e+00 -2.8157304162e+00 1.6256627138e+00 2.8157304162e+00 
1600 4.8664917536e+00 1.1717104512e-02 1.6252524135e+00 -2.8150197553e+00 1.6252524135e+00 2.8150197553e+00 
1700 4.8629894192e+00 1.0230444999e-02 1.6248919566e+00 -2.8143954256e+00 1.6248919566e+00 2.8143954256e+00 
1800 4.8595368997e+00 8.8817028144e-03 1.6245771629e+00 -2.8138501869e+00 1.6245771629e+00 2.8138501869e+00 
1900 4.8561527091e+00 7.6710479836e-03 1.6243038162e+00 -2.8133767367e+00 1.6243038162e+00 2.8133767367e+00 
2000 4.8528529334e+00 6.5979200845e-03 1.6240676886e+00 -2.8129677515e+00 1.6240676886e+00 2.8129677515e+00 
2100 4.8496513008e+00 5.6610604815e-03 1.6238645633e+00 -2.8126159283e+00 1.6238645633e+00 2.8126159283e+00 
2200 4.8465592762e+00 4.8585510652e-03 1.6236902582e+00 -2.8123140229e+00 1.6236902582e+00 2.8123140229e+00 
2300 4.8435861773e+00 4.1878577960e-03 1.6235406460e+00 -2.8120548870e+00 1.6235406460e+00 2.8120548870e+00 
2400 4.8407393056e+00 3.6458776023e-03 1.6234116747e+00 -2.8118315022e+00 1.6234116747e+00 2.8118315022e+00 
2500 4.8380240876e+00 3.2289874074e-03 1.6232993854e+00 -2.8116370114e+00 1.6232993854e+00 2.8116370114e+00 
2600 4.8354442232e+00 2.9330942737e-03 1.6231999289e+00 -2.8114647477e+00 1.6231999289e+00 2.8114647477e+00 
2700 4.8330018384e+00 2.7536858363e-03 1.6231095806e+00 -2.8113082598e+00 1.6231095806e+00 2.8113082598e+00 
2800 4.8306976378e+00 2.6858803655e-03 1.6230247538e+00 -2.8111613356e+00 1.6230247538e+00 2.8111613356e+00 
2900 4.8285310566e+00 2.7244759374e-03 1.6229420115e+00 -2.8110180216e+00 1.6229420115e+00 2.8110180216e+00 
3000 4.8265004089e+00 2.8639983116e-03 1.6228580759e+00 -2.8108726409e+00 1.6228580759e+00 2.8108726409e+00 
3100 4.8246030309e+00 3.0987472160e-03 1.6227698374e+00 -2.8107198073e+00 1.6227698374e+00 2.8107198073e+00 
3200 4.8228354187e+00 3.4228408174e-03 1.6226743612e+00 -2.8105544377e+00 1.6226743612e+00 2.8105544377e+00 
3300 4.8211933588e+00 3.8302582218e-03 1.6225688932e+00 -2.8103717618e+00 1.6225688932e+00 2.8103717618e+00 
3400 4.8196720507e+00 4.3148799013e-03 1.6224508640e+00 -2.8101673292e+00 1.6224508640e+00 2.8101673292e+00 
3500 4.8182662218e+00 4.8705259781e-03 1.6223178916e+00 -2.8099370143e+00 1.6223178916e+00 2.8099370143e+00 
3600 4.8169702331e+00 5.4909923300e-03 1.6221677839e+00 -2.8096770200e+00 1.6221677839e+00 2.8096770200e+00 
3700 4.8157781775e+00 6.1700844973e-03 1.6219985382e+00 -2.8093838780e+00 1.6219985382e+00 2.8093838780e+00 
3800 4.8146839679e+00 6.9016493893e-03 1.6218083419e+00 -2.8090544482e+00 1.6218083419e+00 2.8090544482e+00 
3900 4.8136814178e+00 7.6796047956e-03 1.6215955702e+00 -2.8086859168e+00 1.6215955702e+00 2.8086859168e+00 
4000 4.8127643132e+00 8.4979667123e-03 1.6213587843e+00 -2.8082757917e+00 1.6213587843e+00 2.8082757917e+00 
4100 4.8119264762e+00 9.3508745014e-03 1.6210967282e+00 -2.8078218973e+00 1.6210967282e+00 2.8078218973e+00 
4200 4.8111618206e+00 1.0232613897e-02 1.6208083248e+00 -2.8073223679e+00 1.6208083248e+00 2.8073223679e+00 
4300 4.8104644001e+00 1.1137637882e-02 1.6204926712e+00 -2.8067756397e+00 1.6204926712e+00 2.8067756397e+00 
4400 4.8098284496e+00 1.2060585450e-02 1.6201490336e+00 -2.8061804420e+00 1.6201490336e+00 2.8061804420e+00 
4500 4.8092484191e+00 1.2996298288e-02 1.6197768418e+00 -2.8055357869e+00 1.6197768418e+00 2.8055357869e+00 
4600 4.8087190017e+00 1.3939835387e-02 1.6193756827e+00 -2.8048409591e+00 1.6193756827e+00 2.8048409591e+00 
4700 4.8082351560e+00 1.4886485634e-02 1.6189452941e+00 -2.8040955041e+00 1.6189452941e+00 2.8040955041e+00 
4800 4.8077921223e+00 1.5831778406e-02 1.6184855571e+00 -2.8032992162e+00 1.6184855571e+00 2.8032992162e+00 
4900 4.8073854346e+00 1.6771492214e-02 1.6179964894e+00 -2.8024521261e+00 1.6179964894e+00 2.8024521261e+00 
5000 4.8070109279e+00 1.7701661446e-02 1.6174782375e+00 -2.8015544874e+00 1.6174782375e+00 2.8015544874e+00 
5100 4.8066647409e+00 1.8618581266e-02 1.6169310689e+00 -2.8006067638e+00 1.6169310689e+00 2.8006067638e+00 
5200 4.8063433164e+00 1.9518810743e-02 1.6163553649e+00 -2.7996096151e+00 1.6163553649e+00 2.7996096151e+00 
5300 4.8060433971e+00 2.0399174272e-02 1.6157516117e+00 -2.7985638838e+00 1.6157516117e+00 2.7985638838e+00 
5400 4.8057620196e+00 2.1256761374e-02 1.6151203932e+00 -2.7974705813e+00 1.6151203932e+00 2.7974705813e+00 
5500 4.8054965059e+00 2.2088924979e-02 1.6144623829e+00 -2.7963308740e+00 1.6144623829e+00 2.7963308740e+00 
5600 4.8052444526e+00 2.2893278274e-02 1.6137783358e+00 -2.7951460698e+00 1.6137783358e+00 2.7951460698e+00 
5700 4.8050037190e+00 2.3667690231e-02 1.6130690810e+00 -2.7939176045e+00 1.6130690810e+00 2.7939176045e+00 
5800 4.8047724135e+00 2.4410279926e-02 1.6123355137e+00 -2.7926470286e+00 1.6123355137e+00 2.7926470286e+00 
5900 4.8045488794e+00 2.5119409762e-02 1.6115785879e+00 -2.7913359945e+00 1.6115785879e+00 2.7913359945e+00 
6000 4.8043316799e+00 2.5793677719e-02 1.6107993089e+00 -2.7899862439e+00 1.6107993089e+00 2.7899862439e+00 
6100 4.8041195823e+00 2.6431908744e-02 1.6099987269e+00 -2.7885995951e+00 1.6099987269e+00 2.7885995951e+00 
6200 4.8039115428e+00 2.7033145419e-02 1.6091779293e+00 -2.7871779320e+00 1.6091779293e+00 2.7871779320e+00 
6300 4.8037066907e+00 2.7596638002e-02 1.6083380349e+00 -2.7857231921e+00 1.6083380349e+00 2.7857231921e+00 
6400 4.8035043125e+00 2.8121833977e-02 1.6074801871e+00 -2.7842373562e+00 1.6074801871e+00 2.7842373562e+00 
6500 4.8033038377e+00 2.8608367225e-02 1.6066055486e+00 -2.7827224379e+00 1.6066055486e+00 2.7827224379e+00 
6600 4.8031048234e+00 2.9056046912e-02 1.6057152951e+00 -2.7811804736e+00 1.6057152951e+00 2.7811804736e+00 
6700 4.8029069404e+00 2.9464846210e-02 1.6048106105e+00 -2.7796135140e+00 1.6048106105e+00 2.7796135140e+00 
6800 4.8027099599e+00 2.9834890940e-02 1.6038926818e+00 -2.7780236148e+00 1.6038926818e+00 2.7780236148e+00 
6900 4.8025137409e+00 3.0166448230e-02 1.6029626942e+00 -2.7764128290e+00 1.6029626942e+00 2.7764128290e+00 
7000 4.8023182180e+00 3.0459915259e-02 1.6020218272e+00 -2.7747831995e+00 1.6020218272e+00 2.7747831995e+00 
7100 4.8021233903e+00 3.0715808175e-02 1.6010712502e+00 -2.7731367519e+00 1.6010712502e+00 2.7731367519e+00 
7200 4.8019293115e+00 3.0934751240e-02 1.6001121193e+00 -2.7714754884e+00 1.6001121193e+00 2.7714754884e+00 
7300 4.8017360800e+00 3.1117466257e-02 1.5991455734e+00 -2.7698013819e+00 1.5991455734e+00 2.7698013819e+00 
7400 4.8015438303e+00 3.1264762337e-02 1.5981727318e+00 -2.7681163707e+00 1.5981727318e+00 2.7681163707e+00 
7500 4.8013527256e+00 3.1377526042e-02 1.5971946907e+00 -2.7664223539e+00 1.5971946907e+00 2.7664223539e+00 
7600 4.8011629500e+00 3.1456711927e-02 1.5962125215e+00 -2.7647211870e+00 1.5962125215e+00 2.7647211870e+00 
7700 4.8009747030e+00 3.1503333527e-02 1.5952272682e+00 -2.7630146782e+00 1.5952272682e+00 2.7630146782e+00 
7800 4.8007881933e+00 3.1518454789e-02 1.5942399455e+00 -2.7613045851e+00 1.5942399455e+00 2.7613045851e+00 
7900 4.8006036342e+00 3.1503181972e-02 1.5932515374e+00 -2.7595926119e+00 1.5932515374e+00 2.7595926119e+00 
8000 4.8004212393e+00 3.1458656028e-02 1.5922629953e+00 -2.7578804069e+00 1.5922629953e+00 2.7578804069e+00 
8100 4.8002412190e+00 3.1386045448e-02 1.5912752376e+00 -2.7561695604e+00 1.5912752376e+00 2.7561695604e+00 
8200 4.8000637770e+00 3.1286539596e-02 1.5902891480e+00 -2.7544616030e+00 1.5902891480e+00 2.7544616030e+00 
8300 4.7998891083e+00 3.1161342508e-02 1.5893055749e+00 -2.7527580044e+00 1.5893055749e+00 2.7527580044e+00 
8400 4.7997173964e+00 3.1011667157e-02 1.5883253311e+00 -2.7510601724e+00 1.5883253311e+00 2.7510601724e+00 
8500 4.7995488124e+00 3.0838730166e-02 1.5873491933e+00 -2.7493694521e+00 1.5873491933e+00 2.7493694521e+00 
8600 4.7993835132e+00 3.0643746963e-02 1.5863779016e+00 -2.7476871255e+00 1.5863779016e+00 2.7476871255e+00 
8700 4.7992216404e+00 3.0427927358e-02 1.5854121596e+00 -2.7460144113e+00 1.5854121596e+00 2.7460144113e+00 
8800 4.7990633202e+00 3.0192471527e-02 1.5844526344e+00 -2.7443524650e+00 1.5844526344e+00 2.7443524650e+00 
8900 4.7989086628e+00 2.9938566386e-02 1.5834999571e+00 -2.7427023794e+00 1.5834999571e+00 2.7427023794e+00 
9000 4.7987577622e+00 2.9667382333e-02 1.5825547222e+00 -2.7410651847e+00 1.5825547222e+00 2.7410651847e+00 
9100 4.7986106962e+00 2.9380070343e-02 1.5816174892e+00 -2.7394418494e+00 1.5816174892e+00 2.7394418494e+00 
9200 4.7984675269e+00 2.9077759395e-02 1.5806887819e+00 -2.7378332812e+00 1.5806887819e+00 2.7378332812e+00 
9300 4.7983283009e+00 2.8761554212e-02 1.5797690899e+00 -2.7362403279e+00 1.5797690899e+00 2.7362403279e+00 
9400 4.7981930502e+00 2.8432533295e-02 1.5788588686e+00 -2.7346637783e+00 1.5788588686e+00 2.7346637783e+00 
9500 4.7980617923e+00 2.8091747225e-02 1.5779585402e+00 -2.7331043638e+00 1.5779585402e+00 2.7331043638e+00 
9600 4.7979345312e+00 2.7740217235e-02 1.5770684944e+00 -2.7315627594e+00 1.5770684944e+00 2.7315627594e+00 
9700 4.7978112583e+00 2.7378934003e-02 1.5761890895e+00 -2.7300395853e+00 1.5761890895e+00 2.7300395853e+00 
9800 4.7976919531e+00 2.7008856675e-02 1.5753206525e+00 -2.7285354083e+00 1.5753206525e+00 2.7285354083e+00 
9900 4.7975765840e+00 2.6630912095e-02 1.5744634808e+00 -2.7270507434e+00 1.5744634808e+00 2.7270507434e+00 
10000 4.7974651092e+00 2.6245994208e-02 1.5736178427e+00 -2.7255860552e+00 1.5736178427e+00 2.7255860552e+00 
10100 4.7973574777e+00 2.5854963650e-02 1.5727839784e+00 -2.7241417599e+00 1.5727839784e+00 2.7241417599e+00 
10200 4.7972536301e+00 2.5458647485e-02 1.5719621010e+00 -2.7227182265e+00 1.5719621010e+00 2.7227182265e+00 
10300 4.7971534997e+00 2.5057839089e-02 1.5711523976e+00 -2.7213157791e+00 1.5711523976e+00 2.7213157791e+00 
10400 4.7970570127e+00 2.4653298166e-02 1.5703550301e+00 -2.7199346981e+00 1.5703550301e+00 2.7199346981e+00 
10500 4.7969640899e+00 2.4245750872e-02 1.5695701361e+00 -2.7185752219e+00 1.5695701361e+00 2.7185752219e+00 
10600 4.7968746469e+00 2.3835890060e-02 1.5687978304e+00 -2.7172375490e+00 1.5687978304e+00 2.7172375490e+00 
10700 4.7967885950e+00 2.3424375605e-02 1.5680382052e+00 -2.7159218397e+00 1.5680382052e+00 2.7159218397e+00 
10800 4.7967058421e+00 2.3011834819e-02 1.5672913320e+00 -2.7146282173e+00 1.5672913320e+00 2.7146282173e+00 
10900 4.7966262932e+00 2.2598862947e-02 1.5665572618e+00 -2.7133567704e+00 1.5665572618e+00 2.7133567704e+00 
11000 4.7965498511e+00 2.2186023718e-02 1.5658360265e+00 -2.7121075542e+00 1.5658360265e+00 2.7121075542e+00 
11100 4.7964764171e+00 2.1773849962e-02 1.5651276398e+00 -2.7108805924e+00 1.5651276398e+00 2.7108805924e+00 
11200 4.7964058914e+00 2.1362844273e-02 1.5644320979e+00 -2.7096758785e+00 1.5644320979e+00 2.7096758785e+00 
11300 4.7963381737e+00 2.0953479714e-02 1.5637493808e+00 -2.7084933779e+00 1.5637493808e+00 2.7084933779e+00 
11400 4.7962731639e+00 2.0546200565e-02 1.5630794530e+00 -2.7073330289e+00 1.5630794530e+00 2.7073330289e+00 
11500 4.7962107619e+00 2.0141423093e-02 1.5624222644e+00 -2.7061947449e+00 1.5624222644e+00 2.7061947449e+00 
11600 4.7961508688e+00 1.9739536348e-02 1.5617777512e+00 -2.7050784151e+00 1.5617777512e+00 2.7050784151e+00 
11700 4.7960933867e+00 1.9340902989e-02 1.5611458365e+00 -2.7039839069e+00 1.5611458365e+00 2.7039839069e+00 
11800 4.7960382192e+00 1.8945860106e-02 1.5605264318e+00 -2.7029110664e+00 1.5605264318e+00 2.7029110664e+00 
11900 4.7959852716e+00 1.8554720075e-02 1.5599194369e+00 -2.7018597204e+00 1.5599194369e+00 2.7018597204e+00 
12000 4.7959344512e+00 1.8167771400e-02 1.5593247414e+00 -2.7008296776e+00 1.5593247414e+00 2.7008296776e+00 
12100 4.7958856676e+00 1.7785279571e-02 1.5587422252e+00 -2.6998207299e+00 1.5587422252e+00 2.6998207299e+00 
12200 4.7958388327e+00 1.7407487918e-02 1.5581717590e+00 -2.6988326535e+00 1.5581717590e+00 2.6988326535e+00 
12300 4.7957938610e+00 1.7034618465e-02 1.5576132054e+00 -2.6978652103e+00 1.5576132054e+00 2.6978652103e+00 
12400 4.7957506695e+00 1.6666872772e-02 1.5570664194e+00 -2.6969181492e+00 1.5570664194e+00 2.6969181492e+00 
12500 4.7957091780e+00 1.6304432780e-02 1.5565312490e+00 -2.6959912069e+00 1.5565312490e+00 2.6959912069e+00 
12600 4.7956693092e+00 1.5947461637e-02 1.5560075359e+00 -2.6950841091e+00 1.5560075359e+00 2.6950841091e+00 
12700 4.7956309886e+00 1.5596104521e-02 1.5554951159e+00 -2.6941965717e+00 1.5554951159e+00 2.6941965717e+00 
12800 4.7955941445e+00 1.5250489444e-02 1.5549938200e+00 -2.6933283017e+00 1.5549938200e+00 2.6933283017e+00 
12900 4.7955587083e+00 1.4910728045e-02 1.5545034744e+00 -2.6924789982e+00 1.5545034744e+00 2.6924789982e+00 
13000 4.7955246141e+00 1.4576916367e-02 1.5540239013e+00 -2.6916483532e+00 1.5540239013e+00 2.6916483532e+00 
13100 4.7954917989e+00 1.4249135617e-02 1.5535549194e+00 -2.6908360527e+00 1.5535549194e+00 2.6908360527e+00 
13200 4.7954602025e+00 1.3927452912e-02 1.5530963442e+00 -2.6900417772e+00 1.5530963442e+00 2.6900417772e+00 
13300 4.7954297677e+00 1.3611922004e-02 1.5526479888e+00 -2.6892652029e+00 1.5526479888e+00 2.6892652029e+00 
13400 4.7954004397e+00 1.3302583983e-02 1.5522096640e+00 -2.6885060021e+00 1.5522096640e+00 2.6885060021e+00 
13500 4.7953721667e+00 1.2999467974e-02 1.5517811790e+00 -2.6877638443e+00 1.5517811790e+00 2.6877638443e+00 
13600 4.7953448993e+00 1.2702591795e-02 1.5513623415e+00 -2.6870383964e+00 1.5513623415e+00 2.6870383964e+00 
13700 4.7953185907e+00 1.2411962616e-02 1.5509529583e+00 -2.6863293240e+00 1.5509529583e+00 2.6863293240e+00 
13800 4.7952931965e+00 1.2127577582e-02 1.5505528357e+00 -2.6856362912e+00 1.5505528357e+00 2.6856362912e+00 
13900 4.7952686746e+00 1.1849424424e-02 1.5501617794e+00 -2.6849589619e+00 1.5501617794e+00 2.6849589619e+00 
14000 4.7952449852e+00 1.1577482051e-02 1.5497795955e+00 -2.6842969999e+00 1.5497795955e+00 2.6842969999e+00 
14100 4.7952220909e+00 1.1311721116e-02 1.5494060902e+00 -2.6836500698e+00 1.5494060902e+00 2.6836500698e+00 
14200 4.7951999559e+00 1.1052104565e-02 1.5490410705e+00 -2.6830178371e+00 1.5490410705e+00 2.6830178371e+00 
14300 4.7951785469e+00 1.0798588170e-02 1.5486843440e+00 -2.6823999686e+00 1.5486843440e+00 2.6823999686e+00 
14400 4.7951578322e+00 1.0551121037e-02 1.5483357196e+00 -2.6817961335e+00 1.5483357196e+00 2.6817961335e+00 
14500 4.7951377819e+00 1.0309646095e-02 1.5479950075e+00 -2.6812060028e+00 1.5479950075e+00 2.6812060028e+00 
14600 4.7951183679e+00 1.0074100572e-02 1.5476620194e+00 -2.6806292506e+00 1.5476620194e+00 2.6806292506e+00 
14700 4.7950995638e+00 9.8444164427e-03 1.5473365689e+00 -2.6800655538e+00 1.5473365689e+00 2.6800655538e+00 
14800 4.7950813444e+00 9.6205208653e-03 1.5470184714e+00 -2.6795145927e+00 1.5470184714e+00 2.6795145927e+00 
14900 4.7950636864e+00 9.4023365966e-03 1.5467075443e+00 -2.6789760512e+00 1.5467075443e+00 2.6789760512e+00 
15000 4.7950465674e+00 9.1897823898e-03 1.5464036075e+00 -2.6784496172e+00 1.5464036075e+00 2.6784496172e+00 
15100 4.7950299667e+00 8.9827733752e-03 1.5461064830e+00 -2.6779349824e+00 1.5461064830e+00 2.6779349824e+00 
15200 4.7950138645e+00 8.7812214233e-03 1.5458159955e+00 -2.6774318433e+00 1.5458159955e+00 2.6774318433e+00 
15300 4.7949982423e+00 8.5850354915e-03 1.5455319723e+00 -2.6769399007e+00 1.5455319723e+00 2.6769399007e+00 
15400 4.7949830826e+00 8.3941219544e-03 1.5452542434e+00 -2.6764588601e+00 1.5452542434e+00 2.6764588601e+00 
15500 4.7949683688e+00 8.2083849180e-03 1.5449826416e+00 -2.6759884320e+00 1.5449826416e+00 2.6759884320e+00 
15600 4.7949540853e+00 8.0277265187e-03 1.5447170027e+00 -2.6755283320e+00 1.5447170027e+00 2.6755283320e+00 
15700 4.7949402174e+00 7.8520472074e-03 1.5444571654e+00 -2.6750782806e+00 1.5444571654e+00 2.6750782806e+00 
15800 4.7949267511e+00 7.6812460185e-03 1.5442029715e+00 -2.6746380038e+00 1.5442029715e+00 2.6746380038e+00 
15900 4.7949136732e+00 7.5152208247e-03 1.5439542659e+00 -2.6742072330e+00 1.5439542659e+00 2.6742072330e+00 
16000 4.7949009712e+00 7.3538685790e-03 1.5437108965e+00 -2.6737857049e+00 1.5437108965e+00 2.6737857049e+00 
16100 4.7948886333e+00 7.1970855420e-03 1.5434727146e+00 -2.6733731618e+00 1.5434727146e+00 2.6733731618e+00 
16200 4.7948766481e+00 7.0447674971e-03 1.5432395746e+00 -2.6729693515e+00 1.5432395746e+00 2.6729693515e+00 
16300 4.7948650049e+00 6.8968099536e-03 1.5430113342e+00 -2.6725740274e+00 1.5430113342e+00 2.6725740274e+00 
16400 4.7948536934e+00 6.7531083362e-03 1.5427878542e+00 -2.6721869487e+00 1.5427878542e+00 2.6721869487e+00 
16500 4.7948427040e+00 6.6135581649e-03 1.5425689988e+00 -2.6718078801e+00 1.5425689988e+00 2.6718078801e+00 
16600 4.7948320272e+00 6.4780552219e-03 1.5423546354e+00 -2.6714365919e+00 1.5423546354e+00 2.6714365919e+00 
16700 4.7948216542e+00 6.3464957087e-03 1.5421446348e+00 -2.6710728601e+00 1.5421446348e+00 2.6710728601e+00 
16800 4.7948115764e+00 6.2187763925e-03 1.5419388709e+00 -2.6707164666e+00 1.5419388709e+00 2.6707164666e+00 
16900 4.7948017857e+00 6.0947947425e-03 1.5417372209e+00 -2.6703671985e+00 1.5417372209e+00 2.6703671985e+00 
17000 4.7947922740e+00 5.9744490562e-03 1.5415395651e+00 -2.6700248487e+00 1.5415395651e+00 2.6700248487e+00 
17100 4.7947830339e+00 5.8576385775e-03 1.5413457873e+00 -2.6696892156e+00 1.5413457873e+00 2.6696892156e+00 
17200 4.7947740580e+00 5.7442636046e-03 1.5411557742e+00 -2.6693601032e+00 1.5411557742e+00 2.6693601032e+00 
17300 4.7947653393e+00 5.6342255902e-03 1.5409694157e+00 -2.6690373210e+00 1.5409694157e+00 2.6690373210e+00 
17400 4.7947568709e+00 5.5274272334e-03 1.5407866050e+00 -2.6687206835e+00 1.5407866050e+00 2.6687206835e+00 
17500 4.7947486462e+00 5.4237725633e-03 1.5406072382e+00 -2.6684100111e+00 1.5406072382e+00 2.6684100111e+00 
17600 4.7947406589e+00 5.3231670157e-03 1.5404312144e+00 -2.6681051290e+00 1.5404312144e+00 2.6681051290e+00 
17700 4.7947329026e+00 5.2255175026e-03 1.5402584360e+00 -2.6678058679e+00 1.5402584360e+00 2.6678058679e+00 
17800 4.7947253715e+00 5.1307324740e-03 1.5400888079e+00 -2.6675120634e+00 1.5400888079e+00 2.6675120634e+00 
17900 4.7947180595e+00 5.0387219745e-03 1.5399222383e+00 -2.6672235564e+00 1.5399222383e+00 2.6672235564e+00 
18000 4.7947109610e+00 4.9493976929e-03 1.5397586380e+00 -2.6669401925e+00 1.5397586380e+00 2.6669401925e+00 
18100 4.7947040704e+00 4.8626730056e-03 1.5395979209e+00 -2.6666618222e+00 1.5395979209e+00 2.6666618222e+00 
18200 4.7946973823e+00 4.7784630152e-03 1.5394400034e+00 -2.6663883011e+00 1.5394400034e+00 2.6663883011e+00 
18300 4.7946908915e+00 4.6966845832e-03 1.5392848047e+00 -2.6661194890e+00 1.5392848047e+00 2.6661194890e+00 
18400 4.7946845926e+00 4.6172563580e-03 1.5391322466e+00 -2.6658552506e+00 1.5391322466e+00 2.6658552506e+00 
18500 4.7946784808e+00 4.5400987973e-03 1.5389822536e+00 -2.6655954551e+00 1.5389822536e+00 2.6655954551e+00 
18600 4.7946725510e+00 4.4651341874e-03 1.5388347526e+00 -2.6653399760e+00 1.5388347526e+00 2.6653399760e+00 
18700 4.7946667985e+00 4.3922866564e-03 1.5386896732e+00 -2.6650886911e+00 1.5386896732e+00 2.6650886911e+00 
18800 4.7946612185e+00 4.3214821851e-03 1.5385469473e+00 -2.6648414826e+00 1.5385469473e+00 2.6648414826e+00 
18900 4.7946558065e+00 4.2526486129e-03 1.5384065091e+00 -2.6645982364e+00 1.5384065091e+00 2.6645982364e+00 
19000 4.7946505579e+00 4.1857156405e-03 1.5382682951e+00 -2.6643588428e+00 1.5382682951e+00 2.6643588428e+00 
19100 4.7946454684e+00 4.1206148293e-03 1.5381322443e+00 -2.6641231958e+00 1.5381322443e+00 2.6641231958e+00 
19200 4.7946405335e+00 4.0572795974e-03 1.5379982976e+00 -2.6638911933e+00 1.5379982976e+00 2.6638911933e+00 
19300 4.7946357492e+00 3.9956452130e-03 1.5378663981e+00 -2.6636627368e+00 1.5378663981e+00 2.6636627368e+00 
19400 4.7946311112e+00 3.9356487848e-03 1.5377364912e+00 -2.6634377315e+00 1.5377364912e+00 2.6634377315e+00 
19500 4.7946266155e+00 3.8772292498e-03 1.5376085241e+00 -2.6632160859e+00 1.5376085241e+00 2.6632160859e+00 
19600 4.7946222583e+00 3.8203273585e-03 1.5374824460e+00 -2.6629977122e+00 1.5374824460e+00 2.6629977122e+00 
19700 4.7946180355e+00 3.7648856588e-03 1.5373582080e+00 -2.6627825256e+00 1.5373582080e+00 2.6627825256e+00 
19800 4.7946139436e+00 3.7108484763e-03 1.5372357630e+00 -2.6625704447e+00 1.5372357630e+00 2.6625704447e+00 
19900 4.7946099786e+00 3.6581618946e-03 1.5371150658e+00 -2.6623613911e+00 1.5371150658e+00 2.6623613911e+00 
20000 4.7946061371e+00 3.6067737319e-03 1.5369960730e+00 -2.6621552894e+00 1.5369960730e+00 2.6621552894e+00 
20100 4.7946024156e+00 3.5566335177e-03 1.5368787425e+00 -2.6619520671e+00 1.5368787425e+00 2.6619520671e+00 
20200 4.7945988105e+00 3.5076924666e-03 1.5367630344e+00 -2.6617516547e+00 1.5367630344e+00 2.6617516547e+00 
20300 4.7945953185e+00 3.4599034524e-03 1.5366489098e+00 -2.6615539851e+00 1.5366489098e+00 2.6615539851e+00 
20400 4.7945919363e+00 3.4132209793e-03 1.5365363316e+00 -2.6613589941e+00 1.5365363316e+00 2.6613589941e+00 
20500 4.7945886608e+00 3.3676011530e-03 1.5364252643e+00 -2.6611666198e+00 1.5364252643e+00 2.6611666198e+00 
20600 4.7945854887e+00 3.3230016512e-03 1.5363156735e+00 -2.6609768030e+00 1.5363156735e+00 2.6609768030e+00 
20700 4.7945824170e+00 3.2793816922e-03 1.5362075264e+00 -2.6607894867e+00 1.5362075264e+00 2.6607894867e+00 
20800 4.7945794428e+00 3.2367020035e-03 1.5361007913e+00 -2.6606046161e+00 1.5361007913e+00 2.6606046161e+00 
20900 4.7945765631e+00 3.1949247896e-03 1.5359954381e+00 -2.6604221389e+00 1.5359954381e+00 2.6604221389e+00 
21000 4.7945737752e+00 3.1540136993e-03 1.5358914375e+00 -2.6602420046e+00 1.5358914375e+00 2.6602420046e+00 
21100 4.7945710762e+00 3.1139337926e-03 1.5357887616e+00 -2.6600641648e+00 1.5357887616e+00 2.6600641648e+00 
21200 4.7945684634e+00 3.0746515069e-03 1.5356873838e+00 -2.6598885732e+00 1.5356873838e+00 2.6598885732e+00 
21300 4.7945659343e+00 3.0361346233e-03 1.5355872782e+00 -2.6597151853e+00 1.5355872782e+00 2.6597151853e+00 
21400 4.7945634862e+00 2.9983522328e-03 1.5354884202e+00 -2.6595439582e+00 1.5354884202e+00 2.6595439582e+00 
21500 4.7945611168e+00 2.9612747019e-03 1.5353907861e+00 -2.6593748510e+00 1.5353907861e+00 2.6593748510e+00 
21600 4.7945588236e+00 2.9248736383e-03 1.5352943532e+00 -2.6592078243e+00 1.5352943532e+00 2.6592078243e+00 
21700 4.7945566042e+00 2.8891218571e-03 1.5351990997e+00 -2.6590428404e+00 1.5351990997e+00 2.6590428404e+00 
21800 4.7945544564e+00 2.8539933461e-03 1.5351050046e+00 -2.6588798630e+00 1.5351050046e+00 2.6588798630e+00 
21900 4.7945523780e+00 2.8194632325e-03 1.5350120480e+00 -2.6587188573e+00 1.5350120480e+00 2.6587188573e+00 
22000 4.7945503668e+00 2.7855077483e-03 1.5349202104e+00 -2.6585597900e+00 1.5349202104e+00 2.6585597900e+00 
22100 4.7945484206e+00 2.7521041972e-03 1.5348294734e+00 -2.6584026290e+00 1.5348294734e+00 2.6584026290e+00 
22200 4.7945465375e+00 2.7192309208e-03 1.5347398193e+00 -2.6582473434e+00 1.5347398193e+00 2.6582473434e+00 
22300 4.7945447156e+00 2.6868672661e-03 1.5346512308e+00 -2.6580939037e+00 1.5346512308e+00 2.6580939037e+00 
22400 4.7945429528e+00 2.6549935521e-03 1.5345636916e+00 -2.6579422814e+00 1.5345636916e+00 2.6579422814e+00 
22500 4.7945412473e+00 2.6235910381e-03 1.5344771860e+00 -2.6577924492e+00 1.5344771860e+00 2.6577924492e+00 
22600 4.7945395973e+00 2.5926418914e-03 1.5343916987e+00 -2.6576443808e+00 1.5343916987e+00 2.6576443808e+00 
22700 4.7945380010e+00 2.5621291557e-03 1.5343072151e+00 -2.6574980510e+00 1.5343072151e+00 2.6574980510e+00 
22800 4.7945364569e+00 2.5320367208e-03 1.5342237212e+00 -2.6573534353e+00 1.5342237212e+00 2.6573534353e+00 
22900 4.7945349631e+00 2.5023492911e-03 1.5341412034e+00 -2.6572105103e+00 1.5341412034e+00 2.6572105103e+00 
23000 4.7945335181e+00 2.4730523564e-03 1.5340596488e+00 -2.6570692535e+00 1.5340596488e+00 2.6570692535e+00 
23100 4.7945321204e+00 2.4441321620e-03 1.5339790447e+00 -2.6569296431e+00 1.5339790447e+00 2.6569296431e+00 
23200 4.7945307684e+00 2.4155756801e-03 1.5338993789e+00 -2.6567916580e+00 1.5338993789e+00 2.6567916580e+00 
23300 4.7945294608e+00 2.3873705812e-03 1.5338206399e+00 -2.6566552780e+00 1.5338206399e+00 2.6566552780e+00 
23400 4.7945281960e+00 2.3595052066e-03 1.5337428163e+00 -2.6565204835e+00 1.5337428163e+00 2.6565204835e+00 
23500 4.7945269727e+00 2.3319685412e-03 1.5336658971e+00 -2.6563872555e+00 1.5336658971e+00 2.6563872555e+00 
23600 4.7945257897e+00 2.3047501868e-03 1.5335898717e+00 -2.6562555758e+00 1.5335898717e+00 2.6562555758e+00 
23700 4.7945246455e+00 2.2778403365e-03 1.5335147300e+00 -2.6561254265e+00 1.5335147300e+00 2.6561254265e+00 
23800 4.7945235390e+00 2.2512297489e-03 1.5334404620e+00 -2.6559967905e+00 1.5334404620e+00 2.6559967905e+00 
23900 4.7945224690e+00 2.2249097242e-03 1.5333670580e+00 -2.6558696512e+00 1.5333670580e+00 2.6558696512e+00 
24000 4.7945214343e+00 2.1988720795e-03 1.5332945088e+00 -2.6557439922e+00 1.5332945088e+00 2.6557439922e+00 
24100 4.7945204338e+00 2.1731091258e-03 1.5332228052e+00 -2.6556197979e+00 1.5332228052e+00 2.6556197979e+00 
24200 4.7945194663e+00 2.1476136449e-03 1.5331519384e+00 -2.6554970530e+00 1.5331519384e+00 2.6554970530e+00 
24300 4.7945185309e+00 2.1223788676e-03 1.5330818997e+00 -2.6553757425e+00 1.5330818997e+00 2.6553757425e+00 
24400 4.7945176264e+00 2.0973984523e-03 1.5330126809e+00 -2.6552558520e+00 1.5330126809e+00 2.6552558520e+00 
24500 4.7945167520e+00 2.0726664637e-03 1.5329442737e+00 -2.6551373672e+00 1.5329442737e+00 2.6551373672e+00 
24600 4.7945159066e+00 2.0481773530e-03 1.5328766701e+00 -2.6550202743e+00 1.5328766701e+00 2.6550202743e+00 
24700 4.7945150893e+00 2.0239259381e-03 1.5328098623e+00 -2.6549045598e+00 1.5328098623e+00 2.6549045598e+00 
24800 4.7945142993e+00 1.9999073847e-03 1.5327438426e+00 -2.6547902104e+00 1.5327438426e+00 2.6547902104e+00 
24900 4.7945135355e+00 1.9761171879e-03 1.5326786036e+00 -2.6546772132e+00 1.5326786036e+00 2.6546772132e+00 
25000 4.7945127973e+00 1.9525511546e-03 1.5326141380e+00 -2.6545655553e+00 1.5326141380e+00 2.6545655553e+00 
25100 4.7945120838e+00 1.9292053861e-03 1.5325504384e+00 -2.6544552244e+00 1.5325504384e+00 2.6544552244e+00 
25200 4.7945113942e+00 1.9060762620e-03 1.5324874978e+00 -2.6543462081e+00 1.5324874978e+00 2.6543462081e+00 
25300 4.7945107277e+00 1.8831604235e-03 1.5324253093e+00 -2.6542384944e+00 1.5324253093e+00 2.6542384944e+00 
25400 4.7945100836e+00 1.8604547590e-03 1.5323638659e+00 -2.6541320714e+00 1.5323638659e+00 2.6541320714e+00 
25500 4.7945094612e+00 1.8379563883e-03 1.5323031609e+00 -2.6540269273e+00 1.5323031609e+00 2.6540269273e+00 
25600 4.7945088597e+00 1.8156626491e-03 1.5322431876e+00 -2.6539230505e+00 1.5322431876e+00 2.6539230505e+00 
25700 4.7945082786e+00 1.7935710828e-03 1.5321839395e+00 -2.6538204297e+00 1.5321839395e+00 2.6538204297e+00 
25800 4.7945077172e+00 1.7716794217e-03 1.5321254100e+00 -2.6537190536e+00 1.5321254100e+00 2.6537190536e+00 
25900 4.7945071747e+00 1.7499855762e-03 1.5320675926e+00 -2.6536189111e+00 1.5320675926e+00 2.6536189111e+00 
26000 4.7945066507e+00 1.7284876224e-03 1.5320104811e+00 -2.6535199910e+00 1.5320104811e+00 2.6535199910e+00 
26100 4.7945061446e+00 1.7071837911e-03 1.5319540691e+00 -2.6534222825e+00 1.5319540691e+00 2.6534222825e+00 
26200 4.7945056557e+00 1.6860724562e-03 1.5318983502e+00 -2.6533257746e+00 1.5318983502e+00 2.6533257746e+00 
26300 4.7945051835e+00 1.6651521242e-03 1.5318433184e+00 -2.6532304568e+00 1.5318433184e+00 2.6532304568e+00 
26400 4.7945047274e+00 1.6444214239e-03 1.5317889675e+00 -2.6531363182e+00 1.5317889675e+00 2.6531363182e+00 
26500 4.7945042871e+00 1.6238790971e-03 1.5317352913e+00 -2.6530433483e+00 1.5317352913e+00 2.6530433483e+00 
26600 4.7945038619e+00 1.6035239889e-03 1.5316822838e+00 -2.6529515366e+00 1.5316822838e+00 2.6529515366e+00 
26700 4.7945034514e+00 1.5833550391e-03 1.5316299389e+00 -2.6528608726e+00 1.5316299389e+00 2.6528608726e+00 
26800 4.7945030550e+00 1.5633712736e-03 1.5315782506e+00 -2.6527713459e+00 1.5315782506e+00 2.6527713459e+00 
26900 4.7945026724e+00 1.5435717968e-03 1.5315272130e+00 -2.6526829461e+00 1.5315272130e+00 2.6526829461e+00 
27000 4.7945023031e+00 1.5239557836e-03 1.5314768201e+00 -2.6525956629e+00 1.5314768201e+00 2.6525956629e+00 
27100 4.7945019467e+00 1.5045224724e-03 1.5314270659e+00 -2.6525094862e+00 1.5314270659e+00 2.6525094862e+00 
27200 4.7945016028e+00 1.4852711584e-03 1.5313779446e+00 -2.6524244056e+00 1.5313779446e+00 2.6524244056e+00 
27300 4.7945012709e+00 1.4662011868e-03 1.5313294502e+00 -2.6523404109e+00 1.5313294502e+00 2.6523404109e+00 
27400 4.7945009507e+00 1.4473119471e-03 1.5312815770e+00 -2.6522574920e+00 1.5312815770e+00 2.6522574920e+00 
27500 4.7945006418e+00 1.4286028669e-03 1.5312343190e+00 -2.6521756389e+00 1.5312343190e+00 2.6521756389e+00 
27600 4.7945003438e+00 1.4100734069e-03 1.5311876705e+00 -2.6520948413e+00 1.5311876705e+00 2.6520948413e+00 
27700 4.7945000563e+00 1.3917230556e-03 1.5311416257e+00 -2.6520150893e+00 1.5311416257e+00 2.6520150893e+00 
27800 4.7944997792e+00 1.3735513245e-03 1.5310961787e+00 -2.6519363727e+00 1.5310961787e+00 2.6519363727e+00 
27900 4.7944995119e+00 1.3555577435e-03 1.5310513237e+00 -2.6518586817e+00 1.5310513237e+00 2.6518586817e+00 
28000 4.7944992542e+00 1.3377418569e-03 1.5310070551e+00 -2.6517820062e+00 1.5310070551e+00 2.6517820062e+00 
28100 4.7944990058e+00 1.3201032194e-03 1.5309633670e+00 -2.6517063362e+00 1.5309633670e+00 2.6517063362e+00 
28200 4.7944987663e+00 1.3026413921e-03 1.5309202537e+00 -2.6516316618e+00 1.5309202537e+00 2.6516316618e+00 
28300 4.7944985356e+00 1.2853559397e-03 1.5308777095e+00 -2.6515579731e+00 1.5308777095e+00 2.6515579731e+00 
28400 4.7944983132e+00 1.2682464268e-03 1.5308357287e+00 -2.6514852602e+00 1.5308357287e+00 2.6514852602e+00 
28500 4.7944980990e+00 1.2513124152e-03 1.5307943056e+00 -2.6514135132e+00 1.5307943056e+00 2.6514135132e+00 
28600 4.7944978926e+00 1.2345534612e-03 1.5307534344e+00 -2.6513427222e+00 1.5307534344e+00 2.6513427222e+00 
28700 4.7944976938e+00 1.2179691128e-03 1.5307131095e+00 -2.6512728775e+00 1.5307131095e+00 2.6512728775e+00 
28800 4.7944975024e+00 1.2015589079e-03 1.5306733253e+00 -2.6512039693e+00 1.5306733253e+00 2.6512039693e+00 
28900 4.7944973180e+00 1.1853223720e-03 1.5306340762e+00 -2.6511359877e+00 1.5306340762e+00 2.6511359877e+00 
29000 4.7944971406e+00 1.1692590160e-03 1.5305953563e+00 -2.6510689230e+00 1.5305953563e+00 2.6510689230e+00 
29100 4.7944969698e+00 1.1533683350e-03 1.5305571603e+00 -2.6510027655e+00 1.5305571603e+00 2.6510027655e+00 
29200 4.7944968054e+00 1.1376498064e-03 1.5305194824e+00 -2.6509375055e+00 1.5305194824e+00 2.6509375055e+00 
29300 4.7944966472e+00 1.1221028886e-03 1.5304823171e+00 -2.6508731332e+00 1.5304823171e+00 2.6508731332e+00 
29400 4.7944964951e+00 1.1067270198e-03 1.5304456587e+00 -2.6508096391e+00 1.5304456587e+00 2.6508096391e+00 
29500 4.7944963488e+00 1.0915216170e-03 1.5304095019e+00 -2.6507470136e+00 1.5304095019e+00 2.6507470136e+00 
29600 4.7944962080e+00 1.0764860748e-03 1.5303738409e+00 -2.6506852470e+00 1.5303738409e+00 2.6506852470e+00 
29700 4.7944960728e+00 1.0616197650e-03 1.5303386703e+00 -2.6506243298e+00 1.5303386703e+00 2.6506243298e+00 
29800 4.7944959427e+00 1.0469220354e-03 1.5303039847e+00 -2.6505642525e+00 1.5303039847e+00 2.6505642525e+00 
29900 4.7944958178e+00 1.0323922098e-03 1.5302697785e+00 -2.6505050056e+00 1.5302697785e+00 2.6505050056e+00 
30000 4.7944956977e+00 1.0180295872e-03 1.5302360462e+00 -2.6504465797e+00 1.5302360462e+00 2.6504465797e+00 
30100 4.7944955824e+00 1.0038334414e-03 1.5302027826e+00 -2.6503889653e+00 1.5302027826e+00 2.6503889653e+00 
30200 4.7944954716e+00 9.8980302130e-04 1.5301699820e+00 -2.6503321530e+00 1.5301699820e+00 2.6503321530e+00 
30300 4.7944953653e+00 9.7593754999e-04 1.5301376392e+00 -2.6502761337e+00 1.5301376392e+00 2.6502761337e+00 
30400 4.7944952632e+00 9.6223622524e-04 1.5301057488e+00 -2.6502208979e+00 1.5301057488e+00 2.6502208979e+00 
30500 4.7944951653e+00 9.4869821937e-04 1.5300743055e+00 -2.6501664364e+00 1.5300743055e+00 2.6501664364e+00 
30600 4.7944950714e+00 9.3532267932e-04 1.5300433039e+00 -2.6501127401e+00 1.5300433039e+00 2.6501127401e+00 
30700 4.7944949813e+00 9.2210872689e-04 1.5300127387e+00 -2.6500597997e+00 1.5300127387e+00 2.6500597997e+00 
30800 4.7944948949e+00 9.0905545895e-04 1.5299826048e+00 -2.6500076062e+00 1.5299826048e+00 2.6500076062e+00 
30900 4.7944948121e+00 8.9616194773e-04 1.5299528969e+00 -2.6499561506e+00 1.5299528969e+00 2.6499561506e+00 
31000 4.7944947328e+00 8.8342724125e-04 1.5299236097e+00 -2.6499054237e+00 1.5299236097e+00 2.6499054237e+00 
31100 4.7944946568e+00 8.7085036368e-04 1.5298947382e+00 -2.6498554168e+00 1.5298947382e+00 2.6498554168e+00 
31200 4.7944945841e+00 8.5843031584e-04 1.5298662772e+00 -2.6498061208e+00 1.5298662772e+00 2.6498061208e+00 
31300 4.7944945145e+00 8.4616607570e-04 1.5298382215e+00 -2.6497575270e+00 1.5298382215e+00 2.6497575270e+00 
31400 4.7944944478e+00 8.3405659892e-04 1.5298105662e+00 -2.6497096266e+00 1.5298105662e+00 2.6497096266e+00 
31500 4.7944943841e+00 8.2210081950e-04 1.5297833061e+00 -2.6496624108e+00 1.5297833061e+00 2.6496624108e+00 
31600 4.7944943232e+00 8.1029765034e-04 1.5297564364e+00 -2.6496158710e+00 1.5297564364e+00 2.6496158710e+00 
31700 4.7944942650e+00 7.9864598392e-04 1.5297299519e+00 -2.6495699986e+00 1.5297299519e+00 2.6495699986e+00 
31800 4.7944942094e+00 7.8714469300e-04 1.5297038478e+00 -2.6495247850e+00 1.5297038478e+00 2.6495247850e+00 
31900 4.7944941563e+00 7.7579263131e-04 1.5296781193e+00 -2.6494802218e+00 1.5296781193e+00 2.6494802218e+00 
32000 4.7944941057e+00 7.6458863429e-04 1.5296527613e+00 -2.6494363005e+00 1.5296527613e+00 2.6494363005e+00 
32100 4.7944940573e+00 7.5353151980e-04 1.5296277691e+00 -2.6493930128e+00 1.5296277691e+00 2.6493930128e+00 
32200 4.7944940113e+00 7.4262008894e-04 1.5296031380e+00 -2.6493503504e+00 1.5296031380e+00 2.6493503504e+00 
32300 4.7944939674e+00 7.3185312679e-04 1.5295788631e+00 -2.6493083051e+00 1.5295788631e+00 2.6493083051e+00 
32400 4.7944939256e+00 7.2122940320e-04 1.5295549398e+00 -2.6492668688e+00 1.5295549398e+00 2.6492668688e+00 
32500 4.7944938858e+00 7.1074767357e-04 1.5295313635e+00 -2.6492260333e+00 1.5295313635e+00 2.6492260333e+00 
32600 4.7944938480e+00 7.0040667969e-04 1.5295081293e+00 -2.6491857906e+00 1.5295081293e+00 2.6491857906e+00 
32700 4.7944938120e+00 6.9020515049e-04 1.5294852329e+00 -2.6491461329e+00 1.5294852329e+00 2.6491461329e+00 
32800 4.7944937779e+00 6.8014180289e-04 1.5294626697e+00 -2.6491070522e+00 1.5294626697e+00 2.6491070522e+00 
32900 4.7944937455e+00 6.7021534260e-04 1.5294404351e+00 -2.6490685407e+00 1.5294404351e+00 2.6490685407e+00 
33000 4.7944937147e+00 6.6042446489e-04 1.5294185246e+00 -2.6490305907e+00 1.5294185246e+00 2.6490305907e+00 
33100 4.7944936856e+00 6.5076785544e-04 1.5293969340e+00 -2.6489931946e+00 1.5293969340e+00 2.6489931946e+00 
33200 4.7944936581e+00 6.4124419111e-04 1.5293756587e+00 -2.6489563448e+00 1.5293756587e+00 2.6489563448e+00 
33300 4.7944936320e+00 6.3185214071e-04 1.5293546945e+00 -2.6489200337e+00 1.5293546945e+00 2.6489200337e+00 
33400 4.7944936074e+00 6.2259036585e-04 1.5293340371e+00 -2.6488842540e+00 1.5293340371e+00 2.6488842540e+00 
33500 4.7944935841e+00 6.1345752165e-04 1.5293136822e+00 -2.6488489983e+00 1.5293136822e+00 2.6488489983e+00 
33600 4.7944935622e+00 6.0445225754e-04 1.5292936256e+00 -2.6488142592e+00 1.5292936256e+00 2.6488142592e+00 
33700 4.7944935415e+00 5.9557321801e-04 1.5292738632e+00 -2.6487800297e+00 1.5292738632e+00 2.6487800297e+00 
33800 4.7944935221e+00 5.8681904336e-04 1.5292543908e+00 -2.6487463026e+00 1.5292543908e+00 2.6487463026e+00 
33900 4.7944935039e+00 5.7818837041e-04 1.5292352044e+00 -2.6487130708e+00 1.5292352044e+00 2.6487130708e+00 
34000 4.7944934868e+00 5.6967983324e-04 1.5292163000e+00 -2.6486803273e+00 1.5292163000e+00 2.6486803273e+00 
34100 4.7944934708e+00 5.6129206390e-04 1.5291976735e+00 -2.6486480653e+00 1.5291976735e+00 2.6486480653e+00 
34200 4.7944934559e+00 5.5302369309e-04 1.5291793210e+00 -2.6486162778e+00 1.5291793210e+00 2.6486162778e+00 
34300 4.7944934420e+00 5.4487335084e-04 1.5291612387e+00 -2.6485849583e+00 1.5291612387e+00 2.6485849583e+00 
34400 4.7944934290e+00 5.3683966714e-04 1.5291434226e+00 -2.6485541000e+00 1.5291434226e+00 2.6485541000e+00 
34500 4.7944934170e+00 5.2892127265e-04 1.5291258690e+00 -2.6485236963e+00 1.5291258690e+00 2.6485236963e+00 
34600 4.7944934059e+00 5.2111679926e-04 1.5291085742e+00 -2.6484937408e+00 1.5291085742e+00 2.6484937408e+00 
34700 4.7944933956e+00 5.1342488076e-04 1.5290915343e+00 -2.6484642269e+00 1.5290915343e+00 2.6484642269e+00 
34800 4.7944933861e+00 5.0584415337e-04 1.5290747458e+00 -2.6484351483e+00 1.5290747458e+00 2.6484351483e+00 
34900 4.7944933775e+00 4.9837325638e-04 1.5290582050e+00 -2.6484064987e+00 1.5290582050e+00 2.6484064987e+00 
35000 4.7944933695e+00 4.9101083265e-04 1.5290419083e+00 -2.6483782720e+00 1.5290419083e+00 2.6483782720e+00 
35100 4.7944933624e+00 4.8375552922e-04 1.5290258521e+00 -2.6483504620e+00 1.5290258521e+00 2.6483504620e+00 
35200 4.7944933559e+00 4.7660599775e-04 1.5290100331e+00 -2.6483230626e+00 1.5290100331e+00 2.6483230626e+00 
35300 4.7944933501e+00 4.6956089509e-04 1.5289944477e+00 -2.6482960678e+00 1.5289944477e+00 2.6482960678e+00 
35400 4.7944933449e+00 4.6261888374e-04 1.5289790925e+00 -2.6482694719e+00 1.5289790925e+00 2.6482694719e+00 
35500 4.7944933403e+00 4.5577863234e-04 1.5289639641e+00 -2.6482432688e+00 1.5289639641e+00 2.6482432688e+00 
35600 4.7944933363e+00 4.4903881608e-04 1.5289490593e+00 -2.6482174530e+00 1.5289490593e+00 2.6482174530e+00 
35700 4.7944933329e+00 4.4239811718e-04 1.5289343748e+00 -2.6481920186e+00 1.5289343748e+00 2.6481920186e+00 
35800 4.7944933300e+00 4.3585522526e-04 1.5289199073e+00 -2.6481669601e+00 1.5289199073e+00 2.6481669601e+00 
35900 4.7944933276e+00 4.2940883779e-04 1.5289056536e+00 -2.6481422720e+00 1.5289056536e+00 2.6481422720e+00 
36000 4.7944933257e+00 4.2305766042e-04 1.5288916106e+00 -2.6481179489e+00 1.5288916106e+00 2.6481179489e+00 
36100 4.7944933243e+00 4.1680040737e-04 1.5288777752e+00 -2.6480939852e+00 1.5288777752e+00 2.6480939852e+00 
36200 4.7944933233e+00 4.1063580177e-04 1.5288641443e+00 -2.6480703758e+00 1.5288641443e+00 2.6480703758e+00 
36300 4.7944933227e+00 4.0456257599e-04 1.5288507149e+00 -2.6480471154e+00 1.5288507149e+00 2.6480471154e+00 
36400 4.7944933226e+00 3.9857947194e-04 1.5288374840e+00 -2.6480241987e+00 1.5288374840e+00 2.6480241987e+00 
36500 4.7944933228e+00 3.9268524137e-04 1.5288244486e+00 -2.6480016208e+00 1.5288244486e+00 2.6480016208e+00 
36600 4.7944933234e+00 3.8687864616e-04 1.5288116059e+00 -2.6479793766e+00 1.5288116059e+00 2.6479793766e+00 
36700 4.7944933244e+00 3.8115845858e-04 1.5287989530e+00 -2.6479574612e+00 1.5287989530e+00 2.6479574612e+00 
36800 4.7944933256e+00 3.7552346150e-04 1.5287864871e+00 -2.6479358695e+00 1.5287864871e+00 2.6479358695e+00 
36900 4.7944933272e+00 3.6997244869e-04 1.5287742053e+00 -2.6479145970e+00 1.5287742053e+00 2.6479145970e+00 
37000 4.7944933291e+00 3.6450422496e-04 1.5287621051e+00 -2.6478936387e+00 1.5287621051e+00 2.6478936387e+00 
37100 4.7944933313e+00 3.5911760643e-04 1.5287501835e+00 -2.6478729899e+00 1.5287501835e+00 2.6478729899e+00 
37200 4.7944933338e+00 3.5381142064e-04 1.5287384381e+00 -2.6478526462e+00 1.5287384381e+00 2.6478526462e+00 
37300 4.7944933365e+00 3.4858450682e-04 1.5287268661e+00 -2.6478326030e+00 1.5287268661e+00 2.6478326030e+00 
37400 4.7944933395e+00 3.4343571594e-04 1.5287154650e+00 -2.6478128556e+00 1.5287154650e+00 2.6478128556e+00 
37500 4.7944933426e+00 3.3836391095e-04 1.5287042322e+00 -2.6477933998e+00 1.5287042322e+00 2.6477933998e+00 
37600 4.7944933461e+00 3.3336796684e-04 1.5286931652e+00 -2.6477742312e+00 1.5286931652e+00 2.6477742312e+00 
37700 4.7944933497e+00 3.2844677080e-04 1.5286822615e+00 -2.6477553455e+00 1.5286822615e+00 2.6477553455e+00 
37800 4.7944933535e+00 3.2359922232e-04 1.5286715187e+00 -2.6477367384e+00 1.5286715187e+00 2.6477367384e+00 
37900 4.7944933575e+00 3.1882423326e-04 1.5286609344e+00 -2.6477184059e+00 1.5286609344e+00 2.6477184059e+00 
38000 4.7944933616e+00 3.1412072796e-04 1.5286505062e+00 -2.6477003437e+00 1.5286505062e+00 2.6477003437e+00 
38100 4.7944933660e+00 3.0948764331e-04 1.5286402317e+00 -2.6476825478e+00 1.5286402317e+00 2.6476825478e+00 
38200 4.7944933704e+00 3.0492392879e-04 1.5286301088e+00 -2.6476650144e+00 1.5286301088e+00 2.6476650144e+00 
38300 4.7944933751e+00 3.0042854652e-04 1.5286201350e+00 -2.6476477393e+00 1.5286201350e+00 2.6476477393e+00 
38400 4.7944933798e+00 2.9600047133e-04 1.5286103082e+00 -2.6476307188e+00 1.5286103082e+00 2.6476307188e+00 
38500 4.7944933847e+00 2.9163869075e-04 1.5286006262e+00 -2.6476139491e+00 1.5286006262e+00 2.6476139491e+00 
38600 4.7944933897e+00 2.8734220504e-04 1.5285910868e+00 -2.6475974264e+00 1.5285910868e+00 2.6475974264e+00 
38700 4.7944933948e+00 2.8311002723e-04 1.5285816879e+00 -2.6475811470e+00 1.5285816879e+00 2.6475811470e+00 
38800 4.7944934000e+00 2.7894118307e-04 1.5285724274e+00 -2.6475651073e+00 1.5285724274e+00 2.6475651073e+00 
38900 4.7944934053e+00 2.7483471107e-04 1.5285633032e+00 -2.6475493037e+00 1.5285633032e+00 2.6475493037e+00 
39000 4.7944934107e+00 2.7078966245e-04 1.5285543132e+00 -2.6475337326e+00 1.5285543132e+00 2.6475337326e+00 
39100 4.7944934162e+00 2.6680510112e-04 1.5285454555e+00 -2.6475183906e+00 1.5285454555e+00 2.6475183906e+00 
39200 4.7944934217e+00 2.6288010367e-04 1.5285367281e+00 -2.6475032743e+00 1.5285367281e+00 2.6475032743e+00 
39300 4.7944934273e+00 2.5901375933e-04 1.5285281290e+00 -2.6474883803e+00 1.5285281290e+00 2.6474883803e+00 
39400 4.7944934329e+00 2.5520516988e-04 1.5285196564e+00 -2.6474737052e+00 1.5285196564e+00 2.6474737052e+00 
39500 4.7944934387e+00 2.5145344966e-04 1.5285113083e+00 -2.6474592459e+00 1.5285113083e+00 2.6474592459e+00 
39600 4.7944934444e+00 2.4775772547e-04 1.5285030828e+00 -2.6474449990e+00 1.5285030828e+00 2.6474449990e+00 
39700 4.7944934502e+00 2.4411713651e-04 1.5284949783e+00 -2.6474309615e+00 1.5284949783e+00 2.6474309615e+00 
39800 4.7944934561e+00 2.4053083433e-04 1.5284869927e+00 -2.6474171301e+00 1.5284869927e+00 2.6474171301e+00 
39900 4.7944934620e+00 2.3699798274e-04 1.5284791245e+00 -2.6474035019e+00 1.5284791245e+00 2.6474035019e+00 
40000 4.7944934679e+00 2.3351775772e-04 1.5284713717e+00 -2.6473900738e+00 1.5284713717e+00 2.6473900738e+00 
40100 4.7944934738e+00 2.3008934735e-04 1.5284637328e+00 -2.6473768428e+00 1.5284637328e+00 2.6473768428e+00 
40200 4.7944934797e+00 2.2671195172e-04 1.5284562060e+00 -2.6473638059e+00 1.5284562060e+00 2.6473638059e+00 
40300 4.7944934857e+00 2.2338478284e-04 1.5284487896e+00 -2.6473509604e+00 1.5284487896e+00 2.6473509604e+00 
40400 4.7944934917e+00 2.2010706451e-04 1.5284414821e+00 -2.6473383034e+00 1.5284414821e+00 2.6473383034e+00 
40500 4.7944934977e+00 2.1687803225e-04 1.5284342817e+00 -2.6473258319e+00 1.5284342817e+00 2.6473258319e+00 
40600 4.7944935037e+00 2.1369693318e-04 1.5284271869e+00 -2.6473135434e+00 1.5284271869e+00 2.6473135434e+00 
40700 4.7944935096e+00 2.1056302594e-04 1.5284201962e+00 -2.6473014351e+00 1.5284201962e+00 2.6473014351e+00 
40800 4.7944935156e+00 2.0747558051e-04 1.5284133079e+00 -2.6472895043e+00 1.5284133079e+00 2.6472895043e+00 
40900 4.7944935216e+00 2.0443387819e-04 1.5284065207e+00 -2.6472777484e+00 1.5284065207e+00 2.6472777484e+00 
41000 4.7944935276e+00 2.0143721138e-04 1.5283998329e+00 -2.6472661648e+00 1.5283998329e+00 2.6472661648e+00 
41100 4.7944935335e+00 1.9848488356e-04 1.5283932431e+00 -2.6472547509e+00 1.5283932431e+00 2.6472547509e+00 
41200 4.7944935395e+00 1.9557620908e-04 1.5283867498e+00 -2.6472435043e+00 1.5283867498e+00 2.6472435043e+00 
41300 4.7944935454e+00 1.9271051311e-04 1.5283803517e+00 -2.6472324224e+00 1.5283803517e+00 2.6472324224e+00 
41400 4.7944935513e+00 1.8988713144e-04 1.5283740473e+00 -2.6472215029e+00 1.5283740473e+00 2.6472215029e+00 
41500 4.7944935572e+00 1.8710541043e-04 1.5283678352e+00 -2.6472107433e+00 1.5283678352e+00 2.6472107433e+00 
41600 4.7944935631e+00 1.8436470682e-04 1.5283617141e+00 -2.6472001412e+00 1.5283617141e+00 2.6472001412e+00 
41700 4.7944935690e+00 1.8166438765e-04 1.5283556827e+00 -2.6471896945e+00 1.5283556827e+00 2.6471896945e+00 
41800 4.7944935748e+00 1.7900383007e-04 1.5283497396e+00 -2.6471794007e+00 1.5283497396e+00 2.6471794007e+00 
41900 4.7944935806e+00 1.7638242127e-04 1.5283438835e+00 -2.6471692576e+00 1.5283438835e+00 2.6471692576e+00 
42000 4.7944935863e+00 1.7379955829e-04 1.5283381131e+00 -2.6471592630e+00 1.5283381131e+00 2.6471592630e+00 
42100 4.7944935920e+00 1.7125464795e-04 1.5283324272e+00 -2.6471494147e+00 1.5283324272e+00 2.6471494147e+00 
42200 4.7944935977e+00 1.6874710666e-04 1.5283268245e+00 -2.6471397107e+00 1.5283268245e+00 2.6471397107e+00 
42300 4.7944936034e+00 1.6627636030e-04 1.5283213039e+00 -2.6471301486e+00 1.5283213039e+00 2.6471301486e+00 
42400 4.7944936090e+00 1.6384184411e-04 1.5283158641e+00 -2.6471207265e+00 1.5283158641e+00 2.6471207265e+00 
42500 4.7944936146e+00 1.6144300254e-04 1.5283105038e+00 -2.6471114424e+00 1.5283105038e+00 2.6471114424e+00 
42600 4.7944936202e+00 1.5907928909e-04 1.5283052221e+00 -2.6471022941e+00 1.5283052221e+00 2.6471022941e+00 
42700 4.7944936257e+00 1.5675016622e-04 1.5283000177e+00 -2.6470932798e+00 1.5283000177e+00 2.6470932798e+00 
42800 4.7944936311e+00 1.5445510521e-04 1.5282948894e+00 -2.6470843974e+00 1.5282948894e+00 2.6470843974e+00 
42900 4.7944936365e+00 1.5219358597e-04 1.5282898362e+00 -2.6470756451e+00 1.5282898362e+00 2.6470756451e+00 
43000 4.7944936419e+00 1.4996509700e-04 1.5282848570e+00 -2.6470670208e+00 1.5282848570e+00 2.6470670208e+00 
43100 4.7944936473e+00 1.4776913516e-04 1.5282799507e+00 -2.6470585228e+00 1.5282799507e+00 2.6470585228e+00 
43200 4.7944936526e+00 1.4560520562e-04 1.5282751162e+00 -2.6470501492e+00 1.5282751162e+00 2.6470501492e+00 
43300 4.7944936578e+00 1.4347282168e-04 1.5282703525e+00 -2.6470418983e+00 1.5282703525e+00 2.6470418983e+00 
43400 4.7944936630e+00 1.4137150465e-04 1.5282656586e+00 -2.6470337681e+00 1.5282656586e+00 2.6470337681e+00 
43500 4.7944936682e+00 1.3930078374e-04 1.5282610333e+00 -2.6470257570e+00 1.5282610333e+00 2.6470257570e+00 
43600 4.7944936733e+00 1.3726019589e-04 1.5282564758e+00 -2.6470178632e+00 1.5282564758e+00 2.6470178632e+00 
43700 4.7944936783e+00 1.3524928570e-04 1.5282519851e+00 -2.6470100850e+00 1.5282519851e+00 2.6470100850e+00 
43800 4.7944936833e+00 1.3326760525e-04 1.5282475601e+00 -2.6470024207e+00 1.5282475601e+00 2.6470024207e+00 
43900 4.7944936883e+00 1.3131471400e-04 1.5282432000e+00 -2.6469948687e+00 1.5282432000e+00 2.6469948687e+00 
44000 4.7944936932e+00 1.2939017867e-04 1.5282389037e+00 -2.6469874274e+00 1.5282389037e+00 2.6469874274e+00 
44100 4.7944936981e+00 1.2749357311e-04 1.5282346704e+00 -2.6469800951e+00 1.5282346704e+00 2.6469800951e+00 
44200 4.7944937029e+00 1.2562447816e-04 1.5282304992e+00 -2.6469728702e+00 1.5282304992e+00 2.6469728702e+00 
44300 4.7944937077e+00 1.2378248158e-04 1.5282263890e+00 -2.6469657513e+00 1.5282263890e+00 2.6469657513e+00 
44400 4.7944937124e+00 1.2196717786e-04 1.5282223392e+00 -2.6469587367e+00 1.5282223392e+00 2.6469587367e+00 
44500 4.7944937171e+00 1.2017816818e-04 1.5282183487e+00 -2.6469518249e+00 1.5282183487e+00 2.6469518249e+00 
44600 4.7944937217e+00 1.1841506023e-04 1.5282144167e+00 -2.6469450146e+00 1.5282144167e+00 2.6469450146e+00 
44700 4.7944937262e+00 1.1667746814e-04 1.5282105424e+00 -2.6469383041e+00 1.5282105424e+00 2.6469383041e+00 
44800 4.7944937308e+00 1.1496501233e-04 1.5282067250e+00 -2.6469316921e+00 1.5282067250e+00 2.6469316921e+00 
44900 4.7944937352e+00 1.1327731943e-04 1.5282029635e+00 -2.6469251771e+00 1.5282029635e+00 2.6469251771e+00 
45000 4.7944937397e+00 1.1161402215e-04 1.5281992573e+00 -2.6469187577e+00 1.5281992573e+00 2.6469187577e+00 
45100 4.7944937440e+00 1.0997475918e-04 1.5281956055e+00 -2.6469124326e+00 1.5281956055e+00 2.6469124326e+00 
45200 4.7944937483e+00 1.0835917507e-04 1.5281920073e+00 -2.6469062003e+00 1.5281920073e+00 2.6469062003e+00 
45300 4.7944937526e+00 1.0676692017e-04 1.5281884620e+00 -2.6469000596e+00 1.5281884620e+00 2.6469000596e+00 
45400 4.7944937568e+00 1.0519765044e-04 1.5281849687e+00 -2.6468940092e+00 1.5281849687e+00 2.6468940092e+00 
45500 4.7944937610e+00 1.0365102745e-04 1.5281815268e+00 -2.6468880476e+00 1.5281815268e+00 2.6468880476e+00 
45600 4.7944937651e+00 1.0212671819e-04 1.5281781355e+00 -2.6468821737e+00 1.5281781355e+00 2.6468821737e+00 
45700 4.7944937692e+00 1.0062439505e-04 1.5281747940e+00 -2.6468763861e+00 1.5281747940e+00 2.6468763861e+00 
45800 4.7944937732e+00 9.9143735631e-05 1.5281715017e+00 -2.6468706836e+00 1.5281715017e+00 2.6468706836e+00 
45900 4.7944937772e+00 9.7684422751e-05 1.5281682578e+00 -2.6468650651e+00 1.5281682578e+00 2.6468650651e+00 
46000 4.7944937811e+00 9.6246144271e-05 1.5281650617e+00 -2.6468595293e+00 1.5281650617e+00 2.6468595293e+00 
46100 4.7944937850e+00 9.4828593044e-05 1.5281619126e+00 -2.6468540749e+00 1.5281619126e+00 2.6468540749e+00 
46200 4.7944937888e+00 9.3431466808e-05 1.5281588099e+00 -2.6468487009e+00 1.5281588099e+00 2.6468487009e+00 
46300 4.7944937926e+00 9.2054468101e-05 1.5281557530e+00 -2.6468434060e+00 1.5281557530e+00 2.6468434060e+00 
46400 4.7944937963e+00 9.0697304176e-05 1.5281527410e+00 -2.6468381891e+00 1.5281527410e+00 2.6468381891e+00 
46500 4.7944938000e+00 8.9359686909e-05 1.5281497735e+00 -2.6468330492e+00 1.5281497735e+00 2.6468330492e+00 
46600 4.7944938036e+00 8.8041332718e-05 1.5281468497e+00 -2.6468279851e+00 1.5281468497e+00 2.6468279851e+00 
46700 4.7944938072e+00 8.6741962479e-05 1.5281439690e+00 -2.6468229956e+00 1.5281439690e+00 2.6468229956e+00 
46800 4.7944938108e+00 8.5461301444e-05 1.5281411309e+00 -2.6468180798e+00 1.5281411309e+00 2.6468180798e+00 
46900 4.7944938143e+00 8.4199079165e-05 1.5281383346e+00 -2.6468132366e+00 1.5281383346e+00 2.6468132366e+00 
47000 4.7944938177e+00 8.2955029407e-05 1.5281355797e+00 -2.6468084648e+00 1.5281355797e+00 2.6468084648e+00 
47100 4.7944938211e+00 8.1728890079e-05 1.5281328654e+00 -2.6468037636e+00 1.5281328654e+00 2.6468037636e+00 
47200 4.7944938245e+00 8.0520403156e-05 1.5281301913e+00 -2.6467991319e+00 1.5281301913e+00 2.6467991319e+00 
47300 4.7944938278e+00 7.9329314601e-05 1.5281275567e+00 -2.6467945686e+00 1.5281275567e+00 2.6467945686e+00 
47400 4.7944938310e+00 7.8155374301e-05 1.5281249610e+00 -2.6467900728e+00 1.5281249610e+00 2.6467900728e+00 
47500 4.7944938343e+00 7.6998335987e-05 1.5281224038e+00 -2.6467856436e+00 1.5281224038e+00 2.6467856436e+00 
47600 4.7944938375e+00 7.5857957166e-05 1.5281198844e+00 -2.6467812799e+00 1.5281198844e+00 2.6467812799e+00 
47700 4.7944938406e+00 7.4733999061e-05 1.5281174024e+00 -2.6467769808e+00 1.5281174024e+00 2.6467769808e+00 
47800 4.7944938437e+00 7.3626226534e-05 1.5281149571e+00 -2.6467727454e+00 1.5281149571e+00 2.6467727454e+00 
47900 4.7944938467e+00 7.2534408025e-05 1.5281125480e+00 -2.6467685728e+00 1.5281125480e+00 2.6467685728e+00 
48000 4.7944938498e+00 7.1458315483e-05 1.5281101747e+00 -2.6467644621e+00 1.5281101747e+00 2.6467644621e+00 
48100 4.7944938527e+00 7.0397724312e-05 1.5281078365e+00 -2.6467604123e+00 1.5281078365e+00 2.6467604123e+00 
48200 4.7944938559e+00 7.1021355237e-05 1.5281078365e+00 -2.6467604123e+00 1.5281078365e+00 2.6467604123e+00 
48300 4.7944938588e+00 6.9964314839e-05 1.5281055127e+00 -2.6467563873e+00 1.5281055127e+00 2.6467563873e+00 
48400 4.7944938618e+00 7.0580750338e-05 1.5281055127e+00 -2.6467563873e+00 1.5281055127e+00 2.6467563873e+00 
48500 4.7944938648e+00 7.1199792729e-05 1.5281055127e+00 -2.6467563873e+00 1.5281055127e+00 2.6467563873e+00 
48600 4.7944938676e+00 7.0133131835e-05 1.5281031830e+00 -2.6467523522e+00 1.5281031830e+00 2.6467523522e+00 
48700 4.7944938705e+00 7.0743319322e-05 1.5281031830e+00 -2.6467523522e+00 1.5281031830e+00 2.6467523522e+00 
48800 4.7944938731e+00 6.9678250574e-05 1.5281008683e+00 -2.6467483430e+00 1.5281008683e+00 2.6467483430e+00 
48900 4.7944938760e+00 7.0278906525e-05 1.5281008683e+00 -2.6467483430e+00 1.5281008683e+00 2.6467483430e+00 
49000 4.7944938788e+00 7.0881035268e-05 1.5281008683e+00 -2.6467483430e+00 1.5281008683e+00 2.6467483430e+00 
49100 4.7944938813e+00 6.9803957622e-05 1.5280985490e+00 -2.6467443259e+00 1.5280985490e+00 2.6467443259e+00 
49200 4.7944938840e+00 7.0395140831e-05 1.5280985490e+00 -2.6467443259e+00 1.5280985490e+00 2.6467443259e+00 
49300 4.7944938867e+00 7.0987139643e-05 1.5280985490e+00 -2.6467443259e+00 1.5280985490e+00 2.6467443259e+00 
49400 4.7944938891e+00 6.9896803354e-05 1.5280962263e+00 -2.6467403028e+00 1.5280962263e+00 2.6467403028e+00 
49500 4.7944938917e+00 7.0476595169e-05 1.5280962263e+00 -2.6467403028e+00 1.5280962263e+00 2.6467403028e+00 
49600 4.7944938943e+00 7.1056618004e-05 1.5280962263e+00 -2.6467403028e+00 1.5280962263e+00 2.6467403028e+00 
49700 4.7944938966e+00 6.9952115924e-05 1.5280939013e+00 -2.6467362758e+00 1.5280939013e+00 2.6467362758e+00 
49800 4.7944938991e+00 7.0518820582e-05 1.5280939013e+00 -2.6467362758e+00 1.5280939013e+00 2.6467362758e+00 
49900 4.7944939015e+00 7.1085242372e-05 1.5280939013e+00 -2.6467362758e+00 1.5280939013e+00 2.6467362758e+00 
50000 4.7944939037e+00 6.9965986513e-05 1.5280915754e+00 -2.6467322472e+00 1.5280915754e+00 2.6467322472e+00 
50100 4.7944939061e+00 7.0518125606e-05 1.5280915754e+00 -2.6467322472e+00 1.5280915754e+00 2.6467322472e+00 
50200 4.7944939084e+00 7.1069536152e-05 1.5280915754e+00 -2.6467322472e+00 1.5280915754e+00 2.6467322472e+00 
50300 4.7944939105e+00 6.9935233221e-05 1.5280892499e+00 -2.6467282194e+00 1.5280892499e+00 2.6467282194e+00 
50400 4.7944939128e+00 7.0471538390e-05 1.5280892499e+00 -2.6467282194e+00 1.5280892499e+00 2.6467282194e+00 
50500 4.7944939150e+00 7.1006734578e-05 1.5280892499e+00 -2.6467282194e+00 1.5280892499e+00 2.6467282194e+00 
50600 4.7944939170e+00 6.9857360867e-05 1.5280869266e+00 -2.6467241952e+00 1.5280869266e+00 2.6467241952e+00 
50700 4.7944939192e+00 7.0376765013e-05 1.5280869266e+00 -2.6467241952e+00 1.5280869266e+00 2.6467241952e+00 
50800 4.7944939213e+00 7.0894741636e-05 1.5280869266e+00 -2.6467241952e+00 1.5280869266e+00 2.6467241952e+00 
50900 4.7944939232e+00 6.9730517615e-05 1.5280846068e+00 -2.6467201773e+00 1.5280846068e+00 2.6467201773e+00 
51000 4.7944939253e+00 7.0232144900e-05 1.5280846068e+00 -2.6467201773e+00 1.5280846068e+00 2.6467201773e+00 
51100 4.7944939273e+00 7.0732084350e-05 1.5280846068e+00 -2.6467201773e+00 1.5280846068e+00 2.6467201773e+00 
51200 4.7944939291e+00 6.9553449325e-05 1.5280822924e+00 -2.6467161686e+00 1.5280822924e+00 2.6467161686e+00 
51300 4.7944939311e+00 7.0036604223e-05 1.5280822924e+00 -2.6467161686e+00 1.5280822924e+00 2.6467161686e+00 
51400 4.7944939330e+00 7.0517865318e-05 1.5280822924e+00 -2.6467161686e+00 1.5280822924e+00 2.6467161686e+00 
51500 4.7944939349e+00 7.0997055119e-05 1.5280822924e+00 -2.6467161686e+00 1.5280822924e+00 2.6467161686e+00 
51600 4.7944939366e+00 6.9791046381e-05 1.5280799694e+00 -2.6467121449e+00 1.5280799694e+00 2.6467121449e+00 
51700 4.7944939384e+00 7.0252708342e-05 1.5280799694e+00 -2.6467121449e+00 1.5280799694e+00 2.6467121449e+00 
51800 4.7944939403e+00 7.0712165254e-05 1.5280799694e+00 -2.6467121449e+00 1.5280799694e+00 2.6467121449e+00 
51900 4.7944939418e+00 6.9493068694e-05 1.5280776556e+00 -2.6467081374e+00 1.5280776556e+00 2.6467081374e+00 
52000 4.7944939436e+00 6.9934829654e-05 1.5280776556e+00 -2.6467081374e+00 1.5280776556e+00 2.6467081374e+00 
52100 4.7944939453e+00 7.0374297242e-05 1.5280776556e+00 -2.6467081374e+00 1.5280776556e+00 2.6467081374e+00 
52200 4.7944939471e+00 7.0811331321e-05 1.5280776556e+00 -2.6467081374e+00 1.5280776556e+00 2.6467081374e+00 
52300 4.7944939485e+00 6.9567266579e-05 1.5280753386e+00 -2.6467041242e+00 1.5280753386e+00 2.6467041242e+00 
52400 4.7944939502e+00 6.9986190202e-05 1.5280753386e+00 -2.6467041242e+00 1.5280753386e+00 2.6467041242e+00 
52500 4.7944939518e+00 7.0402651980e-05 1.5280753386e+00 -2.6467041242e+00 1.5280753386e+00 2.6467041242e+00 
52600 4.7944939534e+00 7.0816530573e-05 1.5280753386e+00 -2.6467041242e+00 1.5280753386e+00 2.6467041242e+00 
52700 4.7944939548e+00 6.9549067675e-05 1.5280730214e+00 -2.6467001108e+00 1.5280730214e+00 2.6467001108e+00 
52800 4.7944939564e+00 6.9944589794e-05 1.5280730214e+00 -2.6467001108e+00 1.5280730214e+00 2.6467001108e+00 
52900 4.7944939579e+00 7.0337553743e-05 1.5280730214e+00 -2.6467001108e+00 1.5280730214e+00 2.6467001108e+00 
53000 4.7944939594e+00 7.0727854930e-05 1.5280730214e+00 -2.6467001108e+00 1.5280730214e+00 2.6467001108e+00 
53100 4.7944939607e+00 6.9438863855e-05 1.5280707071e+00 -2.6466961023e+00 1.5280707071e+00 2.6466961023e+00 
53200 4.7944939621e+00 6.9810713658e-05 1.5280707071e+00 -2.6466961023e+00 1.5280707071e+00 2.6466961023e+00 
53300 4.7944939636e+00 7.0179972467e-05 1.5280707071e+00 -2.6466961023e+00 1.5280707071e+00 2.6466961023e+00 
53400 4.7944939650e+00 7.0546550418e-05 1.5280707071e+00 -2.6466961023e+00 1.5280707071e+00 2.6466961023e+00 
53500 4.7944939664e+00 7.0910361725e-05 1.5280707071e+00 -2.6466961023e+00 1.5280707071e+00 2.6466961023e+00 
53600 4.7944939675e+00 6.9590482069e-05 1.5280683869e+00 -2.6466920835e+00 1.5280683869e+00 2.6466920835e+00 
53700 4.7944939689e+00 6.9935655278e-05 1.5280683869e+00 -2.6466920835e+00 1.5280683869e+00 2.6466920835e+00 
53800 4.7944939702e+00 7.0278187671e-05 1.5280683869e+00 -2.6466920835e+00 1.5280683869e+00 2.6466920835e+00 
53900 4.7944939715e+00 7.0618005994e-05 1.5280683869e+00 -2.6466920835e+00 1.5280683869e+00 2.6466920835e+00 
54000 4.7944939728e+00 7.0955040532e-05 1.5280683869e+00 -2.6466920835e+00 1.5280683869e+00 2.6466920835e+00 
54100 4.7944939738e+00 6.9607334685e-05 1.5280660651e+00 -2.6466880622e+00 1.5280660651e+00 2.6466880622e+00 
54200 4.7944939751e+00 6.9925734771e-05 1.5280660651e+00 -2.6466880622e+00 1.5280660651e+00 2.6466880622e+00 
54300 4.7944939763e+00 7.0241522157e-05 1.5280660651e+00 -2.6466880622e+00 1.5280660651e+00 2.6466880622e+00 
54400 4.7944939775e+00 7.0554637546e-05 1.5280660651e+00 -2.6466880622e+00 1.5280660651e+00 2.6466880622e+00 
54500 4.7944939787e+00 7.0865024671e-05 1.5280660651e+00 -2.6466880622e+00 1.5280660651e+00 2.6466880622e+00 
54600 4.7944939796e+00 6.9492883188e-05 1.5280637464e+00 -2.6466840459e+00 1.5280637464e+00 2.6466840459e+00 
54700 4.7944939808e+00 6.9784801536e-05 1.5280637464e+00 -2.6466840459e+00 1.5280637464e+00 2.6466840459e+00 
54800 4.7944939819e+00 7.0074199584e-05 1.5280637464e+00 -2.6466840459e+00 1.5280637464e+00 2.6466840459e+00 
54900 4.7944939830e+00 7.0361029501e-05 1.5280637464e+00 -2.6466840459e+00 1.5280637464e+00 2.6466840459e+00 
55000 4.7944939841e+00 7.0645246007e-05 1.5280637464e+00 -2.6466840459e+00 1.5280637464e+00 2.6466840459e+00 
55100 4.7944939852e+00 7.0926806336e-05 1.5280637464e+00 -2.6466840459e+00 1.5280637464e+00 2.6466840459e+00 
55200 4.7944939860e+00 6.9524469576e-05 1.5280614256e+00 -2.6466800262e+00 1.5280614256e+00 2.6466800262e+00 
55300 4.7944939870e+00 6.9787732547e-05 1.5280614256e+00 -2.6466800262e+00 1.5280614256e+00 2.6466800262e+00 
55400 4.7944939880e+00 7.0048585108e-05 1.5280614256e+00 -2.6466800262e+00 1.5280614256e+00 2.6466800262e+00 
55500 4.7944939890e+00 7.0306990938e-05 1.5280614256e+00 -2.6466800262e+00 1.5280614256e+00 2.6466800262e+00 
55600 4.7944939900e+00 7.0562915789e-05 1.5280614256e+00 -2.6466800262e+00 1.5280614256e+00 2.6466800262e+00 
55700 4.7944939910e+00 7.0816327457e-05 1.5280614256e+00 -2.6466800262e+00 1.5280614256e+00 2.6466800262e+00 
55800 4.7944939917e+00 6.9388622833e-05 1.5280591084e+00 -2.6466760127e+00 1.5280591084e+00 2.6466760127e+00 
55900 4.7944939927e+00 6.9624073015e-05 1.5280591084e+00 -2.6466760127e+00 1.5280591084e+00 2.6466760127e+00 
56000 4.7944939936e+00 6.9857284170e-05 1.5280591084e+00 -2.6466760127e+00 1.5280591084e+00 2.6466760127e+00 
56100 4.7944939945e+00 7.0088228745e-05 1.5280591084e+00 -2.6466760127e+00 1.5280591084e+00 2.6466760127e+00 
56200 4.7944939954e+00 7.0316880831e-05 1.5280591084e+00 -2.6466760127e+00 1.5280591084e+00 2.6466760127e+00 
56300 4.7944939963e+00 7.0543216143e-05 1.5280591084e+00 -2.6466760127e+00 1.5280591084e+00 2.6466760127e+00 
56400 4.7944939972e+00 7.0767211997e-05 1.5280591084e+00 -2.6466760127e+00 1.5280591084e+00 2.6466760127e+00 
56500 4.7944939978e+00 6.9311448013e-05 1.5280567928e+00 -2.6466720019e+00 1.5280567928e+00 2.6466720019e+00 
56600 4.7944939986e+00 6.9517865594e-05 1.5280567928e+00 -2.6466720019e+00 1.5280567928e+00 2.6466720019e+00 
56700 4.7944939995e+00 6.9722243638e-05 1.5280567928e+00 -2.6466720019e+00 1.5280567928e+00 2.6466720019e+00 
56800 4.7944940003e+00 6.9924562438e-05 1.5280567928e+00 -2.6466720019e+00 1.5280567928e+00 2.6466720019e+00 
56900 4.7944940011e+00 7.0124803529e-05 1.5280567928e+00 -2.6466720019e+00 1.5280567928e+00 2.6466720019e+00 
57000 4.7944940018e+00 7.0322949683e-05 1.5280567928e+00 -2.6466720019e+00 1.5280567928e+00 2.6466720019e+00 
57100 4.7944940026e+00 7.0518984892e-05 1.5280567928e+00 -2.6466720019e+00 1.5280567928e+00 2.6466720019e+00 
57200 4.7944940034e+00 7.0712894354e-05 1.5280567928e+00 -2.6466720019e+00 1.5280567928e+00 2.6466720019e+00 
57300 4.7944940039e+00 6.9228561935e-05 1.5280544790e+00 -2.6466679943e+00 1.5280544790e+00 2.6466679943e+00 
57400 4.7944940046e+00 6.9405352512e-05 1.5280544790e+00 -2.6466679943e+00 1.5280544790e+00 2.6466679943e+00 
57500 4.7944940054e+00 6.9580338346e-05 1.5280544790e+00 -2.6466679943e+00 1.5280544790e+00 2.6466679943e+00 
57600 4.7944940061e+00 6.9753506111e-05 1.5280544790e+00 -2.6466679943e+00 1.5280544790e+00 2.6466679943e+00 
57700 4.7944940068e+00 6.9924843371e-05 1.5280544790e+00 -2.6466679943e+00 1.5280544790e+00 2.6466679943e+00 
57800 4.7944940075e+00 7.0094338575e-05 1.5280544790e+00 -2.6466679943e+00 1.5280544790e+00 2.6466679943e+00 
57900 4.7944940081e+00 7.0261981055e-05 1.5280544790e+00 -2.6466679943e+00 1.5280544790e+00 2.6466679943e+00 
58000 4.7944940088e+00 7.0427761018e-05 1.5280544790e+00 -2.6466679943e+00 1.5280544790e+00 2.6466679943e+00 
58100 4.7944940094e+00 7.0591669541e-05 1.5280544790e+00 -2.6466679943e+00 1.5280544790e+00 2.6466679943e+00 
58200 4.7944940101e+00 7.0753698566e-05 1.5280544790e+00 -2.6466679943e+00 1.5280544790e+00 2.6466679943e+00 
58300 4.7944940105e+00 6.9236781178e-05 1.5280521638e+00 -2.6466639843e+00 1.5280521638e+00 2.6466639843e+00 
58400 4.7944940111e+00 6.9382195301e-05 1.5280521638e+00 -2.6466639843e+00 1.5280521638e+00 2.6466639843e+00 
58500 4.7944940117e+00 6.9526069364e-05 1.5280521638e+00 -2.6466639843e+00 1.5280521638e+00 2.6466639843e+00 
58600 4.7944940123e+00 6.9668395467e-05 1.5280521638e+00 -2.6466639843e+00 1.5280521638e+00 2.6466639843e+00 
58700 4.7944940129e+00 6.9809166289e-05 1.5280521638e+00 -2.6466639843e+00 1.5280521638e+00 2.6466639843e+00 
58800 4.7944940135e+00 6.9948375092e-05 1.5280521638e+00 -2.6466639843e+00 1.5280521638e+00 2.6466639843e+00 
58900 4.7944940141e+00 7.0086015718e-05 1.5280521638e+00 -2.6466639843e+00 1.5280521638e+00 2.6466639843e+00 
59000 4.7944940147e+00 7.0222082595e-05 1.5280521638e+00 -2.6466639843e+00 1.5280521638e+00 2.6466639843e+00 
59100 4.7944940152e+00 7.0356570735e-05 1.5280521638e+00 -2.6466639843e+00 1.5280521638e+00 2.6466639843e+00 
59200 4.7944940158e+00 7.0489475734e-05 1.5280521638e+00 -2.6466639843e+00 1.5280521638e+00 2.6466639843e+00 
59300 4.7944940163e+00 7.0620793771e-05 1.5280521638e+00 -2.6466639843e+00 1.5280521638e+00 2.6466639843e+00 
59400 4.7944940168e+00 7.0750521608e-05 1.5280521638e+00 -2.6466639843e+00 1.5280521638e+00 2.6466639843e+00 
59500 4.7944940171e+00 6.9201681570e-05 1.5280498487e+00 -2.6466599745e+00 1.5280498487e+00 2.6466599745e+00 
59600 4.7944940176e+00 6.9315387065e-05 1.5280498487e+00 -2.6466599745e+00 1.5280498487e+00 2.6466599745e+00 
59700 4.7944940181e+00 6.9427854611e-05 1.5280498487e+00 -2.6466599745e+00 1.5280498487e+00 2.6466599745e+00 
59800 4.7944940186e+00 6.9539080054e-05 1.5280498487e+00 -2.6466599745e+00 1.5280498487e+00 2.6466599745e+00 
59900 4.7944940191e+00 6.9649059562e-05 1.5280498487e+00 -2.6466599745e+00 1.5280498487e+00 2.6466599745e+00 
60000 4.7944940196e+00 6.9757789637e-05 1.5280498487e+00 -2.6466599745e+00 1.5280498487e+00 2.6466599745e+00 
60100 4.7944940201e+00 6.9865267118e-05 1.5280498487e+00 -2.6466599745e+00 1.5280498487e+00 2.6466599745e+00 
60200 4.7944940205e+00 6.9971489186e-05 1.5280498487e+00 -2.6466599745e+00 1.5280498487e+00 2.6466599745e+00 
60300 4.7944940210e+00 7.0076453373e-05 1.5280498487e+00 -2.6466599745e+00 1.5280498487e+00 2.6466599745e+00 
60400 4.7944940214e+00 7.0180157565e-05 1.5280498487e+00 -2.6466599745e+00 1.5280498487e+00 2.6466599745e+00 
60500 4.7944940219e+00 7.0282600010e-05 1.5280498487e+00 -2.6466599745e+00 1.5280498487e+00 2.6466599745e+00 
60600 4.7944940223e+00 7.0383779313e-05 1.5280498487e+00 -2.6466599745e+00 1.5280498487e+00 2.6466599745e+00 
60700 4.7944940227e+00 7.0483694450e-05 1.5280498487e+00 -2.6466599745e+00 1.5280498487e+00 2.6466599745e+00 
60800 4.7944940231e+00 7.0582344762e-05 1.5280498487e+00 -2.6466599745e+00 1.5280498487e+00 2.6466599745e+00 
60900 4.7944940235e+00 7.0679729964e-05 1.5280498487e+00 -2.6466599745e+00 1.5280498487e+00 2.6466599745e+00 
61000 4.7944940240e+00 7.0775850138e-05 1.5280498487e+00 -2.6466599745e+00 1.5280498487e+00 2.6466599745e+00 
61100 4.7944940241e+00 6.9193139764e-05 1.5280475329e+00 -2.6466559633e+00 1.5280475329e+00 2.6466559633e+00 
61200 4.7944940245e+00 6.9273892523e-05 1.5280475329e+00 -2.6466559633e+00 1.5280475329e+00 2.6466559633e+00 
61300 4.7944940249e+00 6.9353741365e-05 1.5280475329e+00 -2.6466559633e+00 1.5280475329e+00 2.6466559633e+00 
61400 4.7944940253e+00 6.9432684642e-05 1.5280475329e+00 -2.6466559633e+00 1.5280475329e+00 2.6466559633e+00 
61500 4.7944940257e+00 6.9510720830e-05 1.5280475329e+00 -2.6466559633e+00 1.5280475329e+00 2.6466559633e+00 
61600 4.7944940260e+00 6.9587848547e-05 1.5280475329e+00 -2.6466559633e+00 1.5280475329e+00 2.6466559633e+00 
61700 4.7944940264e+00 6.9664066552e-05 1.5280475329e+00 -2.6466559633e+00 1.5280475329e+00 2.6466559633e+00 
61800 4.7944940267e+00 6.9739373764e-05 1.5280475329e+00 -2.6466559633e+00 1.5280475329e+00 2.6466559633e+00 
61900 4.7944940271e+00 6.9813769266e-05 1.5280475329e+00 -2.6466559633e+00 1.5280475329e+00 2.6466559633e+00 
62000 4.7944940274e+00 6.9887252313e-05 1.5280475329e+00 -2.6466559633e+00 1.5280475329e+00 2.6466559633e+00 
62100 4.7944940278e+00 6.9959822339e-05 1.5280475329e+00 -2.6466559633e+00 1.5280475329e+00 2.6466559633e+00 
62200 4.7944940281e+00 7.0031478970e-05 1.5280475329e+00 -2.6466559633e+00 1.5280475329e+00 2.6466559633e+00 
62300 4.7944940284e+00 7.0102222021e-05 1.5280475329e+00 -2.6466559633e+00 1.5280475329e+00 2.6466559633e+00 
62400 4.7944940288e+00 7.0172051511e-05 1.5280475329e+00 -2.6466559633e+00 1.5280475329e+00 2.6466559633e+00 
62500 4.7944940291e+00 7.0240967660e-05 1.5280475329e+00 -2.6466559633e+00 1.5280475329e+00 2.6466559633e+00 
62600 4.7944940294e+00 7.0308970902e-05 1.5280475329e+00 -2.6466559633e+00 1.5280475329e+00 2.6466559633e+00 
62700 4.7944940297e+00 7.0376061882e-05 1.5280475329e+00 -2.6466559633e+00 1.5280475329e+00 2.6466559633e+00 
62800 4.7944940300e+00 7.0442241464e-05 1.5280475329e+00 -2.6466559633e+00 1.5280475329e+00 2.6466559633e+00 
62900 4.7944940303e+00 7.0507510732e-05 1.5280475329e+00 -2.6466559633e+00 1.5280475329e+00 2.6466559633e+00 
63000 4.7944940306e+00 7.0571870992e-05 1.5280475329e+00 -2.6466559633e+00 1.5280475329e+00 2.6466559633e+00 
63100 4.7944940309e+00 7.0635323777e-05 1.5280475329e+00 -2.6466559633e+00 1.5280475329e+00 2.6466559633e+00 
63200 4.7944940312e+00 7.0697870846e-05 1.5280475329e+00 -2.6466559633e+00 1.5280475329e+00 2.6466559633e+00 
63300 4.7944940314e+00 7.0759514185e-05 1.5280475329e+00 -2.6466559633e+00 1.5280475329e+00 2.6466559633e+00 
63400 4.7944940315e+00 6.9143085758e-05 1.5280452175e+00 -2.6466519530e+00 1.5280452175e+00 2.6466519530e+00 
63500 4.7944940318e+00 6.9190092424e-05 1.5280452175e+00 -2.6466519530e+00 1.5280452175e+00 2.6466519530e+00 
63600 4.7944940320e+00 6.9236561222e-05 1.5280452175e+00 -2.6466519530e+00 1.5280452175e+00 2.6466519530e+00 
63700 4.7944940323e+00 6.9282491827e-05 1.5280452175e+00 -2.6466519530e+00 1.5280452175e+00 2.6466519530e+00 
63800 4.7944940325e+00 6.9327883896e-05 1.5280452175e+00 -2.6466519530e+00 1.5280452175e+00 2.6466519530e+00 
63900 4.7944940328e+00 6.9372737082e-05 1.5280452175e+00 -2.6466519530e+00 1.5280452175e+00 2.6466519530e+00 
64000 4.7944940330e+00 6.9417051041e-05 1.5280452175e+00 -2.6466519530e+00 1.5280452175e+00 2.6466519530e+00 
64100 4.7944940333e+00 6.9460825445e-05 1.5280452175e+00 -2.6466519530e+00 1.5280452175e+00 2.6466519530e+00 
64200 4.7944940335e+00 6.9504059986e-05 1.5280452175e+00 -2.6466519530e+00 1.5280452175e+00 2.6466519530e+00 
64300 4.7944940338e+00 6.9546754396e-05 1.5280452175e+00 -2.6466519530e+00 1.5280452175e+00 2.6466519530e+00 
64400 4.7944940340e+00 6.9588908443e-05 1.5280452175e+00 -2.6466519530e+00 1.5280452175e+00 2.6466519530e+00 
64500 4.7944940342e+00 6.9630521950e-05 1.5280452175e+00 -2.6466519530e+00 1.5280452175e+00 2.6466519530e+00 
64600 4.7944940344e+00 6.9671594795e-05 1.5280452175e+00 -2.6466519530e+00 1.5280452175e+00 2.6466519530e+00 
64700 4.7944940347e+00 6.9712126927e-05 1.5280452175e+00 -2.6466519530e+00 1.5280452175e+00 2.6466519530e+00 
64800 4.7944940349e+00 6.9752118365e-05 1.5280452175e+00 -2.6466519530e+00 1.5280452175e+00 2.6466519530e+00 
64900 4.7944940351e+00 6.9791569209e-05 1.5280452175e+00 -2.6466519530e+00 1.5280452175e+00 2.6466519530e+00 
65000 4.7944940353e+00 6.9830479644e-05 1.5280452175e+00 -2.6466519530e+00 1.5280452175e+00 2.6466519530e+00 
65100 4.7944940355e+00 6.9868849951e-05 1.5280452175e+00 -2.6466519530e+00 1.5280452175e+00 2.6466519530e+00 
65200 4.7944940357e+00 6.9906680503e-05 1.5280452175e+00 -2.6466519530e+00 1.5280452175e+00 2.6466519530e+00 
65300 4.7944940359e+00 6.9943971777e-05 1.5280452175e+00 -2.6466519530e+00 1.5280452175e+00 2.6466519530e+00 
65400 4.7944940361e+00 6.9980724359e-05 1.5280452175e+00 -2.6466519530e+00 1.5280452175e+00 2.6466519530e+00 
65500 4.7944940363e+00 7.0016938941e-05 1.5280452175e+00 -2.6466519530e+00 1.5280452175e+00 2.6466519530e+00 
65600 4.7944940365e+00 7.0052616331e-05 1.5280452175e+00 -2.6466519530e+00 1.5280452175e+00 2.6466519530e+00 
65700 4.7944940367e+00 7.0087757454e-05 1.5280452175e+00 -2.6466519530e+00 1.5280452175e+00 2.6466519530e+00 
65800 4.7944940369e+00 7.0122363352e-05 1.5280452175e+00 -2.6466519530e+00 1.5280452175e+00 2.6466519530e+00 
65900 4.7944940371e+00 7.0156435192e-05 1.5280452175e+00 -2.6466519530e+00 1.5280452175e+00 2.6466519530e+00 
66000 4.7944940372e+00 7.0189974262e-05 1.5280452175e+00 -2.6466519530e+00 1.5280452175e+00 2.6466519530e+00 
66100 4.7944940374e+00 7.0222981975e-05 1.5280452175e+00 -2.6466519530e+00 1.5280452175e+00 2.6466519530e+00 
66200 4.7944940376e+00 7.0255459872e-05 1.5280452175e+00 -2.6466519530e+00 1.5280452175e+00 2.6466519530e+00 
66300 4.7944940378e+00 7.0287409620e-05 1.5280452175e+00 -2.6466519530e+00 1.5280452175e+00 2.6466519530e+00 
66400 4.7944940379e+00 7.0318833013e-05 1.5280452175e+00 -2.6466519530e+00 1.5280452175e+00 2.6466519530e+00 
66500 4.7944940381e+00 7.0349731972e-05 1.5280452175e+00 -2.6466519530e+00 1.5280452175e+00 2.6466519530e+00 
66600 4.7944940383e+00 7.0380108545e-05 1.5280452175e+00 -2.6466519530e+00 1.5280452175e+00 2.6466519530e+00 
66700 4.7944940384e+00 7.0409964910e-05 1.5280452175e+00 -2.6466519530e+00 1.5280452175e+00 2.6466519530e+00 
66800 4.7944940386e+00 7.0439303367e-05 1.5280452175e+00 -2.6466519530e+00 1.5280452175e+00 2.6466519530e+00 
66900 4.7944940387e+00 7.0468126343e-05 1.5280452175e+00 -2.6466519530e+00 1.5280452175e+00 2.6466519530e+00 
67000 4.7944940389e+00 7.0496436389e-05 1.5280452175e+00 -2.6466519530e+00 1.5280452175e+00 2.6466519530e+00 
67100 4.7944940390e+00 7.0524236179e-05 1.5280452175e+00 -2.6466519530e+00 1.5280452175e+00 2.6466519530e+00 
67200 4.7944940392e+00 7.0551528506e-05 1.5280452175e+00 -2.6466519530e+00 1.5280452175e+00 2.6466519530e+00 
67300 4.7944940393e+00 7.0578316282e-05 1.5280452175e+00 -2.6466519530e+00 1.5280452175e+00 2.6466519530e+00 
67400 4.7944940395e+00 7.0604602538e-05 1.5280452175e+00 -2.6466519530e+00 1.5280452175e+00 2.6466519530e+00 
67500 4.7944940396e+00 7.0630390418e-05 1.5280452175e+00 -2.6466519530e+00 1.5280452175e+00 2.6466519530e+00 
67600 4.7944940398e+00 7.0655683177e-05 1.5280452175e+00 -2.6466519530e+00 1.5280452175e+00 2.6466519530e+00 
67700 4.7944940399e+00 7.0680484181e-05 1.5280452175e+00 -2.6466519530e+00 1.5280452175e+00 2.6466519530e+00 
67800 4.7944940400e+00 7.0704796903e-05 1.5280452175e+00 -2.6466519530e+00 1.5280452175e+00 2.6466519530e+00 
67900 4.7944940402e+00 7.0728624919e-05 1.5280452175e+00 -2.6466519530e+00 1.5280452175e+00 2.6466519530e+00 
68000 4.7944940401e+00 6.9075540581e-05 1.5280429032e+00 -2.6466479444e+00 1.5280429032e+00 2.6466479444e+00 
68100 4.7944940402e+00 6.9085579963e-05 1.5280429032e+00 -2.6466479444e+00 1.5280429032e+00 2.6466479444e+00 
68200 4.7944940403e+00 6.9095504339e-05 1.5280429032e+00 -2.6466479444e+00 1.5280429032e+00 2.6466479444e+00 
68300 4.7944940405e+00 6.9105314454e-05 1.5280429032e+00 -2.6466479444e+00 1.5280429032e+00 2.6466479444e+00 
68400 4.7944940406e+00 6.9115010899e-05 1.5280429032e+00 -2.6466479444e+00 1.5280429032e+00 2.6466479444e+00 
68500 4.7944940407e+00 6.9124594121e-05 1.5280429032e+00 -2.6466479444e+00 1.5280429032e+00 2.6466479444e+00 
68600 4.7944940408e+00 6.9134064432e-05 1.5280429032e+00 -2.6466479444e+00 1.5280429032e+00 2.6466479444e+00 
68700 4.7944940409e+00 6.9143422021e-05 1.5280429032e+00 -2.6466479444e+00 1.5280429032e+00 2.6466479444e+00 
68800 4.7944940411e+00 6.9152666956e-05 1.5280429032e+00 -2.6466479444e+00 1.5280429032e+00 2.6466479444e+00 
68900 4.7944940412e+00 6.9161799204e-05 1.5280429032e+00 -2.6466479444e+00 1.5280429032e+00 2.6466479444e+00 
69000 4.7944940413e+00 6.9170818627e-05 1.5280429032e+00 -2.6466479444e+00 1.5280429032e+00 2.6466479444e+00 
69100 4.7944940414e+00 6.9179725002e-05 1.5280429032e+00 -2.6466479444e+00 1.5280429032e+00 2.6466479444e+00 
69200 4.7944940415e+00 6.9188518020e-05 1.5280429032e+00 -2.6466479444e+00 1.5280429032e+00 2.6466479444e+00 
69300 4.7944940416e+00 6.9197197304e-05 1.5280429032e+00 -2.6466479444e+00 1.5280429032e+00 2.6466479444e+00 
69400 4.7944940417e+00 6.9205762406e-05 1.5280429032e+00 -2.6466479444e+00 1.5280429032e+00 2.6466479444e+00 
69500 4.7944940418e+00 6.9214212827e-05 1.5280429032e+00 -2.6466479444e+00 1.5280429032e+00 2.6466479444e+00 
69600 4.7944940419e+00 6.9222548011e-05 1.5280429032e+00 -2.6466479444e+00 1.5280429032e+00 2.6466479444e+00 
69700 4.7944940420e+00 6.9230767366e-05 1.5280429032e+00 -2.6466479444e+00 1.5280429032e+00 2.6466479444e+00 
69800 4.7944940421e+00 6.9238870261e-05 1.5280429032e+00 -2.6466479444e+00 1.5280429032e+00 2.6466479444e+00 
69900 4.7944940422e+00 6.9246856036e-05 1.5280429032e+00 -2.6466479444e+00 1.5280429032e+00 2.6466479444e+00 
70000 4.7944940423e+00 6.9254724010e-05 1.5280429032e+00 -2.6466479444e+00 1.5280429032e+00 2.6466479444e+00 
70100 4.7944940424e+00 6.9262473484e-05 1.5280429032e+00 -2.6466479444e+00 1.5280429032e+00 2.6466479444e+00 
70200 4.7944940425e+00 6.9270103751e-05 1.5280429032e+00 -2.6466479444e+00 1.5280429032e+00 2.6466479444e+00 
70300 4.7944940426e+00 6.9277614096e-05 1.5280429032e+00 -2.6466479444e+00 1.5280429032e+00 2.6466479444e+00 
70400 4.7944940427e+00 6.9285003807e-05 1.5280429032e+00 -2.6466479444e+00 1.5280429032e+00 2.6466479444e+00 
70500 4.7944940428e+00 6.9292272177e-05 1.5280429032e+00 -2.6466479444e+00 1.5280429032e+00 2.6466479444e+00 
70600 4.7944940429e+00 6.9299418507e-05 1.5280429032e+00 -2.6466479444e+00 1.5280429032e+00 2.6466479444e+00 
70700 4.7944940429e+00 6.9306442116e-05 1.5280429032e+00 -2.6466479444e+00 1.5280429032e+00 2.6466479444e+00 
70800 4.7944940430e+00 6.9313342338e-05 1.5280429032e+00 -2.6466479444e+00 1.5280429032e+00 2.6466479444e+00 
70900 4.7944940431e+00 6.9320118531e-05 1.5280429032e+00 -2.6466479444e+00 1.5280429032e+00 2.6466479444e+00 
71000 4.7944940432e+00 6.9326770080e-05 1.5280429032e+00 -2.6466479444e+00 1.5280429032e+00 2.6466479444e+00 
71100 4.7944940433e+00 6.9333296399e-05 1.5280429032e+00 -2.6466479444e+00 1.5280429032e+00 2.6466479444e+00 
71200 4.7944940434e+00 6.9339696933e-05 1.5280429032e+00 -2.6466479444e+00 1.5280429032e+00 2.6466479444e+00 
71300 4.7944940434e+00 6.9345971162e-05 1.5280429032e+00 -2.6466479444e+00 1.5280429032e+00 2.6466479444e+00 
71400 4.7944940435e+00 6.9352118607e-05 1.5280429032e+00 -2.6466479444e+00 1.5280429032e+00 2.6466479444e+00 
71500 4.7944940436e+00 6.9358138827e-05 1.5280429032e+00 -2.6466479444e+00 1.5280429032e+00 2.6466479444e+00 
71600 4.7944940437e+00 6.9364031423e-05 1.5280429032e+00 -2.6466479444e+00 1.5280429032e+00 2.6466479444e+00 
71700 4.7944940437e+00 6.9369796040e-05 1.5280429032e+00 -2.6466479444e+00 1.5280429032e+00 2.6466479444e+00 
71800 4.7944940438e+00 6.9375432369e-05 1.5280429032e+00 -2.6466479444e+00 1.5280429032e+00 2.6466479444e+00 
71900 4.7944940439e+00 6.9380940150e-05 1.5280429032e+00 -2.6466479444e+00 1.5280429032e+00 2.6466479444e+00 
72000 4.7944940439e+00 6.9386319169e-05 1.5280429032e+00 -2.6466479444e+00 1.5280429032e+00 2.6466479444e+00 
72100 4.7944940440e+00 6.9391569264e-05 1.5280429032e+00 -2.6466479444e+00 1.5280429032e+00 2.6466479444e+00 
72200 4.7944940441e+00 6.9396690322e-05 1.5280429032e+00 -2.6466479444e+00 1.5280429032e+00 2.6466479444e+00 
72300 4.7944940441e+00 6.9401682282e-05 1.5280429032e+00 -2.6466479444e+00 1.5280429032e+00 2.6466479444e+00 
72400 4.7944940442e+00 6.9406545133e-05 1.5280429032e+00 -2.6466479444e+00 1.5280429032e+00 2.6466479444e+00 
72500 4.7944940443e+00 6.9411278920e-05 1.5280429032e+00 -2.6466479444e+00 1.5280429032e+00 2.6466479444e+00 
72600 4.7944940443e+00 6.9415883736e-05 1.5280429032e+00 -2.6466479444e+00 1.5280429032e+00 2.6466479444e+00 
72700 4.7944940444e+00 6.9420359731e-05 1.5280429032e+00 -2.6466479444e+00 1.5280429032e+00 2.6466479444e+00 
72800 4.7944940445e+00 6.9424707105e-05 1.5280429032e+00 -2.6466479444e+00 1.5280429032e+00 2.6466479444e+00 
72900 4.7944940445e+00 6.9428926110e-05 1.5280429032e+00 -2.6466479444e+00 1.5280429032e+00 2.6466479444e+00 
73000 4.7944940446e+00 6.9433017052e-05 1.5280429032e+00 -2.6466479444e+00 1.5280429032e+00 2.6466479444e+00 
73100 4.7944940447e+00 6.9436980288e-05 1.5280429032e+00 -2.6466479444e+00 1.5280429032e+00 2.6466479444e+00 
73200 4.7944940447e+00 6.9440816227e-05 1.5280429032e+00 -2.6466479444e+00 1.5280429032e+00 2.6466479444e+00 
73300 4.7944940448e+00 6.9444525327e-05 1.5280429032e+00 -2.6466479444e+00 1.5280429032e+00 2.6466479444e+00 
73400 4.7944940448e+00 6.9448108099e-05 1.5280429032e+00 -2.6466479444e+00 1.5280429032e+00 2.6466479444e+00 
73500 4.7944940449e+00 6.9451565101e-05 1.5280429032e+00 -2.6466479444e+00 1.5280429032e+00 2.6466479444e+00 
73600 4.7944940449e+00 6.9454896940e-05 1.5280429032e+00 -2.6466479444e+00 1.5280429032e+00 2.6466479444e+00 
73700 4.7944940450e+00 6.9458104271e-05 1.5280429032e+00 -2.6466479444e+00 1.5280429032e+00 2.6466479444e+00 
73800 4.7944940450e+00 6.9461187796e-05 1.5280429032e+00 -2.6466479444e+00 1.5280429032e+00 2.6466479444e+00 
73900 4.7944940451e+00 6.9464148263e-05 1.5280429032e+00 -2.6466479444e+00 1.5280429032e+00 2.6466479444e+00 
74000 4.7944940451e+00 6.9466986463e-05 1.5280429032e+00 -2.6466479444e+00 1.5280429032e+00 2.6466479444e+00 
74100 4.7944940452e+00 6.9469703231e-05 1.5280429032e+00 -2.6466479444e+00 1.5280429032e+00 2.6466479444e+00 
74200 4.7944940452e+00 6.9472299446e-05 1.5280429032e+00 -2.6466479444e+00 1.5280429032e+00 2.6466479444e+00 
74300 4.7944940453e+00 6.9473453474e-05 1.5280429032e+00 -2.6466479444e+00 1.5280429032e+00 2.6466479444e+00 
74300 4.7944940453e+00 6.9473453474e-05 1.5280429032e+00 -2.6466479444e+00 1.5280429032e+00 2.6466479444e+00 
