# step Hamiltonian StressXX CellTensor1 CellTensor2 CellTensor3 CellTensor4 
0 6.9805746752e+00 -1.9551991438e-01 1.6087831444e+00 -2.7864941444e+00 1.6087831444e+00 2.7864941444e+00 
100 6.9701773057e+00 -1.9730151612e-01 1.6087831444e+00 -2.7864941444e+00 1.6087831444e+00 2.7864941444e+00 
200 6.9588414247e+00 -1.9289298134e-01 1.6149190359e+00 -2.7971218203e+00 1.6149190359e+00 2.7971218203e+00 
300 6.9481211172e+00 -1.8857479281e-01 1.6208949217e+00 -2.8074723581e+00 1.6208949217e+00 2.8074723581e+00 
400 6.9380091412e+00 -1.8435227921e-01 1.6267153848e+00 -2.8175536959e+00 1.6267153848e+00 2.8175536959e+00 
500 6.9284956741e+00 -1.8023036669e-01 1.6323850593e+00 -2.8273738602e+00 1.6323850593e+00 2.8273738602e+00 
600 6.9195684877e+00 -1.7621356748e-01 1.6379086215e+00 -2.8369409506e+00 1.6379086215e+00 2.8369409506e+00 
700 6.9112131361e+00 -1.7230597152e-01 1.6432907809e+00 -2.8462631241e+00 1.6432907809e+00 2.8462631241e+00 
800 6.9034131529e+00 -1.6851124112e-01 1.6485362707e+00 -2.8553485789e+00 1.6485362707e+00 2.8553485789e+00 
900 6.8961502561e+00 -1.6483260806e-01 1.6536498386e+00 -2.8642055384e+00 1.6536498386e+00 2.8642055384e+00 
1000 6.8894045572e+00 -1.6127287277e-01 1.6586362376e+00 -2.8728422348e+00 1.6586362376e+00 2.8728422348e+00 
1100 6.8831547732e+00 -1.5783440560e-01 1.6635002163e+00 -2.8812668930e+00 1.6635002163e+00 2.8812668930e+00 
1200 6.8773784377e+00 -1.5451914956e-01 1.6682465100e+00 -2.8894877148e+00 1.6682465100e+00 2.8894877148e+00 
1300 6.8720521116e+00 -1.5132862474e-01 1.6728798314e+00 -2.8975128629e+00 1.6728798314e+00 2.8975128629e+00 
1400 6.8671515882e+00 -1.4826393388e-01 1.6774048615e+00 -2.9053504449e+00 1.6774048615e+00 2.9053504449e+00 
1500 6.8626520940e+00 -1.4532576931e-01 1.6818262409e+00 -2.9130084988e+00 1.6818262409e+00 2.9130084988e+00 
1600 6.8585284821e+00 -1.4251442090e-01 1.6861485612e+00 -2.9204949770e+00 1.6861485612e+00 2.9204949770e+00 
1700 6.8547554169e+00 -1.3982978504e-01 1.6903763560e+00 -2.9278177325e+00 1.6903763560e+00 2.9278177325e+00 
1800 6.8513075499e+00 -1.3727137470e-01 1.6945140934e+00 -2.9349845039e+00 1.6945140934e+00 2.9349845039e+00 
1900 6.8481596845e+00 -1.3483833032e-01 1.6985661674e+00 -2.9420029020e+00 1.6985661674e+00 2.9420029020e+00 
2000 6.8452869300e+00 -1.3252943169e-01 1.7025368906e+00 -2.9488803964e+00 1.7025368906e+00 2.9488803964e+00 
2100 6.8426648435e+00 -1.3034311065e-01 1.7064304865e+00 -2.9556243022e+00 1.7064304865e+00 2.9556243022e+00 
2200 6.8402695598e+00 -1.2827746466e-01 1.7102510823e+00 -2.9622417682e+00 1.7102510823e+00 2.9622417682e+00 
2300 6.8380779082e+00 -1.2633027125e-01 1.7140027023e+00 -2.9687397647e+00 1.7140027023e+00 2.9687397647e+00 
2400 6.8360675175e+00 -1.2449900313e-01 1.7176892614e+00 -2.9751250723e+00 1.7176892614e+00 2.9751250723e+00 
2500 6.8342169073e+00 -1.2278084423e-01 1.7213145588e+00 -2.9814042716e+00 1.7213145588e+00 2.9814042716e+00 
2600 6.8325055675e+00 -1.2117270625e-01 1.7248822726e+00 -2.9875837333e+00 1.7248822726e+00 2.9875837333e+00 
2700 6.8309140248e+00 -1.1967124606e-01 1.7283959544e+00 -2.9936696086e+00 1.7283959544e+00 2.9936696086e+00 
2800 6.8294238976e+00 -1.1827288353e-01 1.7318590242e+00 -2.9996678214e+00 1.7318590242e+00 2.9996678214e+00 
2900 6.8280179389e+00 -1.1697382000e-01 1.7352747662e+00 -3.0055840602e+00 1.7352747662e+00 3.0055840602e+00 
3000 6.8266800684e+00 -1.1577005710e-01 1.7386463249e+00 -3.0114237711e+00 1.7386463249e+00 3.0114237711e+00 
3100 6.8253953933e+00 -1.1465741601e-01 1.7419767013e+00 -3.0171921522e+00 1.7419767013e+00 3.0171921522e+00 
3200 6.8241502201e+00 -1.1363155690e-01 1.7452687502e+00 -3.0228941482e+00 1.7452687502e+00 3.0228941482e+00 
3300 6.8229320560e+00 -1.1268799866e-01 1.7485251775e+00 -3.0285344458e+00 1.7485251775e+00 3.0285344458e+00 
3400 6.8217296022e+00 -1.1182213858e-01 1.7517485382e+00 -3.0341174703e+00 1.7517485382e+00 3.0341174703e+00 
3500 6.8205327391e+00 -1.1102927206e-01 1.7549412349e+00 -3.0396473831e+00 1.7549412349e+00 3.0396473831e+00 
3600 6.8193325042e+00 -1.1030461220e-01 1.7581055166e+00 -3.0451280798e+00 1.7581055166e+00 3.0451280798e+00 
3700 6.8181210636e+00 -1.0964330914e-01 1.7612434783e+00 -3.0505631889e+00 1.7612434783e+00 3.0505631889e+00 
3800 6.8168916771e+00 -1.0904046907e-01 1.7643570611e+00 -3.0559560725e+00 1.7643570611e+00 3.0559560725e+00 
3900 6.8156386590e+00 -1.0849117282e-01 1.7674480523e+00 -3.0613098263e+00 1.7674480523e+00 3.0613098263e+00 
4000 6.8143573339e+00 -1.0799049399e-01 1.7705180864e+00 -3.0666272814e+00 1.7705180864e+00 3.0666272814e+00 
4100 6.8130439888e+00 -1.0753351637e-01 1.7735686467e+00 -3.0719110068e+00 1.7735686467e+00 3.0719110068e+00 
4200 6.8116958227e+00 -1.0711535085e-01 1.7766010666e+00 -3.0771633122e+00 1.7766010666e+00 3.0771633122e+00 
4300 6.8103108926e+00 -1.0673115149e-01 1.7796165324e+00 -3.0823862520e+00 1.7796165324e+00 3.0823862520e+00 
4400 6.8088880588e+00 -1.0637613081e-01 1.7826160852e+00 -3.0875816299e+00 1.7826160852e+00 3.0875816299e+00 
4500 6.8074269278e+00 -1.0604557431e-01 1.7856006245e+00 -3.0927510037e+00 1.7856006245e+00 3.0927510037e+00 
4600 6.8059277955e+00 -1.0573485400e-01 1.7885709113e+00 -3.0978956912e+00 1.7885709113e+00 3.0978956912e+00 
4700 6.8043915884e+00 -1.0543944111e-01 1.7915275715e+00 -3.1030167770e+00 1.7915275715e+00 3.1030167770e+00 
4800 6.8028198071e+00 -1.0515491785e-01 1.7944711003e+00 -3.1081151184e+00 1.7944711003e+00 3.1081151184e+00 
4900 6.8012144679e+00 -1.0487698815e-01 1.7974018660e+00 -3.1131913535e+00 1.7974018660e+00 3.1131913535e+00 
5000 6.7995780470e+00 -1.0460148751e-01 1.8003201147e+00 -3.1182459085e+00 1.8003201147e+00 3.1182459085e+00 
5100 6.7979134252e+00 -1.0432439190e-01 1.8032259749e+00 -3.1232790061e+00 1.8032259749e+00 3.1232790061e+00 
5200 6.7962238335e+00 -1.0404182566e-01 1.8061194625e+00 -3.1282906737e+00 1.8061194625e+00 3.1282906737e+00 
5300 6.7945128015e+00 -1.0375006850e-01 1.8090004856e+00 -3.1332807519e+00 1.8090004856e+00 3.1332807519e+00 
5400 6.7927841067e+00 -1.0344556160e-01 1.8118688495e+00 -3.1382489040e+00 1.8118688495e+00 3.1382489040e+00 
5500 6.7910417262e+00 -1.0312491278e-01 1.8147242627e+00 -3.1431946246e+00 1.8147242627e+00 3.1431946246e+00 
5600 6.7892897909e+00 -1.0278490090e-01 1.8175663413e+00 -3.1481172493e+00 1.8175663413e+00 3.1481172493e+00 
5700 6.7875325413e+00 -1.0242247934e-01 1.8203946152e+00 -3.1530159634e+00 1.8203946152e+00 3.1530159634e+00 
5800 6.7857742866e+00 -1.0203477878e-01 1.8232085331e+00 -3.1578898121e+00 1.8232085331e+00 3.1578898121e+00 
5900 6.7840193656e+00 -1.0161910920e-01 1.8260074680e+00 -3.1627377095e+00 1.8260074680e+00 3.1627377095e+00 
6000 6.7822721104e+00 -1.0117296122e-01 1.8287907227e+00 -3.1675584481e+00 1.8287907227e+00 3.1675584481e+00 
6100 6.7805368125e+00 -1.0069400673e-01 1.8315575354e+00 -3.1723507083e+00 1.8315575354e+00 3.1723507083e+00 
6200 6.7788176920e+00 -1.0018009899e-01 1.8343070847e+00 -3.1771130674e+00 1.8343070847e+00 3.1771130674e+00 
6300 6.7771188683e+00 -9.9629272137e-02 1.8370384954e+00 -3.1818440095e+00 1.8370384954e+00 3.1818440095e+00 
6400 6.7754443344e+00 -9.9039740140e-02 1.8397508432e+00 -3.1865419337e+00 1.8397508432e+00 3.1865419337e+00 
6500 6.7737979332e+00 -9.8409895356e-02 1.8424431603e+00 -3.1912051638e+00 1.8424431603e+00 3.1912051638e+00 
6600 6.7721833362e+00 -9.7738306617e-02 1.8451144404e+00 -3.1958319566e+00 1.8451144404e+00 3.1958319566e+00 
6700 6.7706040246e+00 -9.7023716949e-02 1.8477636435e+00 -3.2004205109e+00 1.8477636435e+00 3.2004205109e+00 
6800 6.7690632730e+00 -9.6265040947e-02 1.8503897007e+00 -3.2049689754e+00 1.8503897007e+00 3.2049689754e+00 
6900 6.7675641348e+00 -9.5461361851e-02 1.8529915192e+00 -3.2094754573e+00 1.8529915192e+00 3.2094754573e+00 
7000 6.7661094306e+00 -9.4611928358e-02 1.8555679867e+00 -3.2139380299e+00 1.8555679867e+00 3.2139380299e+00 
7100 6.7647017379e+00 -9.3716151200e-02 1.8581179758e+00 -3.2183547406e+00 1.8581179758e+00 3.2183547406e+00 
7200 6.7633433829e+00 -9.2773599530e-02 1.8606403485e+00 -3.2227236183e+00 1.8606403485e+00 3.2227236183e+00 
7300 6.7620364348e+00 -9.1783997137e-02 1.8631339602e+00 -3.2270426803e+00 1.8631339602e+00 3.2270426803e+00 
7400 6.7607827015e+00 -9.0747218527e-02 1.8655976637e+00 -3.2313099400e+00 1.8655976637e+00 3.2313099400e+00 
7500 6.7595837267e+00 -8.9663284879e-02 1.8680303134e+00 -3.2355234128e+00 1.8680303134e+00 3.2355234128e+00 
7600 6.7584407894e+00 -8.8532359917e-02 1.8704307685e+00 -3.2396811231e+00 1.8704307685e+00 3.2396811231e+00 
7700 6.7573549045e+00 -8.7354745706e-02 1.8727978972e+00 -3.2437811102e+00 1.8727978972e+00 3.2437811102e+00 
7800 6.7563268248e+00 -8.6130878385e-02 1.8751305796e+00 -3.2478214347e+00 1.8751305796e+00 3.2478214347e+00 
7900 6.7553570445e+00 -8.4861323871e-02 1.8774277113e+00 -3.2518001835e+00 1.8774277113e+00 3.2518001835e+00 
8000 6.7544458041e+00 -8.3546773515e-02 1.8796882066e+00 -3.2557154762e+00 1.8796882066e+00 3.2557154762e+00 
8100 6.7535930964e+00 -8.2188039755e-02 1.8819110012e+00 -3.2595654694e+00 1.8819110012e+00 3.2595654694e+00 
8200 6.7527986731e+00 -8.0786051741e-02 1.8840950555e+00 -3.2633483624e+00 1.8840950555e+00 3.2633483624e+00 
8300 6.7520620537e+00 -7.9341850963e-02 1.8862393569e+00 -3.2670624015e+00 1.8862393569e+00 3.2670624015e+00 
8400 6.7513825339e+00 -7.7856586864e-02 1.8883429229e+00 -3.2707058846e+00 1.8883429229e+00 3.2707058846e+00 
8500 6.7507591957e+00 -7.6331512455e-02 1.8904048031e+00 -3.2742771659e+00 1.8904048031e+00 3.2742771659e+00 
8600 6.7501909181e+00 -7.4767979928e-02 1.8924240819e+00 -3.2777746593e+00 1.8924240819e+00 3.2777746593e+00 
8700 6.7496763883e+00 -7.3167436259e-02 1.8943998804e+00 -3.2811968427e+00 1.8943998804e+00 3.2811968427e+00 
8800 6.7492141139e+00 -7.1531418803e-02 1.8963313590e+00 -3.2845422617e+00 1.8963313590e+00 3.2845422617e+00 
8900 6.7488024353e+00 -6.9861550881e-02 1.8982177187e+00 -3.2878095327e+00 1.8982177187e+00 3.2878095327e+00 
9000 6.7484395387e+00 -6.8159537341e-02 1.9000582038e+00 -3.2909973463e+00 1.9000582038e+00 3.2909973463e+00 
9100 6.7481234697e+00 -6.6427160105e-02 1.9018521028e+00 -3.2941044706e+00 1.9018521028e+00 3.2941044706e+00 
9200 6.7478521464e+00 -6.4666273678e-02 1.9035987507e+00 -3.2971297534e+00 1.9035987507e+00 3.2971297534e+00 
9300 6.7476233744e+00 -6.2878800627e-02 1.9052975299e+00 -3.3000721254e+00 1.9052975299e+00 3.3000721254e+00 
9400 6.7474348598e+00 -6.1066727012e-02 1.9069478724e+00 -3.3029306024e+00 1.9069478724e+00 3.3029306024e+00 
9500 6.7472842245e+00 -5.9232097771e-02 1.9085492603e+00 -3.3057042876e+00 1.9085492603e+00 3.3057042876e+00 
9600 6.7471690198e+00 -5.7377012045e-02 1.9101012275e+00 -3.3083923737e+00 1.9101012275e+00 3.3083923737e+00 
9700 6.7470867413e+00 -5.5503618447e-02 1.9116033606e+00 -3.3109941445e+00 1.9116033606e+00 3.3109941445e+00 
9800 6.7470348427e+00 -5.3614110258e-02 1.9130552999e+00 -3.3135089771e+00 1.9130552999e+00 3.3135089771e+00 
9900 6.7470107499e+00 -5.1710720557e-02 1.9144567400e+00 -3.3159363426e+00 1.9144567400e+00 3.3159363426e+00 
10000 6.7470118753e+00 -4.9795717271e-02 1.9158074312e+00 -3.3182758083e+00 1.9158074312e+00 3.3182758083e+00 
10100 6.7470356310e+00 -4.7871398160e-02 1.9171071793e+00 -3.3205270382e+00 1.9171071793e+00 3.3205270382e+00 
10200 6.7470794423e+00 -4.5940085709e-02 1.9183558469e+00 -3.3226897938e+00 1.9183558469e+00 3.3226897938e+00 
10300 6.7471407606e+00 -4.4004121964e-02 1.9195533531e+00 -3.3247639355e+00 1.9195533531e+00 3.3247639355e+00 
10400 6.7472170756e+00 -4.2065863279e-02 1.9206996745e+00 -3.3267494222e+00 1.9206996745e+00 3.3267494222e+00 
10500 6.7473059278e+00 -4.0127675004e-02 1.9217948446e+00 -3.3286463126e+00 1.9217948446e+00 3.3286463126e+00 
10600 6.7474049193e+00 -3.8191926114e-02 1.9228389546e+00 -3.3304547642e+00 1.9228389546e+00 3.3304547642e+00 
10700 6.7475117249e+00 -3.6260983771e-02 1.9238321531e+00 -3.3321750343e+00 1.9238321531e+00 3.3321750343e+00 
10800 6.7476241022e+00 -3.4337207862e-02 1.9247746454e+00 -3.3338074790e+00 1.9247746454e+00 3.3338074790e+00 
10900 6.7477399013e+00 -3.2422945490e-02 1.9256666942e+00 -3.3353525529e+00 1.9256666942e+00 3.3353525529e+00 
11000 6.7478570729e+00 -3.0520525457e-02 1.9265086184e+00 -3.3368108083e+00 1.9265086184e+00 3.3368108083e+00 
11100 6.7479736769e+00 -2.8632252739e-02 1.9273007928e+00 -3.3381828946e+00 1.9273007928e+00 3.3381828946e+00 
11200 6.7480878892e+00 -2.6760402985e-02 1.9280436476e+00 -3.3394695568e+00 1.9280436476e+00 3.3394695568e+00 
11300 6.7481980078e+00 -2.4907217044e-02 1.9287376673e+00 -3.3406716343e+00 1.9287376673e+00 3.3406716343e+00 
11400 6.7483024588e+00 -2.3074895547e-02 1.9293833904e+00 -3.3417900594e+00 1.9293833904e+00 3.3417900594e+00 
11500 6.7483998003e+00 -2.1265593572e-02 1.9299814075e+00 -3.3428258555e+00 1.9299814075e+00 3.3428258555e+00 
11600 6.7484887265e+00 -1.9481415400e-02 1.9305323611e+00 -3.3437801351e+00 1.9305323611e+00 3.3437801351e+00 
11700 6.7485680701e+00 -1.7724409401e-02 1.9310369438e+00 -3.3446540980e+00 1.9310369438e+00 3.3446540980e+00 
11800 6.7486368043e+00 -1.5996563058e-02 1.9314958970e+00 -3.3454490282e+00 1.9314958970e+00 3.3454490282e+00 
11900 6.7486940438e+00 -1.4299798171e-02 1.9319100096e+00 -3.3461662922e+00 1.9319100096e+00 3.3461662922e+00 
12000 6.7487390445e+00 -1.2635966245e-02 1.9322801162e+00 -3.3468073357e+00 1.9322801162e+00 3.3468073357e+00 
12100 6.7487712029e+00 -1.1006844102e-02 1.9326070958e+00 -3.3473736810e+00 1.9326070958e+00 3.3473736810e+00 
12200 6.7487900541e+00 -9.4141297301e-03 1.9328918695e+00 -3.3478669235e+00 1.9328918695e+00 3.3478669235e+00 
12300 6.7487952695e+00 -7.8594384004e-03 1.9331353991e+00 -3.3482887292e+00 1.9331353991e+00 3.3482887292e+00 
12400 6.7487866530e+00 -6.3442990587e-03 1.9333386848e+00 -3.3486408303e+00 1.9333386848e+00 3.3486408303e+00 
12500 6.7487641373e+00 -4.8701510264e-03 1.9335027634e+00 -3.3489250227e+00 1.9335027634e+00 3.3489250227e+00 
12600 6.7487277785e+00 -3.4383410184e-03 1.9336287059e+00 -3.3491431616e+00 1.9336287059e+00 3.3491431616e+00 
12700 6.7486777508e+00 -2.0501204965e-03 1.9337176156e+00 -3.3492971577e+00 1.9337176156e+00 3.3492971577e+00 
12800 6.7486143403e+00 -7.0664337152e-04 1.9337706257e+00 -3.3493889738e+00 1.9337706257e+00 3.3493889738e+00 
12900 6.7485379381e+00 5.9103593543e-04 1.9337888968e+00 -3.3494206204e+00 1.9337888968e+00 3.3494206204e+00 
13000 6.7484490330e+00 1.8419640644e-03 1.9337736150e+00 -3.3493941516e+00 1.9337736150e+00 3.3493941516e+00 
13100 6.7483482037e+00 3.0452899145e-03 1.9337259891e+00 -3.3493116610e+00 1.9337259891e+00 3.3493116610e+00 
13200 6.7482361109e+00 4.2002654661e-03 1.9336472481e+00 -3.3491752776e+00 1.9336472481e+00 3.3491752776e+00 
13300 6.7481134886e+00 5.3062462265e-03 1.9335386392e+00 -3.3489871615e+00 1.9335386392e+00 3.3489871615e+00 
13400 6.7479811357e+00 6.3626913020e-03 1.9334014249e+00 -3.3487494993e+00 1.9334014249e+00 3.3487494993e+00 
13500 6.7478399070e+00 7.3691631020e-03 1.9332368807e+00 -3.3484645004e+00 1.9332368807e+00 3.3484645004e+00 
13600 6.7476907040e+00 8.3253266821e-03 1.9330462925e+00 -3.3481343919e+00 1.9330462925e+00 3.3481343919e+00 
13700 6.7475344666e+00 9.2309487378e-03 1.9328309543e+00 -3.3477614153e+00 1.9328309543e+00 3.3477614153e+00 
13800 6.7473721637e+00 1.0085896260e-02 1.9325921658e+00 -3.3473478214e+00 1.9325921658e+00 3.3473478214e+00 
13900 6.7472047843e+00 1.0890134871e-02 1.9323312295e+00 -3.3468958665e+00 1.9323312295e+00 3.3468958665e+00 
14000 6.7470333294e+00 1.1643726849e-02 1.9320494488e+00 -3.3464078081e+00 1.9320494488e+00 3.3464078081e+00 
14100 6.7468588032e+00 1.2346828873e-02 1.9317481257e+00 -3.3458859011e+00 1.9317481257e+00 3.3458859011e+00 
14200 6.7466822052e+00 1.2999689497e-02 1.9314285579e+00 -3.3453323935e+00 1.9314285579e+00 3.3453323935e+00 
14300 6.7465045222e+00 1.3602646381e-02 1.9310920373e+00 -3.3447495227e+00 1.9310920373e+00 3.3447495227e+00 
14400 6.7463267216e+00 1.4156123296e-02 1.9307398471e+00 -3.3441395114e+00 1.9307398471e+00 3.3441395114e+00 
14500 6.7461497437e+00 1.4660626932e-02 1.9303732603e+00 -3.3435045644e+00 1.9303732603e+00 3.3435045644e+00 
14600 6.7459744961e+00 1.5116743530e-02 1.9299935372e+00 -3.3428468647e+00 1.9299935372e+00 3.3428468647e+00 
14700 6.7458018473e+00 1.5525135357e-02 1.9296019237e+00 -3.3421685701e+00 1.9296019237e+00 3.3421685701e+00 
14800 6.7456326218e+00 1.5886537062e-02 1.9291996491e+00 -3.3414718101e+00 1.9291996491e+00 3.3414718101e+00 
14900 6.7454675948e+00 1.6201751913e-02 1.9287879247e+00 -3.3407586825e+00 1.9287879247e+00 3.3407586825e+00 
15000 6.7453074887e+00 1.6471647960e-02 1.9283679416e+00 -3.3400312506e+00 1.9283679416e+00 3.3400312506e+00 
15100 6.7451529693e+00 1.6697154139e-02 1.9279408696e+00 -3.3392915402e+00 1.9279408696e+00 3.3392915402e+00 
15200 6.7450046425e+00 1.6879256328e-02 1.9275078551e+00 -3.3385415370e+00 1.9275078551e+00 3.3385415370e+00 
15300 6.7448630527e+00 1.7018993388e-02 1.9270700198e+00 -3.3377831841e+00 1.9270700198e+00 3.3377831841e+00 
15400 6.7447286804e+00 1.7117453209e-02 1.9266284598e+00 -3.3370183796e+00 1.9266284598e+00 3.3370183796e+00 
15500 6.7446019414e+00 1.7175768764e-02 1.9261842435e+00 -3.3362489744e+00 1.9261842435e+00 3.3362489744e+00 
15600 6.7444831861e+00 1.7195114202e-02 1.9257384111e+00 -3.3354767701e+00 1.9257384111e+00 3.3354767701e+00 
15700 6.7443726996e+00 1.7176700988e-02 1.9252919733e+00 -3.3347035171e+00 1.9252919733e+00 3.3347035171e+00 
15800 6.7442707020e+00 1.7121774104e-02 1.9248459101e+00 -3.3339309130e+00 1.9248459101e+00 3.3339309130e+00 
15900 6.7441773495e+00 1.7031608327e-02 1.9244011702e+00 -3.3331606009e+00 1.9244011702e+00 3.3331606009e+00 
16000 6.7440927361e+00 1.6907504589e-02 1.9239586701e+00 -3.3323941682e+00 1.9239586701e+00 3.3323941682e+00 
16100 6.7440168950e+00 1.6750786427e-02 1.9235192931e+00 -3.3316331451e+00 1.9235192931e+00 3.3316331451e+00 
16200 6.7439498014e+00 1.6562796539e-02 1.9230838893e+00 -3.3308790035e+00 1.9230838893e+00 3.3308790035e+00 
16300 6.7438913748e+00 1.6344893448e-02 1.9226532742e+00 -3.3301331563e+00 1.9226532742e+00 3.3301331563e+00 
16400 6.7438414822e+00 1.6098448271e-02 1.9222282290e+00 -3.3293969564e+00 1.9222282290e+00 3.3293969564e+00 
16500 6.7437999412e+00 1.5824841610e-02 1.9218094998e+00 -3.3286716960e+00 1.9218094998e+00 3.3286716960e+00 
16600 6.7437665236e+00 1.5525460563e-02 1.9213977972e+00 -3.3279586064e+00 1.9213977972e+00 3.3279586064e+00 
16700 6.7437409591e+00 1.5201695848e-02 1.9209937967e+00 -3.3272588568e+00 1.9209937967e+00 3.3272588568e+00 
16800 6.7437229388e+00 1.4854939057e-02 1.9205981375e+00 -3.3265735552e+00 1.9205981375e+00 3.3265735552e+00 
16900 6.7437121199e+00 1.4486580023e-02 1.9202114236e+00 -3.3259037470e+00 1.9202114236e+00 3.3259037470e+00 
17000 6.7437081289e+00 1.4098004316e-02 1.9198342228e+00 -3.3252504161e+00 1.9198342228e+00 3.3252504161e+00 
17100 6.7437105662e+00 1.3690590851e-02 1.9194670673e+00 -3.3246144840e+00 1.9194670673e+00 3.3246144840e+00 
17200 6.7437190102e+00 1.3265709616e-02 1.9191104536e+00 -3.3239968109e+00 1.9191104536e+00 3.3239968109e+00 
17300 6.7437330208e+00 1.2824719518e-02 1.9187648426e+00 -3.3233981952e+00 1.9187648426e+00 3.3233981952e+00 
17400 6.7437521441e+00 1.2368966335e-02 1.9184306603e+00 -3.3228193744e+00 1.9184306603e+00 3.3228193744e+00 
17500 6.7437759160e+00 1.1899780786e-02 1.9181082973e+00 -3.3222610253e+00 1.9181082973e+00 3.3222610253e+00 
17600 6.7438038658e+00 1.1418476697e-02 1.9177981099e+00 -3.3217237650e+00 1.9177981099e+00 3.3217237650e+00 
17700 6.7438355201e+00 1.0926349282e-02 1.9175004201e+00 -3.3212081511e+00 1.9175004201e+00 3.3212081511e+00 
17800 6.7438704061e+00 1.0424673517e-02 1.9172155158e+00 -3.3207146825e+00 1.9172155158e+00 3.3207146825e+00 
17900 6.7439080552e+00 9.9147026078e-03 1.9169436521e+00 -3.3202438007e+00 1.9169436521e+00 3.3202438007e+00 
18000 6.7439480056e+00 9.3976665639e-03 1.9166850509e+00 -3.3197958903e+00 1.9166850509e+00 3.3197958903e+00 
18100 6.7439898057e+00 8.8747708490e-03 1.9164399019e+00 -3.3193712798e+00 1.9164399019e+00 3.3193712798e+00 
18200 6.7440330164e+00 8.3471951276e-03 1.9162083635e+00 -3.3189702434e+00 1.9162083635e+00 3.3189702434e+00 
18300 6.7440772137e+00 7.8160920928e-03 1.9159905626e+00 -3.3185930012e+00 1.9159905626e+00 3.3185930012e+00 
18400 6.7441219909e+00 7.2825863775e-03 1.9157865962e+00 -3.3182397211e+00 1.9157865962e+00 3.3182397211e+00 
18500 6.7441669604e+00 6.7477735428e-03 1.9155965316e+00 -3.3179105195e+00 1.9155965316e+00 3.3179105195e+00 
18600 6.7442117555e+00 6.2127191453e-03 1.9154204070e+00 -3.3176054629e+00 1.9154204070e+00 3.3176054629e+00 
18700 6.7442560318e+00 5.6784578767e-03 1.9152582329e+00 -3.3173245691e+00 1.9152582329e+00 3.3173245691e+00 
18800 6.7442994686e+00 5.1459927768e-03 1.9151099922e+00 -3.3170678086e+00 1.9151099922e+00 3.3170678086e+00 
18900 6.7443417697e+00 4.6162945163e-03 1.9149756414e+00 -3.3168351062e+00 1.9149756414e+00 3.3168351062e+00 
19000 6.7443826641e+00 4.0903007479e-03 1.9148551113e+00 -3.3166263418e+00 1.9148551113e+00 3.3166263418e+00 
19100 6.7444219068e+00 3.5689155238e-03 1.9147483078e+00 -3.3164413528e+00 1.9147483078e+00 3.3164413528e+00 
19200 6.7444592787e+00 3.0530087788e-03 1.9146551131e+00 -3.3162799349e+00 1.9146551131e+00 3.3162799349e+00 
19300 6.7444945870e+00 2.5434158759e-03 1.9145753863e+00 -3.3161418440e+00 1.9145753863e+00 3.3161418440e+00 
19400 6.7445276652e+00 2.0409372151e-03 1.9145089642e+00 -3.3160267976e+00 1.9145089642e+00 3.3160267976e+00 
19500 6.7445583725e+00 1.5463379020e-03 1.9144556626e+00 -3.3159344765e+00 1.9144556626e+00 3.3159344765e+00 
19600 6.7445865936e+00 1.0603474767e-03 1.9144152769e+00 -3.3158645265e+00 1.9144152769e+00 3.3158645265e+00 
19700 6.7446122379e+00 5.8365970032e-04 1.9143875832e+00 -3.3158165596e+00 1.9143875832e+00 3.3158165596e+00 
19800 6.7446352390e+00 1.1693239961e-04 1.9143723392e+00 -3.3157901562e+00 1.9143723392e+00 3.3157901562e+00 
19900 6.7446555537e+00 -3.3921263334e-04 1.9143692852e+00 -3.3157848664e+00 1.9143692852e+00 3.3157848664e+00 
20000 6.7446731610e+00 -7.8418968575e-04 1.9143781448e+00 -3.3158002117e+00 1.9143781448e+00 3.3158002117e+00 
20100 6.7446880611e+00 -1.2174491152e-03 1.9143986264e+00 -3.3158356869e+00 1.9143986264e+00 3.3158356869e+00 
20200 6.7447002740e+00 -1.6384772881e-03 1.9144304237e+00 -3.3158907614e+00 1.9144304237e+00 3.3158907614e+00 
20300 6.7447098386e+00 -2.0467964663e-03 1.9144732167e+00 -3.3159648810e+00 1.9144732167e+00 3.3159648810e+00 
20400 6.7447168109e+00 -2.4419646431e-03 1.9145266728e+00 -3.3160574697e+00 1.9145266728e+00 3.3160574697e+00 
20500 6.7447212633e+00 -2.8235753310e-03 1.9145904478e+00 -3.3161679312e+00 1.9145904478e+00 3.3161679312e+00 
20600 6.7447232825e+00 -3.1912572999e-03 1.9146641866e+00 -3.3162956506e+00 1.9146641866e+00 3.3162956506e+00 
20700 6.7447229685e+00 -3.5446742699e-03 1.9147475245e+00 -3.3164399960e+00 1.9147475245e+00 3.3164399960e+00 
20800 6.7447204331e+00 -3.8835245576e-03 1.9148400877e+00 -3.3166003202e+00 1.9148400877e+00 3.3166003202e+00 
20900 6.7447157984e+00 -4.2075406794e-03 1.9149414945e+00 -3.3167759620e+00 1.9149414945e+00 3.3167759620e+00 
21000 6.7447091954e+00 -4.5164889103e-03 1.9150513564e+00 -3.3169662484e+00 1.9150513564e+00 3.3169662484e+00 
21100 6.7447007625e+00 -4.8101688036e-03 1.9151692784e+00 -3.3171704953e+00 1.9151692784e+00 3.3171704953e+00 
21200 6.7446906445e+00 -5.0884126686e-03 1.9152948606e+00 -3.3173880100e+00 1.9152948606e+00 3.3173880100e+00 
21300 6.7446789905e+00 -5.3510850117e-03 1.9154276984e+00 -3.3176180918e+00 1.9154276984e+00 3.3176180918e+00 
21400 6.7446659533e+00 -5.5980819394e-03 1.9155673839e+00 -3.3178600342e+00 1.9155673839e+00 3.3178600342e+00 
21500 6.7446516878e+00 -5.8293305268e-03 1.9157135065e+00 -3.3181131260e+00 1.9157135065e+00 3.3181131260e+00 
21600 6.7446363501e+00 -6.0447881528e-03 1.9158656537e+00 -3.3183766526e+00 1.9158656537e+00 3.3183766526e+00 
21700 6.7446200957e+00 -6.2444418019e-03 1.9160234119e+00 -3.3186498979e+00 1.9160234119e+00 3.3186498979e+00 
21800 6.7446030792e+00 -6.4283073378e-03 1.9161863674e+00 -3.3189321450e+00 1.9161863674e+00 3.3189321450e+00 
21900 6.7445854527e+00 -6.5964287465e-03 1.9163541068e+00 -3.3192226783e+00 1.9163541068e+00 3.3192226783e+00 
22000 6.7445673653e+00 -6.7488773537e-03 1.9165262182e+00 -3.3195207840e+00 1.9165262182e+00 3.3195207840e+00 
22100 6.7445489619e+00 -6.8857510166e-03 1.9167022915e+00 -3.3198257518e+00 1.9167022915e+00 3.3198257518e+00 
22200 6.7445303824e+00 -7.0071732922e-03 1.9168819192e+00 -3.3201368762e+00 1.9168819192e+00 3.3201368762e+00 
22300 6.7445117613e+00 -7.1132925842e-03 1.9170646974e+00 -3.3204534573e+00 1.9170646974e+00 3.3204534573e+00 
22400 6.7444932268e+00 -7.2042812694e-03 1.9172502260e+00 -3.3207748023e+00 1.9172502260e+00 3.3207748023e+00 
22500 6.7444749002e+00 -7.2803348068e-03 1.9174381097e+00 -3.3211002263e+00 1.9174381097e+00 3.3211002263e+00 
22600 6.7444568956e+00 -7.3416708286e-03 1.9176279582e+00 -3.3214290536e+00 1.9176279582e+00 3.3214290536e+00 
22700 6.7444393193e+00 -7.3885282183e-03 1.9178193872e+00 -3.3217606184e+00 1.9178193872e+00 3.3217606184e+00 
22800 6.7444222696e+00 -7.4211661741e-03 1.9180120188e+00 -3.3220942661e+00 1.9180120188e+00 3.3220942661e+00 
22900 6.7444058366e+00 -7.4398632620e-03 1.9182054819e+00 -3.3224293540e+00 1.9182054819e+00 3.3224293540e+00 
23000 6.7443901017e+00 -7.4449164582e-03 1.9183994128e+00 -3.3227652523e+00 1.9183994128e+00 3.3227652523e+00 
23100 6.7443751377e+00 -7.4366401843e-03 1.9185934559e+00 -3.3231013447e+00 1.9185934559e+00 3.3231013447e+00 
23200 6.7443610087e+00 -7.4153653357e-03 1.9187872637e+00 -3.3234370296e+00 1.9187872637e+00 3.3234370296e+00 
23300 6.7443477701e+00 -7.3814383049e-03 1.9189804974e+00 -3.3237717203e+00 1.9189804974e+00 3.3237717203e+00 
23400 6.7443354687e+00 -7.3352200017e-03 1.9191728277e+00 -3.3241048461e+00 1.9191728277e+00 3.3241048461e+00 
23500 6.7443241427e+00 -7.2770848719e-03 1.9193639346e+00 -3.3244358529e+00 1.9193639346e+00 3.3244358529e+00 
23600 6.7443138218e+00 -7.2074199160e-03 1.9195535079e+00 -3.3247642035e+00 1.9195535079e+00 3.3247642035e+00 
23700 6.7443045278e+00 -7.1266237082e-03 1.9197412479e+00 -3.3250893787e+00 1.9197412479e+00 3.3250893787e+00 
23800 6.7442962743e+00 -7.0351054198e-03 1.9199268650e+00 -3.3254108770e+00 1.9199268650e+00 3.3254108770e+00 
23900 6.7442890676e+00 -6.9332838453e-03 1.9201100808e+00 -3.3257282160e+00 1.9201100808e+00 3.3257282160e+00 
24000 6.7442829063e+00 -6.8215864355e-03 1.9202906275e+00 -3.3260409322e+00 1.9202906275e+00 3.3260409322e+00 
24100 6.7442777825e+00 -6.7004483364e-03 1.9204682489e+00 -3.3263485813e+00 1.9204682489e+00 3.3263485813e+00 
24200 6.7442736816e+00 -6.5703114377e-03 1.9206426998e+00 -3.3266507392e+00 1.9206426998e+00 3.3266507392e+00 
24300 6.7442705827e+00 -6.4316234306e-03 1.9208137469e+00 -3.3269470016e+00 1.9208137469e+00 3.3269470016e+00 
24400 6.7442684595e+00 -6.2848368758e-03 1.9209811686e+00 -3.3272369844e+00 1.9209811686e+00 3.3272369844e+00 
24500 6.7442672803e+00 -6.1304082854e-03 1.9211447550e+00 -3.3275203243e+00 1.9211447550e+00 3.3275203243e+00 
24600 6.7442670087e+00 -5.9687972169e-03 1.9213043081e+00 -3.3277966784e+00 1.9213043081e+00 3.3277966784e+00 
24700 6.7442676042e+00 -5.8004653824e-03 1.9214596421e+00 -3.3280657248e+00 1.9214596421e+00 3.3280657248e+00 
24800 6.7442690220e+00 -5.6258757739e-03 1.9216105831e+00 -3.3283271623e+00 1.9216105831e+00 3.3283271623e+00 
24900 6.7442712145e+00 -5.4454918053e-03 1.9217569693e+00 -3.3285807107e+00 1.9217569693e+00 3.3285807107e+00 
25000 6.7442741310e+00 -5.2597764720e-03 1.9218986511e+00 -3.3288261107e+00 1.9218986511e+00 3.3288261107e+00 
25100 6.7442777185e+00 -5.0691915305e-03 1.9220354908e+00 -3.3290631240e+00 1.9220354908e+00 3.3290631240e+00 
25200 6.7442819219e+00 -4.8741966973e-03 1.9221673627e+00 -3.3292915328e+00 1.9221673627e+00 3.3292915328e+00 
25300 6.7442866850e+00 -4.6752488691e-03 1.9222941532e+00 -3.3295111404e+00 1.9222941532e+00 3.3295111404e+00 
25400 6.7442919504e+00 -4.4728013648e-03 1.9224157604e+00 -3.3297217703e+00 1.9224157604e+00 3.3297217703e+00 
25500 6.7442976601e+00 -4.2673031906e-03 1.9225320944e+00 -3.3299232667e+00 1.9225320944e+00 3.3299232667e+00 
25600 6.7443037560e+00 -4.0591983287e-03 1.9226430768e+00 -3.3301154938e+00 1.9226430768e+00 3.3301154938e+00 
25700 6.7443101804e+00 -3.8489250498e-03 1.9227486407e+00 -3.3302983359e+00 1.9227486407e+00 3.3302983359e+00 
25800 6.7443168760e+00 -3.6369152516e-03 1.9228487307e+00 -3.3304716969e+00 1.9228487307e+00 3.3304716969e+00 
25900 6.7443237866e+00 -3.4235938229e-03 1.9229433025e+00 -3.3306355001e+00 1.9229433025e+00 3.3306355001e+00 
26000 6.7443308572e+00 -3.2093780336e-03 1.9230323228e+00 -3.3307896878e+00 1.9230323228e+00 3.3307896878e+00 
26100 6.7443380346e+00 -2.9946769527e-03 1.9231157692e+00 -3.3309342211e+00 1.9231157692e+00 3.3309342211e+00 
26200 6.7443452672e+00 -2.7798908934e-03 1.9231936298e+00 -3.3310690796e+00 1.9231936298e+00 3.3310690796e+00 
26300 6.7443525059e+00 -2.5654108861e-03 1.9232659030e+00 -3.3311942605e+00 1.9232659030e+00 3.3311942605e+00 
26400 6.7443597038e+00 -2.3516181804e-03 1.9233325975e+00 -3.3313097787e+00 1.9233325975e+00 3.3313097787e+00 
26500 6.7443668164e+00 -2.1388837756e-03 1.9233937318e+00 -3.3314156664e+00 1.9233937318e+00 3.3314156664e+00 
26600 6.7443738023e+00 -1.9275679807e-03 1.9234493339e+00 -3.3315119720e+00 1.9234493339e+00 3.3315119720e+00 
26700 6.7443806228e+00 -1.7180200038e-03 1.9234994412e+00 -3.3315987604e+00 1.9234994412e+00 3.3315987604e+00 
26800 6.7443872422e+00 -1.5105775706e-03 1.9235441000e+00 -3.3316761119e+00 1.9235441000e+00 3.3316761119e+00 
26900 6.7443936280e+00 -1.3055665738e-03 1.9235833656e+00 -3.3317441219e+00 1.9235833656e+00 3.3317441219e+00 
27000 6.7443997508e+00 -1.1033007513e-03 1.9236173015e+00 -3.3318029006e+00 1.9236173015e+00 3.3318029006e+00 
27100 6.7444055847e+00 -9.0408139498e-04 1.9236459794e+00 -3.3318525720e+00 1.9236459794e+00 3.3318525720e+00 
27200 6.7444111066e+00 -7.0819708881e-04 1.9236694786e+00 -3.3318932739e+00 1.9236694786e+00 3.3318932739e+00 
27300 6.7444162970e+00 -5.1592347729e-04 1.9236878861e+00 -3.3319251566e+00 1.9236878861e+00 3.3319251566e+00 
27400 6.7444211395e+00 -3.2752306301e-04 1.9237012958e+00 -3.3319483830e+00 1.9237012958e+00 3.3319483830e+00 
27500 6.7444256210e+00 -1.4324503381e-04 1.9237098087e+00 -3.3319631276e+00 1.9237098087e+00 3.3319631276e+00 
27600 6.7444297315e+00 3.6674881035e-05 1.9237135318e+00 -3.3319695763e+00 1.9237135318e+00 3.3319695763e+00 
27700 6.7444334641e+00 2.1288241924e-04 1.9237135318e+00 -3.3319695763e+00 1.9237135318e+00 3.3319695763e+00 
27800 6.7444368146e+00 3.8341769226e-04 1.9237079987e+00 -3.3319599927e+00 1.9237079987e+00 3.3319599927e+00 
27900 6.7444397815e+00 5.4896989645e-04 1.9236980331e+00 -3.3319427318e+00 1.9236980331e+00 3.3319427318e+00 
28000 6.7444423665e+00 7.0935797991e-04 1.9236837645e+00 -3.3319180179e+00 1.9236837645e+00 3.3319180179e+00 
28100 6.7444445735e+00 8.6441464628e-04 1.9236653271e+00 -3.3318860833e+00 1.9236653271e+00 3.3318860833e+00 
28200 6.7444464089e+00 1.0139863329e-03 1.9236428592e+00 -3.3318471678e+00 1.9236428592e+00 3.3318471678e+00 
28300 6.7444478814e+00 1.1579331630e-03 1.9236165034e+00 -3.3318015181e+00 1.9236165034e+00 3.3318015181e+00 
28400 6.7444490017e+00 1.2961288738e-03 1.9235864056e+00 -3.3317493873e+00 1.9235864056e+00 3.3317493873e+00 
28500 6.7444497826e+00 1.4284607189e-03 1.9235527153e+00 -3.3316910340e+00 1.9235527153e+00 3.3316910340e+00 
28600 6.7444502384e+00 1.5548293490e-03 1.9235155846e+00 -3.3316267218e+00 1.9235155846e+00 3.3316267218e+00 
28700 6.7444503851e+00 1.6751486683e-03 1.9234751684e+00 -3.3315567188e+00 1.9234751684e+00 3.3315567188e+00 
28800 6.7444502399e+00 1.7893456702e-03 1.9234316238e+00 -3.3314812972e+00 1.9234316238e+00 3.3314812972e+00 
28900 6.7444498212e+00 1.8973602516e-03 1.9233851095e+00 -3.3314007322e+00 1.9233851095e+00 3.3314007322e+00 
29000 6.7444491487e+00 1.9991450073e-03 1.9233357863e+00 -3.3313153019e+00 1.9233357863e+00 3.3313153019e+00 
29100 6.7444482424e+00 2.0946650048e-03 1.9232838157e+00 -3.3312252862e+00 1.9232838157e+00 3.3312252862e+00 
29200 6.7444471234e+00 2.1838975419e-03 1.9232293606e+00 -3.3311309671e+00 1.9232293606e+00 3.3311309671e+00 
29300 6.7444458129e+00 2.2668318859e-03 1.9231725840e+00 -3.3310326272e+00 1.9231725840e+00 3.3310326272e+00 
29400 6.7444443325e+00 2.3434689975e-03 1.9231136496e+00 -3.3309305499e+00 1.9231136496e+00 3.3309305499e+00 
29500 6.7444427041e+00 2.4138212389e-03 1.9230527209e+00 -3.3308250183e+00 1.9230527209e+00 3.3308250183e+00 
29600 6.7444409492e+00 2.4779120678e-03 1.9229899611e+00 -3.3307163151e+00 1.9229899611e+00 3.3307163151e+00 
29700 6.7444390895e+00 2.5357757180e-03 1.9229255328e+00 -3.3306047221e+00 1.9229255328e+00 3.3306047221e+00 
29800 6.7444371460e+00 2.5874568679e-03 1.9228595979e+00 -3.3304905193e+00 1.9228595979e+00 3.3304905193e+00 
29900 6.7444351395e+00 2.6330102978e-03 1.9227923168e+00 -3.3303739851e+00 1.9227923168e+00 3.3303739851e+00 
30000 6.7444330902e+00 2.6725005368e-03 1.9227238488e+00 -3.3302553950e+00 1.9227238488e+00 3.3302553950e+00 
30100 6.7444310174e+00 2.7060015003e-03 1.9226543514e+00 -3.3301350221e+00 1.9226543514e+00 3.3301350221e+00 
30200 6.7444289397e+00 2.7335961195e-03 1.9225839803e+00 -3.3300131358e+00 1.9225839803e+00 3.3300131358e+00 
30300 6.7444268750e+00 2.7553759635e-03 1.9225128891e+00 -3.3298900021e+00 1.9225128891e+00 3.3298900021e+00 
30400 6.7444248399e+00 2.7714408550e-03 1.9224412287e+00 -3.3297658827e+00 1.9224412287e+00 3.3297658827e+00 
30500 6.7444228502e+00 2.7818984804e-03 1.9223691479e+00 -3.3296410350e+00 1.9223691479e+00 3.3296410350e+00 
30600 6.7444209205e+00 2.7868639963e-03 1.9222967923e+00 -3.3295157116e+00 1.9222967923e+00 3.3295157116e+00 
30700 6.7444190643e+00 2.7864596311e-03 1.9222243049e+00 -3.3293901597e+00 1.9222243049e+00 3.3293901597e+00 
30800 6.7444172938e+00 2.7808142852e-03 1.9221518253e+00 -3.3292646213e+00 1.9221518253e+00 3.3292646213e+00 
30900 6.7444156200e+00 2.7700631285e-03 1.9220794898e+00 -3.3291393325e+00 1.9220794898e+00 3.3291393325e+00 
31000 6.7444140528e+00 2.7543471974e-03 1.9220074312e+00 -3.3290145234e+00 1.9220074312e+00 3.3290145234e+00 
31100 6.7444126008e+00 2.7338129916e-03 1.9219357788e+00 -3.3288904177e+00 1.9219357788e+00 3.3288904177e+00 
31200 6.7444112712e+00 2.7086120714e-03 1.9218646579e+00 -3.3287672327e+00 1.9218646579e+00 3.3287672327e+00 
31300 6.7444100700e+00 2.6789006564e-03 1.9217941900e+00 -3.3286451787e+00 1.9217941900e+00 3.3286451787e+00 
31400 6.7444090022e+00 2.6448392265e-03 1.9217244925e+00 -3.3285244591e+00 1.9217244925e+00 3.3285244591e+00 
31500 6.7444080714e+00 2.6065921258e-03 1.9216556787e+00 -3.3284052701e+00 1.9216556787e+00 3.3284052701e+00 
31600 6.7444072800e+00 2.5643271694e-03 1.9215878576e+00 -3.3282878005e+00 1.9215878576e+00 3.3282878005e+00 
31700 6.7444066295e+00 2.5182152554e-03 1.9215211338e+00 -3.3281722315e+00 1.9215211338e+00 3.3281722315e+00 
31800 6.7444061200e+00 2.4684299805e-03 1.9214556075e+00 -3.3280587368e+00 1.9214556075e+00 3.3280587368e+00 
31900 6.7444057508e+00 2.4151472619e-03 1.9213913746e+00 -3.3279474820e+00 1.9213913746e+00 3.3279474820e+00 
32000 6.7444055202e+00 2.3585449643e-03 1.9213285260e+00 -3.3278386251e+00 1.9213285260e+00 3.3278386251e+00 
32100 6.7444054255e+00 2.2988025343e-03 1.9212671484e+00 -3.3277323159e+00 1.9212671484e+00 3.3277323159e+00 
32200 6.7444054631e+00 2.2361006407e-03 1.9212073235e+00 -3.3276286962e+00 1.9212073235e+00 3.3276286962e+00 
32300 6.7444056289e+00 2.1706208225e-03 1.9211491286e+00 -3.3275278997e+00 1.9211491286e+00 3.3275278997e+00 
32400 6.7444059176e+00 2.1025451451e-03 1.9210926361e+00 -3.3274300518e+00 1.9210926361e+00 3.3274300518e+00 
32500 6.7444063238e+00 2.0320558644e-03 1.9210379137e+00 -3.3273352698e+00 1.9210379137e+00 3.3273352698e+00 
32600 6.7444068410e+00 1.9593350989e-03 1.9209850244e+00 -3.3272436629e+00 1.9209850244e+00 3.3272436629e+00 
32700 6.7444074625e+00 1.8845645118e-03 1.9209340265e+00 -3.3271553318e+00 1.9209340265e+00 3.3271553318e+00 
32800 6.7444081812e+00 1.8079250017e-03 1.9208849733e+00 -3.3270703693e+00 1.9208849733e+00 3.3270703693e+00 
32900 6.7444089894e+00 1.7295964023e-03 1.9208379138e+00 -3.3269888599e+00 1.9208379138e+00 3.3269888599e+00 
33000 6.7444098792e+00 1.6497571932e-03 1.9207928921e+00 -3.3269108799e+00 1.9207928921e+00 3.3269108799e+00 
33100 6.7444108427e+00 1.5685842193e-03 1.9207499476e+00 -3.3268364978e+00 1.9207499476e+00 3.3268364978e+00 
33200 6.7444118714e+00 1.4862524212e-03 1.9207091151e+00 -3.3267657739e+00 1.9207091151e+00 3.3267657739e+00 
33300 6.7444129572e+00 1.4029345758e-03 1.9206704250e+00 -3.3266987608e+00 1.9206704250e+00 3.3266987608e+00 
33400 6.7444140916e+00 1.3188010476e-03 1.9206339032e+00 -3.3266355030e+00 1.9206339032e+00 3.3266355030e+00 
33500 6.7444152662e+00 1.2340195500e-03 1.9205995708e+00 -3.3265760377e+00 1.9205995708e+00 3.3265760377e+00 
33600 6.7444164729e+00 1.1487549184e-03 1.9205674450e+00 -3.3265203941e+00 1.9205674450e+00 3.3265203941e+00 
33700 6.7444177034e+00 1.0631688933e-03 1.9205375384e+00 -3.3264685944e+00 1.9205375384e+00 3.3264685944e+00 
33800 6.7444189499e+00 9.7741991499e-04 1.9205098596e+00 -3.3264206532e+00 1.9205098596e+00 3.3264206532e+00 
33900 6.7444202047e+00 8.9166292849e-04 1.9204844127e+00 -3.3263765780e+00 1.9204844127e+00 3.3263765780e+00 
34000 6.7444214604e+00 8.0604920038e-04 1.9204611982e+00 -3.3263363693e+00 1.9204611982e+00 3.3263363693e+00 
34100 6.7444227098e+00 7.2072614601e-04 1.9204402125e+00 -3.3263000209e+00 1.9204402125e+00 3.3263000209e+00 
34200 6.7444239464e+00 6.3583716795e-04 1.9204214479e+00 -3.3262675197e+00 1.9204214479e+00 3.3262675197e+00 
34300 6.7444251635e+00 5.5152150550e-04 1.9204048933e+00 -3.3262388463e+00 1.9204048933e+00 3.3262388463e+00 
34400 6.7444263555e+00 4.6791409498e-04 1.9203905338e+00 -3.3262139749e+00 1.9203905338e+00 3.3262139749e+00 
34500 6.7444275166e+00 3.8514544105e-04 1.9203783510e+00 -3.3261928737e+00 1.9203783510e+00 3.3261928737e+00 
34600 6.7444286419e+00 3.0334149878e-04 1.9203683232e+00 -3.3261755050e+00 1.9203683232e+00 3.3261755050e+00 
34700 6.7444297268e+00 2.2262356645e-04 1.9203604252e+00 -3.3261618253e+00 1.9203604252e+00 3.3261618253e+00 
34800 6.7444307670e+00 1.4310818898e-04 1.9203546288e+00 -3.3261517856e+00 1.9203546288e+00 3.3261517856e+00 
34900 6.7444317590e+00 6.4907071852e-05 1.9203509027e+00 -3.3261453318e+00 1.9203509027e+00 3.3261453318e+00 
35000 6.7444326994e+00 -1.0323782090e-05 1.9203509027e+00 -3.3261453318e+00 1.9203509027e+00 3.3261453318e+00 
35100 6.7444335856e+00 -8.5855940039e-05 1.9203509027e+00 -3.3261453318e+00 1.9203509027e+00 3.3261453318e+00 
35200 6.7444344154e+00 -1.5951667827e-04 1.9203531381e+00 -3.3261492037e+00 1.9203531381e+00 3.3261492037e+00 
35300 6.7444351872e+00 -2.3146541655e-04 1.9203572914e+00 -3.3261563974e+00 1.9203572914e+00 3.3261563974e+00 
35400 6.7444358995e+00 -3.0161561470e-04 1.9203633181e+00 -3.3261668359e+00 1.9203633181e+00 3.3261668359e+00 
35500 6.7444365516e+00 -3.6988587493e-04 1.9203711712e+00 -3.3261804378e+00 1.9203711712e+00 3.3261804378e+00 
35600 6.7444371431e+00 -4.3619995867e-04 1.9203808017e+00 -3.3261971185e+00 1.9203808017e+00 3.3261971185e+00 
35700 6.7444376739e+00 -5.0048679433e-04 1.9203921589e+00 -3.3262167896e+00 1.9203921589e+00 3.3262167896e+00 
35800 6.7444381444e+00 -5.6268047613e-04 1.9204051897e+00 -3.3262393598e+00 1.9204051897e+00 3.3262393598e+00 
35900 6.7444385553e+00 -6.2272025415e-04 1.9204198398e+00 -3.3262647344e+00 1.9204198398e+00 3.3262647344e+00 
36000 6.7444389079e+00 -6.8055051605e-04 1.9204360530e+00 -3.3262928164e+00 1.9204360530e+00 3.3262928164e+00 
36100 6.7444392035e+00 -7.3612076040e-04 1.9204537716e+00 -3.3263235060e+00 1.9204537716e+00 3.3263235060e+00 
36200 6.7444394439e+00 -7.8938556209e-04 1.9204729369e+00 -3.3263567013e+00 1.9204729369e+00 3.3263567013e+00 
36300 6.7444396310e+00 -8.4030453003e-04 1.9204934888e+00 -3.3263922983e+00 1.9204934888e+00 3.3263922983e+00 
36400 6.7444397671e+00 -8.8884225725e-04 1.9205153662e+00 -3.3264301909e+00 1.9205153662e+00 3.3264301909e+00 
36500 6.7444398548e+00 -9.3496826391e-04 1.9205385070e+00 -3.3264702719e+00 1.9205385070e+00 3.3264702719e+00 
36600 6.7444398966e+00 -9.7865693321e-04 1.9205628483e+00 -3.3265124324e+00 1.9205628483e+00 3.3265124324e+00 
36700 6.7444398955e+00 -1.0198874407e-03 1.9205883268e+00 -3.3265565624e+00 1.9205883268e+00 3.3265565624e+00 
36800 6.7444398543e+00 -1.0586436772e-03 1.9206148782e+00 -3.3266025509e+00 1.9206148782e+00 3.3266025509e+00 
36900 6.7444397762e+00 -1.0949141653e-03 1.9206424383e+00 -3.3266502864e+00 1.9206424383e+00 3.3266502864e+00 
37000 6.7444396643e+00 -1.1286919705e-03 1.9206709423e+00 -3.3266996566e+00 1.9206709423e+00 3.3266996566e+00 
37100 6.7444395220e+00 -1.1599746064e-03 1.9207003251e+00 -3.3267505492e+00 1.9207003251e+00 3.3267505492e+00 
37200 6.7444393524e+00 -1.1887639345e-03 1.9207305218e+00 -3.3268028514e+00 1.9207305218e+00 3.3268028514e+00 
37300 6.7444391588e+00 -1.2150660593e-03 1.9207614675e+00 -3.3268564510e+00 1.9207614675e+00 3.3268564510e+00 
37400 6.7444389445e+00 -1.2388912187e-03 1.9207930974e+00 -3.3269112355e+00 1.9207930974e+00 3.3269112355e+00 
37500 6.7444387128e+00 -1.2602536694e-03 1.9208253470e+00 -3.3269670934e+00 1.9208253470e+00 3.3269670934e+00 
37600 6.7444384668e+00 -1.2791715691e-03 1.9208581521e+00 -3.3270239135e+00 1.9208581521e+00 3.3270239135e+00 
37700 6.7444382096e+00 -1.2956668539e-03 1.9208914490e+00 -3.3270815856e+00 1.9208914490e+00 3.3270815856e+00 
37800 6.7444379443e+00 -1.3097651127e-03 1.9209251748e+00 -3.3271400003e+00 1.9209251748e+00 3.3271400003e+00 
37900 6.7444376739e+00 -1.3214954584e-03 1.9209592669e+00 -3.3271990496e+00 1.9209592669e+00 3.3271990496e+00 
38000 6.7444374009e+00 -1.3308903953e-03 1.9209936638e+00 -3.3272586267e+00 1.9209936638e+00 3.3272586267e+00 
38100 6.7444371283e+00 -1.3379856851e-03 1.9210283046e+00 -3.3273186263e+00 1.9210283046e+00 3.3273186263e+00 
38200 6.7444368584e+00 -1.3428202094e-03 1.9210631294e+00 -3.3273789447e+00 1.9210631294e+00 3.3273789447e+00 
38300 6.7444365937e+00 -1.3454358303e-03 1.9210980794e+00 -3.3274394799e+00 1.9210980794e+00 3.3274394799e+00 
38400 6.7444363363e+00 -1.3458772498e-03 1.9211330969e+00 -3.3275001320e+00 1.9211330969e+00 3.3275001320e+00 
38500 6.7444360883e+00 -1.3441918665e-03 1.9211681252e+00 -3.3275608028e+00 1.9211681252e+00 3.3275608028e+00 
38600 6.7444358516e+00 -1.3404296321e-03 1.9212031091e+00 -3.3276213965e+00 1.9212031091e+00 3.3276213965e+00 
38700 6.7444356278e+00 -1.3346429060e-03 1.9212379943e+00 -3.3276818196e+00 1.9212379943e+00 3.3276818196e+00 
38800 6.7444354185e+00 -1.3268863098e-03 1.9212727284e+00 -3.3277419807e+00 1.9212727284e+00 3.3277419807e+00 
38900 6.7444352249e+00 -1.3172165808e-03 1.9213072599e+00 -3.3278017911e+00 1.9213072599e+00 3.3278017911e+00 
39000 6.7444350481e+00 -1.3056924254e-03 1.9213415392e+00 -3.3278611646e+00 1.9213415392e+00 3.3278611646e+00 
39100 6.7444348893e+00 -1.2923743729e-03 1.9213755179e+00 -3.3279200175e+00 1.9213755179e+00 3.3279200175e+00 
39200 6.7444347490e+00 -1.2773246288e-03 1.9214091495e+00 -3.3279782691e+00 1.9214091495e+00 3.3279782691e+00 
39300 6.7444346279e+00 -1.2606069292e-03 1.9214423889e+00 -3.3280358414e+00 1.9214423889e+00 3.3280358414e+00 
39400 6.7444345265e+00 -1.2422863954e-03 1.9214751927e+00 -3.3280926592e+00 1.9214751927e+00 3.3280926592e+00 
39500 6.7444344450e+00 -1.2224293905e-03 1.9215075191e+00 -3.3281486502e+00 1.9215075191e+00 3.3281486502e+00 
39600 6.7444343835e+00 -1.2011033755e-03 1.9215393283e+00 -3.3282037454e+00 1.9215393283e+00 3.3282037454e+00 
39700 6.7444343420e+00 -1.1783767685e-03 1.9215705821e+00 -3.3282578785e+00 1.9215705821e+00 3.3282578785e+00 
39800 6.7444343202e+00 -1.1543188045e-03 1.9216012440e+00 -3.3283109865e+00 1.9216012440e+00 3.3283109865e+00 
39900 6.7444343179e+00 -1.1289993971e-03 1.9216312794e+00 -3.3283630093e+00 1.9216312794e+00 3.3283630093e+00 
40000 6.7444343346e+00 -1.1024890027e-03 1.9216606555e+00 -3.3284138903e+00 1.9216606555e+00 3.3284138903e+00 
40100 6.7444343697e+00 -1.0748584862e-03 1.9216893414e+00 -3.3284635758e+00 1.9216893414e+00 3.3284635758e+00 
40200 6.7444344226e+00 -1.0461789898e-03 1.9217173080e+00 -3.3285120153e+00 1.9217173080e+00 3.3285120153e+00 
40300 6.7444344924e+00 -1.0165218039e-03 1.9217445280e+00 -3.3285591616e+00 1.9217445280e+00 3.3285591616e+00 
40400 6.7444345783e+00 -9.8595824060e-04 1.9217709759e+00 -3.3286049708e+00 1.9217709759e+00 3.3286049708e+00 
40500 6.7444346794e+00 -9.5455951047e-04 1.9217966283e+00 -3.3286494021e+00 1.9217966283e+00 3.3286494021e+00 
40600 6.7444347947e+00 -9.2239660217e-04 1.9218214635e+00 -3.3286924178e+00 1.9218214635e+00 3.3286924178e+00 
40700 6.7444349231e+00 -8.8954016514e-04 1.9218454615e+00 -3.3287339836e+00 1.9218454615e+00 3.3287339836e+00 
40800 6.7444350635e+00 -8.5606039569e-04 1.9218686044e+00 -3.3287740683e+00 1.9218686044e+00 3.3287740683e+00 
40900 6.7444352148e+00 -8.2202692647e-04 1.9218908760e+00 -3.3288126438e+00 1.9218908760e+00 3.3288126438e+00 
41000 6.7444353758e+00 -7.8750871950e-04 1.9219122619e+00 -3.3288496854e+00 1.9219122619e+00 3.3288496854e+00 
41100 6.7444355453e+00 -7.5257396276e-04 1.9219327496e+00 -3.3288851710e+00 1.9219327496e+00 3.3288851710e+00 
41200 6.7444357221e+00 -7.1728997068e-04 1.9219523282e+00 -3.3289190822e+00 1.9219523282e+00 3.3289190822e+00 
41300 6.7444359051e+00 -6.8172308827e-04 1.9219709887e+00 -3.3289514031e+00 1.9219709887e+00 3.3289514031e+00 
41400 6.7444360930e+00 -6.4593859929e-04 1.9219887237e+00 -3.3289821211e+00 1.9219887237e+00 3.3289821211e+00 
41500 6.7444362847e+00 -6.1000063835e-04 1.9220055277e+00 -3.3290112263e+00 1.9220055277e+00 3.3290112263e+00 
41600 6.7444364790e+00 -5.7397210707e-04 1.9220213965e+00 -3.3290387120e+00 1.9220213965e+00 3.3290387120e+00 
41700 6.7444366749e+00 -5.3791459432e-04 1.9220363280e+00 -3.3290645741e+00 1.9220363280e+00 3.3290645741e+00 
41800 6.7444368712e+00 -5.0188830062e-04 1.9220503214e+00 -3.3290888114e+00 1.9220503214e+00 3.3290888114e+00 
41900 6.7444370670e+00 -4.6595196676e-04 1.9220633775e+00 -3.3291114251e+00 1.9220633775e+00 3.3291114251e+00 
42000 6.7444372612e+00 -4.3016280657e-04 1.9220754986e+00 -3.3291324196e+00 1.9220754986e+00 3.3291324196e+00 
42100 6.7444374529e+00 -3.9457644397e-04 1.9220866887e+00 -3.3291518014e+00 1.9220866887e+00 3.3291518014e+00 
42200 6.7444376413e+00 -3.5924685426e-04 1.9220969530e+00 -3.3291695796e+00 1.9220969530e+00 3.3291695796e+00 
42300 6.7444378255e+00 -3.2422630971e-04 1.9221062982e+00 -3.3291857660e+00 1.9221062982e+00 3.3291857660e+00 
42400 6.7444380048e+00 -2.8956532929e-04 1.9221147323e+00 -3.3292003743e+00 1.9221147323e+00 3.3292003743e+00 
42500 6.7444381786e+00 -2.5531263278e-04 1.9221222648e+00 -3.3292134210e+00 1.9221222648e+00 3.3292134210e+00 
42600 6.7444383461e+00 -2.2151509905e-04 1.9221289062e+00 -3.3292249243e+00 1.9221289062e+00 3.3292249243e+00 
42700 6.7444385068e+00 -1.8821772852e-04 1.9221346685e+00 -3.3292349047e+00 1.9221346685e+00 3.3292349047e+00 
42800 6.7444386603e+00 -1.5546360983e-04 1.9221395645e+00 -3.3292433850e+00 1.9221395645e+00 3.3292433850e+00 
42900 6.7444388061e+00 -1.2329389064e-04 1.9221436085e+00 -3.3292503894e+00 1.9221436085e+00 3.3292503894e+00 
43000 6.7444389439e+00 -9.1747752534e-05 1.9221468157e+00 -3.3292559445e+00 1.9221468157e+00 3.3292559445e+00 
43100 6.7444390734e+00 -6.0862389906e-05 1.9221492023e+00 -3.3292600782e+00 1.9221492023e+00 3.3292600782e+00 
43200 6.7444391945e+00 -3.2119168529e-05 1.9221492023e+00 -3.3292600782e+00 1.9221492023e+00 3.3292600782e+00 
43300 6.7444393067e+00 -3.3958208896e-06 1.9221492023e+00 -3.3292600782e+00 1.9221492023e+00 3.3292600782e+00 
43400 6.7444394102e+00 2.5262864650e-05 1.9221492023e+00 -3.3292600782e+00 1.9221492023e+00 3.3292600782e+00 
43500 6.7444395050e+00 5.3813487895e-05 1.9221492023e+00 -3.3292600782e+00 1.9221492023e+00 3.3292600782e+00 
43600 6.7444395912e+00 8.2214069688e-05 1.9221492023e+00 -3.3292600782e+00 1.9221492023e+00 3.3292600782e+00 
43700 6.7444396687e+00 1.0847027342e-04 1.9221470637e+00 -3.3292563740e+00 1.9221470637e+00 3.3292563740e+00 
43800 6.7444397376e+00 1.3386191379e-04 1.9221442421e+00 -3.3292514869e+00 1.9221442421e+00 3.3292514869e+00 
43900 6.7444397983e+00 1.5836799398e-04 1.9221407600e+00 -3.3292454557e+00 1.9221407600e+00 3.3292454557e+00 
44000 6.7444398508e+00 1.8196952320e-04 1.9221366405e+00 -3.3292383204e+00 1.9221366405e+00 3.3292383204e+00 
44100 6.7444398955e+00 2.0464950145e-04 1.9221319070e+00 -3.3292301217e+00 1.9221319070e+00 3.3292301217e+00 
44200 6.7444399327e+00 2.2639290114e-04 1.9221265835e+00 -3.3292209011e+00 1.9221265835e+00 3.3292209011e+00 
44300 6.7444399627e+00 2.4718664565e-04 1.9221206943e+00 -3.3292107009e+00 1.9221206943e+00 3.3292107009e+00 
44400 6.7444399859e+00 2.6701958506e-04 1.9221142643e+00 -3.3291995637e+00 1.9221142643e+00 3.3291995637e+00 
44500 6.7444400026e+00 2.8588246906e-04 1.9221073183e+00 -3.3291875329e+00 1.9221073183e+00 3.3291875329e+00 
44600 6.7444400134e+00 3.0376791712e-04 1.9220998816e+00 -3.3291746522e+00 1.9220998816e+00 3.3291746522e+00 
44700 6.7444400185e+00 3.2067038622e-04 1.9220919796e+00 -3.3291609656e+00 1.9220919796e+00 3.3291609656e+00 
44800 6.7444400185e+00 3.3658613604e-04 1.9220836379e+00 -3.3291465173e+00 1.9220836379e+00 3.3291465173e+00 
44900 6.7444400139e+00 3.5151319191e-04 1.9220748822e+00 -3.3291313519e+00 1.9220748822e+00 3.3291313519e+00 
45000 6.7444400050e+00 3.6545130551e-04 1.9220657381e+00 -3.3291155139e+00 1.9220657381e+00 3.3291155139e+00 
45100 6.7444399924e+00 3.7840191355e-04 1.9220562314e+00 -3.3290990477e+00 1.9220562314e+00 3.3290990477e+00 
45200 6.7444399765e+00 3.9036809444e-04 1.9220463877e+00 -3.3290819980e+00 1.9220463877e+00 3.3290819980e+00 
45300 6.7444399577e+00 4.0135452321e-04 1.9220362327e+00 -3.3290644090e+00 1.9220362327e+00 3.3290644090e+00 
45400 6.7444399366e+00 4.1136742470e-04 1.9220257918e+00 -3.3290463249e+00 1.9220257918e+00 3.3290463249e+00 
45500 6.7444399136e+00 4.2041452518e-04 1.9220150904e+00 -3.3290277896e+00 1.9220150904e+00 3.3290277896e+00 
45600 6.7444398890e+00 4.2850500251e-04 1.9220041536e+00 -3.3290088465e+00 1.9220041536e+00 3.3290088465e+00 
45700 6.7444398635e+00 4.3564943505e-04 1.9219930063e+00 -3.3289895387e+00 1.9219930063e+00 3.3289895387e+00 
45800 6.7444398372e+00 4.4185974927e-04 1.9219816730e+00 -3.3289699089e+00 1.9219816730e+00 3.3289699089e+00 
45900 6.7444398107e+00 4.4714916637e-04 1.9219701781e+00 -3.3289499992e+00 1.9219701781e+00 3.3289499992e+00 
46000 6.7444397842e+00 4.5153214787e-04 1.9219585456e+00 -3.3289298510e+00 1.9219585456e+00 3.3289298510e+00 
46100 6.7444397582e+00 4.5502434047e-04 1.9219467989e+00 -3.3289095052e+00 1.9219467989e+00 3.3289095052e+00 
46200 6.7444397329e+00 4.5764252010e-04 1.9219349614e+00 -3.3288890019e+00 1.9219349614e+00 3.3288890019e+00 
46300 6.7444397087e+00 4.5940453542e-04 1.9219230556e+00 -3.3288683805e+00 1.9219230556e+00 3.3288683805e+00 
46400 6.7444396858e+00 4.6032925081e-04 1.9219111039e+00 -3.3288476796e+00 1.9219111039e+00 3.3288476796e+00 
46500 6.7444396645e+00 4.6043648904e-04 1.9218991281e+00 -3.3288269369e+00 1.9218991281e+00 3.3288269369e+00 
46600 6.7444396450e+00 4.5974697360e-04 1.9218871494e+00 -3.3288061892e+00 1.9218871494e+00 3.3288061892e+00 
46700 6.7444396274e+00 4.5828227097e-04 1.9218751886e+00 -3.3287854725e+00 1.9218751886e+00 3.3287854725e+00 
46800 6.7444396120e+00 4.5606473281e-04 1.9218632658e+00 -3.3287648216e+00 1.9218632658e+00 3.3287648216e+00 
46900 6.7444395989e+00 4.5311743815e-04 1.9218514007e+00 -3.3287442706e+00 1.9218514007e+00 3.3287442706e+00 
47000 6.7444395883e+00 4.4946413582e-04 1.9218396121e+00 -3.3287238522e+00 1.9218396121e+00 3.3287238522e+00 
47100 6.7444395801e+00 4.4512918713e-04 1.9218279186e+00 -3.3287035983e+00 1.9218279186e+00 3.3287035983e+00 
47200 6.7444395746e+00 4.4013750882e-04 1.9218163377e+00 -3.3286835397e+00 1.9218163377e+00 3.3286835397e+00 
47300 6.7444395717e+00 4.3451451658e-04 1.9218048866e+00 -3.3286637059e+00 1.9218048866e+00 3.3286637059e+00 
47400 6.7444395714e+00 4.2828606897e-04 1.9217935818e+00 -3.3286441253e+00 1.9217935818e+00 3.3286441253e+00 
47500 6.7444395737e+00 4.2147841203e-04 1.9217824389e+00 -3.3286248253e+00 1.9217824389e+00 3.3286248253e+00 
47600 6.7444395787e+00 4.1411812460e-04 1.9217714731e+00 -3.3286058319e+00 1.9217714731e+00 3.3286058319e+00 
47700 6.7444395863e+00 4.0623206439e-04 1.9217606987e+00 -3.3285871702e+00 1.9217606987e+00 3.3285871702e+00 
47800 6.7444395965e+00 3.9784731484e-04 1.9217501295e+00 -3.3285688637e+00 1.9217501295e+00 3.3285688637e+00 
47900 6.7444396091e+00 3.8899113304e-04 1.9217397783e+00 -3.3285509350e+00 1.9217397783e+00 3.3285509350e+00 
48000 6.7444396240e+00 3.7969089854e-04 1.9217296575e+00 -3.3285334052e+00 1.9217296575e+00 3.3285334052e+00 
48100 6.7444396412e+00 3.6997406321e-04 1.9217197786e+00 -3.3285162945e+00 1.9217197786e+00 3.3285162945e+00 
48200 6.7444396606e+00 3.5986810229e-04 1.9217101525e+00 -3.3284996216e+00 1.9217101525e+00 3.3284996216e+00 
48300 6.7444396820e+00 3.4940046654e-04 1.9217007893e+00 -3.3284834040e+00 1.9217007893e+00 3.3284834040e+00 
48400 6.7444397052e+00 3.3859853568e-04 1.9216916984e+00 -3.3284676581e+00 1.9216916984e+00 3.3284676581e+00 
48500 6.7444397302e+00 3.2748957304e-04 1.9216828885e+00 -3.3284523989e+00 1.9216828885e+00 3.3284523989e+00 
48600 6.7444397568e+00 3.1610068161e-04 1.9216743676e+00 -3.3284376403e+00 1.9216743676e+00 3.3284376403e+00 
48700 6.7444397848e+00 3.0445876139e-04 1.9216661430e+00 -3.3284233948e+00 1.9216661430e+00 3.3284233948e+00 
48800 6.7444398140e+00 2.9259046820e-04 1.9216582212e+00 -3.3284096740e+00 1.9216582212e+00 3.3284096740e+00 
48900 6.7444398443e+00 2.8052217393e-04 1.9216506083e+00 -3.3283964879e+00 1.9216506083e+00 3.3283964879e+00 
49000 6.7444398756e+00 2.6827992819e-04 1.9216433093e+00 -3.3283838457e+00 1.9216433093e+00 3.3283838457e+00 
49100 6.7444399076e+00 2.5588942162e-04 1.9216363288e+00 -3.3283717552e+00 1.9216363288e+00 3.3283717552e+00 
49200 6.7444399402e+00 2.4337595056e-04 1.9216296707e+00 -3.3283602230e+00 1.9216296707e+00 3.3283602230e+00 
49300 6.7444399733e+00 2.3076438343e-04 1.9216233382e+00 -3.3283492547e+00 1.9216233382e+00 3.3283492547e+00 
49400 6.7444400066e+00 2.1807912855e-04 1.9216173338e+00 -3.3283388548e+00 1.9216173338e+00 3.3283388548e+00 
49500 6.7444400400e+00 2.0534410365e-04 1.9216116594e+00 -3.3283290265e+00 1.9216116594e+00 3.3283290265e+00 
49600 6.7444400734e+00 1.9258270696e-04 1.9216063164e+00 -3.3283197721e+00 1.9216063164e+00 3.3283197721e+00 
49700 6.7444401065e+00 1.7981778988e-04 1.9216013054e+00 -3.3283110929e+00 1.9216013054e+00 3.3283110929e+00 
49800 6.7444401394e+00 1.6707163132e-04 1.9215966266e+00 -3.3283029889e+00 1.9215966266e+00 3.3283029889e+00 
49900 6.7444401718e+00 1.5436591361e-04 1.9215922794e+00 -3.3282954593e+00 1.9215922794e+00 3.3282954593e+00 
50000 6.7444402037e+00 1.4172170009e-04 1.9215882627e+00 -3.3282885023e+00 1.9215882627e+00 3.3282885023e+00 
50100 6.7444402348e+00 1.2915941433e-04 1.9215845751e+00 -3.3282821151e+00 1.9215845751e+00 3.3282821151e+00 
50200 6.7444402652e+00 1.1669882086e-04 1.9215812144e+00 -3.3282762942e+00 1.9215812144e+00 3.3282762942e+00 
50300 6.7444402946e+00 1.0435900769e-04 1.9215781778e+00 -3.3282710347e+00 1.9215781778e+00 3.3282710347e+00 
50400 6.7444403231e+00 9.2158370265e-05 1.9215754624e+00 -3.3282663314e+00 1.9215754624e+00 3.3282663314e+00 
50500 6.7444403506e+00 8.0114597117e-05 1.9215730644e+00 -3.3282621780e+00 1.9215730644e+00 3.3282621780e+00 
50600 6.7444403769e+00 6.8244657055e-05 1.9215709798e+00 -3.3282585673e+00 1.9215709798e+00 3.3282585673e+00 
50700 6.7444404021e+00 5.8188863946e-05 1.9215709798e+00 -3.3282585673e+00 1.9215709798e+00 3.3282585673e+00 
50800 6.7444404260e+00 4.8069654372e-05 1.9215709798e+00 -3.3282585673e+00 1.9215709798e+00 3.3282585673e+00 
50900 6.7444404486e+00 3.7905528344e-05 1.9215709798e+00 -3.3282585673e+00 1.9215709798e+00 3.3282585673e+00 
51000 6.7444404699e+00 2.7714522379e-05 1.9215709798e+00 -3.3282585673e+00 1.9215709798e+00 3.3282585673e+00 
51100 6.7444404898e+00 1.7514192469e-05 1.9215709798e+00 -3.3282585673e+00 1.9215709798e+00 3.3282585673e+00 
51200 6.7444405084e+00 7.3215983448e-06 1.9215709798e+00 -3.3282585673e+00 1.9215709798e+00 3.3282585673e+00 
51300 6.7444405257e+00 -2.8467109696e-06 1.9215709798e+00 -3.3282585673e+00 1.9215709798e+00 3.3282585673e+00 
51400 6.7444405416e+00 -1.2974710327e-05 1.9215709798e+00 -3.3282585673e+00 1.9215709798e+00 3.3282585673e+00 
51500 6.7444405563e+00 -2.3046910366e-05 1.9215709798e+00 -3.3282585673e+00 1.9215709798e+00 3.3282585673e+00 
51600 6.7444405697e+00 -3.3048368169e-05 1.9215709798e+00 -3.3282585673e+00 1.9215709798e+00 3.3282585673e+00 
51700 6.7444405819e+00 -4.2964696701e-05 1.9215709798e+00 -3.3282585673e+00 1.9215709798e+00 3.3282585673e+00 
51800 6.7444405929e+00 -5.2782073012e-05 1.9215709798e+00 -3.3282585673e+00 1.9215709798e+00 3.3282585673e+00 
51900 6.7444406028e+00 -6.2487245277e-05 1.9215709798e+00 -3.3282585673e+00 1.9215709798e+00 3.3282585673e+00 
52000 6.7444406116e+00 -7.2067538643e-05 1.9215709798e+00 -3.3282585673e+00 1.9215709798e+00 3.3282585673e+00 
52100 6.7444406192e+00 -7.9796058036e-05 1.9215728550e+00 -3.3282618153e+00 1.9215728550e+00 3.3282618153e+00 
52200 6.7444406257e+00 -8.7182737738e-05 1.9215749313e+00 -3.3282654116e+00 1.9215749313e+00 3.3282654116e+00 
52300 6.7444406313e+00 -9.4223362816e-05 1.9215771999e+00 -3.3282693408e+00 1.9215771999e+00 3.3282693408e+00 
52400 6.7444406360e+00 -1.0091442790e-04 1.9215796516e+00 -3.3282735873e+00 1.9215796516e+00 3.3282735873e+00 
52500 6.7444406398e+00 -1.0725312544e-04 1.9215822774e+00 -3.3282781354e+00 1.9215822774e+00 3.3282781354e+00 
52600 6.7444406428e+00 -1.1323733307e-04 1.9215850682e+00 -3.3282829691e+00 1.9215850682e+00 3.3282829691e+00 
52700 6.7444406451e+00 -1.1886560012e-04 1.9215880146e+00 -3.3282880725e+00 1.9215880146e+00 3.3282880725e+00 
52800 6.7444406468e+00 -1.2413713323e-04 1.9215911075e+00 -3.3282934296e+00 1.9215911075e+00 3.3282934296e+00 
52900 6.7444406478e+00 -1.2905178127e-04 1.9215943376e+00 -3.3282990242e+00 1.9215943376e+00 3.3282990242e+00 
53000 6.7444406483e+00 -1.3361001949e-04 1.9215976955e+00 -3.3283048403e+00 1.9215976955e+00 3.3283048403e+00 
53100 6.7444406484e+00 -1.3781293297e-04 1.9216011720e+00 -3.3283108619e+00 1.9216011720e+00 3.3283108619e+00 
53200 6.7444406481e+00 -1.4166219946e-04 1.9216047579e+00 -3.3283170728e+00 1.9216047579e+00 3.3283170728e+00 
53300 6.7444406475e+00 -1.4516007158e-04 1.9216084440e+00 -3.3283234572e+00 1.9216084440e+00 3.3283234572e+00 
53400 6.7444406466e+00 -1.4830935852e-04 1.9216122210e+00 -3.3283299993e+00 1.9216122210e+00 3.3283299993e+00 
53500 6.7444406455e+00 -1.5111340719e-04 1.9216160800e+00 -3.3283366832e+00 1.9216160800e+00 3.3283366832e+00 
53600 6.7444406443e+00 -1.5357608291e-04 1.9216200119e+00 -3.3283434935e+00 1.9216200119e+00 3.3283434935e+00 
53700 6.7444406429e+00 -1.5570174970e-04 1.9216240079e+00 -3.3283504148e+00 1.9216240079e+00 3.3283504148e+00 
53800 6.7444406416e+00 -1.5749525021e-04 1.9216280593e+00 -3.3283574319e+00 1.9216280593e+00 3.3283574319e+00 
53900 6.7444406403e+00 -1.5896188527e-04 1.9216321572e+00 -3.3283645298e+00 1.9216321572e+00 3.3283645298e+00 
54000 6.7444406390e+00 -1.6010739323e-04 1.9216362933e+00 -3.3283716937e+00 1.9216362933e+00 3.3283716937e+00 
54100 6.7444406378e+00 -1.6093792893e-04 1.9216404593e+00 -3.3283789093e+00 1.9216404593e+00 3.3283789093e+00 
54200 6.7444406368e+00 -1.6146004265e-04 1.9216446468e+00 -3.3283861623e+00 1.9216446468e+00 3.3283861623e+00 
54300 6.7444406360e+00 -1.6168065871e-04 1.9216488479e+00 -3.3283934388e+00 1.9216488479e+00 3.3283934388e+00 
54400 6.7444406354e+00 -1.6160705409e-04 1.9216530547e+00 -3.3284007252e+00 1.9216530547e+00 3.3284007252e+00 
54500 6.7444406351e+00 -1.6124683691e-04 1.9216572596e+00 -3.3284080083e+00 1.9216572596e+00 3.3284080083e+00 
54600 6.7444406350e+00 -1.6060792486e-04 1.9216614551e+00 -3.3284152752e+00 1.9216614551e+00 3.3284152752e+00 
54700 6.7444406352e+00 -1.5969852368e-04 1.9216656340e+00 -3.3284225132e+00 1.9216656340e+00 3.3284225132e+00 
54800 6.7444406358e+00 -1.5852710558e-04 1.9216697892e+00 -3.3284297103e+00 1.9216697892e+00 3.3284297103e+00 
54900 6.7444406367e+00 -1.5710238789e-04 1.9216739139e+00 -3.3284368545e+00 1.9216739139e+00 3.3284368545e+00 
55000 6.7444406379e+00 -1.5543331162e-04 1.9216780016e+00 -3.3284439345e+00 1.9216780016e+00 3.3284439345e+00 
55100 6.7444406394e+00 -1.5352902030e-04 1.9216820458e+00 -3.3284509393e+00 1.9216820458e+00 3.3284509393e+00 
55200 6.7444406413e+00 -1.5139883899e-04 1.9216860404e+00 -3.3284578582e+00 1.9216860404e+00 3.3284578582e+00 
55300 6.7444406436e+00 -1.4905225339e-04 1.9216899796e+00 -3.3284646811e+00 1.9216899796e+00 3.3284646811e+00 
55400 6.7444406462e+00 -1.4649888933e-04 1.9216938578e+00 -3.3284713983e+00 1.9216938578e+00 3.3284713983e+00 
55500 6.7444406492e+00 -1.4374849239e-04 1.9216976695e+00 -3.3284780004e+00 1.9216976695e+00 3.3284780004e+00 
55600 6.7444406525e+00 -1.4081090792e-04 1.9217014097e+00 -3.3284844785e+00 1.9217014097e+00 3.3284844785e+00 
55700 6.7444406561e+00 -1.3769606135e-04 1.9217050734e+00 -3.3284908242e+00 1.9217050734e+00 3.3284908242e+00 
55800 6.7444406600e+00 -1.3441393880e-04 1.9217086560e+00 -3.3284970296e+00 1.9217086560e+00 3.3284970296e+00 
55900 6.7444406642e+00 -1.3097456815e-04 1.9217121533e+00 -3.3285030870e+00 1.9217121533e+00 3.3285030870e+00 
56000 6.7444406688e+00 -1.2738800046e-04 1.9217155610e+00 -3.3285089894e+00 1.9217155610e+00 3.3285089894e+00 
56100 6.7444406736e+00 -1.2366429179e-04 1.9217188755e+00 -3.3285147302e+00 1.9217188755e+00 3.3285147302e+00 
56200 6.7444406786e+00 -1.1981348552e-04 1.9217220930e+00 -3.3285203031e+00 1.9217220930e+00 3.3285203031e+00 
56300 6.7444406839e+00 -1.1584559508e-04 1.9217252104e+00 -3.3285257025e+00 1.9217252104e+00 3.3285257025e+00 
56400 6.7444406893e+00 -1.1177058720e-04 1.9217282245e+00 -3.3285309231e+00 1.9217282245e+00 3.3285309231e+00 
56500 6.7444406950e+00 -1.0759836561e-04 1.9217311325e+00 -3.3285359600e+00 1.9217311325e+00 3.3285359600e+00 
56600 6.7444407008e+00 -1.0333875530e-04 1.9217339321e+00 -3.3285408090e+00 1.9217339321e+00 3.3285408090e+00 
56700 6.7444407067e+00 -9.9001487313e-05 1.9217366207e+00 -3.3285454659e+00 1.9217366207e+00 3.3285454659e+00 
56800 6.7444407128e+00 -9.4596184010e-05 1.9217391966e+00 -3.3285499274e+00 1.9217391966e+00 3.3285499274e+00 
56900 6.7444407190e+00 -9.0132344975e-05 1.9217416578e+00 -3.3285541903e+00 1.9217416578e+00 3.3285541903e+00 
57000 6.7444407252e+00 -8.5619333435e-05 1.9217440029e+00 -3.3285582521e+00 1.9217440029e+00 3.3285582521e+00 
57100 6.7444407314e+00 -8.1066363267e-05 1.9217462305e+00 -3.3285621105e+00 1.9217462305e+00 3.3285621105e+00 
57200 6.7444407377e+00 -7.6482486596e-05 1.9217483397e+00 -3.3285657637e+00 1.9217483397e+00 3.3285657637e+00 
57300 6.7444407440e+00 -7.1876581977e-05 1.9217503296e+00 -3.3285692104e+00 1.9217503296e+00 3.3285692104e+00 
57400 6.7444407503e+00 -6.7257343164e-05 1.9217521997e+00 -3.3285724494e+00 1.9217521997e+00 3.3285724494e+00 
57500 6.7444407566e+00 -6.4232895153e-05 1.9217521997e+00 -3.3285724494e+00 1.9217521997e+00 3.3285724494e+00 
57600 6.7444407628e+00 -6.1110804771e-05 1.9217521997e+00 -3.3285724494e+00 1.9217521997e+00 3.3285724494e+00 
57700 6.7444407689e+00 -5.7899009993e-05 1.9217521997e+00 -3.3285724494e+00 1.9217521997e+00 3.3285724494e+00 
57800 6.7444407749e+00 -5.4605372200e-05 1.9217521997e+00 -3.3285724494e+00 1.9217521997e+00 3.3285724494e+00 
57900 6.7444407808e+00 -5.1237664947e-05 1.9217521997e+00 -3.3285724494e+00 1.9217521997e+00 3.3285724494e+00 
58000 6.7444407865e+00 -4.7803563186e-05 1.9217521997e+00 -3.3285724494e+00 1.9217521997e+00 3.3285724494e+00 
58100 6.7444407921e+00 -4.4310632975e-05 1.9217521997e+00 -3.3285724494e+00 1.9217521997e+00 3.3285724494e+00 
58200 6.7444407974e+00 -4.0766321659e-05 1.9217521997e+00 -3.3285724494e+00 1.9217521997e+00 3.3285724494e+00 
58300 6.7444408026e+00 -3.7177948547e-05 1.9217521997e+00 -3.3285724494e+00 1.9217521997e+00 3.3285724494e+00 
58400 6.7444408076e+00 -3.3552696061e-05 1.9217521997e+00 -3.3285724494e+00 1.9217521997e+00 3.3285724494e+00 
58500 6.7444408124e+00 -2.9897601376e-05 1.9217521997e+00 -3.3285724494e+00 1.9217521997e+00 3.3285724494e+00 
58600 6.7444408170e+00 -2.6219548559e-05 1.9217521997e+00 -3.3285724494e+00 1.9217521997e+00 3.3285724494e+00 
58700 6.7444408214e+00 -2.2525261179e-05 1.9217521997e+00 -3.3285724494e+00 1.9217521997e+00 3.3285724494e+00 
58800 6.7444408256e+00 -1.8821295414e-05 1.9217521997e+00 -3.3285724494e+00 1.9217521997e+00 3.3285724494e+00 
58900 6.7444408296e+00 -1.5114033644e-05 1.9217521997e+00 -3.3285724494e+00 1.9217521997e+00 3.3285724494e+00 
59000 6.7444408334e+00 -1.1409678519e-05 1.9217521997e+00 -3.3285724494e+00 1.9217521997e+00 3.3285724494e+00 
59100 6.7444408370e+00 -7.7142475125e-06 1.9217521997e+00 -3.3285724494e+00 1.9217521997e+00 3.3285724494e+00 
59200 6.7444408403e+00 -4.0335679474e-06 1.9217521997e+00 -3.3285724494e+00 1.9217521997e+00 3.3285724494e+00 
59300 6.7444408435e+00 -3.7327248917e-07 1.9217521997e+00 -3.3285724494e+00 1.9217521997e+00 3.3285724494e+00 
59400 6.7444408465e+00 3.2612048952e-06 1.9217521997e+00 -3.3285724494e+00 1.9217521997e+00 3.3285724494e+00 
59500 6.7444408493e+00 6.8646325139e-06 1.9217521997e+00 -3.3285724494e+00 1.9217521997e+00 3.3285724494e+00 
59600 6.7444408519e+00 1.0431984089e-05 1.9217521997e+00 -3.3285724494e+00 1.9217521997e+00 3.3285724494e+00 
59700 6.7444408544e+00 1.3958441442e-05 1.9217521997e+00 -3.3285724494e+00 1.9217521997e+00 3.3285724494e+00 
59800 6.7444408566e+00 1.7439396737e-05 1.9217521997e+00 -3.3285724494e+00 1.9217521997e+00 3.3285724494e+00 
59900 6.7444408587e+00 2.0870454325e-05 1.9217521997e+00 -3.3285724494e+00 1.9217521997e+00 3.3285724494e+00 
60000 6.7444408607e+00 2.4247432137e-05 1.9217521997e+00 -3.3285724494e+00 1.9217521997e+00 3.3285724494e+00 
60100 6.7444408625e+00 2.7566362686e-05 1.9217521997e+00 -3.3285724494e+00 1.9217521997e+00 3.3285724494e+00 
60200 6.7444408642e+00 3.0823493669e-05 1.9217521997e+00 -3.3285724494e+00 1.9217521997e+00 3.3285724494e+00 
60300 6.7444408658e+00 3.4015288173e-05 1.9217521997e+00 -3.3285724494e+00 1.9217521997e+00 3.3285724494e+00 
60400 6.7444408672e+00 3.7138424527e-05 1.9217521997e+00 -3.3285724494e+00 1.9217521997e+00 3.3285724494e+00 
60500 6.7444408686e+00 4.0189795745e-05 1.9217521997e+00 -3.3285724494e+00 1.9217521997e+00 3.3285724494e+00 
60600 6.7444408698e+00 4.3166508659e-05 1.9217521997e+00 -3.3285724494e+00 1.9217521997e+00 3.3285724494e+00 
60700 6.7444408710e+00 4.6065882690e-05 1.9217521997e+00 -3.3285724494e+00 1.9217521997e+00 3.3285724494e+00 
60800 6.7444408721e+00 4.8885448272e-05 1.9217521997e+00 -3.3285724494e+00 1.9217521997e+00 3.3285724494e+00 
60900 6.7444408731e+00 5.1622944985e-05 1.9217521997e+00 -3.3285724494e+00 1.9217521997e+00 3.3285724494e+00 
61000 6.7444408740e+00 5.4276319371e-05 1.9217521997e+00 -3.3285724494e+00 1.9217521997e+00 3.3285724494e+00 
61100 6.7444408749e+00 5.6843722439e-05 1.9217521997e+00 -3.3285724494e+00 1.9217521997e+00 3.3285724494e+00 
61200 6.7444408758e+00 5.9323506919e-05 1.9217521997e+00 -3.3285724494e+00 1.9217521997e+00 3.3285724494e+00 
61300 6.7444408766e+00 6.1714224224e-05 1.9217521997e+00 -3.3285724494e+00 1.9217521997e+00 3.3285724494e+00 
61400 6.7444408774e+00 6.4014621168e-05 1.9217521997e+00 -3.3285724494e+00 1.9217521997e+00 3.3285724494e+00 
61500 6.7444408782e+00 6.6223636436e-05 1.9217521997e+00 -3.3285724494e+00 1.9217521997e+00 3.3285724494e+00 
61600 6.7444408789e+00 6.8340396828e-05 1.9217521997e+00 -3.3285724494e+00 1.9217521997e+00 3.3285724494e+00 
61700 6.7444408797e+00 7.0364213286e-05 1.9217521997e+00 -3.3285724494e+00 1.9217521997e+00 3.3285724494e+00 
61800 6.7444408804e+00 7.2294576716e-05 1.9217521997e+00 -3.3285724494e+00 1.9217521997e+00 3.3285724494e+00 
61900 6.7444408810e+00 7.2411509448e-05 1.9217503187e+00 -3.3285691915e+00 1.9217503187e+00 3.3285691915e+00 
62000 6.7444408816e+00 7.2422162115e-05 1.9217484347e+00 -3.3285659283e+00 1.9217484347e+00 3.3285659283e+00 
62100 6.7444408822e+00 7.2328635576e-05 1.9217465505e+00 -3.3285626647e+00 1.9217465505e+00 3.3285626647e+00 
62200 6.7444408828e+00 7.2133175754e-05 1.9217446686e+00 -3.3285594052e+00 1.9217446686e+00 3.3285594052e+00 
62300 6.7444408834e+00 7.1838165683e-05 1.9217427919e+00 -3.3285561546e+00 1.9217427919e+00 3.3285561546e+00 
62400 6.7444408841e+00 7.1446117517e-05 1.9217409228e+00 -3.3285529172e+00 1.9217409228e+00 3.3285529172e+00 
62500 6.7444408848e+00 7.0959664519e-05 1.9217390639e+00 -3.3285496975e+00 1.9217390639e+00 3.3285496975e+00 
62600 6.7444408855e+00 7.0381553061e-05 1.9217372176e+00 -3.3285464997e+00 1.9217372176e+00 3.3285464997e+00 
62700 6.7444408863e+00 7.1388831887e-05 1.9217372176e+00 -3.3285464997e+00 1.9217372176e+00 3.3285464997e+00 
62800 6.7444408871e+00 7.0605524172e-05 1.9217353602e+00 -3.3285432826e+00 1.9217353602e+00 3.3285432826e+00 
62900 6.7444408880e+00 7.1419837154e-05 1.9217353602e+00 -3.3285432826e+00 1.9217353602e+00 3.3285432826e+00 
63000 6.7444408888e+00 7.0445151927e-05 1.9217335020e+00 -3.3285400641e+00 1.9217335020e+00 3.3285400641e+00 
63100 6.7444408898e+00 7.1071410809e-05 1.9217335020e+00 -3.3285400641e+00 1.9217335020e+00 3.3285400641e+00 
63200 6.7444408907e+00 6.9919777483e-05 1.9217316529e+00 -3.3285368613e+00 1.9217316529e+00 3.3285368613e+00 
63300 6.7444408918e+00 7.0363903216e-05 1.9217316529e+00 -3.3285368613e+00 1.9217316529e+00 3.3285368613e+00 
63400 6.7444408929e+00 7.0724025431e-05 1.9217316529e+00 -3.3285368613e+00 1.9217316529e+00 3.3285368613e+00 
63500 6.7444408939e+00 6.9319780522e-05 1.9217298128e+00 -3.3285336741e+00 1.9217298128e+00 3.3285336741e+00 
63600 6.7444408950e+00 6.9508634809e-05 1.9217298128e+00 -3.3285336741e+00 1.9217298128e+00 3.3285336741e+00 
63700 6.7444408962e+00 6.9619310783e-05 1.9217298128e+00 -3.3285336741e+00 1.9217298128e+00 3.3285336741e+00 
63800 6.7444408974e+00 6.9654056325e-05 1.9217298128e+00 -3.3285336741e+00 1.9217298128e+00 3.3285336741e+00 
63900 6.7444408987e+00 6.9615184950e-05 1.9217298128e+00 -3.3285336741e+00 1.9217298128e+00 3.3285336741e+00 
64000 6.7444408999e+00 6.9505069911e-05 1.9217298128e+00 -3.3285336741e+00 1.9217298128e+00 3.3285336741e+00 
64100 6.7444409012e+00 6.9326138380e-05 1.9217298128e+00 -3.3285336741e+00 1.9217298128e+00 3.3285336741e+00 
64200 6.7444409025e+00 6.9080865692e-05 1.9217298128e+00 -3.3285336741e+00 1.9217298128e+00 3.3285336741e+00 
64300 6.7444409038e+00 6.8771769682e-05 1.9217298128e+00 -3.3285336741e+00 1.9217298128e+00 3.3285336741e+00 
64400 6.7444409051e+00 6.8401405088e-05 1.9217298128e+00 -3.3285336741e+00 1.9217298128e+00 3.3285336741e+00 
64500 6.7444409064e+00 6.7972358079e-05 1.9217298128e+00 -3.3285336741e+00 1.9217298128e+00 3.3285336741e+00 
64600 6.7444409077e+00 6.7487240866e-05 1.9217298128e+00 -3.3285336741e+00 1.9217298128e+00 3.3285336741e+00 
64700 6.7444409090e+00 6.6948686425e-05 1.9217298128e+00 -3.3285336741e+00 1.9217298128e+00 3.3285336741e+00 
64800 6.7444409104e+00 6.6359343338e-05 1.9217298128e+00 -3.3285336741e+00 1.9217298128e+00 3.3285336741e+00 
64900 6.7444409117e+00 6.5721870754e-05 1.9217298128e+00 -3.3285336741e+00 1.9217298128e+00 3.3285336741e+00 
65000 6.7444409130e+00 6.5038933480e-05 1.9217298128e+00 -3.3285336741e+00 1.9217298128e+00 3.3285336741e+00 
65100 6.7444409143e+00 6.4313197192e-05 1.9217298128e+00 -3.3285336741e+00 1.9217298128e+00 3.3285336741e+00 
65200 6.7444409156e+00 6.3547323797e-05 1.9217298128e+00 -3.3285336741e+00 1.9217298128e+00 3.3285336741e+00 
65300 6.7444409168e+00 6.2743966918e-05 1.9217298128e+00 -3.3285336741e+00 1.9217298128e+00 3.3285336741e+00 
65400 6.7444409181e+00 6.1905767533e-05 1.9217298128e+00 -3.3285336741e+00 1.9217298128e+00 3.3285336741e+00 
65500 6.7444409193e+00 6.1035349771e-05 1.9217298128e+00 -3.3285336741e+00 1.9217298128e+00 3.3285336741e+00 
65600 6.7444409206e+00 6.0135316829e-05 1.9217298128e+00 -3.3285336741e+00 1.9217298128e+00 3.3285336741e+00 
65700 6.7444409218e+00 5.9208247073e-05 1.9217298128e+00 -3.3285336741e+00 1.9217298128e+00 3.3285336741e+00 
65800 6.7444409229e+00 5.8256690277e-05 1.9217298128e+00 -3.3285336741e+00 1.9217298128e+00 3.3285336741e+00 
65900 6.7444409241e+00 5.7283164017e-05 1.9217298128e+00 -3.3285336741e+00 1.9217298128e+00 3.3285336741e+00 
66000 6.7444409252e+00 5.6290150245e-05 1.9217298128e+00 -3.3285336741e+00 1.9217298128e+00 3.3285336741e+00 
66100 6.7444409263e+00 5.5280091999e-05 1.9217298128e+00 -3.3285336741e+00 1.9217298128e+00 3.3285336741e+00 
66200 6.7444409274e+00 5.4255390290e-05 1.9217298128e+00 -3.3285336741e+00 1.9217298128e+00 3.3285336741e+00 
66300 6.7444409284e+00 5.3218401145e-05 1.9217298128e+00 -3.3285336741e+00 1.9217298128e+00 3.3285336741e+00 
66400 6.7444409294e+00 5.2171432817e-05 1.9217298128e+00 -3.3285336741e+00 1.9217298128e+00 3.3285336741e+00 
66500 6.7444409304e+00 5.1116743154e-05 1.9217298128e+00 -3.3285336741e+00 1.9217298128e+00 3.3285336741e+00 
66600 6.7444409314e+00 5.0056537138e-05 1.9217298128e+00 -3.3285336741e+00 1.9217298128e+00 3.3285336741e+00 
66700 6.7444409323e+00 4.8992964578e-05 1.9217298128e+00 -3.3285336741e+00 1.9217298128e+00 3.3285336741e+00 
66800 6.7444409332e+00 4.7928117970e-05 1.9217298128e+00 -3.3285336741e+00 1.9217298128e+00 3.3285336741e+00 
66900 6.7444409341e+00 4.6864030521e-05 1.9217298128e+00 -3.3285336741e+00 1.9217298128e+00 3.3285336741e+00 
67000 6.7444409349e+00 4.5802674323e-05 1.9217298128e+00 -3.3285336741e+00 1.9217298128e+00 3.3285336741e+00 
67100 6.7444409357e+00 4.4745958701e-05 1.9217298128e+00 -3.3285336741e+00 1.9217298128e+00 3.3285336741e+00 
67200 6.7444409365e+00 4.3695728701e-05 1.9217298128e+00 -3.3285336741e+00 1.9217298128e+00 3.3285336741e+00 
67300 6.7444409373e+00 4.2653763743e-05 1.9217298128e+00 -3.3285336741e+00 1.9217298128e+00 3.3285336741e+00 
67400 6.7444409380e+00 4.1621776423e-05 1.9217298128e+00 -3.3285336741e+00 1.9217298128e+00 3.3285336741e+00 
67500 6.7444409387e+00 4.0601411475e-05 1.9217298128e+00 -3.3285336741e+00 1.9217298128e+00 3.3285336741e+00 
67600 6.7444409394e+00 3.9594244861e-05 1.9217298128e+00 -3.3285336741e+00 1.9217298128e+00 3.3285336741e+00 
67700 6.7444409400e+00 3.8601783029e-05 1.9217298128e+00 -3.3285336741e+00 1.9217298128e+00 3.3285336741e+00 
67800 6.7444409407e+00 3.7625462298e-05 1.9217298128e+00 -3.3285336741e+00 1.9217298128e+00 3.3285336741e+00 
67900 6.7444409413e+00 3.6666648387e-05 1.9217298128e+00 -3.3285336741e+00 1.9217298128e+00 3.3285336741e+00 
68000 6.7444409419e+00 3.5726636083e-05 1.9217298128e+00 -3.3285336741e+00 1.9217298128e+00 3.3285336741e+00 
68100 6.7444409424e+00 3.4806649041e-05 1.9217298128e+00 -3.3285336741e+00 1.9217298128e+00 3.3285336741e+00 
68200 6.7444409430e+00 3.3907839705e-05 1.9217298128e+00 -3.3285336741e+00 1.9217298128e+00 3.3285336741e+00 
68300 6.7444409435e+00 3.3031289370e-05 1.9217298128e+00 -3.3285336741e+00 1.9217298128e+00 3.3285336741e+00 
68400 6.7444409440e+00 3.2178008351e-05 1.9217298128e+00 -3.3285336741e+00 1.9217298128e+00 3.3285336741e+00 
68500 6.7444409445e+00 3.1348936285e-05 1.9217298128e+00 -3.3285336741e+00 1.9217298128e+00 3.3285336741e+00 
68600 6.7444409450e+00 3.0544942535e-05 1.9217298128e+00 -3.3285336741e+00 1.9217298128e+00 3.3285336741e+00 
68700 6.7444409455e+00 2.9766826707e-05 1.9217298128e+00 -3.3285336741e+00 1.9217298128e+00 3.3285336741e+00 
68800 6.7444409460e+00 2.9015319276e-05 1.9217298128e+00 -3.3285336741e+00 1.9217298128e+00 3.3285336741e+00 
68900 6.7444409464e+00 2.8291082322e-05 1.9217298128e+00 -3.3285336741e+00 1.9217298128e+00 3.3285336741e+00 
69000 6.7444409468e+00 2.7594710344e-05 1.9217298128e+00 -3.3285336741e+00 1.9217298128e+00 3.3285336741e+00 
69100 6.7444409473e+00 2.6926731187e-05 1.9217298128e+00 -3.3285336741e+00 1.9217298128e+00 3.3285336741e+00 
69200 6.7444409477e+00 2.6287607044e-05 1.9217298128e+00 -3.3285336741e+00 1.9217298128e+00 3.3285336741e+00 
69300 6.7444409481e+00 2.5677735560e-05 1.9217298128e+00 -3.3285336741e+00 1.9217298128e+00 3.3285336741e+00 
69400 6.7444409485e+00 2.5097450991e-05 1.9217298128e+00 -3.3285336741e+00 1.9217298128e+00 3.3285336741e+00 
69500 6.7444409489e+00 2.4547025472e-05 1.9217298128e+00 -3.3285336741e+00 1.9217298128e+00 3.3285336741e+00 
69600 6.7444409493e+00 2.4026670330e-05 1.9217298128e+00 -3.3285336741e+00 1.9217298128e+00 3.3285336741e+00 
69700 6.7444409497e+00 2.3536537470e-05 1.9217298128e+00 -3.3285336741e+00 1.9217298128e+00 3.3285336741e+00 
69800 6.7444409501e+00 2.3076720841e-05 1.9217298128e+00 -3.3285336741e+00 1.9217298128e+00 3.3285336741e+00 
69900 6.7444409505e+00 2.2647257939e-05 1.9217298128e+00 -3.3285336741e+00 1.9217298128e+00 3.3285336741e+00 
70000 6.7444409508e+00 2.2248131377e-05 1.9217298128e+00 -3.3285336741e+00 1.9217298128e+00 3.3285336741e+00 
70100 6.7444409512e+00 2.1879270507e-05 1.9217298128e+00 -3.3285336741e+00 1.9217298128e+00 3.3285336741e+00 
70200 6.7444409516e+00 2.1540553073e-05 1.9217298128e+00 -3.3285336741e+00 1.9217298128e+00 3.3285336741e+00 
70300 6.7444409520e+00 2.1231806922e-05 1.9217298128e+00 -3.3285336741e+00 1.9217298128e+00 3.3285336741e+00 
70400 6.7444409523e+00 2.0952811754e-05 1.9217298128e+00 -3.3285336741e+00 1.9217298128e+00 3.3285336741e+00 
70500 6.7444409527e+00 2.0703300884e-05 1.9217298128e+00 -3.3285336741e+00 1.9217298128e+00 3.3285336741e+00 
70600 6.7444409531e+00 2.0482963060e-05 1.9217298128e+00 -3.3285336741e+00 1.9217298128e+00 3.3285336741e+00 
70700 6.7444409534e+00 2.0291444285e-05 1.9217298128e+00 -3.3285336741e+00 1.9217298128e+00 3.3285336741e+00 
70800 6.7444409538e+00 2.0128349679e-05 1.9217298128e+00 -3.3285336741e+00 1.9217298128e+00 3.3285336741e+00 
70900 6.7444409542e+00 1.9993245342e-05 1.9217298128e+00 -3.3285336741e+00 1.9217298128e+00 3.3285336741e+00 
71000 6.7444409546e+00 1.9885660240e-05 1.9217298128e+00 -3.3285336741e+00 1.9217298128e+00 3.3285336741e+00 
71100 6.7444409549e+00 1.9805088104e-05 1.9217298128e+00 -3.3285336741e+00 1.9217298128e+00 3.3285336741e+00 
71200 6.7444409553e+00 1.9750989324e-05 1.9217298128e+00 -3.3285336741e+00 1.9217298128e+00 3.3285336741e+00 
71300 6.7444409557e+00 1.9722792859e-05 1.9217298128e+00 -3.3285336741e+00 1.9217298128e+00 3.3285336741e+00 
71400 6.7444409560e+00 1.9719898143e-05 1.9217298128e+00 -3.3285336741e+00 1.9217298128e+00 3.3285336741e+00 
71500 6.7444409564e+00 1.9741676982e-05 1.9217298128e+00 -3.3285336741e+00 1.9217298128e+00 3.3285336741e+00 
71600 6.7444409568e+00 1.9787475446e-05 1.9217298128e+00 -3.3285336741e+00 1.9217298128e+00 3.3285336741e+00 
71700 6.7444409571e+00 1.9856615759e-05 1.9217298128e+00 -3.3285336741e+00 1.9217298128e+00 3.3285336741e+00 
71800 6.7444409575e+00 1.9948398166e-05 1.9217298128e+00 -3.3285336741e+00 1.9217298128e+00 3.3285336741e+00 
71900 6.7444409579e+00 2.0062102792e-05 1.9217298128e+00 -3.3285336741e+00 1.9217298128e+00 3.3285336741e+00 
72000 6.7444409582e+00 2.0196991475e-05 1.9217298128e+00 -3.3285336741e+00 1.9217298128e+00 3.3285336741e+00 
72100 6.7444409586e+00 2.0352309583e-05 1.9217298128e+00 -3.3285336741e+00 1.9217298128e+00 3.3285336741e+00 
72200 6.7444409589e+00 2.0527287813e-05 1.9217298128e+00 -3.3285336741e+00 1.9217298128e+00 3.3285336741e+00 
72300 6.7444409593e+00 2.0721143947e-05 1.9217298128e+00 -3.3285336741e+00 1.9217298128e+00 3.3285336741e+00 
72400 6.7444409596e+00 2.0933084598e-05 1.9217298128e+00 -3.3285336741e+00 1.9217298128e+00 3.3285336741e+00 
72500 6.7444409600e+00 2.1162306910e-05 1.9217298128e+00 -3.3285336741e+00 1.9217298128e+00 3.3285336741e+00 
72600 6.7444409603e+00 2.1408000236e-05 1.9217298128e+00 -3.3285336741e+00 1.9217298128e+00 3.3285336741e+00 
72700 6.7444409607e+00 2.1669347781e-05 1.9217298128e+00 -3.3285336741e+00 1.9217298128e+00 3.3285336741e+00 
72800 6.7444409610e+00 2.1945528198e-05 1.9217298128e+00 -3.3285336741e+00 1.9217298128e+00 3.3285336741e+00 
72900 6.7444409614e+00 2.2235717159e-05 1.9217298128e+00 -3.3285336741e+00 1.9217298128e+00 3.3285336741e+00 
73000 6.7444409617e+00 2.2539088872e-05 1.9217298128e+00 -3.3285336741e+00 1.9217298128e+00 3.3285336741e+00 
73100 6.7444409620e+00 2.2854817575e-05 1.9217298128e+00 -3.3285336741e+00 1.9217298128e+00 3.3285336741e+00 
73200 6.7444409624e+00 2.3182078969e-05 1.9217298128e+00 -3.3285336741e+00 1.9217298128e+00 3.3285336741e+00 
73300 6.7444409627e+00 2.3520051615e-05 1.9217298128e+00 -3.3285336741e+00 1.9217298128e+00 3.3285336741e+00 
73400 6.7444409630e+00 2.3867918290e-05 1.9217298128e+00 -3.3285336741e+00 1.9217298128e+00 3.3285336741e+00 
73500 6.7444409633e+00 2.4224867284e-05 1.9217298128e+00 -3.3285336741e+00 1.9217298128e+00 3.3285336741e+00 
73600 6.7444409636e+00 2.4590093670e-05 1.9217298128e+00 -3.3285336741e+00 1.9217298128e+00 3.3285336741e+00 
73700 6.7444409640e+00 2.4962800498e-05 1.9217298128e+00 -3.3285336741e+00 1.9217298128e+00 3.3285336741e+00 
73800 6.7444409643e+00 2.5342199971e-05 1.9217298128e+00 -3.3285336741e+00 1.9217298128e+00 3.3285336741e+00 
73900 6.7444409646e+00 2.5727514548e-05 1.9217298128e+00 -3.3285336741e+00 1.9217298128e+00 3.3285336741e+00 
74000 6.7444409648e+00 2.6117978008e-05 1.9217298128e+00 -3.3285336741e+00 1.9217298128e+00 3.3285336741e+00 
74100 6.7444409651e+00 2.6512836466e-05 1.9217298128e+00 -3.3285336741e+00 1.9217298128e+00 3.3285336741e+00 
74200 6.7444409654e+00 2.6911349318e-05 1.9217298128e+00 -3.3285336741e+00 1.9217298128e+00 3.3285336741e+00 
74300 6.7444409657e+00 2.7312790174e-05 1.9217298128e+00 -3.3285336741e+00 1.9217298128e+00 3.3285336741e+00 
74400 6.7444409660e+00 2.7716447702e-05 1.9217298128e+00 -3.3285336741e+00 1.9217298128e+00 3.3285336741e+00 
74500 6.7444409662e+00 2.8121626439e-05 1.9217298128e+00 -3.3285336741e+00 1.9217298128e+00 3.3285336741e+00 
74600 6.7444409665e+00 2.8527647549e-05 1.9217298128e+00 -3.3285336741e+00 1.9217298128e+00 3.3285336741e+00 
74700 6.7444409667e+00 2.8933849533e-05 1.9217298128e+00 -3.3285336741e+00 1.9217298128e+00 3.3285336741e+00 
74800 6.7444409670e+00 2.9339588877e-05 1.9217298128e+00 -3.3285336741e+00 1.9217298128e+00 3.3285336741e+00 
74900 6.7444409672e+00 2.9744240674e-05 1.9217298128e+00 -3.3285336741e+00 1.9217298128e+00 3.3285336741e+00 
75000 6.7444409675e+00 3.0147199155e-05 1.9217298128e+00 -3.3285336741e+00 1.9217298128e+00 3.3285336741e+00 
75100 6.7444409677e+00 3.0547878217e-05 1.9217298128e+00 -3.3285336741e+00 1.9217298128e+00 3.3285336741e+00 
75200 6.7444409680e+00 3.0945711877e-05 1.9217298128e+00 -3.3285336741e+00 1.9217298128e+00 3.3285336741e+00 
75300 6.7444409682e+00 3.1340154675e-05 1.9217298128e+00 -3.3285336741e+00 1.9217298128e+00 3.3285336741e+00 
75400 6.7444409684e+00 3.1730682041e-05 1.9217298128e+00 -3.3285336741e+00 1.9217298128e+00 3.3285336741e+00 
75500 6.7444409686e+00 3.2116790609e-05 1.9217298128e+00 -3.3285336741e+00 1.9217298128e+00 3.3285336741e+00 
75600 6.7444409688e+00 3.2497998492e-05 1.9217298128e+00 -3.3285336741e+00 1.9217298128e+00 3.3285336741e+00 
75700 6.7444409690e+00 3.2873845497e-05 1.9217298128e+00 -3.3285336741e+00 1.9217298128e+00 3.3285336741e+00 
75800 6.7444409692e+00 3.3243893312e-05 1.9217298128e+00 -3.3285336741e+00 1.9217298128e+00 3.3285336741e+00 
75900 6.7444409694e+00 3.3607725642e-05 1.9217298128e+00 -3.3285336741e+00 1.9217298128e+00 3.3285336741e+00 
76000 6.7444409696e+00 3.3964948306e-05 1.9217298128e+00 -3.3285336741e+00 1.9217298128e+00 3.3285336741e+00 
76100 6.7444409698e+00 3.4315189285e-05 1.9217298128e+00 -3.3285336741e+00 1.9217298128e+00 3.3285336741e+00 
76200 6.7444409700e+00 3.4658098741e-05 1.9217298128e+00 -3.3285336741e+00 1.9217298128e+00 3.3285336741e+00 
76300 6.7444409702e+00 3.4993348991e-05 1.9217298128e+00 -3.3285336741e+00 1.9217298128e+00 3.3285336741e+00 
76400 6.7444409704e+00 3.5320634439e-05 1.9217298128e+00 -3.3285336741e+00 1.9217298128e+00 3.3285336741e+00 
76500 6.7444409706e+00 3.5639671483e-05 1.9217298128e+00 -3.3285336741e+00 1.9217298128e+00 3.3285336741e+00 
76600 6.7444409708e+00 3.5950198376e-05 1.9217298128e+00 -3.3285336741e+00 1.9217298128e+00 3.3285336741e+00 
76700 6.7444409709e+00 3.6251975059e-05 1.9217298128e+00 -3.3285336741e+00 1.9217298128e+00 3.3285336741e+00 
76800 6.7444409711e+00 3.6544782957e-05 1.9217298128e+00 -3.3285336741e+00 1.9217298128e+00 3.3285336741e+00 
76900 6.7444409713e+00 3.6828424750e-05 1.9217298128e+00 -3.3285336741e+00 1.9217298128e+00 3.3285336741e+00 
77000 6.7444409714e+00 3.7102724098e-05 1.9217298128e+00 -3.3285336741e+00 1.9217298128e+00 3.3285336741e+00 
77100 6.7444409716e+00 3.7367525369e-05 1.9217298128e+00 -3.3285336741e+00 1.9217298128e+00 3.3285336741e+00 
77200 6.7444409718e+00 3.7622693297e-05 1.9217298128e+00 -3.3285336741e+00 1.9217298128e+00 3.3285336741e+00 
77300 6.7444409719e+00 3.7868112646e-05 1.9217298128e+00 -3.3285336741e+00 1.9217298128e+00 3.3285336741e+00 
77400 6.7444409721e+00 3.8103687844e-05 1.9217298128e+00 -3.3285336741e+00 1.9217298128e+00 3.3285336741e+00 
77500 6.7444409722e+00 3.8329342575e-05 1.9217298128e+00 -3.3285336741e+00 1.9217298128e+00 3.3285336741e+00 
77600 6.7444409724e+00 3.8545019380e-05 1.9217298128e+00 -3.3285336741e+00 1.9217298128e+00 3.3285336741e+00 
77700 6.7444409725e+00 3.8750679201e-05 1.9217298128e+00 -3.3285336741e+00 1.9217298128e+00 3.3285336741e+00 
77800 6.7444409727e+00 3.8946300936e-05 1.9217298128e+00 -3.3285336741e+00 1.9217298128e+00 3.3285336741e+00 
77900 6.7444409728e+00 3.9131880964e-05 1.9217298128e+00 -3.3285336741e+00 1.9217298128e+00 3.3285336741e+00 
78000 6.7444409730e+00 3.9307432641e-05 1.9217298128e+00 -3.3285336741e+00 1.9217298128e+00 3.3285336741e+00 
78100 6.7444409731e+00 3.9472985814e-05 1.9217298128e+00 -3.3285336741e+00 1.9217298128e+00 3.3285336741e+00 
78200 6.7444409732e+00 3.9628586282e-05 1.9217298128e+00 -3.3285336741e+00 1.9217298128e+00 3.3285336741e+00 
78300 6.7444409734e+00 3.9774295273e-05 1.9217298128e+00 -3.3285336741e+00 1.9217298128e+00 3.3285336741e+00 
78400 6.7444409735e+00 3.9910188891e-05 1.9217298128e+00 -3.3285336741e+00 1.9217298128e+00 3.3285336741e+00 
78500 6.7444409737e+00 4.0036357568e-05 1.9217298128e+00 -3.3285336741e+00 1.9217298128e+00 3.3285336741e+00 
78600 6.7444409738e+00 4.0152905493e-05 1.9217298128e+00 -3.3285336741e+00 1.9217298128e+00 3.3285336741e+00 
78700 6.7444409739e+00 4.0259950047e-05 1.9217298128e+00 -3.3285336741e+00 1.9217298128e+00 3.3285336741e+00 
78800 6.7444409741e+00 4.0357621224e-05 1.9217298128e+00 -3.3285336741e+00 1.9217298128e+00 3.3285336741e+00 
78900 6.7444409742e+00 4.0446061038e-05 1.9217298128e+00 -3.3285336741e+00 1.9217298128e+00 3.3285336741e+00 
79000 6.7444409743e+00 4.0525422947e-05 1.9217298128e+00 -3.3285336741e+00 1.9217298128e+00 3.3285336741e+00 
79100 6.7444409745e+00 4.0595871256e-05 1.9217298128e+00 -3.3285336741e+00 1.9217298128e+00 3.3285336741e+00 
79200 6.7444409746e+00 4.0657580530e-05 1.9217298128e+00 -3.3285336741e+00 1.9217298128e+00 3.3285336741e+00 
79300 6.7444409747e+00 4.0710734995e-05 1.9217298128e+00 -3.3285336741e+00 1.9217298128e+00 3.3285336741e+00 
79400 6.7444409748e+00 4.0755527945e-05 1.9217298128e+00 -3.3285336741e+00 1.9217298128e+00 3.3285336741e+00 
79500 6.7444409750e+00 4.0792161159e-05 1.9217298128e+00 -3.3285336741e+00 1.9217298128e+00 3.3285336741e+00 
79600 6.7444409751e+00 4.0820844296e-05 1.9217298128e+00 -3.3285336741e+00 1.9217298128e+00 3.3285336741e+00 
79700 6.7444409752e+00 4.0841794330e-05 1.9217298128e+00 -3.3285336741e+00 1.9217298128e+00 3.3285336741e+00 
79800 6.7444409753e+00 4.0855234950e-05 1.9217298128e+00 -3.3285336741e+00 1.9217298128e+00 3.3285336741e+00 
79900 6.7444409754e+00 4.0861395992e-05 1.9217298128e+00 -3.3285336741e+00 1.9217298128e+00 3.3285336741e+00 
80000 6.7444409756e+00 4.0860512863e-05 1.9217298128e+00 -3.3285336741e+00 1.9217298128e+00 3.3285336741e+00 
80100 6.7444409757e+00 4.0852825987e-05 1.9217298128e+00 -3.3285336741e+00 1.9217298128e+00 3.3285336741e+00 
80200 6.7444409758e+00 4.0838580235e-05 1.9217298128e+00 -3.3285336741e+00 1.9217298128e+00 3.3285336741e+00 
80300 6.7444409759e+00 4.0818024388e-05 1.9217298128e+00 -3.3285336741e+00 1.9217298128e+00 3.3285336741e+00 
80400 6.7444409760e+00 4.0791410589e-05 1.9217298128e+00 -3.3285336741e+00 1.9217298128e+00 3.3285336741e+00 
80500 6.7444409761e+00 4.0758993822e-05 1.9217298128e+00 -3.3285336741e+00 1.9217298128e+00 3.3285336741e+00 
80600 6.7444409762e+00 4.0721031384e-05 1.9217298128e+00 -3.3285336741e+00 1.9217298128e+00 3.3285336741e+00 
80700 6.7444409764e+00 4.0677782384e-05 1.9217298128e+00 -3.3285336741e+00 1.9217298128e+00 3.3285336741e+00 
80800 6.7444409765e+00 4.0629507242e-05 1.9217298128e+00 -3.3285336741e+00 1.9217298128e+00 3.3285336741e+00 
80900 6.7444409766e+00 4.0576467205e-05 1.9217298128e+00 -3.3285336741e+00 1.9217298128e+00 3.3285336741e+00 
81000 6.7444409767e+00 4.0518923874e-05 1.9217298128e+00 -3.3285336741e+00 1.9217298128e+00 3.3285336741e+00 
81100 6.7444409768e+00 4.0457138744e-05 1.9217298128e+00 -3.3285336741e+00 1.9217298128e+00 3.3285336741e+00 
81200 6.7444409769e+00 4.0391372763e-05 1.9217298128e+00 -3.3285336741e+00 1.9217298128e+00 3.3285336741e+00 
81300 6.7444409770e+00 4.0321885896e-05 1.9217298128e+00 -3.3285336741e+00 1.9217298128e+00 3.3285336741e+00 
81400 6.7444409771e+00 4.0248936703e-05 1.9217298128e+00 -3.3285336741e+00 1.9217298128e+00 3.3285336741e+00 
81500 6.7444409772e+00 4.0172781943e-05 1.9217298128e+00 -3.3285336741e+00 1.9217298128e+00 3.3285336741e+00 
81600 6.7444409773e+00 4.0093676180e-05 1.9217298128e+00 -3.3285336741e+00 1.9217298128e+00 3.3285336741e+00 
81700 6.7444409774e+00 4.0011871409e-05 1.9217298128e+00 -3.3285336741e+00 1.9217298128e+00 3.3285336741e+00 
81800 6.7444409775e+00 3.9927616702e-05 1.9217298128e+00 -3.3285336741e+00 1.9217298128e+00 3.3285336741e+00 
81900 6.7444409776e+00 3.9841157860e-05 1.9217298128e+00 -3.3285336741e+00 1.9217298128e+00 3.3285336741e+00 
82000 6.7444409777e+00 3.9752737088e-05 1.9217298128e+00 -3.3285336741e+00 1.9217298128e+00 3.3285336741e+00 
82100 6.7444409777e+00 3.9662592678e-05 1.9217298128e+00 -3.3285336741e+00 1.9217298128e+00 3.3285336741e+00 
82200 6.7444409778e+00 3.9570958721e-05 1.9217298128e+00 -3.3285336741e+00 1.9217298128e+00 3.3285336741e+00 
82300 6.7444409779e+00 3.9478064818e-05 1.9217298128e+00 -3.3285336741e+00 1.9217298128e+00 3.3285336741e+00 
82400 6.7444409780e+00 3.9384135822e-05 1.9217298128e+00 -3.3285336741e+00 1.9217298128e+00 3.3285336741e+00 
82500 6.7444409781e+00 3.9289391582e-05 1.9217298128e+00 -3.3285336741e+00 1.9217298128e+00 3.3285336741e+00 
82600 6.7444409782e+00 3.9194046720e-05 1.9217298128e+00 -3.3285336741e+00 1.9217298128e+00 3.3285336741e+00 
82700 6.7444409783e+00 3.9098310402e-05 1.9217298128e+00 -3.3285336741e+00 1.9217298128e+00 3.3285336741e+00 
82800 6.7444409783e+00 3.9002386144e-05 1.9217298128e+00 -3.3285336741e+00 1.9217298128e+00 3.3285336741e+00 
82900 6.7444409784e+00 3.8906471628e-05 1.9217298128e+00 -3.3285336741e+00 1.9217298128e+00 3.3285336741e+00 
83000 6.7444409785e+00 3.8810758520e-05 1.9217298128e+00 -3.3285336741e+00 1.9217298128e+00 3.3285336741e+00 
83100 6.7444409786e+00 3.8715432327e-05 1.9217298128e+00 -3.3285336741e+00 1.9217298128e+00 3.3285336741e+00 
83200 6.7444409787e+00 3.8620672252e-05 1.9217298128e+00 -3.3285336741e+00 1.9217298128e+00 3.3285336741e+00 
83300 6.7444409787e+00 3.8526651070e-05 1.9217298128e+00 -3.3285336741e+00 1.9217298128e+00 3.3285336741e+00 
83400 6.7444409788e+00 3.8433535014e-05 1.9217298128e+00 -3.3285336741e+00 1.9217298128e+00 3.3285336741e+00 
83500 6.7444409789e+00 3.8341483683e-05 1.9217298128e+00 -3.3285336741e+00 1.9217298128e+00 3.3285336741e+00 
83600 6.7444409790e+00 3.8250649959e-05 1.9217298128e+00 -3.3285336741e+00 1.9217298128e+00 3.3285336741e+00 
83700 6.7444409790e+00 3.8161179942e-05 1.9217298128e+00 -3.3285336741e+00 1.9217298128e+00 3.3285336741e+00 
83800 6.7444409791e+00 3.8073212884e-05 1.9217298128e+00 -3.3285336741e+00 1.9217298128e+00 3.3285336741e+00 
83900 6.7444409792e+00 3.7986881169e-05 1.9217298128e+00 -3.3285336741e+00 1.9217298128e+00 3.3285336741e+00 
84000 6.7444409792e+00 3.7902310265e-05 1.9217298128e+00 -3.3285336741e+00 1.9217298128e+00 3.3285336741e+00 
84100 6.7444409793e+00 3.7819618727e-05 1.9217298128e+00 -3.3285336741e+00 1.9217298128e+00 3.3285336741e+00 
84200 6.7444409794e+00 3.7738918177e-05 1.9217298128e+00 -3.3285336741e+00 1.9217298128e+00 3.3285336741e+00 
84300 6.7444409794e+00 3.7660313328e-05 1.9217298128e+00 -3.3285336741e+00 1.9217298128e+00 3.3285336741e+00 
84400 6.7444409795e+00 3.7583901995e-05 1.9217298128e+00 -3.3285336741e+00 1.9217298128e+00 3.3285336741e+00 
84500 6.7444409796e+00 3.7509775140e-05 1.9217298128e+00 -3.3285336741e+00 1.9217298128e+00 3.3285336741e+00 
84600 6.7444409796e+00 3.7438016898e-05 1.9217298128e+00 -3.3285336741e+00 1.9217298128e+00 3.3285336741e+00 
84700 6.7444409797e+00 3.7368704650e-05 1.9217298128e+00 -3.3285336741e+00 1.9217298128e+00 3.3285336741e+00 
84800 6.7444409798e+00 3.7301909071e-05 1.9217298128e+00 -3.3285336741e+00 1.9217298128e+00 3.3285336741e+00 
84900 6.7444409798e+00 3.7237694216e-05 1.9217298128e+00 -3.3285336741e+00 1.9217298128e+00 3.3285336741e+00 
85000 6.7444409799e+00 3.7176117596e-05 1.9217298128e+00 -3.3285336741e+00 1.9217298128e+00 3.3285336741e+00 
85100 6.7444409799e+00 3.7117230273e-05 1.9217298128e+00 -3.3285336741e+00 1.9217298128e+00 3.3285336741e+00 
85200 6.7444409800e+00 3.7061076959e-05 1.9217298128e+00 -3.3285336741e+00 1.9217298128e+00 3.3285336741e+00 
85300 6.7444409801e+00 3.7007696127e-05 1.9217298128e+00 -3.3285336741e+00 1.9217298128e+00 3.3285336741e+00 
85400 6.7444409801e+00 3.6957120129e-05 1.9217298128e+00 -3.3285336741e+00 1.9217298128e+00 3.3285336741e+00 
85500 6.7444409802e+00 3.6909375312e-05 1.9217298128e+00 -3.3285336741e+00 1.9217298128e+00 3.3285336741e+00 
85600 6.7444409802e+00 3.6864482155e-05 1.9217298128e+00 -3.3285336741e+00 1.9217298128e+00 3.3285336741e+00 
85700 6.7444409803e+00 3.6822455406e-05 1.9217298128e+00 -3.3285336741e+00 1.9217298128e+00 3.3285336741e+00 
85800 6.7444409803e+00 3.6783304221e-05 1.9217298128e+00 -3.3285336741e+00 1.9217298128e+00 3.3285336741e+00 
85900 6.7444409804e+00 3.6747032317e-05 1.9217298128e+00 -3.3285336741e+00 1.9217298128e+00 3.3285336741e+00 
86000 6.7444409804e+00 3.6713638116e-05 1.9217298128e+00 -3.3285336741e+00 1.9217298128e+00 3.3285336741e+00 
86100 6.7444409805e+00 3.6683114919e-05 1.9217298128e+00 -3.3285336741e+00 1.9217298128e+00 3.3285336741e+00 
86200 6.7444409805e+00 3.6655451052e-05 1.9217298128e+00 -3.3285336741e+00 1.9217298128e+00 3.3285336741e+00 
86300 6.7444409806e+00 3.6630630044e-05 1.9217298128e+00 -3.3285336741e+00 1.9217298128e+00 3.3285336741e+00 
86400 6.7444409806e+00 3.6608630789e-05 1.9217298128e+00 -3.3285336741e+00 1.9217298128e+00 3.3285336741e+00 
86500 6.7444409807e+00 3.6589427725e-05 1.9217298128e+00 -3.3285336741e+00 1.9217298128e+00 3.3285336741e+00 
86600 6.7444409807e+00 3.6572991007e-05 1.9217298128e+00 -3.3285336741e+00 1.9217298128e+00 3.3285336741e+00 
86700 6.7444409808e+00 3.6559286684e-05 1.9217298128e+00 -3.3285336741e+00 1.9217298128e+00 3.3285336741e+00 
86800 6.7444409808e+00 3.6548276876e-05 1.9217298128e+00 -3.3285336741e+00 1.9217298128e+00 3.3285336741e+00 
86900 6.7444409809e+00 3.6543437455e-05 1.9217298128e+00 -3.3285336741e+00 1.9217298128e+00 3.3285336741e+00 
86900 6.7444409809e+00 3.6543437455e-05 1.9217298128e+00 -3.3285336741e+00 1.9217298128e+00 3.3285336741e+00 
