# step Hamiltonian StressXX CellTensor1 CellTensor2 CellTensor3 CellTensor4 
0 6.7167580263e+00 2.0586409597e-01 2.8378601290e+00 -4.9153179282e+00 2.8378601290e+00 4.9153179282e+00 
100 6.7537249289e+00 2.4870312176e-01 2.8378601290e+00 -4.9153179282e+00 2.8378601290e+00 4.9153179282e+00 
200 6.7884256831e+00 2.8795509876e-01 2.8334793807e+00 -4.9077302495e+00 2.8334793807e+00 4.9077302495e+00 
300 6.8216824733e+00 3.2428764993e-01 2.8283996035e+00 -4.8989318173e+00 2.8283996035e+00 4.8989318173e+00 
400 6.8537194820e+00 3.5810201222e-01 2.8226688383e+00 -4.8890058408e+00 2.8226688383e+00 4.8890058408e+00 
500 6.8846897274e+00 3.8974213522e-01 2.8163278963e+00 -4.8780230072e+00 2.8163278963e+00 4.8780230072e+00 
600 6.9146764643e+00 4.1948071156e-01 2.8094114050e+00 -4.8660432928e+00 2.8094114050e+00 4.8660432928e+00 
700 6.9436881188e+00 4.4749152252e-01 2.8019490869e+00 -4.8531181787e+00 2.8019490869e+00 4.8531181787e+00 
800 6.9716425442e+00 4.7379685073e-01 2.7939675292e+00 -4.8392937154e+00 2.7939675292e+00 4.8392937154e+00 
900 6.9983350131e+00 4.9817387480e-01 2.7854929053e+00 -4.8246152362e+00 2.7854929053e+00 4.8246152362e+00 
1000 7.0233856225e+00 5.2000663343e-01 2.7765554123e+00 -4.8091350442e+00 2.7765554123e+00 4.8091350442e+00 
1100 7.0461733552e+00 5.3810520508e-01 2.7671964536e+00 -4.7929248522e+00 2.7671964536e+00 4.7929248522e+00 
1200 7.0658011398e+00 5.5063204428e-01 2.7574792365e+00 -4.7760941384e+00 2.7574792365e+00 4.7760941384e+00 
1300 7.0812040558e+00 5.5548877129e-01 2.7475009465e+00 -4.7588112332e+00 2.7475009465e+00 4.7588112332e+00 
1400 7.0915304020e+00 5.5152048751e-01 2.7373981861e+00 -4.7413127389e+00 2.7373981861e+00 4.7413127389e+00 
1500 7.0966880423e+00 5.3999044604e-01 2.7273305794e+00 -4.7238751326e+00 2.7273305794e+00 4.7238751326e+00 
1600 7.0975440360e+00 5.2453522241e-01 2.7174369753e+00 -4.7067389076e+00 2.7174369753e+00 4.7067389076e+00 
1700 7.0954572795e+00 5.0904235869e-01 2.7077914227e+00 -4.6900323204e+00 2.7077914227e+00 4.6900323204e+00 
1800 7.0916219680e+00 4.9569879591e-01 2.6983972939e+00 -4.6737612121e+00 2.6983972939e+00 4.6737612121e+00 
1900 7.0867934558e+00 4.8487141004e-01 2.6892174630e+00 -4.6578612786e+00 2.6892174630e+00 4.6578612786e+00 
2000 7.0813667487e+00 4.7600246674e-01 2.6802074146e+00 -4.6422554169e+00 2.6802074146e+00 4.6422554169e+00 
2100 7.0755353655e+00 4.6835586935e-01 2.6713323786e+00 -4.6268834036e+00 2.6713323786e+00 4.6268834036e+00 
2200 7.0694000369e+00 4.6133417617e-01 2.6625708544e+00 -4.6117079985e+00 2.6625708544e+00 4.6117079985e+00 
2300 7.0630222231e+00 4.5453434823e-01 2.6539122457e+00 -4.5967108484e+00 2.6539122457e+00 4.5967108484e+00 
2400 7.0564466323e+00 4.4771081458e-01 2.6453533886e+00 -4.5818864730e+00 2.6453533886e+00 4.5818864730e+00 
2500 7.0497100178e+00 4.4072495413e-01 2.6368957029e+00 -4.5672373316e+00 2.6368957029e+00 4.5672373316e+00 
2600 7.0428445419e+00 4.3350503199e-01 2.6285432409e+00 -4.5527704431e+00 2.6285432409e+00 4.5527704431e+00 
2700 7.0358791023e+00 4.2601926792e-01 2.6203014579e+00 -4.5384952563e+00 2.6203014579e+00 4.5384952563e+00 
2800 7.0288399072e+00 4.1825901917e-01 2.6121764710e+00 -4.5244223661e+00 2.6121764710e+00 4.5244223661e+00 
2900 7.0217507755e+00 4.1022866954e-01 2.6041746243e+00 -4.5105627611e+00 2.6041746243e+00 4.5105627611e+00 
3000 7.0146333347e+00 4.0193968211e-01 2.5963022403e+00 -4.4969273921e+00 2.5963022403e+00 4.4969273921e+00 
3100 7.0075071788e+00 3.9340715464e-01 2.5885654801e+00 -4.4835269302e+00 2.5885654801e+00 4.4835269302e+00 
3200 7.0003900093e+00 3.8464785396e-01 2.5809702673e+00 -4.4703716359e+00 2.5809702673e+00 4.4703716359e+00 
3300 6.9932977676e+00 3.7567911563e-01 2.5735222499e+00 -4.4574712913e+00 2.5735222499e+00 4.4574712913e+00 
3400 6.9862447605e+00 3.6651824663e-01 2.5662267811e+00 -4.4448351685e+00 2.5662267811e+00 4.4448351685e+00 
3500 6.9792437797e+00 3.5718221786e-01 2.5590889126e+00 -4.4324720177e+00 2.5590889126e+00 4.4324720177e+00 
3600 6.9723062155e+00 3.4768752200e-01 2.5521133943e+00 -4.4203900655e+00 2.5521133943e+00 4.4203900655e+00 
3700 6.9654421648e+00 3.3805012378e-01 2.5453046756e+00 -4.4085970189e+00 2.5453046756e+00 4.4085970189e+00 
3800 6.9586605322e+00 3.2828546013e-01 2.5386669095e+00 -4.3971000707e+00 2.5386669095e+00 4.3971000707e+00 
3900 6.9519691252e+00 3.1840846551e-01 2.5322039554e+00 -4.3859059058e+00 2.5322039554e+00 4.3859059058e+00 
4000 6.9453747429e+00 3.0843360821e-01 2.5259193831e+00 -4.3750207073e+00 2.5259193831e+00 4.3750207073e+00 
4100 6.9388832593e+00 2.9837492949e-01 2.5198164754e+00 -4.3644501612e+00 2.5198164754e+00 4.3644501612e+00 
4200 6.9324997005e+00 2.8824608123e-01 2.5138982307e+00 -4.3541994607e+00 2.5138982307e+00 4.3541994607e+00 
4300 6.9262283166e+00 2.7806035954e-01 2.5081673649e+00 -4.3442733098e+00 2.5081673649e+00 4.3442733098e+00 
4400 6.9200726483e+00 2.6783073361e-01 2.5026263129e+00 -4.3346759263e+00 2.5026263129e+00 4.3346759263e+00 
4500 6.9140355892e+00 2.5756986910e-01 2.4972772305e+00 -4.3254110439e+00 2.4972772305e+00 4.3254110439e+00 
4600 6.9081194436e+00 2.4729014645e-01 2.4921219952e+00 -4.3164819144e+00 2.4921219952e+00 4.3164819144e+00 
4700 6.9023259796e+00 2.3700367413e-01 2.4871622073e+00 -4.3078913097e+00 2.4871622073e+00 4.3078913097e+00 
4800 6.8966564798e+00 2.2672229745e-01 2.4823991915e+00 -4.2996415243e+00 2.4823991915e+00 4.2996415243e+00 
4900 6.8911117870e+00 2.1645760325e-01 2.4778339979e+00 -4.2917343771e+00 2.4778339979e+00 4.2917343771e+00 
5000 6.8856923476e+00 2.0622092094e-01 2.4734674040e+00 -4.2841712146e+00 2.4734674040e+00 4.2841712146e+00 
5100 6.8803982519e+00 1.9602332035e-01 2.4692999164e+00 -4.2769529143e+00 2.4692999164e+00 4.2769529143e+00 
5200 6.8752292714e+00 1.8587560677e-01 2.4653317730e+00 -4.2700798884e+00 2.4653317730e+00 4.2700798884e+00 
5300 6.8701848931e+00 1.7578831366e-01 2.4615629463e+00 -4.2635520891e+00 2.4615629463e+00 4.2635520891e+00 
5400 6.8652643522e+00 1.6577169316e-01 2.4579931462e+00 -4.2573690139e+00 2.4579931462e+00 4.2573690139e+00 
5500 6.8604666615e+00 1.5583570506e-01 2.4546218240e+00 -4.2515297126e+00 2.4546218240e+00 4.2515297126e+00 
5600 6.8557906388e+00 1.4599000419e-01 2.4514481768e+00 -4.2460327944e+00 2.4514481768e+00 4.2460327944e+00 
5700 6.8512349325e+00 1.3624392679e-01 2.4484711526e+00 -4.2408764371e+00 2.4484711526e+00 4.2408764371e+00 
5800 6.8467980444e+00 1.2660647594e-01 2.4456894556e+00 -4.2360583967e+00 2.4456894556e+00 4.2360583967e+00 
5900 6.8424783504e+00 1.1708630640e-01 2.4431015531e+00 -4.2315760179e+00 2.4431015531e+00 4.2315760179e+00 
6000 6.8382741203e+00 1.0769170909e-01 2.4407056816e+00 -4.2274262468e+00 2.4407056816e+00 4.2274262468e+00 
6100 6.8341835339e+00 9.8430595405e-02 2.4384998550e+00 -4.2236056430e+00 2.4384998550e+00 4.2236056430e+00 
6200 6.8302046968e+00 8.9310481657e-02 2.4364818723e+00 -4.2201103946e+00 2.4364818723e+00 4.2201103946e+00 
6300 6.8263356530e+00 8.0338473828e-02 2.4346493269e+00 -4.2169363327e+00 2.4346493269e+00 4.2169363327e+00 
6400 6.8225743970e+00 7.1521252865e-02 2.4329996151e+00 -4.2140789481e+00 2.4329996151e+00 4.2140789481e+00 
6500 6.8189188834e+00 6.2865060755e-02 2.4315299468e+00 -4.2115334080e+00 2.4315299468e+00 4.2115334080e+00 
6600 6.8153670349e+00 5.4375687573e-02 2.4302373555e+00 -4.2092945742e+00 2.4302373555e+00 4.2092945742e+00 
6700 6.8119167493e+00 4.6058459736e-02 2.4291187094e+00 -4.2073570222e+00 2.4291187094e+00 4.2073570222e+00 
6800 6.8085659044e+00 3.7918229639e-02 2.4281707223e+00 -4.2057150605e+00 2.4281707223e+00 4.2057150605e+00 
6900 6.8053123627e+00 2.9959366895e-02 2.4273899659e+00 -4.2043627507e+00 2.4273899659e+00 4.2043627507e+00 
7000 6.8021539734e+00 2.2185751324e-02 2.4267728813e+00 -4.2032939289e+00 2.4267728813e+00 4.2032939289e+00 
7100 6.7990885752e+00 1.4600767876e-02 2.4263157917e+00 -4.2025022264e+00 2.4263157917e+00 4.2025022264e+00 
7200 6.7961139966e+00 7.2073036224e-03 2.4260149144e+00 -4.2019810917e+00 2.4260149144e+00 4.2019810917e+00 
7300 6.7932280562e+00 7.7469305386e-06 2.4258663739e+00 -4.2017238120e+00 2.4258663739e+00 4.2017238120e+00 
7400 6.7904285612e+00 -6.9959491531e-03 2.4258663739e+00 -4.2017238120e+00 2.4258663739e+00 4.2017238120e+00 
7500 6.7877133113e+00 -1.3802495234e-02 2.4260105702e+00 -4.2019735673e+00 2.4260105702e+00 4.2019735673e+00 
7600 6.7850800924e+00 -2.0410940141e-02 2.4262950447e+00 -4.2024662916e+00 2.4262950447e+00 4.2024662916e+00 
7700 6.7825266776e+00 -2.6820850311e-02 2.4267156764e+00 -4.2031948470e+00 2.4267156764e+00 4.2031948470e+00 
7800 6.7800508251e+00 -3.3032260537e-02 2.4272683136e+00 -4.2041520428e+00 2.4272683136e+00 4.2041520428e+00 
7900 6.7776502779e+00 -3.9045660541e-02 2.4279487864e+00 -4.2053306563e+00 2.4279487864e+00 4.2053306563e+00 
8000 6.7753227621e+00 -4.4861979392e-02 2.4287529182e+00 -4.2067234534e+00 2.4287529182e+00 4.2067234534e+00 
8100 6.7730659867e+00 -5.0482567883e-02 2.4296765367e+00 -4.2083232075e+00 2.4296765367e+00 4.2083232075e+00 
8200 6.7708776430e+00 -5.5909178994e-02 2.4307154849e+00 -4.2101227187e+00 2.4307154849e+00 4.2101227187e+00 
8300 6.7687554047e+00 -6.1143946601e-02 2.4318656316e+00 -4.2121148311e+00 2.4318656316e+00 4.2121148311e+00 
8400 6.7666969287e+00 -6.6189362623e-02 2.4331228806e+00 -4.2142924502e+00 2.4331228806e+00 4.2142924502e+00 
8500 6.7646998560e+00 -7.1048252824e-02 2.4344831803e+00 -4.2166485584e+00 2.4344831803e+00 4.2166485584e+00 
8600 6.7627618134e+00 -7.5723751472e-02 2.4359425320e+00 -4.2191762298e+00 2.4359425320e+00 4.2191762298e+00 
8700 6.7608804160e+00 -8.0219275117e-02 2.4374969981e+00 -4.2218686440e+00 2.4374969981e+00 4.2218686440e+00 
8800 6.7590532694e+00 -8.4538495713e-02 2.4391427087e+00 -4.2247190984e+00 2.4391427087e+00 4.2247190984e+00 
8900 6.7572779733e+00 -8.8685313335e-02 2.4408758689e+00 -4.2277210199e+00 2.4408758689e+00 4.2277210199e+00 
9000 6.7555521251e+00 -9.2663828728e-02 2.4426927639e+00 -4.2308679744e+00 2.4426927639e+00 4.2308679744e+00 
9100 6.7538733242e+00 -9.6478315929e-02 2.4445897649e+00 -4.2341536765e+00 2.4445897649e+00 4.2341536765e+00 
9200 6.7522391762e+00 -1.0013319519e-01 2.4465633330e+00 -4.2375719966e+00 2.4465633330e+00 4.2375719966e+00 
9300 6.7506472979e+00 -1.0363300638e-01 2.4486100232e+00 -4.2411169680e+00 2.4486100232e+00 4.2411169680e+00 
9400 6.7490953224e+00 -1.0698238317e-01 2.4507264876e+00 -4.2447827920e+00 2.4507264876e+00 4.2447827920e+00 
9500 6.7475809043e+00 -1.1018602797e-01 2.4529094780e+00 -4.2485638423e+00 2.4529094780e+00 4.2485638423e+00 
9600 6.7461017250e+00 -1.1324868804e-01 2.4551558477e+00 -4.2524546686e+00 2.4551558477e+00 4.2524546686e+00 
9700 6.7446554978e+00 -1.1617513272e-01 2.4574625526e+00 -4.2564499988e+00 2.4574625526e+00 4.2564499988e+00 
9800 6.7432399739e+00 -1.1897013191e-01 2.4598266525e+00 -4.2605447399e+00 2.4598266525e+00 4.2605447399e+00 
9900 6.7418529472e+00 -1.2163843605e-01 2.4622453108e+00 -4.2647339791e+00 2.4622453108e+00 4.2647339791e+00 
10000 6.7404922591e+00 -1.2418475746e-01 2.4647157948e+00 -4.2690129829e+00 2.4647157948e+00 4.2690129829e+00 
10100 6.7391558043e+00 -1.2661375320e-01 2.4672354746e+00 -4.2733771963e+00 2.4672354746e+00 4.2733771963e+00 
10200 6.7378415342e+00 -1.2893000957e-01 2.4698018222e+00 -4.2778222407e+00 2.4698018222e+00 4.2778222407e+00 
10300 6.7365474624e+00 -1.3113802802e-01 2.4724124101e+00 -4.2823439116e+00 2.4724124101e+00 4.2823439116e+00 
10400 6.7352716676e+00 -1.3324221271e-01 2.4750649095e+00 -4.2869381753e+00 2.4750649095e+00 4.2869381753e+00 
10500 6.7340122981e+00 -1.3524685956e-01 2.4777570881e+00 -4.2916011654e+00 2.4777570881e+00 4.2916011654e+00 
10600 6.7327675743e+00 -1.3715614679e-01 2.4804868081e+00 -4.2963291792e+00 2.4804868081e+00 4.2963291792e+00 
10700 6.7315357918e+00 -1.3897412689e-01 2.4832520233e+00 -4.3011186724e+00 2.4832520233e+00 4.3011186724e+00 
10800 6.7303153237e+00 -1.4070472002e-01 2.4860507767e+00 -4.3059662554e+00 2.4860507767e+00 4.3059662554e+00 
10900 6.7291046226e+00 -1.4235170867e-01 2.4888811972e+00 -4.3108686876e+00 2.4888811972e+00 4.3108686876e+00 
11000 6.7279022218e+00 -1.4391873358e-01 2.4917414972e+00 -4.3158228725e+00 2.4917414972e+00 4.3158228725e+00 
11100 6.7267067367e+00 -1.4540929087e-01 2.4946299690e+00 -4.3208258524e+00 2.4946299690e+00 4.3208258524e+00 
11200 6.7255168654e+00 -1.4682673016e-01 2.4975449819e+00 -4.3258748029e+00 2.4975449819e+00 4.3258748029e+00 
11300 6.7243313888e+00 -1.4817425378e-01 2.5004849790e+00 -4.3309670271e+00 2.5004849790e+00 4.3309670271e+00 
11400 6.7231491704e+00 -1.4945491684e-01 2.5034484737e+00 -4.3360999506e+00 2.5034484737e+00 4.3360999506e+00 
11500 6.7219691562e+00 -1.5067162810e-01 2.5064340471e+00 -4.3412711154e+00 2.5064340471e+00 4.3412711154e+00 
11600 6.7207903735e+00 -1.5182715167e-01 2.5094403441e+00 -4.3464781746e+00 2.5094403441e+00 4.3464781746e+00 
11700 6.7196119300e+00 -1.5292410927e-01 2.5124660710e+00 -4.3517188872e+00 2.5124660710e+00 4.3517188872e+00 
11800 6.7184330121e+00 -1.5396498315e-01 2.5155099916e+00 -4.3569911123e+00 2.5155099916e+00 4.3569911123e+00 
11900 6.7172528834e+00 -1.5495211944e-01 2.5185709248e+00 -4.3622928042e+00 2.5185709248e+00 4.3622928042e+00 
12000 6.7160708829e+00 -1.5588773197e-01 2.5216477416e+00 -4.3676220072e+00 2.5216477416e+00 4.3676220072e+00 
12100 6.7148864225e+00 -1.5677390647e-01 2.5247393617e+00 -4.3729768504e+00 2.5247393617e+00 4.3729768504e+00 
12200 6.7136989848e+00 -1.5761260505e-01 2.5278447516e+00 -4.3783555433e+00 2.5278447516e+00 4.3783555433e+00 
12300 6.7125081208e+00 -1.5840567089e-01 2.5309629209e+00 -4.3837563711e+00 2.5309629209e+00 4.3837563711e+00 
12400 6.7113134470e+00 -1.5915483314e-01 2.5340929208e+00 -4.3891776900e+00 2.5340929208e+00 4.3891776900e+00 
12500 6.7101146428e+00 -1.5986171202e-01 2.5372338408e+00 -4.3946179230e+00 2.5372338408e+00 4.3946179230e+00 
12600 6.7089114478e+00 -1.6052782386e-01 2.5403848069e+00 -4.4000755563e+00 2.5403848069e+00 4.4000755563e+00 
12700 6.7077036585e+00 -1.6115458635e-01 2.5435449788e+00 -4.4055491347e+00 2.5435449788e+00 4.4055491347e+00 
12800 6.7064911258e+00 -1.6174332366e-01 2.5467135487e+00 -4.4110372586e+00 2.5467135487e+00 4.4110372586e+00 
12900 6.7052737519e+00 -1.6229527169e-01 2.5498897381e+00 -4.4165385801e+00 2.5498897381e+00 4.4165385801e+00 
13000 6.7040514871e+00 -1.6281158311e-01 2.5530727971e+00 -4.4220518000e+00 2.5530727971e+00 4.4220518000e+00 
13100 6.7028243273e+00 -1.6329333244e-01 2.5562620017e+00 -4.4275756644e+00 2.5562620017e+00 4.4275756644e+00 
13200 6.7015923105e+00 -1.6374152098e-01 2.5594566526e+00 -4.4331089621e+00 2.5594566526e+00 4.4331089621e+00 
13300 6.7003555144e+00 -1.6415708165e-01 2.5626560736e+00 -4.4386505218e+00 2.5626560736e+00 4.4386505218e+00 
13400 6.6991140532e+00 -1.6454088371e-01 2.5658596099e+00 -4.4441992094e+00 2.5658596099e+00 4.4441992094e+00 
13500 6.6978680748e+00 -1.6489373723e-01 2.5690666269e+00 -4.4497539258e+00 2.5690666269e+00 4.4497539258e+00 
13600 6.6966177584e+00 -1.6521639757e-01 2.5722765091e+00 -4.4553136049e+00 2.5722765091e+00 4.4553136049e+00 
13700 6.6953633114e+00 -1.6550956960e-01 2.5754886586e+00 -4.4608772110e+00 2.5754886586e+00 4.4608772110e+00 
13800 6.6941049673e+00 -1.6577391169e-01 2.5787024942e+00 -4.4664437375e+00 2.5787024942e+00 4.4664437375e+00 
13900 6.6928429825e+00 -1.6601003969e-01 2.5819174503e+00 -4.4720122049e+00 2.5819174503e+00 4.4720122049e+00 
14000 6.6915776348e+00 -1.6621853055e-01 2.5851329762e+00 -4.4775816591e+00 2.5851329762e+00 4.4775816591e+00 
14100 6.6903092203e+00 -1.6639992591e-01 2.5883485349e+00 -4.4831511702e+00 2.5883485349e+00 4.4831511702e+00 
14200 6.6890380518e+00 -1.6655473541e-01 2.5915636028e+00 -4.4887198311e+00 2.5915636028e+00 4.4887198311e+00 
14300 6.6877644562e+00 -1.6668343983e-01 2.5947776685e+00 -4.4942867562e+00 2.5947776685e+00 4.4942867562e+00 
14400 6.6864887728e+00 -1.6678649411e-01 2.5979902325e+00 -4.4998510802e+00 2.5979902325e+00 4.4998510802e+00 
14500 6.6852113515e+00 -1.6686433015e-01 2.6012008064e+00 -4.5054119574e+00 2.6012008064e+00 4.5054119574e+00 
14600 6.6839325507e+00 -1.6691735940e-01 2.6044089129e+00 -4.5109685608e+00 2.6044089129e+00 4.5109685608e+00 
14700 6.6826527358e+00 -1.6694597536e-01 2.6076140844e+00 -4.5165200807e+00 2.6076140844e+00 4.5165200807e+00 
14800 6.6813722776e+00 -1.6695055587e-01 2.6108158636e+00 -4.5220657250e+00 2.6108158636e+00 4.5220657250e+00 
14900 6.6800915509e+00 -1.6693146519e-01 2.6140138025e+00 -4.5276047176e+00 2.6140138025e+00 4.5276047176e+00 
15000 6.6788109328e+00 -1.6688905603e-01 2.6172074621e+00 -4.5331362983e+00 2.6172074621e+00 4.5331362983e+00 
15100 6.6775308020e+00 -1.6682367136e-01 2.6203964126e+00 -4.5386597226e+00 2.6203964126e+00 4.5386597226e+00 
15200 6.6762515369e+00 -1.6673564604e-01 2.6235802325e+00 -4.5441742604e+00 2.6235802325e+00 4.5441742604e+00 
15300 6.6749735152e+00 -1.6662530841e-01 2.6267585089e+00 -4.5496791966e+00 2.6267585089e+00 4.5496791966e+00 
15400 6.6736971123e+00 -1.6649298165e-01 2.6299308371e+00 -4.5551738302e+00 2.6299308371e+00 4.5551738302e+00 
15500 6.6724227007e+00 -1.6633898504e-01 2.6330968203e+00 -4.5606574740e+00 2.6330968203e+00 4.5606574740e+00 
15600 6.6711506493e+00 -1.6616363515e-01 2.6362560699e+00 -4.5661294549e+00 2.6362560699e+00 4.5661294549e+00 
15700 6.6698813221e+00 -1.6596724681e-01 2.6394082050e+00 -4.5715891129e+00 2.6394082050e+00 4.5715891129e+00 
15800 6.6686150781e+00 -1.6575013406e-01 2.6425528522e+00 -4.5770358018e+00 2.6425528522e+00 4.5770358018e+00 
15900 6.6673522703e+00 -1.6551261094e-01 2.6456896463e+00 -4.5824688884e+00 2.6456896463e+00 4.5824688884e+00 
16000 6.6660932456e+00 -1.6525499219e-01 2.6488182292e+00 -4.5878877529e+00 2.6488182292e+00 4.5878877529e+00 
16100 6.6648383435e+00 -1.6497759387e-01 2.6519382505e+00 -4.5932917884e+00 2.6519382505e+00 4.5932917884e+00 
16200 6.6635878966e+00 -1.6468073389e-01 2.6550493676e+00 -4.5986804013e+00 2.6550493676e+00 4.5986804013e+00 
16300 6.6623422297e+00 -1.6436473241e-01 2.6581512451e+00 -4.6040530106e+00 2.6581512451e+00 4.6040530106e+00 
16400 6.6611016597e+00 -1.6402991222e-01 2.6612435551e+00 -4.6094090488e+00 2.6612435551e+00 4.6094090488e+00 
16500 6.6598664950e+00 -1.6367659905e-01 2.6643259775e+00 -4.6147479610e+00 2.6643259775e+00 4.6147479610e+00 
16600 6.6586370358e+00 -1.6330512171e-01 2.6673981994e+00 -4.6200692054e+00 2.6673981994e+00 4.6200692054e+00 
16700 6.6574135736e+00 -1.6291581232e-01 2.6704599155e+00 -4.6253722533e+00 2.6704599155e+00 4.6253722533e+00 
16800 6.6561963911e+00 -1.6250900633e-01 2.6735108281e+00 -4.6306565888e+00 2.6735108281e+00 4.6306565888e+00 
16900 6.6549857621e+00 -1.6208504261e-01 2.6765506467e+00 -4.6359217091e+00 2.6765506467e+00 4.6359217091e+00 
17000 6.6537819514e+00 -1.6164426341e-01 2.6795790887e+00 -4.6411671246e+00 2.6795790887e+00 4.6411671246e+00 
17100 6.6525852150e+00 -1.6118701429e-01 2.6825958788e+00 -4.6463923583e+00 2.6825958788e+00 4.6463923583e+00 
17200 6.6513957999e+00 -1.6071364403e-01 2.6856007494e+00 -4.6515969468e+00 2.6856007494e+00 4.6515969468e+00 
17300 6.6502139438e+00 -1.6022450451e-01 2.6885934402e+00 -4.6567804393e+00 2.6885934402e+00 4.6567804393e+00 
17400 6.6490398759e+00 -1.5971995047e-01 2.6915736987e+00 -4.6619423984e+00 2.6915736987e+00 4.6619423984e+00 
17500 6.6478738161e+00 -1.5920033939e-01 2.6945412797e+00 -4.6670823996e+00 2.6945412797e+00 4.6670823996e+00 
17600 6.6467159758e+00 -1.5866603119e-01 2.6974959459e+00 -4.6722000314e+00 2.6974959459e+00 4.6722000314e+00 
17700 6.6455665574e+00 -1.5811738799e-01 2.7004374671e+00 -4.6772948956e+00 2.7004374671e+00 4.6772948956e+00 
17800 6.6444257548e+00 -1.5755477387e-01 2.7033656209e+00 -4.6823666069e+00 2.7033656209e+00 4.6823666069e+00 
17900 6.6432937533e+00 -1.5697855452e-01 2.7062801924e+00 -4.6874147928e+00 2.7062801924e+00 4.6874147928e+00 
18000 6.6421707297e+00 -1.5638909698e-01 2.7091809742e+00 -4.6924390942e+00 2.7091809742e+00 4.6924390942e+00 
18100 6.6410568524e+00 -1.5578676927e-01 2.7120677661e+00 -4.6974391645e+00 2.7120677661e+00 4.6974391645e+00 
18200 6.6399522819e+00 -1.5517194012e-01 2.7149403757e+00 -4.7024146702e+00 2.7149403757e+00 4.7024146702e+00 
18300 6.6388571703e+00 -1.5454497857e-01 2.7177986177e+00 -4.7073652906e+00 2.7177986177e+00 4.7073652906e+00 
18400 6.6377716619e+00 -1.5390625368e-01 2.7206423144e+00 -4.7122907177e+00 2.7206423144e+00 4.7122907177e+00 
18500 6.6366958931e+00 -1.5325613416e-01 2.7234712951e+00 -4.7171906561e+00 2.7234712951e+00 4.7171906561e+00 
18600 6.6356299926e+00 -1.5259498802e-01 2.7262853966e+00 -4.7220648229e+00 2.7262853966e+00 4.7220648229e+00 
18700 6.6345740815e+00 -1.5192318224e-01 2.7290844629e+00 -4.7269129479e+00 2.7290844629e+00 4.7269129479e+00 
18800 6.6335282737e+00 -1.5124108243e-01 2.7318683449e+00 -4.7317347729e+00 2.7318683449e+00 4.7317347729e+00 
18900 6.6324926754e+00 -1.5054905249e-01 2.7346369006e+00 -4.7365300521e+00 2.7346369006e+00 4.7365300521e+00 
19000 6.6314673857e+00 -1.4984745426e-01 2.7373899953e+00 -4.7412985519e+00 2.7373899953e+00 4.7412985519e+00 
19100 6.6304524969e+00 -1.4913664723e-01 2.7401275007e+00 -4.7460400505e+00 2.7401275007e+00 4.7460400505e+00 
19200 6.6294480940e+00 -1.4841698822e-01 2.7428492957e+00 -4.7507543377e+00 2.7428492957e+00 4.7507543377e+00 
19300 6.6284542553e+00 -1.4768883103e-01 2.7455552659e+00 -4.7554412154e+00 2.7455552659e+00 4.7554412154e+00 
19400 6.6274710522e+00 -1.4695252622e-01 2.7482453031e+00 -4.7601004967e+00 2.7482453031e+00 4.7601004967e+00 
19500 6.6264985497e+00 -1.4620842076e-01 2.7509193062e+00 -4.7647320059e+00 2.7509193062e+00 4.7647320059e+00 
19600 6.6255368059e+00 -1.4545685782e-01 2.7535771802e+00 -4.7693355787e+00 2.7535771802e+00 4.7693355787e+00 
19700 6.6245858729e+00 -1.4469817644e-01 2.7562188365e+00 -4.7739110616e+00 2.7562188365e+00 4.7739110616e+00 
19800 6.6236457959e+00 -1.4393271135e-01 2.7588441927e+00 -4.7784583119e+00 2.7588441927e+00 4.7784583119e+00 
19900 6.6227166143e+00 -1.4316079272e-01 2.7614531724e+00 -4.7829771974e+00 2.7614531724e+00 4.7829771974e+00 
20000 6.6217983611e+00 -1.4238274593e-01 2.7640457054e+00 -4.7874675962e+00 2.7640457054e+00 4.7874675962e+00 
20100 6.6208910631e+00 -1.4159889139e-01 2.7666217272e+00 -4.7919293968e+00 2.7666217272e+00 4.7919293968e+00 
20200 6.6199947413e+00 -1.4080954434e-01 2.7691811790e+00 -4.7963624974e+00 2.7691811790e+00 4.7963624974e+00 
20300 6.6191094106e+00 -1.4001501469e-01 2.7717240078e+00 -4.8007668060e+00 2.7717240078e+00 4.8007668060e+00 
20400 6.6182350801e+00 -1.3921560685e-01 2.7742501659e+00 -4.8051422402e+00 2.7742501659e+00 4.8051422402e+00 
20500 6.6173717529e+00 -1.3841161962e-01 2.7767596110e+00 -4.8094887267e+00 2.7767596110e+00 4.8094887267e+00 
20600 6.6165194267e+00 -1.3760334603e-01 2.7792523062e+00 -4.8138062014e+00 2.7792523062e+00 4.8138062014e+00 
20700 6.6156780934e+00 -1.3679107327e-01 2.7817282195e+00 -4.8180946091e+00 2.7817282195e+00 4.8180946091e+00 
20800 6.6148477391e+00 -1.3597508256e-01 2.7841873240e+00 -4.8223539030e+00 2.7841873240e+00 4.8223539030e+00 
20900 6.6140283446e+00 -1.3515564910e-01 2.7866295976e+00 -4.8265840449e+00 2.7866295976e+00 4.8265840449e+00 
21000 6.6132198854e+00 -1.3433304201e-01 2.7890550228e+00 -4.8307850046e+00 2.7890550228e+00 4.8307850046e+00 
21100 6.6124223314e+00 -1.3350752423e-01 2.7914635869e+00 -4.8349567600e+00 2.7914635869e+00 4.8349567600e+00 
21200 6.6116356471e+00 -1.3267935257e-01 2.7938552816e+00 -4.8390992967e+00 2.7938552816e+00 4.8390992967e+00 
21300 6.6108597922e+00 -1.3184877763e-01 2.7962301027e+00 -4.8432126075e+00 2.7962301027e+00 4.8432126075e+00 
21400 6.6100947208e+00 -1.3101604380e-01 2.7985880504e+00 -4.8472966928e+00 2.7985880504e+00 4.8472966928e+00 
21500 6.6093403823e+00 -1.3018138930e-01 2.8009291290e+00 -4.8513515599e+00 2.8009291290e+00 4.8513515599e+00 
21600 6.6085967209e+00 -1.2934504615e-01 2.8032533467e+00 -4.8553772229e+00 2.8032533467e+00 4.8553772229e+00 
21700 6.6078636760e+00 -1.2850724027e-01 2.8055607152e+00 -4.8593737025e+00 2.8055607152e+00 4.8593737025e+00 
21800 6.6071411822e+00 -1.2766819146e-01 2.8078512504e+00 -4.8633410258e+00 2.8078512504e+00 4.8633410258e+00 
21900 6.6064291694e+00 -1.2682811348e-01 2.8101249714e+00 -4.8672792260e+00 2.8101249714e+00 4.8672792260e+00 
22000 6.6057275628e+00 -1.2598721414e-01 2.8123819008e+00 -4.8711883424e+00 2.8123819008e+00 4.8711883424e+00 
22100 6.6050362832e+00 -1.2514569533e-01 2.8146220646e+00 -4.8750684200e+00 2.8146220646e+00 4.8750684200e+00 
22200 6.6043552471e+00 -1.2430375317e-01 2.8168454920e+00 -4.8789195093e+00 2.8168454920e+00 4.8789195093e+00 
22300 6.6036843665e+00 -1.2346157803e-01 2.8190522153e+00 -4.8827416660e+00 2.8190522153e+00 4.8827416660e+00 
22400 6.6030235493e+00 -1.2261935472e-01 2.8212422696e+00 -4.8865349514e+00 2.8212422696e+00 4.8865349514e+00 
22500 6.6023726996e+00 -1.2177726251e-01 2.8234156931e+00 -4.8902994313e+00 2.8234156931e+00 4.8902994313e+00 
22600 6.6017317171e+00 -1.2093547534e-01 2.8255725266e+00 -4.8940351766e+00 2.8255725266e+00 4.8940351766e+00 
22700 6.6011004983e+00 -1.2009416190e-01 2.8277128137e+00 -4.8977422626e+00 2.8277128137e+00 4.8977422626e+00 
22800 6.6004789355e+00 -1.1925348574e-01 2.8298366005e+00 -4.9014207692e+00 2.8298366005e+00 4.9014207692e+00 
22900 6.5998669179e+00 -1.1841360548e-01 2.8319439355e+00 -4.9050707805e+00 2.8319439355e+00 4.9050707805e+00 
23000 6.5992643312e+00 -1.1757467490e-01 2.8340348696e+00 -4.9086923846e+00 2.8340348696e+00 4.9086923846e+00 
23100 6.5986710579e+00 -1.1673684309e-01 2.8361094561e+00 -4.9122856738e+00 2.8361094561e+00 4.9122856738e+00 
23200 6.5980869774e+00 -1.1590025464e-01 2.8381677503e+00 -4.9158507438e+00 2.8381677503e+00 4.9158507438e+00 
23300 6.5975119663e+00 -1.1506504976e-01 2.8402098096e+00 -4.9193876944e+00 2.8402098096e+00 4.9193876944e+00 
23400 6.5969458984e+00 -1.1423136444e-01 2.8422356937e+00 -4.9228966286e+00 2.8422356937e+00 4.9228966286e+00 
23500 6.5963886452e+00 -1.1339933063e-01 2.8442454640e+00 -4.9263776528e+00 2.8442454640e+00 4.9263776528e+00 
23600 6.5958400755e+00 -1.1256907642e-01 2.8462391838e+00 -4.9298308768e+00 2.8462391838e+00 4.9298308768e+00 
23700 6.5953000562e+00 -1.1174072612e-01 2.8482169181e+00 -4.9332564132e+00 2.8482169181e+00 4.9332564132e+00 
23800 6.5947684519e+00 -1.1091440053e-01 2.8501787340e+00 -4.9366543780e+00 2.8501787340e+00 4.9366543780e+00 
23900 6.5942451256e+00 -1.1009021703e-01 2.8521246999e+00 -4.9400248898e+00 2.8521246999e+00 4.9400248898e+00 
24000 6.5937299388e+00 -1.0926828975e-01 2.8540548859e+00 -4.9433680700e+00 2.8540548859e+00 4.9433680700e+00 
24100 6.5932227511e+00 -1.0844872977e-01 2.8559693638e+00 -4.9466840429e+00 2.8559693638e+00 4.9466840429e+00 
24200 6.5927234214e+00 -1.0763164524e-01 2.8578682066e+00 -4.9499729351e+00 2.8578682066e+00 4.9499729351e+00 
24300 6.5922318071e+00 -1.0681714154e-01 2.8597514890e+00 -4.9532348759e+00 2.8597514890e+00 4.9532348759e+00 
24400 6.5917477651e+00 -1.0600532145e-01 2.8616192869e+00 -4.9564699969e+00 2.8616192869e+00 4.9564699969e+00 
24500 6.5912711515e+00 -1.0519628530e-01 2.8634716778e+00 -4.9596784320e+00 2.8634716778e+00 4.9596784320e+00 
24600 6.5908018218e+00 -1.0439013108e-01 2.8653087402e+00 -4.9628603175e+00 2.8653087402e+00 4.9628603175e+00 
24700 6.5903396316e+00 -1.0358695463e-01 2.8671305541e+00 -4.9660157917e+00 2.8671305541e+00 4.9660157917e+00 
24800 6.5898844361e+00 -1.0278684976e-01 2.8689372006e+00 -4.9691449951e+00 2.8689372006e+00 4.9691449951e+00 
24900 6.5894360909e+00 -1.0198990835e-01 2.8707287619e+00 -4.9722480704e+00 2.8707287619e+00 4.9722480704e+00 
25000 6.5889944518e+00 -1.0119622051e-01 2.8725053216e+00 -4.9753251621e+00 2.8725053216e+00 4.9753251621e+00 
25100 6.5885593753e+00 -1.0040587471e-01 2.8742669643e+00 -4.9783764166e+00 2.8742669643e+00 4.9783764166e+00 
25200 6.5881307183e+00 -9.9618957855e-02 2.8760137755e+00 -4.9814019825e+00 2.8760137755e+00 4.9814019825e+00 
25300 6.5877083391e+00 -9.8835555420e-02 2.8777458422e+00 -4.9844020099e+00 2.8777458422e+00 4.9844020099e+00 
25400 6.5872920967e+00 -9.8055751541e-02 2.8794632520e+00 -4.9873766509e+00 2.8794632520e+00 4.9873766509e+00 
25500 6.5868818516e+00 -9.7279629109e-02 2.8811660938e+00 -4.9903260595e+00 2.8811660938e+00 4.9903260595e+00 
25600 6.5864774657e+00 -9.6507269857e-02 2.8828544575e+00 -4.9932503912e+00 2.8828544575e+00 4.9932503912e+00 
25700 6.5860788026e+00 -9.5738754437e-02 2.8845284338e+00 -4.9961498033e+00 2.8845284338e+00 4.9961498033e+00 
25800 6.5856857277e+00 -9.4974162489e-02 2.8861881146e+00 -4.9990244547e+00 2.8861881146e+00 4.9990244547e+00 
25900 6.5852981083e+00 -9.4213572708e-02 2.8878335926e+00 -5.0018745062e+00 2.8878335926e+00 5.0018745062e+00 
26000 6.5849158140e+00 -9.3457062892e-02 2.8894649615e+00 -5.0047001200e+00 2.8894649615e+00 5.0047001200e+00 
26100 6.5845387165e+00 -9.2704709995e-02 2.8910823159e+00 -5.0075014600e+00 2.8910823159e+00 5.0075014600e+00 
26200 6.5841666901e+00 -9.1956590160e-02 2.8926857513e+00 -5.0102786915e+00 2.8926857513e+00 5.0102786915e+00 
26300 6.5837996115e+00 -9.1212778750e-02 2.8942753641e+00 -5.0130319817e+00 2.8942753641e+00 5.0130319817e+00 
26400 6.5834373604e+00 -9.0473350374e-02 2.8958512516e+00 -5.0157614990e+00 2.8958512516e+00 5.0157614990e+00 
26500 6.5830798189e+00 -8.9738378893e-02 2.8974135121e+00 -5.0184674135e+00 2.8974135121e+00 5.0184674135e+00 
26600 6.5827268723e+00 -8.9007937432e-02 2.8989622446e+00 -5.0211498969e+00 2.8989622446e+00 5.0211498969e+00 
26700 6.5823784089e+00 -8.8282098375e-02 2.9004975490e+00 -5.0238091221e+00 2.9004975490e+00 5.0238091221e+00 
26800 6.5820343202e+00 -8.7560933355e-02 2.9020195261e+00 -5.0264452637e+00 2.9020195261e+00 5.0264452637e+00 
26900 6.5816945008e+00 -8.6844513233e-02 2.9035282774e+00 -5.0290584976e+00 2.9035282774e+00 5.0290584976e+00 
27000 6.5813588485e+00 -8.6132908078e-02 2.9050239054e+00 -5.0316490013e+00 2.9050239054e+00 5.0316490013e+00 
27100 6.5810272648e+00 -8.5426187128e-02 2.9065065133e+00 -5.0342169536e+00 2.9065065133e+00 5.0342169536e+00 
27200 6.5806996544e+00 -8.4724418755e-02 2.9079762052e+00 -5.0367625347e+00 2.9079762052e+00 5.0367625347e+00 
27300 6.5803759253e+00 -8.4027670416e-02 2.9094330860e+00 -5.0392859261e+00 2.9094330860e+00 5.0392859261e+00 
27400 6.5800559894e+00 -8.3336008598e-02 2.9108772611e+00 -5.0417873108e+00 2.9108772611e+00 5.0417873108e+00 
27500 6.5797397619e+00 -8.2649498759e-02 2.9123088370e+00 -5.0442668730e+00 2.9123088370e+00 5.0442668730e+00 
27600 6.5794271615e+00 -8.1968205268e-02 2.9137279208e+00 -5.0467247983e+00 2.9137279208e+00 5.0467247983e+00 
27700 6.5791181106e+00 -8.1292191325e-02 2.9151346204e+00 -5.0491612734e+00 2.9151346204e+00 5.0491612734e+00 
27800 6.5788125352e+00 -8.0621518893e-02 2.9165290443e+00 -5.0515764865e+00 2.9165290443e+00 5.0515764865e+00 
27900 6.5785103648e+00 -7.9956248614e-02 2.9179113018e+00 -5.0539706267e+00 2.9179113018e+00 5.0539706267e+00 
28000 6.5782115323e+00 -7.9296439723e-02 2.9192815029e+00 -5.0563438846e+00 2.9192815029e+00 5.0563438846e+00 
28100 6.5779159742e+00 -7.8642149965e-02 2.9206397581e+00 -5.0586964516e+00 2.9206397581e+00 5.0586964516e+00 
28200 6.5776236307e+00 -7.7993435496e-02 2.9219861787e+00 -5.0610285204e+00 2.9219861787e+00 5.0610285204e+00 
28300 6.5773344449e+00 -7.7350350794e-02 2.9233208764e+00 -5.0633402848e+00 2.9233208764e+00 5.0633402848e+00 
28400 6.5770483638e+00 -7.6712948559e-02 2.9246439639e+00 -5.0656319395e+00 2.9246439639e+00 5.0656319395e+00 
28500 6.5767653375e+00 -7.6081279618e-02 2.9259555539e+00 -5.0679036801e+00 2.9259555539e+00 5.0679036801e+00 
28600 6.5764853191e+00 -7.5455392819e-02 2.9272557602e+00 -5.0701557033e+00 2.9272557602e+00 5.0701557033e+00 
28700 6.5762082651e+00 -7.4835334937e-02 2.9285446965e+00 -5.0723882066e+00 2.9285446965e+00 5.0723882066e+00 
28800 6.5759341352e+00 -7.4221150568e-02 2.9298224775e+00 -5.0746013882e+00 2.9298224775e+00 5.0746013882e+00 
28900 6.5756628917e+00 -7.3612882029e-02 2.9310892180e+00 -5.0767954471e+00 2.9310892180e+00 5.0767954471e+00 
29000 6.5753945000e+00 -7.3010569259e-02 2.9323450333e+00 -5.0789705831e+00 2.9323450333e+00 5.0789705831e+00 
29100 6.5751289282e+00 -7.2414249721e-02 2.9335900392e+00 -5.0811269964e+00 2.9335900392e+00 5.0811269964e+00 
29200 6.5748661472e+00 -7.1823958299e-02 2.9348243515e+00 -5.0832648880e+00 2.9348243515e+00 5.0832648880e+00 
29300 6.5746061302e+00 -7.1239727210e-02 2.9360480865e+00 -5.0853844593e+00 2.9360480865e+00 5.0853844593e+00 
29400 6.5743488531e+00 -7.0661585908e-02 2.9372613607e+00 -5.0874859119e+00 2.9372613607e+00 5.0874859119e+00 
29500 6.5740942938e+00 -7.0089560993e-02 2.9384642909e+00 -5.0895694481e+00 2.9384642909e+00 5.0895694481e+00 
29600 6.5738424327e+00 -6.9523676129e-02 2.9396569939e+00 -5.0916352702e+00 2.9396569939e+00 5.0916352702e+00 
29700 6.5735932519e+00 -6.8963951957e-02 2.9408395865e+00 -5.0936835808e+00 2.9408395865e+00 5.0936835808e+00 
29800 6.5733467357e+00 -6.8410406023e-02 2.9420121859e+00 -5.0957145825e+00 2.9420121859e+00 5.0957145825e+00 
29900 6.5731028701e+00 -6.7863052701e-02 2.9431749090e+00 -5.0977284779e+00 2.9431749090e+00 5.0977284779e+00 
30000 6.5728616427e+00 -6.7321903128e-02 2.9443278728e+00 -5.0997254698e+00 2.9443278728e+00 5.0997254698e+00 
30100 6.5726230427e+00 -6.6786965139e-02 2.9454711941e+00 -5.1017057604e+00 2.9454711941e+00 5.1017057604e+00 
30200 6.5723870606e+00 -6.6258243214e-02 2.9466049898e+00 -5.1036695521e+00 2.9466049898e+00 5.1036695521e+00 
30300 6.5721536883e+00 -6.5735738425e-02 2.9477293762e+00 -5.1056170466e+00 2.9477293762e+00 5.1056170466e+00 
30400 6.5719229186e+00 -6.5219448390e-02 2.9488444698e+00 -5.1075484453e+00 2.9488444698e+00 5.1075484453e+00 
30500 6.5716947456e+00 -6.4709367242e-02 2.9499503864e+00 -5.1094639491e+00 2.9499503864e+00 5.1094639491e+00 
30600 6.5714691640e+00 -6.4205485591e-02 2.9510472417e+00 -5.1113637582e+00 2.9510472417e+00 5.1113637582e+00 
30700 6.5712461694e+00 -6.3707790506e-02 2.9521351509e+00 -5.1132480722e+00 2.9521351509e+00 5.1132480722e+00 
30800 6.5710257578e+00 -6.3216265493e-02 2.9532142287e+00 -5.1151170898e+00 2.9532142287e+00 5.1151170898e+00 
30900 6.5708079261e+00 -6.2730890489e-02 2.9542845893e+00 -5.1169710087e+00 2.9542845893e+00 5.1169710087e+00 
31000 6.5705926712e+00 -6.2251641859e-02 2.9553463463e+00 -5.1188100258e+00 2.9553463463e+00 5.1188100258e+00 
31100 6.5703799904e+00 -6.1778492399e-02 2.9563996127e+00 -5.1206343366e+00 2.9563996127e+00 5.1206343366e+00 
31200 6.5701698813e+00 -6.1311411353e-02 2.9574445007e+00 -5.1224441358e+00 2.9574445007e+00 5.1224441358e+00 
31300 6.5699623415e+00 -6.0850364425e-02 2.9584811219e+00 -5.1242396163e+00 2.9584811219e+00 5.1242396163e+00 
31400 6.5697573685e+00 -6.0395313815e-02 2.9595095869e+00 -5.1260209700e+00 2.9595095869e+00 5.1260209700e+00 
31500 6.5695549596e+00 -5.9946218247e-02 2.9605300057e+00 -5.1277883872e+00 2.9605300057e+00 5.1277883872e+00 
31600 6.5693551122e+00 -5.9503033012e-02 2.9615424871e+00 -5.1295420565e+00 2.9615424871e+00 5.1295420565e+00 
31700 6.5691578230e+00 -5.9065710020e-02 2.9625471392e+00 -5.1312821649e+00 2.9625471392e+00 5.1312821649e+00 
31800 6.5689630888e+00 -5.8634197849e-02 2.9635440688e+00 -5.1330088977e+00 2.9635440688e+00 5.1330088977e+00 
31900 6.5687709056e+00 -5.8208441815e-02 2.9645333819e+00 -5.1347224382e+00 2.9645333819e+00 5.1347224382e+00 
32000 6.5685812690e+00 -5.7788384035e-02 2.9655151832e+00 -5.1364229679e+00 2.9655151832e+00 5.1364229679e+00 
32100 6.5683941741e+00 -5.7373963506e-02 2.9664895763e+00 -5.1381106662e+00 2.9664895763e+00 5.1381106662e+00 
32200 6.5682096154e+00 -5.6965116185e-02 2.9674566634e+00 -5.1397857103e+00 2.9674566634e+00 5.1397857103e+00 
32300 6.5680275866e+00 -5.6561775077e-02 2.9684165458e+00 -5.1414482753e+00 2.9684165458e+00 5.1414482753e+00 
32400 6.5678480809e+00 -5.6163870330e-02 2.9693693231e+00 -5.1430985341e+00 2.9693693231e+00 5.1430985341e+00 
32500 6.5676710906e+00 -5.5771329329e-02 2.9703150938e+00 -5.1447366570e+00 2.9703150938e+00 5.1447366570e+00 
32600 6.5674966073e+00 -5.5384076807e-02 2.9712539549e+00 -5.1463628121e+00 2.9712539549e+00 5.1463628121e+00 
32700 6.5673246219e+00 -5.5002034949e-02 2.9721860020e+00 -5.1479771650e+00 2.9721860020e+00 5.1479771650e+00 
32800 6.5671551243e+00 -5.4625123505e-02 2.9731113292e+00 -5.1495798787e+00 2.9731113292e+00 5.1495798787e+00 
32900 6.5669881037e+00 -5.4253259909e-02 2.9740300290e+00 -5.1511711134e+00 2.9740300290e+00 5.1511711134e+00 
33000 6.5668235484e+00 -5.3886359404e-02 2.9749421924e+00 -5.1527510269e+00 2.9749421924e+00 5.1527510269e+00 
33100 6.5666614461e+00 -5.3524335158e-02 2.9758479091e+00 -5.1543197741e+00 2.9758479091e+00 5.1543197741e+00 
33200 6.5665017833e+00 -5.3167098402e-02 2.9767472667e+00 -5.1558775072e+00 2.9767472667e+00 5.1558775072e+00 
33300 6.5663445459e+00 -5.2814558556e-02 2.9776403515e+00 -5.1574243755e+00 2.9776403515e+00 5.1574243755e+00 
33400 6.5661897189e+00 -5.2466623360e-02 2.9785272481e+00 -5.1589605254e+00 2.9785272481e+00 5.1589605254e+00 
33500 6.5660372864e+00 -5.2123199018e-02 2.9794080392e+00 -5.1604861004e+00 2.9794080392e+00 5.1604861004e+00 
33600 6.5658872320e+00 -5.1784190325e-02 2.9802828061e+00 -5.1620012411e+00 2.9802828061e+00 5.1620012411e+00 
33700 6.5657395381e+00 -5.1449500816e-02 2.9811516281e+00 -5.1635060849e+00 2.9811516281e+00 5.1635060849e+00 
33800 6.5655941867e+00 -5.1119032900e-02 2.9820145829e+00 -5.1650007665e+00 2.9820145829e+00 5.1650007665e+00 
33900 6.5654511589e+00 -5.0792688000e-02 2.9828717464e+00 -5.1664854172e+00 2.9828717464e+00 5.1664854172e+00 
34000 6.5653104350e+00 -5.0470366700e-02 2.9837231927e+00 -5.1679601655e+00 2.9837231927e+00 5.1679601655e+00 
34100 6.5651719949e+00 -5.0151968881e-02 2.9845689942e+00 -5.1694251367e+00 2.9845689942e+00 5.1694251367e+00 
34200 6.5650358174e+00 -4.9837393863e-02 2.9854092214e+00 -5.1708804529e+00 2.9854092214e+00 5.1708804529e+00 
34300 6.5649018813e+00 -4.9526540548e-02 2.9862439431e+00 -5.1723262332e+00 2.9862439431e+00 5.1723262332e+00 
34400 6.5647701642e+00 -4.9219307554e-02 2.9870732262e+00 -5.1737625937e+00 2.9870732262e+00 5.1737625937e+00 
34500 6.5646406435e+00 -4.8915593363e-02 2.9878971358e+00 -5.1751896470e+00 2.9878971358e+00 5.1751896470e+00 
34600 6.5645132960e+00 -4.8615296445e-02 2.9887157354e+00 -5.1766075031e+00 2.9887157354e+00 5.1766075031e+00 
34700 6.5643880980e+00 -4.8318315403e-02 2.9895290864e+00 -5.1780162684e+00 2.9895290864e+00 5.1780162684e+00 
34800 6.5642650255e+00 -4.8024549104e-02 2.9903372487e+00 -5.1794160465e+00 2.9903372487e+00 5.1794160465e+00 
34900 6.5641440538e+00 -4.7733896805e-02 2.9911402802e+00 -5.1808069378e+00 2.9911402802e+00 5.1808069378e+00 
35000 6.5640251582e+00 -4.7446258285e-02 2.9919382370e+00 -5.1821890396e+00 2.9919382370e+00 5.1821890396e+00 
35100 6.5639083133e+00 -4.7161533971e-02 2.9927311737e+00 -5.1835624463e+00 2.9927311737e+00 5.1835624463e+00 
35200 6.5637934937e+00 -4.6879625055e-02 2.9935191430e+00 -5.1849272491e+00 2.9935191430e+00 5.1849272491e+00 
35300 6.5636806735e+00 -4.6600433618e-02 2.9943021957e+00 -5.1862835362e+00 2.9943021957e+00 5.1862835362e+00 
35400 6.5635698269e+00 -4.6323862744e-02 2.9950803813e+00 -5.1876313931e+00 2.9950803813e+00 5.1876313931e+00 
35500 6.5634609276e+00 -4.6049816630e-02 2.9958537471e+00 -5.1889709020e+00 2.9958537471e+00 5.1889709020e+00 
35600 6.5633539493e+00 -4.5778200695e-02 2.9966223391e+00 -5.1903021424e+00 2.9966223391e+00 5.1903021424e+00 
35700 6.5632488655e+00 -4.5508921683e-02 2.9973862015e+00 -5.1916251909e+00 2.9973862015e+00 5.1916251909e+00 
35800 6.5631456497e+00 -4.5241887764e-02 2.9981453770e+00 -5.1929401214e+00 2.9981453770e+00 5.1929401214e+00 
35900 6.5630442753e+00 -4.4977008630e-02 2.9988999065e+00 -5.1942470049e+00 2.9988999065e+00 5.1942470049e+00 
36000 6.5629447158e+00 -4.4714195582e-02 2.9996498296e+00 -5.1955459097e+00 2.9996498296e+00 5.1955459097e+00 
36100 6.5628469444e+00 -4.4453361621e-02 3.0003951840e+00 -5.1968369015e+00 3.0003951840e+00 5.1968369015e+00 
36200 6.5627509347e+00 -4.4194421529e-02 3.0011360063e+00 -5.1981200433e+00 3.0011360063e+00 5.1981200433e+00 
36300 6.5626566600e+00 -4.3937291942e-02 3.0018723313e+00 -5.1993953956e+00 3.0018723313e+00 5.1993953956e+00 
36400 6.5625640940e+00 -4.3681891430e-02 3.0026041924e+00 -5.2006630163e+00 3.0026041924e+00 5.2006630163e+00 
36500 6.5624732103e+00 -4.3428140558e-02 3.0033316219e+00 -5.2019229611e+00 3.0033316219e+00 5.2019229611e+00 
36600 6.5623839828e+00 -4.3175961952e-02 3.0040546503e+00 -5.2031752831e+00 3.0040546503e+00 5.2031752831e+00 
36700 6.5622963853e+00 -4.2925280359e-02 3.0047733071e+00 -5.2044200331e+00 3.0047733071e+00 5.2044200331e+00 
36800 6.5622103919e+00 -4.2676022695e-02 3.0054876202e+00 -5.2056572597e+00 3.0054876202e+00 5.2056572597e+00 
36900 6.5621259771e+00 -4.2428118098e-02 3.0061976165e+00 -5.2068870094e+00 3.0061976165e+00 5.2068870094e+00 
37000 6.5620431152e+00 -4.2181497968e-02 3.0069033216e+00 -5.2081093264e+00 3.0069033216e+00 5.2081093264e+00 
37100 6.5619617810e+00 -4.1936096010e-02 3.0076047598e+00 -5.2093242530e+00 3.0076047598e+00 5.2093242530e+00 
37200 6.5618819493e+00 -4.1691848265e-02 3.0083019544e+00 -5.2105318295e+00 3.0083019544e+00 5.2105318295e+00 
37300 6.5618035955e+00 -4.1448693137e-02 3.0089949275e+00 -5.2117320942e+00 3.0089949275e+00 5.2117320942e+00 
37400 6.5617266949e+00 -4.1206571425e-02 3.0096837003e+00 -5.2129250836e+00 3.0096837003e+00 5.2129250836e+00 
37500 6.5616512233e+00 -4.0965426332e-02 3.0103682927e+00 -5.2141108324e+00 3.0103682927e+00 5.2141108324e+00 
37600 6.5615771565e+00 -4.0725203491e-02 3.0110487239e+00 -5.2152893738e+00 3.0110487239e+00 5.2152893738e+00 
37700 6.5615044709e+00 -4.0485850970e-02 3.0117250120e+00 -5.2164607391e+00 3.0117250120e+00 5.2164607391e+00 
37800 6.5614331430e+00 -4.0247319276e-02 3.0123971742e+00 -5.2176249583e+00 3.0123971742e+00 5.2176249583e+00 
37900 6.5613631496e+00 -4.0009561366e-02 3.0130652270e+00 -5.2187820596e+00 3.0130652270e+00 5.2187820596e+00 
38000 6.5612944678e+00 -3.9772532634e-02 3.0137291859e+00 -5.2199320702e+00 3.0137291859e+00 5.2199320702e+00 
38100 6.5612270751e+00 -3.9536190914e-02 3.0143890657e+00 -5.2210750157e+00 3.0143890657e+00 5.2210750157e+00 
38200 6.5611609491e+00 -3.9300496465e-02 3.0150448806e+00 -5.2222109203e+00 3.0150448806e+00 5.2222109203e+00 
38300 6.5610960680e+00 -3.9065411956e-02 3.0156966439e+00 -5.2233398075e+00 3.0156966439e+00 5.2233398075e+00 
38400 6.5610324100e+00 -3.8830902452e-02 3.0163443684e+00 -5.2244616992e+00 3.0163443684e+00 5.2244616992e+00 
38500 6.5609699538e+00 -3.8596935390e-02 3.0169880662e+00 -5.2255766164e+00 3.0169880662e+00 5.2255766164e+00 
38600 6.5609086783e+00 -3.8363480556e-02 3.0176277488e+00 -5.2266845793e+00 3.0176277488e+00 5.2266845793e+00 
38700 6.5608485628e+00 -3.8130510054e-02 3.0182634274e+00 -5.2277856069e+00 3.0182634274e+00 5.2277856069e+00 
38800 6.5607895869e+00 -3.7897998278e-02 3.0188951125e+00 -5.2288797176e+00 3.0188951125e+00 5.2288797176e+00 
38900 6.5607317304e+00 -3.7665921874e-02 3.0195228142e+00 -5.2299669288e+00 3.0195228142e+00 5.2299669288e+00 
39000 6.5606749736e+00 -3.7434259707e-02 3.0201465422e+00 -5.2310472574e+00 3.0201465422e+00 5.2310472574e+00 
39100 6.5606192968e+00 -3.7202992817e-02 3.0207663058e+00 -5.2321207195e+00 3.0207663058e+00 5.2321207195e+00 
39200 6.5605646809e+00 -3.6972104378e-02 3.0213821141e+00 -5.2331873307e+00 3.0213821141e+00 5.2331873307e+00 
39300 6.5605111069e+00 -3.6741579654e-02 3.0219939756e+00 -5.2342471060e+00 3.0219939756e+00 5.2342471060e+00 
39400 6.5604585563e+00 -3.6511405949e-02 3.0226018990e+00 -5.2353000600e+00 3.0226018990e+00 5.2353000600e+00 
39500 6.5604070106e+00 -3.6281572559e-02 3.0232058922e+00 -5.2363462070e+00 3.0232058922e+00 5.2363462070e+00 
39600 6.5603564518e+00 -3.6052070723e-02 3.0238059633e+00 -5.2373855607e+00 3.0238059633e+00 5.2373855607e+00 
39700 6.5603068621e+00 -3.5822893562e-02 3.0244021202e+00 -5.2384181347e+00 3.0244021202e+00 5.2384181347e+00 
39800 6.5602582241e+00 -3.5594036034e-02 3.0249943705e+00 -5.2394439424e+00 3.0249943705e+00 5.2394439424e+00 
39900 6.5602105206e+00 -3.5365494870e-02 3.0255827219e+00 -5.2404629968e+00 3.0255827219e+00 5.2404629968e+00 
40000 6.5601637346e+00 -3.5137268518e-02 3.0261671817e+00 -5.2414753110e+00 3.0261671817e+00 5.2414753110e+00 
40100 6.5601178494e+00 -3.4909357085e-02 3.0267477576e+00 -5.2424808978e+00 3.0267477576e+00 5.2424808978e+00 
40200 6.5600728486e+00 -3.4681762276e-02 3.0273244569e+00 -5.2434797703e+00 3.0273244569e+00 5.2434797703e+00 
40300 6.5600287162e+00 -3.4454487333e-02 3.0278972870e+00 -5.2444719413e+00 3.0278972870e+00 5.2444719413e+00 
40400 6.5599854362e+00 -3.4227536970e-02 3.0284662556e+00 -5.2454574237e+00 3.0284662556e+00 5.2454574237e+00 
40500 6.5599429930e+00 -3.4000917316e-02 3.0290313700e+00 -5.2464362306e+00 3.0290313700e+00 5.2464362306e+00 
40600 6.5599013713e+00 -3.3774635847e-02 3.0295926380e+00 -5.2474083753e+00 3.0295926380e+00 5.2474083753e+00 
40700 6.5598605560e+00 -3.3548701323e-02 3.0301500673e+00 -5.2483738711e+00 3.0301500673e+00 5.2483738711e+00 
40800 6.5598205321e+00 -3.3323123728e-02 3.0307036657e+00 -5.2493327316e+00 3.0307036657e+00 5.2493327316e+00 
40900 6.5597812851e+00 -3.3097914198e-02 3.0312534411e+00 -5.2502849707e+00 3.0312534411e+00 5.2502849707e+00 
41000 6.5597428005e+00 -3.2873084967e-02 3.0317994019e+00 -5.2512306024e+00 3.0317994019e+00 5.2512306024e+00 
41100 6.5597050643e+00 -3.2648649292e-02 3.0323415562e+00 -5.2521696413e+00 3.0323415562e+00 5.2521696413e+00 
41200 6.5596680625e+00 -3.2424621401e-02 3.0328799127e+00 -5.2531021021e+00 3.0328799127e+00 5.2531021021e+00 
41300 6.5596317814e+00 -3.2201016418e-02 3.0334144801e+00 -5.2540279999e+00 3.0334144801e+00 5.2540279999e+00 
41400 6.5595962077e+00 -3.1977850308e-02 3.0339452674e+00 -5.2549473505e+00 3.0339452674e+00 5.2549473505e+00 
41500 6.5595613279e+00 -3.1755139811e-02 3.0344722837e+00 -5.2558601696e+00 3.0344722837e+00 5.2558601696e+00 
41600 6.5595271292e+00 -3.1532902381e-02 3.0349955387e+00 -5.2567664737e+00 3.0349955387e+00 5.2567664737e+00 
41700 6.5594935988e+00 -3.1311156124e-02 3.0355150419e+00 -5.2576662798e+00 3.0355150419e+00 5.2576662798e+00 
41800 6.5594607241e+00 -3.1089919741e-02 3.0360308035e+00 -5.2585596051e+00 3.0360308035e+00 5.2585596051e+00 
41900 6.5594284927e+00 -3.0869212461e-02 3.0365428338e+00 -5.2594464675e+00 3.0365428338e+00 5.2594464675e+00 
42000 6.5593968925e+00 -3.0649053992e-02 3.0370511433e+00 -5.2603268855e+00 3.0370511433e+00 5.2603268855e+00 
42100 6.5593659116e+00 -3.0429464455e-02 3.0375557431e+00 -5.2612008778e+00 3.0375557431e+00 5.2612008778e+00 
42200 6.5593355382e+00 -3.0210464335e-02 3.0380566442e+00 -5.2620684640e+00 3.0380566442e+00 5.2620684640e+00 
42300 6.5593057608e+00 -2.9992074420e-02 3.0385538582e+00 -5.2629296639e+00 3.0385538582e+00 5.2629296639e+00 
42400 6.5592765681e+00 -2.9774315751e-02 3.0390473970e+00 -5.2637844983e+00 3.0390473970e+00 5.2637844983e+00 
42500 6.5592479490e+00 -2.9557209567e-02 3.0395372728e+00 -5.2646329880e+00 3.0395372728e+00 5.2646329880e+00 
42600 6.5592198926e+00 -2.9340777255e-02 3.0400234981e+00 -5.2654751549e+00 3.0400234981e+00 5.2654751549e+00 
42700 6.5591923881e+00 -2.9125040302e-02 3.0405060857e+00 -5.2663110212e+00 3.0405060857e+00 5.2663110212e+00 
42800 6.5591654250e+00 -2.8910020243e-02 3.0409850488e+00 -5.2671406096e+00 3.0409850488e+00 5.2671406096e+00 
42900 6.5591389930e+00 -2.8695738616e-02 3.0414604009e+00 -5.2679639436e+00 3.0414604009e+00 5.2679639436e+00 
43000 6.5591130818e+00 -2.8482216919e-02 3.0419321559e+00 -5.2687810472e+00 3.0419321559e+00 5.2687810472e+00 
43100 6.5590876817e+00 -2.8269476562e-02 3.0424003279e+00 -5.2695919448e+00 3.0424003279e+00 5.2695919448e+00 
43200 6.5590627826e+00 -2.8057538829e-02 3.0428649313e+00 -5.2703966617e+00 3.0428649313e+00 5.2703966617e+00 
43300 6.5590383752e+00 -2.7846424834e-02 3.0433259812e+00 -5.2711952234e+00 3.0433259812e+00 5.2711952234e+00 
43400 6.5590144499e+00 -2.7636155487e-02 3.0437834925e+00 -5.2719876563e+00 3.0437834925e+00 5.2719876563e+00 
43500 6.5589909975e+00 -2.7426751451e-02 3.0442374808e+00 -5.2727739871e+00 3.0442374808e+00 5.2727739871e+00 
43600 6.5589680089e+00 -2.7218233111e-02 3.0446879619e+00 -5.2735542432e+00 3.0446879619e+00 5.2735542432e+00 
43700 6.5589454753e+00 -2.7010620541e-02 3.0451349519e+00 -5.2743284525e+00 3.0451349519e+00 5.2743284525e+00 
43800 6.5589233879e+00 -2.6803933466e-02 3.0455784671e+00 -5.2750966435e+00 3.0455784671e+00 5.2750966435e+00 
43900 6.5589017382e+00 -2.6598191238e-02 3.0460185244e+00 -5.2758588450e+00 3.0460185244e+00 5.2758588450e+00 
44000 6.5588805177e+00 -2.6393412807e-02 3.0464551407e+00 -5.2766150866e+00 3.0464551407e+00 5.2766150866e+00 
44100 6.5588597183e+00 -2.6189616687e-02 3.0468883333e+00 -5.2773653983e+00 3.0468883333e+00 5.2773653983e+00 
44200 6.5588393319e+00 -2.5986820942e-02 3.0473181199e+00 -5.2781098104e+00 3.0473181199e+00 5.2781098104e+00 
44300 6.5588193506e+00 -2.5785043152e-02 3.0477445182e+00 -5.2788483540e+00 3.0477445182e+00 5.2788483540e+00 
44400 6.5587997666e+00 -2.5584300398e-02 3.0481675464e+00 -5.2795810604e+00 3.0481675464e+00 5.2795810604e+00 
44500 6.5587805724e+00 -2.5384609238e-02 3.0485872229e+00 -5.2803079614e+00 3.0485872229e+00 5.2803079614e+00 
44600 6.5587617605e+00 -2.5185985690e-02 3.0490035664e+00 -5.2810290895e+00 3.0490035664e+00 5.2810290895e+00 
44700 6.5587433235e+00 -2.4988445216e-02 3.0494165957e+00 -5.2817444771e+00 3.0494165957e+00 5.2817444771e+00 
44800 6.5587252545e+00 -2.4792002704e-02 3.0498263299e+00 -5.2824541576e+00 3.0498263299e+00 5.2824541576e+00 
44900 6.5587075463e+00 -2.4596672456e-02 3.0502327883e+00 -5.2831581642e+00 3.0502327883e+00 5.2831581642e+00 
45000 6.5586901921e+00 -2.4402468175e-02 3.0506359905e+00 -5.2838565310e+00 3.0506359905e+00 5.2838565310e+00 
45100 6.5586731852e+00 -2.4209402955e-02 3.0510359563e+00 -5.2845492921e+00 3.0510359563e+00 5.2845492921e+00 
45200 6.5586565190e+00 -2.4017489271e-02 3.0514327056e+00 -5.2852364821e+00 3.0514327056e+00 5.2852364821e+00 
45300 6.5586401870e+00 -2.3826738971e-02 3.0518262586e+00 -5.2859181357e+00 3.0518262586e+00 5.2859181357e+00 
45400 6.5586241829e+00 -2.3637163270e-02 3.0522166354e+00 -5.2865942883e+00 3.0522166354e+00 5.2865942883e+00 
45500 6.5586085006e+00 -2.3448772744e-02 3.0526038567e+00 -5.2872649752e+00 3.0526038567e+00 5.2872649752e+00 
45600 6.5585931339e+00 -2.3261577328e-02 3.0529879429e+00 -5.2879302321e+00 3.0529879429e+00 5.2879302321e+00 
45700 6.5585780770e+00 -2.3075586310e-02 3.0533689150e+00 -5.2885900950e+00 3.0533689150e+00 5.2885900950e+00 
45800 6.5585633240e+00 -2.2890808334e-02 3.0537467937e+00 -5.2892446001e+00 3.0537467937e+00 5.2892446001e+00 
45900 6.5585488691e+00 -2.2707251398e-02 3.0541216001e+00 -5.2898937839e+00 3.0541216001e+00 5.2898937839e+00 
46000 6.5585347069e+00 -2.2524922855e-02 3.0544933553e+00 -5.2905376828e+00 3.0544933553e+00 5.2905376828e+00 
46100 6.5585208318e+00 -2.2343829414e-02 3.0548620805e+00 -5.2911763336e+00 3.0548620805e+00 5.2911763336e+00 
46200 6.5585072385e+00 -2.2163977145e-02 3.0552277971e+00 -5.2918097733e+00 3.0552277971e+00 5.2918097733e+00 
46300 6.5584939218e+00 -2.1985371486e-02 3.0555905265e+00 -5.2924380390e+00 3.0555905265e+00 5.2924380390e+00 
46400 6.5584808764e+00 -2.1808017240e-02 3.0559502900e+00 -5.2930611678e+00 3.0559502900e+00 5.2930611678e+00 
46500 6.5584680973e+00 -2.1631918592e-02 3.0563071094e+00 -5.2936791969e+00 3.0563071094e+00 5.2936791969e+00 
46600 6.5584555797e+00 -2.1457079107e-02 3.0566610060e+00 -5.2942921639e+00 3.0566610060e+00 5.2942921639e+00 
46700 6.5584433187e+00 -2.1283501743e-02 3.0570120016e+00 -5.2949001061e+00 3.0570120016e+00 5.2949001061e+00 
46800 6.5584313094e+00 -2.1111188861e-02 3.0573601177e+00 -5.2955030609e+00 3.0573601177e+00 5.2955030609e+00 
46900 6.5584195473e+00 -2.0940142228e-02 3.0577053761e+00 -5.2961010661e+00 3.0577053761e+00 5.2961010661e+00 
47000 6.5584080279e+00 -2.0770363036e-02 3.0580477985e+00 -5.2966941590e+00 3.0580477985e+00 5.2966941590e+00 
47100 6.5583967465e+00 -2.0601851906e-02 3.0583874065e+00 -5.2972823772e+00 3.0583874065e+00 5.2972823772e+00 
47200 6.5583856990e+00 -2.0434608904e-02 3.0587242217e+00 -5.2978657583e+00 3.0587242217e+00 5.2978657583e+00 
47300 6.5583748809e+00 -2.0268633550e-02 3.0590582659e+00 -5.2984443398e+00 3.0590582659e+00 5.2984443398e+00 
47400 6.5583642881e+00 -2.0103924834e-02 3.0593895606e+00 -5.2990181592e+00 3.0593895606e+00 5.2990181592e+00 
47500 6.5583539164e+00 -1.9940481228e-02 3.0597181276e+00 -5.2995872538e+00 3.0597181276e+00 5.2995872538e+00 
47600 6.5583437618e+00 -1.9778300697e-02 3.0600439882e+00 -5.3001516610e+00 3.0600439882e+00 5.3001516610e+00 
47700 6.5583338203e+00 -1.9617380719e-02 3.0603671641e+00 -5.3007114181e+00 3.0603671641e+00 5.3007114181e+00 
47800 6.5583240880e+00 -1.9457718294e-02 3.0606876767e+00 -5.3012665621e+00 3.0606876767e+00 5.3012665621e+00 
47900 6.5583145612e+00 -1.9299309961e-02 3.0610055473e+00 -5.3018171302e+00 3.0610055473e+00 5.3018171302e+00 
48000 6.5583052359e+00 -1.9142151815e-02 3.0613207973e+00 -5.3023631593e+00 3.0613207973e+00 5.3023631593e+00 
48100 6.5582961086e+00 -1.8986239520e-02 3.0616334480e+00 -5.3029046860e+00 3.0616334480e+00 5.3029046860e+00 
48200 6.5582871757e+00 -1.8831568324e-02 3.0619435204e+00 -5.3034417472e+00 3.0619435204e+00 5.3034417472e+00 
48300 6.5582784336e+00 -1.8678133077e-02 3.0622510356e+00 -5.3039743791e+00 3.0622510356e+00 5.3039743791e+00 
48400 6.5582698788e+00 -1.8525928249e-02 3.0625560145e+00 -5.3045026182e+00 3.0625560145e+00 5.3045026182e+00 
48500 6.5582615079e+00 -1.8374947939e-02 3.0628584781e+00 -5.3050265005e+00 3.0628584781e+00 5.3050265005e+00 
48600 6.5582533176e+00 -1.8225185898e-02 3.0631584470e+00 -5.3055460619e+00 3.0631584470e+00 5.3055460619e+00 
48700 6.5582453046e+00 -1.8076635543e-02 3.0634559420e+00 -5.3060613382e+00 3.0634559420e+00 5.3060613382e+00 
48800 6.5582374655e+00 -1.7929289971e-02 3.0637509833e+00 -5.3065723649e+00 3.0637509833e+00 5.3065723649e+00 
48900 6.5582297974e+00 -1.7783141979e-02 3.0640435916e+00 -5.3070791772e+00 3.0640435916e+00 5.3070791772e+00 
49000 6.5582222969e+00 -1.7638184079e-02 3.0643337869e+00 -5.3075818103e+00 3.0643337869e+00 5.3075818103e+00 
49100 6.5582149611e+00 -1.7494408512e-02 3.0646215894e+00 -5.3080802989e+00 3.0646215894e+00 5.3080802989e+00 
49200 6.5582077870e+00 -1.7351807266e-02 3.0649070191e+00 -5.3085746776e+00 3.0649070191e+00 5.3085746776e+00 
49300 6.5582007715e+00 -1.7210372091e-02 3.0651900958e+00 -5.3090649808e+00 3.0651900958e+00 5.3090649808e+00 
49400 6.5581939118e+00 -1.7070094517e-02 3.0654708392e+00 -5.3095512425e+00 3.0654708392e+00 5.3095512425e+00 
49500 6.5581872051e+00 -1.6930965867e-02 3.0657492687e+00 -5.3100334967e+00 3.0657492687e+00 5.3100334967e+00 
49600 6.5581806484e+00 -1.6792977272e-02 3.0660254038e+00 -5.3105117767e+00 3.0660254038e+00 5.3105117767e+00 
49700 6.5581742391e+00 -1.6656119689e-02 3.0662992637e+00 -5.3109861159e+00 3.0662992637e+00 5.3109861159e+00 
49800 6.5581679744e+00 -1.6520383914e-02 3.0665708674e+00 -5.3114565474e+00 3.0665708674e+00 5.3114565474e+00 
49900 6.5581618517e+00 -1.6385760595e-02 3.0668402339e+00 -5.3119231037e+00 3.0668402339e+00 5.3119231037e+00 
50000 6.5581558683e+00 -1.6252240252e-02 3.0671073818e+00 -5.3123858175e+00 3.0671073818e+00 5.3123858175e+00 
50100 6.5581500217e+00 -1.6119813285e-02 3.0673723297e+00 -5.3128447207e+00 3.0673723297e+00 5.3128447207e+00 
50200 6.5581443093e+00 -1.5988469991e-02 3.0676350960e+00 -5.3132998454e+00 3.0676350960e+00 5.3132998454e+00 
50300 6.5581387285e+00 -1.5858200577e-02 3.0678956990e+00 -5.3137512229e+00 3.0678956990e+00 5.3137512229e+00 
50400 6.5581332771e+00 -1.5728995173e-02 3.0681541566e+00 -5.3141988847e+00 3.0681541566e+00 5.3141988847e+00 
50500 6.5581279525e+00 -1.5600843844e-02 3.0684104869e+00 -5.3146428618e+00 3.0684104869e+00 5.3146428618e+00 
50600 6.5581227523e+00 -1.5473736605e-02 3.0686647074e+00 -5.3150831846e+00 3.0686647074e+00 5.3150831846e+00 
50700 6.5581176743e+00 -1.5347663430e-02 3.0689168358e+00 -5.3155198838e+00 3.0689168358e+00 5.3155198838e+00 
50800 6.5581127161e+00 -1.5222614267e-02 3.0691668893e+00 -5.3159529893e+00 3.0691668893e+00 5.3159529893e+00 
50900 6.5581078755e+00 -1.5098579045e-02 3.0694148853e+00 -5.3163825308e+00 3.0694148853e+00 5.3163825308e+00 
51000 6.5581031503e+00 -1.4975547691e-02 3.0696608407e+00 -5.3168085380e+00 3.0696608407e+00 5.3168085380e+00 
51100 6.5580985382e+00 -1.4853510134e-02 3.0699047723e+00 -5.3172310400e+00 3.0699047723e+00 5.3172310400e+00 
51200 6.5580940371e+00 -1.4732456320e-02 3.0701466968e+00 -5.3176500655e+00 3.0701466968e+00 5.3176500655e+00 
51300 6.5580896449e+00 -1.4612376220e-02 3.0703866307e+00 -5.3180656433e+00 3.0703866307e+00 5.3180656433e+00 
51400 6.5580853595e+00 -1.4493259840e-02 3.0706245904e+00 -5.3184778016e+00 3.0706245904e+00 5.3184778016e+00 
51500 6.5580811788e+00 -1.4375097230e-02 3.0708605920e+00 -5.3188865683e+00 3.0708605920e+00 5.3188865683e+00 
51600 6.5580771009e+00 -1.4257878491e-02 3.0710946515e+00 -5.3192919712e+00 3.0710946515e+00 5.3192919712e+00 
51700 6.5580731238e+00 -1.4141593785e-02 3.0713267846e+00 -5.3196940376e+00 3.0713267846e+00 5.3196940376e+00 
51800 6.5580692454e+00 -1.4026233343e-02 3.0715570071e+00 -5.3200927947e+00 3.0715570071e+00 5.3200927947e+00 
51900 6.5580654639e+00 -1.3911787470e-02 3.0717853344e+00 -5.3204882692e+00 3.0717853344e+00 5.3204882692e+00 
52000 6.5580617774e+00 -1.3798246556e-02 3.0720117819e+00 -5.3208804877e+00 3.0720117819e+00 5.3208804877e+00 
52100 6.5580581841e+00 -1.3685601079e-02 3.0722363646e+00 -5.3212694763e+00 3.0722363646e+00 5.3212694763e+00 
52200 6.5580546821e+00 -1.3573841611e-02 3.0724590976e+00 -5.3216552612e+00 3.0724590976e+00 5.3216552612e+00 
52300 6.5580512695e+00 -1.3462958827e-02 3.0726799956e+00 -5.3220378678e+00 3.0726799956e+00 5.3220378678e+00 
52400 6.5580479447e+00 -1.3352943509e-02 3.0728990734e+00 -5.3224173217e+00 3.0728990734e+00 5.3224173217e+00 
52500 6.5580447059e+00 -1.3243786550e-02 3.0731163454e+00 -5.3227936479e+00 3.0731163454e+00 5.3227936479e+00 
52600 6.5580415514e+00 -1.3135478959e-02 3.0733318261e+00 -5.3231668713e+00 3.0733318261e+00 5.3231668713e+00 
52700 6.5580384795e+00 -1.3028011865e-02 3.0735455295e+00 -5.3235370165e+00 3.0735455295e+00 5.3235370165e+00 
52800 6.5580354885e+00 -1.2921376524e-02 3.0737574698e+00 -5.3239041078e+00 3.0737574698e+00 5.3239041078e+00 
52900 6.5580325769e+00 -1.2815564318e-02 3.0739676608e+00 -5.3242681693e+00 3.0739676608e+00 5.3242681693e+00 
53000 6.5580297429e+00 -1.2710566760e-02 3.0741761163e+00 -5.3246292248e+00 3.0741761163e+00 5.3246292248e+00 
53100 6.5580269851e+00 -1.2606375499e-02 3.0743828499e+00 -5.3249872979e+00 3.0743828499e+00 5.3249872979e+00 
53200 6.5580243019e+00 -1.2502982320e-02 3.0745878750e+00 -5.3253424119e+00 3.0745878750e+00 5.3253424119e+00 
53300 6.5580216917e+00 -1.2400379145e-02 3.0747912050e+00 -5.3256945898e+00 3.0747912050e+00 5.3256945898e+00 
53400 6.5580191532e+00 -1.2298558039e-02 3.0749928531e+00 -5.3260438545e+00 3.0749928531e+00 5.3260438545e+00 
53500 6.5580166847e+00 -1.2197511209e-02 3.0751928323e+00 -5.3263902286e+00 3.0751928323e+00 5.3263902286e+00 
53600 6.5580142848e+00 -1.2097231005e-02 3.0753911555e+00 -5.3267337345e+00 3.0753911555e+00 5.3267337345e+00 
53700 6.5580119522e+00 -1.1997709921e-02 3.0755878355e+00 -5.3270743943e+00 3.0755878355e+00 5.3270743943e+00 
53800 6.5580096854e+00 -1.1898940598e-02 3.0757828850e+00 -5.3274122299e+00 3.0757828850e+00 5.3274122299e+00 
53900 6.5580074830e+00 -1.1800915820e-02 3.0759763165e+00 -5.3277472631e+00 3.0759763165e+00 5.3277472631e+00 
54000 6.5580053437e+00 -1.1703628520e-02 3.0761681424e+00 -5.3280795153e+00 3.0761681424e+00 5.3280795153e+00 
54100 6.5580032662e+00 -1.1607071774e-02 3.0763583750e+00 -5.3284090078e+00 3.0763583750e+00 5.3284090078e+00 
54200 6.5580012491e+00 -1.1511238805e-02 3.0765470265e+00 -5.3287357617e+00 3.0765470265e+00 5.3287357617e+00 
54300 6.5579992912e+00 -1.1416122979e-02 3.0767341089e+00 -5.3290597979e+00 3.0767341089e+00 5.3290597979e+00 
54400 6.5579973912e+00 -1.1321717808e-02 3.0769196341e+00 -5.3293811371e+00 3.0769196341e+00 5.3293811371e+00 
54500 6.5579955479e+00 -1.1228016945e-02 3.0771036141e+00 -5.3296997997e+00 3.0771036141e+00 5.3296997997e+00 
54600 6.5579937600e+00 -1.1135014186e-02 3.0772860604e+00 -5.3300158061e+00 3.0772860604e+00 5.3300158061e+00 
54700 6.5579920264e+00 -1.1042703467e-02 3.0774669849e+00 -5.3303291764e+00 3.0774669849e+00 5.3303291764e+00 
54800 6.5579903458e+00 -1.0951078861e-02 3.0776463988e+00 -5.3306399305e+00 3.0776463988e+00 5.3306399305e+00 
54900 6.5579887172e+00 -1.0860134581e-02 3.0778243137e+00 -5.3309480882e+00 3.0778243137e+00 5.3309480882e+00 
55000 6.5579871393e+00 -1.0769864971e-02 3.0780007409e+00 -5.3312536690e+00 3.0780007409e+00 5.3312536690e+00 
55100 6.5579856111e+00 -1.0680264511e-02 3.0781756916e+00 -5.3315566925e+00 3.0781756916e+00 5.3315566925e+00 
55200 6.5579841314e+00 -1.0591327811e-02 3.0783491769e+00 -5.3318571779e+00 3.0783491769e+00 5.3318571779e+00 
55300 6.5579826993e+00 -1.0503049607e-02 3.0785212079e+00 -5.3321551442e+00 3.0785212079e+00 5.3321551442e+00 
55400 6.5579813136e+00 -1.0415424763e-02 3.0786917954e+00 -5.3324506105e+00 3.0786917954e+00 5.3324506105e+00 
55500 6.5579799733e+00 -1.0328448264e-02 3.0788609504e+00 -5.3327435955e+00 3.0788609504e+00 5.3327435955e+00 
55600 6.5579786773e+00 -1.0242115218e-02 3.0790286835e+00 -5.3330341178e+00 3.0790286835e+00 5.3330341178e+00 
55700 6.5579774248e+00 -1.0156420848e-02 3.0791950056e+00 -5.3333221961e+00 3.0791950056e+00 5.3333221961e+00 
55800 6.5579762146e+00 -1.0071360492e-02 3.0793599271e+00 -5.3336078486e+00 3.0793599271e+00 5.3336078486e+00 
55900 6.5579750459e+00 -9.9869295996e-03 3.0795234587e+00 -5.3338910935e+00 3.0795234587e+00 5.3338910935e+00 
56000 6.5579739176e+00 -9.9031237295e-03 3.0796856107e+00 -5.3341719490e+00 3.0796856107e+00 5.3341719490e+00 
56100 6.5579728289e+00 -9.8199385449e-03 3.0798463935e+00 -5.3344504330e+00 3.0798463935e+00 5.3344504330e+00 
56200 6.5579717789e+00 -9.7373698115e-03 3.0800058174e+00 -5.3347265633e+00 3.0800058174e+00 5.3347265633e+00 
56300 6.5579707666e+00 -9.6554133937e-03 3.0801638926e+00 -5.3350003577e+00 3.0801638926e+00 5.3350003577e+00 
56400 6.5579697911e+00 -9.5740652513e-03 3.0803206293e+00 -5.3352718336e+00 3.0803206293e+00 5.3352718336e+00 
56500 6.5579688517e+00 -9.4933214367e-03 3.0804760376e+00 -5.3355410086e+00 3.0804760376e+00 5.3355410086e+00 
56600 6.5579679475e+00 -9.4131780910e-03 3.0806301274e+00 -5.3358079000e+00 3.0806301274e+00 5.3358079000e+00 
56700 6.5579670775e+00 -9.3336314409e-03 3.0807829088e+00 -5.3360725251e+00 3.0807829088e+00 5.3360725251e+00 
56800 6.5579662411e+00 -9.2546777954e-03 3.0809343915e+00 -5.3363349008e+00 3.0809343915e+00 5.3363349008e+00 
56900 6.5579654374e+00 -9.1763135421e-03 3.0810845854e+00 -5.3365950444e+00 3.0810845854e+00 5.3365950444e+00 
57000 6.5579646657e+00 -9.0985351444e-03 3.0812335003e+00 -5.3368529725e+00 3.0812335003e+00 5.3368529725e+00 
57100 6.5579639251e+00 -9.0213391375e-03 3.0813811459e+00 -5.3371087021e+00 3.0813811459e+00 5.3371087021e+00 
57200 6.5579632150e+00 -8.9447221256e-03 3.0815275317e+00 -5.3373622498e+00 3.0815275317e+00 5.3373622498e+00 
57300 6.5579625345e+00 -8.8686807782e-03 3.0816726674e+00 -5.3376136322e+00 3.0816726674e+00 5.3376136322e+00 
57400 6.5579618830e+00 -8.7932118271e-03 3.0818165624e+00 -5.3378628657e+00 3.0818165624e+00 5.3378628657e+00 
57500 6.5579612597e+00 -8.7183120628e-03 3.0819592263e+00 -5.3381099669e+00 3.0819592263e+00 5.3381099669e+00 
57600 6.5579606639e+00 -8.6439783316e-03 3.0821006685e+00 -5.3383549519e+00 3.0821006685e+00 5.3383549519e+00 
57700 6.5579600951e+00 -8.5702075321e-03 3.0822408982e+00 -5.3385978369e+00 3.0822408982e+00 5.3385978369e+00 
57800 6.5579595524e+00 -8.4969966125e-03 3.0823799249e+00 -5.3388386381e+00 3.0823799249e+00 5.3388386381e+00 
57900 6.5579590353e+00 -8.4243425670e-03 3.0825177577e+00 -5.3390773715e+00 3.0825177577e+00 5.3390773715e+00 
58000 6.5579585431e+00 -8.3522424331e-03 3.0826544058e+00 -5.3393140530e+00 3.0826544058e+00 5.3393140530e+00 
58100 6.5579580751e+00 -8.2806932885e-03 3.0827898784e+00 -5.3395486984e+00 3.0827898784e+00 5.3395486984e+00 
58200 6.5579576308e+00 -8.2096922481e-03 3.0829241845e+00 -5.3397813235e+00 3.0829241845e+00 5.3397813235e+00 
58300 6.5579572095e+00 -8.1392364612e-03 3.0830573333e+00 -5.3400119439e+00 3.0830573333e+00 5.3400119439e+00 
58400 6.5579568107e+00 -8.0693231089e-03 3.0831893337e+00 -5.3402405753e+00 3.0831893337e+00 5.3402405753e+00 
58500 6.5579564338e+00 -7.9999494011e-03 3.0833201946e+00 -5.3404672330e+00 3.0833201946e+00 5.3404672330e+00 
58600 6.5579560782e+00 -7.9311125739e-03 3.0834499250e+00 -5.3406919326e+00 3.0834499250e+00 5.3406919326e+00 
58700 6.5579557433e+00 -7.8628098871e-03 3.0835785336e+00 -5.3409146894e+00 3.0835785336e+00 5.3409146894e+00 
58800 6.5579554287e+00 -7.7950386217e-03 3.0837060294e+00 -5.3411355185e+00 3.0837060294e+00 5.3411355185e+00 
58900 6.5579551337e+00 -7.7277960774e-03 3.0838324210e+00 -5.3413544352e+00 3.0838324210e+00 5.3413544352e+00 
59000 6.5579548578e+00 -7.6610795703e-03 3.0839577172e+00 -5.3415714546e+00 3.0839577172e+00 5.3415714546e+00 
59100 6.5579546006e+00 -7.5948864307e-03 3.0840819266e+00 -5.3417865916e+00 3.0840819266e+00 5.3417865916e+00 
59200 6.5579543615e+00 -7.5292140009e-03 3.0842050578e+00 -5.3419998611e+00 3.0842050578e+00 5.3419998611e+00 
59300 6.5579541401e+00 -7.4640596327e-03 3.0843271195e+00 -5.3422112781e+00 3.0843271195e+00 5.3422112781e+00 
59400 6.5579539358e+00 -7.3994206863e-03 3.0844481201e+00 -5.3424208573e+00 3.0844481201e+00 5.3424208573e+00 
59500 6.5579537483e+00 -7.3352945274e-03 3.0845680681e+00 -5.3426286134e+00 3.0845680681e+00 5.3426286134e+00 
59600 6.5579535769e+00 -7.2716785259e-03 3.0846869720e+00 -5.3428345609e+00 3.0846869720e+00 5.3428345609e+00 
59700 6.5579534213e+00 -7.2085700541e-03 3.0848048401e+00 -5.3430387145e+00 3.0848048401e+00 5.3430387145e+00 
59800 6.5579532811e+00 -7.1459664849e-03 3.0849216808e+00 -5.3432410885e+00 3.0849216808e+00 5.3432410885e+00 
59900 6.5579531558e+00 -7.0838651902e-03 3.0850375024e+00 -5.3434416974e+00 3.0850375024e+00 5.3434416974e+00 
60000 6.5579530450e+00 -7.0222635397e-03 3.0851523132e+00 -5.3436405555e+00 3.0851523132e+00 5.3436405555e+00 
60100 6.5579529482e+00 -6.9611588990e-03 3.0852661213e+00 -5.3438376769e+00 3.0852661213e+00 5.3438376769e+00 
60200 6.5579528651e+00 -6.9005486288e-03 3.0853789349e+00 -5.3440330758e+00 3.0853789349e+00 5.3440330758e+00 
60300 6.5579527953e+00 -6.8404300833e-03 3.0854907622e+00 -5.3442267663e+00 3.0854907622e+00 5.3442267663e+00 
60400 6.5579527384e+00 -6.7808006092e-03 3.0856016112e+00 -5.3444187624e+00 3.0856016112e+00 5.3444187624e+00 
60500 6.5579526939e+00 -6.7216575444e-03 3.0857114899e+00 -5.3446090780e+00 3.0857114899e+00 5.3446090780e+00 
60600 6.5579526616e+00 -6.6629982175e-03 3.0858204064e+00 -5.3447977269e+00 3.0858204064e+00 5.3447977269e+00 
60700 6.5579526411e+00 -6.6048199465e-03 3.0859283686e+00 -5.3449847229e+00 3.0859283686e+00 5.3449847229e+00 
60800 6.5579526321e+00 -6.5471200381e-03 3.0860353843e+00 -5.3451700796e+00 3.0860353843e+00 5.3451700796e+00 
60900 6.5579526341e+00 -6.4898957867e-03 3.0861414615e+00 -5.3453538106e+00 3.0861414615e+00 5.3453538106e+00 
61000 6.5579526468e+00 -6.4331444743e-03 3.0862466078e+00 -5.3455359295e+00 3.0862466078e+00 5.3455359295e+00 
61100 6.5579526699e+00 -6.3768633694e-03 3.0863508312e+00 -5.3457164497e+00 3.0863508312e+00 5.3457164497e+00 
61200 6.5579527032e+00 -6.3210497267e-03 3.0864541393e+00 -5.3458953845e+00 3.0864541393e+00 5.3458953845e+00 
61300 6.5579527462e+00 -6.2657007866e-03 3.0865565397e+00 -5.3460727472e+00 3.0865565397e+00 5.3460727472e+00 
61400 6.5579527987e+00 -6.2108137749e-03 3.0866580401e+00 -5.3462485511e+00 3.0866580401e+00 5.3462485511e+00 
61500 6.5579528603e+00 -6.1563859024e-03 3.0867586481e+00 -5.3464228092e+00 3.0867586481e+00 5.3464228092e+00 
61600 6.5579529308e+00 -6.1024143647e-03 3.0868583711e+00 -5.3465955346e+00 3.0868583711e+00 5.3465955346e+00 
61700 6.5579530099e+00 -6.0488963422e-03 3.0869572167e+00 -5.3467667402e+00 3.0869572167e+00 5.3467667402e+00 
61800 6.5579530972e+00 -5.9958289996e-03 3.0870551923e+00 -5.3469364388e+00 3.0870551923e+00 5.3469364388e+00 
61900 6.5579531926e+00 -5.9432094863e-03 3.0871523052e+00 -5.3471046434e+00 3.0871523052e+00 5.3471046434e+00 
62000 6.5579532958e+00 -5.8910349362e-03 3.0872485629e+00 -5.3472713665e+00 3.0872485629e+00 5.3472713665e+00 
62100 6.5579534065e+00 -5.8393024679e-03 3.0873439725e+00 -5.3474366209e+00 3.0873439725e+00 5.3474366209e+00 
62200 6.5579535244e+00 -5.7880091846e-03 3.0874385414e+00 -5.3476004189e+00 3.0874385414e+00 5.3476004189e+00 
62300 6.5579536492e+00 -5.7371521744e-03 3.0875322767e+00 -5.3477627732e+00 3.0875322767e+00 5.3477627732e+00 
62400 6.5579537809e+00 -5.6867285109e-03 3.0876251855e+00 -5.3479236961e+00 3.0876251855e+00 5.3479236961e+00 
62500 6.5579539190e+00 -5.6367352529e-03 3.0877172750e+00 -5.3480831997e+00 3.0877172750e+00 5.3480831997e+00 
62600 6.5579540634e+00 -5.5871694450e-03 3.0878085522e+00 -5.3482412965e+00 3.0878085522e+00 5.3482412965e+00 
62700 6.5579542139e+00 -5.5380281183e-03 3.0878990241e+00 -5.3483979984e+00 3.0878990241e+00 5.3483979984e+00 
62800 6.5579543702e+00 -5.4893082902e-03 3.0879886976e+00 -5.3485533174e+00 3.0879886976e+00 5.3485533174e+00 
62900 6.5579545321e+00 -5.4410069654e-03 3.0880775796e+00 -5.3487072656e+00 3.0880775796e+00 5.3487072656e+00 
63000 6.5579546994e+00 -5.3931211362e-03 3.0881656770e+00 -5.3488598548e+00 3.0881656770e+00 5.3488598548e+00 
63100 6.5579548719e+00 -5.3456477830e-03 3.0882529966e+00 -5.3490110968e+00 3.0882529966e+00 5.3490110968e+00 
63200 6.5579550494e+00 -5.2985838751e-03 3.0883395451e+00 -5.3491610032e+00 3.0883395451e+00 5.3491610032e+00 
63300 6.5579552316e+00 -5.2519263711e-03 3.0884253292e+00 -5.3493095856e+00 3.0884253292e+00 5.3493095856e+00 
63400 6.5579554185e+00 -5.2056722194e-03 3.0885103556e+00 -5.3494568555e+00 3.0885103556e+00 5.3494568555e+00 
63500 6.5579556099e+00 -5.1598183594e-03 3.0885946307e+00 -5.3496028244e+00 3.0885946307e+00 5.3496028244e+00 
63600 6.5579558054e+00 -5.1143617218e-03 3.0886781613e+00 -5.3497475036e+00 3.0886781613e+00 5.3497475036e+00 
63700 6.5579560051e+00 -5.0692992293e-03 3.0887609538e+00 -5.3498909044e+00 3.0887609538e+00 5.3498909044e+00 
63800 6.5579562086e+00 -5.0246277976e-03 3.0888430145e+00 -5.3500330378e+00 3.0888430145e+00 5.3500330378e+00 
63900 6.5579564158e+00 -4.9803443358e-03 3.0889243500e+00 -5.3501739149e+00 3.0889243500e+00 5.3501739149e+00 
64000 6.5579566266e+00 -4.9364457478e-03 3.0890049665e+00 -5.3503135468e+00 3.0890049665e+00 5.3503135468e+00 
64100 6.5579568408e+00 -4.8929289323e-03 3.0890848703e+00 -5.3504519443e+00 3.0890848703e+00 5.3504519443e+00 
64200 6.5579570583e+00 -4.8497907843e-03 3.0891640677e+00 -5.3505891183e+00 3.0891640677e+00 5.3505891183e+00 
64300 6.5579572788e+00 -4.8070281956e-03 3.0892425649e+00 -5.3507250793e+00 3.0892425649e+00 5.3507250793e+00 
64400 6.5579575023e+00 -4.7646380556e-03 3.0893203679e+00 -5.3508598381e+00 3.0893203679e+00 5.3508598381e+00 
64500 6.5579577286e+00 -4.7226172524e-03 3.0893974829e+00 -5.3509934052e+00 3.0893974829e+00 5.3509934052e+00 
64600 6.5579579575e+00 -4.6809626734e-03 3.0894739159e+00 -5.3511257910e+00 3.0894739159e+00 5.3511257910e+00 
64700 6.5579581890e+00 -4.6396712063e-03 3.0895496728e+00 -5.3512570058e+00 3.0895496728e+00 5.3512570058e+00 
64800 6.5579584229e+00 -4.5987397399e-03 3.0896247597e+00 -5.3513870600e+00 3.0896247597e+00 5.3513870600e+00 
64900 6.5579586590e+00 -4.5581651651e-03 3.0896991823e+00 -5.3515159638e+00 3.0896991823e+00 5.3515159638e+00 
65000 6.5579588973e+00 -4.5179443756e-03 3.0897729464e+00 -5.3516437271e+00 3.0897729464e+00 5.3516437271e+00 
65100 6.5579591375e+00 -4.4780742687e-03 3.0898460580e+00 -5.3517703600e+00 3.0898460580e+00 5.3517703600e+00 
65200 6.5579593797e+00 -4.4385517465e-03 3.0899185226e+00 -5.3518958725e+00 3.0899185226e+00 5.3518958725e+00 
65300 6.5579596237e+00 -4.3993737166e-03 3.0899903460e+00 -5.3520202742e+00 3.0899903460e+00 5.3520202742e+00 
65400 6.5579598693e+00 -4.3605370926e-03 3.0900615338e+00 -5.3521435751e+00 3.0900615338e+00 5.3521435751e+00 
65500 6.5579601164e+00 -4.3220387956e-03 3.0901320915e+00 -5.3522657846e+00 3.0901320915e+00 5.3522657846e+00 
65600 6.5579603651e+00 -4.2838757546e-03 3.0902020247e+00 -5.3523869124e+00 3.0902020247e+00 5.3523869124e+00 
65700 6.5579606150e+00 -4.2460449074e-03 3.0902713388e+00 -5.3525069680e+00 3.0902713388e+00 5.3525069680e+00 
65800 6.5579608662e+00 -4.2085432014e-03 3.0903400393e+00 -5.3526259607e+00 3.0903400393e+00 5.3526259607e+00 
65900 6.5579611186e+00 -4.1713675947e-03 3.0904081314e+00 -5.3527438998e+00 3.0904081314e+00 5.3527438998e+00 
66000 6.5579613720e+00 -4.1345150565e-03 3.0904756206e+00 -5.3528607945e+00 3.0904756206e+00 5.3528607945e+00 
66100 6.5579616263e+00 -4.0979825682e-03 3.0905425121e+00 -5.3529766539e+00 3.0905425121e+00 5.3529766539e+00 
66200 6.5579618816e+00 -4.0617671238e-03 3.0906088111e+00 -5.3530914871e+00 3.0906088111e+00 5.3530914871e+00 
66300 6.5579621376e+00 -4.0258657311e-03 3.0906745228e+00 -5.3532053031e+00 3.0906745228e+00 5.3532053031e+00 
66400 6.5579623943e+00 -3.9902754123e-03 3.0907396522e+00 -5.3533181106e+00 3.0907396522e+00 5.3533181106e+00 
66500 6.5579626516e+00 -3.9549932045e-03 3.0908042046e+00 -5.3534299186e+00 3.0908042046e+00 5.3534299186e+00 
66600 6.5579629095e+00 -3.9200161606e-03 3.0908681848e+00 -5.3535407356e+00 3.0908681848e+00 5.3535407356e+00 
66700 6.5579631678e+00 -3.8853413501e-03 3.0909315979e+00 -5.3536505702e+00 3.0909315979e+00 5.3536505702e+00 
66800 6.5579634264e+00 -3.8509658594e-03 3.0909944487e+00 -5.3537594311e+00 3.0909944487e+00 5.3537594311e+00 
66900 6.5579636854e+00 -3.8168867931e-03 3.0910567423e+00 -5.3538673267e+00 3.0910567423e+00 5.3538673267e+00 
67000 6.5579639446e+00 -3.7831012737e-03 3.0911184833e+00 -5.3539742653e+00 3.0911184833e+00 5.3539742653e+00 
67100 6.5579642040e+00 -3.7496064432e-03 3.0911796766e+00 -5.3540802551e+00 3.0911796766e+00 5.3540802551e+00 
67200 6.5579644635e+00 -3.7163994630e-03 3.0912403269e+00 -5.3541853045e+00 3.0912403269e+00 5.3541853045e+00 
67300 6.5579647230e+00 -3.6834775146e-03 3.0913004388e+00 -5.3542894215e+00 3.0913004388e+00 5.3542894215e+00 
67400 6.5579649825e+00 -3.6508378005e-03 3.0913600171e+00 -5.3543926142e+00 3.0913600171e+00 5.3543926142e+00 
67500 6.5579652419e+00 -3.6184775444e-03 3.0914190664e+00 -5.3544948905e+00 3.0914190664e+00 5.3544948905e+00 
67600 6.5579655012e+00 -3.5863939917e-03 3.0914775911e+00 -5.3545962583e+00 3.0914775911e+00 5.3545962583e+00 
67700 6.5579657603e+00 -3.5545844102e-03 3.0915355958e+00 -5.3546967254e+00 3.0915355958e+00 5.3546967254e+00 
67800 6.5579660190e+00 -3.5230460903e-03 3.0915930850e+00 -5.3547962995e+00 3.0915930850e+00 5.3547962995e+00 
67900 6.5579662775e+00 -3.4917763456e-03 3.0916500630e+00 -5.3548949883e+00 3.0916500630e+00 5.3548949883e+00 
68000 6.5579665356e+00 -3.4607725134e-03 3.0917065342e+00 -5.3549927994e+00 3.0917065342e+00 5.3549927994e+00 
68100 6.5579667933e+00 -3.4300319548e-03 3.0917625031e+00 -5.3550897402e+00 3.0917625031e+00 5.3550897402e+00 
68200 6.5579670506e+00 -3.3995520555e-03 3.0918179737e+00 -5.3551858182e+00 3.0918179737e+00 5.3551858182e+00 
68300 6.5579673073e+00 -3.3693302256e-03 3.0918729505e+00 -5.3552810408e+00 3.0918729505e+00 5.3552810408e+00 
68400 6.5579675635e+00 -3.3393639004e-03 3.0919274375e+00 -5.3553754151e+00 3.0919274375e+00 5.3553754151e+00 
68500 6.5579678190e+00 -3.3096505405e-03 3.0919814390e+00 -5.3554689484e+00 3.0919814390e+00 5.3554689484e+00 
68600 6.5579680740e+00 -3.2801876322e-03 3.0920349591e+00 -5.3555616479e+00 3.0920349591e+00 5.3555616479e+00 
68700 6.5579683282e+00 -3.2509726875e-03 3.0920880017e+00 -5.3556535205e+00 3.0920880017e+00 5.3556535205e+00 
68800 6.5579685817e+00 -3.2220032445e-03 3.0921405711e+00 -5.3557445733e+00 3.0921405711e+00 5.3557445733e+00 
68900 6.5579688345e+00 -3.1932768678e-03 3.0921926711e+00 -5.3558348132e+00 3.0921926711e+00 5.3558348132e+00 
69000 6.5579690865e+00 -3.1647911483e-03 3.0922443058e+00 -5.3559242470e+00 3.0922443058e+00 5.3559242470e+00 
69100 6.5579693376e+00 -3.1365437037e-03 3.0922954790e+00 -5.3560128816e+00 3.0922954790e+00 5.3560128816e+00 
69200 6.5579695879e+00 -3.1085321785e-03 3.0923461946e+00 -5.3561007236e+00 3.0923461946e+00 5.3561007236e+00 
69300 6.5579698373e+00 -3.0807542441e-03 3.0923964564e+00 -5.3561877797e+00 3.0923964564e+00 5.3561877797e+00 
69400 6.5579700857e+00 -3.0532075990e-03 3.0924462683e+00 -5.3562740564e+00 3.0924462683e+00 5.3562740564e+00 
69500 6.5579703332e+00 -3.0258899688e-03 3.0924956340e+00 -5.3563595603e+00 3.0924956340e+00 5.3563595603e+00 
69600 6.5579705797e+00 -2.9987991063e-03 3.0925445572e+00 -5.3564442978e+00 3.0925445572e+00 5.3564442978e+00 
69700 6.5579708252e+00 -2.9719327917e-03 3.0925930417e+00 -5.3565282754e+00 3.0925930417e+00 5.3565282754e+00 
69800 6.5579710697e+00 -2.9452888323e-03 3.0926410910e+00 -5.3566114993e+00 3.0926410910e+00 5.3566114993e+00 
69900 6.5579713131e+00 -2.9188650628e-03 3.0926887089e+00 -5.3566939757e+00 3.0926887089e+00 5.3566939757e+00 
70000 6.5579715554e+00 -2.8926593450e-03 3.0927358987e+00 -5.3567757110e+00 3.0927358987e+00 5.3567757110e+00 
70100 6.5579717966e+00 -2.8666695683e-03 3.0927826642e+00 -5.3568567112e+00 3.0927826642e+00 5.3568567112e+00 
70200 6.5579720366e+00 -2.8408936490e-03 3.0928290089e+00 -5.3569369825e+00 3.0928290089e+00 5.3569369825e+00 
70300 6.5579722755e+00 -2.8153295305e-03 3.0928749361e+00 -5.3570165307e+00 3.0928749361e+00 5.3570165307e+00 
70400 6.5579725132e+00 -2.7899751836e-03 3.0929204493e+00 -5.3570953620e+00 3.0929204493e+00 5.3570953620e+00 
70500 6.5579727497e+00 -2.7648286058e-03 3.0929655520e+00 -5.3571734822e+00 3.0929655520e+00 5.3571734822e+00 
70600 6.5579729850e+00 -2.7398878214e-03 3.0930102476e+00 -5.3572508972e+00 3.0930102476e+00 5.3572508972e+00 
70700 6.5579732191e+00 -2.7151508816e-03 3.0930545393e+00 -5.3573276126e+00 3.0930545393e+00 5.3573276126e+00 
70800 6.5579734519e+00 -2.6906158641e-03 3.0930984305e+00 -5.3574036344e+00 3.0930984305e+00 5.3574036344e+00 
70900 6.5579736834e+00 -2.6662808730e-03 3.0931419245e+00 -5.3574789682e+00 3.0931419245e+00 5.3574789682e+00 
71000 6.5579739136e+00 -2.6421440388e-03 3.0931850244e+00 -5.3575536195e+00 3.0931850244e+00 5.3575536195e+00 
71100 6.5579741426e+00 -2.6182035179e-03 3.0932277337e+00 -5.3576275941e+00 3.0932277337e+00 5.3576275941e+00 
71200 6.5579743702e+00 -2.5944574926e-03 3.0932700553e+00 -5.3577008973e+00 3.0932700553e+00 5.3577008973e+00 
71300 6.5579745966e+00 -2.5709041709e-03 3.0933119925e+00 -5.3577735347e+00 3.0933119925e+00 5.3577735347e+00 
71400 6.5579748215e+00 -2.5475417863e-03 3.0933535485e+00 -5.3578455117e+00 3.0933535485e+00 5.3578455117e+00 
71500 6.5579750452e+00 -2.5243685974e-03 3.0933947262e+00 -5.3579168337e+00 3.0933947262e+00 5.3579168337e+00 
71600 6.5579752675e+00 -2.5013828878e-03 3.0934355289e+00 -5.3579875060e+00 3.0934355289e+00 5.3579875060e+00 
71700 6.5579754884e+00 -2.4785829660e-03 3.0934759595e+00 -5.3580575338e+00 3.0934759595e+00 5.3580575338e+00 
71800 6.5579757079e+00 -2.4559671647e-03 3.0935160210e+00 -5.3581269224e+00 3.0935160210e+00 5.3581269224e+00 
71900 6.5579759260e+00 -2.4335338410e-03 3.0935557165e+00 -5.3581956770e+00 3.0935557165e+00 5.3581956770e+00 
72000 6.5579761428e+00 -2.4112813756e-03 3.0935950489e+00 -5.3582638027e+00 3.0935950489e+00 5.3582638027e+00 
72100 6.5579763581e+00 -2.3892081732e-03 3.0936340211e+00 -5.3583313046e+00 3.0936340211e+00 5.3583313046e+00 
72200 6.5579765720e+00 -2.3673126616e-03 3.0936726361e+00 -5.3583981877e+00 3.0936726361e+00 5.3583981877e+00 
72300 6.5579767845e+00 -2.3455932916e-03 3.0937108967e+00 -5.3584644571e+00 3.0937108967e+00 5.3584644571e+00 
72400 6.5579769956e+00 -2.3240485369e-03 3.0937488059e+00 -5.3585301176e+00 3.0937488059e+00 5.3585301176e+00 
72500 6.5579772052e+00 -2.3026768933e-03 3.0937863664e+00 -5.3585951743e+00 3.0937863664e+00 5.3585951743e+00 
72600 6.5579774135e+00 -2.2814768790e-03 3.0938235810e+00 -5.3586596319e+00 3.0938235810e+00 5.3586596319e+00 
72700 6.5579776202e+00 -2.2604470338e-03 3.0938604525e+00 -5.3587234953e+00 3.0938604525e+00 5.3587234953e+00 
72800 6.5579778256e+00 -2.2395859188e-03 3.0938969838e+00 -5.3587867693e+00 3.0938969838e+00 5.3587867693e+00 
72900 6.5579780294e+00 -2.2188921163e-03 3.0939331774e+00 -5.3588494586e+00 3.0939331774e+00 5.3588494586e+00 
73000 6.5579782319e+00 -2.1983642294e-03 3.0939690363e+00 -5.3589115679e+00 3.0939690363e+00 5.3589115679e+00 
73100 6.5579784329e+00 -2.1780008814e-03 3.0940045629e+00 -5.3589731019e+00 3.0940045629e+00 5.3589731019e+00 
73200 6.5579786324e+00 -2.1578007160e-03 3.0940397601e+00 -5.3590340652e+00 3.0940397601e+00 5.3590340652e+00 
73300 6.5579788305e+00 -2.1377623962e-03 3.0940746305e+00 -5.3590944624e+00 3.0940746305e+00 5.3590944624e+00 
73400 6.5579790271e+00 -2.1178846046e-03 3.0941091766e+00 -5.3591542981e+00 3.0941091766e+00 5.3591542981e+00 
73500 6.5579792222e+00 -2.0981660428e-03 3.0941434011e+00 -5.3592135767e+00 3.0941434011e+00 5.3592135767e+00 
73600 6.5579794159e+00 -2.0786054310e-03 3.0941773066e+00 -5.3592723027e+00 3.0941773066e+00 5.3592723027e+00 
73700 6.5579796082e+00 -2.0592015075e-03 3.0942108957e+00 -5.3593304807e+00 3.0942108957e+00 5.3593304807e+00 
73800 6.5579797989e+00 -2.0399530289e-03 3.0942441708e+00 -5.3593881149e+00 3.0942441708e+00 5.3593881149e+00 
73900 6.5579799883e+00 -2.0208587692e-03 3.0942771345e+00 -5.3594452097e+00 3.0942771345e+00 5.3594452097e+00 
74000 6.5579801761e+00 -2.0019175196e-03 3.0943097894e+00 -5.3595017696e+00 3.0943097894e+00 5.3595017696e+00 
74100 6.5579803625e+00 -1.9831280881e-03 3.0943421378e+00 -5.3595577987e+00 3.0943421378e+00 5.3595577987e+00 
74200 6.5579805474e+00 -1.9644892995e-03 3.0943741823e+00 -5.3596133014e+00 3.0943741823e+00 5.3596133014e+00 
74300 6.5579807309e+00 -1.9459999946e-03 3.0944059253e+00 -5.3596682818e+00 3.0944059253e+00 5.3596682818e+00 
74400 6.5579809130e+00 -1.9276590298e-03 3.0944373692e+00 -5.3597227442e+00 3.0944373692e+00 5.3597227442e+00 
74500 6.5579810936e+00 -1.9094652774e-03 3.0944685164e+00 -5.3597766928e+00 3.0944685164e+00 5.3597766928e+00 
74600 6.5579812727e+00 -1.8914176244e-03 3.0944993693e+00 -5.3598301316e+00 3.0944993693e+00 5.3598301316e+00 
74700 6.5579814504e+00 -1.8735149729e-03 3.0945299303e+00 -5.3598830648e+00 3.0945299303e+00 5.3598830648e+00 
74800 6.5579816266e+00 -1.8557562392e-03 3.0945602018e+00 -5.3599354965e+00 3.0945602018e+00 5.3599354965e+00 
74900 6.5579818015e+00 -1.8381403538e-03 3.0945901860e+00 -5.3599874307e+00 3.0945901860e+00 5.3599874307e+00 
75000 6.5579819748e+00 -1.8206662609e-03 3.0946198853e+00 -5.3600388714e+00 3.0946198853e+00 5.3600388714e+00 
75100 6.5579821468e+00 -1.8033329182e-03 3.0946493020e+00 -5.3600898226e+00 3.0946493020e+00 5.3600898226e+00 
75200 6.5579823173e+00 -1.7861392963e-03 3.0946784383e+00 -5.3601402882e+00 3.0946784383e+00 5.3601402882e+00 
75300 6.5579824864e+00 -1.7690843788e-03 3.0947072966e+00 -5.3601902723e+00 3.0947072966e+00 5.3601902723e+00 
75400 6.5579826541e+00 -1.7521671615e-03 3.0947358791e+00 -5.3602397785e+00 3.0947358791e+00 5.3602397785e+00 
75500 6.5579828203e+00 -1.7353866525e-03 3.0947641879e+00 -5.3602888109e+00 3.0947641879e+00 5.3602888109e+00 
75600 6.5579829852e+00 -1.7187418716e-03 3.0947922254e+00 -5.3603373733e+00 3.0947922254e+00 5.3603373733e+00 
75700 6.5579831486e+00 -1.7022318502e-03 3.0948199938e+00 -5.3603854695e+00 3.0948199938e+00 5.3603854695e+00 
75800 6.5579833107e+00 -1.6858556306e-03 3.0948474951e+00 -5.3604331032e+00 3.0948474951e+00 5.3604331032e+00 
75900 6.5579834714e+00 -1.6696122664e-03 3.0948747316e+00 -5.3604802783e+00 3.0948747316e+00 5.3604802783e+00 
76000 6.5579836306e+00 -1.6535008215e-03 3.0949017055e+00 -5.3605269984e+00 3.0949017055e+00 5.3605269984e+00 
76100 6.5579837885e+00 -1.6375203701e-03 3.0949284189e+00 -5.3605732672e+00 3.0949284189e+00 5.3605732672e+00 
76200 6.5579839450e+00 -1.6216699966e-03 3.0949548738e+00 -5.3606190885e+00 3.0949548738e+00 5.3606190885e+00 
76300 6.5579841002e+00 -1.6059487949e-03 3.0949810724e+00 -5.3606644659e+00 3.0949810724e+00 5.3606644659e+00 
76400 6.5579842539e+00 -1.5903558684e-03 3.0950070169e+00 -5.3607094030e+00 3.0950070169e+00 5.3607094030e+00 
76500 6.5579844064e+00 -1.5748903299e-03 3.0950327092e+00 -5.3607539034e+00 3.0950327092e+00 5.3607539034e+00 
76600 6.5579845574e+00 -1.5595513008e-03 3.0950581514e+00 -5.3607979707e+00 3.0950581514e+00 5.3607979707e+00 
76700 6.5579847071e+00 -1.5443379114e-03 3.0950833457e+00 -5.3608416084e+00 3.0950833457e+00 5.3608416084e+00 
76800 6.5579848555e+00 -1.5292493003e-03 3.0951082940e+00 -5.3608848201e+00 3.0951082940e+00 5.3608848201e+00 
76900 6.5579850026e+00 -1.5142846142e-03 3.0951329983e+00 -5.3609276092e+00 3.0951329983e+00 5.3609276092e+00 
77000 6.5579851483e+00 -1.4994430079e-03 3.0951574607e+00 -5.3609699793e+00 3.0951574607e+00 5.3609699793e+00 
77100 6.5579852927e+00 -1.4847236436e-03 3.0951816831e+00 -5.3610119338e+00 3.0951816831e+00 5.3610119338e+00 
77200 6.5579854358e+00 -1.4701256912e-03 3.0952056676e+00 -5.3610534761e+00 3.0952056676e+00 5.3610534761e+00 
77300 6.5579855776e+00 -1.4556483277e-03 3.0952294160e+00 -5.3610946097e+00 3.0952294160e+00 5.3610946097e+00 
77400 6.5579857180e+00 -1.4412907371e-03 3.0952529305e+00 -5.3611353378e+00 3.0952529305e+00 5.3611353378e+00 
77500 6.5579858572e+00 -1.4270521102e-03 3.0952762128e+00 -5.3611756640e+00 3.0952762128e+00 5.3611756640e+00 
77600 6.5579859951e+00 -1.4129316444e-03 3.0952992649e+00 -5.3612155914e+00 3.0952992649e+00 5.3612155914e+00 
77700 6.5579861318e+00 -1.3989285434e-03 3.0953220888e+00 -5.3612551235e+00 3.0953220888e+00 5.3612551235e+00 
77800 6.5579862671e+00 -1.3850420172e-03 3.0953446862e+00 -5.3612942635e+00 3.0953446862e+00 5.3612942635e+00 
77900 6.5579864012e+00 -1.3712712817e-03 3.0953670593e+00 -5.3613330147e+00 3.0953670593e+00 5.3613330147e+00 
78000 6.5579865341e+00 -1.3576155586e-03 3.0953892097e+00 -5.3613713803e+00 3.0953892097e+00 5.3613713803e+00 
78100 6.5579866657e+00 -1.3440740752e-03 3.0954111393e+00 -5.3614093636e+00 3.0954111393e+00 5.3614093636e+00 
78200 6.5579867961e+00 -1.3306460645e-03 3.0954328501e+00 -5.3614469678e+00 3.0954328501e+00 5.3614469678e+00 
78300 6.5579869252e+00 -1.3173307643e-03 3.0954543438e+00 -5.3614841960e+00 3.0954543438e+00 5.3614841960e+00 
78400 6.5579870531e+00 -1.3041274180e-03 3.0954756223e+00 -5.3615210515e+00 3.0954756223e+00 5.3615210515e+00 
78500 6.5579871798e+00 -1.2910352738e-03 3.0954966874e+00 -5.3615575373e+00 3.0954966874e+00 5.3615575373e+00 
78600 6.5579873053e+00 -1.2780535846e-03 3.0955175409e+00 -5.3615936565e+00 3.0955175409e+00 5.3615936565e+00 
78700 6.5579874296e+00 -1.2651816081e-03 3.0955381845e+00 -5.3616294124e+00 3.0955381845e+00 5.3616294124e+00 
78800 6.5579875527e+00 -1.2524186064e-03 3.0955586201e+00 -5.3616648078e+00 3.0955586201e+00 5.3616648078e+00 
78900 6.5579876746e+00 -1.2397638462e-03 3.0955788494e+00 -5.3616998460e+00 3.0955788494e+00 5.3616998460e+00 
79000 6.5579877954e+00 -1.2272165982e-03 3.0955988742e+00 -5.3617345299e+00 3.0955988742e+00 5.3617345299e+00 
79100 6.5579879149e+00 -1.2147761376e-03 3.0956186962e+00 -5.3617688626e+00 3.0956186962e+00 5.3617688626e+00 
79200 6.5579880333e+00 -1.2024417433e-03 3.0956383171e+00 -5.3618028470e+00 3.0956383171e+00 5.3618028470e+00 
79300 6.5579881506e+00 -1.1902126981e-03 3.0956577386e+00 -5.3618364862e+00 3.0956577386e+00 5.3618364862e+00 
79400 6.5579882667e+00 -1.1780882889e-03 3.0956769626e+00 -5.3618697830e+00 3.0956769626e+00 5.3618697830e+00 
79500 6.5579883817e+00 -1.1660678060e-03 3.0956959906e+00 -5.3619027404e+00 3.0956959906e+00 5.3619027404e+00 
79600 6.5579884956e+00 -1.1541505435e-03 3.0957148243e+00 -5.3619353614e+00 3.0957148243e+00 5.3619353614e+00 
79700 6.5579886083e+00 -1.1423357988e-03 3.0957334654e+00 -5.3619676487e+00 3.0957334654e+00 5.3619676487e+00 
79800 6.5579887199e+00 -1.1306228728e-03 3.0957519156e+00 -5.3619996054e+00 3.0957519156e+00 5.3619996054e+00 
79900 6.5579888304e+00 -1.1190110698e-03 3.0957701765e+00 -5.3620312342e+00 3.0957701765e+00 5.3620312342e+00 
80000 6.5579889399e+00 -1.1074996973e-03 3.0957882497e+00 -5.3620625380e+00 3.0957882497e+00 5.3620625380e+00 
80100 6.5579890482e+00 -1.0960880659e-03 3.0958061369e+00 -5.3620935195e+00 3.0958061369e+00 5.3620935195e+00 
80200 6.5579891555e+00 -1.0847754893e-03 3.0958238397e+00 -5.3621241817e+00 3.0958238397e+00 5.3621241817e+00 
80300 6.5579892616e+00 -1.0735612844e-03 3.0958413597e+00 -5.3621545272e+00 3.0958413597e+00 5.3621545272e+00 
80400 6.5579893668e+00 -1.0624447707e-03 3.0958586985e+00 -5.3621845589e+00 3.0958586985e+00 5.3621845589e+00 
80500 6.5579894708e+00 -1.0514252711e-03 3.0958758576e+00 -5.3622142794e+00 3.0958758576e+00 5.3622142794e+00 
80600 6.5579895739e+00 -1.0405021108e-03 3.0958928387e+00 -5.3622436915e+00 3.0958928387e+00 5.3622436915e+00 
80700 6.5579896759e+00 -1.0296746183e-03 3.0959096433e+00 -5.3622727978e+00 3.0959096433e+00 5.3622727978e+00 
80800 6.5579897768e+00 -1.0189421244e-03 3.0959262729e+00 -5.3623016012e+00 3.0959262729e+00 5.3623016012e+00 
80900 6.5579898768e+00 -1.0083039629e-03 3.0959427291e+00 -5.3623301041e+00 3.0959427291e+00 5.3623301041e+00 
81000 6.5579899757e+00 -9.9775947014e-04 3.0959590134e+00 -5.3623583094e+00 3.0959590134e+00 5.3623583094e+00 
81100 6.5579900736e+00 -9.8730798505e-04 3.0959751273e+00 -5.3623862195e+00 3.0959751273e+00 5.3623862195e+00 
81200 6.5579901705e+00 -9.7694884919e-04 3.0959910723e+00 -5.3624138371e+00 3.0959910723e+00 5.3624138371e+00 
81300 6.5579902664e+00 -9.6668140666e-04 3.0960068500e+00 -5.3624411648e+00 3.0960068500e+00 5.3624411648e+00 
81400 6.5579903614e+00 -9.5650500404e-04 3.0960224618e+00 -5.3624682051e+00 3.0960224618e+00 5.3624682051e+00 
81500 6.5579904553e+00 -9.4641899043e-04 3.0960379091e+00 -5.3624949607e+00 3.0960379091e+00 5.3624949607e+00 
81600 6.5579905484e+00 -9.3642271741e-04 3.0960531935e+00 -5.3625214340e+00 3.0960531935e+00 5.3625214340e+00 
81700 6.5579906404e+00 -9.2651553897e-04 3.0960683163e+00 -5.3625476276e+00 3.0960683163e+00 5.3625476276e+00 
81800 6.5579907315e+00 -9.1669681155e-04 3.0960832791e+00 -5.3625735439e+00 3.0960832791e+00 5.3625735439e+00 
81900 6.5579908216e+00 -9.0696589400e-04 3.0960980833e+00 -5.3625991854e+00 3.0960980833e+00 5.3625991854e+00 
82000 6.5579909109e+00 -8.9732214755e-04 3.0961127302e+00 -5.3626245547e+00 3.0961127302e+00 5.3626245547e+00 
82100 6.5579909992e+00 -8.8776493585e-04 3.0961272213e+00 -5.3626496540e+00 3.0961272213e+00 5.3626496540e+00 
82200 6.5579910865e+00 -8.7829362489e-04 3.0961415580e+00 -5.3626744859e+00 3.0961415580e+00 5.3626744859e+00 
82300 6.5579911730e+00 -8.6890758306e-04 3.0961557417e+00 -5.3626990528e+00 3.0961557417e+00 5.3626990528e+00 
82400 6.5579912586e+00 -8.5960618111e-04 3.0961697738e+00 -5.3627233570e+00 3.0961697738e+00 5.3627233570e+00 
82500 6.5579913432e+00 -8.5038879215e-04 3.0961836555e+00 -5.3627474010e+00 3.0961836555e+00 5.3627474010e+00 
82600 6.5579914270e+00 -8.4125479164e-04 3.0961973884e+00 -5.3627711870e+00 3.0961973884e+00 5.3627711870e+00 
82700 6.5579915099e+00 -8.3220355744e-04 3.0962109737e+00 -5.3627947174e+00 3.0962109737e+00 5.3627947174e+00 
82800 6.5579915919e+00 -8.2323446974e-04 3.0962244128e+00 -5.3628179946e+00 3.0962244128e+00 5.3628179946e+00 
82900 6.5579916731e+00 -8.1434691114e-04 3.0962377070e+00 -5.3628410208e+00 3.0962377070e+00 5.3628410208e+00 
83000 6.5579917534e+00 -8.0554026658e-04 3.0962508576e+00 -5.3628637983e+00 3.0962508576e+00 5.3628637983e+00 
83100 6.5579918328e+00 -7.9681392340e-04 3.0962638659e+00 -5.3628863293e+00 3.0962638659e+00 5.3628863293e+00 
83200 6.5579919114e+00 -7.8816727134e-04 3.0962767332e+00 -5.3629086163e+00 3.0962767332e+00 5.3629086163e+00 
83300 6.5579919892e+00 -7.7959970254e-04 3.0962894609e+00 -5.3629306612e+00 3.0962894609e+00 5.3629306612e+00 
83400 6.5579920661e+00 -7.7111061154e-04 3.0963020502e+00 -5.3629524665e+00 3.0963020502e+00 5.3629524665e+00 
83500 6.5579921422e+00 -7.6269939533e-04 3.0963145023e+00 -5.3629740342e+00 3.0963145023e+00 5.3629740342e+00 
83600 6.5579922175e+00 -7.5436545333e-04 3.0963268186e+00 -5.3629953666e+00 3.0963268186e+00 5.3629953666e+00 
83700 6.5579922920e+00 -7.4610818741e-04 3.0963390002e+00 -5.3630164658e+00 3.0963390002e+00 5.3630164658e+00 
83800 6.5579923657e+00 -7.3792700191e-04 3.0963510484e+00 -5.3630373339e+00 3.0963510484e+00 5.3630373339e+00 
83900 6.5579924386e+00 -7.2982130366e-04 3.0963629645e+00 -5.3630579732e+00 3.0963629645e+00 5.3630579732e+00 
84000 6.5579925108e+00 -7.2179050200e-04 3.0963747496e+00 -5.3630783857e+00 3.0963747496e+00 5.3630783857e+00 
84100 6.5579925821e+00 -7.1383400877e-04 3.0963864051e+00 -5.3630985734e+00 3.0963864051e+00 5.3630985734e+00 
84200 6.5579926527e+00 -7.0595123836e-04 3.0963979320e+00 -5.3631185386e+00 3.0963979320e+00 5.3631185386e+00 
84300 6.5579927225e+00 -6.9814160773e-04 3.0964093315e+00 -5.3631382832e+00 3.0964093315e+00 5.3631382832e+00 
84400 6.5579927916e+00 -6.9040453638e-04 3.0964206049e+00 -5.3631578094e+00 3.0964206049e+00 5.3631578094e+00 
84500 6.5579928599e+00 -6.8273944643e-04 3.0964317534e+00 -5.3631771190e+00 3.0964317534e+00 5.3631771190e+00 
84600 6.5579929274e+00 -6.7514576262e-04 3.0964427780e+00 -5.3631962142e+00 3.0964427780e+00 5.3631962142e+00 
84700 6.5579929943e+00 -6.6762291231e-04 3.0964536800e+00 -5.3632150970e+00 3.0964536800e+00 5.3632150970e+00 
84800 6.5579930604e+00 -6.6017032553e-04 3.0964644604e+00 -5.3632337693e+00 3.0964644604e+00 5.3632337693e+00 
84900 6.5579931257e+00 -6.5278743496e-04 3.0964751205e+00 -5.3632522331e+00 3.0964751205e+00 5.3632522331e+00 
85000 6.5579931904e+00 -6.4547367602e-04 3.0964856613e+00 -5.3632704903e+00 3.0964856613e+00 5.3632704903e+00 
85100 6.5579932543e+00 -6.3822848681e-04 3.0964960840e+00 -5.3632885429e+00 3.0964960840e+00 5.3632885429e+00 
85200 6.5579933176e+00 -6.3105130819e-04 3.0965063897e+00 -5.3633063928e+00 3.0965063897e+00 5.3633063928e+00 
85300 6.5579933801e+00 -6.2394158377e-04 3.0965165794e+00 -5.3633240420e+00 3.0965165794e+00 5.3633240420e+00 
85400 6.5579934420e+00 -6.1689875996e-04 3.0965266543e+00 -5.3633414922e+00 3.0965266543e+00 5.3633414922e+00 
85500 6.5579935032e+00 -6.0992228595e-04 3.0965366154e+00 -5.3633587454e+00 3.0965366154e+00 5.3633587454e+00 
85600 6.5579935637e+00 -6.0301161378e-04 3.0965464639e+00 -5.3633758035e+00 3.0965464639e+00 5.3633758035e+00 
85700 6.5579936236e+00 -5.9616619830e-04 3.0965562007e+00 -5.3633926682e+00 3.0965562007e+00 5.3633926682e+00 
85800 6.5579936827e+00 -5.8938549726e-04 3.0965658270e+00 -5.3634093414e+00 3.0965658270e+00 5.3634093414e+00 
85900 6.5579937412e+00 -5.8266897128e-04 3.0965753438e+00 -5.3634258249e+00 3.0965753438e+00 5.3634258249e+00 
86000 6.5579937991e+00 -5.7601608388e-04 3.0965847521e+00 -5.3634421205e+00 3.0965847521e+00 5.3634421205e+00 
86100 6.5579938563e+00 -5.6942630152e-04 3.0965940529e+00 -5.3634582301e+00 3.0965940529e+00 5.3634582301e+00 
86200 6.5579939129e+00 -5.6289909360e-04 3.0966032473e+00 -5.3634741552e+00 3.0966032473e+00 5.3634741552e+00 
86300 6.5579939689e+00 -5.5643393248e-04 3.0966123363e+00 -5.3634898978e+00 3.0966123363e+00 5.3634898978e+00 
86400 6.5579940242e+00 -5.5003029350e-04 3.0966213209e+00 -5.3635054595e+00 3.0966213209e+00 5.3635054595e+00 
86500 6.5579940789e+00 -5.4368765503e-04 3.0966302020e+00 -5.3635208421e+00 3.0966302020e+00 5.3635208421e+00 
86600 6.5579941330e+00 -5.3740549841e-04 3.0966389807e+00 -5.3635360473e+00 3.0966389807e+00 5.3635360473e+00 
86700 6.5579941865e+00 -5.3118330807e-04 3.0966476579e+00 -5.3635510767e+00 3.0966476579e+00 5.3635510767e+00 
86800 6.5579942394e+00 -5.2502057146e-04 3.0966562347e+00 -5.3635659321e+00 3.0966562347e+00 5.3635659321e+00 
86900 6.5579942917e+00 -5.1891677911e-04 3.0966647119e+00 -5.3635806150e+00 3.0966647119e+00 5.3635806150e+00 
87000 6.5579943434e+00 -5.1287142464e-04 3.0966730906e+00 -5.3635951273e+00 3.0966730906e+00 5.3635951273e+00 
87100 6.5579943945e+00 -5.0688400478e-04 3.0966813716e+00 -5.3636094704e+00 3.0966813716e+00 5.3636094704e+00 
87200 6.5579944451e+00 -5.0095401935e-04 3.0966895559e+00 -5.3636236461e+00 3.0966895559e+00 5.3636236461e+00 
87300 6.5579944950e+00 -4.9508097133e-04 3.0966976444e+00 -5.3636376558e+00 3.0966976444e+00 5.3636376558e+00 
87400 6.5579945444e+00 -4.8926436684e-04 3.0967056381e+00 -5.3636515013e+00 3.0967056381e+00 5.3636515013e+00 
87500 6.5579945933e+00 -4.8350371516e-04 3.0967135379e+00 -5.3636651841e+00 3.0967135379e+00 5.3636651841e+00 
87600 6.5579946416e+00 -4.7779852872e-04 3.0967213446e+00 -5.3636787058e+00 3.0967213446e+00 5.3636787058e+00 
87700 6.5579946893e+00 -4.7214832315e-04 3.0967290592e+00 -5.3636920678e+00 3.0967290592e+00 5.3636920678e+00 
87800 6.5579947365e+00 -4.6655261729e-04 3.0967366825e+00 -5.3637052718e+00 3.0967366825e+00 5.3637052718e+00 
87900 6.5579947831e+00 -4.6101093316e-04 3.0967442155e+00 -5.3637183193e+00 3.0967442155e+00 5.3637183193e+00 
88000 6.5579948292e+00 -4.5552279601e-04 3.0967516590e+00 -5.3637312118e+00 3.0967516590e+00 5.3637312118e+00 
88100 6.5579948748e+00 -4.5008773431e-04 3.0967590139e+00 -5.3637439508e+00 3.0967590139e+00 5.3637439508e+00 
88200 6.5579949199e+00 -4.4470527976e-04 3.0967662809e+00 -5.3637565377e+00 3.0967662809e+00 5.3637565377e+00 
88300 6.5579949645e+00 -4.3937496731e-04 3.0967734611e+00 -5.3637689741e+00 3.0967734611e+00 5.3637689741e+00 
88400 6.5579950085e+00 -4.3409633516e-04 3.0967805552e+00 -5.3637812614e+00 3.0967805552e+00 5.3637812614e+00 
88500 6.5579950520e+00 -4.2886892475e-04 3.0967875640e+00 -5.3637934011e+00 3.0967875640e+00 5.3637934011e+00 
88600 6.5579950950e+00 -4.2369228080e-04 3.0967944884e+00 -5.3638053946e+00 3.0967944884e+00 5.3638053946e+00 
88700 6.5579951376e+00 -4.1856595129e-04 3.0968013292e+00 -5.3638172432e+00 3.0968013292e+00 5.3638172432e+00 
88800 6.5579951796e+00 -4.1348948747e-04 3.0968080873e+00 -5.3638289485e+00 3.0968080873e+00 5.3638289485e+00 
88900 6.5579952212e+00 -4.0846244388e-04 3.0968147633e+00 -5.3638405117e+00 3.0968147633e+00 5.3638405117e+00 
89000 6.5579952622e+00 -4.0348437831e-04 3.0968213582e+00 -5.3638519344e+00 3.0968213582e+00 5.3638519344e+00 
89100 6.5579953028e+00 -3.9855485186e-04 3.0968278727e+00 -5.3638632179e+00 3.0968278727e+00 5.3638632179e+00 
89200 6.5579953429e+00 -3.9367342890e-04 3.0968343076e+00 -5.3638743634e+00 3.0968343076e+00 5.3638743634e+00 
89300 6.5579953826e+00 -3.8883967710e-04 3.0968406637e+00 -5.3638853724e+00 3.0968406637e+00 5.3638853724e+00 
89400 6.5579954218e+00 -3.8405316738e-04 3.0968469417e+00 -5.3638962463e+00 3.0968469417e+00 5.3638962463e+00 
89500 6.5579954605e+00 -3.7931347400e-04 3.0968531424e+00 -5.3639069862e+00 3.0968531424e+00 5.3639069862e+00 
89600 6.5579954988e+00 -3.7462017445e-04 3.0968592666e+00 -5.3639175936e+00 3.0968592666e+00 5.3639175936e+00 
89700 6.5579955366e+00 -3.6997284953e-04 3.0968653150e+00 -5.3639280697e+00 3.0968653150e+00 5.3639280697e+00 
89800 6.5579955740e+00 -3.6537108334e-04 3.0968712883e+00 -5.3639384159e+00 3.0968712883e+00 5.3639384159e+00 
89900 6.5579956110e+00 -3.6081446323e-04 3.0968771874e+00 -5.3639486333e+00 3.0968771874e+00 5.3639486333e+00 
90000 6.5579956475e+00 -3.5630257982e-04 3.0968830128e+00 -5.3639587233e+00 3.0968830128e+00 5.3639587233e+00 
90100 6.5579956836e+00 -3.5183502704e-04 3.0968887654e+00 -5.3639686871e+00 3.0968887654e+00 5.3639686871e+00 
90200 6.5579957192e+00 -3.4741140205e-04 3.0968944459e+00 -5.3639785259e+00 3.0968944459e+00 5.3639785259e+00 
90300 6.5579957545e+00 -3.4303130528e-04 3.0969000549e+00 -5.3639882411e+00 3.0969000549e+00 5.3639882411e+00 
90400 6.5579957893e+00 -3.3869434042e-04 3.0969055932e+00 -5.3639978337e+00 3.0969055932e+00 5.3639978337e+00 
90500 6.5579958237e+00 -3.3440011443e-04 3.0969110615e+00 -5.3640073050e+00 3.0969110615e+00 5.3640073050e+00 
90600 6.5579958577e+00 -3.3014823747e-04 3.0969164604e+00 -5.3640166562e+00 3.0969164604e+00 5.3640166562e+00 
90700 6.5579958913e+00 -3.2593832297e-04 3.0969217907e+00 -5.3640258885e+00 3.0969217907e+00 5.3640258885e+00 
90800 6.5579959245e+00 -3.2176998757e-04 3.0969270530e+00 -5.3640350031e+00 3.0969270530e+00 5.3640350031e+00 
90900 6.5579959573e+00 -3.1764285113e-04 3.0969322480e+00 -5.3640440011e+00 3.0969322480e+00 5.3640440011e+00 
91000 6.5579959898e+00 -3.1355653673e-04 3.0969373763e+00 -5.3640528837e+00 3.0969373763e+00 5.3640528837e+00 
91100 6.5579960218e+00 -3.0951067063e-04 3.0969424387e+00 -5.3640616519e+00 3.0969424387e+00 5.3640616519e+00 
91200 6.5579960534e+00 -3.0550488230e-04 3.0969474357e+00 -5.3640703070e+00 3.0969474357e+00 5.3640703070e+00 
91300 6.5579960847e+00 -3.0153880436e-04 3.0969523681e+00 -5.3640788501e+00 3.0969523681e+00 5.3640788501e+00 
91400 6.5579961156e+00 -2.9761207262e-04 3.0969572364e+00 -5.3640872823e+00 3.0969572364e+00 5.3640872823e+00 
91500 6.5579961461e+00 -2.9372432604e-04 3.0969620413e+00 -5.3640956047e+00 3.0969620413e+00 5.3640956047e+00 
91600 6.5579961763e+00 -2.8987520671e-04 3.0969667834e+00 -5.3641038183e+00 3.0969667834e+00 5.3641038183e+00 
91700 6.5579962061e+00 -2.8606435987e-04 3.0969714634e+00 -5.3641119243e+00 3.0969714634e+00 5.3641119243e+00 
91800 6.5579962355e+00 -2.8229143385e-04 3.0969760819e+00 -5.3641199237e+00 3.0969760819e+00 5.3641199237e+00 
91900 6.5579962646e+00 -2.7855608011e-04 3.0969806394e+00 -5.3641278175e+00 3.0969806394e+00 5.3641278175e+00 
92000 6.5579962933e+00 -2.7485795316e-04 3.0969851366e+00 -5.3641356070e+00 3.0969851366e+00 5.3641356070e+00 
92100 6.5579963217e+00 -2.7119671062e-04 3.0969895742e+00 -5.3641432929e+00 3.0969895742e+00 5.3641432929e+00 
92200 6.5579963498e+00 -2.6757201315e-04 3.0969939525e+00 -5.3641508765e+00 3.0969939525e+00 5.3641508765e+00 
92300 6.5579963775e+00 -2.6398352446e-04 3.0969982724e+00 -5.3641583588e+00 3.0969982724e+00 5.3641583588e+00 
92400 6.5579964048e+00 -2.6043091127e-04 3.0970025343e+00 -5.3641657407e+00 3.0970025343e+00 5.3641657407e+00 
92500 6.5579964319e+00 -2.5691384334e-04 3.0970067389e+00 -5.3641730232e+00 3.0970067389e+00 5.3641730232e+00 
92600 6.5579964586e+00 -2.5343199338e-04 3.0970108867e+00 -5.3641802073e+00 3.0970108867e+00 5.3641802073e+00 
92700 6.5579964850e+00 -2.4998503713e-04 3.0970149782e+00 -5.3641872941e+00 3.0970149782e+00 5.3641872941e+00 
92800 6.5579965110e+00 -2.4657265324e-04 3.0970190141e+00 -5.3641942845e+00 3.0970190141e+00 5.3641942845e+00 
92900 6.5579965368e+00 -2.4319452334e-04 3.0970229950e+00 -5.3642011795e+00 3.0970229950e+00 5.3642011795e+00 
93000 6.5579965622e+00 -2.3985033195e-04 3.0970269212e+00 -5.3642079800e+00 3.0970269212e+00 5.3642079800e+00 
93100 6.5579965873e+00 -2.3653976653e-04 3.0970307935e+00 -5.3642146869e+00 3.0970307935e+00 5.3642146869e+00 
93200 6.5579966121e+00 -2.3326251739e-04 3.0970346123e+00 -5.3642213013e+00 3.0970346123e+00 5.3642213013e+00 
93300 6.5579966366e+00 -2.3001827774e-04 3.0970383782e+00 -5.3642278240e+00 3.0970383782e+00 5.3642278240e+00 
93400 6.5579966608e+00 -2.2680674362e-04 3.0970420917e+00 -5.3642342561e+00 3.0970420917e+00 5.3642342561e+00 
93500 6.5579966847e+00 -2.2362761390e-04 3.0970457534e+00 -5.3642405982e+00 3.0970457534e+00 5.3642405982e+00 
93600 6.5579967083e+00 -2.2048059027e-04 3.0970493637e+00 -5.3642468515e+00 3.0970493637e+00 5.3642468515e+00 
93700 6.5579967317e+00 -2.1736537720e-04 3.0970529233e+00 -5.3642530168e+00 3.0970529233e+00 5.3642530168e+00 
93800 6.5579967547e+00 -2.1428168194e-04 3.0970564325e+00 -5.3642590950e+00 3.0970564325e+00 5.3642590950e+00 
93900 6.5579967774e+00 -2.1122921446e-04 3.0970598919e+00 -5.3642650869e+00 3.0970598919e+00 5.3642650869e+00 
94000 6.5579967999e+00 -2.0820768751e-04 3.0970633021e+00 -5.3642709935e+00 3.0970633021e+00 5.3642709935e+00 
94100 6.5579968221e+00 -2.0521681651e-04 3.0970666635e+00 -5.3642768155e+00 3.0970666635e+00 5.3642768155e+00 
94200 6.5579968440e+00 -2.0225631956e-04 3.0970699765e+00 -5.3642825540e+00 3.0970699765e+00 5.3642825540e+00 
94300 6.5579968657e+00 -1.9932591745e-04 3.0970732418e+00 -5.3642882096e+00 3.0970732418e+00 5.3642882096e+00 
94400 6.5579968870e+00 -1.9642533362e-04 3.0970764598e+00 -5.3642937833e+00 3.0970764598e+00 5.3642937833e+00 
94500 6.5579969081e+00 -1.9355429410e-04 3.0970796309e+00 -5.3642992759e+00 3.0970796309e+00 5.3642992759e+00 
94600 6.5579969290e+00 -1.9071252755e-04 3.0970827557e+00 -5.3643046882e+00 3.0970827557e+00 5.3643046882e+00 
94700 6.5579969496e+00 -1.8789976521e-04 3.0970858346e+00 -5.3643100210e+00 3.0970858346e+00 5.3643100210e+00 
94800 6.5579969699e+00 -1.8511574085e-04 3.0970888681e+00 -5.3643152752e+00 3.0970888681e+00 5.3643152752e+00 
94900 6.5579969900e+00 -1.8236019081e-04 3.0970918567e+00 -5.3643204515e+00 3.0970918567e+00 5.3643204515e+00 
95000 6.5579970098e+00 -1.7963285393e-04 3.0970948007e+00 -5.3643255507e+00 3.0970948007e+00 5.3643255507e+00 
95100 6.5579970293e+00 -1.7693347155e-04 3.0970977008e+00 -5.3643305737e+00 3.0970977008e+00 5.3643305737e+00 
95200 6.5579970487e+00 -1.7426178746e-04 3.0971005572e+00 -5.3643355212e+00 3.0971005572e+00 5.3643355212e+00 
95300 6.5579970678e+00 -1.7161754792e-04 3.0971033705e+00 -5.3643403940e+00 3.0971033705e+00 5.3643403940e+00 
95400 6.5579970866e+00 -1.6900050162e-04 3.0971061411e+00 -5.3643451928e+00 3.0971061411e+00 5.3643451928e+00 
95500 6.5579971052e+00 -1.6641039962e-04 3.0971088695e+00 -5.3643499185e+00 3.0971088695e+00 5.3643499185e+00 
95600 6.5579971236e+00 -1.6384699541e-04 3.0971115560e+00 -5.3643545717e+00 3.0971115560e+00 5.3643545717e+00 
95700 6.5579971417e+00 -1.6131004479e-04 3.0971142012e+00 -5.3643591533e+00 3.0971142012e+00 5.3643591533e+00 
95800 6.5579971596e+00 -1.5879930594e-04 3.0971168054e+00 -5.3643636639e+00 3.0971168054e+00 5.3643636639e+00 
95900 6.5579971773e+00 -1.5631453933e-04 3.0971193690e+00 -5.3643681043e+00 3.0971193690e+00 5.3643681043e+00 
96000 6.5579971947e+00 -1.5385550772e-04 3.0971218926e+00 -5.3643724752e+00 3.0971218926e+00 5.3643724752e+00 
96100 6.5579972120e+00 -1.5142197616e-04 3.0971243764e+00 -5.3643767774e+00 3.0971243764e+00 5.3643767774e+00 
96200 6.5579972290e+00 -1.4901371193e-04 3.0971268210e+00 -5.3643810115e+00 3.0971268210e+00 5.3643810115e+00 
96300 6.5579972458e+00 -1.4663048454e-04 3.0971292267e+00 -5.3643851782e+00 3.0971292267e+00 5.3643851782e+00 
96400 6.5579972624e+00 -1.4427206571e-04 3.0971315939e+00 -5.3643892783e+00 3.0971315939e+00 5.3643892783e+00 
96500 6.5579972787e+00 -1.4193822934e-04 3.0971339230e+00 -5.3643933125e+00 3.0971339230e+00 5.3643933125e+00 
96600 6.5579972949e+00 -1.3962875147e-04 3.0971362144e+00 -5.3643972814e+00 3.0971362144e+00 5.3643972814e+00 
96700 6.5579973108e+00 -1.3734341030e-04 3.0971384686e+00 -5.3644011857e+00 3.0971384686e+00 5.3644011857e+00 
96800 6.5579973266e+00 -1.3508198613e-04 3.0971406859e+00 -5.3644050261e+00 3.0971406859e+00 5.3644050261e+00 
96900 6.5579973421e+00 -1.3284426137e-04 3.0971428666e+00 -5.3644088033e+00 3.0971428666e+00 5.3644088033e+00 
97000 6.5579973575e+00 -1.3063002047e-04 3.0971450112e+00 -5.3644125179e+00 3.0971450112e+00 5.3644125179e+00 
97100 6.5579973726e+00 -1.2843904997e-04 3.0971471201e+00 -5.3644161706e+00 3.0971471201e+00 5.3644161706e+00 
97200 6.5579973876e+00 -1.2627113841e-04 3.0971491936e+00 -5.3644197620e+00 3.0971491936e+00 5.3644197620e+00 
97300 6.5579974024e+00 -1.2412607633e-04 3.0971512321e+00 -5.3644232928e+00 3.0971512321e+00 5.3644232928e+00 
97400 6.5579974169e+00 -1.2200365628e-04 3.0971532360e+00 -5.3644267636e+00 3.0971532360e+00 5.3644267636e+00 
97500 6.5579974313e+00 -1.1990367275e-04 3.0971552056e+00 -5.3644301751e+00 3.0971552056e+00 5.3644301751e+00 
97600 6.5579974455e+00 -1.1782592219e-04 3.0971571413e+00 -5.3644335278e+00 3.0971571413e+00 5.3644335278e+00 
97700 6.5579974595e+00 -1.1577020295e-04 3.0971590435e+00 -5.3644368224e+00 3.0971590435e+00 5.3644368224e+00 
97800 6.5579974733e+00 -1.1373631529e-04 3.0971609125e+00 -5.3644400596e+00 3.0971609125e+00 5.3644400596e+00 
97900 6.5579974870e+00 -1.1172406135e-04 3.0971627486e+00 -5.3644432399e+00 3.0971627486e+00 5.3644432399e+00 
98000 6.5579975005e+00 -1.0973324513e-04 3.0971645523e+00 -5.3644463639e+00 3.0971645523e+00 5.3644463639e+00 
98100 6.5579975137e+00 -1.0776367246e-04 3.0971663238e+00 -5.3644494323e+00 3.0971663238e+00 5.3644494323e+00 
98200 6.5579975269e+00 -1.0581515099e-04 3.0971680635e+00 -5.3644524455e+00 3.0971680635e+00 5.3644524455e+00 
98300 6.5579975398e+00 -1.0388749016e-04 3.0971697717e+00 -5.3644554043e+00 3.0971697717e+00 5.3644554043e+00 
98400 6.5579975526e+00 -1.0198050120e-04 3.0971714489e+00 -5.3644583092e+00 3.0971714489e+00 5.3644583092e+00 
98500 6.5579975652e+00 -1.0009399708e-04 3.0971730952e+00 -5.3644611608e+00 3.0971730952e+00 5.3644611608e+00 
98600 6.5579975777e+00 -9.8227792519e-05 3.0971747111e+00 -5.3644639596e+00 3.0971747111e+00 5.3644639596e+00 
98700 6.5579975899e+00 -9.6381703941e-05 3.0971762969e+00 -5.3644667062e+00 3.0971762969e+00 5.3644667062e+00 
98800 6.5579976021e+00 -9.4555549470e-05 3.0971778528e+00 -5.3644694012e+00 3.0971778528e+00 5.3644694012e+00 
98900 6.5579976140e+00 -9.2749148913e-05 3.0971793793e+00 -5.3644720451e+00 3.0971793793e+00 5.3644720451e+00 
99000 6.5579976258e+00 -9.0962323730e-05 3.0971808766e+00 -5.3644746386e+00 3.0971808766e+00 5.3644746386e+00 
99100 6.5579976375e+00 -8.9194897019e-05 3.0971823451e+00 -5.3644771820e+00 3.0971823451e+00 5.3644771820e+00 
99200 6.5579976490e+00 -8.7446693506e-05 3.0971837850e+00 -5.3644796761e+00 3.0971837850e+00 5.3644796761e+00 
99300 6.5579976603e+00 -8.5717539506e-05 3.0971851968e+00 -5.3644821212e+00 3.0971851968e+00 5.3644821212e+00 
99400 6.5579976715e+00 -8.4007262929e-05 3.0971865806e+00 -5.3644845180e+00 3.0971865806e+00 5.3644845180e+00 
99500 6.5579976825e+00 -8.2315693240e-05 3.0971879367e+00 -5.3644868670e+00 3.0971879367e+00 5.3644868670e+00 
99600 6.5579976934e+00 -8.0642661460e-05 3.0971892656e+00 -5.3644891687e+00 3.0971892656e+00 5.3644891687e+00 
99700 6.5579977042e+00 -7.8988000127e-05 3.0971905675e+00 -5.3644914236e+00 3.0971905675e+00 5.3644914236e+00 
99800 6.5579977148e+00 -7.7351543301e-05 3.0971918426e+00 -5.3644936322e+00 3.0971918426e+00 5.3644936322e+00 
99900 6.5579977252e+00 -7.5733126532e-05 3.0971930914e+00 -5.3644957951e+00 3.0971930914e+00 5.3644957951e+00 
100000 6.5579977355e+00 -7.4132586842e-05 3.0971943140e+00 -5.3644979127e+00 3.0971943140e+00 5.3644979127e+00 
100100 6.5579977457e+00 -7.2549762714e-05 3.0971955108e+00 -5.3644999856e+00 3.0971955108e+00 5.3644999856e+00 
100200 6.5579977558e+00 -7.0984494077e-05 3.0971966820e+00 -5.3645020142e+00 3.0971966820e+00 5.3645020142e+00 
100300 6.5579977657e+00 -6.9436622280e-05 3.0971978279e+00 -5.3645039991e+00 3.0971978279e+00 5.3645039991e+00 
100400 6.5579977755e+00 -6.8628075705e-05 3.0971978279e+00 -5.3645039991e+00 3.0971978279e+00 5.3645039991e+00 
100500 6.5579977852e+00 -6.7832472993e-05 3.0971978279e+00 -5.3645039991e+00 3.0971978279e+00 5.3645039991e+00 
100600 6.5579977948e+00 -6.7049081261e-05 3.0971978279e+00 -5.3645039991e+00 3.0971978279e+00 5.3645039991e+00 
100700 6.5579978042e+00 -6.6277249427e-05 3.0971978279e+00 -5.3645039991e+00 3.0971978279e+00 5.3645039991e+00 
100800 6.5579978135e+00 -6.5516396299e-05 3.0971978279e+00 -5.3645039991e+00 3.0971978279e+00 5.3645039991e+00 
100900 6.5579978227e+00 -6.4766000262e-05 3.0971978279e+00 -5.3645039991e+00 3.0971978279e+00 5.3645039991e+00 
101000 6.5579978317e+00 -6.4025590364e-05 3.0971978279e+00 -5.3645039991e+00 3.0971978279e+00 5.3645039991e+00 
101100 6.5579978406e+00 -6.3294738622e-05 3.0971978279e+00 -5.3645039991e+00 3.0971978279e+00 5.3645039991e+00 
101200 6.5579978494e+00 -6.2573053384e-05 3.0971978279e+00 -5.3645039991e+00 3.0971978279e+00 5.3645039991e+00 
101300 6.5579978581e+00 -6.1860173602e-05 3.0971978279e+00 -5.3645039991e+00 3.0971978279e+00 5.3645039991e+00 
101400 6.5579978666e+00 -6.1155763909e-05 3.0971978279e+00 -5.3645039991e+00 3.0971978279e+00 5.3645039991e+00 
101500 6.5579978751e+00 -6.0459510404e-05 3.0971978279e+00 -5.3645039991e+00 3.0971978279e+00 5.3645039991e+00 
101600 6.5579978834e+00 -5.9771117022e-05 3.0971978279e+00 -5.3645039991e+00 3.0971978279e+00 5.3645039991e+00 
101700 6.5579978916e+00 -5.9090302466e-05 3.0971978279e+00 -5.3645039991e+00 3.0971978279e+00 5.3645039991e+00 
101800 6.5579978996e+00 -5.8416797580e-05 3.0971978279e+00 -5.3645039991e+00 3.0971978279e+00 5.3645039991e+00 
101900 6.5579979076e+00 -5.7750343139e-05 3.0971978279e+00 -5.3645039991e+00 3.0971978279e+00 5.3645039991e+00 
102000 6.5579979155e+00 -5.7090687987e-05 3.0971978279e+00 -5.3645039991e+00 3.0971978279e+00 5.3645039991e+00 
102100 6.5579979232e+00 -5.6437587480e-05 3.0971978279e+00 -5.3645039991e+00 3.0971978279e+00 5.3645039991e+00 
102200 6.5579979309e+00 -5.5790802206e-05 3.0971978279e+00 -5.3645039991e+00 3.0971978279e+00 5.3645039991e+00 
102300 6.5579979384e+00 -5.5150096915e-05 3.0971978279e+00 -5.3645039991e+00 3.0971978279e+00 5.3645039991e+00 
102400 6.5579979458e+00 -5.4515239684e-05 3.0971978279e+00 -5.3645039991e+00 3.0971978279e+00 5.3645039991e+00 
102500 6.5579979531e+00 -5.3886001220e-05 3.0971978279e+00 -5.3645039991e+00 3.0971978279e+00 5.3645039991e+00 
102600 6.5579979604e+00 -5.3262154331e-05 3.0971978279e+00 -5.3645039991e+00 3.0971978279e+00 5.3645039991e+00 
102700 6.5579979675e+00 -5.2643473536e-05 3.0971978279e+00 -5.3645039991e+00 3.0971978279e+00 5.3645039991e+00 
102800 6.5579979745e+00 -5.2029734755e-05 3.0971978279e+00 -5.3645039991e+00 3.0971978279e+00 5.3645039991e+00 
102900 6.5579979814e+00 -5.1420715118e-05 3.0971978279e+00 -5.3645039991e+00 3.0971978279e+00 5.3645039991e+00 
103000 6.5579979882e+00 -5.0816192855e-05 3.0971978279e+00 -5.3645039991e+00 3.0971978279e+00 5.3645039991e+00 
103100 6.5579979950e+00 -5.0215947235e-05 3.0971978279e+00 -5.3645039991e+00 3.0971978279e+00 5.3645039991e+00 
103200 6.5579980016e+00 -4.9619758576e-05 3.0971978279e+00 -5.3645039991e+00 3.0971978279e+00 5.3645039991e+00 
103300 6.5579980081e+00 -4.9027408301e-05 3.0971978279e+00 -5.3645039991e+00 3.0971978279e+00 5.3645039991e+00 
103400 6.5579980146e+00 -4.8438679024e-05 3.0971978279e+00 -5.3645039991e+00 3.0971978279e+00 5.3645039991e+00 
103500 6.5579980209e+00 -4.7853354684e-05 3.0971978279e+00 -5.3645039991e+00 3.0971978279e+00 5.3645039991e+00 
103600 6.5579980272e+00 -4.7271220681e-05 3.0971978279e+00 -5.3645039991e+00 3.0971978279e+00 5.3645039991e+00 
103700 6.5579980333e+00 -4.6692064059e-05 3.0971978279e+00 -5.3645039991e+00 3.0971978279e+00 5.3645039991e+00 
103800 6.5579980394e+00 -4.6115673677e-05 3.0971978279e+00 -5.3645039991e+00 3.0971978279e+00 5.3645039991e+00 
103900 6.5579980454e+00 -4.5541840409e-05 3.0971978279e+00 -5.3645039991e+00 3.0971978279e+00 5.3645039991e+00 
104000 6.5579980513e+00 -4.4970357347e-05 3.0971978279e+00 -5.3645039991e+00 3.0971978279e+00 5.3645039991e+00 
104100 6.5579980571e+00 -4.4401020001e-05 3.0971978279e+00 -5.3645039991e+00 3.0971978279e+00 5.3645039991e+00 
104200 6.5579980629e+00 -4.3833626499e-05 3.0971978279e+00 -5.3645039991e+00 3.0971978279e+00 5.3645039991e+00 
104300 6.5579980685e+00 -4.3267977817e-05 3.0971978279e+00 -5.3645039991e+00 3.0971978279e+00 5.3645039991e+00 
104400 6.5579980741e+00 -4.2703877947e-05 3.0971978279e+00 -5.3645039991e+00 3.0971978279e+00 5.3645039991e+00 
104500 6.5579980796e+00 -4.2141134115e-05 3.0971978279e+00 -5.3645039991e+00 3.0971978279e+00 5.3645039991e+00 
104600 6.5579980850e+00 -4.1579556969e-05 3.0971978279e+00 -5.3645039991e+00 3.0971978279e+00 5.3645039991e+00 
104700 6.5579980903e+00 -4.1018960755e-05 3.0971978279e+00 -5.3645039991e+00 3.0971978279e+00 5.3645039991e+00 
104800 6.5579980956e+00 -4.0459163500e-05 3.0971978279e+00 -5.3645039991e+00 3.0971978279e+00 5.3645039991e+00 
104900 6.5579981008e+00 -3.9899987171e-05 3.0971978279e+00 -5.3645039991e+00 3.0971978279e+00 5.3645039991e+00 
105000 6.5579981059e+00 -3.9341257837e-05 3.0971978279e+00 -5.3645039991e+00 3.0971978279e+00 5.3645039991e+00 
105100 6.5579981109e+00 -3.8782805814e-05 3.0971978279e+00 -5.3645039991e+00 3.0971978279e+00 5.3645039991e+00 
105200 6.5579981159e+00 -3.8224465795e-05 3.0971978279e+00 -5.3645039991e+00 3.0971978279e+00 5.3645039991e+00 
105300 6.5579981207e+00 -3.7666076979e-05 3.0971978279e+00 -5.3645039991e+00 3.0971978279e+00 5.3645039991e+00 
105400 6.5579981255e+00 -3.7107483184e-05 3.0971978279e+00 -5.3645039991e+00 3.0971978279e+00 5.3645039991e+00 
105500 6.5579981303e+00 -3.6548532952e-05 3.0971978279e+00 -5.3645039991e+00 3.0971978279e+00 5.3645039991e+00 
105600 6.5579981350e+00 -3.5989079633e-05 3.0971978279e+00 -5.3645039991e+00 3.0971978279e+00 5.3645039991e+00 
105700 6.5579981396e+00 -3.5428981475e-05 3.0971978279e+00 -5.3645039991e+00 3.0971978279e+00 5.3645039991e+00 
105800 6.5579981441e+00 -3.4868101690e-05 3.0971978279e+00 -5.3645039991e+00 3.0971978279e+00 5.3645039991e+00 
105900 6.5579981486e+00 -3.4306308509e-05 3.0971978279e+00 -5.3645039991e+00 3.0971978279e+00 5.3645039991e+00 
106000 6.5579981530e+00 -3.3743475235e-05 3.0971978279e+00 -5.3645039991e+00 3.0971978279e+00 5.3645039991e+00 
106100 6.5579981573e+00 -3.3179480281e-05 3.0971978279e+00 -5.3645039991e+00 3.0971978279e+00 5.3645039991e+00 
106200 6.5579981616e+00 -3.2614207199e-05 3.0971978279e+00 -5.3645039991e+00 3.0971978279e+00 5.3645039991e+00 
106300 6.5579981658e+00 -3.2047544699e-05 3.0971978279e+00 -5.3645039991e+00 3.0971978279e+00 5.3645039991e+00 
106400 6.5579981699e+00 -3.1479386651e-05 3.0971978279e+00 -5.3645039991e+00 3.0971978279e+00 5.3645039991e+00 
106500 6.5579981740e+00 -3.0909632100e-05 3.0971978279e+00 -5.3645039991e+00 3.0971978279e+00 5.3645039991e+00 
106600 6.5579981780e+00 -3.0338185243e-05 3.0971978279e+00 -5.3645039991e+00 3.0971978279e+00 5.3645039991e+00 
106700 6.5579981820e+00 -2.9764955422e-05 3.0971978279e+00 -5.3645039991e+00 3.0971978279e+00 5.3645039991e+00 
106800 6.5579981859e+00 -2.9189857092e-05 3.0971978279e+00 -5.3645039991e+00 3.0971978279e+00 5.3645039991e+00 
106900 6.5579981897e+00 -2.8612809799e-05 3.0971978279e+00 -5.3645039991e+00 3.0971978279e+00 5.3645039991e+00 
107000 6.5579981935e+00 -2.8033738129e-05 3.0971978279e+00 -5.3645039991e+00 3.0971978279e+00 5.3645039991e+00 
107100 6.5579981973e+00 -2.7452571670e-05 3.0971978279e+00 -5.3645039991e+00 3.0971978279e+00 5.3645039991e+00 
107200 6.5579982009e+00 -2.6869244953e-05 3.0971978279e+00 -5.3645039991e+00 3.0971978279e+00 5.3645039991e+00 
107300 6.5579982045e+00 -2.6283697401e-05 3.0971978279e+00 -5.3645039991e+00 3.0971978279e+00 5.3645039991e+00 
107400 6.5579982081e+00 -2.5695873253e-05 3.0971978279e+00 -5.3645039991e+00 3.0971978279e+00 5.3645039991e+00 
107500 6.5579982116e+00 -2.5105721508e-05 3.0971978279e+00 -5.3645039991e+00 3.0971978279e+00 5.3645039991e+00 
107600 6.5579982151e+00 -2.4513195842e-05 3.0971978279e+00 -5.3645039991e+00 3.0971978279e+00 5.3645039991e+00 
107700 6.5579982185e+00 -2.3918254520e-05 3.0971978279e+00 -5.3645039991e+00 3.0971978279e+00 5.3645039991e+00 
107800 6.5579982218e+00 -2.3320860329e-05 3.0971978279e+00 -5.3645039991e+00 3.0971978279e+00 5.3645039991e+00 
107900 6.5579982251e+00 -2.2720980484e-05 3.0971978279e+00 -5.3645039991e+00 3.0971978279e+00 5.3645039991e+00 
108000 6.5579982284e+00 -2.2118586523e-05 3.0971978279e+00 -5.3645039991e+00 3.0971978279e+00 5.3645039991e+00 
108100 6.5579982316e+00 -2.1513654233e-05 3.0971978279e+00 -5.3645039991e+00 3.0971978279e+00 5.3645039991e+00 
108200 6.5579982347e+00 -2.0906163542e-05 3.0971978279e+00 -5.3645039991e+00 3.0971978279e+00 5.3645039991e+00 
108300 6.5579982378e+00 -2.0296098414e-05 3.0971978279e+00 -5.3645039991e+00 3.0971978279e+00 5.3645039991e+00 
108400 6.5579982409e+00 -1.9683446754e-05 3.0971978279e+00 -5.3645039991e+00 3.0971978279e+00 5.3645039991e+00 
108500 6.5579982439e+00 -1.9068200299e-05 3.0971978279e+00 -5.3645039991e+00 3.0971978279e+00 5.3645039991e+00 
108600 6.5579982469e+00 -1.8450354513e-05 3.0971978279e+00 -5.3645039991e+00 3.0971978279e+00 5.3645039991e+00 
108700 6.5579982498e+00 -1.7829908475e-05 3.0971978279e+00 -5.3645039991e+00 3.0971978279e+00 5.3645039991e+00 
108800 6.5579982527e+00 -1.7206864772e-05 3.0971978279e+00 -5.3645039991e+00 3.0971978279e+00 5.3645039991e+00 
108900 6.5579982555e+00 -1.6581229389e-05 3.0971978279e+00 -5.3645039991e+00 3.0971978279e+00 5.3645039991e+00 
109000 6.5579982583e+00 -1.5953011598e-05 3.0971978279e+00 -5.3645039991e+00 3.0971978279e+00 5.3645039991e+00 
109100 6.5579982610e+00 -1.5322223838e-05 3.0971978279e+00 -5.3645039991e+00 3.0971978279e+00 5.3645039991e+00 
109200 6.5579982637e+00 -1.4688881617e-05 3.0971978279e+00 -5.3645039991e+00 3.0971978279e+00 5.3645039991e+00 
109300 6.5579982664e+00 -1.4053003390e-05 3.0971978279e+00 -5.3645039991e+00 3.0971978279e+00 5.3645039991e+00 
109400 6.5579982690e+00 -1.3414610445e-05 3.0971978279e+00 -5.3645039991e+00 3.0971978279e+00 5.3645039991e+00 
109500 6.5579982716e+00 -1.2773726798e-05 3.0971978279e+00 -5.3645039991e+00 3.0971978279e+00 5.3645039991e+00 
109600 6.5579982741e+00 -1.2130379072e-05 3.0971978279e+00 -5.3645039991e+00 3.0971978279e+00 5.3645039991e+00 
109700 6.5579982766e+00 -1.1484596396e-05 3.0971978279e+00 -5.3645039991e+00 3.0971978279e+00 5.3645039991e+00 
109800 6.5579982791e+00 -1.0836410285e-05 3.0971978279e+00 -5.3645039991e+00 3.0971978279e+00 5.3645039991e+00 
109900 6.5579982815e+00 -1.0185854546e-05 3.0971978279e+00 -5.3645039991e+00 3.0971978279e+00 5.3645039991e+00 
110000 6.5579982839e+00 -9.5329651495e-06 3.0971978279e+00 -5.3645039991e+00 3.0971978279e+00 5.3645039991e+00 
110100 6.5579982862e+00 -8.8777801397e-06 3.0971978279e+00 -5.3645039991e+00 3.0971978279e+00 5.3645039991e+00 
110200 6.5579982885e+00 -8.2203395169e-06 3.0971978279e+00 -5.3645039991e+00 3.0971978279e+00 5.3645039991e+00 
110300 6.5579982908e+00 -7.5606851396e-06 3.0971978279e+00 -5.3645039991e+00 3.0971978279e+00 5.3645039991e+00 
110400 6.5579982930e+00 -6.8988606212e-06 3.0971978279e+00 -5.3645039991e+00 3.0971978279e+00 5.3645039991e+00 
110500 6.5579982952e+00 -6.2349112337e-06 3.0971978279e+00 -5.3645039991e+00 3.0971978279e+00 5.3645039991e+00 
110600 6.5579982974e+00 -5.5688837984e-06 3.0971978279e+00 -5.3645039991e+00 3.0971978279e+00 5.3645039991e+00 
110700 6.5579982995e+00 -4.9008265934e-06 3.0971978279e+00 -5.3645039991e+00 3.0971978279e+00 5.3645039991e+00 
110800 6.5579983016e+00 -4.2307892598e-06 3.0971978279e+00 -5.3645039991e+00 3.0971978279e+00 5.3645039991e+00 
110900 6.5579983037e+00 -3.5588227113e-06 3.0971978279e+00 -5.3645039991e+00 3.0971978279e+00 5.3645039991e+00 
111000 6.5579983057e+00 -2.8849790319e-06 3.0971978279e+00 -5.3645039991e+00 3.0971978279e+00 5.3645039991e+00 
111100 6.5579983077e+00 -2.2093114014e-06 3.0971978279e+00 -5.3645039991e+00 3.0971978279e+00 5.3645039991e+00 
111200 6.5579983097e+00 -1.5318739954e-06 3.0971978279e+00 -5.3645039991e+00 3.0971978279e+00 5.3645039991e+00 
111300 6.5579983116e+00 -8.5272191068e-07 3.0971978279e+00 -5.3645039991e+00 3.0971978279e+00 5.3645039991e+00 
111400 6.5579983135e+00 -1.7191107827e-07 3.0971978279e+00 -5.3645039991e+00 3.0971978279e+00 5.3645039991e+00 
111500 6.5579983154e+00 5.1050182049e-07 3.0971978279e+00 -5.3645039991e+00 3.0971978279e+00 5.3645039991e+00 
111600 6.5579983173e+00 1.1944594214e-06 3.0971978279e+00 -5.3645039991e+00 3.0971978279e+00 5.3645039991e+00 
111700 6.5579983191e+00 1.8799037654e-06 3.0971978279e+00 -5.3645039991e+00 3.0971978279e+00 5.3645039991e+00 
111800 6.5579983209e+00 2.5667763632e-06 3.0971978279e+00 -5.3645039991e+00 3.0971978279e+00 5.3645039991e+00 
111900 6.5579983226e+00 3.2550182687e-06 3.0971978279e+00 -5.3645039991e+00 3.0971978279e+00 5.3645039991e+00 
112000 6.5579983244e+00 3.9445701463e-06 3.0971978279e+00 -5.3645039991e+00 3.0971978279e+00 5.3645039991e+00 
112100 6.5579983261e+00 4.6353723375e-06 3.0971978279e+00 -5.3645039991e+00 3.0971978279e+00 5.3645039991e+00 
112200 6.5579983277e+00 5.3273649251e-06 3.0971978279e+00 -5.3645039991e+00 3.0971978279e+00 5.3645039991e+00 
112300 6.5579983294e+00 6.0204877998e-06 3.0971978279e+00 -5.3645039991e+00 3.0971978279e+00 5.3645039991e+00 
112400 6.5579983310e+00 6.7146807053e-06 3.0971978279e+00 -5.3645039991e+00 3.0971978279e+00 5.3645039991e+00 
112500 6.5579983326e+00 7.4098833102e-06 3.0971978279e+00 -5.3645039991e+00 3.0971978279e+00 5.3645039991e+00 
112600 6.5579983342e+00 8.1060352536e-06 3.0971978279e+00 -5.3645039991e+00 3.0971978279e+00 5.3645039991e+00 
112700 6.5579983357e+00 8.8030762014e-06 3.0971978279e+00 -5.3645039991e+00 3.0971978279e+00 5.3645039991e+00 
112800 6.5579983372e+00 9.5009458892e-06 3.0971978279e+00 -5.3645039991e+00 3.0971978279e+00 5.3645039991e+00 
112900 6.5579983387e+00 1.0199584183e-05 3.0971978279e+00 -5.3645039991e+00 3.0971978279e+00 5.3645039991e+00 
113000 6.5579983402e+00 1.0898931110e-05 3.0971978279e+00 -5.3645039991e+00 3.0971978279e+00 5.3645039991e+00 
113100 6.5579983416e+00 1.1598926914e-05 3.0971978279e+00 -5.3645039991e+00 3.0971978279e+00 5.3645039991e+00 
113200 6.5579983431e+00 1.2299512088e-05 3.0971978279e+00 -5.3645039991e+00 3.0971978279e+00 5.3645039991e+00 
113300 6.5579983445e+00 1.3000627420e-05 3.0971978279e+00 -5.3645039991e+00 3.0971978279e+00 5.3645039991e+00 
113400 6.5579983458e+00 1.3702214028e-05 3.0971978279e+00 -5.3645039991e+00 3.0971978279e+00 5.3645039991e+00 
113500 6.5579983472e+00 1.4404213390e-05 3.0971978279e+00 -5.3645039991e+00 3.0971978279e+00 5.3645039991e+00 
113600 6.5579983485e+00 1.5106567384e-05 3.0971978279e+00 -5.3645039991e+00 3.0971978279e+00 5.3645039991e+00 
113700 6.5579983498e+00 1.5809218316e-05 3.0971978279e+00 -5.3645039991e+00 3.0971978279e+00 5.3645039991e+00 
113800 6.5579983511e+00 1.6512108953e-05 3.0971978279e+00 -5.3645039991e+00 3.0971978279e+00 5.3645039991e+00 
113900 6.5579983524e+00 1.7215182541e-05 3.0971978279e+00 -5.3645039991e+00 3.0971978279e+00 5.3645039991e+00 
114000 6.5579983536e+00 1.7918382848e-05 3.0971978279e+00 -5.3645039991e+00 3.0971978279e+00 5.3645039991e+00 
114100 6.5579983549e+00 1.8621654165e-05 3.0971978279e+00 -5.3645039991e+00 3.0971978279e+00 5.3645039991e+00 
114200 6.5579983561e+00 1.9324941352e-05 3.0971978279e+00 -5.3645039991e+00 3.0971978279e+00 5.3645039991e+00 
114300 6.5579983572e+00 2.0028189843e-05 3.0971978279e+00 -5.3645039991e+00 3.0971978279e+00 5.3645039991e+00 
114400 6.5579983584e+00 2.0731345669e-05 3.0971978279e+00 -5.3645039991e+00 3.0971978279e+00 5.3645039991e+00 
114500 6.5579983596e+00 2.1434355481e-05 3.0971978279e+00 -5.3645039991e+00 3.0971978279e+00 5.3645039991e+00 
114600 6.5579983607e+00 2.2137166556e-05 3.0971978279e+00 -5.3645039991e+00 3.0971978279e+00 5.3645039991e+00 
114700 6.5579983618e+00 2.2839726825e-05 3.0971978279e+00 -5.3645039991e+00 3.0971978279e+00 5.3645039991e+00 
114800 6.5579983629e+00 2.3541984872e-05 3.0971978279e+00 -5.3645039991e+00 3.0971978279e+00 5.3645039991e+00 
114900 6.5579983640e+00 2.4243889961e-05 3.0971978279e+00 -5.3645039991e+00 3.0971978279e+00 5.3645039991e+00 
115000 6.5579983650e+00 2.4945392030e-05 3.0971978279e+00 -5.3645039991e+00 3.0971978279e+00 5.3645039991e+00 
115100 6.5579983660e+00 2.5646441718e-05 3.0971978279e+00 -5.3645039991e+00 3.0971978279e+00 5.3645039991e+00 
115200 6.5579983671e+00 2.6346990365e-05 3.0971978279e+00 -5.3645039991e+00 3.0971978279e+00 5.3645039991e+00 
115300 6.5579983681e+00 2.7046990012e-05 3.0971978279e+00 -5.3645039991e+00 3.0971978279e+00 5.3645039991e+00 
115400 6.5579983691e+00 2.7746393422e-05 3.0971978279e+00 -5.3645039991e+00 3.0971978279e+00 5.3645039991e+00 
115500 6.5579983700e+00 2.8445154076e-05 3.0971978279e+00 -5.3645039991e+00 3.0971978279e+00 5.3645039991e+00 
115600 6.5579983710e+00 2.9143226181e-05 3.0971978279e+00 -5.3645039991e+00 3.0971978279e+00 5.3645039991e+00 
115700 6.5579983719e+00 2.9840564667e-05 3.0971978279e+00 -5.3645039991e+00 3.0971978279e+00 5.3645039991e+00 
115800 6.5579983728e+00 3.0537125201e-05 3.0971978279e+00 -5.3645039991e+00 3.0971978279e+00 5.3645039991e+00 
115900 6.5579983737e+00 3.1232864178e-05 3.0971978279e+00 -5.3645039991e+00 3.0971978279e+00 5.3645039991e+00 
116000 6.5579983746e+00 3.1927738721e-05 3.0971978279e+00 -5.3645039991e+00 3.0971978279e+00 5.3645039991e+00 
116100 6.5579983755e+00 3.2621706697e-05 3.0971978279e+00 -5.3645039991e+00 3.0971978279e+00 5.3645039991e+00 
116200 6.5579983764e+00 3.3314726695e-05 3.0971978279e+00 -5.3645039991e+00 3.0971978279e+00 5.3645039991e+00 
116300 6.5579983772e+00 3.4006758037e-05 3.0971978279e+00 -5.3645039991e+00 3.0971978279e+00 5.3645039991e+00 
116400 6.5579983780e+00 3.4697760779e-05 3.0971978279e+00 -5.3645039991e+00 3.0971978279e+00 5.3645039991e+00 
116500 6.5579983789e+00 3.5387695698e-05 3.0971978279e+00 -5.3645039991e+00 3.0971978279e+00 5.3645039991e+00 
116600 6.5579983797e+00 3.6076524292e-05 3.0971978279e+00 -5.3645039991e+00 3.0971978279e+00 5.3645039991e+00 
116700 6.5579983805e+00 3.6764208784e-05 3.0971978279e+00 -5.3645039991e+00 3.0971978279e+00 5.3645039991e+00 
116800 6.5579983812e+00 3.7450712111e-05 3.0971978279e+00 -5.3645039991e+00 3.0971978279e+00 5.3645039991e+00 
116900 6.5579983820e+00 3.8135997918e-05 3.0971978279e+00 -5.3645039991e+00 3.0971978279e+00 5.3645039991e+00 
117000 6.5579983827e+00 3.8820030557e-05 3.0971978279e+00 -5.3645039991e+00 3.0971978279e+00 5.3645039991e+00 
117100 6.5579983835e+00 3.9502775080e-05 3.0971978279e+00 -5.3645039991e+00 3.0971978279e+00 5.3645039991e+00 
117200 6.5579983842e+00 4.0184197242e-05 3.0971978279e+00 -5.3645039991e+00 3.0971978279e+00 5.3645039991e+00 
117300 6.5579983849e+00 4.0864263471e-05 3.0971978279e+00 -5.3645039991e+00 3.0971978279e+00 5.3645039991e+00 
117400 6.5579983856e+00 4.1542940890e-05 3.0971978279e+00 -5.3645039991e+00 3.0971978279e+00 5.3645039991e+00 
117500 6.5579983863e+00 4.2220197290e-05 3.0971978279e+00 -5.3645039991e+00 3.0971978279e+00 5.3645039991e+00 
117600 6.5579983870e+00 4.2896001139e-05 3.0971978279e+00 -5.3645039991e+00 3.0971978279e+00 5.3645039991e+00 
117700 6.5579983876e+00 4.3570321561e-05 3.0971978279e+00 -5.3645039991e+00 3.0971978279e+00 5.3645039991e+00 
117800 6.5579983883e+00 4.4243128335e-05 3.0971978279e+00 -5.3645039991e+00 3.0971978279e+00 5.3645039991e+00 
117900 6.5579983889e+00 4.4914391894e-05 3.0971978279e+00 -5.3645039991e+00 3.0971978279e+00 5.3645039991e+00 
118000 6.5579983896e+00 4.5584083303e-05 3.0971978279e+00 -5.3645039991e+00 3.0971978279e+00 5.3645039991e+00 
118100 6.5579983902e+00 4.6252174261e-05 3.0971978279e+00 -5.3645039991e+00 3.0971978279e+00 5.3645039991e+00 
118200 6.5579983908e+00 4.6918637098e-05 3.0971978279e+00 -5.3645039991e+00 3.0971978279e+00 5.3645039991e+00 
118300 6.5579983914e+00 4.7583444753e-05 3.0971978279e+00 -5.3645039991e+00 3.0971978279e+00 5.3645039991e+00 
118400 6.5579983920e+00 4.8246570775e-05 3.0971978279e+00 -5.3645039991e+00 3.0971978279e+00 5.3645039991e+00 
118500 6.5579983926e+00 4.8907989320e-05 3.0971978279e+00 -5.3645039991e+00 3.0971978279e+00 5.3645039991e+00 
118600 6.5579983931e+00 4.9567675130e-05 3.0971978279e+00 -5.3645039991e+00 3.0971978279e+00 5.3645039991e+00 
118700 6.5579983937e+00 5.0225603537e-05 3.0971978279e+00 -5.3645039991e+00 3.0971978279e+00 5.3645039991e+00 
118800 6.5579983942e+00 5.0881750449e-05 3.0971978279e+00 -5.3645039991e+00 3.0971978279e+00 5.3645039991e+00 
118900 6.5579983948e+00 5.1536092343e-05 3.0971978279e+00 -5.3645039991e+00 3.0971978279e+00 5.3645039991e+00 
119000 6.5579983953e+00 5.2188606257e-05 3.0971978279e+00 -5.3645039991e+00 3.0971978279e+00 5.3645039991e+00 
119100 6.5579983958e+00 5.2839269777e-05 3.0971978279e+00 -5.3645039991e+00 3.0971978279e+00 5.3645039991e+00 
119200 6.5579983963e+00 5.3488061048e-05 3.0971978279e+00 -5.3645039991e+00 3.0971978279e+00 5.3645039991e+00 
119300 6.5579983968e+00 5.4134958737e-05 3.0971978279e+00 -5.3645039991e+00 3.0971978279e+00 5.3645039991e+00 
119400 6.5579983973e+00 5.4779942057e-05 3.0971978279e+00 -5.3645039991e+00 3.0971978279e+00 5.3645039991e+00 
119500 6.5579983978e+00 5.5422990727e-05 3.0971978279e+00 -5.3645039991e+00 3.0971978279e+00 5.3645039991e+00 
119600 6.5579983983e+00 5.6064084996e-05 3.0971978279e+00 -5.3645039991e+00 3.0971978279e+00 5.3645039991e+00 
119700 6.5579983987e+00 5.6703205608e-05 3.0971978279e+00 -5.3645039991e+00 3.0971978279e+00 5.3645039991e+00 
119800 6.5579983992e+00 5.7340333813e-05 3.0971978279e+00 -5.3645039991e+00 3.0971978279e+00 5.3645039991e+00 
119900 6.5579983996e+00 5.7975451354e-05 3.0971978279e+00 -5.3645039991e+00 3.0971978279e+00 5.3645039991e+00 
120000 6.5579984001e+00 5.8608540460e-05 3.0971978279e+00 -5.3645039991e+00 3.0971978279e+00 5.3645039991e+00 
120100 6.5579984005e+00 5.9239583833e-05 3.0971978279e+00 -5.3645039991e+00 3.0971978279e+00 5.3645039991e+00 
120200 6.5579984009e+00 5.9868564651e-05 3.0971978279e+00 -5.3645039991e+00 3.0971978279e+00 5.3645039991e+00 
120300 6.5579984014e+00 6.0495466557e-05 3.0971978279e+00 -5.3645039991e+00 3.0971978279e+00 5.3645039991e+00 
120400 6.5579984018e+00 6.1120273648e-05 3.0971978279e+00 -5.3645039991e+00 3.0971978279e+00 5.3645039991e+00 
120500 6.5579984022e+00 6.1742970473e-05 3.0971978279e+00 -5.3645039991e+00 3.0971978279e+00 5.3645039991e+00 
120600 6.5579984026e+00 6.2363542028e-05 3.0971978279e+00 -5.3645039991e+00 3.0971978279e+00 5.3645039991e+00 
120700 6.5579984030e+00 6.2981973746e-05 3.0971978279e+00 -5.3645039991e+00 3.0971978279e+00 5.3645039991e+00 
120800 6.5579984033e+00 6.3598251493e-05 3.0971978279e+00 -5.3645039991e+00 3.0971978279e+00 5.3645039991e+00 
120900 6.5579984037e+00 6.4212361554e-05 3.0971978279e+00 -5.3645039991e+00 3.0971978279e+00 5.3645039991e+00 
121000 6.5579984041e+00 6.4824290642e-05 3.0971978279e+00 -5.3645039991e+00 3.0971978279e+00 5.3645039991e+00 
121100 6.5579984044e+00 6.5434025882e-05 3.0971978279e+00 -5.3645039991e+00 3.0971978279e+00 5.3645039991e+00 
121200 6.5579984048e+00 6.6041554800e-05 3.0971978279e+00 -5.3645039991e+00 3.0971978279e+00 5.3645039991e+00 
121300 6.5579984052e+00 6.6646865336e-05 3.0971978279e+00 -5.3645039991e+00 3.0971978279e+00 5.3645039991e+00 
121400 6.5579984055e+00 6.7249945813e-05 3.0971978279e+00 -5.3645039991e+00 3.0971978279e+00 5.3645039991e+00 
121500 6.5579984058e+00 6.7850784957e-05 3.0971978279e+00 -5.3645039991e+00 3.0971978279e+00 5.3645039991e+00 
121600 6.5579984062e+00 6.8449371871e-05 3.0971978279e+00 -5.3645039991e+00 3.0971978279e+00 5.3645039991e+00 
121700 6.5579984065e+00 6.9045696045e-05 3.0971978279e+00 -5.3645039991e+00 3.0971978279e+00 5.3645039991e+00 
121800 6.5579984068e+00 6.9639747335e-05 3.0971978279e+00 -5.3645039991e+00 3.0971978279e+00 5.3645039991e+00 
121900 6.5579984071e+00 7.0231515980e-05 3.0971978279e+00 -5.3645039991e+00 3.0971978279e+00 5.3645039991e+00 
122000 6.5579984074e+00 7.0820992574e-05 3.0971978279e+00 -5.3645039991e+00 3.0971978279e+00 5.3645039991e+00 
122100 6.5579984077e+00 7.0671519847e-05 3.0971966846e+00 -5.3645020188e+00 3.0971966846e+00 5.3645020188e+00 
122200 6.5579984080e+00 7.1244385767e-05 3.0971966846e+00 -5.3645020188e+00 3.0971966846e+00 5.3645020188e+00 
122300 6.5579984082e+00 7.1074385055e-05 3.0971955345e+00 -5.3645000267e+00 3.0971955345e+00 5.3645000267e+00 
122400 6.5579984084e+00 7.0892189311e-05 3.0971943871e+00 -5.3644980393e+00 3.0971943871e+00 5.3644980393e+00 
122500 6.5579984087e+00 7.0698395727e-05 3.0971932426e+00 -5.3644960571e+00 3.0971932426e+00 5.3644960571e+00 
122600 6.5579984089e+00 7.1228914128e-05 3.0971932426e+00 -5.3644960571e+00 3.0971932426e+00 5.3644960571e+00 
122700 6.5579984091e+00 7.1017794499e-05 3.0971920927e+00 -5.3644940654e+00 3.0971920927e+00 5.3644940654e+00 
122800 6.5579984093e+00 7.0795838595e-05 3.0971909462e+00 -5.3644920796e+00 3.0971909462e+00 5.3644920796e+00 
122900 6.5579984095e+00 7.0563515855e-05 3.0971898033e+00 -5.3644901001e+00 3.0971898033e+00 5.3644901001e+00 
123000 6.5579984098e+00 7.1055229783e-05 3.0971898033e+00 -5.3644901001e+00 3.0971898033e+00 5.3644901001e+00 
123100 6.5579984100e+00 7.0807731001e-05 3.0971886562e+00 -5.3644881132e+00 3.0971886562e+00 5.3644881132e+00 
123200 6.5579984102e+00 7.0550357770e-05 3.0971875131e+00 -5.3644861333e+00 3.0971875131e+00 5.3644861333e+00 
123300 6.5579984104e+00 7.1017363368e-05 3.0971875131e+00 -5.3644861333e+00 3.0971875131e+00 5.3644861333e+00 
123400 6.5579984106e+00 7.0745754951e-05 3.0971863667e+00 -5.3644841476e+00 3.0971863667e+00 5.3644841476e+00 
123500 6.5579984108e+00 7.0464729344e-05 3.0971852246e+00 -5.3644821694e+00 3.0971852246e+00 5.3644821694e+00 
123600 6.5579984110e+00 7.0907646467e-05 3.0971852246e+00 -5.3644821694e+00 3.0971852246e+00 5.3644821694e+00 
123700 6.5579984111e+00 7.0613282439e-05 3.0971840799e+00 -5.3644801867e+00 3.0971840799e+00 5.3644801867e+00 
123800 6.5579984114e+00 7.1044454006e-05 3.0971840799e+00 -5.3644801867e+00 3.0971840799e+00 5.3644801867e+00 
123900 6.5579984115e+00 7.0736886215e-05 3.0971829329e+00 -5.3644782002e+00 3.0971829329e+00 5.3644782002e+00 
124000 6.5579984117e+00 7.0420457563e-05 3.0971817910e+00 -5.3644762223e+00 3.0971817910e+00 5.3644762223e+00 
124100 6.5579984119e+00 7.0828097266e-05 3.0971817910e+00 -5.3644762223e+00 3.0971817910e+00 5.3644762223e+00 
124200 6.5579984120e+00 7.0499518090e-05 3.0971806476e+00 -5.3644742418e+00 3.0971806476e+00 5.3644742418e+00 
124300 6.5579984122e+00 7.0895925768e-05 3.0971806476e+00 -5.3644742418e+00 3.0971806476e+00 5.3644742418e+00 
124400 6.5579984123e+00 7.0555420241e-05 3.0971795030e+00 -5.3644722594e+00 3.0971795030e+00 5.3644722594e+00 
124500 6.5579984125e+00 7.0940632748e-05 3.0971795030e+00 -5.3644722594e+00 3.0971795030e+00 5.3644722594e+00 
124600 6.5579984126e+00 7.0588523909e-05 3.0971783578e+00 -5.3644702758e+00 3.0971783578e+00 5.3644702758e+00 
124700 6.5579984128e+00 7.0962667930e-05 3.0971783578e+00 -5.3644702758e+00 3.0971783578e+00 5.3644702758e+00 
124800 6.5579984129e+00 7.0599353566e-05 3.0971772122e+00 -5.3644682915e+00 3.0971772122e+00 5.3644682915e+00 
124900 6.5579984131e+00 7.0962625848e-05 3.0971772122e+00 -5.3644682915e+00 3.0971772122e+00 5.3644682915e+00 
125000 6.5579984132e+00 7.0588559348e-05 3.0971760666e+00 -5.3644663073e+00 3.0971760666e+00 5.3644663073e+00 
125100 6.5579984133e+00 7.0941210903e-05 3.0971760666e+00 -5.3644663073e+00 3.0971760666e+00 5.3644663073e+00 
125200 6.5579984135e+00 7.0556885947e-05 3.0971749213e+00 -5.3644643237e+00 3.0971749213e+00 5.3644643237e+00 
125300 6.5579984136e+00 7.0899209331e-05 3.0971749213e+00 -5.3644643237e+00 3.0971749213e+00 5.3644643237e+00 
125400 6.5579984137e+00 7.0505147602e-05 3.0971737767e+00 -5.3644623412e+00 3.0971737767e+00 5.3644623412e+00 
125500 6.5579984138e+00 7.0837466588e-05 3.0971737767e+00 -5.3644623412e+00 3.0971737767e+00 5.3644623412e+00 
125600 6.5579984139e+00 7.0434207839e-05 3.0971726332e+00 -5.3644603604e+00 3.0971726332e+00 5.3644603604e+00 
125700 6.5579984141e+00 7.0756868981e-05 3.0971726332e+00 -5.3644603604e+00 3.0971726332e+00 5.3644603604e+00 
125800 6.5579984142e+00 7.0344962979e-05 3.0971714909e+00 -5.3644583820e+00 3.0971714909e+00 5.3644583820e+00 
125900 6.5579984143e+00 7.0658328705e-05 3.0971714909e+00 -5.3644583820e+00 3.0971714909e+00 5.3644583820e+00 
126000 6.5579984144e+00 7.0973309845e-05 3.0971714909e+00 -5.3644583820e+00 3.0971714909e+00 5.3644583820e+00 
126100 6.5579984145e+00 7.0551467743e-05 3.0971703451e+00 -5.3644563974e+00 3.0971703451e+00 5.3644563974e+00 
126200 6.5579984146e+00 7.0857147723e-05 3.0971703451e+00 -5.3644563974e+00 3.0971703451e+00 5.3644563974e+00 
126300 6.5579984147e+00 7.0427462940e-05 3.0971692012e+00 -5.3644544161e+00 3.0971692012e+00 5.3644544161e+00 
126400 6.5579984148e+00 7.0724352736e-05 3.0971692012e+00 -5.3644544161e+00 3.0971692012e+00 5.3644544161e+00 
126500 6.5579984149e+00 7.0287488191e-05 3.0971680594e+00 -5.3644524385e+00 3.0971680594e+00 5.3644524385e+00 
126600 6.5579984150e+00 7.0576061388e-05 3.0971680594e+00 -5.3644524385e+00 3.0971680594e+00 5.3644524385e+00 
126700 6.5579984151e+00 7.0866761812e-05 3.0971680594e+00 -5.3644524385e+00 3.0971680594e+00 5.3644524385e+00 
126800 6.5579984152e+00 7.0422268328e-05 3.0971669154e+00 -5.3644504570e+00 3.0971669154e+00 5.3644504570e+00 
126900 6.5579984153e+00 7.0704739423e-05 3.0971669154e+00 -5.3644504570e+00 3.0971669154e+00 5.3644504570e+00 
127000 6.5579984154e+00 7.0989430062e-05 3.0971669154e+00 -5.3644504570e+00 3.0971669154e+00 5.3644504570e+00 
127100 6.5579984154e+00 7.0537760364e-05 3.0971657693e+00 -5.3644484720e+00 3.0971657693e+00 5.3644484720e+00 
127200 6.5579984155e+00 7.0814434973e-05 3.0971657693e+00 -5.3644484720e+00 3.0971657693e+00 5.3644484720e+00 
127300 6.5579984156e+00 7.0356857013e-05 3.0971646261e+00 -5.3644464919e+00 3.0971646261e+00 5.3644464919e+00 
127400 6.5579984156e+00 7.0626099200e-05 3.0971646261e+00 -5.3644464919e+00 3.0971646261e+00 5.3644464919e+00 
127500 6.5579984157e+00 7.0897941326e-05 3.0971646261e+00 -5.3644464919e+00 3.0971646261e+00 5.3644464919e+00 
127600 6.5579984158e+00 7.0434744405e-05 3.0971634816e+00 -5.3644445094e+00 3.0971634816e+00 5.3644445094e+00 
127700 6.5579984159e+00 7.0699317573e-05 3.0971634816e+00 -5.3644445094e+00 3.0971634816e+00 5.3644445094e+00 
127800 6.5579984159e+00 7.0966595887e-05 3.0971634816e+00 -5.3644445094e+00 3.0971634816e+00 5.3644445094e+00 
127900 6.5579984160e+00 7.0498232729e-05 3.0971623359e+00 -5.3644425251e+00 3.0971623359e+00 5.3644425251e+00 
128000 6.5579984161e+00 7.0758459539e-05 3.0971623359e+00 -5.3644425251e+00 3.0971623359e+00 5.3644425251e+00 
128100 6.5579984161e+00 7.0285484573e-05 3.0971611936e+00 -5.3644405465e+00 3.0971611936e+00 5.3644405465e+00 
128200 6.5579984162e+00 7.0539219342e-05 3.0971611936e+00 -5.3644405465e+00 3.0971611936e+00 5.3644405465e+00 
128300 6.5579984162e+00 7.0796003578e-05 3.0971611936e+00 -5.3644405465e+00 3.0971611936e+00 5.3644405465e+00 
128400 6.5579984163e+00 7.0319244870e-05 3.0971600507e+00 -5.3644385669e+00 3.0971600507e+00 5.3644385669e+00 
128500 6.5579984163e+00 7.0569638722e-05 3.0971600507e+00 -5.3644385669e+00 3.0971600507e+00 5.3644385669e+00 
128600 6.5579984164e+00 7.0823146884e-05 3.0971600507e+00 -5.3644385669e+00 3.0971600507e+00 5.3644385669e+00 
128700 6.5579984164e+00 7.0342898523e-05 3.0971589073e+00 -5.3644365866e+00 3.0971589073e+00 5.3644365866e+00 
128800 6.5579984165e+00 7.0590152783e-05 3.0971589073e+00 -5.3644365866e+00 3.0971589073e+00 5.3644365866e+00 
128900 6.5579984165e+00 7.0840594857e-05 3.0971589073e+00 -5.3644365866e+00 3.0971589073e+00 5.3644365866e+00 
129000 6.5579984166e+00 7.0357172182e-05 3.0971577637e+00 -5.3644346057e+00 3.0971577637e+00 5.3644346057e+00 
129100 6.5579984166e+00 7.0601503940e-05 3.0971577637e+00 -5.3644346057e+00 3.0971577637e+00 5.3644346057e+00 
129200 6.5579984167e+00 7.0849094940e-05 3.0971577637e+00 -5.3644346057e+00 3.0971577637e+00 5.3644346057e+00 
129300 6.5579984167e+00 7.0362801476e-05 3.0971566199e+00 -5.3644326247e+00 3.0971566199e+00 5.3644326247e+00 
129400 6.5579984167e+00 7.0604416079e-05 3.0971566199e+00 -5.3644326247e+00 3.0971566199e+00 5.3644326247e+00 
129500 6.5579984168e+00 7.0849352954e-05 3.0971566199e+00 -5.3644326247e+00 3.0971566199e+00 5.3644326247e+00 
129600 6.5579984168e+00 7.0360461604e-05 3.0971554761e+00 -5.3644306436e+00 3.0971554761e+00 5.3644306436e+00 
129700 6.5579984168e+00 7.0599536747e-05 3.0971554761e+00 -5.3644306436e+00 3.0971554761e+00 5.3644306436e+00 
129800 6.5579984169e+00 7.0841985408e-05 3.0971554761e+00 -5.3644306436e+00 3.0971554761e+00 5.3644306436e+00 
129900 6.5579984169e+00 7.0350728981e-05 3.0971543325e+00 -5.3644286627e+00 3.0971543325e+00 5.3644286627e+00 
130000 6.5579984169e+00 7.0587406563e-05 3.0971543325e+00 -5.3644286627e+00 3.0971543325e+00 5.3644286627e+00 
130100 6.5579984170e+00 7.0827495669e-05 3.0971543325e+00 -5.3644286627e+00 3.0971543325e+00 5.3644286627e+00 
130200 6.5579984170e+00 7.0334063511e-05 3.0971531890e+00 -5.3644266822e+00 3.0971531890e+00 5.3644266822e+00 
130300 6.5579984170e+00 7.0568446572e-05 3.0971531890e+00 -5.3644266822e+00 3.0971531890e+00 5.3644266822e+00 
130400 6.5579984171e+00 7.0806265748e-05 3.0971531890e+00 -5.3644266822e+00 3.0971531890e+00 5.3644266822e+00 
130500 6.5579984171e+00 7.0310804332e-05 3.0971520459e+00 -5.3644247023e+00 3.0971520459e+00 5.3644247023e+00 
130600 6.5579984171e+00 7.0542957347e-05 3.0971520459e+00 -5.3644247023e+00 3.0971520459e+00 5.3644247023e+00 
130700 6.5579984171e+00 7.0778558278e-05 3.0971520459e+00 -5.3644247023e+00 3.0971520459e+00 5.3644247023e+00 
130800 6.5579984171e+00 7.0281174223e-05 3.0971509033e+00 -5.3644227232e+00 3.0971509033e+00 5.3644227232e+00 
130900 6.5579984172e+00 7.0511125481e-05 3.0971509033e+00 -5.3644227232e+00 3.0971509033e+00 5.3644227232e+00 
131000 6.5579984172e+00 7.0744524785e-05 3.0971509033e+00 -5.3644227232e+00 3.0971509033e+00 5.3644227232e+00 
131100 6.5579984172e+00 7.0245289300e-05 3.0971497612e+00 -5.3644207451e+00 3.0971497612e+00 5.3644207451e+00 
131200 6.5579984172e+00 7.0473034562e-05 3.0971497612e+00 -5.3644207451e+00 3.0971497612e+00 5.3644207451e+00 
131300 6.5579984172e+00 7.0704217730e-05 3.0971497612e+00 -5.3644207451e+00 3.0971497612e+00 5.3644207451e+00 
131400 6.5579984173e+00 7.0938639704e-05 3.0971497612e+00 -5.3644207451e+00 3.0971497612e+00 5.3644207451e+00 
131500 6.5579984173e+00 7.0438221311e-05 3.0971486160e+00 -5.3644187615e+00 3.0971486160e+00 5.3644187615e+00 
131600 6.5579984173e+00 7.0666603092e-05 3.0971486160e+00 -5.3644187615e+00 3.0971486160e+00 5.3644187615e+00 
131700 6.5579984173e+00 7.0898273257e-05 3.0971486160e+00 -5.3644187615e+00 3.0971486160e+00 5.3644187615e+00 
131800 6.5579984173e+00 7.0395559122e-05 3.0971474714e+00 -5.3644167790e+00 3.0971474714e+00 5.3644167790e+00 
131900 6.5579984173e+00 7.0621257839e-05 3.0971474714e+00 -5.3644167790e+00 3.0971474714e+00 5.3644167790e+00 
132000 6.5579984173e+00 7.0850259991e-05 3.0971474714e+00 -5.3644167790e+00 3.0971474714e+00 5.3644167790e+00 
132100 6.5579984173e+00 7.0345383167e-05 3.0971463276e+00 -5.3644147979e+00 3.0971463276e+00 5.3644147979e+00 
132200 6.5579984173e+00 7.0568427070e-05 3.0971463276e+00 -5.3644147979e+00 3.0971463276e+00 5.3644147979e+00 
132300 6.5579984174e+00 7.0794766165e-05 3.0971463276e+00 -5.3644147979e+00 3.0971463276e+00 5.3644147979e+00 
132400 6.5579984173e+00 7.0287789053e-05 3.0971451847e+00 -5.3644128183e+00 3.0971451847e+00 5.3644128183e+00 
132500 6.5579984173e+00 7.0508146253e-05 3.0971451847e+00 -5.3644128183e+00 3.0971451847e+00 5.3644128183e+00 
132600 6.5579984174e+00 7.0731774934e-05 3.0971451847e+00 -5.3644128183e+00 3.0971451847e+00 5.3644128183e+00 
132700 6.5579984173e+00 7.0222714786e-05 3.0971440428e+00 -5.3644108405e+00 3.0971440428e+00 5.3644108405e+00 
132800 6.5579984174e+00 7.0440314309e-05 3.0971440428e+00 -5.3644108405e+00 3.0971440428e+00 5.3644108405e+00 
132900 6.5579984174e+00 7.0661151703e-05 3.0971440428e+00 -5.3644108405e+00 3.0971440428e+00 5.3644108405e+00 
133000 6.5579984174e+00 7.0885020679e-05 3.0971440428e+00 -5.3644108405e+00 3.0971440428e+00 5.3644108405e+00 
133100 6.5579984174e+00 7.0374390902e-05 3.0971428985e+00 -5.3644088585e+00 3.0971428985e+00 5.3644088585e+00 
133200 6.5579984174e+00 7.0591794145e-05 3.0971428985e+00 -5.3644088585e+00 3.0971428985e+00 5.3644088585e+00 
133300 6.5579984174e+00 7.0812259218e-05 3.0971428985e+00 -5.3644088585e+00 3.0971428985e+00 5.3644088585e+00 
133400 6.5579984174e+00 7.0299000743e-05 3.0971417553e+00 -5.3644068784e+00 3.0971417553e+00 5.3644068784e+00 
133500 6.5579984174e+00 7.0513040277e-05 3.0971417553e+00 -5.3644068784e+00 3.0971417553e+00 5.3644068784e+00 
133600 6.5579984174e+00 7.0730141888e-05 3.0971417553e+00 -5.3644068784e+00 3.0971417553e+00 5.3644068784e+00 
133700 6.5579984173e+00 7.0214366898e-05 3.0971406134e+00 -5.3644049006e+00 3.0971406134e+00 5.3644049006e+00 
133800 6.5579984174e+00 7.0425037470e-05 3.0971406134e+00 -5.3644049006e+00 3.0971406134e+00 5.3644049006e+00 
133900 6.5579984174e+00 7.0638751982e-05 3.0971406134e+00 -5.3644049006e+00 3.0971406134e+00 5.3644049006e+00 
134000 6.5579984174e+00 7.0855308145e-05 3.0971406134e+00 -5.3644049006e+00 3.0971406134e+00 5.3644049006e+00 
134100 6.5579984173e+00 7.0337487069e-05 3.0971394695e+00 -5.3644029194e+00 3.0971394695e+00 5.3644029194e+00 
134200 6.5579984174e+00 7.0547213026e-05 3.0971394695e+00 -5.3644029194e+00 3.0971394695e+00 5.3644029194e+00 
134300 6.5579984174e+00 7.0759820659e-05 3.0971394695e+00 -5.3644029194e+00 3.0971394695e+00 5.3644029194e+00 
134400 6.5579984173e+00 7.0239071713e-05 3.0971383272e+00 -5.3644009408e+00 3.0971383272e+00 5.3644009408e+00 
134500 6.5579984173e+00 7.0444910825e-05 3.0971383272e+00 -5.3644009408e+00 3.0971383272e+00 5.3644009408e+00 
134600 6.5579984173e+00 7.0653639895e-05 3.0971383272e+00 -5.3644009408e+00 3.0971383272e+00 5.3644009408e+00 
134700 6.5579984173e+00 7.0865063335e-05 3.0971383272e+00 -5.3644009408e+00 3.0971383272e+00 5.3644009408e+00 
134800 6.5579984173e+00 7.0341865954e-05 3.0971371832e+00 -5.3643989592e+00 3.0971371832e+00 5.3643989592e+00 
134900 6.5579984173e+00 7.0546180056e-05 3.0971371832e+00 -5.3643989592e+00 3.0971371832e+00 5.3643989592e+00 
135000 6.5579984173e+00 7.0753244653e-05 3.0971371832e+00 -5.3643989592e+00 3.0971371832e+00 5.3643989592e+00 
135100 6.5579984173e+00 7.0226893391e-05 3.0971360409e+00 -5.3643969808e+00 3.0971360409e+00 5.3643969808e+00 
135200 6.5579984173e+00 7.0426940581e-05 3.0971360409e+00 -5.3643969808e+00 3.0971360409e+00 5.3643969808e+00 
135300 6.5579984173e+00 7.0629758290e-05 3.0971360409e+00 -5.3643969808e+00 3.0971360409e+00 5.3643969808e+00 
135400 6.5579984173e+00 7.0835154261e-05 3.0971360409e+00 -5.3643969808e+00 3.0971360409e+00 5.3643969808e+00 
135500 6.5579984172e+00 7.0306126706e-05 3.0971348974e+00 -5.3643950001e+00 3.0971348974e+00 5.3643950001e+00 
135600 6.5579984172e+00 7.0504195183e-05 3.0971348974e+00 -5.3643950001e+00 3.0971348974e+00 5.3643950001e+00 
135700 6.5579984173e+00 7.0704906628e-05 3.0971348974e+00 -5.3643950001e+00 3.0971348974e+00 5.3643950001e+00 
135800 6.5579984173e+00 7.0908079629e-05 3.0971348974e+00 -5.3643950001e+00 3.0971348974e+00 5.3643950001e+00 
135900 6.5579984172e+00 7.0375962926e-05 3.0971337526e+00 -5.3643930174e+00 3.0971337526e+00 5.3643930174e+00 
136000 6.5579984172e+00 7.0571589499e-05 3.0971337526e+00 -5.3643930174e+00 3.0971337526e+00 5.3643930174e+00 
136100 6.5579984172e+00 7.0769767412e-05 3.0971337526e+00 -5.3643930174e+00 3.0971337526e+00 5.3643930174e+00 
136200 6.5579984172e+00 7.0234166023e-05 3.0971326101e+00 -5.3643910385e+00 3.0971326101e+00 5.3643910385e+00 
136300 6.5579984172e+00 7.0424950425e-05 3.0971326101e+00 -5.3643910385e+00 3.0971326101e+00 5.3643910385e+00 
136400 6.5579984172e+00 7.0618329841e-05 3.0971326101e+00 -5.3643910385e+00 3.0971326101e+00 5.3643910385e+00 
136500 6.5579984172e+00 7.0814118356e-05 3.0971326101e+00 -5.3643910385e+00 3.0971326101e+00 5.3643910385e+00 
136600 6.5579984171e+00 7.0275537651e-05 3.0971314669e+00 -5.3643890584e+00 3.0971314669e+00 5.3643890584e+00 
136700 6.5579984171e+00 7.0463680638e-05 3.0971314669e+00 -5.3643890584e+00 3.0971314669e+00 5.3643890584e+00 
136800 6.5579984171e+00 7.0654313330e-05 3.0971314669e+00 -5.3643890584e+00 3.0971314669e+00 5.3643890584e+00 
136900 6.5579984171e+00 7.0847258924e-05 3.0971314669e+00 -5.3643890584e+00 3.0971314669e+00 5.3643890584e+00 
137000 6.5579984171e+00 7.0305401974e-05 3.0971303231e+00 -5.3643870773e+00 3.0971303231e+00 5.3643870773e+00 
137100 6.5579984171e+00 7.0490526692e-05 3.0971303231e+00 -5.3643870773e+00 3.0971303231e+00 5.3643870773e+00 
137200 6.5579984171e+00 7.0678065978e-05 3.0971303231e+00 -5.3643870773e+00 3.0971303231e+00 5.3643870773e+00 
137300 6.5579984171e+00 7.0867848225e-05 3.0971303231e+00 -5.3643870773e+00 3.0971303231e+00 5.3643870773e+00 
137400 6.5579984170e+00 7.0322548032e-05 3.0971291791e+00 -5.3643850957e+00 3.0971291791e+00 5.3643850957e+00 
137500 6.5579984170e+00 7.0504379015e-05 3.0971291791e+00 -5.3643850957e+00 3.0971291791e+00 5.3643850957e+00 
137600 6.5579984170e+00 7.0688566753e-05 3.0971291791e+00 -5.3643850957e+00 3.0971291791e+00 5.3643850957e+00 
137700 6.5579984170e+00 7.0874942667e-05 3.0971291791e+00 -5.3643850957e+00 3.0971291791e+00 5.3643850957e+00 
137800 6.5579984170e+00 7.0326109872e-05 3.0971280349e+00 -5.3643831139e+00 3.0971280349e+00 5.3643831139e+00 
137900 6.5579984170e+00 7.0504431348e-05 3.0971280349e+00 -5.3643831139e+00 3.0971280349e+00 5.3643831139e+00 
138000 6.5579984170e+00 7.0685061936e-05 3.0971280349e+00 -5.3643831139e+00 3.0971280349e+00 5.3643831139e+00 
138100 6.5579984170e+00 7.0867834897e-05 3.0971280349e+00 -5.3643831139e+00 3.0971280349e+00 5.3643831139e+00 
138200 6.5579984169e+00 7.0315428586e-05 3.0971268908e+00 -5.3643811323e+00 3.0971268908e+00 5.3643811323e+00 
138300 6.5579984169e+00 7.0490061425e-05 3.0971268908e+00 -5.3643811323e+00 3.0971268908e+00 5.3643811323e+00 
138400 6.5579984169e+00 7.0666962005e-05 3.0971268908e+00 -5.3643811323e+00 3.0971268908e+00 5.3643811323e+00 
138500 6.5579984169e+00 7.0845964821e-05 3.0971268908e+00 -5.3643811323e+00 3.0971268908e+00 5.3643811323e+00 
138600 6.5579984169e+00 7.0289976498e-05 3.0971257470e+00 -5.3643791513e+00 3.0971257470e+00 5.3643791513e+00 
138700 6.5579984168e+00 7.0460765885e-05 3.0971257470e+00 -5.3643791513e+00 3.0971257470e+00 5.3643791513e+00 
138800 6.5579984168e+00 7.0633785903e-05 3.0971257470e+00 -5.3643791513e+00 3.0971257470e+00 5.3643791513e+00 
138900 6.5579984168e+00 7.0808871993e-05 3.0971257470e+00 -5.3643791513e+00 3.0971257470e+00 5.3643791513e+00 
139000 6.5579984168e+00 7.0249317166e-05 3.0971246039e+00 -5.3643771713e+00 3.0971246039e+00 5.3643771713e+00 
139100 6.5579984168e+00 7.0416126401e-05 3.0971246039e+00 -5.3643771713e+00 3.0971246039e+00 5.3643771713e+00 
139200 6.5579984168e+00 7.0585132444e-05 3.0971246039e+00 -5.3643771713e+00 3.0971246039e+00 5.3643771713e+00 
139300 6.5579984168e+00 7.0756171587e-05 3.0971246039e+00 -5.3643771713e+00 3.0971246039e+00 5.3643771713e+00 
139400 6.5579984167e+00 7.0193085491e-05 3.0971234616e+00 -5.3643751928e+00 3.0971234616e+00 5.3643751928e+00 
139500 6.5579984167e+00 7.0355793161e-05 3.0971234616e+00 -5.3643751928e+00 3.0971234616e+00 5.3643751928e+00 
139600 6.5579984167e+00 7.0520666724e-05 3.0971234616e+00 -5.3643751928e+00 3.0971234616e+00 5.3643751928e+00 
139700 6.5579984167e+00 7.0687543308e-05 3.0971234616e+00 -5.3643751928e+00 3.0971234616e+00 5.3643751928e+00 
139800 6.5579984167e+00 7.0856281933e-05 3.0971234616e+00 -5.3643751928e+00 3.0971234616e+00 5.3643751928e+00 
139900 6.5579984167e+00 7.0289702267e-05 3.0971223177e+00 -5.3643732115e+00 3.0971223177e+00 5.3643732115e+00 
140000 6.5579984167e+00 7.0449806070e-05 3.0971223177e+00 -5.3643732115e+00 3.0971223177e+00 5.3643732115e+00 
140100 6.5579984167e+00 7.0611956075e-05 3.0971223177e+00 -5.3643732115e+00 3.0971223177e+00 5.3643732115e+00 
140200 6.5579984166e+00 7.0776001595e-05 3.0971223177e+00 -5.3643732115e+00 3.0971223177e+00 5.3643732115e+00 
140300 6.5579984166e+00 7.0205588671e-05 3.0971211751e+00 -5.3643712324e+00 3.0971211751e+00 5.3643712324e+00 
140400 6.5579984166e+00 7.0361056137e-05 3.0971211751e+00 -5.3643712324e+00 3.0971211751e+00 5.3643712324e+00 
140500 6.5579984166e+00 7.0518581255e-05 3.0971211751e+00 -5.3643712324e+00 3.0971211751e+00 5.3643712324e+00 
140600 6.5579984166e+00 7.0678008287e-05 3.0971211751e+00 -5.3643712324e+00 3.0971211751e+00 5.3643712324e+00 
140700 6.5579984166e+00 7.0839202387e-05 3.0971211751e+00 -5.3643712324e+00 3.0971211751e+00 5.3643712324e+00 
140800 6.5579984165e+00 7.0265165578e-05 3.0971200315e+00 -5.3643692516e+00 3.0971200315e+00 5.3643692516e+00 
140900 6.5579984165e+00 7.0417552784e-05 3.0971200315e+00 -5.3643692516e+00 3.0971200315e+00 5.3643692516e+00 
141000 6.5579984165e+00 7.0571904865e-05 3.0971200315e+00 -5.3643692516e+00 3.0971200315e+00 5.3643692516e+00 
141100 6.5579984165e+00 7.0728074535e-05 3.0971200315e+00 -5.3643692516e+00 3.0971200315e+00 5.3643692516e+00 
141200 6.5579984165e+00 7.0150208712e-05 3.0971188896e+00 -5.3643672739e+00 3.0971188896e+00 5.3643672739e+00 
141300 6.5579984164e+00 7.0297660944e-05 3.0971188896e+00 -5.3643672739e+00 3.0971188896e+00 5.3643672739e+00 
141400 6.5579984164e+00 7.0447100344e-05 3.0971188896e+00 -5.3643672739e+00 3.0971188896e+00 5.3643672739e+00 
141500 6.5579984164e+00 7.0598373207e-05 3.0971188896e+00 -5.3643672739e+00 3.0971188896e+00 5.3643672739e+00 
141600 6.5579984164e+00 7.0751346493e-05 3.0971188896e+00 -5.3643672739e+00 3.0971188896e+00 5.3643672739e+00 
141700 6.5579984164e+00 7.0169937082e-05 3.0971177474e+00 -5.3643652955e+00 3.0971177474e+00 5.3643652955e+00 
141800 6.5579984164e+00 7.0313989649e-05 3.0971177474e+00 -5.3643652955e+00 3.0971177474e+00 5.3643652955e+00 
141900 6.5579984164e+00 7.0372151899e-05 3.0971177474e+00 -5.3643652955e+00 3.0971177474e+00 5.3643652955e+00 
141900 6.5579984164e+00 7.0372151899e-05 3.0971177474e+00 -5.3643652955e+00 3.0971177474e+00 5.3643652955e+00 
