# step Hamiltonian StressXX CellTensor1 CellTensor2 CellTensor3 CellTensor4 
0 6.5705933712e+00 2.2963754814e-01 2.5594246509e+00 -4.4330535334e+00 2.5594246509e+00 4.4330535334e+00 
100 6.5850736024e+00 2.5162562309e-01 2.5594246509e+00 -4.4330535334e+00 2.5594246509e+00 4.4330535334e+00 
200 6.5987580900e+00 2.7159005861e-01 2.5545105597e+00 -4.4245420778e+00 2.5545105597e+00 4.4245420778e+00 
300 6.6123610290e+00 2.9015593586e-01 2.5491965150e+00 -4.4153378824e+00 2.5491965150e+00 4.4153378824e+00 
400 6.6257082408e+00 3.0723479489e-01 2.5435075120e+00 -4.4054842402e+00 2.5435075120e+00 4.4054842402e+00 
500 6.6385342115e+00 3.2258388593e-01 2.5374703189e+00 -4.3950275151e+00 2.5374703189e+00 4.3950275151e+00 
600 6.6504811468e+00 3.3578544852e-01 2.5311165724e+00 -4.3840225032e+00 2.5311165724e+00 4.3840225032e+00 
700 6.6611125588e+00 3.4626044387e-01 2.5244863285e+00 -4.3725385840e+00 2.5244863285e+00 4.3725385840e+00 
800 6.6699569898e+00 3.5335626527e-01 2.5176314045e+00 -4.3606655073e+00 2.5176314045e+00 4.3606655073e+00 
900 6.6765937638e+00 3.5653897737e-01 2.5106170407e+00 -4.3485162729e+00 2.5106170407e+00 4.3485162729e+00 
1000 6.6807698002e+00 3.5565798360e-01 2.5035197727e+00 -4.3362234441e+00 2.5035197727e+00 4.3362234441e+00 
1100 6.6824980130e+00 3.5114607809e-01 2.4964199822e+00 -4.3239262461e+00 2.4964199822e+00 4.3239262461e+00 
1200 6.6820704012e+00 3.4398149377e-01 2.4893903009e+00 -4.3117504810e+00 2.4893903009e+00 4.3117504810e+00 
1300 6.6799633915e+00 3.3538322856e-01 2.4824845550e+00 -4.2997893782e+00 2.4824845550e+00 4.2997893782e+00 
1400 6.6766910062e+00 3.2642870614e-01 2.4757326355e+00 -4.2880947107e+00 2.4757326355e+00 4.2880947107e+00 
1500 6.6726892907e+00 3.1782242956e-01 2.4691430014e+00 -4.2766811295e+00 2.4691430014e+00 4.2766811295e+00 
1600 6.6682711772e+00 3.0988097523e-01 2.4627099191e+00 -4.2655387042e+00 2.4627099191e+00 4.2655387042e+00 
1700 6.6636363079e+00 3.0264651606e-01 2.4564211416e+00 -4.2546462221e+00 2.4564211416e+00 4.2546462221e+00 
1800 6.6589025582e+00 2.9601930000e-01 2.4502634088e+00 -4.2439807160e+00 2.4502634088e+00 4.2439807160e+00 
1900 6.6541366595e+00 2.8985322949e-01 2.4442253361e+00 -4.2335224673e+00 2.4442253361e+00 4.2335224673e+00 
2000 6.6493760365e+00 2.8400745441e-01 2.4382983917e+00 -4.2232566985e+00 2.4382983917e+00 4.2232566985e+00 
2100 6.6446421253e+00 2.7836687378e-01 2.4324768293e+00 -4.2131734566e+00 2.4324768293e+00 4.2131734566e+00 
2200 6.6399477933e+00 2.7284579204e-01 2.4267571966e+00 -4.2032667621e+00 2.4267571966e+00 4.2032667621e+00 
2300 6.6353012633e+00 2.6738436104e-01 2.4211377591e+00 -4.1935336109e+00 2.4211377591e+00 4.1935336109e+00 
2400 6.6307081388e+00 2.6194295645e-01 2.4156179887e+00 -4.1839730881e+00 2.4156179887e+00 4.1839730881e+00 
2500 6.6261724450e+00 2.5649676659e-01 2.4101981593e+00 -4.1745856682e+00 2.4101981593e+00 4.1745856682e+00 
2600 6.6216971756e+00 2.5103136795e-01 2.4048790494e+00 -4.1653726996e+00 2.4048790494e+00 4.1653726996e+00 
2700 6.6172845916e+00 2.4553938612e-01 2.3996617315e+00 -4.1563360399e+00 2.3996617315e+00 4.1563360399e+00 
2800 6.6129363961e+00 2.4001809096e-01 2.3945474283e+00 -4.1474778070e+00 2.3945474283e+00 4.1474778070e+00 
2900 6.6086538440e+00 2.3446771658e-01 2.3895374171e+00 -4.1388002130e+00 2.3895374171e+00 4.1388002130e+00 
3000 6.6044378187e+00 2.2889031352e-01 2.3846329675e+00 -4.1303054571e+00 2.3846329675e+00 4.1303054571e+00 
3100 6.6002888877e+00 2.2328897891e-01 2.3798353029e+00 -4.1219956583e+00 2.3798353029e+00 4.1219956583e+00 
3200 6.5962073471e+00 2.1766734939e-01 2.3751455777e+00 -4.1138728159e+00 2.3751455777e+00 4.1138728159e+00 
3300 6.5921932575e+00 2.1202927400e-01 2.3705648642e+00 -4.1059387875e+00 2.3705648642e+00 4.1059387875e+00 
3400 6.5882464748e+00 2.0637860863e-01 2.3660941475e+00 -4.0981952789e+00 2.3660941475e+00 4.0981952789e+00 
3500 6.5843666750e+00 2.0071909201e-01 2.3617343232e+00 -4.0906438418e+00 2.3617343232e+00 4.0906438418e+00 
3600 6.5805533776e+00 1.9505427553e-01 2.3574861995e+00 -4.0832858757e+00 2.3574861995e+00 4.0832858757e+00 
3700 6.5768059638e+00 1.8938748819e-01 2.3533504992e+00 -4.0761226326e+00 2.3533504992e+00 4.0761226326e+00 
3800 6.5731236940e+00 1.8372182422e-01 2.3493278637e+00 -4.0691552235e+00 2.3493278637e+00 4.0691552235e+00 
3900 6.5695057220e+00 1.7806014475e-01 2.3454188568e+00 -4.0623846249e+00 2.3454188568e+00 4.0623846249e+00 
4000 6.5659511076e+00 1.7240508799e-01 2.3416239688e+00 -4.0558116861e+00 2.3416239688e+00 4.0558116861e+00 
4100 6.5624588279e+00 1.6675908431e-01 2.3379436203e+00 -4.0494371356e+00 2.3379436203e+00 4.0494371356e+00 
4200 6.5590277869e+00 1.6112437359e-01 2.3343781660e+00 -4.0432615876e+00 2.3343781660e+00 4.0432615876e+00 
4300 6.5556568237e+00 1.5550302361e-01 2.3309278978e+00 -4.0372855478e+00 2.3309278978e+00 4.0372855478e+00 
4400 6.5523447200e+00 1.4989694817e-01 2.3275930482e+00 -4.0315094188e+00 2.3275930482e+00 4.0315094188e+00 
4500 6.5490902064e+00 1.4430792461e-01 2.3243737926e+00 -4.0259335045e+00 2.3243737926e+00 4.0259335045e+00 
4600 6.5458919683e+00 1.3873761035e-01 2.3212702521e+00 -4.0205580148e+00 2.3212702521e+00 4.0205580148e+00 
4700 6.5427486505e+00 1.3318755816e-01 2.3182824957e+00 -4.0153830688e+00 2.3182824957e+00 4.0153830688e+00 
4800 6.5396588615e+00 1.2765923025e-01 2.3154105416e+00 -4.0104086984e+00 2.3154105416e+00 4.0104086984e+00 
4900 6.5366211781e+00 1.2215401111e-01 2.3126543593e+00 -4.0056348507e+00 2.3126543593e+00 4.0056348507e+00 
5000 6.5336341479e+00 1.1667321915e-01 2.3100138710e+00 -4.0010613908e+00 2.3100138710e+00 4.0010613908e+00 
5100 6.5306962931e+00 1.1121811726e-01 2.3074889525e+00 -3.9966881036e+00 2.3074889525e+00 3.9966881036e+00 
5200 6.5278061135e+00 1.0578992223e-01 2.3050794342e+00 -3.9925146955e+00 2.3050794342e+00 3.9925146955e+00 
5300 6.5249620888e+00 1.0038981332e-01 2.3027851021e+00 -3.9885407958e+00 2.3027851021e+00 3.9885407958e+00 
5400 6.5221626814e+00 9.5018939891e-02 2.3006056986e+00 -3.9847659581e+00 2.3006056986e+00 3.9847659581e+00 
5500 6.5194063389e+00 8.9678428189e-02 2.2985409225e+00 -3.9811896611e+00 2.2985409225e+00 3.9811896611e+00 
5600 6.5166914966e+00 8.4369387478e-02 2.2965904301e+00 -3.9778113091e+00 2.2965904301e+00 3.9778113091e+00 
5700 6.5140165797e+00 7.9092915447e-02 2.2947538351e+00 -3.9746302332e+00 2.2947538351e+00 3.9746302332e+00 
5800 6.5113800060e+00 7.3850103020e-02 2.2930307089e+00 -3.9716456911e+00 2.2930307089e+00 3.9716456911e+00 
5900 6.5087801881e+00 6.8642038612e-02 2.2914205810e+00 -3.9688568678e+00 2.2914205810e+00 3.9688568678e+00 
6000 6.5062155359e+00 6.3469811865e-02 2.2899229390e+00 -3.9662628757e+00 2.2899229390e+00 3.9662628757e+00 
6100 6.5036844593e+00 5.8334516920e-02 2.2885372285e+00 -3.9638627547e+00 2.2885372285e+00 3.9638627547e+00 
6200 6.5011853706e+00 5.3237255240e-02 2.2872628533e+00 -3.9616554722e+00 2.2872628533e+00 3.9616554722e+00 
6300 6.4987166874e+00 4.8179138038e-02 2.2860991755e+00 -3.9596399232e+00 2.2860991755e+00 3.9596399232e+00 
6400 6.4962768354e+00 4.3161288315e-02 2.2850455153e+00 -3.9578149302e+00 2.2850455153e+00 3.9578149302e+00 
6500 6.4938642510e+00 3.8184842538e-02 2.2841011509e+00 -3.9561792430e+00 2.2841011509e+00 3.9561792430e+00 
6600 6.4914773845e+00 3.3250951982e-02 2.2832653186e+00 -3.9547315389e+00 2.2832653186e+00 3.9547315389e+00 
6700 6.4891147028e+00 2.8360783739e-02 2.2825372125e+00 -3.9534704223e+00 2.2825372125e+00 3.9534704223e+00 
6800 6.4867746931e+00 2.3515521412e-02 2.2819159851e+00 -3.9523944247e+00 2.2819159851e+00 3.9523944247e+00 
6900 6.4844558651e+00 1.8716365515e-02 2.2814007462e+00 -3.9515020048e+00 2.2814007462e+00 3.9515020048e+00 
7000 6.4821567551e+00 1.3964533568e-02 2.2809905639e+00 -3.9507915482e+00 2.2809905639e+00 3.9507915482e+00 
7100 6.4798759287e+00 9.2612599107e-03 2.2806844639e+00 -3.9502613676e+00 2.2806844639e+00 3.9502613676e+00 
7200 6.4776119840e+00 4.6077952387e-03 2.2804814301e+00 -3.9499097027e+00 2.2804814301e+00 3.9499097027e+00 
7300 6.4753635551e+00 5.4058600933e-06 2.2803804040e+00 -3.9497347204e+00 2.2803804040e+00 3.9497347204e+00 
7400 6.4731293142e+00 -4.5445795726e-03 2.2803804040e+00 -3.9497347204e+00 2.2803804040e+00 3.9497347204e+00 
7500 6.4709079776e+00 -9.0409574630e-03 2.2804800500e+00 -3.9499073122e+00 2.2804800500e+00 3.9499073122e+00 
7600 6.4686983060e+00 -1.3482380752e-02 2.2806782777e+00 -3.9502506527e+00 2.2806782777e+00 3.9502506527e+00 
7700 6.4664991086e+00 -1.7867532708e-02 2.2809738624e+00 -3.9507626204e+00 2.2809738624e+00 3.9507626204e+00 
7800 6.4643092459e+00 -2.2195088751e-02 2.2813655382e+00 -3.9514410228e+00 2.2813655382e+00 3.9514410228e+00 
7900 6.4621276323e+00 -2.6463718635e-02 2.2818519985e+00 -3.9522835968e+00 2.2818519985e+00 3.9522835968e+00 
8000 6.4599532394e+00 -3.0672088869e-02 2.2824318968e+00 -3.9532880100e+00 2.2824318968e+00 3.9532880100e+00 
8100 6.4577850981e+00 -3.4818865360e-02 2.2831038466e+00 -3.9544518612e+00 2.2831038466e+00 3.9544518612e+00 
8200 6.4556223008e+00 -3.8902716266e-02 2.2838664226e+00 -3.9557726816e+00 2.2838664226e+00 3.9557726816e+00 
8300 6.4534640041e+00 -4.2922315040e-02 2.2847181609e+00 -3.9572479357e+00 2.2847181609e+00 3.9572479357e+00 
8400 6.4513094302e+00 -4.6876343639e-02 2.2856575603e+00 -3.9588750231e+00 2.2856575603e+00 3.9588750231e+00 
8500 6.4491578690e+00 -5.0763495905e-02 2.2866830824e+00 -3.9606512795e+00 2.2866830824e+00 3.9606512795e+00 
8600 6.4470086793e+00 -5.4582481068e-02 2.2877931531e+00 -3.9625739785e+00 2.2877931531e+00 3.9625739785e+00 
8700 6.4448612903e+00 -5.8332027377e-02 2.2889861636e+00 -3.9646403331e+00 2.2889861636e+00 3.9646403331e+00 
8800 6.4427152022e+00 -6.2010885826e-02 2.2902604709e+00 -3.9668474982e+00 2.2902604709e+00 3.9668474982e+00 
8900 6.4405699869e+00 -6.5617833953e-02 2.2916143997e+00 -3.9691925716e+00 2.2916143997e+00 3.9691925716e+00 
9000 6.4384252887e+00 -6.9151679696e-02 2.2930462431e+00 -3.9716725972e+00 2.2930462431e+00 3.9716725972e+00 
9100 6.4362808239e+00 -7.2611265277e-02 2.2945542645e+00 -3.9742845668e+00 2.2945542645e+00 3.9742845668e+00 
9200 6.4341363809e+00 -7.5995471092e-02 2.2961366983e+00 -3.9770254226e+00 2.2961366983e+00 3.9770254226e+00 
9300 6.4319918192e+00 -7.9303219582e-02 2.2977917520e+00 -3.9798920597e+00 2.2977917520e+00 3.9798920597e+00 
9400 6.4298470691e+00 -8.2533479066e-02 2.2995176077e+00 -3.9828813294e+00 2.2995176077e+00 3.9828813294e+00 
9500 6.4277021300e+00 -8.5685267496e-02 2.3013124234e+00 -3.9859900414e+00 2.3013124234e+00 3.9859900414e+00 
9600 6.4255570693e+00 -8.8757656131e-02 2.3031743351e+00 -3.9892149671e+00 2.3031743351e+00 3.9892149671e+00 
9700 6.4234120201e+00 -9.1749773085e-02 2.3051014585e+00 -3.9925528427e+00 2.3051014585e+00 3.9925528427e+00 
9800 6.4212671797e+00 -9.4660806740e-02 2.3070918907e+00 -3.9960003724e+00 2.3070918907e+00 3.9960003724e+00 
9900 6.4191228069e+00 -9.7490008993e-02 2.3091437124e+00 -3.9995542318e+00 2.3091437124e+00 3.9995542318e+00 
10000 6.4169792193e+00 -1.0023669832e-01 2.3112549896e+00 -4.0032110712e+00 2.3112549896e+00 4.0032110712e+00 
10100 6.4148367909e+00 -1.0290026264e-01 2.3134237757e+00 -4.0069675190e+00 2.3134237757e+00 4.0069675190e+00 
10200 6.4126959482e+00 -1.0548016194e-01 2.3156481139e+00 -4.0108201857e+00 2.3156481139e+00 4.0108201857e+00 
10300 6.4105571676e+00 -1.0797593065e-01 2.3179260385e+00 -4.0147656668e+00 2.3179260385e+00 4.0147656668e+00 
10400 6.4084209715e+00 -1.1038717981e-01 2.3202555777e+00 -4.0188005472e+00 2.3202555777e+00 4.0188005472e+00 
10500 6.4062879246e+00 -1.1271359892e-01 2.3226347558e+00 -4.0229214044e+00 2.3226347558e+00 4.0229214044e+00 
10600 6.4041586301e+00 -1.1495495751e-01 2.3250615946e+00 -4.0271248126e+00 2.3250615946e+00 4.0271248126e+00 
10700 6.4020337258e+00 -1.1711110641e-01 2.3275341163e+00 -4.0314073458e+00 2.3275341163e+00 4.0314073458e+00 
10800 6.3999138798e+00 -1.1918197877e-01 2.3300503454e+00 -4.0357655825e+00 2.3300503454e+00 4.0357655825e+00 
10900 6.3977997866e+00 -1.2116759071e-01 2.3326083107e+00 -4.0401961083e+00 2.3326083107e+00 4.0401961083e+00 
11000 6.3956921626e+00 -1.2306804174e-01 2.3352060475e+00 -4.0446955205e+00 2.3352060475e+00 4.0446955205e+00 
11100 6.3935917422e+00 -1.2488351474e-01 2.3378416000e+00 -4.0492604313e+00 2.3378416000e+00 4.0492604313e+00 
11200 6.3914992729e+00 -1.2661427581e-01 2.3405130228e+00 -4.0538874713e+00 2.3405130228e+00 4.0538874713e+00 
11300 6.3894155121e+00 -1.2826067367e-01 2.3432183834e+00 -4.0585732933e+00 2.3432183834e+00 4.0585732933e+00 
11400 6.3873412218e+00 -1.2982313884e-01 2.3459557640e+00 -4.0633145756e+00 2.3459557640e+00 4.0633145756e+00 
11500 6.3852771653e+00 -1.3130218251e-01 2.3487232636e+00 -4.0681080254e+00 2.3487232636e+00 4.0681080254e+00 
11600 6.3832241029e+00 -1.3269839515e-01 2.3515189994e+00 -4.0729503819e+00 2.3515189994e+00 4.0729503819e+00 
11700 6.3811827881e+00 -1.3401244482e-01 2.3543411093e+00 -4.0778384196e+00 2.3543411093e+00 4.0778384196e+00 
11800 6.3791539635e+00 -1.3524507527e-01 2.3571877531e+00 -4.0827689514e+00 2.3571877531e+00 4.0827689514e+00 
11900 6.3771383578e+00 -1.3639710378e-01 2.3600571146e+00 -4.0877388312e+00 2.3600571146e+00 4.0877388312e+00 
12000 6.3751366819e+00 -1.3746941880e-01 2.3629474028e+00 -4.0927449572e+00 2.3629474028e+00 4.0927449572e+00 
12100 6.3731496259e+00 -1.3846297735e-01 2.3658568537e+00 -4.0977842740e+00 2.3658568537e+00 4.0977842740e+00 
12200 6.3711778558e+00 -1.3937880225e-01 2.3687837316e+00 -4.1028537754e+00 2.3687837316e+00 4.1028537754e+00 
12300 6.3692220111e+00 -1.4021797925e-01 2.3717263307e+00 -4.1079505065e+00 2.3717263307e+00 4.1079505065e+00 
12400 6.3672827020e+00 -1.4098165390e-01 2.3746829760e+00 -4.1130715664e+00 2.3746829760e+00 4.1130715664e+00 
12500 6.3653605068e+00 -1.4167102838e-01 2.3776520248e+00 -4.1182141096e+00 2.3776520248e+00 4.1182141096e+00 
12600 6.3634559703e+00 -1.4228735818e-01 2.3806318674e+00 -4.1233753485e+00 2.3806318674e+00 4.1233753485e+00 
12700 6.3615696015e+00 -1.4283194872e-01 2.3836209287e+00 -4.1285525544e+00 2.3836209287e+00 4.1285525544e+00 
12800 6.3597018720e+00 -1.4330615188e-01 2.3866176685e+00 -4.1337430600e+00 2.3866176685e+00 4.1337430600e+00 
12900 6.3578532150e+00 -1.4371136249e-01 2.3896205826e+00 -4.1389442599e+00 2.3896205826e+00 4.1389442599e+00 
13000 6.3560240238e+00 -1.4404901481e-01 2.3926282037e+00 -4.1441536124e+00 2.3926282037e+00 4.1441536124e+00 
13100 6.3542146511e+00 -1.4432057891e-01 2.3956391015e+00 -4.1493686405e+00 2.3956391015e+00 4.1493686405e+00 
13200 6.3524254081e+00 -1.4452755721e-01 2.3986518839e+00 -4.1545869326e+00 2.3986518839e+00 4.1545869326e+00 
13300 6.3506565644e+00 -1.4467148087e-01 2.4016651968e+00 -4.1598061436e+00 2.4016651968e+00 4.1598061436e+00 
13400 6.3489083478e+00 -1.4475390631e-01 2.4046777250e+00 -4.1650239955e+00 2.4046777250e+00 4.1650239955e+00 
13500 6.3471809441e+00 -1.4477641179e-01 2.4076881921e+00 -4.1702382775e+00 2.4076881921e+00 4.1702382775e+00 
13600 6.3454744974e+00 -1.4474059396e-01 2.4106953611e+00 -4.1754468470e+00 2.4106953611e+00 4.1754468470e+00 
13700 6.3437891108e+00 -1.4464806457e-01 2.4136980341e+00 -4.1806476292e+00 2.4136980341e+00 4.1806476292e+00 
13800 6.3421248467e+00 -1.4450044725e-01 2.4166950527e+00 -4.1858386176e+00 2.4166950527e+00 4.1858386176e+00 
13900 6.3404817279e+00 -1.4429937431e-01 2.4196852976e+00 -4.1910178738e+00 2.4196852976e+00 4.1910178738e+00 
14000 6.3388597384e+00 -1.4404648372e-01 2.4226676891e+00 -4.1961835273e+00 2.4226676891e+00 4.1961835273e+00 
14100 6.3372588245e+00 -1.4374341619e-01 2.4256411862e+00 -4.2013337754e+00 2.4256411862e+00 4.2013337754e+00 
14200 6.3356788964e+00 -1.4339181228e-01 2.4286047870e+00 -4.2064668826e+00 2.4286047870e+00 4.2064668826e+00 
14300 6.3341198291e+00 -1.4299330972e-01 2.4315575282e+00 -4.2115811804e+00 2.4315575282e+00 4.2115811804e+00 
14400 6.3325814642e+00 -1.4254954084e-01 2.4344984846e+00 -4.2166750663e+00 2.4344984846e+00 4.2166750663e+00 
14500 6.3310636117e+00 -1.4206213004e-01 2.4374267690e+00 -4.2217470036e+00 2.4374267690e+00 4.2217470036e+00 
14600 6.3295660512e+00 -1.4153269151e-01 2.4403415315e+00 -4.2267955204e+00 2.4403415315e+00 4.2267955204e+00 
14700 6.3280885342e+00 -1.4096282696e-01 2.4432419593e+00 -4.2318192087e+00 2.4432419593e+00 4.2318192087e+00 
14800 6.3266307854e+00 -1.4035412358e-01 2.4461272760e+00 -4.2368167238e+00 2.4461272760e+00 4.2368167238e+00 
14900 6.3251925051e+00 -1.3970815203e-01 2.4489967409e+00 -4.2417867827e+00 2.4489967409e+00 4.2417867827e+00 
15000 6.3237733708e+00 -1.3902646466e-01 2.4518496487e+00 -4.2467281641e+00 2.4518496487e+00 4.2467281641e+00 
15100 6.3223730392e+00 -1.3831059375e-01 2.4546853288e+00 -4.2516397061e+00 2.4546853288e+00 4.2516397061e+00 
15200 6.3209911483e+00 -1.3756204995e-01 2.4575031446e+00 -4.2565203062e+00 2.4575031446e+00 4.2565203062e+00 
15300 6.3196273189e+00 -1.3678232083e-01 2.4603024926e+00 -4.2613689192e+00 2.4603024926e+00 4.2613689192e+00 
15400 6.3182811572e+00 -1.3597286949e-01 2.4630828022e+00 -4.2661845566e+00 2.4630828022e+00 4.2661845566e+00 
15500 6.3169522562e+00 -1.3513513338e-01 2.4658435343e+00 -4.2709662849e+00 2.4658435343e+00 4.2709662849e+00 
15600 6.3156401980e+00 -1.3427052315e-01 2.4685841813e+00 -4.2757132248e+00 2.4685841813e+00 4.2757132248e+00 
15700 6.3143445552e+00 -1.3338042164e-01 2.4713042658e+00 -4.2804245493e+00 2.4713042658e+00 4.2804245493e+00 
15800 6.3130648932e+00 -1.3246618296e-01 2.4740033399e+00 -4.2850994828e+00 2.4740033399e+00 4.2850994828e+00 
15900 6.3118007717e+00 -1.3152913174e-01 2.4766809848e+00 -4.2897372998e+00 2.4766809848e+00 4.2897372998e+00 
16000 6.3105517465e+00 -1.3057056236e-01 2.4793368095e+00 -4.2943373231e+00 2.4793368095e+00 4.2943373231e+00 
16100 6.3093173710e+00 -1.2959173834e-01 2.4819704502e+00 -4.2988989227e+00 2.4819704502e+00 4.2988989227e+00 
16200 6.3080971982e+00 -1.2859389184e-01 2.4845815698e+00 -4.3034215145e+00 2.4845815698e+00 4.3034215145e+00 
16300 6.3068907816e+00 -1.2757822320e-01 2.4871698566e+00 -4.3079045587e+00 2.4871698566e+00 4.3079045587e+00 
16400 6.3056976772e+00 -1.2654590057e-01 2.4897350237e+00 -4.3123475584e+00 2.4897350237e+00 4.3123475584e+00 
16500 6.3045174447e+00 -1.2549805961e-01 2.4922768084e+00 -4.3167500587e+00 2.4922768084e+00 4.3167500587e+00 
16600 6.3033496485e+00 -1.2443580331e-01 2.4947949711e+00 -4.3211116443e+00 2.4947949711e+00 4.3211116443e+00 
16700 6.3021938594e+00 -1.2336020180e-01 2.4972892946e+00 -4.3254319394e+00 2.4972892946e+00 4.3254319394e+00 
16800 6.3010496553e+00 -1.2227229227e-01 2.4997595834e+00 -4.3297106051e+00 2.4997595834e+00 4.3297106051e+00 
16900 6.2999166224e+00 -1.2117307898e-01 2.5022056628e+00 -4.3339473390e+00 2.5022056628e+00 4.3339473390e+00 
17000 6.2987943561e+00 -1.2006353326e-01 2.5046273783e+00 -4.3381418732e+00 2.5046273783e+00 4.3381418732e+00 
17100 6.2976824619e+00 -1.1894459359e-01 2.5070245944e+00 -4.3422939734e+00 2.5070245944e+00 4.3422939734e+00 
17200 6.2965805562e+00 -1.1781716578e-01 2.5093971945e+00 -4.3464034372e+00 2.5093971945e+00 4.3464034372e+00 
17300 6.2954882670e+00 -1.1668212308e-01 2.5117450794e+00 -4.3504700933e+00 2.5117450794e+00 4.3504700933e+00 
17400 6.2944052341e+00 -1.1554030649e-01 2.5140681673e+00 -4.3544937995e+00 2.5140681673e+00 4.3544937995e+00 
17500 6.2933311105e+00 -1.1439252497e-01 2.5163663924e+00 -4.3584744421e+00 2.5163663924e+00 4.3584744421e+00 
17600 6.2922655618e+00 -1.1323955577e-01 2.5186397046e+00 -4.3624119344e+00 2.5186397046e+00 4.3624119344e+00 
17700 6.2912082674e+00 -1.1208214475e-01 2.5208880688e+00 -4.3663062154e+00 2.5208880688e+00 4.3663062154e+00 
17800 6.2901589203e+00 -1.1092100677e-01 2.5231114639e+00 -4.3701572487e+00 2.5231114639e+00 4.3701572487e+00 
17900 6.2891172274e+00 -1.0975682612e-01 2.5253098824e+00 -4.3739650212e+00 2.5253098824e+00 4.3739650212e+00 
18000 6.2880829099e+00 -1.0859025688e-01 2.5274833296e+00 -4.3777295422e+00 2.5274833296e+00 4.3777295422e+00 
18100 6.2870557030e+00 -1.0742192346e-01 2.5296318231e+00 -4.3814508420e+00 2.5296318231e+00 4.3814508420e+00 
18200 6.2860353561e+00 -1.0625242102e-01 2.5317553917e+00 -4.3851289708e+00 2.5317553917e+00 4.3851289708e+00 
18300 6.2850216327e+00 -1.0508231601e-01 2.5338540757e+00 -4.3887639980e+00 2.5338540757e+00 4.3887639980e+00 
18400 6.2840143103e+00 -1.0391214668e-01 2.5359279251e+00 -4.3923560106e+00 2.5359279251e+00 4.3923560106e+00 
18500 6.2830131804e+00 -1.0274242360e-01 2.5379770000e+00 -4.3959051125e+00 2.5379770000e+00 4.3959051125e+00 
18600 6.2820180478e+00 -1.0157363027e-01 2.5400013696e+00 -4.3994114235e+00 2.5400013696e+00 4.3994114235e+00 
18700 6.2810287308e+00 -1.0040622365e-01 2.5420011116e+00 -4.4028750782e+00 2.5420011116e+00 4.4028750782e+00 
18800 6.2800450607e+00 -9.9240634739e-02 2.5439763116e+00 -4.4062962250e+00 2.5439763116e+00 4.4062962250e+00 
18900 6.2790668815e+00 -9.8077269210e-02 2.5459270630e+00 -4.4096750255e+00 2.5459270630e+00 4.4096750255e+00 
19000 6.2780940494e+00 -9.6916507990e-02 2.5478534660e+00 -4.4130116533e+00 2.5478534660e+00 4.4130116533e+00 
19100 6.2771264323e+00 -9.5758707882e-02 2.5497556271e+00 -4.4163062930e+00 2.5497556271e+00 4.4163062930e+00 
19200 6.2761639096e+00 -9.4604202192e-02 2.5516336591e+00 -4.4195591398e+00 2.5516336591e+00 4.4195591398e+00 
19300 6.2752063717e+00 -9.3453301359e-02 2.5534876801e+00 -4.4227703985e+00 2.5534876801e+00 4.4227703985e+00 
19400 6.2742537189e+00 -9.2306293590e-02 2.5553178134e+00 -4.4259402823e+00 2.5553178134e+00 4.4259402823e+00 
19500 6.2733058619e+00 -9.1163445504e-02 2.5571241867e+00 -4.4290690127e+00 2.5571241867e+00 4.4290690127e+00 
19600 6.2723627202e+00 -9.0025002774e-02 2.5589069322e+00 -4.4321568184e+00 2.5589069322e+00 4.4321568184e+00 
19700 6.2714242222e+00 -8.8891190777e-02 2.5606661855e+00 -4.4352039345e+00 2.5606661855e+00 4.4352039345e+00 
19800 6.2704903043e+00 -8.7762215240e-02 2.5624020858e+00 -4.4382106021e+00 2.5624020858e+00 4.4382106021e+00 
19900 6.2695609106e+00 -8.6638262893e-02 2.5641147754e+00 -4.4411770674e+00 2.5641147754e+00 4.4411770674e+00 
20000 6.2686359918e+00 -8.5519502118e-02 2.5658043988e+00 -4.4441035811e+00 2.5658043988e+00 4.4441035811e+00 
20100 6.2677155053e+00 -8.4406083596e-02 2.5674711033e+00 -4.4469903979e+00 2.5674711033e+00 4.4469903979e+00 
20200 6.2667994138e+00 -8.3298140958e-02 2.5691150378e+00 -4.4498377759e+00 2.5691150378e+00 4.4498377759e+00 
20300 6.2658876855e+00 -8.2195791430e-02 2.5707363528e+00 -4.4526459759e+00 2.5707363528e+00 4.4526459759e+00 
20400 6.2649802928e+00 -8.1099136476e-02 2.5723352002e+00 -4.4554152609e+00 2.5723352002e+00 4.4554152609e+00 
20500 6.2640772121e+00 -8.0008262437e-02 2.5739117330e+00 -4.4581458958e+00 2.5739117330e+00 4.4581458958e+00 
20600 6.2631784232e+00 -7.8923241169e-02 2.5754661047e+00 -4.4608381465e+00 2.5754661047e+00 4.4608381465e+00 
20700 6.2622839086e+00 -7.7844130673e-02 2.5769984693e+00 -4.4634922798e+00 2.5769984693e+00 4.4634922798e+00 
20800 6.2613936529e+00 -7.6770975721e-02 2.5785089811e+00 -4.4661085630e+00 2.5785089811e+00 4.4661085630e+00 
20900 6.2605076425e+00 -7.5703808480e-02 2.5799977941e+00 -4.4686872629e+00 2.5799977941e+00 4.4686872629e+00 
21000 6.2596258646e+00 -7.4642649124e-02 2.5814650624e+00 -4.4712286461e+00 2.5814650624e+00 4.4712286461e+00 
21100 6.2587483072e+00 -7.3587506446e-02 2.5829109393e+00 -4.4737329783e+00 2.5829109393e+00 4.4737329783e+00 
21200 6.2578749583e+00 -7.2538378456e-02 2.5843355774e+00 -4.4762005239e+00 2.5843355774e+00 4.4762005239e+00 
21300 6.2570058053e+00 -7.1495252984e-02 2.5857391285e+00 -4.4786315457e+00 2.5857391285e+00 4.4786315457e+00 
21400 6.2561408350e+00 -7.0458108260e-02 2.5871217432e+00 -4.4810263047e+00 2.5871217432e+00 4.4810263047e+00 
21500 6.2552800324e+00 -6.9426913497e-02 2.5884835710e+00 -4.4833850596e+00 2.5884835710e+00 4.4833850596e+00 
21600 6.2544233809e+00 -6.8401629465e-02 2.5898247599e+00 -4.4857080668e+00 2.5898247599e+00 4.4857080668e+00 
21700 6.2535708619e+00 -6.7382209054e-02 2.5911454562e+00 -4.4879955799e+00 2.5911454562e+00 4.4879955799e+00 
21800 6.2527224537e+00 -6.6368597829e-02 2.5924458047e+00 -4.4902478495e+00 2.5924458047e+00 4.4902478495e+00 
21900 6.2518781321e+00 -6.5360734575e-02 2.5937259482e+00 -4.4924651233e+00 2.5937259482e+00 4.4924651233e+00 
22000 6.2510378693e+00 -6.4358551839e-02 2.5949860278e+00 -4.4946476452e+00 2.5949860278e+00 4.4946476452e+00 
22100 6.2502016338e+00 -6.3361976453e-02 2.5962261824e+00 -4.4967956559e+00 2.5962261824e+00 4.4967956559e+00 
22200 6.2493693904e+00 -6.2370930059e-02 2.5974465487e+00 -4.4989093923e+00 2.5974465487e+00 4.4989093923e+00 
22300 6.2485410994e+00 -6.1385329615e-02 2.5986472612e+00 -4.5009890874e+00 2.5986472612e+00 4.5009890874e+00 
22400 6.2477167167e+00 -6.0405087896e-02 2.5998284523e+00 -4.5030349703e+00 2.5998284523e+00 4.5030349703e+00 
22500 6.2468961935e+00 -5.9430113986e-02 2.6009902517e+00 -4.5050472659e+00 2.6009902517e+00 4.5050472659e+00 
22600 6.2460794760e+00 -5.8460313756e-02 2.6021327870e+00 -4.5070261951e+00 2.6021327870e+00 4.5070261951e+00 
22700 6.2452665053e+00 -5.7495590337e-02 2.6032561831e+00 -4.5089719743e+00 2.6032561831e+00 4.5089719743e+00 
22800 6.2444572173e+00 -5.6535844581e-02 2.6043605626e+00 -4.5108848156e+00 2.6043605626e+00 4.5108848156e+00 
22900 6.2436515423e+00 -5.5580975510e-02 2.6054460453e+00 -4.5127649269e+00 2.6054460453e+00 4.5127649269e+00 
23000 6.2428494051e+00 -5.4630880759e-02 2.6065127488e+00 -4.5146125115e+00 2.6065127488e+00 4.5146125115e+00 
23100 6.2420507247e+00 -5.3685457003e-02 2.6075607878e+00 -4.5164277683e+00 2.6075607878e+00 4.5164277683e+00 
23200 6.2412554146e+00 -5.2744600383e-02 2.6085902746e+00 -4.5182108917e+00 2.6085902746e+00 4.5182108917e+00 
23300 6.2404633824e+00 -5.1808206913e-02 2.6096013189e+00 -4.5199620718e+00 2.6096013189e+00 4.5199620718e+00 
23400 6.2396745296e+00 -5.0876172880e-02 2.6105940278e+00 -4.5216814941e+00 2.6105940278e+00 4.5216814941e+00 
23500 6.2388887522e+00 -4.9948395235e-02 2.6115685060e+00 -4.5233693398e+00 2.6115685060e+00 4.5233693398e+00 
23600 6.2381059400e+00 -4.9024771976e-02 2.6125248554e+00 -4.5250257856e+00 2.6125248554e+00 4.5250257856e+00 
23700 6.2373259771e+00 -4.8105202512e-02 2.6134631758e+00 -4.5266510042e+00 2.6134631758e+00 4.5266510042e+00 
23800 6.2365487416e+00 -4.7189588028e-02 2.6143835642e+00 -4.5282451637e+00 2.6143835642e+00 4.5282451637e+00 
23900 6.2357741062e+00 -4.6277831833e-02 2.6152861154e+00 -4.5298084283e+00 2.6152861154e+00 4.5298084283e+00 
24000 6.2350019373e+00 -4.5369839701e-02 2.6161709219e+00 -4.5313409580e+00 2.6161709219e+00 4.5313409580e+00 
24100 6.2342320961e+00 -4.4465520198e-02 2.6170380737e+00 -4.5328429089e+00 2.6170380737e+00 4.5328429089e+00 
24200 6.2334644381e+00 -4.3564785005e-02 2.6178876586e+00 -4.5343144333e+00 2.6178876586e+00 4.5343144333e+00 
24300 6.2326988134e+00 -4.2667549226e-02 2.6187197626e+00 -4.5357556795e+00 2.6187197626e+00 4.5357556795e+00 
24400 6.2319350667e+00 -4.1773731690e-02 2.6195344691e+00 -4.5371667926e+00 2.6195344691e+00 4.5371667926e+00 
24500 6.2311730376e+00 -4.0883255240e-02 2.6203318598e+00 -4.5385479139e+00 2.6203318598e+00 4.5385479139e+00 
24600 6.2304125607e+00 -3.9996047011e-02 2.6211120145e+00 -4.5398991814e+00 2.6211120145e+00 4.5398991814e+00 
24700 6.2296534658e+00 -3.9112038704e-02 2.6218750110e+00 -4.5412207302e+00 2.6218750110e+00 4.5412207302e+00 
24800 6.2288955777e+00 -3.8231166846e-02 2.6226209255e+00 -4.5425126920e+00 2.6226209255e+00 4.5425126920e+00 
24900 6.2281387173e+00 -3.7353373038e-02 2.6233498326e+00 -4.5437751960e+00 2.6233498326e+00 4.5437751960e+00 
25000 6.2273827006e+00 -3.6478604197e-02 2.6240618051e+00 -4.5450083687e+00 2.6240618051e+00 4.5450083687e+00 
25100 6.2266273399e+00 -3.5606812788e-02 2.6247569148e+00 -4.5462123339e+00 2.6247569148e+00 4.5462123339e+00 
25200 6.2258724436e+00 -3.4737957045e-02 2.6254352318e+00 -4.5473872135e+00 2.6254352318e+00 4.5473872135e+00 
25300 6.2251178165e+00 -3.3872001177e-02 2.6260968253e+00 -4.5485331270e+00 2.6260968253e+00 4.5485331270e+00 
25400 6.2243632597e+00 -3.3008915577e-02 2.6267417632e+00 -4.5496501922e+00 2.6267417632e+00 4.5496501922e+00 
25500 6.2236085717e+00 -3.2148677006e-02 2.6273701125e+00 -4.5507385252e+00 2.6273701125e+00 4.5507385252e+00 
25600 6.2228535478e+00 -3.1291268775e-02 2.6279819396e+00 -4.5517982408e+00 2.6279819396e+00 4.5517982408e+00 
25700 6.2220979806e+00 -3.0436680917e-02 2.6285773100e+00 -4.5528294525e+00 2.6285773100e+00 4.5528294525e+00 
25800 6.2213416607e+00 -2.9584910347e-02 2.6291562885e+00 -4.5538322728e+00 2.6291562885e+00 4.5538322728e+00 
25900 6.2205843764e+00 -2.8735961007e-02 2.6297189399e+00 -4.5548068135e+00 2.6297189399e+00 4.5548068135e+00 
26000 6.2198259145e+00 -2.7889844012e-02 2.6302653282e+00 -4.5557531859e+00 2.6302653282e+00 4.5557531859e+00 
26100 6.2190660600e+00 -2.7046577768e-02 2.6307955177e+00 -4.5566715010e+00 2.6307955177e+00 4.5566715010e+00 
26200 6.2183045970e+00 -2.6206188098e-02 2.6313095724e+00 -4.5575618699e+00 2.6313095724e+00 4.5575618699e+00 
26300 6.2175413088e+00 -2.5368708343e-02 2.6318075567e+00 -4.5584244039e+00 2.6318075567e+00 4.5584244039e+00 
26400 6.2167759781e+00 -2.4534179455e-02 2.6322895350e+00 -4.5592592148e+00 2.6322895350e+00 4.5592592148e+00 
26500 6.2160083874e+00 -2.3702650081e-02 2.6327555723e+00 -4.5600664152e+00 2.6327555723e+00 4.5600664152e+00 
26600 6.2152383194e+00 -2.2874176634e-02 2.6332057342e+00 -4.5608461185e+00 2.6332057342e+00 4.5608461185e+00 
26700 6.2144655573e+00 -2.2048823349e-02 2.6336400870e+00 -4.5615984396e+00 2.6336400870e+00 4.5615984396e+00 
26800 6.2136898852e+00 -2.1226662333e-02 2.6340586979e+00 -4.5623234949e+00 2.6340586979e+00 4.5623234949e+00 
26900 6.2129110882e+00 -2.0407773591e-02 2.6344616351e+00 -4.5630214025e+00 2.6344616351e+00 4.5630214025e+00 
27000 6.2121289533e+00 -1.9592245051e-02 2.6348489680e+00 -4.5636922828e+00 2.6348489680e+00 4.5636922828e+00 
27100 6.2113432692e+00 -1.8780172568e-02 2.6352207674e+00 -4.5643362583e+00 2.6352207674e+00 4.5643362583e+00 
27200 6.2105538268e+00 -1.7971659919e-02 2.6355771056e+00 -4.5649534541e+00 2.6355771056e+00 4.5649534541e+00 
27300 6.2097604200e+00 -1.7166818777e-02 2.6359180565e+00 -4.5655439984e+00 2.6359180565e+00 4.5655439984e+00 
27400 6.2089628456e+00 -1.6365768676e-02 2.6362436958e+00 -4.5661080222e+00 2.6362436958e+00 4.5661080222e+00 
27500 6.2081609037e+00 -1.5568636961e-02 2.6365541013e+00 -4.5666456603e+00 2.6365541013e+00 4.5666456603e+00 
27600 6.2073543986e+00 -1.4775558722e-02 2.6368493527e+00 -4.5671570508e+00 2.6368493527e+00 4.5671570508e+00 
27700 6.2065431387e+00 -1.3986676705e-02 2.6371295322e+00 -4.5676423358e+00 2.6371295322e+00 4.5676423358e+00 
27800 6.2057269371e+00 -1.3202141222e-02 2.6373947241e+00 -4.5681016618e+00 2.6373947241e+00 4.5681016618e+00 
27900 6.2049056118e+00 -1.2422110028e-02 2.6376450156e+00 -4.5685351794e+00 2.6376450156e+00 4.5685351794e+00 
28000 6.2040789867e+00 -1.1646748193e-02 2.6378804964e+00 -4.5689430441e+00 2.6378804964e+00 4.5689430441e+00 
28100 6.2032468914e+00 -1.0876227950e-02 2.6381012591e+00 -4.5693254163e+00 2.6381012591e+00 4.5693254163e+00 
28200 6.2024091618e+00 -1.0110728525e-02 2.6383073992e+00 -4.5696824614e+00 2.6383073992e+00 4.5696824614e+00 
28300 6.2015656408e+00 -9.3504359578e-03 2.6384990154e+00 -4.5700143505e+00 2.6384990154e+00 4.5700143505e+00 
28400 6.2007161784e+00 -8.5955428884e-03 2.6386762098e+00 -4.5703212600e+00 2.6386762098e+00 4.5703212600e+00 
28500 6.1998606323e+00 -7.8462483397e-03 2.6388390875e+00 -4.5706033725e+00 2.6388390875e+00 4.5706033725e+00 
28600 6.1989988684e+00 -7.1027574720e-03 2.6389877574e+00 -4.5708608764e+00 2.6389877574e+00 4.5708608764e+00 
28700 6.1981307611e+00 -6.3652813206e-03 2.6391223321e+00 -4.5710939666e+00 2.6391223321e+00 4.5710939666e+00 
28800 6.1972561939e+00 -5.6340365140e-03 2.6392429277e+00 -4.5713028443e+00 2.6392429277e+00 4.5713028443e+00 
28900 6.1963750596e+00 -4.9092449712e-03 2.6393496642e+00 -4.5714877174e+00 2.6393496642e+00 4.5714877174e+00 
29000 6.1954872610e+00 -4.1911335794e-03 2.6394426658e+00 -4.5716488009e+00 2.6394426658e+00 4.5716488009e+00 
29100 6.1945927114e+00 -3.4799338513e-03 2.6395220605e+00 -4.5717863165e+00 2.6395220605e+00 4.5717863165e+00 
29200 6.1936913346e+00 -2.7758815619e-03 2.6395879806e+00 -4.5719004934e+00 2.6395879806e+00 4.5719004934e+00 
29300 6.1927830659e+00 -2.0792163657e-03 2.6396405625e+00 -4.5719915679e+00 2.6396405625e+00 4.5719915679e+00 
29400 6.1918678522e+00 -1.3901813928e-03 2.6396799470e+00 -4.5720597840e+00 2.6396799470e+00 4.5720597840e+00 
29500 6.1909456524e+00 -7.0902282612e-04 2.6397062794e+00 -4.5721053931e+00 2.6397062794e+00 4.5721053931e+00 
29600 6.1900164380e+00 -3.5989457943e-05 2.6397197094e+00 -4.5721286544e+00 2.6397197094e+00 4.5721286544e+00 
29700 6.1890801929e+00 6.2817419623e-04 2.6397197094e+00 -4.5721286544e+00 2.6397197094e+00 4.5721286544e+00 
29800 6.1881369155e+00 1.2841963781e-03 2.6397078109e+00 -4.5721080457e+00 2.6397078109e+00 4.5721080457e+00 
29900 6.1871866172e+00 1.9313380847e-03 2.6396834864e+00 -4.5720659143e+00 2.6396834864e+00 4.5720659143e+00 
30000 6.1862293239e+00 2.5693443796e-03 2.6396469037e+00 -4.5720025512e+00 2.6396469037e+00 4.5720025512e+00 
30100 6.1852650754e+00 3.1979603573e-03 2.6395982355e+00 -4.5719182555e+00 2.6395982355e+00 4.5719182555e+00 
30200 6.1842939269e+00 3.8169316480e-03 2.6395376591e+00 -4.5718133340e+00 2.6395376591e+00 4.5718133340e+00 
30300 6.1833159483e+00 4.4260049503e-03 2.6394653564e+00 -4.5716881021e+00 2.6394653564e+00 4.5716881021e+00 
30400 6.1823312250e+00 5.0249285865e-03 2.6393815140e+00 -4.5715428828e+00 2.6393815140e+00 4.5715428828e+00 
30500 6.1813398584e+00 5.6134530772e-03 2.6392863232e+00 -4.5713780074e+00 2.6392863232e+00 4.5713780074e+00 
30600 6.1803419656e+00 6.1913317313e-03 2.6391799797e+00 -4.5711938152e+00 2.6391799797e+00 4.5711938152e+00 
30700 6.1793376799e+00 6.7583212475e-03 2.6390626841e+00 -4.5709906532e+00 2.6390626841e+00 4.5709906532e+00 
30800 6.1783271510e+00 7.3141823257e-03 2.6389346412e+00 -4.5707688763e+00 2.6389346412e+00 4.5707688763e+00 
30900 6.1773105452e+00 7.8586802855e-03 2.6387960603e+00 -4.5705288472e+00 2.6387960603e+00 4.5705288472e+00 
31000 6.1762880454e+00 8.3915856889e-03 2.6386471551e+00 -4.5702709359e+00 2.6386471551e+00 4.5702709359e+00 
31100 6.1752598513e+00 8.9126749648e-03 2.6384881437e+00 -4.5699955200e+00 2.6384881437e+00 4.5699955200e+00 
31200 6.1742261792e+00 9.4217310341e-03 2.6383192481e+00 -4.5697029843e+00 2.6383192481e+00 4.5697029843e+00 
31300 6.1731872623e+00 9.9185439305e-03 2.6381406946e+00 -4.5693937205e+00 2.6381406946e+00 4.5693937205e+00 
31400 6.1721433506e+00 1.0402911417e-02 2.6379527132e+00 -4.5690681272e+00 2.6379527132e+00 4.5690681272e+00 
31500 6.1710947107e+00 1.0874639593e-02 2.6377555379e+00 -4.5687266096e+00 2.6377555379e+00 4.5687266096e+00 
31600 6.1700416255e+00 1.1333543493e-02 2.6375494063e+00 -4.5683695791e+00 2.6375494063e+00 4.5683695791e+00 
31700 6.1689843946e+00 1.1779447669e-02 2.6373345593e+00 -4.5679974533e+00 2.6373345593e+00 4.5679974533e+00 
31800 6.1679233333e+00 1.2212186759e-02 2.6371112414e+00 -4.5676106553e+00 2.6371112414e+00 4.5676106553e+00 
31900 6.1668587728e+00 1.2631606034e-02 2.6368797000e+00 -4.5672096138e+00 2.6368797000e+00 4.5672096138e+00 
32000 6.1657910598e+00 1.3037561928e-02 2.6366401856e+00 -4.5667947627e+00 2.6366401856e+00 4.5667947627e+00 
32100 6.1647205560e+00 1.3429922538e-02 2.6363929512e+00 -4.5663665403e+00 2.6363929512e+00 4.5663665403e+00 
32200 6.1636476374e+00 1.3808568099e-02 2.6361382528e+00 -4.5659253895e+00 2.6361382528e+00 4.5659253895e+00 
32300 6.1625726944e+00 1.4173391432e-02 2.6358763481e+00 -4.5654717573e+00 2.6358763481e+00 4.5654717573e+00 
32400 6.1614961306e+00 1.4524298355e-02 2.6356074972e+00 -4.5650060940e+00 2.6356074972e+00 4.5650060940e+00 
32500 6.1604183624e+00 1.4861208062e-02 2.6353319622e+00 -4.5645288533e+00 2.6353319622e+00 4.5645288533e+00 
32600 6.1593398183e+00 1.5184053466e-02 2.6350500064e+00 -4.5640404915e+00 2.6350500064e+00 4.5640404915e+00 
32700 6.1582609385e+00 1.5492781495e-02 2.6347618946e+00 -4.5635414674e+00 2.6347618946e+00 4.5635414674e+00 
32800 6.1571821732e+00 1.5787353361e-02 2.6344678929e+00 -4.5630322414e+00 2.6344678929e+00 4.5630322414e+00 
32900 6.1561039826e+00 1.6067744769e-02 2.6341682678e+00 -4.5625132755e+00 2.6341682678e+00 4.5625132755e+00 
33000 6.1550268358e+00 1.6333946092e-02 2.6338632866e+00 -4.5619850326e+00 2.6338632866e+00 4.5619850326e+00 
33100 6.1539512094e+00 1.6585962500e-02 2.6335532169e+00 -4.5614479760e+00 2.6335532169e+00 4.5614479760e+00 
33200 6.1528775871e+00 1.6823814034e-02 2.6332383261e+00 -4.5609025692e+00 2.6332383261e+00 4.5609025692e+00 
33300 6.1518064581e+00 1.7047535636e-02 2.6329188815e+00 -4.5603492750e+00 2.6329188815e+00 4.5603492750e+00 
33400 6.1507383164e+00 1.7257177135e-02 2.6325951498e+00 -4.5597885552e+00 2.6325951498e+00 4.5597885552e+00 
33500 6.1496736595e+00 1.7452803175e-02 2.6322673968e+00 -4.5592208704e+00 2.6322673968e+00 4.5592208704e+00 
33600 6.1486129872e+00 1.7634493099e-02 2.6319358872e+00 -4.5586466790e+00 2.6319358872e+00 4.5586466790e+00 
33700 6.1475568007e+00 1.7802340784e-02 2.6316008844e+00 -4.5580664371e+00 2.6316008844e+00 4.5580664371e+00 
33800 6.1465056008e+00 1.7956454424e-02 2.6312626500e+00 -4.5574805979e+00 2.6312626500e+00 4.5574805979e+00 
33900 6.1454598873e+00 1.8096956275e-02 2.6309214437e+00 -4.5568896113e+00 2.6309214437e+00 4.5568896113e+00 
34000 6.1444201573e+00 1.8223982339e-02 2.6305775231e+00 -4.5562939233e+00 2.6305775231e+00 4.5562939233e+00 
34100 6.1433869042e+00 1.8337682020e-02 2.6302311433e+00 -4.5556939758e+00 2.6302311433e+00 4.5556939758e+00 
34200 6.1423606162e+00 1.8438217726e-02 2.6298825565e+00 -4.5550902057e+00 2.6298825565e+00 4.5550902057e+00 
34300 6.1413417755e+00 1.8525764435e-02 2.6295320121e+00 -4.5544830452e+00 2.6295320121e+00 4.5544830452e+00 
34400 6.1403308564e+00 1.8600509222e-02 2.6291797565e+00 -4.5538729205e+00 2.6291797565e+00 4.5538729205e+00 
34500 6.1393283245e+00 1.8662650753e-02 2.6288260322e+00 -4.5532602521e+00 2.6288260322e+00 4.5532602521e+00 
34600 6.1383346356e+00 1.8712398740e-02 2.6284710785e+00 -4.5526454543e+00 2.6284710785e+00 4.5526454543e+00 
34700 6.1373502341e+00 1.8749973375e-02 2.6281151306e+00 -4.5520289344e+00 2.6281151306e+00 4.5520289344e+00 
34800 6.1363755521e+00 1.8775604733e-02 2.6277584197e+00 -4.5514110929e+00 2.6277584197e+00 4.5514110929e+00 
34900 6.1354110084e+00 1.8789532151e-02 2.6274011726e+00 -4.5507923228e+00 2.6274011726e+00 4.5507923228e+00 
35000 6.1344570070e+00 1.8792003591e-02 2.6270436120e+00 -4.5501730096e+00 2.6270436120e+00 4.5501730096e+00 
35100 6.1335139367e+00 1.8783274988e-02 2.6266859556e+00 -4.5495535306e+00 2.6266859556e+00 4.5495535306e+00 
35200 6.1325821695e+00 1.8763609578e-02 2.6263284167e+00 -4.5489342551e+00 2.6263284167e+00 4.5489342551e+00 
35300 6.1316620604e+00 1.8733277230e-02 2.6259712035e+00 -4.5483155436e+00 2.6259712035e+00 4.5483155436e+00 
35400 6.1307539457e+00 1.8692553763e-02 2.6256145192e+00 -4.5476977483e+00 2.6256145192e+00 4.5476977483e+00 
35500 6.1298581431e+00 1.8641720265e-02 2.6252585619e+00 -4.5470812123e+00 2.6252585619e+00 4.5470812123e+00 
35600 6.1289749503e+00 1.8581062416e-02 2.6249035245e+00 -4.5464662694e+00 2.6249035245e+00 4.5464662694e+00 
35700 6.1281046450e+00 1.8510869813e-02 2.6245495945e+00 -4.5458532446e+00 2.6245495945e+00 4.5458532446e+00 
35800 6.1272474839e+00 1.8431435311e-02 2.6241969539e+00 -4.5452424531e+00 2.6241969539e+00 4.5452424531e+00 
35900 6.1264037022e+00 1.8343054366e-02 2.6238457793e+00 -4.5446342010e+00 2.6238457793e+00 4.5446342010e+00 
36000 6.1255735138e+00 1.8246024401e-02 2.6234962418e+00 -4.5440287843e+00 2.6234962418e+00 4.5440287843e+00 
36100 6.1247571103e+00 1.8140644188e-02 2.6231485070e+00 -4.5434264899e+00 2.6231485070e+00 4.5434264899e+00 
36200 6.1239546612e+00 1.8027213247e-02 2.6228027346e+00 -4.5428275946e+00 2.6228027346e+00 4.5428275946e+00 
36300 6.1231663138e+00 1.7906031271e-02 2.6224590790e+00 -4.5422323656e+00 2.6224590790e+00 4.5422323656e+00 
36400 6.1223921930e+00 1.7777397575e-02 2.6221176887e+00 -4.5416410602e+00 2.6221176887e+00 4.5416410602e+00 
36500 6.1216324013e+00 1.7641610571e-02 2.6217787067e+00 -4.5410539261e+00 2.6217787067e+00 4.5410539261e+00 
36600 6.1208870191e+00 1.7498967268e-02 2.6214422703e+00 -4.5404712013e+00 2.6214422703e+00 4.5404712013e+00 
36700 6.1201561047e+00 1.7349762806e-02 2.6211085114e+00 -4.5398931138e+00 2.6211085114e+00 4.5398931138e+00 
36800 6.1194396950e+00 1.7194290019e-02 2.6207775560e+00 -4.5393198824e+00 2.6207775560e+00 4.5393198824e+00 
36900 6.1187378053e+00 1.7032839022e-02 2.6204495249e+00 -4.5387517158e+00 2.6204495249e+00 4.5387517158e+00 
37000 6.1180504301e+00 1.6865696839e-02 2.6201245332e+00 -4.5381888137e+00 2.6201245332e+00 4.5381888137e+00 
37100 6.1173775436e+00 1.6693147054e-02 2.6198026907e+00 -4.5376313660e+00 2.6198026907e+00 4.5376313660e+00 
37200 6.1167191000e+00 1.6515469501e-02 2.6194841016e+00 -4.5370795536e+00 2.6194841016e+00 4.5370795536e+00 
37300 6.1160750344e+00 1.6332939975e-02 2.6191688651e+00 -4.5365335480e+00 2.6191688651e+00 4.5365335480e+00 
37400 6.1154452635e+00 1.6145829984e-02 2.6188570751e+00 -4.5359935118e+00 2.6188570751e+00 4.5359935118e+00 
37500 6.1148296859e+00 1.5954406521e-02 2.6185488201e+00 -4.5354595986e+00 2.6185488201e+00 4.5354595986e+00 
37600 6.1142281836e+00 1.5758931873e-02 2.6182441839e+00 -4.5349319531e+00 2.6182441839e+00 4.5349319531e+00 
37700 6.1136406221e+00 1.5559663451e-02 2.6179432450e+00 -4.5344107117e+00 2.6179432450e+00 4.5344107117e+00 
37800 6.1130668518e+00 1.5356853653e-02 2.6176460772e+00 -4.5338960020e+00 2.6176460772e+00 4.5338960020e+00 
37900 6.1125067085e+00 1.5150749742e-02 2.6173527494e+00 -4.5333879433e+00 2.6173527494e+00 4.5333879433e+00 
38000 6.1119600146e+00 1.4941593763e-02 2.6170633259e+00 -4.5328866470e+00 2.6170633259e+00 4.5328866470e+00 
38100 6.1114265797e+00 1.4729622465e-02 2.6167778662e+00 -4.5323922163e+00 2.6167778662e+00 4.5323922163e+00 
38200 6.1109062021e+00 1.4515067258e-02 2.6164964254e+00 -4.5319047467e+00 2.6164964254e+00 4.5319047467e+00 
38300 6.1103986691e+00 1.4298154181e-02 2.6162190543e+00 -4.5314243258e+00 2.6162190543e+00 4.5314243258e+00 
38400 6.1099037585e+00 1.4079103887e-02 2.6159457992e+00 -4.5309510340e+00 2.6159457992e+00 4.5309510340e+00 
38500 6.1094212391e+00 1.3858131650e-02 2.6156767022e+00 -4.5304849444e+00 2.6156767022e+00 4.5304849444e+00 
38600 6.1089508722e+00 1.3635447379e-02 2.6154118014e+00 -4.5300261227e+00 2.6154118014e+00 4.5300261227e+00 
38700 6.1084924119e+00 1.3411255651e-02 2.6151511308e+00 -4.5295746279e+00 2.6151511308e+00 4.5295746279e+00 
38800 6.1080456066e+00 1.3185755745e-02 2.6148947204e+00 -4.5291305122e+00 2.6148947204e+00 4.5291305122e+00 
38900 6.1076101996e+00 1.2959141699e-02 2.6146425966e+00 -4.5286938209e+00 2.6146425966e+00 4.5286938209e+00 
39000 6.1071859302e+00 1.2731602361e-02 2.6143947819e+00 -4.5282645933e+00 2.6143947819e+00 4.5282645933e+00 
39100 6.1067725342e+00 1.2503321456e-02 2.6141512953e+00 -4.5278428621e+00 2.6141512953e+00 4.5278428621e+00 
39200 6.1063697452e+00 1.2274477655e-02 2.6139121520e+00 -4.5274286539e+00 2.6139121520e+00 4.5274286539e+00 
39300 6.1059772951e+00 1.2045244645e-02 2.6136773642e+00 -4.5270219895e+00 2.6136773642e+00 4.5270219895e+00 
39400 6.1055949150e+00 1.1815791204e-02 2.6134469405e+00 -4.5266228838e+00 2.6134469405e+00 4.5266228838e+00 
39500 6.1052223361e+00 1.1586281281e-02 2.6132208861e+00 -4.5262313462e+00 2.6132208861e+00 4.5262313462e+00 
39600 6.1048592899e+00 1.1356874072e-02 2.6129992034e+00 -4.5258473805e+00 2.6129992034e+00 4.5258473805e+00 
39700 6.1045055095e+00 1.1127724094e-02 2.6127818915e+00 -4.5254709852e+00 2.6127818915e+00 4.5254709852e+00 
39800 6.1041607296e+00 1.0898981264e-02 2.6125689466e+00 -4.5251021538e+00 2.6125689466e+00 4.5251021538e+00 
39900 6.1038246878e+00 1.0670790975e-02 2.6123603619e+00 -4.5247408745e+00 2.6123603619e+00 4.5247408745e+00 
40000 6.1034971244e+00 1.0443294163e-02 2.6121561280e+00 -4.5243871310e+00 2.6121561280e+00 4.5243871310e+00 
40100 6.1031777835e+00 1.0216627384e-02 2.6119562326e+00 -4.5240409020e+00 2.6119562326e+00 4.5240409020e+00 
40200 6.1028664130e+00 9.9909228737e-03 2.6117606608e+00 -4.5237021617e+00 2.6117606608e+00 4.5237021617e+00 
40300 6.1025627656e+00 9.7663086147e-03 2.6115693952e+00 -4.5233708799e+00 2.6115693952e+00 4.5233708799e+00 
40400 6.1022665984e+00 9.5429083961e-03 2.6113824158e+00 -4.5230470221e+00 2.6113824158e+00 4.5230470221e+00 
40500 6.1019776739e+00 9.3208418694e-03 2.6111997004e+00 -4.5227305497e+00 2.6111997004e+00 4.5227305497e+00 
40600 6.1016957602e+00 9.1002246011e-03 2.6110212242e+00 -4.5224214200e+00 2.6110212242e+00 4.5224214200e+00 
40700 6.1014206307e+00 8.8811681224e-03 2.6108469606e+00 -4.5221195865e+00 2.6108469606e+00 4.5221195865e+00 
40800 6.1011520651e+00 8.6637799746e-03 2.6106768803e+00 -4.5218249988e+00 2.6106768803e+00 4.5218249988e+00 
40900 6.1008898491e+00 8.4481637513e-03 2.6105109523e+00 -4.5215376031e+00 2.6105109523e+00 4.5215376031e+00 
41000 6.1006337747e+00 8.2344191374e-03 2.6103491434e+00 -4.5212573419e+00 2.6103491434e+00 4.5212573419e+00 
41100 6.1003836403e+00 8.0226419456e-03 2.6101914186e+00 -4.5209841545e+00 2.6101914186e+00 4.5209841545e+00 
41200 6.1001392508e+00 7.8129241495e-03 2.6100377409e+00 -4.5207179769e+00 2.6100377409e+00 4.5207179769e+00 
41300 6.0999004177e+00 7.6053539145e-03 2.6098880716e+00 -4.5204587421e+00 2.6098880716e+00 4.5204587421e+00 
41400 6.0996669588e+00 7.4000156271e-03 2.6097423703e+00 -4.5202063800e+00 2.6097423703e+00 4.5202063800e+00 
41500 6.0994386987e+00 7.1969899213e-03 2.6096005948e+00 -4.5199608177e+00 2.6096005948e+00 4.5199608177e+00 
41600 6.0992154686e+00 6.9963537051e-03 2.6094627016e+00 -4.5197219796e+00 2.6094627016e+00 4.5197219796e+00 
41700 6.0989971061e+00 6.7981801844e-03 2.6093286454e+00 -4.5194897874e+00 2.6093286454e+00 4.5194897874e+00 
41800 6.0987834552e+00 6.6025388868e-03 2.6091983796e+00 -4.5192641605e+00 2.6091983796e+00 4.5192641605e+00 
41900 6.0985743662e+00 6.4094956857e-03 2.6090718564e+00 -4.5190450158e+00 2.6090718564e+00 4.5190450158e+00 
42000 6.0983696958e+00 6.2191128227e-03 2.6089490264e+00 -4.5188322680e+00 2.6089490264e+00 4.5188322680e+00 
42100 6.0981693067e+00 6.0314489322e-03 2.6088298392e+00 -4.5186258298e+00 2.6088298392e+00 4.5186258298e+00 
42200 6.0979730677e+00 5.8465590649e-03 2.6087142432e+00 -4.5184256117e+00 2.6087142432e+00 4.5184256117e+00 
42300 6.0977808531e+00 5.6644947131e-03 2.6086021858e+00 -4.5182315225e+00 2.6086021858e+00 4.5182315225e+00 
42400 6.0975925434e+00 5.4853038374e-03 2.6084936132e+00 -4.5180434692e+00 2.6084936132e+00 4.5180434692e+00 
42500 6.0974080241e+00 5.3090308938e-03 2.6083884707e+00 -4.5178613572e+00 2.6083884707e+00 4.5178613572e+00 
42600 6.0972271865e+00 5.1357168637e-03 2.6082867030e+00 -4.5176850903e+00 2.6082867030e+00 4.5176850903e+00 
42700 6.0970499265e+00 4.9653992851e-03 2.6081882536e+00 -4.5175145709e+00 2.6081882536e+00 4.5175145709e+00 
42800 6.0968761456e+00 4.7981122859e-03 2.6080930655e+00 -4.5173497003e+00 2.6080930655e+00 4.5173497003e+00 
42900 6.0967057496e+00 4.6338866200e-03 2.6080010810e+00 -4.5171903784e+00 2.6080010810e+00 4.5171903784e+00 
43000 6.0965386490e+00 4.4727497052e-03 2.6079122417e+00 -4.5170365042e+00 2.6079122417e+00 4.5170365042e+00 
43100 6.0963747588e+00 4.3147256640e-03 2.6078264887e+00 -4.5168879757e+00 2.6078264887e+00 4.5168879757e+00 
43200 6.0962139982e+00 4.1598353672e-03 2.6077437626e+00 -4.5167446900e+00 2.6077437626e+00 4.5167446900e+00 
43300 6.0960562903e+00 4.0080964799e-03 2.6076640038e+00 -4.5166065436e+00 2.6076640038e+00 4.5166065436e+00 
43400 6.0959015621e+00 3.8595235106e-03 2.6075871519e+00 -4.5164734323e+00 2.6075871519e+00 4.5164734323e+00 
43500 6.0957497440e+00 3.7141278627e-03 2.6075131466e+00 -4.5163452513e+00 2.6075131466e+00 4.5163452513e+00 
43600 6.0956007703e+00 3.5719178890e-03 2.6074419272e+00 -4.5162218957e+00 2.6074419272e+00 4.5162218957e+00 
43700 6.0954545780e+00 3.4328989495e-03 2.6073734328e+00 -4.5161032600e+00 2.6073734328e+00 4.5161032600e+00 
43800 6.0953111077e+00 3.2970734710e-03 2.6073076025e+00 -4.5159892385e+00 2.6073076025e+00 4.5159892385e+00 
43900 6.0951703025e+00 3.1644410103e-03 2.6072443752e+00 -4.5158797256e+00 2.6072443752e+00 4.5158797256e+00 
44000 6.0950321084e+00 3.0349983195e-03 2.6071836899e+00 -4.5157746156e+00 2.6071836899e+00 4.5157746156e+00 
44100 6.0948964741e+00 2.9087394137e-03 2.6071254856e+00 -4.5156738027e+00 2.6071254856e+00 4.5156738027e+00 
44200 6.0947633504e+00 2.7856556419e-03 2.6070697014e+00 -4.5155771816e+00 2.6070697014e+00 4.5155771816e+00 
44300 6.0946326906e+00 2.6657357596e-03 2.6070162765e+00 -4.5154846471e+00 2.6070162765e+00 4.5154846471e+00 
44400 6.0945044500e+00 2.5489660033e-03 2.6069651505e+00 -4.5153960942e+00 2.6069651505e+00 4.5153960942e+00 
44500 6.0943785861e+00 2.4353301680e-03 2.6069162630e+00 -4.5153114187e+00 2.6069162630e+00 4.5153114187e+00 
44600 6.0942550578e+00 2.3248096858e-03 2.6068695542e+00 -4.5152305165e+00 2.6068695542e+00 4.5152305165e+00 
44700 6.0941338262e+00 2.2173837062e-03 2.6068249642e+00 -4.5151532845e+00 2.6068249642e+00 4.5151532845e+00 
44800 6.0940148536e+00 2.1130291789e-03 2.6067824340e+00 -4.5150796199e+00 2.6067824340e+00 4.5150796199e+00 
44900 6.0938981041e+00 2.0117209364e-03 2.6067419046e+00 -4.5150094210e+00 2.6067419046e+00 4.5150094210e+00 
45000 6.0937835428e+00 1.9134317795e-03 2.6067033178e+00 -4.5149425868e+00 2.6067033178e+00 4.5149425868e+00 
45100 6.0936711365e+00 1.8181325626e-03 2.6066666158e+00 -4.5148790169e+00 2.6066666158e+00 4.5148790169e+00 
45200 6.0935608528e+00 1.7257922803e-03 2.6066317412e+00 -4.5148186124e+00 2.6066317412e+00 4.5148186124e+00 
45300 6.0934526606e+00 1.6363781550e-03 2.6065986374e+00 -4.5147612749e+00 2.6065986374e+00 4.5147612749e+00 
45400 6.0933465296e+00 1.5498557238e-03 2.6065672483e+00 -4.5147069074e+00 2.6065672483e+00 4.5147069074e+00 
45500 6.0932424307e+00 1.4661889276e-03 2.6065375185e+00 -4.5146554140e+00 2.6065375185e+00 4.5146554140e+00 
45600 6.0931403355e+00 1.3853401983e-03 2.6065093934e+00 -4.5146066997e+00 2.6065093934e+00 4.5146066997e+00 
45700 6.0930402162e+00 1.3072705474e-03 2.6064828188e+00 -4.5145606712e+00 2.6064828188e+00 4.5145606712e+00 
45800 6.0929420460e+00 1.2319396534e-03 2.6064577415e+00 -4.5145172361e+00 2.6064577415e+00 4.5145172361e+00 
45900 6.0928457985e+00 1.1593059497e-03 2.6064341091e+00 -4.5144763036e+00 2.6064341091e+00 4.5144763036e+00 
46000 6.0927514482e+00 1.0893267112e-03 2.6064118699e+00 -4.5144377840e+00 2.6064118699e+00 4.5144377840e+00 
46100 6.0926589698e+00 1.0219581402e-03 2.6063909728e+00 -4.5144015893e+00 2.6063909728e+00 4.5144015893e+00 
46200 6.0925683387e+00 9.5715545205e-04 2.6063713680e+00 -4.5143676328e+00 2.6063713680e+00 4.5143676328e+00 
46300 6.0924795307e+00 8.9487295929e-04 2.6063530062e+00 -4.5143358292e+00 2.6063530062e+00 4.5143358292e+00 
46400 6.0923925221e+00 8.3506415449e-04 2.6063358391e+00 -4.5143060948e+00 2.6063358391e+00 4.5143060948e+00 
46500 6.0923072895e+00 7.7768179221e-04 2.6063198192e+00 -4.5142783476e+00 2.6063198192e+00 4.5142783476e+00 
46600 6.0922238099e+00 7.2267796929e-04 2.6063049000e+00 -4.5142525069e+00 2.6063049000e+00 4.5142525069e+00 
46700 6.0921420605e+00 6.7000420367e-04 2.6062910360e+00 -4.5142284937e+00 2.6062910360e+00 4.5142284937e+00 
46800 6.0920620190e+00 6.1961151155e-04 2.6062781824e+00 -4.5142062306e+00 2.6062781824e+00 4.5142062306e+00 
46900 6.0919836632e+00 5.7145048284e-04 2.6062662955e+00 -4.5141856419e+00 2.6062662955e+00 4.5141856419e+00 
47000 6.0919069713e+00 5.2547135471e-04 2.6062553325e+00 -4.5141666535e+00 2.6062553325e+00 4.5141666535e+00 
47100 6.0918319215e+00 4.8162408332e-04 2.6062452516e+00 -4.5141491927e+00 2.6062452516e+00 4.5141491927e+00 
47200 6.0917584924e+00 4.3985841343e-04 2.6062360118e+00 -4.5141331889e+00 2.6062360118e+00 4.5141331889e+00 
47300 6.0916866627e+00 4.0012394601e-04 2.6062275732e+00 -4.5141185729e+00 2.6062275732e+00 4.5141185729e+00 
47400 6.0916164115e+00 3.6237020375e-04 2.6062198969e+00 -4.5141052771e+00 2.6062198969e+00 4.5141052771e+00 
47500 6.0915477177e+00 3.2654669435e-04 2.6062129449e+00 -4.5140932359e+00 2.6062129449e+00 4.5140932359e+00 
47600 6.0914805606e+00 2.9260297154e-04 2.6062066801e+00 -4.5140823850e+00 2.6062066801e+00 4.5140823850e+00 
47700 6.0914149196e+00 2.6048869395e-04 2.6062010665e+00 -4.5140726620e+00 2.6062010665e+00 4.5140726620e+00 
47800 6.0913507743e+00 2.3015368159e-04 2.6061960691e+00 -4.5140640061e+00 2.6061960691e+00 4.5140640061e+00 
47900 6.0912881042e+00 2.0154797001e-04 2.6061916535e+00 -4.5140563582e+00 2.6061916535e+00 4.5140563582e+00 
48000 6.0912268893e+00 1.7462186222e-04 2.6061877868e+00 -4.5140496609e+00 2.6061877868e+00 4.5140496609e+00 
48100 6.0911671093e+00 1.4932597816e-04 2.6061844367e+00 -4.5140438582e+00 2.6061844367e+00 4.5140438582e+00 
48200 6.0911087443e+00 1.2561130185e-04 2.6061815719e+00 -4.5140388962e+00 2.6061815719e+00 4.5140388962e+00 
48300 6.0910517744e+00 1.0342922621e-04 2.6061791620e+00 -4.5140347222e+00 2.6061791620e+00 4.5140347222e+00 
48400 6.0909961798e+00 8.2731595536e-05 2.6061771777e+00 -4.5140312853e+00 2.6061771777e+00 4.5140312853e+00 
48500 6.0909419409e+00 6.3470745616e-05 2.6061755905e+00 -4.5140285361e+00 2.6061755905e+00 4.5140285361e+00 
48600 6.0908890381e+00 4.6662657124e-05 2.6061755905e+00 -4.5140285361e+00 2.6061755905e+00 4.5140285361e+00 
48700 6.0908374517e+00 3.0910752827e-05 2.6061755905e+00 -4.5140285361e+00 2.6061755905e+00 4.5140285361e+00 
48800 6.0907871625e+00 1.6188024800e-05 2.6061755905e+00 -4.5140285361e+00 2.6061755905e+00 4.5140285361e+00 
48900 6.0907381511e+00 2.4675968581e-06 2.6061755905e+00 -4.5140285361e+00 2.6061755905e+00 4.5140285361e+00 
49000 6.0906903982e+00 -1.0277250435e-05 2.6061755905e+00 -4.5140285361e+00 2.6061755905e+00 4.5140285361e+00 
49100 6.0906438849e+00 -2.2073053541e-05 2.6061755905e+00 -4.5140285361e+00 2.6061755905e+00 4.5140285361e+00 
49200 6.0905985919e+00 -3.2946139475e-05 2.6061755905e+00 -4.5140285361e+00 2.6061755905e+00 4.5140285361e+00 
49300 6.0905545004e+00 -4.2922599715e-05 2.6061755905e+00 -4.5140285361e+00 2.6061755905e+00 4.5140285361e+00 
49400 6.0905115913e+00 -5.2028264937e-05 2.6061755905e+00 -4.5140285361e+00 2.6061755905e+00 4.5140285361e+00 
49500 6.0904698460e+00 -6.0288680856e-05 2.6061755905e+00 -4.5140285361e+00 2.6061755905e+00 4.5140285361e+00 
49600 6.0904292456e+00 -6.7729085375e-05 2.6061755905e+00 -4.5140285361e+00 2.6061755905e+00 4.5140285361e+00 
49700 6.0903897714e+00 -7.4374387158e-05 2.6061755905e+00 -4.5140285361e+00 2.6061755905e+00 4.5140285361e+00 
49800 6.0903514049e+00 -7.9003637538e-05 2.6061770173e+00 -4.5140310076e+00 2.6061770173e+00 4.5140310076e+00 
49900 6.0903141276e+00 -8.2794393296e-05 2.6061785330e+00 -4.5140336328e+00 2.6061785330e+00 4.5140336328e+00 
50000 6.0902779211e+00 -8.5783622477e-05 2.6061801215e+00 -4.5140363841e+00 2.6061801215e+00 4.5140363841e+00 
50100 6.0902427671e+00 -8.8007442389e-05 2.6061817672e+00 -4.5140392346e+00 2.6061817672e+00 4.5140392346e+00 
50200 6.0902086473e+00 -8.9501116248e-05 2.6061834557e+00 -4.5140421591e+00 2.6061834557e+00 4.5140421591e+00 
50300 6.0901755435e+00 -9.0299050457e-05 2.6061851728e+00 -4.5140451332e+00 2.6061851728e+00 4.5140451332e+00 
50400 6.0901434378e+00 -9.0434792711e-05 2.6061869052e+00 -4.5140481338e+00 2.6061869052e+00 4.5140481338e+00 
50500 6.0901123121e+00 -8.9941031095e-05 2.6061886402e+00 -4.5140511389e+00 2.6061886402e+00 4.5140511389e+00 
50600 6.0900821486e+00 -8.8849594156e-05 2.6061903657e+00 -4.5140541276e+00 2.6061903657e+00 4.5140541276e+00 
50700 6.0900529294e+00 -8.7191452064e-05 2.6061920703e+00 -4.5140570800e+00 2.6061920703e+00 4.5140570800e+00 
50800 6.0900246368e+00 -8.4996718824e-05 2.6061937431e+00 -4.5140599774e+00 2.6061937431e+00 4.5140599774e+00 
50900 6.0899972533e+00 -8.2294655528e-05 2.6061953737e+00 -4.5140628018e+00 2.6061953737e+00 4.5140628018e+00 
51000 6.0899707613e+00 -7.9113674610e-05 2.6061969526e+00 -4.5140655364e+00 2.6061969526e+00 4.5140655364e+00 
51100 6.0899451434e+00 -7.5481345106e-05 2.6061984704e+00 -4.5140681653e+00 2.6061984704e+00 4.5140681653e+00 
51200 6.0899203823e+00 -7.1424398822e-05 2.6061999185e+00 -4.5140706735e+00 2.6061999185e+00 4.5140706735e+00 
51300 6.0898964608e+00 -6.6968737404e-05 2.6062012887e+00 -4.5140730469e+00 2.6062012887e+00 4.5140730469e+00 
51400 6.0898733619e+00 -6.3260649748e-05 2.6062012887e+00 -4.5140730469e+00 2.6062012887e+00 4.5140730469e+00 
51500 6.0898510684e+00 -5.9135542501e-05 2.6062012887e+00 -4.5140730469e+00 2.6062012887e+00 4.5140730469e+00 
51600 6.0898295636e+00 -5.4610060113e-05 2.6062012887e+00 -4.5140730469e+00 2.6062012887e+00 4.5140730469e+00 
51700 6.0898088306e+00 -4.9700372421e-05 2.6062012887e+00 -4.5140730469e+00 2.6062012887e+00 4.5140730469e+00 
51800 6.0897888528e+00 -4.4422175123e-05 2.6062012887e+00 -4.5140730469e+00 2.6062012887e+00 4.5140730469e+00 
51900 6.0897696137e+00 -3.8790691878e-05 2.6062012887e+00 -4.5140730469e+00 2.6062012887e+00 4.5140730469e+00 
52000 6.0897510969e+00 -3.2820677670e-05 2.6062012887e+00 -4.5140730469e+00 2.6062012887e+00 4.5140730469e+00 
52100 6.0897332861e+00 -2.6526423217e-05 2.6062012887e+00 -4.5140730469e+00 2.6062012887e+00 4.5140730469e+00 
52200 6.0897161653e+00 -1.9921760252e-05 2.6062012887e+00 -4.5140730469e+00 2.6062012887e+00 4.5140730469e+00 
52300 6.0896997184e+00 -1.3020067494e-05 2.6062012887e+00 -4.5140730469e+00 2.6062012887e+00 4.5140730469e+00 
52400 6.0896839296e+00 -5.8342772535e-06 2.6062012887e+00 -4.5140730469e+00 2.6062012887e+00 4.5140730469e+00 
52500 6.0896687832e+00 1.6231174550e-06 2.6062012887e+00 -4.5140730469e+00 2.6062012887e+00 4.5140730469e+00 
52600 6.0896542636e+00 9.3400553502e-06 2.6062012887e+00 -4.5140730469e+00 2.6062012887e+00 4.5140730469e+00 
52700 6.0896403555e+00 1.7304898931e-05 2.6062012887e+00 -4.5140730469e+00 2.6062012887e+00 4.5140730469e+00 
52800 6.0896270435e+00 2.5506426186e-05 2.6062012887e+00 -4.5140730469e+00 2.6062012887e+00 4.5140730469e+00 
52900 6.0896143128e+00 3.3933822013e-05 2.6062012887e+00 -4.5140730469e+00 2.6062012887e+00 4.5140730469e+00 
53000 6.0896021482e+00 4.2576669380e-05 2.6062012887e+00 -4.5140730469e+00 2.6062012887e+00 4.5140730469e+00 
53100 6.0895905351e+00 5.1424940279e-05 2.6062012887e+00 -4.5140730469e+00 2.6062012887e+00 4.5140730469e+00 
53200 6.0895794589e+00 6.0468986497e-05 2.6062012887e+00 -4.5140730469e+00 2.6062012887e+00 4.5140730469e+00 
53300 6.0895689052e+00 6.9699530225e-05 2.6062012887e+00 -4.5140730469e+00 2.6062012887e+00 4.5140730469e+00 
53400 6.0895588598e+00 7.9107654547e-05 2.6062012887e+00 -4.5140730469e+00 2.6062012887e+00 4.5140730469e+00 
53500 6.0895493085e+00 8.7360716360e-05 2.6061997711e+00 -4.5140704182e+00 2.6061997711e+00 4.5140704182e+00 
53600 6.0895402376e+00 9.5620807900e-05 2.6061980950e+00 -4.5140675152e+00 2.6061980950e+00 4.5140675152e+00 
53700 6.0895316334e+00 1.0387830195e-04 2.6061962606e+00 -4.5140643378e+00 2.6061962606e+00 4.5140643378e+00 
53800 6.0895234823e+00 1.1212406504e-04 2.6061942677e+00 -4.5140608860e+00 2.6061942677e+00 4.5140608860e+00 
53900 6.0895157712e+00 1.2034944366e-04 2.6061921165e+00 -4.5140571601e+00 2.6061921165e+00 4.5140571601e+00 
54000 6.0895084870e+00 1.2854625020e-04 2.6061898076e+00 -4.5140531610e+00 2.6061898076e+00 4.5140531610e+00 
54100 6.0895016167e+00 1.3670674866e-04 2.6061873415e+00 -4.5140488895e+00 2.6061873415e+00 4.5140488895e+00 
54200 6.0894951477e+00 1.4482364037e-04 2.6061847187e+00 -4.5140443467e+00 2.6061847187e+00 4.5140443467e+00 
54300 6.0894890676e+00 1.5289004969e-04 2.6061819403e+00 -4.5140395343e+00 2.6061819403e+00 4.5140395343e+00 
54400 6.0894833641e+00 1.6089950977e-04 2.6061790070e+00 -4.5140344538e+00 2.6061790070e+00 4.5140344538e+00 
54500 6.0894780251e+00 1.6884594844e-04 2.6061759202e+00 -4.5140291072e+00 2.6061759202e+00 4.5140291072e+00 
54600 6.0894730388e+00 1.7672367423e-04 2.6061726808e+00 -4.5140234965e+00 2.6061726808e+00 4.5140234965e+00 
54700 6.0894683937e+00 1.8452736258e-04 2.6061692903e+00 -4.5140176240e+00 2.6061692903e+00 4.5140176240e+00 
54800 6.0894640782e+00 1.9225204223e-04 2.6061657501e+00 -4.5140114922e+00 2.6061657501e+00 4.5140114922e+00 
54900 6.0894600814e+00 1.9989308181e-04 2.6061620617e+00 -4.5140051037e+00 2.6061620617e+00 4.5140051037e+00 
55000 6.0894563921e+00 2.0744617668e-04 2.6061582267e+00 -4.5139984612e+00 2.6061582267e+00 4.5139984612e+00 
55100 6.0894529997e+00 2.1490733599e-04 2.6061542468e+00 -4.5139915678e+00 2.6061542468e+00 4.5139915678e+00 
55200 6.0894498937e+00 2.2227286998e-04 2.6061501237e+00 -4.5139844264e+00 2.6061501237e+00 4.5139844264e+00 
55300 6.0894470638e+00 2.2953937755e-04 2.6061458593e+00 -4.5139770403e+00 2.6061458593e+00 4.5139770403e+00 
55400 6.0894444999e+00 2.3670373407e-04 2.6061414555e+00 -4.5139694127e+00 2.6061414555e+00 4.5139694127e+00 
55500 6.0894421922e+00 2.4376307946e-04 2.6061369143e+00 -4.5139615470e+00 2.6061369143e+00 4.5139615470e+00 
55600 6.0894401311e+00 2.5071480659e-04 2.6061322375e+00 -4.5139534467e+00 2.6061322375e+00 4.5139534467e+00 
55700 6.0894383072e+00 2.5755654984e-04 2.6061274275e+00 -4.5139451154e+00 2.6061274275e+00 4.5139451154e+00 
55800 6.0894367114e+00 2.6428617411e-04 2.6061224861e+00 -4.5139365567e+00 2.6061224861e+00 4.5139365567e+00 
55900 6.0894353347e+00 2.7090176391e-04 2.6061174156e+00 -4.5139277743e+00 2.6061174156e+00 4.5139277743e+00 
56000 6.0894341683e+00 2.7740161293e-04 2.6061122182e+00 -4.5139187721e+00 2.6061122182e+00 4.5139187721e+00 
56100 6.0894332039e+00 2.8378421374e-04 2.6061068961e+00 -4.5139095539e+00 2.6061068961e+00 4.5139095539e+00 
56200 6.0894324332e+00 2.9004824787e-04 2.6061014515e+00 -4.5139001236e+00 2.6061014515e+00 4.5139001236e+00 
56300 6.0894318480e+00 2.9619257616e-04 2.6060958867e+00 -4.5138904851e+00 2.6060958867e+00 4.5138904851e+00 
56400 6.0894314406e+00 3.0221622932e-04 2.6060902040e+00 -4.5138806424e+00 2.6060902040e+00 4.5138806424e+00 
56500 6.0894312033e+00 3.0811839891e-04 2.6060844057e+00 -4.5138705995e+00 2.6060844057e+00 4.5138705995e+00 
56600 6.0894311288e+00 3.1389842851e-04 2.6060784942e+00 -4.5138603605e+00 2.6060784942e+00 4.5138603605e+00 
56700 6.0894312099e+00 3.1955580517e-04 2.6060724718e+00 -4.5138499293e+00 2.6060724718e+00 4.5138499293e+00 
56800 6.0894314395e+00 3.2509015123e-04 2.6060663408e+00 -4.5138393101e+00 2.6060663408e+00 4.5138393101e+00 
56900 6.0894318109e+00 3.3050121628e-04 2.6060601036e+00 -4.5138285070e+00 2.6060601036e+00 4.5138285070e+00 
57000 6.0894323176e+00 3.3578886957e-04 2.6060537626e+00 -4.5138175241e+00 2.6060537626e+00 4.5138175241e+00 
57100 6.0894329532e+00 3.4095309253e-04 2.6060473201e+00 -4.5138063654e+00 2.6060473201e+00 4.5138063654e+00 
57200 6.0894337114e+00 3.4599397168e-04 2.6060407786e+00 -4.5137950351e+00 2.6060407786e+00 4.5137950351e+00 
57300 6.0894345864e+00 3.5091169175e-04 2.6060341402e+00 -4.5137835372e+00 2.6060341402e+00 4.5137835372e+00 
57400 6.0894355724e+00 3.5570652910e-04 2.6060274076e+00 -4.5137718758e+00 2.6060274076e+00 4.5137718758e+00 
57500 6.0894366638e+00 3.6037884537e-04 2.6060205829e+00 -4.5137600551e+00 2.6060205829e+00 4.5137600551e+00 
57600 6.0894378552e+00 3.6492908142e-04 2.6060136685e+00 -4.5137480791e+00 2.6060136685e+00 4.5137480791e+00 
57700 6.0894391413e+00 3.6935775148e-04 2.6060066669e+00 -4.5137359519e+00 2.6060066669e+00 4.5137359519e+00 
57800 6.0894405172e+00 3.7366543764e-04 2.6059995802e+00 -4.5137236774e+00 2.6059995802e+00 4.5137236774e+00 
57900 6.0894419780e+00 3.7785278446e-04 2.6059924109e+00 -4.5137112598e+00 2.6059924109e+00 4.5137112598e+00 
58000 6.0894435191e+00 3.8192049393e-04 2.6059851612e+00 -4.5136987030e+00 2.6059851612e+00 4.5136987030e+00 
58100 6.0894451358e+00 3.8586932064e-04 2.6059778334e+00 -4.5136860109e+00 2.6059778334e+00 4.5136860109e+00 
58200 6.0894468239e+00 3.8970006713e-04 2.6059704299e+00 -4.5136731876e+00 2.6059704299e+00 4.5136731876e+00 
58300 6.0894485791e+00 3.9341357952e-04 2.6059629528e+00 -4.5136602370e+00 2.6059629528e+00 4.5136602370e+00 
58400 6.0894503975e+00 3.9701074339e-04 2.6059554045e+00 -4.5136471629e+00 2.6059554045e+00 4.5136471629e+00 
58500 6.0894522752e+00 4.0049247975e-04 2.6059477871e+00 -4.5136339692e+00 2.6059477871e+00 4.5136339692e+00 
58600 6.0894542084e+00 4.0385974143e-04 2.6059401030e+00 -4.5136206598e+00 2.6059401030e+00 4.5136206598e+00 
58700 6.0894561937e+00 4.0711350943e-04 2.6059323541e+00 -4.5136072384e+00 2.6059323541e+00 4.5136072384e+00 
58800 6.0894582274e+00 4.1025478970e-04 2.6059245428e+00 -4.5135937089e+00 2.6059245428e+00 4.5135937089e+00 
58900 6.0894603065e+00 4.1328460995e-04 2.6059166713e+00 -4.5135800749e+00 2.6059166713e+00 4.5135800749e+00 
59000 6.0894624276e+00 4.1620401675e-04 2.6059087415e+00 -4.5135663402e+00 2.6059087415e+00 4.5135663402e+00 
59100 6.0894645878e+00 4.1901407278e-04 2.6059007558e+00 -4.5135525085e+00 2.6059007558e+00 4.5135525085e+00 
59200 6.0894667841e+00 4.2171585425e-04 2.6058927161e+00 -4.5135385833e+00 2.6058927161e+00 4.5135385833e+00 
59300 6.0894690139e+00 4.2431044851e-04 2.6058846245e+00 -4.5135245683e+00 2.6058846245e+00 4.5135245683e+00 
59400 6.0894712744e+00 4.2679895180e-04 2.6058764831e+00 -4.5135104670e+00 2.6058764831e+00 4.5135104670e+00 
59500 6.0894735630e+00 4.2918246726e-04 2.6058682939e+00 -4.5134962829e+00 2.6058682939e+00 4.5134962829e+00 
59600 6.0894758774e+00 4.3146210293e-04 2.6058600590e+00 -4.5134820196e+00 2.6058600590e+00 4.5134820196e+00 
59700 6.0894782153e+00 4.3363897008e-04 2.6058517803e+00 -4.5134676805e+00 2.6058517803e+00 4.5134676805e+00 
59800 6.0894805743e+00 4.3571418155e-04 2.6058434599e+00 -4.5134532690e+00 2.6058434599e+00 4.5134532690e+00 
59900 6.0894829525e+00 4.3768885033e-04 2.6058350995e+00 -4.5134387885e+00 2.6058350995e+00 4.5134387885e+00 
60000 6.0894853477e+00 4.3956408818e-04 2.6058267013e+00 -4.5134242424e+00 2.6058267013e+00 4.5134242424e+00 
60100 6.0894877580e+00 4.4134100449e-04 2.6058182670e+00 -4.5134096338e+00 2.6058182670e+00 4.5134096338e+00 
60200 6.0894901817e+00 4.4302070515e-04 2.6058097987e+00 -4.5133949662e+00 2.6058097987e+00 4.5133949662e+00 
60300 6.0894926169e+00 4.4460429164e-04 2.6058012980e+00 -4.5133802426e+00 2.6058012980e+00 4.5133802426e+00 
60400 6.0894950619e+00 4.4609286016e-04 2.6057927670e+00 -4.5133654664e+00 2.6057927670e+00 4.5133654664e+00 
60500 6.0894975153e+00 4.4748750093e-04 2.6057842074e+00 -4.5133506407e+00 2.6057842074e+00 4.5133506407e+00 
60600 6.0894999754e+00 4.4878929752e-04 2.6057756209e+00 -4.5133357686e+00 2.6057756209e+00 4.5133357686e+00 
60700 6.0895024408e+00 4.4999932637e-04 2.6057670095e+00 -4.5133208532e+00 2.6057670095e+00 4.5133208532e+00 
60800 6.0895049102e+00 4.5111865631e-04 2.6057583748e+00 -4.5133058975e+00 2.6057583748e+00 4.5133058975e+00 
60900 6.0895073822e+00 4.5214834823e-04 2.6057497187e+00 -4.5132909045e+00 2.6057497187e+00 4.5132909045e+00 
61000 6.0895098557e+00 4.5308945482e-04 2.6057410427e+00 -4.5132758773e+00 2.6057410427e+00 4.5132758773e+00 
61100 6.0895123294e+00 4.5394302039e-04 2.6057323486e+00 -4.5132608187e+00 2.6057323486e+00 4.5132608187e+00 
61200 6.0895148022e+00 4.5471008072e-04 2.6057236382e+00 -4.5132457318e+00 2.6057236382e+00 4.5132457318e+00 
61300 6.0895172731e+00 4.5539166306e-04 2.6057149129e+00 -4.5132306193e+00 2.6057149129e+00 4.5132306193e+00 
61400 6.0895197411e+00 4.5598878615e-04 2.6057061746e+00 -4.5132154841e+00 2.6057061746e+00 4.5132154841e+00 
61500 6.0895222052e+00 4.5650246024e-04 2.6056974248e+00 -4.5132003289e+00 2.6056974248e+00 4.5132003289e+00 
61600 6.0895246645e+00 4.5693368730e-04 2.6056886651e+00 -4.5131851567e+00 2.6056886651e+00 4.5131851567e+00 
61700 6.0895271181e+00 4.5728346118e-04 2.6056798971e+00 -4.5131699701e+00 2.6056798971e+00 4.5131699701e+00 
61800 6.0895295653e+00 4.5755276782e-04 2.6056711224e+00 -4.5131547718e+00 2.6056711224e+00 4.5131547718e+00 
61900 6.0895320053e+00 4.5774258556e-04 2.6056623425e+00 -4.5131395645e+00 2.6056623425e+00 4.5131395645e+00 
62000 6.0895344373e+00 4.5785388544e-04 2.6056535588e+00 -4.5131243508e+00 2.6056535588e+00 4.5131243508e+00 
62100 6.0895368606e+00 4.5788763153e-04 2.6056447731e+00 -4.5131091334e+00 2.6056447731e+00 4.5131091334e+00 
62200 6.0895392747e+00 4.5784478138e-04 2.6056359866e+00 -4.5130939149e+00 2.6056359866e+00 4.5130939149e+00 
62300 6.0895416788e+00 4.5772628633e-04 2.6056272010e+00 -4.5130786977e+00 2.6056272010e+00 4.5130786977e+00 
62400 6.0895440724e+00 4.5753309202e-04 2.6056184176e+00 -4.5130634843e+00 2.6056184176e+00 4.5130634843e+00 
62500 6.0895464550e+00 4.5726613881e-04 2.6056096378e+00 -4.5130482774e+00 2.6056096378e+00 4.5130482774e+00 
62600 6.0895488260e+00 4.5692636225e-04 2.6056008632e+00 -4.5130330793e+00 2.6056008632e+00 4.5130330793e+00 
62700 6.0895511849e+00 4.5651469359e-04 2.6055920950e+00 -4.5130178924e+00 2.6055920950e+00 4.5130178924e+00 
62800 6.0895535313e+00 4.5603206023e-04 2.6055833347e+00 -4.5130027191e+00 2.6055833347e+00 4.5130027191e+00 
62900 6.0895558647e+00 4.5547938627e-04 2.6055745837e+00 -4.5129875619e+00 2.6055745837e+00 4.5129875619e+00 
63000 6.0895581847e+00 4.5485759297e-04 2.6055658432e+00 -4.5129724229e+00 2.6055658432e+00 4.5129724229e+00 
63100 6.0895604910e+00 4.5416759932e-04 2.6055571146e+00 -4.5129573046e+00 2.6055571146e+00 4.5129573046e+00 
63200 6.0895627831e+00 4.5341032248e-04 2.6055483993e+00 -4.5129422091e+00 2.6055483993e+00 4.5129422091e+00 
63300 6.0895650606e+00 4.5258667834e-04 2.6055396984e+00 -4.5129271388e+00 2.6055396984e+00 4.5129271388e+00 
63400 6.0895673234e+00 4.5169758202e-04 2.6055310133e+00 -4.5129120958e+00 2.6055310133e+00 4.5129120958e+00 
63500 6.0895695710e+00 4.5074394833e-04 2.6055223453e+00 -4.5128970823e+00 2.6055223453e+00 4.5128970823e+00 
63600 6.0895718032e+00 4.4972669229e-04 2.6055136955e+00 -4.5128821005e+00 2.6055136955e+00 4.5128821005e+00 
63700 6.0895740196e+00 4.4864672958e-04 2.6055050652e+00 -4.5128671524e+00 2.6055050652e+00 4.5128671524e+00 
63800 6.0895762201e+00 4.4750497704e-04 2.6054964557e+00 -4.5128522401e+00 2.6054964557e+00 4.5128522401e+00 
63900 6.0895784044e+00 4.4630235308e-04 2.6054878679e+00 -4.5128373658e+00 2.6054878679e+00 4.5128373658e+00 
64000 6.0895805723e+00 4.4503977812e-04 2.6054793033e+00 -4.5128225314e+00 2.6054793033e+00 4.5128225314e+00 
64100 6.0895827235e+00 4.4371817499e-04 2.6054707628e+00 -4.5128077389e+00 2.6054707628e+00 4.5128077389e+00 
64200 6.0895848579e+00 4.4233846939e-04 2.6054622477e+00 -4.5127929902e+00 2.6054622477e+00 4.5127929902e+00 
64300 6.0895869752e+00 4.4090159016e-04 2.6054537590e+00 -4.5127782874e+00 2.6054537590e+00 4.5127782874e+00 
64400 6.0895890754e+00 4.3940846972e-04 2.6054452979e+00 -4.5127636323e+00 2.6054452979e+00 4.5127636323e+00 
64500 6.0895911582e+00 4.3786004434e-04 2.6054368654e+00 -4.5127490268e+00 2.6054368654e+00 4.5127490268e+00 
64600 6.0895932234e+00 4.3625725450e-04 2.6054284626e+00 -4.5127344727e+00 2.6054284626e+00 4.5127344727e+00 
64700 6.0895952710e+00 4.3460104510e-04 2.6054200905e+00 -4.5127199719e+00 2.6054200905e+00 4.5127199719e+00 
64800 6.0895973008e+00 4.3289236579e-04 2.6054117502e+00 -4.5127055260e+00 2.6054117502e+00 4.5127055260e+00 
64900 6.0895993128e+00 4.3113217114e-04 2.6054034427e+00 -4.5126911369e+00 2.6054034427e+00 4.5126911369e+00 
65000 6.0896013067e+00 4.2932142089e-04 2.6053951689e+00 -4.5126768063e+00 2.6053951689e+00 4.5126768063e+00 
65100 6.0896032825e+00 4.2746108008e-04 2.6053869298e+00 -4.5126625357e+00 2.6053869298e+00 4.5126625357e+00 
65200 6.0896052401e+00 4.2555211923e-04 2.6053787264e+00 -4.5126483270e+00 2.6053787264e+00 4.5126483270e+00 
65300 6.0896071794e+00 4.2359551447e-04 2.6053705596e+00 -4.5126341817e+00 2.6053705596e+00 4.5126341817e+00 
65400 6.0896091003e+00 4.2159224760e-04 2.6053624303e+00 -4.5126201014e+00 2.6053624303e+00 4.5126201014e+00 
65500 6.0896110029e+00 4.1954330619e-04 2.6053543395e+00 -4.5126060876e+00 2.6053543395e+00 4.5126060876e+00 
65600 6.0896128869e+00 4.1744968359e-04 2.6053462879e+00 -4.5125921419e+00 2.6053462879e+00 4.5125921419e+00 
65700 6.0896147525e+00 4.1531237894e-04 2.6053382765e+00 -4.5125782658e+00 2.6053382765e+00 4.5125782658e+00 
65800 6.0896165994e+00 4.1313239722e-04 2.6053303061e+00 -4.5125644606e+00 2.6053303061e+00 4.5125644606e+00 
65900 6.0896184278e+00 4.1091074910e-04 2.6053223775e+00 -4.5125507279e+00 2.6053223775e+00 4.5125507279e+00 
66000 6.0896202375e+00 4.0864845096e-04 2.6053144915e+00 -4.5125370690e+00 2.6053144915e+00 4.5125370690e+00 
66100 6.0896220285e+00 4.0634652472e-04 2.6053066489e+00 -4.5125234852e+00 2.6053066489e+00 4.5125234852e+00 
66200 6.0896238009e+00 4.0400599780e-04 2.6052988505e+00 -4.5125099779e+00 2.6052988505e+00 4.5125099779e+00 
66300 6.0896255546e+00 4.0162790288e-04 2.6052910969e+00 -4.5124965484e+00 2.6052910969e+00 4.5124965484e+00 
66400 6.0896272897e+00 3.9921327779e-04 2.6052833890e+00 -4.5124831979e+00 2.6052833890e+00 4.5124831979e+00 
66500 6.0896290060e+00 3.9676316531e-04 2.6052757274e+00 -4.5124699276e+00 2.6052757274e+00 4.5124699276e+00 
66600 6.0896307037e+00 3.9427861288e-04 2.6052681128e+00 -4.5124567387e+00 2.6052681128e+00 4.5124567387e+00 
66700 6.0896323827e+00 3.9176067246e-04 2.6052605459e+00 -4.5124436324e+00 2.6052605459e+00 4.5124436324e+00 
66800 6.0896340431e+00 3.8921040015e-04 2.6052530272e+00 -4.5124306097e+00 2.6052530272e+00 4.5124306097e+00 
66900 6.0896356849e+00 3.8662885599e-04 2.6052455575e+00 -4.5124176718e+00 2.6052455575e+00 4.5124176718e+00 
67000 6.0896373082e+00 3.8401710360e-04 2.6052381373e+00 -4.5124048196e+00 2.6052381373e+00 4.5124048196e+00 
67100 6.0896389129e+00 3.8137620988e-04 2.6052307672e+00 -4.5123920543e+00 2.6052307672e+00 4.5123920543e+00 
67200 6.0896404991e+00 3.7870724460e-04 2.6052234478e+00 -4.5123793766e+00 2.6052234478e+00 4.5123793766e+00 
67300 6.0896420668e+00 3.7601128013e-04 2.6052161796e+00 -4.5123667877e+00 2.6052161796e+00 4.5123667877e+00 
67400 6.0896436162e+00 3.7328939095e-04 2.6052089631e+00 -4.5123542883e+00 2.6052089631e+00 4.5123542883e+00 
67500 6.0896451472e+00 3.7054265332e-04 2.6052017988e+00 -4.5123418794e+00 2.6052017988e+00 4.5123418794e+00 
67600 6.0896466600e+00 3.6777214484e-04 2.6051946872e+00 -4.5123295618e+00 2.6051946872e+00 4.5123295618e+00 
67700 6.0896481545e+00 3.6497894399e-04 2.6051876287e+00 -4.5123173362e+00 2.6051876287e+00 4.5123173362e+00 
67800 6.0896496309e+00 3.6216412974e-04 2.6051806239e+00 -4.5123052035e+00 2.6051806239e+00 4.5123052035e+00 
67900 6.0896510893e+00 3.5932878105e-04 2.6051736731e+00 -4.5122931643e+00 2.6051736731e+00 4.5122931643e+00 
68000 6.0896525297e+00 3.5647397641e-04 2.6051667766e+00 -4.5122812193e+00 2.6051667766e+00 4.5122812193e+00 
68100 6.0896539521e+00 3.5360079336e-04 2.6051599349e+00 -4.5122693692e+00 2.6051599349e+00 4.5122693692e+00 
68200 6.0896553568e+00 3.5071030802e-04 2.6051531484e+00 -4.5122576145e+00 2.6051531484e+00 4.5122576145e+00 
68300 6.0896567437e+00 3.4780359455e-04 2.6051464173e+00 -4.5122459559e+00 2.6051464173e+00 4.5122459559e+00 
68400 6.0896581130e+00 3.4488172470e-04 2.6051397420e+00 -4.5122343940e+00 2.6051397420e+00 4.5122343940e+00 
68500 6.0896594648e+00 3.4194576724e-04 2.6051331227e+00 -4.5122229291e+00 2.6051331227e+00 4.5122229291e+00 
68600 6.0896607992e+00 3.3899678749e-04 2.6051265598e+00 -4.5122115618e+00 2.6051265598e+00 4.5122115618e+00 
68700 6.0896621162e+00 3.3603584679e-04 2.6051200535e+00 -4.5122002925e+00 2.6051200535e+00 4.5122002925e+00 
68800 6.0896634160e+00 3.3306400195e-04 2.6051136040e+00 -4.5121891215e+00 2.6051136040e+00 4.5121891215e+00 
68900 6.0896646988e+00 3.3008230476e-04 2.6051072115e+00 -4.5121780494e+00 2.6051072115e+00 4.5121780494e+00 
69000 6.0896659645e+00 3.2709180143e-04 2.6051008762e+00 -4.5121670764e+00 2.6051008762e+00 4.5121670764e+00 
69100 6.0896672134e+00 3.2409353208e-04 2.6050945983e+00 -4.5121562027e+00 2.6050945983e+00 4.5121562027e+00 
69200 6.0896684455e+00 3.2108853021e-04 2.6050883779e+00 -4.5121454287e+00 2.6050883779e+00 4.5121454287e+00 
69300 6.0896696609e+00 3.1807782218e-04 2.6050822152e+00 -4.5121347546e+00 2.6050822152e+00 4.5121347546e+00 
69400 6.0896708599e+00 3.1506242668e-04 2.6050761102e+00 -4.5121241805e+00 2.6050761102e+00 4.5121241805e+00 
69500 6.0896720425e+00 3.1204335419e-04 2.6050700631e+00 -4.5121137066e+00 2.6050700631e+00 4.5121137066e+00 
69600 6.0896732088e+00 3.0902160652e-04 2.6050640740e+00 -4.5121033331e+00 2.6050640740e+00 4.5121033331e+00 
69700 6.0896743591e+00 3.0599817624e-04 2.6050581428e+00 -4.5120930600e+00 2.6050581428e+00 4.5120930600e+00 
69800 6.0896754933e+00 3.0297404619e-04 2.6050522697e+00 -4.5120828874e+00 2.6050522697e+00 4.5120828874e+00 
69900 6.0896766117e+00 2.9995018902e-04 2.6050464545e+00 -4.5120728153e+00 2.6050464545e+00 4.5120728153e+00 
70000 6.0896777144e+00 2.9692756664e-04 2.6050406974e+00 -4.5120628438e+00 2.6050406974e+00 4.5120628438e+00 
70100 6.0896788015e+00 2.9390712979e-04 2.6050349984e+00 -4.5120529726e+00 2.6050349984e+00 4.5120529726e+00 
70200 6.0896798731e+00 2.9088981753e-04 2.6050293572e+00 -4.5120432019e+00 2.6050293572e+00 4.5120432019e+00 
70300 6.0896809295e+00 2.8787655679e-04 2.6050237740e+00 -4.5120335315e+00 2.6050237740e+00 4.5120335315e+00 
70400 6.0896819707e+00 2.8486826191e-04 2.6050182486e+00 -4.5120239612e+00 2.6050182486e+00 4.5120239612e+00 
70500 6.0896829970e+00 2.8186583422e-04 2.6050127809e+00 -4.5120144909e+00 2.6050127809e+00 4.5120144909e+00 
70600 6.0896840083e+00 2.7887016156e-04 2.6050073708e+00 -4.5120051204e+00 2.6050073708e+00 4.5120051204e+00 
70700 6.0896850050e+00 2.7588211791e-04 2.6050020183e+00 -4.5119958494e+00 2.6050020183e+00 4.5119958494e+00 
70800 6.0896859871e+00 2.7290256296e-04 2.6049967230e+00 -4.5119866778e+00 2.6049967230e+00 4.5119866778e+00 
70900 6.0896869547e+00 2.6993234170e-04 2.6049914850e+00 -4.5119776052e+00 2.6049914850e+00 4.5119776052e+00 
71000 6.0896879081e+00 2.6697228406e-04 2.6049863039e+00 -4.5119686314e+00 2.6049863039e+00 4.5119686314e+00 
71100 6.0896888474e+00 2.6402320456e-04 2.6049811796e+00 -4.5119597559e+00 2.6049811796e+00 4.5119597559e+00 
71200 6.0896897727e+00 2.6108590190e-04 2.6049761120e+00 -4.5119509785e+00 2.6049761120e+00 4.5119509785e+00 
71300 6.0896906842e+00 2.5816115869e-04 2.6049711007e+00 -4.5119422987e+00 2.6049711007e+00 4.5119422987e+00 
71400 6.0896915821e+00 2.5524974106e-04 2.6049661455e+00 -4.5119337161e+00 2.6049661455e+00 4.5119337161e+00 
71500 6.0896924664e+00 2.5235239840e-04 2.6049612462e+00 -4.5119252302e+00 2.6049612462e+00 4.5119252302e+00 
71600 6.0896933373e+00 2.4946986306e-04 2.6049564026e+00 -4.5119168407e+00 2.6049564026e+00 4.5119168407e+00 
71700 6.0896941951e+00 2.4660285004e-04 2.6049516142e+00 -4.5119085470e+00 2.6049516142e+00 4.5119085470e+00 
71800 6.0896950397e+00 2.4375205677e-04 2.6049468808e+00 -4.5119003486e+00 2.6049468808e+00 4.5119003486e+00 
71900 6.0896958715e+00 2.4091816286e-04 2.6049422022e+00 -4.5118922450e+00 2.6049422022e+00 4.5118922450e+00 
72000 6.0896966905e+00 2.3810182985e-04 2.6049375780e+00 -4.5118842356e+00 2.6049375780e+00 4.5118842356e+00 
72100 6.0896974969e+00 2.3530370099e-04 2.6049330078e+00 -4.5118763198e+00 2.6049330078e+00 4.5118763198e+00 
72200 6.0896982908e+00 2.3252440109e-04 2.6049284913e+00 -4.5118684969e+00 2.6049284913e+00 4.5118684969e+00 
72300 6.0896990725e+00 2.2976453632e-04 2.6049240281e+00 -4.5118607665e+00 2.6049240281e+00 4.5118607665e+00 
72400 6.0896998419e+00 2.2702469403e-04 2.6049196179e+00 -4.5118531278e+00 2.6049196179e+00 4.5118531278e+00 
72500 6.0897005994e+00 2.2430544263e-04 2.6049152603e+00 -4.5118455802e+00 2.6049152603e+00 4.5118455802e+00 
72600 6.0897013450e+00 2.2160733145e-04 2.6049109549e+00 -4.5118381230e+00 2.6049109549e+00 4.5118381230e+00 
72700 6.0897020789e+00 2.1893089062e-04 2.6049067012e+00 -4.5118307555e+00 2.6049067012e+00 4.5118307555e+00 
72800 6.0897028012e+00 2.1627663101e-04 2.6049024989e+00 -4.5118234769e+00 2.6049024989e+00 4.5118234769e+00 
72900 6.0897035121e+00 2.1364504411e-04 2.6048983476e+00 -4.5118162866e+00 2.6048983476e+00 4.5118162866e+00 
73000 6.0897042117e+00 2.1103660201e-04 2.6048942468e+00 -4.5118091838e+00 2.6048942468e+00 4.5118091838e+00 
73100 6.0897049002e+00 2.0845175731e-04 2.6048901960e+00 -4.5118021676e+00 2.6048901960e+00 4.5118021676e+00 
73200 6.0897055777e+00 2.0589094313e-04 2.6048861948e+00 -4.5117952374e+00 2.6048861948e+00 4.5117952374e+00 
73300 6.0897062444e+00 2.0335457309e-04 2.6048822428e+00 -4.5117883923e+00 2.6048822428e+00 4.5117883923e+00 
73400 6.0897069004e+00 2.0084304130e-04 2.6048783395e+00 -4.5117816315e+00 2.6048783395e+00 4.5117816315e+00 
73500 6.0897075458e+00 1.9835672238e-04 2.6048744844e+00 -4.5117749543e+00 2.6048744844e+00 4.5117749543e+00 
73600 6.0897081809e+00 1.9589597150e-04 2.6048706769e+00 -4.5117683596e+00 2.6048706769e+00 4.5117683596e+00 
73700 6.0897088056e+00 1.9346112446e-04 2.6048669168e+00 -4.5117618468e+00 2.6048669168e+00 4.5117618468e+00 
73800 6.0897094202e+00 1.9105249769e-04 2.6048632033e+00 -4.5117554149e+00 2.6048632033e+00 4.5117554149e+00 
73900 6.0897100248e+00 1.8867038840e-04 2.6048595361e+00 -4.5117490631e+00 2.6048595361e+00 4.5117490631e+00 
74000 6.0897106196e+00 1.8631507462e-04 2.6048559146e+00 -4.5117427904e+00 2.6048559146e+00 4.5117427904e+00 
74100 6.0897112046e+00 1.8398681535e-04 2.6048523383e+00 -4.5117365961e+00 2.6048523383e+00 4.5117365961e+00 
74200 6.0897117800e+00 1.8168585063e-04 2.6048488067e+00 -4.5117304792e+00 2.6048488067e+00 4.5117304792e+00 
74300 6.0897123460e+00 1.7941240176e-04 2.6048453192e+00 -4.5117244387e+00 2.6048453192e+00 4.5117244387e+00 
74400 6.0897129026e+00 1.7716667135e-04 2.6048418754e+00 -4.5117184738e+00 2.6048418754e+00 4.5117184738e+00 
74500 6.0897134500e+00 1.7494884358e-04 2.6048384747e+00 -4.5117125836e+00 2.6048384747e+00 4.5117125836e+00 
74600 6.0897139884e+00 1.7275908428e-04 2.6048351165e+00 -4.5117067671e+00 2.6048351165e+00 4.5117067671e+00 
74700 6.0897145178e+00 1.7059754120e-04 2.6048318004e+00 -4.5117010235e+00 2.6048318004e+00 4.5117010235e+00 
74800 6.0897150384e+00 1.6846434415e-04 2.6048285258e+00 -4.5116953516e+00 2.6048285258e+00 4.5116953516e+00 
74900 6.0897155503e+00 1.6635960524e-04 2.6048252921e+00 -4.5116897507e+00 2.6048252921e+00 4.5116897507e+00 
75000 6.0897160537e+00 1.6428341911e-04 2.6048220988e+00 -4.5116842197e+00 2.6048220988e+00 4.5116842197e+00 
75100 6.0897165486e+00 1.6223586312e-04 2.6048189453e+00 -4.5116787578e+00 2.6048189453e+00 4.5116787578e+00 
75200 6.0897170351e+00 1.6021699763e-04 2.6048158312e+00 -4.5116733640e+00 2.6048158312e+00 4.5116733640e+00 
75300 6.0897175135e+00 1.5822686626e-04 2.6048127558e+00 -4.5116680372e+00 2.6048127558e+00 4.5116680372e+00 
75400 6.0897179838e+00 1.5626549609e-04 2.6048097186e+00 -4.5116627766e+00 2.6048097186e+00 4.5116627766e+00 
75500 6.0897184461e+00 1.5433289801e-04 2.6048067190e+00 -4.5116575812e+00 2.6048067190e+00 4.5116575812e+00 
75600 6.0897189006e+00 1.5242906694e-04 2.6048037566e+00 -4.5116524501e+00 2.6048037566e+00 4.5116524501e+00 
75700 6.0897193474e+00 1.5055398215e-04 2.6048008306e+00 -4.5116473823e+00 2.6048008306e+00 4.5116473823e+00 
75800 6.0897197865e+00 1.4870760754e-04 2.6047979407e+00 -4.5116423767e+00 2.6047979407e+00 4.5116423767e+00 
75900 6.0897202181e+00 1.4688989193e-04 2.6047950862e+00 -4.5116374326e+00 2.6047950862e+00 4.5116374326e+00 
76000 6.0897206423e+00 1.4510076942e-04 2.6047922666e+00 -4.5116325489e+00 2.6047922666e+00 4.5116325489e+00 
76100 6.0897210593e+00 1.4334015963e-04 2.6047894813e+00 -4.5116277247e+00 2.6047894813e+00 4.5116277247e+00 
76200 6.0897214690e+00 1.4160796809e-04 2.6047867299e+00 -4.5116229590e+00 2.6047867299e+00 4.5116229590e+00 
76300 6.0897218717e+00 1.3990408654e-04 2.6047840116e+00 -4.5116182509e+00 2.6047840116e+00 4.5116182509e+00 
76400 6.0897222674e+00 1.3822839323e-04 2.6047813261e+00 -4.5116135994e+00 2.6047813261e+00 4.5116135994e+00 
76500 6.0897226563e+00 1.3658075334e-04 2.6047786728e+00 -4.5116090037e+00 2.6047786728e+00 4.5116090037e+00 
76600 6.0897230384e+00 1.3496101922e-04 2.6047760510e+00 -4.5116044627e+00 2.6047760510e+00 4.5116044627e+00 
76700 6.0897234138e+00 1.3336903083e-04 2.6047734604e+00 -4.5115999756e+00 2.6047734604e+00 4.5115999756e+00 
76800 6.0897237827e+00 1.3180461603e-04 2.6047709003e+00 -4.5115955414e+00 2.6047709003e+00 4.5115955414e+00 
76900 6.0897241451e+00 1.3026759094e-04 2.6047683702e+00 -4.5115911592e+00 2.6047683702e+00 4.5115911592e+00 
77000 6.0897245012e+00 1.2875776033e-04 2.6047658697e+00 -4.5115868281e+00 2.6047658697e+00 4.5115868281e+00 
77100 6.0897248510e+00 1.2727491793e-04 2.6047633981e+00 -4.5115825472e+00 2.6047633981e+00 4.5115825472e+00 
77200 6.0897251947e+00 1.2581884685e-04 2.6047609550e+00 -4.5115783156e+00 2.6047609550e+00 4.5115783156e+00 
77300 6.0897255323e+00 1.2438931986e-04 2.6047585398e+00 -4.5115741324e+00 2.6047585398e+00 4.5115741324e+00 
77400 6.0897258639e+00 1.2298609983e-04 2.6047561521e+00 -4.5115699967e+00 2.6047561521e+00 4.5115699967e+00 
77500 6.0897261896e+00 1.2160894007e-04 2.6047537913e+00 -4.5115659077e+00 2.6047537913e+00 4.5115659077e+00 
77600 6.0897265095e+00 1.2025758467e-04 2.6047514569e+00 -4.5115618645e+00 2.6047514569e+00 4.5115618645e+00 
77700 6.0897268237e+00 1.1893176889e-04 2.6047491485e+00 -4.5115578661e+00 2.6047491485e+00 4.5115578661e+00 
77800 6.0897271324e+00 1.1763121953e-04 2.6047468655e+00 -4.5115539119e+00 2.6047468655e+00 4.5115539119e+00 
77900 6.0897274355e+00 1.1635565528e-04 2.6047446075e+00 -4.5115500009e+00 2.6047446075e+00 4.5115500009e+00 
78000 6.0897277331e+00 1.1510478709e-04 2.6047423740e+00 -4.5115461323e+00 2.6047423740e+00 4.5115461323e+00 
78100 6.0897280254e+00 1.1387831852e-04 2.6047401644e+00 -4.5115423053e+00 2.6047401644e+00 4.5115423053e+00 
78200 6.0897283124e+00 1.1267594613e-04 2.6047379784e+00 -4.5115385191e+00 2.6047379784e+00 4.5115385191e+00 
78300 6.0897285943e+00 1.1149735981e-04 2.6047358155e+00 -4.5115347728e+00 2.6047358155e+00 4.5115347728e+00 
78400 6.0897288710e+00 1.1034224317e-04 2.6047336753e+00 -4.5115310657e+00 2.6047336753e+00 4.5115310657e+00 
78500 6.0897291427e+00 1.0921027386e-04 2.6047315572e+00 -4.5115273971e+00 2.6047315572e+00 4.5115273971e+00 
78600 6.0897294095e+00 1.0810112395e-04 2.6047294608e+00 -4.5115237660e+00 2.6047294608e+00 4.5115237660e+00 
78700 6.0897296714e+00 1.0701446026e-04 2.6047273857e+00 -4.5115201719e+00 2.6047273857e+00 4.5115201719e+00 
78800 6.0897299285e+00 1.0594994473e-04 2.6047253314e+00 -4.5115166138e+00 2.6047253314e+00 4.5115166138e+00 
78900 6.0897301810e+00 1.0490723476e-04 2.6047232976e+00 -4.5115130912e+00 2.6047232976e+00 4.5115130912e+00 
79000 6.0897304287e+00 1.0388598353e-04 2.6047212839e+00 -4.5115096032e+00 2.6047212839e+00 4.5115096032e+00 
79100 6.0897306720e+00 1.0288584035e-04 2.6047192897e+00 -4.5115061492e+00 2.6047192897e+00 4.5115061492e+00 
79200 6.0897309107e+00 1.0190645101e-04 2.6047173147e+00 -4.5115027284e+00 2.6047173147e+00 4.5115027284e+00 
79300 6.0897311450e+00 1.0094745808e-04 2.6047153585e+00 -4.5114993402e+00 2.6047153585e+00 4.5114993402e+00 
79400 6.0897313750e+00 1.0000850124e-04 2.6047134207e+00 -4.5114959838e+00 2.6047134207e+00 4.5114959838e+00 
79500 6.0897316007e+00 9.9089217620e-05 2.6047115009e+00 -4.5114926587e+00 2.6047115009e+00 4.5114926587e+00 
79600 6.0897318223e+00 9.8189242108e-05 2.6047095988e+00 -4.5114893641e+00 2.6047095988e+00 4.5114893641e+00 
79700 6.0897320397e+00 9.7308207637e-05 2.6047077140e+00 -4.5114860995e+00 2.6047077140e+00 4.5114860995e+00 
79800 6.0897322530e+00 9.6445745520e-05 2.6047058461e+00 -4.5114828641e+00 2.6047058461e+00 4.5114828641e+00 
79900 6.0897324623e+00 9.5601485730e-05 2.6047039947e+00 -4.5114796575e+00 2.6047039947e+00 4.5114796575e+00 
80000 6.0897326677e+00 9.4775057206e-05 2.6047021595e+00 -4.5114764789e+00 2.6047021595e+00 4.5114764789e+00 
80100 6.0897328693e+00 9.3966088130e-05 2.6047003402e+00 -4.5114733277e+00 2.6047003402e+00 4.5114733277e+00 
80200 6.0897330670e+00 9.3174206226e-05 2.6046985364e+00 -4.5114702035e+00 2.6046985364e+00 4.5114702035e+00 
80300 6.0897332610e+00 9.2399039021e-05 2.6046967479e+00 -4.5114671056e+00 2.6046967479e+00 4.5114671056e+00 
80400 6.0897334513e+00 9.1640214127e-05 2.6046949742e+00 -4.5114640334e+00 2.6046949742e+00 4.5114640334e+00 
80500 6.0897336380e+00 9.0897359503e-05 2.6046932150e+00 -4.5114609865e+00 2.6046932150e+00 4.5114609865e+00 
80600 6.0897338212e+00 9.0170103712e-05 2.6046914701e+00 -4.5114579643e+00 2.6046914701e+00 4.5114579643e+00 
80700 6.0897340009e+00 8.9458076180e-05 2.6046897392e+00 -4.5114549663e+00 2.6046897392e+00 4.5114549663e+00 
80800 6.0897341771e+00 8.8760907429e-05 2.6046880220e+00 -4.5114519919e+00 2.6046880220e+00 4.5114519919e+00 
80900 6.0897343500e+00 8.8078229337e-05 2.6046863181e+00 -4.5114490407e+00 2.6046863181e+00 4.5114490407e+00 
81000 6.0897345195e+00 8.7409675357e-05 2.6046846273e+00 -4.5114461122e+00 2.6046846273e+00 4.5114461122e+00 
81100 6.0897346858e+00 8.6754880743e-05 2.6046829494e+00 -4.5114432060e+00 2.6046829494e+00 4.5114432060e+00 
81200 6.0897348489e+00 8.6113482785e-05 2.6046812840e+00 -4.5114403215e+00 2.6046812840e+00 4.5114403215e+00 
81300 6.0897350088e+00 8.5485121006e-05 2.6046796310e+00 -4.5114374583e+00 2.6046796310e+00 4.5114374583e+00 
81400 6.0897351657e+00 8.4869437380e-05 2.6046779900e+00 -4.5114346160e+00 2.6046779900e+00 4.5114346160e+00 
81500 6.0897353195e+00 8.4266076535e-05 2.6046763608e+00 -4.5114317942e+00 2.6046763608e+00 4.5114317942e+00 
81600 6.0897354703e+00 8.3674685933e-05 2.6046747432e+00 -4.5114289925e+00 2.6046747432e+00 4.5114289925e+00 
81700 6.0897356182e+00 8.3094916077e-05 2.6046731370e+00 -4.5114262104e+00 2.6046731370e+00 4.5114262104e+00 
81800 6.0897357632e+00 8.2526420667e-05 2.6046715419e+00 -4.5114234476e+00 2.6046715419e+00 4.5114234476e+00 
81900 6.0897359053e+00 8.1968856799e-05 2.6046699577e+00 -4.5114207037e+00 2.6046699577e+00 4.5114207037e+00 
82000 6.0897360447e+00 8.1421885120e-05 2.6046683842e+00 -4.5114179783e+00 2.6046683842e+00 4.5114179783e+00 
82100 6.0897361813e+00 8.0885169980e-05 2.6046668212e+00 -4.5114152711e+00 2.6046668212e+00 4.5114152711e+00 
82200 6.0897363152e+00 8.0358379604e-05 2.6046652685e+00 -4.5114125817e+00 2.6046652685e+00 4.5114125817e+00 
82300 6.0897364465e+00 7.9841186228e-05 2.6046637259e+00 -4.5114099099e+00 2.6046637259e+00 4.5114099099e+00 
82400 6.0897365752e+00 7.9333266241e-05 2.6046621932e+00 -4.5114072553e+00 2.6046621932e+00 4.5114072553e+00 
82500 6.0897367014e+00 7.8834300320e-05 2.6046606703e+00 -4.5114046175e+00 2.6046606703e+00 4.5114046175e+00 
82600 6.0897368250e+00 7.8343973559e-05 2.6046591570e+00 -4.5114019963e+00 2.6046591570e+00 4.5114019963e+00 
82700 6.0897369462e+00 7.7861975582e-05 2.6046576531e+00 -4.5113993915e+00 2.6046576531e+00 4.5113993915e+00 
82800 6.0897370650e+00 7.7388000665e-05 2.6046561584e+00 -4.5113968026e+00 2.6046561584e+00 4.5113968026e+00 
82900 6.0897371814e+00 7.6921747844e-05 2.6046546728e+00 -4.5113942295e+00 2.6046546728e+00 4.5113942295e+00 
83000 6.0897372954e+00 7.6462921017e-05 2.6046531962e+00 -4.5113916720e+00 2.6046531962e+00 4.5113916720e+00 
83100 6.0897374072e+00 7.6011229029e-05 2.6046517284e+00 -4.5113891296e+00 2.6046517284e+00 4.5113891296e+00 
83200 6.0897375168e+00 7.5566385774e-05 2.6046502693e+00 -4.5113866023e+00 2.6046502693e+00 4.5113866023e+00 
83300 6.0897376241e+00 7.5128110275e-05 2.6046488187e+00 -4.5113840898e+00 2.6046488187e+00 4.5113840898e+00 
83400 6.0897377293e+00 7.4696126752e-05 2.6046473765e+00 -4.5113815919e+00 2.6046473765e+00 4.5113815919e+00 
83500 6.0897378323e+00 7.4270164699e-05 2.6046459426e+00 -4.5113791083e+00 2.6046459426e+00 4.5113791083e+00 
83600 6.0897379332e+00 7.3849958960e-05 2.6046445168e+00 -4.5113766388e+00 2.6046445168e+00 4.5113766388e+00 
83700 6.0897380321e+00 7.3435249765e-05 2.6046430992e+00 -4.5113741834e+00 2.6046430992e+00 4.5113741834e+00 
83800 6.0897381290e+00 7.3025782803e-05 2.6046416895e+00 -4.5113717417e+00 2.6046416895e+00 4.5113717417e+00 
83900 6.0897382240e+00 7.2621309259e-05 2.6046402877e+00 -4.5113693137e+00 2.6046402877e+00 4.5113693137e+00 
84000 6.0897383169e+00 7.2221585863e-05 2.6046388936e+00 -4.5113668990e+00 2.6046388936e+00 4.5113668990e+00 
84100 6.0897384080e+00 7.1826374924e-05 2.6046375072e+00 -4.5113644977e+00 2.6046375072e+00 4.5113644977e+00 
84200 6.0897384972e+00 7.1435444352e-05 2.6046361284e+00 -4.5113621095e+00 2.6046361284e+00 4.5113621095e+00 
84300 6.0897385846e+00 7.1048567699e-05 2.6046347570e+00 -4.5113597344e+00 2.6046347570e+00 4.5113597344e+00 
84400 6.0897386702e+00 7.0665524180e-05 2.6046333932e+00 -4.5113573720e+00 2.6046333932e+00 4.5113573720e+00 
84500 6.0897387541e+00 7.1469998216e-05 2.6046333932e+00 -4.5113573720e+00 2.6046333932e+00 4.5113573720e+00 
84600 6.0897388361e+00 7.1088202977e-05 2.6046320212e+00 -4.5113549957e+00 2.6046320212e+00 4.5113549957e+00 
84700 6.0897389165e+00 7.0709471369e-05 2.6046306565e+00 -4.5113526321e+00 2.6046306565e+00 4.5113526321e+00 
84800 6.0897389953e+00 7.1518230615e-05 2.6046306565e+00 -4.5113526321e+00 2.6046306565e+00 4.5113526321e+00 
84900 6.0897390724e+00 7.1139221789e-05 2.6046292836e+00 -4.5113502541e+00 2.6046292836e+00 4.5113502541e+00 
85000 6.0897391479e+00 7.0762526234e-05 2.6046279180e+00 -4.5113478888e+00 2.6046279180e+00 4.5113478888e+00 
85100 6.0897392218e+00 7.0387942719e-05 2.6046265596e+00 -4.5113455360e+00 2.6046265596e+00 4.5113455360e+00 
85200 6.0897392942e+00 7.1194531395e-05 2.6046265596e+00 -4.5113455360e+00 2.6046265596e+00 4.5113455360e+00 
85300 6.0897393651e+00 7.0817844440e-05 2.6046251929e+00 -4.5113431688e+00 2.6046251929e+00 4.5113431688e+00 
85400 6.0897394344e+00 7.0442572084e-05 2.6046238334e+00 -4.5113408141e+00 2.6046238334e+00 4.5113408141e+00 
85500 6.0897395024e+00 7.1248702933e-05 2.6046238334e+00 -4.5113408141e+00 2.6046238334e+00 4.5113408141e+00 
85600 6.0897395688e+00 7.0869962501e-05 2.6046224657e+00 -4.5113384451e+00 2.6046224657e+00 4.5113384451e+00 
85700 6.0897396339e+00 7.0491975328e-05 2.6046211052e+00 -4.5113360887e+00 2.6046211052e+00 4.5113360887e+00 
85800 6.0897396977e+00 7.1295573574e-05 2.6046211052e+00 -4.5113360887e+00 2.6046211052e+00 4.5113360887e+00 
85900 6.0897397600e+00 7.0912833233e-05 2.6046197366e+00 -4.5113337182e+00 2.6046197366e+00 4.5113337182e+00 
86000 6.0897398210e+00 7.0530227542e-05 2.6046183753e+00 -4.5113313604e+00 2.6046183753e+00 4.5113313604e+00 
86100 6.0897398808e+00 7.1329247585e-05 2.6046183753e+00 -4.5113313604e+00 2.6046183753e+00 4.5113313604e+00 
86200 6.0897399393e+00 7.0940695590e-05 2.6046170060e+00 -4.5113289887e+00 2.6046170060e+00 4.5113289887e+00 
86300 6.0897399965e+00 7.0551707706e-05 2.6046156442e+00 -4.5113266299e+00 2.6046156442e+00 4.5113266299e+00 
86400 6.0897400526e+00 7.1344154699e-05 2.6046156442e+00 -4.5113266299e+00 2.6046156442e+00 4.5113266299e+00 
86500 6.0897401074e+00 7.0948129227e-05 2.6046142746e+00 -4.5113242578e+00 2.6046142746e+00 4.5113242578e+00 
86600 6.0897401610e+00 7.0551149538e-05 2.6046129127e+00 -4.5113218988e+00 2.6046129127e+00 4.5113218988e+00 
86700 6.0897402135e+00 7.1335098179e-05 2.6046129127e+00 -4.5113218988e+00 2.6046129127e+00 4.5113218988e+00 
86800 6.0897402648e+00 7.0930099013e-05 2.6046115433e+00 -4.5113195269e+00 2.6046115433e+00 4.5113195269e+00 
86900 6.0897403151e+00 7.0523682529e-05 2.6046101816e+00 -4.5113171685e+00 2.6046101816e+00 4.5113171685e+00 
87000 6.0897403643e+00 7.1297293205e-05 2.6046101816e+00 -4.5113171685e+00 2.6046101816e+00 4.5113171685e+00 
87100 6.0897404124e+00 7.0881990184e-05 2.6046088130e+00 -4.5113147979e+00 2.6046088130e+00 4.5113147979e+00 
87200 6.0897404594e+00 7.0464863980e-05 2.6046074523e+00 -4.5113124411e+00 2.6046074523e+00 4.5113124411e+00 
87300 6.0897405055e+00 7.1226396383e-05 2.6046074523e+00 -4.5113124411e+00 2.6046074523e+00 4.5113124411e+00 
87400 6.0897405505e+00 7.0799634854e-05 2.6046060849e+00 -4.5113100728e+00 2.6046060849e+00 4.5113100728e+00 
87500 6.0897405945e+00 7.0370702638e-05 2.6046047258e+00 -4.5113077188e+00 2.6046047258e+00 4.5113077188e+00 
87600 6.0897406377e+00 7.1118527007e-05 2.6046047258e+00 -4.5113077188e+00 2.6046047258e+00 4.5113077188e+00 
87700 6.0897406798e+00 7.0679330637e-05 2.6046033606e+00 -4.5113053541e+00 2.6046033606e+00 4.5113053541e+00 
87800 6.0897407211e+00 7.1421834240e-05 2.6046033606e+00 -4.5113053541e+00 2.6046033606e+00 4.5113053541e+00 
87900 6.0897407614e+00 7.0971899391e-05 2.6046019895e+00 -4.5113029793e+00 2.6046019895e+00 4.5113029793e+00 
88000 6.0897408008e+00 7.0519293005e-05 2.6046006271e+00 -4.5113006195e+00 2.6046006271e+00 4.5113006195e+00 
88100 6.0897408395e+00 7.1245465796e-05 2.6046006271e+00 -4.5113006195e+00 2.6046006271e+00 4.5113006195e+00 
88200 6.0897408772e+00 7.0781667423e-05 2.6045992594e+00 -4.5112982506e+00 2.6045992594e+00 4.5112982506e+00 
88300 6.0897409140e+00 7.0314994651e-05 2.6045979006e+00 -4.5112958971e+00 2.6045979006e+00 4.5112958971e+00 
88400 6.0897409502e+00 7.1023499131e-05 2.6045979006e+00 -4.5112958971e+00 2.6045979006e+00 4.5112958971e+00 
88500 6.0897409854e+00 7.0545304477e-05 2.6045965372e+00 -4.5112935356e+00 2.6045965372e+00 4.5112935356e+00 
88600 6.0897410200e+00 7.1246015257e-05 2.6045965372e+00 -4.5112935356e+00 2.6045965372e+00 4.5112935356e+00 
88700 6.0897410537e+00 7.0756023812e-05 2.6045951695e+00 -4.5112911667e+00 2.6045951695e+00 4.5112911667e+00 
88800 6.0897410867e+00 7.0262898296e-05 2.6045938112e+00 -4.5112888141e+00 2.6045938112e+00 4.5112888141e+00 
88900 6.0897411190e+00 7.0943851110e-05 2.6045938112e+00 -4.5112888141e+00 2.6045938112e+00 4.5112888141e+00 
89000 6.0897411505e+00 7.0438771516e-05 2.6045924493e+00 -4.5112864552e+00 2.6045924493e+00 4.5112864552e+00 
89100 6.0897411814e+00 7.1110641541e-05 2.6045924493e+00 -4.5112864552e+00 2.6045924493e+00 4.5112864552e+00 
89200 6.0897412115e+00 7.0593447038e-05 2.6045910842e+00 -4.5112840908e+00 2.6045910842e+00 4.5112840908e+00 
89300 6.0897412410e+00 7.1255733937e-05 2.6045910842e+00 -4.5112840908e+00 2.6045910842e+00 4.5112840908e+00 
89400 6.0897412698e+00 7.0726296798e-05 2.6045897163e+00 -4.5112817215e+00 2.6045897163e+00 4.5112817215e+00 
89500 6.0897412979e+00 7.0193557316e-05 2.6045883586e+00 -4.5112793699e+00 2.6045883586e+00 4.5112793699e+00 
89600 6.0897413255e+00 7.0833609189e-05 2.6045883586e+00 -4.5112793699e+00 2.6045883586e+00 4.5112793699e+00 
89700 6.0897413524e+00 7.0288689142e-05 2.6045869988e+00 -4.5112770146e+00 2.6045869988e+00 4.5112770146e+00 
89800 6.0897413787e+00 7.0918148208e-05 2.6045869988e+00 -4.5112770146e+00 2.6045869988e+00 4.5112770146e+00 
89900 6.0897414044e+00 7.0361030874e-05 2.6045856374e+00 -4.5112746566e+00 2.6045856374e+00 4.5112746566e+00 
90000 6.0897414296e+00 7.0979512960e-05 2.6045856374e+00 -4.5112746566e+00 2.6045856374e+00 4.5112746566e+00 
90100 6.0897414541e+00 7.0410212194e-05 2.6045842748e+00 -4.5112722965e+00 2.6045842748e+00 4.5112722965e+00 
90200 6.0897414782e+00 7.1017357613e-05 2.6045842748e+00 -4.5112722965e+00 2.6045842748e+00 4.5112722965e+00 
90300 6.0897415016e+00 7.0435918053e-05 2.6045829115e+00 -4.5112699352e+00 2.6045829115e+00 4.5112699352e+00 
90400 6.0897415246e+00 7.1031392606e-05 2.6045829115e+00 -4.5112699352e+00 2.6045829115e+00 4.5112699352e+00 
90500 6.0897415470e+00 7.0437889644e-05 2.6045815479e+00 -4.5112675734e+00 2.6045815479e+00 4.5112675734e+00 
90600 6.0897415689e+00 7.1021385445e-05 2.6045815479e+00 -4.5112675734e+00 2.6045815479e+00 4.5112675734e+00 
90700 6.0897415903e+00 7.0415924992e-05 2.6045801845e+00 -4.5112652119e+00 2.6045801845e+00 4.5112652119e+00 
90800 6.0897416112e+00 7.0987161079e-05 2.6045801845e+00 -4.5112652119e+00 2.6045801845e+00 4.5112652119e+00 
90900 6.0897416316e+00 7.0369879128e-05 2.6045788218e+00 -4.5112628516e+00 2.6045788218e+00 4.5112628516e+00 
91000 6.0897416516e+00 7.0928601910e-05 2.6045788218e+00 -4.5112628516e+00 2.6045788218e+00 4.5112628516e+00 
91100 6.0897416711e+00 7.0299663955e-05 2.6045774602e+00 -4.5112604932e+00 2.6045774602e+00 4.5112604932e+00 
91200 6.0897416902e+00 7.0845647491e-05 2.6045774602e+00 -4.5112604932e+00 2.6045774602e+00 4.5112604932e+00 
91300 6.0897417088e+00 7.0205247762e-05 2.6045761001e+00 -4.5112581376e+00 2.6045761001e+00 4.5112581376e+00 
91400 6.0897417270e+00 7.0738293877e-05 2.6045761001e+00 -4.5112581376e+00 2.6045761001e+00 4.5112581376e+00 
91500 6.0897417447e+00 7.0086654455e-05 2.6045747422e+00 -4.5112557855e+00 2.6045747422e+00 4.5112557855e+00 
91600 6.0897417622e+00 7.0606592728e-05 2.6045747422e+00 -4.5112557855e+00 2.6045747422e+00 4.5112557855e+00 
91700 6.0897417792e+00 7.1126946216e-05 2.6045747422e+00 -4.5112557855e+00 2.6045747422e+00 4.5112557855e+00 
91800 6.0897417957e+00 7.0455976345e-05 2.6045733767e+00 -4.5112534206e+00 2.6045733767e+00 4.5112534206e+00 
91900 6.0897418119e+00 7.0962896791e-05 2.6045733767e+00 -4.5112534206e+00 2.6045733767e+00 4.5112534206e+00 
92000 6.0897418277e+00 7.0281154393e-05 2.6045720145e+00 -4.5112510610e+00 2.6045720145e+00 4.5112510610e+00 
92100 6.0897418432e+00 7.0774509186e-05 2.6045720145e+00 -4.5112510610e+00 2.6045720145e+00 4.5112510610e+00 
92200 6.0897418583e+00 7.0082282097e-05 2.6045706558e+00 -4.5112487078e+00 2.6045706558e+00 4.5112487078e+00 
92300 6.0897418730e+00 7.0561968635e-05 2.6045706558e+00 -4.5112487078e+00 2.6045706558e+00 4.5112487078e+00 
92400 6.0897418875e+00 7.1041813804e-05 2.6045706558e+00 -4.5112487078e+00 2.6045706558e+00 4.5112487078e+00 
92500 6.0897419015e+00 7.0331512383e-05 2.6045692920e+00 -4.5112463456e+00 2.6045692920e+00 4.5112463456e+00 
92600 6.0897419153e+00 7.0797468915e-05 2.6045692920e+00 -4.5112463456e+00 2.6045692920e+00 4.5112463456e+00 
92700 6.0897419287e+00 7.0077312181e-05 2.6045679329e+00 -4.5112439916e+00 2.6045679329e+00 4.5112439916e+00 
92800 6.0897419418e+00 7.0529318653e-05 2.6045679329e+00 -4.5112439916e+00 2.6045679329e+00 4.5112439916e+00 
92900 6.0897419547e+00 7.0981356849e-05 2.6045679329e+00 -4.5112439916e+00 2.6045679329e+00 4.5112439916e+00 
93000 6.0897419671e+00 7.0244138110e-05 2.6045665703e+00 -4.5112416314e+00 2.6045665703e+00 4.5112416314e+00 
93100 6.0897419794e+00 7.0682069787e-05 2.6045665703e+00 -4.5112416314e+00 2.6045665703e+00 4.5112416314e+00 
93200 6.0897419913e+00 7.1119975739e-05 2.6045665703e+00 -4.5112416314e+00 2.6045665703e+00 4.5112416314e+00 
93300 6.0897420030e+00 7.0366244647e-05 2.6045652050e+00 -4.5112392667e+00 2.6045652050e+00 4.5112392667e+00 
93400 6.0897420144e+00 7.0789907495e-05 2.6045652050e+00 -4.5112392667e+00 2.6045652050e+00 4.5112392667e+00 
93500 6.0897420255e+00 7.0027423474e-05 2.6045638460e+00 -4.5112369129e+00 2.6045638460e+00 4.5112369129e+00 
93600 6.0897420363e+00 7.0436840535e-05 2.6045638460e+00 -4.5112369129e+00 2.6045638460e+00 4.5112369129e+00 
93700 6.0897420470e+00 7.0846156963e-05 2.6045638460e+00 -4.5112369129e+00 2.6045638460e+00 4.5112369129e+00 
93800 6.0897420573e+00 7.0068353913e-05 2.6045624860e+00 -4.5112345572e+00 2.6045624860e+00 4.5112345572e+00 
93900 6.0897420674e+00 7.0463359139e-05 2.6045624860e+00 -4.5112345572e+00 2.6045624860e+00 4.5112345572e+00 
94000 6.0897420773e+00 7.0858239822e-05 2.6045624860e+00 -4.5112345572e+00 2.6045624860e+00 4.5112345572e+00 
94100 6.0897420869e+00 7.0065774873e-05 2.6045611257e+00 -4.5112322012e+00 2.6045611257e+00 4.5112322012e+00 
94200 6.0897420964e+00 7.0446301039e-05 2.6045611257e+00 -4.5112322012e+00 2.6045611257e+00 4.5112322012e+00 
94300 6.0897421056e+00 7.0826685909e-05 2.6045611257e+00 -4.5112322012e+00 2.6045611257e+00 4.5112322012e+00 
94400 6.0897421146e+00 7.0020237565e-05 2.6045597661e+00 -4.5112298462e+00 2.6045597661e+00 4.5112298462e+00 
94500 6.0897421234e+00 7.0386248457e-05 2.6045597661e+00 -4.5112298462e+00 2.6045597661e+00 4.5112298462e+00 
94600 6.0897421320e+00 7.0752109262e-05 2.6045597661e+00 -4.5112298462e+00 2.6045597661e+00 4.5112298462e+00 
94700 6.0897421403e+00 6.9932378271e-05 2.6045584078e+00 -4.5112274936e+00 2.6045584078e+00 4.5112274936e+00 
94800 6.0897421485e+00 7.0283870717e-05 2.6045584078e+00 -4.5112274936e+00 2.6045584078e+00 4.5112274936e+00 
94900 6.0897421565e+00 7.0635212794e-05 2.6045584078e+00 -4.5112274936e+00 2.6045584078e+00 4.5112274936e+00 
95000 6.0897421643e+00 7.0986410681e-05 2.6045584078e+00 -4.5112274936e+00 2.6045584078e+00 4.5112274936e+00 
95100 6.0897421719e+00 7.0148093657e-05 2.6045570451e+00 -4.5112251333e+00 2.6045570451e+00 4.5112251333e+00 
95200 6.0897421793e+00 7.0484884225e-05 2.6045570451e+00 -4.5112251333e+00 2.6045570451e+00 4.5112251333e+00 
95300 6.0897421866e+00 7.0821526804e-05 2.6045570451e+00 -4.5112251333e+00 2.6045570451e+00 4.5112251333e+00 
95400 6.0897421937e+00 6.9971414934e-05 2.6045556855e+00 -4.5112227785e+00 2.6045556855e+00 4.5112227785e+00 
95500 6.0897422006e+00 7.0293686683e-05 2.6045556855e+00 -4.5112227785e+00 2.6045556855e+00 4.5112227785e+00 
95600 6.0897422074e+00 7.0615817940e-05 2.6045556855e+00 -4.5112227785e+00 2.6045556855e+00 4.5112227785e+00 
95700 6.0897422141e+00 7.0937817990e-05 2.6045556855e+00 -4.5112227785e+00 2.6045556855e+00 4.5112227785e+00 
95800 6.0897422205e+00 7.0071129575e-05 2.6045543237e+00 -4.5112204198e+00 2.6045543237e+00 4.5112204198e+00 
95900 6.0897422268e+00 7.0378768032e-05 2.6045543237e+00 -4.5112204198e+00 2.6045543237e+00 4.5112204198e+00 
96000 6.0897422330e+00 7.0686282060e-05 2.6045543237e+00 -4.5112204198e+00 2.6045543237e+00 4.5112204198e+00 
96100 6.0897422390e+00 7.0993681110e-05 2.6045543237e+00 -4.5112204198e+00 2.6045543237e+00 4.5112204198e+00 
96200 6.0897422448e+00 7.0111470357e-05 2.6045529608e+00 -4.5112180592e+00 2.6045529608e+00 4.5112180592e+00 
96300 6.0897422506e+00 7.0404530312e-05 2.6045529608e+00 -4.5112180592e+00 2.6045529608e+00 4.5112180592e+00 
96400 6.0897422562e+00 7.0697483591e-05 2.6045529608e+00 -4.5112180592e+00 2.6045529608e+00 4.5112180592e+00 
96500 6.0897422617e+00 7.0990340463e-05 2.6045529608e+00 -4.5112180592e+00 2.6045529608e+00 4.5112180592e+00 
96600 6.0897422670e+00 7.0093661082e-05 2.6045515980e+00 -4.5112156987e+00 2.6045515980e+00 4.5112156987e+00 
96700 6.0897422722e+00 7.0372219599e-05 2.6045515980e+00 -4.5112156987e+00 2.6045515980e+00 4.5112156987e+00 
96800 6.0897422774e+00 7.0650693229e-05 2.6045515980e+00 -4.5112156987e+00 2.6045515980e+00 4.5112156987e+00 
96900 6.0897422824e+00 7.0929093538e-05 2.6045515980e+00 -4.5112156987e+00 2.6045515980e+00 4.5112156987e+00 
97000 6.0897422872e+00 7.0019006306e-05 2.6045502364e+00 -4.5112133403e+00 2.6045502364e+00 4.5112133403e+00 
97100 6.0897422920e+00 7.0283170835e-05 2.6045502364e+00 -4.5112133403e+00 2.6045502364e+00 4.5112133403e+00 
97200 6.0897422966e+00 7.0547278002e-05 2.6045502364e+00 -4.5112133403e+00 2.6045502364e+00 4.5112133403e+00 
97300 6.0897423012e+00 7.0811340992e-05 2.6045502364e+00 -4.5112133403e+00 2.6045502364e+00 4.5112133403e+00 
97400 6.0897423056e+00 6.9888918255e-05 2.6045488770e+00 -4.5112109858e+00 2.6045488770e+00 4.5112109858e+00 
97500 6.0897423099e+00 7.0138832262e-05 2.6045488770e+00 -4.5112109858e+00 2.6045488770e+00 4.5112109858e+00 
97600 6.0897423142e+00 7.0388723284e-05 2.6045488770e+00 -4.5112109858e+00 2.6045488770e+00 4.5112109858e+00 
97700 6.0897423184e+00 7.0638606326e-05 2.6045488770e+00 -4.5112109858e+00 2.6045488770e+00 4.5112109858e+00 
97800 6.0897423224e+00 7.0888492753e-05 2.6045488770e+00 -4.5112109858e+00 2.6045488770e+00 4.5112109858e+00 
97900 6.0897423263e+00 6.9950644994e-05 2.6045475162e+00 -4.5112086287e+00 2.6045475162e+00 4.5112086287e+00 
98000 6.0897423302e+00 7.0186457616e-05 2.6045475162e+00 -4.5112086287e+00 2.6045475162e+00 4.5112086287e+00 
98100 6.0897423340e+00 7.0422290710e-05 2.6045475162e+00 -4.5112086287e+00 2.6045475162e+00 4.5112086287e+00 
98200 6.0897423377e+00 7.0658158325e-05 2.6045475162e+00 -4.5112086287e+00 2.6045475162e+00 4.5112086287e+00 
98300 6.0897423414e+00 7.0894071060e-05 2.6045475162e+00 -4.5112086287e+00 2.6045475162e+00 4.5112086287e+00 
98400 6.0897423448e+00 6.9942195495e-05 2.6045461552e+00 -4.5112062714e+00 2.6045461552e+00 4.5112062714e+00 
98500 6.0897423483e+00 7.0164115134e-05 2.6045461552e+00 -4.5112062714e+00 2.6045461552e+00 4.5112062714e+00 
98600 6.0897423517e+00 7.0386095705e-05 2.6045461552e+00 -4.5112062714e+00 2.6045461552e+00 4.5112062714e+00 
98700 6.0897423550e+00 7.0608151132e-05 2.6045461552e+00 -4.5112062714e+00 2.6045461552e+00 4.5112062714e+00 
98800 6.0897423582e+00 7.0830292026e-05 2.6045461552e+00 -4.5112062714e+00 2.6045461552e+00 4.5112062714e+00 
98900 6.0897423613e+00 6.9865751912e-05 2.6045447954e+00 -4.5112039163e+00 2.6045447954e+00 4.5112039163e+00 
99000 6.0897423644e+00 7.0073993593e-05 2.6045447954e+00 -4.5112039163e+00 2.6045447954e+00 4.5112039163e+00 
99100 6.0897423675e+00 7.0282337329e-05 2.6045447954e+00 -4.5112039163e+00 2.6045447954e+00 4.5112039163e+00 
99200 6.0897423704e+00 7.0490797505e-05 2.6045447954e+00 -4.5112039163e+00 2.6045447954e+00 4.5112039163e+00 
99300 6.0897423734e+00 7.0699385293e-05 2.6045447954e+00 -4.5112039163e+00 2.6045447954e+00 4.5112039163e+00 
99400 6.0897423762e+00 7.0908108798e-05 2.6045447954e+00 -4.5112039163e+00 2.6045447954e+00 4.5112039163e+00 
99500 6.0897423789e+00 6.9928893797e-05 2.6045434342e+00 -4.5112015586e+00 2.6045434342e+00 4.5112015586e+00 
99600 6.0897423816e+00 7.0123796530e-05 2.6045434342e+00 -4.5112015586e+00 2.6045434342e+00 4.5112015586e+00 
99700 6.0897423843e+00 7.0318845514e-05 2.6045434342e+00 -4.5112015586e+00 2.6045434342e+00 4.5112015586e+00 
99800 6.0897423869e+00 7.0514053570e-05 2.6045434342e+00 -4.5112015586e+00 2.6045434342e+00 4.5112015586e+00 
99900 6.0897423894e+00 7.0709430501e-05 2.6045434342e+00 -4.5112015586e+00 2.6045434342e+00 4.5112015586e+00 
100000 6.0897423919e+00 7.0904983247e-05 2.6045434342e+00 -4.5112015586e+00 2.6045434342e+00 4.5112015586e+00 
100100 6.0897423943e+00 6.9912687233e-05 2.6045420730e+00 -4.5111992009e+00 2.6045420730e+00 4.5111992009e+00 
100200 6.0897423967e+00 7.0094497162e-05 2.6045420730e+00 -4.5111992009e+00 2.6045420730e+00 4.5111992009e+00 
100300 6.0897423990e+00 7.0276490972e-05 2.6045420730e+00 -4.5111992009e+00 2.6045420730e+00 4.5111992009e+00 
100400 6.0897424013e+00 7.0458680982e-05 2.6045420730e+00 -4.5111992009e+00 2.6045420730e+00 4.5111992009e+00 
100500 6.0897424035e+00 7.0641076628e-05 2.6045420730e+00 -4.5111992009e+00 2.6045420730e+00 4.5111992009e+00 
100600 6.0897424057e+00 7.0823684621e-05 2.6045420730e+00 -4.5111992009e+00 2.6045420730e+00 4.5111992009e+00 
100700 6.0897424078e+00 6.9819840688e-05 2.6045407134e+00 -4.5111968460e+00 2.6045407134e+00 4.5111968460e+00 
100800 6.0897424099e+00 6.9988794867e-05 2.6045407134e+00 -4.5111968460e+00 2.6045407134e+00 4.5111968460e+00 
100900 6.0897424120e+00 7.0157969508e-05 2.6045407134e+00 -4.5111968460e+00 2.6045407134e+00 4.5111968460e+00 
101000 6.0897424140e+00 7.0327377135e-05 2.6045407134e+00 -4.5111968460e+00 2.6045407134e+00 4.5111968460e+00 
101100 6.0897424160e+00 7.0497027496e-05 2.6045407134e+00 -4.5111968460e+00 2.6045407134e+00 4.5111968460e+00 
101200 6.0897424179e+00 7.0666927700e-05 2.6045407134e+00 -4.5111968460e+00 2.6045407134e+00 4.5111968460e+00 
101300 6.0897424198e+00 7.0837082342e-05 2.6045407134e+00 -4.5111968460e+00 2.6045407134e+00 4.5111968460e+00 
101400 6.0897424216e+00 6.9820599105e-05 2.6045393535e+00 -4.5111944906e+00 2.6045393535e+00 4.5111944906e+00 
101500 6.0897424235e+00 6.9977175902e-05 2.6045393535e+00 -4.5111944906e+00 2.6045393535e+00 4.5111944906e+00 
101600 6.0897424253e+00 7.0134010159e-05 2.6045393535e+00 -4.5111944906e+00 2.6045393535e+00 4.5111944906e+00 
101700 6.0897424270e+00 7.0291113081e-05 2.6045393535e+00 -4.5111944906e+00 2.6045393535e+00 4.5111944906e+00 
101800 6.0897424287e+00 7.0448493269e-05 2.6045393535e+00 -4.5111944906e+00 2.6045393535e+00 4.5111944906e+00 
101900 6.0897424304e+00 7.0606156844e-05 2.6045393535e+00 -4.5111944906e+00 2.6045393535e+00 4.5111944906e+00 
102000 6.0897424321e+00 7.0764107577e-05 2.6045393535e+00 -4.5111944906e+00 2.6045393535e+00 4.5111944906e+00 
102100 6.0897424336e+00 6.9736673444e-05 2.6045379951e+00 -4.5111921377e+00 2.6045379951e+00 4.5111921377e+00 
102200 6.0897424352e+00 6.9881124329e-05 2.6045379951e+00 -4.5111921377e+00 2.6045379951e+00 4.5111921377e+00 
102300 6.0897424368e+00 7.0025863760e-05 2.6045379951e+00 -4.5111921377e+00 2.6045379951e+00 4.5111921377e+00 
102400 6.0897424383e+00 7.0170902634e-05 2.6045379951e+00 -4.5111921377e+00 2.6045379951e+00 4.5111921377e+00 
102500 6.0897424399e+00 7.0316249364e-05 2.6045379951e+00 -4.5111921377e+00 2.6045379951e+00 4.5111921377e+00 
102600 6.0897424413e+00 7.0461909989e-05 2.6045379951e+00 -4.5111921377e+00 2.6045379951e+00 4.5111921377e+00 
102700 6.0897424428e+00 7.0607888298e-05 2.6045379951e+00 -4.5111921377e+00 2.6045379951e+00 4.5111921377e+00 
102800 6.0897424442e+00 7.0754185944e-05 2.6045379951e+00 -4.5111921377e+00 2.6045379951e+00 4.5111921377e+00 
102900 6.0897424456e+00 6.9715293561e-05 2.6045366368e+00 -4.5111897851e+00 2.6045366368e+00 4.5111897851e+00 
103000 6.0897424469e+00 6.9848152101e-05 2.6045366368e+00 -4.5111897851e+00 2.6045366368e+00 4.5111897851e+00 
103100 6.0897424483e+00 6.9981326224e-05 2.6045366368e+00 -4.5111897851e+00 2.6045366368e+00 4.5111897851e+00 
103200 6.0897424496e+00 7.0114825477e-05 2.6045366368e+00 -4.5111897851e+00 2.6045366368e+00 4.5111897851e+00 
103300 6.0897424509e+00 7.0248657089e-05 2.6045366368e+00 -4.5111897851e+00 2.6045366368e+00 4.5111897851e+00 
103400 6.0897424522e+00 7.0382826082e-05 2.6045366368e+00 -4.5111897851e+00 2.6045366368e+00 4.5111897851e+00 
103500 6.0897424535e+00 7.0517335377e-05 2.6045366368e+00 -4.5111897851e+00 2.6045366368e+00 4.5111897851e+00 
103600 6.0897424547e+00 7.0652185905e-05 2.6045366368e+00 -4.5111897851e+00 2.6045366368e+00 4.5111897851e+00 
103700 6.0897424559e+00 7.0787376707e-05 2.6045366368e+00 -4.5111897851e+00 2.6045366368e+00 4.5111897851e+00 
103800 6.0897424571e+00 6.9736838264e-05 2.6045352778e+00 -4.5111874313e+00 2.6045352778e+00 4.5111874313e+00 
103900 6.0897424582e+00 6.9858618276e-05 2.6045352778e+00 -4.5111874313e+00 2.6045352778e+00 4.5111874313e+00 
104000 6.0897424594e+00 6.9980728370e-05 2.6045352778e+00 -4.5111874313e+00 2.6045352778e+00 4.5111874313e+00 
104100 6.0897424605e+00 7.0103176382e-05 2.6045352778e+00 -4.5111874313e+00 2.6045352778e+00 4.5111874313e+00 
104200 6.0897424617e+00 7.0225968020e-05 2.6045352778e+00 -4.5111874313e+00 2.6045352778e+00 4.5111874313e+00 
104300 6.0897424628e+00 7.0349106982e-05 2.6045352778e+00 -4.5111874313e+00 2.6045352778e+00 4.5111874313e+00 
104400 6.0897424639e+00 7.0472595036e-05 2.6045352778e+00 -4.5111874313e+00 2.6045352778e+00 4.5111874313e+00 
104500 6.0897424649e+00 7.0596432139e-05 2.6045352778e+00 -4.5111874313e+00 2.6045352778e+00 4.5111874313e+00 
104600 6.0897424660e+00 7.0720616516e-05 2.6045352778e+00 -4.5111874313e+00 2.6045352778e+00 4.5111874313e+00 
104700 6.0897424669e+00 6.9660194782e-05 2.6045339202e+00 -4.5111850798e+00 2.6045339202e+00 4.5111850798e+00 
104800 6.0897424680e+00 6.9770993757e-05 2.6045339202e+00 -4.5111850798e+00 2.6045339202e+00 4.5111850798e+00 
104900 6.0897424690e+00 6.9882128267e-05 2.6045339202e+00 -4.5111850798e+00 2.6045339202e+00 4.5111850798e+00 
105000 6.0897424700e+00 6.9993605881e-05 2.6045339202e+00 -4.5111850798e+00 2.6045339202e+00 4.5111850798e+00 
105100 6.0897424709e+00 7.0105432172e-05 2.6045339202e+00 -4.5111850798e+00 2.6045339202e+00 4.5111850798e+00 
105200 6.0897424719e+00 7.0217610814e-05 2.6045339202e+00 -4.5111850798e+00 2.6045339202e+00 4.5111850798e+00 
105300 6.0897424728e+00 7.0330143669e-05 2.6045339202e+00 -4.5111850798e+00 2.6045339202e+00 4.5111850798e+00 
105400 6.0897424738e+00 7.0443030882e-05 2.6045339202e+00 -4.5111850798e+00 2.6045339202e+00 4.5111850798e+00 
105500 6.0897424747e+00 7.0556270965e-05 2.6045339202e+00 -4.5111850798e+00 2.6045339202e+00 4.5111850798e+00 
105600 6.0897424756e+00 7.0669860891e-05 2.6045339202e+00 -4.5111850798e+00 2.6045339202e+00 4.5111850798e+00 
105700 6.0897424765e+00 7.0783796172e-05 2.6045339202e+00 -4.5111850798e+00 2.6045339202e+00 4.5111850798e+00 
105800 6.0897424773e+00 6.9712060632e-05 2.6045325613e+00 -4.5111827262e+00 2.6045325613e+00 4.5111827262e+00 
105900 6.0897424782e+00 6.9812586910e-05 2.6045325613e+00 -4.5111827262e+00 2.6045325613e+00 4.5111827262e+00 
106000 6.0897424790e+00 6.9913440160e-05 2.6045325613e+00 -4.5111827262e+00 2.6045325613e+00 4.5111827262e+00 
106100 6.0897424799e+00 7.0014626214e-05 2.6045325613e+00 -4.5111827262e+00 2.6045325613e+00 4.5111827262e+00 
106200 6.0897424807e+00 7.0116149121e-05 2.6045325613e+00 -4.5111827262e+00 2.6045325613e+00 4.5111827262e+00 
106300 6.0897424815e+00 7.0218011234e-05 2.6045325613e+00 -4.5111827262e+00 2.6045325613e+00 4.5111827262e+00 
106400 6.0897424824e+00 7.0320213289e-05 2.6045325613e+00 -4.5111827262e+00 2.6045325613e+00 4.5111827262e+00 
106500 6.0897424832e+00 7.0422754492e-05 2.6045325613e+00 -4.5111827262e+00 2.6045325613e+00 4.5111827262e+00 
106600 6.0897424839e+00 7.0525632597e-05 2.6045325613e+00 -4.5111827262e+00 2.6045325613e+00 4.5111827262e+00 
106700 6.0897424847e+00 7.0628843982e-05 2.6045325613e+00 -4.5111827262e+00 2.6045325613e+00 4.5111827262e+00 
106800 6.0897424855e+00 7.0732383728e-05 2.6045325613e+00 -4.5111827262e+00 2.6045325613e+00 4.5111827262e+00 
106900 6.0897424862e+00 6.9651094911e-05 2.6045312035e+00 -4.5111803743e+00 2.6045312035e+00 4.5111803743e+00 
107000 6.0897424869e+00 6.9741201154e-05 2.6045312035e+00 -4.5111803743e+00 2.6045312035e+00 4.5111803743e+00 
107100 6.0897424877e+00 6.9831616974e-05 2.6045312035e+00 -4.5111803743e+00 2.6045312035e+00 4.5111803743e+00 
107200 6.0897424884e+00 6.9922348329e-05 2.6045312035e+00 -4.5111803743e+00 2.6045312035e+00 4.5111803743e+00 
107300 6.0897424891e+00 7.0013399508e-05 2.6045312035e+00 -4.5111803743e+00 2.6045312035e+00 4.5111803743e+00 
107400 6.0897424899e+00 7.0104773223e-05 2.6045312035e+00 -4.5111803743e+00 2.6045312035e+00 4.5111803743e+00 
107500 6.0897424906e+00 7.0196470679e-05 2.6045312035e+00 -4.5111803743e+00 2.6045312035e+00 4.5111803743e+00 
107600 6.0897424913e+00 7.0288491659e-05 2.6045312035e+00 -4.5111803743e+00 2.6045312035e+00 4.5111803743e+00 
107700 6.0897424920e+00 7.0380834578e-05 2.6045312035e+00 -4.5111803743e+00 2.6045312035e+00 4.5111803743e+00 
107800 6.0897424926e+00 7.0473496577e-05 2.6045312035e+00 -4.5111803743e+00 2.6045312035e+00 4.5111803743e+00 
107900 6.0897424933e+00 7.0566473578e-05 2.6045312035e+00 -4.5111803743e+00 2.6045312035e+00 4.5111803743e+00 
108000 6.0897424940e+00 7.0659760352e-05 2.6045312035e+00 -4.5111803743e+00 2.6045312035e+00 4.5111803743e+00 
108100 6.0897424947e+00 7.0753350591e-05 2.6045312035e+00 -4.5111803743e+00 2.6045312035e+00 4.5111803743e+00 
108200 6.0897424952e+00 6.9661732948e-05 2.6045298452e+00 -4.5111780217e+00 2.6045298452e+00 4.5111780217e+00 
108300 6.0897424959e+00 6.9741832318e-05 2.6045298452e+00 -4.5111780217e+00 2.6045298452e+00 4.5111780217e+00 
108400 6.0897424965e+00 6.9822213426e-05 2.6045298452e+00 -4.5111780217e+00 2.6045298452e+00 4.5111780217e+00 
108500 6.0897424971e+00 6.9902881617e-05 2.6045298452e+00 -4.5111780217e+00 2.6045298452e+00 4.5111780217e+00 
108600 6.0897424978e+00 6.9983840746e-05 2.6045298452e+00 -4.5111780217e+00 2.6045298452e+00 4.5111780217e+00 
108700 6.0897424984e+00 7.0065093253e-05 2.6045298452e+00 -4.5111780217e+00 2.6045298452e+00 4.5111780217e+00 
108800 6.0897424990e+00 7.0146640227e-05 2.6045298452e+00 -4.5111780217e+00 2.6045298452e+00 4.5111780217e+00 
108900 6.0897424996e+00 7.0228481479e-05 2.6045298452e+00 -4.5111780217e+00 2.6045298452e+00 4.5111780217e+00 
109000 6.0897425002e+00 7.0310615599e-05 2.6045298452e+00 -4.5111780217e+00 2.6045298452e+00 4.5111780217e+00 
109100 6.0897425008e+00 7.0393040027e-05 2.6045298452e+00 -4.5111780217e+00 2.6045298452e+00 4.5111780217e+00 
109200 6.0897425014e+00 7.0475751113e-05 2.6045298452e+00 -4.5111780217e+00 2.6045298452e+00 4.5111780217e+00 
109300 6.0897425020e+00 7.0558744175e-05 2.6045298452e+00 -4.5111780217e+00 2.6045298452e+00 4.5111780217e+00 
109400 6.0897425025e+00 7.0642013566e-05 2.6045298452e+00 -4.5111780217e+00 2.6045298452e+00 4.5111780217e+00 
109500 6.0897425031e+00 7.0725552718e-05 2.6045298452e+00 -4.5111780217e+00 2.6045298452e+00 4.5111780217e+00 
109600 6.0897425036e+00 6.9624313887e-05 2.6045284875e+00 -4.5111756700e+00 2.6045284875e+00 4.5111756700e+00 
109700 6.0897425042e+00 6.9694300105e-05 2.6045284875e+00 -4.5111756700e+00 2.6045284875e+00 4.5111756700e+00 
109800 6.0897425047e+00 6.9764534527e-05 2.6045284875e+00 -4.5111756700e+00 2.6045284875e+00 4.5111756700e+00 
109900 6.0897425053e+00 6.9835022828e-05 2.6045284875e+00 -4.5111756700e+00 2.6045284875e+00 4.5111756700e+00 
110000 6.0897425058e+00 6.9905769324e-05 2.6045284875e+00 -4.5111756700e+00 2.6045284875e+00 4.5111756700e+00 
110100 6.0897425063e+00 6.9976777038e-05 2.6045284875e+00 -4.5111756700e+00 2.6045284875e+00 4.5111756700e+00 
110200 6.0897425069e+00 7.0048047758e-05 2.6045284875e+00 -4.5111756700e+00 2.6045284875e+00 4.5111756700e+00 
110300 6.0897425074e+00 7.0119582098e-05 2.6045284875e+00 -4.5111756700e+00 2.6045284875e+00 4.5111756700e+00 
110400 6.0897425079e+00 7.0191379562e-05 2.6045284875e+00 -4.5111756700e+00 2.6045284875e+00 4.5111756700e+00 
110500 6.0897425084e+00 7.0263438591e-05 2.6045284875e+00 -4.5111756700e+00 2.6045284875e+00 4.5111756700e+00 
110600 6.0897425089e+00 7.0335756630e-05 2.6045284875e+00 -4.5111756700e+00 2.6045284875e+00 4.5111756700e+00 
110700 6.0897425094e+00 7.0408330173e-05 2.6045284875e+00 -4.5111756700e+00 2.6045284875e+00 4.5111756700e+00 
110800 6.0897425099e+00 7.0481154826e-05 2.6045284875e+00 -4.5111756700e+00 2.6045284875e+00 4.5111756700e+00 
110900 6.0897425104e+00 7.0554225351e-05 2.6045284875e+00 -4.5111756700e+00 2.6045284875e+00 4.5111756700e+00 
111000 6.0897425109e+00 7.0627535715e-05 2.6045284875e+00 -4.5111756700e+00 2.6045284875e+00 4.5111756700e+00 
111100 6.0897425114e+00 7.0701079147e-05 2.6045284875e+00 -4.5111756700e+00 2.6045284875e+00 4.5111756700e+00 
111200 6.0897425119e+00 7.0774848178e-05 2.6045284875e+00 -4.5111756700e+00 2.6045284875e+00 4.5111756700e+00 
111300 6.0897425123e+00 6.9662966271e-05 2.6045271288e+00 -4.5111733167e+00 2.6045271288e+00 4.5111733167e+00 
111400 6.0897425128e+00 6.9723082292e-05 2.6045271288e+00 -4.5111733167e+00 2.6045271288e+00 4.5111733167e+00 
111500 6.0897425133e+00 6.9783400866e-05 2.6045271288e+00 -4.5111733167e+00 2.6045271288e+00 4.5111733167e+00 
111600 6.0897425137e+00 6.9843927552e-05 2.6045271288e+00 -4.5111733167e+00 2.6045271288e+00 4.5111733167e+00 
111700 6.0897425142e+00 6.9904666722e-05 2.6045271288e+00 -4.5111733167e+00 2.6045271288e+00 4.5111733167e+00 
111800 6.0897425146e+00 6.9965621618e-05 2.6045271288e+00 -4.5111733167e+00 2.6045271288e+00 4.5111733167e+00 
111900 6.0897425151e+00 7.0026794398e-05 2.6045271288e+00 -4.5111733167e+00 2.6045271288e+00 4.5111733167e+00 
112000 6.0897425155e+00 7.0088186196e-05 2.6045271288e+00 -4.5111733167e+00 2.6045271288e+00 4.5111733167e+00 
112100 6.0897425160e+00 7.0149797173e-05 2.6045271288e+00 -4.5111733167e+00 2.6045271288e+00 4.5111733167e+00 
112200 6.0897425164e+00 7.0211626556e-05 2.6045271288e+00 -4.5111733167e+00 2.6045271288e+00 4.5111733167e+00 
112300 6.0897425169e+00 7.0273672700e-05 2.6045271288e+00 -4.5111733167e+00 2.6045271288e+00 4.5111733167e+00 
112400 6.0897425173e+00 7.0335933128e-05 2.6045271288e+00 -4.5111733167e+00 2.6045271288e+00 4.5111733167e+00 
112500 6.0897425177e+00 7.0398404578e-05 2.6045271288e+00 -4.5111733167e+00 2.6045271288e+00 4.5111733167e+00 
112600 6.0897425182e+00 7.0461083045e-05 2.6045271288e+00 -4.5111733167e+00 2.6045271288e+00 4.5111733167e+00 
112700 6.0897425186e+00 7.0523963833e-05 2.6045271288e+00 -4.5111733167e+00 2.6045271288e+00 4.5111733167e+00 
112800 6.0897425190e+00 7.0587041587e-05 2.6045271288e+00 -4.5111733167e+00 2.6045271288e+00 4.5111733167e+00 
112900 6.0897425194e+00 7.0650310340e-05 2.6045271288e+00 -4.5111733167e+00 2.6045271288e+00 4.5111733167e+00 
113000 6.0897425198e+00 7.0713763555e-05 2.6045271288e+00 -4.5111733167e+00 2.6045271288e+00 4.5111733167e+00 
113100 6.0897425202e+00 6.9592546948e-05 2.6045257713e+00 -4.5111709654e+00 2.6045257713e+00 4.5111709654e+00 
113200 6.0897425206e+00 6.9642280211e-05 2.6045257713e+00 -4.5111709654e+00 2.6045257713e+00 4.5111709654e+00 
113300 6.0897425210e+00 6.9692178337e-05 2.6045257713e+00 -4.5111709654e+00 2.6045257713e+00 4.5111709654e+00 
113400 6.0897425214e+00 6.9742248217e-05 2.6045257713e+00 -4.5111709654e+00 2.6045257713e+00 4.5111709654e+00 
113500 6.0897425218e+00 6.9792495645e-05 2.6045257713e+00 -4.5111709654e+00 2.6045257713e+00 4.5111709654e+00 
113600 6.0897425222e+00 6.9842925359e-05 2.6045257713e+00 -4.5111709654e+00 2.6045257713e+00 4.5111709654e+00 
113700 6.0897425226e+00 6.9893541098e-05 2.6045257713e+00 -4.5111709654e+00 2.6045257713e+00 4.5111709654e+00 
113800 6.0897425229e+00 6.9944345645e-05 2.6045257713e+00 -4.5111709654e+00 2.6045257713e+00 4.5111709654e+00 
113900 6.0897425233e+00 6.9995340864e-05 2.6045257713e+00 -4.5111709654e+00 2.6045257713e+00 4.5111709654e+00 
114000 6.0897425237e+00 7.0046527760e-05 2.6045257713e+00 -4.5111709654e+00 2.6045257713e+00 4.5111709654e+00 
114100 6.0897425241e+00 7.0097906511e-05 2.6045257713e+00 -4.5111709654e+00 2.6045257713e+00 4.5111709654e+00 
114200 6.0897425244e+00 7.0149476508e-05 2.6045257713e+00 -4.5111709654e+00 2.6045257713e+00 4.5111709654e+00 
114300 6.0897425248e+00 7.0201236405e-05 2.6045257713e+00 -4.5111709654e+00 2.6045257713e+00 4.5111709654e+00 
114400 6.0897425252e+00 7.0253184153e-05 2.6045257713e+00 -4.5111709654e+00 2.6045257713e+00 4.5111709654e+00 
114500 6.0897425255e+00 7.0305317038e-05 2.6045257713e+00 -4.5111709654e+00 2.6045257713e+00 4.5111709654e+00 
114600 6.0897425259e+00 7.0357631725e-05 2.6045257713e+00 -4.5111709654e+00 2.6045257713e+00 4.5111709654e+00 
114700 6.0897425263e+00 7.0410124286e-05 2.6045257713e+00 -4.5111709654e+00 2.6045257713e+00 4.5111709654e+00 
114800 6.0897425266e+00 7.0462790245e-05 2.6045257713e+00 -4.5111709654e+00 2.6045257713e+00 4.5111709654e+00 
114900 6.0897425270e+00 7.0515624602e-05 2.6045257713e+00 -4.5111709654e+00 2.6045257713e+00 4.5111709654e+00 
115000 6.0897425273e+00 7.0568621879e-05 2.6045257713e+00 -4.5111709654e+00 2.6045257713e+00 4.5111709654e+00 
115100 6.0897425277e+00 7.0621776143e-05 2.6045257713e+00 -4.5111709654e+00 2.6045257713e+00 4.5111709654e+00 
115200 6.0897425280e+00 7.0675081043e-05 2.6045257713e+00 -4.5111709654e+00 2.6045257713e+00 4.5111709654e+00 
115300 6.0897425283e+00 7.0728529835e-05 2.6045257713e+00 -4.5111709654e+00 2.6045257713e+00 4.5111709654e+00 
115400 6.0897425286e+00 6.9597018484e-05 2.6045244135e+00 -4.5111686137e+00 2.6045244135e+00 4.5111686137e+00 
115500 6.0897425289e+00 6.9636663290e-05 2.6045244135e+00 -4.5111686137e+00 2.6045244135e+00 4.5111686137e+00 
115600 6.0897425293e+00 6.9676432816e-05 2.6045244135e+00 -4.5111686137e+00 2.6045244135e+00 4.5111686137e+00 
115700 6.0897425296e+00 6.9716334401e-05 2.6045244135e+00 -4.5111686137e+00 2.6045244135e+00 4.5111686137e+00 
115800 6.0897425299e+00 6.9756374430e-05 2.6045244135e+00 -4.5111686137e+00 2.6045244135e+00 4.5111686137e+00 
115900 6.0897425302e+00 6.9796558372e-05 2.6045244135e+00 -4.5111686137e+00 2.6045244135e+00 4.5111686137e+00 
116000 6.0897425306e+00 6.9836890815e-05 2.6045244135e+00 -4.5111686137e+00 2.6045244135e+00 4.5111686137e+00 
116100 6.0897425309e+00 6.9877375505e-05 2.6045244135e+00 -4.5111686137e+00 2.6045244135e+00 4.5111686137e+00 
116200 6.0897425312e+00 6.9918015399e-05 2.6045244135e+00 -4.5111686137e+00 2.6045244135e+00 4.5111686137e+00 
116300 6.0897425315e+00 6.9958812678e-05 2.6045244135e+00 -4.5111686137e+00 2.6045244135e+00 4.5111686137e+00 
116400 6.0897425318e+00 6.9999768800e-05 2.6045244135e+00 -4.5111686137e+00 2.6045244135e+00 4.5111686137e+00 
116500 6.0897425321e+00 7.0040884535e-05 2.6045244135e+00 -4.5111686137e+00 2.6045244135e+00 4.5111686137e+00 
116600 6.0897425324e+00 7.0082159986e-05 2.6045244135e+00 -4.5111686137e+00 2.6045244135e+00 4.5111686137e+00 
116700 6.0897425327e+00 7.0123594638e-05 2.6045244135e+00 -4.5111686137e+00 2.6045244135e+00 4.5111686137e+00 
116800 6.0897425330e+00 7.0165187387e-05 2.6045244135e+00 -4.5111686137e+00 2.6045244135e+00 4.5111686137e+00 
116900 6.0897425333e+00 7.0206936564e-05 2.6045244135e+00 -4.5111686137e+00 2.6045244135e+00 4.5111686137e+00 
117000 6.0897425336e+00 7.0248839973e-05 2.6045244135e+00 -4.5111686137e+00 2.6045244135e+00 4.5111686137e+00 
117100 6.0897425339e+00 7.0290894922e-05 2.6045244135e+00 -4.5111686137e+00 2.6045244135e+00 4.5111686137e+00 
117200 6.0897425342e+00 7.0333098246e-05 2.6045244135e+00 -4.5111686137e+00 2.6045244135e+00 4.5111686137e+00 
117300 6.0897425345e+00 7.0375446346e-05 2.6045244135e+00 -4.5111686137e+00 2.6045244135e+00 4.5111686137e+00 
117400 6.0897425347e+00 7.0417935206e-05 2.6045244135e+00 -4.5111686137e+00 2.6045244135e+00 4.5111686137e+00 
117500 6.0897425350e+00 7.0460560423e-05 2.6045244135e+00 -4.5111686137e+00 2.6045244135e+00 4.5111686137e+00 
117600 6.0897425353e+00 7.0503317237e-05 2.6045244135e+00 -4.5111686137e+00 2.6045244135e+00 4.5111686137e+00 
117700 6.0897425356e+00 7.0546200558e-05 2.6045244135e+00 -4.5111686137e+00 2.6045244135e+00 4.5111686137e+00 
117800 6.0897425359e+00 7.0589204976e-05 2.6045244135e+00 -4.5111686137e+00 2.6045244135e+00 4.5111686137e+00 
117900 6.0897425361e+00 7.0632324802e-05 2.6045244135e+00 -4.5111686137e+00 2.6045244135e+00 4.5111686137e+00 
118000 6.0897425364e+00 7.0675554081e-05 2.6045244135e+00 -4.5111686137e+00 2.6045244135e+00 4.5111686137e+00 
118100 6.0897425367e+00 7.0718886622e-05 2.6045244135e+00 -4.5111686137e+00 2.6045244135e+00 4.5111686137e+00 
118200 6.0897425369e+00 6.9577378244e-05 2.6045230558e+00 -4.5111662622e+00 2.6045230558e+00 4.5111662622e+00 
118300 6.0897425371e+00 6.9606829589e-05 2.6045230558e+00 -4.5111662622e+00 2.6045230558e+00 4.5111662622e+00 
118400 6.0897425374e+00 6.9636367474e-05 2.6045230558e+00 -4.5111662622e+00 2.6045230558e+00 4.5111662622e+00 
118500 6.0897425376e+00 6.9666000296e-05 2.6045230558e+00 -4.5111662622e+00 2.6045230558e+00 4.5111662622e+00 
118600 6.0897425379e+00 6.9695735606e-05 2.6045230558e+00 -4.5111662622e+00 2.6045230558e+00 4.5111662622e+00 
118700 6.0897425381e+00 6.9725580137e-05 2.6045230558e+00 -4.5111662622e+00 2.6045230558e+00 4.5111662622e+00 
118800 6.0897425384e+00 6.9755539837e-05 2.6045230558e+00 -4.5111662622e+00 2.6045230558e+00 4.5111662622e+00 
118900 6.0897425386e+00 6.9785619908e-05 2.6045230558e+00 -4.5111662622e+00 2.6045230558e+00 4.5111662622e+00 
119000 6.0897425389e+00 6.9815824828e-05 2.6045230558e+00 -4.5111662622e+00 2.6045230558e+00 4.5111662622e+00 
119100 6.0897425391e+00 6.9846158393e-05 2.6045230558e+00 -4.5111662622e+00 2.6045230558e+00 4.5111662622e+00 
119200 6.0897425394e+00 6.9876623732e-05 2.6045230558e+00 -4.5111662622e+00 2.6045230558e+00 4.5111662622e+00 
119300 6.0897425396e+00 6.9907223348e-05 2.6045230558e+00 -4.5111662622e+00 2.6045230558e+00 4.5111662622e+00 
119400 6.0897425398e+00 6.9937959146e-05 2.6045230558e+00 -4.5111662622e+00 2.6045230558e+00 4.5111662622e+00 
119500 6.0897425401e+00 6.9968832453e-05 2.6045230558e+00 -4.5111662622e+00 2.6045230558e+00 4.5111662622e+00 
119600 6.0897425403e+00 6.9999844055e-05 2.6045230558e+00 -4.5111662622e+00 2.6045230558e+00 4.5111662622e+00 
119700 6.0897425405e+00 7.0030994220e-05 2.6045230558e+00 -4.5111662622e+00 2.6045230558e+00 4.5111662622e+00 
119800 6.0897425408e+00 7.0062282717e-05 2.6045230558e+00 -4.5111662622e+00 2.6045230558e+00 4.5111662622e+00 
119900 6.0897425410e+00 7.0093708859e-05 2.6045230558e+00 -4.5111662622e+00 2.6045230558e+00 4.5111662622e+00 
120000 6.0897425412e+00 7.0125271507e-05 2.6045230558e+00 -4.5111662622e+00 2.6045230558e+00 4.5111662622e+00 
120100 6.0897425414e+00 7.0156969108e-05 2.6045230558e+00 -4.5111662622e+00 2.6045230558e+00 4.5111662622e+00 
120200 6.0897425417e+00 7.0188799714e-05 2.6045230558e+00 -4.5111662622e+00 2.6045230558e+00 4.5111662622e+00 
120300 6.0897425419e+00 7.0220761004e-05 2.6045230558e+00 -4.5111662622e+00 2.6045230558e+00 4.5111662622e+00 
120400 6.0897425421e+00 7.0252850308e-05 2.6045230558e+00 -4.5111662622e+00 2.6045230558e+00 4.5111662622e+00 
120500 6.0897425423e+00 7.0285064631e-05 2.6045230558e+00 -4.5111662622e+00 2.6045230558e+00 4.5111662622e+00 
120600 6.0897425425e+00 7.0317400665e-05 2.6045230558e+00 -4.5111662622e+00 2.6045230558e+00 4.5111662622e+00 
120700 6.0897425427e+00 7.0349854820e-05 2.6045230558e+00 -4.5111662622e+00 2.6045230558e+00 4.5111662622e+00 
120800 6.0897425429e+00 7.0382423238e-05 2.6045230558e+00 -4.5111662622e+00 2.6045230558e+00 4.5111662622e+00 
120900 6.0897425431e+00 7.0415101807e-05 2.6045230558e+00 -4.5111662622e+00 2.6045230558e+00 4.5111662622e+00 
121000 6.0897425433e+00 7.0447886192e-05 2.6045230558e+00 -4.5111662622e+00 2.6045230558e+00 4.5111662622e+00 
121100 6.0897425435e+00 7.0480771842e-05 2.6045230558e+00 -4.5111662622e+00 2.6045230558e+00 4.5111662622e+00 
121200 6.0897425437e+00 7.0513754018e-05 2.6045230558e+00 -4.5111662622e+00 2.6045230558e+00 4.5111662622e+00 
121300 6.0897425439e+00 7.0546827789e-05 2.6045230558e+00 -4.5111662622e+00 2.6045230558e+00 4.5111662622e+00 
121400 6.0897425441e+00 7.0579988080e-05 2.6045230558e+00 -4.5111662622e+00 2.6045230558e+00 4.5111662622e+00 
121500 6.0897425443e+00 7.0613229653e-05 2.6045230558e+00 -4.5111662622e+00 2.6045230558e+00 4.5111662622e+00 
121600 6.0897425445e+00 7.0646547149e-05 2.6045230558e+00 -4.5111662622e+00 2.6045230558e+00 4.5111662622e+00 
121700 6.0897425447e+00 7.0679935087e-05 2.6045230558e+00 -4.5111662622e+00 2.6045230558e+00 4.5111662622e+00 
121800 6.0897425449e+00 7.0713387882e-05 2.6045230558e+00 -4.5111662622e+00 2.6045230558e+00 4.5111662622e+00 
121900 6.0897425450e+00 6.9562051788e-05 2.6045216983e+00 -4.5111639109e+00 2.6045216983e+00 4.5111639109e+00 
122000 6.0897425452e+00 6.9581549975e-05 2.6045216983e+00 -4.5111639109e+00 2.6045216983e+00 4.5111639109e+00 
122100 6.0897425454e+00 6.9601098896e-05 2.6045216983e+00 -4.5111639109e+00 2.6045216983e+00 4.5111639109e+00 
122200 6.0897425456e+00 6.9620708029e-05 2.6045216983e+00 -4.5111639109e+00 2.6045216983e+00 4.5111639109e+00 
122300 6.0897425458e+00 6.9640386105e-05 2.6045216983e+00 -4.5111639109e+00 2.6045216983e+00 4.5111639109e+00 
122400 6.0897425459e+00 6.9660141134e-05 2.6045216983e+00 -4.5111639109e+00 2.6045216983e+00 4.5111639109e+00 
122500 6.0897425461e+00 6.9679980430e-05 2.6045216983e+00 -4.5111639109e+00 2.6045216983e+00 4.5111639109e+00 
122600 6.0897425463e+00 6.9699910629e-05 2.6045216983e+00 -4.5111639109e+00 2.6045216983e+00 4.5111639109e+00 
122700 6.0897425465e+00 6.9719937729e-05 2.6045216983e+00 -4.5111639109e+00 2.6045216983e+00 4.5111639109e+00 
122800 6.0897425466e+00 6.9740067103e-05 2.6045216983e+00 -4.5111639109e+00 2.6045216983e+00 4.5111639109e+00 
122900 6.0897425468e+00 6.9760303529e-05 2.6045216983e+00 -4.5111639109e+00 2.6045216983e+00 4.5111639109e+00 
123000 6.0897425470e+00 6.9780651204e-05 2.6045216983e+00 -4.5111639109e+00 2.6045216983e+00 4.5111639109e+00 
123100 6.0897425471e+00 6.9801113783e-05 2.6045216983e+00 -4.5111639109e+00 2.6045216983e+00 4.5111639109e+00 
123200 6.0897425473e+00 6.9821694391e-05 2.6045216983e+00 -4.5111639109e+00 2.6045216983e+00 4.5111639109e+00 
123300 6.0897425475e+00 6.9842395643e-05 2.6045216983e+00 -4.5111639109e+00 2.6045216983e+00 4.5111639109e+00 
123400 6.0897425476e+00 6.9863219677e-05 2.6045216983e+00 -4.5111639109e+00 2.6045216983e+00 4.5111639109e+00 
123500 6.0897425478e+00 6.9884168162e-05 2.6045216983e+00 -4.5111639109e+00 2.6045216983e+00 4.5111639109e+00 
123600 6.0897425479e+00 6.9905242333e-05 2.6045216983e+00 -4.5111639109e+00 2.6045216983e+00 4.5111639109e+00 
123700 6.0897425481e+00 6.9926442998e-05 2.6045216983e+00 -4.5111639109e+00 2.6045216983e+00 4.5111639109e+00 
123800 6.0897425483e+00 6.9947770567e-05 2.6045216983e+00 -4.5111639109e+00 2.6045216983e+00 4.5111639109e+00 
123900 6.0897425484e+00 6.9969225069e-05 2.6045216983e+00 -4.5111639109e+00 2.6045216983e+00 4.5111639109e+00 
124000 6.0897425486e+00 6.9990806169e-05 2.6045216983e+00 -4.5111639109e+00 2.6045216983e+00 4.5111639109e+00 
124100 6.0897425487e+00 7.0012513190e-05 2.6045216983e+00 -4.5111639109e+00 2.6045216983e+00 4.5111639109e+00 
124200 6.0897425489e+00 7.0034345128e-05 2.6045216983e+00 -4.5111639109e+00 2.6045216983e+00 4.5111639109e+00 
124300 6.0897425490e+00 7.0056300668e-05 2.6045216983e+00 -4.5111639109e+00 2.6045216983e+00 4.5111639109e+00 
124400 6.0897425492e+00 7.0078378209e-05 2.6045216983e+00 -4.5111639109e+00 2.6045216983e+00 4.5111639109e+00 
124500 6.0897425493e+00 7.0100575874e-05 2.6045216983e+00 -4.5111639109e+00 2.6045216983e+00 4.5111639109e+00 
124600 6.0897425494e+00 7.0122891525e-05 2.6045216983e+00 -4.5111639109e+00 2.6045216983e+00 4.5111639109e+00 
124700 6.0897425496e+00 7.0145322786e-05 2.6045216983e+00 -4.5111639109e+00 2.6045216983e+00 4.5111639109e+00 
124800 6.0897425497e+00 7.0167867048e-05 2.6045216983e+00 -4.5111639109e+00 2.6045216983e+00 4.5111639109e+00 
124900 6.0897425499e+00 7.0190521498e-05 2.6045216983e+00 -4.5111639109e+00 2.6045216983e+00 4.5111639109e+00 
125000 6.0897425500e+00 7.0213283117e-05 2.6045216983e+00 -4.5111639109e+00 2.6045216983e+00 4.5111639109e+00 
125100 6.0897425501e+00 7.0236148704e-05 2.6045216983e+00 -4.5111639109e+00 2.6045216983e+00 4.5111639109e+00 
125200 6.0897425503e+00 7.0259114889e-05 2.6045216983e+00 -4.5111639109e+00 2.6045216983e+00 4.5111639109e+00 
125300 6.0897425504e+00 7.0282178145e-05 2.6045216983e+00 -4.5111639109e+00 2.6045216983e+00 4.5111639109e+00 
125400 6.0897425505e+00 7.0305334797e-05 2.6045216983e+00 -4.5111639109e+00 2.6045216983e+00 4.5111639109e+00 
125500 6.0897425507e+00 7.0328581041e-05 2.6045216983e+00 -4.5111639109e+00 2.6045216983e+00 4.5111639109e+00 
125600 6.0897425508e+00 7.0351912948e-05 2.6045216983e+00 -4.5111639109e+00 2.6045216983e+00 4.5111639109e+00 
125700 6.0897425509e+00 7.0375326482e-05 2.6045216983e+00 -4.5111639109e+00 2.6045216983e+00 4.5111639109e+00 
125800 6.0897425511e+00 7.0398817509e-05 2.6045216983e+00 -4.5111639109e+00 2.6045216983e+00 4.5111639109e+00 
125900 6.0897425512e+00 7.0422381807e-05 2.6045216983e+00 -4.5111639109e+00 2.6045216983e+00 4.5111639109e+00 
126000 6.0897425513e+00 7.0446015074e-05 2.6045216983e+00 -4.5111639109e+00 2.6045216983e+00 4.5111639109e+00 
126100 6.0897425514e+00 7.0469712942e-05 2.6045216983e+00 -4.5111639109e+00 2.6045216983e+00 4.5111639109e+00 
126200 6.0897425515e+00 7.0493470982e-05 2.6045216983e+00 -4.5111639109e+00 2.6045216983e+00 4.5111639109e+00 
126300 6.0897425517e+00 7.0517284718e-05 2.6045216983e+00 -4.5111639109e+00 2.6045216983e+00 4.5111639109e+00 
126400 6.0897425518e+00 7.0541149633e-05 2.6045216983e+00 -4.5111639109e+00 2.6045216983e+00 4.5111639109e+00 
126500 6.0897425519e+00 7.0565061174e-05 2.6045216983e+00 -4.5111639109e+00 2.6045216983e+00 4.5111639109e+00 
126600 6.0897425520e+00 7.0589014769e-05 2.6045216983e+00 -4.5111639109e+00 2.6045216983e+00 4.5111639109e+00 
126700 6.0897425521e+00 7.0613005825e-05 2.6045216983e+00 -4.5111639109e+00 2.6045216983e+00 4.5111639109e+00 
126800 6.0897425522e+00 7.0637029740e-05 2.6045216983e+00 -4.5111639109e+00 2.6045216983e+00 4.5111639109e+00 
126900 6.0897425524e+00 7.0661081912e-05 2.6045216983e+00 -4.5111639109e+00 2.6045216983e+00 4.5111639109e+00 
127000 6.0897425525e+00 7.0685157735e-05 2.6045216983e+00 -4.5111639109e+00 2.6045216983e+00 4.5111639109e+00 
127100 6.0897425526e+00 7.0709252624e-05 2.6045216983e+00 -4.5111639109e+00 2.6045216983e+00 4.5111639109e+00 
127200 6.0897425527e+00 7.0733362004e-05 2.6045216983e+00 -4.5111639109e+00 2.6045216983e+00 4.5111639109e+00 
127300 6.0897425527e+00 6.9572296036e-05 2.6045203404e+00 -4.5111615590e+00 2.6045203404e+00 4.5111615590e+00 
127400 6.0897425528e+00 6.9582349506e-05 2.6045203404e+00 -4.5111615590e+00 2.6045203404e+00 4.5111615590e+00 
127500 6.0897425529e+00 6.9592407020e-05 2.6045203404e+00 -4.5111615590e+00 2.6045203404e+00 4.5111615590e+00 
127600 6.0897425530e+00 6.9602479476e-05 2.6045203404e+00 -4.5111615590e+00 2.6045203404e+00 4.5111615590e+00 
127700 6.0897425531e+00 6.9612577106e-05 2.6045203404e+00 -4.5111615590e+00 2.6045203404e+00 4.5111615590e+00 
127800 6.0897425532e+00 6.9622709501e-05 2.6045203404e+00 -4.5111615590e+00 2.6045203404e+00 4.5111615590e+00 
127900 6.0897425533e+00 6.9632885619e-05 2.6045203404e+00 -4.5111615590e+00 2.6045203404e+00 4.5111615590e+00 
128000 6.0897425534e+00 6.9643113814e-05 2.6045203404e+00 -4.5111615590e+00 2.6045203404e+00 4.5111615590e+00 
128100 6.0897425535e+00 6.9653401860e-05 2.6045203404e+00 -4.5111615590e+00 2.6045203404e+00 4.5111615590e+00 
128200 6.0897425536e+00 6.9663756952e-05 2.6045203404e+00 -4.5111615590e+00 2.6045203404e+00 4.5111615590e+00 
128300 6.0897425537e+00 6.9674185742e-05 2.6045203404e+00 -4.5111615590e+00 2.6045203404e+00 4.5111615590e+00 
128400 6.0897425538e+00 6.9684694350e-05 2.6045203404e+00 -4.5111615590e+00 2.6045203404e+00 4.5111615590e+00 
128500 6.0897425539e+00 6.9695288383e-05 2.6045203404e+00 -4.5111615590e+00 2.6045203404e+00 4.5111615590e+00 
128600 6.0897425540e+00 6.9705972954e-05 2.6045203404e+00 -4.5111615590e+00 2.6045203404e+00 4.5111615590e+00 
128700 6.0897425541e+00 6.9716752696e-05 2.6045203404e+00 -4.5111615590e+00 2.6045203404e+00 4.5111615590e+00 
128800 6.0897425542e+00 6.9727631786e-05 2.6045203404e+00 -4.5111615590e+00 2.6045203404e+00 4.5111615590e+00 
128900 6.0897425543e+00 6.9738613954e-05 2.6045203404e+00 -4.5111615590e+00 2.6045203404e+00 4.5111615590e+00 
129000 6.0897425544e+00 6.9749702510e-05 2.6045203404e+00 -4.5111615590e+00 2.6045203404e+00 4.5111615590e+00 
129100 6.0897425545e+00 6.9760900350e-05 2.6045203404e+00 -4.5111615590e+00 2.6045203404e+00 4.5111615590e+00 
129200 6.0897425546e+00 6.9772209982e-05 2.6045203404e+00 -4.5111615590e+00 2.6045203404e+00 4.5111615590e+00 
129300 6.0897425547e+00 6.9783633528e-05 2.6045203404e+00 -4.5111615590e+00 2.6045203404e+00 4.5111615590e+00 
129400 6.0897425547e+00 6.9795172757e-05 2.6045203404e+00 -4.5111615590e+00 2.6045203404e+00 4.5111615590e+00 
129500 6.0897425548e+00 6.9806829088e-05 2.6045203404e+00 -4.5111615590e+00 2.6045203404e+00 4.5111615590e+00 
129600 6.0897425549e+00 6.9818603612e-05 2.6045203404e+00 -4.5111615590e+00 2.6045203404e+00 4.5111615590e+00 
129700 6.0897425550e+00 6.9830497099e-05 2.6045203404e+00 -4.5111615590e+00 2.6045203404e+00 4.5111615590e+00 
129800 6.0897425551e+00 6.9842510020e-05 2.6045203404e+00 -4.5111615590e+00 2.6045203404e+00 4.5111615590e+00 
129900 6.0897425552e+00 6.9854642558e-05 2.6045203404e+00 -4.5111615590e+00 2.6045203404e+00 4.5111615590e+00 
130000 6.0897425552e+00 6.9866894619e-05 2.6045203404e+00 -4.5111615590e+00 2.6045203404e+00 4.5111615590e+00 
130100 6.0897425553e+00 6.9879265852e-05 2.6045203404e+00 -4.5111615590e+00 2.6045203404e+00 4.5111615590e+00 
130200 6.0897425554e+00 6.9891755653e-05 2.6045203404e+00 -4.5111615590e+00 2.6045203404e+00 4.5111615590e+00 
130300 6.0897425555e+00 6.9904363188e-05 2.6045203404e+00 -4.5111615590e+00 2.6045203404e+00 4.5111615590e+00 
130400 6.0897425555e+00 6.9917087397e-05 2.6045203404e+00 -4.5111615590e+00 2.6045203404e+00 4.5111615590e+00 
130500 6.0897425556e+00 6.9929927008e-05 2.6045203404e+00 -4.5111615590e+00 2.6045203404e+00 4.5111615590e+00 
130600 6.0897425557e+00 6.9942880559e-05 2.6045203404e+00 -4.5111615590e+00 2.6045203404e+00 4.5111615590e+00 
130700 6.0897425558e+00 6.9955946386e-05 2.6045203404e+00 -4.5111615590e+00 2.6045203404e+00 4.5111615590e+00 
130800 6.0897425558e+00 6.9969122661e-05 2.6045203404e+00 -4.5111615590e+00 2.6045203404e+00 4.5111615590e+00 
130900 6.0897425559e+00 6.9982407387e-05 2.6045203404e+00 -4.5111615590e+00 2.6045203404e+00 4.5111615590e+00 
131000 6.0897425560e+00 6.9995798413e-05 2.6045203404e+00 -4.5111615590e+00 2.6045203404e+00 4.5111615590e+00 
131100 6.0897425561e+00 7.0009293439e-05 2.6045203404e+00 -4.5111615590e+00 2.6045203404e+00 4.5111615590e+00 
131200 6.0897425561e+00 7.0022890035e-05 2.6045203404e+00 -4.5111615590e+00 2.6045203404e+00 4.5111615590e+00 
131300 6.0897425562e+00 7.0036585645e-05 2.6045203404e+00 -4.5111615590e+00 2.6045203404e+00 4.5111615590e+00 
131400 6.0897425563e+00 7.0050377598e-05 2.6045203404e+00 -4.5111615590e+00 2.6045203404e+00 4.5111615590e+00 
131500 6.0897425563e+00 7.0064263115e-05 2.6045203404e+00 -4.5111615590e+00 2.6045203404e+00 4.5111615590e+00 
131600 6.0897425564e+00 7.0078239318e-05 2.6045203404e+00 -4.5111615590e+00 2.6045203404e+00 4.5111615590e+00 
131700 6.0897425565e+00 7.0092303241e-05 2.6045203404e+00 -4.5111615590e+00 2.6045203404e+00 4.5111615590e+00 
131800 6.0897425565e+00 7.0106451840e-05 2.6045203404e+00 -4.5111615590e+00 2.6045203404e+00 4.5111615590e+00 
131900 6.0897425566e+00 7.0120681990e-05 2.6045203404e+00 -4.5111615590e+00 2.6045203404e+00 4.5111615590e+00 
132000 6.0897425567e+00 7.0134990508e-05 2.6045203404e+00 -4.5111615590e+00 2.6045203404e+00 4.5111615590e+00 
132100 6.0897425567e+00 7.0149374146e-05 2.6045203404e+00 -4.5111615590e+00 2.6045203404e+00 4.5111615590e+00 
132200 6.0897425568e+00 7.0163829610e-05 2.6045203404e+00 -4.5111615590e+00 2.6045203404e+00 4.5111615590e+00 
132300 6.0897425568e+00 7.0178353556e-05 2.6045203404e+00 -4.5111615590e+00 2.6045203404e+00 4.5111615590e+00 
132400 6.0897425569e+00 7.0192942608e-05 2.6045203404e+00 -4.5111615590e+00 2.6045203404e+00 4.5111615590e+00 
132500 6.0897425570e+00 7.0207593352e-05 2.6045203404e+00 -4.5111615590e+00 2.6045203404e+00 4.5111615590e+00 
132600 6.0897425570e+00 7.0222302353e-05 2.6045203404e+00 -4.5111615590e+00 2.6045203404e+00 4.5111615590e+00 
132700 6.0897425571e+00 7.0237066152e-05 2.6045203404e+00 -4.5111615590e+00 2.6045203404e+00 4.5111615590e+00 
132800 6.0897425571e+00 7.0251881279e-05 2.6045203404e+00 -4.5111615590e+00 2.6045203404e+00 4.5111615590e+00 
132900 6.0897425572e+00 7.0266744253e-05 2.6045203404e+00 -4.5111615590e+00 2.6045203404e+00 4.5111615590e+00 
133000 6.0897425573e+00 7.0281651587e-05 2.6045203404e+00 -4.5111615590e+00 2.6045203404e+00 4.5111615590e+00 
133100 6.0897425573e+00 7.0296599799e-05 2.6045203404e+00 -4.5111615590e+00 2.6045203404e+00 4.5111615590e+00 
133200 6.0897425574e+00 7.0311585407e-05 2.6045203404e+00 -4.5111615590e+00 2.6045203404e+00 4.5111615590e+00 
133300 6.0897425574e+00 7.0326604944e-05 2.6045203404e+00 -4.5111615590e+00 2.6045203404e+00 4.5111615590e+00 
133400 6.0897425575e+00 7.0341654955e-05 2.6045203404e+00 -4.5111615590e+00 2.6045203404e+00 4.5111615590e+00 
133500 6.0897425575e+00 7.0356732001e-05 2.6045203404e+00 -4.5111615590e+00 2.6045203404e+00 4.5111615590e+00 
133600 6.0897425576e+00 7.0371832665e-05 2.6045203404e+00 -4.5111615590e+00 2.6045203404e+00 4.5111615590e+00 
133700 6.0897425576e+00 7.0386953558e-05 2.6045203404e+00 -4.5111615590e+00 2.6045203404e+00 4.5111615590e+00 
133800 6.0897425577e+00 7.0402091315e-05 2.6045203404e+00 -4.5111615590e+00 2.6045203404e+00 4.5111615590e+00 
133900 6.0897425577e+00 7.0417242607e-05 2.6045203404e+00 -4.5111615590e+00 2.6045203404e+00 4.5111615590e+00 
134000 6.0897425578e+00 7.0432404134e-05 2.6045203404e+00 -4.5111615590e+00 2.6045203404e+00 4.5111615590e+00 
134100 6.0897425578e+00 7.0447572644e-05 2.6045203404e+00 -4.5111615590e+00 2.6045203404e+00 4.5111615590e+00 
134200 6.0897425579e+00 7.0462744914e-05 2.6045203404e+00 -4.5111615590e+00 2.6045203404e+00 4.5111615590e+00 
134300 6.0897425579e+00 7.0477917769e-05 2.6045203404e+00 -4.5111615590e+00 2.6045203404e+00 4.5111615590e+00 
134400 6.0897425580e+00 7.0493088081e-05 2.6045203404e+00 -4.5111615590e+00 2.6045203404e+00 4.5111615590e+00 
134500 6.0897425580e+00 7.0508252764e-05 2.6045203404e+00 -4.5111615590e+00 2.6045203404e+00 4.5111615590e+00 
134600 6.0897425581e+00 7.0523408783e-05 2.6045203404e+00 -4.5111615590e+00 2.6045203404e+00 4.5111615590e+00 
134700 6.0897425581e+00 7.0538553157e-05 2.6045203404e+00 -4.5111615590e+00 2.6045203404e+00 4.5111615590e+00 
134800 6.0897425582e+00 7.0553682955e-05 2.6045203404e+00 -4.5111615590e+00 2.6045203404e+00 4.5111615590e+00 
134900 6.0897425582e+00 7.0568795300e-05 2.6045203404e+00 -4.5111615590e+00 2.6045203404e+00 4.5111615590e+00 
135000 6.0897425583e+00 7.0583887373e-05 2.6045203404e+00 -4.5111615590e+00 2.6045203404e+00 4.5111615590e+00 
135100 6.0897425583e+00 7.0598956409e-05 2.6045203404e+00 -4.5111615590e+00 2.6045203404e+00 4.5111615590e+00 
135200 6.0897425584e+00 7.0613999704e-05 2.6045203404e+00 -4.5111615590e+00 2.6045203404e+00 4.5111615590e+00 
135300 6.0897425584e+00 7.0629014614e-05 2.6045203404e+00 -4.5111615590e+00 2.6045203404e+00 4.5111615590e+00 
135400 6.0897425584e+00 7.0643998550e-05 2.6045203404e+00 -4.5111615590e+00 2.6045203404e+00 4.5111615590e+00 
135500 6.0897425585e+00 7.0658948992e-05 2.6045203404e+00 -4.5111615590e+00 2.6045203404e+00 4.5111615590e+00 
135600 6.0897425585e+00 7.0670287407e-05 2.6045203404e+00 -4.5111615590e+00 2.6045203404e+00 4.5111615590e+00 
135600 6.0897425585e+00 7.0670287407e-05 2.6045203404e+00 -4.5111615590e+00 2.6045203404e+00 4.5111615590e+00 
