# step Hamiltonian StressXX CellTensor1 CellTensor2 CellTensor3 CellTensor4 
0 5.7858542341e+00 2.0346599670e-01 2.8378601290e+00 -4.9153179282e+00 2.8378601290e+00 4.9153179282e+00 
100 5.7934271092e+00 2.3293175357e-01 2.8378601290e+00 -4.9153179282e+00 2.8378601290e+00 4.9153179282e+00 
200 5.8023636396e+00 2.6039458648e-01 2.8337571162e+00 -4.9082113015e+00 2.8337571162e+00 4.9082113015e+00 
300 5.8130695102e+00 2.8614940667e-01 2.8291638484e+00 -4.9002555283e+00 2.8291638484e+00 4.9002555283e+00 
400 5.8253843061e+00 3.1043801640e-01 2.8241082203e+00 -4.8914989236e+00 2.8241082203e+00 4.8914989236e+00 
500 5.8390827877e+00 3.3343251352e-01 2.8186137933e+00 -4.8819822970e+00 2.8186137933e+00 4.8819822970e+00 
600 5.8538609167e+00 3.5520033809e-01 2.8127010349e+00 -4.8717410989e+00 2.8127010349e+00 4.8717410989e+00 
700 5.8693132551e+00 3.7564976154e-01 2.8063891813e+00 -4.8608086478e+00 2.8063891813e+00 4.8608086478e+00 
800 5.8849007491e+00 3.9445227150e-01 2.7996990883e+00 -4.8492210668e+00 2.7996990883e+00 4.8492210668e+00 
900 5.8999148392e+00 4.1095259076e-01 2.7926575023e+00 -4.8370246821e+00 2.7926575023e+00 4.8370246821e+00 
1000 5.9134610222e+00 4.2411709396e-01 2.7853030083e+00 -4.8242863248e+00 2.7853030083e+00 4.8242863248e+00 
1100 5.9245129032e+00 4.3264045905e-01 2.7776930041e+00 -4.8111054110e+00 2.7776930041e+00 4.8111054110e+00 
1200 5.9321016937e+00 4.3536388524e-01 2.7699088875e+00 -4.7976229255e+00 2.7699088875e+00 4.7976229255e+00 
1300 5.9356394762e+00 4.3197688995e-01 2.7620538019e+00 -4.7840175181e+00 2.7620538019e+00 4.7840175181e+00 
1400 5.9352007917e+00 4.2352658298e-01 2.7542376529e+00 -4.7704795510e+00 2.7542376529e+00 4.7704795510e+00 
1500 5.9314989090e+00 4.1211250684e-01 2.7465526048e+00 -4.7571686571e+00 2.7465526048e+00 4.7571686571e+00 
1600 5.9255330994e+00 3.9989134947e-01 2.7390536700e+00 -4.7441801211e+00 2.7390536700e+00 4.7441801211e+00 
1700 5.9182011554e+00 3.8826657025e-01 2.7317571125e+00 -4.7315421128e+00 2.7317571125e+00 4.7315421128e+00 
1800 5.9101241969e+00 3.7776779340e-01 2.7246536664e+00 -4.7192385833e+00 2.7246536664e+00 4.7192385833e+00 
1900 5.9016674021e+00 3.6836496487e-01 2.7177242134e+00 -4.7072364186e+00 2.7177242134e+00 4.7072364186e+00 
2000 5.8930285698e+00 3.5980760301e-01 2.7109499520e+00 -4.6955030536e+00 2.7109499520e+00 4.6955030536e+00 
2100 5.8843143358e+00 3.5182384708e-01 2.7043164757e+00 -4.6840135356e+00 2.7043164757e+00 4.6840135356e+00 
2200 5.8755862597e+00 3.4419684189e-01 2.6978142326e+00 -4.6727513202e+00 2.6978142326e+00 4.6727513202e+00 
2300 5.8668843204e+00 3.3677681710e-01 2.6914375727e+00 -4.6617066214e+00 2.6914375727e+00 4.6617066214e+00 
2400 5.8582378265e+00 3.2946958153e-01 2.6851835537e+00 -4.6508743426e+00 2.6851835537e+00 4.6508743426e+00 
2500 5.8496702301e+00 3.2222063770e-01 2.6790509406e+00 -4.6402523452e+00 2.6790509406e+00 4.6402523452e+00 
2600 5.8412012069e+00 3.1500165164e-01 2.6730394868e+00 -4.6298402019e+00 2.6730394868e+00 4.6298402019e+00 
2700 5.8328475648e+00 3.0780061968e-01 2.6671494566e+00 -4.6196383702e+00 2.6671494566e+00 4.6196383702e+00 
2800 5.8246236717e+00 3.0061525210e-01 2.6613813247e+00 -4.6096476728e+00 2.6613813247e+00 4.6096476728e+00 
2900 5.8165416959e+00 2.9344871860e-01 2.6557355967e+00 -4.5998689850e+00 2.6557355967e+00 4.5998689850e+00 
3000 5.8086117794e+00 2.8630699880e-01 2.6502127058e+00 -4.5903030572e+00 2.6502127058e+00 4.5903030572e+00 
3100 5.8008421933e+00 2.7919727897e-01 2.6448129591e+00 -4.5809504217e+00 2.6448129591e+00 4.5809504217e+00 
3200 5.7932394898e+00 2.7212701337e-01 2.6395365136e+00 -4.5718113500e+00 2.6395365136e+00 4.5718113500e+00 
3300 5.7858086576e+00 2.6510339983e-01 2.6343833690e+00 -4.5628858418e+00 2.6343833690e+00 4.5628858418e+00 
3400 5.7785532763e+00 2.5813310948e-01 2.6293533713e+00 -4.5541736301e+00 2.6293533713e+00 4.5541736301e+00 
3500 5.7714756701e+00 2.5122216891e-01 2.6244462210e+00 -4.5456741965e+00 2.6244462210e+00 4.5456741965e+00 
3600 5.7645770558e+00 2.4437593168e-01 2.6196614846e+00 -4.5373867899e+00 2.6196614846e+00 4.5373867899e+00 
3700 5.7578576843e+00 2.3759909971e-01 2.6149986057e+00 -4.5293104467e+00 2.6149986057e+00 4.5293104467e+00 
3800 5.7513169729e+00 2.3089577062e-01 2.6104569171e+00 -4.5214440114e+00 2.6104569171e+00 4.5214440114e+00 
3900 5.7449536279e+00 2.2426949633e-01 2.6060356516e+00 -4.5137861549e+00 2.6060356516e+00 4.5137861549e+00 
4000 5.7387657565e+00 2.1772334461e-01 2.6017339515e+00 -4.5063353917e+00 2.6017339515e+00 4.5063353917e+00 
4100 5.7327509679e+00 2.1125995849e-01 2.5975508779e+00 -4.4990900957e+00 2.5975508779e+00 4.4990900957e+00 
4200 5.7269064640e+00 2.0488161121e-01 2.5934854185e+00 -4.4920485135e+00 2.5934854185e+00 4.4920485135e+00 
4300 5.7212291199e+00 1.9859025533e-01 2.5895364947e+00 -4.4852087769e+00 2.5895364947e+00 4.4852087769e+00 
4400 5.7157155543e+00 1.9238756587e-01 2.5857029675e+00 -4.4785689130e+00 2.5857029675e+00 4.4785689130e+00 
4500 5.7103621914e+00 1.8627497753e-01 2.5819836430e+00 -4.4721268541e+00 2.5819836430e+00 4.4721268541e+00 
4600 5.7051653147e+00 1.8025371634e-01 2.5783772774e+00 -4.4658804455e+00 2.5783772774e+00 4.4658804455e+00 
4700 5.7001211122e+00 1.7432482644e-01 2.5748825806e+00 -4.4598274532e+00 2.5748825806e+00 4.4598274532e+00 
4800 5.6952257162e+00 1.6848919244e-01 2.5714982209e+00 -4.4539655701e+00 2.5714982209e+00 4.4539655701e+00 
4900 5.6904752356e+00 1.6274755795e-01 2.5682228274e+00 -4.4482924222e+00 2.5682228274e+00 4.4482924222e+00 
5000 5.6858657844e+00 1.5710054082e-01 2.5650549938e+00 -4.4428055734e+00 2.5650549938e+00 4.4428055734e+00 
5100 5.6813935035e+00 1.5154864568e-01 2.5619932808e+00 -4.4375025309e+00 2.5619932808e+00 4.4375025309e+00 
5200 5.6770545802e+00 1.4609227404e-01 2.5590362189e+00 -4.4323807495e+00 2.5590362189e+00 4.4323807495e+00 
5300 5.6728452623e+00 1.4073173252e-01 2.5561823108e+00 -4.4274376357e+00 2.5561823108e+00 4.4274376357e+00 
5400 5.6687618706e+00 1.3546723941e-01 2.5534300336e+00 -4.4226705517e+00 2.5534300336e+00 4.4226705517e+00 
5500 5.6648008071e+00 1.3029892998e-01 2.5507778411e+00 -4.4180768196e+00 2.5507778411e+00 4.4180768196e+00 
5600 5.6609585625e+00 1.2522686067e-01 2.5482241659e+00 -4.4136537243e+00 2.5482241659e+00 4.4136537243e+00 
5700 5.6572317198e+00 1.2025101247e-01 2.5457674213e+00 -4.4093985180e+00 2.5457674213e+00 4.4093985180e+00 
5800 5.6536169581e+00 1.1537129365e-01 2.5434060037e+00 -4.4053084226e+00 2.5434060037e+00 4.4053084226e+00 
5900 5.6501110535e+00 1.1058754194e-01 2.5411382939e+00 -4.4013806341e+00 2.5411382939e+00 4.4013806341e+00 
6000 5.6467108794e+00 1.0589952638e-01 2.5389626598e+00 -4.3976123252e+00 2.5389626598e+00 4.3976123252e+00 
6100 5.6434134059e+00 1.0130694888e-01 2.5368774574e+00 -4.3940006489e+00 2.5368774574e+00 4.3940006489e+00 
6200 5.6402156984e+00 9.6809445572e-02 2.5348810337e+00 -4.3905427414e+00 2.5348810337e+00 4.3905427414e+00 
6300 5.6371149151e+00 9.2406588138e-02 2.5329717275e+00 -4.3872357261e+00 2.5329717275e+00 4.3872357261e+00 
6400 5.6341083045e+00 8.8097884998e-02 2.5311478719e+00 -4.3840767157e+00 2.5311478719e+00 4.3840767157e+00 
6500 5.6311932021e+00 8.3882782563e-02 2.5294077961e+00 -4.3810628160e+00 2.5294077961e+00 4.3810628160e+00 
6600 5.6283670273e+00 7.9760666498e-02 2.5277498268e+00 -4.3781911288e+00 2.5277498268e+00 4.3781911288e+00 
6700 5.6256272799e+00 7.5730863075e-02 2.5261722901e+00 -4.3754587551e+00 2.5261722901e+00 4.3754587551e+00 
6800 5.6229715362e+00 7.1792640597e-02 2.5246735132e+00 -4.3728627975e+00 2.5246735132e+00 4.3728627975e+00 
6900 5.6203974452e+00 6.7945210947e-02 2.5232518265e+00 -4.3704003638e+00 2.5232518265e+00 4.3704003638e+00 
7000 5.6179027253e+00 6.4187731241e-02 2.5219055644e+00 -4.3680685694e+00 2.5219055644e+00 4.3680685694e+00 
7100 5.6154851603e+00 6.0519305617e-02 2.5206330677e+00 -4.3658645405e+00 2.5206330677e+00 4.3658645405e+00 
7200 5.6131425959e+00 5.6938987136e-02 2.5194326847e+00 -4.3637854162e+00 2.5194326847e+00 4.3637854162e+00 
7300 5.6108729364e+00 5.3445779816e-02 2.5183027731e+00 -4.3618283518e+00 2.5183027731e+00 4.3618283518e+00 
7400 5.6086741412e+00 5.0038640785e-02 2.5172417008e+00 -4.3599905207e+00 2.5172417008e+00 4.3599905207e+00 
7500 5.6065442218e+00 4.6716482540e-02 2.5162478481e+00 -4.3582691174e+00 2.5162478481e+00 4.3582691174e+00 
7600 5.6044812388e+00 4.3478175323e-02 2.5153196087e+00 -4.3566613596e+00 2.5153196087e+00 4.3566613596e+00 
7700 5.6024832992e+00 4.0322549580e-02 2.5144553908e+00 -4.3551644902e+00 2.5144553908e+00 4.3551644902e+00 
7800 5.6005485538e+00 3.7248398513e-02 2.5136536187e+00 -4.3537757802e+00 2.5136536187e+00 4.3537757802e+00 
7900 5.5986751949e+00 3.4254480701e-02 2.5129127336e+00 -4.3524925296e+00 2.5129127336e+00 4.3524925296e+00 
8000 5.5968614541e+00 3.1339522780e-02 2.5122311952e+00 -4.3513120704e+00 2.5122311952e+00 4.3513120704e+00 
8100 5.5951056004e+00 2.8502222176e-02 2.5116074822e+00 -4.3502317678e+00 2.5116074822e+00 4.3502317678e+00 
8200 5.5934059385e+00 2.5741249863e-02 2.5110400936e+00 -4.3492490219e+00 2.5110400936e+00 4.3492490219e+00 
8300 5.5917608074e+00 2.3055253152e-02 2.5105275495e+00 -4.3483612696e+00 2.5105275495e+00 4.3483612696e+00 
8400 5.5901685786e+00 2.0442858480e-02 2.5100683920e+00 -4.3475659855e+00 2.5100683920e+00 4.3475659855e+00 
8500 5.5886276554e+00 1.7902674199e-02 2.5096611859e+00 -4.3468606837e+00 2.5096611859e+00 4.3468606837e+00 
8600 5.5871364719e+00 1.5433293344e-02 2.5093045192e+00 -4.3462429189e+00 2.5093045192e+00 4.3462429189e+00 
8700 5.5856934917e+00 1.3033296378e-02 2.5089970042e+00 -4.3457102872e+00 2.5089970042e+00 4.3457102872e+00 
8800 5.5842972078e+00 1.0701253891e-02 2.5087372774e+00 -4.3452604274e+00 2.5087372774e+00 4.3452604274e+00 
8900 5.5829461415e+00 8.4357292544e-03 2.5085240008e+00 -4.3448910213e+00 2.5085240008e+00 4.3448910213e+00 
9000 5.5816388427e+00 6.2352812042e-03 2.5083558614e+00 -4.3445997953e+00 2.5083558614e+00 4.3445997953e+00 
9100 5.5803738886e+00 4.0984663671e-03 2.5082315722e+00 -4.3443845202e+00 2.5082315722e+00 4.3443845202e+00 
9200 5.5791498845e+00 2.0238417005e-03 2.5081498723e+00 -4.3442430118e+00 2.5081498723e+00 4.3442430118e+00 
9300 5.5779654629e+00 9.9668489600e-06 2.5081095271e+00 -4.3441731319e+00 2.5081095271e+00 4.3441731319e+00 
9400 5.5768192834e+00 -1.9445204640e-03 2.5081095271e+00 -4.3441731319e+00 2.5081095271e+00 4.3441731319e+00 
9500 5.5757100341e+00 -3.8411924183e-03 2.5081482919e+00 -4.3442402744e+00 2.5081482919e+00 4.3442402744e+00 
9600 5.5746364302e+00 -5.6813983654e-03 2.5082248665e+00 -4.3443729056e+00 2.5082248665e+00 4.3443729056e+00 
9700 5.5735972145e+00 -7.4665459309e-03 2.5083381227e+00 -4.3445690712e+00 2.5083381227e+00 4.3445690712e+00 
9800 5.5725911575e+00 -9.1980298763e-03 2.5084869587e+00 -4.3448268626e+00 2.5084869587e+00 4.3448268626e+00 
9900 5.5716170579e+00 -1.0877230326e-02 2.5086702992e+00 -4.3451444176e+00 2.5086702992e+00 4.3451444176e+00 
10000 5.5706737421e+00 -1.2505511125e-02 2.5088870950e+00 -4.3455199191e+00 2.5088870950e+00 4.3455199191e+00 
10100 5.5697600653e+00 -1.4084218314e-02 2.5091363234e+00 -4.3459515953e+00 2.5091363234e+00 4.3459515953e+00 
10200 5.5688749109e+00 -1.5614678740e-02 2.5094169874e+00 -4.3464377195e+00 2.5094169874e+00 4.3464377195e+00 
10300 5.5680171910e+00 -1.7098198772e-02 2.5097281154e+00 -4.3469766091e+00 2.5097281154e+00 4.3469766091e+00 
10400 5.5671858464e+00 -1.8536063148e-02 2.5100687616e+00 -4.3475666256e+00 2.5100687616e+00 4.3475666256e+00 
10500 5.5663798470e+00 -1.9929533924e-02 2.5104380048e+00 -4.3482061736e+00 2.5104380048e+00 4.3482061736e+00 
10600 5.5655981916e+00 -2.1279849545e-02 2.5108349487e+00 -4.3488937005e+00 2.5108349487e+00 4.3488937005e+00 
10700 5.5648399080e+00 -2.2588224024e-02 2.5112587210e+00 -4.3496276958e+00 2.5112587210e+00 4.3496276958e+00 
10800 5.5641040532e+00 -2.3855846227e-02 2.5117084735e+00 -4.3504066899e+00 2.5117084735e+00 4.3504066899e+00 
10900 5.5633897132e+00 -2.5083879255e-02 2.5121833813e+00 -4.3512292544e+00 2.5121833813e+00 4.3512292544e+00 
11000 5.5626960030e+00 -2.6273459942e-02 2.5126826424e+00 -4.3520940000e+00 2.5126826424e+00 4.3520940000e+00 
11100 5.5620220666e+00 -2.7425698429e-02 2.5132054775e+00 -4.3529995768e+00 2.5132054775e+00 4.3529995768e+00 
11200 5.5613670769e+00 -2.8541677847e-02 2.5137511290e+00 -4.3539446731e+00 2.5137511290e+00 4.3539446731e+00 
11300 5.5607302352e+00 -2.9622454075e-02 2.5143188613e+00 -4.3549280142e+00 2.5143188613e+00 4.3549280142e+00 
11400 5.5601107713e+00 -3.0669055589e-02 2.5149079594e+00 -4.3559483621e+00 2.5149079594e+00 4.3559483621e+00 
11500 5.5595079431e+00 -3.1682483385e-02 2.5155177292e+00 -4.3570045142e+00 2.5155177292e+00 4.3570045142e+00 
11600 5.5589210365e+00 -3.2663710983e-02 2.5161474962e+00 -4.3580953028e+00 2.5161474962e+00 4.3580953028e+00 
11700 5.5583493645e+00 -3.3613684488e-02 2.5167966059e+00 -4.3592195938e+00 2.5167966059e+00 4.3592195938e+00 
11800 5.5577922677e+00 -3.4533322732e-02 2.5174644225e+00 -4.3603762861e+00 2.5174644225e+00 4.3603762861e+00 
11900 5.5572491128e+00 -3.5423517462e-02 2.5181503287e+00 -4.3615643105e+00 2.5181503287e+00 4.3615643105e+00 
12000 5.5567192933e+00 -3.6285133592e-02 2.5188537253e+00 -4.3627826291e+00 2.5188537253e+00 4.3627826291e+00 
12100 5.5562022279e+00 -3.7119009507e-02 2.5195740304e+00 -4.3640302341e+00 2.5195740304e+00 4.3640302341e+00 
12200 5.5556973608e+00 -3.7925957408e-02 2.5203106791e+00 -4.3653061470e+00 2.5203106791e+00 4.3653061470e+00 
12300 5.5552041608e+00 -3.8706763701e-02 2.5210631229e+00 -4.3666094179e+00 2.5210631229e+00 4.3666094179e+00 
12400 5.5547221207e+00 -3.9462189435e-02 2.5218308293e+00 -4.3679391245e+00 2.5218308293e+00 4.3679391245e+00 
12500 5.5542507569e+00 -4.0192970756e-02 2.5226132813e+00 -4.3692943710e+00 2.5226132813e+00 4.3692943710e+00 
12600 5.5537896084e+00 -4.0899819409e-02 2.5234099766e+00 -4.3706742879e+00 2.5234099766e+00 4.3706742879e+00 
12700 5.5533382366e+00 -4.1583423255e-02 2.5242204277e+00 -4.3720780303e+00 2.5242204277e+00 4.3720780303e+00 
12800 5.5528962246e+00 -4.2244446820e-02 2.5250441609e+00 -4.3735047781e+00 2.5250441609e+00 4.3735047781e+00 
12900 5.5524631759e+00 -4.2883531856e-02 2.5258807162e+00 -4.3749537343e+00 2.5258807162e+00 4.3749537343e+00 
13000 5.5520387148e+00 -4.3501297924e-02 2.5267296465e+00 -4.3764241247e+00 2.5267296465e+00 4.3764241247e+00 
13100 5.5516224848e+00 -4.4098342989e-02 2.5275905175e+00 -4.3779151971e+00 2.5275905175e+00 4.3779151971e+00 
13200 5.5512141482e+00 -4.4675244027e-02 2.5284629072e+00 -4.3794262203e+00 2.5284629072e+00 4.3794262203e+00 
13300 5.5508133857e+00 -4.5232557634e-02 2.5293464053e+00 -4.3809564840e+00 2.5293464053e+00 4.3809564840e+00 
13400 5.5504198952e+00 -4.5770820653e-02 2.5302406131e+00 -4.3825052972e+00 2.5302406131e+00 4.3825052972e+00 
13500 5.5500333915e+00 -4.6290550789e-02 2.5311451426e+00 -4.3840719883e+00 2.5311451426e+00 4.3840719883e+00 
13600 5.5496536056e+00 -4.6792247236e-02 2.5320596167e+00 -4.3856559040e+00 2.5320596167e+00 4.3856559040e+00 
13700 5.5492802837e+00 -4.7276391299e-02 2.5329836687e+00 -4.3872564089e+00 2.5329836687e+00 4.3872564089e+00 
13800 5.5489131869e+00 -4.7743447010e-02 2.5339169414e+00 -4.3888728847e+00 2.5339169414e+00 4.3888728847e+00 
13900 5.5485520902e+00 -4.8193861748e-02 2.5348590876e+00 -4.3905047298e+00 2.5348590876e+00 4.3905047298e+00 
14000 5.5481967821e+00 -4.8628066842e-02 2.5358097691e+00 -4.3921513585e+00 2.5358097691e+00 4.3921513585e+00 
14100 5.5478470639e+00 -4.9046478175e-02 2.5367686567e+00 -4.3938122005e+00 2.5367686567e+00 4.3938122005e+00 
14200 5.5475027491e+00 -4.9449496772e-02 2.5377354298e+00 -4.3954867006e+00 2.5377354298e+00 4.3954867006e+00 
14300 5.5471636626e+00 -4.9837509386e-02 2.5387097760e+00 -4.3971743178e+00 2.5387097760e+00 4.3971743178e+00 
14400 5.5468296402e+00 -5.0210889064e-02 2.5396913912e+00 -4.3988745251e+00 2.5396913912e+00 4.3988745251e+00 
14500 5.5465005281e+00 -5.0569995711e-02 2.5406799787e+00 -4.4005868089e+00 2.5406799787e+00 4.4005868089e+00 
14600 5.5461761824e+00 -5.0915176629e-02 2.5416752496e+00 -4.4023106687e+00 2.5416752496e+00 4.4023106687e+00 
14700 5.5458564682e+00 -5.1246767054e-02 2.5426769220e+00 -4.4040456162e+00 2.5426769220e+00 4.4040456162e+00 
14800 5.5455412594e+00 -5.1565090673e-02 2.5436847211e+00 -4.4057911754e+00 2.5436847211e+00 4.4057911754e+00 
14900 5.5452304381e+00 -5.1870460130e-02 2.5446983789e+00 -4.4075468821e+00 2.5446983789e+00 4.4075468821e+00 
15000 5.5449238940e+00 -5.2163177510e-02 2.5457176337e+00 -4.4093122832e+00 2.5457176337e+00 4.4093122832e+00 
15100 5.5446215240e+00 -5.2443534820e-02 2.5467422303e+00 -4.4110869367e+00 2.5467422303e+00 4.4110869367e+00 
15200 5.5443232317e+00 -5.2711814440e-02 2.5477719197e+00 -4.4128704110e+00 2.5477719197e+00 4.4128704110e+00 
15300 5.5440289271e+00 -5.2968289573e-02 2.5488064585e+00 -4.4146622848e+00 2.5488064585e+00 4.4146622848e+00 
15400 5.5437385261e+00 -5.3213224670e-02 2.5498456093e+00 -4.4164621468e+00 2.5498456093e+00 4.4164621468e+00 
15500 5.5434519498e+00 -5.3446875842e-02 2.5508891402e+00 -4.4182695953e+00 2.5508891402e+00 4.4182695953e+00 
15600 5.5431691246e+00 -5.3669491256e-02 2.5519368246e+00 -4.4200842379e+00 2.5519368246e+00 4.4200842379e+00 
15700 5.5428899815e+00 -5.3881311516e-02 2.5529884410e+00 -4.4219056910e+00 2.5529884410e+00 4.4219056910e+00 
15800 5.5426144560e+00 -5.4082570033e-02 2.5540437733e+00 -4.4237335801e+00 2.5540437733e+00 4.4237335801e+00 
15900 5.5423424875e+00 -5.4273493369e-02 2.5551026100e+00 -4.4255675391e+00 2.5551026100e+00 4.4255675391e+00 
16000 5.5420740190e+00 -5.4454301578e-02 2.5561647445e+00 -4.4274072099e+00 2.5561647445e+00 4.4274072099e+00 
16100 5.5418089972e+00 -5.4625208524e-02 2.5572299748e+00 -4.4292522429e+00 2.5572299748e+00 4.4292522429e+00 
16200 5.5415473717e+00 -5.4786422189e-02 2.5582981034e+00 -4.4311022959e+00 2.5582981034e+00 4.4311022959e+00 
16300 5.5412890951e+00 -5.4938144966e-02 2.5593689372e+00 -4.4329570345e+00 2.5593689372e+00 4.4329570345e+00 
16400 5.5410341225e+00 -5.5080573936e-02 2.5604422874e+00 -4.4348161316e+00 2.5604422874e+00 4.4348161316e+00 
16500 5.5407824113e+00 -5.5213901134e-02 2.5615179693e+00 -4.4366792673e+00 2.5615179693e+00 4.4366792673e+00 
16600 5.5405339214e+00 -5.5338313801e-02 2.5625958023e+00 -4.4385461288e+00 2.5625958023e+00 4.4385461288e+00 
16700 5.5402886144e+00 -5.5453994622e-02 2.5636756097e+00 -4.4404164101e+00 2.5636756097e+00 4.4404164101e+00 
16800 5.5400464535e+00 -5.5561121957e-02 2.5647572187e+00 -4.4422898118e+00 2.5647572187e+00 4.4422898118e+00 
16900 5.5398074039e+00 -5.5659870048e-02 2.5658404602e+00 -4.4441660412e+00 2.5658404602e+00 4.4441660412e+00 
17000 5.5395714319e+00 -5.5750409232e-02 2.5669251689e+00 -4.4460448118e+00 2.5669251689e+00 4.4460448118e+00 
17100 5.5393385050e+00 -5.5832906124e-02 2.5680111830e+00 -4.4479258434e+00 2.5680111830e+00 4.4479258434e+00 
17200 5.5391085922e+00 -5.5907523804e-02 2.5690983442e+00 -4.4498088618e+00 2.5690983442e+00 4.4498088618e+00 
17300 5.5388816631e+00 -5.5974421987e-02 2.5701864978e+00 -4.4516935990e+00 2.5701864978e+00 4.4516935990e+00 
17400 5.5386576883e+00 -5.6033757179e-02 2.5712754921e+00 -4.4535797926e+00 2.5712754921e+00 4.4535797926e+00 
17500 5.5384366391e+00 -5.6085682836e-02 2.5723651792e+00 -4.4554671860e+00 2.5723651792e+00 4.4554671860e+00 
17600 5.5382184876e+00 -5.6130349497e-02 2.5734554140e+00 -4.4573555281e+00 2.5734554140e+00 4.4573555281e+00 
17700 5.5380032064e+00 -5.6167904924e-02 2.5745460549e+00 -4.4592445735e+00 2.5745460549e+00 4.4592445735e+00 
17800 5.5377907683e+00 -5.6198494225e-02 2.5756369631e+00 -4.4611340820e+00 2.5756369631e+00 4.4611340820e+00 
17900 5.5375811468e+00 -5.6222259966e-02 2.5767280031e+00 -4.4630238187e+00 2.5767280031e+00 4.4630238187e+00 
18000 5.5373743157e+00 -5.6239342285e-02 2.5778190423e+00 -4.4649135541e+00 2.5778190423e+00 4.4649135541e+00 
18100 5.5371702488e+00 -5.6249878993e-02 2.5789099511e+00 -4.4668030634e+00 2.5789099511e+00 4.4668030634e+00 
18200 5.5369689205e+00 -5.6254005663e-02 2.5800006026e+00 -4.4686921273e+00 2.5800006026e+00 4.4686921273e+00 
18300 5.5367703050e+00 -5.6251855726e-02 2.5810908730e+00 -4.4705805310e+00 2.5810908730e+00 4.4705805310e+00 
18400 5.5365743767e+00 -5.6243560544e-02 2.5821806412e+00 -4.4724680648e+00 2.5821806412e+00 4.4724680648e+00 
18500 5.5363811102e+00 -5.6229249493e-02 2.5832697887e+00 -4.4743545237e+00 2.5832697887e+00 4.4743545237e+00 
18600 5.5361904801e+00 -5.6209050027e-02 2.5843581999e+00 -4.4762397072e+00 2.5843581999e+00 4.4762397072e+00 
18700 5.5360024609e+00 -5.6183087746e-02 2.5854457618e+00 -4.4781234196e+00 2.5854457618e+00 4.4781234196e+00 
18800 5.5358170271e+00 -5.6151486454e-02 2.5865323640e+00 -4.4800054699e+00 2.5865323640e+00 4.4800054699e+00 
18900 5.5356341533e+00 -5.6114368214e-02 2.5876178987e+00 -4.4818856711e+00 2.5876178987e+00 4.4818856711e+00 
19000 5.5354538139e+00 -5.6071853398e-02 2.5887022606e+00 -4.4837638410e+00 2.5887022606e+00 4.4837638410e+00 
19100 5.5352759833e+00 -5.6024060735e-02 2.5897853469e+00 -4.4856398016e+00 2.5897853469e+00 4.4856398016e+00 
19200 5.5351006359e+00 -5.5971107350e-02 2.5908670574e+00 -4.4875133791e+00 2.5908670574e+00 4.4875133791e+00 
19300 5.5349277459e+00 -5.5913108804e-02 2.5919472941e+00 -4.4893844040e+00 2.5919472941e+00 4.4893844040e+00 
19400 5.5347572874e+00 -5.5850179130e-02 2.5930259616e+00 -4.4912527109e+00 2.5930259616e+00 4.4912527109e+00 
19500 5.5345892346e+00 -5.5782430865e-02 2.5941029667e+00 -4.4931181384e+00 2.5941029667e+00 4.4931181384e+00 
19600 5.5344235614e+00 -5.5709975075e-02 2.5951782186e+00 -4.4949805293e+00 2.5951782186e+00 4.4949805293e+00 
19700 5.5342602417e+00 -5.5632921387e-02 2.5962516288e+00 -4.4968397303e+00 2.5962516288e+00 4.4968397303e+00 
19800 5.5340992493e+00 -5.5551378008e-02 2.5973231109e+00 -4.4986955918e+00 2.5973231109e+00 4.4986955918e+00 
19900 5.5339405581e+00 -5.5465451749e-02 2.5983925811e+00 -4.5005479684e+00 2.5983925811e+00 4.5005479684e+00 
20000 5.5337841416e+00 -5.5375248041e-02 2.5994599572e+00 -4.5023967182e+00 2.5994599572e+00 4.5023967182e+00 
20100 5.5336299735e+00 -5.5280870957e-02 2.6005251598e+00 -4.5042417031e+00 2.6005251598e+00 4.5042417031e+00 
20200 5.5334780274e+00 -5.5182423223e-02 2.6015881112e+00 -4.5060827889e+00 2.6015881112e+00 4.5060827889e+00 
20300 5.5333282768e+00 -5.5080006231e-02 2.6026487358e+00 -4.5079198447e+00 2.6026487358e+00 4.5079198447e+00 
20400 5.5331806952e+00 -5.4973720055e-02 2.6037069604e+00 -4.5097527435e+00 2.6037069604e+00 4.5097527435e+00 
20500 5.5330352561e+00 -5.4863663461e-02 2.6047627135e+00 -4.5115813614e+00 2.6047627135e+00 4.5115813614e+00 
20600 5.5328919330e+00 -5.4749933911e-02 2.6058159257e+00 -4.5134055785e+00 2.6058159257e+00 4.5134055785e+00 
20700 5.5327506992e+00 -5.4632627579e-02 2.6068665297e+00 -4.5152252780e+00 2.6068665297e+00 4.5152252780e+00 
20800 5.5326115284e+00 -5.4511839353e-02 2.6079144600e+00 -4.5170403464e+00 2.6079144600e+00 4.5170403464e+00 
20900 5.5324743941e+00 -5.4387662844e-02 2.6089596530e+00 -4.5188506738e+00 2.6089596530e+00 4.5188506738e+00 
21000 5.5323392697e+00 -5.4260190392e-02 2.6100020471e+00 -4.5206561534e+00 2.6100020471e+00 4.5206561534e+00 
21100 5.5322061290e+00 -5.4129513067e-02 2.6110415825e+00 -4.5224566815e+00 2.6110415825e+00 4.5224566815e+00 
21200 5.5320749456e+00 -5.3995720679e-02 2.6120782012e+00 -4.5242521578e+00 2.6120782012e+00 4.5242521578e+00 
21300 5.5319456933e+00 -5.3858901780e-02 2.6131118471e+00 -4.5260424851e+00 2.6131118471e+00 4.5260424851e+00 
21400 5.5318183460e+00 -5.3719143667e-02 2.6141424659e+00 -4.5278275691e+00 2.6141424659e+00 4.5278275691e+00 
21500 5.5316928775e+00 -5.3576532383e-02 2.6151700048e+00 -4.5296073187e+00 2.6151700048e+00 4.5296073187e+00 
21600 5.5315692621e+00 -5.3431152726e-02 2.6161944129e+00 -4.5313816456e+00 2.6161944129e+00 4.5313816456e+00 
21700 5.5314474738e+00 -5.3283088246e-02 2.6172156411e+00 -4.5331504647e+00 2.6172156411e+00 4.5331504647e+00 
21800 5.5313274871e+00 -5.3132421253e-02 2.6182336416e+00 -4.5349136934e+00 2.6182336416e+00 4.5349136934e+00 
21900 5.5312092765e+00 -5.2979232814e-02 2.6192483687e+00 -4.5366712523e+00 2.6192483687e+00 4.5366712523e+00 
22000 5.5310928166e+00 -5.2823602760e-02 2.6202597780e+00 -4.5384230645e+00 2.6202597780e+00 4.5384230645e+00 
22100 5.5309780822e+00 -5.2665609687e-02 2.6212678267e+00 -4.5401690560e+00 2.6212678267e+00 4.5401690560e+00 
22200 5.5308650484e+00 -5.2505330959e-02 2.6222724736e+00 -4.5419091555e+00 2.6222724736e+00 4.5419091555e+00 
22300 5.5307536903e+00 -5.2342842712e-02 2.6232736790e+00 -4.5436432942e+00 2.6232736790e+00 4.5436432942e+00 
22400 5.5306439834e+00 -5.2178219854e-02 2.6242714049e+00 -4.5453714061e+00 2.6242714049e+00 4.5453714061e+00 
22500 5.5305359033e+00 -5.2011536072e-02 2.6252656144e+00 -4.5470934275e+00 2.6252656144e+00 4.5470934275e+00 
22600 5.5304294258e+00 -5.1842863832e-02 2.6262562724e+00 -4.5488092974e+00 2.6262562724e+00 4.5488092974e+00 
22700 5.5303245270e+00 -5.1672274387e-02 2.6272433449e+00 -4.5505189573e+00 2.6272433449e+00 4.5505189573e+00 
22800 5.5302211831e+00 -5.1499837776e-02 2.6282267996e+00 -4.5522223508e+00 2.6282267996e+00 4.5522223508e+00 
22900 5.5301193707e+00 -5.1325622832e-02 2.6292066054e+00 -4.5539194242e+00 2.6292066054e+00 4.5539194242e+00 
23000 5.5300190665e+00 -5.1149697183e-02 2.6301827325e+00 -4.5556101259e+00 2.6301827325e+00 4.5556101259e+00 
23100 5.5299202476e+00 -5.0972127261e-02 2.6311551526e+00 -4.5572944069e+00 2.6311551526e+00 4.5572944069e+00 
23200 5.5298228911e+00 -5.0792978304e-02 2.6321238384e+00 -4.5589722199e+00 2.6321238384e+00 4.5589722199e+00 
23300 5.5297269747e+00 -5.0612314364e-02 2.6330887641e+00 -4.5606435203e+00 2.6330887641e+00 4.5606435203e+00 
23400 5.5296324761e+00 -5.0430198310e-02 2.6340499051e+00 -4.5623082654e+00 2.6340499051e+00 4.5623082654e+00 
23500 5.5295393734e+00 -5.0246691835e-02 2.6350072380e+00 -4.5639664146e+00 2.6350072380e+00 4.5639664146e+00 
23600 5.5294476449e+00 -5.0061855464e-02 2.6359607405e+00 -4.5656179294e+00 2.6359607405e+00 4.5656179294e+00 
23700 5.5293572691e+00 -4.9875748562e-02 2.6369103916e+00 -4.5672627733e+00 2.6369103916e+00 4.5672627733e+00 
23800 5.5292682250e+00 -4.9688429334e-02 2.6378561714e+00 -4.5689009119e+00 2.6378561714e+00 4.5689009119e+00 
23900 5.5291804918e+00 -4.9499954844e-02 2.6387980610e+00 -4.5705323125e+00 2.6387980610e+00 4.5705323125e+00 
24000 5.5290940487e+00 -4.9310381011e-02 2.6397360427e+00 -4.5721569445e+00 2.6397360427e+00 4.5721569445e+00 
24100 5.5290088757e+00 -4.9119762628e-02 2.6406700999e+00 -4.5737747790e+00 2.6406700999e+00 4.5737747790e+00 
24200 5.5289249525e+00 -4.8928153362e-02 2.6416002169e+00 -4.5753857889e+00 2.6416002169e+00 4.5753857889e+00 
24300 5.5288422596e+00 -4.8735605768e-02 2.6425263792e+00 -4.5769899491e+00 2.6425263792e+00 4.5769899491e+00 
24400 5.5287607775e+00 -4.8542171297e-02 2.6434485732e+00 -4.5785872360e+00 2.6434485732e+00 4.5785872360e+00 
24500 5.5286804870e+00 -4.8347900305e-02 2.6443667863e+00 -4.5801776277e+00 2.6443667863e+00 4.5801776277e+00 
24600 5.5286013692e+00 -4.8152842063e-02 2.6452810067e+00 -4.5817611040e+00 2.6452810067e+00 4.5817611040e+00 
24700 5.5285234056e+00 -4.7957044768e-02 2.6461912239e+00 -4.5833376463e+00 2.6461912239e+00 4.5833376463e+00 
24800 5.5284465779e+00 -4.7760555553e-02 2.6470974279e+00 -4.5849072377e+00 2.6470974279e+00 4.5849072377e+00 
24900 5.5283708679e+00 -4.7563420498e-02 2.6479996098e+00 -4.5864698625e+00 2.6479996098e+00 4.5864698625e+00 
25000 5.5282962581e+00 -4.7365684640e-02 2.6488977615e+00 -4.5880255069e+00 2.6488977615e+00 4.5880255069e+00 
25100 5.5282227308e+00 -4.7167391986e-02 2.6497918758e+00 -4.5895741584e+00 2.6497918758e+00 4.5895741584e+00 
25200 5.5281502689e+00 -4.6968585523e-02 2.6506819463e+00 -4.5911158057e+00 2.6506819463e+00 4.5911158057e+00 
25300 5.5280788555e+00 -4.6769307230e-02 2.6515679674e+00 -4.5926504392e+00 2.6515679674e+00 4.5926504392e+00 
25400 5.5280084739e+00 -4.6569598092e-02 2.6524499342e+00 -4.5941780505e+00 2.6524499342e+00 4.5941780505e+00 
25500 5.5279391078e+00 -4.6369498110e-02 2.6533278427e+00 -4.5956986326e+00 2.6533278427e+00 4.5956986326e+00 
25600 5.5278707410e+00 -4.6169046312e-02 2.6542016895e+00 -4.5972121797e+00 2.6542016895e+00 4.5972121797e+00 
25700 5.5278033577e+00 -4.5968280771e-02 2.6550714721e+00 -4.5987186873e+00 2.6550714721e+00 4.5987186873e+00 
25800 5.5277369424e+00 -4.5767238611e-02 2.6559371885e+00 -4.6002181521e+00 2.6559371885e+00 4.6002181521e+00 
25900 5.5276714796e+00 -4.5565956026e-02 2.6567988374e+00 -4.6017105719e+00 2.6567988374e+00 4.6017105719e+00 
26000 5.5276069543e+00 -4.5364468287e-02 2.6576564185e+00 -4.6031959459e+00 2.6576564185e+00 4.6031959459e+00 
26100 5.5275433517e+00 -4.5162809763e-02 2.6585099317e+00 -4.6046742741e+00 2.6585099317e+00 4.6046742741e+00 
26200 5.5274806573e+00 -4.4961013924e-02 2.6593593777e+00 -4.6061455578e+00 2.6593593777e+00 4.6061455578e+00 
26300 5.5274188567e+00 -4.4759113365e-02 2.6602047579e+00 -4.6076097992e+00 2.6602047579e+00 4.6076097992e+00 
26400 5.5273579359e+00 -4.4557139812e-02 2.6610460742e+00 -4.6090670018e+00 2.6610460742e+00 4.6090670018e+00 
26500 5.5272978810e+00 -4.4355124138e-02 2.6618833290e+00 -4.6105171697e+00 2.6618833290e+00 4.6105171697e+00 
26600 5.5272386785e+00 -4.4153096378e-02 2.6627165255e+00 -4.6119603084e+00 2.6627165255e+00 4.6119603084e+00 
26700 5.5271803149e+00 -4.3951085740e-02 2.6635456673e+00 -4.6133964240e+00 2.6635456673e+00 4.6133964240e+00 
26800 5.5271227772e+00 -4.3749120622e-02 2.6643707583e+00 -4.6148255236e+00 2.6643707583e+00 4.6148255236e+00 
26900 5.5270660525e+00 -4.3547228622e-02 2.6651918033e+00 -4.6162476153e+00 2.6651918033e+00 4.6162476153e+00 
27000 5.5270101280e+00 -4.3345436554e-02 2.6660088074e+00 -4.6176627079e+00 2.6660088074e+00 4.6176627079e+00 
27100 5.5269549913e+00 -4.3143770461e-02 2.6668217762e+00 -4.6190708111e+00 2.6668217762e+00 4.6190708111e+00 
27200 5.5269006302e+00 -4.2942255630e-02 2.6676307157e+00 -4.6204719355e+00 2.6676307157e+00 4.6204719355e+00 
27300 5.5268470326e+00 -4.2740916604e-02 2.6684356325e+00 -4.6218660923e+00 2.6684356325e+00 4.6218660923e+00 
27400 5.5267941868e+00 -4.2539777198e-02 2.6692365335e+00 -4.6232532934e+00 2.6692365335e+00 4.6232532934e+00 
27500 5.5267420810e+00 -4.2338860510e-02 2.6700334260e+00 -4.6246335518e+00 2.6700334260e+00 4.6246335518e+00 
27600 5.5266907040e+00 -4.2138188936e-02 2.6708263179e+00 -4.6260068808e+00 2.6708263179e+00 4.6260068808e+00 
27700 5.5266400444e+00 -4.1937784184e-02 2.6716152172e+00 -4.6273732945e+00 2.6716152172e+00 4.6273732945e+00 
27800 5.5265900913e+00 -4.1737667287e-02 2.6724001326e+00 -4.6287328078e+00 2.6724001326e+00 4.6287328078e+00 
27900 5.5265408338e+00 -4.1537858615e-02 2.6731810729e+00 -4.6300854361e+00 2.6731810729e+00 4.6300854361e+00 
28000 5.5264922613e+00 -4.1338377893e-02 2.6739580474e+00 -4.6314311954e+00 2.6739580474e+00 4.6314311954e+00 
28100 5.5264443633e+00 -4.1139244209e-02 2.6747310657e+00 -4.6327701023e+00 2.6747310657e+00 4.6327701023e+00 
28200 5.5263971295e+00 -4.0940476029e-02 2.6755001377e+00 -4.6341021741e+00 2.6755001377e+00 4.6341021741e+00 
28300 5.5263505499e+00 -4.0742091212e-02 2.6762652736e+00 -4.6354274284e+00 2.6762652736e+00 4.6354274284e+00 
28400 5.5263046145e+00 -4.0544107022e-02 2.6770264841e+00 -4.6367458836e+00 2.6770264841e+00 4.6367458836e+00 
28500 5.5262593135e+00 -4.0346540137e-02 2.6777837799e+00 -4.6380575584e+00 2.6777837799e+00 4.6380575584e+00 
28600 5.5262146374e+00 -4.0149406670e-02 2.6785371721e+00 -4.6393624721e+00 2.6785371721e+00 4.6393624721e+00 
28700 5.5261705768e+00 -3.9952722173e-02 2.6792866722e+00 -4.6406606444e+00 2.6792866722e+00 4.6406606444e+00 
28800 5.5261271223e+00 -3.9756501655e-02 2.6800322919e+00 -4.6419520954e+00 2.6800322919e+00 4.6419520954e+00 
28900 5.5260842649e+00 -3.9560759593e-02 2.6807740429e+00 -4.6432368459e+00 2.6807740429e+00 4.6432368459e+00 
29000 5.5260419956e+00 -3.9365509942e-02 2.6815119375e+00 -4.6445149169e+00 2.6815119375e+00 4.6445149169e+00 
29100 5.5260003057e+00 -3.9170766152e-02 2.6822459880e+00 -4.6457863297e+00 2.6822459880e+00 4.6457863297e+00 
29200 5.5259591864e+00 -3.8976541175e-02 2.6829762071e+00 -4.6470511062e+00 2.6829762071e+00 4.6470511062e+00 
29300 5.5259186292e+00 -3.8782847479e-02 2.6837026075e+00 -4.6483092686e+00 2.6837026075e+00 4.6483092686e+00 
29400 5.5258786259e+00 -3.8589697061e-02 2.6844252022e+00 -4.6495608394e+00 2.6844252022e+00 4.6495608394e+00 
29500 5.5258391681e+00 -3.8397101453e-02 2.6851440045e+00 -4.6508058414e+00 2.6851440045e+00 4.6508058414e+00 
29600 5.5258002478e+00 -3.8205071742e-02 2.6858590277e+00 -4.6520442979e+00 2.6858590277e+00 4.6520442979e+00 
29700 5.5257618571e+00 -3.8013618574e-02 2.6865702854e+00 -4.6532762324e+00 2.6865702854e+00 4.6532762324e+00 
29800 5.5257239880e+00 -3.7822752167e-02 2.6872777913e+00 -4.6545016686e+00 2.6872777913e+00 4.6545016686e+00 
29900 5.5256866330e+00 -3.7632482323e-02 2.6879815593e+00 -4.6557206305e+00 2.6879815593e+00 4.6557206305e+00 
30000 5.5256497845e+00 -3.7442818437e-02 2.6886816034e+00 -4.6569331425e+00 2.6886816034e+00 4.6569331425e+00 
30100 5.5256134349e+00 -3.7253769509e-02 2.6893779379e+00 -4.6581392292e+00 2.6893779379e+00 4.6581392292e+00 
30200 5.5255775771e+00 -3.7065344154e-02 2.6900705771e+00 -4.6593389154e+00 2.6900705771e+00 4.6593389154e+00 
30300 5.5255422037e+00 -3.6877550611e-02 2.6907595353e+00 -4.6605322261e+00 2.6907595353e+00 4.6605322261e+00 
30400 5.5255073077e+00 -3.6690396753e-02 2.6914448272e+00 -4.6617191865e+00 2.6914448272e+00 4.6617191865e+00 
30500 5.5254728822e+00 -3.6503890099e-02 2.6921264675e+00 -4.6628998221e+00 2.6921264675e+00 4.6628998221e+00 
30600 5.5254389203e+00 -3.6318037820e-02 2.6928044710e+00 -4.6640741586e+00 2.6928044710e+00 4.6640741586e+00 
30700 5.5254054152e+00 -3.6132846753e-02 2.6934788525e+00 -4.6652422217e+00 2.6934788525e+00 4.6652422217e+00 
30800 5.5253723604e+00 -3.5948323406e-02 2.6941496272e+00 -4.6664040375e+00 2.6941496272e+00 4.6664040375e+00 
30900 5.5253397491e+00 -3.5764473968e-02 2.6948168100e+00 -4.6675596320e+00 2.6948168100e+00 4.6675596320e+00 
31000 5.5253075752e+00 -3.5581304320e-02 2.6954804162e+00 -4.6687090316e+00 2.6954804162e+00 4.6687090316e+00 
31100 5.5252758321e+00 -3.5398820042e-02 2.6961404610e+00 -4.6698522627e+00 2.6961404610e+00 4.6698522627e+00 
31200 5.5252445138e+00 -3.5217026421e-02 2.6967969597e+00 -4.6709893519e+00 2.6967969597e+00 4.6709893519e+00 
31300 5.5252136140e+00 -3.5035928463e-02 2.6974499278e+00 -4.6721203258e+00 2.6974499278e+00 4.6721203258e+00 
31400 5.5251831267e+00 -3.4855530894e-02 2.6980993807e+00 -4.6732452112e+00 2.6980993807e+00 4.6732452112e+00 
31500 5.5251530460e+00 -3.4675838175e-02 2.6987453339e+00 -4.6743640351e+00 2.6987453339e+00 4.6743640351e+00 
31600 5.5251233660e+00 -3.4496854508e-02 2.6993878031e+00 -4.6754768243e+00 2.6993878031e+00 4.6754768243e+00 
31700 5.5250940811e+00 -3.4318583840e-02 2.7000268038e+00 -4.6765836060e+00 2.7000268038e+00 4.6765836060e+00 
31800 5.5250651854e+00 -3.4141029877e-02 2.7006623518e+00 -4.6776844074e+00 2.7006623518e+00 4.6776844074e+00 
31900 5.5250366735e+00 -3.3964196085e-02 2.7012944627e+00 -4.6787792555e+00 2.7012944627e+00 4.6787792555e+00 
32000 5.5250085399e+00 -3.3788085700e-02 2.7019231522e+00 -4.6798681778e+00 2.7019231522e+00 4.6798681778e+00 
32100 5.5249807791e+00 -3.3612701736e-02 2.7025484363e+00 -4.6809512015e+00 2.7025484363e+00 4.6809512015e+00 
32200 5.5249533858e+00 -3.3438046990e-02 2.7031703306e+00 -4.6820283541e+00 2.7031703306e+00 4.6820283541e+00 
32300 5.5249263548e+00 -3.3264124051e-02 2.7037888510e+00 -4.6830996629e+00 2.7037888510e+00 4.6830996629e+00 
32400 5.5248996808e+00 -3.3090935301e-02 2.7044040134e+00 -4.6841651555e+00 2.7044040134e+00 4.6841651555e+00 
32500 5.5248733590e+00 -3.2918482929e-02 2.7050158337e+00 -4.6852248592e+00 2.7050158337e+00 4.6852248592e+00 
32600 5.5248473841e+00 -3.2746768932e-02 2.7056243277e+00 -4.6862788017e+00 2.7056243277e+00 4.6862788017e+00 
32700 5.5248217513e+00 -3.2575795123e-02 2.7062295113e+00 -4.6873270105e+00 2.7062295113e+00 4.6873270105e+00 
32800 5.5247964557e+00 -3.2405563135e-02 2.7068314004e+00 -4.6883695130e+00 2.7068314004e+00 4.6883695130e+00 
32900 5.5247714926e+00 -3.2236074429e-02 2.7074300110e+00 -4.6894063369e+00 2.7074300110e+00 4.6894063369e+00 
33000 5.5247468572e+00 -3.2067330299e-02 2.7080253589e+00 -4.6904375097e+00 2.7080253589e+00 4.6904375097e+00 
33100 5.5247225448e+00 -3.1899331878e-02 2.7086174600e+00 -4.6914630590e+00 2.7086174600e+00 4.6914630590e+00 
33200 5.5246985510e+00 -3.1732080140e-02 2.7092063303e+00 -4.6924830123e+00 2.7092063303e+00 4.6924830123e+00 
33300 5.5246748712e+00 -3.1565575909e-02 2.7097919856e+00 -4.6934973971e+00 2.7097919856e+00 4.6934973971e+00 
33400 5.5246515010e+00 -3.1399819864e-02 2.7103744419e+00 -4.6945062409e+00 2.7103744419e+00 4.6945062409e+00 
33500 5.5246284359e+00 -3.1234812540e-02 2.7109537150e+00 -4.6955095713e+00 2.7109537150e+00 4.6955095713e+00 
33600 5.5246056717e+00 -3.1070554338e-02 2.7115298207e+00 -4.6965074157e+00 2.7115298207e+00 4.6965074157e+00 
33700 5.5245832042e+00 -3.0907045526e-02 2.7121027749e+00 -4.6974998015e+00 2.7121027749e+00 4.6974998015e+00 
33800 5.5245610291e+00 -3.0744286243e-02 2.7126725934e+00 -4.6984867561e+00 2.7126725934e+00 4.6984867561e+00 
33900 5.5245391424e+00 -3.0582276506e-02 2.7132392920e+00 -4.6994683069e+00 2.7132392920e+00 4.6994683069e+00 
34000 5.5245175399e+00 -3.0421016216e-02 2.7138028865e+00 -4.7004444812e+00 2.7138028865e+00 4.7004444812e+00 
34100 5.5244962178e+00 -3.0260505154e-02 2.7143633927e+00 -4.7014153063e+00 2.7143633927e+00 4.7014153063e+00 
34200 5.5244751720e+00 -3.0100742996e-02 2.7149208261e+00 -4.7023808094e+00 2.7149208261e+00 4.7023808094e+00 
34300 5.5244543986e+00 -2.9941729306e-02 2.7154752027e+00 -4.7033410177e+00 2.7154752027e+00 4.7033410177e+00 
34400 5.5244338939e+00 -2.9783463549e-02 2.7160265379e+00 -4.7042959583e+00 2.7160265379e+00 4.7042959583e+00 
34500 5.5244136541e+00 -2.9625945090e-02 2.7165748474e+00 -4.7052456583e+00 2.7165748474e+00 4.7052456583e+00 
34600 5.5243936754e+00 -2.9469173197e-02 2.7171201469e+00 -4.7061901447e+00 2.7171201469e+00 4.7061901447e+00 
34700 5.5243739542e+00 -2.9313147047e-02 2.7176624518e+00 -4.7071294444e+00 2.7176624518e+00 4.7071294444e+00 
34800 5.5243544870e+00 -2.9157865728e-02 2.7182017777e+00 -4.7080635843e+00 2.7182017777e+00 4.7080635843e+00 
34900 5.5243352700e+00 -2.9003328243e-02 2.7187381401e+00 -4.7089925912e+00 2.7187381401e+00 4.7089925912e+00 
35000 5.5243162999e+00 -2.8849533512e-02 2.7192715544e+00 -4.7099164919e+00 2.7192715544e+00 4.7099164919e+00 
35100 5.5242975732e+00 -2.8696480376e-02 2.7198020361e+00 -4.7108353130e+00 2.7198020361e+00 4.7108353130e+00 
35200 5.5242790865e+00 -2.8544167600e-02 2.7203296003e+00 -4.7117490811e+00 2.7203296003e+00 4.7117490811e+00 
35300 5.5242608365e+00 -2.8392593877e-02 2.7208542626e+00 -4.7126578228e+00 2.7208542626e+00 4.7126578228e+00 
35400 5.5242428197e+00 -2.8241757826e-02 2.7213760381e+00 -4.7135615645e+00 2.7213760381e+00 4.7135615645e+00 
35500 5.5242250331e+00 -2.8091658001e-02 2.7218949420e+00 -4.7144603324e+00 2.7218949420e+00 4.7144603324e+00 
35600 5.5242074734e+00 -2.7942292892e-02 2.7224109896e+00 -4.7153541531e+00 2.7224109896e+00 4.7153541531e+00 
35700 5.5241901374e+00 -2.7793660923e-02 2.7229241959e+00 -4.7162430525e+00 2.7229241959e+00 4.7162430525e+00 
35800 5.5241730219e+00 -2.7645760460e-02 2.7234345761e+00 -4.7171270568e+00 2.7234345761e+00 4.7171270568e+00 
35900 5.5241561241e+00 -2.7498589812e-02 2.7239421451e+00 -4.7180061921e+00 2.7239421451e+00 4.7180061921e+00 
36000 5.5241394408e+00 -2.7352147231e-02 2.7244469179e+00 -4.7188804843e+00 2.7244469179e+00 4.7188804843e+00 
36100 5.5241229690e+00 -2.7206430917e-02 2.7249489094e+00 -4.7197499592e+00 2.7249489094e+00 4.7197499592e+00 
36200 5.5241067058e+00 -2.7061439018e-02 2.7254481346e+00 -4.7206146425e+00 2.7254481346e+00 4.7206146425e+00 
36300 5.5240906483e+00 -2.6917169636e-02 2.7259446082e+00 -4.7214745600e+00 2.7259446082e+00 4.7214745600e+00 
36400 5.5240747937e+00 -2.6773620821e-02 2.7264383450e+00 -4.7223297372e+00 2.7264383450e+00 4.7223297372e+00 
36500 5.5240591391e+00 -2.6630790584e-02 2.7269293596e+00 -4.7231801995e+00 2.7269293596e+00 4.7231801995e+00 
36600 5.5240436819e+00 -2.6488676890e-02 2.7274176668e+00 -4.7240259724e+00 2.7274176668e+00 4.7240259724e+00 
36700 5.5240284191e+00 -2.6347277664e-02 2.7279032812e+00 -4.7248670811e+00 2.7279032812e+00 4.7248670811e+00 
36800 5.5240133483e+00 -2.6206590790e-02 2.7283862172e+00 -4.7257035509e+00 2.7283862172e+00 4.7257035509e+00 
36900 5.5239984667e+00 -2.6066614116e-02 2.7288664894e+00 -4.7265354067e+00 2.7288664894e+00 4.7265354067e+00 
37000 5.5239837717e+00 -2.5927345456e-02 2.7293441121e+00 -4.7273626735e+00 2.7293441121e+00 4.7273626735e+00 
37100 5.5239692607e+00 -2.5788782586e-02 2.7298190998e+00 -4.7281853763e+00 2.7298190998e+00 4.7281853763e+00 
37200 5.5239549312e+00 -2.5650923251e-02 2.7302914668e+00 -4.7290035399e+00 2.7302914668e+00 4.7290035399e+00 
37300 5.5239407807e+00 -2.5513765167e-02 2.7307612272e+00 -4.7298171888e+00 2.7307612272e+00 4.7298171888e+00 
37400 5.5239268067e+00 -2.5377306017e-02 2.7312283953e+00 -4.7306263478e+00 2.7312283953e+00 4.7306263478e+00 
37500 5.5239130069e+00 -2.5241543457e-02 2.7316929853e+00 -4.7314310412e+00 2.7316929853e+00 4.7314310412e+00 
37600 5.5238993787e+00 -2.5106475117e-02 2.7321550111e+00 -4.7322312934e+00 2.7321550111e+00 4.7322312934e+00 
37700 5.5238859199e+00 -2.4972098600e-02 2.7326144869e+00 -4.7330271287e+00 2.7326144869e+00 4.7330271287e+00 
37800 5.5238726282e+00 -2.4838411486e-02 2.7330714264e+00 -4.7338185713e+00 2.7330714264e+00 4.7338185713e+00 
37900 5.5238595012e+00 -2.4705411331e-02 2.7335258438e+00 -4.7346056452e+00 2.7335258438e+00 4.7346056452e+00 
38000 5.5238465367e+00 -2.4573095670e-02 2.7339777526e+00 -4.7353883743e+00 2.7339777526e+00 4.7353883743e+00 
38100 5.5238337324e+00 -2.4441462016e-02 2.7344271668e+00 -4.7361667826e+00 2.7344271668e+00 4.7361667826e+00 
38200 5.5238210863e+00 -2.4310507863e-02 2.7348741001e+00 -4.7369408936e+00 2.7348741001e+00 4.7369408936e+00 
38300 5.5238085960e+00 -2.4180230688e-02 2.7353185660e+00 -4.7377107312e+00 2.7353185660e+00 4.7377107312e+00 
38400 5.5237962596e+00 -2.4050627947e-02 2.7357605782e+00 -4.7384763187e+00 2.7357605782e+00 4.7384763187e+00 
38500 5.5237840748e+00 -2.3921697082e-02 2.7362001501e+00 -4.7392376797e+00 2.7362001501e+00 4.7392376797e+00 
38600 5.5237720397e+00 -2.3793435520e-02 2.7366372953e+00 -4.7399948373e+00 2.7366372953e+00 4.7399948373e+00 
38700 5.5237601521e+00 -2.3665840671e-02 2.7370720271e+00 -4.7407478149e+00 2.7370720271e+00 4.7407478149e+00 
38800 5.5237484101e+00 -2.3538909932e-02 2.7375043588e+00 -4.7414966355e+00 2.7375043588e+00 4.7414966355e+00 
38900 5.5237368118e+00 -2.3412640690e-02 2.7379343038e+00 -4.7422413220e+00 2.7379343038e+00 4.7422413220e+00 
39000 5.5237253551e+00 -2.3287030315e-02 2.7383618753e+00 -4.7429818975e+00 2.7383618753e+00 4.7429818975e+00 
39100 5.5237140381e+00 -2.3162076169e-02 2.7387870863e+00 -4.7437183846e+00 2.7387870863e+00 4.7437183846e+00 
39200 5.5237028590e+00 -2.3037775603e-02 2.7392099500e+00 -4.7444508060e+00 2.7392099500e+00 4.7444508060e+00 
39300 5.5236918159e+00 -2.2914125959e-02 2.7396304794e+00 -4.7451791842e+00 2.7396304794e+00 4.7451791842e+00 
39400 5.5236809069e+00 -2.2791124568e-02 2.7400486874e+00 -4.7459035417e+00 2.7400486874e+00 4.7459035417e+00 
39500 5.5236701302e+00 -2.2668768753e-02 2.7404645869e+00 -4.7466239009e+00 2.7404645869e+00 4.7466239009e+00 
39600 5.5236594841e+00 -2.2547055832e-02 2.7408781909e+00 -4.7473402840e+00 2.7408781909e+00 4.7473402840e+00 
39700 5.5236489668e+00 -2.2425983112e-02 2.7412895120e+00 -4.7480527130e+00 2.7412895120e+00 4.7480527130e+00 
39800 5.5236385765e+00 -2.2305547898e-02 2.7416985629e+00 -4.7487612100e+00 2.7416985629e+00 4.7487612100e+00 
39900 5.5236283116e+00 -2.2185747485e-02 2.7421053563e+00 -4.7494657969e+00 2.7421053563e+00 4.7494657969e+00 
40000 5.5236181703e+00 -2.2066579167e-02 2.7425099048e+00 -4.7501664954e+00 2.7425099048e+00 4.7501664954e+00 
40100 5.5236081510e+00 -2.1948040229e-02 2.7429122210e+00 -4.7508633274e+00 2.7429122210e+00 4.7508633274e+00 
40200 5.5235982521e+00 -2.1830127955e-02 2.7433123171e+00 -4.7515563143e+00 2.7433123171e+00 4.7515563143e+00 
40300 5.5235884720e+00 -2.1712839625e-02 2.7437102058e+00 -4.7522454776e+00 2.7437102058e+00 4.7522454776e+00 
40400 5.5235788091e+00 -2.1596172515e-02 2.7441058992e+00 -4.7529308387e+00 2.7441058992e+00 4.7529308387e+00 
40500 5.5235692617e+00 -2.1480123899e-02 2.7444994097e+00 -4.7536124189e+00 2.7444994097e+00 4.7536124189e+00 
40600 5.5235598284e+00 -2.1364691049e-02 2.7448907494e+00 -4.7542902392e+00 2.7448907494e+00 4.7542902392e+00 
40700 5.5235505077e+00 -2.1249871236e-02 2.7452799306e+00 -4.7549643208e+00 2.7452799306e+00 4.7549643208e+00 
40800 5.5235412980e+00 -2.1135661727e-02 2.7456669653e+00 -4.7556346845e+00 2.7456669653e+00 4.7556346845e+00 
40900 5.5235321979e+00 -2.1022059791e-02 2.7460518655e+00 -4.7563013512e+00 2.7460518655e+00 4.7563013512e+00 
41000 5.5235232059e+00 -2.0909062696e-02 2.7464346431e+00 -4.7569643416e+00 2.7464346431e+00 4.7569643416e+00 
41100 5.5235143206e+00 -2.0796667710e-02 2.7468153102e+00 -4.7576236763e+00 2.7468153102e+00 4.7576236763e+00 
41200 5.5235055406e+00 -2.0684872100e-02 2.7471938786e+00 -4.7582793759e+00 2.7471938786e+00 4.7582793759e+00 
41300 5.5234968644e+00 -2.0573673136e-02 2.7475703599e+00 -4.7589314607e+00 2.7475703599e+00 4.7589314607e+00 
41400 5.5234882908e+00 -2.0463068087e-02 2.7479447660e+00 -4.7595799510e+00 2.7479447660e+00 4.7595799510e+00 
41500 5.5234798183e+00 -2.0353054225e-02 2.7483171084e+00 -4.7602248671e+00 2.7483171084e+00 4.7602248671e+00 
41600 5.5234714457e+00 -2.0243628823e-02 2.7486873989e+00 -4.7608662290e+00 2.7486873989e+00 4.7608662290e+00 
41700 5.5234631716e+00 -2.0134789155e-02 2.7490556488e+00 -4.7615040566e+00 2.7490556488e+00 4.7615040566e+00 
41800 5.5234549946e+00 -2.0026532500e-02 2.7494218698e+00 -4.7621383699e+00 2.7494218698e+00 4.7621383699e+00 
41900 5.5234469137e+00 -1.9918856137e-02 2.7497860732e+00 -4.7627691887e+00 2.7497860732e+00 4.7627691887e+00 
42000 5.5234389274e+00 -1.9811757348e-02 2.7501482703e+00 -4.7633965325e+00 2.7501482703e+00 4.7633965325e+00 
42100 5.5234310346e+00 -1.9705233422e-02 2.7505084725e+00 -4.7640204211e+00 2.7505084725e+00 4.7640204211e+00 
42200 5.5234232340e+00 -1.9599281646e-02 2.7508666910e+00 -4.7646408737e+00 2.7508666910e+00 4.7646408737e+00 
42300 5.5234155244e+00 -1.9493899314e-02 2.7512229370e+00 -4.7652579099e+00 2.7512229370e+00 4.7652579099e+00 
42400 5.5234079046e+00 -1.9389083723e-02 2.7515772216e+00 -4.7658715488e+00 2.7515772216e+00 4.7658715488e+00 
42500 5.5234003736e+00 -1.9284832175e-02 2.7519295559e+00 -4.7664818096e+00 2.7519295559e+00 4.7664818096e+00 
42600 5.5233929300e+00 -1.9181141975e-02 2.7522799508e+00 -4.7670887114e+00 2.7522799508e+00 4.7670887114e+00 
42700 5.5233855728e+00 -1.9078010434e-02 2.7526284172e+00 -4.7676922730e+00 2.7526284172e+00 4.7676922730e+00 
42800 5.5233783009e+00 -1.8975434867e-02 2.7529749662e+00 -4.7682925134e+00 2.7529749662e+00 4.7682925134e+00 
42900 5.5233711132e+00 -1.8873412593e-02 2.7533196085e+00 -4.7688894514e+00 2.7533196085e+00 4.7688894514e+00 
43000 5.5233640085e+00 -1.8771940939e-02 2.7536623548e+00 -4.7694831054e+00 2.7536623548e+00 4.7694831054e+00 
43100 5.5233569858e+00 -1.8671017235e-02 2.7540032159e+00 -4.7700734942e+00 2.7540032159e+00 4.7700734942e+00 
43200 5.5233500441e+00 -1.8570638817e-02 2.7543422025e+00 -4.7706606361e+00 2.7543422025e+00 4.7706606361e+00 
43300 5.5233431823e+00 -1.8470803027e-02 2.7546793250e+00 -4.7712445495e+00 2.7546793250e+00 4.7712445495e+00 
43400 5.5233363993e+00 -1.8371507214e-02 2.7550145941e+00 -4.7718252526e+00 2.7550145941e+00 4.7718252526e+00 
43500 5.5233296942e+00 -1.8272748730e-02 2.7553480203e+00 -4.7724027636e+00 2.7553480203e+00 4.7724027636e+00 
43600 5.5233230660e+00 -1.8174524938e-02 2.7556796139e+00 -4.7729771006e+00 2.7556796139e+00 4.7729771006e+00 
43700 5.5233165137e+00 -1.8076833202e-02 2.7560093853e+00 -4.7735482814e+00 2.7560093853e+00 4.7735482814e+00 
43800 5.5233100363e+00 -1.7979670896e-02 2.7563373448e+00 -4.7741163240e+00 2.7563373448e+00 4.7741163240e+00 
43900 5.5233036328e+00 -1.7883035400e-02 2.7566635028e+00 -4.7746812461e+00 2.7566635028e+00 4.7746812461e+00 
44000 5.5232973024e+00 -1.7786924100e-02 2.7569878693e+00 -4.7752430654e+00 2.7569878693e+00 4.7752430654e+00 
44100 5.5232910440e+00 -1.7691334390e-02 2.7573104545e+00 -4.7758017994e+00 2.7573104545e+00 4.7758017994e+00 
44200 5.5232848569e+00 -1.7596263670e-02 2.7576312685e+00 -4.7763574656e+00 2.7576312685e+00 4.7763574656e+00 
44300 5.5232787400e+00 -1.7501709348e-02 2.7579503214e+00 -4.7769100814e+00 2.7579503214e+00 4.7769100814e+00 
44400 5.5232726925e+00 -1.7407668838e-02 2.7582676230e+00 -4.7774596640e+00 2.7582676230e+00 4.7774596640e+00 
44500 5.5232667134e+00 -1.7314139563e-02 2.7585831834e+00 -4.7780062306e+00 2.7585831834e+00 4.7780062306e+00 
44600 5.5232608021e+00 -1.7221118952e-02 2.7588970124e+00 -4.7785497984e+00 2.7588970124e+00 4.7785497984e+00 
44700 5.5232549575e+00 -1.7128604443e-02 2.7592091198e+00 -4.7790903843e+00 2.7592091198e+00 4.7790903843e+00 
44800 5.5232491789e+00 -1.7036593481e-02 2.7595195154e+00 -4.7796280052e+00 2.7595195154e+00 4.7796280052e+00 
44900 5.5232434654e+00 -1.6945083517e-02 2.7598282088e+00 -4.7801626779e+00 2.7598282088e+00 4.7801626779e+00 
45000 5.5232378162e+00 -1.6854072014e-02 2.7601352098e+00 -4.7806944191e+00 2.7601352098e+00 4.7806944191e+00 
45100 5.5232322305e+00 -1.6763556439e-02 2.7604405278e+00 -4.7812232455e+00 2.7604405278e+00 4.7812232455e+00 
45200 5.5232267075e+00 -1.6673534269e-02 2.7607441726e+00 -4.7817491736e+00 2.7607441726e+00 4.7817491736e+00 
45300 5.5232212464e+00 -1.6584002988e-02 2.7610461534e+00 -4.7822722198e+00 2.7610461534e+00 4.7822722198e+00 
45400 5.5232158465e+00 -1.6494960090e-02 2.7613464799e+00 -4.7827924004e+00 2.7613464799e+00 4.7827924004e+00 
45500 5.5232105070e+00 -1.6406403074e-02 2.7616451613e+00 -4.7833097318e+00 2.7616451613e+00 4.7833097318e+00 
45600 5.5232052271e+00 -1.6318329452e-02 2.7619422070e+00 -4.7838242301e+00 2.7619422070e+00 4.7838242301e+00 
45700 5.5232000061e+00 -1.6230736740e-02 2.7622376263e+00 -4.7843359113e+00 2.7622376263e+00 4.7843359113e+00 
45800 5.5231948433e+00 -1.6143622464e-02 2.7625314284e+00 -4.7848447915e+00 2.7625314284e+00 4.7848447915e+00 
45900 5.5231897380e+00 -1.6056984160e-02 2.7628236225e+00 -4.7853508865e+00 2.7628236225e+00 4.7853508865e+00 
46000 5.5231846893e+00 -1.5970819371e-02 2.7631142177e+00 -4.7858542121e+00 2.7631142177e+00 4.7858542121e+00 
46100 5.5231796968e+00 -1.5885125648e-02 2.7634032231e+00 -4.7863547842e+00 2.7634032231e+00 4.7863547842e+00 
46200 5.5231747595e+00 -1.5799900553e-02 2.7636906477e+00 -4.7868526182e+00 2.7636906477e+00 4.7868526182e+00 
46300 5.5231698770e+00 -1.5715141654e-02 2.7639765004e+00 -4.7873477297e+00 2.7639765004e+00 4.7873477297e+00 
46400 5.5231650484e+00 -1.5630846531e-02 2.7642607903e+00 -4.7878401342e+00 2.7642607903e+00 4.7878401342e+00 
46500 5.5231602732e+00 -1.5547012769e-02 2.7645435262e+00 -4.7883298471e+00 2.7645435262e+00 4.7883298471e+00 
46600 5.5231555507e+00 -1.5463637965e-02 2.7648247168e+00 -4.7888168836e+00 2.7648247168e+00 4.7888168836e+00 
46700 5.5231508802e+00 -1.5380719724e-02 2.7651043711e+00 -4.7893012589e+00 2.7651043711e+00 4.7893012589e+00 
46800 5.5231462611e+00 -1.5298255660e-02 2.7653824976e+00 -4.7897829882e+00 2.7653824976e+00 4.7897829882e+00 
46900 5.5231416929e+00 -1.5216243394e-02 2.7656591051e+00 -4.7902620864e+00 2.7656591051e+00 4.7902620864e+00 
47000 5.5231371747e+00 -1.5134680560e-02 2.7659342022e+00 -4.7907385686e+00 2.7659342022e+00 4.7907385686e+00 
47100 5.5231327062e+00 -1.5053564798e-02 2.7662077975e+00 -4.7912124495e+00 2.7662077975e+00 4.7912124495e+00 
47200 5.5231282865e+00 -1.4972893758e-02 2.7664798994e+00 -4.7916837439e+00 2.7664798994e+00 4.7916837439e+00 
47300 5.5231239153e+00 -1.4892665099e-02 2.7667505166e+00 -4.7921524666e+00 2.7667505166e+00 4.7921524666e+00 
47400 5.5231195918e+00 -1.4812876490e-02 2.7670196573e+00 -4.7926186320e+00 2.7670196573e+00 4.7926186320e+00 
47500 5.5231153155e+00 -1.4733525608e-02 2.7672873301e+00 -4.7930822548e+00 2.7672873301e+00 4.7930822548e+00 
47600 5.5231110859e+00 -1.4654610141e-02 2.7675535432e+00 -4.7935433494e+00 2.7675535432e+00 4.7935433494e+00 
47700 5.5231069023e+00 -1.4576127783e-02 2.7678183049e+00 -4.7940019301e+00 2.7678183049e+00 4.7940019301e+00 
47800 5.5231027643e+00 -1.4498076241e-02 2.7680816234e+00 -4.7944580113e+00 2.7680816234e+00 4.7944580113e+00 
47900 5.5230986712e+00 -1.4420453229e-02 2.7683435070e+00 -4.7949116070e+00 2.7683435070e+00 4.7949116070e+00 
48000 5.5230946226e+00 -1.4343256471e-02 2.7686039639e+00 -4.7953627315e+00 2.7686039639e+00 4.7953627315e+00 
48100 5.5230906178e+00 -1.4266483700e-02 2.7688630020e+00 -4.7958113987e+00 2.7688630020e+00 4.7958113987e+00 
48200 5.5230866565e+00 -1.4190132659e-02 2.7691206295e+00 -4.7962576226e+00 2.7691206295e+00 4.7962576226e+00 
48300 5.5230827380e+00 -1.4114201100e-02 2.7693768544e+00 -4.7967014171e+00 2.7693768544e+00 4.7967014171e+00 
48400 5.5230788618e+00 -1.4038686784e-02 2.7696316846e+00 -4.7971427959e+00 2.7696316846e+00 4.7971427959e+00 
48500 5.5230750276e+00 -1.3963587482e-02 2.7698851280e+00 -4.7975817729e+00 2.7698851280e+00 4.7975817729e+00 
48600 5.5230712346e+00 -1.3888900975e-02 2.7701371926e+00 -4.7980183616e+00 2.7701371926e+00 4.7980183616e+00 
48700 5.5230674825e+00 -1.3814625052e-02 2.7703878862e+00 -4.7984525755e+00 2.7703878862e+00 4.7984525755e+00 
48800 5.5230637708e+00 -1.3740757511e-02 2.7706372165e+00 -4.7988844283e+00 2.7706372165e+00 4.7988844283e+00 
48900 5.5230600990e+00 -1.3667296163e-02 2.7708851912e+00 -4.7993139332e+00 2.7708851912e+00 4.7993139332e+00 
49000 5.5230564667e+00 -1.3594238823e-02 2.7711318182e+00 -4.7997411036e+00 2.7711318182e+00 4.7997411036e+00 
49100 5.5230528733e+00 -1.3521583321e-02 2.7713771050e+00 -4.8001659527e+00 2.7713771050e+00 4.8001659527e+00 
49200 5.5230493184e+00 -1.3449327492e-02 2.7716210592e+00 -4.8005884938e+00 2.7716210592e+00 4.8005884938e+00 
49300 5.5230458015e+00 -1.3377469183e-02 2.7718636883e+00 -4.8010087399e+00 2.7718636883e+00 4.8010087399e+00 
49400 5.5230423223e+00 -1.3306006250e-02 2.7721050001e+00 -4.8014267040e+00 2.7721050001e+00 4.8014267040e+00 
49500 5.5230388803e+00 -1.3234936559e-02 2.7723450018e+00 -4.8018423991e+00 2.7723450018e+00 4.8018423991e+00 
49600 5.5230354750e+00 -1.3164257983e-02 2.7725837009e+00 -4.8022558382e+00 2.7725837009e+00 4.8022558382e+00 
49700 5.5230321060e+00 -1.3093968407e-02 2.7728211048e+00 -4.8026670338e+00 2.7728211048e+00 4.8026670338e+00 
49800 5.5230287728e+00 -1.3024065725e-02 2.7730572209e+00 -4.8030759989e+00 2.7730572209e+00 4.8030759989e+00 
49900 5.5230254752e+00 -1.2954547840e-02 2.7732920565e+00 -4.8034827461e+00 2.7732920565e+00 4.8034827461e+00 
50000 5.5230222126e+00 -1.2885412665e-02 2.7735256188e+00 -4.8038872878e+00 2.7735256188e+00 4.8038872878e+00 
50100 5.5230189846e+00 -1.2816658121e-02 2.7737579151e+00 -4.8042896368e+00 2.7737579151e+00 4.8042896368e+00 
50200 5.5230157909e+00 -1.2748282140e-02 2.7739889524e+00 -4.8046898053e+00 2.7739889524e+00 4.8046898053e+00 
50300 5.5230126311e+00 -1.2680282663e-02 2.7742187381e+00 -4.8050878057e+00 2.7742187381e+00 4.8050878057e+00 
50400 5.5230095047e+00 -1.2612657641e-02 2.7744472792e+00 -4.8054836504e+00 2.7744472792e+00 4.8054836504e+00 
50500 5.5230064113e+00 -1.2545405034e-02 2.7746745826e+00 -4.8058773516e+00 2.7746745826e+00 4.8058773516e+00 
50600 5.5230033507e+00 -1.2478522810e-02 2.7749006555e+00 -4.8062689214e+00 2.7749006555e+00 4.8062689214e+00 
50700 5.5230003224e+00 -1.2412008949e-02 2.7751255049e+00 -4.8066583718e+00 2.7751255049e+00 4.8066583718e+00 
50800 5.5229973260e+00 -1.2345861438e-02 2.7753491376e+00 -4.8070457150e+00 2.7753491376e+00 4.8070457150e+00 
50900 5.5229943612e+00 -1.2280078275e-02 2.7755715605e+00 -4.8074309628e+00 2.7755715605e+00 4.8074309628e+00 
51000 5.5229914276e+00 -1.2214657468e-02 2.7757927806e+00 -4.8078141272e+00 2.7757927806e+00 4.8078141272e+00 
51100 5.5229885249e+00 -1.2149597032e-02 2.7760128045e+00 -4.8081952199e+00 2.7760128045e+00 4.8081952199e+00 
51200 5.5229856527e+00 -1.2084894993e-02 2.7762316392e+00 -4.8085742526e+00 2.7762316392e+00 4.8085742526e+00 
51300 5.5229828106e+00 -1.2020549386e-02 2.7764492913e+00 -4.8089512371e+00 2.7764492913e+00 4.8089512371e+00 
51400 5.5229799984e+00 -1.1956558256e-02 2.7766657675e+00 -4.8093261850e+00 2.7766657675e+00 4.8093261850e+00 
51500 5.5229772156e+00 -1.1892919657e-02 2.7768810745e+00 -4.8096991077e+00 2.7768810745e+00 4.8096991077e+00 
51600 5.5229744620e+00 -1.1829631651e-02 2.7770952190e+00 -4.8100700167e+00 2.7770952190e+00 4.8100700167e+00 
51700 5.5229717372e+00 -1.1766692310e-02 2.7773082074e+00 -4.8104389235e+00 2.7773082074e+00 4.8104389235e+00 
51800 5.5229690408e+00 -1.1704099717e-02 2.7775200464e+00 -4.8108058393e+00 2.7775200464e+00 4.8108058393e+00 
51900 5.5229663727e+00 -1.1641851963e-02 2.7777307424e+00 -4.8111707755e+00 2.7777307424e+00 4.8111707755e+00 
52000 5.5229637323e+00 -1.1579947146e-02 2.7779403019e+00 -4.8115337433e+00 2.7779403019e+00 4.8115337433e+00 
52100 5.5229611195e+00 -1.1518383378e-02 2.7781487313e+00 -4.8118947537e+00 2.7781487313e+00 4.8118947537e+00 
52200 5.5229585339e+00 -1.1457158777e-02 2.7783560371e+00 -4.8122538178e+00 2.7783560371e+00 4.8122538178e+00 
52300 5.5229559753e+00 -1.1396271470e-02 2.7785622256e+00 -4.8126109468e+00 2.7785622256e+00 4.8126109468e+00 
52400 5.5229534432e+00 -1.1335719594e-02 2.7787673031e+00 -4.8129661514e+00 2.7787673031e+00 4.8129661514e+00 
52500 5.5229509375e+00 -1.1275501296e-02 2.7789712759e+00 -4.8133194427e+00 2.7789712759e+00 4.8133194427e+00 
52600 5.5229484577e+00 -1.1215614730e-02 2.7791741502e+00 -4.8136708313e+00 2.7791741502e+00 4.8136708313e+00 
52700 5.5229460037e+00 -1.1156058063e-02 2.7793759323e+00 -4.8140203281e+00 2.7793759323e+00 4.8140203281e+00 
52800 5.5229435751e+00 -1.1096829466e-02 2.7795766283e+00 -4.8143679438e+00 2.7795766283e+00 4.8143679438e+00 
52900 5.5229411717e+00 -1.1037927122e-02 2.7797762444e+00 -4.8147136889e+00 2.7797762444e+00 4.8147136889e+00 
53000 5.5229387932e+00 -1.0979349224e-02 2.7799747866e+00 -4.8150575741e+00 2.7799747866e+00 4.8150575741e+00 
53100 5.5229364392e+00 -1.0921093972e-02 2.7801722610e+00 -4.8153996099e+00 2.7801722610e+00 4.8153996099e+00 
53200 5.5229341096e+00 -1.0863159575e-02 2.7803686737e+00 -4.8157398066e+00 2.7803686737e+00 4.8157398066e+00 
53300 5.5229318040e+00 -1.0805544253e-02 2.7805640307e+00 -4.8160781748e+00 2.7805640307e+00 4.8160781748e+00 
53400 5.5229295222e+00 -1.0748246233e-02 2.7807583378e+00 -4.8164147247e+00 2.7807583378e+00 4.8164147247e+00 
53500 5.5229272639e+00 -1.0691263752e-02 2.7809516011e+00 -4.8167494665e+00 2.7809516011e+00 4.8167494665e+00 
53600 5.5229250289e+00 -1.0634595054e-02 2.7811438264e+00 -4.8170824106e+00 2.7811438264e+00 4.8170824106e+00 
53700 5.5229228169e+00 -1.0578238396e-02 2.7813350197e+00 -4.8174135669e+00 2.7813350197e+00 4.8174135669e+00 
53800 5.5229206276e+00 -1.0522192040e-02 2.7815251866e+00 -4.8177429457e+00 2.7815251866e+00 4.8177429457e+00 
53900 5.5229184609e+00 -1.0466454258e-02 2.7817143330e+00 -4.8180705570e+00 2.7817143330e+00 4.8180705570e+00 
54000 5.5229163164e+00 -1.0411023332e-02 2.7819024647e+00 -4.8183964106e+00 2.7819024647e+00 4.8183964106e+00 
54100 5.5229141939e+00 -1.0355897550e-02 2.7820895874e+00 -4.8187205166e+00 2.7820895874e+00 4.8187205166e+00 
54200 5.5229120931e+00 -1.0301075212e-02 2.7822757067e+00 -4.8190428847e+00 2.7822757067e+00 4.8190428847e+00 
54300 5.5229100139e+00 -1.0246554626e-02 2.7824608284e+00 -4.8193635248e+00 2.7824608284e+00 4.8193635248e+00 
54400 5.5229079560e+00 -1.0192334106e-02 2.7826449580e+00 -4.8196824466e+00 2.7826449580e+00 4.8196824466e+00 
54500 5.5229059191e+00 -1.0138411978e-02 2.7828281011e+00 -4.8199996598e+00 2.7828281011e+00 4.8199996598e+00 
54600 5.5229039030e+00 -1.0084786575e-02 2.7830102633e+00 -4.8203151740e+00 2.7830102633e+00 4.8203151740e+00 
54700 5.5229019076e+00 -1.0031456239e-02 2.7831914501e+00 -4.8206289988e+00 2.7831914501e+00 4.8206289988e+00 
54800 5.5228999325e+00 -9.9784193205e-03 2.7833716671e+00 -4.8209411437e+00 2.7833716671e+00 4.8209411437e+00 
54900 5.5228979776e+00 -9.9256741793e-03 2.7835509196e+00 -4.8212516181e+00 2.7835509196e+00 4.8212516181e+00 
55000 5.5228960426e+00 -9.8732191828e-03 2.7837292130e+00 -4.8215604315e+00 2.7837292130e+00 4.8215604315e+00 
55100 5.5228941273e+00 -9.8210527074e-03 2.7839065529e+00 -4.8218675932e+00 2.7839065529e+00 4.8218675932e+00 
55200 5.5228922315e+00 -9.7691731377e-03 2.7840829446e+00 -4.8221731125e+00 2.7840829446e+00 4.8221731125e+00 
55300 5.5228903550e+00 -9.7175788670e-03 2.7842583933e+00 -4.8224769985e+00 2.7842583933e+00 4.8224769985e+00 
55400 5.5228884976e+00 -9.6662682970e-03 2.7844329044e+00 -4.8227792607e+00 2.7844329044e+00 4.8227792607e+00 
55500 5.5228866591e+00 -9.6152398378e-03 2.7846064832e+00 -4.8230799079e+00 2.7846064832e+00 4.8230799079e+00 
55600 5.5228848392e+00 -9.5644919079e-03 2.7847791348e+00 -4.8233789494e+00 2.7847791348e+00 4.8233789494e+00 
55700 5.5228830378e+00 -9.5140229341e-03 2.7849508646e+00 -4.8236763941e+00 2.7849508646e+00 4.8236763941e+00 
55800 5.5228812547e+00 -9.4638313514e-03 2.7851216777e+00 -4.8239722510e+00 2.7851216777e+00 4.8239722510e+00 
55900 5.5228794896e+00 -9.4139156034e-03 2.7852915792e+00 -4.8242665290e+00 2.7852915792e+00 4.8242665290e+00 
56000 5.5228777424e+00 -9.3642741417e-03 2.7854605742e+00 -4.8245592371e+00 2.7854605742e+00 4.8245592371e+00 
56100 5.5228760129e+00 -9.3149054262e-03 2.7856286680e+00 -4.8248503839e+00 2.7856286680e+00 4.8248503839e+00 
56200 5.5228743009e+00 -9.2658079251e-03 2.7857958654e+00 -4.8251399784e+00 2.7857958654e+00 4.8251399784e+00 
56300 5.5228726062e+00 -9.2169801145e-03 2.7859621715e+00 -4.8254280291e+00 2.7859621715e+00 4.8254280291e+00 
56400 5.5228709286e+00 -9.1684204790e-03 2.7861275914e+00 -4.8257145447e+00 2.7861275914e+00 4.8257145447e+00 
56500 5.5228692680e+00 -9.1201275110e-03 2.7862921300e+00 -4.8259995340e+00 2.7862921300e+00 4.8259995340e+00 
56600 5.5228676241e+00 -9.0720997110e-03 2.7864557923e+00 -4.8262830053e+00 2.7864557923e+00 4.8262830053e+00 
56700 5.5228659968e+00 -9.0243355879e-03 2.7866185831e+00 -4.8265649672e+00 2.7866185831e+00 4.8265649672e+00 
56800 5.5228643859e+00 -8.9768336581e-03 2.7867805074e+00 -4.8268454283e+00 2.7867805074e+00 4.8268454283e+00 
56900 5.5228627912e+00 -8.9295924463e-03 2.7869415699e+00 -4.8271243968e+00 2.7869415699e+00 4.8271243968e+00 
57000 5.5228612126e+00 -8.8826104852e-03 2.7871017756e+00 -4.8274018812e+00 2.7871017756e+00 4.8274018812e+00 
57100 5.5228596498e+00 -8.8358863151e-03 2.7872611292e+00 -4.8276778898e+00 2.7872611292e+00 4.8276778898e+00 
57200 5.5228581028e+00 -8.7894184844e-03 2.7874196356e+00 -4.8279524308e+00 2.7874196356e+00 4.8279524308e+00 
57300 5.5228565713e+00 -8.7432055494e-03 2.7875772993e+00 -4.8282255124e+00 2.7875772993e+00 4.8282255124e+00 
57400 5.5228550552e+00 -8.6972460742e-03 2.7877341252e+00 -4.8284971429e+00 2.7877341252e+00 4.8284971429e+00 
57500 5.5228535543e+00 -8.6515386305e-03 2.7878901180e+00 -4.8287673303e+00 2.7878901180e+00 4.8287673303e+00 
57600 5.5228520685e+00 -8.6060817979e-03 2.7880452823e+00 -4.8290360827e+00 2.7880452823e+00 4.8290360827e+00 
57700 5.5228505975e+00 -8.5608741639e-03 2.7881996227e+00 -4.8293034081e+00 2.7881996227e+00 4.8293034081e+00 
57800 5.5228491413e+00 -8.5159143233e-03 2.7883531438e+00 -4.8295693146e+00 2.7883531438e+00 4.8295693146e+00 
57900 5.5228476997e+00 -8.4712008789e-03 2.7885058503e+00 -4.8298338100e+00 2.7885058503e+00 4.8298338100e+00 
58000 5.5228462725e+00 -8.4267324409e-03 2.7886577467e+00 -4.8300969022e+00 2.7886577467e+00 4.8300969022e+00 
58100 5.5228448596e+00 -8.3825076273e-03 2.7888088375e+00 -4.8303585991e+00 2.7888088375e+00 4.8303585991e+00 
58200 5.5228434608e+00 -8.3385250635e-03 2.7889591271e+00 -4.8306189084e+00 2.7889591271e+00 4.8306189084e+00 
58300 5.5228420760e+00 -8.2947833826e-03 2.7891086202e+00 -4.8308778379e+00 2.7891086202e+00 4.8308778379e+00 
58400 5.5228407051e+00 -8.2512812249e-03 2.7892573210e+00 -4.8311353954e+00 2.7892573210e+00 4.8311353954e+00 
58500 5.5228393478e+00 -8.2080172385e-03 2.7894052341e+00 -4.8313915884e+00 2.7894052341e+00 4.8313915884e+00 
58600 5.5228380040e+00 -8.1649900788e-03 2.7895523639e+00 -4.8316464246e+00 2.7895523639e+00 4.8316464246e+00 
58700 5.5228366737e+00 -8.1221984085e-03 2.7896987146e+00 -4.8318999115e+00 2.7896987146e+00 4.8318999115e+00 
58800 5.5228353566e+00 -8.0796408977e-03 2.7898442907e+00 -4.8321520567e+00 2.7898442907e+00 4.8321520567e+00 
58900 5.5228340527e+00 -8.0373162241e-03 2.7899890965e+00 -4.8324028677e+00 2.7899890965e+00 4.8324028677e+00 
59000 5.5228327617e+00 -7.9952230723e-03 2.7901331362e+00 -4.8326523518e+00 2.7901331362e+00 4.8326523518e+00 
59100 5.5228314836e+00 -7.9533601345e-03 2.7902764142e+00 -4.8329005165e+00 2.7902764142e+00 4.8329005165e+00 
59200 5.5228302181e+00 -7.9117261099e-03 2.7904189346e+00 -4.8331473691e+00 2.7904189346e+00 4.8331473691e+00 
59300 5.5228289653e+00 -7.8703197050e-03 2.7905607017e+00 -4.8333929170e+00 2.7905607017e+00 4.8333929170e+00 
59400 5.5228277249e+00 -7.8291396336e-03 2.7907017197e+00 -4.8336371673e+00 2.7907017197e+00 4.8336371673e+00 
59500 5.5228264969e+00 -7.7881846164e-03 2.7908419928e+00 -4.8338801274e+00 2.7908419928e+00 4.8338801274e+00 
59600 5.5228252810e+00 -7.7474533813e-03 2.7909815250e+00 -4.8341218043e+00 2.7909815250e+00 4.8341218043e+00 
59700 5.5228240772e+00 -7.7069446634e-03 2.7911203206e+00 -4.8343622053e+00 2.7911203206e+00 4.8343622053e+00 
59800 5.5228228854e+00 -7.6666572047e-03 2.7912583836e+00 -4.8346013374e+00 2.7912583836e+00 4.8346013374e+00 
59900 5.5228217053e+00 -7.6265897542e-03 2.7913957181e+00 -4.8348392077e+00 2.7913957181e+00 4.8348392077e+00 
60000 5.5228205370e+00 -7.5867410679e-03 2.7915323281e+00 -4.8350758232e+00 2.7915323281e+00 4.8350758232e+00 
60100 5.5228193802e+00 -7.5471099088e-03 2.7916682176e+00 -4.8353111908e+00 2.7916682176e+00 4.8353111908e+00 
60200 5.5228182349e+00 -7.5076950468e-03 2.7918033908e+00 -4.8355453176e+00 2.7918033908e+00 4.8355453176e+00 
60300 5.5228171009e+00 -7.4684952587e-03 2.7919378514e+00 -4.8357782103e+00 2.7919378514e+00 4.8357782103e+00 
60400 5.5228159781e+00 -7.4295093279e-03 2.7920716036e+00 -4.8360098758e+00 2.7920716036e+00 4.8360098758e+00 
60500 5.5228148664e+00 -7.3907360450e-03 2.7922046512e+00 -4.8362403210e+00 2.7922046512e+00 4.8362403210e+00 
60600 5.5228137658e+00 -7.3521742070e-03 2.7923369981e+00 -4.8364695526e+00 2.7923369981e+00 4.8364695526e+00 
60700 5.5228126760e+00 -7.3138226180e-03 2.7924686483e+00 -4.8366975774e+00 2.7924686483e+00 4.8366975774e+00 
60800 5.5228115969e+00 -7.2756800885e-03 2.7925996055e+00 -4.8369244020e+00 2.7925996055e+00 4.8369244020e+00 
60900 5.5228105285e+00 -7.2377454360e-03 2.7927298737e+00 -4.8371500331e+00 2.7927298737e+00 4.8371500331e+00 
61000 5.5228094707e+00 -7.2000174843e-03 2.7928594566e+00 -4.8373744773e+00 2.7928594566e+00 4.8373744773e+00 
61100 5.5228084233e+00 -7.1624950642e-03 2.7929883581e+00 -4.8375977411e+00 2.7929883581e+00 4.8375977411e+00 
61200 5.5228073862e+00 -7.1251770126e-03 2.7931165818e+00 -4.8378198312e+00 2.7931165818e+00 4.8378198312e+00 
61300 5.5228063593e+00 -7.0880621735e-03 2.7932441317e+00 -4.8380407540e+00 2.7932441317e+00 4.8380407540e+00 
61400 5.5228053425e+00 -7.0511493971e-03 2.7933710113e+00 -4.8382605160e+00 2.7933710113e+00 4.8382605160e+00 
61500 5.5228043358e+00 -7.0144375400e-03 2.7934972244e+00 -4.8384791235e+00 2.7934972244e+00 4.8384791235e+00 
61600 5.5228033389e+00 -6.9779254655e-03 2.7936227748e+00 -4.8386965831e+00 2.7936227748e+00 4.8386965831e+00 
61700 5.5228023519e+00 -6.9416120433e-03 2.7937476660e+00 -4.8389129010e+00 2.7937476660e+00 4.8389129010e+00 
61800 5.5228013746e+00 -6.9054961493e-03 2.7938719017e+00 -4.8391280835e+00 2.7938719017e+00 4.8391280835e+00 
61900 5.5228004069e+00 -6.8695766659e-03 2.7939954855e+00 -4.8393421370e+00 2.7939954855e+00 4.8393421370e+00 
62000 5.5227994487e+00 -6.8338524819e-03 2.7941184210e+00 -4.8395550676e+00 2.7941184210e+00 4.8395550676e+00 
62100 5.5227984999e+00 -6.7983224923e-03 2.7942407119e+00 -4.8397668815e+00 2.7942407119e+00 4.8397668815e+00 
62200 5.5227975604e+00 -6.7629855982e-03 2.7943623616e+00 -4.8399775850e+00 2.7943623616e+00 4.8399775850e+00 
62300 5.5227966301e+00 -6.7278407074e-03 2.7944833737e+00 -4.8401871842e+00 2.7944833737e+00 4.8401871842e+00 
62400 5.5227957090e+00 -6.6928867333e-03 2.7946037518e+00 -4.8403956851e+00 2.7946037518e+00 4.8403956851e+00 
62500 5.5227947969e+00 -6.6581225961e-03 2.7947234992e+00 -4.8406030938e+00 2.7947234992e+00 4.8406030938e+00 
62600 5.5227938938e+00 -6.6235472216e-03 2.7948426196e+00 -4.8408094163e+00 2.7948426196e+00 4.8408094163e+00 
62700 5.5227929995e+00 -6.5891595420e-03 2.7949611163e+00 -4.8410146587e+00 2.7949611163e+00 4.8410146587e+00 
62800 5.5227921139e+00 -6.5549584955e-03 2.7950789928e+00 -4.8412188268e+00 2.7950789928e+00 4.8412188268e+00 
62900 5.5227912371e+00 -6.5209430264e-03 2.7951962526e+00 -4.8414219266e+00 2.7951962526e+00 4.8414219266e+00 
63000 5.5227903688e+00 -6.4871120849e-03 2.7953128989e+00 -4.8416239640e+00 2.7953128989e+00 4.8416239640e+00 
63100 5.5227895090e+00 -6.4534646274e-03 2.7954289352e+00 -4.8418249448e+00 2.7954289352e+00 4.8418249448e+00 
63200 5.5227886576e+00 -6.4199996160e-03 2.7955443649e+00 -4.8420248749e+00 2.7955443649e+00 4.8420248749e+00 
63300 5.5227878146e+00 -6.3867160189e-03 2.7956591913e+00 -4.8422237599e+00 2.7956591913e+00 4.8422237599e+00 
63400 5.5227869798e+00 -6.3536128100e-03 2.7957734176e+00 -4.8424216058e+00 2.7957734176e+00 4.8424216058e+00 
63500 5.5227861531e+00 -6.3206889694e-03 2.7958870473e+00 -4.8426184182e+00 2.7958870473e+00 4.8426184182e+00 
63600 5.5227853346e+00 -6.2879434827e-03 2.7960000836e+00 -4.8428142027e+00 2.7960000836e+00 4.8428142027e+00 
63700 5.5227845240e+00 -6.2553753414e-03 2.7961125296e+00 -4.8430089650e+00 2.7961125296e+00 4.8430089650e+00 
63800 5.5227837213e+00 -6.2229835429e-03 2.7962243888e+00 -4.8432027108e+00 2.7962243888e+00 4.8432027108e+00 
63900 5.5227829265e+00 -6.1907670901e-03 2.7963356643e+00 -4.8433954456e+00 2.7963356643e+00 4.8433954456e+00 
64000 5.5227821394e+00 -6.1587249919e-03 2.7964463593e+00 -4.8435871750e+00 2.7964463593e+00 4.8435871750e+00 
64100 5.5227813601e+00 -6.1268562626e-03 2.7965564770e+00 -4.8437779045e+00 2.7965564770e+00 4.8437779045e+00 
64200 5.5227805883e+00 -6.0951599223e-03 2.7966660206e+00 -4.8439676395e+00 2.7966660206e+00 4.8439676395e+00 
64300 5.5227798240e+00 -6.0636349968e-03 2.7967749932e+00 -4.8441563856e+00 2.7967749932e+00 4.8441563856e+00 
64400 5.5227790672e+00 -6.0322805172e-03 2.7968833980e+00 -4.8443441481e+00 2.7968833980e+00 4.8443441481e+00 
64500 5.5227783177e+00 -6.0010955206e-03 2.7969912380e+00 -4.8445309325e+00 2.7969912380e+00 4.8445309325e+00 
64600 5.5227775756e+00 -5.9700790491e-03 2.7970985164e+00 -4.8447167441e+00 2.7970985164e+00 4.8447167441e+00 
64700 5.5227768407e+00 -5.9392301508e-03 2.7972052362e+00 -4.8449015883e+00 2.7972052362e+00 4.8449015883e+00 
64800 5.5227761129e+00 -5.9085478790e-03 2.7973114005e+00 -4.8450854703e+00 2.7973114005e+00 4.8450854703e+00 
64900 5.5227753922e+00 -5.8780312925e-03 2.7974170124e+00 -4.8452683954e+00 2.7974170124e+00 4.8452683954e+00 
65000 5.5227746785e+00 -5.8476794554e-03 2.7975220748e+00 -4.8454503688e+00 2.7975220748e+00 4.8454503688e+00 
65100 5.5227739718e+00 -5.8174914374e-03 2.7976265908e+00 -4.8456313958e+00 2.7976265908e+00 4.8456313958e+00 
65200 5.5227732719e+00 -5.7874663135e-03 2.7977305633e+00 -4.8458114816e+00 2.7977305633e+00 4.8458114816e+00 
65300 5.5227725788e+00 -5.7576031639e-03 2.7978339954e+00 -4.8459906312e+00 2.7978339954e+00 4.8459906312e+00 
65400 5.5227718925e+00 -5.7279010742e-03 2.7979368900e+00 -4.8461688498e+00 2.7979368900e+00 4.8461688498e+00 
65500 5.5227712128e+00 -5.6983591353e-03 2.7980392500e+00 -4.8463461425e+00 2.7980392500e+00 4.8463461425e+00 
65600 5.5227705398e+00 -5.6689764432e-03 2.7981410783e+00 -4.8465225144e+00 2.7981410783e+00 4.8465225144e+00 
65700 5.5227698732e+00 -5.6397520992e-03 2.7982423779e+00 -4.8466979704e+00 2.7982423779e+00 4.8466979704e+00 
65800 5.5227692132e+00 -5.6106852099e-03 2.7983431516e+00 -4.8468725156e+00 2.7983431516e+00 4.8468725156e+00 
65900 5.5227685595e+00 -5.5817748869e-03 2.7984434023e+00 -4.8470461550e+00 2.7984434023e+00 4.8470461550e+00 
66000 5.5227679122e+00 -5.5530202469e-03 2.7985431329e+00 -4.8472188934e+00 2.7985431329e+00 4.8472188934e+00 
66100 5.5227672711e+00 -5.5244204119e-03 2.7986423462e+00 -4.8473907359e+00 2.7986423462e+00 4.8473907359e+00 
66200 5.5227666363e+00 -5.4959745087e-03 2.7987410450e+00 -4.8475616872e+00 2.7987410450e+00 4.8475616872e+00 
66300 5.5227660076e+00 -5.4676816694e-03 2.7988392321e+00 -4.8477317523e+00 2.7988392321e+00 4.8477317523e+00 
66400 5.5227653851e+00 -5.4395410310e-03 2.7989369104e+00 -4.8479009360e+00 2.7989369104e+00 4.8479009360e+00 
66500 5.5227647685e+00 -5.4115517355e-03 2.7990340825e+00 -4.8480692430e+00 2.7990340825e+00 4.8480692430e+00 
66600 5.5227641579e+00 -5.3837129298e-03 2.7991307512e+00 -4.8482366782e+00 2.7991307512e+00 4.8482366782e+00 
66700 5.5227635532e+00 -5.3560237658e-03 2.7992269194e+00 -4.8484032463e+00 2.7992269194e+00 4.8484032463e+00 
66800 5.5227629544e+00 -5.3284834004e-03 2.7993225896e+00 -4.8485689520e+00 2.7993225896e+00 4.8485689520e+00 
66900 5.5227623614e+00 -5.3010909952e-03 2.7994177647e+00 -4.8487338000e+00 2.7994177647e+00 4.8487338000e+00 
67000 5.5227617741e+00 -5.2738457167e-03 2.7995124472e+00 -4.8488977950e+00 2.7995124472e+00 4.8488977950e+00 
67100 5.5227611925e+00 -5.2467467364e-03 2.7996066400e+00 -4.8490609417e+00 2.7996066400e+00 4.8490609417e+00 
67200 5.5227606165e+00 -5.2197932303e-03 2.7997003456e+00 -4.8492232445e+00 2.7997003456e+00 4.8492232445e+00 
67300 5.5227600461e+00 -5.1929843795e-03 2.7997935667e+00 -4.8493847082e+00 2.7997935667e+00 4.8493847082e+00 
67400 5.5227594812e+00 -5.1663193695e-03 2.7998863059e+00 -4.8495453372e+00 2.7998863059e+00 4.8495453372e+00 
67500 5.5227589217e+00 -5.1397973908e-03 2.7999785658e+00 -4.8497051361e+00 2.7999785658e+00 4.8497051361e+00 
67600 5.5227583677e+00 -5.1134176385e-03 2.8000703491e+00 -4.8498641095e+00 2.8000703491e+00 4.8498641095e+00 
67700 5.5227578190e+00 -5.0871793124e-03 2.8001616584e+00 -4.8500222617e+00 2.8001616584e+00 4.8500222617e+00 
67800 5.5227572756e+00 -5.0610816168e-03 2.8002524961e+00 -4.8501795973e+00 2.8002524961e+00 4.8501795973e+00 
67900 5.5227567375e+00 -5.0351237608e-03 2.8003428649e+00 -4.8503361206e+00 2.8003428649e+00 4.8503361206e+00 
68000 5.5227562045e+00 -5.0093049580e-03 2.8004327673e+00 -4.8504918361e+00 2.8004327673e+00 4.8504918361e+00 
68100 5.5227556767e+00 -4.9836244266e-03 2.8005222058e+00 -4.8506467482e+00 2.8005222058e+00 4.8506467482e+00 
68200 5.5227551540e+00 -4.9580813892e-03 2.8006111830e+00 -4.8508008612e+00 2.8006111830e+00 4.8508008612e+00 
68300 5.5227546363e+00 -4.9326750731e-03 2.8006997013e+00 -4.8509541794e+00 2.8006997013e+00 4.8509541794e+00 
68400 5.5227541236e+00 -4.9074047100e-03 2.8007877632e+00 -4.8511067072e+00 2.8007877632e+00 4.8511067072e+00 
68500 5.5227536159e+00 -4.8822695361e-03 2.8008753713e+00 -4.8512584487e+00 2.8008753713e+00 4.8512584487e+00 
68600 5.5227531130e+00 -4.8572687920e-03 2.8009625279e+00 -4.8514094084e+00 2.8009625279e+00 4.8514094084e+00 
68700 5.5227526150e+00 -4.8324017227e-03 2.8010492355e+00 -4.8515595903e+00 2.8010492355e+00 4.8515595903e+00 
68800 5.5227521218e+00 -4.8076675776e-03 2.8011354965e+00 -4.8517089987e+00 2.8011354965e+00 4.8517089987e+00 
68900 5.5227516333e+00 -4.7830656105e-03 2.8012213133e+00 -4.8518576379e+00 2.8012213133e+00 4.8518576379e+00 
69000 5.5227511496e+00 -4.7585950795e-03 2.8013066884e+00 -4.8520055119e+00 2.8013066884e+00 4.8520055119e+00 
69100 5.5227506705e+00 -4.7342552470e-03 2.8013916241e+00 -4.8521526248e+00 2.8013916241e+00 4.8521526248e+00 
69200 5.5227501960e+00 -4.7100453798e-03 2.8014761228e+00 -4.8522989809e+00 2.8014761228e+00 4.8522989809e+00 
69300 5.5227497261e+00 -4.6859647487e-03 2.8015601868e+00 -4.8524445841e+00 2.8015601868e+00 4.8524445841e+00 
69400 5.5227492607e+00 -4.6620126290e-03 2.8016438186e+00 -4.8525894385e+00 2.8016438186e+00 4.8525894385e+00 
69500 5.5227487998e+00 -4.6381883002e-03 2.8017270204e+00 -4.8527335483e+00 2.8017270204e+00 4.8527335483e+00 
69600 5.5227483433e+00 -4.6144910458e-03 2.8018097945e+00 -4.8528769173e+00 2.8018097945e+00 4.8528769173e+00 
69700 5.5227478912e+00 -4.5909201536e-03 2.8018921433e+00 -4.8530195496e+00 2.8018921433e+00 4.8530195496e+00 
69800 5.5227474434e+00 -4.5674749156e-03 2.8019740691e+00 -4.8531614492e+00 2.8019740691e+00 4.8531614492e+00 
69900 5.5227470000e+00 -4.5441546279e-03 2.8020555741e+00 -4.8533026199e+00 2.8020555741e+00 4.8533026199e+00 
70000 5.5227465608e+00 -4.5209585904e-03 2.8021366606e+00 -4.8534430658e+00 2.8021366606e+00 4.8534430658e+00 
70100 5.5227461258e+00 -4.4978861075e-03 2.8022173308e+00 -4.8535827908e+00 2.8022173308e+00 4.8535827908e+00 
70200 5.5227456951e+00 -4.4749364875e-03 2.8022975870e+00 -4.8537217986e+00 2.8022975870e+00 4.8537217986e+00 
70300 5.5227452684e+00 -4.4521090425e-03 2.8023774315e+00 -4.8538600933e+00 2.8023774315e+00 4.8538600933e+00 
70400 5.5227448459e+00 -4.4294030890e-03 2.8024568663e+00 -4.8539976785e+00 2.8024568663e+00 4.8539976785e+00 
70500 5.5227444274e+00 -4.4068179472e-03 2.8025358938e+00 -4.8541345582e+00 2.8025358938e+00 4.8541345582e+00 
70600 5.5227440129e+00 -4.3843529413e-03 2.8026145162e+00 -4.8542707361e+00 2.8026145162e+00 4.8542707361e+00 
70700 5.5227436024e+00 -4.3620073995e-03 2.8026927355e+00 -4.8544062159e+00 2.8026927355e+00 4.8544062159e+00 
70800 5.5227431958e+00 -4.3397806538e-03 2.8027705540e+00 -4.8545410016e+00 2.8027705540e+00 4.8545410016e+00 
70900 5.5227427932e+00 -4.3176720402e-03 2.8028479739e+00 -4.8546750966e+00 2.8028479739e+00 4.8546750966e+00 
71000 5.5227423944e+00 -4.2956808986e-03 2.8029249972e+00 -4.8548085049e+00 2.8029249972e+00 4.8548085049e+00 
71100 5.5227419994e+00 -4.2738065727e-03 2.8030016261e+00 -4.8549412300e+00 2.8030016261e+00 4.8549412300e+00 
71200 5.5227416082e+00 -4.2520484098e-03 2.8030778627e+00 -4.8550732757e+00 2.8030778627e+00 4.8550732757e+00 
71300 5.5227412208e+00 -4.2304057614e-03 2.8031537091e+00 -4.8552046455e+00 2.8031537091e+00 4.8552046455e+00 
71400 5.5227408371e+00 -4.2088779825e-03 2.8032291674e+00 -4.8553353431e+00 2.8032291674e+00 4.8553353431e+00 
71500 5.5227404571e+00 -4.1874644319e-03 2.8033042397e+00 -4.8554653722e+00 2.8033042397e+00 4.8554653722e+00 
71600 5.5227400807e+00 -4.1661644722e-03 2.8033789280e+00 -4.8555947362e+00 2.8033789280e+00 4.8555947362e+00 
71700 5.5227397079e+00 -4.1449774697e-03 2.8034532345e+00 -4.8557234387e+00 2.8034532345e+00 4.8557234387e+00 
71800 5.5227393387e+00 -4.1239027943e-03 2.8035271611e+00 -4.8558514834e+00 2.8035271611e+00 4.8558514834e+00 
71900 5.5227389730e+00 -4.1029398196e-03 2.8036007099e+00 -4.8559788736e+00 2.8036007099e+00 4.8559788736e+00 
72000 5.5227386108e+00 -4.0820879230e-03 2.8036738829e+00 -4.8561056130e+00 2.8036738829e+00 4.8561056130e+00 
72100 5.5227382521e+00 -4.0613464854e-03 2.8037466821e+00 -4.8562317049e+00 2.8037466821e+00 4.8562317049e+00 
72200 5.5227378968e+00 -4.0407148913e-03 2.8038191095e+00 -4.8563571529e+00 2.8038191095e+00 4.8563571529e+00 
72300 5.5227375449e+00 -4.0201925287e-03 2.8038911672e+00 -4.8564819604e+00 2.8038911672e+00 4.8564819604e+00 
72400 5.5227371964e+00 -3.9997787893e-03 2.8039628570e+00 -4.8566061309e+00 2.8039628570e+00 4.8566061309e+00 
72500 5.5227368513e+00 -3.9794730684e-03 2.8040341810e+00 -4.8567296676e+00 2.8040341810e+00 4.8567296676e+00 
72600 5.5227365094e+00 -3.9592747647e-03 2.8041051411e+00 -4.8568525741e+00 2.8041051411e+00 4.8568525741e+00 
72700 5.5227361708e+00 -3.9391832804e-03 2.8041757392e+00 -4.8569748536e+00 2.8041757392e+00 4.8569748536e+00 
72800 5.5227358354e+00 -3.9191980212e-03 2.8042459773e+00 -4.8570965096e+00 2.8042459773e+00 4.8570965096e+00 
72900 5.5227355033e+00 -3.8993183962e-03 2.8043158573e+00 -4.8572175453e+00 2.8043158573e+00 4.8572175453e+00 
73000 5.5227351743e+00 -3.8795438182e-03 2.8043853811e+00 -4.8573379641e+00 2.8043853811e+00 4.8573379641e+00 
73100 5.5227348485e+00 -3.8598737031e-03 2.8044545506e+00 -4.8574577692e+00 2.8044545506e+00 4.8574577692e+00 
73200 5.5227345258e+00 -3.8403074703e-03 2.8045233677e+00 -4.8575769639e+00 2.8045233677e+00 4.8575769639e+00 
73300 5.5227342061e+00 -3.8208445426e-03 2.8045918343e+00 -4.8576955515e+00 2.8045918343e+00 4.8576955515e+00 
73400 5.5227338896e+00 -3.8014843463e-03 2.8046599523e+00 -4.8578135353e+00 2.8046599523e+00 4.8578135353e+00 
73500 5.5227335760e+00 -3.7822263109e-03 2.8047277234e+00 -4.8579309183e+00 2.8047277234e+00 4.8579309183e+00 
73600 5.5227332655e+00 -3.7630698691e-03 2.8047951496e+00 -4.8580477039e+00 2.8047951496e+00 4.8580477039e+00 
73700 5.5227329579e+00 -3.7440144571e-03 2.8048622326e+00 -4.8581638952e+00 2.8048622326e+00 4.8581638952e+00 
73800 5.5227326532e+00 -3.7250595143e-03 2.8049289744e+00 -4.8582794953e+00 2.8049289744e+00 4.8582794953e+00 
73900 5.5227323515e+00 -3.7062044835e-03 2.8049953767e+00 -4.8583945074e+00 2.8049953767e+00 4.8583945074e+00 
74000 5.5227320526e+00 -3.6874488104e-03 2.8050614413e+00 -4.8585089347e+00 2.8050614413e+00 4.8585089347e+00 
74100 5.5227317566e+00 -3.6687919443e-03 2.8051271701e+00 -4.8586227802e+00 2.8051271701e+00 4.8586227802e+00 
74200 5.5227314635e+00 -3.6502333375e-03 2.8051925647e+00 -4.8587360471e+00 2.8051925647e+00 4.8587360471e+00 
74300 5.5227311731e+00 -3.6317724455e-03 2.8052576270e+00 -4.8588487384e+00 2.8052576270e+00 4.8588487384e+00 
74400 5.5227308855e+00 -3.6134087270e-03 2.8053223588e+00 -4.8589608571e+00 2.8053223588e+00 4.8589608571e+00 
74500 5.5227306006e+00 -3.5951416440e-03 2.8053867618e+00 -4.8590724063e+00 2.8053867618e+00 4.8590724063e+00 
74600 5.5227303185e+00 -3.5769706613e-03 2.8054508377e+00 -4.8591833891e+00 2.8054508377e+00 4.8591833891e+00 
74700 5.5227300390e+00 -3.5588952471e-03 2.8055145883e+00 -4.8592938084e+00 2.8055145883e+00 4.8592938084e+00 
74800 5.5227297622e+00 -3.5409148725e-03 2.8055780154e+00 -4.8594036672e+00 2.8055780154e+00 4.8594036672e+00 
74900 5.5227294881e+00 -3.5230290118e-03 2.8056411205e+00 -4.8595129685e+00 2.8056411205e+00 4.8595129685e+00 
75000 5.5227292166e+00 -3.5052371424e-03 2.8057039055e+00 -4.8596217153e+00 2.8057039055e+00 4.8596217153e+00 
75100 5.5227289476e+00 -3.4875387445e-03 2.8057663720e+00 -4.8597299105e+00 2.8057663720e+00 4.8597299105e+00 
75200 5.5227286812e+00 -3.4699333016e-03 2.8058285217e+00 -4.8598375569e+00 2.8058285217e+00 4.8598375569e+00 
75300 5.5227284174e+00 -3.4524203000e-03 2.8058903563e+00 -4.8599446576e+00 2.8058903563e+00 4.8599446576e+00 
75400 5.5227281561e+00 -3.4349992291e-03 2.8059518775e+00 -4.8600512154e+00 2.8059518775e+00 4.8600512154e+00 
75500 5.5227278972e+00 -3.4176695812e-03 2.8060130869e+00 -4.8601572331e+00 2.8060130869e+00 4.8601572331e+00 
75600 5.5227276409e+00 -3.4004308516e-03 2.8060739861e+00 -4.8602627137e+00 2.8060739861e+00 4.8602627137e+00 
75700 5.5227273870e+00 -3.3832825385e-03 2.8061345769e+00 -4.8603676600e+00 2.8061345769e+00 4.8603676600e+00 
75800 5.5227271355e+00 -3.3662241430e-03 2.8061948608e+00 -4.8604720748e+00 2.8061948608e+00 4.8604720748e+00 
75900 5.5227268864e+00 -3.3492551692e-03 2.8062548394e+00 -4.8605759609e+00 2.8062548394e+00 4.8605759609e+00 
76000 5.5227266396e+00 -3.3323751239e-03 2.8063145145e+00 -4.8606793211e+00 2.8063145145e+00 4.8606793211e+00 
76100 5.5227263952e+00 -3.3155835170e-03 2.8063738875e+00 -4.8607821581e+00 2.8063738875e+00 4.8607821581e+00 
76200 5.5227261532e+00 -3.2988798609e-03 2.8064329601e+00 -4.8608844749e+00 2.8064329601e+00 4.8608844749e+00 
76300 5.5227259134e+00 -3.2822636713e-03 2.8064917338e+00 -4.8609862740e+00 2.8064917338e+00 4.8609862740e+00 
76400 5.5227256760e+00 -3.2657344662e-03 2.8065502103e+00 -4.8610875582e+00 2.8065502103e+00 4.8610875582e+00 
76500 5.5227254408e+00 -3.2492917668e-03 2.8066083911e+00 -4.8611883303e+00 2.8066083911e+00 4.8611883303e+00 
76600 5.5227252078e+00 -3.2329350969e-03 2.8066662777e+00 -4.8612885929e+00 2.8066662777e+00 4.8612885929e+00 
76700 5.5227249770e+00 -3.2166639831e-03 2.8067238718e+00 -4.8613883487e+00 2.8067238718e+00 4.8613883487e+00 
76800 5.5227247485e+00 -3.2004779546e-03 2.8067811748e+00 -4.8614876005e+00 2.8067811748e+00 4.8614876005e+00 
76900 5.5227245221e+00 -3.1843765436e-03 2.8068381883e+00 -4.8615863507e+00 2.8068381883e+00 4.8615863507e+00 
77000 5.5227242979e+00 -3.1683592849e-03 2.8068949138e+00 -4.8616846022e+00 2.8068949138e+00 4.8616846022e+00 
77100 5.5227240758e+00 -3.1524257158e-03 2.8069513529e+00 -4.8617823575e+00 2.8069513529e+00 4.8617823575e+00 
77200 5.5227238558e+00 -3.1365753766e-03 2.8070075070e+00 -4.8618796193e+00 2.8070075070e+00 4.8618796193e+00 
77300 5.5227236380e+00 -3.1208078101e-03 2.8070633776e+00 -4.8619763901e+00 2.8070633776e+00 4.8619763901e+00 
77400 5.5227234221e+00 -3.1051225617e-03 2.8071189663e+00 -4.8620726725e+00 2.8071189663e+00 4.8620726725e+00 
77500 5.5227232084e+00 -3.0895191795e-03 2.8071742744e+00 -4.8621684690e+00 2.8071742744e+00 4.8621684690e+00 
77600 5.5227229967e+00 -3.0739972143e-03 2.8072293036e+00 -4.8622637823e+00 2.8072293036e+00 4.8622637823e+00 
77700 5.5227227870e+00 -3.0585562193e-03 2.8072840552e+00 -4.8623586149e+00 2.8072840552e+00 4.8623586149e+00 
77800 5.5227225792e+00 -3.0431957504e-03 2.8073385308e+00 -4.8624529693e+00 2.8073385308e+00 4.8624529693e+00 
77900 5.5227223735e+00 -3.0279153662e-03 2.8073927317e+00 -4.8625468481e+00 2.8073927317e+00 4.8625468481e+00 
78000 5.5227221697e+00 -3.0127146277e-03 2.8074466594e+00 -4.8626402536e+00 2.8074466594e+00 4.8626402536e+00 
78100 5.5227219679e+00 -2.9975930983e-03 2.8075003153e+00 -4.8627331884e+00 2.8075003153e+00 4.8627331884e+00 
78200 5.5227217679e+00 -2.9825503443e-03 2.8075537009e+00 -4.8628256550e+00 2.8075537009e+00 4.8628256550e+00 
78300 5.5227215699e+00 -2.9675859341e-03 2.8076068176e+00 -4.8629176558e+00 2.8076068176e+00 4.8629176558e+00 
78400 5.5227213738e+00 -2.9526994390e-03 2.8076596668e+00 -4.8630091933e+00 2.8076596668e+00 4.8630091933e+00 
78500 5.5227211795e+00 -2.9378904324e-03 2.8077122499e+00 -4.8631002699e+00 2.8077122499e+00 4.8631002699e+00 
78600 5.5227209870e+00 -2.9231584905e-03 2.8077645683e+00 -4.8631908880e+00 2.8077645683e+00 4.8631908880e+00 
78700 5.5227207964e+00 -2.9085031916e-03 2.8078166234e+00 -4.8632810500e+00 2.8078166234e+00 4.8632810500e+00 
78800 5.5227206076e+00 -2.8939241167e-03 2.8078684165e+00 -4.8633707584e+00 2.8078684165e+00 4.8633707584e+00 
78900 5.5227204206e+00 -2.8794208492e-03 2.8079199491e+00 -4.8634600154e+00 2.8079199491e+00 4.8634600154e+00 
79000 5.5227202354e+00 -2.8649929749e-03 2.8079712224e+00 -4.8635488234e+00 2.8079712224e+00 4.8635488234e+00 
79100 5.5227200519e+00 -2.8506400817e-03 2.8080222379e+00 -4.8636371849e+00 2.8080222379e+00 4.8636371849e+00 
79200 5.5227198702e+00 -2.8363617604e-03 2.8080729970e+00 -4.8637251021e+00 2.8080729970e+00 4.8637251021e+00 
79300 5.5227196902e+00 -2.8221576037e-03 2.8081235008e+00 -4.8638125773e+00 2.8081235008e+00 4.8638125773e+00 
79400 5.5227195119e+00 -2.8080272068e-03 2.8081737508e+00 -4.8638996129e+00 2.8081737508e+00 4.8638996129e+00 
79500 5.5227193353e+00 -2.7939701675e-03 2.8082237484e+00 -4.8639862112e+00 2.8082237484e+00 4.8639862112e+00 
79600 5.5227191604e+00 -2.7799860854e-03 2.8082734947e+00 -4.8640723744e+00 2.8082734947e+00 4.8640723744e+00 
79700 5.5227189871e+00 -2.7660745629e-03 2.8083229912e+00 -4.8641581049e+00 2.8083229912e+00 4.8641581049e+00 
79800 5.5227188155e+00 -2.7522352043e-03 2.8083722392e+00 -4.8642434048e+00 2.8083722392e+00 4.8642434048e+00 
79900 5.5227186455e+00 -2.7384676166e-03 2.8084212399e+00 -4.8643282765e+00 2.8084212399e+00 4.8643282765e+00 
80000 5.5227184772e+00 -2.7247714086e-03 2.8084699946e+00 -4.8644127222e+00 2.8084699946e+00 4.8644127222e+00 
80100 5.5227183104e+00 -2.7111461918e-03 2.8085185046e+00 -4.8644967440e+00 2.8085185046e+00 4.8644967440e+00 
80200 5.5227181452e+00 -2.6975915795e-03 2.8085667712e+00 -4.8645803442e+00 2.8085667712e+00 4.8645803442e+00 
80300 5.5227179816e+00 -2.6841071876e-03 2.8086147957e+00 -4.8646635251e+00 2.8086147957e+00 4.8646635251e+00 
80400 5.5227178195e+00 -2.6706926340e-03 2.8086625793e+00 -4.8647462887e+00 2.8086625793e+00 4.8647462887e+00 
80500 5.5227176590e+00 -2.6573475389e-03 2.8087101233e+00 -4.8648286373e+00 2.8087101233e+00 4.8648286373e+00 
80600 5.5227175000e+00 -2.6440715245e-03 2.8087574289e+00 -4.8649105730e+00 2.8087574289e+00 4.8649105730e+00 
80700 5.5227173425e+00 -2.6308642155e-03 2.8088044974e+00 -4.8649920980e+00 2.8088044974e+00 4.8649920980e+00 
80800 5.5227171865e+00 -2.6177252385e-03 2.8088513300e+00 -4.8650732144e+00 2.8088513300e+00 4.8650732144e+00 
80900 5.5227170319e+00 -2.6046542222e-03 2.8088979279e+00 -4.8651539244e+00 2.8088979279e+00 4.8651539244e+00 
81000 5.5227168789e+00 -2.5916507978e-03 2.8089442924e+00 -4.8652342300e+00 2.8089442924e+00 4.8652342300e+00 
81100 5.5227167273e+00 -2.5787145981e-03 2.8089904246e+00 -4.8653141334e+00 2.8089904246e+00 4.8653141334e+00 
81200 5.5227165771e+00 -2.5658452585e-03 2.8090363258e+00 -4.8653936367e+00 2.8090363258e+00 4.8653936367e+00 
81300 5.5227164283e+00 -2.5530424161e-03 2.8090819972e+00 -4.8654727418e+00 2.8090819972e+00 4.8654727418e+00 
81400 5.5227162810e+00 -2.5403057104e-03 2.8091274400e+00 -4.8655514510e+00 2.8091274400e+00 4.8655514510e+00 
81500 5.5227161351e+00 -2.5276347827e-03 2.8091726553e+00 -4.8656297663e+00 2.8091726553e+00 4.8656297663e+00 
81600 5.5227159905e+00 -2.5150292765e-03 2.8092176444e+00 -4.8657076896e+00 2.8092176444e+00 4.8657076896e+00 
81700 5.5227158473e+00 -2.5024888375e-03 2.8092624084e+00 -4.8657852231e+00 2.8092624084e+00 4.8657852231e+00 
81800 5.5227157055e+00 -2.4900131130e-03 2.8093069485e+00 -4.8658623688e+00 2.8093069485e+00 4.8658623688e+00 
81900 5.5227155650e+00 -2.4776017528e-03 2.8093512658e+00 -4.8659391287e+00 2.8093512658e+00 4.8659391287e+00 
82000 5.5227154259e+00 -2.4652544084e-03 2.8093953615e+00 -4.8660155047e+00 2.8093953615e+00 4.8660155047e+00 
82100 5.5227152880e+00 -2.4529707333e-03 2.8094392368e+00 -4.8660914990e+00 2.8094392368e+00 4.8660914990e+00 
82200 5.5227151515e+00 -2.4407503832e-03 2.8094828928e+00 -4.8661671134e+00 2.8094828928e+00 4.8661671134e+00 
82300 5.5227150163e+00 -2.4285930156e-03 2.8095263307e+00 -4.8662423499e+00 2.8095263307e+00 4.8662423499e+00 
82400 5.5227148823e+00 -2.4164982900e-03 2.8095695515e+00 -4.8663172105e+00 2.8095695515e+00 4.8663172105e+00 
82500 5.5227147496e+00 -2.4044658679e-03 2.8096125563e+00 -4.8663916972e+00 2.8096125563e+00 4.8663916972e+00 
82600 5.5227146182e+00 -2.3924954126e-03 2.8096553464e+00 -4.8664658118e+00 2.8096553464e+00 4.8664658118e+00 
82700 5.5227144880e+00 -2.3805865895e-03 2.8096979229e+00 -4.8665395563e+00 2.8096979229e+00 4.8665395563e+00 
82800 5.5227143591e+00 -2.3687390657e-03 2.8097402867e+00 -4.8666129327e+00 2.8097402867e+00 4.8666129327e+00 
82900 5.5227142313e+00 -2.3569525104e-03 2.8097824391e+00 -4.8666859427e+00 2.8097824391e+00 4.8666859427e+00 
83000 5.5227141048e+00 -2.3452265947e-03 2.8098243811e+00 -4.8667585884e+00 2.8098243811e+00 4.8667585884e+00 
83100 5.5227139795e+00 -2.3335609914e-03 2.8098661138e+00 -4.8668308716e+00 2.8098661138e+00 4.8668308716e+00 
83200 5.5227138554e+00 -2.3219553753e-03 2.8099076383e+00 -4.8669027942e+00 2.8099076383e+00 4.8669027942e+00 
83300 5.5227137324e+00 -2.3104094230e-03 2.8099489557e+00 -4.8669743580e+00 2.8099489557e+00 4.8669743580e+00 
83400 5.5227136106e+00 -2.2989228131e-03 2.8099900671e+00 -4.8670455649e+00 2.8099900671e+00 4.8670455649e+00 
83500 5.5227134900e+00 -2.2874952257e-03 2.8100309734e+00 -4.8671164168e+00 2.8100309734e+00 4.8671164168e+00 
83600 5.5227133705e+00 -2.2761263431e-03 2.8100716758e+00 -4.8671869154e+00 2.8100716758e+00 4.8671869154e+00 
83700 5.5227132521e+00 -2.2648158491e-03 2.8101121754e+00 -4.8672570627e+00 2.8101121754e+00 4.8672570627e+00 
83800 5.5227131349e+00 -2.2535634296e-03 2.8101524731e+00 -4.8673268604e+00 2.8101524731e+00 4.8673268604e+00 
83900 5.5227130188e+00 -2.2423687720e-03 2.8101925700e+00 -4.8673963102e+00 2.8101925700e+00 4.8673963102e+00 
84000 5.5227129037e+00 -2.2312315657e-03 2.8102324671e+00 -4.8674654142e+00 2.8102324671e+00 4.8674654142e+00 
84100 5.5227127898e+00 -2.2201515017e-03 2.8102721656e+00 -4.8675341739e+00 2.8102721656e+00 4.8675341739e+00 
84200 5.5227126769e+00 -2.2091282729e-03 2.8103116663e+00 -4.8676025912e+00 2.8103116663e+00 4.8676025912e+00 
84300 5.5227125651e+00 -2.1981615740e-03 2.8103509704e+00 -4.8676706678e+00 2.8103509704e+00 4.8676706678e+00 
84400 5.5227124544e+00 -2.1872511011e-03 2.8103900788e+00 -4.8677384055e+00 2.8103900788e+00 4.8677384055e+00 
84500 5.5227123447e+00 -2.1763965525e-03 2.8104289925e+00 -4.8678058061e+00 2.8104289925e+00 4.8678058061e+00 
84600 5.5227122361e+00 -2.1655976278e-03 2.8104677126e+00 -4.8678728713e+00 2.8104677126e+00 4.8678728713e+00 
84700 5.5227121284e+00 -2.1548540285e-03 2.8105062401e+00 -4.8679396028e+00 2.8105062401e+00 4.8679396028e+00 
84800 5.5227120218e+00 -2.1441654579e-03 2.8105445758e+00 -4.8680060023e+00 2.8105445758e+00 4.8680060023e+00 
84900 5.5227119162e+00 -2.1335316207e-03 2.8105827209e+00 -4.8680720716e+00 2.8105827209e+00 4.8680720716e+00 
85000 5.5227118116e+00 -2.1229522236e-03 2.8106206764e+00 -4.8681378123e+00 2.8106206764e+00 4.8681378123e+00 
85100 5.5227117080e+00 -2.1124269747e-03 2.8106584430e+00 -4.8682032261e+00 2.8106584430e+00 4.8682032261e+00 
85200 5.5227116054e+00 -2.1019555839e-03 2.8106960220e+00 -4.8682683147e+00 2.8106960220e+00 4.8682683147e+00 
85300 5.5227115037e+00 -2.0915377627e-03 2.8107334142e+00 -4.8683330799e+00 2.8107334142e+00 4.8683330799e+00 
85400 5.5227114031e+00 -2.0811732243e-03 2.8107706205e+00 -4.8683975231e+00 2.8107706205e+00 4.8683975231e+00 
85500 5.5227113033e+00 -2.0708616834e-03 2.8108076420e+00 -4.8684616462e+00 2.8108076420e+00 4.8684616462e+00 
85600 5.5227112045e+00 -2.0606028564e-03 2.8108444796e+00 -4.8685254508e+00 2.8108444796e+00 4.8685254508e+00 
85700 5.5227111067e+00 -2.0503964614e-03 2.8108811341e+00 -4.8685889384e+00 2.8108811341e+00 4.8685889384e+00 
85800 5.5227110097e+00 -2.0402422178e-03 2.8109176067e+00 -4.8686521107e+00 2.8109176067e+00 4.8686521107e+00 
85900 5.5227109137e+00 -2.0301398470e-03 2.8109538982e+00 -4.8687149694e+00 2.8109538982e+00 4.8687149694e+00 
86000 5.5227108186e+00 -2.0200890716e-03 2.8109900095e+00 -4.8687775160e+00 2.8109900095e+00 4.8687775160e+00 
86100 5.5227107244e+00 -2.0100896159e-03 2.8110259415e+00 -4.8688397522e+00 2.8110259415e+00 4.8688397522e+00 
86200 5.5227106311e+00 -2.0001412060e-03 2.8110616953e+00 -4.8689016795e+00 2.8110616953e+00 4.8689016795e+00 
86300 5.5227105386e+00 -1.9902435692e-03 2.8110972716e+00 -4.8689632995e+00 2.8110972716e+00 4.8689632995e+00 
86400 5.5227104470e+00 -1.9803964345e-03 2.8111326715e+00 -4.8690246138e+00 2.8111326715e+00 4.8690246138e+00 
86500 5.5227103564e+00 -1.9705995324e-03 2.8111678957e+00 -4.8690856240e+00 2.8111678957e+00 4.8690856240e+00 
86600 5.5227102665e+00 -1.9608525949e-03 2.8112029453e+00 -4.8691463316e+00 2.8112029453e+00 4.8691463316e+00 
86700 5.5227101775e+00 -1.9511553556e-03 2.8112378210e+00 -4.8692067382e+00 2.8112378210e+00 4.8692067382e+00 
86800 5.5227100894e+00 -1.9415075496e-03 2.8112725239e+00 -4.8692668453e+00 2.8112725239e+00 4.8692668453e+00 
86900 5.5227100021e+00 -1.9319089134e-03 2.8113070547e+00 -4.8693266544e+00 2.8113070547e+00 4.8693266544e+00 
87000 5.5227099156e+00 -1.9223591850e-03 2.8113414144e+00 -4.8693861672e+00 2.8113414144e+00 4.8693861672e+00 
87100 5.5227098299e+00 -1.9128581040e-03 2.8113756038e+00 -4.8694453850e+00 2.8113756038e+00 4.8694453850e+00 
87200 5.5227097450e+00 -1.9034054113e-03 2.8114096239e+00 -4.8695043094e+00 2.8114096239e+00 4.8695043094e+00 
87300 5.5227096610e+00 -1.8940008494e-03 2.8114434754e+00 -4.8695629419e+00 2.8114434754e+00 4.8695629419e+00 
87400 5.5227095777e+00 -1.8846441621e-03 2.8114771592e+00 -4.8696212841e+00 2.8114771592e+00 4.8696212841e+00 
87500 5.5227094952e+00 -1.8753350949e-03 2.8115106763e+00 -4.8696793373e+00 2.8115106763e+00 4.8696793373e+00 
87600 5.5227094135e+00 -1.8660733944e-03 2.8115440273e+00 -4.8697371031e+00 2.8115440273e+00 4.8697371031e+00 
87700 5.5227093326e+00 -1.8568588089e-03 2.8115772133e+00 -4.8697945829e+00 2.8115772133e+00 4.8697945829e+00 
87800 5.5227092524e+00 -1.8476910880e-03 2.8116102350e+00 -4.8698517782e+00 2.8116102350e+00 4.8698517782e+00 
87900 5.5227091730e+00 -1.8385699827e-03 2.8116430933e+00 -4.8699086904e+00 2.8116430933e+00 4.8699086904e+00 
88000 5.5227090944e+00 -1.8294952453e-03 2.8116757891e+00 -4.8699653211e+00 2.8116757891e+00 4.8699653211e+00 
88100 5.5227090165e+00 -1.8204666299e-03 2.8117083230e+00 -4.8700216715e+00 2.8117083230e+00 4.8700216715e+00 
88200 5.5227089393e+00 -1.8114838914e-03 2.8117406960e+00 -4.8700777433e+00 2.8117406960e+00 4.8700777433e+00 
88300 5.5227088629e+00 -1.8025467866e-03 2.8117729090e+00 -4.8701335377e+00 2.8117729090e+00 4.8701335377e+00 
88400 5.5227087871e+00 -1.7936550733e-03 2.8118049626e+00 -4.8701890562e+00 2.8118049626e+00 4.8701890562e+00 
88500 5.5227087121e+00 -1.7848085108e-03 2.8118368577e+00 -4.8702443002e+00 2.8118368577e+00 4.8702443002e+00 
88600 5.5227086378e+00 -1.7760068598e-03 2.8118685952e+00 -4.8702992711e+00 2.8118685952e+00 4.8702992711e+00 
88700 5.5227085642e+00 -1.7672498823e-03 2.8119001758e+00 -4.8703539703e+00 2.8119001758e+00 4.8703539703e+00 
88800 5.5227084913e+00 -1.7585373416e-03 2.8119316003e+00 -4.8704083992e+00 2.8119316003e+00 4.8704083992e+00 
88900 5.5227084191e+00 -1.7498690024e-03 2.8119628696e+00 -4.8704625592e+00 2.8119628696e+00 4.8704625592e+00 
89000 5.5227083476e+00 -1.7412446305e-03 2.8119939844e+00 -4.8705164515e+00 2.8119939844e+00 4.8705164515e+00 
89100 5.5227082768e+00 -1.7326639934e-03 2.8120249455e+00 -4.8705700777e+00 2.8120249455e+00 4.8705700777e+00 
89200 5.5227082066e+00 -1.7241268595e-03 2.8120557537e+00 -4.8706234390e+00 2.8120557537e+00 4.8706234390e+00 
89300 5.5227081370e+00 -1.7156329988e-03 2.8120864097e+00 -4.8706765369e+00 2.8120864097e+00 4.8706765369e+00 
89400 5.5227080682e+00 -1.7071821824e-03 2.8121169144e+00 -4.8707293725e+00 2.8121169144e+00 4.8707293725e+00 
89500 5.5227080000e+00 -1.6987741828e-03 2.8121472685e+00 -4.8707819474e+00 2.8121472685e+00 4.8707819474e+00 
89600 5.5227079324e+00 -1.6904087738e-03 2.8121774727e+00 -4.8708342627e+00 2.8121774727e+00 4.8708342627e+00 
89700 5.5227078655e+00 -1.6820857301e-03 2.8122075280e+00 -4.8708863198e+00 2.8122075280e+00 4.8708863198e+00 
89800 5.5227077992e+00 -1.6738048283e-03 2.8122374349e+00 -4.8709381201e+00 2.8122374349e+00 4.8709381201e+00 
89900 5.5227077335e+00 -1.6655658456e-03 2.8122671942e+00 -4.8709896649e+00 2.8122671942e+00 4.8709896649e+00 
90000 5.5227076685e+00 -1.6573685609e-03 2.8122968068e+00 -4.8710409553e+00 2.8122968068e+00 4.8710409553e+00 
90100 5.5227076040e+00 -1.6492127541e-03 2.8123262733e+00 -4.8710919928e+00 2.8123262733e+00 4.8710919928e+00 
90200 5.5227075402e+00 -1.6410982064e-03 2.8123555945e+00 -4.8711427786e+00 2.8123555945e+00 4.8711427786e+00 
90300 5.5227074770e+00 -1.6330247002e-03 2.8123847711e+00 -4.8711933140e+00 2.8123847711e+00 4.8711933140e+00 
90400 5.5227074143e+00 -1.6249920193e-03 2.8124138039e+00 -4.8712436003e+00 2.8124138039e+00 4.8712436003e+00 
90500 5.5227073523e+00 -1.6169999483e-03 2.8124426936e+00 -4.8712936387e+00 2.8124426936e+00 4.8712936387e+00 
90600 5.5227072908e+00 -1.6090482733e-03 2.8124714409e+00 -4.8713434305e+00 2.8124714409e+00 4.8713434305e+00 
90700 5.5227072300e+00 -1.6011367816e-03 2.8125000465e+00 -4.8713929769e+00 2.8125000465e+00 4.8713929769e+00 
90800 5.5227071697e+00 -1.5932652616e-03 2.8125285112e+00 -4.8714422792e+00 2.8125285112e+00 4.8714422792e+00 
90900 5.5227071100e+00 -1.5854335028e-03 2.8125568357e+00 -4.8714913386e+00 2.8125568357e+00 4.8714913386e+00 
91000 5.5227070508e+00 -1.5776412961e-03 2.8125850207e+00 -4.8715401564e+00 2.8125850207e+00 4.8715401564e+00 
91100 5.5227069922e+00 -1.5698884333e-03 2.8126130668e+00 -4.8715887338e+00 2.8126130668e+00 4.8715887338e+00 
91200 5.5227069341e+00 -1.5621747076e-03 2.8126409749e+00 -4.8716370720e+00 2.8126409749e+00 4.8716370720e+00 
91300 5.5227068766e+00 -1.5544999131e-03 2.8126687455e+00 -4.8716851721e+00 2.8126687455e+00 4.8716851721e+00 
91400 5.5227068197e+00 -1.5468638452e-03 2.8126963795e+00 -4.8717330355e+00 2.8126963795e+00 4.8717330355e+00 
91500 5.5227067633e+00 -1.5392663005e-03 2.8127238774e+00 -4.8717806633e+00 2.8127238774e+00 4.8717806633e+00 
91600 5.5227067074e+00 -1.5317070766e-03 2.8127512400e+00 -4.8718280567e+00 2.8127512400e+00 4.8718280567e+00 
91700 5.5227066520e+00 -1.5241859722e-03 2.8127784680e+00 -4.8718752169e+00 2.8127784680e+00 4.8718752169e+00 
91800 5.5227065972e+00 -1.5167027872e-03 2.8128055620e+00 -4.8719221451e+00 2.8128055620e+00 4.8719221451e+00 
91900 5.5227065429e+00 -1.5092573227e-03 2.8128325227e+00 -4.8719688425e+00 2.8128325227e+00 4.8719688425e+00 
92000 5.5227064890e+00 -1.5018493806e-03 2.8128593508e+00 -4.8720153101e+00 2.8128593508e+00 4.8720153101e+00 
92100 5.5227064357e+00 -1.4944787643e-03 2.8128860470e+00 -4.8720615493e+00 2.8128860470e+00 4.8720615493e+00 
92200 5.5227063830e+00 -1.4871452779e-03 2.8129126119e+00 -4.8721075610e+00 2.8129126119e+00 4.8721075610e+00 
92300 5.5227063307e+00 -1.4798487269e-03 2.8129390462e+00 -4.8721533466e+00 2.8129390462e+00 4.8721533466e+00 
92400 5.5227062788e+00 -1.4725889177e-03 2.8129653505e+00 -4.8721989071e+00 2.8129653505e+00 4.8721989071e+00 
92500 5.5227062275e+00 -1.4653656577e-03 2.8129915256e+00 -4.8722442436e+00 2.8129915256e+00 4.8722442436e+00 
92600 5.5227061767e+00 -1.4581787557e-03 2.8130175720e+00 -4.8722893573e+00 2.8130175720e+00 4.8722893573e+00 
92700 5.5227061264e+00 -1.4510280211e-03 2.8130434905e+00 -4.8723342494e+00 2.8130434905e+00 4.8723342494e+00 
92800 5.5227060765e+00 -1.4439132647e-03 2.8130692816e+00 -4.8723789209e+00 2.8130692816e+00 4.8723789209e+00 
92900 5.5227060271e+00 -1.4368342983e-03 2.8130949460e+00 -4.8724233730e+00 2.8130949460e+00 4.8724233730e+00 
93000 5.5227059781e+00 -1.4297909345e-03 2.8131204844e+00 -4.8724676067e+00 2.8131204844e+00 4.8724676067e+00 
93100 5.5227059297e+00 -1.4227829873e-03 2.8131458973e+00 -4.8725116232e+00 2.8131458973e+00 4.8725116232e+00 
93200 5.5227058816e+00 -1.4158102714e-03 2.8131711855e+00 -4.8725554236e+00 2.8131711855e+00 4.8725554236e+00 
93300 5.5227058341e+00 -1.4088726028e-03 2.8131963494e+00 -4.8725990089e+00 2.8131963494e+00 4.8725990089e+00 
93400 5.5227057870e+00 -1.4019697982e-03 2.8132213899e+00 -4.8726423803e+00 2.8132213899e+00 4.8726423803e+00 
93500 5.5227057403e+00 -1.3951016755e-03 2.8132463075e+00 -4.8726855387e+00 2.8132463075e+00 4.8726855387e+00 
93600 5.5227056941e+00 -1.3882680537e-03 2.8132711027e+00 -4.8727284854e+00 2.8132711027e+00 4.8727284854e+00 
93700 5.5227056483e+00 -1.3814687526e-03 2.8132957763e+00 -4.8727712213e+00 2.8132957763e+00 4.8727712213e+00 
93800 5.5227056029e+00 -1.3747035932e-03 2.8133203288e+00 -4.8728137475e+00 2.8133203288e+00 4.8728137475e+00 
93900 5.5227055580e+00 -1.3679723972e-03 2.8133447609e+00 -4.8728560651e+00 2.8133447609e+00 4.8728560651e+00 
94000 5.5227055134e+00 -1.3612749875e-03 2.8133690732e+00 -4.8728981752e+00 2.8133690732e+00 4.8728981752e+00 
94100 5.5227054694e+00 -1.3546111879e-03 2.8133932662e+00 -4.8729400787e+00 2.8133932662e+00 4.8729400787e+00 
94200 5.5227054257e+00 -1.3479808233e-03 2.8134173405e+00 -4.8729817767e+00 2.8134173405e+00 4.8729817767e+00 
94300 5.5227053824e+00 -1.3413837193e-03 2.8134412969e+00 -4.8730232703e+00 2.8134412969e+00 4.8730232703e+00 
94400 5.5227053396e+00 -1.3348197027e-03 2.8134651357e+00 -4.8730645604e+00 2.8134651357e+00 4.8730645604e+00 
94500 5.5227052971e+00 -1.3282886011e-03 2.8134888578e+00 -4.8731056482e+00 2.8134888578e+00 4.8731056482e+00 
94600 5.5227052551e+00 -1.3217902431e-03 2.8135124635e+00 -4.8731465345e+00 2.8135124635e+00 4.8731465345e+00 
94700 5.5227052134e+00 -1.3153244584e-03 2.8135359536e+00 -4.8731872205e+00 2.8135359536e+00 4.8731872205e+00 
94800 5.5227051722e+00 -1.3088910773e-03 2.8135593286e+00 -4.8732277072e+00 2.8135593286e+00 4.8732277072e+00 
94900 5.5227051313e+00 -1.3024899313e-03 2.8135825890e+00 -4.8732679954e+00 2.8135825890e+00 4.8732679954e+00 
95000 5.5227050908e+00 -1.2961208527e-03 2.8136057355e+00 -4.8733080864e+00 2.8136057355e+00 4.8733080864e+00 
95100 5.5227050507e+00 -1.2897836748e-03 2.8136287686e+00 -4.8733479809e+00 2.8136287686e+00 4.8733479809e+00 
95200 5.5227050110e+00 -1.2834782317e-03 2.8136516889e+00 -4.8733876801e+00 2.8136516889e+00 4.8733876801e+00 
95300 5.5227049716e+00 -1.2772043585e-03 2.8136744970e+00 -4.8734271848e+00 2.8136744970e+00 4.8734271848e+00 
95400 5.5227049326e+00 -1.2709618912e-03 2.8136971934e+00 -4.8734664961e+00 2.8136971934e+00 4.8734664961e+00 
95500 5.5227048940e+00 -1.2647506667e-03 2.8137197787e+00 -4.8735056150e+00 2.8137197787e+00 4.8735056150e+00 
95600 5.5227048558e+00 -1.2585705228e-03 2.8137422535e+00 -4.8735445424e+00 2.8137422535e+00 4.8735445424e+00 
95700 5.5227048179e+00 -1.2524212981e-03 2.8137646182e+00 -4.8735832793e+00 2.8137646182e+00 4.8735832793e+00 
95800 5.5227047804e+00 -1.2463028321e-03 2.8137868735e+00 -4.8736218266e+00 2.8137868735e+00 4.8736218266e+00 
95900 5.5227047432e+00 -1.2402149653e-03 2.8138090199e+00 -4.8736601852e+00 2.8138090199e+00 4.8736601852e+00 
96000 5.5227047064e+00 -1.2341575389e-03 2.8138310579e+00 -4.8736983562e+00 2.8138310579e+00 4.8736983562e+00 
96100 5.5227046699e+00 -1.2281303952e-03 2.8138529882e+00 -4.8737363405e+00 2.8138529882e+00 4.8737363405e+00 
96200 5.5227046338e+00 -1.2221333771e-03 2.8138748111e+00 -4.8737741390e+00 2.8138748111e+00 4.8737741390e+00 
96300 5.5227045980e+00 -1.2161663285e-03 2.8138965273e+00 -4.8738117526e+00 2.8138965273e+00 4.8738117526e+00 
96400 5.5227045625e+00 -1.2102290941e-03 2.8139181374e+00 -4.8738491823e+00 2.8139181374e+00 4.8738491823e+00 
96500 5.5227045274e+00 -1.2043215196e-03 2.8139396417e+00 -4.8738864289e+00 2.8139396417e+00 4.8738864289e+00 
96600 5.5227044926e+00 -1.1984434513e-03 2.8139610410e+00 -4.8739234935e+00 2.8139610410e+00 4.8739234935e+00 
96700 5.5227044582e+00 -1.1925947364e-03 2.8139823356e+00 -4.8739603769e+00 2.8139823356e+00 4.8739603769e+00 
96800 5.5227044240e+00 -1.1867752232e-03 2.8140035261e+00 -4.8739970800e+00 2.8140035261e+00 4.8739970800e+00 
96900 5.5227043902e+00 -1.1809847604e-03 2.8140246131e+00 -4.8740336037e+00 2.8140246131e+00 4.8740336037e+00 
97000 5.5227043567e+00 -1.1752231978e-03 2.8140455971e+00 -4.8740699489e+00 2.8140455971e+00 4.8740699489e+00 
97100 5.5227043235e+00 -1.1694903860e-03 2.8140664785e+00 -4.8741061166e+00 2.8140664785e+00 4.8741061166e+00 
97200 5.5227042907e+00 -1.1637861763e-03 2.8140872579e+00 -4.8741421075e+00 2.8140872579e+00 4.8741421075e+00 
97300 5.5227042581e+00 -1.1581104210e-03 2.8141079357e+00 -4.8741779227e+00 2.8141079357e+00 4.8741779227e+00 
97400 5.5227042259e+00 -1.1524629729e-03 2.8141285126e+00 -4.8742135629e+00 2.8141285126e+00 4.8742135629e+00 
97500 5.5227041939e+00 -1.1468436859e-03 2.8141489890e+00 -4.8742490291e+00 2.8141489890e+00 4.8742490291e+00 
97600 5.5227041623e+00 -1.1412524146e-03 2.8141693654e+00 -4.8742843221e+00 2.8141693654e+00 4.8742843221e+00 
97700 5.5227041309e+00 -1.1356890142e-03 2.8141896424e+00 -4.8743194427e+00 2.8141896424e+00 4.8743194427e+00 
97800 5.5227040999e+00 -1.1301533410e-03 2.8142098203e+00 -4.8743543919e+00 2.8142098203e+00 4.8743543919e+00 
97900 5.5227040691e+00 -1.1246452519e-03 2.8142298997e+00 -4.8743891705e+00 2.8142298997e+00 4.8743891705e+00 
98000 5.5227040387e+00 -1.1191646046e-03 2.8142498812e+00 -4.8744237794e+00 2.8142498812e+00 4.8744237794e+00 
98100 5.5227040085e+00 -1.1137112575e-03 2.8142697651e+00 -4.8744582193e+00 2.8142697651e+00 4.8744582193e+00 
98200 5.5227039786e+00 -1.1082850699e-03 2.8142895519e+00 -4.8744924912e+00 2.8142895519e+00 4.8744924912e+00 
98300 5.5227039490e+00 -1.1028859018e-03 2.8143092423e+00 -4.8745265959e+00 2.8143092423e+00 4.8745265959e+00 
98400 5.5227039197e+00 -1.0975136140e-03 2.8143288366e+00 -4.8745605341e+00 2.8143288366e+00 4.8745605341e+00 
98500 5.5227038906e+00 -1.0921680680e-03 2.8143483353e+00 -4.8745943069e+00 2.8143483353e+00 4.8745943069e+00 
98600 5.5227038618e+00 -1.0868491260e-03 2.8143677389e+00 -4.8746279149e+00 2.8143677389e+00 4.8746279149e+00 
98700 5.5227038333e+00 -1.0815566511e-03 2.8143870478e+00 -4.8746613590e+00 2.8143870478e+00 4.8746613590e+00 
98800 5.5227038051e+00 -1.0762905070e-03 2.8144062626e+00 -4.8746946400e+00 2.8144062626e+00 4.8746946400e+00 
98900 5.5227037771e+00 -1.0710505583e-03 2.8144253837e+00 -4.8747277587e+00 2.8144253837e+00 4.8747277587e+00 
99000 5.5227037494e+00 -1.0658366700e-03 2.8144444116e+00 -4.8747607160e+00 2.8144444116e+00 4.8747607160e+00 
99100 5.5227037219e+00 -1.0606487083e-03 2.8144633468e+00 -4.8747935126e+00 2.8144633468e+00 4.8747935126e+00 
99200 5.5227036948e+00 -1.0554865397e-03 2.8144821896e+00 -4.8748261494e+00 2.8144821896e+00 4.8748261494e+00 
99300 5.5227036678e+00 -1.0503500317e-03 2.8145009406e+00 -4.8748586271e+00 2.8145009406e+00 4.8748586271e+00 
99400 5.5227036411e+00 -1.0452390523e-03 2.8145196003e+00 -4.8748909465e+00 2.8145196003e+00 4.8748909465e+00 
99500 5.5227036147e+00 -1.0401534705e-03 2.8145381690e+00 -4.8749231085e+00 2.8145381690e+00 4.8749231085e+00 
99600 5.5227035885e+00 -1.0350931556e-03 2.8145566472e+00 -4.8749551138e+00 2.8145566472e+00 4.8749551138e+00 
99700 5.5227035626e+00 -1.0300579780e-03 2.8145750354e+00 -4.8749869631e+00 2.8145750354e+00 4.8749869631e+00 
99800 5.5227035369e+00 -1.0250478087e-03 2.8145933341e+00 -4.8750186573e+00 2.8145933341e+00 4.8750186573e+00 
99900 5.5227035115e+00 -1.0200625191e-03 2.8146115436e+00 -4.8750501972e+00 2.8146115436e+00 4.8750501972e+00 
100000 5.5227034863e+00 -1.0151019817e-03 2.8146296645e+00 -4.8750815834e+00 2.8146296645e+00 4.8750815834e+00 
100100 5.5227034613e+00 -1.0101660694e-03 2.8146476971e+00 -4.8751128168e+00 2.8146476971e+00 4.8751128168e+00 
100200 5.5227034366e+00 -1.0052546560e-03 2.8146656420e+00 -4.8751438982e+00 2.8146656420e+00 4.8751438982e+00 
100300 5.5227034121e+00 -1.0003676158e-03 2.8146834994e+00 -4.8751748282e+00 2.8146834994e+00 4.8751748282e+00 
100400 5.5227033878e+00 -9.9550482391e-04 2.8147012700e+00 -4.8752056077e+00 2.8147012700e+00 4.8752056077e+00 
100500 5.5227033637e+00 -9.9066615597e-04 2.8147189540e+00 -4.8752362373e+00 2.8147189540e+00 4.8752362373e+00 
100600 5.5227033399e+00 -9.8585148840e-04 2.8147365520e+00 -4.8752667179e+00 2.8147365520e+00 4.8752667179e+00 
100700 5.5227033163e+00 -9.8106069826e-04 2.8147540643e+00 -4.8752970502e+00 2.8147540643e+00 4.8752970502e+00 
100800 5.5227032930e+00 -9.7629366325e-04 2.8147714914e+00 -4.8753272349e+00 2.8147714914e+00 4.8753272349e+00 
100900 5.5227032698e+00 -9.7155026175e-04 2.8147888338e+00 -4.8753572727e+00 2.8147888338e+00 4.8753572727e+00 
101000 5.5227032469e+00 -9.6683037278e-04 2.8148060918e+00 -4.8753871644e+00 2.8148060918e+00 4.8753871644e+00 
101100 5.5227032242e+00 -9.6213387601e-04 2.8148232658e+00 -4.8754169107e+00 2.8148232658e+00 4.8754169107e+00 
101200 5.5227032017e+00 -9.5746065176e-04 2.8148403563e+00 -4.8754465123e+00 2.8148403563e+00 4.8754465123e+00 
101300 5.5227031794e+00 -9.5281058098e-04 2.8148573637e+00 -4.8754759700e+00 2.8148573637e+00 4.8754759700e+00 
101400 5.5227031573e+00 -9.4818354528e-04 2.8148742884e+00 -4.8755052844e+00 2.8148742884e+00 4.8755052844e+00 
101500 5.5227031355e+00 -9.4357942688e-04 2.8148911308e+00 -4.8755344563e+00 2.8148911308e+00 4.8755344563e+00 
101600 5.5227031138e+00 -9.3899810865e-04 2.8149078913e+00 -4.8755634863e+00 2.8149078913e+00 4.8755634863e+00 
101700 5.5227030924e+00 -9.3443947407e-04 2.8149245703e+00 -4.8755923753e+00 2.8149245703e+00 4.8755923753e+00 
101800 5.5227030711e+00 -9.2990340727e-04 2.8149411683e+00 -4.8756211238e+00 2.8149411683e+00 4.8756211238e+00 
101900 5.5227030500e+00 -9.2538979296e-04 2.8149576856e+00 -4.8756497326e+00 2.8149576856e+00 4.8756497326e+00 
102000 5.5227030292e+00 -9.2089851652e-04 2.8149741226e+00 -4.8756782023e+00 2.8149741226e+00 4.8756782023e+00 
102100 5.5227030085e+00 -9.1642946388e-04 2.8149904798e+00 -4.8757065338e+00 2.8149904798e+00 4.8757065338e+00 
102200 5.5227029881e+00 -9.1198252164e-04 2.8150067574e+00 -4.8757347275e+00 2.8150067574e+00 4.8757347275e+00 
102300 5.5227029678e+00 -9.0755757697e-04 2.8150229560e+00 -4.8757627843e+00 2.8150229560e+00 4.8757627843e+00 
102400 5.5227029477e+00 -9.0315451765e-04 2.8150390759e+00 -4.8757907048e+00 2.8150390759e+00 4.8757907048e+00 
102500 5.5227029278e+00 -8.9877323206e-04 2.8150551176e+00 -4.8758184897e+00 2.8150551176e+00 4.8758184897e+00 
102600 5.5227029081e+00 -8.9441360918e-04 2.8150710813e+00 -4.8758461397e+00 2.8150710813e+00 4.8758461397e+00 
102700 5.5227028886e+00 -8.9007553858e-04 2.8150869674e+00 -4.8758736553e+00 2.8150869674e+00 4.8758736553e+00 
102800 5.5227028693e+00 -8.8575891042e-04 2.8151027765e+00 -4.8759010374e+00 2.8151027765e+00 4.8759010374e+00 
102900 5.5227028501e+00 -8.8146361544e-04 2.8151185088e+00 -4.8759282865e+00 2.8151185088e+00 4.8759282865e+00 
103000 5.5227028311e+00 -8.7718954497e-04 2.8151341647e+00 -4.8759554033e+00 2.8151341647e+00 4.8759554033e+00 
103100 5.5227028124e+00 -8.7293659092e-04 2.8151497446e+00 -4.8759823885e+00 2.8151497446e+00 4.8759823885e+00 
103200 5.5227027937e+00 -8.6870464578e-04 2.8151652488e+00 -4.8760092427e+00 2.8151652488e+00 4.8760092427e+00 
103300 5.5227027753e+00 -8.6449360258e-04 2.8151806779e+00 -4.8760359666e+00 2.8151806779e+00 4.8760359666e+00 
103400 5.5227027570e+00 -8.6030335497e-04 2.8151960320e+00 -4.8760625607e+00 2.8151960320e+00 4.8760625607e+00 
103500 5.5227027389e+00 -8.5613379712e-04 2.8152113117e+00 -4.8760890259e+00 2.8152113117e+00 4.8760890259e+00 
103600 5.5227027210e+00 -8.5198482380e-04 2.8152265172e+00 -4.8761153626e+00 2.8152265172e+00 4.8761153626e+00 
103700 5.5227027033e+00 -8.4785633033e-04 2.8152416489e+00 -4.8761415715e+00 2.8152416489e+00 4.8761415715e+00 
103800 5.5227026857e+00 -8.4374821255e-04 2.8152567073e+00 -4.8761676533e+00 2.8152567073e+00 4.8761676533e+00 
103900 5.5227026683e+00 -8.3966036692e-04 2.8152716926e+00 -4.8761936086e+00 2.8152716926e+00 4.8761936086e+00 
104000 5.5227026510e+00 -8.3559269039e-04 2.8152866052e+00 -4.8762194380e+00 2.8152866052e+00 4.8762194380e+00 
104100 5.5227026339e+00 -8.3154508048e-04 2.8153014455e+00 -4.8762451422e+00 2.8153014455e+00 4.8762451422e+00 
104200 5.5227026170e+00 -8.2751743528e-04 2.8153162138e+00 -4.8762707217e+00 2.8153162138e+00 4.8762707217e+00 
104300 5.5227026002e+00 -8.2350965338e-04 2.8153309105e+00 -4.8762961771e+00 2.8153309105e+00 4.8762961771e+00 
104400 5.5227025836e+00 -8.1952163392e-04 2.8153455360e+00 -4.8763215092e+00 2.8153455360e+00 4.8763215092e+00 
104500 5.5227025671e+00 -8.1555327659e-04 2.8153600905e+00 -4.8763467184e+00 2.8153600905e+00 4.8763467184e+00 
104600 5.5227025508e+00 -8.1160448160e-04 2.8153745745e+00 -4.8763718054e+00 2.8153745745e+00 4.8763718054e+00 
104700 5.5227025347e+00 -8.0767514969e-04 2.8153889883e+00 -4.8763967709e+00 2.8153889883e+00 4.8763967709e+00 
104800 5.5227025187e+00 -8.0376518213e-04 2.8154033323e+00 -4.8764216153e+00 2.8154033323e+00 4.8764216153e+00 
104900 5.5227025028e+00 -7.9987448071e-04 2.8154176067e+00 -4.8764463394e+00 2.8154176067e+00 4.8764463394e+00 
105000 5.5227024871e+00 -7.9600294775e-04 2.8154318120e+00 -4.8764709436e+00 2.8154318120e+00 4.8764709436e+00 
105100 5.5227024716e+00 -7.9215048605e-04 2.8154459484e+00 -4.8764954287e+00 2.8154459484e+00 4.8764954287e+00 
105200 5.5227024562e+00 -7.8831699898e-04 2.8154600164e+00 -4.8765197951e+00 2.8154600164e+00 4.8765197951e+00 
105300 5.5227024409e+00 -7.8450239039e-04 2.8154740162e+00 -4.8765440434e+00 2.8154740162e+00 4.8765440434e+00 
105400 5.5227024258e+00 -7.8070656463e-04 2.8154879482e+00 -4.8765681743e+00 2.8154879482e+00 4.8765681743e+00 
105500 5.5227024108e+00 -7.7692942658e-04 2.8155018127e+00 -4.8765921884e+00 2.8155018127e+00 4.8765921884e+00 
105600 5.5227023960e+00 -7.7317088160e-04 2.8155156101e+00 -4.8766160861e+00 2.8155156101e+00 4.8766160861e+00 
105700 5.5227023813e+00 -7.6943083557e-04 2.8155293406e+00 -4.8766398681e+00 2.8155293406e+00 4.8766398681e+00 
105800 5.5227023668e+00 -7.6570919485e-04 2.8155430047e+00 -4.8766635350e+00 2.8155430047e+00 4.8766635350e+00 
105900 5.5227023524e+00 -7.6200586632e-04 2.8155566026e+00 -4.8766870872e+00 2.8155566026e+00 4.8766870872e+00 
106000 5.5227023381e+00 -7.5832075732e-04 2.8155701346e+00 -4.8767105255e+00 2.8155701346e+00 4.8767105255e+00 
106100 5.5227023239e+00 -7.5465377569e-04 2.8155836012e+00 -4.8767338503e+00 2.8155836012e+00 4.8767338503e+00 
106200 5.5227023099e+00 -7.5100482978e-04 2.8155970026e+00 -4.8767570621e+00 2.8155970026e+00 4.8767570621e+00 
106300 5.5227022960e+00 -7.4737382838e-04 2.8156103391e+00 -4.8767801617e+00 2.8156103391e+00 4.8767801617e+00 
106400 5.5227022823e+00 -7.4376068080e-04 2.8156236111e+00 -4.8768031494e+00 2.8156236111e+00 4.8768031494e+00 
106500 5.5227022687e+00 -7.4016529680e-04 2.8156368189e+00 -4.8768260259e+00 2.8156368189e+00 4.8768260259e+00 
106600 5.5227022552e+00 -7.3658758665e-04 2.8156499627e+00 -4.8768487917e+00 2.8156499627e+00 4.8768487917e+00 
106700 5.5227022418e+00 -7.3302746104e-04 2.8156630430e+00 -4.8768714474e+00 2.8156630430e+00 4.8768714474e+00 
106800 5.5227022286e+00 -7.2948483119e-04 2.8156760599e+00 -4.8768939934e+00 2.8156760599e+00 4.8768939934e+00 
106900 5.5227022155e+00 -7.2595960874e-04 2.8156890139e+00 -4.8769164304e+00 2.8156890139e+00 4.8769164304e+00 
107000 5.5227022025e+00 -7.2245170582e-04 2.8157019053e+00 -4.8769387589e+00 2.8157019053e+00 4.8769387589e+00 
107100 5.5227021896e+00 -7.1896103501e-04 2.8157147343e+00 -4.8769609793e+00 2.8157147343e+00 4.8769609793e+00 
107200 5.5227021769e+00 -7.1548750936e-04 2.8157275012e+00 -4.8769830923e+00 2.8157275012e+00 4.8769830923e+00 
107300 5.5227021643e+00 -7.1203104238e-04 2.8157402064e+00 -4.8770050984e+00 2.8157402064e+00 4.8770050984e+00 
107400 5.5227021518e+00 -7.0859154801e-04 2.8157528502e+00 -4.8770269981e+00 2.8157528502e+00 4.8770269981e+00 
107500 5.5227021394e+00 -7.0516894067e-04 2.8157654328e+00 -4.8770487918e+00 2.8157654328e+00 4.8770487918e+00 
107600 5.5227021271e+00 -7.0176313523e-04 2.8157779546e+00 -4.8770704802e+00 2.8157779546e+00 4.8770704802e+00 
107700 5.5227021149e+00 -6.9837404698e-04 2.8157904159e+00 -4.8770920638e+00 2.8157904159e+00 4.8770920638e+00 
107800 5.5227021029e+00 -6.9500159167e-04 2.8158028169e+00 -4.8771135430e+00 2.8158028169e+00 4.8771135430e+00 
107900 5.5227020910e+00 -6.9164568550e-04 2.8158151580e+00 -4.8771349185e+00 2.8158151580e+00 4.8771349185e+00 
108000 5.5227020792e+00 -6.8830624510e-04 2.8158274395e+00 -4.8771561906e+00 2.8158274395e+00 4.8771561906e+00 
108100 5.5227020675e+00 -6.8498318754e-04 2.8158396616e+00 -4.8771773599e+00 2.8158396616e+00 4.8771773599e+00 
108200 5.5227020559e+00 -6.8167643033e-04 2.8158518246e+00 -4.8771984269e+00 2.8158518246e+00 4.8771984269e+00 
108300 5.5227020444e+00 -6.7838589141e-04 2.8158639289e+00 -4.8772193921e+00 2.8158639289e+00 4.8772193921e+00 
108400 5.5227020330e+00 -6.7511148913e-04 2.8158759747e+00 -4.8772402560e+00 2.8158759747e+00 4.8772402560e+00 
108500 5.5227020217e+00 -6.7185314230e-04 2.8158879623e+00 -4.8772610192e+00 2.8158879623e+00 4.8772610192e+00 
108600 5.5227020106e+00 -6.6861077013e-04 2.8158998920e+00 -4.8772816820e+00 2.8158998920e+00 4.8772816820e+00 
108700 5.5227019995e+00 -6.6538429227e-04 2.8159117641e+00 -4.8773022450e+00 2.8159117641e+00 4.8773022450e+00 
108800 5.5227019886e+00 -6.6217362879e-04 2.8159235788e+00 -4.8773227087e+00 2.8159235788e+00 4.8773227087e+00 
108900 5.5227019777e+00 -6.5897870016e-04 2.8159353365e+00 -4.8773430736e+00 2.8159353365e+00 4.8773430736e+00 
109000 5.5227019670e+00 -6.5579942728e-04 2.8159470374e+00 -4.8773633402e+00 2.8159470374e+00 4.8773633402e+00 
109100 5.5227019563e+00 -6.5263573146e-04 2.8159586818e+00 -4.8773835088e+00 2.8159586818e+00 4.8773835088e+00 
109200 5.5227019458e+00 -6.4948753443e-04 2.8159702699e+00 -4.8774035801e+00 2.8159702699e+00 4.8774035801e+00 
109300 5.5227019353e+00 -6.4635475832e-04 2.8159818022e+00 -4.8774235545e+00 2.8159818022e+00 4.8774235545e+00 
109400 5.5227019250e+00 -6.4323732567e-04 2.8159932787e+00 -4.8774434325e+00 2.8159932787e+00 4.8774434325e+00 
109500 5.5227019147e+00 -6.4013515941e-04 2.8160046999e+00 -4.8774632145e+00 2.8160046999e+00 4.8774632145e+00 
109600 5.5227019046e+00 -6.3704818291e-04 2.8160160659e+00 -4.8774829011e+00 2.8160160659e+00 4.8774829011e+00 
109700 5.5227018945e+00 -6.3397631989e-04 2.8160273771e+00 -4.8775024926e+00 2.8160273771e+00 4.8775024926e+00 
109800 5.5227018846e+00 -6.3091949451e-04 2.8160386336e+00 -4.8775219895e+00 2.8160386336e+00 4.8775219895e+00 
109900 5.5227018747e+00 -6.2787763130e-04 2.8160498359e+00 -4.8775413924e+00 2.8160498359e+00 4.8775413924e+00 
110000 5.5227018649e+00 -6.2485065520e-04 2.8160609841e+00 -4.8775607017e+00 2.8160609841e+00 4.8775607017e+00 
110100 5.5227018552e+00 -6.2183849154e-04 2.8160720785e+00 -4.8775799178e+00 2.8160720785e+00 4.8775799178e+00 
110200 5.5227018456e+00 -6.1884106601e-04 2.8160831194e+00 -4.8775990412e+00 2.8160831194e+00 4.8775990412e+00 
110300 5.5227018361e+00 -6.1585830474e-04 2.8160941070e+00 -4.8776180723e+00 2.8160941070e+00 4.8776180723e+00 
110400 5.5227018267e+00 -6.1289013419e-04 2.8161050417e+00 -4.8776370116e+00 2.8161050417e+00 4.8776370116e+00 
110500 5.5227018174e+00 -6.0993648125e-04 2.8161159235e+00 -4.8776558596e+00 2.8161159235e+00 4.8776558596e+00 
110600 5.5227018082e+00 -6.0699727315e-04 2.8161267529e+00 -4.8776746167e+00 2.8161267529e+00 4.8776746167e+00 
110700 5.5227017990e+00 -6.0407243753e-04 2.8161375301e+00 -4.8776932833e+00 2.8161375301e+00 4.8776932833e+00 
110800 5.5227017899e+00 -6.0116190239e-04 2.8161482553e+00 -4.8777118599e+00 2.8161482553e+00 4.8777118599e+00 
110900 5.5227017810e+00 -5.9826559611e-04 2.8161589288e+00 -4.8777303469e+00 2.8161589288e+00 4.8777303469e+00 
111000 5.5227017721e+00 -5.9538344744e-04 2.8161695508e+00 -4.8777487448e+00 2.8161695508e+00 4.8777487448e+00 
111100 5.5227017633e+00 -5.9251538550e-04 2.8161801216e+00 -4.8777670539e+00 2.8161801216e+00 4.8777670539e+00 
111200 5.5227017545e+00 -5.8966133978e-04 2.8161906415e+00 -4.8777852749e+00 2.8161906415e+00 4.8777852749e+00 
111300 5.5227017459e+00 -5.8682124014e-04 2.8162011106e+00 -4.8778034079e+00 2.8162011106e+00 4.8778034079e+00 
111400 5.5227017373e+00 -5.8399501680e-04 2.8162115293e+00 -4.8778214536e+00 2.8162115293e+00 4.8778214536e+00 
111500 5.5227017288e+00 -5.8118260034e-04 2.8162218978e+00 -4.8778394123e+00 2.8162218978e+00 4.8778394123e+00 
111600 5.5227017204e+00 -5.7838392170e-04 2.8162322162e+00 -4.8778572844e+00 2.8162322162e+00 4.8778572844e+00 
111700 5.5227017121e+00 -5.7559891219e-04 2.8162424850e+00 -4.8778750705e+00 2.8162424850e+00 4.8778750705e+00 
111800 5.5227017039e+00 -5.7282750346e-04 2.8162527043e+00 -4.8778927708e+00 2.8162527043e+00 4.8778927708e+00 
111900 5.5227016957e+00 -5.7006962753e-04 2.8162628743e+00 -4.8779103858e+00 2.8162628743e+00 4.8779103858e+00 
112000 5.5227016876e+00 -5.6732521675e-04 2.8162729953e+00 -4.8779279159e+00 2.8162729953e+00 4.8779279159e+00 
112100 5.5227016796e+00 -5.6459420386e-04 2.8162830676e+00 -4.8779453616e+00 2.8162830676e+00 4.8779453616e+00 
112200 5.5227016717e+00 -5.6187652190e-04 2.8162930914e+00 -4.8779627233e+00 2.8162930914e+00 4.8779627233e+00 
112300 5.5227016638e+00 -5.5917210429e-04 2.8163030668e+00 -4.8779800013e+00 2.8163030668e+00 4.8779800013e+00 
112400 5.5227016560e+00 -5.5648088479e-04 2.8163129943e+00 -4.8779971961e+00 2.8163129943e+00 4.8779971961e+00 
112500 5.5227016483e+00 -5.5380279750e-04 2.8163228739e+00 -4.8780143081e+00 2.8163228739e+00 4.8780143081e+00 
112600 5.5227016407e+00 -5.5113777685e-04 2.8163327059e+00 -4.8780313376e+00 2.8163327059e+00 4.8780313376e+00 
112700 5.5227016331e+00 -5.4848575763e-04 2.8163424906e+00 -4.8780482852e+00 2.8163424906e+00 4.8780482852e+00 
112800 5.5227016256e+00 -5.4584667494e-04 2.8163522281e+00 -4.8780651511e+00 2.8163522281e+00 4.8780651511e+00 
112900 5.5227016182e+00 -5.4322046425e-04 2.8163619188e+00 -4.8780819359e+00 2.8163619188e+00 4.8780819359e+00 
113000 5.5227016108e+00 -5.4060706134e-04 2.8163715628e+00 -4.8780986398e+00 2.8163715628e+00 4.8780986398e+00 
113100 5.5227016035e+00 -5.3800640233e-04 2.8163811604e+00 -4.8781152633e+00 2.8163811604e+00 4.8781152633e+00 
113200 5.5227015963e+00 -5.3541842366e-04 2.8163907118e+00 -4.8781318068e+00 2.8163907118e+00 4.8781318068e+00 
113300 5.5227015891e+00 -5.3284306211e-04 2.8164002172e+00 -4.8781482706e+00 2.8164002172e+00 4.8781482706e+00 
113400 5.5227015820e+00 -5.3028025478e-04 2.8164096768e+00 -4.8781646552e+00 2.8164096768e+00 4.8781646552e+00 
113500 5.5227015750e+00 -5.2772993911e-04 2.8164190910e+00 -4.8781809610e+00 2.8164190910e+00 4.8781809610e+00 
113600 5.5227015681e+00 -5.2519205284e-04 2.8164284598e+00 -4.8781971882e+00 2.8164284598e+00 4.8781971882e+00 
113700 5.5227015612e+00 -5.2266653404e-04 2.8164377835e+00 -4.8782133374e+00 2.8164377835e+00 4.8782133374e+00 
113800 5.5227015544e+00 -5.2015332110e-04 2.8164470624e+00 -4.8782294089e+00 2.8164470624e+00 4.8782294089e+00 
113900 5.5227015476e+00 -5.1765235275e-04 2.8164562966e+00 -4.8782454030e+00 2.8164562966e+00 4.8782454030e+00 
114000 5.5227015409e+00 -5.1516356798e-04 2.8164654864e+00 -4.8782613202e+00 2.8164654864e+00 4.8782613202e+00 
114100 5.5227015343e+00 -5.1268690616e-04 2.8164746320e+00 -4.8782771608e+00 2.8164746320e+00 4.8782771608e+00 
114200 5.5227015277e+00 -5.1022230693e-04 2.8164837335e+00 -4.8782929252e+00 2.8164837335e+00 4.8782929252e+00 
114300 5.5227015212e+00 -5.0776971025e-04 2.8164927913e+00 -4.8783086137e+00 2.8164927913e+00 4.8783086137e+00 
114400 5.5227015148e+00 -5.0532905640e-04 2.8165018056e+00 -4.8783242268e+00 2.8165018056e+00 4.8783242268e+00 
114500 5.5227015084e+00 -5.0290028595e-04 2.8165107764e+00 -4.8783397648e+00 2.8165107764e+00 4.8783397648e+00 
114600 5.5227015021e+00 -5.0048333980e-04 2.8165197041e+00 -4.8783552281e+00 2.8165197041e+00 4.8783552281e+00 
114700 5.5227014958e+00 -4.9807815912e-04 2.8165285889e+00 -4.8783706170e+00 2.8165285889e+00 4.8783706170e+00 
114800 5.5227014896e+00 -4.9568468542e-04 2.8165374310e+00 -4.8783859319e+00 2.8165374310e+00 4.8783859319e+00 
114900 5.5227014834e+00 -4.9330286049e-04 2.8165462305e+00 -4.8784011732e+00 2.8165462305e+00 4.8784011732e+00 
115000 5.5227014774e+00 -4.9093262642e-04 2.8165549878e+00 -4.8784163411e+00 2.8165549878e+00 4.8784163411e+00 
115100 5.5227014713e+00 -4.8857392559e-04 2.8165637029e+00 -4.8784314362e+00 2.8165637029e+00 4.8784314362e+00 
115200 5.5227014653e+00 -4.8622670071e-04 2.8165723761e+00 -4.8784464587e+00 2.8165723761e+00 4.8784464587e+00 
115300 5.5227014594e+00 -4.8389089474e-04 2.8165810077e+00 -4.8784614089e+00 2.8165810077e+00 4.8784614089e+00 
115400 5.5227014536e+00 -4.8156645097e-04 2.8165895977e+00 -4.8784762873e+00 2.8165895977e+00 4.8784762873e+00 
115500 5.5227014478e+00 -4.7925331295e-04 2.8165981465e+00 -4.8784910942e+00 2.8165981465e+00 4.8784910942e+00 
115600 5.5227014420e+00 -4.7695142455e-04 2.8166066541e+00 -4.8785058299e+00 2.8166066541e+00 4.8785058299e+00 
115700 5.5227014363e+00 -4.7466072990e-04 2.8166151209e+00 -4.8785204948e+00 2.8166151209e+00 4.8785204948e+00 
115800 5.5227014307e+00 -4.7238117344e-04 2.8166235470e+00 -4.8785350892e+00 2.8166235470e+00 4.8785350892e+00 
115900 5.5227014251e+00 -4.7011269988e-04 2.8166319326e+00 -4.8785496135e+00 2.8166319326e+00 4.8785496135e+00 
116000 5.5227014195e+00 -4.6785525422e-04 2.8166402779e+00 -4.8785640680e+00 2.8166402779e+00 4.8785640680e+00 
116100 5.5227014140e+00 -4.6560878174e-04 2.8166485831e+00 -4.8785784530e+00 2.8166485831e+00 4.8785784530e+00 
116200 5.5227014086e+00 -4.6337322801e-04 2.8166568484e+00 -4.8785927689e+00 2.8166568484e+00 4.8785927689e+00 
116300 5.5227014032e+00 -4.6114853886e-04 2.8166650740e+00 -4.8786070161e+00 2.8166650740e+00 4.8786070161e+00 
116400 5.5227013979e+00 -4.5893466040e-04 2.8166732601e+00 -4.8786211948e+00 2.8166732601e+00 4.8786211948e+00 
116500 5.5227013926e+00 -4.5673153905e-04 2.8166814068e+00 -4.8786353054e+00 2.8166814068e+00 4.8786353054e+00 
116600 5.5227013874e+00 -4.5453912145e-04 2.8166895145e+00 -4.8786493482e+00 2.8166895145e+00 4.8786493482e+00 
116700 5.5227013822e+00 -4.5235735456e-04 2.8166975831e+00 -4.8786633235e+00 2.8166975831e+00 4.8786633235e+00 
116800 5.5227013771e+00 -4.5018618559e-04 2.8167056131e+00 -4.8786772318e+00 2.8167056131e+00 4.8786772318e+00 
116900 5.5227013720e+00 -4.4802556202e-04 2.8167136044e+00 -4.8786910732e+00 2.8167136044e+00 4.8786910732e+00 
117000 5.5227013669e+00 -4.4587543160e-04 2.8167215574e+00 -4.8787048482e+00 2.8167215574e+00 4.8787048482e+00 
117100 5.5227013619e+00 -4.4373574235e-04 2.8167294722e+00 -4.8787185571e+00 2.8167294722e+00 4.8787185571e+00 
117200 5.5227013570e+00 -4.4160644256e-04 2.8167373490e+00 -4.8787322001e+00 2.8167373490e+00 4.8787322001e+00 
117300 5.5227013521e+00 -4.3948748077e-04 2.8167451880e+00 -4.8787457776e+00 2.8167451880e+00 4.8787457776e+00 
117400 5.5227013472e+00 -4.3737880580e-04 2.8167529893e+00 -4.8787592899e+00 2.8167529893e+00 4.8787592899e+00 
117500 5.5227013424e+00 -4.3528036672e-04 2.8167607532e+00 -4.8787727373e+00 2.8167607532e+00 4.8787727373e+00 
117600 5.5227013377e+00 -4.3319211287e-04 2.8167684798e+00 -4.8787861202e+00 2.8167684798e+00 4.8787861202e+00 
117700 5.5227013330e+00 -4.3111399384e-04 2.8167761693e+00 -4.8787994389e+00 2.8167761693e+00 4.8787994389e+00 
117800 5.5227013283e+00 -4.2904595948e-04 2.8167838220e+00 -4.8788126936e+00 2.8167838220e+00 4.8788126936e+00 
117900 5.5227013237e+00 -4.2698795989e-04 2.8167914379e+00 -4.8788258847e+00 2.8167914379e+00 4.8788258847e+00 
118000 5.5227013191e+00 -4.2493994543e-04 2.8167990172e+00 -4.8788390125e+00 2.8167990172e+00 4.8788390125e+00 
118100 5.5227013145e+00 -4.2290186673e-04 2.8168065602e+00 -4.8788520773e+00 2.8168065602e+00 4.8788520773e+00 
118200 5.5227013100e+00 -4.2087367464e-04 2.8168140669e+00 -4.8788650794e+00 2.8168140669e+00 4.8788650794e+00 
118300 5.5227013056e+00 -4.1885532029e-04 2.8168215377e+00 -4.8788780191e+00 2.8168215377e+00 4.8788780191e+00 
118400 5.5227013012e+00 -4.1684675503e-04 2.8168289726e+00 -4.8788908967e+00 2.8168289726e+00 4.8788908967e+00 
118500 5.5227012968e+00 -4.1484793048e-04 2.8168363718e+00 -4.8789037125e+00 2.8168363718e+00 4.8789037125e+00 
118600 5.5227012925e+00 -4.1285879851e-04 2.8168437355e+00 -4.8789164669e+00 2.8168437355e+00 4.8789164669e+00 
118700 5.5227012882e+00 -4.1087931121e-04 2.8168510639e+00 -4.8789291600e+00 2.8168510639e+00 4.8789291600e+00 
118800 5.5227012839e+00 -4.0890942094e-04 2.8168583571e+00 -4.8789417923e+00 2.8168583571e+00 4.8789417923e+00 
118900 5.5227012797e+00 -4.0694908029e-04 2.8168656154e+00 -4.8789543640e+00 2.8168656154e+00 4.8789543640e+00 
119000 5.5227012756e+00 -4.0499824209e-04 2.8168728388e+00 -4.8789668753e+00 2.8168728388e+00 4.8789668753e+00 
119100 5.5227012714e+00 -4.0305685942e-04 2.8168800276e+00 -4.8789793267e+00 2.8168800276e+00 4.8789793267e+00 
119200 5.5227012673e+00 -4.0112488558e-04 2.8168871819e+00 -4.8789917183e+00 2.8168871819e+00 4.8789917183e+00 
119300 5.5227012633e+00 -3.9920227414e-04 2.8168943020e+00 -4.8790040505e+00 2.8168943020e+00 4.8790040505e+00 
119400 5.5227012593e+00 -3.9728897887e-04 2.8169013878e+00 -4.8790163236e+00 2.8169013878e+00 4.8790163236e+00 
119500 5.5227012553e+00 -3.9538495380e-04 2.8169084397e+00 -4.8790285378e+00 2.8169084397e+00 4.8790285378e+00 
119600 5.5227012513e+00 -3.9349015317e-04 2.8169154578e+00 -4.8790406935e+00 2.8169154578e+00 4.8790406935e+00 
119700 5.5227012474e+00 -3.9160453149e-04 2.8169224422e+00 -4.8790527908e+00 2.8169224422e+00 4.8790527908e+00 
119800 5.5227012436e+00 -3.8972804346e-04 2.8169293931e+00 -4.8790648302e+00 2.8169293931e+00 4.8790648302e+00 
119900 5.5227012398e+00 -3.8786064404e-04 2.8169363107e+00 -4.8790768119e+00 2.8169363107e+00 4.8790768119e+00 
120000 5.5227012360e+00 -3.8600228840e-04 2.8169431952e+00 -4.8790887361e+00 2.8169431952e+00 4.8790887361e+00 
120100 5.5227012322e+00 -3.8415293195e-04 2.8169500466e+00 -4.8791006031e+00 2.8169500466e+00 4.8791006031e+00 
120200 5.5227012285e+00 -3.8231253032e-04 2.8169568652e+00 -4.8791124133e+00 2.8169568652e+00 4.8791124133e+00 
120300 5.5227012248e+00 -3.8048103937e-04 2.8169636511e+00 -4.8791241668e+00 2.8169636511e+00 4.8791241668e+00 
120400 5.5227012211e+00 -3.7865841518e-04 2.8169704045e+00 -4.8791358640e+00 2.8169704045e+00 4.8791358640e+00 
120500 5.5227012175e+00 -3.7684461405e-04 2.8169771255e+00 -4.8791475052e+00 2.8169771255e+00 4.8791475052e+00 
120600 5.5227012139e+00 -3.7503959250e-04 2.8169838144e+00 -4.8791590906e+00 2.8169838144e+00 4.8791590906e+00 
120700 5.5227012104e+00 -3.7324330729e-04 2.8169904711e+00 -4.8791706204e+00 2.8169904711e+00 4.8791706204e+00 
120800 5.5227012069e+00 -3.7145571537e-04 2.8169970960e+00 -4.8791820950e+00 2.8169970960e+00 4.8791820950e+00 
120900 5.5227012034e+00 -3.6967677394e-04 2.8170036891e+00 -4.8791935146e+00 2.8170036891e+00 4.8791935146e+00 
121000 5.5227011999e+00 -3.6790644038e-04 2.8170102506e+00 -4.8792048795e+00 2.8170102506e+00 4.8792048795e+00 
121100 5.5227011965e+00 -3.6614467233e-04 2.8170167807e+00 -4.8792161900e+00 2.8170167807e+00 4.8792161900e+00 
121200 5.5227011931e+00 -3.6439142760e-04 2.8170232795e+00 -4.8792274462e+00 2.8170232795e+00 4.8792274462e+00 
121300 5.5227011898e+00 -3.6264666424e-04 2.8170297472e+00 -4.8792386486e+00 2.8170297472e+00 4.8792386486e+00 
121400 5.5227011865e+00 -3.6091034051e-04 2.8170361839e+00 -4.8792497972e+00 2.8170361839e+00 4.8792497972e+00 
121500 5.5227011832e+00 -3.5918241488e-04 2.8170425897e+00 -4.8792608925e+00 2.8170425897e+00 4.8792608925e+00 
121600 5.5227011799e+00 -3.5746284602e-04 2.8170489649e+00 -4.8792719346e+00 2.8170489649e+00 4.8792719346e+00 
121700 5.5227011767e+00 -3.5575159283e-04 2.8170553095e+00 -4.8792829238e+00 2.8170553095e+00 4.8792829238e+00 
121800 5.5227011735e+00 -3.5404861439e-04 2.8170616238e+00 -4.8792938604e+00 2.8170616238e+00 4.8792938604e+00 
121900 5.5227011703e+00 -3.5235387001e-04 2.8170679078e+00 -4.8793047447e+00 2.8170679078e+00 4.8793047447e+00 
122000 5.5227011672e+00 -3.5066731919e-04 2.8170741617e+00 -4.8793155768e+00 2.8170741617e+00 4.8793155768e+00 
122100 5.5227011641e+00 -3.4898892166e-04 2.8170803857e+00 -4.8793263570e+00 2.8170803857e+00 4.8793263570e+00 
122200 5.5227011610e+00 -3.4731863732e-04 2.8170865798e+00 -4.8793370856e+00 2.8170865798e+00 4.8793370856e+00 
122300 5.5227011579e+00 -3.4565642630e-04 2.8170927443e+00 -4.8793477628e+00 2.8170927443e+00 4.8793477628e+00 
122400 5.5227011549e+00 -3.4400224891e-04 2.8170988793e+00 -4.8793583889e+00 2.8170988793e+00 4.8793583889e+00 
122500 5.5227011519e+00 -3.4235606567e-04 2.8171049849e+00 -4.8793689642e+00 2.8171049849e+00 4.8793689642e+00 
122600 5.5227011490e+00 -3.4071783731e-04 2.8171110613e+00 -4.8793794888e+00 2.8171110613e+00 4.8793794888e+00 
122700 5.5227011460e+00 -3.3908752474e-04 2.8171171086e+00 -4.8793899630e+00 2.8171171086e+00 4.8793899630e+00 
122800 5.5227011431e+00 -3.3746508908e-04 2.8171231270e+00 -4.8794003871e+00 2.8171231270e+00 4.8794003871e+00 
122900 5.5227011402e+00 -3.3585049164e-04 2.8171291165e+00 -4.8794107613e+00 2.8171291165e+00 4.8794107613e+00 
123000 5.5227011374e+00 -3.3424369393e-04 2.8171350774e+00 -4.8794210858e+00 2.8171350774e+00 4.8794210858e+00 
123100 5.5227011345e+00 -3.3264465764e-04 2.8171410097e+00 -4.8794313609e+00 2.8171410097e+00 4.8794313609e+00 
123200 5.5227011317e+00 -3.3105334468e-04 2.8171469136e+00 -4.8794415868e+00 2.8171469136e+00 4.8794415868e+00 
123300 5.5227011290e+00 -3.2946971713e-04 2.8171527893e+00 -4.8794517638e+00 2.8171527893e+00 4.8794517638e+00 
123400 5.5227011262e+00 -3.2789373726e-04 2.8171586369e+00 -4.8794618921e+00 2.8171586369e+00 4.8794618921e+00 
123500 5.5227011235e+00 -3.2632536754e-04 2.8171644565e+00 -4.8794719719e+00 2.8171644565e+00 4.8794719719e+00 
123600 5.5227011208e+00 -3.2476457064e-04 2.8171702482e+00 -4.8794820035e+00 2.8171702482e+00 4.8794820035e+00 
123700 5.5227011181e+00 -3.2321130939e-04 2.8171760122e+00 -4.8794919871e+00 2.8171760122e+00 4.8794919871e+00 
123800 5.5227011155e+00 -3.2166554682e-04 2.8171817487e+00 -4.8795019229e+00 2.8171817487e+00 4.8795019229e+00 
123900 5.5227011129e+00 -3.2012724617e-04 2.8171874577e+00 -4.8795118111e+00 2.8171874577e+00 4.8795118111e+00 
124000 5.5227011103e+00 -3.1859637082e-04 2.8171931394e+00 -4.8795216521e+00 2.8171931394e+00 4.8795216521e+00 
124100 5.5227011077e+00 -3.1707288437e-04 2.8171987939e+00 -4.8795314460e+00 2.8171987939e+00 4.8795314460e+00 
124200 5.5227011051e+00 -3.1555675058e-04 2.8172044213e+00 -4.8795411930e+00 2.8172044213e+00 4.8795411930e+00 
124300 5.5227011026e+00 -3.1404793341e-04 2.8172100218e+00 -4.8795508934e+00 2.8172100218e+00 4.8795508934e+00 
124400 5.5227011001e+00 -3.1254639700e-04 2.8172155956e+00 -4.8795605474e+00 2.8172155956e+00 4.8795605474e+00 
124500 5.5227010976e+00 -3.1105210566e-04 2.8172211427e+00 -4.8795701553e+00 2.8172211427e+00 4.8795701553e+00 
124600 5.5227010952e+00 -3.0956502388e-04 2.8172266632e+00 -4.8795797171e+00 2.8172266632e+00 4.8795797171e+00 
124700 5.5227010928e+00 -3.0808511634e-04 2.8172321574e+00 -4.8795892333e+00 2.8172321574e+00 4.8795892333e+00 
124800 5.5227010903e+00 -3.0661234788e-04 2.8172376252e+00 -4.8795987039e+00 2.8172376252e+00 4.8795987039e+00 
124900 5.5227010880e+00 -3.0514668354e-04 2.8172430670e+00 -4.8796081292e+00 2.8172430670e+00 4.8796081292e+00 
125000 5.5227010856e+00 -3.0368808851e-04 2.8172484827e+00 -4.8796175095e+00 2.8172484827e+00 4.8796175095e+00 
125100 5.5227010833e+00 -3.0223652818e-04 2.8172538725e+00 -4.8796268449e+00 2.8172538725e+00 4.8796268449e+00 
125200 5.5227010809e+00 -3.0079196809e-04 2.8172592365e+00 -4.8796361357e+00 2.8172592365e+00 4.8796361357e+00 
125300 5.5227010786e+00 -2.9935437397e-04 2.8172645749e+00 -4.8796453820e+00 2.8172645749e+00 4.8796453820e+00 
125400 5.5227010764e+00 -2.9792371171e-04 2.8172698877e+00 -4.8796545842e+00 2.8172698877e+00 4.8796545842e+00 
125500 5.5227010741e+00 -2.9649994739e-04 2.8172751752e+00 -4.8796637423e+00 2.8172751752e+00 4.8796637423e+00 
125600 5.5227010719e+00 -2.9508304723e-04 2.8172804374e+00 -4.8796728567e+00 2.8172804374e+00 4.8796728567e+00 
125700 5.5227010697e+00 -2.9367297766e-04 2.8172856744e+00 -4.8796819275e+00 2.8172856744e+00 4.8796819275e+00 
125800 5.5227010675e+00 -2.9226970524e-04 2.8172908864e+00 -4.8796909549e+00 2.8172908864e+00 4.8796909549e+00 
125900 5.5227010653e+00 -2.9087319671e-04 2.8172960734e+00 -4.8796999392e+00 2.8172960734e+00 4.8796999392e+00 
126000 5.5227010632e+00 -2.8948341900e-04 2.8173012357e+00 -4.8797088805e+00 2.8173012357e+00 4.8797088805e+00 
126100 5.5227010610e+00 -2.8810033916e-04 2.8173063733e+00 -4.8797177791e+00 2.8173063733e+00 4.8797177791e+00 
126200 5.5227010589e+00 -2.8672392445e-04 2.8173114864e+00 -4.8797266351e+00 2.8173114864e+00 4.8797266351e+00 
126300 5.5227010568e+00 -2.8535414227e-04 2.8173165750e+00 -4.8797354489e+00 2.8173165750e+00 4.8797354489e+00 
126400 5.5227010548e+00 -2.8399096019e-04 2.8173216393e+00 -4.8797442205e+00 2.8173216393e+00 4.8797442205e+00 
126500 5.5227010527e+00 -2.8263434593e-04 2.8173266794e+00 -4.8797529502e+00 2.8173266794e+00 4.8797529502e+00 
126600 5.5227010507e+00 -2.8128426740e-04 2.8173316954e+00 -4.8797616381e+00 2.8173316954e+00 4.8797616381e+00 
126700 5.5227010487e+00 -2.7994069264e-04 2.8173366874e+00 -4.8797702846e+00 2.8173366874e+00 4.8797702846e+00 
126800 5.5227010467e+00 -2.7860358987e-04 2.8173416556e+00 -4.8797788897e+00 2.8173416556e+00 4.8797788897e+00 
126900 5.5227010447e+00 -2.7727292746e-04 2.8173466000e+00 -4.8797874538e+00 2.8173466000e+00 4.8797874538e+00 
127000 5.5227010428e+00 -2.7594867394e-04 2.8173515208e+00 -4.8797959769e+00 2.8173515208e+00 4.8797959769e+00 
127100 5.5227010408e+00 -2.7463079800e-04 2.8173564181e+00 -4.8798044593e+00 2.8173564181e+00 4.8798044593e+00 
127200 5.5227010389e+00 -2.7331926848e-04 2.8173612921e+00 -4.8798129011e+00 2.8173612921e+00 4.8798129011e+00 
127300 5.5227010370e+00 -2.7201405438e-04 2.8173661427e+00 -4.8798213026e+00 2.8173661427e+00 4.8798213026e+00 
127400 5.5227010351e+00 -2.7071512487e-04 2.8173709701e+00 -4.8798296640e+00 2.8173709701e+00 4.8798296640e+00 
127500 5.5227010333e+00 -2.6942244925e-04 2.8173757745e+00 -4.8798379855e+00 2.8173757745e+00 4.8798379855e+00 
127600 5.5227010314e+00 -2.6813599698e-04 2.8173805560e+00 -4.8798462672e+00 2.8173805560e+00 4.8798462672e+00 
127700 5.5227010296e+00 -2.6685573767e-04 2.8173853146e+00 -4.8798545094e+00 2.8173853146e+00 4.8798545094e+00 
127800 5.5227010278e+00 -2.6558164111e-04 2.8173900505e+00 -4.8798627121e+00 2.8173900505e+00 4.8798627121e+00 
127900 5.5227010260e+00 -2.6431367720e-04 2.8173947637e+00 -4.8798708757e+00 2.8173947637e+00 4.8798708757e+00 
128000 5.5227010242e+00 -2.6305181601e-04 2.8173994545e+00 -4.8798790003e+00 2.8173994545e+00 4.8798790003e+00 
128100 5.5227010224e+00 -2.6179602777e-04 2.8174041228e+00 -4.8798870862e+00 2.8174041228e+00 4.8798870862e+00 
128200 5.5227010207e+00 -2.6054628284e-04 2.8174087689e+00 -4.8798951334e+00 2.8174087689e+00 4.8798951334e+00 
128300 5.5227010190e+00 -2.5930255173e-04 2.8174133927e+00 -4.8799031421e+00 2.8174133927e+00 4.8799031421e+00 
128400 5.5227010173e+00 -2.5806480511e-04 2.8174179945e+00 -4.8799111127e+00 2.8174179945e+00 4.8799111127e+00 
128500 5.5227010156e+00 -2.5683301378e-04 2.8174225743e+00 -4.8799190451e+00 2.8174225743e+00 4.8799190451e+00 
128600 5.5227010139e+00 -2.5560714871e-04 2.8174271323e+00 -4.8799269397e+00 2.8174271323e+00 4.8799269397e+00 
128700 5.5227010122e+00 -2.5438718098e-04 2.8174316684e+00 -4.8799347966e+00 2.8174316684e+00 4.8799347966e+00 
128800 5.5227010106e+00 -2.5317308185e-04 2.8174361830e+00 -4.8799426160e+00 2.8174361830e+00 4.8799426160e+00 
128900 5.5227010089e+00 -2.5196482270e-04 2.8174406759e+00 -4.8799503980e+00 2.8174406759e+00 4.8799503980e+00 
129000 5.5227010073e+00 -2.5076237505e-04 2.8174451475e+00 -4.8799581429e+00 2.8174451475e+00 4.8799581429e+00 
129100 5.5227010057e+00 -2.4956571059e-04 2.8174495976e+00 -4.8799658509e+00 2.8174495976e+00 4.8799658509e+00 
129200 5.5227010041e+00 -2.4837480112e-04 2.8174540266e+00 -4.8799735220e+00 2.8174540266e+00 4.8799735220e+00 
129300 5.5227010026e+00 -2.4718961860e-04 2.8174584344e+00 -4.8799811565e+00 2.8174584344e+00 4.8799811565e+00 
129400 5.5227010010e+00 -2.4601013511e-04 2.8174628211e+00 -4.8799887546e+00 2.8174628211e+00 4.8799887546e+00 
129500 5.5227009995e+00 -2.4483632290e-04 2.8174671869e+00 -4.8799963164e+00 2.8174671869e+00 4.8799963164e+00 
129600 5.5227009979e+00 -2.4366815433e-04 2.8174715319e+00 -4.8800038421e+00 2.8174715319e+00 4.8800038421e+00 
129700 5.5227009964e+00 -2.4250560190e-04 2.8174758561e+00 -4.8800113319e+00 2.8174758561e+00 4.8800113319e+00 
129800 5.5227009949e+00 -2.4134863827e-04 2.8174801597e+00 -4.8800187860e+00 2.8174801597e+00 4.8800187860e+00 
129900 5.5227009934e+00 -2.4019723621e-04 2.8174844428e+00 -4.8800262044e+00 2.8174844428e+00 4.8800262044e+00 
130000 5.5227009920e+00 -2.3905136864e-04 2.8174887054e+00 -4.8800335875e+00 2.8174887054e+00 4.8800335875e+00 
130100 5.5227009905e+00 -2.3791100862e-04 2.8174929477e+00 -4.8800409354e+00 2.8174929477e+00 4.8800409354e+00 
130200 5.5227009891e+00 -2.3677612932e-04 2.8174971697e+00 -4.8800482481e+00 2.8174971697e+00 4.8800482481e+00 
130300 5.5227009876e+00 -2.3564670406e-04 2.8175013716e+00 -4.8800555260e+00 2.8175013716e+00 4.8800555260e+00 
130400 5.5227009862e+00 -2.3452270630e-04 2.8175055534e+00 -4.8800627692e+00 2.8175055534e+00 4.8800627692e+00 
130500 5.5227009848e+00 -2.3340410962e-04 2.8175097153e+00 -4.8800699778e+00 2.8175097153e+00 4.8800699778e+00 
130600 5.5227009834e+00 -2.3229088773e-04 2.8175138574e+00 -4.8800771520e+00 2.8175138574e+00 4.8800771520e+00 
130700 5.5227009820e+00 -2.3118301448e-04 2.8175179796e+00 -4.8800842920e+00 2.8175179796e+00 4.8800842920e+00 
130800 5.5227009807e+00 -2.3008046384e-04 2.8175220822e+00 -4.8800913979e+00 2.8175220822e+00 4.8800913979e+00 
130900 5.5227009793e+00 -2.2898320992e-04 2.8175261653e+00 -4.8800984699e+00 2.8175261653e+00 4.8800984699e+00 
131000 5.5227009780e+00 -2.2789122696e-04 2.8175302288e+00 -4.8801055082e+00 2.8175302288e+00 4.8801055082e+00 
131100 5.5227009767e+00 -2.2680448930e-04 2.8175342730e+00 -4.8801125129e+00 2.8175342730e+00 4.8801125129e+00 
131200 5.5227009753e+00 -2.2572297145e-04 2.8175382979e+00 -4.8801194842e+00 2.8175382979e+00 4.8801194842e+00 
131300 5.5227009740e+00 -2.2464664801e-04 2.8175423035e+00 -4.8801264222e+00 2.8175423035e+00 4.8801264222e+00 
131400 5.5227009728e+00 -2.2357549373e-04 2.8175462901e+00 -4.8801333271e+00 2.8175462901e+00 4.8801333271e+00 
131500 5.5227009715e+00 -2.2250948347e-04 2.8175502577e+00 -4.8801401991e+00 2.8175502577e+00 4.8801401991e+00 
131600 5.5227009702e+00 -2.2144859223e-04 2.8175542063e+00 -4.8801470384e+00 2.8175542063e+00 4.8801470384e+00 
131700 5.5227009690e+00 -2.2039279512e-04 2.8175581361e+00 -4.8801538450e+00 2.8175581361e+00 4.8801538450e+00 
131800 5.5227009677e+00 -2.1934206738e-04 2.8175620472e+00 -4.8801606192e+00 2.8175620472e+00 4.8801606192e+00 
131900 5.5227009665e+00 -2.1829638437e-04 2.8175659396e+00 -4.8801673610e+00 2.8175659396e+00 4.8801673610e+00 
132000 5.5227009653e+00 -2.1725572158e-04 2.8175698134e+00 -4.8801740707e+00 2.8175698134e+00 4.8801740707e+00 
132100 5.5227009641e+00 -2.1622005461e-04 2.8175736688e+00 -4.8801807484e+00 2.8175736688e+00 4.8801807484e+00 
132200 5.5227009629e+00 -2.1518935918e-04 2.8175775058e+00 -4.8801873943e+00 2.8175775058e+00 4.8801873943e+00 
132300 5.5227009617e+00 -2.1416361115e-04 2.8175813245e+00 -4.8801940085e+00 2.8175813245e+00 4.8801940085e+00 
132400 5.5227009605e+00 -2.1314278648e-04 2.8175851250e+00 -4.8802005911e+00 2.8175851250e+00 4.8802005911e+00 
132500 5.5227009594e+00 -2.1212686126e-04 2.8175889073e+00 -4.8802071423e+00 2.8175889073e+00 4.8802071423e+00 
132600 5.5227009582e+00 -2.1111581169e-04 2.8175926717e+00 -4.8802136624e+00 2.8175926717e+00 4.8802136624e+00 
132700 5.5227009571e+00 -2.1010961409e-04 2.8175964181e+00 -4.8802201513e+00 2.8175964181e+00 4.8802201513e+00 
132800 5.5227009559e+00 -2.0910824491e-04 2.8176001466e+00 -4.8802266093e+00 2.8176001466e+00 4.8802266093e+00 
132900 5.5227009548e+00 -2.0811168069e-04 2.8176038573e+00 -4.8802330365e+00 2.8176038573e+00 4.8802330365e+00 
133000 5.5227009537e+00 -2.0711989811e-04 2.8176075504e+00 -4.8802394331e+00 2.8176075504e+00 4.8802394331e+00 
133100 5.5227009526e+00 -2.0613287397e-04 2.8176112259e+00 -4.8802457992e+00 2.8176112259e+00 4.8802457992e+00 
133200 5.5227009515e+00 -2.0515058515e-04 2.8176148838e+00 -4.8802521349e+00 2.8176148838e+00 4.8802521349e+00 
133300 5.5227009504e+00 -2.0417300868e-04 2.8176185243e+00 -4.8802584404e+00 2.8176185243e+00 4.8802584404e+00 
133400 5.5227009494e+00 -2.0320012169e-04 2.8176221474e+00 -4.8802647159e+00 2.8176221474e+00 4.8802647159e+00 
133500 5.5227009483e+00 -2.0223190142e-04 2.8176257533e+00 -4.8802709615e+00 2.8176257533e+00 4.8802709615e+00 
133600 5.5227009473e+00 -2.0126832523e-04 2.8176293420e+00 -4.8802771773e+00 2.8176293420e+00 4.8802771773e+00 
133700 5.5227009462e+00 -2.0030937059e-04 2.8176329136e+00 -4.8802833634e+00 2.8176329136e+00 4.8802833634e+00 
133800 5.5227009452e+00 -1.9935501508e-04 2.8176364682e+00 -4.8802895201e+00 2.8176364682e+00 4.8802895201e+00 
133900 5.5227009442e+00 -1.9840523638e-04 2.8176400058e+00 -4.8802956475e+00 2.8176400058e+00 4.8802956475e+00 
134000 5.5227009432e+00 -1.9746001230e-04 2.8176435266e+00 -4.8803017456e+00 2.8176435266e+00 4.8803017456e+00 
134100 5.5227009422e+00 -1.9651932075e-04 2.8176470306e+00 -4.8803078147e+00 2.8176470306e+00 4.8803078147e+00 
134200 5.5227009412e+00 -1.9558313976e-04 2.8176505179e+00 -4.8803138549e+00 2.8176505179e+00 4.8803138549e+00 
134300 5.5227009402e+00 -1.9465144744e-04 2.8176539885e+00 -4.8803198663e+00 2.8176539885e+00 4.8803198663e+00 
134400 5.5227009393e+00 -1.9372422203e-04 2.8176574427e+00 -4.8803258491e+00 2.8176574427e+00 4.8803258491e+00 
134500 5.5227009383e+00 -1.9280144188e-04 2.8176608804e+00 -4.8803318033e+00 2.8176608804e+00 4.8803318033e+00 
134600 5.5227009373e+00 -1.9188308545e-04 2.8176643017e+00 -4.8803377292e+00 2.8176643017e+00 4.8803377292e+00 
134700 5.5227009364e+00 -1.9096913128e-04 2.8176677067e+00 -4.8803436268e+00 2.8176677067e+00 4.8803436268e+00 
134800 5.5227009355e+00 -1.9005955804e-04 2.8176710955e+00 -4.8803494963e+00 2.8176710955e+00 4.8803494963e+00 
134900 5.5227009345e+00 -1.8915434450e-04 2.8176744681e+00 -4.8803553379e+00 2.8176744681e+00 4.8803553379e+00 
135000 5.5227009336e+00 -1.8825346954e-04 2.8176778247e+00 -4.8803611517e+00 2.8176778247e+00 4.8803611517e+00 
135100 5.5227009327e+00 -1.8735691212e-04 2.8176811652e+00 -4.8803669377e+00 2.8176811652e+00 4.8803669377e+00 
135200 5.5227009318e+00 -1.8646465134e-04 2.8176844899e+00 -4.8803726962e+00 2.8176844899e+00 4.8803726962e+00 
135300 5.5227009309e+00 -1.8557666638e-04 2.8176877987e+00 -4.8803784273e+00 2.8176877987e+00 4.8803784273e+00 
135400 5.5227009300e+00 -1.8469293653e-04 2.8176910918e+00 -4.8803841310e+00 2.8176910918e+00 4.8803841310e+00 
135500 5.5227009292e+00 -1.8381344116e-04 2.8176943692e+00 -4.8803898076e+00 2.8176943692e+00 4.8803898076e+00 
135600 5.5227009283e+00 -1.8293815979e-04 2.8176976310e+00 -4.8803954572e+00 2.8176976310e+00 4.8803954572e+00 
135700 5.5227009274e+00 -1.8206707199e-04 2.8177008772e+00 -4.8804010798e+00 2.8177008772e+00 4.8804010798e+00 
135800 5.5227009266e+00 -1.8120015747e-04 2.8177041080e+00 -4.8804066757e+00 2.8177041080e+00 4.8804066757e+00 
135900 5.5227009258e+00 -1.8033739601e-04 2.8177073234e+00 -4.8804122449e+00 2.8177073234e+00 4.8804122449e+00 
136000 5.5227009249e+00 -1.7947876751e-04 2.8177105234e+00 -4.8804177876e+00 2.8177105234e+00 4.8804177876e+00 
136100 5.5227009241e+00 -1.7862425196e-04 2.8177137083e+00 -4.8804233039e+00 2.8177137083e+00 4.8804233039e+00 
136200 5.5227009233e+00 -1.7777382945e-04 2.8177168779e+00 -4.8804287939e+00 2.8177168779e+00 4.8804287939e+00 
136300 5.5227009225e+00 -1.7692748017e-04 2.8177200325e+00 -4.8804342578e+00 2.8177200325e+00 4.8804342578e+00 
136400 5.5227009217e+00 -1.7608518441e-04 2.8177231720e+00 -4.8804396957e+00 2.8177231720e+00 4.8804396957e+00 
136500 5.5227009209e+00 -1.7524692255e-04 2.8177262966e+00 -4.8804451076e+00 2.8177262966e+00 4.8804451076e+00 
136600 5.5227009201e+00 -1.7441267506e-04 2.8177294064e+00 -4.8804504938e+00 2.8177294064e+00 4.8804504938e+00 
136700 5.5227009193e+00 -1.7358242253e-04 2.8177325013e+00 -4.8804558544e+00 2.8177325013e+00 4.8804558544e+00 
136800 5.5227009185e+00 -1.7275614563e-04 2.8177355815e+00 -4.8804611894e+00 2.8177355815e+00 4.8804611894e+00 
136900 5.5227009178e+00 -1.7193382512e-04 2.8177386470e+00 -4.8804664990e+00 2.8177386470e+00 4.8804664990e+00 
137000 5.5227009170e+00 -1.7111544187e-04 2.8177416979e+00 -4.8804717834e+00 2.8177416979e+00 4.8804717834e+00 
137100 5.5227009163e+00 -1.7030097682e-04 2.8177447343e+00 -4.8804770426e+00 2.8177447343e+00 4.8804770426e+00 
137200 5.5227009155e+00 -1.6949041104e-04 2.8177477562e+00 -4.8804822767e+00 2.8177477562e+00 4.8804822767e+00 
137300 5.5227009148e+00 -1.6868372567e-04 2.8177507638e+00 -4.8804874859e+00 2.8177507638e+00 4.8804874859e+00 
137400 5.5227009140e+00 -1.6788090193e-04 2.8177537570e+00 -4.8804926704e+00 2.8177537570e+00 4.8804926704e+00 
137500 5.5227009133e+00 -1.6708192115e-04 2.8177567360e+00 -4.8804978301e+00 2.8177567360e+00 4.8804978301e+00 
137600 5.5227009126e+00 -1.6628676477e-04 2.8177597008e+00 -4.8805029653e+00 2.8177597008e+00 4.8805029653e+00 
137700 5.5227009119e+00 -1.6549541428e-04 2.8177626515e+00 -4.8805080761e+00 2.8177626515e+00 4.8805080761e+00 
137800 5.5227009112e+00 -1.6470785129e-04 2.8177655881e+00 -4.8805131625e+00 2.8177655881e+00 4.8805131625e+00 
137900 5.5227009105e+00 -1.6392405750e-04 2.8177685108e+00 -4.8805182247e+00 2.8177685108e+00 4.8805182247e+00 
138000 5.5227009098e+00 -1.6314401467e-04 2.8177714196e+00 -4.8805232628e+00 2.8177714196e+00 4.8805232628e+00 
138100 5.5227009091e+00 -1.6236770469e-04 2.8177743145e+00 -4.8805282770e+00 2.8177743145e+00 4.8805282770e+00 
138200 5.5227009084e+00 -1.6159510952e-04 2.8177771956e+00 -4.8805332672e+00 2.8177771956e+00 4.8805332672e+00 
138300 5.5227009078e+00 -1.6082621121e-04 2.8177800630e+00 -4.8805382337e+00 2.8177800630e+00 4.8805382337e+00 
138400 5.5227009071e+00 -1.6006099189e-04 2.8177829168e+00 -4.8805431766e+00 2.8177829168e+00 4.8805431766e+00 
138500 5.5227009065e+00 -1.5929943379e-04 2.8177857570e+00 -4.8805480960e+00 2.8177857570e+00 4.8805480960e+00 
138600 5.5227009058e+00 -1.5854151922e-04 2.8177885837e+00 -4.8805529919e+00 2.8177885837e+00 4.8805529919e+00 
138700 5.5227009052e+00 -1.5778723058e-04 2.8177913969e+00 -4.8805578646e+00 2.8177913969e+00 4.8805578646e+00 
138800 5.5227009045e+00 -1.5703655036e-04 2.8177941968e+00 -4.8805627141e+00 2.8177941968e+00 4.8805627141e+00 
138900 5.5227009039e+00 -1.5628946114e-04 2.8177969833e+00 -4.8805675404e+00 2.8177969833e+00 4.8805675404e+00 
139000 5.5227009033e+00 -1.5554594556e-04 2.8177997565e+00 -4.8805723439e+00 2.8177997565e+00 4.8805723439e+00 
139100 5.5227009026e+00 -1.5480598637e-04 2.8178025166e+00 -4.8805771244e+00 2.8178025166e+00 4.8805771244e+00 
139200 5.5227009020e+00 -1.5406956639e-04 2.8178052635e+00 -4.8805818822e+00 2.8178052635e+00 4.8805818822e+00 
139300 5.5227009014e+00 -1.5333666855e-04 2.8178079974e+00 -4.8805866174e+00 2.8178079974e+00 4.8805866174e+00 
139400 5.5227009008e+00 -1.5260727584e-04 2.8178107182e+00 -4.8805913301e+00 2.8178107182e+00 4.8805913301e+00 
139500 5.5227009002e+00 -1.5188137132e-04 2.8178134261e+00 -4.8805960203e+00 2.8178134261e+00 4.8805960203e+00 
139600 5.5227008996e+00 -1.5115893818e-04 2.8178161212e+00 -4.8806006882e+00 2.8178161212e+00 4.8806006882e+00 
139700 5.5227008990e+00 -1.5043995964e-04 2.8178188034e+00 -4.8806053339e+00 2.8178188034e+00 4.8806053339e+00 
139800 5.5227008984e+00 -1.4972441904e-04 2.8178214728e+00 -4.8806099575e+00 2.8178214728e+00 4.8806099575e+00 
139900 5.5227008979e+00 -1.4901229979e-04 2.8178241295e+00 -4.8806145591e+00 2.8178241295e+00 4.8806145591e+00 
140000 5.5227008973e+00 -1.4830358537e-04 2.8178267736e+00 -4.8806191389e+00 2.8178267736e+00 4.8806191389e+00 
140100 5.5227008967e+00 -1.4759825936e-04 2.8178294052e+00 -4.8806236968e+00 2.8178294052e+00 4.8806236968e+00 
140200 5.5227008962e+00 -1.4689630541e-04 2.8178320242e+00 -4.8806282331e+00 2.8178320242e+00 4.8806282331e+00 
140300 5.5227008956e+00 -1.4619770724e-04 2.8178346307e+00 -4.8806327477e+00 2.8178346307e+00 4.8806327477e+00 
140400 5.5227008951e+00 -1.4550244868e-04 2.8178372249e+00 -4.8806372409e+00 2.8178372249e+00 4.8806372409e+00 
140500 5.5227008945e+00 -1.4481051361e-04 2.8178398067e+00 -4.8806417128e+00 2.8178398067e+00 4.8806417128e+00 
140600 5.5227008940e+00 -1.4412188599e-04 2.8178423762e+00 -4.8806461633e+00 2.8178423762e+00 4.8806461633e+00 
140700 5.5227008934e+00 -1.4343654988e-04 2.8178449335e+00 -4.8806505927e+00 2.8178449335e+00 4.8806505927e+00 
140800 5.5227008929e+00 -1.4275448941e-04 2.8178474787e+00 -4.8806550010e+00 2.8178474787e+00 4.8806550010e+00 
140900 5.5227008924e+00 -1.4207568877e-04 2.8178500117e+00 -4.8806593884e+00 2.8178500117e+00 4.8806593884e+00 
141000 5.5227008919e+00 -1.4140013225e-04 2.8178525327e+00 -4.8806637549e+00 2.8178525327e+00 4.8806637549e+00 
141100 5.5227008914e+00 -1.4072780421e-04 2.8178550417e+00 -4.8806681006e+00 2.8178550417e+00 4.8806681006e+00 
141200 5.5227008909e+00 -1.4005868908e-04 2.8178575388e+00 -4.8806724257e+00 2.8178575388e+00 4.8806724257e+00 
141300 5.5227008903e+00 -1.3939277136e-04 2.8178600240e+00 -4.8806767302e+00 2.8178600240e+00 4.8806767302e+00 
141400 5.5227008898e+00 -1.3873003566e-04 2.8178624974e+00 -4.8806810142e+00 2.8178624974e+00 4.8806810142e+00 
141500 5.5227008894e+00 -1.3807046662e-04 2.8178649590e+00 -4.8806852778e+00 2.8178649590e+00 4.8806852778e+00 
141600 5.5227008889e+00 -1.3741404900e-04 2.8178674089e+00 -4.8806895212e+00 2.8178674089e+00 4.8806895212e+00 
141700 5.5227008884e+00 -1.3676076758e-04 2.8178698472e+00 -4.8806937444e+00 2.8178698472e+00 4.8806937444e+00 
141800 5.5227008879e+00 -1.3611060728e-04 2.8178722738e+00 -4.8806979475e+00 2.8178722738e+00 4.8806979475e+00 
141900 5.5227008874e+00 -1.3546355304e-04 2.8178746890e+00 -4.8807021306e+00 2.8178746890e+00 4.8807021306e+00 
142000 5.5227008869e+00 -1.3481958989e-04 2.8178770926e+00 -4.8807062939e+00 2.8178770926e+00 4.8807062939e+00 
142100 5.5227008865e+00 -1.3417870295e-04 2.8178794848e+00 -4.8807104373e+00 2.8178794848e+00 4.8807104373e+00 
142200 5.5227008860e+00 -1.3354087739e-04 2.8178818657e+00 -4.8807145611e+00 2.8178818657e+00 4.8807145611e+00 
142300 5.5227008856e+00 -1.3290609847e-04 2.8178842352e+00 -4.8807186652e+00 2.8178842352e+00 4.8807186652e+00 
142400 5.5227008851e+00 -1.3227435150e-04 2.8178865935e+00 -4.8807227498e+00 2.8178865935e+00 4.8807227498e+00 
142500 5.5227008846e+00 -1.3164562189e-04 2.8178889405e+00 -4.8807268150e+00 2.8178889405e+00 4.8807268150e+00 
142600 5.5227008842e+00 -1.3101989511e-04 2.8178912764e+00 -4.8807308609e+00 2.8178912764e+00 4.8807308609e+00 
142700 5.5227008838e+00 -1.3039715668e-04 2.8178936012e+00 -4.8807348876e+00 2.8178936012e+00 4.8807348876e+00 
142800 5.5227008833e+00 -1.2977739222e-04 2.8178959149e+00 -4.8807388951e+00 2.8178959149e+00 4.8807388951e+00 
142900 5.5227008829e+00 -1.2916058740e-04 2.8178982177e+00 -4.8807428835e+00 2.8178982177e+00 4.8807428835e+00 
143000 5.5227008825e+00 -1.2854672799e-04 2.8179005094e+00 -4.8807468530e+00 2.8179005094e+00 4.8807468530e+00 
143100 5.5227008820e+00 -1.2793579978e-04 2.8179027903e+00 -4.8807508037e+00 2.8179027903e+00 4.8807508037e+00 
143200 5.5227008816e+00 -1.2732778869e-04 2.8179050604e+00 -4.8807547355e+00 2.8179050604e+00 4.8807547355e+00 
143300 5.5227008812e+00 -1.2672268065e-04 2.8179073197e+00 -4.8807586487e+00 2.8179073197e+00 4.8807586487e+00 
143400 5.5227008808e+00 -1.2612046169e-04 2.8179095682e+00 -4.8807625432e+00 2.8179095682e+00 4.8807625432e+00 
143500 5.5227008804e+00 -1.2552111791e-04 2.8179118060e+00 -4.8807664193e+00 2.8179118060e+00 4.8807664193e+00 
143600 5.5227008800e+00 -1.2492463548e-04 2.8179140332e+00 -4.8807702769e+00 2.8179140332e+00 4.8807702769e+00 
143700 5.5227008796e+00 -1.2433100060e-04 2.8179162498e+00 -4.8807741162e+00 2.8179162498e+00 4.8807741162e+00 
143800 5.5227008792e+00 -1.2374019960e-04 2.8179184559e+00 -4.8807779372e+00 2.8179184559e+00 4.8807779372e+00 
143900 5.5227008788e+00 -1.2315221882e-04 2.8179206515e+00 -4.8807817401e+00 2.8179206515e+00 4.8807817401e+00 
144000 5.5227008784e+00 -1.2256704470e-04 2.8179228367e+00 -4.8807855249e+00 2.8179228367e+00 4.8807855249e+00 
144100 5.5227008780e+00 -1.2198466373e-04 2.8179250115e+00 -4.8807892918e+00 2.8179250115e+00 4.8807892918e+00 
144200 5.5227008776e+00 -1.2140506247e-04 2.8179271759e+00 -4.8807930407e+00 2.8179271759e+00 4.8807930407e+00 
144300 5.5227008772e+00 -1.2082822756e-04 2.8179293300e+00 -4.8807967718e+00 2.8179293300e+00 4.8807967718e+00 
144400 5.5227008769e+00 -1.2025414568e-04 2.8179314740e+00 -4.8808004852e+00 2.8179314740e+00 4.8808004852e+00 
144500 5.5227008765e+00 -1.1968280358e-04 2.8179336077e+00 -4.8808041809e+00 2.8179336077e+00 4.8808041809e+00 
144600 5.5227008761e+00 -1.1911418811e-04 2.8179357313e+00 -4.8808078591e+00 2.8179357313e+00 4.8808078591e+00 
144700 5.5227008757e+00 -1.1854828612e-04 2.8179378448e+00 -4.8808115198e+00 2.8179378448e+00 4.8808115198e+00 
144800 5.5227008754e+00 -1.1798508459e-04 2.8179399483e+00 -4.8808151630e+00 2.8179399483e+00 4.8808151630e+00 
144900 5.5227008750e+00 -1.1742457052e-04 2.8179420417e+00 -4.8808187890e+00 2.8179420417e+00 4.8808187890e+00 
145000 5.5227008747e+00 -1.1686673099e-04 2.8179441252e+00 -4.8808223978e+00 2.8179441252e+00 4.8808223978e+00 
145100 5.5227008743e+00 -1.1631155313e-04 2.8179461988e+00 -4.8808259894e+00 2.8179461988e+00 4.8808259894e+00 
145200 5.5227008740e+00 -1.1575902416e-04 2.8179482626e+00 -4.8808295639e+00 2.8179482626e+00 4.8808295639e+00 
145300 5.5227008736e+00 -1.1520913133e-04 2.8179503166e+00 -4.8808331215e+00 2.8179503166e+00 4.8808331215e+00 
145400 5.5227008733e+00 -1.1466186197e-04 2.8179523608e+00 -4.8808366622e+00 2.8179523608e+00 4.8808366622e+00 
145500 5.5227008729e+00 -1.1411720347e-04 2.8179543953e+00 -4.8808401860e+00 2.8179543953e+00 4.8808401860e+00 
145600 5.5227008726e+00 -1.1357514329e-04 2.8179564201e+00 -4.8808436931e+00 2.8179564201e+00 4.8808436931e+00 
145700 5.5227008723e+00 -1.1303566893e-04 2.8179584353e+00 -4.8808471835e+00 2.8179584353e+00 4.8808471835e+00 
145800 5.5227008719e+00 -1.1249876796e-04 2.8179604409e+00 -4.8808506574e+00 2.8179604409e+00 4.8808506574e+00 
145900 5.5227008716e+00 -1.1196442801e-04 2.8179624370e+00 -4.8808541147e+00 2.8179624370e+00 4.8808541147e+00 
146000 5.5227008713e+00 -1.1143263679e-04 2.8179644236e+00 -4.8808575557e+00 2.8179644236e+00 4.8808575557e+00 
146100 5.5227008710e+00 -1.1090338203e-04 2.8179664008e+00 -4.8808609803e+00 2.8179664008e+00 4.8808609803e+00 
146200 5.5227008707e+00 -1.1037665156e-04 2.8179683686e+00 -4.8808643886e+00 2.8179683686e+00 4.8808643886e+00 
146300 5.5227008703e+00 -1.0985243325e-04 2.8179703271e+00 -4.8808677807e+00 2.8179703271e+00 4.8808677807e+00 
146400 5.5227008700e+00 -1.0933071502e-04 2.8179722762e+00 -4.8808711567e+00 2.8179722762e+00 4.8808711567e+00 
146500 5.5227008697e+00 -1.0881148486e-04 2.8179742161e+00 -4.8808745167e+00 2.8179742161e+00 4.8808745167e+00 
146600 5.5227008694e+00 -1.0829473083e-04 2.8179761468e+00 -4.8808778607e+00 2.8179761468e+00 4.8808778607e+00 
146700 5.5227008691e+00 -1.0778044102e-04 2.8179780683e+00 -4.8808811888e+00 2.8179780683e+00 4.8808811888e+00 
146800 5.5227008688e+00 -1.0726860361e-04 2.8179799806e+00 -4.8808845012e+00 2.8179799806e+00 4.8808845012e+00 
146900 5.5227008685e+00 -1.0675920680e-04 2.8179818839e+00 -4.8808877978e+00 2.8179818839e+00 4.8808877978e+00 
147000 5.5227008682e+00 -1.0625223889e-04 2.8179837782e+00 -4.8808910787e+00 2.8179837782e+00 4.8808910787e+00 
147100 5.5227008679e+00 -1.0574768821e-04 2.8179856634e+00 -4.8808943440e+00 2.8179856634e+00 4.8808943440e+00 
147200 5.5227008676e+00 -1.0524554314e-04 2.8179875397e+00 -4.8808975939e+00 2.8179875397e+00 4.8808975939e+00 
147300 5.5227008674e+00 -1.0474579214e-04 2.8179894071e+00 -4.8809008283e+00 2.8179894071e+00 4.8809008283e+00 
147400 5.5227008671e+00 -1.0424842371e-04 2.8179912656e+00 -4.8809040474e+00 2.8179912656e+00 4.8809040474e+00 
147500 5.5227008668e+00 -1.0375342642e-04 2.8179931153e+00 -4.8809072511e+00 2.8179931153e+00 4.8809072511e+00 
147600 5.5227008665e+00 -1.0326078887e-04 2.8179949562e+00 -4.8809104397e+00 2.8179949562e+00 4.8809104397e+00 
147700 5.5227008662e+00 -1.0277049974e-04 2.8179967884e+00 -4.8809136131e+00 2.8179967884e+00 4.8809136131e+00 
147800 5.5227008660e+00 -1.0228254776e-04 2.8179986119e+00 -4.8809167714e+00 2.8179986119e+00 4.8809167714e+00 
147900 5.5227008657e+00 -1.0179692171e-04 2.8180004267e+00 -4.8809199148e+00 2.8180004267e+00 4.8809199148e+00 
148000 5.5227008654e+00 -1.0131361042e-04 2.8180022329e+00 -4.8809230432e+00 2.8180022329e+00 4.8809230432e+00 
148100 5.5227008652e+00 -1.0083260279e-04 2.8180040305e+00 -4.8809261567e+00 2.8180040305e+00 4.8809261567e+00 
148200 5.5227008649e+00 -1.0035388775e-04 2.8180058196e+00 -4.8809292555e+00 2.8180058196e+00 4.8809292555e+00 
148300 5.5227008646e+00 -9.9877454313e-05 2.8180076001e+00 -4.8809323396e+00 2.8180076001e+00 4.8809323396e+00 
148400 5.5227008644e+00 -9.9403291520e-05 2.8180093723e+00 -4.8809354090e+00 2.8180093723e+00 4.8809354090e+00 
148500 5.5227008641e+00 -9.8931388479e-05 2.8180111360e+00 -4.8809384638e+00 2.8180111360e+00 4.8809384638e+00 
148600 5.5227008639e+00 -9.8461734346e-05 2.8180128913e+00 -4.8809415042e+00 2.8180128913e+00 4.8809415042e+00 
148700 5.5227008636e+00 -9.7994318331e-05 2.8180146383e+00 -4.8809445301e+00 2.8180146383e+00 4.8809445301e+00 
148800 5.5227008634e+00 -9.7529129697e-05 2.8180163770e+00 -4.8809475416e+00 2.8180163770e+00 4.8809475416e+00 
148900 5.5227008631e+00 -9.7066157758e-05 2.8180181075e+00 -4.8809505388e+00 2.8180181075e+00 4.8809505388e+00 
149000 5.5227008629e+00 -9.6605391880e-05 2.8180198297e+00 -4.8809535219e+00 2.8180198297e+00 4.8809535219e+00 
149100 5.5227008626e+00 -9.6146821482e-05 2.8180215438e+00 -4.8809564907e+00 2.8180215438e+00 4.8809564907e+00 
149200 5.5227008624e+00 -9.5690436031e-05 2.8180232497e+00 -4.8809594455e+00 2.8180232497e+00 4.8809594455e+00 
149300 5.5227008622e+00 -9.5236225050e-05 2.8180249476e+00 -4.8809623862e+00 2.8180249476e+00 4.8809623862e+00 
149400 5.5227008619e+00 -9.4784178107e-05 2.8180266373e+00 -4.8809653130e+00 2.8180266373e+00 4.8809653130e+00 
149500 5.5227008617e+00 -9.4334284827e-05 2.8180283191e+00 -4.8809682258e+00 2.8180283191e+00 4.8809682258e+00 
149600 5.5227008615e+00 -9.3886534879e-05 2.8180299928e+00 -4.8809711249e+00 2.8180299928e+00 4.8809711249e+00 
149700 5.5227008612e+00 -9.3440917987e-05 2.8180316587e+00 -4.8809740102e+00 2.8180316587e+00 4.8809740102e+00 
149800 5.5227008610e+00 -9.2997423922e-05 2.8180333166e+00 -4.8809768817e+00 2.8180333166e+00 4.8809768817e+00 
149900 5.5227008608e+00 -9.2556042507e-05 2.8180349666e+00 -4.8809797397e+00 2.8180349666e+00 4.8809797397e+00 
150000 5.5227008606e+00 -9.2116763611e-05 2.8180366088e+00 -4.8809825841e+00 2.8180366088e+00 4.8809825841e+00 
150100 5.5227008604e+00 -9.1679577156e-05 2.8180382432e+00 -4.8809854150e+00 2.8180382432e+00 4.8809854150e+00 
150200 5.5227008601e+00 -9.1244473110e-05 2.8180398699e+00 -4.8809882324e+00 2.8180398699e+00 4.8809882324e+00 
150300 5.5227008599e+00 -9.0811441491e-05 2.8180414888e+00 -4.8809910365e+00 2.8180414888e+00 4.8809910365e+00 
150400 5.5227008597e+00 -9.0380472363e-05 2.8180431001e+00 -4.8809938273e+00 2.8180431001e+00 4.8809938273e+00 
150500 5.5227008595e+00 -8.9951555842e-05 2.8180447037e+00 -4.8809966048e+00 2.8180447037e+00 4.8809966048e+00 
150600 5.5227008593e+00 -8.9524682090e-05 2.8180462997e+00 -4.8809993691e+00 2.8180462997e+00 4.8809993691e+00 
150700 5.5227008591e+00 -8.9099841315e-05 2.8180478881e+00 -4.8810021204e+00 2.8180478881e+00 4.8810021204e+00 
150800 5.5227008589e+00 -8.8677023776e-05 2.8180494690e+00 -4.8810048585e+00 2.8180494690e+00 4.8810048585e+00 
150900 5.5227008587e+00 -8.8256219777e-05 2.8180510424e+00 -4.8810075837e+00 2.8180510424e+00 4.8810075837e+00 
151000 5.5227008585e+00 -8.7837419668e-05 2.8180526083e+00 -4.8810102959e+00 2.8180526083e+00 4.8810102959e+00 
151100 5.5227008583e+00 -8.7420613848e-05 2.8180541667e+00 -4.8810129953e+00 2.8180541667e+00 4.8810129953e+00 
151200 5.5227008581e+00 -8.7005792760e-05 2.8180557178e+00 -4.8810156818e+00 2.8180557178e+00 4.8810156818e+00 
151300 5.5227008579e+00 -8.6592946898e-05 2.8180572615e+00 -4.8810183556e+00 2.8180572615e+00 4.8810183556e+00 
151400 5.5227008577e+00 -8.6182066796e-05 2.8180587979e+00 -4.8810210167e+00 2.8180587979e+00 4.8810210167e+00 
151500 5.5227008575e+00 -8.5773143037e-05 2.8180603270e+00 -4.8810236652e+00 2.8180603270e+00 4.8810236652e+00 
151600 5.5227008573e+00 -8.5366166251e-05 2.8180618489e+00 -4.8810263011e+00 2.8180618489e+00 4.8810263011e+00 
151700 5.5227008571e+00 -8.4961127109e-05 2.8180633635e+00 -4.8810289246e+00 2.8180633635e+00 4.8810289246e+00 
151800 5.5227008569e+00 -8.4558016331e-05 2.8180648710e+00 -4.8810315355e+00 2.8180648710e+00 4.8810315355e+00 
151900 5.5227008567e+00 -8.4156824682e-05 2.8180663712e+00 -4.8810341341e+00 2.8180663712e+00 4.8810341341e+00 
152000 5.5227008566e+00 -8.3757542969e-05 2.8180678644e+00 -4.8810367203e+00 2.8180678644e+00 4.8810367203e+00 
152100 5.5227008564e+00 -8.3360162044e-05 2.8180693505e+00 -4.8810392943e+00 2.8180693505e+00 4.8810392943e+00 
152200 5.5227008562e+00 -8.2964672806e-05 2.8180708295e+00 -4.8810418560e+00 2.8180708295e+00 4.8810418560e+00 
152300 5.5227008560e+00 -8.2571066195e-05 2.8180723015e+00 -4.8810444056e+00 2.8180723015e+00 4.8810444056e+00 
152400 5.5227008558e+00 -8.2179333196e-05 2.8180737666e+00 -4.8810469431e+00 2.8180737666e+00 4.8810469431e+00 
152500 5.5227008557e+00 -8.1789464839e-05 2.8180752246e+00 -4.8810494686e+00 2.8180752246e+00 4.8810494686e+00 
152600 5.5227008555e+00 -8.1401452195e-05 2.8180766758e+00 -4.8810519821e+00 2.8180766758e+00 4.8810519821e+00 
152700 5.5227008553e+00 -8.1015286379e-05 2.8180781201e+00 -4.8810544836e+00 2.8180781201e+00 4.8810544836e+00 
152800 5.5227008552e+00 -8.0630958550e-05 2.8180795575e+00 -4.8810569733e+00 2.8180795575e+00 4.8810569733e+00 
152900 5.5227008550e+00 -8.0248459908e-05 2.8180809881e+00 -4.8810594512e+00 2.8180809881e+00 4.8810594512e+00 
153000 5.5227008548e+00 -7.9867781696e-05 2.8180824119e+00 -4.8810619173e+00 2.8180824119e+00 4.8810619173e+00 
153100 5.5227008547e+00 -7.9488915202e-05 2.8180838290e+00 -4.8810643717e+00 2.8180838290e+00 4.8810643717e+00 
153200 5.5227008545e+00 -7.9111851752e-05 2.8180852393e+00 -4.8810668145e+00 2.8180852393e+00 4.8810668145e+00 
153300 5.5227008543e+00 -7.8736582717e-05 2.8180866429e+00 -4.8810692457e+00 2.8180866429e+00 4.8810692457e+00 
153400 5.5227008542e+00 -7.8363099507e-05 2.8180880399e+00 -4.8810716654e+00 2.8180880399e+00 4.8810716654e+00 
153500 5.5227008540e+00 -7.7991393578e-05 2.8180894303e+00 -4.8810740735e+00 2.8180894303e+00 4.8810740735e+00 
153600 5.5227008539e+00 -7.7621456423e-05 2.8180908141e+00 -4.8810764703e+00 2.8180908141e+00 4.8810764703e+00 
153700 5.5227008537e+00 -7.7253279577e-05 2.8180921912e+00 -4.8810788557e+00 2.8180921912e+00 4.8810788557e+00 
153800 5.5227008535e+00 -7.6886854617e-05 2.8180935619e+00 -4.8810812297e+00 2.8180935619e+00 4.8810812297e+00 
153900 5.5227008534e+00 -7.6522173160e-05 2.8180949261e+00 -4.8810835925e+00 2.8180949261e+00 4.8810835925e+00 
154000 5.5227008532e+00 -7.6159226863e-05 2.8180962838e+00 -4.8810859441e+00 2.8180962838e+00 4.8810859441e+00 
154100 5.5227008531e+00 -7.5798007426e-05 2.8180976350e+00 -4.8810882846e+00 2.8180976350e+00 4.8810882846e+00 
154200 5.5227008529e+00 -7.5438506586e-05 2.8180989799e+00 -4.8810906139e+00 2.8180989799e+00 4.8810906139e+00 
154300 5.5227008528e+00 -7.5080716121e-05 2.8181003183e+00 -4.8810929322e+00 2.8181003183e+00 4.8810929322e+00 
154400 5.5227008526e+00 -7.4724627847e-05 2.8181016505e+00 -4.8810952395e+00 2.8181016505e+00 4.8810952395e+00 
154500 5.5227008525e+00 -7.4370233625e-05 2.8181029762e+00 -4.8810975358e+00 2.8181029762e+00 4.8810975358e+00 
154600 5.5227008524e+00 -7.4017525348e-05 2.8181042958e+00 -4.8810998213e+00 2.8181042958e+00 4.8810998213e+00 
154700 5.5227008522e+00 -7.3666494953e-05 2.8181056090e+00 -4.8811020959e+00 2.8181056090e+00 4.8811020959e+00 
154800 5.5227008521e+00 -7.3317134416e-05 2.8181069160e+00 -4.8811043597e+00 2.8181069160e+00 4.8811043597e+00 
154900 5.5227008519e+00 -7.2969435748e-05 2.8181082169e+00 -4.8811066128e+00 2.8181082169e+00 4.8811066128e+00 
155000 5.5227008518e+00 -7.2623391002e-05 2.8181095115e+00 -4.8811088552e+00 2.8181095115e+00 4.8811088552e+00 
155100 5.5227008517e+00 -7.2278992269e-05 2.8181108000e+00 -4.8811110870e+00 2.8181108000e+00 4.8811110870e+00 
155200 5.5227008515e+00 -7.1936231676e-05 2.8181120824e+00 -4.8811133082e+00 2.8181120824e+00 4.8811133082e+00 
155300 5.5227008514e+00 -7.1595101391e-05 2.8181133587e+00 -4.8811155188e+00 2.8181133587e+00 4.8811155188e+00 
155400 5.5227008513e+00 -7.1255593619e-05 2.8181146290e+00 -4.8811177190e+00 2.8181146290e+00 4.8811177190e+00 
155500 5.5227008511e+00 -7.0917700599e-05 2.8181158932e+00 -4.8811199087e+00 2.8181158932e+00 4.8811199087e+00 
155600 5.5227008510e+00 -7.0581414612e-05 2.8181171515e+00 -4.8811220881e+00 2.8181171515e+00 4.8811220881e+00 
155700 5.5227008509e+00 -7.0774936530e-05 2.8181171515e+00 -4.8811220881e+00 2.8181171515e+00 4.8811220881e+00 
155800 5.5227008508e+00 -7.0440376237e-05 2.8181184072e+00 -4.8811242630e+00 2.8181184072e+00 4.8811242630e+00 
155900 5.5227008507e+00 -7.0634312031e-05 2.8181184072e+00 -4.8811242630e+00 2.8181184072e+00 4.8811242630e+00 
156000 5.5227008507e+00 -7.0829606007e-05 2.8181184072e+00 -4.8811242630e+00 2.8181184072e+00 4.8811242630e+00 
156100 5.5227008506e+00 -7.0495977923e-05 2.8181196639e+00 -4.8811264397e+00 2.8181196639e+00 4.8811264397e+00 
156200 5.5227008505e+00 -7.0690876580e-05 2.8181196639e+00 -4.8811264397e+00 2.8181196639e+00 4.8811264397e+00 
156300 5.5227008504e+00 -7.0886802040e-05 2.8181196639e+00 -4.8811264397e+00 2.8181196639e+00 4.8811264397e+00 
156400 5.5227008503e+00 -7.0553084005e-05 2.8181209216e+00 -4.8811286181e+00 2.8181209216e+00 4.8811286181e+00 
156500 5.5227008502e+00 -7.0748057909e-05 2.8181209216e+00 -4.8811286181e+00 2.8181209216e+00 4.8811286181e+00 
156600 5.5227008501e+00 -7.0414368969e-05 2.8181221768e+00 -4.8811307922e+00 2.8181221768e+00 4.8811307922e+00 
156700 5.5227008501e+00 -7.0608282951e-05 2.8181221768e+00 -4.8811307922e+00 2.8181221768e+00 4.8811307922e+00 
156800 5.5227008500e+00 -7.0802936606e-05 2.8181221768e+00 -4.8811307922e+00 2.8181221768e+00 4.8811307922e+00 
156900 5.5227008499e+00 -7.0468312756e-05 2.8181234330e+00 -4.8811329680e+00 2.8181234330e+00 4.8811329680e+00 
157000 5.5227008498e+00 -7.0661516305e-05 2.8181234330e+00 -4.8811329680e+00 2.8181234330e+00 4.8811329680e+00 
157100 5.5227008498e+00 -7.0855291947e-05 2.8181234330e+00 -4.8811329680e+00 2.8181234330e+00 4.8811329680e+00 
157200 5.5227008497e+00 -7.0519244926e-05 2.8181246902e+00 -4.8811351454e+00 2.8181246902e+00 4.8811351454e+00 
157300 5.5227008496e+00 -7.0711274415e-05 2.8181246902e+00 -4.8811351454e+00 2.8181246902e+00 4.8811351454e+00 
157400 5.5227008495e+00 -7.0374565154e-05 2.8181259447e+00 -4.8811373184e+00 2.8181259447e+00 4.8811373184e+00 
157500 5.5227008494e+00 -7.0564859396e-05 2.8181259447e+00 -4.8811373184e+00 2.8181259447e+00 4.8811373184e+00 
157600 5.5227008494e+00 -7.0755590355e-05 2.8181259447e+00 -4.8811373184e+00 2.8181259447e+00 4.8811373184e+00 
157700 5.5227008493e+00 -7.0417115303e-05 2.8181272001e+00 -4.8811394928e+00 2.8181272001e+00 4.8811394928e+00 
157800 5.5227008492e+00 -7.0605849630e-05 2.8181272001e+00 -4.8811394928e+00 2.8181272001e+00 4.8811394928e+00 
157900 5.5227008492e+00 -7.0794906420e-05 2.8181272001e+00 -4.8811394928e+00 2.8181272001e+00 4.8811394928e+00 
158000 5.5227008491e+00 -7.0454357334e-05 2.8181284562e+00 -4.8811416684e+00 2.8181284562e+00 4.8811416684e+00 
158100 5.5227008490e+00 -7.0641212382e-05 2.8181284562e+00 -4.8811416684e+00 2.8181284562e+00 4.8811416684e+00 
158200 5.5227008490e+00 -7.0828298617e-05 2.8181284562e+00 -4.8811416684e+00 2.8181284562e+00 4.8811416684e+00 
158300 5.5227008489e+00 -7.0485443805e-05 2.8181297128e+00 -4.8811438449e+00 2.8181297128e+00 4.8811438449e+00 
158400 5.5227008488e+00 -7.0670161852e-05 2.8181297128e+00 -4.8811438449e+00 2.8181297128e+00 4.8811438449e+00 
158500 5.5227008488e+00 -7.0855036050e-05 2.8181297128e+00 -4.8811438449e+00 2.8181297128e+00 4.8811438449e+00 
158600 5.5227008487e+00 -7.0509698536e-05 2.8181309700e+00 -4.8811460224e+00 2.8181309700e+00 4.8811460224e+00 
158700 5.5227008486e+00 -7.0692066369e-05 2.8181309700e+00 -4.8811460224e+00 2.8181309700e+00 4.8811460224e+00 
158800 5.5227008486e+00 -7.0874527539e-05 2.8181309700e+00 -4.8811460224e+00 2.8181309700e+00 4.8811460224e+00 
158900 5.5227008485e+00 -7.0526571859e-05 2.8181322274e+00 -4.8811482004e+00 2.8181322274e+00 4.8811482004e+00 
159000 5.5227008484e+00 -7.0706410486e-05 2.8181322274e+00 -4.8811482004e+00 2.8181322274e+00 4.8811482004e+00 
159100 5.5227008484e+00 -7.0886289390e-05 2.8181322274e+00 -4.8811482004e+00 2.8181322274e+00 4.8811482004e+00 
159200 5.5227008483e+00 -7.0535613341e-05 2.8181334851e+00 -4.8811503787e+00 2.8181334851e+00 4.8811503787e+00 
159300 5.5227008482e+00 -7.0712771616e-05 2.8181334851e+00 -4.8811503787e+00 2.8181334851e+00 4.8811503787e+00 
159400 5.5227008481e+00 -7.0360734014e-05 2.8181347397e+00 -4.8811525518e+00 2.8181347397e+00 4.8811525518e+00 
159500 5.5227008481e+00 -7.0535287961e-05 2.8181347397e+00 -4.8811525518e+00 2.8181347397e+00 4.8811525518e+00 
159600 5.5227008480e+00 -7.0709878411e-05 2.8181347397e+00 -4.8811525518e+00 2.8181347397e+00 4.8811525518e+00 
159700 5.5227008480e+00 -7.0884396072e-05 2.8181347397e+00 -4.8811525518e+00 2.8181347397e+00 4.8811525518e+00 
159800 5.5227008479e+00 -7.0528269749e-05 2.8181359974e+00 -4.8811547301e+00 2.8181359974e+00 4.8811547301e+00 
159900 5.5227008479e+00 -7.0686142583e-05 2.8181359974e+00 -4.8811547301e+00 2.8181359974e+00 4.8811547301e+00 
159900 5.5227008479e+00 -7.0686142583e-05 2.8181359974e+00 -4.8811547301e+00 2.8181359974e+00 4.8811547301e+00 
