# step Hamiltonian StressXX CellTensor1 CellTensor2 CellTensor3 CellTensor4 
0 5.6529480966e+00 2.4105244162e-01 2.8237630504e+00 -4.8909010719e+00 2.8237630504e+00 4.8909010719e+00 
100 5.6057069336e+00 2.7427728895e-01 2.8237630504e+00 -4.8909010719e+00 2.8237630504e+00 4.8909010719e+00 
200 5.5651489413e+00 3.0562441500e-01 2.8189078532e+00 -4.8824916236e+00 2.8189078532e+00 4.8824916236e+00 
300 5.5311865682e+00 3.3472964530e-01 2.8134886219e+00 -4.8731052397e+00 2.8134886219e+00 4.8731052397e+00 
400 5.5031478365e+00 3.6169972184e-01 2.8075420644e+00 -4.8628054999e+00 2.8075420644e+00 4.8628054999e+00 
500 5.4804559322e+00 3.8671948418e-01 2.8011029607e+00 -4.8516526451e+00 2.8011029607e+00 4.8516526451e+00 
600 5.4625909811e+00 4.1002409476e-01 2.7942028171e+00 -4.8397012458e+00 2.7942028171e+00 4.8397012458e+00 
700 5.4490536152e+00 4.3186213492e-01 2.7868689868e+00 -4.8269986792e+00 2.7868689868e+00 4.8269986792e+00 
800 5.4393267343e+00 4.5244241243e-01 2.7791244271e+00 -4.8135847084e+00 2.7791244271e+00 4.8135847084e+00 
900 5.4328261555e+00 4.7184453296e-01 2.7709883953e+00 -4.7994926878e+00 2.7709883953e+00 4.7994926878e+00 
1000 5.4288223700e+00 4.8985086425e-01 2.7624787573e+00 -4.7847535625e+00 2.7624787573e+00 4.7847535625e+00 
1100 5.4263070871e+00 5.0563127186e-01 2.7536173681e+00 -4.7694051861e+00 2.7536173681e+00 4.7694051861e+00 
1200 5.4237890350e+00 5.1723812618e-01 2.7444412684e+00 -4.7535117152e+00 2.7444412684e+00 4.7535117152e+00 
1300 5.4191016952e+00 5.2116046485e-01 2.7350233021e+00 -4.7371993191e+00 2.7350233021e+00 4.7371993191e+00 
1400 5.4095923468e+00 5.1305128528e-01 2.7255013206e+00 -4.7207067633e+00 2.7255013206e+00 4.7207067633e+00 
1500 5.3932636211e+00 4.9114693299e-01 2.7160947030e+00 -4.7044140237e+00 2.7160947030e+00 4.7044140237e+00 
1600 5.3703820661e+00 4.6002702613e-01 2.7070583183e+00 -4.6887625463e+00 2.7070583183e+00 4.6887625463e+00 
1700 5.3433990760e+00 4.2805907423e-01 2.6985659704e+00 -4.6740533684e+00 2.6985659704e+00 4.6740533684e+00 
1800 5.3149856441e+00 4.0074374917e-01 2.6906386346e+00 -4.6603228199e+00 2.6906386346e+00 4.6603228199e+00 
1900 5.2867514478e+00 3.7891235640e-01 2.6831950788e+00 -4.6474302031e+00 2.6831950788e+00 4.6474302031e+00 
2000 5.2593686340e+00 3.6118843181e-01 2.6761373412e+00 -4.6352058431e+00 2.6761373412e+00 4.6352058431e+00 
2100 5.2330495418e+00 3.4603587707e-01 2.6693918681e+00 -4.6235223409e+00 2.6693918681e+00 4.6235223409e+00 
2200 5.2078354941e+00 3.3239065611e-01 2.6629129486e+00 -4.6123005232e+00 2.6629129486e+00 4.6123005232e+00 
2300 5.1837125983e+00 3.1963474823e-01 2.6566742822e+00 -4.6014948359e+00 2.6566742822e+00 4.6014948359e+00 
2400 5.1606505748e+00 3.0743964308e-01 2.6506608644e+00 -4.5910792908e+00 2.6506608644e+00 4.5910792908e+00 
2500 5.1386147757e+00 2.9564086750e-01 2.6448636820e+00 -4.5810382764e+00 2.6448636820e+00 4.5810382764e+00 
2600 5.1175697609e+00 2.8416106062e-01 2.6392766923e+00 -4.5713613263e+00 2.6392766923e+00 4.5713613263e+00 
2700 5.0974803153e+00 2.7296729237e-01 2.6338952129e+00 -4.5620403305e+00 2.6338952129e+00 4.5620403305e+00 
2800 5.0783117053e+00 2.6204842225e-01 2.6287150977e+00 -4.5530681078e+00 2.6287150977e+00 4.5530681078e+00 
2900 5.0600297233e+00 2.5140336771e-01 2.6237323315e+00 -4.5444377037e+00 2.6237323315e+00 4.5444377037e+00 
3000 5.0426006862e+00 2.4103512809e-01 2.6189428430e+00 -4.5361420662e+00 2.6189428430e+00 4.5361420662e+00 
3100 5.0259914383e+00 2.3094780271e-01 2.6143424292e+00 -4.5281739158e+00 2.6143424292e+00 4.5281739158e+00 
3200 5.0101693704e+00 2.2114515619e-01 2.6099267364e+00 -4.5205257115e+00 2.6099267364e+00 4.5205257115e+00 
3300 4.9951024532e+00 2.1162997875e-01 2.6056912683e+00 -4.5131896655e+00 2.6056912683e+00 4.5131896655e+00 
3400 4.9807592811e+00 2.0240385150e-01 2.6016314066e+00 -4.5061577788e+00 2.6016314066e+00 4.5061577788e+00 
3500 4.9671091223e+00 1.9346711429e-01 2.5977424365e+00 -4.4994218849e+00 2.5977424365e+00 4.4994218849e+00 
3600 4.9541219689e+00 1.8481893096e-01 2.5940195726e+00 -4.4929736956e+00 2.5940195726e+00 4.4929736956e+00 
3700 4.9417685847e+00 1.7645739743e-01 2.5904579848e+00 -4.4868048446e+00 2.5904579848e+00 4.4868048446e+00 
3800 4.9300205484e+00 1.6837966458e-01 2.5870528209e+00 -4.4809069277e+00 2.5870528209e+00 4.4809069277e+00 
3900 4.9188502898e+00 1.6058206188e-01 2.5837992283e+00 -4.4752715400e+00 2.5837992283e+00 4.4752715400e+00 
4000 4.9082311191e+00 1.5306021464e-01 2.5806923725e+00 -4.4698903078e+00 2.5806923725e+00 4.4698903078e+00 
4100 4.8981372481e+00 1.4580915228e-01 2.5777274537e+00 -4.4647549178e+00 2.5777274537e+00 4.4647549178e+00 
4200 4.8885438044e+00 1.3882340621e-01 2.5748997214e+00 -4.4598571419e+00 2.5748997214e+00 4.4598571419e+00 
4300 4.8794268380e+00 1.3209709771e-01 2.5722044872e+00 -4.4551888593e+00 2.5722044872e+00 4.4551888593e+00 
4400 4.8707633218e+00 1.2562401616e-01 2.5696371350e+00 -4.4507420748e+00 2.5696371350e+00 4.4507420748e+00 
4500 4.8625311464e+00 1.1939768841e-01 2.5671931308e+00 -4.4465089353e+00 2.5671931308e+00 4.4465089353e+00 
4600 4.8547091102e+00 1.1341144019e-01 2.5648680302e+00 -4.4424817429e+00 2.5648680302e+00 4.4424817429e+00 
4700 4.8472769045e+00 1.0765845021e-01 2.5626574850e+00 -4.4386529664e+00 2.5626574850e+00 4.4386529664e+00 
4800 4.8402150962e+00 1.0213179797e-01 2.5605572486e+00 -4.4350152502e+00 2.5605572486e+00 4.4350152502e+00 
4900 4.8335051071e+00 9.6824505645e-02 2.5585631801e+00 -4.4315614223e+00 2.5585631801e+00 4.4315614223e+00 
5000 4.8271291911e+00 9.1729574991e-02 2.5566712479e+00 -4.4282844996e+00 2.5566712479e+00 4.4282844996e+00 
5100 4.8210704100e+00 8.6840019573e-02 2.5548775319e+00 -4.4251776924e+00 2.5548775319e+00 4.4251776924e+00 
5200 4.8153126078e+00 8.2148892955e-02 2.5531782257e+00 -4.4222344077e+00 2.5531782257e+00 4.4222344077e+00 
5300 4.8098403847e+00 7.7649313222e-02 2.5515696372e+00 -4.4194482507e+00 2.5515696372e+00 4.4194482507e+00 
5400 4.8046390699e+00 7.3334484221e-02 2.5500481896e+00 -4.4168130262e+00 2.5500481896e+00 4.4168130262e+00 
5500 4.7996946955e+00 6.9197713860e-02 2.5486104209e+00 -4.4143227378e+00 2.5486104209e+00 4.4143227378e+00 
5600 4.7949939688e+00 6.5232429765e-02 2.5472529838e+00 -4.4119715877e+00 2.5472529838e+00 4.4119715877e+00 
5700 4.7905242465e+00 6.1432192551e-02 2.5459726445e+00 -4.4097539750e+00 2.5459726445e+00 4.4097539750e+00 
5800 4.7862735082e+00 5.7790706942e-02 2.5447662816e+00 -4.4076644932e+00 2.5447662816e+00 4.4076644932e+00 
5900 4.7822303306e+00 5.4301830958e-02 2.5436308845e+00 -4.4056979276e+00 2.5436308845e+00 4.4056979276e+00 
6000 4.7783838626e+00 5.0959583356e-02 2.5425635513e+00 -4.4038492524e+00 2.5425635513e+00 4.4038492524e+00 
6100 4.7747238011e+00 4.7758149493e-02 2.5415614872e+00 -4.4021136264e+00 2.5415614872e+00 4.4021136264e+00 
6200 4.7712403666e+00 4.4691885768e-02 2.5406220017e+00 -4.4004863897e+00 2.5406220017e+00 4.4004863897e+00 
6300 4.7679242807e+00 4.1755322798e-02 2.5397425063e+00 -4.3989630590e+00 2.5397425063e+00 4.3989630590e+00 
6400 4.7647667435e+00 3.8943167439e-02 2.5389205121e+00 -4.3975393234e+00 2.5389205121e+00 4.3975393234e+00 
6500 4.7617594123e+00 3.6250303792e-02 2.5381536270e+00 -4.3962110394e+00 2.5381536270e+00 4.3962110394e+00 
6600 4.7588943801e+00 3.3671793290e-02 2.5374395528e+00 -4.3949742265e+00 2.5374395528e+00 4.3949742265e+00 
6700 4.7561641563e+00 3.1202873979e-02 2.5367760823e+00 -4.3938250619e+00 2.5367760823e+00 4.3938250619e+00 
6800 4.7535616464e+00 2.8838959084e-02 2.5361610967e+00 -4.3927598757e+00 2.5361610967e+00 4.3927598757e+00 
6900 4.7510801338e+00 2.6575634941e-02 2.5355925626e+00 -4.3917751458e+00 2.5355925626e+00 4.3917751458e+00 
7000 4.7487132618e+00 2.4408658391e-02 2.5350685289e+00 -4.3908674928e+00 2.5350685289e+00 4.3908674928e+00 
7100 4.7464550158e+00 2.2333953696e-02 2.5345871241e+00 -4.3900336751e+00 2.5345871241e+00 4.3900336751e+00 
7200 4.7442997068e+00 2.0347609049e-02 2.5341465532e+00 -4.3892705839e+00 2.5341465532e+00 4.3892705839e+00 
7300 4.7422419555e+00 1.8445872750e-02 2.5337450951e+00 -4.3885752381e+00 2.5337450951e+00 4.3885752381e+00 
7400 4.7402766764e+00 1.6625149090e-02 2.5333810997e+00 -4.3879447796e+00 2.5333810997e+00 4.3879447796e+00 
7500 4.7383990634e+00 1.4881994018e-02 2.5330529850e+00 -4.3873764683e+00 2.5330529850e+00 4.3873764683e+00 
7600 4.7366045753e+00 1.3213110610e-02 2.5327592346e+00 -4.3868676777e+00 2.5327592346e+00 4.3868676777e+00 
7700 4.7348889221e+00 1.1615344411e-02 2.5324983949e+00 -4.3864158901e+00 2.5324983949e+00 4.3864158901e+00 
7800 4.7332480520e+00 1.0085678680e-02 2.5322690726e+00 -4.3860186922e+00 2.5322690726e+00 4.3860186922e+00 
7900 4.7316781388e+00 8.6212295619e-03 2.5320699321e+00 -4.3856737707e+00 2.5320699321e+00 4.3856737707e+00 
8000 4.7301755699e+00 7.2192412405e-03 2.5318996932e+00 -4.3853789084e+00 2.5318996932e+00 4.3853789084e+00 
8100 4.7287369347e+00 5.8770810811e-03 2.5317571289e+00 -4.3851319796e+00 2.5317571289e+00 4.3851319796e+00 
8200 4.7273590137e+00 4.5922348003e-03 2.5316410625e+00 -4.3849309468e+00 2.5316410625e+00 4.3849309468e+00 
8300 4.7260387681e+00 3.3623016802e-03 2.5315503663e+00 -4.3847738563e+00 2.5315503663e+00 4.3847738563e+00 
8400 4.7247733296e+00 2.1849898466e-03 2.5314839586e+00 -4.3846588349e+00 2.5314839586e+00 4.3846588349e+00 
8500 4.7235599908e+00 1.0581116290e-03 2.5314408024e+00 -4.3845840862e+00 2.5314408024e+00 4.3845840862e+00 
8600 4.7223961965e+00 -2.0420983309e-05 2.5314199031e+00 -4.3845478874e+00 2.5314199031e+00 4.3845478874e+00 
8700 4.7212795353e+00 -1.0526935344e-03 2.5314199031e+00 -4.3845478874e+00 2.5314199031e+00 4.3845478874e+00 
8800 4.7202077294e+00 -2.0404245750e-03 2.5314406956e+00 -4.3845839012e+00 2.5314406956e+00 4.3845839012e+00 
8900 4.7191786293e+00 -2.9855186369e-03 2.5314809974e+00 -4.3846537059e+00 2.5314809974e+00 4.3846537059e+00 
9000 4.7181902050e+00 -3.8897087194e-03 2.5315399654e+00 -4.3847558415e+00 2.5315399654e+00 4.3847558415e+00 
9100 4.7172405396e+00 -4.7546489137e-03 2.5316167908e+00 -4.3848889069e+00 2.5316167908e+00 4.3848889069e+00 
9200 4.7163278221e+00 -5.5819182578e-03 2.5317106968e+00 -4.3850515568e+00 2.5317106968e+00 4.3850515568e+00 
9300 4.7154503417e+00 -6.3730244212e-03 2.5318209376e+00 -4.3852424996e+00 2.5318209376e+00 4.3852424996e+00 
9400 4.7146064814e+00 -7.1294072279e-03 2.5319467972e+00 -4.3854604947e+00 2.5319467972e+00 4.3854604947e+00 
9500 4.7137947124e+00 -7.8524420263e-03 2.5320875875e+00 -4.3857043508e+00 2.5320875875e+00 4.3857043508e+00 
9600 4.7130135891e+00 -8.5434429081e-03 2.5322426477e+00 -4.3859729230e+00 2.5322426477e+00 4.3859729230e+00 
9700 4.7122617438e+00 -9.2036657825e-03 2.5324113428e+00 -4.3862651114e+00 2.5324113428e+00 4.3862651114e+00 
9800 4.7115378822e+00 -9.8343113071e-03 2.5325930624e+00 -4.3865798590e+00 2.5325930624e+00 4.3865798590e+00 
9900 4.7108407787e+00 -1.0436527681e-02 2.5327872199e+00 -4.3869161496e+00 2.5327872199e+00 4.3869161496e+00 
10000 4.7101692725e+00 -1.1011413303e-02 2.5329932512e+00 -4.3872730063e+00 2.5329932512e+00 4.3872730063e+00 
10100 4.7095222638e+00 -1.1560019298e-02 2.5332106140e+00 -4.3876494898e+00 2.5332106140e+00 4.3876494898e+00 
10200 4.7088987094e+00 -1.2083351914e-02 2.5334387868e+00 -4.3880446966e+00 2.5334387868e+00 4.3880446966e+00 
10300 4.7082976202e+00 -1.2582374801e-02 2.5336772678e+00 -4.3884577578e+00 2.5336772678e+00 4.3884577578e+00 
10400 4.7077180572e+00 -1.3058011171e-02 2.5339255745e+00 -4.3888878376e+00 2.5339255745e+00 4.3888878376e+00 
10500 4.7071591290e+00 -1.3511145834e-02 2.5341832425e+00 -4.3893341317e+00 2.5341832425e+00 4.3893341317e+00 
10600 4.7066199884e+00 -1.3942627139e-02 2.5344498251e+00 -4.3897958663e+00 2.5344498251e+00 4.3897958663e+00 
10700 4.7060998304e+00 -1.4353268799e-02 2.5347248923e+00 -4.3902722967e+00 2.5347248923e+00 4.3902722967e+00 
10800 4.7055978892e+00 -1.4743851617e-02 2.5350080302e+00 -4.3907627060e+00 2.5350080302e+00 4.3907627060e+00 
10900 4.7051134358e+00 -1.5115125123e-02 2.5352988406e+00 -4.3912664043e+00 2.5352988406e+00 4.3912664043e+00 
11000 4.7046457765e+00 -1.5467809110e-02 2.5355969400e+00 -4.3917827276e+00 2.5355969400e+00 4.3917827276e+00 
11100 4.7041942500e+00 -1.5802595090e-02 2.5359019593e+00 -4.3923110365e+00 2.5359019593e+00 4.3923110365e+00 
11200 4.7037582260e+00 -1.6120147660e-02 2.5362135431e+00 -4.3928507155e+00 2.5362135431e+00 4.3928507155e+00 
11300 4.7033371035e+00 -1.6421105801e-02 2.5365313492e+00 -4.3934011719e+00 2.5365313492e+00 4.3934011719e+00 
11400 4.7029303087e+00 -1.6706084090e-02 2.5368550483e+00 -4.3939618350e+00 2.5368550483e+00 4.3939618350e+00 
11500 4.7025372939e+00 -1.6975673850e-02 2.5371843230e+00 -4.3945321556e+00 2.5371843230e+00 4.3945321556e+00 
11600 4.7021575355e+00 -1.7230444230e-02 2.5375188680e+00 -4.3951116045e+00 2.5375188680e+00 4.3951116045e+00 
11700 4.7017905335e+00 -1.7470943226e-02 2.5378583892e+00 -4.3956996725e+00 2.5378583892e+00 4.3956996725e+00 
11800 4.7014358094e+00 -1.7697698639e-02 2.5382026034e+00 -4.3962958690e+00 2.5382026034e+00 4.3962958690e+00 
11900 4.7010929053e+00 -1.7911218979e-02 2.5385512380e+00 -4.3968997218e+00 2.5385512380e+00 4.3968997218e+00 
12000 4.7007613830e+00 -1.8111994319e-02 2.5389040304e+00 -4.3975107762e+00 2.5389040304e+00 4.3975107762e+00 
12100 4.7004408227e+00 -1.8300497097e-02 2.5392607280e+00 -4.3981285945e+00 2.5392607280e+00 4.3981285945e+00 
12200 4.7001308223e+00 -1.8477182871e-02 2.5396210874e+00 -4.3987527553e+00 2.5396210874e+00 4.3987527553e+00 
12300 4.6998309962e+00 -1.8642491039e-02 2.5399848744e+00 -4.3993828529e+00 2.5399848744e+00 4.3993828529e+00 
12400 4.6995409745e+00 -1.8796845507e-02 2.5403518636e+00 -4.4000184969e+00 2.5403518636e+00 4.4000184969e+00 
12500 4.6992604027e+00 -1.8940655328e-02 2.5407218380e+00 -4.4006593113e+00 2.5407218380e+00 4.4006593113e+00 
12600 4.6989889401e+00 -1.9074315302e-02 2.5410945887e+00 -4.4013049345e+00 2.5410945887e+00 4.4013049345e+00 
12700 4.6987262598e+00 -1.9198206543e-02 2.5414699149e+00 -4.4019550184e+00 2.5414699149e+00 4.4019550184e+00 
12800 4.6984720480e+00 -1.9312697018e-02 2.5418476231e+00 -4.4026092283e+00 2.5418476231e+00 4.4026092283e+00 
12900 4.6982260028e+00 -1.9418142053e-02 2.5422275274e+00 -4.4032672419e+00 2.5422275274e+00 4.4032672419e+00 
13000 4.6979878345e+00 -1.9514884814e-02 2.5426094489e+00 -4.4039287494e+00 2.5426094489e+00 4.4039287494e+00 
13100 4.6977572643e+00 -1.9603256764e-02 2.5429932156e+00 -4.4045934527e+00 2.5429932156e+00 4.4045934527e+00 
13200 4.6975340243e+00 -1.9683578095e-02 2.5433786620e+00 -4.4052610655e+00 2.5433786620e+00 4.4052610655e+00 
13300 4.6973178566e+00 -1.9756158140e-02 2.5437656291e+00 -4.4059313122e+00 2.5437656291e+00 4.4059313122e+00 
13400 4.6971085132e+00 -1.9821295762e-02 2.5441539640e+00 -4.4066039280e+00 2.5441539640e+00 4.4066039280e+00 
13500 4.6969057556e+00 -1.9879279723e-02 2.5445435199e+00 -4.4072786585e+00 2.5445435199e+00 4.4072786585e+00 
13600 4.6967093541e+00 -1.9930389044e-02 2.5449341555e+00 -4.4079552593e+00 2.5449341555e+00 4.4079552593e+00 
13700 4.6965190875e+00 -1.9974893336e-02 2.5453257354e+00 -4.4086334956e+00 2.5453257354e+00 4.4086334956e+00 
13800 4.6963347430e+00 -2.0013053125e-02 2.5457181293e+00 -4.4093131418e+00 2.5457181293e+00 4.4093131418e+00 
13900 4.6961561156e+00 -2.0045120157e-02 2.5461112123e+00 -4.4099939814e+00 2.5461112123e+00 4.4099939814e+00 
14000 4.6959830079e+00 -2.0071337693e-02 2.5465048643e+00 -4.4106758067e+00 2.5465048643e+00 4.4106758067e+00 
14100 4.6958152297e+00 -2.0091940791e-02 2.5468989703e+00 -4.4113584183e+00 2.5468989703e+00 4.4113584183e+00 
14200 4.6956525978e+00 -2.0107156576e-02 2.5472934198e+00 -4.4120416248e+00 2.5472934198e+00 4.4120416248e+00 
14300 4.6954949357e+00 -2.0117204492e-02 2.5476881068e+00 -4.4127252429e+00 2.5476881068e+00 4.4127252429e+00 
14400 4.6953420734e+00 -2.0122296561e-02 2.5480829300e+00 -4.4134090966e+00 2.5480829300e+00 4.4134090966e+00 
14500 4.6951938468e+00 -2.0122637612e-02 2.5484777918e+00 -4.4140930174e+00 2.5484777918e+00 4.4140930174e+00 
14600 4.6950500982e+00 -2.0118425515e-02 2.5488725992e+00 -4.4147768439e+00 2.5488725992e+00 4.4147768439e+00 
14700 4.6949106752e+00 -2.0109851402e-02 2.5492672628e+00 -4.4154604213e+00 2.5492672628e+00 4.4154604213e+00 
14800 4.6947754312e+00 -2.0097099876e-02 2.5496616971e+00 -4.4161436016e+00 2.5496616971e+00 4.4161436016e+00 
14900 4.6946442246e+00 -2.0080349223e-02 2.5500558204e+00 -4.4168262430e+00 2.5500558204e+00 4.4168262430e+00 
15000 4.6945169192e+00 -2.0059771604e-02 2.5504495542e+00 -4.4175082100e+00 2.5504495542e+00 4.4175082100e+00 
15100 4.6943933835e+00 -2.0035533249e-02 2.5508428238e+00 -4.4181893730e+00 2.5508428238e+00 4.4181893730e+00 
15200 4.6942734907e+00 -2.0007794641e-02 2.5512355577e+00 -4.4188696080e+00 2.5512355577e+00 4.4188696080e+00 
15300 4.6941571188e+00 -1.9976710700e-02 2.5516276875e+00 -4.4195487967e+00 2.5516276875e+00 4.4195487967e+00 
15400 4.6940441498e+00 -1.9942430947e-02 2.5520191478e+00 -4.4202268259e+00 2.5520191478e+00 4.4202268259e+00 
15500 4.6939344703e+00 -1.9905099680e-02 2.5524098765e+00 -4.4209035878e+00 2.5524098765e+00 4.4209035878e+00 
15600 4.6938279707e+00 -1.9864856135e-02 2.5527998139e+00 -4.4215789793e+00 2.5527998139e+00 4.4215789793e+00 
15700 4.6937245453e+00 -1.9821834639e-02 2.5531889036e+00 -4.4222529024e+00 2.5531889036e+00 4.4222529024e+00 
15800 4.6936240924e+00 -1.9776164770e-02 2.5535770914e+00 -4.4229252634e+00 2.5535770914e+00 4.4229252634e+00 
15900 4.6935265138e+00 -1.9727971500e-02 2.5539643260e+00 -4.4235959733e+00 2.5539643260e+00 4.4235959733e+00 
16000 4.6934317147e+00 -1.9677375341e-02 2.5543505582e+00 -4.4242649472e+00 2.5543505582e+00 4.4242649472e+00 
16100 4.6933396038e+00 -1.9624492484e-02 2.5547357417e+00 -4.4249321045e+00 2.5547357417e+00 4.4249321045e+00 
16200 4.6932500931e+00 -1.9569434939e-02 2.5551198320e+00 -4.4255973684e+00 2.5551198320e+00 4.4255973684e+00 
16300 4.6931630975e+00 -1.9512310659e-02 2.5555027871e+00 -4.4262606661e+00 2.5555027871e+00 4.4262606661e+00 
16400 4.6930785351e+00 -1.9453223677e-02 2.5558845670e+00 -4.4269219284e+00 2.5558845670e+00 4.4269219284e+00 
16500 4.6929963270e+00 -1.9392274222e-02 2.5562651340e+00 -4.4275810898e+00 2.5562651340e+00 4.4275810898e+00 
16600 4.6929163968e+00 -1.9329558848e-02 2.5566444522e+00 -4.4282380880e+00 2.5566444522e+00 4.4282380880e+00 
16700 4.6928386710e+00 -1.9265170547e-02 2.5570224874e+00 -4.4288928643e+00 2.5570224874e+00 4.4288928643e+00 
16800 4.6927630788e+00 -1.9199198863e-02 2.5573992077e+00 -4.4295453630e+00 2.5573992077e+00 4.4295453630e+00 
16900 4.6926895516e+00 -1.9131730006e-02 2.5577745826e+00 -4.4301955313e+00 2.5577745826e+00 4.4301955313e+00 
17000 4.6926180235e+00 -1.9062846958e-02 2.5581485834e+00 -4.4308433198e+00 2.5581485834e+00 4.4308433198e+00 
17100 4.6925484308e+00 -1.8992629581e-02 2.5585211831e+00 -4.4314886814e+00 2.5585211831e+00 4.4314886814e+00 
17200 4.6924807121e+00 -1.8921154712e-02 2.5588923563e+00 -4.4321315722e+00 2.5588923563e+00 4.4321315722e+00 
17300 4.6924148080e+00 -1.8848496271e-02 2.5592620790e+00 -4.4327719507e+00 2.5592620790e+00 4.4327719507e+00 
17400 4.6923506613e+00 -1.8774725352e-02 2.5596303286e+00 -4.4334097778e+00 2.5596303286e+00 4.4334097778e+00 
17500 4.6922882169e+00 -1.8699910318e-02 2.5599970842e+00 -4.4340450171e+00 2.5599970842e+00 4.4340450171e+00 
17600 4.6922274215e+00 -1.8624116893e-02 2.5603623259e+00 -4.4346776343e+00 2.5603623259e+00 4.4346776343e+00 
17700 4.6921682236e+00 -1.8547408247e-02 2.5607260354e+00 -4.4353075975e+00 2.5607260354e+00 4.4353075975e+00 
17800 4.6921105737e+00 -1.8469845089e-02 2.5610881952e+00 -4.4359348768e+00 2.5610881952e+00 4.4359348768e+00 
17900 4.6920544238e+00 -1.8391485741e-02 2.5614487896e+00 -4.4365594446e+00 2.5614487896e+00 4.4365594446e+00 
18000 4.6919997278e+00 -1.8312386228e-02 2.5618078035e+00 -4.4371812749e+00 2.5618078035e+00 4.4371812749e+00 
18100 4.6919464409e+00 -1.8232600349e-02 2.5621652232e+00 -4.4378003440e+00 2.5621652232e+00 4.4378003440e+00 
18200 4.6918945202e+00 -1.8152179761e-02 2.5625210360e+00 -4.4384166298e+00 2.5625210360e+00 4.4384166298e+00 
18300 4.6918439239e+00 -1.8071174045e-02 2.5628752301e+00 -4.4390301120e+00 2.5628752301e+00 4.4390301120e+00 
18400 4.6917946120e+00 -1.7989630784e-02 2.5632277948e+00 -4.4396407721e+00 2.5632277948e+00 4.4396407721e+00 
18500 4.6917465457e+00 -1.7907595631e-02 2.5635787204e+00 -4.4402485929e+00 2.5635787204e+00 4.4402485929e+00 
18600 4.6916996874e+00 -1.7825112376e-02 2.5639279978e+00 -4.4408535591e+00 2.5639279978e+00 4.4408535591e+00 
18700 4.6916540010e+00 -1.7742223012e-02 2.5642756190e+00 -4.4414556567e+00 2.5642756190e+00 4.4414556567e+00 
18800 4.6916094516e+00 -1.7658967798e-02 2.5646215768e+00 -4.4420548731e+00 2.5646215768e+00 4.4420548731e+00 
18900 4.6915660053e+00 -1.7575385321e-02 2.5649658646e+00 -4.4426511973e+00 2.5649658646e+00 4.4426511973e+00 
19000 4.6915236296e+00 -1.7491512559e-02 2.5653084769e+00 -4.4432446191e+00 2.5653084769e+00 4.4432446191e+00 
19100 4.6914822929e+00 -1.7407384931e-02 2.5656494086e+00 -4.4438351302e+00 2.5656494086e+00 4.4438351302e+00 
19200 4.6914419648e+00 -1.7323036362e-02 2.5659886555e+00 -4.4444227229e+00 2.5659886555e+00 4.4444227229e+00 
19300 4.6914026159e+00 -1.7238499331e-02 2.5663262138e+00 -4.4450073911e+00 2.5663262138e+00 4.4450073911e+00 
19400 4.6913642176e+00 -1.7153804928e-02 2.5666620806e+00 -4.4455891294e+00 2.5666620806e+00 4.4455891294e+00 
19500 4.6913267425e+00 -1.7068982901e-02 2.5669962535e+00 -4.4461679338e+00 2.5669962535e+00 4.4461679338e+00 
19600 4.6912901640e+00 -1.6984061706e-02 2.5673287306e+00 -4.4467438011e+00 2.5673287306e+00 4.4467438011e+00 
19700 4.6912544564e+00 -1.6899068559e-02 2.5676595107e+00 -4.4473167291e+00 2.5676595107e+00 4.4473167291e+00 
19800 4.6912195948e+00 -1.6814029475e-02 2.5679885931e+00 -4.4478867165e+00 2.5679885931e+00 4.4478867165e+00 
19900 4.6911855552e+00 -1.6728969319e-02 2.5683159775e+00 -4.4484537629e+00 2.5683159775e+00 4.4484537629e+00 
20000 4.6911523142e+00 -1.6643911846e-02 2.5686416641e+00 -4.4490178686e+00 2.5686416641e+00 4.4490178686e+00 
20100 4.6911198495e+00 -1.6558879742e-02 2.5689656536e+00 -4.4495790350e+00 2.5689656536e+00 4.4495790350e+00 
20200 4.6910881393e+00 -1.6473894667e-02 2.5692879473e+00 -4.4501372640e+00 2.5692879473e+00 4.4501372640e+00 
20300 4.6910571625e+00 -1.6388977290e-02 2.5696085466e+00 -4.4506925582e+00 2.5696085466e+00 4.4506925582e+00 
20400 4.6910268986e+00 -1.6304147332e-02 2.5699274534e+00 -4.4512449211e+00 2.5699274534e+00 4.4512449211e+00 
20500 4.6909973281e+00 -1.6219423596e-02 2.5702446702e+00 -4.4517943567e+00 2.5702446702e+00 4.4517943567e+00 
20600 4.6909684318e+00 -1.6134824008e-02 2.5705601996e+00 -4.4523408697e+00 2.5705601996e+00 4.4523408697e+00 
20700 4.6909401911e+00 -1.6050365647e-02 2.5708740447e+00 -4.4528844652e+00 2.5708740447e+00 4.4528844652e+00 
20800 4.6909125883e+00 -1.5966064779e-02 2.5711862088e+00 -4.4534251493e+00 2.5711862088e+00 4.4534251493e+00 
20900 4.6908856060e+00 -1.5881936888e-02 2.5714966955e+00 -4.4539629282e+00 2.5714966955e+00 4.4539629282e+00 
21000 4.6908592275e+00 -1.5797996707e-02 2.5718055090e+00 -4.4544978087e+00 2.5718055090e+00 4.4544978087e+00 
21100 4.6908334363e+00 -1.5714258247e-02 2.5721126533e+00 -4.4550297984e+00 2.5721126533e+00 4.4550297984e+00 
21200 4.6908082169e+00 -1.5630734828e-02 2.5724181331e+00 -4.4555589049e+00 2.5724181331e+00 4.4555589049e+00 
21300 4.6907835540e+00 -1.5547439099e-02 2.5727219531e+00 -4.4560851366e+00 2.5727219531e+00 4.4560851366e+00 
21400 4.6907594327e+00 -1.5464383074e-02 2.5730241184e+00 -4.4566085022e+00 2.5730241184e+00 4.4566085022e+00 
21500 4.6907358388e+00 -1.5381578150e-02 2.5733246341e+00 -4.4571290107e+00 2.5733246341e+00 4.4571290107e+00 
21600 4.6907127583e+00 -1.5299035134e-02 2.5736235058e+00 -4.4576466716e+00 2.5736235058e+00 4.4576466716e+00 
21700 4.6906901779e+00 -1.5216764268e-02 2.5739207390e+00 -4.4581614946e+00 2.5739207390e+00 4.4581614946e+00 
21800 4.6906680844e+00 -1.5134775249e-02 2.5742163397e+00 -4.4586734901e+00 2.5742163397e+00 4.4586734901e+00 
21900 4.6906464652e+00 -1.5053077252e-02 2.5745103139e+00 -4.4591826683e+00 2.5745103139e+00 4.4591826683e+00 
22000 4.6906253081e+00 -1.4971678953e-02 2.5748026678e+00 -4.4596890401e+00 2.5748026678e+00 4.4596890401e+00 
22100 4.6906046011e+00 -1.4890588545e-02 2.5750934078e+00 -4.4601926165e+00 2.5750934078e+00 4.4601926165e+00 
22200 4.6905843327e+00 -1.4809813764e-02 2.5753825403e+00 -4.4606934088e+00 2.5753825403e+00 4.4606934088e+00 
22300 4.6905644917e+00 -1.4729361900e-02 2.5756700722e+00 -4.4611914285e+00 2.5756700722e+00 4.4611914285e+00 
22400 4.6905450673e+00 -1.4649239820e-02 2.5759560101e+00 -4.4616866875e+00 2.5759560101e+00 4.4616866875e+00 
22500 4.6905260488e+00 -1.4569453987e-02 2.5762403610e+00 -4.4621791978e+00 2.5762403610e+00 4.4621791978e+00 
22600 4.6905074262e+00 -1.4490010471e-02 2.5765231320e+00 -4.4626689715e+00 2.5765231320e+00 4.4626689715e+00 
22700 4.6904891894e+00 -1.4410914970e-02 2.5768043302e+00 -4.4631560211e+00 2.5768043302e+00 4.4631560211e+00 
22800 4.6904713288e+00 -1.4332172824e-02 2.5770839629e+00 -4.4636403591e+00 2.5770839629e+00 4.4636403591e+00 
22900 4.6904538350e+00 -1.4253789029e-02 2.5773620375e+00 -4.4641219984e+00 2.5773620375e+00 4.4641219984e+00 
23000 4.6904366990e+00 -1.4175768253e-02 2.5776385614e+00 -4.4646009519e+00 2.5776385614e+00 4.4646009519e+00 
23100 4.6904199119e+00 -1.4098114848e-02 2.5779135421e+00 -4.4650772325e+00 2.5779135421e+00 4.4650772325e+00 
23200 4.6904034652e+00 -1.4020832867e-02 2.5781869874e+00 -4.4655508536e+00 2.5781869874e+00 4.4655508536e+00 
23300 4.6903873506e+00 -1.3943926070e-02 2.5784589048e+00 -4.4660218284e+00 2.5784589048e+00 4.4660218284e+00 
23400 4.6903715599e+00 -1.3867397943e-02 2.5787293022e+00 -4.4664901703e+00 2.5787293022e+00 4.4664901703e+00 
23500 4.6903560853e+00 -1.3791251706e-02 2.5789981873e+00 -4.4669558930e+00 2.5789981873e+00 4.4669558930e+00 
23600 4.6903409192e+00 -1.3715490327e-02 2.5792655681e+00 -4.4674190101e+00 2.5792655681e+00 4.4674190101e+00 
23700 4.6903260541e+00 -1.3640116529e-02 2.5795314524e+00 -4.4678795353e+00 2.5795314524e+00 4.4678795353e+00 
23800 4.6903114829e+00 -1.3565132805e-02 2.5797958483e+00 -4.4683374823e+00 2.5797958483e+00 4.4683374823e+00 
23900 4.6902971985e+00 -1.3490541424e-02 2.5800587637e+00 -4.4687928652e+00 2.5800587637e+00 4.4687928652e+00 
24000 4.6902831942e+00 -1.3416344444e-02 2.5803202068e+00 -4.4692456979e+00 2.5803202068e+00 4.4692456979e+00 
24100 4.6902694632e+00 -1.3342543718e-02 2.5805801855e+00 -4.4696959944e+00 2.5805801855e+00 4.4696959944e+00 
24200 4.6902559992e+00 -1.3269140907e-02 2.5808387081e+00 -4.4701437686e+00 2.5808387081e+00 4.4701437686e+00 
24300 4.6902427959e+00 -1.3196137484e-02 2.5810957827e+00 -4.4705890349e+00 2.5810957827e+00 4.4705890349e+00 
24400 4.6902298472e+00 -1.3123534746e-02 2.5813514175e+00 -4.4710318073e+00 2.5813514175e+00 4.4710318073e+00 
24500 4.6902171472e+00 -1.3051333818e-02 2.5816056206e+00 -4.4714720999e+00 2.5816056206e+00 4.4714720999e+00 
24600 4.6902046901e+00 -1.2979535666e-02 2.5818584002e+00 -4.4719099271e+00 2.5818584002e+00 4.4719099271e+00 
24700 4.6901924703e+00 -1.2908141099e-02 2.5821097646e+00 -4.4723453030e+00 2.5821097646e+00 4.4723453030e+00 
24800 4.6901804823e+00 -1.2837150779e-02 2.5823597220e+00 -4.4727782420e+00 2.5823597220e+00 4.4727782420e+00 
24900 4.6901687209e+00 -1.2766565226e-02 2.5826082807e+00 -4.4732087582e+00 2.5826082807e+00 4.4732087582e+00 
25000 4.6901571809e+00 -1.2696384825e-02 2.5828554488e+00 -4.4736368659e+00 2.5828554488e+00 4.4736368659e+00 
25100 4.6901458572e+00 -1.2626609834e-02 2.5831012346e+00 -4.4740625795e+00 2.5831012346e+00 4.4740625795e+00 
25200 4.6901347449e+00 -1.2557240387e-02 2.5833456465e+00 -4.4744859132e+00 2.5833456465e+00 4.4744859132e+00 
25300 4.6901238394e+00 -1.2488276501e-02 2.5835886925e+00 -4.4749068812e+00 2.5835886925e+00 4.4749068812e+00 
25400 4.6901131359e+00 -1.2419718080e-02 2.5838303809e+00 -4.4753254979e+00 2.5838303809e+00 4.4753254979e+00 
25500 4.6901026299e+00 -1.2351564925e-02 2.5840707200e+00 -4.4757417775e+00 2.5840707200e+00 4.4757417775e+00 
25600 4.6900923171e+00 -1.2283816733e-02 2.5843097181e+00 -4.4761557342e+00 2.5843097181e+00 4.4761557342e+00 
25700 4.6900821930e+00 -1.2216473104e-02 2.5845473832e+00 -4.4765673822e+00 2.5845473832e+00 4.4765673822e+00 
25800 4.6900722537e+00 -1.2149533548e-02 2.5847837236e+00 -4.4769767358e+00 2.5847837236e+00 4.4769767358e+00 
25900 4.6900624950e+00 -1.2082997486e-02 2.5850187474e+00 -4.4773838091e+00 2.5850187474e+00 4.4773838091e+00 
26000 4.6900529129e+00 -1.2016864256e-02 2.5852524630e+00 -4.4777886162e+00 2.5852524630e+00 4.4777886162e+00 
26100 4.6900435035e+00 -1.1951133116e-02 2.5854848782e+00 -4.4781911713e+00 2.5854848782e+00 4.4781911713e+00 
26200 4.6900342632e+00 -1.1885803249e-02 2.5857160015e+00 -4.4785914885e+00 2.5857160015e+00 4.4785914885e+00 
26300 4.6900251883e+00 -1.1820873766e-02 2.5859458407e+00 -4.4789895817e+00 2.5859458407e+00 4.4789895817e+00 
26400 4.6900162751e+00 -1.1756343712e-02 2.5861744040e+00 -4.4793854650e+00 2.5861744040e+00 4.4793854650e+00 
26500 4.6900075203e+00 -1.1692212064e-02 2.5864016995e+00 -4.4797791523e+00 2.5864016995e+00 4.4797791523e+00 
26600 4.6899989203e+00 -1.1628477739e-02 2.5866277352e+00 -4.4801706576e+00 2.5866277352e+00 4.4801706576e+00 
26700 4.6899904720e+00 -1.1565139595e-02 2.5868525191e+00 -4.4805599948e+00 2.5868525191e+00 4.4805599948e+00 
26800 4.6899821720e+00 -1.1502196438e-02 2.5870760592e+00 -4.4809471776e+00 2.5870760592e+00 4.4809471776e+00 
26900 4.6899740173e+00 -1.1439647016e-02 2.5872983635e+00 -4.4813322199e+00 2.5872983635e+00 4.4813322199e+00 
27000 4.6899660048e+00 -1.1377490032e-02 2.5875194399e+00 -4.4817151354e+00 2.5875194399e+00 4.4817151354e+00 
27100 4.6899581314e+00 -1.1315724139e-02 2.5877392962e+00 -4.4820959378e+00 2.5877392962e+00 4.4820959378e+00 
27200 4.6899503943e+00 -1.1254347949e-02 2.5879579404e+00 -4.4824746406e+00 2.5879579404e+00 4.4824746406e+00 
27300 4.6899427906e+00 -1.1193360027e-02 2.5881753803e+00 -4.4828512576e+00 2.5881753803e+00 4.4828512576e+00 
27400 4.6899353176e+00 -1.1132758904e-02 2.5883916237e+00 -4.4832258021e+00 2.5883916237e+00 4.4832258021e+00 
27500 4.6899279725e+00 -1.1072543069e-02 2.5886066783e+00 -4.4835982877e+00 2.5886066783e+00 4.4835982877e+00 
27600 4.6899207527e+00 -1.1012710977e-02 2.5888205520e+00 -4.4839687277e+00 2.5888205520e+00 4.4839687277e+00 
27700 4.6899136556e+00 -1.0953261051e-02 2.5890332523e+00 -4.4843371355e+00 2.5890332523e+00 4.4843371355e+00 
27800 4.6899066787e+00 -1.0894191681e-02 2.5892447871e+00 -4.4847035245e+00 2.5892447871e+00 4.4847035245e+00 
27900 4.6898998196e+00 -1.0835501229e-02 2.5894551639e+00 -4.4850679077e+00 2.5894551639e+00 4.4850679077e+00 
28000 4.6898930758e+00 -1.0777188028e-02 2.5896643903e+00 -4.4854302985e+00 2.5896643903e+00 4.4854302985e+00 
28100 4.6898864450e+00 -1.0719250386e-02 2.5898724738e+00 -4.4857907098e+00 2.5898724738e+00 4.4857907098e+00 
28200 4.6898799250e+00 -1.0661686586e-02 2.5900794221e+00 -4.4861491547e+00 2.5900794221e+00 4.4861491547e+00 
28300 4.6898735135e+00 -1.0604494889e-02 2.5902852426e+00 -4.4865056463e+00 2.5902852426e+00 4.4865056463e+00 
28400 4.6898672083e+00 -1.0547673534e-02 2.5904899427e+00 -4.4868601973e+00 2.5904899427e+00 4.4868601973e+00 
28500 4.6898610074e+00 -1.0491220742e-02 2.5906935299e+00 -4.4872128207e+00 2.5906935299e+00 4.4872128207e+00 
28600 4.6898549085e+00 -1.0435134713e-02 2.5908960116e+00 -4.4875635291e+00 2.5908960116e+00 4.4875635291e+00 
28700 4.6898489098e+00 -1.0379413632e-02 2.5910973950e+00 -4.4879123355e+00 2.5910973950e+00 4.4879123355e+00 
28800 4.6898430092e+00 -1.0324055667e-02 2.5912976875e+00 -4.4882592522e+00 2.5912976875e+00 4.4882592522e+00 
28900 4.6898372048e+00 -1.0269058972e-02 2.5914968963e+00 -4.4886042921e+00 2.5914968963e+00 4.4886042921e+00 
29000 4.6898314947e+00 -1.0214421687e-02 2.5916950287e+00 -4.4889474674e+00 2.5916950287e+00 4.4889474674e+00 
29100 4.6898258771e+00 -1.0160141942e-02 2.5918920918e+00 -4.4892887908e+00 2.5918920918e+00 4.4892887908e+00 
29200 4.6898203502e+00 -1.0106217852e-02 2.5920880929e+00 -4.4896282745e+00 2.5920880929e+00 4.4896282745e+00 
29300 4.6898149122e+00 -1.0052647524e-02 2.5922830389e+00 -4.4899659309e+00 2.5922830389e+00 4.4899659309e+00 
29400 4.6898095613e+00 -9.9994290566e-03 2.5924769369e+00 -4.4903017722e+00 2.5924769369e+00 4.4903017722e+00 
29500 4.6898042960e+00 -9.9465605375e-03 2.5926697941e+00 -4.4906358105e+00 2.5926697941e+00 4.4906358105e+00 
29600 4.6897991145e+00 -9.8940400488e-03 2.5928616172e+00 -4.4909680580e+00 2.5928616172e+00 4.4909680580e+00 
29700 4.6897940153e+00 -9.8418656655e-03 2.5930524134e+00 -4.4912985267e+00 2.5930524134e+00 4.4912985267e+00 
29800 4.6897889967e+00 -9.7900354567e-03 2.5932421895e+00 -4.4916272285e+00 2.5932421895e+00 4.4916272285e+00 
29900 4.6897840574e+00 -9.7385474865e-03 2.5934309523e+00 -4.4919541753e+00 2.5934309523e+00 4.4919541753e+00 
30000 4.6897791957e+00 -9.6873998148e-03 2.5936187087e+00 -4.4922793789e+00 2.5936187087e+00 4.4922793789e+00 
30100 4.6897744101e+00 -9.6365904978e-03 2.5938054654e+00 -4.4926028511e+00 2.5938054654e+00 4.4926028511e+00 
30200 4.6897696994e+00 -9.5861175889e-03 2.5939912293e+00 -4.4929246035e+00 2.5939912293e+00 4.4929246035e+00 
30300 4.6897650620e+00 -9.5359791392e-03 2.5941760069e+00 -4.4932446478e+00 2.5941760069e+00 4.4932446478e+00 
30400 4.6897604965e+00 -9.4861731982e-03 2.5943598050e+00 -4.4935629954e+00 2.5943598050e+00 4.4935629954e+00 
30500 4.6897560017e+00 -9.4366978140e-03 2.5945426302e+00 -4.4938796578e+00 2.5945426302e+00 4.4938796578e+00 
30600 4.6897515763e+00 -9.3875510347e-03 2.5947244890e+00 -4.4941946465e+00 2.5947244890e+00 4.4941946465e+00 
30700 4.6897472189e+00 -9.3387309082e-03 2.5949053879e+00 -4.4945079727e+00 2.5949053879e+00 4.4945079727e+00 
30800 4.6897429283e+00 -9.2902354828e-03 2.5950853336e+00 -4.4948196477e+00 2.5950853336e+00 4.4948196477e+00 
30900 4.6897387032e+00 -9.2420628080e-03 2.5952643324e+00 -4.4951296827e+00 2.5952643324e+00 4.4951296827e+00 
31000 4.6897345426e+00 -9.1942109348e-03 2.5954423907e+00 -4.4954380888e+00 2.5954423907e+00 4.4954380888e+00 
31100 4.6897304451e+00 -9.1466779162e-03 2.5956195149e+00 -4.4957448770e+00 2.5956195149e+00 4.4957448770e+00 
31200 4.6897264096e+00 -9.0994618073e-03 2.5957957114e+00 -4.4960500583e+00 2.5957957114e+00 4.4960500583e+00 
31300 4.6897224351e+00 -9.0525606662e-03 2.5959709865e+00 -4.4963536436e+00 2.5959709865e+00 4.4963536436e+00 
31400 4.6897185204e+00 -9.0059725542e-03 2.5961453463e+00 -4.4966556437e+00 2.5961453463e+00 4.4966556437e+00 
31500 4.6897146644e+00 -8.9596955359e-03 2.5963187972e+00 -4.4969560694e+00 2.5963187972e+00 4.4969560694e+00 
31600 4.6897108661e+00 -8.9137276798e-03 2.5964913452e+00 -4.4972549314e+00 2.5964913452e+00 4.4972549314e+00 
31700 4.6897071245e+00 -8.8680670588e-03 2.5966629966e+00 -4.4975522402e+00 2.5966629966e+00 4.4975522402e+00 
31800 4.6897034385e+00 -8.8227117502e-03 2.5968337574e+00 -4.4978480066e+00 2.5968337574e+00 4.4978480066e+00 
31900 4.6896998071e+00 -8.7776598359e-03 2.5970036336e+00 -4.4981422409e+00 2.5970036336e+00 4.4981422409e+00 
32000 4.6896962295e+00 -8.7329094034e-03 2.5971726314e+00 -4.4984349536e+00 2.5971726314e+00 4.4984349536e+00 
32100 4.6896927045e+00 -8.6884585450e-03 2.5973407566e+00 -4.4987261550e+00 2.5973407566e+00 4.4987261550e+00 
32200 4.6896892314e+00 -8.6443053590e-03 2.5975080152e+00 -4.4990158554e+00 2.5975080152e+00 4.4990158554e+00 
32300 4.6896858091e+00 -8.6004479494e-03 2.5976744131e+00 -4.4993040650e+00 2.5976744131e+00 4.4993040650e+00 
32400 4.6896824368e+00 -8.5568844266e-03 2.5978399562e+00 -4.4995907940e+00 2.5978399562e+00 4.4995907940e+00 
32500 4.6896791137e+00 -8.5136129068e-03 2.5980046502e+00 -4.4998760524e+00 2.5980046502e+00 4.4998760524e+00 
32600 4.6896758389e+00 -8.4706315133e-03 2.5981685010e+00 -4.5001598503e+00 2.5981685010e+00 4.5001598503e+00 
32700 4.6896726114e+00 -8.4279383758e-03 2.5983315143e+00 -4.5004421976e+00 2.5983315143e+00 4.5004421976e+00 
32800 4.6896694306e+00 -8.3855316310e-03 2.5984936958e+00 -4.5007231042e+00 2.5984936958e+00 4.5007231042e+00 
32900 4.6896662956e+00 -8.3434094227e-03 2.5986550511e+00 -4.5010025799e+00 2.5986550511e+00 4.5010025799e+00 
33000 4.6896632056e+00 -8.3015699020e-03 2.5988155860e+00 -4.5012806345e+00 2.5988155860e+00 4.5012806345e+00 
33100 4.6896601599e+00 -8.2600112275e-03 2.5989753060e+00 -4.5015572776e+00 2.5989753060e+00 4.5015572776e+00 
33200 4.6896571576e+00 -8.2187315652e-03 2.5991342166e+00 -4.5018325189e+00 2.5991342166e+00 4.5018325189e+00 
33300 4.6896541981e+00 -8.1777290889e-03 2.5992923234e+00 -4.5021063678e+00 2.5992923234e+00 4.5021063678e+00 
33400 4.6896512807e+00 -8.1370019804e-03 2.5994496318e+00 -4.5023788340e+00 2.5994496318e+00 4.5023788340e+00 
33500 4.6896484045e+00 -8.0965484294e-03 2.5996061473e+00 -4.5026499268e+00 2.5996061473e+00 4.5026499268e+00 
33600 4.6896455690e+00 -8.0563666335e-03 2.5997618753e+00 -4.5029196556e+00 2.5997618753e+00 4.5029196556e+00 
33700 4.6896427734e+00 -8.0164547988e-03 2.5999168212e+00 -4.5031880297e+00 2.5999168212e+00 4.5031880297e+00 
33800 4.6896400170e+00 -7.9768111395e-03 2.6000709902e+00 -4.5034550584e+00 2.6000709902e+00 4.5034550584e+00 
33900 4.6896372993e+00 -7.9374338785e-03 2.6002243878e+00 -4.5037207507e+00 2.6002243878e+00 4.5037207507e+00 
34000 4.6896346195e+00 -7.8983212469e-03 2.6003770190e+00 -4.5039851158e+00 2.6003770190e+00 4.5039851158e+00 
34100 4.6896319770e+00 -7.8594714846e-03 2.6005288893e+00 -4.5042481628e+00 2.6005288893e+00 4.5042481628e+00 
34200 4.6896293712e+00 -7.8208828400e-03 2.6006800037e+00 -4.5045099006e+00 2.6006800037e+00 4.5045099006e+00 
34300 4.6896268015e+00 -7.7825535705e-03 2.6008303674e+00 -4.5047703382e+00 2.6008303674e+00 4.5047703382e+00 
34400 4.6896242674e+00 -7.7444819420e-03 2.6009799856e+00 -4.5050294845e+00 2.6009799856e+00 4.5050294845e+00 
34500 4.6896217681e+00 -7.7066662295e-03 2.6011288632e+00 -4.5052873481e+00 2.6011288632e+00 4.5052873481e+00 
34600 4.6896193032e+00 -7.6691047169e-03 2.6012770054e+00 -4.5055439379e+00 2.6012770054e+00 4.5055439379e+00 
34700 4.6896168720e+00 -7.6317956971e-03 2.6014244172e+00 -4.5057992626e+00 2.6014244172e+00 4.5057992626e+00 
34800 4.6896144741e+00 -7.5947374720e-03 2.6015711035e+00 -4.5060533308e+00 2.6015711035e+00 4.5060533308e+00 
34900 4.6896121089e+00 -7.5579283526e-03 2.6017170693e+00 -4.5063061510e+00 2.6017170693e+00 4.5063061510e+00 
35000 4.6896097758e+00 -7.5213666591e-03 2.6018623195e+00 -4.5065577317e+00 2.6018623195e+00 4.5065577317e+00 
35100 4.6896074744e+00 -7.4850507207e-03 2.6020068590e+00 -4.5068080814e+00 2.6020068590e+00 4.5068080814e+00 
35200 4.6896052041e+00 -7.4489788760e-03 2.6021506926e+00 -4.5070572085e+00 2.6021506926e+00 4.5070572085e+00 
35300 4.6896029644e+00 -7.4131494727e-03 2.6022938251e+00 -4.5073051213e+00 2.6022938251e+00 4.5073051213e+00 
35400 4.6896007548e+00 -7.3775608678e-03 2.6024362613e+00 -4.5075518280e+00 2.6024362613e+00 4.5075518280e+00 
35500 4.6895985748e+00 -7.3422114276e-03 2.6025780059e+00 -4.5077973369e+00 2.6025780059e+00 4.5077973369e+00 
35600 4.6895964241e+00 -7.3070995277e-03 2.6027190637e+00 -4.5080416562e+00 2.6027190637e+00 4.5080416562e+00 
35700 4.6895943020e+00 -7.2722235530e-03 2.6028594393e+00 -4.5082847939e+00 2.6028594393e+00 4.5082847939e+00 
35800 4.6895922082e+00 -7.2375818977e-03 2.6029991374e+00 -4.5085267580e+00 2.6029991374e+00 4.5085267580e+00 
35900 4.6895901422e+00 -7.2031729653e-03 2.6031381625e+00 -4.5087675566e+00 2.6031381625e+00 4.5087675566e+00 
36000 4.6895881035e+00 -7.1689951689e-03 2.6032765193e+00 -4.5090071976e+00 2.6032765193e+00 4.5090071976e+00 
36100 4.6895860917e+00 -7.1350469306e-03 2.6034142123e+00 -4.5092456889e+00 2.6034142123e+00 4.5092456889e+00 
36200 4.6895841065e+00 -7.1013266821e-03 2.6035512460e+00 -4.5094830382e+00 2.6035512460e+00 4.5094830382e+00 
36300 4.6895821473e+00 -7.0678328644e-03 2.6036876249e+00 -4.5097192533e+00 2.6036876249e+00 4.5097192533e+00 
36400 4.6895802138e+00 -7.0345639279e-03 2.6038233534e+00 -4.5099543421e+00 2.6038233534e+00 4.5099543421e+00 
36500 4.6895783056e+00 -7.0015183323e-03 2.6039584360e+00 -4.5101883120e+00 2.6039584360e+00 4.5101883120e+00 
36600 4.6895764223e+00 -6.9686945466e-03 2.6040928771e+00 -4.5104211707e+00 2.6040928771e+00 4.5104211707e+00 
36700 4.6895745634e+00 -6.9360910492e-03 2.6042266810e+00 -4.5106529259e+00 2.6042266810e+00 4.5106529259e+00 
36800 4.6895727287e+00 -6.9037063279e-03 2.6043598520e+00 -4.5108835848e+00 2.6043598520e+00 4.5108835848e+00 
36900 4.6895709177e+00 -6.8715388797e-03 2.6044923944e+00 -4.5111131551e+00 2.6044923944e+00 4.5111131551e+00 
37000 4.6895691300e+00 -6.8395872110e-03 2.6046243126e+00 -4.5113416440e+00 2.6046243126e+00 4.5113416440e+00 
37100 4.6895673654e+00 -6.8078498375e-03 2.6047556107e+00 -4.5115690590e+00 2.6047556107e+00 4.5115690590e+00 
37200 4.6895656234e+00 -6.7763252840e-03 2.6048862929e+00 -4.5117954073e+00 2.6048862929e+00 4.5117954073e+00 
37300 4.6895639037e+00 -6.7450120847e-03 2.6050163635e+00 -4.5120206962e+00 2.6050163635e+00 4.5120206962e+00 
37400 4.6895622060e+00 -6.7139087831e-03 2.6051458266e+00 -4.5122449328e+00 2.6051458266e+00 4.5122449328e+00 
37500 4.6895605299e+00 -6.6830139319e-03 2.6052746863e+00 -4.5124681243e+00 2.6052746863e+00 4.5124681243e+00 
37600 4.6895588751e+00 -6.6523260928e-03 2.6054029466e+00 -4.5126902777e+00 2.6054029466e+00 4.5126902777e+00 
37700 4.6895572413e+00 -6.6218438368e-03 2.6055306117e+00 -4.5129114001e+00 2.6055306117e+00 4.5129114001e+00 
37800 4.6895556281e+00 -6.5915657442e-03 2.6056576856e+00 -4.5131314986e+00 2.6056576856e+00 4.5131314986e+00 
37900 4.6895540353e+00 -6.5614904043e-03 2.6057841722e+00 -4.5133505799e+00 2.6057841722e+00 4.5133505799e+00 
38000 4.6895524625e+00 -6.5316164153e-03 2.6059100757e+00 -4.5135686510e+00 2.6059100757e+00 4.5135686510e+00 
38100 4.6895509094e+00 -6.5019423847e-03 2.6060353998e+00 -4.5137857188e+00 2.6060353998e+00 4.5137857188e+00 
38200 4.6895493758e+00 -6.4724669291e-03 2.6061601486e+00 -4.5140017900e+00 2.6061601486e+00 4.5140017900e+00 
38300 4.6895478613e+00 -6.4431886738e-03 2.6062843259e+00 -4.5142168714e+00 2.6062843259e+00 4.5142168714e+00 
38400 4.6895463657e+00 -6.4141062534e-03 2.6064079356e+00 -4.5144309696e+00 2.6064079356e+00 4.5144309696e+00 
38500 4.6895448886e+00 -6.3852183113e-03 2.6065309815e+00 -4.5146440914e+00 2.6065309815e+00 4.5146440914e+00 
38600 4.6895434298e+00 -6.3565234998e-03 2.6066534674e+00 -4.5148562433e+00 2.6066534674e+00 4.5148562433e+00 
38700 4.6895419891e+00 -6.3280204801e-03 2.6067753972e+00 -4.5150674319e+00 2.6067753972e+00 4.5150674319e+00 
38800 4.6895405660e+00 -6.2997079222e-03 2.6068967745e+00 -4.5152776636e+00 2.6068967745e+00 4.5152776636e+00 
38900 4.6895391605e+00 -6.2715845050e-03 2.6070176032e+00 -4.5154869450e+00 2.6070176032e+00 4.5154869450e+00 
39000 4.6895377722e+00 -6.2436489161e-03 2.6071378869e+00 -4.5156952824e+00 2.6071378869e+00 4.5156952824e+00 
39100 4.6895364009e+00 -6.2158998518e-03 2.6072576292e+00 -4.5159026822e+00 2.6072576292e+00 4.5159026822e+00 
39200 4.6895350463e+00 -6.1883360173e-03 2.6073768339e+00 -4.5161091508e+00 2.6073768339e+00 4.5161091508e+00 
39300 4.6895337082e+00 -6.1609561263e-03 2.6074955046e+00 -4.5163146944e+00 2.6074955046e+00 4.5163146944e+00 
39400 4.6895323863e+00 -6.1337589011e-03 2.6076136448e+00 -4.5165193193e+00 2.6076136448e+00 4.5165193193e+00 
39500 4.6895310804e+00 -6.1067430727e-03 2.6077312582e+00 -4.5167230317e+00 2.6077312582e+00 4.5167230317e+00 
39600 4.6895297903e+00 -6.0799073805e-03 2.6078483483e+00 -4.5169258376e+00 2.6078483483e+00 4.5169258376e+00 
39700 4.6895285157e+00 -6.0532505726e-03 2.6079649186e+00 -4.5171277433e+00 2.6079649186e+00 4.5171277433e+00 
39800 4.6895272564e+00 -6.0267714054e-03 2.6080809726e+00 -4.5173287547e+00 2.6080809726e+00 4.5173287547e+00 
39900 4.6895260122e+00 -6.0004686438e-03 2.6081965138e+00 -4.5175288779e+00 2.6081965138e+00 4.5175288779e+00 
40000 4.6895247829e+00 -5.9743410611e-03 2.6083115456e+00 -4.5177281189e+00 2.6083115456e+00 4.5177281189e+00 
40100 4.6895235682e+00 -5.9483874389e-03 2.6084260715e+00 -4.5179264836e+00 2.6084260715e+00 4.5179264836e+00 
40200 4.6895223679e+00 -5.9226065671e-03 2.6085400949e+00 -4.5181239779e+00 2.6085400949e+00 4.5181239779e+00 
40300 4.6895211819e+00 -5.8969972440e-03 2.6086536191e+00 -4.5183206076e+00 2.6086536191e+00 4.5183206076e+00 
40400 4.6895200098e+00 -5.8715582759e-03 2.6087666475e+00 -4.5185163786e+00 2.6087666475e+00 4.5185163786e+00 
40500 4.6895188516e+00 -5.8462884774e-03 2.6088791835e+00 -4.5187112965e+00 2.6088791835e+00 4.5187112965e+00 
40600 4.6895177071e+00 -5.8211866714e-03 2.6089912302e+00 -4.5189053673e+00 2.6089912302e+00 4.5189053673e+00 
40700 4.6895165759e+00 -5.7962516885e-03 2.6091027911e+00 -4.5190985964e+00 2.6091027911e+00 4.5190985964e+00 
40800 4.6895154580e+00 -5.7714823676e-03 2.6092138694e+00 -4.5192909896e+00 2.6092138694e+00 4.5192909896e+00 
40900 4.6895143531e+00 -5.7468775558e-03 2.6093244683e+00 -4.5194825525e+00 2.6093244683e+00 4.5194825525e+00 
41000 4.6895132610e+00 -5.7224361077e-03 2.6094345910e+00 -4.5196732907e+00 2.6094345910e+00 4.5196732907e+00 
41100 4.6895121817e+00 -5.6981568861e-03 2.6095442407e+00 -4.5198632096e+00 2.6095442407e+00 4.5198632096e+00 
41200 4.6895111148e+00 -5.6740387617e-03 2.6096534207e+00 -4.5200523147e+00 2.6096534207e+00 4.5200523147e+00 
41300 4.6895100602e+00 -5.6500806130e-03 2.6097621339e+00 -4.5202406116e+00 2.6097621339e+00 4.5202406116e+00 
41400 4.6895090178e+00 -5.6262813262e-03 2.6098703836e+00 -4.5204281056e+00 2.6098703836e+00 4.5204281056e+00 
41500 4.6895079874e+00 -5.6026397952e-03 2.6099781729e+00 -4.5206148021e+00 2.6099781729e+00 4.5206148021e+00 
41600 4.6895069687e+00 -5.5791549219e-03 2.6100855048e+00 -4.5208007064e+00 2.6100855048e+00 4.5208007064e+00 
41700 4.6895059617e+00 -5.5558256155e-03 2.6101923824e+00 -4.5209858238e+00 2.6101923824e+00 4.5209858238e+00 
41800 4.6895049661e+00 -5.5326507931e-03 2.6102988087e+00 -4.5211701596e+00 2.6102988087e+00 4.5211701596e+00 
41900 4.6895039819e+00 -5.5096293791e-03 2.6104047868e+00 -4.5213537190e+00 2.6104047868e+00 4.5213537190e+00 
42000 4.6895030088e+00 -5.4867603056e-03 2.6105103196e+00 -4.5215365072e+00 2.6105103196e+00 4.5215365072e+00 
42100 4.6895020467e+00 -5.4640425122e-03 2.6106154101e+00 -4.5217185293e+00 2.6106154101e+00 4.5217185293e+00 
42200 4.6895010954e+00 -5.4414749457e-03 2.6107200612e+00 -4.5218997904e+00 2.6107200612e+00 4.5218997904e+00 
42300 4.6895001548e+00 -5.4190565606e-03 2.6108242760e+00 -4.5220802957e+00 2.6108242760e+00 4.5220802957e+00 
42400 4.6894992247e+00 -5.3967863186e-03 2.6109280572e+00 -4.5222600501e+00 2.6109280572e+00 4.5222600501e+00 
42500 4.6894983050e+00 -5.3746631886e-03 2.6110314079e+00 -4.5224390586e+00 2.6110314079e+00 4.5224390586e+00 
42600 4.6894973956e+00 -5.3526861468e-03 2.6111343308e+00 -4.5226173263e+00 2.6111343308e+00 4.5226173263e+00 
42700 4.6894964963e+00 -5.3308541768e-03 2.6112368288e+00 -4.5227948581e+00 2.6112368288e+00 4.5227948581e+00 
42800 4.6894956069e+00 -5.3091662692e-03 2.6113389047e+00 -4.5229716588e+00 2.6113389047e+00 4.5229716588e+00 
42900 4.6894947274e+00 -5.2876214216e-03 2.6114405614e+00 -4.5231477333e+00 2.6114405614e+00 4.5231477333e+00 
43000 4.6894938575e+00 -5.2662186390e-03 2.6115418016e+00 -4.5233230865e+00 2.6115418016e+00 4.5233230865e+00 
43100 4.6894929972e+00 -5.2449569331e-03 2.6116426281e+00 -4.5234977231e+00 2.6116426281e+00 4.5234977231e+00 
43200 4.6894921463e+00 -5.2238353229e-03 2.6117430437e+00 -4.5236716479e+00 2.6117430437e+00 4.5236716479e+00 
43300 4.6894913047e+00 -5.2028528340e-03 2.6118430510e+00 -4.5238448657e+00 2.6118430510e+00 4.5238448657e+00 
43400 4.6894904723e+00 -5.1820084991e-03 2.6119426528e+00 -4.5240173811e+00 2.6119426528e+00 4.5240173811e+00 
43500 4.6894896489e+00 -5.1613013579e-03 2.6120418518e+00 -4.5241891988e+00 2.6120418518e+00 4.5241891988e+00 
43600 4.6894888344e+00 -5.1407304566e-03 2.6121406506e+00 -4.5243603234e+00 2.6121406506e+00 4.5243603234e+00 
43700 4.6894880287e+00 -5.1202948483e-03 2.6122390520e+00 -4.5245307595e+00 2.6122390520e+00 4.5245307595e+00 
43800 4.6894872317e+00 -5.0999935929e-03 2.6123370584e+00 -4.5247005117e+00 2.6123370584e+00 4.5247005117e+00 
43900 4.6894864432e+00 -5.0798257568e-03 2.6124346727e+00 -4.5248695845e+00 2.6124346727e+00 4.5248695845e+00 
44000 4.6894856632e+00 -5.0597904133e-03 2.6125318972e+00 -4.5250379824e+00 2.6125318972e+00 4.5250379824e+00 
44100 4.6894848914e+00 -5.0398866421e-03 2.6126287348e+00 -4.5252057099e+00 2.6126287348e+00 4.5252057099e+00 
44200 4.6894841279e+00 -5.0201135294e-03 2.6127251878e+00 -4.5253727714e+00 2.6127251878e+00 4.5253727714e+00 
44300 4.6894833725e+00 -5.0004701680e-03 2.6128212588e+00 -4.5255391713e+00 2.6128212588e+00 4.5255391713e+00 
44400 4.6894826251e+00 -4.9809556573e-03 2.6129169504e+00 -4.5257049140e+00 2.6129169504e+00 4.5257049140e+00 
44500 4.6894818855e+00 -4.9615691028e-03 2.6130122651e+00 -4.5258700039e+00 2.6130122651e+00 4.5258700039e+00 
44600 4.6894811537e+00 -4.9423096167e-03 2.6131072053e+00 -4.5260344452e+00 2.6131072053e+00 4.5260344452e+00 
44700 4.6894804296e+00 -4.9231763173e-03 2.6132017735e+00 -4.5261982422e+00 2.6132017735e+00 4.5261982422e+00 
44800 4.6894797130e+00 -4.9041683292e-03 2.6132959723e+00 -4.5263613992e+00 2.6132959723e+00 4.5263613992e+00 
44900 4.6894790039e+00 -4.8852847835e-03 2.6133898039e+00 -4.5265239203e+00 2.6133898039e+00 4.5265239203e+00 
45000 4.6894783022e+00 -4.8665248172e-03 2.6134832709e+00 -4.5266858099e+00 2.6134832709e+00 4.5266858099e+00 
45100 4.6894776077e+00 -4.8478875737e-03 2.6135763756e+00 -4.5268470721e+00 2.6135763756e+00 4.5268470721e+00 
45200 4.6894769204e+00 -4.8293722023e-03 2.6136691205e+00 -4.5270077109e+00 2.6136691205e+00 4.5270077109e+00 
45300 4.6894762402e+00 -4.8109778586e-03 2.6137615079e+00 -4.5271677305e+00 2.6137615079e+00 4.5271677305e+00 
45400 4.6894755669e+00 -4.7927037041e-03 2.6138535401e+00 -4.5273271350e+00 2.6138535401e+00 4.5273271350e+00 
45500 4.6894749005e+00 -4.7745489064e-03 2.6139452195e+00 -4.5274859285e+00 2.6139452195e+00 4.5274859285e+00 
45600 4.6894742408e+00 -4.7565126389e-03 2.6140365485e+00 -4.5276441148e+00 2.6140365485e+00 4.5276441148e+00 
45700 4.6894735879e+00 -4.7385940811e-03 2.6141275292e+00 -4.5278016981e+00 2.6141275292e+00 4.5278016981e+00 
45800 4.6894729416e+00 -4.7207924182e-03 2.6142181641e+00 -4.5279586823e+00 2.6142181641e+00 4.5279586823e+00 
45900 4.6894723018e+00 -4.7031068413e-03 2.6143084553e+00 -4.5281150713e+00 2.6143084553e+00 4.5281150713e+00 
46000 4.6894716684e+00 -4.6855365475e-03 2.6143984052e+00 -4.5282708690e+00 2.6143984052e+00 4.5282708690e+00 
46100 4.6894710414e+00 -4.6680807393e-03 2.6144880159e+00 -4.5284260794e+00 2.6144880159e+00 4.5284260794e+00 
46200 4.6894704207e+00 -4.6507386252e-03 2.6145772898e+00 -4.5285807062e+00 2.6145772898e+00 4.5285807062e+00 
46300 4.6894698061e+00 -4.6335094191e-03 2.6146662289e+00 -4.5287347533e+00 2.6146662289e+00 4.5287347533e+00 
46400 4.6894691976e+00 -4.6163923409e-03 2.6147548355e+00 -4.5288882245e+00 2.6147548355e+00 4.5288882245e+00 
46500 4.6894685951e+00 -4.5993866157e-03 2.6148431118e+00 -4.5290411235e+00 2.6148431118e+00 4.5290411235e+00 
46600 4.6894679986e+00 -4.5824914744e-03 2.6149310600e+00 -4.5291934542e+00 2.6149310600e+00 4.5291934542e+00 
46700 4.6894674079e+00 -4.5657061534e-03 2.6150186821e+00 -4.5293452202e+00 2.6150186821e+00 4.5293452202e+00 
46800 4.6894668230e+00 -4.5490298945e-03 2.6151059804e+00 -4.5294964252e+00 2.6151059804e+00 4.5294964252e+00 
46900 4.6894662438e+00 -4.5324619450e-03 2.6151929569e+00 -4.5296470729e+00 2.6151929569e+00 4.5296470729e+00 
47000 4.6894656703e+00 -4.5160015576e-03 2.6152796137e+00 -4.5297971670e+00 2.6152796137e+00 4.5297971670e+00 
47100 4.6894651023e+00 -4.4996479902e-03 2.6153659530e+00 -4.5299467110e+00 2.6153659530e+00 4.5299467110e+00 
47200 4.6894645397e+00 -4.4834005063e-03 2.6154519768e+00 -4.5300957085e+00 2.6154519768e+00 4.5300957085e+00 
47300 4.6894639826e+00 -4.4672583745e-03 2.6155376871e+00 -4.5302441632e+00 2.6155376871e+00 4.5302441632e+00 
47400 4.6894634309e+00 -4.4512208687e-03 2.6156230860e+00 -4.5303920784e+00 2.6156230860e+00 4.5303920784e+00 
47500 4.6894628844e+00 -4.4352872680e-03 2.6157081756e+00 -4.5305394579e+00 2.6157081756e+00 4.5305394579e+00 
47600 4.6894623431e+00 -4.4194568566e-03 2.6157929578e+00 -4.5306863050e+00 2.6157929578e+00 4.5306863050e+00 
47700 4.6894618069e+00 -4.4037289241e-03 2.6158774347e+00 -4.5308326233e+00 2.6158774347e+00 4.5308326233e+00 
47800 4.6894612758e+00 -4.3881027648e-03 2.6159616082e+00 -4.5309784161e+00 2.6159616082e+00 4.5309784161e+00 
47900 4.6894607497e+00 -4.3725776784e-03 2.6160454804e+00 -4.5311236869e+00 2.6160454804e+00 4.5311236869e+00 
48000 4.6894602285e+00 -4.3571529695e-03 2.6161290531e+00 -4.5312684391e+00 2.6161290531e+00 4.5312684391e+00 
48100 4.6894597122e+00 -4.3418279477e-03 2.6162123284e+00 -4.5314126761e+00 2.6162123284e+00 4.5314126761e+00 
48200 4.6894592008e+00 -4.3266019275e-03 2.6162953081e+00 -4.5315564012e+00 2.6162953081e+00 4.5315564012e+00 
48300 4.6894586940e+00 -4.3114742283e-03 2.6163779942e+00 -4.5316996177e+00 2.6163779942e+00 4.5316996177e+00 
48400 4.6894581920e+00 -4.2964441746e-03 2.6164603885e+00 -4.5318423289e+00 2.6164603885e+00 4.5318423289e+00 
48500 4.6894576945e+00 -4.2815110955e-03 2.6165424931e+00 -4.5319845382e+00 2.6165424931e+00 4.5319845382e+00 
48600 4.6894572017e+00 -4.2666743250e-03 2.6166243097e+00 -4.5321262488e+00 2.6166243097e+00 4.5321262488e+00 
48700 4.6894567133e+00 -4.2519332019e-03 2.6167058403e+00 -4.5322674638e+00 2.6167058403e+00 4.5322674638e+00 
48800 4.6894562294e+00 -4.2372870698e-03 2.6167870866e+00 -4.5324081866e+00 2.6167870866e+00 4.5324081866e+00 
48900 4.6894557498e+00 -4.2227352768e-03 2.6168680506e+00 -4.5325484203e+00 2.6168680506e+00 4.5325484203e+00 
49000 4.6894552746e+00 -4.2082771759e-03 2.6169487340e+00 -4.5326881681e+00 2.6169487340e+00 4.5326881681e+00 
49100 4.6894548037e+00 -4.1939121247e-03 2.6170291387e+00 -4.5328274331e+00 2.6170291387e+00 4.5328274331e+00 
49200 4.6894543370e+00 -4.1796394852e-03 2.6171092664e+00 -4.5329662184e+00 2.6171092664e+00 4.5329662184e+00 
49300 4.6894538745e+00 -4.1654586242e-03 2.6171891190e+00 -4.5331045272e+00 2.6171891190e+00 4.5331045272e+00 
49400 4.6894534161e+00 -4.1513689131e-03 2.6172686983e+00 -4.5332423625e+00 2.6172686983e+00 4.5332423625e+00 
49500 4.6894529617e+00 -4.1373697274e-03 2.6173480060e+00 -4.5333797275e+00 2.6173480060e+00 4.5333797275e+00 
49600 4.6894525114e+00 -4.1234604475e-03 2.6174270438e+00 -4.5335166250e+00 2.6174270438e+00 4.5335166250e+00 
49700 4.6894520650e+00 -4.1096404581e-03 2.6175058136e+00 -4.5336530582e+00 2.6175058136e+00 4.5336530582e+00 
49800 4.6894516225e+00 -4.0959091483e-03 2.6175843169e+00 -4.5337890300e+00 2.6175843169e+00 4.5337890300e+00 
49900 4.6894511839e+00 -4.0822659114e-03 2.6176625557e+00 -4.5339245435e+00 2.6176625557e+00 4.5339245435e+00 
50000 4.6894507491e+00 -4.0687101454e-03 2.6177405315e+00 -4.5340596015e+00 2.6177405315e+00 4.5340596015e+00 
50100 4.6894503180e+00 -4.0552412524e-03 2.6178182460e+00 -4.5341942071e+00 2.6178182460e+00 4.5341942071e+00 
50200 4.6894498907e+00 -4.0418586387e-03 2.6178957010e+00 -4.5343283630e+00 2.6178957010e+00 4.5343283630e+00 
50300 4.6894494670e+00 -4.0285617149e-03 2.6179728981e+00 -4.5344620723e+00 2.6179728981e+00 4.5344620723e+00 
50400 4.6894490469e+00 -4.0153498961e-03 2.6180498389e+00 -4.5345953378e+00 2.6180498389e+00 4.5345953378e+00 
50500 4.6894486304e+00 -4.0022226011e-03 2.6181265252e+00 -4.5347281623e+00 2.6181265252e+00 4.5347281623e+00 
50600 4.6894482175e+00 -3.9891792531e-03 2.6182029585e+00 -4.5348605487e+00 2.6182029585e+00 4.5348605487e+00 
50700 4.6894478080e+00 -3.9762192796e-03 2.6182791405e+00 -4.5349924998e+00 2.6182791405e+00 4.5349924998e+00 
50800 4.6894474020e+00 -3.9633421119e-03 2.6183550728e+00 -4.5351240184e+00 2.6183550728e+00 4.5351240184e+00 
50900 4.6894469993e+00 -3.9505471855e-03 2.6184307570e+00 -4.5352551072e+00 2.6184307570e+00 4.5352551072e+00 
51000 4.6894466000e+00 -3.9378339400e-03 2.6185061947e+00 -4.5353857691e+00 2.6185061947e+00 4.5353857691e+00 
51100 4.6894462040e+00 -3.9252018187e-03 2.6185813874e+00 -4.5355160067e+00 2.6185813874e+00 4.5355160067e+00 
51200 4.6894458113e+00 -3.9126502692e-03 2.6186563368e+00 -4.5356458228e+00 2.6186563368e+00 4.5356458228e+00 
51300 4.6894454218e+00 -3.9001787430e-03 2.6187310443e+00 -4.5357752201e+00 2.6187310443e+00 4.5357752201e+00 
51400 4.6894450355e+00 -3.8877866954e-03 2.6188055116e+00 -4.5359042013e+00 2.6188055116e+00 4.5359042013e+00 
51500 4.6894446524e+00 -3.8754735855e-03 2.6188797402e+00 -4.5360327690e+00 2.6188797402e+00 4.5360327690e+00 
51600 4.6894442723e+00 -3.8632388766e-03 2.6189537316e+00 -4.5361609259e+00 2.6189537316e+00 4.5361609259e+00 
51700 4.6894438953e+00 -3.8510820354e-03 2.6190274874e+00 -4.5362886746e+00 2.6190274874e+00 4.5362886746e+00 
51800 4.6894435214e+00 -3.8390025328e-03 2.6191010089e+00 -4.5364160176e+00 2.6191010089e+00 4.5364160176e+00 
51900 4.6894431504e+00 -3.8269998431e-03 2.6191742978e+00 -4.5365429577e+00 2.6191742978e+00 4.5365429577e+00 
52000 4.6894427824e+00 -3.8150734447e-03 2.6192473555e+00 -4.5366694974e+00 2.6192473555e+00 4.5366694974e+00 
52100 4.6894424173e+00 -3.8032228194e-03 2.6193201836e+00 -4.5367956392e+00 2.6193201836e+00 4.5367956392e+00 
52200 4.6894420551e+00 -3.7914474529e-03 2.6193927833e+00 -4.5369213857e+00 2.6193927833e+00 4.5369213857e+00 
52300 4.6894416957e+00 -3.7797468345e-03 2.6194651563e+00 -4.5370467393e+00 2.6194651563e+00 4.5370467393e+00 
52400 4.6894413392e+00 -3.7681204570e-03 2.6195373039e+00 -4.5371717027e+00 2.6195373039e+00 4.5371717027e+00 
52500 4.6894409854e+00 -3.7565678171e-03 2.6196092276e+00 -4.5372962783e+00 2.6196092276e+00 4.5372962783e+00 
52600 4.6894406343e+00 -3.7450884149e-03 2.6196809289e+00 -4.5374204685e+00 2.6196809289e+00 4.5374204685e+00 
52700 4.6894402860e+00 -3.7336817539e-03 2.6197524091e+00 -4.5375442758e+00 2.6197524091e+00 4.5375442758e+00 
52800 4.6894399403e+00 -3.7223473414e-03 2.6198236696e+00 -4.5376677026e+00 2.6198236696e+00 4.5376677026e+00 
52900 4.6894395973e+00 -3.7110846880e-03 2.6198947119e+00 -4.5377907514e+00 2.6198947119e+00 4.5377907514e+00 
53000 4.6894392568e+00 -3.6998933079e-03 2.6199655373e+00 -4.5379134246e+00 2.6199655373e+00 4.5379134246e+00 
53100 4.6894389190e+00 -3.6887727188e-03 2.6200361472e+00 -4.5380357245e+00 2.6200361472e+00 4.5380357245e+00 
53200 4.6894385837e+00 -3.6777224416e-03 2.6201065429e+00 -4.5381576536e+00 2.6201065429e+00 4.5381576536e+00 
53300 4.6894382509e+00 -3.6667420007e-03 2.6201767259e+00 -4.5382792141e+00 2.6201767259e+00 4.5382792141e+00 
53400 4.6894379205e+00 -3.6558309240e-03 2.6202466975e+00 -4.5384004085e+00 2.6202466975e+00 4.5384004085e+00 
53500 4.6894375927e+00 -3.6449887426e-03 2.6203164590e+00 -4.5385212389e+00 2.6203164590e+00 4.5385212389e+00 
53600 4.6894372672e+00 -3.6342149909e-03 2.6203860118e+00 -4.5386417078e+00 2.6203860118e+00 4.5386417078e+00 
53700 4.6894369441e+00 -3.6235092068e-03 2.6204553571e+00 -4.5387618175e+00 2.6204553571e+00 4.5387618175e+00 
53800 4.6894366234e+00 -3.6128709312e-03 2.6205244963e+00 -4.5388815701e+00 2.6205244963e+00 4.5388815701e+00 
53900 4.6894363050e+00 -3.6022997084e-03 2.6205934308e+00 -4.5390009681e+00 2.6205934308e+00 4.5390009681e+00 
54000 4.6894359890e+00 -3.5917950858e-03 2.6206621617e+00 -4.5391200135e+00 2.6206621617e+00 4.5391200135e+00 
54100 4.6894356752e+00 -3.5813566143e-03 2.6207306904e+00 -4.5392387087e+00 2.6207306904e+00 4.5392387087e+00 
54200 4.6894353636e+00 -3.5709838477e-03 2.6207990181e+00 -4.5393570558e+00 2.6207990181e+00 4.5393570558e+00 
54300 4.6894350542e+00 -3.5606763429e-03 2.6208671462e+00 -4.5394750571e+00 2.6208671462e+00 4.5394750571e+00 
54400 4.6894347471e+00 -3.5504336602e-03 2.6209350758e+00 -4.5395927147e+00 2.6209350758e+00 4.5395927147e+00 
54500 4.6894344421e+00 -3.5402553627e-03 2.6210028083e+00 -4.5397100308e+00 2.6210028083e+00 4.5397100308e+00 
54600 4.6894341392e+00 -3.5301410169e-03 2.6210703449e+00 -4.5398270075e+00 2.6210703449e+00 4.5398270075e+00 
54700 4.6894338385e+00 -3.5200901921e-03 2.6211376868e+00 -4.5399436471e+00 2.6211376868e+00 4.5399436471e+00 
54800 4.6894335398e+00 -3.5101024608e-03 2.6212048352e+00 -4.5400599516e+00 2.6212048352e+00 4.5400599516e+00 
54900 4.6894332432e+00 -3.5001773983e-03 2.6212717914e+00 -4.5401759231e+00 2.6212717914e+00 4.5401759231e+00 
55000 4.6894329487e+00 -3.4903145832e-03 2.6213385565e+00 -4.5402915637e+00 2.6213385565e+00 4.5402915637e+00 
55100 4.6894326561e+00 -3.4805135967e-03 2.6214051318e+00 -4.5404068756e+00 2.6214051318e+00 4.5404068756e+00 
55200 4.6894323656e+00 -3.4707740233e-03 2.6214715185e+00 -4.5405218607e+00 2.6214715185e+00 4.5405218607e+00 
55300 4.6894320770e+00 -3.4610954503e-03 2.6215377178e+00 -4.5406365211e+00 2.6215377178e+00 4.5406365211e+00 
55400 4.6894317903e+00 -3.4514774677e-03 2.6216037307e+00 -4.5407508590e+00 2.6216037307e+00 4.5407508590e+00 
55500 4.6894315055e+00 -3.4419196687e-03 2.6216695586e+00 -4.5408648762e+00 2.6216695586e+00 4.5408648762e+00 
55600 4.6894312227e+00 -3.4324216491e-03 2.6217352025e+00 -4.5409785748e+00 2.6217352025e+00 4.5409785748e+00 
55700 4.6894309417e+00 -3.4229830077e-03 2.6218006637e+00 -4.5410919568e+00 2.6218006637e+00 4.5410919568e+00 
55800 4.6894306625e+00 -3.4136033460e-03 2.6218659432e+00 -4.5412050243e+00 2.6218659432e+00 4.5412050243e+00 
55900 4.6894303852e+00 -3.4042822685e-03 2.6219310422e+00 -4.5413177791e+00 2.6219310422e+00 4.5413177791e+00 
56000 4.6894301096e+00 -3.3950193822e-03 2.6219959619e+00 -4.5414302232e+00 2.6219959619e+00 4.5414302232e+00 
56100 4.6894298359e+00 -3.3858142971e-03 2.6220607032e+00 -4.5415423586e+00 2.6220607032e+00 4.5415423586e+00 
56200 4.6894295639e+00 -3.3766666256e-03 2.6221252675e+00 -4.5416541871e+00 2.6221252675e+00 4.5416541871e+00 
56300 4.6894292936e+00 -3.3675759833e-03 2.6221896557e+00 -4.5417657108e+00 2.6221896557e+00 4.5417657108e+00 
56400 4.6894290251e+00 -3.3585419881e-03 2.6222538691e+00 -4.5418769315e+00 2.6222538691e+00 4.5418769315e+00 
56500 4.6894287583e+00 -3.3495642606e-03 2.6223179085e+00 -4.5419878512e+00 2.6223179085e+00 4.5419878512e+00 
56600 4.6894284931e+00 -3.3406424243e-03 2.6223817753e+00 -4.5420984716e+00 2.6223817753e+00 4.5420984716e+00 
56700 4.6894282296e+00 -3.3317761051e-03 2.6224454704e+00 -4.5422087947e+00 2.6224454704e+00 4.5422087947e+00 
56800 4.6894279677e+00 -3.3229649316e-03 2.6225089948e+00 -4.5423188223e+00 2.6225089948e+00 4.5423188223e+00 
56900 4.6894277074e+00 -3.3142085351e-03 2.6225723498e+00 -4.5424285563e+00 2.6225723498e+00 4.5424285563e+00 
57000 4.6894274487e+00 -3.3055065492e-03 2.6226355362e+00 -4.5425379985e+00 2.6226355362e+00 4.5425379985e+00 
57100 4.6894271916e+00 -3.2968586103e-03 2.6226985553e+00 -4.5426471507e+00 2.6226985553e+00 4.5426471507e+00 
57200 4.6894269361e+00 -3.2882643573e-03 2.6227614080e+00 -4.5427560147e+00 2.6227614080e+00 4.5427560147e+00 
57300 4.6894266821e+00 -3.2797234314e-03 2.6228240953e+00 -4.5428645923e+00 2.6228240953e+00 4.5428645923e+00 
57400 4.6894264296e+00 -3.2712354767e-03 2.6228866183e+00 -4.5429728853e+00 2.6228866183e+00 4.5429728853e+00 
57500 4.6894261786e+00 -3.2628001394e-03 2.6229489780e+00 -4.5430808955e+00 2.6229489780e+00 4.5430808955e+00 
57600 4.6894259292e+00 -3.2544170683e-03 2.6230111754e+00 -4.5431886246e+00 2.6230111754e+00 4.5431886246e+00 
57700 4.6894256811e+00 -3.2460859148e-03 2.6230732115e+00 -4.5432960743e+00 2.6230732115e+00 4.5432960743e+00 
57800 4.6894254345e+00 -3.2378063325e-03 2.6231350874e+00 -4.5434032465e+00 2.6231350874e+00 4.5434032465e+00 
57900 4.6894251894e+00 -3.2295779774e-03 2.6231968040e+00 -4.5435101428e+00 2.6231968040e+00 4.5435101428e+00 
58000 4.6894249457e+00 -3.2214005081e-03 2.6232583623e+00 -4.5436167649e+00 2.6232583623e+00 4.5436167649e+00 
58100 4.6894247033e+00 -3.2132735855e-03 2.6233197633e+00 -4.5437231145e+00 2.6233197633e+00 4.5437231145e+00 
58200 4.6894244624e+00 -3.2051968726e-03 2.6233810079e+00 -4.5438291933e+00 2.6233810079e+00 4.5438291933e+00 
58300 4.6894242228e+00 -3.1971700351e-03 2.6234420972e+00 -4.5439350031e+00 2.6234420972e+00 4.5439350031e+00 
58400 4.6894239846e+00 -3.1891927409e-03 2.6235030321e+00 -4.5440405454e+00 2.6235030321e+00 4.5440405454e+00 
58500 4.6894237477e+00 -3.1812646601e-03 2.6235638135e+00 -4.5441458219e+00 2.6235638135e+00 4.5441458219e+00 
58600 4.6894235121e+00 -3.1733854650e-03 2.6236244424e+00 -4.5442508343e+00 2.6236244424e+00 4.5442508343e+00 
58700 4.6894232778e+00 -3.1655548306e-03 2.6236849198e+00 -4.5443555841e+00 2.6236849198e+00 4.5443555841e+00 
58800 4.6894230448e+00 -3.1577724337e-03 2.6237452465e+00 -4.5444600731e+00 2.6237452465e+00 4.5444600731e+00 
58900 4.6894228131e+00 -3.1500379536e-03 2.6238054236e+00 -4.5445643028e+00 2.6238054236e+00 4.5445643028e+00 
59000 4.6894225826e+00 -3.1423510716e-03 2.6238654518e+00 -4.5446682748e+00 2.6238654518e+00 4.5446682748e+00 
59100 4.6894223534e+00 -3.1347114714e-03 2.6239253323e+00 -4.5447719907e+00 2.6239253323e+00 4.5447719907e+00 
59200 4.6894221254e+00 -3.1271188388e-03 2.6239850657e+00 -4.5448754521e+00 2.6239850657e+00 4.5448754521e+00 
59300 4.6894218987e+00 -3.1195728618e-03 2.6240446532e+00 -4.5449786606e+00 2.6240446532e+00 4.5449786606e+00 
59400 4.6894216731e+00 -3.1120732305e-03 2.6241040954e+00 -4.5450816177e+00 2.6241040954e+00 4.5450816177e+00 
59500 4.6894214487e+00 -3.1046196372e-03 2.6241633935e+00 -4.5451843249e+00 2.6241633935e+00 4.5451843249e+00 
59600 4.6894212254e+00 -3.0972117763e-03 2.6242225482e+00 -4.5452867838e+00 2.6242225482e+00 4.5452867838e+00 
59700 4.6894210034e+00 -3.0898493443e-03 2.6242815604e+00 -4.5453889960e+00 2.6242815604e+00 4.5453889960e+00 
59800 4.6894207825e+00 -3.0825320398e-03 2.6243404310e+00 -4.5454909628e+00 2.6243404310e+00 4.5454909628e+00 
59900 4.6894205627e+00 -3.0752595635e-03 2.6243991609e+00 -4.5455926860e+00 2.6243991609e+00 4.5455926860e+00 
60000 4.6894203440e+00 -3.0680316180e-03 2.6244577509e+00 -4.5456941668e+00 2.6244577509e+00 4.5456941668e+00 
60100 4.6894201264e+00 -3.0608479083e-03 2.6245162019e+00 -4.5457954069e+00 2.6245162019e+00 4.5457954069e+00 
60200 4.6894199099e+00 -3.0537081409e-03 2.6245745147e+00 -4.5458964077e+00 2.6245745147e+00 4.5458964077e+00 
60300 4.6894196945e+00 -3.0466120249e-03 2.6246326902e+00 -4.5459971706e+00 2.6246326902e+00 4.5459971706e+00 
60400 4.6894194802e+00 -3.0395592710e-03 2.6246907292e+00 -4.5460976972e+00 2.6246907292e+00 4.5460976972e+00 
60500 4.6894192669e+00 -3.0325495920e-03 2.6247486326e+00 -4.5461979888e+00 2.6247486326e+00 4.5461979888e+00 
60600 4.6894190547e+00 -3.0255827026e-03 2.6248064012e+00 -4.5462980470e+00 2.6248064012e+00 4.5462980470e+00 
60700 4.6894188435e+00 -3.0186583197e-03 2.6248640358e+00 -4.5463978730e+00 2.6248640358e+00 4.5463978730e+00 
60800 4.6894186333e+00 -3.0117761619e-03 2.6249215373e+00 -4.5464974685e+00 2.6249215373e+00 4.5464974685e+00 
60900 4.6894184241e+00 -3.0049359498e-03 2.6249789064e+00 -4.5465968346e+00 2.6249789064e+00 4.5465968346e+00 
61000 4.6894182159e+00 -2.9981374060e-03 2.6250361439e+00 -4.5466959730e+00 2.6250361439e+00 4.5466959730e+00 
61100 4.6894180087e+00 -2.9913802547e-03 2.6250932507e+00 -4.5467948848e+00 2.6250932507e+00 4.5467948848e+00 
61200 4.6894178024e+00 -2.9846642224e-03 2.6251502276e+00 -4.5468935717e+00 2.6251502276e+00 4.5468935717e+00 
61300 4.6894175972e+00 -2.9779890373e-03 2.6252070753e+00 -4.5469920348e+00 2.6252070753e+00 4.5469920348e+00 
61400 4.6894173928e+00 -2.9713544293e-03 2.6252637946e+00 -4.5470902755e+00 2.6252637946e+00 4.5470902755e+00 
61500 4.6894171895e+00 -2.9647601303e-03 2.6253203863e+00 -4.5471882953e+00 2.6253203863e+00 4.5471882953e+00 
61600 4.6894169870e+00 -2.9582058740e-03 2.6253768513e+00 -4.5472860954e+00 2.6253768513e+00 4.5472860954e+00 
61700 4.6894167855e+00 -2.9516913961e-03 2.6254331902e+00 -4.5473836772e+00 2.6254331902e+00 4.5473836772e+00 
61800 4.6894165848e+00 -2.9452164337e-03 2.6254894038e+00 -4.5474810421e+00 2.6254894038e+00 4.5474810421e+00 
61900 4.6894163851e+00 -2.9387807261e-03 2.6255454929e+00 -4.5475781913e+00 2.6255454929e+00 4.5475781913e+00 
62000 4.6894161862e+00 -2.9323840142e-03 2.6256014582e+00 -4.5476751261e+00 2.6256014582e+00 4.5476751261e+00 
62100 4.6894159883e+00 -2.9260260405e-03 2.6256573006e+00 -4.5477718479e+00 2.6256573006e+00 4.5477718479e+00 
62200 4.6894157911e+00 -2.9197065496e-03 2.6257130206e+00 -4.5478683579e+00 2.6257130206e+00 4.5478683579e+00 
62300 4.6894155949e+00 -2.9134252876e-03 2.6257686192e+00 -4.5479646574e+00 2.6257686192e+00 4.5479646574e+00 
62400 4.6894153995e+00 -2.9071820024e-03 2.6258240970e+00 -4.5480607477e+00 2.6258240970e+00 4.5480607477e+00 
62500 4.6894152049e+00 -2.9009764436e-03 2.6258794547e+00 -4.5481566300e+00 2.6258794547e+00 4.5481566300e+00 
62600 4.6894150112e+00 -2.8948083625e-03 2.6259346931e+00 -4.5482523057e+00 2.6259346931e+00 4.5482523057e+00 
62700 4.6894148183e+00 -2.8886775121e-03 2.6259898128e+00 -4.5483477760e+00 2.6259898128e+00 4.5483477760e+00 
62800 4.6894146261e+00 -2.8825836471e-03 2.6260448147e+00 -4.5484430420e+00 2.6260448147e+00 4.5484430420e+00 
62900 4.6894144348e+00 -2.8765265238e-03 2.6260996994e+00 -4.5485381051e+00 2.6260996994e+00 4.5485381051e+00 
63000 4.6894142443e+00 -2.8705059002e-03 2.6261544676e+00 -4.5486329665e+00 2.6261544676e+00 4.5486329665e+00 
63100 4.6894140546e+00 -2.8645215360e-03 2.6262091201e+00 -4.5487276273e+00 2.6262091201e+00 4.5487276273e+00 
63200 4.6894138656e+00 -2.8585731925e-03 2.6262636575e+00 -4.5488220888e+00 2.6262636575e+00 4.5488220888e+00 
63300 4.6894136774e+00 -2.8526606324e-03 2.6263180805e+00 -4.5489163522e+00 2.6263180805e+00 4.5489163522e+00 
63400 4.6894134900e+00 -2.8467836203e-03 2.6263723898e+00 -4.5490104187e+00 2.6263723898e+00 4.5490104187e+00 
63500 4.6894133033e+00 -2.8409419224e-03 2.6264265861e+00 -4.5491042895e+00 2.6264265861e+00 4.5491042895e+00 
63600 4.6894131173e+00 -2.8351353062e-03 2.6264806701e+00 -4.5491979656e+00 2.6264806701e+00 4.5491979656e+00 
63700 4.6894129321e+00 -2.8293635410e-03 2.6265346424e+00 -4.5492914484e+00 2.6265346424e+00 4.5492914484e+00 
63800 4.6894127476e+00 -2.8236263976e-03 2.6265885037e+00 -4.5493847390e+00 2.6265885037e+00 4.5493847390e+00 
63900 4.6894125638e+00 -2.8179236483e-03 2.6266422547e+00 -4.5494778385e+00 2.6266422547e+00 4.5494778385e+00 
64000 4.6894123807e+00 -2.8122550671e-03 2.6266958961e+00 -4.5495707481e+00 2.6266958961e+00 4.5495707481e+00 
64100 4.6894121983e+00 -2.8066204294e-03 2.6267494285e+00 -4.5496634688e+00 2.6267494285e+00 4.5496634688e+00 
64200 4.6894120166e+00 -2.8010195121e-03 2.6268028525e+00 -4.5497560019e+00 2.6268028525e+00 4.5497560019e+00 
64300 4.6894118356e+00 -2.7954520935e-03 2.6268561688e+00 -4.5498483485e+00 2.6268561688e+00 4.5498483485e+00 
64400 4.6894116553e+00 -2.7899179538e-03 2.6269093780e+00 -4.5499405096e+00 2.6269093780e+00 4.5499405096e+00 
64500 4.6894114756e+00 -2.7844168742e-03 2.6269624809e+00 -4.5500324865e+00 2.6269624809e+00 4.5500324865e+00 
64600 4.6894112966e+00 -2.7789486376e-03 2.6270154780e+00 -4.5501242801e+00 2.6270154780e+00 4.5501242801e+00 
64700 4.6894111183e+00 -2.7735130285e-03 2.6270683699e+00 -4.5502158916e+00 2.6270683699e+00 4.5502158916e+00 
64800 4.6894109406e+00 -2.7681098326e-03 2.6271211573e+00 -4.5503073221e+00 2.6271211573e+00 4.5503073221e+00 
64900 4.6894107635e+00 -2.7627388371e-03 2.6271738408e+00 -4.5503985726e+00 2.6271738408e+00 4.5503985726e+00 
65000 4.6894105871e+00 -2.7573998308e-03 2.6272264210e+00 -4.5504896442e+00 2.6272264210e+00 4.5504896442e+00 
65100 4.6894104113e+00 -2.7520926036e-03 2.6272788986e+00 -4.5505805380e+00 2.6272788986e+00 4.5505805380e+00 
65200 4.6894102361e+00 -2.7468169472e-03 2.6273312741e+00 -4.5506712551e+00 2.6273312741e+00 4.5506712551e+00 
65300 4.6894100615e+00 -2.7415726544e-03 2.6273835482e+00 -4.5507617964e+00 2.6273835482e+00 4.5507617964e+00 
65400 4.6894098875e+00 -2.7363595196e-03 2.6274357214e+00 -4.5508521631e+00 2.6274357214e+00 4.5508521631e+00 
65500 4.6894097142e+00 -2.7311773383e-03 2.6274877944e+00 -4.5509423562e+00 2.6274877944e+00 4.5509423562e+00 
65600 4.6894095414e+00 -2.7260259077e-03 2.6275397677e+00 -4.5510323766e+00 2.6275397677e+00 4.5510323766e+00 
65700 4.6894093692e+00 -2.7209050261e-03 2.6275916420e+00 -4.5511222255e+00 2.6275916420e+00 4.5511222255e+00 
65800 4.6894091976e+00 -2.7158144933e-03 2.6276434178e+00 -4.5512119039e+00 2.6276434178e+00 4.5512119039e+00 
65900 4.6894090266e+00 -2.7107541104e-03 2.6276950958e+00 -4.5513014127e+00 2.6276950958e+00 4.5513014127e+00 
66000 4.6894088561e+00 -2.7057236799e-03 2.6277466764e+00 -4.5513907529e+00 2.6277466764e+00 4.5513907529e+00 
66100 4.6894086862e+00 -2.7007230055e-03 2.6277981603e+00 -4.5514799256e+00 2.6277981603e+00 4.5514799256e+00 
66200 4.6894085168e+00 -2.6957518922e-03 2.6278495480e+00 -4.5515689318e+00 2.6278495480e+00 4.5515689318e+00 
66300 4.6894083480e+00 -2.6908101465e-03 2.6279008401e+00 -4.5516577724e+00 2.6279008401e+00 4.5516577724e+00 
66400 4.6894081798e+00 -2.6858975759e-03 2.6279520373e+00 -4.5517464484e+00 2.6279520373e+00 4.5517464484e+00 
66500 4.6894080120e+00 -2.6810139895e-03 2.6280031399e+00 -4.5518349608e+00 2.6280031399e+00 4.5518349608e+00 
66600 4.6894078448e+00 -2.6761591975e-03 2.6280541487e+00 -4.5519233105e+00 2.6280541487e+00 4.5519233105e+00 
66700 4.6894076782e+00 -2.6713330113e-03 2.6281050640e+00 -4.5520114986e+00 2.6281050640e+00 4.5520114986e+00 
66800 4.6894075120e+00 -2.6665352438e-03 2.6281558866e+00 -4.5520995258e+00 2.6281558866e+00 4.5520995258e+00 
66900 4.6894073464e+00 -2.6617657089e-03 2.6282066169e+00 -4.5521873933e+00 2.6282066169e+00 4.5521873933e+00 
67000 4.6894071813e+00 -2.6570242218e-03 2.6282572555e+00 -4.5522751020e+00 2.6282572555e+00 4.5522751020e+00 
67100 4.6894070167e+00 -2.6523105991e-03 2.6283078030e+00 -4.5523626527e+00 2.6283078030e+00 4.5523626527e+00 
67200 4.6894068525e+00 -2.6476246585e-03 2.6283582598e+00 -4.5524500464e+00 2.6283582598e+00 4.5524500464e+00 
67300 4.6894066889e+00 -2.6429662187e-03 2.6284086264e+00 -4.5525372840e+00 2.6284086264e+00 4.5525372840e+00 
67400 4.6894065258e+00 -2.6383351001e-03 2.6284589035e+00 -4.5526243665e+00 2.6284589035e+00 4.5526243665e+00 
67500 4.6894063631e+00 -2.6337311238e-03 2.6285090915e+00 -4.5527112947e+00 2.6285090915e+00 4.5527112947e+00 
67600 4.6894062009e+00 -2.6291541124e-03 2.6285591910e+00 -4.5527980696e+00 2.6285591910e+00 4.5527980696e+00 
67700 4.6894060392e+00 -2.6246038895e-03 2.6286092025e+00 -4.5528846920e+00 2.6286092025e+00 4.5528846920e+00 
67800 4.6894058780e+00 -2.6200802801e-03 2.6286591265e+00 -4.5529711629e+00 2.6286591265e+00 4.5529711629e+00 
67900 4.6894057172e+00 -2.6155831101e-03 2.6287089635e+00 -4.5530574830e+00 2.6287089635e+00 4.5530574830e+00 
68000 4.6894055569e+00 -2.6111122067e-03 2.6287587140e+00 -4.5531436534e+00 2.6287587140e+00 4.5531436534e+00 
68100 4.6894053970e+00 -2.6066673983e-03 2.6288083785e+00 -4.5532296749e+00 2.6288083785e+00 4.5532296749e+00 
68200 4.6894052376e+00 -2.6022485142e-03 2.6288579575e+00 -4.5533155483e+00 2.6288579575e+00 4.5533155483e+00 
68300 4.6894050787e+00 -2.5978553851e-03 2.6289074516e+00 -4.5534012745e+00 2.6289074516e+00 4.5534012745e+00 
68400 4.6894049201e+00 -2.5934878428e-03 2.6289568611e+00 -4.5534868544e+00 2.6289568611e+00 4.5534868544e+00 
68500 4.6894047620e+00 -2.5891457199e-03 2.6290061867e+00 -4.5535722888e+00 2.6290061867e+00 4.5535722888e+00 
68600 4.6894046044e+00 -2.5848288505e-03 2.6290554288e+00 -4.5536575785e+00 2.6290554288e+00 4.5536575785e+00 
68700 4.6894044471e+00 -2.5805370697e-03 2.6291045878e+00 -4.5537427245e+00 2.6291045878e+00 4.5537427245e+00 
68800 4.6894042903e+00 -2.5762702134e-03 2.6291536643e+00 -4.5538277275e+00 2.6291536643e+00 4.5538277275e+00 
68900 4.6894041339e+00 -2.5720281191e-03 2.6292026587e+00 -4.5539125883e+00 2.6292026587e+00 4.5539125883e+00 
69000 4.6894039779e+00 -2.5678106248e-03 2.6292515716e+00 -4.5539973079e+00 2.6292515716e+00 4.5539973079e+00 
69100 4.6894038223e+00 -2.5636175701e-03 2.6293004033e+00 -4.5540818869e+00 2.6293004033e+00 4.5540818869e+00 
69200 4.6894036672e+00 -2.5594487954e-03 2.6293491544e+00 -4.5541663263e+00 2.6293491544e+00 4.5541663263e+00 
69300 4.6894035124e+00 -2.5553041420e-03 2.6293978253e+00 -4.5542506268e+00 2.6293978253e+00 4.5542506268e+00 
69400 4.6894033580e+00 -2.5511834526e-03 2.6294464165e+00 -4.5543347892e+00 2.6294464165e+00 4.5543347892e+00 
69500 4.6894032040e+00 -2.5470865707e-03 2.6294949285e+00 -4.5544188144e+00 2.6294949285e+00 4.5544188144e+00 
69600 4.6894030504e+00 -2.5430133409e-03 2.6295433616e+00 -4.5545027031e+00 2.6295433616e+00 4.5545027031e+00 
69700 4.6894028972e+00 -2.5389636088e-03 2.6295917164e+00 -4.5545864560e+00 2.6295917164e+00 4.5545864560e+00 
69800 4.6894027444e+00 -2.5349372211e-03 2.6296399934e+00 -4.5546700741e+00 2.6296399934e+00 4.5546700741e+00 
69900 4.6894025919e+00 -2.5309340254e-03 2.6296881928e+00 -4.5547535580e+00 2.6296881928e+00 4.5547535580e+00 
70000 4.6894024398e+00 -2.5269538704e-03 2.6297363153e+00 -4.5548369086e+00 2.6297363153e+00 4.5548369086e+00 
70100 4.6894022881e+00 -2.5229966058e-03 2.6297843612e+00 -4.5549201266e+00 2.6297843612e+00 4.5549201266e+00 
70200 4.6894021368e+00 -2.5190620822e-03 2.6298323310e+00 -4.5550032127e+00 2.6298323310e+00 4.5550032127e+00 
70300 4.6894019858e+00 -2.5151501511e-03 2.6298802251e+00 -4.5550861677e+00 2.6298802251e+00 4.5550861677e+00 
70400 4.6894018352e+00 -2.5112606653e-03 2.6299280440e+00 -4.5551689924e+00 2.6299280440e+00 4.5551689924e+00 
70500 4.6894016849e+00 -2.5073934783e-03 2.6299757880e+00 -4.5552516875e+00 2.6299757880e+00 4.5552516875e+00 
70600 4.6894015350e+00 -2.5035484446e-03 2.6300234577e+00 -4.5553342538e+00 2.6300234577e+00 4.5553342538e+00 
70700 4.6894013854e+00 -2.4997254198e-03 2.6300710534e+00 -4.5554166920e+00 2.6300710534e+00 4.5554166920e+00 
70800 4.6894012362e+00 -2.4959242603e-03 2.6301185755e+00 -4.5554990028e+00 2.6301185755e+00 4.5554990028e+00 
70900 4.6894010873e+00 -2.4921448234e-03 2.6301660246e+00 -4.5555811869e+00 2.6301660246e+00 4.5555811869e+00 
71000 4.6894009387e+00 -2.4883869675e-03 2.6302134009e+00 -4.5556632451e+00 2.6302134009e+00 4.5556632451e+00 
71100 4.6894007905e+00 -2.4846505519e-03 2.6302607049e+00 -4.5557451781e+00 2.6302607049e+00 4.5557451781e+00 
71200 4.6894006426e+00 -2.4809354367e-03 2.6303079371e+00 -4.5558269866e+00 2.6303079371e+00 4.5558269866e+00 
71300 4.6894004951e+00 -2.4772414830e-03 2.6303550978e+00 -4.5559086713e+00 2.6303550978e+00 4.5559086713e+00 
71400 4.6894003478e+00 -2.4735685529e-03 2.6304021874e+00 -4.5559902330e+00 2.6304021874e+00 4.5559902330e+00 
71500 4.6894002009e+00 -2.4699165092e-03 2.6304492064e+00 -4.5560716722e+00 2.6304492064e+00 4.5560716722e+00 
71600 4.6894000543e+00 -2.4662852158e-03 2.6304961551e+00 -4.5561529898e+00 2.6304961551e+00 4.5561529898e+00 
71700 4.6893999081e+00 -2.4626745373e-03 2.6305430340e+00 -4.5562341863e+00 2.6305430340e+00 4.5562341863e+00 
71800 4.6893997621e+00 -2.4590843394e-03 2.6305898433e+00 -4.5563152625e+00 2.6305898433e+00 4.5563152625e+00 
71900 4.6893996164e+00 -2.4555144886e-03 2.6306365836e+00 -4.5563962191e+00 2.6306365836e+00 4.5563962191e+00 
72000 4.6893994711e+00 -2.4519648521e-03 2.6306832553e+00 -4.5564770567e+00 2.6306832553e+00 4.5564770567e+00 
72100 4.6893993260e+00 -2.4484352982e-03 2.6307298586e+00 -4.5565577761e+00 2.6307298586e+00 4.5565577761e+00 
72200 4.6893991813e+00 -2.4449256960e-03 2.6307763940e+00 -4.5566383778e+00 2.6307763940e+00 4.5566383778e+00 
72300 4.6893990369e+00 -2.4414359154e-03 2.6308228619e+00 -4.5567188626e+00 2.6308228619e+00 4.5567188626e+00 
72400 4.6893988927e+00 -2.4379658271e-03 2.6308692627e+00 -4.5567992310e+00 2.6308692627e+00 4.5567992310e+00 
72500 4.6893987488e+00 -2.4345153029e-03 2.6309155967e+00 -4.5568794838e+00 2.6309155967e+00 4.5568794838e+00 
72600 4.6893986053e+00 -2.4310842151e-03 2.6309618642e+00 -4.5569596216e+00 2.6309618642e+00 4.5569596216e+00 
72700 4.6893984620e+00 -2.4276724371e-03 2.6310080658e+00 -4.5570396451e+00 2.6310080658e+00 4.5570396451e+00 
72800 4.6893983190e+00 -2.4242798430e-03 2.6310542017e+00 -4.5571195549e+00 2.6310542017e+00 4.5571195549e+00 
72900 4.6893981763e+00 -2.4209063078e-03 2.6311002724e+00 -4.5571993516e+00 2.6311002724e+00 4.5571993516e+00 
73000 4.6893980338e+00 -2.4175517072e-03 2.6311462781e+00 -4.5572790358e+00 2.6311462781e+00 4.5572790358e+00 
73100 4.6893978917e+00 -2.4142159178e-03 2.6311922193e+00 -4.5573586082e+00 2.6311922193e+00 4.5573586082e+00 
73200 4.6893977498e+00 -2.4108988169e-03 2.6312380962e+00 -4.5574380695e+00 2.6312380962e+00 4.5574380695e+00 
73300 4.6893976082e+00 -2.4076002828e-03 2.6312839094e+00 -4.5575174202e+00 2.6312839094e+00 4.5575174202e+00 
73400 4.6893974668e+00 -2.4043201944e-03 2.6313296590e+00 -4.5575966609e+00 2.6313296590e+00 4.5575966609e+00 
73500 4.6893973257e+00 -2.4010584315e-03 2.6313753456e+00 -4.5576757924e+00 2.6313753456e+00 4.5576757924e+00 
73600 4.6893971849e+00 -2.3978148746e-03 2.6314209694e+00 -4.5577548150e+00 2.6314209694e+00 4.5577548150e+00 
73700 4.6893970443e+00 -2.3945894051e-03 2.6314665307e+00 -4.5578337296e+00 2.6314665307e+00 4.5578337296e+00 
73800 4.6893969040e+00 -2.3913819050e-03 2.6315120300e+00 -4.5579125367e+00 2.6315120300e+00 4.5579125367e+00 
73900 4.6893967640e+00 -2.3881922573e-03 2.6315574675e+00 -4.5579912368e+00 2.6315574675e+00 4.5579912368e+00 
74000 4.6893966242e+00 -2.3850203455e-03 2.6316028437e+00 -4.5580698306e+00 2.6316028437e+00 4.5580698306e+00 
74100 4.6893964847e+00 -2.3818660540e-03 2.6316481588e+00 -4.5581483187e+00 2.6316481588e+00 4.5581483187e+00 
74200 4.6893963454e+00 -2.3787292680e-03 2.6316934132e+00 -4.5582267016e+00 2.6316934132e+00 4.5582267016e+00 
74300 4.6893962063e+00 -2.3756098733e-03 2.6317386072e+00 -4.5583049799e+00 2.6317386072e+00 4.5583049799e+00 
74400 4.6893960675e+00 -2.3725077566e-03 2.6317837412e+00 -4.5583831543e+00 2.6317837412e+00 4.5583831543e+00 
74500 4.6893959290e+00 -2.3694228052e-03 2.6318288155e+00 -4.5584612252e+00 2.6318288155e+00 4.5584612252e+00 
74600 4.6893957907e+00 -2.3663549073e-03 2.6318738303e+00 -4.5585391933e+00 2.6318738303e+00 4.5585391933e+00 
74700 4.6893956526e+00 -2.3633039516e-03 2.6319187862e+00 -4.5586170590e+00 2.6319187862e+00 4.5586170590e+00 
74800 4.6893955148e+00 -2.3602698276e-03 2.6319636833e+00 -4.5586948231e+00 2.6319636833e+00 4.5586948231e+00 
74900 4.6893953772e+00 -2.3572524257e-03 2.6320085220e+00 -4.5587724860e+00 2.6320085220e+00 4.5587724860e+00 
75000 4.6893952398e+00 -2.3542516369e-03 2.6320533026e+00 -4.5588500483e+00 2.6320533026e+00 4.5588500483e+00 
75100 4.6893951027e+00 -2.3512673527e-03 2.6320980254e+00 -4.5589275106e+00 2.6320980254e+00 4.5589275106e+00 
75200 4.6893949658e+00 -2.3482994655e-03 2.6321426908e+00 -4.5590048733e+00 2.6321426908e+00 4.5590048733e+00 
75300 4.6893948291e+00 -2.3453478685e-03 2.6321872991e+00 -4.5590821371e+00 2.6321872991e+00 4.5590821371e+00 
75400 4.6893946926e+00 -2.3424124555e-03 2.6322318505e+00 -4.5591593024e+00 2.6322318505e+00 4.5591593024e+00 
75500 4.6893945564e+00 -2.3394931207e-03 2.6322763454e+00 -4.5592363699e+00 2.6322763454e+00 4.5592363699e+00 
75600 4.6893944204e+00 -2.3365897596e-03 2.6323207842e+00 -4.5593133400e+00 2.6323207842e+00 4.5593133400e+00 
75700 4.6893942846e+00 -2.3337022677e-03 2.6323651670e+00 -4.5593902133e+00 2.6323651670e+00 4.5593902133e+00 
75800 4.6893941490e+00 -2.3308305417e-03 2.6324094942e+00 -4.5594669903e+00 2.6324094942e+00 4.5594669903e+00 
75900 4.6893940136e+00 -2.3279744787e-03 2.6324537661e+00 -4.5595436715e+00 2.6324537661e+00 4.5595436715e+00 
76000 4.6893938785e+00 -2.3251339765e-03 2.6324979831e+00 -4.5596202575e+00 2.6324979831e+00 4.5596202575e+00 
76100 4.6893937435e+00 -2.3223089337e-03 2.6325421453e+00 -4.5596967488e+00 2.6325421453e+00 4.5596967488e+00 
76200 4.6893936088e+00 -2.3194992494e-03 2.6325862532e+00 -4.5597731458e+00 2.6325862532e+00 4.5597731458e+00 
76300 4.6893934743e+00 -2.3167048233e-03 2.6326303069e+00 -4.5598494491e+00 2.6326303069e+00 4.5598494491e+00 
76400 4.6893933400e+00 -2.3139255560e-03 2.6326743069e+00 -4.5599256593e+00 2.6326743069e+00 4.5599256593e+00 
76500 4.6893932059e+00 -2.3111613485e-03 2.6327182533e+00 -4.5600017767e+00 2.6327182533e+00 4.5600017767e+00 
76600 4.6893930720e+00 -2.3084121025e-03 2.6327621465e+00 -4.5600778019e+00 2.6327621465e+00 4.5600778019e+00 
76700 4.6893929383e+00 -2.3056777205e-03 2.6328059867e+00 -4.5601537354e+00 2.6328059867e+00 4.5601537354e+00 
76800 4.6893928048e+00 -2.3029581055e-03 2.6328497743e+00 -4.5602295777e+00 2.6328497743e+00 4.5602295777e+00 
76900 4.6893926715e+00 -2.3002531609e-03 2.6328935095e+00 -4.5603053293e+00 2.6328935095e+00 4.5603053293e+00 
77000 4.6893925384e+00 -2.2975627912e-03 2.6329371926e+00 -4.5603809907e+00 2.6329371926e+00 4.5603809907e+00 
77100 4.6893924054e+00 -2.2948869012e-03 2.6329808239e+00 -4.5604565623e+00 2.6329808239e+00 4.5604565623e+00 
77200 4.6893922727e+00 -2.2922253963e-03 2.6330244036e+00 -4.5605320447e+00 2.6330244036e+00 4.5605320447e+00 
77300 4.6893921402e+00 -2.2895781827e-03 2.6330679321e+00 -4.5606074382e+00 2.6330679321e+00 4.5606074382e+00 
77400 4.6893920079e+00 -2.2869451670e-03 2.6331114096e+00 -4.5606827435e+00 2.6331114096e+00 4.5606827435e+00 
77500 4.6893918757e+00 -2.2843262566e-03 2.6331548364e+00 -4.5607579609e+00 2.6331548364e+00 4.5607579609e+00 
77600 4.6893917437e+00 -2.2817213593e-03 2.6331982128e+00 -4.5608330909e+00 2.6331982128e+00 4.5608330909e+00 
77700 4.6893916120e+00 -2.2791303836e-03 2.6332415389e+00 -4.5609081340e+00 2.6332415389e+00 4.5609081340e+00 
77800 4.6893914804e+00 -2.2765532386e-03 2.6332848152e+00 -4.5609830907e+00 2.6332848152e+00 4.5609830907e+00 
77900 4.6893913490e+00 -2.2739898340e-03 2.6333280418e+00 -4.5610579614e+00 2.6333280418e+00 4.5610579614e+00 
78000 4.6893912177e+00 -2.2714400800e-03 2.6333712190e+00 -4.5611327465e+00 2.6333712190e+00 4.5611327465e+00 
78100 4.6893910867e+00 -2.2689038874e-03 2.6334143471e+00 -4.5612074466e+00 2.6334143471e+00 4.5612074466e+00 
78200 4.6893909558e+00 -2.2663811677e-03 2.6334574264e+00 -4.5612820621e+00 2.6334574264e+00 4.5612820621e+00 
78300 4.6893908251e+00 -2.2638718329e-03 2.6335004570e+00 -4.5613565933e+00 2.6335004570e+00 4.5613565933e+00 
78400 4.6893906946e+00 -2.2613757953e-03 2.6335434393e+00 -4.5614310408e+00 2.6335434393e+00 4.5614310408e+00 
78500 4.6893905643e+00 -2.2588929683e-03 2.6335863735e+00 -4.5615054051e+00 2.6335863735e+00 4.5615054051e+00 
78600 4.6893904341e+00 -2.2564232653e-03 2.6336292599e+00 -4.5615796864e+00 2.6336292599e+00 4.5615796864e+00 
78700 4.6893903041e+00 -2.2539666007e-03 2.6336720987e+00 -4.5616538854e+00 2.6336720987e+00 4.5616538854e+00 
78800 4.6893901743e+00 -2.2515228891e-03 2.6337148901e+00 -4.5617280023e+00 2.6337148901e+00 4.5617280023e+00 
78900 4.6893900446e+00 -2.2490920460e-03 2.6337576345e+00 -4.5618020377e+00 2.6337576345e+00 4.5618020377e+00 
79000 4.6893899151e+00 -2.2466739872e-03 2.6338003320e+00 -4.5618759920e+00 2.6338003320e+00 4.5618759920e+00 
79100 4.6893897858e+00 -2.2442686290e-03 2.6338429829e+00 -4.5619498656e+00 2.6338429829e+00 4.5619498656e+00 
79200 4.6893896567e+00 -2.2418758885e-03 2.6338855875e+00 -4.5620236588e+00 2.6338855875e+00 4.5620236588e+00 
79300 4.6893895277e+00 -2.2394956830e-03 2.6339281459e+00 -4.5620973722e+00 2.6339281459e+00 4.5620973722e+00 
79400 4.6893893989e+00 -2.2371279306e-03 2.6339706585e+00 -4.5621710062e+00 2.6339706585e+00 4.5621710062e+00 
79500 4.6893892702e+00 -2.2347725499e-03 2.6340131255e+00 -4.5622445611e+00 2.6340131255e+00 4.5622445611e+00 
79600 4.6893891417e+00 -2.2324294598e-03 2.6340555470e+00 -4.5623180374e+00 2.6340555470e+00 4.5623180374e+00 
79700 4.6893890133e+00 -2.2300985800e-03 2.6340979234e+00 -4.5623914355e+00 2.6340979234e+00 4.5623914355e+00 
79800 4.6893888852e+00 -2.2277798305e-03 2.6341402549e+00 -4.5624647557e+00 2.6341402549e+00 4.5624647557e+00 
79900 4.6893887571e+00 -2.2254731319e-03 2.6341825416e+00 -4.5625379985e+00 2.6341825416e+00 4.5625379985e+00 
80000 4.6893886293e+00 -2.2231784054e-03 2.6342247840e+00 -4.5626111644e+00 2.6342247840e+00 4.5626111644e+00 
80100 4.6893885016e+00 -2.2208955725e-03 2.6342669820e+00 -4.5626842536e+00 2.6342669820e+00 4.5626842536e+00 
80200 4.6893883740e+00 -2.2186245555e-03 2.6343091361e+00 -4.5627572666e+00 2.6343091361e+00 4.5627572666e+00 
80300 4.6893882466e+00 -2.2163652768e-03 2.6343512464e+00 -4.5628302037e+00 2.6343512464e+00 4.5628302037e+00 
80400 4.6893881193e+00 -2.2141176597e-03 2.6343933131e+00 -4.5629030655e+00 2.6343933131e+00 4.5629030655e+00 
80500 4.6893879922e+00 -2.2118816277e-03 2.6344353365e+00 -4.5629758521e+00 2.6344353365e+00 4.5629758521e+00 
80600 4.6893878653e+00 -2.2096571050e-03 2.6344773168e+00 -4.5630485641e+00 2.6344773168e+00 4.5630485641e+00 
80700 4.6893877385e+00 -2.2074440161e-03 2.6345192542e+00 -4.5631212019e+00 2.6345192542e+00 4.5631212019e+00 
80800 4.6893876118e+00 -2.2052422861e-03 2.6345611490e+00 -4.5631937657e+00 2.6345611490e+00 4.5631937657e+00 
80900 4.6893874853e+00 -2.2030518405e-03 2.6346030013e+00 -4.5632662560e+00 2.6346030013e+00 4.5632662560e+00 
81000 4.6893873589e+00 -2.2008726054e-03 2.6346448113e+00 -4.5633386731e+00 2.6346448113e+00 4.5633386731e+00 
81100 4.6893872327e+00 -2.1987045073e-03 2.6346865793e+00 -4.5634110174e+00 2.6346865793e+00 4.5634110174e+00 
81200 4.6893871066e+00 -2.1965474732e-03 2.6347283056e+00 -4.5634832894e+00 2.6347283056e+00 4.5634832894e+00 
81300 4.6893869807e+00 -2.1944014304e-03 2.6347699902e+00 -4.5635554893e+00 2.6347699902e+00 4.5635554893e+00 
81400 4.6893868549e+00 -2.1922663070e-03 2.6348116334e+00 -4.5636276175e+00 2.6348116334e+00 4.5636276175e+00 
81500 4.6893867293e+00 -2.1901420312e-03 2.6348532355e+00 -4.5636996744e+00 2.6348532355e+00 4.5636996744e+00 
81600 4.6893866038e+00 -2.1880285319e-03 2.6348947966e+00 -4.5637716603e+00 2.6348947966e+00 4.5637716603e+00 
81700 4.6893864784e+00 -2.1859257384e-03 2.6349363169e+00 -4.5638435756e+00 2.6349363169e+00 4.5638435756e+00 
81800 4.6893863532e+00 -2.1838335804e-03 2.6349777967e+00 -4.5639154207e+00 2.6349777967e+00 4.5639154207e+00 
81900 4.6893862281e+00 -2.1817519881e-03 2.6350192361e+00 -4.5639871959e+00 2.6350192361e+00 4.5639871959e+00 
82000 4.6893861031e+00 -2.1796808921e-03 2.6350606354e+00 -4.5640589015e+00 2.6350606354e+00 4.5640589015e+00 
82100 4.6893859783e+00 -2.1776202236e-03 2.6351019947e+00 -4.5641305380e+00 2.6351019947e+00 4.5641305380e+00 
82200 4.6893858536e+00 -2.1755699139e-03 2.6351433143e+00 -4.5642021056e+00 2.6351433143e+00 4.5642021056e+00 
82300 4.6893857291e+00 -2.1735298951e-03 2.6351845943e+00 -4.5642736047e+00 2.6351845943e+00 4.5642736047e+00 
82400 4.6893856047e+00 -2.1715000996e-03 2.6352258350e+00 -4.5643450356e+00 2.6352258350e+00 4.5643450356e+00 
82500 4.6893854804e+00 -2.1694804602e-03 2.6352670365e+00 -4.5644163987e+00 2.6352670365e+00 4.5644163987e+00 
82600 4.6893853562e+00 -2.1674709101e-03 2.6353081991e+00 -4.5644876944e+00 2.6353081991e+00 4.5644876944e+00 
82700 4.6893852322e+00 -2.1654713831e-03 2.6353493228e+00 -4.5645589228e+00 2.6353493228e+00 4.5645589228e+00 
82800 4.6893851083e+00 -2.1634818131e-03 2.6353904080e+00 -4.5646300845e+00 2.6353904080e+00 4.5646300845e+00 
82900 4.6893849846e+00 -2.1615021349e-03 2.6354314548e+00 -4.5647011797e+00 2.6354314548e+00 4.5647011797e+00 
83000 4.6893848609e+00 -2.1595322832e-03 2.6354724635e+00 -4.5647722087e+00 2.6354724635e+00 4.5647722087e+00 
83100 4.6893847374e+00 -2.1575721934e-03 2.6355134341e+00 -4.5648431718e+00 2.6355134341e+00 4.5648431718e+00 
83200 4.6893846141e+00 -2.1556218014e-03 2.6355543668e+00 -4.5649140695e+00 2.6355543668e+00 4.5649140695e+00 
83300 4.6893844908e+00 -2.1536810433e-03 2.6355952620e+00 -4.5649849019e+00 2.6355952620e+00 4.5649849019e+00 
83400 4.6893843677e+00 -2.1517498556e-03 2.6356361197e+00 -4.5650556695e+00 2.6356361197e+00 4.5650556695e+00 
83500 4.6893842447e+00 -2.1498281755e-03 2.6356769401e+00 -4.5651263726e+00 2.6356769401e+00 4.5651263726e+00 
83600 4.6893841218e+00 -2.1479159403e-03 2.6357177234e+00 -4.5651970114e+00 2.6357177234e+00 4.5651970114e+00 
83700 4.6893839991e+00 -2.1460130877e-03 2.6357584698e+00 -4.5652675862e+00 2.6357584698e+00 4.5652675862e+00 
83800 4.6893838764e+00 -2.1441195560e-03 2.6357991795e+00 -4.5653380975e+00 2.6357991795e+00 4.5653380975e+00 
83900 4.6893837539e+00 -2.1422352838e-03 2.6358398527e+00 -4.5654085455e+00 2.6358398527e+00 4.5654085455e+00 
84000 4.6893836316e+00 -2.1403602100e-03 2.6358804895e+00 -4.5654789304e+00 2.6358804895e+00 4.5654789304e+00 
84100 4.6893835093e+00 -2.1384942741e-03 2.6359210900e+00 -4.5655492527e+00 2.6359210900e+00 4.5655492527e+00 
84200 4.6893833871e+00 -2.1366374158e-03 2.6359616546e+00 -4.5656195126e+00 2.6359616546e+00 4.5656195126e+00 
84300 4.6893832651e+00 -2.1347895751e-03 2.6360021833e+00 -4.5656897104e+00 2.6360021833e+00 4.5656897104e+00 
84400 4.6893831432e+00 -2.1329506928e-03 2.6360426764e+00 -4.5657598464e+00 2.6360426764e+00 4.5657598464e+00 
84500 4.6893830214e+00 -2.1311207096e-03 2.6360831339e+00 -4.5658299209e+00 2.6360831339e+00 4.5658299209e+00 
84600 4.6893828998e+00 -2.1292995668e-03 2.6361235561e+00 -4.5658999342e+00 2.6361235561e+00 4.5658999342e+00 
84700 4.6893827782e+00 -2.1274872061e-03 2.6361639432e+00 -4.5659698867e+00 2.6361639432e+00 4.5659698867e+00 
84800 4.6893826568e+00 -2.1256835696e-03 2.6362042952e+00 -4.5660397785e+00 2.6362042952e+00 4.5660397785e+00 
84900 4.6893825355e+00 -2.1238885996e-03 2.6362446125e+00 -4.5661096100e+00 2.6362446125e+00 4.5661096100e+00 
85000 4.6893824143e+00 -2.1221022389e-03 2.6362848950e+00 -4.5661793814e+00 2.6362848950e+00 4.5661793814e+00 
85100 4.6893822932e+00 -2.1203244306e-03 2.6363251431e+00 -4.5662490931e+00 2.6363251431e+00 4.5662490931e+00 
85200 4.6893821722e+00 -2.1185551182e-03 2.6363653568e+00 -4.5663187454e+00 2.6363653568e+00 4.5663187454e+00 
85300 4.6893820513e+00 -2.1167942456e-03 2.6364055364e+00 -4.5663883384e+00 2.6364055364e+00 4.5663883384e+00 
85400 4.6893819306e+00 -2.1150417571e-03 2.6364456820e+00 -4.5664578726e+00 2.6364456820e+00 4.5664578726e+00 
85500 4.6893818099e+00 -2.1132975970e-03 2.6364857937e+00 -4.5665273481e+00 2.6364857937e+00 4.5665273481e+00 
85600 4.6893816894e+00 -2.1115617105e-03 2.6365258717e+00 -4.5665967653e+00 2.6365258717e+00 4.5665967653e+00 
85700 4.6893815690e+00 -2.1098340427e-03 2.6365659162e+00 -4.5666661244e+00 2.6365659162e+00 4.5666661244e+00 
85800 4.6893814487e+00 -2.1081145394e-03 2.6366059273e+00 -4.5667354257e+00 2.6366059273e+00 4.5667354257e+00 
85900 4.6893813285e+00 -2.1064031463e-03 2.6366459052e+00 -4.5668046694e+00 2.6366459052e+00 4.5668046694e+00 
86000 4.6893812084e+00 -2.1046998100e-03 2.6366858501e+00 -4.5668738559e+00 2.6366858501e+00 4.5668738559e+00 
86100 4.6893810884e+00 -2.1030044770e-03 2.6367257620e+00 -4.5669429855e+00 2.6367257620e+00 4.5669429855e+00 
86200 4.6893809686e+00 -2.1013170943e-03 2.6367656412e+00 -4.5670120582e+00 2.6367656412e+00 4.5670120582e+00 
86300 4.6893808488e+00 -2.0996376092e-03 2.6368054878e+00 -4.5670810746e+00 2.6368054878e+00 4.5670810746e+00 
86400 4.6893807292e+00 -2.0979659696e-03 2.6368453020e+00 -4.5671500347e+00 2.6368453020e+00 4.5671500347e+00 
86500 4.6893806096e+00 -2.0963021232e-03 2.6368850838e+00 -4.5672189388e+00 2.6368850838e+00 4.5672189388e+00 
86600 4.6893804902e+00 -2.0946460185e-03 2.6369248335e+00 -4.5672877873e+00 2.6369248335e+00 4.5672877873e+00 
86700 4.6893803708e+00 -2.0929976042e-03 2.6369645512e+00 -4.5673565804e+00 2.6369645512e+00 4.5673565804e+00 
86800 4.6893802516e+00 -2.0913568292e-03 2.6370042370e+00 -4.5674253183e+00 2.6370042370e+00 4.5674253183e+00 
86900 4.6893801325e+00 -2.0897236429e-03 2.6370438911e+00 -4.5674940012e+00 2.6370438911e+00 4.5674940012e+00 
87000 4.6893800135e+00 -2.0880979948e-03 2.6370835137e+00 -4.5675626295e+00 2.6370835137e+00 4.5675626295e+00 
87100 4.6893798946e+00 -2.0864798350e-03 2.6371231049e+00 -4.5676312034e+00 2.6371231049e+00 4.5676312034e+00 
87200 4.6893797757e+00 -2.0848691138e-03 2.6371626647e+00 -4.5676997231e+00 2.6371626647e+00 4.5676997231e+00 
87300 4.6893796570e+00 -2.0832657817e-03 2.6372021935e+00 -4.5677681889e+00 2.6372021935e+00 4.5677681889e+00 
87400 4.6893795384e+00 -2.0816697897e-03 2.6372416912e+00 -4.5678366010e+00 2.6372416912e+00 4.5678366010e+00 
87500 4.6893794199e+00 -2.0800810889e-03 2.6372811581e+00 -4.5679049597e+00 2.6372811581e+00 4.5679049597e+00 
87600 4.6893793015e+00 -2.0784996309e-03 2.6373205943e+00 -4.5679732652e+00 2.6373205943e+00 4.5679732652e+00 
87700 4.6893791832e+00 -2.0769253676e-03 2.6373599999e+00 -4.5680415177e+00 2.6373599999e+00 4.5680415177e+00 
87800 4.6893790650e+00 -2.0753582512e-03 2.6373993751e+00 -4.5681097175e+00 2.6373993751e+00 4.5681097175e+00 
87900 4.6893789469e+00 -2.0737982339e-03 2.6374387200e+00 -4.5681778648e+00 2.6374387200e+00 4.5681778648e+00 
88000 4.6893788289e+00 -2.0722452688e-03 2.6374780347e+00 -4.5682459599e+00 2.6374780347e+00 4.5682459599e+00 
88100 4.6893787110e+00 -2.0706993087e-03 2.6375173194e+00 -4.5683140030e+00 2.6375173194e+00 4.5683140030e+00 
88200 4.6893785932e+00 -2.0691603071e-03 2.6375565742e+00 -4.5683819943e+00 2.6375565742e+00 4.5683819943e+00 
88300 4.6893784755e+00 -2.0676282176e-03 2.6375957992e+00 -4.5684499341e+00 2.6375957992e+00 4.5684499341e+00 
88400 4.6893783579e+00 -2.0661029941e-03 2.6376349947e+00 -4.5685178226e+00 2.6376349947e+00 4.5685178226e+00 
88500 4.6893782404e+00 -2.0645845910e-03 2.6376741606e+00 -4.5685856599e+00 2.6376741606e+00 4.5685856599e+00 
88600 4.6893781230e+00 -2.0630729627e-03 2.6377132971e+00 -4.5686534464e+00 2.6377132971e+00 4.5686534464e+00 
88700 4.6893780057e+00 -2.0615680641e-03 2.6377524045e+00 -4.5687211823e+00 2.6377524045e+00 4.5687211823e+00 
88800 4.6893778885e+00 -2.0600698503e-03 2.6377914827e+00 -4.5687888678e+00 2.6377914827e+00 4.5687888678e+00 
88900 4.6893777714e+00 -2.0585782767e-03 2.6378305319e+00 -4.5688565030e+00 2.6378305319e+00 4.5688565030e+00 
89000 4.6893776544e+00 -2.0570932990e-03 2.6378695523e+00 -4.5689240883e+00 2.6378695523e+00 4.5689240883e+00 
89100 4.6893775374e+00 -2.0556148731e-03 2.6379085440e+00 -4.5689916239e+00 2.6379085440e+00 4.5689916239e+00 
89200 4.6893774206e+00 -2.0541429554e-03 2.6379475070e+00 -4.5690591099e+00 2.6379475070e+00 4.5690591099e+00 
89300 4.6893773039e+00 -2.0526775023e-03 2.6379864416e+00 -4.5691265465e+00 2.6379864416e+00 4.5691265465e+00 
89400 4.6893771872e+00 -2.0512184706e-03 2.6380253478e+00 -4.5691939341e+00 2.6380253478e+00 4.5691939341e+00 
89500 4.6893770707e+00 -2.0497658174e-03 2.6380642259e+00 -4.5692612728e+00 2.6380642259e+00 4.5692612728e+00 
89600 4.6893769543e+00 -2.0483195001e-03 2.6381030758e+00 -4.5693285628e+00 2.6381030758e+00 4.5693285628e+00 
89700 4.6893768379e+00 -2.0468794763e-03 2.6381418977e+00 -4.5693958044e+00 2.6381418977e+00 4.5693958044e+00 
89800 4.6893767216e+00 -2.0454457039e-03 2.6381806917e+00 -4.5694629976e+00 2.6381806917e+00 4.5694629976e+00 
89900 4.6893766055e+00 -2.0440181410e-03 2.6382194580e+00 -4.5695301429e+00 2.6382194580e+00 4.5695301429e+00 
90000 4.6893764894e+00 -2.0425967461e-03 2.6382581967e+00 -4.5695972402e+00 2.6382581967e+00 4.5695972402e+00 
90100 4.6893763734e+00 -2.0411814779e-03 2.6382969079e+00 -4.5696642900e+00 2.6382969079e+00 4.5696642900e+00 
90200 4.6893762575e+00 -2.0397722954e-03 2.6383355917e+00 -4.5697312923e+00 2.6383355917e+00 4.5697312923e+00 
90300 4.6893761417e+00 -2.0383691577e-03 2.6383742482e+00 -4.5697982473e+00 2.6383742482e+00 4.5697982473e+00 
90400 4.6893760260e+00 -2.0369720244e-03 2.6384128776e+00 -4.5698651553e+00 2.6384128776e+00 4.5698651553e+00 
90500 4.6893759104e+00 -2.0355808551e-03 2.6384514799e+00 -4.5699320165e+00 2.6384514799e+00 4.5699320165e+00 
90600 4.6893757948e+00 -2.0341956099e-03 2.6384900553e+00 -4.5699988310e+00 2.6384900553e+00 4.5699988310e+00 
90700 4.6893756794e+00 -2.0328162490e-03 2.6385286039e+00 -4.5700655991e+00 2.6385286039e+00 4.5700655991e+00 
90800 4.6893755641e+00 -2.0314427330e-03 2.6385671257e+00 -4.5701323209e+00 2.6385671257e+00 4.5701323209e+00 
90900 4.6893754488e+00 -2.0300750226e-03 2.6386056210e+00 -4.5701989967e+00 2.6386056210e+00 4.5701989967e+00 
91000 4.6893753336e+00 -2.0287130787e-03 2.6386440898e+00 -4.5702656267e+00 2.6386440898e+00 4.5702656267e+00 
91100 4.6893752186e+00 -2.0273568627e-03 2.6386825322e+00 -4.5703322109e+00 2.6386825322e+00 4.5703322109e+00 
91200 4.6893751036e+00 -2.0260063360e-03 2.6387209484e+00 -4.5703987497e+00 2.6387209484e+00 4.5703987497e+00 
91300 4.6893749887e+00 -2.0246614605e-03 2.6387593384e+00 -4.5704652431e+00 2.6387593384e+00 4.5704652431e+00 
91400 4.6893748739e+00 -2.0233221980e-03 2.6387977024e+00 -4.5705316915e+00 2.6387977024e+00 4.5705316915e+00 
91500 4.6893747591e+00 -2.0219885108e-03 2.6388360405e+00 -4.5705980950e+00 2.6388360405e+00 4.5705980950e+00 
91600 4.6893746445e+00 -2.0206603614e-03 2.6388743527e+00 -4.5706644537e+00 2.6388743527e+00 4.5706644537e+00 
91700 4.6893745299e+00 -2.0193377126e-03 2.6389126392e+00 -4.5707307678e+00 2.6389126392e+00 4.5707307678e+00 
91800 4.6893744155e+00 -2.0180205271e-03 2.6389509001e+00 -4.5707970376e+00 2.6389509001e+00 4.5707970376e+00 
91900 4.6893743011e+00 -2.0167087684e-03 2.6389891355e+00 -4.5708632632e+00 2.6389891355e+00 4.5708632632e+00 
92000 4.6893741868e+00 -2.0154023997e-03 2.6390273454e+00 -4.5709294448e+00 2.6390273454e+00 4.5709294448e+00 
92100 4.6893740726e+00 -2.0141013847e-03 2.6390655301e+00 -4.5709955826e+00 2.6390655301e+00 4.5709955826e+00 
92200 4.6893739585e+00 -2.0128056873e-03 2.6391036895e+00 -4.5710616767e+00 2.6391036895e+00 4.5710616767e+00 
92300 4.6893738445e+00 -2.0115152717e-03 2.6391418239e+00 -4.5711277274e+00 2.6391418239e+00 4.5711277274e+00 
92400 4.6893737305e+00 -2.0102301021e-03 2.6391799333e+00 -4.5711937347e+00 2.6391799333e+00 4.5711937347e+00 
92500 4.6893736167e+00 -2.0089501431e-03 2.6392180177e+00 -4.5712596989e+00 2.6392180177e+00 4.5712596989e+00 
92600 4.6893735029e+00 -2.0076753597e-03 2.6392560774e+00 -4.5713256202e+00 2.6392560774e+00 4.5713256202e+00 
92700 4.6893733892e+00 -2.0064057166e-03 2.6392941123e+00 -4.5713914987e+00 2.6392941123e+00 4.5713914987e+00 
92800 4.6893732756e+00 -2.0051411794e-03 2.6393321227e+00 -4.5714573346e+00 2.6393321227e+00 4.5714573346e+00 
92900 4.6893731621e+00 -2.0038817132e-03 2.6393701086e+00 -4.5715231280e+00 2.6393701086e+00 4.5715231280e+00 
93000 4.6893730487e+00 -2.0026272840e-03 2.6394080700e+00 -4.5715888792e+00 2.6394080700e+00 4.5715888792e+00 
93100 4.6893729353e+00 -2.0013778576e-03 2.6394460072e+00 -4.5716545883e+00 2.6394460072e+00 4.5716545883e+00 
93200 4.6893728221e+00 -2.0001334001e-03 2.6394839201e+00 -4.5717202554e+00 2.6394839201e+00 4.5717202554e+00 
93300 4.6893727089e+00 -1.9988938778e-03 2.6395218089e+00 -4.5717858807e+00 2.6395218089e+00 4.5717858807e+00 
93400 4.6893725958e+00 -1.9976592573e-03 2.6395596737e+00 -4.5718514645e+00 2.6395596737e+00 4.5718514645e+00 
93500 4.6893724828e+00 -1.9964295055e-03 2.6395975146e+00 -4.5719170067e+00 2.6395975146e+00 4.5719170067e+00 
93600 4.6893723698e+00 -1.9952045892e-03 2.6396353316e+00 -4.5719825077e+00 2.6396353316e+00 4.5719825077e+00 
93700 4.6893722570e+00 -1.9939844757e-03 2.6396731249e+00 -4.5720479676e+00 2.6396731249e+00 4.5720479676e+00 
93800 4.6893721442e+00 -1.9927691323e-03 2.6397108945e+00 -4.5721133865e+00 2.6397108945e+00 4.5721133865e+00 
93900 4.6893720315e+00 -1.9915585267e-03 2.6397486405e+00 -4.5721787646e+00 2.6397486405e+00 4.5721787646e+00 
94000 4.6893719189e+00 -1.9903526267e-03 2.6397863631e+00 -4.5722441021e+00 2.6397863631e+00 4.5722441021e+00 
94100 4.6893718064e+00 -1.9891514004e-03 2.6398240623e+00 -4.5723093990e+00 2.6398240623e+00 4.5723093990e+00 
94200 4.6893716940e+00 -1.9879548159e-03 2.6398617383e+00 -4.5723746556e+00 2.6398617383e+00 4.5723746556e+00 
94300 4.6893715816e+00 -1.9867628417e-03 2.6398993910e+00 -4.5724398721e+00 2.6398993910e+00 4.5724398721e+00 
94400 4.6893714694e+00 -1.9855754464e-03 2.6399370206e+00 -4.5725050485e+00 2.6399370206e+00 4.5725050485e+00 
94500 4.6893713572e+00 -1.9843925988e-03 2.6399746272e+00 -4.5725701850e+00 2.6399746272e+00 4.5725701850e+00 
94600 4.6893712451e+00 -1.9832142681e-03 2.6400122108e+00 -4.5726352817e+00 2.6400122108e+00 4.5726352817e+00 
94700 4.6893711330e+00 -1.9820404233e-03 2.6400497716e+00 -4.5727003389e+00 2.6400497716e+00 4.5727003389e+00 
94800 4.6893710211e+00 -1.9808710340e-03 2.6400873096e+00 -4.5727653567e+00 2.6400873096e+00 4.5727653567e+00 
94900 4.6893709092e+00 -1.9797060698e-03 2.6401248250e+00 -4.5728303352e+00 2.6401248250e+00 4.5728303352e+00 
95000 4.6893707974e+00 -1.9785455004e-03 2.6401623177e+00 -4.5728952745e+00 2.6401623177e+00 4.5728952745e+00 
95100 4.6893706857e+00 -1.9773892960e-03 2.6401997880e+00 -4.5729601749e+00 2.6401997880e+00 4.5729601749e+00 
95200 4.6893705741e+00 -1.9762374266e-03 2.6402372358e+00 -4.5730250364e+00 2.6402372358e+00 4.5730250364e+00 
95300 4.6893704626e+00 -1.9750898628e-03 2.6402746612e+00 -4.5730898592e+00 2.6402746612e+00 4.5730898592e+00 
95400 4.6893703511e+00 -1.9739465750e-03 2.6403120644e+00 -4.5731546435e+00 2.6403120644e+00 4.5731546435e+00 
95500 4.6893702397e+00 -1.9728075340e-03 2.6403494455e+00 -4.5732193893e+00 2.6403494455e+00 4.5732193893e+00 
95600 4.6893701284e+00 -1.9716727109e-03 2.6403868044e+00 -4.5732840968e+00 2.6403868044e+00 4.5732840968e+00 
95700 4.6893700172e+00 -1.9705420767e-03 2.6404241413e+00 -4.5733487663e+00 2.6404241413e+00 4.5733487663e+00 
95800 4.6893699060e+00 -1.9694156028e-03 2.6404614563e+00 -4.5734133977e+00 2.6404614563e+00 4.5734133977e+00 
95900 4.6893697950e+00 -1.9682932606e-03 2.6404987494e+00 -4.5734779912e+00 2.6404987494e+00 4.5734779912e+00 
96000 4.6893696840e+00 -1.9671750219e-03 2.6405360207e+00 -4.5735425471e+00 2.6405360207e+00 4.5735425471e+00 
96100 4.6893695731e+00 -1.9660608586e-03 2.6405732703e+00 -4.5736070653e+00 2.6405732703e+00 4.5736070653e+00 
96200 4.6893694622e+00 -1.9649507427e-03 2.6406104983e+00 -4.5736715461e+00 2.6406104983e+00 4.5736715461e+00 
96300 4.6893693515e+00 -1.9638446465e-03 2.6406477048e+00 -4.5737359896e+00 2.6406477048e+00 4.5737359896e+00 
96400 4.6893692408e+00 -1.9627425423e-03 2.6406848898e+00 -4.5738003959e+00 2.6406848898e+00 4.5738003959e+00 
96500 4.6893691302e+00 -1.9616444027e-03 2.6407220534e+00 -4.5738647651e+00 2.6407220534e+00 4.5738647651e+00 
96600 4.6893690197e+00 -1.9605502006e-03 2.6407591957e+00 -4.5739290974e+00 2.6407591957e+00 4.5739290974e+00 
96700 4.6893689092e+00 -1.9594599088e-03 2.6407963167e+00 -4.5739933930e+00 2.6407963167e+00 4.5739933930e+00 
96800 4.6893687989e+00 -1.9583735005e-03 2.6408334166e+00 -4.5740576519e+00 2.6408334166e+00 4.5740576519e+00 
96900 4.6893686886e+00 -1.9572909489e-03 2.6408704954e+00 -4.5741218742e+00 2.6408704954e+00 4.5741218742e+00 
97000 4.6893685784e+00 -1.9562122275e-03 2.6409075531e+00 -4.5741860601e+00 2.6409075531e+00 4.5741860601e+00 
97100 4.6893684682e+00 -1.9551373099e-03 2.6409445900e+00 -4.5742502098e+00 2.6409445900e+00 4.5742502098e+00 
97200 4.6893683582e+00 -1.9540661700e-03 2.6409816059e+00 -4.5743143233e+00 2.6409816059e+00 4.5743143233e+00 
97300 4.6893682482e+00 -1.9529987816e-03 2.6410186011e+00 -4.5743784008e+00 2.6410186011e+00 4.5743784008e+00 
97400 4.6893681383e+00 -1.9519351190e-03 2.6410555755e+00 -4.5744424424e+00 2.6410555755e+00 4.5744424424e+00 
97500 4.6893680285e+00 -1.9508751564e-03 2.6410925293e+00 -4.5745064482e+00 2.6410925293e+00 4.5745064482e+00 
97600 4.6893679187e+00 -1.9498188682e-03 2.6411294625e+00 -4.5745704184e+00 2.6411294625e+00 4.5745704184e+00 
97700 4.6893678091e+00 -1.9487662292e-03 2.6411663752e+00 -4.5746343531e+00 2.6411663752e+00 4.5746343531e+00 
97800 4.6893676995e+00 -1.9477172140e-03 2.6412032674e+00 -4.5746982523e+00 2.6412032674e+00 4.5746982523e+00 
97900 4.6893675899e+00 -1.9466717977e-03 2.6412401393e+00 -4.5747621162e+00 2.6412401393e+00 4.5747621162e+00 
98000 4.6893674805e+00 -1.9456299553e-03 2.6412769908e+00 -4.5748259450e+00 2.6412769908e+00 4.5748259450e+00 
98100 4.6893673711e+00 -1.9445916622e-03 2.6413138222e+00 -4.5748897387e+00 2.6413138222e+00 4.5748897387e+00 
98200 4.6893672618e+00 -1.9435568937e-03 2.6413506333e+00 -4.5749534975e+00 2.6413506333e+00 4.5749534975e+00 
98300 4.6893671526e+00 -1.9425256254e-03 2.6413874244e+00 -4.5750172215e+00 2.6413874244e+00 4.5750172215e+00 
98400 4.6893670435e+00 -1.9414978331e-03 2.6414241954e+00 -4.5750809108e+00 2.6414241954e+00 4.5750809108e+00 
98500 4.6893669344e+00 -1.9404734927e-03 2.6414609464e+00 -4.5751445654e+00 2.6414609464e+00 4.5751445654e+00 
98600 4.6893668254e+00 -1.9394525802e-03 2.6414976776e+00 -4.5752081857e+00 2.6414976776e+00 4.5752081857e+00 
98700 4.6893667165e+00 -1.9384350719e-03 2.6415343889e+00 -4.5752717715e+00 2.6415343889e+00 4.5752717715e+00 
98800 4.6893666077e+00 -1.9374209441e-03 2.6415710805e+00 -4.5753353231e+00 2.6415710805e+00 4.5753353231e+00 
98900 4.6893664989e+00 -1.9364101732e-03 2.6416077523e+00 -4.5753988406e+00 2.6416077523e+00 4.5753988406e+00 
99000 4.6893663902e+00 -1.9354027361e-03 2.6416444045e+00 -4.5754623241e+00 2.6416444045e+00 4.5754623241e+00 
99100 4.6893662816e+00 -1.9343986095e-03 2.6416810371e+00 -4.5755257737e+00 2.6416810371e+00 4.5755257737e+00 
99200 4.6893661730e+00 -1.9333977703e-03 2.6417176502e+00 -4.5755891894e+00 2.6417176502e+00 4.5755891894e+00 
99300 4.6893660646e+00 -1.9324001957e-03 2.6417542439e+00 -4.5756525715e+00 2.6417542439e+00 4.5756525715e+00 
99400 4.6893659562e+00 -1.9314058630e-03 2.6417908181e+00 -4.5757159200e+00 2.6417908181e+00 4.5757159200e+00 
99500 4.6893658479e+00 -1.9304147495e-03 2.6418273731e+00 -4.5757792350e+00 2.6418273731e+00 4.5757792350e+00 
99600 4.6893657396e+00 -1.9294268327e-03 2.6418639088e+00 -4.5758425167e+00 2.6418639088e+00 4.5758425167e+00 
99700 4.6893656314e+00 -1.9284420905e-03 2.6419004252e+00 -4.5759057651e+00 2.6419004252e+00 4.5759057651e+00 
99800 4.6893655234e+00 -1.9274605006e-03 2.6419369226e+00 -4.5759689803e+00 2.6419369226e+00 4.5759689803e+00 
99900 4.6893654153e+00 -1.9264820410e-03 2.6419734008e+00 -4.5760321625e+00 2.6419734008e+00 4.5760321625e+00 
100000 4.6893653074e+00 -1.9255066899e-03 2.6420098601e+00 -4.5760953117e+00 2.6420098601e+00 4.5760953117e+00 
100100 4.6893651995e+00 -1.9245344254e-03 2.6420463003e+00 -4.5761584281e+00 2.6420463003e+00 4.5761584281e+00 
100200 4.6893650917e+00 -1.9235652260e-03 2.6420827217e+00 -4.5762215118e+00 2.6420827217e+00 4.5762215118e+00 
100300 4.6893649840e+00 -1.9225990703e-03 2.6421191242e+00 -4.5762845628e+00 2.6421191242e+00 4.5762845628e+00 
100400 4.6893648763e+00 -1.9216359370e-03 2.6421555080e+00 -4.5763475813e+00 2.6421555080e+00 4.5763475813e+00 
100500 4.6893647687e+00 -1.9206758047e-03 2.6421918730e+00 -4.5764105674e+00 2.6421918730e+00 4.5764105674e+00 
100600 4.6893646612e+00 -1.9197186526e-03 2.6422282193e+00 -4.5764735211e+00 2.6422282193e+00 4.5764735211e+00 
100700 4.6893645538e+00 -1.9187644597e-03 2.6422645471e+00 -4.5765364425e+00 2.6422645471e+00 4.5765364425e+00 
100800 4.6893644464e+00 -1.9178132053e-03 2.6423008562e+00 -4.5765993319e+00 2.6423008562e+00 4.5765993319e+00 
100900 4.6893643392e+00 -1.9168648686e-03 2.6423371469e+00 -4.5766621892e+00 2.6423371469e+00 4.5766621892e+00 
101000 4.6893642319e+00 -1.9159194292e-03 2.6423734191e+00 -4.5767250145e+00 2.6423734191e+00 4.5767250145e+00 
101100 4.6893641248e+00 -1.9149768667e-03 2.6424096730e+00 -4.5767878080e+00 2.6424096730e+00 4.5767878080e+00 
101200 4.6893640177e+00 -1.9140371610e-03 2.6424459085e+00 -4.5768505698e+00 2.6424459085e+00 4.5768505698e+00 
101300 4.6893639107e+00 -1.9131002917e-03 2.6424821257e+00 -4.5769132998e+00 2.6424821257e+00 4.5769132998e+00 
101400 4.6893638038e+00 -1.9121662391e-03 2.6425183247e+00 -4.5769759984e+00 2.6425183247e+00 4.5769759984e+00 
101500 4.6893636970e+00 -1.9112349832e-03 2.6425545056e+00 -4.5770386654e+00 2.6425545056e+00 4.5770386654e+00 
101600 4.6893635902e+00 -1.9103065043e-03 2.6425906683e+00 -4.5771013011e+00 2.6425906683e+00 4.5771013011e+00 
101700 4.6893634835e+00 -1.9093807829e-03 2.6426268130e+00 -4.5771639055e+00 2.6426268130e+00 4.5771639055e+00 
101800 4.6893633768e+00 -1.9084577993e-03 2.6426629396e+00 -4.5772264787e+00 2.6426629396e+00 4.5772264787e+00 
101900 4.6893632703e+00 -1.9075375344e-03 2.6426990483e+00 -4.5772890208e+00 2.6426990483e+00 4.5772890208e+00 
102000 4.6893631638e+00 -1.9066199689e-03 2.6427351391e+00 -4.5773515319e+00 2.6427351391e+00 4.5773515319e+00 
102100 4.6893630574e+00 -1.9057050837e-03 2.6427712120e+00 -4.5774140120e+00 2.6427712120e+00 4.5774140120e+00 
102200 4.6893629510e+00 -1.9047928599e-03 2.6428072672e+00 -4.5774764613e+00 2.6428072672e+00 4.5774764613e+00 
102300 4.6893628448e+00 -1.9038832785e-03 2.6428433045e+00 -4.5775388799e+00 2.6428433045e+00 4.5775388799e+00 
102400 4.6893627385e+00 -1.9029763209e-03 2.6428793242e+00 -4.5776012678e+00 2.6428793242e+00 4.5776012678e+00 
102500 4.6893626324e+00 -1.9020719684e-03 2.6429153263e+00 -4.5776636252e+00 2.6429153263e+00 4.5776636252e+00 
102600 4.6893625264e+00 -1.9011702026e-03 2.6429513107e+00 -4.5777259521e+00 2.6429513107e+00 4.5777259521e+00 
102700 4.6893624204e+00 -1.9002710052e-03 2.6429872776e+00 -4.5777882485e+00 2.6429872776e+00 4.5777882485e+00 
102800 4.6893623145e+00 -1.8993743578e-03 2.6430232270e+00 -4.5778505147e+00 2.6430232270e+00 4.5778505147e+00 
102900 4.6893622086e+00 -1.8984802423e-03 2.6430591589e+00 -4.5779127506e+00 2.6430591589e+00 4.5779127506e+00 
103000 4.6893621028e+00 -1.8975886408e-03 2.6430950734e+00 -4.5779749564e+00 2.6430950734e+00 4.5779749564e+00 
103100 4.6893619971e+00 -1.8966995354e-03 2.6431309706e+00 -4.5780371321e+00 2.6431309706e+00 4.5780371321e+00 
103200 4.6893618915e+00 -1.8958129082e-03 2.6431668505e+00 -4.5780992779e+00 2.6431668505e+00 4.5780992779e+00 
103300 4.6893617859e+00 -1.8949287416e-03 2.6432027131e+00 -4.5781613938e+00 2.6432027131e+00 4.5781613938e+00 
103400 4.6893616805e+00 -1.8940470182e-03 2.6432385585e+00 -4.5782234798e+00 2.6432385585e+00 4.5782234798e+00 
103500 4.6893615750e+00 -1.8931677203e-03 2.6432743867e+00 -4.5782855361e+00 2.6432743867e+00 4.5782855361e+00 
103600 4.6893614697e+00 -1.8922908308e-03 2.6433101978e+00 -4.5783475628e+00 2.6433101978e+00 4.5783475628e+00 
103700 4.6893613644e+00 -1.8914163324e-03 2.6433459919e+00 -4.5784095599e+00 2.6433459919e+00 4.5784095599e+00 
103800 4.6893612592e+00 -1.8905442081e-03 2.6433817689e+00 -4.5784715275e+00 2.6433817689e+00 4.5784715275e+00 
103900 4.6893611541e+00 -1.8896744408e-03 2.6434175289e+00 -4.5785334657e+00 2.6434175289e+00 4.5785334657e+00 
104000 4.6893610490e+00 -1.8888070137e-03 2.6434532720e+00 -4.5785953746e+00 2.6434532720e+00 4.5785953746e+00 
104100 4.6893609440e+00 -1.8879419100e-03 2.6434889982e+00 -4.5786572542e+00 2.6434889982e+00 4.5786572542e+00 
104200 4.6893608391e+00 -1.8870791131e-03 2.6435247076e+00 -4.5787191046e+00 2.6435247076e+00 4.5787191046e+00 
104300 4.6893607343e+00 -1.8862186064e-03 2.6435604001e+00 -4.5787809259e+00 2.6435604001e+00 4.5787809259e+00 
104400 4.6893606295e+00 -1.8853603735e-03 2.6435960760e+00 -4.5788427182e+00 2.6435960760e+00 4.5788427182e+00 
104500 4.6893605248e+00 -1.8845043980e-03 2.6436317350e+00 -4.5789044816e+00 2.6436317350e+00 4.5789044816e+00 
104600 4.6893604201e+00 -1.8836506638e-03 2.6436673775e+00 -4.5789662161e+00 2.6436673775e+00 4.5789662161e+00 
104700 4.6893603156e+00 -1.8827991548e-03 2.6437030033e+00 -4.5790279218e+00 2.6437030033e+00 4.5790279218e+00 
104800 4.6893602111e+00 -1.8819498548e-03 2.6437386125e+00 -4.5790895987e+00 2.6437386125e+00 4.5790895987e+00 
104900 4.6893601066e+00 -1.8811027480e-03 2.6437742051e+00 -4.5791512470e+00 2.6437742051e+00 4.5791512470e+00 
105000 4.6893600023e+00 -1.8802578187e-03 2.6438097813e+00 -4.5792128667e+00 2.6438097813e+00 4.5792128667e+00 
105100 4.6893598980e+00 -1.8794150510e-03 2.6438453410e+00 -4.5792744580e+00 2.6438453410e+00 4.5792744580e+00 
105200 4.6893597938e+00 -1.8785744295e-03 2.6438808843e+00 -4.5793360208e+00 2.6438808843e+00 4.5793360208e+00 
105300 4.6893596896e+00 -1.8777359385e-03 2.6439164112e+00 -4.5793975552e+00 2.6439164112e+00 4.5793975552e+00 
105400 4.6893595855e+00 -1.8768995628e-03 2.6439519218e+00 -4.5794590613e+00 2.6439519218e+00 4.5794590613e+00 
105500 4.6893594815e+00 -1.8760652870e-03 2.6439874161e+00 -4.5795205392e+00 2.6439874161e+00 4.5795205392e+00 
105600 4.6893593776e+00 -1.8752330959e-03 2.6440228941e+00 -4.5795819890e+00 2.6440228941e+00 4.5795819890e+00 
105700 4.6893592737e+00 -1.8744029745e-03 2.6440583559e+00 -4.5796434106e+00 2.6440583559e+00 4.5796434106e+00 
105800 4.6893591699e+00 -1.8735749077e-03 2.6440938016e+00 -4.5797048043e+00 2.6440938016e+00 4.5797048043e+00 
105900 4.6893590662e+00 -1.8727488807e-03 2.6441292311e+00 -4.5797661700e+00 2.6441292311e+00 4.5797661700e+00 
106000 4.6893589625e+00 -1.8719248785e-03 2.6441646445e+00 -4.5798275079e+00 2.6441646445e+00 4.5798275079e+00 
106100 4.6893588589e+00 -1.8711028867e-03 2.6442000419e+00 -4.5798888179e+00 2.6442000419e+00 4.5798888179e+00 
106200 4.6893587554e+00 -1.8702828904e-03 2.6442354232e+00 -4.5799501002e+00 2.6442354232e+00 4.5799501002e+00 
106300 4.6893586520e+00 -1.8694648753e-03 2.6442707886e+00 -4.5800113548e+00 2.6442707886e+00 4.5800113548e+00 
106400 4.6893585486e+00 -1.8686488269e-03 2.6443061380e+00 -4.5800725818e+00 2.6443061380e+00 4.5800725818e+00 
106500 4.6893584453e+00 -1.8678347309e-03 2.6443414715e+00 -4.5801337812e+00 2.6443414715e+00 4.5801337812e+00 
106600 4.6893583420e+00 -1.8670225730e-03 2.6443767892e+00 -4.5801949532e+00 2.6443767892e+00 4.5801949532e+00 
106700 4.6893582388e+00 -1.8662123392e-03 2.6444120910e+00 -4.5802560978e+00 2.6444120910e+00 4.5802560978e+00 
106800 4.6893581357e+00 -1.8654040153e-03 2.6444473770e+00 -4.5803172150e+00 2.6444473770e+00 4.5803172150e+00 
106900 4.6893580327e+00 -1.8645975875e-03 2.6444826473e+00 -4.5803783049e+00 2.6444826473e+00 4.5803783049e+00 
107000 4.6893579297e+00 -1.8637930419e-03 2.6445179019e+00 -4.5804393676e+00 2.6445179019e+00 4.5804393676e+00 
107100 4.6893578268e+00 -1.8629903646e-03 2.6445531408e+00 -4.5805004031e+00 2.6445531408e+00 4.5805004031e+00 
107200 4.6893577240e+00 -1.8621895421e-03 2.6445883640e+00 -4.5805614116e+00 2.6445883640e+00 4.5805614116e+00 
107300 4.6893576213e+00 -1.8613905607e-03 2.6446235716e+00 -4.5806223930e+00 2.6446235716e+00 4.5806223930e+00 
107400 4.6893575186e+00 -1.8605934070e-03 2.6446587637e+00 -4.5806833474e+00 2.6446587637e+00 4.5806833474e+00 
107500 4.6893574159e+00 -1.8597980675e-03 2.6446939402e+00 -4.5807442749e+00 2.6446939402e+00 4.5807442749e+00 
107600 4.6893573134e+00 -1.8590045290e-03 2.6447291012e+00 -4.5808051756e+00 2.6447291012e+00 4.5808051756e+00 
107700 4.6893572109e+00 -1.8582127781e-03 2.6447642468e+00 -4.5808660494e+00 2.6447642468e+00 4.5808660494e+00 
107800 4.6893571085e+00 -1.8574228018e-03 2.6447993769e+00 -4.5809268966e+00 2.6447993769e+00 4.5809268966e+00 
107900 4.6893570061e+00 -1.8566345870e-03 2.6448344916e+00 -4.5809877170e+00 2.6448344916e+00 4.5809877170e+00 
108000 4.6893569039e+00 -1.8558481207e-03 2.6448695909e+00 -4.5810485108e+00 2.6448695909e+00 4.5810485108e+00 
108100 4.6893568017e+00 -1.8550633900e-03 2.6449046749e+00 -4.5811092781e+00 2.6449046749e+00 4.5811092781e+00 
108200 4.6893566995e+00 -1.8542803821e-03 2.6449397436e+00 -4.5811700189e+00 2.6449397436e+00 4.5811700189e+00 
108300 4.6893565975e+00 -1.8534990843e-03 2.6449747970e+00 -4.5812307332e+00 2.6449747970e+00 4.5812307332e+00 
108400 4.6893564954e+00 -1.8527194841e-03 2.6450098352e+00 -4.5812914212e+00 2.6450098352e+00 4.5812914212e+00 
108500 4.6893563935e+00 -1.8519415687e-03 2.6450448582e+00 -4.5813520828e+00 2.6450448582e+00 4.5813520828e+00 
108600 4.6893562916e+00 -1.8511653258e-03 2.6450798661e+00 -4.5814127181e+00 2.6450798661e+00 4.5814127181e+00 
108700 4.6893561899e+00 -1.8503907430e-03 2.6451148588e+00 -4.5814733272e+00 2.6451148588e+00 4.5814733272e+00 
108800 4.6893560881e+00 -1.8496178079e-03 2.6451498364e+00 -4.5815339102e+00 2.6451498364e+00 4.5815339102e+00 
108900 4.6893559865e+00 -1.8488465084e-03 2.6451847989e+00 -4.5815944671e+00 2.6451847989e+00 4.5815944671e+00 
109000 4.6893558849e+00 -1.8480768323e-03 2.6452197464e+00 -4.5816549979e+00 2.6452197464e+00 4.5816549979e+00 
109100 4.6893557833e+00 -1.8473087675e-03 2.6452546788e+00 -4.5817155027e+00 2.6452546788e+00 4.5817155027e+00 
109200 4.6893556819e+00 -1.8465423021e-03 2.6452895963e+00 -4.5817759815e+00 2.6452895963e+00 4.5817759815e+00 
109300 4.6893555805e+00 -1.8457774242e-03 2.6453244988e+00 -4.5818364345e+00 2.6453244988e+00 4.5818364345e+00 
109400 4.6893554792e+00 -1.8450141219e-03 2.6453593865e+00 -4.5818968616e+00 2.6453593865e+00 4.5818968616e+00 
109500 4.6893553779e+00 -1.8442523835e-03 2.6453942592e+00 -4.5819572630e+00 2.6453942592e+00 4.5819572630e+00 
109600 4.6893552768e+00 -1.8434921973e-03 2.6454291171e+00 -4.5820176386e+00 2.6454291171e+00 4.5820176386e+00 
109700 4.6893551756e+00 -1.8427335518e-03 2.6454639601e+00 -4.5820779885e+00 2.6454639601e+00 4.5820779885e+00 
109800 4.6893550746e+00 -1.8419764354e-03 2.6454987884e+00 -4.5821383128e+00 2.6454987884e+00 4.5821383128e+00 
109900 4.6893549736e+00 -1.8412208367e-03 2.6455336018e+00 -4.5821986115e+00 2.6455336018e+00 4.5821986115e+00 
110000 4.6893548727e+00 -1.8404667444e-03 2.6455684006e+00 -4.5822588847e+00 2.6455684006e+00 4.5822588847e+00 
110100 4.6893547719e+00 -1.8397141471e-03 2.6456031846e+00 -4.5823191324e+00 2.6456031846e+00 4.5823191324e+00 
110200 4.6893546711e+00 -1.8389630336e-03 2.6456379540e+00 -4.5823793547e+00 2.6456379540e+00 4.5823793547e+00 
110300 4.6893545704e+00 -1.8382133929e-03 2.6456727087e+00 -4.5824395516e+00 2.6456727087e+00 4.5824395516e+00 
110400 4.6893544697e+00 -1.8374652138e-03 2.6457074487e+00 -4.5824997232e+00 2.6457074487e+00 4.5824997232e+00 
110500 4.6893543692e+00 -1.8367184854e-03 2.6457421742e+00 -4.5825598695e+00 2.6457421742e+00 4.5825598695e+00 
110600 4.6893542687e+00 -1.8359731967e-03 2.6457768851e+00 -4.5826199906e+00 2.6457768851e+00 4.5826199906e+00 
110700 4.6893541682e+00 -1.8352293369e-03 2.6458115815e+00 -4.5826800864e+00 2.6458115815e+00 4.5826800864e+00 
110800 4.6893540679e+00 -1.8344868953e-03 2.6458462634e+00 -4.5827401572e+00 2.6458462634e+00 4.5827401572e+00 
110900 4.6893539676e+00 -1.8337458611e-03 2.6458809307e+00 -4.5828002028e+00 2.6458809307e+00 4.5828002028e+00 
111000 4.6893538673e+00 -1.8330062237e-03 2.6459155837e+00 -4.5828602234e+00 2.6459155837e+00 4.5828602234e+00 
111100 4.6893537672e+00 -1.8322679726e-03 2.6459502222e+00 -4.5829202191e+00 2.6459502222e+00 4.5829202191e+00 
111200 4.6893536671e+00 -1.8315310972e-03 2.6459848462e+00 -4.5829801897e+00 2.6459848462e+00 4.5829801897e+00 
111300 4.6893535670e+00 -1.8307955873e-03 2.6460194559e+00 -4.5830401355e+00 2.6460194559e+00 4.5830401355e+00 
111400 4.6893534671e+00 -1.8300614323e-03 2.6460540513e+00 -4.5831000564e+00 2.6460540513e+00 4.5831000564e+00 
111500 4.6893533672e+00 -1.8293286221e-03 2.6460886323e+00 -4.5831599525e+00 2.6460886323e+00 4.5831599525e+00 
111600 4.6893532674e+00 -1.8285971464e-03 2.6461231991e+00 -4.5832198238e+00 2.6461231991e+00 4.5832198238e+00 
111700 4.6893531676e+00 -1.8278669951e-03 2.6461577515e+00 -4.5832796705e+00 2.6461577515e+00 4.5832796705e+00 
111800 4.6893530679e+00 -1.8271381582e-03 2.6461922897e+00 -4.5833394924e+00 2.6461922897e+00 4.5833394924e+00 
111900 4.6893529683e+00 -1.8264106256e-03 2.6462268137e+00 -4.5833992897e+00 2.6462268137e+00 4.5833992897e+00 
112000 4.6893528687e+00 -1.8256843873e-03 2.6462613235e+00 -4.5834590624e+00 2.6462613235e+00 4.5834590624e+00 
112100 4.6893527692e+00 -1.8249594336e-03 2.6462958191e+00 -4.5835188106e+00 2.6462958191e+00 4.5835188106e+00 
112200 4.6893526698e+00 -1.8242357546e-03 2.6463303006e+00 -4.5835785342e+00 2.6463303006e+00 4.5835785342e+00 
112300 4.6893525705e+00 -1.8235133406e-03 2.6463647679e+00 -4.5836382334e+00 2.6463647679e+00 4.5836382334e+00 
112400 4.6893524712e+00 -1.8227921819e-03 2.6463992212e+00 -4.5836979082e+00 2.6463992212e+00 4.5836979082e+00 
112500 4.6893523719e+00 -1.8220722688e-03 2.6464336604e+00 -4.5837575586e+00 2.6464336604e+00 4.5837575586e+00 
112600 4.6893522728e+00 -1.8213535920e-03 2.6464680855e+00 -4.5838171847e+00 2.6464680855e+00 4.5838171847e+00 
112700 4.6893521737e+00 -1.8206361418e-03 2.6465024966e+00 -4.5838767864e+00 2.6465024966e+00 4.5838767864e+00 
112800 4.6893520747e+00 -1.8199199089e-03 2.6465368937e+00 -4.5839363639e+00 2.6465368937e+00 4.5839363639e+00 
112900 4.6893519757e+00 -1.8192048838e-03 2.6465712768e+00 -4.5839959173e+00 2.6465712768e+00 4.5839959173e+00 
113000 4.6893518769e+00 -1.8184910575e-03 2.6466056460e+00 -4.5840554464e+00 2.6466056460e+00 4.5840554464e+00 
113100 4.6893517780e+00 -1.8177784205e-03 2.6466400012e+00 -4.5841149514e+00 2.6466400012e+00 4.5841149514e+00 
113200 4.6893516793e+00 -1.8170669637e-03 2.6466743425e+00 -4.5841744323e+00 2.6466743425e+00 4.5841744323e+00 
113300 4.6893515806e+00 -1.8163566781e-03 2.6467086699e+00 -4.5842338892e+00 2.6467086699e+00 4.5842338892e+00 
113400 4.6893514820e+00 -1.8156475545e-03 2.6467429835e+00 -4.5842933220e+00 2.6467429835e+00 4.5842933220e+00 
113500 4.6893513834e+00 -1.8149395841e-03 2.6467772833e+00 -4.5843527309e+00 2.6467772833e+00 4.5843527309e+00 
113600 4.6893512850e+00 -1.8142327579e-03 2.6468115692e+00 -4.5844121159e+00 2.6468115692e+00 4.5844121159e+00 
113700 4.6893511865e+00 -1.8135270670e-03 2.6468458413e+00 -4.5844714769e+00 2.6468458413e+00 4.5844714769e+00 
113800 4.6893510882e+00 -1.8128225026e-03 2.6468800996e+00 -4.5845308141e+00 2.6468800996e+00 4.5845308141e+00 
113900 4.6893509899e+00 -1.8121190560e-03 2.6469143442e+00 -4.5845901275e+00 2.6469143442e+00 4.5845901275e+00 
114000 4.6893508917e+00 -1.8114167186e-03 2.6469485751e+00 -4.5846494170e+00 2.6469485751e+00 4.5846494170e+00 
114100 4.6893507935e+00 -1.8107154816e-03 2.6469827922e+00 -4.5847086829e+00 2.6469827922e+00 4.5847086829e+00 
114200 4.6893506955e+00 -1.8100153366e-03 2.6470169957e+00 -4.5847679250e+00 2.6470169957e+00 4.5847679250e+00 
114300 4.6893505974e+00 -1.8093162750e-03 2.6470511855e+00 -4.5848271435e+00 2.6470511855e+00 4.5848271435e+00 
114400 4.6893504995e+00 -1.8086182884e-03 2.6470853616e+00 -4.5848863383e+00 2.6470853616e+00 4.5848863383e+00 
114500 4.6893504016e+00 -1.8079213683e-03 2.6471195241e+00 -4.5849455095e+00 2.6471195241e+00 4.5849455095e+00 
114600 4.6893503038e+00 -1.8072255065e-03 2.6471536731e+00 -4.5850046572e+00 2.6471536731e+00 4.5850046572e+00 
114700 4.6893502061e+00 -1.8065306947e-03 2.6471878084e+00 -4.5850637813e+00 2.6471878084e+00 4.5850637813e+00 
114800 4.6893501084e+00 -1.8058369247e-03 2.6472219302e+00 -4.5851228819e+00 2.6472219302e+00 4.5851228819e+00 
114900 4.6893500108e+00 -1.8051441882e-03 2.6472560384e+00 -4.5851819591e+00 2.6472560384e+00 4.5851819591e+00 
115000 4.6893499132e+00 -1.8044524772e-03 2.6472901331e+00 -4.5852410129e+00 2.6472901331e+00 4.5852410129e+00 
115100 4.6893498157e+00 -1.8037617837e-03 2.6473242143e+00 -4.5853000432e+00 2.6473242143e+00 4.5853000432e+00 
115200 4.6893497183e+00 -1.8030720996e-03 2.6473582820e+00 -4.5853590502e+00 2.6473582820e+00 4.5853590502e+00 
115300 4.6893496210e+00 -1.8023834170e-03 2.6473923362e+00 -4.5854180339e+00 2.6473923362e+00 4.5854180339e+00 
115400 4.6893495237e+00 -1.8016957279e-03 2.6474263770e+00 -4.5854769943e+00 2.6474263770e+00 4.5854769943e+00 
115500 4.6893494265e+00 -1.8010090247e-03 2.6474604044e+00 -4.5855359315e+00 2.6474604044e+00 4.5855359315e+00 
115600 4.6893493293e+00 -1.8003232994e-03 2.6474944184e+00 -4.5855948454e+00 2.6474944184e+00 4.5855948454e+00 
115700 4.6893492322e+00 -1.7996385444e-03 2.6475284190e+00 -4.5856537361e+00 2.6475284190e+00 4.5856537361e+00 
115800 4.6893491352e+00 -1.7989547519e-03 2.6475624062e+00 -4.5857126037e+00 2.6475624062e+00 4.5857126037e+00 
115900 4.6893490383e+00 -1.7982719144e-03 2.6475963801e+00 -4.5857714482e+00 2.6475963801e+00 4.5857714482e+00 
116000 4.6893489414e+00 -1.7975900243e-03 2.6476303406e+00 -4.5858302696e+00 2.6476303406e+00 4.5858302696e+00 
116100 4.6893488446e+00 -1.7969090740e-03 2.6476642878e+00 -4.5858890679e+00 2.6476642878e+00 4.5858890679e+00 
116200 4.6893487478e+00 -1.7962290561e-03 2.6476982217e+00 -4.5859478432e+00 2.6476982217e+00 4.5859478432e+00 
116300 4.6893486511e+00 -1.7955499631e-03 2.6477321424e+00 -4.5860065955e+00 2.6477321424e+00 4.5860065955e+00 
116400 4.6893485545e+00 -1.7948717878e-03 2.6477660498e+00 -4.5860653248e+00 2.6477660498e+00 4.5860653248e+00 
116500 4.6893484580e+00 -1.7941945228e-03 2.6477999439e+00 -4.5861240312e+00 2.6477999439e+00 4.5861240312e+00 
116600 4.6893483615e+00 -1.7935181607e-03 2.6478338249e+00 -4.5861827147e+00 2.6478338249e+00 4.5861827147e+00 
116700 4.6893482651e+00 -1.7928426945e-03 2.6478676926e+00 -4.5862413753e+00 2.6478676926e+00 4.5862413753e+00 
116800 4.6893481687e+00 -1.7921681169e-03 2.6479015471e+00 -4.5863000130e+00 2.6479015471e+00 4.5863000130e+00 
116900 4.6893480724e+00 -1.7914944209e-03 2.6479353885e+00 -4.5863586280e+00 2.6479353885e+00 4.5863586280e+00 
117000 4.6893479762e+00 -1.7908215992e-03 2.6479692167e+00 -4.5864172202e+00 2.6479692167e+00 4.5864172202e+00 
117100 4.6893478801e+00 -1.7901496451e-03 2.6480030318e+00 -4.5864757896e+00 2.6480030318e+00 4.5864757896e+00 
117200 4.6893477840e+00 -1.7894785513e-03 2.6480368337e+00 -4.5865343363e+00 2.6480368337e+00 4.5865343363e+00 
117300 4.6893476880e+00 -1.7888083111e-03 2.6480706226e+00 -4.5865928603e+00 2.6480706226e+00 4.5865928603e+00 
117400 4.6893475920e+00 -1.7881389176e-03 2.6481043983e+00 -4.5866513616e+00 2.6481043983e+00 4.5866513616e+00 
117500 4.6893474961e+00 -1.7874703639e-03 2.6481381610e+00 -4.5867098403e+00 2.6481381610e+00 4.5867098403e+00 
117600 4.6893474003e+00 -1.7868026433e-03 2.6481719107e+00 -4.5867682964e+00 2.6481719107e+00 4.5867682964e+00 
117700 4.6893473045e+00 -1.7861357489e-03 2.6482056473e+00 -4.5868267299e+00 2.6482056473e+00 4.5868267299e+00 
117800 4.6893472088e+00 -1.7854696742e-03 2.6482393708e+00 -4.5868851409e+00 2.6482393708e+00 4.5868851409e+00 
117900 4.6893471132e+00 -1.7848044125e-03 2.6482730814e+00 -4.5869435293e+00 2.6482730814e+00 4.5869435293e+00 
118000 4.6893470177e+00 -1.7841399572e-03 2.6483067790e+00 -4.5870018953e+00 2.6483067790e+00 4.5870018953e+00 
118100 4.6893469222e+00 -1.7834763017e-03 2.6483404636e+00 -4.5870602387e+00 2.6483404636e+00 4.5870602387e+00 
118200 4.6893468267e+00 -1.7828134396e-03 2.6483741353e+00 -4.5871185597e+00 2.6483741353e+00 4.5871185597e+00 
118300 4.6893467314e+00 -1.7821513643e-03 2.6484077940e+00 -4.5871768583e+00 2.6484077940e+00 4.5871768583e+00 
118400 4.6893466361e+00 -1.7814900695e-03 2.6484414398e+00 -4.5872351345e+00 2.6484414398e+00 4.5872351345e+00 
118500 4.6893465408e+00 -1.7808295489e-03 2.6484750726e+00 -4.5872933884e+00 2.6484750726e+00 4.5872933884e+00 
118600 4.6893464457e+00 -1.7801697959e-03 2.6485086926e+00 -4.5873516199e+00 2.6485086926e+00 4.5873516199e+00 
118700 4.6893463506e+00 -1.7795108045e-03 2.6485422997e+00 -4.5874098291e+00 2.6485422997e+00 4.5874098291e+00 
118800 4.6893462555e+00 -1.7788525684e-03 2.6485758939e+00 -4.5874680160e+00 2.6485758939e+00 4.5874680160e+00 
118900 4.6893461606e+00 -1.7781950813e-03 2.6486094753e+00 -4.5875261806e+00 2.6486094753e+00 4.5875261806e+00 
119000 4.6893460657e+00 -1.7775383371e-03 2.6486430438e+00 -4.5875843230e+00 2.6486430438e+00 4.5875843230e+00 
119100 4.6893459708e+00 -1.7768823297e-03 2.6486765995e+00 -4.5876424432e+00 2.6486765995e+00 4.5876424432e+00 
119200 4.6893458761e+00 -1.7762270530e-03 2.6487101425e+00 -4.5877005413e+00 2.6487101425e+00 4.5877005413e+00 
119300 4.6893457814e+00 -1.7755725010e-03 2.6487436726e+00 -4.5877586171e+00 2.6487436726e+00 4.5877586171e+00 
119400 4.6893456867e+00 -1.7749186678e-03 2.6487771899e+00 -4.5878166708e+00 2.6487771899e+00 4.5878166708e+00 
119500 4.6893455922e+00 -1.7742655474e-03 2.6488106945e+00 -4.5878747024e+00 2.6488106945e+00 4.5878747024e+00 
119600 4.6893454977e+00 -1.7736131339e-03 2.6488441863e+00 -4.5879327119e+00 2.6488441863e+00 4.5879327119e+00 
119700 4.6893454032e+00 -1.7729614214e-03 2.6488776653e+00 -4.5879906994e+00 2.6488776653e+00 4.5879906994e+00 
119800 4.6893453088e+00 -1.7723104041e-03 2.6489111317e+00 -4.5880486648e+00 2.6489111317e+00 4.5880486648e+00 
119900 4.6893452145e+00 -1.7716600763e-03 2.6489445853e+00 -4.5881066082e+00 2.6489445853e+00 4.5881066082e+00 
120000 4.6893451203e+00 -1.7710104322e-03 2.6489780263e+00 -4.5881645296e+00 2.6489780263e+00 4.5881645296e+00 
120100 4.6893450261e+00 -1.7703614662e-03 2.6490114545e+00 -4.5882224290e+00 2.6490114545e+00 4.5882224290e+00 
120200 4.6893449320e+00 -1.7697131725e-03 2.6490448701e+00 -4.5882803065e+00 2.6490448701e+00 4.5882803065e+00 
120300 4.6893448379e+00 -1.7690655455e-03 2.6490782730e+00 -4.5883381621e+00 2.6490782730e+00 4.5883381621e+00 
120400 4.6893447440e+00 -1.7684185798e-03 2.6491116633e+00 -4.5883959957e+00 2.6491116633e+00 4.5883959957e+00 
120500 4.6893446500e+00 -1.7677722696e-03 2.6491450409e+00 -4.5884538075e+00 2.6491450409e+00 4.5884538075e+00 
120600 4.6893445562e+00 -1.7671266097e-03 2.6491784060e+00 -4.5885115974e+00 2.6491784060e+00 4.5885115974e+00 
120700 4.6893444624e+00 -1.7664815944e-03 2.6492117584e+00 -4.5885693655e+00 2.6492117584e+00 4.5885693655e+00 
120800 4.6893443687e+00 -1.7658372184e-03 2.6492450982e+00 -4.5886271118e+00 2.6492450982e+00 4.5886271118e+00 
120900 4.6893442750e+00 -1.7651934763e-03 2.6492784255e+00 -4.5886848363e+00 2.6492784255e+00 4.5886848363e+00 
121000 4.6893441814e+00 -1.7645503628e-03 2.6493117401e+00 -4.5887425390e+00 2.6493117401e+00 4.5887425390e+00 
121100 4.6893440879e+00 -1.7639078725e-03 2.6493450423e+00 -4.5888002200e+00 2.6493450423e+00 4.5888002200e+00 
121200 4.6893439945e+00 -1.7632660002e-03 2.6493783318e+00 -4.5888578792e+00 2.6493783318e+00 4.5888578792e+00 
121300 4.6893439011e+00 -1.7626247407e-03 2.6494116089e+00 -4.5889155168e+00 2.6494116089e+00 4.5889155168e+00 
121400 4.6893438077e+00 -1.7619840887e-03 2.6494448734e+00 -4.5889731326e+00 2.6494448734e+00 4.5889731326e+00 
121500 4.6893437145e+00 -1.7613440391e-03 2.6494781254e+00 -4.5890307268e+00 2.6494781254e+00 4.5890307268e+00 
121600 4.6893436213e+00 -1.7607045868e-03 2.6495113650e+00 -4.5890882993e+00 2.6495113650e+00 4.5890882993e+00 
121700 4.6893435281e+00 -1.7600657267e-03 2.6495445920e+00 -4.5891458503e+00 2.6495445920e+00 4.5891458503e+00 
121800 4.6893434351e+00 -1.7594274538e-03 2.6495778066e+00 -4.5892033796e+00 2.6495778066e+00 4.5892033796e+00 
121900 4.6893433421e+00 -1.7587897630e-03 2.6496110087e+00 -4.5892608873e+00 2.6496110087e+00 4.5892608873e+00 
122000 4.6893432491e+00 -1.7581526494e-03 2.6496441983e+00 -4.5893183735e+00 2.6496441983e+00 4.5893183735e+00 
122100 4.6893431563e+00 -1.7575161080e-03 2.6496773755e+00 -4.5893758381e+00 2.6496773755e+00 4.5893758381e+00 
122200 4.6893430635e+00 -1.7568801340e-03 2.6497105403e+00 -4.5894332812e+00 2.6497105403e+00 4.5894332812e+00 
122300 4.6893429707e+00 -1.7562447224e-03 2.6497436927e+00 -4.5894907028e+00 2.6497436927e+00 4.5894907028e+00 
122400 4.6893428780e+00 -1.7556098685e-03 2.6497768327e+00 -4.5895481029e+00 2.6497768327e+00 4.5895481029e+00 
122500 4.6893427854e+00 -1.7549755674e-03 2.6498099602e+00 -4.5896054815e+00 2.6498099602e+00 4.5896054815e+00 
122600 4.6893426929e+00 -1.7543418144e-03 2.6498430754e+00 -4.5896628387e+00 2.6498430754e+00 4.5896628387e+00 
122700 4.6893426004e+00 -1.7537086047e-03 2.6498761782e+00 -4.5897201745e+00 2.6498761782e+00 4.5897201745e+00 
122800 4.6893425080e+00 -1.7530759336e-03 2.6499092687e+00 -4.5897774888e+00 2.6499092687e+00 4.5897774888e+00 
122900 4.6893424156e+00 -1.7524437965e-03 2.6499423468e+00 -4.5898347818e+00 2.6499423468e+00 4.5898347818e+00 
123000 4.6893423234e+00 -1.7518121888e-03 2.6499754126e+00 -4.5898920534e+00 2.6499754126e+00 4.5898920534e+00 
123100 4.6893422311e+00 -1.7511811058e-03 2.6500084660e+00 -4.5899493036e+00 2.6500084660e+00 4.5899493036e+00 
123200 4.6893421390e+00 -1.7505505430e-03 2.6500415071e+00 -4.5900065325e+00 2.6500415071e+00 4.5900065325e+00 
123300 4.6893420469e+00 -1.7499204958e-03 2.6500745359e+00 -4.5900637401e+00 2.6500745359e+00 4.5900637401e+00 
123400 4.6893419549e+00 -1.7492909598e-03 2.6501075524e+00 -4.5901209263e+00 2.6501075524e+00 4.5901209263e+00 
123500 4.6893418629e+00 -1.7486619305e-03 2.6501405567e+00 -4.5901780913e+00 2.6501405567e+00 4.5901780913e+00 
123600 4.6893417710e+00 -1.7480334035e-03 2.6501735486e+00 -4.5902352350e+00 2.6501735486e+00 4.5902352350e+00 
123700 4.6893416792e+00 -1.7474053743e-03 2.6502065283e+00 -4.5902923575e+00 2.6502065283e+00 4.5902923575e+00 
123800 4.6893415874e+00 -1.7467778386e-03 2.6502394957e+00 -4.5903494587e+00 2.6502394957e+00 4.5903494587e+00 
123900 4.6893414957e+00 -1.7461507921e-03 2.6502724508e+00 -4.5904065387e+00 2.6502724508e+00 4.5904065387e+00 
124000 4.6893414041e+00 -1.7455242304e-03 2.6503053938e+00 -4.5904635976e+00 2.6503053938e+00 4.5904635976e+00 
124100 4.6893413125e+00 -1.7448981493e-03 2.6503383245e+00 -4.5905206352e+00 2.6503383245e+00 4.5905206352e+00 
124200 4.6893412210e+00 -1.7442725446e-03 2.6503712429e+00 -4.5905776517e+00 2.6503712429e+00 4.5905776517e+00 
124300 4.6893411296e+00 -1.7436474119e-03 2.6504041492e+00 -4.5906346470e+00 2.6504041492e+00 4.5906346470e+00 
124400 4.6893410382e+00 -1.7430227472e-03 2.6504370432e+00 -4.5906916212e+00 2.6504370432e+00 4.5906916212e+00 
124500 4.6893409469e+00 -1.7423985463e-03 2.6504699251e+00 -4.5907485742e+00 2.6504699251e+00 4.5907485742e+00 
124600 4.6893408556e+00 -1.7417748050e-03 2.6505027948e+00 -4.5908055062e+00 2.6505027948e+00 4.5908055062e+00 
124700 4.6893407644e+00 -1.7411515193e-03 2.6505356523e+00 -4.5908624171e+00 2.6505356523e+00 4.5908624171e+00 
124800 4.6893406733e+00 -1.7405286852e-03 2.6505684976e+00 -4.5909193069e+00 2.6505684976e+00 4.5909193069e+00 
124900 4.6893405823e+00 -1.7399062985e-03 2.6506013308e+00 -4.5909761756e+00 2.6506013308e+00 4.5909761756e+00 
125000 4.6893404913e+00 -1.7392843553e-03 2.6506341519e+00 -4.5910330233e+00 2.6506341519e+00 4.5910330233e+00 
125100 4.6893404003e+00 -1.7386628516e-03 2.6506669608e+00 -4.5910898500e+00 2.6506669608e+00 4.5910898500e+00 
125200 4.6893403095e+00 -1.7380417834e-03 2.6506997576e+00 -4.5911466557e+00 2.6506997576e+00 4.5911466557e+00 
125300 4.6893402187e+00 -1.7374211469e-03 2.6507325422e+00 -4.5912034404e+00 2.6507325422e+00 4.5912034404e+00 
125400 4.6893401280e+00 -1.7368009382e-03 2.6507653147e+00 -4.5912602041e+00 2.6507653147e+00 4.5912602041e+00 
125500 4.6893400373e+00 -1.7361811534e-03 2.6507980752e+00 -4.5913169468e+00 2.6507980752e+00 4.5913169468e+00 
125600 4.6893399467e+00 -1.7355617887e-03 2.6508308235e+00 -4.5913736686e+00 2.6508308235e+00 4.5913736686e+00 
125700 4.6893398562e+00 -1.7349428402e-03 2.6508635598e+00 -4.5914303695e+00 2.6508635598e+00 4.5914303695e+00 
125800 4.6893397657e+00 -1.7343243042e-03 2.6508962839e+00 -4.5914870494e+00 2.6508962839e+00 4.5914870494e+00 
125900 4.6893396753e+00 -1.7337061771e-03 2.6509289960e+00 -4.5915437084e+00 2.6509289960e+00 4.5915437084e+00 
126000 4.6893395849e+00 -1.7330884549e-03 2.6509616961e+00 -4.5916003465e+00 2.6509616961e+00 4.5916003465e+00 
126100 4.6893394946e+00 -1.7324711341e-03 2.6509943841e+00 -4.5916569638e+00 2.6509943841e+00 4.5916569638e+00 
126200 4.6893394044e+00 -1.7318542110e-03 2.6510270600e+00 -4.5917135602e+00 2.6510270600e+00 4.5917135602e+00 
126300 4.6893393143e+00 -1.7312376820e-03 2.6510597239e+00 -4.5917701357e+00 2.6510597239e+00 4.5917701357e+00 
126400 4.6893392242e+00 -1.7306215434e-03 2.6510923758e+00 -4.5918266904e+00 2.6510923758e+00 4.5918266904e+00 
126500 4.6893391342e+00 -1.7300057917e-03 2.6511250156e+00 -4.5918832243e+00 2.6511250156e+00 4.5918832243e+00 
126600 4.6893390442e+00 -1.7293904233e-03 2.6511576435e+00 -4.5919397374e+00 2.6511576435e+00 4.5919397374e+00 
126700 4.6893389543e+00 -1.7287754346e-03 2.6511902593e+00 -4.5919962296e+00 2.6511902593e+00 4.5919962296e+00 
126800 4.6893388645e+00 -1.7281608223e-03 2.6512228631e+00 -4.5920527011e+00 2.6512228631e+00 4.5920527011e+00 
126900 4.6893387747e+00 -1.7275465828e-03 2.6512554550e+00 -4.5921091518e+00 2.6512554550e+00 4.5921091518e+00 
127000 4.6893386850e+00 -1.7269327126e-03 2.6512880348e+00 -4.5921655818e+00 2.6512880348e+00 4.5921655818e+00 
127100 4.6893385954e+00 -1.7263192084e-03 2.6513206027e+00 -4.5922219910e+00 2.6513206027e+00 4.5922219910e+00 
127200 4.6893385058e+00 -1.7257060667e-03 2.6513531586e+00 -4.5922783795e+00 2.6513531586e+00 4.5922783795e+00 
127300 4.6893384163e+00 -1.7250932842e-03 2.6513857025e+00 -4.5923347472e+00 2.6513857025e+00 4.5923347472e+00 
127400 4.6893383269e+00 -1.7244808575e-03 2.6514182345e+00 -4.5923910943e+00 2.6514182345e+00 4.5923910943e+00 
127500 4.6893382375e+00 -1.7238687833e-03 2.6514507546e+00 -4.5924474207e+00 2.6514507546e+00 4.5924474207e+00 
127600 4.6893381482e+00 -1.7232570583e-03 2.6514832626e+00 -4.5925037263e+00 2.6514832626e+00 4.5925037263e+00 
127700 4.6893380589e+00 -1.7226456792e-03 2.6515157588e+00 -4.5925600113e+00 2.6515157588e+00 4.5925600113e+00 
127800 4.6893379697e+00 -1.7220346428e-03 2.6515482430e+00 -4.5926162757e+00 2.6515482430e+00 4.5926162757e+00 
127900 4.6893378806e+00 -1.7214239459e-03 2.6515807154e+00 -4.5926725194e+00 2.6515807154e+00 4.5926725194e+00 
128000 4.6893377916e+00 -1.7208135852e-03 2.6516131758e+00 -4.5927287424e+00 2.6516131758e+00 4.5927287424e+00 
128100 4.6893377026e+00 -1.7202035577e-03 2.6516456243e+00 -4.5927849449e+00 2.6516456243e+00 4.5927849449e+00 
128200 4.6893376136e+00 -1.7195938600e-03 2.6516780608e+00 -4.5928411267e+00 2.6516780608e+00 4.5928411267e+00 
128300 4.6893375248e+00 -1.7189844892e-03 2.6517104855e+00 -4.5928972879e+00 2.6517104855e+00 4.5928972879e+00 
128400 4.6893374360e+00 -1.7183754420e-03 2.6517428984e+00 -4.5929534286e+00 2.6517428984e+00 4.5929534286e+00 
128500 4.6893373472e+00 -1.7177667155e-03 2.6517752993e+00 -4.5930095486e+00 2.6517752993e+00 4.5930095486e+00 
128600 4.6893372586e+00 -1.7171583065e-03 2.6518076884e+00 -4.5930656481e+00 2.6518076884e+00 4.5930656481e+00 
128700 4.6893371699e+00 -1.7165502121e-03 2.6518400656e+00 -4.5931217271e+00 2.6518400656e+00 4.5931217271e+00 
128800 4.6893370814e+00 -1.7159424293e-03 2.6518724309e+00 -4.5931777855e+00 2.6518724309e+00 4.5931777855e+00 
128900 4.6893369929e+00 -1.7153349549e-03 2.6519047844e+00 -4.5932338233e+00 2.6519047844e+00 4.5932338233e+00 
129000 4.6893369045e+00 -1.7147277861e-03 2.6519371260e+00 -4.5932898407e+00 2.6519371260e+00 4.5932898407e+00 
129100 4.6893368161e+00 -1.7141209200e-03 2.6519694558e+00 -4.5933458375e+00 2.6519694558e+00 4.5933458375e+00 
129200 4.6893367279e+00 -1.7135143536e-03 2.6520017737e+00 -4.5934018139e+00 2.6520017737e+00 4.5934018139e+00 
129300 4.6893366396e+00 -1.7129080840e-03 2.6520340799e+00 -4.5934577697e+00 2.6520340799e+00 4.5934577697e+00 
129400 4.6893365515e+00 -1.7123021084e-03 2.6520663741e+00 -4.5935137051e+00 2.6520663741e+00 4.5935137051e+00 
129500 4.6893364634e+00 -1.7116964239e-03 2.6520986566e+00 -4.5935696200e+00 2.6520986566e+00 4.5935696200e+00 
129600 4.6893363753e+00 -1.7110910276e-03 2.6521309273e+00 -4.5936255144e+00 2.6521309273e+00 4.5936255144e+00 
129700 4.6893362874e+00 -1.7104859168e-03 2.6521631862e+00 -4.5936813884e+00 2.6521631862e+00 4.5936813884e+00 
129800 4.6893361995e+00 -1.7098810887e-03 2.6521954332e+00 -4.5937372419e+00 2.6521954332e+00 4.5937372419e+00 
129900 4.6893361116e+00 -1.7092765404e-03 2.6522276685e+00 -4.5937930751e+00 2.6522276685e+00 4.5937930751e+00 
130000 4.6893360238e+00 -1.7086722694e-03 2.6522598920e+00 -4.5938488878e+00 2.6522598920e+00 4.5938488878e+00 
130100 4.6893359361e+00 -1.7080682728e-03 2.6522921037e+00 -4.5939046801e+00 2.6522921037e+00 4.5939046801e+00 
130200 4.6893358485e+00 -1.7074645479e-03 2.6523243036e+00 -4.5939604519e+00 2.6523243036e+00 4.5939604519e+00 
130300 4.6893357609e+00 -1.7068610921e-03 2.6523564917e+00 -4.5940162034e+00 2.6523564917e+00 4.5940162034e+00 
130400 4.6893356733e+00 -1.7062579027e-03 2.6523886681e+00 -4.5940719346e+00 2.6523886681e+00 4.5940719346e+00 
130500 4.6893355859e+00 -1.7056549771e-03 2.6524208327e+00 -4.5941276453e+00 2.6524208327e+00 4.5941276453e+00 
130600 4.6893354985e+00 -1.7050523126e-03 2.6524529856e+00 -4.5941833357e+00 2.6524529856e+00 4.5941833357e+00 
130700 4.6893354112e+00 -1.7044499067e-03 2.6524851267e+00 -4.5942390058e+00 2.6524851267e+00 4.5942390058e+00 
130800 4.6893353239e+00 -1.7038477567e-03 2.6525172561e+00 -4.5942946554e+00 2.6525172561e+00 4.5942946554e+00 
130900 4.6893352367e+00 -1.7032458602e-03 2.6525493737e+00 -4.5943502848e+00 2.6525493737e+00 4.5943502848e+00 
131000 4.6893351495e+00 -1.7026442146e-03 2.6525814796e+00 -4.5944058938e+00 2.6525814796e+00 4.5944058938e+00 
131100 4.6893350625e+00 -1.7020428173e-03 2.6526135737e+00 -4.5944614826e+00 2.6526135737e+00 4.5944614826e+00 
131200 4.6893349754e+00 -1.7014416659e-03 2.6526456562e+00 -4.5945170510e+00 2.6526456562e+00 4.5945170510e+00 
131300 4.6893348885e+00 -1.7008407579e-03 2.6526777269e+00 -4.5945725991e+00 2.6526777269e+00 4.5945725991e+00 
131400 4.6893348016e+00 -1.7002400908e-03 2.6527097859e+00 -4.5946281269e+00 2.6527097859e+00 4.5946281269e+00 
131500 4.6893347148e+00 -1.6996396622e-03 2.6527418332e+00 -4.5946836345e+00 2.6527418332e+00 4.5946836345e+00 
131600 4.6893346280e+00 -1.6990394697e-03 2.6527738688e+00 -4.5947391217e+00 2.6527738688e+00 4.5947391217e+00 
131700 4.6893345413e+00 -1.6984395109e-03 2.6528058927e+00 -4.5947945887e+00 2.6528058927e+00 4.5947945887e+00 
131800 4.6893344547e+00 -1.6978397834e-03 2.6528379049e+00 -4.5948500355e+00 2.6528379049e+00 4.5948500355e+00 
131900 4.6893343681e+00 -1.6972402848e-03 2.6528699054e+00 -4.5949054620e+00 2.6528699054e+00 4.5949054620e+00 
132000 4.6893342816e+00 -1.6966410128e-03 2.6529018942e+00 -4.5949608683e+00 2.6529018942e+00 4.5949608683e+00 
132100 4.6893341951e+00 -1.6960419651e-03 2.6529338714e+00 -4.5950162543e+00 2.6529338714e+00 4.5950162543e+00 
132200 4.6893341088e+00 -1.6954431394e-03 2.6529658368e+00 -4.5950716201e+00 2.6529658368e+00 4.5950716201e+00 
132300 4.6893340224e+00 -1.6948445333e-03 2.6529977906e+00 -4.5951269657e+00 2.6529977906e+00 4.5951269657e+00 
132400 4.6893339362e+00 -1.6942461447e-03 2.6530297327e+00 -4.5951822911e+00 2.6530297327e+00 4.5951822911e+00 
132500 4.6893338500e+00 -1.6936479712e-03 2.6530616632e+00 -4.5952375963e+00 2.6530616632e+00 4.5952375963e+00 
132600 4.6893337639e+00 -1.6930500106e-03 2.6530935820e+00 -4.5952928813e+00 2.6530935820e+00 4.5952928813e+00 
132700 4.6893336778e+00 -1.6924522608e-03 2.6531254892e+00 -4.5953481461e+00 2.6531254892e+00 4.5953481461e+00 
132800 4.6893335918e+00 -1.6918547194e-03 2.6531573847e+00 -4.5954033907e+00 2.6531573847e+00 4.5954033907e+00 
132900 4.6893335058e+00 -1.6912573844e-03 2.6531892685e+00 -4.5954586152e+00 2.6531892685e+00 4.5954586152e+00 
133000 4.6893334200e+00 -1.6906602536e-03 2.6532211408e+00 -4.5955138195e+00 2.6532211408e+00 4.5955138195e+00 
133100 4.6893333342e+00 -1.6900633248e-03 2.6532530014e+00 -4.5955690037e+00 2.6532530014e+00 4.5955690037e+00 
133200 4.6893332484e+00 -1.6894665959e-03 2.6532848503e+00 -4.5956241677e+00 2.6532848503e+00 4.5956241677e+00 
133300 4.6893331627e+00 -1.6888700648e-03 2.6533166876e+00 -4.5956793116e+00 2.6533166876e+00 4.5956793116e+00 
133400 4.6893330771e+00 -1.6882737295e-03 2.6533485133e+00 -4.5957344353e+00 2.6533485133e+00 4.5957344353e+00 
133500 4.6893329915e+00 -1.6876775877e-03 2.6533803274e+00 -4.5957895389e+00 2.6533803274e+00 4.5957895389e+00 
133600 4.6893329060e+00 -1.6870816375e-03 2.6534121299e+00 -4.5958446224e+00 2.6534121299e+00 4.5958446224e+00 
133700 4.6893328206e+00 -1.6864858769e-03 2.6534439208e+00 -4.5958996858e+00 2.6534439208e+00 4.5958996858e+00 
133800 4.6893327352e+00 -1.6858903037e-03 2.6534757000e+00 -4.5959547291e+00 2.6534757000e+00 4.5959547291e+00 
133900 4.6893326499e+00 -1.6852949161e-03 2.6535074677e+00 -4.5960097522e+00 2.6535074677e+00 4.5960097522e+00 
134000 4.6893325647e+00 -1.6846997120e-03 2.6535392237e+00 -4.5960647553e+00 2.6535392237e+00 4.5960647553e+00 
134100 4.6893324795e+00 -1.6841046894e-03 2.6535709682e+00 -4.5961197383e+00 2.6535709682e+00 4.5961197383e+00 
134200 4.6893323944e+00 -1.6835098463e-03 2.6536027010e+00 -4.5961747013e+00 2.6536027010e+00 4.5961747013e+00 
134300 4.6893323093e+00 -1.6829151809e-03 2.6536344223e+00 -4.5962296441e+00 2.6536344223e+00 4.5962296441e+00 
134400 4.6893322243e+00 -1.6823206913e-03 2.6536661320e+00 -4.5962845669e+00 2.6536661320e+00 4.5962845669e+00 
134500 4.6893321394e+00 -1.6817263754e-03 2.6536978301e+00 -4.5963394697e+00 2.6536978301e+00 4.5963394697e+00 
134600 4.6893320545e+00 -1.6811322314e-03 2.6537295166e+00 -4.5963943523e+00 2.6537295166e+00 4.5963943523e+00 
134700 4.6893319697e+00 -1.6805382574e-03 2.6537611916e+00 -4.5964492150e+00 2.6537611916e+00 4.5964492150e+00 
134800 4.6893318850e+00 -1.6799444516e-03 2.6537928550e+00 -4.5965040576e+00 2.6537928550e+00 4.5965040576e+00 
134900 4.6893318003e+00 -1.6793508121e-03 2.6538245068e+00 -4.5965588802e+00 2.6538245068e+00 4.5965588802e+00 
135000 4.6893317157e+00 -1.6787573371e-03 2.6538561471e+00 -4.5966136827e+00 2.6538561471e+00 4.5966136827e+00 
135100 4.6893316311e+00 -1.6781640247e-03 2.6538877758e+00 -4.5966684652e+00 2.6538877758e+00 4.5966684652e+00 
135200 4.6893315466e+00 -1.6775708732e-03 2.6539193929e+00 -4.5967232277e+00 2.6539193929e+00 4.5967232277e+00 
135300 4.6893314622e+00 -1.6769778808e-03 2.6539509985e+00 -4.5967779702e+00 2.6539509985e+00 4.5967779702e+00 
135400 4.6893313778e+00 -1.6763850457e-03 2.6539825926e+00 -4.5968326927e+00 2.6539825926e+00 4.5968326927e+00 
135500 4.6893312935e+00 -1.6757923662e-03 2.6540141751e+00 -4.5968873952e+00 2.6540141751e+00 4.5968873952e+00 
135600 4.6893312093e+00 -1.6751998404e-03 2.6540457460e+00 -4.5969420778e+00 2.6540457460e+00 4.5969420778e+00 
135700 4.6893311251e+00 -1.6746074667e-03 2.6540773055e+00 -4.5969967403e+00 2.6540773055e+00 4.5969967403e+00 
135800 4.6893310410e+00 -1.6740152434e-03 2.6541088534e+00 -4.5970513828e+00 2.6541088534e+00 4.5970513828e+00 
135900 4.6893309569e+00 -1.6734231688e-03 2.6541403897e+00 -4.5971060054e+00 2.6541403897e+00 4.5971060054e+00 
136000 4.6893308729e+00 -1.6728312411e-03 2.6541719145e+00 -4.5971606080e+00 2.6541719145e+00 4.5971606080e+00 
136100 4.6893307890e+00 -1.6722394588e-03 2.6542034279e+00 -4.5972151907e+00 2.6542034279e+00 4.5972151907e+00 
136200 4.6893307051e+00 -1.6716478201e-03 2.6542349296e+00 -4.5972697534e+00 2.6542349296e+00 4.5972697534e+00 
136300 4.6893306213e+00 -1.6710563235e-03 2.6542664199e+00 -4.5973242961e+00 2.6542664199e+00 4.5973242961e+00 
136400 4.6893305376e+00 -1.6704649673e-03 2.6542978986e+00 -4.5973788189e+00 2.6542978986e+00 4.5973788189e+00 
136500 4.6893304539e+00 -1.6698737498e-03 2.6543293659e+00 -4.5974333217e+00 2.6543293659e+00 4.5974333217e+00 
136600 4.6893303703e+00 -1.6692826696e-03 2.6543608216e+00 -4.5974878046e+00 2.6543608216e+00 4.5974878046e+00 
136700 4.6893302867e+00 -1.6686917249e-03 2.6543922658e+00 -4.5975422676e+00 2.6543922658e+00 4.5975422676e+00 
136800 4.6893302032e+00 -1.6681009143e-03 2.6544236985e+00 -4.5975967107e+00 2.6544236985e+00 4.5975967107e+00 
136900 4.6893301198e+00 -1.6675102361e-03 2.6544551197e+00 -4.5976511338e+00 2.6544551197e+00 4.5976511338e+00 
137000 4.6893300364e+00 -1.6669196889e-03 2.6544865295e+00 -4.5977055370e+00 2.6544865295e+00 4.5977055370e+00 
137100 4.6893299531e+00 -1.6663292711e-03 2.6545179277e+00 -4.5977599203e+00 2.6545179277e+00 4.5977599203e+00 
137200 4.6893298699e+00 -1.6657389812e-03 2.6545493144e+00 -4.5978142837e+00 2.6545493144e+00 4.5978142837e+00 
137300 4.6893297867e+00 -1.6651488176e-03 2.6545806896e+00 -4.5978686272e+00 2.6545806896e+00 4.5978686272e+00 
137400 4.6893297036e+00 -1.6645587790e-03 2.6546120534e+00 -4.5979229509e+00 2.6546120534e+00 4.5979229509e+00 
137500 4.6893296205e+00 -1.6639688638e-03 2.6546434057e+00 -4.5979772546e+00 2.6546434057e+00 4.5979772546e+00 
137600 4.6893295375e+00 -1.6633790705e-03 2.6546747464e+00 -4.5980315384e+00 2.6546747464e+00 4.5980315384e+00 
137700 4.6893294546e+00 -1.6627893977e-03 2.6547060757e+00 -4.5980858024e+00 2.6547060757e+00 4.5980858024e+00 
137800 4.6893293717e+00 -1.6621998440e-03 2.6547373936e+00 -4.5981400464e+00 2.6547373936e+00 4.5981400464e+00 
137900 4.6893292889e+00 -1.6616104079e-03 2.6547686999e+00 -4.5981942706e+00 2.6547686999e+00 4.5981942706e+00 
138000 4.6893292062e+00 -1.6610210881e-03 2.6547999948e+00 -4.5982484750e+00 2.6547999948e+00 4.5982484750e+00 
138100 4.6893291235e+00 -1.6604318831e-03 2.6548312782e+00 -4.5983026594e+00 2.6548312782e+00 4.5983026594e+00 
138200 4.6893290409e+00 -1.6598427915e-03 2.6548625502e+00 -4.5983568240e+00 2.6548625502e+00 4.5983568240e+00 
138300 4.6893289583e+00 -1.6592538120e-03 2.6548938107e+00 -4.5984109688e+00 2.6548938107e+00 4.5984109688e+00 
138400 4.6893288758e+00 -1.6586649432e-03 2.6549250597e+00 -4.5984650937e+00 2.6549250597e+00 4.5984650937e+00 
138500 4.6893287934e+00 -1.6580761837e-03 2.6549562973e+00 -4.5985191988e+00 2.6549562973e+00 4.5985191988e+00 
138600 4.6893287110e+00 -1.6574875322e-03 2.6549875234e+00 -4.5985732840e+00 2.6549875234e+00 4.5985732840e+00 
138700 4.6893286287e+00 -1.6568989875e-03 2.6550187381e+00 -4.5986273494e+00 2.6550187381e+00 4.5986273494e+00 
138800 4.6893285465e+00 -1.6563105480e-03 2.6550499413e+00 -4.5986813949e+00 2.6550499413e+00 4.5986813949e+00 
138900 4.6893284643e+00 -1.6557222127e-03 2.6550811330e+00 -4.5987354206e+00 2.6550811330e+00 4.5987354206e+00 
139000 4.6893283821e+00 -1.6551339801e-03 2.6551123133e+00 -4.5987894265e+00 2.6551123133e+00 4.5987894265e+00 
139100 4.6893283001e+00 -1.6545458491e-03 2.6551434822e+00 -4.5988434126e+00 2.6551434822e+00 4.5988434126e+00 
139200 4.6893282181e+00 -1.6539578182e-03 2.6551746397e+00 -4.5988973789e+00 2.6551746397e+00 4.5988973789e+00 
139300 4.6893281361e+00 -1.6533698864e-03 2.6552057856e+00 -4.5989513253e+00 2.6552057856e+00 4.5989513253e+00 
139400 4.6893280543e+00 -1.6527820523e-03 2.6552369202e+00 -4.5990052519e+00 2.6552369202e+00 4.5990052519e+00 
139500 4.6893279724e+00 -1.6521943146e-03 2.6552680433e+00 -4.5990591588e+00 2.6552680433e+00 4.5990591588e+00 
139600 4.6893278907e+00 -1.6516066723e-03 2.6552991550e+00 -4.5991130458e+00 2.6552991550e+00 4.5991130458e+00 
139700 4.6893278090e+00 -1.6510191240e-03 2.6553302553e+00 -4.5991669130e+00 2.6553302553e+00 4.5991669130e+00 
139800 4.6893277274e+00 -1.6504316686e-03 2.6553613441e+00 -4.5992207605e+00 2.6553613441e+00 4.5992207605e+00 
139900 4.6893276458e+00 -1.6498443048e-03 2.6553924215e+00 -4.5992745881e+00 2.6553924215e+00 4.5992745881e+00 
140000 4.6893275643e+00 -1.6492570316e-03 2.6554234875e+00 -4.5993283960e+00 2.6554234875e+00 4.5993283960e+00 
140100 4.6893274828e+00 -1.6486698477e-03 2.6554545421e+00 -4.5993821840e+00 2.6554545421e+00 4.5993821840e+00 
140200 4.6893274015e+00 -1.6480827520e-03 2.6554855852e+00 -4.5994359523e+00 2.6554855852e+00 4.5994359523e+00 
140300 4.6893273201e+00 -1.6474957433e-03 2.6555166169e+00 -4.5994897009e+00 2.6555166169e+00 4.5994897009e+00 
140400 4.6893272389e+00 -1.6469088206e-03 2.6555476372e+00 -4.5995434296e+00 2.6555476372e+00 4.5995434296e+00 
140500 4.6893271577e+00 -1.6463219826e-03 2.6555786461e+00 -4.5995971386e+00 2.6555786461e+00 4.5995971386e+00 
140600 4.6893270765e+00 -1.6457352283e-03 2.6556096436e+00 -4.5996508278e+00 2.6556096436e+00 4.5996508278e+00 
140700 4.6893269955e+00 -1.6451485566e-03 2.6556406297e+00 -4.5997044973e+00 2.6556406297e+00 4.5997044973e+00 
140800 4.6893269145e+00 -1.6445619664e-03 2.6556716044e+00 -4.5997581470e+00 2.6556716044e+00 4.5997581470e+00 
140900 4.6893268335e+00 -1.6439754566e-03 2.6557025676e+00 -4.5998117769e+00 2.6557025676e+00 4.5998117769e+00 
141000 4.6893267526e+00 -1.6433890261e-03 2.6557335195e+00 -4.5998653871e+00 2.6557335195e+00 4.5998653871e+00 
141100 4.6893266718e+00 -1.6428026739e-03 2.6557644599e+00 -4.5999189776e+00 2.6557644599e+00 4.5999189776e+00 
141200 4.6893265910e+00 -1.6422163989e-03 2.6557953890e+00 -4.5999725483e+00 2.6557953890e+00 4.5999725483e+00 
141300 4.6893265103e+00 -1.6416302001e-03 2.6558263067e+00 -4.6000260992e+00 2.6558263067e+00 4.6000260992e+00 
141400 4.6893264297e+00 -1.6410440765e-03 2.6558572129e+00 -4.6000796304e+00 2.6558572129e+00 4.6000796304e+00 
141500 4.6893263491e+00 -1.6404580270e-03 2.6558881078e+00 -4.6001331419e+00 2.6558881078e+00 4.6001331419e+00 
141600 4.6893262686e+00 -1.6398720506e-03 2.6559189913e+00 -4.6001866337e+00 2.6559189913e+00 4.6001866337e+00 
141700 4.6893261881e+00 -1.6392861464e-03 2.6559498634e+00 -4.6002401057e+00 2.6559498634e+00 4.6002401057e+00 
141800 4.6893261077e+00 -1.6387003133e-03 2.6559807241e+00 -4.6002935580e+00 2.6559807241e+00 4.6002935580e+00 
141900 4.6893260274e+00 -1.6381145504e-03 2.6560115734e+00 -4.6003469906e+00 2.6560115734e+00 4.6003469906e+00 
142000 4.6893259471e+00 -1.6375288566e-03 2.6560424113e+00 -4.6004004034e+00 2.6560424113e+00 4.6004004034e+00 
142100 4.6893258669e+00 -1.6369432312e-03 2.6560732378e+00 -4.6004537966e+00 2.6560732378e+00 4.6004537966e+00 
142200 4.6893257867e+00 -1.6363576730e-03 2.6561040530e+00 -4.6005071700e+00 2.6561040530e+00 4.6005071700e+00 
142300 4.6893257066e+00 -1.6357721811e-03 2.6561348568e+00 -4.6005605237e+00 2.6561348568e+00 4.6005605237e+00 
142400 4.6893256266e+00 -1.6351867546e-03 2.6561656492e+00 -4.6006138577e+00 2.6561656492e+00 4.6006138577e+00 
142500 4.6893255466e+00 -1.6346013927e-03 2.6561964302e+00 -4.6006671720e+00 2.6561964302e+00 4.6006671720e+00 
142600 4.6893254667e+00 -1.6340160943e-03 2.6562271998e+00 -4.6007204666e+00 2.6562271998e+00 4.6007204666e+00 
142700 4.6893253868e+00 -1.6334308586e-03 2.6562579581e+00 -4.6007737415e+00 2.6562579581e+00 4.6007737415e+00 
142800 4.6893253071e+00 -1.6328456847e-03 2.6562887050e+00 -4.6008269967e+00 2.6562887050e+00 4.6008269967e+00 
142900 4.6893252273e+00 -1.6322605716e-03 2.6563194405e+00 -4.6008802322e+00 2.6563194405e+00 4.6008802322e+00 
143000 4.6893251477e+00 -1.6316755186e-03 2.6563501647e+00 -4.6009334480e+00 2.6563501647e+00 4.6009334480e+00 
143100 4.6893250681e+00 -1.6310905248e-03 2.6563808775e+00 -4.6009866441e+00 2.6563808775e+00 4.6009866441e+00 
143200 4.6893249885e+00 -1.6305055892e-03 2.6564115789e+00 -4.6010398205e+00 2.6564115789e+00 4.6010398205e+00 
143300 4.6893249090e+00 -1.6299207111e-03 2.6564422690e+00 -4.6010929773e+00 2.6564422690e+00 4.6010929773e+00 
143400 4.6893248296e+00 -1.6293358895e-03 2.6564729477e+00 -4.6011461143e+00 2.6564729477e+00 4.6011461143e+00 
143500 4.6893247502e+00 -1.6287511238e-03 2.6565036150e+00 -4.6011992317e+00 2.6565036150e+00 4.6011992317e+00 
143600 4.6893246709e+00 -1.6281664129e-03 2.6565342710e+00 -4.6012523294e+00 2.6565342710e+00 4.6012523294e+00 
143700 4.6893245917e+00 -1.6275817563e-03 2.6565649156e+00 -4.6013054075e+00 2.6565649156e+00 4.6013054075e+00 
143800 4.6893245125e+00 -1.6269971529e-03 2.6565955489e+00 -4.6013584658e+00 2.6565955489e+00 4.6013584658e+00 
143900 4.6893244334e+00 -1.6264126021e-03 2.6566261708e+00 -4.6014115045e+00 2.6566261708e+00 4.6014115045e+00 
144000 4.6893243543e+00 -1.6258281030e-03 2.6566567813e+00 -4.6014645235e+00 2.6566567813e+00 4.6014645235e+00 
144100 4.6893242753e+00 -1.6252436548e-03 2.6566873805e+00 -4.6015175229e+00 2.6566873805e+00 4.6015175229e+00 
144200 4.6893241964e+00 -1.6246592569e-03 2.6567179684e+00 -4.6015705026e+00 2.6567179684e+00 4.6015705026e+00 
144300 4.6893241175e+00 -1.6240749084e-03 2.6567485449e+00 -4.6016234626e+00 2.6567485449e+00 4.6016234626e+00 
144400 4.6893240387e+00 -1.6234906085e-03 2.6567791100e+00 -4.6016764030e+00 2.6567791100e+00 4.6016764030e+00 
144500 4.6893239600e+00 -1.6229063565e-03 2.6568096638e+00 -4.6017293238e+00 2.6568096638e+00 4.6017293238e+00 
144600 4.6893238813e+00 -1.6223221518e-03 2.6568402063e+00 -4.6017822248e+00 2.6568402063e+00 4.6017822248e+00 
144700 4.6893238026e+00 -1.6217379934e-03 2.6568707374e+00 -4.6018351063e+00 2.6568707374e+00 4.6018351063e+00 
144800 4.6893237241e+00 -1.6211538808e-03 2.6569012571e+00 -4.6018879680e+00 2.6569012571e+00 4.6018879680e+00 
144900 4.6893236456e+00 -1.6205698132e-03 2.6569317655e+00 -4.6019408102e+00 2.6569317655e+00 4.6019408102e+00 
145000 4.6893235671e+00 -1.6199857899e-03 2.6569622626e+00 -4.6019936326e+00 2.6569622626e+00 4.6019936326e+00 
145100 4.6893234887e+00 -1.6194018102e-03 2.6569927483e+00 -4.6020464355e+00 2.6569927483e+00 4.6020464355e+00 
145200 4.6893234104e+00 -1.6188178734e-03 2.6570232227e+00 -4.6020992187e+00 2.6570232227e+00 4.6020992187e+00 
145300 4.6893233321e+00 -1.6182339788e-03 2.6570536858e+00 -4.6021519822e+00 2.6570536858e+00 4.6021519822e+00 
145400 4.6893232539e+00 -1.6176501258e-03 2.6570841375e+00 -4.6022047262e+00 2.6570841375e+00 4.6022047262e+00 
145500 4.6893231758e+00 -1.6170663136e-03 2.6571145779e+00 -4.6022574505e+00 2.6571145779e+00 4.6022574505e+00 
145600 4.6893230977e+00 -1.6164825417e-03 2.6571450069e+00 -4.6023101551e+00 2.6571450069e+00 4.6023101551e+00 
145700 4.6893230196e+00 -1.6158988093e-03 2.6571754247e+00 -4.6023628401e+00 2.6571754247e+00 4.6023628401e+00 
145800 4.6893229417e+00 -1.6153151158e-03 2.6572058310e+00 -4.6024155055e+00 2.6572058310e+00 4.6024155055e+00 
145900 4.6893228638e+00 -1.6147314606e-03 2.6572362261e+00 -4.6024681513e+00 2.6572362261e+00 4.6024681513e+00 
146000 4.6893227859e+00 -1.6141478430e-03 2.6572666098e+00 -4.6025207775e+00 2.6572666098e+00 4.6025207775e+00 
146100 4.6893227081e+00 -1.6135642625e-03 2.6572969822e+00 -4.6025733840e+00 2.6572969822e+00 4.6025733840e+00 
146200 4.6893226304e+00 -1.6129807183e-03 2.6573273433e+00 -4.6026259709e+00 2.6573273433e+00 4.6026259709e+00 
146300 4.6893225527e+00 -1.6123972100e-03 2.6573576930e+00 -4.6026785382e+00 2.6573576930e+00 4.6026785382e+00 
146400 4.6893224751e+00 -1.6118137368e-03 2.6573880314e+00 -4.6027310859e+00 2.6573880314e+00 4.6027310859e+00 
146500 4.6893223976e+00 -1.6112302982e-03 2.6574183585e+00 -4.6027836139e+00 2.6574183585e+00 4.6027836139e+00 
146600 4.6893223201e+00 -1.6106468936e-03 2.6574486743e+00 -4.6028361224e+00 2.6574486743e+00 4.6028361224e+00 
146700 4.6893222427e+00 -1.6100635225e-03 2.6574789787e+00 -4.6028886112e+00 2.6574789787e+00 4.6028886112e+00 
146800 4.6893221653e+00 -1.6094801841e-03 2.6575092718e+00 -4.6029410804e+00 2.6575092718e+00 4.6029410804e+00 
146900 4.6893220880e+00 -1.6088968781e-03 2.6575395536e+00 -4.6029935300e+00 2.6575395536e+00 4.6029935300e+00 
147000 4.6893220108e+00 -1.6083136037e-03 2.6575698241e+00 -4.6030459600e+00 2.6575698241e+00 4.6030459600e+00 
147100 4.6893219336e+00 -1.6077303606e-03 2.6576000833e+00 -4.6030983704e+00 2.6576000833e+00 4.6030983704e+00 
147200 4.6893218565e+00 -1.6071471480e-03 2.6576303311e+00 -4.6031507612e+00 2.6576303311e+00 4.6031507612e+00 
147300 4.6893217794e+00 -1.6065639655e-03 2.6576605677e+00 -4.6032031324e+00 2.6576605677e+00 4.6032031324e+00 
147400 4.6893217024e+00 -1.6059808126e-03 2.6576907929e+00 -4.6032554840e+00 2.6576907929e+00 4.6032554840e+00 
147500 4.6893216255e+00 -1.6053976886e-03 2.6577210068e+00 -4.6033078160e+00 2.6577210068e+00 4.6033078160e+00 
147600 4.6893215486e+00 -1.6048145931e-03 2.6577512093e+00 -4.6033601285e+00 2.6577512093e+00 4.6033601285e+00 
147700 4.6893214717e+00 -1.6042315257e-03 2.6577814006e+00 -4.6034124213e+00 2.6577814006e+00 4.6034124213e+00 
147800 4.6893213950e+00 -1.6036484856e-03 2.6578115806e+00 -4.6034646945e+00 2.6578115806e+00 4.6034646945e+00 
147900 4.6893213183e+00 -1.6030654726e-03 2.6578417492e+00 -4.6035169481e+00 2.6578417492e+00 4.6035169481e+00 
148000 4.6893212416e+00 -1.6024824860e-03 2.6578719065e+00 -4.6035691821e+00 2.6578719065e+00 4.6035691821e+00 
148100 4.6893211650e+00 -1.6018995254e-03 2.6579020526e+00 -4.6036213966e+00 2.6579020526e+00 4.6036213966e+00 
148200 4.6893210885e+00 -1.6013165903e-03 2.6579321873e+00 -4.6036735915e+00 2.6579321873e+00 4.6036735915e+00 
148300 4.6893210121e+00 -1.6007336802e-03 2.6579623107e+00 -4.6037257667e+00 2.6579623107e+00 4.6037257667e+00 
148400 4.6893209356e+00 -1.6001507947e-03 2.6579924228e+00 -4.6037779224e+00 2.6579924228e+00 4.6037779224e+00 
148500 4.6893208593e+00 -1.5995679332e-03 2.6580225236e+00 -4.6038300585e+00 2.6580225236e+00 4.6038300585e+00 
148600 4.6893207830e+00 -1.5989850954e-03 2.6580526131e+00 -4.6038821751e+00 2.6580526131e+00 4.6038821751e+00 
148700 4.6893207068e+00 -1.5984022807e-03 2.6580826913e+00 -4.6039342720e+00 2.6580826913e+00 4.6039342720e+00 
148800 4.6893206306e+00 -1.5978194888e-03 2.6581127582e+00 -4.6039863494e+00 2.6581127582e+00 4.6039863494e+00 
148900 4.6893205545e+00 -1.5972367192e-03 2.6581428137e+00 -4.6040384072e+00 2.6581428137e+00 4.6040384072e+00 
149000 4.6893204785e+00 -1.5966539714e-03 2.6581728580e+00 -4.6040904454e+00 2.6581728580e+00 4.6040904454e+00 
149100 4.6893204025e+00 -1.5960712451e-03 2.6582028910e+00 -4.6041424640e+00 2.6582028910e+00 4.6041424640e+00 
149200 4.6893203265e+00 -1.5954885398e-03 2.6582329127e+00 -4.6041944631e+00 2.6582329127e+00 4.6041944631e+00 
149300 4.6893202507e+00 -1.5949058551e-03 2.6582629231e+00 -4.6042464426e+00 2.6582629231e+00 4.6042464426e+00 
149400 4.6893201749e+00 -1.5943231905e-03 2.6582929221e+00 -4.6042984026e+00 2.6582929221e+00 4.6042984026e+00 
149500 4.6893200991e+00 -1.5937405457e-03 2.6583229099e+00 -4.6043503429e+00 2.6583229099e+00 4.6043503429e+00 
149600 4.6893200234e+00 -1.5931579203e-03 2.6583528864e+00 -4.6044022637e+00 2.6583528864e+00 4.6044022637e+00 
149700 4.6893199478e+00 -1.5925753139e-03 2.6583828516e+00 -4.6044541649e+00 2.6583828516e+00 4.6044541649e+00 
149800 4.6893198722e+00 -1.5919927261e-03 2.6584128055e+00 -4.6045060466e+00 2.6584128055e+00 4.6045060466e+00 
149900 4.6893197967e+00 -1.5914101565e-03 2.6584427481e+00 -4.6045579087e+00 2.6584427481e+00 4.6045579087e+00 
150000 4.6893197213e+00 -1.5908276048e-03 2.6584726794e+00 -4.6046097512e+00 2.6584726794e+00 4.6046097512e+00 
150100 4.6893196459e+00 -1.5902450705e-03 2.6585025994e+00 -4.6046615742e+00 2.6585025994e+00 4.6046615742e+00 
150200 4.6893195705e+00 -1.5896625533e-03 2.6585325081e+00 -4.6047133776e+00 2.6585325081e+00 4.6047133776e+00 
150300 4.6893194952e+00 -1.5890800529e-03 2.6585624055e+00 -4.6047651615e+00 2.6585624055e+00 4.6047651615e+00 
150400 4.6893194200e+00 -1.5884975688e-03 2.6585922917e+00 -4.6048169258e+00 2.6585922917e+00 4.6048169258e+00 
150500 4.6893193449e+00 -1.5879151008e-03 2.6586221665e+00 -4.6048686705e+00 2.6586221665e+00 4.6048686705e+00 
150600 4.6893192698e+00 -1.5873326485e-03 2.6586520301e+00 -4.6049203957e+00 2.6586520301e+00 4.6049203957e+00 
150700 4.6893191947e+00 -1.5867502115e-03 2.6586818823e+00 -4.6049721014e+00 2.6586818823e+00 4.6049721014e+00 
150800 4.6893191198e+00 -1.5861677896e-03 2.6587117233e+00 -4.6050237875e+00 2.6587117233e+00 4.6050237875e+00 
150900 4.6893190448e+00 -1.5855853823e-03 2.6587415530e+00 -4.6050754540e+00 2.6587415530e+00 4.6050754540e+00 
151000 4.6893189700e+00 -1.5850029894e-03 2.6587713714e+00 -4.6051271010e+00 2.6587713714e+00 4.6051271010e+00 
151100 4.6893188952e+00 -1.5844206106e-03 2.6588011785e+00 -4.6051787284e+00 2.6588011785e+00 4.6051787284e+00 
151200 4.6893188204e+00 -1.5838382455e-03 2.6588309743e+00 -4.6052303363e+00 2.6588309743e+00 4.6052303363e+00 
151300 4.6893187457e+00 -1.5832558939e-03 2.6588607589e+00 -4.6052819246e+00 2.6588607589e+00 4.6052819246e+00 
151400 4.6893186711e+00 -1.5826735554e-03 2.6588905321e+00 -4.6053334934e+00 2.6588905321e+00 4.6053334934e+00 
151500 4.6893185966e+00 -1.5820912297e-03 2.6589202941e+00 -4.6053850427e+00 2.6589202941e+00 4.6053850427e+00 
151600 4.6893185220e+00 -1.5815089165e-03 2.6589500448e+00 -4.6054365724e+00 2.6589500448e+00 4.6054365724e+00 
151700 4.6893184476e+00 -1.5809266156e-03 2.6589797842e+00 -4.6054880825e+00 2.6589797842e+00 4.6054880825e+00 
151800 4.6893183732e+00 -1.5803443267e-03 2.6590095123e+00 -4.6055395732e+00 2.6590095123e+00 4.6055395732e+00 
151900 4.6893182989e+00 -1.5797620494e-03 2.6590392292e+00 -4.6055910442e+00 2.6590392292e+00 4.6055910442e+00 
152000 4.6893182246e+00 -1.5791797836e-03 2.6590689347e+00 -4.6056424958e+00 2.6590689347e+00 4.6056424958e+00 
152100 4.6893181504e+00 -1.5785975289e-03 2.6590986290e+00 -4.6056939278e+00 2.6590986290e+00 4.6056939278e+00 
152200 4.6893180762e+00 -1.5780152851e-03 2.6591283120e+00 -4.6057453402e+00 2.6591283120e+00 4.6057453402e+00 
152300 4.6893180021e+00 -1.5774330519e-03 2.6591579837e+00 -4.6057967332e+00 2.6591579837e+00 4.6057967332e+00 
152400 4.6893179281e+00 -1.5768508291e-03 2.6591876442e+00 -4.6058481066e+00 2.6591876442e+00 4.6058481066e+00 
152500 4.6893178541e+00 -1.5762686164e-03 2.6592172933e+00 -4.6058994604e+00 2.6592172933e+00 4.6058994604e+00 
152600 4.6893177802e+00 -1.5756864136e-03 2.6592469312e+00 -4.6059507947e+00 2.6592469312e+00 4.6059507947e+00 
152700 4.6893177063e+00 -1.5751042204e-03 2.6592765578e+00 -4.6060021095e+00 2.6592765578e+00 4.6060021095e+00 
152800 4.6893176325e+00 -1.5745220365e-03 2.6593061732e+00 -4.6060534048e+00 2.6593061732e+00 4.6060534048e+00 
152900 4.6893175588e+00 -1.5739398619e-03 2.6593357772e+00 -4.6061046805e+00 2.6593357772e+00 4.6061046805e+00 
153000 4.6893174851e+00 -1.5733576962e-03 2.6593653700e+00 -4.6061559367e+00 2.6593653700e+00 4.6061559367e+00 
153100 4.6893174115e+00 -1.5727755392e-03 2.6593949515e+00 -4.6062071734e+00 2.6593949515e+00 4.6062071734e+00 
153200 4.6893173379e+00 -1.5721933907e-03 2.6594245217e+00 -4.6062583905e+00 2.6594245217e+00 4.6062583905e+00 
153300 4.6893172644e+00 -1.5716112505e-03 2.6594540807e+00 -4.6063095881e+00 2.6594540807e+00 4.6063095881e+00 
153400 4.6893171910e+00 -1.5710291183e-03 2.6594836284e+00 -4.6063607662e+00 2.6594836284e+00 4.6063607662e+00 
153500 4.6893171176e+00 -1.5704469940e-03 2.6595131648e+00 -4.6064119248e+00 2.6595131648e+00 4.6064119248e+00 
153600 4.6893170442e+00 -1.5698648774e-03 2.6595426899e+00 -4.6064630638e+00 2.6595426899e+00 4.6064630638e+00 
153700 4.6893169710e+00 -1.5692827682e-03 2.6595722038e+00 -4.6065141834e+00 2.6595722038e+00 4.6065141834e+00 
153800 4.6893168977e+00 -1.5687006663e-03 2.6596017064e+00 -4.6065652833e+00 2.6596017064e+00 4.6065652833e+00 
153900 4.6893168246e+00 -1.5681185715e-03 2.6596311977e+00 -4.6066163638e+00 2.6596311977e+00 4.6066163638e+00 
154000 4.6893167515e+00 -1.5675364836e-03 2.6596606778e+00 -4.6066674248e+00 2.6596606778e+00 4.6066674248e+00 
154100 4.6893166784e+00 -1.5669544023e-03 2.6596901465e+00 -4.6067184662e+00 2.6596901465e+00 4.6067184662e+00 
154200 4.6893166055e+00 -1.5663723277e-03 2.6597196041e+00 -4.6067694881e+00 2.6597196041e+00 4.6067694881e+00 
154300 4.6893165325e+00 -1.5657902594e-03 2.6597490503e+00 -4.6068204905e+00 2.6597490503e+00 4.6068204905e+00 
154400 4.6893164597e+00 -1.5652081973e-03 2.6597784853e+00 -4.6068714734e+00 2.6597784853e+00 4.6068714734e+00 
154500 4.6893163869e+00 -1.5646261412e-03 2.6598079090e+00 -4.6069224368e+00 2.6598079090e+00 4.6069224368e+00 
154600 4.6893163141e+00 -1.5640440910e-03 2.6598373214e+00 -4.6069733806e+00 2.6598373214e+00 4.6069733806e+00 
154700 4.6893162414e+00 -1.5634620465e-03 2.6598667226e+00 -4.6070243049e+00 2.6598667226e+00 4.6070243049e+00 
154800 4.6893161688e+00 -1.5628800076e-03 2.6598961125e+00 -4.6070752098e+00 2.6598961125e+00 4.6070752098e+00 
154900 4.6893160962e+00 -1.5622979741e-03 2.6599254912e+00 -4.6071260951e+00 2.6599254912e+00 4.6071260951e+00 
155000 4.6893160237e+00 -1.5617159459e-03 2.6599548586e+00 -4.6071769609e+00 2.6599548586e+00 4.6071769609e+00 
155100 4.6893159512e+00 -1.5611339228e-03 2.6599842147e+00 -4.6072278071e+00 2.6599842147e+00 4.6072278071e+00 
155200 4.6893158788e+00 -1.5605519047e-03 2.6600135595e+00 -4.6072786339e+00 2.6600135595e+00 4.6072786339e+00 
155300 4.6893158065e+00 -1.5599698914e-03 2.6600428931e+00 -4.6073294412e+00 2.6600428931e+00 4.6073294412e+00 
155400 4.6893157342e+00 -1.5593878829e-03 2.6600722154e+00 -4.6073802289e+00 2.6600722154e+00 4.6073802289e+00 
155500 4.6893156620e+00 -1.5588058790e-03 2.6601015265e+00 -4.6074309972e+00 2.6601015265e+00 4.6074309972e+00 
155600 4.6893155898e+00 -1.5582238795e-03 2.6601308263e+00 -4.6074817459e+00 2.6601308263e+00 4.6074817459e+00 
155700 4.6893155177e+00 -1.5576418844e-03 2.6601601148e+00 -4.6075324751e+00 2.6601601148e+00 4.6075324751e+00 
155800 4.6893154456e+00 -1.5570598936e-03 2.6601893921e+00 -4.6075831849e+00 2.6601893921e+00 4.6075831849e+00 
155900 4.6893153736e+00 -1.5564779069e-03 2.6602186581e+00 -4.6076338751e+00 2.6602186581e+00 4.6076338751e+00 
156000 4.6893153017e+00 -1.5558959242e-03 2.6602479129e+00 -4.6076845458e+00 2.6602479129e+00 4.6076845458e+00 
156100 4.6893152298e+00 -1.5553139454e-03 2.6602771564e+00 -4.6077351970e+00 2.6602771564e+00 4.6077351970e+00 
156200 4.6893151580e+00 -1.5547319705e-03 2.6603063886e+00 -4.6077858287e+00 2.6603063886e+00 4.6077858287e+00 
156300 4.6893150862e+00 -1.5541499993e-03 2.6603356096e+00 -4.6078364409e+00 2.6603356096e+00 4.6078364409e+00 
156400 4.6893150145e+00 -1.5535680317e-03 2.6603648193e+00 -4.6078870337e+00 2.6603648193e+00 4.6078870337e+00 
156500 4.6893149428e+00 -1.5529860676e-03 2.6603940177e+00 -4.6079376069e+00 2.6603940177e+00 4.6079376069e+00 
156600 4.6893148712e+00 -1.5524041070e-03 2.6604232049e+00 -4.6079881606e+00 2.6604232049e+00 4.6079881606e+00 
156700 4.6893147997e+00 -1.5518221497e-03 2.6604523809e+00 -4.6080386948e+00 2.6604523809e+00 4.6080386948e+00 
156800 4.6893147282e+00 -1.5512401957e-03 2.6604815456e+00 -4.6080892095e+00 2.6604815456e+00 4.6080892095e+00 
156900 4.6893146568e+00 -1.5506582450e-03 2.6605106990e+00 -4.6081397047e+00 2.6605106990e+00 4.6081397047e+00 
157000 4.6893145854e+00 -1.5500762973e-03 2.6605398411e+00 -4.6081901804e+00 2.6605398411e+00 4.6081901804e+00 
157100 4.6893145141e+00 -1.5494943528e-03 2.6605689721e+00 -4.6082406366e+00 2.6605689721e+00 4.6082406366e+00 
157200 4.6893144429e+00 -1.5489124112e-03 2.6605980917e+00 -4.6082910734e+00 2.6605980917e+00 4.6082910734e+00 
157300 4.6893143717e+00 -1.5483304725e-03 2.6606272001e+00 -4.6083414906e+00 2.6606272001e+00 4.6083414906e+00 
157400 4.6893143006e+00 -1.5477485368e-03 2.6606562973e+00 -4.6083918883e+00 2.6606562973e+00 4.6083918883e+00 
157500 4.6893142295e+00 -1.5471666038e-03 2.6606853832e+00 -4.6084422666e+00 2.6606853832e+00 4.6084422666e+00 
157600 4.6893141585e+00 -1.5465846736e-03 2.6607144578e+00 -4.6084926254e+00 2.6607144578e+00 4.6084926254e+00 
157700 4.6893140875e+00 -1.5460027460e-03 2.6607435212e+00 -4.6085429646e+00 2.6607435212e+00 4.6085429646e+00 
157800 4.6893140166e+00 -1.5454208212e-03 2.6607725733e+00 -4.6085932844e+00 2.6607725733e+00 4.6085932844e+00 
157900 4.6893139458e+00 -1.5448388989e-03 2.6608016142e+00 -4.6086435847e+00 2.6608016142e+00 4.6086435847e+00 
158000 4.6893138750e+00 -1.5442569792e-03 2.6608306438e+00 -4.6086938655e+00 2.6608306438e+00 4.6086938655e+00 
158100 4.6893138042e+00 -1.5436750621e-03 2.6608596622e+00 -4.6087441268e+00 2.6608596622e+00 4.6087441268e+00 
158200 4.6893137336e+00 -1.5430931474e-03 2.6608886693e+00 -4.6087943686e+00 2.6608886693e+00 4.6087943686e+00 
158300 4.6893136629e+00 -1.5425112352e-03 2.6609176652e+00 -4.6088445909e+00 2.6609176652e+00 4.6088445909e+00 
158400 4.6893135924e+00 -1.5419293254e-03 2.6609466498e+00 -4.6088947938e+00 2.6609466498e+00 4.6088947938e+00 
158500 4.6893135219e+00 -1.5413474180e-03 2.6609756232e+00 -4.6089449771e+00 2.6609756232e+00 4.6089449771e+00 
158600 4.6893134514e+00 -1.5407655130e-03 2.6610045853e+00 -4.6089951410e+00 2.6610045853e+00 4.6089951410e+00 
158700 4.6893133810e+00 -1.5401836103e-03 2.6610335362e+00 -4.6090452854e+00 2.6610335362e+00 4.6090452854e+00 
158800 4.6893133107e+00 -1.5396017100e-03 2.6610624758e+00 -4.6090954103e+00 2.6610624758e+00 4.6090954103e+00 
158900 4.6893132404e+00 -1.5390198120e-03 2.6610914042e+00 -4.6091455157e+00 2.6610914042e+00 4.6091455157e+00 
159000 4.6893131702e+00 -1.5384379162e-03 2.6611203214e+00 -4.6091956016e+00 2.6611203214e+00 4.6091956016e+00 
159100 4.6893131000e+00 -1.5378560228e-03 2.6611492272e+00 -4.6092456681e+00 2.6611492272e+00 4.6092456681e+00 
159200 4.6893130299e+00 -1.5372741317e-03 2.6611781219e+00 -4.6092957151e+00 2.6611781219e+00 4.6092957151e+00 
159300 4.6893129599e+00 -1.5366922428e-03 2.6612070053e+00 -4.6093457426e+00 2.6612070053e+00 4.6093457426e+00 
159400 4.6893128899e+00 -1.5361103562e-03 2.6612358774e+00 -4.6093957506e+00 2.6612358774e+00 4.6093957506e+00 
159500 4.6893128200e+00 -1.5355284719e-03 2.6612647383e+00 -4.6094457391e+00 2.6612647383e+00 4.6094457391e+00 
159600 4.6893127501e+00 -1.5349465899e-03 2.6612935880e+00 -4.6094957082e+00 2.6612935880e+00 4.6094957082e+00 
159700 4.6893126803e+00 -1.5343647102e-03 2.6613224264e+00 -4.6095456578e+00 2.6613224264e+00 4.6095456578e+00 
159800 4.6893126105e+00 -1.5337828327e-03 2.6613512535e+00 -4.6095955879e+00 2.6613512535e+00 4.6095955879e+00 
159900 4.6893125408e+00 -1.5332009576e-03 2.6613800695e+00 -4.6096454985e+00 2.6613800695e+00 4.6096454985e+00 
160000 4.6893124711e+00 -1.5326190848e-03 2.6614088741e+00 -4.6096953897e+00 2.6614088741e+00 4.6096953897e+00 
160100 4.6893124015e+00 -1.5320372143e-03 2.6614376676e+00 -4.6097452614e+00 2.6614376676e+00 4.6097452614e+00 
160200 4.6893123320e+00 -1.5314553461e-03 2.6614664497e+00 -4.6097951136e+00 2.6614664497e+00 4.6097951136e+00 
160300 4.6893122625e+00 -1.5308734804e-03 2.6614952207e+00 -4.6098449463e+00 2.6614952207e+00 4.6098449463e+00 
160400 4.6893121931e+00 -1.5302916170e-03 2.6615239804e+00 -4.6098947596e+00 2.6615239804e+00 4.6098947596e+00 
160500 4.6893121237e+00 -1.5297097561e-03 2.6615527289e+00 -4.6099445534e+00 2.6615527289e+00 4.6099445534e+00 
160600 4.6893120544e+00 -1.5291278976e-03 2.6615814661e+00 -4.6099943277e+00 2.6615814661e+00 4.6099943277e+00 
160700 4.6893119852e+00 -1.5285460416e-03 2.6616101921e+00 -4.6100440826e+00 2.6616101921e+00 4.6100440826e+00 
160800 4.6893119160e+00 -1.5279641882e-03 2.6616389068e+00 -4.6100938180e+00 2.6616389068e+00 4.6100938180e+00 
160900 4.6893118468e+00 -1.5273823373e-03 2.6616676103e+00 -4.6101435339e+00 2.6616676103e+00 4.6101435339e+00 
161000 4.6893117777e+00 -1.5268004889e-03 2.6616963025e+00 -4.6101932303e+00 2.6616963025e+00 4.6101932303e+00 
161100 4.6893117087e+00 -1.5262186433e-03 2.6617249836e+00 -4.6102429073e+00 2.6617249836e+00 4.6102429073e+00 
161200 4.6893116397e+00 -1.5256368002e-03 2.6617536533e+00 -4.6102925648e+00 2.6617536533e+00 4.6102925648e+00 
161300 4.6893115708e+00 -1.5250549600e-03 2.6617823119e+00 -4.6103422029e+00 2.6617823119e+00 4.6103422029e+00 
161400 4.6893115020e+00 -1.5244731225e-03 2.6618109592e+00 -4.6103918215e+00 2.6618109592e+00 4.6103918215e+00 
161500 4.6893114332e+00 -1.5238912878e-03 2.6618395953e+00 -4.6104414206e+00 2.6618395953e+00 4.6104414206e+00 
161600 4.6893113644e+00 -1.5233094559e-03 2.6618682201e+00 -4.6104910002e+00 2.6618682201e+00 4.6104910002e+00 
161700 4.6893112957e+00 -1.5227276271e-03 2.6618968337e+00 -4.6105405604e+00 2.6618968337e+00 4.6105405604e+00 
161800 4.6893112271e+00 -1.5221458012e-03 2.6619254360e+00 -4.6105901012e+00 2.6619254360e+00 4.6105901012e+00 
161900 4.6893111585e+00 -1.5215639783e-03 2.6619540271e+00 -4.6106396224e+00 2.6619540271e+00 4.6106396224e+00 
162000 4.6893110900e+00 -1.5209821585e-03 2.6619826070e+00 -4.6106891242e+00 2.6619826070e+00 4.6106891242e+00 
162100 4.6893110215e+00 -1.5204003420e-03 2.6620111757e+00 -4.6107386066e+00 2.6620111757e+00 4.6107386066e+00 
162200 4.6893109531e+00 -1.5198185286e-03 2.6620397331e+00 -4.6107880695e+00 2.6620397331e+00 4.6107880695e+00 
162300 4.6893108848e+00 -1.5192367186e-03 2.6620682793e+00 -4.6108375129e+00 2.6620682793e+00 4.6108375129e+00 
162400 4.6893108165e+00 -1.5186549119e-03 2.6620968142e+00 -4.6108869369e+00 2.6620968142e+00 4.6108869369e+00 
162500 4.6893107482e+00 -1.5180731087e-03 2.6621253379e+00 -4.6109363414e+00 2.6621253379e+00 4.6109363414e+00 
162600 4.6893106800e+00 -1.5174913090e-03 2.6621538504e+00 -4.6109857265e+00 2.6621538504e+00 4.6109857265e+00 
162700 4.6893106119e+00 -1.5169095129e-03 2.6621823517e+00 -4.6110350921e+00 2.6621823517e+00 4.6110350921e+00 
162800 4.6893105438e+00 -1.5163277204e-03 2.6622108417e+00 -4.6110844382e+00 2.6622108417e+00 4.6110844382e+00 
162900 4.6893104758e+00 -1.5157459317e-03 2.6622393204e+00 -4.6111337649e+00 2.6622393204e+00 4.6111337649e+00 
163000 4.6893104078e+00 -1.5151641469e-03 2.6622677880e+00 -4.6111830722e+00 2.6622677880e+00 4.6111830722e+00 
163100 4.6893103399e+00 -1.5145823660e-03 2.6622962443e+00 -4.6112323600e+00 2.6622962443e+00 4.6112323600e+00 
163200 4.6893102721e+00 -1.5140005891e-03 2.6623246894e+00 -4.6112816283e+00 2.6623246894e+00 4.6112816283e+00 
163300 4.6893102043e+00 -1.5134188163e-03 2.6623531233e+00 -4.6113308772e+00 2.6623531233e+00 4.6113308772e+00 
163400 4.6893101365e+00 -1.5128370476e-03 2.6623815459e+00 -4.6113801066e+00 2.6623815459e+00 4.6113801066e+00 
163500 4.6893100689e+00 -1.5122552833e-03 2.6624099573e+00 -4.6114293166e+00 2.6624099573e+00 4.6114293166e+00 
163600 4.6893100012e+00 -1.5116735233e-03 2.6624383575e+00 -4.6114785071e+00 2.6624383575e+00 4.6114785071e+00 
163700 4.6893099337e+00 -1.5110917678e-03 2.6624667464e+00 -4.6115276782e+00 2.6624667464e+00 4.6115276782e+00 
163800 4.6893098661e+00 -1.5105100169e-03 2.6624951241e+00 -4.6115768299e+00 2.6624951241e+00 4.6115768299e+00 
163900 4.6893097987e+00 -1.5099282706e-03 2.6625234906e+00 -4.6116259621e+00 2.6625234906e+00 4.6116259621e+00 
164000 4.6893097313e+00 -1.5093465291e-03 2.6625518459e+00 -4.6116750748e+00 2.6625518459e+00 4.6116750748e+00 
164100 4.6893096639e+00 -1.5087647925e-03 2.6625801899e+00 -4.6117241681e+00 2.6625801899e+00 4.6117241681e+00 
164200 4.6893095966e+00 -1.5081830608e-03 2.6626085227e+00 -4.6117732420e+00 2.6626085227e+00 4.6117732420e+00 
164300 4.6893095294e+00 -1.5076013343e-03 2.6626368443e+00 -4.6118222964e+00 2.6626368443e+00 4.6118222964e+00 
164400 4.6893094622e+00 -1.5070196129e-03 2.6626651547e+00 -4.6118713314e+00 2.6626651547e+00 4.6118713314e+00 
164500 4.6893093951e+00 -1.5064378969e-03 2.6626934538e+00 -4.6119203469e+00 2.6626934538e+00 4.6119203469e+00 
164600 4.6893093280e+00 -1.5058561862e-03 2.6627217417e+00 -4.6119693430e+00 2.6627217417e+00 4.6119693430e+00 
164700 4.6893092610e+00 -1.5052744811e-03 2.6627500184e+00 -4.6120183197e+00 2.6627500184e+00 4.6120183197e+00 
164800 4.6893091940e+00 -1.5046927817e-03 2.6627782838e+00 -4.6120672769e+00 2.6627782838e+00 4.6120672769e+00 
164900 4.6893091271e+00 -1.5041110880e-03 2.6628065381e+00 -4.6121162147e+00 2.6628065381e+00 4.6121162147e+00 
165000 4.6893090603e+00 -1.5035294002e-03 2.6628347811e+00 -4.6121651330e+00 2.6628347811e+00 4.6121651330e+00 
165100 4.6893089935e+00 -1.5029477184e-03 2.6628630129e+00 -4.6122140319e+00 2.6628630129e+00 4.6122140319e+00 
165200 4.6893089267e+00 -1.5023660427e-03 2.6628912335e+00 -4.6122629114e+00 2.6628912335e+00 4.6122629114e+00 
165300 4.6893088600e+00 -1.5017843733e-03 2.6629194428e+00 -4.6123117714e+00 2.6629194428e+00 4.6123117714e+00 
165400 4.6893087934e+00 -1.5012027103e-03 2.6629476409e+00 -4.6123606120e+00 2.6629476409e+00 4.6123606120e+00 
165500 4.6893087268e+00 -1.5006210538e-03 2.6629758279e+00 -4.6124094332e+00 2.6629758279e+00 4.6124094332e+00 
165600 4.6893086603e+00 -1.5000394039e-03 2.6630040035e+00 -4.6124582349e+00 2.6630040035e+00 4.6124582349e+00 
165700 4.6893085938e+00 -1.4994577608e-03 2.6630321680e+00 -4.6125070172e+00 2.6630321680e+00 4.6125070172e+00 
165800 4.6893085274e+00 -1.4988761246e-03 2.6630603213e+00 -4.6125557801e+00 2.6630603213e+00 4.6125557801e+00 
165900 4.6893084611e+00 -1.4982944955e-03 2.6630884633e+00 -4.6126045235e+00 2.6630884633e+00 4.6126045235e+00 
166000 4.6893083948e+00 -1.4977128735e-03 2.6631165941e+00 -4.6126532475e+00 2.6631165941e+00 4.6126532475e+00 
166100 4.6893083285e+00 -1.4971312588e-03 2.6631447137e+00 -4.6127019521e+00 2.6631447137e+00 4.6127019521e+00 
166200 4.6893082623e+00 -1.4965496516e-03 2.6631728221e+00 -4.6127506372e+00 2.6631728221e+00 4.6127506372e+00 
166300 4.6893081962e+00 -1.4959680519e-03 2.6632009193e+00 -4.6127993029e+00 2.6632009193e+00 4.6127993029e+00 
166400 4.6893081301e+00 -1.4953864600e-03 2.6632290052e+00 -4.6128479492e+00 2.6632290052e+00 4.6128479492e+00 
166500 4.6893080641e+00 -1.4948048760e-03 2.6632570800e+00 -4.6128965761e+00 2.6632570800e+00 4.6128965761e+00 
166600 4.6893079981e+00 -1.4942233000e-03 2.6632851435e+00 -4.6129451836e+00 2.6632851435e+00 4.6129451836e+00 
166700 4.6893079322e+00 -1.4936417321e-03 2.6633131958e+00 -4.6129937716e+00 2.6633131958e+00 4.6129937716e+00 
166800 4.6893078663e+00 -1.4930601726e-03 2.6633412369e+00 -4.6130423402e+00 2.6633412369e+00 4.6130423402e+00 
166900 4.6893078005e+00 -1.4924786215e-03 2.6633692668e+00 -4.6130908894e+00 2.6633692668e+00 4.6130908894e+00 
167000 4.6893077348e+00 -1.4918970791e-03 2.6633972854e+00 -4.6131394191e+00 2.6633972854e+00 4.6131394191e+00 
167100 4.6893076691e+00 -1.4913155454e-03 2.6634252929e+00 -4.6131879295e+00 2.6634252929e+00 4.6131879295e+00 
167200 4.6893076034e+00 -1.4907340206e-03 2.6634532891e+00 -4.6132364204e+00 2.6634532891e+00 4.6132364204e+00 
167300 4.6893075378e+00 -1.4901525049e-03 2.6634812742e+00 -4.6132848919e+00 2.6634812742e+00 4.6132848919e+00 
167400 4.6893074723e+00 -1.4895709985e-03 2.6635092480e+00 -4.6133333440e+00 2.6635092480e+00 4.6133333440e+00 
167500 4.6893074068e+00 -1.4889895014e-03 2.6635372106e+00 -4.6133817766e+00 2.6635372106e+00 4.6133817766e+00 
167600 4.6893073414e+00 -1.4884080139e-03 2.6635651620e+00 -4.6134301899e+00 2.6635651620e+00 4.6134301899e+00 
167700 4.6893072760e+00 -1.4878265361e-03 2.6635931022e+00 -4.6134785837e+00 2.6635931022e+00 4.6134785837e+00 
167800 4.6893072107e+00 -1.4872450681e-03 2.6636210312e+00 -4.6135269582e+00 2.6636210312e+00 4.6135269582e+00 
167900 4.6893071454e+00 -1.4866636102e-03 2.6636489490e+00 -4.6135753132e+00 2.6636489490e+00 4.6135753132e+00 
168000 4.6893070802e+00 -1.4860821625e-03 2.6636768556e+00 -4.6136236488e+00 2.6636768556e+00 4.6136236488e+00 
168100 4.6893070151e+00 -1.4855007251e-03 2.6637047509e+00 -4.6136719650e+00 2.6637047509e+00 4.6136719650e+00 
168200 4.6893069500e+00 -1.4849192983e-03 2.6637326351e+00 -4.6137202617e+00 2.6637326351e+00 4.6137202617e+00 
168300 4.6893068849e+00 -1.4843378821e-03 2.6637605080e+00 -4.6137685391e+00 2.6637605080e+00 4.6137685391e+00 
168400 4.6893068199e+00 -1.4837564768e-03 2.6637883698e+00 -4.6138167971e+00 2.6637883698e+00 4.6138167971e+00 
168500 4.6893067550e+00 -1.4831750826e-03 2.6638162203e+00 -4.6138650356e+00 2.6638162203e+00 4.6138650356e+00 
168600 4.6893066901e+00 -1.4825936996e-03 2.6638440597e+00 -4.6139132548e+00 2.6638440597e+00 4.6139132548e+00 
168700 4.6893066253e+00 -1.4820123279e-03 2.6638718878e+00 -4.6139614545e+00 2.6638718878e+00 4.6139614545e+00 
168800 4.6893065605e+00 -1.4814309678e-03 2.6638997047e+00 -4.6140096349e+00 2.6638997047e+00 4.6140096349e+00 
168900 4.6893064958e+00 -1.4808496195e-03 2.6639275105e+00 -4.6140577958e+00 2.6639275105e+00 4.6140577958e+00 
169000 4.6893064311e+00 -1.4802682830e-03 2.6639553050e+00 -4.6141059373e+00 2.6639553050e+00 4.6141059373e+00 
169100 4.6893063665e+00 -1.4796869586e-03 2.6639830883e+00 -4.6141540595e+00 2.6639830883e+00 4.6141540595e+00 
169200 4.6893063020e+00 -1.4791056465e-03 2.6640108604e+00 -4.6142021622e+00 2.6640108604e+00 4.6142021622e+00 
169300 4.6893062375e+00 -1.4785243468e-03 2.6640386214e+00 -4.6142502455e+00 2.6640386214e+00 4.6142502455e+00 
169400 4.6893061730e+00 -1.4779430598e-03 2.6640663711e+00 -4.6142983095e+00 2.6640663711e+00 4.6142983095e+00 
169500 4.6893061086e+00 -1.4773617855e-03 2.6640941096e+00 -4.6143463540e+00 2.6640941096e+00 4.6143463540e+00 
169600 4.6893060443e+00 -1.4767805243e-03 2.6641218370e+00 -4.6143943792e+00 2.6641218370e+00 4.6143943792e+00 
169700 4.6893059800e+00 -1.4761992762e-03 2.6641495531e+00 -4.6144423849e+00 2.6641495531e+00 4.6144423849e+00 
169800 4.6893059158e+00 -1.4756180414e-03 2.6641772580e+00 -4.6144903713e+00 2.6641772580e+00 4.6144903713e+00 
169900 4.6893058516e+00 -1.4750368203e-03 2.6642049518e+00 -4.6145383382e+00 2.6642049518e+00 4.6145383382e+00 
170000 4.6893057875e+00 -1.4744556128e-03 2.6642326343e+00 -4.6145862858e+00 2.6642326343e+00 4.6145862858e+00 
170100 4.6893057234e+00 -1.4738744193e-03 2.6642603057e+00 -4.6146342140e+00 2.6642603057e+00 4.6146342140e+00 
170200 4.6893056594e+00 -1.4732932399e-03 2.6642879658e+00 -4.6146821228e+00 2.6642879658e+00 4.6146821228e+00 
170300 4.6893055954e+00 -1.4727120747e-03 2.6643156148e+00 -4.6147300122e+00 2.6643156148e+00 4.6147300122e+00 
170400 4.6893055315e+00 -1.4721309241e-03 2.6643432525e+00 -4.6147778822e+00 2.6643432525e+00 4.6147778822e+00 
170500 4.6893054676e+00 -1.4715497882e-03 2.6643708791e+00 -4.6148257328e+00 2.6643708791e+00 4.6148257328e+00 
170600 4.6893054038e+00 -1.4709686671e-03 2.6643984945e+00 -4.6148735641e+00 2.6643984945e+00 4.6148735641e+00 
170700 4.6893053401e+00 -1.4703875611e-03 2.6644260987e+00 -4.6149213759e+00 2.6644260987e+00 4.6149213759e+00 
170800 4.6893052764e+00 -1.4698064704e-03 2.6644536917e+00 -4.6149691684e+00 2.6644536917e+00 4.6149691684e+00 
170900 4.6893052127e+00 -1.4692253951e-03 2.6644812735e+00 -4.6150169415e+00 2.6644812735e+00 4.6150169415e+00 
171000 4.6893051492e+00 -1.4686443355e-03 2.6645088441e+00 -4.6150646952e+00 2.6645088441e+00 4.6150646952e+00 
171100 4.6893050856e+00 -1.4680632918e-03 2.6645364035e+00 -4.6151124295e+00 2.6645364035e+00 4.6151124295e+00 
171200 4.6893050221e+00 -1.4674822641e-03 2.6645639518e+00 -4.6151601445e+00 2.6645639518e+00 4.6151601445e+00 
171300 4.6893049587e+00 -1.4669012527e-03 2.6645914888e+00 -4.6152078401e+00 2.6645914888e+00 4.6152078401e+00 
171400 4.6893048953e+00 -1.4663202578e-03 2.6646190147e+00 -4.6152555163e+00 2.6646190147e+00 4.6152555163e+00 
171500 4.6893048320e+00 -1.4657392795e-03 2.6646465294e+00 -4.6153031731e+00 2.6646465294e+00 4.6153031731e+00 
171600 4.6893047687e+00 -1.4651583181e-03 2.6646740329e+00 -4.6153508105e+00 2.6646740329e+00 4.6153508105e+00 
171700 4.6893047055e+00 -1.4645773738e-03 2.6647015252e+00 -4.6153984286e+00 2.6647015252e+00 4.6153984286e+00 
171800 4.6893046424e+00 -1.4639964467e-03 2.6647290063e+00 -4.6154460273e+00 2.6647290063e+00 4.6154460273e+00 
171900 4.6893045793e+00 -1.4634155371e-03 2.6647564762e+00 -4.6154936066e+00 2.6647564762e+00 4.6154936066e+00 
172000 4.6893045162e+00 -1.4628346452e-03 2.6647839350e+00 -4.6155411666e+00 2.6647839350e+00 4.6155411666e+00 
172100 4.6893044532e+00 -1.4622537713e-03 2.6648113826e+00 -4.6155887072e+00 2.6648113826e+00 4.6155887072e+00 
172200 4.6893043902e+00 -1.4616729154e-03 2.6648388190e+00 -4.6156362284e+00 2.6648388190e+00 4.6156362284e+00 
172300 4.6893043273e+00 -1.4610920778e-03 2.6648662442e+00 -4.6156837303e+00 2.6648662442e+00 4.6156837303e+00 
172400 4.6893042645e+00 -1.4605112588e-03 2.6648936582e+00 -4.6157312128e+00 2.6648936582e+00 4.6157312128e+00 
172500 4.6893042017e+00 -1.4599304584e-03 2.6649210611e+00 -4.6157786759e+00 2.6649210611e+00 4.6157786759e+00 
172600 4.6893041390e+00 -1.4593496771e-03 2.6649484527e+00 -4.6158261197e+00 2.6649484527e+00 4.6158261197e+00 
172700 4.6893040763e+00 -1.4587689149e-03 2.6649758332e+00 -4.6158735441e+00 2.6649758332e+00 4.6158735441e+00 
172800 4.6893040137e+00 -1.4581881720e-03 2.6650032025e+00 -4.6159209491e+00 2.6650032025e+00 4.6159209491e+00 
172900 4.6893039511e+00 -1.4576074488e-03 2.6650305607e+00 -4.6159683348e+00 2.6650305607e+00 4.6159683348e+00 
173000 4.6893038886e+00 -1.4570267454e-03 2.6650579077e+00 -4.6160157012e+00 2.6650579077e+00 4.6160157012e+00 
173100 4.6893038261e+00 -1.4564460619e-03 2.6650852434e+00 -4.6160630481e+00 2.6650852434e+00 4.6160630481e+00 
173200 4.6893037637e+00 -1.4558653987e-03 2.6651125681e+00 -4.6161103758e+00 2.6651125681e+00 4.6161103758e+00 
173300 4.6893037013e+00 -1.4552847560e-03 2.6651398815e+00 -4.6161576840e+00 2.6651398815e+00 4.6161576840e+00 
173400 4.6893036390e+00 -1.4547041339e-03 2.6651671838e+00 -4.6162049729e+00 2.6651671838e+00 4.6162049729e+00 
173500 4.6893035767e+00 -1.4541235327e-03 2.6651944749e+00 -4.6162522425e+00 2.6651944749e+00 4.6162522425e+00 
173600 4.6893035145e+00 -1.4535429526e-03 2.6652217548e+00 -4.6162994927e+00 2.6652217548e+00 4.6162994927e+00 
173700 4.6893034524e+00 -1.4529623939e-03 2.6652490235e+00 -4.6163467236e+00 2.6652490235e+00 4.6163467236e+00 
173800 4.6893033903e+00 -1.4523818567e-03 2.6652762811e+00 -4.6163939351e+00 2.6652762811e+00 4.6163939351e+00 
173900 4.6893033282e+00 -1.4518013412e-03 2.6653035275e+00 -4.6164411273e+00 2.6653035275e+00 4.6164411273e+00 
174000 4.6893032662e+00 -1.4512208478e-03 2.6653307628e+00 -4.6164883001e+00 2.6653307628e+00 4.6164883001e+00 
174100 4.6893032043e+00 -1.4506403765e-03 2.6653579869e+00 -4.6165354536e+00 2.6653579869e+00 4.6165354536e+00 
174200 4.6893031424e+00 -1.4500599277e-03 2.6653851998e+00 -4.6165825877e+00 2.6653851998e+00 4.6165825877e+00 
174300 4.6893030805e+00 -1.4494795015e-03 2.6654124015e+00 -4.6166297025e+00 2.6654124015e+00 4.6166297025e+00 
174400 4.6893030187e+00 -1.4488990983e-03 2.6654395921e+00 -4.6166767980e+00 2.6654395921e+00 4.6166767980e+00 
174500 4.6893029570e+00 -1.4483187181e-03 2.6654667715e+00 -4.6167238741e+00 2.6654667715e+00 4.6167238741e+00 
174600 4.6893028953e+00 -1.4477383613e-03 2.6654939397e+00 -4.6167709309e+00 2.6654939397e+00 4.6167709309e+00 
174700 4.6893028337e+00 -1.4471580280e-03 2.6655210968e+00 -4.6168179683e+00 2.6655210968e+00 4.6168179683e+00 
174800 4.6893027721e+00 -1.4465777185e-03 2.6655482427e+00 -4.6168649864e+00 2.6655482427e+00 4.6168649864e+00 
174900 4.6893027106e+00 -1.4459974330e-03 2.6655753775e+00 -4.6169119852e+00 2.6655753775e+00 4.6169119852e+00 
175000 4.6893026491e+00 -1.4454171718e-03 2.6656025011e+00 -4.6169589647e+00 2.6656025011e+00 4.6169589647e+00 
175100 4.6893025877e+00 -1.4448369350e-03 2.6656296135e+00 -4.6170059248e+00 2.6656296135e+00 4.6170059248e+00 
175200 4.6893025263e+00 -1.4442567230e-03 2.6656567148e+00 -4.6170528656e+00 2.6656567148e+00 4.6170528656e+00 
175300 4.6893024650e+00 -1.4436765359e-03 2.6656838049e+00 -4.6170997871e+00 2.6656838049e+00 4.6170997871e+00 
175400 4.6893024037e+00 -1.4430963739e-03 2.6657108839e+00 -4.6171466892e+00 2.6657108839e+00 4.6171466892e+00 
175500 4.6893023425e+00 -1.4425162373e-03 2.6657379517e+00 -4.6171935720e+00 2.6657379517e+00 4.6171935720e+00 
175600 4.6893022814e+00 -1.4419361264e-03 2.6657650083e+00 -4.6172404355e+00 2.6657650083e+00 4.6172404355e+00 
175700 4.6893022203e+00 -1.4413560413e-03 2.6657920538e+00 -4.6172872797e+00 2.6657920538e+00 4.6172872797e+00 
175800 4.6893021592e+00 -1.4407759823e-03 2.6658190882e+00 -4.6173341045e+00 2.6658190882e+00 4.6173341045e+00 
175900 4.6893020982e+00 -1.4401959497e-03 2.6658461114e+00 -4.6173809100e+00 2.6658461114e+00 4.6173809100e+00 
176000 4.6893020373e+00 -1.4396159436e-03 2.6658731234e+00 -4.6174276962e+00 2.6658731234e+00 4.6174276962e+00 
176100 4.6893019764e+00 -1.4390359642e-03 2.6659001243e+00 -4.6174744631e+00 2.6659001243e+00 4.6174744631e+00 
176200 4.6893019155e+00 -1.4384560119e-03 2.6659271140e+00 -4.6175212107e+00 2.6659271140e+00 4.6175212107e+00 
176300 4.6893018547e+00 -1.4378760869e-03 2.6659540926e+00 -4.6175679390e+00 2.6659540926e+00 4.6175679390e+00 
176400 4.6893017940e+00 -1.4372961894e-03 2.6659810600e+00 -4.6176146479e+00 2.6659810600e+00 4.6176146479e+00 
176500 4.6893017333e+00 -1.4367163196e-03 2.6660080163e+00 -4.6176613376e+00 2.6660080163e+00 4.6176613376e+00 
176600 4.6893016726e+00 -1.4361364778e-03 2.6660349614e+00 -4.6177080079e+00 2.6660349614e+00 4.6177080079e+00 
176700 4.6893016120e+00 -1.4355566642e-03 2.6660618954e+00 -4.6177546590e+00 2.6660618954e+00 4.6177546590e+00 
176800 4.6893015515e+00 -1.4349768790e-03 2.6660888182e+00 -4.6178012907e+00 2.6660888182e+00 4.6178012907e+00 
176900 4.6893014910e+00 -1.4343971225e-03 2.6661157299e+00 -4.6178479031e+00 2.6661157299e+00 4.6178479031e+00 
177000 4.6893014306e+00 -1.4338173950e-03 2.6661426305e+00 -4.6178944962e+00 2.6661426305e+00 4.6178944962e+00 
177100 4.6893013702e+00 -1.4332376966e-03 2.6661695199e+00 -4.6179410700e+00 2.6661695199e+00 4.6179410700e+00 
177200 4.6893013099e+00 -1.4326580276e-03 2.6661963981e+00 -4.6179876246e+00 2.6661963981e+00 4.6179876246e+00 
177300 4.6893012496e+00 -1.4320783882e-03 2.6662232653e+00 -4.6180341598e+00 2.6662232653e+00 4.6180341598e+00 
177400 4.6893011894e+00 -1.4314987788e-03 2.6662501213e+00 -4.6180806757e+00 2.6662501213e+00 4.6180806757e+00 
177500 4.6893011292e+00 -1.4309191994e-03 2.6662769661e+00 -4.6181271723e+00 2.6662769661e+00 4.6181271723e+00 
177600 4.6893010691e+00 -1.4303396505e-03 2.6663037998e+00 -4.6181736497e+00 2.6663037998e+00 4.6181736497e+00 
177700 4.6893010090e+00 -1.4297601321e-03 2.6663306224e+00 -4.6182201077e+00 2.6663306224e+00 4.6182201077e+00 
177800 4.6893009490e+00 -1.4291806446e-03 2.6663574338e+00 -4.6182665464e+00 2.6663574338e+00 4.6182665464e+00 
177900 4.6893008890e+00 -1.4286011882e-03 2.6663842341e+00 -4.6183129659e+00 2.6663842341e+00 4.6183129659e+00 
178000 4.6893008291e+00 -1.4280217631e-03 2.6664110232e+00 -4.6183593661e+00 2.6664110232e+00 4.6183593661e+00 
178100 4.6893007692e+00 -1.4274423696e-03 2.6664378012e+00 -4.6184057470e+00 2.6664378012e+00 4.6184057470e+00 
178200 4.6893007094e+00 -1.4268630080e-03 2.6664645681e+00 -4.6184521086e+00 2.6664645681e+00 4.6184521086e+00 
178300 4.6893006496e+00 -1.4262836783e-03 2.6664913239e+00 -4.6184984509e+00 2.6664913239e+00 4.6184984509e+00 
178400 4.6893005899e+00 -1.4257043811e-03 2.6665180685e+00 -4.6185447740e+00 2.6665180685e+00 4.6185447740e+00 
178500 4.6893005303e+00 -1.4251251163e-03 2.6665448020e+00 -4.6185910777e+00 2.6665448020e+00 4.6185910777e+00 
178600 4.6893004707e+00 -1.4245458844e-03 2.6665715244e+00 -4.6186373622e+00 2.6665715244e+00 4.6186373622e+00 
178700 4.6893004111e+00 -1.4239666855e-03 2.6665982356e+00 -4.6186836274e+00 2.6665982356e+00 4.6186836274e+00 
178800 4.6893003516e+00 -1.4233875199e-03 2.6666249357e+00 -4.6187298734e+00 2.6666249357e+00 4.6187298734e+00 
178900 4.6893002921e+00 -1.4228083879e-03 2.6666516247e+00 -4.6187761000e+00 2.6666516247e+00 4.6187761000e+00 
179000 4.6893002327e+00 -1.4222292896e-03 2.6666783025e+00 -4.6188223074e+00 2.6666783025e+00 4.6188223074e+00 
179100 4.6893001734e+00 -1.4216502254e-03 2.6667049693e+00 -4.6188684956e+00 2.6667049693e+00 4.6188684956e+00 
179200 4.6893001141e+00 -1.4210711954e-03 2.6667316249e+00 -4.6189146644e+00 2.6667316249e+00 4.6189146644e+00 
179300 4.6893000548e+00 -1.4204922000e-03 2.6667582693e+00 -4.6189608140e+00 2.6667582693e+00 4.6189608140e+00 
179400 4.6892999956e+00 -1.4199132394e-03 2.6667849027e+00 -4.6190069443e+00 2.6667849027e+00 4.6190069443e+00 
179500 4.6892999365e+00 -1.4193343138e-03 2.6668115249e+00 -4.6190530554e+00 2.6668115249e+00 4.6190530554e+00 
179600 4.6892998774e+00 -1.4187554234e-03 2.6668381361e+00 -4.6190991472e+00 2.6668381361e+00 4.6190991472e+00 
179700 4.6892998183e+00 -1.4181765686e-03 2.6668647361e+00 -4.6191452198e+00 2.6668647361e+00 4.6191452198e+00 
179800 4.6892997593e+00 -1.4175977496e-03 2.6668913249e+00 -4.6191912730e+00 2.6668913249e+00 4.6191912730e+00 
179900 4.6892997004e+00 -1.4170189666e-03 2.6669179027e+00 -4.6192373071e+00 2.6669179027e+00 4.6192373071e+00 
180000 4.6892996415e+00 -1.4164402198e-03 2.6669444693e+00 -4.6192833219e+00 2.6669444693e+00 4.6192833219e+00 
180100 4.6892995826e+00 -1.4158615096e-03 2.6669710249e+00 -4.6193293174e+00 2.6669710249e+00 4.6193293174e+00 
180200 4.6892995238e+00 -1.4152828361e-03 2.6669975693e+00 -4.6193752937e+00 2.6669975693e+00 4.6193752937e+00 
180300 4.6892994651e+00 -1.4147041997e-03 2.6670241026e+00 -4.6194212507e+00 2.6670241026e+00 4.6194212507e+00 
180400 4.6892994064e+00 -1.4141256006e-03 2.6670506248e+00 -4.6194671885e+00 2.6670506248e+00 4.6194671885e+00 
180500 4.6892993478e+00 -1.4135470389e-03 2.6670771359e+00 -4.6195131070e+00 2.6670771359e+00 4.6195131070e+00 
180600 4.6892992892e+00 -1.4129685151e-03 2.6671036358e+00 -4.6195590063e+00 2.6671036358e+00 4.6195590063e+00 
180700 4.6892992306e+00 -1.4123900292e-03 2.6671301247e+00 -4.6196048864e+00 2.6671301247e+00 4.6196048864e+00 
180800 4.6892991721e+00 -1.4118115817e-03 2.6671566025e+00 -4.6196507472e+00 2.6671566025e+00 4.6196507472e+00 
180900 4.6892991137e+00 -1.4112331727e-03 2.6671830691e+00 -4.6196965888e+00 2.6671830691e+00 4.6196965888e+00 
181000 4.6892990553e+00 -1.4106548024e-03 2.6672095247e+00 -4.6197424111e+00 2.6672095247e+00 4.6197424111e+00 
181100 4.6892989970e+00 -1.4100764712e-03 2.6672359691e+00 -4.6197882142e+00 2.6672359691e+00 4.6197882142e+00 
181200 4.6892989387e+00 -1.4094981793e-03 2.6672624024e+00 -4.6198339981e+00 2.6672624024e+00 4.6198339981e+00 
181300 4.6892988804e+00 -1.4089199269e-03 2.6672888247e+00 -4.6198797628e+00 2.6672888247e+00 4.6198797628e+00 
181400 4.6892988222e+00 -1.4083417144e-03 2.6673152358e+00 -4.6199255082e+00 2.6673152358e+00 4.6199255082e+00 
181500 4.6892987641e+00 -1.4077635418e-03 2.6673416358e+00 -4.6199712344e+00 2.6673416358e+00 4.6199712344e+00 
181600 4.6892987060e+00 -1.4071854096e-03 2.6673680247e+00 -4.6200169413e+00 2.6673680247e+00 4.6200169413e+00 
181700 4.6892986480e+00 -1.4066073179e-03 2.6673944026e+00 -4.6200626291e+00 2.6673944026e+00 4.6200626291e+00 
181800 4.6892985900e+00 -1.4060292670e-03 2.6674207693e+00 -4.6201082976e+00 2.6674207693e+00 4.6201082976e+00 
181900 4.6892985321e+00 -1.4054512572e-03 2.6674471250e+00 -4.6201539469e+00 2.6674471250e+00 4.6201539469e+00 
182000 4.6892984742e+00 -1.4048732887e-03 2.6674734695e+00 -4.6201995770e+00 2.6674734695e+00 4.6201995770e+00 
182100 4.6892984163e+00 -1.4042953618e-03 2.6674998029e+00 -4.6202451879e+00 2.6674998029e+00 4.6202451879e+00 
182200 4.6892983585e+00 -1.4037174767e-03 2.6675261253e+00 -4.6202907795e+00 2.6675261253e+00 4.6202907795e+00 
182300 4.6892983008e+00 -1.4031396337e-03 2.6675524366e+00 -4.6203363520e+00 2.6675524366e+00 4.6203363520e+00 
182400 4.6892982431e+00 -1.4025618330e-03 2.6675787367e+00 -4.6203819052e+00 2.6675787367e+00 4.6203819052e+00 
182500 4.6892981855e+00 -1.4019840749e-03 2.6676050258e+00 -4.6204274393e+00 2.6676050258e+00 4.6204274393e+00 
182600 4.6892981279e+00 -1.4014063597e-03 2.6676313038e+00 -4.6204729541e+00 2.6676313038e+00 4.6204729541e+00 
182700 4.6892980704e+00 -1.4008286876e-03 2.6676575707e+00 -4.6205184497e+00 2.6676575707e+00 4.6205184497e+00 
182800 4.6892980129e+00 -1.4002510588e-03 2.6676838266e+00 -4.6205639261e+00 2.6676838266e+00 4.6205639261e+00 
182900 4.6892979554e+00 -1.3996734736e-03 2.6677100713e+00 -4.6206093834e+00 2.6677100713e+00 4.6206093834e+00 
183000 4.6892978980e+00 -1.3990959323e-03 2.6677363050e+00 -4.6206548214e+00 2.6677363050e+00 4.6206548214e+00 
183100 4.6892978407e+00 -1.3985184351e-03 2.6677625275e+00 -4.6207002402e+00 2.6677625275e+00 4.6207002402e+00 
183200 4.6892977834e+00 -1.3979409823e-03 2.6677887390e+00 -4.6207456399e+00 2.6677887390e+00 4.6207456399e+00 
183300 4.6892977262e+00 -1.3973635741e-03 2.6678149394e+00 -4.6207910203e+00 2.6678149394e+00 4.6207910203e+00 
183400 4.6892976690e+00 -1.3967862108e-03 2.6678411288e+00 -4.6208363816e+00 2.6678411288e+00 4.6208363816e+00 
183500 4.6892976119e+00 -1.3962088927e-03 2.6678673070e+00 -4.6208817236e+00 2.6678673070e+00 4.6208817236e+00 
183600 4.6892975548e+00 -1.3956316200e-03 2.6678934742e+00 -4.6209270465e+00 2.6678934742e+00 4.6209270465e+00 
183700 4.6892974977e+00 -1.3950543929e-03 2.6679196303e+00 -4.6209723502e+00 2.6679196303e+00 4.6209723502e+00 
183800 4.6892974407e+00 -1.3944772118e-03 2.6679457753e+00 -4.6210176347e+00 2.6679457753e+00 4.6210176347e+00 
183900 4.6892973838e+00 -1.3939000768e-03 2.6679719093e+00 -4.6210629001e+00 2.6679719093e+00 4.6210629001e+00 
184000 4.6892973269e+00 -1.3933229883e-03 2.6679980322e+00 -4.6211081462e+00 2.6679980322e+00 4.6211081462e+00 
184100 4.6892972701e+00 -1.3927459464e-03 2.6680241440e+00 -4.6211533732e+00 2.6680241440e+00 4.6211533732e+00 
184200 4.6892972133e+00 -1.3921689515e-03 2.6680502447e+00 -4.6211985810e+00 2.6680502447e+00 4.6211985810e+00 
184300 4.6892971565e+00 -1.3915920038e-03 2.6680763344e+00 -4.6212437697e+00 2.6680763344e+00 4.6212437697e+00 
184400 4.6892970998e+00 -1.3910151036e-03 2.6681024130e+00 -4.6212889391e+00 2.6681024130e+00 4.6212889391e+00 
184500 4.6892970432e+00 -1.3904382510e-03 2.6681284805e+00 -4.6213340894e+00 2.6681284805e+00 4.6213340894e+00 
184600 4.6892969866e+00 -1.3898614465e-03 2.6681545370e+00 -4.6213792206e+00 2.6681545370e+00 4.6213792206e+00 
184700 4.6892969301e+00 -1.3892846902e-03 2.6681805824e+00 -4.6214243325e+00 2.6681805824e+00 4.6214243325e+00 
184800 4.6892968736e+00 -1.3887079823e-03 2.6682066168e+00 -4.6214694254e+00 2.6682066168e+00 4.6214694254e+00 
184900 4.6892968171e+00 -1.3881313232e-03 2.6682326401e+00 -4.6215144990e+00 2.6682326401e+00 4.6215144990e+00 
185000 4.6892967607e+00 -1.3875547131e-03 2.6682586523e+00 -4.6215595535e+00 2.6682586523e+00 4.6215595535e+00 
185100 4.6892967044e+00 -1.3869781523e-03 2.6682846535e+00 -4.6216045889e+00 2.6682846535e+00 4.6216045889e+00 
185200 4.6892966481e+00 -1.3864016410e-03 2.6683106436e+00 -4.6216496051e+00 2.6683106436e+00 4.6216496051e+00 
185300 4.6892965918e+00 -1.3858251795e-03 2.6683366226e+00 -4.6216946021e+00 2.6683366226e+00 4.6216946021e+00 
185400 4.6892965356e+00 -1.3852487680e-03 2.6683625906e+00 -4.6217395800e+00 2.6683625906e+00 4.6217395800e+00 
185500 4.6892964795e+00 -1.3846724068e-03 2.6683885476e+00 -4.6217845388e+00 2.6683885476e+00 4.6217845388e+00 
185600 4.6892964234e+00 -1.3840960962e-03 2.6684144935e+00 -4.6218294784e+00 2.6684144935e+00 4.6218294784e+00 
185700 4.6892963673e+00 -1.3835198363e-03 2.6684404283e+00 -4.6218743988e+00 2.6684404283e+00 4.6218743988e+00 
185800 4.6892963113e+00 -1.3829436275e-03 2.6684663521e+00 -4.6219193002e+00 2.6684663521e+00 4.6219193002e+00 
185900 4.6892962554e+00 -1.3823674701e-03 2.6684922649e+00 -4.6219641824e+00 2.6684922649e+00 4.6219641824e+00 
186000 4.6892961995e+00 -1.3817913642e-03 2.6685181666e+00 -4.6220090454e+00 2.6685181666e+00 4.6220090454e+00 
186100 4.6892961436e+00 -1.3812153102e-03 2.6685440572e+00 -4.6220538894e+00 2.6685440572e+00 4.6220538894e+00 
186200 4.6892960878e+00 -1.3806393083e-03 2.6685699368e+00 -4.6220987142e+00 2.6685699368e+00 4.6220987142e+00 
186300 4.6892960320e+00 -1.3800633587e-03 2.6685958054e+00 -4.6221435198e+00 2.6685958054e+00 4.6221435198e+00 
186400 4.6892959763e+00 -1.3794874617e-03 2.6686216629e+00 -4.6221883064e+00 2.6686216629e+00 4.6221883064e+00 
186500 4.6892959207e+00 -1.3789116176e-03 2.6686475094e+00 -4.6222330738e+00 2.6686475094e+00 4.6222330738e+00 
186600 4.6892958651e+00 -1.3783358267e-03 2.6686733449e+00 -4.6222778221e+00 2.6686733449e+00 4.6222778221e+00 
186700 4.6892958095e+00 -1.3777600891e-03 2.6686991693e+00 -4.6223225513e+00 2.6686991693e+00 4.6223225513e+00 
186800 4.6892957540e+00 -1.3771844051e-03 2.6687249826e+00 -4.6223672613e+00 2.6687249826e+00 4.6223672613e+00 
186900 4.6892956985e+00 -1.3766087751e-03 2.6687507850e+00 -4.6224119523e+00 2.6687507850e+00 4.6224119523e+00 
187000 4.6892956431e+00 -1.3760331992e-03 2.6687765763e+00 -4.6224566241e+00 2.6687765763e+00 4.6224566241e+00 
187100 4.6892955877e+00 -1.3754576778e-03 2.6688023565e+00 -4.6225012769e+00 2.6688023565e+00 4.6225012769e+00 
187200 4.6892955324e+00 -1.3748822110e-03 2.6688281258e+00 -4.6225459105e+00 2.6688281258e+00 4.6225459105e+00 
187300 4.6892954771e+00 -1.3743067992e-03 2.6688538840e+00 -4.6225905250e+00 2.6688538840e+00 4.6225905250e+00 
187400 4.6892954219e+00 -1.3737314425e-03 2.6688796311e+00 -4.6226351204e+00 2.6688796311e+00 4.6226351204e+00 
187500 4.6892953667e+00 -1.3731561413e-03 2.6689053673e+00 -4.6226796967e+00 2.6689053673e+00 4.6226796967e+00 
187600 4.6892953116e+00 -1.3725808958e-03 2.6689310924e+00 -4.6227242540e+00 2.6689310924e+00 4.6227242540e+00 
187700 4.6892952565e+00 -1.3720057063e-03 2.6689568065e+00 -4.6227687921e+00 2.6689568065e+00 4.6227687921e+00 
187800 4.6892952015e+00 -1.3714305730e-03 2.6689825096e+00 -4.6228133111e+00 2.6689825096e+00 4.6228133111e+00 
187900 4.6892951465e+00 -1.3708554961e-03 2.6690082016e+00 -4.6228578111e+00 2.6690082016e+00 4.6228578111e+00 
188000 4.6892950916e+00 -1.3702804761e-03 2.6690338827e+00 -4.6229022919e+00 2.6690338827e+00 4.6229022919e+00 
188100 4.6892950367e+00 -1.3697055130e-03 2.6690595527e+00 -4.6229467537e+00 2.6690595527e+00 4.6229467537e+00 
188200 4.6892949819e+00 -1.3691306071e-03 2.6690852117e+00 -4.6229911964e+00 2.6690852117e+00 4.6229911964e+00 
188300 4.6892949271e+00 -1.3685557588e-03 2.6691108597e+00 -4.6230356200e+00 2.6691108597e+00 4.6230356200e+00 
188400 4.6892948723e+00 -1.3679809682e-03 2.6691364966e+00 -4.6230800245e+00 2.6691364966e+00 4.6230800245e+00 
188500 4.6892948176e+00 -1.3674062357e-03 2.6691621226e+00 -4.6231244099e+00 2.6691621226e+00 4.6231244099e+00 
188600 4.6892947630e+00 -1.3668315614e-03 2.6691877375e+00 -4.6231687763e+00 2.6691877375e+00 4.6231687763e+00 
188700 4.6892947084e+00 -1.3662569457e-03 2.6692133414e+00 -4.6232131236e+00 2.6692133414e+00 4.6232131236e+00 
188800 4.6892946538e+00 -1.3656823887e-03 2.6692389344e+00 -4.6232574518e+00 2.6692389344e+00 4.6232574518e+00 
188900 4.6892945993e+00 -1.3651078909e-03 2.6692645163e+00 -4.6233017610e+00 2.6692645163e+00 4.6233017610e+00 
189000 4.6892945449e+00 -1.3645334523e-03 2.6692900872e+00 -4.6233460511e+00 2.6692900872e+00 4.6233460511e+00 
189100 4.6892944905e+00 -1.3639590733e-03 2.6693156471e+00 -4.6233903222e+00 2.6693156471e+00 4.6233903222e+00 
189200 4.6892944361e+00 -1.3633847541e-03 2.6693411960e+00 -4.6234345741e+00 2.6693411960e+00 4.6234345741e+00 
189300 4.6892943818e+00 -1.3628104950e-03 2.6693667338e+00 -4.6234788071e+00 2.6693667338e+00 4.6234788071e+00 
189400 4.6892943276e+00 -1.3622362962e-03 2.6693922607e+00 -4.6235230209e+00 2.6693922607e+00 4.6235230209e+00 
189500 4.6892942734e+00 -1.3616621581e-03 2.6694177766e+00 -4.6235672158e+00 2.6694177766e+00 4.6235672158e+00 
189600 4.6892942192e+00 -1.3610880807e-03 2.6694432815e+00 -4.6236113915e+00 2.6694432815e+00 4.6236113915e+00 
189700 4.6892941651e+00 -1.3605140645e-03 2.6694687754e+00 -4.6236555483e+00 2.6694687754e+00 4.6236555483e+00 
189800 4.6892941110e+00 -1.3599401097e-03 2.6694942583e+00 -4.6236996859e+00 2.6694942583e+00 4.6236996859e+00 
189900 4.6892940570e+00 -1.3593662164e-03 2.6695197302e+00 -4.6237438046e+00 2.6695197302e+00 4.6237438046e+00 
190000 4.6892940030e+00 -1.3587923850e-03 2.6695451911e+00 -4.6237879042e+00 2.6695451911e+00 4.6237879042e+00 
190100 4.6892939491e+00 -1.3582186158e-03 2.6695706411e+00 -4.6238319847e+00 2.6695706411e+00 4.6238319847e+00 
190200 4.6892938952e+00 -1.3576449089e-03 2.6695960800e+00 -4.6238760463e+00 2.6695960800e+00 4.6238760463e+00 
190300 4.6892938414e+00 -1.3570712647e-03 2.6696215080e+00 -4.6239200888e+00 2.6696215080e+00 4.6239200888e+00 
190400 4.6892937876e+00 -1.3564976834e-03 2.6696469249e+00 -4.6239641122e+00 2.6696469249e+00 4.6239641122e+00 
190500 4.6892937339e+00 -1.3559241652e-03 2.6696723309e+00 -4.6240081167e+00 2.6696723309e+00 4.6240081167e+00 
190600 4.6892936802e+00 -1.3553507105e-03 2.6696977259e+00 -4.6240521021e+00 2.6696977259e+00 4.6240521021e+00 
190700 4.6892936265e+00 -1.3547773194e-03 2.6697231099e+00 -4.6240960685e+00 2.6697231099e+00 4.6240960685e+00 
190800 4.6892935729e+00 -1.3542039922e-03 2.6697484829e+00 -4.6241400159e+00 2.6697484829e+00 4.6241400159e+00 
190900 4.6892935194e+00 -1.3536307291e-03 2.6697738450e+00 -4.6241839443e+00 2.6697738450e+00 4.6241839443e+00 
191000 4.6892934659e+00 -1.3530575306e-03 2.6697991961e+00 -4.6242278536e+00 2.6697991961e+00 4.6242278536e+00 
191100 4.6892934124e+00 -1.3524843966e-03 2.6698245362e+00 -4.6242717440e+00 2.6698245362e+00 4.6242717440e+00 
191200 4.6892933590e+00 -1.3519113277e-03 2.6698498653e+00 -4.6243156153e+00 2.6698498653e+00 4.6243156153e+00 
191300 4.6892933057e+00 -1.3513383239e-03 2.6698751835e+00 -4.6243594676e+00 2.6698751835e+00 4.6243594676e+00 
191400 4.6892932524e+00 -1.3507653856e-03 2.6699004906e+00 -4.6244033010e+00 2.6699004906e+00 4.6244033010e+00 
191500 4.6892931991e+00 -1.3501925129e-03 2.6699257869e+00 -4.6244471153e+00 2.6699257869e+00 4.6244471153e+00 
191600 4.6892931459e+00 -1.3496197062e-03 2.6699510721e+00 -4.6244909106e+00 2.6699510721e+00 4.6244909106e+00 
191700 4.6892930927e+00 -1.3490469657e-03 2.6699763464e+00 -4.6245346869e+00 2.6699763464e+00 4.6245346869e+00 
191800 4.6892930396e+00 -1.3484742917e-03 2.6700016097e+00 -4.6245784443e+00 2.6700016097e+00 4.6245784443e+00 
191900 4.6892929865e+00 -1.3479016844e-03 2.6700268621e+00 -4.6246221827e+00 2.6700268621e+00 4.6246221827e+00 
192000 4.6892929335e+00 -1.3473291441e-03 2.6700521034e+00 -4.6246659020e+00 2.6700521034e+00 4.6246659020e+00 
192100 4.6892928805e+00 -1.3467566709e-03 2.6700773339e+00 -4.6247096024e+00 2.6700773339e+00 4.6247096024e+00 
192200 4.6892928276e+00 -1.3461842653e-03 2.6701025533e+00 -4.6247532838e+00 2.6701025533e+00 4.6247532838e+00 
192300 4.6892927747e+00 -1.3456119274e-03 2.6701277619e+00 -4.6247969462e+00 2.6701277619e+00 4.6247969462e+00 
192400 4.6892927219e+00 -1.3450396574e-03 2.6701529594e+00 -4.6248405897e+00 2.6701529594e+00 4.6248405897e+00 
192500 4.6892926691e+00 -1.3444674557e-03 2.6701781460e+00 -4.6248842142e+00 2.6701781460e+00 4.6248842142e+00 
192600 4.6892926163e+00 -1.3438953225e-03 2.6702033217e+00 -4.6249278197e+00 2.6702033217e+00 4.6249278197e+00 
192700 4.6892925636e+00 -1.3433232580e-03 2.6702284864e+00 -4.6249714062e+00 2.6702284864e+00 4.6249714062e+00 
192800 4.6892925110e+00 -1.3427512625e-03 2.6702536401e+00 -4.6250149738e+00 2.6702536401e+00 4.6250149738e+00 
192900 4.6892924584e+00 -1.3421793362e-03 2.6702787829e+00 -4.6250585224e+00 2.6702787829e+00 4.6250585224e+00 
193000 4.6892924058e+00 -1.3416074794e-03 2.6703039148e+00 -4.6251020521e+00 2.6703039148e+00 4.6251020521e+00 
193100 4.6892923533e+00 -1.3410356924e-03 2.6703290357e+00 -4.6251455628e+00 2.6703290357e+00 4.6251455628e+00 
193200 4.6892923008e+00 -1.3404639753e-03 2.6703541457e+00 -4.6251890545e+00 2.6703541457e+00 4.6251890545e+00 
193300 4.6892922484e+00 -1.3398923285e-03 2.6703792447e+00 -4.6252325273e+00 2.6703792447e+00 4.6252325273e+00 
193400 4.6892921960e+00 -1.3393207522e-03 2.6704043328e+00 -4.6252759812e+00 2.6704043328e+00 4.6252759812e+00 
193500 4.6892921437e+00 -1.3387492467e-03 2.6704294100e+00 -4.6253194161e+00 2.6704294100e+00 4.6253194161e+00 
193600 4.6892920914e+00 -1.3381778121e-03 2.6704544762e+00 -4.6253628321e+00 2.6704544762e+00 4.6253628321e+00 
193700 4.6892920392e+00 -1.3376064488e-03 2.6704795315e+00 -4.6254062291e+00 2.6704795315e+00 4.6254062291e+00 
193800 4.6892919870e+00 -1.3370351570e-03 2.6705045758e+00 -4.6254496072e+00 2.6705045758e+00 4.6254496072e+00 
193900 4.6892919349e+00 -1.3364639370e-03 2.6705296092e+00 -4.6254929663e+00 2.6705296092e+00 4.6254929663e+00 
194000 4.6892918828e+00 -1.3358927889e-03 2.6705546317e+00 -4.6255363065e+00 2.6705546317e+00 4.6255363065e+00 
194100 4.6892918308e+00 -1.3353217131e-03 2.6705796433e+00 -4.6255796278e+00 2.6705796433e+00 4.6255796278e+00 
194200 4.6892917788e+00 -1.3347507098e-03 2.6706046439e+00 -4.6256229302e+00 2.6706046439e+00 4.6256229302e+00 
194300 4.6892917268e+00 -1.3341797793e-03 2.6706296336e+00 -4.6256662137e+00 2.6706296336e+00 4.6256662137e+00 
194400 4.6892916749e+00 -1.3336089217e-03 2.6706546124e+00 -4.6257094782e+00 2.6706546124e+00 4.6257094782e+00 
194500 4.6892916230e+00 -1.3330381374e-03 2.6706795803e+00 -4.6257527238e+00 2.6706795803e+00 4.6257527238e+00 
194600 4.6892915712e+00 -1.3324674266e-03 2.6707045372e+00 -4.6257959505e+00 2.6707045372e+00 4.6257959505e+00 
194700 4.6892915195e+00 -1.3318967895e-03 2.6707294833e+00 -4.6258391583e+00 2.6707294833e+00 4.6258391583e+00 
194800 4.6892914677e+00 -1.3313262265e-03 2.6707544184e+00 -4.6258823472e+00 2.6707544184e+00 4.6258823472e+00 
194900 4.6892914161e+00 -1.3307557376e-03 2.6707793426e+00 -4.6259255172e+00 2.6707793426e+00 4.6259255172e+00 
195000 4.6892913644e+00 -1.3301853233e-03 2.6708042559e+00 -4.6259686682e+00 2.6708042559e+00 4.6259686682e+00 
195100 4.6892913128e+00 -1.3296149837e-03 2.6708291582e+00 -4.6260118004e+00 2.6708291582e+00 4.6260118004e+00 
195200 4.6892912613e+00 -1.3290447190e-03 2.6708540497e+00 -4.6260549137e+00 2.6708540497e+00 4.6260549137e+00 
195300 4.6892912098e+00 -1.3284745296e-03 2.6708789303e+00 -4.6260980081e+00 2.6708789303e+00 4.6260980081e+00 
195400 4.6892911584e+00 -1.3279044157e-03 2.6709037999e+00 -4.6261410836e+00 2.6709037999e+00 4.6261410836e+00 
195500 4.6892911070e+00 -1.3273343775e-03 2.6709286587e+00 -4.6261841402e+00 2.6709286587e+00 4.6261841402e+00 
195600 4.6892910556e+00 -1.3267644153e-03 2.6709535065e+00 -4.6262271779e+00 2.6709535065e+00 4.6262271779e+00 
195700 4.6892910043e+00 -1.3261945293e-03 2.6709783435e+00 -4.6262701968e+00 2.6709783435e+00 4.6262701968e+00 
195800 4.6892909531e+00 -1.3256247198e-03 2.6710031695e+00 -4.6263131968e+00 2.6710031695e+00 4.6263131968e+00 
195900 4.6892909018e+00 -1.3250549869e-03 2.6710279847e+00 -4.6263561779e+00 2.6710279847e+00 4.6263561779e+00 
196000 4.6892908507e+00 -1.3244853311e-03 2.6710527889e+00 -4.6263991401e+00 2.6710527889e+00 4.6263991401e+00 
196100 4.6892907995e+00 -1.3239157524e-03 2.6710775823e+00 -4.6264420834e+00 2.6710775823e+00 4.6264420834e+00 
196200 4.6892907485e+00 -1.3233462512e-03 2.6711023647e+00 -4.6264850079e+00 2.6711023647e+00 4.6264850079e+00 
196300 4.6892906974e+00 -1.3227768276e-03 2.6711271363e+00 -4.6265279136e+00 2.6711271363e+00 4.6265279136e+00 
196400 4.6892906465e+00 -1.3222074821e-03 2.6711518970e+00 -4.6265708003e+00 2.6711518970e+00 4.6265708003e+00 
196500 4.6892905955e+00 -1.3216382146e-03 2.6711766468e+00 -4.6266136682e+00 2.6711766468e+00 4.6266136682e+00 
196600 4.6892905446e+00 -1.3210690257e-03 2.6712013857e+00 -4.6266565173e+00 2.6712013857e+00 4.6266565173e+00 
196700 4.6892904938e+00 -1.3204999154e-03 2.6712261137e+00 -4.6266993475e+00 2.6712261137e+00 4.6266993475e+00 
196800 4.6892904430e+00 -1.3199308840e-03 2.6712508309e+00 -4.6267421589e+00 2.6712508309e+00 4.6267421589e+00 
196900 4.6892903922e+00 -1.3193619317e-03 2.6712755372e+00 -4.6267849514e+00 2.6712755372e+00 4.6267849514e+00 
197000 4.6892903415e+00 -1.3187930589e-03 2.6713002326e+00 -4.6268277251e+00 2.6713002326e+00 4.6268277251e+00 
197100 4.6892902908e+00 -1.3182242657e-03 2.6713249171e+00 -4.6268704799e+00 2.6713249171e+00 4.6268704799e+00 
197200 4.6892902402e+00 -1.3176555524e-03 2.6713495907e+00 -4.6269132159e+00 2.6713495907e+00 4.6269132159e+00 
197300 4.6892901896e+00 -1.3170869192e-03 2.6713742535e+00 -4.6269559331e+00 2.6713742535e+00 4.6269559331e+00 
197400 4.6892901391e+00 -1.3165183664e-03 2.6713989054e+00 -4.6269986314e+00 2.6713989054e+00 4.6269986314e+00 
197500 4.6892900886e+00 -1.3159498942e-03 2.6714235464e+00 -4.6270413109e+00 2.6714235464e+00 4.6270413109e+00 
197600 4.6892900382e+00 -1.3153815029e-03 2.6714481766e+00 -4.6270839716e+00 2.6714481766e+00 4.6270839716e+00 
197700 4.6892899878e+00 -1.3148131927e-03 2.6714727959e+00 -4.6271266135e+00 2.6714727959e+00 4.6271266135e+00 
197800 4.6892899374e+00 -1.3142449638e-03 2.6714974043e+00 -4.6271692365e+00 2.6714974043e+00 4.6271692365e+00 
197900 4.6892898871e+00 -1.3136768165e-03 2.6715220019e+00 -4.6272118408e+00 2.6715220019e+00 4.6272118408e+00 
198000 4.6892898369e+00 -1.3131087510e-03 2.6715465886e+00 -4.6272544262e+00 2.6715465886e+00 4.6272544262e+00 
198100 4.6892897866e+00 -1.3125407676e-03 2.6715711644e+00 -4.6272969928e+00 2.6715711644e+00 4.6272969928e+00 
198200 4.6892897365e+00 -1.3119728665e-03 2.6715957294e+00 -4.6273395407e+00 2.6715957294e+00 4.6273395407e+00 
198300 4.6892896863e+00 -1.3114050479e-03 2.6716202836e+00 -4.6273820697e+00 2.6716202836e+00 4.6273820697e+00 
198400 4.6892896363e+00 -1.3108373122e-03 2.6716448269e+00 -4.6274245799e+00 2.6716448269e+00 4.6274245799e+00 
198500 4.6892895862e+00 -1.3102696594e-03 2.6716693593e+00 -4.6274670714e+00 2.6716693593e+00 4.6274670714e+00 
198600 4.6892895362e+00 -1.3097020899e-03 2.6716938809e+00 -4.6275095440e+00 2.6716938809e+00 4.6275095440e+00 
198700 4.6892894863e+00 -1.3091346039e-03 2.6717183916e+00 -4.6275519978e+00 2.6717183916e+00 4.6275519978e+00 
198800 4.6892894364e+00 -1.3085672017e-03 2.6717428915e+00 -4.6275944329e+00 2.6717428915e+00 4.6275944329e+00 
198900 4.6892893865e+00 -1.3079998834e-03 2.6717673806e+00 -4.6276368492e+00 2.6717673806e+00 4.6276368492e+00 
199000 4.6892893367e+00 -1.3074326494e-03 2.6717918588e+00 -4.6276792467e+00 2.6717918588e+00 4.6276792467e+00 
199100 4.6892892870e+00 -1.3068654998e-03 2.6718163262e+00 -4.6277216255e+00 2.6718163262e+00 4.6277216255e+00 
199200 4.6892892373e+00 -1.3062984349e-03 2.6718407827e+00 -4.6277639854e+00 2.6718407827e+00 4.6277639854e+00 
199300 4.6892891876e+00 -1.3057314550e-03 2.6718652284e+00 -4.6278063266e+00 2.6718652284e+00 4.6278063266e+00 
199400 4.6892891379e+00 -1.3051645602e-03 2.6718896633e+00 -4.6278486490e+00 2.6718896633e+00 4.6278486490e+00 
199500 4.6892890884e+00 -1.3045977508e-03 2.6719140873e+00 -4.6278909527e+00 2.6719140873e+00 4.6278909527e+00 
199600 4.6892890388e+00 -1.3040310271e-03 2.6719385005e+00 -4.6279332376e+00 2.6719385005e+00 4.6279332376e+00 
199700 4.6892889893e+00 -1.3034643893e-03 2.6719629029e+00 -4.6279755038e+00 2.6719629029e+00 4.6279755038e+00 
199800 4.6892889399e+00 -1.3028978376e-03 2.6719872945e+00 -4.6280177512e+00 2.6719872945e+00 4.6280177512e+00 
199900 4.6892888905e+00 -1.3023313722e-03 2.6720116752e+00 -4.6280599798e+00 2.6720116752e+00 4.6280599798e+00 
200000 4.6892888411e+00 -1.3017649934e-03 2.6720360451e+00 -4.6281021898e+00 2.6720360451e+00 4.6281021898e+00 
200100 4.6892887918e+00 -1.3011987015e-03 2.6720604042e+00 -4.6281443809e+00 2.6720604042e+00 4.6281443809e+00 
200200 4.6892887425e+00 -1.3006324966e-03 2.6720847524e+00 -4.6281865534e+00 2.6720847524e+00 4.6281865534e+00 
200300 4.6892886933e+00 -1.3000663790e-03 2.6721090899e+00 -4.6282287071e+00 2.6721090899e+00 4.6282287071e+00 
200400 4.6892886441e+00 -1.2995003489e-03 2.6721334165e+00 -4.6282708420e+00 2.6721334165e+00 4.6282708420e+00 
200500 4.6892885950e+00 -1.2989344066e-03 2.6721577323e+00 -4.6283129583e+00 2.6721577323e+00 4.6283129583e+00 
200600 4.6892885459e+00 -1.2983685523e-03 2.6721820374e+00 -4.6283550558e+00 2.6721820374e+00 4.6283550558e+00 
200700 4.6892884968e+00 -1.2978027862e-03 2.6722063316e+00 -4.6283971346e+00 2.6722063316e+00 4.6283971346e+00 
200800 4.6892884478e+00 -1.2972371086e-03 2.6722306149e+00 -4.6284391946e+00 2.6722306149e+00 4.6284391946e+00 
200900 4.6892883988e+00 -1.2966715197e-03 2.6722548875e+00 -4.6284812360e+00 2.6722548875e+00 4.6284812360e+00 
201000 4.6892883499e+00 -1.2961060197e-03 2.6722791493e+00 -4.6285232586e+00 2.6722791493e+00 4.6285232586e+00 
201100 4.6892883011e+00 -1.2955406089e-03 2.6723034003e+00 -4.6285652626e+00 2.6723034003e+00 4.6285652626e+00 
201200 4.6892882522e+00 -1.2949752875e-03 2.6723276405e+00 -4.6286072478e+00 2.6723276405e+00 4.6286072478e+00 
201300 4.6892882034e+00 -1.2944100557e-03 2.6723518699e+00 -4.6286492143e+00 2.6723518699e+00 4.6286492143e+00 
201400 4.6892881547e+00 -1.2938449138e-03 2.6723760885e+00 -4.6286911622e+00 2.6723760885e+00 4.6286911622e+00 
201500 4.6892881060e+00 -1.2932798620e-03 2.6724002963e+00 -4.6287330913e+00 2.6724002963e+00 4.6287330913e+00 
201600 4.6892880573e+00 -1.2927149005e-03 2.6724244933e+00 -4.6287750017e+00 2.6724244933e+00 4.6287750017e+00 
201700 4.6892880087e+00 -1.2921500296e-03 2.6724486795e+00 -4.6288168935e+00 2.6724486795e+00 4.6288168935e+00 
201800 4.6892879602e+00 -1.2915852494e-03 2.6724728549e+00 -4.6288587666e+00 2.6724728549e+00 4.6288587666e+00 
201900 4.6892879116e+00 -1.2910205603e-03 2.6724970196e+00 -4.6289006210e+00 2.6724970196e+00 4.6289006210e+00 
202000 4.6892878632e+00 -1.2904559624e-03 2.6725211734e+00 -4.6289424567e+00 2.6725211734e+00 4.6289424567e+00 
202100 4.6892878147e+00 -1.2898914559e-03 2.6725453165e+00 -4.6289842737e+00 2.6725453165e+00 4.6289842737e+00 
202200 4.6892877663e+00 -1.2893270412e-03 2.6725694488e+00 -4.6290260721e+00 2.6725694488e+00 4.6290260721e+00 
202300 4.6892877180e+00 -1.2887627185e-03 2.6725935703e+00 -4.6290678518e+00 2.6725935703e+00 4.6290678518e+00 
202400 4.6892876697e+00 -1.2881984878e-03 2.6726176811e+00 -4.6291096129e+00 2.6726176811e+00 4.6291096129e+00 
202500 4.6892876214e+00 -1.2876343496e-03 2.6726417811e+00 -4.6291513552e+00 2.6726417811e+00 4.6291513552e+00 
202600 4.6892875732e+00 -1.2870703040e-03 2.6726658703e+00 -4.6291930790e+00 2.6726658703e+00 4.6291930790e+00 
202700 4.6892875251e+00 -1.2865063513e-03 2.6726899487e+00 -4.6292347840e+00 2.6726899487e+00 4.6292347840e+00 
202800 4.6892874769e+00 -1.2859424916e-03 2.6727140164e+00 -4.6292764705e+00 2.6727140164e+00 4.6292764705e+00 
202900 4.6892874288e+00 -1.2853787252e-03 2.6727380733e+00 -4.6293181382e+00 2.6727380733e+00 4.6293181382e+00 
203000 4.6892873808e+00 -1.2848150524e-03 2.6727621194e+00 -4.6293597874e+00 2.6727621194e+00 4.6293597874e+00 
203100 4.6892873328e+00 -1.2842514733e-03 2.6727861548e+00 -4.6294014179e+00 2.6727861548e+00 4.6294014179e+00 
203200 4.6892872849e+00 -1.2836879882e-03 2.6728101794e+00 -4.6294430297e+00 2.6728101794e+00 4.6294430297e+00 
203300 4.6892872369e+00 -1.2831245973e-03 2.6728341933e+00 -4.6294846230e+00 2.6728341933e+00 4.6294846230e+00 
203400 4.6892871891e+00 -1.2825613009e-03 2.6728581964e+00 -4.6295261976e+00 2.6728581964e+00 4.6295261976e+00 
203500 4.6892871413e+00 -1.2819980991e-03 2.6728821887e+00 -4.6295677535e+00 2.6728821887e+00 4.6295677535e+00 
203600 4.6892870935e+00 -1.2814349922e-03 2.6729061703e+00 -4.6296092909e+00 2.6729061703e+00 4.6296092909e+00 
203700 4.6892870457e+00 -1.2808719804e-03 2.6729301412e+00 -4.6296508096e+00 2.6729301412e+00 4.6296508096e+00 
203800 4.6892869981e+00 -1.2803090640e-03 2.6729541013e+00 -4.6296923098e+00 2.6729541013e+00 4.6296923098e+00 
203900 4.6892869504e+00 -1.2797462431e-03 2.6729780507e+00 -4.6297337913e+00 2.6729780507e+00 4.6297337913e+00 
204000 4.6892869028e+00 -1.2791835180e-03 2.6730019893e+00 -4.6297752542e+00 2.6730019893e+00 4.6297752542e+00 
204100 4.6892868552e+00 -1.2786208889e-03 2.6730259172e+00 -4.6298166985e+00 2.6730259172e+00 4.6298166985e+00 
204200 4.6892868077e+00 -1.2780583560e-03 2.6730498343e+00 -4.6298581242e+00 2.6730498343e+00 4.6298581242e+00 
204300 4.6892867602e+00 -1.2774959196e-03 2.6730737407e+00 -4.6298995313e+00 2.6730737407e+00 4.6298995313e+00 
204400 4.6892867128e+00 -1.2769335799e-03 2.6730976364e+00 -4.6299409198e+00 2.6730976364e+00 4.6299409198e+00 
204500 4.6892866654e+00 -1.2763713371e-03 2.6731215213e+00 -4.6299822897e+00 2.6731215213e+00 4.6299822897e+00 
204600 4.6892866181e+00 -1.2758091914e-03 2.6731453955e+00 -4.6300236411e+00 2.6731453955e+00 4.6300236411e+00 
204700 4.6892865708e+00 -1.2752471430e-03 2.6731692590e+00 -4.6300649738e+00 2.6731692590e+00 4.6300649738e+00 
204800 4.6892865235e+00 -1.2746851922e-03 2.6731931118e+00 -4.6301062880e+00 2.6731931118e+00 4.6301062880e+00 
204900 4.6892864763e+00 -1.2741233392e-03 2.6732169538e+00 -4.6301475836e+00 2.6732169538e+00 4.6301475836e+00 
205000 4.6892864291e+00 -1.2735615842e-03 2.6732407851e+00 -4.6301888607e+00 2.6732407851e+00 4.6301888607e+00 
205100 4.6892863820e+00 -1.2729999275e-03 2.6732646057e+00 -4.6302301192e+00 2.6732646057e+00 4.6302301192e+00 
205200 4.6892863349e+00 -1.2724383692e-03 2.6732884156e+00 -4.6302713591e+00 2.6732884156e+00 4.6302713591e+00 
205300 4.6892862879e+00 -1.2718769095e-03 2.6733122147e+00 -4.6303125804e+00 2.6733122147e+00 4.6303125804e+00 
205400 4.6892862409e+00 -1.2713155488e-03 2.6733360032e+00 -4.6303537832e+00 2.6733360032e+00 4.6303537832e+00 
205500 4.6892861939e+00 -1.2707542871e-03 2.6733597809e+00 -4.6303949674e+00 2.6733597809e+00 4.6303949674e+00 
205600 4.6892861470e+00 -1.2701931248e-03 2.6733835479e+00 -4.6304361331e+00 2.6733835479e+00 4.6304361331e+00 
205700 4.6892861001e+00 -1.2696320620e-03 2.6734073043e+00 -4.6304772803e+00 2.6734073043e+00 4.6304772803e+00 
205800 4.6892860533e+00 -1.2690710990e-03 2.6734310499e+00 -4.6305184089e+00 2.6734310499e+00 4.6305184089e+00 
205900 4.6892860065e+00 -1.2685102360e-03 2.6734547848e+00 -4.6305595190e+00 2.6734547848e+00 4.6305595190e+00 
206000 4.6892859598e+00 -1.2679494732e-03 2.6734785090e+00 -4.6306006105e+00 2.6734785090e+00 4.6306006105e+00 
206100 4.6892859131e+00 -1.2673888108e-03 2.6735022225e+00 -4.6306416835e+00 2.6735022225e+00 4.6306416835e+00 
206200 4.6892858664e+00 -1.2668282491e-03 2.6735259253e+00 -4.6306827380e+00 2.6735259253e+00 4.6306827380e+00 
206300 4.6892858198e+00 -1.2662677881e-03 2.6735496174e+00 -4.6307237740e+00 2.6735496174e+00 4.6307237740e+00 
206400 4.6892857732e+00 -1.2657074283e-03 2.6735732989e+00 -4.6307647914e+00 2.6735732989e+00 4.6307647914e+00 
206500 4.6892857267e+00 -1.2651471698e-03 2.6735969696e+00 -4.6308057903e+00 2.6735969696e+00 4.6308057903e+00 
206600 4.6892856802e+00 -1.2645870127e-03 2.6736206297e+00 -4.6308467708e+00 2.6736206297e+00 4.6308467708e+00 
206700 4.6892856337e+00 -1.2640269574e-03 2.6736442790e+00 -4.6308877327e+00 2.6736442790e+00 4.6308877327e+00 
206800 4.6892855873e+00 -1.2634670040e-03 2.6736679177e+00 -4.6309286761e+00 2.6736679177e+00 4.6309286761e+00 
206900 4.6892855410e+00 -1.2629071527e-03 2.6736915457e+00 -4.6309696010e+00 2.6736915457e+00 4.6309696010e+00 
207000 4.6892854947e+00 -1.2623474038e-03 2.6737151631e+00 -4.6310105074e+00 2.6737151631e+00 4.6310105074e+00 
207100 4.6892854484e+00 -1.2617877575e-03 2.6737387697e+00 -4.6310513953e+00 2.6737387697e+00 4.6310513953e+00 
207200 4.6892854021e+00 -1.2612282139e-03 2.6737623657e+00 -4.6310922647e+00 2.6737623657e+00 4.6310922647e+00 
207300 4.6892853559e+00 -1.2606687734e-03 2.6737859510e+00 -4.6311331157e+00 2.6737859510e+00 4.6311331157e+00 
207400 4.6892853098e+00 -1.2601094361e-03 2.6738095256e+00 -4.6311739482e+00 2.6738095256e+00 4.6311739482e+00 
207500 4.6892852637e+00 -1.2595502022e-03 2.6738330896e+00 -4.6312147622e+00 2.6738330896e+00 4.6312147622e+00 
207600 4.6892852176e+00 -1.2589910720e-03 2.6738566429e+00 -4.6312555577e+00 2.6738566429e+00 4.6312555577e+00 
207700 4.6892851716e+00 -1.2584320456e-03 2.6738801855e+00 -4.6312963347e+00 2.6738801855e+00 4.6312963347e+00 
207800 4.6892851256e+00 -1.2578731233e-03 2.6739037175e+00 -4.6313370933e+00 2.6739037175e+00 4.6313370933e+00 
207900 4.6892850797e+00 -1.2573143052e-03 2.6739272389e+00 -4.6313778334e+00 2.6739272389e+00 4.6313778334e+00 
208000 4.6892850338e+00 -1.2567555917e-03 2.6739507495e+00 -4.6314185551e+00 2.6739507495e+00 4.6314185551e+00 
208100 4.6892849879e+00 -1.2561969828e-03 2.6739742495e+00 -4.6314592583e+00 2.6739742495e+00 4.6314592583e+00 
208200 4.6892849421e+00 -1.2556384788e-03 2.6739977389e+00 -4.6314999431e+00 2.6739977389e+00 4.6314999431e+00 
208300 4.6892848963e+00 -1.2550800800e-03 2.6740212176e+00 -4.6315406094e+00 2.6740212176e+00 4.6315406094e+00 
208400 4.6892848506e+00 -1.2545217865e-03 2.6740446857e+00 -4.6315812573e+00 2.6740446857e+00 4.6315812573e+00 
208500 4.6892848049e+00 -1.2539635986e-03 2.6740681431e+00 -4.6316218867e+00 2.6740681431e+00 4.6316218867e+00 
208600 4.6892847593e+00 -1.2534055163e-03 2.6740915898e+00 -4.6316624977e+00 2.6740915898e+00 4.6316624977e+00 
208700 4.6892847137e+00 -1.2528475401e-03 2.6741150260e+00 -4.6317030903e+00 2.6741150260e+00 4.6317030903e+00 
208800 4.6892846681e+00 -1.2522896700e-03 2.6741384515e+00 -4.6317436644e+00 2.6741384515e+00 4.6317436644e+00 
208900 4.6892846226e+00 -1.2517319063e-03 2.6741618663e+00 -4.6317842202e+00 2.6741618663e+00 4.6317842202e+00 
209000 4.6892845771e+00 -1.2511742492e-03 2.6741852706e+00 -4.6318247575e+00 2.6741852706e+00 4.6318247575e+00 
209100 4.6892845317e+00 -1.2506166988e-03 2.6742086642e+00 -4.6318652764e+00 2.6742086642e+00 4.6318652764e+00 
209200 4.6892844863e+00 -1.2500592555e-03 2.6742320471e+00 -4.6319057768e+00 2.6742320471e+00 4.6319057768e+00 
209300 4.6892844409e+00 -1.2495019194e-03 2.6742554195e+00 -4.6319462589e+00 2.6742554195e+00 4.6319462589e+00 
209400 4.6892843956e+00 -1.2489446906e-03 2.6742787812e+00 -4.6319867226e+00 2.6742787812e+00 4.6319867226e+00 
209500 4.6892843504e+00 -1.2483875695e-03 2.6743021323e+00 -4.6320271679e+00 2.6743021323e+00 4.6320271679e+00 
209600 4.6892843051e+00 -1.2478305563e-03 2.6743254727e+00 -4.6320675947e+00 2.6743254727e+00 4.6320675947e+00 
209700 4.6892842600e+00 -1.2472736510e-03 2.6743488026e+00 -4.6321080032e+00 2.6743488026e+00 4.6321080032e+00 
209800 4.6892842148e+00 -1.2467168540e-03 2.6743721218e+00 -4.6321483933e+00 2.6743721218e+00 4.6321483933e+00 
209900 4.6892841697e+00 -1.2461601654e-03 2.6743954304e+00 -4.6321887651e+00 2.6743954304e+00 4.6321887651e+00 
210000 4.6892841246e+00 -1.2456035855e-03 2.6744187285e+00 -4.6322291184e+00 2.6744187285e+00 4.6322291184e+00 
210100 4.6892840796e+00 -1.2450471144e-03 2.6744420159e+00 -4.6322694534e+00 2.6744420159e+00 4.6322694534e+00 
210200 4.6892840346e+00 -1.2444907523e-03 2.6744652927e+00 -4.6323097700e+00 2.6744652927e+00 4.6323097700e+00 
210300 4.6892839897e+00 -1.2439344996e-03 2.6744885589e+00 -4.6323500682e+00 2.6744885589e+00 4.6323500682e+00 
210400 4.6892839448e+00 -1.2433783562e-03 2.6745118144e+00 -4.6323903481e+00 2.6745118144e+00 4.6323903481e+00 
210500 4.6892839000e+00 -1.2428223226e-03 2.6745350594e+00 -4.6324306096e+00 2.6745350594e+00 4.6324306096e+00 
210600 4.6892838551e+00 -1.2422663988e-03 2.6745582938e+00 -4.6324708527e+00 2.6745582938e+00 4.6324708527e+00 
210700 4.6892838104e+00 -1.2417105851e-03 2.6745815176e+00 -4.6325110775e+00 2.6745815176e+00 4.6325110775e+00 
210800 4.6892837656e+00 -1.2411548816e-03 2.6746047308e+00 -4.6325512840e+00 2.6746047308e+00 4.6325512840e+00 
210900 4.6892837210e+00 -1.2405992886e-03 2.6746279335e+00 -4.6325914721e+00 2.6746279335e+00 4.6325914721e+00 
211000 4.6892836763e+00 -1.2400438063e-03 2.6746511255e+00 -4.6326316419e+00 2.6746511255e+00 4.6326316419e+00 
211100 4.6892836317e+00 -1.2394884348e-03 2.6746743069e+00 -4.6326717933e+00 2.6746743069e+00 4.6326717933e+00 
211200 4.6892835871e+00 -1.2389331745e-03 2.6746974778e+00 -4.6327119264e+00 2.6746974778e+00 4.6327119264e+00 
211300 4.6892835426e+00 -1.2383780254e-03 2.6747206381e+00 -4.6327520412e+00 2.6747206381e+00 4.6327520412e+00 
211400 4.6892834981e+00 -1.2378229877e-03 2.6747437878e+00 -4.6327921377e+00 2.6747437878e+00 4.6327921377e+00 
211500 4.6892834537e+00 -1.2372680618e-03 2.6747669269e+00 -4.6328322158e+00 2.6747669269e+00 4.6328322158e+00 
211600 4.6892834093e+00 -1.2367132477e-03 2.6747900555e+00 -4.6328722757e+00 2.6747900555e+00 4.6328722757e+00 
211700 4.6892833649e+00 -1.2361585457e-03 2.6748131735e+00 -4.6329123172e+00 2.6748131735e+00 4.6329123172e+00 
211800 4.6892833206e+00 -1.2356039559e-03 2.6748362809e+00 -4.6329523404e+00 2.6748362809e+00 4.6329523404e+00 
211900 4.6892832763e+00 -1.2350494786e-03 2.6748593777e+00 -4.6329923453e+00 2.6748593777e+00 4.6329923453e+00 
212000 4.6892832321e+00 -1.2344951140e-03 2.6748824640e+00 -4.6330323319e+00 2.6748824640e+00 4.6330323319e+00 
212100 4.6892831879e+00 -1.2339408623e-03 2.6749055397e+00 -4.6330723002e+00 2.6749055397e+00 4.6330723002e+00 
212200 4.6892831437e+00 -1.2333867236e-03 2.6749286049e+00 -4.6331122503e+00 2.6749286049e+00 4.6331122503e+00 
212300 4.6892830996e+00 -1.2328326981e-03 2.6749516595e+00 -4.6331521820e+00 2.6749516595e+00 4.6331521820e+00 
212400 4.6892830555e+00 -1.2322787861e-03 2.6749747035e+00 -4.6331920955e+00 2.6749747035e+00 4.6331920955e+00 
212500 4.6892830115e+00 -1.2317249878e-03 2.6749977370e+00 -4.6332319907e+00 2.6749977370e+00 4.6332319907e+00 
212600 4.6892829675e+00 -1.2311713033e-03 2.6750207600e+00 -4.6332718676e+00 2.6750207600e+00 4.6332718676e+00 
212700 4.6892829236e+00 -1.2306177329e-03 2.6750437724e+00 -4.6333117263e+00 2.6750437724e+00 4.6333117263e+00 
212800 4.6892828796e+00 -1.2300642766e-03 2.6750667742e+00 -4.6333515666e+00 2.6750667742e+00 4.6333515666e+00 
212900 4.6892828358e+00 -1.2295109348e-03 2.6750897656e+00 -4.6333913888e+00 2.6750897656e+00 4.6333913888e+00 
213000 4.6892827919e+00 -1.2289577077e-03 2.6751127463e+00 -4.6334311926e+00 2.6751127463e+00 4.6334311926e+00 
213100 4.6892827482e+00 -1.2284045953e-03 2.6751357166e+00 -4.6334709782e+00 2.6751357166e+00 4.6334709782e+00 
213200 4.6892827044e+00 -1.2278515980e-03 2.6751586763e+00 -4.6335107456e+00 2.6751586763e+00 4.6335107456e+00 
213300 4.6892826607e+00 -1.2272987158e-03 2.6751816254e+00 -4.6335504947e+00 2.6751816254e+00 4.6335504947e+00 
213400 4.6892826170e+00 -1.2267459491e-03 2.6752045641e+00 -4.6335902256e+00 2.6752045641e+00 4.6335902256e+00 
213500 4.6892825734e+00 -1.2261932980e-03 2.6752274922e+00 -4.6336299383e+00 2.6752274922e+00 4.6336299383e+00 
213600 4.6892825298e+00 -1.2256407626e-03 2.6752504098e+00 -4.6336696327e+00 2.6752504098e+00 4.6336696327e+00 
213700 4.6892824863e+00 -1.2250883432e-03 2.6752733168e+00 -4.6337093089e+00 2.6752733168e+00 4.6337093089e+00 
213800 4.6892824428e+00 -1.2245360400e-03 2.6752962134e+00 -4.6337489669e+00 2.6752962134e+00 4.6337489669e+00 
213900 4.6892823993e+00 -1.2239838531e-03 2.6753190994e+00 -4.6337886066e+00 2.6753190994e+00 4.6337886066e+00 
214000 4.6892823559e+00 -1.2234317828e-03 2.6753419749e+00 -4.6338282282e+00 2.6753419749e+00 4.6338282282e+00 
214100 4.6892823125e+00 -1.2228798292e-03 2.6753648399e+00 -4.6338678315e+00 2.6753648399e+00 4.6338678315e+00 
214200 4.6892822691e+00 -1.2223279926e-03 2.6753876944e+00 -4.6339074166e+00 2.6753876944e+00 4.6339074166e+00 
214300 4.6892822258e+00 -1.2217762731e-03 2.6754105384e+00 -4.6339469835e+00 2.6754105384e+00 4.6339469835e+00 
214400 4.6892821826e+00 -1.2212246708e-03 2.6754333718e+00 -4.6339865323e+00 2.6754333718e+00 4.6339865323e+00 
214500 4.6892821393e+00 -1.2206731861e-03 2.6754561948e+00 -4.6340260628e+00 2.6754561948e+00 4.6340260628e+00 
214600 4.6892820961e+00 -1.2201218191e-03 2.6754790073e+00 -4.6340655751e+00 2.6754790073e+00 4.6340655751e+00 
214700 4.6892820530e+00 -1.2195705699e-03 2.6755018092e+00 -4.6341050693e+00 2.6755018092e+00 4.6341050693e+00 
214800 4.6892820099e+00 -1.2190194388e-03 2.6755246007e+00 -4.6341445453e+00 2.6755246007e+00 4.6341445453e+00 
214900 4.6892819668e+00 -1.2184684260e-03 2.6755473817e+00 -4.6341840031e+00 2.6755473817e+00 4.6341840031e+00 
215000 4.6892819238e+00 -1.2179175316e-03 2.6755701521e+00 -4.6342234427e+00 2.6755701521e+00 4.6342234427e+00 
215100 4.6892818808e+00 -1.2173667558e-03 2.6755929121e+00 -4.6342628642e+00 2.6755929121e+00 4.6342628642e+00 
215200 4.6892818379e+00 -1.2168160989e-03 2.6756156616e+00 -4.6343022675e+00 2.6756156616e+00 4.6343022675e+00 
215300 4.6892817950e+00 -1.2162655609e-03 2.6756384007e+00 -4.6343416526e+00 2.6756384007e+00 4.6343416526e+00 
215400 4.6892817521e+00 -1.2157151421e-03 2.6756611292e+00 -4.6343810196e+00 2.6756611292e+00 4.6343810196e+00 
215500 4.6892817093e+00 -1.2151648427e-03 2.6756838473e+00 -4.6344203685e+00 2.6756838473e+00 4.6344203685e+00 
215600 4.6892816665e+00 -1.2146146629e-03 2.6757065549e+00 -4.6344596992e+00 2.6757065549e+00 4.6344596992e+00 
215700 4.6892816237e+00 -1.2140646028e-03 2.6757292520e+00 -4.6344990117e+00 2.6757292520e+00 4.6344990117e+00 
215800 4.6892815810e+00 -1.2135146626e-03 2.6757519386e+00 -4.6345383062e+00 2.6757519386e+00 4.6345383062e+00 
215900 4.6892815384e+00 -1.2129648425e-03 2.6757746148e+00 -4.6345775824e+00 2.6757746148e+00 4.6345775824e+00 
216000 4.6892814957e+00 -1.2124151427e-03 2.6757972805e+00 -4.6346168406e+00 2.6757972805e+00 4.6346168406e+00 
216100 4.6892814531e+00 -1.2118655634e-03 2.6758199358e+00 -4.6346560806e+00 2.6758199358e+00 4.6346560806e+00 
216200 4.6892814106e+00 -1.2113161048e-03 2.6758425805e+00 -4.6346953026e+00 2.6758425805e+00 4.6346953026e+00 
216300 4.6892813681e+00 -1.2107667670e-03 2.6758652149e+00 -4.6347345064e+00 2.6758652149e+00 4.6347345064e+00 
216400 4.6892813256e+00 -1.2102175503e-03 2.6758878387e+00 -4.6347736920e+00 2.6758878387e+00 4.6347736920e+00 
216500 4.6892812832e+00 -1.2096684547e-03 2.6759104521e+00 -4.6348128596e+00 2.6759104521e+00 4.6348128596e+00 
216600 4.6892812408e+00 -1.2091194806e-03 2.6759330551e+00 -4.6348520091e+00 2.6759330551e+00 4.6348520091e+00 
216700 4.6892811984e+00 -1.2085706280e-03 2.6759556476e+00 -4.6348911405e+00 2.6759556476e+00 4.6348911405e+00 
216800 4.6892811561e+00 -1.2080218971e-03 2.6759782297e+00 -4.6349302538e+00 2.6759782297e+00 4.6349302538e+00 
216900 4.6892811139e+00 -1.2074732883e-03 2.6760008013e+00 -4.6349693490e+00 2.6760008013e+00 4.6349693490e+00 
217000 4.6892810716e+00 -1.2069248015e-03 2.6760233625e+00 -4.6350084261e+00 2.6760233625e+00 4.6350084261e+00 
217100 4.6892810294e+00 -1.2063764370e-03 2.6760459133e+00 -4.6350474851e+00 2.6760459133e+00 4.6350474851e+00 
217200 4.6892809873e+00 -1.2058281950e-03 2.6760684536e+00 -4.6350865261e+00 2.6760684536e+00 4.6350865261e+00 
217300 4.6892809452e+00 -1.2052800757e-03 2.6760909834e+00 -4.6351255490e+00 2.6760909834e+00 4.6351255490e+00 
217400 4.6892809031e+00 -1.2047320791e-03 2.6761135029e+00 -4.6351645538e+00 2.6761135029e+00 4.6351645538e+00 
217500 4.6892808611e+00 -1.2041842056e-03 2.6761360119e+00 -4.6352035406e+00 2.6761360119e+00 4.6352035406e+00 
217600 4.6892808191e+00 -1.2036364553e-03 2.6761585105e+00 -4.6352425093e+00 2.6761585105e+00 4.6352425093e+00 
217700 4.6892807771e+00 -1.2030888284e-03 2.6761809987e+00 -4.6352814600e+00 2.6761809987e+00 4.6352814600e+00 
217800 4.6892807352e+00 -1.2025413250e-03 2.6762034764e+00 -4.6353203926e+00 2.6762034764e+00 4.6353203926e+00 
217900 4.6892806933e+00 -1.2019939454e-03 2.6762259438e+00 -4.6353593071e+00 2.6762259438e+00 4.6353593071e+00 
218000 4.6892806515e+00 -1.2014466896e-03 2.6762484007e+00 -4.6353982036e+00 2.6762484007e+00 4.6353982036e+00 
218100 4.6892806097e+00 -1.2008995579e-03 2.6762708472e+00 -4.6354370821e+00 2.6762708472e+00 4.6354370821e+00 
218200 4.6892805679e+00 -1.2003525505e-03 2.6762932833e+00 -4.6354759426e+00 2.6762932833e+00 4.6354759426e+00 
218300 4.6892805262e+00 -1.1998056675e-03 2.6763157090e+00 -4.6355147850e+00 2.6763157090e+00 4.6355147850e+00 
218400 4.6892804845e+00 -1.1992589092e-03 2.6763381242e+00 -4.6355536094e+00 2.6763381242e+00 4.6355536094e+00 
218500 4.6892804428e+00 -1.1987122756e-03 2.6763605291e+00 -4.6355924158e+00 2.6763605291e+00 4.6355924158e+00 
218600 4.6892804012e+00 -1.1981657669e-03 2.6763829236e+00 -4.6356312042e+00 2.6763829236e+00 4.6356312042e+00 
218700 4.6892803597e+00 -1.1976193835e-03 2.6764053077e+00 -4.6356699745e+00 2.6764053077e+00 4.6356699745e+00 
218800 4.6892803181e+00 -1.1970731253e-03 2.6764276814e+00 -4.6357087269e+00 2.6764276814e+00 4.6357087269e+00 
218900 4.6892802766e+00 -1.1965269926e-03 2.6764500446e+00 -4.6357474613e+00 2.6764500446e+00 4.6357474613e+00 
219000 4.6892802352e+00 -1.1959809855e-03 2.6764723976e+00 -4.6357861776e+00 2.6764723976e+00 4.6357861776e+00 
219100 4.6892801938e+00 -1.1954351043e-03 2.6764947401e+00 -4.6358248760e+00 2.6764947401e+00 4.6358248760e+00 
219200 4.6892801524e+00 -1.1948893491e-03 2.6765170722e+00 -4.6358635564e+00 2.6765170722e+00 4.6358635564e+00 
219300 4.6892801111e+00 -1.1943437200e-03 2.6765393940e+00 -4.6359022188e+00 2.6765393940e+00 4.6359022188e+00 
219400 4.6892800698e+00 -1.1937982173e-03 2.6765617053e+00 -4.6359408632e+00 2.6765617053e+00 4.6359408632e+00 
219500 4.6892800285e+00 -1.1932528411e-03 2.6765840063e+00 -4.6359794897e+00 2.6765840063e+00 4.6359794897e+00 
219600 4.6892799873e+00 -1.1927075917e-03 2.6766062969e+00 -4.6360180982e+00 2.6766062969e+00 4.6360180982e+00 
219700 4.6892799461e+00 -1.1921624690e-03 2.6766285772e+00 -4.6360566887e+00 2.6766285772e+00 4.6360566887e+00 
219800 4.6892799050e+00 -1.1916174734e-03 2.6766508471e+00 -4.6360952613e+00 2.6766508471e+00 4.6360952613e+00 
219900 4.6892798639e+00 -1.1910726050e-03 2.6766731066e+00 -4.6361338159e+00 2.6766731066e+00 4.6361338159e+00 
220000 4.6892798228e+00 -1.1905278640e-03 2.6766953558e+00 -4.6361723526e+00 2.6766953558e+00 4.6361723526e+00 
220100 4.6892797818e+00 -1.1899832506e-03 2.6767175946e+00 -4.6362108713e+00 2.6767175946e+00 4.6362108713e+00 
220200 4.6892797408e+00 -1.1894387648e-03 2.6767398230e+00 -4.6362493721e+00 2.6767398230e+00 4.6362493721e+00 
220300 4.6892796998e+00 -1.1888944069e-03 2.6767620411e+00 -4.6362878549e+00 2.6767620411e+00 4.6362878549e+00 
220400 4.6892796589e+00 -1.1883501771e-03 2.6767842488e+00 -4.6363263198e+00 2.6767842488e+00 4.6363263198e+00 
220500 4.6892796181e+00 -1.1878060755e-03 2.6768064462e+00 -4.6363647668e+00 2.6768064462e+00 4.6363647668e+00 
220600 4.6892795772e+00 -1.1872621023e-03 2.6768286332e+00 -4.6364031959e+00 2.6768286332e+00 4.6364031959e+00 
220700 4.6892795364e+00 -1.1867182576e-03 2.6768508099e+00 -4.6364416070e+00 2.6768508099e+00 4.6364416070e+00 
220800 4.6892794957e+00 -1.1861745417e-03 2.6768729762e+00 -4.6364800002e+00 2.6768729762e+00 4.6364800002e+00 
220900 4.6892794549e+00 -1.1856309546e-03 2.6768951322e+00 -4.6365183756e+00 2.6768951322e+00 4.6365183756e+00 
221000 4.6892794143e+00 -1.1850874966e-03 2.6769172779e+00 -4.6365567330e+00 2.6769172779e+00 4.6365567330e+00 
221100 4.6892793736e+00 -1.1845441679e-03 2.6769394132e+00 -4.6365950725e+00 2.6769394132e+00 4.6365950725e+00 
221200 4.6892793330e+00 -1.1840009685e-03 2.6769615382e+00 -4.6366333941e+00 2.6769615382e+00 4.6366333941e+00 
221300 4.6892792924e+00 -1.1834578987e-03 2.6769836529e+00 -4.6366716979e+00 2.6769836529e+00 4.6366716979e+00 
221400 4.6892792519e+00 -1.1829149586e-03 2.6770057573e+00 -4.6367099837e+00 2.6770057573e+00 4.6367099837e+00 
221500 4.6892792114e+00 -1.1823721483e-03 2.6770278513e+00 -4.6367482517e+00 2.6770278513e+00 4.6367482517e+00 
221600 4.6892791710e+00 -1.1818294682e-03 2.6770499350e+00 -4.6367865018e+00 2.6770499350e+00 4.6367865018e+00 
221700 4.6892791305e+00 -1.1812869182e-03 2.6770720084e+00 -4.6368247340e+00 2.6770720084e+00 4.6368247340e+00 
221800 4.6892790902e+00 -1.1807444987e-03 2.6770940714e+00 -4.6368629484e+00 2.6770940714e+00 4.6368629484e+00 
221900 4.6892790498e+00 -1.1802022096e-03 2.6771161242e+00 -4.6369011449e+00 2.6771161242e+00 4.6369011449e+00 
222000 4.6892790095e+00 -1.1796600513e-03 2.6771381666e+00 -4.6369393235e+00 2.6771381666e+00 4.6369393235e+00 
222100 4.6892789693e+00 -1.1791180239e-03 2.6771601988e+00 -4.6369774843e+00 2.6771601988e+00 4.6369774843e+00 
222200 4.6892789290e+00 -1.1785761274e-03 2.6771822206e+00 -4.6370156272e+00 2.6771822206e+00 4.6370156272e+00 
222300 4.6892788888e+00 -1.1780343622e-03 2.6772042322e+00 -4.6370537523e+00 2.6772042322e+00 4.6370537523e+00 
222400 4.6892788487e+00 -1.1774927284e-03 2.6772262334e+00 -4.6370918596e+00 2.6772262334e+00 4.6370918596e+00 
222500 4.6892788086e+00 -1.1769512260e-03 2.6772482243e+00 -4.6371299490e+00 2.6772482243e+00 4.6371299490e+00 
222600 4.6892787685e+00 -1.1764098553e-03 2.6772702050e+00 -4.6371680206e+00 2.6772702050e+00 4.6371680206e+00 
222700 4.6892787285e+00 -1.1758686165e-03 2.6772921753e+00 -4.6372060744e+00 2.6772921753e+00 4.6372060744e+00 
222800 4.6892786885e+00 -1.1753275097e-03 2.6773141354e+00 -4.6372441103e+00 2.6773141354e+00 4.6372441103e+00 
222900 4.6892786485e+00 -1.1747865350e-03 2.6773360852e+00 -4.6372821285e+00 2.6773360852e+00 4.6372821285e+00 
223000 4.6892786086e+00 -1.1742456927e-03 2.6773580247e+00 -4.6373201288e+00 2.6773580247e+00 4.6373201288e+00 
223100 4.6892785687e+00 -1.1737049828e-03 2.6773799539e+00 -4.6373581113e+00 2.6773799539e+00 4.6373581113e+00 
223200 4.6892785288e+00 -1.1731644056e-03 2.6774018728e+00 -4.6373960760e+00 2.6774018728e+00 4.6373960760e+00 
223300 4.6892784890e+00 -1.1726239611e-03 2.6774237815e+00 -4.6374340229e+00 2.6774237815e+00 4.6374340229e+00 
223400 4.6892784492e+00 -1.1720836497e-03 2.6774456799e+00 -4.6374719521e+00 2.6774456799e+00 4.6374719521e+00 
223500 4.6892784095e+00 -1.1715434713e-03 2.6774675680e+00 -4.6375098634e+00 2.6774675680e+00 4.6375098634e+00 
223600 4.6892783698e+00 -1.1710034262e-03 2.6774894459e+00 -4.6375477570e+00 2.6774894459e+00 4.6375477570e+00 
223700 4.6892783301e+00 -1.1704635146e-03 2.6775113135e+00 -4.6375856328e+00 2.6775113135e+00 4.6375856328e+00 
223800 4.6892782905e+00 -1.1699237365e-03 2.6775331708e+00 -4.6376234908e+00 2.6775331708e+00 4.6376234908e+00 
223900 4.6892782509e+00 -1.1693840922e-03 2.6775550179e+00 -4.6376613310e+00 2.6775550179e+00 4.6376613310e+00 
224000 4.6892782114e+00 -1.1688445818e-03 2.6775768547e+00 -4.6376991535e+00 2.6775768547e+00 4.6376991535e+00 
224100 4.6892781719e+00 -1.1683052055e-03 2.6775986813e+00 -4.6377369582e+00 2.6775986813e+00 4.6377369582e+00 
224200 4.6892781324e+00 -1.1677659633e-03 2.6776204976e+00 -4.6377747452e+00 2.6776204976e+00 4.6377747452e+00 
224300 4.6892780930e+00 -1.1672268556e-03 2.6776423036e+00 -4.6378125144e+00 2.6776423036e+00 4.6378125144e+00 
224400 4.6892780536e+00 -1.1666878823e-03 2.6776640995e+00 -4.6378502659e+00 2.6776640995e+00 4.6378502659e+00 
224500 4.6892780142e+00 -1.1661490438e-03 2.6776858850e+00 -4.6378879996e+00 2.6776858850e+00 4.6378879996e+00 
224600 4.6892779749e+00 -1.1656103400e-03 2.6777076604e+00 -4.6379257156e+00 2.6777076604e+00 4.6379257156e+00 
224700 4.6892779356e+00 -1.1650717713e-03 2.6777294255e+00 -4.6379634139e+00 2.6777294255e+00 4.6379634139e+00 
224800 4.6892778963e+00 -1.1645333377e-03 2.6777511804e+00 -4.6380010944e+00 2.6777511804e+00 4.6380010944e+00 
224900 4.6892778571e+00 -1.1639950394e-03 2.6777729250e+00 -4.6380387573e+00 2.6777729250e+00 4.6380387573e+00 
225000 4.6892778179e+00 -1.1634568765e-03 2.6777946594e+00 -4.6380764024e+00 2.6777946594e+00 4.6380764024e+00 
225100 4.6892777788e+00 -1.1629188493e-03 2.6778163836e+00 -4.6381140298e+00 2.6778163836e+00 4.6381140298e+00 
225200 4.6892777397e+00 -1.1623809578e-03 2.6778380976e+00 -4.6381516395e+00 2.6778380976e+00 4.6381516395e+00 
225300 4.6892777006e+00 -1.1618432022e-03 2.6778598013e+00 -4.6381892315e+00 2.6778598013e+00 4.6381892315e+00 
225400 4.6892776616e+00 -1.1613055827e-03 2.6778814949e+00 -4.6382268058e+00 2.6778814949e+00 4.6382268058e+00 
225500 4.6892776226e+00 -1.1607680994e-03 2.6779031782e+00 -4.6382643624e+00 2.6779031782e+00 4.6382643624e+00 
225600 4.6892775836e+00 -1.1602307524e-03 2.6779248513e+00 -4.6383019013e+00 2.6779248513e+00 4.6383019013e+00 
225700 4.6892775447e+00 -1.1596935419e-03 2.6779465142e+00 -4.6383394225e+00 2.6779465142e+00 4.6383394225e+00 
225800 4.6892775058e+00 -1.1591564682e-03 2.6779681669e+00 -4.6383769261e+00 2.6779681669e+00 4.6383769261e+00 
225900 4.6892774670e+00 -1.1586195312e-03 2.6779898094e+00 -4.6384144120e+00 2.6779898094e+00 4.6384144120e+00 
226000 4.6892774281e+00 -1.1580827312e-03 2.6780114417e+00 -4.6384518802e+00 2.6780114417e+00 4.6384518802e+00 
226100 4.6892773894e+00 -1.1575460683e-03 2.6780330638e+00 -4.6384893308e+00 2.6780330638e+00 4.6384893308e+00 
226200 4.6892773506e+00 -1.1570095427e-03 2.6780546757e+00 -4.6385267637e+00 2.6780546757e+00 4.6385267637e+00 
226300 4.6892773119e+00 -1.1564731544e-03 2.6780762774e+00 -4.6385641790e+00 2.6780762774e+00 4.6385641790e+00 
226400 4.6892772733e+00 -1.1559369038e-03 2.6780978689e+00 -4.6386015766e+00 2.6780978689e+00 4.6386015766e+00 
226500 4.6892772346e+00 -1.1554007908e-03 2.6781194502e+00 -4.6386389565e+00 2.6781194502e+00 4.6386389565e+00 
226600 4.6892771960e+00 -1.1548648157e-03 2.6781410214e+00 -4.6386763189e+00 2.6781410214e+00 4.6386763189e+00 
226700 4.6892771575e+00 -1.1543289786e-03 2.6781625823e+00 -4.6387136636e+00 2.6781625823e+00 4.6387136636e+00 
226800 4.6892771190e+00 -1.1537932796e-03 2.6781841331e+00 -4.6387509906e+00 2.6781841331e+00 4.6387509906e+00 
226900 4.6892770805e+00 -1.1532577190e-03 2.6782056738e+00 -4.6387883001e+00 2.6782056738e+00 4.6387883001e+00 
227000 4.6892770420e+00 -1.1527222968e-03 2.6782272042e+00 -4.6388255919e+00 2.6782272042e+00 4.6388255919e+00 
227100 4.6892770036e+00 -1.1521870131e-03 2.6782487245e+00 -4.6388628661e+00 2.6782487245e+00 4.6388628661e+00 
227200 4.6892769653e+00 -1.1516518682e-03 2.6782702346e+00 -4.6389001227e+00 2.6782702346e+00 4.6389001227e+00 
227300 4.6892769269e+00 -1.1511168622e-03 2.6782917345e+00 -4.6389373617e+00 2.6782917345e+00 4.6389373617e+00 
227400 4.6892768886e+00 -1.1505819952e-03 2.6783132243e+00 -4.6389745831e+00 2.6783132243e+00 4.6389745831e+00 
227500 4.6892768504e+00 -1.1500472674e-03 2.6783347040e+00 -4.6390117869e+00 2.6783347040e+00 4.6390117869e+00 
227600 4.6892768121e+00 -1.1495126789e-03 2.6783561734e+00 -4.6390489731e+00 2.6783561734e+00 4.6390489731e+00 
227700 4.6892767739e+00 -1.1489782299e-03 2.6783776328e+00 -4.6390861418e+00 2.6783776328e+00 4.6390861418e+00 
227800 4.6892767358e+00 -1.1484439204e-03 2.6783990819e+00 -4.6391232928e+00 2.6783990819e+00 4.6391232928e+00 
227900 4.6892766977e+00 -1.1479097507e-03 2.6784205210e+00 -4.6391604263e+00 2.6784205210e+00 4.6391604263e+00 
228000 4.6892766596e+00 -1.1473757209e-03 2.6784419498e+00 -4.6391975422e+00 2.6784419498e+00 4.6391975422e+00 
228100 4.6892766215e+00 -1.1468418312e-03 2.6784633686e+00 -4.6392346406e+00 2.6784633686e+00 4.6392346406e+00 
228200 4.6892765835e+00 -1.1463080816e-03 2.6784847772e+00 -4.6392717214e+00 2.6784847772e+00 4.6392717214e+00 
228300 4.6892765456e+00 -1.1457744723e-03 2.6785061757e+00 -4.6393087846e+00 2.6785061757e+00 4.6393087846e+00 
228400 4.6892765076e+00 -1.1452410034e-03 2.6785275640e+00 -4.6393458303e+00 2.6785275640e+00 4.6393458303e+00 
228500 4.6892764697e+00 -1.1447076752e-03 2.6785489422e+00 -4.6393828585e+00 2.6785489422e+00 4.6393828585e+00 
228600 4.6892764318e+00 -1.1441744877e-03 2.6785703103e+00 -4.6394198691e+00 2.6785703103e+00 4.6394198691e+00 
228700 4.6892763940e+00 -1.1436414411e-03 2.6785916683e+00 -4.6394568622e+00 2.6785916683e+00 4.6394568622e+00 
228800 4.6892763562e+00 -1.1431085356e-03 2.6786130161e+00 -4.6394938377e+00 2.6786130161e+00 4.6394938377e+00 
228900 4.6892763185e+00 -1.1425757711e-03 2.6786343538e+00 -4.6395307957e+00 2.6786343538e+00 4.6395307957e+00 
229000 4.6892762807e+00 -1.1420431480e-03 2.6786556814e+00 -4.6395677362e+00 2.6786556814e+00 4.6395677362e+00 
229100 4.6892762430e+00 -1.1415106663e-03 2.6786769989e+00 -4.6396046592e+00 2.6786769989e+00 4.6396046592e+00 
229200 4.6892762054e+00 -1.1409783263e-03 2.6786983063e+00 -4.6396415647e+00 2.6786983063e+00 4.6396415647e+00 
229300 4.6892761678e+00 -1.1404461279e-03 2.6787196036e+00 -4.6396784527e+00 2.6787196036e+00 4.6396784527e+00 
229400 4.6892761302e+00 -1.1399140714e-03 2.6787408908e+00 -4.6397153231e+00 2.6787408908e+00 4.6397153231e+00 
229500 4.6892760927e+00 -1.1393821568e-03 2.6787621679e+00 -4.6397521761e+00 2.6787621679e+00 4.6397521761e+00 
229600 4.6892760551e+00 -1.1388503845e-03 2.6787834348e+00 -4.6397890116e+00 2.6787834348e+00 4.6397890116e+00 
229700 4.6892760177e+00 -1.1383187544e-03 2.6788046917e+00 -4.6398258296e+00 2.6788046917e+00 4.6398258296e+00 
229800 4.6892759802e+00 -1.1377872667e-03 2.6788259385e+00 -4.6398626301e+00 2.6788259385e+00 4.6398626301e+00 
229900 4.6892759428e+00 -1.1372559215e-03 2.6788471752e+00 -4.6398994132e+00 2.6788471752e+00 4.6398994132e+00 
230000 4.6892759055e+00 -1.1367247190e-03 2.6788684018e+00 -4.6399361788e+00 2.6788684018e+00 4.6399361788e+00 
230100 4.6892758681e+00 -1.1361936594e-03 2.6788896184e+00 -4.6399729269e+00 2.6788896184e+00 4.6399729269e+00 
230200 4.6892758308e+00 -1.1356627427e-03 2.6789108248e+00 -4.6400096576e+00 2.6789108248e+00 4.6400096576e+00 
230300 4.6892757936e+00 -1.1351319691e-03 2.6789320212e+00 -4.6400463708e+00 2.6789320212e+00 4.6400463708e+00 
230400 4.6892757564e+00 -1.1346013387e-03 2.6789532075e+00 -4.6400830665e+00 2.6789532075e+00 4.6400830665e+00 
230500 4.6892757192e+00 -1.1340708517e-03 2.6789743838e+00 -4.6401197448e+00 2.6789743838e+00 4.6401197448e+00 
230600 4.6892756820e+00 -1.1335405082e-03 2.6789955499e+00 -4.6401564057e+00 2.6789955499e+00 4.6401564057e+00 
230700 4.6892756449e+00 -1.1330103083e-03 2.6790167060e+00 -4.6401930492e+00 2.6790167060e+00 4.6401930492e+00 
230800 4.6892756078e+00 -1.1324802522e-03 2.6790378521e+00 -4.6402296752e+00 2.6790378521e+00 4.6402296752e+00 
230900 4.6892755708e+00 -1.1319503399e-03 2.6790589880e+00 -4.6402662838e+00 2.6790589880e+00 4.6402662838e+00 
231000 4.6892755337e+00 -1.1314205717e-03 2.6790801140e+00 -4.6403028749e+00 2.6790801140e+00 4.6403028749e+00 
231100 4.6892754968e+00 -1.1308909477e-03 2.6791012298e+00 -4.6403394487e+00 2.6791012298e+00 4.6403394487e+00 
231200 4.6892754598e+00 -1.1303614680e-03 2.6791223356e+00 -4.6403760050e+00 2.6791223356e+00 4.6403760050e+00 
231300 4.6892754229e+00 -1.1298321327e-03 2.6791434314e+00 -4.6404125440e+00 2.6791434314e+00 4.6404125440e+00 
231400 4.6892753860e+00 -1.1293029419e-03 2.6791645171e+00 -4.6404490655e+00 2.6791645171e+00 4.6404490655e+00 
231500 4.6892753492e+00 -1.1287738959e-03 2.6791855928e+00 -4.6404855697e+00 2.6791855928e+00 4.6404855697e+00 
231600 4.6892753124e+00 -1.1282449947e-03 2.6792066585e+00 -4.6405220564e+00 2.6792066585e+00 4.6405220564e+00 
231700 4.6892752756e+00 -1.1277162384e-03 2.6792277141e+00 -4.6405585258e+00 2.6792277141e+00 4.6405585258e+00 
231800 4.6892752389e+00 -1.1271876272e-03 2.6792487596e+00 -4.6405949778e+00 2.6792487596e+00 4.6405949778e+00 
231900 4.6892752022e+00 -1.1266591613e-03 2.6792697952e+00 -4.6406314125e+00 2.6792697952e+00 4.6406314125e+00 
232000 4.6892751655e+00 -1.1261308406e-03 2.6792908207e+00 -4.6406678297e+00 2.6792908207e+00 4.6406678297e+00 
232100 4.6892751289e+00 -1.1256026655e-03 2.6793118362e+00 -4.6407042296e+00 2.6793118362e+00 4.6407042296e+00 
232200 4.6892750923e+00 -1.1250746360e-03 2.6793328417e+00 -4.6407406122e+00 2.6793328417e+00 4.6407406122e+00 
232300 4.6892750558e+00 -1.1245467522e-03 2.6793538371e+00 -4.6407769774e+00 2.6793538371e+00 4.6407769774e+00 
232400 4.6892750193e+00 -1.1240190142e-03 2.6793748226e+00 -4.6408133252e+00 2.6793748226e+00 4.6408133252e+00 
232500 4.6892749828e+00 -1.1234914223e-03 2.6793957980e+00 -4.6408496557e+00 2.6793957980e+00 4.6408496557e+00 
232600 4.6892749463e+00 -1.1229639765e-03 2.6794167634e+00 -4.6408859689e+00 2.6794167634e+00 4.6408859689e+00 
232700 4.6892749099e+00 -1.1224366769e-03 2.6794377188e+00 -4.6409222647e+00 2.6794377188e+00 4.6409222647e+00 
232800 4.6892748735e+00 -1.1219095237e-03 2.6794586642e+00 -4.6409585432e+00 2.6794586642e+00 4.6409585432e+00 
232900 4.6892748372e+00 -1.1213825170e-03 2.6794795996e+00 -4.6409948044e+00 2.6794795996e+00 4.6409948044e+00 
233000 4.6892748009e+00 -1.1208556570e-03 2.6795005250e+00 -4.6410310482e+00 2.6795005250e+00 4.6410310482e+00 
233100 4.6892747646e+00 -1.1203289437e-03 2.6795214404e+00 -4.6410672748e+00 2.6795214404e+00 4.6410672748e+00 
233200 4.6892747283e+00 -1.1198023773e-03 2.6795423459e+00 -4.6411034841e+00 2.6795423459e+00 4.6411034841e+00 
233300 4.6892746921e+00 -1.1192759579e-03 2.6795632413e+00 -4.6411396760e+00 2.6795632413e+00 4.6411396760e+00 
233400 4.6892746559e+00 -1.1187496856e-03 2.6795841267e+00 -4.6411758507e+00 2.6795841267e+00 4.6411758507e+00 
233500 4.6892746198e+00 -1.1182235606e-03 2.6796050022e+00 -4.6412120080e+00 2.6796050022e+00 4.6412120080e+00 
233600 4.6892745837e+00 -1.1176975830e-03 2.6796258677e+00 -4.6412481481e+00 2.6796258677e+00 4.6412481481e+00 
233700 4.6892745476e+00 -1.1171717529e-03 2.6796467232e+00 -4.6412842709e+00 2.6796467232e+00 4.6412842709e+00 
233800 4.6892745116e+00 -1.1166460704e-03 2.6796675687e+00 -4.6413203764e+00 2.6796675687e+00 4.6413203764e+00 
233900 4.6892744756e+00 -1.1161205357e-03 2.6796884043e+00 -4.6413564647e+00 2.6796884043e+00 4.6413564647e+00 
234000 4.6892744396e+00 -1.1155951489e-03 2.6797092299e+00 -4.6413925356e+00 2.6797092299e+00 4.6413925356e+00 
234100 4.6892744037e+00 -1.1150699100e-03 2.6797300455e+00 -4.6414285894e+00 2.6797300455e+00 4.6414285894e+00 
234200 4.6892743678e+00 -1.1145448194e-03 2.6797508512e+00 -4.6414646258e+00 2.6797508512e+00 4.6414646258e+00 
234300 4.6892743319e+00 -1.1140198769e-03 2.6797716469e+00 -4.6415006451e+00 2.6797716469e+00 4.6415006451e+00 
234400 4.6892742961e+00 -1.1134950829e-03 2.6797924326e+00 -4.6415366470e+00 2.6797924326e+00 4.6415366470e+00 
234500 4.6892742603e+00 -1.1129704373e-03 2.6798132084e+00 -4.6415726318e+00 2.6798132084e+00 4.6415726318e+00 
234600 4.6892742245e+00 -1.1124459403e-03 2.6798339743e+00 -4.6416085993e+00 2.6798339743e+00 4.6416085993e+00 
234700 4.6892741888e+00 -1.1119215921e-03 2.6798547302e+00 -4.6416445495e+00 2.6798547302e+00 4.6416445495e+00 
234800 4.6892741531e+00 -1.1113973928e-03 2.6798754761e+00 -4.6416804826e+00 2.6798754761e+00 4.6416804826e+00 
234900 4.6892741175e+00 -1.1108733424e-03 2.6798962121e+00 -4.6417163984e+00 2.6798962121e+00 4.6417163984e+00 
235000 4.6892740818e+00 -1.1103494412e-03 2.6799169382e+00 -4.6417522971e+00 2.6799169382e+00 4.6417522971e+00 
235100 4.6892740462e+00 -1.1098256891e-03 2.6799376544e+00 -4.6417881785e+00 2.6799376544e+00 4.6417881785e+00 
235200 4.6892740107e+00 -1.1093020865e-03 2.6799583606e+00 -4.6418240427e+00 2.6799583606e+00 4.6418240427e+00 
235300 4.6892739752e+00 -1.1087786332e-03 2.6799790569e+00 -4.6418598897e+00 2.6799790569e+00 4.6418598897e+00 
235400 4.6892739397e+00 -1.1082553296e-03 2.6799997432e+00 -4.6418957195e+00 2.6799997432e+00 4.6418957195e+00 
235500 4.6892739042e+00 -1.1077321757e-03 2.6800204196e+00 -4.6419315321e+00 2.6800204196e+00 4.6419315321e+00 
235600 4.6892738688e+00 -1.1072091716e-03 2.6800410862e+00 -4.6419673276e+00 2.6800410862e+00 4.6419673276e+00 
235700 4.6892738334e+00 -1.1066863174e-03 2.6800617428e+00 -4.6420031059e+00 2.6800617428e+00 4.6420031059e+00 
235800 4.6892737981e+00 -1.1061636133e-03 2.6800823894e+00 -4.6420388670e+00 2.6800823894e+00 4.6420388670e+00 
235900 4.6892737627e+00 -1.1056410593e-03 2.6801030262e+00 -4.6420746109e+00 2.6801030262e+00 4.6420746109e+00 
236000 4.6892737274e+00 -1.1051186557e-03 2.6801236531e+00 -4.6421103377e+00 2.6801236531e+00 4.6421103377e+00 
236100 4.6892736922e+00 -1.1045964024e-03 2.6801442700e+00 -4.6421460473e+00 2.6801442700e+00 4.6421460473e+00 
236200 4.6892736570e+00 -1.1040742997e-03 2.6801648771e+00 -4.6421817398e+00 2.6801648771e+00 4.6421817398e+00 
236300 4.6892736218e+00 -1.1035523477e-03 2.6801854743e+00 -4.6422174151e+00 2.6801854743e+00 4.6422174151e+00 
236400 4.6892735866e+00 -1.1030305464e-03 2.6802060615e+00 -4.6422530733e+00 2.6802060615e+00 4.6422530733e+00 
236500 4.6892735515e+00 -1.1025088960e-03 2.6802266389e+00 -4.6422887144e+00 2.6802266389e+00 4.6422887144e+00 
236600 4.6892735164e+00 -1.1019873965e-03 2.6802472064e+00 -4.6423243383e+00 2.6802472064e+00 4.6423243383e+00 
236700 4.6892734814e+00 -1.1014660482e-03 2.6802677640e+00 -4.6423599451e+00 2.6802677640e+00 4.6423599451e+00 
236800 4.6892734464e+00 -1.1009448511e-03 2.6802883117e+00 -4.6423955348e+00 2.6802883117e+00 4.6423955348e+00 
236900 4.6892734114e+00 -1.1004238053e-03 2.6803088495e+00 -4.6424311073e+00 2.6803088495e+00 4.6424311073e+00 
237000 4.6892733765e+00 -1.0999029110e-03 2.6803293775e+00 -4.6424666628e+00 2.6803293775e+00 4.6424666628e+00 
237100 4.6892733415e+00 -1.0993821683e-03 2.6803498956e+00 -4.6425022012e+00 2.6803498956e+00 4.6425022012e+00 
237200 4.6892733067e+00 -1.0988615772e-03 2.6803704038e+00 -4.6425377224e+00 2.6803704038e+00 4.6425377224e+00 
237300 4.6892732718e+00 -1.0983411380e-03 2.6803909021e+00 -4.6425732266e+00 2.6803909021e+00 4.6425732266e+00 
237400 4.6892732370e+00 -1.0978208506e-03 2.6804113906e+00 -4.6426087137e+00 2.6804113906e+00 4.6426087137e+00 
237500 4.6892732022e+00 -1.0973007153e-03 2.6804318692e+00 -4.6426441837e+00 2.6804318692e+00 4.6426441837e+00 
237600 4.6892731675e+00 -1.0967807321e-03 2.6804523380e+00 -4.6426796366e+00 2.6804523380e+00 4.6426796366e+00 
237700 4.6892731328e+00 -1.0962609011e-03 2.6804727969e+00 -4.6427150725e+00 2.6804727969e+00 4.6427150725e+00 
237800 4.6892730981e+00 -1.0957412225e-03 2.6804932459e+00 -4.6427504912e+00 2.6804932459e+00 4.6427504912e+00 
237900 4.6892730634e+00 -1.0952216964e-03 2.6805136851e+00 -4.6427858930e+00 2.6805136851e+00 4.6427858930e+00 
238000 4.6892730288e+00 -1.0947023228e-03 2.6805341144e+00 -4.6428212776e+00 2.6805341144e+00 4.6428212776e+00 
238100 4.6892729942e+00 -1.0941831019e-03 2.6805545340e+00 -4.6428566453e+00 2.6805545340e+00 4.6428566453e+00 
238200 4.6892729597e+00 -1.0936640339e-03 2.6805749436e+00 -4.6428919959e+00 2.6805749436e+00 4.6428919959e+00 
238300 4.6892729252e+00 -1.0931451187e-03 2.6805953435e+00 -4.6429273294e+00 2.6805953435e+00 4.6429273294e+00 
238400 4.6892728907e+00 -1.0926263566e-03 2.6806157334e+00 -4.6429626459e+00 2.6806157334e+00 4.6429626459e+00 
238500 4.6892728562e+00 -1.0921077476e-03 2.6806361136e+00 -4.6429979454e+00 2.6806361136e+00 4.6429979454e+00 
238600 4.6892728218e+00 -1.0915892919e-03 2.6806564839e+00 -4.6430332278e+00 2.6806564839e+00 4.6430332278e+00 
238700 4.6892727874e+00 -1.0910709895e-03 2.6806768445e+00 -4.6430684933e+00 2.6806768445e+00 4.6430684933e+00 
238800 4.6892727531e+00 -1.0905528406e-03 2.6806971951e+00 -4.6431037417e+00 2.6806971951e+00 4.6431037417e+00 
238900 4.6892727188e+00 -1.0900348452e-03 2.6807175360e+00 -4.6431389731e+00 2.6807175360e+00 4.6431389731e+00 
239000 4.6892726845e+00 -1.0895170035e-03 2.6807378671e+00 -4.6431741875e+00 2.6807378671e+00 4.6431741875e+00 
239100 4.6892726502e+00 -1.0889993156e-03 2.6807581883e+00 -4.6432093850e+00 2.6807581883e+00 4.6432093850e+00 
239200 4.6892726160e+00 -1.0884817816e-03 2.6807784997e+00 -4.6432445654e+00 2.6807784997e+00 4.6432445654e+00 
239300 4.6892725818e+00 -1.0879644016e-03 2.6807988014e+00 -4.6432797288e+00 2.6807988014e+00 4.6432797288e+00 
239400 4.6892725477e+00 -1.0874471757e-03 2.6808190932e+00 -4.6433148753e+00 2.6808190932e+00 4.6433148753e+00 
239500 4.6892725136e+00 -1.0869301041e-03 2.6808393752e+00 -4.6433500048e+00 2.6808393752e+00 4.6433500048e+00 
239600 4.6892724795e+00 -1.0864131867e-03 2.6808596474e+00 -4.6433851173e+00 2.6808596474e+00 4.6433851173e+00 
239700 4.6892724454e+00 -1.0858964238e-03 2.6808799099e+00 -4.6434202129e+00 2.6808799099e+00 4.6434202129e+00 
239800 4.6892724114e+00 -1.0853798154e-03 2.6809001625e+00 -4.6434552915e+00 2.6809001625e+00 4.6434552915e+00 
239900 4.6892723774e+00 -1.0848633617e-03 2.6809204053e+00 -4.6434903531e+00 2.6809204053e+00 4.6434903531e+00 
240000 4.6892723435e+00 -1.0843470627e-03 2.6809406384e+00 -4.6435253978e+00 2.6809406384e+00 4.6435253978e+00 
240100 4.6892723096e+00 -1.0838309185e-03 2.6809608617e+00 -4.6435604256e+00 2.6809608617e+00 4.6435604256e+00 
240200 4.6892722757e+00 -1.0833149294e-03 2.6809810752e+00 -4.6435954364e+00 2.6809810752e+00 4.6435954364e+00 
240300 4.6892722418e+00 -1.0827990952e-03 2.6810012789e+00 -4.6436304303e+00 2.6810012789e+00 4.6436304303e+00 
240400 4.6892722080e+00 -1.0822834163e-03 2.6810214729e+00 -4.6436654072e+00 2.6810214729e+00 4.6436654072e+00 
240500 4.6892721742e+00 -1.0817678926e-03 2.6810416571e+00 -4.6437003672e+00 2.6810416571e+00 4.6437003672e+00 
240600 4.6892721405e+00 -1.0812525243e-03 2.6810618315e+00 -4.6437353104e+00 2.6810618315e+00 4.6437353104e+00 
240700 4.6892721067e+00 -1.0807373114e-03 2.6810819961e+00 -4.6437702366e+00 2.6810819961e+00 4.6437702366e+00 
240800 4.6892720730e+00 -1.0802222542e-03 2.6811021510e+00 -4.6438051459e+00 2.6811021510e+00 4.6438051459e+00 
240900 4.6892720394e+00 -1.0797073526e-03 2.6811222962e+00 -4.6438400383e+00 2.6811222962e+00 4.6438400383e+00 
241000 4.6892720057e+00 -1.0791926068e-03 2.6811424316e+00 -4.6438749138e+00 2.6811424316e+00 4.6438749138e+00 
241100 4.6892719722e+00 -1.0786780169e-03 2.6811625572e+00 -4.6439097724e+00 2.6811625572e+00 4.6439097724e+00 
241200 4.6892719386e+00 -1.0781635830e-03 2.6811826731e+00 -4.6439446142e+00 2.6811826731e+00 4.6439446142e+00 
241300 4.6892719051e+00 -1.0776493052e-03 2.6812027792e+00 -4.6439794390e+00 2.6812027792e+00 4.6439794390e+00 
241400 4.6892718716e+00 -1.0771351836e-03 2.6812228756e+00 -4.6440142470e+00 2.6812228756e+00 4.6440142470e+00 
241500 4.6892718381e+00 -1.0766212182e-03 2.6812429623e+00 -4.6440490382e+00 2.6812429623e+00 4.6440490382e+00 
241600 4.6892718047e+00 -1.0761074093e-03 2.6812630392e+00 -4.6440838124e+00 2.6812630392e+00 4.6440838124e+00 
241700 4.6892717713e+00 -1.0755937569e-03 2.6812831064e+00 -4.6441185698e+00 2.6812831064e+00 4.6441185698e+00 
241800 4.6892717379e+00 -1.0750802610e-03 2.6813031639e+00 -4.6441533104e+00 2.6813031639e+00 4.6441533104e+00 
241900 4.6892717046e+00 -1.0745669219e-03 2.6813232117e+00 -4.6441880341e+00 2.6813232117e+00 4.6441880341e+00 
242000 4.6892716713e+00 -1.0740537395e-03 2.6813432497e+00 -4.6442227410e+00 2.6813432497e+00 4.6442227410e+00 
242100 4.6892716380e+00 -1.0735407141e-03 2.6813632780e+00 -4.6442574310e+00 2.6813632780e+00 4.6442574310e+00 
242200 4.6892716047e+00 -1.0730278456e-03 2.6813832966e+00 -4.6442921042e+00 2.6813832966e+00 4.6442921042e+00 
242300 4.6892715715e+00 -1.0725151342e-03 2.6814033054e+00 -4.6443267606e+00 2.6814033054e+00 4.6443267606e+00 
242400 4.6892715384e+00 -1.0720025800e-03 2.6814233046e+00 -4.6443614002e+00 2.6814233046e+00 4.6443614002e+00 
242500 4.6892715052e+00 -1.0714901831e-03 2.6814432941e+00 -4.6443960229e+00 2.6814432941e+00 4.6443960229e+00 
242600 4.6892714721e+00 -1.0709779436e-03 2.6814632738e+00 -4.6444306289e+00 2.6814632738e+00 4.6444306289e+00 
242700 4.6892714390e+00 -1.0704658616e-03 2.6814832439e+00 -4.6444652180e+00 2.6814832439e+00 4.6444652180e+00 
242800 4.6892714060e+00 -1.0699539372e-03 2.6815032042e+00 -4.6444997904e+00 2.6815032042e+00 4.6444997904e+00 
242900 4.6892713730e+00 -1.0694421704e-03 2.6815231549e+00 -4.6445343459e+00 2.6815231549e+00 4.6445343459e+00 
243000 4.6892713400e+00 -1.0689305614e-03 2.6815430959e+00 -4.6445688847e+00 2.6815430959e+00 4.6445688847e+00 
243100 4.6892713070e+00 -1.0684191103e-03 2.6815630271e+00 -4.6446034067e+00 2.6815630271e+00 4.6446034067e+00 
243200 4.6892712741e+00 -1.0679078172e-03 2.6815829487e+00 -4.6446379119e+00 2.6815829487e+00 4.6446379119e+00 
243300 4.6892712412e+00 -1.0673966821e-03 2.6816028606e+00 -4.6446724004e+00 2.6816028606e+00 4.6446724004e+00 
243400 4.6892712084e+00 -1.0668857052e-03 2.6816227629e+00 -4.6447068721e+00 2.6816227629e+00 4.6447068721e+00 
243500 4.6892711755e+00 -1.0663748865e-03 2.6816426555e+00 -4.6447413270e+00 2.6816426555e+00 4.6447413270e+00 
243600 4.6892711427e+00 -1.0658642262e-03 2.6816625383e+00 -4.6447757652e+00 2.6816625383e+00 4.6447757652e+00 
243700 4.6892711100e+00 -1.0653537243e-03 2.6816824116e+00 -4.6448101866e+00 2.6816824116e+00 4.6448101866e+00 
243800 4.6892710773e+00 -1.0648433810e-03 2.6817022751e+00 -4.6448445913e+00 2.6817022751e+00 4.6448445913e+00 
243900 4.6892710446e+00 -1.0643331963e-03 2.6817221290e+00 -4.6448789792e+00 2.6817221290e+00 4.6448789792e+00 
244000 4.6892710119e+00 -1.0638231703e-03 2.6817419733e+00 -4.6449133505e+00 2.6817419733e+00 4.6449133505e+00 
244100 4.6892709793e+00 -1.0633133031e-03 2.6817618078e+00 -4.6449477050e+00 2.6817618078e+00 4.6449477050e+00 
244200 4.6892709467e+00 -1.0628035949e-03 2.6817816328e+00 -4.6449820427e+00 2.6817816328e+00 4.6449820427e+00 
244300 4.6892709141e+00 -1.0622940457e-03 2.6818014480e+00 -4.6450163638e+00 2.6818014480e+00 4.6450163638e+00 
244400 4.6892708816e+00 -1.0617846556e-03 2.6818212537e+00 -4.6450506682e+00 2.6818212537e+00 4.6450506682e+00 
244500 4.6892708490e+00 -1.0612754246e-03 2.6818410497e+00 -4.6450849558e+00 2.6818410497e+00 4.6450849558e+00 
244600 4.6892708166e+00 -1.0607663530e-03 2.6818608360e+00 -4.6451192268e+00 2.6818608360e+00 4.6451192268e+00 
244700 4.6892707841e+00 -1.0602574407e-03 2.6818806127e+00 -4.6451534810e+00 2.6818806127e+00 4.6451534810e+00 
244800 4.6892707517e+00 -1.0597486879e-03 2.6819003798e+00 -4.6451877186e+00 2.6819003798e+00 4.6451877186e+00 
244900 4.6892707193e+00 -1.0592400946e-03 2.6819201372e+00 -4.6452219395e+00 2.6819201372e+00 4.6452219395e+00 
245000 4.6892706870e+00 -1.0587316611e-03 2.6819398850e+00 -4.6452561437e+00 2.6819398850e+00 4.6452561437e+00 
245100 4.6892706547e+00 -1.0582233872e-03 2.6819596232e+00 -4.6452903313e+00 2.6819596232e+00 4.6452903313e+00 
245200 4.6892706224e+00 -1.0577152732e-03 2.6819793518e+00 -4.6453245022e+00 2.6819793518e+00 4.6453245022e+00 
245300 4.6892705901e+00 -1.0572073191e-03 2.6819990708e+00 -4.6453586564e+00 2.6819990708e+00 4.6453586564e+00 
245400 4.6892705579e+00 -1.0566995250e-03 2.6820187801e+00 -4.6453927940e+00 2.6820187801e+00 4.6453927940e+00 
245500 4.6892705257e+00 -1.0561918910e-03 2.6820384798e+00 -4.6454269149e+00 2.6820384798e+00 4.6454269149e+00 
245600 4.6892704935e+00 -1.0556844172e-03 2.6820581700e+00 -4.6454610192e+00 2.6820581700e+00 4.6454610192e+00 
245700 4.6892704614e+00 -1.0551771037e-03 2.6820778505e+00 -4.6454951069e+00 2.6820778505e+00 4.6454951069e+00 
245800 4.6892704293e+00 -1.0546699506e-03 2.6820975214e+00 -4.6455291779e+00 2.6820975214e+00 4.6455291779e+00 
245900 4.6892703972e+00 -1.0541629579e-03 2.6821171827e+00 -4.6455632323e+00 2.6821171827e+00 4.6455632323e+00 
246000 4.6892703652e+00 -1.0536561258e-03 2.6821368344e+00 -4.6455972701e+00 2.6821368344e+00 4.6455972701e+00 
246100 4.6892703332e+00 -1.0531494543e-03 2.6821564765e+00 -4.6456312912e+00 2.6821564765e+00 4.6456312912e+00 
246200 4.6892703012e+00 -1.0526429435e-03 2.6821761091e+00 -4.6456652958e+00 2.6821761091e+00 4.6456652958e+00 
246300 4.6892702693e+00 -1.0521365936e-03 2.6821957320e+00 -4.6456992837e+00 2.6821957320e+00 4.6456992837e+00 
246400 4.6892702374e+00 -1.0516304045e-03 2.6822153454e+00 -4.6457332551e+00 2.6822153454e+00 4.6457332551e+00 
246500 4.6892702055e+00 -1.0511243764e-03 2.6822349492e+00 -4.6457672098e+00 2.6822349492e+00 4.6457672098e+00 
246600 4.6892701736e+00 -1.0506185094e-03 2.6822545434e+00 -4.6458011480e+00 2.6822545434e+00 4.6458011480e+00 
246700 4.6892701418e+00 -1.0501128036e-03 2.6822741280e+00 -4.6458350696e+00 2.6822741280e+00 4.6458350696e+00 
246800 4.6892701100e+00 -1.0496072590e-03 2.6822937031e+00 -4.6458689746e+00 2.6822937031e+00 4.6458689746e+00 
246900 4.6892700783e+00 -1.0491018757e-03 2.6823132686e+00 -4.6459028631e+00 2.6823132686e+00 4.6459028631e+00 
247000 4.6892700465e+00 -1.0485966538e-03 2.6823328246e+00 -4.6459367349e+00 2.6823328246e+00 4.6459367349e+00 
247100 4.6892700148e+00 -1.0480915935e-03 2.6823523709e+00 -4.6459705903e+00 2.6823523709e+00 4.6459705903e+00 
247200 4.6892699832e+00 -1.0475866947e-03 2.6823719078e+00 -4.6460044290e+00 2.6823719078e+00 4.6460044290e+00 
247300 4.6892699515e+00 -1.0470819576e-03 2.6823914350e+00 -4.6460382513e+00 2.6823914350e+00 4.6460382513e+00 
247400 4.6892699199e+00 -1.0465773823e-03 2.6824109527e+00 -4.6460720569e+00 2.6824109527e+00 4.6460720569e+00 
247500 4.6892698884e+00 -1.0460729688e-03 2.6824304609e+00 -4.6461058461e+00 2.6824304609e+00 4.6461058461e+00 
247600 4.6892698568e+00 -1.0455687172e-03 2.6824499595e+00 -4.6461396187e+00 2.6824499595e+00 4.6461396187e+00 
247700 4.6892698253e+00 -1.0450646276e-03 2.6824694486e+00 -4.6461733748e+00 2.6824694486e+00 4.6461733748e+00 
247800 4.6892697938e+00 -1.0445607001e-03 2.6824889282e+00 -4.6462071143e+00 2.6824889282e+00 4.6462071143e+00 
247900 4.6892697624e+00 -1.0440569348e-03 2.6825083982e+00 -4.6462408374e+00 2.6825083982e+00 4.6462408374e+00 
248000 4.6892697310e+00 -1.0435533317e-03 2.6825278587e+00 -4.6462745439e+00 2.6825278587e+00 4.6462745439e+00 
248100 4.6892696996e+00 -1.0430498910e-03 2.6825473096e+00 -4.6463082340e+00 2.6825473096e+00 4.6463082340e+00 
248200 4.6892696682e+00 -1.0425466127e-03 2.6825667511e+00 -4.6463419075e+00 2.6825667511e+00 4.6463419075e+00 
248300 4.6892696369e+00 -1.0420434969e-03 2.6825861830e+00 -4.6463755646e+00 2.6825861830e+00 4.6463755646e+00 
248400 4.6892696056e+00 -1.0415405437e-03 2.6826056054e+00 -4.6464092052e+00 2.6826056054e+00 4.6464092052e+00 
248500 4.6892695743e+00 -1.0410377532e-03 2.6826250182e+00 -4.6464428292e+00 2.6826250182e+00 4.6464428292e+00 
248600 4.6892695431e+00 -1.0405351254e-03 2.6826444216e+00 -4.6464764369e+00 2.6826444216e+00 4.6464764369e+00 
248700 4.6892695119e+00 -1.0400326605e-03 2.6826638155e+00 -4.6465100280e+00 2.6826638155e+00 4.6465100280e+00 
248800 4.6892694807e+00 -1.0395303584e-03 2.6826831998e+00 -4.6465436027e+00 2.6826831998e+00 4.6465436027e+00 
248900 4.6892694496e+00 -1.0390282193e-03 2.6827025747e+00 -4.6465771609e+00 2.6827025747e+00 4.6465771609e+00 
249000 4.6892694184e+00 -1.0385262434e-03 2.6827219400e+00 -4.6466107027e+00 2.6827219400e+00 4.6466107027e+00 
249100 4.6892693874e+00 -1.0380244305e-03 2.6827412959e+00 -4.6466442280e+00 2.6827412959e+00 4.6466442280e+00 
249200 4.6892693563e+00 -1.0375227809e-03 2.6827606422e+00 -4.6466777369e+00 2.6827606422e+00 4.6466777369e+00 
249300 4.6892693253e+00 -1.0370212946e-03 2.6827799791e+00 -4.6467112293e+00 2.6827799791e+00 4.6467112293e+00 
249400 4.6892692943e+00 -1.0365199717e-03 2.6827993065e+00 -4.6467447053e+00 2.6827993065e+00 4.6467447053e+00 
249500 4.6892692633e+00 -1.0360188123e-03 2.6828186244e+00 -4.6467781649e+00 2.6828186244e+00 4.6467781649e+00 
249600 4.6892692324e+00 -1.0355178164e-03 2.6828379328e+00 -4.6468116081e+00 2.6828379328e+00 4.6468116081e+00 
249700 4.6892692015e+00 -1.0350169841e-03 2.6828572318e+00 -4.6468450349e+00 2.6828572318e+00 4.6468450349e+00 
249800 4.6892691706e+00 -1.0345163156e-03 2.6828765212e+00 -4.6468784452e+00 2.6828765212e+00 4.6468784452e+00 
249900 4.6892691398e+00 -1.0340158108e-03 2.6828958012e+00 -4.6469118392e+00 2.6828958012e+00 4.6469118392e+00 
250000 4.6892691090e+00 -1.0335154698e-03 2.6829150718e+00 -4.6469452167e+00 2.6829150718e+00 4.6469452167e+00 
250100 4.6892690782e+00 -1.0330152929e-03 2.6829343329e+00 -4.6469785779e+00 2.6829343329e+00 4.6469785779e+00 
250200 4.6892690474e+00 -1.0325152799e-03 2.6829535845e+00 -4.6470119227e+00 2.6829535845e+00 4.6470119227e+00 
250300 4.6892690167e+00 -1.0320154310e-03 2.6829728266e+00 -4.6470452511e+00 2.6829728266e+00 4.6470452511e+00 
250400 4.6892689860e+00 -1.0315157463e-03 2.6829920594e+00 -4.6470785631e+00 2.6829920594e+00 4.6470785631e+00 
250500 4.6892689553e+00 -1.0310162258e-03 2.6830112826e+00 -4.6471118588e+00 2.6830112826e+00 4.6471118588e+00 
250600 4.6892689247e+00 -1.0305168696e-03 2.6830304964e+00 -4.6471451381e+00 2.6830304964e+00 4.6471451381e+00 
250700 4.6892688941e+00 -1.0300176779e-03 2.6830497008e+00 -4.6471784010e+00 2.6830497008e+00 4.6471784010e+00 
250800 4.6892688635e+00 -1.0295186506e-03 2.6830688957e+00 -4.6472116476e+00 2.6830688957e+00 4.6472116476e+00 
250900 4.6892688330e+00 -1.0290197878e-03 2.6830880812e+00 -4.6472448778e+00 2.6830880812e+00 4.6472448778e+00 
251000 4.6892688025e+00 -1.0285210897e-03 2.6831072573e+00 -4.6472780917e+00 2.6831072573e+00 4.6472780917e+00 
251100 4.6892687720e+00 -1.0280225563e-03 2.6831264239e+00 -4.6473112893e+00 2.6831264239e+00 4.6473112893e+00 
251200 4.6892687415e+00 -1.0275241876e-03 2.6831455811e+00 -4.6473444706e+00 2.6831455811e+00 4.6473444706e+00 
251300 4.6892687111e+00 -1.0270259838e-03 2.6831647289e+00 -4.6473776355e+00 2.6831647289e+00 4.6473776355e+00 
251400 4.6892686807e+00 -1.0265279449e-03 2.6831838672e+00 -4.6474107841e+00 2.6831838672e+00 4.6474107841e+00 
251500 4.6892686504e+00 -1.0260300710e-03 2.6832029962e+00 -4.6474439164e+00 2.6832029962e+00 4.6474439164e+00 
251600 4.6892686200e+00 -1.0255323622e-03 2.6832221157e+00 -4.6474770324e+00 2.6832221157e+00 4.6474770324e+00 
251700 4.6892685897e+00 -1.0250348184e-03 2.6832412258e+00 -4.6475101320e+00 2.6832412258e+00 4.6475101320e+00 
251800 4.6892685594e+00 -1.0245374400e-03 2.6832603265e+00 -4.6475432154e+00 2.6832603265e+00 4.6475432154e+00 
251900 4.6892685292e+00 -1.0240402267e-03 2.6832794178e+00 -4.6475762825e+00 2.6832794178e+00 4.6475762825e+00 
252000 4.6892684990e+00 -1.0235431789e-03 2.6832984997e+00 -4.6476093334e+00 2.6832984997e+00 4.6476093334e+00 
252100 4.6892684688e+00 -1.0230462965e-03 2.6833175722e+00 -4.6476423679e+00 2.6833175722e+00 4.6476423679e+00 
252200 4.6892684386e+00 -1.0225495795e-03 2.6833366353e+00 -4.6476753862e+00 2.6833366353e+00 4.6476753862e+00 
252300 4.6892684085e+00 -1.0220530282e-03 2.6833556890e+00 -4.6477083882e+00 2.6833556890e+00 4.6477083882e+00 
252400 4.6892683784e+00 -1.0215566425e-03 2.6833747334e+00 -4.6477413739e+00 2.6833747334e+00 4.6477413739e+00 
252500 4.6892683483e+00 -1.0210604225e-03 2.6833937683e+00 -4.6477743434e+00 2.6833937683e+00 4.6477743434e+00 
252600 4.6892683183e+00 -1.0205643683e-03 2.6834127939e+00 -4.6478072967e+00 2.6834127939e+00 4.6478072967e+00 
252700 4.6892682883e+00 -1.0200684799e-03 2.6834318101e+00 -4.6478402337e+00 2.6834318101e+00 4.6478402337e+00 
252800 4.6892682583e+00 -1.0195727575e-03 2.6834508169e+00 -4.6478731544e+00 2.6834508169e+00 4.6478731544e+00 
252900 4.6892682284e+00 -1.0190772010e-03 2.6834698143e+00 -4.6479060590e+00 2.6834698143e+00 4.6479060590e+00 
253000 4.6892681984e+00 -1.0185818107e-03 2.6834888024e+00 -4.6479389473e+00 2.6834888024e+00 4.6479389473e+00 
253100 4.6892681685e+00 -1.0180865864e-03 2.6835077811e+00 -4.6479718194e+00 2.6835077811e+00 4.6479718194e+00 
253200 4.6892681387e+00 -1.0175915284e-03 2.6835267504e+00 -4.6480046752e+00 2.6835267504e+00 4.6480046752e+00 
253300 4.6892681089e+00 -1.0170966367e-03 2.6835457104e+00 -4.6480375149e+00 2.6835457104e+00 4.6480375149e+00 
253400 4.6892680790e+00 -1.0166019113e-03 2.6835646611e+00 -4.6480703384e+00 2.6835646611e+00 4.6480703384e+00 
253500 4.6892680493e+00 -1.0161073523e-03 2.6835836024e+00 -4.6481031456e+00 2.6835836024e+00 4.6481031456e+00 
253600 4.6892680195e+00 -1.0156129597e-03 2.6836025343e+00 -4.6481359367e+00 2.6836025343e+00 4.6481359367e+00 
253700 4.6892679898e+00 -1.0151187338e-03 2.6836214569e+00 -4.6481687116e+00 2.6836214569e+00 4.6481687116e+00 
253800 4.6892679601e+00 -1.0146246744e-03 2.6836403701e+00 -4.6482014703e+00 2.6836403701e+00 4.6482014703e+00 
253900 4.6892679305e+00 -1.0141307818e-03 2.6836592740e+00 -4.6482342128e+00 2.6836592740e+00 4.6482342128e+00 
254000 4.6892679008e+00 -1.0136370558e-03 2.6836781686e+00 -4.6482669392e+00 2.6836781686e+00 4.6482669392e+00 
254100 4.6892678712e+00 -1.0131434967e-03 2.6836970538e+00 -4.6482996494e+00 2.6836970538e+00 4.6482996494e+00 
254200 4.6892678417e+00 -1.0126501045e-03 2.6837159298e+00 -4.6483323434e+00 2.6837159298e+00 4.6483323434e+00 
254300 4.6892678121e+00 -1.0121568793e-03 2.6837347963e+00 -4.6483650213e+00 2.6837347963e+00 4.6483650213e+00 
254400 4.6892677826e+00 -1.0116638210e-03 2.6837536536e+00 -4.6483976831e+00 2.6837536536e+00 4.6483976831e+00 
254500 4.6892677531e+00 -1.0111709299e-03 2.6837725016e+00 -4.6484303287e+00 2.6837725016e+00 4.6484303287e+00 
254600 4.6892677237e+00 -1.0106782059e-03 2.6837913402e+00 -4.6484629581e+00 2.6837913402e+00 4.6484629581e+00 
254700 4.6892676942e+00 -1.0101856491e-03 2.6838101695e+00 -4.6484955715e+00 2.6838101695e+00 4.6484955715e+00 
254800 4.6892676648e+00 -1.0096932596e-03 2.6838289895e+00 -4.6485281687e+00 2.6838289895e+00 4.6485281687e+00 
254900 4.6892676355e+00 -1.0092010374e-03 2.6838478002e+00 -4.6485607498e+00 2.6838478002e+00 4.6485607498e+00 
255000 4.6892676061e+00 -1.0087089827e-03 2.6838666016e+00 -4.6485933148e+00 2.6838666016e+00 4.6485933148e+00 
255100 4.6892675768e+00 -1.0082170954e-03 2.6838853938e+00 -4.6486258637e+00 2.6838853938e+00 4.6486258637e+00 
255200 4.6892675475e+00 -1.0077253757e-03 2.6839041766e+00 -4.6486583965e+00 2.6839041766e+00 4.6486583965e+00 
255300 4.6892675183e+00 -1.0072338236e-03 2.6839229501e+00 -4.6486909131e+00 2.6839229501e+00 4.6486909131e+00 
255400 4.6892674891e+00 -1.0067424391e-03 2.6839417143e+00 -4.6487234137e+00 2.6839417143e+00 4.6487234137e+00 
255500 4.6892674599e+00 -1.0062512224e-03 2.6839604693e+00 -4.6487558983e+00 2.6839604693e+00 4.6487558983e+00 
255600 4.6892674307e+00 -1.0057601734e-03 2.6839792149e+00 -4.6487883667e+00 2.6839792149e+00 4.6487883667e+00 
255700 4.6892674016e+00 -1.0052692924e-03 2.6839979513e+00 -4.6488208191e+00 2.6839979513e+00 4.6488208191e+00 
255800 4.6892673724e+00 -1.0047785792e-03 2.6840166784e+00 -4.6488532554e+00 2.6840166784e+00 4.6488532554e+00 
255900 4.6892673434e+00 -1.0042880341e-03 2.6840353963e+00 -4.6488856756e+00 2.6840353963e+00 4.6488856756e+00 
256000 4.6892673143e+00 -1.0037976570e-03 2.6840541048e+00 -4.6489180798e+00 2.6840541048e+00 4.6489180798e+00 
256100 4.6892672853e+00 -1.0033074480e-03 2.6840728041e+00 -4.6489504680e+00 2.6840728041e+00 4.6489504680e+00 
256200 4.6892672563e+00 -1.0028174071e-03 2.6840914942e+00 -4.6489828401e+00 2.6840914942e+00 4.6489828401e+00 
256300 4.6892672273e+00 -1.0023275345e-03 2.6841101749e+00 -4.6490151961e+00 2.6841101749e+00 4.6490151961e+00 
256400 4.6892671984e+00 -1.0018378302e-03 2.6841288465e+00 -4.6490475362e+00 2.6841288465e+00 4.6490475362e+00 
256500 4.6892671695e+00 -1.0013482943e-03 2.6841475087e+00 -4.6490798602e+00 2.6841475087e+00 4.6490798602e+00 
256600 4.6892671406e+00 -1.0008589268e-03 2.6841661618e+00 -4.6491121682e+00 2.6841661618e+00 4.6491121682e+00 
256700 4.6892671117e+00 -1.0003697277e-03 2.6841848056e+00 -4.6491444601e+00 2.6841848056e+00 4.6491444601e+00 
256800 4.6892670829e+00 -9.9988069721e-04 2.6842034401e+00 -4.6491767361e+00 2.6842034401e+00 4.6491767361e+00 
256900 4.6892670541e+00 -9.9939183530e-04 2.6842220654e+00 -4.6492089961e+00 2.6842220654e+00 4.6492089961e+00 
257000 4.6892670253e+00 -9.9890314205e-04 2.6842406815e+00 -4.6492412400e+00 2.6842406815e+00 4.6492412400e+00 
257100 4.6892669966e+00 -9.9841461752e-04 2.6842592883e+00 -4.6492734680e+00 2.6842592883e+00 4.6492734680e+00 
257200 4.6892669679e+00 -9.9792626177e-04 2.6842778859e+00 -4.6493056800e+00 2.6842778859e+00 4.6493056800e+00 
257300 4.6892669392e+00 -9.9743807485e-04 2.6842964743e+00 -4.6493378760e+00 2.6842964743e+00 4.6493378760e+00 
257400 4.6892669105e+00 -9.9695005684e-04 2.6843150534e+00 -4.6493700561e+00 2.6843150534e+00 4.6493700561e+00 
257500 4.6892668819e+00 -9.9646220778e-04 2.6843336234e+00 -4.6494022201e+00 2.6843336234e+00 4.6494022201e+00 
257600 4.6892668533e+00 -9.9597452773e-04 2.6843521841e+00 -4.6494343682e+00 2.6843521841e+00 4.6494343682e+00 
257700 4.6892668247e+00 -9.9548701676e-04 2.6843707356e+00 -4.6494665004e+00 2.6843707356e+00 4.6494665004e+00 
257800 4.6892667962e+00 -9.9499967492e-04 2.6843892779e+00 -4.6494986166e+00 2.6843892779e+00 4.6494986166e+00 
257900 4.6892667677e+00 -9.9451250227e-04 2.6844078110e+00 -4.6495307169e+00 2.6844078110e+00 4.6495307169e+00 
258000 4.6892667392e+00 -9.9402549887e-04 2.6844263349e+00 -4.6495628012e+00 2.6844263349e+00 4.6495628012e+00 
258100 4.6892667107e+00 -9.9353866477e-04 2.6844448496e+00 -4.6495948696e+00 2.6844448496e+00 4.6495948696e+00 
258200 4.6892666823e+00 -9.9305200004e-04 2.6844633551e+00 -4.6496269220e+00 2.6844633551e+00 4.6496269220e+00 
258300 4.6892666539e+00 -9.9256550472e-04 2.6844818514e+00 -4.6496589586e+00 2.6844818514e+00 4.6496589586e+00 
258400 4.6892666255e+00 -9.9207917888e-04 2.6845003385e+00 -4.6496909792e+00 2.6845003385e+00 4.6496909792e+00 
258500 4.6892665972e+00 -9.9159302258e-04 2.6845188164e+00 -4.6497229839e+00 2.6845188164e+00 4.6497229839e+00 
258600 4.6892665689e+00 -9.9110703586e-04 2.6845372852e+00 -4.6497549727e+00 2.6845372852e+00 4.6497549727e+00 
258700 4.6892665406e+00 -9.9062121878e-04 2.6845557447e+00 -4.6497869457e+00 2.6845557447e+00 4.6497869457e+00 
258800 4.6892665123e+00 -9.9013557141e-04 2.6845741951e+00 -4.6498189027e+00 2.6845741951e+00 4.6498189027e+00 
258900 4.6892664841e+00 -9.8965009379e-04 2.6845926364e+00 -4.6498508438e+00 2.6845926364e+00 4.6498508438e+00 
259000 4.6892664559e+00 -9.8916478599e-04 2.6846110684e+00 -4.6498827691e+00 2.6846110684e+00 4.6498827691e+00 
259100 4.6892664277e+00 -9.8867964805e-04 2.6846294913e+00 -4.6499146785e+00 2.6846294913e+00 4.6499146785e+00 
259200 4.6892663995e+00 -9.8819468004e-04 2.6846479050e+00 -4.6499465720e+00 2.6846479050e+00 4.6499465720e+00 
259300 4.6892663714e+00 -9.8770988200e-04 2.6846663096e+00 -4.6499784496e+00 2.6846663096e+00 4.6499784496e+00 
259400 4.6892663433e+00 -9.8722525399e-04 2.6846847050e+00 -4.6500103114e+00 2.6846847050e+00 4.6500103114e+00 
259500 4.6892663153e+00 -9.8674079607e-04 2.6847030913e+00 -4.6500421574e+00 2.6847030913e+00 4.6500421574e+00 
259600 4.6892662872e+00 -9.8625650829e-04 2.6847214684e+00 -4.6500739875e+00 2.6847214684e+00 4.6500739875e+00 
259700 4.6892662592e+00 -9.8577239070e-04 2.6847398364e+00 -4.6501058017e+00 2.6847398364e+00 4.6501058017e+00 
259800 4.6892662312e+00 -9.8528844336e-04 2.6847581952e+00 -4.6501376001e+00 2.6847581952e+00 4.6501376001e+00 
259900 4.6892662033e+00 -9.8480466632e-04 2.6847765449e+00 -4.6501693827e+00 2.6847765449e+00 4.6501693827e+00 
260000 4.6892661753e+00 -9.8432105963e-04 2.6847948854e+00 -4.6502011495e+00 2.6847948854e+00 4.6502011495e+00 
260100 4.6892661474e+00 -9.8383762335e-04 2.6848132169e+00 -4.6502329005e+00 2.6848132169e+00 4.6502329005e+00 
260200 4.6892661195e+00 -9.8335435753e-04 2.6848315392e+00 -4.6502646356e+00 2.6848315392e+00 4.6502646356e+00 
260300 4.6892660917e+00 -9.8287126222e-04 2.6848498523e+00 -4.6502963549e+00 2.6848498523e+00 4.6502963549e+00 
260400 4.6892660639e+00 -9.8238833747e-04 2.6848681564e+00 -4.6503280585e+00 2.6848681564e+00 4.6503280585e+00 
260500 4.6892660361e+00 -9.8190558333e-04 2.6848864513e+00 -4.6503597462e+00 2.6848864513e+00 4.6503597462e+00 
260600 4.6892660083e+00 -9.8142299987e-04 2.6849047371e+00 -4.6503914182e+00 2.6849047371e+00 4.6503914182e+00 
260700 4.6892659806e+00 -9.8094058712e-04 2.6849230138e+00 -4.6504230744e+00 2.6849230138e+00 4.6504230744e+00 
260800 4.6892659529e+00 -9.8045834514e-04 2.6849412814e+00 -4.6504547148e+00 2.6849412814e+00 4.6504547148e+00 
260900 4.6892659252e+00 -9.7997627399e-04 2.6849595399e+00 -4.6504863394e+00 2.6849595399e+00 4.6504863394e+00 
261000 4.6892658975e+00 -9.7949437371e-04 2.6849777893e+00 -4.6505179483e+00 2.6849777893e+00 4.6505179483e+00 
261100 4.6892658699e+00 -9.7901264434e-04 2.6849960296e+00 -4.6505495414e+00 2.6849960296e+00 4.6505495414e+00 
261200 4.6892658423e+00 -9.7853108596e-04 2.6850142608e+00 -4.6505811187e+00 2.6850142608e+00 4.6505811187e+00 
261300 4.6892658147e+00 -9.7804969859e-04 2.6850324829e+00 -4.6506126803e+00 2.6850324829e+00 4.6506126803e+00 
261400 4.6892657872e+00 -9.7756848230e-04 2.6850506959e+00 -4.6506442262e+00 2.6850506959e+00 4.6506442262e+00 
261500 4.6892657597e+00 -9.7708743713e-04 2.6850688998e+00 -4.6506757563e+00 2.6850688998e+00 4.6506757563e+00 
261600 4.6892657322e+00 -9.7660656313e-04 2.6850870947e+00 -4.6507072707e+00 2.6850870947e+00 4.6507072707e+00 
261700 4.6892657047e+00 -9.7612586036e-04 2.6851052805e+00 -4.6507387694e+00 2.6851052805e+00 4.6507387694e+00 
261800 4.6892656773e+00 -9.7564532885e-04 2.6851234572e+00 -4.6507702524e+00 2.6851234572e+00 4.6507702524e+00 
261900 4.6892656499e+00 -9.7516496867e-04 2.6851416248e+00 -4.6508017196e+00 2.6851416248e+00 4.6508017196e+00 
262000 4.6892656225e+00 -9.7468477985e-04 2.6851597833e+00 -4.6508331712e+00 2.6851597833e+00 4.6508331712e+00 
262100 4.6892655951e+00 -9.7420476245e-04 2.6851779328e+00 -4.6508646070e+00 2.6851779328e+00 4.6508646070e+00 
262200 4.6892655678e+00 -9.7372491651e-04 2.6851960733e+00 -4.6508960272e+00 2.6851960733e+00 4.6508960272e+00 
262300 4.6892655405e+00 -9.7324524209e-04 2.6852142046e+00 -4.6509274317e+00 2.6852142046e+00 4.6509274317e+00 
262400 4.6892655132e+00 -9.7276573922e-04 2.6852323270e+00 -4.6509588204e+00 2.6852323270e+00 4.6509588204e+00 
262500 4.6892654860e+00 -9.7228640797e-04 2.6852504402e+00 -4.6509901935e+00 2.6852504402e+00 4.6509901935e+00 
262600 4.6892654587e+00 -9.7180724837e-04 2.6852685445e+00 -4.6510215510e+00 2.6852685445e+00 4.6510215510e+00 
262700 4.6892654315e+00 -9.7132826047e-04 2.6852866396e+00 -4.6510528928e+00 2.6852866396e+00 4.6510528928e+00 
262800 4.6892654044e+00 -9.7084944432e-04 2.6853047258e+00 -4.6510842189e+00 2.6853047258e+00 4.6510842189e+00 
262900 4.6892653772e+00 -9.7037079997e-04 2.6853228029e+00 -4.6511155293e+00 2.6853228029e+00 4.6511155293e+00 
263000 4.6892653501e+00 -9.6989232746e-04 2.6853408710e+00 -4.6511468241e+00 2.6853408710e+00 4.6511468241e+00 
263100 4.6892653230e+00 -9.6941402683e-04 2.6853589300e+00 -4.6511781033e+00 2.6853589300e+00 4.6511781033e+00 
263200 4.6892652960e+00 -9.6893589814e-04 2.6853769800e+00 -4.6512093668e+00 2.6853769800e+00 4.6512093668e+00 
263300 4.6892652689e+00 -9.6845794144e-04 2.6853950210e+00 -4.6512406147e+00 2.6853950210e+00 4.6512406147e+00 
263400 4.6892652419e+00 -9.6798015675e-04 2.6854130530e+00 -4.6512718470e+00 2.6854130530e+00 4.6512718470e+00 
263500 4.6892652150e+00 -9.6750254414e-04 2.6854310759e+00 -4.6513030637e+00 2.6854310759e+00 4.6513030637e+00 
263600 4.6892651880e+00 -9.6702510364e-04 2.6854490898e+00 -4.6513342647e+00 2.6854490898e+00 4.6513342647e+00 
263700 4.6892651611e+00 -9.6654783531e-04 2.6854670948e+00 -4.6513654502e+00 2.6854670948e+00 4.6513654502e+00 
263800 4.6892651342e+00 -9.6607073918e-04 2.6854850907e+00 -4.6513966200e+00 2.6854850907e+00 4.6513966200e+00 
263900 4.6892651073e+00 -9.6559381530e-04 2.6855030776e+00 -4.6514277743e+00 2.6855030776e+00 4.6514277743e+00 
264000 4.6892650805e+00 -9.6511706372e-04 2.6855210555e+00 -4.6514589129e+00 2.6855210555e+00 4.6514589129e+00 
264100 4.6892650536e+00 -9.6464048447e-04 2.6855390244e+00 -4.6514900360e+00 2.6855390244e+00 4.6514900360e+00 
264200 4.6892650268e+00 -9.6416407760e-04 2.6855569844e+00 -4.6515211435e+00 2.6855569844e+00 4.6515211435e+00 
264300 4.6892650001e+00 -9.6368784317e-04 2.6855749353e+00 -4.6515522355e+00 2.6855749353e+00 4.6515522355e+00 
264400 4.6892649733e+00 -9.6321178120e-04 2.6855928772e+00 -4.6515833118e+00 2.6855928772e+00 4.6515833118e+00 
264500 4.6892649466e+00 -9.6273589174e-04 2.6856108102e+00 -4.6516143726e+00 2.6856108102e+00 4.6516143726e+00 
264600 4.6892649199e+00 -9.6226017484e-04 2.6856287342e+00 -4.6516454179e+00 2.6856287342e+00 4.6516454179e+00 
264700 4.6892648933e+00 -9.6178463053e-04 2.6856466492e+00 -4.6516764476e+00 2.6856466492e+00 4.6516764476e+00 
264800 4.6892648666e+00 -9.6130925887e-04 2.6856645552e+00 -4.6517074617e+00 2.6856645552e+00 4.6517074617e+00 
264900 4.6892648400e+00 -9.6083405989e-04 2.6856824523e+00 -4.6517384604e+00 2.6856824523e+00 4.6517384604e+00 
265000 4.6892648135e+00 -9.6035903364e-04 2.6857003404e+00 -4.6517694435e+00 2.6857003404e+00 4.6517694435e+00 
265100 4.6892647869e+00 -9.5988418015e-04 2.6857182195e+00 -4.6518004110e+00 2.6857182195e+00 4.6518004110e+00 
265200 4.6892647604e+00 -9.5940949947e-04 2.6857360897e+00 -4.6518313631e+00 2.6857360897e+00 4.6518313631e+00 
265300 4.6892647339e+00 -9.5893499164e-04 2.6857539509e+00 -4.6518622996e+00 2.6857539509e+00 4.6518622996e+00 
265400 4.6892647074e+00 -9.5846065670e-04 2.6857718032e+00 -4.6518932207e+00 2.6857718032e+00 4.6518932207e+00 
265500 4.6892646809e+00 -9.5798649470e-04 2.6857896465e+00 -4.6519241262e+00 2.6857896465e+00 4.6519241262e+00 
265600 4.6892646545e+00 -9.5751250566e-04 2.6858074809e+00 -4.6519550163e+00 2.6858074809e+00 4.6519550163e+00 
265700 4.6892646281e+00 -9.5703868965e-04 2.6858253063e+00 -4.6519858908e+00 2.6858253063e+00 4.6519858908e+00 
265800 4.6892646017e+00 -9.5656504668e-04 2.6858431228e+00 -4.6520167499e+00 2.6858431228e+00 4.6520167499e+00 
265900 4.6892645754e+00 -9.5609157681e-04 2.6858609304e+00 -4.6520475935e+00 2.6858609304e+00 4.6520475935e+00 
266000 4.6892645491e+00 -9.5561828008e-04 2.6858787290e+00 -4.6520784216e+00 2.6858787290e+00 4.6520784216e+00 
266100 4.6892645228e+00 -9.5514515652e-04 2.6858965187e+00 -4.6521092343e+00 2.6858965187e+00 4.6521092343e+00 
266200 4.6892644965e+00 -9.5467220618e-04 2.6859142995e+00 -4.6521400315e+00 2.6859142995e+00 4.6521400315e+00 
266300 4.6892644703e+00 -9.5419942908e-04 2.6859320713e+00 -4.6521708132e+00 2.6859320713e+00 4.6521708132e+00 
266400 4.6892644441e+00 -9.5372682528e-04 2.6859498342e+00 -4.6522015795e+00 2.6859498342e+00 4.6522015795e+00 
266500 4.6892644179e+00 -9.5325439482e-04 2.6859675883e+00 -4.6522323304e+00 2.6859675883e+00 4.6522323304e+00 
266600 4.6892643917e+00 -9.5278213772e-04 2.6859853334e+00 -4.6522630658e+00 2.6859853334e+00 4.6522630658e+00 
266700 4.6892643656e+00 -9.5231005403e-04 2.6860030696e+00 -4.6522937858e+00 2.6860030696e+00 4.6522937858e+00 
266800 4.6892643395e+00 -9.5183814379e-04 2.6860207969e+00 -4.6523244903e+00 2.6860207969e+00 4.6523244903e+00 
266900 4.6892643134e+00 -9.5136640704e-04 2.6860385152e+00 -4.6523551795e+00 2.6860385152e+00 4.6523551795e+00 
267000 4.6892642873e+00 -9.5089484380e-04 2.6860562247e+00 -4.6523858532e+00 2.6860562247e+00 4.6523858532e+00 
267100 4.6892642613e+00 -9.5042345413e-04 2.6860739253e+00 -4.6524165116e+00 2.6860739253e+00 4.6524165116e+00 
267200 4.6892642353e+00 -9.4995223806e-04 2.6860916170e+00 -4.6524471545e+00 2.6860916170e+00 4.6524471545e+00 
267300 4.6892642093e+00 -9.4948119563e-04 2.6861092998e+00 -4.6524777820e+00 2.6861092998e+00 4.6524777820e+00 
267400 4.6892641834e+00 -9.4901032686e-04 2.6861269738e+00 -4.6525083942e+00 2.6861269738e+00 4.6525083942e+00 
267500 4.6892641574e+00 -9.4853963181e-04 2.6861446388e+00 -4.6525389909e+00 2.6861446388e+00 4.6525389909e+00 
267600 4.6892641315e+00 -9.4806911051e-04 2.6861622950e+00 -4.6525695723e+00 2.6861622950e+00 4.6525695723e+00 
267700 4.6892641056e+00 -9.4759876298e-04 2.6861799423e+00 -4.6526001383e+00 2.6861799423e+00 4.6526001383e+00 
267800 4.6892640798e+00 -9.4712858928e-04 2.6861975807e+00 -4.6526306890e+00 2.6861975807e+00 4.6526306890e+00 
267900 4.6892640540e+00 -9.4665858943e-04 2.6862152103e+00 -4.6526612243e+00 2.6862152103e+00 4.6526612243e+00 
268000 4.6892640282e+00 -9.4618876348e-04 2.6862328310e+00 -4.6526917442e+00 2.6862328310e+00 4.6526917442e+00 
268100 4.6892640024e+00 -9.4571911145e-04 2.6862504428e+00 -4.6527222488e+00 2.6862504428e+00 4.6527222488e+00 
268200 4.6892639766e+00 -9.4524963339e-04 2.6862680458e+00 -4.6527527381e+00 2.6862680458e+00 4.6527527381e+00 
268300 4.6892639509e+00 -9.4478032932e-04 2.6862856399e+00 -4.6527832120e+00 2.6862856399e+00 4.6527832120e+00 
268400 4.6892639252e+00 -9.4431119929e-04 2.6863032252e+00 -4.6528136706e+00 2.6863032252e+00 4.6528136706e+00 
268500 4.6892638996e+00 -9.4384224332e-04 2.6863208016e+00 -4.6528441138e+00 2.6863208016e+00 4.6528441138e+00 
268600 4.6892638739e+00 -9.4337346146e-04 2.6863383692e+00 -4.6528745418e+00 2.6863383692e+00 4.6528745418e+00 
268700 4.6892638483e+00 -9.4290485374e-04 2.6863559279e+00 -4.6529049544e+00 2.6863559279e+00 4.6529049544e+00 
268800 4.6892638227e+00 -9.4243642018e-04 2.6863734779e+00 -4.6529353517e+00 2.6863734779e+00 4.6529353517e+00 
268900 4.6892637971e+00 -9.4196816084e-04 2.6863910189e+00 -4.6529657338e+00 2.6863910189e+00 4.6529657338e+00 
269000 4.6892637716e+00 -9.4150007573e-04 2.6864085512e+00 -4.6529961005e+00 2.6864085512e+00 4.6529961005e+00 
269100 4.6892637461e+00 -9.4103216490e-04 2.6864260746e+00 -4.6530264520e+00 2.6864260746e+00 4.6530264520e+00 
269200 4.6892637206e+00 -9.4056442837e-04 2.6864435892e+00 -4.6530567881e+00 2.6864435892e+00 4.6530567881e+00 
269300 4.6892636951e+00 -9.4009686619e-04 2.6864610949e+00 -4.6530871090e+00 2.6864610949e+00 4.6530871090e+00 
269400 4.6892636697e+00 -9.3962947837e-04 2.6864785919e+00 -4.6531174146e+00 2.6864785919e+00 4.6531174146e+00 
269500 4.6892636442e+00 -9.3916226497e-04 2.6864960801e+00 -4.6531477050e+00 2.6864960801e+00 4.6531477050e+00 
269600 4.6892636188e+00 -9.3869522600e-04 2.6865135594e+00 -4.6531779801e+00 2.6865135594e+00 4.6531779801e+00 
269700 4.6892635935e+00 -9.3822836150e-04 2.6865310299e+00 -4.6532082399e+00 2.6865310299e+00 4.6532082399e+00 
269800 4.6892635681e+00 -9.3776167151e-04 2.6865484916e+00 -4.6532384845e+00 2.6865484916e+00 4.6532384845e+00 
269900 4.6892635428e+00 -9.3729515606e-04 2.6865659446e+00 -4.6532687139e+00 2.6865659446e+00 4.6532687139e+00 
270000 4.6892635175e+00 -9.3682881517e-04 2.6865833887e+00 -4.6532989280e+00 2.6865833887e+00 4.6532989280e+00 
270100 4.6892634923e+00 -9.3636264888e-04 2.6866008240e+00 -4.6533291269e+00 2.6866008240e+00 4.6533291269e+00 
270200 4.6892634670e+00 -9.3589665722e-04 2.6866182506e+00 -4.6533593106e+00 2.6866182506e+00 4.6533593106e+00 
270300 4.6892634418e+00 -9.3543084023e-04 2.6866356684e+00 -4.6533894790e+00 2.6866356684e+00 4.6533894790e+00 
270400 4.6892634166e+00 -9.3496519793e-04 2.6866530773e+00 -4.6534196323e+00 2.6866530773e+00 4.6534196323e+00 
270500 4.6892633914e+00 -9.3449973035e-04 2.6866704775e+00 -4.6534497703e+00 2.6866704775e+00 4.6534497703e+00 
270600 4.6892633663e+00 -9.3403443753e-04 2.6866878690e+00 -4.6534798931e+00 2.6866878690e+00 4.6534798931e+00 
270700 4.6892633412e+00 -9.3356931950e-04 2.6867052516e+00 -4.6535100008e+00 2.6867052516e+00 4.6535100008e+00 
270800 4.6892633161e+00 -9.3310437628e-04 2.6867226255e+00 -4.6535400932e+00 2.6867226255e+00 4.6535400932e+00 
270900 4.6892632910e+00 -9.3263960791e-04 2.6867399906e+00 -4.6535701705e+00 2.6867399906e+00 4.6535701705e+00 
271000 4.6892632660e+00 -9.3217501442e-04 2.6867573470e+00 -4.6536002326e+00 2.6867573470e+00 4.6536002326e+00 
271100 4.6892632410e+00 -9.3171059583e-04 2.6867746946e+00 -4.6536302795e+00 2.6867746946e+00 4.6536302795e+00 
271200 4.6892632160e+00 -9.3124635217e-04 2.6867920334e+00 -4.6536603113e+00 2.6867920334e+00 4.6536603113e+00 
271300 4.6892631910e+00 -9.3078228349e-04 2.6868093635e+00 -4.6536903279e+00 2.6868093635e+00 4.6536903279e+00 
271400 4.6892631661e+00 -9.3031838980e-04 2.6868266849e+00 -4.6537203294e+00 2.6868266849e+00 4.6537203294e+00 
271500 4.6892631412e+00 -9.2985467113e-04 2.6868439975e+00 -4.6537503157e+00 2.6868439975e+00 4.6537503157e+00 
271600 4.6892631163e+00 -9.2939112751e-04 2.6868613014e+00 -4.6537802869e+00 2.6868613014e+00 4.6537802869e+00 
271700 4.6892630914e+00 -9.2892775897e-04 2.6868785965e+00 -4.6538102429e+00 2.6868785965e+00 4.6538102429e+00 
271800 4.6892630666e+00 -9.2846456555e-04 2.6868958829e+00 -4.6538401838e+00 2.6868958829e+00 4.6538401838e+00 
271900 4.6892630418e+00 -9.2800154726e-04 2.6869131605e+00 -4.6538701096e+00 2.6869131605e+00 4.6538701096e+00 
272000 4.6892630170e+00 -9.2753870414e-04 2.6869304295e+00 -4.6539000203e+00 2.6869304295e+00 4.6539000203e+00 
272100 4.6892629922e+00 -9.2707603621e-04 2.6869476897e+00 -4.6539299158e+00 2.6869476897e+00 4.6539299158e+00 
272200 4.6892629675e+00 -9.2661354350e-04 2.6869649412e+00 -4.6539597963e+00 2.6869649412e+00 4.6539597963e+00 
272300 4.6892629427e+00 -9.2615122605e-04 2.6869821840e+00 -4.6539896616e+00 2.6869821840e+00 4.6539896616e+00 
272400 4.6892629180e+00 -9.2568908386e-04 2.6869994180e+00 -4.6540195119e+00 2.6869994180e+00 4.6540195119e+00 
272500 4.6892628934e+00 -9.2522711699e-04 2.6870166434e+00 -4.6540493471e+00 2.6870166434e+00 4.6540493471e+00 
272600 4.6892628687e+00 -9.2476532544e-04 2.6870338600e+00 -4.6540791672e+00 2.6870338600e+00 4.6540791672e+00 
272700 4.6892628441e+00 -9.2430370925e-04 2.6870510679e+00 -4.6541089722e+00 2.6870510679e+00 4.6541089722e+00 
272800 4.6892628195e+00 -9.2384226844e-04 2.6870682672e+00 -4.6541387622e+00 2.6870682672e+00 4.6541387622e+00 
272900 4.6892627950e+00 -9.2338100304e-04 2.6870854577e+00 -4.6541685371e+00 2.6870854577e+00 4.6541685371e+00 
273000 4.6892627704e+00 -9.2291991308e-04 2.6871026396e+00 -4.6541982969e+00 2.6871026396e+00 4.6541982969e+00 
273100 4.6892627459e+00 -9.2245899859e-04 2.6871198127e+00 -4.6542280417e+00 2.6871198127e+00 4.6542280417e+00 
273200 4.6892627214e+00 -9.2199825958e-04 2.6871369772e+00 -4.6542577714e+00 2.6871369772e+00 4.6542577714e+00 
273300 4.6892626969e+00 -9.2153769608e-04 2.6871541330e+00 -4.6542874861e+00 2.6871541330e+00 4.6542874861e+00 
273400 4.6892626725e+00 -9.2107730812e-04 2.6871712801e+00 -4.6543171858e+00 2.6871712801e+00 4.6543171858e+00 
273500 4.6892626481e+00 -9.2061709573e-04 2.6871884186e+00 -4.6543468704e+00 2.6871884186e+00 4.6543468704e+00 
273600 4.6892626237e+00 -9.2015705893e-04 2.6872055483e+00 -4.6543765401e+00 2.6872055483e+00 4.6543765401e+00 
273700 4.6892625993e+00 -9.1969719774e-04 2.6872226694e+00 -4.6544061947e+00 2.6872226694e+00 4.6544061947e+00 
273800 4.6892625749e+00 -9.1923751219e-04 2.6872397818e+00 -4.6544358343e+00 2.6872397818e+00 4.6544358343e+00 
273900 4.6892625506e+00 -9.1877800230e-04 2.6872568856e+00 -4.6544654589e+00 2.6872568856e+00 4.6544654589e+00 
274000 4.6892625263e+00 -9.1831866810e-04 2.6872739807e+00 -4.6544950685e+00 2.6872739807e+00 4.6544950685e+00 
274100 4.6892625020e+00 -9.1785950962e-04 2.6872910672e+00 -4.6545246631e+00 2.6872910672e+00 4.6545246631e+00 
274200 4.6892624778e+00 -9.1740052687e-04 2.6873081450e+00 -4.6545542427e+00 2.6873081450e+00 4.6545542427e+00 
274300 4.6892624536e+00 -9.1694171988e-04 2.6873252141e+00 -4.6545838073e+00 2.6873252141e+00 4.6545838073e+00 
274400 4.6892624294e+00 -9.1648308867e-04 2.6873422746e+00 -4.6546133570e+00 2.6873422746e+00 4.6546133570e+00 
274500 4.6892624052e+00 -9.1602463327e-04 2.6873593265e+00 -4.6546428917e+00 2.6873593265e+00 4.6546428917e+00 
274600 4.6892623810e+00 -9.1556635370e-04 2.6873763697e+00 -4.6546724114e+00 2.6873763697e+00 4.6546724114e+00 
274700 4.6892623569e+00 -9.1510824998e-04 2.6873934043e+00 -4.6547019162e+00 2.6873934043e+00 4.6547019162e+00 
274800 4.6892623328e+00 -9.1465032214e-04 2.6874104303e+00 -4.6547314060e+00 2.6874104303e+00 4.6547314060e+00 
274900 4.6892623087e+00 -9.1419257020e-04 2.6874274476e+00 -4.6547608809e+00 2.6874274476e+00 4.6547608809e+00 
275000 4.6892622846e+00 -9.1373499418e-04 2.6874444563e+00 -4.6547903409e+00 2.6874444563e+00 4.6547903409e+00 
275100 4.6892622606e+00 -9.1327759411e-04 2.6874614564e+00 -4.6548197859e+00 2.6874614564e+00 4.6548197859e+00 
275200 4.6892622366e+00 -9.1282037000e-04 2.6874784479e+00 -4.6548492160e+00 2.6874784479e+00 4.6548492160e+00 
275300 4.6892622126e+00 -9.1236332187e-04 2.6874954308e+00 -4.6548786312e+00 2.6874954308e+00 4.6548786312e+00 
275400 4.6892621887e+00 -9.1190644976e-04 2.6875124050e+00 -4.6549080314e+00 2.6875124050e+00 4.6549080314e+00 
275500 4.6892621647e+00 -9.1144975368e-04 2.6875293706e+00 -4.6549374168e+00 2.6875293706e+00 4.6549374168e+00 
275600 4.6892621408e+00 -9.1099323365e-04 2.6875463277e+00 -4.6549667872e+00 2.6875463277e+00 4.6549667872e+00 
275700 4.6892621169e+00 -9.1053688969e-04 2.6875632761e+00 -4.6549961428e+00 2.6875632761e+00 4.6549961428e+00 
275800 4.6892620930e+00 -9.1008072183e-04 2.6875802160e+00 -4.6550254835e+00 2.6875802160e+00 4.6550254835e+00 
275900 4.6892620692e+00 -9.0962473009e-04 2.6875971472e+00 -4.6550548092e+00 2.6875971472e+00 4.6550548092e+00 
276000 4.6892620454e+00 -9.0916891448e-04 2.6876140699e+00 -4.6550841201e+00 2.6876140699e+00 4.6550841201e+00 
276100 4.6892620216e+00 -9.0871327503e-04 2.6876309839e+00 -4.6551134162e+00 2.6876309839e+00 4.6551134162e+00 
276200 4.6892619978e+00 -9.0825781176e-04 2.6876478894e+00 -4.6551426973e+00 2.6876478894e+00 4.6551426973e+00 
276300 4.6892619741e+00 -9.0780252468e-04 2.6876647863e+00 -4.6551719636e+00 2.6876647863e+00 4.6551719636e+00 
276400 4.6892619504e+00 -9.0734741382e-04 2.6876816747e+00 -4.6552012151e+00 2.6876816747e+00 4.6552012151e+00 
276500 4.6892619267e+00 -9.0689247920e-04 2.6876985544e+00 -4.6552304517e+00 2.6876985544e+00 4.6552304517e+00 
276600 4.6892619030e+00 -9.0643772084e-04 2.6877154256e+00 -4.6552596734e+00 2.6877154256e+00 4.6552596734e+00 
276700 4.6892618793e+00 -9.0598313875e-04 2.6877322882e+00 -4.6552888804e+00 2.6877322882e+00 4.6552888804e+00 
276800 4.6892618557e+00 -9.0552873296e-04 2.6877491423e+00 -4.6553180724e+00 2.6877491423e+00 4.6553180724e+00 
276900 4.6892618321e+00 -9.0507450349e-04 2.6877659878e+00 -4.6553472497e+00 2.6877659878e+00 4.6553472497e+00 
277000 4.6892618085e+00 -9.0462045035e-04 2.6877828247e+00 -4.6553764122e+00 2.6877828247e+00 4.6553764122e+00 
277100 4.6892617850e+00 -9.0416657356e-04 2.6877996531e+00 -4.6554055598e+00 2.6877996531e+00 4.6554055598e+00 
277200 4.6892617614e+00 -9.0371287314e-04 2.6878164730e+00 -4.6554346926e+00 2.6878164730e+00 4.6554346926e+00 
277300 4.6892617379e+00 -9.0325934912e-04 2.6878332843e+00 -4.6554638106e+00 2.6878332843e+00 4.6554638106e+00 
277400 4.6892617144e+00 -9.0280600150e-04 2.6878500870e+00 -4.6554929139e+00 2.6878500870e+00 4.6554929139e+00 
277500 4.6892616910e+00 -9.0235283031e-04 2.6878668813e+00 -4.6555220023e+00 2.6878668813e+00 4.6555220023e+00 
277600 4.6892616675e+00 -9.0189983556e-04 2.6878836669e+00 -4.6555510760e+00 2.6878836669e+00 4.6555510760e+00 
277700 4.6892616441e+00 -9.0144701727e-04 2.6879004441e+00 -4.6555801349e+00 2.6879004441e+00 4.6555801349e+00 
277800 4.6892616207e+00 -9.0099437547e-04 2.6879172127e+00 -4.6556091790e+00 2.6879172127e+00 4.6556091790e+00 
277900 4.6892615974e+00 -9.0054191016e-04 2.6879339728e+00 -4.6556382083e+00 2.6879339728e+00 4.6556382083e+00 
278000 4.6892615740e+00 -9.0008962136e-04 2.6879507244e+00 -4.6556672229e+00 2.6879507244e+00 4.6556672229e+00 
278100 4.6892615507e+00 -8.9963750910e-04 2.6879674675e+00 -4.6556962227e+00 2.6879674675e+00 4.6556962227e+00 
278200 4.6892615274e+00 -8.9918557338e-04 2.6879842020e+00 -4.6557252078e+00 2.6879842020e+00 4.6557252078e+00 
278300 4.6892615041e+00 -8.9873381423e-04 2.6880009281e+00 -4.6557541782e+00 2.6880009281e+00 4.6557541782e+00 
278400 4.6892614809e+00 -8.9828223166e-04 2.6880176456e+00 -4.6557831338e+00 2.6880176456e+00 4.6557831338e+00 
278500 4.6892614576e+00 -8.9783082569e-04 2.6880343546e+00 -4.6558120747e+00 2.6880343546e+00 4.6558120747e+00 
278600 4.6892614344e+00 -8.9737959633e-04 2.6880510551e+00 -4.6558410008e+00 2.6880510551e+00 4.6558410008e+00 
278700 4.6892614113e+00 -8.9692854361e-04 2.6880677472e+00 -4.6558699123e+00 2.6880677472e+00 4.6558699123e+00 
278800 4.6892613881e+00 -8.9647766752e-04 2.6880844307e+00 -4.6558988090e+00 2.6880844307e+00 4.6558988090e+00 
278900 4.6892613650e+00 -8.9602696810e-04 2.6881011057e+00 -4.6559276910e+00 2.6881011057e+00 4.6559276910e+00 
279000 4.6892613419e+00 -8.9557644536e-04 2.6881177723e+00 -4.6559565584e+00 2.6881177723e+00 4.6559565584e+00 
279100 4.6892613188e+00 -8.9512609931e-04 2.6881344304e+00 -4.6559854110e+00 2.6881344304e+00 4.6559854110e+00 
279200 4.6892612957e+00 -8.9467592997e-04 2.6881510800e+00 -4.6560142489e+00 2.6881510800e+00 4.6560142489e+00 
279300 4.6892612727e+00 -8.9422593734e-04 2.6881677211e+00 -4.6560430722e+00 2.6881677211e+00 4.6560430722e+00 
279400 4.6892612496e+00 -8.9377612146e-04 2.6881843537e+00 -4.6560718808e+00 2.6881843537e+00 4.6560718808e+00 
279500 4.6892612266e+00 -8.9332648233e-04 2.6882009779e+00 -4.6561006747e+00 2.6882009779e+00 4.6561006747e+00 
279600 4.6892612037e+00 -8.9287701996e-04 2.6882175936e+00 -4.6561294540e+00 2.6882175936e+00 4.6561294540e+00 
279700 4.6892611807e+00 -8.9242773438e-04 2.6882342009e+00 -4.6561582186e+00 2.6882342009e+00 4.6561582186e+00 
279800 4.6892611578e+00 -8.9197862559e-04 2.6882507997e+00 -4.6561869685e+00 2.6882507997e+00 4.6561869685e+00 
279900 4.6892611349e+00 -8.9152969361e-04 2.6882673900e+00 -4.6562157038e+00 2.6882673900e+00 4.6562157038e+00 
280000 4.6892611120e+00 -8.9108093845e-04 2.6882839719e+00 -4.6562444245e+00 2.6882839719e+00 4.6562444245e+00 
280100 4.6892610892e+00 -8.9063236013e-04 2.6883005453e+00 -4.6562731305e+00 2.6883005453e+00 4.6562731305e+00 
280200 4.6892610663e+00 -8.9018395866e-04 2.6883171103e+00 -4.6563018219e+00 2.6883171103e+00 4.6563018219e+00 
280300 4.6892610435e+00 -8.8973573406e-04 2.6883336668e+00 -4.6563304987e+00 2.6883336668e+00 4.6563304987e+00 
280400 4.6892610207e+00 -8.8928768633e-04 2.6883502150e+00 -4.6563591608e+00 2.6883502150e+00 4.6563591608e+00 
280500 4.6892609980e+00 -8.8883981549e-04 2.6883667546e+00 -4.6563878084e+00 2.6883667546e+00 4.6563878084e+00 
280600 4.6892609752e+00 -8.8839212155e-04 2.6883832859e+00 -4.6564164413e+00 2.6883832859e+00 4.6564164413e+00 
280700 4.6892609525e+00 -8.8794460453e-04 2.6883998087e+00 -4.6564450597e+00 2.6883998087e+00 4.6564450597e+00 
280800 4.6892609298e+00 -8.8749726443e-04 2.6884163231e+00 -4.6564736634e+00 2.6884163231e+00 4.6564736634e+00 
280900 4.6892609071e+00 -8.8705010128e-04 2.6884328290e+00 -4.6565022526e+00 2.6884328290e+00 4.6565022526e+00 
281000 4.6892608845e+00 -8.8660311507e-04 2.6884493266e+00 -4.6565308272e+00 2.6884493266e+00 4.6565308272e+00 
281100 4.6892608619e+00 -8.8615630584e-04 2.6884658157e+00 -4.6565593872e+00 2.6884658157e+00 4.6565593872e+00 
281200 4.6892608392e+00 -8.8570967358e-04 2.6884822964e+00 -4.6565879327e+00 2.6884822964e+00 4.6565879327e+00 
281300 4.6892608167e+00 -8.8526321830e-04 2.6884987688e+00 -4.6566164636e+00 2.6884987688e+00 4.6566164636e+00 
281400 4.6892607941e+00 -8.8481694003e-04 2.6885152327e+00 -4.6566449799e+00 2.6885152327e+00 4.6566449799e+00 
281500 4.6892607716e+00 -8.8437083876e-04 2.6885316882e+00 -4.6566734817e+00 2.6885316882e+00 4.6566734817e+00 
281600 4.6892607491e+00 -8.8392491452e-04 2.6885481353e+00 -4.6567019689e+00 2.6885481353e+00 4.6567019689e+00 
281700 4.6892607266e+00 -8.8347916731e-04 2.6885645740e+00 -4.6567304416e+00 2.6885645740e+00 4.6567304416e+00 
281800 4.6892607041e+00 -8.8303359715e-04 2.6885810043e+00 -4.6567588998e+00 2.6885810043e+00 4.6567588998e+00 
281900 4.6892606816e+00 -8.8258820404e-04 2.6885974263e+00 -4.6567873434e+00 2.6885974263e+00 4.6567873434e+00 
282000 4.6892606592e+00 -8.8214298799e-04 2.6886138398e+00 -4.6568157725e+00 2.6886138398e+00 4.6568157725e+00 
282100 4.6892606368e+00 -8.8169794902e-04 2.6886302450e+00 -4.6568441871e+00 2.6886302450e+00 4.6568441871e+00 
282200 4.6892606144e+00 -8.8125308714e-04 2.6886466418e+00 -4.6568725872e+00 2.6886466418e+00 4.6568725872e+00 
282300 4.6892605921e+00 -8.8080840235e-04 2.6886630303e+00 -4.6569009728e+00 2.6886630303e+00 4.6569009728e+00 
282400 4.6892605698e+00 -8.8036389467e-04 2.6886794103e+00 -4.6569293439e+00 2.6886794103e+00 4.6569293439e+00 
282500 4.6892605474e+00 -8.7991956411e-04 2.6886957820e+00 -4.6569577005e+00 2.6886957820e+00 4.6569577005e+00 
282600 4.6892605252e+00 -8.7947541067e-04 2.6887121453e+00 -4.6569860427e+00 2.6887121453e+00 4.6569860427e+00 
282700 4.6892605029e+00 -8.7903143436e-04 2.6887285003e+00 -4.6570143703e+00 2.6887285003e+00 4.6570143703e+00 
282800 4.6892604806e+00 -8.7858763520e-04 2.6887448469e+00 -4.6570426835e+00 2.6887448469e+00 4.6570426835e+00 
282900 4.6892604584e+00 -8.7814401319e-04 2.6887611852e+00 -4.6570709822e+00 2.6887611852e+00 4.6570709822e+00 
283000 4.6892604362e+00 -8.7770056835e-04 2.6887775151e+00 -4.6570992664e+00 2.6887775151e+00 4.6570992664e+00 
283100 4.6892604141e+00 -8.7725730067e-04 2.6887938367e+00 -4.6571275362e+00 2.6887938367e+00 4.6571275362e+00 
283200 4.6892603919e+00 -8.7681421018e-04 2.6888101499e+00 -4.6571557916e+00 2.6888101499e+00 4.6571557916e+00 
283300 4.6892603698e+00 -8.7637129687e-04 2.6888264548e+00 -4.6571840325e+00 2.6888264548e+00 4.6571840325e+00 
283400 4.6892603477e+00 -8.7592856076e-04 2.6888427514e+00 -4.6572122589e+00 2.6888427514e+00 4.6572122589e+00 
283500 4.6892603256e+00 -8.7548600185e-04 2.6888590396e+00 -4.6572404710e+00 2.6888590396e+00 4.6572404710e+00 
283600 4.6892603035e+00 -8.7504362016e-04 2.6888753195e+00 -4.6572686686e+00 2.6888753195e+00 4.6572686686e+00 
283700 4.6892602815e+00 -8.7460141569e-04 2.6888915911e+00 -4.6572968518e+00 2.6888915911e+00 4.6572968518e+00 
283800 4.6892602594e+00 -8.7415938844e-04 2.6889078543e+00 -4.6573250205e+00 2.6889078543e+00 4.6573250205e+00 
283900 4.6892602374e+00 -8.7371753844e-04 2.6889241092e+00 -4.6573531749e+00 2.6889241092e+00 4.6573531749e+00 
284000 4.6892602155e+00 -8.7327586567e-04 2.6889403559e+00 -4.6573813149e+00 2.6889403559e+00 4.6573813149e+00 
284100 4.6892601935e+00 -8.7283437016e-04 2.6889565942e+00 -4.6574094404e+00 2.6889565942e+00 4.6574094404e+00 
284200 4.6892601716e+00 -8.7239305190e-04 2.6889728242e+00 -4.6574375516e+00 2.6889728242e+00 4.6574375516e+00 
284300 4.6892601497e+00 -8.7195191091e-04 2.6889890459e+00 -4.6574656484e+00 2.6889890459e+00 4.6574656484e+00 
284400 4.6892601278e+00 -8.7151094719e-04 2.6890052592e+00 -4.6574937308e+00 2.6890052592e+00 4.6574937308e+00 
284500 4.6892601059e+00 -8.7107016075e-04 2.6890214643e+00 -4.6575217989e+00 2.6890214643e+00 4.6575217989e+00 
284600 4.6892600841e+00 -8.7062955159e-04 2.6890376611e+00 -4.6575498526e+00 2.6890376611e+00 4.6575498526e+00 
284700 4.6892600623e+00 -8.7018911972e-04 2.6890538497e+00 -4.6575778919e+00 2.6890538497e+00 4.6575778919e+00 
284800 4.6892600405e+00 -8.6974886515e-04 2.6890700299e+00 -4.6576059169e+00 2.6890700299e+00 4.6576059169e+00 
284900 4.6892600187e+00 -8.6930878788e-04 2.6890862018e+00 -4.6576339275e+00 2.6890862018e+00 4.6576339275e+00 
285000 4.6892599969e+00 -8.6886888793e-04 2.6891023655e+00 -4.6576619238e+00 2.6891023655e+00 4.6576619238e+00 
285100 4.6892599752e+00 -8.6842916528e-04 2.6891185209e+00 -4.6576899057e+00 2.6891185209e+00 4.6576899057e+00 
285200 4.6892599535e+00 -8.6798961996e-04 2.6891346680e+00 -4.6577178734e+00 2.6891346680e+00 4.6577178734e+00 
285300 4.6892599318e+00 -8.6755025196e-04 2.6891508068e+00 -4.6577458267e+00 2.6891508068e+00 4.6577458267e+00 
285400 4.6892599101e+00 -8.6711106129e-04 2.6891669374e+00 -4.6577737656e+00 2.6891669374e+00 4.6577737656e+00 
285500 4.6892598885e+00 -8.6667204796e-04 2.6891830597e+00 -4.6578016903e+00 2.6891830597e+00 4.6578016903e+00 
285600 4.6892598669e+00 -8.6623321197e-04 2.6891991738e+00 -4.6578296007e+00 2.6891991738e+00 4.6578296007e+00 
285700 4.6892598453e+00 -8.6579455333e-04 2.6892152796e+00 -4.6578574967e+00 2.6892152796e+00 4.6578574967e+00 
285800 4.6892598237e+00 -8.6535607204e-04 2.6892313771e+00 -4.6578853785e+00 2.6892313771e+00 4.6578853785e+00 
285900 4.6892598021e+00 -8.6491776810e-04 2.6892474664e+00 -4.6579132460e+00 2.6892474664e+00 4.6579132460e+00 
286000 4.6892597806e+00 -8.6447964152e-04 2.6892635475e+00 -4.6579410992e+00 2.6892635475e+00 4.6579410992e+00 
286100 4.6892597591e+00 -8.6404169230e-04 2.6892796203e+00 -4.6579689381e+00 2.6892796203e+00 4.6579689381e+00 
286200 4.6892597376e+00 -8.6360392045e-04 2.6892956849e+00 -4.6579967628e+00 2.6892956849e+00 4.6579967628e+00 
286300 4.6892597161e+00 -8.6316632598e-04 2.6893117412e+00 -4.6580245732e+00 2.6893117412e+00 4.6580245732e+00 
286400 4.6892596947e+00 -8.6272890887e-04 2.6893277893e+00 -4.6580523693e+00 2.6893277893e+00 4.6580523693e+00 
286500 4.6892596732e+00 -8.6229166915e-04 2.6893438292e+00 -4.6580801512e+00 2.6893438292e+00 4.6580801512e+00 
286600 4.6892596518e+00 -8.6185460681e-04 2.6893598608e+00 -4.6581079188e+00 2.6893598608e+00 4.6581079188e+00 
286700 4.6892596305e+00 -8.6141772185e-04 2.6893758843e+00 -4.6581356722e+00 2.6893758843e+00 4.6581356722e+00 
286800 4.6892596091e+00 -8.6098101429e-04 2.6893918995e+00 -4.6581634114e+00 2.6893918995e+00 4.6581634114e+00 
286900 4.6892595878e+00 -8.6054448411e-04 2.6894079065e+00 -4.6581911363e+00 2.6894079065e+00 4.6581911363e+00 
287000 4.6892595664e+00 -8.6010813133e-04 2.6894239053e+00 -4.6582188470e+00 2.6894239053e+00 4.6582188470e+00 
287100 4.6892595451e+00 -8.5967195595e-04 2.6894398959e+00 -4.6582465435e+00 2.6894398959e+00 4.6582465435e+00 
287200 4.6892595239e+00 -8.5923595797e-04 2.6894558782e+00 -4.6582742258e+00 2.6894558782e+00 4.6582742258e+00 
287300 4.6892595026e+00 -8.5880013739e-04 2.6894718524e+00 -4.6583018939e+00 2.6894718524e+00 4.6583018939e+00 
287400 4.6892594814e+00 -8.5836449421e-04 2.6894878184e+00 -4.6583295478e+00 2.6894878184e+00 4.6583295478e+00 
287500 4.6892594602e+00 -8.5792902844e-04 2.6895037762e+00 -4.6583571875e+00 2.6895037762e+00 4.6583571875e+00 
287600 4.6892594390e+00 -8.5749374008e-04 2.6895197258e+00 -4.6583848130e+00 2.6895197258e+00 4.6583848130e+00 
287700 4.6892594178e+00 -8.5705862913e-04 2.6895356672e+00 -4.6584124243e+00 2.6895356672e+00 4.6584124243e+00 
287800 4.6892593967e+00 -8.5662369560e-04 2.6895516004e+00 -4.6584400215e+00 2.6895516004e+00 4.6584400215e+00 
287900 4.6892593755e+00 -8.5618893947e-04 2.6895675254e+00 -4.6584676044e+00 2.6895675254e+00 4.6584676044e+00 
288000 4.6892593544e+00 -8.5575436077e-04 2.6895834423e+00 -4.6584951733e+00 2.6895834423e+00 4.6584951733e+00 
288100 4.6892593333e+00 -8.5531995947e-04 2.6895993510e+00 -4.6585227279e+00 2.6895993510e+00 4.6585227279e+00 
288200 4.6892593123e+00 -8.5488573560e-04 2.6896152515e+00 -4.6585502684e+00 2.6896152515e+00 4.6585502684e+00 
288300 4.6892592912e+00 -8.5445168915e-04 2.6896311439e+00 -4.6585777948e+00 2.6896311439e+00 4.6585777948e+00 
288400 4.6892592702e+00 -8.5401782011e-04 2.6896470281e+00 -4.6586053071e+00 2.6896470281e+00 4.6586053071e+00 
288500 4.6892592492e+00 -8.5358412849e-04 2.6896629041e+00 -4.6586328052e+00 2.6896629041e+00 4.6586328052e+00 
288600 4.6892592282e+00 -8.5315061430e-04 2.6896787720e+00 -4.6586602891e+00 2.6896787720e+00 4.6586602891e+00 
288700 4.6892592073e+00 -8.5271727753e-04 2.6896946317e+00 -4.6586877590e+00 2.6896946317e+00 4.6586877590e+00 
288800 4.6892591864e+00 -8.5228411817e-04 2.6897104833e+00 -4.6587152147e+00 2.6897104833e+00 4.6587152147e+00 
288900 4.6892591654e+00 -8.5185113624e-04 2.6897263267e+00 -4.6587426564e+00 2.6897263267e+00 4.6587426564e+00 
289000 4.6892591446e+00 -8.5141833173e-04 2.6897421620e+00 -4.6587700839e+00 2.6897421620e+00 4.6587700839e+00 
289100 4.6892591237e+00 -8.5098570465e-04 2.6897579892e+00 -4.6587974973e+00 2.6897579892e+00 4.6587974973e+00 
289200 4.6892591028e+00 -8.5055325498e-04 2.6897738082e+00 -4.6588248967e+00 2.6897738082e+00 4.6588248967e+00 
289300 4.6892590820e+00 -8.5012098273e-04 2.6897896191e+00 -4.6588522819e+00 2.6897896191e+00 4.6588522819e+00 
289400 4.6892590612e+00 -8.4968888791e-04 2.6898054218e+00 -4.6588796531e+00 2.6898054218e+00 4.6588796531e+00 
289500 4.6892590404e+00 -8.4925697050e-04 2.6898212165e+00 -4.6589070102e+00 2.6898212165e+00 4.6589070102e+00 
289600 4.6892590197e+00 -8.4882523051e-04 2.6898370030e+00 -4.6589343532e+00 2.6898370030e+00 4.6589343532e+00 
289700 4.6892589989e+00 -8.4839366794e-04 2.6898527814e+00 -4.6589616822e+00 2.6898527814e+00 4.6589616822e+00 
289800 4.6892589782e+00 -8.4796228278e-04 2.6898685516e+00 -4.6589889971e+00 2.6898685516e+00 4.6589889971e+00 
289900 4.6892589575e+00 -8.4753107504e-04 2.6898843138e+00 -4.6590162980e+00 2.6898843138e+00 4.6590162980e+00 
290000 4.6892589368e+00 -8.4710004472e-04 2.6899000679e+00 -4.6590435848e+00 2.6899000679e+00 4.6590435848e+00 
290100 4.6892589161e+00 -8.4666919180e-04 2.6899158138e+00 -4.6590708576e+00 2.6899158138e+00 4.6590708576e+00 
290200 4.6892588955e+00 -8.4623851630e-04 2.6899315517e+00 -4.6590981164e+00 2.6899315517e+00 4.6590981164e+00 
290300 4.6892588749e+00 -8.4580801820e-04 2.6899472814e+00 -4.6591253611e+00 2.6899472814e+00 4.6591253611e+00 
290400 4.6892588543e+00 -8.4537769751e-04 2.6899630031e+00 -4.6591525918e+00 2.6899630031e+00 4.6591525918e+00 
290500 4.6892588337e+00 -8.4494755422e-04 2.6899787167e+00 -4.6591798085e+00 2.6899787167e+00 4.6591798085e+00 
290600 4.6892588132e+00 -8.4451758834e-04 2.6899944222e+00 -4.6592070112e+00 2.6899944222e+00 4.6592070112e+00 
290700 4.6892587926e+00 -8.4408779985e-04 2.6900101196e+00 -4.6592341999e+00 2.6900101196e+00 4.6592341999e+00 
290800 4.6892587721e+00 -8.4365818877e-04 2.6900258089e+00 -4.6592613746e+00 2.6900258089e+00 4.6592613746e+00 
290900 4.6892587516e+00 -8.4322875507e-04 2.6900414901e+00 -4.6592885353e+00 2.6900414901e+00 4.6592885353e+00 
291000 4.6892587311e+00 -8.4279949877e-04 2.6900571633e+00 -4.6593156821e+00 2.6900571633e+00 4.6593156821e+00 
291100 4.6892587107e+00 -8.4237041986e-04 2.6900728284e+00 -4.6593428148e+00 2.6900728284e+00 4.6593428148e+00 
291200 4.6892586903e+00 -8.4194151833e-04 2.6900884854e+00 -4.6593699336e+00 2.6900884854e+00 4.6593699336e+00 
291300 4.6892586699e+00 -8.4151279418e-04 2.6901041344e+00 -4.6593970384e+00 2.6901041344e+00 4.6593970384e+00 
291400 4.6892586495e+00 -8.4108424742e-04 2.6901197753e+00 -4.6594241293e+00 2.6901197753e+00 4.6594241293e+00 
291500 4.6892586291e+00 -8.4065587803e-04 2.6901354082e+00 -4.6594512062e+00 2.6901354082e+00 4.6594512062e+00 
291600 4.6892586088e+00 -8.4022768601e-04 2.6901510330e+00 -4.6594782691e+00 2.6901510330e+00 4.6594782691e+00 
291700 4.6892585884e+00 -8.3979967135e-04 2.6901666497e+00 -4.6595053181e+00 2.6901666497e+00 4.6595053181e+00 
291800 4.6892585681e+00 -8.3937183407e-04 2.6901822584e+00 -4.6595323532e+00 2.6901822584e+00 4.6595323532e+00 
291900 4.6892585478e+00 -8.3894417414e-04 2.6901978591e+00 -4.6595593744e+00 2.6901978591e+00 4.6595593744e+00 
292000 4.6892585276e+00 -8.3851669157e-04 2.6902134517e+00 -4.6595863816e+00 2.6902134517e+00 4.6595863816e+00 
292100 4.6892585073e+00 -8.3808938635e-04 2.6902290363e+00 -4.6596133749e+00 2.6902290363e+00 4.6596133749e+00 
292200 4.6892584871e+00 -8.3766225847e-04 2.6902446129e+00 -4.6596403543e+00 2.6902446129e+00 4.6596403543e+00 
292300 4.6892584669e+00 -8.3723530794e-04 2.6902601814e+00 -4.6596673197e+00 2.6902601814e+00 4.6596673197e+00 
292400 4.6892584467e+00 -8.3680853475e-04 2.6902757419e+00 -4.6596942713e+00 2.6902757419e+00 4.6596942713e+00 
292500 4.6892584266e+00 -8.3638193889e-04 2.6902912944e+00 -4.6597212090e+00 2.6902912944e+00 4.6597212090e+00 
292600 4.6892584064e+00 -8.3595552035e-04 2.6903068388e+00 -4.6597481328e+00 2.6903068388e+00 4.6597481328e+00 
292700 4.6892583863e+00 -8.3552927914e-04 2.6903223753e+00 -4.6597750427e+00 2.6903223753e+00 4.6597750427e+00 
292800 4.6892583662e+00 -8.3510321525e-04 2.6903379037e+00 -4.6598019388e+00 2.6903379037e+00 4.6598019388e+00 
292900 4.6892583461e+00 -8.3467732867e-04 2.6903534242e+00 -4.6598288210e+00 2.6903534242e+00 4.6598288210e+00 
293000 4.6892583261e+00 -8.3425161940e-04 2.6903689366e+00 -4.6598556893e+00 2.6903689366e+00 4.6598556893e+00 
293100 4.6892583060e+00 -8.3382608742e-04 2.6903844410e+00 -4.6598825437e+00 2.6903844410e+00 4.6598825437e+00 
293200 4.6892582860e+00 -8.3340073275e-04 2.6903999374e+00 -4.6599093843e+00 2.6903999374e+00 4.6599093843e+00 
293300 4.6892582660e+00 -8.3297555536e-04 2.6904154259e+00 -4.6599362111e+00 2.6904154259e+00 4.6599362111e+00 
293400 4.6892582460e+00 -8.3255055525e-04 2.6904309063e+00 -4.6599630240e+00 2.6904309063e+00 4.6599630240e+00 
293500 4.6892582261e+00 -8.3212573243e-04 2.6904463788e+00 -4.6599898231e+00 2.6904463788e+00 4.6599898231e+00 
293600 4.6892582061e+00 -8.3170108687e-04 2.6904618432e+00 -4.6600166083e+00 2.6904618432e+00 4.6600166083e+00 
293700 4.6892581862e+00 -8.3127661858e-04 2.6904772997e+00 -4.6600433797e+00 2.6904772997e+00 4.6600433797e+00 
293800 4.6892581663e+00 -8.3085232754e-04 2.6904927482e+00 -4.6600701373e+00 2.6904927482e+00 4.6600701373e+00 
293900 4.6892581464e+00 -8.3042821376e-04 2.6905081888e+00 -4.6600968811e+00 2.6905081888e+00 4.6600968811e+00 
294000 4.6892581266e+00 -8.3000427722e-04 2.6905236213e+00 -4.6601236111e+00 2.6905236213e+00 4.6601236111e+00 
294100 4.6892581067e+00 -8.2958051792e-04 2.6905390459e+00 -4.6601503273e+00 2.6905390459e+00 4.6601503273e+00 
294200 4.6892580869e+00 -8.2915693585e-04 2.6905544626e+00 -4.6601770297e+00 2.6905544626e+00 4.6601770297e+00 
294300 4.6892580671e+00 -8.2873353100e-04 2.6905698713e+00 -4.6602037183e+00 2.6905698713e+00 4.6602037183e+00 
294400 4.6892580473e+00 -8.2831030337e-04 2.6905852720e+00 -4.6602303932e+00 2.6905852720e+00 4.6602303932e+00 
294500 4.6892580276e+00 -8.2788725294e-04 2.6906006647e+00 -4.6602570542e+00 2.6906006647e+00 4.6602570542e+00 
294600 4.6892580079e+00 -8.2746437972e-04 2.6906160496e+00 -4.6602837015e+00 2.6906160496e+00 4.6602837015e+00 
294700 4.6892579881e+00 -8.2704168369e-04 2.6906314264e+00 -4.6603103350e+00 2.6906314264e+00 4.6603103350e+00 
294800 4.6892579684e+00 -8.2661916484e-04 2.6906467954e+00 -4.6603369548e+00 2.6906467954e+00 4.6603369548e+00 
294900 4.6892579488e+00 -8.2619682317e-04 2.6906621564e+00 -4.6603635608e+00 2.6906621564e+00 4.6603635608e+00 
295000 4.6892579291e+00 -8.2577465867e-04 2.6906775094e+00 -4.6603901531e+00 2.6906775094e+00 4.6603901531e+00 
295100 4.6892579095e+00 -8.2535267133e-04 2.6906928545e+00 -4.6604167316e+00 2.6906928545e+00 4.6604167316e+00 
295200 4.6892578899e+00 -8.2493086115e-04 2.6907081917e+00 -4.6604432964e+00 2.6907081917e+00 4.6604432964e+00 
295300 4.6892578703e+00 -8.2450922810e-04 2.6907235210e+00 -4.6604698475e+00 2.6907235210e+00 4.6604698475e+00 
295400 4.6892578507e+00 -8.2408777220e-04 2.6907388423e+00 -4.6604963848e+00 2.6907388423e+00 4.6604963848e+00 
295500 4.6892578311e+00 -8.2366649342e-04 2.6907541558e+00 -4.6605229084e+00 2.6907541558e+00 4.6605229084e+00 
295600 4.6892578116e+00 -8.2324539175e-04 2.6907694613e+00 -4.6605494184e+00 2.6907694613e+00 4.6605494184e+00 
295700 4.6892577921e+00 -8.2282446720e-04 2.6907847589e+00 -4.6605759146e+00 2.6907847589e+00 4.6605759146e+00 
295800 4.6892577726e+00 -8.2240371974e-04 2.6908000486e+00 -4.6606023971e+00 2.6908000486e+00 4.6606023971e+00 
295900 4.6892577531e+00 -8.2198314938e-04 2.6908153303e+00 -4.6606288659e+00 2.6908153303e+00 4.6606288659e+00 
296000 4.6892577337e+00 -8.2156275610e-04 2.6908306042e+00 -4.6606553211e+00 2.6908306042e+00 4.6606553211e+00 
296100 4.6892577142e+00 -8.2114253988e-04 2.6908458702e+00 -4.6606817625e+00 2.6908458702e+00 4.6606817625e+00 
296200 4.6892576948e+00 -8.2072250073e-04 2.6908611283e+00 -4.6607081903e+00 2.6908611283e+00 4.6607081903e+00 
296300 4.6892576754e+00 -8.2030263863e-04 2.6908763785e+00 -4.6607346044e+00 2.6908763785e+00 4.6607346044e+00 
296400 4.6892576560e+00 -8.1988295358e-04 2.6908916208e+00 -4.6607610049e+00 2.6908916208e+00 4.6607610049e+00 
296500 4.6892576367e+00 -8.1946344556e-04 2.6909068552e+00 -4.6607873917e+00 2.6909068552e+00 4.6607873917e+00 
296600 4.6892576173e+00 -8.1904411455e-04 2.6909220818e+00 -4.6608137648e+00 2.6909220818e+00 4.6608137648e+00 
296700 4.6892575980e+00 -8.1862496056e-04 2.6909373004e+00 -4.6608401243e+00 2.6909373004e+00 4.6608401243e+00 
296800 4.6892575787e+00 -8.1820598358e-04 2.6909525112e+00 -4.6608664702e+00 2.6909525112e+00 4.6608664702e+00 
296900 4.6892575594e+00 -8.1778718358e-04 2.6909677141e+00 -4.6608928024e+00 2.6909677141e+00 4.6608928024e+00 
297000 4.6892575402e+00 -8.1736856056e-04 2.6909829092e+00 -4.6609191210e+00 2.6909829092e+00 4.6609191210e+00 
297100 4.6892575209e+00 -8.1695011452e-04 2.6909980964e+00 -4.6609454260e+00 2.6909980964e+00 4.6609454260e+00 
297200 4.6892575017e+00 -8.1653184543e-04 2.6910132757e+00 -4.6609717174e+00 2.6910132757e+00 4.6609717174e+00 
297300 4.6892574825e+00 -8.1611375329e-04 2.6910284472e+00 -4.6609979951e+00 2.6910284472e+00 4.6609979951e+00 
297400 4.6892574633e+00 -8.1569583808e-04 2.6910436108e+00 -4.6610242593e+00 2.6910436108e+00 4.6610242593e+00 
297500 4.6892574442e+00 -8.1527809981e-04 2.6910587666e+00 -4.6610505099e+00 2.6910587666e+00 4.6610505099e+00 
297600 4.6892574250e+00 -8.1486053844e-04 2.6910739145e+00 -4.6610767468e+00 2.6910739145e+00 4.6610767468e+00 
297700 4.6892574059e+00 -8.1444315398e-04 2.6910890546e+00 -4.6611029702e+00 2.6910890546e+00 4.6611029702e+00 
297800 4.6892573868e+00 -8.1402594641e-04 2.6911041868e+00 -4.6611291800e+00 2.6911041868e+00 4.6611291800e+00 
297900 4.6892573677e+00 -8.1360891572e-04 2.6911193112e+00 -4.6611553762e+00 2.6911193112e+00 4.6611553762e+00 
298000 4.6892573487e+00 -8.1319206190e-04 2.6911344278e+00 -4.6611815589e+00 2.6911344278e+00 4.6611815589e+00 
298100 4.6892573296e+00 -8.1277538493e-04 2.6911495365e+00 -4.6612077280e+00 2.6911495365e+00 4.6612077280e+00 
298200 4.6892573106e+00 -8.1235888481e-04 2.6911646374e+00 -4.6612338835e+00 2.6911646374e+00 4.6612338835e+00 
298300 4.6892572916e+00 -8.1194256152e-04 2.6911797305e+00 -4.6612600255e+00 2.6911797305e+00 4.6612600255e+00 
298400 4.6892572726e+00 -8.1152641504e-04 2.6911948158e+00 -4.6612861540e+00 2.6911948158e+00 4.6612861540e+00 
298500 4.6892572536e+00 -8.1111044538e-04 2.6912098932e+00 -4.6613122689e+00 2.6912098932e+00 4.6613122689e+00 
298600 4.6892572347e+00 -8.1069465250e-04 2.6912249629e+00 -4.6613383703e+00 2.6912249629e+00 4.6613383703e+00 
298700 4.6892572158e+00 -8.1027903641e-04 2.6912400247e+00 -4.6613644581e+00 2.6912400247e+00 4.6613644581e+00 
298800 4.6892571969e+00 -8.0986359709e-04 2.6912550787e+00 -4.6613905325e+00 2.6912550787e+00 4.6613905325e+00 
298900 4.6892571780e+00 -8.0944833453e-04 2.6912701249e+00 -4.6614165933e+00 2.6912701249e+00 4.6614165933e+00 
299000 4.6892571591e+00 -8.0903324870e-04 2.6912851634e+00 -4.6614426406e+00 2.6912851634e+00 4.6614426406e+00 
299100 4.6892571402e+00 -8.0861833961e-04 2.6913001940e+00 -4.6614686744e+00 2.6913001940e+00 4.6614686744e+00 
299200 4.6892571214e+00 -8.0820360723e-04 2.6913152168e+00 -4.6614946947e+00 2.6913152168e+00 4.6614946947e+00 
299300 4.6892571026e+00 -8.0778905156e-04 2.6913302319e+00 -4.6615207015e+00 2.6913302319e+00 4.6615207015e+00 
299400 4.6892570838e+00 -8.0737467257e-04 2.6913452391e+00 -4.6615466949e+00 2.6913452391e+00 4.6615466949e+00 
299500 4.6892570650e+00 -8.0696047027e-04 2.6913602386e+00 -4.6615726747e+00 2.6913602386e+00 4.6615726747e+00 
299600 4.6892570463e+00 -8.0654644462e-04 2.6913752303e+00 -4.6615986411e+00 2.6913752303e+00 4.6615986411e+00 
299700 4.6892570275e+00 -8.0613259562e-04 2.6913902142e+00 -4.6616245940e+00 2.6913902142e+00 4.6616245940e+00 
299800 4.6892570088e+00 -8.0571892326e-04 2.6914051904e+00 -4.6616505335e+00 2.6914051904e+00 4.6616505335e+00 
299900 4.6892569901e+00 -8.0530542752e-04 2.6914201588e+00 -4.6616764595e+00 2.6914201588e+00 4.6616764595e+00 
300000 4.6892569714e+00 -8.0489210838e-04 2.6914351194e+00 -4.6617023720e+00 2.6914351194e+00 4.6617023720e+00 
300100 4.6892569528e+00 -8.0447896584e-04 2.6914500722e+00 -4.6617282711e+00 2.6914500722e+00 4.6617282711e+00 
300200 4.6892569341e+00 -8.0406599987e-04 2.6914650173e+00 -4.6617541568e+00 2.6914650173e+00 4.6617541568e+00 
300300 4.6892569155e+00 -8.0365321046e-04 2.6914799547e+00 -4.6617800290e+00 2.6914799547e+00 4.6617800290e+00 
300400 4.6892568969e+00 -8.0324059761e-04 2.6914948843e+00 -4.6618058879e+00 2.6914948843e+00 4.6618058879e+00 
300500 4.6892568783e+00 -8.0282816129e-04 2.6915098061e+00 -4.6618317332e+00 2.6915098061e+00 4.6618317332e+00 
300600 4.6892568598e+00 -8.0241590148e-04 2.6915247202e+00 -4.6618575652e+00 2.6915247202e+00 4.6618575652e+00 
300700 4.6892568412e+00 -8.0200381818e-04 2.6915396266e+00 -4.6618833838e+00 2.6915396266e+00 4.6618833838e+00 
300800 4.6892568227e+00 -8.0159191137e-04 2.6915545252e+00 -4.6619091890e+00 2.6915545252e+00 4.6619091890e+00 
300900 4.6892568042e+00 -8.0118018103e-04 2.6915694161e+00 -4.6619349807e+00 2.6915694161e+00 4.6619349807e+00 
301000 4.6892567857e+00 -8.0076862715e-04 2.6915842992e+00 -4.6619607591e+00 2.6915842992e+00 4.6619607591e+00 
301100 4.6892567672e+00 -8.0035724971e-04 2.6915991747e+00 -4.6619865241e+00 2.6915991747e+00 4.6619865241e+00 
301200 4.6892567488e+00 -7.9994604870e-04 2.6916140424e+00 -4.6620122757e+00 2.6916140424e+00 4.6620122757e+00 
301300 4.6892567304e+00 -7.9953502411e-04 2.6916289023e+00 -4.6620380140e+00 2.6916289023e+00 4.6620380140e+00 
301400 4.6892567119e+00 -7.9912417590e-04 2.6916437546e+00 -4.6620637389e+00 2.6916437546e+00 4.6620637389e+00 
301500 4.6892566936e+00 -7.9871350408e-04 2.6916585992e+00 -4.6620894504e+00 2.6916585992e+00 4.6620894504e+00 
301600 4.6892566752e+00 -7.9830300862e-04 2.6916734360e+00 -4.6621151485e+00 2.6916734360e+00 4.6621151485e+00 
301700 4.6892566568e+00 -7.9789268950e-04 2.6916882651e+00 -4.6621408333e+00 2.6916882651e+00 4.6621408333e+00 
301800 4.6892566385e+00 -7.9748254672e-04 2.6917030866e+00 -4.6621665048e+00 2.6917030866e+00 4.6621665048e+00 
301900 4.6892566202e+00 -7.9707258026e-04 2.6917179003e+00 -4.6621921630e+00 2.6917179003e+00 4.6621921630e+00 
302000 4.6892566019e+00 -7.9666279009e-04 2.6917327063e+00 -4.6622178078e+00 2.6917327063e+00 4.6622178078e+00 
302100 4.6892565836e+00 -7.9625317620e-04 2.6917475047e+00 -4.6622434392e+00 2.6917475047e+00 4.6622434392e+00 
302200 4.6892565653e+00 -7.9584373858e-04 2.6917622953e+00 -4.6622690574e+00 2.6917622953e+00 4.6622690574e+00 
302300 4.6892565471e+00 -7.9543447721e-04 2.6917770783e+00 -4.6622946622e+00 2.6917770783e+00 4.6622946622e+00 
302400 4.6892565289e+00 -7.9502539207e-04 2.6917918536e+00 -4.6623202538e+00 2.6917918536e+00 4.6623202538e+00 
302500 4.6892565106e+00 -7.9461648314e-04 2.6918066212e+00 -4.6623458320e+00 2.6918066212e+00 4.6623458320e+00 
302600 4.6892564925e+00 -7.9420775041e-04 2.6918213811e+00 -4.6623713969e+00 2.6918213811e+00 4.6623713969e+00 
302700 4.6892564743e+00 -7.9379919386e-04 2.6918361333e+00 -4.6623969486e+00 2.6918361333e+00 4.6623969486e+00 
302800 4.6892564561e+00 -7.9339081348e-04 2.6918508779e+00 -4.6624224870e+00 2.6918508779e+00 4.6624224870e+00 
302900 4.6892564380e+00 -7.9298260924e-04 2.6918656148e+00 -4.6624480120e+00 2.6918656148e+00 4.6624480120e+00 
303000 4.6892564199e+00 -7.9257458112e-04 2.6918803441e+00 -4.6624735238e+00 2.6918803441e+00 4.6624735238e+00 
303100 4.6892564018e+00 -7.9216672912e-04 2.6918950657e+00 -4.6624990224e+00 2.6918950657e+00 4.6624990224e+00 
303200 4.6892563837e+00 -7.9175905321e-04 2.6919097796e+00 -4.6625245077e+00 2.6919097796e+00 4.6625245077e+00 
303300 4.6892563657e+00 -7.9135155337e-04 2.6919244859e+00 -4.6625499797e+00 2.6919244859e+00 4.6625499797e+00 
303400 4.6892563476e+00 -7.9094422960e-04 2.6919391845e+00 -4.6625754385e+00 2.6919391845e+00 4.6625754385e+00 
303500 4.6892563296e+00 -7.9053708185e-04 2.6919538755e+00 -4.6626008840e+00 2.6919538755e+00 4.6626008840e+00 
303600 4.6892563116e+00 -7.9013011013e-04 2.6919685589e+00 -4.6626263163e+00 2.6919685589e+00 4.6626263163e+00 
303700 4.6892562936e+00 -7.8972331441e-04 2.6919832346e+00 -4.6626517354e+00 2.6919832346e+00 4.6626517354e+00 
303800 4.6892562756e+00 -7.8931669468e-04 2.6919979026e+00 -4.6626771412e+00 2.6919979026e+00 4.6626771412e+00 
303900 4.6892562577e+00 -7.8891025091e-04 2.6920125631e+00 -4.6627025339e+00 2.6920125631e+00 4.6627025339e+00 
304000 4.6892562398e+00 -7.8850398308e-04 2.6920272159e+00 -4.6627279133e+00 2.6920272159e+00 4.6627279133e+00 
304100 4.6892562219e+00 -7.8809789119e-04 2.6920418611e+00 -4.6627532795e+00 2.6920418611e+00 4.6627532795e+00 
304200 4.6892562040e+00 -7.8769197520e-04 2.6920564986e+00 -4.6627786325e+00 2.6920564986e+00 4.6627786325e+00 
304300 4.6892561861e+00 -7.8728623510e-04 2.6920711286e+00 -4.6628039723e+00 2.6920711286e+00 4.6628039723e+00 
304400 4.6892561682e+00 -7.8688067087e-04 2.6920857509e+00 -4.6628292989e+00 2.6920857509e+00 4.6628292989e+00 
304500 4.6892561504e+00 -7.8647528249e-04 2.6921003656e+00 -4.6628546123e+00 2.6921003656e+00 4.6628546123e+00 
304600 4.6892561326e+00 -7.8607006995e-04 2.6921149727e+00 -4.6628799126e+00 2.6921149727e+00 4.6628799126e+00 
304700 4.6892561148e+00 -7.8566503322e-04 2.6921295722e+00 -4.6629051997e+00 2.6921295722e+00 4.6629051997e+00 
304800 4.6892560970e+00 -7.8526017228e-04 2.6921441641e+00 -4.6629304736e+00 2.6921441641e+00 4.6629304736e+00 
304900 4.6892560792e+00 -7.8485548711e-04 2.6921587484e+00 -4.6629557343e+00 2.6921587484e+00 4.6629557343e+00 
305000 4.6892560615e+00 -7.8445097770e-04 2.6921733251e+00 -4.6629809819e+00 2.6921733251e+00 4.6629809819e+00 
305100 4.6892560438e+00 -7.8404664402e-04 2.6921878943e+00 -4.6630062164e+00 2.6921878943e+00 4.6630062164e+00 
305200 4.6892560260e+00 -7.8364248606e-04 2.6922024558e+00 -4.6630314377e+00 2.6922024558e+00 4.6630314377e+00 
305300 4.6892560084e+00 -7.8323850379e-04 2.6922170097e+00 -4.6630566459e+00 2.6922170097e+00 4.6630566459e+00 
305400 4.6892559907e+00 -7.8283469720e-04 2.6922315561e+00 -4.6630818409e+00 2.6922315561e+00 4.6630818409e+00 
305500 4.6892559730e+00 -7.8243106626e-04 2.6922460949e+00 -4.6631070228e+00 2.6922460949e+00 4.6631070228e+00 
305600 4.6892559554e+00 -7.8202761095e-04 2.6922606261e+00 -4.6631321916e+00 2.6922606261e+00 4.6631321916e+00 
305700 4.6892559378e+00 -7.8162433126e-04 2.6922751497e+00 -4.6631573473e+00 2.6922751497e+00 4.6631573473e+00 
305800 4.6892559202e+00 -7.8122122716e-04 2.6922896658e+00 -4.6631824898e+00 2.6922896658e+00 4.6631824898e+00 
305900 4.6892559026e+00 -7.8081829863e-04 2.6923041743e+00 -4.6632076193e+00 2.6923041743e+00 4.6632076193e+00 
306000 4.6892558850e+00 -7.8041554565e-04 2.6923186752e+00 -4.6632327357e+00 2.6923186752e+00 4.6632327357e+00 
306100 4.6892558675e+00 -7.8001296820e-04 2.6923331686e+00 -4.6632578390e+00 2.6923331686e+00 4.6632578390e+00 
306200 4.6892558499e+00 -7.7961056626e-04 2.6923476545e+00 -4.6632829292e+00 2.6923476545e+00 4.6632829292e+00 
306300 4.6892558324e+00 -7.7920833981e-04 2.6923621327e+00 -4.6633080063e+00 2.6923621327e+00 4.6633080063e+00 
306400 4.6892558149e+00 -7.7880628883e-04 2.6923766035e+00 -4.6633330703e+00 2.6923766035e+00 4.6633330703e+00 
306500 4.6892557975e+00 -7.7840441329e-04 2.6923910667e+00 -4.6633581213e+00 2.6923910667e+00 4.6633581213e+00 
306600 4.6892557800e+00 -7.7800271318e-04 2.6924055223e+00 -4.6633831592e+00 2.6924055223e+00 4.6633831592e+00 
306700 4.6892557626e+00 -7.7760118847e-04 2.6924199704e+00 -4.6634081841e+00 2.6924199704e+00 4.6634081841e+00 
306800 4.6892557451e+00 -7.7719983914e-04 2.6924344110e+00 -4.6634331959e+00 2.6924344110e+00 4.6634331959e+00 
306900 4.6892557277e+00 -7.7679866517e-04 2.6924488440e+00 -4.6634581946e+00 2.6924488440e+00 4.6634581946e+00 
307000 4.6892557104e+00 -7.7639766654e-04 2.6924632695e+00 -4.6634831804e+00 2.6924632695e+00 4.6634831804e+00 
307100 4.6892556930e+00 -7.7599684323e-04 2.6924776875e+00 -4.6635081531e+00 2.6924776875e+00 4.6635081531e+00 
307200 4.6892556756e+00 -7.7559619521e-04 2.6924920980e+00 -4.6635331127e+00 2.6924920980e+00 4.6635331127e+00 
307300 4.6892556583e+00 -7.7519572246e-04 2.6925065010e+00 -4.6635580594e+00 2.6925065010e+00 4.6635580594e+00 
307400 4.6892556410e+00 -7.7479542496e-04 2.6925208964e+00 -4.6635829930e+00 2.6925208964e+00 4.6635829930e+00 
307500 4.6892556237e+00 -7.7439530269e-04 2.6925352843e+00 -4.6636079137e+00 2.6925352843e+00 4.6636079137e+00 
307600 4.6892556064e+00 -7.7399535563e-04 2.6925496648e+00 -4.6636328213e+00 2.6925496648e+00 4.6636328213e+00 
307700 4.6892555892e+00 -7.7359558375e-04 2.6925640377e+00 -4.6636577159e+00 2.6925640377e+00 4.6636577159e+00 
307800 4.6892555719e+00 -7.7319598703e-04 2.6925784031e+00 -4.6636825975e+00 2.6925784031e+00 4.6636825975e+00 
307900 4.6892555547e+00 -7.7279656544e-04 2.6925927610e+00 -4.6637074662e+00 2.6925927610e+00 4.6637074662e+00 
308000 4.6892555375e+00 -7.7239731898e-04 2.6926071115e+00 -4.6637323219e+00 2.6926071115e+00 4.6637323219e+00 
308100 4.6892555203e+00 -7.7199824760e-04 2.6926214544e+00 -4.6637571646e+00 2.6926214544e+00 4.6637571646e+00 
308200 4.6892555031e+00 -7.7159935130e-04 2.6926357899e+00 -4.6637819943e+00 2.6926357899e+00 4.6637819943e+00 
308300 4.6892554860e+00 -7.7120063003e-04 2.6926501178e+00 -4.6638068111e+00 2.6926501178e+00 4.6638068111e+00 
308400 4.6892554688e+00 -7.7080208380e-04 2.6926644383e+00 -4.6638316149e+00 2.6926644383e+00 4.6638316149e+00 
308500 4.6892554517e+00 -7.7040371256e-04 2.6926787513e+00 -4.6638564058e+00 2.6926787513e+00 4.6638564058e+00 
308600 4.6892554346e+00 -7.7000551630e-04 2.6926930569e+00 -4.6638811837e+00 2.6926930569e+00 4.6638811837e+00 
308700 4.6892554175e+00 -7.6960749499e-04 2.6927073549e+00 -4.6639059487e+00 2.6927073549e+00 4.6639059487e+00 
308800 4.6892554004e+00 -7.6920964861e-04 2.6927216455e+00 -4.6639307007e+00 2.6927216455e+00 4.6639307007e+00 
308900 4.6892553834e+00 -7.6881197714e-04 2.6927359287e+00 -4.6639554398e+00 2.6927359287e+00 4.6639554398e+00 
309000 4.6892553664e+00 -7.6841448055e-04 2.6927502043e+00 -4.6639801660e+00 2.6927502043e+00 4.6639801660e+00 
309100 4.6892553494e+00 -7.6801715881e-04 2.6927644726e+00 -4.6640048793e+00 2.6927644726e+00 4.6640048793e+00 
309200 4.6892553324e+00 -7.6762001191e-04 2.6927787333e+00 -4.6640295797e+00 2.6927787333e+00 4.6640295797e+00 
309300 4.6892553154e+00 -7.6722303982e-04 2.6927929867e+00 -4.6640542672e+00 2.6927929867e+00 4.6640542672e+00 
309400 4.6892552984e+00 -7.6682624252e-04 2.6928072325e+00 -4.6640789417e+00 2.6928072325e+00 4.6640789417e+00 
309500 4.6892552815e+00 -7.6642961998e-04 2.6928214710e+00 -4.6641036034e+00 2.6928214710e+00 4.6641036034e+00 
309600 4.6892552645e+00 -7.6603317218e-04 2.6928357020e+00 -4.6641282522e+00 2.6928357020e+00 4.6641282522e+00 
309700 4.6892552476e+00 -7.6563689909e-04 2.6928499255e+00 -4.6641528881e+00 2.6928499255e+00 4.6641528881e+00 
309800 4.6892552307e+00 -7.6524080069e-04 2.6928641416e+00 -4.6641775112e+00 2.6928641416e+00 4.6641775112e+00 
309900 4.6892552139e+00 -7.6484487695e-04 2.6928783503e+00 -4.6642021213e+00 2.6928783503e+00 4.6642021213e+00 
310000 4.6892551970e+00 -7.6444912785e-04 2.6928925516e+00 -4.6642267187e+00 2.6928925516e+00 4.6642267187e+00 
310100 4.6892551802e+00 -7.6405355337e-04 2.6929067454e+00 -4.6642513031e+00 2.6929067454e+00 4.6642513031e+00 
310200 4.6892551633e+00 -7.6365815347e-04 2.6929209318e+00 -4.6642758747e+00 2.6929209318e+00 4.6642758747e+00 
310300 4.6892551465e+00 -7.6326292814e-04 2.6929351108e+00 -4.6643004335e+00 2.6929351108e+00 4.6643004335e+00 
310400 4.6892551297e+00 -7.6286787735e-04 2.6929492824e+00 -4.6643249794e+00 2.6929492824e+00 4.6643249794e+00 
310500 4.6892551130e+00 -7.6247300108e-04 2.6929634466e+00 -4.6643495125e+00 2.6929634466e+00 4.6643495125e+00 
310600 4.6892550962e+00 -7.6207829929e-04 2.6929776034e+00 -4.6643740327e+00 2.6929776034e+00 4.6643740327e+00 
310700 4.6892550795e+00 -7.6168377197e-04 2.6929917528e+00 -4.6643985402e+00 2.6929917528e+00 4.6643985402e+00 
310800 4.6892550628e+00 -7.6128941909e-04 2.6930058948e+00 -4.6644230348e+00 2.6930058948e+00 4.6644230348e+00 
310900 4.6892550461e+00 -7.6089524062e-04 2.6930200293e+00 -4.6644475166e+00 2.6930200293e+00 4.6644475166e+00 
311000 4.6892550294e+00 -7.6050123653e-04 2.6930341565e+00 -4.6644719856e+00 2.6930341565e+00 4.6644719856e+00 
311100 4.6892550127e+00 -7.6010740681e-04 2.6930482763e+00 -4.6644964418e+00 2.6930482763e+00 4.6644964418e+00 
311200 4.6892549961e+00 -7.5971375143e-04 2.6930623887e+00 -4.6645208852e+00 2.6930623887e+00 4.6645208852e+00 
311300 4.6892549794e+00 -7.5932027035e-04 2.6930764938e+00 -4.6645453158e+00 2.6930764938e+00 4.6645453158e+00 
311400 4.6892549628e+00 -7.5892696356e-04 2.6930905914e+00 -4.6645697337e+00 2.6930905914e+00 4.6645697337e+00 
311500 4.6892549462e+00 -7.5853383102e-04 2.6931046817e+00 -4.6645941388e+00 2.6931046817e+00 4.6645941388e+00 
311600 4.6892549296e+00 -7.5814087272e-04 2.6931187646e+00 -4.6646185311e+00 2.6931187646e+00 4.6646185311e+00 
311700 4.6892549131e+00 -7.5774808862e-04 2.6931328401e+00 -4.6646429106e+00 2.6931328401e+00 4.6646429106e+00 
311800 4.6892548965e+00 -7.5735547870e-04 2.6931469083e+00 -4.6646672774e+00 2.6931469083e+00 4.6646672774e+00 
311900 4.6892548800e+00 -7.5696304293e-04 2.6931609691e+00 -4.6646916314e+00 2.6931609691e+00 4.6646916314e+00 
312000 4.6892548635e+00 -7.5657078129e-04 2.6931750225e+00 -4.6647159727e+00 2.6931750225e+00 4.6647159727e+00 
312100 4.6892548470e+00 -7.5617869375e-04 2.6931890686e+00 -4.6647403012e+00 2.6931890686e+00 4.6647403012e+00 
312200 4.6892548305e+00 -7.5578678028e-04 2.6932031073e+00 -4.6647646170e+00 2.6932031073e+00 4.6647646170e+00 
312300 4.6892548140e+00 -7.5539504085e-04 2.6932171387e+00 -4.6647889201e+00 2.6932171387e+00 4.6647889201e+00 
312400 4.6892547976e+00 -7.5500347544e-04 2.6932311628e+00 -4.6648132104e+00 2.6932311628e+00 4.6648132104e+00 
312500 4.6892547811e+00 -7.5461208403e-04 2.6932451795e+00 -4.6648374881e+00 2.6932451795e+00 4.6648374881e+00 
312600 4.6892547647e+00 -7.5422086658e-04 2.6932591888e+00 -4.6648617530e+00 2.6932591888e+00 4.6648617530e+00 
312700 4.6892547483e+00 -7.5382982307e-04 2.6932731908e+00 -4.6648860052e+00 2.6932731908e+00 4.6648860052e+00 
312800 4.6892547320e+00 -7.5343895347e-04 2.6932871855e+00 -4.6649102447e+00 2.6932871855e+00 4.6649102447e+00 
312900 4.6892547156e+00 -7.5304825775e-04 2.6933011729e+00 -4.6649344715e+00 2.6933011729e+00 4.6649344715e+00 
313000 4.6892546992e+00 -7.5265773588e-04 2.6933151529e+00 -4.6649586857e+00 2.6933151529e+00 4.6649586857e+00 
313100 4.6892546829e+00 -7.5226738785e-04 2.6933291256e+00 -4.6649828871e+00 2.6933291256e+00 4.6649828871e+00 
313200 4.6892546666e+00 -7.5187721361e-04 2.6933430910e+00 -4.6650070759e+00 2.6933430910e+00 4.6650070759e+00 
313300 4.6892546503e+00 -7.5148721315e-04 2.6933570491e+00 -4.6650312520e+00 2.6933570491e+00 4.6650312520e+00 
313400 4.6892546340e+00 -7.5109738643e-04 2.6933709999e+00 -4.6650554154e+00 2.6933709999e+00 4.6650554154e+00 
313500 4.6892546178e+00 -7.5070773342e-04 2.6933849433e+00 -4.6650795662e+00 2.6933849433e+00 4.6650795662e+00 
313600 4.6892546015e+00 -7.5031825411e-04 2.6933988795e+00 -4.6651037043e+00 2.6933988795e+00 4.6651037043e+00 
313700 4.6892545853e+00 -7.4992894846e-04 2.6934128083e+00 -4.6651278298e+00 2.6934128083e+00 4.6651278298e+00 
313800 4.6892545691e+00 -7.4953981644e-04 2.6934267299e+00 -4.6651519426e+00 2.6934267299e+00 4.6651519426e+00 
313900 4.6892545529e+00 -7.4915085802e-04 2.6934406441e+00 -4.6651760428e+00 2.6934406441e+00 4.6651760428e+00 
314000 4.6892545367e+00 -7.4876207318e-04 2.6934545511e+00 -4.6652001304e+00 2.6934545511e+00 4.6652001304e+00 
314100 4.6892545206e+00 -7.4837346189e-04 2.6934684508e+00 -4.6652242053e+00 2.6934684508e+00 4.6652242053e+00 
314200 4.6892545044e+00 -7.4798502411e-04 2.6934823432e+00 -4.6652482676e+00 2.6934823432e+00 4.6652482676e+00 
314300 4.6892544883e+00 -7.4759675983e-04 2.6934962283e+00 -4.6652723173e+00 2.6934962283e+00 4.6652723173e+00 
314400 4.6892544722e+00 -7.4720866901e-04 2.6935101061e+00 -4.6652963544e+00 2.6935101061e+00 4.6652963544e+00 
314500 4.6892544561e+00 -7.4682075162e-04 2.6935239766e+00 -4.6653203789e+00 2.6935239766e+00 4.6653203789e+00 
314600 4.6892544400e+00 -7.4643300764e-04 2.6935378399e+00 -4.6653443908e+00 2.6935378399e+00 4.6653443908e+00 
314700 4.6892544239e+00 -7.4604543703e-04 2.6935516959e+00 -4.6653683902e+00 2.6935516959e+00 4.6653683902e+00 
314800 4.6892544079e+00 -7.4565803976e-04 2.6935655447e+00 -4.6653923769e+00 2.6935655447e+00 4.6653923769e+00 
314900 4.6892543919e+00 -7.4527081582e-04 2.6935793861e+00 -4.6654163510e+00 2.6935793861e+00 4.6654163510e+00 
315000 4.6892543759e+00 -7.4488376516e-04 2.6935932204e+00 -4.6654403126e+00 2.6935932204e+00 4.6654403126e+00 
315100 4.6892543599e+00 -7.4449688776e-04 2.6936070473e+00 -4.6654642616e+00 2.6936070473e+00 4.6654642616e+00 
315200 4.6892543439e+00 -7.4411018359e-04 2.6936208670e+00 -4.6654881981e+00 2.6936208670e+00 4.6654881981e+00 
315300 4.6892543279e+00 -7.4372365262e-04 2.6936346795e+00 -4.6655121219e+00 2.6936346795e+00 4.6655121219e+00 
315400 4.6892543120e+00 -7.4333729482e-04 2.6936484847e+00 -4.6655360333e+00 2.6936484847e+00 4.6655360333e+00 
315500 4.6892542960e+00 -7.4295111016e-04 2.6936622827e+00 -4.6655599321e+00 2.6936622827e+00 4.6655599321e+00 
315600 4.6892542801e+00 -7.4256509861e-04 2.6936760734e+00 -4.6655838183e+00 2.6936760734e+00 4.6655838183e+00 
315700 4.6892542642e+00 -7.4217926014e-04 2.6936898569e+00 -4.6656076921e+00 2.6936898569e+00 4.6656076921e+00 
315800 4.6892542484e+00 -7.4179359472e-04 2.6937036332e+00 -4.6656315533e+00 2.6937036332e+00 4.6656315533e+00 
315900 4.6892542325e+00 -7.4140810233e-04 2.6937174022e+00 -4.6656554019e+00 2.6937174022e+00 4.6656554019e+00 
316000 4.6892542166e+00 -7.4102278292e-04 2.6937311641e+00 -4.6656792381e+00 2.6937311641e+00 4.6656792381e+00 
316100 4.6892542008e+00 -7.4063763648e-04 2.6937449187e+00 -4.6657030617e+00 2.6937449187e+00 4.6657030617e+00 
316200 4.6892541850e+00 -7.4025266297e-04 2.6937586660e+00 -4.6657268729e+00 2.6937586660e+00 4.6657268729e+00 
316300 4.6892541692e+00 -7.3986786236e-04 2.6937724062e+00 -4.6657506715e+00 2.6937724062e+00 4.6657506715e+00 
316400 4.6892541534e+00 -7.3948323462e-04 2.6937861391e+00 -4.6657744577e+00 2.6937861391e+00 4.6657744577e+00 
316500 4.6892541376e+00 -7.3909877971e-04 2.6937998649e+00 -4.6657982314e+00 2.6937998649e+00 4.6657982314e+00 
316600 4.6892541219e+00 -7.3871449762e-04 2.6938135834e+00 -4.6658219925e+00 2.6938135834e+00 4.6658219925e+00 
316700 4.6892541062e+00 -7.3833038831e-04 2.6938272947e+00 -4.6658457413e+00 2.6938272947e+00 4.6658457413e+00 
316800 4.6892540904e+00 -7.3794645174e-04 2.6938409988e+00 -4.6658694775e+00 2.6938409988e+00 4.6658694775e+00 
316900 4.6892540747e+00 -7.3756268789e-04 2.6938546958e+00 -4.6658932013e+00 2.6938546958e+00 4.6658932013e+00 
317000 4.6892540591e+00 -7.3717909673e-04 2.6938683855e+00 -4.6659169126e+00 2.6938683855e+00 4.6659169126e+00 
317100 4.6892540434e+00 -7.3679567823e-04 2.6938820681e+00 -4.6659406115e+00 2.6938820681e+00 4.6659406115e+00 
317200 4.6892540277e+00 -7.3641243234e-04 2.6938957434e+00 -4.6659642979e+00 2.6938957434e+00 4.6659642979e+00 
317300 4.6892540121e+00 -7.3602935905e-04 2.6939094116e+00 -4.6659879719e+00 2.6939094116e+00 4.6659879719e+00 
317400 4.6892539965e+00 -7.3564645833e-04 2.6939230726e+00 -4.6660116334e+00 2.6939230726e+00 4.6660116334e+00 
317500 4.6892539809e+00 -7.3526373013e-04 2.6939367264e+00 -4.6660352825e+00 2.6939367264e+00 4.6660352825e+00 
317600 4.6892539653e+00 -7.3488117443e-04 2.6939503731e+00 -4.6660589192e+00 2.6939503731e+00 4.6660589192e+00 
317700 4.6892539497e+00 -7.3449879120e-04 2.6939640126e+00 -4.6660825435e+00 2.6939640126e+00 4.6660825435e+00 
317800 4.6892539342e+00 -7.3411658041e-04 2.6939776449e+00 -4.6661061554e+00 2.6939776449e+00 4.6661061554e+00 
317900 4.6892539186e+00 -7.3373454202e-04 2.6939912700e+00 -4.6661297548e+00 2.6939912700e+00 4.6661297548e+00 
318000 4.6892539031e+00 -7.3335267601e-04 2.6940048880e+00 -4.6661533419e+00 2.6940048880e+00 4.6661533419e+00 
318100 4.6892538876e+00 -7.3297098234e-04 2.6940184989e+00 -4.6661769166e+00 2.6940184989e+00 4.6661769166e+00 
318200 4.6892538721e+00 -7.3258946097e-04 2.6940321026e+00 -4.6662004788e+00 2.6940321026e+00 4.6662004788e+00 
318300 4.6892538566e+00 -7.3220811189e-04 2.6940456991e+00 -4.6662240287e+00 2.6940456991e+00 4.6662240287e+00 
318400 4.6892538412e+00 -7.3182693505e-04 2.6940592885e+00 -4.6662475662e+00 2.6940592885e+00 4.6662475662e+00 
318500 4.6892538257e+00 -7.3144593042e-04 2.6940728707e+00 -4.6662710914e+00 2.6940728707e+00 4.6662710914e+00 
318600 4.6892538103e+00 -7.3106509798e-04 2.6940864458e+00 -4.6662946042e+00 2.6940864458e+00 4.6662946042e+00 
318700 4.6892537949e+00 -7.3068443768e-04 2.6941000138e+00 -4.6663181046e+00 2.6941000138e+00 4.6663181046e+00 
318800 4.6892537795e+00 -7.3030394950e-04 2.6941135746e+00 -4.6663415926e+00 2.6941135746e+00 4.6663415926e+00 
318900 4.6892537641e+00 -7.2992363341e-04 2.6941271283e+00 -4.6663650683e+00 2.6941271283e+00 4.6663650683e+00 
319000 4.6892537488e+00 -7.2954348937e-04 2.6941406749e+00 -4.6663885317e+00 2.6941406749e+00 4.6663885317e+00 
319100 4.6892537334e+00 -7.2916351735e-04 2.6941542144e+00 -4.6664119827e+00 2.6941542144e+00 4.6664119827e+00 
319200 4.6892537181e+00 -7.2878371731e-04 2.6941677467e+00 -4.6664354214e+00 2.6941677467e+00 4.6664354214e+00 
319300 4.6892537028e+00 -7.2840408923e-04 2.6941812719e+00 -4.6664588478e+00 2.6941812719e+00 4.6664588478e+00 
319400 4.6892536875e+00 -7.2802463307e-04 2.6941947901e+00 -4.6664822619e+00 2.6941947901e+00 4.6664822619e+00 
319500 4.6892536722e+00 -7.2764534880e-04 2.6942083011e+00 -4.6665056636e+00 2.6942083011e+00 4.6665056636e+00 
319600 4.6892536569e+00 -7.2726623639e-04 2.6942218049e+00 -4.6665290530e+00 2.6942218049e+00 4.6665290530e+00 
319700 4.6892536417e+00 -7.2688729580e-04 2.6942353017e+00 -4.6665524301e+00 2.6942353017e+00 4.6665524301e+00 
319800 4.6892536264e+00 -7.2650852699e-04 2.6942487914e+00 -4.6665757950e+00 2.6942487914e+00 4.6665757950e+00 
319900 4.6892536112e+00 -7.2612992995e-04 2.6942622740e+00 -4.6665991475e+00 2.6942622740e+00 4.6665991475e+00 
320000 4.6892535960e+00 -7.2575150463e-04 2.6942757495e+00 -4.6666224878e+00 2.6942757495e+00 4.6666224878e+00 
320100 4.6892535808e+00 -7.2537325099e-04 2.6942892179e+00 -4.6666458157e+00 2.6942892179e+00 4.6666458157e+00 
320200 4.6892535656e+00 -7.2499516902e-04 2.6943026792e+00 -4.6666691314e+00 2.6943026792e+00 4.6666691314e+00 
320300 4.6892535505e+00 -7.2461725867e-04 2.6943161335e+00 -4.6666924348e+00 2.6943161335e+00 4.6666924348e+00 
320400 4.6892535353e+00 -7.2423951990e-04 2.6943295806e+00 -4.6667157260e+00 2.6943295806e+00 4.6667157260e+00 
320500 4.6892535202e+00 -7.2386195270e-04 2.6943430207e+00 -4.6667390049e+00 2.6943430207e+00 4.6667390049e+00 
320600 4.6892535051e+00 -7.2348455701e-04 2.6943564537e+00 -4.6667622716e+00 2.6943564537e+00 4.6667622716e+00 
320700 4.6892534900e+00 -7.2310733282e-04 2.6943698797e+00 -4.6667855260e+00 2.6943698797e+00 4.6667855260e+00 
320800 4.6892534749e+00 -7.2273028007e-04 2.6943832985e+00 -4.6668087681e+00 2.6943832985e+00 4.6668087681e+00 
320900 4.6892534598e+00 -7.2235339875e-04 2.6943967103e+00 -4.6668319980e+00 2.6943967103e+00 4.6668319980e+00 
321000 4.6892534448e+00 -7.2197668882e-04 2.6944101151e+00 -4.6668552157e+00 2.6944101151e+00 4.6668552157e+00 
321100 4.6892534298e+00 -7.2160015024e-04 2.6944235128e+00 -4.6668784212e+00 2.6944235128e+00 4.6668784212e+00 
321200 4.6892534147e+00 -7.2122378298e-04 2.6944369034e+00 -4.6669016145e+00 2.6944369034e+00 4.6669016145e+00 
321300 4.6892533997e+00 -7.2084758700e-04 2.6944502870e+00 -4.6669247955e+00 2.6944502870e+00 4.6669247955e+00 
321400 4.6892533848e+00 -7.2047156227e-04 2.6944636635e+00 -4.6669479644e+00 2.6944636635e+00 4.6669479644e+00 
321500 4.6892533698e+00 -7.2009570876e-04 2.6944770330e+00 -4.6669711210e+00 2.6944770330e+00 4.6669711210e+00 
321600 4.6892533548e+00 -7.1972002643e-04 2.6944903955e+00 -4.6669942654e+00 2.6944903955e+00 4.6669942654e+00 
321700 4.6892533399e+00 -7.1934451524e-04 2.6945037509e+00 -4.6670173977e+00 2.6945037509e+00 4.6670173977e+00 
321800 4.6892533250e+00 -7.1896917517e-04 2.6945170992e+00 -4.6670405178e+00 2.6945170992e+00 4.6670405178e+00 
321900 4.6892533100e+00 -7.1859400618e-04 2.6945304406e+00 -4.6670636257e+00 2.6945304406e+00 4.6670636257e+00 
322000 4.6892532952e+00 -7.1821900822e-04 2.6945437749e+00 -4.6670867214e+00 2.6945437749e+00 4.6670867214e+00 
322100 4.6892532803e+00 -7.1784418128e-04 2.6945571022e+00 -4.6671098049e+00 2.6945571022e+00 4.6671098049e+00 
322200 4.6892532654e+00 -7.1746952531e-04 2.6945704225e+00 -4.6671328763e+00 2.6945704225e+00 4.6671328763e+00 
322300 4.6892532506e+00 -7.1709504028e-04 2.6945837357e+00 -4.6671559356e+00 2.6945837357e+00 4.6671559356e+00 
322400 4.6892532357e+00 -7.1672072615e-04 2.6945970420e+00 -4.6671789826e+00 2.6945970420e+00 4.6671789826e+00 
322500 4.6892532209e+00 -7.1634658289e-04 2.6946103412e+00 -4.6672020176e+00 2.6946103412e+00 4.6672020176e+00 
322600 4.6892532061e+00 -7.1597261046e-04 2.6946236334e+00 -4.6672250404e+00 2.6946236334e+00 4.6672250404e+00 
322700 4.6892531913e+00 -7.1559880883e-04 2.6946369187e+00 -4.6672480511e+00 2.6946369187e+00 4.6672480511e+00 
322800 4.6892531766e+00 -7.1522517796e-04 2.6946501969e+00 -4.6672710496e+00 2.6946501969e+00 4.6672710496e+00 
322900 4.6892531618e+00 -7.1485171782e-04 2.6946634681e+00 -4.6672940360e+00 2.6946634681e+00 4.6672940360e+00 
323000 4.6892531471e+00 -7.1447842837e-04 2.6946767323e+00 -4.6673170103e+00 2.6946767323e+00 4.6673170103e+00 
323100 4.6892531323e+00 -7.1410530958e-04 2.6946899895e+00 -4.6673399725e+00 2.6946899895e+00 4.6673399725e+00 
323200 4.6892531176e+00 -7.1373236141e-04 2.6947032398e+00 -4.6673629226e+00 2.6947032398e+00 4.6673629226e+00 
323300 4.6892531029e+00 -7.1335958382e-04 2.6947164830e+00 -4.6673858606e+00 2.6947164830e+00 4.6673858606e+00 
323400 4.6892530883e+00 -7.1298697678e-04 2.6947297193e+00 -4.6674087865e+00 2.6947297193e+00 4.6674087865e+00 
323500 4.6892530736e+00 -7.1261454026e-04 2.6947429486e+00 -4.6674317003e+00 2.6947429486e+00 4.6674317003e+00 
323600 4.6892530589e+00 -7.1224227421e-04 2.6947561709e+00 -4.6674546021e+00 2.6947561709e+00 4.6674546021e+00 
323700 4.6892530443e+00 -7.1187017860e-04 2.6947693863e+00 -4.6674774917e+00 2.6947693863e+00 4.6674774917e+00 
323800 4.6892530297e+00 -7.1149825340e-04 2.6947825947e+00 -4.6675003693e+00 2.6947825947e+00 4.6675003693e+00 
323900 4.6892530151e+00 -7.1112649857e-04 2.6947957961e+00 -4.6675232348e+00 2.6947957961e+00 4.6675232348e+00 
324000 4.6892530005e+00 -7.1075491408e-04 2.6948089905e+00 -4.6675460883e+00 2.6948089905e+00 4.6675460883e+00 
324100 4.6892529859e+00 -7.1038349987e-04 2.6948221780e+00 -4.6675689297e+00 2.6948221780e+00 4.6675689297e+00 
324200 4.6892529714e+00 -7.1001225593e-04 2.6948353586e+00 -4.6675917590e+00 2.6948353586e+00 4.6675917590e+00 
324300 4.6892529568e+00 -7.0964118222e-04 2.6948485321e+00 -4.6676145764e+00 2.6948485321e+00 4.6676145764e+00 
324400 4.6892529423e+00 -7.0927027869e-04 2.6948616988e+00 -4.6676373816e+00 2.6948616988e+00 4.6676373816e+00 
324500 4.6892529278e+00 -7.0889954531e-04 2.6948748585e+00 -4.6676601749e+00 2.6948748585e+00 4.6676601749e+00 
324600 4.6892529133e+00 -7.0852898205e-04 2.6948880112e+00 -4.6676829561e+00 2.6948880112e+00 4.6676829561e+00 
324700 4.6892528988e+00 -7.0815858887e-04 2.6949011570e+00 -4.6677057253e+00 2.6949011570e+00 4.6677057253e+00 
324800 4.6892528843e+00 -7.0778836573e-04 2.6949142959e+00 -4.6677284825e+00 2.6949142959e+00 4.6677284825e+00 
324900 4.6892528699e+00 -7.0741831259e-04 2.6949274278e+00 -4.6677512277e+00 2.6949274278e+00 4.6677512277e+00 
325000 4.6892528554e+00 -7.0704842942e-04 2.6949405528e+00 -4.6677739609e+00 2.6949405528e+00 4.6677739609e+00 
325100 4.6892528410e+00 -7.0667871619e-04 2.6949536709e+00 -4.6677966821e+00 2.6949536709e+00 4.6677966821e+00 
325200 4.6892528266e+00 -7.0630917284e-04 2.6949667821e+00 -4.6678193913e+00 2.6949667821e+00 4.6678193913e+00 
325300 4.6892528122e+00 -7.0593979935e-04 2.6949798863e+00 -4.6678420885e+00 2.6949798863e+00 4.6678420885e+00 
325400 4.6892527978e+00 -7.0557059569e-04 2.6949929836e+00 -4.6678647737e+00 2.6949929836e+00 4.6678647737e+00 
325500 4.6892527835e+00 -7.0520156180e-04 2.6950060740e+00 -4.6678874469e+00 2.6950060740e+00 4.6678874469e+00 
325600 4.6892527691e+00 -7.0483269766e-04 2.6950191575e+00 -4.6679101082e+00 2.6950191575e+00 4.6679101082e+00 
325700 4.6892527548e+00 -7.0446400323e-04 2.6950322341e+00 -4.6679327576e+00 2.6950322341e+00 4.6679327576e+00 
325800 4.6892527405e+00 -7.0409547847e-04 2.6950453038e+00 -4.6679553949e+00 2.6950453038e+00 4.6679553949e+00 
325900 4.6892527262e+00 -7.0372712335e-04 2.6950583666e+00 -4.6679780203e+00 2.6950583666e+00 4.6679780203e+00 
326000 4.6892527119e+00 -7.0335893782e-04 2.6950714225e+00 -4.6680006338e+00 2.6950714225e+00 4.6680006338e+00 
326100 4.6892526976e+00 -7.0299092185e-04 2.6950844715e+00 -4.6680232353e+00 2.6950844715e+00 4.6680232353e+00 
326200 4.6892526833e+00 -7.0262307539e-04 2.6950975136e+00 -4.6680458249e+00 2.6950975136e+00 4.6680458249e+00 
326300 4.6892526691e+00 -7.0225539842e-04 2.6951105488e+00 -4.6680684026e+00 2.6951105488e+00 4.6680684026e+00 
326400 4.6892526549e+00 -7.0188789090e-04 2.6951235771e+00 -4.6680909683e+00 2.6951235771e+00 4.6680909683e+00 
326500 4.6892526407e+00 -7.0152055278e-04 2.6951365986e+00 -4.6681135221e+00 2.6951365986e+00 4.6681135221e+00 
326600 4.6892526265e+00 -7.0115338404e-04 2.6951496132e+00 -4.6681360640e+00 2.6951496132e+00 4.6681360640e+00 
326700 4.6892526123e+00 -7.0078638462e-04 2.6951626209e+00 -4.6681585940e+00 2.6951626209e+00 4.6681585940e+00 
326800 4.6892525981e+00 -7.0041955450e-04 2.6951756217e+00 -4.6681811121e+00 2.6951756217e+00 4.6681811121e+00 
326900 4.6892525839e+00 -7.0005289363e-04 2.6951886157e+00 -4.6682036183e+00 2.6951886157e+00 4.6682036183e+00 
327000 4.6892525698e+00 -6.9968640198e-04 2.6952016028e+00 -4.6682261126e+00 2.6952016028e+00 4.6682261126e+00 
327100 4.6892525557e+00 -6.9932007951e-04 2.6952145830e+00 -4.6682485950e+00 2.6952145830e+00 4.6682485950e+00 
327200 4.6892525416e+00 -6.9895392618e-04 2.6952275564e+00 -4.6682710656e+00 2.6952275564e+00 4.6682710656e+00 
327300 4.6892525275e+00 -6.9858794195e-04 2.6952405229e+00 -4.6682935243e+00 2.6952405229e+00 4.6682935243e+00 
327400 4.6892525134e+00 -6.9822212679e-04 2.6952534826e+00 -4.6683159711e+00 2.6952534826e+00 4.6683159711e+00 
327500 4.6892524993e+00 -6.9785648065e-04 2.6952664354e+00 -4.6683384060e+00 2.6952664354e+00 4.6683384060e+00 
327600 4.6892524853e+00 -6.9749100350e-04 2.6952793814e+00 -4.6683608291e+00 2.6952793814e+00 4.6683608291e+00 
327700 4.6892524712e+00 -6.9712569529e-04 2.6952923205e+00 -4.6683832403e+00 2.6952923205e+00 4.6683832403e+00 
327800 4.6892524572e+00 -6.9676055600e-04 2.6953052528e+00 -4.6684056397e+00 2.6953052528e+00 4.6684056397e+00 
327900 4.6892524432e+00 -6.9639558557e-04 2.6953181782e+00 -4.6684280273e+00 2.6953181782e+00 4.6684280273e+00 
328000 4.6892524292e+00 -6.9603078398e-04 2.6953310969e+00 -4.6684504030e+00 2.6953310969e+00 4.6684504030e+00 
328100 4.6892524152e+00 -6.9566615118e-04 2.6953440087e+00 -4.6684727669e+00 2.6953440087e+00 4.6684727669e+00 
328200 4.6892524012e+00 -6.9530168713e-04 2.6953569136e+00 -4.6684951189e+00 2.6953569136e+00 4.6684951189e+00 
328300 4.6892523873e+00 -6.9493739180e-04 2.6953698118e+00 -4.6685174592e+00 2.6953698118e+00 4.6685174592e+00 
328400 4.6892523734e+00 -6.9457326515e-04 2.6953827031e+00 -4.6685397876e+00 2.6953827031e+00 4.6685397876e+00 
328500 4.6892523594e+00 -6.9420930713e-04 2.6953955876e+00 -4.6685621043e+00 2.6953955876e+00 4.6685621043e+00 
328600 4.6892523455e+00 -6.9384551771e-04 2.6954084653e+00 -4.6685844091e+00 2.6954084653e+00 4.6685844091e+00 
328700 4.6892523316e+00 -6.9348189685e-04 2.6954213362e+00 -4.6686067021e+00 2.6954213362e+00 4.6686067021e+00 
328800 4.6892523177e+00 -6.9311844450e-04 2.6954342003e+00 -4.6686289834e+00 2.6954342003e+00 4.6686289834e+00 
328900 4.6892523039e+00 -6.9275516064e-04 2.6954470576e+00 -4.6686512528e+00 2.6954470576e+00 4.6686512528e+00 
329000 4.6892522900e+00 -6.9239204522e-04 2.6954599080e+00 -4.6686735105e+00 2.6954599080e+00 4.6686735105e+00 
329100 4.6892522762e+00 -6.9202909820e-04 2.6954727517e+00 -4.6686957564e+00 2.6954727517e+00 4.6686957564e+00 
329200 4.6892522624e+00 -6.9166631954e-04 2.6954855886e+00 -4.6687179906e+00 2.6954855886e+00 4.6687179906e+00 
329300 4.6892522486e+00 -6.9130370920e-04 2.6954984187e+00 -4.6687402129e+00 2.6954984187e+00 4.6687402129e+00 
329400 4.6892522348e+00 -6.9094126714e-04 2.6955112420e+00 -4.6687624236e+00 2.6955112420e+00 4.6687624236e+00 
329500 4.6892522210e+00 -6.9057899332e-04 2.6955240586e+00 -4.6687846224e+00 2.6955240586e+00 4.6687846224e+00 
329600 4.6892522072e+00 -6.9021688771e-04 2.6955368683e+00 -4.6688068096e+00 2.6955368683e+00 4.6688068096e+00 
329700 4.6892521935e+00 -6.8985495026e-04 2.6955496713e+00 -4.6688289850e+00 2.6955496713e+00 4.6688289850e+00 
329800 4.6892521797e+00 -6.8949318093e-04 2.6955624675e+00 -4.6688511486e+00 2.6955624675e+00 4.6688511486e+00 
329900 4.6892521660e+00 -6.8913157969e-04 2.6955752569e+00 -4.6688733005e+00 2.6955752569e+00 4.6688733005e+00 
330000 4.6892521523e+00 -6.8877014649e-04 2.6955880395e+00 -4.6688954408e+00 2.6955880395e+00 4.6688954408e+00 
330100 4.6892521386e+00 -6.8840888129e-04 2.6956008154e+00 -4.6689175692e+00 2.6956008154e+00 4.6689175692e+00 
330200 4.6892521249e+00 -6.8804778405e-04 2.6956135846e+00 -4.6689396860e+00 2.6956135846e+00 4.6689396860e+00 
330300 4.6892521113e+00 -6.8768685473e-04 2.6956263469e+00 -4.6689617911e+00 2.6956263469e+00 4.6689617911e+00 
330400 4.6892520976e+00 -6.8732609330e-04 2.6956391025e+00 -4.6689838845e+00 2.6956391025e+00 4.6689838845e+00 
330500 4.6892520840e+00 -6.8696549971e-04 2.6956518514e+00 -4.6690059661e+00 2.6956518514e+00 4.6690059661e+00 
330600 4.6892520704e+00 -6.8660507392e-04 2.6956645935e+00 -4.6690280361e+00 2.6956645935e+00 4.6690280361e+00 
330700 4.6892520568e+00 -6.8624481589e-04 2.6956773289e+00 -4.6690500944e+00 2.6956773289e+00 4.6690500944e+00 
330800 4.6892520432e+00 -6.8588472557e-04 2.6956900575e+00 -4.6690721411e+00 2.6956900575e+00 4.6690721411e+00 
330900 4.6892520296e+00 -6.8552480294e-04 2.6957027794e+00 -4.6690941760e+00 2.6957027794e+00 4.6690941760e+00 
331000 4.6892520160e+00 -6.8516504795e-04 2.6957154945e+00 -4.6691161993e+00 2.6957154945e+00 4.6691161993e+00 
331100 4.6892520025e+00 -6.8480546056e-04 2.6957282030e+00 -4.6691382109e+00 2.6957282030e+00 4.6691382109e+00 
331200 4.6892519889e+00 -6.8444604072e-04 2.6957409047e+00 -4.6691602109e+00 2.6957409047e+00 4.6691602109e+00 
331300 4.6892519754e+00 -6.8408678840e-04 2.6957535996e+00 -4.6691821992e+00 2.6957535996e+00 4.6691821992e+00 
331400 4.6892519619e+00 -6.8372770355e-04 2.6957662879e+00 -4.6692041759e+00 2.6957662879e+00 4.6692041759e+00 
331500 4.6892519484e+00 -6.8336878614e-04 2.6957789694e+00 -4.6692261409e+00 2.6957789694e+00 4.6692261409e+00 
331600 4.6892519349e+00 -6.8301003613e-04 2.6957916442e+00 -4.6692480943e+00 2.6957916442e+00 4.6692480943e+00 
331700 4.6892519215e+00 -6.8265145346e-04 2.6958043123e+00 -4.6692700361e+00 2.6958043123e+00 4.6692700361e+00 
331800 4.6892519080e+00 -6.8229303811e-04 2.6958169736e+00 -4.6692919663e+00 2.6958169736e+00 4.6692919663e+00 
331900 4.6892518946e+00 -6.8193479003e-04 2.6958296283e+00 -4.6693138848e+00 2.6958296283e+00 4.6693138848e+00 
332000 4.6892518811e+00 -6.8157670918e-04 2.6958422763e+00 -4.6693357917e+00 2.6958422763e+00 4.6693357917e+00 
332100 4.6892518677e+00 -6.8121879551e-04 2.6958549175e+00 -4.6693576870e+00 2.6958549175e+00 4.6693576870e+00 
332200 4.6892518543e+00 -6.8086104899e-04 2.6958675521e+00 -4.6693795707e+00 2.6958675521e+00 4.6693795707e+00 
332300 4.6892518409e+00 -6.8050346958e-04 2.6958801800e+00 -4.6694014429e+00 2.6958801800e+00 4.6694014429e+00 
332400 4.6892518276e+00 -6.8014605723e-04 2.6958928012e+00 -4.6694233034e+00 2.6958928012e+00 4.6694233034e+00 
332500 4.6892518142e+00 -6.7978881190e-04 2.6959054157e+00 -4.6694451523e+00 2.6959054157e+00 4.6694451523e+00 
332600 4.6892518009e+00 -6.7943173356e-04 2.6959180235e+00 -4.6694669897e+00 2.6959180235e+00 4.6694669897e+00 
332700 4.6892517876e+00 -6.7907482215e-04 2.6959306246e+00 -4.6694888155e+00 2.6959306246e+00 4.6694888155e+00 
332800 4.6892517742e+00 -6.7871807764e-04 2.6959432191e+00 -4.6695106297e+00 2.6959432191e+00 4.6695106297e+00 
332900 4.6892517609e+00 -6.7836149998e-04 2.6959558068e+00 -4.6695324324e+00 2.6959558068e+00 4.6695324324e+00 
333000 4.6892517477e+00 -6.7800508914e-04 2.6959683879e+00 -4.6695542235e+00 2.6959683879e+00 4.6695542235e+00 
333100 4.6892517344e+00 -6.7764884507e-04 2.6959809624e+00 -4.6695760031e+00 2.6959809624e+00 4.6695760031e+00 
333200 4.6892517211e+00 -6.7729276774e-04 2.6959935302e+00 -4.6695977711e+00 2.6959935302e+00 4.6695977711e+00 
333300 4.6892517079e+00 -6.7693685708e-04 2.6960060913e+00 -4.6696195276e+00 2.6960060913e+00 4.6696195276e+00 
333400 4.6892516946e+00 -6.7658111308e-04 2.6960186457e+00 -4.6696412725e+00 2.6960186457e+00 4.6696412725e+00 
333500 4.6892516814e+00 -6.7622553568e-04 2.6960311935e+00 -4.6696630059e+00 2.6960311935e+00 4.6696630059e+00 
333600 4.6892516682e+00 -6.7587012484e-04 2.6960437346e+00 -4.6696847278e+00 2.6960437346e+00 4.6696847278e+00 
333700 4.6892516550e+00 -6.7551488052e-04 2.6960562691e+00 -4.6697064382e+00 2.6960562691e+00 4.6697064382e+00 
333800 4.6892516419e+00 -6.7515980268e-04 2.6960687970e+00 -4.6697281371e+00 2.6960687970e+00 4.6697281371e+00 
333900 4.6892516287e+00 -6.7480489127e-04 2.6960813182e+00 -4.6697498244e+00 2.6960813182e+00 4.6697498244e+00 
334000 4.6892516156e+00 -6.7445014626e-04 2.6960938327e+00 -4.6697715003e+00 2.6960938327e+00 4.6697715003e+00 
334100 4.6892516024e+00 -6.7409556760e-04 2.6961063407e+00 -4.6697931646e+00 2.6961063407e+00 4.6697931646e+00 
334200 4.6892515893e+00 -6.7374115524e-04 2.6961188419e+00 -4.6698148175e+00 2.6961188419e+00 4.6698148175e+00 
334300 4.6892515762e+00 -6.7338690915e-04 2.6961313366e+00 -4.6698364589e+00 2.6961313366e+00 4.6698364589e+00 
334400 4.6892515631e+00 -6.7303282929e-04 2.6961438246e+00 -4.6698580888e+00 2.6961438246e+00 4.6698580888e+00 
334500 4.6892515500e+00 -6.7267891560e-04 2.6961563060e+00 -4.6698797072e+00 2.6961563060e+00 4.6698797072e+00 
334600 4.6892515369e+00 -6.7232516805e-04 2.6961687808e+00 -4.6699013142e+00 2.6961687808e+00 4.6699013142e+00 
334700 4.6892515239e+00 -6.7197158660e-04 2.6961812490e+00 -4.6699229097e+00 2.6961812490e+00 4.6699229097e+00 
334800 4.6892515109e+00 -6.7161817120e-04 2.6961937105e+00 -4.6699444937e+00 2.6961937105e+00 4.6699444937e+00 
334900 4.6892514978e+00 -6.7126492181e-04 2.6962061655e+00 -4.6699660663e+00 2.6962061655e+00 4.6699660663e+00 
335000 4.6892514848e+00 -6.7091183838e-04 2.6962186138e+00 -4.6699876274e+00 2.6962186138e+00 4.6699876274e+00 
335100 4.6892514718e+00 -6.7055892088e-04 2.6962310555e+00 -4.6700091772e+00 2.6962310555e+00 4.6700091772e+00 
335200 4.6892514588e+00 -6.7020616926e-04 2.6962434907e+00 -4.6700307154e+00 2.6962434907e+00 4.6700307154e+00 
335300 4.6892514459e+00 -6.6985358347e-04 2.6962559192e+00 -4.6700522423e+00 2.6962559192e+00 4.6700522423e+00 
335400 4.6892514329e+00 -6.6950116348e-04 2.6962683411e+00 -4.6700737577e+00 2.6962683411e+00 4.6700737577e+00 
335500 4.6892514200e+00 -6.6914890925e-04 2.6962807565e+00 -4.6700952617e+00 2.6962807565e+00 4.6700952617e+00 
335600 4.6892514070e+00 -6.6879682072e-04 2.6962931652e+00 -4.6701167543e+00 2.6962931652e+00 4.6701167543e+00 
335700 4.6892513941e+00 -6.6844489785e-04 2.6963055674e+00 -4.6701382354e+00 2.6963055674e+00 4.6701382354e+00 
335800 4.6892513812e+00 -6.6809314061e-04 2.6963179630e+00 -4.6701597052e+00 2.6963179630e+00 4.6701597052e+00 
335900 4.6892513683e+00 -6.6774154894e-04 2.6963303520e+00 -4.6701811636e+00 2.6963303520e+00 4.6701811636e+00 
336000 4.6892513554e+00 -6.6739012281e-04 2.6963427344e+00 -4.6702026106e+00 2.6963427344e+00 4.6702026106e+00 
336100 4.6892513426e+00 -6.6703886217e-04 2.6963551102e+00 -4.6702240462e+00 2.6963551102e+00 4.6702240462e+00 
336200 4.6892513297e+00 -6.6668776698e-04 2.6963674795e+00 -4.6702454704e+00 2.6963674795e+00 4.6702454704e+00 
336300 4.6892513169e+00 -6.6633683719e-04 2.6963798422e+00 -4.6702668832e+00 2.6963798422e+00 4.6702668832e+00 
336400 4.6892513041e+00 -6.6598607277e-04 2.6963921984e+00 -4.6702882847e+00 2.6963921984e+00 4.6702882847e+00 
336500 4.6892512913e+00 -6.6563547366e-04 2.6964045480e+00 -4.6703096748e+00 2.6964045480e+00 4.6703096748e+00 
336600 4.6892512785e+00 -6.6528503982e-04 2.6964168910e+00 -4.6703310536e+00 2.6964168910e+00 4.6703310536e+00 
336700 4.6892512657e+00 -6.6493477121e-04 2.6964292275e+00 -4.6703524210e+00 2.6964292275e+00 4.6703524210e+00 
336800 4.6892512529e+00 -6.6458466779e-04 2.6964415574e+00 -4.6703737770e+00 2.6964415574e+00 4.6703737770e+00 
336900 4.6892512402e+00 -6.6423472951e-04 2.6964538808e+00 -4.6703951217e+00 2.6964538808e+00 4.6703951217e+00 
337000 4.6892512274e+00 -6.6388495633e-04 2.6964661976e+00 -4.6704164551e+00 2.6964661976e+00 4.6704164551e+00 
337100 4.6892512147e+00 -6.6353534821e-04 2.6964785079e+00 -4.6704377772e+00 2.6964785079e+00 4.6704377772e+00 
337200 4.6892512020e+00 -6.6318590509e-04 2.6964908116e+00 -4.6704590879e+00 2.6964908116e+00 4.6704590879e+00 
337300 4.6892511893e+00 -6.6283662694e-04 2.6965031088e+00 -4.6704803873e+00 2.6965031088e+00 4.6704803873e+00 
337400 4.6892511766e+00 -6.6248751371e-04 2.6965153995e+00 -4.6705016754e+00 2.6965153995e+00 4.6705016754e+00 
337500 4.6892511639e+00 -6.6213856535e-04 2.6965276837e+00 -4.6705229521e+00 2.6965276837e+00 4.6705229521e+00 
337600 4.6892511512e+00 -6.6178978184e-04 2.6965399613e+00 -4.6705442176e+00 2.6965399613e+00 4.6705442176e+00 
337700 4.6892511386e+00 -6.6144116311e-04 2.6965522324e+00 -4.6705654718e+00 2.6965522324e+00 4.6705654718e+00 
337800 4.6892511259e+00 -6.6109270912e-04 2.6965644970e+00 -4.6705867146e+00 2.6965644970e+00 4.6705867146e+00 
337900 4.6892511133e+00 -6.6074441984e-04 2.6965767550e+00 -4.6706079462e+00 2.6965767550e+00 4.6706079462e+00 
338000 4.6892511007e+00 -6.6039629521e-04 2.6965890066e+00 -4.6706291665e+00 2.6965890066e+00 4.6706291665e+00 
338100 4.6892510881e+00 -6.6004833519e-04 2.6966012516e+00 -4.6706503756e+00 2.6966012516e+00 4.6706503756e+00 
338200 4.6892510755e+00 -6.5970053974e-04 2.6966134902e+00 -4.6706715733e+00 2.6966134902e+00 4.6706715733e+00 
338300 4.6892510629e+00 -6.5935290881e-04 2.6966257222e+00 -4.6706927598e+00 2.6966257222e+00 4.6706927598e+00 
338400 4.6892510504e+00 -6.5900544237e-04 2.6966379477e+00 -4.6707139351e+00 2.6966379477e+00 4.6707139351e+00 
338500 4.6892510378e+00 -6.5865814035e-04 2.6966501667e+00 -4.6707350990e+00 2.6966501667e+00 4.6707350990e+00 
338600 4.6892510253e+00 -6.5831100272e-04 2.6966623793e+00 -4.6707562518e+00 2.6966623793e+00 4.6707562518e+00 
338700 4.6892510128e+00 -6.5796402944e-04 2.6966745853e+00 -4.6707773933e+00 2.6966745853e+00 4.6707773933e+00 
338800 4.6892510003e+00 -6.5761722045e-04 2.6966867849e+00 -4.6707985235e+00 2.6966867849e+00 4.6707985235e+00 
338900 4.6892509878e+00 -6.5727057572e-04 2.6966989779e+00 -4.6708196425e+00 2.6966989779e+00 4.6708196425e+00 
339000 4.6892509753e+00 -6.5692409520e-04 2.6967111645e+00 -4.6708407503e+00 2.6967111645e+00 4.6708407503e+00 
339100 4.6892509628e+00 -6.5657777884e-04 2.6967233446e+00 -4.6708618469e+00 2.6967233446e+00 4.6708618469e+00 
339200 4.6892509504e+00 -6.5623162661e-04 2.6967355183e+00 -4.6708829322e+00 2.6967355183e+00 4.6708829322e+00 
339300 4.6892509379e+00 -6.5588563844e-04 2.6967476854e+00 -4.6709040063e+00 2.6967476854e+00 4.6709040063e+00 
339400 4.6892509255e+00 -6.5553981431e-04 2.6967598461e+00 -4.6709250693e+00 2.6967598461e+00 4.6709250693e+00 
339500 4.6892509131e+00 -6.5519415416e-04 2.6967720003e+00 -4.6709461210e+00 2.6967720003e+00 4.6709461210e+00 
339600 4.6892509007e+00 -6.5484865795e-04 2.6967841481e+00 -4.6709671615e+00 2.6967841481e+00 4.6709671615e+00 
339700 4.6892508883e+00 -6.5450332563e-04 2.6967962894e+00 -4.6709881909e+00 2.6967962894e+00 4.6709881909e+00 
339800 4.6892508759e+00 -6.5415815716e-04 2.6968084242e+00 -4.6710092090e+00 2.6968084242e+00 4.6710092090e+00 
339900 4.6892508636e+00 -6.5381315249e-04 2.6968205526e+00 -4.6710302160e+00 2.6968205526e+00 4.6710302160e+00 
340000 4.6892508512e+00 -6.5346831158e-04 2.6968326745e+00 -4.6710512118e+00 2.6968326745e+00 4.6710512118e+00 
340100 4.6892508389e+00 -6.5312363439e-04 2.6968447900e+00 -4.6710721965e+00 2.6968447900e+00 4.6710721965e+00 
340200 4.6892508266e+00 -6.5277912086e-04 2.6968568991e+00 -4.6710931699e+00 2.6968568991e+00 4.6710931699e+00 
340300 4.6892508143e+00 -6.5243477095e-04 2.6968690017e+00 -4.6711141323e+00 2.6968690017e+00 4.6711141323e+00 
340400 4.6892508020e+00 -6.5209058462e-04 2.6968810978e+00 -4.6711350834e+00 2.6968810978e+00 4.6711350834e+00 
340500 4.6892507897e+00 -6.5174656181e-04 2.6968931876e+00 -4.6711560234e+00 2.6968931876e+00 4.6711560234e+00 
340600 4.6892507774e+00 -6.5140270250e-04 2.6969052709e+00 -4.6711769523e+00 2.6969052709e+00 4.6711769523e+00 
340700 4.6892507651e+00 -6.5105900662e-04 2.6969173477e+00 -4.6711978701e+00 2.6969173477e+00 4.6711978701e+00 
340800 4.6892507529e+00 -6.5071547413e-04 2.6969294182e+00 -4.6712187767e+00 2.6969294182e+00 4.6712187767e+00 
340900 4.6892507406e+00 -6.5037210499e-04 2.6969414822e+00 -4.6712396722e+00 2.6969414822e+00 4.6712396722e+00 
341000 4.6892507284e+00 -6.5002889915e-04 2.6969535398e+00 -4.6712605565e+00 2.6969535398e+00 4.6712605565e+00 
341100 4.6892507162e+00 -6.4968585657e-04 2.6969655909e+00 -4.6712814298e+00 2.6969655909e+00 4.6712814298e+00 
341200 4.6892507040e+00 -6.4934297720e-04 2.6969776357e+00 -4.6713022919e+00 2.6969776357e+00 4.6713022919e+00 
341300 4.6892506918e+00 -6.4900026099e-04 2.6969896741e+00 -4.6713231430e+00 2.6969896741e+00 4.6713231430e+00 
341400 4.6892506797e+00 -6.4865770790e-04 2.6970017060e+00 -4.6713439829e+00 2.6970017060e+00 4.6713439829e+00 
341500 4.6892506675e+00 -6.4831531788e-04 2.6970137316e+00 -4.6713648118e+00 2.6970137316e+00 4.6713648118e+00 
341600 4.6892506554e+00 -6.4797309089e-04 2.6970257507e+00 -4.6713856295e+00 2.6970257507e+00 4.6713856295e+00 
341700 4.6892506432e+00 -6.4763102688e-04 2.6970377634e+00 -4.6714064362e+00 2.6970377634e+00 4.6714064362e+00 
341800 4.6892506311e+00 -6.4728912580e-04 2.6970497698e+00 -4.6714272318e+00 2.6970497698e+00 4.6714272318e+00 
341900 4.6892506190e+00 -6.4694738760e-04 2.6970617697e+00 -4.6714480164e+00 2.6970617697e+00 4.6714480164e+00 
342000 4.6892506069e+00 -6.4660581225e-04 2.6970737633e+00 -4.6714687898e+00 2.6970737633e+00 4.6714687898e+00 
342100 4.6892505948e+00 -6.4626439969e-04 2.6970857505e+00 -4.6714895522e+00 2.6970857505e+00 4.6714895522e+00 
342200 4.6892505828e+00 -6.4592314988e-04 2.6970977313e+00 -4.6715103036e+00 2.6970977313e+00 4.6715103036e+00 
342300 4.6892505707e+00 -6.4558206277e-04 2.6971097057e+00 -4.6715310439e+00 2.6971097057e+00 4.6715310439e+00 
342400 4.6892505587e+00 -6.4524113832e-04 2.6971216738e+00 -4.6715517731e+00 2.6971216738e+00 4.6715517731e+00 
342500 4.6892505466e+00 -6.4490037648e-04 2.6971336354e+00 -4.6715724914e+00 2.6971336354e+00 4.6715724914e+00 
342600 4.6892505346e+00 -6.4455977719e-04 2.6971455907e+00 -4.6715931986e+00 2.6971455907e+00 4.6715931986e+00 
342700 4.6892505226e+00 -6.4421934043e-04 2.6971575397e+00 -4.6716138947e+00 2.6971575397e+00 4.6716138947e+00 
342800 4.6892505106e+00 -6.4387906613e-04 2.6971694822e+00 -4.6716345799e+00 2.6971694822e+00 4.6716345799e+00 
342900 4.6892504986e+00 -6.4353895426e-04 2.6971814184e+00 -4.6716552540e+00 2.6971814184e+00 4.6716552540e+00 
343000 4.6892504866e+00 -6.4319900476e-04 2.6971933483e+00 -4.6716759171e+00 2.6971933483e+00 4.6716759171e+00 
343100 4.6892504747e+00 -6.4285921759e-04 2.6972052718e+00 -4.6716965692e+00 2.6972052718e+00 4.6716965692e+00 
343200 4.6892504627e+00 -6.4251959270e-04 2.6972171889e+00 -4.6717172103e+00 2.6972171889e+00 4.6717172103e+00 
343300 4.6892504508e+00 -6.4218013005e-04 2.6972290997e+00 -4.6717378404e+00 2.6972290997e+00 4.6717378404e+00 
343400 4.6892504389e+00 -6.4184082958e-04 2.6972410042e+00 -4.6717584595e+00 2.6972410042e+00 4.6717584595e+00 
343500 4.6892504270e+00 -6.4150169126e-04 2.6972529023e+00 -4.6717790676e+00 2.6972529023e+00 4.6717790676e+00 
343600 4.6892504151e+00 -6.4116271503e-04 2.6972647941e+00 -4.6717996648e+00 2.6972647941e+00 4.6717996648e+00 
343700 4.6892504032e+00 -6.4082390085e-04 2.6972766795e+00 -4.6718202509e+00 2.6972766795e+00 4.6718202509e+00 
343800 4.6892503913e+00 -6.4048524867e-04 2.6972885586e+00 -4.6718408261e+00 2.6972885586e+00 4.6718408261e+00 
343900 4.6892503795e+00 -6.4014675844e-04 2.6973004314e+00 -4.6718613904e+00 2.6973004314e+00 4.6718613904e+00 
344000 4.6892503676e+00 -6.3980843012e-04 2.6973122978e+00 -4.6718819437e+00 2.6973122978e+00 4.6718819437e+00 
344100 4.6892503558e+00 -6.3947026366e-04 2.6973241579e+00 -4.6719024860e+00 2.6973241579e+00 4.6719024860e+00 
344200 4.6892503440e+00 -6.3913225901e-04 2.6973360117e+00 -4.6719230174e+00 2.6973360117e+00 4.6719230174e+00 
344300 4.6892503322e+00 -6.3879441613e-04 2.6973478592e+00 -4.6719435378e+00 2.6973478592e+00 4.6719435378e+00 
344400 4.6892503204e+00 -6.3845673496e-04 2.6973597004e+00 -4.6719640473e+00 2.6973597004e+00 4.6719640473e+00 
344500 4.6892503086e+00 -6.3811921546e-04 2.6973715352e+00 -4.6719845459e+00 2.6973715352e+00 4.6719845459e+00 
344600 4.6892502968e+00 -6.3778185759e-04 2.6973833638e+00 -4.6720050335e+00 2.6973833638e+00 4.6720050335e+00 
344700 4.6892502851e+00 -6.3744466129e-04 2.6973951860e+00 -4.6720255103e+00 2.6973951860e+00 4.6720255103e+00 
344800 4.6892502733e+00 -6.3710762652e-04 2.6974070019e+00 -4.6720459761e+00 2.6974070019e+00 4.6720459761e+00 
344900 4.6892502616e+00 -6.3677075323e-04 2.6974188116e+00 -4.6720664310e+00 2.6974188116e+00 4.6720664310e+00 
345000 4.6892502499e+00 -6.3643404137e-04 2.6974306149e+00 -4.6720868749e+00 2.6974306149e+00 4.6720868749e+00 
345100 4.6892502382e+00 -6.3609749090e-04 2.6974424120e+00 -4.6721073080e+00 2.6974424120e+00 4.6721073080e+00 
345200 4.6892502265e+00 -6.3576110176e-04 2.6974542027e+00 -4.6721277302e+00 2.6974542027e+00 4.6721277302e+00 
345300 4.6892502148e+00 -6.3542487392e-04 2.6974659872e+00 -4.6721481415e+00 2.6974659872e+00 4.6721481415e+00 
345400 4.6892502031e+00 -6.3508880732e-04 2.6974777654e+00 -4.6721685420e+00 2.6974777654e+00 4.6721685420e+00 
345500 4.6892501915e+00 -6.3475290191e-04 2.6974895373e+00 -4.6721889315e+00 2.6974895373e+00 4.6721889315e+00 
345600 4.6892501798e+00 -6.3441715765e-04 2.6975013029e+00 -4.6722093102e+00 2.6975013029e+00 4.6722093102e+00 
345700 4.6892501682e+00 -6.3408157449e-04 2.6975130623e+00 -4.6722296780e+00 2.6975130623e+00 4.6722296780e+00 
345800 4.6892501565e+00 -6.3374615238e-04 2.6975248154e+00 -4.6722500349e+00 2.6975248154e+00 4.6722500349e+00 
345900 4.6892501449e+00 -6.3341089127e-04 2.6975365622e+00 -4.6722703810e+00 2.6975365622e+00 4.6722703810e+00 
346000 4.6892501333e+00 -6.3307579112e-04 2.6975483028e+00 -4.6722907162e+00 2.6975483028e+00 4.6722907162e+00 
346100 4.6892501218e+00 -6.3274085187e-04 2.6975600370e+00 -4.6723110406e+00 2.6975600370e+00 4.6723110406e+00 
346200 4.6892501102e+00 -6.3240607348e-04 2.6975717651e+00 -4.6723313542e+00 2.6975717651e+00 4.6723313542e+00 
346300 4.6892500986e+00 -6.3207145591e-04 2.6975834868e+00 -4.6723516569e+00 2.6975834868e+00 4.6723516569e+00 
346400 4.6892500871e+00 -6.3173699910e-04 2.6975952024e+00 -4.6723719488e+00 2.6975952024e+00 4.6723719488e+00 
346500 4.6892500755e+00 -6.3140270300e-04 2.6976069116e+00 -4.6723922298e+00 2.6976069116e+00 4.6723922298e+00 
346600 4.6892500640e+00 -6.3106856757e-04 2.6976186147e+00 -4.6724125000e+00 2.6976186147e+00 4.6724125000e+00 
346700 4.6892500525e+00 -6.3073459276e-04 2.6976303114e+00 -4.6724327595e+00 2.6976303114e+00 4.6724327595e+00 
346800 4.6892500410e+00 -6.3040077852e-04 2.6976420020e+00 -4.6724530081e+00 2.6976420020e+00 4.6724530081e+00 
346900 4.6892500295e+00 -6.3006712481e-04 2.6976536863e+00 -4.6724732459e+00 2.6976536863e+00 4.6724732459e+00 
347000 4.6892500180e+00 -6.2973363156e-04 2.6976653644e+00 -4.6724934729e+00 2.6976653644e+00 4.6724934729e+00 
347100 4.6892500065e+00 -6.2940029875e-04 2.6976770362e+00 -4.6725136891e+00 2.6976770362e+00 4.6725136891e+00 
347200 4.6892499951e+00 -6.2906712630e-04 2.6976887018e+00 -4.6725338945e+00 2.6976887018e+00 4.6725338945e+00 
347300 4.6892499837e+00 -6.2873411419e-04 2.6977003612e+00 -4.6725540891e+00 2.6977003612e+00 4.6725540891e+00 
347400 4.6892499722e+00 -6.2840126236e-04 2.6977120143e+00 -4.6725742730e+00 2.6977120143e+00 4.6725742730e+00 
347500 4.6892499608e+00 -6.2806857076e-04 2.6977236613e+00 -4.6725944461e+00 2.6977236613e+00 4.6725944461e+00 
347600 4.6892499494e+00 -6.2773603934e-04 2.6977353020e+00 -4.6726146084e+00 2.6977353020e+00 4.6726146084e+00 
347700 4.6892499380e+00 -6.2740366806e-04 2.6977469365e+00 -4.6726347600e+00 2.6977469365e+00 4.6726347600e+00 
347800 4.6892499266e+00 -6.2707145687e-04 2.6977585648e+00 -4.6726549008e+00 2.6977585648e+00 4.6726549008e+00 
347900 4.6892499153e+00 -6.2673940571e-04 2.6977701869e+00 -4.6726750308e+00 2.6977701869e+00 4.6726750308e+00 
348000 4.6892499039e+00 -6.2640751454e-04 2.6977818028e+00 -4.6726951501e+00 2.6977818028e+00 4.6726951501e+00 
348100 4.6892498925e+00 -6.2607578331e-04 2.6977934125e+00 -4.6727152587e+00 2.6977934125e+00 4.6727152587e+00 
348200 4.6892498812e+00 -6.2574421197e-04 2.6978050159e+00 -4.6727353565e+00 2.6978050159e+00 4.6727353565e+00 
348300 4.6892498699e+00 -6.2541280047e-04 2.6978166132e+00 -4.6727554436e+00 2.6978166132e+00 4.6727554436e+00 
348400 4.6892498586e+00 -6.2508154877e-04 2.6978282043e+00 -4.6727755200e+00 2.6978282043e+00 4.6727755200e+00 
348500 4.6892498473e+00 -6.2475045681e-04 2.6978397893e+00 -4.6727955857e+00 2.6978397893e+00 4.6727955857e+00 
348600 4.6892498360e+00 -6.2441952455e-04 2.6978513680e+00 -4.6728156406e+00 2.6978513680e+00 4.6728156406e+00 
348700 4.6892498247e+00 -6.2408875194e-04 2.6978629405e+00 -4.6728356848e+00 2.6978629405e+00 4.6728356848e+00 
348800 4.6892498135e+00 -6.2375813892e-04 2.6978745069e+00 -4.6728557184e+00 2.6978745069e+00 4.6728557184e+00 
348900 4.6892498022e+00 -6.2342768545e-04 2.6978860671e+00 -4.6728757412e+00 2.6978860671e+00 4.6728757412e+00 
349000 4.6892497910e+00 -6.2309739148e-04 2.6978976211e+00 -4.6728957533e+00 2.6978976211e+00 4.6728957533e+00 
349100 4.6892497797e+00 -6.2276725696e-04 2.6979091689e+00 -4.6729157548e+00 2.6979091689e+00 4.6729157548e+00 
349200 4.6892497685e+00 -6.2243728185e-04 2.6979207106e+00 -4.6729357455e+00 2.6979207106e+00 4.6729357455e+00 
349300 4.6892497573e+00 -6.2210746608e-04 2.6979322461e+00 -4.6729557256e+00 2.6979322461e+00 4.6729557256e+00 
349400 4.6892497461e+00 -6.2177780962e-04 2.6979437754e+00 -4.6729756950e+00 2.6979437754e+00 4.6729756950e+00 
349500 4.6892497349e+00 -6.2144831242e-04 2.6979552986e+00 -4.6729956538e+00 2.6979552986e+00 4.6729956538e+00 
349600 4.6892497238e+00 -6.2111897442e-04 2.6979668157e+00 -4.6730156019e+00 2.6979668157e+00 4.6730156019e+00 
349700 4.6892497126e+00 -6.2078979557e-04 2.6979783265e+00 -4.6730355393e+00 2.6979783265e+00 4.6730355393e+00 
349800 4.6892497015e+00 -6.2046077583e-04 2.6979898313e+00 -4.6730554661e+00 2.6979898313e+00 4.6730554661e+00 
349900 4.6892496903e+00 -6.2013191515e-04 2.6980013299e+00 -4.6730753822e+00 2.6980013299e+00 4.6730753822e+00 
350000 4.6892496792e+00 -6.1980321347e-04 2.6980128223e+00 -4.6730952877e+00 2.6980128223e+00 4.6730952877e+00 
350100 4.6892496681e+00 -6.1947467076e-04 2.6980243086e+00 -4.6731151825e+00 2.6980243086e+00 4.6731151825e+00 
350200 4.6892496570e+00 -6.1914628695e-04 2.6980357888e+00 -4.6731350668e+00 2.6980357888e+00 4.6731350668e+00 
350300 4.6892496459e+00 -6.1881806200e-04 2.6980472628e+00 -4.6731549404e+00 2.6980472628e+00 4.6731549404e+00 
350400 4.6892496348e+00 -6.1848999586e-04 2.6980587307e+00 -4.6731748033e+00 2.6980587307e+00 4.6731748033e+00 
350500 4.6892496238e+00 -6.1816208848e-04 2.6980701924e+00 -4.6731946557e+00 2.6980701924e+00 4.6731946557e+00 
350600 4.6892496127e+00 -6.1783433981e-04 2.6980816481e+00 -4.6732144975e+00 2.6980816481e+00 4.6732144975e+00 
350700 4.6892496017e+00 -6.1750674980e-04 2.6980930976e+00 -4.6732343286e+00 2.6980930976e+00 4.6732343286e+00 
350800 4.6892495906e+00 -6.1717931840e-04 2.6981045410e+00 -4.6732541492e+00 2.6981045410e+00 4.6732541492e+00 
350900 4.6892495796e+00 -6.1685204556e-04 2.6981159783e+00 -4.6732739591e+00 2.6981159783e+00 4.6732739591e+00 
351000 4.6892495686e+00 -6.1652493124e-04 2.6981274095e+00 -4.6732937585e+00 2.6981274095e+00 4.6732937585e+00 
351100 4.6892495576e+00 -6.1619797537e-04 2.6981388345e+00 -4.6733135473e+00 2.6981388345e+00 4.6733135473e+00 
351200 4.6892495466e+00 -6.1587117792e-04 2.6981502535e+00 -4.6733333255e+00 2.6981502535e+00 4.6733333255e+00 
351300 4.6892495357e+00 -6.1554453883e-04 2.6981616663e+00 -4.6733530931e+00 2.6981616663e+00 4.6733530931e+00 
351400 4.6892495247e+00 -6.1521805805e-04 2.6981730731e+00 -4.6733728502e+00 2.6981730731e+00 4.6733728502e+00 
351500 4.6892495138e+00 -6.1489173554e-04 2.6981844737e+00 -4.6733925967e+00 2.6981844737e+00 4.6733925967e+00 
351600 4.6892495028e+00 -6.1456557123e-04 2.6981958683e+00 -4.6734123326e+00 2.6981958683e+00 4.6734123326e+00 
351700 4.6892494919e+00 -6.1423956509e-04 2.6982072567e+00 -4.6734320580e+00 2.6982072567e+00 4.6734320580e+00 
351800 4.6892494810e+00 -6.1391371707e-04 2.6982186391e+00 -4.6734517729e+00 2.6982186391e+00 4.6734517729e+00 
351900 4.6892494701e+00 -6.1358802710e-04 2.6982300154e+00 -4.6734714772e+00 2.6982300154e+00 4.6734714772e+00 
352000 4.6892494592e+00 -6.1326249515e-04 2.6982413856e+00 -4.6734911709e+00 2.6982413856e+00 4.6734911709e+00 
352100 4.6892494483e+00 -6.1293712116e-04 2.6982527497e+00 -4.6735108542e+00 2.6982527497e+00 4.6735108542e+00 
352200 4.6892494374e+00 -6.1261190508e-04 2.6982641078e+00 -4.6735305269e+00 2.6982641078e+00 4.6735305269e+00 
352300 4.6892494266e+00 -6.1228684686e-04 2.6982754597e+00 -4.6735501891e+00 2.6982754597e+00 4.6735501891e+00 
352400 4.6892494157e+00 -6.1196194646e-04 2.6982868056e+00 -4.6735698408e+00 2.6982868056e+00 4.6735698408e+00 
352500 4.6892494049e+00 -6.1163720381e-04 2.6982981455e+00 -4.6735894819e+00 2.6982981455e+00 4.6735894819e+00 
352600 4.6892493941e+00 -6.1131261888e-04 2.6983094792e+00 -4.6736091126e+00 2.6983094792e+00 4.6736091126e+00 
352700 4.6892493833e+00 -6.1098819161e-04 2.6983208069e+00 -4.6736287327e+00 2.6983208069e+00 4.6736287327e+00 
352800 4.6892493725e+00 -6.1066392195e-04 2.6983321286e+00 -4.6736483424e+00 2.6983321286e+00 4.6736483424e+00 
352900 4.6892493617e+00 -6.1033980985e-04 2.6983434442e+00 -4.6736679416e+00 2.6983434442e+00 4.6736679416e+00 
353000 4.6892493509e+00 -6.1001585526e-04 2.6983547537e+00 -4.6736875303e+00 2.6983547537e+00 4.6736875303e+00 
353100 4.6892493401e+00 -6.0969205812e-04 2.6983660572e+00 -4.6737071085e+00 2.6983660572e+00 4.6737071085e+00 
353200 4.6892493294e+00 -6.0936841840e-04 2.6983773546e+00 -4.6737266762e+00 2.6983773546e+00 4.6737266762e+00 
353300 4.6892493186e+00 -6.0904493604e-04 2.6983886460e+00 -4.6737462335e+00 2.6983886460e+00 4.6737462335e+00 
353400 4.6892493079e+00 -6.0872161098e-04 2.6983999314e+00 -4.6737657803e+00 2.6983999314e+00 4.6737657803e+00 
353500 4.6892492972e+00 -6.0839844318e-04 2.6984112107e+00 -4.6737853166e+00 2.6984112107e+00 4.6737853166e+00 
353600 4.6892492865e+00 -6.0807543259e-04 2.6984224840e+00 -4.6738048425e+00 2.6984224840e+00 4.6738048425e+00 
353700 4.6892492758e+00 -6.0775257916e-04 2.6984337512e+00 -4.6738243580e+00 2.6984337512e+00 4.6738243580e+00 
353800 4.6892492651e+00 -6.0742988283e-04 2.6984450124e+00 -4.6738438630e+00 2.6984450124e+00 4.6738438630e+00 
353900 4.6892492544e+00 -6.0710734355e-04 2.6984562676e+00 -4.6738633575e+00 2.6984562676e+00 4.6738633575e+00 
354000 4.6892492437e+00 -6.0678496128e-04 2.6984675168e+00 -4.6738828417e+00 2.6984675168e+00 4.6738828417e+00 
354100 4.6892492331e+00 -6.0646273597e-04 2.6984787600e+00 -4.6739023154e+00 2.6984787600e+00 4.6739023154e+00 
354200 4.6892492224e+00 -6.0614066755e-04 2.6984899971e+00 -4.6739217787e+00 2.6984899971e+00 4.6739217787e+00 
354300 4.6892492118e+00 -6.0581875599e-04 2.6985012282e+00 -4.6739412315e+00 2.6985012282e+00 4.6739412315e+00 
354400 4.6892492012e+00 -6.0549700123e-04 2.6985124533e+00 -4.6739606740e+00 2.6985124533e+00 4.6739606740e+00 
354500 4.6892491906e+00 -6.0517540322e-04 2.6985236724e+00 -4.6739801060e+00 2.6985236724e+00 4.6739801060e+00 
354600 4.6892491800e+00 -6.0485396191e-04 2.6985348855e+00 -4.6739995277e+00 2.6985348855e+00 4.6739995277e+00 
354700 4.6892491694e+00 -6.0453267725e-04 2.6985460926e+00 -4.6740189389e+00 2.6985460926e+00 4.6740189389e+00 
354800 4.6892491588e+00 -6.0421154918e-04 2.6985572937e+00 -4.6740383398e+00 2.6985572937e+00 4.6740383398e+00 
354900 4.6892491482e+00 -6.0389057767e-04 2.6985684888e+00 -4.6740577302e+00 2.6985684888e+00 4.6740577302e+00 
355000 4.6892491377e+00 -6.0356976265e-04 2.6985796779e+00 -4.6740771103e+00 2.6985796779e+00 4.6740771103e+00 
355100 4.6892491272e+00 -6.0324910407e-04 2.6985908610e+00 -4.6740964800e+00 2.6985908610e+00 4.6740964800e+00 
355200 4.6892491166e+00 -6.0292860188e-04 2.6986020381e+00 -4.6741158394e+00 2.6986020381e+00 4.6741158394e+00 
355300 4.6892491061e+00 -6.0260825604e-04 2.6986132092e+00 -4.6741351884e+00 2.6986132092e+00 4.6741351884e+00 
355400 4.6892490956e+00 -6.0228806649e-04 2.6986243744e+00 -4.6741545270e+00 2.6986243744e+00 4.6741545270e+00 
355500 4.6892490851e+00 -6.0196803318e-04 2.6986355336e+00 -4.6741738552e+00 2.6986355336e+00 4.6741738552e+00 
355600 4.6892490746e+00 -6.0164815606e-04 2.6986466868e+00 -4.6741931731e+00 2.6986466868e+00 4.6741931731e+00 
355700 4.6892490641e+00 -6.0132843508e-04 2.6986578340e+00 -4.6742124807e+00 2.6986578340e+00 4.6742124807e+00 
355800 4.6892490537e+00 -6.0100887019e-04 2.6986689752e+00 -4.6742317779e+00 2.6986689752e+00 4.6742317779e+00 
355900 4.6892490432e+00 -6.0068946133e-04 2.6986801105e+00 -4.6742510648e+00 2.6986801105e+00 4.6742510648e+00 
356000 4.6892490328e+00 -6.0037020845e-04 2.6986912399e+00 -4.6742703414e+00 2.6986912399e+00 4.6742703414e+00 
356100 4.6892490223e+00 -6.0005111151e-04 2.6987023632e+00 -4.6742896076e+00 2.6987023632e+00 4.6742896076e+00 
356200 4.6892490119e+00 -5.9973217045e-04 2.6987134806e+00 -4.6743088635e+00 2.6987134806e+00 4.6743088635e+00 
356300 4.6892490015e+00 -5.9941338521e-04 2.6987245921e+00 -4.6743281091e+00 2.6987245921e+00 4.6743281091e+00 
356400 4.6892489911e+00 -5.9909475576e-04 2.6987356976e+00 -4.6743473444e+00 2.6987356976e+00 4.6743473444e+00 
356500 4.6892489807e+00 -5.9877628204e-04 2.6987467971e+00 -4.6743665694e+00 2.6987467971e+00 4.6743665694e+00 
356600 4.6892489703e+00 -5.9845796399e-04 2.6987578907e+00 -4.6743857841e+00 2.6987578907e+00 4.6743857841e+00 
356700 4.6892489600e+00 -5.9813980156e-04 2.6987689784e+00 -4.6744049885e+00 2.6987689784e+00 4.6744049885e+00 
356800 4.6892489496e+00 -5.9782179471e-04 2.6987800601e+00 -4.6744241826e+00 2.6987800601e+00 4.6744241826e+00 
356900 4.6892489393e+00 -5.9750394338e-04 2.6987911359e+00 -4.6744433664e+00 2.6987911359e+00 4.6744433664e+00 
357000 4.6892489289e+00 -5.9718624752e-04 2.6988022058e+00 -4.6744625400e+00 2.6988022058e+00 4.6744625400e+00 
357100 4.6892489186e+00 -5.9686870708e-04 2.6988132697e+00 -4.6744817032e+00 2.6988132697e+00 4.6744817032e+00 
357200 4.6892489083e+00 -5.9655132200e-04 2.6988243277e+00 -4.6745008562e+00 2.6988243277e+00 4.6745008562e+00 
357300 4.6892488980e+00 -5.9623409224e-04 2.6988353797e+00 -4.6745199990e+00 2.6988353797e+00 4.6745199990e+00 
357400 4.6892488877e+00 -5.9591701774e-04 2.6988464259e+00 -4.6745391315e+00 2.6988464259e+00 4.6745391315e+00 
357500 4.6892488774e+00 -5.9560009846e-04 2.6988574661e+00 -4.6745582537e+00 2.6988574661e+00 4.6745582537e+00 
357600 4.6892488672e+00 -5.9528333433e-04 2.6988685004e+00 -4.6745773657e+00 2.6988685004e+00 4.6745773657e+00 
357700 4.6892488569e+00 -5.9496672531e-04 2.6988795288e+00 -4.6745964674e+00 2.6988795288e+00 4.6745964674e+00 
357800 4.6892488467e+00 -5.9465027135e-04 2.6988905513e+00 -4.6746155589e+00 2.6988905513e+00 4.6746155589e+00 
357900 4.6892488364e+00 -5.9433397240e-04 2.6989015679e+00 -4.6746346402e+00 2.6989015679e+00 4.6746346402e+00 
358000 4.6892488262e+00 -5.9401782839e-04 2.6989125786e+00 -4.6746537112e+00 2.6989125786e+00 4.6746537112e+00 
358100 4.6892488160e+00 -5.9370183929e-04 2.6989235833e+00 -4.6746727721e+00 2.6989235833e+00 4.6746727721e+00 
358200 4.6892488058e+00 -5.9338600503e-04 2.6989345822e+00 -4.6746918227e+00 2.6989345822e+00 4.6746918227e+00 
358300 4.6892487956e+00 -5.9307032558e-04 2.6989455752e+00 -4.6747108631e+00 2.6989455752e+00 4.6747108631e+00 
358400 4.6892487854e+00 -5.9275480087e-04 2.6989565623e+00 -4.6747298932e+00 2.6989565623e+00 4.6747298932e+00 
358500 4.6892487752e+00 -5.9243943085e-04 2.6989675434e+00 -4.6747489132e+00 2.6989675434e+00 4.6747489132e+00 
358600 4.6892487651e+00 -5.9212421547e-04 2.6989785187e+00 -4.6747679230e+00 2.6989785187e+00 4.6747679230e+00 
358700 4.6892487549e+00 -5.9180915468e-04 2.6989894882e+00 -4.6747869226e+00 2.6989894882e+00 4.6747869226e+00 
358800 4.6892487448e+00 -5.9149424843e-04 2.6990004517e+00 -4.6748059120e+00 2.6990004517e+00 4.6748059120e+00 
358900 4.6892487346e+00 -5.9117949667e-04 2.6990114094e+00 -4.6748248912e+00 2.6990114094e+00 4.6748248912e+00 
359000 4.6892487245e+00 -5.9086489933e-04 2.6990223612e+00 -4.6748438603e+00 2.6990223612e+00 4.6748438603e+00 
359100 4.6892487144e+00 -5.9055045638e-04 2.6990333071e+00 -4.6748628192e+00 2.6990333071e+00 4.6748628192e+00 
359200 4.6892487043e+00 -5.9023616776e-04 2.6990442471e+00 -4.6748817679e+00 2.6990442471e+00 4.6748817679e+00 
359300 4.6892486942e+00 -5.8992203342e-04 2.6990551813e+00 -4.6749007064e+00 2.6990551813e+00 4.6749007064e+00 
359400 4.6892486841e+00 -5.8960805329e-04 2.6990661096e+00 -4.6749196348e+00 2.6990661096e+00 4.6749196348e+00 
359500 4.6892486741e+00 -5.8929422734e-04 2.6990770321e+00 -4.6749385531e+00 2.6990770321e+00 4.6749385531e+00 
359600 4.6892486640e+00 -5.8898055552e-04 2.6990879487e+00 -4.6749574612e+00 2.6990879487e+00 4.6749574612e+00 
359700 4.6892486540e+00 -5.8866703775e-04 2.6990988594e+00 -4.6749763591e+00 2.6990988594e+00 4.6749763591e+00 
359800 4.6892486439e+00 -5.8835367401e-04 2.6991097643e+00 -4.6749952469e+00 2.6991097643e+00 4.6749952469e+00 
359900 4.6892486339e+00 -5.8804046423e-04 2.6991206633e+00 -4.6750141246e+00 2.6991206633e+00 4.6750141246e+00 
360000 4.6892486239e+00 -5.8772740835e-04 2.6991315565e+00 -4.6750329922e+00 2.6991315565e+00 4.6750329922e+00 
360100 4.6892486139e+00 -5.8741450634e-04 2.6991424439e+00 -4.6750518496e+00 2.6991424439e+00 4.6750518496e+00 
360200 4.6892486039e+00 -5.8710175813e-04 2.6991533254e+00 -4.6750706970e+00 2.6991533254e+00 4.6750706970e+00 
360300 4.6892485939e+00 -5.8678916368e-04 2.6991642010e+00 -4.6750895342e+00 2.6991642010e+00 4.6750895342e+00 
360400 4.6892485840e+00 -5.8647672293e-04 2.6991750709e+00 -4.6751083613e+00 2.6991750709e+00 4.6751083613e+00 
360500 4.6892485740e+00 -5.8616443583e-04 2.6991859349e+00 -4.6751271783e+00 2.6991859349e+00 4.6751271783e+00 
360600 4.6892485641e+00 -5.8585230232e-04 2.6991967931e+00 -4.6751459852e+00 2.6991967931e+00 4.6751459852e+00 
360700 4.6892485541e+00 -5.8554032236e-04 2.6992076454e+00 -4.6751647820e+00 2.6992076454e+00 4.6751647820e+00 
360800 4.6892485442e+00 -5.8522849588e-04 2.6992184919e+00 -4.6751835688e+00 2.6992184919e+00 4.6751835688e+00 
360900 4.6892485343e+00 -5.8491682285e-04 2.6992293327e+00 -4.6752023454e+00 2.6992293327e+00 4.6752023454e+00 
361000 4.6892485244e+00 -5.8460530321e-04 2.6992401676e+00 -4.6752211120e+00 2.6992401676e+00 4.6752211120e+00 
361100 4.6892485145e+00 -5.8429393689e-04 2.6992509966e+00 -4.6752398685e+00 2.6992509966e+00 4.6752398685e+00 
361200 4.6892485046e+00 -5.8398272386e-04 2.6992618199e+00 -4.6752586150e+00 2.6992618199e+00 4.6752586150e+00 
361300 4.6892484947e+00 -5.8367166406e-04 2.6992726374e+00 -4.6752773514e+00 2.6992726374e+00 4.6752773514e+00 
361400 4.6892484848e+00 -5.8336075743e-04 2.6992834490e+00 -4.6752960777e+00 2.6992834490e+00 4.6752960777e+00 
361500 4.6892484750e+00 -5.8305000392e-04 2.6992942549e+00 -4.6753147940e+00 2.6992942549e+00 4.6753147940e+00 
361600 4.6892484651e+00 -5.8273940349e-04 2.6993050549e+00 -4.6753335002e+00 2.6993050549e+00 4.6753335002e+00 
361700 4.6892484553e+00 -5.8242895607e-04 2.6993158492e+00 -4.6753521964e+00 2.6993158492e+00 4.6753521964e+00 
361800 4.6892484455e+00 -5.8211866162e-04 2.6993266376e+00 -4.6753708826e+00 2.6993266376e+00 4.6753708826e+00 
361900 4.6892484357e+00 -5.8180852008e-04 2.6993374203e+00 -4.6753895587e+00 2.6993374203e+00 4.6753895587e+00 
362000 4.6892484259e+00 -5.8149853140e-04 2.6993481972e+00 -4.6754082249e+00 2.6993481972e+00 4.6754082249e+00 
362100 4.6892484161e+00 -5.8118869552e-04 2.6993589683e+00 -4.6754268809e+00 2.6993589683e+00 4.6754268809e+00 
362200 4.6892484063e+00 -5.8087901240e-04 2.6993697336e+00 -4.6754455270e+00 2.6993697336e+00 4.6754455270e+00 
362300 4.6892483965e+00 -5.8056948198e-04 2.6993804931e+00 -4.6754641631e+00 2.6993804931e+00 4.6754641631e+00 
362400 4.6892483867e+00 -5.8026010421e-04 2.6993912469e+00 -4.6754827891e+00 2.6993912469e+00 4.6754827891e+00 
362500 4.6892483770e+00 -5.7995087903e-04 2.6994019949e+00 -4.6755014052e+00 2.6994019949e+00 4.6755014052e+00 
362600 4.6892483672e+00 -5.7964180640e-04 2.6994127371e+00 -4.6755200113e+00 2.6994127371e+00 4.6755200113e+00 
362700 4.6892483575e+00 -5.7933288625e-04 2.6994234736e+00 -4.6755386073e+00 2.6994234736e+00 4.6755386073e+00 
362800 4.6892483478e+00 -5.7902411854e-04 2.6994342042e+00 -4.6755571934e+00 2.6994342042e+00 4.6755571934e+00 
362900 4.6892483381e+00 -5.7871550321e-04 2.6994449292e+00 -4.6755757696e+00 2.6994449292e+00 4.6755757696e+00 
363000 4.6892483284e+00 -5.7840704021e-04 2.6994556483e+00 -4.6755943357e+00 2.6994556483e+00 4.6755943357e+00 
363100 4.6892483187e+00 -5.7809872949e-04 2.6994663617e+00 -4.6756128919e+00 2.6994663617e+00 4.6756128919e+00 
363200 4.6892483090e+00 -5.7779057100e-04 2.6994770694e+00 -4.6756314381e+00 2.6994770694e+00 4.6756314381e+00 
363300 4.6892482993e+00 -5.7748256467e-04 2.6994877713e+00 -4.6756499743e+00 2.6994877713e+00 4.6756499743e+00 
363400 4.6892482897e+00 -5.7717471046e-04 2.6994984675e+00 -4.6756685006e+00 2.6994984675e+00 4.6756685006e+00 
363500 4.6892482800e+00 -5.7686700832e-04 2.6995091579e+00 -4.6756870169e+00 2.6995091579e+00 4.6756870169e+00 
363600 4.6892482704e+00 -5.7655945818e-04 2.6995198425e+00 -4.6757055233e+00 2.6995198425e+00 4.6757055233e+00 
363700 4.6892482608e+00 -5.7625206001e-04 2.6995305215e+00 -4.6757240198e+00 2.6995305215e+00 4.6757240198e+00 
363800 4.6892482511e+00 -5.7594481374e-04 2.6995411947e+00 -4.6757425063e+00 2.6995411947e+00 4.6757425063e+00 
363900 4.6892482415e+00 -5.7563771932e-04 2.6995518621e+00 -4.6757609829e+00 2.6995518621e+00 4.6757609829e+00 
364000 4.6892482319e+00 -5.7533077670e-04 2.6995625239e+00 -4.6757794496e+00 2.6995625239e+00 4.6757794496e+00 
364100 4.6892482223e+00 -5.7502398583e-04 2.6995731799e+00 -4.6757979063e+00 2.6995731799e+00 4.6757979063e+00 
364200 4.6892482128e+00 -5.7471734665e-04 2.6995838302e+00 -4.6758163531e+00 2.6995838302e+00 4.6758163531e+00 
364300 4.6892482032e+00 -5.7441085910e-04 2.6995944747e+00 -4.6758347901e+00 2.6995944747e+00 4.6758347901e+00 
364400 4.6892481936e+00 -5.7410452315e-04 2.6996051136e+00 -4.6758532171e+00 2.6996051136e+00 4.6758532171e+00 
364500 4.6892481841e+00 -5.7379833872e-04 2.6996157467e+00 -4.6758716342e+00 2.6996157467e+00 4.6758716342e+00 
364600 4.6892481745e+00 -5.7349230578e-04 2.6996263741e+00 -4.6758900414e+00 2.6996263741e+00 4.6758900414e+00 
364700 4.6892481650e+00 -5.7318642425e-04 2.6996369958e+00 -4.6759084387e+00 2.6996369958e+00 4.6759084387e+00 
364800 4.6892481555e+00 -5.7288069410e-04 2.6996476118e+00 -4.6759268262e+00 2.6996476118e+00 4.6759268262e+00 
364900 4.6892481460e+00 -5.7257511527e-04 2.6996582221e+00 -4.6759452038e+00 2.6996582221e+00 4.6759452038e+00 
365000 4.6892481365e+00 -5.7226968771e-04 2.6996688267e+00 -4.6759635715e+00 2.6996688267e+00 4.6759635715e+00 
365100 4.6892481270e+00 -5.7196441135e-04 2.6996794256e+00 -4.6759819293e+00 2.6996794256e+00 4.6759819293e+00 
365200 4.6892481175e+00 -5.7165928616e-04 2.6996900188e+00 -4.6760002772e+00 2.6996900188e+00 4.6760002772e+00 
365300 4.6892481080e+00 -5.7135431206e-04 2.6997006063e+00 -4.6760186153e+00 2.6997006063e+00 4.6760186153e+00 
365400 4.6892480986e+00 -5.7104948902e-04 2.6997111881e+00 -4.6760369436e+00 2.6997111881e+00 4.6760369436e+00 
365500 4.6892480891e+00 -5.7074481698e-04 2.6997217642e+00 -4.6760552620e+00 2.6997217642e+00 4.6760552620e+00 
365600 4.6892480797e+00 -5.7044029588e-04 2.6997323347e+00 -4.6760735705e+00 2.6997323347e+00 4.6760735705e+00 
365700 4.6892480703e+00 -5.7013592567e-04 2.6997428994e+00 -4.6760918692e+00 2.6997428994e+00 4.6760918692e+00 
365800 4.6892480609e+00 -5.6983170630e-04 2.6997534585e+00 -4.6761101581e+00 2.6997534585e+00 4.6761101581e+00 
365900 4.6892480514e+00 -5.6952763771e-04 2.6997640119e+00 -4.6761284371e+00 2.6997640119e+00 4.6761284371e+00 
366000 4.6892480420e+00 -5.6922371985e-04 2.6997745597e+00 -4.6761467063e+00 2.6997745597e+00 4.6761467063e+00 
366100 4.6892480327e+00 -5.6891995267e-04 2.6997851017e+00 -4.6761649657e+00 2.6997851017e+00 4.6761649657e+00 
366200 4.6892480233e+00 -5.6861633611e-04 2.6997956381e+00 -4.6761832153e+00 2.6997956381e+00 4.6761832153e+00 
366300 4.6892480139e+00 -5.6831287012e-04 2.6998061689e+00 -4.6762014551e+00 2.6998061689e+00 4.6762014551e+00 
366400 4.6892480045e+00 -5.6800955464e-04 2.6998166940e+00 -4.6762196851e+00 2.6998166940e+00 4.6762196851e+00 
366500 4.6892479952e+00 -5.6770638963e-04 2.6998272134e+00 -4.6762379052e+00 2.6998272134e+00 4.6762379052e+00 
366600 4.6892479859e+00 -5.6740337502e-04 2.6998377271e+00 -4.6762561156e+00 2.6998377271e+00 4.6762561156e+00 
366700 4.6892479765e+00 -5.6710051076e-04 2.6998482352e+00 -4.6762743162e+00 2.6998482352e+00 4.6762743162e+00 
366800 4.6892479672e+00 -5.6679779681e-04 2.6998587377e+00 -4.6762925070e+00 2.6998587377e+00 4.6762925070e+00 
366900 4.6892479579e+00 -5.6649523310e-04 2.6998692345e+00 -4.6763106880e+00 2.6998692345e+00 4.6763106880e+00 
367000 4.6892479486e+00 -5.6619281958e-04 2.6998797257e+00 -4.6763288592e+00 2.6998797257e+00 4.6763288592e+00 
367100 4.6892479393e+00 -5.6589055620e-04 2.6998902112e+00 -4.6763470207e+00 2.6998902112e+00 4.6763470207e+00 
367200 4.6892479300e+00 -5.6558844291e-04 2.6999006911e+00 -4.6763651724e+00 2.6999006911e+00 4.6763651724e+00 
367300 4.6892479208e+00 -5.6528647965e-04 2.6999111653e+00 -4.6763833143e+00 2.6999111653e+00 4.6763833143e+00 
367400 4.6892479115e+00 -5.6498466636e-04 2.6999216340e+00 -4.6764014465e+00 2.6999216340e+00 4.6764014465e+00 
367500 4.6892479022e+00 -5.6468300300e-04 2.6999320970e+00 -4.6764195689e+00 2.6999320970e+00 4.6764195689e+00 
367600 4.6892478930e+00 -5.6438148950e-04 2.6999425543e+00 -4.6764376816e+00 2.6999425543e+00 4.6764376816e+00 
367700 4.6892478838e+00 -5.6408012582e-04 2.6999530061e+00 -4.6764557845e+00 2.6999530061e+00 4.6764557845e+00 
367800 4.6892478745e+00 -5.6377891190e-04 2.6999634522e+00 -4.6764738777e+00 2.6999634522e+00 4.6764738777e+00 
367900 4.6892478653e+00 -5.6347784769e-04 2.6999738927e+00 -4.6764919612e+00 2.6999738927e+00 4.6764919612e+00 
368000 4.6892478561e+00 -5.6317693313e-04 2.6999843276e+00 -4.6765100350e+00 2.6999843276e+00 4.6765100350e+00 
368100 4.6892478469e+00 -5.6287616817e-04 2.6999947568e+00 -4.6765280990e+00 2.6999947568e+00 4.6765280990e+00 
368200 4.6892478378e+00 -5.6257555276e-04 2.7000051805e+00 -4.6765461533e+00 2.7000051805e+00 4.6765461533e+00 
368300 4.6892478286e+00 -5.6227508684e-04 2.7000155985e+00 -4.6765641979e+00 2.7000155985e+00 4.6765641979e+00 
368400 4.6892478194e+00 -5.6197477035e-04 2.7000260110e+00 -4.6765822328e+00 2.7000260110e+00 4.6765822328e+00 
368500 4.6892478103e+00 -5.6167460325e-04 2.7000364178e+00 -4.6766002580e+00 2.7000364178e+00 4.6766002580e+00 
368600 4.6892478011e+00 -5.6137458547e-04 2.7000468191e+00 -4.6766182735e+00 2.7000468191e+00 4.6766182735e+00 
368700 4.6892477920e+00 -5.6107471697e-04 2.7000572147e+00 -4.6766362793e+00 2.7000572147e+00 4.6766362793e+00 
368800 4.6892477829e+00 -5.6077499769e-04 2.7000676048e+00 -4.6766542754e+00 2.7000676048e+00 4.6766542754e+00 
368900 4.6892477737e+00 -5.6047542757e-04 2.7000779893e+00 -4.6766722618e+00 2.7000779893e+00 4.6766722618e+00 
369000 4.6892477646e+00 -5.6017600657e-04 2.7000883681e+00 -4.6766902385e+00 2.7000883681e+00 4.6766902385e+00 
369100 4.6892477555e+00 -5.5987673463e-04 2.7000987414e+00 -4.6767082056e+00 2.7000987414e+00 4.6767082056e+00 
369200 4.6892477464e+00 -5.5957761169e-04 2.7001091092e+00 -4.6767261630e+00 2.7001091092e+00 4.6767261630e+00 
369300 4.6892477374e+00 -5.5927863770e-04 2.7001194713e+00 -4.6767441108e+00 2.7001194713e+00 4.6767441108e+00 
369400 4.6892477283e+00 -5.5897981260e-04 2.7001298278e+00 -4.6767620489e+00 2.7001298278e+00 4.6767620489e+00 
369500 4.6892477192e+00 -5.5868113635e-04 2.7001401788e+00 -4.6767799773e+00 2.7001401788e+00 4.6767799773e+00 
369600 4.6892477102e+00 -5.5838260888e-04 2.7001505243e+00 -4.6767978961e+00 2.7001505243e+00 4.6767978961e+00 
369700 4.6892477012e+00 -5.5808423014e-04 2.7001608641e+00 -4.6768158052e+00 2.7001608641e+00 4.6768158052e+00 
369800 4.6892476921e+00 -5.5778600009e-04 2.7001711984e+00 -4.6768337047e+00 2.7001711984e+00 4.6768337047e+00 
369900 4.6892476831e+00 -5.5748791865e-04 2.7001815271e+00 -4.6768515946e+00 2.7001815271e+00 4.6768515946e+00 
370000 4.6892476741e+00 -5.5718998579e-04 2.7001918503e+00 -4.6768694749e+00 2.7001918503e+00 4.6768694749e+00 
370100 4.6892476651e+00 -5.5689220144e-04 2.7002021679e+00 -4.6768873455e+00 2.7002021679e+00 4.6768873455e+00 
370200 4.6892476561e+00 -5.5659456555e-04 2.7002124799e+00 -4.6769052065e+00 2.7002124799e+00 4.6769052065e+00 
370300 4.6892476471e+00 -5.5629707807e-04 2.7002227864e+00 -4.6769230579e+00 2.7002227864e+00 4.6769230579e+00 
370400 4.6892476382e+00 -5.5599973894e-04 2.7002330874e+00 -4.6769408996e+00 2.7002330874e+00 4.6769408996e+00 
370500 4.6892476292e+00 -5.5570254811e-04 2.7002433828e+00 -4.6769587318e+00 2.7002433828e+00 4.6769587318e+00 
370600 4.6892476202e+00 -5.5540550552e-04 2.7002536727e+00 -4.6769765544e+00 2.7002536727e+00 4.6769765544e+00 
370700 4.6892476113e+00 -5.5510861112e-04 2.7002639570e+00 -4.6769943674e+00 2.7002639570e+00 4.6769943674e+00 
370800 4.6892476024e+00 -5.5481186485e-04 2.7002742358e+00 -4.6770121707e+00 2.7002742358e+00 4.6770121707e+00 
370900 4.6892475934e+00 -5.5451526667e-04 2.7002845090e+00 -4.6770299645e+00 2.7002845090e+00 4.6770299645e+00 
371000 4.6892475845e+00 -5.5421881651e-04 2.7002947768e+00 -4.6770477488e+00 2.7002947768e+00 4.6770477488e+00 
371100 4.6892475756e+00 -5.5392251432e-04 2.7003050390e+00 -4.6770655234e+00 2.7003050390e+00 4.6770655234e+00 
371200 4.6892475667e+00 -5.5362636004e-04 2.7003152956e+00 -4.6770832885e+00 2.7003152956e+00 4.6770832885e+00 
371300 4.6892475578e+00 -5.5333035363e-04 2.7003255468e+00 -4.6771010440e+00 2.7003255468e+00 4.6771010440e+00 
371400 4.6892475489e+00 -5.5303449503e-04 2.7003357924e+00 -4.6771187900e+00 2.7003357924e+00 4.6771187900e+00 
371500 4.6892475401e+00 -5.5273878418e-04 2.7003460325e+00 -4.6771365263e+00 2.7003460325e+00 4.6771365263e+00 
371600 4.6892475312e+00 -5.5244322102e-04 2.7003562671e+00 -4.6771542532e+00 2.7003562671e+00 4.6771542532e+00 
371700 4.6892475224e+00 -5.5214780551e-04 2.7003664962e+00 -4.6771719705e+00 2.7003664962e+00 4.6771719705e+00 
371800 4.6892475135e+00 -5.5185253759e-04 2.7003767198e+00 -4.6771896782e+00 2.7003767198e+00 4.6771896782e+00 
371900 4.6892475047e+00 -5.5155741720e-04 2.7003869379e+00 -4.6772073765e+00 2.7003869379e+00 4.6772073765e+00 
372000 4.6892474959e+00 -5.5126244430e-04 2.7003971504e+00 -4.6772250652e+00 2.7003971504e+00 4.6772250652e+00 
372100 4.6892474871e+00 -5.5096761882e-04 2.7004073575e+00 -4.6772427443e+00 2.7004073575e+00 4.6772427443e+00 
372200 4.6892474783e+00 -5.5067294070e-04 2.7004175591e+00 -4.6772604140e+00 2.7004175591e+00 4.6772604140e+00 
372300 4.6892474695e+00 -5.5037840991e-04 2.7004277551e+00 -4.6772780741e+00 2.7004277551e+00 4.6772780741e+00 
372400 4.6892474607e+00 -5.5008402637e-04 2.7004379457e+00 -4.6772957247e+00 2.7004379457e+00 4.6772957247e+00 
372500 4.6892474519e+00 -5.4978979004e-04 2.7004481308e+00 -4.6773133658e+00 2.7004481308e+00 4.6773133658e+00 
372600 4.6892474431e+00 -5.4949570087e-04 2.7004583104e+00 -4.6773309974e+00 2.7004583104e+00 4.6773309974e+00 
372700 4.6892474344e+00 -5.4920175878e-04 2.7004684846e+00 -4.6773486195e+00 2.7004684846e+00 4.6773486195e+00 
372800 4.6892474256e+00 -5.4890796375e-04 2.7004786532e+00 -4.6773662321e+00 2.7004786532e+00 4.6773662321e+00 
372900 4.6892474169e+00 -5.4861431569e-04 2.7004888164e+00 -4.6773838352e+00 2.7004888164e+00 4.6773838352e+00 
373000 4.6892474082e+00 -5.4832081458e-04 2.7004989741e+00 -4.6774014289e+00 2.7004989741e+00 4.6774014289e+00 
373100 4.6892473994e+00 -5.4802746034e-04 2.7005091263e+00 -4.6774190130e+00 2.7005091263e+00 4.6774190130e+00 
373200 4.6892473907e+00 -5.4773425292e-04 2.7005192730e+00 -4.6774365877e+00 2.7005192730e+00 4.6774365877e+00 
373300 4.6892473820e+00 -5.4744119227e-04 2.7005294143e+00 -4.6774541529e+00 2.7005294143e+00 4.6774541529e+00 
373400 4.6892473733e+00 -5.4714827833e-04 2.7005395501e+00 -4.6774717087e+00 2.7005395501e+00 4.6774717087e+00 
373500 4.6892473647e+00 -5.4685551105e-04 2.7005496805e+00 -4.6774892550e+00 2.7005496805e+00 4.6774892550e+00 
373600 4.6892473560e+00 -5.4656289038e-04 2.7005598054e+00 -4.6775067918e+00 2.7005598054e+00 4.6775067918e+00 
373700 4.6892473473e+00 -5.4627041625e-04 2.7005699248e+00 -4.6775243192e+00 2.7005699248e+00 4.6775243192e+00 
373800 4.6892473387e+00 -5.4597808862e-04 2.7005800388e+00 -4.6775418371e+00 2.7005800388e+00 4.6775418371e+00 
373900 4.6892473300e+00 -5.4568590743e-04 2.7005901474e+00 -4.6775593457e+00 2.7005901474e+00 4.6775593457e+00 
374000 4.6892473214e+00 -5.4539387262e-04 2.7006002505e+00 -4.6775768447e+00 2.7006002505e+00 4.6775768447e+00 
374100 4.6892473128e+00 -5.4510198414e-04 2.7006103481e+00 -4.6775943344e+00 2.7006103481e+00 4.6775943344e+00 
374200 4.6892473041e+00 -5.4481024194e-04 2.7006204403e+00 -4.6776118146e+00 2.7006204403e+00 4.6776118146e+00 
374300 4.6892472955e+00 -5.4451864595e-04 2.7006305271e+00 -4.6776292854e+00 2.7006305271e+00 4.6776292854e+00 
374400 4.6892472869e+00 -5.4422719613e-04 2.7006406084e+00 -4.6776467467e+00 2.7006406084e+00 4.6776467467e+00 
374500 4.6892472783e+00 -5.4393589242e-04 2.7006506843e+00 -4.6776641987e+00 2.7006506843e+00 4.6776641987e+00 
374600 4.6892472697e+00 -5.4364473476e-04 2.7006607548e+00 -4.6776816413e+00 2.7006607548e+00 4.6776816413e+00 
374700 4.6892472612e+00 -5.4335372311e-04 2.7006708198e+00 -4.6776990744e+00 2.7006708198e+00 4.6776990744e+00 
374800 4.6892472526e+00 -5.4306285739e-04 2.7006808794e+00 -4.6777164982e+00 2.7006808794e+00 4.6777164982e+00 
374900 4.6892472441e+00 -5.4277213757e-04 2.7006909336e+00 -4.6777339126e+00 2.7006909336e+00 4.6777339126e+00 
375000 4.6892472355e+00 -5.4248156358e-04 2.7007009824e+00 -4.6777513175e+00 2.7007009824e+00 4.6777513175e+00 
375100 4.6892472270e+00 -5.4219113537e-04 2.7007110257e+00 -4.6777687131e+00 2.7007110257e+00 4.6777687131e+00 
375200 4.6892472184e+00 -5.4190085288e-04 2.7007210637e+00 -4.6777860994e+00 2.7007210637e+00 4.6777860994e+00 
375300 4.6892472099e+00 -5.4161071607e-04 2.7007310962e+00 -4.6778034762e+00 2.7007310962e+00 4.6778034762e+00 
375400 4.6892472014e+00 -5.4132072486e-04 2.7007411233e+00 -4.6778208437e+00 2.7007411233e+00 4.6778208437e+00 
375500 4.6892471929e+00 -5.4103087922e-04 2.7007511450e+00 -4.6778382018e+00 2.7007511450e+00 4.6778382018e+00 
375600 4.6892471844e+00 -5.4074117908e-04 2.7007611613e+00 -4.6778555506e+00 2.7007611613e+00 4.6778555506e+00 
375700 4.6892471759e+00 -5.4045162439e-04 2.7007711723e+00 -4.6778728900e+00 2.7007711723e+00 4.6778728900e+00 
375800 4.6892471675e+00 -5.4016221510e-04 2.7007811778e+00 -4.6778902200e+00 2.7007811778e+00 4.6778902200e+00 
375900 4.6892471590e+00 -5.3987295114e-04 2.7007911779e+00 -4.6779075407e+00 2.7007911779e+00 4.6779075407e+00 
376000 4.6892471505e+00 -5.3958383246e-04 2.7008011726e+00 -4.6779248521e+00 2.7008011726e+00 4.6779248521e+00 
376100 4.6892471421e+00 -5.3929485902e-04 2.7008111619e+00 -4.6779421541e+00 2.7008111619e+00 4.6779421541e+00 
376200 4.6892471337e+00 -5.3900603074e-04 2.7008211459e+00 -4.6779594468e+00 2.7008211459e+00 4.6779594468e+00 
376300 4.6892471252e+00 -5.3871734759e-04 2.7008311245e+00 -4.6779767302e+00 2.7008311245e+00 4.6779767302e+00 
376400 4.6892471168e+00 -5.3842880950e-04 2.7008410976e+00 -4.6779940043e+00 2.7008410976e+00 4.6779940043e+00 
376500 4.6892471084e+00 -5.3814041641e-04 2.7008510654e+00 -4.6780112690e+00 2.7008510654e+00 4.6780112690e+00 
376600 4.6892471000e+00 -5.3785216828e-04 2.7008610279e+00 -4.6780285245e+00 2.7008610279e+00 4.6780285245e+00 
376700 4.6892470916e+00 -5.3756406505e-04 2.7008709849e+00 -4.6780457706e+00 2.7008709849e+00 4.6780457706e+00 
376800 4.6892470832e+00 -5.3727610665e-04 2.7008809366e+00 -4.6780630074e+00 2.7008809366e+00 4.6780630074e+00 
376900 4.6892470748e+00 -5.3698829305e-04 2.7008908829e+00 -4.6780802349e+00 2.7008908829e+00 4.6780802349e+00 
377000 4.6892470665e+00 -5.3670062417e-04 2.7009008239e+00 -4.6780974532e+00 2.7009008239e+00 4.6780974532e+00 
377100 4.6892470581e+00 -5.3641309997e-04 2.7009107595e+00 -4.6781146621e+00 2.7009107595e+00 4.6781146621e+00 
377200 4.6892470498e+00 -5.3612572039e-04 2.7009206897e+00 -4.6781318618e+00 2.7009206897e+00 4.6781318618e+00 
377300 4.6892470414e+00 -5.3583848538e-04 2.7009306146e+00 -4.6781490522e+00 2.7009306146e+00 4.6781490522e+00 
377400 4.6892470331e+00 -5.3555139488e-04 2.7009405341e+00 -4.6781662333e+00 2.7009405341e+00 4.6781662333e+00 
377500 4.6892470248e+00 -5.3526444883e-04 2.7009504483e+00 -4.6781834052e+00 2.7009504483e+00 4.6781834052e+00 
377600 4.6892470164e+00 -5.3497764718e-04 2.7009603571e+00 -4.6782005677e+00 2.7009603571e+00 4.6782005677e+00 
377700 4.6892470081e+00 -5.3469098988e-04 2.7009702606e+00 -4.6782177211e+00 2.7009702606e+00 4.6782177211e+00 
377800 4.6892469998e+00 -5.3440447687e-04 2.7009801587e+00 -4.6782348651e+00 2.7009801587e+00 4.6782348651e+00 
377900 4.6892469916e+00 -5.3411810809e-04 2.7009900515e+00 -4.6782520000e+00 2.7009900515e+00 4.6782520000e+00 
378000 4.6892469833e+00 -5.3383188349e-04 2.7009999390e+00 -4.6782691255e+00 2.7009999390e+00 4.6782691255e+00 
378100 4.6892469750e+00 -5.3354580301e-04 2.7010098211e+00 -4.6782862419e+00 2.7010098211e+00 4.6782862419e+00 
378200 4.6892469667e+00 -5.3325986660e-04 2.7010196979e+00 -4.6783033490e+00 2.7010196979e+00 4.6783033490e+00 
378300 4.6892469585e+00 -5.3297407420e-04 2.7010295693e+00 -4.6783204468e+00 2.7010295693e+00 4.6783204468e+00 
378400 4.6892469502e+00 -5.3268842575e-04 2.7010394355e+00 -4.6783375355e+00 2.7010394355e+00 4.6783375355e+00 
378500 4.6892469420e+00 -5.3240292121e-04 2.7010492963e+00 -4.6783546149e+00 2.7010492963e+00 4.6783546149e+00 
378600 4.6892469338e+00 -5.3211756052e-04 2.7010591518e+00 -4.6783716851e+00 2.7010591518e+00 4.6783716851e+00 
378700 4.6892469256e+00 -5.3183234361e-04 2.7010690019e+00 -4.6783887461e+00 2.7010690019e+00 4.6783887461e+00 
378800 4.6892469174e+00 -5.3154727044e-04 2.7010788468e+00 -4.6784057979e+00 2.7010788468e+00 4.6784057979e+00 
378900 4.6892469092e+00 -5.3126234095e-04 2.7010886863e+00 -4.6784228405e+00 2.7010886863e+00 4.6784228405e+00 
379000 4.6892469010e+00 -5.3097755509e-04 2.7010985206e+00 -4.6784398739e+00 2.7010985206e+00 4.6784398739e+00 
379100 4.6892468928e+00 -5.3069291279e-04 2.7011083495e+00 -4.6784568981e+00 2.7011083495e+00 4.6784568981e+00 
379200 4.6892468846e+00 -5.3040841401e-04 2.7011181731e+00 -4.6784739131e+00 2.7011181731e+00 4.6784739131e+00 
379300 4.6892468764e+00 -5.3012405868e-04 2.7011279914e+00 -4.6784909189e+00 2.7011279914e+00 4.6784909189e+00 
379400 4.6892468683e+00 -5.2983984676e-04 2.7011378045e+00 -4.6785079156e+00 2.7011378045e+00 4.6785079156e+00 
379500 4.6892468601e+00 -5.2955577818e-04 2.7011476122e+00 -4.6785249030e+00 2.7011476122e+00 4.6785249030e+00 
379600 4.6892468520e+00 -5.2927185290e-04 2.7011574146e+00 -4.6785418813e+00 2.7011574146e+00 4.6785418813e+00 
379700 4.6892468439e+00 -5.2898807085e-04 2.7011672117e+00 -4.6785588505e+00 2.7011672117e+00 4.6785588505e+00 
379800 4.6892468357e+00 -5.2870443198e-04 2.7011770036e+00 -4.6785758105e+00 2.7011770036e+00 4.6785758105e+00 
379900 4.6892468276e+00 -5.2842093623e-04 2.7011867902e+00 -4.6785927613e+00 2.7011867902e+00 4.6785927613e+00 
380000 4.6892468195e+00 -5.2813758356e-04 2.7011965714e+00 -4.6786097029e+00 2.7011965714e+00 4.6786097029e+00 
380100 4.6892468114e+00 -5.2785437390e-04 2.7012063474e+00 -4.6786266355e+00 2.7012063474e+00 4.6786266355e+00 
380200 4.6892468033e+00 -5.2757130719e-04 2.7012161182e+00 -4.6786435589e+00 2.7012161182e+00 4.6786435589e+00 
380300 4.6892467953e+00 -5.2728838339e-04 2.7012258836e+00 -4.6786604731e+00 2.7012258836e+00 4.6786604731e+00 
380400 4.6892467872e+00 -5.2700560244e-04 2.7012356438e+00 -4.6786773782e+00 2.7012356438e+00 4.6786773782e+00 
380500 4.6892467791e+00 -5.2672296428e-04 2.7012453987e+00 -4.6786942742e+00 2.7012453987e+00 4.6786942742e+00 
380600 4.6892467711e+00 -5.2644046885e-04 2.7012551483e+00 -4.6787111611e+00 2.7012551483e+00 4.6787111611e+00 
380700 4.6892467630e+00 -5.2615811610e-04 2.7012648927e+00 -4.6787280388e+00 2.7012648927e+00 4.6787280388e+00 
380800 4.6892467550e+00 -5.2587590598e-04 2.7012746318e+00 -4.6787449075e+00 2.7012746318e+00 4.6787449075e+00 
380900 4.6892467470e+00 -5.2559383843e-04 2.7012843657e+00 -4.6787617670e+00 2.7012843657e+00 4.6787617670e+00 
381000 4.6892467389e+00 -5.2531191339e-04 2.7012940943e+00 -4.6787786174e+00 2.7012940943e+00 4.6787786174e+00 
381100 4.6892467309e+00 -5.2503013080e-04 2.7013038176e+00 -4.6787954588e+00 2.7013038176e+00 4.6787954588e+00 
381200 4.6892467229e+00 -5.2474849062e-04 2.7013135357e+00 -4.6788122910e+00 2.7013135357e+00 4.6788122910e+00 
381300 4.6892467149e+00 -5.2446699279e-04 2.7013232485e+00 -4.6788291141e+00 2.7013232485e+00 4.6788291141e+00 
381400 4.6892467069e+00 -5.2418563724e-04 2.7013329561e+00 -4.6788459282e+00 2.7013329561e+00 4.6788459282e+00 
381500 4.6892466990e+00 -5.2390442394e-04 2.7013426585e+00 -4.6788627332e+00 2.7013426585e+00 4.6788627332e+00 
381600 4.6892466910e+00 -5.2362335281e-04 2.7013523556e+00 -4.6788795291e+00 2.7013523556e+00 4.6788795291e+00 
381700 4.6892466830e+00 -5.2334242380e-04 2.7013620475e+00 -4.6788963159e+00 2.7013620475e+00 4.6788963159e+00 
381800 4.6892466751e+00 -5.2306163686e-04 2.7013717341e+00 -4.6789130936e+00 2.7013717341e+00 4.6789130936e+00 
381900 4.6892466671e+00 -5.2278099194e-04 2.7013814155e+00 -4.6789298623e+00 2.7013814155e+00 4.6789298623e+00 
382000 4.6892466592e+00 -5.2250048897e-04 2.7013910917e+00 -4.6789466220e+00 2.7013910917e+00 4.6789466220e+00 
382100 4.6892466513e+00 -5.2222012790e-04 2.7014007627e+00 -4.6789633726e+00 2.7014007627e+00 4.6789633726e+00 
382200 4.6892466434e+00 -5.2193990868e-04 2.7014104284e+00 -4.6789801141e+00 2.7014104284e+00 4.6789801141e+00 
382300 4.6892466354e+00 -5.2165983125e-04 2.7014200889e+00 -4.6789968466e+00 2.7014200889e+00 4.6789968466e+00 
382400 4.6892466275e+00 -5.2137989555e-04 2.7014297442e+00 -4.6790135701e+00 2.7014297442e+00 4.6790135701e+00 
382500 4.6892466196e+00 -5.2110010153e-04 2.7014393943e+00 -4.6790302845e+00 2.7014393943e+00 4.6790302845e+00 
382600 4.6892466118e+00 -5.2082044913e-04 2.7014490392e+00 -4.6790469899e+00 2.7014490392e+00 4.6790469899e+00 
382700 4.6892466039e+00 -5.2054093830e-04 2.7014586788e+00 -4.6790636863e+00 2.7014586788e+00 4.6790636863e+00 
382800 4.6892465960e+00 -5.2026156897e-04 2.7014683133e+00 -4.6790803736e+00 2.7014683133e+00 4.6790803736e+00 
382900 4.6892465882e+00 -5.1998234111e-04 2.7014779425e+00 -4.6790970520e+00 2.7014779425e+00 4.6790970520e+00 
383000 4.6892465803e+00 -5.1970325464e-04 2.7014875666e+00 -4.6791137213e+00 2.7014875666e+00 4.6791137213e+00 
383100 4.6892465725e+00 -5.1942430952e-04 2.7014971854e+00 -4.6791303816e+00 2.7014971854e+00 4.6791303816e+00 
383200 4.6892465646e+00 -5.1914550568e-04 2.7015067990e+00 -4.6791470329e+00 2.7015067990e+00 4.6791470329e+00 
383300 4.6892465568e+00 -5.1886684308e-04 2.7015164075e+00 -4.6791636753e+00 2.7015164075e+00 4.6791636753e+00 
383400 4.6892465490e+00 -5.1858832165e-04 2.7015260108e+00 -4.6791803086e+00 2.7015260108e+00 4.6791803086e+00 
383500 4.6892465412e+00 -5.1830994134e-04 2.7015356088e+00 -4.6791969329e+00 2.7015356088e+00 4.6791969329e+00 
383600 4.6892465334e+00 -5.1803170209e-04 2.7015452017e+00 -4.6792135483e+00 2.7015452017e+00 4.6792135483e+00 
383700 4.6892465256e+00 -5.1775360386e-04 2.7015547894e+00 -4.6792301547e+00 2.7015547894e+00 4.6792301547e+00 
383800 4.6892465178e+00 -5.1747564658e-04 2.7015643719e+00 -4.6792467521e+00 2.7015643719e+00 4.6792467521e+00 
383900 4.6892465100e+00 -5.1719783019e-04 2.7015739493e+00 -4.6792633405e+00 2.7015739493e+00 4.6792633405e+00 
384000 4.6892465022e+00 -5.1692015465e-04 2.7015835214e+00 -4.6792799200e+00 2.7015835214e+00 4.6792799200e+00 
384100 4.6892464945e+00 -5.1664261989e-04 2.7015930884e+00 -4.6792964905e+00 2.7015930884e+00 4.6792964905e+00 
384200 4.6892464867e+00 -5.1636522586e-04 2.7016026502e+00 -4.6793130521e+00 2.7016026502e+00 4.6793130521e+00 
384300 4.6892464790e+00 -5.1608797250e-04 2.7016122069e+00 -4.6793296047e+00 2.7016122069e+00 4.6793296047e+00 
384400 4.6892464712e+00 -5.1581085976e-04 2.7016217584e+00 -4.6793461483e+00 2.7016217584e+00 4.6793461483e+00 
384500 4.6892464635e+00 -5.1553388759e-04 2.7016313047e+00 -4.6793626831e+00 2.7016313047e+00 4.6793626831e+00 
384600 4.6892464558e+00 -5.1525705592e-04 2.7016408459e+00 -4.6793792088e+00 2.7016408459e+00 4.6793792088e+00 
384700 4.6892464481e+00 -5.1498036470e-04 2.7016503819e+00 -4.6793957257e+00 2.7016503819e+00 4.6793957257e+00 
384800 4.6892464404e+00 -5.1470381387e-04 2.7016599127e+00 -4.6794122336e+00 2.7016599127e+00 4.6794122336e+00 
384900 4.6892464327e+00 -5.1442740338e-04 2.7016694384e+00 -4.6794287326e+00 2.7016694384e+00 4.6794287326e+00 
385000 4.6892464250e+00 -5.1415113317e-04 2.7016789590e+00 -4.6794452227e+00 2.7016789590e+00 4.6794452227e+00 
385100 4.6892464173e+00 -5.1387500320e-04 2.7016884744e+00 -4.6794617039e+00 2.7016884744e+00 4.6794617039e+00 
385200 4.6892464097e+00 -5.1359901339e-04 2.7016979846e+00 -4.6794781761e+00 2.7016979846e+00 4.6794781761e+00 
385300 4.6892464020e+00 -5.1332316369e-04 2.7017074898e+00 -4.6794946395e+00 2.7017074898e+00 4.6794946395e+00 
385400 4.6892463943e+00 -5.1304745406e-04 2.7017169897e+00 -4.6795110939e+00 2.7017169897e+00 4.6795110939e+00 
385500 4.6892463867e+00 -5.1277188443e-04 2.7017264846e+00 -4.6795275395e+00 2.7017264846e+00 4.6795275395e+00 
385600 4.6892463791e+00 -5.1249645474e-04 2.7017359743e+00 -4.6795439761e+00 2.7017359743e+00 4.6795439761e+00 
385700 4.6892463714e+00 -5.1222116495e-04 2.7017454589e+00 -4.6795604039e+00 2.7017454589e+00 4.6795604039e+00 
385800 4.6892463638e+00 -5.1194601499e-04 2.7017549383e+00 -4.6795768228e+00 2.7017549383e+00 4.6795768228e+00 
385900 4.6892463562e+00 -5.1167100481e-04 2.7017644127e+00 -4.6795932328e+00 2.7017644127e+00 4.6795932328e+00 
386000 4.6892463486e+00 -5.1139613435e-04 2.7017738819e+00 -4.6796096340e+00 2.7017738819e+00 4.6796096340e+00 
386100 4.6892463410e+00 -5.1112140356e-04 2.7017833460e+00 -4.6796260263e+00 2.7017833460e+00 4.6796260263e+00 
386200 4.6892463334e+00 -5.1084681238e-04 2.7017928049e+00 -4.6796424097e+00 2.7017928049e+00 4.6796424097e+00 
386300 4.6892463258e+00 -5.1057236076e-04 2.7018022588e+00 -4.6796587842e+00 2.7018022588e+00 4.6796587842e+00 
386400 4.6892463182e+00 -5.1029804864e-04 2.7018117075e+00 -4.6796751499e+00 2.7018117075e+00 4.6796751499e+00 
386500 4.6892463107e+00 -5.1002387596e-04 2.7018211512e+00 -4.6796915068e+00 2.7018211512e+00 4.6796915068e+00 
386600 4.6892463031e+00 -5.0974984266e-04 2.7018305897e+00 -4.6797078548e+00 2.7018305897e+00 4.6797078548e+00 
386700 4.6892462956e+00 -5.0947594870e-04 2.7018400231e+00 -4.6797241939e+00 2.7018400231e+00 4.6797241939e+00 
386800 4.6892462880e+00 -5.0920219402e-04 2.7018494514e+00 -4.6797405243e+00 2.7018494514e+00 4.6797405243e+00 
386900 4.6892462805e+00 -5.0892857855e-04 2.7018588747e+00 -4.6797568458e+00 2.7018588747e+00 4.6797568458e+00 
387000 4.6892462730e+00 -5.0865510225e-04 2.7018682928e+00 -4.6797731584e+00 2.7018682928e+00 4.6797731584e+00 
387100 4.6892462654e+00 -5.0838176505e-04 2.7018777058e+00 -4.6797894623e+00 2.7018777058e+00 4.6797894623e+00 
387200 4.6892462579e+00 -5.0810856691e-04 2.7018871137e+00 -4.6798057573e+00 2.7018871137e+00 4.6798057573e+00 
387300 4.6892462504e+00 -5.0783550776e-04 2.7018965166e+00 -4.6798220435e+00 2.7018965166e+00 4.6798220435e+00 
387400 4.6892462429e+00 -5.0756258755e-04 2.7019059144e+00 -4.6798383209e+00 2.7019059144e+00 4.6798383209e+00 
387500 4.6892462355e+00 -5.0728980623e-04 2.7019153070e+00 -4.6798545896e+00 2.7019153070e+00 4.6798545896e+00 
387600 4.6892462280e+00 -5.0701716373e-04 2.7019246946e+00 -4.6798708494e+00 2.7019246946e+00 4.6798708494e+00 
387700 4.6892462205e+00 -5.0674466000e-04 2.7019340772e+00 -4.6798871004e+00 2.7019340772e+00 4.6798871004e+00 
387800 4.6892462130e+00 -5.0647229499e-04 2.7019434546e+00 -4.6799033426e+00 2.7019434546e+00 4.6799033426e+00 
387900 4.6892462056e+00 -5.0620006864e-04 2.7019528270e+00 -4.6799195760e+00 2.7019528270e+00 4.6799195760e+00 
388000 4.6892461981e+00 -5.0592798089e-04 2.7019621943e+00 -4.6799358007e+00 2.7019621943e+00 4.6799358007e+00 
388100 4.6892461907e+00 -5.0565603169e-04 2.7019715565e+00 -4.6799520165e+00 2.7019715565e+00 4.6799520165e+00 
388200 4.6892461833e+00 -5.0538422098e-04 2.7019809137e+00 -4.6799682236e+00 2.7019809137e+00 4.6799682236e+00 
388300 4.6892461759e+00 -5.0511254870e-04 2.7019902658e+00 -4.6799844220e+00 2.7019902658e+00 4.6799844220e+00 
388400 4.6892461684e+00 -5.0484101481e-04 2.7019996129e+00 -4.6800006115e+00 2.7019996129e+00 4.6800006115e+00 
388500 4.6892461610e+00 -5.0456961923e-04 2.7020089549e+00 -4.6800167923e+00 2.7020089549e+00 4.6800167923e+00 
388600 4.6892461536e+00 -5.0429836193e-04 2.7020182918e+00 -4.6800329644e+00 2.7020182918e+00 4.6800329644e+00 
388700 4.6892461462e+00 -5.0402724283e-04 2.7020276237e+00 -4.6800491277e+00 2.7020276237e+00 4.6800491277e+00 
388800 4.6892461389e+00 -5.0375626189e-04 2.7020369505e+00 -4.6800652823e+00 2.7020369505e+00 4.6800652823e+00 
388900 4.6892461315e+00 -5.0348541905e-04 2.7020462723e+00 -4.6800814281e+00 2.7020462723e+00 4.6800814281e+00 
389000 4.6892461241e+00 -5.0321471426e-04 2.7020555891e+00 -4.6800975652e+00 2.7020555891e+00 4.6800975652e+00 
389100 4.6892461168e+00 -5.0294414744e-04 2.7020649008e+00 -4.6801136935e+00 2.7020649008e+00 4.6801136935e+00 
389200 4.6892461094e+00 -5.0267371856e-04 2.7020742075e+00 -4.6801298131e+00 2.7020742075e+00 4.6801298131e+00 
389300 4.6892461021e+00 -5.0240342756e-04 2.7020835091e+00 -4.6801459240e+00 2.7020835091e+00 4.6801459240e+00 
389400 4.6892460947e+00 -5.0213327437e-04 2.7020928057e+00 -4.6801620262e+00 2.7020928057e+00 4.6801620262e+00 
389500 4.6892460874e+00 -5.0186325895e-04 2.7021020973e+00 -4.6801781197e+00 2.7021020973e+00 4.6801781197e+00 
389600 4.6892460801e+00 -5.0159338123e-04 2.7021113838e+00 -4.6801942044e+00 2.7021113838e+00 4.6801942044e+00 
389700 4.6892460728e+00 -5.0132364116e-04 2.7021206653e+00 -4.6802102805e+00 2.7021206653e+00 4.6802102805e+00 
389800 4.6892460655e+00 -5.0105403868e-04 2.7021299418e+00 -4.6802263478e+00 2.7021299418e+00 4.6802263478e+00 
389900 4.6892460582e+00 -5.0078457375e-04 2.7021392133e+00 -4.6802424065e+00 2.7021392133e+00 4.6802424065e+00 
390000 4.6892460509e+00 -5.0051524629e-04 2.7021484797e+00 -4.6802584565e+00 2.7021484797e+00 4.6802584565e+00 
390100 4.6892460436e+00 -5.0024605627e-04 2.7021577412e+00 -4.6802744977e+00 2.7021577412e+00 4.6802744977e+00 
390200 4.6892460363e+00 -4.9997700361e-04 2.7021669976e+00 -4.6802905303e+00 2.7021669976e+00 4.6802905303e+00 
390300 4.6892460291e+00 -4.9970808826e-04 2.7021762490e+00 -4.6803065543e+00 2.7021762490e+00 4.6803065543e+00 
390400 4.6892460218e+00 -4.9943931017e-04 2.7021854954e+00 -4.6803225695e+00 2.7021854954e+00 4.6803225695e+00 
390500 4.6892460145e+00 -4.9917066929e-04 2.7021947368e+00 -4.6803385761e+00 2.7021947368e+00 4.6803385761e+00 
390600 4.6892460073e+00 -4.9890216555e-04 2.7022039732e+00 -4.6803545740e+00 2.7022039732e+00 4.6803545740e+00 
390700 4.6892460001e+00 -4.9863379890e-04 2.7022132046e+00 -4.6803705632e+00 2.7022132046e+00 4.6803705632e+00 
390800 4.6892459928e+00 -4.9836556928e-04 2.7022224310e+00 -4.6803865438e+00 2.7022224310e+00 4.6803865438e+00 
390900 4.6892459856e+00 -4.9809747664e-04 2.7022316524e+00 -4.6804025158e+00 2.7022316524e+00 4.6804025158e+00 
391000 4.6892459784e+00 -4.9782952092e-04 2.7022408688e+00 -4.6804184791e+00 2.7022408688e+00 4.6804184791e+00 
391100 4.6892459712e+00 -4.9756170206e-04 2.7022500802e+00 -4.6804344337e+00 2.7022500802e+00 4.6804344337e+00 
391200 4.6892459640e+00 -4.9729402001e-04 2.7022592867e+00 -4.6804503798e+00 2.7022592867e+00 4.6804503798e+00 
391300 4.6892459568e+00 -4.9702647472e-04 2.7022684881e+00 -4.6804663171e+00 2.7022684881e+00 4.6804663171e+00 
391400 4.6892459496e+00 -4.9675906612e-04 2.7022776846e+00 -4.6804822459e+00 2.7022776846e+00 4.6804822459e+00 
391500 4.6892459425e+00 -4.9649179416e-04 2.7022868761e+00 -4.6804981660e+00 2.7022868761e+00 4.6804981660e+00 
391600 4.6892459353e+00 -4.9622465879e-04 2.7022960626e+00 -4.6805140775e+00 2.7022960626e+00 4.6805140775e+00 
391700 4.6892459281e+00 -4.9595765994e-04 2.7023052442e+00 -4.6805299804e+00 2.7023052442e+00 4.6805299804e+00 
391800 4.6892459210e+00 -4.9569079757e-04 2.7023144207e+00 -4.6805458747e+00 2.7023144207e+00 4.6805458747e+00 
391900 4.6892459138e+00 -4.9542407161e-04 2.7023235923e+00 -4.6805617604e+00 2.7023235923e+00 4.6805617604e+00 
392000 4.6892459067e+00 -4.9515748201e-04 2.7023327590e+00 -4.6805776375e+00 2.7023327590e+00 4.6805776375e+00 
392100 4.6892458996e+00 -4.9489102872e-04 2.7023419206e+00 -4.6805935060e+00 2.7023419206e+00 4.6805935060e+00 
392200 4.6892458925e+00 -4.9462471167e-04 2.7023510774e+00 -4.6806093659e+00 2.7023510774e+00 4.6806093659e+00 
392300 4.6892458853e+00 -4.9435853081e-04 2.7023602291e+00 -4.6806252172e+00 2.7023602291e+00 4.6806252172e+00 
392400 4.6892458782e+00 -4.9409248609e-04 2.7023693759e+00 -4.6806410599e+00 2.7023693759e+00 4.6806410599e+00 
392500 4.6892458711e+00 -4.9382657745e-04 2.7023785177e+00 -4.6806568940e+00 2.7023785177e+00 4.6806568940e+00 
392600 4.6892458640e+00 -4.9356080483e-04 2.7023876546e+00 -4.6806727196e+00 2.7023876546e+00 4.6806727196e+00 
392700 4.6892458570e+00 -4.9329516818e-04 2.7023967866e+00 -4.6806885366e+00 2.7023967866e+00 4.6806885366e+00 
392800 4.6892458499e+00 -4.9302966743e-04 2.7024059136e+00 -4.6807043450e+00 2.7024059136e+00 4.6807043450e+00 
392900 4.6892458428e+00 -4.9276430254e-04 2.7024150356e+00 -4.6807201449e+00 2.7024150356e+00 4.6807201449e+00 
393000 4.6892458358e+00 -4.9249907345e-04 2.7024241528e+00 -4.6807359362e+00 2.7024241528e+00 4.6807359362e+00 
393100 4.6892458287e+00 -4.9223398011e-04 2.7024332649e+00 -4.6807517189e+00 2.7024332649e+00 4.6807517189e+00 
393200 4.6892458217e+00 -4.9196902244e-04 2.7024423722e+00 -4.6807674931e+00 2.7024423722e+00 4.6807674931e+00 
393300 4.6892458146e+00 -4.9170420041e-04 2.7024514745e+00 -4.6807832588e+00 2.7024514745e+00 4.6807832588e+00 
393400 4.6892458076e+00 -4.9143951395e-04 2.7024605719e+00 -4.6807990159e+00 2.7024605719e+00 4.6807990159e+00 
393500 4.6892458006e+00 -4.9117496301e-04 2.7024696643e+00 -4.6808147645e+00 2.7024696643e+00 4.6808147645e+00 
393600 4.6892457935e+00 -4.9091054753e-04 2.7024787518e+00 -4.6808305046e+00 2.7024787518e+00 4.6808305046e+00 
393700 4.6892457865e+00 -4.9064626745e-04 2.7024878344e+00 -4.6808462361e+00 2.7024878344e+00 4.6808462361e+00 
393800 4.6892457795e+00 -4.9038212272e-04 2.7024969121e+00 -4.6808619591e+00 2.7024969121e+00 4.6808619591e+00 
393900 4.6892457725e+00 -4.9011811329e-04 2.7025059849e+00 -4.6808776736e+00 2.7025059849e+00 4.6808776736e+00 
394000 4.6892457656e+00 -4.8985423909e-04 2.7025150527e+00 -4.6808933796e+00 2.7025150527e+00 4.6808933796e+00 
394100 4.6892457586e+00 -4.8959050007e-04 2.7025241157e+00 -4.6809090770e+00 2.7025241157e+00 4.6809090770e+00 
394200 4.6892457516e+00 -4.8932689618e-04 2.7025331737e+00 -4.6809247660e+00 2.7025331737e+00 4.6809247660e+00 
394300 4.6892457446e+00 -4.8906342735e-04 2.7025422268e+00 -4.6809404465e+00 2.7025422268e+00 4.6809404465e+00 
394400 4.6892457377e+00 -4.8880009354e-04 2.7025512750e+00 -4.6809561184e+00 2.7025512750e+00 4.6809561184e+00 
394500 4.6892457307e+00 -4.8853689468e-04 2.7025603184e+00 -4.6809717819e+00 2.7025603184e+00 4.6809717819e+00 
394600 4.6892457238e+00 -4.8827383072e-04 2.7025693568e+00 -4.6809874369e+00 2.7025693568e+00 4.6809874369e+00 
394700 4.6892457169e+00 -4.8801090161e-04 2.7025783903e+00 -4.6810030834e+00 2.7025783903e+00 4.6810030834e+00 
394800 4.6892457099e+00 -4.8774810728e-04 2.7025874189e+00 -4.6810187214e+00 2.7025874189e+00 4.6810187214e+00 
394900 4.6892457030e+00 -4.8748544769e-04 2.7025964426e+00 -4.6810343510e+00 2.7025964426e+00 4.6810343510e+00 
395000 4.6892456961e+00 -4.8722292276e-04 2.7026054615e+00 -4.6810499721e+00 2.7026054615e+00 4.6810499721e+00 
395100 4.6892456892e+00 -4.8696053246e-04 2.7026144754e+00 -4.6810655847e+00 2.7026144754e+00 4.6810655847e+00 
395200 4.6892456823e+00 -4.8669827672e-04 2.7026234845e+00 -4.6810811889e+00 2.7026234845e+00 4.6810811889e+00 
395300 4.6892456754e+00 -4.8643615549e-04 2.7026324887e+00 -4.6810967846e+00 2.7026324887e+00 4.6810967846e+00 
395400 4.6892456685e+00 -4.8617416871e-04 2.7026414880e+00 -4.6811123719e+00 2.7026414880e+00 4.6811123719e+00 
395500 4.6892456617e+00 -4.8591231632e-04 2.7026504824e+00 -4.6811279507e+00 2.7026504824e+00 4.6811279507e+00 
395600 4.6892456548e+00 -4.8565059827e-04 2.7026594720e+00 -4.6811435210e+00 2.7026594720e+00 4.6811435210e+00 
395700 4.6892456479e+00 -4.8538901450e-04 2.7026684567e+00 -4.6811590830e+00 2.7026684567e+00 4.6811590830e+00 
395800 4.6892456411e+00 -4.8512756495e-04 2.7026774365e+00 -4.6811746365e+00 2.7026774365e+00 4.6811746365e+00 
395900 4.6892456342e+00 -4.8486624958e-04 2.7026864114e+00 -4.6811901815e+00 2.7026864114e+00 4.6811901815e+00 
396000 4.6892456274e+00 -4.8460506832e-04 2.7026953815e+00 -4.6812057182e+00 2.7026953815e+00 4.6812057182e+00 
396100 4.6892456206e+00 -4.8434402112e-04 2.7027043467e+00 -4.6812212464e+00 2.7027043467e+00 4.6812212464e+00 
396200 4.6892456137e+00 -4.8408310791e-04 2.7027133071e+00 -4.6812367662e+00 2.7027133071e+00 4.6812367662e+00 
396300 4.6892456069e+00 -4.8382232866e-04 2.7027222626e+00 -4.6812522776e+00 2.7027222626e+00 4.6812522776e+00 
396400 4.6892456001e+00 -4.8356168329e-04 2.7027312133e+00 -4.6812677806e+00 2.7027312133e+00 4.6812677806e+00 
396500 4.6892455933e+00 -4.8330117175e-04 2.7027401591e+00 -4.6812832752e+00 2.7027401591e+00 4.6812832752e+00 
396600 4.6892455865e+00 -4.8304079399e-04 2.7027491000e+00 -4.6812987613e+00 2.7027491000e+00 4.6812987613e+00 
396700 4.6892455797e+00 -4.8278054995e-04 2.7027580361e+00 -4.6813142391e+00 2.7027580361e+00 4.6813142391e+00 
396800 4.6892455729e+00 -4.8252043957e-04 2.7027669674e+00 -4.6813297085e+00 2.7027669674e+00 4.6813297085e+00 
396900 4.6892455662e+00 -4.8226046281e-04 2.7027758938e+00 -4.6813451695e+00 2.7027758938e+00 4.6813451695e+00 
397000 4.6892455594e+00 -4.8200061959e-04 2.7027848154e+00 -4.6813606222e+00 2.7027848154e+00 4.6813606222e+00 
397100 4.6892455526e+00 -4.8174090987e-04 2.7027937321e+00 -4.6813760664e+00 2.7027937321e+00 4.6813760664e+00 
397200 4.6892455459e+00 -4.8148133359e-04 2.7028026440e+00 -4.6813915023e+00 2.7028026440e+00 4.6813915023e+00 
397300 4.6892455391e+00 -4.8122189069e-04 2.7028115511e+00 -4.6814069298e+00 2.7028115511e+00 4.6814069298e+00 
397400 4.6892455324e+00 -4.8096258112e-04 2.7028204534e+00 -4.6814223490e+00 2.7028204534e+00 4.6814223490e+00 
397500 4.6892455257e+00 -4.8070340482e-04 2.7028293508e+00 -4.6814377598e+00 2.7028293508e+00 4.6814377598e+00 
397600 4.6892455190e+00 -4.8044436174e-04 2.7028382434e+00 -4.6814531622e+00 2.7028382434e+00 4.6814531622e+00 
397700 4.6892455122e+00 -4.8018545181e-04 2.7028471312e+00 -4.6814685563e+00 2.7028471312e+00 4.6814685563e+00 
397800 4.6892455055e+00 -4.7992667499e-04 2.7028560141e+00 -4.6814839420e+00 2.7028560141e+00 4.6814839420e+00 
397900 4.6892454988e+00 -4.7966803121e-04 2.7028648923e+00 -4.6814993194e+00 2.7028648923e+00 4.6814993194e+00 
398000 4.6892454921e+00 -4.7940952043e-04 2.7028737656e+00 -4.6815146885e+00 2.7028737656e+00 4.6815146885e+00 
398100 4.6892454854e+00 -4.7915114257e-04 2.7028826341e+00 -4.6815300492e+00 2.7028826341e+00 4.6815300492e+00 
398200 4.6892454788e+00 -4.7889289760e-04 2.7028914979e+00 -4.6815454016e+00 2.7028914979e+00 4.6815454016e+00 
398300 4.6892454721e+00 -4.7863478545e-04 2.7029003568e+00 -4.6815607457e+00 2.7029003568e+00 4.6815607457e+00 
398400 4.6892454654e+00 -4.7837680606e-04 2.7029092109e+00 -4.6815760814e+00 2.7029092109e+00 4.6815760814e+00 
398500 4.6892454588e+00 -4.7811895938e-04 2.7029180602e+00 -4.6815914089e+00 2.7029180602e+00 4.6815914089e+00 
398600 4.6892454521e+00 -4.7786124536e-04 2.7029269047e+00 -4.6816067280e+00 2.7029269047e+00 4.6816067280e+00 
398700 4.6892454455e+00 -4.7760366394e-04 2.7029357444e+00 -4.6816220388e+00 2.7029357444e+00 4.6816220388e+00 
398800 4.6892454388e+00 -4.7734621505e-04 2.7029445793e+00 -4.6816373413e+00 2.7029445793e+00 4.6816373413e+00 
398900 4.6892454322e+00 -4.7708889865e-04 2.7029534094e+00 -4.6816526356e+00 2.7029534094e+00 4.6816526356e+00 
399000 4.6892454256e+00 -4.7683171468e-04 2.7029622347e+00 -4.6816679215e+00 2.7029622347e+00 4.6816679215e+00 
399100 4.6892454190e+00 -4.7657466308e-04 2.7029710553e+00 -4.6816831991e+00 2.7029710553e+00 4.6816831991e+00 
399200 4.6892454123e+00 -4.7631774380e-04 2.7029798710e+00 -4.6816984685e+00 2.7029798710e+00 4.6816984685e+00 
399300 4.6892454057e+00 -4.7606095678e-04 2.7029886820e+00 -4.6817137295e+00 2.7029886820e+00 4.6817137295e+00 
399400 4.6892453991e+00 -4.7580430196e-04 2.7029974882e+00 -4.6817289823e+00 2.7029974882e+00 4.6817289823e+00 
399500 4.6892453926e+00 -4.7554777930e-04 2.7030062896e+00 -4.6817442268e+00 2.7030062896e+00 4.6817442268e+00 
399600 4.6892453860e+00 -4.7529138872e-04 2.7030150863e+00 -4.6817594631e+00 2.7030150863e+00 4.6817594631e+00 
399700 4.6892453794e+00 -4.7503513018e-04 2.7030238782e+00 -4.6817746910e+00 2.7030238782e+00 4.6817746910e+00 
399800 4.6892453728e+00 -4.7477900362e-04 2.7030326653e+00 -4.6817899108e+00 2.7030326653e+00 4.6817899108e+00 
399900 4.6892453663e+00 -4.7452300899e-04 2.7030414476e+00 -4.6818051222e+00 2.7030414476e+00 4.6818051222e+00 
400000 4.6892453597e+00 -4.7426714622e-04 2.7030502252e+00 -4.6818203255e+00 2.7030502252e+00 4.6818203255e+00 
400100 4.6892453532e+00 -4.7401141527e-04 2.7030589980e+00 -4.6818355204e+00 2.7030589980e+00 4.6818355204e+00 
400200 4.6892453466e+00 -4.7375581607e-04 2.7030677661e+00 -4.6818507071e+00 2.7030677661e+00 4.6818507071e+00 
400300 4.6892453401e+00 -4.7350034856e-04 2.7030765294e+00 -4.6818658856e+00 2.7030765294e+00 4.6818658856e+00 
400400 4.6892453336e+00 -4.7324501271e-04 2.7030852879e+00 -4.6818810559e+00 2.7030852879e+00 4.6818810559e+00 
400500 4.6892453271e+00 -4.7298980844e-04 2.7030940417e+00 -4.6818962179e+00 2.7030940417e+00 4.6818962179e+00 
400600 4.6892453205e+00 -4.7273473570e-04 2.7031027908e+00 -4.6819113717e+00 2.7031027908e+00 4.6819113717e+00 
400700 4.6892453140e+00 -4.7247979444e-04 2.7031115351e+00 -4.6819265173e+00 2.7031115351e+00 4.6819265173e+00 
400800 4.6892453075e+00 -4.7222498459e-04 2.7031202746e+00 -4.6819416546e+00 2.7031202746e+00 4.6819416546e+00 
400900 4.6892453010e+00 -4.7197030611e-04 2.7031290095e+00 -4.6819567838e+00 2.7031290095e+00 4.6819567838e+00 
401000 4.6892452946e+00 -4.7171575894e-04 2.7031377395e+00 -4.6819719047e+00 2.7031377395e+00 4.6819719047e+00 
401100 4.6892452881e+00 -4.7146134301e-04 2.7031464649e+00 -4.6819870175e+00 2.7031464649e+00 4.6819870175e+00 
401200 4.6892452816e+00 -4.7120705828e-04 2.7031551855e+00 -4.6820021220e+00 2.7031551855e+00 4.6820021220e+00 
401300 4.6892452752e+00 -4.7095290469e-04 2.7031639014e+00 -4.6820172183e+00 2.7031639014e+00 4.6820172183e+00 
401400 4.6892452687e+00 -4.7069888219e-04 2.7031726125e+00 -4.6820323065e+00 2.7031726125e+00 4.6820323065e+00 
401500 4.6892452622e+00 -4.7044499071e-04 2.7031813189e+00 -4.6820473865e+00 2.7031813189e+00 4.6820473865e+00 
401600 4.6892452558e+00 -4.7019123020e-04 2.7031900206e+00 -4.6820624582e+00 2.7031900206e+00 4.6820624582e+00 
401700 4.6892452494e+00 -4.6993760060e-04 2.7031987176e+00 -4.6820775218e+00 2.7031987176e+00 4.6820775218e+00 
401800 4.6892452429e+00 -4.6968410186e-04 2.7032074099e+00 -4.6820925773e+00 2.7032074099e+00 4.6820925773e+00 
401900 4.6892452365e+00 -4.6943073393e-04 2.7032160974e+00 -4.6821076245e+00 2.7032160974e+00 4.6821076245e+00 
402000 4.6892452301e+00 -4.6917749674e-04 2.7032247802e+00 -4.6821226636e+00 2.7032247802e+00 4.6821226636e+00 
402100 4.6892452237e+00 -4.6892439024e-04 2.7032334583e+00 -4.6821376945e+00 2.7032334583e+00 4.6821376945e+00 
402200 4.6892452173e+00 -4.6867141438e-04 2.7032421317e+00 -4.6821527173e+00 2.7032421317e+00 4.6821527173e+00 
402300 4.6892452109e+00 -4.6841856909e-04 2.7032508004e+00 -4.6821677319e+00 2.7032508004e+00 4.6821677319e+00 
402400 4.6892452045e+00 -4.6816585433e-04 2.7032594644e+00 -4.6821827384e+00 2.7032594644e+00 4.6821827384e+00 
402500 4.6892451981e+00 -4.6791327003e-04 2.7032681237e+00 -4.6821977367e+00 2.7032681237e+00 4.6821977367e+00 
402600 4.6892451918e+00 -4.6766081614e-04 2.7032767783e+00 -4.6822127269e+00 2.7032767783e+00 4.6822127269e+00 
402700 4.6892451854e+00 -4.6740849261e-04 2.7032854282e+00 -4.6822277090e+00 2.7032854282e+00 4.6822277090e+00 
402800 4.6892451790e+00 -4.6715629937e-04 2.7032940734e+00 -4.6822426829e+00 2.7032940734e+00 4.6822426829e+00 
402900 4.6892451727e+00 -4.6690423638e-04 2.7033027139e+00 -4.6822576487e+00 2.7033027139e+00 4.6822576487e+00 
403000 4.6892451663e+00 -4.6665230357e-04 2.7033113497e+00 -4.6822726064e+00 2.7033113497e+00 4.6822726064e+00 
403100 4.6892451600e+00 -4.6640050089e-04 2.7033199808e+00 -4.6822875559e+00 2.7033199808e+00 4.6822875559e+00 
403200 4.6892451536e+00 -4.6614882829e-04 2.7033286073e+00 -4.6823024974e+00 2.7033286073e+00 4.6823024974e+00 
403300 4.6892451473e+00 -4.6589728570e-04 2.7033372290e+00 -4.6823174307e+00 2.7033372290e+00 4.6823174307e+00 
403400 4.6892451410e+00 -4.6564587308e-04 2.7033458461e+00 -4.6823323559e+00 2.7033458461e+00 4.6823323559e+00 
403500 4.6892451347e+00 -4.6539459036e-04 2.7033544585e+00 -4.6823472730e+00 2.7033544585e+00 4.6823472730e+00 
403600 4.6892451284e+00 -4.6514343749e-04 2.7033630663e+00 -4.6823621821e+00 2.7033630663e+00 4.6823621821e+00 
403700 4.6892451221e+00 -4.6489241442e-04 2.7033716693e+00 -4.6823770830e+00 2.7033716693e+00 4.6823770830e+00 
403800 4.6892451158e+00 -4.6464152108e-04 2.7033802677e+00 -4.6823919758e+00 2.7033802677e+00 4.6823919758e+00 
403900 4.6892451095e+00 -4.6439075743e-04 2.7033888614e+00 -4.6824068606e+00 2.7033888614e+00 4.6824068606e+00 
404000 4.6892451032e+00 -4.6414012340e-04 2.7033974505e+00 -4.6824217373e+00 2.7033974505e+00 4.6824217373e+00 
404100 4.6892450969e+00 -4.6388961894e-04 2.7034060349e+00 -4.6824366059e+00 2.7034060349e+00 4.6824366059e+00 
404200 4.6892450907e+00 -4.6363924400e-04 2.7034146146e+00 -4.6824514664e+00 2.7034146146e+00 4.6824514664e+00 
404300 4.6892450844e+00 -4.6338899851e-04 2.7034231897e+00 -4.6824663188e+00 2.7034231897e+00 4.6824663188e+00 
404400 4.6892450782e+00 -4.6313888243e-04 2.7034317601e+00 -4.6824811632e+00 2.7034317601e+00 4.6824811632e+00 
404500 4.6892450719e+00 -4.6288889569e-04 2.7034403258e+00 -4.6824959996e+00 2.7034403258e+00 4.6824959996e+00 
404600 4.6892450657e+00 -4.6263903825e-04 2.7034488870e+00 -4.6825108279e+00 2.7034488870e+00 4.6825108279e+00 
404700 4.6892450594e+00 -4.6238931003e-04 2.7034574434e+00 -4.6825256481e+00 2.7034574434e+00 4.6825256481e+00 
404800 4.6892450532e+00 -4.6213971100e-04 2.7034659952e+00 -4.6825404603e+00 2.7034659952e+00 4.6825404603e+00 
404900 4.6892450470e+00 -4.6189024109e-04 2.7034745424e+00 -4.6825552644e+00 2.7034745424e+00 4.6825552644e+00 
405000 4.6892450408e+00 -4.6164090024e-04 2.7034830849e+00 -4.6825700605e+00 2.7034830849e+00 4.6825700605e+00 
405100 4.6892450346e+00 -4.6139168841e-04 2.7034916228e+00 -4.6825848486e+00 2.7034916228e+00 4.6825848486e+00 
405200 4.6892450284e+00 -4.6114260553e-04 2.7035001561e+00 -4.6825996286e+00 2.7035001561e+00 4.6825996286e+00 
405300 4.6892450222e+00 -4.6089365155e-04 2.7035086847e+00 -4.6826144006e+00 2.7035086847e+00 4.6826144006e+00 
405400 4.6892450160e+00 -4.6064482641e-04 2.7035172087e+00 -4.6826291646e+00 2.7035172087e+00 4.6826291646e+00 
405500 4.6892450098e+00 -4.6039613006e-04 2.7035257281e+00 -4.6826439206e+00 2.7035257281e+00 4.6826439206e+00 
405600 4.6892450036e+00 -4.6014756243e-04 2.7035342428e+00 -4.6826586686e+00 2.7035342428e+00 4.6826586686e+00 
405700 4.6892449975e+00 -4.5989912349e-04 2.7035427529e+00 -4.6826734085e+00 2.7035427529e+00 4.6826734085e+00 
405800 4.6892449913e+00 -4.5965081316e-04 2.7035512584e+00 -4.6826881405e+00 2.7035512584e+00 4.6826881405e+00 
405900 4.6892449852e+00 -4.5940263140e-04 2.7035597593e+00 -4.6827028644e+00 2.7035597593e+00 4.6827028644e+00 
406000 4.6892449790e+00 -4.5915457814e-04 2.7035682556e+00 -4.6827175804e+00 2.7035682556e+00 4.6827175804e+00 
406100 4.6892449729e+00 -4.5890665334e-04 2.7035767472e+00 -4.6827322883e+00 2.7035767472e+00 4.6827322883e+00 
406200 4.6892449667e+00 -4.5865885693e-04 2.7035852342e+00 -4.6827469883e+00 2.7035852342e+00 4.6827469883e+00 
406300 4.6892449606e+00 -4.5841118886e-04 2.7035937167e+00 -4.6827616803e+00 2.7035937167e+00 4.6827616803e+00 
406400 4.6892449545e+00 -4.5816364908e-04 2.7036021945e+00 -4.6827763643e+00 2.7036021945e+00 4.6827763643e+00 
406500 4.6892449484e+00 -4.5791623752e-04 2.7036106677e+00 -4.6827910403e+00 2.7036106677e+00 4.6827910403e+00 
406600 4.6892449423e+00 -4.5766895413e-04 2.7036191363e+00 -4.6828057084e+00 2.7036191363e+00 4.6828057084e+00 
406700 4.6892449362e+00 -4.5742179886e-04 2.7036276003e+00 -4.6828203685e+00 2.7036276003e+00 4.6828203685e+00 
406800 4.6892449301e+00 -4.5717477166e-04 2.7036360597e+00 -4.6828350206e+00 2.7036360597e+00 4.6828350206e+00 
406900 4.6892449240e+00 -4.5692787245e-04 2.7036445146e+00 -4.6828496648e+00 2.7036445146e+00 4.6828496648e+00 
407000 4.6892449179e+00 -4.5668110120e-04 2.7036529648e+00 -4.6828643010e+00 2.7036529648e+00 4.6828643010e+00 
407100 4.6892449118e+00 -4.5643445783e-04 2.7036614104e+00 -4.6828789293e+00 2.7036614104e+00 4.6828789293e+00 
407200 4.6892449057e+00 -4.5618794231e-04 2.7036698515e+00 -4.6828935496e+00 2.7036698515e+00 4.6828935496e+00 
407300 4.6892448997e+00 -4.5594155457e-04 2.7036782879e+00 -4.6829081620e+00 2.7036782879e+00 4.6829081620e+00 
407400 4.6892448936e+00 -4.5569529455e-04 2.7036867198e+00 -4.6829227664e+00 2.7036867198e+00 4.6829227664e+00 
407500 4.6892448876e+00 -4.5544916220e-04 2.7036951471e+00 -4.6829373630e+00 2.7036951471e+00 4.6829373630e+00 
407600 4.6892448815e+00 -4.5520315746e-04 2.7037035698e+00 -4.6829519515e+00 2.7037035698e+00 4.6829519515e+00 
407700 4.6892448755e+00 -4.5495728029e-04 2.7037119880e+00 -4.6829665322e+00 2.7037119880e+00 4.6829665322e+00 
407800 4.6892448695e+00 -4.5471153061e-04 2.7037204015e+00 -4.6829811049e+00 2.7037204015e+00 4.6829811049e+00 
407900 4.6892448634e+00 -4.5446590839e-04 2.7037288105e+00 -4.6829956697e+00 2.7037288105e+00 4.6829956697e+00 
408000 4.6892448574e+00 -4.5422041355e-04 2.7037372150e+00 -4.6830102266e+00 2.7037372150e+00 4.6830102266e+00 
408100 4.6892448514e+00 -4.5397504605e-04 2.7037456148e+00 -4.6830247756e+00 2.7037456148e+00 4.6830247756e+00 
408200 4.6892448454e+00 -4.5372980582e-04 2.7037540101e+00 -4.6830393167e+00 2.7037540101e+00 4.6830393167e+00 
408300 4.6892448394e+00 -4.5348469282e-04 2.7037624009e+00 -4.6830538499e+00 2.7037624009e+00 4.6830538499e+00 
408400 4.6892448334e+00 -4.5323970699e-04 2.7037707871e+00 -4.6830683752e+00 2.7037707871e+00 4.6830683752e+00 
408500 4.6892448274e+00 -4.5299484827e-04 2.7037791687e+00 -4.6830828926e+00 2.7037791687e+00 4.6830828926e+00 
408600 4.6892448214e+00 -4.5275011661e-04 2.7037875458e+00 -4.6830974021e+00 2.7037875458e+00 4.6830974021e+00 
408700 4.6892448155e+00 -4.5250551194e-04 2.7037959183e+00 -4.6831119038e+00 2.7037959183e+00 4.6831119038e+00 
408800 4.6892448095e+00 -4.5226103422e-04 2.7038042863e+00 -4.6831263975e+00 2.7038042863e+00 4.6831263975e+00 
408900 4.6892448035e+00 -4.5201668339e-04 2.7038126497e+00 -4.6831408834e+00 2.7038126497e+00 4.6831408834e+00 
409000 4.6892447976e+00 -4.5177245939e-04 2.7038210086e+00 -4.6831553614e+00 2.7038210086e+00 4.6831553614e+00 
409100 4.6892447916e+00 -4.5152836217e-04 2.7038293629e+00 -4.6831698315e+00 2.7038293629e+00 4.6831698315e+00 
409200 4.6892447857e+00 -4.5128439168e-04 2.7038377127e+00 -4.6831842938e+00 2.7038377127e+00 4.6831842938e+00 
409300 4.6892447798e+00 -4.5104054784e-04 2.7038460580e+00 -4.6831987482e+00 2.7038460580e+00 4.6831987482e+00 
409400 4.6892447738e+00 -4.5079683062e-04 2.7038543987e+00 -4.6832131948e+00 2.7038543987e+00 4.6832131948e+00 
409500 4.6892447679e+00 -4.5055323995e-04 2.7038627349e+00 -4.6832276335e+00 2.7038627349e+00 4.6832276335e+00 
409600 4.6892447620e+00 -4.5030977579e-04 2.7038710665e+00 -4.6832420644e+00 2.7038710665e+00 4.6832420644e+00 
409700 4.6892447561e+00 -4.5006643806e-04 2.7038793937e+00 -4.6832564874e+00 2.7038793937e+00 4.6832564874e+00 
409800 4.6892447502e+00 -4.4982322672e-04 2.7038877163e+00 -4.6832709026e+00 2.7038877163e+00 4.6832709026e+00 
409900 4.6892447443e+00 -4.4958014172e-04 2.7038960344e+00 -4.6832853099e+00 2.7038960344e+00 4.6832853099e+00 
410000 4.6892447384e+00 -4.4933718299e-04 2.7039043479e+00 -4.6832997094e+00 2.7039043479e+00 4.6832997094e+00 
410100 4.6892447325e+00 -4.4909435048e-04 2.7039126570e+00 -4.6833141011e+00 2.7039126570e+00 4.6833141011e+00 
410200 4.6892447266e+00 -4.4885164413e-04 2.7039209615e+00 -4.6833284850e+00 2.7039209615e+00 4.6833284850e+00 
410300 4.6892447208e+00 -4.4860906390e-04 2.7039292615e+00 -4.6833428611e+00 2.7039292615e+00 4.6833428611e+00 
410400 4.6892447149e+00 -4.4836660972e-04 2.7039375570e+00 -4.6833572293e+00 2.7039375570e+00 4.6833572293e+00 
410500 4.6892447090e+00 -4.4812428153e-04 2.7039458480e+00 -4.6833715897e+00 2.7039458480e+00 4.6833715897e+00 
410600 4.6892447032e+00 -4.4788207929e-04 2.7039541345e+00 -4.6833859424e+00 2.7039541345e+00 4.6833859424e+00 
410700 4.6892446973e+00 -4.4764000294e-04 2.7039624165e+00 -4.6834002872e+00 2.7039624165e+00 4.6834002872e+00 
410800 4.6892446915e+00 -4.4739805241e-04 2.7039706940e+00 -4.6834146242e+00 2.7039706940e+00 4.6834146242e+00 
410900 4.6892446857e+00 -4.4715622767e-04 2.7039789670e+00 -4.6834289534e+00 2.7039789670e+00 4.6834289534e+00 
411000 4.6892446798e+00 -4.4691452864e-04 2.7039872355e+00 -4.6834432749e+00 2.7039872355e+00 4.6834432749e+00 
411100 4.6892446740e+00 -4.4667295527e-04 2.7039954995e+00 -4.6834575885e+00 2.7039954995e+00 4.6834575885e+00 
411200 4.6892446682e+00 -4.4643150752e-04 2.7040037590e+00 -4.6834718944e+00 2.7040037590e+00 4.6834718944e+00 
411300 4.6892446624e+00 -4.4619018532e-04 2.7040120140e+00 -4.6834861925e+00 2.7040120140e+00 4.6834861925e+00 
411400 4.6892446566e+00 -4.4594898861e-04 2.7040202645e+00 -4.6835004829e+00 2.7040202645e+00 4.6835004829e+00 
411500 4.6892446508e+00 -4.4570791735e-04 2.7040285106e+00 -4.6835147654e+00 2.7040285106e+00 4.6835147654e+00 
411600 4.6892446450e+00 -4.4546697147e-04 2.7040367521e+00 -4.6835290402e+00 2.7040367521e+00 4.6835290402e+00 
411700 4.6892446392e+00 -4.4522615093e-04 2.7040449892e+00 -4.6835433072e+00 2.7040449892e+00 4.6835433072e+00 
411800 4.6892446334e+00 -4.4498545566e-04 2.7040532218e+00 -4.6835575665e+00 2.7040532218e+00 4.6835575665e+00 
411900 4.6892446277e+00 -4.4474488561e-04 2.7040614499e+00 -4.6835718181e+00 2.7040614499e+00 4.6835718181e+00 
412000 4.6892446219e+00 -4.4450444072e-04 2.7040696736e+00 -4.6835860618e+00 2.7040696736e+00 4.6835860618e+00 
412100 4.6892446161e+00 -4.4426412095e-04 2.7040778928e+00 -4.6836002979e+00 2.7040778928e+00 4.6836002979e+00 
412200 4.6892446104e+00 -4.4402392622e-04 2.7040861075e+00 -4.6836145262e+00 2.7040861075e+00 4.6836145262e+00 
412300 4.6892446046e+00 -4.4378385650e-04 2.7040943177e+00 -4.6836287467e+00 2.7040943177e+00 4.6836287467e+00 
412400 4.6892445989e+00 -4.4354391171e-04 2.7041025235e+00 -4.6836429596e+00 2.7041025235e+00 4.6836429596e+00 
412500 4.6892445932e+00 -4.4330409182e-04 2.7041107248e+00 -4.6836571647e+00 2.7041107248e+00 4.6836571647e+00 
412600 4.6892445874e+00 -4.4306439675e-04 2.7041189217e+00 -4.6836713620e+00 2.7041189217e+00 4.6836713620e+00 
412700 4.6892445817e+00 -4.4282482646e-04 2.7041271141e+00 -4.6836855517e+00 2.7041271141e+00 4.6836855517e+00 
412800 4.6892445760e+00 -4.4258538089e-04 2.7041353020e+00 -4.6836997336e+00 2.7041353020e+00 4.6836997336e+00 
412900 4.6892445703e+00 -4.4234605999e-04 2.7041434855e+00 -4.6837139079e+00 2.7041434855e+00 4.6837139079e+00 
413000 4.6892445646e+00 -4.4210686369e-04 2.7041516646e+00 -4.6837280744e+00 2.7041516646e+00 4.6837280744e+00 
413100 4.6892445589e+00 -4.4186779195e-04 2.7041598392e+00 -4.6837422332e+00 2.7041598392e+00 4.6837422332e+00 
413200 4.6892445532e+00 -4.4162884470e-04 2.7041680093e+00 -4.6837563843e+00 2.7041680093e+00 4.6837563843e+00 
413300 4.6892445475e+00 -4.4139002190e-04 2.7041761750e+00 -4.6837705278e+00 2.7041761750e+00 4.6837705278e+00 
413400 4.6892445418e+00 -4.4115132349e-04 2.7041843363e+00 -4.6837846635e+00 2.7041843363e+00 4.6837846635e+00 
413500 4.6892445361e+00 -4.4091274941e-04 2.7041924931e+00 -4.6837987915e+00 2.7041924931e+00 4.6837987915e+00 
413600 4.6892445305e+00 -4.4067429961e-04 2.7042006455e+00 -4.6838129119e+00 2.7042006455e+00 4.6838129119e+00 
413700 4.6892445248e+00 -4.4043597402e-04 2.7042087935e+00 -4.6838270246e+00 2.7042087935e+00 4.6838270246e+00 
413800 4.6892445191e+00 -4.4019777261e-04 2.7042169370e+00 -4.6838411296e+00 2.7042169370e+00 4.6838411296e+00 
413900 4.6892445135e+00 -4.3995969530e-04 2.7042250761e+00 -4.6838552269e+00 2.7042250761e+00 4.6838552269e+00 
414000 4.6892445079e+00 -4.3972174205e-04 2.7042332108e+00 -4.6838693166e+00 2.7042332108e+00 4.6838693166e+00 
414100 4.6892445022e+00 -4.3948391280e-04 2.7042413410e+00 -4.6838833986e+00 2.7042413410e+00 4.6838833986e+00 
414200 4.6892444966e+00 -4.3924620749e-04 2.7042494669e+00 -4.6838974730e+00 2.7042494669e+00 4.6838974730e+00 
414300 4.6892444910e+00 -4.3900862607e-04 2.7042575883e+00 -4.6839115397e+00 2.7042575883e+00 4.6839115397e+00 
414400 4.6892444853e+00 -4.3877116849e-04 2.7042657053e+00 -4.6839255987e+00 2.7042657053e+00 4.6839255987e+00 
414500 4.6892444797e+00 -4.3853383468e-04 2.7042738179e+00 -4.6839396501e+00 2.7042738179e+00 4.6839396501e+00 
414600 4.6892444741e+00 -4.3829662460e-04 2.7042819260e+00 -4.6839536939e+00 2.7042819260e+00 4.6839536939e+00 
414700 4.6892444685e+00 -4.3805953818e-04 2.7042900298e+00 -4.6839677300e+00 2.7042900298e+00 4.6839677300e+00 
414800 4.6892444629e+00 -4.3782257538e-04 2.7042981291e+00 -4.6839817585e+00 2.7042981291e+00 4.6839817585e+00 
414900 4.6892444573e+00 -4.3758573614e-04 2.7043062241e+00 -4.6839957793e+00 2.7043062241e+00 4.6839957793e+00 
415000 4.6892444517e+00 -4.3734902039e-04 2.7043143146e+00 -4.6840097926e+00 2.7043143146e+00 4.6840097926e+00 
415100 4.6892444462e+00 -4.3711242809e-04 2.7043224008e+00 -4.6840237982e+00 2.7043224008e+00 4.6840237982e+00 
415200 4.6892444406e+00 -4.3687595919e-04 2.7043304825e+00 -4.6840377961e+00 2.7043304825e+00 4.6840377961e+00 
415300 4.6892444350e+00 -4.3663961362e-04 2.7043385598e+00 -4.6840517865e+00 2.7043385598e+00 4.6840517865e+00 
415400 4.6892444295e+00 -4.3640339133e-04 2.7043466328e+00 -4.6840657693e+00 2.7043466328e+00 4.6840657693e+00 
415500 4.6892444239e+00 -4.3616729226e-04 2.7043547013e+00 -4.6840797444e+00 2.7043547013e+00 4.6840797444e+00 
415600 4.6892444184e+00 -4.3593131637e-04 2.7043627655e+00 -4.6840937120e+00 2.7043627655e+00 4.6840937120e+00 
415700 4.6892444128e+00 -4.3569546359e-04 2.7043708253e+00 -4.6841076719e+00 2.7043708253e+00 4.6841076719e+00 
415800 4.6892444073e+00 -4.3545973387e-04 2.7043788807e+00 -4.6841216243e+00 2.7043788807e+00 4.6841216243e+00 
415900 4.6892444017e+00 -4.3522412715e-04 2.7043869317e+00 -4.6841355691e+00 2.7043869317e+00 4.6841355691e+00 
416000 4.6892443962e+00 -4.3498864338e-04 2.7043949784e+00 -4.6841495062e+00 2.7043949784e+00 4.6841495062e+00 
416100 4.6892443907e+00 -4.3475328251e-04 2.7044030206e+00 -4.6841634358e+00 2.7044030206e+00 4.6841634358e+00 
416200 4.6892443852e+00 -4.3451804448e-04 2.7044110585e+00 -4.6841773579e+00 2.7044110585e+00 4.6841773579e+00 
416300 4.6892443797e+00 -4.3428292922e-04 2.7044190920e+00 -4.6841912723e+00 2.7044190920e+00 4.6841912723e+00 
416400 4.6892443742e+00 -4.3404793670e-04 2.7044271211e+00 -4.6842051792e+00 2.7044271211e+00 4.6842051792e+00 
416500 4.6892443687e+00 -4.3381306685e-04 2.7044351459e+00 -4.6842190785e+00 2.7044351459e+00 4.6842190785e+00 
416600 4.6892443632e+00 -4.3357831962e-04 2.7044431663e+00 -4.6842329702e+00 2.7044431663e+00 4.6842329702e+00 
416700 4.6892443577e+00 -4.3334369495e-04 2.7044511824e+00 -4.6842468544e+00 2.7044511824e+00 4.6842468544e+00 
416800 4.6892443522e+00 -4.3310919279e-04 2.7044591940e+00 -4.6842607311e+00 2.7044591940e+00 4.6842607311e+00 
416900 4.6892443468e+00 -4.3287481308e-04 2.7044672014e+00 -4.6842746002e+00 2.7044672014e+00 4.6842746002e+00 
417000 4.6892443413e+00 -4.3264055577e-04 2.7044752043e+00 -4.6842884617e+00 2.7044752043e+00 4.6842884617e+00 
417100 4.6892443358e+00 -4.3240642080e-04 2.7044832029e+00 -4.6843023157e+00 2.7044832029e+00 4.6843023157e+00 
417200 4.6892443304e+00 -4.3217240812e-04 2.7044911972e+00 -4.6843161621e+00 2.7044911972e+00 4.6843161621e+00 
417300 4.6892443249e+00 -4.3193851767e-04 2.7044991871e+00 -4.6843300011e+00 2.7044991871e+00 4.6843300011e+00 
417400 4.6892443195e+00 -4.3170474940e-04 2.7045071727e+00 -4.6843438325e+00 2.7045071727e+00 4.6843438325e+00 
417500 4.6892443140e+00 -4.3147110324e-04 2.7045151539e+00 -4.6843576563e+00 2.7045151539e+00 4.6843576563e+00 
417600 4.6892443086e+00 -4.3123757916e-04 2.7045231307e+00 -4.6843714727e+00 2.7045231307e+00 4.6843714727e+00 
417700 4.6892443032e+00 -4.3100417709e-04 2.7045311033e+00 -4.6843852815e+00 2.7045311033e+00 4.6843852815e+00 
417800 4.6892442978e+00 -4.3077089697e-04 2.7045390715e+00 -4.6843990828e+00 2.7045390715e+00 4.6843990828e+00 
417900 4.6892442924e+00 -4.3053773875e-04 2.7045470353e+00 -4.6844128766e+00 2.7045470353e+00 4.6844128766e+00 
418000 4.6892442870e+00 -4.3030470239e-04 2.7045549948e+00 -4.6844266629e+00 2.7045549948e+00 4.6844266629e+00 
418100 4.6892442815e+00 -4.3007178781e-04 2.7045629500e+00 -4.6844404417e+00 2.7045629500e+00 4.6844404417e+00 
418200 4.6892442762e+00 -4.2983899497e-04 2.7045709009e+00 -4.6844542130e+00 2.7045709009e+00 4.6844542130e+00 
418300 4.6892442708e+00 -4.2960632381e-04 2.7045788474e+00 -4.6844679768e+00 2.7045788474e+00 4.6844679768e+00 
418400 4.6892442654e+00 -4.2937377427e-04 2.7045867896e+00 -4.6844817331e+00 2.7045867896e+00 4.6844817331e+00 
418500 4.6892442600e+00 -4.2914134631e-04 2.7045947275e+00 -4.6844954819e+00 2.7045947275e+00 4.6844954819e+00 
418600 4.6892442546e+00 -4.2890903987e-04 2.7046026611e+00 -4.6845092233e+00 2.7046026611e+00 4.6845092233e+00 
418700 4.6892442493e+00 -4.2867685488e-04 2.7046105903e+00 -4.6845229571e+00 2.7046105903e+00 4.6845229571e+00 
418800 4.6892442439e+00 -4.2844479130e-04 2.7046185152e+00 -4.6845366835e+00 2.7046185152e+00 4.6845366835e+00 
418900 4.6892442385e+00 -4.2821284908e-04 2.7046264359e+00 -4.6845504024e+00 2.7046264359e+00 4.6845504024e+00 
419000 4.6892442332e+00 -4.2798102815e-04 2.7046343522e+00 -4.6845641139e+00 2.7046343522e+00 4.6845641139e+00 
419100 4.6892442278e+00 -4.2774932846e-04 2.7046422642e+00 -4.6845778178e+00 2.7046422642e+00 4.6845778178e+00 
419200 4.6892442225e+00 -4.2751774996e-04 2.7046501719e+00 -4.6845915144e+00 2.7046501719e+00 4.6845915144e+00 
419300 4.6892442172e+00 -4.2728629258e-04 2.7046580752e+00 -4.6846052034e+00 2.7046580752e+00 4.6846052034e+00 
419400 4.6892442118e+00 -4.2705495629e-04 2.7046659743e+00 -4.6846188850e+00 2.7046659743e+00 4.6846188850e+00 
419500 4.6892442065e+00 -4.2682374102e-04 2.7046738691e+00 -4.6846325592e+00 2.7046738691e+00 4.6846325592e+00 
419600 4.6892442012e+00 -4.2659264671e-04 2.7046817596e+00 -4.6846462259e+00 2.7046817596e+00 4.6846462259e+00 
419700 4.6892441959e+00 -4.2636167332e-04 2.7046896458e+00 -4.6846598852e+00 2.7046896458e+00 4.6846598852e+00 
419800 4.6892441906e+00 -4.2613082078e-04 2.7046975277e+00 -4.6846735371e+00 2.7046975277e+00 4.6846735371e+00 
419900 4.6892441853e+00 -4.2590008905e-04 2.7047054053e+00 -4.6846871815e+00 2.7047054053e+00 4.6846871815e+00 
420000 4.6892441800e+00 -4.2566947806e-04 2.7047132786e+00 -4.6847008185e+00 2.7047132786e+00 4.6847008185e+00 
420100 4.6892441747e+00 -4.2543898777e-04 2.7047211477e+00 -4.6847144481e+00 2.7047211477e+00 4.6847144481e+00 
420200 4.6892441694e+00 -4.2520861811e-04 2.7047290124e+00 -4.6847280702e+00 2.7047290124e+00 4.6847280702e+00 
420300 4.6892441641e+00 -4.2497836904e-04 2.7047368729e+00 -4.6847416849e+00 2.7047368729e+00 4.6847416849e+00 
420400 4.6892441589e+00 -4.2474824049e-04 2.7047447291e+00 -4.6847552923e+00 2.7047447291e+00 4.6847552923e+00 
420500 4.6892441536e+00 -4.2451823242e-04 2.7047525810e+00 -4.6847688922e+00 2.7047525810e+00 4.6847688922e+00 
420600 4.6892441483e+00 -4.2428834476e-04 2.7047604286e+00 -4.6847824847e+00 2.7047604286e+00 4.6847824847e+00 
420700 4.6892441431e+00 -4.2405857747e-04 2.7047682720e+00 -4.6847960698e+00 2.7047682720e+00 4.6847960698e+00 
420800 4.6892441378e+00 -4.2382893049e-04 2.7047761111e+00 -4.6848096475e+00 2.7047761111e+00 4.6848096475e+00 
420900 4.6892441326e+00 -4.2359940376e-04 2.7047839459e+00 -4.6848232178e+00 2.7047839459e+00 4.6848232178e+00 
421000 4.6892441274e+00 -4.2336999723e-04 2.7047917765e+00 -4.6848367808e+00 2.7047917765e+00 4.6848367808e+00 
421100 4.6892441221e+00 -4.2314071085e-04 2.7047996028e+00 -4.6848503363e+00 2.7047996028e+00 4.6848503363e+00 
421200 4.6892441169e+00 -4.2291154455e-04 2.7048074248e+00 -4.6848638845e+00 2.7048074248e+00 4.6848638845e+00 
421300 4.6892441117e+00 -4.2268249829e-04 2.7048152426e+00 -4.6848774253e+00 2.7048152426e+00 4.6848774253e+00 
421400 4.6892441065e+00 -4.2245357201e-04 2.7048230561e+00 -4.6848909587e+00 2.7048230561e+00 4.6848909587e+00 
421500 4.6892441013e+00 -4.2222476566e-04 2.7048308654e+00 -4.6849044847e+00 2.7048308654e+00 4.6849044847e+00 
421600 4.6892440961e+00 -4.2199607918e-04 2.7048386704e+00 -4.6849180034e+00 2.7048386704e+00 4.6849180034e+00 
421700 4.6892440909e+00 -4.2176751251e-04 2.7048464712e+00 -4.6849315147e+00 2.7048464712e+00 4.6849315147e+00 
421800 4.6892440857e+00 -4.2153906560e-04 2.7048542677e+00 -4.6849450187e+00 2.7048542677e+00 4.6849450187e+00 
421900 4.6892440805e+00 -4.2131073840e-04 2.7048620600e+00 -4.6849585153e+00 2.7048620600e+00 4.6849585153e+00 
422000 4.6892440753e+00 -4.2108253086e-04 2.7048698480e+00 -4.6849720046e+00 2.7048698480e+00 4.6849720046e+00 
422100 4.6892440701e+00 -4.2085444291e-04 2.7048776318e+00 -4.6849854865e+00 2.7048776318e+00 4.6849854865e+00 
422200 4.6892440649e+00 -4.2062647450e-04 2.7048854113e+00 -4.6849989611e+00 2.7048854113e+00 4.6849989611e+00 
422300 4.6892440598e+00 -4.2039862558e-04 2.7048931867e+00 -4.6850124283e+00 2.7048931867e+00 4.6850124283e+00 
422400 4.6892440546e+00 -4.2017089610e-04 2.7049009577e+00 -4.6850258882e+00 2.7049009577e+00 4.6850258882e+00 
422500 4.6892440495e+00 -4.1994328599e-04 2.7049087246e+00 -4.6850393408e+00 2.7049087246e+00 4.6850393408e+00 
422600 4.6892440443e+00 -4.1971579521e-04 2.7049164872e+00 -4.6850527861e+00 2.7049164872e+00 4.6850527861e+00 
422700 4.6892440392e+00 -4.1948842370e-04 2.7049242456e+00 -4.6850662240e+00 2.7049242456e+00 4.6850662240e+00 
422800 4.6892440340e+00 -4.1926117140e-04 2.7049319998e+00 -4.6850796546e+00 2.7049319998e+00 4.6850796546e+00 
422900 4.6892440289e+00 -4.1903403826e-04 2.7049397497e+00 -4.6850930779e+00 2.7049397497e+00 4.6850930779e+00 
423000 4.6892440238e+00 -4.1880702423e-04 2.7049474954e+00 -4.6851064939e+00 2.7049474954e+00 4.6851064939e+00 
423100 4.6892440187e+00 -4.1858012925e-04 2.7049552369e+00 -4.6851199026e+00 2.7049552369e+00 4.6851199026e+00 
423200 4.6892440135e+00 -4.1835335327e-04 2.7049629742e+00 -4.6851333039e+00 2.7049629742e+00 4.6851333039e+00 
423300 4.6892440084e+00 -4.1812669623e-04 2.7049707073e+00 -4.6851466980e+00 2.7049707073e+00 4.6851466980e+00 
423400 4.6892440033e+00 -4.1790015808e-04 2.7049784361e+00 -4.6851600848e+00 2.7049784361e+00 4.6851600848e+00 
423500 4.6892439982e+00 -4.1767373876e-04 2.7049861608e+00 -4.6851734643e+00 2.7049861608e+00 4.6851734643e+00 
423600 4.6892439931e+00 -4.1744743822e-04 2.7049938812e+00 -4.6851868365e+00 2.7049938812e+00 4.6851868365e+00 
423700 4.6892439881e+00 -4.1722125640e-04 2.7050015975e+00 -4.6852002014e+00 2.7050015975e+00 4.6852002014e+00 
423800 4.6892439830e+00 -4.1699519326e-04 2.7050093095e+00 -4.6852135590e+00 2.7050093095e+00 4.6852135590e+00 
423900 4.6892439779e+00 -4.1676924872e-04 2.7050170174e+00 -4.6852269094e+00 2.7050170174e+00 4.6852269094e+00 
424000 4.6892439728e+00 -4.1654342275e-04 2.7050247210e+00 -4.6852402525e+00 2.7050247210e+00 4.6852402525e+00 
424100 4.6892439678e+00 -4.1631771529e-04 2.7050324204e+00 -4.6852535883e+00 2.7050324204e+00 4.6852535883e+00 
424200 4.6892439627e+00 -4.1609212628e-04 2.7050401157e+00 -4.6852669169e+00 2.7050401157e+00 4.6852669169e+00 
424300 4.6892439576e+00 -4.1586665566e-04 2.7050478067e+00 -4.6852802382e+00 2.7050478067e+00 4.6852802382e+00 
424400 4.6892439526e+00 -4.1564130339e-04 2.7050554936e+00 -4.6852935522e+00 2.7050554936e+00 4.6852935522e+00 
424500 4.6892439475e+00 -4.1541606941e-04 2.7050631763e+00 -4.6853068590e+00 2.7050631763e+00 4.6853068590e+00 
424600 4.6892439425e+00 -4.1519095366e-04 2.7050708548e+00 -4.6853201586e+00 2.7050708548e+00 4.6853201586e+00 
424700 4.6892439375e+00 -4.1496595609e-04 2.7050785291e+00 -4.6853334509e+00 2.7050785291e+00 4.6853334509e+00 
424800 4.6892439324e+00 -4.1474107665e-04 2.7050861992e+00 -4.6853467359e+00 2.7050861992e+00 4.6853467359e+00 
424900 4.6892439274e+00 -4.1451631528e-04 2.7050938652e+00 -4.6853600137e+00 2.7050938652e+00 4.6853600137e+00 
425000 4.6892439224e+00 -4.1429167193e-04 2.7051015270e+00 -4.6853732843e+00 2.7051015270e+00 4.6853732843e+00 
425100 4.6892439174e+00 -4.1406714653e-04 2.7051091846e+00 -4.6853865477e+00 2.7051091846e+00 4.6853865477e+00 
425200 4.6892439124e+00 -4.1384273905e-04 2.7051168380e+00 -4.6853998038e+00 2.7051168380e+00 4.6853998038e+00 
425300 4.6892439074e+00 -4.1361844942e-04 2.7051244873e+00 -4.6854130527e+00 2.7051244873e+00 4.6854130527e+00 
425400 4.6892439024e+00 -4.1339427759e-04 2.7051321323e+00 -4.6854262944e+00 2.7051321323e+00 4.6854262944e+00 
425500 4.6892438974e+00 -4.1317022350e-04 2.7051397733e+00 -4.6854395289e+00 2.7051397733e+00 4.6854395289e+00 
425600 4.6892438924e+00 -4.1294628711e-04 2.7051474100e+00 -4.6854527562e+00 2.7051474100e+00 4.6854527562e+00 
425700 4.6892438874e+00 -4.1272246835e-04 2.7051550426e+00 -4.6854659762e+00 2.7051550426e+00 4.6854659762e+00 
425800 4.6892438824e+00 -4.1249876718e-04 2.7051626711e+00 -4.6854791891e+00 2.7051626711e+00 4.6854791891e+00 
425900 4.6892438775e+00 -4.1227518353e-04 2.7051702954e+00 -4.6854923947e+00 2.7051702954e+00 4.6854923947e+00 
426000 4.6892438725e+00 -4.1205171736e-04 2.7051779155e+00 -4.6855055932e+00 2.7051779155e+00 4.6855055932e+00 
426100 4.6892438676e+00 -4.1182836860e-04 2.7051855315e+00 -4.6855187845e+00 2.7051855315e+00 4.6855187845e+00 
426200 4.6892438626e+00 -4.1160513722e-04 2.7051931433e+00 -4.6855319686e+00 2.7051931433e+00 4.6855319686e+00 
426300 4.6892438576e+00 -4.1138202314e-04 2.7052007510e+00 -4.6855451455e+00 2.7052007510e+00 4.6855451455e+00 
426400 4.6892438527e+00 -4.1115902632e-04 2.7052083546e+00 -4.6855583152e+00 2.7052083546e+00 4.6855583152e+00 
426500 4.6892438478e+00 -4.1093614670e-04 2.7052159540e+00 -4.6855714777e+00 2.7052159540e+00 4.6855714777e+00 
426600 4.6892438428e+00 -4.1071338424e-04 2.7052235492e+00 -4.6855846331e+00 2.7052235492e+00 4.6855846331e+00 
426700 4.6892438379e+00 -4.1049073886e-04 2.7052311404e+00 -4.6855977813e+00 2.7052311404e+00 4.6855977813e+00 
426800 4.6892438330e+00 -4.1026821053e-04 2.7052387273e+00 -4.6856109224e+00 2.7052387273e+00 4.6856109224e+00 
426900 4.6892438281e+00 -4.1004579918e-04 2.7052463102e+00 -4.6856240562e+00 2.7052463102e+00 4.6856240562e+00 
427000 4.6892438232e+00 -4.0982350477e-04 2.7052538889e+00 -4.6856371830e+00 2.7052538889e+00 4.6856371830e+00 
427100 4.6892438183e+00 -4.0960132723e-04 2.7052614635e+00 -4.6856503025e+00 2.7052614635e+00 4.6856503025e+00 
427200 4.6892438133e+00 -4.0937926652e-04 2.7052690340e+00 -4.6856634150e+00 2.7052690340e+00 4.6856634150e+00 
427300 4.6892438085e+00 -4.0915732258e-04 2.7052766003e+00 -4.6856765202e+00 2.7052766003e+00 4.6856765202e+00 
427400 4.6892438036e+00 -4.0893549535e-04 2.7052841625e+00 -4.6856896184e+00 2.7052841625e+00 4.6856896184e+00 
427500 4.6892437987e+00 -4.0871378478e-04 2.7052917206e+00 -4.6857027094e+00 2.7052917206e+00 4.6857027094e+00 
427600 4.6892437938e+00 -4.0849219082e-04 2.7052992746e+00 -4.6857157932e+00 2.7052992746e+00 4.6857157932e+00 
427700 4.6892437889e+00 -4.0827071342e-04 2.7053068244e+00 -4.6857288700e+00 2.7053068244e+00 4.6857288700e+00 
427800 4.6892437841e+00 -4.0804935252e-04 2.7053143702e+00 -4.6857419396e+00 2.7053143702e+00 4.6857419396e+00 
427900 4.6892437792e+00 -4.0782810806e-04 2.7053219118e+00 -4.6857550021e+00 2.7053219118e+00 4.6857550021e+00 
428000 4.6892437743e+00 -4.0760697999e-04 2.7053294493e+00 -4.6857680574e+00 2.7053294493e+00 4.6857680574e+00 
428100 4.6892437695e+00 -4.0738596826e-04 2.7053369827e+00 -4.6857811057e+00 2.7053369827e+00 4.6857811057e+00 
428200 4.6892437646e+00 -4.0716507281e-04 2.7053445120e+00 -4.6857941468e+00 2.7053445120e+00 4.6857941468e+00 
428300 4.6892437598e+00 -4.0694429359e-04 2.7053520372e+00 -4.6858071808e+00 2.7053520372e+00 4.6858071808e+00 
428400 4.6892437549e+00 -4.0672363055e-04 2.7053595583e+00 -4.6858202078e+00 2.7053595583e+00 4.6858202078e+00 
428500 4.6892437501e+00 -4.0650308363e-04 2.7053670753e+00 -4.6858332276e+00 2.7053670753e+00 4.6858332276e+00 
428600 4.6892437453e+00 -4.0628265278e-04 2.7053745882e+00 -4.6858462403e+00 2.7053745882e+00 4.6858462403e+00 
428700 4.6892437405e+00 -4.0606233794e-04 2.7053820970e+00 -4.6858592460e+00 2.7053820970e+00 4.6858592460e+00 
428800 4.6892437356e+00 -4.0584213906e-04 2.7053896018e+00 -4.6858722445e+00 2.7053896018e+00 4.6858722445e+00 
428900 4.6892437308e+00 -4.0562205608e-04 2.7053971024e+00 -4.6858852360e+00 2.7053971024e+00 4.6858852360e+00 
429000 4.6892437260e+00 -4.0540208896e-04 2.7054045989e+00 -4.6858982204e+00 2.7054045989e+00 4.6858982204e+00 
429100 4.6892437212e+00 -4.0518223764e-04 2.7054120914e+00 -4.6859111977e+00 2.7054120914e+00 4.6859111977e+00 
429200 4.6892437164e+00 -4.0496250206e-04 2.7054195797e+00 -4.6859241679e+00 2.7054195797e+00 4.6859241679e+00 
429300 4.6892437116e+00 -4.0474288217e-04 2.7054270640e+00 -4.6859371311e+00 2.7054270640e+00 4.6859371311e+00 
429400 4.6892437068e+00 -4.0452337792e-04 2.7054345442e+00 -4.6859500872e+00 2.7054345442e+00 4.6859500872e+00 
429500 4.6892437021e+00 -4.0430398925e-04 2.7054420204e+00 -4.6859630362e+00 2.7054420204e+00 4.6859630362e+00 
429600 4.6892436973e+00 -4.0408471611e-04 2.7054494924e+00 -4.6859759782e+00 2.7054494924e+00 4.6859759782e+00 
429700 4.6892436925e+00 -4.0386555844e-04 2.7054569604e+00 -4.6859889131e+00 2.7054569604e+00 4.6859889131e+00 
429800 4.6892436877e+00 -4.0364651619e-04 2.7054644243e+00 -4.6860018410e+00 2.7054644243e+00 4.6860018410e+00 
429900 4.6892436830e+00 -4.0342758932e-04 2.7054718842e+00 -4.6860147618e+00 2.7054718842e+00 4.6860147618e+00 
430000 4.6892436782e+00 -4.0320877775e-04 2.7054793399e+00 -4.6860276756e+00 2.7054793399e+00 4.6860276756e+00 
430100 4.6892436735e+00 -4.0299008145e-04 2.7054867916e+00 -4.6860405823e+00 2.7054867916e+00 4.6860405823e+00 
430200 4.6892436687e+00 -4.0277150035e-04 2.7054942393e+00 -4.6860534820e+00 2.7054942393e+00 4.6860534820e+00 
430300 4.6892436640e+00 -4.0255303441e-04 2.7055016829e+00 -4.6860663747e+00 2.7055016829e+00 4.6860663747e+00 
430400 4.6892436593e+00 -4.0233468356e-04 2.7055091224e+00 -4.6860792604e+00 2.7055091224e+00 4.6860792604e+00 
430500 4.6892436545e+00 -4.0211644776e-04 2.7055165579e+00 -4.6860921390e+00 2.7055165579e+00 4.6860921390e+00 
430600 4.6892436498e+00 -4.0189832695e-04 2.7055239893e+00 -4.6861050106e+00 2.7055239893e+00 4.6861050106e+00 
430700 4.6892436451e+00 -4.0168032107e-04 2.7055314167e+00 -4.6861178751e+00 2.7055314167e+00 4.6861178751e+00 
430800 4.6892436404e+00 -4.0146243009e-04 2.7055388400e+00 -4.6861307327e+00 2.7055388400e+00 4.6861307327e+00 
430900 4.6892436356e+00 -4.0124465393e-04 2.7055462593e+00 -4.6861435833e+00 2.7055462593e+00 4.6861435833e+00 
431000 4.6892436309e+00 -4.0102699254e-04 2.7055536745e+00 -4.6861564268e+00 2.7055536745e+00 4.6861564268e+00 
431100 4.6892436262e+00 -4.0080944588e-04 2.7055610857e+00 -4.6861692634e+00 2.7055610857e+00 4.6861692634e+00 
431200 4.6892436215e+00 -4.0059201389e-04 2.7055684928e+00 -4.6861820929e+00 2.7055684928e+00 4.6861820929e+00 
431300 4.6892436169e+00 -4.0037469652e-04 2.7055758959e+00 -4.6861949155e+00 2.7055758959e+00 4.6861949155e+00 
431400 4.6892436122e+00 -4.0015749371e-04 2.7055832950e+00 -4.6862077310e+00 2.7055832950e+00 4.6862077310e+00 
431500 4.6892436075e+00 -3.9994040540e-04 2.7055906900e+00 -4.6862205396e+00 2.7055906900e+00 4.6862205396e+00 
431600 4.6892436028e+00 -3.9972343156e-04 2.7055980810e+00 -4.6862333412e+00 2.7055980810e+00 4.6862333412e+00 
431700 4.6892435981e+00 -3.9950657211e-04 2.7056054680e+00 -4.6862461358e+00 2.7056054680e+00 4.6862461358e+00 
431800 4.6892435935e+00 -3.9928982701e-04 2.7056128510e+00 -4.6862589235e+00 2.7056128510e+00 4.6862589235e+00 
431900 4.6892435888e+00 -3.9907319620e-04 2.7056202299e+00 -4.6862717041e+00 2.7056202299e+00 4.6862717041e+00 
432000 4.6892435842e+00 -3.9885667964e-04 2.7056276048e+00 -4.6862844778e+00 2.7056276048e+00 4.6862844778e+00 
432100 4.6892435795e+00 -3.9864027726e-04 2.7056349756e+00 -4.6862972446e+00 2.7056349756e+00 4.6862972446e+00 
432200 4.6892435749e+00 -3.9842398901e-04 2.7056423425e+00 -4.6863100043e+00 2.7056423425e+00 4.6863100043e+00 
432300 4.6892435702e+00 -3.9820781485e-04 2.7056497053e+00 -4.6863227571e+00 2.7056497053e+00 4.6863227571e+00 
432400 4.6892435656e+00 -3.9799175471e-04 2.7056570642e+00 -4.6863355030e+00 2.7056570642e+00 4.6863355030e+00 
432500 4.6892435610e+00 -3.9777580855e-04 2.7056644190e+00 -4.6863482419e+00 2.7056644190e+00 4.6863482419e+00 
432600 4.6892435563e+00 -3.9755997631e-04 2.7056717698e+00 -4.6863609739e+00 2.7056717698e+00 4.6863609739e+00 
432700 4.6892435517e+00 -3.9734425793e-04 2.7056791166e+00 -4.6863736989e+00 2.7056791166e+00 4.6863736989e+00 
432800 4.6892435471e+00 -3.9712865336e-04 2.7056864594e+00 -4.6863864170e+00 2.7056864594e+00 4.6863864170e+00 
432900 4.6892435425e+00 -3.9691316256e-04 2.7056937981e+00 -4.6863991281e+00 2.7056937981e+00 4.6863991281e+00 
433000 4.6892435379e+00 -3.9669778546e-04 2.7057011329e+00 -4.6864118323e+00 2.7057011329e+00 4.6864118323e+00 
433100 4.6892435333e+00 -3.9648252201e-04 2.7057084637e+00 -4.6864245296e+00 2.7057084637e+00 4.6864245296e+00 
433200 4.6892435287e+00 -3.9626737216e-04 2.7057157905e+00 -4.6864372199e+00 2.7057157905e+00 4.6864372199e+00 
433300 4.6892435241e+00 -3.9605233586e-04 2.7057231133e+00 -4.6864499034e+00 2.7057231133e+00 4.6864499034e+00 
433400 4.6892435195e+00 -3.9583741305e-04 2.7057304321e+00 -4.6864625799e+00 2.7057304321e+00 4.6864625799e+00 
433500 4.6892435149e+00 -3.9562260368e-04 2.7057377469e+00 -4.6864752495e+00 2.7057377469e+00 4.6864752495e+00 
433600 4.6892435104e+00 -3.9540790770e-04 2.7057450577e+00 -4.6864879122e+00 2.7057450577e+00 4.6864879122e+00 
433700 4.6892435058e+00 -3.9519332505e-04 2.7057523645e+00 -4.6865005680e+00 2.7057523645e+00 4.6865005680e+00 
433800 4.6892435012e+00 -3.9497885568e-04 2.7057596673e+00 -4.6865132169e+00 2.7057596673e+00 4.6865132169e+00 
433900 4.6892434967e+00 -3.9476449953e-04 2.7057669662e+00 -4.6865258589e+00 2.7057669662e+00 4.6865258589e+00 
434000 4.6892434921e+00 -3.9455025656e-04 2.7057742611e+00 -4.6865384940e+00 2.7057742611e+00 4.6865384940e+00 
434100 4.6892434875e+00 -3.9433612671e-04 2.7057815520e+00 -4.6865511222e+00 2.7057815520e+00 4.6865511222e+00 
434200 4.6892434830e+00 -3.9412210992e-04 2.7057888389e+00 -4.6865637435e+00 2.7057888389e+00 4.6865637435e+00 
434300 4.6892434785e+00 -3.9390820615e-04 2.7057961218e+00 -4.6865763579e+00 2.7057961218e+00 4.6865763579e+00 
434400 4.6892434739e+00 -3.9369441533e-04 2.7058034008e+00 -4.6865889655e+00 2.7058034008e+00 4.6865889655e+00 
434500 4.6892434694e+00 -3.9348073743e-04 2.7058106758e+00 -4.6866015662e+00 2.7058106758e+00 4.6866015662e+00 
434600 4.6892434649e+00 -3.9326717237e-04 2.7058179468e+00 -4.6866141600e+00 2.7058179468e+00 4.6866141600e+00 
434700 4.6892434603e+00 -3.9305372012e-04 2.7058252139e+00 -4.6866267469e+00 2.7058252139e+00 4.6866267469e+00 
434800 4.6892434558e+00 -3.9284038061e-04 2.7058324770e+00 -4.6866393270e+00 2.7058324770e+00 4.6866393270e+00 
434900 4.6892434513e+00 -3.9262715380e-04 2.7058397362e+00 -4.6866519002e+00 2.7058397362e+00 4.6866519002e+00 
435000 4.6892434468e+00 -3.9241403963e-04 2.7058469913e+00 -4.6866644665e+00 2.7058469913e+00 4.6866644665e+00 
435100 4.6892434423e+00 -3.9220103804e-04 2.7058542426e+00 -4.6866770260e+00 2.7058542426e+00 4.6866770260e+00 
435200 4.6892434378e+00 -3.9198814899e-04 2.7058614898e+00 -4.6866895787e+00 2.7058614898e+00 4.6866895787e+00 
435300 4.6892434333e+00 -3.9177537242e-04 2.7058687332e+00 -4.6867021244e+00 2.7058687332e+00 4.6867021244e+00 
435400 4.6892434288e+00 -3.9156270828e-04 2.7058759725e+00 -4.6867146634e+00 2.7058759725e+00 4.6867146634e+00 
435500 4.6892434243e+00 -3.9135015652e-04 2.7058832079e+00 -4.6867271955e+00 2.7058832079e+00 4.6867271955e+00 
435600 4.6892434198e+00 -3.9113771707e-04 2.7058904394e+00 -4.6867397208e+00 2.7058904394e+00 4.6867397208e+00 
435700 4.6892434154e+00 -3.9092538990e-04 2.7058976669e+00 -4.6867522392e+00 2.7058976669e+00 4.6867522392e+00 
435800 4.6892434109e+00 -3.9071317494e-04 2.7059048905e+00 -4.6867647508e+00 2.7059048905e+00 4.6867647508e+00 
435900 4.6892434064e+00 -3.9050107215e-04 2.7059121102e+00 -4.6867772556e+00 2.7059121102e+00 4.6867772556e+00 
436000 4.6892434020e+00 -3.9028908146e-04 2.7059193259e+00 -4.6867897536e+00 2.7059193259e+00 4.6867897536e+00 
436100 4.6892433975e+00 -3.9007720284e-04 2.7059265376e+00 -4.6868022447e+00 2.7059265376e+00 4.6868022447e+00 
436200 4.6892433931e+00 -3.8986543621e-04 2.7059337455e+00 -4.6868147291e+00 2.7059337455e+00 4.6868147291e+00 
436300 4.6892433886e+00 -3.8965378154e-04 2.7059409494e+00 -4.6868272066e+00 2.7059409494e+00 4.6868272066e+00 
436400 4.6892433842e+00 -3.8944223877e-04 2.7059481493e+00 -4.6868396773e+00 2.7059481493e+00 4.6868396773e+00 
436500 4.6892433797e+00 -3.8923080784e-04 2.7059553454e+00 -4.6868521412e+00 2.7059553454e+00 4.6868521412e+00 
436600 4.6892433753e+00 -3.8901948870e-04 2.7059625375e+00 -4.6868645983e+00 2.7059625375e+00 4.6868645983e+00 
436700 4.6892433709e+00 -3.8880828130e-04 2.7059697257e+00 -4.6868770487e+00 2.7059697257e+00 4.6868770487e+00 
436800 4.6892433665e+00 -3.8859718559e-04 2.7059769100e+00 -4.6868894922e+00 2.7059769100e+00 4.6868894922e+00 
436900 4.6892433621e+00 -3.8838620152e-04 2.7059840903e+00 -4.6869019289e+00 2.7059840903e+00 4.6869019289e+00 
437000 4.6892433576e+00 -3.8817532902e-04 2.7059912668e+00 -4.6869143589e+00 2.7059912668e+00 4.6869143589e+00 
437100 4.6892433532e+00 -3.8796456805e-04 2.7059984393e+00 -4.6869267820e+00 2.7059984393e+00 4.6869267820e+00 
437200 4.6892433488e+00 -3.8775391856e-04 2.7060056079e+00 -4.6869391984e+00 2.7060056079e+00 4.6869391984e+00 
437300 4.6892433444e+00 -3.8754338048e-04 2.7060127726e+00 -4.6869516080e+00 2.7060127726e+00 4.6869516080e+00 
437400 4.6892433400e+00 -3.8733295378e-04 2.7060199334e+00 -4.6869640109e+00 2.7060199334e+00 4.6869640109e+00 
437500 4.6892433356e+00 -3.8712263840e-04 2.7060270902e+00 -4.6869764070e+00 2.7060270902e+00 4.6869764070e+00 
437600 4.6892433313e+00 -3.8691243427e-04 2.7060342432e+00 -4.6869887963e+00 2.7060342432e+00 4.6869887963e+00 
437700 4.6892433269e+00 -3.8670234136e-04 2.7060413923e+00 -4.6870011788e+00 2.7060413923e+00 4.6870011788e+00 
437800 4.6892433225e+00 -3.8649235961e-04 2.7060485375e+00 -4.6870135546e+00 2.7060485375e+00 4.6870135546e+00 
437900 4.6892433181e+00 -3.8628248896e-04 2.7060556787e+00 -4.6870259237e+00 2.7060556787e+00 4.6870259237e+00 
438000 4.6892433138e+00 -3.8607272937e-04 2.7060628161e+00 -4.6870382860e+00 2.7060628161e+00 4.6870382860e+00 
438100 4.6892433094e+00 -3.8586308077e-04 2.7060699496e+00 -4.6870506415e+00 2.7060699496e+00 4.6870506415e+00 
438200 4.6892433051e+00 -3.8565354312e-04 2.7060770792e+00 -4.6870629903e+00 2.7060770792e+00 4.6870629903e+00 
438300 4.6892433007e+00 -3.8544411637e-04 2.7060842049e+00 -4.6870753324e+00 2.7060842049e+00 4.6870753324e+00 
438400 4.6892432964e+00 -3.8523480046e-04 2.7060913267e+00 -4.6870876677e+00 2.7060913267e+00 4.6870876677e+00 
438500 4.6892432920e+00 -3.8502559534e-04 2.7060984446e+00 -4.6870999963e+00 2.7060984446e+00 4.6870999963e+00 
438600 4.6892432877e+00 -3.8481650095e-04 2.7061055586e+00 -4.6871123182e+00 2.7061055586e+00 4.6871123182e+00 
438700 4.6892432833e+00 -3.8460751725e-04 2.7061126688e+00 -4.6871246334e+00 2.7061126688e+00 4.6871246334e+00 
438800 4.6892432790e+00 -3.8439864418e-04 2.7061197751e+00 -4.6871369418e+00 2.7061197751e+00 4.6871369418e+00 
438900 4.6892432747e+00 -3.8418988169e-04 2.7061268775e+00 -4.6871492435e+00 2.7061268775e+00 4.6871492435e+00 
439000 4.6892432704e+00 -3.8398122972e-04 2.7061339760e+00 -4.6871615385e+00 2.7061339760e+00 4.6871615385e+00 
439100 4.6892432661e+00 -3.8377268823e-04 2.7061410706e+00 -4.6871738268e+00 2.7061410706e+00 4.6871738268e+00 
439200 4.6892432618e+00 -3.8356425716e-04 2.7061481614e+00 -4.6871861084e+00 2.7061481614e+00 4.6871861084e+00 
439300 4.6892432574e+00 -3.8335593645e-04 2.7061552483e+00 -4.6871983833e+00 2.7061552483e+00 4.6871983833e+00 
439400 4.6892432531e+00 -3.8314772607e-04 2.7061623314e+00 -4.6872106515e+00 2.7061623314e+00 4.6872106515e+00 
439500 4.6892432489e+00 -3.8293962594e-04 2.7061694105e+00 -4.6872229130e+00 2.7061694105e+00 4.6872229130e+00 
439600 4.6892432446e+00 -3.8273163603e-04 2.7061764859e+00 -4.6872351677e+00 2.7061764859e+00 4.6872351677e+00 
439700 4.6892432403e+00 -3.8252375627e-04 2.7061835573e+00 -4.6872474159e+00 2.7061835573e+00 4.6872474159e+00 
439800 4.6892432360e+00 -3.8231598662e-04 2.7061906249e+00 -4.6872596573e+00 2.7061906249e+00 4.6872596573e+00 
439900 4.6892432317e+00 -3.8210832703e-04 2.7061976886e+00 -4.6872718920e+00 2.7061976886e+00 4.6872718920e+00 
440000 4.6892432274e+00 -3.8190077743e-04 2.7062047485e+00 -4.6872841201e+00 2.7062047485e+00 4.6872841201e+00 
440100 4.6892432232e+00 -3.8169333778e-04 2.7062118045e+00 -4.6872963415e+00 2.7062118045e+00 4.6872963415e+00 
440200 4.6892432189e+00 -3.8148600803e-04 2.7062188567e+00 -4.6873085562e+00 2.7062188567e+00 4.6873085562e+00 
440300 4.6892432147e+00 -3.8127878813e-04 2.7062259050e+00 -4.6873207643e+00 2.7062259050e+00 4.6873207643e+00 
440400 4.6892432104e+00 -3.8107167801e-04 2.7062329495e+00 -4.6873329657e+00 2.7062329495e+00 4.6873329657e+00 
440500 4.6892432061e+00 -3.8086467763e-04 2.7062399901e+00 -4.6873451604e+00 2.7062399901e+00 4.6873451604e+00 
440600 4.6892432019e+00 -3.8065778694e-04 2.7062470269e+00 -4.6873573485e+00 2.7062470269e+00 4.6873573485e+00 
440700 4.6892431977e+00 -3.8045100588e-04 2.7062540599e+00 -4.6873695299e+00 2.7062540599e+00 4.6873695299e+00 
440800 4.6892431934e+00 -3.8024433441e-04 2.7062610890e+00 -4.6873817047e+00 2.7062610890e+00 4.6873817047e+00 
440900 4.6892431892e+00 -3.8003777246e-04 2.7062681143e+00 -4.6873938728e+00 2.7062681143e+00 4.6873938728e+00 
441000 4.6892431850e+00 -3.7983131999e-04 2.7062751357e+00 -4.6874060343e+00 2.7062751357e+00 4.6874060343e+00 
441100 4.6892431807e+00 -3.7962497694e-04 2.7062821533e+00 -4.6874181891e+00 2.7062821533e+00 4.6874181891e+00 
441200 4.6892431765e+00 -3.7941874327e-04 2.7062891671e+00 -4.6874303374e+00 2.7062891671e+00 4.6874303374e+00 
441300 4.6892431723e+00 -3.7921261892e-04 2.7062961770e+00 -4.6874424789e+00 2.7062961770e+00 4.6874424789e+00 
441400 4.6892431681e+00 -3.7900660383e-04 2.7063031832e+00 -4.6874546139e+00 2.7063031832e+00 4.6874546139e+00 
441500 4.6892431639e+00 -3.7880069796e-04 2.7063101854e+00 -4.6874667422e+00 2.7063101854e+00 4.6874667422e+00 
441600 4.6892431597e+00 -3.7859490126e-04 2.7063171839e+00 -4.6874788640e+00 2.7063171839e+00 4.6874788640e+00 
441700 4.6892431555e+00 -3.7838921366e-04 2.7063241786e+00 -4.6874909790e+00 2.7063241786e+00 4.6874909790e+00 
441800 4.6892431513e+00 -3.7818363513e-04 2.7063311694e+00 -4.6875030875e+00 2.7063311694e+00 4.6875030875e+00 
441900 4.6892431471e+00 -3.7797816560e-04 2.7063381564e+00 -4.6875151894e+00 2.7063381564e+00 4.6875151894e+00 
442000 4.6892431429e+00 -3.7777280502e-04 2.7063451396e+00 -4.6875272847e+00 2.7063451396e+00 4.6875272847e+00 
442100 4.6892431388e+00 -3.7756755335e-04 2.7063521190e+00 -4.6875393733e+00 2.7063521190e+00 4.6875393733e+00 
442200 4.6892431346e+00 -3.7736241053e-04 2.7063590946e+00 -4.6875514554e+00 2.7063590946e+00 4.6875514554e+00 
442300 4.6892431304e+00 -3.7715737651e-04 2.7063660664e+00 -4.6875635309e+00 2.7063660664e+00 4.6875635309e+00 
442400 4.6892431263e+00 -3.7695245123e-04 2.7063730344e+00 -4.6875755997e+00 2.7063730344e+00 4.6875755997e+00 
442500 4.6892431221e+00 -3.7674763465e-04 2.7063799985e+00 -4.6875876620e+00 2.7063799985e+00 4.6875876620e+00 
442600 4.6892431179e+00 -3.7654292670e-04 2.7063869589e+00 -4.6875997177e+00 2.7063869589e+00 4.6875997177e+00 
442700 4.6892431138e+00 -3.7633832735e-04 2.7063939155e+00 -4.6876117669e+00 2.7063939155e+00 4.6876117669e+00 
442800 4.6892431097e+00 -3.7613383654e-04 2.7064008682e+00 -4.6876238094e+00 2.7064008682e+00 4.6876238094e+00 
442900 4.6892431055e+00 -3.7592945421e-04 2.7064078172e+00 -4.6876358454e+00 2.7064078172e+00 4.6876358454e+00 
443000 4.6892431014e+00 -3.7572518031e-04 2.7064147624e+00 -4.6876478748e+00 2.7064147624e+00 4.6876478748e+00 
443100 4.6892430972e+00 -3.7552101480e-04 2.7064217038e+00 -4.6876598976e+00 2.7064217038e+00 4.6876598976e+00 
443200 4.6892430931e+00 -3.7531695761e-04 2.7064286413e+00 -4.6876719139e+00 2.7064286413e+00 4.6876719139e+00 
443300 4.6892430890e+00 -3.7511300871e-04 2.7064355752e+00 -4.6876839236e+00 2.7064355752e+00 4.6876839236e+00 
443400 4.6892430849e+00 -3.7490916803e-04 2.7064425052e+00 -4.6876959267e+00 2.7064425052e+00 4.6876959267e+00 
443500 4.6892430808e+00 -3.7470543552e-04 2.7064494314e+00 -4.6877079233e+00 2.7064494314e+00 4.6877079233e+00 
443600 4.6892430766e+00 -3.7450181114e-04 2.7064563539e+00 -4.6877199134e+00 2.7064563539e+00 4.6877199134e+00 
443700 4.6892430725e+00 -3.7429829482e-04 2.7064632726e+00 -4.6877318969e+00 2.7064632726e+00 4.6877318969e+00 
443800 4.6892430684e+00 -3.7409488652e-04 2.7064701875e+00 -4.6877438738e+00 2.7064701875e+00 4.6877438738e+00 
443900 4.6892430643e+00 -3.7389158619e-04 2.7064770986e+00 -4.6877558443e+00 2.7064770986e+00 4.6877558443e+00 
444000 4.6892430602e+00 -3.7368839377e-04 2.7064840059e+00 -4.6877678081e+00 2.7064840059e+00 4.6877678081e+00 
444100 4.6892430562e+00 -3.7348530922e-04 2.7064909095e+00 -4.6877797655e+00 2.7064909095e+00 4.6877797655e+00 
444200 4.6892430521e+00 -3.7328233247e-04 2.7064978093e+00 -4.6877917163e+00 2.7064978093e+00 4.6877917163e+00 
444300 4.6892430480e+00 -3.7307946349e-04 2.7065047054e+00 -4.6878036606e+00 2.7065047054e+00 4.6878036606e+00 
444400 4.6892430439e+00 -3.7287670221e-04 2.7065115976e+00 -4.6878155984e+00 2.7065115976e+00 4.6878155984e+00 
444500 4.6892430398e+00 -3.7267404858e-04 2.7065184862e+00 -4.6878275296e+00 2.7065184862e+00 4.6878275296e+00 
444600 4.6892430358e+00 -3.7247150256e-04 2.7065253709e+00 -4.6878394544e+00 2.7065253709e+00 4.6878394544e+00 
444700 4.6892430317e+00 -3.7226906409e-04 2.7065322519e+00 -4.6878513726e+00 2.7065322519e+00 4.6878513726e+00 
444800 4.6892430277e+00 -3.7206673312e-04 2.7065391291e+00 -4.6878632843e+00 2.7065391291e+00 4.6878632843e+00 
444900 4.6892430236e+00 -3.7186450960e-04 2.7065460026e+00 -4.6878751896e+00 2.7065460026e+00 4.6878751896e+00 
445000 4.6892430196e+00 -3.7166239347e-04 2.7065528723e+00 -4.6878870883e+00 2.7065528723e+00 4.6878870883e+00 
445100 4.6892430155e+00 -3.7146038469e-04 2.7065597383e+00 -4.6878989805e+00 2.7065597383e+00 4.6878989805e+00 
445200 4.6892430115e+00 -3.7125848320e-04 2.7065666005e+00 -4.6879108662e+00 2.7065666005e+00 4.6879108662e+00 
445300 4.6892430074e+00 -3.7105668895e-04 2.7065734590e+00 -4.6879227454e+00 2.7065734590e+00 4.6879227454e+00 
445400 4.6892430034e+00 -3.7085500189e-04 2.7065803138e+00 -4.6879346182e+00 2.7065803138e+00 4.6879346182e+00 
445500 4.6892429994e+00 -3.7065342197e-04 2.7065871648e+00 -4.6879464845e+00 2.7065871648e+00 4.6879464845e+00 
445600 4.6892429953e+00 -3.7045194913e-04 2.7065940120e+00 -4.6879583442e+00 2.7065940120e+00 4.6879583442e+00 
445700 4.6892429913e+00 -3.7025058333e-04 2.7066008555e+00 -4.6879701976e+00 2.7066008555e+00 4.6879701976e+00 
445800 4.6892429873e+00 -3.7004932451e-04 2.7066076953e+00 -4.6879820444e+00 2.7066076953e+00 4.6879820444e+00 
445900 4.6892429833e+00 -3.6984817262e-04 2.7066145313e+00 -4.6879938848e+00 2.7066145313e+00 4.6879938848e+00 
446000 4.6892429793e+00 -3.6964712762e-04 2.7066213636e+00 -4.6880057187e+00 2.7066213636e+00 4.6880057187e+00 
446100 4.6892429753e+00 -3.6944618944e-04 2.7066281922e+00 -4.6880175461e+00 2.7066281922e+00 4.6880175461e+00 
446200 4.6892429713e+00 -3.6924535803e-04 2.7066350170e+00 -4.6880293671e+00 2.7066350170e+00 4.6880293671e+00 
446300 4.6892429673e+00 -3.6904463335e-04 2.7066418382e+00 -4.6880411816e+00 2.7066418382e+00 4.6880411816e+00 
446400 4.6892429633e+00 -3.6884401535e-04 2.7066486556e+00 -4.6880529897e+00 2.7066486556e+00 4.6880529897e+00 
446500 4.6892429593e+00 -3.6864350397e-04 2.7066554692e+00 -4.6880647913e+00 2.7066554692e+00 4.6880647913e+00 
446600 4.6892429554e+00 -3.6844309915e-04 2.7066622792e+00 -4.6880765865e+00 2.7066622792e+00 4.6880765865e+00 
446700 4.6892429514e+00 -3.6824280086e-04 2.7066690854e+00 -4.6880883752e+00 2.7066690854e+00 4.6880883752e+00 
446800 4.6892429474e+00 -3.6804260903e-04 2.7066758879e+00 -4.6881001575e+00 2.7066758879e+00 4.6881001575e+00 
446900 4.6892429434e+00 -3.6784252362e-04 2.7066826867e+00 -4.6881119333e+00 2.7066826867e+00 4.6881119333e+00 
447000 4.6892429395e+00 -3.6764254458e-04 2.7066894818e+00 -4.6881237028e+00 2.7066894818e+00 4.6881237028e+00 
447100 4.6892429355e+00 -3.6744267184e-04 2.7066962732e+00 -4.6881354658e+00 2.7066962732e+00 4.6881354658e+00 
447200 4.6892429316e+00 -3.6724290537e-04 2.7067030608e+00 -4.6881472224e+00 2.7067030608e+00 4.6881472224e+00 
447300 4.6892429276e+00 -3.6704324511e-04 2.7067098448e+00 -4.6881589725e+00 2.7067098448e+00 4.6881589725e+00 
447400 4.6892429237e+00 -3.6684369101e-04 2.7067166250e+00 -4.6881707163e+00 2.7067166250e+00 4.6881707163e+00 
447500 4.6892429197e+00 -3.6664424301e-04 2.7067234016e+00 -4.6881824536e+00 2.7067234016e+00 4.6881824536e+00 
447600 4.6892429158e+00 -3.6644490108e-04 2.7067301744e+00 -4.6881941845e+00 2.7067301744e+00 4.6881941845e+00 
447700 4.6892429118e+00 -3.6624566514e-04 2.7067369436e+00 -4.6882059090e+00 2.7067369436e+00 4.6882059090e+00 
447800 4.6892429079e+00 -3.6604653516e-04 2.7067437090e+00 -4.6882176271e+00 2.7067437090e+00 4.6882176271e+00 
447900 4.6892429040e+00 -3.6584751109e-04 2.7067504708e+00 -4.6882293388e+00 2.7067504708e+00 4.6882293388e+00 
448000 4.6892429001e+00 -3.6564859286e-04 2.7067572288e+00 -4.6882410441e+00 2.7067572288e+00 4.6882410441e+00 
448100 4.6892428962e+00 -3.6544978043e-04 2.7067639832e+00 -4.6882527430e+00 2.7067639832e+00 4.6882527430e+00 
448200 4.6892428922e+00 -3.6525107376e-04 2.7067707339e+00 -4.6882644355e+00 2.7067707339e+00 4.6882644355e+00 
448300 4.6892428883e+00 -3.6505247278e-04 2.7067774809e+00 -4.6882761217e+00 2.7067774809e+00 4.6882761217e+00 
448400 4.6892428844e+00 -3.6485397744e-04 2.7067842242e+00 -4.6882878014e+00 2.7067842242e+00 4.6882878014e+00 
448500 4.6892428805e+00 -3.6465558770e-04 2.7067909638e+00 -4.6882994748e+00 2.7067909638e+00 4.6882994748e+00 
448600 4.6892428766e+00 -3.6445730351e-04 2.7067976997e+00 -4.6883111418e+00 2.7067976997e+00 4.6883111418e+00 
448700 4.6892428727e+00 -3.6425912480e-04 2.7068044320e+00 -4.6883228024e+00 2.7068044320e+00 4.6883228024e+00 
448800 4.6892428689e+00 -3.6406105154e-04 2.7068111606e+00 -4.6883344566e+00 2.7068111606e+00 4.6883344566e+00 
448900 4.6892428650e+00 -3.6386308367e-04 2.7068178855e+00 -4.6883461045e+00 2.7068178855e+00 4.6883461045e+00 
449000 4.6892428611e+00 -3.6366522114e-04 2.7068246067e+00 -4.6883577461e+00 2.7068246067e+00 4.6883577461e+00 
449100 4.6892428572e+00 -3.6346746389e-04 2.7068313243e+00 -4.6883693812e+00 2.7068313243e+00 4.6883693812e+00 
449200 4.6892428533e+00 -3.6326981188e-04 2.7068380382e+00 -4.6883810100e+00 2.7068380382e+00 4.6883810100e+00 
449300 4.6892428495e+00 -3.6307226506e-04 2.7068447484e+00 -4.6883926325e+00 2.7068447484e+00 4.6883926325e+00 
449400 4.6892428456e+00 -3.6287482337e-04 2.7068514550e+00 -4.6884042486e+00 2.7068514550e+00 4.6884042486e+00 
449500 4.6892428418e+00 -3.6267748677e-04 2.7068581579e+00 -4.6884158583e+00 2.7068581579e+00 4.6884158583e+00 
449600 4.6892428379e+00 -3.6248025520e-04 2.7068648571e+00 -4.6884274618e+00 2.7068648571e+00 4.6884274618e+00 
449700 4.6892428341e+00 -3.6228312861e-04 2.7068715527e+00 -4.6884390588e+00 2.7068715527e+00 4.6884390588e+00 
449800 4.6892428302e+00 -3.6208610695e-04 2.7068782446e+00 -4.6884506496e+00 2.7068782446e+00 4.6884506496e+00 
449900 4.6892428264e+00 -3.6188919017e-04 2.7068849329e+00 -4.6884622340e+00 2.7068849329e+00 4.6884622340e+00 
450000 4.6892428225e+00 -3.6169237822e-04 2.7068916175e+00 -4.6884738121e+00 2.7068916175e+00 4.6884738121e+00 
450100 4.6892428187e+00 -3.6149567105e-04 2.7068982984e+00 -4.6884853838e+00 2.7068982984e+00 4.6884853838e+00 
450200 4.6892428149e+00 -3.6129906860e-04 2.7069049758e+00 -4.6884969493e+00 2.7069049758e+00 4.6884969493e+00 
450300 4.6892428110e+00 -3.6110257083e-04 2.7069116494e+00 -4.6885085084e+00 2.7069116494e+00 4.6885085084e+00 
450400 4.6892428072e+00 -3.6090617769e-04 2.7069183194e+00 -4.6885200612e+00 2.7069183194e+00 4.6885200612e+00 
450500 4.6892428034e+00 -3.6070988912e-04 2.7069249858e+00 -4.6885316077e+00 2.7069249858e+00 4.6885316077e+00 
450600 4.6892427996e+00 -3.6051370507e-04 2.7069316485e+00 -4.6885431479e+00 2.7069316485e+00 4.6885431479e+00 
450700 4.6892427958e+00 -3.6031762549e-04 2.7069383076e+00 -4.6885546817e+00 2.7069383076e+00 4.6885546817e+00 
450800 4.6892427920e+00 -3.6012165034e-04 2.7069449631e+00 -4.6885662093e+00 2.7069449631e+00 4.6885662093e+00 
450900 4.6892427882e+00 -3.5992577956e-04 2.7069516149e+00 -4.6885777306e+00 2.7069516149e+00 4.6885777306e+00 
451000 4.6892427844e+00 -3.5973001309e-04 2.7069582630e+00 -4.6885892456e+00 2.7069582630e+00 4.6885892456e+00 
451100 4.6892427806e+00 -3.5953435090e-04 2.7069649076e+00 -4.6886007543e+00 2.7069649076e+00 4.6886007543e+00 
451200 4.6892427768e+00 -3.5933879292e-04 2.7069715485e+00 -4.6886122567e+00 2.7069715485e+00 4.6886122567e+00 
451300 4.6892427730e+00 -3.5914333911e-04 2.7069781858e+00 -4.6886237528e+00 2.7069781858e+00 4.6886237528e+00 
451400 4.6892427692e+00 -3.5894798942e-04 2.7069848195e+00 -4.6886352426e+00 2.7069848195e+00 4.6886352426e+00 
451500 4.6892427655e+00 -3.5875274379e-04 2.7069914495e+00 -4.6886467262e+00 2.7069914495e+00 4.6886467262e+00 
451600 4.6892427617e+00 -3.5855760218e-04 2.7069980759e+00 -4.6886582035e+00 2.7069980759e+00 4.6886582035e+00 
451700 4.6892427579e+00 -3.5836256453e-04 2.7070046987e+00 -4.6886696745e+00 2.7070046987e+00 4.6886696745e+00 
451800 4.6892427542e+00 -3.5816763080e-04 2.7070113179e+00 -4.6886811392e+00 2.7070113179e+00 4.6886811392e+00 
451900 4.6892427504e+00 -3.5797280093e-04 2.7070179334e+00 -4.6886925977e+00 2.7070179334e+00 4.6886925977e+00 
452000 4.6892427466e+00 -3.5777807487e-04 2.7070245454e+00 -4.6887040499e+00 2.7070245454e+00 4.6887040499e+00 
452100 4.6892427429e+00 -3.5758345258e-04 2.7070311537e+00 -4.6887154959e+00 2.7070311537e+00 4.6887154959e+00 
452200 4.6892427391e+00 -3.5738893399e-04 2.7070377584e+00 -4.6887269356e+00 2.7070377584e+00 4.6887269356e+00 
452300 4.6892427354e+00 -3.5719451907e-04 2.7070443595e+00 -4.6887383691e+00 2.7070443595e+00 4.6887383691e+00 
452400 4.6892427317e+00 -3.5700020776e-04 2.7070509570e+00 -4.6887497963e+00 2.7070509570e+00 4.6887497963e+00 
452500 4.6892427279e+00 -3.5680600000e-04 2.7070575509e+00 -4.6887612172e+00 2.7070575509e+00 4.6887612172e+00 
452600 4.6892427242e+00 -3.5661189576e-04 2.7070641412e+00 -4.6887726320e+00 2.7070641412e+00 4.6887726320e+00 
452700 4.6892427205e+00 -3.5641789497e-04 2.7070707279e+00 -4.6887840404e+00 2.7070707279e+00 4.6887840404e+00 
452800 4.6892427167e+00 -3.5622399759e-04 2.7070773110e+00 -4.6887954427e+00 2.7070773110e+00 4.6887954427e+00 
452900 4.6892427130e+00 -3.5603020357e-04 2.7070838905e+00 -4.6888068387e+00 2.7070838905e+00 4.6888068387e+00 
453000 4.6892427093e+00 -3.5583651286e-04 2.7070904664e+00 -4.6888182285e+00 2.7070904664e+00 4.6888182285e+00 
453100 4.6892427056e+00 -3.5564292540e-04 2.7070970387e+00 -4.6888296121e+00 2.7070970387e+00 4.6888296121e+00 
453200 4.6892427019e+00 -3.5544944115e-04 2.7071036074e+00 -4.6888409894e+00 2.7071036074e+00 4.6888409894e+00 
453300 4.6892426982e+00 -3.5525606005e-04 2.7071101726e+00 -4.6888523606e+00 2.7071101726e+00 4.6888523606e+00 
453400 4.6892426945e+00 -3.5506278206e-04 2.7071167341e+00 -4.6888637255e+00 2.7071167341e+00 4.6888637255e+00 
453500 4.6892426908e+00 -3.5486960712e-04 2.7071232921e+00 -4.6888750842e+00 2.7071232921e+00 4.6888750842e+00 
453600 4.6892426871e+00 -3.5467653519e-04 2.7071298464e+00 -4.6888864367e+00 2.7071298464e+00 4.6888864367e+00 
453700 4.6892426834e+00 -3.5448356621e-04 2.7071363972e+00 -4.6888977830e+00 2.7071363972e+00 4.6888977830e+00 
453800 4.6892426797e+00 -3.5429070013e-04 2.7071429444e+00 -4.6889091231e+00 2.7071429444e+00 4.6889091231e+00 
453900 4.6892426760e+00 -3.5409793691e-04 2.7071494881e+00 -4.6889204570e+00 2.7071494881e+00 4.6889204570e+00 
454000 4.6892426724e+00 -3.5390527649e-04 2.7071560281e+00 -4.6889317847e+00 2.7071560281e+00 4.6889317847e+00 
454100 4.6892426687e+00 -3.5371271882e-04 2.7071625646e+00 -4.6889431062e+00 2.7071625646e+00 4.6889431062e+00 
454200 4.6892426650e+00 -3.5352026385e-04 2.7071690975e+00 -4.6889544215e+00 2.7071690975e+00 4.6889544215e+00 
454300 4.6892426614e+00 -3.5332791154e-04 2.7071756268e+00 -4.6889657307e+00 2.7071756268e+00 4.6889657307e+00 
454400 4.6892426577e+00 -3.5313566183e-04 2.7071821526e+00 -4.6889770337e+00 2.7071821526e+00 4.6889770337e+00 
454500 4.6892426540e+00 -3.5294351467e-04 2.7071886748e+00 -4.6889883304e+00 2.7071886748e+00 4.6889883304e+00 
454600 4.6892426504e+00 -3.5275147001e-04 2.7071951934e+00 -4.6889996211e+00 2.7071951934e+00 4.6889996211e+00 
454700 4.6892426467e+00 -3.5255952780e-04 2.7072017085e+00 -4.6890109055e+00 2.7072017085e+00 4.6890109055e+00 
454800 4.6892426431e+00 -3.5236768799e-04 2.7072082200e+00 -4.6890221838e+00 2.7072082200e+00 4.6890221838e+00 
454900 4.6892426395e+00 -3.5217595053e-04 2.7072147280e+00 -4.6890334559e+00 2.7072147280e+00 4.6890334559e+00 
455000 4.6892426358e+00 -3.5198431537e-04 2.7072212324e+00 -4.6890447218e+00 2.7072212324e+00 4.6890447218e+00 
455100 4.6892426322e+00 -3.5179278246e-04 2.7072277332e+00 -4.6890559816e+00 2.7072277332e+00 4.6890559816e+00 
455200 4.6892426286e+00 -3.5160135175e-04 2.7072342305e+00 -4.6890672353e+00 2.7072342305e+00 4.6890672353e+00 
455300 4.6892426249e+00 -3.5141002320e-04 2.7072407243e+00 -4.6890784827e+00 2.7072407243e+00 4.6890784827e+00 
455400 4.6892426213e+00 -3.5121879674e-04 2.7072472145e+00 -4.6890897241e+00 2.7072472145e+00 4.6890897241e+00 
455500 4.6892426177e+00 -3.5102767233e-04 2.7072537011e+00 -4.6891009593e+00 2.7072537011e+00 4.6891009593e+00 
455600 4.6892426141e+00 -3.5083664992e-04 2.7072601842e+00 -4.6891121883e+00 2.7072601842e+00 4.6891121883e+00 
455700 4.6892426105e+00 -3.5064572946e-04 2.7072666637e+00 -4.6891234113e+00 2.7072666637e+00 4.6891234113e+00 
455800 4.6892426069e+00 -3.5045491090e-04 2.7072731398e+00 -4.6891346280e+00 2.7072731398e+00 4.6891346280e+00 
455900 4.6892426033e+00 -3.5026419419e-04 2.7072796122e+00 -4.6891458387e+00 2.7072796122e+00 4.6891458387e+00 
456000 4.6892425997e+00 -3.5007357927e-04 2.7072860812e+00 -4.6891570432e+00 2.7072860812e+00 4.6891570432e+00 
456100 4.6892425961e+00 -3.4988306611e-04 2.7072925466e+00 -4.6891682416e+00 2.7072925466e+00 4.6891682416e+00 
456200 4.6892425925e+00 -3.4969265465e-04 2.7072990084e+00 -4.6891794339e+00 2.7072990084e+00 4.6891794339e+00 
456300 4.6892425889e+00 -3.4950234483e-04 2.7073054668e+00 -4.6891906201e+00 2.7073054668e+00 4.6891906201e+00 
456400 4.6892425853e+00 -3.4931213662e-04 2.7073119216e+00 -4.6892018001e+00 2.7073119216e+00 4.6892018001e+00 
456500 4.6892425817e+00 -3.4912202995e-04 2.7073183728e+00 -4.6892129740e+00 2.7073183728e+00 4.6892129740e+00 
456600 4.6892425782e+00 -3.4893202479e-04 2.7073248206e+00 -4.6892241419e+00 2.7073248206e+00 4.6892241419e+00 
456700 4.6892425746e+00 -3.4874212107e-04 2.7073312648e+00 -4.6892353036e+00 2.7073312648e+00 4.6892353036e+00 
456800 4.6892425710e+00 -3.4855231876e-04 2.7073377055e+00 -4.6892464592e+00 2.7073377055e+00 4.6892464592e+00 
456900 4.6892425675e+00 -3.4836261779e-04 2.7073441427e+00 -4.6892576087e+00 2.7073441427e+00 4.6892576087e+00 
457000 4.6892425639e+00 -3.4817301813e-04 2.7073505764e+00 -4.6892687522e+00 2.7073505764e+00 4.6892687522e+00 
457100 4.6892425603e+00 -3.4798351971e-04 2.7073570065e+00 -4.6892798895e+00 2.7073570065e+00 4.6892798895e+00 
457200 4.6892425568e+00 -3.4779412250e-04 2.7073634331e+00 -4.6892910208e+00 2.7073634331e+00 4.6892910208e+00 
457300 4.6892425532e+00 -3.4760482643e-04 2.7073698563e+00 -4.6893021459e+00 2.7073698563e+00 4.6893021459e+00 
457400 4.6892425497e+00 -3.4741563147e-04 2.7073762759e+00 -4.6893132650e+00 2.7073762759e+00 4.6893132650e+00 
457500 4.6892425462e+00 -3.4722653755e-04 2.7073826920e+00 -4.6893243780e+00 2.7073826920e+00 4.6893243780e+00 
457600 4.6892425426e+00 -3.4703754464e-04 2.7073891046e+00 -4.6893354849e+00 2.7073891046e+00 4.6893354849e+00 
457700 4.6892425391e+00 -3.4684865268e-04 2.7073955136e+00 -4.6893465858e+00 2.7073955136e+00 4.6893465858e+00 
457800 4.6892425356e+00 -3.4665986163e-04 2.7074019192e+00 -4.6893576806e+00 2.7074019192e+00 4.6893576806e+00 
457900 4.6892425320e+00 -3.4647117142e-04 2.7074083213e+00 -4.6893687693e+00 2.7074083213e+00 4.6893687693e+00 
458000 4.6892425285e+00 -3.4628258202e-04 2.7074147199e+00 -4.6893798520e+00 2.7074147199e+00 4.6893798520e+00 
458100 4.6892425250e+00 -3.4609409337e-04 2.7074211150e+00 -4.6893909286e+00 2.7074211150e+00 4.6893909286e+00 
458200 4.6892425215e+00 -3.4590570542e-04 2.7074275065e+00 -4.6894019991e+00 2.7074275065e+00 4.6894019991e+00 
458300 4.6892425180e+00 -3.4571741813e-04 2.7074338946e+00 -4.6894130636e+00 2.7074338946e+00 4.6894130636e+00 
458400 4.6892425145e+00 -3.4552923144e-04 2.7074402792e+00 -4.6894241221e+00 2.7074402792e+00 4.6894241221e+00 
458500 4.6892425110e+00 -3.4534114530e-04 2.7074466603e+00 -4.6894351745e+00 2.7074466603e+00 4.6894351745e+00 
458600 4.6892425075e+00 -3.4515315967e-04 2.7074530380e+00 -4.6894462208e+00 2.7074530380e+00 4.6894462208e+00 
458700 4.6892425040e+00 -3.4496527450e-04 2.7074594121e+00 -4.6894572612e+00 2.7074594121e+00 4.6894572612e+00 
458800 4.6892425005e+00 -3.4477748973e-04 2.7074657827e+00 -4.6894682954e+00 2.7074657827e+00 4.6894682954e+00 
458900 4.6892424970e+00 -3.4458980531e-04 2.7074721499e+00 -4.6894793237e+00 2.7074721499e+00 4.6894793237e+00 
459000 4.6892424935e+00 -3.4440222121e-04 2.7074785136e+00 -4.6894903459e+00 2.7074785136e+00 4.6894903459e+00 
459100 4.6892424900e+00 -3.4421473736e-04 2.7074848738e+00 -4.6895013621e+00 2.7074848738e+00 4.6895013621e+00 
459200 4.6892424865e+00 -3.4402735372e-04 2.7074912305e+00 -4.6895123723e+00 2.7074912305e+00 4.6895123723e+00 
459300 4.6892424831e+00 -3.4384007023e-04 2.7074975838e+00 -4.6895233765e+00 2.7074975838e+00 4.6895233765e+00 
459400 4.6892424796e+00 -3.4365288686e-04 2.7075039335e+00 -4.6895343746e+00 2.7075039335e+00 4.6895343746e+00 
459500 4.6892424761e+00 -3.4346580354e-04 2.7075102799e+00 -4.6895453667e+00 2.7075102799e+00 4.6895453667e+00 
459600 4.6892424727e+00 -3.4327882023e-04 2.7075166227e+00 -4.6895563528e+00 2.7075166227e+00 4.6895563528e+00 
459700 4.6892424692e+00 -3.4309193689e-04 2.7075229621e+00 -4.6895673329e+00 2.7075229621e+00 4.6895673329e+00 
459800 4.6892424658e+00 -3.4290515345e-04 2.7075292980e+00 -4.6895783071e+00 2.7075292980e+00 4.6895783071e+00 
459900 4.6892424623e+00 -3.4271846988e-04 2.7075356304e+00 -4.6895892752e+00 2.7075356304e+00 4.6895892752e+00 
460000 4.6892424589e+00 -3.4253188612e-04 2.7075419594e+00 -4.6896002373e+00 2.7075419594e+00 4.6896002373e+00 
460100 4.6892424554e+00 -3.4234540212e-04 2.7075482849e+00 -4.6896111934e+00 2.7075482849e+00 4.6896111934e+00 
460200 4.6892424520e+00 -3.4215901783e-04 2.7075546070e+00 -4.6896221435e+00 2.7075546070e+00 4.6896221435e+00 
460300 4.6892424486e+00 -3.4197273321e-04 2.7075609256e+00 -4.6896330876e+00 2.7075609256e+00 4.6896330876e+00 
460400 4.6892424451e+00 -3.4178654821e-04 2.7075672407e+00 -4.6896440258e+00 2.7075672407e+00 4.6896440258e+00 
460500 4.6892424417e+00 -3.4160046277e-04 2.7075735524e+00 -4.6896549580e+00 2.7075735524e+00 4.6896549580e+00 
460600 4.6892424383e+00 -3.4141447684e-04 2.7075798606e+00 -4.6896658842e+00 2.7075798606e+00 4.6896658842e+00 
460700 4.6892424349e+00 -3.4122859039e-04 2.7075861654e+00 -4.6896768044e+00 2.7075861654e+00 4.6896768044e+00 
460800 4.6892424314e+00 -3.4104280335e-04 2.7075924668e+00 -4.6896877186e+00 2.7075924668e+00 4.6896877186e+00 
460900 4.6892424280e+00 -3.4085711568e-04 2.7075987647e+00 -4.6896986269e+00 2.7075987647e+00 4.6896986269e+00 
461000 4.6892424246e+00 -3.4067152733e-04 2.7076050591e+00 -4.6897095292e+00 2.7076050591e+00 4.6897095292e+00 
461100 4.6892424212e+00 -3.4048603825e-04 2.7076113501e+00 -4.6897204256e+00 2.7076113501e+00 4.6897204256e+00 
461200 4.6892424178e+00 -3.4030064839e-04 2.7076176377e+00 -4.6897313160e+00 2.7076176377e+00 4.6897313160e+00 
461300 4.6892424144e+00 -3.4011535771e-04 2.7076239219e+00 -4.6897422004e+00 2.7076239219e+00 4.6897422004e+00 
461400 4.6892424110e+00 -3.3993016614e-04 2.7076302026e+00 -4.6897530789e+00 2.7076302026e+00 4.6897530789e+00 
461500 4.6892424076e+00 -3.3974507365e-04 2.7076364798e+00 -4.6897639515e+00 2.7076364798e+00 4.6897639515e+00 
461600 4.6892424042e+00 -3.3956008019e-04 2.7076427537e+00 -4.6897748181e+00 2.7076427537e+00 4.6897748181e+00 
461700 4.6892424009e+00 -3.3937518570e-04 2.7076490241e+00 -4.6897856787e+00 2.7076490241e+00 4.6897856787e+00 
461800 4.6892423975e+00 -3.3919039014e-04 2.7076552910e+00 -4.6897965335e+00 2.7076552910e+00 4.6897965335e+00 
461900 4.6892423941e+00 -3.3900569346e-04 2.7076615546e+00 -4.6898073822e+00 2.7076615546e+00 4.6898073822e+00 
462000 4.6892423907e+00 -3.3882109560e-04 2.7076678147e+00 -4.6898182251e+00 2.7076678147e+00 4.6898182251e+00 
462100 4.6892423874e+00 -3.3863659653e-04 2.7076740714e+00 -4.6898290620e+00 2.7076740714e+00 4.6898290620e+00 
462200 4.6892423840e+00 -3.3845219618e-04 2.7076803247e+00 -4.6898398930e+00 2.7076803247e+00 4.6898398930e+00 
462300 4.6892423806e+00 -3.3826789452e-04 2.7076865745e+00 -4.6898507181e+00 2.7076865745e+00 4.6898507181e+00 
462400 4.6892423773e+00 -3.3808369149e-04 2.7076928210e+00 -4.6898615372e+00 2.7076928210e+00 4.6898615372e+00 
462500 4.6892423739e+00 -3.3789958704e-04 2.7076990640e+00 -4.6898723505e+00 2.7076990640e+00 4.6898723505e+00 
462600 4.6892423706e+00 -3.3771558113e-04 2.7077053036e+00 -4.6898831578e+00 2.7077053036e+00 4.6898831578e+00 
462700 4.6892423672e+00 -3.3753167371e-04 2.7077115398e+00 -4.6898939592e+00 2.7077115398e+00 4.6898939592e+00 
462800 4.6892423639e+00 -3.3734786472e-04 2.7077177726e+00 -4.6899047547e+00 2.7077177726e+00 4.6899047547e+00 
462900 4.6892423605e+00 -3.3716415412e-04 2.7077240020e+00 -4.6899155443e+00 2.7077240020e+00 4.6899155443e+00 
463000 4.6892423572e+00 -3.3698054186e-04 2.7077302279e+00 -4.6899263280e+00 2.7077302279e+00 4.6899263280e+00 
463100 4.6892423539e+00 -3.3679702789e-04 2.7077364505e+00 -4.6899371058e+00 2.7077364505e+00 4.6899371058e+00 
463200 4.6892423505e+00 -3.3661361216e-04 2.7077426697e+00 -4.6899478777e+00 2.7077426697e+00 4.6899478777e+00 
463300 4.6892423472e+00 -3.3643029462e-04 2.7077488854e+00 -4.6899586437e+00 2.7077488854e+00 4.6899586437e+00 
463400 4.6892423439e+00 -3.3624707523e-04 2.7077550978e+00 -4.6899694038e+00 2.7077550978e+00 4.6899694038e+00 
463500 4.6892423406e+00 -3.3606395394e-04 2.7077613068e+00 -4.6899801581e+00 2.7077613068e+00 4.6899801581e+00 
463600 4.6892423372e+00 -3.3588093069e-04 2.7077675123e+00 -4.6899909065e+00 2.7077675123e+00 4.6899909065e+00 
463700 4.6892423339e+00 -3.3569800544e-04 2.7077737145e+00 -4.6900016489e+00 2.7077737145e+00 4.6900016489e+00 
463800 4.6892423306e+00 -3.3551517814e-04 2.7077799133e+00 -4.6900123856e+00 2.7077799133e+00 4.6900123856e+00 
463900 4.6892423273e+00 -3.3533244874e-04 2.7077861087e+00 -4.6900231163e+00 2.7077861087e+00 4.6900231163e+00 
464000 4.6892423240e+00 -3.3514981719e-04 2.7077923007e+00 -4.6900338412e+00 2.7077923007e+00 4.6900338412e+00 
464100 4.6892423207e+00 -3.3496728344e-04 2.7077984893e+00 -4.6900445602e+00 2.7077984893e+00 4.6900445602e+00 
464200 4.6892423174e+00 -3.3478484745e-04 2.7078046746e+00 -4.6900552733e+00 2.7078046746e+00 4.6900552733e+00 
464300 4.6892423141e+00 -3.3460250916e-04 2.7078108564e+00 -4.6900659806e+00 2.7078108564e+00 4.6900659806e+00 
464400 4.6892423108e+00 -3.3442026854e-04 2.7078170349e+00 -4.6900766820e+00 2.7078170349e+00 4.6900766820e+00 
464500 4.6892423076e+00 -3.3423812552e-04 2.7078232100e+00 -4.6900873776e+00 2.7078232100e+00 4.6900873776e+00 
464600 4.6892423043e+00 -3.3405608006e-04 2.7078293817e+00 -4.6900980673e+00 2.7078293817e+00 4.6900980673e+00 
464700 4.6892423010e+00 -3.3387413211e-04 2.7078355500e+00 -4.6901087512e+00 2.7078355500e+00 4.6901087512e+00 
464800 4.6892422977e+00 -3.3369228162e-04 2.7078417150e+00 -4.6901194292e+00 2.7078417150e+00 4.6901194292e+00 
464900 4.6892422945e+00 -3.3351052855e-04 2.7078478766e+00 -4.6901301014e+00 2.7078478766e+00 4.6901301014e+00 
465000 4.6892422912e+00 -3.3332887285e-04 2.7078540348e+00 -4.6901407678e+00 2.7078540348e+00 4.6901407678e+00 
465100 4.6892422879e+00 -3.3314731446e-04 2.7078601897e+00 -4.6901514283e+00 2.7078601897e+00 4.6901514283e+00 
465200 4.6892422847e+00 -3.3296585335e-04 2.7078663412e+00 -4.6901620830e+00 2.7078663412e+00 4.6901620830e+00 
465300 4.6892422814e+00 -3.3278448945e-04 2.7078724893e+00 -4.6901727318e+00 2.7078724893e+00 4.6901727318e+00 
465400 4.6892422782e+00 -3.3260322272e-04 2.7078786340e+00 -4.6901833749e+00 2.7078786340e+00 4.6901833749e+00 
465500 4.6892422749e+00 -3.3242205312e-04 2.7078847754e+00 -4.6901940121e+00 2.7078847754e+00 4.6901940121e+00 
465600 4.6892422717e+00 -3.3224098060e-04 2.7078909135e+00 -4.6902046435e+00 2.7078909135e+00 4.6902046435e+00 
465700 4.6892422684e+00 -3.3206000510e-04 2.7078970482e+00 -4.6902152691e+00 2.7078970482e+00 4.6902152691e+00 
465800 4.6892422652e+00 -3.3187912658e-04 2.7079031795e+00 -4.6902258889e+00 2.7079031795e+00 4.6902258889e+00 
465900 4.6892422620e+00 -3.3169834499e-04 2.7079093075e+00 -4.6902365028e+00 2.7079093075e+00 4.6902365028e+00 
466000 4.6892422587e+00 -3.3151766028e-04 2.7079154321e+00 -4.6902471110e+00 2.7079154321e+00 4.6902471110e+00 
466100 4.6892422555e+00 -3.3133707240e-04 2.7079215534e+00 -4.6902577133e+00 2.7079215534e+00 4.6902577133e+00 
466200 4.6892422523e+00 -3.3115658131e-04 2.7079276713e+00 -4.6902683099e+00 2.7079276713e+00 4.6902683099e+00 
466300 4.6892422491e+00 -3.3097618696e-04 2.7079337859e+00 -4.6902789007e+00 2.7079337859e+00 4.6902789007e+00 
466400 4.6892422458e+00 -3.3079588930e-04 2.7079398971e+00 -4.6902894856e+00 2.7079398971e+00 4.6902894856e+00 
466500 4.6892422426e+00 -3.3061568827e-04 2.7079460050e+00 -4.6903000648e+00 2.7079460050e+00 4.6903000648e+00 
466600 4.6892422394e+00 -3.3043558384e-04 2.7079521095e+00 -4.6903106382e+00 2.7079521095e+00 4.6903106382e+00 
466700 4.6892422362e+00 -3.3025557595e-04 2.7079582108e+00 -4.6903212058e+00 2.7079582108e+00 4.6903212058e+00 
466800 4.6892422330e+00 -3.3007566456e-04 2.7079643086e+00 -4.6903317676e+00 2.7079643086e+00 4.6903317676e+00 
466900 4.6892422298e+00 -3.2989584962e-04 2.7079704032e+00 -4.6903423237e+00 2.7079704032e+00 4.6903423237e+00 
467000 4.6892422266e+00 -3.2971613107e-04 2.7079764944e+00 -4.6903528739e+00 2.7079764944e+00 4.6903528739e+00 
467100 4.6892422234e+00 -3.2953650888e-04 2.7079825822e+00 -4.6903634184e+00 2.7079825822e+00 4.6903634184e+00 
467200 4.6892422202e+00 -3.2935698299e-04 2.7079886668e+00 -4.6903739572e+00 2.7079886668e+00 4.6903739572e+00 
467300 4.6892422171e+00 -3.2917755335e-04 2.7079947480e+00 -4.6903844902e+00 2.7079947480e+00 4.6903844902e+00 
467400 4.6892422139e+00 -3.2899821992e-04 2.7080008259e+00 -4.6903950174e+00 2.7080008259e+00 4.6903950174e+00 
467500 4.6892422107e+00 -3.2881898265e-04 2.7080069004e+00 -4.6904055388e+00 2.7080069004e+00 4.6904055388e+00 
467600 4.6892422075e+00 -3.2863984150e-04 2.7080129717e+00 -4.6904160545e+00 2.7080129717e+00 4.6904160545e+00 
467700 4.6892422043e+00 -3.2846079640e-04 2.7080190396e+00 -4.6904265644e+00 2.7080190396e+00 4.6904265644e+00 
467800 4.6892422012e+00 -3.2828184732e-04 2.7080251042e+00 -4.6904370686e+00 2.7080251042e+00 4.6904370686e+00 
467900 4.6892421980e+00 -3.2810299420e-04 2.7080311655e+00 -4.6904475671e+00 2.7080311655e+00 4.6904475671e+00 
468000 4.6892421948e+00 -3.2792423701e-04 2.7080372234e+00 -4.6904580598e+00 2.7080372234e+00 4.6904580598e+00 
468100 4.6892421917e+00 -3.2774557568e-04 2.7080432781e+00 -4.6904685467e+00 2.7080432781e+00 4.6904685467e+00 
468200 4.6892421885e+00 -3.2756701018e-04 2.7080493294e+00 -4.6904790280e+00 2.7080493294e+00 4.6904790280e+00 
468300 4.6892421854e+00 -3.2738854045e-04 2.7080553775e+00 -4.6904895035e+00 2.7080553775e+00 4.6904895035e+00 
468400 4.6892421822e+00 -3.2721016645e-04 2.7080614222e+00 -4.6904999732e+00 2.7080614222e+00 4.6904999732e+00 
468500 4.6892421791e+00 -3.2703188813e-04 2.7080674636e+00 -4.6905104372e+00 2.7080674636e+00 4.6905104372e+00 
468600 4.6892421759e+00 -3.2685370544e-04 2.7080735017e+00 -4.6905208956e+00 2.7080735017e+00 4.6905208956e+00 
468700 4.6892421728e+00 -3.2667561833e-04 2.7080795365e+00 -4.6905313481e+00 2.7080795365e+00 4.6905313481e+00 
468800 4.6892421697e+00 -3.2649762676e-04 2.7080855680e+00 -4.6905417950e+00 2.7080855680e+00 4.6905417950e+00 
468900 4.6892421665e+00 -3.2631973067e-04 2.7080915962e+00 -4.6905522362e+00 2.7080915962e+00 4.6905522362e+00 
469000 4.6892421634e+00 -3.2614193003e-04 2.7080976211e+00 -4.6905626716e+00 2.7080976211e+00 4.6905626716e+00 
469100 4.6892421603e+00 -3.2596422478e-04 2.7081036427e+00 -4.6905731013e+00 2.7081036427e+00 4.6905731013e+00 
469200 4.6892421572e+00 -3.2578661487e-04 2.7081096610e+00 -4.6905835254e+00 2.7081096610e+00 4.6905835254e+00 
469300 4.6892421540e+00 -3.2560910025e-04 2.7081156760e+00 -4.6905939437e+00 2.7081156760e+00 4.6905939437e+00 
469400 4.6892421509e+00 -3.2543168089e-04 2.7081216878e+00 -4.6906043563e+00 2.7081216878e+00 4.6906043563e+00 
469500 4.6892421478e+00 -3.2525435673e-04 2.7081276962e+00 -4.6906147632e+00 2.7081276962e+00 4.6906147632e+00 
469600 4.6892421447e+00 -3.2507712772e-04 2.7081337014e+00 -4.6906251645e+00 2.7081337014e+00 4.6906251645e+00 
469700 4.6892421416e+00 -3.2489999381e-04 2.7081397032e+00 -4.6906355600e+00 2.7081397032e+00 4.6906355600e+00 
469800 4.6892421385e+00 -3.2472295497e-04 2.7081457018e+00 -4.6906459499e+00 2.7081457018e+00 4.6906459499e+00 
469900 4.6892421354e+00 -3.2454601113e-04 2.7081516971e+00 -4.6906563340e+00 2.7081516971e+00 4.6906563340e+00 
470000 4.6892421323e+00 -3.2436916226e-04 2.7081576891e+00 -4.6906667125e+00 2.7081576891e+00 4.6906667125e+00 
470100 4.6892421292e+00 -3.2419240830e-04 2.7081636779e+00 -4.6906770853e+00 2.7081636779e+00 4.6906770853e+00 
470200 4.6892421261e+00 -3.2401574921e-04 2.7081696634e+00 -4.6906874525e+00 2.7081696634e+00 4.6906874525e+00 
470300 4.6892421231e+00 -3.2383918493e-04 2.7081756456e+00 -4.6906978139e+00 2.7081756456e+00 4.6906978139e+00 
470400 4.6892421200e+00 -3.2366271543e-04 2.7081816245e+00 -4.6907081697e+00 2.7081816245e+00 4.6907081697e+00 
470500 4.6892421169e+00 -3.2348634066e-04 2.7081876001e+00 -4.6907185198e+00 2.7081876001e+00 4.6907185198e+00 
470600 4.6892421138e+00 -3.2331006056e-04 2.7081935725e+00 -4.6907288643e+00 2.7081935725e+00 4.6907288643e+00 
470700 4.6892421107e+00 -3.2313387509e-04 2.7081995416e+00 -4.6907392031e+00 2.7081995416e+00 4.6907392031e+00 
470800 4.6892421077e+00 -3.2295778420e-04 2.7082055075e+00 -4.6907495363e+00 2.7082055075e+00 4.6907495363e+00 
470900 4.6892421046e+00 -3.2278178785e-04 2.7082114700e+00 -4.6907598637e+00 2.7082114700e+00 4.6907598637e+00 
471000 4.6892421016e+00 -3.2260588598e-04 2.7082174294e+00 -4.6907701856e+00 2.7082174294e+00 4.6907701856e+00 
471100 4.6892420985e+00 -3.2243007856e-04 2.7082233854e+00 -4.6907805018e+00 2.7082233854e+00 4.6907805018e+00 
471200 4.6892420954e+00 -3.2225436552e-04 2.7082293382e+00 -4.6907908123e+00 2.7082293382e+00 4.6907908123e+00 
471300 4.6892420924e+00 -3.2207874683e-04 2.7082352878e+00 -4.6908011172e+00 2.7082352878e+00 4.6908011172e+00 
471400 4.6892420893e+00 -3.2190322244e-04 2.7082412340e+00 -4.6908114165e+00 2.7082412340e+00 4.6908114165e+00 
471500 4.6892420863e+00 -3.2172779230e-04 2.7082471771e+00 -4.6908217102e+00 2.7082471771e+00 4.6908217102e+00 
471600 4.6892420833e+00 -3.2155245636e-04 2.7082531169e+00 -4.6908319982e+00 2.7082531169e+00 4.6908319982e+00 
471700 4.6892420802e+00 -3.2137721457e-04 2.7082590534e+00 -4.6908422805e+00 2.7082590534e+00 4.6908422805e+00 
471800 4.6892420772e+00 -3.2120206690e-04 2.7082649867e+00 -4.6908525573e+00 2.7082649867e+00 4.6908525573e+00 
471900 4.6892420741e+00 -3.2102701328e-04 2.7082709167e+00 -4.6908628284e+00 2.7082709167e+00 4.6908628284e+00 
472000 4.6892420711e+00 -3.2085205368e-04 2.7082768435e+00 -4.6908730939e+00 2.7082768435e+00 4.6908730939e+00 
472100 4.6892420681e+00 -3.2067718804e-04 2.7082827670e+00 -4.6908833538e+00 2.7082827670e+00 4.6908833538e+00 
472200 4.6892420651e+00 -3.2050241632e-04 2.7082886874e+00 -4.6908936081e+00 2.7082886874e+00 4.6908936081e+00 
472300 4.6892420621e+00 -3.2032773847e-04 2.7082946044e+00 -4.6909038567e+00 2.7082946044e+00 4.6909038567e+00 
472400 4.6892420590e+00 -3.2015315445e-04 2.7083005183e+00 -4.6909140998e+00 2.7083005183e+00 4.6909140998e+00 
472500 4.6892420560e+00 -3.1997866420e-04 2.7083064288e+00 -4.6909243372e+00 2.7083064288e+00 4.6909243372e+00 
472600 4.6892420530e+00 -3.1980426769e-04 2.7083123362e+00 -4.6909345691e+00 2.7083123362e+00 4.6909345691e+00 
472700 4.6892420500e+00 -3.1962996486e-04 2.7083182403e+00 -4.6909447953e+00 2.7083182403e+00 4.6909447953e+00 
472800 4.6892420470e+00 -3.1945575566e-04 2.7083241412e+00 -4.6909550160e+00 2.7083241412e+00 4.6909550160e+00 
472900 4.6892420440e+00 -3.1928164005e-04 2.7083300389e+00 -4.6909652310e+00 2.7083300389e+00 4.6909652310e+00 
473000 4.6892420410e+00 -3.1910761798e-04 2.7083359333e+00 -4.6909754405e+00 2.7083359333e+00 4.6909754405e+00 
473100 4.6892420380e+00 -3.1893368941e-04 2.7083418245e+00 -4.6909856444e+00 2.7083418245e+00 4.6909856444e+00 
473200 4.6892420350e+00 -3.1875985428e-04 2.7083477125e+00 -4.6909958427e+00 2.7083477125e+00 4.6909958427e+00 
473300 4.6892420320e+00 -3.1858611255e-04 2.7083535973e+00 -4.6910060354e+00 2.7083535973e+00 4.6910060354e+00 
473400 4.6892420291e+00 -3.1841246418e-04 2.7083594789e+00 -4.6910162225e+00 2.7083594789e+00 4.6910162225e+00 
473500 4.6892420261e+00 -3.1823890911e-04 2.7083653572e+00 -4.6910264041e+00 2.7083653572e+00 4.6910264041e+00 
473600 4.6892420231e+00 -3.1806544730e-04 2.7083712323e+00 -4.6910365801e+00 2.7083712323e+00 4.6910365801e+00 
473700 4.6892420201e+00 -3.1789207870e-04 2.7083771042e+00 -4.6910467505e+00 2.7083771042e+00 4.6910467505e+00 
473800 4.6892420172e+00 -3.1771880327e-04 2.7083829729e+00 -4.6910569154e+00 2.7083829729e+00 4.6910569154e+00 
473900 4.6892420142e+00 -3.1754562095e-04 2.7083888383e+00 -4.6910670747e+00 2.7083888383e+00 4.6910670747e+00 
474000 4.6892420112e+00 -3.1737253171e-04 2.7083947006e+00 -4.6910772284e+00 2.7083947006e+00 4.6910772284e+00 
474100 4.6892420083e+00 -3.1719953549e-04 2.7084005597e+00 -4.6910873766e+00 2.7084005597e+00 4.6910873766e+00 
474200 4.6892420053e+00 -3.1702663225e-04 2.7084064155e+00 -4.6910975192e+00 2.7084064155e+00 4.6910975192e+00 
474300 4.6892420024e+00 -3.1685382193e-04 2.7084122682e+00 -4.6911076563e+00 2.7084122682e+00 4.6911076563e+00 
474400 4.6892419994e+00 -3.1668110450e-04 2.7084181176e+00 -4.6911177878e+00 2.7084181176e+00 4.6911177878e+00 
474500 4.6892419965e+00 -3.1650847991e-04 2.7084239638e+00 -4.6911279138e+00 2.7084239638e+00 4.6911279138e+00 
474600 4.6892419935e+00 -3.1633594811e-04 2.7084298069e+00 -4.6911380342e+00 2.7084298069e+00 4.6911380342e+00 
474700 4.6892419906e+00 -3.1616350905e-04 2.7084356467e+00 -4.6911481492e+00 2.7084356467e+00 4.6911481492e+00 
474800 4.6892419876e+00 -3.1599116269e-04 2.7084414834e+00 -4.6911582585e+00 2.7084414834e+00 4.6911582585e+00 
474900 4.6892419847e+00 -3.1581890897e-04 2.7084473168e+00 -4.6911683624e+00 2.7084473168e+00 4.6911683624e+00 
475000 4.6892419818e+00 -3.1564674786e-04 2.7084531471e+00 -4.6911784607e+00 2.7084531471e+00 4.6911784607e+00 
475100 4.6892419788e+00 -3.1547467930e-04 2.7084589741e+00 -4.6911885534e+00 2.7084589741e+00 4.6911885534e+00 
475200 4.6892419759e+00 -3.1530270326e-04 2.7084647980e+00 -4.6911986407e+00 2.7084647980e+00 4.6911986407e+00 
475300 4.6892419730e+00 -3.1513081967e-04 2.7084706187e+00 -4.6912087224e+00 2.7084706187e+00 4.6912087224e+00 
475400 4.6892419701e+00 -3.1495902850e-04 2.7084764362e+00 -4.6912187986e+00 2.7084764362e+00 4.6912187986e+00 
475500 4.6892419671e+00 -3.1478732970e-04 2.7084822506e+00 -4.6912288694e+00 2.7084822506e+00 4.6912288694e+00 
475600 4.6892419642e+00 -3.1461572322e-04 2.7084880617e+00 -4.6912389345e+00 2.7084880617e+00 4.6912389345e+00 
475700 4.6892419613e+00 -3.1444420902e-04 2.7084938697e+00 -4.6912489942e+00 2.7084938697e+00 4.6912489942e+00 
475800 4.6892419584e+00 -3.1427278705e-04 2.7084996744e+00 -4.6912590484e+00 2.7084996744e+00 4.6912590484e+00 
475900 4.6892419555e+00 -3.1410145726e-04 2.7085054760e+00 -4.6912690971e+00 2.7085054760e+00 4.6912690971e+00 
476000 4.6892419526e+00 -3.1393021960e-04 2.7085112745e+00 -4.6912791403e+00 2.7085112745e+00 4.6912791403e+00 
476100 4.6892419497e+00 -3.1375907404e-04 2.7085170697e+00 -4.6912891779e+00 2.7085170697e+00 4.6912891779e+00 
476200 4.6892419468e+00 -3.1358802051e-04 2.7085228618e+00 -4.6912992101e+00 2.7085228618e+00 4.6912992101e+00 
476300 4.6892419439e+00 -3.1341705899e-04 2.7085286507e+00 -4.6913092368e+00 2.7085286507e+00 4.6913092368e+00 
476400 4.6892419410e+00 -3.1324618941e-04 2.7085344365e+00 -4.6913192580e+00 2.7085344365e+00 4.6913192580e+00 
476500 4.6892419382e+00 -3.1307541173e-04 2.7085402190e+00 -4.6913292737e+00 2.7085402190e+00 4.6913292737e+00 
476600 4.6892419353e+00 -3.1290472592e-04 2.7085459985e+00 -4.6913392840e+00 2.7085459985e+00 4.6913392840e+00 
476700 4.6892419324e+00 -3.1273413191e-04 2.7085517747e+00 -4.6913492887e+00 2.7085517747e+00 4.6913492887e+00 
476800 4.6892419295e+00 -3.1256362966e-04 2.7085575478e+00 -4.6913592880e+00 2.7085575478e+00 4.6913592880e+00 
476900 4.6892419266e+00 -3.1239321914e-04 2.7085633177e+00 -4.6913692818e+00 2.7085633177e+00 4.6913692818e+00 
477000 4.6892419238e+00 -3.1222290028e-04 2.7085690845e+00 -4.6913792702e+00 2.7085690845e+00 4.6913792702e+00 
477100 4.6892419209e+00 -3.1205267305e-04 2.7085748481e+00 -4.6913892530e+00 2.7085748481e+00 4.6913892530e+00 
477200 4.6892419180e+00 -3.1188253740e-04 2.7085806086e+00 -4.6913992305e+00 2.7085806086e+00 4.6913992305e+00 
477300 4.6892419152e+00 -3.1171249328e-04 2.7085863659e+00 -4.6914092024e+00 2.7085863659e+00 4.6914092024e+00 
477400 4.6892419123e+00 -3.1154254064e-04 2.7085921200e+00 -4.6914191689e+00 2.7085921200e+00 4.6914191689e+00 
477500 4.6892419095e+00 -3.1137267944e-04 2.7085978711e+00 -4.6914291299e+00 2.7085978711e+00 4.6914291299e+00 
477600 4.6892419066e+00 -3.1120290964e-04 2.7086036189e+00 -4.6914390855e+00 2.7086036189e+00 4.6914390855e+00 
477700 4.6892419038e+00 -3.1103323118e-04 2.7086093636e+00 -4.6914490357e+00 2.7086093636e+00 4.6914490357e+00 
477800 4.6892419009e+00 -3.1086364403e-04 2.7086151052e+00 -4.6914589803e+00 2.7086151052e+00 4.6914589803e+00 
477900 4.6892418981e+00 -3.1069414812e-04 2.7086208436e+00 -4.6914689196e+00 2.7086208436e+00 4.6914689196e+00 
478000 4.6892418952e+00 -3.1052474343e-04 2.7086265789e+00 -4.6914788534e+00 2.7086265789e+00 4.6914788534e+00 
478100 4.6892418924e+00 -3.1035542989e-04 2.7086323111e+00 -4.6914887818e+00 2.7086323111e+00 4.6914887818e+00 
478200 4.6892418896e+00 -3.1018620747e-04 2.7086380401e+00 -4.6914987047e+00 2.7086380401e+00 4.6914987047e+00 
478300 4.6892418867e+00 -3.1001707612e-04 2.7086437659e+00 -4.6915086222e+00 2.7086437659e+00 4.6915086222e+00 
478400 4.6892418839e+00 -3.0984803580e-04 2.7086494887e+00 -4.6915185343e+00 2.7086494887e+00 4.6915185343e+00 
478500 4.6892418811e+00 -3.0967908645e-04 2.7086552083e+00 -4.6915284409e+00 2.7086552083e+00 4.6915284409e+00 
478600 4.6892418783e+00 -3.0951022803e-04 2.7086609248e+00 -4.6915383421e+00 2.7086609248e+00 4.6915383421e+00 
478700 4.6892418755e+00 -3.0934146049e-04 2.7086666381e+00 -4.6915482380e+00 2.7086666381e+00 4.6915482380e+00 
478800 4.6892418726e+00 -3.0917278380e-04 2.7086723483e+00 -4.6915581283e+00 2.7086723483e+00 4.6915581283e+00 
478900 4.6892418698e+00 -3.0900419789e-04 2.7086780554e+00 -4.6915680133e+00 2.7086780554e+00 4.6915680133e+00 
479000 4.6892418670e+00 -3.0883570274e-04 2.7086837594e+00 -4.6915778929e+00 2.7086837594e+00 4.6915778929e+00 
479100 4.6892418642e+00 -3.0866729828e-04 2.7086894602e+00 -4.6915877670e+00 2.7086894602e+00 4.6915877670e+00 
479200 4.6892418614e+00 -3.0849898448e-04 2.7086951579e+00 -4.6915976358e+00 2.7086951579e+00 4.6915976358e+00 
479300 4.6892418586e+00 -3.0833076128e-04 2.7087008526e+00 -4.6916074991e+00 2.7087008526e+00 4.6916074991e+00 
479400 4.6892418558e+00 -3.0816262865e-04 2.7087065440e+00 -4.6916173571e+00 2.7087065440e+00 4.6916173571e+00 
479500 4.6892418530e+00 -3.0799458654e-04 2.7087122324e+00 -4.6916272096e+00 2.7087122324e+00 4.6916272096e+00 
479600 4.6892418502e+00 -3.0782663489e-04 2.7087179177e+00 -4.6916370568e+00 2.7087179177e+00 4.6916370568e+00 
479700 4.6892418474e+00 -3.0765877367e-04 2.7087235998e+00 -4.6916468986e+00 2.7087235998e+00 4.6916468986e+00 
479800 4.6892418447e+00 -3.0749100283e-04 2.7087292789e+00 -4.6916567349e+00 2.7087292789e+00 4.6916567349e+00 
479900 4.6892418419e+00 -3.0732332232e-04 2.7087349548e+00 -4.6916665659e+00 2.7087349548e+00 4.6916665659e+00 
480000 4.6892418391e+00 -3.0715573210e-04 2.7087406276e+00 -4.6916763916e+00 2.7087406276e+00 4.6916763916e+00 
480100 4.6892418363e+00 -3.0698823211e-04 2.7087462973e+00 -4.6916862118e+00 2.7087462973e+00 4.6916862118e+00 
480200 4.6892418336e+00 -3.0682082233e-04 2.7087519639e+00 -4.6916960267e+00 2.7087519639e+00 4.6916960267e+00 
480300 4.6892418308e+00 -3.0665350269e-04 2.7087576275e+00 -4.6917058361e+00 2.7087576275e+00 4.6917058361e+00 
480400 4.6892418280e+00 -3.0648627315e-04 2.7087632879e+00 -4.6917156403e+00 2.7087632879e+00 4.6917156403e+00 
480500 4.6892418253e+00 -3.0631913368e-04 2.7087689452e+00 -4.6917254390e+00 2.7087689452e+00 4.6917254390e+00 
480600 4.6892418225e+00 -3.0615208421e-04 2.7087745994e+00 -4.6917352324e+00 2.7087745994e+00 4.6917352324e+00 
480700 4.6892418197e+00 -3.0598512471e-04 2.7087802505e+00 -4.6917450204e+00 2.7087802505e+00 4.6917450204e+00 
480800 4.6892418170e+00 -3.0581825514e-04 2.7087858985e+00 -4.6917548031e+00 2.7087858985e+00 4.6917548031e+00 
480900 4.6892418142e+00 -3.0565147543e-04 2.7087915435e+00 -4.6917645804e+00 2.7087915435e+00 4.6917645804e+00 
481000 4.6892418115e+00 -3.0548478556e-04 2.7087971853e+00 -4.6917743524e+00 2.7087971853e+00 4.6917743524e+00 
481100 4.6892418087e+00 -3.0531818547e-04 2.7088028241e+00 -4.6917841190e+00 2.7088028241e+00 4.6917841190e+00 
481200 4.6892418060e+00 -3.0515167511e-04 2.7088084597e+00 -4.6917938803e+00 2.7088084597e+00 4.6917938803e+00 
481300 4.6892418033e+00 -3.0498525445e-04 2.7088140923e+00 -4.6918036362e+00 2.7088140923e+00 4.6918036362e+00 
481400 4.6892418005e+00 -3.0481892344e-04 2.7088197218e+00 -4.6918133867e+00 2.7088197218e+00 4.6918133867e+00 
481500 4.6892417978e+00 -3.0465268202e-04 2.7088253482e+00 -4.6918231320e+00 2.7088253482e+00 4.6918231320e+00 
481600 4.6892417951e+00 -3.0448653016e-04 2.7088309716e+00 -4.6918328719e+00 2.7088309716e+00 4.6918328719e+00 
481700 4.6892417923e+00 -3.0432046781e-04 2.7088365918e+00 -4.6918426065e+00 2.7088365918e+00 4.6918426065e+00 
481800 4.6892417896e+00 -3.0415449493e-04 2.7088422090e+00 -4.6918523357e+00 2.7088422090e+00 4.6918523357e+00 
481900 4.6892417869e+00 -3.0398861146e-04 2.7088478231e+00 -4.6918620596e+00 2.7088478231e+00 4.6918620596e+00 
482000 4.6892417842e+00 -3.0382281737e-04 2.7088534342e+00 -4.6918717782e+00 2.7088534342e+00 4.6918717782e+00 
482100 4.6892417814e+00 -3.0365711260e-04 2.7088590421e+00 -4.6918814915e+00 2.7088590421e+00 4.6918814915e+00 
482200 4.6892417787e+00 -3.0349149712e-04 2.7088646470e+00 -4.6918911995e+00 2.7088646470e+00 4.6918911995e+00 
482300 4.6892417760e+00 -3.0332597087e-04 2.7088702488e+00 -4.6919009021e+00 2.7088702488e+00 4.6919009021e+00 
482400 4.6892417733e+00 -3.0316053381e-04 2.7088758476e+00 -4.6919105994e+00 2.7088758476e+00 4.6919105994e+00 
482500 4.6892417706e+00 -3.0299518590e-04 2.7088814433e+00 -4.6919202915e+00 2.7088814433e+00 4.6919202915e+00 
482600 4.6892417679e+00 -3.0282992709e-04 2.7088870359e+00 -4.6919299782e+00 2.7088870359e+00 4.6919299782e+00 
482700 4.6892417652e+00 -3.0266475733e-04 2.7088926255e+00 -4.6919396596e+00 2.7088926255e+00 4.6919396596e+00 
482800 4.6892417625e+00 -3.0249967658e-04 2.7088982120e+00 -4.6919493357e+00 2.7088982120e+00 4.6919493357e+00 
482900 4.6892417598e+00 -3.0233468480e-04 2.7089037954e+00 -4.6919590065e+00 2.7089037954e+00 4.6919590065e+00 
483000 4.6892417571e+00 -3.0216978194e-04 2.7089093758e+00 -4.6919686720e+00 2.7089093758e+00 4.6919686720e+00 
483100 4.6892417544e+00 -3.0200496795e-04 2.7089149532e+00 -4.6919783323e+00 2.7089149532e+00 4.6919783323e+00 
483200 4.6892417518e+00 -3.0184024278e-04 2.7089205274e+00 -4.6919879872e+00 2.7089205274e+00 4.6919879872e+00 
483300 4.6892417491e+00 -3.0167560640e-04 2.7089260987e+00 -4.6919976368e+00 2.7089260987e+00 4.6919976368e+00 
483400 4.6892417464e+00 -3.0151105876e-04 2.7089316668e+00 -4.6920072812e+00 2.7089316668e+00 4.6920072812e+00 
483500 4.6892417437e+00 -3.0134659981e-04 2.7089372320e+00 -4.6920169203e+00 2.7089372320e+00 4.6920169203e+00 
483600 4.6892417411e+00 -3.0118222951e-04 2.7089427941e+00 -4.6920265541e+00 2.7089427941e+00 4.6920265541e+00 
483700 4.6892417384e+00 -3.0101794781e-04 2.7089483531e+00 -4.6920361826e+00 2.7089483531e+00 4.6920361826e+00 
483800 4.6892417357e+00 -3.0085375466e-04 2.7089539091e+00 -4.6920458059e+00 2.7089539091e+00 4.6920458059e+00 
483900 4.6892417330e+00 -3.0068965003e-04 2.7089594620e+00 -4.6920554239e+00 2.7089594620e+00 4.6920554239e+00 
484000 4.6892417304e+00 -3.0052563387e-04 2.7089650120e+00 -4.6920650366e+00 2.7089650120e+00 4.6920650366e+00 
484100 4.6892417277e+00 -3.0036170612e-04 2.7089705588e+00 -4.6920746441e+00 2.7089705588e+00 4.6920746441e+00 
484200 4.6892417251e+00 -3.0019786675e-04 2.7089761027e+00 -4.6920842463e+00 2.7089761027e+00 4.6920842463e+00 
484300 4.6892417224e+00 -3.0003411571e-04 2.7089816435e+00 -4.6920938433e+00 2.7089816435e+00 4.6920938433e+00 
484400 4.6892417198e+00 -2.9987045296e-04 2.7089871812e+00 -4.6921034350e+00 2.7089871812e+00 4.6921034350e+00 
484500 4.6892417171e+00 -2.9970687845e-04 2.7089927160e+00 -4.6921130214e+00 2.7089927160e+00 4.6921130214e+00 
484600 4.6892417145e+00 -2.9954339214e-04 2.7089982477e+00 -4.6921226026e+00 2.7089982477e+00 4.6921226026e+00 
484700 4.6892417118e+00 -2.9937999397e-04 2.7090037764e+00 -4.6921321785e+00 2.7090037764e+00 4.6921321785e+00 
484800 4.6892417092e+00 -2.9921668391e-04 2.7090093020e+00 -4.6921417492e+00 2.7090093020e+00 4.6921417492e+00 
484900 4.6892417066e+00 -2.9905346191e-04 2.7090148246e+00 -4.6921513147e+00 2.7090148246e+00 4.6921513147e+00 
485000 4.6892417039e+00 -2.9889032793e-04 2.7090203442e+00 -4.6921608749e+00 2.7090203442e+00 4.6921608749e+00 
485100 4.6892417013e+00 -2.9872728192e-04 2.7090258608e+00 -4.6921704299e+00 2.7090258608e+00 4.6921704299e+00 
485200 4.6892416987e+00 -2.9856432383e-04 2.7090313744e+00 -4.6921799797e+00 2.7090313744e+00 4.6921799797e+00 
485300 4.6892416961e+00 -2.9840145363e-04 2.7090368849e+00 -4.6921895242e+00 2.7090368849e+00 4.6921895242e+00 
485400 4.6892416934e+00 -2.9823867126e-04 2.7090423924e+00 -4.6921990635e+00 2.7090423924e+00 4.6921990635e+00 
485500 4.6892416908e+00 -2.9807597668e-04 2.7090478969e+00 -4.6922085976e+00 2.7090478969e+00 4.6922085976e+00 
485600 4.6892416882e+00 -2.9791336985e-04 2.7090533984e+00 -4.6922181265e+00 2.7090533984e+00 4.6922181265e+00 
485700 4.6892416856e+00 -2.9775085072e-04 2.7090588969e+00 -4.6922276501e+00 2.7090588969e+00 4.6922276501e+00 
485800 4.6892416830e+00 -2.9758841924e-04 2.7090643924e+00 -4.6922371686e+00 2.7090643924e+00 4.6922371686e+00 
485900 4.6892416804e+00 -2.9742607538e-04 2.7090698848e+00 -4.6922466818e+00 2.7090698848e+00 4.6922466818e+00 
486000 4.6892416778e+00 -2.9726381909e-04 2.7090753743e+00 -4.6922561898e+00 2.7090753743e+00 4.6922561898e+00 
486100 4.6892416752e+00 -2.9710165031e-04 2.7090808607e+00 -4.6922656926e+00 2.7090808607e+00 4.6922656926e+00 
486200 4.6892416726e+00 -2.9693956902e-04 2.7090863442e+00 -4.6922751902e+00 2.7090863442e+00 4.6922751902e+00 
486300 4.6892416700e+00 -2.9677757515e-04 2.7090918246e+00 -4.6922846826e+00 2.7090918246e+00 4.6922846826e+00 
486400 4.6892416674e+00 -2.9661566868e-04 2.7090973020e+00 -4.6922941698e+00 2.7090973020e+00 4.6922941698e+00 
486500 4.6892416648e+00 -2.9645384955e-04 2.7091027765e+00 -4.6923036518e+00 2.7091027765e+00 4.6923036518e+00 
486600 4.6892416622e+00 -2.9629211771e-04 2.7091082479e+00 -4.6923131286e+00 2.7091082479e+00 4.6923131286e+00 
486700 4.6892416596e+00 -2.9613047313e-04 2.7091137164e+00 -4.6923226002e+00 2.7091137164e+00 4.6923226002e+00 
486800 4.6892416570e+00 -2.9596891576e-04 2.7091191818e+00 -4.6923320667e+00 2.7091191818e+00 4.6923320667e+00 
486900 4.6892416545e+00 -2.9580744556e-04 2.7091246443e+00 -4.6923415279e+00 2.7091246443e+00 4.6923415279e+00 
487000 4.6892416519e+00 -2.9564606247e-04 2.7091301037e+00 -4.6923509840e+00 2.7091301037e+00 4.6923509840e+00 
487100 4.6892416493e+00 -2.9548476646e-04 2.7091355602e+00 -4.6923604349e+00 2.7091355602e+00 4.6923604349e+00 
487200 4.6892416467e+00 -2.9532355748e-04 2.7091410137e+00 -4.6923698806e+00 2.7091410137e+00 4.6923698806e+00 
487300 4.6892416442e+00 -2.9516243549e-04 2.7091464642e+00 -4.6923793212e+00 2.7091464642e+00 4.6923793212e+00 
487400 4.6892416416e+00 -2.9500140044e-04 2.7091519117e+00 -4.6923887566e+00 2.7091519117e+00 4.6923887566e+00 
487500 4.6892416390e+00 -2.9484045228e-04 2.7091573563e+00 -4.6923981868e+00 2.7091573563e+00 4.6923981868e+00 
487600 4.6892416365e+00 -2.9467959098e-04 2.7091627978e+00 -4.6924076118e+00 2.7091627978e+00 4.6924076118e+00 
487700 4.6892416339e+00 -2.9451881648e-04 2.7091682364e+00 -4.6924170317e+00 2.7091682364e+00 4.6924170317e+00 
487800 4.6892416314e+00 -2.9435812875e-04 2.7091736720e+00 -4.6924264464e+00 2.7091736720e+00 4.6924264464e+00 
487900 4.6892416288e+00 -2.9419752774e-04 2.7091791046e+00 -4.6924358560e+00 2.7091791046e+00 4.6924358560e+00 
488000 4.6892416263e+00 -2.9403701340e-04 2.7091845343e+00 -4.6924452604e+00 2.7091845343e+00 4.6924452604e+00 
488100 4.6892416237e+00 -2.9387658570e-04 2.7091899609e+00 -4.6924546597e+00 2.7091899609e+00 4.6924546597e+00 
488200 4.6892416212e+00 -2.9371624458e-04 2.7091953846e+00 -4.6924640538e+00 2.7091953846e+00 4.6924640538e+00 
488300 4.6892416186e+00 -2.9355599000e-04 2.7092008054e+00 -4.6924734428e+00 2.7092008054e+00 4.6924734428e+00 
488400 4.6892416161e+00 -2.9339582192e-04 2.7092062231e+00 -4.6924828266e+00 2.7092062231e+00 4.6924828266e+00 
488500 4.6892416136e+00 -2.9323574029e-04 2.7092116379e+00 -4.6924922053e+00 2.7092116379e+00 4.6924922053e+00 
488600 4.6892416110e+00 -2.9307574507e-04 2.7092170498e+00 -4.6925015789e+00 2.7092170498e+00 4.6925015789e+00 
488700 4.6892416085e+00 -2.9291583621e-04 2.7092224586e+00 -4.6925109473e+00 2.7092224586e+00 4.6925109473e+00 
488800 4.6892416060e+00 -2.9275601367e-04 2.7092278645e+00 -4.6925203106e+00 2.7092278645e+00 4.6925203106e+00 
488900 4.6892416034e+00 -2.9259627741e-04 2.7092332675e+00 -4.6925296688e+00 2.7092332675e+00 4.6925296688e+00 
489000 4.6892416009e+00 -2.9243662738e-04 2.7092386675e+00 -4.6925390219e+00 2.7092386675e+00 4.6925390219e+00 
489100 4.6892415984e+00 -2.9227706354e-04 2.7092440645e+00 -4.6925483698e+00 2.7092440645e+00 4.6925483698e+00 
489200 4.6892415959e+00 -2.9211758584e-04 2.7092494586e+00 -4.6925577126e+00 2.7092494586e+00 4.6925577126e+00 
489300 4.6892415934e+00 -2.9195819424e-04 2.7092548497e+00 -4.6925670503e+00 2.7092548497e+00 4.6925670503e+00 
489400 4.6892415909e+00 -2.9179888869e-04 2.7092602378e+00 -4.6925763829e+00 2.7092602378e+00 4.6925763829e+00 
489500 4.6892415884e+00 -2.9163966915e-04 2.7092656231e+00 -4.6925857103e+00 2.7092656231e+00 4.6925857103e+00 
489600 4.6892415859e+00 -2.9148053558e-04 2.7092710053e+00 -4.6925950327e+00 2.7092710053e+00 4.6925950327e+00 
489700 4.6892415834e+00 -2.9132148793e-04 2.7092763846e+00 -4.6926043499e+00 2.7092763846e+00 4.6926043499e+00 
489800 4.6892415809e+00 -2.9116252616e-04 2.7092817610e+00 -4.6926136621e+00 2.7092817610e+00 4.6926136621e+00 
489900 4.6892415784e+00 -2.9100365023e-04 2.7092871344e+00 -4.6926229691e+00 2.7092871344e+00 4.6926229691e+00 
490000 4.6892415759e+00 -2.9084486008e-04 2.7092925049e+00 -4.6926322711e+00 2.7092925049e+00 4.6926322711e+00 
490100 4.6892415734e+00 -2.9068615568e-04 2.7092978725e+00 -4.6926415679e+00 2.7092978725e+00 4.6926415679e+00 
490200 4.6892415709e+00 -2.9052753698e-04 2.7093032371e+00 -4.6926508597e+00 2.7093032371e+00 4.6926508597e+00 
490300 4.6892415684e+00 -2.9036900394e-04 2.7093085987e+00 -4.6926601464e+00 2.7093085987e+00 4.6926601464e+00 
490400 4.6892415659e+00 -2.9021055651e-04 2.7093139575e+00 -4.6926694280e+00 2.7093139575e+00 4.6926694280e+00 
490500 4.6892415634e+00 -2.9005219465e-04 2.7093193133e+00 -4.6926787045e+00 2.7093193133e+00 4.6926787045e+00 
490600 4.6892415610e+00 -2.8989391832e-04 2.7093246661e+00 -4.6926879759e+00 2.7093246661e+00 4.6926879759e+00 
490700 4.6892415585e+00 -2.8973572747e-04 2.7093300161e+00 -4.6926972423e+00 2.7093300161e+00 4.6926972423e+00 
490800 4.6892415560e+00 -2.8957762205e-04 2.7093353631e+00 -4.6927065036e+00 2.7093353631e+00 4.6927065036e+00 
490900 4.6892415535e+00 -2.8941960203e-04 2.7093407071e+00 -4.6927157598e+00 2.7093407071e+00 4.6927157598e+00 
491000 4.6892415511e+00 -2.8926166736e-04 2.7093460483e+00 -4.6927250109e+00 2.7093460483e+00 4.6927250109e+00 
491100 4.6892415486e+00 -2.8910381800e-04 2.7093513865e+00 -4.6927342570e+00 2.7093513865e+00 4.6927342570e+00 
491200 4.6892415461e+00 -2.8894605390e-04 2.7093567218e+00 -4.6927434980e+00 2.7093567218e+00 4.6927434980e+00 
491300 4.6892415437e+00 -2.8878837502e-04 2.7093620542e+00 -4.6927527339e+00 2.7093620542e+00 4.6927527339e+00 
491400 4.6892415412e+00 -2.8863078131e-04 2.7093673836e+00 -4.6927619648e+00 2.7093673836e+00 4.6927619648e+00 
491500 4.6892415388e+00 -2.8847327273e-04 2.7093727102e+00 -4.6927711906e+00 2.7093727102e+00 4.6927711906e+00 
491600 4.6892415363e+00 -2.8831584924e-04 2.7093780338e+00 -4.6927804114e+00 2.7093780338e+00 4.6927804114e+00 
491700 4.6892415339e+00 -2.8815851079e-04 2.7093833545e+00 -4.6927896272e+00 2.7093833545e+00 4.6927896272e+00 
491800 4.6892415314e+00 -2.8800125734e-04 2.7093886723e+00 -4.6927988378e+00 2.7093886723e+00 4.6927988378e+00 
491900 4.6892415290e+00 -2.8784408885e-04 2.7093939872e+00 -4.6928080435e+00 2.7093939872e+00 4.6928080435e+00 
492000 4.6892415265e+00 -2.8768700527e-04 2.7093992991e+00 -4.6928172441e+00 2.7093992991e+00 4.6928172441e+00 
492100 4.6892415241e+00 -2.8753000656e-04 2.7094046082e+00 -4.6928264396e+00 2.7094046082e+00 4.6928264396e+00 
492200 4.6892415217e+00 -2.8737309267e-04 2.7094099143e+00 -4.6928356301e+00 2.7094099143e+00 4.6928356301e+00 
492300 4.6892415192e+00 -2.8721626356e-04 2.7094152176e+00 -4.6928448156e+00 2.7094152176e+00 4.6928448156e+00 
492400 4.6892415168e+00 -2.8705951920e-04 2.7094205179e+00 -4.6928539961e+00 2.7094205179e+00 4.6928539961e+00 
492500 4.6892415144e+00 -2.8690285952e-04 2.7094258153e+00 -4.6928631715e+00 2.7094258153e+00 4.6928631715e+00 
492600 4.6892415119e+00 -2.8674628449e-04 2.7094311099e+00 -4.6928723419e+00 2.7094311099e+00 4.6928723419e+00 
492700 4.6892415095e+00 -2.8658979408e-04 2.7094364015e+00 -4.6928815073e+00 2.7094364015e+00 4.6928815073e+00 
492800 4.6892415071e+00 -2.8643338822e-04 2.7094416902e+00 -4.6928906677e+00 2.7094416902e+00 4.6928906677e+00 
492900 4.6892415047e+00 -2.8627706688e-04 2.7094469761e+00 -4.6928998230e+00 2.7094469761e+00 4.6928998230e+00 
493000 4.6892415023e+00 -2.8612083002e-04 2.7094522590e+00 -4.6929089733e+00 2.7094522590e+00 4.6929089733e+00 
493100 4.6892414999e+00 -2.8596467759e-04 2.7094575391e+00 -4.6929181186e+00 2.7094575391e+00 4.6929181186e+00 
493200 4.6892414975e+00 -2.8580860955e-04 2.7094628162e+00 -4.6929272589e+00 2.7094628162e+00 4.6929272589e+00 
493300 4.6892414950e+00 -2.8565262586e-04 2.7094680905e+00 -4.6929363943e+00 2.7094680905e+00 4.6929363943e+00 
493400 4.6892414926e+00 -2.8549672647e-04 2.7094733619e+00 -4.6929455245e+00 2.7094733619e+00 4.6929455245e+00 
493500 4.6892414902e+00 -2.8534091133e-04 2.7094786304e+00 -4.6929546498e+00 2.7094786304e+00 4.6929546498e+00 
493600 4.6892414878e+00 -2.8518518042e-04 2.7094838960e+00 -4.6929637701e+00 2.7094838960e+00 4.6929637701e+00 
493700 4.6892414854e+00 -2.8502953367e-04 2.7094891587e+00 -4.6929728854e+00 2.7094891587e+00 4.6929728854e+00 
493800 4.6892414830e+00 -2.8487397105e-04 2.7094944186e+00 -4.6929819958e+00 2.7094944186e+00 4.6929819958e+00 
493900 4.6892414807e+00 -2.8471849252e-04 2.7094996755e+00 -4.6929911011e+00 2.7094996755e+00 4.6929911011e+00 
494000 4.6892414783e+00 -2.8456309802e-04 2.7095049296e+00 -4.6930002014e+00 2.7095049296e+00 4.6930002014e+00 
494100 4.6892414759e+00 -2.8440778753e-04 2.7095101808e+00 -4.6930092968e+00 2.7095101808e+00 4.6930092968e+00 
494200 4.6892414735e+00 -2.8425256099e-04 2.7095154291e+00 -4.6930183871e+00 2.7095154291e+00 4.6930183871e+00 
494300 4.6892414711e+00 -2.8409741836e-04 2.7095206746e+00 -4.6930274725e+00 2.7095206746e+00 4.6930274725e+00 
494400 4.6892414687e+00 -2.8394235960e-04 2.7095259172e+00 -4.6930365529e+00 2.7095259172e+00 4.6930365529e+00 
494500 4.6892414664e+00 -2.8378738467e-04 2.7095311569e+00 -4.6930456284e+00 2.7095311569e+00 4.6930456284e+00 
494600 4.6892414640e+00 -2.8363249352e-04 2.7095363937e+00 -4.6930546988e+00 2.7095363937e+00 4.6930546988e+00 
494700 4.6892414616e+00 -2.8347768610e-04 2.7095416277e+00 -4.6930637643e+00 2.7095416277e+00 4.6930637643e+00 
494800 4.6892414592e+00 -2.8332296238e-04 2.7095468588e+00 -4.6930728249e+00 2.7095468588e+00 4.6930728249e+00 
494900 4.6892414569e+00 -2.8316832232e-04 2.7095520870e+00 -4.6930818805e+00 2.7095520870e+00 4.6930818805e+00 
495000 4.6892414545e+00 -2.8301376586e-04 2.7095573124e+00 -4.6930909311e+00 2.7095573124e+00 4.6930909311e+00 
495100 4.6892414522e+00 -2.8285929297e-04 2.7095625349e+00 -4.6930999767e+00 2.7095625349e+00 4.6930999767e+00 
495200 4.6892414498e+00 -2.8270490360e-04 2.7095677545e+00 -4.6931090174e+00 2.7095677545e+00 4.6931090174e+00 
495300 4.6892414474e+00 -2.8255059771e-04 2.7095729713e+00 -4.6931180532e+00 2.7095729713e+00 4.6931180532e+00 
495400 4.6892414451e+00 -2.8239637526e-04 2.7095781853e+00 -4.6931270840e+00 2.7095781853e+00 4.6931270840e+00 
495500 4.6892414427e+00 -2.8224223620e-04 2.7095833963e+00 -4.6931361098e+00 2.7095833963e+00 4.6931361098e+00 
495600 4.6892414404e+00 -2.8208818049e-04 2.7095886046e+00 -4.6931451307e+00 2.7095886046e+00 4.6931451307e+00 
495700 4.6892414380e+00 -2.8193420808e-04 2.7095938099e+00 -4.6931541467e+00 2.7095938099e+00 4.6931541467e+00 
495800 4.6892414357e+00 -2.8178031895e-04 2.7095990125e+00 -4.6931631577e+00 2.7095990125e+00 4.6931631577e+00 
495900 4.6892414334e+00 -2.8162651303e-04 2.7096042121e+00 -4.6931721638e+00 2.7096042121e+00 4.6931721638e+00 
496000 4.6892414310e+00 -2.8147279029e-04 2.7096094090e+00 -4.6931811650e+00 2.7096094090e+00 4.6931811650e+00 
496100 4.6892414287e+00 -2.8131915069e-04 2.7096146029e+00 -4.6931901612e+00 2.7096146029e+00 4.6931901612e+00 
496200 4.6892414264e+00 -2.8116559418e-04 2.7096197941e+00 -4.6931991525e+00 2.7096197941e+00 4.6931991525e+00 
496300 4.6892414240e+00 -2.8101212072e-04 2.7096249823e+00 -4.6932081389e+00 2.7096249823e+00 4.6932081389e+00 
496400 4.6892414217e+00 -2.8085873026e-04 2.7096301678e+00 -4.6932171203e+00 2.7096301678e+00 4.6932171203e+00 
496500 4.6892414194e+00 -2.8070542277e-04 2.7096353504e+00 -4.6932260969e+00 2.7096353504e+00 4.6932260969e+00 
496600 4.6892414171e+00 -2.8055219820e-04 2.7096405302e+00 -4.6932350685e+00 2.7096405302e+00 4.6932350685e+00 
496700 4.6892414147e+00 -2.8039905651e-04 2.7096457071e+00 -4.6932440352e+00 2.7096457071e+00 4.6932440352e+00 
496800 4.6892414124e+00 -2.8024599765e-04 2.7096508812e+00 -4.6932529970e+00 2.7096508812e+00 4.6932529970e+00 
496900 4.6892414101e+00 -2.8009302159e-04 2.7096560524e+00 -4.6932619539e+00 2.7096560524e+00 4.6932619539e+00 
497000 4.6892414078e+00 -2.7994012827e-04 2.7096612209e+00 -4.6932709058e+00 2.7096612209e+00 4.6932709058e+00 
497100 4.6892414055e+00 -2.7978731767e-04 2.7096663865e+00 -4.6932798529e+00 2.7096663865e+00 4.6932798529e+00 
497200 4.6892414032e+00 -2.7963458972e-04 2.7096715492e+00 -4.6932887951e+00 2.7096715492e+00 4.6932887951e+00 
497300 4.6892414009e+00 -2.7948194440e-04 2.7096767092e+00 -4.6932977323e+00 2.7096767092e+00 4.6932977323e+00 
497400 4.6892413986e+00 -2.7932938165e-04 2.7096818663e+00 -4.6933066647e+00 2.7096818663e+00 4.6933066647e+00 
497500 4.6892413963e+00 -2.7917690144e-04 2.7096870206e+00 -4.6933155922e+00 2.7096870206e+00 4.6933155922e+00 
497600 4.6892413940e+00 -2.7902450372e-04 2.7096921720e+00 -4.6933245148e+00 2.7096921720e+00 4.6933245148e+00 
497700 4.6892413917e+00 -2.7887218846e-04 2.7096973207e+00 -4.6933334325e+00 2.7096973207e+00 4.6933334325e+00 
497800 4.6892413894e+00 -2.7871995560e-04 2.7097024665e+00 -4.6933423453e+00 2.7097024665e+00 4.6933423453e+00 
497900 4.6892413871e+00 -2.7856780510e-04 2.7097076095e+00 -4.6933512533e+00 2.7097076095e+00 4.6933512533e+00 
498000 4.6892413848e+00 -2.7841573693e-04 2.7097127497e+00 -4.6933601563e+00 2.7097127497e+00 4.6933601563e+00 
498100 4.6892413825e+00 -2.7826375104e-04 2.7097178870e+00 -4.6933690545e+00 2.7097178870e+00 4.6933690545e+00 
498200 4.6892413802e+00 -2.7811184738e-04 2.7097230216e+00 -4.6933779478e+00 2.7097230216e+00 4.6933779478e+00 
498300 4.6892413779e+00 -2.7796002592e-04 2.7097281533e+00 -4.6933868363e+00 2.7097281533e+00 4.6933868363e+00 
498400 4.6892413757e+00 -2.7780828661e-04 2.7097332823e+00 -4.6933957198e+00 2.7097332823e+00 4.6933957198e+00 
498500 4.6892413734e+00 -2.7765662941e-04 2.7097384084e+00 -4.6934045985e+00 2.7097384084e+00 4.6934045985e+00 
498600 4.6892413711e+00 -2.7750505428e-04 2.7097435317e+00 -4.6934134724e+00 2.7097435317e+00 4.6934134724e+00 
498700 4.6892413689e+00 -2.7735356117e-04 2.7097486522e+00 -4.6934223413e+00 2.7097486522e+00 4.6934223413e+00 
498800 4.6892413666e+00 -2.7720215005e-04 2.7097537699e+00 -4.6934312055e+00 2.7097537699e+00 4.6934312055e+00 
498900 4.6892413643e+00 -2.7705082086e-04 2.7097588848e+00 -4.6934400647e+00 2.7097588848e+00 4.6934400647e+00 
499000 4.6892413621e+00 -2.7689957357e-04 2.7097639969e+00 -4.6934489191e+00 2.7097639969e+00 4.6934489191e+00 
499100 4.6892413598e+00 -2.7674840814e-04 2.7097691062e+00 -4.6934577687e+00 2.7097691062e+00 4.6934577687e+00 
499200 4.6892413575e+00 -2.7659732451e-04 2.7097742127e+00 -4.6934666134e+00 2.7097742127e+00 4.6934666134e+00 
499300 4.6892413553e+00 -2.7644632266e-04 2.7097793164e+00 -4.6934754533e+00 2.7097793164e+00 4.6934754533e+00 
499400 4.6892413530e+00 -2.7629540254e-04 2.7097844173e+00 -4.6934842883e+00 2.7097844173e+00 4.6934842883e+00 
499500 4.6892413508e+00 -2.7614456410e-04 2.7097895154e+00 -4.6934931185e+00 2.7097895154e+00 4.6934931185e+00 
499600 4.6892413485e+00 -2.7599380730e-04 2.7097946107e+00 -4.6935019438e+00 2.7097946107e+00 4.6935019438e+00 
499700 4.6892413463e+00 -2.7584313210e-04 2.7097997032e+00 -4.6935107643e+00 2.7097997032e+00 4.6935107643e+00 
499800 4.6892413440e+00 -2.7569253846e-04 2.7098047930e+00 -4.6935195800e+00 2.7098047930e+00 4.6935195800e+00 
499900 4.6892413418e+00 -2.7554202634e-04 2.7098098799e+00 -4.6935283908e+00 2.7098098799e+00 4.6935283908e+00 
500000 4.6892413396e+00 -2.7539159569e-04 2.7098149641e+00 -4.6935371969e+00 2.7098149641e+00 4.6935371969e+00 
500100 4.6892413373e+00 -2.7524124647e-04 2.7098200454e+00 -4.6935459981e+00 2.7098200454e+00 4.6935459981e+00 
500200 4.6892413351e+00 -2.7509097864e-04 2.7098251240e+00 -4.6935547944e+00 2.7098251240e+00 4.6935547944e+00 
500300 4.6892413329e+00 -2.7494079216e-04 2.7098301998e+00 -4.6935635860e+00 2.7098301998e+00 4.6935635860e+00 
500400 4.6892413306e+00 -2.7479068698e-04 2.7098352729e+00 -4.6935723727e+00 2.7098352729e+00 4.6935723727e+00 
500500 4.6892413284e+00 -2.7464066307e-04 2.7098403431e+00 -4.6935811547e+00 2.7098403431e+00 4.6935811547e+00 
500600 4.6892413262e+00 -2.7449072037e-04 2.7098454106e+00 -4.6935899318e+00 2.7098454106e+00 4.6935899318e+00 
500700 4.6892413239e+00 -2.7434085886e-04 2.7098504753e+00 -4.6935987041e+00 2.7098504753e+00 4.6935987041e+00 
500800 4.6892413217e+00 -2.7419107848e-04 2.7098555372e+00 -4.6936074716e+00 2.7098555372e+00 4.6936074716e+00 
500900 4.6892413195e+00 -2.7404137919e-04 2.7098605963e+00 -4.6936162343e+00 2.7098605963e+00 4.6936162343e+00 
501000 4.6892413173e+00 -2.7389176096e-04 2.7098656527e+00 -4.6936249922e+00 2.7098656527e+00 4.6936249922e+00 
501100 4.6892413151e+00 -2.7374222373e-04 2.7098707063e+00 -4.6936337453e+00 2.7098707063e+00 4.6936337453e+00 
501200 4.6892413129e+00 -2.7359276748e-04 2.7098757572e+00 -4.6936424936e+00 2.7098757572e+00 4.6936424936e+00 
501300 4.6892413107e+00 -2.7344339215e-04 2.7098808052e+00 -4.6936512371e+00 2.7098808052e+00 4.6936512371e+00 
501400 4.6892413085e+00 -2.7329409770e-04 2.7098858505e+00 -4.6936599758e+00 2.7098858505e+00 4.6936599758e+00 
501500 4.6892413063e+00 -2.7314488409e-04 2.7098908931e+00 -4.6936687098e+00 2.7098908931e+00 4.6936687098e+00 
501600 4.6892413041e+00 -2.7299575129e-04 2.7098959329e+00 -4.6936774389e+00 2.7098959329e+00 4.6936774389e+00 
501700 4.6892413019e+00 -2.7284669924e-04 2.7099009699e+00 -4.6936861633e+00 2.7099009699e+00 4.6936861633e+00 
501800 4.6892412997e+00 -2.7269772791e-04 2.7099060041e+00 -4.6936948829e+00 2.7099060041e+00 4.6936948829e+00 
501900 4.6892412975e+00 -2.7254883725e-04 2.7099110356e+00 -4.6937035977e+00 2.7099110356e+00 4.6937035977e+00 
502000 4.6892412953e+00 -2.7240002723e-04 2.7099160644e+00 -4.6937123077e+00 2.7099160644e+00 4.6937123077e+00 
502100 4.6892412931e+00 -2.7225129779e-04 2.7099210904e+00 -4.6937210130e+00 2.7099210904e+00 4.6937210130e+00 
502200 4.6892412909e+00 -2.7210264891e-04 2.7099261136e+00 -4.6937297135e+00 2.7099261136e+00 4.6937297135e+00 
502300 4.6892412887e+00 -2.7195408053e-04 2.7099311341e+00 -4.6937384092e+00 2.7099311341e+00 4.6937384092e+00 
502400 4.6892412865e+00 -2.7180559261e-04 2.7099361518e+00 -4.6937471002e+00 2.7099361518e+00 4.6937471002e+00 
502500 4.6892412844e+00 -2.7165718512e-04 2.7099411668e+00 -4.6937557864e+00 2.7099411668e+00 4.6937557864e+00 
502600 4.6892412822e+00 -2.7150885801e-04 2.7099461790e+00 -4.6937644679e+00 2.7099461790e+00 4.6937644679e+00 
502700 4.6892412800e+00 -2.7136061123e-04 2.7099511885e+00 -4.6937731445e+00 2.7099511885e+00 4.6937731445e+00 
502800 4.6892412778e+00 -2.7121244476e-04 2.7099561953e+00 -4.6937818165e+00 2.7099561953e+00 4.6937818165e+00 
502900 4.6892412757e+00 -2.7106435854e-04 2.7099611993e+00 -4.6937904837e+00 2.7099611993e+00 4.6937904837e+00 
503000 4.6892412735e+00 -2.7091635254e-04 2.7099662005e+00 -4.6937991461e+00 2.7099662005e+00 4.6937991461e+00 
503100 4.6892412713e+00 -2.7076842671e-04 2.7099711990e+00 -4.6938078038e+00 2.7099711990e+00 4.6938078038e+00 
503200 4.6892412692e+00 -2.7062058100e-04 2.7099761948e+00 -4.6938164567e+00 2.7099761948e+00 4.6938164567e+00 
503300 4.6892412670e+00 -2.7047281539e-04 2.7099811879e+00 -4.6938251050e+00 2.7099811879e+00 4.6938251050e+00 
503400 4.6892412648e+00 -2.7032512983e-04 2.7099861782e+00 -4.6938337484e+00 2.7099861782e+00 4.6938337484e+00 
503500 4.6892412627e+00 -2.7017752427e-04 2.7099911658e+00 -4.6938423872e+00 2.7099911658e+00 4.6938423872e+00 
503600 4.6892412605e+00 -2.7002999867e-04 2.7099961506e+00 -4.6938510212e+00 2.7099961506e+00 4.6938510212e+00 
503700 4.6892412584e+00 -2.6988255300e-04 2.7100011327e+00 -4.6938596504e+00 2.7100011327e+00 4.6938596504e+00 
503800 4.6892412562e+00 -2.6973518721e-04 2.7100061121e+00 -4.6938682750e+00 2.7100061121e+00 4.6938682750e+00 
503900 4.6892412541e+00 -2.6958790126e-04 2.7100110888e+00 -4.6938768948e+00 2.7100110888e+00 4.6938768948e+00 
504000 4.6892412519e+00 -2.6944069510e-04 2.7100160627e+00 -4.6938855099e+00 2.7100160627e+00 4.6938855099e+00 
504100 4.6892412498e+00 -2.6929356871e-04 2.7100210339e+00 -4.6938941203e+00 2.7100210339e+00 4.6938941203e+00 
504200 4.6892412477e+00 -2.6914652202e-04 2.7100260024e+00 -4.6939027259e+00 2.7100260024e+00 4.6939027259e+00 
504300 4.6892412455e+00 -2.6899955501e-04 2.7100309681e+00 -4.6939113269e+00 2.7100309681e+00 4.6939113269e+00 
504400 4.6892412434e+00 -2.6885266764e-04 2.7100359312e+00 -4.6939199231e+00 2.7100359312e+00 4.6939199231e+00 
504500 4.6892412413e+00 -2.6870585985e-04 2.7100408915e+00 -4.6939285146e+00 2.7100408915e+00 4.6939285146e+00 
504600 4.6892412391e+00 -2.6855913161e-04 2.7100458491e+00 -4.6939371014e+00 2.7100458491e+00 4.6939371014e+00 
504700 4.6892412370e+00 -2.6841248288e-04 2.7100508040e+00 -4.6939456835e+00 2.7100508040e+00 4.6939456835e+00 
504800 4.6892412349e+00 -2.6826591362e-04 2.7100557561e+00 -4.6939542609e+00 2.7100557561e+00 4.6939542609e+00 
504900 4.6892412328e+00 -2.6811942378e-04 2.7100607056e+00 -4.6939628337e+00 2.7100607056e+00 4.6939628337e+00 
505000 4.6892412306e+00 -2.6797301332e-04 2.7100656523e+00 -4.6939714017e+00 2.7100656523e+00 4.6939714017e+00 
505100 4.6892412285e+00 -2.6782668221e-04 2.7100705964e+00 -4.6939799650e+00 2.7100705964e+00 4.6939799650e+00 
505200 4.6892412264e+00 -2.6768043039e-04 2.7100755377e+00 -4.6939885236e+00 2.7100755377e+00 4.6939885236e+00 
505300 4.6892412243e+00 -2.6753425784e-04 2.7100804763e+00 -4.6939970775e+00 2.7100804763e+00 4.6939970775e+00 
505400 4.6892412222e+00 -2.6738816451e-04 2.7100854122e+00 -4.6940056268e+00 2.7100854122e+00 4.6940056268e+00 
505500 4.6892412201e+00 -2.6724215035e-04 2.7100903454e+00 -4.6940141714e+00 2.7100903454e+00 4.6940141714e+00 
505600 4.6892412180e+00 -2.6709621533e-04 2.7100952759e+00 -4.6940227112e+00 2.7100952759e+00 4.6940227112e+00 
505700 4.6892412158e+00 -2.6695035940e-04 2.7101002037e+00 -4.6940312464e+00 2.7101002037e+00 4.6940312464e+00 
505800 4.6892412137e+00 -2.6680458252e-04 2.7101051288e+00 -4.6940397770e+00 2.7101051288e+00 4.6940397770e+00 
505900 4.6892412116e+00 -2.6665888466e-04 2.7101100512e+00 -4.6940483028e+00 2.7101100512e+00 4.6940483028e+00 
506000 4.6892412095e+00 -2.6651326577e-04 2.7101149709e+00 -4.6940568240e+00 2.7101149709e+00 4.6940568240e+00 
506100 4.6892412074e+00 -2.6636772581e-04 2.7101198879e+00 -4.6940653405e+00 2.7101198879e+00 4.6940653405e+00 
506200 4.6892412054e+00 -2.6622226474e-04 2.7101248023e+00 -4.6940738524e+00 2.7101248023e+00 4.6940738524e+00 
506300 4.6892412033e+00 -2.6607688251e-04 2.7101297139e+00 -4.6940823596e+00 2.7101297139e+00 4.6940823596e+00 
506400 4.6892412012e+00 -2.6593157909e-04 2.7101346228e+00 -4.6940908621e+00 2.7101346228e+00 4.6940908621e+00 
506500 4.6892411991e+00 -2.6578635444e-04 2.7101395291e+00 -4.6940993599e+00 2.7101395291e+00 4.6940993599e+00 
506600 4.6892411970e+00 -2.6564120851e-04 2.7101444326e+00 -4.6941078532e+00 2.7101444326e+00 4.6941078532e+00 
506700 4.6892411949e+00 -2.6549614126e-04 2.7101493335e+00 -4.6941163417e+00 2.7101493335e+00 4.6941163417e+00 
506800 4.6892411928e+00 -2.6535115266e-04 2.7101542317e+00 -4.6941248256e+00 2.7101542317e+00 4.6941248256e+00 
506900 4.6892411908e+00 -2.6520624265e-04 2.7101591272e+00 -4.6941333049e+00 2.7101591272e+00 4.6941333049e+00 
507000 4.6892411887e+00 -2.6506141121e-04 2.7101640200e+00 -4.6941417795e+00 2.7101640200e+00 4.6941417795e+00 
507100 4.6892411866e+00 -2.6491665829e-04 2.7101689101e+00 -4.6941502494e+00 2.7101689101e+00 4.6941502494e+00 
507200 4.6892411845e+00 -2.6477198384e-04 2.7101737976e+00 -4.6941587148e+00 2.7101737976e+00 4.6941587148e+00 
507300 4.6892411825e+00 -2.6462738783e-04 2.7101786824e+00 -4.6941671755e+00 2.7101786824e+00 4.6941671755e+00 
507400 4.6892411804e+00 -2.6448287022e-04 2.7101835645e+00 -4.6941756315e+00 2.7101835645e+00 4.6941756315e+00 
507500 4.6892411783e+00 -2.6433843096e-04 2.7101884439e+00 -4.6941840829e+00 2.7101884439e+00 4.6941840829e+00 
507600 4.6892411763e+00 -2.6419407002e-04 2.7101933207e+00 -4.6941925297e+00 2.7101933207e+00 4.6941925297e+00 
507700 4.6892411742e+00 -2.6404978735e-04 2.7101981947e+00 -4.6942009719e+00 2.7101981947e+00 4.6942009719e+00 
507800 4.6892411722e+00 -2.6390558292e-04 2.7102030662e+00 -4.6942094094e+00 2.7102030662e+00 4.6942094094e+00 
507900 4.6892411701e+00 -2.6376145667e-04 2.7102079349e+00 -4.6942178423e+00 2.7102079349e+00 4.6942178423e+00 
508000 4.6892411680e+00 -2.6361740858e-04 2.7102128010e+00 -4.6942262706e+00 2.7102128010e+00 4.6942262706e+00 
508100 4.6892411660e+00 -2.6347343860e-04 2.7102176644e+00 -4.6942346943e+00 2.7102176644e+00 4.6942346943e+00 
508200 4.6892411639e+00 -2.6332954669e-04 2.7102225251e+00 -4.6942431133e+00 2.7102225251e+00 4.6942431133e+00 
508300 4.6892411619e+00 -2.6318573280e-04 2.7102273832e+00 -4.6942515278e+00 2.7102273832e+00 4.6942515278e+00 
508400 4.6892411599e+00 -2.6304199691e-04 2.7102322386e+00 -4.6942599376e+00 2.7102322386e+00 4.6942599376e+00 
508500 4.6892411578e+00 -2.6289833896e-04 2.7102370914e+00 -4.6942683428e+00 2.7102370914e+00 4.6942683428e+00 
508600 4.6892411558e+00 -2.6275475892e-04 2.7102419415e+00 -4.6942767435e+00 2.7102419415e+00 4.6942767435e+00 
508700 4.6892411537e+00 -2.6261125674e-04 2.7102467889e+00 -4.6942851395e+00 2.7102467889e+00 4.6942851395e+00 
508800 4.6892411517e+00 -2.6246783239e-04 2.7102516337e+00 -4.6942935309e+00 2.7102516337e+00 4.6942935309e+00 
508900 4.6892411497e+00 -2.6232448582e-04 2.7102564758e+00 -4.6943019177e+00 2.7102564758e+00 4.6943019177e+00 
509000 4.6892411476e+00 -2.6218121700e-04 2.7102613153e+00 -4.6943102999e+00 2.7102613153e+00 4.6943102999e+00 
509100 4.6892411456e+00 -2.6203802588e-04 2.7102661522e+00 -4.6943186776e+00 2.7102661522e+00 4.6943186776e+00 
509200 4.6892411436e+00 -2.6189491243e-04 2.7102709863e+00 -4.6943270506e+00 2.7102709863e+00 4.6943270506e+00 
509300 4.6892411416e+00 -2.6175187659e-04 2.7102758179e+00 -4.6943354191e+00 2.7102758179e+00 4.6943354191e+00 
509400 4.6892411395e+00 -2.6160891834e-04 2.7102806467e+00 -4.6943437829e+00 2.7102806467e+00 4.6943437829e+00 
509500 4.6892411375e+00 -2.6146603763e-04 2.7102854730e+00 -4.6943521422e+00 2.7102854730e+00 4.6943521422e+00 
509600 4.6892411355e+00 -2.6132323442e-04 2.7102902966e+00 -4.6943604969e+00 2.7102902966e+00 4.6943604969e+00 
509700 4.6892411335e+00 -2.6118050867e-04 2.7102951175e+00 -4.6943688470e+00 2.7102951175e+00 4.6943688470e+00 
509800 4.6892411315e+00 -2.6103786034e-04 2.7102999358e+00 -4.6943771926e+00 2.7102999358e+00 4.6943771926e+00 
509900 4.6892411294e+00 -2.6089528939e-04 2.7103047515e+00 -4.6943855336e+00 2.7103047515e+00 4.6943855336e+00 
510000 4.6892411274e+00 -2.6075279577e-04 2.7103095645e+00 -4.6943938700e+00 2.7103095645e+00 4.6943938700e+00 
510100 4.6892411254e+00 -2.6061037946e-04 2.7103143749e+00 -4.6944022018e+00 2.7103143749e+00 4.6944022018e+00 
510200 4.6892411234e+00 -2.6046804040e-04 2.7103191826e+00 -4.6944105291e+00 2.7103191826e+00 4.6944105291e+00 
510300 4.6892411214e+00 -2.6032577856e-04 2.7103239878e+00 -4.6944188518e+00 2.7103239878e+00 4.6944188518e+00 
510400 4.6892411194e+00 -2.6018359390e-04 2.7103287903e+00 -4.6944271699e+00 2.7103287903e+00 4.6944271699e+00 
510500 4.6892411174e+00 -2.6004148637e-04 2.7103335901e+00 -4.6944354835e+00 2.7103335901e+00 4.6944354835e+00 
510600 4.6892411154e+00 -2.5989945594e-04 2.7103383873e+00 -4.6944437926e+00 2.7103383873e+00 4.6944437926e+00 
510700 4.6892411134e+00 -2.5975750257e-04 2.7103431819e+00 -4.6944520970e+00 2.7103431819e+00 4.6944520970e+00 
510800 4.6892411114e+00 -2.5961562621e-04 2.7103479739e+00 -4.6944603970e+00 2.7103479739e+00 4.6944603970e+00 
510900 4.6892411094e+00 -2.5947382683e-04 2.7103527632e+00 -4.6944686924e+00 2.7103527632e+00 4.6944686924e+00 
511000 4.6892411075e+00 -2.5933210438e-04 2.7103575500e+00 -4.6944769832e+00 2.7103575500e+00 4.6944769832e+00 
511100 4.6892411055e+00 -2.5919045883e-04 2.7103623341e+00 -4.6944852695e+00 2.7103623341e+00 4.6944852695e+00 
511200 4.6892411035e+00 -2.5904889013e-04 2.7103671155e+00 -4.6944935513e+00 2.7103671155e+00 4.6944935513e+00 
511300 4.6892411015e+00 -2.5890739824e-04 2.7103718944e+00 -4.6945018285e+00 2.7103718944e+00 4.6945018285e+00 
511400 4.6892410995e+00 -2.5876598313e-04 2.7103766706e+00 -4.6945101012e+00 2.7103766706e+00 4.6945101012e+00 
511500 4.6892410976e+00 -2.5862464476e-04 2.7103814442e+00 -4.6945183693e+00 2.7103814442e+00 4.6945183693e+00 
511600 4.6892410956e+00 -2.5848338307e-04 2.7103862152e+00 -4.6945266329e+00 2.7103862152e+00 4.6945266329e+00 
511700 4.6892410936e+00 -2.5834219804e-04 2.7103909836e+00 -4.6945348920e+00 2.7103909836e+00 4.6945348920e+00 
511800 4.6892410916e+00 -2.5820108963e-04 2.7103957494e+00 -4.6945431466e+00 2.7103957494e+00 4.6945431466e+00 
511900 4.6892410897e+00 -2.5806005779e-04 2.7104005126e+00 -4.6945513966e+00 2.7104005126e+00 4.6945513966e+00 
512000 4.6892410877e+00 -2.5791910248e-04 2.7104052731e+00 -4.6945596421e+00 2.7104052731e+00 4.6945596421e+00 
512100 4.6892410857e+00 -2.5777822366e-04 2.7104100311e+00 -4.6945678831e+00 2.7104100311e+00 4.6945678831e+00 
512200 4.6892410838e+00 -2.5763742130e-04 2.7104147864e+00 -4.6945761196e+00 2.7104147864e+00 4.6945761196e+00 
512300 4.6892410818e+00 -2.5749669535e-04 2.7104195391e+00 -4.6945843516e+00 2.7104195391e+00 4.6945843516e+00 
512400 4.6892410799e+00 -2.5735604577e-04 2.7104242893e+00 -4.6945925791e+00 2.7104242893e+00 4.6945925791e+00 
512500 4.6892410779e+00 -2.5721547253e-04 2.7104290368e+00 -4.6946008020e+00 2.7104290368e+00 4.6946008020e+00 
512600 4.6892410759e+00 -2.5707497558e-04 2.7104337817e+00 -4.6946090205e+00 2.7104337817e+00 4.6946090205e+00 
512700 4.6892410740e+00 -2.5693455488e-04 2.7104385240e+00 -4.6946172344e+00 2.7104385240e+00 4.6946172344e+00 
512800 4.6892410720e+00 -2.5679421040e-04 2.7104432638e+00 -4.6946254439e+00 2.7104432638e+00 4.6946254439e+00 
512900 4.6892410701e+00 -2.5665394209e-04 2.7104480009e+00 -4.6946336488e+00 2.7104480009e+00 4.6946336488e+00 
513000 4.6892410681e+00 -2.5651374991e-04 2.7104527354e+00 -4.6946418492e+00 2.7104527354e+00 4.6946418492e+00 
513100 4.6892410662e+00 -2.5637363382e-04 2.7104574673e+00 -4.6946500452e+00 2.7104574673e+00 4.6946500452e+00 
513200 4.6892410643e+00 -2.5623359379e-04 2.7104621967e+00 -4.6946582367e+00 2.7104621967e+00 4.6946582367e+00 
513300 4.6892410623e+00 -2.5609362978e-04 2.7104669234e+00 -4.6946664236e+00 2.7104669234e+00 4.6946664236e+00 
513400 4.6892410604e+00 -2.5595374173e-04 2.7104716476e+00 -4.6946746061e+00 2.7104716476e+00 4.6946746061e+00 
513500 4.6892410584e+00 -2.5581392962e-04 2.7104763692e+00 -4.6946827841e+00 2.7104763692e+00 4.6946827841e+00 
513600 4.6892410565e+00 -2.5567419341e-04 2.7104810882e+00 -4.6946909577e+00 2.7104810882e+00 4.6946909577e+00 
513700 4.6892410546e+00 -2.5553453305e-04 2.7104858046e+00 -4.6946991267e+00 2.7104858046e+00 4.6946991267e+00 
513800 4.6892410527e+00 -2.5539494850e-04 2.7104905184e+00 -4.6947072913e+00 2.7104905184e+00 4.6947072913e+00 
513900 4.6892410507e+00 -2.5525543973e-04 2.7104952296e+00 -4.6947154514e+00 2.7104952296e+00 4.6947154514e+00 
514000 4.6892410488e+00 -2.5511600669e-04 2.7104999383e+00 -4.6947236070e+00 2.7104999383e+00 4.6947236070e+00 
514100 4.6892410469e+00 -2.5497664935e-04 2.7105046443e+00 -4.6947317581e+00 2.7105046443e+00 4.6947317581e+00 
514200 4.6892410450e+00 -2.5483736767e-04 2.7105093478e+00 -4.6947399048e+00 2.7105093478e+00 4.6947399048e+00 
514300 4.6892410430e+00 -2.5469816160e-04 2.7105140487e+00 -4.6947480471e+00 2.7105140487e+00 4.6947480471e+00 
514400 4.6892410411e+00 -2.5455903111e-04 2.7105187471e+00 -4.6947561848e+00 2.7105187471e+00 4.6947561848e+00 
514500 4.6892410392e+00 -2.5441997615e-04 2.7105234428e+00 -4.6947643181e+00 2.7105234428e+00 4.6947643181e+00 
514600 4.6892410373e+00 -2.5428099669e-04 2.7105281360e+00 -4.6947724470e+00 2.7105281360e+00 4.6947724470e+00 
514700 4.6892410354e+00 -2.5414209269e-04 2.7105328267e+00 -4.6947805713e+00 2.7105328267e+00 4.6947805713e+00 
514800 4.6892410335e+00 -2.5400326411e-04 2.7105375147e+00 -4.6947886913e+00 2.7105375147e+00 4.6947886913e+00 
514900 4.6892410316e+00 -2.5386451090e-04 2.7105422002e+00 -4.6947968068e+00 2.7105422002e+00 4.6947968068e+00 
515000 4.6892410297e+00 -2.5372583303e-04 2.7105468831e+00 -4.6948049178e+00 2.7105468831e+00 4.6948049178e+00 
515100 4.6892410278e+00 -2.5358723047e-04 2.7105515634e+00 -4.6948130244e+00 2.7105515634e+00 4.6948130244e+00 
515200 4.6892410259e+00 -2.5344870316e-04 2.7105562412e+00 -4.6948211266e+00 2.7105562412e+00 4.6948211266e+00 
515300 4.6892410240e+00 -2.5331025107e-04 2.7105609164e+00 -4.6948292243e+00 2.7105609164e+00 4.6948292243e+00 
515400 4.6892410221e+00 -2.5317187416e-04 2.7105655891e+00 -4.6948373176e+00 2.7105655891e+00 4.6948373176e+00 
515500 4.6892410202e+00 -2.5303357240e-04 2.7105702592e+00 -4.6948454064e+00 2.7105702592e+00 4.6948454064e+00 
515600 4.6892410183e+00 -2.5289534573e-04 2.7105749267e+00 -4.6948534908e+00 2.7105749267e+00 4.6948534908e+00 
515700 4.6892410164e+00 -2.5275719413e-04 2.7105795917e+00 -4.6948615708e+00 2.7105795917e+00 4.6948615708e+00 
515800 4.6892410145e+00 -2.5261911755e-04 2.7105842541e+00 -4.6948696463e+00 2.7105842541e+00 4.6948696463e+00 
515900 4.6892410126e+00 -2.5248111596e-04 2.7105889140e+00 -4.6948777175e+00 2.7105889140e+00 4.6948777175e+00 
516000 4.6892410107e+00 -2.5234318931e-04 2.7105935713e+00 -4.6948857842e+00 2.7105935713e+00 4.6948857842e+00 
516100 4.6892410089e+00 -2.5220533756e-04 2.7105982261e+00 -4.6948938464e+00 2.7105982261e+00 4.6948938464e+00 
516200 4.6892410070e+00 -2.5206756068e-04 2.7106028783e+00 -4.6949019043e+00 2.7106028783e+00 4.6949019043e+00 
516300 4.6892410051e+00 -2.5192985862e-04 2.7106075279e+00 -4.6949099577e+00 2.7106075279e+00 4.6949099577e+00 
516400 4.6892410032e+00 -2.5179223135e-04 2.7106121750e+00 -4.6949180068e+00 2.7106121750e+00 4.6949180068e+00 
516500 4.6892410014e+00 -2.5165467883e-04 2.7106168196e+00 -4.6949260514e+00 2.7106168196e+00 4.6949260514e+00 
516600 4.6892409995e+00 -2.5151720102e-04 2.7106214616e+00 -4.6949340916e+00 2.7106214616e+00 4.6949340916e+00 
516700 4.6892409976e+00 -2.5137979788e-04 2.7106261011e+00 -4.6949421274e+00 2.7106261011e+00 4.6949421274e+00 
516800 4.6892409958e+00 -2.5124246936e-04 2.7106307380e+00 -4.6949501588e+00 2.7106307380e+00 4.6949501588e+00 
516900 4.6892409939e+00 -2.5110521544e-04 2.7106353724e+00 -4.6949581858e+00 2.7106353724e+00 4.6949581858e+00 
517000 4.6892409920e+00 -2.5096803607e-04 2.7106400043e+00 -4.6949662084e+00 2.7106400043e+00 4.6949662084e+00 
517100 4.6892409902e+00 -2.5083093121e-04 2.7106446336e+00 -4.6949742266e+00 2.7106446336e+00 4.6949742266e+00 
517200 4.6892409883e+00 -2.5069390082e-04 2.7106492604e+00 -4.6949822405e+00 2.7106492604e+00 4.6949822405e+00 
517300 4.6892409864e+00 -2.5055694487e-04 2.7106538846e+00 -4.6949902499e+00 2.7106538846e+00 4.6949902499e+00 
517400 4.6892409846e+00 -2.5042006331e-04 2.7106585063e+00 -4.6949982549e+00 2.7106585063e+00 4.6949982549e+00 
517500 4.6892409827e+00 -2.5028325610e-04 2.7106631255e+00 -4.6950062556e+00 2.7106631255e+00 4.6950062556e+00 
517600 4.6892409809e+00 -2.5014652322e-04 2.7106677421e+00 -4.6950142518e+00 2.7106677421e+00 4.6950142518e+00 
517700 4.6892409790e+00 -2.5000986461e-04 2.7106723563e+00 -4.6950222437e+00 2.7106723563e+00 4.6950222437e+00 
517800 4.6892409772e+00 -2.4987328024e-04 2.7106769678e+00 -4.6950302312e+00 2.7106769678e+00 4.6950302312e+00 
517900 4.6892409753e+00 -2.4973677007e-04 2.7106815769e+00 -4.6950382143e+00 2.7106815769e+00 4.6950382143e+00 
518000 4.6892409735e+00 -2.4960033405e-04 2.7106861834e+00 -4.6950461931e+00 2.7106861834e+00 4.6950461931e+00 
518100 4.6892409717e+00 -2.4946397216e-04 2.7106907874e+00 -4.6950541675e+00 2.7106907874e+00 4.6950541675e+00 
518200 4.6892409698e+00 -2.4932768436e-04 2.7106953889e+00 -4.6950621375e+00 2.7106953889e+00 4.6950621375e+00 
518300 4.6892409680e+00 -2.4919147059e-04 2.7106999879e+00 -4.6950701031e+00 2.7106999879e+00 4.6950701031e+00 
518400 4.6892409661e+00 -2.4905533083e-04 2.7107045843e+00 -4.6950780644e+00 2.7107045843e+00 4.6950780644e+00 
518500 4.6892409643e+00 -2.4891926504e-04 2.7107091783e+00 -4.6950860213e+00 2.7107091783e+00 4.6950860213e+00 
518600 4.6892409625e+00 -2.4878327317e-04 2.7107137697e+00 -4.6950939738e+00 2.7107137697e+00 4.6950939738e+00 
518700 4.6892409607e+00 -2.4864735519e-04 2.7107183585e+00 -4.6951019220e+00 2.7107183585e+00 4.6951019220e+00 
518800 4.6892409588e+00 -2.4851151105e-04 2.7107229449e+00 -4.6951098658e+00 2.7107229449e+00 4.6951098658e+00 
518900 4.6892409570e+00 -2.4837574073e-04 2.7107275288e+00 -4.6951178053e+00 2.7107275288e+00 4.6951178053e+00 
519000 4.6892409552e+00 -2.4824004418e-04 2.7107321101e+00 -4.6951257405e+00 2.7107321101e+00 4.6951257405e+00 
519100 4.6892409534e+00 -2.4810442136e-04 2.7107366890e+00 -4.6951336712e+00 2.7107366890e+00 4.6951336712e+00 
519200 4.6892409515e+00 -2.4796887223e-04 2.7107412653e+00 -4.6951415977e+00 2.7107412653e+00 4.6951415977e+00 
519300 4.6892409497e+00 -2.4783339676e-04 2.7107458391e+00 -4.6951495198e+00 2.7107458391e+00 4.6951495198e+00 
519400 4.6892409479e+00 -2.4769799491e-04 2.7107504104e+00 -4.6951574375e+00 2.7107504104e+00 4.6951574375e+00 
519500 4.6892409461e+00 -2.4756266663e-04 2.7107549792e+00 -4.6951653509e+00 2.7107549792e+00 4.6951653509e+00 
519600 4.6892409443e+00 -2.4742741189e-04 2.7107595456e+00 -4.6951732600e+00 2.7107595456e+00 4.6951732600e+00 
519700 4.6892409425e+00 -2.4729223065e-04 2.7107641094e+00 -4.6951811647e+00 2.7107641094e+00 4.6951811647e+00 
519800 4.6892409407e+00 -2.4715712287e-04 2.7107686707e+00 -4.6951890652e+00 2.7107686707e+00 4.6951890652e+00 
519900 4.6892409389e+00 -2.4702208851e-04 2.7107732295e+00 -4.6951969612e+00 2.7107732295e+00 4.6951969612e+00 
520000 4.6892409371e+00 -2.4688712754e-04 2.7107777858e+00 -4.6952048530e+00 2.7107777858e+00 4.6952048530e+00 
520100 4.6892409353e+00 -2.4675223991e-04 2.7107823396e+00 -4.6952127404e+00 2.7107823396e+00 4.6952127404e+00 
520200 4.6892409335e+00 -2.4661742559e-04 2.7107868909e+00 -4.6952206235e+00 2.7107868909e+00 4.6952206235e+00 
520300 4.6892409317e+00 -2.4648268453e-04 2.7107914397e+00 -4.6952285023e+00 2.7107914397e+00 4.6952285023e+00 
520400 4.6892409299e+00 -2.4634801670e-04 2.7107959860e+00 -4.6952363768e+00 2.7107959860e+00 4.6952363768e+00 
520500 4.6892409281e+00 -2.4621342207e-04 2.7108005299e+00 -4.6952442469e+00 2.7108005299e+00 4.6952442469e+00 
520600 4.6892409263e+00 -2.4607890059e-04 2.7108050712e+00 -4.6952521127e+00 2.7108050712e+00 4.6952521127e+00 
520700 4.6892409245e+00 -2.4594445221e-04 2.7108096101e+00 -4.6952599743e+00 2.7108096101e+00 4.6952599743e+00 
520800 4.6892409227e+00 -2.4581007692e-04 2.7108141464e+00 -4.6952678315e+00 2.7108141464e+00 4.6952678315e+00 
520900 4.6892409209e+00 -2.4567577466e-04 2.7108186803e+00 -4.6952756844e+00 2.7108186803e+00 4.6952756844e+00 
521000 4.6892409191e+00 -2.4554154540e-04 2.7108232117e+00 -4.6952835330e+00 2.7108232117e+00 4.6952835330e+00 
521100 4.6892409173e+00 -2.4540738910e-04 2.7108277406e+00 -4.6952913773e+00 2.7108277406e+00 4.6952913773e+00 
521200 4.6892409156e+00 -2.4527330571e-04 2.7108322670e+00 -4.6952992173e+00 2.7108322670e+00 4.6952992173e+00 
521300 4.6892409138e+00 -2.4513929522e-04 2.7108367910e+00 -4.6953070530e+00 2.7108367910e+00 4.6953070530e+00 
521400 4.6892409120e+00 -2.4500535756e-04 2.7108413125e+00 -4.6953148844e+00 2.7108413125e+00 4.6953148844e+00 
521500 4.6892409102e+00 -2.4487149271e-04 2.7108458315e+00 -4.6953227116e+00 2.7108458315e+00 4.6953227116e+00 
521600 4.6892409085e+00 -2.4473770063e-04 2.7108503480e+00 -4.6953305344e+00 2.7108503480e+00 4.6953305344e+00 
521700 4.6892409067e+00 -2.4460398128e-04 2.7108548620e+00 -4.6953383530e+00 2.7108548620e+00 4.6953383530e+00 
521800 4.6892409049e+00 -2.4447033461e-04 2.7108593736e+00 -4.6953461672e+00 2.7108593736e+00 4.6953461672e+00 
521900 4.6892409031e+00 -2.4433676060e-04 2.7108638827e+00 -4.6953539772e+00 2.7108638827e+00 4.6953539772e+00 
522000 4.6892409014e+00 -2.4420325921e-04 2.7108683893e+00 -4.6953617829e+00 2.7108683893e+00 4.6953617829e+00 
522100 4.6892408996e+00 -2.4406983039e-04 2.7108728935e+00 -4.6953695843e+00 2.7108728935e+00 4.6953695843e+00 
522200 4.6892408979e+00 -2.4393647410e-04 2.7108773951e+00 -4.6953773815e+00 2.7108773951e+00 4.6953773815e+00 
522300 4.6892408961e+00 -2.4380319032e-04 2.7108818944e+00 -4.6953851743e+00 2.7108818944e+00 4.6953851743e+00 
522400 4.6892408943e+00 -2.4366997899e-04 2.7108863911e+00 -4.6953929629e+00 2.7108863911e+00 4.6953929629e+00 
522500 4.6892408926e+00 -2.4353684009e-04 2.7108908854e+00 -4.6954007473e+00 2.7108908854e+00 4.6954007473e+00 
522600 4.6892408908e+00 -2.4340377358e-04 2.7108953772e+00 -4.6954085273e+00 2.7108953772e+00 4.6954085273e+00 
522700 4.6892408891e+00 -2.4327077940e-04 2.7108998666e+00 -4.6954163031e+00 2.7108998666e+00 4.6954163031e+00 
522800 4.6892408873e+00 -2.4313785754e-04 2.7109043535e+00 -4.6954240747e+00 2.7109043535e+00 4.6954240747e+00 
522900 4.6892408856e+00 -2.4300500795e-04 2.7109088379e+00 -4.6954318420e+00 2.7109088379e+00 4.6954318420e+00 
523000 4.6892408838e+00 -2.4287223059e-04 2.7109133199e+00 -4.6954396050e+00 2.7109133199e+00 4.6954396050e+00 
523100 4.6892408821e+00 -2.4273952542e-04 2.7109177994e+00 -4.6954473638e+00 2.7109177994e+00 4.6954473638e+00 
523200 4.6892408804e+00 -2.4260689241e-04 2.7109222765e+00 -4.6954551183e+00 2.7109222765e+00 4.6954551183e+00 
523300 4.6892408786e+00 -2.4247433151e-04 2.7109267511e+00 -4.6954628686e+00 2.7109267511e+00 4.6954628686e+00 
523400 4.6892408769e+00 -2.4234184270e-04 2.7109312233e+00 -4.6954706146e+00 2.7109312233e+00 4.6954706146e+00 
523500 4.6892408751e+00 -2.4220942593e-04 2.7109356930e+00 -4.6954783564e+00 2.7109356930e+00 4.6954783564e+00 
523600 4.6892408734e+00 -2.4207708115e-04 2.7109401603e+00 -4.6954860939e+00 2.7109401603e+00 4.6954860939e+00 
523700 4.6892408717e+00 -2.4194480835e-04 2.7109446251e+00 -4.6954938272e+00 2.7109446251e+00 4.6954938272e+00 
523800 4.6892408699e+00 -2.4181260747e-04 2.7109490875e+00 -4.6955015562e+00 2.7109490875e+00 4.6955015562e+00 
523900 4.6892408682e+00 -2.4168047848e-04 2.7109535474e+00 -4.6955092811e+00 2.7109535474e+00 4.6955092811e+00 
524000 4.6892408665e+00 -2.4154842134e-04 2.7109580049e+00 -4.6955170016e+00 2.7109580049e+00 4.6955170016e+00 
524100 4.6892408648e+00 -2.4141643602e-04 2.7109624599e+00 -4.6955247180e+00 2.7109624599e+00 4.6955247180e+00 
524200 4.6892408630e+00 -2.4128452247e-04 2.7109669125e+00 -4.6955324301e+00 2.7109669125e+00 4.6955324301e+00 
524300 4.6892408613e+00 -2.4115268066e-04 2.7109713627e+00 -4.6955401380e+00 2.7109713627e+00 4.6955401380e+00 
524400 4.6892408596e+00 -2.4102091055e-04 2.7109758104e+00 -4.6955478417e+00 2.7109758104e+00 4.6955478417e+00 
524500 4.6892408579e+00 -2.4088921210e-04 2.7109802557e+00 -4.6955555412e+00 2.7109802557e+00 4.6955555412e+00 
524600 4.6892408562e+00 -2.4075758527e-04 2.7109846985e+00 -4.6955632364e+00 2.7109846985e+00 4.6955632364e+00 
524700 4.6892408544e+00 -2.4062603003e-04 2.7109891389e+00 -4.6955709274e+00 2.7109891389e+00 4.6955709274e+00 
524800 4.6892408527e+00 -2.4049454634e-04 2.7109935769e+00 -4.6955786142e+00 2.7109935769e+00 4.6955786142e+00 
524900 4.6892408510e+00 -2.4036313416e-04 2.7109980125e+00 -4.6955862968e+00 2.7109980125e+00 4.6955862968e+00 
525000 4.6892408493e+00 -2.4023179345e-04 2.7110024456e+00 -4.6955939752e+00 2.7110024456e+00 4.6955939752e+00 
525100 4.6892408476e+00 -2.4010052418e-04 2.7110068762e+00 -4.6956016493e+00 2.7110068762e+00 4.6956016493e+00 
525200 4.6892408459e+00 -2.3996932630e-04 2.7110113045e+00 -4.6956093193e+00 2.7110113045e+00 4.6956093193e+00 
525300 4.6892408442e+00 -2.3983819979e-04 2.7110157303e+00 -4.6956169851e+00 2.7110157303e+00 4.6956169851e+00 
525400 4.6892408425e+00 -2.3970714459e-04 2.7110201537e+00 -4.6956246466e+00 2.7110201537e+00 4.6956246466e+00 
525500 4.6892408408e+00 -2.3957616068e-04 2.7110245747e+00 -4.6956323040e+00 2.7110245747e+00 4.6956323040e+00 
525600 4.6892408391e+00 -2.3944524801e-04 2.7110289933e+00 -4.6956399571e+00 2.7110289933e+00 4.6956399571e+00 
525700 4.6892408374e+00 -2.3931440656e-04 2.7110334094e+00 -4.6956476061e+00 2.7110334094e+00 4.6956476061e+00 
525800 4.6892408357e+00 -2.3918363627e-04 2.7110378231e+00 -4.6956552509e+00 2.7110378231e+00 4.6956552509e+00 
525900 4.6892408340e+00 -2.3905293712e-04 2.7110422344e+00 -4.6956628915e+00 2.7110422344e+00 4.6956628915e+00 
526000 4.6892408323e+00 -2.3892230907e-04 2.7110466433e+00 -4.6956705279e+00 2.7110466433e+00 4.6956705279e+00 
526100 4.6892408306e+00 -2.3879175207e-04 2.7110510497e+00 -4.6956781601e+00 2.7110510497e+00 4.6956781601e+00 
526200 4.6892408289e+00 -2.3866126609e-04 2.7110554538e+00 -4.6956857881e+00 2.7110554538e+00 4.6956857881e+00 
526300 4.6892408273e+00 -2.3853085110e-04 2.7110598554e+00 -4.6956934119e+00 2.7110598554e+00 4.6956934119e+00 
526400 4.6892408256e+00 -2.3840050705e-04 2.7110642546e+00 -4.6957010316e+00 2.7110642546e+00 4.6957010316e+00 
526500 4.6892408239e+00 -2.3827023391e-04 2.7110686514e+00 -4.6957086471e+00 2.7110686514e+00 4.6957086471e+00 
526600 4.6892408222e+00 -2.3814003164e-04 2.7110730458e+00 -4.6957162584e+00 2.7110730458e+00 4.6957162584e+00 
526700 4.6892408205e+00 -2.3800990020e-04 2.7110774378e+00 -4.6957238656e+00 2.7110774378e+00 4.6957238656e+00 
526800 4.6892408189e+00 -2.3787983956e-04 2.7110818274e+00 -4.6957314686e+00 2.7110818274e+00 4.6957314686e+00 
526900 4.6892408172e+00 -2.3774984968e-04 2.7110862146e+00 -4.6957390674e+00 2.7110862146e+00 4.6957390674e+00 
527000 4.6892408155e+00 -2.3761993051e-04 2.7110905994e+00 -4.6957466620e+00 2.7110905994e+00 4.6957466620e+00 
527100 4.6892408138e+00 -2.3749008203e-04 2.7110949817e+00 -4.6957542525e+00 2.7110949817e+00 4.6957542525e+00 
527200 4.6892408122e+00 -2.3736030420e-04 2.7110993617e+00 -4.6957618388e+00 2.7110993617e+00 4.6957618388e+00 
527300 4.6892408105e+00 -2.3723059698e-04 2.7111037393e+00 -4.6957694210e+00 2.7111037393e+00 4.6957694210e+00 
527400 4.6892408088e+00 -2.3710096032e-04 2.7111081144e+00 -4.6957769990e+00 2.7111081144e+00 4.6957769990e+00 
527500 4.6892408072e+00 -2.3697139420e-04 2.7111124872e+00 -4.6957845729e+00 2.7111124872e+00 4.6957845729e+00 
527600 4.6892408055e+00 -2.3684189858e-04 2.7111168576e+00 -4.6957921426e+00 2.7111168576e+00 4.6957921426e+00 
527700 4.6892408039e+00 -2.3671247341e-04 2.7111212256e+00 -4.6957997081e+00 2.7111212256e+00 4.6957997081e+00 
527800 4.6892408022e+00 -2.3658311867e-04 2.7111255911e+00 -4.6958072696e+00 2.7111255911e+00 4.6958072696e+00 
527900 4.6892408005e+00 -2.3645383431e-04 2.7111299543e+00 -4.6958148268e+00 2.7111299543e+00 4.6958148268e+00 
528000 4.6892407989e+00 -2.3632462030e-04 2.7111343151e+00 -4.6958223800e+00 2.7111343151e+00 4.6958223800e+00 
528100 4.6892407972e+00 -2.3619547660e-04 2.7111386735e+00 -4.6958299289e+00 2.7111386735e+00 4.6958299289e+00 
528200 4.6892407956e+00 -2.3606640317e-04 2.7111430296e+00 -4.6958374738e+00 2.7111430296e+00 4.6958374738e+00 
528300 4.6892407939e+00 -2.3593739998e-04 2.7111473832e+00 -4.6958450145e+00 2.7111473832e+00 4.6958450145e+00 
528400 4.6892407923e+00 -2.3580846699e-04 2.7111517344e+00 -4.6958525511e+00 2.7111517344e+00 4.6958525511e+00 
528500 4.6892407907e+00 -2.3567960415e-04 2.7111560833e+00 -4.6958600835e+00 2.7111560833e+00 4.6958600835e+00 
528600 4.6892407890e+00 -2.3555081144e-04 2.7111604298e+00 -4.6958676119e+00 2.7111604298e+00 4.6958676119e+00 
528700 4.6892407874e+00 -2.3542208882e-04 2.7111647739e+00 -4.6958751361e+00 2.7111647739e+00 4.6958751361e+00 
528800 4.6892407857e+00 -2.3529343625e-04 2.7111691156e+00 -4.6958826561e+00 2.7111691156e+00 4.6958826561e+00 
528900 4.6892407841e+00 -2.3516485369e-04 2.7111734549e+00 -4.6958901721e+00 2.7111734549e+00 4.6958901721e+00 
529000 4.6892407825e+00 -2.3503634111e-04 2.7111777919e+00 -4.6958976839e+00 2.7111777919e+00 4.6958976839e+00 
529100 4.6892407808e+00 -2.3490789846e-04 2.7111821265e+00 -4.6959051916e+00 2.7111821265e+00 4.6959051916e+00 
529200 4.6892407792e+00 -2.3477952572e-04 2.7111864587e+00 -4.6959126952e+00 2.7111864587e+00 4.6959126952e+00 
529300 4.6892407776e+00 -2.3465122284e-04 2.7111907885e+00 -4.6959201947e+00 2.7111907885e+00 4.6959201947e+00 
529400 4.6892407759e+00 -2.3452298979e-04 2.7111951160e+00 -4.6959276901e+00 2.7111951160e+00 4.6959276901e+00 
529500 4.6892407743e+00 -2.3439482653e-04 2.7111994411e+00 -4.6959351814e+00 2.7111994411e+00 4.6959351814e+00 
529600 4.6892407727e+00 -2.3426673302e-04 2.7112037638e+00 -4.6959426685e+00 2.7112037638e+00 4.6959426685e+00 
529700 4.6892407710e+00 -2.3413870923e-04 2.7112080841e+00 -4.6959501516e+00 2.7112080841e+00 4.6959501516e+00 
529800 4.6892407694e+00 -2.3401075512e-04 2.7112124021e+00 -4.6959576305e+00 2.7112124021e+00 4.6959576305e+00 
529900 4.6892407678e+00 -2.3388287065e-04 2.7112167177e+00 -4.6959651054e+00 2.7112167177e+00 4.6959651054e+00 
530000 4.6892407662e+00 -2.3375505579e-04 2.7112210310e+00 -4.6959725762e+00 2.7112210310e+00 4.6959725762e+00 
530100 4.6892407646e+00 -2.3362731049e-04 2.7112253418e+00 -4.6959800428e+00 2.7112253418e+00 4.6959800428e+00 
530200 4.6892407630e+00 -2.3349963473e-04 2.7112296504e+00 -4.6959875054e+00 2.7112296504e+00 4.6959875054e+00 
530300 4.6892407613e+00 -2.3337202847e-04 2.7112339565e+00 -4.6959949639e+00 2.7112339565e+00 4.6959949639e+00 
530400 4.6892407597e+00 -2.3324449166e-04 2.7112382603e+00 -4.6960024183e+00 2.7112382603e+00 4.6960024183e+00 
530500 4.6892407581e+00 -2.3311702427e-04 2.7112425618e+00 -4.6960098686e+00 2.7112425618e+00 4.6960098686e+00 
530600 4.6892407565e+00 -2.3298962627e-04 2.7112468608e+00 -4.6960173148e+00 2.7112468608e+00 4.6960173148e+00 
530700 4.6892407549e+00 -2.3286229761e-04 2.7112511576e+00 -4.6960247570e+00 2.7112511576e+00 4.6960247570e+00 
530800 4.6892407533e+00 -2.3273503827e-04 2.7112554519e+00 -4.6960321950e+00 2.7112554519e+00 4.6960321950e+00 
530900 4.6892407517e+00 -2.3260784820e-04 2.7112597439e+00 -4.6960396290e+00 2.7112597439e+00 4.6960396290e+00 
531000 4.6892407501e+00 -2.3248072737e-04 2.7112640336e+00 -4.6960470590e+00 2.7112640336e+00 4.6960470590e+00 
531100 4.6892407485e+00 -2.3235367574e-04 2.7112683209e+00 -4.6960544848e+00 2.7112683209e+00 4.6960544848e+00 
531200 4.6892407469e+00 -2.3222669327e-04 2.7112726059e+00 -4.6960619066e+00 2.7112726059e+00 4.6960619066e+00 
531300 4.6892407453e+00 -2.3209977993e-04 2.7112768885e+00 -4.6960693243e+00 2.7112768885e+00 4.6960693243e+00 
531400 4.6892407437e+00 -2.3197293569e-04 2.7112811688e+00 -4.6960767379e+00 2.7112811688e+00 4.6960767379e+00 
531500 4.6892407421e+00 -2.3184616049e-04 2.7112854467e+00 -4.6960841475e+00 2.7112854467e+00 4.6960841475e+00 
531600 4.6892407405e+00 -2.3171945432e-04 2.7112897223e+00 -4.6960915530e+00 2.7112897223e+00 4.6960915530e+00 
531700 4.6892407389e+00 -2.3159281712e-04 2.7112939955e+00 -4.6960989545e+00 2.7112939955e+00 4.6960989545e+00 
531800 4.6892407373e+00 -2.3146624887e-04 2.7112982664e+00 -4.6961063519e+00 2.7112982664e+00 4.6961063519e+00 
531900 4.6892407358e+00 -2.3133974953e-04 2.7113025350e+00 -4.6961137452e+00 2.7113025350e+00 4.6961137452e+00 
532000 4.6892407342e+00 -2.3121331905e-04 2.7113068012e+00 -4.6961211345e+00 2.7113068012e+00 4.6961211345e+00 
532100 4.6892407326e+00 -2.3108695742e-04 2.7113110650e+00 -4.6961285198e+00 2.7113110650e+00 4.6961285198e+00 
532200 4.6892407310e+00 -2.3096066458e-04 2.7113153266e+00 -4.6961359010e+00 2.7113153266e+00 4.6961359010e+00 
532300 4.6892407294e+00 -2.3083444050e-04 2.7113195858e+00 -4.6961432781e+00 2.7113195858e+00 4.6961432781e+00 
532400 4.6892407279e+00 -2.3070828515e-04 2.7113238426e+00 -4.6961506512e+00 2.7113238426e+00 4.6961506512e+00 
532500 4.6892407263e+00 -2.3058219848e-04 2.7113280972e+00 -4.6961580203e+00 2.7113280972e+00 4.6961580203e+00 
532600 4.6892407247e+00 -2.3045618047e-04 2.7113323494e+00 -4.6961653853e+00 2.7113323494e+00 4.6961653853e+00 
532700 4.6892407231e+00 -2.3033023108e-04 2.7113365992e+00 -4.6961727463e+00 2.7113365992e+00 4.6961727463e+00 
532800 4.6892407216e+00 -2.3020435026e-04 2.7113408468e+00 -4.6961801033e+00 2.7113408468e+00 4.6961801033e+00 
532900 4.6892407200e+00 -2.3007853799e-04 2.7113450920e+00 -4.6961874562e+00 2.7113450920e+00 4.6961874562e+00 
533000 4.6892407184e+00 -2.2995279422e-04 2.7113493349e+00 -4.6961948051e+00 2.7113493349e+00 4.6961948051e+00 
533100 4.6892407169e+00 -2.2982711892e-04 2.7113535754e+00 -4.6962021500e+00 2.7113535754e+00 4.6962021500e+00 
533200 4.6892407153e+00 -2.2970151206e-04 2.7113578137e+00 -4.6962094908e+00 2.7113578137e+00 4.6962094908e+00 
533300 4.6892407137e+00 -2.2957597359e-04 2.7113620496e+00 -4.6962168276e+00 2.7113620496e+00 4.6962168276e+00 
533400 4.6892407122e+00 -2.2945050349e-04 2.7113662832e+00 -4.6962241604e+00 2.7113662832e+00 4.6962241604e+00 
533500 4.6892407106e+00 -2.2932510171e-04 2.7113705145e+00 -4.6962314892e+00 2.7113705145e+00 4.6962314892e+00 
533600 4.6892407091e+00 -2.2919976822e-04 2.7113747434e+00 -4.6962388140e+00 2.7113747434e+00 4.6962388140e+00 
533700 4.6892407075e+00 -2.2907450298e-04 2.7113789701e+00 -4.6962461347e+00 2.7113789701e+00 4.6962461347e+00 
533800 4.6892407060e+00 -2.2894930596e-04 2.7113831944e+00 -4.6962534514e+00 2.7113831944e+00 4.6962534514e+00 
533900 4.6892407044e+00 -2.2882417711e-04 2.7113874164e+00 -4.6962607642e+00 2.7113874164e+00 4.6962607642e+00 
534000 4.6892407028e+00 -2.2869911641e-04 2.7113916361e+00 -4.6962680729e+00 2.7113916361e+00 4.6962680729e+00 
534100 4.6892407013e+00 -2.2857412382e-04 2.7113958534e+00 -4.6962753776e+00 2.7113958534e+00 4.6962753776e+00 
534200 4.6892406998e+00 -2.2844919930e-04 2.7114000685e+00 -4.6962826783e+00 2.7114000685e+00 4.6962826783e+00 
534300 4.6892406982e+00 -2.2832434281e-04 2.7114042813e+00 -4.6962899750e+00 2.7114042813e+00 4.6962899750e+00 
534400 4.6892406967e+00 -2.2819955433e-04 2.7114084917e+00 -4.6962972677e+00 2.7114084917e+00 4.6962972677e+00 
534500 4.6892406951e+00 -2.2807483380e-04 2.7114126998e+00 -4.6963045564e+00 2.7114126998e+00 4.6963045564e+00 
534600 4.6892406936e+00 -2.2795018120e-04 2.7114169057e+00 -4.6963118411e+00 2.7114169057e+00 4.6963118411e+00 
534700 4.6892406920e+00 -2.2782559650e-04 2.7114211092e+00 -4.6963191218e+00 2.7114211092e+00 4.6963191218e+00 
534800 4.6892406905e+00 -2.2770107964e-04 2.7114253104e+00 -4.6963263986e+00 2.7114253104e+00 4.6963263986e+00 
534900 4.6892406890e+00 -2.2757663061e-04 2.7114295093e+00 -4.6963336713e+00 2.7114295093e+00 4.6963336713e+00 
535000 4.6892406874e+00 -2.2745224936e-04 2.7114337060e+00 -4.6963409401e+00 2.7114337060e+00 4.6963409401e+00 
535100 4.6892406859e+00 -2.2732793585e-04 2.7114379003e+00 -4.6963482048e+00 2.7114379003e+00 4.6963482048e+00 
535200 4.6892406844e+00 -2.2720369005e-04 2.7114420923e+00 -4.6963554656e+00 2.7114420923e+00 4.6963554656e+00 
535300 4.6892406828e+00 -2.2707951193e-04 2.7114462820e+00 -4.6963627224e+00 2.7114462820e+00 4.6963627224e+00 
535400 4.6892406813e+00 -2.2695540145e-04 2.7114504694e+00 -4.6963699753e+00 2.7114504694e+00 4.6963699753e+00 
535500 4.6892406798e+00 -2.2683135857e-04 2.7114546546e+00 -4.6963772241e+00 2.7114546546e+00 4.6963772241e+00 
535600 4.6892406783e+00 -2.2670738325e-04 2.7114588374e+00 -4.6963844690e+00 2.7114588374e+00 4.6963844690e+00 
535700 4.6892406768e+00 -2.2658347547e-04 2.7114630180e+00 -4.6963917099e+00 2.7114630180e+00 4.6963917099e+00 
535800 4.6892406752e+00 -2.2645963518e-04 2.7114671962e+00 -4.6963989469e+00 2.7114671962e+00 4.6963989469e+00 
535900 4.6892406737e+00 -2.2633586235e-04 2.7114713722e+00 -4.6964061799e+00 2.7114713722e+00 4.6964061799e+00 
536000 4.6892406722e+00 -2.2621215694e-04 2.7114755458e+00 -4.6964134089e+00 2.7114755458e+00 4.6964134089e+00 
536100 4.6892406707e+00 -2.2608851892e-04 2.7114797172e+00 -4.6964206339e+00 2.7114797172e+00 4.6964206339e+00 
536200 4.6892406692e+00 -2.2596494825e-04 2.7114838863e+00 -4.6964278550e+00 2.7114838863e+00 4.6964278550e+00 
536300 4.6892406677e+00 -2.2584144490e-04 2.7114880531e+00 -4.6964350722e+00 2.7114880531e+00 4.6964350722e+00 
536400 4.6892406661e+00 -2.2571800882e-04 2.7114922177e+00 -4.6964422853e+00 2.7114922177e+00 4.6964422853e+00 
536500 4.6892406646e+00 -2.2559463999e-04 2.7114963799e+00 -4.6964494946e+00 2.7114963799e+00 4.6964494946e+00 
536600 4.6892406631e+00 -2.2547133837e-04 2.7115005399e+00 -4.6964566998e+00 2.7115005399e+00 4.6964566998e+00 
536700 4.6892406616e+00 -2.2534810391e-04 2.7115046976e+00 -4.6964639012e+00 2.7115046976e+00 4.6964639012e+00 
536800 4.6892406601e+00 -2.2522493660e-04 2.7115088530e+00 -4.6964710985e+00 2.7115088530e+00 4.6964710985e+00 
536900 4.6892406586e+00 -2.2510183639e-04 2.7115130061e+00 -4.6964782920e+00 2.7115130061e+00 4.6964782920e+00 
537000 4.6892406571e+00 -2.2497880324e-04 2.7115171570e+00 -4.6964854815e+00 2.7115171570e+00 4.6964854815e+00 
537100 4.6892406556e+00 -2.2485583712e-04 2.7115213055e+00 -4.6964926670e+00 2.7115213055e+00 4.6964926670e+00 
537200 4.6892406541e+00 -2.2473293799e-04 2.7115254519e+00 -4.6964998486e+00 2.7115254519e+00 4.6964998486e+00 
537300 4.6892406526e+00 -2.2461010582e-04 2.7115295959e+00 -4.6965070263e+00 2.7115295959e+00 4.6965070263e+00 
537400 4.6892406511e+00 -2.2448734058e-04 2.7115337376e+00 -4.6965142000e+00 2.7115337376e+00 4.6965142000e+00 
537500 4.6892406496e+00 -2.2436464222e-04 2.7115378771e+00 -4.6965213698e+00 2.7115378771e+00 4.6965213698e+00 
537600 4.6892406481e+00 -2.2424201071e-04 2.7115420144e+00 -4.6965285357e+00 2.7115420144e+00 4.6965285357e+00 
537700 4.6892406467e+00 -2.2411944602e-04 2.7115461493e+00 -4.6965356977e+00 2.7115461493e+00 4.6965356977e+00 
537800 4.6892406452e+00 -2.2399694810e-04 2.7115502820e+00 -4.6965428557e+00 2.7115502820e+00 4.6965428557e+00 
537900 4.6892406437e+00 -2.2387451693e-04 2.7115544124e+00 -4.6965500098e+00 2.7115544124e+00 4.6965500098e+00 
538000 4.6892406422e+00 -2.2375215247e-04 2.7115585406e+00 -4.6965571600e+00 2.7115585406e+00 4.6965571600e+00 
538100 4.6892406407e+00 -2.2362985469e-04 2.7115626665e+00 -4.6965643062e+00 2.7115626665e+00 4.6965643062e+00 
538200 4.6892406392e+00 -2.2350762354e-04 2.7115667901e+00 -4.6965714486e+00 2.7115667901e+00 4.6965714486e+00 
538300 4.6892406378e+00 -2.2338545900e-04 2.7115709115e+00 -4.6965785870e+00 2.7115709115e+00 4.6965785870e+00 
538400 4.6892406363e+00 -2.2326336102e-04 2.7115750306e+00 -4.6965857215e+00 2.7115750306e+00 4.6965857215e+00 
538500 4.6892406348e+00 -2.2314132957e-04 2.7115791475e+00 -4.6965928522e+00 2.7115791475e+00 4.6965928522e+00 
538600 4.6892406333e+00 -2.2301936462e-04 2.7115832621e+00 -4.6965999789e+00 2.7115832621e+00 4.6965999789e+00 
538700 4.6892406319e+00 -2.2289746613e-04 2.7115873744e+00 -4.6966071016e+00 2.7115873744e+00 4.6966071016e+00 
538800 4.6892406304e+00 -2.2277563406e-04 2.7115914845e+00 -4.6966142205e+00 2.7115914845e+00 4.6966142205e+00 
538900 4.6892406289e+00 -2.2265386839e-04 2.7115955923e+00 -4.6966213355e+00 2.7115955923e+00 4.6966213355e+00 
539000 4.6892406274e+00 -2.2253216907e-04 2.7115996979e+00 -4.6966284466e+00 2.7115996979e+00 4.6966284466e+00 
539100 4.6892406260e+00 -2.2241053606e-04 2.7116038013e+00 -4.6966355538e+00 2.7116038013e+00 4.6966355538e+00 
539200 4.6892406245e+00 -2.2228896935e-04 2.7116079024e+00 -4.6966426571e+00 2.7116079024e+00 4.6966426571e+00 
539300 4.6892406230e+00 -2.2216746888e-04 2.7116120012e+00 -4.6966497565e+00 2.7116120012e+00 4.6966497565e+00 
539400 4.6892406216e+00 -2.2204603462e-04 2.7116160978e+00 -4.6966568520e+00 2.7116160978e+00 4.6966568520e+00 
539500 4.6892406201e+00 -2.2192466654e-04 2.7116201922e+00 -4.6966639436e+00 2.7116201922e+00 4.6966639436e+00 
539600 4.6892406187e+00 -2.2180336461e-04 2.7116242843e+00 -4.6966710314e+00 2.7116242843e+00 4.6966710314e+00 
539700 4.6892406172e+00 -2.2168212878e-04 2.7116283741e+00 -4.6966781152e+00 2.7116283741e+00 4.6966781152e+00 
539800 4.6892406158e+00 -2.2156095902e-04 2.7116324617e+00 -4.6966851952e+00 2.7116324617e+00 4.6966851952e+00 
539900 4.6892406143e+00 -2.2143985530e-04 2.7116365471e+00 -4.6966922713e+00 2.7116365471e+00 4.6966922713e+00 
540000 4.6892406128e+00 -2.2131881759e-04 2.7116406303e+00 -4.6966993435e+00 2.7116406303e+00 4.6966993435e+00 
540100 4.6892406114e+00 -2.2119784584e-04 2.7116447112e+00 -4.6967064118e+00 2.7116447112e+00 4.6967064118e+00 
540200 4.6892406099e+00 -2.2107694002e-04 2.7116487898e+00 -4.6967134763e+00 2.7116487898e+00 4.6967134763e+00 
540300 4.6892406085e+00 -2.2095610009e-04 2.7116528663e+00 -4.6967205369e+00 2.7116528663e+00 4.6967205369e+00 
540400 4.6892406070e+00 -2.2083532603e-04 2.7116569405e+00 -4.6967275936e+00 2.7116569405e+00 4.6967275936e+00 
540500 4.6892406056e+00 -2.2071461780e-04 2.7116610124e+00 -4.6967346464e+00 2.7116610124e+00 4.6967346464e+00 
540600 4.6892406042e+00 -2.2059397535e-04 2.7116650822e+00 -4.6967416954e+00 2.7116650822e+00 4.6967416954e+00 
540700 4.6892406027e+00 -2.2047339866e-04 2.7116691497e+00 -4.6967487405e+00 2.7116691497e+00 4.6967487405e+00 
540800 4.6892406013e+00 -2.2035288770e-04 2.7116732149e+00 -4.6967557818e+00 2.7116732149e+00 4.6967557818e+00 
540900 4.6892405998e+00 -2.2023244242e-04 2.7116772780e+00 -4.6967628192e+00 2.7116772780e+00 4.6967628192e+00 
541000 4.6892405984e+00 -2.2011206278e-04 2.7116813388e+00 -4.6967698527e+00 2.7116813388e+00 4.6967698527e+00 
541100 4.6892405970e+00 -2.1999174877e-04 2.7116853974e+00 -4.6967768824e+00 2.7116853974e+00 4.6967768824e+00 
541200 4.6892405955e+00 -2.1987150034e-04 2.7116894537e+00 -4.6967839082e+00 2.7116894537e+00 4.6967839082e+00 
541300 4.6892405941e+00 -2.1975131745e-04 2.7116935079e+00 -4.6967909302e+00 2.7116935079e+00 4.6967909302e+00 
541400 4.6892405927e+00 -2.1963120007e-04 2.7116975598e+00 -4.6967979484e+00 2.7116975598e+00 4.6967979484e+00 
541500 4.6892405912e+00 -2.1951114817e-04 2.7117016095e+00 -4.6968049626e+00 2.7117016095e+00 4.6968049626e+00 
541600 4.6892405898e+00 -2.1939116171e-04 2.7117056570e+00 -4.6968119731e+00 2.7117056570e+00 4.6968119731e+00 
541700 4.6892405884e+00 -2.1927124065e-04 2.7117097023e+00 -4.6968189797e+00 2.7117097023e+00 4.6968189797e+00 
541800 4.6892405870e+00 -2.1915138497e-04 2.7117137453e+00 -4.6968259824e+00 2.7117137453e+00 4.6968259824e+00 
541900 4.6892405855e+00 -2.1903159462e-04 2.7117177861e+00 -4.6968329814e+00 2.7117177861e+00 4.6968329814e+00 
542000 4.6892405841e+00 -2.1891186958e-04 2.7117218247e+00 -4.6968399765e+00 2.7117218247e+00 4.6968399765e+00 
542100 4.6892405827e+00 -2.1879220980e-04 2.7117258611e+00 -4.6968469677e+00 2.7117258611e+00 4.6968469677e+00 
542200 4.6892405813e+00 -2.1867261525e-04 2.7117298953e+00 -4.6968539551e+00 2.7117298953e+00 4.6968539551e+00 
542300 4.6892405799e+00 -2.1855308590e-04 2.7117339273e+00 -4.6968609387e+00 2.7117339273e+00 4.6968609387e+00 
542400 4.6892405784e+00 -2.1843362172e-04 2.7117379571e+00 -4.6968679185e+00 2.7117379571e+00 4.6968679185e+00 
542500 4.6892405770e+00 -2.1831422266e-04 2.7117419846e+00 -4.6968748944e+00 2.7117419846e+00 4.6968748944e+00 
542600 4.6892405756e+00 -2.1819488869e-04 2.7117460100e+00 -4.6968818665e+00 2.7117460100e+00 4.6968818665e+00 
542700 4.6892405742e+00 -2.1807561978e-04 2.7117500331e+00 -4.6968888348e+00 2.7117500331e+00 4.6968888348e+00 
542800 4.6892405728e+00 -2.1795641589e-04 2.7117540541e+00 -4.6968957993e+00 2.7117540541e+00 4.6968957993e+00 
542900 4.6892405714e+00 -2.1783727700e-04 2.7117580728e+00 -4.6969027599e+00 2.7117580728e+00 4.6969027599e+00 
543000 4.6892405700e+00 -2.1771820305e-04 2.7117620893e+00 -4.6969097168e+00 2.7117620893e+00 4.6969097168e+00 
543100 4.6892405686e+00 -2.1759919403e-04 2.7117661037e+00 -4.6969166698e+00 2.7117661037e+00 4.6969166698e+00 
543200 4.6892405672e+00 -2.1748024989e-04 2.7117701158e+00 -4.6969236190e+00 2.7117701158e+00 4.6969236190e+00 
543300 4.6892405658e+00 -2.1736137060e-04 2.7117741257e+00 -4.6969305644e+00 2.7117741257e+00 4.6969305644e+00 
543400 4.6892405644e+00 -2.1724255612e-04 2.7117781335e+00 -4.6969375060e+00 2.7117781335e+00 4.6969375060e+00 
543500 4.6892405630e+00 -2.1712380643e-04 2.7117821390e+00 -4.6969444438e+00 2.7117821390e+00 4.6969444438e+00 
543600 4.6892405616e+00 -2.1700512148e-04 2.7117861424e+00 -4.6969513778e+00 2.7117861424e+00 4.6969513778e+00 
543700 4.6892405602e+00 -2.1688650125e-04 2.7117901435e+00 -4.6969583080e+00 2.7117901435e+00 4.6969583080e+00 
543800 4.6892405588e+00 -2.1676794569e-04 2.7117941425e+00 -4.6969652344e+00 2.7117941425e+00 4.6969652344e+00 
543900 4.6892405574e+00 -2.1664945477e-04 2.7117981392e+00 -4.6969721570e+00 2.7117981392e+00 4.6969721570e+00 
544000 4.6892405560e+00 -2.1653102846e-04 2.7118021338e+00 -4.6969790758e+00 2.7118021338e+00 4.6969790758e+00 
544100 4.6892405546e+00 -2.1641266673e-04 2.7118061262e+00 -4.6969859908e+00 2.7118061262e+00 4.6969859908e+00 
544200 4.6892405532e+00 -2.1629436953e-04 2.7118101164e+00 -4.6969929020e+00 2.7118101164e+00 4.6969929020e+00 
544300 4.6892405518e+00 -2.1617613684e-04 2.7118141044e+00 -4.6969998095e+00 2.7118141044e+00 4.6969998095e+00 
544400 4.6892405505e+00 -2.1605796862e-04 2.7118180902e+00 -4.6970067131e+00 2.7118180902e+00 4.6970067131e+00 
544500 4.6892405491e+00 -2.1593986483e-04 2.7118220738e+00 -4.6970136130e+00 2.7118220738e+00 4.6970136130e+00 
544600 4.6892405477e+00 -2.1582182545e-04 2.7118260553e+00 -4.6970205091e+00 2.7118260553e+00 4.6970205091e+00 
544700 4.6892405463e+00 -2.1570385043e-04 2.7118300346e+00 -4.6970274014e+00 2.7118300346e+00 4.6970274014e+00 
544800 4.6892405449e+00 -2.1558593974e-04 2.7118340117e+00 -4.6970342899e+00 2.7118340117e+00 4.6970342899e+00 
544900 4.6892405436e+00 -2.1546809335e-04 2.7118379866e+00 -4.6970411746e+00 2.7118379866e+00 4.6970411746e+00 
545000 4.6892405422e+00 -2.1535031123e-04 2.7118419593e+00 -4.6970480556e+00 2.7118419593e+00 4.6970480556e+00 
545100 4.6892405408e+00 -2.1523259333e-04 2.7118459299e+00 -4.6970549328e+00 2.7118459299e+00 4.6970549328e+00 
545200 4.6892405394e+00 -2.1511493964e-04 2.7118498982e+00 -4.6970618062e+00 2.7118498982e+00 4.6970618062e+00 
545300 4.6892405381e+00 -2.1499735010e-04 2.7118538644e+00 -4.6970686759e+00 2.7118538644e+00 4.6970686759e+00 
545400 4.6892405367e+00 -2.1487982468e-04 2.7118578285e+00 -4.6970755418e+00 2.7118578285e+00 4.6970755418e+00 
545500 4.6892405353e+00 -2.1476236336e-04 2.7118617903e+00 -4.6970824040e+00 2.7118617903e+00 4.6970824040e+00 
545600 4.6892405340e+00 -2.1464496610e-04 2.7118657500e+00 -4.6970892623e+00 2.7118657500e+00 4.6970892623e+00 
545700 4.6892405326e+00 -2.1452763286e-04 2.7118697075e+00 -4.6970961169e+00 2.7118697075e+00 4.6970961169e+00 
545800 4.6892405312e+00 -2.1441036361e-04 2.7118736629e+00 -4.6971029678e+00 2.7118736629e+00 4.6971029678e+00 
545900 4.6892405299e+00 -2.1429315832e-04 2.7118776161e+00 -4.6971098149e+00 2.7118776161e+00 4.6971098149e+00 
546000 4.6892405285e+00 -2.1417601695e-04 2.7118815671e+00 -4.6971166583e+00 2.7118815671e+00 4.6971166583e+00 
546100 4.6892405271e+00 -2.1405893946e-04 2.7118855159e+00 -4.6971234979e+00 2.7118855159e+00 4.6971234979e+00 
546200 4.6892405258e+00 -2.1394192583e-04 2.7118894626e+00 -4.6971303337e+00 2.7118894626e+00 4.6971303337e+00 
546300 4.6892405244e+00 -2.1382497601e-04 2.7118934071e+00 -4.6971371658e+00 2.7118934071e+00 4.6971371658e+00 
546400 4.6892405231e+00 -2.1370808998e-04 2.7118973495e+00 -4.6971439942e+00 2.7118973495e+00 4.6971439942e+00 
546500 4.6892405217e+00 -2.1359126770e-04 2.7119012897e+00 -4.6971508188e+00 2.7119012897e+00 4.6971508188e+00 
546600 4.6892405204e+00 -2.1347450914e-04 2.7119052277e+00 -4.6971576397e+00 2.7119052277e+00 4.6971576397e+00 
546700 4.6892405190e+00 -2.1335781426e-04 2.7119091636e+00 -4.6971644568e+00 2.7119091636e+00 4.6971644568e+00 
546800 4.6892405177e+00 -2.1324118303e-04 2.7119130973e+00 -4.6971712702e+00 2.7119130973e+00 4.6971712702e+00 
546900 4.6892405163e+00 -2.1312461541e-04 2.7119170289e+00 -4.6971780799e+00 2.7119170289e+00 4.6971780799e+00 
547000 4.6892405150e+00 -2.1300811137e-04 2.7119209583e+00 -4.6971848858e+00 2.7119209583e+00 4.6971848858e+00 
547100 4.6892405136e+00 -2.1289167088e-04 2.7119248855e+00 -4.6971916881e+00 2.7119248855e+00 4.6971916881e+00 
547200 4.6892405123e+00 -2.1277529390e-04 2.7119288106e+00 -4.6971984865e+00 2.7119288106e+00 4.6971984865e+00 
547300 4.6892405109e+00 -2.1265898040e-04 2.7119327336e+00 -4.6972052813e+00 2.7119327336e+00 4.6972052813e+00 
547400 4.6892405096e+00 -2.1254273034e-04 2.7119366544e+00 -4.6972120723e+00 2.7119366544e+00 4.6972120723e+00 
547500 4.6892405083e+00 -2.1242654369e-04 2.7119405730e+00 -4.6972188596e+00 2.7119405730e+00 4.6972188596e+00 
547600 4.6892405069e+00 -2.1231042042e-04 2.7119444895e+00 -4.6972256432e+00 2.7119444895e+00 4.6972256432e+00 
547700 4.6892405056e+00 -2.1219436049e-04 2.7119484039e+00 -4.6972324231e+00 2.7119484039e+00 4.6972324231e+00 
547800 4.6892405042e+00 -2.1207836387e-04 2.7119523161e+00 -4.6972391992e+00 2.7119523161e+00 4.6972391992e+00 
547900 4.6892405029e+00 -2.1196243053e-04 2.7119562262e+00 -4.6972459717e+00 2.7119562262e+00 4.6972459717e+00 
548000 4.6892405016e+00 -2.1184656043e-04 2.7119601341e+00 -4.6972527404e+00 2.7119601341e+00 4.6972527404e+00 
548100 4.6892405002e+00 -2.1173075353e-04 2.7119640399e+00 -4.6972595054e+00 2.7119640399e+00 4.6972595054e+00 
548200 4.6892404989e+00 -2.1161500980e-04 2.7119679435e+00 -4.6972662667e+00 2.7119679435e+00 4.6972662667e+00 
548300 4.6892404976e+00 -2.1149932922e-04 2.7119718450e+00 -4.6972730243e+00 2.7119718450e+00 4.6972730243e+00 
548400 4.6892404963e+00 -2.1138371174e-04 2.7119757444e+00 -4.6972797782e+00 2.7119757444e+00 4.6972797782e+00 
548500 4.6892404949e+00 -2.1126815734e-04 2.7119796416e+00 -4.6972865284e+00 2.7119796416e+00 4.6972865284e+00 
548600 4.6892404936e+00 -2.1115266597e-04 2.7119835367e+00 -4.6972932749e+00 2.7119835367e+00 4.6972932749e+00 
548700 4.6892404923e+00 -2.1103723760e-04 2.7119874297e+00 -4.6973000177e+00 2.7119874297e+00 4.6973000177e+00 
548800 4.6892404910e+00 -2.1092187221e-04 2.7119913205e+00 -4.6973067568e+00 2.7119913205e+00 4.6973067568e+00 
548900 4.6892404897e+00 -2.1080656975e-04 2.7119952092e+00 -4.6973134922e+00 2.7119952092e+00 4.6973134922e+00 
549000 4.6892404883e+00 -2.1069133020e-04 2.7119990958e+00 -4.6973202239e+00 2.7119990958e+00 4.6973202239e+00 
549100 4.6892404870e+00 -2.1057615352e-04 2.7120029802e+00 -4.6973269520e+00 2.7120029802e+00 4.6973269520e+00 
549200 4.6892404857e+00 -2.1046103967e-04 2.7120068625e+00 -4.6973336763e+00 2.7120068625e+00 4.6973336763e+00 
549300 4.6892404844e+00 -2.1034598863e-04 2.7120107427e+00 -4.6973403970e+00 2.7120107427e+00 4.6973403970e+00 
549400 4.6892404831e+00 -2.1023100035e-04 2.7120146207e+00 -4.6973471139e+00 2.7120146207e+00 4.6973471139e+00 
549500 4.6892404818e+00 -2.1011607481e-04 2.7120184966e+00 -4.6973538272e+00 2.7120184966e+00 4.6973538272e+00 
549600 4.6892404805e+00 -2.1000121197e-04 2.7120223704e+00 -4.6973605368e+00 2.7120223704e+00 4.6973605368e+00 
549700 4.6892404792e+00 -2.0988641180e-04 2.7120262421e+00 -4.6973672428e+00 2.7120262421e+00 4.6973672428e+00 
549800 4.6892404778e+00 -2.0977167426e-04 2.7120301117e+00 -4.6973739450e+00 2.7120301117e+00 4.6973739450e+00 
549900 4.6892404765e+00 -2.0965699932e-04 2.7120339791e+00 -4.6973806436e+00 2.7120339791e+00 4.6973806436e+00 
550000 4.6892404752e+00 -2.0954238695e-04 2.7120378444e+00 -4.6973873385e+00 2.7120378444e+00 4.6973873385e+00 
550100 4.6892404739e+00 -2.0942783712e-04 2.7120417076e+00 -4.6973940298e+00 2.7120417076e+00 4.6973940298e+00 
550200 4.6892404726e+00 -2.0931334978e-04 2.7120455687e+00 -4.6974007174e+00 2.7120455687e+00 4.6974007174e+00 
550300 4.6892404713e+00 -2.0919892492e-04 2.7120494276e+00 -4.6974074013e+00 2.7120494276e+00 4.6974074013e+00 
550400 4.6892404700e+00 -2.0908456248e-04 2.7120532845e+00 -4.6974140815e+00 2.7120532845e+00 4.6974140815e+00 
550500 4.6892404687e+00 -2.0897026245e-04 2.7120571392e+00 -4.6974207581e+00 2.7120571392e+00 4.6974207581e+00 
550600 4.6892404674e+00 -2.0885602478e-04 2.7120609918e+00 -4.6974274310e+00 2.7120609918e+00 4.6974274310e+00 
550700 4.6892404662e+00 -2.0874184944e-04 2.7120648423e+00 -4.6974341003e+00 2.7120648423e+00 4.6974341003e+00 
550800 4.6892404649e+00 -2.0862773641e-04 2.7120686907e+00 -4.6974407659e+00 2.7120686907e+00 4.6974407659e+00 
550900 4.6892404636e+00 -2.0851368564e-04 2.7120725370e+00 -4.6974474279e+00 2.7120725370e+00 4.6974474279e+00 
551000 4.6892404623e+00 -2.0839969710e-04 2.7120763812e+00 -4.6974540862e+00 2.7120763812e+00 4.6974540862e+00 
551100 4.6892404610e+00 -2.0828577077e-04 2.7120802232e+00 -4.6974607408e+00 2.7120802232e+00 4.6974607408e+00 
551200 4.6892404597e+00 -2.0817190660e-04 2.7120840632e+00 -4.6974673919e+00 2.7120840632e+00 4.6974673919e+00 
551300 4.6892404584e+00 -2.0805810456e-04 2.7120879011e+00 -4.6974740392e+00 2.7120879011e+00 4.6974740392e+00 
551400 4.6892404571e+00 -2.0794436462e-04 2.7120917368e+00 -4.6974806829e+00 2.7120917368e+00 4.6974806829e+00 
551500 4.6892404559e+00 -2.0783068675e-04 2.7120955705e+00 -4.6974873230e+00 2.7120955705e+00 4.6974873230e+00 
551600 4.6892404546e+00 -2.0771707092e-04 2.7120994020e+00 -4.6974939595e+00 2.7120994020e+00 4.6974939595e+00 
551700 4.6892404533e+00 -2.0760351708e-04 2.7121032315e+00 -4.6975005923e+00 2.7121032315e+00 4.6975005923e+00 
551800 4.6892404520e+00 -2.0749002521e-04 2.7121070588e+00 -4.6975072215e+00 2.7121070588e+00 4.6975072215e+00 
551900 4.6892404507e+00 -2.0737659527e-04 2.7121108841e+00 -4.6975138470e+00 2.7121108841e+00 4.6975138470e+00 
552000 4.6892404495e+00 -2.0726322724e-04 2.7121147072e+00 -4.6975204689e+00 2.7121147072e+00 4.6975204689e+00 
552100 4.6892404482e+00 -2.0714992107e-04 2.7121185283e+00 -4.6975270872e+00 2.7121185283e+00 4.6975270872e+00 
552200 4.6892404469e+00 -2.0703667673e-04 2.7121223473e+00 -4.6975337018e+00 2.7121223473e+00 4.6975337018e+00 
552300 4.6892404456e+00 -2.0692349420e-04 2.7121261642e+00 -4.6975403128e+00 2.7121261642e+00 4.6975403128e+00 
552400 4.6892404444e+00 -2.0681037343e-04 2.7121299789e+00 -4.6975469202e+00 2.7121299789e+00 4.6975469202e+00 
552500 4.6892404431e+00 -2.0669731440e-04 2.7121337916e+00 -4.6975535240e+00 2.7121337916e+00 4.6975535240e+00 
552600 4.6892404418e+00 -2.0658431707e-04 2.7121376022e+00 -4.6975601242e+00 2.7121376022e+00 4.6975601242e+00 
552700 4.6892404406e+00 -2.0647138141e-04 2.7121414108e+00 -4.6975667207e+00 2.7121414108e+00 4.6975667207e+00 
552800 4.6892404393e+00 -2.0635850738e-04 2.7121452172e+00 -4.6975733137e+00 2.7121452172e+00 4.6975733137e+00 
552900 4.6892404380e+00 -2.0624569496e-04 2.7121490215e+00 -4.6975799030e+00 2.7121490215e+00 4.6975799030e+00 
553000 4.6892404368e+00 -2.0613294410e-04 2.7121528238e+00 -4.6975864887e+00 2.7121528238e+00 4.6975864887e+00 
553100 4.6892404355e+00 -2.0602025478e-04 2.7121566239e+00 -4.6975930708e+00 2.7121566239e+00 4.6975930708e+00 
553200 4.6892404343e+00 -2.0590762697e-04 2.7121604220e+00 -4.6975996493e+00 2.7121604220e+00 4.6975996493e+00 
553300 4.6892404330e+00 -2.0579506062e-04 2.7121642180e+00 -4.6976062241e+00 2.7121642180e+00 4.6976062241e+00 
553400 4.6892404317e+00 -2.0568255572e-04 2.7121680120e+00 -4.6976127954e+00 2.7121680120e+00 4.6976127954e+00 
553500 4.6892404305e+00 -2.0557011221e-04 2.7121718038e+00 -4.6976193631e+00 2.7121718038e+00 4.6976193631e+00 
553600 4.6892404292e+00 -2.0545773008e-04 2.7121755936e+00 -4.6976259272e+00 2.7121755936e+00 4.6976259272e+00 
553700 4.6892404280e+00 -2.0534540929e-04 2.7121793813e+00 -4.6976324876e+00 2.7121793813e+00 4.6976324876e+00 
553800 4.6892404267e+00 -2.0523314980e-04 2.7121831669e+00 -4.6976390445e+00 2.7121831669e+00 4.6976390445e+00 
553900 4.6892404255e+00 -2.0512095159e-04 2.7121869504e+00 -4.6976455978e+00 2.7121869504e+00 4.6976455978e+00 
554000 4.6892404242e+00 -2.0500881461e-04 2.7121907319e+00 -4.6976521475e+00 2.7121907319e+00 4.6976521475e+00 
554100 4.6892404230e+00 -2.0489673885e-04 2.7121945113e+00 -4.6976586936e+00 2.7121945113e+00 4.6976586936e+00 
554200 4.6892404217e+00 -2.0478472425e-04 2.7121982886e+00 -4.6976652361e+00 2.7121982886e+00 4.6976652361e+00 
554300 4.6892404205e+00 -2.0467277080e-04 2.7122020639e+00 -4.6976717751e+00 2.7122020639e+00 4.6976717751e+00 
554400 4.6892404193e+00 -2.0456087846e-04 2.7122058371e+00 -4.6976783104e+00 2.7122058371e+00 4.6976783104e+00 
554500 4.6892404180e+00 -2.0444904719e-04 2.7122096082e+00 -4.6976848422e+00 2.7122096082e+00 4.6976848422e+00 
554600 4.6892404168e+00 -2.0433727697e-04 2.7122133772e+00 -4.6976913704e+00 2.7122133772e+00 4.6976913704e+00 
554700 4.6892404155e+00 -2.0422556775e-04 2.7122171442e+00 -4.6976978950e+00 2.7122171442e+00 4.6976978950e+00 
554800 4.6892404143e+00 -2.0411391952e-04 2.7122209091e+00 -4.6977044160e+00 2.7122209091e+00 4.6977044160e+00 
554900 4.6892404131e+00 -2.0400233223e-04 2.7122246720e+00 -4.6977109335e+00 2.7122246720e+00 4.6977109335e+00 
555000 4.6892404118e+00 -2.0389080585e-04 2.7122284328e+00 -4.6977174473e+00 2.7122284328e+00 4.6977174473e+00 
555100 4.6892404106e+00 -2.0377934035e-04 2.7122321915e+00 -4.6977239577e+00 2.7122321915e+00 4.6977239577e+00 
555200 4.6892404094e+00 -2.0366793569e-04 2.7122359482e+00 -4.6977304644e+00 2.7122359482e+00 4.6977304644e+00 
555300 4.6892404081e+00 -2.0355659185e-04 2.7122397028e+00 -4.6977369676e+00 2.7122397028e+00 4.6977369676e+00 
555400 4.6892404069e+00 -2.0344530880e-04 2.7122434554e+00 -4.6977434672e+00 2.7122434554e+00 4.6977434672e+00 
555500 4.6892404057e+00 -2.0333408649e-04 2.7122472059e+00 -4.6977499633e+00 2.7122472059e+00 4.6977499633e+00 
555600 4.6892404044e+00 -2.0322292490e-04 2.7122509543e+00 -4.6977564558e+00 2.7122509543e+00 4.6977564558e+00 
555700 4.6892404032e+00 -2.0311182399e-04 2.7122547007e+00 -4.6977629447e+00 2.7122547007e+00 4.6977629447e+00 
555800 4.6892404020e+00 -2.0300078373e-04 2.7122584450e+00 -4.6977694301e+00 2.7122584450e+00 4.6977694301e+00 
555900 4.6892404008e+00 -2.0288980409e-04 2.7122621873e+00 -4.6977759119e+00 2.7122621873e+00 4.6977759119e+00 
556000 4.6892403996e+00 -2.0277888504e-04 2.7122659276e+00 -4.6977823902e+00 2.7122659276e+00 4.6977823902e+00 
556100 4.6892403983e+00 -2.0266802654e-04 2.7122696657e+00 -4.6977888649e+00 2.7122696657e+00 4.6977888649e+00 
556200 4.6892403971e+00 -2.0255722856e-04 2.7122734019e+00 -4.6977953361e+00 2.7122734019e+00 4.6977953361e+00 
556300 4.6892403959e+00 -2.0244649107e-04 2.7122771360e+00 -4.6978018037e+00 2.7122771360e+00 4.6978018037e+00 
556400 4.6892403947e+00 -2.0233581404e-04 2.7122808680e+00 -4.6978082678e+00 2.7122808680e+00 4.6978082678e+00 
556500 4.6892403935e+00 -2.0222519743e-04 2.7122845980e+00 -4.6978147283e+00 2.7122845980e+00 4.6978147283e+00 
556600 4.6892403922e+00 -2.0211464121e-04 2.7122883260e+00 -4.6978211853e+00 2.7122883260e+00 4.6978211853e+00 
556700 4.6892403910e+00 -2.0200414535e-04 2.7122920519e+00 -4.6978276388e+00 2.7122920519e+00 4.6978276388e+00 
556800 4.6892403898e+00 -2.0189370981e-04 2.7122957757e+00 -4.6978340887e+00 2.7122957757e+00 4.6978340887e+00 
556900 4.6892403886e+00 -2.0178333457e-04 2.7122994975e+00 -4.6978405351e+00 2.7122994975e+00 4.6978405351e+00 
557000 4.6892403874e+00 -2.0167301959e-04 2.7123032173e+00 -4.6978469780e+00 2.7123032173e+00 4.6978469780e+00 
557100 4.6892403862e+00 -2.0156276484e-04 2.7123069351e+00 -4.6978534173e+00 2.7123069351e+00 4.6978534173e+00 
557200 4.6892403850e+00 -2.0145257029e-04 2.7123106508e+00 -4.6978598531e+00 2.7123106508e+00 4.6978598531e+00 
557300 4.6892403838e+00 -2.0134243590e-04 2.7123143645e+00 -4.6978662853e+00 2.7123143645e+00 4.6978662853e+00 
557400 4.6892403826e+00 -2.0123236165e-04 2.7123180761e+00 -4.6978727141e+00 2.7123180761e+00 4.6978727141e+00 
557500 4.6892403814e+00 -2.0112234749e-04 2.7123217857e+00 -4.6978791393e+00 2.7123217857e+00 4.6978791393e+00 
557600 4.6892403802e+00 -2.0101239340e-04 2.7123254933e+00 -4.6978855610e+00 2.7123254933e+00 4.6978855610e+00 
557700 4.6892403790e+00 -2.0090249934e-04 2.7123291988e+00 -4.6978919792e+00 2.7123291988e+00 4.6978919792e+00 
557800 4.6892403778e+00 -2.0079266529e-04 2.7123329023e+00 -4.6978983938e+00 2.7123329023e+00 4.6978983938e+00 
557900 4.6892403766e+00 -2.0068289121e-04 2.7123366038e+00 -4.6979048050e+00 2.7123366038e+00 4.6979048050e+00 
558000 4.6892403754e+00 -2.0057317707e-04 2.7123403032e+00 -4.6979112126e+00 2.7123403032e+00 4.6979112126e+00 
558100 4.6892403742e+00 -2.0046352284e-04 2.7123440007e+00 -4.6979176167e+00 2.7123440007e+00 4.6979176167e+00 
558200 4.6892403730e+00 -2.0035392847e-04 2.7123476960e+00 -4.6979240173e+00 2.7123476960e+00 4.6979240173e+00 
558300 4.6892403718e+00 -2.0024439396e-04 2.7123513894e+00 -4.6979304144e+00 2.7123513894e+00 4.6979304144e+00 
558400 4.6892403706e+00 -2.0013491925e-04 2.7123550808e+00 -4.6979368080e+00 2.7123550808e+00 4.6979368080e+00 
558500 4.6892403694e+00 -2.0002550431e-04 2.7123587701e+00 -4.6979431981e+00 2.7123587701e+00 4.6979431981e+00 
558600 4.6892403683e+00 -1.9991614913e-04 2.7123624574e+00 -4.6979495847e+00 2.7123624574e+00 4.6979495847e+00 
558700 4.6892403671e+00 -1.9980685365e-04 2.7123661427e+00 -4.6979559678e+00 2.7123661427e+00 4.6979559678e+00 
558800 4.6892403659e+00 -1.9969761786e-04 2.7123698259e+00 -4.6979623474e+00 2.7123698259e+00 4.6979623474e+00 
558900 4.6892403647e+00 -1.9958844172e-04 2.7123735072e+00 -4.6979687235e+00 2.7123735072e+00 4.6979687235e+00 
559000 4.6892403635e+00 -1.9947932519e-04 2.7123771864e+00 -4.6979750961e+00 2.7123771864e+00 4.6979750961e+00 
559100 4.6892403623e+00 -1.9937026825e-04 2.7123808636e+00 -4.6979814652e+00 2.7123808636e+00 4.6979814652e+00 
559200 4.6892403612e+00 -1.9926127087e-04 2.7123845388e+00 -4.6979878308e+00 2.7123845388e+00 4.6979878308e+00 
559300 4.6892403600e+00 -1.9915233300e-04 2.7123882119e+00 -4.6979941929e+00 2.7123882119e+00 4.6979941929e+00 
559400 4.6892403588e+00 -1.9904345462e-04 2.7123918831e+00 -4.6980005516e+00 2.7123918831e+00 4.6980005516e+00 
559500 4.6892403576e+00 -1.9893463571e-04 2.7123955523e+00 -4.6980069067e+00 2.7123955523e+00 4.6980069067e+00 
559600 4.6892403564e+00 -1.9882587621e-04 2.7123992194e+00 -4.6980132584e+00 2.7123992194e+00 4.6980132584e+00 
559700 4.6892403553e+00 -1.9871717611e-04 2.7124028845e+00 -4.6980196066e+00 2.7124028845e+00 4.6980196066e+00 
559800 4.6892403541e+00 -1.9860853537e-04 2.7124065477e+00 -4.6980259513e+00 2.7124065477e+00 4.6980259513e+00 
559900 4.6892403529e+00 -1.9849995396e-04 2.7124102088e+00 -4.6980322925e+00 2.7124102088e+00 4.6980322925e+00 
560000 4.6892403518e+00 -1.9839143185e-04 2.7124138679e+00 -4.6980386303e+00 2.7124138679e+00 4.6980386303e+00 
560100 4.6892403506e+00 -1.9828296900e-04 2.7124175250e+00 -4.6980449646e+00 2.7124175250e+00 4.6980449646e+00 
560200 4.6892403494e+00 -1.9817456539e-04 2.7124211801e+00 -4.6980512954e+00 2.7124211801e+00 4.6980512954e+00 
560300 4.6892403483e+00 -1.9806622097e-04 2.7124248332e+00 -4.6980576228e+00 2.7124248332e+00 4.6980576228e+00 
560400 4.6892403471e+00 -1.9795793573e-04 2.7124284843e+00 -4.6980639466e+00 2.7124284843e+00 4.6980639466e+00 
560500 4.6892403459e+00 -1.9784970963e-04 2.7124321333e+00 -4.6980702670e+00 2.7124321333e+00 4.6980702670e+00 
560600 4.6892403448e+00 -1.9774154263e-04 2.7124357804e+00 -4.6980765840e+00 2.7124357804e+00 4.6980765840e+00 
560700 4.6892403436e+00 -1.9763343471e-04 2.7124394255e+00 -4.6980828975e+00 2.7124394255e+00 4.6980828975e+00 
560800 4.6892403424e+00 -1.9752538583e-04 2.7124430686e+00 -4.6980892075e+00 2.7124430686e+00 4.6980892075e+00 
560900 4.6892403413e+00 -1.9741739596e-04 2.7124467097e+00 -4.6980955141e+00 2.7124467097e+00 4.6980955141e+00 
561000 4.6892403401e+00 -1.9730946507e-04 2.7124503488e+00 -4.6981018172e+00 2.7124503488e+00 4.6981018172e+00 
561100 4.6892403390e+00 -1.9720159313e-04 2.7124539859e+00 -4.6981081168e+00 2.7124539859e+00 4.6981081168e+00 
561200 4.6892403378e+00 -1.9709378010e-04 2.7124576211e+00 -4.6981144130e+00 2.7124576211e+00 4.6981144130e+00 
561300 4.6892403367e+00 -1.9698602596e-04 2.7124612542e+00 -4.6981207058e+00 2.7124612542e+00 4.6981207058e+00 
561400 4.6892403355e+00 -1.9687833067e-04 2.7124648853e+00 -4.6981269951e+00 2.7124648853e+00 4.6981269951e+00 
561500 4.6892403344e+00 -1.9677069420e-04 2.7124685144e+00 -4.6981332810e+00 2.7124685144e+00 4.6981332810e+00 
561600 4.6892403332e+00 -1.9666311652e-04 2.7124721416e+00 -4.6981395634e+00 2.7124721416e+00 4.6981395634e+00 
561700 4.6892403321e+00 -1.9655559760e-04 2.7124757668e+00 -4.6981458423e+00 2.7124757668e+00 4.6981458423e+00 
561800 4.6892403309e+00 -1.9644813741e-04 2.7124793899e+00 -4.6981521179e+00 2.7124793899e+00 4.6981521179e+00 
561900 4.6892403298e+00 -1.9634073591e-04 2.7124830111e+00 -4.6981583900e+00 2.7124830111e+00 4.6981583900e+00 
562000 4.6892403286e+00 -1.9623339307e-04 2.7124866303e+00 -4.6981646586e+00 2.7124866303e+00 4.6981646586e+00 
562100 4.6892403275e+00 -1.9612610886e-04 2.7124902476e+00 -4.6981709238e+00 2.7124902476e+00 4.6981709238e+00 
562200 4.6892403263e+00 -1.9601888325e-04 2.7124938628e+00 -4.6981771856e+00 2.7124938628e+00 4.6981771856e+00 
562300 4.6892403252e+00 -1.9591171621e-04 2.7124974761e+00 -4.6981834440e+00 2.7124974761e+00 4.6981834440e+00 
562400 4.6892403241e+00 -1.9580460771e-04 2.7125010873e+00 -4.6981896989e+00 2.7125010873e+00 4.6981896989e+00 
562500 4.6892403229e+00 -1.9569755771e-04 2.7125046966e+00 -4.6981959504e+00 2.7125046966e+00 4.6981959504e+00 
562600 4.6892403218e+00 -1.9559056619e-04 2.7125083040e+00 -4.6982021984e+00 2.7125083040e+00 4.6982021984e+00 
562700 4.6892403207e+00 -1.9548363311e-04 2.7125119093e+00 -4.6982084431e+00 2.7125119093e+00 4.6982084431e+00 
562800 4.6892403195e+00 -1.9537675844e-04 2.7125155127e+00 -4.6982146843e+00 2.7125155127e+00 4.6982146843e+00 
562900 4.6892403184e+00 -1.9526994214e-04 2.7125191141e+00 -4.6982209221e+00 2.7125191141e+00 4.6982209221e+00 
563000 4.6892403173e+00 -1.9516318420e-04 2.7125227135e+00 -4.6982271565e+00 2.7125227135e+00 4.6982271565e+00 
563100 4.6892403161e+00 -1.9505648457e-04 2.7125263110e+00 -4.6982333874e+00 2.7125263110e+00 4.6982333874e+00 
563200 4.6892403150e+00 -1.9494984323e-04 2.7125299064e+00 -4.6982396150e+00 2.7125299064e+00 4.6982396150e+00 
563300 4.6892403139e+00 -1.9484326014e-04 2.7125334999e+00 -4.6982458391e+00 2.7125334999e+00 4.6982458391e+00 
563400 4.6892403127e+00 -1.9473673527e-04 2.7125370915e+00 -4.6982520598e+00 2.7125370915e+00 4.6982520598e+00 
563500 4.6892403116e+00 -1.9463026860e-04 2.7125406810e+00 -4.6982582772e+00 2.7125406810e+00 4.6982582772e+00 
563600 4.6892403105e+00 -1.9452386008e-04 2.7125442686e+00 -4.6982644911e+00 2.7125442686e+00 4.6982644911e+00 
563700 4.6892403094e+00 -1.9441750969e-04 2.7125478543e+00 -4.6982707016e+00 2.7125478543e+00 4.6982707016e+00 
563800 4.6892403082e+00 -1.9431121740e-04 2.7125514380e+00 -4.6982769087e+00 2.7125514380e+00 4.6982769087e+00 
563900 4.6892403071e+00 -1.9420498318e-04 2.7125550197e+00 -4.6982831124e+00 2.7125550197e+00 4.6982831124e+00 
564000 4.6892403060e+00 -1.9409880699e-04 2.7125585994e+00 -4.6982893127e+00 2.7125585994e+00 4.6982893127e+00 
564100 4.6892403049e+00 -1.9399268880e-04 2.7125621772e+00 -4.6982955096e+00 2.7125621772e+00 4.6982955096e+00 
564200 4.6892403038e+00 -1.9388662858e-04 2.7125657530e+00 -4.6983017031e+00 2.7125657530e+00 4.6983017031e+00 
564300 4.6892403026e+00 -1.9378062631e-04 2.7125693269e+00 -4.6983078932e+00 2.7125693269e+00 4.6983078932e+00 
564400 4.6892403015e+00 -1.9367468194e-04 2.7125728988e+00 -4.6983140799e+00 2.7125728988e+00 4.6983140799e+00 
564500 4.6892403004e+00 -1.9356879546e-04 2.7125764687e+00 -4.6983202632e+00 2.7125764687e+00 4.6983202632e+00 
564600 4.6892402993e+00 -1.9346296682e-04 2.7125800367e+00 -4.6983264432e+00 2.7125800367e+00 4.6983264432e+00 
564700 4.6892402982e+00 -1.9335719599e-04 2.7125836027e+00 -4.6983326197e+00 2.7125836027e+00 4.6983326197e+00 
564800 4.6892402971e+00 -1.9325148295e-04 2.7125871668e+00 -4.6983387929e+00 2.7125871668e+00 4.6983387929e+00 
564900 4.6892402960e+00 -1.9314582767e-04 2.7125907289e+00 -4.6983449627e+00 2.7125907289e+00 4.6983449627e+00 
565000 4.6892402949e+00 -1.9304023010e-04 2.7125942891e+00 -4.6983511291e+00 2.7125942891e+00 4.6983511291e+00 
565100 4.6892402938e+00 -1.9293469023e-04 2.7125978473e+00 -4.6983572921e+00 2.7125978473e+00 4.6983572921e+00 
565200 4.6892402926e+00 -1.9282920802e-04 2.7126014036e+00 -4.6983634517e+00 2.7126014036e+00 4.6983634517e+00 
565300 4.6892402915e+00 -1.9272378344e-04 2.7126049579e+00 -4.6983696080e+00 2.7126049579e+00 4.6983696080e+00 
565400 4.6892402904e+00 -1.9261841646e-04 2.7126085103e+00 -4.6983757609e+00 2.7126085103e+00 4.6983757609e+00 
565500 4.6892402893e+00 -1.9251310704e-04 2.7126120607e+00 -4.6983819104e+00 2.7126120607e+00 4.6983819104e+00 
565600 4.6892402882e+00 -1.9240785516e-04 2.7126156092e+00 -4.6983880566e+00 2.7126156092e+00 4.6983880566e+00 
565700 4.6892402871e+00 -1.9230266079e-04 2.7126191558e+00 -4.6983941994e+00 2.7126191558e+00 4.6983941994e+00 
565800 4.6892402860e+00 -1.9219752389e-04 2.7126227003e+00 -4.6984003388e+00 2.7126227003e+00 4.6984003388e+00 
565900 4.6892402849e+00 -1.9209244443e-04 2.7126262430e+00 -4.6984064748e+00 2.7126262430e+00 4.6984064748e+00 
566000 4.6892402838e+00 -1.9198742239e-04 2.7126297837e+00 -4.6984126075e+00 2.7126297837e+00 4.6984126075e+00 
566100 4.6892402828e+00 -1.9188245772e-04 2.7126333225e+00 -4.6984187368e+00 2.7126333225e+00 4.6984187368e+00 
566200 4.6892402817e+00 -1.9177755041e-04 2.7126368593e+00 -4.6984248628e+00 2.7126368593e+00 4.6984248628e+00 
566300 4.6892402806e+00 -1.9167270042e-04 2.7126403942e+00 -4.6984309854e+00 2.7126403942e+00 4.6984309854e+00 
566400 4.6892402795e+00 -1.9156790771e-04 2.7126439272e+00 -4.6984371047e+00 2.7126439272e+00 4.6984371047e+00 
566500 4.6892402784e+00 -1.9146317227e-04 2.7126474582e+00 -4.6984432206e+00 2.7126474582e+00 4.6984432206e+00 
566600 4.6892402773e+00 -1.9135849405e-04 2.7126509873e+00 -4.6984493331e+00 2.7126509873e+00 4.6984493331e+00 
566700 4.6892402762e+00 -1.9125387302e-04 2.7126545144e+00 -4.6984554423e+00 2.7126545144e+00 4.6984554423e+00 
566800 4.6892402751e+00 -1.9114930916e-04 2.7126580396e+00 -4.6984615482e+00 2.7126580396e+00 4.6984615482e+00 
566900 4.6892402740e+00 -1.9104480244e-04 2.7126615629e+00 -4.6984676507e+00 2.7126615629e+00 4.6984676507e+00 
567000 4.6892402729e+00 -1.9094035282e-04 2.7126650843e+00 -4.6984737499e+00 2.7126650843e+00 4.6984737499e+00 
567100 4.6892402719e+00 -1.9083596027e-04 2.7126686037e+00 -4.6984798457e+00 2.7126686037e+00 4.6984798457e+00 
567200 4.6892402708e+00 -1.9073162477e-04 2.7126721212e+00 -4.6984859382e+00 2.7126721212e+00 4.6984859382e+00 
567300 4.6892402697e+00 -1.9062734627e-04 2.7126756368e+00 -4.6984920273e+00 2.7126756368e+00 4.6984920273e+00 
567400 4.6892402686e+00 -1.9052312476e-04 2.7126791504e+00 -4.6984981131e+00 2.7126791504e+00 4.6984981131e+00 
567500 4.6892402675e+00 -1.9041896020e-04 2.7126826621e+00 -4.6985041956e+00 2.7126826621e+00 4.6985041956e+00 
567600 4.6892402665e+00 -1.9031485255e-04 2.7126861719e+00 -4.6985102747e+00 2.7126861719e+00 4.6985102747e+00 
567700 4.6892402654e+00 -1.9021080180e-04 2.7126896798e+00 -4.6985163505e+00 2.7126896798e+00 4.6985163505e+00 
567800 4.6892402643e+00 -1.9010680790e-04 2.7126931857e+00 -4.6985224230e+00 2.7126931857e+00 4.6985224230e+00 
567900 4.6892402632e+00 -1.9000287083e-04 2.7126966897e+00 -4.6985284922e+00 2.7126966897e+00 4.6985284922e+00 
568000 4.6892402622e+00 -1.8989899056e-04 2.7127001918e+00 -4.6985345580e+00 2.7127001918e+00 4.6985345580e+00 
568100 4.6892402611e+00 -1.8979516705e-04 2.7127036920e+00 -4.6985406205e+00 2.7127036920e+00 4.6985406205e+00 
568200 4.6892402600e+00 -1.8969140027e-04 2.7127071903e+00 -4.6985466797e+00 2.7127071903e+00 4.6985466797e+00 
568300 4.6892402590e+00 -1.8958769021e-04 2.7127106866e+00 -4.6985527355e+00 2.7127106866e+00 4.6985527355e+00 
568400 4.6892402579e+00 -1.8948403681e-04 2.7127141811e+00 -4.6985587880e+00 2.7127141811e+00 4.6985587880e+00 
568500 4.6892402568e+00 -1.8938044006e-04 2.7127176736e+00 -4.6985648373e+00 2.7127176736e+00 4.6985648373e+00 
568600 4.6892402558e+00 -1.8927689992e-04 2.7127211642e+00 -4.6985708832e+00 2.7127211642e+00 4.6985708832e+00 
568700 4.6892402547e+00 -1.8917341637e-04 2.7127246529e+00 -4.6985769258e+00 2.7127246529e+00 4.6985769258e+00 
568800 4.6892402536e+00 -1.8906998936e-04 2.7127281397e+00 -4.6985829650e+00 2.7127281397e+00 4.6985829650e+00 
568900 4.6892402526e+00 -1.8896661888e-04 2.7127316245e+00 -4.6985890010e+00 2.7127316245e+00 4.6985890010e+00 
569000 4.6892402515e+00 -1.8886330489e-04 2.7127351075e+00 -4.6985950337e+00 2.7127351075e+00 4.6985950337e+00 
569100 4.6892402504e+00 -1.8876004736e-04 2.7127385886e+00 -4.6986010630e+00 2.7127385886e+00 4.6986010630e+00 
569200 4.6892402494e+00 -1.8865684626e-04 2.7127420677e+00 -4.6986070891e+00 2.7127420677e+00 4.6986070891e+00 
569300 4.6892402483e+00 -1.8855370156e-04 2.7127455449e+00 -4.6986131118e+00 2.7127455449e+00 4.6986131118e+00 
569400 4.6892402473e+00 -1.8845061323e-04 2.7127490203e+00 -4.6986191313e+00 2.7127490203e+00 4.6986191313e+00 
569500 4.6892402462e+00 -1.8834758123e-04 2.7127524937e+00 -4.6986251474e+00 2.7127524937e+00 4.6986251474e+00 
569600 4.6892402452e+00 -1.8824460555e-04 2.7127559652e+00 -4.6986311603e+00 2.7127559652e+00 4.6986311603e+00 
569700 4.6892402441e+00 -1.8814168614e-04 2.7127594348e+00 -4.6986371698e+00 2.7127594348e+00 4.6986371698e+00 
569800 4.6892402431e+00 -1.8803882298e-04 2.7127629025e+00 -4.6986431761e+00 2.7127629025e+00 4.6986431761e+00 
569900 4.6892402420e+00 -1.8793601604e-04 2.7127663684e+00 -4.6986491791e+00 2.7127663684e+00 4.6986491791e+00 
570000 4.6892402410e+00 -1.8783326529e-04 2.7127698323e+00 -4.6986551788e+00 2.7127698323e+00 4.6986551788e+00 
570100 4.6892402399e+00 -1.8773057069e-04 2.7127732943e+00 -4.6986611752e+00 2.7127732943e+00 4.6986611752e+00 
570200 4.6892402389e+00 -1.8762793221e-04 2.7127767544e+00 -4.6986671683e+00 2.7127767544e+00 4.6986671683e+00 
570300 4.6892402378e+00 -1.8752534984e-04 2.7127802127e+00 -4.6986731581e+00 2.7127802127e+00 4.6986731581e+00 
570400 4.6892402368e+00 -1.8742282353e-04 2.7127836690e+00 -4.6986791446e+00 2.7127836690e+00 4.6986791446e+00 
570500 4.6892402357e+00 -1.8732035325e-04 2.7127871234e+00 -4.6986851279e+00 2.7127871234e+00 4.6986851279e+00 
570600 4.6892402347e+00 -1.8721793898e-04 2.7127905760e+00 -4.6986911079e+00 2.7127905760e+00 4.6986911079e+00 
570700 4.6892402336e+00 -1.8711558069e-04 2.7127940266e+00 -4.6986970846e+00 2.7127940266e+00 4.6986970846e+00 
570800 4.6892402326e+00 -1.8701327833e-04 2.7127974754e+00 -4.6987030580e+00 2.7127974754e+00 4.6987030580e+00 
570900 4.6892402316e+00 -1.8691103190e-04 2.7128009223e+00 -4.6987090282e+00 2.7128009223e+00 4.6987090282e+00 
571000 4.6892402305e+00 -1.8680884135e-04 2.7128043672e+00 -4.6987149951e+00 2.7128043672e+00 4.6987149951e+00 
571100 4.6892402295e+00 -1.8670670665e-04 2.7128078103e+00 -4.6987209587e+00 2.7128078103e+00 4.6987209587e+00 
571200 4.6892402285e+00 -1.8660462778e-04 2.7128112515e+00 -4.6987269190e+00 2.7128112515e+00 4.6987269190e+00 
571300 4.6892402274e+00 -1.8650260470e-04 2.7128146909e+00 -4.6987328761e+00 2.7128146909e+00 4.6987328761e+00 
571400 4.6892402264e+00 -1.8640063738e-04 2.7128181283e+00 -4.6987388299e+00 2.7128181283e+00 4.6987388299e+00 
571500 4.6892402254e+00 -1.8629872580e-04 2.7128215639e+00 -4.6987447805e+00 2.7128215639e+00 4.6987447805e+00 
571600 4.6892402243e+00 -1.8619686992e-04 2.7128249975e+00 -4.6987507278e+00 2.7128249975e+00 4.6987507278e+00 
571700 4.6892402233e+00 -1.8609506971e-04 2.7128284293e+00 -4.6987566718e+00 2.7128284293e+00 4.6987566718e+00 
571800 4.6892402223e+00 -1.8599332515e-04 2.7128318592e+00 -4.6987626126e+00 2.7128318592e+00 4.6987626126e+00 
571900 4.6892402212e+00 -1.8589163620e-04 2.7128352873e+00 -4.6987685501e+00 2.7128352873e+00 4.6987685501e+00 
572000 4.6892402202e+00 -1.8579000284e-04 2.7128387134e+00 -4.6987744844e+00 2.7128387134e+00 4.6987744844e+00 
572100 4.6892402192e+00 -1.8568842503e-04 2.7128421377e+00 -4.6987804154e+00 2.7128421377e+00 4.6987804154e+00 
572200 4.6892402182e+00 -1.8558690274e-04 2.7128455601e+00 -4.6987863432e+00 2.7128455601e+00 4.6987863432e+00 
572300 4.6892402171e+00 -1.8548543594e-04 2.7128489806e+00 -4.6987922677e+00 2.7128489806e+00 4.6987922677e+00 
572400 4.6892402161e+00 -1.8538402461e-04 2.7128523993e+00 -4.6987981889e+00 2.7128523993e+00 4.6987981889e+00 
572500 4.6892402151e+00 -1.8528266872e-04 2.7128558160e+00 -4.6988041070e+00 2.7128558160e+00 4.6988041070e+00 
572600 4.6892402141e+00 -1.8518136822e-04 2.7128592309e+00 -4.6988100217e+00 2.7128592309e+00 4.6988100217e+00 
572700 4.6892402130e+00 -1.8508012310e-04 2.7128626440e+00 -4.6988159333e+00 2.7128626440e+00 4.6988159333e+00 
572800 4.6892402120e+00 -1.8497893332e-04 2.7128660551e+00 -4.6988218416e+00 2.7128660551e+00 4.6988218416e+00 
572900 4.6892402110e+00 -1.8487779886e-04 2.7128694644e+00 -4.6988277467e+00 2.7128694644e+00 4.6988277467e+00 
573000 4.6892402100e+00 -1.8477671968e-04 2.7128728718e+00 -4.6988336485e+00 2.7128728718e+00 4.6988336485e+00 
573100 4.6892402090e+00 -1.8467569575e-04 2.7128762774e+00 -4.6988395471e+00 2.7128762774e+00 4.6988395471e+00 
573200 4.6892402080e+00 -1.8457472705e-04 2.7128796811e+00 -4.6988454424e+00 2.7128796811e+00 4.6988454424e+00 
573300 4.6892402070e+00 -1.8447381355e-04 2.7128830829e+00 -4.6988513346e+00 2.7128830829e+00 4.6988513346e+00 
573400 4.6892402059e+00 -1.8437295520e-04 2.7128864829e+00 -4.6988572235e+00 2.7128864829e+00 4.6988572235e+00 
573500 4.6892402049e+00 -1.8427215200e-04 2.7128898810e+00 -4.6988631092e+00 2.7128898810e+00 4.6988631092e+00 
573600 4.6892402039e+00 -1.8417140389e-04 2.7128932772e+00 -4.6988689916e+00 2.7128932772e+00 4.6988689916e+00 
573700 4.6892402029e+00 -1.8407071087e-04 2.7128966716e+00 -4.6988748708e+00 2.7128966716e+00 4.6988748708e+00 
573800 4.6892402019e+00 -1.8397007288e-04 2.7129000641e+00 -4.6988807468e+00 2.7129000641e+00 4.6988807468e+00 
573900 4.6892402009e+00 -1.8386948992e-04 2.7129034547e+00 -4.6988866196e+00 2.7129034547e+00 4.6988866196e+00 
574000 4.6892401999e+00 -1.8376896194e-04 2.7129068435e+00 -4.6988924892e+00 2.7129068435e+00 4.6988924892e+00 
574100 4.6892401989e+00 -1.8366848891e-04 2.7129102305e+00 -4.6988983555e+00 2.7129102305e+00 4.6988983555e+00 
574200 4.6892401979e+00 -1.8356807082e-04 2.7129136155e+00 -4.6989042187e+00 2.7129136155e+00 4.6989042187e+00 
574300 4.6892401969e+00 -1.8346770762e-04 2.7129169988e+00 -4.6989100786e+00 2.7129169988e+00 4.6989100786e+00 
574400 4.6892401959e+00 -1.8336739928e-04 2.7129203801e+00 -4.6989159353e+00 2.7129203801e+00 4.6989159353e+00 
574500 4.6892401949e+00 -1.8326714579e-04 2.7129237597e+00 -4.6989217888e+00 2.7129237597e+00 4.6989217888e+00 
574600 4.6892401939e+00 -1.8316694710e-04 2.7129271373e+00 -4.6989276391e+00 2.7129271373e+00 4.6989276391e+00 
574700 4.6892401929e+00 -1.8306680319e-04 2.7129305132e+00 -4.6989334862e+00 2.7129305132e+00 4.6989334862e+00 
574800 4.6892401919e+00 -1.8296671403e-04 2.7129338871e+00 -4.6989393301e+00 2.7129338871e+00 4.6989393301e+00 
574900 4.6892401909e+00 -1.8286667959e-04 2.7129372592e+00 -4.6989451708e+00 2.7129372592e+00 4.6989451708e+00 
575000 4.6892401899e+00 -1.8276669983e-04 2.7129406295e+00 -4.6989510082e+00 2.7129406295e+00 4.6989510082e+00 
575100 4.6892401889e+00 -1.8266677474e-04 2.7129439979e+00 -4.6989568425e+00 2.7129439979e+00 4.6989568425e+00 
575200 4.6892401879e+00 -1.8256690428e-04 2.7129473645e+00 -4.6989626736e+00 2.7129473645e+00 4.6989626736e+00 
575300 4.6892401869e+00 -1.8246708842e-04 2.7129507293e+00 -4.6989685015e+00 2.7129507293e+00 4.6989685015e+00 
575400 4.6892401859e+00 -1.8236732713e-04 2.7129540921e+00 -4.6989743262e+00 2.7129540921e+00 4.6989743262e+00 
575500 4.6892401850e+00 -1.8226762038e-04 2.7129574532e+00 -4.6989801477e+00 2.7129574532e+00 4.6989801477e+00 
575600 4.6892401840e+00 -1.8216796815e-04 2.7129608124e+00 -4.6989859660e+00 2.7129608124e+00 4.6989859660e+00 
575700 4.6892401830e+00 -1.8206837040e-04 2.7129641698e+00 -4.6989917811e+00 2.7129641698e+00 4.6989917811e+00 
575800 4.6892401820e+00 -1.8196882710e-04 2.7129675253e+00 -4.6989975931e+00 2.7129675253e+00 4.6989975931e+00 
575900 4.6892401810e+00 -1.8186933822e-04 2.7129708790e+00 -4.6990034018e+00 2.7129708790e+00 4.6990034018e+00 
576000 4.6892401800e+00 -1.8176990374e-04 2.7129742308e+00 -4.6990092074e+00 2.7129742308e+00 4.6990092074e+00 
576100 4.6892401790e+00 -1.8167052363e-04 2.7129775808e+00 -4.6990150098e+00 2.7129775808e+00 4.6990150098e+00 
576200 4.6892401781e+00 -1.8157119785e-04 2.7129809290e+00 -4.6990208090e+00 2.7129809290e+00 4.6990208090e+00 
576300 4.6892401771e+00 -1.8147192638e-04 2.7129842754e+00 -4.6990266051e+00 2.7129842754e+00 4.6990266051e+00 
576400 4.6892401761e+00 -1.8137270918e-04 2.7129876199e+00 -4.6990323979e+00 2.7129876199e+00 4.6990323979e+00 
576500 4.6892401751e+00 -1.8127354623e-04 2.7129909625e+00 -4.6990381876e+00 2.7129909625e+00 4.6990381876e+00 
576600 4.6892401741e+00 -1.8117443750e-04 2.7129943034e+00 -4.6990439741e+00 2.7129943034e+00 4.6990439741e+00 
576700 4.6892401732e+00 -1.8107538296e-04 2.7129976424e+00 -4.6990497574e+00 2.7129976424e+00 4.6990497574e+00 
576800 4.6892401722e+00 -1.8097638258e-04 2.7130009796e+00 -4.6990555376e+00 2.7130009796e+00 4.6990555376e+00 
576900 4.6892401712e+00 -1.8087743633e-04 2.7130043149e+00 -4.6990613146e+00 2.7130043149e+00 4.6990613146e+00 
577000 4.6892401702e+00 -1.8077854418e-04 2.7130076485e+00 -4.6990670885e+00 2.7130076485e+00 4.6990670885e+00 
577100 4.6892401693e+00 -1.8067970611e-04 2.7130109802e+00 -4.6990728591e+00 2.7130109802e+00 4.6990728591e+00 
577200 4.6892401683e+00 -1.8058092207e-04 2.7130143100e+00 -4.6990786266e+00 2.7130143100e+00 4.6990786266e+00 
577300 4.6892401673e+00 -1.8048219205e-04 2.7130176381e+00 -4.6990843910e+00 2.7130176381e+00 4.6990843910e+00 
577400 4.6892401664e+00 -1.8038351602e-04 2.7130209643e+00 -4.6990901522e+00 2.7130209643e+00 4.6990901522e+00 
577500 4.6892401654e+00 -1.8028489393e-04 2.7130242887e+00 -4.6990959102e+00 2.7130242887e+00 4.6990959102e+00 
577600 4.6892401644e+00 -1.8018632578e-04 2.7130276113e+00 -4.6991016651e+00 2.7130276113e+00 4.6991016651e+00 
577700 4.6892401635e+00 -1.8008781152e-04 2.7130309321e+00 -4.6991074168e+00 2.7130309321e+00 4.6991074168e+00 
577800 4.6892401625e+00 -1.7998935113e-04 2.7130342510e+00 -4.6991131654e+00 2.7130342510e+00 4.6991131654e+00 
577900 4.6892401615e+00 -1.7989094458e-04 2.7130375681e+00 -4.6991189108e+00 2.7130375681e+00 4.6991189108e+00 
578000 4.6892401606e+00 -1.7979259183e-04 2.7130408834e+00 -4.6991246531e+00 2.7130408834e+00 4.6991246531e+00 
578100 4.6892401596e+00 -1.7969429287e-04 2.7130441969e+00 -4.6991303923e+00 2.7130441969e+00 4.6991303923e+00 
578200 4.6892401587e+00 -1.7959604766e-04 2.7130475086e+00 -4.6991361282e+00 2.7130475086e+00 4.6991361282e+00 
578300 4.6892401577e+00 -1.7949785617e-04 2.7130508185e+00 -4.6991418611e+00 2.7130508185e+00 4.6991418611e+00 
578400 4.6892401567e+00 -1.7939971837e-04 2.7130541265e+00 -4.6991475908e+00 2.7130541265e+00 4.6991475908e+00 
578500 4.6892401558e+00 -1.7930163424e-04 2.7130574327e+00 -4.6991533173e+00 2.7130574327e+00 4.6991533173e+00 
578600 4.6892401548e+00 -1.7920360374e-04 2.7130607372e+00 -4.6991590408e+00 2.7130607372e+00 4.6991590408e+00 
578700 4.6892401539e+00 -1.7910562685e-04 2.7130640398e+00 -4.6991647611e+00 2.7130640398e+00 4.6991647611e+00 
578800 4.6892401529e+00 -1.7900770353e-04 2.7130673406e+00 -4.6991704782e+00 2.7130673406e+00 4.6991704782e+00 
578900 4.6892401520e+00 -1.7890983376e-04 2.7130706396e+00 -4.6991761922e+00 2.7130706396e+00 4.6991761922e+00 
579000 4.6892401510e+00 -1.7881201751e-04 2.7130739367e+00 -4.6991819031e+00 2.7130739367e+00 4.6991819031e+00 
579100 4.6892401501e+00 -1.7871425475e-04 2.7130772321e+00 -4.6991876109e+00 2.7130772321e+00 4.6991876109e+00 
579200 4.6892401491e+00 -1.7861654546e-04 2.7130805257e+00 -4.6991933155e+00 2.7130805257e+00 4.6991933155e+00 
579300 4.6892401482e+00 -1.7851888959e-04 2.7130838175e+00 -4.6991990170e+00 2.7130838175e+00 4.6991990170e+00 
579400 4.6892401472e+00 -1.7842128713e-04 2.7130871074e+00 -4.6992047154e+00 2.7130871074e+00 4.6992047154e+00 
579500 4.6892401463e+00 -1.7832373804e-04 2.7130903956e+00 -4.6992104107e+00 2.7130903956e+00 4.6992104107e+00 
579600 4.6892401453e+00 -1.7822624229e-04 2.7130936819e+00 -4.6992161028e+00 2.7130936819e+00 4.6992161028e+00 
579700 4.6892401444e+00 -1.7812879987e-04 2.7130969665e+00 -4.6992217918e+00 2.7130969665e+00 4.6992217918e+00 
579800 4.6892401434e+00 -1.7803141073e-04 2.7131002493e+00 -4.6992274777e+00 2.7131002493e+00 4.6992274777e+00 
579900 4.6892401425e+00 -1.7793407485e-04 2.7131035302e+00 -4.6992331605e+00 2.7131035302e+00 4.6992331605e+00 
580000 4.6892401415e+00 -1.7783679219e-04 2.7131068094e+00 -4.6992388402e+00 2.7131068094e+00 4.6992388402e+00 
580100 4.6892401406e+00 -1.7773956274e-04 2.7131100867e+00 -4.6992445168e+00 2.7131100867e+00 4.6992445168e+00 
580200 4.6892401397e+00 -1.7764238647e-04 2.7131133623e+00 -4.6992501902e+00 2.7131133623e+00 4.6992501902e+00 
580300 4.6892401387e+00 -1.7754526333e-04 2.7131166361e+00 -4.6992558606e+00 2.7131166361e+00 4.6992558606e+00 
580400 4.6892401378e+00 -1.7744819331e-04 2.7131199081e+00 -4.6992615278e+00 2.7131199081e+00 4.6992615278e+00 
580500 4.6892401369e+00 -1.7735117638e-04 2.7131231783e+00 -4.6992671919e+00 2.7131231783e+00 4.6992671919e+00 
580600 4.6892401359e+00 -1.7725421250e-04 2.7131264467e+00 -4.6992728530e+00 2.7131264467e+00 4.6992728530e+00 
580700 4.6892401350e+00 -1.7715730166e-04 2.7131297133e+00 -4.6992785109e+00 2.7131297133e+00 4.6992785109e+00 
580800 4.6892401341e+00 -1.7706044381e-04 2.7131329781e+00 -4.6992841657e+00 2.7131329781e+00 4.6992841657e+00 
580900 4.6892401331e+00 -1.7696363893e-04 2.7131362411e+00 -4.6992898174e+00 2.7131362411e+00 4.6992898174e+00 
581000 4.6892401322e+00 -1.7686688700e-04 2.7131395023e+00 -4.6992954661e+00 2.7131395023e+00 4.6992954661e+00 
581100 4.6892401313e+00 -1.7677018798e-04 2.7131427618e+00 -4.6993011116e+00 2.7131427618e+00 4.6993011116e+00 
581200 4.6892401303e+00 -1.7667354184e-04 2.7131460195e+00 -4.6993067540e+00 2.7131460195e+00 4.6993067540e+00 
581300 4.6892401294e+00 -1.7657694856e-04 2.7131492753e+00 -4.6993123934e+00 2.7131492753e+00 4.6993123934e+00 
581400 4.6892401285e+00 -1.7648040811e-04 2.7131525294e+00 -4.6993180297e+00 2.7131525294e+00 4.6993180297e+00 
581500 4.6892401275e+00 -1.7638392046e-04 2.7131557817e+00 -4.6993236628e+00 2.7131557817e+00 4.6993236628e+00 
581600 4.6892401266e+00 -1.7628748558e-04 2.7131590323e+00 -4.6993292929e+00 2.7131590323e+00 4.6993292929e+00 
581700 4.6892401257e+00 -1.7619110344e-04 2.7131622810e+00 -4.6993349199e+00 2.7131622810e+00 4.6993349199e+00 
581800 4.6892401248e+00 -1.7609477402e-04 2.7131655280e+00 -4.6993405438e+00 2.7131655280e+00 4.6993405438e+00 
581900 4.6892401238e+00 -1.7599849728e-04 2.7131687732e+00 -4.6993461647e+00 2.7131687732e+00 4.6993461647e+00 
582000 4.6892401229e+00 -1.7590227319e-04 2.7131720166e+00 -4.6993517824e+00 2.7131720166e+00 4.6993517824e+00 
582100 4.6892401220e+00 -1.7580610174e-04 2.7131752582e+00 -4.6993573971e+00 2.7131752582e+00 4.6993573971e+00 
582200 4.6892401211e+00 -1.7570998288e-04 2.7131784981e+00 -4.6993630087e+00 2.7131784981e+00 4.6993630087e+00 
582300 4.6892401202e+00 -1.7561391659e-04 2.7131817362e+00 -4.6993686172e+00 2.7131817362e+00 4.6993686172e+00 
582400 4.6892401193e+00 -1.7551790285e-04 2.7131849725e+00 -4.6993742227e+00 2.7131849725e+00 4.6993742227e+00 
582500 4.6892401183e+00 -1.7542194162e-04 2.7131882070e+00 -4.6993798251e+00 2.7131882070e+00 4.6993798251e+00 
582600 4.6892401174e+00 -1.7532603288e-04 2.7131914398e+00 -4.6993854244e+00 2.7131914398e+00 4.6993854244e+00 
582700 4.6892401165e+00 -1.7523017659e-04 2.7131946708e+00 -4.6993910206e+00 2.7131946708e+00 4.6993910206e+00 
582800 4.6892401156e+00 -1.7513437273e-04 2.7131979000e+00 -4.6993966138e+00 2.7131979000e+00 4.6993966138e+00 
582900 4.6892401147e+00 -1.7503862128e-04 2.7132011275e+00 -4.6994022039e+00 2.7132011275e+00 4.6994022039e+00 
583000 4.6892401138e+00 -1.7494292219e-04 2.7132043531e+00 -4.6994077910e+00 2.7132043531e+00 4.6994077910e+00 
583100 4.6892401129e+00 -1.7484727545e-04 2.7132075771e+00 -4.6994133750e+00 2.7132075771e+00 4.6994133750e+00 
583200 4.6892401119e+00 -1.7475168102e-04 2.7132107992e+00 -4.6994189559e+00 2.7132107992e+00 4.6994189559e+00 
583300 4.6892401110e+00 -1.7465613888e-04 2.7132140196e+00 -4.6994245338e+00 2.7132140196e+00 4.6994245338e+00 
583400 4.6892401101e+00 -1.7456064900e-04 2.7132172382e+00 -4.6994301086e+00 2.7132172382e+00 4.6994301086e+00 
583500 4.6892401092e+00 -1.7446521135e-04 2.7132204551e+00 -4.6994356803e+00 2.7132204551e+00 4.6994356803e+00 
583600 4.6892401083e+00 -1.7436982590e-04 2.7132236702e+00 -4.6994412490e+00 2.7132236702e+00 4.6994412490e+00 
583700 4.6892401074e+00 -1.7427449263e-04 2.7132268835e+00 -4.6994468147e+00 2.7132268835e+00 4.6994468147e+00 
583800 4.6892401065e+00 -1.7417921150e-04 2.7132300951e+00 -4.6994523773e+00 2.7132300951e+00 4.6994523773e+00 
583900 4.6892401056e+00 -1.7408398248e-04 2.7132333049e+00 -4.6994579369e+00 2.7132333049e+00 4.6994579369e+00 
584000 4.6892401047e+00 -1.7398880556e-04 2.7132365129e+00 -4.6994634934e+00 2.7132365129e+00 4.6994634934e+00 
584100 4.6892401038e+00 -1.7389368069e-04 2.7132397192e+00 -4.6994690468e+00 2.7132397192e+00 4.6994690468e+00 
584200 4.6892401029e+00 -1.7379860786e-04 2.7132429238e+00 -4.6994745973e+00 2.7132429238e+00 4.6994745973e+00 
584300 4.6892401020e+00 -1.7370358704e-04 2.7132461266e+00 -4.6994801447e+00 2.7132461266e+00 4.6994801447e+00 
584400 4.6892401011e+00 -1.7360861819e-04 2.7132493276e+00 -4.6994856890e+00 2.7132493276e+00 4.6994856890e+00 
584500 4.6892401002e+00 -1.7351370128e-04 2.7132525269e+00 -4.6994912303e+00 2.7132525269e+00 4.6994912303e+00 
584600 4.6892400993e+00 -1.7341883630e-04 2.7132557244e+00 -4.6994967686e+00 2.7132557244e+00 4.6994967686e+00 
584700 4.6892400984e+00 -1.7332402321e-04 2.7132589202e+00 -4.6995023038e+00 2.7132589202e+00 4.6995023038e+00 
584800 4.6892400975e+00 -1.7322926198e-04 2.7132621142e+00 -4.6995078360e+00 2.7132621142e+00 4.6995078360e+00 
584900 4.6892400966e+00 -1.7313455259e-04 2.7132653065e+00 -4.6995133652e+00 2.7132653065e+00 4.6995133652e+00 
585000 4.6892400957e+00 -1.7303989500e-04 2.7132684970e+00 -4.6995188913e+00 2.7132684970e+00 4.6995188913e+00 
585100 4.6892400949e+00 -1.7294528919e-04 2.7132716858e+00 -4.6995244145e+00 2.7132716858e+00 4.6995244145e+00 
585200 4.6892400940e+00 -1.7285073514e-04 2.7132748728e+00 -4.6995299346e+00 2.7132748728e+00 4.6995299346e+00 
585300 4.6892400931e+00 -1.7275623281e-04 2.7132780581e+00 -4.6995354516e+00 2.7132780581e+00 4.6995354516e+00 
585400 4.6892400922e+00 -1.7266178217e-04 2.7132812416e+00 -4.6995409657e+00 2.7132812416e+00 4.6995409657e+00 
585500 4.6892400913e+00 -1.7256738320e-04 2.7132844234e+00 -4.6995464767e+00 2.7132844234e+00 4.6995464767e+00 
585600 4.6892400904e+00 -1.7247303587e-04 2.7132876034e+00 -4.6995519847e+00 2.7132876034e+00 4.6995519847e+00 
585700 4.6892400895e+00 -1.7237874014e-04 2.7132907817e+00 -4.6995574897e+00 2.7132907817e+00 4.6995574897e+00 
585800 4.6892400886e+00 -1.7228449601e-04 2.7132939583e+00 -4.6995629916e+00 2.7132939583e+00 4.6995629916e+00 
585900 4.6892400878e+00 -1.7219030342e-04 2.7132971331e+00 -4.6995684906e+00 2.7132971331e+00 4.6995684906e+00 
586000 4.6892400869e+00 -1.7209616237e-04 2.7133003062e+00 -4.6995739865e+00 2.7133003062e+00 4.6995739865e+00 
586100 4.6892400860e+00 -1.7200207281e-04 2.7133034775e+00 -4.6995794795e+00 2.7133034775e+00 4.6995794795e+00 
586200 4.6892400851e+00 -1.7190803473e-04 2.7133066472e+00 -4.6995849694e+00 2.7133066472e+00 4.6995849694e+00 
586300 4.6892400842e+00 -1.7181404809e-04 2.7133098150e+00 -4.6995904563e+00 2.7133098150e+00 4.6995904563e+00 
586400 4.6892400834e+00 -1.7172011286e-04 2.7133129812e+00 -4.6995959402e+00 2.7133129812e+00 4.6995959402e+00 
586500 4.6892400825e+00 -1.7162622902e-04 2.7133161456e+00 -4.6996014211e+00 2.7133161456e+00 4.6996014211e+00 
586600 4.6892400816e+00 -1.7153239654e-04 2.7133193082e+00 -4.6996068990e+00 2.7133193082e+00 4.6996068990e+00 
586700 4.6892400807e+00 -1.7143861539e-04 2.7133224692e+00 -4.6996123739e+00 2.7133224692e+00 4.6996123739e+00 
586800 4.6892400799e+00 -1.7134488555e-04 2.7133256284e+00 -4.6996178458e+00 2.7133256284e+00 4.6996178458e+00 
586900 4.6892400790e+00 -1.7125120698e-04 2.7133287858e+00 -4.6996233147e+00 2.7133287858e+00 4.6996233147e+00 
587000 4.6892400781e+00 -1.7115757967e-04 2.7133319416e+00 -4.6996287806e+00 2.7133319416e+00 4.6996287806e+00 
587100 4.6892400772e+00 -1.7106400357e-04 2.7133350956e+00 -4.6996342435e+00 2.7133350956e+00 4.6996342435e+00 
587200 4.6892400764e+00 -1.7097047866e-04 2.7133382479e+00 -4.6996397034e+00 2.7133382479e+00 4.6996397034e+00 
587300 4.6892400755e+00 -1.7087700492e-04 2.7133413984e+00 -4.6996451603e+00 2.7133413984e+00 4.6996451603e+00 
587400 4.6892400746e+00 -1.7078358232e-04 2.7133445473e+00 -4.6996506143e+00 2.7133445473e+00 4.6996506143e+00 
587500 4.6892400738e+00 -1.7069021082e-04 2.7133476944e+00 -4.6996560652e+00 2.7133476944e+00 4.6996560652e+00 
587600 4.6892400729e+00 -1.7059689041e-04 2.7133508397e+00 -4.6996615132e+00 2.7133508397e+00 4.6996615132e+00 
587700 4.6892400720e+00 -1.7050362106e-04 2.7133539834e+00 -4.6996669582e+00 2.7133539834e+00 4.6996669582e+00 
587800 4.6892400712e+00 -1.7041040272e-04 2.7133571253e+00 -4.6996724002e+00 2.7133571253e+00 4.6996724002e+00 
587900 4.6892400703e+00 -1.7031723539e-04 2.7133602655e+00 -4.6996778392e+00 2.7133602655e+00 4.6996778392e+00 
588000 4.6892400694e+00 -1.7022411903e-04 2.7133634040e+00 -4.6996832752e+00 2.7133634040e+00 4.6996832752e+00 
588100 4.6892400686e+00 -1.7013105361e-04 2.7133665408e+00 -4.6996887082e+00 2.7133665408e+00 4.6996887082e+00 
588200 4.6892400677e+00 -1.7003803911e-04 2.7133696759e+00 -4.6996941383e+00 2.7133696759e+00 4.6996941383e+00 
588300 4.6892400668e+00 -1.6994507550e-04 2.7133728092e+00 -4.6996995654e+00 2.7133728092e+00 4.6996995654e+00 
588400 4.6892400660e+00 -1.6985216274e-04 2.7133759408e+00 -4.6997049895e+00 2.7133759408e+00 4.6997049895e+00 
588500 4.6892400651e+00 -1.6975930082e-04 2.7133790707e+00 -4.6997104107e+00 2.7133790707e+00 4.6997104107e+00 
588600 4.6892400643e+00 -1.6966648971e-04 2.7133821989e+00 -4.6997158289e+00 2.7133821989e+00 4.6997158289e+00 
588700 4.6892400634e+00 -1.6957372937e-04 2.7133853254e+00 -4.6997212441e+00 2.7133853254e+00 4.6997212441e+00 
588800 4.6892400626e+00 -1.6948101978e-04 2.7133884502e+00 -4.6997266564e+00 2.7133884502e+00 4.6997266564e+00 
588900 4.6892400617e+00 -1.6938836092e-04 2.7133915732e+00 -4.6997320656e+00 2.7133915732e+00 4.6997320656e+00 
589000 4.6892400608e+00 -1.6929575275e-04 2.7133946946e+00 -4.6997374720e+00 2.7133946946e+00 4.6997374720e+00 
589100 4.6892400600e+00 -1.6920319525e-04 2.7133978142e+00 -4.6997428753e+00 2.7133978142e+00 4.6997428753e+00 
589200 4.6892400591e+00 -1.6911068839e-04 2.7134009321e+00 -4.6997482757e+00 2.7134009321e+00 4.6997482757e+00 
589300 4.6892400583e+00 -1.6901823214e-04 2.7134040483e+00 -4.6997536732e+00 2.7134040483e+00 4.6997536732e+00 
589400 4.6892400574e+00 -1.6892582647e-04 2.7134071628e+00 -4.6997590676e+00 2.7134071628e+00 4.6997590676e+00 
589500 4.6892400566e+00 -1.6883347137e-04 2.7134102756e+00 -4.6997644592e+00 2.7134102756e+00 4.6997644592e+00 
589600 4.6892400557e+00 -1.6874116679e-04 2.7134133867e+00 -4.6997698477e+00 2.7134133867e+00 4.6997698477e+00 
589700 4.6892400549e+00 -1.6864891272e-04 2.7134164961e+00 -4.6997752334e+00 2.7134164961e+00 4.6997752334e+00 
589800 4.6892400540e+00 -1.6855670913e-04 2.7134196038e+00 -4.6997806160e+00 2.7134196038e+00 4.6997806160e+00 
589900 4.6892400532e+00 -1.6846455598e-04 2.7134227098e+00 -4.6997859958e+00 2.7134227098e+00 4.6997859958e+00 
590000 4.6892400524e+00 -1.6837245325e-04 2.7134258141e+00 -4.6997913725e+00 2.7134258141e+00 4.6997913725e+00 
590100 4.6892400515e+00 -1.6828040092e-04 2.7134289166e+00 -4.6997967464e+00 2.7134289166e+00 4.6997967464e+00 
590200 4.6892400507e+00 -1.6818839895e-04 2.7134320175e+00 -4.6998021172e+00 2.7134320175e+00 4.6998021172e+00 
590300 4.6892400498e+00 -1.6809644732e-04 2.7134351167e+00 -4.6998074852e+00 2.7134351167e+00 4.6998074852e+00 
590400 4.6892400490e+00 -1.6800454600e-04 2.7134382142e+00 -4.6998128502e+00 2.7134382142e+00 4.6998128502e+00 
590500 4.6892400481e+00 -1.6791269497e-04 2.7134413100e+00 -4.6998182122e+00 2.7134413100e+00 4.6998182122e+00 
590600 4.6892400473e+00 -1.6782089419e-04 2.7134444041e+00 -4.6998235714e+00 2.7134444041e+00 4.6998235714e+00 
590700 4.6892400465e+00 -1.6772914365e-04 2.7134474965e+00 -4.6998289276e+00 2.7134474965e+00 4.6998289276e+00 
590800 4.6892400456e+00 -1.6763744330e-04 2.7134505872e+00 -4.6998342808e+00 2.7134505872e+00 4.6998342808e+00 
590900 4.6892400448e+00 -1.6754579313e-04 2.7134536762e+00 -4.6998396311e+00 2.7134536762e+00 4.6998396311e+00 
591000 4.6892400440e+00 -1.6745419311e-04 2.7134567635e+00 -4.6998449785e+00 2.7134567635e+00 4.6998449785e+00 
591100 4.6892400431e+00 -1.6736264321e-04 2.7134598491e+00 -4.6998503230e+00 2.7134598491e+00 4.6998503230e+00 
591200 4.6892400423e+00 -1.6727114340e-04 2.7134629331e+00 -4.6998556645e+00 2.7134629331e+00 4.6998556645e+00 
591300 4.6892400415e+00 -1.6717969366e-04 2.7134660153e+00 -4.6998610031e+00 2.7134660153e+00 4.6998610031e+00 
591400 4.6892400406e+00 -1.6708829395e-04 2.7134690959e+00 -4.6998663388e+00 2.7134690959e+00 4.6998663388e+00 
591500 4.6892400398e+00 -1.6699694426e-04 2.7134721747e+00 -4.6998716716e+00 2.7134721747e+00 4.6998716716e+00 
591600 4.6892400390e+00 -1.6690564456e-04 2.7134752519e+00 -4.6998770014e+00 2.7134752519e+00 4.6998770014e+00 
591700 4.6892400381e+00 -1.6681439481e-04 2.7134783274e+00 -4.6998823283e+00 2.7134783274e+00 4.6998823283e+00 
591800 4.6892400373e+00 -1.6672319499e-04 2.7134814012e+00 -4.6998876523e+00 2.7134814012e+00 4.6998876523e+00 
591900 4.6892400365e+00 -1.6663204507e-04 2.7134844733e+00 -4.6998929734e+00 2.7134844733e+00 4.6998929734e+00 
592000 4.6892400356e+00 -1.6654094503e-04 2.7134875438e+00 -4.6998982916e+00 2.7134875438e+00 4.6998982916e+00 
592100 4.6892400348e+00 -1.6644989484e-04 2.7134906126e+00 -4.6999036068e+00 2.7134906126e+00 4.6999036068e+00 
592200 4.6892400340e+00 -1.6635889448e-04 2.7134936796e+00 -4.6999089191e+00 2.7134936796e+00 4.6999089191e+00 
592300 4.6892400332e+00 -1.6626794390e-04 2.7134967450e+00 -4.6999142286e+00 2.7134967450e+00 4.6999142286e+00 
592400 4.6892400323e+00 -1.6617704310e-04 2.7134998088e+00 -4.6999195351e+00 2.7134998088e+00 4.6999195351e+00 
592500 4.6892400315e+00 -1.6608619203e-04 2.7135028708e+00 -4.6999248387e+00 2.7135028708e+00 4.6999248387e+00 
592600 4.6892400307e+00 -1.6599539068e-04 2.7135059312e+00 -4.6999301394e+00 2.7135059312e+00 4.6999301394e+00 
592700 4.6892400299e+00 -1.6590463902e-04 2.7135089899e+00 -4.6999354372e+00 2.7135089899e+00 4.6999354372e+00 
592800 4.6892400291e+00 -1.6581393702e-04 2.7135120469e+00 -4.6999407321e+00 2.7135120469e+00 4.6999407321e+00 
592900 4.6892400282e+00 -1.6572328465e-04 2.7135151022e+00 -4.6999460241e+00 2.7135151022e+00 4.6999460241e+00 
593000 4.6892400274e+00 -1.6563268188e-04 2.7135181559e+00 -4.6999513132e+00 2.7135181559e+00 4.6999513132e+00 
593100 4.6892400266e+00 -1.6554212870e-04 2.7135212079e+00 -4.6999565994e+00 2.7135212079e+00 4.6999565994e+00 
593200 4.6892400258e+00 -1.6545162506e-04 2.7135242582e+00 -4.6999618827e+00 2.7135242582e+00 4.6999618827e+00 
593300 4.6892400250e+00 -1.6536117096e-04 2.7135273068e+00 -4.6999671632e+00 2.7135273068e+00 4.6999671632e+00 
593400 4.6892400242e+00 -1.6527076635e-04 2.7135303538e+00 -4.6999724407e+00 2.7135303538e+00 4.6999724407e+00 
593500 4.6892400234e+00 -1.6518041121e-04 2.7135333991e+00 -4.6999777153e+00 2.7135333991e+00 4.6999777153e+00 
593600 4.6892400225e+00 -1.6509010551e-04 2.7135364428e+00 -4.6999829871e+00 2.7135364428e+00 4.6999829871e+00 
593700 4.6892400217e+00 -1.6499984924e-04 2.7135394847e+00 -4.6999882559e+00 2.7135394847e+00 4.6999882559e+00 
593800 4.6892400209e+00 -1.6490964235e-04 2.7135425250e+00 -4.6999935219e+00 2.7135425250e+00 4.6999935219e+00 
593900 4.6892400201e+00 -1.6481948483e-04 2.7135455637e+00 -4.6999987850e+00 2.7135455637e+00 4.6999987850e+00 
594000 4.6892400193e+00 -1.6472937665e-04 2.7135486007e+00 -4.7000040452e+00 2.7135486007e+00 4.7000040452e+00 
594100 4.6892400185e+00 -1.6463931777e-04 2.7135516360e+00 -4.7000093025e+00 2.7135516360e+00 4.7000093025e+00 
594200 4.6892400177e+00 -1.6454930819e-04 2.7135546696e+00 -4.7000145569e+00 2.7135546696e+00 4.7000145569e+00 
594300 4.6892400169e+00 -1.6445934785e-04 2.7135577016e+00 -4.7000198085e+00 2.7135577016e+00 4.7000198085e+00 
594400 4.6892400161e+00 -1.6436943675e-04 2.7135607319e+00 -4.7000250572e+00 2.7135607319e+00 4.7000250572e+00 
594500 4.6892400153e+00 -1.6427957485e-04 2.7135637606e+00 -4.7000303030e+00 2.7135637606e+00 4.7000303030e+00 
594600 4.6892400145e+00 -1.6418976213e-04 2.7135667876e+00 -4.7000355459e+00 2.7135667876e+00 4.7000355459e+00 
594700 4.6892400137e+00 -1.6409999855e-04 2.7135698130e+00 -4.7000407860e+00 2.7135698130e+00 4.7000407860e+00 
594800 4.6892400129e+00 -1.6401028410e-04 2.7135728367e+00 -4.7000460231e+00 2.7135728367e+00 4.7000460231e+00 
594900 4.6892400121e+00 -1.6392061875e-04 2.7135758587e+00 -4.7000512575e+00 2.7135758587e+00 4.7000512575e+00 
595000 4.6892400113e+00 -1.6383100247e-04 2.7135788791e+00 -4.7000564889e+00 2.7135788791e+00 4.7000564889e+00 
595100 4.6892400105e+00 -1.6374143523e-04 2.7135818978e+00 -4.7000617175e+00 2.7135818978e+00 4.7000617175e+00 
595200 4.6892400097e+00 -1.6365191700e-04 2.7135849149e+00 -4.7000669432e+00 2.7135849149e+00 4.7000669432e+00 
595300 4.6892400089e+00 -1.6356244777e-04 2.7135879303e+00 -4.7000721661e+00 2.7135879303e+00 4.7000721661e+00 
595400 4.6892400081e+00 -1.6347302750e-04 2.7135909441e+00 -4.7000773861e+00 2.7135909441e+00 4.7000773861e+00 
595500 4.6892400073e+00 -1.6338365617e-04 2.7135939562e+00 -4.7000826032e+00 2.7135939562e+00 4.7000826032e+00 
595600 4.6892400065e+00 -1.6329433374e-04 2.7135969667e+00 -4.7000878175e+00 2.7135969667e+00 4.7000878175e+00 
595700 4.6892400057e+00 -1.6320506020e-04 2.7135999755e+00 -4.7000930289e+00 2.7135999755e+00 4.7000930289e+00 
595800 4.6892400049e+00 -1.6311583552e-04 2.7136029826e+00 -4.7000982375e+00 2.7136029826e+00 4.7000982375e+00 
595900 4.6892400041e+00 -1.6302665967e-04 2.7136059882e+00 -4.7001034432e+00 2.7136059882e+00 4.7001034432e+00 
596000 4.6892400033e+00 -1.6293753262e-04 2.7136089920e+00 -4.7001086461e+00 2.7136089920e+00 4.7001086461e+00 
596100 4.6892400025e+00 -1.6284845434e-04 2.7136119943e+00 -4.7001138461e+00 2.7136119943e+00 4.7001138461e+00 
596200 4.6892400017e+00 -1.6275942482e-04 2.7136149948e+00 -4.7001190433e+00 2.7136149948e+00 4.7001190433e+00 
596300 4.6892400009e+00 -1.6267044403e-04 2.7136179938e+00 -4.7001242376e+00 2.7136179938e+00 4.7001242376e+00 
596400 4.6892400001e+00 -1.6258151193e-04 2.7136209911e+00 -4.7001294291e+00 2.7136209911e+00 4.7001294291e+00 
596500 4.6892399994e+00 -1.6249262850e-04 2.7136239867e+00 -4.7001346177e+00 2.7136239867e+00 4.7001346177e+00 
596600 4.6892399986e+00 -1.6240379372e-04 2.7136269808e+00 -4.7001398035e+00 2.7136269808e+00 4.7001398035e+00 
596700 4.6892399978e+00 -1.6231500755e-04 2.7136299731e+00 -4.7001449864e+00 2.7136299731e+00 4.7001449864e+00 
596800 4.6892399970e+00 -1.6222626998e-04 2.7136329639e+00 -4.7001501665e+00 2.7136329639e+00 4.7001501665e+00 
596900 4.6892399962e+00 -1.6213758097e-04 2.7136359530e+00 -4.7001553438e+00 2.7136359530e+00 4.7001553438e+00 
597000 4.6892399954e+00 -1.6204894051e-04 2.7136389404e+00 -4.7001605182e+00 2.7136389404e+00 4.7001605182e+00 
597100 4.6892399946e+00 -1.6196034855e-04 2.7136419263e+00 -4.7001656898e+00 2.7136419263e+00 4.7001656898e+00 
597200 4.6892399939e+00 -1.6187180508e-04 2.7136449104e+00 -4.7001708586e+00 2.7136449104e+00 4.7001708586e+00 
597300 4.6892399931e+00 -1.6178331007e-04 2.7136478930e+00 -4.7001760245e+00 2.7136478930e+00 4.7001760245e+00 
597400 4.6892399923e+00 -1.6169486350e-04 2.7136508739e+00 -4.7001811876e+00 2.7136508739e+00 4.7001811876e+00 
597500 4.6892399915e+00 -1.6160646533e-04 2.7136538532e+00 -4.7001863479e+00 2.7136538532e+00 4.7001863479e+00 
597600 4.6892399907e+00 -1.6151811555e-04 2.7136568309e+00 -4.7001915054e+00 2.7136568309e+00 4.7001915054e+00 
597700 4.6892399900e+00 -1.6142981412e-04 2.7136598069e+00 -4.7001966600e+00 2.7136598069e+00 4.7001966600e+00 
597800 4.6892399892e+00 -1.6134156101e-04 2.7136627813e+00 -4.7002018118e+00 2.7136627813e+00 4.7002018118e+00 
597900 4.6892399884e+00 -1.6125335621e-04 2.7136657540e+00 -4.7002069608e+00 2.7136657540e+00 4.7002069608e+00 
598000 4.6892399876e+00 -1.6116519969e-04 2.7136687252e+00 -4.7002121069e+00 2.7136687252e+00 4.7002121069e+00 
598100 4.6892399869e+00 -1.6107709141e-04 2.7136716947e+00 -4.7002172503e+00 2.7136716947e+00 4.7002172503e+00 
598200 4.6892399861e+00 -1.6098903136e-04 2.7136746626e+00 -4.7002223908e+00 2.7136746626e+00 4.7002223908e+00 
598300 4.6892399853e+00 -1.6090101951e-04 2.7136776288e+00 -4.7002275285e+00 2.7136776288e+00 4.7002275285e+00 
598400 4.6892399846e+00 -1.6081305583e-04 2.7136805935e+00 -4.7002326634e+00 2.7136805935e+00 4.7002326634e+00 
598500 4.6892399838e+00 -1.6072514029e-04 2.7136835565e+00 -4.7002377955e+00 2.7136835565e+00 4.7002377955e+00 
598600 4.6892399830e+00 -1.6063727287e-04 2.7136865178e+00 -4.7002429247e+00 2.7136865178e+00 4.7002429247e+00 
598700 4.6892399822e+00 -1.6054945354e-04 2.7136894776e+00 -4.7002480512e+00 2.7136894776e+00 4.7002480512e+00 
598800 4.6892399815e+00 -1.6046168228e-04 2.7136924357e+00 -4.7002531748e+00 2.7136924357e+00 4.7002531748e+00 
598900 4.6892399807e+00 -1.6037395906e-04 2.7136953923e+00 -4.7002582957e+00 2.7136953923e+00 4.7002582957e+00 
599000 4.6892399799e+00 -1.6028628386e-04 2.7136983472e+00 -4.7002634137e+00 2.7136983472e+00 4.7002634137e+00 
599100 4.6892399792e+00 -1.6019865664e-04 2.7137013004e+00 -4.7002685289e+00 2.7137013004e+00 4.7002685289e+00 
599200 4.6892399784e+00 -1.6011107738e-04 2.7137042521e+00 -4.7002736414e+00 2.7137042521e+00 4.7002736414e+00 
599300 4.6892399776e+00 -1.6002354606e-04 2.7137072022e+00 -4.7002787510e+00 2.7137072022e+00 4.7002787510e+00 
599400 4.6892399769e+00 -1.5993606265e-04 2.7137101506e+00 -4.7002838578e+00 2.7137101506e+00 4.7002838578e+00 
599500 4.6892399761e+00 -1.5984862712e-04 2.7137130974e+00 -4.7002889619e+00 2.7137130974e+00 4.7002889619e+00 
599600 4.6892399754e+00 -1.5976123946e-04 2.7137160426e+00 -4.7002940631e+00 2.7137160426e+00 4.7002940631e+00 
599700 4.6892399746e+00 -1.5967389962e-04 2.7137189862e+00 -4.7002991616e+00 2.7137189862e+00 4.7002991616e+00 
599800 4.6892399738e+00 -1.5958660759e-04 2.7137219282e+00 -4.7003042572e+00 2.7137219282e+00 4.7003042572e+00 
599900 4.6892399731e+00 -1.5949936333e-04 2.7137248685e+00 -4.7003093501e+00 2.7137248685e+00 4.7003093501e+00 
600000 4.6892399723e+00 -1.5941216683e-04 2.7137278073e+00 -4.7003144401e+00 2.7137278073e+00 4.7003144401e+00 
600100 4.6892399716e+00 -1.5932501806e-04 2.7137307444e+00 -4.7003195274e+00 2.7137307444e+00 4.7003195274e+00 
600200 4.6892399708e+00 -1.5923791699e-04 2.7137336800e+00 -4.7003246119e+00 2.7137336800e+00 4.7003246119e+00 
600300 4.6892399701e+00 -1.5915086360e-04 2.7137366139e+00 -4.7003296936e+00 2.7137366139e+00 4.7003296936e+00 
600400 4.6892399693e+00 -1.5906385786e-04 2.7137395462e+00 -4.7003347726e+00 2.7137395462e+00 4.7003347726e+00 
600500 4.6892399685e+00 -1.5897689974e-04 2.7137424769e+00 -4.7003398487e+00 2.7137424769e+00 4.7003398487e+00 
600600 4.6892399678e+00 -1.5888998921e-04 2.7137454060e+00 -4.7003449221e+00 2.7137454060e+00 4.7003449221e+00 
600700 4.6892399670e+00 -1.5880312626e-04 2.7137483335e+00 -4.7003499927e+00 2.7137483335e+00 4.7003499927e+00 
600800 4.6892399663e+00 -1.5871631086e-04 2.7137512594e+00 -4.7003550605e+00 2.7137512594e+00 4.7003550605e+00 
600900 4.6892399655e+00 -1.5862954297e-04 2.7137541837e+00 -4.7003601255e+00 2.7137541837e+00 4.7003601255e+00 
601000 4.6892399648e+00 -1.5854282259e-04 2.7137571064e+00 -4.7003651878e+00 2.7137571064e+00 4.7003651878e+00 
601100 4.6892399640e+00 -1.5845614966e-04 2.7137600275e+00 -4.7003702472e+00 2.7137600275e+00 4.7003702472e+00 
601200 4.6892399633e+00 -1.5836952419e-04 2.7137629470e+00 -4.7003753040e+00 2.7137629470e+00 4.7003753040e+00 
601300 4.6892399625e+00 -1.5828294613e-04 2.7137658649e+00 -4.7003803579e+00 2.7137658649e+00 4.7003803579e+00 
601400 4.6892399618e+00 -1.5819641546e-04 2.7137687812e+00 -4.7003854091e+00 2.7137687812e+00 4.7003854091e+00 
601500 4.6892399611e+00 -1.5810993215e-04 2.7137716959e+00 -4.7003904575e+00 2.7137716959e+00 4.7003904575e+00 
601600 4.6892399603e+00 -1.5802349619e-04 2.7137746090e+00 -4.7003955031e+00 2.7137746090e+00 4.7003955031e+00 
601700 4.6892399596e+00 -1.5793710754e-04 2.7137775205e+00 -4.7004005460e+00 2.7137775205e+00 4.7004005460e+00 
601800 4.6892399588e+00 -1.5785076617e-04 2.7137804304e+00 -4.7004055861e+00 2.7137804304e+00 4.7004055861e+00 
601900 4.6892399581e+00 -1.5776447207e-04 2.7137833388e+00 -4.7004106235e+00 2.7137833388e+00 4.7004106235e+00 
602000 4.6892399573e+00 -1.5767822521e-04 2.7137862455e+00 -4.7004156581e+00 2.7137862455e+00 4.7004156581e+00 
602100 4.6892399566e+00 -1.5759202556e-04 2.7137891506e+00 -4.7004206899e+00 2.7137891506e+00 4.7004206899e+00 
602200 4.6892399559e+00 -1.5750587309e-04 2.7137920542e+00 -4.7004257190e+00 2.7137920542e+00 4.7004257190e+00 
602300 4.6892399551e+00 -1.5741976778e-04 2.7137949561e+00 -4.7004307453e+00 2.7137949561e+00 4.7004307453e+00 
602400 4.6892399544e+00 -1.5733370961e-04 2.7137978565e+00 -4.7004357689e+00 2.7137978565e+00 4.7004357689e+00 
602500 4.6892399536e+00 -1.5724769854e-04 2.7138007553e+00 -4.7004407897e+00 2.7138007553e+00 4.7004407897e+00 
602600 4.6892399529e+00 -1.5716173456e-04 2.7138036524e+00 -4.7004458078e+00 2.7138036524e+00 4.7004458078e+00 
602700 4.6892399522e+00 -1.5707581763e-04 2.7138065480e+00 -4.7004508231e+00 2.7138065480e+00 4.7004508231e+00 
602800 4.6892399514e+00 -1.5698994774e-04 2.7138094421e+00 -4.7004558357e+00 2.7138094421e+00 4.7004558357e+00 
602900 4.6892399507e+00 -1.5690412485e-04 2.7138123345e+00 -4.7004608455e+00 2.7138123345e+00 4.7004608455e+00 
603000 4.6892399500e+00 -1.5681834894e-04 2.7138152253e+00 -4.7004658526e+00 2.7138152253e+00 4.7004658526e+00 
603100 4.6892399492e+00 -1.5673261999e-04 2.7138181146e+00 -4.7004708570e+00 2.7138181146e+00 4.7004708570e+00 
603200 4.6892399485e+00 -1.5664693796e-04 2.7138210023e+00 -4.7004758586e+00 2.7138210023e+00 4.7004758586e+00 
603300 4.6892399478e+00 -1.5656130284e-04 2.7138238884e+00 -4.7004808574e+00 2.7138238884e+00 4.7004808574e+00 
603400 4.6892399470e+00 -1.5647571460e-04 2.7138267729e+00 -4.7004858536e+00 2.7138267729e+00 4.7004858536e+00 
603500 4.6892399463e+00 -1.5639017321e-04 2.7138296558e+00 -4.7004908470e+00 2.7138296558e+00 4.7004908470e+00 
603600 4.6892399456e+00 -1.5630467864e-04 2.7138325372e+00 -4.7004958376e+00 2.7138325372e+00 4.7004958376e+00 
603700 4.6892399448e+00 -1.5621923088e-04 2.7138354169e+00 -4.7005008255e+00 2.7138354169e+00 4.7005008255e+00 
603800 4.6892399441e+00 -1.5613382990e-04 2.7138382952e+00 -4.7005058107e+00 2.7138382952e+00 4.7005058107e+00 
603900 4.6892399434e+00 -1.5604847566e-04 2.7138411718e+00 -4.7005107932e+00 2.7138411718e+00 4.7005107932e+00 
604000 4.6892399427e+00 -1.5596316815e-04 2.7138440468e+00 -4.7005157729e+00 2.7138440468e+00 4.7005157729e+00 
604100 4.6892399419e+00 -1.5587790734e-04 2.7138469203e+00 -4.7005207499e+00 2.7138469203e+00 4.7005207499e+00 
604200 4.6892399412e+00 -1.5579269320e-04 2.7138497922e+00 -4.7005257242e+00 2.7138497922e+00 4.7005257242e+00 
604300 4.6892399405e+00 -1.5570752572e-04 2.7138526625e+00 -4.7005306957e+00 2.7138526625e+00 4.7005306957e+00 
604400 4.6892399398e+00 -1.5562240485e-04 2.7138555313e+00 -4.7005356646e+00 2.7138555313e+00 4.7005356646e+00 
604500 4.6892399391e+00 -1.5553733059e-04 2.7138583985e+00 -4.7005406307e+00 2.7138583985e+00 4.7005406307e+00 
604600 4.6892399383e+00 -1.5545230289e-04 2.7138612641e+00 -4.7005455941e+00 2.7138612641e+00 4.7005455941e+00 
604700 4.6892399376e+00 -1.5536732175e-04 2.7138641281e+00 -4.7005505547e+00 2.7138641281e+00 4.7005505547e+00 
604800 4.6892399369e+00 -1.5528238712e-04 2.7138669906e+00 -4.7005555127e+00 2.7138669906e+00 4.7005555127e+00 
604900 4.6892399362e+00 -1.5519749900e-04 2.7138698515e+00 -4.7005604679e+00 2.7138698515e+00 4.7005604679e+00 
605000 4.6892399355e+00 -1.5511265734e-04 2.7138727108e+00 -4.7005654204e+00 2.7138727108e+00 4.7005654204e+00 
605100 4.6892399347e+00 -1.5502786213e-04 2.7138755686e+00 -4.7005703703e+00 2.7138755686e+00 4.7005703703e+00 
605200 4.6892399340e+00 -1.5494311334e-04 2.7138784248e+00 -4.7005753174e+00 2.7138784248e+00 4.7005753174e+00 
605300 4.6892399333e+00 -1.5485841095e-04 2.7138812795e+00 -4.7005802617e+00 2.7138812795e+00 4.7005802617e+00 
605400 4.6892399326e+00 -1.5477375492e-04 2.7138841325e+00 -4.7005852034e+00 2.7138841325e+00 4.7005852034e+00 
605500 4.6892399319e+00 -1.5468914525e-04 2.7138869841e+00 -4.7005901424e+00 2.7138869841e+00 4.7005901424e+00 
605600 4.6892399312e+00 -1.5460458189e-04 2.7138898340e+00 -4.7005950787e+00 2.7138898340e+00 4.7005950787e+00 
605700 4.6892399304e+00 -1.5452006482e-04 2.7138926824e+00 -4.7006000122e+00 2.7138926824e+00 4.7006000122e+00 
605800 4.6892399297e+00 -1.5443559403e-04 2.7138955293e+00 -4.7006049431e+00 2.7138955293e+00 4.7006049431e+00 
605900 4.6892399290e+00 -1.5435116948e-04 2.7138983745e+00 -4.7006098713e+00 2.7138983745e+00 4.7006098713e+00 
606000 4.6892399283e+00 -1.5426679115e-04 2.7139012182e+00 -4.7006147967e+00 2.7139012182e+00 4.7006147967e+00 
606100 4.6892399276e+00 -1.5418245901e-04 2.7139040604e+00 -4.7006197195e+00 2.7139040604e+00 4.7006197195e+00 
606200 4.6892399269e+00 -1.5409817304e-04 2.7139069010e+00 -4.7006246396e+00 2.7139069010e+00 4.7006246396e+00 
606300 4.6892399262e+00 -1.5401393321e-04 2.7139097401e+00 -4.7006295569e+00 2.7139097401e+00 4.7006295569e+00 
606400 4.6892399255e+00 -1.5392973951e-04 2.7139125775e+00 -4.7006344716e+00 2.7139125775e+00 4.7006344716e+00 
606500 4.6892399248e+00 -1.5384559189e-04 2.7139154135e+00 -4.7006393836e+00 2.7139154135e+00 4.7006393836e+00 
606600 4.6892399241e+00 -1.5376149035e-04 2.7139182479e+00 -4.7006442929e+00 2.7139182479e+00 4.7006442929e+00 
606700 4.6892399234e+00 -1.5367743484e-04 2.7139210807e+00 -4.7006491995e+00 2.7139210807e+00 4.7006491995e+00 
606800 4.6892399227e+00 -1.5359342536e-04 2.7139239120e+00 -4.7006541034e+00 2.7139239120e+00 4.7006541034e+00 
606900 4.6892399220e+00 -1.5350946187e-04 2.7139267417e+00 -4.7006590047e+00 2.7139267417e+00 4.7006590047e+00 
607000 4.6892399213e+00 -1.5342554434e-04 2.7139295699e+00 -4.7006639032e+00 2.7139295699e+00 4.7006639032e+00 
607100 4.6892399206e+00 -1.5334167276e-04 2.7139323965e+00 -4.7006687991e+00 2.7139323965e+00 4.7006687991e+00 
607200 4.6892399199e+00 -1.5325784710e-04 2.7139352216e+00 -4.7006736923e+00 2.7139352216e+00 4.7006736923e+00 
607300 4.6892399192e+00 -1.5317406732e-04 2.7139380451e+00 -4.7006785828e+00 2.7139380451e+00 4.7006785828e+00 
607400 4.6892399185e+00 -1.5309033342e-04 2.7139408671e+00 -4.7006834706e+00 2.7139408671e+00 4.7006834706e+00 
607500 4.6892399178e+00 -1.5300664536e-04 2.7139436876e+00 -4.7006883558e+00 2.7139436876e+00 4.7006883558e+00 
607600 4.6892399171e+00 -1.5292300312e-04 2.7139465065e+00 -4.7006932382e+00 2.7139465065e+00 4.7006932382e+00 
607700 4.6892399164e+00 -1.5283940667e-04 2.7139493238e+00 -4.7006981180e+00 2.7139493238e+00 4.7006981180e+00 
607800 4.6892399157e+00 -1.5275585598e-04 2.7139521396e+00 -4.7007029952e+00 2.7139521396e+00 4.7007029952e+00 
607900 4.6892399150e+00 -1.5267235105e-04 2.7139549539e+00 -4.7007078696e+00 2.7139549539e+00 4.7007078696e+00 
608000 4.6892399143e+00 -1.5258889182e-04 2.7139577666e+00 -4.7007127414e+00 2.7139577666e+00 4.7007127414e+00 
608100 4.6892399136e+00 -1.5250547830e-04 2.7139605778e+00 -4.7007176105e+00 2.7139605778e+00 4.7007176105e+00 
608200 4.6892399129e+00 -1.5242211044e-04 2.7139633875e+00 -4.7007224770e+00 2.7139633875e+00 4.7007224770e+00 
608300 4.6892399122e+00 -1.5233878822e-04 2.7139661956e+00 -4.7007273408e+00 2.7139661956e+00 4.7007273408e+00 
608400 4.6892399115e+00 -1.5225551162e-04 2.7139690022e+00 -4.7007322019e+00 2.7139690022e+00 4.7007322019e+00 
608500 4.6892399108e+00 -1.5217228062e-04 2.7139718072e+00 -4.7007370604e+00 2.7139718072e+00 4.7007370604e+00 
608600 4.6892399101e+00 -1.5208909518e-04 2.7139746107e+00 -4.7007419162e+00 2.7139746107e+00 4.7007419162e+00 
608700 4.6892399094e+00 -1.5200595529e-04 2.7139774127e+00 -4.7007467693e+00 2.7139774127e+00 4.7007467693e+00 
608800 4.6892399087e+00 -1.5192286092e-04 2.7139802131e+00 -4.7007516198e+00 2.7139802131e+00 4.7007516198e+00 
608900 4.6892399081e+00 -1.5183981204e-04 2.7139830120e+00 -4.7007564676e+00 2.7139830120e+00 4.7007564676e+00 
609000 4.6892399074e+00 -1.5175680863e-04 2.7139858093e+00 -4.7007613128e+00 2.7139858093e+00 4.7007613128e+00 
609100 4.6892399067e+00 -1.5167385067e-04 2.7139886052e+00 -4.7007661553e+00 2.7139886052e+00 4.7007661553e+00 
609200 4.6892399060e+00 -1.5159093812e-04 2.7139913995e+00 -4.7007709952e+00 2.7139913995e+00 4.7007709952e+00 
609300 4.6892399053e+00 -1.5150807097e-04 2.7139941922e+00 -4.7007758324e+00 2.7139941922e+00 4.7007758324e+00 
609400 4.6892399046e+00 -1.5142524920e-04 2.7139969835e+00 -4.7007806670e+00 2.7139969835e+00 4.7007806670e+00 
609500 4.6892399039e+00 -1.5134247276e-04 2.7139997732e+00 -4.7007854989e+00 2.7139997732e+00 4.7007854989e+00 
609600 4.6892399033e+00 -1.5125974165e-04 2.7140025614e+00 -4.7007903282e+00 2.7140025614e+00 4.7007903282e+00 
609700 4.6892399026e+00 -1.5117705584e-04 2.7140053480e+00 -4.7007951548e+00 2.7140053480e+00 4.7007951548e+00 
609800 4.6892399019e+00 -1.5109441530e-04 2.7140081332e+00 -4.7007999788e+00 2.7140081332e+00 4.7007999788e+00 
609900 4.6892399012e+00 -1.5101182000e-04 2.7140109168e+00 -4.7008048001e+00 2.7140109168e+00 4.7008048001e+00 
610000 4.6892399005e+00 -1.5092926993e-04 2.7140136988e+00 -4.7008096188e+00 2.7140136988e+00 4.7008096188e+00 
610100 4.6892398998e+00 -1.5084676505e-04 2.7140164794e+00 -4.7008144349e+00 2.7140164794e+00 4.7008144349e+00 
610200 4.6892398992e+00 -1.5076430535e-04 2.7140192584e+00 -4.7008192483e+00 2.7140192584e+00 4.7008192483e+00 
610300 4.6892398985e+00 -1.5068189079e-04 2.7140220359e+00 -4.7008240591e+00 2.7140220359e+00 4.7008240591e+00 
610400 4.6892398978e+00 -1.5059952136e-04 2.7140248119e+00 -4.7008288672e+00 2.7140248119e+00 4.7008288672e+00 
610500 4.6892398971e+00 -1.5051719703e-04 2.7140275864e+00 -4.7008336728e+00 2.7140275864e+00 4.7008336728e+00 
610600 4.6892398965e+00 -1.5043491778e-04 2.7140303593e+00 -4.7008384757e+00 2.7140303593e+00 4.7008384757e+00 
610700 4.6892398958e+00 -1.5035268357e-04 2.7140331308e+00 -4.7008432759e+00 2.7140331308e+00 4.7008432759e+00 
610800 4.6892398951e+00 -1.5027049439e-04 2.7140359007e+00 -4.7008480735e+00 2.7140359007e+00 4.7008480735e+00 
610900 4.6892398944e+00 -1.5018835021e-04 2.7140386691e+00 -4.7008528685e+00 2.7140386691e+00 4.7008528685e+00 
611000 4.6892398938e+00 -1.5010625101e-04 2.7140414360e+00 -4.7008576609e+00 2.7140414360e+00 4.7008576609e+00 
611100 4.6892398931e+00 -1.5002419676e-04 2.7140442013e+00 -4.7008624507e+00 2.7140442013e+00 4.7008624507e+00 
611200 4.6892398924e+00 -1.4994218743e-04 2.7140469652e+00 -4.7008672378e+00 2.7140469652e+00 4.7008672378e+00 
611300 4.6892398918e+00 -1.4986022301e-04 2.7140497275e+00 -4.7008720223e+00 2.7140497275e+00 4.7008720223e+00 
611400 4.6892398911e+00 -1.4977830347e-04 2.7140524883e+00 -4.7008768042e+00 2.7140524883e+00 4.7008768042e+00 
611500 4.6892398904e+00 -1.4969642878e-04 2.7140552476e+00 -4.7008815835e+00 2.7140552476e+00 4.7008815835e+00 
611600 4.6892398897e+00 -1.4961459892e-04 2.7140580054e+00 -4.7008863601e+00 2.7140580054e+00 4.7008863601e+00 
611700 4.6892398891e+00 -1.4953281387e-04 2.7140607617e+00 -4.7008911342e+00 2.7140607617e+00 4.7008911342e+00 
611800 4.6892398884e+00 -1.4945107360e-04 2.7140635165e+00 -4.7008959056e+00 2.7140635165e+00 4.7008959056e+00 
611900 4.6892398877e+00 -1.4936937808e-04 2.7140662698e+00 -4.7009006744e+00 2.7140662698e+00 4.7009006744e+00 
612000 4.6892398871e+00 -1.4928772730e-04 2.7140690216e+00 -4.7009054406e+00 2.7140690216e+00 4.7009054406e+00 
612100 4.6892398864e+00 -1.4920612122e-04 2.7140717718e+00 -4.7009102042e+00 2.7140717718e+00 4.7009102042e+00 
612200 4.6892398858e+00 -1.4912455983e-04 2.7140745206e+00 -4.7009149651e+00 2.7140745206e+00 4.7009149651e+00 
612300 4.6892398851e+00 -1.4904304309e-04 2.7140772678e+00 -4.7009197235e+00 2.7140772678e+00 4.7009197235e+00 
612400 4.6892398844e+00 -1.4896157099e-04 2.7140800135e+00 -4.7009244793e+00 2.7140800135e+00 4.7009244793e+00 
612500 4.6892398838e+00 -1.4888014350e-04 2.7140827578e+00 -4.7009292324e+00 2.7140827578e+00 4.7009292324e+00 
612600 4.6892398831e+00 -1.4879876060e-04 2.7140855005e+00 -4.7009339830e+00 2.7140855005e+00 4.7009339830e+00 
612700 4.6892398824e+00 -1.4871742226e-04 2.7140882417e+00 -4.7009387309e+00 2.7140882417e+00 4.7009387309e+00 
612800 4.6892398818e+00 -1.4863612845e-04 2.7140909815e+00 -4.7009434763e+00 2.7140909815e+00 4.7009434763e+00 
612900 4.6892398811e+00 -1.4855487916e-04 2.7140937197e+00 -4.7009482190e+00 2.7140937197e+00 4.7009482190e+00 
613000 4.6892398805e+00 -1.4847367435e-04 2.7140964564e+00 -4.7009529592e+00 2.7140964564e+00 4.7009529592e+00 
613100 4.6892398798e+00 -1.4839251401e-04 2.7140991917e+00 -4.7009576968e+00 2.7140991917e+00 4.7009576968e+00 
613200 4.6892398792e+00 -1.4831139811e-04 2.7141019254e+00 -4.7009624317e+00 2.7141019254e+00 4.7009624317e+00 
613300 4.6892398785e+00 -1.4823032663e-04 2.7141046576e+00 -4.7009671641e+00 2.7141046576e+00 4.7009671641e+00 
613400 4.6892398778e+00 -1.4814929954e-04 2.7141073884e+00 -4.7009718939e+00 2.7141073884e+00 4.7009718939e+00 
613500 4.6892398772e+00 -1.4806831681e-04 2.7141101176e+00 -4.7009766211e+00 2.7141101176e+00 4.7009766211e+00 
613600 4.6892398765e+00 -1.4798737843e-04 2.7141128454e+00 -4.7009813457e+00 2.7141128454e+00 4.7009813457e+00 
613700 4.6892398759e+00 -1.4790648437e-04 2.7141155716e+00 -4.7009860677e+00 2.7141155716e+00 4.7009860677e+00 
613800 4.6892398752e+00 -1.4782563460e-04 2.7141182964e+00 -4.7009907871e+00 2.7141182964e+00 4.7009907871e+00 
613900 4.6892398746e+00 -1.4774482911e-04 2.7141210197e+00 -4.7009955040e+00 2.7141210197e+00 4.7009955040e+00 
614000 4.6892398739e+00 -1.4766406786e-04 2.7141237415e+00 -4.7010002182e+00 2.7141237415e+00 4.7010002182e+00 
614100 4.6892398733e+00 -1.4758335083e-04 2.7141264618e+00 -4.7010049299e+00 2.7141264618e+00 4.7010049299e+00 
614200 4.6892398726e+00 -1.4750267800e-04 2.7141291806e+00 -4.7010096390e+00 2.7141291806e+00 4.7010096390e+00 
614300 4.6892398720e+00 -1.4742204935e-04 2.7141318979e+00 -4.7010143455e+00 2.7141318979e+00 4.7010143455e+00 
614400 4.6892398713e+00 -1.4734146484e-04 2.7141346137e+00 -4.7010190495e+00 2.7141346137e+00 4.7010190495e+00 
614500 4.6892398707e+00 -1.4726092447e-04 2.7141373280e+00 -4.7010237509e+00 2.7141373280e+00 4.7010237509e+00 
614600 4.6892398700e+00 -1.4718042819e-04 2.7141400409e+00 -4.7010284496e+00 2.7141400409e+00 4.7010284496e+00 
614700 4.6892398694e+00 -1.4709997599e-04 2.7141427522e+00 -4.7010331459e+00 2.7141427522e+00 4.7010331459e+00 
614800 4.6892398687e+00 -1.4701956785e-04 2.7141454621e+00 -4.7010378395e+00 2.7141454621e+00 4.7010378395e+00 
614900 4.6892398681e+00 -1.4693920373e-04 2.7141481705e+00 -4.7010425306e+00 2.7141481705e+00 4.7010425306e+00 
615000 4.6892398674e+00 -1.4685888363e-04 2.7141508774e+00 -4.7010472191e+00 2.7141508774e+00 4.7010472191e+00 
615100 4.6892398668e+00 -1.4677860750e-04 2.7141535829e+00 -4.7010519051e+00 2.7141535829e+00 4.7010519051e+00 
615200 4.6892398662e+00 -1.4669837533e-04 2.7141562868e+00 -4.7010565884e+00 2.7141562868e+00 4.7010565884e+00 
615300 4.6892398655e+00 -1.4661818710e-04 2.7141589893e+00 -4.7010612692e+00 2.7141589893e+00 4.7010612692e+00 
615400 4.6892398649e+00 -1.4653804277e-04 2.7141616903e+00 -4.7010659475e+00 2.7141616903e+00 4.7010659475e+00 
615500 4.6892398642e+00 -1.4645794233e-04 2.7141643898e+00 -4.7010706232e+00 2.7141643898e+00 4.7010706232e+00 
615600 4.6892398636e+00 -1.4637788576e-04 2.7141670878e+00 -4.7010752963e+00 2.7141670878e+00 4.7010752963e+00 
615700 4.6892398630e+00 -1.4629787302e-04 2.7141697844e+00 -4.7010799669e+00 2.7141697844e+00 4.7010799669e+00 
615800 4.6892398623e+00 -1.4621790410e-04 2.7141724794e+00 -4.7010846349e+00 2.7141724794e+00 4.7010846349e+00 
615900 4.6892398617e+00 -1.4613797896e-04 2.7141751730e+00 -4.7010893003e+00 2.7141751730e+00 4.7010893003e+00 
616000 4.6892398610e+00 -1.4605809759e-04 2.7141778652e+00 -4.7010939632e+00 2.7141778652e+00 4.7010939632e+00 
616100 4.6892398604e+00 -1.4597825997e-04 2.7141805558e+00 -4.7010986236e+00 2.7141805558e+00 4.7010986236e+00 
616200 4.6892398598e+00 -1.4589846606e-04 2.7141832450e+00 -4.7011032814e+00 2.7141832450e+00 4.7011032814e+00 
616300 4.6892398591e+00 -1.4581871585e-04 2.7141859327e+00 -4.7011079366e+00 2.7141859327e+00 4.7011079366e+00 
616400 4.6892398585e+00 -1.4573900931e-04 2.7141886189e+00 -4.7011125893e+00 2.7141886189e+00 4.7011125893e+00 
616500 4.6892398579e+00 -1.4565934642e-04 2.7141913037e+00 -4.7011172394e+00 2.7141913037e+00 4.7011172394e+00 
616600 4.6892398572e+00 -1.4557972715e-04 2.7141939870e+00 -4.7011218870e+00 2.7141939870e+00 4.7011218870e+00 
616700 4.6892398566e+00 -1.4550015148e-04 2.7141966688e+00 -4.7011265321e+00 2.7141966688e+00 4.7011265321e+00 
616800 4.6892398560e+00 -1.4542061939e-04 2.7141993492e+00 -4.7011311746e+00 2.7141993492e+00 4.7011311746e+00 
616900 4.6892398553e+00 -1.4534113085e-04 2.7142020280e+00 -4.7011358146e+00 2.7142020280e+00 4.7011358146e+00 
617000 4.6892398547e+00 -1.4526168583e-04 2.7142047055e+00 -4.7011404520e+00 2.7142047055e+00 4.7011404520e+00 
617100 4.6892398541e+00 -1.4518228432e-04 2.7142073814e+00 -4.7011450869e+00 2.7142073814e+00 4.7011450869e+00 
617200 4.6892398535e+00 -1.4510292629e-04 2.7142100559e+00 -4.7011497192e+00 2.7142100559e+00 4.7011497192e+00 
617300 4.6892398528e+00 -1.4502361172e-04 2.7142127289e+00 -4.7011543490e+00 2.7142127289e+00 4.7011543490e+00 
617400 4.6892398522e+00 -1.4494434059e-04 2.7142154005e+00 -4.7011589763e+00 2.7142154005e+00 4.7011589763e+00 
617500 4.6892398516e+00 -1.4486511286e-04 2.7142180706e+00 -4.7011636011e+00 2.7142180706e+00 4.7011636011e+00 
617600 4.6892398509e+00 -1.4478592851e-04 2.7142207392e+00 -4.7011682233e+00 2.7142207392e+00 4.7011682233e+00 
617700 4.6892398503e+00 -1.4470678753e-04 2.7142234064e+00 -4.7011728430e+00 2.7142234064e+00 4.7011728430e+00 
617800 4.6892398497e+00 -1.4462768989e-04 2.7142260721e+00 -4.7011774601e+00 2.7142260721e+00 4.7011774601e+00 
617900 4.6892398491e+00 -1.4454863557e-04 2.7142287364e+00 -4.7011820747e+00 2.7142287364e+00 4.7011820747e+00 
618000 4.6892398484e+00 -1.4446962453e-04 2.7142313992e+00 -4.7011866868e+00 2.7142313992e+00 4.7011866868e+00 
618100 4.6892398478e+00 -1.4439065676e-04 2.7142340605e+00 -4.7011912964e+00 2.7142340605e+00 4.7011912964e+00 
618200 4.6892398472e+00 -1.4431173224e-04 2.7142367204e+00 -4.7011959034e+00 2.7142367204e+00 4.7011959034e+00 
618300 4.6892398466e+00 -1.4423285094e-04 2.7142393788e+00 -4.7012005080e+00 2.7142393788e+00 4.7012005080e+00 
618400 4.6892398460e+00 -1.4415401283e-04 2.7142420358e+00 -4.7012051100e+00 2.7142420358e+00 4.7012051100e+00 
618500 4.6892398453e+00 -1.4407521790e-04 2.7142446913e+00 -4.7012097094e+00 2.7142446913e+00 4.7012097094e+00 
618600 4.6892398447e+00 -1.4399646612e-04 2.7142473453e+00 -4.7012143064e+00 2.7142473453e+00 4.7012143064e+00 
618700 4.6892398441e+00 -1.4391775746e-04 2.7142499979e+00 -4.7012189009e+00 2.7142499979e+00 4.7012189009e+00 
618800 4.6892398435e+00 -1.4383909191e-04 2.7142526491e+00 -4.7012234928e+00 2.7142526491e+00 4.7012234928e+00 
618900 4.6892398429e+00 -1.4376046943e-04 2.7142552988e+00 -4.7012280822e+00 2.7142552988e+00 4.7012280822e+00 
619000 4.6892398422e+00 -1.4368189001e-04 2.7142579470e+00 -4.7012326691e+00 2.7142579470e+00 4.7012326691e+00 
619100 4.6892398416e+00 -1.4360335363e-04 2.7142605938e+00 -4.7012372535e+00 2.7142605938e+00 4.7012372535e+00 
619200 4.6892398410e+00 -1.4352486025e-04 2.7142632392e+00 -4.7012418354e+00 2.7142632392e+00 4.7012418354e+00 
619300 4.6892398404e+00 -1.4344640985e-04 2.7142658831e+00 -4.7012464147e+00 2.7142658831e+00 4.7012464147e+00 
619400 4.6892398398e+00 -1.4336800242e-04 2.7142685255e+00 -4.7012509916e+00 2.7142685255e+00 4.7012509916e+00 
619500 4.6892398392e+00 -1.4328963793e-04 2.7142711665e+00 -4.7012555660e+00 2.7142711665e+00 4.7012555660e+00 
619600 4.6892398386e+00 -1.4321131635e-04 2.7142738061e+00 -4.7012601378e+00 2.7142738061e+00 4.7012601378e+00 
619700 4.6892398379e+00 -1.4313303766e-04 2.7142764442e+00 -4.7012647072e+00 2.7142764442e+00 4.7012647072e+00 
619800 4.6892398373e+00 -1.4305480185e-04 2.7142790809e+00 -4.7012692740e+00 2.7142790809e+00 4.7012692740e+00 
619900 4.6892398367e+00 -1.4297660887e-04 2.7142817161e+00 -4.7012738384e+00 2.7142817161e+00 4.7012738384e+00 
620000 4.6892398361e+00 -1.4289845872e-04 2.7142843499e+00 -4.7012784002e+00 2.7142843499e+00 4.7012784002e+00 
620100 4.6892398355e+00 -1.4282035136e-04 2.7142869822e+00 -4.7012829596e+00 2.7142869822e+00 4.7012829596e+00 
620200 4.6892398349e+00 -1.4274228678e-04 2.7142896131e+00 -4.7012875164e+00 2.7142896131e+00 4.7012875164e+00 
620300 4.6892398343e+00 -1.4266426495e-04 2.7142922426e+00 -4.7012920708e+00 2.7142922426e+00 4.7012920708e+00 
620400 4.6892398337e+00 -1.4258628585e-04 2.7142948706e+00 -4.7012966226e+00 2.7142948706e+00 4.7012966226e+00 
620500 4.6892398331e+00 -1.4250834945e-04 2.7142974972e+00 -4.7013011720e+00 2.7142974972e+00 4.7013011720e+00 
620600 4.6892398325e+00 -1.4243045574e-04 2.7143001223e+00 -4.7013057189e+00 2.7143001223e+00 4.7013057189e+00 
620700 4.6892398319e+00 -1.4235260468e-04 2.7143027460e+00 -4.7013102633e+00 2.7143027460e+00 4.7013102633e+00 
620800 4.6892398313e+00 -1.4227479626e-04 2.7143053683e+00 -4.7013148052e+00 2.7143053683e+00 4.7013148052e+00 
620900 4.6892398307e+00 -1.4219703044e-04 2.7143079892e+00 -4.7013193446e+00 2.7143079892e+00 4.7013193446e+00 
621000 4.6892398301e+00 -1.4211930722e-04 2.7143106085e+00 -4.7013238815e+00 2.7143106085e+00 4.7013238815e+00 
621100 4.6892398294e+00 -1.4204162656e-04 2.7143132265e+00 -4.7013284160e+00 2.7143132265e+00 4.7013284160e+00 
621200 4.6892398288e+00 -1.4196398844e-04 2.7143158430e+00 -4.7013329479e+00 2.7143158430e+00 4.7013329479e+00 
621300 4.6892398282e+00 -1.4188639284e-04 2.7143184581e+00 -4.7013374774e+00 2.7143184581e+00 4.7013374774e+00 
621400 4.6892398276e+00 -1.4180883974e-04 2.7143210718e+00 -4.7013420044e+00 2.7143210718e+00 4.7013420044e+00 
621500 4.6892398270e+00 -1.4173132911e-04 2.7143236840e+00 -4.7013465289e+00 2.7143236840e+00 4.7013465289e+00 
621600 4.6892398264e+00 -1.4165386092e-04 2.7143262948e+00 -4.7013510510e+00 2.7143262948e+00 4.7013510510e+00 
621700 4.6892398258e+00 -1.4157643516e-04 2.7143289042e+00 -4.7013555706e+00 2.7143289042e+00 4.7013555706e+00 
621800 4.6892398252e+00 -1.4149905181e-04 2.7143315122e+00 -4.7013600877e+00 2.7143315122e+00 4.7013600877e+00 
621900 4.6892398246e+00 -1.4142171083e-04 2.7143341187e+00 -4.7013646023e+00 2.7143341187e+00 4.7013646023e+00 
622000 4.6892398241e+00 -1.4134441221e-04 2.7143367238e+00 -4.7013691144e+00 2.7143367238e+00 4.7013691144e+00 
622100 4.6892398235e+00 -1.4126715592e-04 2.7143393274e+00 -4.7013736241e+00 2.7143393274e+00 4.7013736241e+00 
622200 4.6892398229e+00 -1.4118994195e-04 2.7143419297e+00 -4.7013781313e+00 2.7143419297e+00 4.7013781313e+00 
622300 4.6892398223e+00 -1.4111277025e-04 2.7143445305e+00 -4.7013826361e+00 2.7143445305e+00 4.7013826361e+00 
622400 4.6892398217e+00 -1.4103564083e-04 2.7143471299e+00 -4.7013871383e+00 2.7143471299e+00 4.7013871383e+00 
622500 4.6892398211e+00 -1.4095855364e-04 2.7143497278e+00 -4.7013916381e+00 2.7143497278e+00 4.7013916381e+00 
622600 4.6892398205e+00 -1.4088150867e-04 2.7143523244e+00 -4.7013961355e+00 2.7143523244e+00 4.7013961355e+00 
622700 4.6892398199e+00 -1.4080450590e-04 2.7143549195e+00 -4.7014006304e+00 2.7143549195e+00 4.7014006304e+00 
622800 4.6892398193e+00 -1.4072754529e-04 2.7143575132e+00 -4.7014051228e+00 2.7143575132e+00 4.7014051228e+00 
622900 4.6892398187e+00 -1.4065062684e-04 2.7143601055e+00 -4.7014096128e+00 2.7143601055e+00 4.7014096128e+00 
623000 4.6892398181e+00 -1.4057375051e-04 2.7143626964e+00 -4.7014141003e+00 2.7143626964e+00 4.7014141003e+00 
623100 4.6892398175e+00 -1.4049691628e-04 2.7143652858e+00 -4.7014185853e+00 2.7143652858e+00 4.7014185853e+00 
623200 4.6892398169e+00 -1.4042012413e-04 2.7143678738e+00 -4.7014230679e+00 2.7143678738e+00 4.7014230679e+00 
623300 4.6892398163e+00 -1.4034337404e-04 2.7143704604e+00 -4.7014275480e+00 2.7143704604e+00 4.7014275480e+00 
623400 4.6892398158e+00 -1.4026666598e-04 2.7143730456e+00 -4.7014320257e+00 2.7143730456e+00 4.7014320257e+00 
623500 4.6892398152e+00 -1.4018999993e-04 2.7143756294e+00 -4.7014365010e+00 2.7143756294e+00 4.7014365010e+00 
623600 4.6892398146e+00 -1.4011337587e-04 2.7143782118e+00 -4.7014409737e+00 2.7143782118e+00 4.7014409737e+00 
623700 4.6892398140e+00 -1.4003679378e-04 2.7143807927e+00 -4.7014454441e+00 2.7143807927e+00 4.7014454441e+00 
623800 4.6892398134e+00 -1.3996025362e-04 2.7143833723e+00 -4.7014499120e+00 2.7143833723e+00 4.7014499120e+00 
623900 4.6892398128e+00 -1.3988375539e-04 2.7143859504e+00 -4.7014543774e+00 2.7143859504e+00 4.7014543774e+00 
624000 4.6892398122e+00 -1.3980729905e-04 2.7143885271e+00 -4.7014588404e+00 2.7143885271e+00 4.7014588404e+00 
624100 4.6892398117e+00 -1.3973088458e-04 2.7143911024e+00 -4.7014633009e+00 2.7143911024e+00 4.7014633009e+00 
624200 4.6892398111e+00 -1.3965451197e-04 2.7143936763e+00 -4.7014677591e+00 2.7143936763e+00 4.7014677591e+00 
624300 4.6892398105e+00 -1.3957818118e-04 2.7143962488e+00 -4.7014722147e+00 2.7143962488e+00 4.7014722147e+00 
624400 4.6892398099e+00 -1.3950189219e-04 2.7143988198e+00 -4.7014766680e+00 2.7143988198e+00 4.7014766680e+00 
624500 4.6892398093e+00 -1.3942564499e-04 2.7144013895e+00 -4.7014811187e+00 2.7144013895e+00 4.7014811187e+00 
624600 4.6892398088e+00 -1.3934943955e-04 2.7144039578e+00 -4.7014855671e+00 2.7144039578e+00 4.7014855671e+00 
624700 4.6892398082e+00 -1.3927327584e-04 2.7144065246e+00 -4.7014900130e+00 2.7144065246e+00 4.7014900130e+00 
624800 4.6892398076e+00 -1.3919715384e-04 2.7144090901e+00 -4.7014944565e+00 2.7144090901e+00 4.7014944565e+00 
624900 4.6892398070e+00 -1.3912107354e-04 2.7144116541e+00 -4.7014988975e+00 2.7144116541e+00 4.7014988975e+00 
625000 4.6892398064e+00 -1.3904503490e-04 2.7144142167e+00 -4.7015033362e+00 2.7144142167e+00 4.7015033362e+00 
625100 4.6892398059e+00 -1.3896903791e-04 2.7144167780e+00 -4.7015077724e+00 2.7144167780e+00 4.7015077724e+00 
625200 4.6892398053e+00 -1.3889308254e-04 2.7144193378e+00 -4.7015122061e+00 2.7144193378e+00 4.7015122061e+00 
625300 4.6892398047e+00 -1.3881716877e-04 2.7144218962e+00 -4.7015166375e+00 2.7144218962e+00 4.7015166375e+00 
625400 4.6892398041e+00 -1.3874129657e-04 2.7144244533e+00 -4.7015210664e+00 2.7144244533e+00 4.7015210664e+00 
625500 4.6892398036e+00 -1.3866546593e-04 2.7144270089e+00 -4.7015254928e+00 2.7144270089e+00 4.7015254928e+00 
625600 4.6892398030e+00 -1.3858967682e-04 2.7144295631e+00 -4.7015299169e+00 2.7144295631e+00 4.7015299169e+00 
625700 4.6892398024e+00 -1.3851392922e-04 2.7144321160e+00 -4.7015343385e+00 2.7144321160e+00 4.7015343385e+00 
625800 4.6892398018e+00 -1.3843822311e-04 2.7144346674e+00 -4.7015387577e+00 2.7144346674e+00 4.7015387577e+00 
625900 4.6892398013e+00 -1.3836255846e-04 2.7144372174e+00 -4.7015431745e+00 2.7144372174e+00 4.7015431745e+00 
626000 4.6892398007e+00 -1.3828693524e-04 2.7144397661e+00 -4.7015475889e+00 2.7144397661e+00 4.7015475889e+00 
626100 4.6892398001e+00 -1.3821135345e-04 2.7144423133e+00 -4.7015520009e+00 2.7144423133e+00 4.7015520009e+00 
626200 4.6892397996e+00 -1.3813581305e-04 2.7144448592e+00 -4.7015564104e+00 2.7144448592e+00 4.7015564104e+00 
626300 4.6892397990e+00 -1.3806031403e-04 2.7144474036e+00 -4.7015608176e+00 2.7144474036e+00 4.7015608176e+00 
626400 4.6892397984e+00 -1.3798485635e-04 2.7144499467e+00 -4.7015652223e+00 2.7144499467e+00 4.7015652223e+00 
626500 4.6892397978e+00 -1.3790944000e-04 2.7144524884e+00 -4.7015696246e+00 2.7144524884e+00 4.7015696246e+00 
626600 4.6892397973e+00 -1.3783406496e-04 2.7144550286e+00 -4.7015740245e+00 2.7144550286e+00 4.7015740245e+00 
626700 4.6892397967e+00 -1.3775873120e-04 2.7144575675e+00 -4.7015784220e+00 2.7144575675e+00 4.7015784220e+00 
626800 4.6892397961e+00 -1.3768343870e-04 2.7144601050e+00 -4.7015828170e+00 2.7144601050e+00 4.7015828170e+00 
626900 4.6892397956e+00 -1.3760818743e-04 2.7144626412e+00 -4.7015872097e+00 2.7144626412e+00 4.7015872097e+00 
627000 4.6892397950e+00 -1.3753297739e-04 2.7144651759e+00 -4.7015916000e+00 2.7144651759e+00 4.7015916000e+00 
627100 4.6892397944e+00 -1.3745780853e-04 2.7144677092e+00 -4.7015959879e+00 2.7144677092e+00 4.7015959879e+00 
627200 4.6892397939e+00 -1.3738268084e-04 2.7144702412e+00 -4.7016003733e+00 2.7144702412e+00 4.7016003733e+00 
627300 4.6892397933e+00 -1.3730759430e-04 2.7144727717e+00 -4.7016047564e+00 2.7144727717e+00 4.7016047564e+00 
627400 4.6892397928e+00 -1.3723254888e-04 2.7144753009e+00 -4.7016091370e+00 2.7144753009e+00 4.7016091370e+00 
627500 4.6892397922e+00 -1.3715754457e-04 2.7144778287e+00 -4.7016135153e+00 2.7144778287e+00 4.7016135153e+00 
627600 4.6892397916e+00 -1.3708258134e-04 2.7144803551e+00 -4.7016178912e+00 2.7144803551e+00 4.7016178912e+00 
627700 4.6892397911e+00 -1.3700765916e-04 2.7144828801e+00 -4.7016222646e+00 2.7144828801e+00 4.7016222646e+00 
627800 4.6892397905e+00 -1.3693277802e-04 2.7144854038e+00 -4.7016266357e+00 2.7144854038e+00 4.7016266357e+00 
627900 4.6892397899e+00 -1.3685793789e-04 2.7144879260e+00 -4.7016310044e+00 2.7144879260e+00 4.7016310044e+00 
628000 4.6892397894e+00 -1.3678313875e-04 2.7144904469e+00 -4.7016353707e+00 2.7144904469e+00 4.7016353707e+00 
628100 4.6892397888e+00 -1.3670838058e-04 2.7144929664e+00 -4.7016397346e+00 2.7144929664e+00 4.7016397346e+00 
628200 4.6892397883e+00 -1.3663366335e-04 2.7144954845e+00 -4.7016440961e+00 2.7144954845e+00 4.7016440961e+00 
628300 4.6892397877e+00 -1.3655898705e-04 2.7144980013e+00 -4.7016484552e+00 2.7144980013e+00 4.7016484552e+00 
628400 4.6892397872e+00 -1.3648435165e-04 2.7145005166e+00 -4.7016528120e+00 2.7145005166e+00 4.7016528120e+00 
628500 4.6892397866e+00 -1.3640975712e-04 2.7145030306e+00 -4.7016571663e+00 2.7145030306e+00 4.7016571663e+00 
628600 4.6892397860e+00 -1.3633520345e-04 2.7145055432e+00 -4.7016615183e+00 2.7145055432e+00 4.7016615183e+00 
628700 4.6892397855e+00 -1.3626069062e-04 2.7145080545e+00 -4.7016658679e+00 2.7145080545e+00 4.7016658679e+00 
628800 4.6892397849e+00 -1.3618621859e-04 2.7145105643e+00 -4.7016702151e+00 2.7145105643e+00 4.7016702151e+00 
628900 4.6892397844e+00 -1.3611178736e-04 2.7145130728e+00 -4.7016745599e+00 2.7145130728e+00 4.7016745599e+00 
629000 4.6892397838e+00 -1.3603739689e-04 2.7145155799e+00 -4.7016789024e+00 2.7145155799e+00 4.7016789024e+00 
629100 4.6892397833e+00 -1.3596304716e-04 2.7145180857e+00 -4.7016832424e+00 2.7145180857e+00 4.7016832424e+00 
629200 4.6892397827e+00 -1.3588873816e-04 2.7145205900e+00 -4.7016875801e+00 2.7145205900e+00 4.7016875801e+00 
629300 4.6892397822e+00 -1.3581446986e-04 2.7145230930e+00 -4.7016919154e+00 2.7145230930e+00 4.7016919154e+00 
629400 4.6892397816e+00 -1.3574024223e-04 2.7145255947e+00 -4.7016962484e+00 2.7145255947e+00 4.7016962484e+00 
629500 4.6892397811e+00 -1.3566605526e-04 2.7145280949e+00 -4.7017005790e+00 2.7145280949e+00 4.7017005790e+00 
629600 4.6892397805e+00 -1.3559190892e-04 2.7145305938e+00 -4.7017049072e+00 2.7145305938e+00 4.7017049072e+00 
629700 4.6892397800e+00 -1.3551780320e-04 2.7145330913e+00 -4.7017092330e+00 2.7145330913e+00 4.7017092330e+00 
629800 4.6892397794e+00 -1.3544373806e-04 2.7145355875e+00 -4.7017135565e+00 2.7145355875e+00 4.7017135565e+00 
629900 4.6892397789e+00 -1.3536971349e-04 2.7145380823e+00 -4.7017178776e+00 2.7145380823e+00 4.7017178776e+00 
630000 4.6892397783e+00 -1.3529572946e-04 2.7145405757e+00 -4.7017221963e+00 2.7145405757e+00 4.7017221963e+00 
630100 4.6892397778e+00 -1.3522178596e-04 2.7145430677e+00 -4.7017265127e+00 2.7145430677e+00 4.7017265127e+00 
630200 4.6892397772e+00 -1.3514788295e-04 2.7145455584e+00 -4.7017308267e+00 2.7145455584e+00 4.7017308267e+00 
630300 4.6892397767e+00 -1.3507402043e-04 2.7145480478e+00 -4.7017351383e+00 2.7145480478e+00 4.7017351383e+00 
630400 4.6892397761e+00 -1.3500019835e-04 2.7145505357e+00 -4.7017394476e+00 2.7145505357e+00 4.7017394476e+00 
630500 4.6892397756e+00 -1.3492641672e-04 2.7145530223e+00 -4.7017437545e+00 2.7145530223e+00 4.7017437545e+00 
630600 4.6892397751e+00 -1.3485267549e-04 2.7145555076e+00 -4.7017480591e+00 2.7145555076e+00 4.7017480591e+00 
630700 4.6892397745e+00 -1.3477897465e-04 2.7145579915e+00 -4.7017523613e+00 2.7145579915e+00 4.7017523613e+00 
630800 4.6892397740e+00 -1.3470531418e-04 2.7145604740e+00 -4.7017566611e+00 2.7145604740e+00 4.7017566611e+00 
630900 4.6892397734e+00 -1.3463169406e-04 2.7145629551e+00 -4.7017609586e+00 2.7145629551e+00 4.7017609586e+00 
631000 4.6892397729e+00 -1.3455811426e-04 2.7145654349e+00 -4.7017652538e+00 2.7145654349e+00 4.7017652538e+00 
631100 4.6892397723e+00 -1.3448457476e-04 2.7145679134e+00 -4.7017695466e+00 2.7145679134e+00 4.7017695466e+00 
631200 4.6892397718e+00 -1.3441107554e-04 2.7145703905e+00 -4.7017738370e+00 2.7145703905e+00 4.7017738370e+00 
631300 4.6892397713e+00 -1.3433761657e-04 2.7145728662e+00 -4.7017781251e+00 2.7145728662e+00 4.7017781251e+00 
631400 4.6892397707e+00 -1.3426419784e-04 2.7145753406e+00 -4.7017824109e+00 2.7145753406e+00 4.7017824109e+00 
631500 4.6892397702e+00 -1.3419081933e-04 2.7145778136e+00 -4.7017866943e+00 2.7145778136e+00 4.7017866943e+00 
631600 4.6892397697e+00 -1.3411748100e-04 2.7145802853e+00 -4.7017909753e+00 2.7145802853e+00 4.7017909753e+00 
631700 4.6892397691e+00 -1.3404418285e-04 2.7145827556e+00 -4.7017952541e+00 2.7145827556e+00 4.7017952541e+00 
631800 4.6892397686e+00 -1.3397092484e-04 2.7145852246e+00 -4.7017995304e+00 2.7145852246e+00 4.7017995304e+00 
631900 4.6892397680e+00 -1.3389770696e-04 2.7145876922e+00 -4.7018038045e+00 2.7145876922e+00 4.7018038045e+00 
632000 4.6892397675e+00 -1.3382452918e-04 2.7145901584e+00 -4.7018080762e+00 2.7145901584e+00 4.7018080762e+00 
632100 4.6892397670e+00 -1.3375139148e-04 2.7145926234e+00 -4.7018123455e+00 2.7145926234e+00 4.7018123455e+00 
632200 4.6892397664e+00 -1.3367829384e-04 2.7145950869e+00 -4.7018166125e+00 2.7145950869e+00 4.7018166125e+00 
632300 4.6892397659e+00 -1.3360523624e-04 2.7145975491e+00 -4.7018208772e+00 2.7145975491e+00 4.7018208772e+00 
632400 4.6892397654e+00 -1.3353221865e-04 2.7146000100e+00 -4.7018251396e+00 2.7146000100e+00 4.7018251396e+00 
632500 4.6892397648e+00 -1.3345924106e-04 2.7146024695e+00 -4.7018293996e+00 2.7146024695e+00 4.7018293996e+00 
632600 4.6892397643e+00 -1.3338630344e-04 2.7146049277e+00 -4.7018336572e+00 2.7146049277e+00 4.7018336572e+00 
632700 4.6892397638e+00 -1.3331340577e-04 2.7146073845e+00 -4.7018379126e+00 2.7146073845e+00 4.7018379126e+00 
632800 4.6892397632e+00 -1.3324054803e-04 2.7146098400e+00 -4.7018421656e+00 2.7146098400e+00 4.7018421656e+00 
632900 4.6892397627e+00 -1.3316773020e-04 2.7146122941e+00 -4.7018464163e+00 2.7146122941e+00 4.7018464163e+00 
633000 4.6892397622e+00 -1.3309495224e-04 2.7146147469e+00 -4.7018506647e+00 2.7146147469e+00 4.7018506647e+00 
633100 4.6892397617e+00 -1.3302221416e-04 2.7146171984e+00 -4.7018549107e+00 2.7146171984e+00 4.7018549107e+00 
633200 4.6892397611e+00 -1.3294951591e-04 2.7146196485e+00 -4.7018591544e+00 2.7146196485e+00 4.7018591544e+00 
633300 4.6892397606e+00 -1.3287685748e-04 2.7146220973e+00 -4.7018633958e+00 2.7146220973e+00 4.7018633958e+00 
633400 4.6892397601e+00 -1.3280423885e-04 2.7146245447e+00 -4.7018676349e+00 2.7146245447e+00 4.7018676349e+00 
633500 4.6892397595e+00 -1.3273166000e-04 2.7146269908e+00 -4.7018718716e+00 2.7146269908e+00 4.7018718716e+00 
633600 4.6892397590e+00 -1.3265912089e-04 2.7146294355e+00 -4.7018761061e+00 2.7146294355e+00 4.7018761061e+00 
633700 4.6892397585e+00 -1.3258662153e-04 2.7146318789e+00 -4.7018803382e+00 2.7146318789e+00 4.7018803382e+00 
633800 4.6892397580e+00 -1.3251416187e-04 2.7146343210e+00 -4.7018845680e+00 2.7146343210e+00 4.7018845680e+00 
633900 4.6892397574e+00 -1.3244174190e-04 2.7146367618e+00 -4.7018887955e+00 2.7146367618e+00 4.7018887955e+00 
634000 4.6892397569e+00 -1.3236936159e-04 2.7146392012e+00 -4.7018930206e+00 2.7146392012e+00 4.7018930206e+00 
634100 4.6892397564e+00 -1.3229702094e-04 2.7146416392e+00 -4.7018972435e+00 2.7146416392e+00 4.7018972435e+00 
634200 4.6892397559e+00 -1.3222471990e-04 2.7146440760e+00 -4.7019014640e+00 2.7146440760e+00 4.7019014640e+00 
634300 4.6892397553e+00 -1.3215245847e-04 2.7146465114e+00 -4.7019056823e+00 2.7146465114e+00 4.7019056823e+00 
634400 4.6892397548e+00 -1.3208023662e-04 2.7146489454e+00 -4.7019098982e+00 2.7146489454e+00 4.7019098982e+00 
634500 4.6892397543e+00 -1.3200805433e-04 2.7146513782e+00 -4.7019141118e+00 2.7146513782e+00 4.7019141118e+00 
634600 4.6892397538e+00 -1.3193591157e-04 2.7146538096e+00 -4.7019183231e+00 2.7146538096e+00 4.7019183231e+00 
634700 4.6892397533e+00 -1.3186380833e-04 2.7146562396e+00 -4.7019225321e+00 2.7146562396e+00 4.7019225321e+00 
634800 4.6892397527e+00 -1.3179174458e-04 2.7146586684e+00 -4.7019267388e+00 2.7146586684e+00 4.7019267388e+00 
634900 4.6892397522e+00 -1.3171972031e-04 2.7146610958e+00 -4.7019309432e+00 2.7146610958e+00 4.7019309432e+00 
635000 4.6892397517e+00 -1.3164773549e-04 2.7146635219e+00 -4.7019351453e+00 2.7146635219e+00 4.7019351453e+00 
635100 4.6892397512e+00 -1.3157579009e-04 2.7146659466e+00 -4.7019393451e+00 2.7146659466e+00 4.7019393451e+00 
635200 4.6892397507e+00 -1.3150388410e-04 2.7146683700e+00 -4.7019435426e+00 2.7146683700e+00 4.7019435426e+00 
635300 4.6892397502e+00 -1.3143201750e-04 2.7146707921e+00 -4.7019477378e+00 2.7146707921e+00 4.7019477378e+00 
635400 4.6892397496e+00 -1.3136019026e-04 2.7146732129e+00 -4.7019519307e+00 2.7146732129e+00 4.7019519307e+00 
635500 4.6892397491e+00 -1.3128840237e-04 2.7146756323e+00 -4.7019561213e+00 2.7146756323e+00 4.7019561213e+00 
635600 4.6892397486e+00 -1.3121665380e-04 2.7146780505e+00 -4.7019603096e+00 2.7146780505e+00 4.7019603096e+00 
635700 4.6892397481e+00 -1.3114494452e-04 2.7146804673e+00 -4.7019644956e+00 2.7146804673e+00 4.7019644956e+00 
635800 4.6892397476e+00 -1.3107327453e-04 2.7146828827e+00 -4.7019686794e+00 2.7146828827e+00 4.7019686794e+00 
635900 4.6892397471e+00 -1.3100164379e-04 2.7146852969e+00 -4.7019728608e+00 2.7146852969e+00 4.7019728608e+00 
636000 4.6892397466e+00 -1.3093005229e-04 2.7146877097e+00 -4.7019770399e+00 2.7146877097e+00 4.7019770399e+00 
636100 4.6892397460e+00 -1.3085850000e-04 2.7146901213e+00 -4.7019812168e+00 2.7146901213e+00 4.7019812168e+00 
636200 4.6892397455e+00 -1.3078698690e-04 2.7146925314e+00 -4.7019853914e+00 2.7146925314e+00 4.7019853914e+00 
636300 4.6892397450e+00 -1.3071551298e-04 2.7146949403e+00 -4.7019895637e+00 2.7146949403e+00 4.7019895637e+00 
636400 4.6892397445e+00 -1.3064407820e-04 2.7146973479e+00 -4.7019937337e+00 2.7146973479e+00 4.7019937337e+00 
636500 4.6892397440e+00 -1.3057268255e-04 2.7146997541e+00 -4.7019979014e+00 2.7146997541e+00 4.7019979014e+00 
636600 4.6892397435e+00 -1.3050132601e-04 2.7147021590e+00 -4.7020020669e+00 2.7147021590e+00 4.7020020669e+00 
636700 4.6892397430e+00 -1.3043000856e-04 2.7147045626e+00 -4.7020062300e+00 2.7147045626e+00 4.7020062300e+00 
636800 4.6892397425e+00 -1.3035873016e-04 2.7147069649e+00 -4.7020103909e+00 2.7147069649e+00 4.7020103909e+00 
636900 4.6892397420e+00 -1.3028749081e-04 2.7147093659e+00 -4.7020145495e+00 2.7147093659e+00 4.7020145495e+00 
637000 4.6892397415e+00 -1.3021629049e-04 2.7147117656e+00 -4.7020187058e+00 2.7147117656e+00 4.7020187058e+00 
637100 4.6892397409e+00 -1.3014512916e-04 2.7147141639e+00 -4.7020228599e+00 2.7147141639e+00 4.7020228599e+00 
637200 4.6892397404e+00 -1.3007400681e-04 2.7147165609e+00 -4.7020270117e+00 2.7147165609e+00 4.7020270117e+00 
637300 4.6892397399e+00 -1.3000292342e-04 2.7147189566e+00 -4.7020311612e+00 2.7147189566e+00 4.7020311612e+00 
637400 4.6892397394e+00 -1.2993187896e-04 2.7147213511e+00 -4.7020353084e+00 2.7147213511e+00 4.7020353084e+00 
637500 4.6892397389e+00 -1.2986087342e-04 2.7147237442e+00 -4.7020394534e+00 2.7147237442e+00 4.7020394534e+00 
637600 4.6892397384e+00 -1.2978990677e-04 2.7147261359e+00 -4.7020435961e+00 2.7147261359e+00 4.7020435961e+00 
637700 4.6892397379e+00 -1.2971897899e-04 2.7147285264e+00 -4.7020477365e+00 2.7147285264e+00 4.7020477365e+00 
637800 4.6892397374e+00 -1.2964809007e-04 2.7147309156e+00 -4.7020518747e+00 2.7147309156e+00 4.7020518747e+00 
637900 4.6892397369e+00 -1.2957723997e-04 2.7147333035e+00 -4.7020560106e+00 2.7147333035e+00 4.7020560106e+00 
638000 4.6892397364e+00 -1.2950642869e-04 2.7147356900e+00 -4.7020601442e+00 2.7147356900e+00 4.7020601442e+00 
638100 4.6892397359e+00 -1.2943565619e-04 2.7147380753e+00 -4.7020642756e+00 2.7147380753e+00 4.7020642756e+00 
638200 4.6892397354e+00 -1.2936492245e-04 2.7147404592e+00 -4.7020684047e+00 2.7147404592e+00 4.7020684047e+00 
638300 4.6892397349e+00 -1.2929422746e-04 2.7147428418e+00 -4.7020725316e+00 2.7147428418e+00 4.7020725316e+00 
638400 4.6892397344e+00 -1.2922357119e-04 2.7147452232e+00 -4.7020766562e+00 2.7147452232e+00 4.7020766562e+00 
638500 4.6892397339e+00 -1.2915295363e-04 2.7147476032e+00 -4.7020807785e+00 2.7147476032e+00 4.7020807785e+00 
638600 4.6892397334e+00 -1.2908237475e-04 2.7147499819e+00 -4.7020848986e+00 2.7147499819e+00 4.7020848986e+00 
638700 4.6892397329e+00 -1.2901183452e-04 2.7147523594e+00 -4.7020890164e+00 2.7147523594e+00 4.7020890164e+00 
638800 4.6892397324e+00 -1.2894133294e-04 2.7147547355e+00 -4.7020931320e+00 2.7147547355e+00 4.7020931320e+00 
638900 4.6892397319e+00 -1.2887086997e-04 2.7147571103e+00 -4.7020972453e+00 2.7147571103e+00 4.7020972453e+00 
639000 4.6892397314e+00 -1.2880044560e-04 2.7147594838e+00 -4.7021013563e+00 2.7147594838e+00 4.7021013563e+00 
639100 4.6892397309e+00 -1.2873005981e-04 2.7147618561e+00 -4.7021054652e+00 2.7147618561e+00 4.7021054652e+00 
639200 4.6892397304e+00 -1.2865971257e-04 2.7147642270e+00 -4.7021095717e+00 2.7147642270e+00 4.7021095717e+00 
639300 4.6892397299e+00 -1.2858940386e-04 2.7147665966e+00 -4.7021136760e+00 2.7147665966e+00 4.7021136760e+00 
639400 4.6892397294e+00 -1.2851913366e-04 2.7147689650e+00 -4.7021177781e+00 2.7147689650e+00 4.7021177781e+00 
639500 4.6892397289e+00 -1.2844890196e-04 2.7147713320e+00 -4.7021218779e+00 2.7147713320e+00 4.7021218779e+00 
639600 4.6892397285e+00 -1.2837870872e-04 2.7147736977e+00 -4.7021259755e+00 2.7147736977e+00 4.7021259755e+00 
639700 4.6892397280e+00 -1.2830855394e-04 2.7147760622e+00 -4.7021300709e+00 2.7147760622e+00 4.7021300709e+00 
639800 4.6892397275e+00 -1.2823843758e-04 2.7147784253e+00 -4.7021341640e+00 2.7147784253e+00 4.7021341640e+00 
639900 4.6892397270e+00 -1.2816835963e-04 2.7147807872e+00 -4.7021382548e+00 2.7147807872e+00 4.7021382548e+00 
640000 4.6892397265e+00 -1.2809832006e-04 2.7147831478e+00 -4.7021423435e+00 2.7147831478e+00 4.7021423435e+00 
640100 4.6892397260e+00 -1.2802831886e-04 2.7147855070e+00 -4.7021464298e+00 2.7147855070e+00 4.7021464298e+00 
640200 4.6892397255e+00 -1.2795835601e-04 2.7147878650e+00 -4.7021505140e+00 2.7147878650e+00 4.7021505140e+00 
640300 4.6892397250e+00 -1.2788843147e-04 2.7147902217e+00 -4.7021545959e+00 2.7147902217e+00 4.7021545959e+00 
640400 4.6892397245e+00 -1.2781854524e-04 2.7147925771e+00 -4.7021586756e+00 2.7147925771e+00 4.7021586756e+00 
640500 4.6892397240e+00 -1.2774869729e-04 2.7147949312e+00 -4.7021627530e+00 2.7147949312e+00 4.7021627530e+00 
640600 4.6892397236e+00 -1.2767888760e-04 2.7147972840e+00 -4.7021668282e+00 2.7147972840e+00 4.7021668282e+00 
640700 4.6892397231e+00 -1.2760911615e-04 2.7147996356e+00 -4.7021709012e+00 2.7147996356e+00 4.7021709012e+00 
640800 4.6892397226e+00 -1.2753938291e-04 2.7148019858e+00 -4.7021749720e+00 2.7148019858e+00 4.7021749720e+00 
640900 4.6892397221e+00 -1.2746968788e-04 2.7148043348e+00 -4.7021790405e+00 2.7148043348e+00 4.7021790405e+00 
641000 4.6892397216e+00 -1.2740003102e-04 2.7148066825e+00 -4.7021831068e+00 2.7148066825e+00 4.7021831068e+00 
641100 4.6892397211e+00 -1.2733041231e-04 2.7148090289e+00 -4.7021871708e+00 2.7148090289e+00 4.7021871708e+00 
641200 4.6892397206e+00 -1.2726083174e-04 2.7148113740e+00 -4.7021912327e+00 2.7148113740e+00 4.7021912327e+00 
641300 4.6892397202e+00 -1.2719128928e-04 2.7148137178e+00 -4.7021952923e+00 2.7148137178e+00 4.7021952923e+00 
641400 4.6892397197e+00 -1.2712178492e-04 2.7148160603e+00 -4.7021993497e+00 2.7148160603e+00 4.7021993497e+00 
641500 4.6892397192e+00 -1.2705231863e-04 2.7148184016e+00 -4.7022034049e+00 2.7148184016e+00 4.7022034049e+00 
641600 4.6892397187e+00 -1.2698289039e-04 2.7148207416e+00 -4.7022074579e+00 2.7148207416e+00 4.7022074579e+00 
641700 4.6892397182e+00 -1.2691350018e-04 2.7148230803e+00 -4.7022115086e+00 2.7148230803e+00 4.7022115086e+00 
641800 4.6892397177e+00 -1.2684414797e-04 2.7148254177e+00 -4.7022155571e+00 2.7148254177e+00 4.7022155571e+00 
641900 4.6892397173e+00 -1.2677483376e-04 2.7148277538e+00 -4.7022196034e+00 2.7148277538e+00 4.7022196034e+00 
642000 4.6892397168e+00 -1.2670555752e-04 2.7148300887e+00 -4.7022236475e+00 2.7148300887e+00 4.7022236475e+00 
642100 4.6892397163e+00 -1.2663631922e-04 2.7148324223e+00 -4.7022276894e+00 2.7148324223e+00 4.7022276894e+00 
642200 4.6892397158e+00 -1.2656711885e-04 2.7148347546e+00 -4.7022317291e+00 2.7148347546e+00 4.7022317291e+00 
642300 4.6892397153e+00 -1.2649795638e-04 2.7148370856e+00 -4.7022357666e+00 2.7148370856e+00 4.7022357666e+00 
642400 4.6892397149e+00 -1.2642883180e-04 2.7148394154e+00 -4.7022398018e+00 2.7148394154e+00 4.7022398018e+00 
642500 4.6892397144e+00 -1.2635974508e-04 2.7148417438e+00 -4.7022438348e+00 2.7148417438e+00 4.7022438348e+00 
642600 4.6892397139e+00 -1.2629069621e-04 2.7148440710e+00 -4.7022478657e+00 2.7148440710e+00 4.7022478657e+00 
642700 4.6892397134e+00 -1.2622168516e-04 2.7148463970e+00 -4.7022518943e+00 2.7148463970e+00 4.7022518943e+00 
642800 4.6892397130e+00 -1.2615271191e-04 2.7148487216e+00 -4.7022559207e+00 2.7148487216e+00 4.7022559207e+00 
642900 4.6892397125e+00 -1.2608377644e-04 2.7148510450e+00 -4.7022599449e+00 2.7148510450e+00 4.7022599449e+00 
643000 4.6892397120e+00 -1.2601487873e-04 2.7148533671e+00 -4.7022639670e+00 2.7148533671e+00 4.7022639670e+00 
643100 4.6892397115e+00 -1.2594601876e-04 2.7148556880e+00 -4.7022679868e+00 2.7148556880e+00 4.7022679868e+00 
643200 4.6892397111e+00 -1.2587719651e-04 2.7148580075e+00 -4.7022720044e+00 2.7148580075e+00 4.7022720044e+00 
643300 4.6892397106e+00 -1.2580841196e-04 2.7148603258e+00 -4.7022760198e+00 2.7148603258e+00 4.7022760198e+00 
643400 4.6892397101e+00 -1.2573966509e-04 2.7148626429e+00 -4.7022800330e+00 2.7148626429e+00 4.7022800330e+00 
643500 4.6892397096e+00 -1.2567095588e-04 2.7148649586e+00 -4.7022840441e+00 2.7148649586e+00 4.7022840441e+00 
643600 4.6892397092e+00 -1.2560228430e-04 2.7148672731e+00 -4.7022880529e+00 2.7148672731e+00 4.7022880529e+00 
643700 4.6892397087e+00 -1.2553365034e-04 2.7148695864e+00 -4.7022920595e+00 2.7148695864e+00 4.7022920595e+00 
643800 4.6892397082e+00 -1.2546505397e-04 2.7148718983e+00 -4.7022960640e+00 2.7148718983e+00 4.7022960640e+00 
643900 4.6892397077e+00 -1.2539649518e-04 2.7148742090e+00 -4.7023000662e+00 2.7148742090e+00 4.7023000662e+00 
644000 4.6892397073e+00 -1.2532797394e-04 2.7148765185e+00 -4.7023040663e+00 2.7148765185e+00 4.7023040663e+00 
644100 4.6892397068e+00 -1.2525949024e-04 2.7148788266e+00 -4.7023080641e+00 2.7148788266e+00 4.7023080641e+00 
644200 4.6892397063e+00 -1.2519104405e-04 2.7148811335e+00 -4.7023120598e+00 2.7148811335e+00 4.7023120598e+00 
644300 4.6892397059e+00 -1.2512263535e-04 2.7148834392e+00 -4.7023160533e+00 2.7148834392e+00 4.7023160533e+00 
644400 4.6892397054e+00 -1.2505426412e-04 2.7148857436e+00 -4.7023200446e+00 2.7148857436e+00 4.7023200446e+00 
644500 4.6892397049e+00 -1.2498593035e-04 2.7148880467e+00 -4.7023240337e+00 2.7148880467e+00 4.7023240337e+00 
644600 4.6892397045e+00 -1.2491763401e-04 2.7148903486e+00 -4.7023280207e+00 2.7148903486e+00 4.7023280207e+00 
644700 4.6892397040e+00 -1.2484937508e-04 2.7148926492e+00 -4.7023320054e+00 2.7148926492e+00 4.7023320054e+00 
644800 4.6892397035e+00 -1.2478115353e-04 2.7148949485e+00 -4.7023359880e+00 2.7148949485e+00 4.7023359880e+00 
644900 4.6892397031e+00 -1.2471296936e-04 2.7148972466e+00 -4.7023399684e+00 2.7148972466e+00 4.7023399684e+00 
645000 4.6892397026e+00 -1.2464482254e-04 2.7148995434e+00 -4.7023439466e+00 2.7148995434e+00 4.7023439466e+00 
645100 4.6892397021e+00 -1.2457671305e-04 2.7149018390e+00 -4.7023479227e+00 2.7149018390e+00 4.7023479227e+00 
645200 4.6892397017e+00 -1.2450864086e-04 2.7149041333e+00 -4.7023518966e+00 2.7149041333e+00 4.7023518966e+00 
645300 4.6892397012e+00 -1.2444060596e-04 2.7149064264e+00 -4.7023558683e+00 2.7149064264e+00 4.7023558683e+00 
645400 4.6892397007e+00 -1.2437260833e-04 2.7149087182e+00 -4.7023598378e+00 2.7149087182e+00 4.7023598378e+00 
645500 4.6892397003e+00 -1.2430464795e-04 2.7149110087e+00 -4.7023638051e+00 2.7149110087e+00 4.7023638051e+00 
645600 4.6892396998e+00 -1.2423672479e-04 2.7149132980e+00 -4.7023677703e+00 2.7149132980e+00 4.7023677703e+00 
645700 4.6892396994e+00 -1.2416883884e-04 2.7149155860e+00 -4.7023717333e+00 2.7149155860e+00 4.7023717333e+00 
645800 4.6892396989e+00 -1.2410099008e-04 2.7149178728e+00 -4.7023756941e+00 2.7149178728e+00 4.7023756941e+00 
645900 4.6892396984e+00 -1.2403317848e-04 2.7149201584e+00 -4.7023796528e+00 2.7149201584e+00 4.7023796528e+00 
646000 4.6892396980e+00 -1.2396540403e-04 2.7149224427e+00 -4.7023836093e+00 2.7149224427e+00 4.7023836093e+00 
646100 4.6892396975e+00 -1.2389766670e-04 2.7149247257e+00 -4.7023875636e+00 2.7149247257e+00 4.7023875636e+00 
646200 4.6892396971e+00 -1.2382996648e-04 2.7149270075e+00 -4.7023915158e+00 2.7149270075e+00 4.7023915158e+00 
646300 4.6892396966e+00 -1.2376230334e-04 2.7149292880e+00 -4.7023954658e+00 2.7149292880e+00 4.7023954658e+00 
646400 4.6892396961e+00 -1.2369467726e-04 2.7149315673e+00 -4.7023994137e+00 2.7149315673e+00 4.7023994137e+00 
646500 4.6892396957e+00 -1.2362708823e-04 2.7149338454e+00 -4.7024033594e+00 2.7149338454e+00 4.7024033594e+00 
646600 4.6892396952e+00 -1.2355953622e-04 2.7149361222e+00 -4.7024073029e+00 2.7149361222e+00 4.7024073029e+00 
646700 4.6892396948e+00 -1.2349202122e-04 2.7149383977e+00 -4.7024112443e+00 2.7149383977e+00 4.7024112443e+00 
646800 4.6892396943e+00 -1.2342454319e-04 2.7149406720e+00 -4.7024151835e+00 2.7149406720e+00 4.7024151835e+00 
646900 4.6892396939e+00 -1.2335710213e-04 2.7149429451e+00 -4.7024191205e+00 2.7149429451e+00 4.7024191205e+00 
647000 4.6892396934e+00 -1.2328969802e-04 2.7149452169e+00 -4.7024230554e+00 2.7149452169e+00 4.7024230554e+00 
647100 4.6892396930e+00 -1.2322233082e-04 2.7149474875e+00 -4.7024269882e+00 2.7149474875e+00 4.7024269882e+00 
647200 4.6892396925e+00 -1.2315500053e-04 2.7149497568e+00 -4.7024309188e+00 2.7149497568e+00 4.7024309188e+00 
647300 4.6892396920e+00 -1.2308770712e-04 2.7149520249e+00 -4.7024348472e+00 2.7149520249e+00 4.7024348472e+00 
647400 4.6892396916e+00 -1.2302045057e-04 2.7149542918e+00 -4.7024387735e+00 2.7149542918e+00 4.7024387735e+00 
647500 4.6892396911e+00 -1.2295323086e-04 2.7149565574e+00 -4.7024426977e+00 2.7149565574e+00 4.7024426977e+00 
647600 4.6892396907e+00 -1.2288604797e-04 2.7149588217e+00 -4.7024466197e+00 2.7149588217e+00 4.7024466197e+00 
647700 4.6892396902e+00 -1.2281890189e-04 2.7149610849e+00 -4.7024505395e+00 2.7149610849e+00 4.7024505395e+00 
647800 4.6892396898e+00 -1.2275179258e-04 2.7149633467e+00 -4.7024544573e+00 2.7149633467e+00 4.7024544573e+00 
647900 4.6892396893e+00 -1.2268472004e-04 2.7149656074e+00 -4.7024583728e+00 2.7149656074e+00 4.7024583728e+00 
648000 4.6892396889e+00 -1.2261768423e-04 2.7149678668e+00 -4.7024622862e+00 2.7149678668e+00 4.7024622862e+00 
648100 4.6892396884e+00 -1.2255068515e-04 2.7149701250e+00 -4.7024661975e+00 2.7149701250e+00 4.7024661975e+00 
648200 4.6892396880e+00 -1.2248372276e-04 2.7149723819e+00 -4.7024701067e+00 2.7149723819e+00 4.7024701067e+00 
648300 4.6892396875e+00 -1.2241679706e-04 2.7149746377e+00 -4.7024740137e+00 2.7149746377e+00 4.7024740137e+00 
648400 4.6892396871e+00 -1.2234990802e-04 2.7149768921e+00 -4.7024779185e+00 2.7149768921e+00 4.7024779185e+00 
648500 4.6892396866e+00 -1.2228305562e-04 2.7149791454e+00 -4.7024818213e+00 2.7149791454e+00 4.7024818213e+00 
648600 4.6892396862e+00 -1.2221623983e-04 2.7149813974e+00 -4.7024857219e+00 2.7149813974e+00 4.7024857219e+00 
648700 4.6892396857e+00 -1.2214946065e-04 2.7149836481e+00 -4.7024896203e+00 2.7149836481e+00 4.7024896203e+00 
648800 4.6892396853e+00 -1.2208271805e-04 2.7149858977e+00 -4.7024935166e+00 2.7149858977e+00 4.7024935166e+00 
648900 4.6892396849e+00 -1.2201601200e-04 2.7149881460e+00 -4.7024974108e+00 2.7149881460e+00 4.7024974108e+00 
649000 4.6892396844e+00 -1.2194934250e-04 2.7149903931e+00 -4.7025013029e+00 2.7149903931e+00 4.7025013029e+00 
649100 4.6892396840e+00 -1.2188270952e-04 2.7149926389e+00 -4.7025051928e+00 2.7149926389e+00 4.7025051928e+00 
649200 4.6892396835e+00 -1.2181611303e-04 2.7149948836e+00 -4.7025090806e+00 2.7149948836e+00 4.7025090806e+00 
649300 4.6892396831e+00 -1.2174955303e-04 2.7149971270e+00 -4.7025129663e+00 2.7149971270e+00 4.7025129663e+00 
649400 4.6892396826e+00 -1.2168302949e-04 2.7149993691e+00 -4.7025168498e+00 2.7149993691e+00 4.7025168498e+00 
649500 4.6892396822e+00 -1.2161654238e-04 2.7150016101e+00 -4.7025207313e+00 2.7150016101e+00 4.7025207313e+00 
649600 4.6892396817e+00 -1.2155009170e-04 2.7150038498e+00 -4.7025246106e+00 2.7150038498e+00 4.7025246106e+00 
649700 4.6892396813e+00 -1.2148367741e-04 2.7150060883e+00 -4.7025284877e+00 2.7150060883e+00 4.7025284877e+00 
649800 4.6892396809e+00 -1.2141729951e-04 2.7150083255e+00 -4.7025323628e+00 2.7150083255e+00 4.7025323628e+00 
649900 4.6892396804e+00 -1.2135095797e-04 2.7150105616e+00 -4.7025362357e+00 2.7150105616e+00 4.7025362357e+00 
650000 4.6892396800e+00 -1.2128465276e-04 2.7150127964e+00 -4.7025401065e+00 2.7150127964e+00 4.7025401065e+00 
650100 4.6892396795e+00 -1.2121838388e-04 2.7150150300e+00 -4.7025439752e+00 2.7150150300e+00 4.7025439752e+00 
650200 4.6892396791e+00 -1.2115215130e-04 2.7150172624e+00 -4.7025478418e+00 2.7150172624e+00 4.7025478418e+00 
650300 4.6892396787e+00 -1.2108595500e-04 2.7150194935e+00 -4.7025517063e+00 2.7150194935e+00 4.7025517063e+00 
650400 4.6892396782e+00 -1.2101979495e-04 2.7150217234e+00 -4.7025555686e+00 2.7150217234e+00 4.7025555686e+00 
650500 4.6892396778e+00 -1.2095367115e-04 2.7150239521e+00 -4.7025594289e+00 2.7150239521e+00 4.7025594289e+00 
650600 4.6892396773e+00 -1.2088758357e-04 2.7150261796e+00 -4.7025632870e+00 2.7150261796e+00 4.7025632870e+00 
650700 4.6892396769e+00 -1.2082153220e-04 2.7150284059e+00 -4.7025671430e+00 2.7150284059e+00 4.7025671430e+00 
650800 4.6892396765e+00 -1.2075551700e-04 2.7150306309e+00 -4.7025709969e+00 2.7150306309e+00 4.7025709969e+00 
650900 4.6892396760e+00 -1.2068953796e-04 2.7150328548e+00 -4.7025748487e+00 2.7150328548e+00 4.7025748487e+00 
651000 4.6892396756e+00 -1.2062359507e-04 2.7150350774e+00 -4.7025786984e+00 2.7150350774e+00 4.7025786984e+00 
651100 4.6892396752e+00 -1.2055768830e-04 2.7150372988e+00 -4.7025825460e+00 2.7150372988e+00 4.7025825460e+00 
651200 4.6892396747e+00 -1.2049181763e-04 2.7150395190e+00 -4.7025863914e+00 2.7150395190e+00 4.7025863914e+00 
651300 4.6892396743e+00 -1.2042598304e-04 2.7150417380e+00 -4.7025902348e+00 2.7150417380e+00 4.7025902348e+00 
651400 4.6892396739e+00 -1.2036018451e-04 2.7150439557e+00 -4.7025940761e+00 2.7150439557e+00 4.7025940761e+00 
651500 4.6892396734e+00 -1.2029442203e-04 2.7150461723e+00 -4.7025979152e+00 2.7150461723e+00 4.7025979152e+00 
651600 4.6892396730e+00 -1.2022869557e-04 2.7150483876e+00 -4.7026017523e+00 2.7150483876e+00 4.7026017523e+00 
651700 4.6892396726e+00 -1.2016300511e-04 2.7150506017e+00 -4.7026055873e+00 2.7150506017e+00 4.7026055873e+00 
651800 4.6892396721e+00 -1.2009735064e-04 2.7150528146e+00 -4.7026094201e+00 2.7150528146e+00 4.7026094201e+00 
651900 4.6892396717e+00 -1.2003173213e-04 2.7150550263e+00 -4.7026132509e+00 2.7150550263e+00 4.7026132509e+00 
652000 4.6892396713e+00 -1.1996614957e-04 2.7150572368e+00 -4.7026170796e+00 2.7150572368e+00 4.7026170796e+00 
652100 4.6892396708e+00 -1.1990060293e-04 2.7150594461e+00 -4.7026209061e+00 2.7150594461e+00 4.7026209061e+00 
652200 4.6892396704e+00 -1.1983509219e-04 2.7150616541e+00 -4.7026247306e+00 2.7150616541e+00 4.7026247306e+00 
652300 4.6892396700e+00 -1.1976961734e-04 2.7150638610e+00 -4.7026285530e+00 2.7150638610e+00 4.7026285530e+00 
652400 4.6892396696e+00 -1.1970417836e-04 2.7150660666e+00 -4.7026323733e+00 2.7150660666e+00 4.7026323733e+00 
652500 4.6892396691e+00 -1.1963877522e-04 2.7150682711e+00 -4.7026361915e+00 2.7150682711e+00 4.7026361915e+00 
652600 4.6892396687e+00 -1.1957340791e-04 2.7150704743e+00 -4.7026400076e+00 2.7150704743e+00 4.7026400076e+00 
652700 4.6892396683e+00 -1.1950807640e-04 2.7150726763e+00 -4.7026438217e+00 2.7150726763e+00 4.7026438217e+00 
652800 4.6892396678e+00 -1.1944278068e-04 2.7150748772e+00 -4.7026476336e+00 2.7150748772e+00 4.7026476336e+00 
652900 4.6892396674e+00 -1.1937752073e-04 2.7150770768e+00 -4.7026514435e+00 2.7150770768e+00 4.7026514435e+00 
653000 4.6892396670e+00 -1.1931229653e-04 2.7150792752e+00 -4.7026552512e+00 2.7150792752e+00 4.7026552512e+00 
653100 4.6892396666e+00 -1.1924710805e-04 2.7150814724e+00 -4.7026590569e+00 2.7150814724e+00 4.7026590569e+00 
653200 4.6892396661e+00 -1.1918195528e-04 2.7150836684e+00 -4.7026628605e+00 2.7150836684e+00 4.7026628605e+00 
653300 4.6892396657e+00 -1.1911683821e-04 2.7150858633e+00 -4.7026666621e+00 2.7150858633e+00 4.7026666621e+00 
653400 4.6892396653e+00 -1.1905175680e-04 2.7150880569e+00 -4.7026704615e+00 2.7150880569e+00 4.7026704615e+00 
653500 4.6892396649e+00 -1.1898671104e-04 2.7150902493e+00 -4.7026742589e+00 2.7150902493e+00 4.7026742589e+00 
653600 4.6892396644e+00 -1.1892170091e-04 2.7150924405e+00 -4.7026780542e+00 2.7150924405e+00 4.7026780542e+00 
653700 4.6892396640e+00 -1.1885672639e-04 2.7150946305e+00 -4.7026818474e+00 2.7150946305e+00 4.7026818474e+00 
653800 4.6892396636e+00 -1.1879178747e-04 2.7150968193e+00 -4.7026856385e+00 2.7150968193e+00 4.7026856385e+00 
653900 4.6892396632e+00 -1.1872688411e-04 2.7150990069e+00 -4.7026894276e+00 2.7150990069e+00 4.7026894276e+00 
654000 4.6892396627e+00 -1.1866201631e-04 2.7151011934e+00 -4.7026932146e+00 2.7151011934e+00 4.7026932146e+00 
654100 4.6892396623e+00 -1.1859718404e-04 2.7151033786e+00 -4.7026969995e+00 2.7151033786e+00 4.7026969995e+00 
654200 4.6892396619e+00 -1.1853238729e-04 2.7151055626e+00 -4.7027007823e+00 2.7151055626e+00 4.7027007823e+00 
654300 4.6892396615e+00 -1.1846762602e-04 2.7151077454e+00 -4.7027045631e+00 2.7151077454e+00 4.7027045631e+00 
654400 4.6892396611e+00 -1.1840290024e-04 2.7151099271e+00 -4.7027083418e+00 2.7151099271e+00 4.7027083418e+00 
654500 4.6892396606e+00 -1.1833820991e-04 2.7151121075e+00 -4.7027121185e+00 2.7151121075e+00 4.7027121185e+00 
654600 4.6892396602e+00 -1.1827355501e-04 2.7151142868e+00 -4.7027158930e+00 2.7151142868e+00 4.7027158930e+00 
654700 4.6892396598e+00 -1.1820893553e-04 2.7151164648e+00 -4.7027196655e+00 2.7151164648e+00 4.7027196655e+00 
654800 4.6892396594e+00 -1.1814435145e-04 2.7151186417e+00 -4.7027234360e+00 2.7151186417e+00 4.7027234360e+00 
654900 4.6892396590e+00 -1.1807980274e-04 2.7151208174e+00 -4.7027272044e+00 2.7151208174e+00 4.7027272044e+00 
655000 4.6892396586e+00 -1.1801528939e-04 2.7151229919e+00 -4.7027309707e+00 2.7151229919e+00 4.7027309707e+00 
655100 4.6892396581e+00 -1.1795081138e-04 2.7151251651e+00 -4.7027347349e+00 2.7151251651e+00 4.7027347349e+00 
655200 4.6892396577e+00 -1.1788636869e-04 2.7151273373e+00 -4.7027384971e+00 2.7151273373e+00 4.7027384971e+00 
655300 4.6892396573e+00 -1.1782196130e-04 2.7151295082e+00 -4.7027422573e+00 2.7151295082e+00 4.7027422573e+00 
655400 4.6892396569e+00 -1.1775758919e-04 2.7151316779e+00 -4.7027460154e+00 2.7151316779e+00 4.7027460154e+00 
655500 4.6892396565e+00 -1.1769325235e-04 2.7151338464e+00 -4.7027497714e+00 2.7151338464e+00 4.7027497714e+00 
655600 4.6892396561e+00 -1.1762895074e-04 2.7151360138e+00 -4.7027535254e+00 2.7151360138e+00 4.7027535254e+00 
655700 4.6892396556e+00 -1.1756468436e-04 2.7151381800e+00 -4.7027572773e+00 2.7151381800e+00 4.7027572773e+00 
655800 4.6892396552e+00 -1.1750045318e-04 2.7151403450e+00 -4.7027610272e+00 2.7151403450e+00 4.7027610272e+00 
655900 4.6892396548e+00 -1.1743625718e-04 2.7151425088e+00 -4.7027647750e+00 2.7151425088e+00 4.7027647750e+00 
656000 4.6892396544e+00 -1.1737209635e-04 2.7151446714e+00 -4.7027685207e+00 2.7151446714e+00 4.7027685207e+00 
656100 4.6892396540e+00 -1.1730797067e-04 2.7151468328e+00 -4.7027722644e+00 2.7151468328e+00 4.7027722644e+00 
656200 4.6892396536e+00 -1.1724388011e-04 2.7151489931e+00 -4.7027760061e+00 2.7151489931e+00 4.7027760061e+00 
656300 4.6892396532e+00 -1.1717982465e-04 2.7151511521e+00 -4.7027797457e+00 2.7151511521e+00 4.7027797457e+00 
656400 4.6892396528e+00 -1.1711580429e-04 2.7151533100e+00 -4.7027834833e+00 2.7151533100e+00 4.7027834833e+00 
656500 4.6892396523e+00 -1.1705181899e-04 2.7151554667e+00 -4.7027872188e+00 2.7151554667e+00 4.7027872188e+00 
656600 4.6892396519e+00 -1.1698786875e-04 2.7151576223e+00 -4.7027909523e+00 2.7151576223e+00 4.7027909523e+00 
656700 4.6892396515e+00 -1.1692395353e-04 2.7151597766e+00 -4.7027946837e+00 2.7151597766e+00 4.7027946837e+00 
656800 4.6892396511e+00 -1.1686007333e-04 2.7151619298e+00 -4.7027984131e+00 2.7151619298e+00 4.7027984131e+00 
656900 4.6892396507e+00 -1.1679622811e-04 2.7151640818e+00 -4.7028021405e+00 2.7151640818e+00 4.7028021405e+00 
657000 4.6892396503e+00 -1.1673241787e-04 2.7151662326e+00 -4.7028058658e+00 2.7151662326e+00 4.7028058658e+00 
657100 4.6892396499e+00 -1.1666864258e-04 2.7151683822e+00 -4.7028095891e+00 2.7151683822e+00 4.7028095891e+00 
657200 4.6892396495e+00 -1.1660490223e-04 2.7151705307e+00 -4.7028133103e+00 2.7151705307e+00 4.7028133103e+00 
657300 4.6892396491e+00 -1.1654119679e-04 2.7151726780e+00 -4.7028170296e+00 2.7151726780e+00 4.7028170296e+00 
657400 4.6892396487e+00 -1.1647752625e-04 2.7151748241e+00 -4.7028207467e+00 2.7151748241e+00 4.7028207467e+00 
657500 4.6892396483e+00 -1.1641389058e-04 2.7151769690e+00 -4.7028244619e+00 2.7151769690e+00 4.7028244619e+00 
657600 4.6892396479e+00 -1.1635028977e-04 2.7151791128e+00 -4.7028281750e+00 2.7151791128e+00 4.7028281750e+00 
657700 4.6892396475e+00 -1.1628672381e-04 2.7151812554e+00 -4.7028318860e+00 2.7151812554e+00 4.7028318860e+00 
657800 4.6892396471e+00 -1.1622319266e-04 2.7151833968e+00 -4.7028355951e+00 2.7151833968e+00 4.7028355951e+00 
657900 4.6892396466e+00 -1.1615969631e-04 2.7151855370e+00 -4.7028393021e+00 2.7151855370e+00 4.7028393021e+00 
658000 4.6892396462e+00 -1.1609623474e-04 2.7151876761e+00 -4.7028430071e+00 2.7151876761e+00 4.7028430071e+00 
658100 4.6892396458e+00 -1.1603280793e-04 2.7151898140e+00 -4.7028467100e+00 2.7151898140e+00 4.7028467100e+00 
658200 4.6892396454e+00 -1.1596941587e-04 2.7151919507e+00 -4.7028504110e+00 2.7151919507e+00 4.7028504110e+00 
658300 4.6892396450e+00 -1.1590605853e-04 2.7151940863e+00 -4.7028541099e+00 2.7151940863e+00 4.7028541099e+00 
658400 4.6892396446e+00 -1.1584273590e-04 2.7151962207e+00 -4.7028578068e+00 2.7151962207e+00 4.7028578068e+00 
658500 4.6892396442e+00 -1.1577944795e-04 2.7151983539e+00 -4.7028615016e+00 2.7151983539e+00 4.7028615016e+00 
658600 4.6892396438e+00 -1.1571619467e-04 2.7152004860e+00 -4.7028651945e+00 2.7152004860e+00 4.7028651945e+00 
658700 4.6892396434e+00 -1.1565297604e-04 2.7152026169e+00 -4.7028688853e+00 2.7152026169e+00 4.7028688853e+00 
658800 4.6892396430e+00 -1.1558979204e-04 2.7152047466e+00 -4.7028725741e+00 2.7152047466e+00 4.7028725741e+00 
658900 4.6892396426e+00 -1.1552664265e-04 2.7152068752e+00 -4.7028762609e+00 2.7152068752e+00 4.7028762609e+00 
659000 4.6892396422e+00 -1.1546352785e-04 2.7152090026e+00 -4.7028799456e+00 2.7152090026e+00 4.7028799456e+00 
659100 4.6892396418e+00 -1.1540044762e-04 2.7152111288e+00 -4.7028836284e+00 2.7152111288e+00 4.7028836284e+00 
659200 4.6892396414e+00 -1.1533740194e-04 2.7152132539e+00 -4.7028873091e+00 2.7152132539e+00 4.7028873091e+00 
659300 4.6892396410e+00 -1.1527439080e-04 2.7152153778e+00 -4.7028909879e+00 2.7152153778e+00 4.7028909879e+00 
659400 4.6892396406e+00 -1.1521141418e-04 2.7152175006e+00 -4.7028946646e+00 2.7152175006e+00 4.7028946646e+00 
659500 4.6892396402e+00 -1.1514847205e-04 2.7152196221e+00 -4.7028983393e+00 2.7152196221e+00 4.7028983393e+00 
659600 4.6892396398e+00 -1.1508556440e-04 2.7152217426e+00 -4.7029020119e+00 2.7152217426e+00 4.7029020119e+00 
659700 4.6892396394e+00 -1.1502269120e-04 2.7152238618e+00 -4.7029056826e+00 2.7152238618e+00 4.7029056826e+00 
659800 4.6892396391e+00 -1.1495985245e-04 2.7152259799e+00 -4.7029093513e+00 2.7152259799e+00 4.7029093513e+00 
659900 4.6892396387e+00 -1.1489704812e-04 2.7152280969e+00 -4.7029130180e+00 2.7152280969e+00 4.7029130180e+00 
660000 4.6892396383e+00 -1.1483427819e-04 2.7152302127e+00 -4.7029166826e+00 2.7152302127e+00 4.7029166826e+00 
660100 4.6892396379e+00 -1.1477154264e-04 2.7152323273e+00 -4.7029203453e+00 2.7152323273e+00 4.7029203453e+00 
660200 4.6892396375e+00 -1.1470884146e-04 2.7152344408e+00 -4.7029240059e+00 2.7152344408e+00 4.7029240059e+00 
660300 4.6892396371e+00 -1.1464617462e-04 2.7152365531e+00 -4.7029276646e+00 2.7152365531e+00 4.7029276646e+00 
660400 4.6892396367e+00 -1.1458354211e-04 2.7152386643e+00 -4.7029313212e+00 2.7152386643e+00 4.7029313212e+00 
660500 4.6892396363e+00 -1.1452094391e-04 2.7152407743e+00 -4.7029349758e+00 2.7152407743e+00 4.7029349758e+00 
660600 4.6892396359e+00 -1.1445838000e-04 2.7152428831e+00 -4.7029386285e+00 2.7152428831e+00 4.7029386285e+00 
660700 4.6892396355e+00 -1.1439585035e-04 2.7152449908e+00 -4.7029422791e+00 2.7152449908e+00 4.7029422791e+00 
660800 4.6892396351e+00 -1.1433335496e-04 2.7152470974e+00 -4.7029459278e+00 2.7152470974e+00 4.7029459278e+00 
660900 4.6892396347e+00 -1.1427089381e-04 2.7152492028e+00 -4.7029495744e+00 2.7152492028e+00 4.7029495744e+00 
661000 4.6892396343e+00 -1.1420846686e-04 2.7152513070e+00 -4.7029532191e+00 2.7152513070e+00 4.7029532191e+00 
661100 4.6892396339e+00 -1.1414607411e-04 2.7152534101e+00 -4.7029568618e+00 2.7152534101e+00 4.7029568618e+00 
661200 4.6892396336e+00 -1.1408371554e-04 2.7152555121e+00 -4.7029605024e+00 2.7152555121e+00 4.7029605024e+00 
661300 4.6892396332e+00 -1.1402139112e-04 2.7152576129e+00 -4.7029641411e+00 2.7152576129e+00 4.7029641411e+00 
661400 4.6892396328e+00 -1.1395910085e-04 2.7152597125e+00 -4.7029677778e+00 2.7152597125e+00 4.7029677778e+00 
661500 4.6892396324e+00 -1.1389684469e-04 2.7152618110e+00 -4.7029714125e+00 2.7152618110e+00 4.7029714125e+00 
661600 4.6892396320e+00 -1.1383462264e-04 2.7152639083e+00 -4.7029750452e+00 2.7152639083e+00 4.7029750452e+00 
661700 4.6892396316e+00 -1.1377243467e-04 2.7152660045e+00 -4.7029786759e+00 2.7152660045e+00 4.7029786759e+00 
661800 4.6892396312e+00 -1.1371028076e-04 2.7152680996e+00 -4.7029823047e+00 2.7152680996e+00 4.7029823047e+00 
661900 4.6892396308e+00 -1.1364816090e-04 2.7152701935e+00 -4.7029859314e+00 2.7152701935e+00 4.7029859314e+00 
662000 4.6892396304e+00 -1.1358607506e-04 2.7152722863e+00 -4.7029895562e+00 2.7152722863e+00 4.7029895562e+00 
662100 4.6892396301e+00 -1.1352402324e-04 2.7152743779e+00 -4.7029931790e+00 2.7152743779e+00 4.7029931790e+00 
662200 4.6892396297e+00 -1.1346200540e-04 2.7152764683e+00 -4.7029967998e+00 2.7152764683e+00 4.7029967998e+00 
662300 4.6892396293e+00 -1.1340002154e-04 2.7152785577e+00 -4.7030004186e+00 2.7152785577e+00 4.7030004186e+00 
662400 4.6892396289e+00 -1.1333807162e-04 2.7152806458e+00 -4.7030040354e+00 2.7152806458e+00 4.7030040354e+00 
662500 4.6892396285e+00 -1.1327615564e-04 2.7152827329e+00 -4.7030076503e+00 2.7152827329e+00 4.7030076503e+00 
662600 4.6892396281e+00 -1.1321427358e-04 2.7152848188e+00 -4.7030112632e+00 2.7152848188e+00 4.7030112632e+00 
662700 4.6892396278e+00 -1.1315242541e-04 2.7152869035e+00 -4.7030148741e+00 2.7152869035e+00 4.7030148741e+00 
662800 4.6892396274e+00 -1.1309061112e-04 2.7152889872e+00 -4.7030184830e+00 2.7152889872e+00 4.7030184830e+00 
662900 4.6892396270e+00 -1.1302883069e-04 2.7152910696e+00 -4.7030220900e+00 2.7152910696e+00 4.7030220900e+00 
663000 4.6892396266e+00 -1.1296708410e-04 2.7152931510e+00 -4.7030256949e+00 2.7152931510e+00 4.7030256949e+00 
663100 4.6892396262e+00 -1.1290537133e-04 2.7152952312e+00 -4.7030292980e+00 2.7152952312e+00 4.7030292980e+00 
663200 4.6892396258e+00 -1.1284369237e-04 2.7152973102e+00 -4.7030328990e+00 2.7152973102e+00 4.7030328990e+00 
663300 4.6892396255e+00 -1.1278204719e-04 2.7152993882e+00 -4.7030364981e+00 2.7152993882e+00 4.7030364981e+00 
663400 4.6892396251e+00 -1.1272043578e-04 2.7153014650e+00 -4.7030400952e+00 2.7153014650e+00 4.7030400952e+00 
663500 4.6892396247e+00 -1.1265885811e-04 2.7153035406e+00 -4.7030436903e+00 2.7153035406e+00 4.7030436903e+00 
663600 4.6892396243e+00 -1.1259731418e-04 2.7153056151e+00 -4.7030472835e+00 2.7153056151e+00 4.7030472835e+00 
663700 4.6892396239e+00 -1.1253580396e-04 2.7153076885e+00 -4.7030508747e+00 2.7153076885e+00 4.7030508747e+00 
663800 4.6892396236e+00 -1.1247432743e-04 2.7153097608e+00 -4.7030544639e+00 2.7153097608e+00 4.7030544639e+00 
663900 4.6892396232e+00 -1.1241288457e-04 2.7153118319e+00 -4.7030580512e+00 2.7153118319e+00 4.7030580512e+00 
664000 4.6892396228e+00 -1.1235147537e-04 2.7153139019e+00 -4.7030616365e+00 2.7153139019e+00 4.7030616365e+00 
664100 4.6892396224e+00 -1.1229009980e-04 2.7153159707e+00 -4.7030652199e+00 2.7153159707e+00 4.7030652199e+00 
664200 4.6892396220e+00 -1.1222875786e-04 2.7153180384e+00 -4.7030688013e+00 2.7153180384e+00 4.7030688013e+00 
664300 4.6892396217e+00 -1.1216744952e-04 2.7153201050e+00 -4.7030723807e+00 2.7153201050e+00 4.7030723807e+00 
664400 4.6892396213e+00 -1.1210617475e-04 2.7153221705e+00 -4.7030759582e+00 2.7153221705e+00 4.7030759582e+00 
664500 4.6892396209e+00 -1.1204493356e-04 2.7153242348e+00 -4.7030795337e+00 2.7153242348e+00 4.7030795337e+00 
664600 4.6892396205e+00 -1.1198372590e-04 2.7153262980e+00 -4.7030831072e+00 2.7153262980e+00 4.7030831072e+00 
664700 4.6892396202e+00 -1.1192255178e-04 2.7153283601e+00 -4.7030866789e+00 2.7153283601e+00 4.7030866789e+00 
664800 4.6892396198e+00 -1.1186141116e-04 2.7153304210e+00 -4.7030902485e+00 2.7153304210e+00 4.7030902485e+00 
664900 4.6892396194e+00 -1.1180030403e-04 2.7153324808e+00 -4.7030938162e+00 2.7153324808e+00 4.7030938162e+00 
665000 4.6892396190e+00 -1.1173923037e-04 2.7153345395e+00 -4.7030973820e+00 2.7153345395e+00 4.7030973820e+00 
665100 4.6892396187e+00 -1.1167819017e-04 2.7153365971e+00 -4.7031009457e+00 2.7153365971e+00 4.7031009457e+00 
665200 4.6892396183e+00 -1.1161718340e-04 2.7153386535e+00 -4.7031045076e+00 2.7153386535e+00 4.7031045076e+00 
665300 4.6892396179e+00 -1.1155621005e-04 2.7153407088e+00 -4.7031080675e+00 2.7153407088e+00 4.7031080675e+00 
665400 4.6892396175e+00 -1.1149527010e-04 2.7153427630e+00 -4.7031116254e+00 2.7153427630e+00 4.7031116254e+00 
665500 4.6892396172e+00 -1.1143436352e-04 2.7153448160e+00 -4.7031151815e+00 2.7153448160e+00 4.7031151815e+00 
665600 4.6892396168e+00 -1.1137349031e-04 2.7153468680e+00 -4.7031187355e+00 2.7153468680e+00 4.7031187355e+00 
665700 4.6892396164e+00 -1.1131265044e-04 2.7153489188e+00 -4.7031222876e+00 2.7153489188e+00 4.7031222876e+00 
665800 4.6892396161e+00 -1.1125184390e-04 2.7153509685e+00 -4.7031258378e+00 2.7153509685e+00 4.7031258378e+00 
665900 4.6892396157e+00 -1.1119107066e-04 2.7153530171e+00 -4.7031293860e+00 2.7153530171e+00 4.7031293860e+00 
666000 4.6892396153e+00 -1.1113033071e-04 2.7153550645e+00 -4.7031329323e+00 2.7153550645e+00 4.7031329323e+00 
666100 4.6892396149e+00 -1.1106962404e-04 2.7153571108e+00 -4.7031364767e+00 2.7153571108e+00 4.7031364767e+00 
666200 4.6892396146e+00 -1.1100895061e-04 2.7153591561e+00 -4.7031400191e+00 2.7153591561e+00 4.7031400191e+00 
666300 4.6892396142e+00 -1.1094831042e-04 2.7153612002e+00 -4.7031435596e+00 2.7153612002e+00 4.7031435596e+00 
666400 4.6892396138e+00 -1.1088770344e-04 2.7153632431e+00 -4.7031470981e+00 2.7153632431e+00 4.7031470981e+00 
666500 4.6892396135e+00 -1.1082712966e-04 2.7153652850e+00 -4.7031506347e+00 2.7153652850e+00 4.7031506347e+00 
666600 4.6892396131e+00 -1.1076658907e-04 2.7153673257e+00 -4.7031541694e+00 2.7153673257e+00 4.7031541694e+00 
666700 4.6892396127e+00 -1.1070608163e-04 2.7153693653e+00 -4.7031577021e+00 2.7153693653e+00 4.7031577021e+00 
666800 4.6892396124e+00 -1.1064560733e-04 2.7153714039e+00 -4.7031612329e+00 2.7153714039e+00 4.7031612329e+00 
666900 4.6892396120e+00 -1.1058516616e-04 2.7153734413e+00 -4.7031647618e+00 2.7153734413e+00 4.7031647618e+00 
667000 4.6892396116e+00 -1.1052475810e-04 2.7153754775e+00 -4.7031682887e+00 2.7153754775e+00 4.7031682887e+00 
667100 4.6892396113e+00 -1.1046438312e-04 2.7153775127e+00 -4.7031718137e+00 2.7153775127e+00 4.7031718137e+00 
667200 4.6892396109e+00 -1.1040404121e-04 2.7153795467e+00 -4.7031753368e+00 2.7153795467e+00 4.7031753368e+00 
667300 4.6892396105e+00 -1.1034373236e-04 2.7153815797e+00 -4.7031788580e+00 2.7153815797e+00 4.7031788580e+00 
667400 4.6892396102e+00 -1.1028345654e-04 2.7153836115e+00 -4.7031823772e+00 2.7153836115e+00 4.7031823772e+00 
667500 4.6892396098e+00 -1.1022321374e-04 2.7153856422e+00 -4.7031858945e+00 2.7153856422e+00 4.7031858945e+00 
667600 4.6892396094e+00 -1.1016300393e-04 2.7153876718e+00 -4.7031894099e+00 2.7153876718e+00 4.7031894099e+00 
667700 4.6892396091e+00 -1.1010282710e-04 2.7153897003e+00 -4.7031929233e+00 2.7153897003e+00 4.7031929233e+00 
667800 4.6892396087e+00 -1.1004268324e-04 2.7153917277e+00 -4.7031964349e+00 2.7153917277e+00 4.7031964349e+00 
667900 4.6892396084e+00 -1.0998257232e-04 2.7153937540e+00 -4.7031999445e+00 2.7153937540e+00 4.7031999445e+00 
668000 4.6892396080e+00 -1.0992249432e-04 2.7153957792e+00 -4.7032034522e+00 2.7153957792e+00 4.7032034522e+00 
668100 4.6892396076e+00 -1.0986244923e-04 2.7153978032e+00 -4.7032069579e+00 2.7153978032e+00 4.7032069579e+00 
668200 4.6892396073e+00 -1.0980243703e-04 2.7153998262e+00 -4.7032104618e+00 2.7153998262e+00 4.7032104618e+00 
668300 4.6892396069e+00 -1.0974245770e-04 2.7154018480e+00 -4.7032139637e+00 2.7154018480e+00 4.7032139637e+00 
668400 4.6892396066e+00 -1.0968251123e-04 2.7154038688e+00 -4.7032174638e+00 2.7154038688e+00 4.7032174638e+00 
668500 4.6892396062e+00 -1.0962259759e-04 2.7154058884e+00 -4.7032209619e+00 2.7154058884e+00 4.7032209619e+00 
668600 4.6892396058e+00 -1.0956271676e-04 2.7154079069e+00 -4.7032244581e+00 2.7154079069e+00 4.7032244581e+00 
668700 4.6892396055e+00 -1.0950286874e-04 2.7154099244e+00 -4.7032279524e+00 2.7154099244e+00 4.7032279524e+00 
668800 4.6892396051e+00 -1.0944305350e-04 2.7154119407e+00 -4.7032314447e+00 2.7154119407e+00 4.7032314447e+00 
668900 4.6892396048e+00 -1.0938327102e-04 2.7154139559e+00 -4.7032349352e+00 2.7154139559e+00 4.7032349352e+00 
669000 4.6892396044e+00 -1.0932352128e-04 2.7154159700e+00 -4.7032384238e+00 2.7154159700e+00 4.7032384238e+00 
669100 4.6892396040e+00 -1.0926380428e-04 2.7154179830e+00 -4.7032419104e+00 2.7154179830e+00 4.7032419104e+00 
669200 4.6892396037e+00 -1.0920411998e-04 2.7154199950e+00 -4.7032453951e+00 2.7154199950e+00 4.7032453951e+00 
669300 4.6892396033e+00 -1.0914446837e-04 2.7154220058e+00 -4.7032488780e+00 2.7154220058e+00 4.7032488780e+00 
669400 4.6892396030e+00 -1.0908484944e-04 2.7154240155e+00 -4.7032523589e+00 2.7154240155e+00 4.7032523589e+00 
669500 4.6892396026e+00 -1.0902526316e-04 2.7154260241e+00 -4.7032558379e+00 2.7154260241e+00 4.7032558379e+00 
669600 4.6892396023e+00 -1.0896570952e-04 2.7154280316e+00 -4.7032593151e+00 2.7154280316e+00 4.7032593151e+00 
669700 4.6892396019e+00 -1.0890618850e-04 2.7154300380e+00 -4.7032627903e+00 2.7154300380e+00 4.7032627903e+00 
669800 4.6892396015e+00 -1.0884670009e-04 2.7154320434e+00 -4.7032662636e+00 2.7154320434e+00 4.7032662636e+00 
669900 4.6892396012e+00 -1.0878724425e-04 2.7154340476e+00 -4.7032697350e+00 2.7154340476e+00 4.7032697350e+00 
670000 4.6892396008e+00 -1.0872782099e-04 2.7154360507e+00 -4.7032732045e+00 2.7154360507e+00 4.7032732045e+00 
670100 4.6892396005e+00 -1.0866843027e-04 2.7154380527e+00 -4.7032766722e+00 2.7154380527e+00 4.7032766722e+00 
670200 4.6892396001e+00 -1.0860907208e-04 2.7154400537e+00 -4.7032801379e+00 2.7154400537e+00 4.7032801379e+00 
670300 4.6892395998e+00 -1.0854974640e-04 2.7154420535e+00 -4.7032836017e+00 2.7154420535e+00 4.7032836017e+00 
670400 4.6892395994e+00 -1.0849045322e-04 2.7154440523e+00 -4.7032870636e+00 2.7154440523e+00 4.7032870636e+00 
670500 4.6892395991e+00 -1.0843119252e-04 2.7154460499e+00 -4.7032905237e+00 2.7154460499e+00 4.7032905237e+00 
670600 4.6892395987e+00 -1.0837196427e-04 2.7154480465e+00 -4.7032939818e+00 2.7154480465e+00 4.7032939818e+00 
670700 4.6892395984e+00 -1.0831276847e-04 2.7154500420e+00 -4.7032974381e+00 2.7154500420e+00 4.7032974381e+00 
670800 4.6892395980e+00 -1.0825360509e-04 2.7154520363e+00 -4.7033008925e+00 2.7154520363e+00 4.7033008925e+00 
670900 4.6892395977e+00 -1.0819447411e-04 2.7154540296e+00 -4.7033043449e+00 2.7154540296e+00 4.7033043449e+00 
671000 4.6892395973e+00 -1.0813537552e-04 2.7154560218e+00 -4.7033077955e+00 2.7154560218e+00 4.7033077955e+00 
671100 4.6892395970e+00 -1.0807630931e-04 2.7154580129e+00 -4.7033112442e+00 2.7154580129e+00 4.7033112442e+00 
671200 4.6892395966e+00 -1.0801727544e-04 2.7154600030e+00 -4.7033146910e+00 2.7154600030e+00 4.7033146910e+00 
671300 4.6892395963e+00 -1.0795827391e-04 2.7154619919e+00 -4.7033181360e+00 2.7154619919e+00 4.7033181360e+00 
671400 4.6892395959e+00 -1.0789930470e-04 2.7154639797e+00 -4.7033215790e+00 2.7154639797e+00 4.7033215790e+00 
671500 4.6892395956e+00 -1.0784036778e-04 2.7154659665e+00 -4.7033250202e+00 2.7154659665e+00 4.7033250202e+00 
671600 4.6892395952e+00 -1.0778146315e-04 2.7154679522e+00 -4.7033284595e+00 2.7154679522e+00 4.7033284595e+00 
671700 4.6892395949e+00 -1.0772259078e-04 2.7154699367e+00 -4.7033318969e+00 2.7154699367e+00 4.7033318969e+00 
671800 4.6892395945e+00 -1.0766375066e-04 2.7154719202e+00 -4.7033353324e+00 2.7154719202e+00 4.7033353324e+00 
671900 4.6892395942e+00 -1.0760494277e-04 2.7154739027e+00 -4.7033387660e+00 2.7154739027e+00 4.7033387660e+00 
672000 4.6892395938e+00 -1.0754616709e-04 2.7154758840e+00 -4.7033421978e+00 2.7154758840e+00 4.7033421978e+00 
672100 4.6892395935e+00 -1.0748742360e-04 2.7154778642e+00 -4.7033456277e+00 2.7154778642e+00 4.7033456277e+00 
672200 4.6892395931e+00 -1.0742871228e-04 2.7154798434e+00 -4.7033490557e+00 2.7154798434e+00 4.7033490557e+00 
672300 4.6892395928e+00 -1.0737003312e-04 2.7154818215e+00 -4.7033524818e+00 2.7154818215e+00 4.7033524818e+00 
672400 4.6892395924e+00 -1.0731138611e-04 2.7154837985e+00 -4.7033559061e+00 2.7154837985e+00 4.7033559061e+00 
672500 4.6892395921e+00 -1.0725277121e-04 2.7154857744e+00 -4.7033593285e+00 2.7154857744e+00 4.7033593285e+00 
672600 4.6892395918e+00 -1.0719418842e-04 2.7154877492e+00 -4.7033627490e+00 2.7154877492e+00 4.7033627490e+00 
672700 4.6892395914e+00 -1.0713563772e-04 2.7154897230e+00 -4.7033661676e+00 2.7154897230e+00 4.7033661676e+00 
672800 4.6892395911e+00 -1.0707711909e-04 2.7154916957e+00 -4.7033695844e+00 2.7154916957e+00 4.7033695844e+00 
672900 4.6892395907e+00 -1.0701863251e-04 2.7154936673e+00 -4.7033729993e+00 2.7154936673e+00 4.7033729993e+00 
673000 4.6892395904e+00 -1.0696017796e-04 2.7154956378e+00 -4.7033764124e+00 2.7154956378e+00 4.7033764124e+00 
673100 4.6892395900e+00 -1.0690175543e-04 2.7154976072e+00 -4.7033798235e+00 2.7154976072e+00 4.7033798235e+00 
673200 4.6892395897e+00 -1.0684336490e-04 2.7154995756e+00 -4.7033832328e+00 2.7154995756e+00 4.7033832328e+00 
673300 4.6892395894e+00 -1.0678500636e-04 2.7155015429e+00 -4.7033866403e+00 2.7155015429e+00 4.7033866403e+00 
673400 4.6892395890e+00 -1.0672667977e-04 2.7155035091e+00 -4.7033900459e+00 2.7155035091e+00 4.7033900459e+00 
673500 4.6892395887e+00 -1.0666838514e-04 2.7155054742e+00 -4.7033934496e+00 2.7155054742e+00 4.7033934496e+00 
673600 4.6892395883e+00 -1.0661012243e-04 2.7155074383e+00 -4.7033968514e+00 2.7155074383e+00 4.7033968514e+00 
673700 4.6892395880e+00 -1.0655189163e-04 2.7155094013e+00 -4.7034002514e+00 2.7155094013e+00 4.7034002514e+00 
673800 4.6892395876e+00 -1.0649369273e-04 2.7155113632e+00 -4.7034036496e+00 2.7155113632e+00 4.7034036496e+00 
673900 4.6892395873e+00 -1.0643552571e-04 2.7155133240e+00 -4.7034070458e+00 2.7155133240e+00 4.7034070458e+00 
674000 4.6892395870e+00 -1.0637739054e-04 2.7155152838e+00 -4.7034104402e+00 2.7155152838e+00 4.7034104402e+00 
674100 4.6892395866e+00 -1.0631928722e-04 2.7155172425e+00 -4.7034138328e+00 2.7155172425e+00 4.7034138328e+00 
674200 4.6892395863e+00 -1.0626121572e-04 2.7155192001e+00 -4.7034172235e+00 2.7155192001e+00 4.7034172235e+00 
674300 4.6892395860e+00 -1.0620317602e-04 2.7155211567e+00 -4.7034206124e+00 2.7155211567e+00 4.7034206124e+00 
674400 4.6892395856e+00 -1.0614516812e-04 2.7155231121e+00 -4.7034239994e+00 2.7155231121e+00 4.7034239994e+00 
674500 4.6892395853e+00 -1.0608719199e-04 2.7155250666e+00 -4.7034273845e+00 2.7155250666e+00 4.7034273845e+00 
674600 4.6892395849e+00 -1.0602924761e-04 2.7155270199e+00 -4.7034307678e+00 2.7155270199e+00 4.7034307678e+00 
674700 4.6892395846e+00 -1.0597133497e-04 2.7155289722e+00 -4.7034341493e+00 2.7155289722e+00 4.7034341493e+00 
674800 4.6892395843e+00 -1.0591345405e-04 2.7155309234e+00 -4.7034375288e+00 2.7155309234e+00 4.7034375288e+00 
674900 4.6892395839e+00 -1.0585560483e-04 2.7155328735e+00 -4.7034409066e+00 2.7155328735e+00 4.7034409066e+00 
675000 4.6892395836e+00 -1.0579778730e-04 2.7155348226e+00 -4.7034442825e+00 2.7155348226e+00 4.7034442825e+00 
675100 4.6892395833e+00 -1.0574000143e-04 2.7155367706e+00 -4.7034476565e+00 2.7155367706e+00 4.7034476565e+00 
675200 4.6892395829e+00 -1.0568224721e-04 2.7155387176e+00 -4.7034510288e+00 2.7155387176e+00 4.7034510288e+00 
675300 4.6892395826e+00 -1.0562452463e-04 2.7155406635e+00 -4.7034543991e+00 2.7155406635e+00 4.7034543991e+00 
675400 4.6892395823e+00 -1.0556683366e-04 2.7155426083e+00 -4.7034577676e+00 2.7155426083e+00 4.7034577676e+00 
675500 4.6892395819e+00 -1.0550917429e-04 2.7155445520e+00 -4.7034611343e+00 2.7155445520e+00 4.7034611343e+00 
675600 4.6892395816e+00 -1.0545154650e-04 2.7155464947e+00 -4.7034644992e+00 2.7155464947e+00 4.7034644992e+00 
675700 4.6892395813e+00 -1.0539395028e-04 2.7155484363e+00 -4.7034678621e+00 2.7155484363e+00 4.7034678621e+00 
675800 4.6892395809e+00 -1.0533638560e-04 2.7155503769e+00 -4.7034712233e+00 2.7155503769e+00 4.7034712233e+00 
675900 4.6892395806e+00 -1.0527885245e-04 2.7155523164e+00 -4.7034745826e+00 2.7155523164e+00 4.7034745826e+00 
676000 4.6892395803e+00 -1.0522135081e-04 2.7155542548e+00 -4.7034779401e+00 2.7155542548e+00 4.7034779401e+00 
676100 4.6892395799e+00 -1.0516388066e-04 2.7155561922e+00 -4.7034812958e+00 2.7155561922e+00 4.7034812958e+00 
676200 4.6892395796e+00 -1.0510644200e-04 2.7155581286e+00 -4.7034846496e+00 2.7155581286e+00 4.7034846496e+00 
676300 4.6892395793e+00 -1.0504903479e-04 2.7155600638e+00 -4.7034880015e+00 2.7155600638e+00 4.7034880015e+00 
676400 4.6892395789e+00 -1.0499165902e-04 2.7155619980e+00 -4.7034913517e+00 2.7155619980e+00 4.7034913517e+00 
676500 4.6892395786e+00 -1.0493431468e-04 2.7155639312e+00 -4.7034947000e+00 2.7155639312e+00 4.7034947000e+00 
676600 4.6892395783e+00 -1.0487700175e-04 2.7155658633e+00 -4.7034980465e+00 2.7155658633e+00 4.7034980465e+00 
676700 4.6892395779e+00 -1.0481972020e-04 2.7155677943e+00 -4.7035013911e+00 2.7155677943e+00 4.7035013911e+00 
676800 4.6892395776e+00 -1.0476247003e-04 2.7155697243e+00 -4.7035047339e+00 2.7155697243e+00 4.7035047339e+00 
676900 4.6892395773e+00 -1.0470525122e-04 2.7155716532e+00 -4.7035080749e+00 2.7155716532e+00 4.7035080749e+00 
677000 4.6892395770e+00 -1.0464806375e-04 2.7155735811e+00 -4.7035114141e+00 2.7155735811e+00 4.7035114141e+00 
677100 4.6892395766e+00 -1.0459090759e-04 2.7155755079e+00 -4.7035147514e+00 2.7155755079e+00 4.7035147514e+00 
677200 4.6892395763e+00 -1.0453378275e-04 2.7155774336e+00 -4.7035180869e+00 2.7155774336e+00 4.7035180869e+00 
677300 4.6892395760e+00 -1.0447668919e-04 2.7155793583e+00 -4.7035214206e+00 2.7155793583e+00 4.7035214206e+00 
677400 4.6892395756e+00 -1.0441962690e-04 2.7155812820e+00 -4.7035247525e+00 2.7155812820e+00 4.7035247525e+00 
677500 4.6892395753e+00 -1.0436259586e-04 2.7155832046e+00 -4.7035280825e+00 2.7155832046e+00 4.7035280825e+00 
677600 4.6892395750e+00 -1.0430559606e-04 2.7155851262e+00 -4.7035314108e+00 2.7155851262e+00 4.7035314108e+00 
677700 4.6892395747e+00 -1.0424862748e-04 2.7155870467e+00 -4.7035347372e+00 2.7155870467e+00 4.7035347372e+00 
677800 4.6892395743e+00 -1.0419169010e-04 2.7155889661e+00 -4.7035380618e+00 2.7155889661e+00 4.7035380618e+00 
677900 4.6892395740e+00 -1.0413478390e-04 2.7155908845e+00 -4.7035413845e+00 2.7155908845e+00 4.7035413845e+00 
678000 4.6892395737e+00 -1.0407790887e-04 2.7155928019e+00 -4.7035447055e+00 2.7155928019e+00 4.7035447055e+00 
678100 4.6892395734e+00 -1.0402106500e-04 2.7155947182e+00 -4.7035480246e+00 2.7155947182e+00 4.7035480246e+00 
678200 4.6892395730e+00 -1.0396425225e-04 2.7155966334e+00 -4.7035513419e+00 2.7155966334e+00 4.7035513419e+00 
678300 4.6892395727e+00 -1.0390747062e-04 2.7155985476e+00 -4.7035546574e+00 2.7155985476e+00 4.7035546574e+00 
678400 4.6892395724e+00 -1.0385072009e-04 2.7156004608e+00 -4.7035579711e+00 2.7156004608e+00 4.7035579711e+00 
678500 4.6892395721e+00 -1.0379400065e-04 2.7156023729e+00 -4.7035612830e+00 2.7156023729e+00 4.7035612830e+00 
678600 4.6892395717e+00 -1.0373731226e-04 2.7156042840e+00 -4.7035645931e+00 2.7156042840e+00 4.7035645931e+00 
678700 4.6892395714e+00 -1.0368065493e-04 2.7156061940e+00 -4.7035679013e+00 2.7156061940e+00 4.7035679013e+00 
678800 4.6892395711e+00 -1.0362402863e-04 2.7156081030e+00 -4.7035712078e+00 2.7156081030e+00 4.7035712078e+00 
678900 4.6892395708e+00 -1.0356743334e-04 2.7156100109e+00 -4.7035745124e+00 2.7156100109e+00 4.7035745124e+00 
679000 4.6892395705e+00 -1.0351086905e-04 2.7156119178e+00 -4.7035778152e+00 2.7156119178e+00 4.7035778152e+00 
679100 4.6892395701e+00 -1.0345433573e-04 2.7156138236e+00 -4.7035811163e+00 2.7156138236e+00 4.7035811163e+00 
679200 4.6892395698e+00 -1.0339783338e-04 2.7156157284e+00 -4.7035844155e+00 2.7156157284e+00 4.7035844155e+00 
679300 4.6892395695e+00 -1.0334136198e-04 2.7156176322e+00 -4.7035877129e+00 2.7156176322e+00 4.7035877129e+00 
679400 4.6892395692e+00 -1.0328492151e-04 2.7156195349e+00 -4.7035910085e+00 2.7156195349e+00 4.7035910085e+00 
679500 4.6892395689e+00 -1.0322851194e-04 2.7156214366e+00 -4.7035943023e+00 2.7156214366e+00 4.7035943023e+00 
679600 4.6892395685e+00 -1.0317213328e-04 2.7156233372e+00 -4.7035975943e+00 2.7156233372e+00 4.7035975943e+00 
679700 4.6892395682e+00 -1.0311578549e-04 2.7156252369e+00 -4.7036008845e+00 2.7156252369e+00 4.7036008845e+00 
679800 4.6892395679e+00 -1.0305946856e-04 2.7156271354e+00 -4.7036041730e+00 2.7156271354e+00 4.7036041730e+00 
679900 4.6892395676e+00 -1.0300318247e-04 2.7156290329e+00 -4.7036074596e+00 2.7156290329e+00 4.7036074596e+00 
680000 4.6892395673e+00 -1.0294692722e-04 2.7156309294e+00 -4.7036107444e+00 2.7156309294e+00 4.7036107444e+00 
680100 4.6892395669e+00 -1.0289070277e-04 2.7156328249e+00 -4.7036140274e+00 2.7156328249e+00 4.7036140274e+00 
680200 4.6892395666e+00 -1.0283450912e-04 2.7156347193e+00 -4.7036173086e+00 2.7156347193e+00 4.7036173086e+00 
680300 4.6892395663e+00 -1.0277834624e-04 2.7156366127e+00 -4.7036205881e+00 2.7156366127e+00 4.7036205881e+00 
680400 4.6892395660e+00 -1.0272221412e-04 2.7156385050e+00 -4.7036238657e+00 2.7156385050e+00 4.7036238657e+00 
680500 4.6892395657e+00 -1.0266611275e-04 2.7156403963e+00 -4.7036271415e+00 2.7156403963e+00 4.7036271415e+00 
680600 4.6892395654e+00 -1.0261004210e-04 2.7156422866e+00 -4.7036304156e+00 2.7156422866e+00 4.7036304156e+00 
680700 4.6892395650e+00 -1.0255400216e-04 2.7156441758e+00 -4.7036336878e+00 2.7156441758e+00 4.7036336878e+00 
680800 4.6892395647e+00 -1.0249799291e-04 2.7156460641e+00 -4.7036369583e+00 2.7156460641e+00 4.7036369583e+00 
680900 4.6892395644e+00 -1.0244201434e-04 2.7156479512e+00 -4.7036402270e+00 2.7156479512e+00 4.7036402270e+00 
681000 4.6892395641e+00 -1.0238606643e-04 2.7156498374e+00 -4.7036434939e+00 2.7156498374e+00 4.7036434939e+00 
681100 4.6892395638e+00 -1.0233014916e-04 2.7156517225e+00 -4.7036467590e+00 2.7156517225e+00 4.7036467590e+00 
681200 4.6892395635e+00 -1.0227426251e-04 2.7156536066e+00 -4.7036500223e+00 2.7156536066e+00 4.7036500223e+00 
681300 4.6892395632e+00 -1.0221840647e-04 2.7156554896e+00 -4.7036532839e+00 2.7156554896e+00 4.7036532839e+00 
681400 4.6892395628e+00 -1.0216258103e-04 2.7156573716e+00 -4.7036565436e+00 2.7156573716e+00 4.7036565436e+00 
681500 4.6892395625e+00 -1.0210678615e-04 2.7156592526e+00 -4.7036598016e+00 2.7156592526e+00 4.7036598016e+00 
681600 4.6892395622e+00 -1.0205102184e-04 2.7156611326e+00 -4.7036630578e+00 2.7156611326e+00 4.7036630578e+00 
681700 4.6892395619e+00 -1.0199528806e-04 2.7156630115e+00 -4.7036663122e+00 2.7156630115e+00 4.7036663122e+00 
681800 4.6892395616e+00 -1.0193958481e-04 2.7156648894e+00 -4.7036695648e+00 2.7156648894e+00 4.7036695648e+00 
681900 4.6892395613e+00 -1.0188391207e-04 2.7156667663e+00 -4.7036728157e+00 2.7156667663e+00 4.7036728157e+00 
682000 4.6892395610e+00 -1.0182826982e-04 2.7156686422e+00 -4.7036760648e+00 2.7156686422e+00 4.7036760648e+00 
682100 4.6892395607e+00 -1.0177265804e-04 2.7156705170e+00 -4.7036793121e+00 2.7156705170e+00 4.7036793121e+00 
682200 4.6892395604e+00 -1.0171707672e-04 2.7156723908e+00 -4.7036825576e+00 2.7156723908e+00 4.7036825576e+00 
682300 4.6892395600e+00 -1.0166152584e-04 2.7156742636e+00 -4.7036858013e+00 2.7156742636e+00 4.7036858013e+00 
682400 4.6892395597e+00 -1.0160600538e-04 2.7156761353e+00 -4.7036890433e+00 2.7156761353e+00 4.7036890433e+00 
682500 4.6892395594e+00 -1.0155051533e-04 2.7156780061e+00 -4.7036922835e+00 2.7156780061e+00 4.7036922835e+00 
682600 4.6892395591e+00 -1.0149505568e-04 2.7156798758e+00 -4.7036955219e+00 2.7156798758e+00 4.7036955219e+00 
682700 4.6892395588e+00 -1.0143962639e-04 2.7156817445e+00 -4.7036987586e+00 2.7156817445e+00 4.7036987586e+00 
682800 4.6892395585e+00 -1.0138422746e-04 2.7156836121e+00 -4.7037019935e+00 2.7156836121e+00 4.7037019935e+00 
682900 4.6892395582e+00 -1.0132885887e-04 2.7156854788e+00 -4.7037052266e+00 2.7156854788e+00 4.7037052266e+00 
683000 4.6892395579e+00 -1.0127352061e-04 2.7156873444e+00 -4.7037084580e+00 2.7156873444e+00 4.7037084580e+00 
683100 4.6892395576e+00 -1.0121821265e-04 2.7156892090e+00 -4.7037116875e+00 2.7156892090e+00 4.7037116875e+00 
683200 4.6892395573e+00 -1.0116293499e-04 2.7156910726e+00 -4.7037149154e+00 2.7156910726e+00 4.7037149154e+00 
683300 4.6892395570e+00 -1.0110768760e-04 2.7156929351e+00 -4.7037181414e+00 2.7156929351e+00 4.7037181414e+00 
683400 4.6892395567e+00 -1.0105247046e-04 2.7156947967e+00 -4.7037213657e+00 2.7156947967e+00 4.7037213657e+00 
683500 4.6892395563e+00 -1.0099728357e-04 2.7156966572e+00 -4.7037245882e+00 2.7156966572e+00 4.7037245882e+00 
683600 4.6892395560e+00 -1.0094212690e-04 2.7156985167e+00 -4.7037278090e+00 2.7156985167e+00 4.7037278090e+00 
683700 4.6892395557e+00 -1.0088700043e-04 2.7157003752e+00 -4.7037310280e+00 2.7157003752e+00 4.7037310280e+00 
683800 4.6892395554e+00 -1.0083190416e-04 2.7157022327e+00 -4.7037342453e+00 2.7157022327e+00 4.7037342453e+00 
683900 4.6892395551e+00 -1.0077683807e-04 2.7157040892e+00 -4.7037374607e+00 2.7157040892e+00 4.7037374607e+00 
684000 4.6892395548e+00 -1.0072180213e-04 2.7157059446e+00 -4.7037406745e+00 2.7157059446e+00 4.7037406745e+00 
684100 4.6892395545e+00 -1.0066679633e-04 2.7157077990e+00 -4.7037438864e+00 2.7157077990e+00 4.7037438864e+00 
684200 4.6892395542e+00 -1.0061182065e-04 2.7157096525e+00 -4.7037470967e+00 2.7157096525e+00 4.7037470967e+00 
684300 4.6892395539e+00 -1.0055687509e-04 2.7157115049e+00 -4.7037503051e+00 2.7157115049e+00 4.7037503051e+00 
684400 4.6892395536e+00 -1.0050195961e-04 2.7157133562e+00 -4.7037535118e+00 2.7157133562e+00 4.7037535118e+00 
684500 4.6892395533e+00 -1.0044707422e-04 2.7157152066e+00 -4.7037567168e+00 2.7157152066e+00 4.7037567168e+00 
684600 4.6892395530e+00 -1.0039221888e-04 2.7157170560e+00 -4.7037599200e+00 2.7157170560e+00 4.7037599200e+00 
684700 4.6892395527e+00 -1.0033739358e-04 2.7157189043e+00 -4.7037631214e+00 2.7157189043e+00 4.7037631214e+00 
684800 4.6892395524e+00 -1.0028259830e-04 2.7157207517e+00 -4.7037663211e+00 2.7157207517e+00 4.7037663211e+00 
684900 4.6892395521e+00 -1.0022783304e-04 2.7157225980e+00 -4.7037695190e+00 2.7157225980e+00 4.7037695190e+00 
685000 4.6892395518e+00 -1.0017309777e-04 2.7157244434e+00 -4.7037727152e+00 2.7157244434e+00 4.7037727152e+00 
685100 4.6892395515e+00 -1.0011839248e-04 2.7157262877e+00 -4.7037759097e+00 2.7157262877e+00 4.7037759097e+00 
685200 4.6892395512e+00 -1.0006371714e-04 2.7157281310e+00 -4.7037791024e+00 2.7157281310e+00 4.7037791024e+00 
685300 4.6892395509e+00 -1.0000907175e-04 2.7157299733e+00 -4.7037822934e+00 2.7157299733e+00 4.7037822934e+00 
685400 4.6892395506e+00 -9.9954456287e-05 2.7157318146e+00 -4.7037854826e+00 2.7157318146e+00 4.7037854826e+00 
685500 4.6892395503e+00 -9.9899870734e-05 2.7157336549e+00 -4.7037886700e+00 2.7157336549e+00 4.7037886700e+00 
685600 4.6892395500e+00 -9.9845315074e-05 2.7157354941e+00 -4.7037918558e+00 2.7157354941e+00 4.7037918558e+00 
685700 4.6892395497e+00 -9.9790789292e-05 2.7157373324e+00 -4.7037950397e+00 2.7157373324e+00 4.7037950397e+00 
685800 4.6892395494e+00 -9.9736293371e-05 2.7157391697e+00 -4.7037982220e+00 2.7157391697e+00 4.7037982220e+00 
685900 4.6892395491e+00 -9.9681827295e-05 2.7157410059e+00 -4.7038014025e+00 2.7157410059e+00 4.7038014025e+00 
686000 4.6892395488e+00 -9.9627391048e-05 2.7157428412e+00 -4.7038045813e+00 2.7157428412e+00 4.7038045813e+00 
686100 4.6892395485e+00 -9.9572984613e-05 2.7157446755e+00 -4.7038077583e+00 2.7157446755e+00 4.7038077583e+00 
686200 4.6892395482e+00 -9.9518607973e-05 2.7157465087e+00 -4.7038109336e+00 2.7157465087e+00 4.7038109336e+00 
686300 4.6892395479e+00 -9.9464261113e-05 2.7157483410e+00 -4.7038141071e+00 2.7157483410e+00 4.7038141071e+00 
686400 4.6892395476e+00 -9.9409944016e-05 2.7157501722e+00 -4.7038172789e+00 2.7157501722e+00 4.7038172789e+00 
686500 4.6892395473e+00 -9.9355656666e-05 2.7157520025e+00 -4.7038204490e+00 2.7157520025e+00 4.7038204490e+00 
686600 4.6892395470e+00 -9.9301399046e-05 2.7157538317e+00 -4.7038236174e+00 2.7157538317e+00 4.7038236174e+00 
686700 4.6892395467e+00 -9.9247171140e-05 2.7157556600e+00 -4.7038267840e+00 2.7157556600e+00 4.7038267840e+00 
686800 4.6892395464e+00 -9.9192972932e-05 2.7157574872e+00 -4.7038299489e+00 2.7157574872e+00 4.7038299489e+00 
686900 4.6892395461e+00 -9.9138804405e-05 2.7157593135e+00 -4.7038331120e+00 2.7157593135e+00 4.7038331120e+00 
687000 4.6892395458e+00 -9.9084665544e-05 2.7157611387e+00 -4.7038362735e+00 2.7157611387e+00 4.7038362735e+00 
687100 4.6892395455e+00 -9.9030556332e-05 2.7157629630e+00 -4.7038394332e+00 2.7157629630e+00 4.7038394332e+00 
687200 4.6892395453e+00 -9.8976476752e-05 2.7157647862e+00 -4.7038425911e+00 2.7157647862e+00 4.7038425911e+00 
687300 4.6892395450e+00 -9.8922426788e-05 2.7157666085e+00 -4.7038457474e+00 2.7157666085e+00 4.7038457474e+00 
687400 4.6892395447e+00 -9.8868406425e-05 2.7157684297e+00 -4.7038489019e+00 2.7157684297e+00 4.7038489019e+00 
687500 4.6892395444e+00 -9.8814415646e-05 2.7157702500e+00 -4.7038520547e+00 2.7157702500e+00 4.7038520547e+00 
687600 4.6892395441e+00 -9.8760454434e-05 2.7157720693e+00 -4.7038552058e+00 2.7157720693e+00 4.7038552058e+00 
687700 4.6892395438e+00 -9.8706522773e-05 2.7157738875e+00 -4.7038583551e+00 2.7157738875e+00 4.7038583551e+00 
687800 4.6892395435e+00 -9.8652620648e-05 2.7157757048e+00 -4.7038615027e+00 2.7157757048e+00 4.7038615027e+00 
687900 4.6892395432e+00 -9.8598748042e-05 2.7157775211e+00 -4.7038646486e+00 2.7157775211e+00 4.7038646486e+00 
688000 4.6892395429e+00 -9.8544904938e-05 2.7157793364e+00 -4.7038677928e+00 2.7157793364e+00 4.7038677928e+00 
688100 4.6892395426e+00 -9.8491091321e-05 2.7157811507e+00 -4.7038709353e+00 2.7157811507e+00 4.7038709353e+00 
688200 4.6892395423e+00 -9.8437307175e-05 2.7157829640e+00 -4.7038740760e+00 2.7157829640e+00 4.7038740760e+00 
688300 4.6892395420e+00 -9.8383552483e-05 2.7157847763e+00 -4.7038772151e+00 2.7157847763e+00 4.7038772151e+00 
688400 4.6892395417e+00 -9.8329827228e-05 2.7157865877e+00 -4.7038803524e+00 2.7157865877e+00 4.7038803524e+00 
688500 4.6892395415e+00 -9.8276131396e-05 2.7157883980e+00 -4.7038834880e+00 2.7157883980e+00 4.7038834880e+00 
688600 4.6892395412e+00 -9.8222464970e-05 2.7157902074e+00 -4.7038866218e+00 2.7157902074e+00 4.7038866218e+00 
688700 4.6892395409e+00 -9.8168827933e-05 2.7157920157e+00 -4.7038897540e+00 2.7157920157e+00 4.7038897540e+00 
688800 4.6892395406e+00 -9.8115220269e-05 2.7157938231e+00 -4.7038928845e+00 2.7157938231e+00 4.7038928845e+00 
688900 4.6892395403e+00 -9.8061641963e-05 2.7157956295e+00 -4.7038960132e+00 2.7157956295e+00 4.7038960132e+00 
689000 4.6892395400e+00 -9.8008092998e-05 2.7157974349e+00 -4.7038991403e+00 2.7157974349e+00 4.7038991403e+00 
689100 4.6892395397e+00 -9.7954573358e-05 2.7157992393e+00 -4.7039022656e+00 2.7157992393e+00 4.7039022656e+00 
689200 4.6892395394e+00 -9.7901083028e-05 2.7158010427e+00 -4.7039053892e+00 2.7158010427e+00 4.7039053892e+00 
689300 4.6892395391e+00 -9.7847621990e-05 2.7158028451e+00 -4.7039085111e+00 2.7158028451e+00 4.7039085111e+00 
689400 4.6892395389e+00 -9.7794190229e-05 2.7158046466e+00 -4.7039116313e+00 2.7158046466e+00 4.7039116313e+00 
689500 4.6892395386e+00 -9.7740787729e-05 2.7158064470e+00 -4.7039147498e+00 2.7158064470e+00 4.7039147498e+00 
689600 4.6892395383e+00 -9.7687414473e-05 2.7158082465e+00 -4.7039178666e+00 2.7158082465e+00 4.7039178666e+00 
689700 4.6892395380e+00 -9.7634070447e-05 2.7158100450e+00 -4.7039209817e+00 2.7158100450e+00 4.7039209817e+00 
689800 4.6892395377e+00 -9.7580755633e-05 2.7158118425e+00 -4.7039240951e+00 2.7158118425e+00 4.7039240951e+00 
689900 4.6892395374e+00 -9.7527470015e-05 2.7158136391e+00 -4.7039272067e+00 2.7158136391e+00 4.7039272067e+00 
690000 4.6892395371e+00 -9.7474213579e-05 2.7158154346e+00 -4.7039303167e+00 2.7158154346e+00 4.7039303167e+00 
690100 4.6892395369e+00 -9.7420986307e-05 2.7158172292e+00 -4.7039334250e+00 2.7158172292e+00 4.7039334250e+00 
690200 4.6892395366e+00 -9.7367788183e-05 2.7158190228e+00 -4.7039365316e+00 2.7158190228e+00 4.7039365316e+00 
690300 4.6892395363e+00 -9.7314619192e-05 2.7158208154e+00 -4.7039396365e+00 2.7158208154e+00 4.7039396365e+00 
690400 4.6892395360e+00 -9.7261479317e-05 2.7158226070e+00 -4.7039427397e+00 2.7158226070e+00 4.7039427397e+00 
690500 4.6892395357e+00 -9.7208368544e-05 2.7158243976e+00 -4.7039458411e+00 2.7158243976e+00 4.7039458411e+00 
690600 4.6892395354e+00 -9.7155286854e-05 2.7158261873e+00 -4.7039489409e+00 2.7158261873e+00 4.7039489409e+00 
690700 4.6892395352e+00 -9.7102234234e-05 2.7158279760e+00 -4.7039520390e+00 2.7158279760e+00 4.7039520390e+00 
690800 4.6892395349e+00 -9.7049210666e-05 2.7158297637e+00 -4.7039551354e+00 2.7158297637e+00 4.7039551354e+00 
690900 4.6892395346e+00 -9.6996216135e-05 2.7158315504e+00 -4.7039582302e+00 2.7158315504e+00 4.7039582302e+00 
691000 4.6892395343e+00 -9.6943250624e-05 2.7158333362e+00 -4.7039613232e+00 2.7158333362e+00 4.7039613232e+00 
691100 4.6892395340e+00 -9.6890314119e-05 2.7158351210e+00 -4.7039644145e+00 2.7158351210e+00 4.7039644145e+00 
691200 4.6892395337e+00 -9.6837406602e-05 2.7158369048e+00 -4.7039675041e+00 2.7158369048e+00 4.7039675041e+00 
691300 4.6892395335e+00 -9.6784528059e-05 2.7158386876e+00 -4.7039705921e+00 2.7158386876e+00 4.7039705921e+00 
691400 4.6892395332e+00 -9.6731678472e-05 2.7158404695e+00 -4.7039736783e+00 2.7158404695e+00 4.7039736783e+00 
691500 4.6892395329e+00 -9.6678857827e-05 2.7158422503e+00 -4.7039767629e+00 2.7158422503e+00 4.7039767629e+00 
691600 4.6892395326e+00 -9.6626066108e-05 2.7158440302e+00 -4.7039798458e+00 2.7158440302e+00 4.7039798458e+00 
691700 4.6892395323e+00 -9.6573303298e-05 2.7158458092e+00 -4.7039829270e+00 2.7158458092e+00 4.7039829270e+00 
691800 4.6892395321e+00 -9.6520569381e-05 2.7158475871e+00 -4.7039860065e+00 2.7158475871e+00 4.7039860065e+00 
691900 4.6892395318e+00 -9.6467864342e-05 2.7158493641e+00 -4.7039890844e+00 2.7158493641e+00 4.7039890844e+00 
692000 4.6892395315e+00 -9.6415188166e-05 2.7158511401e+00 -4.7039921605e+00 2.7158511401e+00 4.7039921605e+00 
692100 4.6892395312e+00 -9.6362540835e-05 2.7158529152e+00 -4.7039952350e+00 2.7158529152e+00 4.7039952350e+00 
692200 4.6892395309e+00 -9.6309922334e-05 2.7158546893e+00 -4.7039983078e+00 2.7158546893e+00 4.7039983078e+00 
692300 4.6892395307e+00 -9.6257332648e-05 2.7158564624e+00 -4.7040013789e+00 2.7158564624e+00 4.7040013789e+00 
692400 4.6892395304e+00 -9.6204771761e-05 2.7158582345e+00 -4.7040044483e+00 2.7158582345e+00 4.7040044483e+00 
692500 4.6892395301e+00 -9.6152239656e-05 2.7158600057e+00 -4.7040075161e+00 2.7158600057e+00 4.7040075161e+00 
692600 4.6892395298e+00 -9.6099736318e-05 2.7158617759e+00 -4.7040105821e+00 2.7158617759e+00 4.7040105821e+00 
692700 4.6892395296e+00 -9.6047261731e-05 2.7158635451e+00 -4.7040136465e+00 2.7158635451e+00 4.7040136465e+00 
692800 4.6892395293e+00 -9.5994815880e-05 2.7158653134e+00 -4.7040167093e+00 2.7158653134e+00 4.7040167093e+00 
692900 4.6892395290e+00 -9.5942398748e-05 2.7158670807e+00 -4.7040197703e+00 2.7158670807e+00 4.7040197703e+00 
693000 4.6892395287e+00 -9.5890010321e-05 2.7158688470e+00 -4.7040228297e+00 2.7158688470e+00 4.7040228297e+00 
693100 4.6892395285e+00 -9.5837650581e-05 2.7158706124e+00 -4.7040258874e+00 2.7158706124e+00 4.7040258874e+00 
693200 4.6892395282e+00 -9.5785319514e-05 2.7158723768e+00 -4.7040289434e+00 2.7158723768e+00 4.7040289434e+00 
693300 4.6892395279e+00 -9.5733017103e-05 2.7158741402e+00 -4.7040319978e+00 2.7158741402e+00 4.7040319978e+00 
693400 4.6892395276e+00 -9.5680743334e-05 2.7158759027e+00 -4.7040350505e+00 2.7158759027e+00 4.7040350505e+00 
693500 4.6892395274e+00 -9.5628498189e-05 2.7158776642e+00 -4.7040381015e+00 2.7158776642e+00 4.7040381015e+00 
693600 4.6892395271e+00 -9.5576281654e-05 2.7158794247e+00 -4.7040411508e+00 2.7158794247e+00 4.7040411508e+00 
693700 4.6892395268e+00 -9.5524093713e-05 2.7158811843e+00 -4.7040441985e+00 2.7158811843e+00 4.7040441985e+00 
693800 4.6892395265e+00 -9.5471934349e-05 2.7158829429e+00 -4.7040472445e+00 2.7158829429e+00 4.7040472445e+00 
693900 4.6892395263e+00 -9.5419803548e-05 2.7158847006e+00 -4.7040502889e+00 2.7158847006e+00 4.7040502889e+00 
694000 4.6892395260e+00 -9.5367701294e-05 2.7158864573e+00 -4.7040533316e+00 2.7158864573e+00 4.7040533316e+00 
694100 4.6892395257e+00 -9.5315627571e-05 2.7158882130e+00 -4.7040563726e+00 2.7158882130e+00 4.7040563726e+00 
694200 4.6892395254e+00 -9.5263582363e-05 2.7158899678e+00 -4.7040594120e+00 2.7158899678e+00 4.7040594120e+00 
694300 4.6892395252e+00 -9.5211565655e-05 2.7158917216e+00 -4.7040624497e+00 2.7158917216e+00 4.7040624497e+00 
694400 4.6892395249e+00 -9.5159577431e-05 2.7158934745e+00 -4.7040654857e+00 2.7158934745e+00 4.7040654857e+00 
694500 4.6892395246e+00 -9.5107617675e-05 2.7158952264e+00 -4.7040685201e+00 2.7158952264e+00 4.7040685201e+00 
694600 4.6892395244e+00 -9.5055686372e-05 2.7158969773e+00 -4.7040715528e+00 2.7158969773e+00 4.7040715528e+00 
694700 4.6892395241e+00 -9.5003783507e-05 2.7158987273e+00 -4.7040745839e+00 2.7158987273e+00 4.7040745839e+00 
694800 4.6892395238e+00 -9.4951909063e-05 2.7159004763e+00 -4.7040776133e+00 2.7159004763e+00 4.7040776133e+00 
694900 4.6892395235e+00 -9.4900063024e-05 2.7159022244e+00 -4.7040806411e+00 2.7159022244e+00 4.7040806411e+00 
695000 4.6892395233e+00 -9.4848245377e-05 2.7159039715e+00 -4.7040836672e+00 2.7159039715e+00 4.7040836672e+00 
695100 4.6892395230e+00 -9.4796456104e-05 2.7159057177e+00 -4.7040866916e+00 2.7159057177e+00 4.7040866916e+00 
695200 4.6892395227e+00 -9.4744695190e-05 2.7159074629e+00 -4.7040897144e+00 2.7159074629e+00 4.7040897144e+00 
695300 4.6892395225e+00 -9.4692962620e-05 2.7159092072e+00 -4.7040927355e+00 2.7159092072e+00 4.7040927355e+00 
695400 4.6892395222e+00 -9.4641258378e-05 2.7159109505e+00 -4.7040957550e+00 2.7159109505e+00 4.7040957550e+00 
695500 4.6892395219e+00 -9.4589582448e-05 2.7159126928e+00 -4.7040987729e+00 2.7159126928e+00 4.7040987729e+00 
695600 4.6892395217e+00 -9.4537934816e-05 2.7159144342e+00 -4.7041017891e+00 2.7159144342e+00 4.7041017891e+00 
695700 4.6892395214e+00 -9.4486315464e-05 2.7159161747e+00 -4.7041048036e+00 2.7159161747e+00 4.7041048036e+00 
695800 4.6892395211e+00 -9.4434724379e-05 2.7159179141e+00 -4.7041078165e+00 2.7159179141e+00 4.7041078165e+00 
695900 4.6892395209e+00 -9.4383161545e-05 2.7159196527e+00 -4.7041108277e+00 2.7159196527e+00 4.7041108277e+00 
696000 4.6892395206e+00 -9.4331626944e-05 2.7159213903e+00 -4.7041138373e+00 2.7159213903e+00 4.7041138373e+00 
696100 4.6892395203e+00 -9.4280120564e-05 2.7159231269e+00 -4.7041168453e+00 2.7159231269e+00 4.7041168453e+00 
696200 4.6892395201e+00 -9.4228642388e-05 2.7159248626e+00 -4.7041198516e+00 2.7159248626e+00 4.7041198516e+00 
696300 4.6892395198e+00 -9.4177192399e-05 2.7159265974e+00 -4.7041228562e+00 2.7159265974e+00 4.7041228562e+00 
696400 4.6892395195e+00 -9.4125770584e-05 2.7159283311e+00 -4.7041258593e+00 2.7159283311e+00 4.7041258593e+00 
696500 4.6892395193e+00 -9.4074376926e-05 2.7159300640e+00 -4.7041288606e+00 2.7159300640e+00 4.7041288606e+00 
696600 4.6892395190e+00 -9.4023011411e-05 2.7159317959e+00 -4.7041318604e+00 2.7159317959e+00 4.7041318604e+00 
696700 4.6892395187e+00 -9.3971674022e-05 2.7159335268e+00 -4.7041348585e+00 2.7159335268e+00 4.7041348585e+00 
696800 4.6892395185e+00 -9.3920364744e-05 2.7159352569e+00 -4.7041378549e+00 2.7159352569e+00 4.7041378549e+00 
696900 4.6892395182e+00 -9.3869083561e-05 2.7159369859e+00 -4.7041408498e+00 2.7159369859e+00 4.7041408498e+00 
697000 4.6892395179e+00 -9.3817830459e-05 2.7159387140e+00 -4.7041438429e+00 2.7159387140e+00 4.7041438429e+00 
697100 4.6892395177e+00 -9.3766605422e-05 2.7159404412e+00 -4.7041468345e+00 2.7159404412e+00 4.7041468345e+00 
697200 4.6892395174e+00 -9.3715408434e-05 2.7159421674e+00 -4.7041498244e+00 2.7159421674e+00 4.7041498244e+00 
697300 4.6892395171e+00 -9.3664239481e-05 2.7159438927e+00 -4.7041528127e+00 2.7159438927e+00 4.7041528127e+00 
697400 4.6892395169e+00 -9.3613098546e-05 2.7159456171e+00 -4.7041557993e+00 2.7159456171e+00 4.7041557993e+00 
697500 4.6892395166e+00 -9.3561985614e-05 2.7159473405e+00 -4.7041587843e+00 2.7159473405e+00 4.7041587843e+00 
697600 4.6892395163e+00 -9.3510900670e-05 2.7159490629e+00 -4.7041617677e+00 2.7159490629e+00 4.7041617677e+00 
697700 4.6892395161e+00 -9.3459843699e-05 2.7159507844e+00 -4.7041647495e+00 2.7159507844e+00 4.7041647495e+00 
697800 4.6892395158e+00 -9.3408814685e-05 2.7159525050e+00 -4.7041677296e+00 2.7159525050e+00 4.7041677296e+00 
697900 4.6892395156e+00 -9.3357813613e-05 2.7159542246e+00 -4.7041707081e+00 2.7159542246e+00 4.7041707081e+00 
698000 4.6892395153e+00 -9.3306840467e-05 2.7159559433e+00 -4.7041736850e+00 2.7159559433e+00 4.7041736850e+00 
698100 4.6892395150e+00 -9.3255895232e-05 2.7159576611e+00 -4.7041766602e+00 2.7159576611e+00 4.7041766602e+00 
698200 4.6892395148e+00 -9.3204977894e-05 2.7159593779e+00 -4.7041796338e+00 2.7159593779e+00 4.7041796338e+00 
698300 4.6892395145e+00 -9.3154088436e-05 2.7159610938e+00 -4.7041826058e+00 2.7159610938e+00 4.7041826058e+00 
698400 4.6892395143e+00 -9.3103226843e-05 2.7159628087e+00 -4.7041855761e+00 2.7159628087e+00 4.7041855761e+00 
698500 4.6892395140e+00 -9.3052393099e-05 2.7159645227e+00 -4.7041885449e+00 2.7159645227e+00 4.7041885449e+00 
698600 4.6892395137e+00 -9.3001587191e-05 2.7159662358e+00 -4.7041915120e+00 2.7159662358e+00 4.7041915120e+00 
698700 4.6892395135e+00 -9.2950809102e-05 2.7159679479e+00 -4.7041944775e+00 2.7159679479e+00 4.7041944775e+00 
698800 4.6892395132e+00 -9.2900058817e-05 2.7159696591e+00 -4.7041974414e+00 2.7159696591e+00 4.7041974414e+00 
698900 4.6892395130e+00 -9.2849336321e-05 2.7159713693e+00 -4.7042004036e+00 2.7159713693e+00 4.7042004036e+00 
699000 4.6892395127e+00 -9.2798641598e-05 2.7159730787e+00 -4.7042033642e+00 2.7159730787e+00 4.7042033642e+00 
699100 4.6892395124e+00 -9.2747974634e-05 2.7159747871e+00 -4.7042063233e+00 2.7159747871e+00 4.7042063233e+00 
699200 4.6892395122e+00 -9.2697335413e-05 2.7159764945e+00 -4.7042092806e+00 2.7159764945e+00 4.7042092806e+00 
699300 4.6892395119e+00 -9.2646723920e-05 2.7159782010e+00 -4.7042122364e+00 2.7159782010e+00 4.7042122364e+00 
699400 4.6892395117e+00 -9.2596140139e-05 2.7159799066e+00 -4.7042151906e+00 2.7159799066e+00 4.7042151906e+00 
699500 4.6892395114e+00 -9.2545584055e-05 2.7159816113e+00 -4.7042181431e+00 2.7159816113e+00 4.7042181431e+00 
699600 4.6892395112e+00 -9.2495055654e-05 2.7159833150e+00 -4.7042210941e+00 2.7159833150e+00 4.7042210941e+00 
699700 4.6892395109e+00 -9.2444554920e-05 2.7159850178e+00 -4.7042240434e+00 2.7159850178e+00 4.7042240434e+00 
699800 4.6892395106e+00 -9.2394081838e-05 2.7159867196e+00 -4.7042269911e+00 2.7159867196e+00 4.7042269911e+00 
699900 4.6892395104e+00 -9.2343636392e-05 2.7159884206e+00 -4.7042299372e+00 2.7159884206e+00 4.7042299372e+00 
700000 4.6892395101e+00 -9.2293218568e-05 2.7159901206e+00 -4.7042328817e+00 2.7159901206e+00 4.7042328817e+00 
700100 4.6892395099e+00 -9.2242828350e-05 2.7159918196e+00 -4.7042358246e+00 2.7159918196e+00 4.7042358246e+00 
700200 4.6892395096e+00 -9.2192465723e-05 2.7159935178e+00 -4.7042387658e+00 2.7159935178e+00 4.7042387658e+00 
700300 4.6892395094e+00 -9.2142130672e-05 2.7159952150e+00 -4.7042417055e+00 2.7159952150e+00 4.7042417055e+00 
700400 4.6892395091e+00 -9.2091823182e-05 2.7159969113e+00 -4.7042446436e+00 2.7159969113e+00 4.7042446436e+00 
700500 4.6892395089e+00 -9.2041543238e-05 2.7159986066e+00 -4.7042475800e+00 2.7159986066e+00 4.7042475800e+00 
700600 4.6892395086e+00 -9.1991290824e-05 2.7160003011e+00 -4.7042505148e+00 2.7160003011e+00 4.7042505148e+00 
700700 4.6892395083e+00 -9.1941065926e-05 2.7160019946e+00 -4.7042534481e+00 2.7160019946e+00 4.7042534481e+00 
700800 4.6892395081e+00 -9.1890868528e-05 2.7160036872e+00 -4.7042563797e+00 2.7160036872e+00 4.7042563797e+00 
700900 4.6892395078e+00 -9.1840698615e-05 2.7160053788e+00 -4.7042593098e+00 2.7160053788e+00 4.7042593098e+00 
701000 4.6892395076e+00 -9.1790556173e-05 2.7160070696e+00 -4.7042622382e+00 2.7160070696e+00 4.7042622382e+00 
701100 4.6892395073e+00 -9.1740441186e-05 2.7160087594e+00 -4.7042651650e+00 2.7160087594e+00 4.7042651650e+00 
701200 4.6892395071e+00 -9.1690353638e-05 2.7160104482e+00 -4.7042680903e+00 2.7160104482e+00 4.7042680903e+00 
701300 4.6892395068e+00 -9.1640293516e-05 2.7160121362e+00 -4.7042710139e+00 2.7160121362e+00 4.7042710139e+00 
701400 4.6892395066e+00 -9.1590260803e-05 2.7160138232e+00 -4.7042739359e+00 2.7160138232e+00 4.7042739359e+00 
701500 4.6892395063e+00 -9.1540255486e-05 2.7160155094e+00 -4.7042768564e+00 2.7160155094e+00 4.7042768564e+00 
701600 4.6892395061e+00 -9.1490277548e-05 2.7160171946e+00 -4.7042797752e+00 2.7160171946e+00 4.7042797752e+00 
701700 4.6892395058e+00 -9.1440326975e-05 2.7160188788e+00 -4.7042826924e+00 2.7160188788e+00 4.7042826924e+00 
701800 4.6892395056e+00 -9.1390403752e-05 2.7160205622e+00 -4.7042856081e+00 2.7160205622e+00 4.7042856081e+00 
701900 4.6892395053e+00 -9.1340507863e-05 2.7160222446e+00 -4.7042885222e+00 2.7160222446e+00 4.7042885222e+00 
702000 4.6892395051e+00 -9.1290639295e-05 2.7160239261e+00 -4.7042914346e+00 2.7160239261e+00 4.7042914346e+00 
702100 4.6892395048e+00 -9.1240798031e-05 2.7160256067e+00 -4.7042943455e+00 2.7160256067e+00 4.7042943455e+00 
702200 4.6892395046e+00 -9.1190984056e-05 2.7160272864e+00 -4.7042972548e+00 2.7160272864e+00 4.7042972548e+00 
702300 4.6892395043e+00 -9.1141197357e-05 2.7160289652e+00 -4.7043001625e+00 2.7160289652e+00 4.7043001625e+00 
702400 4.6892395041e+00 -9.1091437917e-05 2.7160306430e+00 -4.7043030686e+00 2.7160306430e+00 4.7043030686e+00 
702500 4.6892395038e+00 -9.1041705722e-05 2.7160323199e+00 -4.7043059731e+00 2.7160323199e+00 4.7043059731e+00 
702600 4.6892395036e+00 -9.0992000757e-05 2.7160339959e+00 -4.7043088760e+00 2.7160339959e+00 4.7043088760e+00 
702700 4.6892395033e+00 -9.0942323007e-05 2.7160356710e+00 -4.7043117774e+00 2.7160356710e+00 4.7043117774e+00 
702800 4.6892395031e+00 -9.0892672457e-05 2.7160373452e+00 -4.7043146771e+00 2.7160373452e+00 4.7043146771e+00 
702900 4.6892395028e+00 -9.0843049092e-05 2.7160390184e+00 -4.7043175753e+00 2.7160390184e+00 4.7043175753e+00 
703000 4.6892395026e+00 -9.0793452896e-05 2.7160406908e+00 -4.7043204719e+00 2.7160406908e+00 4.7043204719e+00 
703100 4.6892395023e+00 -9.0743883857e-05 2.7160423622e+00 -4.7043233669e+00 2.7160423622e+00 4.7043233669e+00 
703200 4.6892395021e+00 -9.0694341957e-05 2.7160440327e+00 -4.7043262603e+00 2.7160440327e+00 4.7043262603e+00 
703300 4.6892395018e+00 -9.0644827182e-05 2.7160457023e+00 -4.7043291521e+00 2.7160457023e+00 4.7043291521e+00 
703400 4.6892395016e+00 -9.0595339519e-05 2.7160473710e+00 -4.7043320424e+00 2.7160473710e+00 4.7043320424e+00 
703500 4.6892395013e+00 -9.0545878951e-05 2.7160490388e+00 -4.7043349311e+00 2.7160490388e+00 4.7043349311e+00 
703600 4.6892395011e+00 -9.0496445463e-05 2.7160507057e+00 -4.7043378182e+00 2.7160507057e+00 4.7043378182e+00 
703700 4.6892395009e+00 -9.0447039042e-05 2.7160523716e+00 -4.7043407037e+00 2.7160523716e+00 4.7043407037e+00 
703800 4.6892395006e+00 -9.0397659671e-05 2.7160540367e+00 -4.7043435876e+00 2.7160540367e+00 4.7043435876e+00 
703900 4.6892395004e+00 -9.0348307337e-05 2.7160557008e+00 -4.7043464700e+00 2.7160557008e+00 4.7043464700e+00 
704000 4.6892395001e+00 -9.0298982024e-05 2.7160573640e+00 -4.7043493508e+00 2.7160573640e+00 4.7043493508e+00 
704100 4.6892394999e+00 -9.0249683717e-05 2.7160590264e+00 -4.7043522300e+00 2.7160590264e+00 4.7043522300e+00 
704200 4.6892394996e+00 -9.0200412402e-05 2.7160606878e+00 -4.7043551077e+00 2.7160606878e+00 4.7043551077e+00 
704300 4.6892394994e+00 -9.0151168064e-05 2.7160623483e+00 -4.7043579837e+00 2.7160623483e+00 4.7043579837e+00 
704400 4.6892394991e+00 -9.0101950687e-05 2.7160640079e+00 -4.7043608582e+00 2.7160640079e+00 4.7043608582e+00 
704500 4.6892394989e+00 -9.0052760258e-05 2.7160656665e+00 -4.7043637312e+00 2.7160656665e+00 4.7043637312e+00 
704600 4.6892394987e+00 -9.0003596761e-05 2.7160673243e+00 -4.7043666025e+00 2.7160673243e+00 4.7043666025e+00 
704700 4.6892394984e+00 -8.9954460182e-05 2.7160689812e+00 -4.7043694723e+00 2.7160689812e+00 4.7043694723e+00 
704800 4.6892394982e+00 -8.9905350506e-05 2.7160706372e+00 -4.7043723405e+00 2.7160706372e+00 4.7043723405e+00 
704900 4.6892394979e+00 -8.9856267718e-05 2.7160722922e+00 -4.7043752072e+00 2.7160722922e+00 4.7043752072e+00 
705000 4.6892394977e+00 -8.9807211803e-05 2.7160739464e+00 -4.7043780723e+00 2.7160739464e+00 4.7043780723e+00 
705100 4.6892394974e+00 -8.9758182747e-05 2.7160755996e+00 -4.7043809358e+00 2.7160755996e+00 4.7043809358e+00 
705200 4.6892394972e+00 -8.9709180534e-05 2.7160772520e+00 -4.7043837977e+00 2.7160772520e+00 4.7043837977e+00 
705300 4.6892394970e+00 -8.9660205150e-05 2.7160789034e+00 -4.7043866581e+00 2.7160789034e+00 4.7043866581e+00 
705400 4.6892394967e+00 -8.9611256581e-05 2.7160805540e+00 -4.7043895170e+00 2.7160805540e+00 4.7043895170e+00 
705500 4.6892394965e+00 -8.9562334812e-05 2.7160822036e+00 -4.7043923742e+00 2.7160822036e+00 4.7043923742e+00 
705600 4.6892394962e+00 -8.9513439827e-05 2.7160838524e+00 -4.7043952299e+00 2.7160838524e+00 4.7043952299e+00 
705700 4.6892394960e+00 -8.9464571613e-05 2.7160855002e+00 -4.7043980841e+00 2.7160855002e+00 4.7043980841e+00 
705800 4.6892394958e+00 -8.9415730154e-05 2.7160871472e+00 -4.7044009367e+00 2.7160871472e+00 4.7044009367e+00 
705900 4.6892394955e+00 -8.9366915435e-05 2.7160887932e+00 -4.7044037877e+00 2.7160887932e+00 4.7044037877e+00 
706000 4.6892394953e+00 -8.9318127443e-05 2.7160904383e+00 -4.7044066371e+00 2.7160904383e+00 4.7044066371e+00 
706100 4.6892394950e+00 -8.9269366163e-05 2.7160920826e+00 -4.7044094851e+00 2.7160920826e+00 4.7044094851e+00 
706200 4.6892394948e+00 -8.9220631579e-05 2.7160937259e+00 -4.7044123314e+00 2.7160937259e+00 4.7044123314e+00 
706300 4.6892394946e+00 -8.9171923677e-05 2.7160953684e+00 -4.7044151762e+00 2.7160953684e+00 4.7044151762e+00 
706400 4.6892394943e+00 -8.9123242442e-05 2.7160970099e+00 -4.7044180194e+00 2.7160970099e+00 4.7044180194e+00 
706500 4.6892394941e+00 -8.9074587861e-05 2.7160986506e+00 -4.7044208611e+00 2.7160986506e+00 4.7044208611e+00 
706600 4.6892394938e+00 -8.9025959917e-05 2.7161002903e+00 -4.7044237013e+00 2.7161002903e+00 4.7044237013e+00 
706700 4.6892394936e+00 -8.8977358597e-05 2.7161019292e+00 -4.7044265398e+00 2.7161019292e+00 4.7044265398e+00 
706800 4.6892394934e+00 -8.8928783887e-05 2.7161035671e+00 -4.7044293769e+00 2.7161035671e+00 4.7044293769e+00 
706900 4.6892394931e+00 -8.8880235770e-05 2.7161052042e+00 -4.7044322124e+00 2.7161052042e+00 4.7044322124e+00 
707000 4.6892394929e+00 -8.8831714233e-05 2.7161068404e+00 -4.7044350463e+00 2.7161068404e+00 4.7044350463e+00 
707100 4.6892394927e+00 -8.8783219261e-05 2.7161084756e+00 -4.7044378787e+00 2.7161084756e+00 4.7044378787e+00 
707200 4.6892394924e+00 -8.8734750840e-05 2.7161101100e+00 -4.7044407095e+00 2.7161101100e+00 4.7044407095e+00 
707300 4.6892394922e+00 -8.8686308955e-05 2.7161117435e+00 -4.7044435388e+00 2.7161117435e+00 4.7044435388e+00 
707400 4.6892394919e+00 -8.8637893591e-05 2.7161133761e+00 -4.7044463665e+00 2.7161133761e+00 4.7044463665e+00 
707500 4.6892394917e+00 -8.8589504734e-05 2.7161150078e+00 -4.7044491927e+00 2.7161150078e+00 4.7044491927e+00 
707600 4.6892394915e+00 -8.8541142369e-05 2.7161166386e+00 -4.7044520174e+00 2.7161166386e+00 4.7044520174e+00 
707700 4.6892394912e+00 -8.8492806482e-05 2.7161182685e+00 -4.7044548405e+00 2.7161182685e+00 4.7044548405e+00 
707800 4.6892394910e+00 -8.8444497058e-05 2.7161198976e+00 -4.7044576621e+00 2.7161198976e+00 4.7044576621e+00 
707900 4.6892394908e+00 -8.8396214083e-05 2.7161215257e+00 -4.7044604821e+00 2.7161215257e+00 4.7044604821e+00 
708000 4.6892394905e+00 -8.8347957542e-05 2.7161231530e+00 -4.7044633006e+00 2.7161231530e+00 4.7044633006e+00 
708100 4.6892394903e+00 -8.8299727421e-05 2.7161247793e+00 -4.7044661175e+00 2.7161247793e+00 4.7044661175e+00 
708200 4.6892394901e+00 -8.8251523704e-05 2.7161264048e+00 -4.7044689329e+00 2.7161264048e+00 4.7044689329e+00 
708300 4.6892394898e+00 -8.8203346379e-05 2.7161280294e+00 -4.7044717468e+00 2.7161280294e+00 4.7044717468e+00 
708400 4.6892394896e+00 -8.8155195429e-05 2.7161296531e+00 -4.7044745591e+00 2.7161296531e+00 4.7044745591e+00 
708500 4.6892394894e+00 -8.8107070841e-05 2.7161312759e+00 -4.7044773699e+00 2.7161312759e+00 4.7044773699e+00 
708600 4.6892394891e+00 -8.8058972600e-05 2.7161328978e+00 -4.7044801791e+00 2.7161328978e+00 4.7044801791e+00 
708700 4.6892394889e+00 -8.8010900692e-05 2.7161345189e+00 -4.7044829868e+00 2.7161345189e+00 4.7044829868e+00 
708800 4.6892394887e+00 -8.7962855102e-05 2.7161361390e+00 -4.7044857930e+00 2.7161361390e+00 4.7044857930e+00 
708900 4.6892394884e+00 -8.7914835816e-05 2.7161377583e+00 -4.7044885977e+00 2.7161377583e+00 4.7044885977e+00 
709000 4.6892394882e+00 -8.7866842820e-05 2.7161393766e+00 -4.7044914008e+00 2.7161393766e+00 4.7044914008e+00 
709100 4.6892394880e+00 -8.7818876098e-05 2.7161409941e+00 -4.7044942024e+00 2.7161409941e+00 4.7044942024e+00 
709200 4.6892394877e+00 -8.7770935636e-05 2.7161426108e+00 -4.7044970024e+00 2.7161426108e+00 4.7044970024e+00 
709300 4.6892394875e+00 -8.7723021421e-05 2.7161442265e+00 -4.7044998010e+00 2.7161442265e+00 4.7044998010e+00 
709400 4.6892394873e+00 -8.7675133438e-05 2.7161458413e+00 -4.7045025979e+00 2.7161458413e+00 4.7045025979e+00 
709500 4.6892394870e+00 -8.7627271671e-05 2.7161474553e+00 -4.7045053934e+00 2.7161474553e+00 4.7045053934e+00 
709600 4.6892394868e+00 -8.7579436108e-05 2.7161490684e+00 -4.7045081873e+00 2.7161490684e+00 4.7045081873e+00 
709700 4.6892394866e+00 -8.7531626732e-05 2.7161506806e+00 -4.7045109798e+00 2.7161506806e+00 4.7045109798e+00 
709800 4.6892394864e+00 -8.7483843532e-05 2.7161522919e+00 -4.7045137706e+00 2.7161522919e+00 4.7045137706e+00 
709900 4.6892394861e+00 -8.7436086490e-05 2.7161539023e+00 -4.7045165600e+00 2.7161539023e+00 4.7045165600e+00 
710000 4.6892394859e+00 -8.7388355595e-05 2.7161555119e+00 -4.7045193478e+00 2.7161555119e+00 4.7045193478e+00 
710100 4.6892394857e+00 -8.7340650830e-05 2.7161571206e+00 -4.7045221341e+00 2.7161571206e+00 4.7045221341e+00 
710200 4.6892394854e+00 -8.7292972181e-05 2.7161587284e+00 -4.7045249189e+00 2.7161587284e+00 4.7045249189e+00 
710300 4.6892394852e+00 -8.7245319636e-05 2.7161603353e+00 -4.7045277022e+00 2.7161603353e+00 4.7045277022e+00 
710400 4.6892394850e+00 -8.7197693177e-05 2.7161619413e+00 -4.7045304839e+00 2.7161619413e+00 4.7045304839e+00 
710500 4.6892394848e+00 -8.7150092793e-05 2.7161635465e+00 -4.7045332642e+00 2.7161635465e+00 4.7045332642e+00 
710600 4.6892394845e+00 -8.7102518468e-05 2.7161651508e+00 -4.7045360429e+00 2.7161651508e+00 4.7045360429e+00 
710700 4.6892394843e+00 -8.7054970188e-05 2.7161667542e+00 -4.7045388201e+00 2.7161667542e+00 4.7045388201e+00 
710800 4.6892394841e+00 -8.7007447939e-05 2.7161683567e+00 -4.7045415957e+00 2.7161683567e+00 4.7045415957e+00 
710900 4.6892394838e+00 -8.6959951706e-05 2.7161699584e+00 -4.7045443699e+00 2.7161699584e+00 4.7045443699e+00 
711000 4.6892394836e+00 -8.6912481475e-05 2.7161715592e+00 -4.7045471425e+00 2.7161715592e+00 4.7045471425e+00 
711100 4.6892394834e+00 -8.6865037232e-05 2.7161731591e+00 -4.7045499136e+00 2.7161731591e+00 4.7045499136e+00 
711200 4.6892394832e+00 -8.6817618963e-05 2.7161747581e+00 -4.7045526833e+00 2.7161747581e+00 4.7045526833e+00 
711300 4.6892394829e+00 -8.6770226653e-05 2.7161763563e+00 -4.7045554513e+00 2.7161763563e+00 4.7045554513e+00 
711400 4.6892394827e+00 -8.6722860288e-05 2.7161779535e+00 -4.7045582179e+00 2.7161779535e+00 4.7045582179e+00 
711500 4.6892394825e+00 -8.6675519854e-05 2.7161795500e+00 -4.7045609830e+00 2.7161795500e+00 4.7045609830e+00 
711600 4.6892394823e+00 -8.6628205336e-05 2.7161811455e+00 -4.7045637466e+00 2.7161811455e+00 4.7045637466e+00 
711700 4.6892394820e+00 -8.6580916721e-05 2.7161827402e+00 -4.7045665086e+00 2.7161827402e+00 4.7045665086e+00 
711800 4.6892394818e+00 -8.6533653994e-05 2.7161843340e+00 -4.7045692691e+00 2.7161843340e+00 4.7045692691e+00 
711900 4.6892394816e+00 -8.6486417141e-05 2.7161859269e+00 -4.7045720282e+00 2.7161859269e+00 4.7045720282e+00 
712000 4.6892394814e+00 -8.6439206148e-05 2.7161875189e+00 -4.7045747857e+00 2.7161875189e+00 4.7045747857e+00 
712100 4.6892394811e+00 -8.6392021000e-05 2.7161891101e+00 -4.7045775417e+00 2.7161891101e+00 4.7045775417e+00 
712200 4.6892394809e+00 -8.6344861683e-05 2.7161907004e+00 -4.7045802962e+00 2.7161907004e+00 4.7045802962e+00 
712300 4.6892394807e+00 -8.6297728183e-05 2.7161922899e+00 -4.7045830492e+00 2.7161922899e+00 4.7045830492e+00 
712400 4.6892394805e+00 -8.6250620487e-05 2.7161938785e+00 -4.7045858007e+00 2.7161938785e+00 4.7045858007e+00 
712500 4.6892394802e+00 -8.6203538579e-05 2.7161954662e+00 -4.7045885507e+00 2.7161954662e+00 4.7045885507e+00 
712600 4.6892394800e+00 -8.6156482446e-05 2.7161970530e+00 -4.7045912992e+00 2.7161970530e+00 4.7045912992e+00 
712700 4.6892394798e+00 -8.6109452074e-05 2.7161986390e+00 -4.7045940462e+00 2.7161986390e+00 4.7045940462e+00 
712800 4.6892394796e+00 -8.6062447447e-05 2.7162002241e+00 -4.7045967917e+00 2.7162002241e+00 4.7045967917e+00 
712900 4.6892394793e+00 -8.6015468553e-05 2.7162018084e+00 -4.7045995357e+00 2.7162018084e+00 4.7045995357e+00 
713000 4.6892394791e+00 -8.5968515377e-05 2.7162033917e+00 -4.7046022782e+00 2.7162033917e+00 4.7046022782e+00 
713100 4.6892394789e+00 -8.5921587905e-05 2.7162049743e+00 -4.7046050192e+00 2.7162049743e+00 4.7046050192e+00 
713200 4.6892394787e+00 -8.5874686122e-05 2.7162065559e+00 -4.7046077587e+00 2.7162065559e+00 4.7046077587e+00 
713300 4.6892394785e+00 -8.5827810016e-05 2.7162081367e+00 -4.7046104967e+00 2.7162081367e+00 4.7046104967e+00 
713400 4.6892394782e+00 -8.5780959571e-05 2.7162097166e+00 -4.7046132332e+00 2.7162097166e+00 4.7046132332e+00 
713500 4.6892394780e+00 -8.5734134773e-05 2.7162112957e+00 -4.7046159682e+00 2.7162112957e+00 4.7046159682e+00 
713600 4.6892394778e+00 -8.5687335610e-05 2.7162128739e+00 -4.7046187017e+00 2.7162128739e+00 4.7046187017e+00 
713700 4.6892394776e+00 -8.5640562065e-05 2.7162144512e+00 -4.7046214337e+00 2.7162144512e+00 4.7046214337e+00 
713800 4.6892394774e+00 -8.5593814125e-05 2.7162160277e+00 -4.7046241642e+00 2.7162160277e+00 4.7046241642e+00 
713900 4.6892394771e+00 -8.5547091777e-05 2.7162176033e+00 -4.7046268933e+00 2.7162176033e+00 4.7046268933e+00 
714000 4.6892394769e+00 -8.5500395006e-05 2.7162191780e+00 -4.7046296208e+00 2.7162191780e+00 4.7046296208e+00 
714100 4.6892394767e+00 -8.5453723799e-05 2.7162207519e+00 -4.7046323469e+00 2.7162207519e+00 4.7046323469e+00 
714200 4.6892394765e+00 -8.5407078140e-05 2.7162223249e+00 -4.7046350714e+00 2.7162223249e+00 4.7046350714e+00 
714300 4.6892394763e+00 -8.5360458016e-05 2.7162238971e+00 -4.7046377945e+00 2.7162238971e+00 4.7046377945e+00 
714400 4.6892394760e+00 -8.5313863413e-05 2.7162254684e+00 -4.7046405161e+00 2.7162254684e+00 4.7046405161e+00 
714500 4.6892394758e+00 -8.5267294318e-05 2.7162270388e+00 -4.7046432362e+00 2.7162270388e+00 4.7046432362e+00 
714600 4.6892394756e+00 -8.5220750715e-05 2.7162286084e+00 -4.7046459548e+00 2.7162286084e+00 4.7046459548e+00 
714700 4.6892394754e+00 -8.5174232592e-05 2.7162301772e+00 -4.7046486719e+00 2.7162301772e+00 4.7046486719e+00 
714800 4.6892394752e+00 -8.5127739934e-05 2.7162317450e+00 -4.7046513875e+00 2.7162317450e+00 4.7046513875e+00 
714900 4.6892394750e+00 -8.5081272726e-05 2.7162333121e+00 -4.7046541017e+00 2.7162333121e+00 4.7046541017e+00 
715000 4.6892394747e+00 -8.5034830956e-05 2.7162348782e+00 -4.7046568144e+00 2.7162348782e+00 4.7046568144e+00 
715100 4.6892394745e+00 -8.4988414609e-05 2.7162364435e+00 -4.7046595256e+00 2.7162364435e+00 4.7046595256e+00 
715200 4.6892394743e+00 -8.4942023671e-05 2.7162380080e+00 -4.7046622353e+00 2.7162380080e+00 4.7046622353e+00 
715300 4.6892394741e+00 -8.4895658127e-05 2.7162395716e+00 -4.7046649435e+00 2.7162395716e+00 4.7046649435e+00 
715400 4.6892394739e+00 -8.4849317966e-05 2.7162411343e+00 -4.7046676503e+00 2.7162411343e+00 4.7046676503e+00 
715500 4.6892394736e+00 -8.4803003171e-05 2.7162426962e+00 -4.7046703555e+00 2.7162426962e+00 4.7046703555e+00 
715600 4.6892394734e+00 -8.4756713731e-05 2.7162442572e+00 -4.7046730593e+00 2.7162442572e+00 4.7046730593e+00 
715700 4.6892394732e+00 -8.4710449629e-05 2.7162458174e+00 -4.7046757616e+00 2.7162458174e+00 4.7046757616e+00 
715800 4.6892394730e+00 -8.4664210853e-05 2.7162473768e+00 -4.7046784625e+00 2.7162473768e+00 4.7046784625e+00 
715900 4.6892394728e+00 -8.4617997389e-05 2.7162489352e+00 -4.7046811618e+00 2.7162489352e+00 4.7046811618e+00 
716000 4.6892394726e+00 -8.4571809222e-05 2.7162504929e+00 -4.7046838597e+00 2.7162504929e+00 4.7046838597e+00 
716100 4.6892394724e+00 -8.4525646340e-05 2.7162520496e+00 -4.7046865561e+00 2.7162520496e+00 4.7046865561e+00 
716200 4.6892394721e+00 -8.4479508727e-05 2.7162536056e+00 -4.7046892511e+00 2.7162536056e+00 4.7046892511e+00 
716300 4.6892394719e+00 -8.4433396370e-05 2.7162551606e+00 -4.7046919445e+00 2.7162551606e+00 4.7046919445e+00 
716400 4.6892394717e+00 -8.4387309256e-05 2.7162567149e+00 -4.7046946365e+00 2.7162567149e+00 4.7046946365e+00 
716500 4.6892394715e+00 -8.4341247370e-05 2.7162582682e+00 -4.7046973271e+00 2.7162582682e+00 4.7046973271e+00 
716600 4.6892394713e+00 -8.4295210698e-05 2.7162598208e+00 -4.7047000161e+00 2.7162598208e+00 4.7047000161e+00 
716700 4.6892394711e+00 -8.4249199227e-05 2.7162613724e+00 -4.7047027037e+00 2.7162613724e+00 4.7047027037e+00 
716800 4.6892394709e+00 -8.4203212943e-05 2.7162629233e+00 -4.7047053898e+00 2.7162629233e+00 4.7047053898e+00 
716900 4.6892394706e+00 -8.4157251832e-05 2.7162644733e+00 -4.7047080745e+00 2.7162644733e+00 4.7047080745e+00 
717000 4.6892394704e+00 -8.4111315880e-05 2.7162660224e+00 -4.7047107577e+00 2.7162660224e+00 4.7047107577e+00 
717100 4.6892394702e+00 -8.4065405074e-05 2.7162675707e+00 -4.7047134394e+00 2.7162675707e+00 4.7047134394e+00 
717200 4.6892394700e+00 -8.4019519399e-05 2.7162691181e+00 -4.7047161196e+00 2.7162691181e+00 4.7047161196e+00 
717300 4.6892394698e+00 -8.3973658841e-05 2.7162706647e+00 -4.7047187984e+00 2.7162706647e+00 4.7047187984e+00 
717400 4.6892394696e+00 -8.3927823388e-05 2.7162722105e+00 -4.7047214757e+00 2.7162722105e+00 4.7047214757e+00 
717500 4.6892394694e+00 -8.3882013024e-05 2.7162737554e+00 -4.7047241516e+00 2.7162737554e+00 4.7047241516e+00 
717600 4.6892394692e+00 -8.3836227738e-05 2.7162752994e+00 -4.7047268260e+00 2.7162752994e+00 4.7047268260e+00 
717700 4.6892394690e+00 -8.3790467513e-05 2.7162768427e+00 -4.7047294989e+00 2.7162768427e+00 4.7047294989e+00 
717800 4.6892394687e+00 -8.3744732338e-05 2.7162783850e+00 -4.7047321704e+00 2.7162783850e+00 4.7047321704e+00 
717900 4.6892394685e+00 -8.3699022198e-05 2.7162799266e+00 -4.7047348404e+00 2.7162799266e+00 4.7047348404e+00 
718000 4.6892394683e+00 -8.3653337079e-05 2.7162814673e+00 -4.7047375090e+00 2.7162814673e+00 4.7047375090e+00 
718100 4.6892394681e+00 -8.3607676967e-05 2.7162830071e+00 -4.7047401761e+00 2.7162830071e+00 4.7047401761e+00 
718200 4.6892394679e+00 -8.3562041850e-05 2.7162845461e+00 -4.7047428417e+00 2.7162845461e+00 4.7047428417e+00 
718300 4.6892394677e+00 -8.3516431713e-05 2.7162860843e+00 -4.7047455059e+00 2.7162860843e+00 4.7047455059e+00 
718400 4.6892394675e+00 -8.3470846542e-05 2.7162876216e+00 -4.7047481686e+00 2.7162876216e+00 4.7047481686e+00 
718500 4.6892394673e+00 -8.3425286324e-05 2.7162891581e+00 -4.7047508299e+00 2.7162891581e+00 4.7047508299e+00 
718600 4.6892394671e+00 -8.3379751045e-05 2.7162906938e+00 -4.7047534897e+00 2.7162906938e+00 4.7047534897e+00 
718700 4.6892394669e+00 -8.3334240691e-05 2.7162922286e+00 -4.7047561481e+00 2.7162922286e+00 4.7047561481e+00 
718800 4.6892394666e+00 -8.3288755249e-05 2.7162937625e+00 -4.7047588050e+00 2.7162937625e+00 4.7047588050e+00 
718900 4.6892394664e+00 -8.3243294704e-05 2.7162952957e+00 -4.7047614605e+00 2.7162952957e+00 4.7047614605e+00 
719000 4.6892394662e+00 -8.3197859045e-05 2.7162968280e+00 -4.7047641145e+00 2.7162968280e+00 4.7047641145e+00 
719100 4.6892394660e+00 -8.3152448255e-05 2.7162983594e+00 -4.7047667670e+00 2.7162983594e+00 4.7047667670e+00 
719200 4.6892394658e+00 -8.3107062323e-05 2.7162998900e+00 -4.7047694182e+00 2.7162998900e+00 4.7047694182e+00 
719300 4.6892394656e+00 -8.3061701234e-05 2.7163014198e+00 -4.7047720678e+00 2.7163014198e+00 4.7047720678e+00 
719400 4.6892394654e+00 -8.3016364975e-05 2.7163029488e+00 -4.7047747160e+00 2.7163029488e+00 4.7047747160e+00 
719500 4.6892394652e+00 -8.2971053531e-05 2.7163044769e+00 -4.7047773628e+00 2.7163044769e+00 4.7047773628e+00 
719600 4.6892394650e+00 -8.2925766890e-05 2.7163060042e+00 -4.7047800081e+00 2.7163060042e+00 4.7047800081e+00 
719700 4.6892394648e+00 -8.2880505038e-05 2.7163075306e+00 -4.7047826520e+00 2.7163075306e+00 4.7047826520e+00 
719800 4.6892394646e+00 -8.2835267961e-05 2.7163090562e+00 -4.7047852944e+00 2.7163090562e+00 4.7047852944e+00 
719900 4.6892394644e+00 -8.2790055646e-05 2.7163105810e+00 -4.7047879354e+00 2.7163105810e+00 4.7047879354e+00 
720000 4.6892394642e+00 -8.2744868078e-05 2.7163121049e+00 -4.7047905750e+00 2.7163121049e+00 4.7047905750e+00 
720100 4.6892394640e+00 -8.2699705245e-05 2.7163136281e+00 -4.7047932131e+00 2.7163136281e+00 4.7047932131e+00 
720200 4.6892394637e+00 -8.2654567133e-05 2.7163151503e+00 -4.7047958498e+00 2.7163151503e+00 4.7047958498e+00 
720300 4.6892394635e+00 -8.2609453728e-05 2.7163166718e+00 -4.7047984850e+00 2.7163166718e+00 4.7047984850e+00 
720400 4.6892394633e+00 -8.2564365017e-05 2.7163181924e+00 -4.7048011188e+00 2.7163181924e+00 4.7048011188e+00 
720500 4.6892394631e+00 -8.2519300985e-05 2.7163197122e+00 -4.7048037511e+00 2.7163197122e+00 4.7048037511e+00 
720600 4.6892394629e+00 -8.2474261620e-05 2.7163212311e+00 -4.7048063820e+00 2.7163212311e+00 4.7048063820e+00 
720700 4.6892394627e+00 -8.2429246909e-05 2.7163227493e+00 -4.7048090115e+00 2.7163227493e+00 4.7048090115e+00 
720800 4.6892394625e+00 -8.2384256836e-05 2.7163242666e+00 -4.7048116395e+00 2.7163242666e+00 4.7048116395e+00 
720900 4.6892394623e+00 -8.2339291390e-05 2.7163257830e+00 -4.7048142661e+00 2.7163257830e+00 4.7048142661e+00 
721000 4.6892394621e+00 -8.2294350556e-05 2.7163272987e+00 -4.7048168913e+00 2.7163272987e+00 4.7048168913e+00 
721100 4.6892394619e+00 -8.2249434321e-05 2.7163288135e+00 -4.7048195150e+00 2.7163288135e+00 4.7048195150e+00 
721200 4.6892394617e+00 -8.2204542671e-05 2.7163303275e+00 -4.7048221373e+00 2.7163303275e+00 4.7048221373e+00 
721300 4.6892394615e+00 -8.2159675593e-05 2.7163318406e+00 -4.7048247581e+00 2.7163318406e+00 4.7048247581e+00 
721400 4.6892394613e+00 -8.2114833074e-05 2.7163333529e+00 -4.7048273776e+00 2.7163333529e+00 4.7048273776e+00 
721500 4.6892394611e+00 -8.2070015099e-05 2.7163348644e+00 -4.7048299956e+00 2.7163348644e+00 4.7048299956e+00 
721600 4.6892394609e+00 -8.2025221656e-05 2.7163363751e+00 -4.7048326121e+00 2.7163363751e+00 4.7048326121e+00 
721700 4.6892394607e+00 -8.1980452731e-05 2.7163378850e+00 -4.7048352273e+00 2.7163378850e+00 4.7048352273e+00 
721800 4.6892394605e+00 -8.1935708310e-05 2.7163393940e+00 -4.7048378410e+00 2.7163393940e+00 4.7048378410e+00 
721900 4.6892394603e+00 -8.1890988381e-05 2.7163409022e+00 -4.7048404533e+00 2.7163409022e+00 4.7048404533e+00 
722000 4.6892394601e+00 -8.1846292928e-05 2.7163424096e+00 -4.7048430641e+00 2.7163424096e+00 4.7048430641e+00 
722100 4.6892394599e+00 -8.1801621941e-05 2.7163439161e+00 -4.7048456735e+00 2.7163439161e+00 4.7048456735e+00 
722200 4.6892394597e+00 -8.1756975403e-05 2.7163454218e+00 -4.7048482815e+00 2.7163454218e+00 4.7048482815e+00 
722300 4.6892394595e+00 -8.1712353303e-05 2.7163469268e+00 -4.7048508881e+00 2.7163469268e+00 4.7048508881e+00 
722400 4.6892394593e+00 -8.1667755627e-05 2.7163484308e+00 -4.7048534933e+00 2.7163484308e+00 4.7048534933e+00 
722500 4.6892394591e+00 -8.1623182362e-05 2.7163499341e+00 -4.7048560970e+00 2.7163499341e+00 4.7048560970e+00 
722600 4.6892394589e+00 -8.1578633493e-05 2.7163514365e+00 -4.7048586993e+00 2.7163514365e+00 4.7048586993e+00 
722700 4.6892394587e+00 -8.1534109008e-05 2.7163529382e+00 -4.7048613002e+00 2.7163529382e+00 4.7048613002e+00 
722800 4.6892394585e+00 -8.1489608893e-05 2.7163544390e+00 -4.7048638997e+00 2.7163544390e+00 4.7048638997e+00 
722900 4.6892394583e+00 -8.1445133135e-05 2.7163559390e+00 -4.7048664977e+00 2.7163559390e+00 4.7048664977e+00 
723000 4.6892394581e+00 -8.1400681721e-05 2.7163574381e+00 -4.7048690943e+00 2.7163574381e+00 4.7048690943e+00 
723100 4.6892394579e+00 -8.1356254636e-05 2.7163589365e+00 -4.7048716895e+00 2.7163589365e+00 4.7048716895e+00 
723200 4.6892394577e+00 -8.1311851869e-05 2.7163604340e+00 -4.7048742833e+00 2.7163604340e+00 4.7048742833e+00 
723300 4.6892394575e+00 -8.1267473405e-05 2.7163619307e+00 -4.7048768757e+00 2.7163619307e+00 4.7048768757e+00 
723400 4.6892394573e+00 -8.1223119231e-05 2.7163634266e+00 -4.7048794666e+00 2.7163634266e+00 4.7048794666e+00 
723500 4.6892394571e+00 -8.1178789334e-05 2.7163649216e+00 -4.7048820562e+00 2.7163649216e+00 4.7048820562e+00 
723600 4.6892394569e+00 -8.1134483700e-05 2.7163664159e+00 -4.7048846443e+00 2.7163664159e+00 4.7048846443e+00 
723700 4.6892394567e+00 -8.1090202316e-05 2.7163679093e+00 -4.7048872310e+00 2.7163679093e+00 4.7048872310e+00 
723800 4.6892394565e+00 -8.1045945169e-05 2.7163694020e+00 -4.7048898163e+00 2.7163694020e+00 4.7048898163e+00 
723900 4.6892394563e+00 -8.1001712246e-05 2.7163708938e+00 -4.7048924002e+00 2.7163708938e+00 4.7048924002e+00 
724000 4.6892394561e+00 -8.0957503532e-05 2.7163723848e+00 -4.7048949827e+00 2.7163723848e+00 4.7048949827e+00 
724100 4.6892394559e+00 -8.0913319015e-05 2.7163738749e+00 -4.7048975637e+00 2.7163738749e+00 4.7048975637e+00 
724200 4.6892394557e+00 -8.0869158682e-05 2.7163753643e+00 -4.7049001434e+00 2.7163753643e+00 4.7049001434e+00 
724300 4.6892394555e+00 -8.0825022519e-05 2.7163768528e+00 -4.7049027216e+00 2.7163768528e+00 4.7049027216e+00 
724400 4.6892394553e+00 -8.0780910514e-05 2.7163783406e+00 -4.7049052985e+00 2.7163783406e+00 4.7049052985e+00 
724500 4.6892394551e+00 -8.0736822651e-05 2.7163798275e+00 -4.7049078739e+00 2.7163798275e+00 4.7049078739e+00 
724600 4.6892394549e+00 -8.0692758920e-05 2.7163813136e+00 -4.7049104479e+00 2.7163813136e+00 4.7049104479e+00 
724700 4.6892394547e+00 -8.0648719305e-05 2.7163827989e+00 -4.7049130205e+00 2.7163827989e+00 4.7049130205e+00 
724800 4.6892394545e+00 -8.0604703795e-05 2.7163842834e+00 -4.7049155917e+00 2.7163842834e+00 4.7049155917e+00 
724900 4.6892394543e+00 -8.0560712375e-05 2.7163857671e+00 -4.7049181615e+00 2.7163857671e+00 4.7049181615e+00 
725000 4.6892394541e+00 -8.0516745033e-05 2.7163872499e+00 -4.7049207299e+00 2.7163872499e+00 4.7049207299e+00 
725100 4.6892394539e+00 -8.0472801755e-05 2.7163887320e+00 -4.7049232969e+00 2.7163887320e+00 4.7049232969e+00 
725200 4.6892394538e+00 -8.0428882528e-05 2.7163902132e+00 -4.7049258625e+00 2.7163902132e+00 4.7049258625e+00 
725300 4.6892394536e+00 -8.0384987340e-05 2.7163916937e+00 -4.7049284267e+00 2.7163916937e+00 4.7049284267e+00 
725400 4.6892394534e+00 -8.0341116175e-05 2.7163931733e+00 -4.7049309895e+00 2.7163931733e+00 4.7049309895e+00 
725500 4.6892394532e+00 -8.0297269023e-05 2.7163946521e+00 -4.7049335509e+00 2.7163946521e+00 4.7049335509e+00 
725600 4.6892394530e+00 -8.0253445868e-05 2.7163961301e+00 -4.7049361109e+00 2.7163961301e+00 4.7049361109e+00 
725700 4.6892394528e+00 -8.0209646699e-05 2.7163976073e+00 -4.7049386695e+00 2.7163976073e+00 4.7049386695e+00 
725800 4.6892394526e+00 -8.0165871501e-05 2.7163990837e+00 -4.7049412267e+00 2.7163990837e+00 4.7049412267e+00 
725900 4.6892394524e+00 -8.0122120263e-05 2.7164005593e+00 -4.7049437825e+00 2.7164005593e+00 4.7049437825e+00 
726000 4.6892394522e+00 -8.0078392970e-05 2.7164020341e+00 -4.7049463369e+00 2.7164020341e+00 4.7049463369e+00 
726100 4.6892394520e+00 -8.0034689609e-05 2.7164035081e+00 -4.7049488899e+00 2.7164035081e+00 4.7049488899e+00 
726200 4.6892394518e+00 -7.9991010168e-05 2.7164049813e+00 -4.7049514415e+00 2.7164049813e+00 4.7049514415e+00 
726300 4.6892394516e+00 -7.9947354633e-05 2.7164064536e+00 -4.7049539917e+00 2.7164064536e+00 4.7049539917e+00 
726400 4.6892394514e+00 -7.9903722991e-05 2.7164079252e+00 -4.7049565405e+00 2.7164079252e+00 4.7049565405e+00 
726500 4.6892394512e+00 -7.9860115229e-05 2.7164093960e+00 -4.7049590880e+00 2.7164093960e+00 4.7049590880e+00 
726600 4.6892394511e+00 -7.9816531334e-05 2.7164108659e+00 -4.7049616340e+00 2.7164108659e+00 4.7049616340e+00 
726700 4.6892394509e+00 -7.9772971293e-05 2.7164123351e+00 -4.7049641787e+00 2.7164123351e+00 4.7049641787e+00 
726800 4.6892394507e+00 -7.9729435092e-05 2.7164138034e+00 -4.7049667219e+00 2.7164138034e+00 4.7049667219e+00 
726900 4.6892394505e+00 -7.9685922719e-05 2.7164152710e+00 -4.7049692638e+00 2.7164152710e+00 4.7049692638e+00 
727000 4.6892394503e+00 -7.9642434160e-05 2.7164167377e+00 -4.7049718043e+00 2.7164167377e+00 4.7049718043e+00 
727100 4.6892394501e+00 -7.9598969403e-05 2.7164182037e+00 -4.7049743434e+00 2.7164182037e+00 4.7049743434e+00 
727200 4.6892394499e+00 -7.9555528433e-05 2.7164196688e+00 -4.7049768811e+00 2.7164196688e+00 4.7049768811e+00 
727300 4.6892394497e+00 -7.9512111240e-05 2.7164211332e+00 -4.7049794174e+00 2.7164211332e+00 4.7049794174e+00 
727400 4.6892394495e+00 -7.9468717808e-05 2.7164225967e+00 -4.7049819523e+00 2.7164225967e+00 4.7049819523e+00 
727500 4.6892394493e+00 -7.9425348125e-05 2.7164240595e+00 -4.7049844859e+00 2.7164240595e+00 4.7049844859e+00 
727600 4.6892394491e+00 -7.9382002179e-05 2.7164255214e+00 -4.7049870181e+00 2.7164255214e+00 4.7049870181e+00 
727700 4.6892394490e+00 -7.9338679955e-05 2.7164269826e+00 -4.7049895488e+00 2.7164269826e+00 4.7049895488e+00 
727800 4.6892394488e+00 -7.9295381442e-05 2.7164284429e+00 -4.7049920782e+00 2.7164284429e+00 4.7049920782e+00 
727900 4.6892394486e+00 -7.9252106625e-05 2.7164299025e+00 -4.7049946063e+00 2.7164299025e+00 4.7049946063e+00 
728000 4.6892394484e+00 -7.9208855493e-05 2.7164313612e+00 -4.7049971329e+00 2.7164313612e+00 4.7049971329e+00 
728100 4.6892394482e+00 -7.9165628032e-05 2.7164328192e+00 -4.7049996582e+00 2.7164328192e+00 4.7049996582e+00 
728200 4.6892394480e+00 -7.9122424228e-05 2.7164342763e+00 -4.7050021820e+00 2.7164342763e+00 4.7050021820e+00 
728300 4.6892394478e+00 -7.9079244070e-05 2.7164357327e+00 -4.7050047045e+00 2.7164357327e+00 4.7050047045e+00 
728400 4.6892394476e+00 -7.9036087544e-05 2.7164371883e+00 -4.7050072257e+00 2.7164371883e+00 4.7050072257e+00 
728500 4.6892394475e+00 -7.8992954636e-05 2.7164386430e+00 -4.7050097454e+00 2.7164386430e+00 4.7050097454e+00 
728600 4.6892394473e+00 -7.8949845335e-05 2.7164400970e+00 -4.7050122638e+00 2.7164400970e+00 4.7050122638e+00 
728700 4.6892394471e+00 -7.8906759627e-05 2.7164415502e+00 -4.7050147808e+00 2.7164415502e+00 4.7050147808e+00 
728800 4.6892394469e+00 -7.8863697499e-05 2.7164430026e+00 -4.7050172964e+00 2.7164430026e+00 4.7050172964e+00 
728900 4.6892394467e+00 -7.8820658938e-05 2.7164444542e+00 -4.7050198106e+00 2.7164444542e+00 4.7050198106e+00 
729000 4.6892394465e+00 -7.8777643931e-05 2.7164459050e+00 -4.7050223235e+00 2.7164459050e+00 4.7050223235e+00 
729100 4.6892394463e+00 -7.8734652466e-05 2.7164473550e+00 -4.7050248350e+00 2.7164473550e+00 4.7050248350e+00 
729200 4.6892394461e+00 -7.8691684529e-05 2.7164488042e+00 -4.7050273451e+00 2.7164488042e+00 4.7050273451e+00 
729300 4.6892394460e+00 -7.8648740108e-05 2.7164502527e+00 -4.7050298539e+00 2.7164502527e+00 4.7050298539e+00 
729400 4.6892394458e+00 -7.8605819189e-05 2.7164517003e+00 -4.7050323612e+00 2.7164517003e+00 4.7050323612e+00 
729500 4.6892394456e+00 -7.8562921759e-05 2.7164531472e+00 -4.7050348673e+00 2.7164531472e+00 4.7050348673e+00 
729600 4.6892394454e+00 -7.8520047807e-05 2.7164545932e+00 -4.7050373719e+00 2.7164545932e+00 4.7050373719e+00 
729700 4.6892394452e+00 -7.8477197319e-05 2.7164560385e+00 -4.7050398752e+00 2.7164560385e+00 4.7050398752e+00 
729800 4.6892394450e+00 -7.8434370281e-05 2.7164574830e+00 -4.7050423771e+00 2.7164574830e+00 4.7050423771e+00 
729900 4.6892394448e+00 -7.8391566681e-05 2.7164589266e+00 -4.7050448776e+00 2.7164589266e+00 4.7050448776e+00 
730000 4.6892394447e+00 -7.8348786507e-05 2.7164603695e+00 -4.7050473768e+00 2.7164603695e+00 4.7050473768e+00 
730100 4.6892394445e+00 -7.8306029745e-05 2.7164618117e+00 -4.7050498746e+00 2.7164618117e+00 4.7050498746e+00 
730200 4.6892394443e+00 -7.8263296383e-05 2.7164632530e+00 -4.7050523711e+00 2.7164632530e+00 4.7050523711e+00 
730300 4.6892394441e+00 -7.8220586407e-05 2.7164646935e+00 -4.7050548661e+00 2.7164646935e+00 4.7050548661e+00 
730400 4.6892394439e+00 -7.8177899805e-05 2.7164661333e+00 -4.7050573599e+00 2.7164661333e+00 4.7050573599e+00 
730500 4.6892394437e+00 -7.8135236564e-05 2.7164675722e+00 -4.7050598522e+00 2.7164675722e+00 4.7050598522e+00 
730600 4.6892394436e+00 -7.8092596671e-05 2.7164690104e+00 -4.7050623432e+00 2.7164690104e+00 4.7050623432e+00 
730700 4.6892394434e+00 -7.8049980114e-05 2.7164704478e+00 -4.7050648329e+00 2.7164704478e+00 4.7050648329e+00 
730800 4.6892394432e+00 -7.8007386879e-05 2.7164718844e+00 -4.7050673211e+00 2.7164718844e+00 4.7050673211e+00 
730900 4.6892394430e+00 -7.7964816953e-05 2.7164733202e+00 -4.7050698080e+00 2.7164733202e+00 4.7050698080e+00 
731000 4.6892394428e+00 -7.7922270325e-05 2.7164747553e+00 -4.7050722936e+00 2.7164747553e+00 4.7050722936e+00 
731100 4.6892394426e+00 -7.7879746981e-05 2.7164761895e+00 -4.7050747778e+00 2.7164761895e+00 4.7050747778e+00 
731200 4.6892394425e+00 -7.7837246908e-05 2.7164776230e+00 -4.7050772606e+00 2.7164776230e+00 4.7050772606e+00 
731300 4.6892394423e+00 -7.7794770094e-05 2.7164790557e+00 -4.7050797421e+00 2.7164790557e+00 4.7050797421e+00 
731400 4.6892394421e+00 -7.7752316525e-05 2.7164804876e+00 -4.7050822223e+00 2.7164804876e+00 4.7050822223e+00 
731500 4.6892394419e+00 -7.7709886189e-05 2.7164819187e+00 -4.7050847010e+00 2.7164819187e+00 4.7050847010e+00 
731600 4.6892394417e+00 -7.7667479074e-05 2.7164833490e+00 -4.7050871785e+00 2.7164833490e+00 4.7050871785e+00 
731700 4.6892394416e+00 -7.7625095166e-05 2.7164847786e+00 -4.7050896545e+00 2.7164847786e+00 4.7050896545e+00 
731800 4.6892394414e+00 -7.7582734453e-05 2.7164862074e+00 -4.7050921293e+00 2.7164862074e+00 4.7050921293e+00 
731900 4.6892394412e+00 -7.7540396922e-05 2.7164876354e+00 -4.7050946026e+00 2.7164876354e+00 4.7050946026e+00 
732000 4.6892394410e+00 -7.7498082560e-05 2.7164890626e+00 -4.7050970746e+00 2.7164890626e+00 4.7050970746e+00 
732100 4.6892394408e+00 -7.7455791355e-05 2.7164904890e+00 -4.7050995453e+00 2.7164904890e+00 4.7050995453e+00 
732200 4.6892394406e+00 -7.7413523294e-05 2.7164919147e+00 -4.7051020146e+00 2.7164919147e+00 4.7051020146e+00 
732300 4.6892394405e+00 -7.7371278363e-05 2.7164933396e+00 -4.7051044826e+00 2.7164933396e+00 4.7051044826e+00 
732400 4.6892394403e+00 -7.7329056551e-05 2.7164947637e+00 -4.7051069492e+00 2.7164947637e+00 4.7051069492e+00 
732500 4.6892394401e+00 -7.7286857845e-05 2.7164961870e+00 -4.7051094145e+00 2.7164961870e+00 4.7051094145e+00 
732600 4.6892394399e+00 -7.7244682232e-05 2.7164976096e+00 -4.7051118784e+00 2.7164976096e+00 4.7051118784e+00 
732700 4.6892394397e+00 -7.7202529699e-05 2.7164990313e+00 -4.7051143410e+00 2.7164990313e+00 4.7051143410e+00 
732800 4.6892394396e+00 -7.7160400234e-05 2.7165004523e+00 -4.7051168022e+00 2.7165004523e+00 4.7051168022e+00 
732900 4.6892394394e+00 -7.7118293824e-05 2.7165018725e+00 -4.7051192621e+00 2.7165018725e+00 4.7051192621e+00 
733000 4.6892394392e+00 -7.7076210457e-05 2.7165032920e+00 -4.7051217206e+00 2.7165032920e+00 4.7051217206e+00 
733100 4.6892394390e+00 -7.7034150119e-05 2.7165047106e+00 -4.7051241778e+00 2.7165047106e+00 4.7051241778e+00 
733200 4.6892394389e+00 -7.6992112798e-05 2.7165061285e+00 -4.7051266337e+00 2.7165061285e+00 4.7051266337e+00 
733300 4.6892394387e+00 -7.6950098482e-05 2.7165075456e+00 -4.7051290882e+00 2.7165075456e+00 4.7051290882e+00 
733400 4.6892394385e+00 -7.6908107157e-05 2.7165089620e+00 -4.7051315414e+00 2.7165089620e+00 4.7051315414e+00 
733500 4.6892394383e+00 -7.6866138812e-05 2.7165103776e+00 -4.7051339932e+00 2.7165103776e+00 4.7051339932e+00 
733600 4.6892394381e+00 -7.6824193433e-05 2.7165117924e+00 -4.7051364437e+00 2.7165117924e+00 4.7051364437e+00 
733700 4.6892394380e+00 -7.6782271008e-05 2.7165132064e+00 -4.7051388929e+00 2.7165132064e+00 4.7051388929e+00 
733800 4.6892394378e+00 -7.6740371524e-05 2.7165146196e+00 -4.7051413407e+00 2.7165146196e+00 4.7051413407e+00 
733900 4.6892394376e+00 -7.6698494970e-05 2.7165160321e+00 -4.7051437872e+00 2.7165160321e+00 4.7051437872e+00 
734000 4.6892394374e+00 -7.6656641331e-05 2.7165174438e+00 -4.7051462323e+00 2.7165174438e+00 4.7051462323e+00 
734100 4.6892394373e+00 -7.6614810596e-05 2.7165188548e+00 -4.7051486761e+00 2.7165188548e+00 4.7051486761e+00 
734200 4.6892394371e+00 -7.6573002751e-05 2.7165202649e+00 -4.7051511186e+00 2.7165202649e+00 4.7051511186e+00 
734300 4.6892394369e+00 -7.6531217785e-05 2.7165216743e+00 -4.7051535598e+00 2.7165216743e+00 4.7051535598e+00 
734400 4.6892394367e+00 -7.6489455686e-05 2.7165230829e+00 -4.7051559996e+00 2.7165230829e+00 4.7051559996e+00 
734500 4.6892394366e+00 -7.6447716439e-05 2.7165244908e+00 -4.7051584381e+00 2.7165244908e+00 4.7051584381e+00 
734600 4.6892394364e+00 -7.6406000033e-05 2.7165258979e+00 -4.7051608752e+00 2.7165258979e+00 4.7051608752e+00 
734700 4.6892394362e+00 -7.6364306455e-05 2.7165273042e+00 -4.7051633110e+00 2.7165273042e+00 4.7051633110e+00 
734800 4.6892394360e+00 -7.6322635693e-05 2.7165287097e+00 -4.7051657455e+00 2.7165287097e+00 4.7051657455e+00 
734900 4.6892394359e+00 -7.6280987735e-05 2.7165301145e+00 -4.7051681787e+00 2.7165301145e+00 4.7051681787e+00 
735000 4.6892394357e+00 -7.6239362566e-05 2.7165315185e+00 -4.7051706105e+00 2.7165315185e+00 4.7051706105e+00 
735100 4.6892394355e+00 -7.6197760176e-05 2.7165329218e+00 -4.7051730410e+00 2.7165329218e+00 4.7051730410e+00 
735200 4.6892394353e+00 -7.6156180551e-05 2.7165343243e+00 -4.7051754702e+00 2.7165343243e+00 4.7051754702e+00 
735300 4.6892394352e+00 -7.6114623680e-05 2.7165357260e+00 -4.7051778980e+00 2.7165357260e+00 4.7051778980e+00 
735400 4.6892394350e+00 -7.6073089549e-05 2.7165371269e+00 -4.7051803245e+00 2.7165371269e+00 4.7051803245e+00 
735500 4.6892394348e+00 -7.6031578146e-05 2.7165385271e+00 -4.7051827497e+00 2.7165385271e+00 4.7051827497e+00 
735600 4.6892394346e+00 -7.5990089459e-05 2.7165399265e+00 -4.7051851736e+00 2.7165399265e+00 4.7051851736e+00 
735700 4.6892394345e+00 -7.5948623475e-05 2.7165413252e+00 -4.7051875961e+00 2.7165413252e+00 4.7051875961e+00 
735800 4.6892394343e+00 -7.5907180182e-05 2.7165427231e+00 -4.7051900173e+00 2.7165427231e+00 4.7051900173e+00 
735900 4.6892394341e+00 -7.5865759566e-05 2.7165441202e+00 -4.7051924372e+00 2.7165441202e+00 4.7051924372e+00 
736000 4.6892394339e+00 -7.5824361617e-05 2.7165455166e+00 -4.7051948558e+00 2.7165455166e+00 4.7051948558e+00 
736100 4.6892394338e+00 -7.5782986321e-05 2.7165469122e+00 -4.7051972731e+00 2.7165469122e+00 4.7051972731e+00 
736200 4.6892394336e+00 -7.5741633666e-05 2.7165483070e+00 -4.7051996890e+00 2.7165483070e+00 4.7051996890e+00 
736300 4.6892394334e+00 -7.5700303639e-05 2.7165497011e+00 -4.7052021036e+00 2.7165497011e+00 4.7052021036e+00 
736400 4.6892394332e+00 -7.5658996229e-05 2.7165510944e+00 -4.7052045169e+00 2.7165510944e+00 4.7052045169e+00 
736500 4.6892394331e+00 -7.5617711421e-05 2.7165524870e+00 -4.7052069289e+00 2.7165524870e+00 4.7052069289e+00 
736600 4.6892394329e+00 -7.5576449205e-05 2.7165538788e+00 -4.7052093395e+00 2.7165538788e+00 4.7052093395e+00 
736700 4.6892394327e+00 -7.5535209568e-05 2.7165552698e+00 -4.7052117489e+00 2.7165552698e+00 4.7052117489e+00 
736800 4.6892394326e+00 -7.5493992498e-05 2.7165566601e+00 -4.7052141569e+00 2.7165566601e+00 4.7052141569e+00 
736900 4.6892394324e+00 -7.5452797981e-05 2.7165580496e+00 -4.7052165636e+00 2.7165580496e+00 4.7052165636e+00 
737000 4.6892394322e+00 -7.5411626006e-05 2.7165594384e+00 -4.7052189690e+00 2.7165594384e+00 4.7052189690e+00 
737100 4.6892394320e+00 -7.5370476560e-05 2.7165608264e+00 -4.7052213731e+00 2.7165608264e+00 4.7052213731e+00 
737200 4.6892394319e+00 -7.5329349631e-05 2.7165622136e+00 -4.7052237759e+00 2.7165622136e+00 4.7052237759e+00 
737300 4.6892394317e+00 -7.5288245206e-05 2.7165636001e+00 -4.7052261773e+00 2.7165636001e+00 4.7052261773e+00 
737400 4.6892394315e+00 -7.5247163274e-05 2.7165649858e+00 -4.7052285775e+00 2.7165649858e+00 4.7052285775e+00 
737500 4.6892394314e+00 -7.5206103821e-05 2.7165663708e+00 -4.7052309763e+00 2.7165663708e+00 4.7052309763e+00 
737600 4.6892394312e+00 -7.5165066836e-05 2.7165677550e+00 -4.7052333739e+00 2.7165677550e+00 4.7052333739e+00 
737700 4.6892394310e+00 -7.5124052306e-05 2.7165691385e+00 -4.7052357701e+00 2.7165691385e+00 4.7052357701e+00 
737800 4.6892394309e+00 -7.5083060219e-05 2.7165705212e+00 -4.7052381650e+00 2.7165705212e+00 4.7052381650e+00 
737900 4.6892394307e+00 -7.5042090562e-05 2.7165719031e+00 -4.7052405586e+00 2.7165719031e+00 4.7052405586e+00 
738000 4.6892394305e+00 -7.5001143323e-05 2.7165732843e+00 -4.7052429509e+00 2.7165732843e+00 4.7052429509e+00 
738100 4.6892394303e+00 -7.4960218490e-05 2.7165746647e+00 -4.7052453419e+00 2.7165746647e+00 4.7052453419e+00 
738200 4.6892394302e+00 -7.4919316051e-05 2.7165760444e+00 -4.7052477315e+00 2.7165760444e+00 4.7052477315e+00 
738300 4.6892394300e+00 -7.4878435992e-05 2.7165774233e+00 -4.7052501199e+00 2.7165774233e+00 4.7052501199e+00 
738400 4.6892394298e+00 -7.4837578303e-05 2.7165788015e+00 -4.7052525070e+00 2.7165788015e+00 4.7052525070e+00 
738500 4.6892394297e+00 -7.4796742971e-05 2.7165801789e+00 -4.7052548928e+00 2.7165801789e+00 4.7052548928e+00 
738600 4.6892394295e+00 -7.4755929983e-05 2.7165815556e+00 -4.7052572772e+00 2.7165815556e+00 4.7052572772e+00 
738700 4.6892394293e+00 -7.4715139327e-05 2.7165829315e+00 -4.7052596604e+00 2.7165829315e+00 4.7052596604e+00 
738800 4.6892394292e+00 -7.4674370990e-05 2.7165843067e+00 -4.7052620422e+00 2.7165843067e+00 4.7052620422e+00 
738900 4.6892394290e+00 -7.4633624962e-05 2.7165856811e+00 -4.7052644228e+00 2.7165856811e+00 4.7052644228e+00 
739000 4.6892394288e+00 -7.4592901228e-05 2.7165870548e+00 -4.7052668021e+00 2.7165870548e+00 4.7052668021e+00 
739100 4.6892394287e+00 -7.4552199778e-05 2.7165884277e+00 -4.7052691800e+00 2.7165884277e+00 4.7052691800e+00 
739200 4.6892394285e+00 -7.4511520598e-05 2.7165897999e+00 -4.7052715567e+00 2.7165897999e+00 4.7052715567e+00 
739300 4.6892394283e+00 -7.4470863678e-05 2.7165911713e+00 -4.7052739320e+00 2.7165911713e+00 4.7052739320e+00 
739400 4.6892394282e+00 -7.4430229003e-05 2.7165925419e+00 -4.7052763061e+00 2.7165925419e+00 4.7052763061e+00 
739500 4.6892394280e+00 -7.4389616563e-05 2.7165939119e+00 -4.7052786789e+00 2.7165939119e+00 4.7052786789e+00 
739600 4.6892394278e+00 -7.4349026345e-05 2.7165952810e+00 -4.7052810504e+00 2.7165952810e+00 4.7052810504e+00 
739700 4.6892394277e+00 -7.4308458337e-05 2.7165966495e+00 -4.7052834205e+00 2.7165966495e+00 4.7052834205e+00 
739800 4.6892394275e+00 -7.4267912526e-05 2.7165980171e+00 -4.7052857894e+00 2.7165980171e+00 4.7052857894e+00 
739900 4.6892394273e+00 -7.4227388900e-05 2.7165993841e+00 -4.7052881570e+00 2.7165993841e+00 4.7052881570e+00 
740000 4.6892394272e+00 -7.4186887448e-05 2.7166007502e+00 -4.7052905233e+00 2.7166007502e+00 4.7052905233e+00 
740100 4.6892394270e+00 -7.4146408157e-05 2.7166021157e+00 -4.7052928883e+00 2.7166021157e+00 4.7052928883e+00 
740200 4.6892394268e+00 -7.4105951014e-05 2.7166034804e+00 -4.7052952520e+00 2.7166034804e+00 4.7052952520e+00 
740300 4.6892394267e+00 -7.4065516008e-05 2.7166048443e+00 -4.7052976144e+00 2.7166048443e+00 4.7052976144e+00 
740400 4.6892394265e+00 -7.4025103127e-05 2.7166062075e+00 -4.7052999756e+00 2.7166062075e+00 4.7052999756e+00 
740500 4.6892394263e+00 -7.3984712359e-05 2.7166075700e+00 -4.7053023354e+00 2.7166075700e+00 4.7053023354e+00 
740600 4.6892394262e+00 -7.3944343690e-05 2.7166089317e+00 -4.7053046940e+00 2.7166089317e+00 4.7053046940e+00 
740700 4.6892394260e+00 -7.3903997110e-05 2.7166102927e+00 -4.7053070512e+00 2.7166102927e+00 4.7053070512e+00 
740800 4.6892394259e+00 -7.3863672605e-05 2.7166116529e+00 -4.7053094072e+00 2.7166116529e+00 4.7053094072e+00 
740900 4.6892394257e+00 -7.3823370165e-05 2.7166130124e+00 -4.7053117619e+00 2.7166130124e+00 4.7053117619e+00 
741000 4.6892394255e+00 -7.3783089776e-05 2.7166143711e+00 -4.7053141153e+00 2.7166143711e+00 4.7053141153e+00 
741100 4.6892394254e+00 -7.3742831427e-05 2.7166157291e+00 -4.7053164674e+00 2.7166157291e+00 4.7053164674e+00 
741200 4.6892394252e+00 -7.3702595105e-05 2.7166170864e+00 -4.7053188183e+00 2.7166170864e+00 4.7053188183e+00 
741300 4.6892394250e+00 -7.3662380799e-05 2.7166184429e+00 -4.7053211678e+00 2.7166184429e+00 4.7053211678e+00 
741400 4.6892394249e+00 -7.3622188496e-05 2.7166197986e+00 -4.7053235161e+00 2.7166197986e+00 4.7053235161e+00 
741500 4.6892394247e+00 -7.3582018184e-05 2.7166211537e+00 -4.7053258631e+00 2.7166211537e+00 4.7053258631e+00 
741600 4.6892394245e+00 -7.3541869852e-05 2.7166225080e+00 -4.7053282088e+00 2.7166225080e+00 4.7053282088e+00 
741700 4.6892394244e+00 -7.3501743487e-05 2.7166238615e+00 -4.7053305532e+00 2.7166238615e+00 4.7053305532e+00 
741800 4.6892394242e+00 -7.3461639076e-05 2.7166252143e+00 -4.7053328963e+00 2.7166252143e+00 4.7053328963e+00 
741900 4.6892394241e+00 -7.3421556609e-05 2.7166265664e+00 -4.7053352382e+00 2.7166265664e+00 4.7053352382e+00 
742000 4.6892394239e+00 -7.3381496073e-05 2.7166279177e+00 -4.7053375788e+00 2.7166279177e+00 4.7053375788e+00 
742100 4.6892394237e+00 -7.3341457456e-05 2.7166292683e+00 -4.7053399181e+00 2.7166292683e+00 4.7053399181e+00 
742200 4.6892394236e+00 -7.3301440745e-05 2.7166306182e+00 -4.7053422561e+00 2.7166306182e+00 4.7053422561e+00 
742300 4.6892394234e+00 -7.3261445930e-05 2.7166319673e+00 -4.7053445929e+00 2.7166319673e+00 4.7053445929e+00 
742400 4.6892394232e+00 -7.3221472997e-05 2.7166333157e+00 -4.7053469284e+00 2.7166333157e+00 4.7053469284e+00 
742500 4.6892394231e+00 -7.3181521935e-05 2.7166346634e+00 -4.7053492626e+00 2.7166346634e+00 4.7053492626e+00 
742600 4.6892394229e+00 -7.3141592732e-05 2.7166360103e+00 -4.7053515955e+00 2.7166360103e+00 4.7053515955e+00 
742700 4.6892394228e+00 -7.3101685375e-05 2.7166373565e+00 -4.7053539271e+00 2.7166373565e+00 4.7053539271e+00 
742800 4.6892394226e+00 -7.3061799854e-05 2.7166387019e+00 -4.7053562575e+00 2.7166387019e+00 4.7053562575e+00 
742900 4.6892394224e+00 -7.3021936155e-05 2.7166400466e+00 -4.7053585866e+00 2.7166400466e+00 4.7053585866e+00 
743000 4.6892394223e+00 -7.2982094267e-05 2.7166413906e+00 -4.7053609145e+00 2.7166413906e+00 4.7053609145e+00 
743100 4.6892394221e+00 -7.2942274178e-05 2.7166427338e+00 -4.7053632410e+00 2.7166427338e+00 4.7053632410e+00 
743200 4.6892394220e+00 -7.2902475876e-05 2.7166440763e+00 -4.7053655663e+00 2.7166440763e+00 4.7053655663e+00 
743300 4.6892394218e+00 -7.2862699348e-05 2.7166454181e+00 -4.7053678903e+00 2.7166454181e+00 4.7053678903e+00 
743400 4.6892394216e+00 -7.2822944584e-05 2.7166467592e+00 -4.7053702131e+00 2.7166467592e+00 4.7053702131e+00 
743500 4.6892394215e+00 -7.2783211571e-05 2.7166480995e+00 -4.7053725346e+00 2.7166480995e+00 4.7053725346e+00 
743600 4.6892394213e+00 -7.2743500296e-05 2.7166494390e+00 -4.7053748548e+00 2.7166494390e+00 4.7053748548e+00 
743700 4.6892394212e+00 -7.2703810749e-05 2.7166507779e+00 -4.7053771737e+00 2.7166507779e+00 4.7053771737e+00 
743800 4.6892394210e+00 -7.2664142917e-05 2.7166521160e+00 -4.7053794914e+00 2.7166521160e+00 4.7053794914e+00 
743900 4.6892394208e+00 -7.2624496789e-05 2.7166534534e+00 -4.7053818078e+00 2.7166534534e+00 4.7053818078e+00 
744000 4.6892394207e+00 -7.2584872351e-05 2.7166547900e+00 -4.7053841230e+00 2.7166547900e+00 4.7053841230e+00 
744100 4.6892394205e+00 -7.2545269593e-05 2.7166561260e+00 -4.7053864369e+00 2.7166561260e+00 4.7053864369e+00 
744200 4.6892394204e+00 -7.2505688503e-05 2.7166574612e+00 -4.7053887495e+00 2.7166574612e+00 4.7053887495e+00 
744300 4.6892394202e+00 -7.2466129068e-05 2.7166587956e+00 -4.7053910609e+00 2.7166587956e+00 4.7053910609e+00 
744400 4.6892394201e+00 -7.2426591278e-05 2.7166601294e+00 -4.7053933710e+00 2.7166601294e+00 4.7053933710e+00 
744500 4.6892394199e+00 -7.2387075119e-05 2.7166614624e+00 -4.7053956798e+00 2.7166614624e+00 4.7053956798e+00 
744600 4.6892394197e+00 -7.2347580579e-05 2.7166627947e+00 -4.7053979874e+00 2.7166627947e+00 4.7053979874e+00 
744700 4.6892394196e+00 -7.2308107648e-05 2.7166641262e+00 -4.7054002937e+00 2.7166641262e+00 4.7054002937e+00 
744800 4.6892394194e+00 -7.2268656314e-05 2.7166654570e+00 -4.7054025987e+00 2.7166654570e+00 4.7054025987e+00 
744900 4.6892394193e+00 -7.2229226564e-05 2.7166667871e+00 -4.7054049025e+00 2.7166667871e+00 4.7054049025e+00 
745000 4.6892394191e+00 -7.2189818386e-05 2.7166681165e+00 -4.7054072051e+00 2.7166681165e+00 4.7054072051e+00 
745100 4.6892394190e+00 -7.2150431769e-05 2.7166694451e+00 -4.7054095064e+00 2.7166694451e+00 4.7054095064e+00 
745200 4.6892394188e+00 -7.2111066701e-05 2.7166707731e+00 -4.7054118064e+00 2.7166707731e+00 4.7054118064e+00 
745300 4.6892394186e+00 -7.2071723169e-05 2.7166721003e+00 -4.7054141052e+00 2.7166721003e+00 4.7054141052e+00 
745400 4.6892394185e+00 -7.2032401163e-05 2.7166734267e+00 -4.7054164027e+00 2.7166734267e+00 4.7054164027e+00 
745500 4.6892394183e+00 -7.1993100671e-05 2.7166747525e+00 -4.7054186989e+00 2.7166747525e+00 4.7054186989e+00 
745600 4.6892394182e+00 -7.1953821680e-05 2.7166760775e+00 -4.7054209939e+00 2.7166760775e+00 4.7054209939e+00 
745700 4.6892394180e+00 -7.1914564179e-05 2.7166774018e+00 -4.7054232877e+00 2.7166774018e+00 4.7054232877e+00 
745800 4.6892394179e+00 -7.1875328156e-05 2.7166787254e+00 -4.7054255802e+00 2.7166787254e+00 4.7054255802e+00 
745900 4.6892394177e+00 -7.1836113598e-05 2.7166800482e+00 -4.7054278714e+00 2.7166800482e+00 4.7054278714e+00 
746000 4.6892394176e+00 -7.1796920495e-05 2.7166813704e+00 -4.7054301614e+00 2.7166813704e+00 4.7054301614e+00 
746100 4.6892394174e+00 -7.1757748835e-05 2.7166826918e+00 -4.7054324502e+00 2.7166826918e+00 4.7054324502e+00 
746200 4.6892394172e+00 -7.1718598606e-05 2.7166840125e+00 -4.7054347377e+00 2.7166840125e+00 4.7054347377e+00 
746300 4.6892394171e+00 -7.1679469796e-05 2.7166853324e+00 -4.7054370239e+00 2.7166853324e+00 4.7054370239e+00 
746400 4.6892394169e+00 -7.1640362393e-05 2.7166866517e+00 -4.7054393089e+00 2.7166866517e+00 4.7054393089e+00 
746500 4.6892394168e+00 -7.1601276385e-05 2.7166879702e+00 -4.7054415927e+00 2.7166879702e+00 4.7054415927e+00 
746600 4.6892394166e+00 -7.1562211762e-05 2.7166892880e+00 -4.7054438752e+00 2.7166892880e+00 4.7054438752e+00 
746700 4.6892394165e+00 -7.1523168510e-05 2.7166906051e+00 -4.7054461564e+00 2.7166906051e+00 4.7054461564e+00 
746800 4.6892394163e+00 -7.1484146619e-05 2.7166919214e+00 -4.7054484365e+00 2.7166919214e+00 4.7054484365e+00 
746900 4.6892394162e+00 -7.1445146076e-05 2.7166932371e+00 -4.7054507152e+00 2.7166932371e+00 4.7054507152e+00 
747000 4.6892394160e+00 -7.1406166870e-05 2.7166945520e+00 -4.7054529928e+00 2.7166945520e+00 4.7054529928e+00 
747100 4.6892394159e+00 -7.1367208990e-05 2.7166958662e+00 -4.7054552690e+00 2.7166958662e+00 4.7054552690e+00 
747200 4.6892394157e+00 -7.1328272423e-05 2.7166971797e+00 -4.7054575441e+00 2.7166971797e+00 4.7054575441e+00 
747300 4.6892394155e+00 -7.1289357157e-05 2.7166984925e+00 -4.7054598179e+00 2.7166984925e+00 4.7054598179e+00 
747400 4.6892394154e+00 -7.1250463182e-05 2.7166998046e+00 -4.7054620904e+00 2.7166998046e+00 4.7054620904e+00 
747500 4.6892394152e+00 -7.1211590485e-05 2.7167011159e+00 -4.7054643617e+00 2.7167011159e+00 4.7054643617e+00 
747600 4.6892394151e+00 -7.1172739054e-05 2.7167024265e+00 -4.7054666318e+00 2.7167024265e+00 4.7054666318e+00 
747700 4.6892394149e+00 -7.1133908879e-05 2.7167037364e+00 -4.7054689006e+00 2.7167037364e+00 4.7054689006e+00 
747800 4.6892394148e+00 -7.1095099947e-05 2.7167050456e+00 -4.7054711682e+00 2.7167050456e+00 4.7054711682e+00 
747900 4.6892394146e+00 -7.1056312246e-05 2.7167063541e+00 -4.7054734346e+00 2.7167063541e+00 4.7054734346e+00 
748000 4.6892394145e+00 -7.1017545766e-05 2.7167076619e+00 -4.7054756997e+00 2.7167076619e+00 4.7054756997e+00 
748100 4.6892394143e+00 -7.0978800494e-05 2.7167089689e+00 -4.7054779636e+00 2.7167089689e+00 4.7054779636e+00 
748200 4.6892394142e+00 -7.0940076418e-05 2.7167102753e+00 -4.7054802262e+00 2.7167102753e+00 4.7054802262e+00 
748300 4.6892394140e+00 -7.0901373528e-05 2.7167115809e+00 -4.7054824876e+00 2.7167115809e+00 4.7054824876e+00 
748400 4.6892394139e+00 -7.0862691811e-05 2.7167128858e+00 -4.7054847478e+00 2.7167128858e+00 4.7054847478e+00 
748500 4.6892394137e+00 -7.0824031256e-05 2.7167141900e+00 -4.7054870067e+00 2.7167141900e+00 4.7054870067e+00 
748600 4.6892394136e+00 -7.0785391851e-05 2.7167154935e+00 -4.7054892644e+00 2.7167154935e+00 4.7054892644e+00 
748700 4.6892394134e+00 -7.0746773585e-05 2.7167167963e+00 -4.7054915209e+00 2.7167167963e+00 4.7054915209e+00 
748800 4.6892394133e+00 -7.0708176445e-05 2.7167180983e+00 -4.7054937762e+00 2.7167180983e+00 4.7054937762e+00 
748900 4.6892394132e+00 -7.0868157252e-05 2.7167180983e+00 -4.7054937762e+00 2.7167180983e+00 4.7054937762e+00 
749000 4.6892394130e+00 -7.0829061991e-05 2.7167194026e+00 -4.7054960353e+00 2.7167194026e+00 4.7054960353e+00 
749100 4.6892394129e+00 -7.0789953880e-05 2.7167207062e+00 -4.7054982931e+00 2.7167207062e+00 4.7054982931e+00 
749200 4.6892394127e+00 -7.0750838535e-05 2.7167220091e+00 -4.7055005497e+00 2.7167220091e+00 4.7055005497e+00 
749300 4.6892394126e+00 -7.0711720151e-05 2.7167233112e+00 -4.7055028051e+00 2.7167233112e+00 4.7055028051e+00 
749400 4.6892394124e+00 -7.0672601981e-05 2.7167246126e+00 -4.7055050592e+00 2.7167246126e+00 4.7055050592e+00 
749500 4.6892394124e+00 -7.0831942431e-05 2.7167246126e+00 -4.7055050592e+00 2.7167246126e+00 4.7055050592e+00 
749600 4.6892394122e+00 -7.0792291996e-05 2.7167259162e+00 -4.7055073172e+00 2.7167259162e+00 4.7055073172e+00 
749700 4.6892394121e+00 -7.0752614419e-05 2.7167272191e+00 -4.7055095739e+00 2.7167272191e+00 4.7055095739e+00 
749800 4.6892394119e+00 -7.0712916880e-05 2.7167285213e+00 -4.7055118293e+00 2.7167285213e+00 4.7055118293e+00 
749900 4.6892394118e+00 -7.0673204940e-05 2.7167298227e+00 -4.7055140834e+00 2.7167298227e+00 4.7055140834e+00 
750000 4.6892394117e+00 -7.0831939634e-05 2.7167298227e+00 -4.7055140834e+00 2.7167298227e+00 4.7055140834e+00 
750100 4.6892394115e+00 -7.0791671436e-05 2.7167311264e+00 -4.7055163414e+00 2.7167311264e+00 4.7055163414e+00 
750200 4.6892394114e+00 -7.0751366153e-05 2.7167324293e+00 -4.7055185980e+00 2.7167324293e+00 4.7055185980e+00 
750300 4.6892394112e+00 -7.0711032086e-05 2.7167337314e+00 -4.7055208534e+00 2.7167337314e+00 4.7055208534e+00 
750400 4.6892394111e+00 -7.0670675779e-05 2.7167350328e+00 -4.7055231075e+00 2.7167350328e+00 4.7055231075e+00 
750500 4.6892394110e+00 -7.0828751117e-05 2.7167350328e+00 -4.7055231075e+00 2.7167350328e+00 4.7055231075e+00 
750600 4.6892394109e+00 -7.0787825424e-05 2.7167363364e+00 -4.7055253653e+00 2.7167363364e+00 4.7055253653e+00 
750700 4.6892394107e+00 -7.0746857164e-05 2.7167376392e+00 -4.7055276219e+00 2.7167376392e+00 4.7055276219e+00 
750800 4.6892394106e+00 -7.0705855276e-05 2.7167389412e+00 -4.7055298771e+00 2.7167389412e+00 4.7055298771e+00 
750900 4.6892394105e+00 -7.0863373532e-05 2.7167389412e+00 -4.7055298771e+00 2.7167389412e+00 4.7055298771e+00 
751000 4.6892394103e+00 -7.0821784218e-05 2.7167402454e+00 -4.7055321360e+00 2.7167402454e+00 4.7055321360e+00 
751100 4.6892394102e+00 -7.0780145267e-05 2.7167415489e+00 -4.7055343936e+00 2.7167415489e+00 4.7055343936e+00 
751200 4.6892394100e+00 -7.0738466569e-05 2.7167428515e+00 -4.7055366499e+00 2.7167428515e+00 4.7055366499e+00 
751300 4.6892394099e+00 -7.0696756061e-05 2.7167441534e+00 -4.7055389049e+00 2.7167441534e+00 4.7055389049e+00 
751400 4.6892394098e+00 -7.0853540482e-05 2.7167441534e+00 -4.7055389049e+00 2.7167441534e+00 4.7055389049e+00 
751500 4.6892394097e+00 -7.0811244866e-05 2.7167454574e+00 -4.7055411635e+00 2.7167454574e+00 4.7055411635e+00 
751600 4.6892394095e+00 -7.0768900466e-05 2.7167467607e+00 -4.7055434208e+00 2.7167467607e+00 4.7055434208e+00 
751700 4.6892394094e+00 -7.0726517146e-05 2.7167480631e+00 -4.7055456767e+00 2.7167480631e+00 4.7055456767e+00 
751800 4.6892394092e+00 -7.0684102877e-05 2.7167493648e+00 -4.7055479313e+00 2.7167493648e+00 4.7055479313e+00 
751900 4.6892394092e+00 -7.0840148004e-05 2.7167493648e+00 -4.7055479313e+00 2.7167493648e+00 4.7055479313e+00 
752000 4.6892394090e+00 -7.0797150684e-05 2.7167506686e+00 -4.7055501895e+00 2.7167506686e+00 4.7055501895e+00 
752100 4.6892394089e+00 -7.0754105708e-05 2.7167519715e+00 -4.7055524463e+00 2.7167519715e+00 4.7055524463e+00 
752200 4.6892394087e+00 -7.0711023050e-05 2.7167532737e+00 -4.7055547017e+00 2.7167532737e+00 4.7055547017e+00 
752300 4.6892394086e+00 -7.0667910793e-05 2.7167545751e+00 -4.7055569558e+00 2.7167545751e+00 4.7055569558e+00 
752400 4.6892394085e+00 -7.0823212995e-05 2.7167545751e+00 -4.7055569558e+00 2.7167545751e+00 4.7055569558e+00 
752500 4.6892394083e+00 -7.0779520861e-05 2.7167558786e+00 -4.7055592134e+00 2.7167558786e+00 4.7055592134e+00 
752600 4.6892394082e+00 -7.0735782765e-05 2.7167571812e+00 -4.7055614697e+00 2.7167571812e+00 4.7055614697e+00 
752700 4.6892394081e+00 -7.0692008788e-05 2.7167584831e+00 -4.7055637246e+00 2.7167584831e+00 4.7055637246e+00 
752800 4.6892394080e+00 -7.0846711386e-05 2.7167584831e+00 -4.7055637246e+00 2.7167584831e+00 4.7055637246e+00 
752900 4.6892394078e+00 -7.0802348740e-05 2.7167597869e+00 -4.7055659829e+00 2.7167597869e+00 4.7055659829e+00 
753000 4.6892394077e+00 -7.0757937189e-05 2.7167610900e+00 -4.7055682399e+00 2.7167610900e+00 4.7055682399e+00 
753100 4.6892394075e+00 -7.0713487491e-05 2.7167623923e+00 -4.7055704955e+00 2.7167623923e+00 4.7055704955e+00 
753200 4.6892394074e+00 -7.0669008399e-05 2.7167636937e+00 -4.7055727496e+00 2.7167636937e+00 4.7055727496e+00 
753300 4.6892394073e+00 -7.0822945991e-05 2.7167636937e+00 -4.7055727496e+00 2.7167636937e+00 4.7055727496e+00 
753400 4.6892394072e+00 -7.0777889116e-05 2.7167649971e+00 -4.7055750073e+00 2.7167649971e+00 4.7055750073e+00 
753500 4.6892394070e+00 -7.0732788038e-05 2.7167662997e+00 -4.7055772634e+00 2.7167662997e+00 4.7055772634e+00 
753600 4.6892394069e+00 -7.0687653254e-05 2.7167676015e+00 -4.7055795182e+00 2.7167676015e+00 4.7055795182e+00 
753700 4.6892394068e+00 -7.0840983722e-05 2.7167676015e+00 -4.7055795182e+00 2.7167676015e+00 4.7055795182e+00 
753800 4.6892394067e+00 -7.0795265777e-05 2.7167689053e+00 -4.7055817764e+00 2.7167689053e+00 4.7055817764e+00 
753900 4.6892394065e+00 -7.0749502147e-05 2.7167702082e+00 -4.7055840331e+00 2.7167702082e+00 4.7055840331e+00 
754000 4.6892394064e+00 -7.0703703886e-05 2.7167715103e+00 -4.7055862884e+00 2.7167715103e+00 4.7055862884e+00 
754100 4.6892394063e+00 -7.0856414767e-05 2.7167715103e+00 -4.7055862884e+00 2.7167715103e+00 4.7055862884e+00 
754200 4.6892394062e+00 -7.0810032678e-05 2.7167728144e+00 -4.7055885471e+00 2.7167728144e+00 4.7055885471e+00 
754300 4.6892394060e+00 -7.0763605142e-05 2.7167741176e+00 -4.7055908043e+00 2.7167741176e+00 4.7055908043e+00 
754400 4.6892394059e+00 -7.0717143504e-05 2.7167754199e+00 -4.7055930601e+00 2.7167754199e+00 4.7055930601e+00 
754500 4.6892394057e+00 -7.0670657043e-05 2.7167767214e+00 -4.7055953143e+00 2.7167767214e+00 4.7055953143e+00 
754600 4.6892394057e+00 -7.0822594580e-05 2.7167767214e+00 -4.7055953143e+00 2.7167767214e+00 4.7055953143e+00 
754700 4.6892394055e+00 -7.0775540893e-05 2.7167780248e+00 -4.7055975719e+00 2.7167780248e+00 4.7055975719e+00 
754800 4.6892394054e+00 -7.0728448893e-05 2.7167793274e+00 -4.7055998280e+00 2.7167793274e+00 4.7055998280e+00 
754900 4.6892394052e+00 -7.0681329448e-05 2.7167806291e+00 -4.7056020826e+00 2.7167806291e+00 4.7056020826e+00 
755000 4.6892394052e+00 -7.0832661728e-05 2.7167806291e+00 -4.7056020826e+00 2.7167806291e+00 4.7056020826e+00 
755100 4.6892394050e+00 -7.0784972716e-05 2.7167819327e+00 -4.7056043406e+00 2.7167819327e+00 4.7056043406e+00 
755200 4.6892394049e+00 -7.0737245231e-05 2.7167832355e+00 -4.7056065970e+00 2.7167832355e+00 4.7056065970e+00 
755300 4.6892394047e+00 -7.0689490594e-05 2.7167845373e+00 -4.7056088518e+00 2.7167845373e+00 4.7056088518e+00 
755400 4.6892394047e+00 -7.0840210539e-05 2.7167845373e+00 -4.7056088518e+00 2.7167845373e+00 4.7056088518e+00 
755500 4.6892394045e+00 -7.0791887899e-05 2.7167858411e+00 -4.7056111100e+00 2.7167858411e+00 4.7056111100e+00 
755600 4.6892394044e+00 -7.0743527990e-05 2.7167871439e+00 -4.7056133666e+00 2.7167871439e+00 4.7056133666e+00 
755700 4.6892394042e+00 -7.0695142357e-05 2.7167884459e+00 -4.7056156217e+00 2.7167884459e+00 4.7056156217e+00 
755800 4.6892394042e+00 -7.0845248075e-05 2.7167884459e+00 -4.7056156217e+00 2.7167884459e+00 4.7056156217e+00 
755900 4.6892394040e+00 -7.0796297806e-05 2.7167897497e+00 -4.7056178800e+00 2.7167897497e+00 4.7056178800e+00 
756000 4.6892394039e+00 -7.0747312201e-05 2.7167910527e+00 -4.7056201368e+00 2.7167910527e+00 4.7056201368e+00 
756100 4.6892394038e+00 -7.0698302936e-05 2.7167923547e+00 -4.7056223920e+00 2.7167923547e+00 4.7056223920e+00 
756200 4.6892394037e+00 -7.0847795362e-05 2.7167923547e+00 -4.7056223920e+00 2.7167923547e+00 4.7056223920e+00 
756300 4.6892394035e+00 -7.0798225924e-05 2.7167936586e+00 -4.7056246504e+00 2.7167936586e+00 4.7056246504e+00 
756400 4.6892394034e+00 -7.0748623541e-05 2.7167949616e+00 -4.7056269072e+00 2.7167949616e+00 4.7056269072e+00 
756500 4.6892394033e+00 -7.0698999976e-05 2.7167962636e+00 -4.7056291624e+00 2.7167962636e+00 4.7056291624e+00 
756600 4.6892394032e+00 -7.0847881898e-05 2.7167962636e+00 -4.7056291624e+00 2.7167962636e+00 4.7056291624e+00 
756700 4.6892394031e+00 -7.0797703355e-05 2.7167975675e+00 -4.7056314208e+00 2.7167975675e+00 4.7056314208e+00 
756800 4.6892394029e+00 -7.0747494565e-05 2.7167988705e+00 -4.7056336776e+00 2.7167988705e+00 4.7056336776e+00 
756900 4.6892394028e+00 -7.0697267352e-05 2.7168001725e+00 -4.7056359328e+00 2.7168001725e+00 4.7056359328e+00 
757000 4.6892394027e+00 -7.0845542853e-05 2.7168001725e+00 -4.7056359328e+00 2.7168001725e+00 4.7056359328e+00 
757100 4.6892394026e+00 -7.0794766362e-05 2.7168014764e+00 -4.7056381911e+00 2.7168014764e+00 4.7056381911e+00 
757200 4.6892394024e+00 -7.0743962535e-05 2.7168027793e+00 -4.7056404478e+00 2.7168027793e+00 4.7056404478e+00 
757300 4.6892394023e+00 -7.0693143237e-05 2.7168040812e+00 -4.7056427029e+00 2.7168040812e+00 4.7056427029e+00 
757400 4.6892394022e+00 -7.0840817339e-05 2.7168040812e+00 -4.7056427029e+00 2.7168040812e+00 4.7056427029e+00 
757500 4.6892394021e+00 -7.0789454818e-05 2.7168053850e+00 -4.7056449611e+00 2.7168053850e+00 4.7056449611e+00 
757600 4.6892394019e+00 -7.0738068016e-05 2.7168066878e+00 -4.7056472176e+00 2.7168066878e+00 4.7056472176e+00 
757700 4.6892394018e+00 -7.0686668830e-05 2.7168079897e+00 -4.7056494725e+00 2.7168079897e+00 4.7056494725e+00 
757800 4.6892394017e+00 -7.0833747248e-05 2.7168079897e+00 -4.7056494725e+00 2.7168079897e+00 4.7056494725e+00 
757900 4.6892394016e+00 -7.0781811139e-05 2.7168092933e+00 -4.7056517304e+00 2.7168092933e+00 4.7056517304e+00 
758000 4.6892394015e+00 -7.0729853906e-05 2.7168105959e+00 -4.7056539867e+00 2.7168105959e+00 4.7056539867e+00 
758100 4.6892394013e+00 -7.0677887461e-05 2.7168118977e+00 -4.7056562413e+00 2.7168118977e+00 4.7056562413e+00 
758200 4.6892394012e+00 -7.0824376427e-05 2.7168118977e+00 -4.7056562413e+00 2.7168118977e+00 4.7056562413e+00 
758300 4.6892394011e+00 -7.0771879528e-05 2.7168132011e+00 -4.7056584990e+00 2.7168132011e+00 4.7056584990e+00 
758400 4.6892394010e+00 -7.0719364723e-05 2.7168145036e+00 -4.7056607549e+00 2.7168145036e+00 4.7056607549e+00 
758500 4.6892394008e+00 -7.0666843935e-05 2.7168158051e+00 -4.7056630092e+00 2.7168158051e+00 4.7056630092e+00 
758600 4.6892394008e+00 -7.0812750060e-05 2.7168158051e+00 -4.7056630092e+00 2.7168158051e+00 4.7056630092e+00 
758700 4.6892394006e+00 -7.0759705392e-05 2.7168171083e+00 -4.7056652665e+00 2.7168171083e+00 4.7056652665e+00 
758800 4.6892394005e+00 -7.0706646072e-05 2.7168184106e+00 -4.7056675221e+00 2.7168184106e+00 4.7056675221e+00 
758900 4.6892394004e+00 -7.0852118385e-05 2.7168184106e+00 -4.7056675221e+00 2.7168184106e+00 4.7056675221e+00 
759000 4.6892394003e+00 -7.0798523309e-05 2.7168197145e+00 -4.7056697806e+00 2.7168197145e+00 4.7056697806e+00 
759100 4.6892394001e+00 -7.0744909660e-05 2.7168210175e+00 -4.7056720374e+00 2.7168210175e+00 4.7056720374e+00 
759200 4.6892394000e+00 -7.0691290238e-05 2.7168223195e+00 -4.7056742925e+00 2.7168223195e+00 4.7056742925e+00 
759300 4.6892393999e+00 -7.0836166058e-05 2.7168223195e+00 -4.7056742925e+00 2.7168223195e+00 4.7056742925e+00 
759400 4.6892393998e+00 -7.0782024974e-05 2.7168236231e+00 -4.7056765505e+00 2.7168236231e+00 4.7056765505e+00 
759500 4.6892393997e+00 -7.0727871189e-05 2.7168249258e+00 -4.7056788068e+00 2.7168249258e+00 4.7056788068e+00 
759600 4.6892393995e+00 -7.0673717041e-05 2.7168262275e+00 -4.7056810613e+00 2.7168262275e+00 4.7056810613e+00 
759700 4.6892393995e+00 -7.0818013133e-05 2.7168262275e+00 -4.7056810613e+00 2.7168262275e+00 4.7056810613e+00 
759800 4.6892393993e+00 -7.0763347347e-05 2.7168275308e+00 -4.7056833187e+00 2.7168275308e+00 4.7056833187e+00 
759900 4.6892393992e+00 -7.0708673471e-05 2.7168288331e+00 -4.7056855744e+00 2.7168288331e+00 4.7056855744e+00 
760000 4.6892393991e+00 -7.0852541771e-05 2.7168288331e+00 -4.7056855744e+00 2.7168288331e+00 4.7056855744e+00 
760100 4.6892393990e+00 -7.0797345970e-05 2.7168301371e+00 -4.7056878329e+00 2.7168301371e+00 4.7056878329e+00 
760200 4.6892393989e+00 -7.0742138806e-05 2.7168314400e+00 -4.7056900897e+00 2.7168314400e+00 4.7056900897e+00 
760300 4.6892393987e+00 -7.0686933249e-05 2.7168327419e+00 -4.7056923447e+00 2.7168327419e+00 4.7056923447e+00 
760400 4.6892393987e+00 -7.0830216273e-05 2.7168327419e+00 -4.7056923447e+00 2.7168327419e+00 4.7056923447e+00 
760500 4.6892393985e+00 -7.0774504307e-05 2.7168340455e+00 -4.7056946025e+00 2.7168340455e+00 4.7056946025e+00 
760600 4.6892393984e+00 -7.0718787426e-05 2.7168353480e+00 -4.7056968585e+00 2.7168353480e+00 4.7056968585e+00 
760700 4.6892393982e+00 -7.0663078078e-05 2.7168366495e+00 -4.7056991128e+00 2.7168366495e+00 4.7056991128e+00 
760800 4.6892393982e+00 -7.0805795128e-05 2.7168366495e+00 -4.7056991128e+00 2.7168366495e+00 4.7056991128e+00 
760900 4.6892393980e+00 -7.0749590309e-05 2.7168379526e+00 -4.7057013698e+00 2.7168379526e+00 4.7057013698e+00 
761000 4.6892393979e+00 -7.0693385555e-05 2.7168392546e+00 -4.7057036250e+00 2.7168392546e+00 4.7057036250e+00 
761100 4.6892393978e+00 -7.0835686307e-05 2.7168392546e+00 -4.7057036250e+00 2.7168392546e+00 4.7057036250e+00 
761200 4.6892393977e+00 -7.0778976265e-05 2.7168405583e+00 -4.7057058830e+00 2.7168405583e+00 4.7057058830e+00 
761300 4.6892393976e+00 -7.0722263194e-05 2.7168418609e+00 -4.7057081392e+00 2.7168418609e+00 4.7057081392e+00 
761400 4.6892393974e+00 -7.0665560107e-05 2.7168431624e+00 -4.7057103935e+00 2.7168431624e+00 4.7057103935e+00 
761500 4.6892393974e+00 -7.0807292043e-05 2.7168431624e+00 -4.7057103935e+00 2.7168431624e+00 4.7057103935e+00 
761600 4.6892393972e+00 -7.0750099597e-05 2.7168444655e+00 -4.7057126506e+00 2.7168444655e+00 4.7057126506e+00 
761700 4.6892393971e+00 -7.0692910720e-05 2.7168457676e+00 -4.7057149058e+00 2.7168457676e+00 4.7057149058e+00 
761800 4.6892393970e+00 -7.0834228522e-05 2.7168457676e+00 -4.7057149058e+00 2.7168457676e+00 4.7057149058e+00 
761900 4.6892393969e+00 -7.0776542046e-05 2.7168470712e+00 -4.7057171637e+00 2.7168470712e+00 4.7057171637e+00 
762000 4.6892393968e+00 -7.0718856640e-05 2.7168483738e+00 -4.7057194198e+00 2.7168483738e+00 4.7057194198e+00 
762100 4.6892393966e+00 -7.0661185463e-05 2.7168496752e+00 -4.7057216741e+00 2.7168496752e+00 4.7057216741e+00 
762200 4.6892393966e+00 -7.0801940161e-05 2.7168496752e+00 -4.7057216741e+00 2.7168496752e+00 4.7057216741e+00 
762300 4.6892393965e+00 -7.0743788521e-05 2.7168509783e+00 -4.7057239309e+00 2.7168509783e+00 4.7057239309e+00 
762400 4.6892393963e+00 -7.0685645029e-05 2.7168522802e+00 -4.7057261860e+00 2.7168522802e+00 4.7057261860e+00 
762500 4.6892393963e+00 -7.0825991241e-05 2.7168522802e+00 -4.7057261860e+00 2.7168522802e+00 4.7057261860e+00 
762600 4.6892393961e+00 -7.0767359617e-05 2.7168535837e+00 -4.7057284436e+00 2.7168535837e+00 4.7057284436e+00 
762700 4.6892393960e+00 -7.0708733868e-05 2.7168548860e+00 -4.7057306994e+00 2.7168548860e+00 4.7057306994e+00 
762800 4.6892393959e+00 -7.0848660543e-05 2.7168548860e+00 -4.7057306994e+00 2.7168548860e+00 4.7057306994e+00 
762900 4.6892393958e+00 -7.0789543792e-05 2.7168561899e+00 -4.7057329578e+00 2.7168561899e+00 4.7057329578e+00 
763000 4.6892393957e+00 -7.0730432233e-05 2.7168574927e+00 -4.7057352143e+00 2.7168574927e+00 4.7057352143e+00 
763100 4.6892393955e+00 -7.0671339427e-05 2.7168587944e+00 -4.7057374689e+00 2.7168587944e+00 4.7057374689e+00 
763200 4.6892393955e+00 -7.0810704139e-05 2.7168587944e+00 -4.7057374689e+00 2.7168587944e+00 4.7057374689e+00 
763300 4.6892393953e+00 -7.0751140849e-05 2.7168600976e+00 -4.7057397260e+00 2.7168600976e+00 4.7057397260e+00 
763400 4.6892393952e+00 -7.0691591122e-05 2.7168613996e+00 -4.7057419813e+00 2.7168613996e+00 4.7057419813e+00 
763500 4.6892393951e+00 -7.0830551700e-05 2.7168613996e+00 -4.7057419813e+00 2.7168613996e+00 4.7057419813e+00 
763600 4.6892393950e+00 -7.0770525304e-05 2.7168627032e+00 -4.7057442391e+00 2.7168627032e+00 4.7057442391e+00 
763700 4.6892393949e+00 -7.0710510799e-05 2.7168640056e+00 -4.7057464950e+00 2.7168640056e+00 4.7057464950e+00 
763800 4.6892393948e+00 -7.0849058138e-05 2.7168640056e+00 -4.7057464950e+00 2.7168640056e+00 4.7057464950e+00 
763900 4.6892393947e+00 -7.0788565126e-05 2.7168653095e+00 -4.7057487534e+00 2.7168653095e+00 4.7057487534e+00 
764000 4.6892393946e+00 -7.0728083742e-05 2.7168666123e+00 -4.7057510098e+00 2.7168666123e+00 4.7057510098e+00 
764100 4.6892393944e+00 -7.0667627659e-05 2.7168679139e+00 -4.7057532643e+00 2.7168679139e+00 4.7057532643e+00 
764200 4.6892393944e+00 -7.0805623576e-05 2.7168679139e+00 -4.7057532643e+00 2.7168679139e+00 4.7057532643e+00 
764300 4.6892393942e+00 -7.0744710438e-05 2.7168692170e+00 -4.7057555213e+00 2.7168692170e+00 4.7057555213e+00 
764400 4.6892393941e+00 -7.0683817679e-05 2.7168705189e+00 -4.7057577764e+00 2.7168705189e+00 4.7057577764e+00 
764500 4.6892393940e+00 -7.0821418536e-05 2.7168705189e+00 -4.7057577764e+00 2.7168705189e+00 4.7057577764e+00 
764600 4.6892393939e+00 -7.0760063016e-05 2.7168718223e+00 -4.7057600339e+00 2.7168718223e+00 4.7057600339e+00 
764700 4.6892393938e+00 -7.0698726389e-05 2.7168731245e+00 -4.7057622894e+00 2.7168731245e+00 4.7057622894e+00 
764800 4.6892393937e+00 -7.0835923823e-05 2.7168731245e+00 -4.7057622894e+00 2.7168731245e+00 4.7057622894e+00 
764900 4.6892393936e+00 -7.0774122942e-05 2.7168744282e+00 -4.7057645473e+00 2.7168744282e+00 4.7057645473e+00 
765000 4.6892393935e+00 -7.0712340820e-05 2.7168757306e+00 -4.7057668033e+00 2.7168757306e+00 4.7057668033e+00 
765100 4.6892393933e+00 -7.0650591164e-05 2.7168770320e+00 -4.7057690573e+00 2.7168770320e+00 4.7057690573e+00 
765200 4.6892393933e+00 -7.0787251115e-05 2.7168770320e+00 -4.7057690573e+00 2.7168770320e+00 4.7057690573e+00 
765300 4.6892393931e+00 -7.0725058955e-05 2.7168783347e+00 -4.7057713137e+00 2.7168783347e+00 4.7057713137e+00 
765400 4.6892393930e+00 -7.0662894409e-05 2.7168796363e+00 -4.7057735682e+00 2.7168796363e+00 4.7057735682e+00 
765500 4.6892393929e+00 -7.0799170235e-05 2.7168796363e+00 -4.7057735682e+00 2.7168796363e+00 4.7057735682e+00 
765600 4.6892393928e+00 -7.0736557620e-05 2.7168809393e+00 -4.7057758249e+00 2.7168809393e+00 4.7057758249e+00 
765700 4.6892393927e+00 -7.0673971174e-05 2.7168822411e+00 -4.7057780797e+00 2.7168822411e+00 4.7057780797e+00 
765800 4.6892393926e+00 -7.0809854816e-05 2.7168822411e+00 -4.7057780797e+00 2.7168822411e+00 4.7057780797e+00 
765900 4.6892393925e+00 -7.0746818888e-05 2.7168835442e+00 -4.7057803368e+00 2.7168835442e+00 4.7057803368e+00 
766000 4.6892393924e+00 -7.0683809012e-05 2.7168848462e+00 -4.7057825919e+00 2.7168848462e+00 4.7057825919e+00 
766100 4.6892393923e+00 -7.0819296497e-05 2.7168848462e+00 -4.7057825919e+00 2.7168848462e+00 4.7057825919e+00 
766200 4.6892393922e+00 -7.0755837615e-05 2.7168861495e+00 -4.7057848493e+00 2.7168861495e+00 4.7057848493e+00 
766300 4.6892393920e+00 -7.0692405360e-05 2.7168874517e+00 -4.7057871047e+00 2.7168874517e+00 4.7057871047e+00 
766400 4.6892393920e+00 -7.0827494843e-05 2.7168874517e+00 -4.7057871047e+00 2.7168874517e+00 4.7057871047e+00 
766500 4.6892393919e+00 -7.0763615158e-05 2.7168887551e+00 -4.7057893624e+00 2.7168887551e+00 4.7057893624e+00 
766600 4.6892393917e+00 -7.0699763114e-05 2.7168900574e+00 -4.7057916180e+00 2.7168900574e+00 4.7057916180e+00 
766700 4.6892393917e+00 -7.0834454088e-05 2.7168900574e+00 -4.7057916180e+00 2.7168900574e+00 4.7057916180e+00 
766800 4.6892393915e+00 -7.0770156918e-05 2.7168913610e+00 -4.7057938759e+00 2.7168913610e+00 4.7057938759e+00 
766900 4.6892393914e+00 -7.0705888703e-05 2.7168926634e+00 -4.7057961318e+00 2.7168926634e+00 4.7057961318e+00 
767000 4.6892393914e+00 -7.0840181591e-05 2.7168926634e+00 -4.7057961318e+00 2.7168926634e+00 4.7057961318e+00 
767100 4.6892393912e+00 -7.0775471068e-05 2.7168939671e+00 -4.7057983898e+00 2.7168939671e+00 4.7057983898e+00 
767200 4.6892393911e+00 -7.0710791027e-05 2.7168952696e+00 -4.7058006458e+00 2.7168952696e+00 4.7058006458e+00 
767300 4.6892393910e+00 -7.0646155588e-05 2.7168965710e+00 -4.7058028998e+00 2.7168965710e+00 4.7058028998e+00 
767400 4.6892393909e+00 -7.0779926031e-05 2.7168965710e+00 -4.7058028998e+00 2.7168965710e+00 4.7058028998e+00 
767500 4.6892393908e+00 -7.0714873489e-05 2.7168978735e+00 -4.7058051559e+00 2.7168978735e+00 4.7058051559e+00 
767600 4.6892393907e+00 -7.0649861665e-05 2.7168991749e+00 -4.7058074100e+00 2.7168991749e+00 4.7058074100e+00 
767700 4.6892393906e+00 -7.0783263200e-05 2.7168991749e+00 -4.7058074100e+00 2.7168991749e+00 4.7058074100e+00 
767800 4.6892393905e+00 -7.0717830381e-05 2.7169004776e+00 -4.7058096663e+00 2.7169004776e+00 4.7058096663e+00 
767900 4.6892393904e+00 -7.0652437509e-05 2.7169017790e+00 -4.7058119204e+00 2.7169017790e+00 4.7058119204e+00 
768000 4.6892393903e+00 -7.0785464437e-05 2.7169017790e+00 -4.7058119204e+00 2.7169017790e+00 4.7058119204e+00 
768100 4.6892393902e+00 -7.0719650346e-05 2.7169030817e+00 -4.7058141768e+00 2.7169030817e+00 4.7058141768e+00 
768200 4.6892393900e+00 -7.0653876553e-05 2.7169043832e+00 -4.7058164310e+00 2.7169043832e+00 4.7058164310e+00 
768300 4.6892393900e+00 -7.0786526666e-05 2.7169043832e+00 -4.7058164310e+00 2.7169043832e+00 4.7058164310e+00 
768400 4.6892393899e+00 -7.0720332972e-05 2.7169056859e+00 -4.7058186873e+00 2.7169056859e+00 4.7058186873e+00 
768500 4.6892393897e+00 -7.0654180478e-05 2.7169069874e+00 -4.7058209416e+00 2.7169069874e+00 4.7058209416e+00 
768600 4.6892393897e+00 -7.0786453263e-05 2.7169069874e+00 -4.7058209416e+00 2.7169069874e+00 4.7058209416e+00 
768700 4.6892393895e+00 -7.0719883036e-05 2.7169082901e+00 -4.7058231979e+00 2.7169082901e+00 4.7058231979e+00 
768800 4.6892393894e+00 -7.0653355236e-05 2.7169095916e+00 -4.7058254521e+00 2.7169095916e+00 4.7058254521e+00 
768900 4.6892393894e+00 -7.0785251203e-05 2.7169095916e+00 -4.7058254521e+00 2.7169095916e+00 4.7058254521e+00 
769000 4.6892393892e+00 -7.0718308376e-05 2.7169108942e+00 -4.7058277085e+00 2.7169108942e+00 4.7058277085e+00 
769100 4.6892393891e+00 -7.0651409422e-05 2.7169121957e+00 -4.7058299626e+00 2.7169121957e+00 4.7058299626e+00 
769200 4.6892393891e+00 -7.0782929766e-05 2.7169121957e+00 -4.7058299626e+00 2.7169121957e+00 4.7058299626e+00 
769300 4.6892393889e+00 -7.0715618857e-05 2.7169134983e+00 -4.7058322189e+00 2.7169134983e+00 4.7058322189e+00 
769400 4.6892393888e+00 -7.0648353415e-05 2.7169147997e+00 -4.7058344729e+00 2.7169147997e+00 4.7058344729e+00 
769500 4.6892393887e+00 -7.0779499815e-05 2.7169147997e+00 -4.7058344729e+00 2.7169147997e+00 4.7058344729e+00 
769600 4.6892393886e+00 -7.0711825746e-05 2.7169161023e+00 -4.7058367291e+00 2.7169161023e+00 4.7058367291e+00 
769700 4.6892393885e+00 -7.0644198843e-05 2.7169174036e+00 -4.7058389830e+00 2.7169174036e+00 4.7058389830e+00 
769800 4.6892393884e+00 -7.0774973334e-05 2.7169174036e+00 -4.7058389830e+00 2.7169174036e+00 4.7058389830e+00 
769900 4.6892393883e+00 -7.0706941315e-05 2.7169187061e+00 -4.7058412390e+00 2.7169187061e+00 4.7058412390e+00 
770000 4.6892393883e+00 -7.0837474201e-05 2.7169187061e+00 -4.7058412390e+00 2.7169187061e+00 4.7058412390e+00 
770100 4.6892393881e+00 -7.0769014332e-05 2.7169200097e+00 -4.7058434970e+00 2.7169200097e+00 4.7058434970e+00 
770200 4.6892393880e+00 -7.0700595297e-05 2.7169213121e+00 -4.7058457527e+00 2.7169213121e+00 4.7058457527e+00 
770300 4.6892393880e+00 -7.0830730272e-05 2.7169213121e+00 -4.7058457527e+00 2.7169213121e+00 4.7058457527e+00 
770400 4.6892393878e+00 -7.0761896894e-05 2.7169226156e+00 -4.7058480105e+00 2.7169226156e+00 4.7058480105e+00 
770500 4.6892393877e+00 -7.0693109441e-05 2.7169239179e+00 -4.7058502660e+00 2.7169239179e+00 4.7058502660e+00 
770600 4.6892393877e+00 -7.0822858927e-05 2.7169239179e+00 -4.7058502660e+00 2.7169239179e+00 4.7058502660e+00 
770700 4.6892393875e+00 -7.0753665658e-05 2.7169252212e+00 -4.7058525235e+00 2.7169252212e+00 4.7058525235e+00 
770800 4.6892393874e+00 -7.0684521997e-05 2.7169265233e+00 -4.7058547788e+00 2.7169265233e+00 4.7058547788e+00 
770900 4.6892393873e+00 -7.0813894087e-05 2.7169265233e+00 -4.7058547788e+00 2.7169265233e+00 4.7058547788e+00 
771000 4.6892393872e+00 -7.0744351350e-05 2.7169278265e+00 -4.7058570360e+00 2.7169278265e+00 4.7058570360e+00 
771100 4.6892393871e+00 -7.0674861306e-05 2.7169291284e+00 -4.7058592910e+00 2.7169291284e+00 4.7058592910e+00 
771200 4.6892393870e+00 -7.0803862333e-05 2.7169291284e+00 -4.7058592910e+00 2.7169291284e+00 4.7058592910e+00 
771300 4.6892393869e+00 -7.0733979092e-05 2.7169304314e+00 -4.7058615479e+00 2.7169304314e+00 4.7058615479e+00 
771400 4.6892393868e+00 -7.0664151297e-05 2.7169317332e+00 -4.7058638026e+00 2.7169317332e+00 4.7058638026e+00 
771500 4.6892393867e+00 -7.0792786667e-05 2.7169317332e+00 -4.7058638026e+00 2.7169317332e+00 4.7058638026e+00 
771600 4.6892393866e+00 -7.0722571036e-05 2.7169330360e+00 -4.7058660591e+00 2.7169330360e+00 4.7058660591e+00 
771700 4.6892393865e+00 -7.0652413394e-05 2.7169343375e+00 -4.7058683134e+00 2.7169343375e+00 4.7058683134e+00 
771800 4.6892393864e+00 -7.0780687938e-05 2.7169343375e+00 -4.7058683134e+00 2.7169343375e+00 4.7058683134e+00 
771900 4.6892393863e+00 -7.0710147475e-05 2.7169356401e+00 -4.7058705695e+00 2.7169356401e+00 4.7058705695e+00 
772000 4.6892393863e+00 -7.0838189035e-05 2.7169356401e+00 -4.7058705695e+00 2.7169356401e+00 4.7058705695e+00 
772100 4.6892393861e+00 -7.0767243799e-05 2.7169369437e+00 -4.7058728275e+00 2.7169369437e+00 4.7058728275e+00 
772200 4.6892393860e+00 -7.0696351165e-05 2.7169382461e+00 -4.7058750832e+00 2.7169382461e+00 4.7058750832e+00 
772300 4.6892393860e+00 -7.0824009200e-05 2.7169382461e+00 -4.7058750832e+00 2.7169382461e+00 4.7058750832e+00 
772400 4.6892393858e+00 -7.0752726232e-05 2.7169395494e+00 -4.7058773407e+00 2.7169395494e+00 4.7058773407e+00 
772500 4.6892393857e+00 -7.0681501333e-05 2.7169408515e+00 -4.7058795960e+00 2.7169408515e+00 4.7058795960e+00 
772600 4.6892393857e+00 -7.0808789694e-05 2.7169408515e+00 -4.7058795960e+00 2.7169408515e+00 4.7058795960e+00 
772700 4.6892393855e+00 -7.0737183683e-05 2.7169421546e+00 -4.7058818530e+00 2.7169421546e+00 4.7058818530e+00 
772800 4.6892393854e+00 -7.0665639697e-05 2.7169434564e+00 -4.7058841077e+00 2.7169434564e+00 4.7058841077e+00 
772900 4.6892393854e+00 -7.0792567603e-05 2.7169434564e+00 -4.7058841077e+00 2.7169434564e+00 4.7058841077e+00 
773000 4.6892393853e+00 -7.0720649762e-05 2.7169447592e+00 -4.7058863643e+00 2.7169447592e+00 4.7058863643e+00 
773100 4.6892393851e+00 -7.0648797223e-05 2.7169460607e+00 -4.7058886185e+00 2.7169460607e+00 4.7058886185e+00 
773200 4.6892393851e+00 -7.0775371903e-05 2.7169460607e+00 -4.7058886185e+00 2.7169460607e+00 4.7058886185e+00 
773300 4.6892393850e+00 -7.0703151757e-05 2.7169473631e+00 -4.7058908744e+00 2.7169473631e+00 4.7058908744e+00 
773400 4.6892393849e+00 -7.0829499482e-05 2.7169473631e+00 -4.7058908744e+00 2.7169473631e+00 4.7058908744e+00 
773500 4.6892393848e+00 -7.0756890379e-05 2.7169486666e+00 -4.7058931321e+00 2.7169486666e+00 4.7058931321e+00 
773600 4.6892393847e+00 -7.0684341920e-05 2.7169499687e+00 -4.7058953875e+00 2.7169499687e+00 4.7058953875e+00 
773700 4.6892393846e+00 -7.0810316238e-05 2.7169499687e+00 -4.7058953875e+00 2.7169499687e+00 4.7058953875e+00 
773800 4.6892393845e+00 -7.0737393932e-05 2.7169512719e+00 -4.7058976446e+00 2.7169512719e+00 4.7058976446e+00 
773900 4.6892393844e+00 -7.0664538000e-05 2.7169525736e+00 -4.7058998993e+00 2.7169525736e+00 4.7058998993e+00 
774000 4.6892393843e+00 -7.0790153759e-05 2.7169525736e+00 -4.7058998993e+00 2.7169525736e+00 4.7058998993e+00 
774100 4.6892393842e+00 -7.0716933673e-05 2.7169538764e+00 -4.7059021557e+00 2.7169538764e+00 4.7059021557e+00 
774200 4.6892393841e+00 -7.0643784098e-05 2.7169551778e+00 -4.7059044098e+00 2.7169551778e+00 4.7059044098e+00 
774300 4.6892393840e+00 -7.0769051266e-05 2.7169551778e+00 -4.7059044098e+00 2.7169551778e+00 4.7059044098e+00 
774400 4.6892393839e+00 -7.0695545120e-05 2.7169564802e+00 -4.7059066656e+00 2.7169564802e+00 4.7059066656e+00 
774500 4.6892393838e+00 -7.0820589402e-05 2.7169564802e+00 -4.7059066656e+00 2.7169564802e+00 4.7059066656e+00 
774600 4.6892393837e+00 -7.0746705942e-05 2.7169577835e+00 -4.7059089230e+00 2.7169577835e+00 4.7059089230e+00 
774700 4.6892393836e+00 -7.0672889085e-05 2.7169590854e+00 -4.7059111780e+00 2.7169590854e+00 4.7059111780e+00 
774800 4.6892393836e+00 -7.0797567098e-05 2.7169590854e+00 -4.7059111780e+00 2.7169590854e+00 4.7059111780e+00 
774900 4.6892393834e+00 -7.0723388693e-05 2.7169603883e+00 -4.7059134347e+00 2.7169603883e+00 4.7059134347e+00 
775000 4.6892393833e+00 -7.0649282878e-05 2.7169616898e+00 -4.7059156890e+00 2.7169616898e+00 4.7059156890e+00 
775100 4.6892393833e+00 -7.0773610397e-05 2.7169616898e+00 -4.7059156890e+00 2.7169616898e+00 4.7059156890e+00 
775200 4.6892393831e+00 -7.0699153179e-05 2.7169629923e+00 -4.7059179449e+00 2.7169629923e+00 4.7059179449e+00 
775300 4.6892393831e+00 -7.0823258216e-05 2.7169629923e+00 -4.7059179449e+00 2.7169629923e+00 4.7059179449e+00 
775400 4.6892393830e+00 -7.0748429874e-05 2.7169642956e+00 -4.7059202023e+00 2.7169642956e+00 4.7059202023e+00 
775500 4.6892393829e+00 -7.0673671523e-05 2.7169655976e+00 -4.7059224574e+00 2.7169655976e+00 4.7059224574e+00 
775600 4.6892393828e+00 -7.0797412493e-05 2.7169655976e+00 -4.7059224574e+00 2.7169655976e+00 4.7059224574e+00 
775700 4.6892393827e+00 -7.0722299843e-05 2.7169669005e+00 -4.7059247141e+00 2.7169669005e+00 4.7059247141e+00 
775800 4.6892393826e+00 -7.0647263597e-05 2.7169682020e+00 -4.7059269683e+00 2.7169682020e+00 4.7059269683e+00 
775900 4.6892393825e+00 -7.0770657640e-05 2.7169682020e+00 -4.7059269683e+00 2.7169682020e+00 4.7059269683e+00 
776000 4.6892393824e+00 -7.0695277961e-05 2.7169695043e+00 -4.7059292241e+00 2.7169695043e+00 4.7059292241e+00 
776100 4.6892393823e+00 -7.0818452464e-05 2.7169695043e+00 -4.7059292241e+00 2.7169695043e+00 4.7059292241e+00 
776200 4.6892393822e+00 -7.0742709991e-05 2.7169708076e+00 -4.7059314814e+00 2.7169708076e+00 4.7059314814e+00 
776300 4.6892393821e+00 -7.0667041760e-05 2.7169721095e+00 -4.7059337363e+00 2.7169721095e+00 4.7059337363e+00 
776400 4.6892393821e+00 -7.0789857250e-05 2.7169721095e+00 -4.7059337363e+00 2.7169721095e+00 4.7059337363e+00 
776500 4.6892393819e+00 -7.0713843459e-05 2.7169734122e+00 -4.7059359927e+00 2.7169734122e+00 4.7059359927e+00 
776600 4.6892393818e+00 -7.0637910486e-05 2.7169747135e+00 -4.7059382467e+00 2.7169747135e+00 4.7059382467e+00 
776700 4.6892393818e+00 -7.0760384703e-05 2.7169747135e+00 -4.7059382467e+00 2.7169747135e+00 4.7059382467e+00 
776800 4.6892393817e+00 -7.0684117332e-05 2.7169760157e+00 -4.7059405022e+00 2.7169760157e+00 4.7059405022e+00 
776900 4.6892393816e+00 -7.0806376043e-05 2.7169760157e+00 -4.7059405022e+00 2.7169760157e+00 4.7059405022e+00 
777000 4.6892393815e+00 -7.0729755064e-05 2.7169773188e+00 -4.7059427591e+00 2.7169773188e+00 4.7059427591e+00 
777100 4.6892393814e+00 -7.0653212914e-05 2.7169786204e+00 -4.7059450136e+00 2.7169786204e+00 4.7059450136e+00 
777200 4.6892393813e+00 -7.0775118971e-05 2.7169786204e+00 -4.7059450136e+00 2.7169786204e+00 4.7059450136e+00 
777300 4.6892393812e+00 -7.0698240614e-05 2.7169799228e+00 -4.7059472695e+00 2.7169799228e+00 4.7059472695e+00 
777400 4.6892393812e+00 -7.0819927133e-05 2.7169799228e+00 -4.7059472695e+00 2.7169799228e+00 4.7059472695e+00 
777500 4.6892393810e+00 -7.0742695314e-05 2.7169812261e+00 -4.7059495269e+00 2.7169812261e+00 4.7059495269e+00 
777600 4.6892393809e+00 -7.0665542945e-05 2.7169825280e+00 -4.7059517818e+00 2.7169825280e+00 4.7059517818e+00 
777700 4.6892393809e+00 -7.0786873501e-05 2.7169825280e+00 -4.7059517818e+00 2.7169825280e+00 4.7059517818e+00 
777800 4.6892393808e+00 -7.0709386843e-05 2.7169838307e+00 -4.7059540381e+00 2.7169838307e+00 4.7059540381e+00 
777900 4.6892393807e+00 -7.0830496872e-05 2.7169838307e+00 -4.7059540381e+00 2.7169838307e+00 4.7059540381e+00 
778000 4.6892393806e+00 -7.0752659458e-05 2.7169851341e+00 -4.7059562958e+00 2.7169851341e+00 4.7059562958e+00 
778100 4.6892393805e+00 -7.0674903118e-05 2.7169864362e+00 -4.7059585510e+00 2.7169864362e+00 4.7059585510e+00 
778200 4.6892393804e+00 -7.0795656953e-05 2.7169864362e+00 -4.7059585510e+00 2.7169864362e+00 4.7059585510e+00 
778300 4.6892393803e+00 -7.0717569901e-05 2.7169877390e+00 -4.7059608075e+00 2.7169877390e+00 4.7059608075e+00 
778400 4.6892393802e+00 -7.0639571599e-05 2.7169890404e+00 -4.7059630616e+00 2.7169890404e+00 4.7059630616e+00 
778500 4.6892393801e+00 -7.0759990496e-05 2.7169890404e+00 -4.7059630616e+00 2.7169890404e+00 4.7059630616e+00 
778600 4.6892393800e+00 -7.0681674496e-05 2.7169903426e+00 -4.7059653171e+00 2.7169903426e+00 4.7059653171e+00 
778700 4.6892393800e+00 -7.0801883528e-05 2.7169903426e+00 -4.7059653171e+00 2.7169903426e+00 4.7059653171e+00 
778800 4.6892393799e+00 -7.0723231533e-05 2.7169916455e+00 -4.7059675738e+00 2.7169916455e+00 4.7059675738e+00 
778900 4.6892393797e+00 -7.0644667419e-05 2.7169929470e+00 -4.7059698281e+00 2.7169929470e+00 4.7059698281e+00 
779000 4.6892393797e+00 -7.0764533861e-05 2.7169929470e+00 -4.7059698281e+00 2.7169929470e+00 4.7059698281e+00 
779100 4.6892393796e+00 -7.0685652199e-05 2.7169942493e+00 -4.7059720837e+00 2.7169942493e+00 4.7059720837e+00 
779200 4.6892393795e+00 -7.0805306676e-05 2.7169942493e+00 -4.7059720837e+00 2.7169942493e+00 4.7059720837e+00 
779300 4.6892393794e+00 -7.0726090745e-05 2.7169955523e+00 -4.7059743405e+00 2.7169955523e+00 4.7059743405e+00 
779400 4.6892393793e+00 -7.0646963954e-05 2.7169968539e+00 -4.7059765949e+00 2.7169968539e+00 4.7059765949e+00 
779500 4.6892393793e+00 -7.0766274836e-05 2.7169968539e+00 -4.7059765949e+00 2.7169968539e+00 4.7059765949e+00 
779600 4.6892393791e+00 -7.0686833563e-05 2.7169981561e+00 -4.7059788505e+00 2.7169981561e+00 4.7059788505e+00 
779700 4.6892393791e+00 -7.0805932718e-05 2.7169981561e+00 -4.7059788505e+00 2.7169981561e+00 4.7059788505e+00 
779800 4.6892393790e+00 -7.0726160814e-05 2.7169994592e+00 -4.7059811074e+00 2.7169994592e+00 4.7059811074e+00 
779900 4.6892393789e+00 -7.0646480034e-05 2.7170007607e+00 -4.7059833618e+00 2.7170007607e+00 4.7059833618e+00 
780000 4.6892393788e+00 -7.0765236858e-05 2.7170007607e+00 -4.7059833618e+00 2.7170007607e+00 4.7059833618e+00 
780100 4.6892393787e+00 -7.0685245843e-05 2.7170020630e+00 -4.7059856174e+00 2.7170020630e+00 4.7059856174e+00 
780200 4.6892393787e+00 -7.0803792238e-05 2.7170020630e+00 -4.7059856174e+00 2.7170020630e+00 4.7059856174e+00 
780300 4.6892393785e+00 -7.0723475133e-05 2.7170033660e+00 -4.7059878742e+00 2.7170033660e+00 4.7059878742e+00 
780400 4.6892393784e+00 -7.0643251501e-05 2.7170046675e+00 -4.7059901284e+00 2.7170046675e+00 4.7059901284e+00 
780500 4.6892393784e+00 -7.0761458020e-05 2.7170046675e+00 -4.7059901284e+00 2.7170046675e+00 4.7059901284e+00 
780600 4.6892393783e+00 -7.0680929028e-05 2.7170059697e+00 -4.7059923839e+00 2.7170059697e+00 4.7059923839e+00 
780700 4.6892393782e+00 -7.0798927024e-05 2.7170059697e+00 -4.7059923839e+00 2.7170059697e+00 4.7059923839e+00 
780800 4.6892393781e+00 -7.0718076985e-05 2.7170072725e+00 -4.7059946406e+00 2.7170072725e+00 4.7059946406e+00 
780900 4.6892393780e+00 -7.0637322970e-05 2.7170085739e+00 -4.7059968947e+00 2.7170085739e+00 4.7059968947e+00 
781000 4.6892393779e+00 -7.0754984256e-05 2.7170085739e+00 -4.7059968947e+00 2.7170085739e+00 4.7059968947e+00 
781100 4.6892393778e+00 -7.0673930117e-05 2.7170098760e+00 -4.7059991499e+00 2.7170098760e+00 4.7059991499e+00 
781200 4.6892393778e+00 -7.0791385159e-05 2.7170098760e+00 -4.7059991499e+00 2.7170098760e+00 4.7059991499e+00 
781300 4.6892393777e+00 -7.0710015309e-05 2.7170111788e+00 -4.7060014063e+00 2.7170111788e+00 4.7060014063e+00 
781400 4.6892393776e+00 -7.0827250324e-05 2.7170111788e+00 -4.7060014063e+00 2.7170111788e+00 4.7060014063e+00 
781500 4.6892393775e+00 -7.0745554801e-05 2.7170124822e+00 -4.7060036639e+00 2.7170124822e+00 4.7060036639e+00 
781600 4.6892393774e+00 -7.0663954374e-05 2.7170137841e+00 -4.7060059189e+00 2.7170137841e+00 4.7060059189e+00 
781700 4.6892393773e+00 -7.0780842647e-05 2.7170137841e+00 -4.7060059189e+00 2.7170137841e+00 4.7060059189e+00 
781800 4.6892393772e+00 -7.0698941806e-05 2.7170150866e+00 -4.7060081749e+00 2.7170150866e+00 4.7060081749e+00 
781900 4.6892393772e+00 -7.0815619917e-05 2.7170150866e+00 -4.7060081749e+00 2.7170150866e+00 4.7060081749e+00 
782000 4.6892393771e+00 -7.0733404786e-05 2.7170163898e+00 -4.7060104321e+00 2.7170163898e+00 4.7060104321e+00 
782100 4.6892393770e+00 -7.0651289628e-05 2.7170176915e+00 -4.7060126867e+00 2.7170176915e+00 4.7060126867e+00 
782200 4.6892393769e+00 -7.0767631373e-05 2.7170176915e+00 -4.7060126867e+00 2.7170176915e+00 4.7060126867e+00 
782300 4.6892393768e+00 -7.0685224744e-05 2.7170189938e+00 -4.7060149423e+00 2.7170189938e+00 4.7060149423e+00 
782400 4.6892393768e+00 -7.0724719792e-05 2.7170189938e+00 -4.7060149423e+00 2.7170189938e+00 4.7060149423e+00 
782500 4.6892393767e+00 -7.0642283565e-05 2.7170202953e+00 -4.7060171966e+00 2.7170202953e+00 4.7060171966e+00 
782600 4.6892393767e+00 -7.0656206422e-05 2.7170202953e+00 -4.7060171966e+00 2.7170202953e+00 4.7060171966e+00 
782600 4.6892393767e+00 -7.0656206422e-05 2.7170202953e+00 -4.7060171966e+00 2.7170202953e+00 4.7060171966e+00 
