# step Hamiltonian StressXX CellTensor1 CellTensor2 CellTensor3 CellTensor4 
0 6.0605850619e+00 -7.3992728772e-02 1.7299681240e+00 -2.9963926863e+00 1.7299681240e+00 2.9963926863e+00 
100 6.0604375331e+00 -7.0886150326e-02 1.7299681240e+00 -2.9963926863e+00 1.7299681240e+00 2.9963926863e+00 
200 6.0601498385e+00 -6.5992054068e-02 1.7320172984e+00 -2.9999419603e+00 1.7320172984e+00 2.9999419603e+00 
300 6.0599121107e+00 -6.1361323403e-02 1.7339227106e+00 -3.0032422311e+00 1.7339227106e+00 3.0032422311e+00 
400 6.0597232898e+00 -5.6984766666e-02 1.7356924477e+00 -3.0063075058e+00 1.7356924477e+00 3.0063075058e+00 
500 6.0595822069e+00 -5.2853378559e-02 1.7373342634e+00 -3.0091512139e+00 1.7373342634e+00 3.0091512139e+00 
600 6.0594875666e+00 -4.8958330981e-02 1.7388555908e+00 -3.0117862303e+00 1.7388555908e+00 3.0117862303e+00 
700 6.0594379373e+00 -4.5290965975e-02 1.7402635551e+00 -3.0142248959e+00 1.7402635551e+00 3.0142248959e+00 
800 6.0594317453e+00 -4.1842790455e-02 1.7415649846e+00 -3.0164790379e+00 1.7415649846e+00 3.0164790379e+00 
900 6.0594672746e+00 -3.8605472361e-02 1.7427664211e+00 -3.0185599871e+00 1.7427664211e+00 3.0185599871e+00 
1000 6.0595426703e+00 -3.5570838000e-02 1.7438741301e+00 -3.0204785953e+00 1.7438741301e+00 3.0204785953e+00 
1100 6.0596559453e+00 -3.2730870317e-02 1.7448941092e+00 -3.0222452509e+00 1.7448941092e+00 3.0222452509e+00 
1200 6.0598049902e+00 -3.0077707906e-02 1.7458320974e+00 -3.0238698941e+00 1.7458320974e+00 3.0238698941e+00 
1300 6.0599875854e+00 -2.7603644602e-02 1.7466935828e+00 -3.0253620307e+00 1.7466935828e+00 3.0253620307e+00 
1400 6.0602014147e+00 -2.5301129495e-02 1.7474838109e+00 -3.0267307458e+00 1.7474838109e+00 3.0267307458e+00 
1500 6.0604440811e+00 -2.3162767270e-02 1.7482077911e+00 -3.0279847164e+00 1.7482077911e+00 3.0279847164e+00 
1600 6.0607131232e+00 -2.1181318764e-02 1.7488703048e+00 -3.0291322237e+00 1.7488703048e+00 3.0291322237e+00 
1700 6.0610060318e+00 -1.9349701659e-02 1.7494759112e+00 -3.0301811647e+00 1.7494759112e+00 3.0301811647e+00 
1800 6.0613202676e+00 -1.7660991262e-02 1.7500289545e+00 -3.0311390639e+00 1.7500289545e+00 3.0311390639e+00 
1900 6.0616532786e+00 -1.6108421295e-02 1.7505335702e+00 -3.0320130839e+00 1.7505335702e+00 3.0320130839e+00 
2000 6.0620025169e+00 -1.4685384681e-02 1.7509936906e+00 -3.0328100359e+00 1.7509936906e+00 3.0328100359e+00 
2100 6.0623654554e+00 -1.3385434265e-02 1.7514130517e+00 -3.0335363905e+00 1.7514130517e+00 3.0335363905e+00 
2200 6.0627396037e+00 -1.2202283475e-02 1.7517951980e+00 -3.0341982874e+00 1.7517951980e+00 3.0341982874e+00 
2300 6.0631225232e+00 -1.1129806870e-02 1.7521434889e+00 -3.0348015450e+00 1.7521434889e+00 3.0348015450e+00 
2400 6.0635118410e+00 -1.0162040588e-02 1.7524611040e+00 -3.0353516704e+00 1.7524611040e+00 3.0353516704e+00 
2500 6.0639052629e+00 -9.2931826624e-03 1.7527510482e+00 -3.0358538686e+00 1.7527510482e+00 3.0358538686e+00 
2600 6.0643005850e+00 -8.5175932185e-03 1.7530161577e+00 -3.0363130516e+00 1.7530161577e+00 3.0363130516e+00 
2700 6.0646957041e+00 -7.8297945221e-03 1.7532591044e+00 -3.0367338476e+00 1.7532591044e+00 3.0367338476e+00 
2800 6.0650886271e+00 -7.2244708948e-03 1.7534824017e+00 -3.0371206099e+00 1.7534824017e+00 3.0371206099e+00 
2900 6.0654774785e+00 -6.6964684850e-03 1.7536884092e+00 -3.0374774254e+00 1.7536884092e+00 3.0374774254e+00 
3000 6.0658605069e+00 -6.2407948950e-03 1.7538793380e+00 -3.0378081237e+00 1.7538793380e+00 3.0378081237e+00 
3100 6.0662360905e+00 -5.8526186657e-03 1.7540572550e+00 -3.0381162851e+00 1.7540572550e+00 3.0381162851e+00 
3200 6.0666027406e+00 -5.5272686174e-03 1.7542240885e+00 -3.0384052492e+00 1.7542240885e+00 3.0384052492e+00 
3300 6.0669591045e+00 -5.2602330490e-03 1.7543816326e+00 -3.0386781235e+00 1.7543816326e+00 3.0386781235e+00 
3400 6.0673039670e+00 -5.0471587970e-03 1.7545315517e+00 -3.0389377911e+00 1.7545315517e+00 3.0389377911e+00 
3500 6.0676362505e+00 -4.8838501556e-03 1.7546753858e+00 -3.0391869190e+00 1.7546753858e+00 3.0391869190e+00 
3600 6.0679550147e+00 -4.7662676618e-03 1.7548145544e+00 -3.0394279661e+00 1.7548145544e+00 3.0394279661e+00 
3700 6.0682594546e+00 -4.6905267449e-03 1.7549503616e+00 -3.0396631911e+00 1.7549503616e+00 3.0396631911e+00 
3800 6.0685488979e+00 -4.6528962474e-03 1.7550840003e+00 -3.0398946601e+00 1.7550840003e+00 3.0398946601e+00 
3900 6.0688228021e+00 -4.6497968158e-03 1.7552165568e+00 -3.0401242547e+00 1.7552165568e+00 3.0401242547e+00 
4000 6.0690807497e+00 -4.6777991688e-03 1.7553490150e+00 -3.0403536789e+00 1.7553490150e+00 3.0403536789e+00 
4100 6.0693224440e+00 -4.7336222434e-03 1.7554822608e+00 -3.0405844675e+00 1.7554822608e+00 3.0405844675e+00 
4200 6.0695477033e+00 -4.8141312240e-03 1.7556170865e+00 -3.0408179924e+00 1.7556170865e+00 3.0408179924e+00 
4300 6.0697564556e+00 -4.9163354593e-03 1.7557541948e+00 -3.0410554710e+00 1.7557541948e+00 3.0410554710e+00 
4400 6.0699487317e+00 -5.0373862694e-03 1.7558942030e+00 -3.0412979724e+00 1.7558942030e+00 3.0412979724e+00 
4500 6.0701246592e+00 -5.1745746501e-03 1.7560376472e+00 -3.0415464249e+00 1.7560376472e+00 3.0415464249e+00 
4600 6.0702844556e+00 -5.3253288773e-03 1.7561849859e+00 -3.0418016231e+00 1.7561849859e+00 3.0418016231e+00 
4700 6.0704284209e+00 -5.4872120177e-03 1.7563366045e+00 -3.0420642342e+00 1.7563366045e+00 3.0420642342e+00 
4800 6.0705569311e+00 -5.6579193507e-03 1.7564928187e+00 -3.0423348050e+00 1.7564928187e+00 3.0423348050e+00 
4900 6.0706704303e+00 -5.8352757079e-03 1.7566538784e+00 -3.0426137687e+00 1.7566538784e+00 3.0426137687e+00 
5000 6.0707694242e+00 -6.0172327337e-03 1.7568199717e+00 -3.0429014507e+00 1.7568199717e+00 3.0429014507e+00 
5100 6.0708544727e+00 -6.2018660760e-03 1.7569912280e+00 -3.0431980753e+00 1.7569912280e+00 3.0431980753e+00 
5200 6.0709261828e+00 -6.3873725101e-03 1.7571677220e+00 -3.0435037720e+00 1.7571677220e+00 3.0435037720e+00 
5300 6.0709852017e+00 -6.5720670031e-03 1.7573494771e+00 -3.0438185810e+00 1.7573494771e+00 3.0438185810e+00 
5400 6.0710322106e+00 -6.7543797256e-03 1.7575364685e+00 -3.0441424595e+00 1.7575364685e+00 3.0441424595e+00 
5500 6.0710679174e+00 -6.9328530146e-03 1.7577286267e+00 -3.0444752874e+00 1.7577286267e+00 3.0444752874e+00 
5600 6.0710930513e+00 -7.1061382962e-03 1.7579258410e+00 -3.0448168725e+00 1.7579258410e+00 3.0448168725e+00 
5700 6.0711083563e+00 -7.2729929721e-03 1.7581279620e+00 -3.0451669563e+00 1.7581279620e+00 3.0451669563e+00 
5800 6.0711145859e+00 -7.4322772774e-03 1.7583348051e+00 -3.0455252192e+00 1.7583348051e+00 3.0455252192e+00 
5900 6.0711124976e+00 -7.5829511140e-03 1.7585461536e+00 -3.0458912855e+00 1.7585461536e+00 3.0458912855e+00 
6000 6.0711028477e+00 -7.7240708667e-03 1.7587617608e+00 -3.0462647282e+00 1.7587617608e+00 3.0462647282e+00 
6100 6.0710863873e+00 -7.8547862072e-03 1.7589813537e+00 -3.0466450742e+00 1.7589813537e+00 3.0466450742e+00 
6200 6.0710638572e+00 -7.9743368903e-03 1.7592046350e+00 -3.0470318087e+00 1.7592046350e+00 3.0470318087e+00 
6300 6.0710359843e+00 -8.0820495493e-03 1.7594312860e+00 -3.0474243797e+00 1.7594312860e+00 3.0474243797e+00 
6400 6.0710034782e+00 -8.1773344942e-03 1.7596609689e+00 -3.0478222021e+00 1.7596609689e+00 3.0478222021e+00 
6500 6.0709670274e+00 -8.2596825180e-03 1.7598933294e+00 -3.0482246624e+00 1.7598933294e+00 3.0482246624e+00 
6600 6.0709272970e+00 -8.3286617157e-03 1.7601279989e+00 -3.0486311219e+00 1.7601279989e+00 3.0486311219e+00 
6700 6.0708849256e+00 -8.3839143201e-03 1.7603645967e+00 -3.0490409213e+00 1.7603645967e+00 3.0490409213e+00 
6800 6.0708405233e+00 -8.4251535587e-03 1.7606027321e+00 -3.0494533839e+00 1.7606027321e+00 3.0494533839e+00 
6900 6.0707946698e+00 -8.4521605351e-03 1.7608420065e+00 -3.0498678194e+00 1.7608420065e+00 3.0498678194e+00 
7000 6.0707479128e+00 -8.4647811392e-03 1.7610820154e+00 -3.0502835269e+00 1.7610820154e+00 3.0502835269e+00 
7100 6.0707007667e+00 -8.4629229887e-03 1.7613223498e+00 -3.0506997984e+00 1.7613223498e+00 3.0506997984e+00 
7200 6.0706537115e+00 -8.4465524059e-03 1.7615625987e+00 -3.0511159217e+00 1.7615625987e+00 3.0511159217e+00 
7300 6.0706071921e+00 -8.4156914316e-03 1.7618023502e+00 -3.0515311834e+00 1.7618023502e+00 3.0515311834e+00 
7400 6.0705616181e+00 -8.3704148802e-03 1.7620411931e+00 -3.0519448715e+00 1.7620411931e+00 3.0519448715e+00 
7500 6.0705173633e+00 -8.3108474369e-03 1.7622787189e+00 -3.0523562782e+00 1.7622787189e+00 3.0523562782e+00 
7600 6.0704747658e+00 -8.2371608004e-03 1.7625145225e+00 -3.0527647020e+00 1.7625145225e+00 3.0527647020e+00 
7700 6.0704341282e+00 -8.1495708723e-03 1.7627482040e+00 -3.0531694503e+00 1.7627482040e+00 3.0531694503e+00 
7800 6.0703957182e+00 -8.0483349964e-03 1.7629793700e+00 -3.0535698415e+00 1.7629793700e+00 3.0535698415e+00 
7900 6.0703597691e+00 -7.9337492475e-03 1.7632076344e+00 -3.0539652071e+00 1.7632076344e+00 3.0539652071e+00 
8000 6.0703264807e+00 -7.8061457734e-03 1.7634326198e+00 -3.0543548932e+00 1.7634326198e+00 3.0543548932e+00 
8100 6.0702960201e+00 -7.6658901904e-03 1.7636539582e+00 -3.0547382626e+00 1.7636539582e+00 3.0547382626e+00 
8200 6.0702685228e+00 -7.5133790329e-03 1.7638712925e+00 -3.0551146965e+00 1.7638712925e+00 3.0551146965e+00 
8300 6.0702440942e+00 -7.3490372606e-03 1.7640842765e+00 -3.0554835958e+00 1.7640842765e+00 3.0554835958e+00 
8400 6.0702228106e+00 -7.1733158212e-03 1.7642925767e+00 -3.0558443823e+00 1.7642925767e+00 3.0558443823e+00 
8500 6.0702047206e+00 -6.9866892721e-03 1.7644958722e+00 -3.0561965004e+00 1.7644958722e+00 3.0561965004e+00 
8600 6.0701898469e+00 -6.7896534607e-03 1.7646938557e+00 -3.0565394178e+00 1.7646938557e+00 3.0565394178e+00 
8700 6.0701781876e+00 -6.5827232646e-03 1.7648862340e+00 -3.0568726268e+00 1.7648862340e+00 3.0568726268e+00 
8800 6.0701697180e+00 -6.3664303912e-03 1.7650727287e+00 -3.0571956451e+00 1.7650727287e+00 3.0571956451e+00 
8900 6.0701643918e+00 -6.1413212399e-03 1.7652530765e+00 -3.0575080167e+00 1.7652530765e+00 3.0575080167e+00 
9000 6.0701621434e+00 -5.9079548238e-03 1.7654270295e+00 -3.0578093121e+00 1.7654270295e+00 3.0578093121e+00 
9100 6.0701628893e+00 -5.6669007554e-03 1.7655943558e+00 -3.0580991298e+00 1.7655943558e+00 3.0580991298e+00 
9200 6.0701665296e+00 -5.4187372932e-03 1.7657548396e+00 -3.0583770959e+00 1.7657548396e+00 3.0583770959e+00 
9300 6.0701729499e+00 -5.1640494526e-03 1.7659082815e+00 -3.0586428651e+00 1.7659082815e+00 3.0586428651e+00 
9400 6.0701820231e+00 -4.9034271789e-03 1.7660544987e+00 -3.0588961206e+00 1.7660544987e+00 3.0588961206e+00 
9500 6.0701936106e+00 -4.6374635850e-03 1.7661933248e+00 -3.0591365746e+00 1.7661933248e+00 3.0591365746e+00 
9600 6.0702075646e+00 -4.3667532525e-03 1.7663246106e+00 -3.0593639682e+00 1.7663246106e+00 3.0593639682e+00 
9700 6.0702237287e+00 -4.0918905976e-03 1.7664482233e+00 -3.0595780717e+00 1.7664482233e+00 3.0595780717e+00 
9800 6.0702419406e+00 -3.8134683010e-03 1.7665640471e+00 -3.0597786845e+00 1.7665640471e+00 3.0597786845e+00 
9900 6.0702620325e+00 -3.5320758033e-03 1.7666719829e+00 -3.0599656346e+00 1.7666719829e+00 3.0599656346e+00 
10000 6.0702838333e+00 -3.2482978646e-03 1.7667719479e+00 -3.0601387792e+00 1.7667719479e+00 3.0601387792e+00 
10100 6.0703071693e+00 -2.9627131903e-03 1.7668638762e+00 -3.0602980036e+00 1.7668638762e+00 3.0602980036e+00 
10200 6.0703318660e+00 -2.6758931206e-03 1.7669477179e+00 -3.0604432216e+00 1.7669477179e+00 3.0604432216e+00 
10300 6.0703577492e+00 -2.3884003874e-03 1.7670234392e+00 -3.0605743748e+00 1.7670234392e+00 3.0605743748e+00 
10400 6.0703846459e+00 -2.1007879344e-03 1.7670910222e+00 -3.0606914320e+00 1.7670910222e+00 3.0606914320e+00 
10500 6.0704123854e+00 -1.8135978040e-03 1.7671504645e+00 -3.0607943892e+00 1.7671504645e+00 3.0607943892e+00 
10600 6.0704408006e+00 -1.5273600887e-03 1.7672017790e+00 -3.0608832684e+00 1.7672017790e+00 3.0608832684e+00 
10700 6.0704697286e+00 -1.2425919482e-03 1.7672449932e+00 -3.0609581177e+00 1.7672449932e+00 3.0609581177e+00 
10800 6.0704990114e+00 -9.5979669046e-04 1.7672801495e+00 -3.0610190102e+00 1.7672801495e+00 3.0610190102e+00 
10900 6.0705284973e+00 -6.7946291799e-04 1.7673073042e+00 -3.0610660435e+00 1.7673073042e+00 3.0610660435e+00 
11000 6.0705580405e+00 -4.0206373837e-04 1.7673265274e+00 -3.0610993389e+00 1.7673265274e+00 3.0610993389e+00 
11100 6.0705875026e+00 -1.2805603827e-04 1.7673379023e+00 -3.0611190409e+00 1.7673379023e+00 3.0611190409e+00 
11200 6.0706167527e+00 1.4212017907e-04 1.7673415251e+00 -3.0611253159e+00 1.7673415251e+00 3.0611253159e+00 
11300 6.0706456679e+00 4.0804239368e-04 1.7673375044e+00 -3.0611183518e+00 1.7673375044e+00 3.0611183518e+00 
11400 6.0706741335e+00 6.6930610673e-04 1.7673259604e+00 -3.0610983570e+00 1.7673259604e+00 3.0610983570e+00 
11500 6.0707020433e+00 9.2552531707e-04 1.7673070249e+00 -3.0610655597e+00 1.7673070249e+00 3.0610655597e+00 
11600 6.0707293001e+00 1.1763329374e-03 1.7672808403e+00 -3.0610202067e+00 1.7672808403e+00 3.0610202067e+00 
11700 6.0707558154e+00 1.4213811512e-03 1.7672475596e+00 -3.0609625627e+00 1.7672475596e+00 3.0609625627e+00 
11800 6.0707815099e+00 1.6603417108e-03 1.7672073452e+00 -3.0608929094e+00 1.7672073452e+00 3.0608929094e+00 
11900 6.0708063129e+00 1.8929061787e-03 1.7671603690e+00 -3.0608115442e+00 1.7671603690e+00 3.0608115442e+00 
12000 6.0708301628e+00 2.1187861124e-03 1.7671068114e+00 -3.0607187797e+00 1.7671068114e+00 3.0607187797e+00 
12100 6.0708530070e+00 2.3377131950e-03 1.7670468610e+00 -3.0606149426e+00 1.7670468610e+00 3.0606149426e+00 
12200 6.0708748012e+00 2.5494393120e-03 1.7669807140e+00 -3.0605003726e+00 1.7669807140e+00 3.0605003726e+00 
12300 6.0708955096e+00 2.7537365766e-03 1.7669085733e+00 -3.0603754214e+00 1.7669085733e+00 3.0603754214e+00 
12400 6.0709151047e+00 2.9503973046e-03 1.7668306487e+00 -3.0602404518e+00 1.7668306487e+00 3.0602404518e+00 
12500 6.0709335668e+00 3.1392339410e-03 1.7667471552e+00 -3.0600958370e+00 1.7667471552e+00 3.0600958370e+00 
12600 6.0709508838e+00 3.3200789394e-03 1.7666583138e+00 -3.0599419591e+00 1.7666583138e+00 3.0599419591e+00 
12700 6.0709670507e+00 3.4927845965e-03 1.7665643497e+00 -3.0597792085e+00 1.7665643497e+00 3.0597792085e+00 
12800 6.0709820694e+00 3.6572228435e-03 1.7664654925e+00 -3.0596079828e+00 1.7664654925e+00 3.0596079828e+00 
12900 6.0709959484e+00 3.8132849966e-03 1.7663619754e+00 -3.0594286860e+00 1.7663619754e+00 3.0594286860e+00 
13000 6.0710087018e+00 3.9608814674e-03 1.7662540347e+00 -3.0592417272e+00 1.7662540347e+00 3.0592417272e+00 
13100 6.0710203495e+00 4.0999414369e-03 1.7661419093e+00 -3.0590475203e+00 1.7661419093e+00 3.0590475203e+00 
13200 6.0710309166e+00 4.2304124943e-03 1.7660258400e+00 -3.0588464824e+00 1.7660258400e+00 3.0588464824e+00 
13300 6.0710404327e+00 4.3522602422e-03 1.7659060693e+00 -3.0586390334e+00 1.7659060693e+00 3.0586390334e+00 
13400 6.0710489316e+00 4.4654678718e-03 1.7657828405e+00 -3.0584255948e+00 1.7657828405e+00 3.0584255948e+00 
13500 6.0710564510e+00 4.5700357083e-03 1.7656563976e+00 -3.0582065893e+00 1.7656563976e+00 3.0582065893e+00 
13600 6.0710630317e+00 4.6659807310e-03 1.7655269845e+00 -3.0579824393e+00 1.7655269845e+00 3.0579824393e+00 
13700 6.0710687173e+00 4.7533360683e-03 1.7653948449e+00 -3.0577535667e+00 1.7653948449e+00 3.0577535667e+00 
13800 6.0710735540e+00 4.8321504702e-03 1.7652602213e+00 -3.0575203918e+00 1.7652602213e+00 3.0575203918e+00 
13900 6.0710775898e+00 4.9024877613e-03 1.7651233551e+00 -3.0572833327e+00 1.7651233551e+00 3.0572833327e+00 
14000 6.0710808742e+00 4.9644262763e-03 1.7649844860e+00 -3.0570428042e+00 1.7649844860e+00 3.0570428042e+00 
14100 6.0710834579e+00 5.0180582783e-03 1.7648438513e+00 -3.0567992178e+00 1.7648438513e+00 3.0567992178e+00 
14200 6.0710853923e+00 5.0634893648e-03 1.7647016860e+00 -3.0565529803e+00 1.7647016860e+00 3.0565529803e+00 
14300 6.0710867291e+00 5.1008378614e-03 1.7645582221e+00 -3.0563044935e+00 1.7645582221e+00 3.0563044935e+00 
14400 6.0710875201e+00 5.1302342061e-03 1.7644136882e+00 -3.0560541535e+00 1.7644136882e+00 3.0560541535e+00 
14500 6.0710878167e+00 5.1518203254e-03 1.7642683095e+00 -3.0558023502e+00 1.7642683095e+00 3.0558023502e+00 
14600 6.0710876697e+00 5.1657490053e-03 1.7641223071e+00 -3.0555494666e+00 1.7641223071e+00 3.0555494666e+00 
14700 6.0710871290e+00 5.1721832579e-03 1.7639758978e+00 -3.0552958783e+00 1.7639758978e+00 3.0552958783e+00 
14800 6.0710862433e+00 5.1712956862e-03 1.7638292940e+00 -3.0550419530e+00 1.7638292940e+00 3.0550419530e+00 
14900 6.0710850598e+00 5.1632678479e-03 1.7636827031e+00 -3.0547880503e+00 1.7636827031e+00 3.0547880503e+00 
15000 6.0710836242e+00 5.1482896208e-03 1.7635363277e+00 -3.0545345206e+00 1.7635363277e+00 3.0545345206e+00 
15100 6.0710819802e+00 5.1265585713e-03 1.7633903648e+00 -3.0542817054e+00 1.7633903648e+00 3.0542817054e+00 
15200 6.0710801696e+00 5.0982793258e-03 1.7632450059e+00 -3.0540299364e+00 1.7632450059e+00 3.0540299364e+00 
15300 6.0710782321e+00 5.0636629498e-03 1.7631004370e+00 -3.0537795357e+00 1.7631004370e+00 3.0537795357e+00 
15400 6.0710762051e+00 5.0229263318e-03 1.7629568378e+00 -3.0535308147e+00 1.7629568378e+00 3.0535308147e+00 
15500 6.0710741236e+00 4.9762915774e-03 1.7628143823e+00 -3.0532840745e+00 1.7628143823e+00 3.0532840745e+00 
15600 6.0710720203e+00 4.9239854113e-03 1.7626732380e+00 -3.0530396053e+00 1.7626732380e+00 3.0530396053e+00 
15700 6.0710699252e+00 4.8662385911e-03 1.7625335660e+00 -3.0527976864e+00 1.7625335660e+00 3.0527976864e+00 
15800 6.0710678659e+00 4.8032853311e-03 1.7623955211e+00 -3.0525585856e+00 1.7623955211e+00 3.0525585856e+00 
15900 6.0710658675e+00 4.7353627405e-03 1.7622592514e+00 -3.0523225595e+00 1.7622592514e+00 3.0523225595e+00 
16000 6.0710639525e+00 4.6627102727e-03 1.7621248982e+00 -3.0520898530e+00 1.7621248982e+00 3.0520898530e+00 
16100 6.0710621409e+00 4.5855691908e-03 1.7619925962e+00 -3.0518606992e+00 1.7619925962e+00 3.0518606992e+00 
16200 6.0710604503e+00 4.5041820461e-03 1.7618624733e+00 -3.0516353197e+00 1.7618624733e+00 3.0516353197e+00 
16300 6.0710588957e+00 4.4187921734e-03 1.7617346504e+00 -3.0514139240e+00 1.7617346504e+00 3.0514139240e+00 
16400 6.0710574900e+00 4.3296432008e-03 1.7616092416e+00 -3.0511967096e+00 1.7616092416e+00 3.0511967096e+00 
16500 6.0710562435e+00 4.2369785773e-03 1.7614863542e+00 -3.0509838623e+00 1.7614863542e+00 3.0509838623e+00 
16600 6.0710551646e+00 4.1410411163e-03 1.7613660884e+00 -3.0507755559e+00 1.7613660884e+00 3.0507755559e+00 
16700 6.0710542594e+00 4.0420725566e-03 1.7612485378e+00 -3.0505719522e+00 1.7612485378e+00 3.0505719522e+00 
16800 6.0710535321e+00 3.9403131407e-03 1.7611337888e+00 -3.0503732011e+00 1.7611337888e+00 3.0503732011e+00 
16900 6.0710529851e+00 3.8360012107e-03 1.7610219213e+00 -3.0501794410e+00 1.7610219213e+00 3.0501794410e+00 
17000 6.0710526187e+00 3.7293728222e-03 1.7609130084e+00 -3.0499907982e+00 1.7609130084e+00 3.0499907982e+00 
17100 6.0710524320e+00 3.6206613761e-03 1.7608071163e+00 -3.0498073878e+00 1.7608071163e+00 3.0498073878e+00 
17200 6.0710524224e+00 3.5100972682e-03 1.7607043047e+00 -3.0496293129e+00 1.7607043047e+00 3.0496293129e+00 
17300 6.0710525857e+00 3.3979075568e-03 1.7606046269e+00 -3.0494566658e+00 1.7606046269e+00 3.0494566658e+00 
17400 6.0710529168e+00 3.2843156483e-03 1.7605081295e+00 -3.0492895274e+00 1.7605081295e+00 3.0492895274e+00 
17500 6.0710534092e+00 3.1695410012e-03 1.7604148528e+00 -3.0491279675e+00 1.7604148528e+00 3.0491279675e+00 
17600 6.0710540556e+00 3.0537988464e-03 1.7603248310e+00 -3.0489720451e+00 1.7603248310e+00 3.0489720451e+00 
17700 6.0710548477e+00 2.9372999271e-03 1.7602380921e+00 -3.0488218089e+00 1.7602380921e+00 3.0488218089e+00 
17800 6.0710557766e+00 2.8202502545e-03 1.7601546580e+00 -3.0486772968e+00 1.7601546580e+00 3.0486772968e+00 
17900 6.0710568326e+00 2.7028508813e-03 1.7600745449e+00 -3.0485385369e+00 1.7600745449e+00 3.0485385369e+00 
18000 6.0710580056e+00 2.5852976925e-03 1.7599977632e+00 -3.0484055470e+00 1.7599977632e+00 3.0484055470e+00 
18100 6.0710592851e+00 2.4677812125e-03 1.7599243176e+00 -3.0482783356e+00 1.7599243176e+00 3.0482783356e+00 
18200 6.0710606604e+00 2.3504864286e-03 1.7598542077e+00 -3.0481569016e+00 1.7598542077e+00 3.0481569016e+00 
18300 6.0710621204e+00 2.2335926307e-03 1.7597874274e+00 -3.0480412347e+00 1.7597874274e+00 3.0480412347e+00 
18400 6.0710636541e+00 2.1172732672e-03 1.7597239658e+00 -3.0479313160e+00 1.7597239658e+00 3.0479313160e+00 
18500 6.0710652506e+00 2.0016958155e-03 1.7596638069e+00 -3.0478271177e+00 1.7596638069e+00 3.0478271177e+00 
18600 6.0710668989e+00 1.8870216685e-03 1.7596069299e+00 -3.0477286040e+00 1.7596069299e+00 3.0477286040e+00 
18700 6.0710685883e+00 1.7734060352e-03 1.7595533097e+00 -3.0476357310e+00 1.7595533097e+00 3.0476357310e+00 
18800 6.0710703083e+00 1.6609978558e-03 1.7595029163e+00 -3.0475484470e+00 1.7595029163e+00 3.0475484470e+00 
18900 6.0710720488e+00 1.5499397308e-03 1.7594557157e+00 -3.0474666933e+00 1.7594557157e+00 3.0474666933e+00 
19000 6.0710738000e+00 1.4403678641e-03 1.7594116699e+00 -3.0473904037e+00 1.7594116699e+00 3.0473904037e+00 
19100 6.0710755525e+00 1.3324120183e-03 1.7593707368e+00 -3.0473195055e+00 1.7593707368e+00 3.0473195055e+00 
19200 6.0710772976e+00 1.2261954834e-03 1.7593328708e+00 -3.0472539197e+00 1.7593328708e+00 3.0472539197e+00 
19300 6.0710790268e+00 1.1218350584e-03 1.7592980226e+00 -3.0471935608e+00 1.7592980226e+00 3.0471935608e+00 
19400 6.0710807323e+00 1.0194410432e-03 1.7592661397e+00 -3.0471383380e+00 1.7592661397e+00 3.0471383380e+00 
19500 6.0710824069e+00 9.1911724408e-04 1.7592371663e+00 -3.0470881546e+00 1.7592371663e+00 3.0470881546e+00 
19600 6.0710840440e+00 8.2096098839e-04 1.7592110437e+00 -3.0470429090e+00 1.7592110437e+00 3.0470429090e+00 
19700 6.0710856376e+00 7.2506315135e-04 1.7591877106e+00 -3.0470024948e+00 1.7591877106e+00 3.0470024948e+00 
19800 6.0710871822e+00 6.3150819242e-04 1.7591671027e+00 -3.0469668009e+00 1.7591671027e+00 3.0469668009e+00 
19900 6.0710886731e+00 5.4037420168e-04 1.7591491537e+00 -3.0469357123e+00 1.7591491537e+00 3.0469357123e+00 
20000 6.0710901060e+00 4.5173295577e-04 1.7591337947e+00 -3.0469091098e+00 1.7591337947e+00 3.0469091098e+00 
20100 6.0710914775e+00 3.6564998278e-04 1.7591209551e+00 -3.0468868709e+00 1.7591209551e+00 3.0468868709e+00 
20200 6.0710927846e+00 2.8218463580e-04 1.7591105622e+00 -3.0468688698e+00 1.7591105622e+00 3.0468688698e+00 
20300 6.0710940249e+00 2.0139017474e-04 1.7591025415e+00 -3.0468549776e+00 1.7591025415e+00 3.0468549776e+00 
20400 6.0710951966e+00 1.2331385595e-04 1.7590968173e+00 -3.0468450629e+00 1.7590968173e+00 3.0468450629e+00 
20500 6.0710962985e+00 4.7997029257e-05 1.7590933122e+00 -3.0468389921e+00 1.7590933122e+00 3.0468389921e+00 
20600 6.0710973296e+00 -2.3232197622e-05 1.7590933122e+00 -3.0468389921e+00 1.7590933122e+00 3.0468389921e+00 
20700 6.0710982901e+00 -9.3581643014e-05 1.7590933122e+00 -3.0468389921e+00 1.7590933122e+00 3.0468389921e+00 
20800 6.0710991800e+00 -1.6044256472e-04 1.7590959722e+00 -3.0468435992e+00 1.7590959722e+00 3.0468435992e+00 
20900 6.0711000001e+00 -2.2443515573e-04 1.7591005326e+00 -3.0468514980e+00 1.7591005326e+00 3.0468514980e+00 
21000 6.0711007515e+00 -2.8554592664e-04 1.7591069118e+00 -3.0468625472e+00 1.7591069118e+00 3.0468625472e+00 
21100 6.0711014357e+00 -3.4376657713e-04 1.7591150280e+00 -3.0468766049e+00 1.7591150280e+00 3.0468766049e+00 
21200 6.0711020545e+00 -3.9909385770e-04 1.7591247991e+00 -3.0468935288e+00 1.7591247991e+00 3.0468935288e+00 
21300 6.0711026100e+00 -4.5152942708e-04 1.7591361426e+00 -3.0469131764e+00 1.7591361426e+00 3.0469131764e+00 
21400 6.0711031047e+00 -5.0107970552e-04 1.7591489765e+00 -3.0469354053e+00 1.7591489765e+00 3.0469354053e+00 
21500 6.0711035412e+00 -5.4775572448e-04 1.7591632186e+00 -3.0469600734e+00 1.7591632186e+00 3.0469600734e+00 
21600 6.0711039225e+00 -5.9157297297e-04 1.7591787873e+00 -3.0469870391e+00 1.7591787873e+00 3.0469870391e+00 
21700 6.0711042514e+00 -6.3255124089e-04 1.7591956012e+00 -3.0470161617e+00 1.7591956012e+00 3.0470161617e+00 
21800 6.0711045313e+00 -6.7071445972e-04 1.7592135796e+00 -3.0470473013e+00 1.7592135796e+00 3.0470473013e+00 
21900 6.0711047655e+00 -7.0609054092e-04 1.7592326426e+00 -3.0470803193e+00 1.7592326426e+00 3.0470803193e+00 
22000 6.0711049574e+00 -7.3871121233e-04 1.7592527107e+00 -3.0471150784e+00 1.7592527107e+00 3.0471150784e+00 
22100 6.0711051103e+00 -7.6861185288e-04 1.7592737058e+00 -3.0471514429e+00 1.7592737058e+00 3.0471514429e+00 
22200 6.0711052278e+00 -7.9583132599e-04 1.7592955504e+00 -3.0471892789e+00 1.7592955504e+00 3.0471892789e+00 
22300 6.0711053134e+00 -8.2041181186e-04 1.7593181684e+00 -3.0472284543e+00 1.7593181684e+00 3.0472284543e+00 
22400 6.0711053705e+00 -8.4239863907e-04 1.7593414846e+00 -3.0472688392e+00 1.7593414846e+00 3.0472688392e+00 
22500 6.0711054026e+00 -8.6184011571e-04 1.7593654254e+00 -3.0473103059e+00 1.7593654254e+00 3.0473103059e+00 
22600 6.0711054129e+00 -8.7878736028e-04 1.7593899184e+00 -3.0473527290e+00 1.7593899184e+00 3.0473527290e+00 
22700 6.0711054048e+00 -8.9329413282e-04 1.7594148927e+00 -3.0473959857e+00 1.7594148927e+00 3.0473959857e+00 
22800 6.0711053814e+00 -9.0541666633e-04 1.7594402788e+00 -3.0474399558e+00 1.7594402788e+00 3.0474399558e+00 
22900 6.0711053458e+00 -9.1521349886e-04 1.7594660091e+00 -3.0474845220e+00 1.7594660091e+00 3.0474845220e+00 
23000 6.0711053007e+00 -9.2274530654e-04 1.7594920175e+00 -3.0475295698e+00 1.7594920175e+00 3.0475295698e+00 
23100 6.0711052491e+00 -9.2807473774e-04 1.7595182395e+00 -3.0475749876e+00 1.7595182395e+00 3.0475749876e+00 
23200 6.0711051935e+00 -9.3126624863e-04 1.7595446125e+00 -3.0476206671e+00 1.7595446125e+00 3.0476206671e+00 
23300 6.0711051364e+00 -9.3238594040e-04 1.7595710759e+00 -3.0476665029e+00 1.7595710759e+00 3.0476665029e+00 
23400 6.0711050800e+00 -9.3150139829e-04 1.7595975706e+00 -3.0477123932e+00 1.7595975706e+00 3.0477123932e+00 
23500 6.0711050264e+00 -9.2868153273e-04 1.7596240398e+00 -3.0477582392e+00 1.7596240398e+00 3.0477582392e+00 
23600 6.0711049775e+00 -9.2399642278e-04 1.7596504285e+00 -3.0478039458e+00 1.7596504285e+00 3.0478039458e+00 
23700 6.0711049352e+00 -9.1751716201e-04 1.7596766837e+00 -3.0478494211e+00 1.7596766837e+00 3.0478494211e+00 
23800 6.0711049008e+00 -9.0931570709e-04 1.7597027544e+00 -3.0478945769e+00 1.7597027544e+00 3.0478945769e+00 
23900 6.0711048759e+00 -8.9946472924e-04 1.7597285917e+00 -3.0479393283e+00 1.7597285917e+00 3.0479393283e+00 
24000 6.0711048615e+00 -8.8803746864e-04 1.7597541486e+00 -3.0479835943e+00 1.7597541486e+00 3.0479835943e+00 
24100 6.0711048588e+00 -8.7510759219e-04 1.7597793806e+00 -3.0480272973e+00 1.7597793806e+00 3.0480272973e+00 
24200 6.0711048684e+00 -8.6074905444e-04 1.7598042448e+00 -3.0480703633e+00 1.7598042448e+00 3.0480703633e+00 
24300 6.0711048912e+00 -8.4503596212e-04 1.7598287006e+00 -3.0481127221e+00 1.7598287006e+00 3.0481127221e+00 
24400 6.0711049277e+00 -8.2804244229e-04 1.7598527097e+00 -3.0481543071e+00 1.7598527097e+00 3.0481543071e+00 
24500 6.0711049781e+00 -8.0984251426e-04 1.7598762357e+00 -3.0481950552e+00 1.7598762357e+00 3.0481950552e+00 
24600 6.0711050427e+00 -7.9050996532e-04 1.7598992442e+00 -3.0482349072e+00 1.7598992442e+00 3.0482349072e+00 
24700 6.0711051215e+00 -7.7011823052e-04 1.7599217032e+00 -3.0482738074e+00 1.7599217032e+00 3.0482738074e+00 
24800 6.0711052146e+00 -7.4874027650e-04 1.7599435826e+00 -3.0483117035e+00 1.7599435826e+00 3.0483117035e+00 
24900 6.0711053217e+00 -7.2644848954e-04 1.7599648544e+00 -3.0483485473e+00 1.7599648544e+00 3.0483485473e+00 
25000 6.0711054425e+00 -7.0331456776e-04 1.7599854926e+00 -3.0483842937e+00 1.7599854926e+00 3.0483842937e+00 
25100 6.0711055766e+00 -6.7940941778e-04 1.7600054733e+00 -3.0484189013e+00 1.7600054733e+00 3.0484189013e+00 
25200 6.0711057235e+00 -6.5480305562e-04 1.7600247747e+00 -3.0484523323e+00 1.7600247747e+00 3.0484523323e+00 
25300 6.0711058827e+00 -6.2956451215e-04 1.7600433768e+00 -3.0484845522e+00 1.7600433768e+00 3.0484845522e+00 
25400 6.0711060534e+00 -6.0376174295e-04 1.7600612618e+00 -3.0485155298e+00 1.7600612618e+00 3.0485155298e+00 
25500 6.0711062350e+00 -5.7746154271e-04 1.7600784135e+00 -3.0485452375e+00 1.7600784135e+00 3.0485452375e+00 
25600 6.0711064267e+00 -5.5072946415e-04 1.7600948180e+00 -3.0485736508e+00 1.7600948180e+00 3.0485736508e+00 
25700 6.0711066277e+00 -5.2362974154e-04 1.7601104629e+00 -3.0486007486e+00 1.7601104629e+00 3.0486007486e+00 
25800 6.0711068370e+00 -4.9622521867e-04 1.7601253378e+00 -3.0486265127e+00 1.7601253378e+00 3.0486265127e+00 
25900 6.0711070539e+00 -4.6857728154e-04 1.7601394341e+00 -3.0486509283e+00 1.7601394341e+00 3.0486509283e+00 
26000 6.0711072773e+00 -4.4074579545e-04 1.7601527449e+00 -3.0486739833e+00 1.7601527449e+00 3.0486739833e+00 
26100 6.0711075065e+00 -4.1278904672e-04 1.7601652650e+00 -3.0486956688e+00 1.7601652650e+00 3.0486956688e+00 
26200 6.0711077403e+00 -3.8476368888e-04 1.7601769909e+00 -3.0487159786e+00 1.7601769909e+00 3.0487159786e+00 
26300 6.0711079780e+00 -3.5672469336e-04 1.7601879206e+00 -3.0487349094e+00 1.7601879206e+00 3.0487349094e+00 
26400 6.0711082186e+00 -3.2872530458e-04 1.7601980538e+00 -3.0487524605e+00 1.7601980538e+00 3.0487524605e+00 
26500 6.0711084612e+00 -3.0081699948e-04 1.7602073915e+00 -3.0487686340e+00 1.7602073915e+00 3.0487686340e+00 
26600 6.0711087049e+00 -2.7304945136e-04 1.7602159365e+00 -3.0487834342e+00 1.7602159365e+00 3.0487834342e+00 
26700 6.0711089489e+00 -2.4547049799e-04 1.7602236926e+00 -3.0487968683e+00 1.7602236926e+00 3.0487968683e+00 
26800 6.0711091923e+00 -2.1812611397e-04 1.7602306653e+00 -3.0488089454e+00 1.7602306653e+00 3.0488089454e+00 
26900 6.0711094344e+00 -1.9106038717e-04 1.7602368613e+00 -3.0488196771e+00 1.7602368613e+00 3.0488196771e+00 
27000 6.0711096743e+00 -1.6431549929e-04 1.7602422884e+00 -3.0488290771e+00 1.7602422884e+00 3.0488290771e+00 
27100 6.0711099115e+00 -1.3793171040e-04 1.7602469558e+00 -3.0488371613e+00 1.7602469558e+00 3.0488371613e+00 
27200 6.0711101452e+00 -1.1194734726e-04 1.7602508738e+00 -3.0488439474e+00 1.7602508738e+00 3.0488439474e+00 
27300 6.0711103748e+00 -8.6398795612e-05 1.7602540536e+00 -3.0488494551e+00 1.7602540536e+00 3.0488494551e+00 
27400 6.0711105997e+00 -6.1320496036e-05 1.7602565078e+00 -3.0488537059e+00 1.7602565078e+00 3.0488537059e+00 
27500 6.0711108196e+00 -3.8392545092e-05 1.7602565078e+00 -3.0488537059e+00 1.7602565078e+00 3.0488537059e+00 
27600 6.0711110336e+00 -1.5347825099e-05 1.7602565078e+00 -3.0488537059e+00 1.7602565078e+00 3.0488537059e+00 
27700 6.0711112415e+00 7.7746115062e-06 1.7602565078e+00 -3.0488537059e+00 1.7602565078e+00 3.0488537059e+00 
27800 6.0711114430e+00 3.0936901927e-05 1.7602565078e+00 -3.0488537059e+00 1.7602565078e+00 3.0488537059e+00 
27900 6.0711116379e+00 5.4102395402e-05 1.7602565078e+00 -3.0488537059e+00 1.7602565078e+00 3.0488537059e+00 
28000 6.0711118260e+00 7.7235672778e-05 1.7602565078e+00 -3.0488537059e+00 1.7602565078e+00 3.0488537059e+00 
28100 6.0711120067e+00 9.8226867619e-05 1.7602543139e+00 -3.0488499060e+00 1.7602543139e+00 3.0488499060e+00 
28200 6.0711121801e+00 1.1854166337e-04 1.7602515238e+00 -3.0488450733e+00 1.7602515238e+00 3.0488450733e+00 
28300 6.0711123460e+00 1.3816275456e-04 1.7602481566e+00 -3.0488392412e+00 1.7602481566e+00 3.0488392412e+00 
28400 6.0711125043e+00 1.5707464215e-04 1.7602442321e+00 -3.0488324437e+00 1.7602442321e+00 3.0488324437e+00 
28500 6.0711126551e+00 1.7526360449e-04 1.7602397704e+00 -3.0488247158e+00 1.7602397704e+00 3.0488247158e+00 
28600 6.0711127983e+00 1.9271766576e-04 1.7602347920e+00 -3.0488160929e+00 1.7602347920e+00 3.0488160929e+00 
28700 6.0711129339e+00 2.0942656249e-04 1.7602293178e+00 -3.0488066113e+00 1.7602293178e+00 3.0488066113e+00 
28800 6.0711130622e+00 2.2538170789e-04 1.7602233689e+00 -3.0487963076e+00 1.7602233689e+00 3.0487963076e+00 
28900 6.0711131831e+00 2.4057615430e-04 1.7602169668e+00 -3.0487852189e+00 1.7602169668e+00 3.0487852189e+00 
29000 6.0711132968e+00 2.5500455392e-04 1.7602101331e+00 -3.0487733826e+00 1.7602101331e+00 3.0487733826e+00 
29100 6.0711134036e+00 2.6866311785e-04 1.7602028896e+00 -3.0487608364e+00 1.7602028896e+00 3.0487608364e+00 
29200 6.0711135036e+00 2.8154957359e-04 1.7601952580e+00 -3.0487476181e+00 1.7601952580e+00 3.0487476181e+00 
29300 6.0711135970e+00 2.9366312117e-04 1.7601872603e+00 -3.0487337657e+00 1.7601872603e+00 3.0487337657e+00 
29400 6.0711136842e+00 3.0500438801e-04 1.7601789185e+00 -3.0487193172e+00 1.7601789185e+00 3.0487193172e+00 
29500 6.0711137653e+00 3.1557538259e-04 1.7601702545e+00 -3.0487043107e+00 1.7601702545e+00 3.0487043107e+00 
29600 6.0711138406e+00 3.2537944717e-04 1.7601612901e+00 -3.0486887841e+00 1.7601612901e+00 3.0486887841e+00 
29700 6.0711139105e+00 3.3442120948e-04 1.7601520473e+00 -3.0486727749e+00 1.7601520473e+00 3.0486727749e+00 
29800 6.0711139752e+00 3.4270653372e-04 1.7601425475e+00 -3.0486563208e+00 1.7601425475e+00 3.0486563208e+00 
29900 6.0711140351e+00 3.5024247085e-04 1.7601328123e+00 -3.0486394590e+00 1.7601328123e+00 3.0486394590e+00 
30000 6.0711140904e+00 3.5703720827e-04 1.7601228630e+00 -3.0486222263e+00 1.7601228630e+00 3.0486222263e+00 
30100 6.0711141415e+00 3.6310001913e-04 1.7601127206e+00 -3.0486046592e+00 1.7601127206e+00 3.0486046592e+00 
30200 6.0711141887e+00 3.6844121121e-04 1.7601024059e+00 -3.0485867936e+00 1.7601024059e+00 3.0485867936e+00 
30300 6.0711142324e+00 3.7307207560e-04 1.7600919395e+00 -3.0485686652e+00 1.7600919395e+00 3.0485686652e+00 
30400 6.0711142727e+00 3.7700483523e-04 1.7600813414e+00 -3.0485503088e+00 1.7600813414e+00 3.0485503088e+00 
30500 6.0711143101e+00 3.8025259335e-04 1.7600706316e+00 -3.0485317588e+00 1.7600706316e+00 3.0485317588e+00 
30600 6.0711143448e+00 3.8282928207e-04 1.7600598294e+00 -3.0485130488e+00 1.7600598294e+00 3.0485130488e+00 
30700 6.0711143771e+00 3.8474961102e-04 1.7600489539e+00 -3.0484942120e+00 1.7600489539e+00 3.0484942120e+00 
30800 6.0711144073e+00 3.8602901631e-04 1.7600380238e+00 -3.0484752806e+00 1.7600380238e+00 3.0484752806e+00 
30900 6.0711144357e+00 3.8668360973e-04 1.7600270574e+00 -3.0484562860e+00 1.7600270574e+00 3.0484562860e+00 
31000 6.0711144626e+00 3.8673012839e-04 1.7600160722e+00 -3.0484372592e+00 1.7600160722e+00 3.0484372592e+00 
31100 6.0711144881e+00 3.8618588485e-04 1.7600050857e+00 -3.0484182300e+00 1.7600050857e+00 3.0484182300e+00 
31200 6.0711145125e+00 3.8506871778e-04 1.7599941145e+00 -3.0483992274e+00 1.7599941145e+00 3.0483992274e+00 
31300 6.0711145361e+00 3.8339694330e-04 1.7599831750e+00 -3.0483802796e+00 1.7599831750e+00 3.0483802796e+00 
31400 6.0711145590e+00 3.8118930690e-04 1.7599722830e+00 -3.0483614141e+00 1.7599722830e+00 3.0483614141e+00 
31500 6.0711145814e+00 3.7846493631e-04 1.7599614536e+00 -3.0483426570e+00 1.7599614536e+00 3.0483426570e+00 
31600 6.0711146036e+00 3.7524329499e-04 1.7599507015e+00 -3.0483240339e+00 1.7599507015e+00 3.0483240339e+00 
31700 6.0711146256e+00 3.7154413665e-04 1.7599400409e+00 -3.0483055691e+00 1.7599400409e+00 3.0483055691e+00 
31800 6.0711146476e+00 3.6738746063e-04 1.7599294853e+00 -3.0482872863e+00 1.7599294853e+00 3.0482872863e+00 
31900 6.0711146698e+00 3.6279346827e-04 1.7599190478e+00 -3.0482692080e+00 1.7599190478e+00 3.0482692080e+00 
32000 6.0711146922e+00 3.5778252039e-04 1.7599087407e+00 -3.0482513556e+00 1.7599087407e+00 3.0482513556e+00 
32100 6.0711147150e+00 3.5237509570e-04 1.7598985759e+00 -3.0482337496e+00 1.7598985759e+00 3.0482337496e+00 
32200 6.0711147382e+00 3.4659175048e-04 1.7598885647e+00 -3.0482164097e+00 1.7598885647e+00 3.0482164097e+00 
32300 6.0711147620e+00 3.4045307930e-04 1.7598787177e+00 -3.0481993542e+00 1.7598787177e+00 3.0481993542e+00 
32400 6.0711147863e+00 3.3397967702e-04 1.7598690451e+00 -3.0481826007e+00 1.7598690451e+00 3.0481826007e+00 
32500 6.0711148112e+00 3.2719210190e-04 1.7598595563e+00 -3.0481661657e+00 1.7598595563e+00 3.0481661657e+00 
32600 6.0711148368e+00 3.2011084007e-04 1.7598502604e+00 -3.0481500647e+00 1.7598502604e+00 3.0481500647e+00 
32700 6.0711148630e+00 3.1275627115e-04 1.7598411655e+00 -3.0481343120e+00 1.7598411655e+00 3.0481343120e+00 
32800 6.0711148899e+00 3.0514863529e-04 1.7598322796e+00 -3.0481189211e+00 1.7598322796e+00 3.0481189211e+00 
32900 6.0711149176e+00 2.9730800139e-04 1.7598236098e+00 -3.0481039045e+00 1.7598236098e+00 3.0481039045e+00 
33000 6.0711149459e+00 2.8925423673e-04 1.7598151627e+00 -3.0480892738e+00 1.7598151627e+00 3.0480892738e+00 
33100 6.0711149748e+00 2.8100697787e-04 1.7598069444e+00 -3.0480750392e+00 1.7598069444e+00 3.0480750392e+00 
33200 6.0711150044e+00 2.7258560296e-04 1.7597989604e+00 -3.0480612105e+00 1.7597989604e+00 3.0480612105e+00 
33300 6.0711150346e+00 2.6400920532e-04 1.7597912156e+00 -3.0480477961e+00 1.7597912156e+00 3.0480477961e+00 
33400 6.0711150654e+00 2.5529656844e-04 1.7597837145e+00 -3.0480348038e+00 1.7597837145e+00 3.0480348038e+00 
33500 6.0711150967e+00 2.4646614228e-04 1.7597764608e+00 -3.0480222401e+00 1.7597764608e+00 3.0480222401e+00 
33600 6.0711151285e+00 2.3753602098e-04 1.7597694581e+00 -3.0480101110e+00 1.7597694581e+00 3.0480101110e+00 
33700 6.0711151607e+00 2.2852392182e-04 1.7597627090e+00 -3.0479984212e+00 1.7597627090e+00 3.0479984212e+00 
33800 6.0711151933e+00 2.1944716567e-04 1.7597562160e+00 -3.0479871750e+00 1.7597562160e+00 3.0479871750e+00 
33900 6.0711152261e+00 2.1032265860e-04 1.7597499808e+00 -3.0479763754e+00 1.7597499808e+00 3.0479763754e+00 
34000 6.0711152593e+00 2.0116687494e-04 1.7597440049e+00 -3.0479660248e+00 1.7597440049e+00 3.0479660248e+00 
34100 6.0711152926e+00 1.9199584162e-04 1.7597382891e+00 -3.0479561247e+00 1.7597382891e+00 3.0479561247e+00 
34200 6.0711153260e+00 1.8282512376e-04 1.7597328339e+00 -3.0479466760e+00 1.7597328339e+00 3.0479466760e+00 
34300 6.0711153595e+00 1.7366981159e-04 1.7597276392e+00 -3.0479376785e+00 1.7597276392e+00 3.0479376785e+00 
34400 6.0711153930e+00 1.6454450863e-04 1.7597227046e+00 -3.0479291316e+00 1.7597227046e+00 3.0479291316e+00 
34500 6.0711154265e+00 1.5546332105e-04 1.7597180293e+00 -3.0479210338e+00 1.7597180293e+00 3.0479210338e+00 
34600 6.0711154598e+00 1.4643984836e-04 1.7597136120e+00 -3.0479133828e+00 1.7597136120e+00 3.0479133828e+00 
34700 6.0711154929e+00 1.3748717517e-04 1.7597094511e+00 -3.0479061759e+00 1.7597094511e+00 3.0479061759e+00 
34800 6.0711155258e+00 1.2861786422e-04 1.7597055446e+00 -3.0478994096e+00 1.7597055446e+00 3.0478994096e+00 
34900 6.0711155584e+00 1.1984395052e-04 1.7597018901e+00 -3.0478930798e+00 1.7597018901e+00 3.0478930798e+00 
35000 6.0711155907e+00 1.1117693665e-04 1.7596984849e+00 -3.0478871818e+00 1.7596984849e+00 3.0478871818e+00 
35100 6.0711156225e+00 1.0262778904e-04 1.7596953259e+00 -3.0478817103e+00 1.7596953259e+00 3.0478817103e+00 
35200 6.0711156540e+00 9.4206935493e-05 1.7596924098e+00 -3.0478766595e+00 1.7596924098e+00 3.0478766595e+00 
35300 6.0711156849e+00 8.5924263575e-05 1.7596897330e+00 -3.0478720231e+00 1.7596897330e+00 3.0478720231e+00 
35400 6.0711157154e+00 7.7789120121e-05 1.7596872916e+00 -3.0478677944e+00 1.7596872916e+00 3.0478677944e+00 
35500 6.0711157452e+00 6.9810311666e-05 1.7596850812e+00 -3.0478639660e+00 1.7596850812e+00 3.0478639660e+00 
35600 6.0711157747e+00 6.3876119647e-05 1.7596850812e+00 -3.0478639660e+00 1.7596850812e+00 3.0478639660e+00 
35700 6.0711158034e+00 5.7915367616e-05 1.7596850812e+00 -3.0478639660e+00 1.7596850812e+00 3.0478639660e+00 
35800 6.0711158315e+00 5.1938877938e-05 1.7596850812e+00 -3.0478639660e+00 1.7596850812e+00 3.0478639660e+00 
35900 6.0711158589e+00 4.5957110608e-05 1.7596850812e+00 -3.0478639660e+00 1.7596850812e+00 3.0478639660e+00 
36000 6.0711158855e+00 3.9980158834e-05 1.7596850812e+00 -3.0478639660e+00 1.7596850812e+00 3.0478639660e+00 
36100 6.0711159115e+00 3.4017745384e-05 1.7596850812e+00 -3.0478639660e+00 1.7596850812e+00 3.0478639660e+00 
36200 6.0711159367e+00 2.8079219665e-05 1.7596850812e+00 -3.0478639660e+00 1.7596850812e+00 3.0478639660e+00 
36300 6.0711159612e+00 2.2173555529e-05 1.7596850812e+00 -3.0478639660e+00 1.7596850812e+00 3.0478639660e+00 
36400 6.0711159850e+00 1.6309349764e-05 1.7596850812e+00 -3.0478639660e+00 1.7596850812e+00 3.0478639660e+00 
36500 6.0711160081e+00 1.0494821264e-05 1.7596850812e+00 -3.0478639660e+00 1.7596850812e+00 3.0478639660e+00 
36600 6.0711160304e+00 4.7378108558e-06 1.7596850812e+00 -3.0478639660e+00 1.7596850812e+00 3.0478639660e+00 
36700 6.0711160521e+00 -9.5421825098e-07 1.7596850812e+00 -3.0478639660e+00 1.7596850812e+00 3.0478639660e+00 
36800 6.0711160731e+00 -6.5741793945e-06 1.7596850812e+00 -3.0478639660e+00 1.7596850812e+00 3.0478639660e+00 
36900 6.0711160935e+00 -1.2115360818e-05 1.7596850812e+00 -3.0478639660e+00 1.7596850812e+00 3.0478639660e+00 
37000 6.0711161132e+00 -1.7571423453e-05 1.7596850812e+00 -3.0478639660e+00 1.7596850812e+00 3.0478639660e+00 
37100 6.0711161322e+00 -2.2936398160e-05 1.7596850812e+00 -3.0478639660e+00 1.7596850812e+00 3.0478639660e+00 
37200 6.0711161507e+00 -2.8204682473e-05 1.7596850812e+00 -3.0478639660e+00 1.7596850812e+00 3.0478639660e+00 
37300 6.0711161686e+00 -3.3371036819e-05 1.7596850812e+00 -3.0478639660e+00 1.7596850812e+00 3.0478639660e+00 
37400 6.0711161859e+00 -3.8430580293e-05 1.7596850812e+00 -3.0478639660e+00 1.7596850812e+00 3.0478639660e+00 
37500 6.0711162026e+00 -4.3378785971e-05 1.7596850812e+00 -3.0478639660e+00 1.7596850812e+00 3.0478639660e+00 
37600 6.0711162189e+00 -4.8211475804e-05 1.7596850812e+00 -3.0478639660e+00 1.7596850812e+00 3.0478639660e+00 
37700 6.0711162346e+00 -5.2924815111e-05 1.7596850812e+00 -3.0478639660e+00 1.7596850812e+00 3.0478639660e+00 
37800 6.0711162498e+00 -5.7515306691e-05 1.7596850812e+00 -3.0478639660e+00 1.7596850812e+00 3.0478639660e+00 
37900 6.0711162646e+00 -6.1979784585e-05 1.7596850812e+00 -3.0478639660e+00 1.7596850812e+00 3.0478639660e+00 
38000 6.0711162790e+00 -6.6315407502e-05 1.7596850812e+00 -3.0478639660e+00 1.7596850812e+00 3.0478639660e+00 
38100 6.0711162929e+00 -7.0519651933e-05 1.7596850812e+00 -3.0478639660e+00 1.7596850812e+00 3.0478639660e+00 
38200 6.0711163065e+00 -7.4590304987e-05 1.7596850812e+00 -3.0478639660e+00 1.7596850812e+00 3.0478639660e+00 
38300 6.0711163195e+00 -7.6516925680e-05 1.7596872007e+00 -3.0478676370e+00 1.7596872007e+00 3.0478676370e+00 
38400 6.0711163321e+00 -7.8242226659e-05 1.7596893748e+00 -3.0478714027e+00 1.7596893748e+00 3.0478714027e+00 
38500 6.0711163444e+00 -7.9769687176e-05 1.7596915980e+00 -3.0478752534e+00 1.7596915980e+00 3.0478752534e+00 
38600 6.0711163563e+00 -8.1103024153e-05 1.7596938646e+00 -3.0478791792e+00 1.7596938646e+00 3.0478791792e+00 
38700 6.0711163680e+00 -8.2246177950e-05 1.7596961691e+00 -3.0478831707e+00 1.7596961691e+00 3.0478831707e+00 
38800 6.0711163794e+00 -8.3203298190e-05 1.7596985060e+00 -3.0478872184e+00 1.7596985060e+00 3.0478872184e+00 
38900 6.0711163905e+00 -8.3978729676e-05 1.7597008701e+00 -3.0478913132e+00 1.7597008701e+00 3.0478913132e+00 
39000 6.0711164014e+00 -8.4576998406e-05 1.7597032563e+00 -3.0478954462e+00 1.7597032563e+00 3.0478954462e+00 
39100 6.0711164120e+00 -8.5002797748e-05 1.7597056595e+00 -3.0478996086e+00 1.7597056595e+00 3.0478996086e+00 
39200 6.0711164225e+00 -8.5260974725e-05 1.7597080747e+00 -3.0479037919e+00 1.7597080747e+00 3.0479037919e+00 
39300 6.0711164328e+00 -8.5356516503e-05 1.7597104973e+00 -3.0479079880e+00 1.7597104973e+00 3.0479079880e+00 
39400 6.0711164429e+00 -8.5294537051e-05 1.7597129226e+00 -3.0479121887e+00 1.7597129226e+00 3.0479121887e+00 
39500 6.0711164529e+00 -8.5080264000e-05 1.7597153461e+00 -3.0479163864e+00 1.7597153461e+00 3.0479163864e+00 
39600 6.0711164627e+00 -8.4719025740e-05 1.7597177636e+00 -3.0479205735e+00 1.7597177636e+00 3.0479205735e+00 
39700 6.0711164724e+00 -8.4216238749e-05 1.7597201708e+00 -3.0479247429e+00 1.7597201708e+00 3.0479247429e+00 
39800 6.0711164820e+00 -8.3577395158e-05 1.7597225637e+00 -3.0479288875e+00 1.7597225637e+00 3.0479288875e+00 
39900 6.0711164915e+00 -8.2808050598e-05 1.7597249384e+00 -3.0479330006e+00 1.7597249384e+00 3.0479330006e+00 
40000 6.0711165009e+00 -8.1913812318e-05 1.7597272913e+00 -3.0479370759e+00 1.7597272913e+00 3.0479370759e+00 
40100 6.0711165102e+00 -8.0900327599e-05 1.7597296187e+00 -3.0479411072e+00 1.7597296187e+00 3.0479411072e+00 
40200 6.0711165195e+00 -7.9773272463e-05 1.7597319174e+00 -3.0479450886e+00 1.7597319174e+00 3.0479450886e+00 
40300 6.0711165287e+00 -7.8538340682e-05 1.7597341840e+00 -3.0479490145e+00 1.7597341840e+00 3.0479490145e+00 
40400 6.0711165378e+00 -7.7201233143e-05 1.7597364155e+00 -3.0479528797e+00 1.7597364155e+00 3.0479528797e+00 
40500 6.0711165468e+00 -7.5767647496e-05 1.7597386091e+00 -3.0479566790e+00 1.7597386091e+00 3.0479566790e+00 
40600 6.0711165558e+00 -7.4243268179e-05 1.7597407619e+00 -3.0479604078e+00 1.7597407619e+00 3.0479604078e+00 
40700 6.0711165648e+00 -7.2633756761e-05 1.7597428714e+00 -3.0479640615e+00 1.7597428714e+00 3.0479640615e+00 
40800 6.0711165737e+00 -7.0944742640e-05 1.7597449352e+00 -3.0479676361e+00 1.7597449352e+00 3.0479676361e+00 
40900 6.0711165825e+00 -6.9181814109e-05 1.7597469509e+00 -3.0479711275e+00 1.7597469509e+00 3.0479711275e+00 
41000 6.0711165915e+00 -6.9213164962e-05 1.7597469509e+00 -3.0479711275e+00 1.7597469509e+00 3.0479711275e+00 
41100 6.0711166003e+00 -6.9143762855e-05 1.7597469509e+00 -3.0479711275e+00 1.7597469509e+00 3.0479711275e+00 
41200 6.0711166092e+00 -6.8977302295e-05 1.7597469509e+00 -3.0479711275e+00 1.7597469509e+00 3.0479711275e+00 
41300 6.0711166179e+00 -6.8717508052e-05 1.7597469509e+00 -3.0479711275e+00 1.7597469509e+00 3.0479711275e+00 
41400 6.0711166266e+00 -6.8368127794e-05 1.7597469509e+00 -3.0479711275e+00 1.7597469509e+00 3.0479711275e+00 
41500 6.0711166353e+00 -6.7932924947e-05 1.7597469509e+00 -3.0479711275e+00 1.7597469509e+00 3.0479711275e+00 
41600 6.0711166438e+00 -6.7415671775e-05 1.7597469509e+00 -3.0479711275e+00 1.7597469509e+00 3.0479711275e+00 
41700 6.0711166523e+00 -6.6820142690e-05 1.7597469509e+00 -3.0479711275e+00 1.7597469509e+00 3.0479711275e+00 
41800 6.0711166607e+00 -6.6150107792e-05 1.7597469509e+00 -3.0479711275e+00 1.7597469509e+00 3.0479711275e+00 
41900 6.0711166691e+00 -6.5409326649e-05 1.7597469509e+00 -3.0479711275e+00 1.7597469509e+00 3.0479711275e+00 
42000 6.0711166773e+00 -6.4601542311e-05 1.7597469509e+00 -3.0479711275e+00 1.7597469509e+00 3.0479711275e+00 
42100 6.0711166855e+00 -6.3730475570e-05 1.7597469509e+00 -3.0479711275e+00 1.7597469509e+00 3.0479711275e+00 
42200 6.0711166935e+00 -6.2799819446e-05 1.7597469509e+00 -3.0479711275e+00 1.7597469509e+00 3.0479711275e+00 
42300 6.0711167015e+00 -6.1813233939e-05 1.7597469509e+00 -3.0479711275e+00 1.7597469509e+00 3.0479711275e+00 
42400 6.0711167094e+00 -6.0774340995e-05 1.7597469509e+00 -3.0479711275e+00 1.7597469509e+00 3.0479711275e+00 
42500 6.0711167172e+00 -5.9686719744e-05 1.7597469509e+00 -3.0479711275e+00 1.7597469509e+00 3.0479711275e+00 
42600 6.0711167249e+00 -5.8553901951e-05 1.7597469509e+00 -3.0479711275e+00 1.7597469509e+00 3.0479711275e+00 
42700 6.0711167325e+00 -5.7379367736e-05 1.7597469509e+00 -3.0479711275e+00 1.7597469509e+00 3.0479711275e+00 
42800 6.0711167399e+00 -5.6166541515e-05 1.7597469509e+00 -3.0479711275e+00 1.7597469509e+00 3.0479711275e+00 
42900 6.0711167473e+00 -5.4918788187e-05 1.7597469509e+00 -3.0479711275e+00 1.7597469509e+00 3.0479711275e+00 
43000 6.0711167546e+00 -5.3639409560e-05 1.7597469509e+00 -3.0479711275e+00 1.7597469509e+00 3.0479711275e+00 
43100 6.0711167617e+00 -5.2331641006e-05 1.7597469509e+00 -3.0479711275e+00 1.7597469509e+00 3.0479711275e+00 
43200 6.0711167688e+00 -5.0998648355e-05 1.7597469509e+00 -3.0479711275e+00 1.7597469509e+00 3.0479711275e+00 
43300 6.0711167757e+00 -4.9643525008e-05 1.7597469509e+00 -3.0479711275e+00 1.7597469509e+00 3.0479711275e+00 
43400 6.0711167825e+00 -4.8269289293e-05 1.7597469509e+00 -3.0479711275e+00 1.7597469509e+00 3.0479711275e+00 
43500 6.0711167892e+00 -4.6878882026e-05 1.7597469509e+00 -3.0479711275e+00 1.7597469509e+00 3.0479711275e+00 
43600 6.0711167958e+00 -4.5475164296e-05 1.7597469509e+00 -3.0479711275e+00 1.7597469509e+00 3.0479711275e+00 
43700 6.0711168022e+00 -4.4060915476e-05 1.7597469509e+00 -3.0479711275e+00 1.7597469509e+00 3.0479711275e+00 
43800 6.0711168086e+00 -4.2638831431e-05 1.7597469509e+00 -3.0479711275e+00 1.7597469509e+00 3.0479711275e+00 
43900 6.0711168148e+00 -4.1211522939e-05 1.7597469509e+00 -3.0479711275e+00 1.7597469509e+00 3.0479711275e+00 
44000 6.0711168209e+00 -3.9781514306e-05 1.7597469509e+00 -3.0479711275e+00 1.7597469509e+00 3.0479711275e+00 
44100 6.0711168270e+00 -3.8351242198e-05 1.7597469509e+00 -3.0479711275e+00 1.7597469509e+00 3.0479711275e+00 
44200 6.0711168329e+00 -3.6923054639e-05 1.7597469509e+00 -3.0479711275e+00 1.7597469509e+00 3.0479711275e+00 
44300 6.0711168386e+00 -3.5499210215e-05 1.7597469509e+00 -3.0479711275e+00 1.7597469509e+00 3.0479711275e+00 
44400 6.0711168443e+00 -3.4081877449e-05 1.7597469509e+00 -3.0479711275e+00 1.7597469509e+00 3.0479711275e+00 
44500 6.0711168499e+00 -3.2673134357e-05 1.7597469509e+00 -3.0479711275e+00 1.7597469509e+00 3.0479711275e+00 
44600 6.0711168553e+00 -3.1274968178e-05 1.7597469509e+00 -3.0479711275e+00 1.7597469509e+00 3.0479711275e+00 
44700 6.0711168607e+00 -2.9889275262e-05 1.7597469509e+00 -3.0479711275e+00 1.7597469509e+00 3.0479711275e+00 
44800 6.0711168659e+00 -2.8517861117e-05 1.7597469509e+00 -3.0479711275e+00 1.7597469509e+00 3.0479711275e+00 
44900 6.0711168711e+00 -2.7162440622e-05 1.7597469509e+00 -3.0479711275e+00 1.7597469509e+00 3.0479711275e+00 
45000 6.0711168761e+00 -2.5824638370e-05 1.7597469509e+00 -3.0479711275e+00 1.7597469509e+00 3.0479711275e+00 
45100 6.0711168811e+00 -2.4505989167e-05 1.7597469509e+00 -3.0479711275e+00 1.7597469509e+00 3.0479711275e+00 
45200 6.0711168860e+00 -2.3207938665e-05 1.7597469509e+00 -3.0479711275e+00 1.7597469509e+00 3.0479711275e+00 
45300 6.0711168907e+00 -2.1931844115e-05 1.7597469509e+00 -3.0479711275e+00 1.7597469509e+00 3.0479711275e+00 
45400 6.0711168954e+00 -2.0678975259e-05 1.7597469509e+00 -3.0479711275e+00 1.7597469509e+00 3.0479711275e+00 
45500 6.0711169000e+00 -1.9450515325e-05 1.7597469509e+00 -3.0479711275e+00 1.7597469509e+00 3.0479711275e+00 
45600 6.0711169045e+00 -1.8247562151e-05 1.7597469509e+00 -3.0479711275e+00 1.7597469509e+00 3.0479711275e+00 
45700 6.0711169089e+00 -1.7071129398e-05 1.7597469509e+00 -3.0479711275e+00 1.7597469509e+00 3.0479711275e+00 
45800 6.0711169132e+00 -1.5922147879e-05 1.7597469509e+00 -3.0479711275e+00 1.7597469509e+00 3.0479711275e+00 
45900 6.0711169174e+00 -1.4801466974e-05 1.7597469509e+00 -3.0479711275e+00 1.7597469509e+00 3.0479711275e+00 
46000 6.0711169216e+00 -1.3709856130e-05 1.7597469509e+00 -3.0479711275e+00 1.7597469509e+00 3.0479711275e+00 
46100 6.0711169257e+00 -1.2648006458e-05 1.7597469509e+00 -3.0479711275e+00 1.7597469509e+00 3.0479711275e+00 
46200 6.0711169297e+00 -1.1616532394e-05 1.7597469509e+00 -3.0479711275e+00 1.7597469509e+00 3.0479711275e+00 
46300 6.0711169337e+00 -1.0615973434e-05 1.7597469509e+00 -3.0479711275e+00 1.7597469509e+00 3.0479711275e+00 
46400 6.0711169376e+00 -9.6467959439e-06 1.7597469509e+00 -3.0479711275e+00 1.7597469509e+00 3.0479711275e+00 
46500 6.0711169414e+00 -8.7093950257e-06 1.7597469509e+00 -3.0479711275e+00 1.7597469509e+00 3.0479711275e+00 
46600 6.0711169451e+00 -7.8040964250e-06 1.7597469509e+00 -3.0479711275e+00 1.7597469509e+00 3.0479711275e+00 
46700 6.0711169488e+00 -6.9311585122e-06 1.7597469509e+00 -3.0479711275e+00 1.7597469509e+00 3.0479711275e+00 
46800 6.0711169524e+00 -6.0907742978e-06 1.7597469509e+00 -3.0479711275e+00 1.7597469509e+00 3.0479711275e+00 
46900 6.0711169560e+00 -5.2830734759e-06 1.7597469509e+00 -3.0479711275e+00 1.7597469509e+00 3.0479711275e+00 
47000 6.0711169595e+00 -4.5081245254e-06 1.7597469509e+00 -3.0479711275e+00 1.7597469509e+00 3.0479711275e+00 
47100 6.0711169630e+00 -3.7659368232e-06 1.7597469509e+00 -3.0479711275e+00 1.7597469509e+00 3.0479711275e+00 
47200 6.0711169664e+00 -3.0564627902e-06 1.7597469509e+00 -3.0479711275e+00 1.7597469509e+00 3.0479711275e+00 
47300 6.0711169697e+00 -2.3796000561e-06 1.7597469509e+00 -3.0479711275e+00 1.7597469509e+00 3.0479711275e+00 
47400 6.0711169730e+00 -1.7351936415e-06 1.7597469509e+00 -3.0479711275e+00 1.7597469509e+00 3.0479711275e+00 
47500 6.0711169763e+00 -1.1230381507e-06 1.7597469509e+00 -3.0479711275e+00 1.7597469509e+00 3.0479711275e+00 
47600 6.0711169795e+00 -5.4287997207e-07 1.7597469509e+00 -3.0479711275e+00 1.7597469509e+00 3.0479711275e+00 
47700 6.0711169826e+00 5.5805141298e-09 1.7597469509e+00 -3.0479711275e+00 1.7597469509e+00 3.0479711275e+00 
47800 6.0711169858e+00 5.2268673735e-07 1.7597469509e+00 -3.0479711275e+00 1.7597469509e+00 3.0479711275e+00 
47900 6.0711169888e+00 1.0088237320e-06 1.7597469509e+00 -3.0479711275e+00 1.7597469509e+00 3.0479711275e+00 
48000 6.0711169918e+00 1.4644159490e-06 1.7597469509e+00 -3.0479711275e+00 1.7597469509e+00 3.0479711275e+00 
48100 6.0711169948e+00 1.8899250675e-06 1.7597469509e+00 -3.0479711275e+00 1.7597469509e+00 3.0479711275e+00 
48200 6.0711169978e+00 2.2858478390e-06 1.7597469509e+00 -3.0479711275e+00 1.7597469509e+00 3.0479711275e+00 
48300 6.0711170007e+00 2.6527139301e-06 1.7597469509e+00 -3.0479711275e+00 1.7597469509e+00 3.0479711275e+00 
48400 6.0711170035e+00 2.9910837982e-06 1.7597469509e+00 -3.0479711275e+00 1.7597469509e+00 3.0479711275e+00 
48500 6.0711170063e+00 3.3015465901e-06 1.7597469509e+00 -3.0479711275e+00 1.7597469509e+00 3.0479711275e+00 
48600 6.0711170091e+00 3.5847180605e-06 1.7597469509e+00 -3.0479711275e+00 1.7597469509e+00 3.0479711275e+00 
48700 6.0711170119e+00 3.8412385239e-06 1.7597469509e+00 -3.0479711275e+00 1.7597469509e+00 3.0479711275e+00 
48800 6.0711170146e+00 4.0717708452e-06 1.7597469509e+00 -3.0479711275e+00 1.7597469509e+00 3.0479711275e+00 
48900 6.0711170172e+00 4.2769984479e-06 1.7597469509e+00 -3.0479711275e+00 1.7597469509e+00 3.0479711275e+00 
49000 6.0711170199e+00 4.4576233747e-06 1.7597469509e+00 -3.0479711275e+00 1.7597469509e+00 3.0479711275e+00 
49100 6.0711170225e+00 4.6143643780e-06 1.7597469509e+00 -3.0479711275e+00 1.7597469509e+00 3.0479711275e+00 
49200 6.0711170251e+00 4.7479550525e-06 1.7597469509e+00 -3.0479711275e+00 1.7597469509e+00 3.0479711275e+00 
49300 6.0711170276e+00 4.8591420087e-06 1.7597469509e+00 -3.0479711275e+00 1.7597469509e+00 3.0479711275e+00 
49400 6.0711170301e+00 4.9486830951e-06 1.7597469509e+00 -3.0479711275e+00 1.7597469509e+00 3.0479711275e+00 
49500 6.0711170326e+00 5.0173456514e-06 1.7597469509e+00 -3.0479711275e+00 1.7597469509e+00 3.0479711275e+00 
49600 6.0711170350e+00 5.0659048347e-06 1.7597469509e+00 -3.0479711275e+00 1.7597469509e+00 3.0479711275e+00 
49700 6.0711170374e+00 5.0951419619e-06 1.7597469509e+00 -3.0479711275e+00 1.7597469509e+00 3.0479711275e+00 
49800 6.0711170398e+00 5.1058429226e-06 1.7597469509e+00 -3.0479711275e+00 1.7597469509e+00 3.0479711275e+00 
49900 6.0711170421e+00 5.0987966384e-06 1.7597469509e+00 -3.0479711275e+00 1.7597469509e+00 3.0479711275e+00 
50000 6.0711170444e+00 5.0747935644e-06 1.7597469509e+00 -3.0479711275e+00 1.7597469509e+00 3.0479711275e+00 
50100 6.0711170467e+00 5.0346242518e-06 1.7597469509e+00 -3.0479711275e+00 1.7597469509e+00 3.0479711275e+00 
50200 6.0711170489e+00 4.9790779566e-06 1.7597469509e+00 -3.0479711275e+00 1.7597469509e+00 3.0479711275e+00 
50300 6.0711170511e+00 4.9089413048e-06 1.7597469509e+00 -3.0479711275e+00 1.7597469509e+00 3.0479711275e+00 
50400 6.0711170533e+00 4.8249970109e-06 1.7597469509e+00 -3.0479711275e+00 1.7597469509e+00 3.0479711275e+00 
50500 6.0711170554e+00 4.7280226418e-06 1.7597469509e+00 -3.0479711275e+00 1.7597469509e+00 3.0479711275e+00 
50600 6.0711170576e+00 4.6187894480e-06 1.7597469509e+00 -3.0479711275e+00 1.7597469509e+00 3.0479711275e+00 
50700 6.0711170597e+00 4.4980612354e-06 1.7597469509e+00 -3.0479711275e+00 1.7597469509e+00 3.0479711275e+00 
50800 6.0711170617e+00 4.3665932991e-06 1.7597469509e+00 -3.0479711275e+00 1.7597469509e+00 3.0479711275e+00 
50900 6.0711170637e+00 4.2251314094e-06 1.7597469509e+00 -3.0479711275e+00 1.7597469509e+00 3.0479711275e+00 
51000 6.0711170657e+00 4.0744108461e-06 1.7597469509e+00 -3.0479711275e+00 1.7597469509e+00 3.0479711275e+00 
51100 6.0711170677e+00 3.9151554972e-06 1.7597469509e+00 -3.0479711275e+00 1.7597469509e+00 3.0479711275e+00 
51200 6.0711170697e+00 3.7480769911e-06 1.7597469509e+00 -3.0479711275e+00 1.7597469509e+00 3.0479711275e+00 
51300 6.0711170716e+00 3.5738739104e-06 1.7597469509e+00 -3.0479711275e+00 1.7597469509e+00 3.0479711275e+00 
51400 6.0711170735e+00 3.3932310261e-06 1.7597469509e+00 -3.0479711275e+00 1.7597469509e+00 3.0479711275e+00 
51500 6.0711170753e+00 3.2068186042e-06 1.7597469509e+00 -3.0479711275e+00 1.7597469509e+00 3.0479711275e+00 
51600 6.0711170771e+00 3.0152917565e-06 1.7597469509e+00 -3.0479711275e+00 1.7597469509e+00 3.0479711275e+00 
51700 6.0711170789e+00 2.8192898410e-06 1.7597469509e+00 -3.0479711275e+00 1.7597469509e+00 3.0479711275e+00 
51800 6.0711170807e+00 2.6194359128e-06 1.7597469509e+00 -3.0479711275e+00 1.7597469509e+00 3.0479711275e+00 
51900 6.0711170825e+00 2.4163362212e-06 1.7597469509e+00 -3.0479711275e+00 1.7597469509e+00 3.0479711275e+00 
52000 6.0711170842e+00 2.2105797590e-06 1.7597469509e+00 -3.0479711275e+00 1.7597469509e+00 3.0479711275e+00 
52100 6.0711170859e+00 2.0027378537e-06 1.7597469509e+00 -3.0479711275e+00 1.7597469509e+00 3.0479711275e+00 
52200 6.0711170876e+00 1.7933638048e-06 1.7597469509e+00 -3.0479711275e+00 1.7597469509e+00 3.0479711275e+00 
52300 6.0711170892e+00 1.5829925691e-06 1.7597469509e+00 -3.0479711275e+00 1.7597469509e+00 3.0479711275e+00 
52400 6.0711170908e+00 1.3721404905e-06 1.7597469509e+00 -3.0479711275e+00 1.7597469509e+00 3.0479711275e+00 
52500 6.0711170924e+00 1.1613050627e-06 1.7597469509e+00 -3.0479711275e+00 1.7597469509e+00 3.0479711275e+00 
52600 6.0711170940e+00 9.5096474563e-07 1.7597469509e+00 -3.0479711275e+00 1.7597469509e+00 3.0479711275e+00 
52700 6.0711170955e+00 7.4157881536e-07 1.7597469509e+00 -3.0479711275e+00 1.7597469509e+00 3.0479711275e+00 
52800 6.0711170971e+00 5.3358725341e-07 1.7597469509e+00 -3.0479711275e+00 1.7597469509e+00 3.0479711275e+00 
52900 6.0711170986e+00 3.2741067137e-07 1.7597469509e+00 -3.0479711275e+00 1.7597469509e+00 3.0479711275e+00 
53000 6.0711171000e+00 1.2345028451e-07 1.7597469509e+00 -3.0479711275e+00 1.7597469509e+00 3.0479711275e+00 
53100 6.0711171015e+00 -7.7912097271e-08 1.7597469509e+00 -3.0479711275e+00 1.7597469509e+00 3.0479711275e+00 
53200 6.0711171029e+00 -2.7631403285e-07 1.7597469509e+00 -3.0479711275e+00 1.7597469509e+00 3.0479711275e+00 
53300 6.0711171043e+00 -4.7141238216e-07 1.7597469509e+00 -3.0479711275e+00 1.7597469509e+00 3.0479711275e+00 
53400 6.0711171057e+00 -6.6288320570e-07 1.7597469509e+00 -3.0479711275e+00 1.7597469509e+00 3.0479711275e+00 
53500 6.0711171071e+00 -8.5042164622e-07 1.7597469509e+00 -3.0479711275e+00 1.7597469509e+00 3.0479711275e+00 
53600 6.0711171084e+00 -1.0337417587e-06 1.7597469509e+00 -3.0479711275e+00 1.7597469509e+00 3.0479711275e+00 
53700 6.0711171097e+00 -1.2125763356e-06 1.7597469509e+00 -3.0479711275e+00 1.7597469509e+00 3.0479711275e+00 
53800 6.0711171111e+00 -1.3866766913e-06 1.7597469509e+00 -3.0479711275e+00 1.7597469509e+00 3.0479711275e+00 
53900 6.0711171123e+00 -1.5558124281e-06 1.7597469509e+00 -3.0479711275e+00 1.7597469509e+00 3.0479711275e+00 
54000 6.0711171136e+00 -1.7197711763e-06 1.7597469509e+00 -3.0479711275e+00 1.7597469509e+00 3.0479711275e+00 
54100 6.0711171148e+00 -1.8783583113e-06 1.7597469509e+00 -3.0479711275e+00 1.7597469509e+00 3.0479711275e+00 
54200 6.0711171161e+00 -2.0313966567e-06 1.7597469509e+00 -3.0479711275e+00 1.7597469509e+00 3.0479711275e+00 
54300 6.0711171173e+00 -2.1787261551e-06 1.7597469509e+00 -3.0479711275e+00 1.7597469509e+00 3.0479711275e+00 
54400 6.0711171185e+00 -2.3202035307e-06 1.7597469509e+00 -3.0479711275e+00 1.7597469509e+00 3.0479711275e+00 
54500 6.0711171196e+00 -2.4557019323e-06 1.7597469509e+00 -3.0479711275e+00 1.7597469509e+00 3.0479711275e+00 
54600 6.0711171208e+00 -2.5851105557e-06 1.7597469509e+00 -3.0479711275e+00 1.7597469509e+00 3.0479711275e+00 
54700 6.0711171219e+00 -2.7083342629e-06 1.7597469509e+00 -3.0479711275e+00 1.7597469509e+00 3.0479711275e+00 
54800 6.0711171231e+00 -2.8252931708e-06 1.7597469509e+00 -3.0479711275e+00 1.7597469509e+00 3.0479711275e+00 
54900 6.0711171242e+00 -2.9359222421e-06 1.7597469509e+00 -3.0479711275e+00 1.7597469509e+00 3.0479711275e+00 
55000 6.0711171252e+00 -3.0401708589e-06 1.7597469509e+00 -3.0479711275e+00 1.7597469509e+00 3.0479711275e+00 
55100 6.0711171263e+00 -3.1380023890e-06 1.7597469509e+00 -3.0479711275e+00 1.7597469509e+00 3.0479711275e+00 
55200 6.0711171274e+00 -3.2293937386e-06 1.7597469509e+00 -3.0479711275e+00 1.7597469509e+00 3.0479711275e+00 
55300 6.0711171284e+00 -3.3143348989e-06 1.7597469509e+00 -3.0479711275e+00 1.7597469509e+00 3.0479711275e+00 
55400 6.0711171294e+00 -3.3928284966e-06 1.7597469509e+00 -3.0479711275e+00 1.7597469509e+00 3.0479711275e+00 
55500 6.0711171304e+00 -3.4648893178e-06 1.7597469509e+00 -3.0479711275e+00 1.7597469509e+00 3.0479711275e+00 
55600 6.0711171314e+00 -3.5305438416e-06 1.7597469509e+00 -3.0479711275e+00 1.7597469509e+00 3.0479711275e+00 
55700 6.0711171324e+00 -3.5898297750e-06 1.7597469509e+00 -3.0479711275e+00 1.7597469509e+00 3.0479711275e+00 
55800 6.0711171334e+00 -3.6427955686e-06 1.7597469509e+00 -3.0479711275e+00 1.7597469509e+00 3.0479711275e+00 
55900 6.0711171343e+00 -3.6894999446e-06 1.7597469509e+00 -3.0479711275e+00 1.7597469509e+00 3.0479711275e+00 
56000 6.0711171353e+00 -3.7300114151e-06 1.7597469509e+00 -3.0479711275e+00 1.7597469509e+00 3.0479711275e+00 
56100 6.0711171362e+00 -3.7644078050e-06 1.7597469509e+00 -3.0479711275e+00 1.7597469509e+00 3.0479711275e+00 
56200 6.0711171371e+00 -3.7927757767e-06 1.7597469509e+00 -3.0479711275e+00 1.7597469509e+00 3.0479711275e+00 
56300 6.0711171380e+00 -3.8152103513e-06 1.7597469509e+00 -3.0479711275e+00 1.7597469509e+00 3.0479711275e+00 
56400 6.0711171389e+00 -3.8318144403e-06 1.7597469509e+00 -3.0479711275e+00 1.7597469509e+00 3.0479711275e+00 
56500 6.0711171398e+00 -3.8426983670e-06 1.7597469509e+00 -3.0479711275e+00 1.7597469509e+00 3.0479711275e+00 
56600 6.0711171406e+00 -3.8479794088e-06 1.7597469509e+00 -3.0479711275e+00 1.7597469509e+00 3.0479711275e+00 
56700 6.0711171415e+00 -3.8477813310e-06 1.7597469509e+00 -3.0479711275e+00 1.7597469509e+00 3.0479711275e+00 
56800 6.0711171423e+00 -3.8422339290e-06 1.7597469509e+00 -3.0479711275e+00 1.7597469509e+00 3.0479711275e+00 
56900 6.0711171431e+00 -3.8314725821e-06 1.7597469509e+00 -3.0479711275e+00 1.7597469509e+00 3.0479711275e+00 
57000 6.0711171440e+00 -3.8156378063e-06 1.7597469509e+00 -3.0479711275e+00 1.7597469509e+00 3.0479711275e+00 
57100 6.0711171448e+00 -3.7948748160e-06 1.7597469509e+00 -3.0479711275e+00 1.7597469509e+00 3.0479711275e+00 
57200 6.0711171456e+00 -3.7693330948e-06 1.7597469509e+00 -3.0479711275e+00 1.7597469509e+00 3.0479711275e+00 
57300 6.0711171463e+00 -3.7391659755e-06 1.7597469509e+00 -3.0479711275e+00 1.7597469509e+00 3.0479711275e+00 
57400 6.0711171471e+00 -3.7045302215e-06 1.7597469509e+00 -3.0479711275e+00 1.7597469509e+00 3.0479711275e+00 
57500 6.0711171479e+00 -3.6655856279e-06 1.7597469509e+00 -3.0479711275e+00 1.7597469509e+00 3.0479711275e+00 
57600 6.0711171486e+00 -3.6224946195e-06 1.7597469509e+00 -3.0479711275e+00 1.7597469509e+00 3.0479711275e+00 
57700 6.0711171493e+00 -3.5754218697e-06 1.7597469509e+00 -3.0479711275e+00 1.7597469509e+00 3.0479711275e+00 
57800 6.0711171501e+00 -3.5245339196e-06 1.7597469509e+00 -3.0479711275e+00 1.7597469509e+00 3.0479711275e+00 
57900 6.0711171508e+00 -3.4699988184e-06 1.7597469509e+00 -3.0479711275e+00 1.7597469509e+00 3.0479711275e+00 
58000 6.0711171515e+00 -3.4119857612e-06 1.7597469509e+00 -3.0479711275e+00 1.7597469509e+00 3.0479711275e+00 
58100 6.0711171522e+00 -3.3506647468e-06 1.7597469509e+00 -3.0479711275e+00 1.7597469509e+00 3.0479711275e+00 
58200 6.0711171529e+00 -3.2862062441e-06 1.7597469509e+00 -3.0479711275e+00 1.7597469509e+00 3.0479711275e+00 
58300 6.0711171535e+00 -3.2187808692e-06 1.7597469509e+00 -3.0479711275e+00 1.7597469509e+00 3.0479711275e+00 
58400 6.0711171542e+00 -3.1485590726e-06 1.7597469509e+00 -3.0479711275e+00 1.7597469509e+00 3.0479711275e+00 
58500 6.0711171549e+00 -3.0757108396e-06 1.7597469509e+00 -3.0479711275e+00 1.7597469509e+00 3.0479711275e+00 
58600 6.0711171555e+00 -3.0004054039e-06 1.7597469509e+00 -3.0479711275e+00 1.7597469509e+00 3.0479711275e+00 
58700 6.0711171562e+00 -2.9228109666e-06 1.7597469509e+00 -3.0479711275e+00 1.7597469509e+00 3.0479711275e+00 
58800 6.0711171568e+00 -2.8430944331e-06 1.7597469509e+00 -3.0479711275e+00 1.7597469509e+00 3.0479711275e+00 
58900 6.0711171574e+00 -2.7614211611e-06 1.7597469509e+00 -3.0479711275e+00 1.7597469509e+00 3.0479711275e+00 
59000 6.0711171580e+00 -2.6779547179e-06 1.7597469509e+00 -3.0479711275e+00 1.7597469509e+00 3.0479711275e+00 
59100 6.0711171586e+00 -2.5928566500e-06 1.7597469509e+00 -3.0479711275e+00 1.7597469509e+00 3.0479711275e+00 
59200 6.0711171592e+00 -2.5062862641e-06 1.7597469509e+00 -3.0479711275e+00 1.7597469509e+00 3.0479711275e+00 
59300 6.0711171598e+00 -2.4184004244e-06 1.7597469509e+00 -3.0479711275e+00 1.7597469509e+00 3.0479711275e+00 
59400 6.0711171604e+00 -2.3293533513e-06 1.7597469509e+00 -3.0479711275e+00 1.7597469509e+00 3.0479711275e+00 
59500 6.0711171609e+00 -2.2392964453e-06 1.7597469509e+00 -3.0479711275e+00 1.7597469509e+00 3.0479711275e+00 
59600 6.0711171615e+00 -2.1483781104e-06 1.7597469509e+00 -3.0479711275e+00 1.7597469509e+00 3.0479711275e+00 
59700 6.0711171621e+00 -2.0567436009e-06 1.7597469509e+00 -3.0479711275e+00 1.7597469509e+00 3.0479711275e+00 
59800 6.0711171626e+00 -1.9645348603e-06 1.7597469509e+00 -3.0479711275e+00 1.7597469509e+00 3.0479711275e+00 
59900 6.0711171631e+00 -1.8718903951e-06 1.7597469509e+00 -3.0479711275e+00 1.7597469509e+00 3.0479711275e+00 
60000 6.0711171637e+00 -1.7789451425e-06 1.7597469509e+00 -3.0479711275e+00 1.7597469509e+00 3.0479711275e+00 
60100 6.0711171642e+00 -1.6858303527e-06 1.7597469509e+00 -3.0479711275e+00 1.7597469509e+00 3.0479711275e+00 
60200 6.0711171647e+00 -1.5926734897e-06 1.7597469509e+00 -3.0479711275e+00 1.7597469509e+00 3.0479711275e+00 
60300 6.0711171652e+00 -1.4995981298e-06 1.7597469509e+00 -3.0479711275e+00 1.7597469509e+00 3.0479711275e+00 
60400 6.0711171657e+00 -1.4067238792e-06 1.7597469509e+00 -3.0479711275e+00 1.7597469509e+00 3.0479711275e+00 
60500 6.0711171662e+00 -1.3141663007e-06 1.7597469509e+00 -3.0479711275e+00 1.7597469509e+00 3.0479711275e+00 
60600 6.0711171667e+00 -1.2220368475e-06 1.7597469509e+00 -3.0479711275e+00 1.7597469509e+00 3.0479711275e+00 
60700 6.0711171672e+00 -1.1304428045e-06 1.7597469509e+00 -3.0479711275e+00 1.7597469509e+00 3.0479711275e+00 
60800 6.0711171677e+00 -1.0394872489e-06 1.7597469509e+00 -3.0479711275e+00 1.7597469509e+00 3.0479711275e+00 
60900 6.0711171681e+00 -9.4926900563e-07 1.7597469509e+00 -3.0479711275e+00 1.7597469509e+00 3.0479711275e+00 
61000 6.0711171686e+00 -8.5988262236e-07 1.7597469509e+00 -3.0479711275e+00 1.7597469509e+00 3.0479711275e+00 
61100 6.0711171690e+00 -7.7141835396e-07 1.7597469509e+00 -3.0479711275e+00 1.7597469509e+00 3.0479711275e+00 
61200 6.0711171695e+00 -6.8396213910e-07 1.7597469509e+00 -3.0479711275e+00 1.7597469509e+00 3.0479711275e+00 
61300 6.0711171699e+00 -5.9759561195e-07 1.7597469509e+00 -3.0479711275e+00 1.7597469509e+00 3.0479711275e+00 
61400 6.0711171704e+00 -5.1239609094e-07 1.7597469509e+00 -3.0479711275e+00 1.7597469509e+00 3.0479711275e+00 
61500 6.0711171708e+00 -4.2843660233e-07 1.7597469509e+00 -3.0479711275e+00 1.7597469509e+00 3.0479711275e+00 
61600 6.0711171712e+00 -3.4578589159e-07 1.7597469509e+00 -3.0479711275e+00 1.7597469509e+00 3.0479711275e+00 
61700 6.0711171716e+00 -2.6450845122e-07 1.7597469509e+00 -3.0479711275e+00 1.7597469509e+00 3.0479711275e+00 
61800 6.0711171720e+00 -1.8466455450e-07 1.7597469509e+00 -3.0479711275e+00 1.7597469509e+00 3.0479711275e+00 
61900 6.0711171724e+00 -1.0631029008e-07 1.7597469509e+00 -3.0479711275e+00 1.7597469509e+00 3.0479711275e+00 
62000 6.0711171728e+00 -2.9497610795e-08 1.7597469509e+00 -3.0479711275e+00 1.7597469509e+00 3.0479711275e+00 
62100 6.0711171732e+00 4.5725622880e-08 1.7597469509e+00 -3.0479711275e+00 1.7597469509e+00 3.0479711275e+00 
62200 6.0711171736e+00 1.1931558041e-07 1.7597469509e+00 -3.0479711275e+00 1.7597469509e+00 3.0479711275e+00 
62300 6.0711171740e+00 1.9123240294e-07 1.7597469509e+00 -3.0479711275e+00 1.7597469509e+00 3.0479711275e+00 
62400 6.0711171744e+00 2.6144014288e-07 1.7597469509e+00 -3.0479711275e+00 1.7597469509e+00 3.0479711275e+00 
62500 6.0711171747e+00 3.2990668591e-07 1.7597469509e+00 -3.0479711275e+00 1.7597469509e+00 3.0479711275e+00 
62600 6.0711171751e+00 3.9660368249e-07 1.7597469509e+00 -3.0479711275e+00 1.7597469509e+00 3.0479711275e+00 
62700 6.0711171755e+00 4.6150646803e-07 1.7597469509e+00 -3.0479711275e+00 1.7597469509e+00 3.0479711275e+00 
62800 6.0711171758e+00 5.2459398172e-07 1.7597469509e+00 -3.0479711275e+00 1.7597469509e+00 3.0479711275e+00 
62900 6.0711171762e+00 5.8584868129e-07 1.7597469509e+00 -3.0479711275e+00 1.7597469509e+00 3.0479711275e+00 
63000 6.0711171765e+00 6.4525645201e-07 1.7597469509e+00 -3.0479711275e+00 1.7597469509e+00 3.0479711275e+00 
63100 6.0711171769e+00 7.0280651752e-07 1.7597469509e+00 -3.0479711275e+00 1.7597469509e+00 3.0479711275e+00 
63200 6.0711171772e+00 7.5849135073e-07 1.7597469509e+00 -3.0479711275e+00 1.7597469509e+00 3.0479711275e+00 
63300 6.0711171775e+00 8.1230656523e-07 1.7597469509e+00 -3.0479711275e+00 1.7597469509e+00 3.0479711275e+00 
63400 6.0711171778e+00 8.6425082927e-07 1.7597469509e+00 -3.0479711275e+00 1.7597469509e+00 3.0479711275e+00 
63500 6.0711171782e+00 9.1432576003e-07 1.7597469509e+00 -3.0479711275e+00 1.7597469509e+00 3.0479711275e+00 
63600 6.0711171785e+00 9.6253581982e-07 1.7597469509e+00 -3.0479711275e+00 1.7597469509e+00 3.0479711275e+00 
63700 6.0711171788e+00 1.0088882172e-06 1.7597469509e+00 -3.0479711275e+00 1.7597469509e+00 3.0479711275e+00 
63800 6.0711171791e+00 1.0533928011e-06 1.7597469509e+00 -3.0479711275e+00 1.7597469509e+00 3.0479711275e+00 
63900 6.0711171794e+00 1.0960619516e-06 1.7597469509e+00 -3.0479711275e+00 1.7597469509e+00 3.0479711275e+00 
64000 6.0711171797e+00 1.1369104804e-06 1.7597469509e+00 -3.0479711275e+00 1.7597469509e+00 3.0479711275e+00 
64100 6.0711171800e+00 1.1759555171e-06 1.7597469509e+00 -3.0479711275e+00 1.7597469509e+00 3.0479711275e+00 
64200 6.0711171803e+00 1.2132164080e-06 1.7597469509e+00 -3.0479711275e+00 1.7597469509e+00 3.0479711275e+00 
64300 6.0711171806e+00 1.2487146080e-06 1.7597469509e+00 -3.0479711275e+00 1.7597469509e+00 3.0479711275e+00 
64400 6.0711171809e+00 1.2824735687e-06 1.7597469509e+00 -3.0479711275e+00 1.7597469509e+00 3.0479711275e+00 
64500 6.0711171811e+00 1.3145186381e-06 1.7597469509e+00 -3.0479711275e+00 1.7597469509e+00 3.0479711275e+00 
64600 6.0711171814e+00 1.3448769486e-06 1.7597469509e+00 -3.0479711275e+00 1.7597469509e+00 3.0479711275e+00 
64700 6.0711171817e+00 1.3735773164e-06 1.7597469509e+00 -3.0479711275e+00 1.7597469509e+00 3.0479711275e+00 
64800 6.0711171820e+00 1.4006501338e-06 1.7597469509e+00 -3.0479711275e+00 1.7597469509e+00 3.0479711275e+00 
64900 6.0711171822e+00 1.4261272660e-06 1.7597469509e+00 -3.0479711275e+00 1.7597469509e+00 3.0479711275e+00 
65000 6.0711171825e+00 1.4500419421e-06 1.7597469509e+00 -3.0479711275e+00 1.7597469509e+00 3.0479711275e+00 
65100 6.0711171827e+00 1.4724286702e-06 1.7597469509e+00 -3.0479711275e+00 1.7597469509e+00 3.0479711275e+00 
65200 6.0711171830e+00 1.4933231160e-06 1.7597469509e+00 -3.0479711275e+00 1.7597469509e+00 3.0479711275e+00 
65300 6.0711171833e+00 1.5127620145e-06 1.7597469509e+00 -3.0479711275e+00 1.7597469509e+00 3.0479711275e+00 
65400 6.0711171835e+00 1.5307830747e-06 1.7597469509e+00 -3.0479711275e+00 1.7597469509e+00 3.0479711275e+00 
65500 6.0711171837e+00 1.5474248819e-06 1.7597469509e+00 -3.0479711275e+00 1.7597469509e+00 3.0479711275e+00 
65600 6.0711171840e+00 1.5627267990e-06 1.7597469509e+00 -3.0479711275e+00 1.7597469509e+00 3.0479711275e+00 
65700 6.0711171842e+00 1.5767288803e-06 1.7597469509e+00 -3.0479711275e+00 1.7597469509e+00 3.0479711275e+00 
65800 6.0711171844e+00 1.5894717800e-06 1.7597469509e+00 -3.0479711275e+00 1.7597469509e+00 3.0479711275e+00 
65900 6.0711171847e+00 1.6009966637e-06 1.7597469509e+00 -3.0479711275e+00 1.7597469509e+00 3.0479711275e+00 
66000 6.0711171849e+00 1.6113451241e-06 1.7597469509e+00 -3.0479711275e+00 1.7597469509e+00 3.0479711275e+00 
66100 6.0711171851e+00 1.6205590940e-06 1.7597469509e+00 -3.0479711275e+00 1.7597469509e+00 3.0479711275e+00 
66200 6.0711171854e+00 1.6286807707e-06 1.7597469509e+00 -3.0479711275e+00 1.7597469509e+00 3.0479711275e+00 
66300 6.0711171856e+00 1.6357525330e-06 1.7597469509e+00 -3.0479711275e+00 1.7597469509e+00 3.0479711275e+00 
66400 6.0711171858e+00 1.6418168667e-06 1.7597469509e+00 -3.0479711275e+00 1.7597469509e+00 3.0479711275e+00 
66500 6.0711171860e+00 1.6469162906e-06 1.7597469509e+00 -3.0479711275e+00 1.7597469509e+00 3.0479711275e+00 
66600 6.0711171862e+00 1.6510932809e-06 1.7597469509e+00 -3.0479711275e+00 1.7597469509e+00 3.0479711275e+00 
66700 6.0711171864e+00 1.6543902146e-06 1.7597469509e+00 -3.0479711275e+00 1.7597469509e+00 3.0479711275e+00 
66800 6.0711171866e+00 1.6568492861e-06 1.7597469509e+00 -3.0479711275e+00 1.7597469509e+00 3.0479711275e+00 
66900 6.0711171868e+00 1.6585124577e-06 1.7597469509e+00 -3.0479711275e+00 1.7597469509e+00 3.0479711275e+00 
67000 6.0711171870e+00 1.6594213910e-06 1.7597469509e+00 -3.0479711275e+00 1.7597469509e+00 3.0479711275e+00 
67100 6.0711171872e+00 1.6596173914e-06 1.7597469509e+00 -3.0479711275e+00 1.7597469509e+00 3.0479711275e+00 
67200 6.0711171874e+00 1.6591413507e-06 1.7597469509e+00 -3.0479711275e+00 1.7597469509e+00 3.0479711275e+00 
67300 6.0711171876e+00 1.6580336969e-06 1.7597469509e+00 -3.0479711275e+00 1.7597469509e+00 3.0479711275e+00 
67400 6.0711171878e+00 1.6563343388e-06 1.7597469509e+00 -3.0479711275e+00 1.7597469509e+00 3.0479711275e+00 
67500 6.0711171880e+00 1.6540826230e-06 1.7597469509e+00 -3.0479711275e+00 1.7597469509e+00 3.0479711275e+00 
67600 6.0711171881e+00 1.6513172860e-06 1.7597469509e+00 -3.0479711275e+00 1.7597469509e+00 3.0479711275e+00 
67700 6.0711171883e+00 1.6480764124e-06 1.7597469509e+00 -3.0479711275e+00 1.7597469509e+00 3.0479711275e+00 
67800 6.0711171885e+00 1.6443973939e-06 1.7597469509e+00 -3.0479711275e+00 1.7597469509e+00 3.0479711275e+00 
67900 6.0711171887e+00 1.6403168946e-06 1.7597469509e+00 -3.0479711275e+00 1.7597469509e+00 3.0479711275e+00 
68000 6.0711171888e+00 1.6358708114e-06 1.7597469509e+00 -3.0479711275e+00 1.7597469509e+00 3.0479711275e+00 
68100 6.0711171890e+00 1.6310942453e-06 1.7597469509e+00 -3.0479711275e+00 1.7597469509e+00 3.0479711275e+00 
68200 6.0711171892e+00 1.6260214717e-06 1.7597469509e+00 -3.0479711275e+00 1.7597469509e+00 3.0479711275e+00 
68300 6.0711171893e+00 1.6206859111e-06 1.7597469509e+00 -3.0479711275e+00 1.7597469509e+00 3.0479711275e+00 
68400 6.0711171895e+00 1.6151201016e-06 1.7597469509e+00 -3.0479711275e+00 1.7597469509e+00 3.0479711275e+00 
68500 6.0711171897e+00 1.6093556816e-06 1.7597469509e+00 -3.0479711275e+00 1.7597469509e+00 3.0479711275e+00 
68600 6.0711171898e+00 1.6034233683e-06 1.7597469509e+00 -3.0479711275e+00 1.7597469509e+00 3.0479711275e+00 
68700 6.0711171900e+00 1.5973529343e-06 1.7597469509e+00 -3.0479711275e+00 1.7597469509e+00 3.0479711275e+00 
68800 6.0711171901e+00 1.5911731993e-06 1.7597469509e+00 -3.0479711275e+00 1.7597469509e+00 3.0479711275e+00 
68900 6.0711171903e+00 1.5849120100e-06 1.7597469509e+00 -3.0479711275e+00 1.7597469509e+00 3.0479711275e+00 
69000 6.0711171904e+00 1.5785962345e-06 1.7597469509e+00 -3.0479711275e+00 1.7597469509e+00 3.0479711275e+00 
69100 6.0711171906e+00 1.5722517451e-06 1.7597469509e+00 -3.0479711275e+00 1.7597469509e+00 3.0479711275e+00 
69200 6.0711171907e+00 1.5659034195e-06 1.7597469509e+00 -3.0479711275e+00 1.7597469509e+00 3.0479711275e+00 
69300 6.0711171909e+00 1.5595751262e-06 1.7597469509e+00 -3.0479711275e+00 1.7597469509e+00 3.0479711275e+00 
69400 6.0711171910e+00 1.5532897301e-06 1.7597469509e+00 -3.0479711275e+00 1.7597469509e+00 3.0479711275e+00 
69500 6.0711171912e+00 1.5470690817e-06 1.7597469509e+00 -3.0479711275e+00 1.7597469509e+00 3.0479711275e+00 
69600 6.0711171913e+00 1.5409340265e-06 1.7597469509e+00 -3.0479711275e+00 1.7597469509e+00 3.0479711275e+00 
69700 6.0711171914e+00 1.5349043967e-06 1.7597469509e+00 -3.0479711275e+00 1.7597469509e+00 3.0479711275e+00 
69800 6.0711171916e+00 1.5289990236e-06 1.7597469509e+00 -3.0479711275e+00 1.7597469509e+00 3.0479711275e+00 
69900 6.0711171917e+00 1.5232357353e-06 1.7597469509e+00 -3.0479711275e+00 1.7597469509e+00 3.0479711275e+00 
70000 6.0711171918e+00 1.5176313672e-06 1.7597469509e+00 -3.0479711275e+00 1.7597469509e+00 3.0479711275e+00 
70100 6.0711171920e+00 1.5122017701e-06 1.7597469509e+00 -3.0479711275e+00 1.7597469509e+00 3.0479711275e+00 
70200 6.0711171921e+00 1.5069618157e-06 1.7597469509e+00 -3.0479711275e+00 1.7597469509e+00 3.0479711275e+00 
70300 6.0711171922e+00 1.5019254100e-06 1.7597469509e+00 -3.0479711275e+00 1.7597469509e+00 3.0479711275e+00 
70400 6.0711171923e+00 1.4971055069e-06 1.7597469509e+00 -3.0479711275e+00 1.7597469509e+00 3.0479711275e+00 
70500 6.0711171925e+00 1.4925141164e-06 1.7597469509e+00 -3.0479711275e+00 1.7597469509e+00 3.0479711275e+00 
70600 6.0711171926e+00 1.4881623255e-06 1.7597469509e+00 -3.0479711275e+00 1.7597469509e+00 3.0479711275e+00 
70700 6.0711171927e+00 1.4840603049e-06 1.7597469509e+00 -3.0479711275e+00 1.7597469509e+00 3.0479711275e+00 
70800 6.0711171928e+00 1.4802173312e-06 1.7597469509e+00 -3.0479711275e+00 1.7597469509e+00 3.0479711275e+00 
70900 6.0711171929e+00 1.4766418050e-06 1.7597469509e+00 -3.0479711275e+00 1.7597469509e+00 3.0479711275e+00 
71000 6.0711171930e+00 1.4733412627e-06 1.7597469509e+00 -3.0479711275e+00 1.7597469509e+00 3.0479711275e+00 
71100 6.0711171931e+00 1.4703224051e-06 1.7597469509e+00 -3.0479711275e+00 1.7597469509e+00 3.0479711275e+00 
71200 6.0711171933e+00 1.4675911041e-06 1.7597469509e+00 -3.0479711275e+00 1.7597469509e+00 3.0479711275e+00 
71300 6.0711171934e+00 1.4651524345e-06 1.7597469509e+00 -3.0479711275e+00 1.7597469509e+00 3.0479711275e+00 
71400 6.0711171935e+00 1.4630106922e-06 1.7597469509e+00 -3.0479711275e+00 1.7597469509e+00 3.0479711275e+00 
71500 6.0711171936e+00 1.4611694112e-06 1.7597469509e+00 -3.0479711275e+00 1.7597469509e+00 3.0479711275e+00 
71600 6.0711171937e+00 1.4596313882e-06 1.7597469509e+00 -3.0479711275e+00 1.7597469509e+00 3.0479711275e+00 
71700 6.0711171938e+00 1.4583987096e-06 1.7597469509e+00 -3.0479711275e+00 1.7597469509e+00 3.0479711275e+00 
71800 6.0711171939e+00 1.4574727655e-06 1.7597469509e+00 -3.0479711275e+00 1.7597469509e+00 3.0479711275e+00 
71900 6.0711171940e+00 1.4568542820e-06 1.7597469509e+00 -3.0479711275e+00 1.7597469509e+00 3.0479711275e+00 
72000 6.0711171941e+00 1.4565433376e-06 1.7597469509e+00 -3.0479711275e+00 1.7597469509e+00 3.0479711275e+00 
72100 6.0711171942e+00 1.4565393942e-06 1.7597469509e+00 -3.0479711275e+00 1.7597469509e+00 3.0479711275e+00 
72200 6.0711171943e+00 1.4568413128e-06 1.7597469509e+00 -3.0479711275e+00 1.7597469509e+00 3.0479711275e+00 
72300 6.0711171944e+00 1.4574473868e-06 1.7597469509e+00 -3.0479711275e+00 1.7597469509e+00 3.0479711275e+00 
72400 6.0711171945e+00 1.4583553570e-06 1.7597469509e+00 -3.0479711275e+00 1.7597469509e+00 3.0479711275e+00 
72500 6.0711171946e+00 1.4595624432e-06 1.7597469509e+00 -3.0479711275e+00 1.7597469509e+00 3.0479711275e+00 
72600 6.0711171947e+00 1.4610653674e-06 1.7597469509e+00 -3.0479711275e+00 1.7597469509e+00 3.0479711275e+00 
72700 6.0711171947e+00 1.4628603735e-06 1.7597469509e+00 -3.0479711275e+00 1.7597469509e+00 3.0479711275e+00 
72800 6.0711171948e+00 1.4649432589e-06 1.7597469509e+00 -3.0479711275e+00 1.7597469509e+00 3.0479711275e+00 
72900 6.0711171949e+00 1.4673093895e-06 1.7597469509e+00 -3.0479711275e+00 1.7597469509e+00 3.0479711275e+00 
73000 6.0711171950e+00 1.4699537324e-06 1.7597469509e+00 -3.0479711275e+00 1.7597469509e+00 3.0479711275e+00 
73100 6.0711171951e+00 1.4728708754e-06 1.7597469509e+00 -3.0479711275e+00 1.7597469509e+00 3.0479711275e+00 
73200 6.0711171952e+00 1.4760550530e-06 1.7597469509e+00 -3.0479711275e+00 1.7597469509e+00 3.0479711275e+00 
73300 6.0711171953e+00 1.4795001694e-06 1.7597469509e+00 -3.0479711275e+00 1.7597469509e+00 3.0479711275e+00 
73400 6.0711171953e+00 1.4831998157e-06 1.7597469509e+00 -3.0479711275e+00 1.7597469509e+00 3.0479711275e+00 
73500 6.0711171954e+00 1.4871473023e-06 1.7597469509e+00 -3.0479711275e+00 1.7597469509e+00 3.0479711275e+00 
73600 6.0711171955e+00 1.4913356744e-06 1.7597469509e+00 -3.0479711275e+00 1.7597469509e+00 3.0479711275e+00 
73700 6.0711171956e+00 1.4957577385e-06 1.7597469509e+00 -3.0479711275e+00 1.7597469509e+00 3.0479711275e+00 
73800 6.0711171957e+00 1.5004060816e-06 1.7597469509e+00 -3.0479711275e+00 1.7597469509e+00 3.0479711275e+00 
73900 6.0711171957e+00 1.5052730922e-06 1.7597469509e+00 -3.0479711275e+00 1.7597469509e+00 3.0479711275e+00 
74000 6.0711171958e+00 1.5103509830e-06 1.7597469509e+00 -3.0479711275e+00 1.7597469509e+00 3.0479711275e+00 
74100 6.0711171959e+00 1.5156318126e-06 1.7597469509e+00 -3.0479711275e+00 1.7597469509e+00 3.0479711275e+00 
74200 6.0711171960e+00 1.5211074997e-06 1.7597469509e+00 -3.0479711275e+00 1.7597469509e+00 3.0479711275e+00 
74300 6.0711171960e+00 1.5267698495e-06 1.7597469509e+00 -3.0479711275e+00 1.7597469509e+00 3.0479711275e+00 
74400 6.0711171961e+00 1.5326105656e-06 1.7597469509e+00 -3.0479711275e+00 1.7597469509e+00 3.0479711275e+00 
74500 6.0711171962e+00 1.5386212772e-06 1.7597469509e+00 -3.0479711275e+00 1.7597469509e+00 3.0479711275e+00 
74600 6.0711171962e+00 1.5447935512e-06 1.7597469509e+00 -3.0479711275e+00 1.7597469509e+00 3.0479711275e+00 
74700 6.0711171963e+00 1.5511189072e-06 1.7597469509e+00 -3.0479711275e+00 1.7597469509e+00 3.0479711275e+00 
74800 6.0711171964e+00 1.5575888422e-06 1.7597469509e+00 -3.0479711275e+00 1.7597469509e+00 3.0479711275e+00 
74900 6.0711171965e+00 1.5641948389e-06 1.7597469509e+00 -3.0479711275e+00 1.7597469509e+00 3.0479711275e+00 
75000 6.0711171965e+00 1.5709283889e-06 1.7597469509e+00 -3.0479711275e+00 1.7597469509e+00 3.0479711275e+00 
75100 6.0711171966e+00 1.5777809979e-06 1.7597469509e+00 -3.0479711275e+00 1.7597469509e+00 3.0479711275e+00 
75200 6.0711171966e+00 1.5847442156e-06 1.7597469509e+00 -3.0479711275e+00 1.7597469509e+00 3.0479711275e+00 
75300 6.0711171967e+00 1.5918096306e-06 1.7597469509e+00 -3.0479711275e+00 1.7597469509e+00 3.0479711275e+00 
75400 6.0711171968e+00 1.5989689002e-06 1.7597469509e+00 -3.0479711275e+00 1.7597469509e+00 3.0479711275e+00 
75500 6.0711171968e+00 1.6062137534e-06 1.7597469509e+00 -3.0479711275e+00 1.7597469509e+00 3.0479711275e+00 
75600 6.0711171969e+00 1.6135360061e-06 1.7597469509e+00 -3.0479711275e+00 1.7597469509e+00 3.0479711275e+00 
75700 6.0711171970e+00 1.6209275752e-06 1.7597469509e+00 -3.0479711275e+00 1.7597469509e+00 3.0479711275e+00 
75800 6.0711171970e+00 1.6283804835e-06 1.7597469509e+00 -3.0479711275e+00 1.7597469509e+00 3.0479711275e+00 
75900 6.0711171971e+00 1.6358868783e-06 1.7597469509e+00 -3.0479711275e+00 1.7597469509e+00 3.0479711275e+00 
76000 6.0711171971e+00 1.6434390328e-06 1.7597469509e+00 -3.0479711275e+00 1.7597469509e+00 3.0479711275e+00 
76100 6.0711171972e+00 1.6510293614e-06 1.7597469509e+00 -3.0479711275e+00 1.7597469509e+00 3.0479711275e+00 
76200 6.0711171972e+00 1.6586504227e-06 1.7597469509e+00 -3.0479711275e+00 1.7597469509e+00 3.0479711275e+00 
76300 6.0711171973e+00 1.6662949384e-06 1.7597469509e+00 -3.0479711275e+00 1.7597469509e+00 3.0479711275e+00 
76400 6.0711171974e+00 1.6739557855e-06 1.7597469509e+00 -3.0479711275e+00 1.7597469509e+00 3.0479711275e+00 
76500 6.0711171974e+00 1.6816260148e-06 1.7597469509e+00 -3.0479711275e+00 1.7597469509e+00 3.0479711275e+00 
76600 6.0711171975e+00 1.6892988567e-06 1.7597469509e+00 -3.0479711275e+00 1.7597469509e+00 3.0479711275e+00 
76700 6.0711171975e+00 1.6969677175e-06 1.7597469509e+00 -3.0479711275e+00 1.7597469509e+00 3.0479711275e+00 
76800 6.0711171976e+00 1.7046261969e-06 1.7597469509e+00 -3.0479711275e+00 1.7597469509e+00 3.0479711275e+00 
76900 6.0711171976e+00 1.7122680853e-06 1.7597469509e+00 -3.0479711275e+00 1.7597469509e+00 3.0479711275e+00 
77000 6.0711171977e+00 1.7198873715e-06 1.7597469509e+00 -3.0479711275e+00 1.7597469509e+00 3.0479711275e+00 
77100 6.0711171977e+00 1.7274782414e-06 1.7597469509e+00 -3.0479711275e+00 1.7597469509e+00 3.0479711275e+00 
77200 6.0711171978e+00 1.7332248420e-06 1.7597469509e+00 -3.0479711275e+00 1.7597469509e+00 3.0479711275e+00 
77200 6.0711171978e+00 1.7332248421e-06 1.7597469509e+00 -3.0479711275e+00 1.7597469509e+00 3.0479711275e+00 
