# step Hamiltonian StressXX CellTensor1 CellTensor2 CellTensor3 CellTensor4 
0 6.3985758444e+00 2.0833030017e-01 2.8378601290e+00 -4.9153179282e+00 2.8378601290e+00 4.9153179282e+00 
100 6.4346575102e+00 2.5087989713e-01 2.8378601290e+00 -4.9153179282e+00 2.8378601290e+00 4.9153179282e+00 
200 6.4689101855e+00 2.8992371318e-01 2.8334410481e+00 -4.9076638556e+00 2.8334410481e+00 4.9076638556e+00 
300 6.5021309088e+00 3.2602452887e-01 2.8283264842e+00 -4.8988051711e+00 2.8283264842e+00 4.8988051711e+00 
400 6.5345065135e+00 3.5957014929e-01 2.8225648868e+00 -4.8888257915e+00 2.8225648868e+00 4.8888257915e+00 
500 6.5661470109e+00 3.9088650569e-01 2.8161977239e+00 -4.8777975420e+00 2.8161977239e+00 4.8777975420e+00 
600 6.5970795780e+00 4.2020993282e-01 2.8092606122e+00 -4.8657821120e+00 2.8092606122e+00 4.8657821120e+00 
700 6.6272324955e+00 4.4763621322e-01 2.8017849266e+00 -4.8528338447e+00 2.8017849266e+00 4.8528338447e+00 
800 6.6564025770e+00 4.7303004962e-01 2.7938003221e+00 -4.8390041041e+00 2.7938003221e+00 4.8390041041e+00 
900 6.6841997090e+00 4.9587775262e-01 2.7853389008e+00 -4.8243484925e+00 2.7853389008e+00 4.8243484925e+00 
1000 6.7099716328e+00 5.1509252014e-01 2.7764420879e+00 -4.8089387606e+00 2.7764420879e+00 4.8089387606e+00 
1100 6.7327478460e+00 5.2888828899e-01 2.7671711448e+00 -4.7928810160e+00 2.7671711448e+00 4.7928810160e+00 
1200 6.7513173173e+00 5.3506399835e-01 2.7576201848e+00 -4.7763382681e+00 2.7576201848e+00 4.7763382681e+00 
1300 6.7646038160e+00 5.3214229702e-01 2.7479243399e+00 -4.7595445720e+00 2.7479243399e+00 4.7595445720e+00 
1400 6.7722913243e+00 5.2101419131e-01 2.7382474235e+00 -4.7427836611e+00 2.7382474235e+00 4.7427836611e+00 
1500 6.7751607099e+00 5.0524557273e-01 2.7287393082e+00 -4.7263151224e+00 2.7287393082e+00 4.7263151224e+00 
1600 6.7746584473e+00 4.8901527652e-01 2.7194867038e+00 -4.7102891415e+00 2.7194867038e+00 4.7102891415e+00 
1700 6.7721336965e+00 4.7485455481e-01 2.7105007263e+00 -4.6947249719e+00 2.7105007263e+00 4.6947249719e+00 
1800 6.7684624803e+00 4.6330847081e-01 2.7017459240e+00 -4.6795612095e+00 2.7017459240e+00 4.6795612095e+00 
1900 6.7641052433e+00 4.5385235079e-01 2.6931762316e+00 -4.6647180668e+00 2.6931762316e+00 4.6647180668e+00 
2000 6.7592848506e+00 4.4572645608e-01 2.6847546707e+00 -4.6501314955e+00 2.6847546707e+00 4.6501314955e+00 
2100 6.7541143214e+00 4.3830441573e-01 2.6764578967e+00 -4.6357610615e+00 2.6764578967e+00 4.6357610615e+00 
2200 6.7486604937e+00 4.3116397468e-01 2.6682739413e+00 -4.6215860348e+00 2.6682739413e+00 4.6215860348e+00 
2300 6.7429708062e+00 4.2404994849e-01 2.6601985762e+00 -4.6075990923e+00 2.6601985762e+00 4.6075990923e+00 
2400 6.7370837013e+00 4.1682029305e-01 2.6522322995e+00 -4.5938010962e+00 2.6522322995e+00 4.5938010962e+00 
2500 6.7310325700e+00 4.0940311919e-01 2.6443782767e+00 -4.5801975297e+00 2.6443782767e+00 4.5801975297e+00 
2600 6.7248472877e+00 4.0176791616e-01 2.6366410556e+00 -4.5667962696e+00 2.6366410556e+00 4.5667962696e+00 
2700 6.7185548693e+00 3.9390771672e-01 2.6290258009e+00 -4.5536062616e+00 2.6290258009e+00 4.5536062616e+00 
2800 6.7121798043e+00 3.8582847619e-01 2.6215378541e+00 -4.5406367573e+00 2.6215378541e+00 4.5406367573e+00 
2900 6.7057442740e+00 3.7754289706e-01 2.6141824871e+00 -4.5278968879e+00 2.6141824871e+00 4.5278968879e+00 
3000 6.6992683256e+00 3.6906690353e-01 2.6069647698e+00 -4.5153954348e+00 2.6069647698e+00 4.5153954348e+00 
3100 6.6927700279e+00 3.6041766771e-01 2.5998895029e+00 -4.5031407130e+00 2.5998895029e+00 4.5031407130e+00 
3200 6.6862656191e+00 3.5161253486e-01 2.5929611874e+00 -4.4911405187e+00 2.5929611874e+00 4.4911405187e+00 
3300 6.6797696485e+00 3.4266846508e-01 2.5861840150e+00 -4.4794021118e+00 2.5861840150e+00 4.4794021118e+00 
3400 6.6732951132e+00 3.3360176850e-01 2.5795618686e+00 -4.4679322176e+00 2.5795618686e+00 4.4679322176e+00 
3500 6.6668535874e+00 3.2442800503e-01 2.5730983282e+00 -4.4567370373e+00 2.5730983282e+00 4.4567370373e+00 
3600 6.6604553467e+00 3.1516197347e-01 2.5667966801e+00 -4.4458222627e+00 2.5667966801e+00 4.4458222627e+00 
3700 6.6541094837e+00 3.0581774695e-01 2.5606599253e+00 -4.4351930915e+00 2.5606599253e+00 4.4351930915e+00 
3800 6.6478240169e+00 2.9640872986e-01 2.5546907881e+00 -4.4248542426e+00 2.5546907881e+00 4.4248542426e+00 
3900 6.6416059915e+00 2.8694772212e-01 2.5488917244e+00 -4.4148099697e+00 2.5488917244e+00 4.4148099697e+00 
4000 6.6354615735e+00 2.7744698306e-01 2.5432649284e+00 -4.4050640731e+00 2.5432649284e+00 4.4050640731e+00 
4100 6.6293961352e+00 2.6791829061e-01 2.5378123389e+00 -4.3956199110e+00 2.5378123389e+00 4.3956199110e+00 
4200 6.6234143345e+00 2.5837299390e-01 2.5325356441e+00 -4.3864804076e+00 2.5325356441e+00 4.3864804076e+00 
4300 6.6175201868e+00 2.4882205837e-01 2.5274362868e+00 -4.3776480616e+00 2.5274362868e+00 4.3776480616e+00 
4400 6.6117171314e+00 2.3927610327e-01 2.5225154677e+00 -4.3691249530e+00 2.5225154677e+00 4.3691249530e+00 
4500 6.6060080909e+00 2.2974543194e-01 2.5177741493e+00 -4.3609127486e+00 2.5177741493e+00 4.3609127486e+00 
4600 6.6003955258e+00 2.2024005520e-01 2.5132130587e+00 -4.3530127080e+00 2.5132130587e+00 4.3530127080e+00 
4700 6.5948814834e+00 2.1076970862e-01 2.5088326910e+00 -4.3454256885e+00 2.5088326910e+00 4.3454256885e+00 
4800 6.5894676427e+00 2.0134386410e-01 2.5046333118e+00 -4.3381521505e+00 2.5046333118e+00 4.3381521505e+00 
4900 6.5841553539e+00 1.9197173663e-01 2.5006149607e+00 -4.3311921620e+00 2.5006149607e+00 4.3311921620e+00 
5000 6.5789456748e+00 1.8266228659e-01 2.4967774537e+00 -4.3245454050e+00 2.4967774537e+00 4.3245454050e+00 
5100 6.5738394029e+00 1.7342421837e-01 2.4931203873e+00 -4.3182111801e+00 2.4931203873e+00 4.3182111801e+00 
5200 6.5688371041e+00 1.6426597579e-01 2.4896431416e+00 -4.3121884140e+00 2.4896431416e+00 4.3121884140e+00 
5300 6.5639391387e+00 1.5519573477e-01 2.4863448848e+00 -4.3064756656e+00 2.4863448848e+00 4.3064756656e+00 
5400 6.5591456836e+00 1.4622139391e-01 2.4832245770e+00 -4.3010711340e+00 2.4832245770e+00 4.3010711340e+00 
5500 6.5544567527e+00 1.3735056328e-01 2.4802809757e+00 -4.2959726669e+00 2.4802809757e+00 4.2959726669e+00 
5600 6.5498722143e+00 1.2859055187e-01 2.4775126405e+00 -4.2911777698e+00 2.4775126405e+00 4.2911777698e+00 
5700 6.5453918060e+00 1.1994835426e-01 2.4749179397e+00 -4.2866836162e+00 2.4749179397e+00 4.2866836162e+00 
5800 6.5410151481e+00 1.1143063661e-01 2.4724950562e+00 -4.2824870587e+00 2.4724950562e+00 4.2824870587e+00 
5900 6.5367417545e+00 1.0304372266e-01 2.4702419941e+00 -4.2785846408e+00 2.4702419941e+00 4.2785846408e+00 
6000 6.5325710420e+00 9.4793579720e-02 2.4681565869e+00 -4.2749726096e+00 2.4681565869e+00 4.2749726096e+00 
6100 6.5285023380e+00 8.6685805272e-02 2.4662365046e+00 -4.2716469294e+00 2.4662365046e+00 4.2716469294e+00 
6200 6.5245348867e+00 7.8725614250e-02 2.4644792623e+00 -4.2686032964e+00 2.4644792623e+00 4.2686032964e+00 
6300 6.5206678538e+00 7.0917827375e-02 2.4628822290e+00 -4.2658371537e+00 2.4628822290e+00 4.2658371537e+00 
6400 6.5169003304e+00 6.3266860742e-02 2.4614426370e+00 -4.2633437072e+00 2.4614426370e+00 4.2633437072e+00 
6500 6.5132313356e+00 5.5776716872e-02 2.4601575907e+00 -4.2611179418e+00 2.4601575907e+00 4.2611179418e+00 
6600 6.5096598183e+00 4.8450977435e-02 2.4590240773e+00 -4.2591546390e+00 2.4590240773e+00 4.2591546390e+00 
6700 6.5061846584e+00 4.1292797774e-02 2.4580389763e+00 -4.2574483940e+00 2.4580389763e+00 4.2574483940e+00 
6800 6.5028046673e+00 3.4304903388e-02 2.4571990701e+00 -4.2559936337e+00 2.4571990701e+00 4.2559936337e+00 
6900 6.4995185880e+00 2.7489588451e-02 2.4565010542e+00 -4.2547846348e+00 2.4565010542e+00 4.2547846348e+00 
7000 6.4963250949e+00 2.0848716451e-02 2.4559415482e+00 -4.2538155419e+00 2.4559415482e+00 4.2538155419e+00 
7100 6.4932227939e+00 1.4383722989e-02 2.4555171058e+00 -4.2530803860e+00 2.4555171058e+00 4.2530803860e+00 
7200 6.4902102214e+00 8.0956207325e-03 2.4552242258e+00 -4.2525731030e+00 2.4552242258e+00 4.2525731030e+00 
7300 6.4872858447e+00 1.9850065209e-03 2.4550593624e+00 -4.2522875513e+00 2.4550593624e+00 4.2522875513e+00 
7400 6.4844480616e+00 -3.9479294383e-03 2.4550189357e+00 -4.2522175301e+00 2.4550189357e+00 4.2522175301e+00 
7500 6.4816952008e+00 -9.7033923579e-03 2.4550993414e+00 -4.2523567969e+00 2.4550993414e+00 4.2523567969e+00 
7600 6.4790255225e+00 -1.5281969746e-02 2.4552969611e+00 -4.2526990843e+00 2.4552969611e+00 4.2526990843e+00 
7700 6.4764372192e+00 -2.0684616494e-02 2.4556081718e+00 -4.2532381170e+00 2.4556081718e+00 4.2532381170e+00 
7800 6.4739284175e+00 -2.5912638331e-02 2.4560293548e+00 -4.2539676274e+00 2.4560293548e+00 4.2539676274e+00 
7900 6.4714971801e+00 -3.0967673798e-02 2.4565569048e+00 -4.2548813708e+00 2.4565569048e+00 4.2548813708e+00 
8000 6.4691415080e+00 -3.5851674936e-02 2.4571872382e+00 -4.2559731403e+00 2.4571872382e+00 4.2559731403e+00 
8100 6.4668593441e+00 -4.0566886872e-02 2.4579168010e+00 -4.2572367801e+00 2.4579168010e+00 4.2572367801e+00 
8200 6.4646485765e+00 -4.5115826500e-02 2.4587420762e+00 -4.2586661987e+00 2.4587420762e+00 4.2586661987e+00 
8300 6.4625070430e+00 -4.9501260471e-02 2.4596595907e+00 -4.2602553805e+00 2.4596595907e+00 4.2602553805e+00 
8400 6.4604325353e+00 -5.3726182685e-02 2.4606659217e+00 -4.2619983969e+00 2.4606659217e+00 4.2619983969e+00 
8500 6.4584228045e+00 -5.7793791492e-02 2.4617577025e+00 -4.2638894166e+00 2.4617577025e+00 4.2638894166e+00 
8600 6.4564755666e+00 -6.1707466807e-02 2.4629316276e+00 -4.2659227145e+00 2.4629316276e+00 4.2659227145e+00 
8700 6.4545885083e+00 -6.5470747315e-02 2.4641844576e+00 -4.2680926798e+00 2.4641844576e+00 4.2680926798e+00 
8800 6.4527592932e+00 -6.9087307955e-02 2.4655130235e+00 -4.2703938234e+00 2.4655130235e+00 4.2703938234e+00 
8900 6.4509855683e+00 -7.2560937848e-02 2.4669142298e+00 -4.2728207839e+00 2.4669142298e+00 4.2728207839e+00 
9000 6.4492649705e+00 -7.5895518812e-02 2.4683850580e+00 -4.2753683332e+00 2.4683850580e+00 4.2753683332e+00 
9100 6.4475951335e+00 -7.9095004616e-02 2.4699225692e+00 -4.2780313806e+00 2.4699225692e+00 4.2780313806e+00 
9200 6.4459736943e+00 -8.2163401083e-02 2.4715239057e+00 -4.2808049769e+00 2.4715239057e+00 4.2808049769e+00 
9300 6.4443983001e+00 -8.5104747143e-02 2.4731862932e+00 -4.2836843163e+00 2.4731862932e+00 4.2836843163e+00 
9400 6.4428666150e+00 -8.7923096936e-02 2.4749070412e+00 -4.2866647393e+00 2.4749070412e+00 4.2866647393e+00 
9500 6.4413763259e+00 -9.0622503016e-02 2.4766835444e+00 -4.2897417332e+00 2.4766835444e+00 4.2897417332e+00 
9600 6.4399251497e+00 -9.3207000719e-02 2.4785132826e+00 -4.2929109328e+00 2.4785132826e+00 4.2929109328e+00 
9700 6.4385108383e+00 -9.5680593732e-02 2.4803938208e+00 -4.2961681204e+00 2.4803938208e+00 4.2961681204e+00 
9800 6.4371311851e+00 -9.8047240878e-02 2.4823228085e+00 -4.2995092252e+00 2.4823228085e+00 4.2995092252e+00 
9900 6.4357840300e+00 -1.0031084413e-01 2.4842979793e+00 -4.3029303214e+00 2.4842979793e+00 4.3029303214e+00 
10000 6.4344672645e+00 -1.0247523784e-01 2.4863171498e+00 -4.3064276271e+00 2.4863171498e+00 4.3064276271e+00 
10100 6.4331788360e+00 -1.0454417917e-01 2.4883782179e+00 -4.3099975019e+00 2.4883782179e+00 4.3099975019e+00 
10200 6.4319167526e+00 -1.0652133971e-01 2.4904791621e+00 -4.3136364440e+00 2.4904791621e+00 4.3136364440e+00 
10300 6.4306790864e+00 -1.0841029824e-01 2.4926180391e+00 -4.3173410876e+00 2.4926180391e+00 4.3173410876e+00 
10400 6.4294639767e+00 -1.1021453454e-01 2.4947929822e+00 -4.3211081996e+00 2.4947929822e+00 4.3211081996e+00 
10500 6.4282696334e+00 -1.1193742429e-01 2.4970021993e+00 -4.3249346757e+00 2.4970021993e+00 4.3249346757e+00 
10600 6.4270943389e+00 -1.1358223496e-01 2.4992439705e+00 -4.3288175375e+00 2.4992439705e+00 4.3288175375e+00 
10700 6.4259364503e+00 -1.1515212259e-01 2.5015166464e+00 -4.3327539276e+00 2.5015166464e+00 4.3327539276e+00 
10800 6.4247944013e+00 -1.1665012947e-01 2.5038186452e+00 -4.3367411064e+00 2.5038186452e+00 4.3367411064e+00 
10900 6.4236667025e+00 -1.1807918263e-01 2.5061484505e+00 -4.3407764476e+00 2.5061484505e+00 4.3407764476e+00 
11000 6.4225519432e+00 -1.1944209302e-01 2.5085046091e+00 -4.3448574341e+00 2.5085046091e+00 4.3448574341e+00 
11100 6.4214487908e+00 -1.2074155542e-01 2.5108857283e+00 -4.3489816534e+00 2.5108857283e+00 4.3489816534e+00 
11200 6.4203559916e+00 -1.2198014895e-01 2.5132904735e+00 -4.3531467943e+00 2.5132904735e+00 4.3531467943e+00 
11300 6.4192723700e+00 -1.2316033810e-01 2.5157175658e+00 -4.3573506415e+00 2.5157175658e+00 4.3573506415e+00 
11400 6.4181968278e+00 -1.2428447428e-01 2.5181657796e+00 -4.3615910722e+00 2.5181657796e+00 4.3615910722e+00 
11500 6.4171283439e+00 -1.2535479780e-01 2.5206339403e+00 -4.3658660519e+00 2.5206339403e+00 4.3658660519e+00 
11600 6.4160659722e+00 -1.2637344021e-01 2.5231209216e+00 -4.3701736298e+00 2.5231209216e+00 4.3701736298e+00 
11700 6.4150088409e+00 -1.2734242697e-01 2.5256256435e+00 -4.3745119354e+00 2.5256256435e+00 4.3745119354e+00 
11800 6.4139561504e+00 -1.2826368043e-01 2.5281470700e+00 -4.3788791742e+00 2.5281470700e+00 4.3788791742e+00 
11900 6.4129071717e+00 -1.2913902299e-01 2.5306842070e+00 -4.3832736244e+00 2.5306842070e+00 4.3832736244e+00 
12000 6.4118612442e+00 -1.2997018046e-01 2.5332360999e+00 -4.3876936326e+00 2.5332360999e+00 4.3876936326e+00 
12100 6.4108177737e+00 -1.3075878561e-01 2.5358018318e+00 -4.3921376106e+00 2.5358018318e+00 4.3921376106e+00 
12200 6.4097762299e+00 -1.3150638177e-01 2.5383805215e+00 -4.3966040322e+00 2.5383805215e+00 4.3966040322e+00 
12300 6.4087361442e+00 -1.3221442656e-01 2.5409713215e+00 -4.4010914294e+00 2.5409713215e+00 4.4010914294e+00 
12400 6.4076971070e+00 -1.3288429565e-01 2.5435734163e+00 -4.4055983898e+00 2.5435734163e+00 4.4055983898e+00 
12500 6.4066587656e+00 -1.3351728653e-01 2.5461860206e+00 -4.4101235532e+00 2.5461860206e+00 4.4101235532e+00 
12600 6.4056208208e+00 -1.3411462229e-01 2.5488083777e+00 -4.4146656089e+00 2.5488083777e+00 4.4146656089e+00 
12700 6.4045830252e+00 -1.3467745541e-01 2.5514397577e+00 -4.4192232928e+00 2.5514397577e+00 4.4192232928e+00 
12800 6.4035451799e+00 -1.3520687142e-01 2.5540794565e+00 -4.4237953853e+00 2.5540794565e+00 4.4237953853e+00 
12900 6.4025071321e+00 -1.3570389263e-01 2.5567267939e+00 -4.4283807081e+00 2.5567267939e+00 4.4283807081e+00 
13000 6.4014687723e+00 -1.3616948167e-01 2.5593811124e+00 -4.4329781227e+00 2.5593811124e+00 4.4329781227e+00 
13100 6.4004300321e+00 -1.3660454500e-01 2.5620417761e+00 -4.4375865273e+00 2.5620417761e+00 4.4375865273e+00 
13200 6.3993908810e+00 -1.3700993635e-01 2.5647081692e+00 -4.4422048556e+00 2.5647081692e+00 4.4422048556e+00 
13300 6.3983513245e+00 -1.3738645998e-01 2.5673796952e+00 -4.4468320745e+00 2.5673796952e+00 4.4468320745e+00 
13400 6.3973114010e+00 -1.3773487394e-01 2.5700557758e+00 -4.4514671820e+00 2.5700557758e+00 4.4514671820e+00 
13500 6.3962711798e+00 -1.3805589308e-01 2.5727358496e+00 -4.4561092060e+00 2.5727358496e+00 4.4561092060e+00 
13600 6.3952307585e+00 -1.3835019206e-01 2.5754193716e+00 -4.4607572024e+00 2.5754193716e+00 4.4607572024e+00 
13700 6.3941902610e+00 -1.3861840821e-01 2.5781058120e+00 -4.4654102537e+00 2.5781058120e+00 4.4654102537e+00 
13800 6.3931498346e+00 -1.3886114417e-01 2.5807946558e+00 -4.4700674677e+00 2.5807946558e+00 4.4700674677e+00 
13900 6.3921096487e+00 -1.3907897056e-01 2.5834854015e+00 -4.4747279761e+00 2.5834854015e+00 4.4747279761e+00 
14000 6.3910698919e+00 -1.3927242840e-01 2.5861775611e+00 -4.4793909331e+00 2.5861775611e+00 4.4793909331e+00 
14100 6.3900307707e+00 -1.3944203147e-01 2.5888706586e+00 -4.4840555150e+00 2.5888706586e+00 4.4840555150e+00 
14200 6.3889925071e+00 -1.3958826849e-01 2.5915642305e+00 -4.4887209183e+00 2.5915642305e+00 4.4887209183e+00 
14300 6.3879553369e+00 -1.3971160528e-01 2.5942578241e+00 -4.4933863594e+00 2.5942578241e+00 4.4933863594e+00 
14400 6.3869195081e+00 -1.3981248666e-01 2.5969509980e+00 -4.4980510734e+00 2.5969509980e+00 4.4980510734e+00 
14500 6.3858852789e+00 -1.3989133836e-01 2.5996433210e+00 -4.5027143135e+00 2.5996433210e+00 4.5027143135e+00 
14600 6.3848529166e+00 -1.3994856871e-01 2.6023343718e+00 -4.5073753502e+00 2.6023343718e+00 4.5073753502e+00 
14700 6.3838226955e+00 -1.3998457031e-01 2.6050237388e+00 -4.5120334705e+00 2.6050237388e+00 4.5120334705e+00 
14800 6.3827948960e+00 -1.3999972153e-01 2.6077110197e+00 -4.5166879775e+00 2.6077110197e+00 4.5166879775e+00 
14900 6.3817698031e+00 -1.3999438795e-01 2.6103958209e+00 -4.5213381897e+00 2.6103958209e+00 4.5213381897e+00 
15000 6.3807477048e+00 -1.3996892364e-01 2.6130777577e+00 -4.5259834404e+00 2.6130777577e+00 4.5259834404e+00 
15100 6.3797288916e+00 -1.3992367237e-01 2.6157564535e+00 -4.5306230777e+00 2.6157564535e+00 4.5306230777e+00 
15200 6.3787136547e+00 -1.3985896881e-01 2.6184315400e+00 -4.5352564634e+00 2.6184315400e+00 4.5352564634e+00 
15300 6.3777022853e+00 -1.3977513946e-01 2.6211026566e+00 -4.5398829730e+00 2.6211026566e+00 4.5398829730e+00 
15400 6.3766950738e+00 -1.3967250371e-01 2.6237694505e+00 -4.5445019956e+00 2.6237694505e+00 4.5445019956e+00 
15500 6.3756923084e+00 -1.3955137461e-01 2.6264315765e+00 -4.5491129330e+00 2.6264315765e+00 4.5491129330e+00 
15600 6.3746942748e+00 -1.3941205975e-01 2.6290886964e+00 -4.5537151999e+00 2.6290886964e+00 4.5537151999e+00 
15700 6.3737012552e+00 -1.3925486191e-01 2.6317404797e+00 -4.5583082232e+00 2.6317404797e+00 4.5583082232e+00 
15800 6.3727135274e+00 -1.3908007978e-01 2.6343866025e+00 -4.5628914424e+00 2.6343866025e+00 4.5628914424e+00 
15900 6.3717313645e+00 -1.3888800848e-01 2.6370267481e+00 -4.5674643087e+00 2.6370267481e+00 4.5674643087e+00 
16000 6.3707550341e+00 -1.3867894014e-01 2.6396606065e+00 -4.5720262852e+00 2.6396606065e+00 4.5720262852e+00 
16100 6.3697847979e+00 -1.3845316434e-01 2.6422878746e+00 -4.5765768469e+00 2.6422878746e+00 4.5765768469e+00 
16200 6.3688209109e+00 -1.3821096855e-01 2.6449082556e+00 -4.5811154801e+00 2.6449082556e+00 4.5811154801e+00 
16300 6.3678636213e+00 -1.3795263845e-01 2.6475214597e+00 -4.5856416823e+00 2.6475214597e+00 4.5856416823e+00 
16400 6.3669131702e+00 -1.3767845832e-01 2.6501272033e+00 -4.5901549626e+00 2.6501272033e+00 4.5901549626e+00 
16500 6.3659697907e+00 -1.3738871123e-01 2.6527252093e+00 -4.5946548410e+00 2.6527252093e+00 4.5946548410e+00 
16600 6.3650337080e+00 -1.3708367933e-01 2.6553152070e+00 -4.5991408486e+00 2.6553152070e+00 4.5991408486e+00 
16700 6.3641051392e+00 -1.3676364405e-01 2.6578969319e+00 -4.6036125273e+00 2.6578969319e+00 4.6036125273e+00 
16800 6.3631842928e+00 -1.3642888622e-01 2.6604701258e+00 -4.6080694300e+00 2.6604701258e+00 4.6080694300e+00 
16900 6.3622713686e+00 -1.3607968623e-01 2.6630345369e+00 -4.6125111202e+00 2.6630345369e+00 4.6125111202e+00 
17000 6.3613665575e+00 -1.3571632414e-01 2.6655899192e+00 -4.6169371721e+00 2.6655899192e+00 4.6169371721e+00 
17100 6.3604700416e+00 -1.3533907973e-01 2.6681360330e+00 -4.6213471706e+00 2.6681360330e+00 4.6213471706e+00 
17200 6.3595819937e+00 -1.3494823254e-01 2.6706726446e+00 -4.6257407109e+00 2.6706726446e+00 4.6257407109e+00 
17300 6.3587025775e+00 -1.3454406195e-01 2.6731995266e+00 -4.6301173988e+00 2.6731995266e+00 4.6301173988e+00 
17400 6.3578319473e+00 -1.3412684715e-01 2.6757164571e+00 -4.6344768504e+00 2.6757164571e+00 4.6344768504e+00 
17500 6.3569702484e+00 -1.3369686712e-01 2.6782232206e+00 -4.6388186922e+00 2.6782232206e+00 4.6388186922e+00 
17600 6.3561176165e+00 -1.3325440065e-01 2.6807196073e+00 -4.6431425607e+00 2.6807196073e+00 4.6431425607e+00 
17700 6.3552741782e+00 -1.3279972625e-01 2.6832054132e+00 -4.6474481028e+00 2.6832054132e+00 4.6474481028e+00 
17800 6.3544400507e+00 -1.3233312216e-01 2.6856804403e+00 -4.6517349755e+00 2.6856804403e+00 4.6517349755e+00 
17900 6.3536153422e+00 -1.3185486622e-01 2.6881444962e+00 -4.6560028455e+00 2.6881444962e+00 4.6560028455e+00 
18000 6.3528001516e+00 -1.3136523588e-01 2.6905973944e+00 -4.6602513899e+00 2.6905973944e+00 4.6602513899e+00 
18100 6.3519945685e+00 -1.3086450803e-01 2.6930389541e+00 -4.6644802953e+00 2.6930389541e+00 4.6644802953e+00 
18200 6.3511986739e+00 -1.3035295902e-01 2.6954690001e+00 -4.6686892584e+00 2.6954690001e+00 4.6686892584e+00 
18300 6.3504125396e+00 -1.2983086448e-01 2.6978873627e+00 -4.6728779853e+00 2.6978873627e+00 4.6728779853e+00 
18400 6.3496362288e+00 -1.2929849929e-01 2.7002938780e+00 -4.6770461921e+00 2.7002938780e+00 4.6770461921e+00 
18500 6.3488697960e+00 -1.2875613746e-01 2.7026883876e+00 -4.6811936043e+00 2.7026883876e+00 4.6811936043e+00 
18600 6.3481132870e+00 -1.2820405203e-01 2.7050707383e+00 -4.6853199569e+00 2.7050707383e+00 4.6853199569e+00 
18700 6.3473667395e+00 -1.2764251499e-01 2.7074407827e+00 -4.6894249941e+00 2.7074407827e+00 4.6894249941e+00 
18800 6.3466301827e+00 -1.2707179718e-01 2.7097983785e+00 -4.6935084699e+00 2.7097983785e+00 4.6935084699e+00 
18900 6.3459036381e+00 -1.2649216818e-01 2.7121433889e+00 -4.6975701470e+00 2.7121433889e+00 4.6975701470e+00 
19000 6.3451871188e+00 -1.2590389621e-01 2.7144756822e+00 -4.7016097975e+00 2.7144756822e+00 4.7016097975e+00 
19100 6.3444806307e+00 -1.2530724807e-01 2.7167951322e+00 -4.7056272027e+00 2.7167951322e+00 4.7056272027e+00 
19200 6.3437841718e+00 -1.2470248902e-01 2.7191016175e+00 -4.7096221524e+00 2.7191016175e+00 4.7096221524e+00 
19300 6.3430977330e+00 -1.2408988269e-01 2.7213950220e+00 -4.7135944456e+00 2.7213950220e+00 4.7135944456e+00 
19400 6.3424212977e+00 -1.2346969102e-01 2.7236752348e+00 -4.7175438900e+00 2.7236752348e+00 4.7175438900e+00 
19500 6.3417548427e+00 -1.2284217413e-01 2.7259421498e+00 -4.7214703019e+00 2.7259421498e+00 4.7214703019e+00 
19600 6.3410983379e+00 -1.2220759032e-01 2.7281956657e+00 -4.7253735061e+00 2.7281956657e+00 4.7253735061e+00 
19700 6.3404517466e+00 -1.2156619589e-01 2.7304356865e+00 -4.7292533358e+00 2.7304356865e+00 4.7292533358e+00 
19800 6.3398150257e+00 -1.2091824519e-01 2.7326621206e+00 -4.7331096327e+00 2.7326621206e+00 4.7331096327e+00 
19900 6.3391881262e+00 -1.2026399043e-01 2.7348748813e+00 -4.7369422467e+00 2.7348748813e+00 4.7369422467e+00 
20000 6.3385709929e+00 -1.1960368173e-01 2.7370738867e+00 -4.7407510358e+00 2.7370738867e+00 4.7407510358e+00 
20100 6.3379635652e+00 -1.1893756699e-01 2.7392590594e+00 -4.7445358659e+00 2.7392590594e+00 4.7445358659e+00 
20200 6.3373657767e+00 -1.1826589186e-01 2.7414303265e+00 -4.7482966110e+00 2.7414303265e+00 4.7482966110e+00 
20300 6.3367775558e+00 -1.1758889968e-01 2.7435876199e+00 -4.7520331527e+00 2.7435876199e+00 4.7520331527e+00 
20400 6.3361988261e+00 -1.1690683148e-01 2.7457308756e+00 -4.7557453804e+00 2.7457308756e+00 4.7557453804e+00 
20500 6.3356295062e+00 -1.1621992588e-01 2.7478600341e+00 -4.7594331912e+00 2.7478600341e+00 4.7594331912e+00 
20600 6.3350695099e+00 -1.1552841909e-01 2.7499750403e+00 -4.7630964894e+00 2.7499750403e+00 4.7630964894e+00 
20700 6.3345187471e+00 -1.1483254486e-01 2.7520758433e+00 -4.7667351869e+00 2.7520758433e+00 4.7667351869e+00 
20800 6.3339771231e+00 -1.1413253448e-01 2.7541623963e+00 -4.7703492027e+00 2.7541623963e+00 4.7703492027e+00 
20900 6.3334445396e+00 -1.1342861672e-01 2.7562346567e+00 -4.7739384631e+00 2.7562346567e+00 4.7739384631e+00 
21000 6.3329208943e+00 -1.1272101784e-01 2.7582925860e+00 -4.7775029011e+00 2.7582925860e+00 4.7775029011e+00 
21100 6.3324060817e+00 -1.1200996155e-01 2.7603361496e+00 -4.7810424570e+00 2.7603361496e+00 4.7810424570e+00 
21200 6.3318999929e+00 -1.1129566901e-01 2.7623653168e+00 -4.7845570778e+00 2.7623653168e+00 4.7845570778e+00 
21300 6.3314025161e+00 -1.1057835881e-01 2.7643800609e+00 -4.7880467170e+00 2.7643800609e+00 4.7880467170e+00 
21400 6.3309135364e+00 -1.0985824698e-01 2.7663803590e+00 -4.7915113349e+00 2.7663803590e+00 4.7915113349e+00 
21500 6.3304329368e+00 -1.0913554696e-01 2.7683661919e+00 -4.7949508983e+00 2.7683661919e+00 4.7949508983e+00 
21600 6.3299605975e+00 -1.0841046961e-01 2.7703375440e+00 -4.7983653803e+00 2.7703375440e+00 4.7983653803e+00 
21700 6.3294963966e+00 -1.0768322319e-01 2.7722944034e+00 -4.8017547602e+00 2.7722944034e+00 4.8017547602e+00 
21800 6.3290402106e+00 -1.0695401339e-01 2.7742367618e+00 -4.8051190236e+00 2.7742367618e+00 4.8051190236e+00 
21900 6.3285919140e+00 -1.0622304333e-01 2.7761646144e+00 -4.8084581623e+00 2.7761646144e+00 4.8084581623e+00 
22000 6.3281513797e+00 -1.0549051351e-01 2.7780779598e+00 -4.8117721737e+00 2.7780779598e+00 4.8117721737e+00 
22100 6.3277184795e+00 -1.0475662189e-01 2.7799767999e+00 -4.8150610614e+00 2.7799767999e+00 4.8150610614e+00 
22200 6.3272930841e+00 -1.0402156383e-01 2.7818611403e+00 -4.8183248345e+00 2.7818611403e+00 4.8183248345e+00 
22300 6.3268750632e+00 -1.0328553214e-01 2.7837309893e+00 -4.8215635081e+00 2.7837309893e+00 4.8215635081e+00 
22400 6.3264642858e+00 -1.0254871705e-01 2.7855863589e+00 -4.8247771025e+00 2.7855863589e+00 4.8247771025e+00 
22500 6.3260606205e+00 -1.0181130624e-01 2.7874272640e+00 -4.8279656437e+00 2.7874272640e+00 4.8279656437e+00 
22600 6.3256639355e+00 -1.0107348485e-01 2.7892537227e+00 -4.8311291630e+00 2.7892537227e+00 4.8311291630e+00 
22700 6.3252740988e+00 -1.0033543544e-01 2.7910657562e+00 -4.8342676969e+00 2.7910657562e+00 4.8342676969e+00 
22800 6.3248909786e+00 -9.9597338057e-02 2.7928633884e+00 -4.8373812874e+00 2.7928633884e+00 4.8373812874e+00 
22900 6.3245144432e+00 -9.8859370184e-02 2.7946466466e+00 -4.8404699811e+00 2.7946466466e+00 4.8404699811e+00 
23000 6.3241443614e+00 -9.8121706774e-02 2.7964155606e+00 -4.8435338301e+00 2.7964155606e+00 4.8435338301e+00 
23100 6.3237806025e+00 -9.7384520242e-02 2.7981701632e+00 -4.8465728909e+00 2.7981701632e+00 4.8465728909e+00 
23200 6.3234230364e+00 -9.6647980464e-02 2.7999104900e+00 -4.8495872253e+00 2.7999104900e+00 4.8495872253e+00 
23300 6.3230715342e+00 -9.5912254775e-02 2.8016365791e+00 -4.8525768994e+00 2.8016365791e+00 4.8525768994e+00 
23400 6.3227259677e+00 -9.5177507969e-02 2.8033484717e+00 -4.8555419843e+00 2.8033484717e+00 4.8555419843e+00 
23500 6.3223862101e+00 -9.4443902293e-02 2.8050462112e+00 -4.8584825553e+00 2.8050462112e+00 4.8584825553e+00 
23600 6.3220521358e+00 -9.3711597442e-02 2.8067298437e+00 -4.8613986925e+00 2.8067298437e+00 4.8613986925e+00 
23700 6.3217236206e+00 -9.2980750548e-02 2.8083994181e+00 -4.8642904800e+00 2.8083994181e+00 4.8642904800e+00 
23800 6.3214005419e+00 -9.2251516175e-02 2.8100549853e+00 -4.8671580066e+00 2.8100549853e+00 4.8671580066e+00 
23900 6.3210827789e+00 -9.1524046302e-02 2.8116965989e+00 -4.8700013648e+00 2.8116965989e+00 4.8700013648e+00 
24000 6.3207702125e+00 -9.0798490316e-02 2.8133243149e+00 -4.8728206516e+00 2.8133243149e+00 4.8728206516e+00 
24100 6.3204627254e+00 -9.0074994990e-02 2.8149381915e+00 -4.8756159679e+00 2.8149381915e+00 4.8756159679e+00 
24200 6.3201602026e+00 -8.9353704470e-02 2.8165382892e+00 -4.8783874184e+00 2.8165382892e+00 4.8783874184e+00 
24300 6.3198625308e+00 -8.8634760256e-02 2.8181246708e+00 -4.8811351118e+00 2.8181246708e+00 4.8811351118e+00 
24400 6.3195695993e+00 -8.7918301178e-02 2.8196974010e+00 -4.8838591606e+00 2.8196974010e+00 4.8838591606e+00 
24500 6.3192812992e+00 -8.7204463378e-02 2.8212565470e+00 -4.8865596806e+00 2.8212565470e+00 4.8865596806e+00 
24600 6.3189975243e+00 -8.6493380281e-02 2.8228021778e+00 -4.8892367917e+00 2.8228021778e+00 4.8892367917e+00 
24700 6.3187181707e+00 -8.5785182572e-02 2.8243343646e+00 -4.8918906170e+00 2.8243343646e+00 4.8918906170e+00 
24800 6.3184431368e+00 -8.5079998168e-02 2.8258531802e+00 -4.8945212829e+00 2.8258531802e+00 4.8945212829e+00 
24900 6.3181723236e+00 -8.4377952188e-02 2.8273586999e+00 -4.8971289194e+00 2.8273586999e+00 4.8971289194e+00 
25000 6.3179056346e+00 -8.3679166924e-02 2.8288510002e+00 -4.8997136595e+00 2.8288510002e+00 4.8997136595e+00 
25100 6.3176429761e+00 -8.2983761810e-02 2.8303301601e+00 -4.9022756394e+00 2.8303301601e+00 4.9022756394e+00 
25200 6.3173842566e+00 -8.2291853388e-02 2.8317962597e+00 -4.9048149985e+00 2.8317962597e+00 4.9048149985e+00 
25300 6.3171293876e+00 -8.1603555278e-02 2.8332493813e+00 -4.9073318790e+00 2.8332493813e+00 4.9073318790e+00 
25400 6.3168782830e+00 -8.0918978139e-02 2.8346896087e+00 -4.9098264259e+00 2.8346896087e+00 4.9098264259e+00 
25500 6.3166308594e+00 -8.0238229639e-02 2.8361170271e+00 -4.9122987872e+00 2.8361170271e+00 4.9122987872e+00 
25600 6.3163870361e+00 -7.9561414419e-02 2.8375317236e+00 -4.9147491134e+00 2.8375317236e+00 4.9147491134e+00 
25700 6.3161467351e+00 -7.8888634058e-02 2.8389337866e+00 -4.9171775577e+00 2.8389337866e+00 4.9171775577e+00 
25800 6.3159098809e+00 -7.8219987037e-02 2.8403233059e+00 -4.9195842758e+00 2.8403233059e+00 4.9195842758e+00 
25900 6.3156764007e+00 -7.7555568707e-02 2.8417003728e+00 -4.9219694256e+00 2.8417003728e+00 4.9219694256e+00 
26000 6.3154462243e+00 -7.6895471250e-02 2.8430650799e+00 -4.9243331676e+00 2.8430650799e+00 4.9243331676e+00 
26100 6.3152192842e+00 -7.6239783651e-02 2.8444175210e+00 -4.9266756644e+00 2.8444175210e+00 4.9266756644e+00 
26200 6.3149955151e+00 -7.5588591663e-02 2.8457577914e+00 -4.9289970807e+00 2.8457577914e+00 4.9289970807e+00 
26300 6.3147748545e+00 -7.4941977771e-02 2.8470859871e+00 -4.9312975832e+00 2.8470859871e+00 4.9312975832e+00 
26400 6.3145572423e+00 -7.4300021170e-02 2.8484022057e+00 -4.9335773407e+00 2.8484022057e+00 4.9335773407e+00 
26500 6.3143426208e+00 -7.3662797727e-02 2.8497065455e+00 -4.9358365235e+00 2.8497065455e+00 4.9358365235e+00 
26600 6.3141309347e+00 -7.3030379959e-02 2.8509991060e+00 -4.9380753040e+00 2.8509991060e+00 4.9380753040e+00 
26700 6.3139221309e+00 -7.2402837006e-02 2.8522799876e+00 -4.9402938560e+00 2.8522799876e+00 4.9402938560e+00 
26800 6.3137161587e+00 -7.1780234607e-02 2.8535492916e+00 -4.9424923549e+00 2.8535492916e+00 4.9424923549e+00 
26900 6.3135129695e+00 -7.1162635077e-02 2.8548071199e+00 -4.9446709775e+00 2.8548071199e+00 4.9446709775e+00 
27000 6.3133125169e+00 -7.0550097291e-02 2.8560535756e+00 -4.9468299021e+00 2.8560535756e+00 4.9468299021e+00 
27100 6.3131147564e+00 -6.9942676664e-02 2.8572887622e+00 -4.9489693080e+00 2.8572887622e+00 4.9489693080e+00 
27200 6.3129196458e+00 -6.9340425138e-02 2.8585127839e+00 -4.9510893757e+00 2.8585127839e+00 4.9510893757e+00 
27300 6.3127271446e+00 -6.8743391173e-02 2.8597257455e+00 -4.9531902869e+00 2.8597257455e+00 4.9531902869e+00 
27400 6.3125372141e+00 -6.8151619734e-02 2.8609277524e+00 -4.9552722240e+00 2.8609277524e+00 4.9552722240e+00 
27500 6.3123498175e+00 -6.7565152293e-02 2.8621189106e+00 -4.9573353704e+00 2.8621189106e+00 4.9573353704e+00 
27600 6.3121649196e+00 -6.6984026819e-02 2.8632993261e+00 -4.9593799101e+00 2.8632993261e+00 4.9593799101e+00 
27700 6.3119824870e+00 -6.6408277784e-02 2.8644691058e+00 -4.9614060279e+00 2.8644691058e+00 4.9614060279e+00 
27800 6.3118024877e+00 -6.5837936168e-02 2.8656283565e+00 -4.9634139090e+00 2.8656283565e+00 4.9634139090e+00 
27900 6.3116248910e+00 -6.5273029466e-02 2.8667771854e+00 -4.9654037390e+00 2.8667771854e+00 4.9654037390e+00 
28000 6.3114496680e+00 -6.4713581699e-02 2.8679156999e+00 -4.9673757040e+00 2.8679156999e+00 4.9673757040e+00 
28100 6.3112767908e+00 -6.4159613431e-02 2.8690440075e+00 -4.9693299901e+00 2.8690440075e+00 4.9693299901e+00 
28200 6.3111062328e+00 -6.3611141789e-02 2.8701622158e+00 -4.9712667838e+00 2.8701622158e+00 4.9712667838e+00 
28300 6.3109379685e+00 -6.3068180483e-02 2.8712704325e+00 -4.9731862714e+00 2.8712704325e+00 4.9731862714e+00 
28400 6.3107719736e+00 -6.2530739835e-02 2.8723687651e+00 -4.9750886393e+00 2.8723687651e+00 4.9750886393e+00 
28500 6.3106082248e+00 -6.1998826808e-02 2.8734573212e+00 -4.9769740737e+00 2.8734573212e+00 4.9769740737e+00 
28600 6.3104466995e+00 -6.1472445041e-02 2.8745362080e+00 -4.9788427605e+00 2.8745362080e+00 4.9788427605e+00 
28700 6.3102873763e+00 -6.0951594886e-02 2.8756055328e+00 -4.9806948853e+00 2.8756055328e+00 4.9806948853e+00 
28800 6.3101302344e+00 -6.0436273450e-02 2.8766654024e+00 -4.9825306333e+00 2.8766654024e+00 4.9825306333e+00 
28900 6.3099752536e+00 -5.9926474639e-02 2.8777159234e+00 -4.9843501891e+00 2.8777159234e+00 4.9843501891e+00 
29000 6.3098224145e+00 -5.9422189210e-02 2.8787572021e+00 -4.9861537367e+00 2.8787572021e+00 4.9861537367e+00 
29100 6.3096716984e+00 -5.8923404817e-02 2.8797893444e+00 -4.9879414595e+00 2.8797893444e+00 4.9879414595e+00 
29200 6.3095230870e+00 -5.8430106074e-02 2.8808124555e+00 -4.9897135401e+00 2.8808124555e+00 4.9897135401e+00 
29300 6.3093765623e+00 -5.7942274607e-02 2.8818266405e+00 -4.9914701599e+00 2.8818266405e+00 4.9914701599e+00 
29400 6.3092321070e+00 -5.7459889122e-02 2.8828320036e+00 -4.9932114999e+00 2.8828320036e+00 4.9932114999e+00 
29500 6.3090897040e+00 -5.6982925467e-02 2.8838286485e+00 -4.9949377395e+00 2.8838286485e+00 4.9949377395e+00 
29600 6.3089493365e+00 -5.6511356700e-02 2.8848166784e+00 -4.9966490575e+00 2.8848166784e+00 4.9966490575e+00 
29700 6.3088109880e+00 -5.6045153163e-02 2.8857961956e+00 -4.9983456311e+00 2.8857961956e+00 4.9983456311e+00 
29800 6.3086746423e+00 -5.5584282556e-02 2.8867673019e+00 -5.0000276365e+00 2.8867673019e+00 5.0000276365e+00 
29900 6.3085402831e+00 -5.5128710008e-02 2.8877300981e+00 -5.0016952484e+00 2.8877300981e+00 5.0016952484e+00 
30000 6.3084078945e+00 -5.4678398164e-02 2.8886846843e+00 -5.0033486402e+00 2.8886846843e+00 5.0033486402e+00 
30100 6.3082774606e+00 -5.4233307262e-02 2.8896311597e+00 -5.0049879838e+00 2.8896311597e+00 5.0049879838e+00 
30200 6.3081489654e+00 -5.3793395218e-02 2.8905696228e+00 -5.0066134495e+00 2.8905696228e+00 5.0066134495e+00 
30300 6.3080223932e+00 -5.3358617712e-02 2.8915001709e+00 -5.0082252061e+00 2.8915001709e+00 5.0082252061e+00 
30400 6.3078977281e+00 -5.2928928271e-02 2.8924229005e+00 -5.0098234206e+00 2.8924229005e+00 5.0098234206e+00 
30500 6.3077749542e+00 -5.2504278368e-02 2.8933379070e+00 -5.0114082584e+00 2.8933379070e+00 5.0114082584e+00 
30600 6.3076540556e+00 -5.2084617502e-02 2.8942452850e+00 -5.0129798831e+00 2.8942452850e+00 5.0129798831e+00 
30700 6.3075350162e+00 -5.1669893297e-02 2.8951451278e+00 -5.0145384566e+00 2.8951451278e+00 5.0145384566e+00 
30800 6.3074178199e+00 -5.1260051593e-02 2.8960375277e+00 -5.0160841386e+00 2.8960375277e+00 5.0160841386e+00 
30900 6.3073024504e+00 -5.0855036539e-02 2.8969225760e+00 -5.0176170872e+00 2.8969225760e+00 5.0176170872e+00 
31000 6.3071888915e+00 -5.0454790689e-02 2.8978003627e+00 -5.0191374585e+00 2.8978003627e+00 5.0191374585e+00 
31100 6.3070771266e+00 -5.0059255099e-02 2.8986709768e+00 -5.0206454063e+00 2.8986709768e+00 5.0206454063e+00 
31200 6.3069671390e+00 -4.9668369420e-02 2.8995345060e+00 -5.0221410827e+00 2.8995345060e+00 5.0221410827e+00 
31300 6.3068589120e+00 -4.9282071996e-02 2.9003910368e+00 -5.0236246376e+00 2.9003910368e+00 5.0236246376e+00 
31400 6.3067524286e+00 -4.8900299960e-02 2.9012406546e+00 -5.0250962188e+00 2.9012406546e+00 5.0250962188e+00 
31500 6.3066476716e+00 -4.8522989330e-02 2.9020834435e+00 -5.0265559720e+00 2.9020834435e+00 5.0265559720e+00 
31600 6.3065446238e+00 -4.8150075106e-02 2.9029194863e+00 -5.0280040405e+00 2.9029194863e+00 5.0280040405e+00 
31700 6.3064432676e+00 -4.7781491363e-02 2.9037488646e+00 -5.0294405659e+00 2.9037488646e+00 5.0294405659e+00 
31800 6.3063435855e+00 -4.7417171348e-02 2.9045716586e+00 -5.0308656870e+00 2.9045716586e+00 5.0308656870e+00 
31900 6.3062455596e+00 -4.7057047573e-02 2.9053879475e+00 -5.0322795408e+00 2.9053879475e+00 5.0322795408e+00 
32000 6.3061491719e+00 -4.6701051912e-02 2.9061978090e+00 -5.0336822620e+00 2.9061978090e+00 5.0336822620e+00 
32100 6.3060544045e+00 -4.6349115687e-02 2.9070013194e+00 -5.0350739828e+00 2.9070013194e+00 5.0350739828e+00 
32200 6.3059612390e+00 -4.6001169762e-02 2.9077985538e+00 -5.0364548334e+00 2.9077985538e+00 5.0364548334e+00 
32300 6.3058696570e+00 -4.5657144635e-02 2.9085895862e+00 -5.0378249417e+00 2.9085895862e+00 5.0378249417e+00 
32400 6.3057796400e+00 -4.5316970522e-02 2.9093744889e+00 -5.0391844331e+00 2.9093744889e+00 5.0391844331e+00 
32500 6.3056911694e+00 -4.4980577449e-02 2.9101533332e+00 -5.0405334309e+00 2.9101533332e+00 5.0405334309e+00 
32600 6.3056042263e+00 -4.4647895330e-02 2.9109261888e+00 -5.0418720561e+00 2.9109261888e+00 5.0418720561e+00 
32700 6.3055187920e+00 -4.4318854055e-02 2.9116931243e+00 -5.0432004274e+00 2.9116931243e+00 5.0432004274e+00 
32800 6.3054348475e+00 -4.3993383572e-02 2.9124542070e+00 -5.0445186613e+00 2.9124542070e+00 5.0445186613e+00 
32900 6.3053523738e+00 -4.3671413961e-02 2.9132095028e+00 -5.0458268719e+00 2.9132095028e+00 5.0458268719e+00 
33000 6.3052713517e+00 -4.3352875517e-02 2.9139590761e+00 -5.0471251711e+00 2.9139590761e+00 5.0471251711e+00 
33100 6.3051917622e+00 -4.3037698821e-02 2.9147029905e+00 -5.0484136685e+00 2.9147029905e+00 5.0484136685e+00 
33200 6.3051135859e+00 -4.2725814812e-02 2.9154413078e+00 -5.0496924717e+00 2.9154413078e+00 5.0496924717e+00 
33300 6.3050368038e+00 -4.2417154862e-02 2.9161740889e+00 -5.0509616857e+00 2.9161740889e+00 5.0509616857e+00 
33400 6.3049613966e+00 -4.2111650836e-02 2.9169013932e+00 -5.0522214137e+00 2.9169013932e+00 5.0522214137e+00 
33500 6.3048873450e+00 -4.1809235166e-02 2.9176232789e+00 -5.0534717563e+00 2.9176232789e+00 5.0534717563e+00 
33600 6.3048146297e+00 -4.1509840907e-02 2.9183398029e+00 -5.0547128124e+00 2.9183398029e+00 5.0547128124e+00 
33700 6.3047432316e+00 -4.1213401799e-02 2.9190510211e+00 -5.0559446785e+00 2.9190510211e+00 5.0559446785e+00 
33800 6.3046731315e+00 -4.0919852324e-02 2.9197569879e+00 -5.0571674488e+00 2.9197569879e+00 5.0571674488e+00 
33900 6.3046043102e+00 -4.0629127764e-02 2.9204577567e+00 -5.0583812159e+00 2.9204577567e+00 5.0583812159e+00 
34000 6.3045367486e+00 -4.0341164249e-02 2.9211533795e+00 -5.0595860699e+00 2.9211533795e+00 5.0595860699e+00 
34100 6.3044704277e+00 -4.0055898806e-02 2.9218439073e+00 -5.0607820992e+00 2.9218439073e+00 5.0607820992e+00 
34200 6.3044053285e+00 -3.9773269410e-02 2.9225293899e+00 -5.0619693899e+00 2.9225293899e+00 5.0619693899e+00 
34300 6.3043414322e+00 -3.9493215023e-02 2.9232098760e+00 -5.0631480264e+00 2.9232098760e+00 5.0631480264e+00 
34400 6.3042787199e+00 -3.9215675638e-02 2.9238854131e+00 -5.0643180910e+00 2.9238854131e+00 5.0643180910e+00 
34500 6.3042171730e+00 -3.8940592317e-02 2.9245560477e+00 -5.0654796642e+00 2.9245560477e+00 5.0654796642e+00 
34600 6.3041567729e+00 -3.8667907224e-02 2.9252218252e+00 -5.0666328246e+00 2.9252218252e+00 5.0666328246e+00 
34700 6.3040975013e+00 -3.8397563661e-02 2.9258827898e+00 -5.0677776489e+00 2.9258827898e+00 5.0677776489e+00 
34800 6.3040393397e+00 -3.8129506097e-02 2.9265389849e+00 -5.0689142122e+00 2.9265389849e+00 5.0689142122e+00 
34900 6.3039822700e+00 -3.7863680195e-02 2.9271904527e+00 -5.0700425876e+00 2.9271904527e+00 5.0700425876e+00 
35000 6.3039262742e+00 -3.7600032837e-02 2.9278372346e+00 -5.0711628466e+00 2.9278372346e+00 5.0711628466e+00 
35100 6.3038713344e+00 -3.7338512146e-02 2.9284793708e+00 -5.0722750592e+00 2.9284793708e+00 5.0722750592e+00 
35200 6.3038174330e+00 -3.7079067507e-02 2.9291169008e+00 -5.0733792935e+00 2.9291169008e+00 5.0733792935e+00 
35300 6.3037645522e+00 -3.6821649580e-02 2.9297498629e+00 -5.0744756161e+00 2.9297498629e+00 5.0744756161e+00 
35400 6.3037126749e+00 -3.6566210320e-02 2.9303782948e+00 -5.0755640920e+00 2.9303782948e+00 5.0755640920e+00 
35500 6.3036617837e+00 -3.6312702985e-02 2.9310022332e+00 -5.0766447850e+00 2.9310022332e+00 5.0766447850e+00 
35600 6.3036118617e+00 -3.6061082148e-02 2.9316217138e+00 -5.0777177569e+00 2.9316217138e+00 5.0777177569e+00 
35700 6.3035628920e+00 -3.5811303702e-02 2.9322367717e+00 -5.0787830684e+00 2.9322367717e+00 5.0787830684e+00 
35800 6.3035148580e+00 -3.5563324867e-02 2.9328474411e+00 -5.0798407789e+00 2.9328474411e+00 5.0798407789e+00 
35900 6.3034677432e+00 -3.5317104193e-02 2.9334537555e+00 -5.0808909461e+00 2.9334537555e+00 5.0808909461e+00 
36000 6.3034215314e+00 -3.5072601558e-02 2.9340557474e+00 -5.0819336268e+00 2.9340557474e+00 5.0819336268e+00 
36100 6.3033762065e+00 -3.4829778170e-02 2.9346534490e+00 -5.0829688762e+00 2.9346534490e+00 5.0829688762e+00 
36200 6.3033317526e+00 -3.4588596561e-02 2.9352468913e+00 -5.0839967485e+00 2.9352468913e+00 5.0839967485e+00 
36300 6.3032881542e+00 -3.4349020583e-02 2.9358361050e+00 -5.0850172966e+00 2.9358361050e+00 5.0850172966e+00 
36400 6.3032453956e+00 -3.4111015402e-02 2.9364211200e+00 -5.0860305722e+00 2.9364211200e+00 5.0860305722e+00 
36500 6.3032034618e+00 -3.3874547483e-02 2.9370019655e+00 -5.0870366261e+00 2.9370019655e+00 5.0870366261e+00 
36600 6.3031623376e+00 -3.3639584588e-02 2.9375786702e+00 -5.0880355079e+00 2.9375786702e+00 5.0880355079e+00 
36700 6.3031220082e+00 -3.3406095755e-02 2.9381512621e+00 -5.0890272663e+00 2.9381512621e+00 5.0890272663e+00 
36800 6.3030824591e+00 -3.3174051291e-02 2.9387197688e+00 -5.0900119487e+00 2.9387197688e+00 5.0900119487e+00 
36900 6.3030436757e+00 -3.2943422752e-02 2.9392842172e+00 -5.0909896020e+00 2.9392842172e+00 5.0909896020e+00 
37000 6.3030056439e+00 -3.2714182927e-02 2.9398446337e+00 -5.0919602719e+00 2.9398446337e+00 5.0919602719e+00 
37100 6.3029683497e+00 -3.2486305820e-02 2.9404010443e+00 -5.0929240034e+00 2.9404010443e+00 5.0929240034e+00 
37200 6.3029317793e+00 -3.2259766632e-02 2.9409534744e+00 -5.0938808404e+00 2.9409534744e+00 5.0938808404e+00 
37300 6.3028959192e+00 -3.2034541737e-02 2.9415019491e+00 -5.0948308264e+00 2.9415019491e+00 5.0948308264e+00 
37400 6.3028607559e+00 -3.1810608663e-02 2.9420464928e+00 -5.0957740038e+00 2.9420464928e+00 5.0957740038e+00 
37500 6.3028262763e+00 -3.1587946067e-02 2.9425871298e+00 -5.0967104146e+00 2.9425871298e+00 5.0967104146e+00 
37600 6.3027924675e+00 -3.1366533713e-02 2.9431238838e+00 -5.0976400997e+00 2.9431238838e+00 5.0976400997e+00 
37700 6.3027593166e+00 -3.1146352444e-02 2.9436567781e+00 -5.0985630997e+00 2.9436567781e+00 5.0985630997e+00 
37800 6.3027268112e+00 -3.0927384162e-02 2.9441858358e+00 -5.0994794545e+00 2.9441858358e+00 5.0994794545e+00 
37900 6.3026949389e+00 -3.0709611796e-02 2.9447110795e+00 -5.1003892034e+00 2.9447110795e+00 5.1003892034e+00 
38000 6.3026636876e+00 -3.0493019278e-02 2.9452325317e+00 -5.1012923850e+00 2.9452325317e+00 5.1012923850e+00 
38100 6.3026330453e+00 -3.0277591516e-02 2.9457502143e+00 -5.1021890375e+00 2.9457502143e+00 5.1021890375e+00 
38200 6.3026030003e+00 -3.0063314362e-02 2.9462641491e+00 -5.1030791988e+00 2.9462641491e+00 5.1030791988e+00 
38300 6.3025735410e+00 -2.9850174591e-02 2.9467743576e+00 -5.1039629058e+00 2.9467743576e+00 5.1039629058e+00 
38400 6.3025446561e+00 -2.9638159861e-02 2.9472808611e+00 -5.1048401956e+00 2.9472808611e+00 5.1048401956e+00 
38500 6.3025163343e+00 -2.9427258697e-02 2.9477836806e+00 -5.1057111044e+00 2.9477836806e+00 5.1057111044e+00 
38600 6.3024885649e+00 -2.9217460449e-02 2.9482828367e+00 -5.1065756683e+00 2.9482828367e+00 5.1065756683e+00 
38700 6.3024613369e+00 -2.9008755271e-02 2.9487783502e+00 -5.1074339229e+00 2.9487783502e+00 5.1074339229e+00 
38800 6.3024346397e+00 -2.8801134088e-02 2.9492702414e+00 -5.1082859034e+00 2.9492702414e+00 5.1082859034e+00 
38900 6.3024084630e+00 -2.8594588564e-02 2.9497585305e+00 -5.1091316449e+00 2.9497585305e+00 5.1091316449e+00 
39000 6.3023827966e+00 -2.8389111078e-02 2.9502432375e+00 -5.1099711820e+00 2.9502432375e+00 5.1099711820e+00 
39100 6.3023576303e+00 -2.8184694688e-02 2.9507243823e+00 -5.1108045492e+00 2.9507243823e+00 5.1108045492e+00 
39200 6.3023329544e+00 -2.7981333104e-02 2.9512019846e+00 -5.1116317806e+00 2.9512019846e+00 5.1116317806e+00 
39300 6.3023087591e+00 -2.7779020659e-02 2.9516760640e+00 -5.1124529103e+00 2.9516760640e+00 5.1124529103e+00 
39400 6.3022850349e+00 -2.7577752277e-02 2.9521466400e+00 -5.1132679718e+00 2.9521466400e+00 5.1132679718e+00 
39500 6.3022617725e+00 -2.7377523447e-02 2.9526137319e+00 -5.1140769988e+00 2.9526137319e+00 5.1140769988e+00 
39600 6.3022389628e+00 -2.7178330192e-02 2.9530773591e+00 -5.1148800247e+00 2.9530773591e+00 5.1148800247e+00 
39700 6.3022165966e+00 -2.6980169040e-02 2.9535375407e+00 -5.1156770826e+00 2.9535375407e+00 5.1156770826e+00 
39800 6.3021946652e+00 -2.6783036997e-02 2.9539942958e+00 -5.1164682055e+00 2.9539942958e+00 5.1164682055e+00 
39900 6.3021731599e+00 -2.6586931519e-02 2.9544476433e+00 -5.1172534265e+00 2.9544476433e+00 5.1172534265e+00 
40000 6.3021520723e+00 -2.6391850484e-02 2.9548976023e+00 -5.1180327784e+00 2.9548976023e+00 5.1180327784e+00 
40100 6.3021313939e+00 -2.6197792164e-02 2.9553441917e+00 -5.1188062938e+00 2.9553441917e+00 5.1188062938e+00 
40200 6.3021111165e+00 -2.6004755202e-02 2.9557874302e+00 -5.1195740054e+00 2.9557874302e+00 5.1195740054e+00 
40300 6.3020912322e+00 -2.5812738580e-02 2.9562273366e+00 -5.1203359458e+00 2.9562273366e+00 5.1203359458e+00 
40400 6.3020717330e+00 -2.5621741600e-02 2.9566639298e+00 -5.1210921473e+00 2.9566639298e+00 5.1210921473e+00 
40500 6.3020526112e+00 -2.5431763855e-02 2.9570972284e+00 -5.1218426425e+00 2.9570972284e+00 5.1218426425e+00 
40600 6.3020338593e+00 -2.5242805207e-02 2.9575272511e+00 -5.1225874637e+00 2.9575272511e+00 5.1225874637e+00 
40700 6.3020154697e+00 -2.5054865760e-02 2.9579540166e+00 -5.1233266433e+00 2.9579540166e+00 5.1233266433e+00 
40800 6.3019974352e+00 -2.4867945842e-02 2.9583775436e+00 -5.1240602134e+00 2.9583775436e+00 5.1240602134e+00 
40900 6.3019797487e+00 -2.4682045977e-02 2.9587978505e+00 -5.1247882065e+00 2.9587978505e+00 5.1247882065e+00 
41000 6.3019624032e+00 -2.4497166868e-02 2.9592149562e+00 -5.1255106546e+00 2.9592149562e+00 5.1255106546e+00 
41100 6.3019453917e+00 -2.4313309373e-02 2.9596288791e+00 -5.1262275902e+00 2.9596288791e+00 5.1262275902e+00 
41200 6.3019287076e+00 -2.4130474485e-02 2.9600396379e+00 -5.1269390453e+00 2.9600396379e+00 5.1269390453e+00 
41300 6.3019123442e+00 -2.3948663314e-02 2.9604472512e+00 -5.1276450522e+00 2.9604472512e+00 5.1276450522e+00 
41400 6.3018962951e+00 -2.3767877066e-02 2.9608517375e+00 -5.1283456430e+00 2.9608517375e+00 5.1283456430e+00 
41500 6.3018805539e+00 -2.3588117026e-02 2.9612531155e+00 -5.1290408501e+00 2.9612531155e+00 5.1290408501e+00 
41600 6.3018651144e+00 -2.3409384539e-02 2.9616514037e+00 -5.1297307055e+00 2.9616514037e+00 5.1297307055e+00 
41700 6.3018499706e+00 -2.3231680995e-02 2.9620466208e+00 -5.1304152416e+00 2.9620466208e+00 5.1304152416e+00 
41800 6.3018351165e+00 -2.3055007810e-02 2.9624387854e+00 -5.1310944905e+00 2.9624387854e+00 5.1310944905e+00 
41900 6.3018205462e+00 -2.2879366415e-02 2.9628279160e+00 -5.1317684845e+00 2.9628279160e+00 5.1317684845e+00 
42000 6.3018062540e+00 -2.2704758236e-02 2.9632140313e+00 -5.1324372558e+00 2.9632140313e+00 5.1324372558e+00 
42100 6.3017922344e+00 -2.2531184684e-02 2.9635971498e+00 -5.1331008367e+00 2.9635971498e+00 5.1331008367e+00 
42200 6.3017784818e+00 -2.2358647141e-02 2.9639772904e+00 -5.1337592594e+00 2.9639772904e+00 5.1337592594e+00 
42300 6.3017649908e+00 -2.2187146945e-02 2.9643544714e+00 -5.1344125561e+00 2.9643544714e+00 5.1344125561e+00 
42400 6.3017517562e+00 -2.2016685379e-02 2.9647287116e+00 -5.1350607592e+00 2.9647287116e+00 5.1350607592e+00 
42500 6.3017387729e+00 -2.1847263664e-02 2.9651000297e+00 -5.1357039009e+00 2.9651000297e+00 5.1357039009e+00 
42600 6.3017260357e+00 -2.1678882940e-02 2.9654684441e+00 -5.1363420135e+00 2.9654684441e+00 5.1363420135e+00 
42700 6.3017135398e+00 -2.1511544265e-02 2.9658339737e+00 -5.1369751293e+00 2.9658339737e+00 5.1369751293e+00 
42800 6.3017012803e+00 -2.1345248600e-02 2.9661966370e+00 -5.1376032806e+00 2.9661966370e+00 5.1376032806e+00 
42900 6.3016892524e+00 -2.1179996801e-02 2.9665564527e+00 -5.1382264996e+00 2.9665564527e+00 5.1382264996e+00 
43000 6.3016774516e+00 -2.1015789613e-02 2.9669134393e+00 -5.1388448186e+00 2.9669134393e+00 5.1388448186e+00 
43100 6.3016658733e+00 -2.0852627663e-02 2.9672676156e+00 -5.1394582699e+00 2.9672676156e+00 5.1394582699e+00 
43200 6.3016545130e+00 -2.0690511449e-02 2.9676190002e+00 -5.1400668858e+00 2.9676190002e+00 5.1400668858e+00 
43300 6.3016433664e+00 -2.0529441340e-02 2.9679676116e+00 -5.1406706985e+00 2.9679676116e+00 5.1406706985e+00 
43400 6.3016324293e+00 -2.0369417564e-02 2.9683134684e+00 -5.1412697401e+00 2.9683134684e+00 5.1412697401e+00 
43500 6.3016216973e+00 -2.0210440208e-02 2.9686565894e+00 -5.1418640430e+00 2.9686565894e+00 5.1418640430e+00 
43600 6.3016111666e+00 -2.0052509212e-02 2.9689969930e+00 -5.1424536393e+00 2.9689969930e+00 5.1424536393e+00 
43700 6.3016008331e+00 -1.9895624363e-02 2.9693346977e+00 -5.1430385611e+00 2.9693346977e+00 5.1430385611e+00 
43800 6.3015906928e+00 -1.9739785296e-02 2.9696697222e+00 -5.1436188406e+00 2.9696697222e+00 5.1436188406e+00 
43900 6.3015807420e+00 -1.9584991484e-02 2.9700020850e+00 -5.1441945098e+00 2.9700020850e+00 5.1441945098e+00 
44000 6.3015709768e+00 -1.9431242245e-02 2.9703318046e+00 -5.1447656008e+00 2.9703318046e+00 5.1447656008e+00 
44100 6.3015613937e+00 -1.9278536731e-02 2.9706588993e+00 -5.1453321455e+00 2.9706588993e+00 5.1453321455e+00 
44200 6.3015519890e+00 -1.9126873933e-02 2.9709833877e+00 -5.1458941760e+00 2.9709833877e+00 5.1458941760e+00 
44300 6.3015427593e+00 -1.8976252675e-02 2.9713052882e+00 -5.1464517239e+00 2.9713052882e+00 5.1464517239e+00 
44400 6.3015337010e+00 -1.8826671616e-02 2.9716246191e+00 -5.1470048213e+00 2.9716246191e+00 5.1470048213e+00 
44500 6.3015248109e+00 -1.8678129252e-02 2.9719413988e+00 -5.1475534998e+00 2.9719413988e+00 5.1475534998e+00 
44600 6.3015160856e+00 -1.8530623910e-02 2.9722556455e+00 -5.1480977911e+00 2.9722556455e+00 5.1480977911e+00 
44700 6.3015075219e+00 -1.8384153754e-02 2.9725673776e+00 -5.1486377269e+00 2.9725673776e+00 5.1486377269e+00 
44800 6.3014991166e+00 -1.8238716781e-02 2.9728766132e+00 -5.1491733387e+00 2.9728766132e+00 5.1491733387e+00 
44900 6.3014908666e+00 -1.8094310828e-02 2.9731833705e+00 -5.1497046578e+00 2.9731833705e+00 5.1497046578e+00 
45000 6.3014827690e+00 -1.7950933568e-02 2.9734876675e+00 -5.1502317158e+00 2.9734876675e+00 5.1502317158e+00 
45100 6.3014748208e+00 -1.7808582513e-02 2.9737895224e+00 -5.1507545439e+00 2.9737895224e+00 5.1507545439e+00 
45200 6.3014670190e+00 -1.7667255020e-02 2.9740889532e+00 -5.1512731732e+00 2.9740889532e+00 5.1512731732e+00 
45300 6.3014593609e+00 -1.7526948286e-02 2.9743859778e+00 -5.1517876348e+00 2.9743859778e+00 5.1517876348e+00 
45400 6.3014518436e+00 -1.7387659359e-02 2.9746806140e+00 -5.1522979597e+00 2.9746806140e+00 5.1522979597e+00 
45500 6.3014444644e+00 -1.7249385131e-02 2.9749728797e+00 -5.1528041788e+00 2.9749728797e+00 5.1528041788e+00 
45600 6.3014372206e+00 -1.7112122351e-02 2.9752627927e+00 -5.1533063228e+00 2.9752627927e+00 5.1533063228e+00 
45700 6.3014301098e+00 -1.6975867620e-02 2.9755503706e+00 -5.1538044224e+00 2.9755503706e+00 5.1538044224e+00 
45800 6.3014231292e+00 -1.6840617400e-02 2.9758356311e+00 -5.1542985081e+00 2.9758356311e+00 5.1542985081e+00 
45900 6.3014162764e+00 -1.6706368013e-02 2.9761185917e+00 -5.1547886102e+00 2.9761185917e+00 5.1547886102e+00 
46000 6.3014095490e+00 -1.6573115647e-02 2.9763992699e+00 -5.1552747590e+00 2.9763992699e+00 5.1552747590e+00 
46100 6.3014029445e+00 -1.6440856361e-02 2.9766776830e+00 -5.1557569848e+00 2.9766776830e+00 5.1557569848e+00 
46200 6.3013964606e+00 -1.6309586085e-02 2.9769538485e+00 -5.1562353173e+00 2.9769538485e+00 5.1562353173e+00 
46300 6.3013900950e+00 -1.6179300628e-02 2.9772277835e+00 -5.1567097867e+00 2.9772277835e+00 5.1567097867e+00 
46400 6.3013838454e+00 -1.6049995678e-02 2.9774995051e+00 -5.1571804224e+00 2.9774995051e+00 5.1571804224e+00 
46500 6.3013777097e+00 -1.5921666812e-02 2.9777690306e+00 -5.1576472542e+00 2.9777690306e+00 5.1576472542e+00 
46600 6.3013716856e+00 -1.5794309494e-02 2.9780363768e+00 -5.1581103114e+00 2.9780363768e+00 5.1581103114e+00 
46700 6.3013657711e+00 -1.5667919082e-02 2.9783015607e+00 -5.1585696233e+00 2.9783015607e+00 5.1585696233e+00 
46800 6.3013599640e+00 -1.5542490834e-02 2.9785645990e+00 -5.1590252191e+00 2.9785645990e+00 5.1590252191e+00 
46900 6.3013542624e+00 -1.5418019909e-02 2.9788255085e+00 -5.1594771276e+00 2.9788255085e+00 5.1594771276e+00 
47000 6.3013486643e+00 -1.5294501374e-02 2.9790843059e+00 -5.1599253778e+00 2.9790843059e+00 5.1599253778e+00 
47100 6.3013431676e+00 -1.5171930206e-02 2.9793410076e+00 -5.1603699982e+00 2.9793410076e+00 5.1603699982e+00 
47200 6.3013377706e+00 -1.5050301301e-02 2.9795956301e+00 -5.1608110174e+00 2.9795956301e+00 5.1608110174e+00 
47300 6.3013324712e+00 -1.4929609472e-02 2.9798481898e+00 -5.1612484635e+00 2.9798481898e+00 5.1612484635e+00 
47400 6.3013272677e+00 -1.4809849459e-02 2.9800987029e+00 -5.1616823649e+00 2.9800987029e+00 5.1616823649e+00 
47500 6.3013221583e+00 -1.4691015929e-02 2.9803471855e+00 -5.1621127495e+00 2.9803471855e+00 5.1621127495e+00 
47600 6.3013171412e+00 -1.4573103486e-02 2.9805936537e+00 -5.1625396450e+00 2.9805936537e+00 5.1625396450e+00 
47700 6.3013122146e+00 -1.4456106667e-02 2.9808381235e+00 -5.1629630791e+00 2.9808381235e+00 5.1629630791e+00 
47800 6.3013073769e+00 -1.4340019955e-02 2.9810806107e+00 -5.1633830793e+00 2.9810806107e+00 5.1633830793e+00 
47900 6.3013026265e+00 -1.4224837778e-02 2.9813211311e+00 -5.1637996728e+00 2.9813211311e+00 5.1637996728e+00 
48000 6.3012979616e+00 -1.4110554515e-02 2.9815597003e+00 -5.1642128867e+00 2.9815597003e+00 5.1642128867e+00 
48100 6.3012933807e+00 -1.3997164497e-02 2.9817963339e+00 -5.1646227481e+00 2.9817963339e+00 5.1646227481e+00 
48200 6.3012888822e+00 -1.3884662018e-02 2.9820310472e+00 -5.1650292835e+00 2.9820310472e+00 5.1650292835e+00 
48300 6.3012844647e+00 -1.3773041331e-02 2.9822638557e+00 -5.1654325196e+00 2.9822638557e+00 5.1654325196e+00 
48400 6.3012801264e+00 -1.3662296657e-02 2.9824947746e+00 -5.1658324828e+00 2.9824947746e+00 5.1658324828e+00 
48500 6.3012758661e+00 -1.3552422188e-02 2.9827238189e+00 -5.1662291993e+00 2.9827238189e+00 5.1662291993e+00 
48600 6.3012716823e+00 -1.3443412089e-02 2.9829510038e+00 -5.1666226950e+00 2.9829510038e+00 5.1666226950e+00 
48700 6.3012675735e+00 -1.3335260503e-02 2.9831763441e+00 -5.1670129959e+00 2.9831763441e+00 5.1670129959e+00 
48800 6.3012635383e+00 -1.3227961555e-02 2.9833998546e+00 -5.1674001275e+00 2.9833998546e+00 5.1674001275e+00 
48900 6.3012595754e+00 -1.3121509353e-02 2.9836215501e+00 -5.1677841153e+00 2.9836215501e+00 5.1677841153e+00 
49000 6.3012556834e+00 -1.3015897995e-02 2.9838414451e+00 -5.1681649847e+00 2.9838414451e+00 5.1681649847e+00 
49100 6.3012518610e+00 -1.2911121571e-02 2.9840595542e+00 -5.1685427606e+00 2.9840595542e+00 5.1685427606e+00 
49200 6.3012481070e+00 -1.2807174162e-02 2.9842758916e+00 -5.1689174681e+00 2.9842758916e+00 5.1689174681e+00 
49300 6.3012444200e+00 -1.2704049851e-02 2.9844904718e+00 -5.1692891318e+00 2.9844904718e+00 5.1692891318e+00 
49400 6.3012407989e+00 -1.2601742718e-02 2.9847033088e+00 -5.1696577763e+00 2.9847033088e+00 5.1696577763e+00 
49500 6.3012372423e+00 -1.2500246849e-02 2.9849144167e+00 -5.1700234260e+00 2.9849144167e+00 5.1700234260e+00 
49600 6.3012337492e+00 -1.2399556335e-02 2.9851238095e+00 -5.1703861050e+00 2.9851238095e+00 5.1703861050e+00 
49700 6.3012303183e+00 -1.2299665275e-02 2.9853315011e+00 -5.1707458373e+00 2.9853315011e+00 5.1707458373e+00 
49800 6.3012269485e+00 -1.2200567781e-02 2.9855375051e+00 -5.1711026468e+00 2.9855375051e+00 5.1711026468e+00 
49900 6.3012236387e+00 -1.2102257979e-02 2.9857418353e+00 -5.1714565570e+00 2.9857418353e+00 5.1714565570e+00 
50000 6.3012203878e+00 -1.2004730008e-02 2.9859445051e+00 -5.1718075914e+00 2.9859445051e+00 5.1718075914e+00 
50100 6.3012171946e+00 -1.1907978029e-02 2.9861455280e+00 -5.1721557733e+00 2.9861455280e+00 5.1721557733e+00 
50200 6.3012140581e+00 -1.1811996222e-02 2.9863449173e+00 -5.1725011257e+00 2.9863449173e+00 5.1725011257e+00 
50300 6.3012109773e+00 -1.1716778788e-02 2.9865426863e+00 -5.1728436716e+00 2.9865426863e+00 5.1728436716e+00 
50400 6.3012079512e+00 -1.1622319954e-02 2.9867388480e+00 -5.1731834337e+00 2.9867388480e+00 5.1731834337e+00 
50500 6.3012049787e+00 -1.1528613972e-02 2.9869334155e+00 -5.1735204345e+00 2.9869334155e+00 5.1735204345e+00 
50600 6.3012020588e+00 -1.1435655123e-02 2.9871264017e+00 -5.1738546964e+00 2.9871264017e+00 5.1738546964e+00 
50700 6.3011991906e+00 -1.1343437716e-02 2.9873178194e+00 -5.1741862416e+00 2.9873178194e+00 5.1741862416e+00 
50800 6.3011963732e+00 -1.1251956092e-02 2.9875076813e+00 -5.1745150921e+00 2.9875076813e+00 5.1745150921e+00 
50900 6.3011936055e+00 -1.1161204623e-02 2.9876960001e+00 -5.1748412697e+00 2.9876960001e+00 5.1748412697e+00 
51000 6.3011908868e+00 -1.1071177715e-02 2.9878827882e+00 -5.1751647962e+00 2.9878827882e+00 5.1751647962e+00 
51100 6.3011882160e+00 -1.0981869808e-02 2.9880680580e+00 -5.1754856930e+00 2.9880680580e+00 5.1754856930e+00 
51200 6.3011855924e+00 -1.0893275380e-02 2.9882518220e+00 -5.1758039814e+00 2.9882518220e+00 5.1758039814e+00 
51300 6.3011830150e+00 -1.0805388943e-02 2.9884340922e+00 -5.1761196827e+00 2.9884340922e+00 5.1761196827e+00 
51400 6.3011804829e+00 -1.0718205048e-02 2.9886148808e+00 -5.1764328178e+00 2.9886148808e+00 5.1764328178e+00 
51500 6.3011779955e+00 -1.0631718284e-02 2.9887941999e+00 -5.1767434075e+00 2.9887941999e+00 5.1767434075e+00 
51600 6.3011755518e+00 -1.0545923280e-02 2.9889720613e+00 -5.1770514725e+00 2.9889720613e+00 5.1770514725e+00 
51700 6.3011731510e+00 -1.0460814705e-02 2.9891484769e+00 -5.1773570333e+00 2.9891484769e+00 5.1773570333e+00 
51800 6.3011707924e+00 -1.0376387267e-02 2.9893234584e+00 -5.1776601103e+00 2.9893234584e+00 5.1776601103e+00 
51900 6.3011684752e+00 -1.0292635717e-02 2.9894970176e+00 -5.1779607235e+00 2.9894970176e+00 5.1779607235e+00 
52000 6.3011661987e+00 -1.0209554846e-02 2.9896691658e+00 -5.1782588931e+00 2.9896691658e+00 5.1782588931e+00 
52100 6.3011639620e+00 -1.0127139488e-02 2.9898399147e+00 -5.1785546388e+00 2.9898399147e+00 5.1785546388e+00 
52200 6.3011617644e+00 -1.0045384519e-02 2.9900092755e+00 -5.1788479803e+00 2.9900092755e+00 5.1788479803e+00 
52300 6.3011596053e+00 -9.9642848557e-03 2.9901772596e+00 -5.1791389373e+00 2.9901772596e+00 5.1791389373e+00 
52400 6.3011574840e+00 -9.8838354594e-03 2.9903438781e+00 -5.1794275290e+00 2.9903438781e+00 5.1794275290e+00 
52500 6.3011553997e+00 -9.8040313331e-03 2.9905091421e+00 -5.1797137747e+00 2.9905091421e+00 5.1797137747e+00 
52600 6.3011533517e+00 -9.7248675227e-03 2.9906730627e+00 -5.1799976935e+00 2.9906730627e+00 5.1799976935e+00 
52700 6.3011513395e+00 -9.6463391169e-03 2.9908356508e+00 -5.1802793043e+00 2.9908356508e+00 5.1802793043e+00 
52800 6.3011493623e+00 -9.5684412469e-03 2.9909969172e+00 -5.1805586259e+00 2.9909969172e+00 5.1805586259e+00 
52900 6.3011474195e+00 -9.4911690866e-03 2.9911568727e+00 -5.1808356769e+00 2.9911568727e+00 5.1808356769e+00 
53000 6.3011455106e+00 -9.4145178522e-03 2.9913155279e+00 -5.1811104758e+00 2.9913155279e+00 5.1811104758e+00 
53100 6.3011436348e+00 -9.3384828020e-03 2.9914728935e+00 -5.1813830409e+00 2.9914728935e+00 5.1813830409e+00 
53200 6.3011417915e+00 -9.2630592364e-03 2.9916289798e+00 -5.1816533905e+00 2.9916289798e+00 5.1816533905e+00 
53300 6.3011399803e+00 -9.1882424976e-03 2.9917837975e+00 -5.1819215425e+00 2.9917837975e+00 5.1819215425e+00 
53400 6.3011382004e+00 -9.1140279688e-03 2.9919373567e+00 -5.1821875149e+00 2.9919373567e+00 5.1821875149e+00 
53500 6.3011364514e+00 -9.0404110744e-03 2.9920896678e+00 -5.1824513255e+00 2.9920896678e+00 5.1824513255e+00 
53600 6.3011347326e+00 -8.9673872795e-03 2.9922407410e+00 -5.1827129918e+00 2.9922407410e+00 5.1827129918e+00 
53700 6.3011330435e+00 -8.8949520892e-03 2.9923905862e+00 -5.1829725314e+00 2.9923905862e+00 5.1829725314e+00 
53800 6.3011313836e+00 -8.8231010484e-03 2.9925392137e+00 -5.1832299617e+00 2.9925392137e+00 5.1832299617e+00 
53900 6.3011297524e+00 -8.7518297415e-03 2.9926866332e+00 -5.1834852998e+00 2.9926866332e+00 5.1834852998e+00 
54000 6.3011281492e+00 -8.6811337913e-03 2.9928328546e+00 -5.1837385628e+00 2.9928328546e+00 5.1837385628e+00 
54100 6.3011265737e+00 -8.6110088592e-03 2.9929778879e+00 -5.1839897677e+00 2.9929778879e+00 5.1839897677e+00 
54200 6.3011250253e+00 -8.5414506443e-03 2.9931217425e+00 -5.1842389313e+00 2.9931217425e+00 5.1842389313e+00 
54300 6.3011235035e+00 -8.4724548826e-03 2.9932644283e+00 -5.1844860704e+00 2.9932644283e+00 5.1844860704e+00 
54400 6.3011220078e+00 -8.4040173470e-03 2.9934059548e+00 -5.1847312014e+00 2.9934059548e+00 5.1847312014e+00 
54500 6.3011205378e+00 -8.3361338464e-03 2.9935463314e+00 -5.1849743408e+00 2.9935463314e+00 5.1849743408e+00 
54600 6.3011190930e+00 -8.2688002252e-03 2.9936855675e+00 -5.1852155049e+00 2.9936855675e+00 5.1852155049e+00 
54700 6.3011176730e+00 -8.2020123624e-03 2.9938236726e+00 -5.1854547099e+00 2.9938236726e+00 5.1854547099e+00 
54800 6.3011162772e+00 -8.1357661715e-03 2.9939606559e+00 -5.1856919719e+00 2.9939606559e+00 5.1856919719e+00 
54900 6.3011149053e+00 -8.0700575996e-03 2.9940965265e+00 -5.1859273067e+00 2.9940965265e+00 5.1859273067e+00 
55000 6.3011135569e+00 -8.0048826266e-03 2.9942312937e+00 -5.1861607303e+00 2.9942312937e+00 5.1861607303e+00 
55100 6.3011122314e+00 -7.9402372651e-03 2.9943649665e+00 -5.1863922583e+00 2.9943649665e+00 5.1863922583e+00 
55200 6.3011109285e+00 -7.8761175593e-03 2.9944975538e+00 -5.1866219063e+00 2.9944975538e+00 5.1866219063e+00 
55300 6.3011096479e+00 -7.8125195845e-03 2.9946290646e+00 -5.1868496896e+00 2.9946290646e+00 5.1868496896e+00 
55400 6.3011083890e+00 -7.7494394467e-03 2.9947595077e+00 -5.1870756238e+00 2.9947595077e+00 5.1870756238e+00 
55500 6.3011071515e+00 -7.6868732817e-03 2.9948888920e+00 -5.1872997239e+00 2.9948888920e+00 5.1872997239e+00 
55600 6.3011059350e+00 -7.6248172545e-03 2.9950172261e+00 -5.1875220051e+00 2.9950172261e+00 5.1875220051e+00 
55700 6.3011047391e+00 -7.5632675591e-03 2.9951445187e+00 -5.1877424824e+00 2.9951445187e+00 5.1877424824e+00 
55800 6.3011035635e+00 -7.5022204172e-03 2.9952707784e+00 -5.1879611706e+00 2.9952707784e+00 5.1879611706e+00 
55900 6.3011024078e+00 -7.4416720782e-03 2.9953960137e+00 -5.1881780845e+00 2.9953960137e+00 5.1881780845e+00 
56000 6.3011012716e+00 -7.3816188186e-03 2.9955202330e+00 -5.1883932387e+00 2.9955202330e+00 5.1883932387e+00 
56100 6.3011001547e+00 -7.3220569408e-03 2.9956434449e+00 -5.1886066479e+00 2.9956434449e+00 5.1886066479e+00 
56200 6.3010990566e+00 -7.2629827734e-03 2.9957656574e+00 -5.1888183263e+00 2.9957656574e+00 5.1888183263e+00 
56300 6.3010979770e+00 -7.2043926698e-03 2.9958868791e+00 -5.1890282883e+00 2.9958868791e+00 5.1890282883e+00 
56400 6.3010969155e+00 -7.1462830083e-03 2.9960071179e+00 -5.1892365481e+00 2.9960071179e+00 5.1892365481e+00 
56500 6.3010958720e+00 -7.0886501914e-03 2.9961263822e+00 -5.1894431198e+00 2.9961263822e+00 5.1894431198e+00 
56600 6.3010948460e+00 -7.0314906450e-03 2.9962446799e+00 -5.1896480175e+00 2.9962446799e+00 5.1896480175e+00 
56700 6.3010938372e+00 -6.9748008182e-03 2.9963620190e+00 -5.1898512548e+00 2.9963620190e+00 5.1898512548e+00 
56800 6.3010928453e+00 -6.9185771829e-03 2.9964784076e+00 -5.1900528458e+00 2.9964784076e+00 5.1900528458e+00 
56900 6.3010918701e+00 -6.8628162327e-03 2.9965938535e+00 -5.1902528039e+00 2.9965938535e+00 5.1902528039e+00 
57000 6.3010909112e+00 -6.8075144833e-03 2.9967083645e+00 -5.1904511428e+00 2.9967083645e+00 5.1904511428e+00 
57100 6.3010899683e+00 -6.7526684714e-03 2.9968219484e+00 -5.1906478759e+00 2.9968219484e+00 5.1906478759e+00 
57200 6.3010890412e+00 -6.6982747546e-03 2.9969346129e+00 -5.1908430166e+00 2.9969346129e+00 5.1908430166e+00 
57300 6.3010881296e+00 -6.6443299108e-03 2.9970463657e+00 -5.1910365781e+00 2.9970463657e+00 5.1910365781e+00 
57400 6.3010872331e+00 -6.5908305379e-03 2.9971572144e+00 -5.1912285736e+00 2.9971572144e+00 5.1912285736e+00 
57500 6.3010863516e+00 -6.5377732534e-03 2.9972671664e+00 -5.1914190161e+00 2.9972671664e+00 5.1914190161e+00 
57600 6.3010854848e+00 -6.4851546940e-03 2.9973762293e+00 -5.1916079186e+00 2.9973762293e+00 5.1916079186e+00 
57700 6.3010846324e+00 -6.4329715153e-03 2.9974844105e+00 -5.1917952939e+00 2.9974844105e+00 5.1917952939e+00 
57800 6.3010837942e+00 -6.3812203914e-03 2.9975917173e+00 -5.1919811547e+00 2.9975917173e+00 5.1919811547e+00 
57900 6.3010829698e+00 -6.3298980148e-03 2.9976981571e+00 -5.1921655138e+00 2.9976981571e+00 5.1921655138e+00 
58000 6.3010821592e+00 -6.2790010957e-03 2.9978037370e+00 -5.1923483836e+00 2.9978037370e+00 5.1923483836e+00 
58100 6.3010813619e+00 -6.2285263619e-03 2.9979084643e+00 -5.1925297766e+00 2.9979084643e+00 5.1925297766e+00 
58200 6.3010805779e+00 -6.1784705587e-03 2.9980123461e+00 -5.1927097051e+00 2.9980123461e+00 5.1927097051e+00 
58300 6.3010798068e+00 -6.1288304486e-03 2.9981153895e+00 -5.1928881815e+00 2.9981153895e+00 5.1928881815e+00 
58400 6.3010790484e+00 -6.0796028106e-03 2.9982176014e+00 -5.1930652178e+00 2.9982176014e+00 5.1930652178e+00 
58500 6.3010783026e+00 -6.0307844408e-03 2.9983189889e+00 -5.1932408261e+00 2.9983189889e+00 5.1932408261e+00 
58600 6.3010775691e+00 -5.9823721515e-03 2.9984195589e+00 -5.1934150185e+00 2.9984195589e+00 5.1934150185e+00 
58700 6.3010768476e+00 -5.9343627711e-03 2.9985193182e+00 -5.1935878067e+00 2.9985193182e+00 5.1935878067e+00 
58800 6.3010761380e+00 -5.8867531444e-03 2.9986182737e+00 -5.1937592025e+00 2.9986182737e+00 5.1937592025e+00 
58900 6.3010754401e+00 -5.8395401319e-03 2.9987164320e+00 -5.1939292177e+00 2.9987164320e+00 5.1939292177e+00 
59000 6.3010747537e+00 -5.7927206099e-03 2.9988137998e+00 -5.1940978637e+00 2.9988137998e+00 5.1940978637e+00 
59100 6.3010740785e+00 -5.7462914704e-03 2.9989103839e+00 -5.1942651522e+00 2.9989103839e+00 5.1942651522e+00 
59200 6.3010734144e+00 -5.7002496208e-03 2.9990061907e+00 -5.1944310945e+00 2.9990061907e+00 5.1944310945e+00 
59300 6.3010727612e+00 -5.6545919840e-03 2.9991012269e+00 -5.1945957020e+00 2.9991012269e+00 5.1945957020e+00 
59400 6.3010721187e+00 -5.6093154981e-03 2.9991954988e+00 -5.1947589857e+00 2.9991954988e+00 5.1947589857e+00 
59500 6.3010714866e+00 -5.5644171167e-03 2.9992890129e+00 -5.1949209570e+00 2.9992890129e+00 5.1949209570e+00 
59600 6.3010708650e+00 -5.5198938081e-03 2.9993817757e+00 -5.1950816268e+00 2.9993817757e+00 5.1950816268e+00 
59700 6.3010702534e+00 -5.4757425562e-03 2.9994737934e+00 -5.1952410061e+00 2.9994737934e+00 5.1952410061e+00 
59800 6.3010696519e+00 -5.4319603597e-03 2.9995650722e+00 -5.1953991057e+00 2.9995650722e+00 5.1953991057e+00 
59900 6.3010690601e+00 -5.3885442323e-03 2.9996556185e+00 -5.1955559364e+00 2.9996556185e+00 5.1955559364e+00 
60000 6.3010684780e+00 -5.3454912028e-03 2.9997454383e+00 -5.1957115089e+00 2.9997454383e+00 5.1957115089e+00 
60100 6.3010679054e+00 -5.3027983150e-03 2.9998345378e+00 -5.1958658338e+00 2.9998345378e+00 5.1958658338e+00 
60200 6.3010673421e+00 -5.2604626277e-03 2.9999229231e+00 -5.1960189216e+00 2.9999229231e+00 5.1960189216e+00 
60300 6.3010667879e+00 -5.2184812147e-03 3.0000106001e+00 -5.1961707827e+00 3.0000106001e+00 5.1961707827e+00 
60400 6.3010662427e+00 -5.1768511647e-03 3.0000975749e+00 -5.1963214275e+00 3.0000975749e+00 5.1963214275e+00 
60500 6.3010657064e+00 -5.1355695815e-03 3.0001838534e+00 -5.1964708661e+00 3.0001838534e+00 5.1964708661e+00 
60600 6.3010651788e+00 -5.0946335840e-03 3.0002694414e+00 -5.1966191089e+00 3.0002694414e+00 5.1966191089e+00 
60700 6.3010646597e+00 -5.0540403063e-03 3.0003543447e+00 -5.1967661658e+00 3.0003543447e+00 5.1967661658e+00 
60800 6.3010641491e+00 -5.0137868975e-03 3.0004385692e+00 -5.1969120468e+00 3.0004385692e+00 5.1969120468e+00 
60900 6.3010636467e+00 -4.9738705218e-03 3.0005221205e+00 -5.1970567619e+00 3.0005221205e+00 5.1970567619e+00 
61000 6.3010631524e+00 -4.9342883590e-03 3.0006050043e+00 -5.1972003208e+00 3.0006050043e+00 5.1972003208e+00 
61100 6.3010626661e+00 -4.8950376039e-03 3.0006872262e+00 -5.1973427334e+00 3.0006872262e+00 5.1973427334e+00 
61200 6.3010621877e+00 -4.8561154669e-03 3.0007687918e+00 -5.1974840092e+00 3.0007687918e+00 5.1974840092e+00 
61300 6.3010617170e+00 -4.8175191738e-03 3.0008497067e+00 -5.1976241579e+00 3.0008497067e+00 5.1976241579e+00 
61400 6.3010612539e+00 -4.7792459658e-03 3.0009299763e+00 -5.1977631890e+00 3.0009299763e+00 5.1977631890e+00 
61500 6.3010607983e+00 -4.7412931001e-03 3.0010096061e+00 -5.1979011118e+00 3.0010096061e+00 5.1979011118e+00 
61600 6.3010603500e+00 -4.7036578492e-03 3.0010886014e+00 -5.1980379357e+00 3.0010886014e+00 5.1980379357e+00 
61700 6.3010599089e+00 -4.6663375016e-03 3.0011669676e+00 -5.1981736699e+00 3.0011669676e+00 5.1981736699e+00 
61800 6.3010594750e+00 -4.6293293617e-03 3.0012447100e+00 -5.1983083237e+00 3.0012447100e+00 5.1983083237e+00 
61900 6.3010590480e+00 -4.5926307498e-03 3.0013218338e+00 -5.1984419061e+00 3.0013218338e+00 5.1984419061e+00 
62000 6.3010586278e+00 -4.5562390024e-03 3.0013983443e+00 -5.1985744261e+00 3.0013983443e+00 5.1985744261e+00 
62100 6.3010582145e+00 -4.5201514721e-03 3.0014742465e+00 -5.1987058926e+00 3.0014742465e+00 5.1987058926e+00 
62200 6.3010578078e+00 -4.4843655278e-03 3.0015495457e+00 -5.1988363146e+00 3.0015495457e+00 5.1988363146e+00 
62300 6.3010574076e+00 -4.4488785546e-03 3.0016242469e+00 -5.1989657008e+00 3.0016242469e+00 5.1989657008e+00 
62400 6.3010570138e+00 -4.4136879544e-03 3.0016983550e+00 -5.1990940599e+00 3.0016983550e+00 5.1990940599e+00 
62500 6.3010566263e+00 -4.3787911454e-03 3.0017718752e+00 -5.1992214005e+00 3.0017718752e+00 5.1992214005e+00 
62600 6.3010562451e+00 -4.3441855626e-03 3.0018448122e+00 -5.1993477312e+00 3.0018448122e+00 5.1993477312e+00 
62700 6.3010558700e+00 -4.3098686576e-03 3.0019171711e+00 -5.1994730605e+00 3.0019171711e+00 5.1994730605e+00 
62800 6.3010555009e+00 -4.2758378991e-03 3.0019889567e+00 -5.1995973967e+00 3.0019889567e+00 5.1995973967e+00 
62900 6.3010551377e+00 -4.2420907726e-03 3.0020601737e+00 -5.1997207483e+00 3.0020601737e+00 5.1997207483e+00 
63000 6.3010547803e+00 -4.2086247806e-03 3.0021308270e+00 -5.1998431233e+00 3.0021308270e+00 5.1998431233e+00 
63100 6.3010544287e+00 -4.1754374429e-03 3.0022009212e+00 -5.1999645301e+00 3.0022009212e+00 5.1999645301e+00 
63200 6.3010540826e+00 -4.1425262964e-03 3.0022704611e+00 -5.2000849767e+00 3.0022704611e+00 5.2000849767e+00 
63300 6.3010537421e+00 -4.1098888955e-03 3.0023394513e+00 -5.2002044711e+00 3.0023394513e+00 5.2002044711e+00 
63400 6.3010534071e+00 -4.0775228116e-03 3.0024078963e+00 -5.2003230214e+00 3.0024078963e+00 5.2003230214e+00 
63500 6.3010530774e+00 -4.0454256341e-03 3.0024758008e+00 -5.2004406354e+00 3.0024758008e+00 5.2004406354e+00 
63600 6.3010527530e+00 -4.0135949697e-03 3.0025431692e+00 -5.2005573209e+00 3.0025431692e+00 5.2005573209e+00 
63700 6.3010524338e+00 -3.9820284427e-03 3.0026100060e+00 -5.2006730857e+00 3.0026100060e+00 5.2006730857e+00 
63800 6.3010521197e+00 -3.9507236951e-03 3.0026763157e+00 -5.2007879375e+00 3.0026763157e+00 5.2007879375e+00 
63900 6.3010518106e+00 -3.9196783870e-03 3.0027421026e+00 -5.2009018838e+00 3.0027421026e+00 5.2009018838e+00 
64000 6.3010515065e+00 -3.8888901959e-03 3.0028073712e+00 -5.2010149323e+00 3.0028073712e+00 5.2010149323e+00 
64100 6.3010512072e+00 -3.8583568175e-03 3.0028721257e+00 -5.2011270903e+00 3.0028721257e+00 5.2011270903e+00 
64200 6.3010509127e+00 -3.8280759654e-03 3.0029363703e+00 -5.2012383653e+00 3.0029363703e+00 5.2012383653e+00 
64300 6.3010506229e+00 -3.7980453712e-03 3.0030001094e+00 -5.2013487647e+00 3.0030001094e+00 5.2013487647e+00 
64400 6.3010503377e+00 -3.7682627847e-03 3.0030633472e+00 -5.2014582957e+00 3.0030633472e+00 5.2014582957e+00 
64500 6.3010500571e+00 -3.7387259735e-03 3.0031260877e+00 -5.2015669655e+00 3.0031260877e+00 5.2015669655e+00 
64600 6.3010497810e+00 -3.7094327238e-03 3.0031883352e+00 -5.2016747812e+00 3.0031883352e+00 5.2016747812e+00 
64700 6.3010495093e+00 -3.6803808396e-03 3.0032500936e+00 -5.2017817500e+00 3.0032500936e+00 5.2017817500e+00 
64800 6.3010492420e+00 -3.6515681433e-03 3.0033113671e+00 -5.2018878788e+00 3.0033113671e+00 5.2018878788e+00 
64900 6.3010489789e+00 -3.6229924756e-03 3.0033721597e+00 -5.2019931746e+00 3.0033721597e+00 5.2019931746e+00 
65000 6.3010487200e+00 -3.5946516953e-03 3.0034324753e+00 -5.2020976444e+00 3.0034324753e+00 5.2020976444e+00 
65100 6.3010484653e+00 -3.5665436798e-03 3.0034923179e+00 -5.2022012948e+00 3.0034923179e+00 5.2022012948e+00 
65200 6.3010482146e+00 -3.5386663243e-03 3.0035516914e+00 -5.2023041326e+00 3.0035516914e+00 5.2023041326e+00 
65300 6.3010479680e+00 -3.5110175429e-03 3.0036105996e+00 -5.2024061647e+00 3.0036105996e+00 5.2024061647e+00 
65400 6.3010477253e+00 -3.4835952675e-03 3.0036690464e+00 -5.2025073975e+00 3.0036690464e+00 5.2025073975e+00 
65500 6.3010474865e+00 -3.4563974485e-03 3.0037270356e+00 -5.2026078377e+00 3.0037270356e+00 5.2026078377e+00 
65600 6.3010472515e+00 -3.4294220548e-03 3.0037845709e+00 -5.2027074918e+00 3.0037845709e+00 5.2027074918e+00 
65700 6.3010470202e+00 -3.4026670733e-03 3.0038416561e+00 -5.2028063663e+00 3.0038416561e+00 5.2028063663e+00 
65800 6.3010467927e+00 -3.3761305093e-03 3.0038982949e+00 -5.2029044675e+00 3.0038982949e+00 5.2029044675e+00 
65900 6.3010465688e+00 -3.3498103862e-03 3.0039544909e+00 -5.2030018018e+00 3.0039544909e+00 5.2030018018e+00 
66000 6.3010463486e+00 -3.3237047459e-03 3.0040102477e+00 -5.2030983755e+00 3.0040102477e+00 5.2030983755e+00 
66100 6.3010461318e+00 -3.2978116481e-03 3.0040655690e+00 -5.2031941948e+00 3.0040655690e+00 5.2031941948e+00 
66200 6.3010459185e+00 -3.2721291711e-03 3.0041204583e+00 -5.2032892659e+00 3.0041204583e+00 5.2032892659e+00 
66300 6.3010457087e+00 -3.2466554109e-03 3.0041749192e+00 -5.2033835949e+00 3.0041749192e+00 5.2033835949e+00 
66400 6.3010455022e+00 -3.2213884818e-03 3.0042289551e+00 -5.2034771878e+00 3.0042289551e+00 5.2034771878e+00 
66500 6.3010452990e+00 -3.1963265160e-03 3.0042825695e+00 -5.2035700506e+00 3.0042825695e+00 5.2035700506e+00 
66600 6.3010450991e+00 -3.1714676637e-03 3.0043357658e+00 -5.2036621894e+00 3.0043357658e+00 5.2036621894e+00 
66700 6.3010449025e+00 -3.1468100929e-03 3.0043885475e+00 -5.2037536099e+00 3.0043885475e+00 5.2037536099e+00 
66800 6.3010447089e+00 -3.1223519896e-03 3.0044409178e+00 -5.2038443180e+00 3.0044409178e+00 5.2038443180e+00 
66900 6.3010445185e+00 -3.0980915573e-03 3.0044928803e+00 -5.2039343196e+00 3.0044928803e+00 5.2039343196e+00 
67000 6.3010443312e+00 -3.0740270174e-03 3.0045444381e+00 -5.2040236203e+00 3.0045444381e+00 5.2040236203e+00 
67100 6.3010441469e+00 -3.0501566088e-03 3.0045955945e+00 -5.2041122259e+00 3.0045955945e+00 5.2041122259e+00 
67200 6.3010439656e+00 -3.0264785879e-03 3.0046463528e+00 -5.2042001419e+00 3.0046463528e+00 5.2042001419e+00 
67300 6.3010437872e+00 -3.0029912286e-03 3.0046967163e+00 -5.2042873739e+00 3.0046967163e+00 5.2042873739e+00 
67400 6.3010436116e+00 -2.9796928222e-03 3.0047466880e+00 -5.2043739276e+00 3.0047466880e+00 5.2043739276e+00 
67500 6.3010434390e+00 -2.9565816770e-03 3.0047962713e+00 -5.2044598082e+00 3.0047962713e+00 5.2044598082e+00 
67600 6.3010432691e+00 -2.9336561187e-03 3.0048454691e+00 -5.2045450214e+00 3.0048454691e+00 5.2045450214e+00 
67700 6.3010431019e+00 -2.9109144899e-03 3.0048942847e+00 -5.2046295724e+00 3.0048942847e+00 5.2046295724e+00 
67800 6.3010429375e+00 -2.8883551502e-03 3.0049427210e+00 -5.2047134666e+00 3.0049427210e+00 5.2047134666e+00 
67900 6.3010427758e+00 -2.8659764761e-03 3.0049907812e+00 -5.2047967093e+00 3.0049907812e+00 5.2047967093e+00 
68000 6.3010426166e+00 -2.8437768606e-03 3.0050384683e+00 -5.2048793058e+00 3.0050384683e+00 5.2048793058e+00 
68100 6.3010424601e+00 -2.8217547136e-03 3.0050857852e+00 -5.2049612611e+00 3.0050857852e+00 5.2049612611e+00 
68200 6.3010423061e+00 -2.7999084612e-03 3.0051327350e+00 -5.2050425805e+00 3.0051327350e+00 5.2050425805e+00 
68300 6.3010421546e+00 -2.7782365461e-03 3.0051793206e+00 -5.2051232691e+00 3.0051793206e+00 5.2051232691e+00 
68400 6.3010420056e+00 -2.7567374271e-03 3.0052255448e+00 -5.2052033318e+00 3.0052255448e+00 5.2052033318e+00 
68500 6.3010418590e+00 -2.7354095792e-03 3.0052714107e+00 -5.2052827738e+00 3.0052714107e+00 5.2052827738e+00 
68600 6.3010417148e+00 -2.7142514933e-03 3.0053169210e+00 -5.2053616000e+00 3.0053169210e+00 5.2053616000e+00 
68700 6.3010415730e+00 -2.6932616763e-03 3.0053620786e+00 -5.2054398152e+00 3.0053620786e+00 5.2054398152e+00 
68800 6.3010414334e+00 -2.6724386506e-03 3.0054068863e+00 -5.2055174245e+00 3.0054068863e+00 5.2055174245e+00 
68900 6.3010412962e+00 -2.6517809544e-03 3.0054513469e+00 -5.2055944325e+00 3.0054513469e+00 5.2055944325e+00 
69000 6.3010411612e+00 -2.6312871413e-03 3.0054954632e+00 -5.2056708442e+00 3.0054954632e+00 5.2056708442e+00 
69100 6.3010410285e+00 -2.6109557801e-03 3.0055392379e+00 -5.2057466642e+00 3.0055392379e+00 5.2057466642e+00 
69200 6.3010408979e+00 -2.5907854547e-03 3.0055826738e+00 -5.2058218973e+00 3.0055826738e+00 5.2058218973e+00 
69300 6.3010407695e+00 -2.5707747644e-03 3.0056257734e+00 -5.2058965481e+00 3.0056257734e+00 5.2058965481e+00 
69400 6.3010406432e+00 -2.5509223230e-03 3.0056685396e+00 -5.2059706212e+00 3.0056685396e+00 5.2059706212e+00 
69500 6.3010405190e+00 -2.5312267592e-03 3.0057109748e+00 -5.2060441213e+00 3.0057109748e+00 5.2060441213e+00 
69600 6.3010403968e+00 -2.5116867162e-03 3.0057530819e+00 -5.2061170529e+00 3.0057530819e+00 5.2061170529e+00 
69700 6.3010402767e+00 -2.4923008517e-03 3.0057948633e+00 -5.2061894204e+00 3.0057948633e+00 5.2061894204e+00 
69800 6.3010401585e+00 -2.4730678376e-03 3.0058363217e+00 -5.2062612284e+00 3.0058363217e+00 5.2062612284e+00 
69900 6.3010400423e+00 -2.4539863600e-03 3.0058774595e+00 -5.2063324813e+00 3.0058774595e+00 5.2063324813e+00 
70000 6.3010399281e+00 -2.4350551190e-03 3.0059182794e+00 -5.2064031834e+00 3.0059182794e+00 5.2064031834e+00 
70100 6.3010398157e+00 -2.4162728284e-03 3.0059587839e+00 -5.2064733391e+00 3.0059587839e+00 5.2064733391e+00 
70200 6.3010397053e+00 -2.3976382159e-03 3.0059989753e+00 -5.2065429528e+00 3.0059989753e+00 5.2065429528e+00 
70300 6.3010395966e+00 -2.3791500224e-03 3.0060388563e+00 -5.2066120287e+00 3.0060388563e+00 5.2066120287e+00 
70400 6.3010394898e+00 -2.3608070024e-03 3.0060784293e+00 -5.2066805710e+00 3.0060784293e+00 5.2066805710e+00 
70500 6.3010393848e+00 -2.3426079236e-03 3.0061176966e+00 -5.2067485840e+00 3.0061176966e+00 5.2067485840e+00 
70600 6.3010392815e+00 -2.3245515666e-03 3.0061566607e+00 -5.2068160718e+00 3.0061566607e+00 5.2068160718e+00 
70700 6.3010391800e+00 -2.3066367250e-03 3.0061953239e+00 -5.2068830385e+00 3.0061953239e+00 5.2068830385e+00 
70800 6.3010390802e+00 -2.2888622051e-03 3.0062336887e+00 -5.2069494883e+00 3.0062336887e+00 5.2069494883e+00 
70900 6.3010389821e+00 -2.2712268258e-03 3.0062717574e+00 -5.2070154252e+00 3.0062717574e+00 5.2070154252e+00 
71000 6.3010388856e+00 -2.2537294184e-03 3.0063095323e+00 -5.2070808532e+00 3.0063095323e+00 5.2070808532e+00 
71100 6.3010387907e+00 -2.2363688266e-03 3.0063470157e+00 -5.2071457763e+00 3.0063470157e+00 5.2071457763e+00 
71200 6.3010386975e+00 -2.2191439061e-03 3.0063842099e+00 -5.2072101986e+00 3.0063842099e+00 5.2072101986e+00 
71300 6.3010386059e+00 -2.2020535245e-03 3.0064211172e+00 -5.2072741239e+00 3.0064211172e+00 5.2072741239e+00 
71400 6.3010385158e+00 -2.1850965614e-03 3.0064577397e+00 -5.2073375560e+00 3.0064577397e+00 5.2073375560e+00 
71500 6.3010384272e+00 -2.1682719078e-03 3.0064940799e+00 -5.2074004990e+00 3.0064940799e+00 5.2074004990e+00 
71600 6.3010383402e+00 -2.1515784665e-03 3.0065301397e+00 -5.2074629565e+00 3.0065301397e+00 5.2074629565e+00 
71700 6.3010382547e+00 -2.1350151514e-03 3.0065659216e+00 -5.2075249324e+00 3.0065659216e+00 5.2075249324e+00 
71800 6.3010381706e+00 -2.1185808877e-03 3.0066014275e+00 -5.2075864305e+00 3.0066014275e+00 5.2075864305e+00 
71900 6.3010380879e+00 -2.1022746118e-03 3.0066366597e+00 -5.2076474545e+00 3.0066366597e+00 5.2076474545e+00 
72000 6.3010380067e+00 -2.0860952706e-03 3.0066716204e+00 -5.2077080082e+00 3.0066716204e+00 5.2077080082e+00 
72100 6.3010379269e+00 -2.0700418222e-03 3.0067063115e+00 -5.2077680950e+00 3.0067063115e+00 5.2077680950e+00 
72200 6.3010378485e+00 -2.0541132350e-03 3.0067407353e+00 -5.2078277188e+00 3.0067407353e+00 5.2078277188e+00 
72300 6.3010377714e+00 -2.0383084881e-03 3.0067748939e+00 -5.2078868831e+00 3.0067748939e+00 5.2078868831e+00 
72400 6.3010376957e+00 -2.0226265705e-03 3.0068087892e+00 -5.2079455916e+00 3.0068087892e+00 5.2079455916e+00 
72500 6.3010376213e+00 -2.0070664819e-03 3.0068424234e+00 -5.2080038476e+00 3.0068424234e+00 5.2080038476e+00 
72600 6.3010375482e+00 -1.9916272317e-03 3.0068757984e+00 -5.2080616549e+00 3.0068757984e+00 5.2080616549e+00 
72700 6.3010374764e+00 -1.9763078392e-03 3.0069089164e+00 -5.2081190169e+00 3.0069089164e+00 5.2081190169e+00 
72800 6.3010374058e+00 -1.9611073335e-03 3.0069417792e+00 -5.2081759370e+00 3.0069417792e+00 5.2081759370e+00 
72900 6.3010373365e+00 -1.9460247533e-03 3.0069743889e+00 -5.2082324187e+00 3.0069743889e+00 5.2082324187e+00 
73000 6.3010372683e+00 -1.9310591469e-03 3.0070067475e+00 -5.2082884654e+00 3.0070067475e+00 5.2082884654e+00 
73100 6.3010372014e+00 -1.9162095716e-03 3.0070388569e+00 -5.2083440805e+00 3.0070388569e+00 5.2083440805e+00 
73200 6.3010371357e+00 -1.9014750942e-03 3.0070707190e+00 -5.2083992673e+00 3.0070707190e+00 5.2083992673e+00 
73300 6.3010370712e+00 -1.8868547905e-03 3.0071023358e+00 -5.2084540292e+00 3.0071023358e+00 5.2084540292e+00 
73400 6.3010370078e+00 -1.8723477452e-03 3.0071337092e+00 -5.2085083694e+00 3.0071337092e+00 5.2085083694e+00 
73500 6.3010369455e+00 -1.8579530518e-03 3.0071648410e+00 -5.2085622913e+00 3.0071648410e+00 5.2085622913e+00 
73600 6.3010368843e+00 -1.8436698125e-03 3.0071957332e+00 -5.2086157981e+00 3.0071957332e+00 5.2086157981e+00 
73700 6.3010368242e+00 -1.8294971380e-03 3.0072263875e+00 -5.2086688930e+00 3.0072263875e+00 5.2086688930e+00 
73800 6.3010367653e+00 -1.8154341475e-03 3.0072568059e+00 -5.2087215792e+00 3.0072568059e+00 5.2087215792e+00 
73900 6.3010367073e+00 -1.8014799685e-03 3.0072869902e+00 -5.2087738599e+00 3.0072869902e+00 5.2087738599e+00 
74000 6.3010366505e+00 -1.7876337368e-03 3.0073169421e+00 -5.2088257382e+00 3.0073169421e+00 5.2088257382e+00 
74100 6.3010365946e+00 -1.7738945959e-03 3.0073466636e+00 -5.2088772173e+00 3.0073466636e+00 5.2088772173e+00 
74200 6.3010365398e+00 -1.7602616977e-03 3.0073761563e+00 -5.2089283002e+00 3.0073761563e+00 5.2089283002e+00 
74300 6.3010364860e+00 -1.7467342016e-03 3.0074054221e+00 -5.2089789901e+00 3.0074054221e+00 5.2089789901e+00 
74400 6.3010364331e+00 -1.7333112749e-03 3.0074344627e+00 -5.2090292899e+00 3.0074344627e+00 5.2090292899e+00 
74500 6.3010363812e+00 -1.7199920925e-03 3.0074632799e+00 -5.2090792026e+00 3.0074632799e+00 5.2090792026e+00 
74600 6.3010363303e+00 -1.7067758368e-03 3.0074918753e+00 -5.2091287314e+00 3.0074918753e+00 5.2091287314e+00 
74700 6.3010362803e+00 -1.6936616974e-03 3.0075202508e+00 -5.2091778791e+00 3.0075202508e+00 5.2091778791e+00 
74800 6.3010362313e+00 -1.6806488715e-03 3.0075484079e+00 -5.2092266487e+00 3.0075484079e+00 5.2092266487e+00 
74900 6.3010361831e+00 -1.6677365633e-03 3.0075763485e+00 -5.2092750432e+00 3.0075763485e+00 5.2092750432e+00 
75000 6.3010361359e+00 -1.6549239841e-03 3.0076040741e+00 -5.2093230654e+00 3.0076040741e+00 5.2093230654e+00 
75100 6.3010360895e+00 -1.6422103522e-03 3.0076315865e+00 -5.2093707182e+00 3.0076315865e+00 5.2093707182e+00 
75200 6.3010360440e+00 -1.6295948927e-03 3.0076588872e+00 -5.2094180045e+00 3.0076588872e+00 5.2094180045e+00 
75300 6.3010359994e+00 -1.6170768377e-03 3.0076859780e+00 -5.2094649272e+00 3.0076859780e+00 5.2094649272e+00 
75400 6.3010359556e+00 -1.6046554258e-03 3.0077128605e+00 -5.2095114889e+00 3.0077128605e+00 5.2095114889e+00 
75500 6.3010359126e+00 -1.5923299021e-03 3.0077395362e+00 -5.2095576926e+00 3.0077395362e+00 5.2095576926e+00 
75600 6.3010358704e+00 -1.5800995186e-03 3.0077660068e+00 -5.2096035410e+00 3.0077660068e+00 5.2096035410e+00 
75700 6.3010358291e+00 -1.5679635333e-03 3.0077922738e+00 -5.2096490368e+00 3.0077922738e+00 5.2096490368e+00 
75800 6.3010357885e+00 -1.5559212107e-03 3.0078183389e+00 -5.2096941829e+00 3.0078183389e+00 5.2096941829e+00 
75900 6.3010357487e+00 -1.5439718216e-03 3.0078442035e+00 -5.2097389817e+00 3.0078442035e+00 5.2097389817e+00 
76000 6.3010357097e+00 -1.5321146429e-03 3.0078698693e+00 -5.2097834362e+00 3.0078698693e+00 5.2097834362e+00 
76100 6.3010356715e+00 -1.5203489574e-03 3.0078953378e+00 -5.2098275489e+00 3.0078953378e+00 5.2098275489e+00 
76200 6.3010356339e+00 -1.5086740543e-03 3.0079206105e+00 -5.2098713224e+00 3.0079206105e+00 5.2098713224e+00 
76300 6.3010355971e+00 -1.4970892283e-03 3.0079456888e+00 -5.2099147595e+00 3.0079456888e+00 5.2099147595e+00 
76400 6.3010355611e+00 -1.4855937801e-03 3.0079705745e+00 -5.2099578626e+00 3.0079705745e+00 5.2099578626e+00 
76500 6.3010355257e+00 -1.4741870162e-03 3.0079952688e+00 -5.2100006344e+00 3.0079952688e+00 5.2100006344e+00 
76600 6.3010354910e+00 -1.4628682488e-03 3.0080197733e+00 -5.2100430775e+00 3.0080197733e+00 5.2100430775e+00 
76700 6.3010354571e+00 -1.4516367956e-03 3.0080440895e+00 -5.2100851943e+00 3.0080440895e+00 5.2100851943e+00 
76800 6.3010354238e+00 -1.4404919798e-03 3.0080682187e+00 -5.2101269875e+00 3.0080682187e+00 5.2101269875e+00 
76900 6.3010353911e+00 -1.4294331304e-03 3.0080921626e+00 -5.2101684594e+00 3.0080921626e+00 5.2101684594e+00 
77000 6.3010353591e+00 -1.4184595814e-03 3.0081159224e+00 -5.2102096126e+00 3.0081159224e+00 5.2102096126e+00 
77100 6.3010353278e+00 -1.4075706724e-03 3.0081394996e+00 -5.2102504496e+00 3.0081394996e+00 5.2102504496e+00 
77200 6.3010352971e+00 -1.3967657481e-03 3.0081628957e+00 -5.2102909728e+00 3.0081628957e+00 5.2102909728e+00 
77300 6.3010352670e+00 -1.3860441585e-03 3.0081861120e+00 -5.2103311846e+00 3.0081861120e+00 5.2103311846e+00 
77400 6.3010352375e+00 -1.3754052588e-03 3.0082091499e+00 -5.2103710874e+00 3.0082091499e+00 5.2103710874e+00 
77500 6.3010352086e+00 -1.3648484092e-03 3.0082320108e+00 -5.2104106836e+00 3.0082320108e+00 5.2104106836e+00 
77600 6.3010351804e+00 -1.3543729750e-03 3.0082546960e+00 -5.2104499756e+00 3.0082546960e+00 5.2104499756e+00 
77700 6.3010351527e+00 -1.3439783263e-03 3.0082772070e+00 -5.2104889658e+00 3.0082772070e+00 5.2104889658e+00 
77800 6.3010351255e+00 -1.3336638382e-03 3.0082995450e+00 -5.2105276564e+00 3.0082995450e+00 5.2105276564e+00 
77900 6.3010350990e+00 -1.3234288909e-03 3.0083217115e+00 -5.2105660498e+00 3.0083217115e+00 5.2105660498e+00 
78000 6.3010350730e+00 -1.3132728690e-03 3.0083437076e+00 -5.2106041483e+00 3.0083437076e+00 5.2106041483e+00 
78100 6.3010350475e+00 -1.3031951621e-03 3.0083655348e+00 -5.2106419541e+00 3.0083655348e+00 5.2106419541e+00 
78200 6.3010350226e+00 -1.2931951644e-03 3.0083871944e+00 -5.2106794695e+00 3.0083871944e+00 5.2106794695e+00 
78300 6.3010349982e+00 -1.2832722748e-03 3.0084086876e+00 -5.2107166968e+00 3.0084086876e+00 5.2107166968e+00 
78400 6.3010349744e+00 -1.2734258969e-03 3.0084300157e+00 -5.2107536382e+00 3.0084300157e+00 5.2107536382e+00 
78500 6.3010349510e+00 -1.2636554386e-03 3.0084511800e+00 -5.2107902959e+00 3.0084511800e+00 5.2107902959e+00 
78600 6.3010349282e+00 -1.2539603124e-03 3.0084721818e+00 -5.2108266720e+00 3.0084721818e+00 5.2108266720e+00 
78700 6.3010349058e+00 -1.2443399355e-03 3.0084930223e+00 -5.2108627688e+00 3.0084930223e+00 5.2108627688e+00 
78800 6.3010348839e+00 -1.2347937291e-03 3.0085137028e+00 -5.2108985885e+00 3.0085137028e+00 5.2108985885e+00 
78900 6.3010348626e+00 -1.2253211192e-03 3.0085342245e+00 -5.2109341331e+00 3.0085342245e+00 5.2109341331e+00 
79000 6.3010348416e+00 -1.2159215358e-03 3.0085545886e+00 -5.2109694047e+00 3.0085545886e+00 5.2109694047e+00 
79100 6.3010348212e+00 -1.2065944133e-03 3.0085747963e+00 -5.2110044056e+00 3.0085747963e+00 5.2110044056e+00 
79200 6.3010348012e+00 -1.1973391904e-03 3.0085948489e+00 -5.2110391378e+00 3.0085948489e+00 5.2110391378e+00 
79300 6.3010347817e+00 -1.1881553099e-03 3.0086147476e+00 -5.2110736033e+00 3.0086147476e+00 5.2110736033e+00 
79400 6.3010347625e+00 -1.1790422190e-03 3.0086344935e+00 -5.2111078042e+00 3.0086344935e+00 5.2111078042e+00 
79500 6.3010347439e+00 -1.1699993687e-03 3.0086540878e+00 -5.2111417425e+00 3.0086540878e+00 5.2111417425e+00 
79600 6.3010347256e+00 -1.1610262143e-03 3.0086735318e+00 -5.2111754204e+00 3.0086735318e+00 5.2111754204e+00 
79700 6.3010347078e+00 -1.1521222152e-03 3.0086928264e+00 -5.2112088398e+00 3.0086928264e+00 5.2112088398e+00 
79800 6.3010346904e+00 -1.1432868347e-03 3.0087119730e+00 -5.2112420026e+00 3.0087119730e+00 5.2112420026e+00 
79900 6.3010346734e+00 -1.1345195402e-03 3.0087309726e+00 -5.2112749109e+00 3.0087309726e+00 5.2112749109e+00 
80000 6.3010346568e+00 -1.1258198029e-03 3.0087498265e+00 -5.2113075667e+00 3.0087498265e+00 5.2113075667e+00 
80100 6.3010346405e+00 -1.1171870981e-03 3.0087685356e+00 -5.2113399718e+00 3.0087685356e+00 5.2113399718e+00 
80200 6.3010346247e+00 -1.1086209050e-03 3.0087871011e+00 -5.2113721283e+00 3.0087871011e+00 5.2113721283e+00 
80300 6.3010346093e+00 -1.1001207064e-03 3.0088055242e+00 -5.2114040380e+00 3.0088055242e+00 5.2114040380e+00 
80400 6.3010345942e+00 -1.0916859892e-03 3.0088238059e+00 -5.2114357028e+00 3.0088238059e+00 5.2114357028e+00 
80500 6.3010345795e+00 -1.0833162441e-03 3.0088419473e+00 -5.2114671247e+00 3.0088419473e+00 5.2114671247e+00 
80600 6.3010345651e+00 -1.0750109653e-03 3.0088599495e+00 -5.2114983055e+00 3.0088599495e+00 5.2114983055e+00 
80700 6.3010345511e+00 -1.0667696511e-03 3.0088778136e+00 -5.2115292470e+00 3.0088778136e+00 5.2115292470e+00 
80800 6.3010345374e+00 -1.0585918033e-03 3.0088955407e+00 -5.2115599512e+00 3.0088955407e+00 5.2115599512e+00 
80900 6.3010345241e+00 -1.0504769274e-03 3.0089131318e+00 -5.2115904198e+00 3.0089131318e+00 5.2115904198e+00 
81000 6.3010345111e+00 -1.0424245326e-03 3.0089305879e+00 -5.2116206546e+00 3.0089305879e+00 5.2116206546e+00 
81100 6.3010344985e+00 -1.0344341318e-03 3.0089479100e+00 -5.2116506575e+00 3.0089479100e+00 5.2116506575e+00 
81200 6.3010344862e+00 -1.0265052414e-03 3.0089650994e+00 -5.2116804303e+00 3.0089650994e+00 5.2116804303e+00 
81300 6.3010344741e+00 -1.0186373814e-03 3.0089821568e+00 -5.2117099747e+00 3.0089821568e+00 5.2117099747e+00 
81400 6.3010344624e+00 -1.0108300753e-03 3.0089990835e+00 -5.2117392925e+00 3.0089990835e+00 5.2117392925e+00 
81500 6.3010344510e+00 -1.0030828505e-03 3.0090158803e+00 -5.2117683854e+00 3.0090158803e+00 5.2117683854e+00 
81600 6.3010344400e+00 -9.9539523730e-04 3.0090325482e+00 -5.2117972552e+00 3.0090325482e+00 5.2117972552e+00 
81700 6.3010344292e+00 -9.8776677000e-04 3.0090490884e+00 -5.2118259035e+00 3.0090490884e+00 5.2118259035e+00 
81800 6.3010344187e+00 -9.8019698614e-04 3.0090655016e+00 -5.2118543322e+00 3.0090655016e+00 5.2118543322e+00 
81900 6.3010344084e+00 -9.7268542672e-04 3.0090817891e+00 -5.2118825428e+00 3.0090817891e+00 5.2118825428e+00 
82000 6.3010343985e+00 -9.6523163618e-04 3.0090979516e+00 -5.2119105371e+00 3.0090979516e+00 5.2119105371e+00 
82100 6.3010343888e+00 -9.5783516236e-04 3.0091139901e+00 -5.2119383167e+00 3.0091139901e+00 5.2119383167e+00 
82200 6.3010343795e+00 -9.5049555644e-04 3.0091299057e+00 -5.2119658833e+00 3.0091299057e+00 5.2119658833e+00 
82300 6.3010343703e+00 -9.4321237300e-04 3.0091456993e+00 -5.2119932385e+00 3.0091456993e+00 5.2119932385e+00 
82400 6.3010343615e+00 -9.3598516990e-04 3.0091613717e+00 -5.2120203840e+00 3.0091613717e+00 5.2120203840e+00 
82500 6.3010343529e+00 -9.2881350836e-04 3.0091769240e+00 -5.2120473213e+00 3.0091769240e+00 5.2120473213e+00 
82600 6.3010343445e+00 -9.2169695285e-04 3.0091923570e+00 -5.2120740521e+00 3.0091923570e+00 5.2120740521e+00 
82700 6.3010343364e+00 -9.1463507113e-04 3.0092076717e+00 -5.2121005779e+00 3.0092076717e+00 5.2121005779e+00 
82800 6.3010343285e+00 -9.0762743420e-04 3.0092228690e+00 -5.2121269004e+00 3.0092228690e+00 5.2121269004e+00 
82900 6.3010343209e+00 -9.0067361629e-04 3.0092379498e+00 -5.2121530211e+00 3.0092379498e+00 5.2121530211e+00 
83000 6.3010343135e+00 -8.9377319485e-04 3.0092529149e+00 -5.2121789415e+00 3.0092529149e+00 5.2121789415e+00 
83100 6.3010343063e+00 -8.8692575050e-04 3.0092677654e+00 -5.2122046632e+00 3.0092677654e+00 5.2122046632e+00 
83200 6.3010342994e+00 -8.8013086705e-04 3.0092825019e+00 -5.2122301877e+00 3.0092825019e+00 5.2122301877e+00 
83300 6.3010342927e+00 -8.7338813145e-04 3.0092971255e+00 -5.2122555165e+00 3.0092971255e+00 5.2122555165e+00 
83400 6.3010342862e+00 -8.6669713378e-04 3.0093116371e+00 -5.2122806512e+00 3.0093116371e+00 5.2122806512e+00 
83500 6.3010342799e+00 -8.6005746724e-04 3.0093260373e+00 -5.2123055932e+00 3.0093260373e+00 5.2123055932e+00 
83600 6.3010342738e+00 -8.5346872813e-04 3.0093403272e+00 -5.2123303440e+00 3.0093403272e+00 5.2123303440e+00 
83700 6.3010342679e+00 -8.4693051581e-04 3.0093545075e+00 -5.2123549051e+00 3.0093545075e+00 5.2123549051e+00 
83800 6.3010342623e+00 -8.4044243272e-04 3.0093685792e+00 -5.2123792779e+00 3.0093685792e+00 5.2123792779e+00 
83900 6.3010342568e+00 -8.3400408432e-04 3.0093825430e+00 -5.2124034638e+00 3.0093825430e+00 5.2124034638e+00 
84000 6.3010342515e+00 -8.2761507909e-04 3.0093963997e+00 -5.2124274644e+00 3.0093963997e+00 5.2124274644e+00 
84100 6.3010342464e+00 -8.2127502854e-04 3.0094101502e+00 -5.2124512810e+00 3.0094101502e+00 5.2124512810e+00 
84200 6.3010342415e+00 -8.1498354715e-04 3.0094237954e+00 -5.2124749151e+00 3.0094237954e+00 5.2124749151e+00 
84300 6.3010342368e+00 -8.0874025236e-04 3.0094373359e+00 -5.2124983680e+00 3.0094373359e+00 5.2124983680e+00 
84400 6.3010342322e+00 -8.0254476457e-04 3.0094507726e+00 -5.2125216411e+00 3.0094507726e+00 5.2125216411e+00 
84500 6.3010342278e+00 -7.9639670712e-04 3.0094641064e+00 -5.2125447358e+00 3.0094641064e+00 5.2125447358e+00 
84600 6.3010342236e+00 -7.9029570625e-04 3.0094773379e+00 -5.2125676535e+00 3.0094773379e+00 5.2125676535e+00 
84700 6.3010342196e+00 -7.8424139111e-04 3.0094904681e+00 -5.2125903956e+00 3.0094904681e+00 5.2125903956e+00 
84800 6.3010342157e+00 -7.7823339373e-04 3.0095034975e+00 -5.2126129633e+00 3.0095034975e+00 5.2126129633e+00 
84900 6.3010342120e+00 -7.7227134899e-04 3.0095164272e+00 -5.2126353580e+00 3.0095164272e+00 5.2126353580e+00 
85000 6.3010342085e+00 -7.6635489463e-04 3.0095292576e+00 -5.2126575811e+00 3.0095292576e+00 5.2126575811e+00 
85100 6.3010342051e+00 -7.6048367123e-04 3.0095419898e+00 -5.2126796338e+00 3.0095419898e+00 5.2126796338e+00 
85200 6.3010342019e+00 -7.5465732215e-04 3.0095546243e+00 -5.2127015175e+00 3.0095546243e+00 5.2127015175e+00 
85300 6.3010341988e+00 -7.4887549357e-04 3.0095671620e+00 -5.2127232335e+00 3.0095671620e+00 5.2127232335e+00 
85400 6.3010341958e+00 -7.4313783445e-04 3.0095796036e+00 -5.2127447829e+00 3.0095796036e+00 5.2127447829e+00 
85500 6.3010341930e+00 -7.3744399648e-04 3.0095919499e+00 -5.2127661672e+00 3.0095919499e+00 5.2127661672e+00 
85600 6.3010341904e+00 -7.3179363414e-04 3.0096042014e+00 -5.2127873875e+00 3.0096042014e+00 5.2127873875e+00 
85700 6.3010341878e+00 -7.2618640459e-04 3.0096163591e+00 -5.2128084452e+00 3.0096163591e+00 5.2128084452e+00 
85800 6.3010341855e+00 -7.2062196774e-04 3.0096284235e+00 -5.2128293414e+00 3.0096284235e+00 5.2128293414e+00 
85900 6.3010341832e+00 -7.1509998617e-04 3.0096403955e+00 -5.2128500775e+00 3.0096403955e+00 5.2128500775e+00 
86000 6.3010341811e+00 -7.0962012514e-04 3.0096522756e+00 -5.2128706545e+00 3.0096522756e+00 5.2128706545e+00 
86100 6.3010341791e+00 -7.0418205257e-04 3.0096640647e+00 -5.2128910738e+00 3.0096640647e+00 5.2128910738e+00 
86200 6.3010341772e+00 -6.9878543902e-04 3.0096757634e+00 -5.2129113365e+00 3.0096757634e+00 5.2129113365e+00 
86300 6.3010341754e+00 -6.9342995770e-04 3.0096873724e+00 -5.2129314439e+00 3.0096873724e+00 5.2129314439e+00 
86400 6.3010341738e+00 -6.8811528439e-04 3.0096988924e+00 -5.2129513970e+00 3.0096988924e+00 5.2129513970e+00 
86500 6.3010341723e+00 -6.8284109748e-04 3.0097103240e+00 -5.2129711972e+00 3.0097103240e+00 5.2129711972e+00 
86600 6.3010341709e+00 -6.7760707794e-04 3.0097216680e+00 -5.2129908456e+00 3.0097216680e+00 5.2129908456e+00 
86700 6.3010341696e+00 -6.7241290931e-04 3.0097329249e+00 -5.2130103432e+00 3.0097329249e+00 5.2130103432e+00 
86800 6.3010341684e+00 -6.6725827763e-04 3.0097440956e+00 -5.2130296914e+00 3.0097440956e+00 5.2130296914e+00 
86900 6.3010341673e+00 -6.6214287152e-04 3.0097551806e+00 -5.2130488911e+00 3.0097551806e+00 5.2130488911e+00 
87000 6.3010341663e+00 -6.5706638206e-04 3.0097661805e+00 -5.2130679436e+00 3.0097661805e+00 5.2130679436e+00 
87100 6.3010341655e+00 -6.5202850285e-04 3.0097770961e+00 -5.2130868499e+00 3.0097770961e+00 5.2130868499e+00 
87200 6.3010341647e+00 -6.4702892997e-04 3.0097879279e+00 -5.2131056112e+00 3.0097879279e+00 5.2131056112e+00 
87300 6.3010341640e+00 -6.4206736193e-04 3.0097986767e+00 -5.2131242286e+00 3.0097986767e+00 5.2131242286e+00 
87400 6.3010341634e+00 -6.3714349970e-04 3.0098093430e+00 -5.2131427032e+00 3.0098093430e+00 5.2131427032e+00 
87500 6.3010341629e+00 -6.3225704669e-04 3.0098199274e+00 -5.2131610360e+00 3.0098199274e+00 5.2131610360e+00 
87600 6.3010341625e+00 -6.2740770869e-04 3.0098304307e+00 -5.2131792281e+00 3.0098304307e+00 5.2131792281e+00 
87700 6.3010341622e+00 -6.2259519389e-04 3.0098408533e+00 -5.2131972807e+00 3.0098408533e+00 5.2131972807e+00 
87800 6.3010341620e+00 -6.1781921287e-04 3.0098511960e+00 -5.2132151947e+00 3.0098511960e+00 5.2132151947e+00 
87900 6.3010341619e+00 -6.1307947856e-04 3.0098614593e+00 -5.2132329712e+00 3.0098614593e+00 5.2132329712e+00 
88000 6.3010341618e+00 -6.0837570623e-04 3.0098716438e+00 -5.2132506113e+00 3.0098716438e+00 5.2132506113e+00 
88100 6.3010341618e+00 -6.0370761347e-04 3.0098817502e+00 -5.2132681161e+00 3.0098817502e+00 5.2132681161e+00 
88200 6.3010341619e+00 -5.9907492020e-04 3.0098917789e+00 -5.2132854864e+00 3.0098917789e+00 5.2132854864e+00 
88300 6.3010341621e+00 -5.9447734860e-04 3.0099017307e+00 -5.2133027234e+00 3.0099017307e+00 5.2133027234e+00 
88400 6.3010341624e+00 -5.8991462317e-04 3.0099116061e+00 -5.2133198280e+00 3.0099116061e+00 5.2133198280e+00 
88500 6.3010341627e+00 -5.8538647062e-04 3.0099214056e+00 -5.2133368013e+00 3.0099214056e+00 5.2133368013e+00 
88600 6.3010341631e+00 -5.8089261995e-04 3.0099311299e+00 -5.2133536443e+00 3.0099311299e+00 5.2133536443e+00 
88700 6.3010341636e+00 -5.7643280234e-04 3.0099407795e+00 -5.2133703579e+00 3.0099407795e+00 5.2133703579e+00 
88800 6.3010341641e+00 -5.7200675123e-04 3.0099503550e+00 -5.2133869431e+00 3.0099503550e+00 5.2133869431e+00 
88900 6.3010341647e+00 -5.6761420222e-04 3.0099598569e+00 -5.2134034009e+00 3.0099598569e+00 5.2134034009e+00 
89000 6.3010341654e+00 -5.6325489310e-04 3.0099692859e+00 -5.2134197323e+00 3.0099692859e+00 5.2134197323e+00 
89100 6.3010341661e+00 -5.5892856381e-04 3.0099786424e+00 -5.2134359383e+00 3.0099786424e+00 5.2134359383e+00 
89200 6.3010341669e+00 -5.5463495646e-04 3.0099879270e+00 -5.2134520196e+00 3.0099879270e+00 5.2134520196e+00 
89300 6.3010341677e+00 -5.5037381525e-04 3.0099971402e+00 -5.2134679775e+00 3.0099971402e+00 5.2134679775e+00 
89400 6.3010341686e+00 -5.4614488654e-04 3.0100062826e+00 -5.2134838126e+00 3.0100062826e+00 5.2134838126e+00 
89500 6.3010341696e+00 -5.4194791875e-04 3.0100153548e+00 -5.2134995261e+00 3.0100153548e+00 5.2134995261e+00 
89600 6.3010341706e+00 -5.3778266240e-04 3.0100243572e+00 -5.2135151187e+00 3.0100243572e+00 5.2135151187e+00 
89700 6.3010341717e+00 -5.3364887005e-04 3.0100332904e+00 -5.2135305915e+00 3.0100332904e+00 5.2135305915e+00 
89800 6.3010341728e+00 -5.2954629634e-04 3.0100421549e+00 -5.2135459452e+00 3.0100421549e+00 5.2135459452e+00 
89900 6.3010341740e+00 -5.2547469793e-04 3.0100509512e+00 -5.2135611809e+00 3.0100509512e+00 5.2135611809e+00 
90000 6.3010341752e+00 -5.2143383347e-04 3.0100596799e+00 -5.2135762994e+00 3.0100596799e+00 5.2135762994e+00 
90100 6.3010341765e+00 -5.1742346366e-04 3.0100683414e+00 -5.2135913016e+00 3.0100683414e+00 5.2135913016e+00 
90200 6.3010341778e+00 -5.1344335115e-04 3.0100769363e+00 -5.2136061884e+00 3.0100769363e+00 5.2136061884e+00 
90300 6.3010341792e+00 -5.0949326056e-04 3.0100854651e+00 -5.2136209606e+00 3.0100854651e+00 5.2136209606e+00 
90400 6.3010341806e+00 -5.0557295847e-04 3.0100939282e+00 -5.2136356192e+00 3.0100939282e+00 5.2136356192e+00 
90500 6.3010341820e+00 -5.0168221341e-04 3.0101023261e+00 -5.2136501649e+00 3.0101023261e+00 5.2136501649e+00 
90600 6.3010341835e+00 -4.9782079580e-04 3.0101106595e+00 -5.2136645986e+00 3.0101106595e+00 5.2136645986e+00 
90700 6.3010341851e+00 -4.9398847799e-04 3.0101189286e+00 -5.2136789212e+00 3.0101189286e+00 5.2136789212e+00 
90800 6.3010341866e+00 -4.9018503421e-04 3.0101271341e+00 -5.2136931334e+00 3.0101271341e+00 5.2136931334e+00 
90900 6.3010341883e+00 -4.8641024058e-04 3.0101352763e+00 -5.2137072363e+00 3.0101352763e+00 5.2137072363e+00 
91000 6.3010341899e+00 -4.8266387505e-04 3.0101433559e+00 -5.2137212305e+00 3.0101433559e+00 5.2137212305e+00 
91100 6.3010341916e+00 -4.7894571745e-04 3.0101513732e+00 -5.2137351168e+00 3.0101513732e+00 5.2137351168e+00 
91200 6.3010341933e+00 -4.7525554941e-04 3.0101593287e+00 -5.2137488962e+00 3.0101593287e+00 5.2137488962e+00 
91300 6.3010341951e+00 -4.7159315438e-04 3.0101672229e+00 -5.2137625693e+00 3.0101672229e+00 5.2137625693e+00 
91400 6.3010341968e+00 -4.6795831763e-04 3.0101750562e+00 -5.2137761371e+00 3.0101750562e+00 5.2137761371e+00 
91500 6.3010341987e+00 -4.6435082617e-04 3.0101828292e+00 -5.2137896002e+00 3.0101828292e+00 5.2137896002e+00 
91600 6.3010342005e+00 -4.6077046882e-04 3.0101905422e+00 -5.2138029595e+00 3.0101905422e+00 5.2138029595e+00 
91700 6.3010342024e+00 -4.5721703612e-04 3.0101981957e+00 -5.2138162158e+00 3.0101981957e+00 5.2138162158e+00 
91800 6.3010342043e+00 -4.5369032038e-04 3.0102057902e+00 -5.2138293698e+00 3.0102057902e+00 5.2138293698e+00 
91900 6.3010342062e+00 -4.5019011562e-04 3.0102133260e+00 -5.2138424223e+00 3.0102133260e+00 5.2138424223e+00 
92000 6.3010342082e+00 -4.4671621755e-04 3.0102208037e+00 -5.2138553741e+00 3.0102208037e+00 5.2138553741e+00 
92100 6.3010342101e+00 -4.4326842359e-04 3.0102282237e+00 -5.2138682259e+00 3.0102282237e+00 5.2138682259e+00 
92200 6.3010342121e+00 -4.3984653286e-04 3.0102355864e+00 -5.2138809785e+00 3.0102355864e+00 5.2138809785e+00 
92300 6.3010342142e+00 -4.3645034610e-04 3.0102428923e+00 -5.2138936326e+00 3.0102428923e+00 5.2138936326e+00 
92400 6.3010342162e+00 -4.3307966574e-04 3.0102501417e+00 -5.2139061890e+00 3.0102501417e+00 5.2139061890e+00 
92500 6.3010342183e+00 -4.2973429584e-04 3.0102573351e+00 -5.2139186483e+00 3.0102573351e+00 5.2139186483e+00 
92600 6.3010342204e+00 -4.2641404205e-04 3.0102644730e+00 -5.2139310114e+00 3.0102644730e+00 5.2139310114e+00 
92700 6.3010342225e+00 -4.2311871166e-04 3.0102715556e+00 -5.2139432790e+00 3.0102715556e+00 5.2139432790e+00 
92800 6.3010342246e+00 -4.1984811354e-04 3.0102785836e+00 -5.2139554517e+00 3.0102785836e+00 5.2139554517e+00 
92900 6.3010342268e+00 -4.1660205816e-04 3.0102855571e+00 -5.2139675303e+00 3.0102855571e+00 5.2139675303e+00 
93000 6.3010342290e+00 -4.1338035753e-04 3.0102924768e+00 -5.2139795154e+00 3.0102924768e+00 5.2139795154e+00 
93100 6.3010342311e+00 -4.1018282522e-04 3.0102993429e+00 -5.2139914079e+00 3.0102993429e+00 5.2139914079e+00 
93200 6.3010342333e+00 -4.0700927635e-04 3.0103061559e+00 -5.2140032084e+00 3.0103061559e+00 5.2140032084e+00 
93300 6.3010342356e+00 -4.0385952754e-04 3.0103129162e+00 -5.2140149175e+00 3.0103129162e+00 5.2140149175e+00 
93400 6.3010342378e+00 -4.0073339694e-04 3.0103196241e+00 -5.2140265360e+00 3.0103196241e+00 5.2140265360e+00 
93500 6.3010342400e+00 -3.9763070421e-04 3.0103262801e+00 -5.2140380645e+00 3.0103262801e+00 5.2140380645e+00 
93600 6.3010342423e+00 -3.9455127045e-04 3.0103328845e+00 -5.2140495037e+00 3.0103328845e+00 5.2140495037e+00 
93700 6.3010342446e+00 -3.9149491828e-04 3.0103394378e+00 -5.2140608544e+00 3.0103394378e+00 5.2140608544e+00 
93800 6.3010342468e+00 -3.8846147175e-04 3.0103459403e+00 -5.2140721170e+00 3.0103459403e+00 5.2140721170e+00 
93900 6.3010342491e+00 -3.8545075637e-04 3.0103523924e+00 -5.2140832924e+00 3.0103523924e+00 5.2140832924e+00 
94000 6.3010342514e+00 -3.8246259906e-04 3.0103587945e+00 -5.2140943812e+00 3.0103587945e+00 5.2140943812e+00 
94100 6.3010342537e+00 -3.7949682818e-04 3.0103651470e+00 -5.2141053839e+00 3.0103651470e+00 5.2141053839e+00 
94200 6.3010342561e+00 -3.7655327349e-04 3.0103714502e+00 -5.2141163013e+00 3.0103714502e+00 5.2141163013e+00 
94300 6.3010342584e+00 -3.7363176614e-04 3.0103777044e+00 -5.2141271340e+00 3.0103777044e+00 5.2141271340e+00 
94400 6.3010342607e+00 -3.7073213867e-04 3.0103839102e+00 -5.2141378827e+00 3.0103839102e+00 5.2141378827e+00 
94500 6.3010342631e+00 -3.6785422497e-04 3.0103900677e+00 -5.2141485479e+00 3.0103900677e+00 5.2141485479e+00 
94600 6.3010342654e+00 -3.6499786030e-04 3.0103961775e+00 -5.2141591303e+00 3.0103961775e+00 5.2141591303e+00 
94700 6.3010342678e+00 -3.6216288127e-04 3.0104022397e+00 -5.2141696305e+00 3.0104022397e+00 5.2141696305e+00 
94800 6.3010342702e+00 -3.5934912580e-04 3.0104082549e+00 -5.2141800491e+00 3.0104082549e+00 5.2141800491e+00 
94900 6.3010342725e+00 -3.5655643316e-04 3.0104142234e+00 -5.2141903867e+00 3.0104142234e+00 5.2141903867e+00 
95000 6.3010342749e+00 -3.5378464389e-04 3.0104201454e+00 -5.2142006440e+00 3.0104201454e+00 5.2142006440e+00 
95100 6.3010342773e+00 -3.5103359987e-04 3.0104260214e+00 -5.2142108216e+00 3.0104260214e+00 5.2142108216e+00 
95200 6.3010342797e+00 -3.4830314421e-04 3.0104318517e+00 -5.2142209199e+00 3.0104318517e+00 5.2142209199e+00 
95300 6.3010342821e+00 -3.4559312136e-04 3.0104376367e+00 -5.2142309398e+00 3.0104376367e+00 5.2142309398e+00 
95400 6.3010342844e+00 -3.4290337695e-04 3.0104433766e+00 -5.2142408816e+00 3.0104433766e+00 5.2142408816e+00 
95500 6.3010342868e+00 -3.4023375794e-04 3.0104490718e+00 -5.2142507460e+00 3.0104490718e+00 5.2142507460e+00 
95600 6.3010342892e+00 -3.3758411246e-04 3.0104547227e+00 -5.2142605336e+00 3.0104547227e+00 5.2142605336e+00 
95700 6.3010342916e+00 -3.3495428992e-04 3.0104603296e+00 -5.2142702450e+00 3.0104603296e+00 5.2142702450e+00 
95800 6.3010342940e+00 -3.3234414090e-04 3.0104658928e+00 -5.2142798807e+00 3.0104658928e+00 5.2142798807e+00 
95900 6.3010342964e+00 -3.2975351722e-04 3.0104714126e+00 -5.2142894413e+00 3.0104714126e+00 5.2142894413e+00 
96000 6.3010342988e+00 -3.2718227188e-04 3.0104768893e+00 -5.2142989274e+00 3.0104768893e+00 5.2142989274e+00 
96100 6.3010343012e+00 -3.2463025904e-04 3.0104823234e+00 -5.2143083394e+00 3.0104823234e+00 5.2143083394e+00 
96200 6.3010343036e+00 -3.2209733408e-04 3.0104877151e+00 -5.2143176781e+00 3.0104877151e+00 5.2143176781e+00 
96300 6.3010343060e+00 -3.1958335350e-04 3.0104930647e+00 -5.2143269438e+00 3.0104930647e+00 5.2143269438e+00 
96400 6.3010343084e+00 -3.1708817496e-04 3.0104983725e+00 -5.2143361373e+00 3.0104983725e+00 5.2143361373e+00 
96500 6.3010343108e+00 -3.1461165728e-04 3.0105036389e+00 -5.2143452589e+00 3.0105036389e+00 5.2143452589e+00 
96600 6.3010343132e+00 -3.1215366037e-04 3.0105088641e+00 -5.2143543093e+00 3.0105088641e+00 5.2143543093e+00 
96700 6.3010343156e+00 -3.0971404530e-04 3.0105140485e+00 -5.2143632889e+00 3.0105140485e+00 5.2143632889e+00 
96800 6.3010343179e+00 -3.0729267423e-04 3.0105191924e+00 -5.2143721984e+00 3.0105191924e+00 5.2143721984e+00 
96900 6.3010343203e+00 -3.0488941041e-04 3.0105242960e+00 -5.2143810381e+00 3.0105242960e+00 5.2143810381e+00 
97000 6.3010343227e+00 -3.0250411820e-04 3.0105293598e+00 -5.2143898088e+00 3.0105293598e+00 5.2143898088e+00 
97100 6.3010343251e+00 -3.0013666303e-04 3.0105343839e+00 -5.2143985108e+00 3.0105343839e+00 5.2143985108e+00 
97200 6.3010343274e+00 -2.9778691138e-04 3.0105393686e+00 -5.2144071447e+00 3.0105393686e+00 5.2144071447e+00 
97300 6.3010343298e+00 -2.9545473083e-04 3.0105443144e+00 -5.2144157109e+00 3.0105443144e+00 5.2144157109e+00 
97400 6.3010343322e+00 -2.9313998998e-04 3.0105492214e+00 -5.2144242101e+00 3.0105492214e+00 5.2144242101e+00 
97500 6.3010343345e+00 -2.9084255847e-04 3.0105540899e+00 -5.2144326427e+00 3.0105540899e+00 5.2144326427e+00 
97600 6.3010343369e+00 -2.8856230698e-04 3.0105589203e+00 -5.2144410091e+00 3.0105589203e+00 5.2144410091e+00 
97700 6.3010343392e+00 -2.8629910722e-04 3.0105637128e+00 -5.2144493100e+00 3.0105637128e+00 5.2144493100e+00 
97800 6.3010343416e+00 -2.8405283190e-04 3.0105684677e+00 -5.2144575458e+00 3.0105684677e+00 5.2144575458e+00 
97900 6.3010343439e+00 -2.8182335473e-04 3.0105731853e+00 -5.2144657169e+00 3.0105731853e+00 5.2144657169e+00 
98000 6.3010343462e+00 -2.7961055043e-04 3.0105778659e+00 -5.2144738238e+00 3.0105778659e+00 5.2144738238e+00 
98100 6.3010343485e+00 -2.7741429469e-04 3.0105825097e+00 -5.2144818671e+00 3.0105825097e+00 5.2144818671e+00 
98200 6.3010343509e+00 -2.7523446418e-04 3.0105871170e+00 -5.2144898473e+00 3.0105871170e+00 5.2144898473e+00 
98300 6.3010343532e+00 -2.7307093655e-04 3.0105916881e+00 -5.2144977646e+00 3.0105916881e+00 5.2144977646e+00 
98400 6.3010343555e+00 -2.7092359040e-04 3.0105962233e+00 -5.2145056198e+00 3.0105962233e+00 5.2145056198e+00 
98500 6.3010343578e+00 -2.6879230527e-04 3.0106007228e+00 -5.2145134132e+00 3.0106007228e+00 5.2145134132e+00 
98600 6.3010343600e+00 -2.6667696167e-04 3.0106051869e+00 -5.2145211452e+00 3.0106051869e+00 5.2145211452e+00 
98700 6.3010343623e+00 -2.6457744101e-04 3.0106096158e+00 -5.2145288164e+00 3.0106096158e+00 5.2145288164e+00 
98800 6.3010343646e+00 -2.6249362565e-04 3.0106140099e+00 -5.2145364272e+00 3.0106140099e+00 5.2145364272e+00 
98900 6.3010343669e+00 -2.6042539886e-04 3.0106183694e+00 -5.2145439780e+00 3.0106183694e+00 5.2145439780e+00 
99000 6.3010343691e+00 -2.5837264481e-04 3.0106226945e+00 -5.2145514693e+00 3.0106226945e+00 5.2145514693e+00 
99100 6.3010343714e+00 -2.5633524859e-04 3.0106269855e+00 -5.2145589016e+00 3.0106269855e+00 5.2145589016e+00 
99200 6.3010343736e+00 -2.5431309617e-04 3.0106312427e+00 -5.2145662752e+00 3.0106312427e+00 5.2145662752e+00 
99300 6.3010343758e+00 -2.5230607440e-04 3.0106354663e+00 -5.2145735907e+00 3.0106354663e+00 5.2145735907e+00 
99400 6.3010343780e+00 -2.5031407102e-04 3.0106396565e+00 -5.2145808484e+00 3.0106396565e+00 5.2145808484e+00 
99500 6.3010343802e+00 -2.4833697464e-04 3.0106438137e+00 -5.2145880488e+00 3.0106438137e+00 5.2145880488e+00 
99600 6.3010343824e+00 -2.4637467471e-04 3.0106479380e+00 -5.2145951923e+00 3.0106479380e+00 5.2145951923e+00 
99700 6.3010343846e+00 -2.4442706157e-04 3.0106520297e+00 -5.2146022794e+00 3.0106520297e+00 5.2146022794e+00 
99800 6.3010343868e+00 -2.4249402638e-04 3.0106560891e+00 -5.2146093105e+00 3.0106560891e+00 5.2146093105e+00 
99900 6.3010343890e+00 -2.4057546115e-04 3.0106601164e+00 -5.2146162859e+00 3.0106601164e+00 5.2146162859e+00 
100000 6.3010343911e+00 -2.3867125871e-04 3.0106641118e+00 -5.2146232061e+00 3.0106641118e+00 5.2146232061e+00 
100100 6.3010343933e+00 -2.3678131273e-04 3.0106680755e+00 -5.2146300715e+00 3.0106680755e+00 5.2146300715e+00 
100200 6.3010343954e+00 -2.3490551770e-04 3.0106720079e+00 -5.2146368826e+00 3.0106720079e+00 5.2146368826e+00 
100300 6.3010343976e+00 -2.3304376891e-04 3.0106759091e+00 -5.2146436397e+00 3.0106759091e+00 5.2146436397e+00 
100400 6.3010343997e+00 -2.3119596245e-04 3.0106797794e+00 -5.2146503433e+00 3.0106797794e+00 5.2146503433e+00 
100500 6.3010344018e+00 -2.2936199522e-04 3.0106836190e+00 -5.2146569936e+00 3.0106836190e+00 5.2146569936e+00 
100600 6.3010344039e+00 -2.2754176491e-04 3.0106874281e+00 -5.2146635913e+00 3.0106874281e+00 5.2146635913e+00 
100700 6.3010344060e+00 -2.2573516997e-04 3.0106912070e+00 -5.2146701365e+00 3.0106912070e+00 5.2146701365e+00 
100800 6.3010344081e+00 -2.2394210966e-04 3.0106949559e+00 -5.2146766298e+00 3.0106949559e+00 5.2146766298e+00 
100900 6.3010344101e+00 -2.2216248398e-04 3.0106986750e+00 -5.2146830715e+00 3.0106986750e+00 5.2146830715e+00 
101000 6.3010344122e+00 -2.2039619372e-04 3.0107023646e+00 -5.2146894620e+00 3.0107023646e+00 5.2146894620e+00 
101100 6.3010344142e+00 -2.1864314041e-04 3.0107060248e+00 -5.2146958016e+00 3.0107060248e+00 5.2146958016e+00 
101200 6.3010344163e+00 -2.1690322633e-04 3.0107096559e+00 -5.2147020909e+00 3.0107096559e+00 5.2147020909e+00 
101300 6.3010344183e+00 -2.1517635450e-04 3.0107132581e+00 -5.2147083301e+00 3.0107132581e+00 5.2147083301e+00 
101400 6.3010344203e+00 -2.1346242871e-04 3.0107168316e+00 -5.2147145196e+00 3.0107168316e+00 5.2147145196e+00 
101500 6.3010344223e+00 -2.1176135343e-04 3.0107203767e+00 -5.2147206598e+00 3.0107203767e+00 5.2147206598e+00 
101600 6.3010344243e+00 -2.1007303390e-04 3.0107238934e+00 -5.2147267510e+00 3.0107238934e+00 5.2147267510e+00 
101700 6.3010344263e+00 -2.0839737606e-04 3.0107273822e+00 -5.2147327937e+00 3.0107273822e+00 5.2147327937e+00 
101800 6.3010344283e+00 -2.0673428655e-04 3.0107308431e+00 -5.2147387882e+00 3.0107308431e+00 5.2147387882e+00 
101900 6.3010344302e+00 -2.0508367275e-04 3.0107342764e+00 -5.2147447348e+00 3.0107342764e+00 5.2147447348e+00 
102000 6.3010344322e+00 -2.0344544271e-04 3.0107376823e+00 -5.2147506340e+00 3.0107376823e+00 5.2147506340e+00 
102100 6.3010344341e+00 -2.0181950520e-04 3.0107410609e+00 -5.2147564860e+00 3.0107410609e+00 5.2147564860e+00 
102200 6.3010344360e+00 -2.0020576966e-04 3.0107444126e+00 -5.2147622912e+00 3.0107444126e+00 5.2147622912e+00 
102300 6.3010344379e+00 -1.9860414622e-04 3.0107477375e+00 -5.2147680500e+00 3.0107477375e+00 5.2147680500e+00 
102400 6.3010344398e+00 -1.9701454570e-04 3.0107510357e+00 -5.2147737628e+00 3.0107510357e+00 5.2147737628e+00 
102500 6.3010344417e+00 -1.9543687957e-04 3.0107543076e+00 -5.2147794298e+00 3.0107543076e+00 5.2147794298e+00 
102600 6.3010344436e+00 -1.9387106000e-04 3.0107575532e+00 -5.2147850514e+00 3.0107575532e+00 5.2147850514e+00 
102700 6.3010344455e+00 -1.9231699978e-04 3.0107607728e+00 -5.2147906280e+00 3.0107607728e+00 5.2147906280e+00 
102800 6.3010344473e+00 -1.9077461238e-04 3.0107639667e+00 -5.2147961599e+00 3.0107639667e+00 5.2147961599e+00 
102900 6.3010344491e+00 -1.8924381194e-04 3.0107671349e+00 -5.2148016474e+00 3.0107671349e+00 5.2148016474e+00 
103000 6.3010344510e+00 -1.8772451320e-04 3.0107702777e+00 -5.2148070908e+00 3.0107702777e+00 5.2148070908e+00 
103100 6.3010344528e+00 -1.8621663158e-04 3.0107733952e+00 -5.2148124906e+00 3.0107733952e+00 5.2148124906e+00 
103200 6.3010344546e+00 -1.8472008311e-04 3.0107764877e+00 -5.2148178470e+00 3.0107764877e+00 5.2148178470e+00 
103300 6.3010344564e+00 -1.8323478446e-04 3.0107795554e+00 -5.2148231603e+00 3.0107795554e+00 5.2148231603e+00 
103400 6.3010344582e+00 -1.8176065293e-04 3.0107825984e+00 -5.2148284309e+00 3.0107825984e+00 5.2148284309e+00 
103500 6.3010344599e+00 -1.8029760643e-04 3.0107856169e+00 -5.2148336591e+00 3.0107856169e+00 5.2148336591e+00 
103600 6.3010344617e+00 -1.7884556349e-04 3.0107886110e+00 -5.2148388452e+00 3.0107886110e+00 5.2148388452e+00 
103700 6.3010344634e+00 -1.7740444324e-04 3.0107915811e+00 -5.2148439895e+00 3.0107915811e+00 5.2148439895e+00 
103800 6.3010344652e+00 -1.7597416544e-04 3.0107945273e+00 -5.2148490924e+00 3.0107945273e+00 5.2148490924e+00 
103900 6.3010344669e+00 -1.7455465041e-04 3.0107974497e+00 -5.2148541541e+00 3.0107974497e+00 5.2148541541e+00 
104000 6.3010344686e+00 -1.7314581911e-04 3.0108003485e+00 -5.2148591750e+00 3.0108003485e+00 5.2148591750e+00 
104100 6.3010344703e+00 -1.7174759305e-04 3.0108032239e+00 -5.2148641554e+00 3.0108032239e+00 5.2148641554e+00 
104200 6.3010344720e+00 -1.7035989435e-04 3.0108060761e+00 -5.2148690955e+00 3.0108060761e+00 5.2148690955e+00 
104300 6.3010344737e+00 -1.6898264571e-04 3.0108089052e+00 -5.2148739957e+00 3.0108089052e+00 5.2148739957e+00 
104400 6.3010344753e+00 -1.6761577040e-04 3.0108117115e+00 -5.2148788563e+00 3.0108117115e+00 5.2148788563e+00 
104500 6.3010344770e+00 -1.6625919226e-04 3.0108144950e+00 -5.2148836776e+00 3.0108144950e+00 5.2148836776e+00 
104600 6.3010344786e+00 -1.6491283570e-04 3.0108172561e+00 -5.2148884598e+00 3.0108172561e+00 5.2148884598e+00 
104700 6.3010344802e+00 -1.6357662570e-04 3.0108199947e+00 -5.2148932034e+00 3.0108199947e+00 5.2148932034e+00 
104800 6.3010344818e+00 -1.6225048778e-04 3.0108227112e+00 -5.2148979084e+00 3.0108227112e+00 5.2148979084e+00 
104900 6.3010344835e+00 -1.6093434803e-04 3.0108254057e+00 -5.2149025754e+00 3.0108254057e+00 5.2149025754e+00 
105000 6.3010344850e+00 -1.5962813309e-04 3.0108280783e+00 -5.2149072044e+00 3.0108280783e+00 5.2149072044e+00 
105100 6.3010344866e+00 -1.5833177013e-04 3.0108307292e+00 -5.2149117959e+00 3.0108307292e+00 5.2149117959e+00 
105200 6.3010344882e+00 -1.5704518688e-04 3.0108333586e+00 -5.2149163501e+00 3.0108333586e+00 5.2149163501e+00 
105300 6.3010344897e+00 -1.5576831160e-04 3.0108359666e+00 -5.2149208673e+00 3.0108359666e+00 5.2149208673e+00 
105400 6.3010344913e+00 -1.5450107307e-04 3.0108385533e+00 -5.2149253478e+00 3.0108385533e+00 5.2149253478e+00 
105500 6.3010344928e+00 -1.5324340062e-04 3.0108411191e+00 -5.2149297918e+00 3.0108411191e+00 5.2149297918e+00 
105600 6.3010344943e+00 -1.5199522409e-04 3.0108436640e+00 -5.2149341996e+00 3.0108436640e+00 5.2149341996e+00 
105700 6.3010344958e+00 -1.5075647383e-04 3.0108461881e+00 -5.2149385715e+00 3.0108461881e+00 5.2149385715e+00 
105800 6.3010344973e+00 -1.4952708074e-04 3.0108486916e+00 -5.2149429078e+00 3.0108486916e+00 5.2149429078e+00 
105900 6.3010344988e+00 -1.4830697620e-04 3.0108511748e+00 -5.2149472088e+00 3.0108511748e+00 5.2149472088e+00 
106000 6.3010345003e+00 -1.4709609211e-04 3.0108536377e+00 -5.2149514746e+00 3.0108536377e+00 5.2149514746e+00 
106100 6.3010345018e+00 -1.4589436087e-04 3.0108560804e+00 -5.2149557056e+00 3.0108560804e+00 5.2149557056e+00 
106200 6.3010345032e+00 -1.4470171539e-04 3.0108585032e+00 -5.2149599020e+00 3.0108585032e+00 5.2149599020e+00 
106300 6.3010345047e+00 -1.4351808908e-04 3.0108609062e+00 -5.2149640641e+00 3.0108609062e+00 5.2149640641e+00 
106400 6.3010345061e+00 -1.4234341581e-04 3.0108632896e+00 -5.2149681922e+00 3.0108632896e+00 5.2149681922e+00 
106500 6.3010345075e+00 -1.4117762998e-04 3.0108656534e+00 -5.2149722865e+00 3.0108656534e+00 5.2149722865e+00 
106600 6.3010345089e+00 -1.4002066645e-04 3.0108679979e+00 -5.2149763472e+00 3.0108679979e+00 5.2149763472e+00 
106700 6.3010345103e+00 -1.3887246057e-04 3.0108703231e+00 -5.2149803746e+00 3.0108703231e+00 5.2149803746e+00 
106800 6.3010345117e+00 -1.3773294817e-04 3.0108726293e+00 -5.2149843691e+00 3.0108726293e+00 5.2149843691e+00 
106900 6.3010345131e+00 -1.3660206554e-04 3.0108749166e+00 -5.2149883307e+00 3.0108749166e+00 5.2149883307e+00 
107000 6.3010345144e+00 -1.3547974946e-04 3.0108771850e+00 -5.2149922598e+00 3.0108771850e+00 5.2149922598e+00 
107100 6.3010345158e+00 -1.3436593716e-04 3.0108794349e+00 -5.2149961567e+00 3.0108794349e+00 5.2149961567e+00 
107200 6.3010345171e+00 -1.3326056634e-04 3.0108816662e+00 -5.2150000215e+00 3.0108816662e+00 5.2150000215e+00 
107300 6.3010345184e+00 -1.3216357516e-04 3.0108838792e+00 -5.2150038545e+00 3.0108838792e+00 5.2150038545e+00 
107400 6.3010345197e+00 -1.3107490224e-04 3.0108860740e+00 -5.2150076559e+00 3.0108860740e+00 5.2150076559e+00 
107500 6.3010345211e+00 -1.2999448665e-04 3.0108882507e+00 -5.2150114260e+00 3.0108882507e+00 5.2150114260e+00 
107600 6.3010345223e+00 -1.2892226791e-04 3.0108904094e+00 -5.2150151651e+00 3.0108904094e+00 5.2150151651e+00 
107700 6.3010345236e+00 -1.2785818597e-04 3.0108925503e+00 -5.2150188733e+00 3.0108925503e+00 5.2150188733e+00 
107800 6.3010345249e+00 -1.2680218124e-04 3.0108946736e+00 -5.2150225509e+00 3.0108946736e+00 5.2150225509e+00 
107900 6.3010345262e+00 -1.2575419457e-04 3.0108967793e+00 -5.2150261981e+00 3.0108967793e+00 5.2150261981e+00 
108000 6.3010345274e+00 -1.2471416724e-04 3.0108988676e+00 -5.2150298152e+00 3.0108988676e+00 5.2150298152e+00 
108100 6.3010345287e+00 -1.2368204096e-04 3.0109009387e+00 -5.2150334023e+00 3.0109009387e+00 5.2150334023e+00 
108200 6.3010345299e+00 -1.2265775788e-04 3.0109029926e+00 -5.2150369598e+00 3.0109029926e+00 5.2150369598e+00 
108300 6.3010345311e+00 -1.2164126055e-04 3.0109050295e+00 -5.2150404878e+00 3.0109050295e+00 5.2150404878e+00 
108400 6.3010345323e+00 -1.2063249198e-04 3.0109070495e+00 -5.2150439866e+00 3.0109070495e+00 5.2150439866e+00 
108500 6.3010345335e+00 -1.1963139556e-04 3.0109090527e+00 -5.2150474563e+00 3.0109090527e+00 5.2150474563e+00 
108600 6.3010345347e+00 -1.1863791513e-04 3.0109110394e+00 -5.2150508973e+00 3.0109110394e+00 5.2150508973e+00 
108700 6.3010345359e+00 -1.1765199493e-04 3.0109130095e+00 -5.2150543096e+00 3.0109130095e+00 5.2150543096e+00 
108800 6.3010345371e+00 -1.1667357960e-04 3.0109149633e+00 -5.2150576937e+00 3.0109149633e+00 5.2150576937e+00 
108900 6.3010345382e+00 -1.1570261420e-04 3.0109169008e+00 -5.2150610495e+00 3.0109169008e+00 5.2150610495e+00 
109000 6.3010345394e+00 -1.1473904419e-04 3.0109188222e+00 -5.2150643775e+00 3.0109188222e+00 5.2150643775e+00 
109100 6.3010345405e+00 -1.1378281543e-04 3.0109207275e+00 -5.2150676777e+00 3.0109207275e+00 5.2150676777e+00 
109200 6.3010345416e+00 -1.1283387418e-04 3.0109226171e+00 -5.2150709504e+00 3.0109226171e+00 5.2150709504e+00 
109300 6.3010345427e+00 -1.1189216708e-04 3.0109244908e+00 -5.2150741958e+00 3.0109244908e+00 5.2150741958e+00 
109400 6.3010345438e+00 -1.1095764119e-04 3.0109263489e+00 -5.2150774141e+00 3.0109263489e+00 5.2150774141e+00 
109500 6.3010345449e+00 -1.1003024394e-04 3.0109281915e+00 -5.2150806056e+00 3.0109281915e+00 5.2150806056e+00 
109600 6.3010345460e+00 -1.0910992315e-04 3.0109300187e+00 -5.2150837704e+00 3.0109300187e+00 5.2150837704e+00 
109700 6.3010345471e+00 -1.0819662702e-04 3.0109318306e+00 -5.2150869087e+00 3.0109318306e+00 5.2150869087e+00 
109800 6.3010345482e+00 -1.0729030412e-04 3.0109336273e+00 -5.2150900207e+00 3.0109336273e+00 5.2150900207e+00 
109900 6.3010345492e+00 -1.0639090343e-04 3.0109354090e+00 -5.2150931066e+00 3.0109354090e+00 5.2150931066e+00 
110000 6.3010345503e+00 -1.0549837427e-04 3.0109371757e+00 -5.2150961667e+00 3.0109371757e+00 5.2150961667e+00 
110100 6.3010345513e+00 -1.0461266635e-04 3.0109389276e+00 -5.2150992011e+00 3.0109389276e+00 5.2150992011e+00 
110200 6.3010345524e+00 -1.0373372975e-04 3.0109406648e+00 -5.2151022101e+00 3.0109406648e+00 5.2151022101e+00 
110300 6.3010345534e+00 -1.0286151489e-04 3.0109423875e+00 -5.2151051937e+00 3.0109423875e+00 5.2151051937e+00 
110400 6.3010345544e+00 -1.0199597259e-04 3.0109440956e+00 -5.2151081523e+00 3.0109440956e+00 5.2151081523e+00 
110500 6.3010345554e+00 -1.0113705402e-04 3.0109457893e+00 -5.2151110860e+00 3.0109457893e+00 5.2151110860e+00 
110600 6.3010345564e+00 -1.0028471068e-04 3.0109474688e+00 -5.2151139949e+00 3.0109474688e+00 5.2151139949e+00 
110700 6.3010345574e+00 -9.9438894468e-05 3.0109491342e+00 -5.2151168794e+00 3.0109491342e+00 5.2151168794e+00 
110800 6.3010345583e+00 -9.8599557599e-05 3.0109507854e+00 -5.2151197395e+00 3.0109507854e+00 5.2151197395e+00 
110900 6.3010345593e+00 -9.7766652655e-05 3.0109524228e+00 -5.2151225755e+00 3.0109524228e+00 5.2151225755e+00 
111000 6.3010345603e+00 -9.6940132564e-05 3.0109540463e+00 -5.2151253875e+00 3.0109540463e+00 5.2151253875e+00 
111100 6.3010345612e+00 -9.6119950597e-05 3.0109556561e+00 -5.2151281757e+00 3.0109556561e+00 5.2151281757e+00 
111200 6.3010345621e+00 -9.5306060361e-05 3.0109572523e+00 -5.2151309404e+00 3.0109572523e+00 5.2151309404e+00 
111300 6.3010345631e+00 -9.4498415814e-05 3.0109588349e+00 -5.2151336816e+00 3.0109588349e+00 5.2151336816e+00 
111400 6.3010345640e+00 -9.3696971243e-05 3.0109604042e+00 -5.2151363996e+00 3.0109604042e+00 5.2151363996e+00 
111500 6.3010345649e+00 -9.2901681271e-05 3.0109619601e+00 -5.2151390946e+00 3.0109619601e+00 5.2151390946e+00 
111600 6.3010345658e+00 -9.2112500851e-05 3.0109635028e+00 -5.2151417666e+00 3.0109635028e+00 5.2151417666e+00 
111700 6.3010345667e+00 -9.1329385268e-05 3.0109650324e+00 -5.2151444160e+00 3.0109650324e+00 5.2151444160e+00 
111800 6.3010345676e+00 -9.0552290132e-05 3.0109665491e+00 -5.2151470429e+00 3.0109665491e+00 5.2151470429e+00 
111900 6.3010345685e+00 -8.9781171382e-05 3.0109680528e+00 -5.2151496474e+00 3.0109680528e+00 5.2151496474e+00 
112000 6.3010345693e+00 -8.9015985276e-05 3.0109695437e+00 -5.2151522297e+00 3.0109695437e+00 5.2151522297e+00 
112100 6.3010345702e+00 -8.8256688384e-05 3.0109710219e+00 -5.2151547900e+00 3.0109710219e+00 5.2151547900e+00 
112200 6.3010345711e+00 -8.7503237605e-05 3.0109724875e+00 -5.2151573285e+00 3.0109724875e+00 5.2151573285e+00 
112300 6.3010345719e+00 -8.6755590146e-05 3.0109739405e+00 -5.2151598453e+00 3.0109739405e+00 5.2151598453e+00 
112400 6.3010345727e+00 -8.6013703531e-05 3.0109753812e+00 -5.2151623405e+00 3.0109753812e+00 5.2151623405e+00 
112500 6.3010345736e+00 -8.5277535585e-05 3.0109768095e+00 -5.2151648145e+00 3.0109768095e+00 5.2151648145e+00 
112600 6.3010345744e+00 -8.4547044451e-05 3.0109782256e+00 -5.2151672673e+00 3.0109782256e+00 5.2151672673e+00 
112700 6.3010345752e+00 -8.3822188578e-05 3.0109796296e+00 -5.2151696990e+00 3.0109796296e+00 5.2151696990e+00 
112800 6.3010345760e+00 -8.3102926704e-05 3.0109810215e+00 -5.2151721099e+00 3.0109810215e+00 5.2151721099e+00 
112900 6.3010345768e+00 -8.2389217883e-05 3.0109824015e+00 -5.2151745002e+00 3.0109824015e+00 5.2151745002e+00 
113000 6.3010345776e+00 -8.1681021459e-05 3.0109837697e+00 -5.2151768699e+00 3.0109837697e+00 5.2151768699e+00 
113100 6.3010345784e+00 -8.0978297078e-05 3.0109851261e+00 -5.2151792192e+00 3.0109851261e+00 5.2151792192e+00 
113200 6.3010345791e+00 -8.0281004675e-05 3.0109864708e+00 -5.2151815483e+00 3.0109864708e+00 5.2151815483e+00 
113300 6.3010345799e+00 -7.9589104478e-05 3.0109878039e+00 -5.2151838574e+00 3.0109878039e+00 5.2151838574e+00 
113400 6.3010345807e+00 -7.8902557010e-05 3.0109891256e+00 -5.2151861465e+00 3.0109891256e+00 5.2151861465e+00 
113500 6.3010345814e+00 -7.8221323073e-05 3.0109904358e+00 -5.2151884159e+00 3.0109904358e+00 5.2151884159e+00 
113600 6.3010345822e+00 -7.7545363764e-05 3.0109917347e+00 -5.2151906657e+00 3.0109917347e+00 5.2151906657e+00 
113700 6.3010345829e+00 -7.6874640450e-05 3.0109930224e+00 -5.2151928961e+00 3.0109930224e+00 5.2151928961e+00 
113800 6.3010345836e+00 -7.6209114795e-05 3.0109942990e+00 -5.2151951072e+00 3.0109942990e+00 5.2151951072e+00 
113900 6.3010345844e+00 -7.5548748727e-05 3.0109955645e+00 -5.2151972991e+00 3.0109955645e+00 5.2151972991e+00 
114000 6.3010345851e+00 -7.4893504463e-05 3.0109968191e+00 -5.2151994721e+00 3.0109968191e+00 5.2151994721e+00 
114100 6.3010345858e+00 -7.4243344488e-05 3.0109980627e+00 -5.2152016262e+00 3.0109980627e+00 5.2152016262e+00 
114200 6.3010345865e+00 -7.3598231561e-05 3.0109992956e+00 -5.2152037616e+00 3.0109992956e+00 5.2152037616e+00 
114300 6.3010345872e+00 -7.2958128712e-05 3.0110005178e+00 -5.2152058784e+00 3.0110005178e+00 5.2152058784e+00 
114400 6.3010345878e+00 -7.2322999245e-05 3.0110017293e+00 -5.2152079768e+00 3.0110017293e+00 5.2152079768e+00 
114500 6.3010345885e+00 -7.1692806717e-05 3.0110029303e+00 -5.2152100570e+00 3.0110029303e+00 5.2152100570e+00 
114600 6.3010345892e+00 -7.1067514960e-05 3.0110041208e+00 -5.2152121190e+00 3.0110041208e+00 5.2152121190e+00 
114700 6.3010345899e+00 -7.0447088072e-05 3.0110053009e+00 -5.2152141630e+00 3.0110053009e+00 5.2152141630e+00 
114800 6.3010345906e+00 -7.0595013536e-05 3.0110053009e+00 -5.2152141630e+00 3.0110053009e+00 5.2152141630e+00 
114900 6.3010345913e+00 -7.0751337005e-05 3.0110053009e+00 -5.2152141630e+00 3.0110053009e+00 5.2152141630e+00 
115000 6.3010345919e+00 -7.0148616721e-05 3.0110064758e+00 -5.2152161980e+00 3.0110064758e+00 5.2152161980e+00 
115100 6.3010345926e+00 -7.0309642972e-05 3.0110064758e+00 -5.2152161980e+00 3.0110064758e+00 5.2152161980e+00 
115200 6.3010345933e+00 -7.0477996362e-05 3.0110064758e+00 -5.2152161980e+00 3.0110064758e+00 5.2152161980e+00 
115300 6.3010345940e+00 -7.0653192395e-05 3.0110064758e+00 -5.2152161980e+00 3.0110064758e+00 5.2152161980e+00 
115400 6.3010345946e+00 -7.0834808705e-05 3.0110064758e+00 -5.2152161980e+00 3.0110064758e+00 5.2152161980e+00 
115500 6.3010345953e+00 -7.0254743171e-05 3.0110076521e+00 -5.2152182353e+00 3.0110076521e+00 5.2152182353e+00 
115600 6.3010345959e+00 -7.0437800569e-05 3.0110076521e+00 -5.2152182353e+00 3.0110076521e+00 5.2152182353e+00 
115700 6.3010345966e+00 -7.0626839715e-05 3.0110076521e+00 -5.2152182353e+00 3.0110076521e+00 5.2152182353e+00 
115800 6.3010345972e+00 -7.0821522004e-05 3.0110076521e+00 -5.2152182353e+00 3.0110076521e+00 5.2152182353e+00 
115900 6.3010345978e+00 -7.0253956026e-05 3.0110088281e+00 -5.2152202723e+00 3.0110088281e+00 5.2152202723e+00 
116000 6.3010345984e+00 -7.0448723484e-05 3.0110088281e+00 -5.2152202723e+00 3.0110088281e+00 5.2152202723e+00 
116100 6.3010345990e+00 -7.0648868993e-05 3.0110088281e+00 -5.2152202723e+00 3.0110088281e+00 5.2152202723e+00 
116200 6.3010345996e+00 -7.0854092088e-05 3.0110088281e+00 -5.2152202723e+00 3.0110088281e+00 5.2152202723e+00 
116300 6.3010346002e+00 -7.0296176630e-05 3.0110100047e+00 -5.2152223102e+00 3.0110100047e+00 5.2152223102e+00 
116400 6.3010346008e+00 -7.0500435316e-05 3.0110100047e+00 -5.2152223102e+00 3.0110100047e+00 5.2152223102e+00 
116500 6.3010346014e+00 -7.0709581328e-05 3.0110100047e+00 -5.2152223102e+00 3.0110100047e+00 5.2152223102e+00 
116600 6.3010346020e+00 -7.0923329190e-05 3.0110100047e+00 -5.2152223102e+00 3.0110100047e+00 5.2152223102e+00 
116700 6.3010346025e+00 -7.0372721567e-05 3.0110111824e+00 -5.2152243501e+00 3.0110111824e+00 5.2152243501e+00 
116800 6.3010346031e+00 -7.0584575142e-05 3.0110111824e+00 -5.2152243501e+00 3.0110111824e+00 5.2152243501e+00 
116900 6.3010346037e+00 -7.0800867012e-05 3.0110111824e+00 -5.2152243501e+00 3.0110111824e+00 5.2152243501e+00 
117000 6.3010346042e+00 -7.0253943405e-05 3.0110123581e+00 -5.2152263865e+00 3.0110123581e+00 5.2152263865e+00 
117100 6.3010346047e+00 -7.0467967339e-05 3.0110123581e+00 -5.2152263865e+00 3.0110123581e+00 5.2152263865e+00 
117200 6.3010346053e+00 -7.0686206237e-05 3.0110123581e+00 -5.2152263865e+00 3.0110123581e+00 5.2152263865e+00 
117300 6.3010346058e+00 -7.0908364599e-05 3.0110123581e+00 -5.2152263865e+00 3.0110123581e+00 5.2152263865e+00 
117400 6.3010346063e+00 -7.0365634877e-05 3.0110135356e+00 -5.2152284259e+00 3.0110135356e+00 5.2152284259e+00 
117500 6.3010346068e+00 -7.0584509347e-05 3.0110135356e+00 -5.2152284259e+00 3.0110135356e+00 5.2152284259e+00 
117600 6.3010346074e+00 -7.0807113743e-05 3.0110135356e+00 -5.2152284259e+00 3.0110135356e+00 5.2152284259e+00 
117700 6.3010346078e+00 -7.0265717035e-05 3.0110147114e+00 -5.2152304625e+00 3.0110147114e+00 5.2152304625e+00 
117800 6.3010346084e+00 -7.0484616837e-05 3.0110147114e+00 -5.2152304625e+00 3.0110147114e+00 5.2152304625e+00 
117900 6.3010346089e+00 -7.0707005921e-05 3.0110147114e+00 -5.2152304625e+00 3.0110147114e+00 5.2152304625e+00 
118000 6.3010346094e+00 -7.0932585184e-05 3.0110147114e+00 -5.2152304625e+00 3.0110147114e+00 5.2152304625e+00 
118100 6.3010346098e+00 -7.0392279682e-05 3.0110158893e+00 -5.2152325027e+00 3.0110158893e+00 5.2152325027e+00 
118200 6.3010346103e+00 -7.0613107081e-05 3.0110158893e+00 -5.2152325027e+00 3.0110158893e+00 5.2152325027e+00 
118300 6.3010346108e+00 -7.0836931321e-05 3.0110158893e+00 -5.2152325027e+00 3.0110158893e+00 5.2152325027e+00 
118400 6.3010346112e+00 -7.0295696983e-05 3.0110170656e+00 -5.2152345401e+00 3.0110170656e+00 5.2152345401e+00 
118500 6.3010346117e+00 -7.0514350486e-05 3.0110170656e+00 -5.2152345401e+00 3.0110170656e+00 5.2152345401e+00 
118600 6.3010346122e+00 -7.0735766626e-05 3.0110170656e+00 -5.2152345401e+00 3.0110170656e+00 5.2152345401e+00 
118700 6.3010346126e+00 -7.0192978063e-05 3.0110182402e+00 -5.2152365746e+00 3.0110182402e+00 5.2152365746e+00 
118800 6.3010346131e+00 -7.0408748671e-05 3.0110182402e+00 -5.2152365746e+00 3.0110182402e+00 5.2152365746e+00 
118900 6.3010346135e+00 -7.0627029564e-05 3.0110182402e+00 -5.2152365746e+00 3.0110182402e+00 5.2152365746e+00 
119000 6.3010346140e+00 -7.0847523724e-05 3.0110182402e+00 -5.2152365746e+00 3.0110182402e+00 5.2152365746e+00 
119100 6.3010346144e+00 -7.0302080295e-05 3.0110194167e+00 -5.2152386123e+00 3.0110194167e+00 5.2152386123e+00 
119200 6.3010346148e+00 -7.0515897453e-05 3.0110194167e+00 -5.2152386123e+00 3.0110194167e+00 5.2152386123e+00 
119300 6.3010346152e+00 -7.0731753844e-05 3.0110194167e+00 -5.2152386123e+00 3.0110194167e+00 5.2152386123e+00 
119400 6.3010346156e+00 -7.0182742623e-05 3.0110205912e+00 -5.2152406466e+00 3.0110205912e+00 5.2152406466e+00 
119500 6.3010346161e+00 -7.0391562691e-05 3.0110205912e+00 -5.2152406466e+00 3.0110205912e+00 5.2152406466e+00 
119600 6.3010346165e+00 -7.0602223937e-05 3.0110205912e+00 -5.2152406466e+00 3.0110205912e+00 5.2152406466e+00 
119700 6.3010346169e+00 -7.0814446930e-05 3.0110205912e+00 -5.2152406466e+00 3.0110205912e+00 5.2152406466e+00 
119800 6.3010346173e+00 -7.0260455480e-05 3.0110217671e+00 -5.2152426834e+00 3.0110217671e+00 5.2152426834e+00 
119900 6.3010346177e+00 -7.0464755855e-05 3.0110217671e+00 -5.2152426834e+00 3.0110217671e+00 5.2152426834e+00 
120000 6.3010346181e+00 -7.0670495848e-05 3.0110217671e+00 -5.2152426834e+00 3.0110217671e+00 5.2152426834e+00 
120100 6.3010346185e+00 -7.0877416498e-05 3.0110217671e+00 -5.2152426834e+00 3.0110217671e+00 5.2152426834e+00 
120200 6.3010346188e+00 -7.0317077160e-05 3.0110229441e+00 -5.2152447220e+00 3.0110229441e+00 5.2152447220e+00 
120300 6.3010346192e+00 -7.0515358994e-05 3.0110229441e+00 -5.2152447220e+00 3.0110229441e+00 5.2152447220e+00 
120400 6.3010346196e+00 -7.0714752211e-05 3.0110229441e+00 -5.2152447220e+00 3.0110229441e+00 5.2152447220e+00 
120500 6.3010346199e+00 -7.0148564928e-05 3.0110241184e+00 -5.2152467558e+00 3.0110241184e+00 5.2152467558e+00 
120600 6.3010346203e+00 -7.0339165688e-05 3.0110241184e+00 -5.2152467558e+00 3.0110241184e+00 5.2152467558e+00 
120700 6.3010346207e+00 -7.0530774657e-05 3.0110241184e+00 -5.2152467558e+00 3.0110241184e+00 5.2152467558e+00 
120800 6.3010346210e+00 -7.0723142743e-05 3.0110241184e+00 -5.2152467558e+00 3.0110241184e+00 5.2152467558e+00 
120900 6.3010346213e+00 -7.0149511651e-05 3.0110252928e+00 -5.2152487900e+00 3.0110252928e+00 5.2152487900e+00 
121000 6.3010346217e+00 -7.0332454570e-05 3.0110252928e+00 -5.2152487900e+00 3.0110252928e+00 5.2152487900e+00 
121100 6.3010346221e+00 -7.0516121812e-05 3.0110252928e+00 -5.2152487900e+00 3.0110252928e+00 5.2152487900e+00 
121200 6.3010346224e+00 -7.0700283097e-05 3.0110252928e+00 -5.2152487900e+00 3.0110252928e+00 5.2152487900e+00 
121300 6.3010346228e+00 -7.0884737008e-05 3.0110252928e+00 -5.2152487900e+00 3.0110252928e+00 5.2152487900e+00 
121400 6.3010346230e+00 -7.0301014777e-05 3.0110264699e+00 -5.2152508287e+00 3.0110264699e+00 5.2152508287e+00 
121500 6.3010346234e+00 -7.0475208018e-05 3.0110264699e+00 -5.2152508287e+00 3.0110264699e+00 5.2152508287e+00 
121600 6.3010346237e+00 -7.0649772174e-05 3.0110264699e+00 -5.2152508287e+00 3.0110264699e+00 5.2152508287e+00 
121700 6.3010346241e+00 -7.0824506144e-05 3.0110264699e+00 -5.2152508287e+00 3.0110264699e+00 5.2152508287e+00 
121800 6.3010346243e+00 -7.0231595173e-05 3.0110276460e+00 -5.2152528658e+00 3.0110276460e+00 5.2152528658e+00 
121900 6.3010346247e+00 -7.0395837498e-05 3.0110276460e+00 -5.2152528658e+00 3.0110276460e+00 5.2152528658e+00 
122000 6.3010346250e+00 -7.0560334991e-05 3.0110276460e+00 -5.2152528658e+00 3.0110276460e+00 5.2152528658e+00 
122100 6.3010346253e+00 -7.0724890653e-05 3.0110276460e+00 -5.2152528658e+00 3.0110276460e+00 5.2152528658e+00 
122200 6.3010346255e+00 -7.0122773736e-05 3.0110288204e+00 -5.2152549000e+00 3.0110288204e+00 5.2152549000e+00 
122300 6.3010346259e+00 -7.0276643401e-05 3.0110288204e+00 -5.2152549000e+00 3.0110288204e+00 5.2152549000e+00 
122400 6.3010346262e+00 -7.0430670827e-05 3.0110288204e+00 -5.2152549000e+00 3.0110288204e+00 5.2152549000e+00 
122500 6.3010346265e+00 -7.0584664758e-05 3.0110288204e+00 -5.2152549000e+00 3.0110288204e+00 5.2152549000e+00 
122600 6.3010346268e+00 -7.0738460495e-05 3.0110288204e+00 -5.2152549000e+00 3.0110288204e+00 5.2152549000e+00 
122700 6.3010346270e+00 -7.0125208077e-05 3.0110299950e+00 -5.2152569345e+00 3.0110299950e+00 5.2152569345e+00 
122800 6.3010346273e+00 -7.0267885506e-05 3.0110299950e+00 -5.2152569345e+00 3.0110299950e+00 5.2152569345e+00 
122900 6.3010346276e+00 -7.0410540696e-05 3.0110299950e+00 -5.2152569345e+00 3.0110299950e+00 5.2152569345e+00 
123000 6.3010346279e+00 -7.0553002552e-05 3.0110299950e+00 -5.2152569345e+00 3.0110299950e+00 5.2152569345e+00 
123100 6.3010346281e+00 -7.0695124515e-05 3.0110299950e+00 -5.2152569345e+00 3.0110299950e+00 5.2152569345e+00 
123200 6.3010346284e+00 -7.0836780847e-05 3.0110299950e+00 -5.2152569345e+00 3.0110299950e+00 5.2152569345e+00 
123300 6.3010346286e+00 -7.0210089153e-05 3.0110311713e+00 -5.2152589719e+00 3.0110311713e+00 5.2152589719e+00 
123400 6.3010346289e+00 -7.0340176244e-05 3.0110311713e+00 -5.2152589719e+00 3.0110311713e+00 5.2152589719e+00 
123500 6.3010346292e+00 -7.0470064780e-05 3.0110311713e+00 -5.2152589719e+00 3.0110311713e+00 5.2152589719e+00 
123600 6.3010346294e+00 -7.0599606865e-05 3.0110311713e+00 -5.2152589719e+00 3.0110311713e+00 5.2152589719e+00 
123700 6.3010346297e+00 -7.0728676518e-05 3.0110311713e+00 -5.2152589719e+00 3.0110311713e+00 5.2152589719e+00 
123800 6.3010346299e+00 -7.0090563282e-05 3.0110323458e+00 -5.2152610062e+00 3.0110323458e+00 5.2152610062e+00 
123900 6.3010346302e+00 -7.0208068543e-05 3.0110323458e+00 -5.2152610062e+00 3.0110323458e+00 5.2152610062e+00 
124000 6.3010346304e+00 -7.0325371388e-05 3.0110323458e+00 -5.2152610062e+00 3.0110323458e+00 5.2152610062e+00 
124100 6.3010346307e+00 -7.0442326332e-05 3.0110323458e+00 -5.2152610062e+00 3.0110323458e+00 5.2152610062e+00 
124200 6.3010346309e+00 -7.0558810144e-05 3.0110323458e+00 -5.2152610062e+00 3.0110323458e+00 5.2152610062e+00 
124300 6.3010346311e+00 -7.0674718407e-05 3.0110323458e+00 -5.2152610062e+00 3.0110323458e+00 5.2152610062e+00 
124400 6.3010346314e+00 -7.0789962640e-05 3.0110323458e+00 -5.2152610062e+00 3.0110323458e+00 5.2152610062e+00 
124500 6.3010346316e+00 -7.0137199656e-05 3.0110335213e+00 -5.2152630422e+00 3.0110335213e+00 5.2152630422e+00 
124600 6.3010346318e+00 -7.0240580614e-05 3.0110335213e+00 -5.2152630422e+00 3.0110335213e+00 5.2152630422e+00 
124700 6.3010346320e+00 -7.0343653150e-05 3.0110335213e+00 -5.2152630422e+00 3.0110335213e+00 5.2152630422e+00 
124800 6.3010346323e+00 -7.0446293106e-05 3.0110335213e+00 -5.2152630422e+00 3.0110335213e+00 5.2152630422e+00 
124900 6.3010346325e+00 -7.0548395906e-05 3.0110335213e+00 -5.2152630422e+00 3.0110335213e+00 5.2152630422e+00 
125000 6.3010346327e+00 -7.0649873501e-05 3.0110335213e+00 -5.2152630422e+00 3.0110335213e+00 5.2152630422e+00 
125100 6.3010346329e+00 -7.0750651787e-05 3.0110335213e+00 -5.2152630422e+00 3.0110335213e+00 5.2152630422e+00 
125200 6.3010346331e+00 -7.0083825588e-05 3.0110346962e+00 -5.2152650771e+00 3.0110346962e+00 5.2152650771e+00 
125300 6.3010346333e+00 -7.0172712515e-05 3.0110346962e+00 -5.2152650771e+00 3.0110346962e+00 5.2152650771e+00 
125400 6.3010346335e+00 -7.0261289245e-05 3.0110346962e+00 -5.2152650771e+00 3.0110346962e+00 5.2152650771e+00 
125500 6.3010346337e+00 -7.0349440507e-05 3.0110346962e+00 -5.2152650771e+00 3.0110346962e+00 5.2152650771e+00 
125600 6.3010346339e+00 -7.0437069649e-05 3.0110346962e+00 -5.2152650771e+00 3.0110346962e+00 5.2152650771e+00 
125700 6.3010346341e+00 -7.0524095711e-05 3.0110346962e+00 -5.2152650771e+00 3.0110346962e+00 5.2152650771e+00 
125800 6.3010346343e+00 -7.0610450972e-05 3.0110346962e+00 -5.2152650771e+00 3.0110346962e+00 5.2152650771e+00 
125900 6.3010346345e+00 -7.0696078895e-05 3.0110346962e+00 -5.2152650771e+00 3.0110346962e+00 5.2152650771e+00 
126000 6.3010346347e+00 -7.0780932381e-05 3.0110346962e+00 -5.2152650771e+00 3.0110346962e+00 5.2152650771e+00 
126100 6.3010346349e+00 -7.0097800092e-05 3.0110358715e+00 -5.2152671129e+00 3.0110358715e+00 5.2152671129e+00 
126200 6.3010346351e+00 -7.0170673893e-05 3.0110358715e+00 -5.2152671129e+00 3.0110358715e+00 5.2152671129e+00 
126300 6.3010346352e+00 -7.0243222667e-05 3.0110358715e+00 -5.2152671129e+00 3.0110358715e+00 5.2152671129e+00 
126400 6.3010346354e+00 -7.0315345791e-05 3.0110358715e+00 -5.2152671129e+00 3.0110358715e+00 5.2152671129e+00 
126500 6.3010346356e+00 -7.0386959215e-05 3.0110358715e+00 -5.2152671129e+00 3.0110358715e+00 5.2152671129e+00 
126600 6.3010346358e+00 -7.0457992837e-05 3.0110358715e+00 -5.2152671129e+00 3.0110358715e+00 5.2152671129e+00 
126700 6.3010346360e+00 -7.0528388296e-05 3.0110358715e+00 -5.2152671129e+00 3.0110358715e+00 5.2152671129e+00 
126800 6.3010346361e+00 -7.0598097131e-05 3.0110358715e+00 -5.2152671129e+00 3.0110358715e+00 5.2152671129e+00 
126900 6.3010346363e+00 -7.0667079228e-05 3.0110358715e+00 -5.2152671129e+00 3.0110358715e+00 5.2152671129e+00 
127000 6.3010346365e+00 -7.0735301493e-05 3.0110358715e+00 -5.2152671129e+00 3.0110358715e+00 5.2152671129e+00 
127100 6.3010346366e+00 -7.0036058035e-05 3.0110370461e+00 -5.2152691474e+00 3.0110370461e+00 5.2152691474e+00 
127200 6.3010346368e+00 -7.0092370779e-05 3.0110370461e+00 -5.2152691474e+00 3.0110370461e+00 5.2152691474e+00 
127300 6.3010346369e+00 -7.0148403597e-05 3.0110370461e+00 -5.2152691474e+00 3.0110370461e+00 5.2152691474e+00 
127400 6.3010346371e+00 -7.0204063363e-05 3.0110370461e+00 -5.2152691474e+00 3.0110370461e+00 5.2152691474e+00 
127500 6.3010346373e+00 -7.0259272440e-05 3.0110370461e+00 -5.2152691474e+00 3.0110370461e+00 5.2152691474e+00 
127600 6.3010346374e+00 -7.0313966210e-05 3.0110370461e+00 -5.2152691474e+00 3.0110370461e+00 5.2152691474e+00 
127700 6.3010346376e+00 -7.0368091018e-05 3.0110370461e+00 -5.2152691474e+00 3.0110370461e+00 5.2152691474e+00 
127800 6.3010346377e+00 -7.0421602451e-05 3.0110370461e+00 -5.2152691474e+00 3.0110370461e+00 5.2152691474e+00 
127900 6.3010346379e+00 -7.0474463887e-05 3.0110370461e+00 -5.2152691474e+00 3.0110370461e+00 5.2152691474e+00 
128000 6.3010346380e+00 -7.0526645252e-05 3.0110370461e+00 -5.2152691474e+00 3.0110370461e+00 5.2152691474e+00 
128100 6.3010346382e+00 -7.0578121988e-05 3.0110370461e+00 -5.2152691474e+00 3.0110370461e+00 5.2152691474e+00 
128200 6.3010346383e+00 -7.0628874160e-05 3.0110370461e+00 -5.2152691474e+00 3.0110370461e+00 5.2152691474e+00 
128300 6.3010346385e+00 -7.0678885703e-05 3.0110370461e+00 -5.2152691474e+00 3.0110370461e+00 5.2152691474e+00 
128400 6.3010346386e+00 -7.0728143773e-05 3.0110370461e+00 -5.2152691474e+00 3.0110370461e+00 5.2152691474e+00 
128500 6.3010346387e+00 -7.0010035515e-05 3.0110382206e+00 -5.2152711817e+00 3.0110382206e+00 5.2152711817e+00 
128600 6.3010346389e+00 -7.0047446364e-05 3.0110382206e+00 -5.2152711817e+00 3.0110382206e+00 5.2152711817e+00 
128700 6.3010346390e+00 -7.0084626805e-05 3.0110382206e+00 -5.2152711817e+00 3.0110382206e+00 5.2152711817e+00 
128800 6.3010346391e+00 -7.0121493692e-05 3.0110382206e+00 -5.2152711817e+00 3.0110382206e+00 5.2152711817e+00 
128900 6.3010346393e+00 -7.0157977703e-05 3.0110382206e+00 -5.2152711817e+00 3.0110382206e+00 5.2152711817e+00 
129000 6.3010346394e+00 -7.0194021124e-05 3.0110382206e+00 -5.2152711817e+00 3.0110382206e+00 5.2152711817e+00 
129100 6.3010346395e+00 -7.0229576020e-05 3.0110382206e+00 -5.2152711817e+00 3.0110382206e+00 5.2152711817e+00 
129200 6.3010346397e+00 -7.0264602704e-05 3.0110382206e+00 -5.2152711817e+00 3.0110382206e+00 5.2152711817e+00 
129300 6.3010346398e+00 -7.0299068443e-05 3.0110382206e+00 -5.2152711817e+00 3.0110382206e+00 5.2152711817e+00 
129400 6.3010346399e+00 -7.0332946380e-05 3.0110382206e+00 -5.2152711817e+00 3.0110382206e+00 5.2152711817e+00 
129500 6.3010346400e+00 -7.0366214596e-05 3.0110382206e+00 -5.2152711817e+00 3.0110382206e+00 5.2152711817e+00 
129600 6.3010346402e+00 -7.0398855338e-05 3.0110382206e+00 -5.2152711817e+00 3.0110382206e+00 5.2152711817e+00 
129700 6.3010346403e+00 -7.0430854341e-05 3.0110382206e+00 -5.2152711817e+00 3.0110382206e+00 5.2152711817e+00 
129800 6.3010346404e+00 -7.0462200266e-05 3.0110382206e+00 -5.2152711817e+00 3.0110382206e+00 5.2152711817e+00 
129900 6.3010346405e+00 -7.0492884209e-05 3.0110382206e+00 -5.2152711817e+00 3.0110382206e+00 5.2152711817e+00 
130000 6.3010346406e+00 -7.0522899288e-05 3.0110382206e+00 -5.2152711817e+00 3.0110382206e+00 5.2152711817e+00 
130100 6.3010346407e+00 -7.0552240296e-05 3.0110382206e+00 -5.2152711817e+00 3.0110382206e+00 5.2152711817e+00 
130200 6.3010346409e+00 -7.0580903396e-05 3.0110382206e+00 -5.2152711817e+00 3.0110382206e+00 5.2152711817e+00 
130300 6.3010346410e+00 -7.0608885870e-05 3.0110382206e+00 -5.2152711817e+00 3.0110382206e+00 5.2152711817e+00 
130400 6.3010346411e+00 -7.0636185902e-05 3.0110382206e+00 -5.2152711817e+00 3.0110382206e+00 5.2152711817e+00 
130500 6.3010346412e+00 -7.0662802403e-05 3.0110382206e+00 -5.2152711817e+00 3.0110382206e+00 5.2152711817e+00 
130600 6.3010346413e+00 -7.0688734853e-05 3.0110382206e+00 -5.2152711817e+00 3.0110382206e+00 5.2152711817e+00 
130700 6.3010346414e+00 -7.0713983176e-05 3.0110382206e+00 -5.2152711817e+00 3.0110382206e+00 5.2152711817e+00 
130800 6.3010346415e+00 -6.9972096094e-05 3.0110393949e+00 -5.2152732155e+00 3.0110393949e+00 5.2152732155e+00 
130900 6.3010346416e+00 -6.9985667600e-05 3.0110393949e+00 -5.2152732155e+00 3.0110393949e+00 5.2152732155e+00 
131000 6.3010346417e+00 -6.9999103658e-05 3.0110393949e+00 -5.2152732155e+00 3.0110393949e+00 5.2152732155e+00 
131100 6.3010346418e+00 -7.0012326641e-05 3.0110393949e+00 -5.2152732155e+00 3.0110393949e+00 5.2152732155e+00 
131200 6.3010346419e+00 -7.0025271630e-05 3.0110393949e+00 -5.2152732155e+00 3.0110393949e+00 5.2152732155e+00 
131300 6.3010346420e+00 -7.0037884400e-05 3.0110393949e+00 -5.2152732155e+00 3.0110393949e+00 5.2152732155e+00 
131400 6.3010346420e+00 -7.0050119775e-05 3.0110393949e+00 -5.2152732155e+00 3.0110393949e+00 5.2152732155e+00 
131500 6.3010346421e+00 -7.0061940235e-05 3.0110393949e+00 -5.2152732155e+00 3.0110393949e+00 5.2152732155e+00 
131600 6.3010346422e+00 -7.0073314755e-05 3.0110393949e+00 -5.2152732155e+00 3.0110393949e+00 5.2152732155e+00 
131700 6.3010346423e+00 -7.0084217826e-05 3.0110393949e+00 -5.2152732155e+00 3.0110393949e+00 5.2152732155e+00 
131800 6.3010346424e+00 -7.0094628623e-05 3.0110393949e+00 -5.2152732155e+00 3.0110393949e+00 5.2152732155e+00 
131900 6.3010346425e+00 -7.0104530287e-05 3.0110393949e+00 -5.2152732155e+00 3.0110393949e+00 5.2152732155e+00 
132000 6.3010346426e+00 -7.0113909326e-05 3.0110393949e+00 -5.2152732155e+00 3.0110393949e+00 5.2152732155e+00 
132100 6.3010346427e+00 -7.0122755102e-05 3.0110393949e+00 -5.2152732155e+00 3.0110393949e+00 5.2152732155e+00 
132200 6.3010346428e+00 -7.0131059375e-05 3.0110393949e+00 -5.2152732155e+00 3.0110393949e+00 5.2152732155e+00 
132300 6.3010346429e+00 -7.0138815934e-05 3.0110393949e+00 -5.2152732155e+00 3.0110393949e+00 5.2152732155e+00 
132400 6.3010346429e+00 -7.0146020273e-05 3.0110393949e+00 -5.2152732155e+00 3.0110393949e+00 5.2152732155e+00 
132500 6.3010346430e+00 -7.0152669310e-05 3.0110393949e+00 -5.2152732155e+00 3.0110393949e+00 5.2152732155e+00 
132600 6.3010346431e+00 -7.0158761153e-05 3.0110393949e+00 -5.2152732155e+00 3.0110393949e+00 5.2152732155e+00 
132700 6.3010346432e+00 -7.0164294899e-05 3.0110393949e+00 -5.2152732155e+00 3.0110393949e+00 5.2152732155e+00 
132800 6.3010346433e+00 -7.0169270455e-05 3.0110393949e+00 -5.2152732155e+00 3.0110393949e+00 5.2152732155e+00 
132900 6.3010346433e+00 -7.0173688399e-05 3.0110393949e+00 -5.2152732155e+00 3.0110393949e+00 5.2152732155e+00 
133000 6.3010346434e+00 -7.0177549855e-05 3.0110393949e+00 -5.2152732155e+00 3.0110393949e+00 5.2152732155e+00 
133100 6.3010346435e+00 -7.0180856385e-05 3.0110393949e+00 -5.2152732155e+00 3.0110393949e+00 5.2152732155e+00 
133200 6.3010346436e+00 -7.0183609906e-05 3.0110393949e+00 -5.2152732155e+00 3.0110393949e+00 5.2152732155e+00 
133300 6.3010346436e+00 -7.0185812610e-05 3.0110393949e+00 -5.2152732155e+00 3.0110393949e+00 5.2152732155e+00 
133400 6.3010346437e+00 -7.0187466902e-05 3.0110393949e+00 -5.2152732155e+00 3.0110393949e+00 5.2152732155e+00 
133500 6.3010346438e+00 -7.0188575359e-05 3.0110393949e+00 -5.2152732155e+00 3.0110393949e+00 5.2152732155e+00 
133600 6.3010346439e+00 -7.0189140672e-05 3.0110393949e+00 -5.2152732155e+00 3.0110393949e+00 5.2152732155e+00 
133700 6.3010346439e+00 -7.0189165626e-05 3.0110393949e+00 -5.2152732155e+00 3.0110393949e+00 5.2152732155e+00 
133800 6.3010346440e+00 -7.0188653064e-05 3.0110393949e+00 -5.2152732155e+00 3.0110393949e+00 5.2152732155e+00 
133900 6.3010346441e+00 -7.0187605865e-05 3.0110393949e+00 -5.2152732155e+00 3.0110393949e+00 5.2152732155e+00 
134000 6.3010346441e+00 -7.0186026930e-05 3.0110393949e+00 -5.2152732155e+00 3.0110393949e+00 5.2152732155e+00 
134100 6.3010346442e+00 -7.0183919170e-05 3.0110393949e+00 -5.2152732155e+00 3.0110393949e+00 5.2152732155e+00 
134200 6.3010346443e+00 -7.0181285487e-05 3.0110393949e+00 -5.2152732155e+00 3.0110393949e+00 5.2152732155e+00 
134300 6.3010346443e+00 -7.0178128776e-05 3.0110393949e+00 -5.2152732155e+00 3.0110393949e+00 5.2152732155e+00 
134400 6.3010346444e+00 -7.0174451917e-05 3.0110393949e+00 -5.2152732155e+00 3.0110393949e+00 5.2152732155e+00 
134500 6.3010346445e+00 -7.0170257770e-05 3.0110393949e+00 -5.2152732155e+00 3.0110393949e+00 5.2152732155e+00 
134600 6.3010346445e+00 -7.0165549184e-05 3.0110393949e+00 -5.2152732155e+00 3.0110393949e+00 5.2152732155e+00 
134700 6.3010346446e+00 -7.0160328982e-05 3.0110393949e+00 -5.2152732155e+00 3.0110393949e+00 5.2152732155e+00 
134800 6.3010346446e+00 -7.0154599975e-05 3.0110393949e+00 -5.2152732155e+00 3.0110393949e+00 5.2152732155e+00 
134900 6.3010346447e+00 -7.0148364963e-05 3.0110393949e+00 -5.2152732155e+00 3.0110393949e+00 5.2152732155e+00 
135000 6.3010346448e+00 -7.0141626731e-05 3.0110393949e+00 -5.2152732155e+00 3.0110393949e+00 5.2152732155e+00 
135100 6.3010346448e+00 -7.0134388058e-05 3.0110393949e+00 -5.2152732155e+00 3.0110393949e+00 5.2152732155e+00 
135200 6.3010346449e+00 -7.0126651721e-05 3.0110393949e+00 -5.2152732155e+00 3.0110393949e+00 5.2152732155e+00 
135300 6.3010346449e+00 -7.0118420499e-05 3.0110393949e+00 -5.2152732155e+00 3.0110393949e+00 5.2152732155e+00 
135400 6.3010346450e+00 -7.0109697175e-05 3.0110393949e+00 -5.2152732155e+00 3.0110393949e+00 5.2152732155e+00 
135500 6.3010346450e+00 -7.0100484547e-05 3.0110393949e+00 -5.2152732155e+00 3.0110393949e+00 5.2152732155e+00 
135600 6.3010346451e+00 -7.0090785423e-05 3.0110393949e+00 -5.2152732155e+00 3.0110393949e+00 5.2152732155e+00 
135700 6.3010346451e+00 -7.0080602630e-05 3.0110393949e+00 -5.2152732155e+00 3.0110393949e+00 5.2152732155e+00 
135800 6.3010346452e+00 -7.0069939025e-05 3.0110393949e+00 -5.2152732155e+00 3.0110393949e+00 5.2152732155e+00 
135900 6.3010346452e+00 -7.0058797486e-05 3.0110393949e+00 -5.2152732155e+00 3.0110393949e+00 5.2152732155e+00 
136000 6.3010346453e+00 -7.0047180929e-05 3.0110393949e+00 -5.2152732155e+00 3.0110393949e+00 5.2152732155e+00 
136100 6.3010346454e+00 -7.0035092300e-05 3.0110393949e+00 -5.2152732155e+00 3.0110393949e+00 5.2152732155e+00 
136200 6.3010346454e+00 -7.0022534591e-05 3.0110393949e+00 -5.2152732155e+00 3.0110393949e+00 5.2152732155e+00 
136300 6.3010346454e+00 -7.0009510832e-05 3.0110393949e+00 -5.2152732155e+00 3.0110393949e+00 5.2152732155e+00 
136400 6.3010346455e+00 -6.9996024099e-05 3.0110393949e+00 -5.2152732155e+00 3.0110393949e+00 5.2152732155e+00 
136500 6.3010346455e+00 -6.9992442100e-05 3.0110393949e+00 -5.2152732155e+00 3.0110393949e+00 5.2152732155e+00 
136500 6.3010346455e+00 -6.9992442100e-05 3.0110393949e+00 -5.2152732155e+00 3.0110393949e+00 5.2152732155e+00 
