# step Hamiltonian StressXX CellTensor1 CellTensor2 CellTensor3 CellTensor4 
0 6.8238074481e+00 1.4560188801e-01 2.8378601290e+00 -4.9153179282e+00 2.8378601290e+00 4.9153179282e+00 
100 6.8484901159e+00 1.7573184758e-01 2.8378601290e+00 -4.9153179282e+00 2.8378601290e+00 4.9153179282e+00 
200 6.8713307701e+00 2.0388436874e-01 2.8347644892e+00 -4.9099561227e+00 2.8347644892e+00 4.9099561227e+00 
300 6.8927232891e+00 2.3031220329e-01 2.8311691075e+00 -4.9037287390e+00 2.8311691075e+00 4.9037287390e+00 
400 6.9127575845e+00 2.5522665943e-01 2.8271026429e+00 -4.8966854157e+00 2.8271026429e+00 4.8966854157e+00 
500 6.9314898389e+00 2.7879769749e-01 2.8225899197e+00 -4.8888691499e+00 2.8225899197e+00 4.8888691499e+00 
600 6.9489503083e+00 3.0115819181e-01 2.8176526766e+00 -4.8803175940e+00 2.8176526766e+00 4.8803175940e+00 
700 6.9651499458e+00 3.2240772256e-01 2.8123102365e+00 -4.8710642163e+00 2.8123102365e+00 4.8710642163e+00 
800 6.9800861482e+00 3.4261621671e-01 2.8065801081e+00 -4.8611393428e+00 2.8065801081e+00 4.8611393428e+00 
900 6.9937478799e+00 3.6182774285e-01 2.8004785228e+00 -4.8505710870e+00 2.8004785228e+00 4.8505710870e+00 
1000 7.0061203647e+00 3.8006474150e-01 2.7940209066e+00 -4.8393861676e+00 2.7940209066e+00 4.8393861676e+00 
1100 7.0171894551e+00 3.9733290678e-01 2.7872222787e+00 -4.8276105987e+00 2.7872222787e+00 4.8276105987e+00 
1200 7.0269456875e+00 4.1362680104e-01 2.7800975667e+00 -4.8152702355e+00 2.7800975667e+00 4.8152702355e+00 
1300 7.0353879089e+00 4.2893607436e-01 2.7726618233e+00 -4.8023911502e+00 2.7726618233e+00 4.8023911502e+00 
1400 7.0425262624e+00 4.4325190107e-01 2.7649303345e+00 -4.7889998187e+00 2.7649303345e+00 4.7889998187e+00 
1500 7.0483842481e+00 4.5657299991e-01 2.7569186116e+00 -4.7751231076e+00 2.7569186116e+00 4.7751231076e+00 
1600 7.0529995916e+00 4.6891046428e-01 2.7486422745e+00 -4.7607880713e+00 2.7486422745e+00 4.7607880713e+00 
1700 7.0564237570e+00 4.8029067947e-01 2.7401168439e+00 -4.7460215922e+00 2.7401168439e+00 4.7460215922e+00 
1800 7.0587201253e+00 4.9075587694e-01 2.7313574760e+00 -4.7308499220e+00 2.7313574760e+00 4.7308499220e+00 
1900 7.0599610852e+00 5.0036231445e-01 2.7223786812e+00 -4.7152981933e+00 2.7223786812e+00 4.7152981933e+00 
2000 7.0602244624e+00 5.0917654099e-01 2.7131940689e+00 -4.6993899782e+00 2.7131940689e+00 4.6993899782e+00 
2100 7.0595898086e+00 5.1727054877e-01 2.7038161546e+00 -4.6831469541e+00 2.7038161546e+00 4.6831469541e+00 
2200 7.0581350371e+00 5.2471672703e-01 2.6942562504e+00 -4.6665887143e+00 2.6942562504e+00 4.6665887143e+00 
2300 7.0559337628e+00 5.3158340499e-01 2.6845244459e+00 -4.6497327344e+00 2.6845244459e+00 4.6497327344e+00 
2400 7.0530535194e+00 5.3793148685e-01 2.6746296684e+00 -4.6325944772e+00 2.6746296684e+00 4.6325944772e+00 
2500 7.0495548556e+00 5.4381235796e-01 2.6645798075e+00 -4.6151876074e+00 2.6645798075e+00 4.6151876074e+00 
2600 7.0454911849e+00 5.4926697602e-01 2.6543818784e+00 -4.5975242760e+00 2.6543818784e+00 4.5975242760e+00 
2700 7.0409091997e+00 5.5432590459e-01 2.6440422065e+00 -4.5796154390e+00 2.6440422065e+00 4.5796154390e+00 
2800 7.0358496533e+00 5.5900999391e-01 2.6335666141e+00 -4.5614711808e+00 2.6335666141e+00 4.5614711808e+00 
2900 7.0303483346e+00 5.6333143880e-01 2.6229605978e+00 -4.5431010216e+00 2.6229605978e+00 4.5431010216e+00 
3000 7.0244371065e+00 5.6729500463e-01 2.6122294896e+00 -4.5245141971e+00 2.6122294896e+00 4.5245141971e+00 
3100 7.0181449175e+00 5.7089928279e-01 2.6013785987e+00 -4.5057199027e+00 2.6013785987e+00 4.5057199027e+00 
3200 7.0114987333e+00 5.7413789719e-01 2.5904133316e+00 -4.4867275029e+00 2.5904133316e+00 4.4867275029e+00 
3300 7.0045243602e+00 5.7700062650e-01 2.5793392924e+00 -4.4675467044e+00 2.5793392924e+00 4.4675467044e+00 
3400 6.9972471487e+00 5.7947443365e-01 2.5681623644e+00 -4.4481876972e+00 2.5681623644e+00 4.4481876972e+00 
3500 6.9896925743e+00 5.8154440687e-01 2.5568887724e+00 -4.4286612631e+00 2.5568887724e+00 4.4286612631e+00 
3600 6.9818866982e+00 5.8319462007e-01 2.5455251299e+00 -4.4089788569e+00 2.5455251299e+00 4.4089788569e+00 
3700 6.9738565107e+00 5.8440891872e-01 2.5340784696e+00 -4.3891526596e+00 2.5340784696e+00 4.3891526596e+00 
3800 6.9656301629e+00 5.8517163283e-01 2.5225562597e+00 -4.3691956067e+00 2.5225562597e+00 4.3691956067e+00 
3900 6.9572370895e+00 5.8546821437e-01 2.5109664067e+00 -4.3491213925e+00 2.5109664067e+00 4.3491213925e+00 
4000 6.9487080306e+00 5.8528579287e-01 2.4993172454e+00 -4.3289444532e+00 2.4993172454e+00 4.3289444532e+00 
4100 6.9400749573e+00 5.8461364125e-01 2.4876175172e+00 -4.3086799296e+00 2.4876175172e+00 4.3086799296e+00 
4200 6.9313709112e+00 5.8344354472e-01 2.4758763390e+00 -4.2883436124e+00 2.4758763390e+00 4.2883436124e+00 
4300 6.9226297688e+00 5.8177006732e-01 2.4641031628e+00 -4.2679518730e+00 2.4641031628e+00 4.2679518730e+00 
4400 6.9138859439e+00 5.7959071502e-01 2.4523077290e+00 -4.2475215824e+00 2.4523077290e+00 4.2475215824e+00 
4500 6.9051740427e+00 5.7690599822e-01 2.4405000149e+00 -4.2270700217e+00 2.4405000149e+00 4.2270700217e+00 
4600 6.8965284881e+00 5.7371940129e-01 2.4286901795e+00 -4.2066147867e+00 2.4286901795e+00 4.2066147867e+00 
4700 6.8879831301e+00 5.7003727076e-01 2.4168885073e+00 -4.1861736908e+00 2.4168885073e+00 4.1861736908e+00 
4800 6.8795708564e+00 5.6586863663e-01 2.4051053524e+00 -4.1657646679e+00 2.4051053524e+00 4.1657646679e+00 
4900 6.8713232206e+00 5.6122498290e-01 2.3933510841e+00 -4.1454056780e+00 2.3933510841e+00 4.1454056780e+00 
5000 6.8632700961e+00 5.5611998383e-01 2.3816360352e+00 -4.1251146180e+00 2.3816360352e+00 4.1251146180e+00 
5100 6.8554393701e+00 5.5056922124e-01 2.3699704537e+00 -4.1049092383e+00 2.3699704537e+00 4.1049092383e+00 
5200 6.8478566802e+00 5.4458989660e-01 2.3583644594e+00 -4.0848070665e+00 2.3583644594e+00 4.0848070665e+00 
5300 6.8405452014e+00 5.3820054897e-01 2.3468280036e+00 -4.0648253388e+00 2.3468280036e+00 4.0648253388e+00 
5400 6.8335254829e+00 5.3142078729e-01 2.3353708340e+00 -4.0449809391e+00 2.3353708340e+00 4.0449809391e+00 
5500 6.8268153357e+00 5.2427104281e-01 2.3240024645e+00 -4.0252903455e+00 2.3240024645e+00 4.0252903455e+00 
5600 6.8204297680e+00 5.1677234509e-01 2.3127321476e+00 -4.0057695839e+00 2.3127321476e+00 4.0057695839e+00 
5700 6.8143809656e+00 5.0894612301e-01 2.3015688519e+00 -3.9864341886e+00 2.3015688519e+00 3.9864341886e+00 
5800 6.8086783130e+00 5.0081403090e-01 2.2905212426e+00 -3.9672991680e+00 2.2905212426e+00 3.9672991680e+00 
5900 6.8033284504e+00 4.9239779843e-01 2.2795976649e+00 -3.9483789764e+00 2.2795976649e+00 3.9483789764e+00 
6000 6.7983353615e+00 4.8371910261e-01 2.2688061303e+00 -3.9296874902e+00 2.2688061303e+00 3.9296874902e+00 
6100 6.7937004877e+00 4.7479945973e-01 2.2581543054e+00 -3.9112379882e+00 2.2581543054e+00 3.9112379882e+00 
6200 6.7894228637e+00 4.6566013486e-01 2.2476495023e+00 -3.8930431355e+00 2.2476495023e+00 3.8930431355e+00 
6300 6.7854992704e+00 4.5632206657e-01 2.2372986714e+00 -3.8751149706e+00 2.2372986714e+00 3.8751149706e+00 
6400 6.7819244004e+00 4.4680580498e-01 2.2271083956e+00 -3.8574648952e+00 2.2271083956e+00 3.8574648952e+00 
6500 6.7786910331e+00 4.3713146091e-01 2.2170848853e+00 -3.8401036660e+00 2.2170848853e+00 3.8401036660e+00 
6600 6.7757902166e+00 4.2731866459e-01 2.2072339755e+00 -3.8230413897e+00 2.2072339755e+00 3.8230413897e+00 
6700 6.7732114513e+00 4.1738653239e-01 2.1975611235e+00 -3.8062875186e+00 2.1975611235e+00 3.8062875186e+00 
6800 6.7709428760e+00 4.0735364026e-01 2.1880714077e+00 -3.7898508487e+00 2.1880714077e+00 3.7898508487e+00 
6900 6.7689714507e+00 3.9723800285e-01 2.1787695271e+00 -3.7737395189e+00 2.1787695271e+00 3.7737395189e+00 
7000 6.7672831376e+00 3.8705705726e-01 2.1696598020e+00 -3.7579610123e+00 2.1696598020e+00 3.7579610123e+00 
7100 6.7658630757e+00 3.7682765085e-01 2.1607461752e+00 -3.7425221577e+00 2.1607461752e+00 3.7425221577e+00 
7200 6.7646957499e+00 3.6656603221e-01 2.1520322139e+00 -3.7274291340e+00 2.1520322139e+00 3.7274291340e+00 
7300 6.7637651518e+00 3.5628784494e-01 2.1435211125e+00 -3.7126874739e+00 2.1435211125e+00 3.7126874739e+00 
7400 6.7630549333e+00 3.4600812378e-01 2.1352156959e+00 -3.6983020704e+00 2.1352156959e+00 3.6983020704e+00 
7500 6.7625485495e+00 3.3574129259e-01 2.1271184235e+00 -3.6842771832e+00 2.1271184235e+00 3.6842771832e+00 
7600 6.7622293933e+00 3.2550116407e-01 2.1192313941e+00 -3.6706164476e+00 2.1192313941e+00 3.6706164476e+00 
7700 6.7620809192e+00 3.1530094086e-01 2.1115563508e+00 -3.6573228825e+00 2.1115563508e+00 3.6573228825e+00 
7800 6.7620867574e+00 3.0515321790e-01 2.1040946869e+00 -3.6443989016e+00 2.1040946869e+00 3.6443989016e+00 
7900 6.7622308170e+00 2.9506998587e-01 2.0968474528e+00 -3.6318463240e+00 2.0968474528e+00 3.6318463240e+00 
8000 6.7624973796e+00 2.8506263568e-01 2.0898153625e+00 -3.6196663864e+00 2.0898153625e+00 3.6196663864e+00 
8100 6.7628711822e+00 2.7514196382e-01 2.0829988016e+00 -3.6078597565e+00 2.0829988016e+00 3.6078597565e+00 
8200 6.7633374905e+00 2.6531817859e-01 2.0763978352e+00 -3.5964265472e+00 2.0763978352e+00 3.5964265472e+00 
8300 6.7638821620e+00 2.5560090724e-01 2.0700122164e+00 -3.5853663311e+00 2.0700122164e+00 3.5853663311e+00 
8400 6.7644917005e+00 2.4599920378e-01 2.0638413961e+00 -3.5746781568e+00 2.0638413961e+00 3.5746781568e+00 
8500 6.7651533007e+00 2.3652155769e-01 2.0578845317e+00 -3.5643605650e+00 2.0578845317e+00 3.5643605650e+00 
8600 6.7658548850e+00 2.2717590334e-01 2.0521404979e+00 -3.5544116066e+00 2.0521404979e+00 3.5544116066e+00 
8700 6.7665851321e+00 2.1796963018e-01 2.0466078966e+00 -3.5448288601e+00 2.0466078966e+00 3.5448288601e+00 
8800 6.7673334971e+00 2.0890959362e-01 2.0412850680e+00 -3.5356094505e+00 2.0412850680e+00 3.5356094505e+00 
8900 6.7680902259e+00 2.0000212672e-01 2.0361701016e+00 -3.5267500688e+00 2.0361701016e+00 3.5267500688e+00 
9000 6.7688463616e+00 1.9125305249e-01 2.0312608474e+00 -3.5182469912e+00 2.0312608474e+00 3.5182469912e+00 
9100 6.7695937457e+00 1.8266769680e-01 2.0265549278e+00 -3.5100960993e+00 2.0265549278e+00 3.5100960993e+00 
9200 6.7703250129e+00 1.7425090202e-01 2.0220497492e+00 -3.5022929010e+00 2.0220497492e+00 3.5022929010e+00 
9300 6.7710335815e+00 1.6600704113e-01 2.0177425138e+00 -3.4948325504e+00 2.0177425138e+00 3.4948325504e+00 
9400 6.7717136386e+00 1.5794003233e-01 2.0136302319e+00 -3.4877098693e+00 2.0136302319e+00 3.4877098693e+00 
9500 6.7723601212e+00 1.5005335419e-01 2.0097097340e+00 -3.4809193677e+00 2.0097097340e+00 3.4809193677e+00 
9600 6.7729686940e+00 1.4235006104e-01 2.0059776823e+00 -3.4744552646e+00 2.0059776823e+00 3.4744552646e+00 
9700 6.7735357232e+00 1.3483279880e-01 2.0024305834e+00 -3.4683115092e+00 2.0024305834e+00 3.4683115092e+00 
9800 6.7740582482e+00 1.2750382099e-01 1.9990648000e+00 -3.4624818013e+00 1.9990648000e+00 3.4624818013e+00 
9900 6.7745339508e+00 1.2036500487e-01 1.9958765626e+00 -3.4569596120e+00 1.9958765626e+00 3.4569596120e+00 
10000 6.7749611213e+00 1.1341786780e-01 1.9928619811e+00 -3.4517382037e+00 1.9928619811e+00 3.4517382037e+00 
10100 6.7753386248e+00 1.0666358345e-01 1.9900170566e+00 -3.4468106499e+00 1.9900170566e+00 3.4468106499e+00 
10200 6.7756658647e+00 1.0010299808e-01 1.9873376923e+00 -3.4421698549e+00 1.9873376923e+00 3.4421698549e+00 
10300 6.7759427456e+00 9.3736646662e-02 1.9848197049e+00 -3.4378085727e+00 1.9848197049e+00 3.4378085727e+00 
10400 6.7761696361e+00 8.7564768783e-02 1.9824588346e+00 -3.4337194254e+00 1.9824588346e+00 3.4337194254e+00 
10500 6.7763473308e+00 8.1587324350e-02 1.9802507561e+00 -3.4298949213e+00 1.9802507561e+00 3.4298949213e+00 
10600 6.7764770117e+00 7.5804008945e-02 1.9781910886e+00 -3.4263274725e+00 1.9781910886e+00 3.4263274725e+00 
10700 6.7765602110e+00 7.0214268842e-02 1.9762754051e+00 -3.4230094113e+00 1.9762754051e+00 3.4230094113e+00 
10800 6.7765987730e+00 6.4817315610e-02 1.9744992422e+00 -3.4199330070e+00 1.9744992422e+00 3.4199330070e+00 
10900 6.7765948177e+00 5.9612140275e-02 1.9728581089e+00 -3.4170904808e+00 1.9728581089e+00 3.4170904808e+00 
11000 6.7765507039e+00 5.4597526998e-02 1.9713474953e+00 -3.4144740213e+00 1.9713474953e+00 3.4144740213e+00 
11100 6.7764689946e+00 4.9772066243e-02 1.9699628807e+00 -3.4120757984e+00 1.9699628807e+00 3.4120757984e+00 
11200 6.7763524224e+00 4.5134167415e-02 1.9686997416e+00 -3.4098879773e+00 1.9686997416e+00 3.4098879773e+00 
11300 6.7762038568e+00 4.0682070942e-02 1.9675535591e+00 -3.4079027309e+00 1.9675535591e+00 3.4079027309e+00 
11400 6.7760262723e+00 3.6413859800e-02 1.9665198259e+00 -3.4061122526e+00 1.9665198259e+00 3.4061122526e+00 
11500 6.7758227186e+00 3.2327470460e-02 1.9655940534e+00 -3.4045087675e+00 1.9655940534e+00 3.4045087675e+00 
11600 6.7755962913e+00 2.8420703266e-02 1.9647717774e+00 -3.4030845438e+00 1.9647717774e+00 3.4030845438e+00 
11700 6.7753501053e+00 2.4691232238e-02 1.9640485647e+00 -3.4018319026e+00 1.9640485647e+00 3.4018319026e+00 
11800 6.7750872692e+00 2.1136614313e-02 1.9634200183e+00 -3.4007432282e+00 1.9634200183e+00 3.4007432282e+00 
11900 6.7748108613e+00 1.7754298020e-02 1.9628817827e+00 -3.3998109769e+00 1.9628817827e+00 3.3998109769e+00 
12000 6.7745239075e+00 1.4541631619e-02 1.9624295493e+00 -3.3990276856e+00 1.9624295493e+00 3.3990276856e+00 
12100 6.7742293610e+00 1.1495870700e-02 1.9620590602e+00 -3.3983859797e+00 1.9620590602e+00 3.3983859797e+00 
12200 6.7739300837e+00 8.6141852750e-03 1.9617661132e+00 -3.3978785807e+00 1.9617661132e+00 3.3978785807e+00 
12300 6.7736288292e+00 5.8936663785e-03 1.9615465656e+00 -3.3974983130e+00 1.9615465656e+00 3.3974983130e+00 
12400 6.7733282274e+00 3.3313321900e-03 1.9613963374e+00 -3.3972381101e+00 1.9613963374e+00 3.3972381101e+00 
12500 6.7730307712e+00 9.2413371316e-04 1.9613114155e+00 -3.3970910212e+00 1.9613114155e+00 3.3970910212e+00 
12600 6.7727388050e+00 -1.3310399703e-03 1.9612878565e+00 -3.3970502157e+00 1.9612878565e+00 3.3970502157e+00 
12700 6.7724545137e+00 -3.4373568449e-03 1.9613217894e+00 -3.3971089892e+00 1.9613217894e+00 3.3971089892e+00 
12800 6.7721799151e+00 -5.3980374784e-03 1.9614094186e+00 -3.3972607675e+00 1.9614094186e+00 3.3972607675e+00 
12900 6.7719168524e+00 -7.2163508827e-03 1.9615470263e+00 -3.3974991110e+00 1.9615470263e+00 3.3974991110e+00 
13000 6.7716669888e+00 -8.8956106932e-03 1.9617309746e+00 -3.3978177188e+00 1.9617309746e+00 3.3978177188e+00 
13100 6.7714318039e+00 -1.0439171638e-02 1.9619577076e+00 -3.3982104318e+00 1.9619577076e+00 3.3982104318e+00 
13200 6.7712125908e+00 -1.1850426271e-02 1.9622237533e+00 -3.3986712365e+00 1.9622237533e+00 3.3986712365e+00 
13300 6.7710104553e+00 -1.3132801936e-02 1.9625257252e+00 -3.3991942672e+00 1.9625257252e+00 3.3991942672e+00 
13400 6.7708263158e+00 -1.4289757940e-02 1.9628603240e+00 -3.3997738093e+00 1.9628603240e+00 3.3997738093e+00 
13500 6.7706609051e+00 -1.5324782910e-02 1.9632243387e+00 -3.4004043012e+00 1.9632243387e+00 3.4004043012e+00 
13600 6.7705147728e+00 -1.6241392296e-02 1.9636146479e+00 -3.4010803366e+00 1.9636146479e+00 3.4010803366e+00 
13700 6.7703882891e+00 -1.7043126005e-02 1.9640282209e+00 -3.4017966662e+00 1.9640282209e+00 3.4017966662e+00 
13800 6.7702816495e+00 -1.7733546137e-02 1.9644621188e+00 -3.4025481993e+00 1.9644621188e+00 3.4025481993e+00 
13900 6.7701948808e+00 -1.8316234792e-02 1.9649134949e+00 -3.4033300057e+00 1.9649134949e+00 3.4033300057e+00 
14000 6.7701278478e+00 -1.8794791934e-02 1.9653795958e+00 -3.4041373161e+00 1.9653795958e+00 3.4041373161e+00 
14100 6.7700802606e+00 -1.9172833281e-02 1.9658577618e+00 -3.4049655239e+00 1.9658577618e+00 3.4049655239e+00 
14200 6.7700516831e+00 -1.9453988201e-02 1.9663454274e+00 -3.4058101856e+00 1.9663454274e+00 3.4058101856e+00 
14300 6.7700415421e+00 -1.9641897593e-02 1.9668401219e+00 -3.4066670215e+00 1.9668401219e+00 3.4066670215e+00 
14400 6.7700491365e+00 -1.9740211731e-02 1.9673394693e+00 -3.4075319165e+00 1.9673394693e+00 3.4075319165e+00 
14500 6.7700736479e+00 -1.9752588064e-02 1.9678411887e+00 -3.4084009201e+00 1.9678411887e+00 3.4084009201e+00 
14600 6.7701141507e+00 -1.9682688927e-02 1.9683430948e+00 -3.4092702469e+00 1.9683430948e+00 3.4092702469e+00 
14700 6.7701696237e+00 -1.9534179185e-02 1.9688430971e+00 -3.4101362763e+00 1.9688430971e+00 3.4101362763e+00 
14800 6.7702389608e+00 -1.9310723765e-02 1.9693392006e+00 -3.4109955528e+00 1.9693392006e+00 3.4109955528e+00 
14900 6.7703209827e+00 -1.9015985076e-02 1.9698295053e+00 -3.4118447854e+00 1.9698295053e+00 3.4118447854e+00 
15000 6.7704144485e+00 -1.8653620314e-02 1.9703122060e+00 -3.4126808475e+00 1.9703122060e+00 3.4126808475e+00 
15100 6.7705180676e+00 -1.8227278627e-02 1.9707855921e+00 -3.4135007763e+00 1.9707855921e+00 3.4135007763e+00 
15200 6.7706305111e+00 -1.7740598148e-02 1.9712480470e+00 -3.4143017717e+00 1.9712480470e+00 3.4143017717e+00 
15300 6.7707504237e+00 -1.7197202886e-02 1.9716980480e+00 -3.4150811964e+00 1.9716980480e+00 3.4150811964e+00 
15400 6.7708764349e+00 -1.6600699476e-02 1.9721341654e+00 -3.4158365739e+00 1.9721341654e+00 3.4158365739e+00 
15500 6.7710071703e+00 -1.5954673782e-02 1.9725550620e+00 -3.4165655881e+00 1.9725550620e+00 3.4165655881e+00 
15600 6.7711412628e+00 -1.5262687366e-02 1.9729594923e+00 -3.4172660819e+00 1.9729594923e+00 3.4172660819e+00 
15700 6.7712773627e+00 -1.4528273818e-02 1.9733463017e+00 -3.4179360554e+00 1.9733463017e+00 3.4179360554e+00 
15800 6.7714141481e+00 -1.3754934966e-02 1.9737144257e+00 -3.4185736650e+00 1.9737144257e+00 3.4185736650e+00 
15900 6.7715503346e+00 -1.2946136961e-02 1.9740628890e+00 -3.4191772211e+00 1.9740628890e+00 3.4191772211e+00 
16000 6.7716846842e+00 -1.2105306269e-02 1.9743908040e+00 -3.4197451865e+00 1.9743908040e+00 3.4197451865e+00 
16100 6.7718160141e+00 -1.1235825555e-02 1.9746973699e+00 -3.4202761743e+00 1.9746973699e+00 3.4202761743e+00 
16200 6.7719432039e+00 -1.0341029514e-02 1.9749818716e+00 -3.4207689457e+00 1.9749818716e+00 3.4207689457e+00 
16300 6.7720652035e+00 -9.4242006313e-03 1.9752436780e+00 -3.4212224077e+00 1.9752436780e+00 3.4212224077e+00 
16400 6.7721810389e+00 -8.4885649120e-03 1.9754822407e+00 -3.4216356104e+00 1.9754822407e+00 3.4216356104e+00 
16500 6.7722898181e+00 -7.5372875968e-03 1.9756970926e+00 -3.4220077447e+00 1.9756970926e+00 3.4220077447e+00 
16600 6.7723907359e+00 -6.5734688855e-03 1.9758878457e+00 -3.4223381388e+00 1.9758878457e+00 3.4223381388e+00 
16700 6.7724830777e+00 -5.6001396926e-03 1.9760541902e+00 -3.4226262559e+00 1.9760541902e+00 3.4226262559e+00 
16800 6.7725662230e+00 -4.6202574608e-03 1.9761958919e+00 -3.4228716905e+00 1.9761958919e+00 3.4228716905e+00 
16900 6.7726396475e+00 -3.6367020557e-03 1.9763127909e+00 -3.4230741654e+00 1.9763127909e+00 3.4230741654e+00 
17000 6.7727029245e+00 -2.6522717691e-03 1.9764047988e+00 -3.4232335279e+00 1.9764047988e+00 3.4232335279e+00 
17100 6.7727557256e+00 -1.6696794547e-03 1.9764718976e+00 -3.4233497464e+00 1.9764718976e+00 3.4233497464e+00 
17200 6.7727978207e+00 -6.9154882231e-04 1.9765141366e+00 -3.4234229065e+00 1.9765141366e+00 3.4234229065e+00 
17300 6.7728290767e+00 2.7958908619e-04 1.9765316308e+00 -3.4234532073e+00 1.9765316308e+00 3.4234532073e+00 
17400 6.7728494557e+00 1.2412992148e-03 1.9765245581e+00 -3.4234409570e+00 1.9765245581e+00 3.4234409570e+00 
17500 6.7728590129e+00 2.1912455839e-03 1.9764931571e+00 -3.4233865689e+00 1.9764931571e+00 3.4233865689e+00 
17600 6.7728578928e+00 3.1271941325e-03 1.9764377247e+00 -3.4232905572e+00 1.9764377247e+00 3.4232905572e+00 
17700 6.7728463255e+00 4.0470152934e-03 1.9763586134e+00 -3.4231535323e+00 1.9763586134e+00 3.4231535323e+00 
17800 6.7728246220e+00 4.9486862847e-03 1.9762562286e+00 -3.4229761967e+00 1.9762562286e+00 3.4229761967e+00 
17900 6.7727931697e+00 5.8302931031e-03 1.9761310264e+00 -3.4227593401e+00 1.9761310264e+00 3.4227593401e+00 
18000 6.7727524257e+00 6.6900322064e-03 1.9759835103e+00 -3.4225038348e+00 1.9759835103e+00 3.4225038348e+00 
18100 6.7727029119e+00 7.5262118760e-03 1.9758142291e+00 -3.4222106312e+00 1.9758142291e+00 3.4222106312e+00 
18200 6.7726452076e+00 8.3372532518e-03 1.9756237737e+00 -3.4218807527e+00 1.9756237737e+00 3.4218807527e+00 
18300 6.7725799435e+00 9.1216910353e-03 1.9754127744e+00 -3.4215152912e+00 1.9754127744e+00 3.4215152912e+00 
18400 6.7725077940e+00 9.8781738583e-03 1.9751818983e+00 -3.4211154020e+00 1.9751818983e+00 3.4211154020e+00 
18500 6.7724294708e+00 1.0605464319e-02 1.9749318462e+00 -3.4206822991e+00 1.9749318462e+00 3.4206822991e+00 
18600 6.7723457149e+00 1.1302438688e-02 1.9746633503e+00 -3.4202172505e+00 1.9746633503e+00 3.4202172505e+00 
18700 6.7722572900e+00 1.1968086289e-02 1.9743771707e+00 -3.4197215730e+00 1.9743771707e+00 3.4197215730e+00 
18800 6.7721649746e+00 1.2601508565e-02 1.9740740934e+00 -3.4191966276e+00 1.9740740934e+00 3.4191966276e+00 
18900 6.7720695555e+00 1.3201917834e-02 1.9737549268e+00 -3.4186438149e+00 1.9737549268e+00 3.4186438149e+00 
19000 6.7719718201e+00 1.3768635759e-02 1.9734204996e+00 -3.4180645701e+00 1.9734204996e+00 3.4180645701e+00 
19100 6.7718725503e+00 1.4301091529e-02 1.9730716579e+00 -3.4174603584e+00 1.9730716579e+00 3.4174603584e+00 
19200 6.7717725157e+00 1.4798819778e-02 1.9727092622e+00 -3.4168326706e+00 1.9727092622e+00 3.4168326706e+00 
19300 6.7716724675e+00 1.5261458261e-02 1.9723341853e+00 -3.4161830185e+00 1.9723341853e+00 3.4161830185e+00 
19400 6.7715731328e+00 1.5688745292e-02 1.9719473097e+00 -3.4155129303e+00 1.9719473097e+00 3.4155129303e+00 
19500 6.7714752092e+00 1.6080516981e-02 1.9715495248e+00 -3.4148239466e+00 1.9715495248e+00 3.4148239466e+00 
19600 6.7713793600e+00 1.6436704264e-02 1.9711417247e+00 -3.4141176161e+00 1.9711417247e+00 3.4141176161e+00 
19700 6.7712862099e+00 1.6757329781e-02 1.9707248058e+00 -3.4133954914e+00 1.9707248058e+00 3.4133954914e+00 
19800 6.7711963407e+00 1.7042504582e-02 1.9702996646e+00 -3.4126591252e+00 1.9702996646e+00 3.4126591252e+00 
19900 6.7711102885e+00 1.7292424718e-02 1.9698671953e+00 -3.4119100665e+00 1.9698671953e+00 3.4119100665e+00 
20000 6.7710285407e+00 1.7507367705e-02 1.9694282880e+00 -3.4111498567e+00 1.9694282880e+00 3.4111498567e+00 
20100 6.7709515333e+00 1.7687688907e-02 1.9689838263e+00 -3.4103800264e+00 1.9689838263e+00 3.4103800264e+00 
20200 6.7708796500e+00 1.7833817834e-02 1.9685346856e+00 -3.4096020919e+00 1.9685346856e+00 3.4096020919e+00 
20300 6.7708132203e+00 1.7946254388e-02 1.9680817311e+00 -3.4088175517e+00 1.9680817311e+00 3.4088175517e+00 
20400 6.7707525192e+00 1.8025565073e-02 1.9676258160e+00 -3.4080278836e+00 1.9676258160e+00 3.4080278836e+00 
20500 6.7706977670e+00 1.8072379173e-02 1.9671677801e+00 -3.4072345422e+00 1.9671677801e+00 3.4072345422e+00 
20600 6.7706491295e+00 1.8087384924e-02 1.9667084478e+00 -3.4064389552e+00 1.9667084478e+00 3.4064389552e+00 
20700 6.7706067191e+00 1.8071325695e-02 1.9662486267e+00 -3.4056425218e+00 1.9662486267e+00 3.4056425218e+00 
20800 6.7705705958e+00 1.8024996185e-02 1.9657891064e+00 -3.4048466093e+00 1.9657891064e+00 3.4048466093e+00 
20900 6.7705407689e+00 1.7949238645e-02 1.9653306571e+00 -3.4040525517e+00 1.9653306571e+00 3.4040525517e+00 
21000 6.7705171991e+00 1.7844939147e-02 1.9648740280e+00 -3.4032616469e+00 1.9648740280e+00 3.4032616469e+00 
21100 6.7704998008e+00 1.7713023900e-02 1.9644199467e+00 -3.4024751550e+00 1.9644199467e+00 3.4024751550e+00 
21200 6.7704884448e+00 1.7554455623e-02 1.9639691177e+00 -3.4016942964e+00 1.9639691177e+00 3.4016942964e+00 
21300 6.7704829614e+00 1.7370229987e-02 1.9635222220e+00 -3.4009202503e+00 1.9635222220e+00 3.4009202503e+00 
21400 6.7704831431e+00 1.7161372128e-02 1.9630799154e+00 -3.4001541527e+00 1.9630799154e+00 3.4001541527e+00 
21500 6.7704887483e+00 1.6928933231e-02 1.9626428283e+00 -3.3993970958e+00 1.9626428283e+00 3.3993970958e+00 
21600 6.7704995047e+00 1.6673987212e-02 1.9622115651e+00 -3.3986501260e+00 1.9622115651e+00 3.3986501260e+00 
21700 6.7705151128e+00 1.6397627467e-02 1.9617867030e+00 -3.3979142433e+00 1.9617867030e+00 3.3979142433e+00 
21800 6.7705352495e+00 1.6100963727e-02 1.9613687920e+00 -3.3971904002e+00 1.9613687920e+00 3.3971904002e+00 
21900 6.7705595719e+00 1.5785118994e-02 1.9609583541e+00 -3.3964795009e+00 1.9609583541e+00 3.3964795009e+00 
22000 6.7705877207e+00 1.5451226579e-02 1.9605558831e+00 -3.3957824006e+00 1.9605558831e+00 3.3957824006e+00 
22100 6.7706193243e+00 1.5100427228e-02 1.9601618441e+00 -3.3950999051e+00 1.9601618441e+00 3.3950999051e+00 
22200 6.7706540016e+00 1.4733866351e-02 1.9597766736e+00 -3.3944327701e+00 1.9597766736e+00 3.3944327701e+00 
22300 6.7706913663e+00 1.4352691345e-02 1.9594007788e+00 -3.3937817013e+00 1.9594007788e+00 3.3937817013e+00 
22400 6.7707310294e+00 1.3958049018e-02 1.9590345382e+00 -3.3931473539e+00 1.9590345382e+00 3.3931473539e+00 
22500 6.7707726031e+00 1.3551083108e-02 1.9586783008e+00 -3.3925303327e+00 1.9586783008e+00 3.3925303327e+00 
22600 6.7708157032e+00 1.3132931899e-02 1.9583323868e+00 -3.3919311921e+00 1.9583323868e+00 3.3919311921e+00 
22700 6.7708599523e+00 1.2704725942e-02 1.9579970873e+00 -3.3913504363e+00 1.9579970873e+00 3.3913504363e+00 
22800 6.7709049825e+00 1.2267585867e-02 1.9576726646e+00 -3.3907885197e+00 1.9576726646e+00 3.3907885197e+00 
22900 6.7709504374e+00 1.1822620292e-02 1.9573593523e+00 -3.3902458469e+00 1.9573593523e+00 3.3902458469e+00 
23000 6.7709959745e+00 1.1370923834e-02 1.9570573557e+00 -3.3897227735e+00 1.9570573557e+00 3.3897227735e+00 
23100 6.7710412674e+00 1.0913575211e-02 1.9567668522e+00 -3.3892196065e+00 1.9567668522e+00 3.3892196065e+00 
23200 6.7710860072e+00 1.0451635444e-02 1.9564879913e+00 -3.3887366053e+00 1.9564879913e+00 3.3887366053e+00 
23300 6.7711299042e+00 9.9861461494e-03 1.9562208954e+00 -3.3882739816e+00 1.9562208954e+00 3.3882739816e+00 
23400 6.7711726891e+00 9.5181279279e-03 1.9559656602e+00 -3.3878319013e+00 1.9559656602e+00 3.3878319013e+00 
23500 6.7712141138e+00 9.0485788493e-03 1.9557223550e+00 -3.3874104844e+00 1.9557223550e+00 3.3874104844e+00 
23600 6.7712539528e+00 8.5784730254e-03 1.9554910236e+00 -3.3870098066e+00 1.9554910236e+00 3.3870098066e+00 
23700 6.7712920032e+00 8.1087592790e-03 1.9552716845e+00 -3.3866299002e+00 1.9552716845e+00 3.3866299002e+00 
23800 6.7713280854e+00 7.6403599014e-03 1.9550643318e+00 -3.3862707548e+00 1.9550643318e+00 3.3862707548e+00 
23900 6.7713620431e+00 7.1741695025e-03 1.9548689359e+00 -3.3859323191e+00 1.9548689359e+00 3.3859323191e+00 
24000 6.7713937436e+00 6.7110539489e-03 1.9546854439e+00 -3.3856145016e+00 1.9546854439e+00 3.3856145016e+00 
24100 6.7714230771e+00 6.2518493919e-03 1.9545137806e+00 -3.3853171720e+00 1.9545137806e+00 3.3853171720e+00 
24200 6.7714499567e+00 5.7973613819e-03 1.9543538491e+00 -3.3850401626e+00 1.9543538491e+00 3.3850401626e+00 
24300 6.7714743178e+00 5.3483640706e-03 1.9542055319e+00 -3.3847832696e+00 1.9542055319e+00 3.3847832696e+00 
24400 6.7714961173e+00 4.9055994978e-03 1.9540686910e+00 -3.3845462544e+00 1.9540686910e+00 3.3845462544e+00 
24500 6.7715153330e+00 4.4697769632e-03 1.9539431697e+00 -3.3843288450e+00 1.9539431697e+00 3.3843288450e+00 
24600 6.7715319626e+00 4.0415724801e-03 1.9538287924e+00 -3.3841307378e+00 1.9538287924e+00 3.3841307378e+00 
24700 6.7715460224e+00 3.6216283123e-03 1.9537253663e+00 -3.3839515986e+00 1.9537253663e+00 3.3839515986e+00 
24800 6.7715575466e+00 3.2105525895e-03 1.9536326819e+00 -3.3837910644e+00 1.9536326819e+00 3.3837910644e+00 
24900 6.7715665861e+00 2.8089190024e-03 1.9535505137e+00 -3.3836487448e+00 1.9535505137e+00 3.3836487448e+00 
25000 6.7715732068e+00 2.4172665742e-03 1.9534786215e+00 -3.3835242239e+00 1.9534786215e+00 3.3835242239e+00 
25100 6.7715774889e+00 2.0360995077e-03 1.9534167510e+00 -3.3834170610e+00 1.9534167510e+00 3.3834170610e+00 
25200 6.7715795251e+00 1.6658871058e-03 1.9533646348e+00 -3.3833267932e+00 1.9533646348e+00 3.3833267932e+00 
25300 6.7715794195e+00 1.3070637626e-03 1.9533219935e+00 -3.3832529363e+00 1.9533219935e+00 3.3832529363e+00 
25400 6.7715772862e+00 9.6002902549e-04 1.9532885361e+00 -3.3831949864e+00 1.9532885361e+00 3.3831949864e+00 
25500 6.7715732477e+00 6.2514772349e-04 1.9532639615e+00 -3.3831524219e+00 1.9532639615e+00 3.3831524219e+00 
25600 6.7715674340e+00 3.0275016133e-04 1.9532479589e+00 -3.3831247046e+00 1.9532479589e+00 3.3831247046e+00 
25700 6.7715599810e+00 -6.8676234309e-06 1.9532402090e+00 -3.3831112813e+00 1.9532402090e+00 3.3831112813e+00 
25800 6.7715510293e+00 -3.0359266108e-04 1.9532402090e+00 -3.3831112813e+00 1.9532402090e+00 3.3831112813e+00 
25900 6.7715407224e+00 -5.8689570191e-04 1.9532479805e+00 -3.3831247420e+00 1.9532479805e+00 3.3831247420e+00 
26000 6.7715292065e+00 -8.5673306444e-04 1.9532630041e+00 -3.3831507636e+00 1.9532630041e+00 3.3831507636e+00 
26100 6.7715166283e+00 -1.1129420244e-03 1.9532849350e+00 -3.3831887490e+00 1.9532849350e+00 3.3831887490e+00 
26200 6.7715031346e+00 -1.3553919741e-03 1.9533134240e+00 -3.3832380935e+00 1.9533134240e+00 3.3832380935e+00 
26300 6.7714888709e+00 -1.5839838368e-03 1.9533481188e+00 -3.3832981866e+00 1.9533481188e+00 3.3832981866e+00 
26400 6.7714739807e+00 -1.7986494340e-03 1.9533886643e+00 -3.3833684135e+00 1.9533886643e+00 3.3833684135e+00 
26500 6.7714586041e+00 -1.9993508091e-03 1.9534347037e+00 -3.3834481560e+00 1.9534347037e+00 3.3834481560e+00 
26600 6.7714428773e+00 -2.1860795106e-03 1.9534858792e+00 -3.3835367946e+00 1.9534858792e+00 3.3835367946e+00 
26700 6.7714269320e+00 -2.3588558360e-03 1.9535418327e+00 -3.3836337090e+00 1.9535418327e+00 3.3836337090e+00 
26800 6.7714108942e+00 -2.5177280393e-03 1.9536022069e+00 -3.3837382801e+00 1.9536022069e+00 3.3837382801e+00 
26900 6.7713948840e+00 -2.6627715056e-03 1.9536666453e+00 -3.3838498907e+00 1.9536666453e+00 3.3838498907e+00 
27000 6.7713790149e+00 -2.7940878941e-03 1.9537347938e+00 -3.3839679273e+00 1.9537347938e+00 3.3839679273e+00 
27100 6.7713633933e+00 -2.9118042522e-03 1.9538063005e+00 -3.3840917807e+00 1.9538063005e+00 3.3840917807e+00 
27200 6.7713481180e+00 -3.0160721039e-03 1.9538808172e+00 -3.3842208473e+00 1.9538808172e+00 3.3842208473e+00 
27300 6.7713332805e+00 -3.1070665143e-03 1.9539579993e+00 -3.3843545306e+00 1.9539579993e+00 3.3843545306e+00 
27400 6.7713189638e+00 -3.1849851318e-03 1.9540375068e+00 -3.3844922417e+00 1.9540375068e+00 3.3844922417e+00 
27500 6.7713052429e+00 -3.2500472126e-03 1.9541190049e+00 -3.3846334006e+00 1.9541190049e+00 3.3846334006e+00 
27600 6.7712921847e+00 -3.3024926276e-03 1.9542021644e+00 -3.3847774370e+00 1.9542021644e+00 3.3847774370e+00 
27700 6.7712798475e+00 -3.3425808546e-03 1.9542866622e+00 -3.3849237915e+00 1.9542866622e+00 3.3849237915e+00 
27800 6.7712682814e+00 -3.3705899589e-03 1.9543721821e+00 -3.3850719162e+00 1.9543721821e+00 3.3850719162e+00 
27900 6.7712575283e+00 -3.3868155632e-03 1.9544584147e+00 -3.3852212756e+00 1.9544584147e+00 3.3852212756e+00 
28000 6.7712476220e+00 -3.3915698101e-03 1.9545450587e+00 -3.3853713473e+00 1.9545450587e+00 3.3853713473e+00 
28100 6.7712385883e+00 -3.3851803184e-03 1.9546318204e+00 -3.3855216231e+00 1.9546318204e+00 3.3855216231e+00 
28200 6.7712304455e+00 -3.3679891353e-03 1.9547184149e+00 -3.3856716091e+00 1.9547184149e+00 3.3856716091e+00 
28300 6.7712232043e+00 -3.3403516876e-03 1.9548045658e+00 -3.3858208268e+00 1.9548045658e+00 3.3858208268e+00 
28400 6.7712168684e+00 -3.3026357321e-03 1.9548900059e+00 -3.3859688134e+00 1.9548900059e+00 3.3859688134e+00 
28500 6.7712114348e+00 -3.2552203085e-03 1.9549744777e+00 -3.3861151228e+00 1.9549744777e+00 3.3861151228e+00 
28600 6.7712068940e+00 -3.1984946962e-03 1.9550577331e+00 -3.3862593254e+00 1.9550577331e+00 3.3862593254e+00 
28700 6.7712032308e+00 -3.1328573766e-03 1.9551395341e+00 -3.3864010090e+00 1.9551395341e+00 3.3864010090e+00 
28800 6.7712004240e+00 -3.0587150025e-03 1.9552196532e+00 -3.3865397793e+00 1.9552196532e+00 3.3865397793e+00 
28900 6.7711984478e+00 -2.9764813771e-03 1.9552978729e+00 -3.3866752599e+00 1.9552978729e+00 3.3866752599e+00 
29000 6.7711972714e+00 -2.8865764435e-03 1.9553739867e+00 -3.3868070927e+00 1.9553739867e+00 3.3868070927e+00 
29100 6.7711968599e+00 -2.7894252863e-03 1.9554477985e+00 -3.3869349386e+00 1.9554477985e+00 3.3869349386e+00 
29200 6.7711971749e+00 -2.6854571474e-03 1.9555191234e+00 -3.3870584769e+00 1.9555191234e+00 3.3870584769e+00 
29300 6.7711981744e+00 -2.5751044568e-03 1.9555877873e+00 -3.3871774063e+00 1.9555877873e+00 3.3871774063e+00 
29400 6.7711998141e+00 -2.4588018805e-03 1.9556536274e+00 -3.3872914446e+00 1.9556536274e+00 3.3872914446e+00 
29500 6.7712020469e+00 -2.3369853859e-03 1.9557164916e+00 -3.3874003287e+00 1.9557164916e+00 3.3874003287e+00 
29600 6.7712048243e+00 -2.2100913279e-03 1.9557762395e+00 -3.3875038150e+00 1.9557762395e+00 3.3875038150e+00 
29700 6.7712080962e+00 -2.0785555541e-03 1.9558327414e+00 -3.3876016792e+00 1.9558327414e+00 3.3876016792e+00 
29800 6.7712118116e+00 -1.9428125335e-03 1.9558858790e+00 -3.3876937162e+00 1.9558858790e+00 3.3876937162e+00 
29900 6.7712159190e+00 -1.8032945073e-03 1.9559355450e+00 -3.3877797403e+00 1.9559355450e+00 3.3877797403e+00 
30000 6.7712203667e+00 -1.6604306644e-03 1.9559816432e+00 -3.3878595847e+00 1.9559816432e+00 3.3878595847e+00 
30100 6.7712251035e+00 -1.5146463420e-03 1.9560240883e+00 -3.3879331018e+00 1.9560240883e+00 3.3879331018e+00 
30200 6.7712300786e+00 -1.3663622526e-03 1.9560628059e+00 -3.3880001626e+00 1.9560628059e+00 3.3880001626e+00 
30300 6.7712352423e+00 -1.2159937379e-03 1.9560977323e+00 -3.3880606570e+00 1.9560977323e+00 3.3880606570e+00 
30400 6.7712405461e+00 -1.0639500512e-03 1.9561288146e+00 -3.3881144930e+00 1.9561288146e+00 3.3881144930e+00 
30500 6.7712459434e+00 -9.1063366832e-04 1.9561560099e+00 -3.3881615967e+00 1.9561560099e+00 3.3881615967e+00 
30600 6.7712513889e+00 -7.5643962796e-04 1.9561792861e+00 -3.3882019122e+00 1.9561792861e+00 3.3882019122e+00 
30700 6.7712568400e+00 -6.0175490297e-04 1.9561986207e+00 -3.3882354008e+00 1.9561986207e+00 3.3882354008e+00 
30800 6.7712622559e+00 -4.4695780180e-04 1.9562140015e+00 -3.3882620410e+00 1.9562140015e+00 3.3882620410e+00 
30900 6.7712675986e+00 -2.9241740176e-04 1.9562254255e+00 -3.3882818281e+00 1.9562254255e+00 3.3882818281e+00 
31000 6.7712728327e+00 -1.3849301401e-04 1.9562328995e+00 -3.3882947734e+00 1.9562328995e+00 3.3882947734e+00 
31100 6.7712779254e+00 1.4466319084e-05 1.9562364393e+00 -3.3883009045e+00 1.9562364393e+00 3.3883009045e+00 
31200 6.7712828471e+00 1.6643394332e-04 1.9562364393e+00 -3.3883009045e+00 1.9562364393e+00 3.3883009045e+00 
31300 6.7712875709e+00 3.1645447283e-04 1.9562321854e+00 -3.3882935365e+00 1.9562321854e+00 3.3882935365e+00 
31400 6.7712920727e+00 4.6452912237e-04 1.9562240970e+00 -3.3882795271e+00 1.9562240970e+00 3.3882795271e+00 
31500 6.7712963320e+00 6.1035428822e-04 1.9562122239e+00 -3.3882589623e+00 1.9562122239e+00 3.3882589623e+00 
31600 6.7713003307e+00 7.5363865554e-04 1.9561966236e+00 -3.3882319416e+00 1.9561966236e+00 3.3882319416e+00 
31700 6.7713040543e+00 8.9410350281e-04 1.9561773607e+00 -3.3881985774e+00 1.9561773607e+00 3.3881985774e+00 
31800 6.7713074907e+00 1.0314829733e-03 1.9561545074e+00 -3.3881589943e+00 1.9561545074e+00 3.3881589943e+00 
31900 6.7713106312e+00 1.1655243132e-03 1.9561281424e+00 -3.3881133288e+00 1.9561281424e+00 3.3881133288e+00 
32000 6.7713134696e+00 1.2959880775e-03 1.9560983509e+00 -3.3880617283e+00 1.9560983509e+00 3.3880617283e+00 
32100 6.7713160025e+00 1.4226483033e-03 1.9560652241e+00 -3.3880043511e+00 1.9560652241e+00 3.3880043511e+00 
32200 6.7713182291e+00 1.5452926507e-03 1.9560288592e+00 -3.3879413652e+00 1.9560288592e+00 3.3879413652e+00 
32300 6.7713201512e+00 1.6637225121e-03 1.9559893586e+00 -3.3878729481e+00 1.9559893586e+00 3.3878729481e+00 
32400 6.7713217727e+00 1.7777530912e-03 1.9559468298e+00 -3.3877992861e+00 1.9559468298e+00 3.3877992861e+00 
32500 6.7713231000e+00 1.8872134500e-03 1.9559013851e+00 -3.3877205736e+00 1.9559013851e+00 3.3877205736e+00 
32600 6.7713241411e+00 1.9919465271e-03 1.9558531412e+00 -3.3876370128e+00 1.9558531412e+00 3.3876370128e+00 
32700 6.7713249062e+00 2.0918091257e-03 1.9558022188e+00 -3.3875488125e+00 1.9558022188e+00 3.3875488125e+00 
32800 6.7713254071e+00 2.1866718737e-03 1.9557487420e+00 -3.3874561880e+00 1.9557487420e+00 3.3874561880e+00 
32900 6.7713256570e+00 2.2764191554e-03 1.9556928386e+00 -3.3873593604e+00 1.9556928386e+00 3.3873593604e+00 
33000 6.7713256706e+00 2.3609490165e-03 1.9556346390e+00 -3.3872585559e+00 1.9556346390e+00 3.3872585559e+00 
33100 6.7713254634e+00 2.4401730431e-03 1.9555742766e+00 -3.3871540051e+00 1.9555742766e+00 3.3871540051e+00 
33200 6.7713250523e+00 2.5140162151e-03 1.9555118868e+00 -3.3870459427e+00 1.9555118868e+00 3.3870459427e+00 
33300 6.7713244546e+00 2.5824167351e-03 1.9554476069e+00 -3.3869346066e+00 1.9554476069e+00 3.3869346066e+00 
33400 6.7713236885e+00 2.6453258348e-03 1.9553815759e+00 -3.3868202376e+00 1.9553815759e+00 3.3868202376e+00 
33500 6.7713227722e+00 2.7027075582e-03 1.9553139341e+00 -3.3867030786e+00 1.9553139341e+00 3.3867030786e+00 
33600 6.7713217246e+00 2.7545385241e-03 1.9552448226e+00 -3.3865833740e+00 1.9552448226e+00 3.3865833740e+00 
33700 6.7713205644e+00 2.8008076677e-03 1.9551743833e+00 -3.3864613696e+00 1.9551743833e+00 3.3864613696e+00 
33800 6.7713193104e+00 2.8415159638e-03 1.9551027582e+00 -3.3863373113e+00 1.9551027582e+00 3.3863373113e+00 
33900 6.7713179811e+00 2.8766761315e-03 1.9550300895e+00 -3.3862114453e+00 1.9550300895e+00 3.3862114453e+00 
34000 6.7713165946e+00 2.9063123219e-03 1.9549565188e+00 -3.3860840171e+00 1.9549565188e+00 3.3860840171e+00 
34100 6.7713151687e+00 2.9304597901e-03 1.9548821874e+00 -3.3859552713e+00 1.9548821874e+00 3.3859552713e+00 
34200 6.7713137204e+00 2.9491645525e-03 1.9548072355e+00 -3.3858254509e+00 1.9548072355e+00 3.3858254509e+00 
34300 6.7713122660e+00 2.9624830301e-03 1.9547318023e+00 -3.3856947968e+00 1.9547318023e+00 3.3856947968e+00 
34400 6.7713108213e+00 2.9704816803e-03 1.9546560256e+00 -3.3855635477e+00 1.9546560256e+00 3.3855635477e+00 
34500 6.7713094007e+00 2.9732366160e-03 1.9545800413e+00 -3.3854319390e+00 1.9545800413e+00 3.3854319390e+00 
34600 6.7713080182e+00 2.9708332156e-03 1.9545039836e+00 -3.3853002032e+00 1.9545039836e+00 3.3853002032e+00 
34700 6.7713066864e+00 2.9633657230e-03 1.9544279844e+00 -3.3851685688e+00 1.9544279844e+00 3.3851685688e+00 
34800 6.7713054168e+00 2.9509368405e-03 1.9543521734e+00 -3.3850372601e+00 1.9543521734e+00 3.3850372601e+00 
34900 6.7713042200e+00 2.9336573139e-03 1.9542766773e+00 -3.3849064971e+00 1.9542766773e+00 3.3849064971e+00 
35000 6.7713031053e+00 2.9116455118e-03 1.9542016204e+00 -3.3847764948e+00 1.9542016204e+00 3.3847764948e+00 
35100 6.7713020810e+00 2.8850270007e-03 1.9541271238e+00 -3.3846474629e+00 1.9541271238e+00 3.3846474629e+00 
35200 6.7713011539e+00 2.8539341153e-03 1.9540533055e+00 -3.3845196058e+00 1.9540533055e+00 3.3845196058e+00 
35300 6.7713003300e+00 2.8185055270e-03 1.9539802799e+00 -3.3843931218e+00 1.9539802799e+00 3.3843931218e+00 
35400 6.7712996138e+00 2.7788858093e-03 1.9539081582e+00 -3.3842682033e+00 1.9539081582e+00 3.3842682033e+00 
35500 6.7712990089e+00 2.7352250036e-03 1.9538370477e+00 -3.3841450363e+00 1.9538370477e+00 3.3841450363e+00 
35600 6.7712985176e+00 2.6876781842e-03 1.9537670518e+00 -3.3840237999e+00 1.9537670518e+00 3.3840237999e+00 
35700 6.7712981412e+00 2.6364050239e-03 1.9536982703e+00 -3.3839046668e+00 1.9536982703e+00 3.3839046668e+00 
35800 6.7712978800e+00 2.5815693624e-03 1.9536307985e+00 -3.3837878023e+00 1.9536307985e+00 3.3837878023e+00 
35900 6.7712977332e+00 2.5233387764e-03 1.9535647278e+00 -3.3836733645e+00 1.9535647278e+00 3.3836733645e+00 
36000 6.7712976990e+00 2.4618841531e-03 1.9535001453e+00 -3.3835615042e+00 1.9535001453e+00 3.3835615042e+00 
36100 6.7712977750e+00 2.3973792686e-03 1.9534371335e+00 -3.3834523645e+00 1.9534371335e+00 3.3834523645e+00 
36200 6.7712979576e+00 2.3300003702e-03 1.9533757707e+00 -3.3833460811e+00 1.9533757707e+00 3.3833460811e+00 
36300 6.7712982428e+00 2.2599257652e-03 1.9533161306e+00 -3.3832427815e+00 1.9533161306e+00 3.3832427815e+00 
36400 6.7712986256e+00 2.1873354149e-03 1.9532582825e+00 -3.3831425856e+00 1.9532582825e+00 3.3831425856e+00 
36500 6.7712991007e+00 2.1124105365e-03 1.9532022908e+00 -3.3830456051e+00 1.9532022908e+00 3.3830456051e+00 
36600 6.7712996619e+00 2.0353332120e-03 1.9531482155e+00 -3.3829519439e+00 1.9531482155e+00 3.3829519439e+00 
36700 6.7713003029e+00 1.9562860048e-03 1.9530961118e+00 -3.3828616977e+00 1.9530961118e+00 3.3828616977e+00 
36800 6.7713010167e+00 1.8754515857e-03 1.9530460303e+00 -3.3827749541e+00 1.9530460303e+00 3.3827749541e+00 
36900 6.7713017961e+00 1.7930123672e-03 1.9529980170e+00 -3.3826917926e+00 1.9529980170e+00 3.3826917926e+00 
37000 6.7713026338e+00 1.7091501478e-03 1.9529521131e+00 -3.3826122846e+00 1.9529521131e+00 3.3826122846e+00 
37100 6.7713035220e+00 1.6240457660e-03 1.9529083551e+00 -3.3825364936e+00 1.9529083551e+00 3.3825364936e+00 
37200 6.7713044532e+00 1.5378787649e-03 1.9528667751e+00 -3.3824644749e+00 1.9528667751e+00 3.3824644749e+00 
37300 6.7713054195e+00 1.4508270677e-03 1.9528274003e+00 -3.3823962758e+00 1.9528274003e+00 3.3823962758e+00 
37400 6.7713064133e+00 1.3630666634e-03 1.9527902536e+00 -3.3823319358e+00 1.9527902536e+00 3.3823319358e+00 
37500 6.7713074268e+00 1.2747713052e-03 1.9527553532e+00 -3.3822714866e+00 1.9527553532e+00 3.3822714866e+00 
37600 6.7713084525e+00 1.1861122195e-03 1.9527227130e+00 -3.3822149520e+00 1.9527227130e+00 3.3822149520e+00 
37700 6.7713094833e+00 1.0972578274e-03 1.9526923424e+00 -3.3821623485e+00 1.9526923424e+00 3.3821623485e+00 
37800 6.7713105120e+00 1.0083734782e-03 1.9526642464e+00 -3.3821136849e+00 1.9526642464e+00 3.3821136849e+00 
37900 6.7713115319e+00 9.1962119517e-04 1.9526384260e+00 -3.3820689627e+00 1.9526384260e+00 3.3820689627e+00 
38000 6.7713125365e+00 8.3115943397e-04 1.9526148779e+00 -3.3820281761e+00 1.9526148779e+00 3.3820281761e+00 
38100 6.7713135199e+00 7.4314285347e-04 1.9525935947e+00 -3.3819913125e+00 1.9525935947e+00 3.3819913125e+00 
38200 6.7713144763e+00 6.5572209963e-04 1.9525745651e+00 -3.3819583523e+00 1.9525745651e+00 3.3819583523e+00 
38300 6.7713154005e+00 5.6904360195e-04 1.9525577739e+00 -3.3819292691e+00 1.9525577739e+00 3.3819292691e+00 
38400 6.7713162878e+00 4.8324938300e-04 1.9525432022e+00 -3.3819040301e+00 1.9525432022e+00 3.3819040301e+00 
38500 6.7713171339e+00 3.9847688082e-04 1.9525308273e+00 -3.3818825962e+00 1.9525308273e+00 3.3818825962e+00 
38600 6.7713179349e+00 3.1485878423e-04 1.9525206232e+00 -3.3818649222e+00 1.9525206232e+00 3.3818649222e+00 
38700 6.7713186875e+00 2.3252288114e-04 1.9525125603e+00 -3.3818509569e+00 1.9525125603e+00 3.3818509569e+00 
38800 6.7713193889e+00 1.5159191974e-04 1.9525066059e+00 -3.3818406435e+00 1.9525066059e+00 3.3818406435e+00 
38900 6.7713200367e+00 7.2183482542e-05 1.9525027239e+00 -3.3818339197e+00 1.9525027239e+00 3.3818339197e+00 
39000 6.7713206292e+00 -5.5901267946e-06 1.9525008754e+00 -3.3818307180e+00 1.9525008754e+00 3.3818307180e+00 
39100 6.7713211649e+00 -8.1743346018e-05 1.9525008754e+00 -3.3818307180e+00 1.9525008754e+00 3.3818307180e+00 
39200 6.7713216430e+00 -1.5593001162e-04 1.9525029687e+00 -3.3818343437e+00 1.9525029687e+00 3.3818343437e+00 
39300 6.7713220630e+00 -2.2817761364e-04 1.9525069618e+00 -3.3818412599e+00 1.9525069618e+00 3.3818412599e+00 
39400 6.7713224251e+00 -2.9839584111e-04 1.9525128050e+00 -3.3818513807e+00 1.9525128050e+00 3.3818513807e+00 
39500 6.7713227295e+00 -3.6650004020e-04 1.9525204463e+00 -3.3818646158e+00 1.9525204463e+00 3.3818646158e+00 
39600 6.7713229773e+00 -4.3241125342e-04 1.9525298316e+00 -3.3818808717e+00 1.9525298316e+00 3.3818808717e+00 
39700 6.7713231695e+00 -4.9605624709e-04 1.9525409047e+00 -3.3819000509e+00 1.9525409047e+00 3.3819000509e+00 
39800 6.7713233079e+00 -5.5736752732e-04 1.9525536076e+00 -3.3819220529e+00 1.9525536076e+00 3.3819220529e+00 
39900 6.7713233943e+00 -6.1628334472e-04 1.9525678804e+00 -3.3819467741e+00 1.9525678804e+00 3.3819467741e+00 
40000 6.7713234309e+00 -6.7274768812e-04 1.9525836618e+00 -3.3819741082e+00 1.9525836618e+00 3.3819741082e+00 
40100 6.7713234202e+00 -7.2671026744e-04 1.9526008889e+00 -3.3820039465e+00 1.9526008889e+00 3.3820039465e+00 
40200 6.7713233649e+00 -7.7812648624e-04 1.9526194977e+00 -3.3820361779e+00 1.9526194977e+00 3.3820361779e+00 
40300 6.7713232680e+00 -8.2695740389e-04 1.9526394230e+00 -3.3820706894e+00 1.9526394230e+00 3.3820706894e+00 
40400 6.7713231326e+00 -8.7316968799e-04 1.9526605984e+00 -3.3821073663e+00 1.9526605984e+00 3.3821073663e+00 
40500 6.7713229618e+00 -9.1673555714e-04 1.9526829569e+00 -3.3821460924e+00 1.9526829569e+00 3.3821460924e+00 
40600 6.7713227591e+00 -9.5763271441e-04 1.9527064307e+00 -3.3821867502e+00 1.9527064307e+00 3.3821867502e+00 
40700 6.7713225279e+00 -9.9584427196e-04 1.9527309514e+00 -3.3822292213e+00 1.9527309514e+00 3.3822292213e+00 
40800 6.7713222717e+00 -1.0313586670e-03 1.9527564502e+00 -3.3822733865e+00 1.9527564502e+00 3.3822733865e+00 
40900 6.7713219940e+00 -1.0641695694e-03 1.9527828580e+00 -3.3823191262e+00 1.9527828580e+00 3.3823191262e+00 
41000 6.7713216984e+00 -1.0942757816e-03 1.9528101056e+00 -3.3823663204e+00 1.9528101056e+00 3.3823663204e+00 
41100 6.7713213883e+00 -1.1216811310e-03 1.9528381236e+00 -3.3824148491e+00 1.9528381236e+00 3.3824148491e+00 
41200 6.7713210672e+00 -1.1463943547e-03 1.9528668429e+00 -3.3824645924e+00 1.9528668429e+00 3.3824645924e+00 
41300 6.7713207384e+00 -1.1684289779e-03 1.9528961946e+00 -3.3825154309e+00 1.9528961946e+00 3.3825154309e+00 
41400 6.7713204053e+00 -1.1878031861e-03 1.9529261100e+00 -3.3825672459e+00 1.9529261100e+00 3.3825672459e+00 
41500 6.7713200709e+00 -1.2045396903e-03 1.9529565209e+00 -3.3826199192e+00 1.9529565209e+00 3.3826199192e+00 
41600 6.7713197383e+00 -1.2186655874e-03 1.9529873599e+00 -3.3826733338e+00 1.9529873599e+00 3.3826733338e+00 
41700 6.7713194104e+00 -1.2302122153e-03 1.9530185600e+00 -3.3827273740e+00 1.9530185600e+00 3.3827273740e+00 
41800 6.7713190898e+00 -1.2392150021e-03 1.9530500552e+00 -3.3827819253e+00 1.9530500552e+00 3.3827819253e+00 
41900 6.7713187791e+00 -1.2457133124e-03 1.9530817804e+00 -3.3828368750e+00 1.9530817804e+00 3.3828368750e+00 
42000 6.7713184806e+00 -1.2497502877e-03 1.9531136715e+00 -3.3828921119e+00 1.9531136715e+00 3.3828921119e+00 
42100 6.7713181965e+00 -1.2513726847e-03 1.9531456653e+00 -3.3829475270e+00 1.9531456653e+00 3.3829475270e+00 
42200 6.7713179286e+00 -1.2506307091e-03 1.9531777002e+00 -3.3830030130e+00 1.9531777002e+00 3.3830030130e+00 
42300 6.7713176787e+00 -1.2475778466e-03 1.9532097156e+00 -3.3830584653e+00 1.9532097156e+00 3.3830584653e+00 
42400 6.7713174484e+00 -1.2422706922e-03 1.9532416523e+00 -3.3831137812e+00 1.9532416523e+00 3.3831137812e+00 
42500 6.7713172388e+00 -1.2347687761e-03 1.9532734526e+00 -3.3831688610e+00 1.9532734526e+00 3.3831688610e+00 
42600 6.7713170512e+00 -1.2251343883e-03 1.9533050604e+00 -3.3832236073e+00 1.9533050604e+00 3.3832236073e+00 
42700 6.7713168862e+00 -1.2134324020e-03 1.9533364210e+00 -3.3832779255e+00 1.9533364210e+00 3.3832779255e+00 
42800 6.7713167447e+00 -1.1997300958e-03 1.9533674816e+00 -3.3833317240e+00 1.9533674816e+00 3.3833317240e+00 
42900 6.7713166271e+00 -1.1840969744e-03 1.9533981910e+00 -3.3833849142e+00 1.9533981910e+00 3.3833849142e+00 
43000 6.7713165335e+00 -1.1666045902e-03 1.9534284997e+00 -3.3834374104e+00 1.9534284997e+00 3.3834374104e+00 
43100 6.7713164642e+00 -1.1473263639e-03 1.9534583602e+00 -3.3834891303e+00 1.9534583602e+00 3.3834891303e+00 
43200 6.7713164189e+00 -1.1263374059e-03 1.9534877268e+00 -3.3835399948e+00 1.9534877268e+00 3.3835399948e+00 
43300 6.7713163974e+00 -1.1037143381e-03 1.9535165558e+00 -3.3835899280e+00 1.9535165558e+00 3.3835899280e+00 
43400 6.7713163992e+00 -1.0795351169e-03 1.9535448053e+00 -3.3836388576e+00 1.9535448053e+00 3.3836388576e+00 
43500 6.7713164238e+00 -1.0538788575e-03 1.9535724355e+00 -3.3836867145e+00 1.9535724355e+00 3.3836867145e+00 
43600 6.7713164703e+00 -1.0268256593e-03 1.9535994087e+00 -3.3837334334e+00 1.9535994087e+00 3.3837334334e+00 
43700 6.7713165380e+00 -9.9845643431e-04 1.9536256891e+00 -3.3837789525e+00 1.9536256891e+00 3.3837789525e+00 
43800 6.7713166257e+00 -9.6885273646e-04 1.9536512431e+00 -3.3838232133e+00 1.9536512431e+00 3.3838232133e+00 
43900 6.7713167325e+00 -9.3809659439e-04 1.9536760391e+00 -3.3838661612e+00 1.9536760391e+00 3.3838661612e+00 
44000 6.7713168571e+00 -9.0627034653e-04 1.9537000476e+00 -3.3839077452e+00 1.9537000476e+00 3.3839077452e+00 
44100 6.7713169982e+00 -8.7345647927e-04 1.9537232414e+00 -3.3839479180e+00 1.9537232414e+00 3.3839479180e+00 
44200 6.7713171546e+00 -8.3973746848e-04 1.9537455950e+00 -3.3839866357e+00 1.9537455950e+00 3.3839866357e+00 
44300 6.7713173249e+00 -8.0519562446e-04 1.9537670855e+00 -3.3840238583e+00 1.9537670855e+00 3.3840238583e+00 
44400 6.7713175076e+00 -7.6991294062e-04 1.9537876918e+00 -3.3840595494e+00 1.9537876918e+00 3.3840595494e+00 
44500 6.7713177013e+00 -7.3397094612e-04 1.9538073949e+00 -3.3840936762e+00 1.9538073949e+00 3.3840936762e+00 
44600 6.7713179046e+00 -6.9745056265e-04 1.9538261780e+00 -3.3841262095e+00 1.9538261780e+00 3.3841262095e+00 
44700 6.7713181159e+00 -6.6043196551e-04 1.9538440264e+00 -3.3841571238e+00 1.9538440264e+00 3.3841571238e+00 
44800 6.7713183338e+00 -6.2299444925e-04 1.9538609273e+00 -3.3841863969e+00 1.9538609273e+00 3.3841863969e+00 
44900 6.7713185569e+00 -5.8521629792e-04 1.9538768699e+00 -3.3842140105e+00 1.9538768699e+00 3.3842140105e+00 
45000 6.7713187838e+00 -5.4717466020e-04 1.9538918457e+00 -3.3842399493e+00 1.9538918457e+00 3.3842399493e+00 
45100 6.7713190131e+00 -5.0894542941e-04 1.9539058479e+00 -3.3842642018e+00 1.9539058479e+00 3.3842642018e+00 
45200 6.7713192434e+00 -4.7060312868e-04 1.9539188717e+00 -3.3842867597e+00 1.9539188717e+00 3.3842867597e+00 
45300 6.7713194735e+00 -4.3222080129e-04 1.9539309143e+00 -3.3843076180e+00 1.9539309143e+00 3.3843076180e+00 
45400 6.7713197022e+00 -3.9386990630e-04 1.9539419746e+00 -3.3843267750e+00 1.9539419746e+00 3.3843267750e+00 
45500 6.7713199283e+00 -3.5562021955e-04 1.9539520534e+00 -3.3843442321e+00 1.9539520534e+00 3.3843442321e+00 
45600 6.7713201507e+00 -3.1753974015e-04 1.9539611535e+00 -3.3843599938e+00 1.9539611535e+00 3.3843599938e+00 
45700 6.7713203684e+00 -2.7969460247e-04 1.9539692790e+00 -3.3843740677e+00 1.9539692790e+00 3.3843740677e+00 
45800 6.7713205806e+00 -2.4214899372e-04 1.9539764361e+00 -3.3843864641e+00 1.9539764361e+00 3.3843864641e+00 
45900 6.7713207863e+00 -2.0496507708e-04 1.9539826324e+00 -3.3843971965e+00 1.9539826324e+00 3.3843971965e+00 
46000 6.7713209848e+00 -1.6820292054e-04 1.9539878772e+00 -3.3844062807e+00 1.9539878772e+00 3.3844062807e+00 
46100 6.7713211755e+00 -1.3192043134e-04 1.9539921813e+00 -3.3844137356e+00 1.9539921813e+00 3.3844137356e+00 
46200 6.7713213577e+00 -9.6173296046e-05 1.9539955570e+00 -3.3844195825e+00 1.9539955570e+00 3.3844195825e+00 
46300 6.7713215309e+00 -6.1014926288e-05 1.9539980179e+00 -3.3844238449e+00 1.9539980179e+00 3.3844238449e+00 
46400 6.7713216948e+00 -2.7815522736e-05 1.9539980179e+00 -3.3844238449e+00 1.9539980179e+00 3.3844238449e+00 
46500 6.7713218489e+00 5.4342516468e-06 1.9539980179e+00 -3.3844238449e+00 1.9539980179e+00 3.3844238449e+00 
46600 6.7713219931e+00 3.8677034750e-05 1.9539980179e+00 -3.3844238449e+00 1.9539980179e+00 3.3844238449e+00 
46700 6.7713221273e+00 7.1857022808e-05 1.9539980179e+00 -3.3844238449e+00 1.9539980179e+00 3.3844238449e+00 
46800 6.7713222513e+00 1.0336630340e-04 1.9539961792e+00 -3.3844206602e+00 1.9539961792e+00 3.3844206602e+00 
46900 6.7713223651e+00 1.3401610357e-04 1.9539935342e+00 -3.3844160789e+00 1.9539935342e+00 3.3844160789e+00 
47000 6.7713224688e+00 1.6377001085e-04 1.9539901049e+00 -3.3844101392e+00 1.9539901049e+00 3.3844101392e+00 
47100 6.7713225626e+00 1.9259412336e-04 1.9539859143e+00 -3.3844028808e+00 1.9539859143e+00 3.3844028808e+00 
47200 6.7713226467e+00 2.2045705547e-04 1.9539809860e+00 -3.3843943448e+00 1.9539809860e+00 3.3843943448e+00 
47300 6.7713227212e+00 2.4732993851e-04 1.9539753448e+00 -3.3843845740e+00 1.9539753448e+00 3.3843845740e+00 
47400 6.7713227865e+00 2.7318641674e-04 1.9539690159e+00 -3.3843736120e+00 1.9539690159e+00 3.3843736120e+00 
47500 6.7713228430e+00 2.9800263841e-04 1.9539620254e+00 -3.3843615040e+00 1.9539620254e+00 3.3843615040e+00 
47600 6.7713228911e+00 3.2175724235e-04 1.9539543998e+00 -3.3843482961e+00 1.9539543998e+00 3.3843482961e+00 
47700 6.7713229312e+00 3.4443134001e-04 1.9539461663e+00 -3.3843340353e+00 1.9539461663e+00 3.3843340353e+00 
47800 6.7713229638e+00 3.6600849325e-04 1.9539373526e+00 -3.3843187695e+00 1.9539373526e+00 3.3843187695e+00 
47900 6.7713229894e+00 3.8647468786e-04 1.9539279867e+00 -3.3843025472e+00 1.9539279867e+00 3.3843025472e+00 
48000 6.7713230085e+00 4.0581830306e-04 1.9539180970e+00 -3.3842854178e+00 1.9539180970e+00 3.3842854178e+00 
48100 6.7713230217e+00 4.2403007722e-04 1.9539077123e+00 -3.3842674309e+00 1.9539077123e+00 3.3842674309e+00 
48200 6.7713230295e+00 4.4110306972e-04 1.9538968614e+00 -3.3842486368e+00 1.9538968614e+00 3.3842486368e+00 
48300 6.7713230325e+00 4.5703261935e-04 1.9538855737e+00 -3.3842290858e+00 1.9538855737e+00 3.3842290858e+00 
48400 6.7713230313e+00 4.7181629930e-04 1.9538738782e+00 -3.3842088286e+00 1.9538738782e+00 3.3842088286e+00 
48500 6.7713230263e+00 4.8545386892e-04 1.9538618044e+00 -3.3841879161e+00 1.9538618044e+00 3.3841879161e+00 
48600 6.7713230183e+00 4.9794722242e-04 1.9538493814e+00 -3.3841663990e+00 1.9538493814e+00 3.3841663990e+00 
48700 6.7713230078e+00 5.0930033477e-04 1.9538366387e+00 -3.3841443280e+00 1.9538366387e+00 3.3841443280e+00 
48800 6.7713229952e+00 5.1951920479e-04 1.9538236054e+00 -3.3841217536e+00 1.9538236054e+00 3.3841217536e+00 
48900 6.7713229811e+00 5.2861179581e-04 1.9538103105e+00 -3.3840987261e+00 1.9538103105e+00 3.3840987261e+00 
49000 6.7713229660e+00 5.3658797395e-04 1.9537967828e+00 -3.3840752954e+00 1.9537967828e+00 3.3840752954e+00 
49100 6.7713229504e+00 5.4345944422e-04 1.9537830509e+00 -3.3840515111e+00 1.9537830509e+00 3.3840515111e+00 
49200 6.7713229348e+00 5.4923968465e-04 1.9537691430e+00 -3.3840274219e+00 1.9537691430e+00 3.3840274219e+00 
49300 6.7713229196e+00 5.5394387863e-04 1.9537550871e+00 -3.3840030764e+00 1.9537550871e+00 3.3840030764e+00 
49400 6.7713229051e+00 5.5758884553e-04 1.9537409108e+00 -3.3839785222e+00 1.9537409108e+00 3.3839785222e+00 
49500 6.7713228918e+00 5.6019296996e-04 1.9537266410e+00 -3.3839538063e+00 1.9537266410e+00 3.3839538063e+00 
49600 6.7713228800e+00 5.6177612965e-04 1.9537123045e+00 -3.3839289747e+00 1.9537123045e+00 3.3839289747e+00 
49700 6.7713228700e+00 5.6235962229e-04 1.9536979274e+00 -3.3839040728e+00 1.9536979274e+00 3.3839040728e+00 
49800 6.7713228620e+00 5.6196609138e-04 1.9536835352e+00 -3.3838791449e+00 1.9536835352e+00 3.3838791449e+00 
49900 6.7713228564e+00 5.6061945129e-04 1.9536691530e+00 -3.3838542342e+00 1.9536691530e+00 3.3838542342e+00 
50000 6.7713228532e+00 5.5834481173e-04 1.9536548051e+00 -3.3838293830e+00 1.9536548051e+00 3.3838293830e+00 
50100 6.7713228528e+00 5.5516840177e-04 1.9536405154e+00 -3.3838046324e+00 1.9536405154e+00 3.3838046324e+00 
50200 6.7713228551e+00 5.5111749349e-04 1.9536263069e+00 -3.3837800225e+00 1.9536263069e+00 3.3837800225e+00 
50300 6.7713228604e+00 5.4622032565e-04 1.9536122019e+00 -3.3837555920e+00 1.9536122019e+00 3.3837555920e+00 
50400 6.7713228686e+00 5.4050602715e-04 1.9535982222e+00 -3.3837313784e+00 1.9535982222e+00 3.3837313784e+00 
50500 6.7713228799e+00 5.3400454086e-04 1.9535843886e+00 -3.3837074179e+00 1.9535843886e+00 3.3837074179e+00 
50600 6.7713228942e+00 5.2674654758e-04 1.9535707213e+00 -3.3836837455e+00 1.9535707213e+00 3.3836837455e+00 
50700 6.7713229116e+00 5.1876339057e-04 1.9535572397e+00 -3.3836603946e+00 1.9535572397e+00 3.3836603946e+00 
50800 6.7713229319e+00 5.1008700055e-04 1.9535439623e+00 -3.3836373975e+00 1.9535439623e+00 3.3836373975e+00 
50900 6.7713229552e+00 5.0074982150e-04 1.9535309069e+00 -3.3836147849e+00 1.9535309069e+00 3.3836147849e+00 
51000 6.7713229813e+00 4.9078473718e-04 1.9535180904e+00 -3.3835925860e+00 1.9535180904e+00 3.3835925860e+00 
51100 6.7713230101e+00 4.8022499873e-04 1.9535055288e+00 -3.3835708288e+00 1.9535055288e+00 3.3835708288e+00 
51200 6.7713230414e+00 4.6910415322e-04 1.9534932375e+00 -3.3835495395e+00 1.9534932375e+00 3.3835495395e+00 
51300 6.7713230752e+00 4.5745597341e-04 1.9534812307e+00 -3.3835287431e+00 1.9534812307e+00 3.3835287431e+00 
51400 6.7713231113e+00 4.4531438888e-04 1.9534695219e+00 -3.3835084630e+00 1.9534695219e+00 3.3835084630e+00 
51500 6.7713231495e+00 4.3271341839e-04 1.9534581239e+00 -3.3834887211e+00 1.9534581239e+00 3.3834887211e+00 
51600 6.7713231896e+00 4.1968710383e-04 1.9534470483e+00 -3.3834695376e+00 1.9534470483e+00 3.3834695376e+00 
51700 6.7713232314e+00 4.0626944571e-04 1.9534363061e+00 -3.3834509316e+00 1.9534363061e+00 3.3834509316e+00 
51800 6.7713232748e+00 3.9249434031e-04 1.9534259073e+00 -3.3834329203e+00 1.9534259073e+00 3.3834329203e+00 
51900 6.7713233194e+00 3.7839551850e-04 1.9534158610e+00 -3.3834155196e+00 1.9534158610e+00 3.3834155196e+00 
52000 6.7713233651e+00 3.6400648647e-04 1.9534061755e+00 -3.3833987438e+00 1.9534061755e+00 3.3833987438e+00 
52100 6.7713234117e+00 3.4936046822e-04 1.9533968583e+00 -3.3833826059e+00 1.9533968583e+00 3.3833826059e+00 
52200 6.7713234590e+00 3.3449035013e-04 1.9533879159e+00 -3.3833671173e+00 1.9533879159e+00 3.3833671173e+00 
52300 6.7713235068e+00 3.1942862737e-04 1.9533793541e+00 -3.3833522878e+00 1.9533793541e+00 3.3833522878e+00 
52400 6.7713235548e+00 3.0420735245e-04 1.9533711778e+00 -3.3833381261e+00 1.9533711778e+00 3.3833381261e+00 
52500 6.7713236029e+00 2.8885808586e-04 1.9533633911e+00 -3.3833246391e+00 1.9533633911e+00 3.3833246391e+00 
52600 6.7713236509e+00 2.7341184884e-04 1.9533559973e+00 -3.3833118325e+00 1.9533559973e+00 3.3833118325e+00 
52700 6.7713236985e+00 2.5789907829e-04 1.9533489988e+00 -3.3832997107e+00 1.9533489988e+00 3.3832997107e+00 
52800 6.7713237457e+00 2.4234958394e-04 1.9533423973e+00 -3.3832882767e+00 1.9533423973e+00 3.3832882767e+00 
52900 6.7713237922e+00 2.2679250773e-04 1.9533361938e+00 -3.3832775320e+00 1.9533361938e+00 3.3832775320e+00 
53000 6.7713238379e+00 2.1125628544e-04 1.9533303886e+00 -3.3832674770e+00 1.9533303886e+00 3.3832674770e+00 
53100 6.7713238826e+00 1.9576861061e-04 1.9533249810e+00 -3.3832581108e+00 1.9533249810e+00 3.3832581108e+00 
53200 6.7713239263e+00 1.8035640071e-04 1.9533199698e+00 -3.3832494312e+00 1.9533199698e+00 3.3832494312e+00 
53300 6.7713239687e+00 1.6504576568e-04 1.9533153532e+00 -3.3832414349e+00 1.9533153532e+00 3.3832414349e+00 
53400 6.7713240099e+00 1.4986197867e-04 1.9533111284e+00 -3.3832341174e+00 1.9533111284e+00 3.3832341174e+00 
53500 6.7713240496e+00 1.3482944915e-04 1.9533072923e+00 -3.3832274731e+00 1.9533072923e+00 3.3832274731e+00 
53600 6.7713240879e+00 1.1997169828e-04 1.9533038410e+00 -3.3832214952e+00 1.9533038410e+00 3.3832214952e+00 
53700 6.7713241246e+00 1.0531133657e-04 1.9533007700e+00 -3.3832161761e+00 1.9533007700e+00 3.3832161761e+00 
53800 6.7713241597e+00 9.0870043784e-05 1.9532980743e+00 -3.3832115070e+00 1.9532980743e+00 3.3832115070e+00 
53900 6.7713241932e+00 7.6668551145e-05 1.9532957482e+00 -3.3832074781e+00 1.9532957482e+00 3.3832074781e+00 
54000 6.7713242250e+00 6.2726625708e-05 1.9532937857e+00 -3.3832040789e+00 1.9532937857e+00 3.3832040789e+00 
54100 6.7713242551e+00 5.0421529670e-05 1.9532937857e+00 -3.3832040789e+00 1.9532937857e+00 3.3832040789e+00 
54200 6.7713242835e+00 3.8124112487e-05 1.9532937857e+00 -3.3832040789e+00 1.9532937857e+00 3.3832040789e+00 
54300 6.7713243102e+00 2.5856324974e-05 1.9532937857e+00 -3.3832040789e+00 1.9532937857e+00 3.3832040789e+00 
54400 6.7713243352e+00 1.3639424472e-05 1.9532937857e+00 -3.3832040789e+00 1.9532937857e+00 3.3832040789e+00 
54500 6.7713243585e+00 1.4939535396e-06 1.9532937857e+00 -3.3832040789e+00 1.9532937857e+00 3.3832040789e+00 
54600 6.7713243803e+00 -1.0560279271e-05 1.9532937857e+00 -3.3832040789e+00 1.9532937857e+00 3.3832040789e+00 
54700 6.7713244005e+00 -2.2504216608e-05 1.9532937857e+00 -3.3832040789e+00 1.9532937857e+00 3.3832040789e+00 
54800 6.7713244193e+00 -3.4319567489e-05 1.9532937857e+00 -3.3832040789e+00 1.9532937857e+00 3.3832040789e+00 
54900 6.7713244367e+00 -4.5988820484e-05 1.9532937857e+00 -3.3832040789e+00 1.9532937857e+00 3.3832040789e+00 
55000 6.7713244527e+00 -5.7495254969e-05 1.9532937857e+00 -3.3832040789e+00 1.9532937857e+00 3.3832040789e+00 
55100 6.7713244676e+00 -6.8822950461e-05 1.9532937857e+00 -3.3832040789e+00 1.9532937857e+00 3.3832040789e+00 
55200 6.7713244813e+00 -7.9956794096e-05 1.9532937857e+00 -3.3832040789e+00 1.9532937857e+00 3.3832040789e+00 
55300 6.7713244938e+00 -8.9151148636e-05 1.9532958324e+00 -3.3832076239e+00 1.9532958324e+00 3.3832076239e+00 
55400 6.7713245052e+00 -9.7915314408e-05 1.9532981145e+00 -3.3832115766e+00 1.9532981145e+00 3.3832115766e+00 
55500 6.7713245157e+00 -1.0624441112e-04 1.9533006209e+00 -3.3832159178e+00 1.9533006209e+00 3.3832159178e+00 
55600 6.7713245253e+00 -1.1413449814e-04 1.9533033405e+00 -3.3832206283e+00 1.9533033405e+00 3.3832206283e+00 
55700 6.7713245342e+00 -1.2158255864e-04 1.9533062621e+00 -3.3832256886e+00 1.9533062621e+00 3.3832256886e+00 
55800 6.7713245424e+00 -1.2858648233e-04 1.9533093743e+00 -3.3832310792e+00 1.9533093743e+00 3.3832310792e+00 
55900 6.7713245500e+00 -1.3514504696e-04 1.9533126658e+00 -3.3832367802e+00 1.9533126658e+00 3.3832367802e+00 
56000 6.7713245571e+00 -1.4125789851e-04 1.9533161252e+00 -3.3832427720e+00 1.9533161252e+00 3.3832427720e+00 
56100 6.7713245637e+00 -1.4692553031e-04 1.9533197410e+00 -3.3832490349e+00 1.9533197410e+00 3.3832490349e+00 
56200 6.7713245701e+00 -1.5214926100e-04 1.9533235019e+00 -3.3832555490e+00 1.9533235019e+00 3.3832555490e+00 
56300 6.7713245762e+00 -1.5693121145e-04 1.9533273966e+00 -3.3832622947e+00 1.9533273966e+00 3.3832622947e+00 
56400 6.7713245822e+00 -1.6127428081e-04 1.9533314136e+00 -3.3832692524e+00 1.9533314136e+00 3.3832692524e+00 
56500 6.7713245880e+00 -1.6518212155e-04 1.9533355418e+00 -3.3832764026e+00 1.9533355418e+00 3.3832764026e+00 
56600 6.7713245938e+00 -1.6865911380e-04 1.9533397700e+00 -3.3832837261e+00 1.9533397700e+00 3.3832837261e+00 
56700 6.7713245997e+00 -1.7171033883e-04 1.9533440872e+00 -3.3832912037e+00 1.9533440872e+00 3.3832912037e+00 
56800 6.7713246057e+00 -1.7434155194e-04 1.9533484825e+00 -3.3832988165e+00 1.9533484825e+00 3.3832988165e+00 
56900 6.7713246118e+00 -1.7655915466e-04 1.9533529451e+00 -3.3833065461e+00 1.9533529451e+00 3.3833065461e+00 
57000 6.7713246182e+00 -1.7837016649e-04 1.9533574645e+00 -3.3833143739e+00 1.9533574645e+00 3.3833143739e+00 
57100 6.7713246248e+00 -1.7978219603e-04 1.9533620302e+00 -3.3833222819e+00 1.9533620302e+00 3.3833222819e+00 
57200 6.7713246317e+00 -1.8080341186e-04 1.9533666321e+00 -3.3833302526e+00 1.9533666321e+00 3.3833302526e+00 
57300 6.7713246390e+00 -1.8144251293e-04 1.9533712601e+00 -3.3833382685e+00 1.9533712601e+00 3.3833382685e+00 
57400 6.7713246466e+00 -1.8170869874e-04 1.9533759044e+00 -3.3833463128e+00 1.9533759044e+00 3.3833463128e+00 
57500 6.7713246546e+00 -1.8161163929e-04 1.9533805556e+00 -3.3833543688e+00 1.9533805556e+00 3.3833543688e+00 
57600 6.7713246630e+00 -1.8116144489e-04 1.9533852042e+00 -3.3833624205e+00 1.9533852042e+00 3.3833624205e+00 
57700 6.7713246718e+00 -1.8036863582e-04 1.9533898414e+00 -3.3833704522e+00 1.9533898414e+00 3.3833704522e+00 
57800 6.7713246810e+00 -1.7924411199e-04 1.9533944582e+00 -3.3833784488e+00 1.9533944582e+00 3.3833784488e+00 
57900 6.7713246907e+00 -1.7779912268e-04 1.9533990462e+00 -3.3833863955e+00 1.9533990462e+00 3.3833863955e+00 
58000 6.7713247008e+00 -1.7604523624e-04 1.9534035972e+00 -3.3833942781e+00 1.9534035972e+00 3.3833942781e+00 
58100 6.7713247113e+00 -1.7399431002e-04 1.9534081033e+00 -3.3834020829e+00 1.9534081033e+00 3.3834020829e+00 
58200 6.7713247222e+00 -1.7165846046e-04 1.9534125569e+00 -3.3834097968e+00 1.9534125569e+00 3.3834097968e+00 
58300 6.7713247335e+00 -1.6905003343e-04 1.9534169508e+00 -3.3834174071e+00 1.9534169508e+00 3.3834174071e+00 
58400 6.7713247452e+00 -1.6618157488e-04 1.9534212778e+00 -3.3834249017e+00 1.9534212778e+00 3.3834249017e+00 
58500 6.7713247573e+00 -1.6306580175e-04 1.9534255314e+00 -3.3834322692e+00 1.9534255314e+00 3.3834322692e+00 
58600 6.7713247697e+00 -1.5971557343e-04 1.9534297052e+00 -3.3834394985e+00 1.9534297052e+00 3.3834394985e+00 
58700 6.7713247824e+00 -1.5614386346e-04 1.9534337933e+00 -3.3834465792e+00 1.9534337933e+00 3.3834465792e+00 
58800 6.7713247954e+00 -1.5236373189e-04 1.9534377900e+00 -3.3834535017e+00 1.9534377900e+00 3.3834535017e+00 
58900 6.7713248086e+00 -1.4838829804e-04 1.9534416899e+00 -3.3834602565e+00 1.9534416899e+00 3.3834602565e+00 
59000 6.7713248221e+00 -1.4423071386e-04 1.9534454880e+00 -3.3834668350e+00 1.9534454880e+00 3.3834668350e+00 
59100 6.7713248357e+00 -1.3990413792e-04 1.9534491797e+00 -3.3834732292e+00 1.9534491797e+00 3.3834732292e+00 
59200 6.7713248495e+00 -1.3542170994e-04 1.9534527606e+00 -3.3834794316e+00 1.9534527606e+00 3.3834794316e+00 
59300 6.7713248635e+00 -1.3079652611e-04 1.9534562269e+00 -3.3834854353e+00 1.9534562269e+00 3.3834854353e+00 
59400 6.7713248775e+00 -1.2604161501e-04 1.9534595747e+00 -3.3834912339e+00 1.9534595747e+00 3.3834912339e+00 
59500 6.7713248915e+00 -1.2116991429e-04 1.9534628008e+00 -3.3834968217e+00 1.9534628008e+00 3.3834968217e+00 
59600 6.7713249056e+00 -1.1619424811e-04 1.9534659022e+00 -3.3835021935e+00 1.9534659022e+00 3.3835021935e+00 
59700 6.7713249196e+00 -1.1112730535e-04 1.9534688763e+00 -3.3835073447e+00 1.9534688763e+00 3.3835073447e+00 
59800 6.7713249336e+00 -1.0598161864e-04 1.9534717206e+00 -3.3835122713e+00 1.9534717206e+00 3.3835122713e+00 
59900 6.7713249475e+00 -1.0076954414e-04 1.9534744333e+00 -3.3835169697e+00 1.9534744333e+00 3.3835169697e+00 
60000 6.7713249613e+00 -9.5503242296e-05 1.9534770125e+00 -3.3835214371e+00 1.9534770125e+00 3.3835214371e+00 
60100 6.7713249749e+00 -9.0194659311e-05 1.9534794570e+00 -3.3835256710e+00 1.9534794570e+00 3.3835256710e+00 
60200 6.7713249884e+00 -8.4855509570e-05 1.9534817655e+00 -3.3835296695e+00 1.9534817655e+00 3.3835296695e+00 
60300 6.7713250016e+00 -7.9497258935e-05 1.9534839374e+00 -3.3835334314e+00 1.9534839374e+00 3.3835334314e+00 
60400 6.7713250147e+00 -7.4131108923e-05 1.9534859722e+00 -3.3835369557e+00 1.9534859722e+00 3.3835369557e+00 
60500 6.7713250275e+00 -6.8767981795e-05 1.9534878696e+00 -3.3835402421e+00 1.9534878696e+00 3.3835402421e+00 
60600 6.7713250401e+00 -6.4906856024e-05 1.9534878696e+00 -3.3835402421e+00 1.9534878696e+00 3.3835402421e+00 
60700 6.7713250524e+00 -6.0962121019e-05 1.9534878696e+00 -3.3835402421e+00 1.9534878696e+00 3.3835402421e+00 
60800 6.7713250644e+00 -5.6944045878e-05 1.9534878696e+00 -3.3835402421e+00 1.9534878696e+00 3.3835402421e+00 
60900 6.7713250760e+00 -5.2862746340e-05 1.9534878696e+00 -3.3835402421e+00 1.9534878696e+00 3.3835402421e+00 
61000 6.7713250873e+00 -4.8728168834e-05 1.9534878696e+00 -3.3835402421e+00 1.9534878696e+00 3.3835402421e+00 
61100 6.7713250982e+00 -4.4550075371e-05 1.9534878696e+00 -3.3835402421e+00 1.9534878696e+00 3.3835402421e+00 
61200 6.7713251087e+00 -4.0338029290e-05 1.9534878696e+00 -3.3835402421e+00 1.9534878696e+00 3.3835402421e+00 
61300 6.7713251189e+00 -3.6101381854e-05 1.9534878696e+00 -3.3835402421e+00 1.9534878696e+00 3.3835402421e+00 
61400 6.7713251287e+00 -3.1849259653e-05 1.9534878696e+00 -3.3835402421e+00 1.9534878696e+00 3.3835402421e+00 
61500 6.7713251382e+00 -2.7590552893e-05 1.9534878696e+00 -3.3835402421e+00 1.9534878696e+00 3.3835402421e+00 
61600 6.7713251473e+00 -2.3333904488e-05 1.9534878696e+00 -3.3835402421e+00 1.9534878696e+00 3.3835402421e+00 
61700 6.7713251560e+00 -1.9087700016e-05 1.9534878696e+00 -3.3835402421e+00 1.9534878696e+00 3.3835402421e+00 
61800 6.7713251644e+00 -1.4860058460e-05 1.9534878696e+00 -3.3835402421e+00 1.9534878696e+00 3.3835402421e+00 
61900 6.7713251725e+00 -1.0658823810e-05 1.9534878696e+00 -3.3835402421e+00 1.9534878696e+00 3.3835402421e+00 
62000 6.7713251802e+00 -6.4915574526e-06 1.9534878696e+00 -3.3835402421e+00 1.9534878696e+00 3.3835402421e+00 
62100 6.7713251876e+00 -2.3655313553e-06 1.9534878696e+00 -3.3835402421e+00 1.9534878696e+00 3.3835402421e+00 
62200 6.7713251948e+00 1.7122779459e-06 1.9534878696e+00 -3.3835402421e+00 1.9534878696e+00 3.3835402421e+00 
62300 6.7713252016e+00 5.7351945967e-06 1.9534878696e+00 -3.3835402421e+00 1.9534878696e+00 3.3835402421e+00 
62400 6.7713252081e+00 9.6968478985e-06 1.9534878696e+00 -3.3835402421e+00 1.9534878696e+00 3.3835402421e+00 
62500 6.7713252144e+00 1.3591176058e-05 1.9534878696e+00 -3.3835402421e+00 1.9534878696e+00 3.3835402421e+00 
62600 6.7713252205e+00 1.7412429177e-05 1.9534878696e+00 -3.3835402421e+00 1.9534878696e+00 3.3835402421e+00 
62700 6.7713252263e+00 2.1155171555e-05 1.9534878696e+00 -3.3835402421e+00 1.9534878696e+00 3.3835402421e+00 
62800 6.7713252319e+00 2.4814283269e-05 1.9534878696e+00 -3.3835402421e+00 1.9534878696e+00 3.3835402421e+00 
62900 6.7713252374e+00 2.8384961094e-05 1.9534878696e+00 -3.3835402421e+00 1.9534878696e+00 3.3835402421e+00 
63000 6.7713252426e+00 3.1862718745e-05 1.9534878696e+00 -3.3835402421e+00 1.9534878696e+00 3.3835402421e+00 
63100 6.7713252477e+00 3.5243386500e-05 1.9534878696e+00 -3.3835402421e+00 1.9534878696e+00 3.3835402421e+00 
63200 6.7713252526e+00 3.8523110180e-05 1.9534878696e+00 -3.3835402421e+00 1.9534878696e+00 3.3835402421e+00 
63300 6.7713252574e+00 4.1698349536e-05 1.9534878696e+00 -3.3835402421e+00 1.9534878696e+00 3.3835402421e+00 
63400 6.7713252621e+00 4.4765876069e-05 1.9534878696e+00 -3.3835402421e+00 1.9534878696e+00 3.3835402421e+00 
63500 6.7713252667e+00 4.7722770279e-05 1.9534878696e+00 -3.3835402421e+00 1.9534878696e+00 3.3835402421e+00 
63600 6.7713252712e+00 5.0566418387e-05 1.9534878696e+00 -3.3835402421e+00 1.9534878696e+00 3.3835402421e+00 
63700 6.7713252756e+00 5.3294508536e-05 1.9534878696e+00 -3.3835402421e+00 1.9534878696e+00 3.3835402421e+00 
63800 6.7713252799e+00 5.5905026511e-05 1.9534878696e+00 -3.3835402421e+00 1.9534878696e+00 3.3835402421e+00 
63900 6.7713252843e+00 5.8396251000e-05 1.9534878696e+00 -3.3835402421e+00 1.9534878696e+00 3.3835402421e+00 
64000 6.7713252885e+00 6.0766748390e-05 1.9534878696e+00 -3.3835402421e+00 1.9534878696e+00 3.3835402421e+00 
64100 6.7713252928e+00 6.3015367169e-05 1.9534878696e+00 -3.3835402421e+00 1.9534878696e+00 3.3835402421e+00 
64200 6.7713252970e+00 6.5141231915e-05 1.9534878696e+00 -3.3835402421e+00 1.9534878696e+00 3.3835402421e+00 
64300 6.7713253012e+00 6.7143736917e-05 1.9534878696e+00 -3.3835402421e+00 1.9534878696e+00 3.3835402421e+00 
64400 6.7713253054e+00 6.9022539458e-05 1.9534878696e+00 -3.3835402421e+00 1.9534878696e+00 3.3835402421e+00 
64500 6.7713253096e+00 7.0777552759e-05 1.9534878696e+00 -3.3835402421e+00 1.9534878696e+00 3.3835402421e+00 
64600 6.7713253137e+00 7.0876878471e-05 1.9534860580e+00 -3.3835371044e+00 1.9534860580e+00 3.3835371044e+00 
64700 6.7713253178e+00 7.0842394498e-05 1.9534842439e+00 -3.3835339622e+00 1.9534842439e+00 3.3835339622e+00 
64800 6.7713253219e+00 7.0677227755e-05 1.9534824307e+00 -3.3835308216e+00 1.9534824307e+00 3.3835308216e+00 
64900 6.7713253261e+00 7.1914599863e-05 1.9534824307e+00 -3.3835308216e+00 1.9534824307e+00 3.3835308216e+00 
65000 6.7713253302e+00 7.1473485048e-05 1.9534805900e+00 -3.3835276335e+00 1.9534805900e+00 3.3835276335e+00 
65100 6.7713253344e+00 7.0912885624e-05 1.9534787606e+00 -3.3835244649e+00 1.9534787606e+00 3.3835244649e+00 
65200 6.7713253386e+00 7.0236570722e-05 1.9534769456e+00 -3.3835213211e+00 1.9534769456e+00 3.3835213211e+00 
65300 6.7713253430e+00 7.0968839370e-05 1.9534769456e+00 -3.3835213211e+00 1.9534769456e+00 3.3835213211e+00 
65400 6.7713253472e+00 7.0048411281e-05 1.9534751291e+00 -3.3835181749e+00 1.9534751291e+00 3.3835181749e+00 
65500 6.7713253516e+00 7.0541440649e-05 1.9534751291e+00 -3.3835181749e+00 1.9534751291e+00 3.3835181749e+00 
65600 6.7713253561e+00 7.0922032725e-05 1.9534751291e+00 -3.3835181749e+00 1.9534751291e+00 3.3835181749e+00 
65700 6.7713253604e+00 6.9657418960e-05 1.9534733138e+00 -3.3835150308e+00 1.9534733138e+00 3.3835150308e+00 
65800 6.7713253649e+00 6.9812230031e-05 1.9534733138e+00 -3.3835150308e+00 1.9534733138e+00 3.3835150308e+00 
65900 6.7713253694e+00 6.9862033803e-05 1.9534733138e+00 -3.3835150308e+00 1.9534733138e+00 3.3835150308e+00 
66000 6.7713253739e+00 6.9809724371e-05 1.9534733138e+00 -3.3835150308e+00 1.9534733138e+00 3.3835150308e+00 
66100 6.7713253784e+00 6.9658316804e-05 1.9534733138e+00 -3.3835150308e+00 1.9534733138e+00 3.3835150308e+00 
66200 6.7713253830e+00 6.9410937480e-05 1.9534733138e+00 -3.3835150308e+00 1.9534733138e+00 3.3835150308e+00 
66300 6.7713253875e+00 6.9070814512e-05 1.9534733138e+00 -3.3835150308e+00 1.9534733138e+00 3.3835150308e+00 
66400 6.7713253921e+00 6.8641268229e-05 1.9534733138e+00 -3.3835150308e+00 1.9534733138e+00 3.3835150308e+00 
66500 6.7713253966e+00 6.8125701791e-05 1.9534733138e+00 -3.3835150308e+00 1.9534733138e+00 3.3835150308e+00 
66600 6.7713254011e+00 6.7527591895e-05 1.9534733138e+00 -3.3835150308e+00 1.9534733138e+00 3.3835150308e+00 
66700 6.7713254057e+00 6.6850479619e-05 1.9534733138e+00 -3.3835150308e+00 1.9534733138e+00 3.3835150308e+00 
66800 6.7713254101e+00 6.6097961430e-05 1.9534733138e+00 -3.3835150308e+00 1.9534733138e+00 3.3835150308e+00 
66900 6.7713254146e+00 6.5273680314e-05 1.9534733138e+00 -3.3835150308e+00 1.9534733138e+00 3.3835150308e+00 
67000 6.7713254190e+00 6.4381317111e-05 1.9534733138e+00 -3.3835150308e+00 1.9534733138e+00 3.3835150308e+00 
67100 6.7713254234e+00 6.3424582017e-05 1.9534733138e+00 -3.3835150308e+00 1.9534733138e+00 3.3835150308e+00 
67200 6.7713254278e+00 6.2407206276e-05 1.9534733138e+00 -3.3835150308e+00 1.9534733138e+00 3.3835150308e+00 
67300 6.7713254321e+00 6.1332934088e-05 1.9534733138e+00 -3.3835150308e+00 1.9534733138e+00 3.3835150308e+00 
67400 6.7713254364e+00 6.0205514719e-05 1.9534733138e+00 -3.3835150308e+00 1.9534733138e+00 3.3835150308e+00 
67500 6.7713254406e+00 5.9028694845e-05 1.9534733138e+00 -3.3835150308e+00 1.9534733138e+00 3.3835150308e+00 
67600 6.7713254448e+00 5.7806211128e-05 1.9534733138e+00 -3.3835150308e+00 1.9534733138e+00 3.3835150308e+00 
67700 6.7713254489e+00 5.6541783012e-05 1.9534733138e+00 -3.3835150308e+00 1.9534733138e+00 3.3835150308e+00 
67800 6.7713254530e+00 5.5239105789e-05 1.9534733138e+00 -3.3835150308e+00 1.9534733138e+00 3.3835150308e+00 
67900 6.7713254570e+00 5.3901843906e-05 1.9534733138e+00 -3.3835150308e+00 1.9534733138e+00 3.3835150308e+00 
68000 6.7713254609e+00 5.2533624532e-05 1.9534733138e+00 -3.3835150308e+00 1.9534733138e+00 3.3835150308e+00 
68100 6.7713254648e+00 5.1138031390e-05 1.9534733138e+00 -3.3835150308e+00 1.9534733138e+00 3.3835150308e+00 
68200 6.7713254686e+00 4.9718598849e-05 1.9534733138e+00 -3.3835150308e+00 1.9534733138e+00 3.3835150308e+00 
68300 6.7713254723e+00 4.8278806302e-05 1.9534733138e+00 -3.3835150308e+00 1.9534733138e+00 3.3835150308e+00 
68400 6.7713254759e+00 4.6822072808e-05 1.9534733138e+00 -3.3835150308e+00 1.9534733138e+00 3.3835150308e+00 
68500 6.7713254795e+00 4.5351752004e-05 1.9534733138e+00 -3.3835150308e+00 1.9534733138e+00 3.3835150308e+00 
68600 6.7713254830e+00 4.3871127320e-05 1.9534733138e+00 -3.3835150308e+00 1.9534733138e+00 3.3835150308e+00 
68700 6.7713254865e+00 4.2383407441e-05 1.9534733138e+00 -3.3835150308e+00 1.9534733138e+00 3.3835150308e+00 
68800 6.7713254899e+00 4.0891722087e-05 1.9534733138e+00 -3.3835150308e+00 1.9534733138e+00 3.3835150308e+00 
68900 6.7713254932e+00 3.9399118039e-05 1.9534733138e+00 -3.3835150308e+00 1.9534733138e+00 3.3835150308e+00 
69000 6.7713254964e+00 3.7908555464e-05 1.9534733138e+00 -3.3835150308e+00 1.9534733138e+00 3.3835150308e+00 
69100 6.7713254996e+00 3.6422904526e-05 1.9534733138e+00 -3.3835150308e+00 1.9534733138e+00 3.3835150308e+00 
69200 6.7713255027e+00 3.4944942249e-05 1.9534733138e+00 -3.3835150308e+00 1.9534733138e+00 3.3835150308e+00 
69300 6.7713255057e+00 3.3477349686e-05 1.9534733138e+00 -3.3835150308e+00 1.9534733138e+00 3.3835150308e+00 
69400 6.7713255087e+00 3.2022709341e-05 1.9534733138e+00 -3.3835150308e+00 1.9534733138e+00 3.3835150308e+00 
69500 6.7713255116e+00 3.0583502868e-05 1.9534733138e+00 -3.3835150308e+00 1.9534733138e+00 3.3835150308e+00 
69600 6.7713255144e+00 2.9162109041e-05 1.9534733138e+00 -3.3835150308e+00 1.9534733138e+00 3.3835150308e+00 
69700 6.7713255172e+00 2.7760801982e-05 1.9534733138e+00 -3.3835150308e+00 1.9534733138e+00 3.3835150308e+00 
69800 6.7713255199e+00 2.6381749647e-05 1.9534733138e+00 -3.3835150308e+00 1.9534733138e+00 3.3835150308e+00 
69900 6.7713255226e+00 2.5027012578e-05 1.9534733138e+00 -3.3835150308e+00 1.9534733138e+00 3.3835150308e+00 
70000 6.7713255252e+00 2.3698542887e-05 1.9534733138e+00 -3.3835150308e+00 1.9534733138e+00 3.3835150308e+00 
70100 6.7713255278e+00 2.2398183501e-05 1.9534733138e+00 -3.3835150308e+00 1.9534733138e+00 3.3835150308e+00 
70200 6.7713255303e+00 2.1127667635e-05 1.9534733138e+00 -3.3835150308e+00 1.9534733138e+00 3.3835150308e+00 
70300 6.7713255328e+00 1.9888618501e-05 1.9534733138e+00 -3.3835150308e+00 1.9534733138e+00 3.3835150308e+00 
70400 6.7713255352e+00 1.8682549247e-05 1.9534733138e+00 -3.3835150308e+00 1.9534733138e+00 3.3835150308e+00 
70500 6.7713255376e+00 1.7510863116e-05 1.9534733138e+00 -3.3835150308e+00 1.9534733138e+00 3.3835150308e+00 
70600 6.7713255399e+00 1.6374853807e-05 1.9534733138e+00 -3.3835150308e+00 1.9534733138e+00 3.3835150308e+00 
70700 6.7713255422e+00 1.5275706061e-05 1.9534733138e+00 -3.3835150308e+00 1.9534733138e+00 3.3835150308e+00 
70800 6.7713255445e+00 1.4214496434e-05 1.9534733138e+00 -3.3835150308e+00 1.9534733138e+00 3.3835150308e+00 
70900 6.7713255467e+00 1.3192194262e-05 1.9534733138e+00 -3.3835150308e+00 1.9534733138e+00 3.3835150308e+00 
71000 6.7713255489e+00 1.2209662818e-05 1.9534733138e+00 -3.3835150308e+00 1.9534733138e+00 3.3835150308e+00 
71100 6.7713255511e+00 1.1267660638e-05 1.9534733138e+00 -3.3835150308e+00 1.9534733138e+00 3.3835150308e+00 
71200 6.7713255532e+00 1.0366843028e-05 1.9534733138e+00 -3.3835150308e+00 1.9534733138e+00 3.3835150308e+00 
71300 6.7713255553e+00 9.5077637124e-06 1.9534733138e+00 -3.3835150308e+00 1.9534733138e+00 3.3835150308e+00 
71400 6.7713255574e+00 8.6908766607e-06 1.9534733138e+00 -3.3835150308e+00 1.9534733138e+00 3.3835150308e+00 
71500 6.7713255595e+00 7.9165380372e-06 1.9534733138e+00 -3.3835150308e+00 1.9534733138e+00 3.3835150308e+00 
71600 6.7713255615e+00 7.1850082998e-06 1.9534733138e+00 -3.3835150308e+00 1.9534733138e+00 3.3835150308e+00 
71700 6.7713255636e+00 6.4964544317e-06 1.9534733138e+00 -3.3835150308e+00 1.9534733138e+00 3.3835150308e+00 
71800 6.7713255656e+00 5.8509522820e-06 1.9534733138e+00 -3.3835150308e+00 1.9534733138e+00 3.3835150308e+00 
71900 6.7713255676e+00 5.2484890305e-06 1.9534733138e+00 -3.3835150308e+00 1.9534733138e+00 3.3835150308e+00 
72000 6.7713255695e+00 4.6889657434e-06 1.9534733138e+00 -3.3835150308e+00 1.9534733138e+00 3.3835150308e+00 
72100 6.7713255715e+00 4.1722000510e-06 1.9534733138e+00 -3.3835150308e+00 1.9534733138e+00 3.3835150308e+00 
72200 6.7713255734e+00 3.6979288822e-06 1.9534733138e+00 -3.3835150308e+00 1.9534733138e+00 3.3835150308e+00 
72300 6.7713255753e+00 3.2658113031e-06 1.9534733138e+00 -3.3835150308e+00 1.9534733138e+00 3.3835150308e+00 
72400 6.7713255772e+00 2.8754314222e-06 1.9534733138e+00 -3.3835150308e+00 1.9534733138e+00 3.3835150308e+00 
72500 6.7713255791e+00 2.5263013572e-06 1.9534733138e+00 -3.3835150308e+00 1.9534733138e+00 3.3835150308e+00 
72600 6.7713255810e+00 2.2178642589e-06 1.9534733138e+00 -3.3835150308e+00 1.9534733138e+00 3.3835150308e+00 
72700 6.7713255829e+00 1.9494973895e-06 1.9534733138e+00 -3.3835150308e+00 1.9534733138e+00 3.3835150308e+00 
72800 6.7713255847e+00 1.7205152420e-06 1.9534733138e+00 -3.3835150308e+00 1.9534733138e+00 3.3835150308e+00 
72900 6.7713255865e+00 1.5301726923e-06 1.9534733138e+00 -3.3835150308e+00 1.9534733138e+00 3.3835150308e+00 
73000 6.7713255884e+00 1.3776681767e-06 1.9534733138e+00 -3.3835150308e+00 1.9534733138e+00 3.3835150308e+00 
73100 6.7713255902e+00 1.2621468957e-06 1.9534733138e+00 -3.3835150308e+00 1.9534733138e+00 3.3835150308e+00 
73200 6.7713255920e+00 1.1827040265e-06 1.9534733138e+00 -3.3835150308e+00 1.9534733138e+00 3.3835150308e+00 
73300 6.7713255938e+00 1.1383879455e-06 1.9534733138e+00 -3.3835150308e+00 1.9534733138e+00 3.3835150308e+00 
73400 6.7713255955e+00 1.1282034534e-06 1.9534733138e+00 -3.3835150308e+00 1.9534733138e+00 3.3835150308e+00 
73500 6.7713255973e+00 1.1511149811e-06 1.9534733138e+00 -3.3835150308e+00 1.9534733138e+00 3.3835150308e+00 
73600 6.7713255990e+00 1.2060498097e-06 1.9534733138e+00 -3.3835150308e+00 1.9534733138e+00 3.3835150308e+00 
73700 6.7713256008e+00 1.2919012336e-06 1.9534733138e+00 -3.3835150308e+00 1.9534733138e+00 3.3835150308e+00 
73800 6.7713256025e+00 1.4075317418e-06 1.9534733138e+00 -3.3835150308e+00 1.9534733138e+00 3.3835150308e+00 
73900 6.7713256042e+00 1.5517761425e-06 1.9534733138e+00 -3.3835150308e+00 1.9534733138e+00 3.3835150308e+00 
74000 6.7713256059e+00 1.7234446576e-06 1.9534733138e+00 -3.3835150308e+00 1.9534733138e+00 3.3835150308e+00 
74100 6.7713256075e+00 1.9213259820e-06 1.9534733138e+00 -3.3835150308e+00 1.9534733138e+00 3.3835150308e+00 
74200 6.7713256092e+00 2.1441902994e-06 1.9534733138e+00 -3.3835150308e+00 1.9534733138e+00 3.3835150308e+00 
74300 6.7713256108e+00 2.3907922450e-06 1.9534733138e+00 -3.3835150308e+00 1.9534733138e+00 3.3835150308e+00 
74400 6.7713256124e+00 2.6598738098e-06 1.9534733138e+00 -3.3835150308e+00 1.9534733138e+00 3.3835150308e+00 
74500 6.7713256140e+00 2.9501671965e-06 1.9534733138e+00 -3.3835150308e+00 1.9534733138e+00 3.3835150308e+00 
74600 6.7713256156e+00 3.2603976094e-06 1.9534733138e+00 -3.3835150308e+00 1.9534733138e+00 3.3835150308e+00 
74700 6.7713256172e+00 3.5892859777e-06 1.9534733138e+00 -3.3835150308e+00 1.9534733138e+00 3.3835150308e+00 
74800 6.7713256187e+00 3.9355516082e-06 1.9534733138e+00 -3.3835150308e+00 1.9534733138e+00 3.3835150308e+00 
74900 6.7713256203e+00 4.2979147709e-06 1.9534733138e+00 -3.3835150308e+00 1.9534733138e+00 3.3835150308e+00 
75000 6.7713256218e+00 4.6750992082e-06 1.9534733138e+00 -3.3835150308e+00 1.9534733138e+00 3.3835150308e+00 
75100 6.7713256233e+00 5.0658345541e-06 1.9534733138e+00 -3.3835150308e+00 1.9534733138e+00 3.3835150308e+00 
75200 6.7713256247e+00 5.4688586945e-06 1.9534733138e+00 -3.3835150308e+00 1.9534733138e+00 3.3835150308e+00 
75300 6.7713256262e+00 5.8829200258e-06 1.9534733138e+00 -3.3835150308e+00 1.9534733138e+00 3.3835150308e+00 
75400 6.7713256276e+00 6.3067796349e-06 1.9534733138e+00 -3.3835150308e+00 1.9534733138e+00 3.3835150308e+00 
75500 6.7713256291e+00 6.7392133979e-06 1.9534733138e+00 -3.3835150308e+00 1.9534733138e+00 3.3835150308e+00 
75600 6.7713256305e+00 7.1790139776e-06 1.9534733138e+00 -3.3835150308e+00 1.9534733138e+00 3.3835150308e+00 
75700 6.7713256318e+00 7.6249927467e-06 1.9534733138e+00 -3.3835150308e+00 1.9534733138e+00 3.3835150308e+00 
75800 6.7713256332e+00 8.0759816012e-06 1.9534733138e+00 -3.3835150308e+00 1.9534733138e+00 3.3835150308e+00 
75900 6.7713256345e+00 8.5308346988e-06 1.9534733138e+00 -3.3835150308e+00 1.9534733138e+00 3.3835150308e+00 
76000 6.7713256359e+00 8.9884301046e-06 1.9534733138e+00 -3.3835150308e+00 1.9534733138e+00 3.3835150308e+00 
76100 6.7713256372e+00 9.4476713182e-06 1.9534733138e+00 -3.3835150308e+00 1.9534733138e+00 3.3835150308e+00 
76200 6.7713256385e+00 9.9074887403e-06 1.9534733138e+00 -3.3835150308e+00 1.9534733138e+00 3.3835150308e+00 
76300 6.7713256397e+00 1.0366841027e-05 1.9534733138e+00 -3.3835150308e+00 1.9534733138e+00 3.3835150308e+00 
76400 6.7713256410e+00 1.0824716347e-05 1.9534733138e+00 -3.3835150308e+00 1.9534733138e+00 3.3835150308e+00 
76500 6.7713256422e+00 1.1280133559e-05 1.9534733138e+00 -3.3835150308e+00 1.9534733138e+00 3.3835150308e+00 
76600 6.7713256434e+00 1.1732143284e-05 1.9534733138e+00 -3.3835150308e+00 1.9534733138e+00 3.3835150308e+00 
76700 6.7713256446e+00 1.2179828892e-05 1.9534733138e+00 -3.3835150308e+00 1.9534733138e+00 3.3835150308e+00 
76800 6.7713256458e+00 1.2622307388e-05 1.9534733138e+00 -3.3835150308e+00 1.9534733138e+00 3.3835150308e+00 
76900 6.7713256469e+00 1.3058730218e-05 1.9534733138e+00 -3.3835150308e+00 1.9534733138e+00 3.3835150308e+00 
77000 6.7713256481e+00 1.3488283974e-05 1.9534733138e+00 -3.3835150308e+00 1.9534733138e+00 3.3835150308e+00 
77100 6.7713256492e+00 1.3910191018e-05 1.9534733138e+00 -3.3835150308e+00 1.9534733138e+00 3.3835150308e+00 
77200 6.7713256503e+00 1.4323710016e-05 1.9534733138e+00 -3.3835150308e+00 1.9534733138e+00 3.3835150308e+00 
77300 6.7713256514e+00 1.4728136383e-05 1.9534733138e+00 -3.3835150308e+00 1.9534733138e+00 3.3835150308e+00 
77400 6.7713256525e+00 1.5122802644e-05 1.9534733138e+00 -3.3835150308e+00 1.9534733138e+00 3.3835150308e+00 
77500 6.7713256536e+00 1.5507078717e-05 1.9534733138e+00 -3.3835150308e+00 1.9534733138e+00 3.3835150308e+00 
77600 6.7713256546e+00 1.5880372107e-05 1.9534733138e+00 -3.3835150308e+00 1.9534733138e+00 3.3835150308e+00 
77700 6.7713256557e+00 1.6242128028e-05 1.9534733138e+00 -3.3835150308e+00 1.9534733138e+00 3.3835150308e+00 
77800 6.7713256567e+00 1.6591829445e-05 1.9534733138e+00 -3.3835150308e+00 1.9534733138e+00 3.3835150308e+00 
77900 6.7713256577e+00 1.6928997036e-05 1.9534733138e+00 -3.3835150308e+00 1.9534733138e+00 3.3835150308e+00 
78000 6.7713256587e+00 1.7253189097e-05 1.9534733138e+00 -3.3835150308e+00 1.9534733138e+00 3.3835150308e+00 
78100 6.7713256597e+00 1.7564001344e-05 1.9534733138e+00 -3.3835150308e+00 1.9534733138e+00 3.3835150308e+00 
78200 6.7713256606e+00 1.7861066693e-05 1.9534733138e+00 -3.3835150308e+00 1.9534733138e+00 3.3835150308e+00 
78300 6.7713256616e+00 1.8144054932e-05 1.9534733138e+00 -3.3835150308e+00 1.9534733138e+00 3.3835150308e+00 
78400 6.7713256625e+00 1.8412672350e-05 1.9534733138e+00 -3.3835150308e+00 1.9534733138e+00 3.3835150308e+00 
78500 6.7713256635e+00 1.8666661307e-05 1.9534733138e+00 -3.3835150308e+00 1.9534733138e+00 3.3835150308e+00 
78600 6.7713256644e+00 1.8905799732e-05 1.9534733138e+00 -3.3835150308e+00 1.9534733138e+00 3.3835150308e+00 
78700 6.7713256653e+00 1.9129900585e-05 1.9534733138e+00 -3.3835150308e+00 1.9534733138e+00 3.3835150308e+00 
78800 6.7713256662e+00 1.9338811245e-05 1.9534733138e+00 -3.3835150308e+00 1.9534733138e+00 3.3835150308e+00 
78900 6.7713256671e+00 1.9532412861e-05 1.9534733138e+00 -3.3835150308e+00 1.9534733138e+00 3.3835150308e+00 
79000 6.7713256680e+00 1.9710619654e-05 1.9534733138e+00 -3.3835150308e+00 1.9534733138e+00 3.3835150308e+00 
79100 6.7713256688e+00 1.9873378168e-05 1.9534733138e+00 -3.3835150308e+00 1.9534733138e+00 3.3835150308e+00 
79200 6.7713256697e+00 2.0020666487e-05 1.9534733138e+00 -3.3835150308e+00 1.9534733138e+00 3.3835150308e+00 
79300 6.7713256705e+00 2.0152493411e-05 1.9534733138e+00 -3.3835150308e+00 1.9534733138e+00 3.3835150308e+00 
79400 6.7713256714e+00 2.0268897582e-05 1.9534733138e+00 -3.3835150308e+00 1.9534733138e+00 3.3835150308e+00 
79500 6.7713256722e+00 2.0369946600e-05 1.9534733138e+00 -3.3835150308e+00 1.9534733138e+00 3.3835150308e+00 
79600 6.7713256730e+00 2.0455736083e-05 1.9534733138e+00 -3.3835150308e+00 1.9534733138e+00 3.3835150308e+00 
79700 6.7713256739e+00 2.0526388724e-05 1.9534733138e+00 -3.3835150308e+00 1.9534733138e+00 3.3835150308e+00 
79800 6.7713256747e+00 2.0582053294e-05 1.9534733138e+00 -3.3835150308e+00 1.9534733138e+00 3.3835150308e+00 
79900 6.7713256755e+00 2.0622903648e-05 1.9534733138e+00 -3.3835150308e+00 1.9534733138e+00 3.3835150308e+00 
80000 6.7713256762e+00 2.0649137685e-05 1.9534733138e+00 -3.3835150308e+00 1.9534733138e+00 3.3835150308e+00 
80100 6.7713256770e+00 2.0660976319e-05 1.9534733138e+00 -3.3835150308e+00 1.9534733138e+00 3.3835150308e+00 
80200 6.7713256778e+00 2.0658662411e-05 1.9534733138e+00 -3.3835150308e+00 1.9534733138e+00 3.3835150308e+00 
80300 6.7713256786e+00 2.0642459694e-05 1.9534733138e+00 -3.3835150308e+00 1.9534733138e+00 3.3835150308e+00 
80400 6.7713256793e+00 2.0612651690e-05 1.9534733138e+00 -3.3835150308e+00 1.9534733138e+00 3.3835150308e+00 
80500 6.7713256801e+00 2.0569540631e-05 1.9534733138e+00 -3.3835150308e+00 1.9534733138e+00 3.3835150308e+00 
80600 6.7713256808e+00 2.0513446344e-05 1.9534733138e+00 -3.3835150308e+00 1.9534733138e+00 3.3835150308e+00 
80700 6.7713256815e+00 2.0444705160e-05 1.9534733138e+00 -3.3835150308e+00 1.9534733138e+00 3.3835150308e+00 
80800 6.7713256823e+00 2.0363668809e-05 1.9534733138e+00 -3.3835150308e+00 1.9534733138e+00 3.3835150308e+00 
80900 6.7713256830e+00 2.0270703322e-05 1.9534733138e+00 -3.3835150308e+00 1.9534733138e+00 3.3835150308e+00 
81000 6.7713256837e+00 2.0166187932e-05 1.9534733138e+00 -3.3835150308e+00 1.9534733138e+00 3.3835150308e+00 
81100 6.7713256844e+00 2.0050513983e-05 1.9534733138e+00 -3.3835150308e+00 1.9534733138e+00 3.3835150308e+00 
81200 6.7713256851e+00 1.9924083839e-05 1.9534733138e+00 -3.3835150308e+00 1.9534733138e+00 3.3835150308e+00 
81300 6.7713256858e+00 1.9787309815e-05 1.9534733138e+00 -3.3835150308e+00 1.9534733138e+00 3.3835150308e+00 
81400 6.7713256865e+00 1.9640613107e-05 1.9534733138e+00 -3.3835150308e+00 1.9534733138e+00 3.3835150308e+00 
81500 6.7713256871e+00 1.9484422738e-05 1.9534733138e+00 -3.3835150308e+00 1.9534733138e+00 3.3835150308e+00 
81600 6.7713256878e+00 1.9319174523e-05 1.9534733138e+00 -3.3835150308e+00 1.9534733138e+00 3.3835150308e+00 
81700 6.7713256885e+00 1.9145310046e-05 1.9534733138e+00 -3.3835150308e+00 1.9534733138e+00 3.3835150308e+00 
81800 6.7713256891e+00 1.8963275651e-05 1.9534733138e+00 -3.3835150308e+00 1.9534733138e+00 3.3835150308e+00 
81900 6.7713256898e+00 1.8773521460e-05 1.9534733138e+00 -3.3835150308e+00 1.9534733138e+00 3.3835150308e+00 
82000 6.7713256904e+00 1.8576500409e-05 1.9534733138e+00 -3.3835150308e+00 1.9534733138e+00 3.3835150308e+00 
82100 6.7713256910e+00 1.8372667295e-05 1.9534733138e+00 -3.3835150308e+00 1.9534733138e+00 3.3835150308e+00 
82200 6.7713256916e+00 1.8162477864e-05 1.9534733138e+00 -3.3835150308e+00 1.9534733138e+00 3.3835150308e+00 
82300 6.7713256923e+00 1.7946387909e-05 1.9534733138e+00 -3.3835150308e+00 1.9534733138e+00 3.3835150308e+00 
82400 6.7713256929e+00 1.7724852398e-05 1.9534733138e+00 -3.3835150308e+00 1.9534733138e+00 3.3835150308e+00 
82500 6.7713256935e+00 1.7498324629e-05 1.9534733138e+00 -3.3835150308e+00 1.9534733138e+00 3.3835150308e+00 
82600 6.7713256941e+00 1.7267255407e-05 1.9534733138e+00 -3.3835150308e+00 1.9534733138e+00 3.3835150308e+00 
82700 6.7713256946e+00 1.7032092258e-05 1.9534733138e+00 -3.3835150308e+00 1.9534733138e+00 3.3835150308e+00 
82800 6.7713256952e+00 1.6793278666e-05 1.9534733138e+00 -3.3835150308e+00 1.9534733138e+00 3.3835150308e+00 
82900 6.7713256958e+00 1.6551253329e-05 1.9534733138e+00 -3.3835150308e+00 1.9534733138e+00 3.3835150308e+00 
83000 6.7713256964e+00 1.6306449467e-05 1.9534733138e+00 -3.3835150308e+00 1.9534733138e+00 3.3835150308e+00 
83100 6.7713256969e+00 1.6059294141e-05 1.9534733138e+00 -3.3835150308e+00 1.9534733138e+00 3.3835150308e+00 
83200 6.7713256975e+00 1.5810207616e-05 1.9534733138e+00 -3.3835150308e+00 1.9534733138e+00 3.3835150308e+00 
83300 6.7713256980e+00 1.5559602742e-05 1.9534733138e+00 -3.3835150308e+00 1.9534733138e+00 3.3835150308e+00 
83400 6.7713256986e+00 1.5307884379e-05 1.9534733138e+00 -3.3835150308e+00 1.9534733138e+00 3.3835150308e+00 
83500 6.7713256991e+00 1.5055448844e-05 1.9534733138e+00 -3.3835150308e+00 1.9534733138e+00 3.3835150308e+00 
83600 6.7713256996e+00 1.4802683396e-05 1.9534733138e+00 -3.3835150308e+00 1.9534733138e+00 3.3835150308e+00 
83700 6.7713257001e+00 1.4549965756e-05 1.9534733138e+00 -3.3835150308e+00 1.9534733138e+00 3.3835150308e+00 
83800 6.7713257006e+00 1.4297663642e-05 1.9534733138e+00 -3.3835150308e+00 1.9534733138e+00 3.3835150308e+00 
83900 6.7713257011e+00 1.4046134363e-05 1.9534733138e+00 -3.3835150308e+00 1.9534733138e+00 3.3835150308e+00 
84000 6.7713257016e+00 1.3795724417e-05 1.9534733138e+00 -3.3835150308e+00 1.9534733138e+00 3.3835150308e+00 
84100 6.7713257021e+00 1.3546769138e-05 1.9534733138e+00 -3.3835150308e+00 1.9534733138e+00 3.3835150308e+00 
84200 6.7713257026e+00 1.3299592373e-05 1.9534733138e+00 -3.3835150308e+00 1.9534733138e+00 3.3835150308e+00 
84300 6.7713257031e+00 1.3054506182e-05 1.9534733138e+00 -3.3835150308e+00 1.9534733138e+00 3.3835150308e+00 
84400 6.7713257036e+00 1.2811810578e-05 1.9534733138e+00 -3.3835150308e+00 1.9534733138e+00 3.3835150308e+00 
84500 6.7713257041e+00 1.2571793291e-05 1.9534733138e+00 -3.3835150308e+00 1.9534733138e+00 3.3835150308e+00 
84600 6.7713257045e+00 1.2334729570e-05 1.9534733138e+00 -3.3835150308e+00 1.9534733138e+00 3.3835150308e+00 
84700 6.7713257050e+00 1.2100881999e-05 1.9534733138e+00 -3.3835150308e+00 1.9534733138e+00 3.3835150308e+00 
84800 6.7713257054e+00 1.1870500367e-05 1.9534733138e+00 -3.3835150308e+00 1.9534733138e+00 3.3835150308e+00 
84900 6.7713257059e+00 1.1643821536e-05 1.9534733138e+00 -3.3835150308e+00 1.9534733138e+00 3.3835150308e+00 
85000 6.7713257063e+00 1.1421069371e-05 1.9534733138e+00 -3.3835150308e+00 1.9534733138e+00 3.3835150308e+00 
85100 6.7713257067e+00 1.1202454664e-05 1.9534733138e+00 -3.3835150308e+00 1.9534733138e+00 3.3835150308e+00 
85200 6.7713257072e+00 1.0988175111e-05 1.9534733138e+00 -3.3835150308e+00 1.9534733138e+00 3.3835150308e+00 
85300 6.7713257076e+00 1.0778415296e-05 1.9534733138e+00 -3.3835150308e+00 1.9534733138e+00 3.3835150308e+00 
85400 6.7713257080e+00 1.0573346721e-05 1.9534733138e+00 -3.3835150308e+00 1.9534733138e+00 3.3835150308e+00 
85500 6.7713257084e+00 1.0373127835e-05 1.9534733138e+00 -3.3835150308e+00 1.9534733138e+00 3.3835150308e+00 
85600 6.7713257089e+00 1.0177904105e-05 1.9534733138e+00 -3.3835150308e+00 1.9534733138e+00 3.3835150308e+00 
85700 6.7713257093e+00 9.9878081127e-06 1.9534733138e+00 -3.3835150308e+00 1.9534733138e+00 3.3835150308e+00 
85800 6.7713257097e+00 9.8029596561e-06 1.9534733138e+00 -3.3835150308e+00 1.9534733138e+00 3.3835150308e+00 
85900 6.7713257101e+00 9.6234658878e-06 1.9534733138e+00 -3.3835150308e+00 1.9534733138e+00 3.3835150308e+00 
86000 6.7713257104e+00 9.4494214639e-06 1.9534733138e+00 -3.3835150308e+00 1.9534733138e+00 3.3835150308e+00 
86100 6.7713257108e+00 9.2809087192e-06 1.9534733138e+00 -3.3835150308e+00 1.9534733138e+00 3.3835150308e+00 
86200 6.7713257112e+00 9.1179978608e-06 1.9534733138e+00 -3.3835150308e+00 1.9534733138e+00 3.3835150308e+00 
86300 6.7713257116e+00 8.9607471730e-06 1.9534733138e+00 -3.3835150308e+00 1.9534733138e+00 3.3835150308e+00 
86400 6.7713257120e+00 8.8092032475e-06 1.9534733138e+00 -3.3835150308e+00 1.9534733138e+00 3.3835150308e+00 
86500 6.7713257123e+00 8.6634012208e-06 1.9534733138e+00 -3.3835150308e+00 1.9534733138e+00 3.3835150308e+00 
86600 6.7713257127e+00 8.5233650381e-06 1.9534733138e+00 -3.3835150308e+00 1.9534733138e+00 3.3835150308e+00 
86700 6.7713257131e+00 8.3891077157e-06 1.9534733138e+00 -3.3835150308e+00 1.9534733138e+00 3.3835150308e+00 
86800 6.7713257134e+00 8.2606316347e-06 1.9534733138e+00 -3.3835150308e+00 1.9534733138e+00 3.3835150308e+00 
86900 6.7713257138e+00 8.1379288318e-06 1.9534733138e+00 -3.3835150308e+00 1.9534733138e+00 3.3835150308e+00 
87000 6.7713257141e+00 8.0209813086e-06 1.9534733138e+00 -3.3835150308e+00 1.9534733138e+00 3.3835150308e+00 
87100 6.7713257145e+00 7.9097613482e-06 1.9534733138e+00 -3.3835150308e+00 1.9534733138e+00 3.3835150308e+00 
87200 6.7713257148e+00 7.8042318513e-06 1.9534733138e+00 -3.3835150308e+00 1.9534733138e+00 3.3835150308e+00 
87300 6.7713257151e+00 7.7043466612e-06 1.9534733138e+00 -3.3835150308e+00 1.9534733138e+00 3.3835150308e+00 
87400 6.7713257155e+00 7.6100509184e-06 1.9534733138e+00 -3.3835150308e+00 1.9534733138e+00 3.3835150308e+00 
87500 6.7713257158e+00 7.5212814050e-06 1.9534733138e+00 -3.3835150308e+00 1.9534733138e+00 3.3835150308e+00 
87600 6.7713257161e+00 7.4379669015e-06 1.9534733138e+00 -3.3835150308e+00 1.9534733138e+00 3.3835150308e+00 
87700 6.7713257165e+00 7.3600285574e-06 1.9534733138e+00 -3.3835150308e+00 1.9534733138e+00 3.3835150308e+00 
87800 6.7713257168e+00 7.2873802494e-06 1.9534733138e+00 -3.3835150308e+00 1.9534733138e+00 3.3835150308e+00 
87900 6.7713257171e+00 7.2199289518e-06 1.9534733138e+00 -3.3835150308e+00 1.9534733138e+00 3.3835150308e+00 
88000 6.7713257174e+00 7.1575751156e-06 1.9534733138e+00 -3.3835150308e+00 1.9534733138e+00 3.3835150308e+00 
88100 6.7713257177e+00 7.1002130384e-06 1.9534733138e+00 -3.3835150308e+00 1.9534733138e+00 3.3835150308e+00 
88200 6.7713257180e+00 7.0477312364e-06 1.9534733138e+00 -3.3835150308e+00 1.9534733138e+00 3.3835150308e+00 
88300 6.7713257183e+00 7.0000128254e-06 1.9534733138e+00 -3.3835150308e+00 1.9534733138e+00 3.3835150308e+00 
88400 6.7713257186e+00 6.9569358964e-06 1.9534733138e+00 -3.3835150308e+00 1.9534733138e+00 3.3835150308e+00 
88500 6.7713257189e+00 6.9183738850e-06 1.9534733138e+00 -3.3835150308e+00 1.9534733138e+00 3.3835150308e+00 
88600 6.7713257192e+00 6.8841959488e-06 1.9534733138e+00 -3.3835150308e+00 1.9534733138e+00 3.3835150308e+00 
88700 6.7713257195e+00 6.8542673361e-06 1.9534733138e+00 -3.3835150308e+00 1.9534733138e+00 3.3835150308e+00 
88800 6.7713257198e+00 6.8284497505e-06 1.9534733138e+00 -3.3835150308e+00 1.9534733138e+00 3.3835150308e+00 
88900 6.7713257200e+00 6.8066017146e-06 1.9534733138e+00 -3.3835150308e+00 1.9534733138e+00 3.3835150308e+00 
89000 6.7713257203e+00 6.7885789289e-06 1.9534733138e+00 -3.3835150308e+00 1.9534733138e+00 3.3835150308e+00 
89100 6.7713257206e+00 6.7742346290e-06 1.9534733138e+00 -3.3835150308e+00 1.9534733138e+00 3.3835150308e+00 
89200 6.7713257209e+00 6.7634199265e-06 1.9534733138e+00 -3.3835150308e+00 1.9534733138e+00 3.3835150308e+00 
89300 6.7713257211e+00 6.7559841601e-06 1.9534733138e+00 -3.3835150308e+00 1.9534733138e+00 3.3835150308e+00 
89400 6.7713257214e+00 6.7517752201e-06 1.9534733138e+00 -3.3835150308e+00 1.9534733138e+00 3.3835150308e+00 
89500 6.7713257217e+00 6.7506398897e-06 1.9534733138e+00 -3.3835150308e+00 1.9534733138e+00 3.3835150308e+00 
89600 6.7713257219e+00 6.7524241610e-06 1.9534733138e+00 -3.3835150308e+00 1.9534733138e+00 3.3835150308e+00 
89700 6.7713257222e+00 6.7569735465e-06 1.9534733138e+00 -3.3835150308e+00 1.9534733138e+00 3.3835150308e+00 
89800 6.7713257224e+00 6.7641333854e-06 1.9534733138e+00 -3.3835150308e+00 1.9534733138e+00 3.3835150308e+00 
89900 6.7713257227e+00 6.7737491485e-06 1.9534733138e+00 -3.3835150308e+00 1.9534733138e+00 3.3835150308e+00 
90000 6.7713257229e+00 6.7856667106e-06 1.9534733138e+00 -3.3835150308e+00 1.9534733138e+00 3.3835150308e+00 
90100 6.7713257232e+00 6.7997326526e-06 1.9534733138e+00 -3.3835150308e+00 1.9534733138e+00 3.3835150308e+00 
90200 6.7713257234e+00 6.8157945052e-06 1.9534733138e+00 -3.3835150308e+00 1.9534733138e+00 3.3835150308e+00 
90300 6.7713257237e+00 6.8337010327e-06 1.9534733138e+00 -3.3835150308e+00 1.9534733138e+00 3.3835150308e+00 
90400 6.7713257239e+00 6.8533024651e-06 1.9534733138e+00 -3.3835150308e+00 1.9534733138e+00 3.3835150308e+00 
90500 6.7713257241e+00 6.8744507498e-06 1.9534733138e+00 -3.3835150308e+00 1.9534733138e+00 3.3835150308e+00 
90600 6.7713257244e+00 6.8969997760e-06 1.9534733138e+00 -3.3835150308e+00 1.9534733138e+00 3.3835150308e+00 
90700 6.7713257246e+00 6.9208056001e-06 1.9534733138e+00 -3.3835150308e+00 1.9534733138e+00 3.3835150308e+00 
90800 6.7713257248e+00 6.9457266436e-06 1.9534733138e+00 -3.3835150308e+00 1.9534733138e+00 3.3835150308e+00 
90900 6.7713257250e+00 6.9716239035e-06 1.9534733138e+00 -3.3835150308e+00 1.9534733138e+00 3.3835150308e+00 
91000 6.7713257253e+00 6.9983611335e-06 1.9534733138e+00 -3.3835150308e+00 1.9534733138e+00 3.3835150308e+00 
91100 6.7713257255e+00 7.0258050246e-06 1.9534733138e+00 -3.3835150308e+00 1.9534733138e+00 3.3835150308e+00 
91200 6.7713257257e+00 7.0538253634e-06 1.9534733138e+00 -3.3835150308e+00 1.9534733138e+00 3.3835150308e+00 
91300 6.7713257259e+00 7.0822952034e-06 1.9534733138e+00 -3.3835150308e+00 1.9534733138e+00 3.3835150308e+00 
91400 6.7713257261e+00 7.1110909885e-06 1.9534733138e+00 -3.3835150308e+00 1.9534733138e+00 3.3835150308e+00 
91500 6.7713257263e+00 7.1400927029e-06 1.9534733138e+00 -3.3835150308e+00 1.9534733138e+00 3.3835150308e+00 
91600 6.7713257265e+00 7.1691839918e-06 1.9534733138e+00 -3.3835150308e+00 1.9534733138e+00 3.3835150308e+00 
91700 6.7713257267e+00 7.1982522685e-06 1.9534733138e+00 -3.3835150308e+00 1.9534733138e+00 3.3835150308e+00 
91800 6.7713257269e+00 7.2271888197e-06 1.9534733138e+00 -3.3835150308e+00 1.9534733138e+00 3.3835150308e+00 
91900 6.7713257271e+00 7.2558888970e-06 1.9534733138e+00 -3.3835150308e+00 1.9534733138e+00 3.3835150308e+00 
92000 6.7713257273e+00 7.2842517994e-06 1.9534733138e+00 -3.3835150308e+00 1.9534733138e+00 3.3835150308e+00 
92100 6.7713257275e+00 7.3121809399e-06 1.9534733138e+00 -3.3835150308e+00 1.9534733138e+00 3.3835150308e+00 
92200 6.7713257277e+00 7.3395839122e-06 1.9534733138e+00 -3.3835150308e+00 1.9534733138e+00 3.3835150308e+00 
92300 6.7713257279e+00 7.3663725407e-06 1.9534733138e+00 -3.3835150308e+00 1.9534733138e+00 3.3835150308e+00 
92400 6.7713257281e+00 7.3924629200e-06 1.9534733138e+00 -3.3835150308e+00 1.9534733138e+00 3.3835150308e+00 
92500 6.7713257283e+00 7.4177754462e-06 1.9534733138e+00 -3.3835150308e+00 1.9534733138e+00 3.3835150308e+00 
92600 6.7713257285e+00 7.4422348473e-06 1.9534733138e+00 -3.3835150308e+00 1.9534733138e+00 3.3835150308e+00 
92700 6.7713257287e+00 7.4657701860e-06 1.9534733138e+00 -3.3835150308e+00 1.9534733138e+00 3.3835150308e+00 
92800 6.7713257288e+00 7.4883148749e-06 1.9534733138e+00 -3.3835150308e+00 1.9534733138e+00 3.3835150308e+00 
92900 6.7713257290e+00 7.5098066667e-06 1.9534733138e+00 -3.3835150308e+00 1.9534733138e+00 3.3835150308e+00 
93000 6.7713257292e+00 7.5301876456e-06 1.9534733138e+00 -3.3835150308e+00 1.9534733138e+00 3.3835150308e+00 
93100 6.7713257294e+00 7.5494042096e-06 1.9534733138e+00 -3.3835150308e+00 1.9534733138e+00 3.3835150308e+00 
93200 6.7713257295e+00 7.5674070371e-06 1.9534733138e+00 -3.3835150308e+00 1.9534733138e+00 3.3835150308e+00 
93300 6.7713257297e+00 7.5841510569e-06 1.9534733138e+00 -3.3835150308e+00 1.9534733138e+00 3.3835150308e+00 
93400 6.7713257299e+00 7.5995954049e-06 1.9534733138e+00 -3.3835150308e+00 1.9534733138e+00 3.3835150308e+00 
93500 6.7713257300e+00 7.6137033743e-06 1.9534733138e+00 -3.3835150308e+00 1.9534733138e+00 3.3835150308e+00 
93600 6.7713257302e+00 7.6264423645e-06 1.9534733138e+00 -3.3835150308e+00 1.9534733138e+00 3.3835150308e+00 
93700 6.7713257304e+00 7.6377838117e-06 1.9534733138e+00 -3.3835150308e+00 1.9534733138e+00 3.3835150308e+00 
93800 6.7713257305e+00 7.6477031276e-06 1.9534733138e+00 -3.3835150308e+00 1.9534733138e+00 3.3835150308e+00 
93900 6.7713257307e+00 7.6561796243e-06 1.9534733138e+00 -3.3835150308e+00 1.9534733138e+00 3.3835150308e+00 
94000 6.7713257308e+00 7.6631964311e-06 1.9534733138e+00 -3.3835150308e+00 1.9534733138e+00 3.3835150308e+00 
94100 6.7713257310e+00 7.6687404189e-06 1.9534733138e+00 -3.3835150308e+00 1.9534733138e+00 3.3835150308e+00 
94200 6.7713257311e+00 7.6728021030e-06 1.9534733138e+00 -3.3835150308e+00 1.9534733138e+00 3.3835150308e+00 
94300 6.7713257313e+00 7.6753755563e-06 1.9534733138e+00 -3.3835150308e+00 1.9534733138e+00 3.3835150308e+00 
94400 6.7713257314e+00 7.6764583061e-06 1.9534733138e+00 -3.3835150308e+00 1.9534733138e+00 3.3835150308e+00 
94500 6.7713257316e+00 7.6760512414e-06 1.9534733138e+00 -3.3835150308e+00 1.9534733138e+00 3.3835150308e+00 
94600 6.7713257317e+00 7.6741584991e-06 1.9534733138e+00 -3.3835150308e+00 1.9534733138e+00 3.3835150308e+00 
94700 6.7713257319e+00 7.6707873655e-06 1.9534733138e+00 -3.3835150308e+00 1.9534733138e+00 3.3835150308e+00 
94800 6.7713257320e+00 7.6659481537e-06 1.9534733138e+00 -3.3835150308e+00 1.9534733138e+00 3.3835150308e+00 
94900 6.7713257322e+00 7.6596541001e-06 1.9534733138e+00 -3.3835150308e+00 1.9534733138e+00 3.3835150308e+00 
95000 6.7713257323e+00 7.6519212464e-06 1.9534733138e+00 -3.3835150308e+00 1.9534733138e+00 3.3835150308e+00 
95100 6.7713257324e+00 7.6427683217e-06 1.9534733138e+00 -3.3835150308e+00 1.9534733138e+00 3.3835150308e+00 
95200 6.7713257326e+00 7.6322166182e-06 1.9534733138e+00 -3.3835150308e+00 1.9534733138e+00 3.3835150308e+00 
95300 6.7713257327e+00 7.6202898795e-06 1.9534733138e+00 -3.3835150308e+00 1.9534733138e+00 3.3835150308e+00 
95400 6.7713257328e+00 7.6070141690e-06 1.9534733138e+00 -3.3835150308e+00 1.9534733138e+00 3.3835150308e+00 
95500 6.7713257330e+00 7.5924177532e-06 1.9534733138e+00 -3.3835150308e+00 1.9534733138e+00 3.3835150308e+00 
95600 6.7713257331e+00 7.5765309783e-06 1.9534733138e+00 -3.3835150308e+00 1.9534733138e+00 3.3835150308e+00 
95700 6.7713257332e+00 7.5593861411e-06 1.9534733138e+00 -3.3835150308e+00 1.9534733138e+00 3.3835150308e+00 
95800 6.7713257333e+00 7.5410173677e-06 1.9534733138e+00 -3.3835150308e+00 1.9534733138e+00 3.3835150308e+00 
95900 6.7713257335e+00 7.5214604905e-06 1.9534733138e+00 -3.3835150308e+00 1.9534733138e+00 3.3835150308e+00 
96000 6.7713257336e+00 7.5007529233e-06 1.9534733138e+00 -3.3835150308e+00 1.9534733138e+00 3.3835150308e+00 
96100 6.7713257337e+00 7.4789335421e-06 1.9534733138e+00 -3.3835150308e+00 1.9534733138e+00 3.3835150308e+00 
96200 6.7713257338e+00 7.4560425484e-06 1.9534733138e+00 -3.3835150308e+00 1.9534733138e+00 3.3835150308e+00 
96300 6.7713257340e+00 7.4321213716e-06 1.9534733138e+00 -3.3835150308e+00 1.9534733138e+00 3.3835150308e+00 
96400 6.7713257341e+00 7.4072125287e-06 1.9534733138e+00 -3.3835150308e+00 1.9534733138e+00 3.3835150308e+00 
96500 6.7713257342e+00 7.3813595152e-06 1.9534733138e+00 -3.3835150308e+00 1.9534733138e+00 3.3835150308e+00 
96600 6.7713257343e+00 7.3546066829e-06 1.9534733138e+00 -3.3835150308e+00 1.9534733138e+00 3.3835150308e+00 
96700 6.7713257344e+00 7.3269991301e-06 1.9534733138e+00 -3.3835150308e+00 1.9534733138e+00 3.3835150308e+00 
96800 6.7713257345e+00 7.2985825852e-06 1.9534733138e+00 -3.3835150308e+00 1.9534733138e+00 3.3835150308e+00 
96900 6.7713257347e+00 7.2694032949e-06 1.9534733138e+00 -3.3835150308e+00 1.9534733138e+00 3.3835150308e+00 
97000 6.7713257348e+00 7.2395079199e-06 1.9534733138e+00 -3.3835150308e+00 1.9534733138e+00 3.3835150308e+00 
97100 6.7713257349e+00 7.2089434230e-06 1.9534733138e+00 -3.3835150308e+00 1.9534733138e+00 3.3835150308e+00 
97200 6.7713257350e+00 7.1777569658e-06 1.9534733138e+00 -3.3835150308e+00 1.9534733138e+00 3.3835150308e+00 
97300 6.7713257351e+00 7.1459958127e-06 1.9534733138e+00 -3.3835150308e+00 1.9534733138e+00 3.3835150308e+00 
97400 6.7713257352e+00 7.1137072253e-06 1.9534733138e+00 -3.3835150308e+00 1.9534733138e+00 3.3835150308e+00 
97500 6.7713257353e+00 7.0809383703e-06 1.9534733138e+00 -3.3835150308e+00 1.9534733138e+00 3.3835150308e+00 
97600 6.7713257354e+00 7.0477362309e-06 1.9534733138e+00 -3.3835150308e+00 1.9534733138e+00 3.3835150308e+00 
97700 6.7713257355e+00 7.0141475120e-06 1.9534733138e+00 -3.3835150308e+00 1.9534733138e+00 3.3835150308e+00 
97800 6.7713257356e+00 6.9802185578e-06 1.9534733138e+00 -3.3835150308e+00 1.9534733138e+00 3.3835150308e+00 
97900 6.7713257357e+00 6.9459952634e-06 1.9534733138e+00 -3.3835150308e+00 1.9534733138e+00 3.3835150308e+00 
98000 6.7713257358e+00 6.9115229990e-06 1.9534733138e+00 -3.3835150308e+00 1.9534733138e+00 3.3835150308e+00 
98100 6.7713257359e+00 6.8768465380e-06 1.9534733138e+00 -3.3835150308e+00 1.9534733138e+00 3.3835150308e+00 
98200 6.7713257360e+00 6.8420099788e-06 1.9534733138e+00 -3.3835150308e+00 1.9534733138e+00 3.3835150308e+00 
98300 6.7713257361e+00 6.8070566739e-06 1.9534733138e+00 -3.3835150308e+00 1.9534733138e+00 3.3835150308e+00 
98400 6.7713257362e+00 6.7720291692e-06 1.9534733138e+00 -3.3835150308e+00 1.9534733138e+00 3.3835150308e+00 
98500 6.7713257363e+00 6.7369691397e-06 1.9534733138e+00 -3.3835150308e+00 1.9534733138e+00 3.3835150308e+00 
98600 6.7713257364e+00 6.7019173321e-06 1.9534733138e+00 -3.3835150308e+00 1.9534733138e+00 3.3835150308e+00 
98700 6.7713257365e+00 6.6669135062e-06 1.9534733138e+00 -3.3835150308e+00 1.9534733138e+00 3.3835150308e+00 
98800 6.7713257366e+00 6.6319963895e-06 1.9534733138e+00 -3.3835150308e+00 1.9534733138e+00 3.3835150308e+00 
98900 6.7713257366e+00 6.5972036230e-06 1.9534733138e+00 -3.3835150308e+00 1.9534733138e+00 3.3835150308e+00 
99000 6.7713257367e+00 6.5625717207e-06 1.9534733138e+00 -3.3835150308e+00 1.9534733138e+00 3.3835150308e+00 
99100 6.7713257368e+00 6.5281360273e-06 1.9534733138e+00 -3.3835150308e+00 1.9534733138e+00 3.3835150308e+00 
99200 6.7713257369e+00 6.4939306803e-06 1.9534733138e+00 -3.3835150308e+00 1.9534733138e+00 3.3835150308e+00 
99300 6.7713257370e+00 6.4599885819e-06 1.9534733138e+00 -3.3835150308e+00 1.9534733138e+00 3.3835150308e+00 
99400 6.7713257371e+00 6.4263413579e-06 1.9534733138e+00 -3.3835150308e+00 1.9534733138e+00 3.3835150308e+00 
99500 6.7713257372e+00 6.3930193417e-06 1.9534733138e+00 -3.3835150308e+00 1.9534733138e+00 3.3835150308e+00 
99600 6.7713257372e+00 6.3600515434e-06 1.9534733138e+00 -3.3835150308e+00 1.9534733138e+00 3.3835150308e+00 
99700 6.7713257373e+00 6.3274656348e-06 1.9534733138e+00 -3.3835150308e+00 1.9534733138e+00 3.3835150308e+00 
99800 6.7713257374e+00 6.2952879269e-06 1.9534733138e+00 -3.3835150308e+00 1.9534733138e+00 3.3835150308e+00 
99900 6.7713257375e+00 6.2635433601e-06 1.9534733138e+00 -3.3835150308e+00 1.9534733138e+00 3.3835150308e+00 
100000 6.7713257376e+00 6.2322554940e-06 1.9534733138e+00 -3.3835150308e+00 1.9534733138e+00 3.3835150308e+00 
100100 6.7713257376e+00 6.2014464980e-06 1.9534733138e+00 -3.3835150308e+00 1.9534733138e+00 3.3835150308e+00 
100200 6.7713257377e+00 6.1711371425e-06 1.9534733138e+00 -3.3835150308e+00 1.9534733138e+00 3.3835150308e+00 
100300 6.7713257378e+00 6.1413468047e-06 1.9534733138e+00 -3.3835150308e+00 1.9534733138e+00 3.3835150308e+00 
100400 6.7713257379e+00 6.1120934683e-06 1.9534733138e+00 -3.3835150308e+00 1.9534733138e+00 3.3835150308e+00 
100500 6.7713257379e+00 6.0833937220e-06 1.9534733138e+00 -3.3835150308e+00 1.9534733138e+00 3.3835150308e+00 
100600 6.7713257380e+00 6.0552627692e-06 1.9534733138e+00 -3.3835150308e+00 1.9534733138e+00 3.3835150308e+00 
100700 6.7713257381e+00 6.0277144408e-06 1.9534733138e+00 -3.3835150308e+00 1.9534733138e+00 3.3835150308e+00 
100800 6.7713257382e+00 6.0007611986e-06 1.9534733138e+00 -3.3835150308e+00 1.9534733138e+00 3.3835150308e+00 
100900 6.7713257382e+00 5.9744141573e-06 1.9534733138e+00 -3.3835150308e+00 1.9534733138e+00 3.3835150308e+00 
101000 6.7713257383e+00 5.9486830933e-06 1.9534733138e+00 -3.3835150308e+00 1.9534733138e+00 3.3835150308e+00 
101100 6.7713257384e+00 5.9235764691e-06 1.9534733138e+00 -3.3835150308e+00 1.9534733138e+00 3.3835150308e+00 
101200 6.7713257384e+00 5.8991014508e-06 1.9534733138e+00 -3.3835150308e+00 1.9534733138e+00 3.3835150308e+00 
101300 6.7713257385e+00 5.8752639257e-06 1.9534733138e+00 -3.3835150308e+00 1.9534733138e+00 3.3835150308e+00 
101400 6.7713257386e+00 5.8520685399e-06 1.9534733138e+00 -3.3835150308e+00 1.9534733138e+00 3.3835150308e+00 
101500 6.7713257386e+00 5.8295187073e-06 1.9534733138e+00 -3.3835150308e+00 1.9534733138e+00 3.3835150308e+00 
101600 6.7713257387e+00 5.8076166525e-06 1.9534733138e+00 -3.3835150308e+00 1.9534733138e+00 3.3835150308e+00 
101700 6.7713257388e+00 5.7863634305e-06 1.9534733138e+00 -3.3835150308e+00 1.9534733138e+00 3.3835150308e+00 
101800 6.7713257388e+00 5.7657589561e-06 1.9534733138e+00 -3.3835150308e+00 1.9534733138e+00 3.3835150308e+00 
101900 6.7713257389e+00 5.7458020473e-06 1.9534733138e+00 -3.3835150308e+00 1.9534733138e+00 3.3835150308e+00 
102000 6.7713257390e+00 5.7264904463e-06 1.9534733138e+00 -3.3835150308e+00 1.9534733138e+00 3.3835150308e+00 
102100 6.7713257390e+00 5.7078208572e-06 1.9534733138e+00 -3.3835150308e+00 1.9534733138e+00 3.3835150308e+00 
102200 6.7713257391e+00 5.6897889878e-06 1.9534733138e+00 -3.3835150308e+00 1.9534733138e+00 3.3835150308e+00 
102300 6.7713257391e+00 5.6723895784e-06 1.9534733138e+00 -3.3835150308e+00 1.9534733138e+00 3.3835150308e+00 
102400 6.7713257392e+00 5.6556164421e-06 1.9534733138e+00 -3.3835150308e+00 1.9534733138e+00 3.3835150308e+00 
102500 6.7713257393e+00 5.6394625014e-06 1.9534733138e+00 -3.3835150308e+00 1.9534733138e+00 3.3835150308e+00 
102600 6.7713257393e+00 5.6239198307e-06 1.9534733138e+00 -3.3835150308e+00 1.9534733138e+00 3.3835150308e+00 
102700 6.7713257394e+00 5.6089796924e-06 1.9534733138e+00 -3.3835150308e+00 1.9534733138e+00 3.3835150308e+00 
102800 6.7713257394e+00 5.5946325737e-06 1.9534733138e+00 -3.3835150308e+00 1.9534733138e+00 3.3835150308e+00 
102900 6.7713257395e+00 5.5808682337e-06 1.9534733138e+00 -3.3835150308e+00 1.9534733138e+00 3.3835150308e+00 
103000 6.7713257396e+00 5.5676757403e-06 1.9534733138e+00 -3.3835150308e+00 1.9534733138e+00 3.3835150308e+00 
103100 6.7713257396e+00 5.5550435084e-06 1.9534733138e+00 -3.3835150308e+00 1.9534733138e+00 3.3835150308e+00 
103200 6.7713257397e+00 5.5429593425e-06 1.9534733138e+00 -3.3835150308e+00 1.9534733138e+00 3.3835150308e+00 
103300 6.7713257397e+00 5.5314104795e-06 1.9534733138e+00 -3.3835150308e+00 1.9534733138e+00 3.3835150308e+00 
103400 6.7713257398e+00 5.5203836276e-06 1.9534733138e+00 -3.3835150308e+00 1.9534733138e+00 3.3835150308e+00 
103500 6.7713257398e+00 5.5098650077e-06 1.9534733138e+00 -3.3835150308e+00 1.9534733138e+00 3.3835150308e+00 
103600 6.7713257399e+00 5.4998403877e-06 1.9534733138e+00 -3.3835150308e+00 1.9534733138e+00 3.3835150308e+00 
103700 6.7713257399e+00 5.4902951354e-06 1.9534733138e+00 -3.3835150308e+00 1.9534733138e+00 3.3835150308e+00 
103800 6.7713257400e+00 5.4812142420e-06 1.9534733138e+00 -3.3835150308e+00 1.9534733138e+00 3.3835150308e+00 
103900 6.7713257400e+00 5.4725823777e-06 1.9534733138e+00 -3.3835150308e+00 1.9534733138e+00 3.3835150308e+00 
104000 6.7713257401e+00 5.4643839192e-06 1.9534733138e+00 -3.3835150308e+00 1.9534733138e+00 3.3835150308e+00 
104100 6.7713257401e+00 5.4569064118e-06 1.9534733138e+00 -3.3835150308e+00 1.9534733138e+00 3.3835150308e+00 
104100 6.7713257401e+00 5.4569064120e-06 1.9534733138e+00 -3.3835150308e+00 1.9534733138e+00 3.3835150308e+00 
