# step Hamiltonian StressXX CellTensor1 CellTensor2 CellTensor3 CellTensor4 
0 5.2485384840e+00 3.5125763335e-02 1.7580849732e+00 -3.0450924977e+00 1.7580849732e+00 3.0450924977e+00 
100 5.2230002513e+00 3.4161089560e-02 1.7580849732e+00 -3.0450924977e+00 1.7580849732e+00 3.0450924977e+00 
200 5.1991575417e+00 3.2768041291e-02 1.7571135202e+00 -3.0434098916e+00 1.7571135202e+00 3.0434098916e+00 
300 5.1769344628e+00 3.1822164393e-02 1.7561811632e+00 -3.0417950019e+00 1.7561811632e+00 3.0417950019e+00 
400 5.1562208030e+00 3.1280024668e-02 1.7552752365e+00 -3.0402258909e+00 1.7552752365e+00 3.0402258909e+00 
500 5.1369129698e+00 3.1100570399e-02 1.7543842829e+00 -3.0386827139e+00 1.7543842829e+00 3.0386827139e+00 
600 5.1189136266e+00 3.1245023688e-02 1.7534979904e+00 -3.0371476104e+00 1.7534979904e+00 3.0371476104e+00 
700 5.1021313652e+00 3.1676786737e-02 1.7526071318e+00 -3.0356045980e+00 1.7526071318e+00 3.0356045980e+00 
800 5.0864804078e+00 3.2361360583e-02 1.7517035048e+00 -3.0340394701e+00 1.7517035048e+00 3.0340394701e+00 
900 5.0718803326e+00 3.3266273985e-02 1.7507798749e+00 -3.0324396962e+00 1.7507798749e+00 3.0324396962e+00 
1000 5.0582558173e+00 3.4361020392e-02 1.7498299193e+00 -3.0307943247e+00 1.7498299193e+00 3.0307943247e+00 
1100 5.0455363982e+00 3.5617001078e-02 1.7488481723e+00 -3.0290938891e+00 1.7488481723e+00 3.0290938891e+00 
1200 5.0336562404e+00 3.7007472803e-02 1.7478299723e+00 -3.0273303150e+00 1.7478299723e+00 3.0273303150e+00 
1300 5.0225539170e+00 3.8507498504e-02 1.7467714101e+00 -3.0254968315e+00 1.7467714101e+00 3.0254968315e+00 
1400 5.0121721959e+00 4.0093899741e-02 1.7456692783e+00 -3.0235878833e+00 1.7456692783e+00 3.0235878833e+00 
1500 5.0024578318e+00 4.1745209828e-02 1.7445210224e+00 -3.0215990457e+00 1.7445210224e+00 3.0215990457e+00 
1600 4.9933613632e+00 4.3441626727e-02 1.7433246930e+00 -3.0195269424e+00 1.7433246930e+00 3.0195269424e+00 
1700 4.9848369131e+00 4.5164964995e-02 1.7420788996e+00 -3.0173691650e+00 1.7420788996e+00 3.0173691650e+00 
1800 4.9768419938e+00 4.6898606219e-02 1.7407827655e+00 -3.0151241947e+00 1.7407827655e+00 3.0151241947e+00 
1900 4.9693373149e+00 4.8627447539e-02 1.7394358842e+00 -3.0127913280e+00 1.7394358842e+00 3.0127913280e+00 
2000 4.9622865957e+00 5.0337848002e-02 1.7380382780e+00 -3.0103706029e+00 1.7380382780e+00 3.0103706029e+00 
2100 4.9556563806e+00 5.2017572630e-02 1.7365903567e+00 -3.0078627297e+00 1.7365903567e+00 3.0078627297e+00 
2200 4.9494158596e+00 5.3655734196e-02 1.7350928795e+00 -3.0052690231e+00 1.7350928795e+00 3.0052690231e+00 
2300 4.9435366934e+00 5.5242732823e-02 1.7335469174e+00 -3.0025913382e+00 1.7335469174e+00 3.0025913382e+00 
2400 4.9379928435e+00 5.6770193596e-02 1.7319538176e+00 -2.9998320085e+00 1.7319538176e+00 2.9998320085e+00 
2500 4.9327604085e+00 5.8230902478e-02 1.7303151702e+00 -2.9969937880e+00 1.7303151702e+00 2.9969937880e+00 
2600 4.9278174656e+00 5.9618740854e-02 1.7286327757e+00 -2.9940797952e+00 1.7286327757e+00 2.9940797952e+00 
2700 4.9231439201e+00 6.0928619098e-02 1.7269086149e+00 -2.9910934610e+00 1.7269086149e+00 2.9910934610e+00 
2800 4.9187213607e+00 6.2156409583e-02 1.7251448205e+00 -2.9880384795e+00 1.7251448205e+00 2.9880384795e+00 
2900 4.9145329225e+00 6.3298879558e-02 1.7233436505e+00 -2.9849187616e+00 1.7233436505e+00 2.9849187616e+00 
3000 4.9105631575e+00 6.4353624338e-02 1.7215074635e+00 -2.9817383924e+00 1.7215074635e+00 2.9817383924e+00 
3100 4.9067979126e+00 6.5319001241e-02 1.7196386953e+00 -2.9785015910e+00 1.7196386953e+00 2.9785015910e+00 
3200 4.9032242158e+00 6.6194064666e-02 1.7177398382e+00 -2.9752126739e+00 1.7177398382e+00 2.9752126739e+00 
3300 4.8998301690e+00 6.6978502717e-02 1.7158134209e+00 -2.9718760212e+00 1.7158134209e+00 2.9718760212e+00 
3400 4.8966048501e+00 6.7672575706e-02 1.7138619910e+00 -2.9684960456e+00 1.7138619910e+00 2.9684960456e+00 
3500 4.8935382206e+00 6.8277056853e-02 1.7118880991e+00 -2.9650771645e+00 1.7118880991e+00 2.9650771645e+00 
3600 4.8906210425e+00 6.8793175437e-02 1.7098942834e+00 -2.9616237745e+00 1.7098942834e+00 2.9616237745e+00 
3700 4.8878448006e+00 6.9222562631e-02 1.7078830576e+00 -2.9581402292e+00 1.7078830576e+00 2.9581402292e+00 
3800 4.8852016325e+00 6.9567200186e-02 1.7058568985e+00 -2.9546308186e+00 1.7058568985e+00 2.9546308186e+00 
3900 4.8826842648e+00 6.9829372094e-02 1.7038182362e+00 -2.9510997519e+00 1.7038182362e+00 2.9510997519e+00 
4000 4.8802859547e+00 7.0011619309e-02 1.7017694449e+00 -2.9475511413e+00 1.7017694449e+00 2.9475511413e+00 
4100 4.8780004386e+00 7.0116697584e-02 1.6997128356e+00 -2.9439889895e+00 1.6997128356e+00 2.9439889895e+00 
4200 4.8758218844e+00 7.0147538418e-02 1.6976506490e+00 -2.9404171776e+00 1.6976506490e+00 2.9404171776e+00 
4300 4.8737448501e+00 7.0107213086e-02 1.6955850505e+00 -2.9368394561e+00 1.6955850505e+00 2.9368394561e+00 
4400 4.8717642455e+00 6.9998899712e-02 1.6935181253e+00 -2.9332594366e+00 1.6935181253e+00 2.9332594366e+00 
4500 4.8698752996e+00 6.9825853283e-02 1.6914518751e+00 -2.9296805862e+00 1.6914518751e+00 2.9296805862e+00 
4600 4.8680735301e+00 6.9591378519e-02 1.6893882150e+00 -2.9261062221e+00 1.6893882150e+00 2.9261062221e+00 
4700 4.8663547176e+00 6.9298805473e-02 1.6873289719e+00 -2.9225395084e+00 1.6873289719e+00 2.9225395084e+00 
4800 4.8647148818e+00 6.8951467732e-02 1.6852758829e+00 -2.9189834539e+00 1.6852758829e+00 2.9189834539e+00 
4900 4.8631502614e+00 6.8552683080e-02 1.6832305945e+00 -2.9154409106e+00 1.6832305945e+00 2.9154409106e+00 
5000 4.8616572956e+00 6.8105736466e-02 1.6811946630e+00 -2.9119145738e+00 1.6811946630e+00 2.9119145738e+00 
5100 4.8602326084e+00 6.7613865146e-02 1.6791695542e+00 -2.9084069824e+00 1.6791695542e+00 2.9084069824e+00 
5200 4.8588729942e+00 6.7080245823e-02 1.6771566444e+00 -2.9049205203e+00 1.6771566444e+00 2.9049205203e+00 
5300 4.8575754056e+00 6.6507983656e-02 1.6751572217e+00 -2.9014574187e+00 1.6751572217e+00 2.9014574187e+00 
5400 4.8563369423e+00 6.5900102976e-02 1.6731724877e+00 -2.8980197585e+00 1.6731724877e+00 2.8980197585e+00 
5500 4.8551548415e+00 6.5259539565e-02 1.6712035585e+00 -2.8946094732e+00 1.6712035585e+00 2.8946094732e+00 
5600 4.8540264694e+00 6.4589134371e-02 1.6692514679e+00 -2.8912283530e+00 1.6692514679e+00 2.8912283530e+00 
5700 4.8529493135e+00 6.3891628511e-02 1.6673171684e+00 -2.8878780481e+00 1.6673171684e+00 2.8878780481e+00 
5800 4.8519209759e+00 6.3169659443e-02 1.6654015348e+00 -2.8845600733e+00 1.6654015348e+00 2.8845600733e+00 
5900 4.8509391671e+00 6.2425758190e-02 1.6635053658e+00 -2.8812758122e+00 1.6635053658e+00 2.8812758122e+00 
6000 4.8500017006e+00 6.1662347494e-02 1.6616293871e+00 -2.8780265219e+00 1.6616293871e+00 2.8780265219e+00 
6100 4.8491064881e+00 6.0881740813e-02 1.6597742545e+00 -2.8748133379e+00 1.6597742545e+00 2.8748133379e+00 
6200 4.8482515347e+00 6.0086142039e-02 1.6579405558e+00 -2.8716372787e+00 1.6579405558e+00 2.8716372787e+00 
6300 4.8474349350e+00 5.9277645871e-02 1.6561288146e+00 -2.8684992508e+00 1.6561288146e+00 2.8684992508e+00 
6400 4.8466548692e+00 5.8458238743e-02 1.6543394925e+00 -2.8654000540e+00 1.6543394925e+00 2.8654000540e+00 
6500 4.8459095996e+00 5.7629800245e-02 1.6525729923e+00 -2.8623403858e+00 1.6525729923e+00 2.8623403858e+00 
6600 4.8451974671e+00 5.6794104950e-02 1.6508296607e+00 -2.8593208469e+00 1.6508296607e+00 2.8593208469e+00 
6700 4.8445168883e+00 5.5952824603e-02 1.6491097912e+00 -2.8563419456e+00 1.6491097912e+00 2.8563419456e+00 
6800 4.8438663524e+00 5.5107530605e-02 1.6474136269e+00 -2.8534041029e+00 1.6474136269e+00 2.8534041029e+00 
6900 4.8432444183e+00 5.4259696733e-02 1.6457413633e+00 -2.8505076574e+00 1.6457413633e+00 2.8505076574e+00 
7000 4.8426497119e+00 5.3410702065e-02 1.6440931508e+00 -2.8476528696e+00 1.6440931508e+00 2.8476528696e+00 
7100 4.8420809237e+00 5.2561834062e-02 1.6424690975e+00 -2.8448399268e+00 1.6424690975e+00 2.8448399268e+00 
7200 4.8415368060e+00 5.1714291763e-02 1.6408692716e+00 -2.8420689471e+00 1.6408692716e+00 2.8420689471e+00 
7300 4.8410161706e+00 5.0869189067e-02 1.6392937041e+00 -2.8393399841e+00 1.6392937041e+00 2.8393399841e+00 
7400 4.8405178863e+00 5.0027558076e-02 1.6377423910e+00 -2.8366530309e+00 1.6377423910e+00 2.8366530309e+00 
7500 4.8400408767e+00 4.9190352463e-02 1.6362152957e+00 -2.8340080242e+00 1.6362152957e+00 2.8340080242e+00 
7600 4.8395841181e+00 4.8358450853e-02 1.6347123512e+00 -2.8314048481e+00 1.6347123512e+00 2.8314048481e+00 
7700 4.8391466368e+00 4.7532660189e-02 1.6332334625e+00 -2.8288433377e+00 1.6332334625e+00 2.8288433377e+00 
7800 4.8387275078e+00 4.6713719073e-02 1.6317785084e+00 -2.8263232833e+00 1.6317785084e+00 2.8263232833e+00 
7900 4.8383258519e+00 4.5902301064e-02 1.6303473435e+00 -2.8238444329e+00 1.6303473435e+00 2.8238444329e+00 
8000 4.8379408340e+00 4.5099017914e-02 1.6289398002e+00 -2.8214064964e+00 1.6289398002e+00 2.8214064964e+00 
8100 4.8375716615e+00 4.4304422754e-02 1.6275556906e+00 -2.8190091482e+00 1.6275556906e+00 2.8190091482e+00 
8200 4.8372175817e+00 4.3519013187e-02 1.6261948080e+00 -2.8166520305e+00 1.6261948080e+00 2.8166520305e+00 
8300 4.8368778807e+00 4.2743234316e-02 1.6248569289e+00 -2.8143347560e+00 1.6248569289e+00 2.8143347560e+00 
8400 4.8365518808e+00 4.1977481676e-02 1.6235418143e+00 -2.8120569106e+00 1.6235418143e+00 2.8120569106e+00 
8500 4.8362389396e+00 4.1222104079e-02 1.6222492111e+00 -2.8098180562e+00 1.6222492111e+00 2.8098180562e+00 
8600 4.8359384475e+00 4.0477406359e-02 1.6209788539e+00 -2.8076177330e+00 1.6209788539e+00 2.8076177330e+00 
8700 4.8356498270e+00 3.9743652028e-02 1.6197304661e+00 -2.8054554618e+00 1.6197304661e+00 2.8054554618e+00 
8800 4.8353725301e+00 3.9021065828e-02 1.6185037610e+00 -2.8033307463e+00 1.6185037610e+00 2.8033307463e+00 
8900 4.8351060376e+00 3.8309836183e-02 1.6172984435e+00 -2.8012430752e+00 1.6172984435e+00 2.8012430752e+00 
9000 4.8348498572e+00 3.7610117557e-02 1.6161142107e+00 -2.7991919238e+00 1.6161142107e+00 2.7991919238e+00 
9100 4.8346035225e+00 3.6922032708e-02 1.6149507533e+00 -2.7971767565e+00 1.6149507533e+00 2.7971767565e+00 
9200 4.8343665910e+00 3.6245674843e-02 1.6138077564e+00 -2.7951970278e+00 1.6138077564e+00 2.7951970278e+00 
9300 4.8341386437e+00 3.5581109682e-02 1.6126849006e+00 -2.7932521845e+00 1.6126849006e+00 2.7932521845e+00 
9400 4.8339192830e+00 3.4928377424e-02 1.6115818627e+00 -2.7913416668e+00 1.6115818627e+00 2.7913416668e+00 
9500 4.8337081322e+00 3.4287494613e-02 1.6104983168e+00 -2.7894649102e+00 1.6104983168e+00 2.7894649102e+00 
9600 4.8335048339e+00 3.3658455924e-02 1.6094339346e+00 -2.7876213461e+00 1.6094339346e+00 2.7876213461e+00 
9700 4.8333090492e+00 3.3041235855e-02 1.6083883866e+00 -2.7858104038e+00 1.6083883866e+00 2.7858104038e+00 
9800 4.8331204566e+00 3.2435790327e-02 1.6073613424e+00 -2.7840315112e+00 1.6073613424e+00 2.7840315112e+00 
9900 4.8329387512e+00 3.1842058212e-02 1.6063524718e+00 -2.7822840960e+00 1.6063524718e+00 2.7822840960e+00 
10000 4.8327636433e+00 3.1259962771e-02 1.6053614445e+00 -2.7805675864e+00 1.6053614445e+00 2.7805675864e+00 
10100 4.8325948580e+00 3.0689413016e-02 1.6043879316e+00 -2.7788814126e+00 1.6043879316e+00 2.7788814126e+00 
10200 4.8324321343e+00 3.0130304995e-02 1.6034316055e+00 -2.7772250072e+00 1.6034316055e+00 2.7772250072e+00 
10300 4.8322752242e+00 2.9582523011e-02 1.6024921404e+00 -2.7755978059e+00 1.6024921404e+00 2.7755978059e+00 
10400 4.8321238918e+00 2.9045940762e-02 1.6015692129e+00 -2.7739992485e+00 1.6015692129e+00 2.7739992485e+00 
10500 4.8319779130e+00 2.8520422422e-02 1.6006625022e+00 -2.7724287796e+00 1.6006625022e+00 2.7724287796e+00 
10600 4.8318370746e+00 2.8005823648e-02 1.5997716906e+00 -2.7708858486e+00 1.5997716906e+00 2.7708858486e+00 
10700 4.8317011735e+00 2.7501992536e-02 1.5988964635e+00 -2.7693699109e+00 1.5988964635e+00 2.7693699109e+00 
10800 4.8315700165e+00 2.7008770514e-02 1.5980365102e+00 -2.7678804281e+00 1.5980365102e+00 2.7678804281e+00 
10900 4.8314434195e+00 2.6525993174e-02 1.5971915236e+00 -2.7664168684e+00 1.5971915236e+00 2.7664168684e+00 
11000 4.8313212072e+00 2.6053491056e-02 1.5963612008e+00 -2.7649787069e+00 1.5963612008e+00 2.7649787069e+00 
11100 4.8312032120e+00 2.5591090381e-02 1.5955452429e+00 -2.7635654264e+00 1.5955452429e+00 2.7635654264e+00 
11200 4.8310892744e+00 2.5138613732e-02 1.5947433557e+00 -2.7621765171e+00 1.5947433557e+00 2.7621765171e+00 
11300 4.8309792421e+00 2.4695880688e-02 1.5939552495e+00 -2.7608114771e+00 1.5939552495e+00 2.7608114771e+00 
11400 4.8308729693e+00 2.4262708420e-02 1.5931806393e+00 -2.7594698129e+00 1.5931806393e+00 2.7594698129e+00 
11500 4.8307703171e+00 2.3838912237e-02 1.5924192450e+00 -2.7581510392e+00 1.5924192450e+00 2.7581510392e+00 
11600 4.8306711525e+00 2.3424306096e-02 1.5916707912e+00 -2.7568546793e+00 1.5916707912e+00 2.7568546793e+00 
11700 4.8305753481e+00 2.3018703080e-02 1.5909350078e+00 -2.7555802650e+00 1.5909350078e+00 2.7555802650e+00 
11800 4.8304827823e+00 2.2621915827e-02 1.5902116294e+00 -2.7543273370e+00 1.5902116294e+00 2.7543273370e+00 
11900 4.8303933383e+00 2.2233756938e-02 1.5895003962e+00 -2.7530954448e+00 1.5895003962e+00 2.7530954448e+00 
12000 4.8303069045e+00 2.1854039345e-02 1.5888010530e+00 -2.7518841469e+00 1.5888010530e+00 2.7518841469e+00 
12100 4.8302233736e+00 2.1482576653e-02 1.5881133501e+00 -2.7506930105e+00 1.5881133501e+00 2.7506930105e+00 
12200 4.8301426430e+00 2.1119183452e-02 1.5874370428e+00 -2.7495216120e+00 1.5874370428e+00 2.7495216120e+00 
12300 4.8300646141e+00 2.0763675601e-02 1.5867718918e+00 -2.7483695366e+00 1.5867718918e+00 2.7483695366e+00 
12400 4.8299891922e+00 2.0415870487e-02 1.5861176626e+00 -2.7472363785e+00 1.5861176626e+00 2.7472363785e+00 
12500 4.8299162863e+00 2.0075587265e-02 1.5854741262e+00 -2.7461217407e+00 1.5854741262e+00 2.7461217407e+00 
12600 4.8298458091e+00 1.9742647064e-02 1.5848410585e+00 -2.7450252352e+00 1.5848410585e+00 2.7450252352e+00 
12700 4.8297776766e+00 1.9416873184e-02 1.5842182404e+00 -2.7439464827e+00 1.5842182404e+00 2.7439464827e+00 
12800 4.8297118081e+00 1.9098091268e-02 1.5836054580e+00 -2.7428851124e+00 1.5836054580e+00 2.7428851124e+00 
12900 4.8296481258e+00 1.8786129453e-02 1.5830025023e+00 -2.7418407625e+00 1.5830025023e+00 2.7418407625e+00 
13000 4.8295865549e+00 1.8480818509e-02 1.5824091692e+00 -2.7408130795e+00 1.5824091692e+00 2.7408130795e+00 
13100 4.8295270235e+00 1.8181991953e-02 1.5818252595e+00 -2.7398017182e+00 1.5818252595e+00 2.7398017182e+00 
13200 4.8294694622e+00 1.7889486161e-02 1.5812505788e+00 -2.7388063419e+00 1.5812505788e+00 2.7388063419e+00 
13300 4.8294138042e+00 1.7603140452e-02 1.5806849373e+00 -2.7378266221e+00 1.5806849373e+00 2.7378266221e+00 
13400 4.8293599850e+00 1.7322797164e-02 1.5801281499e+00 -2.7368622382e+00 1.5801281499e+00 2.7368622382e+00 
13500 4.8293079427e+00 1.7048301726e-02 1.5795800363e+00 -2.7359128775e+00 1.5795800363e+00 2.7359128775e+00 
13600 4.8292576174e+00 1.6779502698e-02 1.5790404204e+00 -2.7349782353e+00 1.5790404204e+00 2.7349782353e+00 
13700 4.8292089514e+00 1.6516251826e-02 1.5785091306e+00 -2.7340580144e+00 1.5785091306e+00 2.7340580144e+00 
13800 4.8291618890e+00 1.6258404064e-02 1.5779859997e+00 -2.7331519251e+00 1.5779859997e+00 2.7331519251e+00 
13900 4.8291163764e+00 1.6005817599e-02 1.5774708646e+00 -2.7322596849e+00 1.5774708646e+00 2.7322596849e+00 
14000 4.8290723619e+00 1.5758353868e-02 1.5769635665e+00 -2.7313810188e+00 1.5769635665e+00 2.7313810188e+00 
14100 4.8290297953e+00 1.5515877560e-02 1.5764639506e+00 -2.7305156587e+00 1.5764639506e+00 2.7305156587e+00 
14200 4.8289886284e+00 1.5278256618e-02 1.5759718661e+00 -2.7296633433e+00 1.5759718661e+00 2.7296633433e+00 
14300 4.8289488146e+00 1.5045362227e-02 1.5754871660e+00 -2.7288238182e+00 1.5754871660e+00 2.7288238182e+00 
14400 4.8289103087e+00 1.4817068806e-02 1.5750097073e+00 -2.7279968354e+00 1.5750097073e+00 2.7279968354e+00 
14500 4.8288730673e+00 1.4593253981e-02 1.5745393505e+00 -2.7271821535e+00 1.5745393505e+00 2.7271821535e+00 
14600 4.8288370484e+00 1.4373798565e-02 1.5740759598e+00 -2.7263795373e+00 1.5740759598e+00 2.7263795373e+00 
14700 4.8288022113e+00 1.4158586528e-02 1.5736194029e+00 -2.7255887576e+00 1.5736194029e+00 2.7255887576e+00 
14800 4.8287685168e+00 1.3947504961e-02 1.5731695511e+00 -2.7248095913e+00 1.5731695511e+00 2.7248095913e+00 
14900 4.8287359271e+00 1.3740444040e-02 1.5727262787e+00 -2.7240418212e+00 1.5727262787e+00 2.7240418212e+00 
15000 4.8287044055e+00 1.3537296986e-02 1.5722894638e+00 -2.7232852355e+00 1.5722894638e+00 2.7232852355e+00 
15100 4.8286739167e+00 1.3337960018e-02 1.5718589871e+00 -2.7225396280e+00 1.5718589871e+00 2.7225396280e+00 
15200 4.8286444264e+00 1.3142332310e-02 1.5714347328e+00 -2.7218047979e+00 1.5714347328e+00 2.7218047979e+00 
15300 4.8286159017e+00 1.2950315939e-02 1.5710165878e+00 -2.7210805497e+00 1.5710165878e+00 2.7210805497e+00 
15400 4.8285883106e+00 1.2761815833e-02 1.5706044423e+00 -2.7203666926e+00 1.5706044423e+00 2.7203666926e+00 
15500 4.8285616222e+00 1.2576739722e-02 1.5701981890e+00 -2.7196630412e+00 1.5701981890e+00 2.7196630412e+00 
15600 4.8285358067e+00 1.2394998079e-02 1.5697977234e+00 -2.7189694146e+00 1.5697977234e+00 2.7189694146e+00 
15700 4.8285108352e+00 1.2216504067e-02 1.5694029440e+00 -2.7182856365e+00 1.5694029440e+00 2.7182856365e+00 
15800 4.8284866800e+00 1.2041173479e-02 1.5690137514e+00 -2.7176115352e+00 1.5690137514e+00 2.7176115352e+00 
15900 4.8284633141e+00 1.1868924685e-02 1.5686300491e+00 -2.7169469434e+00 1.5686300491e+00 2.7169469434e+00 
16000 4.8284407114e+00 1.1699678565e-02 1.5682517430e+00 -2.7162916979e+00 1.5682517430e+00 2.7162916979e+00 
16100 4.8284188468e+00 1.1533358461e-02 1.5678787412e+00 -2.7156456399e+00 1.5678787412e+00 2.7156456399e+00 
16200 4.8283976960e+00 1.1369890105e-02 1.5675109542e+00 -2.7150086141e+00 1.5675109542e+00 2.7150086141e+00 
16300 4.8283772354e+00 1.1209201572e-02 1.5671482948e+00 -2.7143804696e+00 1.5671482948e+00 2.7143804696e+00 
16400 4.8283574423e+00 1.1051223209e-02 1.5667906779e+00 -2.7137610590e+00 1.5667906779e+00 2.7137610590e+00 
16500 4.8283382948e+00 1.0895887583e-02 1.5664380204e+00 -2.7131502383e+00 1.5664380204e+00 2.7131502383e+00 
16600 4.8283197717e+00 1.0743129419e-02 1.5660902415e+00 -2.7125478674e+00 1.5660902415e+00 2.7125478674e+00 
16700 4.8283018523e+00 1.0592885538e-02 1.5657472620e+00 -2.7119538095e+00 1.5657472620e+00 2.7119538095e+00 
16800 4.8282845169e+00 1.0445094805e-02 1.5654090048e+00 -2.7113679309e+00 1.5654090048e+00 2.7113679309e+00 
16900 4.8282677463e+00 1.0299698065e-02 1.5650753947e+00 -2.7107901014e+00 1.5650753947e+00 2.7107901014e+00 
17000 4.8282515220e+00 1.0156638086e-02 1.5647463583e+00 -2.7102201935e+00 1.5647463583e+00 2.7102201935e+00 
17100 4.8282358260e+00 1.0015859506e-02 1.5644218237e+00 -2.7096580831e+00 1.5644218237e+00 2.7096580831e+00 
17200 4.8282206411e+00 9.8773087739e-03 1.5641017208e+00 -2.7091036487e+00 1.5641017208e+00 2.7091036487e+00 
17300 4.8282059504e+00 9.7409340927e-03 1.5637859813e+00 -2.7085567717e+00 1.5637859813e+00 2.7085567717e+00 
17400 4.8281917378e+00 9.6066853685e-03 1.5634745380e+00 -2.7080173362e+00 1.5634745380e+00 2.7080173362e+00 
17500 4.8281779877e+00 9.4745141546e-03 1.5631673258e+00 -2.7074852290e+00 1.5631673258e+00 2.7074852290e+00 
17600 4.8281646850e+00 9.3443735998e-03 1.5628642806e+00 -2.7069603393e+00 1.5628642806e+00 2.7069603393e+00 
17700 4.8281518150e+00 9.2162183960e-03 1.5625653398e+00 -2.7064425587e+00 1.5625653398e+00 2.7064425587e+00 
17800 4.8281393636e+00 9.0900047284e-03 1.5622704425e+00 -2.7059317815e+00 1.5622704425e+00 2.7059317815e+00 
17900 4.8281273171e+00 8.9656902252e-03 1.5619795286e+00 -2.7054279039e+00 1.5619795286e+00 2.7054279039e+00 
18000 4.8281156624e+00 8.8432339093e-03 1.5616925397e+00 -2.7049308246e+00 1.5616925397e+00 2.7049308246e+00 
18100 4.8281043867e+00 8.7225961510e-03 1.5614094185e+00 -2.7044404442e+00 1.5614094185e+00 2.7044404442e+00 
18200 4.8280934777e+00 8.6037386214e-03 1.5611301088e+00 -2.7039566656e+00 1.5611301088e+00 2.7039566656e+00 
18300 4.8280829234e+00 8.4866242471e-03 1.5608545556e+00 -2.7034793936e+00 1.5608545556e+00 2.7034793936e+00 
18400 4.8280727123e+00 8.3712171665e-03 1.5605827053e+00 -2.7030085349e+00 1.5605827053e+00 2.7030085349e+00 
18500 4.8280628334e+00 8.2574826861e-03 1.5603145049e+00 -2.7025439982e+00 1.5603145049e+00 2.7025439982e+00 
18600 4.8280532757e+00 8.1453872393e-03 1.5600499028e+00 -2.7020856940e+00 1.5600499028e+00 2.7020856940e+00 
18700 4.8280440288e+00 8.0348983452e-03 1.5597888483e+00 -2.7016335344e+00 1.5597888483e+00 2.7016335344e+00 
18800 4.8280350829e+00 7.9259845690e-03 1.5595312918e+00 -2.7011874333e+00 1.5595312918e+00 2.7011874333e+00 
18900 4.8280264280e+00 7.8186154837e-03 1.5592771844e+00 -2.7007473064e+00 1.5592771844e+00 2.7007473064e+00 
19000 4.8280180547e+00 7.7127616324e-03 1.5590264783e+00 -2.7003130707e+00 1.5590264783e+00 2.7003130707e+00 
19100 4.8280099541e+00 7.6083944921e-03 1.5587791265e+00 -2.6998846449e+00 1.5587791265e+00 2.6998846449e+00 
19200 4.8280021172e+00 7.5054864386e-03 1.5585350831e+00 -2.6994619493e+00 1.5585350831e+00 2.6994619493e+00 
19300 4.8279945356e+00 7.4040107121e-03 1.5582943027e+00 -2.6990449055e+00 1.5582943027e+00 2.6990449055e+00 
19400 4.8279872010e+00 7.3039413841e-03 1.5580567410e+00 -2.6986334365e+00 1.5580567410e+00 2.6986334365e+00 
19500 4.8279801055e+00 7.2052533257e-03 1.5578223542e+00 -2.6982274666e+00 1.5578223542e+00 2.6982274666e+00 
19600 4.8279732414e+00 7.1079221762e-03 1.5575910995e+00 -2.6978269217e+00 1.5575910995e+00 2.6978269217e+00 
19700 4.8279666013e+00 7.0119243132e-03 1.5573629347e+00 -2.6974317287e+00 1.5573629347e+00 2.6974317287e+00 
19800 4.8279601779e+00 6.9172368239e-03 1.5571378184e+00 -2.6970418159e+00 1.5571378184e+00 2.6970418159e+00 
19900 4.8279539643e+00 6.8238374765e-03 1.5569157099e+00 -2.6966571126e+00 1.5569157099e+00 2.6966571126e+00 
20000 4.8279479538e+00 6.7317046938e-03 1.5566965690e+00 -2.6962775495e+00 1.5566965690e+00 2.6962775495e+00 
20100 4.8279421399e+00 6.6408175266e-03 1.5564803564e+00 -2.6959030582e+00 1.5564803564e+00 2.6959030582e+00 
20200 4.8279365162e+00 6.5511556286e-03 1.5562670332e+00 -2.6955335717e+00 1.5562670332e+00 2.6955335717e+00 
20300 4.8279310767e+00 6.4626992324e-03 1.5560565614e+00 -2.6951690238e+00 1.5560565614e+00 2.6951690238e+00 
20400 4.8279258155e+00 6.3754291257e-03 1.5558489033e+00 -2.6948093494e+00 1.5558489033e+00 2.6948093494e+00 
20500 4.8279207269e+00 6.2893266290e-03 1.5556440219e+00 -2.6944544844e+00 1.5556440219e+00 2.6944544844e+00 
20600 4.8279158053e+00 6.2043735738e-03 1.5554418808e+00 -2.6941043658e+00 1.5554418808e+00 2.6941043658e+00 
20700 4.8279110455e+00 6.1205522817e-03 1.5552424442e+00 -2.6937589315e+00 1.5552424442e+00 2.6937589315e+00 
20800 4.8279064422e+00 6.0378455444e-03 1.5550456767e+00 -2.6934181202e+00 1.5550456767e+00 2.6934181202e+00 
20900 4.8279019905e+00 5.9562366042e-03 1.5548515435e+00 -2.6930818716e+00 1.5548515435e+00 2.6930818716e+00 
21000 4.8278976856e+00 5.8757091358e-03 1.5546600103e+00 -2.6927501264e+00 1.5546600103e+00 2.6927501264e+00 
21100 4.8278935227e+00 5.7962472278e-03 1.5544710433e+00 -2.6924228259e+00 1.5544710433e+00 2.6924228259e+00 
21200 4.8278894974e+00 5.7178353665e-03 1.5542846091e+00 -2.6920999124e+00 1.5542846091e+00 2.6920999124e+00 
21300 4.8278856052e+00 5.6404584185e-03 1.5541006749e+00 -2.6917813289e+00 1.5541006749e+00 2.6917813289e+00 
21400 4.8278818419e+00 5.5641016158e-03 1.5539192082e+00 -2.6914670195e+00 1.5539192082e+00 2.6914670195e+00 
21500 4.8278782035e+00 5.4887505401e-03 1.5537401772e+00 -2.6911569287e+00 1.5537401772e+00 2.6911569287e+00 
21600 4.8278746859e+00 5.4143911086e-03 1.5535635503e+00 -2.6908510019e+00 1.5535635503e+00 2.6908510019e+00 
21700 4.8278712854e+00 5.3410095602e-03 1.5533892964e+00 -2.6905491853e+00 1.5533892964e+00 2.6905491853e+00 
21800 4.8278679981e+00 5.2685924418e-03 1.5532173849e+00 -2.6902514258e+00 1.5532173849e+00 2.6902514258e+00 
21900 4.8278648205e+00 5.1971265962e-03 1.5530477854e+00 -2.6899576709e+00 1.5530477854e+00 2.6899576709e+00 
22000 4.8278617491e+00 5.1265991495e-03 1.5528804682e+00 -2.6896678689e+00 1.5528804682e+00 2.6896678689e+00 
22100 4.8278587805e+00 5.0569974997e-03 1.5527154037e+00 -2.6893819689e+00 1.5527154037e+00 2.6893819689e+00 
22200 4.8278559115e+00 4.9883093055e-03 1.5525525629e+00 -2.6890999203e+00 1.5525525629e+00 2.6890999203e+00 
22300 4.8278531388e+00 4.9205224758e-03 1.5523919170e+00 -2.6888216735e+00 1.5523919170e+00 2.6888216735e+00 
22400 4.8278504595e+00 4.8536251594e-03 1.5522334377e+00 -2.6885471793e+00 1.5522334377e+00 2.6885471793e+00 
22500 4.8278478706e+00 4.7876057355e-03 1.5520770971e+00 -2.6882763894e+00 1.5520770971e+00 2.6882763894e+00 
22600 4.8278453691e+00 4.7224528044e-03 1.5519228674e+00 -2.6880092558e+00 1.5519228674e+00 2.6880092558e+00 
22700 4.8278429524e+00 4.6581551787e-03 1.5517707215e+00 -2.6877457313e+00 1.5517707215e+00 2.6877457313e+00 
22800 4.8278406176e+00 4.5947018751e-03 1.5516206323e+00 -2.6874857692e+00 1.5516206323e+00 2.6874857692e+00 
22900 4.8278383623e+00 4.5320821061e-03 1.5514725732e+00 -2.6872293234e+00 1.5514725732e+00 2.6872293234e+00 
23000 4.8278361838e+00 4.4702852727e-03 1.5513265181e+00 -2.6869763485e+00 1.5513265181e+00 2.6869763485e+00 
23100 4.8278340798e+00 4.4093009570e-03 1.5511824409e+00 -2.6867267994e+00 1.5511824409e+00 2.6867267994e+00 
23200 4.8278320479e+00 4.3491189153e-03 1.5510403160e+00 -2.6864806318e+00 1.5510403160e+00 2.6864806318e+00 
23300 4.8278300857e+00 4.2897290718e-03 1.5509001180e+00 -2.6862378019e+00 1.5509001180e+00 2.6862378019e+00 
23400 4.8278281911e+00 4.2311215121e-03 1.5507618220e+00 -2.6859982662e+00 1.5507618220e+00 2.6859982662e+00 
23500 4.8278263619e+00 4.1732864774e-03 1.5506254033e+00 -2.6857619820e+00 1.5506254033e+00 2.6857619820e+00 
23600 4.8278245960e+00 4.1162143588e-03 1.5504908374e+00 -2.6855289070e+00 1.5504908374e+00 2.6855289070e+00 
23700 4.8278228914e+00 4.0598956924e-03 1.5503581002e+00 -2.6852989995e+00 1.5503581002e+00 2.6852989995e+00 
23800 4.8278212461e+00 4.0043211535e-03 1.5502271679e+00 -2.6850722181e+00 1.5502271679e+00 2.6850722181e+00 
23900 4.8278196582e+00 3.9494815525e-03 1.5500980170e+00 -2.6848485221e+00 1.5500980170e+00 2.6848485221e+00 
24000 4.8278181260e+00 3.8953678300e-03 1.5499706242e+00 -2.6846278713e+00 1.5499706242e+00 2.6846278713e+00 
24100 4.8278166476e+00 3.8419710527e-03 1.5498449665e+00 -2.6844102257e+00 1.5498449665e+00 2.6844102257e+00 
24200 4.8278152213e+00 3.7892824090e-03 1.5497210212e+00 -2.6841955462e+00 1.5497210212e+00 2.6841955462e+00 
24300 4.8278138454e+00 3.7372932055e-03 1.5495987658e+00 -2.6839837938e+00 1.5495987658e+00 2.6839837938e+00 
24400 4.8278125183e+00 3.6859948633e-03 1.5494781783e+00 -2.6837749301e+00 1.5494781783e+00 2.6837749301e+00 
24500 4.8278112385e+00 3.6353789143e-03 1.5493592368e+00 -2.6835689173e+00 1.5493592368e+00 2.6835689173e+00 
24600 4.8278100044e+00 3.5854369982e-03 1.5492419195e+00 -2.6833657177e+00 1.5492419195e+00 2.6833657177e+00 
24700 4.8278088146e+00 3.5361608593e-03 1.5491262050e+00 -2.6831652945e+00 1.5491262050e+00 2.6831652945e+00 
24800 4.8278076676e+00 3.4875423436e-03 1.5490120724e+00 -2.6829676109e+00 1.5490120724e+00 2.6829676109e+00 
24900 4.8278065621e+00 3.4395733961e-03 1.5488995006e+00 -2.6827726309e+00 1.5488995006e+00 2.6827726309e+00 
25000 4.8278054967e+00 3.3922460581e-03 1.5487884692e+00 -2.6825803188e+00 1.5487884692e+00 2.6825803188e+00 
25100 4.8278044701e+00 3.3455524648e-03 1.5486789576e+00 -2.6823906391e+00 1.5486789576e+00 2.6823906391e+00 
25200 4.8278034811e+00 3.2994848432e-03 1.5485709457e+00 -2.6822035571e+00 1.5485709457e+00 2.6822035571e+00 
25300 4.8278025285e+00 3.2540355096e-03 1.5484644137e+00 -2.6820190383e+00 1.5484644137e+00 2.6820190383e+00 
25400 4.8278016110e+00 3.2091968677e-03 1.5483593419e+00 -2.6818370486e+00 1.5483593419e+00 2.6818370486e+00 
25500 4.8278007275e+00 3.1649614066e-03 1.5482557109e+00 -2.6816575544e+00 1.5482557109e+00 2.6816575544e+00 
25600 4.8277998770e+00 3.1213216991e-03 1.5481535015e+00 -2.6814805225e+00 1.5481535015e+00 2.6814805225e+00 
25700 4.8277990583e+00 3.0782704000e-03 1.5480526947e+00 -2.6813059200e+00 1.5480526947e+00 2.6813059200e+00 
25800 4.8277982705e+00 3.0358002443e-03 1.5479532718e+00 -2.6811337145e+00 1.5479532718e+00 2.6811337145e+00 
25900 4.8277975124e+00 2.9939040458e-03 1.5478552143e+00 -2.6809638739e+00 1.5478552143e+00 2.6809638739e+00 
26000 4.8277967832e+00 2.9525746957e-03 1.5477585039e+00 -2.6807963667e+00 1.5477585039e+00 2.6807963667e+00 
26100 4.8277960819e+00 2.9118051611e-03 1.5476631226e+00 -2.6806311614e+00 1.5476631226e+00 2.6806311614e+00 
26200 4.8277954075e+00 2.8715884841e-03 1.5475690526e+00 -2.6804682273e+00 1.5475690526e+00 2.6804682273e+00 
26300 4.8277947593e+00 2.8319177799e-03 1.5474762761e+00 -2.6803075337e+00 1.5474762761e+00 2.6803075337e+00 
26400 4.8277941363e+00 2.7927862367e-03 1.5473847758e+00 -2.6801490506e+00 1.5473847758e+00 2.6801490506e+00 
26500 4.8277935376e+00 2.7541871135e-03 1.5472945346e+00 -2.6799927481e+00 1.5472945346e+00 2.6799927481e+00 
26600 4.8277929626e+00 2.7161137401e-03 1.5472055353e+00 -2.6798385969e+00 1.5472055353e+00 2.6798385969e+00 
26700 4.8277924104e+00 2.6785595155e-03 1.5471177613e+00 -2.6796865679e+00 1.5471177613e+00 2.6796865679e+00 
26800 4.8277918802e+00 2.6415179074e-03 1.5470311960e+00 -2.6795366324e+00 1.5470311960e+00 2.6795366324e+00 
26900 4.8277913713e+00 2.6049824511e-03 1.5469458230e+00 -2.6793887621e+00 1.5469458230e+00 2.6793887621e+00 
27000 4.8277908831e+00 2.5689467487e-03 1.5468616262e+00 -2.6792429289e+00 1.5468616262e+00 2.6792429289e+00 
27100 4.8277904147e+00 2.5334044688e-03 1.5467785896e+00 -2.6790991052e+00 1.5467785896e+00 2.6790991052e+00 
27200 4.8277899657e+00 2.4983493453e-03 1.5466966974e+00 -2.6789572637e+00 1.5466966974e+00 2.6789572637e+00 
27300 4.8277895352e+00 2.4637751768e-03 1.5466159340e+00 -2.6788173775e+00 1.5466159340e+00 2.6788173775e+00 
27400 4.8277891227e+00 2.4296758262e-03 1.5465362842e+00 -2.6786794200e+00 1.5465362842e+00 2.6786794200e+00 
27500 4.8277887276e+00 2.3960452201e-03 1.5464577327e+00 -2.6785433648e+00 1.5464577327e+00 2.6785433648e+00 
27600 4.8277883493e+00 2.3628773478e-03 1.5463802645e+00 -2.6784091860e+00 1.5463802645e+00 2.6784091860e+00 
27700 4.8277879872e+00 2.3301662613e-03 1.5463038649e+00 -2.6782768579e+00 1.5463038649e+00 2.6782768579e+00 
27800 4.8277876407e+00 2.2979060744e-03 1.5462285192e+00 -2.6781463553e+00 1.5462285192e+00 2.6781463553e+00 
27900 4.8277873095e+00 2.2660909626e-03 1.5461542129e+00 -2.6780176532e+00 1.5461542129e+00 2.6780176532e+00 
28000 4.8277869928e+00 2.2347151620e-03 1.5460809320e+00 -2.6778907268e+00 1.5460809320e+00 2.6778907268e+00 
28100 4.8277866902e+00 2.2037729695e-03 1.5460086622e+00 -2.6777655519e+00 1.5460086622e+00 2.6777655519e+00 
28200 4.8277864013e+00 2.1732587420e-03 1.5459373898e+00 -2.6776421045e+00 1.5459373898e+00 2.6776421045e+00 
28300 4.8277861256e+00 2.1431668961e-03 1.5458671010e+00 -2.6775203607e+00 1.5458671010e+00 2.6775203607e+00 
28400 4.8277858625e+00 2.1134919076e-03 1.5457977823e+00 -2.6774002971e+00 1.5457977823e+00 2.6774002971e+00 
28500 4.8277856117e+00 2.0842283112e-03 1.5457294203e+00 -2.6772818907e+00 1.5457294203e+00 2.6772818907e+00 
28600 4.8277853728e+00 2.0553707000e-03 1.5456620018e+00 -2.6771651185e+00 1.5456620018e+00 2.6771651185e+00 
28700 4.8277851453e+00 2.0269137254e-03 1.5455955139e+00 -2.6770499581e+00 1.5455955139e+00 2.6770499581e+00 
28800 4.8277849288e+00 1.9988520964e-03 1.5455299438e+00 -2.6769363872e+00 1.5455299438e+00 2.6769363872e+00 
28900 4.8277847230e+00 1.9711805793e-03 1.5454652786e+00 -2.6768243839e+00 1.5454652786e+00 2.6768243839e+00 
29000 4.8277845274e+00 1.9438939977e-03 1.5454015060e+00 -2.6767139265e+00 1.5454015060e+00 2.6767139265e+00 
29100 4.8277843418e+00 1.9169872317e-03 1.5453386136e+00 -2.6766049937e+00 1.5453386136e+00 2.6766049937e+00 
29200 4.8277841657e+00 1.8904552177e-03 1.5452765892e+00 -2.6764975642e+00 1.5452765892e+00 2.6764975642e+00 
29300 4.8277839988e+00 1.8642929483e-03 1.5452154208e+00 -2.6763916174e+00 1.5452154208e+00 2.6763916174e+00 
29400 4.8277838408e+00 1.8384954717e-03 1.5451550965e+00 -2.6762871327e+00 1.5451550965e+00 2.6762871327e+00 
29500 4.8277836913e+00 1.8130578914e-03 1.5450956046e+00 -2.6761840897e+00 1.5450956046e+00 2.6761840897e+00 
29600 4.8277835502e+00 1.7879753660e-03 1.5450369336e+00 -2.6760824685e+00 1.5450369336e+00 2.6760824685e+00 
29700 4.8277834169e+00 1.7632431089e-03 1.5449790720e+00 -2.6759822494e+00 1.5449790720e+00 2.6759822494e+00 
29800 4.8277832914e+00 1.7388563877e-03 1.5449220087e+00 -2.6758834129e+00 1.5449220087e+00 2.6758834129e+00 
29900 4.8277831732e+00 1.7148105240e-03 1.5448657326e+00 -2.6757859397e+00 1.5448657326e+00 2.6757859397e+00 
30000 4.8277830621e+00 1.6911008934e-03 1.5448102326e+00 -2.6756898109e+00 1.5448102326e+00 2.6756898109e+00 
30100 4.8277829579e+00 1.6677229247e-03 1.5447554980e+00 -2.6755950078e+00 1.5447554980e+00 2.6755950078e+00 
30200 4.8277828603e+00 1.6446720998e-03 1.5447015182e+00 -2.6755015120e+00 1.5447015182e+00 2.6755015120e+00 
30300 4.8277827691e+00 1.6219439533e-03 1.5446482825e+00 -2.6754093052e+00 1.5446482825e+00 2.6754093052e+00 
30400 4.8277826840e+00 1.5995340722e-03 1.5445957808e+00 -2.6753183695e+00 1.5445957808e+00 2.6753183695e+00 
30500 4.8277826047e+00 1.5774380958e-03 1.5445440027e+00 -2.6752286872e+00 1.5445440027e+00 2.6752286872e+00 
30600 4.8277825311e+00 1.5556517148e-03 1.5444929381e+00 -2.6751402407e+00 1.5444929381e+00 2.6751402407e+00 
30700 4.8277824630e+00 1.5341706714e-03 1.5444425771e+00 -2.6750530130e+00 1.5444425771e+00 2.6750530130e+00 
30800 4.8277824001e+00 1.5129907591e-03 1.5443929100e+00 -2.6749669869e+00 1.5443929100e+00 2.6749669869e+00 
30900 4.8277823423e+00 1.4921078218e-03 1.5443439269e+00 -2.6748821457e+00 1.5443439269e+00 2.6748821457e+00 
31000 4.8277822893e+00 1.4715177539e-03 1.5442956183e+00 -2.6747984728e+00 1.5442956183e+00 2.6747984728e+00 
31100 4.8277822409e+00 1.4512164998e-03 1.5442479749e+00 -2.6747159520e+00 1.5442479749e+00 2.6747159520e+00 
31200 4.8277821970e+00 1.4312000535e-03 1.5442009873e+00 -2.6746345672e+00 1.5442009873e+00 2.6746345672e+00 
31300 4.8277821575e+00 1.4114644584e-03 1.5441546465e+00 -2.6745543024e+00 1.5441546465e+00 2.6745543024e+00 
31400 4.8277821220e+00 1.3920058068e-03 1.5441089432e+00 -2.6744751421e+00 1.5441089432e+00 2.6744751421e+00 
31500 4.8277820905e+00 1.3728202396e-03 1.5440638687e+00 -2.6743970707e+00 1.5440638687e+00 2.6743970707e+00 
31600 4.8277820628e+00 1.3539039460e-03 1.5440194141e+00 -2.6743200732e+00 1.5440194141e+00 2.6743200732e+00 
31700 4.8277820388e+00 1.3352531627e-03 1.5439755709e+00 -2.6742441344e+00 1.5439755709e+00 2.6742441344e+00 
31800 4.8277820183e+00 1.3168641743e-03 1.5439323303e+00 -2.6741692396e+00 1.5439323303e+00 2.6741692396e+00 
31900 4.8277820011e+00 1.2987333123e-03 1.5438896841e+00 -2.6740953741e+00 1.5438896841e+00 2.6740953741e+00 
32000 4.8277819871e+00 1.2808569549e-03 1.5438476238e+00 -2.6740225236e+00 1.5438476238e+00 2.6740225236e+00 
32100 4.8277819762e+00 1.2632315267e-03 1.5438061414e+00 -2.6739506739e+00 1.5438061414e+00 2.6739506739e+00 
32200 4.8277819683e+00 1.2458534982e-03 1.5437652287e+00 -2.6738798110e+00 1.5437652287e+00 2.6738798110e+00 
32300 4.8277819632e+00 1.2287193856e-03 1.5437248777e+00 -2.6738099211e+00 1.5437248777e+00 2.6738099211e+00 
32400 4.8277819608e+00 1.2118257500e-03 1.5436850807e+00 -2.6737409906e+00 1.5436850807e+00 2.6737409906e+00 
32500 4.8277819610e+00 1.1951691976e-03 1.5436458298e+00 -2.6736730061e+00 1.5436458298e+00 2.6736730061e+00 
32600 4.8277819637e+00 1.1787463788e-03 1.5436071174e+00 -2.6736059542e+00 1.5436071174e+00 2.6736059542e+00 
32700 4.8277819687e+00 1.1625539880e-03 1.5435689360e+00 -2.6735398221e+00 1.5435689360e+00 2.6735398221e+00 
32800 4.8277819760e+00 1.1465887633e-03 1.5435312782e+00 -2.6734745968e+00 1.5435312782e+00 2.6734745968e+00 
32900 4.8277819854e+00 1.1308474860e-03 1.5434941366e+00 -2.6734102657e+00 1.5434941366e+00 2.6734102657e+00 
33000 4.8277819969e+00 1.1153269799e-03 1.5434575040e+00 -2.6733468163e+00 1.5434575040e+00 2.6733468163e+00 
33100 4.8277820104e+00 1.1000241116e-03 1.5434213733e+00 -2.6732842361e+00 1.5434213733e+00 2.6732842361e+00 
33200 4.8277820257e+00 1.0849357895e-03 1.5433857376e+00 -2.6732225132e+00 1.5433857376e+00 2.6732225132e+00 
33300 4.8277820428e+00 1.0700589633e-03 1.5433505898e+00 -2.6731616354e+00 1.5433505898e+00 2.6731616354e+00 
33400 4.8277820616e+00 1.0553906244e-03 1.5433159232e+00 -2.6731015911e+00 1.5433159232e+00 2.6731015911e+00 
33500 4.8277820820e+00 1.0409278044e-03 1.5432817310e+00 -2.6730423685e+00 1.5432817310e+00 2.6730423685e+00 
33600 4.8277821040e+00 1.0266675757e-03 1.5432480066e+00 -2.6729839562e+00 1.5432480066e+00 2.6729839562e+00 
33700 4.8277821274e+00 1.0126070503e-03 1.5432147435e+00 -2.6729263428e+00 1.5432147435e+00 2.6729263428e+00 
33800 4.8277821522e+00 9.9874337993e-04 1.5431819353e+00 -2.6728695173e+00 1.5431819353e+00 2.6728695173e+00 
33900 4.8277821783e+00 9.8507375523e-04 1.5431495755e+00 -2.6728134685e+00 1.5431495755e+00 2.6728134685e+00 
34000 4.8277822057e+00 9.7159540564e-04 1.5431176580e+00 -2.6727581857e+00 1.5431176580e+00 2.6727581857e+00 
34100 4.8277822342e+00 9.5830559884e-04 1.5430861766e+00 -2.6727036582e+00 1.5430861766e+00 2.6727036582e+00 
34200 4.8277822639e+00 9.4520164037e-04 1.5430551251e+00 -2.6726498755e+00 1.5430551251e+00 2.6726498755e+00 
34300 4.8277822945e+00 9.3228087318e-04 1.5430244976e+00 -2.6725968271e+00 1.5430244976e+00 2.6725968271e+00 
34400 4.8277823262e+00 9.1954067729e-04 1.5429942881e+00 -2.6725445028e+00 1.5429942881e+00 2.6725445028e+00 
34500 4.8277823588e+00 9.0697846930e-04 1.5429644909e+00 -2.6724928926e+00 1.5429644909e+00 2.6724928926e+00 
34600 4.8277823923e+00 8.9459170200e-04 1.5429351003e+00 -2.6724419864e+00 1.5429351003e+00 2.6724419864e+00 
34700 4.8277824267e+00 8.8237786399e-04 1.5429061104e+00 -2.6723917746e+00 1.5429061104e+00 2.6723917746e+00 
34800 4.8277824617e+00 8.7033447921e-04 1.5428775158e+00 -2.6723422473e+00 1.5428775158e+00 2.6723422473e+00 
34900 4.8277824976e+00 8.5845910658e-04 1.5428493110e+00 -2.6722933951e+00 1.5428493110e+00 2.6722933951e+00 
35000 4.8277825340e+00 8.4674933956e-04 1.5428214905e+00 -2.6722452086e+00 1.5428214905e+00 2.6722452086e+00 
35100 4.8277825712e+00 8.3520280574e-04 1.5427940490e+00 -2.6721976785e+00 1.5427940490e+00 2.6721976785e+00 
35200 4.8277826089e+00 8.2381716646e-04 1.5427669812e+00 -2.6721507957e+00 1.5427669812e+00 2.6721507957e+00 
35300 4.8277826471e+00 8.1259011637e-04 1.5427402820e+00 -2.6721045513e+00 1.5427402820e+00 2.6721045513e+00 
35400 4.8277826859e+00 8.0151938304e-04 1.5427139461e+00 -2.6720589362e+00 1.5427139461e+00 2.6720589362e+00 
35500 4.8277827251e+00 7.9060272654e-04 1.5426879686e+00 -2.6720139419e+00 1.5426879686e+00 2.6720139419e+00 
35600 4.8277827647e+00 7.7983793907e-04 1.5426623445e+00 -2.6719695596e+00 1.5426623445e+00 2.6719695596e+00 
35700 4.8277828047e+00 7.6922284453e-04 1.5426370688e+00 -2.6719257809e+00 1.5426370688e+00 2.6719257809e+00 
35800 4.8277828451e+00 7.5875529815e-04 1.5426121368e+00 -2.6718825974e+00 1.5426121368e+00 2.6718825974e+00 
35900 4.8277828858e+00 7.4843318606e-04 1.5425875437e+00 -2.6718400008e+00 1.5425875437e+00 2.6718400008e+00 
36000 4.8277829268e+00 7.3825442492e-04 1.5425632847e+00 -2.6717979831e+00 1.5425632847e+00 2.6717979831e+00 
36100 4.8277829680e+00 7.2821696150e-04 1.5425393553e+00 -2.6717565361e+00 1.5425393553e+00 2.6717565361e+00 
36200 4.8277830095e+00 7.1831877235e-04 1.5425157509e+00 -2.6717156520e+00 1.5425157509e+00 2.6717156520e+00 
36300 4.8277830512e+00 7.0855786335e-04 1.5424924670e+00 -2.6716753231e+00 1.5424924670e+00 2.6716753231e+00 
36400 4.8277830930e+00 6.9893226934e-04 1.5424694991e+00 -2.6716355415e+00 1.5424694991e+00 2.6716355415e+00 
36500 4.8277831350e+00 6.8944005376e-04 1.5424468429e+00 -2.6715962998e+00 1.5424468429e+00 2.6715962998e+00 
36600 4.8277831771e+00 6.8007930827e-04 1.5424244940e+00 -2.6715575904e+00 1.5424244940e+00 2.6715575904e+00 
36700 4.8277832193e+00 6.7084815234e-04 1.5424024483e+00 -2.6715194061e+00 1.5424024483e+00 2.6715194061e+00 
36800 4.8277832616e+00 6.6174473291e-04 1.5423807015e+00 -2.6714817395e+00 1.5423807015e+00 2.6714817395e+00 
36900 4.8277833039e+00 6.5276722400e-04 1.5423592494e+00 -2.6714445836e+00 1.5423592494e+00 2.6714445836e+00 
37000 4.8277833463e+00 6.4391382636e-04 1.5423380882e+00 -2.6714079312e+00 1.5423380882e+00 2.6714079312e+00 
37100 4.8277833887e+00 6.3518276707e-04 1.5423172136e+00 -2.6713717754e+00 1.5423172136e+00 2.6713717754e+00 
37200 4.8277834310e+00 6.2657229923e-04 1.5422966218e+00 -2.6713361094e+00 1.5422966218e+00 2.6713361094e+00 
37300 4.8277834734e+00 6.1808070155e-04 1.5422763089e+00 -2.6713009263e+00 1.5422763089e+00 2.6713009263e+00 
37400 4.8277835157e+00 6.0970627804e-04 1.5422562710e+00 -2.6712662197e+00 1.5422562710e+00 2.6712662197e+00 
37500 4.8277835579e+00 6.0144735761e-04 1.5422365044e+00 -2.6712319828e+00 1.5422365044e+00 2.6712319828e+00 
37600 4.8277836000e+00 5.9330229377e-04 1.5422170052e+00 -2.6711982093e+00 1.5422170052e+00 2.6711982093e+00 
37700 4.8277836421e+00 5.8526946425e-04 1.5421977699e+00 -2.6711648928e+00 1.5421977699e+00 2.6711648928e+00 
37800 4.8277836840e+00 5.7734727065e-04 1.5421787947e+00 -2.6711320269e+00 1.5421787947e+00 2.6711320269e+00 
37900 4.8277837259e+00 5.6953413815e-04 1.5421600762e+00 -2.6710996054e+00 1.5421600762e+00 2.6710996054e+00 
38000 4.8277837675e+00 5.6182851512e-04 1.5421416108e+00 -2.6710676224e+00 1.5421416108e+00 2.6710676224e+00 
38100 4.8277838091e+00 5.5422887283e-04 1.5421233950e+00 -2.6710360716e+00 1.5421233950e+00 2.6710360716e+00 
38200 4.8277838505e+00 5.4673370508e-04 1.5421054253e+00 -2.6710049473e+00 1.5421054253e+00 2.6710049473e+00 
38300 4.8277838917e+00 5.3934152790e-04 1.5420876985e+00 -2.6709742436e+00 1.5420876985e+00 2.6709742436e+00 
38400 4.8277839327e+00 5.3205087925e-04 1.5420702112e+00 -2.6709439546e+00 1.5420702112e+00 2.6709439546e+00 
38500 4.8277839735e+00 5.2486031864e-04 1.5420529600e+00 -2.6709140747e+00 1.5420529600e+00 2.6709140747e+00 
38600 4.8277840141e+00 5.1776842689e-04 1.5420359418e+00 -2.6708845983e+00 1.5420359418e+00 2.6708845983e+00 
38700 4.8277840545e+00 5.1077380574e-04 1.5420191534e+00 -2.6708555199e+00 1.5420191534e+00 2.6708555199e+00 
38800 4.8277840947e+00 5.0387507762e-04 1.5420025916e+00 -2.6708268340e+00 1.5420025916e+00 2.6708268340e+00 
38900 4.8277841347e+00 4.9707088528e-04 1.5419862533e+00 -2.6707985352e+00 1.5419862533e+00 2.6707985352e+00 
39000 4.8277841744e+00 4.9035989154e-04 1.5419701354e+00 -2.6707706183e+00 1.5419701354e+00 2.6707706183e+00 
39100 4.8277842139e+00 4.8374077896e-04 1.5419542350e+00 -2.6707430780e+00 1.5419542350e+00 2.6707430780e+00 
39200 4.8277842531e+00 4.7721224956e-04 1.5419385491e+00 -2.6707159091e+00 1.5419385491e+00 2.6707159091e+00 
39300 4.8277842921e+00 4.7077302452e-04 1.5419230747e+00 -2.6706891067e+00 1.5419230747e+00 2.6706891067e+00 
39400 4.8277843308e+00 4.6442184393e-04 1.5419078089e+00 -2.6706626656e+00 1.5419078089e+00 2.6706626656e+00 
39500 4.8277843692e+00 4.5815746646e-04 1.5418927490e+00 -2.6706365810e+00 1.5418927490e+00 2.6706365810e+00 
39600 4.8277844074e+00 4.5197866910e-04 1.5418778920e+00 -2.6706108480e+00 1.5418778920e+00 2.6706108480e+00 
39700 4.8277844453e+00 4.4588424688e-04 1.5418632353e+00 -2.6705854618e+00 1.5418632353e+00 2.6705854618e+00 
39800 4.8277844829e+00 4.3987301263e-04 1.5418487760e+00 -2.6705604177e+00 1.5418487760e+00 2.6705604177e+00 
39900 4.8277845202e+00 4.3394379666e-04 1.5418345116e+00 -2.6705357109e+00 1.5418345116e+00 2.6705357109e+00 
40000 4.8277845572e+00 4.2809544654e-04 1.5418204393e+00 -2.6705113370e+00 1.5418204393e+00 2.6705113370e+00 
40100 4.8277845939e+00 4.2232682681e-04 1.5418065565e+00 -2.6704872913e+00 1.5418065565e+00 2.6704872913e+00 
40200 4.8277846304e+00 4.1663681873e-04 1.5417928607e+00 -2.6704635694e+00 1.5417928607e+00 2.6704635694e+00 
40300 4.8277846665e+00 4.1102432004e-04 1.5417793493e+00 -2.6704401670e+00 1.5417793493e+00 2.6704401670e+00 
40400 4.8277847023e+00 4.0548824468e-04 1.5417660197e+00 -2.6704170796e+00 1.5417660197e+00 2.6704170796e+00 
40500 4.8277847378e+00 4.0002752257e-04 1.5417528696e+00 -2.6703943029e+00 1.5417528696e+00 2.6703943029e+00 
40600 4.8277847730e+00 3.9464109937e-04 1.5417398965e+00 -2.6703718328e+00 1.5417398965e+00 2.6703718328e+00 
40700 4.8277848078e+00 3.8932793621e-04 1.5417270980e+00 -2.6703496651e+00 1.5417270980e+00 2.6703496651e+00 
40800 4.8277848424e+00 3.8408700946e-04 1.5417144716e+00 -2.6703277956e+00 1.5417144716e+00 2.6703277956e+00 
40900 4.8277848767e+00 3.7891731054e-04 1.5417020152e+00 -2.6703062204e+00 1.5417020152e+00 2.6703062204e+00 
41000 4.8277849106e+00 3.7381784561e-04 1.5416897262e+00 -2.6702849354e+00 1.5416897262e+00 2.6702849354e+00 
41100 4.8277849442e+00 3.6878763543e-04 1.5416776026e+00 -2.6702639366e+00 1.5416776026e+00 2.6702639366e+00 
41200 4.8277849775e+00 3.6382571506e-04 1.5416656420e+00 -2.6702432203e+00 1.5416656420e+00 2.6702432203e+00 
41300 4.8277850104e+00 3.5893113371e-04 1.5416538423e+00 -2.6702227825e+00 1.5416538423e+00 2.6702227825e+00 
41400 4.8277850431e+00 3.5410295447e-04 1.5416422012e+00 -2.6702026196e+00 1.5416422012e+00 2.6702026196e+00 
41500 4.8277850754e+00 3.4934025409e-04 1.5416307166e+00 -2.6701827277e+00 1.5416307166e+00 2.6701827277e+00 
41600 4.8277851074e+00 3.4464212282e-04 1.5416193864e+00 -2.6701631032e+00 1.5416193864e+00 2.6701631032e+00 
41700 4.8277851391e+00 3.4000766419e-04 1.5416082085e+00 -2.6701437425e+00 1.5416082085e+00 2.6701437425e+00 
41800 4.8277851704e+00 3.3543599475e-04 1.5415971808e+00 -2.6701246420e+00 1.5415971808e+00 2.6701246420e+00 
41900 4.8277852015e+00 3.3092624393e-04 1.5415863013e+00 -2.6701057982e+00 1.5415863013e+00 2.6701057982e+00 
42000 4.8277852322e+00 3.2647755382e-04 1.5415755680e+00 -2.6700872076e+00 1.5415755680e+00 2.6700872076e+00 
42100 4.8277852626e+00 3.2208907898e-04 1.5415649790e+00 -2.6700688667e+00 1.5415649790e+00 2.6700688667e+00 
42200 4.8277852927e+00 3.1775998623e-04 1.5415545322e+00 -2.6700507723e+00 1.5415545322e+00 2.6700507723e+00 
42300 4.8277853224e+00 3.1348945448e-04 1.5415442257e+00 -2.6700329210e+00 1.5415442257e+00 2.6700329210e+00 
42400 4.8277853518e+00 3.0927667454e-04 1.5415340577e+00 -2.6700153095e+00 1.5415340577e+00 2.6700153095e+00 
42500 4.8277853809e+00 3.0512084893e-04 1.5415240262e+00 -2.6699979345e+00 1.5415240262e+00 2.6699979345e+00 
42600 4.8277854097e+00 3.0102119170e-04 1.5415141295e+00 -2.6699807929e+00 1.5415141295e+00 2.6699807929e+00 
42700 4.8277854382e+00 2.9697692826e-04 1.5415043657e+00 -2.6699638815e+00 1.5415043657e+00 2.6699638815e+00 
42800 4.8277854664e+00 2.9298729520e-04 1.5414947330e+00 -2.6699471972e+00 1.5414947330e+00 2.6699471972e+00 
42900 4.8277854942e+00 2.8905154011e-04 1.5414852297e+00 -2.6699307369e+00 1.5414852297e+00 2.6699307369e+00 
43000 4.8277855217e+00 2.8516892142e-04 1.5414758539e+00 -2.6699144976e+00 1.5414758539e+00 2.6699144976e+00 
43100 4.8277855490e+00 2.8133870823e-04 1.5414666041e+00 -2.6698984764e+00 1.5414666041e+00 2.6698984764e+00 
43200 4.8277855759e+00 2.7756018016e-04 1.5414574784e+00 -2.6698826703e+00 1.5414574784e+00 2.6698826703e+00 
43300 4.8277856025e+00 2.7383262715e-04 1.5414484752e+00 -2.6698670764e+00 1.5414484752e+00 2.6698670764e+00 
43400 4.8277856288e+00 2.7015534934e-04 1.5414395929e+00 -2.6698516917e+00 1.5414395929e+00 2.6698516917e+00 
43500 4.8277856548e+00 2.6652765690e-04 1.5414308298e+00 -2.6698365137e+00 1.5414308298e+00 2.6698365137e+00 
43600 4.8277856805e+00 2.6294886988e-04 1.5414221844e+00 -2.6698215393e+00 1.5414221844e+00 2.6698215393e+00 
43700 4.8277857058e+00 2.5941831803e-04 1.5414136550e+00 -2.6698067659e+00 1.5414136550e+00 2.6698067659e+00 
43800 4.8277857309e+00 2.5593534070e-04 1.5414052400e+00 -2.6697921908e+00 1.5414052400e+00 2.6697921908e+00 
43900 4.8277857557e+00 2.5249928665e-04 1.5413969380e+00 -2.6697778113e+00 1.5413969380e+00 2.6697778113e+00 
44000 4.8277857802e+00 2.4910951392e-04 1.5413887474e+00 -2.6697636248e+00 1.5413887474e+00 2.6697636248e+00 
44100 4.8277858044e+00 2.4576538972e-04 1.5413806668e+00 -2.6697496286e+00 1.5413806668e+00 2.6697496286e+00 
44200 4.8277858283e+00 2.4246629023e-04 1.5413726945e+00 -2.6697358203e+00 1.5413726945e+00 2.6697358203e+00 
44300 4.8277858519e+00 2.3921160050e-04 1.5413648293e+00 -2.6697221973e+00 1.5413648293e+00 2.6697221973e+00 
44400 4.8277858753e+00 2.3600071432e-04 1.5413570695e+00 -2.6697087570e+00 1.5413570695e+00 2.6697087570e+00 
44500 4.8277858983e+00 2.3283303406e-04 1.5413494139e+00 -2.6696954971e+00 1.5413494139e+00 2.6696954971e+00 
44600 4.8277859211e+00 2.2970797057e-04 1.5413418610e+00 -2.6696824151e+00 1.5413418610e+00 2.6696824151e+00 
44700 4.8277859436e+00 2.2662494303e-04 1.5413344095e+00 -2.6696695087e+00 1.5413344095e+00 2.6696695087e+00 
44800 4.8277859658e+00 2.2358337882e-04 1.5413270579e+00 -2.6696567754e+00 1.5413270579e+00 2.6696567754e+00 
44900 4.8277859877e+00 2.2058271342e-04 1.5413198050e+00 -2.6696442129e+00 1.5413198050e+00 2.6696442129e+00 
45000 4.8277860094e+00 2.1762239026e-04 1.5413126493e+00 -2.6696318190e+00 1.5413126493e+00 2.6696318190e+00 
45100 4.8277860308e+00 2.1470186062e-04 1.5413055897e+00 -2.6696195913e+00 1.5413055897e+00 2.6696195913e+00 
45200 4.8277860519e+00 2.1182058350e-04 1.5412986248e+00 -2.6696075277e+00 1.5412986248e+00 2.6696075277e+00 
45300 4.8277860727e+00 2.0897802549e-04 1.5412917533e+00 -2.6695956259e+00 1.5412917533e+00 2.6695956259e+00 
45400 4.8277860933e+00 2.0617366071e-04 1.5412849739e+00 -2.6695838838e+00 1.5412849739e+00 2.6695838838e+00 
45500 4.8277861137e+00 2.0340697063e-04 1.5412782856e+00 -2.6695722992e+00 1.5412782856e+00 2.6695722992e+00 
45600 4.8277861337e+00 2.0067744399e-04 1.5412716869e+00 -2.6695608701e+00 1.5412716869e+00 2.6695608701e+00 
45700 4.8277861535e+00 1.9798457670e-04 1.5412651768e+00 -2.6695495942e+00 1.5412651768e+00 2.6695495942e+00 
45800 4.8277861731e+00 1.9532787172e-04 1.5412587540e+00 -2.6695384696e+00 1.5412587540e+00 2.6695384696e+00 
45900 4.8277861924e+00 1.9270683894e-04 1.5412524174e+00 -2.6695274942e+00 1.5412524174e+00 2.6695274942e+00 
46000 4.8277862115e+00 1.9012099511e-04 1.5412461658e+00 -2.6695166661e+00 1.5412461658e+00 2.6695166661e+00 
46100 4.8277862303e+00 1.8756986373e-04 1.5412399980e+00 -2.6695059832e+00 1.5412399980e+00 2.6695059832e+00 
46200 4.8277862488e+00 1.8505297490e-04 1.5412339130e+00 -2.6694954436e+00 1.5412339130e+00 2.6694954436e+00 
46300 4.8277862672e+00 1.8256986530e-04 1.5412279096e+00 -2.6694850454e+00 1.5412279096e+00 2.6694850454e+00 
46400 4.8277862853e+00 1.8012007804e-04 1.5412219867e+00 -2.6694747867e+00 1.5412219867e+00 2.6694747867e+00 
46500 4.8277863031e+00 1.7770316258e-04 1.5412161433e+00 -2.6694646657e+00 1.5412161433e+00 2.6694646657e+00 
46600 4.8277863207e+00 1.7531867462e-04 1.5412103783e+00 -2.6694546803e+00 1.5412103783e+00 2.6694546803e+00 
46700 4.8277863381e+00 1.7296617605e-04 1.5412046906e+00 -2.6694448290e+00 1.5412046906e+00 2.6694448290e+00 
46800 4.8277863553e+00 1.7064523481e-04 1.5411990792e+00 -2.6694351097e+00 1.5411990792e+00 2.6694351097e+00 
46900 4.8277863722e+00 1.6835542482e-04 1.5411935431e+00 -2.6694255209e+00 1.5411935431e+00 2.6694255209e+00 
47000 4.8277863889e+00 1.6609632590e-04 1.5411880812e+00 -2.6694160607e+00 1.5411880812e+00 2.6694160607e+00 
47100 4.8277864054e+00 1.6386752368e-04 1.5411826927e+00 -2.6694067274e+00 1.5411826927e+00 2.6694067274e+00 
47200 4.8277864216e+00 1.6166860951e-04 1.5411773764e+00 -2.6693975193e+00 1.5411773764e+00 2.6693975193e+00 
47300 4.8277864377e+00 1.5949918037e-04 1.5411721314e+00 -2.6693884348e+00 1.5411721314e+00 2.6693884348e+00 
47400 4.8277864535e+00 1.5735883880e-04 1.5411669568e+00 -2.6693794721e+00 1.5411669568e+00 2.6693794721e+00 
47500 4.8277864691e+00 1.5524719281e-04 1.5411618516e+00 -2.6693706297e+00 1.5411618516e+00 2.6693706297e+00 
47600 4.8277864845e+00 1.5316385581e-04 1.5411568149e+00 -2.6693619059e+00 1.5411568149e+00 2.6693619059e+00 
47700 4.8277864997e+00 1.5110844653e-04 1.5411518458e+00 -2.6693532991e+00 1.5411518458e+00 2.6693532991e+00 
47800 4.8277865147e+00 1.4908058892e-04 1.5411469434e+00 -2.6693448078e+00 1.5411469434e+00 2.6693448078e+00 
47900 4.8277865295e+00 1.4707991211e-04 1.5411421067e+00 -2.6693364305e+00 1.5411421067e+00 2.6693364305e+00 
48000 4.8277865441e+00 1.4510605031e-04 1.5411373349e+00 -2.6693281655e+00 1.5411373349e+00 2.6693281655e+00 
48100 4.8277865585e+00 1.4315864275e-04 1.5411326271e+00 -2.6693200114e+00 1.5411326271e+00 2.6693200114e+00 
48200 4.8277865727e+00 1.4123733360e-04 1.5411279826e+00 -2.6693119668e+00 1.5411279826e+00 2.6693119668e+00 
48300 4.8277865867e+00 1.3934177188e-04 1.5411234003e+00 -2.6693040300e+00 1.5411234003e+00 2.6693040300e+00 
48400 4.8277866005e+00 1.3747161144e-04 1.5411188795e+00 -2.6692961998e+00 1.5411188795e+00 2.6692961998e+00 
48500 4.8277866141e+00 1.3562651085e-04 1.5411144194e+00 -2.6692884746e+00 1.5411144194e+00 2.6692884746e+00 
48600 4.8277866276e+00 1.3380613334e-04 1.5411100191e+00 -2.6692808532e+00 1.5411100191e+00 2.6692808532e+00 
48700 4.8277866408e+00 1.3201014673e-04 1.5411056779e+00 -2.6692733339e+00 1.5411056779e+00 2.6692733339e+00 
48800 4.8277866539e+00 1.3023822339e-04 1.5411013949e+00 -2.6692659156e+00 1.5411013949e+00 2.6692659156e+00 
48900 4.8277866668e+00 1.2849004014e-04 1.5410971694e+00 -2.6692585969e+00 1.5410971694e+00 2.6692585969e+00 
49000 4.8277866795e+00 1.2676527820e-04 1.5410930006e+00 -2.6692513763e+00 1.5410930006e+00 2.6692513763e+00 
49100 4.8277866920e+00 1.2506362315e-04 1.5410888878e+00 -2.6692442527e+00 1.5410888878e+00 2.6692442527e+00 
49200 4.8277867044e+00 1.2338476483e-04 1.5410848302e+00 -2.6692372246e+00 1.5410848302e+00 2.6692372246e+00 
49300 4.8277867166e+00 1.2172839729e-04 1.5410808270e+00 -2.6692302909e+00 1.5410808270e+00 2.6692302909e+00 
49400 4.8277867286e+00 1.2009421876e-04 1.5410768776e+00 -2.6692234503e+00 1.5410768776e+00 2.6692234503e+00 
49500 4.8277867404e+00 1.1848193156e-04 1.5410729811e+00 -2.6692167015e+00 1.5410729811e+00 2.6692167015e+00 
49600 4.8277867521e+00 1.1689124203e-04 1.5410691370e+00 -2.6692100432e+00 1.5410691370e+00 2.6692100432e+00 
49700 4.8277867637e+00 1.1532186053e-04 1.5410653444e+00 -2.6692034744e+00 1.5410653444e+00 2.6692034744e+00 
49800 4.8277867750e+00 1.1377350132e-04 1.5410616028e+00 -2.6691969937e+00 1.5410616028e+00 2.6691969937e+00 
49900 4.8277867862e+00 1.1224588254e-04 1.5410579114e+00 -2.6691906000e+00 1.5410579114e+00 2.6691906000e+00 
50000 4.8277867973e+00 1.1073872615e-04 1.5410542696e+00 -2.6691842921e+00 1.5410542696e+00 2.6691842921e+00 
50100 4.8277868082e+00 1.0925175786e-04 1.5410506766e+00 -2.6691780689e+00 1.5410506766e+00 2.6691780689e+00 
50200 4.8277868189e+00 1.0778470711e-04 1.5410471319e+00 -2.6691719293e+00 1.5410471319e+00 2.6691719293e+00 
50300 4.8277868295e+00 1.0633730700e-04 1.5410436348e+00 -2.6691658721e+00 1.5410436348e+00 2.6691658721e+00 
50400 4.8277868400e+00 1.0490929422e-04 1.5410401846e+00 -2.6691598963e+00 1.5410401846e+00 2.6691598963e+00 
50500 4.8277868503e+00 1.0350040902e-04 1.5410367808e+00 -2.6691540006e+00 1.5410367808e+00 2.6691540006e+00 
50600 4.8277868604e+00 1.0211039518e-04 1.5410334226e+00 -2.6691481841e+00 1.5410334226e+00 2.6691481841e+00 
50700 4.8277868704e+00 1.0073899992e-04 1.5410301096e+00 -2.6691424458e+00 1.5410301096e+00 2.6691424458e+00 
50800 4.8277868803e+00 9.9385973865e-05 1.5410268410e+00 -2.6691367845e+00 1.5410268410e+00 2.6691367845e+00 
50900 4.8277868900e+00 9.8051071024e-05 1.5410236164e+00 -2.6691311992e+00 1.5410236164e+00 2.6691311992e+00 
51000 4.8277868996e+00 9.6734048708e-05 1.5410204350e+00 -2.6691256889e+00 1.5410204350e+00 2.6691256889e+00 
51100 4.8277869091e+00 9.5434667505e-05 1.5410172964e+00 -2.6691202526e+00 1.5410172964e+00 2.6691202526e+00 
51200 4.8277869184e+00 9.4152691224e-05 1.5410141999e+00 -2.6691148894e+00 1.5410141999e+00 2.6691148894e+00 
51300 4.8277869276e+00 9.2887886860e-05 1.5410111450e+00 -2.6691095981e+00 1.5410111450e+00 2.6691095981e+00 
51400 4.8277869366e+00 9.1640024542e-05 1.5410081311e+00 -2.6691043780e+00 1.5410081311e+00 2.6691043780e+00 
51500 4.8277869455e+00 9.0408877492e-05 1.5410051577e+00 -2.6690992279e+00 1.5410051577e+00 2.6690992279e+00 
51600 4.8277869543e+00 8.9194221985e-05 1.5410022243e+00 -2.6690941471e+00 1.5410022243e+00 2.6690941471e+00 
51700 4.8277869630e+00 8.7995837304e-05 1.5409993303e+00 -2.6690891345e+00 1.5409993303e+00 2.6690891345e+00 
51800 4.8277869716e+00 8.6813505701e-05 1.5409964751e+00 -2.6690841892e+00 1.5409964751e+00 2.6690841892e+00 
51900 4.8277869800e+00 8.5647012352e-05 1.5409936583e+00 -2.6690793104e+00 1.5409936583e+00 2.6690793104e+00 
52000 4.8277869883e+00 8.4496145323e-05 1.5409908794e+00 -2.6690744971e+00 1.5409908794e+00 2.6690744971e+00 
52100 4.8277869965e+00 8.3360695523e-05 1.5409881378e+00 -2.6690697484e+00 1.5409881378e+00 2.6690697484e+00 
52200 4.8277870046e+00 8.2240456673e-05 1.5409854330e+00 -2.6690650636e+00 1.5409854330e+00 2.6690650636e+00 
52300 4.8277870126e+00 8.1135225261e-05 1.5409827645e+00 -2.6690604418e+00 1.5409827645e+00 2.6690604418e+00 
52400 4.8277870204e+00 8.0044800509e-05 1.5409801320e+00 -2.6690558820e+00 1.5409801320e+00 2.6690558820e+00 
52500 4.8277870281e+00 7.8968984329e-05 1.5409775348e+00 -2.6690513835e+00 1.5409775348e+00 2.6690513835e+00 
52600 4.8277870358e+00 7.7907581296e-05 1.5409749725e+00 -2.6690469455e+00 1.5409749725e+00 2.6690469455e+00 
52700 4.8277870433e+00 7.6860398602e-05 1.5409724446e+00 -2.6690425671e+00 1.5409724446e+00 2.6690425671e+00 
52800 4.8277870507e+00 7.5827246027e-05 1.5409699507e+00 -2.6690382475e+00 1.5409699507e+00 2.6690382475e+00 
52900 4.8277870580e+00 7.4807935901e-05 1.5409674903e+00 -2.6690339860e+00 1.5409674903e+00 2.6690339860e+00 
53000 4.8277870652e+00 7.3802283067e-05 1.5409650630e+00 -2.6690297818e+00 1.5409650630e+00 2.6690297818e+00 
53100 4.8277870723e+00 7.2810104854e-05 1.5409626683e+00 -2.6690256341e+00 1.5409626683e+00 2.6690256341e+00 
53200 4.8277870793e+00 7.1831221035e-05 1.5409603059e+00 -2.6690215422e+00 1.5409603059e+00 2.6690215422e+00 
53300 4.8277870861e+00 7.0865453799e-05 1.5409579751e+00 -2.6690175052e+00 1.5409579751e+00 2.6690175052e+00 
53400 4.8277870929e+00 6.9912627716e-05 1.5409556757e+00 -2.6690135226e+00 1.5409556757e+00 2.6690135226e+00 
53500 4.8277870998e+00 7.0309242934e-05 1.5409556757e+00 -2.6690135226e+00 1.5409556757e+00 2.6690135226e+00 
53600 4.8277871066e+00 7.0709411370e-05 1.5409556757e+00 -2.6690135226e+00 1.5409556757e+00 2.6690135226e+00 
53700 4.8277871133e+00 7.1112713797e-05 1.5409556757e+00 -2.6690135226e+00 1.5409556757e+00 2.6690135226e+00 
53800 4.8277871197e+00 7.0159159932e-05 1.5409533683e+00 -2.6690095260e+00 1.5409533683e+00 2.6690095260e+00 
53900 4.8277871262e+00 7.0558464868e-05 1.5409533683e+00 -2.6690095260e+00 1.5409533683e+00 2.6690095260e+00 
54000 4.8277871326e+00 7.0960140218e-05 1.5409533683e+00 -2.6690095260e+00 1.5409533683e+00 2.6690095260e+00 
54100 4.8277871387e+00 7.0007173026e-05 1.5409510658e+00 -2.6690055380e+00 1.5409510658e+00 2.6690055380e+00 
54200 4.8277871450e+00 7.0403460834e-05 1.5409510658e+00 -2.6690055380e+00 1.5409510658e+00 2.6690055380e+00 
54300 4.8277871511e+00 7.0801468912e-05 1.5409510658e+00 -2.6690055380e+00 1.5409510658e+00 2.6690055380e+00 
54400 4.8277871569e+00 6.9847271776e-05 1.5409487685e+00 -2.6690015589e+00 1.5409487685e+00 2.6690015589e+00 
54500 4.8277871629e+00 7.0238714859e-05 1.5409487685e+00 -2.6690015589e+00 1.5409487685e+00 2.6690015589e+00 
54600 4.8277871688e+00 7.0631326953e-05 1.5409487685e+00 -2.6690015589e+00 1.5409487685e+00 2.6690015589e+00 
54700 4.8277871746e+00 7.1024813832e-05 1.5409487685e+00 -2.6690015589e+00 1.5409487685e+00 2.6690015589e+00 
54800 4.8277871801e+00 7.0061050316e-05 1.5409464639e+00 -2.6689975673e+00 1.5409464639e+00 2.6689975673e+00 
54900 4.8277871857e+00 7.0446384932e-05 1.5409464639e+00 -2.6689975673e+00 1.5409464639e+00 2.6689975673e+00 
55000 4.8277871912e+00 7.0832172935e-05 1.5409464639e+00 -2.6689975673e+00 1.5409464639e+00 2.6689975673e+00 
55100 4.8277871965e+00 6.9864013372e-05 1.5409441656e+00 -2.6689935864e+00 1.5409441656e+00 2.6689935864e+00 
55200 4.8277872018e+00 7.0240904402e-05 1.5409441656e+00 -2.6689935864e+00 1.5409441656e+00 2.6689935864e+00 
55300 4.8277872071e+00 7.0617897995e-05 1.5409441656e+00 -2.6689935864e+00 1.5409441656e+00 2.6689935864e+00 
55400 4.8277872124e+00 7.0994761147e-05 1.5409441656e+00 -2.6689935864e+00 1.5409441656e+00 2.6689935864e+00 
55500 4.8277872173e+00 7.0014040499e-05 1.5409418620e+00 -2.6689895965e+00 1.5409418620e+00 2.6689895965e+00 
55600 4.8277872224e+00 7.0380918159e-05 1.5409418620e+00 -2.6689895965e+00 1.5409418620e+00 2.6689895965e+00 
55700 4.8277872274e+00 7.0747412748e-05 1.5409418620e+00 -2.6689895965e+00 1.5409418620e+00 2.6689895965e+00 
55800 4.8277872321e+00 6.9760831579e-05 1.5409395664e+00 -2.6689856204e+00 1.5409395664e+00 2.6689856204e+00 
55900 4.8277872369e+00 7.0116920074e-05 1.5409395664e+00 -2.6689856204e+00 1.5409395664e+00 2.6689856204e+00 
56000 4.8277872417e+00 7.0472423309e-05 1.5409395664e+00 -2.6689856204e+00 1.5409395664e+00 2.6689856204e+00 
56100 4.8277872464e+00 7.0827154018e-05 1.5409395664e+00 -2.6689856204e+00 1.5409395664e+00 2.6689856204e+00 
56200 4.8277872508e+00 6.9826940098e-05 1.5409372682e+00 -2.6689816398e+00 1.5409372682e+00 2.6689816398e+00 
56300 4.8277872554e+00 7.0170552282e-05 1.5409372682e+00 -2.6689816398e+00 1.5409372682e+00 2.6689816398e+00 
56400 4.8277872599e+00 7.0513264869e-05 1.5409372682e+00 -2.6689816398e+00 1.5409372682e+00 2.6689816398e+00 
56500 4.8277872644e+00 7.0854913456e-05 1.5409372682e+00 -2.6689816398e+00 1.5409372682e+00 2.6689816398e+00 
56600 4.8277872685e+00 6.9840834683e-05 1.5409349691e+00 -2.6689776577e+00 1.5409349691e+00 2.6689776577e+00 
56700 4.8277872728e+00 7.0170843003e-05 1.5409349691e+00 -2.6689776577e+00 1.5409349691e+00 2.6689776577e+00 
56800 4.8277872771e+00 7.0499723488e-05 1.5409349691e+00 -2.6689776577e+00 1.5409349691e+00 2.6689776577e+00 
56900 4.8277872813e+00 7.0827331048e-05 1.5409349691e+00 -2.6689776577e+00 1.5409349691e+00 2.6689776577e+00 
57000 4.8277872852e+00 6.9799564173e-05 1.5409326709e+00 -2.6689736771e+00 1.5409326709e+00 2.6689736771e+00 
57100 4.8277872892e+00 7.0115171836e-05 1.5409326709e+00 -2.6689736771e+00 1.5409326709e+00 2.6689736771e+00 
57200 4.8277872932e+00 7.0429495862e-05 1.5409326709e+00 -2.6689736771e+00 1.5409326709e+00 2.6689736771e+00 
57300 4.8277872972e+00 7.0742407457e-05 1.5409326709e+00 -2.6689736771e+00 1.5409326709e+00 2.6689736771e+00 
57400 4.8277873009e+00 6.9701458846e-05 1.5409303755e+00 -2.6689697013e+00 1.5409303755e+00 2.6689697013e+00 
57500 4.8277873047e+00 7.0002148490e-05 1.5409303755e+00 -2.6689697013e+00 1.5409303755e+00 2.6689697013e+00 
57600 4.8277873085e+00 7.0301459411e-05 1.5409303755e+00 -2.6689697013e+00 1.5409303755e+00 2.6689697013e+00 
57700 4.8277873122e+00 7.0599276529e-05 1.5409303755e+00 -2.6689697013e+00 1.5409303755e+00 2.6689697013e+00 
57800 4.8277873159e+00 7.0895491726e-05 1.5409303755e+00 -2.6689697013e+00 1.5409303755e+00 2.6689697013e+00 
57900 4.8277873193e+00 6.9834768496e-05 1.5409280751e+00 -2.6689657168e+00 1.5409280751e+00 2.6689657168e+00 
58000 4.8277873228e+00 7.0118421498e-05 1.5409280751e+00 -2.6689657168e+00 1.5409280751e+00 2.6689657168e+00 
58100 4.8277873263e+00 7.0400563758e-05 1.5409280751e+00 -2.6689657168e+00 1.5409280751e+00 2.6689657168e+00 
58200 4.8277873298e+00 7.0681097378e-05 1.5409280751e+00 -2.6689657168e+00 1.5409280751e+00 2.6689657168e+00 
58300 4.8277873332e+00 7.0959930648e-05 1.5409280751e+00 -2.6689657168e+00 1.5409280751e+00 2.6689657168e+00 
58400 4.8277873363e+00 6.9880526998e-05 1.5409257726e+00 -2.6689617288e+00 1.5409257726e+00 2.6689617288e+00 
58500 4.8277873396e+00 7.0146639172e-05 1.5409257726e+00 -2.6689617288e+00 1.5409257726e+00 2.6689617288e+00 
58600 4.8277873429e+00 7.0411187374e-05 1.5409257726e+00 -2.6689617288e+00 1.5409257726e+00 2.6689617288e+00 
58700 4.8277873461e+00 7.0674087285e-05 1.5409257726e+00 -2.6689617288e+00 1.5409257726e+00 2.6689617288e+00 
58800 4.8277873492e+00 7.0935260133e-05 1.5409257726e+00 -2.6689617288e+00 1.5409257726e+00 2.6689617288e+00 
58900 4.8277873522e+00 6.9838667691e-05 1.5409234709e+00 -2.6689577421e+00 1.5409234709e+00 2.6689577421e+00 
59000 4.8277873552e+00 7.0087105522e-05 1.5409234709e+00 -2.6689577421e+00 1.5409234709e+00 2.6689577421e+00 
59100 4.8277873582e+00 7.0333987784e-05 1.5409234709e+00 -2.6689577421e+00 1.5409234709e+00 2.6689577421e+00 
59200 4.8277873612e+00 7.0579240787e-05 1.5409234709e+00 -2.6689577421e+00 1.5409234709e+00 2.6689577421e+00 
59300 4.8277873642e+00 7.0822795869e-05 1.5409234709e+00 -2.6689577421e+00 1.5409234709e+00 2.6689577421e+00 
59400 4.8277873668e+00 6.9710787104e-05 1.5409211728e+00 -2.6689537618e+00 1.5409211728e+00 2.6689537618e+00 
59500 4.8277873697e+00 6.9941708102e-05 1.5409211728e+00 -2.6689537618e+00 1.5409211728e+00 2.6689537618e+00 
59600 4.8277873725e+00 7.0171129431e-05 1.5409211728e+00 -2.6689537618e+00 1.5409211728e+00 2.6689537618e+00 
59700 4.8277873753e+00 7.0398985616e-05 1.5409211728e+00 -2.6689537618e+00 1.5409211728e+00 2.6689537618e+00 
59800 4.8277873780e+00 7.0625215772e-05 1.5409211728e+00 -2.6689537618e+00 1.5409211728e+00 2.6689537618e+00 
59900 4.8277873807e+00 7.0849763366e-05 1.5409211728e+00 -2.6689537618e+00 1.5409211728e+00 2.6689537618e+00 
60000 4.8277873831e+00 6.9718273131e-05 1.5409188739e+00 -2.6689497799e+00 1.5409188739e+00 2.6689497799e+00 
60100 4.8277873857e+00 6.9930247715e-05 1.5409188739e+00 -2.6689497799e+00 1.5409188739e+00 2.6689497799e+00 
60200 4.8277873883e+00 7.0140770775e-05 1.5409188739e+00 -2.6689497799e+00 1.5409188739e+00 2.6689497799e+00 
60300 4.8277873908e+00 7.0349786554e-05 1.5409188739e+00 -2.6689497799e+00 1.5409188739e+00 2.6689497799e+00 
60400 4.8277873933e+00 7.0557243344e-05 1.5409188739e+00 -2.6689497799e+00 1.5409188739e+00 2.6689497799e+00 
60500 4.8277873958e+00 7.0763093275e-05 1.5409188739e+00 -2.6689497799e+00 1.5409188739e+00 2.6689497799e+00 
60600 4.8277873980e+00 6.9614658795e-05 1.5409165777e+00 -2.6689458029e+00 1.5409165777e+00 2.6689458029e+00 
60700 4.8277874004e+00 6.9808122211e-05 1.5409165777e+00 -2.6689458029e+00 1.5409165777e+00 2.6689458029e+00 
60800 4.8277874027e+00 7.0000232462e-05 1.5409165777e+00 -2.6689458029e+00 1.5409165777e+00 2.6689458029e+00 
60900 4.8277874050e+00 7.0190940620e-05 1.5409165777e+00 -2.6689458029e+00 1.5409165777e+00 2.6689458029e+00 
61000 4.8277874073e+00 7.0380201391e-05 1.5409165777e+00 -2.6689458029e+00 1.5409165777e+00 2.6689458029e+00 
61100 4.8277874096e+00 7.0567972924e-05 1.5409165777e+00 -2.6689458029e+00 1.5409165777e+00 2.6689458029e+00 
61200 4.8277874118e+00 7.0754216621e-05 1.5409165777e+00 -2.6689458029e+00 1.5409165777e+00 2.6689458029e+00 
61300 4.8277874138e+00 6.9586447078e-05 1.5409142819e+00 -2.6689418263e+00 1.5409142819e+00 2.6689418263e+00 
61400 4.8277874159e+00 6.9760489034e-05 1.5409142819e+00 -2.6689418263e+00 1.5409142819e+00 2.6689418263e+00 
61500 4.8277874180e+00 6.9933281393e-05 1.5409142819e+00 -2.6689418263e+00 1.5409142819e+00 2.6689418263e+00 
61600 4.8277874201e+00 7.0104782435e-05 1.5409142819e+00 -2.6689418263e+00 1.5409142819e+00 2.6689418263e+00 
61700 4.8277874222e+00 7.0274953617e-05 1.5409142819e+00 -2.6689418263e+00 1.5409142819e+00 2.6689418263e+00 
61800 4.8277874242e+00 7.0443759400e-05 1.5409142819e+00 -2.6689418263e+00 1.5409142819e+00 2.6689418263e+00 
61900 4.8277874262e+00 7.0611167085e-05 1.5409142819e+00 -2.6689418263e+00 1.5409142819e+00 2.6689418263e+00 
62000 4.8277874282e+00 7.0777146656e-05 1.5409142819e+00 -2.6689418263e+00 1.5409142819e+00 2.6689418263e+00 
62100 4.8277874299e+00 6.9588796452e-05 1.5409119853e+00 -2.6689378485e+00 1.5409119853e+00 2.6689378485e+00 
62200 4.8277874318e+00 6.9742794377e-05 1.5409119853e+00 -2.6689378485e+00 1.5409119853e+00 2.6689378485e+00 
62300 4.8277874337e+00 6.9895665153e-05 1.5409119853e+00 -2.6689378485e+00 1.5409119853e+00 2.6689378485e+00 
62400 4.8277874356e+00 7.0047373627e-05 1.5409119853e+00 -2.6689378485e+00 1.5409119853e+00 2.6689378485e+00 
62500 4.8277874374e+00 7.0197887378e-05 1.5409119853e+00 -2.6689378485e+00 1.5409119853e+00 2.6689378485e+00 
62600 4.8277874392e+00 7.0347176570e-05 1.5409119853e+00 -2.6689378485e+00 1.5409119853e+00 2.6689378485e+00 
62700 4.8277874410e+00 7.0495213803e-05 1.5409119853e+00 -2.6689378485e+00 1.5409119853e+00 2.6689378485e+00 
62800 4.8277874427e+00 7.0641973983e-05 1.5409119853e+00 -2.6689378485e+00 1.5409119853e+00 2.6689378485e+00 
62900 4.8277874445e+00 7.0787434192e-05 1.5409119853e+00 -2.6689378485e+00 1.5409119853e+00 2.6689378485e+00 
63000 4.8277874460e+00 6.9578516392e-05 1.5409096884e+00 -2.6689338701e+00 1.5409096884e+00 2.6689338701e+00 
63100 4.8277874476e+00 6.9712269286e-05 1.5409096884e+00 -2.6689338701e+00 1.5409096884e+00 2.6689338701e+00 
63200 4.8277874493e+00 6.9845041723e-05 1.5409096884e+00 -2.6689338701e+00 1.5409096884e+00 2.6689338701e+00 
63300 4.8277874509e+00 6.9976803855e-05 1.5409096884e+00 -2.6689338701e+00 1.5409096884e+00 2.6689338701e+00 
63400 4.8277874525e+00 7.0107528179e-05 1.5409096884e+00 -2.6689338701e+00 1.5409096884e+00 2.6689338701e+00 
63500 4.8277874541e+00 7.0237189399e-05 1.5409096884e+00 -2.6689338701e+00 1.5409096884e+00 2.6689338701e+00 
63600 4.8277874557e+00 7.0365764307e-05 1.5409096884e+00 -2.6689338701e+00 1.5409096884e+00 2.6689338701e+00 
63700 4.8277874572e+00 7.0493231660e-05 1.5409096884e+00 -2.6689338701e+00 1.5409096884e+00 2.6689338701e+00 
63800 4.8277874587e+00 7.0619572072e-05 1.5409096884e+00 -2.6689338701e+00 1.5409096884e+00 2.6689338701e+00 
63900 4.8277874602e+00 7.0744767915e-05 1.5409096884e+00 -2.6689338701e+00 1.5409096884e+00 2.6689338701e+00 
64000 4.8277874615e+00 6.9516574359e-05 1.5409073928e+00 -2.6689298941e+00 1.5409073928e+00 2.6689298941e+00 
64100 4.8277874629e+00 6.9630393409e-05 1.5409073928e+00 -2.6689298941e+00 1.5409073928e+00 2.6689298941e+00 
64200 4.8277874643e+00 6.9743400716e-05 1.5409073928e+00 -2.6689298941e+00 1.5409073928e+00 2.6689298941e+00 
64300 4.8277874657e+00 6.9855570246e-05 1.5409073928e+00 -2.6689298941e+00 1.5409073928e+00 2.6689298941e+00 
64400 4.8277874671e+00 6.9966877985e-05 1.5409073928e+00 -2.6689298941e+00 1.5409073928e+00 2.6689298941e+00 
64500 4.8277874685e+00 7.0077301820e-05 1.5409073928e+00 -2.6689298941e+00 1.5409073928e+00 2.6689298941e+00 
64600 4.8277874698e+00 7.0186821431e-05 1.5409073928e+00 -2.6689298941e+00 1.5409073928e+00 2.6689298941e+00 
64700 4.8277874712e+00 7.0295418187e-05 1.5409073928e+00 -2.6689298941e+00 1.5409073928e+00 2.6689298941e+00 
64800 4.8277874725e+00 7.0403075052e-05 1.5409073928e+00 -2.6689298941e+00 1.5409073928e+00 2.6689298941e+00 
64900 4.8277874738e+00 7.0509776495e-05 1.5409073928e+00 -2.6689298941e+00 1.5409073928e+00 2.6689298941e+00 
65000 4.8277874750e+00 7.0615508406e-05 1.5409073928e+00 -2.6689298941e+00 1.5409073928e+00 2.6689298941e+00 
65100 4.8277874763e+00 7.0720258021e-05 1.5409073928e+00 -2.6689298941e+00 1.5409073928e+00 2.6689298941e+00 
65200 4.8277874773e+00 6.9472266353e-05 1.5409050980e+00 -2.6689259195e+00 1.5409050980e+00 2.6689259195e+00 
65300 4.8277874785e+00 6.9565979890e-05 1.5409050980e+00 -2.6689259195e+00 1.5409050980e+00 2.6689259195e+00 
65400 4.8277874797e+00 6.9659056165e-05 1.5409050980e+00 -2.6689259195e+00 1.5409050980e+00 2.6689259195e+00 
65500 4.8277874809e+00 6.9751472579e-05 1.5409050980e+00 -2.6689259195e+00 1.5409050980e+00 2.6689259195e+00 
65600 4.8277874821e+00 6.9843208242e-05 1.5409050980e+00 -2.6689259195e+00 1.5409050980e+00 2.6689259195e+00 
65700 4.8277874832e+00 6.9934243871e-05 1.5409050980e+00 -2.6689259195e+00 1.5409050980e+00 2.6689259195e+00 
65800 4.8277874843e+00 7.0024561698e-05 1.5409050980e+00 -2.6689259195e+00 1.5409050980e+00 2.6689259195e+00 
65900 4.8277874854e+00 7.0114145380e-05 1.5409050980e+00 -2.6689259195e+00 1.5409050980e+00 2.6689259195e+00 
66000 4.8277874865e+00 7.0202979920e-05 1.5409050980e+00 -2.6689259195e+00 1.5409050980e+00 2.6689259195e+00 
66100 4.8277874876e+00 7.0291051590e-05 1.5409050980e+00 -2.6689259195e+00 1.5409050980e+00 2.6689259195e+00 
66200 4.8277874887e+00 7.0378347861e-05 1.5409050980e+00 -2.6689259195e+00 1.5409050980e+00 2.6689259195e+00 
66300 4.8277874897e+00 7.0464857334e-05 1.5409050980e+00 -2.6689259195e+00 1.5409050980e+00 2.6689259195e+00 
66400 4.8277874908e+00 7.0550569680e-05 1.5409050980e+00 -2.6689259195e+00 1.5409050980e+00 2.6689259195e+00 
66500 4.8277874918e+00 7.0635475583e-05 1.5409050980e+00 -2.6689259195e+00 1.5409050980e+00 2.6689259195e+00 
66600 4.8277874928e+00 7.0719566679e-05 1.5409050980e+00 -2.6689259195e+00 1.5409050980e+00 2.6689259195e+00 
66700 4.8277874936e+00 6.9451114209e-05 1.5409028033e+00 -2.6689219448e+00 1.5409028033e+00 2.6689219448e+00 
66800 4.8277874946e+00 6.9524516063e-05 1.5409028033e+00 -2.6689219448e+00 1.5409028033e+00 2.6689219448e+00 
66900 4.8277874955e+00 6.9597459249e-05 1.5409028033e+00 -2.6689219448e+00 1.5409028033e+00 2.6689219448e+00 
67000 4.8277874965e+00 6.9669924233e-05 1.5409028033e+00 -2.6689219448e+00 1.5409028033e+00 2.6689219448e+00 
67100 4.8277874974e+00 6.9741892901e-05 1.5409028033e+00 -2.6689219448e+00 1.5409028033e+00 2.6689219448e+00 
67200 4.8277874983e+00 6.9813348473e-05 1.5409028033e+00 -2.6689219448e+00 1.5409028033e+00 2.6689219448e+00 
67300 4.8277874992e+00 6.9884275427e-05 1.5409028033e+00 -2.6689219448e+00 1.5409028033e+00 2.6689219448e+00 
67400 4.8277875001e+00 6.9954659420e-05 1.5409028033e+00 -2.6689219448e+00 1.5409028033e+00 2.6689219448e+00 
67500 4.8277875010e+00 7.0024487228e-05 1.5409028033e+00 -2.6689219448e+00 1.5409028033e+00 2.6689219448e+00 
67600 4.8277875019e+00 7.0093746674e-05 1.5409028033e+00 -2.6689219448e+00 1.5409028033e+00 2.6689219448e+00 
67700 4.8277875028e+00 7.0162426577e-05 1.5409028033e+00 -2.6689219448e+00 1.5409028033e+00 2.6689219448e+00 
67800 4.8277875036e+00 7.0230516689e-05 1.5409028033e+00 -2.6689219448e+00 1.5409028033e+00 2.6689219448e+00 
67900 4.8277875044e+00 7.0298007651e-05 1.5409028033e+00 -2.6689219448e+00 1.5409028033e+00 2.6689219448e+00 
68000 4.8277875053e+00 7.0364890936e-05 1.5409028033e+00 -2.6689219448e+00 1.5409028033e+00 2.6689219448e+00 
68100 4.8277875061e+00 7.0431158813e-05 1.5409028033e+00 -2.6689219448e+00 1.5409028033e+00 2.6689219448e+00 
68200 4.8277875069e+00 7.0496804297e-05 1.5409028033e+00 -2.6689219448e+00 1.5409028033e+00 2.6689219448e+00 
68300 4.8277875077e+00 7.0561821114e-05 1.5409028033e+00 -2.6689219448e+00 1.5409028033e+00 2.6689219448e+00 
68400 4.8277875084e+00 7.0626203661e-05 1.5409028033e+00 -2.6689219448e+00 1.5409028033e+00 2.6689219448e+00 
68500 4.8277875092e+00 7.0689946974e-05 1.5409028033e+00 -2.6689219448e+00 1.5409028033e+00 2.6689219448e+00 
68600 4.8277875099e+00 7.0753046689e-05 1.5409028033e+00 -2.6689219448e+00 1.5409028033e+00 2.6689219448e+00 
68700 4.8277875105e+00 6.9463150771e-05 1.5409005075e+00 -2.6689179683e+00 1.5409005075e+00 2.6689179683e+00 
68800 4.8277875112e+00 6.9515910060e-05 1.5409005075e+00 -2.6689179683e+00 1.5409005075e+00 2.6689179683e+00 
68900 4.8277875119e+00 6.9568392146e-05 1.5409005075e+00 -2.6689179683e+00 1.5409005075e+00 2.6689179683e+00 
69000 4.8277875126e+00 6.9620580266e-05 1.5409005075e+00 -2.6689179683e+00 1.5409005075e+00 2.6689179683e+00 
69100 4.8277875133e+00 6.9672458817e-05 1.5409005075e+00 -2.6689179683e+00 1.5409005075e+00 2.6689179683e+00 
69200 4.8277875140e+00 6.9724013279e-05 1.5409005075e+00 -2.6689179683e+00 1.5409005075e+00 2.6689179683e+00 
69300 4.8277875147e+00 6.9775230156e-05 1.5409005075e+00 -2.6689179683e+00 1.5409005075e+00 2.6689179683e+00 
69400 4.8277875154e+00 6.9826096910e-05 1.5409005075e+00 -2.6689179683e+00 1.5409005075e+00 2.6689179683e+00 
69500 4.8277875161e+00 6.9876601907e-05 1.5409005075e+00 -2.6689179683e+00 1.5409005075e+00 2.6689179683e+00 
69600 4.8277875167e+00 6.9926734369e-05 1.5409005075e+00 -2.6689179683e+00 1.5409005075e+00 2.6689179683e+00 
69700 4.8277875174e+00 6.9976484319e-05 1.5409005075e+00 -2.6689179683e+00 1.5409005075e+00 2.6689179683e+00 
69800 4.8277875180e+00 7.0025842538e-05 1.5409005075e+00 -2.6689179683e+00 1.5409005075e+00 2.6689179683e+00 
69900 4.8277875186e+00 7.0074800526e-05 1.5409005075e+00 -2.6689179683e+00 1.5409005075e+00 2.6689179683e+00 
70000 4.8277875192e+00 7.0123350458e-05 1.5409005075e+00 -2.6689179683e+00 1.5409005075e+00 2.6689179683e+00 
70100 4.8277875198e+00 7.0171485149e-05 1.5409005075e+00 -2.6689179683e+00 1.5409005075e+00 2.6689179683e+00 
70200 4.8277875204e+00 7.0219198019e-05 1.5409005075e+00 -2.6689179683e+00 1.5409005075e+00 2.6689179683e+00 
70300 4.8277875210e+00 7.0266483065e-05 1.5409005075e+00 -2.6689179683e+00 1.5409005075e+00 2.6689179683e+00 
70400 4.8277875216e+00 7.0313334824e-05 1.5409005075e+00 -2.6689179683e+00 1.5409005075e+00 2.6689179683e+00 
70500 4.8277875222e+00 7.0359748348e-05 1.5409005075e+00 -2.6689179683e+00 1.5409005075e+00 2.6689179683e+00 
70600 4.8277875228e+00 7.0405719181e-05 1.5409005075e+00 -2.6689179683e+00 1.5409005075e+00 2.6689179683e+00 
70700 4.8277875233e+00 7.0451243326e-05 1.5409005075e+00 -2.6689179683e+00 1.5409005075e+00 2.6689179683e+00 
70800 4.8277875239e+00 7.0496317229e-05 1.5409005075e+00 -2.6689179683e+00 1.5409005075e+00 2.6689179683e+00 
70900 4.8277875244e+00 7.0540937755e-05 1.5409005075e+00 -2.6689179683e+00 1.5409005075e+00 2.6689179683e+00 
71000 4.8277875249e+00 7.0585102164e-05 1.5409005075e+00 -2.6689179683e+00 1.5409005075e+00 2.6689179683e+00 
71100 4.8277875255e+00 7.0628808094e-05 1.5409005075e+00 -2.6689179683e+00 1.5409005075e+00 2.6689179683e+00 
71200 4.8277875260e+00 7.0672053544e-05 1.5409005075e+00 -2.6689179683e+00 1.5409005075e+00 2.6689179683e+00 
71300 4.8277875265e+00 7.0714836853e-05 1.5409005075e+00 -2.6689179683e+00 1.5409005075e+00 2.6689179683e+00 
71400 4.8277875268e+00 6.9405550169e-05 1.5408982129e+00 -2.6689139940e+00 1.5408982129e+00 2.6689139940e+00 
71500 4.8277875273e+00 6.9438367966e-05 1.5408982129e+00 -2.6689139940e+00 1.5408982129e+00 2.6689139940e+00 
71600 4.8277875278e+00 6.9471096475e-05 1.5408982129e+00 -2.6689139940e+00 1.5408982129e+00 2.6689139940e+00 
71700 4.8277875283e+00 6.9503720730e-05 1.5408982129e+00 -2.6689139940e+00 1.5408982129e+00 2.6689139940e+00 
71800 4.8277875288e+00 6.9536226721e-05 1.5408982129e+00 -2.6689139940e+00 1.5408982129e+00 2.6689139940e+00 
71900 4.8277875292e+00 6.9568601335e-05 1.5408982129e+00 -2.6689139940e+00 1.5408982129e+00 2.6689139940e+00 
72000 4.8277875297e+00 6.9600832303e-05 1.5408982129e+00 -2.6689139940e+00 1.5408982129e+00 2.6689139940e+00 
72100 4.8277875301e+00 6.9632908144e-05 1.5408982129e+00 -2.6689139940e+00 1.5408982129e+00 2.6689139940e+00 
72200 4.8277875306e+00 6.9664818124e-05 1.5408982129e+00 -2.6689139940e+00 1.5408982129e+00 2.6689139940e+00 
72300 4.8277875310e+00 6.9696552208e-05 1.5408982129e+00 -2.6689139940e+00 1.5408982129e+00 2.6689139940e+00 
72400 4.8277875315e+00 6.9728101020e-05 1.5408982129e+00 -2.6689139940e+00 1.5408982129e+00 2.6689139940e+00 
72500 4.8277875319e+00 6.9759455805e-05 1.5408982129e+00 -2.6689139940e+00 1.5408982129e+00 2.6689139940e+00 
72600 4.8277875323e+00 6.9790608395e-05 1.5408982129e+00 -2.6689139940e+00 1.5408982129e+00 2.6689139940e+00 
72700 4.8277875328e+00 6.9821551174e-05 1.5408982129e+00 -2.6689139940e+00 1.5408982129e+00 2.6689139940e+00 
72800 4.8277875332e+00 6.9852277049e-05 1.5408982129e+00 -2.6689139940e+00 1.5408982129e+00 2.6689139940e+00 
72900 4.8277875336e+00 6.9882779423e-05 1.5408982129e+00 -2.6689139940e+00 1.5408982129e+00 2.6689139940e+00 
73000 4.8277875340e+00 6.9913052163e-05 1.5408982129e+00 -2.6689139940e+00 1.5408982129e+00 2.6689139940e+00 
73100 4.8277875344e+00 6.9943089583e-05 1.5408982129e+00 -2.6689139940e+00 1.5408982129e+00 2.6689139940e+00 
73200 4.8277875348e+00 6.9972886413e-05 1.5408982129e+00 -2.6689139940e+00 1.5408982129e+00 2.6689139940e+00 
73300 4.8277875352e+00 7.0002437785e-05 1.5408982129e+00 -2.6689139940e+00 1.5408982129e+00 2.6689139940e+00 
73400 4.8277875355e+00 7.0031739205e-05 1.5408982129e+00 -2.6689139940e+00 1.5408982129e+00 2.6689139940e+00 
73500 4.8277875359e+00 7.0060786539e-05 1.5408982129e+00 -2.6689139940e+00 1.5408982129e+00 2.6689139940e+00 
73600 4.8277875363e+00 7.0089575995e-05 1.5408982129e+00 -2.6689139940e+00 1.5408982129e+00 2.6689139940e+00 
73700 4.8277875367e+00 7.0118104104e-05 1.5408982129e+00 -2.6689139940e+00 1.5408982129e+00 2.6689139940e+00 
73800 4.8277875370e+00 7.0146367706e-05 1.5408982129e+00 -2.6689139940e+00 1.5408982129e+00 2.6689139940e+00 
73900 4.8277875374e+00 7.0174363932e-05 1.5408982129e+00 -2.6689139940e+00 1.5408982129e+00 2.6689139940e+00 
74000 4.8277875377e+00 7.0202090197e-05 1.5408982129e+00 -2.6689139940e+00 1.5408982129e+00 2.6689139940e+00 
74100 4.8277875381e+00 7.0229544178e-05 1.5408982129e+00 -2.6689139940e+00 1.5408982129e+00 2.6689139940e+00 
74200 4.8277875384e+00 7.0256723808e-05 1.5408982129e+00 -2.6689139940e+00 1.5408982129e+00 2.6689139940e+00 
74300 4.8277875387e+00 7.0283627261e-05 1.5408982129e+00 -2.6689139940e+00 1.5408982129e+00 2.6689139940e+00 
74400 4.8277875391e+00 7.0310252943e-05 1.5408982129e+00 -2.6689139940e+00 1.5408982129e+00 2.6689139940e+00 
74500 4.8277875394e+00 7.0336599477e-05 1.5408982129e+00 -2.6689139940e+00 1.5408982129e+00 2.6689139940e+00 
74600 4.8277875397e+00 7.0362665700e-05 1.5408982129e+00 -2.6689139940e+00 1.5408982129e+00 2.6689139940e+00 
74700 4.8277875400e+00 7.0388450648e-05 1.5408982129e+00 -2.6689139940e+00 1.5408982129e+00 2.6689139940e+00 
74800 4.8277875404e+00 7.0413953547e-05 1.5408982129e+00 -2.6689139940e+00 1.5408982129e+00 2.6689139940e+00 
74900 4.8277875407e+00 7.0439173806e-05 1.5408982129e+00 -2.6689139940e+00 1.5408982129e+00 2.6689139940e+00 
75000 4.8277875410e+00 7.0464111012e-05 1.5408982129e+00 -2.6689139940e+00 1.5408982129e+00 2.6689139940e+00 
75100 4.8277875413e+00 7.0488764914e-05 1.5408982129e+00 -2.6689139940e+00 1.5408982129e+00 2.6689139940e+00 
75200 4.8277875416e+00 7.0513135422e-05 1.5408982129e+00 -2.6689139940e+00 1.5408982129e+00 2.6689139940e+00 
75300 4.8277875419e+00 7.0537222597e-05 1.5408982129e+00 -2.6689139940e+00 1.5408982129e+00 2.6689139940e+00 
75400 4.8277875422e+00 7.0561026647e-05 1.5408982129e+00 -2.6689139940e+00 1.5408982129e+00 2.6689139940e+00 
75500 4.8277875424e+00 7.0584547915e-05 1.5408982129e+00 -2.6689139940e+00 1.5408982129e+00 2.6689139940e+00 
75600 4.8277875427e+00 7.0607786880e-05 1.5408982129e+00 -2.6689139940e+00 1.5408982129e+00 2.6689139940e+00 
75700 4.8277875430e+00 7.0630744142e-05 1.5408982129e+00 -2.6689139940e+00 1.5408982129e+00 2.6689139940e+00 
75800 4.8277875433e+00 7.0653420425e-05 1.5408982129e+00 -2.6689139940e+00 1.5408982129e+00 2.6689139940e+00 
75900 4.8277875435e+00 7.0675816566e-05 1.5408982129e+00 -2.6689139940e+00 1.5408982129e+00 2.6689139940e+00 
76000 4.8277875438e+00 7.0697933510e-05 1.5408982129e+00 -2.6689139940e+00 1.5408982129e+00 2.6689139940e+00 
76100 4.8277875441e+00 7.0719772307e-05 1.5408982129e+00 -2.6689139940e+00 1.5408982129e+00 2.6689139940e+00 
76200 4.8277875441e+00 6.9389643629e-05 1.5408959181e+00 -2.6689100194e+00 1.5408959181e+00 2.6689100194e+00 
76300 4.8277875444e+00 6.9401891507e-05 1.5408959181e+00 -2.6689100194e+00 1.5408959181e+00 2.6689100194e+00 
76400 4.8277875446e+00 6.9414240929e-05 1.5408959181e+00 -2.6689100194e+00 1.5408959181e+00 2.6689100194e+00 
76500 4.8277875449e+00 6.9426678792e-05 1.5408959181e+00 -2.6689100194e+00 1.5408959181e+00 2.6689100194e+00 
76600 4.8277875451e+00 6.9439192768e-05 1.5408959181e+00 -2.6689100194e+00 1.5408959181e+00 2.6689100194e+00 
76700 4.8277875454e+00 6.9451771244e-05 1.5408959181e+00 -2.6689100194e+00 1.5408959181e+00 2.6689100194e+00 
76800 4.8277875456e+00 6.9464403284e-05 1.5408959181e+00 -2.6689100194e+00 1.5408959181e+00 2.6689100194e+00 
76900 4.8277875458e+00 6.9477078581e-05 1.5408959181e+00 -2.6689100194e+00 1.5408959181e+00 2.6689100194e+00 
77000 4.8277875461e+00 6.9489787413e-05 1.5408959181e+00 -2.6689100194e+00 1.5408959181e+00 2.6689100194e+00 
77100 4.8277875463e+00 6.9502520617e-05 1.5408959181e+00 -2.6689100194e+00 1.5408959181e+00 2.6689100194e+00 
77200 4.8277875465e+00 6.9515269542e-05 1.5408959181e+00 -2.6689100194e+00 1.5408959181e+00 2.6689100194e+00 
77300 4.8277875467e+00 6.9528026029e-05 1.5408959181e+00 -2.6689100194e+00 1.5408959181e+00 2.6689100194e+00 
77400 4.8277875470e+00 6.9540782373e-05 1.5408959181e+00 -2.6689100194e+00 1.5408959181e+00 2.6689100194e+00 
77500 4.8277875472e+00 6.9553531299e-05 1.5408959181e+00 -2.6689100194e+00 1.5408959181e+00 2.6689100194e+00 
77600 4.8277875474e+00 6.9566265941e-05 1.5408959181e+00 -2.6689100194e+00 1.5408959181e+00 2.6689100194e+00 
77700 4.8277875476e+00 6.9578979811e-05 1.5408959181e+00 -2.6689100194e+00 1.5408959181e+00 2.6689100194e+00 
77800 4.8277875478e+00 6.9591666783e-05 1.5408959181e+00 -2.6689100194e+00 1.5408959181e+00 2.6689100194e+00 
77900 4.8277875480e+00 6.9604321072e-05 1.5408959181e+00 -2.6689100194e+00 1.5408959181e+00 2.6689100194e+00 
78000 4.8277875482e+00 6.9616937213e-05 1.5408959181e+00 -2.6689100194e+00 1.5408959181e+00 2.6689100194e+00 
78100 4.8277875484e+00 6.9629510048e-05 1.5408959181e+00 -2.6689100194e+00 1.5408959181e+00 2.6689100194e+00 
78200 4.8277875486e+00 6.9642034706e-05 1.5408959181e+00 -2.6689100194e+00 1.5408959181e+00 2.6689100194e+00 
78300 4.8277875488e+00 6.9654506590e-05 1.5408959181e+00 -2.6689100194e+00 1.5408959181e+00 2.6689100194e+00 
78400 4.8277875490e+00 6.9666921362e-05 1.5408959181e+00 -2.6689100194e+00 1.5408959181e+00 2.6689100194e+00 
78500 4.8277875492e+00 6.9679274931e-05 1.5408959181e+00 -2.6689100194e+00 1.5408959181e+00 2.6689100194e+00 
78600 4.8277875494e+00 6.9691563441e-05 1.5408959181e+00 -2.6689100194e+00 1.5408959181e+00 2.6689100194e+00 
78700 4.8277875495e+00 6.9703783258e-05 1.5408959181e+00 -2.6689100194e+00 1.5408959181e+00 2.6689100194e+00 
78800 4.8277875497e+00 6.9715930962e-05 1.5408959181e+00 -2.6689100194e+00 1.5408959181e+00 2.6689100194e+00 
78900 4.8277875499e+00 6.9728003332e-05 1.5408959181e+00 -2.6689100194e+00 1.5408959181e+00 2.6689100194e+00 
79000 4.8277875501e+00 6.9739997344e-05 1.5408959181e+00 -2.6689100194e+00 1.5408959181e+00 2.6689100194e+00 
79100 4.8277875502e+00 6.9751910157e-05 1.5408959181e+00 -2.6689100194e+00 1.5408959181e+00 2.6689100194e+00 
79200 4.8277875504e+00 6.9763739104e-05 1.5408959181e+00 -2.6689100194e+00 1.5408959181e+00 2.6689100194e+00 
79300 4.8277875506e+00 6.9775481690e-05 1.5408959181e+00 -2.6689100194e+00 1.5408959181e+00 2.6689100194e+00 
79400 4.8277875508e+00 6.9787135577e-05 1.5408959181e+00 -2.6689100194e+00 1.5408959181e+00 2.6689100194e+00 
79500 4.8277875509e+00 6.9798698583e-05 1.5408959181e+00 -2.6689100194e+00 1.5408959181e+00 2.6689100194e+00 
79600 4.8277875511e+00 6.9810168674e-05 1.5408959181e+00 -2.6689100194e+00 1.5408959181e+00 2.6689100194e+00 
79700 4.8277875512e+00 6.9821543956e-05 1.5408959181e+00 -2.6689100194e+00 1.5408959181e+00 2.6689100194e+00 
79800 4.8277875514e+00 6.9832822669e-05 1.5408959181e+00 -2.6689100194e+00 1.5408959181e+00 2.6689100194e+00 
79900 4.8277875516e+00 6.9844003186e-05 1.5408959181e+00 -2.6689100194e+00 1.5408959181e+00 2.6689100194e+00 
80000 4.8277875517e+00 6.9855084001e-05 1.5408959181e+00 -2.6689100194e+00 1.5408959181e+00 2.6689100194e+00 
80100 4.8277875519e+00 6.9866063730e-05 1.5408959181e+00 -2.6689100194e+00 1.5408959181e+00 2.6689100194e+00 
80200 4.8277875520e+00 6.9876941101e-05 1.5408959181e+00 -2.6689100194e+00 1.5408959181e+00 2.6689100194e+00 
80300 4.8277875522e+00 6.9887714955e-05 1.5408959181e+00 -2.6689100194e+00 1.5408959181e+00 2.6689100194e+00 
80400 4.8277875523e+00 6.9898384235e-05 1.5408959181e+00 -2.6689100194e+00 1.5408959181e+00 2.6689100194e+00 
80500 4.8277875524e+00 6.9908947989e-05 1.5408959181e+00 -2.6689100194e+00 1.5408959181e+00 2.6689100194e+00 
80600 4.8277875526e+00 6.9919405357e-05 1.5408959181e+00 -2.6689100194e+00 1.5408959181e+00 2.6689100194e+00 
80700 4.8277875527e+00 6.9929755578e-05 1.5408959181e+00 -2.6689100194e+00 1.5408959181e+00 2.6689100194e+00 
80800 4.8277875529e+00 6.9939997977e-05 1.5408959181e+00 -2.6689100194e+00 1.5408959181e+00 2.6689100194e+00 
80900 4.8277875530e+00 6.9950131966e-05 1.5408959181e+00 -2.6689100194e+00 1.5408959181e+00 2.6689100194e+00 
81000 4.8277875531e+00 6.9960157041e-05 1.5408959181e+00 -2.6689100194e+00 1.5408959181e+00 2.6689100194e+00 
81100 4.8277875533e+00 6.9970072775e-05 1.5408959181e+00 -2.6689100194e+00 1.5408959181e+00 2.6689100194e+00 
81200 4.8277875534e+00 6.9979878820e-05 1.5408959181e+00 -2.6689100194e+00 1.5408959181e+00 2.6689100194e+00 
81300 4.8277875535e+00 6.9989574898e-05 1.5408959181e+00 -2.6689100194e+00 1.5408959181e+00 2.6689100194e+00 
81400 4.8277875536e+00 6.9999160803e-05 1.5408959181e+00 -2.6689100194e+00 1.5408959181e+00 2.6689100194e+00 
81500 4.8277875538e+00 7.0008636396e-05 1.5408959181e+00 -2.6689100194e+00 1.5408959181e+00 2.6689100194e+00 
81600 4.8277875539e+00 7.0018001604e-05 1.5408959181e+00 -2.6689100194e+00 1.5408959181e+00 2.6689100194e+00 
81700 4.8277875540e+00 7.0027256412e-05 1.5408959181e+00 -2.6689100194e+00 1.5408959181e+00 2.6689100194e+00 
81800 4.8277875541e+00 7.0036400869e-05 1.5408959181e+00 -2.6689100194e+00 1.5408959181e+00 2.6689100194e+00 
81900 4.8277875543e+00 7.0045435077e-05 1.5408959181e+00 -2.6689100194e+00 1.5408959181e+00 2.6689100194e+00 
82000 4.8277875544e+00 7.0054359194e-05 1.5408959181e+00 -2.6689100194e+00 1.5408959181e+00 2.6689100194e+00 
82100 4.8277875545e+00 7.0063173431e-05 1.5408959181e+00 -2.6689100194e+00 1.5408959181e+00 2.6689100194e+00 
82200 4.8277875546e+00 7.0071878046e-05 1.5408959181e+00 -2.6689100194e+00 1.5408959181e+00 2.6689100194e+00 
82300 4.8277875547e+00 7.0080473348e-05 1.5408959181e+00 -2.6689100194e+00 1.5408959181e+00 2.6689100194e+00 
82400 4.8277875548e+00 7.0088959688e-05 1.5408959181e+00 -2.6689100194e+00 1.5408959181e+00 2.6689100194e+00 
82500 4.8277875549e+00 7.0097337463e-05 1.5408959181e+00 -2.6689100194e+00 1.5408959181e+00 2.6689100194e+00 
82600 4.8277875550e+00 7.0105607110e-05 1.5408959181e+00 -2.6689100194e+00 1.5408959181e+00 2.6689100194e+00 
82700 4.8277875552e+00 7.0113769106e-05 1.5408959181e+00 -2.6689100194e+00 1.5408959181e+00 2.6689100194e+00 
82800 4.8277875553e+00 7.0121823965e-05 1.5408959181e+00 -2.6689100194e+00 1.5408959181e+00 2.6689100194e+00 
82900 4.8277875554e+00 7.0129772236e-05 1.5408959181e+00 -2.6689100194e+00 1.5408959181e+00 2.6689100194e+00 
83000 4.8277875555e+00 7.0137614506e-05 1.5408959181e+00 -2.6689100194e+00 1.5408959181e+00 2.6689100194e+00 
83100 4.8277875556e+00 7.0145351388e-05 1.5408959181e+00 -2.6689100194e+00 1.5408959181e+00 2.6689100194e+00 
83200 4.8277875557e+00 7.0152983529e-05 1.5408959181e+00 -2.6689100194e+00 1.5408959181e+00 2.6689100194e+00 
83300 4.8277875558e+00 7.0160511606e-05 1.5408959181e+00 -2.6689100194e+00 1.5408959181e+00 2.6689100194e+00 
83400 4.8277875559e+00 7.0167936320e-05 1.5408959181e+00 -2.6689100194e+00 1.5408959181e+00 2.6689100194e+00 
83500 4.8277875560e+00 7.0175258401e-05 1.5408959181e+00 -2.6689100194e+00 1.5408959181e+00 2.6689100194e+00 
83600 4.8277875560e+00 7.0182478602e-05 1.5408959181e+00 -2.6689100194e+00 1.5408959181e+00 2.6689100194e+00 
83700 4.8277875561e+00 7.0189597698e-05 1.5408959181e+00 -2.6689100194e+00 1.5408959181e+00 2.6689100194e+00 
83800 4.8277875562e+00 7.0196616486e-05 1.5408959181e+00 -2.6689100194e+00 1.5408959181e+00 2.6689100194e+00 
83900 4.8277875563e+00 7.0203535785e-05 1.5408959181e+00 -2.6689100194e+00 1.5408959181e+00 2.6689100194e+00 
84000 4.8277875564e+00 7.0210356430e-05 1.5408959181e+00 -2.6689100194e+00 1.5408959181e+00 2.6689100194e+00 
84100 4.8277875565e+00 7.0217079275e-05 1.5408959181e+00 -2.6689100194e+00 1.5408959181e+00 2.6689100194e+00 
84200 4.8277875566e+00 7.0223705191e-05 1.5408959181e+00 -2.6689100194e+00 1.5408959181e+00 2.6689100194e+00 
84300 4.8277875567e+00 7.0230235063e-05 1.5408959181e+00 -2.6689100194e+00 1.5408959181e+00 2.6689100194e+00 
84400 4.8277875568e+00 7.0236669791e-05 1.5408959181e+00 -2.6689100194e+00 1.5408959181e+00 2.6689100194e+00 
84500 4.8277875568e+00 7.0243010287e-05 1.5408959181e+00 -2.6689100194e+00 1.5408959181e+00 2.6689100194e+00 
84600 4.8277875569e+00 7.0249257476e-05 1.5408959181e+00 -2.6689100194e+00 1.5408959181e+00 2.6689100194e+00 
84700 4.8277875570e+00 7.0255412293e-05 1.5408959181e+00 -2.6689100194e+00 1.5408959181e+00 2.6689100194e+00 
84800 4.8277875571e+00 7.0261475682e-05 1.5408959181e+00 -2.6689100194e+00 1.5408959181e+00 2.6689100194e+00 
84900 4.8277875572e+00 7.0267448599e-05 1.5408959181e+00 -2.6689100194e+00 1.5408959181e+00 2.6689100194e+00 
85000 4.8277875572e+00 7.0273332003e-05 1.5408959181e+00 -2.6689100194e+00 1.5408959181e+00 2.6689100194e+00 
85100 4.8277875573e+00 7.0279126866e-05 1.5408959181e+00 -2.6689100194e+00 1.5408959181e+00 2.6689100194e+00 
85200 4.8277875574e+00 7.0284834161e-05 1.5408959181e+00 -2.6689100194e+00 1.5408959181e+00 2.6689100194e+00 
85300 4.8277875575e+00 7.0290454870e-05 1.5408959181e+00 -2.6689100194e+00 1.5408959181e+00 2.6689100194e+00 
85400 4.8277875575e+00 7.0295989977e-05 1.5408959181e+00 -2.6689100194e+00 1.5408959181e+00 2.6689100194e+00 
85500 4.8277875576e+00 7.0301440470e-05 1.5408959181e+00 -2.6689100194e+00 1.5408959181e+00 2.6689100194e+00 
85600 4.8277875577e+00 7.0306807343e-05 1.5408959181e+00 -2.6689100194e+00 1.5408959181e+00 2.6689100194e+00 
85700 4.8277875578e+00 7.0312091589e-05 1.5408959181e+00 -2.6689100194e+00 1.5408959181e+00 2.6689100194e+00 
85800 4.8277875578e+00 7.0317294204e-05 1.5408959181e+00 -2.6689100194e+00 1.5408959181e+00 2.6689100194e+00 
85900 4.8277875579e+00 7.0322416184e-05 1.5408959181e+00 -2.6689100194e+00 1.5408959181e+00 2.6689100194e+00 
86000 4.8277875580e+00 7.0327458528e-05 1.5408959181e+00 -2.6689100194e+00 1.5408959181e+00 2.6689100194e+00 
86100 4.8277875580e+00 7.0332422231e-05 1.5408959181e+00 -2.6689100194e+00 1.5408959181e+00 2.6689100194e+00 
86200 4.8277875581e+00 7.0337308290e-05 1.5408959181e+00 -2.6689100194e+00 1.5408959181e+00 2.6689100194e+00 
86300 4.8277875582e+00 7.0342117700e-05 1.5408959181e+00 -2.6689100194e+00 1.5408959181e+00 2.6689100194e+00 
86400 4.8277875582e+00 7.0346851453e-05 1.5408959181e+00 -2.6689100194e+00 1.5408959181e+00 2.6689100194e+00 
86500 4.8277875583e+00 7.0351510540e-05 1.5408959181e+00 -2.6689100194e+00 1.5408959181e+00 2.6689100194e+00 
86600 4.8277875584e+00 7.0356095947e-05 1.5408959181e+00 -2.6689100194e+00 1.5408959181e+00 2.6689100194e+00 
86700 4.8277875584e+00 7.0360608660e-05 1.5408959181e+00 -2.6689100194e+00 1.5408959181e+00 2.6689100194e+00 
86800 4.8277875585e+00 7.0365049659e-05 1.5408959181e+00 -2.6689100194e+00 1.5408959181e+00 2.6689100194e+00 
86900 4.8277875586e+00 7.0369419919e-05 1.5408959181e+00 -2.6689100194e+00 1.5408959181e+00 2.6689100194e+00 
87000 4.8277875586e+00 7.0373720411e-05 1.5408959181e+00 -2.6689100194e+00 1.5408959181e+00 2.6689100194e+00 
87100 4.8277875587e+00 7.0377952103e-05 1.5408959181e+00 -2.6689100194e+00 1.5408959181e+00 2.6689100194e+00 
87200 4.8277875587e+00 7.0382115955e-05 1.5408959181e+00 -2.6689100194e+00 1.5408959181e+00 2.6689100194e+00 
87300 4.8277875588e+00 7.0386212923e-05 1.5408959181e+00 -2.6689100194e+00 1.5408959181e+00 2.6689100194e+00 
87400 4.8277875588e+00 7.0390243955e-05 1.5408959181e+00 -2.6689100194e+00 1.5408959181e+00 2.6689100194e+00 
87500 4.8277875589e+00 7.0394209995e-05 1.5408959181e+00 -2.6689100194e+00 1.5408959181e+00 2.6689100194e+00 
87600 4.8277875590e+00 7.0398111979e-05 1.5408959181e+00 -2.6689100194e+00 1.5408959181e+00 2.6689100194e+00 
87700 4.8277875590e+00 7.0401950837e-05 1.5408959181e+00 -2.6689100194e+00 1.5408959181e+00 2.6689100194e+00 
87800 4.8277875591e+00 7.0405727490e-05 1.5408959181e+00 -2.6689100194e+00 1.5408959181e+00 2.6689100194e+00 
87900 4.8277875591e+00 7.0409442855e-05 1.5408959181e+00 -2.6689100194e+00 1.5408959181e+00 2.6689100194e+00 
88000 4.8277875592e+00 7.0413097837e-05 1.5408959181e+00 -2.6689100194e+00 1.5408959181e+00 2.6689100194e+00 
88100 4.8277875592e+00 7.0416693337e-05 1.5408959181e+00 -2.6689100194e+00 1.5408959181e+00 2.6689100194e+00 
88200 4.8277875593e+00 7.0420230246e-05 1.5408959181e+00 -2.6689100194e+00 1.5408959181e+00 2.6689100194e+00 
88300 4.8277875593e+00 7.0423709447e-05 1.5408959181e+00 -2.6689100194e+00 1.5408959181e+00 2.6689100194e+00 
88400 4.8277875594e+00 7.0426724104e-05 1.5408959181e+00 -2.6689100194e+00 1.5408959181e+00 2.6689100194e+00 
88400 4.8277875594e+00 7.0426724104e-05 1.5408959181e+00 -2.6689100194e+00 1.5408959181e+00 2.6689100194e+00 
