# step Hamiltonian StressXX CellTensor1 CellTensor2 CellTensor3 CellTensor4 
0 7.3521226582e+00 -8.3701890033e-04 1.6087831444e+00 -2.7864941444e+00 1.6087831444e+00 2.7864941444e+00 
100 7.3375062994e+00 -1.2617804462e-04 1.6087831444e+00 -2.7864941444e+00 1.6087831444e+00 2.7864941444e+00 
200 7.3231200075e+00 2.7956183126e-04 1.6087870659e+00 -2.7865009367e+00 1.6087870659e+00 2.7865009367e+00 
300 7.3089913111e+00 3.7304482700e-04 1.6087783773e+00 -2.7864858876e+00 1.6087783773e+00 2.7864858876e+00 
400 7.2951442537e+00 1.7662180394e-04 1.6087667833e+00 -2.7864658062e+00 1.6087667833e+00 2.7864658062e+00 
500 7.2815995918e+00 -2.8821120625e-04 1.6087612939e+00 -2.7864562983e+00 1.6087612939e+00 2.7864562983e+00 
600 7.2683749627e+00 -1.0008176345e-03 1.6087702515e+00 -2.7864718133e+00 1.6087702515e+00 2.7864718133e+00 
700 7.2554850489e+00 -1.9414252607e-03 1.6088013566e+00 -2.7865256890e+00 1.6088013566e+00 2.7865256890e+00 
800 7.2429417407e+00 -3.0911302575e-03 1.6088616946e+00 -2.7866301975e+00 1.6088616946e+00 2.7866301975e+00 
900 7.2307542976e+00 -4.4318994920e-03 1.6089577614e+00 -2.7867965899e+00 1.6089577614e+00 2.7867965899e+00 
1000 7.2189295087e+00 -5.9465703808e-03 1.6090954891e+00 -2.7870351414e+00 1.6090954891e+00 2.7870351414e+00 
1100 7.2074718520e+00 -7.6188477667e-03 1.6092802726e+00 -2.7873551957e+00 1.6092802726e+00 2.7873551957e+00 
1200 7.1963836527e+00 -9.4332974599e-03 1.6095169944e+00 -2.7877652099e+00 1.6095169944e+00 2.7877652099e+00 
1300 7.1856652403e+00 -1.1375336234e-02 1.6098100507e+00 -2.7882727984e+00 1.6098100507e+00 2.7882727984e+00 
1400 7.1753151039e+00 -1.3431218204e-02 1.6101633766e+00 -2.7888847768e+00 1.6101633766e+00 2.7888847768e+00 
1500 7.1653300458e+00 -1.5588017637e-02 1.6105804709e+00 -2.7896072053e+00 1.6105804709e+00 2.7896072053e+00 
1600 7.1557053325e+00 -1.7833608344e-02 1.6110644206e+00 -2.7904454307e+00 1.6110644206e+00 2.7904454307e+00 
1700 7.1464348427e+00 -2.0156639879e-02 1.6116179251e+00 -2.7914041287e+00 1.6116179251e+00 2.7914041287e+00 
1800 7.1375112121e+00 -2.2546510850e-02 1.6122433197e+00 -2.7924873439e+00 1.6122433197e+00 2.7924873439e+00 
1900 7.1289259747e+00 -2.4993339692e-02 1.6129425981e+00 -2.7936985297e+00 1.6129425981e+00 2.7936985297e+00 
2000 7.1206696987e+00 -2.7487933274e-02 1.6137174347e+00 -2.7950405860e+00 1.6137174347e+00 2.7950405860e+00 
2100 7.1127321195e+00 -3.0021753745e-02 1.6145692056e+00 -2.7965158965e+00 1.6145692056e+00 2.7965158965e+00 
2200 7.1051022660e+00 -3.2586884038e-02 1.6154990088e+00 -2.7981263629e+00 1.6154990088e+00 2.7981263629e+00 
2300 7.0977685828e+00 -3.5175992412e-02 1.6165076840e+00 -2.7998734394e+00 1.6165076840e+00 2.7998734394e+00 
2400 7.0907190459e+00 -3.7782296459e-02 1.6175958302e+00 -2.8017581640e+00 1.6175958302e+00 2.8017581640e+00 
2500 7.0839412732e+00 -4.0399526917e-02 1.6187638241e+00 -2.8037811887e+00 1.6187638241e+00 2.8037811887e+00 
2600 7.0774226285e+00 -4.3021891648e-02 1.6200118354e+00 -2.8059428078e+00 1.6200118354e+00 2.8059428078e+00 
2700 7.0711503198e+00 -4.5644040112e-02 1.6213398431e+00 -2.8082429846e+00 1.6213398431e+00 2.8082429846e+00 
2800 7.0651114903e+00 -4.8261028592e-02 1.6227476491e+00 -2.8106813761e+00 1.6227476491e+00 2.8106813761e+00 
2900 7.0592933044e+00 -5.0868286443e-02 1.6242348918e+00 -2.8132573561e+00 1.6242348918e+00 2.8132573561e+00 
3000 7.0536830264e+00 -5.3461583570e-02 1.6258010585e+00 -2.8159700364e+00 1.6258010585e+00 2.8159700364e+00 
3100 7.0482680929e+00 -5.6036999314e-02 1.6274454967e+00 -2.8188182868e+00 1.6274454967e+00 2.8188182868e+00 
3200 7.0430361792e+00 -5.8590892889e-02 1.6291674244e+00 -2.8218007530e+00 1.6291674244e+00 2.8218007530e+00 
3300 7.0379752591e+00 -6.1119875493e-02 1.6309659399e+00 -2.8249158734e+00 1.6309659399e+00 2.8249158734e+00 
3400 7.0330736593e+00 -6.3620784155e-02 1.6328400307e+00 -2.8281618938e+00 1.6328400307e+00 2.8281618938e+00 
3500 7.0283201063e+00 -6.6090657396e-02 1.6347885811e+00 -2.8315368820e+00 1.6347885811e+00 2.8315368820e+00 
3600 7.0237037694e+00 -6.8526712712e-02 1.6368103795e+00 -2.8350387397e+00 1.6368103795e+00 2.8350387397e+00 
3700 7.0192142964e+00 -7.0926325899e-02 1.6389041254e+00 -2.8386652140e+00 1.6389041254e+00 2.8386652140e+00 
3800 7.0148418448e+00 -7.3287012194e-02 1.6410684348e+00 -2.8424139078e+00 1.6410684348e+00 2.8424139078e+00 
3900 7.0105771072e+00 -7.5606409208e-02 1.6433018459e+00 -2.8462822893e+00 1.6433018459e+00 2.8462822893e+00 
4000 7.0064113322e+00 -7.7882261603e-02 1.6456028238e+00 -2.8502677000e+00 1.6456028238e+00 2.8502677000e+00 
4100 7.0023363397e+00 -8.0112407448e-02 1.6479697650e+00 -2.8543673623e+00 1.6479697650e+00 2.8543673623e+00 
4200 6.9983445326e+00 -8.2294766190e-02 1.6504010011e+00 -2.8585783867e+00 1.6504010011e+00 2.8585783867e+00 
4300 6.9944289034e+00 -8.4427328156e-02 1.6528948027e+00 -2.8628977779e+00 1.6528948027e+00 2.8628977779e+00 
4400 6.9905830373e+00 -8.6508145515e-02 1.6554493826e+00 -2.8673224400e+00 1.6554493826e+00 2.8673224400e+00 
4500 6.9868011110e+00 -8.8535324594e-02 1.6580628985e+00 -2.8718491824e+00 1.6580628985e+00 2.8718491824e+00 
4600 6.9830778883e+00 -9.0507019470e-02 1.6607334560e+00 -2.8764747237e+00 1.6607334560e+00 2.8764747237e+00 
4700 6.9794087127e+00 -9.2421426743e-02 1.6634591110e+00 -2.8811956966e+00 1.6634591110e+00 2.8811956966e+00 
4800 6.9757894959e+00 -9.4276781394e-02 1.6662378721e+00 -2.8860086520e+00 1.6662378721e+00 2.8860086520e+00 
4900 6.9722167050e+00 -9.6071353642e-02 1.6690677026e+00 -2.8909100621e+00 1.6690677026e+00 2.8909100621e+00 
5000 6.9686873459e+00 -9.7803446699e-02 1.6719465228e+00 -2.8958963250e+00 1.6719465228e+00 2.8958963250e+00 
5100 6.9651989455e+00 -9.9471395353e-02 1.6748722118e+00 -2.9009637670e+00 1.6748722118e+00 2.9009637670e+00 
5200 6.9617495306e+00 -1.0107356527e-01 1.6778426097e+00 -2.9061086470e+00 1.6778426097e+00 2.9061086470e+00 
5300 6.9583376066e+00 -1.0260835299e-01 1.6808555190e+00 -2.9113271590e+00 1.6808555190e+00 2.9113271590e+00 
5400 6.9549621333e+00 -1.0407418640e-01 1.6839087068e+00 -2.9166154354e+00 1.6839087068e+00 2.9166154354e+00 
5500 6.9516224998e+00 -1.0546952587e-01 1.6869999064e+00 -2.9219695503e+00 1.6869999064e+00 2.9219695503e+00 
5600 6.9483184987e+00 -1.0679286563e-01 1.6901268194e+00 -2.9273855224e+00 1.6901268194e+00 2.9273855224e+00 
5700 6.9450502987e+00 -1.0804273569e-01 1.6932871170e+00 -2.9328593184e+00 1.6932871170e+00 2.9328593184e+00 
5800 6.9418184169e+00 -1.0921770399e-01 1.6964784422e+00 -2.9383868559e+00 1.6964784422e+00 2.9383868559e+00 
5900 6.9386236905e+00 -1.1031637877e-01 1.6996984117e+00 -2.9439640067e+00 1.6996984117e+00 2.9439640067e+00 
6000 6.9354672477e+00 -1.1133741123e-01 1.7029446175e+00 -2.9495866000e+00 1.7029446175e+00 2.9495866000e+00 
6100 6.9323504793e+00 -1.1227949831e-01 1.7062146288e+00 -2.9552504258e+00 1.7062146288e+00 2.9552504258e+00 
6200 6.9292750095e+00 -1.1314138560e-01 1.7095059942e+00 -2.9609512379e+00 1.7095059942e+00 2.9609512379e+00 
6300 6.9262426668e+00 -1.1392187030e-01 1.7128162434e+00 -2.9666847577e+00 1.7128162434e+00 2.9666847577e+00 
6400 6.9232554556e+00 -1.1461980428e-01 1.7161428894e+00 -2.9724466774e+00 1.7161428894e+00 2.9724466774e+00 
6500 6.9203155280e+00 -1.1523409716e-01 1.7194834301e+00 -2.9782326638e+00 1.7194834301e+00 2.9782326638e+00 
6600 6.9174251558e+00 -1.1576371935e-01 1.7228353511e+00 -2.9840383612e+00 1.7228353511e+00 2.9840383612e+00 
6700 6.9145867038e+00 -1.1620770509e-01 1.7261961270e+00 -2.9898593958e+00 1.7261961270e+00 2.9898593958e+00 
6800 6.9118026025e+00 -1.1656515546e-01 1.7295632241e+00 -2.9956913790e+00 1.7295632241e+00 2.9956913790e+00 
6900 6.9090753233e+00 -1.1683524134e-01 1.7329341021e+00 -3.0015299110e+00 1.7329341021e+00 3.0015299110e+00 
7000 6.9064073531e+00 -1.1701720630e-01 1.7363062167e+00 -3.0073705848e+00 1.7363062167e+00 3.0073705848e+00 
7100 6.9038011709e+00 -1.1711036936e-01 1.7396770214e+00 -3.0132089898e+00 1.7396770214e+00 3.0132089898e+00 
7200 6.9012592245e+00 -1.1711412781e-01 1.7430439699e+00 -3.0190407157e+00 1.7430439699e+00 3.0190407157e+00 
7300 6.8987839091e+00 -1.1702795978e-01 1.7464045184e+00 -3.0248613565e+00 1.7464045184e+00 3.0248613565e+00 
7400 6.8963775466e+00 -1.1685142685e-01 1.7497561276e+00 -3.0306665139e+00 1.7497561276e+00 3.0306665139e+00 
7500 6.8940423659e+00 -1.1658417653e-01 1.7530962651e+00 -3.0364518017e+00 1.7530962651e+00 3.0364518017e+00 
7600 6.8917804850e+00 -1.1622594465e-01 1.7564224076e+00 -3.0422128495e+00 1.7564224076e+00 3.0422128495e+00 
7700 6.8895938938e+00 -1.1577655766e-01 1.7597320433e+00 -3.0479453067e+00 1.7597320433e+00 3.0479453067e+00 
7800 6.8874844383e+00 -1.1523593492e-01 1.7630226739e+00 -3.0536448461e+00 1.7630226739e+00 3.0536448461e+00 
7900 6.8854538063e+00 -1.1460409080e-01 1.7662918171e+00 -3.0593071682e+00 1.7662918171e+00 3.0593071682e+00 
8000 6.8835035143e+00 -1.1388113686e-01 1.7695370087e+00 -3.0649280050e+00 1.7695370087e+00 3.0649280050e+00 
8100 6.8816348952e+00 -1.1306728379e-01 1.7727558052e+00 -3.0705031240e+00 1.7727558052e+00 3.0705031240e+00 
8200 6.8798490886e+00 -1.1216284346e-01 1.7759457855e+00 -3.0760283320e+00 1.7759457855e+00 3.0760283320e+00 
8300 6.8781470308e+00 -1.1116823082e-01 1.7791045538e+00 -3.0814994791e+00 1.7791045538e+00 3.0814994791e+00 
8400 6.8765294473e+00 -1.1008396575e-01 1.7822297414e+00 -3.0869124629e+00 1.7822297414e+00 3.0869124629e+00 
8500 6.8749968463e+00 -1.0891067492e-01 1.7853190094e+00 -3.0922632319e+00 1.7853190094e+00 3.0922632319e+00 
8600 6.8735495131e+00 -1.0764909355e-01 1.7883700505e+00 -3.0975477901e+00 1.7883700505e+00 3.0975477901e+00 
8700 6.8721875065e+00 -1.0630006714e-01 1.7913805917e+00 -3.1027622006e+00 1.7913805917e+00 3.1027622006e+00 
8800 6.8709106557e+00 -1.0486455320e-01 1.7943483966e+00 -3.1079025895e+00 1.7943483966e+00 3.1079025895e+00 
8900 6.8697185592e+00 -1.0334362287e-01 1.7972712674e+00 -3.1129651501e+00 1.7972712674e+00 3.1129651501e+00 
9000 6.8686105843e+00 -1.0173846255e-01 1.8001470473e+00 -3.1179461470e+00 1.8001470473e+00 3.1179461470e+00 
9100 6.8675858681e+00 -1.0005037546e-01 1.8029736230e+00 -3.1228419197e+00 1.8029736230e+00 3.1228419197e+00 
9200 6.8666433197e+00 -9.8280783145e-02 1.8057489270e+00 -3.1276488872e+00 1.8057489270e+00 3.1276488872e+00 
9300 6.8657816236e+00 -9.6431226919e-02 1.8084709397e+00 -3.1323635516e+00 1.8084709397e+00 3.1323635516e+00 
9400 6.8649992438e+00 -9.4503369234e-02 1.8111376921e+00 -3.1369825023e+00 1.8111376921e+00 3.1369825023e+00 
9500 6.8642944297e+00 -9.2498994969e-02 1.8137472680e+00 -3.1415024203e+00 1.8137472680e+00 3.1415024203e+00 
9600 6.8636652223e+00 -9.0420012628e-02 1.8162978064e+00 -3.1459200823e+00 1.8162978064e+00 3.1459200823e+00 
9700 6.8631094620e+00 -8.8268455412e-02 1.8187875037e+00 -3.1502323646e+00 1.8187875037e+00 3.1502323646e+00 
9800 6.8626247970e+00 -8.6046482167e-02 1.8212146167e+00 -3.1544362477e+00 1.8212146167e+00 3.1544362477e+00 
9900 6.8622086927e+00 -8.3756378182e-02 1.8235774646e+00 -3.1585288202e+00 1.8235774646e+00 3.1585288202e+00 
10000 6.8618584425e+00 -8.1400555810e-02 1.8258744313e+00 -3.1625072833e+00 1.8258744313e+00 3.1625072833e+00 
10100 6.8615711782e+00 -7.8981554898e-02 1.8281039685e+00 -3.1663689549e+00 1.8281039685e+00 3.1663689549e+00 
10200 6.8613438829e+00 -7.6502042989e-02 1.8302645976e+00 -3.1701112743e+00 1.8302645976e+00 3.1701112743e+00 
10300 6.8611734029e+00 -7.3964815276e-02 1.8323549124e+00 -3.1737318058e+00 1.8323549124e+00 3.1737318058e+00 
10400 6.8610564617e+00 -7.1372794279e-02 1.8343735819e+00 -3.1772282439e+00 1.8343735819e+00 3.1772282439e+00 
10500 6.8609896739e+00 -6.8729029213e-02 1.8363193523e+00 -3.1805984171e+00 1.8363193523e+00 3.1805984171e+00 
10600 6.8609695596e+00 -6.6036695010e-02 1.8381910499e+00 -3.1838402925e+00 1.8381910499e+00 3.1838402925e+00 
10700 6.8609925597e+00 -6.3299090979e-02 1.8399875835e+00 -3.1869519799e+00 1.8399875835e+00 3.1869519799e+00 
10800 6.8610550514e+00 -6.0519639050e-02 1.8417079469e+00 -3.1899317367e+00 1.8417079469e+00 3.1899317367e+00 
10900 6.8611533645e+00 -5.7701881590e-02 1.8433512212e+00 -3.1927779714e+00 1.8433512212e+00 3.1927779714e+00 
11000 6.8612837969e+00 -5.4849478741e-02 1.8449165778e+00 -3.1954892485e+00 1.8449165778e+00 3.1954892485e+00 
11100 6.8614426318e+00 -5.1966205261e-02 1.8464032802e+00 -3.1980642926e+00 1.8464032802e+00 3.1980642926e+00 
11200 6.8616261540e+00 -4.9055946826e-02 1.8478106868e+00 -3.2005019923e+00 1.8478106868e+00 3.2005019923e+00 
11300 6.8618306665e+00 -4.6122695780e-02 1.8491382529e+00 -3.2028014042e+00 1.8491382529e+00 3.2028014042e+00 
11400 6.8620525074e+00 -4.3170546283e-02 1.8503855332e+00 -3.2049617572e+00 1.8503855332e+00 3.2049617572e+00 
11500 6.8622880664e+00 -4.0203688854e-02 1.8515521842e+00 -3.2069824558e+00 1.8515521842e+00 3.2069824558e+00 
11600 6.8625338013e+00 -3.7226404269e-02 1.8526379655e+00 -3.2088630842e+00 1.8526379655e+00 3.2088630842e+00 
11700 6.8627862539e+00 -3.4243056819e-02 1.8536427427e+00 -3.2106034094e+00 1.8536427427e+00 3.2106034094e+00 
11800 6.8630420660e+00 -3.1258086884e-02 1.8545664886e+00 -3.2122033843e+00 1.8545664886e+00 3.2122033843e+00 
11900 6.8632979946e+00 -2.8276002839e-02 1.8554092854e+00 -3.2136631511e+00 1.8554092854e+00 3.2136631511e+00 
12000 6.8635509268e+00 -2.5301372278e-02 1.8561713258e+00 -3.2149830438e+00 1.8561713258e+00 3.2149830438e+00 
12100 6.8637978937e+00 -2.2338812559e-02 1.8568529148e+00 -3.2161635907e+00 1.8568529148e+00 3.2161635907e+00 
12200 6.8640360841e+00 -1.9392980675e-02 1.8574544708e+00 -3.2172055161e+00 1.8574544708e+00 3.2172055161e+00 
12300 6.8642628568e+00 -1.6468562468e-02 1.8579765263e+00 -3.2181097429e+00 1.8579765263e+00 3.2181097429e+00 
12400 6.8644757524e+00 -1.3570261218e-02 1.8584197294e+00 -3.2188773931e+00 1.8584197294e+00 3.2188773931e+00 
12500 6.8646725039e+00 -1.0702785607e-02 1.8587848435e+00 -3.2195097893e+00 1.8587848435e+00 3.2195097893e+00 
12600 6.8648510465e+00 -7.8708371331e-03 1.8590727483e+00 -3.2200084550e+00 1.8590727483e+00 3.2200084550e+00 
12700 6.8650095258e+00 -5.0790969845e-03 1.8592844395e+00 -3.2203751149e+00 1.8592844395e+00 3.2203751149e+00 
12800 6.8651463050e+00 -2.3322124460e-03 1.8594210286e+00 -3.2206116941e+00 1.8594210286e+00 3.2206116941e+00 
12900 6.8652599709e+00 3.6521711170e-04 1.8594837423e+00 -3.2207203176e+00 1.8594837423e+00 3.2207203176e+00 
13000 6.8653493388e+00 3.0086545906e-03 1.8594739219e+00 -3.2207033082e+00 1.8594739219e+00 3.2207033082e+00 
13100 6.8654134550e+00 5.5936397987e-03 1.8593930218e+00 -3.2205631851e+00 1.8593930218e+00 3.2205631851e+00 
13200 6.8654515991e+00 8.1158042777e-03 1.8592426081e+00 -3.2203026609e+00 1.8592426081e+00 3.2203026609e+00 
13300 6.8654632840e+00 1.0570886238e-02 1.8590243567e+00 -3.2199246384e+00 1.8590243567e+00 3.2199246384e+00 
13400 6.8654482547e+00 1.2954745509e-02 1.8587400512e+00 -3.2194322068e+00 1.8587400512e+00 3.2194322068e+00 
13500 6.8654064857e+00 1.5263378407e-02 1.8583915802e+00 -3.2188286373e+00 1.8583915802e+00 3.2188286373e+00 
13600 6.8653381766e+00 1.7492932426e-02 1.8579809344e+00 -3.2181173778e+00 1.8579809344e+00 3.2181173778e+00 
13700 6.8652437466e+00 1.9639720635e-02 1.8575102031e+00 -3.2173020474e+00 1.8575102031e+00 3.2173020474e+00 
13800 6.8651238270e+00 2.1700235689e-02 1.8569815711e+00 -3.2163864298e+00 1.8569815711e+00 3.2163864298e+00 
13900 6.8649792531e+00 2.3671163345e-02 1.8563973139e+00 -3.2153744666e+00 1.8563973139e+00 3.2153744666e+00 
14000 6.8648110541e+00 2.5549395374e-02 1.8557597939e+00 -3.2142702496e+00 1.8557597939e+00 3.2142702496e+00 
14100 6.8646204414e+00 2.7332041768e-02 1.8550714555e+00 -3.2130780125e+00 1.8550714555e+00 3.2130780125e+00 
14200 6.8644087970e+00 2.9016442143e-02 1.8543348199e+00 -3.2118021223e+00 1.8543348199e+00 3.2118021223e+00 
14300 6.8641776594e+00 3.0600176244e-02 1.8535524800e+00 -3.2104470699e+00 1.8535524800e+00 3.2104470699e+00 
14400 6.8639287092e+00 3.2081073458e-02 1.8527270946e+00 -3.2090174604e+00 1.8527270946e+00 3.2090174604e+00 
14500 6.8636637535e+00 3.3457221257e-02 1.8518613823e+00 -3.2075180027e+00 1.8518613823e+00 3.2075180027e+00 
14600 6.8633847097e+00 3.4726972498e-02 1.8509581154e+00 -3.2059534986e+00 1.8509581154e+00 3.2059534986e+00 
14700 6.8630935889e+00 3.5888951504e-02 1.8500201137e+00 -3.2043288320e+00 1.8500201137e+00 3.2043288320e+00 
14800 6.8627924777e+00 3.6942058892e-02 1.8490502374e+00 -3.2026489569e+00 1.8490502374e+00 3.2026489569e+00 
14900 6.8624835214e+00 3.7885475086e-02 1.8480513805e+00 -3.2009188861e+00 1.8480513805e+00 3.2009188861e+00 
15000 6.8621689051e+00 3.8718662488e-02 1.8470264639e+00 -3.1991436784e+00 1.8470264639e+00 3.1991436784e+00 
15100 6.8618508360e+00 3.9441366299e-02 1.8459784281e+00 -3.1973284271e+00 1.8459784281e+00 3.1973284271e+00 
15200 6.8615315255e+00 4.0053613968e-02 1.8449102260e+00 -3.1954782469e+00 1.8449102260e+00 3.1954782469e+00 
15300 6.8612131712e+00 4.0555713282e-02 1.8438248159e+00 -3.1935982614e+00 1.8438248159e+00 3.1935982614e+00 
15400 6.8608979396e+00 4.0948249121e-02 1.8427251540e+00 -3.1916935911e+00 1.8427251540e+00 3.1916935911e+00 
15500 6.8605879492e+00 4.1232078896e-02 1.8416141871e+00 -3.1897693400e+00 1.8416141871e+00 3.1897693400e+00 
15600 6.8602852542e+00 4.1408326730e-02 1.8404948457e+00 -3.1878305839e+00 1.8404948457e+00 3.1878305839e+00 
15700 6.8599918294e+00 4.1478376423e-02 1.8393700367e+00 -3.1858823574e+00 1.8393700367e+00 3.1858823574e+00 
15800 6.8597095554e+00 4.1443863275e-02 1.8382426361e+00 -3.1839296424e+00 1.8382426361e+00 3.1839296424e+00 
15900 6.8594402055e+00 4.1306664833e-02 1.8371154828e+00 -3.1819773556e+00 1.8371154828e+00 3.1819773556e+00 
16000 6.8591854331e+00 4.1068890661e-02 1.8359913714e+00 -3.1800303375e+00 1.8359913714e+00 3.1800303375e+00 
16100 6.8589467607e+00 4.0732871208e-02 1.8348730459e+00 -3.1780933410e+00 1.8348730459e+00 3.1780933410e+00 
16200 6.8587255703e+00 4.0301145879e-02 1.8337631936e+00 -3.1761710204e+00 1.8337631936e+00 3.1761710204e+00 
16300 6.8585230950e+00 3.9776450410e-02 1.8326644389e+00 -3.1742679214e+00 1.8326644389e+00 3.1742679214e+00 
16400 6.8583404119e+00 3.9161703661e-02 1.8315793379e+00 -3.1723884713e+00 1.8315793379e+00 3.1723884713e+00 
16500 6.8581784365e+00 3.8459993908e-02 1.8305103727e+00 -3.1705369692e+00 1.8305103727e+00 3.1705369692e+00 
16600 6.8580379192e+00 3.7674564786e-02 1.8294599467e+00 -3.1687175781e+00 1.8294599467e+00 3.1687175781e+00 
16700 6.8579194422e+00 3.6808800938e-02 1.8284303798e+00 -3.1669343158e+00 1.8284303798e+00 3.1669343158e+00 
16800 6.8578234183e+00 3.5866213530e-02 1.8274239039e+00 -3.1651910485e+00 1.8274239039e+00 3.1651910485e+00 
16900 6.8577500921e+00 3.4850425684e-02 1.8264426591e+00 -3.1634914827e+00 1.8264426591e+00 3.1634914827e+00 
17000 6.8576995405e+00 3.3765157966e-02 1.8254886902e+00 -3.1618391601e+00 1.8254886902e+00 3.1618391601e+00 
17100 6.8576716771e+00 3.2614214005e-02 1.8245639432e+00 -3.1602374513e+00 1.8245639432e+00 3.1602374513e+00 
17200 6.8576662554e+00 3.1401466324e-02 1.8236702625e+00 -3.1586895509e+00 1.8236702625e+00 3.1586895509e+00 
17300 6.8576828751e+00 3.0130842478e-02 1.8228093889e+00 -3.1571984740e+00 1.8228093889e+00 3.1571984740e+00 
17400 6.8577209888e+00 2.8806311568e-02 1.8219829567e+00 -3.1557670516e+00 1.8219829567e+00 3.1557670516e+00 
17500 6.8577799093e+00 2.7431871182e-02 1.8211924930e+00 -3.1543979283e+00 1.8211924930e+00 3.1543979283e+00 
17600 6.8578588185e+00 2.6011534843e-02 1.8204394156e+00 -3.1530935599e+00 1.8204394156e+00 3.1530935599e+00 
17700 6.8579567773e+00 2.4549319992e-02 1.8197250322e+00 -3.1518562116e+00 1.8197250322e+00 3.1518562116e+00 
17800 6.8580727352e+00 2.3049236559e-02 1.8190505401e+00 -3.1506879571e+00 1.8190505401e+00 3.1506879571e+00 
17900 6.8582055414e+00 2.1515276151e-02 1.8184170256e+00 -3.1495906777e+00 1.8184170256e+00 3.1495906777e+00 
18000 6.8583539563e+00 1.9951401878e-02 1.8178254642e+00 -3.1485660632e+00 1.8178254642e+00 3.1485660632e+00 
18100 6.8585166631e+00 1.8361538835e-02 1.8172767207e+00 -3.1476156116e+00 1.8172767207e+00 3.1476156116e+00 
18200 6.8586922795e+00 1.6749565257e-02 1.8167715503e+00 -3.1467406308e+00 1.8167715503e+00 3.1467406308e+00 
18300 6.8588793704e+00 1.5119304336e-02 1.8163105992e+00 -3.1459422401e+00 1.8163105992e+00 3.1459422401e+00 
18400 6.8590764595e+00 1.3474516707e-02 1.8158944059e+00 -3.1452213721e+00 1.8158944059e+00 3.1452213721e+00 
18500 6.8592820418e+00 1.1818893590e-02 1.8155234025e+00 -3.1445787755e+00 1.8155234025e+00 3.1445787755e+00 
18600 6.8594945954e+00 1.0156050573e-02 1.8151979168e+00 -3.1440150176e+00 1.8151979168e+00 3.1440150176e+00 
18700 6.8597125932e+00 8.4895220203e-03 1.8149181734e+00 -3.1435304880e+00 1.8149181734e+00 3.1435304880e+00 
18800 6.8599345143e+00 6.8227560782e-03 1.8146842968e+00 -3.1431254017e+00 1.8146842968e+00 3.1431254017e+00 
18900 6.8601588551e+00 5.1591102592e-03 1.8144963126e+00 -3.1427998036e+00 1.8144963126e+00 3.1427998036e+00 
19000 6.8603841392e+00 3.5018475708e-03 1.8143541508e+00 -3.1425535721e+00 1.8143541508e+00 3.1425535721e+00 
19100 6.8606089279e+00 1.8541331630e-03 1.8142576477e+00 -3.1423864238e+00 1.8142576477e+00 3.1423864238e+00 
19200 6.8608318292e+00 2.1903145927e-04 1.8142065490e+00 -3.1422979182e+00 1.8142065490e+00 3.1422979182e+00 
19300 6.8610515061e+00 -1.4004962576e-03 1.8142005124e+00 -3.1422874626e+00 1.8142005124e+00 3.1422874626e+00 
19400 6.8612666848e+00 -3.0015938407e-03 1.8142391107e+00 -3.1423543168e+00 1.8142391107e+00 3.1423543168e+00 
19500 6.8614761619e+00 -4.5815118856e-03 1.8143218345e+00 -3.1424975987e+00 1.8143218345e+00 3.1424975987e+00 
19600 6.8616788102e+00 -6.1376089820e-03 1.8144480956e+00 -3.1427162893e+00 1.8144480956e+00 3.1427162893e+00 
19700 6.8618735848e+00 -7.6673526410e-03 1.8146172298e+00 -3.1430092384e+00 1.8146172298e+00 3.1430092384e+00 
19800 6.8620595275e+00 -9.1683199286e-03 1.8148285003e+00 -3.1433751696e+00 1.8148285003e+00 3.1433751696e+00 
19900 6.8622357707e+00 -1.0638197835e-02 1.8150811008e+00 -3.1438126865e+00 1.8150811008e+00 3.1438126865e+00 
20000 6.8624015407e+00 -1.2074783404e-02 1.8153741589e+00 -3.1443202780e+00 1.8153741589e+00 3.1443202780e+00 
20100 6.8625561600e+00 -1.3475983658e-02 1.8157067392e+00 -3.1448963239e+00 1.8157067392e+00 3.1448963239e+00 
20200 6.8626990485e+00 -1.4839815327e-02 1.8160778465e+00 -3.1455391007e+00 1.8160778465e+00 3.1455391007e+00 
20300 6.8628297245e+00 -1.6164404416e-02 1.8164864296e+00 -3.1462467873e+00 1.8164864296e+00 3.1462467873e+00 
20400 6.8629478050e+00 -1.7447985630e-02 1.8169313837e+00 -3.1470174705e+00 1.8169313837e+00 3.1470174705e+00 
20500 6.8630530043e+00 -1.8688901673e-02 1.8174115547e+00 -3.1478491510e+00 1.8174115547e+00 3.1478491510e+00 
20600 6.8631451333e+00 -1.9885602430e-02 1.8179257416e+00 -3.1487397488e+00 1.8179257416e+00 3.1487397488e+00 
20700 6.8632240974e+00 -2.1036644062e-02 1.8184727001e+00 -3.1496871087e+00 1.8184727001e+00 3.1496871087e+00 
20800 6.8632898935e+00 -2.2140688019e-02 1.8190511459e+00 -3.1506890063e+00 1.8190511459e+00 3.1506890063e+00 
20900 6.8633426074e+00 -2.3196499976e-02 1.8196597578e+00 -3.1517431529e+00 1.8196597578e+00 3.1517431529e+00 
21000 6.8633824098e+00 -2.4202948713e-02 1.8202971806e+00 -3.1528472017e+00 1.8202971806e+00 3.1528472017e+00 
21100 6.8634095523e+00 -2.5159004943e-02 1.8209620287e+00 -3.1539987523e+00 1.8209620287e+00 3.1539987523e+00 
21200 6.8634243631e+00 -2.6063740094e-02 1.8216528886e+00 -3.1551953569e+00 1.8216528886e+00 3.1551953569e+00 
21300 6.8634272419e+00 -2.6916325051e-02 1.8223683226e+00 -3.1564345248e+00 1.8223683226e+00 3.1564345248e+00 
21400 6.8634186548e+00 -2.7716028858e-02 1.8231068709e+00 -3.1577137280e+00 1.8231068709e+00 3.1577137280e+00 
21500 6.8633991287e+00 -2.8462217400e-02 1.8238670555e+00 -3.1590304063e+00 1.8238670555e+00 3.1590304063e+00 
21600 6.8633692462e+00 -2.9154352044e-02 1.8246473822e+00 -3.1603819719e+00 1.8246473822e+00 3.1603819719e+00 
21700 6.8633296389e+00 -2.9791988262e-02 1.8254463442e+00 -3.1617658147e+00 1.8254463442e+00 3.1617658147e+00 
21800 6.8632809825e+00 -3.0374774222e-02 1.8262624243e+00 -3.1631793068e+00 1.8262624243e+00 3.1631793068e+00 
21900 6.8632239898e+00 -3.0902449358e-02 1.8270940977e+00 -3.1646198075e+00 1.8270940977e+00 3.1646198075e+00 
22000 6.8631594054e+00 -3.1374842915e-02 1.8279398350e+00 -3.1660846674e+00 1.8279398350e+00 3.1660846674e+00 
22100 6.8630879992e+00 -3.1791872466e-02 1.8287981044e+00 -3.1675712336e+00 1.8287981044e+00 3.1675712336e+00 
22200 6.8630105607e+00 -3.2153542407e-02 1.8296673745e+00 -3.1690768536e+00 1.8296673745e+00 3.1690768536e+00 
22300 6.8629278930e+00 -3.2459942426e-02 1.8305461166e+00 -3.1705988795e+00 1.8305461166e+00 3.1705988795e+00 
22400 6.8628408069e+00 -3.2711245939e-02 1.8314328072e+00 -3.1721346727e+00 1.8314328072e+00 3.1721346727e+00 
22500 6.8627501156e+00 -3.2907708508e-02 1.8323259304e+00 -3.1736816075e+00 1.8323259304e+00 3.1736816075e+00 
22600 6.8626566289e+00 -3.3049666221e-02 1.8332239801e+00 -3.1752370752e+00 1.8332239801e+00 3.1752370752e+00 
22700 6.8625611483e+00 -3.3137534046e-02 1.8341254623e+00 -3.1767984881e+00 1.8341254623e+00 3.1767984881e+00 
22800 6.8624644616e+00 -3.3171804152e-02 1.8350288970e+00 -3.1783632829e+00 1.8350288970e+00 3.1783632829e+00 
22900 6.8623673388e+00 -3.3153044198e-02 1.8359328208e+00 -3.1799289249e+00 1.8359328208e+00 3.1799289249e+00 
23000 6.8622705271e+00 -3.3081895589e-02 1.8368357885e+00 -3.1814929108e+00 1.8368357885e+00 3.1814929108e+00 
23100 6.8621747470e+00 -3.2959071699e-02 1.8377363752e+00 -3.1830527727e+00 1.8377363752e+00 3.1830527727e+00 
23200 6.8620806884e+00 -3.2785356050e-02 1.8386331782e+00 -3.1846060811e+00 1.8386331782e+00 3.1846060811e+00 
23300 6.8619890071e+00 -3.2561600469e-02 1.8395248189e+00 -3.1861504482e+00 1.8395248189e+00 3.1861504482e+00 
23400 6.8619003217e+00 -3.2288723191e-02 1.8404099445e+00 -3.1876835307e+00 1.8404099445e+00 3.1876835307e+00 
23500 6.8618152108e+00 -3.1967706942e-02 1.8412872297e+00 -3.1892030332e+00 1.8412872297e+00 3.1892030332e+00 
23600 6.8617342103e+00 -3.1599596967e-02 1.8421553783e+00 -3.1907067106e+00 1.8421553783e+00 3.1907067106e+00 
23700 6.8616578115e+00 -3.1185499030e-02 1.8430131248e+00 -3.1921923712e+00 1.8430131248e+00 3.1921923712e+00 
23800 6.8615864592e+00 -3.0726577371e-02 1.8438592361e+00 -3.1936578789e+00 1.8438592361e+00 3.1936578789e+00 
23900 6.8615205503e+00 -3.0224052622e-02 1.8446925126e+00 -3.1951011561e+00 1.8446925126e+00 3.1951011561e+00 
24000 6.8614604326e+00 -2.9679199684e-02 1.8455117897e+00 -3.1965201858e+00 1.8455117897e+00 3.1965201858e+00 
24100 6.8614064043e+00 -2.9093345564e-02 1.8463159394e+00 -3.1979130138e+00 1.8463159394e+00 3.1979130138e+00 
24200 6.8613587136e+00 -2.8467867171e-02 1.8471038710e+00 -3.1992777514e+00 1.8471038710e+00 3.1992777514e+00 
24300 6.8613175582e+00 -2.7804189073e-02 1.8478745327e+00 -3.2006125767e+00 1.8478745327e+00 3.2006125767e+00 
24400 6.8612830858e+00 -2.7103781208e-02 1.8486269127e+00 -3.2019157370e+00 1.8486269127e+00 3.2019157370e+00 
24500 6.8612553950e+00 -2.6368156559e-02 1.8493600398e+00 -3.2031855505e+00 1.8493600398e+00 3.2031855505e+00 
24600 6.8612345354e+00 -2.5598868789e-02 1.8500729851e+00 -3.2044204079e+00 1.8500729851e+00 3.2044204079e+00 
24700 6.8612205094e+00 -2.4797509832e-02 1.8507648622e+00 -3.2056187743e+00 1.8507648622e+00 3.2056187743e+00 
24800 6.8612132729e+00 -2.3965707441e-02 1.8514348286e+00 -3.2067791901e+00 1.8514348286e+00 3.2067791901e+00 
24900 6.8612127376e+00 -2.3105122708e-02 1.8520820862e+00 -3.2079002731e+00 1.8520820862e+00 3.2079002731e+00 
25000 6.8612187723e+00 -2.2217447527e-02 1.8527058820e+00 -3.2089807190e+00 1.8527058820e+00 3.2089807190e+00 
25100 6.8612312054e+00 -2.1304402033e-02 1.8533055088e+00 -3.2100193033e+00 1.8533055088e+00 3.2100193033e+00 
25200 6.8612498267e+00 -2.0367731992e-02 1.8538803062e+00 -3.2110148815e+00 1.8538803062e+00 3.2110148815e+00 
25300 6.8612743904e+00 -1.9409206159e-02 1.8544296604e+00 -3.2119663909e+00 1.8544296604e+00 3.2119663909e+00 
25400 6.8613046170e+00 -1.8430613597e-02 1.8549530051e+00 -3.2128728505e+00 1.8549530051e+00 3.2128728505e+00 
25500 6.8613401966e+00 -1.7433760960e-02 1.8554498219e+00 -3.2137333624e+00 1.8554498219e+00 3.2137333624e+00 
25600 6.8613807915e+00 -1.6420469739e-02 1.8559196405e+00 -3.2145471121e+00 1.8559196405e+00 3.2145471121e+00 
25700 6.8614260392e+00 -1.5392573483e-02 1.8563620390e+00 -3.2153133688e+00 1.8563620390e+00 3.2153133688e+00 
25800 6.8614755553e+00 -1.4351914977e-02 1.8567766442e+00 -3.2160314860e+00 1.8567766442e+00 3.2160314860e+00 
25900 6.8615289369e+00 -1.3300343404e-02 1.8571631315e+00 -3.2167009017e+00 1.8571631315e+00 3.2167009017e+00 
26000 6.8615857653e+00 -1.2239711465e-02 1.8575212253e+00 -3.2173211383e+00 1.8575212253e+00 3.2173211383e+00 
26100 6.8616456094e+00 -1.1171872492e-02 1.8578506986e+00 -3.2178918028e+00 1.8578506986e+00 3.2178918028e+00 
26200 6.8617080287e+00 -1.0098677524e-02 1.8581513733e+00 -3.2184125867e+00 1.8581513733e+00 3.2184125867e+00 
26300 6.8617725766e+00 -9.0219723740e-03 1.8584231198e+00 -3.2188832654e+00 1.8584231198e+00 3.2188832654e+00 
26400 6.8618388033e+00 -7.9435946796e-03 1.8586658570e+00 -3.2193036986e+00 1.8586658570e+00 3.2193036986e+00 
26500 6.8619062589e+00 -6.8653709428e-03 1.8588795519e+00 -3.2196738290e+00 1.8588795519e+00 3.2196738290e+00 
26600 6.8619744963e+00 -5.7891135642e-03 1.8590642191e+00 -3.2199936821e+00 1.8590642191e+00 3.2199936821e+00 
26700 6.8620430744e+00 -4.7166178754e-03 1.8592199210e+00 -3.2202633656e+00 1.8592199210e+00 3.2202633656e+00 
26800 6.8621115600e+00 -3.6496591763e-03 1.8593467664e+00 -3.2204830683e+00 1.8593467664e+00 3.2204830683e+00 
26900 6.8621795316e+00 -2.5899897813e-03 1.8594449109e+00 -3.2206530595e+00 1.8594449109e+00 3.2206530595e+00 
27000 6.8622465810e+00 -1.5393360807e-03 1.8595145555e+00 -3.2207736875e+00 1.8595145555e+00 3.2207736875e+00 
27100 6.8623123160e+00 -4.9939562420e-04 1.8595559464e+00 -3.2208453787e+00 1.8595559464e+00 3.2208453787e+00 
27200 6.8623763627e+00 5.2816576764e-04 1.8595693743e+00 -3.2208686364e+00 1.8595693743e+00 3.2208686364e+00 
27300 6.8624383673e+00 1.5417168568e-03 1.8595551730e+00 -3.2208440391e+00 1.8595551730e+00 3.2208440391e+00 
27400 6.8624979982e+00 2.5396637990e-03 1.8595137192e+00 -3.2207722391e+00 1.8595137192e+00 3.2207722391e+00 
27500 6.8625549475e+00 3.5204529048e-03 1.8594454313e+00 -3.2206539609e+00 1.8594454313e+00 3.2206539609e+00 
27600 6.8626089326e+00 4.4825733430e-03 1.8593507680e+00 -3.2204899993e+00 1.8593507680e+00 3.2204899993e+00 
27700 6.8626596975e+00 5.4245597796e-03 1.8592302280e+00 -3.2202812178e+00 1.8592302280e+00 3.2202812178e+00 
27800 6.8627070136e+00 6.3449949414e-03 1.8590843480e+00 -3.2200285463e+00 1.8590843480e+00 3.2200285463e+00 
27900 6.8627506810e+00 7.2425120998e-03 1.8589137022e+00 -3.2197329791e+00 1.8589137022e+00 3.2197329791e+00 
28000 6.8627905288e+00 8.1157974632e-03 1.8587189007e+00 -3.2193955729e+00 1.8587189007e+00 3.2193955729e+00 
28100 6.8628264160e+00 8.9635924721e-03 1.8585005880e+00 -3.2190174443e+00 1.8585005880e+00 3.2190174443e+00 
28200 6.8628582312e+00 9.7846959873e-03 1.8582594420e+00 -3.2185997672e+00 1.8582594420e+00 3.2185997672e+00 
28300 6.8628858930e+00 1.0577966364e-02 1.8579961724e+00 -3.2181437708e+00 1.8579961724e+00 3.2181437708e+00 
28400 6.8629093500e+00 1.1342323402e-02 1.8577115190e+00 -3.2176507368e+00 1.8577115190e+00 3.2176507368e+00 
28500 6.8629285798e+00 1.2076750171e-02 1.8574062506e+00 -3.2171219964e+00 1.8574062506e+00 3.2171219964e+00 
28600 6.8629435894e+00 1.2780294691e-02 1.8570811630e+00 -3.2165589280e+00 1.8570811630e+00 3.2165589280e+00 
28700 6.8629544136e+00 1.3452071474e-02 1.8567370773e+00 -3.2159629542e+00 1.8567370773e+00 3.2159629542e+00 
28800 6.8629611145e+00 1.4091262914e-02 1.8563748388e+00 -3.2153355386e+00 1.8563748388e+00 3.2153355386e+00 
28900 6.8629637806e+00 1.4697120519e-02 1.8559953146e+00 -3.2146781835e+00 1.8559953146e+00 3.2146781835e+00 
29000 6.8629625253e+00 1.5268965979e-02 1.8555993923e+00 -3.2139924260e+00 1.8555993923e+00 3.2139924260e+00 
29100 6.8629574855e+00 1.5806192073e-02 1.8551879780e+00 -3.2132798356e+00 1.8551879780e+00 3.2132798356e+00 
29200 6.8629488203e+00 1.6308263394e-02 1.8547619946e+00 -3.2125420106e+00 1.8547619946e+00 3.2125420106e+00 
29300 6.8629367094e+00 1.6774716910e-02 1.8543223797e+00 -3.2117805753e+00 1.8543223797e+00 3.2117805753e+00 
29400 6.8629213511e+00 1.7205162340e-02 1.8538700842e+00 -3.2109971765e+00 1.8538700842e+00 3.2109971765e+00 
29500 6.8629029608e+00 1.7599282350e-02 1.8534060699e+00 -3.2101934801e+00 1.8534060699e+00 3.2101934801e+00 
29600 6.8628817690e+00 1.7956832572e-02 1.8529313080e+00 -3.2093711684e+00 1.8529313080e+00 3.2093711684e+00 
29700 6.8628580191e+00 1.8277641434e-02 1.8524467771e+00 -3.2085319363e+00 1.8524467771e+00 3.2085319363e+00 
29800 6.8628319660e+00 1.8561609817e-02 1.8519534612e+00 -3.2076774880e+00 1.8519534612e+00 3.2076774880e+00 
29900 6.8628038733e+00 1.8808710526e-02 1.8514523478e+00 -3.2068095342e+00 1.8514523478e+00 3.2068095342e+00 
30000 6.8627740118e+00 1.9018987582e-02 1.8509444263e+00 -3.2059297883e+00 1.8509444263e+00 3.2059297883e+00 
30100 6.8627426573e+00 1.9192555343e-02 1.8504306857e+00 -3.2050399635e+00 1.8504306857e+00 3.2050399635e+00 
30200 6.8627100884e+00 1.9329597446e-02 1.8499121129e+00 -3.2041417691e+00 1.8499121129e+00 3.2041417691e+00 
30300 6.8626765848e+00 1.9430365595e-02 1.8493896911e+00 -3.2032369080e+00 1.8493896911e+00 3.2032369080e+00 
30400 6.8626424251e+00 1.9495178170e-02 1.8488643977e+00 -3.2023270731e+00 1.8488643977e+00 3.2023270731e+00 
30500 6.8626078847e+00 1.9524418691e-02 1.8483372024e+00 -3.2014139441e+00 1.8483372024e+00 3.2014139441e+00 
30600 6.8625732345e+00 1.9518534133e-02 1.8478090659e+00 -3.2004991848e+00 1.8478090659e+00 3.2004991848e+00 
30700 6.8625387384e+00 1.9478033092e-02 1.8472809376e+00 -3.1995844398e+00 1.8472809376e+00 3.1995844398e+00 
30800 6.8625046525e+00 1.9403483823e-02 1.8467537545e+00 -3.1986713319e+00 1.8467537545e+00 3.1986713319e+00 
30900 6.8624712225e+00 1.9295512149e-02 1.8462284391e+00 -3.1977614589e+00 1.8462284391e+00 3.1977614589e+00 
31000 6.8624386830e+00 1.9154799256e-02 1.8457058981e+00 -3.1968563913e+00 1.8457058981e+00 3.1968563913e+00 
31100 6.8624072559e+00 1.8982079378e-02 1.8451870207e+00 -3.1959576693e+00 1.8451870207e+00 3.1959576693e+00 
31200 6.8623771490e+00 1.8778137386e-02 1.8446726772e+00 -3.1950668003e+00 1.8446726772e+00 3.1950668003e+00 
31300 6.8623485553e+00 1.8543806288e-02 1.8441637177e+00 -3.1941852566e+00 1.8441637177e+00 3.1941852566e+00 
31400 6.8623216514e+00 1.8279964652e-02 1.8436609705e+00 -3.1933144729e+00 1.8436609705e+00 3.1933144729e+00 
31500 6.8622965973e+00 1.7987533962e-02 1.8431652410e+00 -3.1924558441e+00 1.8431652410e+00 3.1924558441e+00 
31600 6.8622735354e+00 1.7667475916e-02 1.8426773102e+00 -3.1916107232e+00 1.8426773102e+00 3.1916107232e+00 
31700 6.8622525899e+00 1.7320789679e-02 1.8421979341e+00 -3.1907804194e+00 1.8421979341e+00 3.1907804194e+00 
31800 6.8622338669e+00 1.6948509096e-02 1.8417278420e+00 -3.1899661961e+00 1.8417278420e+00 3.1899661961e+00 
31900 6.8622174532e+00 1.6551699883e-02 1.8412677359e+00 -3.1891692690e+00 1.8412677359e+00 3.1891692690e+00 
32000 6.8622034171e+00 1.6131456797e-02 1.8408182895e+00 -3.1883908049e+00 1.8408182895e+00 3.1883908049e+00 
32100 6.8621918081e+00 1.5688900804e-02 1.8403801469e+00 -3.1876319197e+00 1.8403801469e+00 3.1876319197e+00 
32200 6.8621826570e+00 1.5225176247e-02 1.8399539226e+00 -3.1868936775e+00 1.8399539226e+00 3.1868936775e+00 
32300 6.8621759760e+00 1.4741448024e-02 1.8395402001e+00 -3.1861770892e+00 1.8395402001e+00 3.1861770892e+00 
32400 6.8621717596e+00 1.4238898788e-02 1.8391395317e+00 -3.1854831112e+00 1.8391395317e+00 3.1854831112e+00 
32500 6.8621699849e+00 1.3718726175e-02 1.8387524377e+00 -3.1848126446e+00 1.8387524377e+00 3.1848126446e+00 
32600 6.8621706120e+00 1.3182140072e-02 1.8383794059e+00 -3.1841665346e+00 1.8383794059e+00 3.1841665346e+00 
32700 6.8621735852e+00 1.2630359916e-02 1.8380208914e+00 -3.1835455694e+00 1.8380208914e+00 3.1835455694e+00 
32800 6.8621788336e+00 1.2064612060e-02 1.8376773163e+00 -3.1829504797e+00 1.8376773163e+00 3.1829504797e+00 
32900 6.8621862719e+00 1.1486127179e-02 1.8373490690e+00 -3.1823819387e+00 1.8373490690e+00 3.1823819387e+00 
33000 6.8621958016e+00 1.0896137751e-02 1.8370365045e+00 -3.1818405611e+00 1.8370365045e+00 3.1818405611e+00 
33100 6.8622073122e+00 1.0295875592e-02 1.8367399441e+00 -3.1813269035e+00 1.8367399441e+00 3.1813269035e+00 
33200 6.8622206819e+00 9.6865694748e-03 1.8364596754e+00 -3.1808414639e+00 1.8364596754e+00 3.1808414639e+00 
33300 6.8622357792e+00 9.0694428124e-03 1.8361959523e+00 -3.1803846821e+00 1.8361959523e+00 3.1803846821e+00 
33400 6.8622524638e+00 8.4457114279e-03 1.8359489950e+00 -3.1799569395e+00 1.8359489950e+00 3.1799569395e+00 
33500 6.8622705883e+00 7.8165814014e-03 1.8357189904e+00 -3.1795585598e+00 1.8357189904e+00 3.1795585598e+00 
33600 6.8622899987e+00 7.1832470026e-03 1.8355060921e+00 -3.1791898091e+00 1.8355060921e+00 3.1791898091e+00 
33700 6.8623105365e+00 6.5468887095e-03 1.8353104207e+00 -3.1788508963e+00 1.8353104207e+00 3.1788508963e+00 
33800 6.8623320393e+00 5.9086713143e-03 1.8351320644e+00 -3.1785419742e+00 1.8351320644e+00 3.1785419742e+00 
33900 6.8623543425e+00 5.2697421180e-03 1.8349710792e+00 -3.1782631395e+00 1.8349710792e+00 3.1782631395e+00 
34000 6.8623772802e+00 4.6312292139e-03 1.8348274891e+00 -3.1780144342e+00 1.8348274891e+00 3.1780144342e+00 
34100 6.8624006866e+00 3.9942398612e-03 1.8347012871e+00 -3.1777958460e+00 1.8347012871e+00 3.1777958460e+00 
34200 6.8624243973e+00 3.3598589470e-03 1.8345924356e+00 -3.1776073096e+00 1.8345924356e+00 3.1776073096e+00 
34300 6.8624482501e+00 2.7291475384e-03 1.8345008667e+00 -3.1774487077e+00 1.8345008667e+00 3.1774487077e+00 
34400 6.8624720861e+00 2.1031415215e-03 1.8344264833e+00 -3.1773198718e+00 1.8344264833e+00 3.1773198718e+00 
34500 6.8624957510e+00 1.4828503288e-03 1.8343691594e+00 -3.1772205839e+00 1.8343691594e+00 3.1772205839e+00 
34600 6.8625190959e+00 8.6925575150e-04 1.8343287410e+00 -3.1771505772e+00 1.8343287410e+00 3.1771505772e+00 
34700 6.8625419781e+00 2.6331083756e-04 1.8343050469e+00 -3.1771095379e+00 1.8343050469e+00 3.1771095379e+00 
34800 6.8625642620e+00 -3.3406112847e-04 1.8342978695e+00 -3.1770971063e+00 1.8342978695e+00 3.1770971063e+00 
34900 6.8625858199e+00 -9.2196756367e-04 1.8343069755e+00 -3.1771128783e+00 1.8343069755e+00 3.1771128783e+00 
35000 6.8626065325e+00 -1.4995474459e-03 1.8343321068e+00 -3.1771564069e+00 1.8343321068e+00 3.1771564069e+00 
35100 6.8626262897e+00 -2.0659720957e-03 1.8343729814e+00 -3.1772272039e+00 1.8343729814e+00 3.1772272039e+00 
35200 6.8626449909e+00 -2.6204458826e-03 1.8344292945e+00 -3.1773247409e+00 1.8344292945e+00 3.1773247409e+00 
35300 6.8626625456e+00 -3.1622068588e-03 1.8345007189e+00 -3.1774484517e+00 1.8345007189e+00 3.1774484517e+00 
35400 6.8626788734e+00 -3.6905273214e-03 1.8345869067e+00 -3.1775977334e+00 1.8345869067e+00 3.1775977334e+00 
35500 6.8626939048e+00 -4.2047143060e-03 1.8346874896e+00 -3.1777719481e+00 1.8346874896e+00 3.1777719481e+00 
35600 6.8627075808e+00 -4.7041100138e-03 1.8348020802e+00 -3.1779704248e+00 1.8348020802e+00 3.1779704248e+00 
35700 6.8627198535e+00 -5.1880921739e-03 1.8349302729e+00 -3.1781924610e+00 1.8349302729e+00 3.1781924610e+00 
35800 6.8627306858e+00 -5.6560743433e-03 1.8350716450e+00 -3.1784373247e+00 1.8350716450e+00 3.1784373247e+00 
35900 6.8627400512e+00 -6.1075061472e-03 1.8352257576e+00 -3.1787042556e+00 1.8352257576e+00 3.1787042556e+00 
36000 6.8627479342e+00 -6.5418734604e-03 1.8353921567e+00 -3.1789924673e+00 1.8353921567e+00 3.1789924673e+00 
36100 6.8627543296e+00 -6.9586985328e-03 1.8355703742e+00 -3.1793011490e+00 1.8355703742e+00 3.1793011490e+00 
36200 6.8627592424e+00 -7.3575400612e-03 1.8357599289e+00 -3.1796294673e+00 1.8357599289e+00 3.1796294673e+00 
36300 6.8627626875e+00 -7.7379932078e-03 1.8359603274e+00 -3.1799765678e+00 1.8359603274e+00 3.1799765678e+00 
36400 6.8627646892e+00 -8.0996895686e-03 1.8361710657e+00 -3.1803415772e+00 1.8361710657e+00 3.1803415772e+00 
36500 6.8627652810e+00 -8.4422970939e-03 1.8363916293e+00 -3.1807236046e+00 1.8363916293e+00 3.1807236046e+00 
36600 6.8627645048e+00 -8.7655199598e-03 1.8366214952e+00 -3.1811217439e+00 1.8366214952e+00 3.1811217439e+00 
36700 6.8627624107e+00 -9.0690983965e-03 1.8368601320e+00 -3.1815350750e+00 1.8368601320e+00 3.1815350750e+00 
36800 6.8627590558e+00 -9.3528084703e-03 1.8371070016e+00 -3.1819626658e+00 1.8371070016e+00 3.1819626658e+00 
36900 6.8627545046e+00 -9.6164618252e-03 1.8373615602e+00 -3.1824035741e+00 1.8373615602e+00 3.1824035741e+00 
37000 6.8627488274e+00 -9.8599053819e-03 1.8376232585e+00 -3.1828568489e+00 1.8376232585e+00 3.1828568489e+00 
37100 6.8627421001e+00 -1.0083020998e-02 1.8378915438e+00 -3.1833215326e+00 1.8378915438e+00 3.1833215326e+00 
37200 6.8627344035e+00 -1.0285725089e-02 1.8381658601e+00 -3.1837966624e+00 1.8381658601e+00 3.1837966624e+00 
37300 6.8627258227e+00 -1.0467968212e-02 1.8384456495e+00 -3.1842812718e+00 1.8384456495e+00 3.1842812718e+00 
37400 6.8627164460e+00 -1.0629734615e-02 1.8387303530e+00 -3.1847743928e+00 1.8387303530e+00 3.1847743928e+00 
37500 6.8627063647e+00 -1.0771041749e-02 1.8390194115e+00 -3.1852750568e+00 1.8390194115e+00 3.1852750568e+00 
37600 6.8626956721e+00 -1.0891939743e-02 1.8393122667e+00 -3.1857822969e+00 1.8393122667e+00 3.1857822969e+00 
37700 6.8626844628e+00 -1.0992510859e-02 1.8396083619e+00 -3.1862951488e+00 1.8396083619e+00 3.1862951488e+00 
37800 6.8626728323e+00 -1.1072868898e-02 1.8399071431e+00 -3.1868126531e+00 1.8399071431e+00 3.1868126531e+00 
37900 6.8626608760e+00 -1.1133158583e-02 1.8402080597e+00 -3.1873338559e+00 1.8402080597e+00 3.1873338559e+00 
38000 6.8626486887e+00 -1.1173554918e-02 1.8405105652e+00 -3.1878578109e+00 1.8405105652e+00 3.1878578109e+00 
38100 6.8626363641e+00 -1.1194262507e-02 1.8408141186e+00 -3.1883835806e+00 1.8408141186e+00 3.1883835806e+00 
38200 6.8626239941e+00 -1.1195514849e-02 1.8411181843e+00 -3.1889102380e+00 1.8411181843e+00 3.1889102380e+00 
38300 6.8626116681e+00 -1.1177573606e-02 1.8414222339e+00 -3.1894368672e+00 1.8414222339e+00 3.1894368672e+00 
38400 6.8625994725e+00 -1.1140727849e-02 1.8417257460e+00 -3.1899625657e+00 1.8417257460e+00 3.1899625657e+00 
38500 6.8625874907e+00 -1.1085293265e-02 1.8420282078e+00 -3.1904864449e+00 1.8420282078e+00 3.1904864449e+00 
38600 6.8625758017e+00 -1.1011611353e-02 1.8423291151e+00 -3.1910076316e+00 1.8423291151e+00 3.1910076316e+00 
38700 6.8625644808e+00 -1.0920048592e-02 1.8426279735e+00 -3.1915252695e+00 1.8426279735e+00 3.1915252695e+00 
38800 6.8625535981e+00 -1.0810995577e-02 1.8429242986e+00 -3.1920385197e+00 1.8429242986e+00 3.1920385197e+00 
38900 6.8625432190e+00 -1.0684866147e-02 1.8432176173e+00 -3.1925465626e+00 1.8432176173e+00 3.1925465626e+00 
39000 6.8625334035e+00 -1.0542096479e-02 1.8435074677e+00 -3.1930485982e+00 1.8435074677e+00 3.1930485982e+00 
39100 6.8625242062e+00 -1.0383144170e-02 1.8437934000e+00 -3.1935438475e+00 1.8437934000e+00 3.1935438475e+00 
39200 6.8625156756e+00 -1.0208487293e-02 1.8440749774e+00 -3.1940315538e+00 1.8440749774e+00 3.1940315538e+00 
39300 6.8625078548e+00 -1.0018623439e-02 1.8443517758e+00 -3.1945109828e+00 1.8443517758e+00 3.1945109828e+00 
39400 6.8625007803e+00 -9.8140687373e-03 1.8446233853e+00 -3.1949814242e+00 1.8446233853e+00 3.1949814242e+00 
39500 6.8624944829e+00 -9.5953568631e-03 1.8448894100e+00 -3.1954421924e+00 1.8448894100e+00 3.1954421924e+00 
39600 6.8624889870e+00 -9.3630380245e-03 1.8451494684e+00 -3.1958926269e+00 1.8451494684e+00 3.1958926269e+00 
39700 6.8624843109e+00 -9.1176779377e-03 1.8454031946e+00 -3.1963320934e+00 1.8454031946e+00 3.1963320934e+00 
39800 6.8624804671e+00 -8.8598567879e-03 1.8456502376e+00 -3.1967599846e+00 1.8456502376e+00 3.1967599846e+00 
39900 6.8624774616e+00 -8.5901681771e-03 1.8458902628e+00 -3.1971757203e+00 1.8458902628e+00 3.1971757203e+00 
40000 6.8624752949e+00 -8.3092180606e-03 1.8461229513e+00 -3.1975787486e+00 1.8461229513e+00 3.1975787486e+00 
40100 6.8624739616e+00 -8.0176236728e-03 1.8463480009e+00 -3.1979685460e+00 1.8463480009e+00 3.1979685460e+00 
40200 6.8624734509e+00 -7.7160124444e-03 1.8465651263e+00 -3.1983446182e+00 1.8465651263e+00 3.1983446182e+00 
40300 6.8624737465e+00 -7.4050209113e-03 1.8467740590e+00 -3.1987065004e+00 1.8467740590e+00 3.1987065004e+00 
40400 6.8624748273e+00 -7.0852936170e-03 1.8469745480e+00 -3.1990537574e+00 1.8469745480e+00 3.1990537574e+00 
40500 6.8624766672e+00 -6.7574820098e-03 1.8471663594e+00 -3.1993859845e+00 1.8471663594e+00 3.1993859845e+00 
40600 6.8624792358e+00 -6.4222433357e-03 1.8473492772e+00 -3.1997028075e+00 1.8473492772e+00 3.1997028075e+00 
40700 6.8624824985e+00 -6.0802395297e-03 1.8475231031e+00 -3.2000038828e+00 1.8475231031e+00 3.2000038828e+00 
40800 6.8624864170e+00 -5.7321361051e-03 1.8476876567e+00 -3.2002888979e+00 1.8476876567e+00 3.2002888979e+00 
40900 6.8624909494e+00 -5.3786010441e-03 1.8478427753e+00 -3.2005575713e+00 1.8478427753e+00 3.2005575713e+00 
41000 6.8624960508e+00 -5.0203036896e-03 1.8479883146e+00 -3.2008096526e+00 1.8479883146e+00 3.2008096526e+00 
41100 6.8625016738e+00 -4.6579136410e-03 1.8481241478e+00 -3.2010449227e+00 1.8481241478e+00 3.2010449227e+00 
41200 6.8625077685e+00 -4.2920996555e-03 1.8482501666e+00 -3.2012631936e+00 1.8482501666e+00 3.2012631936e+00 
41300 6.8625142832e+00 -3.9235285556e-03 1.8483662803e+00 -3.2014643085e+00 1.8483662803e+00 3.2014643085e+00 
41400 6.8625211647e+00 -3.5528641452e-03 1.8484724164e+00 -3.2016481415e+00 1.8484724164e+00 3.2016481415e+00 
41500 6.8625283588e+00 -3.1807661360e-03 1.8485685199e+00 -3.2018145978e+00 1.8485685199e+00 3.2018145978e+00 
41600 6.8625358105e+00 -2.8078890860e-03 1.8486545538e+00 -3.2019636128e+00 1.8486545538e+00 3.2019636128e+00 
41700 6.8625434645e+00 -2.4348813506e-03 1.8487304984e+00 -3.2020951528e+00 1.8487304984e+00 3.2020951528e+00 
41800 6.8625512656e+00 -2.0623840505e-03 1.8487963516e+00 -3.2022092139e+00 1.8487963516e+00 3.2022092139e+00 
41900 6.8625591591e+00 -1.6910300553e-03 1.8488521283e+00 -3.2023058219e+00 1.8488521283e+00 3.2023058219e+00 
42000 6.8625670911e+00 -1.3214429867e-03 1.8488978604e+00 -3.2023850322e+00 1.8488978604e+00 3.2023850322e+00 
42100 6.8625750087e+00 -9.5423624226e-04 1.8489335965e+00 -3.2024469289e+00 1.8489335965e+00 3.2024469289e+00 
42200 6.8625828608e+00 -5.9001204128e-04 1.8489594016e+00 -3.2024916247e+00 1.8489594016e+00 3.2024916247e+00 
42300 6.8625905976e+00 -2.2936049480e-04 1.8489753568e+00 -3.2025192600e+00 1.8489753568e+00 3.2025192600e+00 
42400 6.8625981719e+00 1.2714129837e-04 1.8489815592e+00 -3.2025300028e+00 1.8489815592e+00 3.2025300028e+00 
42500 6.8626055384e+00 4.7893012828e-04 1.8489781211e+00 -3.2025240478e+00 1.8489781211e+00 3.2025240478e+00 
42600 6.8626126546e+00 8.2545752114e-04 1.8489651699e+00 -3.2025016156e+00 1.8489651699e+00 3.2025016156e+00 
42700 6.8626194809e+00 1.1661905559e-03 1.8489428478e+00 -3.2024629526e+00 1.8489428478e+00 3.2024629526e+00 
42800 6.8626259804e+00 1.5006126481e-03 1.8489113112e+00 -3.2024083296e+00 1.8489113112e+00 3.2024083296e+00 
42900 6.8626321197e+00 1.8282243002e-03 1.8488707303e+00 -3.2023380416e+00 1.8488707303e+00 3.2023380416e+00 
43000 6.8626378685e+00 2.1485438160e-03 1.8488212889e+00 -3.2022524065e+00 1.8488212889e+00 3.2022524065e+00 
43100 6.8626432000e+00 2.4611079783e-03 1.8487631834e+00 -3.2021517649e+00 1.8487631834e+00 3.2021517649e+00 
43200 6.8626480910e+00 2.7654726881e-03 1.8486966229e+00 -3.2020364787e+00 1.8486966229e+00 3.2020364787e+00 
43300 6.8626525217e+00 3.0612135646e-03 1.8486218282e+00 -3.2019069305e+00 1.8486218282e+00 3.2019069305e+00 
43400 6.8626564761e+00 3.3479265040e-03 1.8485390317e+00 -3.2017635226e+00 1.8485390317e+00 3.2017635226e+00 
43500 6.8626599419e+00 3.6252281968e-03 1.8484484764e+00 -3.2016066763e+00 1.8484484764e+00 3.2016066763e+00 
43600 6.8626629103e+00 3.8927566015e-03 1.8483504159e+00 -3.2014368305e+00 1.8483504159e+00 3.2014368305e+00 
43700 6.8626653760e+00 4.1501713756e-03 1.8482451133e+00 -3.2012544411e+00 1.8482451133e+00 3.2012544411e+00 
43800 6.8626673377e+00 4.3971542606e-03 1.8481328412e+00 -3.2010599801e+00 1.8481328412e+00 3.2010599801e+00 
43900 6.8626687970e+00 4.6334094225e-03 1.8480138804e+00 -3.2008539339e+00 1.8480138804e+00 3.2008539339e+00 
44000 6.8626697592e+00 4.8586637461e-03 1.8478885199e+00 -3.2006368032e+00 1.8478885199e+00 3.2006368032e+00 
44100 6.8626702328e+00 5.0726670826e-03 1.8477570562e+00 -3.2004091014e+00 1.8477570562e+00 3.2004091014e+00 
44200 6.8626702293e+00 5.2751924509e-03 1.8476197924e+00 -3.2001713535e+00 1.8476197924e+00 3.2001713535e+00 
44300 6.8626697633e+00 5.4660361912e-03 1.8474770378e+00 -3.1999240952e+00 1.8474770378e+00 3.1999240952e+00 
44400 6.8626688519e+00 5.6450180718e-03 1.8473291073e+00 -3.1996678721e+00 1.8473291073e+00 3.1996678721e+00 
44500 6.8626675150e+00 5.8119813489e-03 1.8471763208e+00 -3.1994032381e+00 1.8471763208e+00 3.1994032381e+00 
44600 6.8626657748e+00 5.9667927789e-03 1.8470190023e+00 -3.1991307545e+00 1.8470190023e+00 3.1991307545e+00 
44700 6.8626636555e+00 6.1093425844e-03 1.8468574797e+00 -3.1988509892e+00 1.8468574797e+00 3.1988509892e+00 
44800 6.8626611836e+00 6.2395443738e-03 1.8466920839e+00 -3.1985645152e+00 1.8466920839e+00 3.1985645152e+00 
44900 6.8626583868e+00 6.3573350148e-03 1.8465231480e+00 -3.1982719097e+00 1.8465231480e+00 3.1982719097e+00 
45000 6.8626552946e+00 6.4626744630e-03 1.8463510073e+00 -3.1979737533e+00 1.8463510073e+00 3.1979737533e+00 
45100 6.8626519376e+00 6.5555455465e-03 1.8461759980e+00 -3.1976706283e+00 1.8461759980e+00 3.1976706283e+00 
45200 6.8626483476e+00 6.6359537060e-03 1.8459984570e+00 -3.1973631181e+00 1.8459984570e+00 3.1973631181e+00 
45300 6.8626445566e+00 6.7039266936e-03 1.8458187210e+00 -3.1970518063e+00 1.8458187210e+00 3.1970518063e+00 
45400 6.8626405977e+00 6.7595142293e-03 1.8456371263e+00 -3.1967372751e+00 1.8456371263e+00 3.1967372751e+00 
45500 6.8626365039e+00 6.8027876184e-03 1.8454540079e+00 -3.1964201048e+00 1.8454540079e+00 3.1964201048e+00 
45600 6.8626323083e+00 6.8338393292e-03 1.8452696990e+00 -3.1961008723e+00 1.8452696990e+00 3.1961008723e+00 
45700 6.8626280436e+00 6.8527825337e-03 1.8450845302e+00 -3.1957801506e+00 1.8450845302e+00 3.1957801506e+00 
45800 6.8626237425e+00 6.8597506129e-03 1.8448988296e+00 -3.1954585077e+00 1.8448988296e+00 3.1954585077e+00 
45900 6.8626194367e+00 6.8548966277e-03 1.8447129214e+00 -3.1951365053e+00 1.8447129214e+00 3.1951365053e+00 
46000 6.8626151571e+00 6.8383927567e-03 1.8445271261e+00 -3.1948146983e+00 1.8445271261e+00 3.1948146983e+00 
46100 6.8626109336e+00 6.8104297042e-03 1.8443417594e+00 -3.1944936337e+00 1.8443417594e+00 3.1944936337e+00 
46200 6.8626067950e+00 6.7712160785e-03 1.8441571321e+00 -3.1941738499e+00 1.8441571321e+00 3.1941738499e+00 
46300 6.8626027685e+00 6.7209777437e-03 1.8439735495e+00 -3.1938558755e+00 1.8439735495e+00 3.1938558755e+00 
46400 6.8625988799e+00 6.6599571461e-03 1.8437913108e+00 -3.1935402288e+00 1.8437913108e+00 3.1935402288e+00 
46500 6.8625951533e+00 6.5884126175e-03 1.8436107088e+00 -3.1932274169e+00 1.8436107088e+00 3.1932274169e+00 
46600 6.8625916110e+00 6.5066176570e-03 1.8434320293e+00 -3.1929179351e+00 1.8434320293e+00 3.1929179351e+00 
46700 6.8625882733e+00 6.4148601941e-03 1.8432555511e+00 -3.1926122658e+00 1.8432555511e+00 3.1926122658e+00 
46800 6.8625851588e+00 6.3134418344e-03 1.8430815448e+00 -3.1923108781e+00 1.8430815448e+00 3.1923108781e+00 
46900 6.8625822838e+00 6.2026770901e-03 1.8429102734e+00 -3.1920142273e+00 1.8429102734e+00 3.1920142273e+00 
47000 6.8625796624e+00 6.0828925975e-03 1.8427419911e+00 -3.1917227539e+00 1.8427419911e+00 3.1917227539e+00 
47100 6.8625773068e+00 5.9544263232e-03 1.8425769435e+00 -3.1914368831e+00 1.8425769435e+00 3.1914368831e+00 
47200 6.8625752269e+00 5.8176267621e-03 1.8424153671e+00 -3.1911570245e+00 1.8424153671e+00 3.1911570245e+00 
47300 6.8625734303e+00 5.6728521266e-03 1.8422574890e+00 -3.1908835715e+00 1.8422574890e+00 3.1908835715e+00 
47400 6.8625719226e+00 5.5204695328e-03 1.8421035264e+00 -3.1906169006e+00 1.8421035264e+00 3.1906169006e+00 
47500 6.8625707071e+00 5.3608541814e-03 1.8419536870e+00 -3.1903573711e+00 1.8419536870e+00 3.1903573711e+00 
47600 6.8625697850e+00 5.1943885392e-03 1.8418081680e+00 -3.1901053248e+00 1.8418081680e+00 3.1901053248e+00 
47700 6.8625691555e+00 5.0214615194e-03 1.8416671565e+00 -3.1898610858e+00 1.8416671565e+00 3.1898610858e+00 
47800 6.8625688157e+00 4.8424676654e-03 1.8415308290e+00 -3.1896249595e+00 1.8415308290e+00 3.1896249595e+00 
47900 6.8625687608e+00 4.6578063379e-03 1.8413993511e+00 -3.1893972332e+00 1.8413993511e+00 3.1893972332e+00 
48000 6.8625689842e+00 4.4678809082e-03 1.8412728780e+00 -3.1891781752e+00 1.8412728780e+00 3.1891781752e+00 
48100 6.8625694774e+00 4.2730979583e-03 1.8411515534e+00 -3.1889680349e+00 1.8411515534e+00 3.1889680349e+00 
48200 6.8625702304e+00 4.0738664904e-03 1.8410355105e+00 -3.1887670427e+00 1.8410355105e+00 3.1887670427e+00 
48300 6.8625712317e+00 3.8705971457e-03 1.8409248709e+00 -3.1885754094e+00 1.8409248709e+00 3.1885754094e+00 
48400 6.8625724681e+00 3.6637014363e-03 1.8408197455e+00 -3.1883933268e+00 1.8408197455e+00 3.1883933268e+00 
48500 6.8625739256e+00 3.4535909886e-03 1.8407202336e+00 -3.1882209672e+00 1.8407202336e+00 3.1882209672e+00 
48600 6.8625755887e+00 3.2406768024e-03 1.8406264236e+00 -3.1880584834e+00 1.8406264236e+00 3.1880584834e+00 
48700 6.8625774409e+00 3.0253685242e-03 1.8405383924e+00 -3.1879060089e+00 1.8405383924e+00 3.1879060089e+00 
48800 6.8625794650e+00 2.8080737380e-03 1.8404562059e+00 -3.1877636578e+00 1.8404562059e+00 3.1877636578e+00 
48900 6.8625816431e+00 2.5891972727e-03 1.8403799190e+00 -3.1876315250e+00 1.8403799190e+00 3.1876315250e+00 
49000 6.8625839566e+00 2.3691405292e-03 1.8403095754e+00 -3.1875096862e+00 1.8403095754e+00 3.1875096862e+00 
49100 6.8625863864e+00 2.1483008257e-03 1.8402452078e+00 -3.1873981982e+00 1.8402452078e+00 3.1873981982e+00 
49200 6.8625889134e+00 1.9270707642e-03 1.8401868381e+00 -3.1872970990e+00 1.8401868381e+00 3.1872970990e+00 
49300 6.8625915182e+00 1.7058376168e-03 1.8401344776e+00 -3.1872064080e+00 1.8401344776e+00 3.1872064080e+00 
49400 6.8625941813e+00 1.4849827349e-03 1.8400881269e+00 -3.1871261262e+00 1.8400881269e+00 3.1871261262e+00 
49500 6.8625968834e+00 1.2648809792e-03 1.8400477762e+00 -3.1870562368e+00 1.8400477762e+00 3.1870562368e+00 
49600 6.8625996056e+00 1.0459001734e-03 1.8400134054e+00 -3.1869967048e+00 1.8400134054e+00 3.1869967048e+00 
49700 6.8626023292e+00 8.2840058044e-04 1.8399849845e+00 -3.1869474784e+00 1.8399849845e+00 3.1869474784e+00 
49800 6.8626050360e+00 6.1273440226e-04 1.8399624735e+00 -3.1869084881e+00 1.8399624735e+00 3.1869084881e+00 
49900 6.8626077086e+00 3.9924530381e-04 1.8399458228e+00 -3.1868796483e+00 1.8399458228e+00 3.1868796483e+00 
50000 6.8626103302e+00 1.8826796059e-04 1.8399349734e+00 -3.1868608566e+00 1.8399349734e+00 3.1868608566e+00 
50100 6.8626128848e+00 -1.9872369141e-05 1.8399298573e+00 -3.1868519952e+00 1.8399298573e+00 3.1868519952e+00 
50200 6.8626153575e+00 -2.2545321736e-04 1.8399298573e+00 -3.1868519952e+00 1.8399298573e+00 3.1868519952e+00 
50300 6.8626177340e+00 -4.2696932287e-04 1.8399359840e+00 -3.1868626069e+00 1.8399359840e+00 3.1868626069e+00 
50400 6.8626200012e+00 -6.2473391662e-04 1.8399475868e+00 -3.1868827036e+00 1.8399475868e+00 3.1868827036e+00 
50500 6.8626221472e+00 -8.1846313722e-04 1.8399645638e+00 -3.1869121086e+00 1.8399645638e+00 3.1869121086e+00 
50600 6.8626241612e+00 -1.0078843148e-03 1.8399868051e+00 -3.1869506317e+00 1.8399868051e+00 3.1869506317e+00 
50700 6.8626260336e+00 -1.1927362515e-03 1.8400141935e+00 -3.1869980698e+00 1.8400141935e+00 3.1869980698e+00 
50800 6.8626277560e+00 -1.3727694778e-03 1.8400466047e+00 -3.1870542076e+00 1.8400466047e+00 3.1870542076e+00 
50900 6.8626293214e+00 -1.5477464842e-03 1.8400839074e+00 -3.1871188178e+00 1.8400839074e+00 3.1871188178e+00 
51000 6.8626307239e+00 -1.7174419295e-03 1.8401259639e+00 -3.1871916619e+00 1.8401259639e+00 3.1871916619e+00 
51100 6.8626319589e+00 -1.8816428245e-03 1.8401726306e+00 -3.1872724908e+00 1.8401726306e+00 3.1872724908e+00 
51200 6.8626330232e+00 -2.0401486927e-03 1.8402237576e+00 -3.1873610455e+00 1.8402237576e+00 3.1873610455e+00 
51300 6.8626339148e+00 -2.1927717076e-03 1.8402791900e+00 -3.1874570571e+00 1.8402791900e+00 3.1874570571e+00 
51400 6.8626346328e+00 -2.3393368066e-03 1.8403387674e+00 -3.1875602483e+00 1.8403387674e+00 3.1875602483e+00 
51500 6.8626351777e+00 -2.4796817831e-03 1.8404023250e+00 -3.1876703333e+00 1.8404023250e+00 3.1876703333e+00 
51600 6.8626355510e+00 -2.6136573550e-03 1.8404696934e+00 -3.1877870187e+00 1.8404696934e+00 3.1877870187e+00 
51700 6.8626357554e+00 -2.7411272124e-03 1.8405406990e+00 -3.1879100041e+00 1.8405406990e+00 3.1879100041e+00 
51800 6.8626357946e+00 -2.8619680433e-03 1.8406151648e+00 -3.1880389826e+00 1.8406151648e+00 3.1880389826e+00 
51900 6.8626356736e+00 -2.9760695377e-03 1.8406929102e+00 -3.1881736416e+00 1.8406929102e+00 3.1881736416e+00 
52000 6.8626353980e+00 -3.0833343717e-03 1.8407737518e+00 -3.1883136634e+00 1.8407737518e+00 3.1883136634e+00 
52100 6.8626349744e+00 -3.1836781707e-03 1.8408575035e+00 -3.1884587255e+00 1.8408575035e+00 3.1884587255e+00 
52200 6.8626344102e+00 -3.2770294528e-03 1.8409439769e+00 -3.1886085018e+00 1.8409439769e+00 3.1886085018e+00 
52300 6.8626337138e+00 -3.3633295531e-03 1.8410329816e+00 -3.1887626626e+00 1.8410329816e+00 3.1887626626e+00 
52400 6.8626328939e+00 -3.4425325287e-03 1.8411243259e+00 -3.1889208755e+00 1.8411243259e+00 3.1889208755e+00 
52500 6.8626319600e+00 -3.5146050451e-03 1.8412178167e+00 -3.1890828063e+00 1.8412178167e+00 3.1890828063e+00 
52600 6.8626309221e+00 -3.5795262452e-03 1.8413132599e+00 -3.1892481188e+00 1.8413132599e+00 3.1892481188e+00 
52700 6.8626297905e+00 -3.6372876001e-03 1.8414104611e+00 -3.1894164762e+00 1.8414104611e+00 3.1894164762e+00 
52800 6.8626285760e+00 -3.6878927432e-03 1.8415092256e+00 -3.1895875414e+00 1.8415092256e+00 3.1895875414e+00 
52900 6.8626272895e+00 -3.7313572883e-03 1.8416093589e+00 -3.1897609773e+00 1.8416093589e+00 3.1897609773e+00 
53000 6.8626259422e+00 -3.7677086306e-03 1.8417106668e+00 -3.1899364477e+00 1.8417106668e+00 3.1899364477e+00 
53100 6.8626245454e+00 -3.7969857335e-03 1.8418129560e+00 -3.1901136178e+00 1.8418129560e+00 3.1901136178e+00 
53200 6.8626231103e+00 -3.8192388998e-03 1.8419160344e+00 -3.1902921548e+00 1.8419160344e+00 3.1902921548e+00 
53300 6.8626216482e+00 -3.8345295286e-03 1.8420197110e+00 -3.1904717281e+00 1.8420197110e+00 3.1904717281e+00 
53400 6.8626201701e+00 -3.8429298586e-03 1.8421237969e+00 -3.1906520101e+00 1.8421237969e+00 3.1906520101e+00 
53500 6.8626186870e+00 -3.8445226982e-03 1.8422281050e+00 -3.1908326769e+00 1.8422281050e+00 3.1908326769e+00 
53600 6.8626172094e+00 -3.8394011424e-03 1.8423324503e+00 -3.1910134084e+00 1.8423324503e+00 3.1910134084e+00 
53700 6.8626157476e+00 -3.8276682785e-03 1.8424366508e+00 -3.1911938889e+00 1.8424366508e+00 3.1911938889e+00 
53800 6.8626143115e+00 -3.8094368793e-03 1.8425405269e+00 -3.1913738076e+00 1.8425405269e+00 3.1913738076e+00 
53900 6.8626129104e+00 -3.7848290856e-03 1.8426439025e+00 -3.1915528593e+00 1.8426439025e+00 3.1915528593e+00 
54000 6.8626115533e+00 -3.7539760789e-03 1.8427466045e+00 -3.1917307444e+00 1.8427466045e+00 3.1917307444e+00 
54100 6.8626102485e+00 -3.7170177435e-03 1.8428484636e+00 -3.1919071696e+00 1.8428484636e+00 3.1919071696e+00 
54200 6.8626090038e+00 -3.6741023198e-03 1.8429493143e+00 -3.1920818481e+00 1.8429493143e+00 3.1920818481e+00 
54300 6.8626078263e+00 -3.6253860488e-03 1.8430489951e+00 -3.1922545004e+00 1.8430489951e+00 3.1922545004e+00 
54400 6.8626067225e+00 -3.5710328087e-03 1.8431473490e+00 -3.1924248543e+00 1.8431473490e+00 3.1924248543e+00 
54500 6.8626056982e+00 -3.5112137441e-03 1.8432442231e+00 -3.1925926451e+00 1.8432442231e+00 3.1925926451e+00 
54600 6.8626047584e+00 -3.4461068880e-03 1.8433394694e+00 -3.1927576165e+00 1.8433394694e+00 3.1927576165e+00 
54700 6.8626039075e+00 -3.3758967783e-03 1.8434329447e+00 -3.1929195206e+00 1.8434329447e+00 3.1929195206e+00 
54800 6.8626031492e+00 -3.3007740682e-03 1.8435245110e+00 -3.1930781180e+00 1.8435245110e+00 3.1930781180e+00 
54900 6.8626024863e+00 -3.2209351313e-03 1.8436140351e+00 -3.1932331784e+00 1.8436140351e+00 3.1932331784e+00 
55000 6.8626019209e+00 -3.1365816636e-03 1.8437013897e+00 -3.1933844809e+00 1.8437013897e+00 3.1933844809e+00 
55100 6.8626014546e+00 -3.0479202801e-03 1.8437864524e+00 -3.1935318139e+00 1.8437864524e+00 3.1935318139e+00 
55200 6.8626010880e+00 -2.9551621095e-03 1.8438691069e+00 -3.1936749756e+00 1.8438691069e+00 3.1936749756e+00 
55300 6.8626008212e+00 -2.8585223863e-03 1.8439492422e+00 -3.1938137742e+00 1.8439492422e+00 3.1938137742e+00 
55400 6.8626006534e+00 -2.7582200402e-03 1.8440267537e+00 -3.1939480279e+00 1.8440267537e+00 3.1939480279e+00 
55500 6.8626005833e+00 -2.6544772853e-03 1.8441015421e+00 -3.1940775653e+00 1.8441015421e+00 3.1940775653e+00 
55600 6.8626006090e+00 -2.5475192080e-03 1.8441735147e+00 -3.1942022254e+00 1.8441735147e+00 3.1942022254e+00 
55700 6.8626007280e+00 -2.4375733551e-03 1.8442425845e+00 -3.1943218579e+00 1.8442425845e+00 3.1943218579e+00 
55800 6.8626009370e+00 -2.3248693230e-03 1.8443086710e+00 -3.1944363229e+00 1.8443086710e+00 3.1944363229e+00 
55900 6.8626012323e+00 -2.2096383473e-03 1.8443716995e+00 -3.1945454916e+00 1.8443716995e+00 3.1945454916e+00 
56000 6.8626016100e+00 -2.0921128947e-03 1.8444316020e+00 -3.1946492458e+00 1.8444316020e+00 3.1946492458e+00 
56100 6.8626020653e+00 -1.9725262578e-03 1.8444883166e+00 -3.1947474784e+00 1.8444883166e+00 3.1947474784e+00 
56200 6.8626025932e+00 -1.8511121524e-03 1.8445417877e+00 -3.1948400930e+00 1.8445417877e+00 3.1948400930e+00 
56300 6.8626031884e+00 -1.7281043189e-03 1.8445919660e+00 -3.1949270044e+00 1.8445919660e+00 3.1949270044e+00 
56400 6.8626038452e+00 -1.6037361276e-03 1.8446388087e+00 -3.1950081383e+00 1.8446388087e+00 3.1950081383e+00 
56500 6.8626045575e+00 -1.4782401893e-03 1.8446822791e+00 -3.1950834312e+00 1.8446822791e+00 3.1950834312e+00 
56600 6.8626053194e+00 -1.3518479713e-03 1.8447223468e+00 -3.1951528305e+00 1.8447223468e+00 3.1951528305e+00 
56700 6.8626061244e+00 -1.2247894196e-03 1.8447589879e+00 -3.1952162948e+00 1.8447589879e+00 3.1952162948e+00 
56800 6.8626069660e+00 -1.0972925870e-03 1.8447921845e+00 -3.1952737929e+00 1.8447921845e+00 3.1952737929e+00 
56900 6.8626078377e+00 -9.6958326959e-04 1.8448219248e+00 -3.1953253047e+00 1.8448219248e+00 3.1953253047e+00 
57000 6.8626087330e+00 -8.4188464987e-04 1.8448482034e+00 -3.1953708205e+00 1.8448482034e+00 3.1953708205e+00 
57100 6.8626096452e+00 -7.1441694876e-04 1.8448710206e+00 -3.1954103411e+00 1.8448710206e+00 3.1954103411e+00 
57200 6.8626105679e+00 -5.8739708618e-04 1.8448903829e+00 -3.1954438776e+00 1.8448903829e+00 3.1954438776e+00 
57300 6.8626114948e+00 -4.6103835092e-04 1.8449063025e+00 -3.1954714511e+00 1.8449063025e+00 3.1954714511e+00 
57400 6.8626124195e+00 -3.3555008028e-04 1.8449187974e+00 -3.1954930929e+00 1.8449187974e+00 3.1954930929e+00 
57500 6.8626133359e+00 -2.1113734990e-04 1.8449278913e+00 -3.1955088440e+00 1.8449278913e+00 3.1955088440e+00 
57600 6.8626142384e+00 -8.8000674371e-05 1.8449336134e+00 -3.1955187550e+00 1.8449336134e+00 3.1955187550e+00 
57700 6.8626151211e+00 3.3664281203e-05 1.8449359983e+00 -3.1955228858e+00 1.8449359983e+00 3.1955228858e+00 
57800 6.8626159792e+00 1.5465778167e-04 1.8449359983e+00 -3.1955228858e+00 1.8449359983e+00 3.1955228858e+00 
57900 6.8626168073e+00 2.7279032343e-04 1.8449318069e+00 -3.1955156261e+00 1.8449318069e+00 3.1955156261e+00 
58000 6.8626176008e+00 3.8889737360e-04 1.8449244140e+00 -3.1955028211e+00 1.8449244140e+00 3.1955028211e+00 
58100 6.8626183553e+00 5.0280520960e-04 1.8449138743e+00 -3.1954845659e+00 1.8449138743e+00 3.1954845659e+00 
58200 6.8626190670e+00 6.1434622451e-04 1.8449002475e+00 -3.1954609636e+00 1.8449002475e+00 3.1954609636e+00 
58300 6.8626197324e+00 7.2335914090e-04 1.8448835977e+00 -3.1954321253e+00 1.8448835977e+00 3.1954321253e+00 
58400 6.8626203482e+00 8.2968921107e-04 1.8448639933e+00 -3.1953981694e+00 1.8448639933e+00 3.1953981694e+00 
58500 6.8626209119e+00 9.3318840370e-04 1.8448415069e+00 -3.1953592218e+00 1.8448415069e+00 3.1953592218e+00 
58600 6.8626214212e+00 1.0337155764e-03 1.8448162151e+00 -3.1953154152e+00 1.8448162151e+00 3.1953154152e+00 
58700 6.8626218742e+00 1.1311366345e-03 1.8447881984e+00 -3.1952668888e+00 1.8447881984e+00 3.1952668888e+00 
58800 6.8626222696e+00 1.2253246747e-03 1.8447575409e+00 -3.1952137884e+00 1.8447575409e+00 3.1952137884e+00 
58900 6.8626226063e+00 1.3161601155e-03 1.8447243300e+00 -3.1951562655e+00 1.8447243300e+00 3.1951562655e+00 
59000 6.8626228838e+00 1.4035308123e-03 1.8446886565e+00 -3.1950944771e+00 1.8446886565e+00 3.1950944771e+00 
59100 6.8626231020e+00 1.4873321579e-03 1.8446506141e+00 -3.1950285858e+00 1.8446506141e+00 3.1950285858e+00 
59200 6.8626232612e+00 1.5674671688e-03 1.8446102995e+00 -3.1949587589e+00 1.8446102995e+00 3.1949587589e+00 
59300 6.8626233620e+00 1.6438465564e-03 1.8445678119e+00 -3.1948851682e+00 1.8445678119e+00 3.1948851682e+00 
59400 6.8626234054e+00 1.7163887841e-03 1.8445232530e+00 -3.1948079899e+00 1.8445232530e+00 3.1948079899e+00 
59500 6.8626233930e+00 1.7850201093e-03 1.8444767265e+00 -3.1947274037e+00 1.8444767265e+00 3.1947274037e+00 
59600 6.8626233265e+00 1.8496746108e-03 1.8444283385e+00 -3.1946435932e+00 1.8444283385e+00 3.1946435932e+00 
59700 6.8626232078e+00 1.9102942027e-03 1.8443781965e+00 -3.1945567447e+00 1.8443781965e+00 3.1945567447e+00 
59800 6.8626230395e+00 1.9668286327e-03 1.8443264098e+00 -3.1944670475e+00 1.8443264098e+00 3.1944670475e+00 
59900 6.8626228240e+00 2.0192354674e-03 1.8442730890e+00 -3.1943746932e+00 1.8442730890e+00 3.1943746932e+00 
60000 6.8626225644e+00 2.0674800630e-03 1.8442183459e+00 -3.1942798753e+00 1.8442183459e+00 3.1942798753e+00 
60100 6.8626222638e+00 2.1115355227e-03 1.8441622931e+00 -3.1941827891e+00 1.8441622931e+00 3.1941827891e+00 
60200 6.8626219254e+00 2.1513826400e-03 1.8441050443e+00 -3.1940836312e+00 1.8441050443e+00 3.1940836312e+00 
60300 6.8626215527e+00 2.1870098296e-03 1.8440467132e+00 -3.1939825988e+00 1.8440467132e+00 3.1939825988e+00 
60400 6.8626211494e+00 2.2184130448e-03 1.8439874143e+00 -3.1938798902e+00 1.8439874143e+00 3.1938798902e+00 
60500 6.8626207191e+00 2.2455956824e-03 1.8439272621e+00 -3.1937757034e+00 1.8439272621e+00 3.1937757034e+00 
60600 6.8626202657e+00 2.2685684754e-03 1.8438663707e+00 -3.1936702365e+00 1.8438663707e+00 3.1936702365e+00 
60700 6.8626197929e+00 2.2873493741e-03 1.8438048545e+00 -3.1935636872e+00 1.8438048545e+00 3.1935636872e+00 
60800 6.8626193048e+00 2.3019634146e-03 1.8437428268e+00 -3.1934562522e+00 1.8437428268e+00 3.1934562522e+00 
60900 6.8626188052e+00 2.3124425776e-03 1.8436804008e+00 -3.1933481272e+00 1.8436804008e+00 3.1933481272e+00 
61000 6.8626182978e+00 2.3188256355e-03 1.8436176885e+00 -3.1932395062e+00 1.8436176885e+00 3.1932395062e+00 
61100 6.8626177866e+00 2.3211579897e-03 1.8435548009e+00 -3.1931305818e+00 1.8435548009e+00 3.1931305818e+00 
61200 6.8626172752e+00 2.3194914975e-03 1.8434918480e+00 -3.1930215440e+00 1.8434918480e+00 3.1930215440e+00 
61300 6.8626167672e+00 2.3138842905e-03 1.8434289381e+00 -3.1929125809e+00 1.8434289381e+00 3.1929125809e+00 
61400 6.8626162662e+00 2.3044005834e-03 1.8433661781e+00 -3.1928038774e+00 1.8433661781e+00 3.1928038774e+00 
61500 6.8626157754e+00 2.2911104749e-03 1.8433036732e+00 -3.1926956158e+00 1.8433036732e+00 3.1926956158e+00 
61600 6.8626152981e+00 2.2740897401e-03 1.8432415267e+00 -3.1925879749e+00 1.8432415267e+00 3.1925879749e+00 
61700 6.8626148372e+00 2.2534196164e-03 1.8431798398e+00 -3.1924811300e+00 1.8431798398e+00 3.1924811300e+00 
61800 6.8626143956e+00 2.2291865817e-03 1.8431187116e+00 -3.1923752528e+00 1.8431187116e+00 3.1923752528e+00 
61900 6.8626139758e+00 2.2014821271e-03 1.8430582387e+00 -3.1922705107e+00 1.8430582387e+00 3.1922705107e+00 
62000 6.8626135802e+00 2.1704025228e-03 1.8429985154e+00 -3.1921670669e+00 1.8429985154e+00 3.1921670669e+00 
62100 6.8626132110e+00 2.1360485799e-03 1.8429396333e+00 -3.1920650802e+00 1.8429396333e+00 3.1920650802e+00 
62200 6.8626128700e+00 2.0985254062e-03 1.8428816814e+00 -3.1919647045e+00 1.8428816814e+00 3.1919647045e+00 
62300 6.8626125589e+00 2.0579421594e-03 1.8428247457e+00 -3.1918660890e+00 1.8428247457e+00 3.1918660890e+00 
62400 6.8626122791e+00 2.0144117947e-03 1.8427689094e+00 -3.1917693777e+00 1.8427689094e+00 3.1917693777e+00 
62500 6.8626120317e+00 1.9680508112e-03 1.8427142525e+00 -3.1916747091e+00 1.8427142525e+00 3.1916747091e+00 
62600 6.8626118176e+00 1.9189789946e-03 1.8426608518e+00 -3.1915822165e+00 1.8426608518e+00 3.1915822165e+00 
62700 6.8626116375e+00 1.8673191577e-03 1.8426087812e+00 -3.1914920275e+00 1.8426087812e+00 3.1914920275e+00 
62800 6.8626114917e+00 1.8131968803e-03 1.8425581109e+00 -3.1914042640e+00 1.8425581109e+00 3.1914042640e+00 
62900 6.8626113803e+00 1.7567402474e-03 1.8425089079e+00 -3.1913190419e+00 1.8425089079e+00 3.1913190419e+00 
63000 6.8626113033e+00 1.6980795868e-03 1.8424612356e+00 -3.1912364710e+00 1.8424612356e+00 3.1912364710e+00 
63100 6.8626112604e+00 1.6373472072e-03 1.8424151540e+00 -3.1911566553e+00 1.8424151540e+00 3.1911566553e+00 
63200 6.8626112508e+00 1.5746771365e-03 1.8423707193e+00 -3.1910796923e+00 1.8423707193e+00 3.1910796923e+00 
63300 6.8626112739e+00 1.5102048609e-03 1.8423279844e+00 -3.1910056732e+00 1.8423279844e+00 3.1910056732e+00 
63400 6.8626113287e+00 1.4440670657e-03 1.8422869983e+00 -3.1909346831e+00 1.8422869983e+00 3.1909346831e+00 
63500 6.8626114140e+00 1.3764013779e-03 1.8422478062e+00 -3.1908668004e+00 1.8422478062e+00 3.1908668004e+00 
63600 6.8626115284e+00 1.3073461112e-03 1.8422104497e+00 -3.1908020971e+00 1.8422104497e+00 3.1908020971e+00 
63700 6.8626116705e+00 1.2370400134e-03 1.8421749667e+00 -3.1907406388e+00 1.8421749667e+00 3.1907406388e+00 
63800 6.8626118385e+00 1.1656220176e-03 1.8421413913e+00 -3.1906824845e+00 1.8421413913e+00 3.1906824845e+00 
63900 6.8626120306e+00 1.0932309963e-03 1.8421097537e+00 -3.1906276865e+00 1.8421097537e+00 3.1906276865e+00 
64000 6.8626122450e+00 1.0200055198e-03 1.8420800804e+00 -3.1905762909e+00 1.8420800804e+00 3.1905762909e+00 
64100 6.8626124797e+00 9.4608361936e-04 1.8420523943e+00 -3.1905283371e+00 1.8420523943e+00 3.1905283371e+00 
64200 6.8626127324e+00 8.7160255389e-04 1.8420267142e+00 -3.1904838579e+00 1.8420267142e+00 3.1904838579e+00 
64300 6.8626130012e+00 7.9669858284e-04 1.8420030554e+00 -3.1904428797e+00 1.8420030554e+00 3.1904428797e+00 
64400 6.8626132836e+00 7.2150674380e-04 1.8419814296e+00 -3.1904054227e+00 1.8419814296e+00 3.1904054227e+00 
64500 6.8626135775e+00 6.4616063591e-04 1.8419618446e+00 -3.1903715004e+00 1.8419618446e+00 3.1903715004e+00 
64600 6.8626138807e+00 5.7079220916e-04 1.8419443046e+00 -3.1903411203e+00 1.8419443046e+00 3.1903411203e+00 
64700 6.8626141908e+00 4.9553155994e-04 1.8419288103e+00 -3.1903142834e+00 1.8419288103e+00 3.1903142834e+00 
64800 6.8626145056e+00 4.2050673304e-04 1.8419153589e+00 -3.1902909849e+00 1.8419153589e+00 3.1902909849e+00 
64900 6.8626148229e+00 3.4584353029e-04 1.8419039440e+00 -3.1902712137e+00 1.8419039440e+00 3.1902712137e+00 
65000 6.8626151404e+00 2.7166532620e-04 1.8418945558e+00 -3.1902549528e+00 1.8418945558e+00 3.1902549528e+00 
65100 6.8626154561e+00 1.9809289063e-04 1.8418871812e+00 -3.1902421796e+00 1.8418871812e+00 3.1902421796e+00 
65200 6.8626157679e+00 1.2524421878e-04 1.8418818037e+00 -3.1902328656e+00 1.8418818037e+00 3.1902328656e+00 
65300 6.8626160739e+00 5.3234368697e-05 1.8418784038e+00 -3.1902269768e+00 1.8418784038e+00 3.1902269768e+00 
65400 6.8626163719e+00 -1.6244725982e-05 1.8418784038e+00 -3.1902269768e+00 1.8418784038e+00 3.1902269768e+00 
65500 6.8626166605e+00 -8.6763386302e-05 1.8418784038e+00 -3.1902269768e+00 1.8418784038e+00 3.1902269768e+00 
65600 6.8626169379e+00 -1.5562150623e-04 1.8418807591e+00 -3.1902310563e+00 1.8418807591e+00 3.1902310563e+00 
65700 6.8626172025e+00 -2.2321150642e-04 1.8418849837e+00 -3.1902383734e+00 1.8418849837e+00 3.1902383734e+00 
65800 6.8626174531e+00 -2.8943528794e-04 1.8418910430e+00 -3.1902488685e+00 1.8418910430e+00 3.1902488685e+00 
65900 6.8626176883e+00 -3.5419849535e-04 1.8418989000e+00 -3.1902624772e+00 1.8418989000e+00 3.1902624772e+00 
66000 6.8626179069e+00 -4.1741062380e-04 1.8419085151e+00 -3.1902791310e+00 1.8419085151e+00 3.1902791310e+00 
66100 6.8626181081e+00 -4.7898511786e-04 1.8419198460e+00 -3.1902987567e+00 1.8419198460e+00 3.1902987567e+00 
66200 6.8626182909e+00 -5.3883946219e-04 1.8419328483e+00 -3.1903212775e+00 1.8419328483e+00 3.1903212775e+00 
66300 6.8626184547e+00 -5.9689526378e-04 1.8419474754e+00 -3.1903466122e+00 1.8419474754e+00 3.1903466122e+00 
66400 6.8626185989e+00 -6.5307832612e-04 1.8419636782e+00 -3.1903746764e+00 1.8419636782e+00 3.1903746764e+00 
66500 6.8626187231e+00 -7.0731871491e-04 1.8419814060e+00 -3.1904053818e+00 1.8419814060e+00 3.1904053818e+00 
66600 6.8626188271e+00 -7.5955081574e-04 1.8420006060e+00 -3.1904386372e+00 1.8420006060e+00 3.1904386372e+00 
66700 6.8626189108e+00 -8.0971338341e-04 1.8420212236e+00 -3.1904743479e+00 1.8420212236e+00 3.1904743479e+00 
66800 6.8626189742e+00 -8.5774958327e-04 1.8420432026e+00 -3.1905124166e+00 1.8420432026e+00 3.1905124166e+00 
66900 6.8626190174e+00 -9.0360702437e-04 1.8420664852e+00 -3.1905527433e+00 1.8420664852e+00 3.1905527433e+00 
67000 6.8626190409e+00 -9.4723778469e-04 1.8420910122e+00 -3.1905952254e+00 1.8420910122e+00 3.1905952254e+00 
67100 6.8626190449e+00 -9.8859842849e-04 1.8421167232e+00 -3.1906397581e+00 1.8421167232e+00 3.1906397581e+00 
67200 6.8626190302e+00 -1.0276500158e-03 1.8421435565e+00 -3.1906862347e+00 1.8421435565e+00 3.1906862347e+00 
67300 6.8626189973e+00 -1.0643581041e-03 1.8421714494e+00 -3.1907345465e+00 1.8421714494e+00 3.1907345465e+00 
67400 6.8626189470e+00 -1.0986927428e-03 1.8422003381e+00 -3.1907845833e+00 1.8422003381e+00 3.1907845833e+00 
67500 6.8626188801e+00 -1.1306284599e-03 1.8422301583e+00 -3.1908362334e+00 1.8422301583e+00 3.1908362334e+00 
67600 6.8626187977e+00 -1.1601442414e-03 1.8422608448e+00 -3.1908893840e+00 1.8422608448e+00 3.1908893840e+00 
67700 6.8626187008e+00 -1.1872235039e-03 1.8422923319e+00 -3.1909439212e+00 1.8422923319e+00 3.1909439212e+00 
67800 6.8626185905e+00 -1.2118540593e-03 1.8423245533e+00 -3.1909997304e+00 1.8423245533e+00 3.1909997304e+00 
67900 6.8626184679e+00 -1.2340280741e-03 1.8423574427e+00 -3.1910566965e+00 1.8423574427e+00 3.1910566965e+00 
68000 6.8626183342e+00 -1.2537420205e-03 1.8423909333e+00 -3.1911147038e+00 1.8423909333e+00 3.1911147038e+00 
68100 6.8626181908e+00 -1.2709966219e-03 1.8424249582e+00 -3.1911736368e+00 1.8424249582e+00 3.1911736368e+00 
68200 6.8626180389e+00 -1.2857967921e-03 1.8424594508e+00 -3.1912333797e+00 1.8424594508e+00 3.1912333797e+00 
68300 6.8626178798e+00 -1.2981515677e-03 1.8424943444e+00 -3.1912938172e+00 1.8424943444e+00 3.1912938172e+00 
68400 6.8626177148e+00 -1.3080740354e-03 1.8425295726e+00 -3.1913548343e+00 1.8425295726e+00 3.1913548343e+00 
68500 6.8626175453e+00 -1.3155812532e-03 1.8425650694e+00 -3.1914163165e+00 1.8425650694e+00 3.1914163165e+00 
68600 6.8626173726e+00 -1.3206941657e-03 1.8426007693e+00 -3.1914781505e+00 1.8426007693e+00 3.1914781505e+00 
68700 6.8626171980e+00 -1.3234375150e-03 1.8426366072e+00 -3.1915402235e+00 1.8426366072e+00 3.1915402235e+00 
68800 6.8626170227e+00 -1.3238397456e-03 1.8426725188e+00 -3.1916024243e+00 1.8426725188e+00 3.1916024243e+00 
68900 6.8626168481e+00 -1.3219329051e-03 1.8427084407e+00 -3.1916646428e+00 1.8427084407e+00 3.1916646428e+00 
69000 6.8626166753e+00 -1.3177525400e-03 1.8427443101e+00 -3.1917267704e+00 1.8427443101e+00 3.1917267704e+00 
69100 6.8626165055e+00 -1.3113375869e-03 1.8427800653e+00 -3.1917887004e+00 1.8427800653e+00 3.1917887004e+00 
69200 6.8626163398e+00 -1.3027302603e-03 1.8428156459e+00 -3.1918503276e+00 1.8428156459e+00 3.1918503276e+00 
69300 6.8626161793e+00 -1.2919759351e-03 1.8428509922e+00 -3.1919115492e+00 1.8428509922e+00 3.1919115492e+00 
69400 6.8626160249e+00 -1.2791230272e-03 1.8428860460e+00 -3.1919722643e+00 1.8428860460e+00 3.1919722643e+00 
69500 6.8626158776e+00 -1.2642228690e-03 1.8429207505e+00 -3.1920323741e+00 1.8429207505e+00 3.1920323741e+00 
69600 6.8626157382e+00 -1.2473295828e-03 1.8429550500e+00 -3.1920917827e+00 1.8429550500e+00 3.1920917827e+00 
69700 6.8626156074e+00 -1.2284999508e-03 1.8429888906e+00 -3.1921503963e+00 1.8429888906e+00 3.1921503963e+00 
69800 6.8626154860e+00 -1.2077932822e-03 1.8430222197e+00 -3.1922081240e+00 1.8430222197e+00 3.1922081240e+00 
69900 6.8626153746e+00 -1.1852712788e-03 1.8430549865e+00 -3.1922648777e+00 1.8430549865e+00 3.1922648777e+00 
70000 6.8626152736e+00 -1.1609978968e-03 1.8430871416e+00 -3.1923205721e+00 1.8430871416e+00 3.1923205721e+00 
70100 6.8626151836e+00 -1.1350392083e-03 1.8431186377e+00 -3.1923751249e+00 1.8431186377e+00 3.1923751249e+00 
70200 6.8626151047e+00 -1.1074632602e-03 1.8431494291e+00 -3.1924284571e+00 1.8431494291e+00 3.1924284571e+00 
70300 6.8626150374e+00 -1.0783399315e-03 1.8431794718e+00 -3.1924804927e+00 1.8431794718e+00 3.1924804927e+00 
70400 6.8626149818e+00 -1.0477407903e-03 1.8432087241e+00 -3.1925311591e+00 1.8432087241e+00 3.1925311591e+00 
70500 6.8626149379e+00 -1.0157389486e-03 1.8432371458e+00 -3.1925803870e+00 1.8432371458e+00 3.1925803870e+00 
70600 6.8626149058e+00 -9.8240891776e-04 1.8432646990e+00 -3.1926281105e+00 1.8432646990e+00 3.1926281105e+00 
70700 6.8626148853e+00 -9.4782646235e-04 1.8432913477e+00 -3.1926742673e+00 1.8432913477e+00 3.1926742673e+00 
70800 6.8626148764e+00 -9.1206845447e-04 1.8433170579e+00 -3.1927187988e+00 1.8433170579e+00 3.1927187988e+00 
70900 6.8626148787e+00 -8.7521272789e-04 1.8433417978e+00 -3.1927616496e+00 1.8433417978e+00 3.1927616496e+00 
71000 6.8626148921e+00 -8.3733793239e-04 1.8433655377e+00 -3.1928027683e+00 1.8433655377e+00 3.1928027683e+00 
71100 6.8626149161e+00 -7.9852338880e-04 1.8433882500e+00 -3.1928421070e+00 1.8433882500e+00 3.1928421070e+00 
71200 6.8626149503e+00 -7.5884894459e-04 1.8434099091e+00 -3.1928796218e+00 1.8434099091e+00 3.1928796218e+00 
71300 6.8626149941e+00 -7.1839483062e-04 1.8434304919e+00 -3.1929152722e+00 1.8434304919e+00 3.1929152722e+00 
71400 6.8626150472e+00 -6.7724151888e-04 1.8434499772e+00 -3.1929490218e+00 1.8434499772e+00 3.1929490218e+00 
71500 6.8626151088e+00 -6.3546958187e-04 1.8434683461e+00 -3.1929808376e+00 1.8434683461e+00 3.1929808376e+00 
71600 6.8626151783e+00 -5.9315955346e-04 1.8434855819e+00 -3.1930106908e+00 1.8434855819e+00 3.1930106908e+00 
71700 6.8626152551e+00 -5.5039179168e-04 1.8435016699e+00 -3.1930385561e+00 1.8435016699e+00 3.1930385561e+00 
71800 6.8626153385e+00 -5.0724634355e-04 1.8435165978e+00 -3.1930644120e+00 1.8435165978e+00 3.1930644120e+00 
71900 6.8626154276e+00 -4.6380281221e-04 1.8435303554e+00 -3.1930882408e+00 1.8435303554e+00 3.1930882408e+00 
72000 6.8626155219e+00 -4.2014022643e-04 1.8435429346e+00 -3.1931100286e+00 1.8435429346e+00 3.1931100286e+00 
72100 6.8626156205e+00 -3.7633691285e-04 1.8435543295e+00 -3.1931297652e+00 1.8435543295e+00 3.1931297652e+00 
72200 6.8626157227e+00 -3.3247037105e-04 1.8435645364e+00 -3.1931474440e+00 1.8435645364e+00 3.1931474440e+00 
72300 6.8626158276e+00 -2.8861715158e-04 1.8435735534e+00 -3.1931630620e+00 1.8435735534e+00 3.1931630620e+00 
72400 6.8626159346e+00 -2.4485273723e-04 1.8435813811e+00 -3.1931766199e+00 1.8435813811e+00 3.1931766199e+00 
72500 6.8626160427e+00 -2.0125142766e-04 1.8435880218e+00 -3.1931881219e+00 1.8435880218e+00 3.1931881219e+00 
72600 6.8626161514e+00 -1.5788622746e-04 1.8435934799e+00 -3.1931975757e+00 1.8435934799e+00 3.1931975757e+00 
72700 6.8626162598e+00 -1.1482873798e-04 1.8435977619e+00 -3.1932049924e+00 1.8435977619e+00 3.1932049924e+00 
72800 6.8626163673e+00 -7.2149052857e-05 1.8436008762e+00 -3.1932103864e+00 1.8436008762e+00 3.1932103864e+00 
72900 6.8626164731e+00 -2.9915657566e-05 1.8436028329e+00 -3.1932137756e+00 1.8436028329e+00 3.1932137756e+00 
73000 6.8626165765e+00 1.0921042722e-05 1.8436028329e+00 -3.1932137756e+00 1.8436028329e+00 3.1932137756e+00 
73100 6.8626166771e+00 5.2406358034e-05 1.8436028329e+00 -3.1932137756e+00 1.8436028329e+00 3.1932137756e+00 
73200 6.8626167743e+00 9.4467232462e-05 1.8436028329e+00 -3.1932137756e+00 1.8436028329e+00 3.1932137756e+00 
73300 6.8626168673e+00 1.3424123556e-04 1.8436002709e+00 -3.1932093381e+00 1.8436002709e+00 3.1932093381e+00 
73400 6.8626169558e+00 1.7325543196e-04 1.8435966302e+00 -3.1932030321e+00 1.8435966302e+00 3.1932030321e+00 
73500 6.8626170392e+00 2.1145275168e-04 1.8435919313e+00 -3.1931948935e+00 1.8435919313e+00 3.1931948935e+00 
73600 6.8626171172e+00 2.4877832132e-04 1.8435861965e+00 -3.1931849605e+00 1.8435861965e+00 3.1931849605e+00 
73700 6.8626171894e+00 2.8517952912e-04 1.8435794494e+00 -3.1931732742e+00 1.8435794494e+00 3.1931732742e+00 
73800 6.8626172554e+00 3.2060608519e-04 1.8435717150e+00 -3.1931598778e+00 1.8435717150e+00 3.1931598778e+00 
73900 6.8626173151e+00 3.5501007701e-04 1.8435630198e+00 -3.1931448172e+00 1.8435630198e+00 3.1931448172e+00 
74000 6.8626173681e+00 3.8834602002e-04 1.8435533914e+00 -3.1931281404e+00 1.8435533914e+00 3.1931281404e+00 
74100 6.8626174144e+00 4.2057090339e-04 1.8435428589e+00 -3.1931098975e+00 1.8435428589e+00 3.1931098975e+00 
74200 6.8626174537e+00 4.5164423088e-04 1.8435314523e+00 -3.1930901407e+00 1.8435314523e+00 3.1930901407e+00 
74300 6.8626174861e+00 4.8152805676e-04 1.8435192029e+00 -3.1930689241e+00 1.8435192029e+00 3.1930689241e+00 
74400 6.8626175116e+00 5.1018701686e-04 1.8435061429e+00 -3.1930463035e+00 1.8435061429e+00 3.1930463035e+00 
74500 6.8626175301e+00 5.3758835471e-04 1.8434923055e+00 -3.1930223365e+00 1.8434923055e+00 3.1930223365e+00 
74600 6.8626175417e+00 5.6370194274e-04 1.8434777248e+00 -3.1929970820e+00 1.8434777248e+00 3.1929970820e+00 
74700 6.8626175467e+00 5.8850029871e-04 1.8434624357e+00 -3.1929706005e+00 1.8434624357e+00 3.1929706005e+00 
74800 6.8626175450e+00 6.1195859721e-04 1.8434464739e+00 -3.1929429539e+00 1.8434464739e+00 3.1929429539e+00 
74900 6.8626175371e+00 6.3405467644e-04 1.8434298757e+00 -3.1929142050e+00 1.8434298757e+00 3.1929142050e+00 
75000 6.8626175230e+00 6.5476904021e-04 1.8434126781e+00 -3.1928844177e+00 1.8434126781e+00 3.1928844177e+00 
75100 6.8626175030e+00 6.7408485522e-04 1.8433949184e+00 -3.1928536571e+00 1.8433949184e+00 3.1928536571e+00 
75200 6.8626174776e+00 6.9198794383e-04 1.8433766347e+00 -3.1928219887e+00 1.8433766347e+00 3.1928219887e+00 
75300 6.8626174470e+00 7.0846677213e-04 1.8433578651e+00 -3.1927894789e+00 1.8433578651e+00 3.1927894789e+00 
75400 6.8626174115e+00 7.2351243371e-04 1.8433386484e+00 -3.1927561946e+00 1.8433386484e+00 3.1927561946e+00 
75500 6.8626173717e+00 7.3711862885e-04 1.8433190234e+00 -3.1927222030e+00 1.8433190234e+00 3.1927222030e+00 
75600 6.8626173278e+00 7.4928163966e-04 1.8432990291e+00 -3.1926875719e+00 1.8432990291e+00 3.1926875719e+00 
75700 6.8626172803e+00 7.6000030078e-04 1.8432787046e+00 -3.1926523690e+00 1.8432787046e+00 3.1926523690e+00 
75800 6.8626172297e+00 7.6927596622e-04 1.8432580892e+00 -3.1926166620e+00 1.8432580892e+00 3.1926166620e+00 
75900 6.8626171764e+00 7.7711247213e-04 1.8432372220e+00 -3.1925805189e+00 1.8432372220e+00 3.1925805189e+00 
76000 6.8626171208e+00 7.8351609572e-04 1.8432161419e+00 -3.1925440071e+00 1.8432161419e+00 3.1925440071e+00 
76100 6.8626170634e+00 7.8849551047e-04 1.8431948879e+00 -3.1925071941e+00 1.8431948879e+00 3.1925071941e+00 
76200 6.8626170047e+00 7.9206173784e-04 1.8431734986e+00 -3.1924701467e+00 1.8431734986e+00 3.1924701467e+00 
76300 6.8626169451e+00 7.9422809539e-04 1.8431520123e+00 -3.1924329313e+00 1.8431520123e+00 3.1924329313e+00 
76400 6.8626168850e+00 7.9501014164e-04 1.8431304669e+00 -3.1923956137e+00 1.8431304669e+00 3.1923956137e+00 
76500 6.8626168249e+00 7.9442561785e-04 1.8431089001e+00 -3.1923582589e+00 1.8431089001e+00 3.1923582589e+00 
76600 6.8626167652e+00 7.9249438663e-04 1.8430873489e+00 -3.1923209312e+00 1.8430873489e+00 3.1923209312e+00 
76700 6.8626167064e+00 7.8923836779e-04 1.8430658499e+00 -3.1922836937e+00 1.8430658499e+00 3.1922836937e+00 
76800 6.8626166487e+00 7.8468147142e-04 1.8430444389e+00 -3.1922466088e+00 1.8430444389e+00 3.1922466088e+00 
76900 6.8626165927e+00 7.7884952848e-04 1.8430231513e+00 -3.1922097376e+00 1.8430231513e+00 3.1922097376e+00 
77000 6.8626165386e+00 7.7177021891e-04 1.8430020217e+00 -3.1921731400e+00 1.8430020217e+00 3.1921731400e+00 
77100 6.8626164867e+00 7.6347299759e-04 1.8429810839e+00 -3.1921368746e+00 1.8429810839e+00 3.1921368746e+00 
77200 6.8626164374e+00 7.5398901813e-04 1.8429603709e+00 -3.1921009987e+00 1.8429603709e+00 3.1921009987e+00 
77300 6.8626163909e+00 7.4335105488e-04 1.8429399150e+00 -3.1920655681e+00 1.8429399150e+00 3.1920655681e+00 
77400 6.8626163476e+00 7.3159342315e-04 1.8429197475e+00 -3.1920306370e+00 1.8429197475e+00 3.1920306370e+00 
77500 6.8626163076e+00 7.1875189777e-04 1.8428998988e+00 -3.1919962580e+00 1.8428998988e+00 3.1919962580e+00 
77600 6.8626162710e+00 7.0486363043e-04 1.8428803983e+00 -3.1919624821e+00 1.8428803983e+00 3.1919624821e+00 
77700 6.8626162382e+00 6.8996706565e-04 1.8428612743e+00 -3.1919293584e+00 1.8428612743e+00 3.1919293584e+00 
77800 6.8626162091e+00 6.7410185572e-04 1.8428425544e+00 -3.1918969345e+00 1.8428425544e+00 3.1918969345e+00 
77900 6.8626161840e+00 6.5730877473e-04 1.8428242647e+00 -3.1918652558e+00 1.8428242647e+00 3.1918652558e+00 
78000 6.8626161628e+00 6.3962963198e-04 1.8428064304e+00 -3.1918343660e+00 1.8428064304e+00 3.1918343660e+00 
78100 6.8626161457e+00 6.2110718459e-04 1.8427890757e+00 -3.1918043067e+00 1.8427890757e+00 3.1918043067e+00 
78200 6.8626161326e+00 6.0178504996e-04 1.8427722233e+00 -3.1917751176e+00 1.8427722233e+00 3.1917751176e+00 
78300 6.8626161236e+00 5.8170761780e-04 1.8427558951e+00 -3.1917468363e+00 1.8427558951e+00 3.1917468363e+00 
78400 6.8626161185e+00 5.6091996218e-04 1.8427401115e+00 -3.1917194983e+00 1.8427401115e+00 3.1917194983e+00 
78500 6.8626161174e+00 5.3946775365e-04 1.8427248918e+00 -3.1916931370e+00 1.8427248918e+00 3.1916931370e+00 
78600 6.8626161201e+00 5.1739717150e-04 1.8427102540e+00 -3.1916677836e+00 1.8427102540e+00 3.1916677836e+00 
78700 6.8626161265e+00 4.9475481650e-04 1.8426962150e+00 -3.1916434673e+00 1.8426962150e+00 3.1916434673e+00 
78800 6.8626161365e+00 4.7158762413e-04 1.8426827903e+00 -3.1916202150e+00 1.8426827903e+00 3.1916202150e+00 
78900 6.8626161499e+00 4.4794277846e-04 1.8426699941e+00 -3.1915980513e+00 1.8426699941e+00 3.1915980513e+00 
79000 6.8626161665e+00 4.2386762692e-04 1.8426578394e+00 -3.1915769988e+00 1.8426578394e+00 3.1915769988e+00 
79100 6.8626161863e+00 3.9940959591e-04 1.8426463379e+00 -3.1915570776e+00 1.8426463379e+00 3.1915570776e+00 
79200 6.8626162088e+00 3.7461610758e-04 1.8426354999e+00 -3.1915383057e+00 1.8426354999e+00 3.1915383057e+00 
79300 6.8626162340e+00 3.4953449784e-04 1.8426253347e+00 -3.1915206991e+00 1.8426253347e+00 3.1915206991e+00 
79400 6.8626162615e+00 3.2421193563e-04 1.8426158500e+00 -3.1915042711e+00 1.8426158500e+00 3.1915042711e+00 
79500 6.8626162912e+00 2.9869534371e-04 1.8426070525e+00 -3.1914890332e+00 1.8426070525e+00 3.1914890332e+00 
79600 6.8626163227e+00 2.7303132105e-04 1.8425989472e+00 -3.1914749946e+00 1.8425989472e+00 3.1914749946e+00 
79700 6.8626163559e+00 2.4726606682e-04 1.8425915384e+00 -3.1914621620e+00 1.8425915384e+00 3.1914621620e+00 
79800 6.8626163904e+00 2.2144530629e-04 1.8425848286e+00 -3.1914505404e+00 1.8425848286e+00 3.1914505404e+00 
79900 6.8626164260e+00 1.9561421859e-04 1.8425788195e+00 -3.1914401324e+00 1.8425788195e+00 3.1914401324e+00 
80000 6.8626164624e+00 1.6981736636e-04 1.8425735114e+00 -3.1914309384e+00 1.8425735114e+00 3.1914309384e+00 
80100 6.8626164994e+00 1.4409862770e-04 1.8425689032e+00 -3.1914229568e+00 1.8425689032e+00 3.1914229568e+00 
80200 6.8626165367e+00 1.1850113008e-04 1.8425649930e+00 -3.1914161840e+00 1.8425649930e+00 3.1914161840e+00 
80300 6.8626165740e+00 9.3067186679e-05 1.8425617773e+00 -3.1914106144e+00 1.8425617773e+00 3.1914106144e+00 
80400 6.8626166111e+00 6.7838234924e-05 1.8425592518e+00 -3.1914062401e+00 1.8425592518e+00 3.1914062401e+00 
80500 6.8626166478e+00 4.4864460899e-05 1.8425592518e+00 -3.1914062401e+00 1.8425592518e+00 3.1914062401e+00 
80600 6.8626166837e+00 2.1448235295e-05 1.8425592518e+00 -3.1914062401e+00 1.8425592518e+00 3.1914062401e+00 
80700 6.8626167186e+00 -2.3663041832e-06 1.8425592518e+00 -3.1914062401e+00 1.8425592518e+00 3.1914062401e+00 
80800 6.8626167524e+00 -2.6535688609e-05 1.8425592518e+00 -3.1914062401e+00 1.8425592518e+00 3.1914062401e+00 
80900 6.8626167849e+00 -5.1017156491e-05 1.8425592518e+00 -3.1914062401e+00 1.8425592518e+00 3.1914062401e+00 
81000 6.8626168161e+00 -7.5768690614e-05 1.8425592518e+00 -3.1914062401e+00 1.8425592518e+00 3.1914062401e+00 
81100 6.8626168456e+00 -9.8504685012e-05 1.8425613079e+00 -3.1914098013e+00 1.8425613079e+00 3.1914098013e+00 
81200 6.8626168732e+00 -1.2074150978e-04 1.8425639809e+00 -3.1914144312e+00 1.8425639809e+00 3.1914144312e+00 
81300 6.8626168990e+00 -1.4244805201e-04 1.8425672574e+00 -3.1914201061e+00 1.8425672574e+00 3.1914201061e+00 
81400 6.8626169227e+00 -1.6359454213e-04 1.8425711229e+00 -3.1914268014e+00 1.8425711229e+00 3.1914268014e+00 
81500 6.8626169442e+00 -1.8415258632e-04 1.8425755622e+00 -3.1914344905e+00 1.8425755622e+00 3.1914344905e+00 
81600 6.8626169635e+00 -2.0409519603e-04 1.8425805593e+00 -3.1914431458e+00 1.8425805593e+00 3.1914431458e+00 
81700 6.8626169805e+00 -2.2339681467e-04 1.8425860976e+00 -3.1914527384e+00 1.8425860976e+00 3.1914527384e+00 
81800 6.8626169952e+00 -2.4203334151e-04 1.8425921597e+00 -3.1914632382e+00 1.8425921597e+00 3.1914632382e+00 
81900 6.8626170075e+00 -2.5998215269e-04 1.8425987274e+00 -3.1914746138e+00 1.8425987274e+00 3.1914746138e+00 
82000 6.8626170175e+00 -2.7722211939e-04 1.8426057822e+00 -3.1914868331e+00 1.8426057822e+00 3.1914868331e+00 
82100 6.8626170250e+00 -2.9373362318e-04 1.8426133047e+00 -3.1914998625e+00 1.8426133047e+00 3.1914998625e+00 
82200 6.8626170302e+00 -3.0949856855e-04 1.8426212753e+00 -3.1915136680e+00 1.8426212753e+00 3.1915136680e+00 
82300 6.8626170331e+00 -3.2450039271e-04 1.8426296737e+00 -3.1915282143e+00 1.8426296737e+00 3.1915282143e+00 
82400 6.8626170337e+00 -3.3872407250e-04 1.8426384790e+00 -3.1915434656e+00 1.8426384790e+00 3.1915434656e+00 
82500 6.8626170321e+00 -3.5215612872e-04 1.8426476703e+00 -3.1915593854e+00 1.8426476703e+00 3.1915593854e+00 
82600 6.8626170283e+00 -3.6478462762e-04 1.8426572260e+00 -3.1915759364e+00 1.8426572260e+00 3.1915759364e+00 
82700 6.8626170226e+00 -3.7659917983e-04 1.8426671244e+00 -3.1915930808e+00 1.8426671244e+00 3.1915930808e+00 
82800 6.8626170148e+00 -3.8759093653e-04 1.8426773432e+00 -3.1916107804e+00 1.8426773432e+00 3.1916107804e+00 
82900 6.8626170053e+00 -3.9775258325e-04 1.8426878603e+00 -3.1916289965e+00 1.8426878603e+00 3.1916289965e+00 
83000 6.8626169940e+00 -4.0707833088e-04 1.8426986530e+00 -3.1916476901e+00 1.8426986530e+00 3.1916476901e+00 
83100 6.8626169812e+00 -4.1556390442e-04 1.8427096988e+00 -3.1916668219e+00 1.8427096988e+00 3.1916668219e+00 
83200 6.8626169669e+00 -4.2320652921e-04 1.8427209747e+00 -3.1916863523e+00 1.8427209747e+00 3.1916863523e+00 
83300 6.8626169513e+00 -4.3000491472e-04 1.8427324579e+00 -3.1917062418e+00 1.8427324579e+00 3.1917062418e+00 
83400 6.8626169346e+00 -4.3595923620e-04 1.8427441255e+00 -3.1917264507e+00 1.8427441255e+00 3.1917264507e+00 
83500 6.8626169168e+00 -4.4107111394e-04 1.8427559546e+00 -3.1917469393e+00 1.8427559546e+00 3.1917469393e+00 
83600 6.8626168983e+00 -4.4534359044e-04 1.8427679223e+00 -3.1917676680e+00 1.8427679223e+00 3.1917676680e+00 
83700 6.8626168790e+00 -4.4878110543e-04 1.8427800058e+00 -3.1917885973e+00 1.8427800058e+00 3.1917885973e+00 
83800 6.8626168592e+00 -4.5138946887e-04 1.8427921826e+00 -3.1918096881e+00 1.8427921826e+00 3.1918096881e+00 
83900 6.8626168390e+00 -4.5317583200e-04 1.8428044300e+00 -3.1918309013e+00 1.8428044300e+00 3.1918309013e+00 
84000 6.8626168186e+00 -4.5414865648e-04 1.8428167259e+00 -3.1918521983e+00 1.8428167259e+00 3.1918521983e+00 
84100 6.8626167981e+00 -4.5431768174e-04 1.8428290480e+00 -3.1918735408e+00 1.8428290480e+00 3.1918735408e+00 
84200 6.8626167776e+00 -4.5369389062e-04 1.8428413747e+00 -3.1918948912e+00 1.8428413747e+00 3.1918948912e+00 
84300 6.8626167574e+00 -4.5228947336e-04 1.8428536843e+00 -3.1919162122e+00 1.8428536843e+00 3.1919162122e+00 
84400 6.8626167375e+00 -4.5011778997e-04 1.8428659558e+00 -3.1919374669e+00 1.8428659558e+00 3.1919374669e+00 
84500 6.8626167181e+00 -4.4719333123e-04 1.8428781682e+00 -3.1919586195e+00 1.8428781682e+00 3.1919586195e+00 
84600 6.8626166993e+00 -4.4353167822e-04 1.8428903013e+00 -3.1919796346e+00 1.8428903013e+00 3.1919796346e+00 
84700 6.8626166813e+00 -4.3914946060e-04 1.8429023349e+00 -3.1920004774e+00 1.8429023349e+00 3.1920004774e+00 
84800 6.8626166640e+00 -4.3406431362e-04 1.8429142495e+00 -3.1920211141e+00 1.8429142495e+00 3.1920211141e+00 
84900 6.8626166477e+00 -4.2829483407e-04 1.8429260261e+00 -3.1920415118e+00 1.8429260261e+00 3.1920415118e+00 
85000 6.8626166324e+00 -4.2186053514e-04 1.8429376461e+00 -3.1920616382e+00 1.8429376461e+00 3.1920616382e+00 
85100 6.8626166181e+00 -4.1478180039e-04 1.8429490914e+00 -3.1920814621e+00 1.8429490914e+00 3.1920814621e+00 
85200 6.8626166051e+00 -4.0707983681e-04 1.8429603446e+00 -3.1921009532e+00 1.8429603446e+00 3.1921009532e+00 
85300 6.8626165933e+00 -3.9877662715e-04 1.8429713888e+00 -3.1921200823e+00 1.8429713888e+00 3.1921200823e+00 
85400 6.8626165827e+00 -3.8989488159e-04 1.8429822077e+00 -3.1921388211e+00 1.8429822077e+00 3.1921388211e+00 
85500 6.8626165735e+00 -3.8045798882e-04 1.8429927855e+00 -3.1921571425e+00 1.8429927855e+00 3.1921571425e+00 
85600 6.8626165656e+00 -3.7048996655e-04 1.8430031073e+00 -3.1921750203e+00 1.8430031073e+00 3.1921750203e+00 
85700 6.8626165591e+00 -3.6001541181e-04 1.8430131585e+00 -3.1921924296e+00 1.8430131585e+00 3.1921924296e+00 
85800 6.8626165540e+00 -3.4905945070e-04 1.8430229256e+00 -3.1922093466e+00 1.8430229256e+00 3.1922093466e+00 
85900 6.8626165502e+00 -3.3764768813e-04 1.8430323953e+00 -3.1922257487e+00 1.8430323953e+00 3.1922257487e+00 
86000 6.8626165478e+00 -3.2580615729e-04 1.8430415555e+00 -3.1922416145e+00 1.8430415555e+00 3.1922416145e+00 
86100 6.8626165468e+00 -3.1356126915e-04 1.8430503943e+00 -3.1922569238e+00 1.8430503943e+00 3.1922569238e+00 
86200 6.8626165471e+00 -3.0093976191e-04 1.8430589009e+00 -3.1922716576e+00 1.8430589009e+00 3.1922716576e+00 
86300 6.8626165487e+00 -2.8796865072e-04 1.8430670650e+00 -3.1922857984e+00 1.8430670650e+00 3.1922857984e+00 
86400 6.8626165515e+00 -2.7467517745e-04 1.8430748772e+00 -3.1922993295e+00 1.8430748772e+00 3.1922993295e+00 
86500 6.8626165555e+00 -2.6108676091e-04 1.8430823288e+00 -3.1923122360e+00 1.8430823288e+00 3.1923122360e+00 
86600 6.8626165607e+00 -2.4723094726e-04 1.8430894117e+00 -3.1923245039e+00 1.8430894117e+00 3.1923245039e+00 
86700 6.8626165669e+00 -2.3313536107e-04 1.8430961186e+00 -3.1923361207e+00 1.8430961186e+00 3.1923361207e+00 
86800 6.8626165742e+00 -2.1882765673e-04 1.8431024432e+00 -3.1923470752e+00 1.8431024432e+00 3.1923470752e+00 
86900 6.8626165824e+00 -2.0433547061e-04 1.8431083796e+00 -3.1923573573e+00 1.8431083796e+00 3.1923573573e+00 
87000 6.8626165914e+00 -1.8968637382e-04 1.8431139228e+00 -3.1923669585e+00 1.8431139228e+00 3.1923669585e+00 
87100 6.8626166012e+00 -1.7490782570e-04 1.8431190687e+00 -3.1923758713e+00 1.8431190687e+00 3.1923758713e+00 
87200 6.8626166117e+00 -1.6002712824e-04 1.8431238135e+00 -3.1923840897e+00 1.8431238135e+00 3.1923840897e+00 
87300 6.8626166228e+00 -1.4507138122e-04 1.8431281547e+00 -3.1923916089e+00 1.8431281547e+00 3.1923916089e+00 
87400 6.8626166344e+00 -1.3006743850e-04 1.8431320902e+00 -3.1923984253e+00 1.8431320902e+00 3.1923984253e+00 
87500 6.8626166464e+00 -1.1504186515e-04 1.8431356186e+00 -3.1924045367e+00 1.8431356186e+00 3.1924045367e+00 
87600 6.8626166588e+00 -1.0002089575e-04 1.8431387395e+00 -3.1924099421e+00 1.8431387395e+00 3.1924099421e+00 
87700 6.8626166714e+00 -8.5030393814e-05 1.8431414528e+00 -3.1924146418e+00 1.8431414528e+00 3.1924146418e+00 
87800 6.8626166841e+00 -7.0095812358e-05 1.8431437595e+00 -3.1924186370e+00 1.8431437595e+00 3.1924186370e+00 
87900 6.8626166970e+00 -5.7315163416e-05 1.8431437595e+00 -3.1924186370e+00 1.8431437595e+00 3.1924186370e+00 
88000 6.8626167097e+00 -4.4213864232e-05 1.8431437595e+00 -3.1924186370e+00 1.8431437595e+00 3.1924186370e+00 
88100 6.8626167223e+00 -3.0818176945e-05 1.8431437595e+00 -3.1924186370e+00 1.8431437595e+00 3.1924186370e+00 
88200 6.8626167346e+00 -1.7154047112e-05 1.8431437595e+00 -3.1924186370e+00 1.8431437595e+00 3.1924186370e+00 
88300 6.8626167466e+00 -3.2470786436e-06 1.8431437595e+00 -3.1924186370e+00 1.8431437595e+00 3.1924186370e+00 
88400 6.8626167583e+00 1.0877490282e-05 1.8431437595e+00 -3.1924186370e+00 1.8431437595e+00 3.1924186370e+00 
88500 6.8626167696e+00 2.5194810264e-05 1.8431437595e+00 -3.1924186370e+00 1.8431437595e+00 3.1924186370e+00 
88600 6.8626167804e+00 3.9680442683e-05 1.8431437595e+00 -3.1924186370e+00 1.8431437595e+00 3.1924186370e+00 
88700 6.8626167908e+00 5.4310380678e-05 1.8431437595e+00 -3.1924186370e+00 1.8431437595e+00 3.1924186370e+00 
88800 6.8626168007e+00 6.9061069065e-05 1.8431437595e+00 -3.1924186370e+00 1.8431437595e+00 3.1924186370e+00 
88900 6.8626168100e+00 8.3909423215e-05 1.8431437595e+00 -3.1924186370e+00 1.8431437595e+00 3.1924186370e+00 
89000 6.8626168185e+00 9.6351019416e-05 1.8431414832e+00 -3.1924146944e+00 1.8431414832e+00 3.1924146944e+00 
89100 6.8626168264e+00 1.0846178473e-04 1.8431388694e+00 -3.1924101673e+00 1.8431388694e+00 3.1924101673e+00 
89200 6.8626168334e+00 1.2022525678e-04 1.8431359271e+00 -3.1924050710e+00 1.8431359271e+00 3.1924050710e+00 
89300 6.8626168397e+00 1.3162580640e-04 1.8431326657e+00 -3.1923994221e+00 1.8431326657e+00 3.1923994221e+00 
89400 6.8626168452e+00 1.4264865289e-04 1.8431290950e+00 -3.1923932374e+00 1.8431290950e+00 3.1923932374e+00 
89500 6.8626168499e+00 1.5327987755e-04 1.8431252252e+00 -3.1923865348e+00 1.8431252252e+00 3.1923865348e+00 
89600 6.8626168538e+00 1.6350643555e-04 1.8431210671e+00 -3.1923793327e+00 1.8431210671e+00 3.1923793327e+00 
89700 6.8626168569e+00 1.7331616621e-04 1.8431166315e+00 -3.1923716500e+00 1.8431166315e+00 3.1923716500e+00 
89800 6.8626168592e+00 1.8269780148e-04 1.8431119298e+00 -3.1923635064e+00 1.8431119298e+00 3.1923635064e+00 
89900 6.8626168606e+00 1.9164097292e-04 1.8431069736e+00 -3.1923549220e+00 1.8431069736e+00 3.1923549220e+00 
90000 6.8626168613e+00 2.0013621696e-04 1.8431017747e+00 -3.1923459173e+00 1.8431017747e+00 3.1923459173e+00 
90100 6.8626168612e+00 2.0817497853e-04 1.8430963454e+00 -3.1923365134e+00 1.8430963454e+00 3.1923365134e+00 
90200 6.8626168604e+00 2.1574961310e-04 1.8430906980e+00 -3.1923267318e+00 1.8430906980e+00 3.1923267318e+00 
90300 6.8626168588e+00 2.2285338712e-04 1.8430848450e+00 -3.1923165943e+00 1.8430848450e+00 3.1923165943e+00 
90400 6.8626168566e+00 2.2948047683e-04 1.8430787994e+00 -3.1923061229e+00 1.8430787994e+00 3.1923061229e+00 
90500 6.8626168537e+00 2.3562596566e-04 1.8430725739e+00 -3.1922953401e+00 1.8430725739e+00 3.1922953401e+00 
90600 6.8626168502e+00 2.4128583992e-04 1.8430661817e+00 -3.1922842684e+00 1.8430661817e+00 3.1922842684e+00 
90700 6.8626168461e+00 2.4645698311e-04 1.8430596359e+00 -3.1922729308e+00 1.8430596359e+00 3.1922729308e+00 
90800 6.8626168415e+00 2.5113716874e-04 1.8430529499e+00 -3.1922613502e+00 1.8430529499e+00 3.1922613502e+00 
90900 6.8626168365e+00 2.5532505172e-04 1.8430461368e+00 -3.1922495496e+00 1.8430461368e+00 3.1922495496e+00 
91000 6.8626168310e+00 2.5902015827e-04 1.8430392101e+00 -3.1922375522e+00 1.8430392101e+00 3.1922375522e+00 
91100 6.8626168251e+00 2.6222287458e-04 1.8430321831e+00 -3.1922253811e+00 1.8430321831e+00 3.1922253811e+00 
91200 6.8626168190e+00 2.6493443408e-04 1.8430250692e+00 -3.1922130595e+00 1.8430250692e+00 3.1922130595e+00 
91300 6.8626168125e+00 2.6715690340e-04 1.8430178817e+00 -3.1922006104e+00 1.8430178817e+00 3.1922006104e+00 
91400 6.8626168059e+00 2.6889316714e-04 1.8430106339e+00 -3.1921880568e+00 1.8430106339e+00 3.1921880568e+00 
91500 6.8626167990e+00 2.7014691141e-04 1.8430033390e+00 -3.1921754216e+00 1.8430033390e+00 3.1921754216e+00 
91600 6.8626167921e+00 2.7092260622e-04 1.8429960100e+00 -3.1921627275e+00 1.8429960100e+00 3.1921627275e+00 
91700 6.8626167851e+00 2.7122548672e-04 1.8429886599e+00 -3.1921499968e+00 1.8429886599e+00 3.1921499968e+00 
91800 6.8626167782e+00 2.7106153348e-04 1.8429813016e+00 -3.1921372518e+00 1.8429813016e+00 3.1921372518e+00 
91900 6.8626167712e+00 2.7043745161e-04 1.8429739478e+00 -3.1921245145e+00 1.8429739478e+00 3.1921245145e+00 
92000 6.8626167644e+00 2.6936064907e-04 1.8429666108e+00 -3.1921118065e+00 1.8429666108e+00 3.1921118065e+00 
92100 6.8626167576e+00 2.6783921395e-04 1.8429593030e+00 -3.1920991491e+00 1.8429593030e+00 3.1920991491e+00 
92200 6.8626167511e+00 2.6588189095e-04 1.8429520364e+00 -3.1920865630e+00 1.8429520364e+00 3.1920865630e+00 
92300 6.8626167448e+00 2.6349805702e-04 1.8429448230e+00 -3.1920740689e+00 1.8429448230e+00 3.1920740689e+00 
92400 6.8626167388e+00 2.6069769632e-04 1.8429376741e+00 -3.1920616868e+00 1.8429376741e+00 3.1920616868e+00 
92500 6.8626167330e+00 2.5749137435e-04 1.8429306013e+00 -3.1920494362e+00 1.8429306013e+00 3.1920494362e+00 
92600 6.8626167276e+00 2.5389021160e-04 1.8429236153e+00 -3.1920373362e+00 1.8429236153e+00 3.1920373362e+00 
92700 6.8626167225e+00 2.4990585643e-04 1.8429167271e+00 -3.1920254055e+00 1.8429167271e+00 3.1920254055e+00 
92800 6.8626167179e+00 2.4555045759e-04 1.8429099469e+00 -3.1920136619e+00 1.8429099469e+00 3.1920136619e+00 
92900 6.8626167136e+00 2.4083663613e-04 1.8429032849e+00 -3.1920021229e+00 1.8429032849e+00 3.1920021229e+00 
93000 6.8626167097e+00 2.3577745698e-04 1.8428967507e+00 -3.1919908054e+00 1.8428967507e+00 3.1919908054e+00 
93100 6.8626167064e+00 2.3038640007e-04 1.8428903538e+00 -3.1919797256e+00 1.8428903538e+00 3.1919797256e+00 
93200 6.8626167034e+00 2.2467733126e-04 1.8428841031e+00 -3.1919688991e+00 1.8428841031e+00 3.1919688991e+00 
93300 6.8626167009e+00 2.1866447286e-04 1.8428780073e+00 -3.1919583409e+00 1.8428780073e+00 3.1919583409e+00 
93400 6.8626166989e+00 2.1236237410e-04 1.8428720747e+00 -3.1919480651e+00 1.8428720747e+00 3.1919480651e+00 
93500 6.8626166974e+00 2.0578588136e-04 1.8428663129e+00 -3.1919380856e+00 1.8428663129e+00 3.1919380856e+00 
93600 6.8626166963e+00 1.9895010830e-04 1.8428607296e+00 -3.1919284150e+00 1.8428607296e+00 3.1919284150e+00 
93700 6.8626166957e+00 1.9187040602e-04 1.8428553318e+00 -3.1919190656e+00 1.8428553318e+00 3.1919190656e+00 
93800 6.8626166956e+00 1.8456233317e-04 1.8428501260e+00 -3.1919100489e+00 1.8428501260e+00 3.1919100489e+00 
93900 6.8626166959e+00 1.7704162613e-04 1.8428451185e+00 -3.1919013756e+00 1.8428451185e+00 3.1919013756e+00 
94000 6.8626166967e+00 1.6932416936e-04 1.8428403150e+00 -3.1918930558e+00 1.8428403150e+00 3.1918930558e+00 
94100 6.8626166978e+00 1.6142596582e-04 1.8428357209e+00 -3.1918850985e+00 1.8428357209e+00 3.1918850985e+00 
94200 6.8626166994e+00 1.5336310766e-04 1.8428313410e+00 -3.1918775125e+00 1.8428313410e+00 3.1918775125e+00 
94300 6.8626167013e+00 1.4515174723e-04 1.8428271800e+00 -3.1918703053e+00 1.8428271800e+00 3.1918703053e+00 
94400 6.8626167037e+00 1.3680806823e-04 1.8428232417e+00 -3.1918634840e+00 1.8428232417e+00 3.1918634840e+00 
94500 6.8626167063e+00 1.2834825739e-04 1.8428195298e+00 -3.1918570547e+00 1.8428195298e+00 3.1918570547e+00 
94600 6.8626167092e+00 1.1978847643e-04 1.8428160474e+00 -3.1918510231e+00 1.8428160474e+00 3.1918510231e+00 
94700 6.8626167125e+00 1.1114483455e-04 1.8428127972e+00 -3.1918453937e+00 1.8428127972e+00 3.1918453937e+00 
94800 6.8626167159e+00 1.0243336129e-04 1.8428097816e+00 -3.1918401704e+00 1.8428097816e+00 3.1918401704e+00 
94900 6.8626167196e+00 9.3669980009e-05 1.8428070023e+00 -3.1918353566e+00 1.8428070023e+00 3.1918353566e+00 
95000 6.8626167235e+00 8.4870481867e-05 1.8428044608e+00 -3.1918309546e+00 1.8428044608e+00 3.1918309546e+00 
95100 6.8626167276e+00 7.6050500465e-05 1.8428021581e+00 -3.1918269661e+00 1.8428021581e+00 3.1918269661e+00 
95200 6.8626167318e+00 6.7225487018e-05 1.8428000946e+00 -3.1918233921e+00 1.8428000946e+00 3.1918233921e+00 
95300 6.8626167361e+00 6.0400902936e-05 1.8428000946e+00 -3.1918233921e+00 1.8428000946e+00 3.1918233921e+00 
95400 6.8626167405e+00 5.3353181892e-05 1.8428000946e+00 -3.1918233921e+00 1.8428000946e+00 3.1918233921e+00 
95500 6.8626167449e+00 4.6098043739e-05 1.8428000946e+00 -3.1918233921e+00 1.8428000946e+00 3.1918233921e+00 
95600 6.8626167493e+00 3.8651057067e-05 1.8428000946e+00 -3.1918233921e+00 1.8428000946e+00 3.1918233921e+00 
95700 6.8626167535e+00 3.1027623202e-05 1.8428000946e+00 -3.1918233921e+00 1.8428000946e+00 3.1918233921e+00 
95800 6.8626167577e+00 2.3242960821e-05 1.8428000946e+00 -3.1918233921e+00 1.8428000946e+00 3.1918233921e+00 
95900 6.8626167618e+00 1.5312091152e-05 1.8428000946e+00 -3.1918233921e+00 1.8428000946e+00 3.1918233921e+00 
96000 6.8626167658e+00 7.2498237523e-06 1.8428000946e+00 -3.1918233921e+00 1.8428000946e+00 3.1918233921e+00 
96100 6.8626167697e+00 -9.2925706906e-07 1.8428000946e+00 -3.1918233921e+00 1.8428000946e+00 3.1918233921e+00 
96200 6.8626167734e+00 -9.2108052459e-06 1.8428000946e+00 -3.1918233921e+00 1.8428000946e+00 3.1918233921e+00 
96300 6.8626167770e+00 -1.7580725331e-05 1.8428000946e+00 -3.1918233921e+00 1.8428000946e+00 3.1918233921e+00 
96400 6.8626167803e+00 -2.6025184250e-05 1.8428000946e+00 -3.1918233921e+00 1.8428000946e+00 3.1918233921e+00 
96500 6.8626167836e+00 -3.4530622456e-05 1.8428000946e+00 -3.1918233921e+00 1.8428000946e+00 3.1918233921e+00 
96600 6.8626167866e+00 -4.3083764447e-05 1.8428000946e+00 -3.1918233921e+00 1.8428000946e+00 3.1918233921e+00 
96700 6.8626167894e+00 -5.1671628681e-05 1.8428000946e+00 -3.1918233921e+00 1.8428000946e+00 3.1918233921e+00 
96800 6.8626167921e+00 -6.0281536870e-05 1.8428000946e+00 -3.1918233921e+00 1.8428000946e+00 3.1918233921e+00 
96900 6.8626167945e+00 -6.8901122663e-05 1.8428000946e+00 -3.1918233921e+00 1.8428000946e+00 3.1918233921e+00 
97000 6.8626167967e+00 -7.7518339715e-05 1.8428000946e+00 -3.1918233921e+00 1.8428000946e+00 3.1918233921e+00 
97100 6.8626167986e+00 -8.3826786690e-05 1.8428021979e+00 -3.1918270351e+00 1.8428021979e+00 3.1918270351e+00 
97200 6.8626168001e+00 -8.9908515099e-05 1.8428044723e+00 -3.1918309745e+00 1.8428044723e+00 3.1918309745e+00 
97300 6.8626168014e+00 -9.5755865974e-05 1.8428069118e+00 -3.1918351998e+00 1.8428069118e+00 3.1918351998e+00 
97400 6.8626168024e+00 -1.0136170707e-04 1.8428095099e+00 -3.1918396998e+00 1.8428095099e+00 3.1918396998e+00 
97500 6.8626168031e+00 -1.0671943708e-04 1.8428122601e+00 -3.1918444633e+00 1.8428122601e+00 3.1918444633e+00 
97600 6.8626168035e+00 -1.1182298880e-04 1.8428151557e+00 -3.1918494785e+00 1.8428151557e+00 3.1918494785e+00 
97700 6.8626168037e+00 -1.1666683143e-04 1.8428181897e+00 -3.1918547336e+00 1.8428181897e+00 3.1918547336e+00 
97800 6.8626168036e+00 -1.2124597197e-04 1.8428213551e+00 -3.1918602164e+00 1.8428213551e+00 3.1918602164e+00 
97900 6.8626168033e+00 -1.2555595566e-04 1.8428246448e+00 -3.1918659143e+00 1.8428246448e+00 3.1918659143e+00 
98000 6.8626168027e+00 -1.2959286549e-04 1.8428280514e+00 -3.1918718147e+00 1.8428280514e+00 3.1918718147e+00 
98100 6.8626168019e+00 -1.3335332093e-04 1.8428315676e+00 -3.1918779048e+00 1.8428315676e+00 3.1918779048e+00 
98200 6.8626168008e+00 -1.3683447566e-04 1.8428351857e+00 -3.1918841717e+00 1.8428351857e+00 3.1918841717e+00 
98300 6.8626167996e+00 -1.4003401452e-04 1.8428388983e+00 -3.1918906021e+00 1.8428388983e+00 3.1918906021e+00 
98400 6.8626167982e+00 -1.4295014954e-04 1.8428426978e+00 -3.1918971829e+00 1.8428426978e+00 3.1918971829e+00 
98500 6.8626167966e+00 -1.4558161525e-04 1.8428465763e+00 -3.1919039007e+00 1.8428465763e+00 3.1919039007e+00 
98600 6.8626167948e+00 -1.4792766310e-04 1.8428505262e+00 -3.1919107421e+00 1.8428505262e+00 3.1919107421e+00 
98700 6.8626167929e+00 -1.4998805506e-04 1.8428545397e+00 -3.1919176938e+00 1.8428545397e+00 3.1919176938e+00 
98800 6.8626167909e+00 -1.5176305657e-04 1.8428586092e+00 -3.1919247423e+00 1.8428586092e+00 3.1919247423e+00 
98900 6.8626167888e+00 -1.5325342864e-04 1.8428627268e+00 -3.1919318742e+00 1.8428627268e+00 3.1919318742e+00 
99000 6.8626167866e+00 -1.5446041929e-04 1.8428668848e+00 -3.1919390761e+00 1.8428668848e+00 3.1919390761e+00 
99100 6.8626167843e+00 -1.5538575419e-04 1.8428710756e+00 -3.1919463347e+00 1.8428710756e+00 3.1919463347e+00 
99200 6.8626167820e+00 -1.5603162682e-04 1.8428752915e+00 -3.1919536368e+00 1.8428752915e+00 3.1919536368e+00 
99300 6.8626167797e+00 -1.5640068773e-04 1.8428795248e+00 -3.1919609692e+00 1.8428795248e+00 3.1919609692e+00 
99400 6.8626167773e+00 -1.5649603343e-04 1.8428837682e+00 -3.1919683190e+00 1.8428837682e+00 3.1919683190e+00 
99500 6.8626167749e+00 -1.5632119447e-04 1.8428880142e+00 -3.1919756732e+00 1.8428880142e+00 3.1919756732e+00 
99600 6.8626167726e+00 -1.5588012310e-04 1.8428922554e+00 -3.1919830192e+00 1.8428922554e+00 3.1919830192e+00 
99700 6.8626167703e+00 -1.5517718034e-04 1.8428964846e+00 -3.1919903444e+00 1.8428964846e+00 3.1919903444e+00 
99800 6.8626167680e+00 -1.5421712250e-04 1.8429006947e+00 -3.1919976366e+00 1.8429006947e+00 3.1919976366e+00 
99900 6.8626167658e+00 -1.5300508729e-04 1.8429048788e+00 -3.1920048837e+00 1.8429048788e+00 3.1920048837e+00 
100000 6.8626167637e+00 -1.5154657948e-04 1.8429090300e+00 -3.1920120737e+00 1.8429090300e+00 3.1920120737e+00 
100100 6.8626167616e+00 -1.4984745603e-04 1.8429131416e+00 -3.1920191953e+00 1.8429131416e+00 3.1920191953e+00 
100200 6.8626167597e+00 -1.4791391101e-04 1.8429172071e+00 -3.1920262369e+00 1.8429172071e+00 3.1920262369e+00 
100300 6.8626167579e+00 -1.4575245996e-04 1.8429212202e+00 -3.1920331877e+00 1.8429212202e+00 3.1920331877e+00 
100400 6.8626167562e+00 -1.4336992412e-04 1.8429251746e+00 -3.1920400369e+00 1.8429251746e+00 3.1920400369e+00 
100500 6.8626167547e+00 -1.4077341420e-04 1.8429290643e+00 -3.1920467741e+00 1.8429290643e+00 3.1920467741e+00 
100600 6.8626167533e+00 -1.3797031402e-04 1.8429328836e+00 -3.1920533893e+00 1.8429328836e+00 3.1920533893e+00 
100700 6.8626167520e+00 -1.3496826379e-04 1.8429366268e+00 -3.1920598728e+00 1.8429366268e+00 3.1920598728e+00 
100800 6.8626167509e+00 -1.3177514329e-04 1.8429402886e+00 -3.1920662152e+00 1.8429402886e+00 3.1920662152e+00 
100900 6.8626167500e+00 -1.2839905481e-04 1.8429438637e+00 -3.1920724075e+00 1.8429438637e+00 3.1920724075e+00 
101000 6.8626167492e+00 -1.2484830604e-04 1.8429473473e+00 -3.1920784411e+00 1.8429473473e+00 3.1920784411e+00 
101100 6.8626167485e+00 -1.2113139270e-04 1.8429507345e+00 -3.1920843079e+00 1.8429507345e+00 3.1920843079e+00 
101200 6.8626167481e+00 -1.1725698128e-04 1.8429540208e+00 -3.1920900000e+00 1.8429540208e+00 3.1920900000e+00 
101300 6.8626167477e+00 -1.1323389157e-04 1.8429572020e+00 -3.1920955101e+00 1.8429572020e+00 3.1920955101e+00 
101400 6.8626167476e+00 -1.0907107926e-04 1.8429602741e+00 -3.1921008311e+00 1.8429602741e+00 3.1921008311e+00 
101500 6.8626167476e+00 -1.0477761857e-04 1.8429632332e+00 -3.1921059564e+00 1.8429632332e+00 3.1921059564e+00 
101600 6.8626167477e+00 -1.0036268480e-04 1.8429660759e+00 -3.1921108800e+00 1.8429660759e+00 3.1921108800e+00 
101700 6.8626167481e+00 -9.5835537124e-05 1.8429687987e+00 -3.1921155962e+00 1.8429687987e+00 3.1921155962e+00 
101800 6.8626167485e+00 -9.1205501346e-05 1.8429713988e+00 -3.1921200996e+00 1.8429713988e+00 3.1921200996e+00 
101900 6.8626167491e+00 -8.6481952850e-05 1.8429738732e+00 -3.1921243854e+00 1.8429738732e+00 3.1921243854e+00 
102000 6.8626167498e+00 -8.1674299680e-05 1.8429762194e+00 -3.1921284492e+00 1.8429762194e+00 3.1921284492e+00 
102100 6.8626167506e+00 -7.6791965817e-05 1.8429784353e+00 -3.1921322871e+00 1.8429784353e+00 3.1921322871e+00 
102200 6.8626167515e+00 -7.1844374649e-05 1.8429805186e+00 -3.1921358956e+00 1.8429805186e+00 3.1921358956e+00 
102300 6.8626167526e+00 -6.6840932675e-05 1.8429824678e+00 -3.1921392716e+00 1.8429824678e+00 3.1921392716e+00 
102400 6.8626167538e+00 -6.3768648215e-05 1.8429824678e+00 -3.1921392716e+00 1.8429824678e+00 3.1921392716e+00 
102500 6.8626167551e+00 -6.0522346437e-05 1.8429824678e+00 -3.1921392716e+00 1.8429824678e+00 3.1921392716e+00 
102600 6.8626167565e+00 -5.7111094011e-05 1.8429824678e+00 -3.1921392716e+00 1.8429824678e+00 3.1921392716e+00 
102700 6.8626167578e+00 -5.3543930931e-05 1.8429824678e+00 -3.1921392716e+00 1.8429824678e+00 3.1921392716e+00 
102800 6.8626167592e+00 -4.9829859729e-05 1.8429824678e+00 -3.1921392716e+00 1.8429824678e+00 3.1921392716e+00 
102900 6.8626167606e+00 -4.5977835029e-05 1.8429824678e+00 -3.1921392716e+00 1.8429824678e+00 3.1921392716e+00 
103000 6.8626167621e+00 -4.1996753366e-05 1.8429824678e+00 -3.1921392716e+00 1.8429824678e+00 3.1921392716e+00 
103100 6.8626167635e+00 -3.7895443337e-05 1.8429824678e+00 -3.1921392716e+00 1.8429824678e+00 3.1921392716e+00 
103200 6.8626167649e+00 -3.3682656055e-05 1.8429824678e+00 -3.1921392716e+00 1.8429824678e+00 3.1921392716e+00 
103300 6.8626167663e+00 -2.9367055917e-05 1.8429824678e+00 -3.1921392716e+00 1.8429824678e+00 3.1921392716e+00 
103400 6.8626167676e+00 -2.4957211738e-05 1.8429824678e+00 -3.1921392716e+00 1.8429824678e+00 3.1921392716e+00 
103500 6.8626167690e+00 -2.0461588151e-05 1.8429824678e+00 -3.1921392716e+00 1.8429824678e+00 3.1921392716e+00 
103600 6.8626167703e+00 -1.5888537396e-05 1.8429824678e+00 -3.1921392716e+00 1.8429824678e+00 3.1921392716e+00 
103700 6.8626167715e+00 -1.1246291415e-05 1.8429824678e+00 -3.1921392716e+00 1.8429824678e+00 3.1921392716e+00 
103800 6.8626167728e+00 -6.5429543038e-06 1.8429824678e+00 -3.1921392716e+00 1.8429824678e+00 3.1921392716e+00 
103900 6.8626167739e+00 -1.7864950863e-06 1.8429824678e+00 -3.1921392716e+00 1.8429824678e+00 3.1921392716e+00 
104000 6.8626167751e+00 3.0152591537e-06 1.8429824678e+00 -3.1921392716e+00 1.8429824678e+00 3.1921392716e+00 
104100 6.8626167761e+00 7.8546297950e-06 1.8429824678e+00 -3.1921392716e+00 1.8429824678e+00 3.1921392716e+00 
104200 6.8626167772e+00 1.2724092862e-05 1.8429824678e+00 -3.1921392716e+00 1.8429824678e+00 3.1921392716e+00 
104300 6.8626167781e+00 1.7616284866e-05 1.8429824678e+00 -3.1921392716e+00 1.8429824678e+00 3.1921392716e+00 
104400 6.8626167790e+00 2.2524008288e-05 1.8429824678e+00 -3.1921392716e+00 1.8429824678e+00 3.1921392716e+00 
104500 6.8626167798e+00 2.7440236728e-05 1.8429824678e+00 -3.1921392716e+00 1.8429824678e+00 3.1921392716e+00 
104600 6.8626167806e+00 3.2358119711e-05 1.8429824678e+00 -3.1921392716e+00 1.8429824678e+00 3.1921392716e+00 
104700 6.8626167813e+00 3.7270987129e-05 1.8429824678e+00 -3.1921392716e+00 1.8429824678e+00 3.1921392716e+00 
104800 6.8626167819e+00 4.2172353381e-05 1.8429824678e+00 -3.1921392716e+00 1.8429824678e+00 3.1921392716e+00 
104900 6.8626167825e+00 4.7055921142e-05 1.8429824678e+00 -3.1921392716e+00 1.8429824678e+00 3.1921392716e+00 
105000 6.8626167830e+00 5.1915584803e-05 1.8429824678e+00 -3.1921392716e+00 1.8429824678e+00 3.1921392716e+00 
105100 6.8626167834e+00 5.6745433594e-05 1.8429824678e+00 -3.1921392716e+00 1.8429824678e+00 3.1921392716e+00 
105200 6.8626167838e+00 6.1539754369e-05 1.8429824678e+00 -3.1921392716e+00 1.8429824678e+00 3.1921392716e+00 
105300 6.8626167841e+00 6.6293034056e-05 1.8429824678e+00 -3.1921392716e+00 1.8429824678e+00 3.1921392716e+00 
105400 6.8626167844e+00 7.0999961800e-05 1.8429824678e+00 -3.1921392716e+00 1.8429824678e+00 3.1921392716e+00 
105500 6.8626167844e+00 7.3554523015e-05 1.8429805415e+00 -3.1921359353e+00 1.8429805415e+00 3.1921359353e+00 
105600 6.8626167843e+00 7.5963787463e-05 1.8429785460e+00 -3.1921324790e+00 1.8429785460e+00 3.1921324790e+00 
105700 6.8626167842e+00 7.8224911835e-05 1.8429764851e+00 -3.1921289094e+00 1.8429764851e+00 3.1921289094e+00 
105800 6.8626167840e+00 8.0335380199e-05 1.8429743629e+00 -3.1921252335e+00 1.8429743629e+00 3.1921252335e+00 
105900 6.8626167837e+00 8.2293002316e-05 1.8429721834e+00 -3.1921214585e+00 1.8429721834e+00 3.1921214585e+00 
106000 6.8626167833e+00 8.4095911460e-05 1.8429699508e+00 -3.1921175915e+00 1.8429699508e+00 3.1921175915e+00 
106100 6.8626167829e+00 8.5742561795e-05 1.8429676692e+00 -3.1921136398e+00 1.8429676692e+00 3.1921136398e+00 
106200 6.8626167824e+00 8.7231725285e-05 1.8429653430e+00 -3.1921096107e+00 1.8429653430e+00 3.1921096107e+00 
106300 6.8626167819e+00 8.8562488142e-05 1.8429629764e+00 -3.1921055116e+00 1.8429629764e+00 3.1921055116e+00 
106400 6.8626167813e+00 8.9734246866e-05 1.8429605737e+00 -3.1921013500e+00 1.8429605737e+00 3.1921013500e+00 
106500 6.8626167807e+00 9.0746703828e-05 1.8429581392e+00 -3.1920971333e+00 1.8429581392e+00 3.1920971333e+00 
106600 6.8626167800e+00 9.1599862474e-05 1.8429556772e+00 -3.1920928690e+00 1.8429556772e+00 3.1920928690e+00 
106700 6.8626167793e+00 9.2294022081e-05 1.8429531920e+00 -3.1920885646e+00 1.8429531920e+00 3.1920885646e+00 
106800 6.8626167786e+00 9.2829772146e-05 1.8429506881e+00 -3.1920842276e+00 1.8429506881e+00 3.1920842276e+00 
106900 6.8626167778e+00 9.3207986390e-05 1.8429481696e+00 -3.1920798654e+00 1.8429481696e+00 3.1920798654e+00 
107000 6.8626167770e+00 9.3429816414e-05 1.8429456408e+00 -3.1920754854e+00 1.8429456408e+00 3.1920754854e+00 
107100 6.8626167763e+00 9.3496684977e-05 1.8429431060e+00 -3.1920710950e+00 1.8429431060e+00 3.1920710950e+00 
107200 6.8626167755e+00 9.3410278947e-05 1.8429405694e+00 -3.1920667015e+00 1.8429405694e+00 3.1920667015e+00 
107300 6.8626167747e+00 9.3172541946e-05 1.8429380351e+00 -3.1920623120e+00 1.8429380351e+00 3.1920623120e+00 
107400 6.8626167739e+00 9.2785666679e-05 1.8429355073e+00 -3.1920579337e+00 1.8429355073e+00 3.1920579337e+00 
107500 6.8626167732e+00 9.2252086968e-05 1.8429329900e+00 -3.1920535735e+00 1.8429329900e+00 3.1920535735e+00 
107600 6.8626167724e+00 9.1574469507e-05 1.8429304871e+00 -3.1920492385e+00 1.8429304871e+00 3.1920492385e+00 
107700 6.8626167717e+00 9.0755705392e-05 1.8429280026e+00 -3.1920449352e+00 1.8429280026e+00 3.1920449352e+00 
107800 6.8626167710e+00 8.9798901390e-05 1.8429255403e+00 -3.1920406704e+00 1.8429255403e+00 3.1920406704e+00 
107900 6.8626167704e+00 8.8707370974e-05 1.8429231040e+00 -3.1920364506e+00 1.8429231040e+00 3.1920364506e+00 
108000 6.8626167698e+00 8.7484625170e-05 1.8429206973e+00 -3.1920322821e+00 1.8429206973e+00 3.1920322821e+00 
108100 6.8626167692e+00 8.6134363216e-05 1.8429183238e+00 -3.1920281710e+00 1.8429183238e+00 3.1920281710e+00 
108200 6.8626167687e+00 8.4660463056e-05 1.8429159869e+00 -3.1920241234e+00 1.8429159869e+00 3.1920241234e+00 
108300 6.8626167682e+00 8.3066971648e-05 1.8429136900e+00 -3.1920201450e+00 1.8429136900e+00 3.1920201450e+00 
108400 6.8626167677e+00 8.1358095205e-05 1.8429114363e+00 -3.1920162415e+00 1.8429114363e+00 3.1920162415e+00 
108500 6.8626167673e+00 7.9538189235e-05 1.8429092290e+00 -3.1920124183e+00 1.8429092290e+00 3.1920124183e+00 
108600 6.8626167670e+00 7.7611748548e-05 1.8429070710e+00 -3.1920086806e+00 1.8429070710e+00 3.1920086806e+00 
108700 6.8626167667e+00 7.5583397156e-05 1.8429049653e+00 -3.1920050335e+00 1.8429049653e+00 3.1920050335e+00 
108800 6.8626167664e+00 7.3457878114e-05 1.8429029147e+00 -3.1920014816e+00 1.8429029147e+00 3.1920014816e+00 
108900 6.8626167663e+00 7.1240043307e-05 1.8429009217e+00 -3.1919980297e+00 1.8429009217e+00 3.1919980297e+00 
109000 6.8626167661e+00 6.8934843232e-05 1.8428989889e+00 -3.1919946819e+00 1.8428989889e+00 3.1919946819e+00 
109100 6.8626167662e+00 6.8587588969e-05 1.8428989889e+00 -3.1919946819e+00 1.8428989889e+00 3.1919946819e+00 
109200 6.8626167663e+00 6.8105401811e-05 1.8428989889e+00 -3.1919946819e+00 1.8428989889e+00 3.1919946819e+00 
109300 6.8626167664e+00 6.7492642722e-05 1.8428989889e+00 -3.1919946819e+00 1.8428989889e+00 3.1919946819e+00 
109400 6.8626167666e+00 6.6753726550e-05 1.8428989889e+00 -3.1919946819e+00 1.8428989889e+00 3.1919946819e+00 
109500 6.8626167668e+00 6.5893115145e-05 1.8428989889e+00 -3.1919946819e+00 1.8428989889e+00 3.1919946819e+00 
109600 6.8626167670e+00 6.4915310574e-05 1.8428989889e+00 -3.1919946819e+00 1.8428989889e+00 3.1919946819e+00 
109700 6.8626167673e+00 6.3824848428e-05 1.8428989889e+00 -3.1919946819e+00 1.8428989889e+00 3.1919946819e+00 
109800 6.8626167675e+00 6.2626291263e-05 1.8428989889e+00 -3.1919946819e+00 1.8428989889e+00 3.1919946819e+00 
109900 6.8626167678e+00 6.1324222107e-05 1.8428989889e+00 -3.1919946819e+00 1.8428989889e+00 3.1919946819e+00 
110000 6.8626167682e+00 5.9923238161e-05 1.8428989889e+00 -3.1919946819e+00 1.8428989889e+00 3.1919946819e+00 
110100 6.8626167685e+00 5.8427944554e-05 1.8428989889e+00 -3.1919946819e+00 1.8428989889e+00 3.1919946819e+00 
110200 6.8626167688e+00 5.6842948290e-05 1.8428989889e+00 -3.1919946819e+00 1.8428989889e+00 3.1919946819e+00 
110300 6.8626167692e+00 5.5172852291e-05 1.8428989889e+00 -3.1919946819e+00 1.8428989889e+00 3.1919946819e+00 
110400 6.8626167696e+00 5.3422249621e-05 1.8428989889e+00 -3.1919946819e+00 1.8428989889e+00 3.1919946819e+00 
110500 6.8626167699e+00 5.1595717798e-05 1.8428989889e+00 -3.1919946819e+00 1.8428989889e+00 3.1919946819e+00 
110600 6.8626167703e+00 4.9697813337e-05 1.8428989889e+00 -3.1919946819e+00 1.8428989889e+00 3.1919946819e+00 
110700 6.8626167707e+00 4.7733066376e-05 1.8428989889e+00 -3.1919946819e+00 1.8428989889e+00 3.1919946819e+00 
110800 6.8626167711e+00 4.5705975507e-05 1.8428989889e+00 -3.1919946819e+00 1.8428989889e+00 3.1919946819e+00 
110900 6.8626167715e+00 4.3621002743e-05 1.8428989889e+00 -3.1919946819e+00 1.8428989889e+00 3.1919946819e+00 
111000 6.8626167718e+00 4.1482568667e-05 1.8428989889e+00 -3.1919946819e+00 1.8428989889e+00 3.1919946819e+00 
111100 6.8626167722e+00 3.9295047730e-05 1.8428989889e+00 -3.1919946819e+00 1.8428989889e+00 3.1919946819e+00 
111200 6.8626167726e+00 3.7062763743e-05 1.8428989889e+00 -3.1919946819e+00 1.8428989889e+00 3.1919946819e+00 
111300 6.8626167729e+00 3.4789985512e-05 1.8428989889e+00 -3.1919946819e+00 1.8428989889e+00 3.1919946819e+00 
111400 6.8626167733e+00 3.2480922679e-05 1.8428989889e+00 -3.1919946819e+00 1.8428989889e+00 3.1919946819e+00 
111500 6.8626167736e+00 3.0139721717e-05 1.8428989889e+00 -3.1919946819e+00 1.8428989889e+00 3.1919946819e+00 
111600 6.8626167739e+00 2.7770462091e-05 1.8428989889e+00 -3.1919946819e+00 1.8428989889e+00 3.1919946819e+00 
111700 6.8626167742e+00 2.5377152648e-05 1.8428989889e+00 -3.1919946819e+00 1.8428989889e+00 3.1919946819e+00 
111800 6.8626167745e+00 2.2963728118e-05 1.8428989889e+00 -3.1919946819e+00 1.8428989889e+00 3.1919946819e+00 
111900 6.8626167748e+00 2.0534045846e-05 1.8428989889e+00 -3.1919946819e+00 1.8428989889e+00 3.1919946819e+00 
112000 6.8626167750e+00 1.8091882674e-05 1.8428989889e+00 -3.1919946819e+00 1.8428989889e+00 3.1919946819e+00 
112100 6.8626167753e+00 1.5640932026e-05 1.8428989889e+00 -3.1919946819e+00 1.8428989889e+00 3.1919946819e+00 
112200 6.8626167755e+00 1.3184801139e-05 1.8428989889e+00 -3.1919946819e+00 1.8428989889e+00 3.1919946819e+00 
112300 6.8626167757e+00 1.0727008518e-05 1.8428989889e+00 -3.1919946819e+00 1.8428989889e+00 3.1919946819e+00 
112400 6.8626167759e+00 8.2709815329e-06 1.8428989889e+00 -3.1919946819e+00 1.8428989889e+00 3.1919946819e+00 
112500 6.8626167761e+00 5.8200542072e-06 1.8428989889e+00 -3.1919946819e+00 1.8428989889e+00 3.1919946819e+00 
112600 6.8626167762e+00 3.3774651667e-06 1.8428989889e+00 -3.1919946819e+00 1.8428989889e+00 3.1919946819e+00 
112700 6.8626167763e+00 9.4635580051e-07 1.8428989889e+00 -3.1919946819e+00 1.8428989889e+00 3.1919946819e+00 
112800 6.8626167765e+00 -1.4702314465e-06 1.8428989889e+00 -3.1919946819e+00 1.8428989889e+00 3.1919946819e+00 
112900 6.8626167766e+00 -3.8693545839e-06 1.8428989889e+00 -3.1919946819e+00 1.8428989889e+00 3.1919946819e+00 
113000 6.8626167767e+00 -6.2481734275e-06 1.8428989889e+00 -3.1919946819e+00 1.8428989889e+00 3.1919946819e+00 
113100 6.8626167767e+00 -8.6039507904e-06 1.8428989889e+00 -3.1919946819e+00 1.8428989889e+00 3.1919946819e+00 
113200 6.8626167768e+00 -1.0934053476e-05 1.8428989889e+00 -3.1919946819e+00 1.8428989889e+00 3.1919946819e+00 
113300 6.8626167768e+00 -1.3235953154e-05 1.8428989889e+00 -3.1919946819e+00 1.8428989889e+00 3.1919946819e+00 
113400 6.8626167768e+00 -1.5507227043e-05 1.8428989889e+00 -3.1919946819e+00 1.8428989889e+00 3.1919946819e+00 
113500 6.8626167769e+00 -1.7745558448e-05 1.8428989889e+00 -3.1919946819e+00 1.8428989889e+00 3.1919946819e+00 
113600 6.8626167769e+00 -1.9948737154e-05 1.8428989889e+00 -3.1919946819e+00 1.8428989889e+00 3.1919946819e+00 
113700 6.8626167768e+00 -2.2114659640e-05 1.8428989889e+00 -3.1919946819e+00 1.8428989889e+00 3.1919946819e+00 
113800 6.8626167768e+00 -2.4241329181e-05 1.8428989889e+00 -3.1919946819e+00 1.8428989889e+00 3.1919946819e+00 
113900 6.8626167768e+00 -2.6326855768e-05 1.8428989889e+00 -3.1919946819e+00 1.8428989889e+00 3.1919946819e+00 
114000 6.8626167767e+00 -2.8369455931e-05 1.8428989889e+00 -3.1919946819e+00 1.8428989889e+00 3.1919946819e+00 
114100 6.8626167767e+00 -3.0367452375e-05 1.8428989889e+00 -3.1919946819e+00 1.8428989889e+00 3.1919946819e+00 
114200 6.8626167766e+00 -3.2319273527e-05 1.8428989889e+00 -3.1919946819e+00 1.8428989889e+00 3.1919946819e+00 
114300 6.8626167766e+00 -3.4223452922e-05 1.8428989889e+00 -3.1919946819e+00 1.8428989889e+00 3.1919946819e+00 
114400 6.8626167765e+00 -3.6078628484e-05 1.8428989889e+00 -3.1919946819e+00 1.8428989889e+00 3.1919946819e+00 
114500 6.8626167764e+00 -3.7883541667e-05 1.8428989889e+00 -3.1919946819e+00 1.8428989889e+00 3.1919946819e+00 
114600 6.8626167763e+00 -3.9637036495e-05 1.8428989889e+00 -3.1919946819e+00 1.8428989889e+00 3.1919946819e+00 
114700 6.8626167762e+00 -4.1338058471e-05 1.8428989889e+00 -3.1919946819e+00 1.8428989889e+00 3.1919946819e+00 
114800 6.8626167761e+00 -4.2985653399e-05 1.8428989889e+00 -3.1919946819e+00 1.8428989889e+00 3.1919946819e+00 
114900 6.8626167761e+00 -4.4578966072e-05 1.8428989889e+00 -3.1919946819e+00 1.8428989889e+00 3.1919946819e+00 
115000 6.8626167760e+00 -4.6117238894e-05 1.8428989889e+00 -3.1919946819e+00 1.8428989889e+00 3.1919946819e+00 
115100 6.8626167759e+00 -4.7599810360e-05 1.8428989889e+00 -3.1919946819e+00 1.8428989889e+00 3.1919946819e+00 
115200 6.8626167758e+00 -4.9026113490e-05 1.8428989889e+00 -3.1919946819e+00 1.8428989889e+00 3.1919946819e+00 
115300 6.8626167757e+00 -5.0395674140e-05 1.8428989889e+00 -3.1919946819e+00 1.8428989889e+00 3.1919946819e+00 
115400 6.8626167756e+00 -5.1708109256e-05 1.8428989889e+00 -3.1919946819e+00 1.8428989889e+00 3.1919946819e+00 
115500 6.8626167755e+00 -5.2963125026e-05 1.8428989889e+00 -3.1919946819e+00 1.8428989889e+00 3.1919946819e+00 
115600 6.8626167754e+00 -5.4160514972e-05 1.8428989889e+00 -3.1919946819e+00 1.8428989889e+00 3.1919946819e+00 
115700 6.8626167753e+00 -5.5300157961e-05 1.8428989889e+00 -3.1919946819e+00 1.8428989889e+00 3.1919946819e+00 
115800 6.8626167752e+00 -5.6382016156e-05 1.8428989889e+00 -3.1919946819e+00 1.8428989889e+00 3.1919946819e+00 
115900 6.8626167751e+00 -5.7406132916e-05 1.8428989889e+00 -3.1919946819e+00 1.8428989889e+00 3.1919946819e+00 
116000 6.8626167751e+00 -5.8372630619e-05 1.8428989889e+00 -3.1919946819e+00 1.8428989889e+00 3.1919946819e+00 
116100 6.8626167750e+00 -5.9281708433e-05 1.8428989889e+00 -3.1919946819e+00 1.8428989889e+00 3.1919946819e+00 
116200 6.8626167749e+00 -6.0133640056e-05 1.8428989889e+00 -3.1919946819e+00 1.8428989889e+00 3.1919946819e+00 
116300 6.8626167749e+00 -6.0928771403e-05 1.8428989889e+00 -3.1919946819e+00 1.8428989889e+00 3.1919946819e+00 
116400 6.8626167748e+00 -6.1667518242e-05 1.8428989889e+00 -3.1919946819e+00 1.8428989889e+00 3.1919946819e+00 
116500 6.8626167747e+00 -6.2350363809e-05 1.8428989889e+00 -3.1919946819e+00 1.8428989889e+00 3.1919946819e+00 
116600 6.8626167747e+00 -6.2977856385e-05 1.8428989889e+00 -3.1919946819e+00 1.8428989889e+00 3.1919946819e+00 
116700 6.8626167746e+00 -6.3550606844e-05 1.8428989889e+00 -3.1919946819e+00 1.8428989889e+00 3.1919946819e+00 
116800 6.8626167746e+00 -6.4069286177e-05 1.8428989889e+00 -3.1919946819e+00 1.8428989889e+00 3.1919946819e+00 
116900 6.8626167746e+00 -6.4534623008e-05 1.8428989889e+00 -3.1919946819e+00 1.8428989889e+00 3.1919946819e+00 
117000 6.8626167745e+00 -6.4947401077e-05 1.8428989889e+00 -3.1919946819e+00 1.8428989889e+00 3.1919946819e+00 
117100 6.8626167745e+00 -6.5308456708e-05 1.8428989889e+00 -3.1919946819e+00 1.8428989889e+00 3.1919946819e+00 
117200 6.8626167745e+00 -6.5618676303e-05 1.8428989889e+00 -3.1919946819e+00 1.8428989889e+00 3.1919946819e+00 
117300 6.8626167745e+00 -6.5878993782e-05 1.8428989889e+00 -3.1919946819e+00 1.8428989889e+00 3.1919946819e+00 
117400 6.8626167745e+00 -6.6090388078e-05 1.8428989889e+00 -3.1919946819e+00 1.8428989889e+00 3.1919946819e+00 
117500 6.8626167745e+00 -6.6253880570e-05 1.8428989889e+00 -3.1919946819e+00 1.8428989889e+00 3.1919946819e+00 
117600 6.8626167745e+00 -6.6370532575e-05 1.8428989889e+00 -3.1919946819e+00 1.8428989889e+00 3.1919946819e+00 
117700 6.8626167745e+00 -6.6441442830e-05 1.8428989889e+00 -3.1919946819e+00 1.8428989889e+00 3.1919946819e+00 
117800 6.8626167745e+00 -6.6467744978e-05 1.8428989889e+00 -3.1919946819e+00 1.8428989889e+00 3.1919946819e+00 
117900 6.8626167745e+00 -6.6450605098e-05 1.8428989889e+00 -3.1919946819e+00 1.8428989889e+00 3.1919946819e+00 
118000 6.8626167745e+00 -6.6391219205e-05 1.8428989889e+00 -3.1919946819e+00 1.8428989889e+00 3.1919946819e+00 
118100 6.8626167745e+00 -6.6290810828e-05 1.8428989889e+00 -3.1919946819e+00 1.8428989889e+00 3.1919946819e+00 
118200 6.8626167746e+00 -6.6150628556e-05 1.8428989889e+00 -3.1919946819e+00 1.8428989889e+00 3.1919946819e+00 
118300 6.8626167746e+00 -6.5971943672e-05 1.8428989889e+00 -3.1919946819e+00 1.8428989889e+00 3.1919946819e+00 
118400 6.8626167746e+00 -6.5756047764e-05 1.8428989889e+00 -3.1919946819e+00 1.8428989889e+00 3.1919946819e+00 
118500 6.8626167747e+00 -6.5504250394e-05 1.8428989889e+00 -3.1919946819e+00 1.8428989889e+00 3.1919946819e+00 
118600 6.8626167747e+00 -6.5217876806e-05 1.8428989889e+00 -3.1919946819e+00 1.8428989889e+00 3.1919946819e+00 
118700 6.8626167747e+00 -6.4898265643e-05 1.8428989889e+00 -3.1919946819e+00 1.8428989889e+00 3.1919946819e+00 
118800 6.8626167748e+00 -6.4546766743e-05 1.8428989889e+00 -3.1919946819e+00 1.8428989889e+00 3.1919946819e+00 
118900 6.8626167748e+00 -6.4164738947e-05 1.8428989889e+00 -3.1919946819e+00 1.8428989889e+00 3.1919946819e+00 
119000 6.8626167748e+00 -6.3753547957e-05 1.8428989889e+00 -3.1919946819e+00 1.8428989889e+00 3.1919946819e+00 
119100 6.8626167749e+00 -6.3314564247e-05 1.8428989889e+00 -3.1919946819e+00 1.8428989889e+00 3.1919946819e+00 
119200 6.8626167749e+00 -6.2849161014e-05 1.8428989889e+00 -3.1919946819e+00 1.8428989889e+00 3.1919946819e+00 
119300 6.8626167750e+00 -6.2358712168e-05 1.8428989889e+00 -3.1919946819e+00 1.8428989889e+00 3.1919946819e+00 
119400 6.8626167750e+00 -6.1844590412e-05 1.8428989889e+00 -3.1919946819e+00 1.8428989889e+00 3.1919946819e+00 
119500 6.8626167751e+00 -6.1308165317e-05 1.8428989889e+00 -3.1919946819e+00 1.8428989889e+00 3.1919946819e+00 
119600 6.8626167751e+00 -6.0750801488e-05 1.8428989889e+00 -3.1919946819e+00 1.8428989889e+00 3.1919946819e+00 
119700 6.8626167751e+00 -6.0173856789e-05 1.8428989889e+00 -3.1919946819e+00 1.8428989889e+00 3.1919946819e+00 
119800 6.8626167752e+00 -5.9578680584e-05 1.8428989889e+00 -3.1919946819e+00 1.8428989889e+00 3.1919946819e+00 
119900 6.8626167752e+00 -5.8966612076e-05 1.8428989889e+00 -3.1919946819e+00 1.8428989889e+00 3.1919946819e+00 
120000 6.8626167753e+00 -5.8338978686e-05 1.8428989889e+00 -3.1919946819e+00 1.8428989889e+00 3.1919946819e+00 
120100 6.8626167753e+00 -5.8096670695e-05 1.8428989889e+00 -3.1919946819e+00 1.8428989889e+00 3.1919946819e+00 
120100 6.8626167753e+00 -5.8096670695e-05 1.8428989889e+00 -3.1919946819e+00 1.8428989889e+00 3.1919946819e+00 
