# step Hamiltonian StressXX CellTensor1 CellTensor2 CellTensor3 CellTensor4 
0 5.5203915581e+00 -5.0775395557e-04 1.6087831444e+00 -2.7864941444e+00 1.6087831444e+00 2.7864941444e+00 
100 5.5226130869e+00 -1.7393408324e-03 1.6087831444e+00 -2.7864941444e+00 1.6087831444e+00 2.7864941444e+00 
200 5.5246729944e+00 -2.9555902529e-03 1.6088372023e+00 -2.7865877755e+00 1.6088372023e+00 2.7865877755e+00 
300 5.5265754277e+00 -4.1686354113e-03 1.6089290580e+00 -2.7867468743e+00 1.6089290580e+00 2.7867468743e+00 
400 5.5283249331e+00 -5.3728080398e-03 1.6090586067e+00 -2.7869712591e+00 1.6090586067e+00 2.7869712591e+00 
500 5.5299264316e+00 -6.5628297673e-03 1.6092255646e+00 -2.7872604387e+00 1.6092255646e+00 2.7872604387e+00 
600 5.5313851809e+00 -7.7337976399e-03 1.6094294816e+00 -2.7876136333e+00 1.6094294816e+00 2.7876136333e+00 
700 5.5327067353e+00 -8.8811704407e-03 1.6096697527e+00 -2.7880297951e+00 1.6096697527e+00 2.7880297951e+00 
800 5.5338969038e+00 -1.0000755698e-02 1.6099456299e+00 -2.7885076285e+00 1.6099456299e+00 2.7885076285e+00 
900 5.5349617081e+00 -1.1088697284e-02 1.6102562329e+00 -2.7890456086e+00 1.6102562329e+00 2.7890456086e+00 
1000 5.5359073396e+00 -1.2141463537e-02 1.6106005598e+00 -2.7896420003e+00 1.6106005598e+00 2.7896420003e+00 
1100 5.5367401181e+00 -1.3155835822e-02 1.6109774980e+00 -2.7902948764e+00 1.6109774980e+00 2.7902948764e+00 
1200 5.5374664499e+00 -1.4128897499e-02 1.6113858337e+00 -2.7910021345e+00 1.6113858337e+00 2.7910021345e+00 
1300 5.5380927884e+00 -1.5058023232e-02 1.6118242618e+00 -2.7917615144e+00 1.6118242618e+00 2.7917615144e+00 
1400 5.5386255962e+00 -1.5940868608e-02 1.6122913956e+00 -2.7925706138e+00 1.6122913956e+00 2.7925706138e+00 
1500 5.5390713085e+00 -1.6775360030e-02 1.6127857753e+00 -2.7934269045e+00 1.6127857753e+00 2.7934269045e+00 
1600 5.5394362995e+00 -1.7559684857e-02 1.6133058773e+00 -2.7943277476e+00 1.6133058773e+00 2.7943277476e+00 
1700 5.5397268509e+00 -1.8292281753e-02 1.6138501222e+00 -2.7952704075e+00 1.6138501222e+00 2.7952704075e+00 
1800 5.5399491224e+00 -1.8971831246e-02 1.6144168834e+00 -2.7962520667e+00 1.6144168834e+00 2.7962520667e+00 
1900 5.5401091259e+00 -1.9597246451e-02 1.6150044944e+00 -2.7972698387e+00 1.6150044944e+00 2.7972698387e+00 
2000 5.5402127012e+00 -2.0167663958e-02 1.6156112566e+00 -2.7983207816e+00 1.6156112566e+00 2.7983207816e+00 
2100 5.5402654951e+00 -2.0682434869e-02 1.6162354464e+00 -2.7994019101e+00 1.6162354464e+00 2.7994019101e+00 
2200 5.5402729427e+00 -2.1141115962e-02 1.6168753222e+00 -2.8005102075e+00 1.6168753222e+00 2.8005102075e+00 
2300 5.5402402520e+00 -2.1543460985e-02 1.6175291308e+00 -2.8016426373e+00 1.6175291308e+00 2.8016426373e+00 
2400 5.5401723901e+00 -2.1889412050e-02 1.6181951138e+00 -2.8027961537e+00 1.6181951138e+00 2.8027961537e+00 
2500 5.5400740729e+00 -2.2179091152e-02 1.6188715136e+00 -2.8039677125e+00 1.6188715136e+00 2.8039677125e+00 
2600 5.5399497563e+00 -2.2412791769e-02 1.6195565789e+00 -2.8051542804e+00 1.6195565789e+00 2.8051542804e+00 
2700 5.5398036303e+00 -2.2590970563e-02 1.6202485704e+00 -2.8063528448e+00 1.6202485704e+00 2.8063528448e+00 
2800 5.5396396150e+00 -2.2714239172e-02 1.6209457656e+00 -2.8075604223e+00 1.6209457656e+00 2.8075604223e+00 
2900 5.5394613587e+00 -2.2783356080e-02 1.6216464637e+00 -2.8087740671e+00 1.6216464637e+00 2.8087740671e+00 
3000 5.5392722379e+00 -2.2799218576e-02 1.6223489905e+00 -2.8099908791e+00 1.6223489905e+00 2.8099908791e+00 
3100 5.5390753588e+00 -2.2762854784e-02 1.6230517019e+00 -2.8112080110e+00 1.6230517019e+00 2.8112080110e+00 
3200 5.5388735613e+00 -2.2675415786e-02 1.6237529887e+00 -2.8124226753e+00 1.6237529887e+00 2.8124226753e+00 
3300 5.5386694229e+00 -2.2538167804e-02 1.6244512796e+00 -2.8136321507e+00 1.6244512796e+00 2.8136321507e+00 
3400 5.5384652659e+00 -2.2352484479e-02 1.6251450453e+00 -2.8148337881e+00 1.6251450453e+00 2.8148337881e+00 
3500 5.5382631638e+00 -2.2119839209e-02 1.6258328012e+00 -2.8160250162e+00 1.6258328012e+00 2.8160250162e+00 
3600 5.5380649503e+00 -2.1841797589e-02 1.6265131104e+00 -2.8172033464e+00 1.6265131104e+00 2.8172033464e+00 
3700 5.5378722285e+00 -2.1520009910e-02 1.6271845867e+00 -2.8183663774e+00 1.6271845867e+00 2.8183663774e+00 
3800 5.5376863808e+00 -2.1156203760e-02 1.6278458966e+00 -2.8195117998e+00 1.6278458966e+00 2.8195117998e+00 
3900 5.5375085798e+00 -2.0752176704e-02 1.6284957619e+00 -2.8206373995e+00 1.6284957619e+00 2.8206373995e+00 
4000 5.5373397995e+00 -2.0309789057e-02 1.6291329613e+00 -2.8217410612e+00 1.6291329613e+00 2.8217410612e+00 
4100 5.5371808271e+00 -1.9830956753e-02 1.6297563322e+00 -2.8228207714e+00 1.6297563322e+00 2.8228207714e+00 
4200 5.5370322746e+00 -1.9317644323e-02 1.6303647726e+00 -2.8238746210e+00 1.6303647726e+00 2.8238746210e+00 
4300 5.5368945915e+00 -1.8771857963e-02 1.6309572416e+00 -2.8249008075e+00 1.6309572416e+00 2.8249008075e+00 
4400 5.5367680766e+00 -1.8195638733e-02 1.6315327614e+00 -2.8258976369e+00 1.6315327614e+00 2.8258976369e+00 
4500 5.5366528904e+00 -1.7591055871e-02 1.6320904172e+00 -2.8268635251e+00 1.6320904172e+00 2.8268635251e+00 
4600 5.5365490676e+00 -1.6960200227e-02 1.6326293587e+00 -2.8277969991e+00 1.6326293587e+00 2.8277969991e+00 
4700 5.5364565286e+00 -1.6305177846e-02 1.6331487999e+00 -2.8286966977e+00 1.6331487999e+00 2.8286966977e+00 
4800 5.5363750917e+00 -1.5628103684e-02 1.6336480198e+00 -2.8295613719e+00 1.6336480198e+00 2.8295613719e+00 
4900 5.5363044846e+00 -1.4931095487e-02 1.6341263623e+00 -2.8303898855e+00 1.6341263623e+00 2.8303898855e+00 
5000 5.5362443555e+00 -1.4216267823e-02 1.6345832361e+00 -2.8311812141e+00 1.6345832361e+00 2.8311812141e+00 
5100 5.5361942838e+00 -1.3485726293e-02 1.6350181145e+00 -2.8319344456e+00 1.6350181145e+00 2.8319344456e+00 
5200 5.5361537905e+00 -1.2741561918e-02 1.6354305348e+00 -2.8326487785e+00 1.6354305348e+00 2.8326487785e+00 
5300 5.5361223483e+00 -1.1985845721e-02 1.6358200979e+00 -2.8333235216e+00 1.6358200979e+00 2.8333235216e+00 
5400 5.5360993909e+00 -1.1220623502e-02 1.6361864674e+00 -2.8339580922e+00 1.6361864674e+00 2.8339580922e+00 
5500 5.5360843214e+00 -1.0447910833e-02 1.6365293689e+00 -2.8345520150e+00 1.6365293689e+00 2.8345520150e+00 
5600 5.5360765212e+00 -9.6696882610e-03 1.6368485887e+00 -2.8351049199e+00 1.6368485887e+00 2.8351049199e+00 
5700 5.5360753574e+00 -8.8878967463e-03 1.6371439727e+00 -2.8356165400e+00 1.6371439727e+00 2.8356165400e+00 
5800 5.5360801899e+00 -8.1044333326e-03 1.6374154254e+00 -2.8360867099e+00 1.6374154254e+00 2.8360867099e+00 
5900 5.5360903783e+00 -7.3211470635e-03 1.6376629080e+00 -2.8365153623e+00 1.6376629080e+00 2.8365153623e+00 
6000 5.5361052874e+00 -6.5398351490e-03 1.6378864373e+00 -2.8369025265e+00 1.6378864373e+00 2.8369025265e+00 
6100 5.5361242930e+00 -5.7622393912e-03 1.6380860839e+00 -2.8372483245e+00 1.6380860839e+00 2.8372483245e+00 
6200 5.5361467865e+00 -4.9900428733e-03 1.6382619703e+00 -2.8375529687e+00 1.6382619703e+00 2.8375529687e+00 
6300 5.5361721791e+00 -4.2248669188e-03 1.6384142695e+00 -2.8378167587e+00 1.6384142695e+00 2.8378167587e+00 
6400 5.5361999058e+00 -3.4682683226e-03 1.6385432028e+00 -2.8380400777e+00 1.6385432028e+00 2.8380400777e+00 
6500 5.5362294285e+00 -2.7217368603e-03 1.6386490379e+00 -2.8382233893e+00 1.6386490379e+00 2.8382233893e+00 
6600 5.5362602383e+00 -1.9866930747e-03 1.6387320868e+00 -2.8383672342e+00 1.6387320868e+00 2.8383672342e+00 
6700 5.5362918583e+00 -1.2644863431e-03 1.6387927039e+00 -2.8384722262e+00 1.6387927039e+00 2.8384722262e+00 
6800 5.5363238447e+00 -5.5639322433e-04 1.6388312839e+00 -2.8385390487e+00 1.6388312839e+00 2.8385390487e+00 
6900 5.5363557885e+00 1.3638391657e-04 1.6388482592e+00 -2.8385684508e+00 1.6388482592e+00 2.8385684508e+00 
7000 5.5363873161e+00 8.1271800590e-04 1.6388440982e+00 -2.8385612438e+00 1.6388440982e+00 2.8385612438e+00 
7100 5.5364180900e+00 1.4715580867e-03 1.6388193028e+00 -2.8385182969e+00 1.6388193028e+00 2.8385182969e+00 
7200 5.5364478087e+00 2.1119298750e-03 1.6387744061e+00 -2.8384405336e+00 1.6387744061e+00 2.8384405336e+00 
7300 5.5364762064e+00 2.7329360538e-03 1.6387099703e+00 -2.8383289274e+00 1.6387099703e+00 2.8383289274e+00 
7400 5.5365030529e+00 3.3337563091e-03 1.6386265842e+00 -2.8381844985e+00 1.6386265842e+00 2.8381844985e+00 
7500 5.5365281523e+00 3.9136471188e-03 1.6385248611e+00 -2.8380083090e+00 1.6385248611e+00 2.8380083090e+00 
7600 5.5365513421e+00 4.4719412991e-03 1.6384054367e+00 -2.8378014597e+00 1.6384054367e+00 2.8378014597e+00 
7700 5.5365724924e+00 5.0080473217e-03 1.6382689662e+00 -2.8375650859e+00 1.6382689662e+00 2.8375650859e+00 
7800 5.5365915038e+00 5.5214484082e-03 1.6381161229e+00 -2.8373003535e+00 1.6381161229e+00 2.8373003535e+00 
7900 5.5366083060e+00 6.0117014156e-03 1.6379475953e+00 -2.8370084552e+00 1.6379475953e+00 2.8370084552e+00 
8000 5.5366228565e+00 6.4784355220e-03 1.6377640855e+00 -2.8366906069e+00 1.6377640855e+00 2.8366906069e+00 
8100 5.5366351381e+00 6.9213507266e-03 1.6375663066e+00 -2.8363480437e+00 1.6375663066e+00 2.8363480437e+00 
8200 5.5366451576e+00 7.3402161747e-03 1.6373549807e+00 -2.8359820166e+00 1.6373549807e+00 2.8359820166e+00 
8300 5.5366529434e+00 7.7348683215e-03 1.6371308372e+00 -2.8355937887e+00 1.6371308372e+00 2.8355937887e+00 
8400 5.5366585436e+00 8.1052089481e-03 1.6368946105e+00 -2.8351846320e+00 1.6368946105e+00 2.8351846320e+00 
8500 5.5366620242e+00 8.4512030418e-03 1.6366470379e+00 -2.8347558237e+00 1.6366470379e+00 2.8347558237e+00 
8600 5.5366634668e+00 8.7728765559e-03 1.6363888582e+00 -2.8343086433e+00 1.6363888582e+00 2.8343086433e+00 
8700 5.5366629667e+00 9.0703140608e-03 1.6361208095e+00 -2.8338443694e+00 1.6361208095e+00 2.8338443694e+00 
8800 5.5366606310e+00 9.3436563006e-03 1.6358436277e+00 -2.8333642765e+00 1.6358436277e+00 2.8333642765e+00 
8900 5.5366565768e+00 9.5930976692e-03 1.6355580447e+00 -2.8328696321e+00 1.6355580447e+00 2.8328696321e+00 
9000 5.5366509290e+00 9.8188836173e-03 1.6352647866e+00 -2.8323616943e+00 1.6352647866e+00 2.8323616943e+00 
9100 5.5366438188e+00 1.0021308004e-02 1.6349645728e+00 -2.8318417086e+00 1.6349645728e+00 2.8318417086e+00 
9200 5.5366353820e+00 1.0200710408e-02 1.6346581137e+00 -2.8313109059e+00 1.6346581137e+00 2.8313109059e+00 
9300 5.5366257574e+00 1.0357473403e-02 1.6343461101e+00 -2.8307704998e+00 1.6343461101e+00 2.8307704998e+00 
9400 5.5366150851e+00 1.0492019818e-02 1.6340292513e+00 -2.8302216842e+00 1.6340292513e+00 2.8302216842e+00 
9500 5.5366035056e+00 1.0604809991e-02 1.6337082143e+00 -2.8296656319e+00 1.6337082143e+00 2.8296656319e+00 
9600 5.5365911580e+00 1.0696339021e-02 1.6333836625e+00 -2.8291034917e+00 1.6333836625e+00 2.8291034917e+00 
9700 5.5365781790e+00 1.0767134032e-02 1.6330562446e+00 -2.8285363872e+00 1.6330562446e+00 2.8285363872e+00 
9800 5.5365647019e+00 1.0817751470e-02 1.6327265936e+00 -2.8279654150e+00 1.6327265936e+00 2.8279654150e+00 
9900 5.5365508558e+00 1.0848774414e-02 1.6323953261e+00 -2.8273916428e+00 1.6323953261e+00 2.8273916428e+00 
10000 5.5365367644e+00 1.0860809944e-02 1.6320630412e+00 -2.8268161085e+00 1.6320630412e+00 2.8268161085e+00 
10100 5.5365225457e+00 1.0854486542e-02 1.6317303199e+00 -2.8262398184e+00 1.6317303199e+00 2.8262398184e+00 
10200 5.5365083109e+00 1.0830451559e-02 1.6313977246e+00 -2.8256637464e+00 1.6313977246e+00 2.8256637464e+00 
10300 5.5364941643e+00 1.0789368730e-02 1.6310657981e+00 -2.8250888327e+00 1.6310657981e+00 2.8250888327e+00 
10400 5.5364802028e+00 1.0731915769e-02 1.6307350633e+00 -2.8245159833e+00 1.6307350633e+00 2.8245159833e+00 
10500 5.5364665156e+00 1.0658782024e-02 1.6304060229e+00 -2.8239460686e+00 1.6304060229e+00 2.8239460686e+00 
10600 5.5364531837e+00 1.0570666215e-02 1.6300791587e+00 -2.8233799232e+00 1.6300791587e+00 2.8233799232e+00 
10700 5.5364402801e+00 1.0468274248e-02 1.6297549316e+00 -2.8228183455e+00 1.6297549316e+00 2.8228183455e+00 
10800 5.5364278696e+00 1.0352317116e-02 1.6294337812e+00 -2.8222620966e+00 1.6294337812e+00 2.8222620966e+00 
10900 5.5364160091e+00 1.0223508880e-02 1.6291161254e+00 -2.8217119007e+00 1.6291161254e+00 2.8217119007e+00 
11000 5.5364047471e+00 1.0082564747e-02 1.6288023608e+00 -2.8211684444e+00 1.6288023608e+00 2.8211684444e+00 
11100 5.5363941245e+00 9.9301992276e-03 1.6284928621e+00 -2.8206323769e+00 1.6284928621e+00 2.8206323769e+00 
11200 5.5363841743e+00 9.7671243949e-03 1.6281879823e+00 -2.8201043097e+00 1.6281879823e+00 2.8201043097e+00 
11300 5.5363749223e+00 9.5940482275e-03 1.6278880531e+00 -2.8195848170e+00 1.6278880531e+00 2.8195848170e+00 
11400 5.5363663870e+00 9.4116730491e-03 1.6275933842e+00 -2.8190744355e+00 1.6275933842e+00 2.8190744355e+00 
11500 5.5363585804e+00 9.2206940590e-03 1.6273042642e+00 -2.8185736651e+00 1.6273042642e+00 2.8185736651e+00 
11600 5.5363515078e+00 9.0217979547e-03 1.6270209605e+00 -2.8180829686e+00 1.6270209605e+00 2.8180829686e+00 
11700 5.5363451688e+00 8.8156616453e-03 1.6267437194e+00 -2.8176027730e+00 1.6267437194e+00 2.8176027730e+00 
11800 5.5363395574e+00 8.6029510550e-03 1.6264727666e+00 -2.8171334689e+00 1.6264727666e+00 2.8171334689e+00 
11900 5.5363346623e+00 8.3843200152e-03 1.6262083073e+00 -2.8166754119e+00 1.6262083073e+00 2.8166754119e+00 
12000 5.5363304677e+00 8.1604092436e-03 1.6259505267e+00 -2.8162289228e+00 1.6259505267e+00 2.8162289228e+00 
12100 5.5363269536e+00 7.9318454081e-03 1.6256995904e+00 -2.8157942884e+00 1.6256995904e+00 2.8157942884e+00 
12200 5.5363240962e+00 7.6992402742e-03 1.6254556448e+00 -2.8153717622e+00 1.6254556448e+00 2.8153717622e+00 
12300 5.5363218685e+00 7.4631899327e-03 1.6252188172e+00 -2.8149615648e+00 1.6252188172e+00 2.8149615648e+00 
12400 5.5363202405e+00 7.2242741065e-03 1.6249892169e+00 -2.8145638855e+00 1.6249892169e+00 2.8145638855e+00 
12500 5.5363191800e+00 6.9830555322e-03 1.6247669352e+00 -2.8141788822e+00 1.6247669352e+00 2.8141788822e+00 
12600 5.5363186528e+00 6.7400794162e-03 1.6245520458e+00 -2.8138066829e+00 1.6245520458e+00 2.8138066829e+00 
12700 5.5363186229e+00 6.4958729608e-03 1.6243446060e+00 -2.8134473866e+00 1.6243446060e+00 2.8134473866e+00 
12800 5.5363190533e+00 6.2509449580e-03 1.6241446565e+00 -2.8131010638e+00 1.6241446565e+00 2.8131010638e+00 
12900 5.5363199064e+00 6.0057854487e-03 1.6239522222e+00 -2.8127677579e+00 1.6239522222e+00 2.8127677579e+00 
13000 5.5363211439e+00 5.7608654441e-03 1.6237673131e+00 -2.8124474859e+00 1.6237673131e+00 2.8124474859e+00 
13100 5.5363227274e+00 5.5166367062e-03 1.6235899243e+00 -2.8121402396e+00 1.6235899243e+00 2.8121402396e+00 
13200 5.5363246188e+00 5.2735315847e-03 1.6234200372e+00 -2.8118459865e+00 1.6234200372e+00 2.8118459865e+00 
13300 5.5363267805e+00 5.0319629084e-03 1.6232576195e+00 -2.8115646707e+00 1.6232576195e+00 2.8115646707e+00 
13400 5.5363291756e+00 4.7923239266e-03 1.6231026261e+00 -2.8112962144e+00 1.6231026261e+00 2.8112962144e+00 
13500 5.5363317681e+00 4.5549882994e-03 1.6229549999e+00 -2.8110405182e+00 1.6229549999e+00 2.8110405182e+00 
13600 5.5363345233e+00 4.3203101324e-03 1.6228146718e+00 -2.8107974629e+00 1.6228146718e+00 2.8107974629e+00 
13700 5.5363374078e+00 4.0886240554e-03 1.6226815620e+00 -2.8105669099e+00 1.6226815620e+00 2.8105669099e+00 
13800 5.5363403898e+00 3.8602453407e-03 1.6225555801e+00 -2.8103487028e+00 1.6225555801e+00 2.8103487028e+00 
13900 5.5363434390e+00 3.6354700585e-03 1.6224366258e+00 -2.8101426680e+00 1.6224366258e+00 2.8101426680e+00 
14000 5.5363465270e+00 3.4145752682e-03 1.6223245898e+00 -2.8099486158e+00 1.6223245898e+00 2.8099486158e+00 
14100 5.5363496272e+00 3.1978192423e-03 1.6222193538e+00 -2.8097663418e+00 1.6222193538e+00 2.8097663418e+00 
14200 5.5363527150e+00 2.9854417206e-03 1.6221207917e+00 -2.8095956272e+00 1.6221207917e+00 2.8095956272e+00 
14300 5.5363557676e+00 2.7776641923e-03 1.6220287698e+00 -2.8094362405e+00 1.6220287698e+00 2.8094362405e+00 
14400 5.5363587643e+00 2.5746902048e-03 1.6219431474e+00 -2.8092879382e+00 1.6219431474e+00 2.8092879382e+00 
14500 5.5363616864e+00 2.3767056959e-03 1.6218637775e+00 -2.8091504655e+00 1.6218637775e+00 2.8091504655e+00 
14600 5.5363645173e+00 2.1838793479e-03 1.6217905072e+00 -2.8090235577e+00 1.6217905072e+00 2.8090235577e+00 
14700 5.5363672422e+00 1.9963629624e-03 1.6217231784e+00 -2.8089069408e+00 1.6217231784e+00 2.8089069408e+00 
14800 5.5363698482e+00 1.8142918524e-03 1.6216616281e+00 -2.8088003326e+00 1.6216616281e+00 2.8088003326e+00 
14900 5.5363723246e+00 1.6377852510e-03 1.6216056891e+00 -2.8087034434e+00 1.6216056891e+00 2.8087034434e+00 
15000 5.5363746622e+00 1.4669467357e-03 1.6215551905e+00 -2.8086159773e+00 1.6215551905e+00 2.8086159773e+00 
15100 5.5363768538e+00 1.3018646644e-03 1.6215099580e+00 -2.8085376323e+00 1.6215099580e+00 2.8085376323e+00 
15200 5.5363788936e+00 1.1426126238e-03 1.6214698146e+00 -2.8084681018e+00 1.6214698146e+00 2.8084681018e+00 
15300 5.5363807778e+00 9.8924988804e-04 1.6214345809e+00 -2.8084070752e+00 1.6214345809e+00 2.8084070752e+00 
15400 5.5363825036e+00 8.4182188542e-04 1.6214040756e+00 -2.8083542385e+00 1.6214040756e+00 2.8083542385e+00 
15500 5.5363840701e+00 7.0036067283e-04 1.6213781160e+00 -2.8083092752e+00 1.6213781160e+00 2.8083092752e+00 
15600 5.5363854775e+00 5.6488541624e-04 1.6213565184e+00 -2.8082718670e+00 1.6213565184e+00 2.8082718670e+00 
15700 5.5363867270e+00 4.3540287597e-04 1.6213390982e+00 -2.8082416944e+00 1.6213390982e+00 2.8082416944e+00 
15800 5.5363878212e+00 3.1190789573e-04 1.6213256710e+00 -2.8082184378e+00 1.6213256710e+00 2.8082184378e+00 
15900 5.5363887637e+00 1.9438389429e-04 1.6213160521e+00 -2.8082017773e+00 1.6213160521e+00 2.8082017773e+00 
16000 5.5363895588e+00 8.2803358704e-05 1.6213100575e+00 -2.8081913943e+00 1.6213100575e+00 2.8081913943e+00 
16100 5.5363902117e+00 -2.2871661811e-05 1.6213075039e+00 -2.8081869714e+00 1.6213075039e+00 2.8081869714e+00 
16200 5.5363907285e+00 -1.2341107364e-04 1.6213075039e+00 -2.8081869714e+00 1.6213075039e+00 2.8081869714e+00 
16300 5.5363911153e+00 -2.1740966884e-04 1.6213113098e+00 -2.8081935634e+00 1.6213113098e+00 2.8081935634e+00 
16400 5.5363913793e+00 -3.0567494683e-04 1.6213180145e+00 -2.8082051764e+00 1.6213180145e+00 2.8082051764e+00 
16500 5.5363915276e+00 -3.8828165056e-04 1.6213274413e+00 -2.8082215040e+00 1.6213274413e+00 2.8082215040e+00 
16600 5.5363915681e+00 -4.6531251600e-04 1.6213394155e+00 -2.8082422439e+00 1.6213394155e+00 2.8082422439e+00 
16700 5.5363915086e+00 -5.3685779265e-04 1.6213537651e+00 -2.8082670983e+00 1.6213537651e+00 2.8082670983e+00 
16800 5.5363913572e+00 -6.0301476901e-04 1.6213703210e+00 -2.8082957739e+00 1.6213703210e+00 2.8082957739e+00 
16900 5.5363911220e+00 -6.6388730378e-04 1.6213889169e+00 -2.8083279829e+00 1.6213889169e+00 2.8083279829e+00 
17000 5.5363908111e+00 -7.1958536320e-04 1.6214093897e+00 -2.8083634429e+00 1.6214093897e+00 2.8083634429e+00 
17100 5.5363904327e+00 -7.7022456526e-04 1.6214315799e+00 -2.8084018774e+00 1.6214315799e+00 2.8084018774e+00 
17200 5.5363899946e+00 -8.1592573129e-04 1.6214553313e+00 -2.8084430161e+00 1.6214553313e+00 2.8084430161e+00 
17300 5.5363895048e+00 -8.5681444532e-04 1.6214804917e+00 -2.8084865951e+00 1.6214804917e+00 2.8084865951e+00 
17400 5.5363889708e+00 -8.9302062182e-04 1.6215069125e+00 -2.8085323573e+00 1.6215069125e+00 2.8085323573e+00 
17500 5.5363883999e+00 -9.2467808217e-04 1.6215344493e+00 -2.8085800525e+00 1.6215344493e+00 2.8085800525e+00 
17600 5.5363877992e+00 -9.5192414030e-04 1.6215629619e+00 -2.8086294376e+00 1.6215629619e+00 2.8086294376e+00 
17700 5.5363871755e+00 -9.7489919784e-04 1.6215923140e+00 -2.8086802770e+00 1.6215923140e+00 2.8086802770e+00 
17800 5.5363865350e+00 -9.9374634925e-04 1.6216223740e+00 -2.8087323425e+00 1.6216223740e+00 2.8087323425e+00 
17900 5.5363858838e+00 -1.0086109971e-03 1.6216530146e+00 -2.8087854136e+00 1.6216530146e+00 2.8087854136e+00 
18000 5.5363852275e+00 -1.0196404779e-03 1.6216841130e+00 -2.8088392775e+00 1.6216841130e+00 2.8088392775e+00 
18100 5.5363845713e+00 -1.0269836987e-03 1.6217155508e+00 -2.8088937293e+00 1.6217155508e+00 2.8088937293e+00 
18200 5.5363839201e+00 -1.0307907846e-03 1.6217472144e+00 -2.8089485723e+00 1.6217472144e+00 2.8089485723e+00 
18300 5.5363832781e+00 -1.0312127381e-03 1.6217789947e+00 -2.8090036175e+00 1.6217789947e+00 2.8090036175e+00 
18400 5.5363826494e+00 -1.0284011088e-03 1.6218107875e+00 -2.8090586842e+00 1.6218107875e+00 2.8090586842e+00 
18500 5.5363820376e+00 -1.0225076759e-03 1.6218424929e+00 -2.8091135996e+00 1.6218424929e+00 2.8091135996e+00 
18600 5.5363814457e+00 -1.0136841416e-03 1.6218740160e+00 -2.8091681992e+00 1.6218740160e+00 2.8091681992e+00 
18700 5.5363808765e+00 -1.0020818371e-03 1.6219052665e+00 -2.8092223267e+00 1.6219052665e+00 2.8092223267e+00 
18800 5.5363803325e+00 -9.8785143978e-04 1.6219361587e+00 -2.8092758336e+00 1.6219361587e+00 2.8092758336e+00 
18900 5.5363798155e+00 -9.7114270324e-04 1.6219666117e+00 -2.8093285796e+00 1.6219666117e+00 2.8093285796e+00 
19000 5.5363793271e+00 -9.5210419895e-04 1.6219965490e+00 -2.8093804325e+00 1.6219965490e+00 2.8093804325e+00 
19100 5.5363788688e+00 -9.3088307024e-04 1.6220258988e+00 -2.8094312680e+00 1.6220258988e+00 2.8094312680e+00 
19200 5.5363784413e+00 -9.0762479851e-04 1.6220545940e+00 -2.8094809694e+00 1.6220545940e+00 2.8094809694e+00 
19300 5.5363780454e+00 -8.8247298146e-04 1.6220825717e+00 -2.8095294282e+00 1.6220825717e+00 2.8095294282e+00 
19400 5.5363776813e+00 -8.5556912361e-04 1.6221097736e+00 -2.8095765434e+00 1.6221097736e+00 2.8095765434e+00 
19500 5.5363773492e+00 -8.2705243875e-04 1.6221361458e+00 -2.8096222213e+00 1.6221361458e+00 2.8096222213e+00 
19600 5.5363770489e+00 -7.9705966456e-04 1.6221616386e+00 -2.8096663761e+00 1.6221616386e+00 2.8096663761e+00 
19700 5.5363767800e+00 -7.6572488901e-04 1.6221862065e+00 -2.8097089289e+00 1.6221862065e+00 2.8097089289e+00 
19800 5.5363765418e+00 -7.3317938873e-04 1.6222098081e+00 -2.8097498082e+00 1.6222098081e+00 2.8097498082e+00 
19900 5.5363763336e+00 -6.9955147897e-04 1.6222324064e+00 -2.8097889495e+00 1.6222324064e+00 2.8097889495e+00 
20000 5.5363761545e+00 -6.6496637519e-04 1.6222539678e+00 -2.8098262950e+00 1.6222539678e+00 2.8098262950e+00 
20100 5.5363760032e+00 -6.2954606601e-04 1.6222744630e+00 -2.8098617937e+00 1.6222744630e+00 2.8098617937e+00 
20200 5.5363758787e+00 -5.9340919746e-04 1.6222938662e+00 -2.8098954011e+00 1.6222938662e+00 2.8098954011e+00 
20300 5.5363757796e+00 -5.5667096820e-04 1.6223121554e+00 -2.8099270790e+00 1.6223121554e+00 2.8099270790e+00 
20400 5.5363757044e+00 -5.1944303567e-04 1.6223293122e+00 -2.8099567953e+00 1.6223293122e+00 2.8099567953e+00 
20500 5.5363756517e+00 -4.8183343279e-04 1.6223453214e+00 -2.8099845241e+00 1.6223453214e+00 2.8099845241e+00 
20600 5.5363756199e+00 -4.4394649514e-04 1.6223601713e+00 -2.8100102449e+00 1.6223601713e+00 2.8100102449e+00 
20700 5.5363756076e+00 -4.0588279824e-04 1.6223738535e+00 -2.8100339431e+00 1.6223738535e+00 2.8100339431e+00 
20800 5.5363756130e+00 -3.6773910482e-04 1.6223863624e+00 -2.8100556092e+00 1.6223863624e+00 2.8100556092e+00 
20900 5.5363756347e+00 -3.2960832169e-04 1.6223976957e+00 -2.8100752390e+00 1.6223976957e+00 2.8100752390e+00 
21000 5.5363756710e+00 -2.9157946594e-04 1.6224078537e+00 -2.8100928333e+00 1.6224078537e+00 2.8100928333e+00 
21100 5.5363757204e+00 -2.5373764040e-04 1.6224168398e+00 -2.8101083975e+00 1.6224168398e+00 2.8101083975e+00 
21200 5.5363757814e+00 -2.1616401773e-04 1.6224246595e+00 -2.8101219417e+00 1.6224246595e+00 2.8101219417e+00 
21300 5.5363758524e+00 -1.7893583315e-04 1.6224313213e+00 -2.8101334802e+00 1.6224313213e+00 2.8101334802e+00 
21400 5.5363759320e+00 -1.4212638531e-04 1.6224368357e+00 -2.8101430315e+00 1.6224368357e+00 2.8101430315e+00 
21500 5.5363760188e+00 -1.0580504509e-04 1.6224412157e+00 -2.8101506180e+00 1.6224412157e+00 2.8101506180e+00 
21600 5.5363761115e+00 -7.0037272022e-05 1.6224444764e+00 -2.8101562656e+00 1.6224444764e+00 2.8101562656e+00 
21700 5.5363762089e+00 -3.7081925827e-05 1.6224444764e+00 -2.8101562656e+00 1.6224444764e+00 2.8101562656e+00 
21800 5.5363763094e+00 -3.7102625512e-06 1.6224444764e+00 -2.8101562656e+00 1.6224444764e+00 2.8101562656e+00 
21900 5.5363764122e+00 3.0009040661e-05 1.6224444764e+00 -2.8101562656e+00 1.6224444764e+00 2.8101562656e+00 
22000 5.5363765165e+00 6.4009617773e-05 1.6224444764e+00 -2.8101562656e+00 1.6224444764e+00 2.8101562656e+00 
22100 5.5363766213e+00 9.8227435835e-05 1.6224444764e+00 -2.8101562656e+00 1.6224444764e+00 2.8101562656e+00 
22200 5.5363767255e+00 1.2951858883e-04 1.6224414493e+00 -2.8101510225e+00 1.6224414493e+00 2.8101510225e+00 
22300 5.5363768283e+00 1.5990478529e-04 1.6224374578e+00 -2.8101441090e+00 1.6224374578e+00 2.8101441090e+00 
22400 5.5363769291e+00 1.8935045681e-04 1.6224325299e+00 -2.8101355736e+00 1.6224325299e+00 2.8101355736e+00 
22500 5.5363770271e+00 2.1782351057e-04 1.6224266945e+00 -2.8101254664e+00 1.6224266945e+00 2.8101254664e+00 
22600 5.5363771220e+00 2.4529525493e-04 1.6224199816e+00 -2.8101138394e+00 1.6224199816e+00 2.8101138394e+00 
22700 5.5363772131e+00 2.7174032105e-04 1.6224124221e+00 -2.8101007459e+00 1.6224124221e+00 2.8101007459e+00 
22800 5.5363773000e+00 2.9713658084e-04 1.6224040475e+00 -2.8100862407e+00 1.6224040475e+00 2.8100862407e+00 
22900 5.5363773825e+00 3.2146506146e-04 1.6223948902e+00 -2.8100703798e+00 1.6223948902e+00 2.8100703798e+00 
23000 5.5363774602e+00 3.4470985678e-04 1.6223849831e+00 -2.8100532202e+00 1.6223849831e+00 2.8100532202e+00 
23100 5.5363775330e+00 3.6685803610e-04 1.6223743596e+00 -2.8100348197e+00 1.6223743596e+00 2.8100348197e+00 
23200 5.5363776007e+00 3.8789955032e-04 1.6223630534e+00 -2.8100152368e+00 1.6223630534e+00 2.8100152368e+00 
23300 5.5363776632e+00 4.0782713599e-04 1.6223510986e+00 -2.8099945305e+00 1.6223510986e+00 2.8099945305e+00 
23400 5.5363777205e+00 4.2663621742e-04 1.6223385296e+00 -2.8099727604e+00 1.6223385296e+00 2.8099727604e+00 
23500 5.5363777725e+00 4.4432480722e-04 1.6223253808e+00 -2.8099499860e+00 1.6223253808e+00 2.8099499860e+00 
23600 5.5363778195e+00 4.6089340541e-04 1.6223116868e+00 -2.8099262672e+00 1.6223116868e+00 2.8099262672e+00 
23700 5.5363778613e+00 4.7634489752e-04 1.6222974820e+00 -2.8099016638e+00 1.6222974820e+00 2.8099016638e+00 
23800 5.5363778983e+00 4.9068445180e-04 1.6222828008e+00 -2.8098762353e+00 1.6222828008e+00 2.8098762353e+00 
23900 5.5363779304e+00 5.0391941593e-04 1.6222676776e+00 -2.8098500410e+00 1.6222676776e+00 2.8098500410e+00 
24000 5.5363779580e+00 5.1605921323e-04 1.6222521463e+00 -2.8098231400e+00 1.6222521463e+00 2.8098231400e+00 
24100 5.5363779813e+00 5.2711523897e-04 1.6222362407e+00 -2.8097955907e+00 1.6222362407e+00 2.8097955907e+00 
24200 5.5363780004e+00 5.3710075656e-04 1.6222199941e+00 -2.8097674509e+00 1.6222199941e+00 2.8097674509e+00 
24300 5.5363780157e+00 5.4603079423e-04 1.6222034396e+00 -2.8097387777e+00 1.6222034396e+00 2.8097387777e+00 
24400 5.5363780274e+00 5.5392204214e-04 1.6221866098e+00 -2.8097096275e+00 1.6221866098e+00 2.8097096275e+00 
24500 5.5363780357e+00 5.6079275022e-04 1.6221695365e+00 -2.8096800557e+00 1.6221695365e+00 2.8096800557e+00 
24600 5.5363780411e+00 5.6666262696e-04 1.6221522512e+00 -2.8096501168e+00 1.6221522512e+00 2.8096501168e+00 
24700 5.5363780436e+00 5.7155273917e-04 1.6221347849e+00 -2.8096198642e+00 1.6221347849e+00 2.8096198642e+00 
24800 5.5363780437e+00 5.7548541310e-04 1.6221171676e+00 -2.8095893501e+00 1.6221171676e+00 2.8095893501e+00 
24900 5.5363780416e+00 5.7848413687e-04 1.6220994289e+00 -2.8095586259e+00 1.6220994289e+00 2.8095586259e+00 
25000 5.5363780376e+00 5.8057346448e-04 1.6220815976e+00 -2.8095277411e+00 1.6220815976e+00 2.8095277411e+00 
25100 5.5363780320e+00 5.8177892149e-04 1.6220637017e+00 -2.8094967445e+00 1.6220637017e+00 2.8094967445e+00 
25200 5.5363780249e+00 5.8212691252e-04 1.6220457685e+00 -2.8094656832e+00 1.6220457685e+00 2.8094656832e+00 
25300 5.5363780168e+00 5.8164463069e-04 1.6220278243e+00 -2.8094346029e+00 1.6220278243e+00 2.8094346029e+00 
25400 5.5363780078e+00 5.8035996905e-04 1.6220098948e+00 -2.8094035481e+00 1.6220098948e+00 2.8094035481e+00 
25500 5.5363779982e+00 5.7830143423e-04 1.6219920046e+00 -2.8093725615e+00 1.6219920046e+00 2.8093725615e+00 
25600 5.5363779882e+00 5.7549806226e-04 1.6219741778e+00 -2.8093416845e+00 1.6219741778e+00 2.8093416845e+00 
25700 5.5363779780e+00 5.7197933673e-04 1.6219564372e+00 -2.8093109568e+00 1.6219564372e+00 2.8093109568e+00 
25800 5.5363779677e+00 5.6777510937e-04 1.6219388048e+00 -2.8092804167e+00 1.6219388048e+00 2.8092804167e+00 
25900 5.5363779576e+00 5.6291552305e-04 1.6219213019e+00 -2.8092501007e+00 1.6219213019e+00 2.8092501007e+00 
26000 5.5363779479e+00 5.5743093734e-04 1.6219039485e+00 -2.8092200438e+00 1.6219039485e+00 2.8092200438e+00 
26100 5.5363779386e+00 5.5135185662e-04 1.6218867641e+00 -2.8091902795e+00 1.6218867641e+00 2.8091902795e+00 
26200 5.5363779299e+00 5.4470886083e-04 1.6218697669e+00 -2.8091608395e+00 1.6218697669e+00 2.8091608395e+00 
26300 5.5363779220e+00 5.3753253886e-04 1.6218529743e+00 -2.8091317539e+00 1.6218529743e+00 2.8091317539e+00 
26400 5.5363779148e+00 5.2985342461e-04 1.6218364028e+00 -2.8091030512e+00 1.6218364028e+00 2.8091030512e+00 
26500 5.5363779085e+00 5.2170193582e-04 1.6218200678e+00 -2.8090747582e+00 1.6218200678e+00 2.8090747582e+00 
26600 5.5363779033e+00 5.1310831554e-04 1.6218039840e+00 -2.8090469002e+00 1.6218039840e+00 2.8090469002e+00 
26700 5.5363778990e+00 5.0410257640e-04 1.6217881650e+00 -2.8090195008e+00 1.6217881650e+00 2.8090195008e+00 
26800 5.5363778958e+00 4.9471444760e-04 1.6217726234e+00 -2.8089925821e+00 1.6217726234e+00 2.8089925821e+00 
26900 5.5363778937e+00 4.8497332461e-04 1.6217573712e+00 -2.8089661644e+00 1.6217573712e+00 2.8089661644e+00 
27000 5.5363778927e+00 4.7490822162e-04 1.6217424191e+00 -2.8089402667e+00 1.6217424191e+00 2.8089402667e+00 
27100 5.5363778929e+00 4.6454772671e-04 1.6217277772e+00 -2.8089149062e+00 1.6217277772e+00 2.8089149062e+00 
27200 5.5363778942e+00 4.5391995970e-04 1.6217134546e+00 -2.8088900987e+00 1.6217134546e+00 2.8088900987e+00 
27300 5.5363778965e+00 4.4305253267e-04 1.6216994596e+00 -2.8088658586e+00 1.6216994596e+00 2.8088658586e+00 
27400 5.5363779000e+00 4.3197251316e-04 1.6216857995e+00 -2.8088421986e+00 1.6216857995e+00 2.8088421986e+00 
27500 5.5363779045e+00 4.2070638992e-04 1.6216724808e+00 -2.8088191301e+00 1.6216724808e+00 2.8088191301e+00 
27600 5.5363779100e+00 4.0928004125e-04 1.6216595095e+00 -2.8087966630e+00 1.6216595095e+00 2.8087966630e+00 
27700 5.5363779165e+00 3.9771870597e-04 1.6216468903e+00 -2.8087748060e+00 1.6216468903e+00 2.8087748060e+00 
27800 5.5363779240e+00 3.8604695673e-04 1.6216346275e+00 -2.8087535662e+00 1.6216346275e+00 2.8087535662e+00 
27900 5.5363779323e+00 3.7428867584e-04 1.6216227245e+00 -2.8087329496e+00 1.6216227245e+00 2.8087329496e+00 
28000 5.5363779414e+00 3.6246703355e-04 1.6216111840e+00 -2.8087129608e+00 1.6216111840e+00 2.8087129608e+00 
28100 5.5363779513e+00 3.5060446854e-04 1.6216000079e+00 -2.8086936032e+00 1.6216000079e+00 2.8086936032e+00 
28200 5.5363779619e+00 3.3872267082e-04 1.6215891974e+00 -2.8086748790e+00 1.6215891974e+00 2.8086748790e+00 
28300 5.5363779731e+00 3.2684256675e-04 1.6215787533e+00 -2.8086567892e+00 1.6215787533e+00 2.8086567892e+00 
28400 5.5363779848e+00 3.1498430634e-04 1.6215686754e+00 -2.8086393337e+00 1.6215686754e+00 2.8086393337e+00 
28500 5.5363779971e+00 3.0316725253e-04 1.6215589631e+00 -2.8086225115e+00 1.6215589631e+00 2.8086225115e+00 
28600 5.5363780098e+00 2.9140997261e-04 1.6215496150e+00 -2.8086063203e+00 1.6215496150e+00 2.8086063203e+00 
28700 5.5363780229e+00 2.7973023155e-04 1.6215406295e+00 -2.8085907569e+00 1.6215406295e+00 2.8085907569e+00 
28800 5.5363780363e+00 2.6814498729e-04 1.6215320041e+00 -2.8085758172e+00 1.6215320041e+00 2.8085758172e+00 
28900 5.5363780499e+00 2.5667038783e-04 1.6215237358e+00 -2.8085614961e+00 1.6215237358e+00 2.8085614961e+00 
29000 5.5363780637e+00 2.4532177008e-04 1.6215158214e+00 -2.8085477879e+00 1.6215158214e+00 2.8085477879e+00 
29100 5.5363780776e+00 2.3411366048e-04 1.6215082568e+00 -2.8085346856e+00 1.6215082568e+00 2.8085346856e+00 
29200 5.5363780915e+00 2.2305977716e-04 1.6215010378e+00 -2.8085221819e+00 1.6215010378e+00 2.8085221819e+00 
29300 5.5363781055e+00 2.1217303374e-04 1.6214941596e+00 -2.8085102686e+00 1.6214941596e+00 2.8085102686e+00 
29400 5.5363781195e+00 2.0146554455e-04 1.6214876171e+00 -2.8084989366e+00 1.6214876171e+00 2.8084989366e+00 
29500 5.5363781334e+00 1.9094863131e-04 1.6214814047e+00 -2.8084881765e+00 1.6214814047e+00 2.8084881765e+00 
29600 5.5363781471e+00 1.8063283118e-04 1.6214755166e+00 -2.8084779780e+00 1.6214755166e+00 2.8084779780e+00 
29700 5.5363781607e+00 1.7052790601e-04 1.6214699466e+00 -2.8084683305e+00 1.6214699466e+00 2.8084683305e+00 
29800 5.5363781740e+00 1.6064285285e-04 1.6214646882e+00 -2.8084592226e+00 1.6214646882e+00 2.8084592226e+00 
29900 5.5363781872e+00 1.5098591560e-04 1.6214597345e+00 -2.8084506427e+00 1.6214597345e+00 2.8084506427e+00 
30000 5.5363782000e+00 1.4156459770e-04 1.6214550787e+00 -2.8084425785e+00 1.6214550787e+00 2.8084425785e+00 
30100 5.5363782126e+00 1.3238567582e-04 1.6214507133e+00 -2.8084350175e+00 1.6214507133e+00 2.8084350175e+00 
30200 5.5363782248e+00 1.2345521452e-04 1.6214466310e+00 -2.8084279467e+00 1.6214466310e+00 2.8084279467e+00 
30300 5.5363782367e+00 1.1477858167e-04 1.6214428241e+00 -2.8084213529e+00 1.6214428241e+00 2.8084213529e+00 
30400 5.5363782483e+00 1.0636046483e-04 1.6214392847e+00 -2.8084152224e+00 1.6214392847e+00 2.8084152224e+00 
30500 5.5363782595e+00 9.8204888169e-05 1.6214360049e+00 -2.8084095416e+00 1.6214360049e+00 2.8084095416e+00 
30600 5.5363782703e+00 9.0315230223e-05 1.6214329765e+00 -2.8084042964e+00 1.6214329765e+00 2.8084042964e+00 
30700 5.5363782807e+00 8.2694242135e-05 1.6214301915e+00 -2.8083994726e+00 1.6214301915e+00 2.8083994726e+00 
30800 5.5363782907e+00 7.5344066518e-05 1.6214276414e+00 -2.8083950558e+00 1.6214276414e+00 2.8083950558e+00 
30900 5.5363783004e+00 6.8266256742e-05 1.6214253181e+00 -2.8083910316e+00 1.6214253181e+00 2.8083910316e+00 
31000 5.5363783098e+00 6.3609311846e-05 1.6214253181e+00 -2.8083910316e+00 1.6214253181e+00 2.8083910316e+00 
31100 5.5363783187e+00 5.9025247860e-05 1.6214253181e+00 -2.8083910316e+00 1.6214253181e+00 2.8083910316e+00 
31200 5.5363783273e+00 5.4521835338e-05 1.6214253181e+00 -2.8083910316e+00 1.6214253181e+00 2.8083910316e+00 
31300 5.5363783354e+00 5.0106278118e-05 1.6214253181e+00 -2.8083910316e+00 1.6214253181e+00 2.8083910316e+00 
31400 5.5363783431e+00 4.5785227045e-05 1.6214253181e+00 -2.8083910316e+00 1.6214253181e+00 2.8083910316e+00 
31500 5.5363783505e+00 4.1564794095e-05 1.6214253181e+00 -2.8083910316e+00 1.6214253181e+00 2.8083910316e+00 
31600 5.5363783574e+00 3.7450566845e-05 1.6214253181e+00 -2.8083910316e+00 1.6214253181e+00 2.8083910316e+00 
31700 5.5363783641e+00 3.3447623261e-05 1.6214253181e+00 -2.8083910316e+00 1.6214253181e+00 2.8083910316e+00 
31800 5.5363783703e+00 2.9560546756e-05 1.6214253181e+00 -2.8083910316e+00 1.6214253181e+00 2.8083910316e+00 
31900 5.5363783763e+00 2.5793441457e-05 1.6214253181e+00 -2.8083910316e+00 1.6214253181e+00 2.8083910316e+00 
32000 5.5363783820e+00 2.2149947682e-05 1.6214253181e+00 -2.8083910316e+00 1.6214253181e+00 2.8083910316e+00 
32100 5.5363783874e+00 1.8633257539e-05 1.6214253181e+00 -2.8083910316e+00 1.6214253181e+00 2.8083910316e+00 
32200 5.5363783926e+00 1.5246130662e-05 1.6214253181e+00 -2.8083910316e+00 1.6214253181e+00 2.8083910316e+00 
32300 5.5363783975e+00 1.1990910001e-05 1.6214253181e+00 -2.8083910316e+00 1.6214253181e+00 2.8083910316e+00 
32400 5.5363784022e+00 8.8695376678e-06 1.6214253181e+00 -2.8083910316e+00 1.6214253181e+00 2.8083910316e+00 
32500 5.5363784067e+00 5.8835707927e-06 1.6214253181e+00 -2.8083910316e+00 1.6214253181e+00 2.8083910316e+00 
32600 5.5363784110e+00 3.0341973491e-06 1.6214253181e+00 -2.8083910316e+00 1.6214253181e+00 2.8083910316e+00 
32700 5.5363784151e+00 3.2225193878e-07 1.6214253181e+00 -2.8083910316e+00 1.6214253181e+00 2.8083910316e+00 
32800 5.5363784190e+00 -2.2517684995e-06 1.6214253181e+00 -2.8083910316e+00 1.6214253181e+00 2.8083910316e+00 
32900 5.5363784229e+00 -4.6876890934e-06 1.6214253181e+00 -2.8083910316e+00 1.6214253181e+00 2.8083910316e+00 
33000 5.5363784265e+00 -6.9856415600e-06 1.6214253181e+00 -2.8083910316e+00 1.6214253181e+00 2.8083910316e+00 
33100 5.5363784301e+00 -9.1460488914e-06 1.6214253181e+00 -2.8083910316e+00 1.6214253181e+00 2.8083910316e+00 
33200 5.5363784336e+00 -1.1169610199e-05 1.6214253181e+00 -2.8083910316e+00 1.6214253181e+00 2.8083910316e+00 
33300 5.5363784369e+00 -1.3057285770e-05 1.6214253181e+00 -2.8083910316e+00 1.6214253181e+00 2.8083910316e+00 
33400 5.5363784402e+00 -1.4810282323e-05 1.6214253181e+00 -2.8083910316e+00 1.6214253181e+00 2.8083910316e+00 
33500 5.5363784434e+00 -1.6430038510e-05 1.6214253181e+00 -2.8083910316e+00 1.6214253181e+00 2.8083910316e+00 
33600 5.5363784465e+00 -1.7918210652e-05 1.6214253181e+00 -2.8083910316e+00 1.6214253181e+00 2.8083910316e+00 
33700 5.5363784496e+00 -1.9276658755e-05 1.6214253181e+00 -2.8083910316e+00 1.6214253181e+00 2.8083910316e+00 
33800 5.5363784526e+00 -2.0507432793e-05 1.6214253181e+00 -2.8083910316e+00 1.6214253181e+00 2.8083910316e+00 
33900 5.5363784556e+00 -2.1612759286e-05 1.6214253181e+00 -2.8083910316e+00 1.6214253181e+00 2.8083910316e+00 
34000 5.5363784585e+00 -2.2595028185e-05 1.6214253181e+00 -2.8083910316e+00 1.6214253181e+00 2.8083910316e+00 
34100 5.5363784614e+00 -2.3456780069e-05 1.6214253181e+00 -2.8083910316e+00 1.6214253181e+00 2.8083910316e+00 
34200 5.5363784643e+00 -2.4200693665e-05 1.6214253181e+00 -2.8083910316e+00 1.6214253181e+00 2.8083910316e+00 
34300 5.5363784671e+00 -2.4829573703e-05 1.6214253181e+00 -2.8083910316e+00 1.6214253181e+00 2.8083910316e+00 
34400 5.5363784700e+00 -2.5346339109e-05 1.6214253181e+00 -2.8083910316e+00 1.6214253181e+00 2.8083910316e+00 
34500 5.5363784728e+00 -2.5754011544e-05 1.6214253181e+00 -2.8083910316e+00 1.6214253181e+00 2.8083910316e+00 
34600 5.5363784755e+00 -2.6055704304e-05 1.6214253181e+00 -2.8083910316e+00 1.6214253181e+00 2.8083910316e+00 
34700 5.5363784783e+00 -2.6254611560e-05 1.6214253181e+00 -2.8083910316e+00 1.6214253181e+00 2.8083910316e+00 
34800 5.5363784811e+00 -2.6353997976e-05 1.6214253181e+00 -2.8083910316e+00 1.6214253181e+00 2.8083910316e+00 
34900 5.5363784838e+00 -2.6357188678e-05 1.6214253181e+00 -2.8083910316e+00 1.6214253181e+00 2.8083910316e+00 
35000 5.5363784865e+00 -2.6267559595e-05 1.6214253181e+00 -2.8083910316e+00 1.6214253181e+00 2.8083910316e+00 
35100 5.5363784893e+00 -2.6088528163e-05 1.6214253181e+00 -2.8083910316e+00 1.6214253181e+00 2.8083910316e+00 
35200 5.5363784920e+00 -2.5823544398e-05 1.6214253181e+00 -2.8083910316e+00 1.6214253181e+00 2.8083910316e+00 
35300 5.5363784947e+00 -2.5476082336e-05 1.6214253181e+00 -2.8083910316e+00 1.6214253181e+00 2.8083910316e+00 
35400 5.5363784973e+00 -2.5049631834e-05 1.6214253181e+00 -2.8083910316e+00 1.6214253181e+00 2.8083910316e+00 
35500 5.5363785000e+00 -2.4547690742e-05 1.6214253181e+00 -2.8083910316e+00 1.6214253181e+00 2.8083910316e+00 
35600 5.5363785027e+00 -2.3973757432e-05 1.6214253181e+00 -2.8083910316e+00 1.6214253181e+00 2.8083910316e+00 
35700 5.5363785053e+00 -2.3331323685e-05 1.6214253181e+00 -2.8083910316e+00 1.6214253181e+00 2.8083910316e+00 
35800 5.5363785079e+00 -2.2623867943e-05 1.6214253181e+00 -2.8083910316e+00 1.6214253181e+00 2.8083910316e+00 
35900 5.5363785105e+00 -2.1854848896e-05 1.6214253181e+00 -2.8083910316e+00 1.6214253181e+00 2.8083910316e+00 
36000 5.5363785131e+00 -2.1027699433e-05 1.6214253181e+00 -2.8083910316e+00 1.6214253181e+00 2.8083910316e+00 
36100 5.5363785157e+00 -2.0145820924e-05 1.6214253181e+00 -2.8083910316e+00 1.6214253181e+00 2.8083910316e+00 
36200 5.5363785182e+00 -1.9212577841e-05 1.6214253181e+00 -2.8083910316e+00 1.6214253181e+00 2.8083910316e+00 
36300 5.5363785208e+00 -1.8231292717e-05 1.6214253181e+00 -2.8083910316e+00 1.6214253181e+00 2.8083910316e+00 
36400 5.5363785233e+00 -1.7205241422e-05 1.6214253181e+00 -2.8083910316e+00 1.6214253181e+00 2.8083910316e+00 
36500 5.5363785257e+00 -1.6137648764e-05 1.6214253181e+00 -2.8083910316e+00 1.6214253181e+00 2.8083910316e+00 
36600 5.5363785282e+00 -1.5031684393e-05 1.6214253181e+00 -2.8083910316e+00 1.6214253181e+00 2.8083910316e+00 
36700 5.5363785306e+00 -1.3890459022e-05 1.6214253181e+00 -2.8083910316e+00 1.6214253181e+00 2.8083910316e+00 
36800 5.5363785330e+00 -1.2717020940e-05 1.6214253181e+00 -2.8083910316e+00 1.6214253181e+00 2.8083910316e+00 
36900 5.5363785354e+00 -1.1514352809e-05 1.6214253181e+00 -2.8083910316e+00 1.6214253181e+00 2.8083910316e+00 
37000 5.5363785377e+00 -1.0285368757e-05 1.6214253181e+00 -2.8083910316e+00 1.6214253181e+00 2.8083910316e+00 
37100 5.5363785400e+00 -9.0329117381e-06 1.6214253181e+00 -2.8083910316e+00 1.6214253181e+00 2.8083910316e+00 
37200 5.5363785423e+00 -7.7597511527e-06 1.6214253181e+00 -2.8083910316e+00 1.6214253181e+00 2.8083910316e+00 
37300 5.5363785445e+00 -6.4685807442e-06 1.6214253181e+00 -2.8083910316e+00 1.6214253181e+00 2.8083910316e+00 
37400 5.5363785467e+00 -5.1620167260e-06 1.6214253181e+00 -2.8083910316e+00 1.6214253181e+00 2.8083910316e+00 
37500 5.5363785489e+00 -3.8425961678e-06 1.6214253181e+00 -2.8083910316e+00 1.6214253181e+00 2.8083910316e+00 
37600 5.5363785510e+00 -2.5127756005e-06 1.6214253181e+00 -2.8083910316e+00 1.6214253181e+00 2.8083910316e+00 
37700 5.5363785531e+00 -1.1749298587e-06 1.6214253181e+00 -2.8083910316e+00 1.6214253181e+00 2.8083910316e+00 
37800 5.5363785552e+00 1.6864886961e-07 1.6214253181e+00 -2.8083910316e+00 1.6214253181e+00 2.8083910316e+00 
37900 5.5363785572e+00 1.5157517782e-06 1.6214253181e+00 -2.8083910316e+00 1.6214253181e+00 2.8083910316e+00 
38000 5.5363785592e+00 2.8642539835e-06 1.6214253181e+00 -2.8083910316e+00 1.6214253181e+00 2.8083910316e+00 
38100 5.5363785611e+00 4.2121148726e-06 1.6214253181e+00 -2.8083910316e+00 1.6214253181e+00 2.8083910316e+00 
38200 5.5363785631e+00 5.5573782669e-06 1.6214253181e+00 -2.8083910316e+00 1.6214253181e+00 2.8083910316e+00 
38300 5.5363785649e+00 6.8981724162e-06 1.6214253181e+00 -2.8083910316e+00 1.6214253181e+00 2.8083910316e+00 
38400 5.5363785668e+00 8.2327098209e-06 1.6214253181e+00 -2.8083910316e+00 1.6214253181e+00 2.8083910316e+00 
38500 5.5363785686e+00 9.5592869009e-06 1.6214253181e+00 -2.8083910316e+00 1.6214253181e+00 2.8083910316e+00 
38600 5.5363785704e+00 1.0876283514e-05 1.6214253181e+00 -2.8083910316e+00 1.6214253181e+00 2.8083910316e+00 
38700 5.5363785721e+00 1.2182162334e-05 1.6214253181e+00 -2.8083910316e+00 1.6214253181e+00 2.8083910316e+00 
38800 5.5363785738e+00 1.3475468092e-05 1.6214253181e+00 -2.8083910316e+00 1.6214253181e+00 2.8083910316e+00 
38900 5.5363785755e+00 1.4754826696e-05 1.6214253181e+00 -2.8083910316e+00 1.6214253181e+00 2.8083910316e+00 
39000 5.5363785771e+00 1.6018944236e-05 1.6214253181e+00 -2.8083910316e+00 1.6214253181e+00 2.8083910316e+00 
39100 5.5363785787e+00 1.7266605864e-05 1.6214253181e+00 -2.8083910316e+00 1.6214253181e+00 2.8083910316e+00 
39200 5.5363785803e+00 1.8496674593e-05 1.6214253181e+00 -2.8083910316e+00 1.6214253181e+00 2.8083910316e+00 
39300 5.5363785818e+00 1.9708089979e-05 1.6214253181e+00 -2.8083910316e+00 1.6214253181e+00 2.8083910316e+00 
39400 5.5363785833e+00 2.0899866733e-05 1.6214253181e+00 -2.8083910316e+00 1.6214253181e+00 2.8083910316e+00 
39500 5.5363785848e+00 2.2071093240e-05 1.6214253181e+00 -2.8083910316e+00 1.6214253181e+00 2.8083910316e+00 
39600 5.5363785863e+00 2.3220930001e-05 1.6214253181e+00 -2.8083910316e+00 1.6214253181e+00 2.8083910316e+00 
39700 5.5363785877e+00 2.4348608022e-05 1.6214253181e+00 -2.8083910316e+00 1.6214253181e+00 2.8083910316e+00 
39800 5.5363785891e+00 2.5453427128e-05 1.6214253181e+00 -2.8083910316e+00 1.6214253181e+00 2.8083910316e+00 
39900 5.5363785904e+00 2.6534754221e-05 1.6214253181e+00 -2.8083910316e+00 1.6214253181e+00 2.8083910316e+00 
40000 5.5363785917e+00 2.7592021499e-05 1.6214253181e+00 -2.8083910316e+00 1.6214253181e+00 2.8083910316e+00 
40100 5.5363785930e+00 2.8624724623e-05 1.6214253181e+00 -2.8083910316e+00 1.6214253181e+00 2.8083910316e+00 
40200 5.5363785943e+00 2.9632420844e-05 1.6214253181e+00 -2.8083910316e+00 1.6214253181e+00 2.8083910316e+00 
40300 5.5363785956e+00 3.0614727109e-05 1.6214253181e+00 -2.8083910316e+00 1.6214253181e+00 2.8083910316e+00 
40400 5.5363785968e+00 3.1571318129e-05 1.6214253181e+00 -2.8083910316e+00 1.6214253181e+00 2.8083910316e+00 
40500 5.5363785980e+00 3.2501924427e-05 1.6214253181e+00 -2.8083910316e+00 1.6214253181e+00 2.8083910316e+00 
40600 5.5363785991e+00 3.3406330369e-05 1.6214253181e+00 -2.8083910316e+00 1.6214253181e+00 2.8083910316e+00 
40700 5.5363786003e+00 3.4284372188e-05 1.6214253181e+00 -2.8083910316e+00 1.6214253181e+00 2.8083910316e+00 
40800 5.5363786014e+00 3.5135935993e-05 1.6214253181e+00 -2.8083910316e+00 1.6214253181e+00 2.8083910316e+00 
40900 5.5363786025e+00 3.5960955770e-05 1.6214253181e+00 -2.8083910316e+00 1.6214253181e+00 2.8083910316e+00 
41000 5.5363786036e+00 3.6759411402e-05 1.6214253181e+00 -2.8083910316e+00 1.6214253181e+00 2.8083910316e+00 
41100 5.5363786047e+00 3.7531326663e-05 1.6214253181e+00 -2.8083910316e+00 1.6214253181e+00 2.8083910316e+00 
41200 5.5363786057e+00 3.8276767253e-05 1.6214253181e+00 -2.8083910316e+00 1.6214253181e+00 2.8083910316e+00 
41300 5.5363786067e+00 3.8995838817e-05 1.6214253181e+00 -2.8083910316e+00 1.6214253181e+00 2.8083910316e+00 
41400 5.5363786077e+00 3.9688684996e-05 1.6214253181e+00 -2.8083910316e+00 1.6214253181e+00 2.8083910316e+00 
41500 5.5363786087e+00 4.0355485480e-05 1.6214253181e+00 -2.8083910316e+00 1.6214253181e+00 2.8083910316e+00 
41600 5.5363786097e+00 4.0996454101e-05 1.6214253181e+00 -2.8083910316e+00 1.6214253181e+00 2.8083910316e+00 
41700 5.5363786106e+00 4.1611836934e-05 1.6214253181e+00 -2.8083910316e+00 1.6214253181e+00 2.8083910316e+00 
41800 5.5363786116e+00 4.2201910423e-05 1.6214253181e+00 -2.8083910316e+00 1.6214253181e+00 2.8083910316e+00 
41900 5.5363786125e+00 4.2766979549e-05 1.6214253181e+00 -2.8083910316e+00 1.6214253181e+00 2.8083910316e+00 
42000 5.5363786134e+00 4.3307376016e-05 1.6214253181e+00 -2.8083910316e+00 1.6214253181e+00 2.8083910316e+00 
42100 5.5363786142e+00 4.3823456474e-05 1.6214253181e+00 -2.8083910316e+00 1.6214253181e+00 2.8083910316e+00 
42200 5.5363786151e+00 4.4315600778e-05 1.6214253181e+00 -2.8083910316e+00 1.6214253181e+00 2.8083910316e+00 
42300 5.5363786160e+00 4.4784210276e-05 1.6214253181e+00 -2.8083910316e+00 1.6214253181e+00 2.8083910316e+00 
42400 5.5363786168e+00 4.5229706148e-05 1.6214253181e+00 -2.8083910316e+00 1.6214253181e+00 2.8083910316e+00 
42500 5.5363786176e+00 4.5652527767e-05 1.6214253181e+00 -2.8083910316e+00 1.6214253181e+00 2.8083910316e+00 
42600 5.5363786184e+00 4.6053131121e-05 1.6214253181e+00 -2.8083910316e+00 1.6214253181e+00 2.8083910316e+00 
42700 5.5363786192e+00 4.6431987254e-05 1.6214253181e+00 -2.8083910316e+00 1.6214253181e+00 2.8083910316e+00 
42800 5.5363786200e+00 4.6789580770e-05 1.6214253181e+00 -2.8083910316e+00 1.6214253181e+00 2.8083910316e+00 
42900 5.5363786207e+00 4.7126408367e-05 1.6214253181e+00 -2.8083910316e+00 1.6214253181e+00 2.8083910316e+00 
43000 5.5363786215e+00 4.7442977425e-05 1.6214253181e+00 -2.8083910316e+00 1.6214253181e+00 2.8083910316e+00 
43100 5.5363786222e+00 4.7739804628e-05 1.6214253181e+00 -2.8083910316e+00 1.6214253181e+00 2.8083910316e+00 
43200 5.5363786230e+00 4.8017414644e-05 1.6214253181e+00 -2.8083910316e+00 1.6214253181e+00 2.8083910316e+00 
43300 5.5363786237e+00 4.8276338843e-05 1.6214253181e+00 -2.8083910316e+00 1.6214253181e+00 2.8083910316e+00 
43400 5.5363786244e+00 4.8517114062e-05 1.6214253181e+00 -2.8083910316e+00 1.6214253181e+00 2.8083910316e+00 
43500 5.5363786251e+00 4.8740281418e-05 1.6214253181e+00 -2.8083910316e+00 1.6214253181e+00 2.8083910316e+00 
43600 5.5363786257e+00 4.8946385170e-05 1.6214253181e+00 -2.8083910316e+00 1.6214253181e+00 2.8083910316e+00 
43700 5.5363786264e+00 4.9135971623e-05 1.6214253181e+00 -2.8083910316e+00 1.6214253181e+00 2.8083910316e+00 
43800 5.5363786271e+00 4.9309588078e-05 1.6214253181e+00 -2.8083910316e+00 1.6214253181e+00 2.8083910316e+00 
43900 5.5363786277e+00 4.9467781835e-05 1.6214253181e+00 -2.8083910316e+00 1.6214253181e+00 2.8083910316e+00 
44000 5.5363786283e+00 4.9611099239e-05 1.6214253181e+00 -2.8083910316e+00 1.6214253181e+00 2.8083910316e+00 
44100 5.5363786290e+00 4.9740084765e-05 1.6214253181e+00 -2.8083910316e+00 1.6214253181e+00 2.8083910316e+00 
44200 5.5363786296e+00 4.9855280153e-05 1.6214253181e+00 -2.8083910316e+00 1.6214253181e+00 2.8083910316e+00 
44300 5.5363786302e+00 4.9957223602e-05 1.6214253181e+00 -2.8083910316e+00 1.6214253181e+00 2.8083910316e+00 
44400 5.5363786308e+00 5.0046448982e-05 1.6214253181e+00 -2.8083910316e+00 1.6214253181e+00 2.8083910316e+00 
44500 5.5363786313e+00 5.0123485108e-05 1.6214253181e+00 -2.8083910316e+00 1.6214253181e+00 2.8083910316e+00 
44600 5.5363786319e+00 5.0188855047e-05 1.6214253181e+00 -2.8083910316e+00 1.6214253181e+00 2.8083910316e+00 
44700 5.5363786325e+00 5.0243075484e-05 1.6214253181e+00 -2.8083910316e+00 1.6214253181e+00 2.8083910316e+00 
44800 5.5363786330e+00 5.0286656108e-05 1.6214253181e+00 -2.8083910316e+00 1.6214253181e+00 2.8083910316e+00 
44900 5.5363786336e+00 5.0320099049e-05 1.6214253181e+00 -2.8083910316e+00 1.6214253181e+00 2.8083910316e+00 
45000 5.5363786341e+00 5.0343898363e-05 1.6214253181e+00 -2.8083910316e+00 1.6214253181e+00 2.8083910316e+00 
45100 5.5363786346e+00 5.0358539542e-05 1.6214253181e+00 -2.8083910316e+00 1.6214253181e+00 2.8083910316e+00 
45200 5.5363786351e+00 5.0364499068e-05 1.6214253181e+00 -2.8083910316e+00 1.6214253181e+00 2.8083910316e+00 
45300 5.5363786356e+00 5.0362244010e-05 1.6214253181e+00 -2.8083910316e+00 1.6214253181e+00 2.8083910316e+00 
45400 5.5363786361e+00 5.0352231641e-05 1.6214253181e+00 -2.8083910316e+00 1.6214253181e+00 2.8083910316e+00 
45500 5.5363786366e+00 5.0334909117e-05 1.6214253181e+00 -2.8083910316e+00 1.6214253181e+00 2.8083910316e+00 
45600 5.5363786371e+00 5.0310713160e-05 1.6214253181e+00 -2.8083910316e+00 1.6214253181e+00 2.8083910316e+00 
45700 5.5363786376e+00 5.0280069796e-05 1.6214253181e+00 -2.8083910316e+00 1.6214253181e+00 2.8083910316e+00 
45800 5.5363786380e+00 5.0243394119e-05 1.6214253181e+00 -2.8083910316e+00 1.6214253181e+00 2.8083910316e+00 
45900 5.5363786385e+00 5.0201090081e-05 1.6214253181e+00 -2.8083910316e+00 1.6214253181e+00 2.8083910316e+00 
46000 5.5363786389e+00 5.0153550317e-05 1.6214253181e+00 -2.8083910316e+00 1.6214253181e+00 2.8083910316e+00 
46100 5.5363786394e+00 5.0101156003e-05 1.6214253181e+00 -2.8083910316e+00 1.6214253181e+00 2.8083910316e+00 
46200 5.5363786398e+00 5.0044276727e-05 1.6214253181e+00 -2.8083910316e+00 1.6214253181e+00 2.8083910316e+00 
46300 5.5363786402e+00 4.9983270410e-05 1.6214253181e+00 -2.8083910316e+00 1.6214253181e+00 2.8083910316e+00 
46400 5.5363786407e+00 4.9918483230e-05 1.6214253181e+00 -2.8083910316e+00 1.6214253181e+00 2.8083910316e+00 
46500 5.5363786411e+00 4.9850249584e-05 1.6214253181e+00 -2.8083910316e+00 1.6214253181e+00 2.8083910316e+00 
46600 5.5363786415e+00 4.9778892068e-05 1.6214253181e+00 -2.8083910316e+00 1.6214253181e+00 2.8083910316e+00 
46700 5.5363786419e+00 4.9704721487e-05 1.6214253181e+00 -2.8083910316e+00 1.6214253181e+00 2.8083910316e+00 
46800 5.5363786423e+00 4.9628036870e-05 1.6214253181e+00 -2.8083910316e+00 1.6214253181e+00 2.8083910316e+00 
46900 5.5363786426e+00 4.9549125532e-05 1.6214253181e+00 -2.8083910316e+00 1.6214253181e+00 2.8083910316e+00 
47000 5.5363786430e+00 4.9468263123e-05 1.6214253181e+00 -2.8083910316e+00 1.6214253181e+00 2.8083910316e+00 
47100 5.5363786434e+00 4.9385713722e-05 1.6214253181e+00 -2.8083910316e+00 1.6214253181e+00 2.8083910316e+00 
47200 5.5363786438e+00 4.9301729941e-05 1.6214253181e+00 -2.8083910316e+00 1.6214253181e+00 2.8083910316e+00 
47300 5.5363786441e+00 4.9216553029e-05 1.6214253181e+00 -2.8083910316e+00 1.6214253181e+00 2.8083910316e+00 
47400 5.5363786445e+00 4.9130413018e-05 1.6214253181e+00 -2.8083910316e+00 1.6214253181e+00 2.8083910316e+00 
47500 5.5363786448e+00 4.9043528866e-05 1.6214253181e+00 -2.8083910316e+00 1.6214253181e+00 2.8083910316e+00 
47600 5.5363786451e+00 4.8956108613e-05 1.6214253181e+00 -2.8083910316e+00 1.6214253181e+00 2.8083910316e+00 
47700 5.5363786455e+00 4.8868349562e-05 1.6214253181e+00 -2.8083910316e+00 1.6214253181e+00 2.8083910316e+00 
47800 5.5363786458e+00 4.8780438459e-05 1.6214253181e+00 -2.8083910316e+00 1.6214253181e+00 2.8083910316e+00 
47900 5.5363786461e+00 4.8692551681e-05 1.6214253181e+00 -2.8083910316e+00 1.6214253181e+00 2.8083910316e+00 
48000 5.5363786464e+00 4.8604855457e-05 1.6214253181e+00 -2.8083910316e+00 1.6214253181e+00 2.8083910316e+00 
48100 5.5363786468e+00 4.8517506066e-05 1.6214253181e+00 -2.8083910316e+00 1.6214253181e+00 2.8083910316e+00 
48200 5.5363786471e+00 4.8430650069e-05 1.6214253181e+00 -2.8083910316e+00 1.6214253181e+00 2.8083910316e+00 
48300 5.5363786474e+00 4.8344424532e-05 1.6214253181e+00 -2.8083910316e+00 1.6214253181e+00 2.8083910316e+00 
48400 5.5363786477e+00 4.8258957265e-05 1.6214253181e+00 -2.8083910316e+00 1.6214253181e+00 2.8083910316e+00 
48500 5.5363786479e+00 4.8174367061e-05 1.6214253181e+00 -2.8083910316e+00 1.6214253181e+00 2.8083910316e+00 
48600 5.5363786482e+00 4.8090763945e-05 1.6214253181e+00 -2.8083910316e+00 1.6214253181e+00 2.8083910316e+00 
48700 5.5363786485e+00 4.8008249422e-05 1.6214253181e+00 -2.8083910316e+00 1.6214253181e+00 2.8083910316e+00 
48800 5.5363786488e+00 4.7926916728e-05 1.6214253181e+00 -2.8083910316e+00 1.6214253181e+00 2.8083910316e+00 
48900 5.5363786490e+00 4.7846851099e-05 1.6214253181e+00 -2.8083910316e+00 1.6214253181e+00 2.8083910316e+00 
49000 5.5363786493e+00 4.7768130019e-05 1.6214253181e+00 -2.8083910316e+00 1.6214253181e+00 2.8083910316e+00 
49100 5.5363786496e+00 4.7690823482e-05 1.6214253181e+00 -2.8083910316e+00 1.6214253181e+00 2.8083910316e+00 
49200 5.5363786498e+00 4.7614994264e-05 1.6214253181e+00 -2.8083910316e+00 1.6214253181e+00 2.8083910316e+00 
49300 5.5363786501e+00 4.7540698173e-05 1.6214253181e+00 -2.8083910316e+00 1.6214253181e+00 2.8083910316e+00 
49400 5.5363786503e+00 4.7467984326e-05 1.6214253181e+00 -2.8083910316e+00 1.6214253181e+00 2.8083910316e+00 
49500 5.5363786506e+00 4.7396895398e-05 1.6214253181e+00 -2.8083910316e+00 1.6214253181e+00 2.8083910316e+00 
49600 5.5363786508e+00 4.7327467893e-05 1.6214253181e+00 -2.8083910316e+00 1.6214253181e+00 2.8083910316e+00 
49700 5.5363786511e+00 4.7259732406e-05 1.6214253181e+00 -2.8083910316e+00 1.6214253181e+00 2.8083910316e+00 
49800 5.5363786513e+00 4.7193713871e-05 1.6214253181e+00 -2.8083910316e+00 1.6214253181e+00 2.8083910316e+00 
49900 5.5363786515e+00 4.7129431832e-05 1.6214253181e+00 -2.8083910316e+00 1.6214253181e+00 2.8083910316e+00 
50000 5.5363786517e+00 4.7066900684e-05 1.6214253181e+00 -2.8083910316e+00 1.6214253181e+00 2.8083910316e+00 
50100 5.5363786520e+00 4.7006129930e-05 1.6214253181e+00 -2.8083910316e+00 1.6214253181e+00 2.8083910316e+00 
50200 5.5363786522e+00 4.6947124431e-05 1.6214253181e+00 -2.8083910316e+00 1.6214253181e+00 2.8083910316e+00 
50300 5.5363786524e+00 4.6889884647e-05 1.6214253181e+00 -2.8083910316e+00 1.6214253181e+00 2.8083910316e+00 
50400 5.5363786526e+00 4.6834406881e-05 1.6214253181e+00 -2.8083910316e+00 1.6214253181e+00 2.8083910316e+00 
50500 5.5363786528e+00 4.6780683506e-05 1.6214253181e+00 -2.8083910316e+00 1.6214253181e+00 2.8083910316e+00 
50600 5.5363786530e+00 4.6728703211e-05 1.6214253181e+00 -2.8083910316e+00 1.6214253181e+00 2.8083910316e+00 
50700 5.5363786532e+00 4.6678451218e-05 1.6214253181e+00 -2.8083910316e+00 1.6214253181e+00 2.8083910316e+00 
50800 5.5363786534e+00 4.6629909506e-05 1.6214253181e+00 -2.8083910316e+00 1.6214253181e+00 2.8083910316e+00 
50900 5.5363786536e+00 4.6583057033e-05 1.6214253181e+00 -2.8083910316e+00 1.6214253181e+00 2.8083910316e+00 
51000 5.5363786538e+00 4.6537869943e-05 1.6214253181e+00 -2.8083910316e+00 1.6214253181e+00 2.8083910316e+00 
51100 5.5363786540e+00 4.6494321778e-05 1.6214253181e+00 -2.8083910316e+00 1.6214253181e+00 2.8083910316e+00 
51200 5.5363786542e+00 4.6452383675e-05 1.6214253181e+00 -2.8083910316e+00 1.6214253181e+00 2.8083910316e+00 
51300 5.5363786543e+00 4.6412024564e-05 1.6214253181e+00 -2.8083910316e+00 1.6214253181e+00 2.8083910316e+00 
51400 5.5363786545e+00 4.6373211361e-05 1.6214253181e+00 -2.8083910316e+00 1.6214253181e+00 2.8083910316e+00 
51500 5.5363786547e+00 4.6335909145e-05 1.6214253181e+00 -2.8083910316e+00 1.6214253181e+00 2.8083910316e+00 
51600 5.5363786549e+00 4.6300081346e-05 1.6214253181e+00 -2.8083910316e+00 1.6214253181e+00 2.8083910316e+00 
51700 5.5363786550e+00 4.6265689909e-05 1.6214253181e+00 -2.8083910316e+00 1.6214253181e+00 2.8083910316e+00 
51800 5.5363786552e+00 4.6232695469e-05 1.6214253181e+00 -2.8083910316e+00 1.6214253181e+00 2.8083910316e+00 
51900 5.5363786554e+00 4.6201057502e-05 1.6214253181e+00 -2.8083910316e+00 1.6214253181e+00 2.8083910316e+00 
52000 5.5363786555e+00 4.6170734493e-05 1.6214253181e+00 -2.8083910316e+00 1.6214253181e+00 2.8083910316e+00 
52100 5.5363786557e+00 4.6141684068e-05 1.6214253181e+00 -2.8083910316e+00 1.6214253181e+00 2.8083910316e+00 
52200 5.5363786558e+00 4.6113863153e-05 1.6214253181e+00 -2.8083910316e+00 1.6214253181e+00 2.8083910316e+00 
52300 5.5363786560e+00 4.6087228102e-05 1.6214253181e+00 -2.8083910316e+00 1.6214253181e+00 2.8083910316e+00 
52400 5.5363786561e+00 4.6061734828e-05 1.6214253181e+00 -2.8083910316e+00 1.6214253181e+00 2.8083910316e+00 
52500 5.5363786563e+00 4.6037338931e-05 1.6214253181e+00 -2.8083910316e+00 1.6214253181e+00 2.8083910316e+00 
52600 5.5363786564e+00 4.6013995816e-05 1.6214253181e+00 -2.8083910316e+00 1.6214253181e+00 2.8083910316e+00 
52700 5.5363786566e+00 4.5991660803e-05 1.6214253181e+00 -2.8083910316e+00 1.6214253181e+00 2.8083910316e+00 
52800 5.5363786567e+00 4.5970289241e-05 1.6214253181e+00 -2.8083910316e+00 1.6214253181e+00 2.8083910316e+00 
52900 5.5363786568e+00 4.5949836605e-05 1.6214253181e+00 -2.8083910316e+00 1.6214253181e+00 2.8083910316e+00 
53000 5.5363786570e+00 4.5930258595e-05 1.6214253181e+00 -2.8083910316e+00 1.6214253181e+00 2.8083910316e+00 
53100 5.5363786571e+00 4.5911511223e-05 1.6214253181e+00 -2.8083910316e+00 1.6214253181e+00 2.8083910316e+00 
53200 5.5363786572e+00 4.5893550903e-05 1.6214253181e+00 -2.8083910316e+00 1.6214253181e+00 2.8083910316e+00 
53300 5.5363786574e+00 4.5876334527e-05 1.6214253181e+00 -2.8083910316e+00 1.6214253181e+00 2.8083910316e+00 
53400 5.5363786575e+00 4.5859819547e-05 1.6214253181e+00 -2.8083910316e+00 1.6214253181e+00 2.8083910316e+00 
53500 5.5363786576e+00 4.5843964035e-05 1.6214253181e+00 -2.8083910316e+00 1.6214253181e+00 2.8083910316e+00 
53600 5.5363786578e+00 4.5828726755e-05 1.6214253181e+00 -2.8083910316e+00 1.6214253181e+00 2.8083910316e+00 
53700 5.5363786579e+00 4.5814067220e-05 1.6214253181e+00 -2.8083910316e+00 1.6214253181e+00 2.8083910316e+00 
53800 5.5363786580e+00 4.5799945749e-05 1.6214253181e+00 -2.8083910316e+00 1.6214253181e+00 2.8083910316e+00 
53900 5.5363786581e+00 4.5786323517e-05 1.6214253181e+00 -2.8083910316e+00 1.6214253181e+00 2.8083910316e+00 
54000 5.5363786582e+00 4.5773162602e-05 1.6214253181e+00 -2.8083910316e+00 1.6214253181e+00 2.8083910316e+00 
54100 5.5363786583e+00 4.5760426025e-05 1.6214253181e+00 -2.8083910316e+00 1.6214253181e+00 2.8083910316e+00 
54200 5.5363786585e+00 4.5748077788e-05 1.6214253181e+00 -2.8083910316e+00 1.6214253181e+00 2.8083910316e+00 
54300 5.5363786586e+00 4.5736082912e-05 1.6214253181e+00 -2.8083910316e+00 1.6214253181e+00 2.8083910316e+00 
54400 5.5363786587e+00 4.5724407459e-05 1.6214253181e+00 -2.8083910316e+00 1.6214253181e+00 2.8083910316e+00 
54500 5.5363786588e+00 4.5713018568e-05 1.6214253181e+00 -2.8083910316e+00 1.6214253181e+00 2.8083910316e+00 
54600 5.5363786589e+00 4.5701884465e-05 1.6214253181e+00 -2.8083910316e+00 1.6214253181e+00 2.8083910316e+00 
54700 5.5363786590e+00 4.5690974495e-05 1.6214253181e+00 -2.8083910316e+00 1.6214253181e+00 2.8083910316e+00 
54800 5.5363786591e+00 4.5680259125e-05 1.6214253181e+00 -2.8083910316e+00 1.6214253181e+00 2.8083910316e+00 
54900 5.5363786592e+00 4.5669709965e-05 1.6214253181e+00 -2.8083910316e+00 1.6214253181e+00 2.8083910316e+00 
55000 5.5363786593e+00 4.5659299774e-05 1.6214253181e+00 -2.8083910316e+00 1.6214253181e+00 2.8083910316e+00 
55100 5.5363786594e+00 4.5649002462e-05 1.6214253181e+00 -2.8083910316e+00 1.6214253181e+00 2.8083910316e+00 
55200 5.5363786595e+00 4.5638793103e-05 1.6214253181e+00 -2.8083910316e+00 1.6214253181e+00 2.8083910316e+00 
55300 5.5363786596e+00 4.5628647928e-05 1.6214253181e+00 -2.8083910316e+00 1.6214253181e+00 2.8083910316e+00 
55400 5.5363786597e+00 4.5618544323e-05 1.6214253181e+00 -2.8083910316e+00 1.6214253181e+00 2.8083910316e+00 
55500 5.5363786598e+00 4.5608460826e-05 1.6214253181e+00 -2.8083910316e+00 1.6214253181e+00 2.8083910316e+00 
55600 5.5363786599e+00 4.5598377123e-05 1.6214253181e+00 -2.8083910316e+00 1.6214253181e+00 2.8083910316e+00 
55700 5.5363786599e+00 4.5588274037e-05 1.6214253181e+00 -2.8083910316e+00 1.6214253181e+00 2.8083910316e+00 
55800 5.5363786600e+00 4.5578133512e-05 1.6214253181e+00 -2.8083910316e+00 1.6214253181e+00 2.8083910316e+00 
55900 5.5363786601e+00 4.5567938611e-05 1.6214253181e+00 -2.8083910316e+00 1.6214253181e+00 2.8083910316e+00 
56000 5.5363786602e+00 4.5557673491e-05 1.6214253181e+00 -2.8083910316e+00 1.6214253181e+00 2.8083910316e+00 
56100 5.5363786603e+00 4.5547323394e-05 1.6214253181e+00 -2.8083910316e+00 1.6214253181e+00 2.8083910316e+00 
56200 5.5363786604e+00 4.5536874624e-05 1.6214253181e+00 -2.8083910316e+00 1.6214253181e+00 2.8083910316e+00 
56300 5.5363786604e+00 4.5526314530e-05 1.6214253181e+00 -2.8083910316e+00 1.6214253181e+00 2.8083910316e+00 
56400 5.5363786605e+00 4.5515631485e-05 1.6214253181e+00 -2.8083910316e+00 1.6214253181e+00 2.8083910316e+00 
56500 5.5363786606e+00 4.5504814864e-05 1.6214253181e+00 -2.8083910316e+00 1.6214253181e+00 2.8083910316e+00 
56600 5.5363786607e+00 4.5493855024e-05 1.6214253181e+00 -2.8083910316e+00 1.6214253181e+00 2.8083910316e+00 
56700 5.5363786607e+00 4.5482743275e-05 1.6214253181e+00 -2.8083910316e+00 1.6214253181e+00 2.8083910316e+00 
56800 5.5363786608e+00 4.5471471855e-05 1.6214253181e+00 -2.8083910316e+00 1.6214253181e+00 2.8083910316e+00 
56900 5.5363786609e+00 4.5460033910e-05 1.6214253181e+00 -2.8083910316e+00 1.6214253181e+00 2.8083910316e+00 
57000 5.5363786610e+00 4.5448423464e-05 1.6214253181e+00 -2.8083910316e+00 1.6214253181e+00 2.8083910316e+00 
57100 5.5363786610e+00 4.5436635389e-05 1.6214253181e+00 -2.8083910316e+00 1.6214253181e+00 2.8083910316e+00 
57200 5.5363786611e+00 4.5424665383e-05 1.6214253181e+00 -2.8083910316e+00 1.6214253181e+00 2.8083910316e+00 
57300 5.5363786612e+00 4.5412509942e-05 1.6214253181e+00 -2.8083910316e+00 1.6214253181e+00 2.8083910316e+00 
57400 5.5363786612e+00 4.5400166321e-05 1.6214253181e+00 -2.8083910316e+00 1.6214253181e+00 2.8083910316e+00 
57500 5.5363786613e+00 4.5387632522e-05 1.6214253181e+00 -2.8083910316e+00 1.6214253181e+00 2.8083910316e+00 
57600 5.5363786614e+00 4.5374907250e-05 1.6214253181e+00 -2.8083910316e+00 1.6214253181e+00 2.8083910316e+00 
57700 5.5363786614e+00 4.5361989893e-05 1.6214253181e+00 -2.8083910316e+00 1.6214253181e+00 2.8083910316e+00 
57800 5.5363786615e+00 4.5348880490e-05 1.6214253181e+00 -2.8083910316e+00 1.6214253181e+00 2.8083910316e+00 
57900 5.5363786616e+00 4.5335579700e-05 1.6214253181e+00 -2.8083910316e+00 1.6214253181e+00 2.8083910316e+00 
58000 5.5363786616e+00 4.5322088776e-05 1.6214253181e+00 -2.8083910316e+00 1.6214253181e+00 2.8083910316e+00 
58100 5.5363786617e+00 4.5308409531e-05 1.6214253181e+00 -2.8083910316e+00 1.6214253181e+00 2.8083910316e+00 
58200 5.5363786617e+00 4.5294544318e-05 1.6214253181e+00 -2.8083910316e+00 1.6214253181e+00 2.8083910316e+00 
58300 5.5363786618e+00 4.5280495991e-05 1.6214253181e+00 -2.8083910316e+00 1.6214253181e+00 2.8083910316e+00 
58400 5.5363786619e+00 4.5266267885e-05 1.6214253181e+00 -2.8083910316e+00 1.6214253181e+00 2.8083910316e+00 
58500 5.5363786619e+00 4.5251863779e-05 1.6214253181e+00 -2.8083910316e+00 1.6214253181e+00 2.8083910316e+00 
58600 5.5363786620e+00 4.5237287880e-05 1.6214253181e+00 -2.8083910316e+00 1.6214253181e+00 2.8083910316e+00 
58700 5.5363786620e+00 4.5222544781e-05 1.6214253181e+00 -2.8083910316e+00 1.6214253181e+00 2.8083910316e+00 
58800 5.5363786621e+00 4.5207639449e-05 1.6214253181e+00 -2.8083910316e+00 1.6214253181e+00 2.8083910316e+00 
58900 5.5363786621e+00 4.5192577188e-05 1.6214253181e+00 -2.8083910316e+00 1.6214253181e+00 2.8083910316e+00 
59000 5.5363786622e+00 4.5177363615e-05 1.6214253181e+00 -2.8083910316e+00 1.6214253181e+00 2.8083910316e+00 
59100 5.5363786622e+00 4.5162004639e-05 1.6214253181e+00 -2.8083910316e+00 1.6214253181e+00 2.8083910316e+00 
59200 5.5363786623e+00 4.5146506431e-05 1.6214253181e+00 -2.8083910316e+00 1.6214253181e+00 2.8083910316e+00 
59300 5.5363786623e+00 4.5130875403e-05 1.6214253181e+00 -2.8083910316e+00 1.6214253181e+00 2.8083910316e+00 
59400 5.5363786624e+00 4.5115118179e-05 1.6214253181e+00 -2.8083910316e+00 1.6214253181e+00 2.8083910316e+00 
59500 5.5363786624e+00 4.5114485362e-05 1.6214253181e+00 -2.8083910316e+00 1.6214253181e+00 2.8083910316e+00 
59500 5.5363786624e+00 4.5114485362e-05 1.6214253181e+00 -2.8083910316e+00 1.6214253181e+00 2.8083910316e+00 
