# step Hamiltonian StressXX CellTensor1 CellTensor2 CellTensor3 CellTensor4 
0 5.1341381006e+00 5.9583351512e-02 2.8378601290e+00 -4.9153179282e+00 2.8378601290e+00 4.9153179282e+00 
100 5.0158631238e+00 5.3597660630e-02 2.8378601290e+00 -4.9153179282e+00 2.8378601290e+00 4.9153179282e+00 
200 4.9106574637e+00 4.9858702797e-02 2.8369158491e+00 -4.9136823874e+00 2.8369158491e+00 4.9136823874e+00 
300 4.8173008721e+00 4.8267857432e-02 2.8360371461e+00 -4.9121604292e+00 2.8360371461e+00 4.9121604292e+00 
400 4.7346252534e+00 4.8638059332e-02 2.8351862150e+00 -4.9106865733e+00 2.8351862150e+00 4.9106865733e+00 
500 4.6615489349e+00 5.0781670798e-02 2.8343285005e+00 -4.9092009683e+00 2.8343285005e+00 4.9092009683e+00 
600 4.5970684897e+00 5.4510645080e-02 2.8334327152e+00 -4.9076494226e+00 2.8334327152e+00 4.9076494226e+00 
700 4.5402517061e+00 5.9635988225e-02 2.8324708509e+00 -4.9059834247e+00 2.8324708509e+00 4.9059834247e+00 
800 4.4902316785e+00 6.5966697364e-02 2.8314181959e+00 -4.9041601727e+00 2.8314181959e+00 4.9041601727e+00 
900 4.4462020844e+00 7.3308465294e-02 2.8302533702e+00 -4.9021426355e+00 2.8302533702e+00 4.9021426355e+00 
1000 4.4074137830e+00 8.1462573541e-02 2.8289583824e+00 -4.8998996508e+00 2.8289583824e+00 4.8998996508e+00 
1100 4.3731728976e+00 9.0225529248e-02 2.8275187066e+00 -4.8974060591e+00 2.8275187066e+00 4.8974060591e+00 
1200 4.3428405140e+00 9.9390090890e-02 2.8259233672e+00 -4.8946428502e+00 2.8259233672e+00 4.8946428502e+00 
1300 4.3158339924e+00 1.0874830199e-01 2.8241650078e+00 -4.8915972825e+00 2.8241650078e+00 4.8915972825e+00 
1400 4.2916296381e+00 1.1809692544e-01 2.8222399089e+00 -4.8882629134e+00 2.8222399089e+00 4.8882629134e+00 
1500 4.2697661217e+00 1.2724518661e-01 2.8201479124e+00 -4.8846394691e+00 2.8201479124e+00 4.8846394691e+00 
1600 4.2498476531e+00 1.3602402787e-01 2.8178922114e+00 -4.8807324804e+00 2.8178922114e+00 4.8807324804e+00 
1700 4.2315456594e+00 1.4429533778e-01 2.8154789787e+00 -4.8765526388e+00 2.8154789787e+00 4.8765526388e+00 
1800 4.2145977532e+00 1.5195916718e-01 2.8129168315e+00 -4.8721148697e+00 2.8129168315e+00 4.8721148697e+00 
1900 4.1988032312e+00 1.5895709766e-01 2.8102161683e+00 -4.8674371837e+00 2.8102161683e+00 4.8674371837e+00 
2000 4.1840151348e+00 1.6527078197e-01 2.8073884426e+00 -4.8625394191e+00 2.8073884426e+00 4.8625394191e+00 
2100 4.1701297792e+00 1.7091596200e-01 2.8044454606e+00 -4.8574420249e+00 2.8044454606e+00 4.8574420249e+00 
2200 4.1570752687e+00 1.7593345449e-01 2.8013987803e+00 -4.8521650197e+00 2.8013987803e+00 4.8521650197e+00 
2300 4.1448006298e+00 1.8037918322e-01 2.7982592674e+00 -4.8467272239e+00 2.7982592674e+00 4.8467272239e+00 
2400 4.1332668200e+00 1.8431516769e-01 2.7950368263e+00 -4.8411457921e+00 2.7950368263e+00 4.8411457921e+00 
2500 4.1224402231e+00 1.8780267267e-01 2.7917402886e+00 -4.8354360213e+00 2.7917402886e+00 4.8354360213e+00 
2600 4.1122886116e+00 1.9089788213e-01 2.7883774235e+00 -4.8296113682e+00 2.7883774235e+00 4.8296113682e+00 
2700 4.1027791325e+00 1.9364981465e-01 2.7849550250e+00 -4.8236836001e+00 2.7849550250e+00 4.8236836001e+00 
2800 4.0938777031e+00 1.9609987603e-01 2.7814790358e+00 -4.8176630102e+00 2.7814790358e+00 4.8176630102e+00 
2900 4.0855492352e+00 1.9828240374e-01 2.7779546806e+00 -4.8115586479e+00 2.7779546806e+00 4.8115586479e+00 
3000 4.0777582371e+00 2.0022567932e-01 2.7743865897e+00 -4.8053785333e+00 2.7743865897e+00 4.8053785333e+00 
3100 4.0704695023e+00 2.0195305692e-01 2.7707789054e+00 -4.7991298407e+00 2.7707789054e+00 4.7991298407e+00 
3200 4.0636487220e+00 2.0348401128e-01 2.7671353681e+00 -4.7928190490e+00 2.7671353681e+00 4.7928190490e+00 
3300 4.0572629570e+00 2.0483501971e-01 2.7634593844e+00 -4.7864520585e+00 2.7634593844e+00 4.7864520585e+00 
3400 4.0512809565e+00 2.0602026035e-01 2.7597540799e+00 -4.7800342827e+00 2.7597540799e+00 4.7800342827e+00 
3500 4.0456733414e+00 2.0705214312e-01 2.7560223387e+00 -4.7735707174e+00 2.7560223387e+00 4.7735707174e+00 
3600 4.0404126804e+00 2.0794170325e-01 2.7522668350e+00 -4.7670659941e+00 2.7522668350e+00 4.7670659941e+00 
3700 4.0354734883e+00 2.0869888833e-01 2.7484900560e+00 -4.7605244211e+00 2.7484900560e+00 4.7605244211e+00 
3800 4.0308321695e+00 2.0933276637e-01 2.7446943214e+00 -4.7539500160e+00 2.7446943214e+00 4.7539500160e+00 
3900 4.0264669293e+00 2.0985167667e-01 2.7408817981e+00 -4.7473465318e+00 2.7408817981e+00 4.7473465318e+00 
4000 4.0223576649e+00 2.1026334025e-01 2.7370545123e+00 -4.7407174784e+00 2.7370545123e+00 4.7407174784e+00 
4100 4.0184858493e+00 2.1057494158e-01 2.7332143606e+00 -4.7340661405e+00 2.7332143606e+00 4.7340661405e+00 
4200 4.0148344124e+00 2.1079319050e-01 2.7293631184e+00 -4.7273955933e+00 2.7293631184e+00 4.7273955933e+00 
4300 4.0113876253e+00 2.1092437006e-01 2.7255024482e+00 -4.7207087165e+00 2.7255024482e+00 4.7207087165e+00 
4400 4.0081309911e+00 2.1097437448e-01 2.7216339067e+00 -4.7140082060e+00 2.7216339067e+00 4.7140082060e+00 
4500 4.0050511416e+00 2.1094874004e-01 2.7177589508e+00 -4.7072965854e+00 2.7177589508e+00 4.7072965854e+00 
4600 4.0021357420e+00 2.1085267085e-01 2.7138789440e+00 -4.7005762166e+00 2.7138789440e+00 4.7005762166e+00 
4700 3.9993734039e+00 2.1069106081e-01 2.7099951618e+00 -4.6938493084e+00 2.7099951618e+00 4.6938493084e+00 
4800 3.9967536051e+00 2.1046851269e-01 2.7061087966e+00 -4.6871179264e+00 2.7061087966e+00 4.6871179264e+00 
4900 3.9942666174e+00 2.1018935499e-01 2.7022209626e+00 -4.6803840005e+00 2.7022209626e+00 4.6803840005e+00 
5000 3.9919034398e+00 2.0985765711e-01 2.6983327006e+00 -4.6736493332e+00 2.6983327006e+00 4.6736493332e+00 
5100 3.9896557390e+00 2.0947724304e-01 2.6944449817e+00 -4.6669156066e+00 2.6944449817e+00 4.6669156066e+00 
5200 3.9875157950e+00 2.0905170396e-01 2.6905587120e+00 -4.6601843899e+00 2.6905587120e+00 4.6601843899e+00 
5300 3.9854764512e+00 2.0858440989e-01 2.6866747357e+00 -4.6534571457e+00 2.6866747357e+00 4.6534571457e+00 
5400 3.9835310701e+00 2.0807852058e-01 2.6827938396e+00 -4.6467352365e+00 2.6827938396e+00 4.6467352365e+00 
5500 3.9816734920e+00 2.0753699565e-01 2.6789167561e+00 -4.6400199308e+00 2.6789167561e+00 4.6400199308e+00 
5600 3.9798979984e+00 2.0696260431e-01 2.6750441664e+00 -4.6333124086e+00 2.6750441664e+00 4.6333124086e+00 
5700 3.9781992775e+00 2.0635793449e-01 2.6711767040e+00 -4.6266137674e+00 2.6711767040e+00 4.6266137674e+00 
5800 3.9765723941e+00 2.0572540155e-01 2.6673149579e+00 -4.6199250268e+00 2.6673149579e+00 4.6199250268e+00 
5900 3.9750127608e+00 2.0506725671e-01 2.6634594747e+00 -4.6132471341e+00 2.6634594747e+00 4.6132471341e+00 
6000 3.9735161127e+00 2.0438559511e-01 2.6596107624e+00 -4.6065809689e+00 2.6596107624e+00 4.6065809689e+00 
6100 3.9720784836e+00 2.0368236350e-01 2.6557692922e+00 -4.5999273473e+00 2.6557692922e+00 4.5999273473e+00 
6200 3.9706961842e+00 2.0295936783e-01 2.6519355014e+00 -4.5932870269e+00 2.6519355014e+00 4.5932870269e+00 
6300 3.9693657825e+00 2.0221828046e-01 2.6481097959e+00 -4.5866607105e+00 2.6481097959e+00 4.5866607105e+00 
6400 3.9680840854e+00 2.0146064720e-01 2.6442925521e+00 -4.5800490502e+00 2.6442925521e+00 4.5800490502e+00 
6500 3.9668481218e+00 2.0068789414e-01 2.6404841193e+00 -4.5734526512e+00 2.6404841193e+00 4.5734526512e+00 
6600 3.9656551270e+00 1.9990133423e-01 2.6366848220e+00 -4.5668720752e+00 2.6366848220e+00 4.5668720752e+00 
6700 3.9645025284e+00 1.9910217375e-01 2.6328949612e+00 -4.5603078438e+00 2.6328949612e+00 4.5603078438e+00 
6800 3.9633879322e+00 1.9829151845e-01 2.6291148171e+00 -4.5537604421e+00 2.6291148171e+00 4.5537604421e+00 
6900 3.9623091109e+00 1.9747037966e-01 2.6253446499e+00 -4.5472303210e+00 2.6253446499e+00 4.5472303210e+00 
7000 3.9612639922e+00 1.9663968007e-01 2.6215847023e+00 -4.5407179007e+00 2.6215847023e+00 4.5407179007e+00 
7100 3.9602506480e+00 1.9580025943e-01 2.6178352006e+00 -4.5342235732e+00 2.6178352006e+00 4.5342235732e+00 
7200 3.9592672846e+00 1.9495287997e-01 2.6140963561e+00 -4.5277477046e+00 2.6140963561e+00 4.5277477046e+00 
7300 3.9583122338e+00 1.9409823172e-01 2.6103683668e+00 -4.5212906377e+00 2.6103683668e+00 4.5212906377e+00 
7400 3.9573839438e+00 1.9323693761e-01 2.6066514184e+00 -4.5148526942e+00 2.6066514184e+00 4.5148526942e+00 
7500 3.9564809716e+00 1.9236955834e-01 2.6029456855e+00 -4.5084341766e+00 2.6029456855e+00 4.5084341766e+00 
7600 3.9556019753e+00 1.9149659715e-01 2.5992513330e+00 -4.5020353704e+00 2.5992513330e+00 4.5020353704e+00 
7700 3.9547457072e+00 1.9061850435e-01 2.5955685167e+00 -4.4956565455e+00 2.5955685167e+00 4.4956565455e+00 
7800 3.9539110071e+00 1.8973568168e-01 2.5918973847e+00 -4.4892979583e+00 2.5918973847e+00 4.4892979583e+00 
7900 3.9530967966e+00 1.8884848645e-01 2.5882380777e+00 -4.4829598527e+00 2.5882380777e+00 4.4829598527e+00 
8000 3.9523020727e+00 1.8795723558e-01 2.5845907305e+00 -4.4766424620e+00 2.5845907305e+00 4.4766424620e+00 
8100 3.9515259031e+00 1.8706220938e-01 2.5809554721e+00 -4.4703460098e+00 2.5809554721e+00 4.4703460098e+00 
8200 3.9507674208e+00 1.8616365517e-01 2.5773324268e+00 -4.4640707113e+00 2.5773324268e+00 4.4640707113e+00 
8300 3.9500258195e+00 1.8526179071e-01 2.5737217146e+00 -4.4578167742e+00 2.5737217146e+00 4.4578167742e+00 
8400 3.9493003491e+00 1.8435680751e-01 2.5701234516e+00 -4.4515843998e+00 2.5701234516e+00 4.4515843998e+00 
8500 3.9485903117e+00 1.8344887384e-01 2.5665377509e+00 -4.4453737840e+00 2.5665377509e+00 4.4453737840e+00 
8600 3.9478950578e+00 1.8253813769e-01 2.5629647226e+00 -4.4391851175e+00 2.5629647226e+00 4.4391851175e+00 
8700 3.9472139823e+00 1.8162472948e-01 2.5594044744e+00 -4.4330185868e+00 2.5594044744e+00 4.4330185868e+00 
8800 3.9465465217e+00 1.8070876459e-01 2.5558571120e+00 -4.4268743748e+00 2.5558571120e+00 4.4268743748e+00 
8900 3.9458921503e+00 1.7979034581e-01 2.5523227390e+00 -4.4207526612e+00 2.5523227390e+00 4.4207526612e+00 
9000 3.9452503777e+00 1.7886956547e-01 2.5488014574e+00 -4.4146536227e+00 2.5488014574e+00 4.4146536227e+00 
9100 3.9446207460e+00 1.7794650759e-01 2.5452933680e+00 -4.4085774336e+00 2.5452933680e+00 4.4085774336e+00 
9200 3.9440028271e+00 1.7702124967e-01 2.5417985701e+00 -4.4025242660e+00 2.5417985701e+00 4.4025242660e+00 
9300 3.9433962201e+00 1.7609386449e-01 2.5383171617e+00 -4.3964942899e+00 2.5383171617e+00 4.3964942899e+00 
9400 3.9428005497e+00 1.7516442169e-01 2.5348492400e+00 -4.3904876733e+00 2.5348492400e+00 4.3904876733e+00 
9500 3.9422154634e+00 1.7423298916e-01 2.5313949010e+00 -4.3845045825e+00 2.5313949010e+00 4.3845045825e+00 
9600 3.9416406302e+00 1.7329963434e-01 2.5279542395e+00 -4.3785451821e+00 2.5279542395e+00 4.3785451821e+00 
9700 3.9410757383e+00 1.7236442539e-01 2.5245273496e+00 -4.3726096346e+00 2.5245273496e+00 4.3726096346e+00 
9800 3.9405204939e+00 1.7142743215e-01 2.5211143241e+00 -4.3666981010e+00 2.5211143241e+00 4.3666981010e+00 
9900 3.9399746195e+00 1.7048872707e-01 2.5177152547e+00 -4.3608107401e+00 2.5177152547e+00 4.3608107401e+00 
10000 3.9394378524e+00 1.6954838593e-01 2.5143302320e+00 -4.3549477089e+00 2.5143302320e+00 4.3549477089e+00 
10100 3.9389099438e+00 1.6860648847e-01 2.5109593454e+00 -4.3491091620e+00 2.5109593454e+00 4.3491091620e+00 
10200 3.9383906570e+00 1.6766311895e-01 2.5076026829e+00 -4.3432952519e+00 2.5076026829e+00 4.3432952519e+00 
10300 3.9378797671e+00 1.6671836651e-01 2.5042603309e+00 -4.3375061285e+00 2.5042603309e+00 4.3375061285e+00 
10400 3.9373770594e+00 1.6577232553e-01 2.5009323745e+00 -4.3317419390e+00 2.5009323745e+00 4.3317419390e+00 
10500 3.9368823288e+00 1.6482509583e-01 2.4976188970e+00 -4.3260028276e+00 2.4976188970e+00 4.3260028276e+00 
10600 3.9363953791e+00 1.6387678279e-01 2.4943199799e+00 -4.3202889355e+00 2.4943199799e+00 4.3202889355e+00 
10700 3.9359160220e+00 1.6292749742e-01 2.4910357027e+00 -4.3146004005e+00 2.4910357027e+00 4.3146004005e+00 
10800 3.9354440767e+00 1.6197735632e-01 2.4877661429e+00 -4.3089373569e+00 2.4877661429e+00 4.3089373569e+00 
10900 3.9349793693e+00 1.6102648157e-01 2.4845113759e+00 -4.3032999351e+00 2.4845113759e+00 4.3032999351e+00 
11000 3.9345217321e+00 1.6007500059e-01 2.4812714747e+00 -4.2976882615e+00 2.4812714747e+00 4.2976882615e+00 
11100 3.9340710034e+00 1.5912304593e-01 2.4780465097e+00 -4.2921024583e+00 2.4780465097e+00 4.2921024583e+00 
11200 3.9336270268e+00 1.5817075499e-01 2.4748365489e+00 -4.2865426432e+00 2.4748365489e+00 4.2865426432e+00 
11300 3.9331896510e+00 1.5721826968e-01 2.4716416577e+00 -4.2810089293e+00 2.4716416577e+00 4.2810089293e+00 
11400 3.9327587298e+00 1.5626573613e-01 2.4684618984e+00 -4.2755014247e+00 2.4684618984e+00 4.2755014247e+00 
11500 3.9323341211e+00 1.5531330427e-01 2.4652973307e+00 -4.2700202326e+00 2.4652973307e+00 4.2700202326e+00 
11600 3.9319156874e+00 1.5436112740e-01 2.4621480111e+00 -4.2645654509e+00 2.4621480111e+00 4.2645654509e+00 
11700 3.9315032950e+00 1.5340936181e-01 2.4590139929e+00 -4.2591371722e+00 2.4590139929e+00 4.2591371722e+00 
11800 3.9310968144e+00 1.5245816628e-01 2.4558953265e+00 -4.2537354836e+00 2.4558953265e+00 4.2537354836e+00 
11900 3.9306961196e+00 1.5150770164e-01 2.4527920588e+00 -4.2483604663e+00 2.4527920588e+00 4.2483604663e+00 
12000 3.9303010882e+00 1.5055813031e-01 2.4497042336e+00 -4.2430121960e+00 2.4497042336e+00 4.2430121960e+00 
12100 3.9299116014e+00 1.4960961577e-01 2.4466318910e+00 -4.2376907426e+00 2.4466318910e+00 4.2376907426e+00 
12200 3.9295275437e+00 1.4866232216e-01 2.4435750679e+00 -4.2323961697e+00 2.4435750679e+00 4.2323961697e+00 
12300 3.9291488029e+00 1.4771641375e-01 2.4405337977e+00 -4.2271285352e+00 2.4405337977e+00 4.2271285352e+00 
12400 3.9287752700e+00 1.4677205451e-01 2.4375081103e+00 -4.2218878909e+00 2.4375081103e+00 4.2218878909e+00 
12500 3.9284068391e+00 1.4582940763e-01 2.4344980321e+00 -4.2166742824e+00 2.4344980321e+00 4.2166742824e+00 
12600 3.9280434075e+00 1.4488863509e-01 2.4315035858e+00 -4.2114877494e+00 2.4315035858e+00 4.2114877494e+00 
12700 3.9276848752e+00 1.4394989722e-01 2.4285247909e+00 -4.2063283253e+00 2.4285247909e+00 4.2063283253e+00 
12800 3.9273311455e+00 1.4301335233e-01 2.4255616632e+00 -4.2011960376e+00 2.4255616632e+00 4.2011960376e+00 
12900 3.9269821244e+00 1.4207915626e-01 2.4226142150e+00 -4.1960909075e+00 2.4226142150e+00 4.1960909075e+00 
13000 3.9266377208e+00 1.4114746205e-01 2.4196824552e+00 -4.1910129506e+00 2.4196824552e+00 4.1910129506e+00 
13100 3.9262978462e+00 1.4021841958e-01 2.4167663893e+00 -4.1859621762e+00 2.4167663893e+00 4.1859621762e+00 
13200 3.9259624152e+00 1.3929217525e-01 2.4138660193e+00 -4.1809385881e+00 2.4138660193e+00 4.1809385881e+00 
13300 3.9256313446e+00 1.3836887168e-01 2.4109813440e+00 -4.1759421839e+00 2.4109813440e+00 4.1759421839e+00 
13400 3.9253045543e+00 1.3744864742e-01 2.4081123589e+00 -4.1709729559e+00 2.4081123589e+00 4.1709729559e+00 
13500 3.9249819663e+00 1.3653163672e-01 2.4052590563e+00 -4.1660308908e+00 2.4052590563e+00 4.1660308908e+00 
13600 3.9246635054e+00 1.3561796929e-01 2.4024214252e+00 -4.1611159697e+00 2.4024214252e+00 4.1611159697e+00 
13700 3.9243490988e+00 1.3470777011e-01 2.3995994519e+00 -4.1562281686e+00 2.3995994519e+00 4.1562281686e+00 
13800 3.9240386758e+00 1.3380115925e-01 2.3967931195e+00 -4.1513674581e+00 2.3967931195e+00 4.1513674581e+00 
13900 3.9237321683e+00 1.3289825172e-01 2.3940024080e+00 -4.1465338042e+00 2.3940024080e+00 4.1465338042e+00 
14000 3.9234295103e+00 1.3199915734e-01 2.3912272951e+00 -4.1417271676e+00 2.3912272951e+00 4.1417271676e+00 
14100 3.9231306380e+00 1.3110398067e-01 2.3884677554e+00 -4.1369475045e+00 2.3884677554e+00 4.1369475045e+00 
14200 3.9228354896e+00 1.3021282090e-01 2.3857237609e+00 -4.1321947668e+00 2.3857237609e+00 4.1321947668e+00 
14300 3.9225440054e+00 1.2932577178e-01 2.3829952814e+00 -4.1274689017e+00 2.3829952814e+00 4.1274689017e+00 
14400 3.9222561276e+00 1.2844292165e-01 2.3802822840e+00 -4.1227698523e+00 2.3802822840e+00 4.1227698523e+00 
14500 3.9219718002e+00 1.2756435337e-01 2.3775847336e+00 -4.1180975580e+00 2.3775847336e+00 4.1180975580e+00 
14600 3.9216909691e+00 1.2669014435e-01 2.3749025929e+00 -4.1134519539e+00 2.3749025929e+00 4.1134519539e+00 
14700 3.9214135819e+00 1.2582036659e-01 2.3722358224e+00 -4.1088329719e+00 2.3722358224e+00 4.1088329719e+00 
14800 3.9211395877e+00 1.2495508669e-01 2.3695843807e+00 -4.1042405403e+00 2.3695843807e+00 4.1042405403e+00 
14900 3.9208689374e+00 1.2409436595e-01 2.3669482246e+00 -4.0996745839e+00 2.3669482246e+00 4.0996745839e+00 
15000 3.9206015832e+00 1.2323826040e-01 2.3643273089e+00 -4.0951350248e+00 2.3643273089e+00 4.0951350248e+00 
15100 3.9203374788e+00 1.2238682095e-01 2.3617215869e+00 -4.0906217818e+00 2.3617215869e+00 4.0906217818e+00 
15200 3.9200765794e+00 1.2154009345e-01 2.3591310102e+00 -4.0861347714e+00 2.3591310102e+00 4.0861347714e+00 
15300 3.9198188412e+00 1.2069811879e-01 2.3565555290e+00 -4.0816739071e+00 2.3565555290e+00 4.0816739071e+00 
15400 3.9195642219e+00 1.1986093310e-01 2.3539950921e+00 -4.0772391003e+00 2.3539950921e+00 4.0772391003e+00 
15500 3.9193126802e+00 1.1902856780e-01 2.3514496471e+00 -4.0728302601e+00 2.3514496471e+00 4.0728302601e+00 
15600 3.9190641759e+00 1.1820104980e-01 2.3489191401e+00 -4.0684472936e+00 2.3489191401e+00 4.0684472936e+00 
15700 3.9188186700e+00 1.1737840166e-01 2.3464035166e+00 -4.0640901058e+00 2.3464035166e+00 4.0640901058e+00 
15800 3.9185761244e+00 1.1656064167e-01 2.3439027207e+00 -4.0597586003e+00 2.3439027207e+00 4.0597586003e+00 
15900 3.9183365019e+00 1.1574778412e-01 2.3414166958e+00 -4.0554526788e+00 2.3414166958e+00 4.0554526788e+00 
16000 3.9180997662e+00 1.1493983940e-01 2.3389453843e+00 -4.0511722418e+00 2.3389453843e+00 4.0511722418e+00 
16100 3.9178658819e+00 1.1413681417e-01 2.3364887281e+00 -4.0469171884e+00 2.3364887281e+00 4.0469171884e+00 
16200 3.9176348143e+00 1.1333871158e-01 2.3340466683e+00 -4.0426874167e+00 2.3340466683e+00 4.0426874167e+00 
16300 3.9174065297e+00 1.1254553140e-01 2.3316191452e+00 -4.0384828234e+00 2.3316191452e+00 4.0384828234e+00 
16400 3.9171809947e+00 1.1175727024e-01 2.3292060990e+00 -4.0343033048e+00 2.3292060990e+00 4.0343033048e+00 
16500 3.9169581769e+00 1.1097392169e-01 2.3268074691e+00 -4.0301487560e+00 2.3268074691e+00 4.0301487560e+00 
16600 3.9167380445e+00 1.1019547650e-01 2.3244231948e+00 -4.0260190717e+00 2.3244231948e+00 4.0260190717e+00 
16700 3.9165205662e+00 1.0942192278e-01 2.3220532148e+00 -4.0219141460e+00 2.3220532148e+00 4.0219141460e+00 
16800 3.9163057113e+00 1.0865324617e-01 2.3196974678e+00 -4.0178338724e+00 2.3196974678e+00 4.0178338724e+00 
16900 3.9160934498e+00 1.0788942998e-01 2.3173558921e+00 -4.0137781443e+00 2.3173558921e+00 4.0137781443e+00 
17000 3.9158837519e+00 1.0713045540e-01 2.3150284259e+00 -4.0097468547e+00 2.3150284259e+00 4.0097468547e+00 
17100 3.9156765886e+00 1.0637630163e-01 2.3127150074e+00 -4.0057398963e+00 2.3127150074e+00 4.0057398963e+00 
17200 3.9154719313e+00 1.0562694608e-01 2.3104155747e+00 -4.0017571619e+00 2.3104155747e+00 4.0017571619e+00 
17300 3.9152697518e+00 1.0488236449e-01 2.3081300657e+00 -3.9977985442e+00 2.3081300657e+00 3.9977985442e+00 
17400 3.9150700223e+00 1.0414253110e-01 2.3058584185e+00 -3.9938639360e+00 2.3058584185e+00 3.9938639360e+00 
17500 3.9148727155e+00 1.0340741879e-01 2.3036005714e+00 -3.9899532300e+00 2.3036005714e+00 3.9899532300e+00 
17600 3.9146778045e+00 1.0267699926e-01 2.3013564625e+00 -3.9860663194e+00 2.3013564625e+00 3.9860663194e+00 
17700 3.9144852626e+00 1.0195124311e-01 2.2991260302e+00 -3.9822030974e+00 2.2991260302e+00 3.9822030974e+00 
17800 3.9142950638e+00 1.0123012001e-01 2.2969092131e+00 -3.9783634574e+00 2.2969092131e+00 3.9783634574e+00 
17900 3.9141071823e+00 1.0051359883e-01 2.2947059497e+00 -3.9745472934e+00 2.2947059497e+00 3.9745472934e+00 
18000 3.9139215924e+00 9.9801647728e-02 2.2925161791e+00 -3.9707544993e+00 2.2925161791e+00 3.9707544993e+00 
18100 3.9137382691e+00 9.9094234317e-02 2.2903398402e+00 -3.9669849699e+00 2.2903398402e+00 3.9669849699e+00 
18200 3.9135571875e+00 9.8391325727e-02 2.2881768726e+00 -3.9632386000e+00 2.2881768726e+00 3.9632386000e+00 
18300 3.9133783231e+00 9.7692888735e-02 2.2860272157e+00 -3.9595152851e+00 2.2860272157e+00 3.9595152851e+00 
18400 3.9132016517e+00 9.6998889858e-02 2.2838908095e+00 -3.9558149210e+00 2.2838908095e+00 3.9558149210e+00 
18500 3.9130271494e+00 9.6309295443e-02 2.2817675940e+00 -3.9521374040e+00 2.2817675940e+00 3.9521374040e+00 
18600 3.9128547925e+00 9.5624071758e-02 2.2796575098e+00 -3.9484826309e+00 2.2796575098e+00 3.9484826309e+00 
18700 3.9126845576e+00 9.4943185070e-02 2.2775604976e+00 -3.9448504991e+00 2.2775604976e+00 3.9448504991e+00 
18800 3.9125164218e+00 9.4266601721e-02 2.2754764982e+00 -3.9412409064e+00 2.2754764982e+00 3.9412409064e+00 
18900 3.9123503621e+00 9.3594288200e-02 2.2734054532e+00 -3.9376537511e+00 2.2734054532e+00 3.9376537511e+00 
19000 3.9121863559e+00 9.2926211205e-02 2.2713473040e+00 -3.9340889322e+00 2.2713473040e+00 3.9340889322e+00 
19100 3.9120243811e+00 9.2262337705e-02 2.2693019926e+00 -3.9305463489e+00 2.2693019926e+00 3.9305463489e+00 
19200 3.9118644154e+00 9.1602634990e-02 2.2672694612e+00 -3.9270259013e+00 2.2672694612e+00 3.9270259013e+00 
19300 3.9117064372e+00 9.0947070727e-02 2.2652496523e+00 -3.9235274897e+00 2.2652496523e+00 3.9235274897e+00 
19400 3.9115504247e+00 9.0295612996e-02 2.2632425088e+00 -3.9200510150e+00 2.2632425088e+00 3.9200510150e+00 
19500 3.9113963567e+00 8.9648230337e-02 2.2612479736e+00 -3.9165963787e+00 2.2612479736e+00 3.9165963787e+00 
19600 3.9112442120e+00 8.9004891781e-02 2.2592659901e+00 -3.9131634827e+00 2.2592659901e+00 3.9131634827e+00 
19700 3.9110939698e+00 8.8365566881e-02 2.2572965021e+00 -3.9097522294e+00 2.2572965021e+00 3.9097522294e+00 
19800 3.9109456092e+00 8.7730225740e-02 2.2553394533e+00 -3.9063625215e+00 2.2553394533e+00 3.9063625215e+00 
19900 3.9107991099e+00 8.7098839035e-02 2.2533947881e+00 -3.9029942625e+00 2.2533947881e+00 3.9029942625e+00 
20000 3.9106544516e+00 8.6471378033e-02 2.2514624507e+00 -3.8996473560e+00 2.2514624507e+00 3.8996473560e+00 
20100 3.9105116142e+00 8.5847814607e-02 2.2495423860e+00 -3.8963217063e+00 2.2495423860e+00 3.8963217063e+00 
20200 3.9103705780e+00 8.5228121251e-02 2.2476345386e+00 -3.8930172178e+00 2.2476345386e+00 3.8930172178e+00 
20300 3.9102313231e+00 8.4612271084e-02 2.2457388539e+00 -3.8897337955e+00 2.2457388539e+00 3.8897337955e+00 
20400 3.9100938302e+00 8.4000237861e-02 2.2438552771e+00 -3.8864713448e+00 2.2438552771e+00 3.8864713448e+00 
20500 3.9099580799e+00 8.3391995971e-02 2.2419837538e+00 -3.8832297714e+00 2.2419837538e+00 3.8832297714e+00 
20600 3.9098240533e+00 8.2787520440e-02 2.2401242297e+00 -3.8800089811e+00 2.2401242297e+00 3.8800089811e+00 
20700 3.9096917313e+00 8.2186786930e-02 2.2382766507e+00 -3.8768088804e+00 2.2382766507e+00 3.8768088804e+00 
20800 3.9095610953e+00 8.1589771732e-02 2.2364409629e+00 -3.8736293759e+00 2.2364409629e+00 3.8736293759e+00 
20900 3.9094321268e+00 8.0996451760e-02 2.2346171126e+00 -3.8704703745e+00 2.2346171126e+00 3.8704703745e+00 
21000 3.9093048073e+00 8.0406804544e-02 2.2328050461e+00 -3.8673317833e+00 2.2328050461e+00 3.8673317833e+00 
21100 3.9091791187e+00 7.9820808218e-02 2.2310047101e+00 -3.8642135098e+00 2.2310047101e+00 3.8642135098e+00 
21200 3.9090550429e+00 7.9238441510e-02 2.2292160511e+00 -3.8611154615e+00 2.2292160511e+00 3.8611154615e+00 
21300 3.9089325621e+00 7.8659683726e-02 2.2274390160e+00 -3.8580375464e+00 2.2274390160e+00 3.8580375464e+00 
21400 3.9088116586e+00 7.8084514740e-02 2.2256735516e+00 -3.8549796725e+00 2.2256735516e+00 3.8549796725e+00 
21500 3.9086923149e+00 7.7512914971e-02 2.2239196051e+00 -3.8519417479e+00 2.2239196051e+00 3.8519417479e+00 
21600 3.9085745135e+00 7.6944865373e-02 2.2221771234e+00 -3.8489236811e+00 2.2221771234e+00 3.8489236811e+00 
21700 3.9084582373e+00 7.6380347416e-02 2.2204460538e+00 -3.8459253806e+00 2.2204460538e+00 3.8459253806e+00 
21800 3.9083434692e+00 7.5819343062e-02 2.2187263434e+00 -3.8429467549e+00 2.2187263434e+00 3.8429467549e+00 
21900 3.9082301923e+00 7.5261834756e-02 2.2170179398e+00 -3.8399877130e+00 2.2170179398e+00 3.8399877130e+00 
22000 3.9081183898e+00 7.4707805395e-02 2.2153207901e+00 -3.8370481636e+00 2.2153207901e+00 3.8370481636e+00 
22100 3.9080080452e+00 7.4157238318e-02 2.2136348420e+00 -3.8341280157e+00 2.2136348420e+00 3.8341280157e+00 
22200 3.9078991420e+00 7.3610117278e-02 2.2119600427e+00 -3.8312271783e+00 2.2119600427e+00 3.8312271783e+00 
22300 3.9077916637e+00 7.3066426427e-02 2.2102963399e+00 -3.8283455606e+00 2.2102963399e+00 3.8283455606e+00 
22400 3.9076855944e+00 7.2526150293e-02 2.2086436812e+00 -3.8254830716e+00 2.2086436812e+00 3.8254830716e+00 
22500 3.9075809180e+00 7.1989273757e-02 2.2070020140e+00 -3.8226396206e+00 2.2070020140e+00 3.8226396206e+00 
22600 3.9074776185e+00 7.1455782038e-02 2.2053712859e+00 -3.8198151168e+00 2.2053712859e+00 3.8198151168e+00 
22700 3.9073756802e+00 7.0925660668e-02 2.2037514447e+00 -3.8170094695e+00 2.2037514447e+00 3.8170094695e+00 
22800 3.9072750875e+00 7.0398895472e-02 2.2021424379e+00 -3.8142225879e+00 2.2021424379e+00 3.8142225879e+00 
22900 3.9071758250e+00 6.9875472551e-02 2.2005442131e+00 -3.8114543813e+00 2.2005442131e+00 3.8114543813e+00 
23000 3.9070778773e+00 6.9355378257e-02 2.1989567179e+00 -3.8087047591e+00 2.1989567179e+00 3.8087047591e+00 
23100 3.9069812292e+00 6.8838599180e-02 2.1973799001e+00 -3.8059736306e+00 2.1973799001e+00 3.8059736306e+00 
23200 3.9068858656e+00 6.8325122123e-02 2.1958137073e+00 -3.8032609049e+00 2.1958137073e+00 3.8032609049e+00 
23300 3.9067917717e+00 6.7814934089e-02 2.1942580870e+00 -3.8005664915e+00 2.1942580870e+00 3.8005664915e+00 
23400 3.9066989325e+00 6.7308022259e-02 2.1927129868e+00 -3.7978902996e+00 2.1927129868e+00 3.7978902996e+00 
23500 3.9066073335e+00 6.6804373974e-02 2.1911783545e+00 -3.7952322384e+00 2.1911783545e+00 3.7952322384e+00 
23600 3.9065169601e+00 6.6303976721e-02 2.1896541376e+00 -3.7925922173e+00 2.1896541376e+00 3.7925922173e+00 
23700 3.9064277978e+00 6.5806818117e-02 2.1881402836e+00 -3.7899701454e+00 2.1881402836e+00 3.7899701454e+00 
23800 3.9063398324e+00 6.5312885888e-02 2.1866367403e+00 -3.7873659319e+00 2.1866367403e+00 3.7873659319e+00 
23900 3.9062530498e+00 6.4822167861e-02 2.1851434551e+00 -3.7847794860e+00 2.1851434551e+00 3.7847794860e+00 
24000 3.9061674359e+00 6.4334651943e-02 2.1836603756e+00 -3.7822107170e+00 2.1836603756e+00 3.7822107170e+00 
24100 3.9060829768e+00 6.3850326111e-02 2.1821874493e+00 -3.7796595339e+00 2.1821874493e+00 3.7796595339e+00 
24200 3.9059996587e+00 6.3369178400e-02 2.1807246239e+00 -3.7771258459e+00 2.1807246239e+00 3.7771258459e+00 
24300 3.9059174680e+00 6.2891196884e-02 2.1792718467e+00 -3.7746095621e+00 2.1792718467e+00 3.7746095621e+00 
24400 3.9058363912e+00 6.2416369671e-02 2.1778290655e+00 -3.7721105916e+00 2.1778290655e+00 3.7721105916e+00 
24500 3.9057564147e+00 6.1944684890e-02 2.1763962276e+00 -3.7696288436e+00 2.1763962276e+00 3.7696288436e+00 
24600 3.9056775255e+00 6.1476130677e-02 2.1749732806e+00 -3.7671642271e+00 2.1749732806e+00 3.7671642271e+00 
24700 3.9055997102e+00 6.1010695170e-02 2.1735601720e+00 -3.7647166512e+00 2.1735601720e+00 3.7647166512e+00 
24800 3.9055229560e+00 6.0548366495e-02 2.1721568493e+00 -3.7622860250e+00 2.1721568493e+00 3.7622860250e+00 
24900 3.9054472497e+00 6.0089132761e-02 2.1707632601e+00 -3.7598722577e+00 2.1707632601e+00 3.7598722577e+00 
25000 3.9053725788e+00 5.9632982050e-02 2.1693793519e+00 -3.7574752583e+00 2.1693793519e+00 3.7574752583e+00 
25100 3.9052989304e+00 5.9179902413e-02 2.1680050721e+00 -3.7550949360e+00 2.1680050721e+00 3.7550949360e+00 
25200 3.9052262920e+00 5.8729881856e-02 2.1666403685e+00 -3.7527311999e+00 2.1666403685e+00 3.7527311999e+00 
25300 3.9051546513e+00 5.8282908343e-02 2.1652851884e+00 -3.7503839593e+00 2.1652851884e+00 3.7503839593e+00 
25400 3.9050839958e+00 5.7838969781e-02 2.1639394796e+00 -3.7480531232e+00 2.1639394796e+00 3.7480531232e+00 
25500 3.9050143134e+00 5.7398054024e-02 2.1626031897e+00 -3.7457386011e+00 2.1626031897e+00 3.7457386011e+00 
25600 3.9049455919e+00 5.6960148861e-02 2.1612762662e+00 -3.7434403022e+00 2.1612762662e+00 3.7434403022e+00 
25700 3.9048778196e+00 5.6525242017e-02 2.1599586568e+00 -3.7411581358e+00 2.1599586568e+00 3.7411581358e+00 
25800 3.9048109844e+00 5.6093321146e-02 2.1586503093e+00 -3.7388920114e+00 2.1586503093e+00 3.7388920114e+00 
25900 3.9047450746e+00 5.5664373831e-02 2.1573511713e+00 -3.7366418385e+00 2.1573511713e+00 3.7366418385e+00 
26000 3.9046800787e+00 5.5238387578e-02 2.1560611907e+00 -3.7344075266e+00 2.1560611907e+00 3.7344075266e+00 
26100 3.9046159852e+00 5.4815349817e-02 2.1547803153e+00 -3.7321889853e+00 2.1547803153e+00 3.7321889853e+00 
26200 3.9045527826e+00 5.4395247900e-02 2.1535084930e+00 -3.7299861244e+00 2.1535084930e+00 3.7299861244e+00 
26300 3.9044904597e+00 5.3978069098e-02 2.1522456717e+00 -3.7277988538e+00 2.1522456717e+00 3.7277988538e+00 
26400 3.9044290053e+00 5.3563800600e-02 2.1509917994e+00 -3.7256270833e+00 2.1509917994e+00 3.7256270833e+00 
26500 3.9043684084e+00 5.3152429513e-02 2.1497468242e+00 -3.7234707229e+00 2.1497468242e+00 3.7234707229e+00 
26600 3.9043086580e+00 5.2743942865e-02 2.1485106942e+00 -3.7213296829e+00 2.1485106942e+00 3.7213296829e+00 
26700 3.9042497434e+00 5.2338327599e-02 2.1472833575e+00 -3.7192038735e+00 2.1472833575e+00 3.7192038735e+00 
26800 3.9041916538e+00 5.1935570578e-02 2.1460647626e+00 -3.7170932051e+00 2.1460647626e+00 3.7170932051e+00 
26900 3.9041343787e+00 5.1535658584e-02 2.1448548576e+00 -3.7149975882e+00 2.1448548576e+00 3.7149975882e+00 
27000 3.9040779075e+00 5.1138578318e-02 2.1436535911e+00 -3.7129169337e+00 2.1436535911e+00 3.7129169337e+00 
27100 3.9040222298e+00 5.0744316404e-02 2.1424609116e+00 -3.7108511522e+00 2.1424609116e+00 3.7108511522e+00 
27200 3.9039673354e+00 5.0352859389e-02 2.1412767678e+00 -3.7088001549e+00 2.1412767678e+00 3.7088001549e+00 
27300 3.9039132142e+00 4.9964193743e-02 2.1401011083e+00 -3.7067638528e+00 2.1401011083e+00 3.7067638528e+00 
27400 3.9038598561e+00 4.9578305861e-02 2.1389338819e+00 -3.7047421574e+00 2.1389338819e+00 3.7047421574e+00 
27500 3.9038072511e+00 4.9195182070e-02 2.1377750376e+00 -3.7027349803e+00 2.1377750376e+00 3.7027349803e+00 
27600 3.9037553894e+00 4.8814808624e-02 2.1366245244e+00 -3.7007422330e+00 2.1366245244e+00 3.7007422330e+00 
27700 3.9037042612e+00 4.8437171710e-02 2.1354822915e+00 -3.6987638276e+00 2.1354822915e+00 3.6987638276e+00 
27800 3.9036538570e+00 4.8062257451e-02 2.1343482882e+00 -3.6967996761e+00 2.1343482882e+00 3.6967996761e+00 
27900 3.9036041673e+00 4.7690051907e-02 2.1332224637e+00 -3.6948496910e+00 2.1332224637e+00 3.6948496910e+00 
28000 3.9035551825e+00 4.7320541079e-02 2.1321047677e+00 -3.6929137847e+00 2.1321047677e+00 3.6929137847e+00 
28100 3.9035068935e+00 4.6953710908e-02 2.1309951498e+00 -3.6909918701e+00 2.1309951498e+00 3.6909918701e+00 
28200 3.9034592909e+00 4.6589547283e-02 2.1298935597e+00 -3.6890838600e+00 2.1298935597e+00 3.6890838600e+00 
28300 3.9034123658e+00 4.6228036042e-02 2.1287999473e+00 -3.6871896679e+00 2.1287999473e+00 3.6871896679e+00 
28400 3.9033661090e+00 4.5869162973e-02 2.1277142628e+00 -3.6853092071e+00 2.1277142628e+00 3.6853092071e+00 
28500 3.9033205116e+00 4.5512913818e-02 2.1266364562e+00 -3.6834423914e+00 2.1266364562e+00 3.6834423914e+00 
28600 3.9032755650e+00 4.5159274277e-02 2.1255664779e+00 -3.6815891347e+00 2.1255664779e+00 3.6815891347e+00 
28700 3.9032312603e+00 4.4808230010e-02 2.1245042785e+00 -3.6797493512e+00 2.1245042785e+00 3.6797493512e+00 
28800 3.9031875890e+00 4.4459766640e-02 2.1234498085e+00 -3.6779229556e+00 2.1234498085e+00 3.6779229556e+00 
28900 3.9031445425e+00 4.4113869757e-02 2.1224030187e+00 -3.6761098625e+00 2.1224030187e+00 3.6761098625e+00 
29000 3.9031021125e+00 4.3770524921e-02 2.1213638601e+00 -3.6743099870e+00 2.1213638601e+00 3.6743099870e+00 
29100 3.9030602907e+00 4.3429717661e-02 2.1203322837e+00 -3.6725232443e+00 2.1203322837e+00 3.6725232443e+00 
29200 3.9030190688e+00 4.3091433484e-02 2.1193082409e+00 -3.6707495502e+00 2.1193082409e+00 3.6707495502e+00 
29300 3.9029784387e+00 4.2755657875e-02 2.1182916831e+00 -3.6689888204e+00 2.1182916831e+00 3.6689888204e+00 
29400 3.9029383923e+00 4.2422376299e-02 2.1172825619e+00 -3.6672409712e+00 2.1172825619e+00 3.6672409712e+00 
29500 3.9028989219e+00 4.2091574206e-02 2.1162808291e+00 -3.6655059190e+00 2.1162808291e+00 3.6655059190e+00 
29600 3.9028600194e+00 4.1763237033e-02 2.1152864366e+00 -3.6637835807e+00 2.1152864366e+00 3.6637835807e+00 
29700 3.9028216773e+00 4.1437350206e-02 2.1142993365e+00 -3.6620738733e+00 2.1142993365e+00 3.6620738733e+00 
29800 3.9027838878e+00 4.1113899143e-02 2.1133194812e+00 -3.6603767141e+00 2.1133194812e+00 3.6603767141e+00 
29900 3.9027466433e+00 4.0792869258e-02 2.1123468232e+00 -3.6586920210e+00 2.1123468232e+00 3.6586920210e+00 
30000 3.9027099365e+00 4.0474245963e-02 2.1113813151e+00 -3.6570197119e+00 2.1113813151e+00 3.6570197119e+00 
30100 3.9026737599e+00 4.0158014669e-02 2.1104229097e+00 -3.6553597051e+00 2.1104229097e+00 3.6553597051e+00 
30200 3.9026381062e+00 3.9844160793e-02 2.1094715602e+00 -3.6537119194e+00 2.1094715602e+00 3.6537119194e+00 
30300 3.9026029683e+00 3.9532669753e-02 2.1085272198e+00 -3.6520762738e+00 2.1085272198e+00 3.6520762738e+00 
30400 3.9025683390e+00 3.9223526979e-02 2.1075898418e+00 -3.6504526875e+00 2.1075898418e+00 3.6504526875e+00 
30500 3.9025342113e+00 3.8916717910e-02 2.1066593799e+00 -3.6488410803e+00 2.1066593799e+00 3.6488410803e+00 
30600 3.9025005782e+00 3.8612227995e-02 2.1057357880e+00 -3.6472413721e+00 2.1057357880e+00 3.6472413721e+00 
30700 3.9024674330e+00 3.8310042703e-02 2.1048190200e+00 -3.6456534833e+00 2.1048190200e+00 3.6456534833e+00 
30800 3.9024347689e+00 3.8010147514e-02 2.1039090301e+00 -3.6440773346e+00 2.1039090301e+00 3.6440773346e+00 
30900 3.9024025790e+00 3.7712527933e-02 2.1030057727e+00 -3.6425128470e+00 2.1030057727e+00 3.6425128470e+00 
31000 3.9023708570e+00 3.7417169481e-02 2.1021092025e+00 -3.6409599418e+00 2.1021092025e+00 3.6409599418e+00 
31100 3.9023395962e+00 3.7124057705e-02 2.1012192742e+00 -3.6394185408e+00 2.1012192742e+00 3.6394185408e+00 
31200 3.9023087902e+00 3.6833178177e-02 2.1003359429e+00 -3.6378885661e+00 2.1003359429e+00 3.6378885661e+00 
31300 3.9022784326e+00 3.6544516495e-02 2.0994591638e+00 -3.6363699401e+00 2.0994591638e+00 3.6363699401e+00 
31400 3.9022485172e+00 3.6258058285e-02 2.0985888923e+00 -3.6348625856e+00 2.0985888923e+00 3.6348625856e+00 
31500 3.9022190378e+00 3.5973789206e-02 2.0977250840e+00 -3.6333664258e+00 2.0977250840e+00 3.6333664258e+00 
31600 3.9021899883e+00 3.5691694947e-02 2.0968676948e+00 -3.6318813841e+00 2.0968676948e+00 3.6318813841e+00 
31700 3.9021613625e+00 3.5411761231e-02 2.0960166807e+00 -3.6304073844e+00 2.0960166807e+00 3.6304073844e+00 
31800 3.9021331546e+00 3.5133973816e-02 2.0951719979e+00 -3.6289443510e+00 2.0951719979e+00 3.6289443510e+00 
31900 3.9021053588e+00 3.4858318498e-02 2.0943336031e+00 -3.6274922085e+00 2.0943336031e+00 3.6274922085e+00 
32000 3.9020779690e+00 3.4584781110e-02 2.0935014527e+00 -3.6260508818e+00 2.0935014527e+00 3.6260508818e+00 
32100 3.9020509797e+00 3.4313347524e-02 2.0926755038e+00 -3.6246202963e+00 2.0926755038e+00 3.6246202963e+00 
32200 3.9020243852e+00 3.4044003656e-02 2.0918557134e+00 -3.6232003776e+00 2.0918557134e+00 3.6232003776e+00 
32300 3.9019981798e+00 3.3776735459e-02 2.0910420388e+00 -3.6217910519e+00 2.0910420388e+00 3.6217910519e+00 
32400 3.9019723581e+00 3.3511528934e-02 2.0902344376e+00 -3.6203922457e+00 2.0902344376e+00 3.6203922457e+00 
32500 3.9019469147e+00 3.3248370124e-02 2.0894328676e+00 -3.6190038856e+00 2.0894328676e+00 3.6190038856e+00 
32600 3.9019218441e+00 3.2987245118e-02 2.0886372866e+00 -3.6176258990e+00 2.0886372866e+00 3.6176258990e+00 
32700 3.9018971410e+00 3.2728140053e-02 2.0878476530e+00 -3.6162582134e+00 2.0878476530e+00 3.6162582134e+00 
32800 3.9018728003e+00 3.2471041112e-02 2.0870639250e+00 -3.6149007568e+00 2.0870639250e+00 3.6149007568e+00 
32900 3.9018488167e+00 3.2215934528e-02 2.0862860614e+00 -3.6135534574e+00 2.0862860614e+00 3.6135534574e+00 
33000 3.9018251852e+00 3.1962806582e-02 2.0855140209e+00 -3.6122162440e+00 2.0855140209e+00 3.6122162440e+00 
33100 3.9018019007e+00 3.1711643607e-02 2.0847477626e+00 -3.6108890457e+00 2.0847477626e+00 3.6108890457e+00 
33200 3.9017789584e+00 3.1462431988e-02 2.0839872458e+00 -3.6095717920e+00 2.0839872458e+00 3.6095717920e+00 
33300 3.9017563532e+00 3.1215158160e-02 2.0832324299e+00 -3.6082644126e+00 2.0832324299e+00 3.6082644126e+00 
33400 3.9017340804e+00 3.0969808612e-02 2.0824832748e+00 -3.6069668378e+00 2.0824832748e+00 3.6069668378e+00 
33500 3.9017121351e+00 3.0726369888e-02 2.0817397402e+00 -3.6056789982e+00 2.0817397402e+00 3.6056789982e+00 
33600 3.9016905128e+00 3.0484828585e-02 2.0810017864e+00 -3.6044008248e+00 2.0810017864e+00 3.6044008248e+00 
33700 3.9016692087e+00 3.0245171356e-02 2.0802693738e+00 -3.6031322489e+00 2.0802693738e+00 3.6031322489e+00 
33800 3.9016482184e+00 3.0007384907e-02 2.0795424629e+00 -3.6018732023e+00 2.0795424629e+00 3.6018732023e+00 
33900 3.9016275372e+00 2.9771456006e-02 2.0788210146e+00 -3.6006236171e+00 2.0788210146e+00 3.6006236171e+00 
34000 3.9016071607e+00 2.9537371472e-02 2.0781049898e+00 -3.5993834258e+00 2.0781049898e+00 3.5993834258e+00 
34100 3.9015870846e+00 2.9305118186e-02 2.0773943499e+00 -3.5981525614e+00 2.0773943499e+00 3.5981525614e+00 
34200 3.9015673044e+00 2.9074683085e-02 2.0766890563e+00 -3.5969309570e+00 2.0766890563e+00 3.5969309570e+00 
34300 3.9015478160e+00 2.8846053164e-02 2.0759890707e+00 -3.5957185464e+00 2.0759890707e+00 3.5957185464e+00 
34400 3.9015286152e+00 2.8619215479e-02 2.0752943550e+00 -3.5945152635e+00 2.0752943550e+00 3.5945152635e+00 
34500 3.9015096977e+00 2.8394157145e-02 2.0746048714e+00 -3.5933210428e+00 2.0746048714e+00 3.5933210428e+00 
34600 3.9014910594e+00 2.8170865335e-02 2.0739205821e+00 -3.5921358191e+00 2.0739205821e+00 3.5921358191e+00 
34700 3.9014726964e+00 2.7949327285e-02 2.0732414499e+00 -3.5909595275e+00 2.0732414499e+00 3.5909595275e+00 
34800 3.9014546046e+00 2.7729530291e-02 2.0725674374e+00 -3.5897921037e+00 2.0725674374e+00 3.5897921037e+00 
34900 3.9014367802e+00 2.7511461710e-02 2.0718985077e+00 -3.5886334834e+00 2.0718985077e+00 3.5886334834e+00 
35000 3.9014192191e+00 2.7295108959e-02 2.0712346240e+00 -3.5874836032e+00 2.0712346240e+00 3.5874836032e+00 
35100 3.9014019177e+00 2.7080459520e-02 2.0705757498e+00 -3.5863423996e+00 2.0705757498e+00 3.5863423996e+00 
35200 3.9013848721e+00 2.6867500935e-02 2.0699218487e+00 -3.5852098097e+00 2.0699218487e+00 3.5852098097e+00 
35300 3.9013680786e+00 2.6656220809e-02 2.0692728847e+00 -3.5840857710e+00 2.0692728847e+00 3.5840857710e+00 
35400 3.9013515335e+00 2.6446606810e-02 2.0686288218e+00 -3.5829702214e+00 2.0686288218e+00 3.5829702214e+00 
35500 3.9013352333e+00 2.6238646670e-02 2.0679896244e+00 -3.5818630990e+00 2.0679896244e+00 3.5818630990e+00 
35600 3.9013191743e+00 2.6032328181e-02 2.0673552570e+00 -3.5807643424e+00 2.0673552570e+00 3.5807643424e+00 
35700 3.9013033531e+00 2.5827639202e-02 2.0667256843e+00 -3.5796738906e+00 2.0667256843e+00 3.5796738906e+00 
35800 3.9012877661e+00 2.5624567655e-02 2.0661008714e+00 -3.5785916829e+00 2.0661008714e+00 3.5785916829e+00 
35900 3.9012724100e+00 2.5423101525e-02 2.0654807835e+00 -3.5775176590e+00 2.0654807835e+00 3.5775176590e+00 
36000 3.9012572814e+00 2.5223228862e-02 2.0648653859e+00 -3.5764517591e+00 2.0648653859e+00 3.5764517591e+00 
36100 3.9012423770e+00 2.5024937781e-02 2.0642546442e+00 -3.5753939236e+00 2.0642546442e+00 3.5753939236e+00 
36200 3.9012276935e+00 2.4828216460e-02 2.0636485244e+00 -3.5743440933e+00 2.0636485244e+00 3.5743440933e+00 
36300 3.9012132276e+00 2.4633053143e-02 2.0630469925e+00 -3.5733022094e+00 2.0630469925e+00 3.5733022094e+00 
36400 3.9011989762e+00 2.4439436139e-02 2.0624500147e+00 -3.5722682135e+00 2.0624500147e+00 3.5722682135e+00 
36500 3.9011849361e+00 2.4247353820e-02 2.0618575575e+00 -3.5712420476e+00 2.0618575575e+00 3.5712420476e+00 
36600 3.9011711043e+00 2.4056794627e-02 2.0612695877e+00 -3.5702236540e+00 2.0612695877e+00 3.5702236540e+00 
36700 3.9011574776e+00 2.3867747063e-02 2.0606860721e+00 -3.5692129753e+00 2.0606860721e+00 3.5692129753e+00 
36800 3.9011440532e+00 2.3680199697e-02 2.0601069779e+00 -3.5682099547e+00 2.0601069779e+00 3.5682099547e+00 
36900 3.9011308279e+00 2.3494141166e-02 2.0595322723e+00 -3.5672145355e+00 2.0595322723e+00 3.5672145355e+00 
37000 3.9011177989e+00 2.3309560169e-02 2.0589619230e+00 -3.5662266615e+00 2.0589619230e+00 3.5662266615e+00 
37100 3.9011049634e+00 2.3126445472e-02 2.0583958977e+00 -3.5652462768e+00 2.0583958977e+00 3.5652462768e+00 
37200 3.9010923184e+00 2.2944785909e-02 2.0578341643e+00 -3.5642733261e+00 2.0578341643e+00 3.5642733261e+00 
37300 3.9010798612e+00 2.2764570377e-02 2.0572766911e+00 -3.5633077541e+00 2.0572766911e+00 3.5633077541e+00 
37400 3.9010675889e+00 2.2585787841e-02 2.0567234463e+00 -3.5623495061e+00 2.0567234463e+00 3.5623495061e+00 
37500 3.9010554990e+00 2.2408427329e-02 2.0561743987e+00 -3.5613985278e+00 2.0561743987e+00 3.5613985278e+00 
37600 3.9010435887e+00 2.2232477939e-02 2.0556295170e+00 -3.5604547649e+00 2.0556295170e+00 3.5604547649e+00 
37700 3.9010318553e+00 2.2057928831e-02 2.0550887701e+00 -3.5595181639e+00 2.0550887701e+00 3.5595181639e+00 
37800 3.9010202963e+00 2.1884769235e-02 2.0545521274e+00 -3.5585886715e+00 2.0545521274e+00 3.5585886715e+00 
37900 3.9010089090e+00 2.1712988443e-02 2.0540195582e+00 -3.5576662346e+00 2.0540195582e+00 3.5576662346e+00 
38000 3.9009976910e+00 2.1542575817e-02 2.0534910322e+00 -3.5567508006e+00 2.0534910322e+00 3.5567508006e+00 
38100 3.9009866398e+00 2.1373520781e-02 2.0529665191e+00 -3.5558423173e+00 2.0529665191e+00 3.5558423173e+00 
38200 3.9009757529e+00 2.1205812829e-02 2.0524459890e+00 -3.5549407327e+00 2.0524459890e+00 3.5549407327e+00 
38300 3.9009650278e+00 2.1039441518e-02 2.0519294121e+00 -3.5540459953e+00 2.0519294121e+00 3.5540459953e+00 
38400 3.9009544623e+00 2.0874396473e-02 2.0514167589e+00 -3.5531580538e+00 2.0514167589e+00 3.5531580538e+00 
38500 3.9009440538e+00 2.0710667384e-02 2.0509079999e+00 -3.5522768575e+00 2.0509079999e+00 3.5522768575e+00 
38600 3.9009338002e+00 2.0548244006e-02 2.0504031060e+00 -3.5514023556e+00 2.0504031060e+00 3.5514023556e+00 
38700 3.9009236991e+00 2.0387116161e-02 2.0499020483e+00 -3.5505344982e+00 2.0499020483e+00 3.5505344982e+00 
38800 3.9009137482e+00 2.0227273738e-02 2.0494047979e+00 -3.5496732352e+00 2.0494047979e+00 3.5496732352e+00 
38900 3.9009039455e+00 2.0068706689e-02 2.0489113263e+00 -3.5488185173e+00 2.0489113263e+00 3.5488185173e+00 
39000 3.9008942885e+00 1.9911405033e-02 2.0484216051e+00 -3.5479702953e+00 2.0484216051e+00 3.5479702953e+00 
39100 3.9008847753e+00 1.9755358856e-02 2.0479356061e+00 -3.5471285203e+00 2.0479356061e+00 3.5471285203e+00 
39200 3.9008754037e+00 1.9600558306e-02 2.0474533013e+00 -3.5462931439e+00 2.0474533013e+00 3.5462931439e+00 
39300 3.9008661715e+00 1.9446993600e-02 2.0469746629e+00 -3.5454641179e+00 2.0469746629e+00 3.5454641179e+00 
39400 3.9008570767e+00 1.9294655017e-02 2.0464996633e+00 -3.5446413946e+00 2.0464996633e+00 3.5446413946e+00 
39500 3.9008481174e+00 1.9143532905e-02 2.0460282752e+00 -3.5438249263e+00 2.0460282752e+00 3.5438249263e+00 
39600 3.9008392914e+00 1.8993617673e-02 2.0455604712e+00 -3.5430146661e+00 2.0455604712e+00 3.5430146661e+00 
39700 3.9008305968e+00 1.8844899798e-02 2.0450962244e+00 -3.5422105670e+00 2.0450962244e+00 3.5422105670e+00 
39800 3.9008220317e+00 1.8697369819e-02 2.0446355079e+00 -3.5414125826e+00 2.0446355079e+00 3.5414125826e+00 
39900 3.9008135941e+00 1.8551018343e-02 2.0441782950e+00 -3.5406206667e+00 2.0441782950e+00 3.5406206667e+00 
40000 3.9008052821e+00 1.8405836039e-02 2.0437245593e+00 -3.5398347735e+00 2.0437245593e+00 3.5398347735e+00 
40100 3.9007970939e+00 1.8261813641e-02 2.0432742746e+00 -3.5390548574e+00 2.0432742746e+00 3.5390548574e+00 
40200 3.9007890277e+00 1.8118941947e-02 2.0428274147e+00 -3.5382808733e+00 2.0428274147e+00 3.5382808733e+00 
40300 3.9007810816e+00 1.7977211820e-02 2.0423839537e+00 -3.5375127763e+00 2.0423839537e+00 3.5375127763e+00 
40400 3.9007732539e+00 1.7836614185e-02 2.0419438658e+00 -3.5367505218e+00 2.0419438658e+00 3.5367505218e+00 
40500 3.9007655428e+00 1.7697140033e-02 2.0415071257e+00 -3.5359940657e+00 2.0415071257e+00 3.5359940657e+00 
40600 3.9007579465e+00 1.7558780417e-02 2.0410737078e+00 -3.5352433639e+00 2.0410737078e+00 3.5352433639e+00 
40700 3.9007504634e+00 1.7421526453e-02 2.0406435870e+00 -3.5344983729e+00 2.0406435870e+00 3.5344983729e+00 
40800 3.9007430918e+00 1.7285369321e-02 2.0402167384e+00 -3.5337590493e+00 2.0402167384e+00 3.5337590493e+00 
40900 3.9007358300e+00 1.7150300264e-02 2.0397931370e+00 -3.5330253503e+00 2.0397931370e+00 3.5330253503e+00 
41000 3.9007286764e+00 1.7016310587e-02 2.0393727584e+00 -3.5322972330e+00 2.0393727584e+00 3.5322972330e+00 
41100 3.9007216294e+00 1.6883391657e-02 2.0389555779e+00 -3.5315746552e+00 2.0389555779e+00 3.5315746552e+00 
41200 3.9007146874e+00 1.6751534906e-02 2.0385415713e+00 -3.5308575748e+00 2.0385415713e+00 3.5308575748e+00 
41300 3.9007078488e+00 1.6620731826e-02 2.0381307145e+00 -3.5301459500e+00 2.0381307145e+00 3.5301459500e+00 
41400 3.9007011122e+00 1.6490973969e-02 2.0377229836e+00 -3.5294397394e+00 2.0377229836e+00 3.5294397394e+00 
41500 3.9006944759e+00 1.6362252952e-02 2.0373183548e+00 -3.5287389018e+00 2.0373183548e+00 3.5287389018e+00 
41600 3.9006879386e+00 1.6234560453e-02 2.0369168045e+00 -3.5280433963e+00 2.0369168045e+00 3.5280433963e+00 
41700 3.9006814986e+00 1.6107888208e-02 2.0365183094e+00 -3.5273531823e+00 2.0365183094e+00 3.5273531823e+00 
41800 3.9006751547e+00 1.5982228017e-02 2.0361228460e+00 -3.5266682197e+00 2.0361228460e+00 3.5266682197e+00 
41900 3.9006689053e+00 1.5857571740e-02 2.0357303914e+00 -3.5259884685e+00 2.0357303914e+00 3.5259884685e+00 
42000 3.9006627490e+00 1.5733911296e-02 2.0353409227e+00 -3.5253138889e+00 2.0353409227e+00 3.5253138889e+00 
42100 3.9006566845e+00 1.5611238667e-02 2.0349544171e+00 -3.5246444415e+00 2.0349544171e+00 3.5246444415e+00 
42200 3.9006507105e+00 1.5489545891e-02 2.0345708521e+00 -3.5239800874e+00 2.0345708521e+00 3.5239800874e+00 
42300 3.9006448254e+00 1.5368825068e-02 2.0341902051e+00 -3.5233207876e+00 2.0341902051e+00 3.5233207876e+00 
42400 3.9006390281e+00 1.5249068357e-02 2.0338124541e+00 -3.5226665036e+00 2.0338124541e+00 3.5226665036e+00 
42500 3.9006333172e+00 1.5130267977e-02 2.0334375769e+00 -3.5220171971e+00 2.0334375769e+00 3.5220171971e+00 
42600 3.9006276914e+00 1.5012416203e-02 2.0330655515e+00 -3.5213728303e+00 2.0330655515e+00 3.5213728303e+00 
42700 3.9006221495e+00 1.4895505372e-02 2.0326963563e+00 -3.5207333655e+00 2.0326963563e+00 3.5207333655e+00 
42800 3.9006166902e+00 1.4779527875e-02 2.0323299696e+00 -3.5200987651e+00 2.0323299696e+00 3.5200987651e+00 
42900 3.9006113123e+00 1.4664476166e-02 2.0319663700e+00 -3.5194689921e+00 2.0319663700e+00 3.5194689921e+00 
43000 3.9006060145e+00 1.4550342752e-02 2.0316055362e+00 -3.5188440097e+00 2.0316055362e+00 3.5188440097e+00 
43100 3.9006007958e+00 1.4437120200e-02 2.0312474471e+00 -3.5182237812e+00 2.0312474471e+00 3.5182237812e+00 
43200 3.9005956548e+00 1.4324801134e-02 2.0308920818e+00 -3.5176082704e+00 2.0308920818e+00 3.5176082704e+00 
43300 3.9005905905e+00 1.4213378232e-02 2.0305394194e+00 -3.5169974411e+00 2.0305394194e+00 3.5169974411e+00 
43400 3.9005856017e+00 1.4102844233e-02 2.0301894392e+00 -3.5163912577e+00 2.0301894392e+00 3.5163912577e+00 
43500 3.9005806873e+00 1.3993191927e-02 2.0298421208e+00 -3.5157896846e+00 2.0298421208e+00 3.5157896846e+00 
43600 3.9005758461e+00 1.3884414165e-02 2.0294974439e+00 -3.5151926867e+00 2.0294974439e+00 3.5151926867e+00 
43700 3.9005710771e+00 1.3776503850e-02 2.0291553882e+00 -3.5146002288e+00 2.0291553882e+00 3.5146002288e+00 
43800 3.9005663792e+00 1.3669453940e-02 2.0288159337e+00 -3.5140122763e+00 2.0288159337e+00 3.5140122763e+00 
43900 3.9005617514e+00 1.3563257451e-02 2.0284790604e+00 -3.5134287947e+00 2.0284790604e+00 3.5134287947e+00 
44000 3.9005571925e+00 1.3457907450e-02 2.0281447487e+00 -3.5128497499e+00 2.0281447487e+00 3.5128497499e+00 
44100 3.9005527017e+00 1.3353397061e-02 2.0278129790e+00 -3.5122751079e+00 2.0278129790e+00 3.5122751079e+00 
44200 3.9005482777e+00 1.3249719461e-02 2.0274837318e+00 -3.5117048350e+00 2.0274837318e+00 3.5117048350e+00 
44300 3.9005439198e+00 1.3146867880e-02 2.0271569878e+00 -3.5111388978e+00 2.0271569878e+00 3.5111388978e+00 
44400 3.9005396268e+00 1.3044835602e-02 2.0268327278e+00 -3.5105772630e+00 2.0268327278e+00 3.5105772630e+00 
44500 3.9005353978e+00 1.2943615964e-02 2.0265109329e+00 -3.5100198978e+00 2.0265109329e+00 3.5100198978e+00 
44600 3.9005312319e+00 1.2843202355e-02 2.0261915841e+00 -3.5094667695e+00 2.0261915841e+00 3.5094667695e+00 
44700 3.9005271281e+00 1.2743588218e-02 2.0258746627e+00 -3.5089178456e+00 2.0258746627e+00 3.5089178456e+00 
44800 3.9005230854e+00 1.2644767045e-02 2.0255601502e+00 -3.5083730940e+00 2.0255601502e+00 3.5083730940e+00 
44900 3.9005191031e+00 1.2546732384e-02 2.0252480281e+00 -3.5078324826e+00 2.0252480281e+00 3.5078324826e+00 
45000 3.9005151801e+00 1.2449477830e-02 2.0249382781e+00 -3.5072959799e+00 2.0249382781e+00 3.5072959799e+00 
45100 3.9005113156e+00 1.2352997031e-02 2.0246308820e+00 -3.5067635542e+00 2.0246308820e+00 3.5067635542e+00 
45200 3.9005075087e+00 1.2257283688e-02 2.0243258218e+00 -3.5062351744e+00 2.0243258218e+00 3.5062351744e+00 
45300 3.9005037586e+00 1.2162331548e-02 2.0240230795e+00 -3.5057108095e+00 2.0240230795e+00 3.5057108095e+00 
45400 3.9005000644e+00 1.2068134410e-02 2.0237226376e+00 -3.5051904287e+00 2.0237226376e+00 3.5051904287e+00 
45500 3.9004964252e+00 1.1974686124e-02 2.0234244782e+00 -3.5046740015e+00 2.0234244782e+00 3.5046740015e+00 
45600 3.9004928404e+00 1.1881980589e-02 2.0231285839e+00 -3.5041614975e+00 2.0231285839e+00 3.5041614975e+00 
45700 3.9004893089e+00 1.1790011750e-02 2.0228349374e+00 -3.5036528869e+00 2.0228349374e+00 3.5036528869e+00 
45800 3.9004858301e+00 1.1698773606e-02 2.0225435214e+00 -3.5031481396e+00 2.0225435214e+00 3.5031481396e+00 
45900 3.9004824032e+00 1.1608260199e-02 2.0222543188e+00 -3.5026472261e+00 2.0222543188e+00 3.5026472261e+00 
46000 3.9004790274e+00 1.1518465623e-02 2.0219673128e+00 -3.5021501170e+00 2.0219673128e+00 3.5021501170e+00 
46100 3.9004757019e+00 1.1429384019e-02 2.0216824863e+00 -3.5016567831e+00 2.0216824863e+00 3.5016567831e+00 
46200 3.9004724260e+00 1.1341009573e-02 2.0213998228e+00 -3.5011671955e+00 2.0213998228e+00 3.5011671955e+00 
46300 3.9004691989e+00 1.1253336522e-02 2.0211193056e+00 -3.5006813255e+00 2.0211193056e+00 3.5006813255e+00 
46400 3.9004660199e+00 1.1166359147e-02 2.0208409184e+00 -3.5001991446e+00 2.0208409184e+00 3.5001991446e+00 
46500 3.9004628883e+00 1.1080071775e-02 2.0205646446e+00 -3.4997206245e+00 2.0205646446e+00 3.4997206245e+00 
46600 3.9004598034e+00 1.0994468782e-02 2.0202904683e+00 -3.4992457371e+00 2.0202904683e+00 3.4992457371e+00 
46700 3.9004567645e+00 1.0909544588e-02 2.0200183732e+00 -3.4987744546e+00 2.0200183732e+00 3.4987744546e+00 
46800 3.9004537709e+00 1.0825293657e-02 2.0197483434e+00 -3.4983067493e+00 2.0197483434e+00 3.4983067493e+00 
46900 3.9004508219e+00 1.0741710502e-02 2.0194803632e+00 -3.4978425939e+00 2.0194803632e+00 3.4978425939e+00 
47000 3.9004479168e+00 1.0658789676e-02 2.0192144167e+00 -3.4973819610e+00 2.0192144167e+00 3.4973819610e+00 
47100 3.9004450551e+00 1.0576525781e-02 2.0189504883e+00 -3.4969248238e+00 2.0189504883e+00 3.4969248238e+00 
47200 3.9004422361e+00 1.0494913461e-02 2.0186885627e+00 -3.4964711553e+00 2.0186885627e+00 3.4964711553e+00 
47300 3.9004394590e+00 1.0413947403e-02 2.0184286245e+00 -3.4960209290e+00 2.0184286245e+00 3.4960209290e+00 
47400 3.9004367234e+00 1.0333622340e-02 2.0181706583e+00 -3.4955741185e+00 2.0181706583e+00 3.4955741185e+00 
47500 3.9004340285e+00 1.0253933045e-02 2.0179146491e+00 -3.4951306976e+00 2.0179146491e+00 3.4951306976e+00 
47600 3.9004313738e+00 1.0174874338e-02 2.0176605820e+00 -3.4946906404e+00 2.0176605820e+00 3.4946906404e+00 
47700 3.9004287586e+00 1.0096441078e-02 2.0174084419e+00 -3.4942539209e+00 2.0174084419e+00 3.4942539209e+00 
47800 3.9004261825e+00 1.0018628167e-02 2.0171582141e+00 -3.4938205137e+00 2.0171582141e+00 3.4938205137e+00 
47900 3.9004236447e+00 9.9414305503e-03 2.0169098840e+00 -3.4933903933e+00 2.0169098840e+00 3.4933903933e+00 
48000 3.9004211448e+00 9.8648432139e-03 2.0166634370e+00 -3.4929635346e+00 2.0166634370e+00 3.4929635346e+00 
48100 3.9004186821e+00 9.7888611852e-03 2.0164188586e+00 -3.4925399125e+00 2.0164188586e+00 3.4925399125e+00 
48200 3.9004162561e+00 9.7134795325e-03 2.0161761346e+00 -3.4921195022e+00 2.0161761346e+00 3.4921195022e+00 
48300 3.9004138663e+00 9.6386933650e-03 2.0159352508e+00 -3.4917022791e+00 2.0159352508e+00 3.4917022791e+00 
48400 3.9004115121e+00 9.5644978321e-03 2.0156961929e+00 -3.4912882188e+00 2.0156961929e+00 3.4912882188e+00 
48500 3.9004091929e+00 9.4908881233e-03 2.0154589471e+00 -3.4908772969e+00 2.0154589471e+00 3.4908772969e+00 
48600 3.9004069084e+00 9.4178594680e-03 2.0152234994e+00 -3.4904694896e+00 2.0152234994e+00 3.4904694896e+00 
48700 3.9004046579e+00 9.3454071349e-03 2.0149898361e+00 -3.4900647728e+00 2.0149898361e+00 3.4900647728e+00 
48800 3.9004024409e+00 9.2735264320e-03 2.0147579434e+00 -3.4896631229e+00 2.0147579434e+00 3.4896631229e+00 
48900 3.9004002570e+00 9.2022127060e-03 2.0145278078e+00 -3.4892645164e+00 2.0145278078e+00 3.4892645164e+00 
49000 3.9003981056e+00 9.1314613422e-03 2.0142994158e+00 -3.4888689299e+00 2.0142994158e+00 3.4888689299e+00 
49100 3.9003959862e+00 9.0612677641e-03 2.0140727542e+00 -3.4884763403e+00 2.0140727542e+00 3.4884763403e+00 
49200 3.9003938985e+00 8.9916274333e-03 2.0138478095e+00 -3.4880867247e+00 2.0138478095e+00 3.4880867247e+00 
49300 3.9003918418e+00 8.9225358489e-03 2.0136245686e+00 -3.4877000603e+00 2.0136245686e+00 3.4877000603e+00 
49400 3.9003898159e+00 8.8539885474e-03 2.0134030186e+00 -3.4873163243e+00 2.0134030186e+00 3.4873163243e+00 
49500 3.9003878200e+00 8.7859811023e-03 2.0131831464e+00 -3.4869354945e+00 2.0131831464e+00 3.4869354945e+00 
49600 3.9003858540e+00 8.7185091241e-03 2.0129649392e+00 -3.4865575485e+00 2.0129649392e+00 3.4865575485e+00 
49700 3.9003839172e+00 8.6515682594e-03 2.0127483841e+00 -3.4861824642e+00 2.0127483841e+00 3.4861824642e+00 
49800 3.9003820093e+00 8.5851541914e-03 2.0125334687e+00 -3.4858102197e+00 2.0125334687e+00 3.4858102197e+00 
49900 3.9003801298e+00 8.5192626388e-03 2.0123201803e+00 -3.4854407933e+00 2.0123201803e+00 3.4854407933e+00 
50000 3.9003782783e+00 8.4538893562e-03 2.0121085064e+00 -3.4850741634e+00 2.0121085064e+00 3.4850741634e+00 
50100 3.9003764544e+00 8.3890301335e-03 2.0118984346e+00 -3.4847103085e+00 2.0118984346e+00 3.4847103085e+00 
50200 3.9003746577e+00 8.3246807954e-03 2.0116899528e+00 -3.4843492073e+00 2.0116899528e+00 3.4843492073e+00 
50300 3.9003728877e+00 8.2608372017e-03 2.0114830487e+00 -3.4839908389e+00 2.0114830487e+00 3.4839908389e+00 
50400 3.9003711441e+00 8.1974952464e-03 2.0112777102e+00 -3.4836351823e+00 2.0112777102e+00 3.4836351823e+00 
50500 3.9003694265e+00 8.1346508580e-03 2.0110739254e+00 -3.4832822166e+00 2.0110739254e+00 3.4832822166e+00 
50600 3.9003677345e+00 8.0722999986e-03 2.0108716824e+00 -3.4829319214e+00 2.0108716824e+00 3.4829319214e+00 
50700 3.9003660676e+00 8.0104386642e-03 2.0106709693e+00 -3.4825842761e+00 2.0106709693e+00 3.4825842761e+00 
50800 3.9003644256e+00 7.9490628841e-03 2.0104717744e+00 -3.4822392605e+00 2.0104717744e+00 3.4822392605e+00 
50900 3.9003628081e+00 7.8881687207e-03 2.0102740862e+00 -3.4818968544e+00 2.0102740862e+00 3.4818968544e+00 
51000 3.9003612147e+00 7.8277522692e-03 2.0100778930e+00 -3.4815570379e+00 2.0100778930e+00 3.4815570379e+00 
51100 3.9003596450e+00 7.7678096576e-03 2.0098831835e+00 -3.4812197911e+00 2.0098831835e+00 3.4812197911e+00 
51200 3.9003580986e+00 7.7083370458e-03 2.0096899463e+00 -3.4808850944e+00 2.0096899463e+00 3.4808850944e+00 
51300 3.9003565753e+00 7.6493306262e-03 2.0094981701e+00 -3.4805529283e+00 2.0094981701e+00 3.4805529283e+00 
51400 3.9003550747e+00 7.5907866227e-03 2.0093078437e+00 -3.4802232733e+00 2.0093078437e+00 3.4802232733e+00 
51500 3.9003535965e+00 7.5327012907e-03 2.0091189561e+00 -3.4798961104e+00 2.0091189561e+00 3.4798961104e+00 
51600 3.9003521403e+00 7.4750709170e-03 2.0089314962e+00 -3.4795714203e+00 2.0089314962e+00 3.4795714203e+00 
51700 3.9003507057e+00 7.4178918194e-03 2.0087454531e+00 -3.4792491843e+00 2.0087454531e+00 3.4792491843e+00 
51800 3.9003492925e+00 7.3611603463e-03 2.0085608160e+00 -3.4789293835e+00 2.0085608160e+00 3.4789293835e+00 
51900 3.9003479004e+00 7.3048728768e-03 2.0083775742e+00 -3.4786119993e+00 2.0083775742e+00 3.4786119993e+00 
52000 3.9003465290e+00 7.2490258200e-03 2.0081957169e+00 -3.4782970132e+00 2.0081957169e+00 3.4782970132e+00 
52100 3.9003451780e+00 7.1936156153e-03 2.0080152335e+00 -3.4779844069e+00 2.0080152335e+00 3.4779844069e+00 
52200 3.9003438472e+00 7.1386387316e-03 2.0078361137e+00 -3.4776741621e+00 2.0078361137e+00 3.4776741621e+00 
52300 3.9003425362e+00 7.0840916673e-03 2.0076583468e+00 -3.4773662610e+00 2.0076583468e+00 3.4773662610e+00 
52400 3.9003412447e+00 7.0299709502e-03 2.0074819227e+00 -3.4770606854e+00 2.0074819227e+00 3.4770606854e+00 
52500 3.9003399724e+00 6.9762731369e-03 2.0073068310e+00 -3.4767574177e+00 2.0073068310e+00 3.4767574177e+00 
52600 3.9003387190e+00 6.9229948130e-03 2.0071330615e+00 -3.4764564401e+00 2.0071330615e+00 3.4764564401e+00 
52700 3.9003374844e+00 6.8701325926e-03 2.0069606042e+00 -3.4761577353e+00 2.0069606042e+00 3.4761577353e+00 
52800 3.9003362681e+00 6.8176831178e-03 2.0067894490e+00 -3.4758612858e+00 2.0067894490e+00 3.4758612858e+00 
52900 3.9003350699e+00 6.7656430590e-03 2.0066195860e+00 -3.4755670744e+00 2.0066195860e+00 3.4755670744e+00 
53000 3.9003338896e+00 6.7140091145e-03 2.0064510052e+00 -3.4752750840e+00 2.0064510052e+00 3.4752750840e+00 
53100 3.9003327268e+00 6.6627780099e-03 2.0062836970e+00 -3.4749852976e+00 2.0062836970e+00 3.4749852976e+00 
53200 3.9003315814e+00 6.6119464984e-03 2.0061176515e+00 -3.4746976984e+00 2.0061176515e+00 3.4746976984e+00 
53300 3.9003304530e+00 6.5615113601e-03 2.0059528592e+00 -3.4744122697e+00 2.0059528592e+00 3.4744122697e+00 
53400 3.9003293414e+00 6.5114694022e-03 2.0057893104e+00 -3.4741289950e+00 2.0057893104e+00 3.4741289950e+00 
53500 3.9003282464e+00 6.4618174585e-03 2.0056269957e+00 -3.4738478577e+00 2.0056269957e+00 3.4738478577e+00 
53600 3.9003271677e+00 6.4125523892e-03 2.0054659057e+00 -3.4735688415e+00 2.0054659057e+00 3.4735688415e+00 
53700 3.9003261050e+00 6.3636710807e-03 2.0053060309e+00 -3.4732919303e+00 2.0053060309e+00 3.4732919303e+00 
53800 3.9003250581e+00 6.3151704454e-03 2.0051473622e+00 -3.4730171080e+00 2.0051473622e+00 3.4730171080e+00 
53900 3.9003240269e+00 6.2670474216e-03 2.0049898903e+00 -3.4727443587e+00 2.0049898903e+00 3.4727443587e+00 
54000 3.9003230110e+00 6.2192989730e-03 2.0048336061e+00 -3.4724736665e+00 2.0048336061e+00 3.4724736665e+00 
54100 3.9003220102e+00 6.1719220888e-03 2.0046785005e+00 -3.4722050157e+00 2.0046785005e+00 3.4722050157e+00 
54200 3.9003210243e+00 6.1249137832e-03 2.0045245645e+00 -3.4719383907e+00 2.0045245645e+00 3.4719383907e+00 
54300 3.9003200531e+00 6.0782710953e-03 2.0043717892e+00 -3.4716737762e+00 2.0043717892e+00 3.4716737762e+00 
54400 3.9003190963e+00 6.0319910890e-03 2.0042201658e+00 -3.4714111567e+00 2.0042201658e+00 3.4714111567e+00 
54500 3.9003181538e+00 5.9860708527e-03 2.0040696854e+00 -3.4711505170e+00 2.0040696854e+00 3.4711505170e+00 
54600 3.9003172253e+00 5.9405074989e-03 2.0039203394e+00 -3.4708918422e+00 2.0039203394e+00 3.4708918422e+00 
54700 3.9003163107e+00 5.8952981645e-03 2.0037721191e+00 -3.4706351170e+00 2.0037721191e+00 3.4706351170e+00 
54800 3.9003154096e+00 5.8504400100e-03 2.0036250159e+00 -3.4703803268e+00 2.0036250159e+00 3.4703803268e+00 
54900 3.9003145220e+00 5.8059302197e-03 2.0034790213e+00 -3.4701274567e+00 2.0034790213e+00 3.4701274567e+00 
55000 3.9003136476e+00 5.7617660014e-03 2.0033341268e+00 -3.4698764922e+00 2.0033341268e+00 3.4698764922e+00 
55100 3.9003127862e+00 5.7179445859e-03 2.0031903241e+00 -3.4696274186e+00 2.0031903241e+00 3.4696274186e+00 
55200 3.9003119376e+00 5.6744632275e-03 2.0030476049e+00 -3.4693802216e+00 2.0030476049e+00 3.4693802216e+00 
55300 3.9003111016e+00 5.6313192030e-03 2.0029059608e+00 -3.4691348869e+00 2.0029059608e+00 3.4691348869e+00 
55400 3.9003102781e+00 5.5885098121e-03 2.0027653837e+00 -3.4688914002e+00 2.0027653837e+00 3.4688914002e+00 
55500 3.9003094669e+00 5.5460323770e-03 2.0026258655e+00 -3.4686497476e+00 2.0026258655e+00 3.4686497476e+00 
55600 3.9003086677e+00 5.5038842419e-03 2.0024873981e+00 -3.4684099150e+00 2.0024873981e+00 3.4684099150e+00 
55700 3.9003078804e+00 5.4620627735e-03 2.0023499735e+00 -3.4681718886e+00 2.0023499735e+00 3.4681718886e+00 
55800 3.9003071048e+00 5.4205653601e-03 2.0022135837e+00 -3.4679356546e+00 2.0022135837e+00 3.4679356546e+00 
55900 3.9003063408e+00 5.3793894120e-03 2.0020782209e+00 -3.4677011993e+00 2.0020782209e+00 3.4677011993e+00 
56000 3.9003055882e+00 5.3385323608e-03 2.0019438773e+00 -3.4674685093e+00 2.0019438773e+00 3.4674685093e+00 
56100 3.9003048467e+00 5.2979916595e-03 2.0018105450e+00 -3.4672375711e+00 2.0018105450e+00 3.4672375711e+00 
56200 3.9003041163e+00 5.2577647824e-03 2.0016782165e+00 -3.4670083714e+00 2.0016782165e+00 3.4670083714e+00 
56300 3.9003033967e+00 5.2178492247e-03 2.0015468840e+00 -3.4667808969e+00 2.0015468840e+00 3.4667808969e+00 
56400 3.9003026879e+00 5.1782425025e-03 2.0014165400e+00 -3.4665551344e+00 2.0014165400e+00 3.4665551344e+00 
56500 3.9003019896e+00 5.1389421523e-03 2.0012871770e+00 -3.4663310711e+00 2.0012871770e+00 3.4663310711e+00 
56600 3.9003013017e+00 5.0999457313e-03 2.0011587874e+00 -3.4661086938e+00 2.0011587874e+00 3.4661086938e+00 
56700 3.9003006240e+00 5.0612508169e-03 2.0010313640e+00 -3.4658879899e+00 2.0010313640e+00 3.4658879899e+00 
56800 3.9002999564e+00 5.0228550066e-03 2.0009048992e+00 -3.4656689466e+00 2.0009048992e+00 3.4656689466e+00 
56900 3.9002992988e+00 4.9847559179e-03 2.0007793860e+00 -3.4654515512e+00 2.0007793860e+00 3.4654515512e+00 
57000 3.9002986509e+00 4.9469511879e-03 2.0006548169e+00 -3.4652357913e+00 2.0006548169e+00 3.4652357913e+00 
57100 3.9002980127e+00 4.9094384733e-03 2.0005311849e+00 -3.4650216543e+00 2.0005311849e+00 3.4650216543e+00 
57200 3.9002973840e+00 4.8722154506e-03 2.0004084828e+00 -3.4648091280e+00 2.0004084828e+00 3.4648091280e+00 
57300 3.9002967646e+00 4.8352798150e-03 2.0002867035e+00 -3.4645982001e+00 2.0002867035e+00 3.4645982001e+00 
57400 3.9002961545e+00 4.7986292813e-03 2.0001658400e+00 -3.4643888585e+00 2.0001658400e+00 3.4643888585e+00 
57500 3.9002955534e+00 4.7622615827e-03 2.0000458854e+00 -3.4641810911e+00 2.0000458854e+00 3.4641810911e+00 
57600 3.9002949612e+00 4.7261744718e-03 1.9999268328e+00 -3.4639748859e+00 1.9999268328e+00 3.4639748859e+00 
57700 3.9002943779e+00 4.6903657192e-03 1.9998086753e+00 -3.4637702310e+00 1.9998086753e+00 3.4637702310e+00 
57800 3.9002938033e+00 4.6548331143e-03 1.9996914061e+00 -3.4635671148e+00 1.9996914061e+00 3.4635671148e+00 
57900 3.9002932372e+00 4.6195744647e-03 1.9995750184e+00 -3.4633655255e+00 1.9995750184e+00 3.4633655255e+00 
58000 3.9002926795e+00 4.5845875961e-03 1.9994595056e+00 -3.4631654514e+00 1.9994595056e+00 3.4631654514e+00 
58100 3.9002921301e+00 4.5498703522e-03 1.9993448611e+00 -3.4629668812e+00 1.9993448611e+00 3.4629668812e+00 
58200 3.9002915889e+00 4.5154205946e-03 1.9992310781e+00 -3.4627698033e+00 1.9992310781e+00 3.4627698033e+00 
58300 3.9002910558e+00 4.4812362023e-03 1.9991181502e+00 -3.4625742065e+00 1.9991181502e+00 3.4625742065e+00 
58400 3.9002905306e+00 4.4473150721e-03 1.9990060710e+00 -3.4623800795e+00 1.9990060710e+00 3.4623800795e+00 
58500 3.9002900132e+00 4.4136551181e-03 1.9988948338e+00 -3.4621874112e+00 1.9988948338e+00 3.4621874112e+00 
58600 3.9002895035e+00 4.3802542714e-03 1.9987844325e+00 -3.4619961904e+00 1.9987844325e+00 3.4619961904e+00 
58700 3.9002890013e+00 4.3471104805e-03 1.9986748605e+00 -3.4618064062e+00 1.9986748605e+00 3.4618064062e+00 
58800 3.9002885067e+00 4.3142217105e-03 1.9985661117e+00 -3.4616180477e+00 1.9985661117e+00 3.4616180477e+00 
58900 3.9002880194e+00 4.2815859435e-03 1.9984581797e+00 -3.4614311041e+00 1.9984581797e+00 3.4614311041e+00 
59000 3.9002875393e+00 4.2492011781e-03 1.9983510585e+00 -3.4612455646e+00 1.9983510585e+00 3.4612455646e+00 
59100 3.9002870664e+00 4.2170654295e-03 1.9982447417e+00 -3.4610614186e+00 1.9982447417e+00 3.4610614186e+00 
59200 3.9002866006e+00 4.1851767291e-03 1.9981392234e+00 -3.4608786555e+00 1.9981392234e+00 3.4608786555e+00 
59300 3.9002861416e+00 4.1535331246e-03 1.9980344975e+00 -3.4606972649e+00 1.9980344975e+00 3.4606972649e+00 
59400 3.9002856895e+00 4.1221326797e-03 1.9979305579e+00 -3.4605172362e+00 1.9979305579e+00 3.4605172362e+00 
59500 3.9002852441e+00 4.0909734741e-03 1.9978273987e+00 -3.4603385593e+00 1.9978273987e+00 3.4603385593e+00 
59600 3.9002848054e+00 4.0600536033e-03 1.9977250140e+00 -3.4601612238e+00 1.9977250140e+00 3.4601612238e+00 
59700 3.9002843731e+00 4.0293711783e-03 1.9976233980e+00 -3.4599852197e+00 1.9976233980e+00 3.4599852197e+00 
59800 3.9002839473e+00 3.9989243258e-03 1.9975225447e+00 -3.4598105367e+00 1.9975225447e+00 3.4598105367e+00 
59900 3.9002835278e+00 3.9687111878e-03 1.9974224484e+00 -3.4596371648e+00 1.9974224484e+00 3.4596371648e+00 
60000 3.9002831146e+00 3.9387299215e-03 1.9973231034e+00 -3.4594650943e+00 1.9973231034e+00 3.4594650943e+00 
60100 3.9002827075e+00 3.9089786993e-03 1.9972245040e+00 -3.4592943151e+00 1.9972245040e+00 3.4592943151e+00 
60200 3.9002823065e+00 3.8794557086e-03 1.9971266445e+00 -3.4591248175e+00 1.9971266445e+00 3.4591248175e+00 
60300 3.9002819114e+00 3.8501591516e-03 1.9970295194e+00 -3.4589565918e+00 1.9970295194e+00 3.4589565918e+00 
60400 3.9002815222e+00 3.8210872453e-03 1.9969331230e+00 -3.4587896284e+00 1.9969331230e+00 3.4587896284e+00 
60500 3.9002811388e+00 3.7922382213e-03 1.9968374499e+00 -3.4586239177e+00 1.9968374499e+00 3.4586239177e+00 
60600 3.9002807611e+00 3.7636103256e-03 1.9967424945e+00 -3.4584594502e+00 1.9967424945e+00 3.4584594502e+00 
60700 3.9002803890e+00 3.7352018187e-03 1.9966482515e+00 -3.4582962165e+00 1.9966482515e+00 3.4582962165e+00 
60800 3.9002800225e+00 3.7070109751e-03 1.9965547155e+00 -3.4581342073e+00 1.9965547155e+00 3.4581342073e+00 
60900 3.9002796614e+00 3.6790360837e-03 1.9964618810e+00 -3.4579734132e+00 1.9964618810e+00 3.4579734132e+00 
61000 3.9002793057e+00 3.6512754472e-03 1.9963697428e+00 -3.4578138252e+00 1.9963697428e+00 3.4578138252e+00 
61100 3.9002789552e+00 3.6237273823e-03 1.9962782956e+00 -3.4576554340e+00 1.9962782956e+00 3.4576554340e+00 
61200 3.9002786100e+00 3.5963902193e-03 1.9961875342e+00 -3.4574982307e+00 1.9961875342e+00 3.4574982307e+00 
61300 3.9002782699e+00 3.5692623023e-03 1.9960974534e+00 -3.4573422062e+00 1.9960974534e+00 3.4573422062e+00 
61400 3.9002779349e+00 3.5423419888e-03 1.9960080481e+00 -3.4571873516e+00 1.9960080481e+00 3.4571873516e+00 
61500 3.9002776048e+00 3.5156276497e-03 1.9959193131e+00 -3.4570336580e+00 1.9959193131e+00 3.4570336580e+00 
61600 3.9002772797e+00 3.4891176694e-03 1.9958312433e+00 -3.4568811168e+00 1.9958312433e+00 3.4568811168e+00 
61700 3.9002769594e+00 3.4628104451e-03 1.9957438338e+00 -3.4567297191e+00 1.9957438338e+00 3.4567297191e+00 
61800 3.9002766438e+00 3.4367043874e-03 1.9956570796e+00 -3.4565794563e+00 1.9956570796e+00 3.4565794563e+00 
61900 3.9002763330e+00 3.4107979196e-03 1.9955709756e+00 -3.4564303199e+00 1.9955709756e+00 3.4564303199e+00 
62000 3.9002760268e+00 3.3850894781e-03 1.9954855170e+00 -3.4562823013e+00 1.9954855170e+00 3.4562823013e+00 
62100 3.9002757251e+00 3.3595775118e-03 1.9954006989e+00 -3.4561353920e+00 1.9954006989e+00 3.4561353920e+00 
62200 3.9002754279e+00 3.3342604824e-03 1.9953165165e+00 -3.4559895838e+00 1.9953165165e+00 3.4559895838e+00 
62300 3.9002751352e+00 3.3091368639e-03 1.9952329649e+00 -3.4558448682e+00 1.9952329649e+00 3.4558448682e+00 
62400 3.9002748467e+00 3.2842051429e-03 1.9951500394e+00 -3.4557012370e+00 1.9951500394e+00 3.4557012370e+00 
62500 3.9002745626e+00 3.2594638182e-03 1.9950677353e+00 -3.4555586820e+00 1.9950677353e+00 3.4555586820e+00 
62600 3.9002742827e+00 3.2349114009e-03 1.9949860478e+00 -3.4554171951e+00 1.9949860478e+00 3.4554171951e+00 
62700 3.9002740070e+00 3.2105464140e-03 1.9949049723e+00 -3.4552767683e+00 1.9949049723e+00 3.4552767683e+00 
62800 3.9002737354e+00 3.1863673927e-03 1.9948245042e+00 -3.4551373934e+00 1.9948245042e+00 3.4551373934e+00 
62900 3.9002734678e+00 3.1623728839e-03 1.9947446388e+00 -3.4549990626e+00 1.9947446388e+00 3.4549990626e+00 
63000 3.9002732041e+00 3.1385614464e-03 1.9946653718e+00 -3.4548617680e+00 1.9946653718e+00 3.4548617680e+00 
63100 3.9002729444e+00 3.1149316507e-03 1.9945866984e+00 -3.4547255017e+00 1.9945866984e+00 3.4547255017e+00 
63200 3.9002726886e+00 3.0914820788e-03 1.9945086143e+00 -3.4545902560e+00 1.9945086143e+00 3.4545902560e+00 
63300 3.9002724366e+00 3.0682113242e-03 1.9944311149e+00 -3.4544560232e+00 1.9944311149e+00 3.4544560232e+00 
63400 3.9002721883e+00 3.0451179920e-03 1.9943541959e+00 -3.4543227957e+00 1.9943541959e+00 3.4543227957e+00 
63500 3.9002719437e+00 3.0222006981e-03 1.9942778530e+00 -3.4541905658e+00 1.9942778530e+00 3.4541905658e+00 
63600 3.9002717028e+00 2.9994580702e-03 1.9942020816e+00 -3.4540593260e+00 1.9942020816e+00 3.4540593260e+00 
63700 3.9002714654e+00 2.9768887466e-03 1.9941268777e+00 -3.4539290688e+00 1.9941268777e+00 3.4539290688e+00 
63800 3.9002712315e+00 2.9544913769e-03 1.9940522367e+00 -3.4537997869e+00 1.9940522367e+00 3.4537997869e+00 
63900 3.9002710012e+00 2.9322646215e-03 1.9939781546e+00 -3.4536714729e+00 1.9939781546e+00 3.4536714729e+00 
64000 3.9002707742e+00 2.9102071516e-03 1.9939046270e+00 -3.4535441195e+00 1.9939046270e+00 3.4535441195e+00 
64100 3.9002705507e+00 2.8883176493e-03 1.9938316499e+00 -3.4534177193e+00 1.9938316499e+00 3.4534177193e+00 
64200 3.9002703304e+00 2.8665948070e-03 1.9937592190e+00 -3.4532922653e+00 1.9937592190e+00 3.4532922653e+00 
64300 3.9002701135e+00 2.8450373281e-03 1.9936873302e+00 -3.4531677504e+00 1.9936873302e+00 3.4531677504e+00 
64400 3.9002698997e+00 2.8236439260e-03 1.9936159795e+00 -3.4530441673e+00 1.9936159795e+00 3.4530441673e+00 
64500 3.9002696892e+00 2.8024133247e-03 1.9935451628e+00 -3.4529215091e+00 1.9935451628e+00 3.4529215091e+00 
64600 3.9002694818e+00 2.7813442586e-03 1.9934748760e+00 -3.4527997689e+00 1.9934748760e+00 3.4527997689e+00 
64700 3.9002692774e+00 2.7604354720e-03 1.9934051152e+00 -3.4526789396e+00 1.9934051152e+00 3.4526789396e+00 
64800 3.9002690761e+00 2.7396857196e-03 1.9933358764e+00 -3.4525590145e+00 1.9933358764e+00 3.4525590145e+00 
64900 3.9002688778e+00 2.7190937658e-03 1.9932671557e+00 -3.4524399867e+00 1.9932671557e+00 3.4524399867e+00 
65000 3.9002686824e+00 2.6986583853e-03 1.9931989491e+00 -3.4523218495e+00 1.9931989491e+00 3.4523218495e+00 
65100 3.9002684900e+00 2.6783783623e-03 1.9931312528e+00 -3.4522045961e+00 1.9931312528e+00 3.4522045961e+00 
65200 3.9002683004e+00 2.6582524912e-03 1.9930640630e+00 -3.4520882198e+00 1.9930640630e+00 3.4520882198e+00 
65300 3.9002681136e+00 2.6382795755e-03 1.9929973758e+00 -3.4519727142e+00 1.9929973758e+00 3.4519727142e+00 
65400 3.9002679296e+00 2.6184584289e-03 1.9929311874e+00 -3.4518580726e+00 1.9929311874e+00 3.4518580726e+00 
65500 3.9002677483e+00 2.5987878743e-03 1.9928654941e+00 -3.4517442885e+00 1.9928654941e+00 3.4517442885e+00 
65600 3.9002675698e+00 2.5792667440e-03 1.9928002922e+00 -3.4516313554e+00 1.9928002922e+00 3.4516313554e+00 
65700 3.9002673939e+00 2.5598938798e-03 1.9927355779e+00 -3.4515192670e+00 1.9927355779e+00 3.4515192670e+00 
65800 3.9002672206e+00 2.5406681329e-03 1.9926713476e+00 -3.4514080168e+00 1.9926713476e+00 3.4514080168e+00 
65900 3.9002670498e+00 2.5215883634e-03 1.9926075976e+00 -3.4512975987e+00 1.9926075976e+00 3.4512975987e+00 
66000 3.9002668817e+00 2.5026534408e-03 1.9925443244e+00 -3.4511880062e+00 1.9925443244e+00 3.4511880062e+00 
66100 3.9002667160e+00 2.4838622435e-03 1.9924815243e+00 -3.4510792332e+00 1.9924815243e+00 3.4510792332e+00 
66200 3.9002665528e+00 2.4652136589e-03 1.9924191937e+00 -3.4509712735e+00 1.9924191937e+00 3.4509712735e+00 
66300 3.9002663920e+00 2.4467065834e-03 1.9923573292e+00 -3.4508641210e+00 1.9923573292e+00 3.4508641210e+00 
66400 3.9002662336e+00 2.4283399221e-03 1.9922959272e+00 -3.4507577697e+00 1.9922959272e+00 3.4507577697e+00 
66500 3.9002660775e+00 2.4101125890e-03 1.9922349843e+00 -3.4506522134e+00 1.9922349843e+00 3.4506522134e+00 
66600 3.9002659238e+00 2.3920235065e-03 1.9921744969e+00 -3.4505474462e+00 1.9921744969e+00 3.4505474462e+00 
66700 3.9002657724e+00 2.3740716060e-03 1.9921144617e+00 -3.4504434622e+00 1.9921144617e+00 3.4504434622e+00 
66800 3.9002656232e+00 2.3562558271e-03 1.9920548753e+00 -3.4503402555e+00 1.9920548753e+00 3.4503402555e+00 
66900 3.9002654762e+00 2.3385751181e-03 1.9919957343e+00 -3.4502378202e+00 1.9919957343e+00 3.4502378202e+00 
67000 3.9002653314e+00 2.3210284354e-03 1.9919370353e+00 -3.4501361505e+00 1.9919370353e+00 3.4501361505e+00 
67100 3.9002651888e+00 2.3036147442e-03 1.9918787750e+00 -3.4500352407e+00 1.9918787750e+00 3.4500352407e+00 
67200 3.9002650483e+00 2.2863330174e-03 1.9918209501e+00 -3.4499350851e+00 1.9918209501e+00 3.4499350851e+00 
67300 3.9002649099e+00 2.2691822364e-03 1.9917635573e+00 -3.4498356779e+00 1.9917635573e+00 3.4498356779e+00 
67400 3.9002647735e+00 2.2521613907e-03 1.9917065934e+00 -3.4497370136e+00 1.9917065934e+00 3.4497370136e+00 
67500 3.9002646392e+00 2.2352694779e-03 1.9916500552e+00 -3.4496390865e+00 1.9916500552e+00 3.4496390865e+00 
67600 3.9002645068e+00 2.2185055033e-03 1.9915939395e+00 -3.4495418912e+00 1.9915939395e+00 3.4495418912e+00 
67700 3.9002643764e+00 2.2018684804e-03 1.9915382430e+00 -3.4494454221e+00 1.9915382430e+00 3.4494454221e+00 
67800 3.9002642480e+00 2.1853574305e-03 1.9914829626e+00 -3.4493496737e+00 1.9914829626e+00 3.4493496737e+00 
67900 3.9002641215e+00 2.1689713825e-03 1.9914280953e+00 -3.4492546407e+00 1.9914280953e+00 3.4492546407e+00 
68000 3.9002639969e+00 2.1527093732e-03 1.9913736379e+00 -3.4491603176e+00 1.9913736379e+00 3.4491603176e+00 
68100 3.9002638741e+00 2.1365704471e-03 1.9913195872e+00 -3.4490666992e+00 1.9913195872e+00 3.4490666992e+00 
68200 3.9002637531e+00 2.1205536560e-03 1.9912659404e+00 -3.4489737801e+00 1.9912659404e+00 3.4489737801e+00 
68300 3.9002636339e+00 2.1046580596e-03 1.9912126942e+00 -3.4488815551e+00 1.9912126942e+00 3.4488815551e+00 
68400 3.9002635165e+00 2.0888827248e-03 1.9911598458e+00 -3.4487900190e+00 1.9911598458e+00 3.4487900190e+00 
68500 3.9002634009e+00 2.0732267260e-03 1.9911073921e+00 -3.4486991665e+00 1.9911073921e+00 3.4486991665e+00 
68600 3.9002632870e+00 2.0576891448e-03 1.9910553302e+00 -3.4486089926e+00 1.9910553302e+00 3.4486089926e+00 
68700 3.9002631747e+00 2.0422690704e-03 1.9910036571e+00 -3.4485194922e+00 1.9910036571e+00 3.4485194922e+00 
68800 3.9002630642e+00 2.0269655988e-03 1.9909523699e+00 -3.4484306601e+00 1.9909523699e+00 3.4484306601e+00 
68900 3.9002629553e+00 2.0117778336e-03 1.9909014657e+00 -3.4483424915e+00 1.9909014657e+00 3.4483424915e+00 
69000 3.9002628480e+00 1.9967048851e-03 1.9908509416e+00 -3.4482549812e+00 1.9908509416e+00 3.4482549812e+00 
69100 3.9002627423e+00 1.9817458709e-03 1.9908007948e+00 -3.4481681244e+00 1.9908007948e+00 3.4481681244e+00 
69200 3.9002626381e+00 1.9668999155e-03 1.9907510224e+00 -3.4480819161e+00 1.9907510224e+00 3.4480819161e+00 
69300 3.9002625355e+00 1.9521661503e-03 1.9907016217e+00 -3.4479963515e+00 1.9907016217e+00 3.4479963515e+00 
69400 3.9002624345e+00 1.9375437135e-03 1.9906525898e+00 -3.4479114257e+00 1.9906525898e+00 3.4479114257e+00 
69500 3.9002623349e+00 1.9230317504e-03 1.9906039239e+00 -3.4478271340e+00 1.9906039239e+00 3.4478271340e+00 
69600 3.9002622369e+00 1.9086294127e-03 1.9905556214e+00 -3.4477434716e+00 1.9905556214e+00 3.4477434716e+00 
69700 3.9002621402e+00 1.8943358590e-03 1.9905076795e+00 -3.4476604337e+00 1.9905076795e+00 3.4476604337e+00 
69800 3.9002620451e+00 1.8801502545e-03 1.9904600954e+00 -3.4475780157e+00 1.9904600954e+00 3.4475780157e+00 
69900 3.9002619513e+00 1.8660717710e-03 1.9904128666e+00 -3.4474962129e+00 1.9904128666e+00 3.4474962129e+00 
70000 3.9002618589e+00 1.8520995867e-03 1.9903659903e+00 -3.4474150208e+00 1.9903659903e+00 3.4474150208e+00 
70100 3.9002617679e+00 1.8382328866e-03 1.9903194638e+00 -3.4473344346e+00 1.9903194638e+00 3.4473344346e+00 
70200 3.9002616783e+00 1.8244708617e-03 1.9902732847e+00 -3.4472544500e+00 1.9902732847e+00 3.4472544500e+00 
70300 3.9002615900e+00 1.8108127098e-03 1.9902274502e+00 -3.4471750623e+00 1.9902274502e+00 3.4471750623e+00 
70400 3.9002615030e+00 1.7972576346e-03 1.9901819577e+00 -3.4470962671e+00 1.9901819577e+00 3.4470962671e+00 
70500 3.9002614173e+00 1.7838048465e-03 1.9901368048e+00 -3.4470180599e+00 1.9901368048e+00 3.4470180599e+00 
70600 3.9002613328e+00 1.7704535617e-03 1.9900919888e+00 -3.4469404364e+00 1.9900919888e+00 3.4469404364e+00 
70700 3.9002612497e+00 1.7572030030e-03 1.9900475073e+00 -3.4468633921e+00 1.9900475073e+00 3.4468633921e+00 
70800 3.9002611677e+00 1.7440523988e-03 1.9900033577e+00 -3.4467869227e+00 1.9900033577e+00 3.4467869227e+00 
70900 3.9002610870e+00 1.7310009841e-03 1.9899595375e+00 -3.4467110240e+00 1.9899595375e+00 3.4467110240e+00 
71000 3.9002610075e+00 1.7180479996e-03 1.9899160443e+00 -3.4466356915e+00 1.9899160443e+00 3.4466356915e+00 
71100 3.9002609291e+00 1.7051926920e-03 1.9898728756e+00 -3.4465609211e+00 1.9898728756e+00 3.4465609211e+00 
71200 3.9002608520e+00 1.6924343139e-03 1.9898300290e+00 -3.4464867086e+00 1.9898300290e+00 3.4464867086e+00 
71300 3.9002607759e+00 1.6797721238e-03 1.9897875020e+00 -3.4464130498e+00 1.9897875020e+00 3.4464130498e+00 
71400 3.9002607011e+00 1.6672053862e-03 1.9897452923e+00 -3.4463399404e+00 1.9897452923e+00 3.4463399404e+00 
71500 3.9002606273e+00 1.6547333711e-03 1.9897033975e+00 -3.4462673765e+00 1.9897033975e+00 3.4462673765e+00 
71600 3.9002605546e+00 1.6423553543e-03 1.9896618153e+00 -3.4461953539e+00 1.9896618153e+00 3.4461953539e+00 
71700 3.9002604830e+00 1.6300706174e-03 1.9896205432e+00 -3.4461238686e+00 1.9896205432e+00 3.4461238686e+00 
71800 3.9002604125e+00 1.6178784475e-03 1.9895795790e+00 -3.4460529165e+00 1.9895795790e+00 3.4460529165e+00 
71900 3.9002603430e+00 1.6057781374e-03 1.9895389203e+00 -3.4459824936e+00 1.9895389203e+00 3.4459824936e+00 
72000 3.9002602745e+00 1.5937689853e-03 1.9894985649e+00 -3.4459125960e+00 1.9894985649e+00 3.4459125960e+00 
72100 3.9002602071e+00 1.5818502949e-03 1.9894585105e+00 -3.4458432197e+00 1.9894585105e+00 3.4458432197e+00 
72200 3.9002601406e+00 1.5700213756e-03 1.9894187548e+00 -3.4457743609e+00 1.9894187548e+00 3.4457743609e+00 
72300 3.9002600752e+00 1.5582815419e-03 1.9893792957e+00 -3.4457060156e+00 1.9893792957e+00 3.4457060156e+00 
72400 3.9002600107e+00 1.5466301139e-03 1.9893401308e+00 -3.4456381800e+00 1.9893401308e+00 3.4456381800e+00 
72500 3.9002599472e+00 1.5350664168e-03 1.9893012580e+00 -3.4455708503e+00 1.9893012580e+00 3.4455708503e+00 
72600 3.9002598846e+00 1.5235897812e-03 1.9892626750e+00 -3.4455040227e+00 1.9892626750e+00 3.4455040227e+00 
72700 3.9002598230e+00 1.5121995429e-03 1.9892243798e+00 -3.4454376935e+00 1.9892243798e+00 3.4454376935e+00 
72800 3.9002597623e+00 1.5008950430e-03 1.9891863701e+00 -3.4453718588e+00 1.9891863701e+00 3.4453718588e+00 
72900 3.9002597025e+00 1.4896756276e-03 1.9891486439e+00 -3.4453065151e+00 1.9891486439e+00 3.4453065151e+00 
73000 3.9002596435e+00 1.4785406479e-03 1.9891111990e+00 -3.4452416585e+00 1.9891111990e+00 3.4452416585e+00 
73100 3.9002595855e+00 1.4674894603e-03 1.9890740332e+00 -3.4451772856e+00 1.9890740332e+00 3.4451772856e+00 
73200 3.9002595283e+00 1.4565214261e-03 1.9890371446e+00 -3.4451133926e+00 1.9890371446e+00 3.4451133926e+00 
73300 3.9002594720e+00 1.4456359117e-03 1.9890005310e+00 -3.4450499759e+00 1.9890005310e+00 3.4450499759e+00 
73400 3.9002594165e+00 1.4348322883e-03 1.9889641903e+00 -3.4449870321e+00 1.9889641903e+00 3.4449870321e+00 
73500 3.9002593618e+00 1.4241099321e-03 1.9889281206e+00 -3.4449245575e+00 1.9889281206e+00 3.4449245575e+00 
73600 3.9002593079e+00 1.4134682241e-03 1.9888923197e+00 -3.4448625486e+00 1.9888923197e+00 3.4448625486e+00 
73700 3.9002592549e+00 1.4029065502e-03 1.9888567858e+00 -3.4448010020e+00 1.9888567858e+00 3.4448010020e+00 
73800 3.9002592026e+00 1.3924243010e-03 1.9888215167e+00 -3.4447399142e+00 1.9888215167e+00 3.4447399142e+00 
73900 3.9002591511e+00 1.3820208719e-03 1.9887865106e+00 -3.4446792817e+00 1.9887865106e+00 3.4446792817e+00 
74000 3.9002591004e+00 1.3716956630e-03 1.9887517653e+00 -3.4446191012e+00 1.9887517653e+00 3.4446191012e+00 
74100 3.9002590504e+00 1.3614480791e-03 1.9887172791e+00 -3.4445593693e+00 1.9887172791e+00 3.4445593693e+00 
74200 3.9002590012e+00 1.3512775295e-03 1.9886830499e+00 -3.4445000826e+00 1.9886830499e+00 3.4445000826e+00 
74300 3.9002589527e+00 1.3411834282e-03 1.9886490758e+00 -3.4444412377e+00 1.9886490758e+00 3.4444412377e+00 
74400 3.9002589049e+00 1.3311651938e-03 1.9886153549e+00 -3.4443828315e+00 1.9886153549e+00 3.4443828315e+00 
74500 3.9002588578e+00 1.3212222494e-03 1.9885818854e+00 -3.4443248605e+00 1.9885818854e+00 3.4443248605e+00 
74600 3.9002588115e+00 1.3113540224e-03 1.9885486653e+00 -3.4442673216e+00 1.9885486653e+00 3.4442673216e+00 
74700 3.9002587658e+00 1.3015599449e-03 1.9885156927e+00 -3.4442102114e+00 1.9885156927e+00 3.4442102114e+00 
74800 3.9002587208e+00 1.2918394532e-03 1.9884829659e+00 -3.4441535269e+00 1.9884829659e+00 3.4441535269e+00 
74900 3.9002586765e+00 1.2821919882e-03 1.9884504829e+00 -3.4440972648e+00 1.9884504829e+00 3.4440972648e+00 
75000 3.9002586328e+00 1.2726169949e-03 1.9884182420e+00 -3.4440414219e+00 1.9884182420e+00 3.4440414219e+00 
75100 3.9002585898e+00 1.2631139228e-03 1.9883862414e+00 -3.4439859951e+00 1.9883862414e+00 3.4439859951e+00 
75200 3.9002585474e+00 1.2536822256e-03 1.9883544792e+00 -3.4439309814e+00 1.9883544792e+00 3.4439309814e+00 
75300 3.9002585056e+00 1.2443213612e-03 1.9883229536e+00 -3.4438763776e+00 1.9883229536e+00 3.4438763776e+00 
75400 3.9002584645e+00 1.2350307918e-03 1.9882916630e+00 -3.4438221806e+00 1.9882916630e+00 3.4438221806e+00 
75500 3.9002584240e+00 1.2258099835e-03 1.9882606055e+00 -3.4437683874e+00 1.9882606055e+00 3.4437683874e+00 
75600 3.9002583841e+00 1.2166584069e-03 1.9882297794e+00 -3.4437149950e+00 1.9882297794e+00 3.4437149950e+00 
75700 3.9002583448e+00 1.2075755366e-03 1.9881991829e+00 -3.4436620004e+00 1.9881991829e+00 3.4436620004e+00 
75800 3.9002583060e+00 1.1985608510e-03 1.9881688144e+00 -3.4436094006e+00 1.9881688144e+00 3.4436094006e+00 
75900 3.9002582679e+00 1.1896138329e-03 1.9881386722e+00 -3.4435571927e+00 1.9881386722e+00 3.4435571927e+00 
76000 3.9002582303e+00 1.1807339689e-03 1.9881087545e+00 -3.4435053737e+00 1.9881087545e+00 3.4435053737e+00 
76100 3.9002581933e+00 1.1719207496e-03 1.9880790596e+00 -3.4434539408e+00 1.9880790596e+00 3.4434539408e+00 
76200 3.9002581568e+00 1.1631736696e-03 1.9880495860e+00 -3.4434028910e+00 1.9880495860e+00 3.4434028910e+00 
76300 3.9002581208e+00 1.1544922274e-03 1.9880203320e+00 -3.4433522214e+00 1.9880203320e+00 3.4433522214e+00 
76400 3.9002580854e+00 1.1458759252e-03 1.9879912958e+00 -3.4433019293e+00 1.9879912958e+00 3.4433019293e+00 
76500 3.9002580506e+00 1.1373242693e-03 1.9879624759e+00 -3.4432520118e+00 1.9879624759e+00 3.4432520118e+00 
76600 3.9002580162e+00 1.1288367697e-03 1.9879338707e+00 -3.4432024662e+00 1.9879338707e+00 3.4432024662e+00 
76700 3.9002579824e+00 1.1204129402e-03 1.9879054786e+00 -3.4431532895e+00 1.9879054786e+00 3.4431532895e+00 
76800 3.9002579490e+00 1.1120522984e-03 1.9878772979e+00 -3.4431044792e+00 1.9878772979e+00 3.4431044792e+00 
76900 3.9002579162e+00 1.1037543654e-03 1.9878493271e+00 -3.4430560324e+00 1.9878493271e+00 3.4430560324e+00 
77000 3.9002578838e+00 1.0955186663e-03 1.9878215647e+00 -3.4430079464e+00 1.9878215647e+00 3.4430079464e+00 
77100 3.9002578519e+00 1.0873447297e-03 1.9877940090e+00 -3.4429602185e+00 1.9877940090e+00 3.4429602185e+00 
77200 3.9002578205e+00 1.0792320879e-03 1.9877666585e+00 -3.4429128461e+00 1.9877666585e+00 3.4429128461e+00 
77300 3.9002577896e+00 1.0711802767e-03 1.9877395117e+00 -3.4428658265e+00 1.9877395117e+00 3.4428658265e+00 
77400 3.9002577591e+00 1.0631888356e-03 1.9877125671e+00 -3.4428191570e+00 1.9877125671e+00 3.4428191570e+00 
77500 3.9002577291e+00 1.0552573077e-03 1.9876858231e+00 -3.4427728351e+00 1.9876858231e+00 3.4427728351e+00 
77600 3.9002576995e+00 1.0473852394e-03 1.9876592783e+00 -3.4427268581e+00 1.9876592783e+00 3.4427268581e+00 
77700 3.9002576704e+00 1.0395721807e-03 1.9876329311e+00 -3.4426812235e+00 1.9876329311e+00 3.4426812235e+00 
77800 3.9002576417e+00 1.0318176852e-03 1.9876067802e+00 -3.4426359288e+00 1.9876067802e+00 3.4426359288e+00 
77900 3.9002576134e+00 1.0241213098e-03 1.9875808240e+00 -3.4425909713e+00 1.9875808240e+00 3.4425909713e+00 
78000 3.9002575856e+00 1.0164826147e-03 1.9875550610e+00 -3.4425463485e+00 1.9875550610e+00 3.4425463485e+00 
78100 3.9002575581e+00 1.0089011639e-03 1.9875294899e+00 -3.4425020580e+00 1.9875294899e+00 3.4425020580e+00 
78200 3.9002575311e+00 1.0013765242e-03 1.9875041092e+00 -3.4424580973e+00 1.9875041092e+00 3.4424580973e+00 
78300 3.9002575045e+00 9.9390826621e-04 1.9874789174e+00 -3.4424144639e+00 1.9874789174e+00 3.4424144639e+00 
78400 3.9002574783e+00 9.8649596353e-04 1.9874539132e+00 -3.4423711554e+00 1.9874539132e+00 3.4423711554e+00 
78500 3.9002574524e+00 9.7913919320e-04 1.9874290952e+00 -3.4423281693e+00 1.9874290952e+00 3.4423281693e+00 
78600 3.9002574270e+00 9.7183753545e-04 1.9874044619e+00 -3.4422855032e+00 1.9874044619e+00 3.4422855032e+00 
78700 3.9002574019e+00 9.6459057376e-04 1.9873800120e+00 -3.4422431548e+00 1.9873800120e+00 3.4422431548e+00 
78800 3.9002573772e+00 9.5739789480e-04 1.9873557442e+00 -3.4422011217e+00 1.9873557442e+00 3.4422011217e+00 
78900 3.9002573528e+00 9.5025908842e-04 1.9873316570e+00 -3.4421594014e+00 1.9873316570e+00 3.4421594014e+00 
79000 3.9002573289e+00 9.4317374762e-04 1.9873077491e+00 -3.4421179918e+00 1.9873077491e+00 3.4421179918e+00 
79100 3.9002573053e+00 9.3614146852e-04 1.9872840193e+00 -3.4420768904e+00 1.9872840193e+00 3.4420768904e+00 
79200 3.9002572820e+00 9.2916185035e-04 1.9872604660e+00 -3.4420360950e+00 1.9872604660e+00 3.4420360950e+00 
79300 3.9002572591e+00 9.2223449540e-04 1.9872370881e+00 -3.4419956033e+00 1.9872370881e+00 3.4419956033e+00 
79400 3.9002572365e+00 9.1535900904e-04 1.9872138842e+00 -3.4419554130e+00 1.9872138842e+00 3.4419554130e+00 
79500 3.9002572142e+00 9.0853499963e-04 1.9871908530e+00 -3.4419155218e+00 1.9871908530e+00 3.4419155218e+00 
79600 3.9002571923e+00 9.0176207858e-04 1.9871679933e+00 -3.4418759276e+00 1.9871679933e+00 3.4418759276e+00 
79700 3.9002571708e+00 8.9503986024e-04 1.9871453037e+00 -3.4418366281e+00 1.9871453037e+00 3.4418366281e+00 
79800 3.9002571495e+00 8.8836796192e-04 1.9871227830e+00 -3.4417976211e+00 1.9871227830e+00 3.4417976211e+00 
79900 3.9002571285e+00 8.8174600390e-04 1.9871004299e+00 -3.4417589044e+00 1.9871004299e+00 3.4417589044e+00 
80000 3.9002571079e+00 8.7517360933e-04 1.9870782432e+00 -3.4417204759e+00 1.9870782432e+00 3.4417204759e+00 
80100 3.9002570876e+00 8.6865040427e-04 1.9870562216e+00 -3.4416823334e+00 1.9870562216e+00 3.4416823334e+00 
80200 3.9002570676e+00 8.6217601763e-04 1.9870343640e+00 -3.4416444748e+00 1.9870343640e+00 3.4416444748e+00 
80300 3.9002570478e+00 8.5575008117e-04 1.9870126690e+00 -3.4416068979e+00 1.9870126690e+00 3.4416068979e+00 
80400 3.9002570284e+00 8.4937222947e-04 1.9869911354e+00 -3.4415696007e+00 1.9869911354e+00 3.4415696007e+00 
80500 3.9002570092e+00 8.4304209991e-04 1.9869697621e+00 -3.4415325811e+00 1.9869697621e+00 3.4415325811e+00 
80600 3.9002569904e+00 8.3675933264e-04 1.9869485479e+00 -3.4414958370e+00 1.9869485479e+00 3.4414958370e+00 
80700 3.9002569718e+00 8.3052357057e-04 1.9869274915e+00 -3.4414593663e+00 1.9869274915e+00 3.4414593663e+00 
80800 3.9002569535e+00 8.2433445932e-04 1.9869065919e+00 -3.4414231670e+00 1.9869065919e+00 3.4414231670e+00 
80900 3.9002569355e+00 8.1819164726e-04 1.9868858478e+00 -3.4413872372e+00 1.9868858478e+00 3.4413872372e+00 
81000 3.9002569177e+00 8.1209478541e-04 1.9868652580e+00 -3.4413515746e+00 1.9868652580e+00 3.4413515746e+00 
81100 3.9002569002e+00 8.0604352748e-04 1.9868448214e+00 -3.4413161775e+00 1.9868448214e+00 3.4413161775e+00 
81200 3.9002568830e+00 8.0003752983e-04 1.9868245370e+00 -3.4412810437e+00 1.9868245370e+00 3.4412810437e+00 
81300 3.9002568660e+00 7.9407645142e-04 1.9868044034e+00 -3.4412461714e+00 1.9868044034e+00 3.4412461714e+00 
81400 3.9002568493e+00 7.8815995386e-04 1.9867844197e+00 -3.4412115586e+00 1.9867844197e+00 3.4412115586e+00 
81500 3.9002568328e+00 7.8228770130e-04 1.9867645847e+00 -3.4411772033e+00 1.9867645847e+00 3.4411772033e+00 
81600 3.9002568166e+00 7.7645936049e-04 1.9867448972e+00 -3.4411431037e+00 1.9867448972e+00 3.4411431037e+00 
81700 3.9002568006e+00 7.7067460069e-04 1.9867253563e+00 -3.4411092577e+00 1.9867253563e+00 3.4411092577e+00 
81800 3.9002567848e+00 7.6493309373e-04 1.9867059607e+00 -3.4410756636e+00 1.9867059607e+00 3.4410756636e+00 
81900 3.9002567693e+00 7.5923451390e-04 1.9866867094e+00 -3.4410423195e+00 1.9866867094e+00 3.4410423195e+00 
82000 3.9002567540e+00 7.5357853800e-04 1.9866676014e+00 -3.4410092234e+00 1.9866676014e+00 3.4410092234e+00 
82100 3.9002567390e+00 7.4796484531e-04 1.9866486355e+00 -3.4409763735e+00 1.9866486355e+00 3.4409763735e+00 
82200 3.9002567241e+00 7.4239311752e-04 1.9866298108e+00 -3.4409437681e+00 1.9866298108e+00 3.4409437681e+00 
82300 3.9002567095e+00 7.3686303877e-04 1.9866111261e+00 -3.4409114052e+00 1.9866111261e+00 3.4409114052e+00 
82400 3.9002566951e+00 7.3137429561e-04 1.9865925804e+00 -3.4408792831e+00 1.9865925804e+00 3.4408792831e+00 
82500 3.9002566809e+00 7.2592657698e-04 1.9865741726e+00 -3.4408474000e+00 1.9865741726e+00 3.4408474000e+00 
82600 3.9002566670e+00 7.2051957418e-04 1.9865559019e+00 -3.4408157541e+00 1.9865559019e+00 3.4408157541e+00 
82700 3.9002566532e+00 7.1515298087e-04 1.9865377670e+00 -3.4407843436e+00 1.9865377670e+00 3.4407843436e+00 
82800 3.9002566396e+00 7.0982649306e-04 1.9865197670e+00 -3.4407531667e+00 1.9865197670e+00 3.4407531667e+00 
82900 3.9002566263e+00 7.0453980904e-04 1.9865019010e+00 -3.4407222218e+00 1.9865019010e+00 3.4407222218e+00 
83000 3.9002566131e+00 6.9929262944e-04 1.9864841678e+00 -3.4406915071e+00 1.9864841678e+00 3.4406915071e+00 
83100 3.9002566002e+00 6.9408465713e-04 1.9864665666e+00 -3.4406610209e+00 1.9864665666e+00 3.4406610209e+00 
83200 3.9002565874e+00 6.8891559728e-04 1.9864490963e+00 -3.4406307614e+00 1.9864490963e+00 3.4406307614e+00 
83300 3.9002565748e+00 6.8378515727e-04 1.9864317559e+00 -3.4406007270e+00 1.9864317559e+00 3.4406007270e+00 
83400 3.9002565624e+00 6.7869304674e-04 1.9864145446e+00 -3.4405709161e+00 1.9864145446e+00 3.4405709161e+00 
83500 3.9002565502e+00 6.7363897752e-04 1.9863974612e+00 -3.4405413269e+00 1.9863974612e+00 3.4405413269e+00 
83600 3.9002565382e+00 6.6862266363e-04 1.9863805049e+00 -3.4405119577e+00 1.9863805049e+00 3.4405119577e+00 
83700 3.9002565264e+00 6.6364382128e-04 1.9863636748e+00 -3.4404828070e+00 1.9863636748e+00 3.4404828070e+00 
83800 3.9002565147e+00 6.5870216884e-04 1.9863469698e+00 -3.4404538732e+00 1.9863469698e+00 3.4404538732e+00 
83900 3.9002565032e+00 6.5379742680e-04 1.9863303891e+00 -3.4404251545e+00 1.9863303891e+00 3.4404251545e+00 
84000 3.9002564919e+00 6.4892931780e-04 1.9863139317e+00 -3.4403966495e+00 1.9863139317e+00 3.4403966495e+00 
84100 3.9002564807e+00 6.4409756657e-04 1.9862975967e+00 -3.4403683565e+00 1.9862975967e+00 3.4403683565e+00 
84200 3.9002564697e+00 6.3930189995e-04 1.9862813832e+00 -3.4403402739e+00 1.9862813832e+00 3.4403402739e+00 
84300 3.9002564589e+00 6.3454204684e-04 1.9862652903e+00 -3.4403124001e+00 1.9862652903e+00 3.4403124001e+00 
84400 3.9002564482e+00 6.2981773821e-04 1.9862493171e+00 -3.4402847337e+00 1.9862493171e+00 3.4402847337e+00 
84500 3.9002564377e+00 6.2512870707e-04 1.9862334626e+00 -3.4402572730e+00 1.9862334626e+00 3.4402572730e+00 
84600 3.9002564274e+00 6.2047468846e-04 1.9862177261e+00 -3.4402300166e+00 1.9862177261e+00 3.4402300166e+00 
84700 3.9002564172e+00 6.1585541944e-04 1.9862021067e+00 -3.4402029628e+00 1.9862021067e+00 3.4402029628e+00 
84800 3.9002564072e+00 6.1127063905e-04 1.9861866033e+00 -3.4401761103e+00 1.9861866033e+00 3.4401761103e+00 
84900 3.9002563973e+00 6.0672008833e-04 1.9861712153e+00 -3.4401494574e+00 1.9861712153e+00 3.4401494574e+00 
85000 3.9002563875e+00 6.0220351026e-04 1.9861559417e+00 -3.4401230028e+00 1.9861559417e+00 3.4401230028e+00 
85100 3.9002563779e+00 5.9772064981e-04 1.9861407817e+00 -3.4400967449e+00 1.9861407817e+00 3.4400967449e+00 
85200 3.9002563685e+00 5.9327125385e-04 1.9861257344e+00 -3.4400706823e+00 1.9861257344e+00 3.4400706823e+00 
85300 3.9002563592e+00 5.8885507118e-04 1.9861107991e+00 -3.4400448134e+00 1.9861107991e+00 3.4400448134e+00 
85400 3.9002563500e+00 5.8447185252e-04 1.9860959748e+00 -3.4400191370e+00 1.9860959748e+00 3.4400191370e+00 
85500 3.9002563409e+00 5.8012135047e-04 1.9860812607e+00 -3.4399936515e+00 1.9860812607e+00 3.4399936515e+00 
85600 3.9002563320e+00 5.7580331950e-04 1.9860666560e+00 -3.4399683555e+00 1.9860666560e+00 3.4399683555e+00 
85700 3.9002563233e+00 5.7151751595e-04 1.9860521600e+00 -3.4399432476e+00 1.9860521600e+00 3.4399432476e+00 
85800 3.9002563146e+00 5.6726369802e-04 1.9860377717e+00 -3.4399183264e+00 1.9860377717e+00 3.4399183264e+00 
85900 3.9002563061e+00 5.6304162572e-04 1.9860234904e+00 -3.4398935905e+00 1.9860234904e+00 3.4398935905e+00 
86000 3.9002562977e+00 5.5885106089e-04 1.9860093154e+00 -3.4398690385e+00 1.9860093154e+00 3.4398690385e+00 
86100 3.9002562895e+00 5.5469176717e-04 1.9859952457e+00 -3.4398446691e+00 1.9859952457e+00 3.4398446691e+00 
86200 3.9002562813e+00 5.5056351001e-04 1.9859812806e+00 -3.4398204809e+00 1.9859812806e+00 3.4398204809e+00 
86300 3.9002562733e+00 5.4646605661e-04 1.9859674194e+00 -3.4397964725e+00 1.9859674194e+00 3.4397964725e+00 
86400 3.9002562654e+00 5.4239917595e-04 1.9859536612e+00 -3.4397726427e+00 1.9859536612e+00 3.4397726427e+00 
86500 3.9002562576e+00 5.3836263875e-04 1.9859400053e+00 -3.4397489900e+00 1.9859400053e+00 3.4397489900e+00 
86600 3.9002562500e+00 5.3435621749e-04 1.9859264510e+00 -3.4397255132e+00 1.9859264510e+00 3.4397255132e+00 
86700 3.9002562424e+00 5.3037968633e-04 1.9859129974e+00 -3.4397022110e+00 1.9859129974e+00 3.4397022110e+00 
86800 3.9002562350e+00 5.2643282119e-04 1.9858996439e+00 -3.4396790820e+00 1.9858996439e+00 3.4396790820e+00 
86900 3.9002562277e+00 5.2251539965e-04 1.9858863897e+00 -3.4396561249e+00 1.9858863897e+00 3.4396561249e+00 
87000 3.9002562204e+00 5.1862720099e-04 1.9858732339e+00 -3.4396333386e+00 1.9858732339e+00 3.4396333386e+00 
87100 3.9002562133e+00 5.1476800614e-04 1.9858601761e+00 -3.4396107216e+00 1.9858601761e+00 3.4396107216e+00 
87200 3.9002562063e+00 5.1093759773e-04 1.9858472152e+00 -3.4395882729e+00 1.9858472152e+00 3.4395882729e+00 
87300 3.9002561994e+00 5.0713575999e-04 1.9858343508e+00 -3.4395659910e+00 1.9858343508e+00 3.4395659910e+00 
87400 3.9002561926e+00 5.0336227880e-04 1.9858215820e+00 -3.4395438747e+00 1.9858215820e+00 3.4395438747e+00 
87500 3.9002561859e+00 4.9961694166e-04 1.9858089081e+00 -3.4395219229e+00 1.9858089081e+00 3.4395219229e+00 
87600 3.9002561793e+00 4.9589953769e-04 1.9857963284e+00 -3.4395001343e+00 1.9857963284e+00 3.4395001343e+00 
87700 3.9002561728e+00 4.9220985759e-04 1.9857838422e+00 -3.4394785076e+00 1.9857838422e+00 3.4394785076e+00 
87800 3.9002561664e+00 4.8854769363e-04 1.9857714489e+00 -3.4394570417e+00 1.9857714489e+00 3.4394570417e+00 
87900 3.9002561601e+00 4.8491283967e-04 1.9857591477e+00 -3.4394357354e+00 1.9857591477e+00 3.4394357354e+00 
88000 3.9002561539e+00 4.8130509113e-04 1.9857469380e+00 -3.4394145875e+00 1.9857469380e+00 3.4394145875e+00 
88100 3.9002561478e+00 4.7772424496e-04 1.9857348190e+00 -3.4393935969e+00 1.9857348190e+00 3.4393935969e+00 
88200 3.9002561418e+00 4.7417009966e-04 1.9857227901e+00 -3.4393727622e+00 1.9857227901e+00 3.4393727622e+00 
88300 3.9002561359e+00 4.7064245525e-04 1.9857108506e+00 -3.4393520824e+00 1.9857108506e+00 3.4393520824e+00 
88400 3.9002561300e+00 4.6714111325e-04 1.9856989999e+00 -3.4393315564e+00 1.9856989999e+00 3.4393315564e+00 
88500 3.9002561242e+00 4.6366587669e-04 1.9856872373e+00 -3.4393111829e+00 1.9856872373e+00 3.4393111829e+00 
88600 3.9002561186e+00 4.6021655008e-04 1.9856755621e+00 -3.4392909609e+00 1.9856755621e+00 3.4392909609e+00 
88700 3.9002561130e+00 4.5679293941e-04 1.9856639737e+00 -3.4392708892e+00 1.9856639737e+00 3.4392708892e+00 
88800 3.9002561075e+00 4.5339485215e-04 1.9856524714e+00 -3.4392509667e+00 1.9856524714e+00 3.4392509667e+00 
88900 3.9002561021e+00 4.5002209719e-04 1.9856410547e+00 -3.4392311923e+00 1.9856410547e+00 3.4392311923e+00 
89000 3.9002560967e+00 4.4667448489e-04 1.9856297228e+00 -3.4392115649e+00 1.9856297228e+00 3.4392115649e+00 
89100 3.9002560914e+00 4.4335182703e-04 1.9856184751e+00 -3.4391920833e+00 1.9856184751e+00 3.4391920833e+00 
89200 3.9002560863e+00 4.4005393682e-04 1.9856073110e+00 -3.4391727466e+00 1.9856073110e+00 3.4391727466e+00 
89300 3.9002560812e+00 4.3678062887e-04 1.9855962300e+00 -3.4391535536e+00 1.9855962300e+00 3.4391535536e+00 
89400 3.9002560761e+00 4.3353171920e-04 1.9855852312e+00 -3.4391345033e+00 1.9855852312e+00 3.4391345033e+00 
89500 3.9002560712e+00 4.3030702520e-04 1.9855743143e+00 -3.4391155945e+00 1.9855743143e+00 3.4391155945e+00 
89600 3.9002560663e+00 4.2710636566e-04 1.9855634785e+00 -3.4390968263e+00 1.9855634785e+00 3.4390968263e+00 
89700 3.9002560615e+00 4.2392956071e-04 1.9855527232e+00 -3.4390781976e+00 1.9855527232e+00 3.4390781976e+00 
89800 3.9002560567e+00 4.2077643187e-04 1.9855420478e+00 -3.4390597074e+00 1.9855420478e+00 3.4390597074e+00 
89900 3.9002560521e+00 4.1764680197e-04 1.9855314518e+00 -3.4390413546e+00 1.9855314518e+00 3.4390413546e+00 
90000 3.9002560475e+00 4.1454049520e-04 1.9855209346e+00 -3.4390231382e+00 1.9855209346e+00 3.4390231382e+00 
90100 3.9002560429e+00 4.1145733708e-04 1.9855104955e+00 -3.4390050572e+00 1.9855104955e+00 3.4390050572e+00 
90200 3.9002560385e+00 4.0839715442e-04 1.9855001340e+00 -3.4389871106e+00 1.9855001340e+00 3.4389871106e+00 
90300 3.9002560341e+00 4.0535977536e-04 1.9854898495e+00 -3.4389692973e+00 1.9854898495e+00 3.4389692973e+00 
90400 3.9002560298e+00 4.0234502933e-04 1.9854796415e+00 -3.4389516165e+00 1.9854796415e+00 3.4389516165e+00 
90500 3.9002560255e+00 3.9935274702e-04 1.9854695093e+00 -3.4389340670e+00 1.9854695093e+00 3.4389340670e+00 
90600 3.9002560213e+00 3.9638276044e-04 1.9854594524e+00 -3.4389166480e+00 1.9854594524e+00 3.4389166480e+00 
90700 3.9002560172e+00 3.9343490283e-04 1.9854494703e+00 -3.4388993584e+00 1.9854494703e+00 3.4388993584e+00 
90800 3.9002560131e+00 3.9050900870e-04 1.9854395624e+00 -3.4388821974e+00 1.9854395624e+00 3.4388821974e+00 
90900 3.9002560091e+00 3.8760491380e-04 1.9854297280e+00 -3.4388651638e+00 1.9854297280e+00 3.4388651638e+00 
91000 3.9002560051e+00 3.8472245514e-04 1.9854199668e+00 -3.4388482569e+00 1.9854199668e+00 3.4388482569e+00 
91100 3.9002560012e+00 3.8186147093e-04 1.9854102781e+00 -3.4388314756e+00 1.9854102781e+00 3.4388314756e+00 
91200 3.9002559974e+00 3.7902180061e-04 1.9854006614e+00 -3.4388148190e+00 1.9854006614e+00 3.4388148190e+00 
91300 3.9002559936e+00 3.7620328483e-04 1.9853911162e+00 -3.4387982862e+00 1.9853911162e+00 3.4387982862e+00 
91400 3.9002559899e+00 3.7340576543e-04 1.9853816420e+00 -3.4387818763e+00 1.9853816420e+00 3.4387818763e+00 
91500 3.9002559862e+00 3.7062908545e-04 1.9853722381e+00 -3.4387655883e+00 1.9853722381e+00 3.4387655883e+00 
91600 3.9002559826e+00 3.6787308911e-04 1.9853629041e+00 -3.4387494214e+00 1.9853629041e+00 3.4387494214e+00 
91700 3.9002559790e+00 3.6513762181e-04 1.9853536395e+00 -3.4387333746e+00 1.9853536395e+00 3.4387333746e+00 
91800 3.9002559755e+00 3.6242253010e-04 1.9853444437e+00 -3.4387174470e+00 1.9853444437e+00 3.4387174470e+00 
91900 3.9002559721e+00 3.5972766169e-04 1.9853353163e+00 -3.4387016378e+00 1.9853353163e+00 3.4387016378e+00 
92000 3.9002559687e+00 3.5705286544e-04 1.9853262566e+00 -3.4386859461e+00 1.9853262566e+00 3.4386859461e+00 
92100 3.9002559653e+00 3.5439799134e-04 1.9853172644e+00 -3.4386703710e+00 1.9853172644e+00 3.4386703710e+00 
92200 3.9002559620e+00 3.5176289051e-04 1.9853083389e+00 -3.4386549116e+00 1.9853083389e+00 3.4386549116e+00 
92300 3.9002559588e+00 3.4914741519e-04 1.9852994797e+00 -3.4386395672e+00 1.9852994797e+00 3.4386395672e+00 
92400 3.9002559556e+00 3.4655141874e-04 1.9852906864e+00 -3.4386243367e+00 1.9852906864e+00 3.4386243367e+00 
92500 3.9002559524e+00 3.4397475562e-04 1.9852819585e+00 -3.4386092194e+00 1.9852819585e+00 3.4386092194e+00 
92600 3.9002559493e+00 3.4141728137e-04 1.9852732953e+00 -3.4385942144e+00 1.9852732953e+00 3.4385942144e+00 
92700 3.9002559462e+00 3.3887885262e-04 1.9852646966e+00 -3.4385793210e+00 1.9852646966e+00 3.4385793210e+00 
92800 3.9002559432e+00 3.3635932711e-04 1.9852561618e+00 -3.4385645382e+00 1.9852561618e+00 3.4385645382e+00 
92900 3.9002559402e+00 3.3385856361e-04 1.9852476903e+00 -3.4385498653e+00 1.9852476903e+00 3.4385498653e+00 
93000 3.9002559373e+00 3.3137642196e-04 1.9852392818e+00 -3.4385353013e+00 1.9852392818e+00 3.4385353013e+00 
93100 3.9002559344e+00 3.2891276306e-04 1.9852309358e+00 -3.4385208456e+00 1.9852309358e+00 3.4385208456e+00 
93200 3.9002559316e+00 3.2646744887e-04 1.9852226519e+00 -3.4385064974e+00 1.9852226519e+00 3.4385064974e+00 
93300 3.9002559288e+00 3.2404034236e-04 1.9852144294e+00 -3.4384922557e+00 1.9852144294e+00 3.4384922557e+00 
93400 3.9002559260e+00 3.2163130754e-04 1.9852062681e+00 -3.4384781198e+00 1.9852062681e+00 3.4384781198e+00 
93500 3.9002559233e+00 3.1924020946e-04 1.9851981674e+00 -3.4384640890e+00 1.9851981674e+00 3.4384640890e+00 
93600 3.9002559206e+00 3.1686691415e-04 1.9851901269e+00 -3.4384501624e+00 1.9851901269e+00 3.4384501624e+00 
93700 3.9002559180e+00 3.1451128867e-04 1.9851821461e+00 -3.4384363394e+00 1.9851821461e+00 3.4384363394e+00 
93800 3.9002559154e+00 3.1217320107e-04 1.9851742247e+00 -3.4384226190e+00 1.9851742247e+00 3.4384226190e+00 
93900 3.9002559128e+00 3.0985252040e-04 1.9851663620e+00 -3.4384090005e+00 1.9851663620e+00 3.4384090005e+00 
94000 3.9002559103e+00 3.0754911669e-04 1.9851585579e+00 -3.4383954833e+00 1.9851585579e+00 3.4383954833e+00 
94100 3.9002559079e+00 3.0526286093e-04 1.9851508116e+00 -3.4383820665e+00 1.9851508116e+00 3.4383820665e+00 
94200 3.9002559054e+00 3.0299362511e-04 1.9851431230e+00 -3.4383687493e+00 1.9851431230e+00 3.4383687493e+00 
94300 3.9002559030e+00 3.0074128215e-04 1.9851354915e+00 -3.4383555311e+00 1.9851354915e+00 3.4383555311e+00 
94400 3.9002559006e+00 2.9850570593e-04 1.9851279166e+00 -3.4383424112e+00 1.9851279166e+00 3.4383424112e+00 
94500 3.9002558983e+00 2.9628677131e-04 1.9851203981e+00 -3.4383293886e+00 1.9851203981e+00 3.4383293886e+00 
94600 3.9002558960e+00 2.9408435405e-04 1.9851129354e+00 -3.4383164629e+00 1.9851129354e+00 3.4383164629e+00 
94700 3.9002558937e+00 2.9189833085e-04 1.9851055282e+00 -3.4383036332e+00 1.9851055282e+00 3.4383036332e+00 
94800 3.9002558915e+00 2.8972857935e-04 1.9850981760e+00 -3.4382908988e+00 1.9850981760e+00 3.4382908988e+00 
94900 3.9002558893e+00 2.8757497809e-04 1.9850908784e+00 -3.4382782590e+00 1.9850908784e+00 3.4382782590e+00 
95000 3.9002558871e+00 2.8543740655e-04 1.9850836350e+00 -3.4382657131e+00 1.9850836350e+00 3.4382657131e+00 
95100 3.9002558850e+00 2.8331574508e-04 1.9850764455e+00 -3.4382532605e+00 1.9850764455e+00 3.4382532605e+00 
95200 3.9002558829e+00 2.8120987496e-04 1.9850693093e+00 -3.4382409003e+00 1.9850693093e+00 3.4382409003e+00 
95300 3.9002558808e+00 2.7911967832e-04 1.9850622262e+00 -3.4382286320e+00 1.9850622262e+00 3.4382286320e+00 
95400 3.9002558788e+00 2.7704503822e-04 1.9850551957e+00 -3.4382164548e+00 1.9850551957e+00 3.4382164548e+00 
95500 3.9002558768e+00 2.7498583856e-04 1.9850482174e+00 -3.4382043681e+00 1.9850482174e+00 3.4382043681e+00 
95600 3.9002558748e+00 2.7294196414e-04 1.9850412910e+00 -3.4381923712e+00 1.9850412910e+00 3.4381923712e+00 
95700 3.9002558728e+00 2.7091330061e-04 1.9850344161e+00 -3.4381804634e+00 1.9850344161e+00 3.4381804634e+00 
95800 3.9002558709e+00 2.6889973446e-04 1.9850275922e+00 -3.4381686441e+00 1.9850275922e+00 3.4381686441e+00 
95900 3.9002558690e+00 2.6690115307e-04 1.9850208190e+00 -3.4381569125e+00 1.9850208190e+00 3.4381569125e+00 
96000 3.9002558672e+00 2.6491744464e-04 1.9850140961e+00 -3.4381452682e+00 1.9850140961e+00 3.4381452682e+00 
96100 3.9002558653e+00 2.6294849821e-04 1.9850074232e+00 -3.4381337103e+00 1.9850074232e+00 3.4381337103e+00 
96200 3.9002558635e+00 2.6099420365e-04 1.9850007998e+00 -3.4381222383e+00 1.9850007998e+00 3.4381222383e+00 
96300 3.9002558617e+00 2.5905445166e-04 1.9849942256e+00 -3.4381108515e+00 1.9849942256e+00 3.4381108515e+00 
96400 3.9002558600e+00 2.5712913376e-04 1.9849877003e+00 -3.4380995494e+00 1.9849877003e+00 3.4380995494e+00 
96500 3.9002558583e+00 2.5521814229e-04 1.9849812235e+00 -3.4380883311e+00 1.9849812235e+00 3.4380883311e+00 
96600 3.9002558566e+00 2.5332137038e-04 1.9849747948e+00 -3.4380771963e+00 1.9849747948e+00 3.4380771963e+00 
96700 3.9002558549e+00 2.5143871198e-04 1.9849684138e+00 -3.4380661441e+00 1.9849684138e+00 3.4380661441e+00 
96800 3.9002558532e+00 2.4957006181e-04 1.9849620802e+00 -3.4380551740e+00 1.9849620802e+00 3.4380551740e+00 
96900 3.9002558516e+00 2.4771531541e-04 1.9849557937e+00 -3.4380442855e+00 1.9849557937e+00 3.4380442855e+00 
97000 3.9002558500e+00 2.4587436907e-04 1.9849495539e+00 -3.4380334778e+00 1.9849495539e+00 3.4380334778e+00 
97100 3.9002558484e+00 2.4404711989e-04 1.9849433604e+00 -3.4380227504e+00 1.9849433604e+00 3.4380227504e+00 
97200 3.9002558469e+00 2.4223346571e-04 1.9849372130e+00 -3.4380121027e+00 1.9849372130e+00 3.4380121027e+00 
97300 3.9002558453e+00 2.4043330516e-04 1.9849311112e+00 -3.4380015341e+00 1.9849311112e+00 3.4380015341e+00 
97400 3.9002558438e+00 2.3864653762e-04 1.9849250547e+00 -3.4379910440e+00 1.9849250547e+00 3.4379910440e+00 
97500 3.9002558423e+00 2.3687306321e-04 1.9849190433e+00 -3.4379806318e+00 1.9849190433e+00 3.4379806318e+00 
97600 3.9002558409e+00 2.3511278283e-04 1.9849130764e+00 -3.4379702970e+00 1.9849130764e+00 3.4379702970e+00 
97700 3.9002558394e+00 2.3336559809e-04 1.9849071539e+00 -3.4379600389e+00 1.9849071539e+00 3.4379600389e+00 
97800 3.9002558380e+00 2.3163141135e-04 1.9849012754e+00 -3.4379498571e+00 1.9849012754e+00 3.4379498571e+00 
97900 3.9002558366e+00 2.2991012570e-04 1.9848954406e+00 -3.4379397509e+00 1.9848954406e+00 3.4379397509e+00 
98000 3.9002558352e+00 2.2820164497e-04 1.9848896491e+00 -3.4379297197e+00 1.9848896491e+00 3.4379297197e+00 
98100 3.9002558339e+00 2.2650587368e-04 1.9848839007e+00 -3.4379197631e+00 1.9848839007e+00 3.4379197631e+00 
98200 3.9002558325e+00 2.2482271710e-04 1.9848781949e+00 -3.4379098804e+00 1.9848781949e+00 3.4379098804e+00 
98300 3.9002558312e+00 2.2315208117e-04 1.9848725315e+00 -3.4379000711e+00 1.9848725315e+00 3.4379000711e+00 
98400 3.9002558299e+00 2.2149387258e-04 1.9848669102e+00 -3.4378903347e+00 1.9848669102e+00 3.4378903347e+00 
98500 3.9002558287e+00 2.1984799867e-04 1.9848613306e+00 -3.4378806706e+00 1.9848613306e+00 3.4378806706e+00 
98600 3.9002558274e+00 2.1821436751e-04 1.9848557925e+00 -3.4378710783e+00 1.9848557925e+00 3.4378710783e+00 
98700 3.9002558262e+00 2.1659288784e-04 1.9848502955e+00 -3.4378615573e+00 1.9848502955e+00 3.4378615573e+00 
98800 3.9002558249e+00 2.1498346910e-04 1.9848448394e+00 -3.4378521069e+00 1.9848448394e+00 3.4378521069e+00 
98900 3.9002558237e+00 2.1338602138e-04 1.9848394238e+00 -3.4378427268e+00 1.9848394238e+00 3.4378427268e+00 
99000 3.9002558225e+00 2.1180045546e-04 1.9848340484e+00 -3.4378334163e+00 1.9848340484e+00 3.4378334163e+00 
99100 3.9002558214e+00 2.1022668281e-04 1.9848287129e+00 -3.4378241750e+00 1.9848287129e+00 3.4378241750e+00 
99200 3.9002558202e+00 2.0866461551e-04 1.9848234171e+00 -3.4378150024e+00 1.9848234171e+00 3.4378150024e+00 
99300 3.9002558191e+00 2.0711416634e-04 1.9848181606e+00 -3.4378058979e+00 1.9848181606e+00 3.4378058979e+00 
99400 3.9002558180e+00 2.0557524872e-04 1.9848129431e+00 -3.4377968610e+00 1.9848129431e+00 3.4377968610e+00 
99500 3.9002558169e+00 2.0404777672e-04 1.9848077644e+00 -3.4377878912e+00 1.9848077644e+00 3.4377878912e+00 
99600 3.9002558158e+00 2.0253166504e-04 1.9848026242e+00 -3.4377789880e+00 1.9848026242e+00 3.4377789880e+00 
99700 3.9002558147e+00 2.0102682903e-04 1.9847975221e+00 -3.4377701510e+00 1.9847975221e+00 3.4377701510e+00 
99800 3.9002558137e+00 1.9953318468e-04 1.9847924579e+00 -3.4377613796e+00 1.9847924579e+00 3.4377613796e+00 
99900 3.9002558126e+00 1.9805064859e-04 1.9847874314e+00 -3.4377526734e+00 1.9847874314e+00 3.4377526734e+00 
100000 3.9002558116e+00 1.9657913800e-04 1.9847824422e+00 -3.4377440318e+00 1.9847824422e+00 3.4377440318e+00 
100100 3.9002558106e+00 1.9511857076e-04 1.9847774900e+00 -3.4377354544e+00 1.9847774900e+00 3.4377354544e+00 
100200 3.9002558096e+00 1.9366886534e-04 1.9847725746e+00 -3.4377269407e+00 1.9847725746e+00 3.4377269407e+00 
100300 3.9002558087e+00 1.9222994080e-04 1.9847676958e+00 -3.4377184903e+00 1.9847676958e+00 3.4377184903e+00 
100400 3.9002558077e+00 1.9080171684e-04 1.9847628531e+00 -3.4377101026e+00 1.9847628531e+00 3.4377101026e+00 
100500 3.9002558068e+00 1.8938411374e-04 1.9847580465e+00 -3.4377017772e+00 1.9847580465e+00 3.4377017772e+00 
100600 3.9002558058e+00 1.8797705237e-04 1.9847532755e+00 -3.4376935137e+00 1.9847532755e+00 3.4376935137e+00 
100700 3.9002558049e+00 1.8658045420e-04 1.9847485400e+00 -3.4376853115e+00 1.9847485400e+00 3.4376853115e+00 
100800 3.9002558040e+00 1.8519424129e-04 1.9847438396e+00 -3.4376771703e+00 1.9847438396e+00 3.4376771703e+00 
100900 3.9002558031e+00 1.8381833628e-04 1.9847391742e+00 -3.4376690895e+00 1.9847391742e+00 3.4376690895e+00 
101000 3.9002558022e+00 1.8245266239e-04 1.9847345434e+00 -3.4376610687e+00 1.9847345434e+00 3.4376610687e+00 
101100 3.9002558014e+00 1.8109714340e-04 1.9847299470e+00 -3.4376531075e+00 1.9847299470e+00 3.4376531075e+00 
101200 3.9002558005e+00 1.7975170368e-04 1.9847253848e+00 -3.4376452055e+00 1.9847253848e+00 3.4376452055e+00 
101300 3.9002557997e+00 1.7841626816e-04 1.9847208564e+00 -3.4376373621e+00 1.9847208564e+00 3.4376373621e+00 
101400 3.9002557989e+00 1.7709076232e-04 1.9847163616e+00 -3.4376295770e+00 1.9847163616e+00 3.4376295770e+00 
101500 3.9002557980e+00 1.7577511220e-04 1.9847119003e+00 -3.4376218497e+00 1.9847119003e+00 3.4376218497e+00 
101600 3.9002557972e+00 1.7446924441e-04 1.9847074720e+00 -3.4376141798e+00 1.9847074720e+00 3.4376141798e+00 
101700 3.9002557965e+00 1.7317308609e-04 1.9847030767e+00 -3.4376065668e+00 1.9847030767e+00 3.4376065668e+00 
101800 3.9002557957e+00 1.7188656492e-04 1.9846987140e+00 -3.4375990104e+00 1.9846987140e+00 3.4375990104e+00 
101900 3.9002557949e+00 1.7060960914e-04 1.9846943837e+00 -3.4375915101e+00 1.9846943837e+00 3.4375915101e+00 
102000 3.9002557942e+00 1.6934214752e-04 1.9846900856e+00 -3.4375840655e+00 1.9846900856e+00 3.4375840655e+00 
102100 3.9002557934e+00 1.6808410935e-04 1.9846858194e+00 -3.4375766762e+00 1.9846858194e+00 3.4375766762e+00 
102200 3.9002557927e+00 1.6683542446e-04 1.9846815849e+00 -3.4375693418e+00 1.9846815849e+00 3.4375693418e+00 
102300 3.9002557920e+00 1.6559602319e-04 1.9846773818e+00 -3.4375620619e+00 1.9846773818e+00 3.4375620619e+00 
102400 3.9002557913e+00 1.6436583643e-04 1.9846732099e+00 -3.4375548360e+00 1.9846732099e+00 3.4375548360e+00 
102500 3.9002557906e+00 1.6314479556e-04 1.9846690690e+00 -3.4375476638e+00 1.9846690690e+00 3.4375476638e+00 
102600 3.9002557899e+00 1.6193283248e-04 1.9846649589e+00 -3.4375405449e+00 1.9846649589e+00 3.4375405449e+00 
102700 3.9002557892e+00 1.6072987959e-04 1.9846608793e+00 -3.4375334788e+00 1.9846608793e+00 3.4375334788e+00 
102800 3.9002557885e+00 1.5953586981e-04 1.9846568300e+00 -3.4375264652e+00 1.9846568300e+00 3.4375264652e+00 
102900 3.9002557879e+00 1.5835073656e-04 1.9846528108e+00 -3.4375195037e+00 1.9846528108e+00 3.4375195037e+00 
103000 3.9002557872e+00 1.5717441374e-04 1.9846488214e+00 -3.4375125939e+00 1.9846488214e+00 3.4375125939e+00 
103100 3.9002557866e+00 1.5600683577e-04 1.9846448617e+00 -3.4375057354e+00 1.9846448617e+00 3.4375057354e+00 
103200 3.9002557860e+00 1.5484793753e-04 1.9846409313e+00 -3.4374989278e+00 1.9846409313e+00 3.4374989278e+00 
103300 3.9002557853e+00 1.5369765441e-04 1.9846370302e+00 -3.4374921708e+00 1.9846370302e+00 3.4374921708e+00 
103400 3.9002557847e+00 1.5255592226e-04 1.9846331580e+00 -3.4374854640e+00 1.9846331580e+00 3.4374854640e+00 
103500 3.9002557841e+00 1.5142267745e-04 1.9846293145e+00 -3.4374788070e+00 1.9846293145e+00 3.4374788070e+00 
103600 3.9002557835e+00 1.5029785677e-04 1.9846254997e+00 -3.4374721994e+00 1.9846254997e+00 3.4374721994e+00 
103700 3.9002557830e+00 1.4918139752e-04 1.9846217131e+00 -3.4374656409e+00 1.9846217131e+00 3.4374656409e+00 
103800 3.9002557824e+00 1.4807323746e-04 1.9846179547e+00 -3.4374591311e+00 1.9846179547e+00 3.4374591311e+00 
103900 3.9002557818e+00 1.4697331481e-04 1.9846142242e+00 -3.4374526697e+00 1.9846142242e+00 3.4374526697e+00 
104000 3.9002557813e+00 1.4588156825e-04 1.9846105213e+00 -3.4374462562e+00 1.9846105213e+00 3.4374462562e+00 
104100 3.9002557807e+00 1.4479793692e-04 1.9846068460e+00 -3.4374398903e+00 1.9846068460e+00 3.4374398903e+00 
104200 3.9002557802e+00 1.4372236042e-04 1.9846031980e+00 -3.4374335718e+00 1.9846031980e+00 3.4374335718e+00 
104300 3.9002557796e+00 1.4265477880e-04 1.9845995771e+00 -3.4374273001e+00 1.9845995771e+00 3.4374273001e+00 
104400 3.9002557791e+00 1.4159513255e-04 1.9845959830e+00 -3.4374210751e+00 1.9845959830e+00 3.4374210751e+00 
104500 3.9002557786e+00 1.4054336260e-04 1.9845924157e+00 -3.4374148962e+00 1.9845924157e+00 3.4374148962e+00 
104600 3.9002557781e+00 1.3949941034e-04 1.9845888748e+00 -3.4374087633e+00 1.9845888748e+00 3.4374087633e+00 
104700 3.9002557776e+00 1.3846321757e-04 1.9845853602e+00 -3.4374026759e+00 1.9845853602e+00 3.4374026759e+00 
104800 3.9002557771e+00 1.3743472656e-04 1.9845818718e+00 -3.4373966337e+00 1.9845818718e+00 3.4373966337e+00 
104900 3.9002557766e+00 1.3642167540e-04 1.9845784092e+00 -3.4373906364e+00 1.9845784092e+00 3.4373906364e+00 
105000 3.9002557761e+00 1.3542524457e-04 1.9845749722e+00 -3.4373846832e+00 1.9845749722e+00 3.4373846832e+00 
105100 3.9002557757e+00 1.3443602312e-04 1.9845715602e+00 -3.4373787736e+00 1.9845715602e+00 3.4373787736e+00 
105200 3.9002557752e+00 1.3345220804e-04 1.9845681732e+00 -3.4373729071e+00 1.9845681732e+00 3.4373729071e+00 
105300 3.9002557748e+00 1.3247092721e-04 1.9845648109e+00 -3.4373670835e+00 1.9845648109e+00 3.4373670835e+00 
105400 3.9002557743e+00 1.3149706718e-04 1.9845614734e+00 -3.4373613027e+00 1.9845614734e+00 3.4373613027e+00 
105500 3.9002557739e+00 1.3052657437e-04 1.9845581604e+00 -3.4373555644e+00 1.9845581604e+00 3.4373555644e+00 
105600 3.9002557734e+00 1.2956362041e-04 1.9845548719e+00 -3.4373498685e+00 1.9845548719e+00 3.4373498685e+00 
105700 3.9002557730e+00 1.2860612173e-04 1.9845516076e+00 -3.4373442145e+00 1.9845516076e+00 3.4373442145e+00 
105800 3.9002557726e+00 1.2765408535e-04 1.9845483674e+00 -3.4373386024e+00 1.9845483674e+00 3.4373386024e+00 
105900 3.9002557722e+00 1.2670751735e-04 1.9845451512e+00 -3.4373330318e+00 1.9845451512e+00 3.4373330318e+00 
106000 3.9002557717e+00 1.2576642290e-04 1.9845419588e+00 -3.4373275024e+00 1.9845419588e+00 3.4373275024e+00 
106100 3.9002557713e+00 1.2483080633e-04 1.9845387902e+00 -3.4373220142e+00 1.9845387902e+00 3.4373220142e+00 
106200 3.9002557709e+00 1.2390067114e-04 1.9845356451e+00 -3.4373165667e+00 1.9845356451e+00 3.4373165667e+00 
106300 3.9002557706e+00 1.2297602009e-04 1.9845325234e+00 -3.4373111599e+00 1.9845325234e+00 3.4373111599e+00 
106400 3.9002557702e+00 1.2205447572e-04 1.9845294251e+00 -3.4373057934e+00 1.9845294251e+00 3.4373057934e+00 
106500 3.9002557698e+00 1.2114082946e-04 1.9845263499e+00 -3.4373004670e+00 1.9845263499e+00 3.4373004670e+00 
106600 3.9002557694e+00 1.2023266989e-04 1.9845232978e+00 -3.4372951806e+00 1.9845232978e+00 3.4372951806e+00 
106700 3.9002557690e+00 1.1933174653e-04 1.9845202685e+00 -3.4372899338e+00 1.9845202685e+00 3.4372899338e+00 
106800 3.9002557687e+00 1.1843445775e-04 1.9845172620e+00 -3.4372847262e+00 1.9845172620e+00 3.4372847262e+00 
106900 3.9002557683e+00 1.1754449905e-04 1.9845142780e+00 -3.4372795579e+00 1.9845142780e+00 3.4372795579e+00 
107000 3.9002557680e+00 1.1665558122e-04 1.9845113165e+00 -3.4372744283e+00 1.9845113165e+00 3.4372744283e+00 
107100 3.9002557676e+00 1.1577661153e-04 1.9845083773e+00 -3.4372693376e+00 1.9845083773e+00 3.4372693376e+00 
107200 3.9002557673e+00 1.1489856398e-04 1.9845054603e+00 -3.4372642852e+00 1.9845054603e+00 3.4372642852e+00 
107300 3.9002557669e+00 1.1403056615e-04 1.9845025654e+00 -3.4372592711e+00 1.9845025654e+00 3.4372592711e+00 
107400 3.9002557666e+00 1.1316797465e-04 1.9844996924e+00 -3.4372542948e+00 1.9844996924e+00 3.4372542948e+00 
107500 3.9002557663e+00 1.1230822542e-04 1.9844968411e+00 -3.4372493562e+00 1.9844968411e+00 3.4372493562e+00 
107600 3.9002557660e+00 1.1145647125e-04 1.9844940115e+00 -3.4372444552e+00 1.9844940115e+00 3.4372444552e+00 
107700 3.9002557656e+00 1.1061226364e-04 1.9844912033e+00 -3.4372395913e+00 1.9844912033e+00 3.4372395913e+00 
107800 3.9002557653e+00 1.0976859251e-04 1.9844884164e+00 -3.4372347642e+00 1.9844884164e+00 3.4372347642e+00 
107900 3.9002557650e+00 1.0893514930e-04 1.9844856507e+00 -3.4372299739e+00 1.9844856507e+00 3.4372299739e+00 
108000 3.9002557647e+00 1.0810215064e-04 1.9844829060e+00 -3.4372252200e+00 1.9844829060e+00 3.4372252200e+00 
108100 3.9002557644e+00 1.0727943963e-04 1.9844801823e+00 -3.4372205024e+00 1.9844801823e+00 3.4372205024e+00 
108200 3.9002557641e+00 1.0646200793e-04 1.9844774794e+00 -3.4372158208e+00 1.9844774794e+00 3.4372158208e+00 
108300 3.9002557638e+00 1.0564724000e-04 1.9844747970e+00 -3.4372111748e+00 1.9844747970e+00 3.4372111748e+00 
108400 3.9002557636e+00 1.0483777247e-04 1.9844721352e+00 -3.4372065643e+00 1.9844721352e+00 3.4372065643e+00 
108500 3.9002557633e+00 1.0403359676e-04 1.9844694937e+00 -3.4372019892e+00 1.9844694937e+00 3.4372019892e+00 
108600 3.9002557630e+00 1.0323470391e-04 1.9844668725e+00 -3.4371974492e+00 1.9844668725e+00 3.4371974492e+00 
108700 3.9002557627e+00 1.0244614462e-04 1.9844642715e+00 -3.4371929440e+00 1.9844642715e+00 3.4371929440e+00 
108800 3.9002557625e+00 1.0166272411e-04 1.9844616903e+00 -3.4371884732e+00 1.9844616903e+00 3.4371884732e+00 
108900 3.9002557622e+00 1.0088443262e-04 1.9844591288e+00 -3.4371840366e+00 1.9844591288e+00 3.4371840366e+00 
109000 3.9002557619e+00 1.0011126002e-04 1.9844565869e+00 -3.4371796340e+00 1.9844565869e+00 3.4371796340e+00 
109100 3.9002557617e+00 9.9340583637e-05 1.9844540645e+00 -3.4371752651e+00 1.9844540645e+00 3.4371752651e+00 
109200 3.9002557614e+00 9.8575045917e-05 1.9844515616e+00 -3.4371709298e+00 1.9844515616e+00 3.4371709298e+00 
109300 3.9002557612e+00 9.7814635419e-05 1.9844490779e+00 -3.4371666279e+00 1.9844490779e+00 3.4371666279e+00 
109400 3.9002557609e+00 9.7064554354e-05 1.9844466134e+00 -3.4371623592e+00 1.9844466134e+00 3.4371623592e+00 
109500 3.9002557607e+00 9.6314211425e-05 1.9844441677e+00 -3.4371581233e+00 1.9844441677e+00 3.4371581233e+00 
109600 3.9002557605e+00 9.5574206621e-05 1.9844417410e+00 -3.4371539201e+00 1.9844417410e+00 3.4371539201e+00 
109700 3.9002557602e+00 9.4839147416e-05 1.9844393329e+00 -3.4371497491e+00 1.9844393329e+00 3.4371497491e+00 
109800 3.9002557600e+00 9.4106429317e-05 1.9844369433e+00 -3.4371456103e+00 1.9844369433e+00 3.4371456103e+00 
109900 3.9002557598e+00 9.3378673357e-05 1.9844345722e+00 -3.4371415034e+00 1.9844345722e+00 3.4371415034e+00 
110000 3.9002557595e+00 9.2655866206e-05 1.9844322195e+00 -3.4371374283e+00 1.9844322195e+00 3.4371374283e+00 
110100 3.9002557593e+00 9.1937994266e-05 1.9844298849e+00 -3.4371333847e+00 1.9844298849e+00 3.4371333847e+00 
110200 3.9002557591e+00 9.1230364373e-05 1.9844275684e+00 -3.4371293724e+00 1.9844275684e+00 3.4371293724e+00 
110300 3.9002557589e+00 9.0522172767e-05 1.9844252697e+00 -3.4371253910e+00 1.9844252697e+00 3.4371253910e+00 
110400 3.9002557587e+00 8.9824213439e-05 1.9844229889e+00 -3.4371214405e+00 1.9844229889e+00 3.4371214405e+00 
110500 3.9002557585e+00 8.9128437929e-05 1.9844207257e+00 -3.4371175205e+00 1.9844207257e+00 3.4371175205e+00 
110600 3.9002557583e+00 8.8439984342e-05 1.9844184800e+00 -3.4371136308e+00 1.9844184800e+00 3.4371136308e+00 
110700 3.9002557581e+00 8.7753697373e-05 1.9844162516e+00 -3.4371097712e+00 1.9844162516e+00 3.4371097712e+00 
110800 3.9002557579e+00 8.7072150284e-05 1.9844140406e+00 -3.4371059415e+00 1.9844140406e+00 3.4371059415e+00 
110900 3.9002557577e+00 8.6395327858e-05 1.9844118467e+00 -3.4371021416e+00 1.9844118467e+00 3.4371021416e+00 
111000 3.9002557575e+00 8.5728592507e-05 1.9844096698e+00 -3.4370983711e+00 1.9844096698e+00 3.4370983711e+00 
111100 3.9002557573e+00 8.5066415239e-05 1.9844075098e+00 -3.4370946298e+00 1.9844075098e+00 3.4370946298e+00 
111200 3.9002557571e+00 8.4408781083e-05 1.9844053664e+00 -3.4370909174e+00 1.9844053664e+00 3.4370909174e+00 
111300 3.9002557569e+00 8.3755674881e-05 1.9844032396e+00 -3.4370872337e+00 1.9844032396e+00 3.4370872337e+00 
111400 3.9002557568e+00 8.3104577013e-05 1.9844011292e+00 -3.4370835784e+00 1.9844011292e+00 3.4370835784e+00 
111500 3.9002557566e+00 8.2458015715e-05 1.9843990353e+00 -3.4370799516e+00 1.9843990353e+00 3.4370799516e+00 
111600 3.9002557564e+00 8.1815974730e-05 1.9843969576e+00 -3.4370763530e+00 1.9843969576e+00 3.4370763530e+00 
111700 3.9002557562e+00 8.1178437645e-05 1.9843948962e+00 -3.4370727824e+00 1.9843948962e+00 3.4370727824e+00 
111800 3.9002557561e+00 8.0545387886e-05 1.9843928507e+00 -3.4370692396e+00 1.9843928507e+00 3.4370692396e+00 
111900 3.9002557559e+00 7.9922214433e-05 1.9843908213e+00 -3.4370657245e+00 1.9843908213e+00 3.4370657245e+00 
112000 3.9002557557e+00 7.9303359437e-05 1.9843888075e+00 -3.4370622365e+00 1.9843888075e+00 3.4370622365e+00 
112100 3.9002557556e+00 7.8688806847e-05 1.9843868093e+00 -3.4370587756e+00 1.9843868093e+00 3.4370587756e+00 
112200 3.9002557554e+00 7.8076090300e-05 1.9843848266e+00 -3.4370553415e+00 1.9843848266e+00 3.4370553415e+00 
112300 3.9002557553e+00 7.7467680767e-05 1.9843828594e+00 -3.4370519341e+00 1.9843828594e+00 3.4370519341e+00 
112400 3.9002557551e+00 7.6863561271e-05 1.9843809074e+00 -3.4370485532e+00 1.9843809074e+00 3.4370485532e+00 
112500 3.9002557550e+00 7.6263714714e-05 1.9843789707e+00 -3.4370451987e+00 1.9843789707e+00 3.4370451987e+00 
112600 3.9002557548e+00 7.5668123890e-05 1.9843770491e+00 -3.4370418704e+00 1.9843770491e+00 3.4370418704e+00 
112700 3.9002557547e+00 7.5082178115e-05 1.9843751425e+00 -3.4370385681e+00 1.9843751425e+00 3.4370385681e+00 
112800 3.9002557545e+00 7.4500322238e-05 1.9843732507e+00 -3.4370352913e+00 1.9843732507e+00 3.4370352913e+00 
112900 3.9002557544e+00 7.3922539649e-05 1.9843713735e+00 -3.4370320400e+00 1.9843713735e+00 3.4370320400e+00 
113000 3.9002557542e+00 7.3348813649e-05 1.9843695109e+00 -3.4370288138e+00 1.9843695109e+00 3.4370288138e+00 
113100 3.9002557541e+00 7.2776737136e-05 1.9843676627e+00 -3.4370256127e+00 1.9843676627e+00 3.4370256127e+00 
113200 3.9002557540e+00 7.2208718278e-05 1.9843658290e+00 -3.4370224366e+00 1.9843658290e+00 3.4370224366e+00 
113300 3.9002557538e+00 7.1644739611e-05 1.9843640095e+00 -3.4370192852e+00 1.9843640095e+00 3.4370192852e+00 
113400 3.9002557537e+00 7.1084783601e-05 1.9843622043e+00 -3.4370161585e+00 1.9843622043e+00 3.4370161585e+00 
113500 3.9002557536e+00 7.0534230669e-05 1.9843604132e+00 -3.4370130561e+00 1.9843604132e+00 3.4370130561e+00 
113500 3.9002557536e+00 7.0534230669e-05 1.9843604132e+00 -3.4370130561e+00 1.9843604132e+00 3.4370130561e+00 
