# step Hamiltonian StressXX CellTensor1 CellTensor2 CellTensor3 CellTensor4 
0 5.5274077737e+00 -5.1844250677e-02 1.5877160715e+00 -2.7500049039e+00 1.5877160715e+00 2.7500049039e+00 
100 5.5279583152e+00 -5.2708846557e-02 1.5877160715e+00 -2.7500049039e+00 1.5877160715e+00 2.7500049039e+00 
200 5.5283992374e+00 -5.1902259203e-02 1.5893762557e+00 -2.7528804272e+00 1.5893762557e+00 2.7528804272e+00 
300 5.5288383810e+00 -5.1182572823e-02 1.5910093220e+00 -2.7557089810e+00 1.5910093220e+00 2.7557089810e+00 
400 5.5292717664e+00 -5.0542692049e-02 1.5926180866e+00 -2.7584954430e+00 1.5926180866e+00 2.7584954430e+00 
500 5.5296957892e+00 -4.9975766980e-02 1.5942051298e+00 -2.7612442826e+00 1.5942051298e+00 2.7612442826e+00 
600 5.5301072190e+00 -4.9475194908e-02 1.5957728060e+00 -2.7639595774e+00 1.5957728060e+00 2.7639595774e+00 
700 5.5305031961e+00 -4.9034621367e-02 1.5973232522e+00 -2.7666450290e+00 1.5973232522e+00 2.7666450290e+00 
800 5.5308812251e+00 -4.8647940546e-02 1.5988583976e+00 -2.7693039787e+00 1.5988583976e+00 2.7693039787e+00 
900 5.5312391669e+00 -4.8309295135e-02 1.6003799722e+00 -2.7719394233e+00 1.6003799722e+00 2.7719394233e+00 
1000 5.5315752282e+00 -4.8013075635e-02 1.6018895163e+00 -2.7745540303e+00 1.6018895163e+00 2.7745540303e+00 
1100 5.5318879488e+00 -4.7753919183e-02 1.6033883885e+00 -2.7771501532e+00 1.6033883885e+00 2.7771501532e+00 
1200 5.5321761876e+00 -4.7526707940e-02 1.6048777751e+00 -2.7797298465e+00 1.6048777751e+00 2.7797298465e+00 
1300 5.5324391075e+00 -4.7326567080e-02 1.6063586982e+00 -2.7822948804e+00 1.6063586982e+00 2.7822948804e+00 
1400 5.5326761577e+00 -4.7148862413e-02 1.6078320240e+00 -2.7848467555e+00 1.6078320240e+00 2.7848467555e+00 
1500 5.5328870567e+00 -4.6989197687e-02 1.6092984714e+00 -2.7873867169e+00 1.6092984714e+00 2.7873867169e+00 
1600 5.5330717730e+00 -4.6843411588e-02 1.6107586199e+00 -2.7899157684e+00 1.6107586199e+00 2.7899157684e+00 
1700 5.5332305063e+00 -4.6707574485e-02 1.6122129177e+00 -2.7924346860e+00 1.6122129177e+00 2.7924346860e+00 
1800 5.5333636675e+00 -4.6577984922e-02 1.6136616892e+00 -2.7949440318e+00 1.6136616892e+00 2.7949440318e+00 
1900 5.5334718587e+00 -4.6451165902e-02 1.6151051429e+00 -2.7974441672e+00 1.6151051429e+00 2.7974441672e+00 
2000 5.5335558535e+00 -4.6323860977e-02 1.6165433791e+00 -2.7999352653e+00 1.6165433791e+00 2.7999352653e+00 
2100 5.5336165770e+00 -4.6193030158e-02 1.6179763966e+00 -2.8024173243e+00 1.6179763966e+00 2.8024173243e+00 
2200 5.5336550863e+00 -4.6055845670e-02 1.6194041003e+00 -2.8048901796e+00 1.6194041003e+00 2.8048901796e+00 
2300 5.5336725511e+00 -4.5909687558e-02 1.6208263080e+00 -2.8073535156e+00 1.6208263080e+00 2.8073535156e+00 
2400 5.5336702355e+00 -4.5752139168e-02 1.6222427573e+00 -2.8098068779e+00 1.6222427573e+00 2.8098068779e+00 
2500 5.5336494794e+00 -4.5580982511e-02 1.6236531123e+00 -2.8122496843e+00 1.6236531123e+00 2.8122496843e+00 
2600 5.5336116820e+00 -4.5394193512e-02 1.6250569695e+00 -2.8146812364e+00 1.6250569695e+00 2.8146812364e+00 
2700 5.5335582848e+00 -4.5189937167e-02 1.6264538649e+00 -2.8171007301e+00 1.6264538649e+00 2.8171007301e+00 
2800 5.5334907565e+00 -4.4966562613e-02 1.6278432792e+00 -2.8195072663e+00 1.6278432792e+00 2.8195072663e+00 
2900 5.5334105783e+00 -4.4722598109e-02 1.6292246442e+00 -2.8218998607e+00 1.6292246442e+00 2.8218998607e+00 
3000 5.5333192303e+00 -4.4456745948e-02 1.6305973485e+00 -2.8242774542e+00 1.6305973485e+00 2.8242774542e+00 
3100 5.5332181792e+00 -4.4167877303e-02 1.6319607425e+00 -2.8266389220e+00 1.6319607425e+00 2.8266389220e+00 
3200 5.5331088669e+00 -4.3855027003e-02 1.6333141445e+00 -2.8289830829e+00 1.6333141445e+00 2.8289830829e+00 
3300 5.5329927001e+00 -4.3517388259e-02 1.6346568448e+00 -2.8313087082e+00 1.6346568448e+00 2.8313087082e+00 
3400 5.5328710408e+00 -4.3154307339e-02 1.6359881117e+00 -2.8336145300e+00 1.6359881117e+00 2.8336145300e+00 
3500 5.5327451986e+00 -4.2765278190e-02 1.6373071953e+00 -2.8358992498e+00 1.6373071953e+00 2.8358992498e+00 
3600 5.5326164232e+00 -4.2349937025e-02 1.6386133325e+00 -2.8381615459e+00 1.6386133325e+00 2.8381615459e+00 
3700 5.5324858984e+00 -4.1908056870e-02 1.6399057515e+00 -2.8404000812e+00 1.6399057515e+00 2.8404000812e+00 
3800 5.5323547370e+00 -4.1439542074e-02 1.6411836754e+00 -2.8426135103e+00 1.6411836754e+00 2.8426135103e+00 
3900 5.5322239769e+00 -4.0944422800e-02 1.6424463266e+00 -2.8448004864e+00 1.6424463266e+00 2.8448004864e+00 
4000 5.5320945774e+00 -4.0422849481e-02 1.6436929304e+00 -2.8469596675e+00 1.6436929304e+00 2.8469596675e+00 
4100 5.5319674173e+00 -3.9875087265e-02 1.6449227187e+00 -2.8490897233e+00 1.6449227187e+00 2.8490897233e+00 
4200 5.5318432933e+00 -3.9301510438e-02 1.6461349331e+00 -2.8511893402e+00 1.6461349331e+00 2.8511893402e+00 
4300 5.5317229194e+00 -3.8702596844e-02 1.6473288285e+00 -2.8532572277e+00 1.6473288285e+00 2.8532572277e+00 
4400 5.5316069268e+00 -3.8078922290e-02 1.6485036757e+00 -2.8552921227e+00 1.6485036757e+00 2.8552921227e+00 
4500 5.5314958647e+00 -3.7431154959e-02 1.6496587646e+00 -2.8572927954e+00 1.6496587646e+00 2.8572927954e+00 
4600 5.5313902015e+00 -3.6760049820e-02 1.6507934066e+00 -2.8592580530e+00 1.6507934066e+00 2.8592580530e+00 
4700 5.5312903272e+00 -3.6066443054e-02 1.6519069371e+00 -2.8611867445e+00 1.6519069371e+00 2.8611867445e+00 
4800 5.5311965550e+00 -3.5351246491e-02 1.6529987182e+00 -2.8630777647e+00 1.6529987182e+00 2.8630777647e+00 
4900 5.5311091250e+00 -3.4615442068e-02 1.6540681399e+00 -2.8649300575e+00 1.6540681399e+00 2.8649300575e+00 
5000 5.5310282070e+00 -3.3860076315e-02 1.6551146231e+00 -2.8667426195e+00 1.6551146231e+00 2.8667426195e+00 
5100 5.5309539044e+00 -3.3086254878e-02 1.6561376206e+00 -2.8685145031e+00 1.6561376206e+00 2.8685145031e+00 
5200 5.5308862576e+00 -3.2295137072e-02 1.6571366190e+00 -2.8702448192e+00 1.6571366190e+00 2.8702448192e+00 
5300 5.5308252488e+00 -3.1487930490e-02 1.6581111404e+00 -2.8719327397e+00 1.6581111404e+00 2.8719327397e+00 
5400 5.5307708059e+00 -3.0665885664e-02 1.6590607430e+00 -2.8735774997e+00 1.6590607430e+00 2.8735774997e+00 
5500 5.5307228072e+00 -2.9830290781e-02 1.6599850229e+00 -2.8751783996e+00 1.6599850229e+00 2.8751783996e+00 
5600 5.5306810857e+00 -2.8982466473e-02 1.6608836148e+00 -2.8767348063e+00 1.6608836148e+00 2.8767348063e+00 
5700 5.5306454341e+00 -2.8123760680e-02 1.6617561926e+00 -2.8782461553e+00 1.6617561926e+00 2.8782461553e+00 
5800 5.5306156089e+00 -2.7255543599e-02 1.6626024703e+00 -2.8797119514e+00 1.6626024703e+00 2.8797119514e+00 
5900 5.5305913356e+00 -2.6379202723e-02 1.6634222027e+00 -2.8811317696e+00 1.6634222027e+00 2.8811317696e+00 
6000 5.5305723129e+00 -2.5496137975e-02 1.6642151853e+00 -2.8825052557e+00 1.6642151853e+00 2.8825052557e+00 
6100 5.5305582171e+00 -2.4607756962e-02 1.6649812549e+00 -2.8838321272e+00 1.6649812549e+00 2.8838321272e+00 
6200 5.5305487067e+00 -2.3715470332e-02 1.6657202896e+00 -2.8851121727e+00 1.6657202896e+00 2.8851121727e+00 
6300 5.5305434262e+00 -2.2820687258e-02 1.6664322086e+00 -2.8863452526e+00 1.6664322086e+00 2.8863452526e+00 
6400 5.5305420105e+00 -2.1924811058e-02 1.6671169724e+00 -2.8875312984e+00 1.6671169724e+00 2.8875312984e+00 
6500 5.5305440884e+00 -2.1029234953e-02 1.6677745823e+00 -2.8886703121e+00 1.6677745823e+00 2.8886703121e+00 
6600 5.5305492864e+00 -2.0135337964e-02 1.6684050799e+00 -2.8897623661e+00 1.6684050799e+00 2.8897623661e+00 
6700 5.5305572319e+00 -1.9244480978e-02 1.6690085470e+00 -2.8908076017e+00 1.6690085470e+00 2.8908076017e+00 
6800 5.5305675564e+00 -1.8358002963e-02 1.6695851045e+00 -2.8918062286e+00 1.6695851045e+00 2.8918062286e+00 
6900 5.5305798986e+00 -1.7477217355e-02 1.6701349121e+00 -2.8927585233e+00 1.6701349121e+00 2.8927585233e+00 
7000 5.5305939065e+00 -1.6603408623e-02 1.6706581671e+00 -2.8936648275e+00 1.6706581671e+00 2.8936648275e+00 
7100 5.5306092404e+00 -1.5737829013e-02 1.6711551040e+00 -2.8945255474e+00 1.6711551040e+00 2.8945255474e+00 
7200 5.5306255746e+00 -1.4881695474e-02 1.6716259929e+00 -2.8953411509e+00 1.6716259929e+00 2.8953411509e+00 
7300 5.5306425993e+00 -1.4036186778e-02 1.6720711390e+00 -2.8961121665e+00 1.6720711390e+00 2.8961121665e+00 
7400 5.5306600222e+00 -1.3202440839e-02 1.6724908811e+00 -2.8968391812e+00 1.6724908811e+00 2.8968391812e+00 
7500 5.5306775700e+00 -1.2381552220e-02 1.6728855906e+00 -2.8975228381e+00 1.6728855906e+00 2.8975228381e+00 
7600 5.5306949891e+00 -1.1574569855e-02 1.6732556699e+00 -2.8981638344e+00 1.6732556699e+00 2.8981638344e+00 
7700 5.5307120470e+00 -1.0782494964e-02 1.6736015516e+00 -2.8987629189e+00 1.6736015516e+00 2.8987629189e+00 
7800 5.5307285323e+00 -1.0006279182e-02 1.6739236964e+00 -2.8993208901e+00 1.6739236964e+00 2.8993208901e+00 
7900 5.5307442554e+00 -9.2468228858e-03 1.6742225922e+00 -2.8998385929e+00 1.6742225922e+00 2.8998385929e+00 
8000 5.5307590486e+00 -8.5049737390e-03 1.6744987525e+00 -2.9003169166e+00 1.6744987525e+00 2.9003169166e+00 
8100 5.5307727661e+00 -7.7815254319e-03 1.6747527148e+00 -2.9007567921e+00 1.6747527148e+00 2.9007567921e+00 
8200 5.5307852837e+00 -7.0772166343e-03 1.6749850388e+00 -2.9011591891e+00 1.6749850388e+00 2.9011591891e+00 
8300 5.5307964984e+00 -6.3927301480e-03 1.6751963053e+00 -2.9015251134e+00 1.6751963053e+00 2.9015251134e+00 
8400 5.5308063281e+00 -5.7286922604e-03 1.6753871143e+00 -2.9018556044e+00 1.6753871143e+00 2.9018556044e+00 
8500 5.5308147104e+00 -5.0856722950e-03 1.6755580835e+00 -2.9021517316e+00 1.6755580835e+00 2.9021517316e+00 
8600 5.5308216023e+00 -4.4641823550e-03 1.6757098463e+00 -2.9024145925e+00 1.6757098463e+00 2.9024145925e+00 
8700 5.5308269788e+00 -3.8646772550e-03 1.6758430508e+00 -2.9026453095e+00 1.6758430508e+00 2.9026453095e+00 
8800 5.5308308323e+00 -3.2875546356e-03 1.6759583576e+00 -2.9028450267e+00 1.6759583576e+00 2.9028450267e+00 
8900 5.5308331712e+00 -2.7331552550e-03 1.6760564384e+00 -2.9030149076e+00 1.6760564384e+00 2.9030149076e+00 
9000 5.5308340187e+00 -2.2017634518e-03 1.6761379743e+00 -2.9031561321e+00 1.6761379743e+00 2.9031561321e+00 
9100 5.5308334118e+00 -1.6936077709e-03 1.6762036544e+00 -2.9032698933e+00 1.6762036544e+00 2.9032698933e+00 
9200 5.5308313996e+00 -1.2088617460e-03 1.6762541738e+00 -2.9033573955e+00 1.6762541738e+00 2.9033573955e+00 
9300 5.5308280427e+00 -7.4764483134e-04 1.6762902324e+00 -2.9034198507e+00 1.6762902324e+00 2.9034198507e+00 
9400 5.5308234112e+00 -3.1002347293e-04 1.6763125330e+00 -2.9034584766e+00 1.6763125330e+00 2.9034584766e+00 
9500 5.5308175836e+00 1.0398768686e-04 1.6763217802e+00 -2.9034744932e+00 1.6763217802e+00 2.9034744932e+00 
9600 5.5308106456e+00 4.9442448198e-04 1.6763186786e+00 -2.9034691209e+00 1.6763186786e+00 2.9034691209e+00 
9700 5.5308026889e+00 8.6137178038e-04 1.6763039312e+00 -2.9034435778e+00 1.6763039312e+00 2.9034435778e+00 
9800 5.5307938097e+00 1.2049619361e-03 1.6762782387e+00 -2.9033990771e+00 1.6762782387e+00 2.9033990771e+00 
9900 5.5307841077e+00 1.5253731447e-03 1.6762422973e+00 -2.9033368247e+00 1.6762422973e+00 2.9033368247e+00 
10000 5.5307736848e+00 1.8228277118e-03 1.6761967977e+00 -2.9032580171e+00 1.6761967977e+00 2.9032580171e+00 
10100 5.5307626441e+00 2.0975902426e-03 1.6761424241e+00 -2.9031638392e+00 1.6761424241e+00 2.9031638392e+00 
10200 5.5307510890e+00 2.3499657631e-03 1.6760798525e+00 -2.9030554621e+00 1.6760798525e+00 2.9030554621e+00 
10300 5.5307391218e+00 2.5802977813e-03 1.6760097499e+00 -2.9029340409e+00 1.6760097499e+00 2.9029340409e+00 
10400 5.5307268432e+00 2.7889662968e-03 1.6759327731e+00 -2.9028007131e+00 1.6759327731e+00 2.9028007131e+00 
10500 5.5307143514e+00 2.9763857693e-03 1.6758495674e+00 -2.9026565966e+00 1.6758495674e+00 2.9026565966e+00 
10600 5.5307017412e+00 3.1430030521e-03 1.6757607659e+00 -2.9025027879e+00 1.6757607659e+00 2.9025027879e+00 
10700 5.5306891036e+00 3.2892953017e-03 1.6756669884e+00 -2.9023403605e+00 1.6756669884e+00 2.9023403605e+00 
10800 5.5306765248e+00 3.4157678697e-03 1.6755688405e+00 -2.9021703634e+00 1.6755688405e+00 2.9021703634e+00 
10900 5.5306640862e+00 3.5229521854e-03 1.6754669129e+00 -2.9019938196e+00 1.6754669129e+00 2.9019938196e+00 
11000 5.5306518636e+00 3.6114036372e-03 1.6753617806e+00 -2.9018117251e+00 1.6753617806e+00 2.9018117251e+00 
11100 5.5306399270e+00 3.6816994584e-03 1.6752540019e+00 -2.9016250469e+00 1.6752540019e+00 2.9016250469e+00 
11200 5.5306283402e+00 3.7344366268e-03 1.6751441183e+00 -2.9014347230e+00 1.6751441183e+00 2.9014347230e+00 
11300 5.5306171609e+00 3.7702297820e-03 1.6750326534e+00 -2.9012416601e+00 1.6750326534e+00 2.9012416601e+00 
11400 5.5306064401e+00 3.7897091678e-03 1.6749201127e+00 -2.9010467338e+00 1.6749201127e+00 2.9010467338e+00 
11500 5.5305962226e+00 3.7935186055e-03 1.6748069830e+00 -2.9008507873e+00 1.6748069830e+00 2.9008507873e+00 
11600 5.5305865464e+00 3.7823135030e-03 1.6746937318e+00 -2.9006546306e+00 1.6746937318e+00 2.9006546306e+00 
11700 5.5305774433e+00 3.7567589047e-03 1.6745808076e+00 -2.9004590401e+00 1.6745808076e+00 2.9004590401e+00 
11800 5.5305689386e+00 3.7175275865e-03 1.6744686387e+00 -2.9002647579e+00 1.6744686387e+00 2.9002647579e+00 
11900 5.5305610516e+00 3.6652982008e-03 1.6743576337e+00 -2.9000724916e+00 1.6743576337e+00 2.9000724916e+00 
12000 5.5305537955e+00 3.6007534738e-03 1.6742481810e+00 -2.8998829141e+00 1.6742481810e+00 2.8998829141e+00 
12100 5.5305471779e+00 3.5245784606e-03 1.6741406488e+00 -2.8996966627e+00 1.6741406488e+00 2.8996966627e+00 
12200 5.5305412010e+00 3.4374588581e-03 1.6740353846e+00 -2.8995143397e+00 1.6740353846e+00 2.8995143397e+00 
12300 5.5305358617e+00 3.3400793814e-03 1.6739327158e+00 -2.8993365122e+00 1.6739327158e+00 2.8993365122e+00 
12400 5.5305311523e+00 3.2331222030e-03 1.6738329493e+00 -2.8991637116e+00 1.6738329493e+00 2.8991637116e+00 
12500 5.5305270607e+00 3.1172654593e-03 1.6737363719e+00 -2.8989964345e+00 1.6737363719e+00 2.8989964345e+00 
12600 5.5305235707e+00 2.9931818234e-03 1.6736432498e+00 -2.8988351423e+00 1.6736432498e+00 2.8988351423e+00 
12700 5.5305206625e+00 2.8615371475e-03 1.6735538294e+00 -2.8986802618e+00 1.6735538294e+00 2.8986802618e+00 
12800 5.5305183131e+00 2.7229891746e-03 1.6734683373e+00 -2.8985321851e+00 1.6734683373e+00 2.8985321851e+00 
12900 5.5305164965e+00 2.5781863199e-03 1.6733869803e+00 -2.8983912706e+00 1.6733869803e+00 2.8983912706e+00 
13000 5.5305151844e+00 2.4277665233e-03 1.6733099459e+00 -2.8982578432e+00 1.6733099459e+00 2.8982578432e+00 
13100 5.5305143464e+00 2.2723561724e-03 1.6732374026e+00 -2.8981321945e+00 1.6732374026e+00 2.8981321945e+00 
13200 5.5305139504e+00 2.1125690948e-03 1.6731695001e+00 -2.8980145839e+00 1.6731695001e+00 2.8980145839e+00 
13300 5.5305139631e+00 1.9490056218e-03 1.6731063697e+00 -2.8979052389e+00 1.6731063697e+00 2.8979052389e+00 
13400 5.5305143502e+00 1.7822517201e-03 1.6730481250e+00 -2.8978043559e+00 1.6730481250e+00 2.8978043559e+00 
13500 5.5305150768e+00 1.6128781930e-03 1.6729948616e+00 -2.8977121011e+00 1.6729948616e+00 2.8977121011e+00 
13600 5.5305161078e+00 1.4414399480e-03 1.6729466585e+00 -2.8976286109e+00 1.6729466585e+00 2.8976286109e+00 
13700 5.5305174083e+00 1.2684753320e-03 1.6729035779e+00 -2.8975539930e+00 1.6729035779e+00 2.8975539930e+00 
13800 5.5305189434e+00 1.0945055306e-03 1.6728656656e+00 -2.8974883271e+00 1.6728656656e+00 2.8974883271e+00 
13900 5.5305206792e+00 9.2003403152e-04 1.6728329522e+00 -2.8974316658e+00 1.6728329522e+00 2.8974316658e+00 
14000 5.5305225824e+00 7.4554615036e-04 1.6728054530e+00 -2.8973840358e+00 1.6728054530e+00 2.8973840358e+00 
14100 5.5305246209e+00 5.7150861660e-04 1.6727831688e+00 -2.8973454384e+00 1.6727831688e+00 2.8973454384e+00 
14200 5.5305267639e+00 3.9836921879e-04 1.6727660862e+00 -2.8973158505e+00 1.6727660862e+00 2.8973158505e+00 
14300 5.5305289820e+00 2.2655650688e-04 1.6727541787e+00 -2.8972952262e+00 1.6727541787e+00 2.8972952262e+00 
14400 5.5305312475e+00 5.6479549819e-05 1.6727474068e+00 -2.8972834968e+00 1.6727474068e+00 2.8972834968e+00 
14500 5.5305335336e+00 -1.0982430136e-04 1.6727474068e+00 -2.8972834968e+00 1.6727474068e+00 2.8972834968e+00 
14600 5.5305358167e+00 -2.7532113549e-04 1.6727506895e+00 -2.8972891827e+00 1.6727506895e+00 2.8972891827e+00 
14700 5.5305380745e+00 -4.3797171973e-04 1.6727589191e+00 -2.8973034368e+00 1.6727589191e+00 2.8973034368e+00 
14800 5.5305402867e+00 -5.9744642130e-04 1.6727720105e+00 -2.8973261116e+00 1.6727720105e+00 2.8973261116e+00 
14900 5.5305424349e+00 -7.5343552932e-04 1.6727898685e+00 -2.8973570426e+00 1.6727898685e+00 2.8973570426e+00 
15000 5.5305445028e+00 -9.0564920512e-04 1.6728123888e+00 -2.8973960490e+00 1.6728123888e+00 2.8973960490e+00 
15100 5.5305464760e+00 -1.0538173906e-03 1.6728394586e+00 -2.8974429352e+00 1.6728394586e+00 2.8974429352e+00 
15200 5.5305483422e+00 -1.1976896769e-03 1.6728709565e+00 -2.8974974912e+00 1.6728709565e+00 2.8974974912e+00 
15300 5.5305500910e+00 -1.3370351346e-03 1.6729067541e+00 -2.8975594944e+00 1.6729067541e+00 2.8975594944e+00 
15400 5.5305517137e+00 -1.4716421087e-03 1.6729467157e+00 -2.8976287099e+00 1.6729467157e+00 2.8976287099e+00 
15500 5.5305532039e+00 -1.6013179783e-03 1.6729906994e+00 -2.8977048920e+00 1.6729906994e+00 2.8977048920e+00 
15600 5.5305545566e+00 -1.7258888854e-03 1.6730385576e+00 -2.8977877848e+00 1.6730385576e+00 2.8977877848e+00 
15700 5.5305557684e+00 -1.8451994321e-03 1.6730901373e+00 -2.8978771235e+00 1.6730901373e+00 2.8978771235e+00 
15800 5.5305568379e+00 -1.9591123500e-03 1.6731452811e+00 -2.8979726353e+00 1.6731452811e+00 2.8979726353e+00 
15900 5.5305577647e+00 -2.0675081424e-03 1.6732038272e+00 -2.8980740402e+00 1.6732038272e+00 2.8980740402e+00 
16000 5.5305585502e+00 -2.1702847020e-03 1.6732656105e+00 -2.8981810520e+00 1.6732656105e+00 2.8981810520e+00 
16100 5.5305591967e+00 -2.2673569049e-03 1.6733304627e+00 -2.8982933793e+00 1.6733304627e+00 2.8982933793e+00 
16200 5.5305597079e+00 -2.3586561835e-03 1.6733982130e+00 -2.8984107262e+00 1.6733982130e+00 2.8984107262e+00 
16300 5.5305600884e+00 -2.4441300791e-03 1.6734686885e+00 -2.8985327934e+00 1.6734686885e+00 2.8985327934e+00 
16400 5.5305603437e+00 -2.5237417769e-03 1.6735417149e+00 -2.8986592788e+00 1.6735417149e+00 2.8986592788e+00 
16500 5.5305604802e+00 -2.5974696237e-03 1.6736171167e+00 -2.8987898786e+00 1.6736171167e+00 2.8987898786e+00 
16600 5.5305605049e+00 -2.6653066315e-03 1.6736947178e+00 -2.8989242876e+00 1.6736947178e+00 2.8989242876e+00 
16700 5.5305604254e+00 -2.7272599665e-03 1.6737743419e+00 -2.8990622005e+00 1.6737743419e+00 2.8990622005e+00 
16800 5.5305602497e+00 -2.7833504273e-03 1.6738558129e+00 -2.8992033124e+00 1.6738558129e+00 2.8992033124e+00 
16900 5.5305599861e+00 -2.8336119115e-03 1.6739389554e+00 -2.8993473196e+00 1.6739389554e+00 2.8993473196e+00 
17000 5.5305596434e+00 -2.8780908741e-03 1.6740235952e+00 -2.8994939200e+00 1.6740235952e+00 2.8994939200e+00 
17100 5.5305592303e+00 -2.9168457778e-03 1.6741095592e+00 -2.8996428140e+00 1.6741095592e+00 2.8996428140e+00 
17200 5.5305587556e+00 -2.9499465366e-03 1.6741966763e+00 -2.8997937052e+00 1.6741966763e+00 2.8997937052e+00 
17300 5.5305582281e+00 -2.9774739554e-03 1.6742847774e+00 -2.8999463008e+00 1.6742847774e+00 2.8999463008e+00 
17400 5.5305576565e+00 -2.9995191647e-03 1.6743736960e+00 -2.9001003123e+00 1.6743736960e+00 2.9001003123e+00 
17500 5.5305570493e+00 -3.0161830536e-03 1.6744632682e+00 -2.9002554559e+00 1.6744632682e+00 2.9002554559e+00 
17600 5.5305564149e+00 -3.0275757014e-03 1.6745533332e+00 -2.9004114530e+00 1.6745533332e+00 2.9004114530e+00 
17700 5.5305557610e+00 -3.0338158086e-03 1.6746437335e+00 -2.9005680310e+00 1.6746437335e+00 2.9005680310e+00 
17800 5.5305550955e+00 -3.0350301298e-03 1.6747343152e+00 -2.9007249231e+00 1.6747343152e+00 2.9007249231e+00 
17900 5.5305544253e+00 -3.0313529076e-03 1.6748249283e+00 -2.9008818696e+00 1.6748249283e+00 2.9008818696e+00 
18000 5.5305537574e+00 -3.0229253110e-03 1.6749154267e+00 -2.9010386175e+00 1.6749154267e+00 2.9010386175e+00 
18100 5.5305530980e+00 -3.0098948767e-03 1.6750056687e+00 -2.9011949211e+00 1.6750056687e+00 2.9011949211e+00 
18200 5.5305524530e+00 -2.9924149567e-03 1.6750955168e+00 -2.9013505426e+00 1.6750955168e+00 2.9013505426e+00 
18300 5.5305518275e+00 -2.9706441715e-03 1.6751848383e+00 -2.9015052520e+00 1.6751848383e+00 2.9015052520e+00 
18400 5.5305512263e+00 -2.9447458701e-03 1.6752735053e+00 -2.9016588277e+00 1.6752735053e+00 2.9016588277e+00 
18500 5.5305506537e+00 -2.9148875988e-03 1.6753613945e+00 -2.9018110564e+00 1.6753613945e+00 2.9018110564e+00 
18600 5.5305501134e+00 -2.8812405777e-03 1.6754483881e+00 -2.9019617336e+00 1.6754483881e+00 2.9019617336e+00 
18700 5.5305496084e+00 -2.8439791880e-03 1.6755343730e+00 -2.9021106639e+00 1.6755343730e+00 2.9021106639e+00 
18800 5.5305491415e+00 -2.8032804680e-03 1.6756192415e+00 -2.9022576605e+00 1.6756192415e+00 2.9022576605e+00 
18900 5.5305487148e+00 -2.7593236221e-03 1.6757028913e+00 -2.9024025462e+00 1.6757028913e+00 2.9024025462e+00 
19000 5.5305483298e+00 -2.7122895393e-03 1.6757852253e+00 -2.9025451528e+00 1.6757852253e+00 2.9025451528e+00 
19100 5.5305479877e+00 -2.6623603264e-03 1.6758661519e+00 -2.9026853218e+00 1.6758661519e+00 2.9026853218e+00 
19200 5.5305476892e+00 -2.6097188517e-03 1.6759455849e+00 -2.9028229038e+00 1.6759455849e+00 2.9028229038e+00 
19300 5.5305474345e+00 -2.5545483043e-03 1.6760234436e+00 -2.9029577590e+00 1.6760234436e+00 2.9029577590e+00 
19400 5.5305472236e+00 -2.4970317661e-03 1.6760996528e+00 -2.9030897572e+00 1.6760996528e+00 2.9030897572e+00 
19500 5.5305470558e+00 -2.4373517986e-03 1.6761741427e+00 -2.9032187775e+00 1.6761741427e+00 2.9032187775e+00 
19600 5.5305469304e+00 -2.3756900445e-03 1.6762468490e+00 -2.9033447085e+00 1.6762468490e+00 2.9033447085e+00 
19700 5.5305468460e+00 -2.3122268452e-03 1.6763177129e+00 -2.9034674484e+00 1.6763177129e+00 2.9034674484e+00 
19800 5.5305468014e+00 -2.2471408728e-03 1.6763866808e+00 -2.9035869043e+00 1.6763866808e+00 2.9035869043e+00 
19900 5.5305467947e+00 -2.1806087790e-03 1.6764537046e+00 -2.9037029929e+00 1.6764537046e+00 2.9037029929e+00 
20000 5.5305468240e+00 -2.1128048596e-03 1.6765187414e+00 -2.9038156399e+00 1.6765187414e+00 2.9038156399e+00 
20100 5.5305468872e+00 -2.0439007357e-03 1.6765817534e+00 -2.9039247800e+00 1.6765817534e+00 2.9039247800e+00 
20200 5.5305469821e+00 -1.9740650516e-03 1.6766427082e+00 -2.9040303568e+00 1.6766427082e+00 2.9040303568e+00 
20300 5.5305471061e+00 -1.9034631889e-03 1.6767015781e+00 -2.9041323225e+00 1.6767015781e+00 2.9041323225e+00 
20400 5.5305472570e+00 -1.8322569978e-03 1.6767583406e+00 -2.9042306379e+00 1.6767583406e+00 2.9042306379e+00 
20500 5.5305474320e+00 -1.7606045457e-03 1.6768129778e+00 -2.9043252723e+00 1.6768129778e+00 2.9043252723e+00 
20600 5.5305476286e+00 -1.6886598818e-03 1.6768654766e+00 -2.9044162029e+00 1.6768654766e+00 2.9044162029e+00 
20700 5.5305478442e+00 -1.6165728194e-03 1.6769158285e+00 -2.9045034150e+00 1.6769158285e+00 2.9045034150e+00 
20800 5.5305480761e+00 -1.5444887345e-03 1.6769640295e+00 -2.9045869016e+00 1.6769640295e+00 2.9045869016e+00 
20900 5.5305483219e+00 -1.4725483818e-03 1.6770100799e+00 -2.9046666631e+00 1.6770100799e+00 2.9046666631e+00 
21000 5.5305485790e+00 -1.4008877269e-03 1.6770539840e+00 -2.9047427074e+00 1.6770539840e+00 2.9047427074e+00 
21100 5.5305488450e+00 -1.3296377950e-03 1.6770957505e+00 -2.9048150491e+00 1.6770957505e+00 2.9048150491e+00 
21200 5.5305491174e+00 -1.2589245361e-03 1.6771353918e+00 -2.9048837097e+00 1.6771353918e+00 2.9048837097e+00 
21300 5.5305493941e+00 -1.1888687065e-03 1.6771729239e+00 -2.9049487173e+00 1.6771729239e+00 2.9049487173e+00 
21400 5.5305496730e+00 -1.1195857654e-03 1.6772083667e+00 -2.9050101060e+00 1.6772083667e+00 2.9050101060e+00 
21500 5.5305499520e+00 -1.0511857881e-03 1.6772417433e+00 -2.9050679159e+00 1.6772417433e+00 2.9050679159e+00 
21600 5.5305502292e+00 -9.8377339389e-04 1.6772730801e+00 -2.9051221929e+00 1.6772730801e+00 2.9051221929e+00 
21700 5.5305505029e+00 -9.1744768875e-04 1.6773024067e+00 -2.9051729881e+00 1.6773024067e+00 2.9051729881e+00 
21800 5.5305507716e+00 -8.5230222310e-04 1.6773297557e+00 -2.9052203580e+00 1.6773297557e+00 2.9052203580e+00 
21900 5.5305510337e+00 -7.8842496346e-04 1.6773551623e+00 -2.9052643635e+00 1.6773551623e+00 2.9052643635e+00 
22000 5.5305512881e+00 -7.2589827806e-04 1.6773786644e+00 -2.9053050703e+00 1.6773786644e+00 2.9053050703e+00 
22100 5.5305515336e+00 -6.6479893577e-04 1.6774003023e+00 -2.9053425482e+00 1.6774003023e+00 2.9053425482e+00 
22200 5.5305517692e+00 -6.0519811807e-04 1.6774201187e+00 -2.9053768712e+00 1.6774201187e+00 2.9053768712e+00 
22300 5.5305519942e+00 -5.4716144344e-04 1.6774381583e+00 -2.9054081167e+00 1.6774381583e+00 2.9054081167e+00 
22400 5.5305522078e+00 -4.9074900386e-04 1.6774544678e+00 -2.9054363655e+00 1.6774544678e+00 2.9054363655e+00 
22500 5.5305524095e+00 -4.3601541283e-04 1.6774690956e+00 -2.9054617016e+00 1.6774690956e+00 2.9054617016e+00 
22600 5.5305525989e+00 -3.8300986442e-04 1.6774820918e+00 -2.9054842118e+00 1.6774820918e+00 2.9054842118e+00 
22700 5.5305527758e+00 -3.3177620290e-04 1.6774935080e+00 -2.9055039853e+00 1.6774935080e+00 2.9055039853e+00 
22800 5.5305529401e+00 -2.8235300239e-04 1.6775033971e+00 -2.9055211136e+00 1.6775033971e+00 2.9055211136e+00 
22900 5.5305530918e+00 -2.3477365598e-04 1.6775118130e+00 -2.9055356904e+00 1.6775118130e+00 2.9055356904e+00 
23000 5.5305532308e+00 -1.8906647392e-04 1.6775188106e+00 -2.9055478107e+00 1.6775188106e+00 2.9055478107e+00 
23100 5.5305533575e+00 -1.4525479011e-04 1.6775244459e+00 -2.9055575713e+00 1.6775244459e+00 2.9055575713e+00 
23200 5.5305534722e+00 -1.0335707663e-04 1.6775287754e+00 -2.9055650701e+00 1.6775287754e+00 2.9055650701e+00 
23300 5.5305535751e+00 -6.3387065546e-05 1.6775318560e+00 -2.9055704060e+00 1.6775318560e+00 2.9055704060e+00 
23400 5.5305536668e+00 -2.7182049832e-05 1.6775318560e+00 -2.9055704060e+00 1.6775318560e+00 2.9055704060e+00 
23500 5.5305537476e+00 8.1684472477e-06 1.6775318560e+00 -2.9055704060e+00 1.6775318560e+00 2.9055704060e+00 
23600 5.5305538182e+00 4.2613201364e-05 1.6775318560e+00 -2.9055704060e+00 1.6775318560e+00 2.9055704060e+00 
23700 5.5305538795e+00 7.6105533643e-05 1.6775318560e+00 -2.9055704060e+00 1.6775318560e+00 2.9055704060e+00 
23800 5.5305539318e+00 1.0640761875e-04 1.6775295876e+00 -2.9055664770e+00 1.6775295876e+00 2.9055664770e+00 
23900 5.5305539759e+00 1.3479082584e-04 1.6775264161e+00 -2.9055609837e+00 1.6775264161e+00 2.9055609837e+00 
24000 5.5305540125e+00 1.6127075122e-04 1.6775223985e+00 -2.9055540251e+00 1.6775223985e+00 2.9055540251e+00 
24100 5.5305540423e+00 1.8586655130e-04 1.6775175917e+00 -2.9055456995e+00 1.6775175917e+00 2.9055456995e+00 
24200 5.5305540660e+00 2.0860077832e-04 1.6775120518e+00 -2.9055361040e+00 1.6775120518e+00 2.9055361040e+00 
24300 5.5305540844e+00 2.2949921400e-04 1.6775058342e+00 -2.9055253349e+00 1.6775058342e+00 2.9055253349e+00 
24400 5.5305540982e+00 2.4859070136e-04 1.6774989938e+00 -2.9055134868e+00 1.6774989938e+00 2.9055134868e+00 
24500 5.5305541080e+00 2.6590697532e-04 1.6774915842e+00 -2.9055006531e+00 1.6774915842e+00 2.9055006531e+00 
24600 5.5305541146e+00 2.8148249247e-04 1.6774836585e+00 -2.9054869254e+00 1.6774836585e+00 2.9054869254e+00 
24700 5.5305541185e+00 2.9535426047e-04 1.6774752685e+00 -2.9054723934e+00 1.6774752685e+00 2.9054723934e+00 
24800 5.5305541205e+00 3.0756166742e-04 1.6774664649e+00 -2.9054571453e+00 1.6774664649e+00 2.9054571453e+00 
24900 5.5305541211e+00 3.1814631171e-04 1.6774572975e+00 -2.9054412668e+00 1.6774572975e+00 2.9054412668e+00 
25000 5.5305541209e+00 3.2715183266e-04 1.6774478145e+00 -2.9054248418e+00 1.6774478145e+00 2.9054248418e+00 
25100 5.5305541204e+00 3.3462374234e-04 1.6774380631e+00 -2.9054079518e+00 1.6774380631e+00 2.9054079518e+00 
25200 5.5305541201e+00 3.4060925895e-04 1.6774280888e+00 -2.9053906759e+00 1.6774280888e+00 2.9053906759e+00 
25300 5.5305541204e+00 3.4515714204e-04 1.6774179361e+00 -2.9053730908e+00 1.6774179361e+00 2.9053730908e+00 
25400 5.5305541217e+00 3.4831752994e-04 1.6774076478e+00 -2.9053552709e+00 1.6774076478e+00 2.9053552709e+00 
25500 5.5305541245e+00 3.5014177974e-04 1.6773972652e+00 -2.9053372877e+00 1.6773972652e+00 2.9053372877e+00 
25600 5.5305541289e+00 3.5068230994e-04 1.6773868281e+00 -2.9053192102e+00 1.6773868281e+00 2.9053192102e+00 
25700 5.5305541353e+00 3.4999244629e-04 1.6773763749e+00 -2.9053011047e+00 1.6773763749e+00 2.9053011047e+00 
25800 5.5305541440e+00 3.4812627084e-04 1.6773659422e+00 -2.9052830347e+00 1.6773659422e+00 2.9052830347e+00 
25900 5.5305541550e+00 3.4513847458e-04 1.6773555650e+00 -2.9052650609e+00 1.6773555650e+00 2.9052650609e+00 
26000 5.5305541685e+00 3.4108421386e-04 1.6773452768e+00 -2.9052472413e+00 1.6773452768e+00 2.9052472413e+00 
26100 5.5305541847e+00 3.3601897070e-04 1.6773351095e+00 -2.9052296309e+00 1.6773351095e+00 2.9052296309e+00 
26200 5.5305542036e+00 3.2999841731e-04 1.6773250930e+00 -2.9052122819e+00 1.6773250930e+00 2.9052122819e+00 
26300 5.5305542252e+00 3.2307828496e-04 1.6773152560e+00 -2.9051952437e+00 1.6773152560e+00 2.9051952437e+00 
26400 5.5305542496e+00 3.1531423717e-04 1.6773056252e+00 -2.9051785626e+00 1.6773056252e+00 2.9051785626e+00 
26500 5.5305542767e+00 3.0676174769e-04 1.6772962258e+00 -2.9051622824e+00 1.6772962258e+00 2.9051622824e+00 
26600 5.5305543064e+00 2.9747598304e-04 1.6772870812e+00 -2.9051464436e+00 1.6772870812e+00 2.9051464436e+00 
26700 5.5305543387e+00 2.8751169000e-04 1.6772782135e+00 -2.9051310842e+00 1.6772782135e+00 2.9051310842e+00 
26800 5.5305543735e+00 2.7692308790e-04 1.6772696427e+00 -2.9051162392e+00 1.6772696427e+00 2.9051162392e+00 
26900 5.5305544106e+00 2.6576376597e-04 1.6772613875e+00 -2.9051019408e+00 1.6772613875e+00 2.9051019408e+00 
27000 5.5305544499e+00 2.5408658573e-04 1.6772534650e+00 -2.9050882185e+00 1.6772534650e+00 2.9050882185e+00 
27100 5.5305544912e+00 2.4194358841e-04 1.6772458905e+00 -2.9050750992e+00 1.6772458905e+00 2.9050750992e+00 
27200 5.5305545343e+00 2.2938590757e-04 1.6772386780e+00 -2.9050626067e+00 1.6772386780e+00 2.9050626067e+00 
27300 5.5305545791e+00 2.1646368680e-04 1.6772318398e+00 -2.9050507626e+00 1.6772318398e+00 2.9050507626e+00 
27400 5.5305546254e+00 2.0322600261e-04 1.6772253868e+00 -2.9050395857e+00 1.6772253868e+00 2.9050395857e+00 
27500 5.5305546730e+00 1.8972079237e-04 1.6772193284e+00 -2.9050290922e+00 1.6772193284e+00 2.9050290922e+00 
27600 5.5305547216e+00 1.7599478750e-04 1.6772136726e+00 -2.9050192961e+00 1.6772136726e+00 2.9050192961e+00 
27700 5.5305547711e+00 1.6209345164e-04 1.6772084260e+00 -2.9050102086e+00 1.6772084260e+00 2.9050102086e+00 
27800 5.5305548212e+00 1.4806092390e-04 1.6772035937e+00 -2.9050018390e+00 1.6772035937e+00 2.9050018390e+00 
27900 5.5305548718e+00 1.3393996715e-04 1.6771991798e+00 -2.9049941938e+00 1.6771991798e+00 2.9049941938e+00 
28000 5.5305549226e+00 1.1977192118e-04 1.6771951868e+00 -2.9049872778e+00 1.6771951868e+00 2.9049872778e+00 
28100 5.5305549736e+00 1.0559666078e-04 1.6771916162e+00 -2.9049810933e+00 1.6771916162e+00 2.9049810933e+00 
28200 5.5305550244e+00 9.1452558586e-05 1.6771884682e+00 -2.9049756408e+00 1.6771884682e+00 2.9049756408e+00 
28300 5.5305550749e+00 7.7376452622e-05 1.6771857419e+00 -2.9049709186e+00 1.6771857419e+00 2.9049709186e+00 
28400 5.5305551250e+00 6.3403618500e-05 1.6771834351e+00 -2.9049669232e+00 1.6771834351e+00 2.9049669232e+00 
28500 5.5305551745e+00 5.1399478548e-05 1.6771834351e+00 -2.9049669232e+00 1.6771834351e+00 2.9049669232e+00 
28600 5.5305552232e+00 3.9174431917e-05 1.6771834351e+00 -2.9049669232e+00 1.6771834351e+00 2.9049669232e+00 
28700 5.5305552710e+00 2.6762725595e-05 1.6771834351e+00 -2.9049669232e+00 1.6771834351e+00 2.9049669232e+00 
28800 5.5305553176e+00 1.4197592610e-05 1.6771834351e+00 -2.9049669232e+00 1.6771834351e+00 2.9049669232e+00 
28900 5.5305553632e+00 1.5112214696e-06 1.6771834351e+00 -2.9049669232e+00 1.6771834351e+00 2.9049669232e+00 
29000 5.5305554075e+00 -1.1265270670e-05 1.6771834351e+00 -2.9049669232e+00 1.6771834351e+00 2.9049669232e+00 
29100 5.5305554505e+00 -2.4101861208e-05 1.6771834351e+00 -2.9049669232e+00 1.6771834351e+00 2.9049669232e+00 
29200 5.5305554923e+00 -3.6969641810e-05 1.6771834351e+00 -2.9049669232e+00 1.6771834351e+00 2.9049669232e+00 
29300 5.5305555327e+00 -4.9840834715e-05 1.6771834351e+00 -2.9049669232e+00 1.6771834351e+00 2.9049669232e+00 
29400 5.5305555717e+00 -6.2688805763e-05 1.6771834351e+00 -2.9049669232e+00 1.6771834351e+00 2.9049669232e+00 
29500 5.5305556093e+00 -7.5488074271e-05 1.6771834351e+00 -2.9049669232e+00 1.6771834351e+00 2.9049669232e+00 
29600 5.5305556452e+00 -8.6033907287e-05 1.6771856856e+00 -2.9049708211e+00 1.6771856856e+00 2.9049708211e+00 
29700 5.5305556796e+00 -9.6167365257e-05 1.6771882504e+00 -2.9049752635e+00 1.6771882504e+00 2.9049752635e+00 
29800 5.5305557125e+00 -1.0587553605e-04 1.6771911173e+00 -2.9049802292e+00 1.6771911173e+00 2.9049802292e+00 
29900 5.5305557439e+00 -1.1514701839e-04 1.6771942736e+00 -2.9049856961e+00 1.6771942736e+00 2.9049856961e+00 
30000 5.5305557737e+00 -1.2397189306e-04 1.6771977064e+00 -2.9049916418e+00 1.6771977064e+00 2.9049916418e+00 
30100 5.5305558021e+00 -1.3234169178e-04 1.6772014022e+00 -2.9049980431e+00 1.6772014022e+00 2.9049980431e+00 
30200 5.5305558290e+00 -1.4024936394e-04 1.6772053475e+00 -2.9050048766e+00 1.6772053475e+00 2.9050048766e+00 
30300 5.5305558544e+00 -1.4768924127e-04 1.6772095285e+00 -2.9050121184e+00 1.6772095285e+00 2.9050121184e+00 
30400 5.5305558786e+00 -1.5465700066e-04 1.6772139314e+00 -2.9050197443e+00 1.6772139314e+00 2.9050197443e+00 
30500 5.5305559014e+00 -1.6114962533e-04 1.6772185419e+00 -2.9050277300e+00 1.6772185419e+00 2.9050277300e+00 
30600 5.5305559229e+00 -1.6716536430e-04 1.6772233460e+00 -2.9050360509e+00 1.6772233460e+00 2.9050360509e+00 
30700 5.5305559433e+00 -1.7270369057e-04 1.6772283294e+00 -2.9050446824e+00 1.6772283294e+00 2.9050446824e+00 
30800 5.5305559625e+00 -1.7776525793e-04 1.6772334779e+00 -2.9050535998e+00 1.6772334779e+00 2.9050535998e+00 
30900 5.5305559806e+00 -1.8235185664e-04 1.6772387772e+00 -2.9050627786e+00 1.6772387772e+00 2.9050627786e+00 
31000 5.5305559978e+00 -1.8646636820e-04 1.6772442133e+00 -2.9050721941e+00 1.6772442133e+00 2.9050721941e+00 
31100 5.5305560140e+00 -1.9011271913e-04 1.6772497720e+00 -2.9050818221e+00 1.6772497720e+00 2.9050818221e+00 
31200 5.5305560293e+00 -1.9329583411e-04 1.6772554394e+00 -2.9050916383e+00 1.6772554394e+00 2.9050916383e+00 
31300 5.5305560438e+00 -1.9602158847e-04 1.6772612017e+00 -2.9051016189e+00 1.6772612017e+00 2.9051016189e+00 
31400 5.5305560576e+00 -1.9829676029e-04 1.6772670452e+00 -2.9051117401e+00 1.6772670452e+00 2.9051117401e+00 
31500 5.5305560708e+00 -2.0012898203e-04 1.6772729565e+00 -2.9051219788e+00 1.6772729565e+00 2.9051219788e+00 
31600 5.5305560833e+00 -2.0152669206e-04 1.6772789224e+00 -2.9051323121e+00 1.6772789224e+00 2.9051323121e+00 
31700 5.5305560953e+00 -2.0249908599e-04 1.6772849300e+00 -2.9051427175e+00 1.6772849300e+00 2.9051427175e+00 
31800 5.5305561068e+00 -2.0305606808e-04 1.6772909665e+00 -2.9051531730e+00 1.6772909665e+00 2.9051531730e+00 
31900 5.5305561180e+00 -2.0320820268e-04 1.6772970196e+00 -2.9051636573e+00 1.6772970196e+00 2.9051636573e+00 
32000 5.5305561287e+00 -2.0296666598e-04 1.6773030772e+00 -2.9051741494e+00 1.6773030772e+00 2.9051741494e+00 
32100 5.5305561391e+00 -2.0234319799e-04 1.6773091276e+00 -2.9051846290e+00 1.6773091276e+00 2.9051846290e+00 
32200 5.5305561493e+00 -2.0135005503e-04 1.6773151594e+00 -2.9051950763e+00 1.6773151594e+00 2.9051950763e+00 
32300 5.5305561592e+00 -1.9999996263e-04 1.6773211615e+00 -2.9052054724e+00 1.6773211615e+00 2.9052054724e+00 
32400 5.5305561690e+00 -1.9830606914e-04 1.6773271234e+00 -2.9052157987e+00 1.6773271234e+00 2.9052157987e+00 
32500 5.5305561786e+00 -1.9628189990e-04 1.6773330348e+00 -2.9052260375e+00 1.6773330348e+00 2.9052260375e+00 
32600 5.5305561881e+00 -1.9394131228e-04 1.6773388858e+00 -2.9052361717e+00 1.6773388858e+00 2.9052361717e+00 
32700 5.5305561976e+00 -1.9129845149e-04 1.6773446670e+00 -2.9052461851e+00 1.6773446670e+00 2.9052461851e+00 
32800 5.5305562070e+00 -1.8836770731e-04 1.6773503695e+00 -2.9052560620e+00 1.6773503695e+00 2.9052560620e+00 
32900 5.5305562163e+00 -1.8516367179e-04 1.6773559845e+00 -2.9052657875e+00 1.6773559845e+00 2.9052657875e+00 
33000 5.5305562257e+00 -1.8170109803e-04 1.6773615040e+00 -2.9052753476e+00 1.6773615040e+00 2.9052753476e+00 
33100 5.5305562350e+00 -1.7799485998e-04 1.6773669203e+00 -2.9052847289e+00 1.6773669203e+00 2.9052847289e+00 
33200 5.5305562444e+00 -1.7405991340e-04 1.6773722261e+00 -2.9052939188e+00 1.6773722261e+00 2.9052939188e+00 
33300 5.5305562537e+00 -1.6991125809e-04 1.6773774145e+00 -2.9053029055e+00 1.6773774145e+00 2.9053029055e+00 
33400 5.5305562632e+00 -1.6556390125e-04 1.6773824793e+00 -2.9053116779e+00 1.6773824793e+00 2.9053116779e+00 
33500 5.5305562726e+00 -1.6103282215e-04 1.6773874145e+00 -2.9053202259e+00 1.6773874145e+00 2.9053202259e+00 
33600 5.5305562821e+00 -1.5633293817e-04 1.6773922146e+00 -2.9053285400e+00 1.6773922146e+00 2.9053285400e+00 
33700 5.5305562916e+00 -1.5147907211e-04 1.6773968746e+00 -2.9053366113e+00 1.6773968746e+00 2.9053366113e+00 
33800 5.5305563012e+00 -1.4648592089e-04 1.6774013899e+00 -2.9053444321e+00 1.6774013899e+00 2.9053444321e+00 
33900 5.5305563107e+00 -1.4136802567e-04 1.6774057564e+00 -2.9053519950e+00 1.6774057564e+00 2.9053519950e+00 
34000 5.5305563203e+00 -1.3613974334e-04 1.6774099703e+00 -2.9053592937e+00 1.6774099703e+00 2.9053592937e+00 
34100 5.5305563300e+00 -1.3081521948e-04 1.6774140283e+00 -2.9053663224e+00 1.6774140283e+00 2.9053663224e+00 
34200 5.5305563396e+00 -1.2540836275e-04 1.6774179276e+00 -2.9053730762e+00 1.6774179276e+00 2.9053730762e+00 
34300 5.5305563492e+00 -1.1993282066e-04 1.6774216658e+00 -2.9053795508e+00 1.6774216658e+00 2.9053795508e+00 
34400 5.5305563587e+00 -1.1440195693e-04 1.6774252407e+00 -2.9053857428e+00 1.6774252407e+00 2.9053857428e+00 
34500 5.5305563683e+00 -1.0882883017e-04 1.6774286507e+00 -2.9053916491e+00 1.6774286507e+00 2.9053916491e+00 
34600 5.5305563778e+00 -1.0322617407e-04 1.6774318947e+00 -2.9053972678e+00 1.6774318947e+00 2.9053972678e+00 
34700 5.5305563872e+00 -9.7606379049e-05 1.6774349716e+00 -2.9054025972e+00 1.6774349716e+00 2.9054025972e+00 
34800 5.5305563966e+00 -9.1981475291e-05 1.6774378810e+00 -2.9054076364e+00 1.6774378810e+00 2.9054076364e+00 
34900 5.5305564058e+00 -8.6363117259e-05 1.6774406227e+00 -2.9054123852e+00 1.6774406227e+00 2.9054123852e+00 
35000 5.5305564150e+00 -8.0762569586e-05 1.6774431969e+00 -2.9054168439e+00 1.6774431969e+00 2.9054168439e+00 
35100 5.5305564241e+00 -7.5190694370e-05 1.6774456043e+00 -2.9054210135e+00 1.6774456043e+00 2.9054210135e+00 
35200 5.5305564330e+00 -6.9657939835e-05 1.6774478455e+00 -2.9054248954e+00 1.6774478455e+00 2.9054248954e+00 
35300 5.5305564420e+00 -6.6184551755e-05 1.6774478455e+00 -2.9054248954e+00 1.6774478455e+00 2.9054248954e+00 
35400 5.5305564508e+00 -6.2622463501e-05 1.6774478455e+00 -2.9054248954e+00 1.6774478455e+00 2.9054248954e+00 
35500 5.5305564593e+00 -5.8982798286e-05 1.6774478455e+00 -2.9054248954e+00 1.6774478455e+00 2.9054248954e+00 
35600 5.5305564677e+00 -5.5276341864e-05 1.6774478455e+00 -2.9054248954e+00 1.6774478455e+00 2.9054248954e+00 
35700 5.5305564759e+00 -5.1513534095e-05 1.6774478455e+00 -2.9054248954e+00 1.6774478455e+00 2.9054248954e+00 
35800 5.5305564838e+00 -4.7704461666e-05 1.6774478455e+00 -2.9054248954e+00 1.6774478455e+00 2.9054248954e+00 
35900 5.5305564916e+00 -4.3858851893e-05 1.6774478455e+00 -2.9054248954e+00 1.6774478455e+00 2.9054248954e+00 
36000 5.5305564991e+00 -3.9986067633e-05 1.6774478455e+00 -2.9054248954e+00 1.6774478455e+00 2.9054248954e+00 
36100 5.5305565065e+00 -3.6095103186e-05 1.6774478455e+00 -2.9054248954e+00 1.6774478455e+00 2.9054248954e+00 
36200 5.5305565136e+00 -3.2194581237e-05 1.6774478455e+00 -2.9054248954e+00 1.6774478455e+00 2.9054248954e+00 
36300 5.5305565205e+00 -2.8292750724e-05 1.6774478455e+00 -2.9054248954e+00 1.6774478455e+00 2.9054248954e+00 
36400 5.5305565272e+00 -2.4397485635e-05 1.6774478455e+00 -2.9054248954e+00 1.6774478455e+00 2.9054248954e+00 
36500 5.5305565336e+00 -2.0516284702e-05 1.6774478455e+00 -2.9054248954e+00 1.6774478455e+00 2.9054248954e+00 
36600 5.5305565399e+00 -1.6656271921e-05 1.6774478455e+00 -2.9054248954e+00 1.6774478455e+00 2.9054248954e+00 
36700 5.5305565460e+00 -1.2824197880e-05 1.6774478455e+00 -2.9054248954e+00 1.6774478455e+00 2.9054248954e+00 
36800 5.5305565519e+00 -9.0264418505e-06 1.6774478455e+00 -2.9054248954e+00 1.6774478455e+00 2.9054248954e+00 
36900 5.5305565576e+00 -5.2690146155e-06 1.6774478455e+00 -2.9054248954e+00 1.6774478455e+00 2.9054248954e+00 
37000 5.5305565631e+00 -1.5575619660e-06 1.6774478455e+00 -2.9054248954e+00 1.6774478455e+00 2.9054248954e+00 
37100 5.5305565684e+00 2.1026311363e-06 1.6774478455e+00 -2.9054248954e+00 1.6774478455e+00 2.9054248954e+00 
37200 5.5305565735e+00 5.7066357987e-06 1.6774478455e+00 -2.9054248954e+00 1.6774478455e+00 2.9054248954e+00 
37300 5.5305565785e+00 9.2498738656e-06 1.6774478455e+00 -2.9054248954e+00 1.6774478455e+00 2.9054248954e+00 
37400 5.5305565833e+00 1.2728112037e-05 1.6774478455e+00 -2.9054248954e+00 1.6774478455e+00 2.9054248954e+00 
37500 5.5305565880e+00 1.6137455510e-05 1.6774478455e+00 -2.9054248954e+00 1.6774478455e+00 2.9054248954e+00 
37600 5.5305565925e+00 1.9474341149e-05 1.6774478455e+00 -2.9054248954e+00 1.6774478455e+00 2.9054248954e+00 
37700 5.5305565969e+00 2.2735530229e-05 1.6774478455e+00 -2.9054248954e+00 1.6774478455e+00 2.9054248954e+00 
37800 5.5305566011e+00 2.5918100797e-05 1.6774478455e+00 -2.9054248954e+00 1.6774478455e+00 2.9054248954e+00 
37900 5.5305566052e+00 2.9019439667e-05 1.6774478455e+00 -2.9054248954e+00 1.6774478455e+00 2.9054248954e+00 
38000 5.5305566092e+00 3.2037234111e-05 1.6774478455e+00 -2.9054248954e+00 1.6774478455e+00 2.9054248954e+00 
38100 5.5305566130e+00 3.4969463241e-05 1.6774478455e+00 -2.9054248954e+00 1.6774478455e+00 2.9054248954e+00 
38200 5.5305566168e+00 3.7814389150e-05 1.6774478455e+00 -2.9054248954e+00 1.6774478455e+00 2.9054248954e+00 
38300 5.5305566204e+00 4.0570547822e-05 1.6774478455e+00 -2.9054248954e+00 1.6774478455e+00 2.9054248954e+00 
38400 5.5305566240e+00 4.3236739843e-05 1.6774478455e+00 -2.9054248954e+00 1.6774478455e+00 2.9054248954e+00 
38500 5.5305566274e+00 4.5812020958e-05 1.6774478455e+00 -2.9054248954e+00 1.6774478455e+00 2.9054248954e+00 
38600 5.5305566308e+00 4.8295692473e-05 1.6774478455e+00 -2.9054248954e+00 1.6774478455e+00 2.9054248954e+00 
38700 5.5305566340e+00 5.0687291568e-05 1.6774478455e+00 -2.9054248954e+00 1.6774478455e+00 2.9054248954e+00 
38800 5.5305566372e+00 5.2986581511e-05 1.6774478455e+00 -2.9054248954e+00 1.6774478455e+00 2.9054248954e+00 
38900 5.5305566403e+00 5.5193541821e-05 1.6774478455e+00 -2.9054248954e+00 1.6774478455e+00 2.9054248954e+00 
39000 5.5305566434e+00 5.7308358393e-05 1.6774478455e+00 -2.9054248954e+00 1.6774478455e+00 2.9054248954e+00 
39100 5.5305566464e+00 5.9331413620e-05 1.6774478455e+00 -2.9054248954e+00 1.6774478455e+00 2.9054248954e+00 
39200 5.5305566493e+00 6.1263276522e-05 1.6774478455e+00 -2.9054248954e+00 1.6774478455e+00 2.9054248954e+00 
39300 5.5305566521e+00 6.3104692908e-05 1.6774478455e+00 -2.9054248954e+00 1.6774478455e+00 2.9054248954e+00 
39400 5.5305566549e+00 6.4856575597e-05 1.6774478455e+00 -2.9054248954e+00 1.6774478455e+00 2.9054248954e+00 
39500 5.5305566576e+00 6.6519994707e-05 1.6774478455e+00 -2.9054248954e+00 1.6774478455e+00 2.9054248954e+00 
39600 5.5305566603e+00 6.8096168037e-05 1.6774478455e+00 -2.9054248954e+00 1.6774478455e+00 2.9054248954e+00 
39700 5.5305566629e+00 6.9586451559e-05 1.6774478455e+00 -2.9054248954e+00 1.6774478455e+00 2.9054248954e+00 
39800 5.5305566655e+00 7.0992330038e-05 1.6774478455e+00 -2.9054248954e+00 1.6774478455e+00 2.9054248954e+00 
39900 5.5305566678e+00 7.0266360550e-05 1.6774457294e+00 -2.9054212303e+00 1.6774457294e+00 2.9054212303e+00 
40000 5.5305566703e+00 7.1497332490e-05 1.6774457294e+00 -2.9054212303e+00 1.6774457294e+00 2.9054212303e+00 
40100 5.5305566726e+00 7.0584253887e-05 1.6774435983e+00 -2.9054175390e+00 1.6774435983e+00 2.9054175390e+00 
40200 5.5305566750e+00 7.1645281781e-05 1.6774435983e+00 -2.9054175390e+00 1.6774435983e+00 2.9054175390e+00 
40300 5.5305566771e+00 7.0560879613e-05 1.6774414627e+00 -2.9054138401e+00 1.6774414627e+00 2.9054138401e+00 
40400 5.5305566794e+00 7.1457978753e-05 1.6774414627e+00 -2.9054138401e+00 1.6774414627e+00 2.9054138401e+00 
40500 5.5305566815e+00 7.0218397288e-05 1.6774393327e+00 -2.9054101509e+00 1.6774393327e+00 2.9054101509e+00 
40600 5.5305566838e+00 7.0958503138e-05 1.6774393327e+00 -2.9054101509e+00 1.6774393327e+00 2.9054101509e+00 
40700 5.5305566858e+00 6.9580077033e-05 1.6774372177e+00 -2.9054064875e+00 1.6774372177e+00 2.9054064875e+00 
40800 5.5305566879e+00 7.0170915139e-05 1.6774372177e+00 -2.9054064875e+00 1.6774372177e+00 2.9054064875e+00 
40900 5.5305566901e+00 7.0695397079e-05 1.6774372177e+00 -2.9054064875e+00 1.6774372177e+00 2.9054064875e+00 
41000 5.5305566922e+00 7.1156246966e-05 1.6774372177e+00 -2.9054064875e+00 1.6774372177e+00 2.9054064875e+00 
41100 5.5305566940e+00 6.9502382669e-05 1.6774350967e+00 -2.9054028139e+00 1.6774350967e+00 2.9054028139e+00 
41200 5.5305566961e+00 6.9833157782e-05 1.6774350967e+00 -2.9054028139e+00 1.6774350967e+00 2.9054028139e+00 
41300 5.5305566981e+00 7.0107397406e-05 1.6774350967e+00 -2.9054028139e+00 1.6774350967e+00 2.9054028139e+00 
41400 5.5305567000e+00 7.0327929583e-05 1.6774350967e+00 -2.9054028139e+00 1.6774350967e+00 2.9054028139e+00 
41500 5.5305567020e+00 7.0497572128e-05 1.6774350967e+00 -2.9054028139e+00 1.6774350967e+00 2.9054028139e+00 
41600 5.5305567039e+00 7.0619126712e-05 1.6774350967e+00 -2.9054028139e+00 1.6774350967e+00 2.9054028139e+00 
41700 5.5305567057e+00 7.0695373256e-05 1.6774350967e+00 -2.9054028139e+00 1.6774350967e+00 2.9054028139e+00 
41800 5.5305567076e+00 7.0729064617e-05 1.6774350967e+00 -2.9054028139e+00 1.6774350967e+00 2.9054028139e+00 
41900 5.5305567092e+00 6.8681432865e-05 1.6774329884e+00 -2.9053991623e+00 1.6774329884e+00 2.9053991623e+00 
42000 5.5305567109e+00 6.8627162963e-05 1.6774329884e+00 -2.9053991623e+00 1.6774329884e+00 2.9053991623e+00 
42100 5.5305567127e+00 6.8537243333e-05 1.6774329884e+00 -2.9053991623e+00 1.6774329884e+00 2.9053991623e+00 
42200 5.5305567144e+00 6.8414348347e-05 1.6774329884e+00 -2.9053991623e+00 1.6774329884e+00 2.9053991623e+00 
42300 5.5305567160e+00 6.8261102323e-05 1.6774329884e+00 -2.9053991623e+00 1.6774329884e+00 2.9053991623e+00 
42400 5.5305567177e+00 6.8080075862e-05 1.6774329884e+00 -2.9053991623e+00 1.6774329884e+00 2.9053991623e+00 
42500 5.5305567193e+00 6.7873782448e-05 1.6774329884e+00 -2.9053991623e+00 1.6774329884e+00 2.9053991623e+00 
42600 5.5305567209e+00 6.7644675358e-05 1.6774329884e+00 -2.9053991623e+00 1.6774329884e+00 2.9053991623e+00 
42700 5.5305567224e+00 6.7395144831e-05 1.6774329884e+00 -2.9053991623e+00 1.6774329884e+00 2.9053991623e+00 
42800 5.5305567239e+00 6.7127515508e-05 1.6774329884e+00 -2.9053991623e+00 1.6774329884e+00 2.9053991623e+00 
42900 5.5305567254e+00 6.6844044143e-05 1.6774329884e+00 -2.9053991623e+00 1.6774329884e+00 2.9053991623e+00 
43000 5.5305567268e+00 6.6546917571e-05 1.6774329884e+00 -2.9053991623e+00 1.6774329884e+00 2.9053991623e+00 
43100 5.5305567282e+00 6.6238250914e-05 1.6774329884e+00 -2.9053991623e+00 1.6774329884e+00 2.9053991623e+00 
43200 5.5305567296e+00 6.5920086039e-05 1.6774329884e+00 -2.9053991623e+00 1.6774329884e+00 2.9053991623e+00 
43300 5.5305567310e+00 6.5594390258e-05 1.6774329884e+00 -2.9053991623e+00 1.6774329884e+00 2.9053991623e+00 
43400 5.5305567323e+00 6.5263055237e-05 1.6774329884e+00 -2.9053991623e+00 1.6774329884e+00 2.9053991623e+00 
43500 5.5305567336e+00 6.4927896139e-05 1.6774329884e+00 -2.9053991623e+00 1.6774329884e+00 2.9053991623e+00 
43600 5.5305567348e+00 6.4590650970e-05 1.6774329884e+00 -2.9053991623e+00 1.6774329884e+00 2.9053991623e+00 
43700 5.5305567361e+00 6.4252980136e-05 1.6774329884e+00 -2.9053991623e+00 1.6774329884e+00 2.9053991623e+00 
43800 5.5305567373e+00 6.3916466187e-05 1.6774329884e+00 -2.9053991623e+00 1.6774329884e+00 2.9053991623e+00 
43900 5.5305567384e+00 6.3582613752e-05 1.6774329884e+00 -2.9053991623e+00 1.6774329884e+00 2.9053991623e+00 
44000 5.5305567396e+00 6.3252849655e-05 1.6774329884e+00 -2.9053991623e+00 1.6774329884e+00 2.9053991623e+00 
44100 5.5305567407e+00 6.2928523194e-05 1.6774329884e+00 -2.9053991623e+00 1.6774329884e+00 2.9053991623e+00 
44200 5.5305567418e+00 6.2610906587e-05 1.6774329884e+00 -2.9053991623e+00 1.6774329884e+00 2.9053991623e+00 
44300 5.5305567429e+00 6.2301195571e-05 1.6774329884e+00 -2.9053991623e+00 1.6774329884e+00 2.9053991623e+00 
44400 5.5305567439e+00 6.2000510148e-05 1.6774329884e+00 -2.9053991623e+00 1.6774329884e+00 2.9053991623e+00 
44500 5.5305567450e+00 6.1709895455e-05 1.6774329884e+00 -2.9053991623e+00 1.6774329884e+00 2.9053991623e+00 
44600 5.5305567460e+00 6.1430322787e-05 1.6774329884e+00 -2.9053991623e+00 1.6774329884e+00 2.9053991623e+00 
44700 5.5305567469e+00 6.1162690716e-05 1.6774329884e+00 -2.9053991623e+00 1.6774329884e+00 2.9053991623e+00 
44800 5.5305567479e+00 6.0907826341e-05 1.6774329884e+00 -2.9053991623e+00 1.6774329884e+00 2.9053991623e+00 
44900 5.5305567488e+00 6.0666486628e-05 1.6774329884e+00 -2.9053991623e+00 1.6774329884e+00 2.9053991623e+00 
45000 5.5305567497e+00 6.0439359859e-05 1.6774329884e+00 -2.9053991623e+00 1.6774329884e+00 2.9053991623e+00 
45100 5.5305567506e+00 6.0227067168e-05 1.6774329884e+00 -2.9053991623e+00 1.6774329884e+00 2.9053991623e+00 
45200 5.5305567515e+00 6.0030164150e-05 1.6774329884e+00 -2.9053991623e+00 1.6774329884e+00 2.9053991623e+00 
45300 5.5305567523e+00 5.9849142557e-05 1.6774329884e+00 -2.9053991623e+00 1.6774329884e+00 2.9053991623e+00 
45400 5.5305567532e+00 5.9684432054e-05 1.6774329884e+00 -2.9053991623e+00 1.6774329884e+00 2.9053991623e+00 
45500 5.5305567540e+00 5.9536402034e-05 1.6774329884e+00 -2.9053991623e+00 1.6774329884e+00 2.9053991623e+00 
45600 5.5305567548e+00 5.9405363497e-05 1.6774329884e+00 -2.9053991623e+00 1.6774329884e+00 2.9053991623e+00 
45700 5.5305567556e+00 5.9291570961e-05 1.6774329884e+00 -2.9053991623e+00 1.6774329884e+00 2.9053991623e+00 
45800 5.5305567563e+00 5.9195224432e-05 1.6774329884e+00 -2.9053991623e+00 1.6774329884e+00 2.9053991623e+00 
45900 5.5305567571e+00 5.9116471385e-05 1.6774329884e+00 -2.9053991623e+00 1.6774329884e+00 2.9053991623e+00 
46000 5.5305567578e+00 5.9055408798e-05 1.6774329884e+00 -2.9053991623e+00 1.6774329884e+00 2.9053991623e+00 
46100 5.5305567586e+00 5.9012085191e-05 1.6774329884e+00 -2.9053991623e+00 1.6774329884e+00 2.9053991623e+00 
46200 5.5305567593e+00 5.8986502690e-05 1.6774329884e+00 -2.9053991623e+00 1.6774329884e+00 2.9053991623e+00 
46300 5.5305567599e+00 5.8978619100e-05 1.6774329884e+00 -2.9053991623e+00 1.6774329884e+00 2.9053991623e+00 
46400 5.5305567606e+00 5.8988349986e-05 1.6774329884e+00 -2.9053991623e+00 1.6774329884e+00 2.9053991623e+00 
46500 5.5305567613e+00 5.9015570753e-05 1.6774329884e+00 -2.9053991623e+00 1.6774329884e+00 2.9053991623e+00 
46600 5.5305567619e+00 5.9060118728e-05 1.6774329884e+00 -2.9053991623e+00 1.6774329884e+00 2.9053991623e+00 
46700 5.5305567626e+00 5.9121795223e-05 1.6774329884e+00 -2.9053991623e+00 1.6774329884e+00 2.9053991623e+00 
46800 5.5305567632e+00 5.9200367604e-05 1.6774329884e+00 -2.9053991623e+00 1.6774329884e+00 2.9053991623e+00 
46900 5.5305567638e+00 5.9295571323e-05 1.6774329884e+00 -2.9053991623e+00 1.6774329884e+00 2.9053991623e+00 
47000 5.5305567644e+00 5.9407111951e-05 1.6774329884e+00 -2.9053991623e+00 1.6774329884e+00 2.9053991623e+00 
47100 5.5305567650e+00 5.9534667167e-05 1.6774329884e+00 -2.9053991623e+00 1.6774329884e+00 2.9053991623e+00 
47200 5.5305567656e+00 5.9677888736e-05 1.6774329884e+00 -2.9053991623e+00 1.6774329884e+00 2.9053991623e+00 
47300 5.5305567662e+00 5.9836404448e-05 1.6774329884e+00 -2.9053991623e+00 1.6774329884e+00 2.9053991623e+00 
47400 5.5305567667e+00 6.0009820031e-05 1.6774329884e+00 -2.9053991623e+00 1.6774329884e+00 2.9053991623e+00 
47500 5.5305567673e+00 6.0197721014e-05 1.6774329884e+00 -2.9053991623e+00 1.6774329884e+00 2.9053991623e+00 
47600 5.5305567678e+00 6.0399674574e-05 1.6774329884e+00 -2.9053991623e+00 1.6774329884e+00 2.9053991623e+00 
47700 5.5305567684e+00 6.0615231320e-05 1.6774329884e+00 -2.9053991623e+00 1.6774329884e+00 2.9053991623e+00 
47800 5.5305567689e+00 6.0843927047e-05 1.6774329884e+00 -2.9053991623e+00 1.6774329884e+00 2.9053991623e+00 
47900 5.5305567694e+00 6.1085284438e-05 1.6774329884e+00 -2.9053991623e+00 1.6774329884e+00 2.9053991623e+00 
48000 5.5305567699e+00 6.1338814724e-05 1.6774329884e+00 -2.9053991623e+00 1.6774329884e+00 2.9053991623e+00 
48100 5.5305567704e+00 6.1604019297e-05 1.6774329884e+00 -2.9053991623e+00 1.6774329884e+00 2.9053991623e+00 
48200 5.5305567709e+00 6.1880391265e-05 1.6774329884e+00 -2.9053991623e+00 1.6774329884e+00 2.9053991623e+00 
48300 5.5305567713e+00 6.2167416964e-05 1.6774329884e+00 -2.9053991623e+00 1.6774329884e+00 2.9053991623e+00 
48400 5.5305567718e+00 6.2464577415e-05 1.6774329884e+00 -2.9053991623e+00 1.6774329884e+00 2.9053991623e+00 
48500 5.5305567723e+00 6.2771349724e-05 1.6774329884e+00 -2.9053991623e+00 1.6774329884e+00 2.9053991623e+00 
48600 5.5305567727e+00 6.3087208434e-05 1.6774329884e+00 -2.9053991623e+00 1.6774329884e+00 2.9053991623e+00 
48700 5.5305567732e+00 6.3411626826e-05 1.6774329884e+00 -2.9053991623e+00 1.6774329884e+00 2.9053991623e+00 
48800 5.5305567736e+00 6.3744078145e-05 1.6774329884e+00 -2.9053991623e+00 1.6774329884e+00 2.9053991623e+00 
48900 5.5305567740e+00 6.4084036806e-05 1.6774329884e+00 -2.9053991623e+00 1.6774329884e+00 2.9053991623e+00 
49000 5.5305567744e+00 6.4430979503e-05 1.6774329884e+00 -2.9053991623e+00 1.6774329884e+00 2.9053991623e+00 
49100 5.5305567749e+00 6.4784386299e-05 1.6774329884e+00 -2.9053991623e+00 1.6774329884e+00 2.9053991623e+00 
49200 5.5305567753e+00 6.5143741635e-05 1.6774329884e+00 -2.9053991623e+00 1.6774329884e+00 2.9053991623e+00 
49300 5.5305567757e+00 6.5508535300e-05 1.6774329884e+00 -2.9053991623e+00 1.6774329884e+00 2.9053991623e+00 
49400 5.5305567761e+00 6.5878263343e-05 1.6774329884e+00 -2.9053991623e+00 1.6774329884e+00 2.9053991623e+00 
49500 5.5305567764e+00 6.6252428919e-05 1.6774329884e+00 -2.9053991623e+00 1.6774329884e+00 2.9053991623e+00 
49600 5.5305567768e+00 6.6630543094e-05 1.6774329884e+00 -2.9053991623e+00 1.6774329884e+00 2.9053991623e+00 
49700 5.5305567772e+00 6.7012125600e-05 1.6774329884e+00 -2.9053991623e+00 1.6774329884e+00 2.9053991623e+00 
49800 5.5305567776e+00 6.7396705520e-05 1.6774329884e+00 -2.9053991623e+00 1.6774329884e+00 2.9053991623e+00 
49900 5.5305567779e+00 6.7783821938e-05 1.6774329884e+00 -2.9053991623e+00 1.6774329884e+00 2.9053991623e+00 
50000 5.5305567783e+00 6.8173024531e-05 1.6774329884e+00 -2.9053991623e+00 1.6774329884e+00 2.9053991623e+00 
50100 5.5305567786e+00 6.8563874108e-05 1.6774329884e+00 -2.9053991623e+00 1.6774329884e+00 2.9053991623e+00 
50200 5.5305567790e+00 6.8955943114e-05 1.6774329884e+00 -2.9053991623e+00 1.6774329884e+00 2.9053991623e+00 
50300 5.5305567793e+00 6.9348816064e-05 1.6774329884e+00 -2.9053991623e+00 1.6774329884e+00 2.9053991623e+00 
50400 5.5305567796e+00 6.9742089956e-05 1.6774329884e+00 -2.9053991623e+00 1.6774329884e+00 2.9053991623e+00 
50500 5.5305567799e+00 7.0135374614e-05 1.6774329884e+00 -2.9053991623e+00 1.6774329884e+00 2.9053991623e+00 
50600 5.5305567802e+00 7.0528293008e-05 1.6774329884e+00 -2.9053991623e+00 1.6774329884e+00 2.9053991623e+00 
50700 5.5305567806e+00 7.0920481512e-05 1.6774329884e+00 -2.9053991623e+00 1.6774329884e+00 2.9053991623e+00 
50800 5.5305567807e+00 6.9264691932e-05 1.6774308745e+00 -2.9053955008e+00 1.6774308745e+00 2.9053955008e+00 
50900 5.5305567810e+00 6.9643371806e-05 1.6774308745e+00 -2.9053955008e+00 1.6774308745e+00 2.9053955008e+00 
51000 5.5305567813e+00 7.0019168513e-05 1.6774308745e+00 -2.9053955008e+00 1.6774308745e+00 2.9053955008e+00 
51100 5.5305567816e+00 7.0391850945e-05 1.6774308745e+00 -2.9053955008e+00 1.6774308745e+00 2.9053955008e+00 
51200 5.5305567818e+00 7.0761201210e-05 1.6774308745e+00 -2.9053955008e+00 1.6774308745e+00 2.9053955008e+00 
51300 5.5305567819e+00 6.9084704927e-05 1.6774287653e+00 -2.9053918475e+00 1.6774287653e+00 2.9053918475e+00 
51400 5.5305567822e+00 6.9435801581e-05 1.6774287653e+00 -2.9053918475e+00 1.6774287653e+00 2.9053918475e+00 
51500 5.5305567825e+00 6.9781848333e-05 1.6774287653e+00 -2.9053918475e+00 1.6774287653e+00 2.9053918475e+00 
51600 5.5305567827e+00 7.0122755841e-05 1.6774287653e+00 -2.9053918475e+00 1.6774287653e+00 2.9053918475e+00 
51700 5.5305567830e+00 7.0458446353e-05 1.6774287653e+00 -2.9053918475e+00 1.6774287653e+00 2.9053918475e+00 
51800 5.5305567832e+00 7.0788853369e-05 1.6774287653e+00 -2.9053918475e+00 1.6774287653e+00 2.9053918475e+00 
51900 5.5305567833e+00 6.9070805457e-05 1.6774266552e+00 -2.9053881928e+00 1.6774266552e+00 2.9053881928e+00 
52000 5.5305567836e+00 6.9379496987e-05 1.6774266552e+00 -2.9053881928e+00 1.6774266552e+00 2.9053881928e+00 
52100 5.5305567838e+00 6.9681626849e-05 1.6774266552e+00 -2.9053881928e+00 1.6774266552e+00 2.9053881928e+00 
52200 5.5305567840e+00 6.9977246925e-05 1.6774266552e+00 -2.9053881928e+00 1.6774266552e+00 2.9053881928e+00 
52300 5.5305567843e+00 7.0266417627e-05 1.6774266552e+00 -2.9053881928e+00 1.6774266552e+00 2.9053881928e+00 
52400 5.5305567845e+00 7.0549207395e-05 1.6774266552e+00 -2.9053881928e+00 1.6774266552e+00 2.9053881928e+00 
52500 5.5305567847e+00 7.0825692196e-05 1.6774266552e+00 -2.9053881928e+00 1.6774266552e+00 2.9053881928e+00 
52600 5.5305567847e+00 6.9051768562e-05 1.6774245441e+00 -2.9053845362e+00 1.6774245441e+00 2.9053845362e+00 
52700 5.5305567850e+00 6.9304900919e-05 1.6774245441e+00 -2.9053845362e+00 1.6774245441e+00 2.9053845362e+00 
52800 5.5305567852e+00 6.9550853131e-05 1.6774245441e+00 -2.9053845362e+00 1.6774245441e+00 2.9053845362e+00 
52900 5.5305567854e+00 6.9789803292e-05 1.6774245441e+00 -2.9053845362e+00 1.6774245441e+00 2.9053845362e+00 
53000 5.5305567856e+00 7.0021933694e-05 1.6774245441e+00 -2.9053845362e+00 1.6774245441e+00 2.9053845362e+00 
53100 5.5305567858e+00 7.0247430241e-05 1.6774245441e+00 -2.9053845362e+00 1.6774245441e+00 2.9053845362e+00 
53200 5.5305567860e+00 7.0466481881e-05 1.6774245441e+00 -2.9053845362e+00 1.6774245441e+00 2.9053845362e+00 
53300 5.5305567862e+00 7.0679280061e-05 1.6774245441e+00 -2.9053845362e+00 1.6774245441e+00 2.9053845362e+00 
53400 5.5305567863e+00 7.0886018198e-05 1.6774245441e+00 -2.9053845362e+00 1.6774245441e+00 2.9053845362e+00 
53500 5.5305567864e+00 6.9040957646e-05 1.6774224311e+00 -2.9053808765e+00 1.6774224311e+00 2.9053808765e+00 
53600 5.5305567865e+00 6.9225153886e-05 1.6774224311e+00 -2.9053808765e+00 1.6774224311e+00 2.9053808765e+00 
53700 5.5305567867e+00 6.9402732929e-05 1.6774224311e+00 -2.9053808765e+00 1.6774224311e+00 2.9053808765e+00 
53800 5.5305567869e+00 6.9573968169e-05 1.6774224311e+00 -2.9053808765e+00 1.6774224311e+00 2.9053808765e+00 
53900 5.5305567871e+00 6.9739131698e-05 1.6774224311e+00 -2.9053808765e+00 1.6774224311e+00 2.9053808765e+00 
54000 5.5305567872e+00 6.9898493777e-05 1.6774224311e+00 -2.9053808765e+00 1.6774224311e+00 2.9053808765e+00 
54100 5.5305567874e+00 7.0052322311e-05 1.6774224311e+00 -2.9053808765e+00 1.6774224311e+00 2.9053808765e+00 
54200 5.5305567876e+00 7.0200882387e-05 1.6774224311e+00 -2.9053808765e+00 1.6774224311e+00 2.9053808765e+00 
54300 5.5305567877e+00 7.0344435802e-05 1.6774224311e+00 -2.9053808765e+00 1.6774224311e+00 2.9053808765e+00 
54400 5.5305567879e+00 7.0483240653e-05 1.6774224311e+00 -2.9053808765e+00 1.6774224311e+00 2.9053808765e+00 
54500 5.5305567881e+00 7.0617550928e-05 1.6774224311e+00 -2.9053808765e+00 1.6774224311e+00 2.9053808765e+00 
54600 5.5305567882e+00 7.0747616148e-05 1.6774224311e+00 -2.9053808765e+00 1.6774224311e+00 2.9053808765e+00 
54700 5.5305567882e+00 6.8831738642e-05 1.6774203223e+00 -2.9053772239e+00 1.6774203223e+00 2.9053772239e+00 
54800 5.5305567883e+00 6.8943056707e-05 1.6774203223e+00 -2.9053772239e+00 1.6774203223e+00 2.9053772239e+00 
54900 5.5305567885e+00 6.9049706140e-05 1.6774203223e+00 -2.9053772239e+00 1.6774203223e+00 2.9053772239e+00 
55000 5.5305567886e+00 6.9151992217e-05 1.6774203223e+00 -2.9053772239e+00 1.6774203223e+00 2.9053772239e+00 
55100 5.5305567888e+00 6.9250213351e-05 1.6774203223e+00 -2.9053772239e+00 1.6774203223e+00 2.9053772239e+00 
55200 5.5305567889e+00 6.9344660756e-05 1.6774203223e+00 -2.9053772239e+00 1.6774203223e+00 2.9053772239e+00 
55300 5.5305567890e+00 6.9435618120e-05 1.6774203223e+00 -2.9053772239e+00 1.6774203223e+00 2.9053772239e+00 
55400 5.5305567892e+00 6.9523361329e-05 1.6774203223e+00 -2.9053772239e+00 1.6774203223e+00 2.9053772239e+00 
55500 5.5305567893e+00 6.9608158208e-05 1.6774203223e+00 -2.9053772239e+00 1.6774203223e+00 2.9053772239e+00 
55600 5.5305567894e+00 6.9690268302e-05 1.6774203223e+00 -2.9053772239e+00 1.6774203223e+00 2.9053772239e+00 
55700 5.5305567896e+00 6.9769942678e-05 1.6774203223e+00 -2.9053772239e+00 1.6774203223e+00 2.9053772239e+00 
55800 5.5305567897e+00 6.9847423758e-05 1.6774203223e+00 -2.9053772239e+00 1.6774203223e+00 2.9053772239e+00 
55900 5.5305567898e+00 6.9922945181e-05 1.6774203223e+00 -2.9053772239e+00 1.6774203223e+00 2.9053772239e+00 
56000 5.5305567899e+00 6.9996731685e-05 1.6774203223e+00 -2.9053772239e+00 1.6774203223e+00 2.9053772239e+00 
56100 5.5305567901e+00 7.0068999020e-05 1.6774203223e+00 -2.9053772239e+00 1.6774203223e+00 2.9053772239e+00 
56200 5.5305567902e+00 7.0139953891e-05 1.6774203223e+00 -2.9053772239e+00 1.6774203223e+00 2.9053772239e+00 
56300 5.5305567903e+00 7.0209793903e-05 1.6774203223e+00 -2.9053772239e+00 1.6774203223e+00 2.9053772239e+00 
56400 5.5305567904e+00 7.0278707553e-05 1.6774203223e+00 -2.9053772239e+00 1.6774203223e+00 2.9053772239e+00 
56500 5.5305567905e+00 7.0346874230e-05 1.6774203223e+00 -2.9053772239e+00 1.6774203223e+00 2.9053772239e+00 
56600 5.5305567906e+00 7.0414464236e-05 1.6774203223e+00 -2.9053772239e+00 1.6774203223e+00 2.9053772239e+00 
56700 5.5305567908e+00 7.0481638830e-05 1.6774203223e+00 -2.9053772239e+00 1.6774203223e+00 2.9053772239e+00 
56800 5.5305567909e+00 7.0548550290e-05 1.6774203223e+00 -2.9053772239e+00 1.6774203223e+00 2.9053772239e+00 
56900 5.5305567910e+00 7.0615341988e-05 1.6774203223e+00 -2.9053772239e+00 1.6774203223e+00 2.9053772239e+00 
57000 5.5305567911e+00 7.0682148489e-05 1.6774203223e+00 -2.9053772239e+00 1.6774203223e+00 2.9053772239e+00 
57100 5.5305567912e+00 7.0749095655e-05 1.6774203223e+00 -2.9053772239e+00 1.6774203223e+00 2.9053772239e+00 
57200 5.5305567911e+00 6.8774319245e-05 1.6774182135e+00 -2.9053735712e+00 1.6774182135e+00 2.9053735712e+00 
57300 5.5305567912e+00 6.8830904552e-05 1.6774182135e+00 -2.9053735712e+00 1.6774182135e+00 2.9053735712e+00 
57400 5.5305567913e+00 6.8886815278e-05 1.6774182135e+00 -2.9053735712e+00 1.6774182135e+00 2.9053735712e+00 
57500 5.5305567914e+00 6.8942220692e-05 1.6774182135e+00 -2.9053735712e+00 1.6774182135e+00 2.9053735712e+00 
57600 5.5305567915e+00 6.8997281184e-05 1.6774182135e+00 -2.9053735712e+00 1.6774182135e+00 2.9053735712e+00 
57700 5.5305567916e+00 6.9052148322e-05 1.6774182135e+00 -2.9053735712e+00 1.6774182135e+00 2.9053735712e+00 
57800 5.5305567917e+00 6.9106964917e-05 1.6774182135e+00 -2.9053735712e+00 1.6774182135e+00 2.9053735712e+00 
57900 5.5305567918e+00 6.9161865118e-05 1.6774182135e+00 -2.9053735712e+00 1.6774182135e+00 2.9053735712e+00 
58000 5.5305567918e+00 6.9216974503e-05 1.6774182135e+00 -2.9053735712e+00 1.6774182135e+00 2.9053735712e+00 
58100 5.5305567919e+00 6.9272410206e-05 1.6774182135e+00 -2.9053735712e+00 1.6774182135e+00 2.9053735712e+00 
58200 5.5305567920e+00 6.9328281039e-05 1.6774182135e+00 -2.9053735712e+00 1.6774182135e+00 2.9053735712e+00 
58300 5.5305567921e+00 6.9384687643e-05 1.6774182135e+00 -2.9053735712e+00 1.6774182135e+00 2.9053735712e+00 
58400 5.5305567922e+00 6.9441722640e-05 1.6774182135e+00 -2.9053735712e+00 1.6774182135e+00 2.9053735712e+00 
58500 5.5305567923e+00 6.9499470799e-05 1.6774182135e+00 -2.9053735712e+00 1.6774182135e+00 2.9053735712e+00 
58600 5.5305567924e+00 6.9558009214e-05 1.6774182135e+00 -2.9053735712e+00 1.6774182135e+00 2.9053735712e+00 
58700 5.5305567924e+00 6.9617407486e-05 1.6774182135e+00 -2.9053735712e+00 1.6774182135e+00 2.9053735712e+00 
58800 5.5305567925e+00 6.9677727923e-05 1.6774182135e+00 -2.9053735712e+00 1.6774182135e+00 2.9053735712e+00 
58900 5.5305567926e+00 6.9739025737e-05 1.6774182135e+00 -2.9053735712e+00 1.6774182135e+00 2.9053735712e+00 
59000 5.5305567927e+00 6.9801349258e-05 1.6774182135e+00 -2.9053735712e+00 1.6774182135e+00 2.9053735712e+00 
59100 5.5305567927e+00 6.9864740145e-05 1.6774182135e+00 -2.9053735712e+00 1.6774182135e+00 2.9053735712e+00 
59200 5.5305567928e+00 6.9929233605e-05 1.6774182135e+00 -2.9053735712e+00 1.6774182135e+00 2.9053735712e+00 
59300 5.5305567929e+00 6.9994858622e-05 1.6774182135e+00 -2.9053735712e+00 1.6774182135e+00 2.9053735712e+00 
59400 5.5305567930e+00 7.0061638181e-05 1.6774182135e+00 -2.9053735712e+00 1.6774182135e+00 2.9053735712e+00 
59500 5.5305567930e+00 7.0129589508e-05 1.6774182135e+00 -2.9053735712e+00 1.6774182135e+00 2.9053735712e+00 
59600 5.5305567931e+00 7.0198724291e-05 1.6774182135e+00 -2.9053735712e+00 1.6774182135e+00 2.9053735712e+00 
59700 5.5305567932e+00 7.0269048932e-05 1.6774182135e+00 -2.9053735712e+00 1.6774182135e+00 2.9053735712e+00 
59800 5.5305567932e+00 7.0340564768e-05 1.6774182135e+00 -2.9053735712e+00 1.6774182135e+00 2.9053735712e+00 
59900 5.5305567933e+00 7.0413268326e-05 1.6774182135e+00 -2.9053735712e+00 1.6774182135e+00 2.9053735712e+00 
60000 5.5305567934e+00 7.0487151545e-05 1.6774182135e+00 -2.9053735712e+00 1.6774182135e+00 2.9053735712e+00 
60100 5.5305567934e+00 7.0562202026e-05 1.6774182135e+00 -2.9053735712e+00 1.6774182135e+00 2.9053735712e+00 
60200 5.5305567935e+00 7.0638403264e-05 1.6774182135e+00 -2.9053735712e+00 1.6774182135e+00 2.9053735712e+00 
60300 5.5305567935e+00 7.0715734883e-05 1.6774182135e+00 -2.9053735712e+00 1.6774182135e+00 2.9053735712e+00 
60400 5.5305567934e+00 6.8753156516e-05 1.6774161056e+00 -2.9053699203e+00 1.6774161056e+00 2.9053699203e+00 
60500 5.5305567935e+00 6.8821691450e-05 1.6774161056e+00 -2.9053699203e+00 1.6774161056e+00 2.9053699203e+00 
60600 5.5305567936e+00 6.8890133360e-05 1.6774161056e+00 -2.9053699203e+00 1.6774161056e+00 2.9053699203e+00 
60700 5.5305567936e+00 6.8958525472e-05 1.6774161056e+00 -2.9053699203e+00 1.6774161056e+00 2.9053699203e+00 
60800 5.5305567937e+00 6.9026907358e-05 1.6774161056e+00 -2.9053699203e+00 1.6774161056e+00 2.9053699203e+00 
60900 5.5305567937e+00 6.9095315014e-05 1.6774161056e+00 -2.9053699203e+00 1.6774161056e+00 2.9053699203e+00 
61000 5.5305567938e+00 6.9163780951e-05 1.6774161056e+00 -2.9053699203e+00 1.6774161056e+00 2.9053699203e+00 
61100 5.5305567938e+00 6.9232334292e-05 1.6774161056e+00 -2.9053699203e+00 1.6774161056e+00 2.9053699203e+00 
61200 5.5305567939e+00 6.9301000871e-05 1.6774161056e+00 -2.9053699203e+00 1.6774161056e+00 2.9053699203e+00 
61300 5.5305567939e+00 6.9369803328e-05 1.6774161056e+00 -2.9053699203e+00 1.6774161056e+00 2.9053699203e+00 
61400 5.5305567940e+00 6.9438761221e-05 1.6774161056e+00 -2.9053699203e+00 1.6774161056e+00 2.9053699203e+00 
61500 5.5305567940e+00 6.9507891129e-05 1.6774161056e+00 -2.9053699203e+00 1.6774161056e+00 2.9053699203e+00 
61600 5.5305567941e+00 6.9577206749e-05 1.6774161056e+00 -2.9053699203e+00 1.6774161056e+00 2.9053699203e+00 
61700 5.5305567941e+00 6.9646719024e-05 1.6774161056e+00 -2.9053699203e+00 1.6774161056e+00 2.9053699203e+00 
61800 5.5305567942e+00 6.9716436238e-05 1.6774161056e+00 -2.9053699203e+00 1.6774161056e+00 2.9053699203e+00 
61900 5.5305567942e+00 6.9786364139e-05 1.6774161056e+00 -2.9053699203e+00 1.6774161056e+00 2.9053699203e+00 
62000 5.5305567943e+00 6.9856506041e-05 1.6774161056e+00 -2.9053699203e+00 1.6774161056e+00 2.9053699203e+00 
62100 5.5305567943e+00 6.9926862946e-05 1.6774161056e+00 -2.9053699203e+00 1.6774161056e+00 2.9053699203e+00 
62200 5.5305567944e+00 6.9997433652e-05 1.6774161056e+00 -2.9053699203e+00 1.6774161056e+00 2.9053699203e+00 
62300 5.5305567944e+00 7.0068214866e-05 1.6774161056e+00 -2.9053699203e+00 1.6774161056e+00 2.9053699203e+00 
62400 5.5305567945e+00 7.0139201320e-05 1.6774161056e+00 -2.9053699203e+00 1.6774161056e+00 2.9053699203e+00 
62500 5.5305567945e+00 7.0147733166e-05 1.6774161056e+00 -2.9053699203e+00 1.6774161056e+00 2.9053699203e+00 
62500 5.5305567945e+00 7.0147733167e-05 1.6774161056e+00 -2.9053699203e+00 1.6774161056e+00 2.9053699203e+00 
