# step Hamiltonian StressXX CellTensor1 CellTensor2 CellTensor3 CellTensor4 
0 5.1437449162e+00 9.4426593617e-02 1.7438352029e+00 -3.0204111715e+00 1.7438352029e+00 3.0204111715e+00 
100 5.1385299541e+00 9.3740413550e-02 1.7438352029e+00 -3.0204111715e+00 1.7438352029e+00 3.0204111715e+00 
200 5.1331656044e+00 9.1038178052e-02 1.7411481286e+00 -3.0157570222e+00 1.7411481286e+00 3.0157570222e+00 
300 5.1279474365e+00 8.8540736104e-02 1.7385344692e+00 -3.0112300314e+00 1.7385344692e+00 3.0112300314e+00 
400 5.1228699673e+00 8.6236838020e-02 1.7359886730e+00 -3.0068205830e+00 1.7359886730e+00 3.0068205830e+00 
500 5.1179291113e+00 8.4116011552e-02 1.7335054700e+00 -3.0025195493e+00 1.7335054700e+00 3.0025195493e+00 
600 5.1131219183e+00 8.2168474676e-02 1.7310798543e+00 -2.9983182596e+00 1.7310798543e+00 2.9983182596e+00 
700 5.1084463340e+00 8.0385051880e-02 1.7287070674e+00 -2.9942084721e+00 1.7287070674e+00 2.9942084721e+00 
800 5.1039009833e+00 7.8757094827e-02 1.7263825842e+00 -2.9901823492e+00 1.7263825842e+00 2.9901823492e+00 
900 5.0994849769e+00 7.7276408172e-02 1.7241021010e+00 -2.9862324365e+00 1.7241021010e+00 2.9862324365e+00 
1000 5.0951977413e+00 7.5935181169e-02 1.7218615248e+00 -2.9823516445e+00 1.7218615248e+00 2.9823516445e+00 
1100 5.0910388713e+00 7.4725925554e-02 1.7196569644e+00 -2.9785332340e+00 1.7196569644e+00 2.9785332340e+00 
1200 5.0870080056e+00 7.3641420092e-02 1.7174847239e+00 -2.9747708030e+00 1.7174847239e+00 2.9747708030e+00 
1300 5.0831047226e+00 7.2674661997e-02 1.7153412964e+00 -2.9710582777e+00 1.7153412964e+00 2.9710582777e+00 
1400 5.0793284565e+00 7.1818825341e-02 1.7132233597e+00 -2.9673899037e+00 1.7132233597e+00 2.9673899037e+00 
1500 5.0756784331e+00 7.1067226433e-02 1.7111277730e+00 -2.9637602410e+00 1.7111277730e+00 2.9637602410e+00 
1600 5.0721536213e+00 7.0413296026e-02 1.7090515740e+00 -2.9601641589e+00 1.7090515740e+00 2.9601641589e+00 
1700 5.0687527011e+00 6.9850558121e-02 1.7069919775e+00 -2.9565968331e+00 1.7069919775e+00 2.9565968331e+00 
1800 5.0654740459e+00 6.9372615040e-02 1.7049463736e+00 -2.9530537433e+00 1.7049463736e+00 2.9530537433e+00 
1900 5.0623157157e+00 6.8973138356e-02 1.7029123272e+00 -2.9495306715e+00 1.7029123272e+00 2.9495306715e+00 
2000 5.0592754626e+00 6.8645865206e-02 1.7008875767e+00 -2.9460237008e+00 1.7008875767e+00 2.9460237008e+00 
2100 5.0563507439e+00 6.8384599456e-02 1.6988700337e+00 -2.9425292139e+00 1.6988700337e+00 2.9425292139e+00 
2200 5.0535387434e+00 6.8183217134e-02 1.6968577821e+00 -2.9390438918e+00 1.6968577821e+00 2.9390438918e+00 
2300 5.0508363975e+00 6.8035675554e-02 1.6948490767e+00 -2.9355647120e+00 1.6948490767e+00 2.9355647120e+00 
2400 5.0482404270e+00 6.7936025478e-02 1.6928423425e+00 -2.9320889465e+00 1.6928423425e+00 2.9320889465e+00 
2500 5.0457473704e+00 6.7878425715e-02 1.6908361726e+00 -2.9286141582e+00 1.6908361726e+00 2.9286141582e+00 
2600 5.0433536205e+00 6.7857159533e-02 1.6888293259e+00 -2.9251381978e+00 1.6888293259e+00 2.9251381978e+00 
2700 5.0410554605e+00 6.7866652271e-02 1.6868207248e+00 -2.9216591986e+00 1.6868207248e+00 2.9216591986e+00 
2800 5.0388491006e+00 6.7901489595e-02 1.6848094516e+00 -2.9181755712e+00 1.6848094516e+00 2.9181755712e+00 
2900 5.0367307131e+00 6.7956435838e-02 1.6827947449e+00 -2.9146859968e+00 1.6827947449e+00 2.9146859968e+00 
3000 5.0346964658e+00 6.8026451946e-02 1.6807759951e+00 -2.9111894197e+00 1.6807759951e+00 2.9111894197e+00 
3100 5.0327425537e+00 6.8106712571e-02 1.6787527396e+00 -2.9076850384e+00 1.6787527396e+00 2.9076850384e+00 
3200 5.0308652268e+00 6.8192621927e-02 1.6767246572e+00 -2.9041722965e+00 1.6767246572e+00 2.9041722965e+00 
3300 5.0290608157e+00 6.8279828074e-02 1.6746915618e+00 -2.9006508721e+00 1.6746915618e+00 2.9006508721e+00 
3400 5.0273257539e+00 6.8364235366e-02 1.6726533967e+00 -2.8971206666e+00 1.6726533967e+00 2.8971206666e+00 
3500 5.0256565960e+00 6.8442014849e-02 1.6706102269e+00 -2.8935817927e+00 1.6706102269e+00 2.8935817927e+00 
3600 5.0240500332e+00 6.8509612468e-02 1.6685622324e+00 -2.8900345622e+00 1.6685622324e+00 2.8900345622e+00 
3700 5.0225029053e+00 6.8563754988e-02 1.6665097005e+00 -2.8864794725e+00 1.6665097005e+00 2.8864794725e+00 
3800 5.0210122095e+00 6.8601453617e-02 1.6644530178e+00 -2.8829171937e+00 1.6644530178e+00 2.8829171937e+00 
3900 5.0195751057e+00 6.8620005337e-02 1.6623926629e+00 -2.8793485542e+00 1.6623926629e+00 2.8793485542e+00 
4000 5.0181889200e+00 6.8616992012e-02 1.6603291977e+00 -2.8757745276e+00 1.6603291977e+00 2.8757745276e+00 
4100 5.0168511447e+00 6.8590277395e-02 1.6582632597e+00 -2.8721962182e+00 1.6582632597e+00 2.8721962182e+00 
4200 5.0155594366e+00 6.8538002164e-02 1.6561955542e+00 -2.8686148471e+00 1.6561955542e+00 2.8686148471e+00 
4300 5.0143116134e+00 6.8458577152e-02 1.6541268458e+00 -2.8650317391e+00 1.6541268458e+00 2.8650317391e+00 
4400 5.0131056483e+00 6.8350674978e-02 1.6520579511e+00 -2.8614483083e+00 1.6520579511e+00 2.8614483083e+00 
4500 5.0119396631e+00 6.8213220259e-02 1.6499897309e+00 -2.8578660458e+00 1.6499897309e+00 2.8578660458e+00 
4600 5.0108119206e+00 6.8045378623e-02 1.6479230829e+00 -2.8542865065e+00 1.6479230829e+00 2.8542865065e+00 
4700 5.0097208160e+00 6.7846544734e-02 1.6458589346e+00 -2.8507112968e+00 1.6458589346e+00 2.8507112968e+00 
4800 5.0086648679e+00 6.7616329526e-02 1.6437982365e+00 -2.8471420630e+00 1.6437982365e+00 2.8471420630e+00 
4900 5.0076427088e+00 6.7354546859e-02 1.6417419558e+00 -2.8435804804e+00 1.6417419558e+00 2.8435804804e+00 
5000 5.0066530757e+00 6.7061199763e-02 1.6396910701e+00 -2.8400282421e+00 1.6396910701e+00 2.8400282421e+00 
5100 5.0056948007e+00 6.6736466466e-02 1.6376465617e+00 -2.8364870497e+00 1.6376465617e+00 2.8364870497e+00 
5200 5.0047668014e+00 6.6380686350e-02 1.6356094124e+00 -2.8329586036e+00 1.6356094124e+00 2.8329586036e+00 
5300 5.0038680726e+00 6.5994345976e-02 1.6335805985e+00 -2.8294445948e+00 1.6335805985e+00 2.8294445948e+00 
5400 5.0029976773e+00 6.5578065315e-02 1.6315610860e+00 -2.8259466966e+00 1.6315610860e+00 2.8259466966e+00 
5500 5.0021547390e+00 6.5132584272e-02 1.6295518267e+00 -2.8224665574e+00 1.6295518267e+00 2.8224665574e+00 
5600 5.0013384342e+00 6.4658749607e-02 1.6275537541e+00 -2.8190057942e+00 1.6275537541e+00 2.8190057942e+00 
5700 5.0005479856e+00 6.4157502324e-02 1.6255677804e+00 -2.8155659867e+00 1.6255677804e+00 2.8155659867e+00 
5800 4.9997826558e+00 6.3629865587e-02 1.6235947926e+00 -2.8121486718e+00 1.6235947926e+00 2.8121486718e+00 
5900 4.9990417420e+00 6.3076933199e-02 1.6216356508e+00 -2.8087553385e+00 1.6216356508e+00 2.8087553385e+00 
6000 4.9983245704e+00 6.2499858694e-02 1.6196911847e+00 -2.8053874245e+00 1.6196911847e+00 2.8053874245e+00 
6100 4.9976304928e+00 6.1899845044e-02 1.6177621924e+00 -2.8020463119e+00 1.6177621924e+00 2.8020463119e+00 
6200 4.9969588815e+00 6.1278135015e-02 1.6158494382e+00 -2.7987333243e+00 1.6158494382e+00 2.7987333243e+00 
6300 4.9963091274e+00 6.0636002152e-02 1.6139536509e+00 -2.7954497244e+00 1.6139536509e+00 2.7954497244e+00 
6400 4.9956806360e+00 5.9974742409e-02 1.6120755230e+00 -2.7921967116e+00 1.6120755230e+00 2.7921967116e+00 
6500 4.9950728260e+00 5.9295666406e-02 1.6102157096e+00 -2.7889754202e+00 1.6102157096e+00 2.7889754202e+00 
6600 4.9944851268e+00 5.8600092295e-02 1.6083748273e+00 -2.7857869184e+00 1.6083748273e+00 2.7857869184e+00 
6700 4.9939169775e+00 5.7889339236e-02 1.6065534540e+00 -2.7826322074e+00 1.6065534540e+00 2.7826322074e+00 
6800 4.9933678254e+00 5.7164721433e-02 1.6047521287e+00 -2.7795122205e+00 1.6047521287e+00 2.7795122205e+00 
6900 4.9928371252e+00 5.6427542736e-02 1.6029713511e+00 -2.7764278231e+00 1.6029713511e+00 2.7764278231e+00 
7000 4.9923243388e+00 5.5679091764e-02 1.6012115815e+00 -2.7733798128e+00 1.6012115815e+00 2.7733798128e+00 
7100 4.9918289344e+00 5.4920637533e-02 1.5994732414e+00 -2.7703689195e+00 1.5994732414e+00 2.7703689195e+00 
7200 4.9913503868e+00 5.4153425564e-02 1.5977567137e+00 -2.7673958063e+00 1.5977567137e+00 2.7673958063e+00 
7300 4.9908881770e+00 5.3378674434e-02 1.5960623431e+00 -2.7644610702e+00 1.5960623431e+00 2.7644610702e+00 
7400 4.9904417930e+00 5.2597572758e-02 1.5943904364e+00 -2.7615652430e+00 1.5943904364e+00 2.7615652430e+00 
7500 4.9900107293e+00 5.1811276561e-02 1.5927412640e+00 -2.7587087926e+00 1.5927412640e+00 2.7587087926e+00 
7600 4.9895944877e+00 5.1020907027e-02 1.5911150599e+00 -2.7558921244e+00 1.5911150599e+00 2.7558921244e+00 
7700 4.9891925777e+00 5.0227548590e-02 1.5895120228e+00 -2.7531155827e+00 1.5895120228e+00 2.7531155827e+00 
7800 4.9888045167e+00 4.9432247352e-02 1.5879323172e+00 -2.7503794524e+00 1.5879323172e+00 2.7503794524e+00 
7900 4.9884298308e+00 4.8636009791e-02 1.5863760744e+00 -2.7476839608e+00 1.5863760744e+00 2.7476839608e+00 
8000 4.9880680547e+00 4.7839801756e-02 1.5848433934e+00 -2.7450292795e+00 1.5848433934e+00 2.7450292795e+00 
8100 4.9877187329e+00 4.7044547701e-02 1.5833343421e+00 -2.7424155259e+00 1.5833343421e+00 2.7424155259e+00 
8200 4.9873814196e+00 4.6251130171e-02 1.5818489583e+00 -2.7398427656e+00 1.5818489583e+00 2.7398427656e+00 
8300 4.9870556792e+00 4.5460389480e-02 1.5803872511e+00 -2.7373110145e+00 1.5803872511e+00 2.7373110145e+00 
8400 4.9867410870e+00 4.4673123606e-02 1.5789492020e+00 -2.7348202405e+00 1.5789492020e+00 2.7348202405e+00 
8500 4.9864372291e+00 4.3890088242e-02 1.5775347662e+00 -2.7323703658e+00 1.5775347662e+00 2.7323703658e+00 
8600 4.9861437030e+00 4.3111997024e-02 1.5761438735e+00 -2.7299612689e+00 1.5761438735e+00 2.7299612689e+00 
8700 4.9858601179e+00 4.2339521893e-02 1.5747764299e+00 -2.7275927872e+00 1.5747764299e+00 2.7275927872e+00 
8800 4.9855860946e+00 4.1573293591e-02 1.5734323187e+00 -2.7252647183e+00 1.5734323187e+00 2.7252647183e+00 
8900 4.9853212658e+00 4.0813902271e-02 1.5721114017e+00 -2.7229768228e+00 1.5721114017e+00 2.7229768228e+00 
9000 4.9850652766e+00 4.0061898211e-02 1.5708135203e+00 -2.7207288264e+00 1.5708135203e+00 2.7207288264e+00 
9100 4.9848177838e+00 3.9317792616e-02 1.5695384971e+00 -2.7185204215e+00 1.5695384971e+00 2.7185204215e+00 
9200 4.9845784567e+00 3.8582058501e-02 1.5682861367e+00 -2.7163512695e+00 1.5682861367e+00 2.7163512695e+00 
9300 4.9843469763e+00 3.7855131641e-02 1.5670562268e+00 -2.7142210032e+00 1.5670562268e+00 2.7142210032e+00 
9400 4.9841230360e+00 3.7137411578e-02 1.5658485400e+00 -2.7121292282e+00 1.5658485400e+00 2.7121292282e+00 
9500 4.9839063409e+00 3.6429262682e-02 1.5646628339e+00 -2.7100755251e+00 1.5646628339e+00 2.7100755251e+00 
9600 4.9836966078e+00 3.5731015245e-02 1.5634988534e+00 -2.7080594517e+00 1.5634988534e+00 2.7080594517e+00 
9700 4.9834935653e+00 3.5042966617e-02 1.5623563307e+00 -2.7060805442e+00 1.5623563307e+00 2.7060805442e+00 
9800 4.9832969531e+00 3.4365382359e-02 1.5612349869e+00 -2.7041383198e+00 1.5612349869e+00 2.7041383198e+00 
9900 4.9831065220e+00 3.3698497420e-02 1.5601345330e+00 -2.7022322778e+00 1.5601345330e+00 2.7022322778e+00 
10000 4.9829220339e+00 3.3042517330e-02 1.5590546708e+00 -2.7003619016e+00 1.5590546708e+00 2.7003619016e+00 
10100 4.9827432610e+00 3.2397619391e-02 1.5579950937e+00 -2.6985266602e+00 1.5579950937e+00 2.6985266602e+00 
10200 4.9825699856e+00 3.1763953882e-02 1.5569554879e+00 -2.6967260102e+00 1.5569554879e+00 2.6967260102e+00 
10300 4.9824020001e+00 3.1141645252e-02 1.5559355332e+00 -2.6949593968e+00 1.5559355332e+00 2.6949593968e+00 
10400 4.9822391064e+00 3.0530793317e-02 1.5549349035e+00 -2.6932262554e+00 1.5549349035e+00 2.6932262554e+00 
10500 4.9820811155e+00 2.9931474436e-02 1.5539532683e+00 -2.6915260132e+00 1.5539532683e+00 2.6915260132e+00 
10600 4.9819278472e+00 2.9343742687e-02 1.5529902927e+00 -2.6898580906e+00 1.5529902927e+00 2.6898580906e+00 
10700 4.9817791300e+00 2.8767631012e-02 1.5520456388e+00 -2.6882219021e+00 1.5520456388e+00 2.6882219021e+00 
10800 4.9816348003e+00 2.8203152361e-02 1.5511189661e+00 -2.6866168579e+00 1.5511189661e+00 2.6866168579e+00 
10900 4.9814947023e+00 2.7650300797e-02 1.5502099322e+00 -2.6850423650e+00 1.5502099322e+00 2.6850423650e+00 
11000 4.9813586875e+00 2.7109052594e-02 1.5493181934e+00 -2.6834978280e+00 1.5493181934e+00 2.6834978280e+00 
11100 4.9812266146e+00 2.6579367300e-02 1.5484434053e+00 -2.6819826507e+00 1.5484434053e+00 2.6819826507e+00 
11200 4.9810983489e+00 2.6061188781e-02 1.5475852238e+00 -2.6804962367e+00 1.5475852238e+00 2.6804962367e+00 
11300 4.9809737619e+00 2.5554446228e-02 1.5467433049e+00 -2.6790379904e+00 1.5467433049e+00 2.6790379904e+00 
11400 4.9808527312e+00 2.5059055151e-02 1.5459173059e+00 -2.6776073181e+00 1.5459173059e+00 2.6776073181e+00 
11500 4.9807351401e+00 2.4574918328e-02 1.5451068853e+00 -2.6762036284e+00 1.5451068853e+00 2.6762036284e+00 
11600 4.9806208773e+00 2.4101926733e-02 1.5443117037e+00 -2.6748263336e+00 1.5443117037e+00 2.6748263336e+00 
11700 4.9805098364e+00 2.3639960433e-02 1.5435314242e+00 -2.6734748498e+00 1.5435314242e+00 2.6734748498e+00 
11800 4.9804019158e+00 2.3188889454e-02 1.5427657124e+00 -2.6721485981e+00 1.5427657124e+00 2.6721485981e+00 
11900 4.9802970184e+00 2.2748574609e-02 1.5420142371e+00 -2.6708470047e+00 1.5420142371e+00 2.6708470047e+00 
12000 4.9801950514e+00 2.2318868309e-02 1.5412766707e+00 -2.6695695021e+00 1.5412766707e+00 2.6695695021e+00 
12100 4.9800959257e+00 2.1899615329e-02 1.5405526890e+00 -2.6683155291e+00 1.5405526890e+00 2.6683155291e+00 
12200 4.9799995563e+00 2.1490653550e-02 1.5398419723e+00 -2.6670845317e+00 1.5398419723e+00 2.6670845317e+00 
12300 4.9799058613e+00 2.1091814673e-02 1.5391442050e+00 -2.6658759632e+00 1.5391442050e+00 2.6658759632e+00 
12400 4.9798147624e+00 2.0702924890e-02 1.5384590759e+00 -2.6646892848e+00 1.5384590759e+00 2.6646892848e+00 
12500 4.9797261839e+00 2.0323805542e-02 1.5377862788e+00 -2.6635239661e+00 1.5377862788e+00 2.6635239661e+00 
12600 4.9796400536e+00 1.9954273734e-02 1.5371255124e+00 -2.6623794851e+00 1.5371255124e+00 2.6623794851e+00 
12700 4.9795563015e+00 1.9594142922e-02 1.5364764806e+00 -2.6612553290e+00 1.5364764806e+00 2.6612553290e+00 
12800 4.9794748603e+00 1.9243223481e-02 1.5358388923e+00 -2.6601509937e+00 1.5358388923e+00 2.6601509937e+00 
12900 4.9793956651e+00 1.8901323233e-02 1.5352124622e+00 -2.6590659849e+00 1.5352124622e+00 2.6590659849e+00 
13000 4.9793186532e+00 1.8568247952e-02 1.5345969103e+00 -2.6579998177e+00 1.5345969103e+00 2.6579998177e+00 
13100 4.9792437640e+00 1.8243801844e-02 1.5339919622e+00 -2.6569520170e+00 1.5339919622e+00 2.6569520170e+00 
13200 4.9791709389e+00 1.7927787997e-02 1.5333973495e+00 -2.6559221176e+00 1.5333973495e+00 2.6559221176e+00 
13300 4.9791001210e+00 1.7620008807e-02 1.5328128093e+00 -2.6549096642e+00 1.5328128093e+00 2.6549096642e+00 
13400 4.9790312554e+00 1.7320266380e-02 1.5322380846e+00 -2.6539142119e+00 1.5322380846e+00 2.6539142119e+00 
13500 4.9789642887e+00 1.7028362905e-02 1.5316729244e+00 -2.6529353256e+00 1.5316729244e+00 2.6529353256e+00 
13600 4.9788991690e+00 1.6744101008e-02 1.5311170834e+00 -2.6519725807e+00 1.5311170834e+00 2.6519725807e+00 
13700 4.9788358461e+00 1.6467284086e-02 1.5305703223e+00 -2.6510255628e+00 1.5305703223e+00 2.6510255628e+00 
13800 4.9787742711e+00 1.6197716606e-02 1.5300324078e+00 -2.6500938676e+00 1.5300324078e+00 2.6500938676e+00 
13900 4.9787143964e+00 1.5935204400e-02 1.5295031124e+00 -2.6491771010e+00 1.5295031124e+00 2.6491771010e+00 
14000 4.9786561756e+00 1.5679554923e-02 1.5289822145e+00 -2.6482748794e+00 1.5289822145e+00 2.6482748794e+00 
14100 4.9785995639e+00 1.5430577504e-02 1.5284694983e+00 -2.6473868289e+00 1.5284694983e+00 2.6473868289e+00 
14200 4.9785445172e+00 1.5188083570e-02 1.5279647539e+00 -2.6465125860e+00 1.5279647539e+00 2.6465125860e+00 
14300 4.9784909928e+00 1.4951886853e-02 1.5274677772e+00 -2.6456517970e+00 1.5274677772e+00 2.6456517970e+00 
14400 4.9784389491e+00 1.4721803585e-02 1.5269783695e+00 -2.6448041181e+00 1.5269783695e+00 2.6448041181e+00 
14500 4.9783883454e+00 1.4497652664e-02 1.5264963382e+00 -2.6439692153e+00 1.5264963382e+00 2.6439692153e+00 
14600 4.9783391421e+00 1.4279255817e-02 1.5260214959e+00 -2.6431467643e+00 1.5260214959e+00 2.6431467643e+00 
14700 4.9782913006e+00 1.4066437739e-02 1.5255536608e+00 -2.6423364503e+00 1.5255536608e+00 2.6423364503e+00 
14800 4.9782447833e+00 1.3859026220e-02 1.5250926568e+00 -2.6415379678e+00 1.5250926568e+00 2.6415379678e+00 
14900 4.9781995534e+00 1.3656852260e-02 1.5246383126e+00 -2.6407510207e+00 1.5246383126e+00 2.6407510207e+00 
15000 4.9781555750e+00 1.3459750163e-02 1.5241904627e+00 -2.6399753218e+00 1.5241904627e+00 2.6399753218e+00 
15100 4.9781128133e+00 1.3267557628e-02 1.5237489464e+00 -2.6392105931e+00 1.5237489464e+00 2.6392105931e+00 
15200 4.9780712340e+00 1.3080115821e-02 1.5233136081e+00 -2.6384565650e+00 1.5233136081e+00 2.6384565650e+00 
15300 4.9780308040e+00 1.2897269438e-02 1.5228842972e+00 -2.6377129768e+00 1.5228842972e+00 2.6377129768e+00 
15400 4.9779914909e+00 1.2718866755e-02 1.5224608681e+00 -2.6369795760e+00 1.5224608681e+00 2.6369795760e+00 
15500 4.9779532630e+00 1.2544759674e-02 1.5220431797e+00 -2.6362561185e+00 1.5220431797e+00 2.6362561185e+00 
15600 4.9779160895e+00 1.2374803748e-02 1.5216310957e+00 -2.6355423680e+00 1.5216310957e+00 2.6355423680e+00 
15700 4.9778799404e+00 1.2208858210e-02 1.5212244842e+00 -2.6348380964e+00 1.5212244842e+00 2.6348380964e+00 
15800 4.9778447863e+00 1.2046785982e-02 1.5208232179e+00 -2.6341430828e+00 1.5208232179e+00 2.6341430828e+00 
15900 4.9778105988e+00 1.1888453682e-02 1.5204271738e+00 -2.6334571142e+00 1.5204271738e+00 2.6334571142e+00 
16000 4.9777773502e+00 1.1733731622e-02 1.5200362329e+00 -2.6327799847e+00 1.5200362329e+00 2.6327799847e+00 
16100 4.9777450132e+00 1.1582493802e-02 1.5196502804e+00 -2.6321114954e+00 1.5196502804e+00 2.6321114954e+00 
16200 4.9777135616e+00 1.1434617889e-02 1.5192692056e+00 -2.6314514544e+00 1.5192692056e+00 2.6314514544e+00 
16300 4.9776829698e+00 1.1289985198e-02 1.5188929014e+00 -2.6307996765e+00 1.5188929014e+00 2.6307996765e+00 
16400 4.9776532127e+00 1.1148480667e-02 1.5185212648e+00 -2.6301559830e+00 1.5185212648e+00 2.6301559830e+00 
16500 4.9776242661e+00 1.1009992818e-02 1.5181541961e+00 -2.6295202014e+00 1.5181541961e+00 2.6295202014e+00 
16600 4.9775961065e+00 1.0874413727e-02 1.5177915994e+00 -2.6288921655e+00 1.5177915994e+00 2.6288921655e+00 
16700 4.9775687107e+00 1.0741638976e-02 1.5174333821e+00 -2.6282717148e+00 1.5174333821e+00 2.6282717148e+00 
16800 4.9775420566e+00 1.0611567609e-02 1.5170794548e+00 -2.6276586948e+00 1.5170794548e+00 2.6276586948e+00 
16900 4.9775161224e+00 1.0484102082e-02 1.5167297315e+00 -2.6270529563e+00 1.5167297315e+00 2.6270529563e+00 
17000 4.9774908871e+00 1.0359148210e-02 1.5163841293e+00 -2.6264543557e+00 1.5163841293e+00 2.6264543557e+00 
17100 4.9774663302e+00 1.0236615112e-02 1.5160425681e+00 -2.6258627544e+00 1.5160425681e+00 2.6258627544e+00 
17200 4.9774424318e+00 1.0116415148e-02 1.5157049709e+00 -2.6252780188e+00 1.5157049709e+00 2.6252780188e+00 
17300 4.9774191726e+00 9.9984638618e-03 1.5153712633e+00 -2.6247000204e+00 1.5153712633e+00 2.6247000204e+00 
17400 4.9773965339e+00 9.8826799151e-03 1.5150413738e+00 -2.6241286350e+00 1.5150413738e+00 2.6241286350e+00 
17500 4.9773744975e+00 9.7689850224e-03 1.5147152334e+00 -2.6235637432e+00 1.5147152334e+00 2.6235637432e+00 
17600 4.9773530458e+00 9.6573038844e-03 1.5143927755e+00 -2.6230052297e+00 1.5143927755e+00 2.6230052297e+00 
17700 4.9773321617e+00 9.5475641188e-03 1.5140739360e+00 -2.6224529835e+00 1.5140739360e+00 2.6224529835e+00 
17800 4.9773118285e+00 9.4396961912e-03 1.5137586531e+00 -2.6219068975e+00 1.5137586531e+00 2.6219068975e+00 
17900 4.9772920303e+00 9.3336333445e-03 1.5134468672e+00 -2.6213668685e+00 1.5134468672e+00 2.6213668685e+00 
18000 4.9772727514e+00 9.2293115272e-03 1.5131385208e+00 -2.6208327969e+00 1.5131385208e+00 2.6208327969e+00 
18100 4.9772539768e+00 9.1266693223e-03 1.5128335586e+00 -2.6203045869e+00 1.5128335586e+00 2.6203045869e+00 
18200 4.9772356917e+00 9.0256478744e-03 1.5125319271e+00 -2.6197821457e+00 1.5125319271e+00 2.6197821457e+00 
18300 4.9772178819e+00 8.9261908177e-03 1.5122335746e+00 -2.6192653842e+00 1.5122335746e+00 2.6192653842e+00 
18400 4.9772005339e+00 8.8282442036e-03 1.5119384516e+00 -2.6187542160e+00 1.5119384516e+00 2.6187542160e+00 
18500 4.9771836341e+00 8.7317564287e-03 1.5116465098e+00 -2.6182485581e+00 1.5116465098e+00 2.6182485581e+00 
18600 4.9771671697e+00 8.6366781621e-03 1.5113577029e+00 -2.6177483299e+00 1.5113577029e+00 2.6177483299e+00 
18700 4.9771511283e+00 8.5429622745e-03 1.5110719861e+00 -2.6172534538e+00 1.5110719861e+00 2.6172534538e+00 
18800 4.9771354977e+00 8.4505637668e-03 1.5107893161e+00 -2.6167638549e+00 1.5107893161e+00 2.6167638549e+00 
18900 4.9771202662e+00 8.3594396994e-03 1.5105096509e+00 -2.6162794607e+00 1.5105096509e+00 2.6162794607e+00 
19000 4.9771054224e+00 8.2695491230e-03 1.5102329501e+00 -2.6158002008e+00 1.5102329501e+00 2.6158002008e+00 
19100 4.9770909554e+00 8.1808530090e-03 1.5099591745e+00 -2.6153260075e+00 1.5099591745e+00 2.6153260075e+00 
19200 4.9770768546e+00 8.0933141818e-03 1.5096882861e+00 -2.6148568151e+00 1.5096882861e+00 2.6148568151e+00 
19300 4.9770631095e+00 8.0068972515e-03 1.5094202481e+00 -2.6143925598e+00 1.5094202481e+00 2.6143925598e+00 
19400 4.9770497103e+00 7.9215685481e-03 1.5091550250e+00 -2.6139331798e+00 1.5091550250e+00 2.6139331798e+00 
19500 4.9770366473e+00 7.8372960561e-03 1.5088925822e+00 -2.6134786155e+00 1.5088925822e+00 2.6134786155e+00 
19600 4.9770239110e+00 7.7540493512e-03 1.5086328861e+00 -2.6130288086e+00 1.5086328861e+00 2.6130288086e+00 
19700 4.9770114926e+00 7.6717995371e-03 1.5083759041e+00 -2.6125837028e+00 1.5083759041e+00 2.6125837028e+00 
19800 4.9769993831e+00 7.5905191848e-03 1.5081216046e+00 -2.6121432432e+00 1.5081216046e+00 2.6121432432e+00 
19900 4.9769875741e+00 7.5101822720e-03 1.5078699569e+00 -2.6117073765e+00 1.5078699569e+00 2.6117073765e+00 
20000 4.9769760573e+00 7.4307641247e-03 1.5076209309e+00 -2.6112760509e+00 1.5076209309e+00 2.6112760509e+00 
20100 4.9769648249e+00 7.3522413595e-03 1.5073744975e+00 -2.6108492158e+00 1.5073744975e+00 2.6108492158e+00 
20200 4.9769538689e+00 7.2745918280e-03 1.5071306284e+00 -2.6104268220e+00 1.5071306284e+00 2.6104268220e+00 
20300 4.9769431821e+00 7.1977945620e-03 1.5068892957e+00 -2.6100088215e+00 1.5068892957e+00 2.6100088215e+00 
20400 4.9769327570e+00 7.1218297200e-03 1.5066504724e+00 -2.6095951675e+00 1.5066504724e+00 2.6095951675e+00 
20500 4.9769225867e+00 7.0466785360e-03 1.5064141322e+00 -2.6091858141e+00 1.5064141322e+00 2.6091858141e+00 
20600 4.9769126644e+00 6.9723232688e-03 1.5061802491e+00 -2.6087807167e+00 1.5061802491e+00 2.6087807167e+00 
20700 4.9769029835e+00 6.8987471532e-03 1.5059487979e+00 -2.6083798315e+00 1.5059487979e+00 2.6083798315e+00 
20800 4.9768935375e+00 6.8259343524e-03 1.5057197538e+00 -2.6079831155e+00 1.5057197538e+00 2.6079831155e+00 
20900 4.9768843203e+00 6.7538699124e-03 1.5054930927e+00 -2.6075905269e+00 1.5054930927e+00 2.6075905269e+00 
21000 4.9768753258e+00 6.6825397167e-03 1.5052687907e+00 -2.6072020245e+00 1.5052687907e+00 2.6072020245e+00 
21100 4.9768665482e+00 6.6119304438e-03 1.5050468245e+00 -2.6068175678e+00 1.5050468245e+00 2.6068175678e+00 
21200 4.9768579819e+00 6.5420295252e-03 1.5048271712e+00 -2.6064371171e+00 1.5048271712e+00 2.6064371171e+00 
21300 4.9768496212e+00 6.4728251049e-03 1.5046098083e+00 -2.6060606335e+00 1.5046098083e+00 2.6060606335e+00 
21400 4.9768414610e+00 6.4043060007e-03 1.5043947136e+00 -2.6056880786e+00 1.5043947136e+00 2.6056880786e+00 
21500 4.9768334960e+00 6.3364616665e-03 1.5041818654e+00 -2.6053194147e+00 1.5041818654e+00 2.6053194147e+00 
21600 4.9768257212e+00 6.2692821560e-03 1.5039712421e+00 -2.6049546045e+00 1.5039712421e+00 2.6049546045e+00 
21700 4.9768181317e+00 6.2027580879e-03 1.5037628227e+00 -2.6045936114e+00 1.5037628227e+00 2.6045936114e+00 
21800 4.9768107228e+00 6.1368806125e-03 1.5035565862e+00 -2.6042363993e+00 1.5035565862e+00 2.6042363993e+00 
21900 4.9768034899e+00 6.0716413792e-03 1.5033525120e+00 -2.6038829324e+00 1.5033525120e+00 2.6038829324e+00 
22000 4.9767964285e+00 6.0070325055e-03 1.5031505798e+00 -2.6035331756e+00 1.5031505798e+00 2.6035331756e+00 
22100 4.9767895343e+00 5.9430465474e-03 1.5029507695e+00 -2.6031870940e+00 1.5029507695e+00 2.6031870940e+00 
22200 4.9767828031e+00 5.8796764709e-03 1.5027530612e+00 -2.6028446532e+00 1.5027530612e+00 2.6028446532e+00 
22300 4.9767762307e+00 5.8169156247e-03 1.5025574353e+00 -2.6025058192e+00 1.5025574353e+00 2.6025058192e+00 
22400 4.9767698131e+00 5.7547577139e-03 1.5023638723e+00 -2.6021705582e+00 1.5023638723e+00 2.6021705582e+00 
22500 4.9767635466e+00 5.6931967751e-03 1.5021723529e+00 -2.6018388370e+00 1.5021723529e+00 2.6018388370e+00 
22600 4.9767574273e+00 5.6322271527e-03 1.5019828581e+00 -2.6015106224e+00 1.5019828581e+00 2.6015106224e+00 
22700 4.9767514516e+00 5.5718434759e-03 1.5017953690e+00 -2.6011858816e+00 1.5017953690e+00 2.6011858816e+00 
22800 4.9767456159e+00 5.5120406373e-03 1.5016098667e+00 -2.6008645823e+00 1.5016098667e+00 2.6008645823e+00 
22900 4.9767399167e+00 5.4528137719e-03 1.5014263327e+00 -2.6005466921e+00 1.5014263327e+00 2.6005466921e+00 
23000 4.9767343507e+00 5.3941582377e-03 1.5012447486e+00 -2.6002321792e+00 1.5012447486e+00 2.6002321792e+00 
23100 4.9767289146e+00 5.3360695970e-03 1.5010650960e+00 -2.5999210117e+00 1.5010650960e+00 2.5999210117e+00 
23200 4.9767236051e+00 5.2785435988e-03 1.5008873567e+00 -2.5996131583e+00 1.5008873567e+00 2.5996131583e+00 
23300 4.9767184193e+00 5.2215761616e-03 1.5007115127e+00 -2.5993085876e+00 1.5007115127e+00 2.5993085876e+00 
23400 4.9767133540e+00 5.1651633580e-03 1.5005375461e+00 -2.5990072685e+00 1.5005375461e+00 2.5990072685e+00 
23500 4.9767084064e+00 5.1093013997e-03 1.5003654389e+00 -2.5987091702e+00 1.5003654389e+00 2.5987091702e+00 
23600 4.9767035735e+00 5.0539866229e-03 1.5001951736e+00 -2.5984142619e+00 1.5001951736e+00 2.5984142619e+00 
23700 4.9766988525e+00 4.9992154752e-03 1.5000267324e+00 -2.5981225133e+00 1.5000267324e+00 2.5981225133e+00 
23800 4.9766942409e+00 4.9449845033e-03 1.4998600980e+00 -2.5978338939e+00 1.4998600980e+00 2.5978338939e+00 
23900 4.9766897358e+00 4.8912903406e-03 1.4996952528e+00 -2.5975483737e+00 1.4996952528e+00 2.5975483737e+00 
24000 4.9766853347e+00 4.8381296968e-03 1.4995321796e+00 -2.5972659227e+00 1.4995321796e+00 2.5972659227e+00 
24100 4.9766810351e+00 4.7854993470e-03 1.4993708612e+00 -2.5969865110e+00 1.4993708612e+00 2.5969865110e+00 
24200 4.9766768346e+00 4.7333961223e-03 1.4992112805e+00 -2.5967101090e+00 1.4992112805e+00 2.5967101090e+00 
24300 4.9766727308e+00 4.6818169005e-03 1.4990534204e+00 -2.5964366873e+00 1.4990534204e+00 2.5964366873e+00 
24400 4.9766687213e+00 4.6307585981e-03 1.4988972640e+00 -2.5961662165e+00 1.4988972640e+00 2.5961662165e+00 
24500 4.9766648039e+00 4.5802181622e-03 1.4987427944e+00 -2.5958986674e+00 1.4987427944e+00 2.5958986674e+00 
24600 4.9766609763e+00 4.5301925634e-03 1.4985899950e+00 -2.5956340111e+00 1.4985899950e+00 2.5956340111e+00 
24700 4.9766572365e+00 4.4806787888e-03 1.4984388491e+00 -2.5953722186e+00 1.4984388491e+00 2.5953722186e+00 
24800 4.9766535824e+00 4.4316738364e-03 1.4982893400e+00 -2.5951132613e+00 1.4982893400e+00 2.5951132613e+00 
24900 4.9766500118e+00 4.3831747092e-03 1.4981414513e+00 -2.5948571106e+00 1.4981414513e+00 2.5948571106e+00 
25000 4.9766465228e+00 4.3351784099e-03 1.4979951666e+00 -2.5946037380e+00 1.4979951666e+00 2.5946037380e+00 
25100 4.9766431135e+00 4.2876819364e-03 1.4978504696e+00 -2.5943531155e+00 1.4978504696e+00 2.5943531155e+00 
25200 4.9766397820e+00 4.2406822776e-03 1.4977073440e+00 -2.5941052147e+00 1.4977073440e+00 2.5941052147e+00 
25300 4.9766365263e+00 4.1941764093e-03 1.4975657738e+00 -2.5938600079e+00 1.4975657738e+00 2.5938600079e+00 
25400 4.9766333448e+00 4.1481612912e-03 1.4974257428e+00 -2.5936174672e+00 1.4974257428e+00 2.5936174672e+00 
25500 4.9766302357e+00 4.1026338634e-03 1.4972872352e+00 -2.5933775649e+00 1.4972872352e+00 2.5933775649e+00 
25600 4.9766271972e+00 4.0575910440e-03 1.4971502351e+00 -2.5931402737e+00 1.4971502351e+00 2.5931402737e+00 
25700 4.9766242277e+00 4.0130297266e-03 1.4970147267e+00 -2.5929055662e+00 1.4970147267e+00 2.5929055662e+00 
25800 4.9766213255e+00 3.9689467785e-03 1.4968806942e+00 -2.5926734153e+00 1.4968806942e+00 2.5926734153e+00 
25900 4.9766184892e+00 3.9253390388e-03 1.4967481223e+00 -2.5924437939e+00 1.4967481223e+00 2.5924437939e+00 
26000 4.9766157170e+00 3.8822033168e-03 1.4966169953e+00 -2.5922166753e+00 1.4966169953e+00 2.5922166753e+00 
26100 4.9766130076e+00 3.8395363913e-03 1.4964872979e+00 -2.5919920328e+00 1.4964872979e+00 2.5919920328e+00 
26200 4.9766103594e+00 3.7973350092e-03 1.4963590147e+00 -2.5917698399e+00 1.4963590147e+00 2.5917698399e+00 
26300 4.9766077710e+00 3.7555958853e-03 1.4962321307e+00 -2.5915500703e+00 1.4962321307e+00 2.5915500703e+00 
26400 4.9766052410e+00 3.7143157014e-03 1.4961066307e+00 -2.5913326979e+00 1.4961066307e+00 2.5913326979e+00 
26500 4.9766027681e+00 3.6734911064e-03 1.4959824997e+00 -2.5911176967e+00 1.4959824997e+00 2.5911176967e+00 
26600 4.9766003509e+00 3.6331187162e-03 1.4958597228e+00 -2.5909050409e+00 1.4958597228e+00 2.5909050409e+00 
26700 4.9765979881e+00 3.5931951138e-03 1.4957382853e+00 -2.5906947050e+00 1.4957382853e+00 2.5906947050e+00 
26800 4.9765956784e+00 3.5537168495e-03 1.4956181725e+00 -2.5904866634e+00 1.4956181725e+00 2.5904866634e+00 
26900 4.9765934207e+00 3.5146804418e-03 1.4954993698e+00 -2.5902808911e+00 1.4954993698e+00 2.5902808911e+00 
27000 4.9765912136e+00 3.4760823773e-03 1.4953818627e+00 -2.5900773629e+00 1.4953818627e+00 2.5900773629e+00 
27100 4.9765890561e+00 3.4379191122e-03 1.4952656370e+00 -2.5898760540e+00 1.4952656370e+00 2.5898760540e+00 
27200 4.9765869469e+00 3.4001870728e-03 1.4951506783e+00 -2.5896769398e+00 1.4951506783e+00 2.5896769398e+00 
27300 4.9765848850e+00 3.3628826564e-03 1.4950369726e+00 -2.5894799957e+00 1.4950369726e+00 2.5894799957e+00 
27400 4.9765828692e+00 3.3260022327e-03 1.4949245058e+00 -2.5892851975e+00 1.4949245058e+00 2.5892851975e+00 
27500 4.9765808986e+00 3.2895421448e-03 1.4948132640e+00 -2.5890925211e+00 1.4948132640e+00 2.5890925211e+00 
27600 4.9765789720e+00 3.2534987102e-03 1.4947032335e+00 -2.5889019426e+00 1.4947032335e+00 2.5889019426e+00 
27700 4.9765770884e+00 3.2178682229e-03 1.4945944005e+00 -2.5887134384e+00 1.4945944005e+00 2.5887134384e+00 
27800 4.9765752468e+00 3.1826469539e-03 1.4944867516e+00 -2.5885269850e+00 1.4944867516e+00 2.5885269850e+00 
27900 4.9765734464e+00 3.1478311533e-03 1.4943802733e+00 -2.5883425591e+00 1.4943802733e+00 2.5883425591e+00 
28000 4.9765716860e+00 3.1134170515e-03 1.4942749522e+00 -2.5881601377e+00 1.4942749522e+00 2.5881601377e+00 
28100 4.9765699649e+00 3.0794008610e-03 1.4941707752e+00 -2.5879796979e+00 1.4941707752e+00 2.5879796979e+00 
28200 4.9765682821e+00 3.0457787777e-03 1.4940677293e+00 -2.5878012170e+00 1.4940677293e+00 2.5878012170e+00 
28300 4.9765666367e+00 3.0125469827e-03 1.4939658014e+00 -2.5876246727e+00 1.4939658014e+00 2.5876246727e+00 
28400 4.9765650279e+00 2.9797016440e-03 1.4938649787e+00 -2.5874500427e+00 1.4938649787e+00 2.5874500427e+00 
28500 4.9765634548e+00 2.9472389181e-03 1.4937652485e+00 -2.5872773049e+00 1.4937652485e+00 2.5872773049e+00 
28600 4.9765619166e+00 2.9151549514e-03 1.4936665982e+00 -2.5871064377e+00 1.4936665982e+00 2.5871064377e+00 
28700 4.9765604126e+00 2.8834458826e-03 1.4935690154e+00 -2.5869374193e+00 1.4935690154e+00 2.5869374193e+00 
28800 4.9765589419e+00 2.8521078434e-03 1.4934724878e+00 -2.5867702285e+00 1.4934724878e+00 2.5867702285e+00 
28900 4.9765575038e+00 2.8211369612e-03 1.4933770030e+00 -2.5866048440e+00 1.4933770030e+00 2.5866048440e+00 
29000 4.9765560976e+00 2.7905293599e-03 1.4932825490e+00 -2.5864412450e+00 1.4932825490e+00 2.5864412450e+00 
29100 4.9765547225e+00 2.7602811622e-03 1.4931891139e+00 -2.5862794106e+00 1.4931891139e+00 2.5862794106e+00 
29200 4.9765533778e+00 2.7303884909e-03 1.4930966858e+00 -2.5861193205e+00 1.4930966858e+00 2.5861193205e+00 
29300 4.9765520628e+00 2.7008474707e-03 1.4930052530e+00 -2.5859609542e+00 1.4930052530e+00 2.5859609542e+00 
29400 4.9765507769e+00 2.6716542297e-03 1.4929148039e+00 -2.5858042917e+00 1.4929148039e+00 2.5858042917e+00 
29500 4.9765495194e+00 2.6428049011e-03 1.4928253270e+00 -2.5856493132e+00 1.4928253270e+00 2.5856493132e+00 
29600 4.9765482897e+00 2.6142956248e-03 1.4927368110e+00 -2.5854959990e+00 1.4927368110e+00 2.5854959990e+00 
29700 4.9765470870e+00 2.5861225486e-03 1.4926492447e+00 -2.5853443296e+00 1.4926492447e+00 2.5853443296e+00 
29800 4.9765459109e+00 2.5582818302e-03 1.4925626169e+00 -2.5851942859e+00 1.4925626169e+00 2.5851942859e+00 
29900 4.9765447608e+00 2.5307696383e-03 1.4924769167e+00 -2.5850458489e+00 1.4924769167e+00 2.5850458489e+00 
30000 4.9765436359e+00 2.5035821542e-03 1.4923921333e+00 -2.5848989997e+00 1.4923921333e+00 2.5848989997e+00 
30100 4.9765425359e+00 2.4767155734e-03 1.4923082559e+00 -2.5847537198e+00 1.4923082559e+00 2.5847537198e+00 
30200 4.9765414600e+00 2.4501661062e-03 1.4922252740e+00 -2.5846099909e+00 1.4922252740e+00 2.5846099909e+00 
30300 4.9765404078e+00 2.4239299801e-03 1.4921431770e+00 -2.5844677948e+00 1.4921431770e+00 2.5844677948e+00 
30400 4.9765393788e+00 2.3980034404e-03 1.4920619547e+00 -2.5843271135e+00 1.4920619547e+00 2.5843271135e+00 
30500 4.9765383723e+00 2.3723827513e-03 1.4919815967e+00 -2.5841879294e+00 1.4919815967e+00 2.5841879294e+00 
30600 4.9765373880e+00 2.3470641977e-03 1.4919020929e+00 -2.5840502249e+00 1.4919020929e+00 2.5840502249e+00 
30700 4.9765364253e+00 2.3220440860e-03 1.4918234335e+00 -2.5839139828e+00 1.4918234335e+00 2.5839139828e+00 
30800 4.9765354838e+00 2.2973187451e-03 1.4917456085e+00 -2.5837791859e+00 1.4917456085e+00 2.5837791859e+00 
30900 4.9765345629e+00 2.2728845279e-03 1.4916686081e+00 -2.5836458173e+00 1.4916686081e+00 2.5836458173e+00 
31000 4.9765336622e+00 2.2487378117e-03 1.4915924228e+00 -2.5835138605e+00 1.4915924228e+00 2.5835138605e+00 
31100 4.9765327813e+00 2.2248749999e-03 1.4915170430e+00 -2.5833832988e+00 1.4915170430e+00 2.5833832988e+00 
31200 4.9765319197e+00 2.2012925223e-03 1.4914424593e+00 -2.5832541161e+00 1.4914424593e+00 2.5832541161e+00 
31300 4.9765310770e+00 2.1779868364e-03 1.4913686625e+00 -2.5831262963e+00 1.4913686625e+00 2.5831262963e+00 
31400 4.9765302527e+00 2.1549544280e-03 1.4912956434e+00 -2.5829998234e+00 1.4912956434e+00 2.5829998234e+00 
31500 4.9765294465e+00 2.1321918123e-03 1.4912233929e+00 -2.5828746819e+00 1.4912233929e+00 2.5828746819e+00 
31600 4.9765286580e+00 2.1096955343e-03 1.4911519021e+00 -2.5827508562e+00 1.4911519021e+00 2.5827508562e+00 
31700 4.9765278867e+00 2.0874621697e-03 1.4910811622e+00 -2.5826283311e+00 1.4910811622e+00 2.5826283311e+00 
31800 4.9765271323e+00 2.0654883256e-03 1.4910111644e+00 -2.5825070915e+00 1.4910111644e+00 2.5825070915e+00 
31900 4.9765263944e+00 2.0437706412e-03 1.4909419003e+00 -2.5823871224e+00 1.4909419003e+00 2.5823871224e+00 
32000 4.9765256726e+00 2.0223057881e-03 1.4908733612e+00 -2.5822684093e+00 1.4908733612e+00 2.5822684093e+00 
32100 4.9765249667e+00 2.0010904710e-03 1.4908055389e+00 -2.5821509376e+00 1.4908055389e+00 2.5821509376e+00 
32200 4.9765242761e+00 1.9801214284e-03 1.4907384250e+00 -2.5820346929e+00 1.4907384250e+00 2.5820346929e+00 
32300 4.9765236007e+00 1.9593954327e-03 1.4906720114e+00 -2.5819196611e+00 1.4906720114e+00 2.5819196611e+00 
32400 4.9765229401e+00 1.9389092909e-03 1.4906062900e+00 -2.5818058283e+00 1.4906062900e+00 2.5818058283e+00 
32500 4.9765222938e+00 1.9186598450e-03 1.4905412528e+00 -2.5816931807e+00 1.4905412528e+00 2.5816931807e+00 
32600 4.9765216617e+00 1.8986439719e-03 1.4904768921e+00 -2.5815817047e+00 1.4904768921e+00 2.5815817047e+00 
32700 4.9765210434e+00 1.8788585844e-03 1.4904132001e+00 -2.5814713868e+00 1.4904132001e+00 2.5814713868e+00 
32800 4.9765204386e+00 1.8593006310e-03 1.4903501691e+00 -2.5813622139e+00 1.4903501691e+00 2.5813622139e+00 
32900 4.9765198471e+00 1.8399670961e-03 1.4902877915e+00 -2.5812541728e+00 1.4902877915e+00 2.5812541728e+00 
33000 4.9765192684e+00 1.8208550005e-03 1.4902260600e+00 -2.5811472507e+00 1.4902260600e+00 2.5811472507e+00 
33100 4.9765187024e+00 1.8019614014e-03 1.4901649672e+00 -2.5810414348e+00 1.4901649672e+00 2.5810414348e+00 
33200 4.9765181487e+00 1.7832833927e-03 1.4901045058e+00 -2.5809367126e+00 1.4901045058e+00 2.5809367126e+00 
33300 4.9765176071e+00 1.7648181046e-03 1.4900446686e+00 -2.5808330716e+00 1.4900446686e+00 2.5808330716e+00 
33400 4.9765170774e+00 1.7465627045e-03 1.4899854487e+00 -2.5807304997e+00 1.4899854487e+00 2.5807304997e+00 
33500 4.9765165592e+00 1.7285143962e-03 1.4899268391e+00 -2.5806289848e+00 1.4899268391e+00 2.5806289848e+00 
33600 4.9765160523e+00 1.7106704204e-03 1.4898688327e+00 -2.5805285149e+00 1.4898688327e+00 2.5805285149e+00 
33700 4.9765155565e+00 1.6930280547e-03 1.4898114230e+00 -2.5804290783e+00 1.4898114230e+00 2.5804290783e+00 
33800 4.9765150715e+00 1.6755846133e-03 1.4897546032e+00 -2.5803306635e+00 1.4897546032e+00 2.5803306635e+00 
33900 4.9765145971e+00 1.6583374472e-03 1.4896983666e+00 -2.5802332589e+00 1.4896983666e+00 2.5802332589e+00 
34000 4.9765141330e+00 1.6412839438e-03 1.4896427067e+00 -2.5801368532e+00 1.4896427067e+00 2.5801368532e+00 
34100 4.9765136791e+00 1.6244215272e-03 1.4895876172e+00 -2.5800414354e+00 1.4895876172e+00 2.5800414354e+00 
34200 4.9765132350e+00 1.6077476578e-03 1.4895330917e+00 -2.5799469944e+00 1.4895330917e+00 2.5799469944e+00 
34300 4.9765128007e+00 1.5912598319e-03 1.4894791238e+00 -2.5798535193e+00 1.4894791238e+00 2.5798535193e+00 
34400 4.9765123758e+00 1.5749555821e-03 1.4894257075e+00 -2.5797609995e+00 1.4894257075e+00 2.5797609995e+00 
34500 4.9765119602e+00 1.5588324767e-03 1.4893728366e+00 -2.5796694244e+00 1.4893728366e+00 2.5796694244e+00 
34600 4.9765115537e+00 1.5428881196e-03 1.4893205050e+00 -2.5795787835e+00 1.4893205050e+00 2.5795787835e+00 
34700 4.9765111561e+00 1.5271201499e-03 1.4892687070e+00 -2.5794890666e+00 1.4892687070e+00 2.5794890666e+00 
34800 4.9765107671e+00 1.5115262421e-03 1.4892174364e+00 -2.5794002634e+00 1.4892174364e+00 2.5794002634e+00 
34900 4.9765103866e+00 1.4961041051e-03 1.4891666877e+00 -2.5793123641e+00 1.4891666877e+00 2.5793123641e+00 
35000 4.9765100144e+00 1.4808514828e-03 1.4891164551e+00 -2.5792253586e+00 1.4891164551e+00 2.5792253586e+00 
35100 4.9765096504e+00 1.4657661529e-03 1.4890667329e+00 -2.5791392372e+00 1.4890667329e+00 2.5791392372e+00 
35200 4.9765092943e+00 1.4508459274e-03 1.4890175155e+00 -2.5790539902e+00 1.4890175155e+00 2.5790539902e+00 
35300 4.9765089459e+00 1.4360886516e-03 1.4889687976e+00 -2.5789696083e+00 1.4889687976e+00 2.5789696083e+00 
35400 4.9765086052e+00 1.4214922043e-03 1.4889205735e+00 -2.5788860818e+00 1.4889205735e+00 2.5788860818e+00 
35500 4.9765082719e+00 1.4070544970e-03 1.4888728381e+00 -2.5788034017e+00 1.4888728381e+00 2.5788034017e+00 
35600 4.9765079459e+00 1.3927734739e-03 1.4888255861e+00 -2.5787215586e+00 1.4888255861e+00 2.5787215586e+00 
35700 4.9765076271e+00 1.3786471114e-03 1.4887788121e+00 -2.5786405437e+00 1.4887788121e+00 2.5786405437e+00 
35800 4.9765073152e+00 1.3646734176e-03 1.4887325110e+00 -2.5785603480e+00 1.4887325110e+00 2.5785603480e+00 
35900 4.9765070101e+00 1.3508504322e-03 1.4886866779e+00 -2.5784809626e+00 1.4886866779e+00 2.5784809626e+00 
36000 4.9765067116e+00 1.3371762257e-03 1.4886413076e+00 -2.5784023789e+00 1.4886413076e+00 2.5784023789e+00 
36100 4.9765064197e+00 1.3236488996e-03 1.4885963951e+00 -2.5783245883e+00 1.4885963951e+00 2.5783245883e+00 
36200 4.9765061342e+00 1.3102665852e-03 1.4885519357e+00 -2.5782475824e+00 1.4885519357e+00 2.5782475824e+00 
36300 4.9765058550e+00 1.2970274440e-03 1.4885079245e+00 -2.5781713527e+00 1.4885079245e+00 2.5781713527e+00 
36400 4.9765055818e+00 1.2839296668e-03 1.4884643567e+00 -2.5780958910e+00 1.4884643567e+00 2.5780958910e+00 
36500 4.9765053146e+00 1.2709714732e-03 1.4884212275e+00 -2.5780211892e+00 1.4884212275e+00 2.5780211892e+00 
36600 4.9765050533e+00 1.2581511117e-03 1.4883785325e+00 -2.5779472391e+00 1.4883785325e+00 2.5779472391e+00 
36700 4.9765047977e+00 1.2454668588e-03 1.4883362668e+00 -2.5778740329e+00 1.4883362668e+00 2.5778740329e+00 
36800 4.9765045476e+00 1.2329170187e-03 1.4882944261e+00 -2.5778015626e+00 1.4882944261e+00 2.5778015626e+00 
36900 4.9765043031e+00 1.2204999229e-03 1.4882530058e+00 -2.5777298206e+00 1.4882530058e+00 2.5777298206e+00 
37000 4.9765040639e+00 1.2082139299e-03 1.4882120016e+00 -2.5776587992e+00 1.4882120016e+00 2.5776587992e+00 
37100 4.9765038300e+00 1.1960574245e-03 1.4881714090e+00 -2.5775884907e+00 1.4881714090e+00 2.5775884907e+00 
37200 4.9765036011e+00 1.1840288176e-03 1.4881312237e+00 -2.5775188877e+00 1.4881312237e+00 2.5775188877e+00 
37300 4.9765033774e+00 1.1721265457e-03 1.4880914414e+00 -2.5774499829e+00 1.4880914414e+00 2.5774499829e+00 
37400 4.9765031585e+00 1.1603490703e-03 1.4880520581e+00 -2.5773817689e+00 1.4880520581e+00 2.5773817689e+00 
37500 4.9765029444e+00 1.1486948779e-03 1.4880130694e+00 -2.5773142385e+00 1.4880130694e+00 2.5773142385e+00 
37600 4.9765027350e+00 1.1371624790e-03 1.4879744713e+00 -2.5772473846e+00 1.4879744713e+00 2.5772473846e+00 
37700 4.9765025302e+00 1.1257504082e-03 1.4879362597e+00 -2.5771812002e+00 1.4879362597e+00 2.5771812002e+00 
37800 4.9765023299e+00 1.1144572235e-03 1.4878984306e+00 -2.5771156782e+00 1.4878984306e+00 2.5771156782e+00 
37900 4.9765021341e+00 1.1032815059e-03 1.4878609800e+00 -2.5770508120e+00 1.4878609800e+00 2.5770508120e+00 
38000 4.9765019425e+00 1.0922218589e-03 1.4878239041e+00 -2.5769865946e+00 1.4878239041e+00 2.5769865946e+00 
38100 4.9765017551e+00 1.0812769085e-03 1.4877871989e+00 -2.5769230193e+00 1.4877871989e+00 2.5769230193e+00 
38200 4.9765015719e+00 1.0704453022e-03 1.4877508606e+00 -2.5768600795e+00 1.4877508606e+00 2.5768600795e+00 
38300 4.9765013927e+00 1.0597257091e-03 1.4877148854e+00 -2.5767977688e+00 1.4877148854e+00 2.5767977688e+00 
38400 4.9765012174e+00 1.0491168190e-03 1.4876792697e+00 -2.5767360805e+00 1.4876792697e+00 2.5767360805e+00 
38500 4.9765010460e+00 1.0386173426e-03 1.4876440097e+00 -2.5766750083e+00 1.4876440097e+00 2.5766750083e+00 
38600 4.9765008784e+00 1.0282260105e-03 1.4876091017e+00 -2.5766145459e+00 1.4876091017e+00 2.5766145459e+00 
38700 4.9765007145e+00 1.0179415733e-03 1.4875745421e+00 -2.5765546870e+00 1.4875745421e+00 2.5765546870e+00 
38800 4.9765005542e+00 1.0077628010e-03 1.4875403274e+00 -2.5764954254e+00 1.4875403274e+00 2.5764954254e+00 
38900 4.9765003974e+00 9.9768848237e-04 1.4875064541e+00 -2.5764367551e+00 1.4875064541e+00 2.5764367551e+00 
39000 4.9765002441e+00 9.8771742507e-04 1.4874729186e+00 -2.5763786700e+00 1.4874729186e+00 2.5763786700e+00 
39100 4.9765000942e+00 9.7784845496e-04 1.4874397176e+00 -2.5763211640e+00 1.4874397176e+00 2.5763211640e+00 
39200 4.9764999476e+00 9.6808041579e-04 1.4874068475e+00 -2.5762642314e+00 1.4874068475e+00 2.5762642314e+00 
39300 4.9764998043e+00 9.5841216885e-04 1.4873743051e+00 -2.5762078662e+00 1.4873743051e+00 2.5762078662e+00 
39400 4.9764996641e+00 9.4884259263e-04 1.4873420869e+00 -2.5761520628e+00 1.4873420869e+00 2.5761520628e+00 
39500 4.9764995270e+00 9.3937058247e-04 1.4873101898e+00 -2.5760968153e+00 1.4873101898e+00 2.5760968153e+00 
39600 4.9764993930e+00 9.2999505017e-04 1.4872786104e+00 -2.5760421182e+00 1.4872786104e+00 2.5760421182e+00 
39700 4.9764992619e+00 9.2071492371e-04 1.4872473455e+00 -2.5759879658e+00 1.4872473455e+00 2.5759879658e+00 
39800 4.9764991337e+00 9.1152914688e-04 1.4872163919e+00 -2.5759343527e+00 1.4872163919e+00 2.5759343527e+00 
39900 4.9764990084e+00 9.0243667896e-04 1.4871857466e+00 -2.5758812734e+00 1.4871857466e+00 2.5758812734e+00 
40000 4.9764988859e+00 8.9343649439e-04 1.4871554063e+00 -2.5758287224e+00 1.4871554063e+00 2.5758287224e+00 
40100 4.9764987661e+00 8.8452758250e-04 1.4871253679e+00 -2.5757766945e+00 1.4871253679e+00 2.5757766945e+00 
40200 4.9764986490e+00 8.7570894714e-04 1.4870956285e+00 -2.5757251843e+00 1.4870956285e+00 2.5757251843e+00 
40300 4.9764985344e+00 8.6697960639e-04 1.4870661850e+00 -2.5756741867e+00 1.4870661850e+00 2.5756741867e+00 
40400 4.9764984225e+00 8.5833859231e-04 1.4870370344e+00 -2.5756236964e+00 1.4870370344e+00 2.5756236964e+00 
40500 4.9764983130e+00 8.4978495058e-04 1.4870081738e+00 -2.5755737083e+00 1.4870081738e+00 2.5755737083e+00 
40600 4.9764982059e+00 8.4131774026e-04 1.4869796003e+00 -2.5755242175e+00 1.4869796003e+00 2.5755242175e+00 
40700 4.9764981013e+00 8.3293603350e-04 1.4869513109e+00 -2.5754752188e+00 1.4869513109e+00 2.5754752188e+00 
40800 4.9764979990e+00 8.2463891526e-04 1.4869233028e+00 -2.5754267074e+00 1.4869233028e+00 2.5754267074e+00 
40900 4.9764978990e+00 8.1642548304e-04 1.4868955732e+00 -2.5753786783e+00 1.4868955732e+00 2.5753786783e+00 
41000 4.9764978012e+00 8.0829484661e-04 1.4868681192e+00 -2.5753311266e+00 1.4868681192e+00 2.5753311266e+00 
41100 4.9764977056e+00 8.0024612780e-04 1.4868409382e+00 -2.5752840477e+00 1.4868409382e+00 2.5752840477e+00 
41200 4.9764976121e+00 7.9227846019e-04 1.4868140273e+00 -2.5752374367e+00 1.4868140273e+00 2.5752374367e+00 
41300 4.9764975208e+00 7.8439098889e-04 1.4867873839e+00 -2.5751912890e+00 1.4867873839e+00 2.5751912890e+00 
41400 4.9764974315e+00 7.7658287031e-04 1.4867610052e+00 -2.5751455998e+00 1.4867610052e+00 2.5751455998e+00 
41500 4.9764973442e+00 7.6885327192e-04 1.4867348887e+00 -2.5751003647e+00 1.4867348887e+00 2.5751003647e+00 
41600 4.9764972588e+00 7.6120137200e-04 1.4867090317e+00 -2.5750555790e+00 1.4867090317e+00 2.5750555790e+00 
41700 4.9764971754e+00 7.5362635945e-04 1.4866834316e+00 -2.5750112382e+00 1.4866834316e+00 2.5750112382e+00 
41800 4.9764970939e+00 7.4612743358e-04 1.4866580857e+00 -2.5749673380e+00 1.4866580857e+00 2.5749673380e+00 
41900 4.9764970142e+00 7.3870380384e-04 1.4866329917e+00 -2.5749238738e+00 1.4866329917e+00 2.5749238738e+00 
42000 4.9764969363e+00 7.3135468968e-04 1.4866081469e+00 -2.5748808414e+00 1.4866081469e+00 2.5748808414e+00 
42100 4.9764968602e+00 7.2407932031e-04 1.4865835489e+00 -2.5748382363e+00 1.4865835489e+00 2.5748382363e+00 
42200 4.9764967857e+00 7.1687693451e-04 1.4865591951e+00 -2.5747960544e+00 1.4865591951e+00 2.5747960544e+00 
42300 4.9764967130e+00 7.0974678045e-04 1.4865350832e+00 -2.5747542914e+00 1.4865350832e+00 2.5747542914e+00 
42400 4.9764966419e+00 7.0268811550e-04 1.4865112108e+00 -2.5747129431e+00 1.4865112108e+00 2.5747129431e+00 
42500 4.9764965725e+00 6.9570020605e-04 1.4864875754e+00 -2.5746720053e+00 1.4864875754e+00 2.5746720053e+00 
42600 4.9764965046e+00 6.8878232732e-04 1.4864641746e+00 -2.5746314741e+00 1.4864641746e+00 2.5746314741e+00 
42700 4.9764964382e+00 6.8193376320e-04 1.4864410062e+00 -2.5745913452e+00 1.4864410062e+00 2.5745913452e+00 
42800 4.9764963734e+00 6.7515380609e-04 1.4864180678e+00 -2.5745516147e+00 1.4864180678e+00 2.5745516147e+00 
42900 4.9764963100e+00 6.6844175672e-04 1.4863953571e+00 -2.5745122786e+00 1.4863953571e+00 2.5745122786e+00 
43000 4.9764962481e+00 6.6179692401e-04 1.4863728718e+00 -2.5744733330e+00 1.4863728718e+00 2.5744733330e+00 
43100 4.9764961876e+00 6.5521862491e-04 1.4863506097e+00 -2.5744347739e+00 1.4863506097e+00 2.5744347739e+00 
43200 4.9764961284e+00 6.4870618422e-04 1.4863285686e+00 -2.5743965975e+00 1.4863285686e+00 2.5743965975e+00 
43300 4.9764960707e+00 6.4225893451e-04 1.4863067462e+00 -2.5743588001e+00 1.4863067462e+00 2.5743588001e+00 
43400 4.9764960142e+00 6.3587621594e-04 1.4862851404e+00 -2.5743213777e+00 1.4862851404e+00 2.5743213777e+00 
43500 4.9764959590e+00 6.2955737608e-04 1.4862637490e+00 -2.5742843267e+00 1.4862637490e+00 2.5742843267e+00 
43600 4.9764959052e+00 6.2330176989e-04 1.4862425698e+00 -2.5742476433e+00 1.4862425698e+00 2.5742476433e+00 
43700 4.9764958525e+00 6.1710875946e-04 1.4862216008e+00 -2.5742113240e+00 1.4862216008e+00 2.5742113240e+00 
43800 4.9764958011e+00 6.1097771398e-04 1.4862008399e+00 -2.5741753649e+00 1.4862008399e+00 2.5741753649e+00 
43900 4.9764957508e+00 6.0490800958e-04 1.4861802849e+00 -2.5741397627e+00 1.4861802849e+00 2.5741397627e+00 
44000 4.9764957017e+00 5.9889902921e-04 1.4861599339e+00 -2.5741045136e+00 1.4861599339e+00 2.5741045136e+00 
44100 4.9764956537e+00 5.9295016253e-04 1.4861397847e+00 -2.5740696143e+00 1.4861397847e+00 2.5740696143e+00 
44200 4.9764956069e+00 5.8706080581e-04 1.4861198354e+00 -2.5740350611e+00 1.4861198354e+00 2.5740350611e+00 
44300 4.9764955611e+00 5.8123036179e-04 1.4861000840e+00 -2.5740008506e+00 1.4861000840e+00 2.5740008506e+00 
44400 4.9764955164e+00 5.7545823961e-04 1.4860805285e+00 -2.5739669794e+00 1.4860805285e+00 2.5739669794e+00 
44500 4.9764954727e+00 5.6974385468e-04 1.4860611669e+00 -2.5739334442e+00 1.4860611669e+00 2.5739334442e+00 
44600 4.9764954301e+00 5.6408662861e-04 1.4860419973e+00 -2.5739002416e+00 1.4860419973e+00 2.5739002416e+00 
44700 4.9764953884e+00 5.5848598908e-04 1.4860230179e+00 -2.5738673682e+00 1.4860230179e+00 2.5738673682e+00 
44800 4.9764953477e+00 5.5294136977e-04 1.4860042266e+00 -2.5738348208e+00 1.4860042266e+00 2.5738348208e+00 
44900 4.9764953080e+00 5.4745221024e-04 1.4859856217e+00 -2.5738025961e+00 1.4859856217e+00 2.5738025961e+00 
45000 4.9764952691e+00 5.4201795590e-04 1.4859672012e+00 -2.5737706909e+00 1.4859672012e+00 2.5737706909e+00 
45100 4.9764952312e+00 5.3663805786e-04 1.4859489634e+00 -2.5737391020e+00 1.4859489634e+00 2.5737391020e+00 
45200 4.9764951942e+00 5.3131197288e-04 1.4859309063e+00 -2.5737078263e+00 1.4859309063e+00 2.5737078263e+00 
45300 4.9764951581e+00 5.2603916327e-04 1.4859130283e+00 -2.5736768606e+00 1.4859130283e+00 2.5736768606e+00 
45400 4.9764951228e+00 5.2081909685e-04 1.4858953274e+00 -2.5736462019e+00 1.4858953274e+00 2.5736462019e+00 
45500 4.9764950883e+00 5.1565124682e-04 1.4858778021e+00 -2.5736158470e+00 1.4858778021e+00 2.5736158470e+00 
45600 4.9764950547e+00 5.1053509173e-04 1.4858604503e+00 -2.5735857930e+00 1.4858604503e+00 2.5735857930e+00 
45700 4.9764950218e+00 5.0547011538e-04 1.4858432706e+00 -2.5735560368e+00 1.4858432706e+00 2.5735560368e+00 
45800 4.9764949897e+00 5.0045580677e-04 1.4858262611e+00 -2.5735265754e+00 1.4858262611e+00 2.5735265754e+00 
45900 4.9764949584e+00 4.9549166001e-04 1.4858094201e+00 -2.5734974060e+00 1.4858094201e+00 2.5734974060e+00 
46000 4.9764949278e+00 4.9057717429e-04 1.4857927460e+00 -2.5734685256e+00 1.4857927460e+00 2.5734685256e+00 
46100 4.9764948980e+00 4.8571185375e-04 1.4857762371e+00 -2.5734399314e+00 1.4857762371e+00 2.5734399314e+00 
46200 4.9764948688e+00 4.8089520749e-04 1.4857598918e+00 -2.5734116204e+00 1.4857598918e+00 2.5734116204e+00 
46300 4.9764948404e+00 4.7612674948e-04 1.4857437083e+00 -2.5733835898e+00 1.4857437083e+00 2.5733835898e+00 
46400 4.9764948126e+00 4.7140599848e-04 1.4857276852e+00 -2.5733558369e+00 1.4857276852e+00 2.5733558369e+00 
46500 4.9764947855e+00 4.6673247801e-04 1.4857118207e+00 -2.5733283589e+00 1.4857118207e+00 2.5733283589e+00 
46600 4.9764947591e+00 4.6210571627e-04 1.4856961134e+00 -2.5733011530e+00 1.4856961134e+00 2.5733011530e+00 
46700 4.9764947333e+00 4.5752524613e-04 1.4856805616e+00 -2.5732742165e+00 1.4856805616e+00 2.5732742165e+00 
46800 4.9764947081e+00 4.5299060500e-04 1.4856651638e+00 -2.5732475467e+00 1.4856651638e+00 2.5732475467e+00 
46900 4.9764946835e+00 4.4850133488e-04 1.4856499184e+00 -2.5732211410e+00 1.4856499184e+00 2.5732211410e+00 
47000 4.9764946595e+00 4.4405698219e-04 1.4856348240e+00 -2.5731949966e+00 1.4856348240e+00 2.5731949966e+00 
47100 4.9764946361e+00 4.3965709784e-04 1.4856198790e+00 -2.5731691111e+00 1.4856198790e+00 2.5731691111e+00 
47200 4.9764946133e+00 4.3530123708e-04 1.4856050819e+00 -2.5731434819e+00 1.4856050819e+00 2.5731434819e+00 
47300 4.9764945910e+00 4.3098895952e-04 1.4855904313e+00 -2.5731181063e+00 1.4855904313e+00 2.5731181063e+00 
47400 4.9764945692e+00 4.2671982905e-04 1.4855759257e+00 -2.5730929818e+00 1.4855759257e+00 2.5730929818e+00 
47500 4.9764945480e+00 4.2249341382e-04 1.4855615636e+00 -2.5730681059e+00 1.4855615636e+00 2.5730681059e+00 
47600 4.9764945273e+00 4.1830928616e-04 1.4855473436e+00 -2.5730434762e+00 1.4855473436e+00 2.5730434762e+00 
47700 4.9764945072e+00 4.1416702257e-04 1.4855332644e+00 -2.5730190902e+00 1.4855332644e+00 2.5730190902e+00 
47800 4.9764944875e+00 4.1006620368e-04 1.4855193244e+00 -2.5729949454e+00 1.4855193244e+00 2.5729949454e+00 
47900 4.9764944683e+00 4.0600641416e-04 1.4855055223e+00 -2.5729710395e+00 1.4855055223e+00 2.5729710395e+00 
48000 4.9764944495e+00 4.0198724274e-04 1.4854918567e+00 -2.5729473700e+00 1.4854918567e+00 2.5729473700e+00 
48100 4.9764944313e+00 3.9800828213e-04 1.4854783263e+00 -2.5729239347e+00 1.4854783263e+00 2.5729239347e+00 
48200 4.9764944135e+00 3.9406912901e-04 1.4854649297e+00 -2.5729007310e+00 1.4854649297e+00 2.5729007310e+00 
48300 4.9764943961e+00 3.9016938397e-04 1.4854516655e+00 -2.5728777569e+00 1.4854516655e+00 2.5728777569e+00 
48400 4.9764943792e+00 3.8630865146e-04 1.4854385325e+00 -2.5728550098e+00 1.4854385325e+00 2.5728550098e+00 
48500 4.9764943626e+00 3.8248653981e-04 1.4854255294e+00 -2.5728324877e+00 1.4854255294e+00 2.5728324877e+00 
48600 4.9764943466e+00 3.7870266112e-04 1.4854126547e+00 -2.5728101882e+00 1.4854126547e+00 2.5728101882e+00 
48700 4.9764943309e+00 3.7495663127e-04 1.4853999074e+00 -2.5727881091e+00 1.4853999074e+00 2.5727881091e+00 
48800 4.9764943156e+00 3.7124806990e-04 1.4853872860e+00 -2.5727662482e+00 1.4853872860e+00 2.5727662482e+00 
48900 4.9764943006e+00 3.6757660031e-04 1.4853747893e+00 -2.5727446034e+00 1.4853747893e+00 2.5727446034e+00 
49000 4.9764942861e+00 3.6394184950e-04 1.4853624161e+00 -2.5727231724e+00 1.4853624161e+00 2.5727231724e+00 
49100 4.9764942719e+00 3.6034344809e-04 1.4853501652e+00 -2.5727019532e+00 1.4853501652e+00 2.5727019532e+00 
49200 4.9764942581e+00 3.5678103030e-04 1.4853380353e+00 -2.5726809436e+00 1.4853380353e+00 2.5726809436e+00 
49300 4.9764942447e+00 3.5325423391e-04 1.4853260252e+00 -2.5726601415e+00 1.4853260252e+00 2.5726601415e+00 
49400 4.9764942316e+00 3.4976270025e-04 1.4853141338e+00 -2.5726395449e+00 1.4853141338e+00 2.5726395449e+00 
49500 4.9764942188e+00 3.4630607416e-04 1.4853023598e+00 -2.5726191517e+00 1.4853023598e+00 2.5726191517e+00 
49600 4.9764942064e+00 3.4288400392e-04 1.4852907020e+00 -2.5725989599e+00 1.4852907020e+00 2.5725989599e+00 
49700 4.9764941942e+00 3.3949614130e-04 1.4852791594e+00 -2.5725789674e+00 1.4852791594e+00 2.5725789674e+00 
49800 4.9764941824e+00 3.3614214144e-04 1.4852677307e+00 -2.5725591724e+00 1.4852677307e+00 2.5725591724e+00 
49900 4.9764941709e+00 3.3282166288e-04 1.4852564148e+00 -2.5725395727e+00 1.4852564148e+00 2.5725395727e+00 
50000 4.9764941597e+00 3.2953436751e-04 1.4852452107e+00 -2.5725201665e+00 1.4852452107e+00 2.5725201665e+00 
50100 4.9764941488e+00 3.2627992055e-04 1.4852341171e+00 -2.5725009519e+00 1.4852341171e+00 2.5725009519e+00 
50200 4.9764941382e+00 3.2305799050e-04 1.4852231330e+00 -2.5724819269e+00 1.4852231330e+00 2.5724819269e+00 
50300 4.9764941278e+00 3.1986824913e-04 1.4852122572e+00 -2.5724630895e+00 1.4852122572e+00 2.5724630895e+00 
50400 4.9764941178e+00 3.1671037144e-04 1.4852014888e+00 -2.5724444381e+00 1.4852014888e+00 2.5724444381e+00 
50500 4.9764941080e+00 3.1358403566e-04 1.4851908266e+00 -2.5724259706e+00 1.4851908266e+00 2.5724259706e+00 
50600 4.9764940984e+00 3.1048892317e-04 1.4851802696e+00 -2.5724076853e+00 1.4851802696e+00 2.5724076853e+00 
50700 4.9764940891e+00 3.0742471852e-04 1.4851698167e+00 -2.5723895804e+00 1.4851698167e+00 2.5723895804e+00 
50800 4.9764940801e+00 3.0439110938e-04 1.4851594669e+00 -2.5723716540e+00 1.4851594669e+00 2.5723716540e+00 
50900 4.9764940713e+00 3.0138778651e-04 1.4851492192e+00 -2.5723539044e+00 1.4851492192e+00 2.5723539044e+00 
51000 4.9764940627e+00 2.9841444376e-04 1.4851390725e+00 -2.5723363298e+00 1.4851390725e+00 2.5723363298e+00 
51100 4.9764940544e+00 2.9547077799e-04 1.4851290258e+00 -2.5723189284e+00 1.4851290258e+00 2.5723189284e+00 
51200 4.9764940463e+00 2.9255648912e-04 1.4851190781e+00 -2.5723016986e+00 1.4851190781e+00 2.5723016986e+00 
51300 4.9764940384e+00 2.8967128002e-04 1.4851092286e+00 -2.5722846386e+00 1.4851092286e+00 2.5722846386e+00 
51400 4.9764940307e+00 2.8681485655e-04 1.4850994760e+00 -2.5722677468e+00 1.4850994760e+00 2.5722677468e+00 
51500 4.9764940233e+00 2.8398692748e-04 1.4850898196e+00 -2.5722510214e+00 1.4850898196e+00 2.5722510214e+00 
51600 4.9764940160e+00 2.8118720452e-04 1.4850802584e+00 -2.5722344608e+00 1.4850802584e+00 2.5722344608e+00 
51700 4.9764940090e+00 2.7841540226e-04 1.4850707913e+00 -2.5722180634e+00 1.4850707913e+00 2.5722180634e+00 
51800 4.9764940021e+00 2.7567123814e-04 1.4850614175e+00 -2.5722018275e+00 1.4850614175e+00 2.5722018275e+00 
51900 4.9764939954e+00 2.7295443243e-04 1.4850521360e+00 -2.5721857515e+00 1.4850521360e+00 2.5721857515e+00 
52000 4.9764939890e+00 2.7026470823e-04 1.4850429460e+00 -2.5721698339e+00 1.4850429460e+00 2.5721698339e+00 
52100 4.9764939827e+00 2.6760179141e-04 1.4850338464e+00 -2.5721540730e+00 1.4850338464e+00 2.5721540730e+00 
52200 4.9764939766e+00 2.6496541060e-04 1.4850248365e+00 -2.5721384673e+00 1.4850248365e+00 2.5721384673e+00 
52300 4.9764939706e+00 2.6235529717e-04 1.4850159153e+00 -2.5721230153e+00 1.4850159153e+00 2.5721230153e+00 
52400 4.9764939649e+00 2.5977118520e-04 1.4850070819e+00 -2.5721077154e+00 1.4850070819e+00 2.5721077154e+00 
52500 4.9764939592e+00 2.5721281145e-04 1.4849983354e+00 -2.5720925661e+00 1.4849983354e+00 2.5720925661e+00 
52600 4.9764939538e+00 2.5467991535e-04 1.4849896750e+00 -2.5720775659e+00 1.4849896750e+00 2.5720775659e+00 
52700 4.9764939485e+00 2.5217223896e-04 1.4849810999e+00 -2.5720627133e+00 1.4849810999e+00 2.5720627133e+00 
52800 4.9764939434e+00 2.4968952695e-04 1.4849726092e+00 -2.5720480069e+00 1.4849726092e+00 2.5720480069e+00 
52900 4.9764939384e+00 2.4723152659e-04 1.4849642020e+00 -2.5720334452e+00 1.4849642020e+00 2.5720334452e+00 
53000 4.9764939336e+00 2.4479798770e-04 1.4849558775e+00 -2.5720190268e+00 1.4849558775e+00 2.5720190268e+00 
53100 4.9764939289e+00 2.4238866266e-04 1.4849476349e+00 -2.5720047502e+00 1.4849476349e+00 2.5720047502e+00 
53200 4.9764939243e+00 2.4000330635e-04 1.4849394734e+00 -2.5719906140e+00 1.4849394734e+00 2.5719906140e+00 
53300 4.9764939199e+00 2.3764167616e-04 1.4849313921e+00 -2.5719766169e+00 1.4849313921e+00 2.5719766169e+00 
53400 4.9764939156e+00 2.3530353195e-04 1.4849233903e+00 -2.5719627574e+00 1.4849233903e+00 2.5719627574e+00 
53500 4.9764939115e+00 2.3298863600e-04 1.4849154673e+00 -2.5719490343e+00 1.4849154673e+00 2.5719490343e+00 
53600 4.9764939075e+00 2.3069675307e-04 1.4849076221e+00 -2.5719354460e+00 1.4849076221e+00 2.5719354460e+00 
53700 4.9764939036e+00 2.2842765027e-04 1.4848998541e+00 -2.5719219914e+00 1.4848998541e+00 2.5719219914e+00 
53800 4.9764938998e+00 2.2618109711e-04 1.4848921624e+00 -2.5719086690e+00 1.4848921624e+00 2.5719086690e+00 
53900 4.9764938961e+00 2.2395686546e-04 1.4848845463e+00 -2.5718954776e+00 1.4848845463e+00 2.5718954776e+00 
54000 4.9764938926e+00 2.2175472954e-04 1.4848770051e+00 -2.5718824158e+00 1.4848770051e+00 2.5718824158e+00 
54100 4.9764938892e+00 2.1957446584e-04 1.4848695380e+00 -2.5718694824e+00 1.4848695380e+00 2.5718694824e+00 
54200 4.9764938858e+00 2.1741585318e-04 1.4848621443e+00 -2.5718566761e+00 1.4848621443e+00 2.5718566761e+00 
54300 4.9764938826e+00 2.1527867263e-04 1.4848548232e+00 -2.5718439956e+00 1.4848548232e+00 2.5718439956e+00 
54400 4.9764938795e+00 2.1316270750e-04 1.4848475740e+00 -2.5718314397e+00 1.4848475740e+00 2.5718314397e+00 
54500 4.9764938765e+00 2.1106774336e-04 1.4848403961e+00 -2.5718190072e+00 1.4848403961e+00 2.5718190072e+00 
54600 4.9764938736e+00 2.0899356793e-04 1.4848332887e+00 -2.5718066968e+00 1.4848332887e+00 2.5718066968e+00 
54700 4.9764938708e+00 2.0693997116e-04 1.4848262511e+00 -2.5717945073e+00 1.4848262511e+00 2.5717945073e+00 
54800 4.9764938680e+00 2.0490674512e-04 1.4848192826e+00 -2.5717824375e+00 1.4848192826e+00 2.5717824375e+00 
54900 4.9764938654e+00 2.0289368405e-04 1.4848123826e+00 -2.5717704863e+00 1.4848123826e+00 2.5717704863e+00 
55000 4.9764938629e+00 2.0090058430e-04 1.4848055503e+00 -2.5717586524e+00 1.4848055503e+00 2.5717586524e+00 
55100 4.9764938604e+00 1.9892724430e-04 1.4847987851e+00 -2.5717469347e+00 1.4847987851e+00 2.5717469347e+00 
55200 4.9764938580e+00 1.9697346458e-04 1.4847920863e+00 -2.5717353321e+00 1.4847920863e+00 2.5717353321e+00 
55300 4.9764938558e+00 1.9503904771e-04 1.4847854532e+00 -2.5717238433e+00 1.4847854532e+00 2.5717238433e+00 
55400 4.9764938536e+00 1.9312379830e-04 1.4847788853e+00 -2.5717124674e+00 1.4847788853e+00 2.5717124674e+00 
55500 4.9764938514e+00 1.9122752297e-04 1.4847723819e+00 -2.5717012031e+00 1.4847723819e+00 2.5717012031e+00 
55600 4.9764938494e+00 1.8935003035e-04 1.4847659423e+00 -2.5716900493e+00 1.4847659423e+00 2.5716900493e+00 
55700 4.9764938474e+00 1.8749113102e-04 1.4847595658e+00 -2.5716790050e+00 1.4847595658e+00 2.5716790050e+00 
55800 4.9764938455e+00 1.8565063753e-04 1.4847532520e+00 -2.5716680691e+00 1.4847532520e+00 2.5716680691e+00 
55900 4.9764938437e+00 1.8382836437e-04 1.4847470001e+00 -2.5716572405e+00 1.4847470001e+00 2.5716572405e+00 
56000 4.9764938419e+00 1.8202412794e-04 1.4847408095e+00 -2.5716465182e+00 1.4847408095e+00 2.5716465182e+00 
56100 4.9764938402e+00 1.8023774652e-04 1.4847346797e+00 -2.5716359010e+00 1.4847346797e+00 2.5716359010e+00 
56200 4.9764938386e+00 1.7846904028e-04 1.4847286100e+00 -2.5716253880e+00 1.4847286100e+00 2.5716253880e+00 
56300 4.9764938370e+00 1.7671783126e-04 1.4847225999e+00 -2.5716149781e+00 1.4847225999e+00 2.5716149781e+00 
56400 4.9764938355e+00 1.7498394332e-04 1.4847166487e+00 -2.5716046703e+00 1.4847166487e+00 2.5716046703e+00 
56500 4.9764938341e+00 1.7326720213e-04 1.4847107558e+00 -2.5715944636e+00 1.4847107558e+00 2.5715944636e+00 
56600 4.9764938327e+00 1.7156743520e-04 1.4847049208e+00 -2.5715843570e+00 1.4847049208e+00 2.5715843570e+00 
56700 4.9764938313e+00 1.6988447177e-04 1.4846991429e+00 -2.5715743495e+00 1.4846991429e+00 2.5715743495e+00 
56800 4.9764938301e+00 1.6821814289e-04 1.4846934218e+00 -2.5715644402e+00 1.4846934218e+00 2.5715644402e+00 
56900 4.9764938288e+00 1.6656828133e-04 1.4846877567e+00 -2.5715546280e+00 1.4846877567e+00 2.5715546280e+00 
57000 4.9764938277e+00 1.6493472159e-04 1.4846821472e+00 -2.5715449120e+00 1.4846821472e+00 2.5715449120e+00 
57100 4.9764938266e+00 1.6331729988e-04 1.4846765926e+00 -2.5715352912e+00 1.4846765926e+00 2.5715352912e+00 
57200 4.9764938255e+00 1.6171585411e-04 1.4846710925e+00 -2.5715257648e+00 1.4846710925e+00 2.5715257648e+00 
57300 4.9764938245e+00 1.6013022386e-04 1.4846656463e+00 -2.5715163317e+00 1.4846656463e+00 2.5715163317e+00 
57400 4.9764938235e+00 1.5856025035e-04 1.4846602535e+00 -2.5715069911e+00 1.4846602535e+00 2.5715069911e+00 
57500 4.9764938226e+00 1.5700577647e-04 1.4846549136e+00 -2.5714977421e+00 1.4846549136e+00 2.5714977421e+00 
57600 4.9764938217e+00 1.5546664670e-04 1.4846496260e+00 -2.5714885836e+00 1.4846496260e+00 2.5714885836e+00 
57700 4.9764938209e+00 1.5394270715e-04 1.4846443902e+00 -2.5714795150e+00 1.4846443902e+00 2.5714795150e+00 
57800 4.9764938201e+00 1.5243380550e-04 1.4846392057e+00 -2.5714705352e+00 1.4846392057e+00 2.5714705352e+00 
57900 4.9764938193e+00 1.5093979101e-04 1.4846340720e+00 -2.5714616433e+00 1.4846340720e+00 2.5714616433e+00 
58000 4.9764938186e+00 1.4946051450e-04 1.4846289886e+00 -2.5714528386e+00 1.4846289886e+00 2.5714528386e+00 
58100 4.9764938180e+00 1.4799582831e-04 1.4846239550e+00 -2.5714441202e+00 1.4846239550e+00 2.5714441202e+00 
58200 4.9764938173e+00 1.4654558633e-04 1.4846189707e+00 -2.5714354872e+00 1.4846189707e+00 2.5714354872e+00 
58300 4.9764938167e+00 1.4510964393e-04 1.4846140353e+00 -2.5714269387e+00 1.4846140353e+00 2.5714269387e+00 
58400 4.9764938162e+00 1.4368785797e-04 1.4846091481e+00 -2.5714184740e+00 1.4846091481e+00 2.5714184740e+00 
58500 4.9764938156e+00 1.4228008681e-04 1.4846043089e+00 -2.5714100921e+00 1.4846043089e+00 2.5714100921e+00 
58600 4.9764938152e+00 1.4088619025e-04 1.4845995170e+00 -2.5714017924e+00 1.4845995170e+00 2.5714017924e+00 
58700 4.9764938147e+00 1.3950602953e-04 1.4845947721e+00 -2.5713935740e+00 1.4845947721e+00 2.5713935740e+00 
58800 4.9764938143e+00 1.3813946732e-04 1.4845900737e+00 -2.5713854360e+00 1.4845900737e+00 2.5713854360e+00 
58900 4.9764938139e+00 1.3678636772e-04 1.4845854212e+00 -2.5713773778e+00 1.4845854212e+00 2.5713773778e+00 
59000 4.9764938135e+00 1.3544659619e-04 1.4845808143e+00 -2.5713693984e+00 1.4845808143e+00 2.5713693984e+00 
59100 4.9764938132e+00 1.3412001962e-04 1.4845762526e+00 -2.5713614972e+00 1.4845762526e+00 2.5713614972e+00 
59200 4.9764938129e+00 1.3280650623e-04 1.4845717355e+00 -2.5713536733e+00 1.4845717355e+00 2.5713536733e+00 
59300 4.9764938126e+00 1.3150592561e-04 1.4845672626e+00 -2.5713459260e+00 1.4845672626e+00 2.5713459260e+00 
59400 4.9764938123e+00 1.3021814869e-04 1.4845628335e+00 -2.5713382546e+00 1.4845628335e+00 2.5713382546e+00 
59500 4.9764938121e+00 1.2894304771e-04 1.4845584477e+00 -2.5713306583e+00 1.4845584477e+00 2.5713306583e+00 
59600 4.9764938119e+00 1.2768049624e-04 1.4845541049e+00 -2.5713231363e+00 1.4845541049e+00 2.5713231363e+00 
59700 4.9764938117e+00 1.2643036914e-04 1.4845498046e+00 -2.5713156880e+00 1.4845498046e+00 2.5713156880e+00 
59800 4.9764938115e+00 1.2519254253e-04 1.4845455464e+00 -2.5713083126e+00 1.4845455464e+00 2.5713083126e+00 
59900 4.9764938114e+00 1.2396689385e-04 1.4845413299e+00 -2.5713010093e+00 1.4845413299e+00 2.5713010093e+00 
60000 4.9764938113e+00 1.2275330174e-04 1.4845371546e+00 -2.5712937776e+00 1.4845371546e+00 2.5712937776e+00 
60100 4.9764938112e+00 1.2155164611e-04 1.4845330203e+00 -2.5712866166e+00 1.4845330203e+00 2.5712866166e+00 
60200 4.9764938111e+00 1.2036180811e-04 1.4845289263e+00 -2.5712795257e+00 1.4845289263e+00 2.5712795257e+00 
60300 4.9764938111e+00 1.1918367007e-04 1.4845248725e+00 -2.5712725042e+00 1.4845248725e+00 2.5712725042e+00 
60400 4.9764938111e+00 1.1801711556e-04 1.4845208582e+00 -2.5712655514e+00 1.4845208582e+00 2.5712655514e+00 
60500 4.9764938110e+00 1.1686202931e-04 1.4845168833e+00 -2.5712586666e+00 1.4845168833e+00 2.5712586666e+00 
60600 4.9764938111e+00 1.1571829725e-04 1.4845129473e+00 -2.5712518492e+00 1.4845129473e+00 2.5712518492e+00 
60700 4.9764938111e+00 1.1458580646e-04 1.4845090498e+00 -2.5712450985e+00 1.4845090498e+00 2.5712450985e+00 
60800 4.9764938111e+00 1.1346444517e-04 1.4845051904e+00 -2.5712384139e+00 1.4845051904e+00 2.5712384139e+00 
60900 4.9764938112e+00 1.1235410277e-04 1.4845013688e+00 -2.5712317946e+00 1.4845013688e+00 2.5712317946e+00 
61000 4.9764938113e+00 1.1125466975e-04 1.4844975845e+00 -2.5712252401e+00 1.4844975845e+00 2.5712252401e+00 
61100 4.9764938113e+00 1.1016603773e-04 1.4844938373e+00 -2.5712187498e+00 1.4844938373e+00 2.5712187498e+00 
61200 4.9764938114e+00 1.0908809944e-04 1.4844901268e+00 -2.5712123229e+00 1.4844901268e+00 2.5712123229e+00 
61300 4.9764938116e+00 1.0802074869e-04 1.4844864525e+00 -2.5712059589e+00 1.4844864525e+00 2.5712059589e+00 
61400 4.9764938117e+00 1.0696388037e-04 1.4844828142e+00 -2.5711996571e+00 1.4844828142e+00 2.5711996571e+00 
61500 4.9764938118e+00 1.0591739045e-04 1.4844792115e+00 -2.5711934170e+00 1.4844792115e+00 2.5711934170e+00 
61600 4.9764938120e+00 1.0488117595e-04 1.4844756440e+00 -2.5711872380e+00 1.4844756440e+00 2.5711872380e+00 
61700 4.9764938122e+00 1.0385513494e-04 1.4844721114e+00 -2.5711811193e+00 1.4844721114e+00 2.5711811193e+00 
61800 4.9764938124e+00 1.0283916651e-04 1.4844686133e+00 -2.5711750605e+00 1.4844686133e+00 2.5711750605e+00 
61900 4.9764938126e+00 1.0183317079e-04 1.4844651495e+00 -2.5711690610e+00 1.4844651495e+00 2.5711690610e+00 
62000 4.9764938128e+00 1.0083704893e-04 1.4844617195e+00 -2.5711631201e+00 1.4844617195e+00 2.5711631201e+00 
62100 4.9764938130e+00 9.9850703050e-05 1.4844583231e+00 -2.5711572373e+00 1.4844583231e+00 2.5711572373e+00 
62200 4.9764938132e+00 9.8874036296e-05 1.4844549599e+00 -2.5711514121e+00 1.4844549599e+00 2.5711514121e+00 
62300 4.9764938134e+00 9.7906952775e-05 1.4844516296e+00 -2.5711456438e+00 1.4844516296e+00 2.5711456438e+00 
62400 4.9764938137e+00 9.6949357575e-05 1.4844483318e+00 -2.5711399320e+00 1.4844483318e+00 2.5711399320e+00 
62500 4.9764938139e+00 9.6001156739e-05 1.4844450663e+00 -2.5711342760e+00 1.4844450663e+00 2.5711342760e+00 
62600 4.9764938142e+00 9.5062257260e-05 1.4844418328e+00 -2.5711286753e+00 1.4844418328e+00 2.5711286753e+00 
62700 4.9764938145e+00 9.4132567074e-05 1.4844386308e+00 -2.5711231293e+00 1.4844386308e+00 2.5711231293e+00 
62800 4.9764938148e+00 9.3211995047e-05 1.4844354602e+00 -2.5711176376e+00 1.4844354602e+00 2.5711176376e+00 
62900 4.9764938150e+00 9.2300450963e-05 1.4844323205e+00 -2.5711121996e+00 1.4844323205e+00 2.5711121996e+00 
63000 4.9764938153e+00 9.1397845517e-05 1.4844292116e+00 -2.5711068147e+00 1.4844292116e+00 2.5711068147e+00 
63100 4.9764938156e+00 9.0504090308e-05 1.4844261330e+00 -2.5711014825e+00 1.4844261330e+00 2.5711014825e+00 
63200 4.9764938160e+00 8.9619097823e-05 1.4844230846e+00 -2.5710962024e+00 1.4844230846e+00 2.5710962024e+00 
63300 4.9764938163e+00 8.8742781435e-05 1.4844200659e+00 -2.5710909740e+00 1.4844200659e+00 2.5710909740e+00 
63400 4.9764938166e+00 8.7875055387e-05 1.4844170768e+00 -2.5710857966e+00 1.4844170768e+00 2.5710857966e+00 
63500 4.9764938169e+00 8.7015834787e-05 1.4844141169e+00 -2.5710806699e+00 1.4844141169e+00 2.5710806699e+00 
63600 4.9764938173e+00 8.6165035594e-05 1.4844111859e+00 -2.5710755933e+00 1.4844111859e+00 2.5710755933e+00 
63700 4.9764938176e+00 8.5322574621e-05 1.4844082836e+00 -2.5710705663e+00 1.4844082836e+00 2.5710705663e+00 
63800 4.9764938179e+00 8.4488369509e-05 1.4844054096e+00 -2.5710655885e+00 1.4844054096e+00 2.5710655885e+00 
63900 4.9764938183e+00 8.3662338731e-05 1.4844025638e+00 -2.5710606593e+00 1.4844025638e+00 2.5710606593e+00 
64000 4.9764938187e+00 8.2844401582e-05 1.4843997457e+00 -2.5710557783e+00 1.4843997457e+00 2.5710557783e+00 
64100 4.9764938190e+00 8.2034478162e-05 1.4843969552e+00 -2.5710509450e+00 1.4843969552e+00 2.5710509450e+00 
64200 4.9764938194e+00 8.1232489377e-05 1.4843941920e+00 -2.5710461590e+00 1.4843941920e+00 2.5710461590e+00 
64300 4.9764938197e+00 8.0438356927e-05 1.4843914558e+00 -2.5710414197e+00 1.4843914558e+00 2.5710414197e+00 
64400 4.9764938201e+00 7.9652003297e-05 1.4843887463e+00 -2.5710367268e+00 1.4843887463e+00 2.5710367268e+00 
64500 4.9764938205e+00 7.8873351747e-05 1.4843860633e+00 -2.5710320797e+00 1.4843860633e+00 2.5710320797e+00 
64600 4.9764938209e+00 7.8102326312e-05 1.4843834065e+00 -2.5710274780e+00 1.4843834065e+00 2.5710274780e+00 
64700 4.9764938212e+00 7.7338851783e-05 1.4843807757e+00 -2.5710229214e+00 1.4843807757e+00 2.5710229214e+00 
64800 4.9764938216e+00 7.6582853707e-05 1.4843781706e+00 -2.5710184092e+00 1.4843781706e+00 2.5710184092e+00 
64900 4.9764938220e+00 7.5834258376e-05 1.4843755910e+00 -2.5710139412e+00 1.4843755910e+00 2.5710139412e+00 
65000 4.9764938224e+00 7.5092992821e-05 1.4843730366e+00 -2.5710095168e+00 1.4843730366e+00 2.5710095168e+00 
65100 4.9764938228e+00 7.4358984801e-05 1.4843705072e+00 -2.5710051356e+00 1.4843705072e+00 2.5710051356e+00 
65200 4.9764938232e+00 7.3632162799e-05 1.4843680024e+00 -2.5710007973e+00 1.4843680024e+00 2.5710007973e+00 
65300 4.9764938236e+00 7.2912456014e-05 1.4843655222e+00 -2.5709965014e+00 1.4843655222e+00 2.5709965014e+00 
65400 4.9764938240e+00 7.2199794351e-05 1.4843630662e+00 -2.5709922475e+00 1.4843630662e+00 2.5709922475e+00 
65500 4.9764938244e+00 7.1494108417e-05 1.4843606341e+00 -2.5709880351e+00 1.4843606341e+00 2.5709880351e+00 
65600 4.9764938248e+00 7.0795329511e-05 1.4843582259e+00 -2.5709838639e+00 1.4843582259e+00 2.5709838639e+00 
65700 4.9764938252e+00 7.0103389618e-05 1.4843558412e+00 -2.5709797335e+00 1.4843558412e+00 2.5709797335e+00 
65800 4.9764938258e+00 7.0913740912e-05 1.4843558412e+00 -2.5709797335e+00 1.4843558412e+00 2.5709797335e+00 
65900 4.9764938262e+00 7.0211150519e-05 1.4843534525e+00 -2.5709755961e+00 1.4843534525e+00 2.5709755961e+00 
66000 4.9764938268e+00 7.1013174703e-05 1.4843534525e+00 -2.5709755961e+00 1.4843534525e+00 2.5709755961e+00 
66100 4.9764938272e+00 7.0299986571e-05 1.4843510604e+00 -2.5709714529e+00 1.4843510604e+00 2.5709714529e+00 
66200 4.9764938279e+00 7.1093338304e-05 1.4843510604e+00 -2.5709714529e+00 1.4843510604e+00 2.5709714529e+00 
66300 4.9764938283e+00 7.0369622139e-05 1.4843486657e+00 -2.5709673051e+00 1.4843486657e+00 2.5709673051e+00 
66400 4.9764938289e+00 7.1153967560e-05 1.4843486657e+00 -2.5709673051e+00 1.4843486657e+00 2.5709673051e+00 
66500 4.9764938293e+00 7.0419810899e-05 1.4843462689e+00 -2.5709631537e+00 1.4843462689e+00 2.5709631537e+00 
66600 4.9764938299e+00 7.1194829084e-05 1.4843462689e+00 -2.5709631537e+00 1.4843462689e+00 2.5709631537e+00 
66700 4.9764938303e+00 7.0450338062e-05 1.4843438707e+00 -2.5709589999e+00 1.4843438707e+00 2.5709589999e+00 
66800 4.9764938309e+00 7.1215722397e-05 1.4843438707e+00 -2.5709589999e+00 1.4843438707e+00 2.5709589999e+00 
66900 4.9764938313e+00 7.0461022363e-05 1.4843414718e+00 -2.5709548449e+00 1.4843414718e+00 2.5709548449e+00 
67000 4.9764938319e+00 7.1216481804e-05 1.4843414718e+00 -2.5709548449e+00 1.4843414718e+00 2.5709548449e+00 
67100 4.9764938323e+00 7.0451717787e-05 1.4843390729e+00 -2.5709506898e+00 1.4843390729e+00 2.5709506898e+00 
67200 4.9764938329e+00 7.1196978000e-05 1.4843390729e+00 -2.5709506898e+00 1.4843390729e+00 2.5709506898e+00 
67300 4.9764938333e+00 7.0422315003e-05 1.4843366746e+00 -2.5709465359e+00 1.4843366746e+00 2.5709465359e+00 
67400 4.9764938339e+00 7.1157119359e-05 1.4843366746e+00 -2.5709465359e+00 1.4843366746e+00 2.5709465359e+00 
67500 4.9764938342e+00 7.0372742489e-05 1.4843342777e+00 -2.5709423843e+00 1.4843342777e+00 2.5709423843e+00 
67600 4.9764938348e+00 7.1096852920e-05 1.4843342777e+00 -2.5709423843e+00 1.4843342777e+00 2.5709423843e+00 
67700 4.9764938352e+00 7.0302967341e-05 1.4843318827e+00 -2.5709382362e+00 1.4843318827e+00 2.5709382362e+00 
67800 4.9764938358e+00 7.1016165048e-05 1.4843318827e+00 -2.5709382362e+00 1.4843318827e+00 2.5709382362e+00 
67900 4.9764938361e+00 7.0212995784e-05 1.4843294906e+00 -2.5709340928e+00 1.4843294906e+00 2.5709340928e+00 
68000 4.9764938367e+00 7.0915081793e-05 1.4843294906e+00 -2.5709340928e+00 1.4843294906e+00 2.5709340928e+00 
68100 4.9764938371e+00 7.0102873364e-05 1.4843271018e+00 -2.5709299553e+00 1.4843271018e+00 2.5709299553e+00 
68200 4.9764938376e+00 7.0793668942e-05 1.4843271018e+00 -2.5709299553e+00 1.4843271018e+00 2.5709299553e+00 
68300 4.9764938380e+00 6.9972684865e-05 1.4843247171e+00 -2.5709258249e+00 1.4843247171e+00 2.5709258249e+00 
68400 4.9764938386e+00 7.0652031784e-05 1.4843247171e+00 -2.5709258249e+00 1.4843247171e+00 2.5709258249e+00 
68500 4.9764938391e+00 7.1329564027e-05 1.4843247171e+00 -2.5709258249e+00 1.4843247171e+00 2.5709258249e+00 
68600 4.9764938395e+00 7.0483705768e-05 1.4843223143e+00 -2.5709216632e+00 1.4843223143e+00 2.5709216632e+00 
68700 4.9764938400e+00 7.1149332417e-05 1.4843223143e+00 -2.5709216632e+00 1.4843223143e+00 2.5709216632e+00 
68800 4.9764938404e+00 7.0295360118e-05 1.4843199176e+00 -2.5709175120e+00 1.4843199176e+00 2.5709175120e+00 
68900 4.9764938409e+00 7.0948976328e-05 1.4843199176e+00 -2.5709175120e+00 1.4843199176e+00 2.5709175120e+00 
69000 4.9764938412e+00 7.0087223484e-05 1.4843175277e+00 -2.5709133725e+00 1.4843175277e+00 2.5709133725e+00 
69100 4.9764938418e+00 7.0728745697e-05 1.4843175277e+00 -2.5709133725e+00 1.4843175277e+00 2.5709133725e+00 
69200 4.9764938421e+00 6.9859561640e-05 1.4843151451e+00 -2.5709092458e+00 1.4843151451e+00 2.5709092458e+00 
69300 4.9764938426e+00 7.0488927277e-05 1.4843151451e+00 -2.5709092458e+00 1.4843151451e+00 2.5709092458e+00 
69400 4.9764938432e+00 7.1116152603e-05 1.4843151451e+00 -2.5709092458e+00 1.4843151451e+00 2.5709092458e+00 
69500 4.9764938435e+00 7.0224289182e-05 1.4843127495e+00 -2.5709050965e+00 1.4843127495e+00 2.5709050965e+00 
69600 4.9764938440e+00 7.0839044642e-05 1.4843127495e+00 -2.5709050965e+00 1.4843127495e+00 2.5709050965e+00 
69700 4.9764938443e+00 6.9940609222e-05 1.4843103633e+00 -2.5709009634e+00 1.4843103633e+00 2.5709009634e+00 
69800 4.9764938448e+00 7.0542884485e-05 1.4843103633e+00 -2.5709009634e+00 1.4843103633e+00 2.5709009634e+00 
69900 4.9764938454e+00 7.1142880969e-05 1.4843103633e+00 -2.5709009634e+00 1.4843103633e+00 2.5709009634e+00 
70000 4.9764938456e+00 7.0223119231e-05 1.4843079668e+00 -2.5708968125e+00 1.4843079668e+00 2.5708968125e+00 
70100 4.9764938462e+00 7.0810399136e-05 1.4843079668e+00 -2.5708968125e+00 1.4843079668e+00 2.5708968125e+00 
70200 4.9764938464e+00 6.9885020924e-05 1.4843055815e+00 -2.5708926811e+00 1.4843055815e+00 2.5708926811e+00 
70300 4.9764938469e+00 7.0459624277e-05 1.4843055815e+00 -2.5708926811e+00 1.4843055815e+00 2.5708926811e+00 
70400 4.9764938474e+00 7.1031865409e-05 1.4843055815e+00 -2.5708926811e+00 1.4843055815e+00 2.5708926811e+00 
70500 4.9764938477e+00 7.0086669129e-05 1.4843031887e+00 -2.5708885367e+00 1.4843031887e+00 2.5708885367e+00 
70600 4.9764938482e+00 7.0646070951e-05 1.4843031887e+00 -2.5708885367e+00 1.4843031887e+00 2.5708885367e+00 
70700 4.9764938487e+00 7.1203050863e-05 1.4843031887e+00 -2.5708885367e+00 1.4843031887e+00 2.5708885367e+00 
70800 4.9764938489e+00 7.0238903883e-05 1.4843007902e+00 -2.5708843823e+00 1.4843007902e+00 2.5708843823e+00 
70900 4.9764938494e+00 7.0782923350e-05 1.4843007902e+00 -2.5708843823e+00 1.4843007902e+00 2.5708843823e+00 
71000 4.9764938497e+00 6.9814816507e-05 1.4842984058e+00 -2.5708802524e+00 1.4842984058e+00 2.5708802524e+00 
71100 4.9764938501e+00 7.0345990224e-05 1.4842984058e+00 -2.5708802524e+00 1.4842984058e+00 2.5708802524e+00 
71200 4.9764938506e+00 7.0874739401e-05 1.4842984058e+00 -2.5708802524e+00 1.4842984058e+00 2.5708802524e+00 
71300 4.9764938508e+00 6.9889393503e-05 1.4842960183e+00 -2.5708761172e+00 1.4842960183e+00 2.5708761172e+00 
71400 4.9764938513e+00 7.0405242173e-05 1.4842960183e+00 -2.5708761172e+00 1.4842960183e+00 2.5708761172e+00 
71500 4.9764938518e+00 7.0918652033e-05 1.4842960183e+00 -2.5708761172e+00 1.4842960183e+00 2.5708761172e+00 
71600 4.9764938520e+00 6.9917034705e-05 1.4842936294e+00 -2.5708719794e+00 1.4842936294e+00 2.5708719794e+00 
71700 4.9764938524e+00 7.0417525622e-05 1.4842936294e+00 -2.5708719794e+00 1.4842936294e+00 2.5708719794e+00 
71800 4.9764938529e+00 7.0915578469e-05 1.4842936294e+00 -2.5708719794e+00 1.4842936294e+00 2.5708719794e+00 
71900 4.9764938531e+00 6.9898688238e-05 1.4842912405e+00 -2.5708678417e+00 1.4842912405e+00 2.5708678417e+00 
72000 4.9764938535e+00 7.0383838153e-05 1.4842912405e+00 -2.5708678417e+00 1.4842912405e+00 2.5708678417e+00 
72100 4.9764938540e+00 7.0866564833e-05 1.4842912405e+00 -2.5708678417e+00 1.4842912405e+00 2.5708678417e+00 
72200 4.9764938542e+00 6.9835425527e-05 1.4842888533e+00 -2.5708637070e+00 1.4842888533e+00 2.5708637070e+00 
72300 4.9764938546e+00 7.0305297734e-05 1.4842888533e+00 -2.5708637070e+00 1.4842888533e+00 2.5708637070e+00 
72400 4.9764938550e+00 7.0772774664e-05 1.4842888533e+00 -2.5708637070e+00 1.4842888533e+00 2.5708637070e+00 
72500 4.9764938552e+00 6.9728429889e-05 1.4842864692e+00 -2.5708595776e+00 1.4842864692e+00 2.5708595776e+00 
72600 4.9764938556e+00 7.0183131132e-05 1.4842864692e+00 -2.5708595776e+00 1.4842864692e+00 2.5708595776e+00 
72700 4.9764938560e+00 7.0635477170e-05 1.4842864692e+00 -2.5708595776e+00 1.4842864692e+00 2.5708595776e+00 
72800 4.9764938564e+00 7.1085426225e-05 1.4842864692e+00 -2.5708595776e+00 1.4842864692e+00 2.5708595776e+00 
72900 4.9764938566e+00 7.0016905185e-05 1.4842840746e+00 -2.5708554301e+00 1.4842840746e+00 2.5708554301e+00 
73000 4.9764938570e+00 7.0454053960e-05 1.4842840746e+00 -2.5708554301e+00 1.4842840746e+00 2.5708554301e+00 
73100 4.9764938574e+00 7.0888860066e-05 1.4842840746e+00 -2.5708554301e+00 1.4842840746e+00 2.5708554301e+00 
73200 4.9764938576e+00 6.9809456741e-05 1.4842816866e+00 -2.5708512940e+00 1.4842816866e+00 2.5708512940e+00 
73300 4.9764938580e+00 7.0231603890e-05 1.4842816866e+00 -2.5708512940e+00 1.4842816866e+00 2.5708512940e+00 
73400 4.9764938584e+00 7.0651472948e-05 1.4842816866e+00 -2.5708512940e+00 1.4842816866e+00 2.5708512940e+00 
73500 4.9764938587e+00 7.1069029842e-05 1.4842816866e+00 -2.5708512940e+00 1.4842816866e+00 2.5708512940e+00 
73600 4.9764938589e+00 6.9968584259e-05 1.4842792926e+00 -2.5708471474e+00 1.4842792926e+00 2.5708471474e+00 
73700 4.9764938593e+00 7.0373534553e-05 1.4842792926e+00 -2.5708471474e+00 1.4842792926e+00 2.5708471474e+00 
73800 4.9764938596e+00 7.0776248983e-05 1.4842792926e+00 -2.5708471474e+00 1.4842792926e+00 2.5708471474e+00 
73900 4.9764938598e+00 6.9667293690e-05 1.4842769084e+00 -2.5708430178e+00 1.4842769084e+00 2.5708430178e+00 
74000 4.9764938601e+00 7.0057595813e-05 1.4842769084e+00 -2.5708430178e+00 1.4842769084e+00 2.5708430178e+00 
74100 4.9764938605e+00 7.0445746705e-05 1.4842769084e+00 -2.5708430178e+00 1.4842769084e+00 2.5708430178e+00 
74200 4.9764938608e+00 7.0831718684e-05 1.4842769084e+00 -2.5708430178e+00 1.4842769084e+00 2.5708430178e+00 
74300 4.9764938610e+00 6.9704911514e-05 1.4842745223e+00 -2.5708388850e+00 1.4842745223e+00 2.5708388850e+00 
74400 4.9764938613e+00 7.0078587995e-05 1.4842745223e+00 -2.5708388850e+00 1.4842745223e+00 2.5708388850e+00 
74500 4.9764938617e+00 7.0450179323e-05 1.4842745223e+00 -2.5708388850e+00 1.4842745223e+00 2.5708388850e+00 
74600 4.9764938620e+00 7.0819660647e-05 1.4842745223e+00 -2.5708388850e+00 1.4842745223e+00 2.5708388850e+00 
74700 4.9764938621e+00 6.9676704335e-05 1.4842721366e+00 -2.5708347529e+00 1.4842721366e+00 2.5708347529e+00 
74800 4.9764938625e+00 7.0034037418e-05 1.4842721366e+00 -2.5708347529e+00 1.4842721366e+00 2.5708347529e+00 
74900 4.9764938628e+00 7.0389362252e-05 1.4842721366e+00 -2.5708347529e+00 1.4842721366e+00 2.5708347529e+00 
75000 4.9764938631e+00 7.0742656504e-05 1.4842721366e+00 -2.5708347529e+00 1.4842721366e+00 2.5708347529e+00 
75100 4.9764938632e+00 6.9585249097e-05 1.4842697536e+00 -2.5708306253e+00 1.4842697536e+00 2.5708306253e+00 
75200 4.9764938635e+00 6.9926569656e-05 1.4842697536e+00 -2.5708306253e+00 1.4842697536e+00 2.5708306253e+00 
75300 4.9764938639e+00 7.0265968288e-05 1.4842697536e+00 -2.5708306253e+00 1.4842697536e+00 2.5708306253e+00 
75400 4.9764938642e+00 7.0603424859e-05 1.4842697536e+00 -2.5708306253e+00 1.4842697536e+00 2.5708306253e+00 
75500 4.9764938645e+00 7.0938919288e-05 1.4842697536e+00 -2.5708306253e+00 1.4842697536e+00 2.5708306253e+00 
75600 4.9764938646e+00 6.9759612476e-05 1.4842673639e+00 -2.5708264863e+00 1.4842673639e+00 2.5708264863e+00 
75700 4.9764938649e+00 7.0083254810e-05 1.4842673639e+00 -2.5708264863e+00 1.4842673639e+00 2.5708264863e+00 
75800 4.9764938652e+00 7.0405050640e-05 1.4842673639e+00 -2.5708264863e+00 1.4842673639e+00 2.5708264863e+00 
75900 4.9764938655e+00 7.0724981915e-05 1.4842673639e+00 -2.5708264863e+00 1.4842673639e+00 2.5708264863e+00 
76000 4.9764938655e+00 6.9534784140e-05 1.4842649814e+00 -2.5708223597e+00 1.4842649814e+00 2.5708223597e+00 
76100 4.9764938658e+00 6.9843087958e-05 1.4842649814e+00 -2.5708223597e+00 1.4842649814e+00 2.5708223597e+00 
76200 4.9764938661e+00 7.0149647984e-05 1.4842649814e+00 -2.5708223597e+00 1.4842649814e+00 2.5708223597e+00 
76300 4.9764938664e+00 7.0454447892e-05 1.4842649814e+00 -2.5708223597e+00 1.4842649814e+00 2.5708223597e+00 
76400 4.9764938667e+00 7.0757471296e-05 1.4842649814e+00 -2.5708223597e+00 1.4842649814e+00 2.5708223597e+00 
76500 4.9764938667e+00 6.9549775773e-05 1.4842625978e+00 -2.5708182312e+00 1.4842625978e+00 2.5708182312e+00 
76600 4.9764938670e+00 6.9841348954e-05 1.4842625978e+00 -2.5708182312e+00 1.4842625978e+00 2.5708182312e+00 
76700 4.9764938673e+00 7.0131271215e-05 1.4842625978e+00 -2.5708182312e+00 1.4842625978e+00 2.5708182312e+00 
76800 4.9764938676e+00 7.0419527723e-05 1.4842625978e+00 -2.5708182312e+00 1.4842625978e+00 2.5708182312e+00 
76900 4.9764938678e+00 7.0706103540e-05 1.4842625978e+00 -2.5708182312e+00 1.4842625978e+00 2.5708182312e+00 
77000 4.9764938681e+00 7.0990983651e-05 1.4842625978e+00 -2.5708182312e+00 1.4842625978e+00 2.5708182312e+00 
77100 4.9764938681e+00 6.9760263032e-05 1.4842602063e+00 -2.5708140890e+00 1.4842602063e+00 2.5708140890e+00 
77200 4.9764938684e+00 7.0033832601e-05 1.4842602063e+00 -2.5708140890e+00 1.4842602063e+00 2.5708140890e+00 
77300 4.9764938687e+00 7.0305836700e-05 1.4842602063e+00 -2.5708140890e+00 1.4842602063e+00 2.5708140890e+00 
77400 4.9764938689e+00 7.0576261836e-05 1.4842602063e+00 -2.5708140890e+00 1.4842602063e+00 2.5708140890e+00 
77500 4.9764938692e+00 7.0845094405e-05 1.4842602063e+00 -2.5708140890e+00 1.4842602063e+00 2.5708140890e+00 
77600 4.9764938692e+00 6.9601553028e-05 1.4842578198e+00 -2.5708099554e+00 1.4842578198e+00 2.5708099554e+00 
77700 4.9764938694e+00 6.9859301514e-05 1.4842578198e+00 -2.5708099554e+00 1.4842578198e+00 2.5708099554e+00 
77800 4.9764938697e+00 7.0115591291e-05 1.4842578198e+00 -2.5708099554e+00 1.4842578198e+00 2.5708099554e+00 
77900 4.9764938699e+00 7.0370410106e-05 1.4842578198e+00 -2.5708099554e+00 1.4842578198e+00 2.5708099554e+00 
78000 4.9764938702e+00 7.0623745542e-05 1.4842578198e+00 -2.5708099554e+00 1.4842578198e+00 2.5708099554e+00 
78100 4.9764938704e+00 7.0875585054e-05 1.4842578198e+00 -2.5708099554e+00 1.4842578198e+00 2.5708099554e+00 
78200 4.9764938704e+00 6.9614511452e-05 1.4842554322e+00 -2.5708058200e+00 1.4842554322e+00 2.5708058200e+00 
78300 4.9764938706e+00 6.9855459827e-05 1.4842554322e+00 -2.5708058200e+00 1.4842554322e+00 2.5708058200e+00 
78400 4.9764938709e+00 7.0095049311e-05 1.4842554322e+00 -2.5708058200e+00 1.4842554322e+00 2.5708058200e+00 
78500 4.9764938711e+00 7.0333268645e-05 1.4842554322e+00 -2.5708058200e+00 1.4842554322e+00 2.5708058200e+00 
78600 4.9764938713e+00 7.0570106394e-05 1.4842554322e+00 -2.5708058200e+00 1.4842554322e+00 2.5708058200e+00 
78700 4.9764938715e+00 7.0805550976e-05 1.4842554322e+00 -2.5708058200e+00 1.4842554322e+00 2.5708058200e+00 
78800 4.9764938715e+00 6.9529691764e-05 1.4842530470e+00 -2.5708016887e+00 1.4842530470e+00 2.5708016887e+00 
78900 4.9764938717e+00 6.9754461237e-05 1.4842530470e+00 -2.5708016887e+00 1.4842530470e+00 2.5708016887e+00 
79000 4.9764938719e+00 6.9977977186e-05 1.4842530470e+00 -2.5708016887e+00 1.4842530470e+00 2.5708016887e+00 
79100 4.9764938722e+00 7.0200229238e-05 1.4842530470e+00 -2.5708016887e+00 1.4842530470e+00 2.5708016887e+00 
79200 4.9764938724e+00 7.0421206818e-05 1.4842530470e+00 -2.5708016887e+00 1.4842530470e+00 2.5708016887e+00 
79300 4.9764938726e+00 7.0640899184e-05 1.4842530470e+00 -2.5708016887e+00 1.4842530470e+00 2.5708016887e+00 
79400 4.9764938728e+00 7.0859295450e-05 1.4842530470e+00 -2.5708016887e+00 1.4842530470e+00 2.5708016887e+00 
79500 4.9764938727e+00 6.9565353310e-05 1.4842506600e+00 -2.5707975542e+00 1.4842506600e+00 2.5707975542e+00 
79600 4.9764938729e+00 6.9773264673e-05 1.4842506600e+00 -2.5707975542e+00 1.4842506600e+00 2.5707975542e+00 
79700 4.9764938731e+00 6.9980021844e-05 1.4842506600e+00 -2.5707975542e+00 1.4842506600e+00 2.5707975542e+00 
79800 4.9764938733e+00 7.0185615167e-05 1.4842506600e+00 -2.5707975542e+00 1.4842506600e+00 2.5707975542e+00 
79900 4.9764938735e+00 7.0390034787e-05 1.4842506600e+00 -2.5707975542e+00 1.4842506600e+00 2.5707975542e+00 
80000 4.9764938737e+00 7.0593270680e-05 1.4842506600e+00 -2.5707975542e+00 1.4842506600e+00 2.5707975542e+00 
80100 4.9764938739e+00 7.0795312681e-05 1.4842506600e+00 -2.5707975542e+00 1.4842506600e+00 2.5707975542e+00 
80200 4.9764938739e+00 6.9486495879e-05 1.4842482751e+00 -2.5707934235e+00 1.4842482751e+00 2.5707934235e+00 
80300 4.9764938741e+00 6.9678266575e-05 1.4842482751e+00 -2.5707934235e+00 1.4842482751e+00 2.5707934235e+00 
80400 4.9764938742e+00 6.9868987286e-05 1.4842482751e+00 -2.5707934235e+00 1.4842482751e+00 2.5707934235e+00 
80500 4.9764938744e+00 7.0058649060e-05 1.4842482751e+00 -2.5707934235e+00 1.4842482751e+00 2.5707934235e+00 
80600 4.9764938746e+00 7.0247242740e-05 1.4842482751e+00 -2.5707934235e+00 1.4842482751e+00 2.5707934235e+00 
80700 4.9764938748e+00 7.0434758994e-05 1.4842482751e+00 -2.5707934235e+00 1.4842482751e+00 2.5707934235e+00 
80800 4.9764938749e+00 7.0621188338e-05 1.4842482751e+00 -2.5707934235e+00 1.4842482751e+00 2.5707934235e+00 
80900 4.9764938751e+00 7.0806521162e-05 1.4842482751e+00 -2.5707934235e+00 1.4842482751e+00 2.5707934235e+00 
81000 4.9764938751e+00 6.9480867333e-05 1.4842458898e+00 -2.5707892921e+00 1.4842458898e+00 2.5707892921e+00 
81100 4.9764938752e+00 6.9656123998e-05 1.4842458898e+00 -2.5707892921e+00 1.4842458898e+00 2.5707892921e+00 
81200 4.9764938754e+00 6.9830429840e-05 1.4842458898e+00 -2.5707892921e+00 1.4842458898e+00 2.5707892921e+00 
81300 4.9764938756e+00 7.0003776512e-05 1.4842458898e+00 -2.5707892921e+00 1.4842458898e+00 2.5707892921e+00 
81400 4.9764938757e+00 7.0176155477e-05 1.4842458898e+00 -2.5707892921e+00 1.4842458898e+00 2.5707892921e+00 
81500 4.9764938759e+00 7.0347558027e-05 1.4842458898e+00 -2.5707892921e+00 1.4842458898e+00 2.5707892921e+00 
81600 4.9764938760e+00 7.0517975311e-05 1.4842458898e+00 -2.5707892921e+00 1.4842458898e+00 2.5707892921e+00 
81700 4.9764938762e+00 7.0687398353e-05 1.4842458898e+00 -2.5707892921e+00 1.4842458898e+00 2.5707892921e+00 
81800 4.9764938763e+00 7.0855818082e-05 1.4842458898e+00 -2.5707892921e+00 1.4842458898e+00 2.5707892921e+00 
81900 4.9764938763e+00 6.9512307407e-05 1.4842435029e+00 -2.5707851578e+00 1.4842435029e+00 2.5707851578e+00 
82000 4.9764938764e+00 6.9670833569e-05 1.4842435029e+00 -2.5707851578e+00 1.4842435029e+00 2.5707851578e+00 
82100 4.9764938766e+00 6.9828504020e-05 1.4842435029e+00 -2.5707851578e+00 1.4842435029e+00 2.5707851578e+00 
82200 4.9764938767e+00 6.9985311049e-05 1.4842435029e+00 -2.5707851578e+00 1.4842435029e+00 2.5707851578e+00 
82300 4.9764938769e+00 7.0141246777e-05 1.4842435029e+00 -2.5707851578e+00 1.4842435029e+00 2.5707851578e+00 
82400 4.9764938770e+00 7.0296303168e-05 1.4842435029e+00 -2.5707851578e+00 1.4842435029e+00 2.5707851578e+00 
82500 4.9764938771e+00 7.0450472057e-05 1.4842435029e+00 -2.5707851578e+00 1.4842435029e+00 2.5707851578e+00 
82600 4.9764938773e+00 7.0603745170e-05 1.4842435029e+00 -2.5707851578e+00 1.4842435029e+00 2.5707851578e+00 
82700 4.9764938774e+00 7.0756114148e-05 1.4842435029e+00 -2.5707851578e+00 1.4842435029e+00 2.5707851578e+00 
82800 4.9764938773e+00 6.9398790557e-05 1.4842411193e+00 -2.5707810293e+00 1.4842411193e+00 2.5707810293e+00 
82900 4.9764938775e+00 6.9541477475e-05 1.4842411193e+00 -2.5707810293e+00 1.4842411193e+00 2.5707810293e+00 
83000 4.9764938776e+00 6.9683409790e-05 1.4842411193e+00 -2.5707810293e+00 1.4842411193e+00 2.5707810293e+00 
83100 4.9764938777e+00 6.9824580520e-05 1.4842411193e+00 -2.5707810293e+00 1.4842411193e+00 2.5707810293e+00 
83200 4.9764938779e+00 6.9964982507e-05 1.4842411193e+00 -2.5707810293e+00 1.4842411193e+00 2.5707810293e+00 
83300 4.9764938780e+00 7.0104608441e-05 1.4842411193e+00 -2.5707810293e+00 1.4842411193e+00 2.5707810293e+00 
83400 4.9764938781e+00 7.0243450876e-05 1.4842411193e+00 -2.5707810293e+00 1.4842411193e+00 2.5707810293e+00 
83500 4.9764938783e+00 7.0381502247e-05 1.4842411193e+00 -2.5707810293e+00 1.4842411193e+00 2.5707810293e+00 
83600 4.9764938784e+00 7.0518754897e-05 1.4842411193e+00 -2.5707810293e+00 1.4842411193e+00 2.5707810293e+00 
83700 4.9764938785e+00 7.0655201093e-05 1.4842411193e+00 -2.5707810293e+00 1.4842411193e+00 2.5707810293e+00 
83800 4.9764938786e+00 7.0790833048e-05 1.4842411193e+00 -2.5707810293e+00 1.4842411193e+00 2.5707810293e+00 
83900 4.9764938785e+00 6.9416136114e-05 1.4842387346e+00 -2.5707768988e+00 1.4842387346e+00 2.5707768988e+00 
84000 4.9764938786e+00 6.9542263703e-05 1.4842387346e+00 -2.5707768988e+00 1.4842387346e+00 2.5707768988e+00 
84100 4.9764938788e+00 6.9667728569e-05 1.4842387346e+00 -2.5707768988e+00 1.4842387346e+00 2.5707768988e+00 
84200 4.9764938789e+00 6.9792524408e-05 1.4842387346e+00 -2.5707768988e+00 1.4842387346e+00 2.5707768988e+00 
84300 4.9764938790e+00 6.9916644767e-05 1.4842387346e+00 -2.5707768988e+00 1.4842387346e+00 2.5707768988e+00 
84400 4.9764938791e+00 7.0040083054e-05 1.4842387346e+00 -2.5707768988e+00 1.4842387346e+00 2.5707768988e+00 
84500 4.9764938792e+00 7.0162832561e-05 1.4842387346e+00 -2.5707768988e+00 1.4842387346e+00 2.5707768988e+00 
84600 4.9764938793e+00 7.0284886475e-05 1.4842387346e+00 -2.5707768988e+00 1.4842387346e+00 2.5707768988e+00 
84700 4.9764938794e+00 7.0406237903e-05 1.4842387346e+00 -2.5707768988e+00 1.4842387346e+00 2.5707768988e+00 
84800 4.9764938795e+00 7.0526879883e-05 1.4842387346e+00 -2.5707768988e+00 1.4842387346e+00 2.5707768988e+00 
84900 4.9764938796e+00 7.0646805407e-05 1.4842387346e+00 -2.5707768988e+00 1.4842387346e+00 2.5707768988e+00 
85000 4.9764938797e+00 7.0766007434e-05 1.4842387346e+00 -2.5707768988e+00 1.4842387346e+00 2.5707768988e+00 
85100 4.9764938796e+00 6.9375514219e-05 1.4842363507e+00 -2.5707727698e+00 1.4842363507e+00 2.5707727698e+00 
85200 4.9764938797e+00 6.9485398388e-05 1.4842363507e+00 -2.5707727698e+00 1.4842363507e+00 2.5707727698e+00 
85300 4.9764938798e+00 6.9594712897e-05 1.4842363507e+00 -2.5707727698e+00 1.4842363507e+00 2.5707727698e+00 
85400 4.9764938799e+00 6.9703452264e-05 1.4842363507e+00 -2.5707727698e+00 1.4842363507e+00 2.5707727698e+00 
85500 4.9764938800e+00 6.9811610868e-05 1.4842363507e+00 -2.5707727698e+00 1.4842363507e+00 2.5707727698e+00 
85600 4.9764938801e+00 6.9919182959e-05 1.4842363507e+00 -2.5707727698e+00 1.4842363507e+00 2.5707727698e+00 
85700 4.9764938802e+00 7.0026162679e-05 1.4842363507e+00 -2.5707727698e+00 1.4842363507e+00 2.5707727698e+00 
85800 4.9764938803e+00 7.0132544068e-05 1.4842363507e+00 -2.5707727698e+00 1.4842363507e+00 2.5707727698e+00 
85900 4.9764938804e+00 7.0238321088e-05 1.4842363507e+00 -2.5707727698e+00 1.4842363507e+00 2.5707727698e+00 
86000 4.9764938805e+00 7.0343487631e-05 1.4842363507e+00 -2.5707727698e+00 1.4842363507e+00 2.5707727698e+00 
86100 4.9764938806e+00 7.0448037543e-05 1.4842363507e+00 -2.5707727698e+00 1.4842363507e+00 2.5707727698e+00 
86200 4.9764938807e+00 7.0551964629e-05 1.4842363507e+00 -2.5707727698e+00 1.4842363507e+00 2.5707727698e+00 
86300 4.9764938808e+00 7.0655262679e-05 1.4842363507e+00 -2.5707727698e+00 1.4842363507e+00 2.5707727698e+00 
86400 4.9764938809e+00 7.0757925474e-05 1.4842363507e+00 -2.5707727698e+00 1.4842363507e+00 2.5707727698e+00 
86500 4.9764938807e+00 6.9351167385e-05 1.4842339670e+00 -2.5707686412e+00 1.4842339670e+00 2.5707686412e+00 
86600 4.9764938808e+00 6.9444692184e-05 1.4842339670e+00 -2.5707686412e+00 1.4842339670e+00 2.5707686412e+00 
86700 4.9764938809e+00 6.9537738149e-05 1.4842339670e+00 -2.5707686412e+00 1.4842339670e+00 2.5707686412e+00 
86800 4.9764938810e+00 6.9630300697e-05 1.4842339670e+00 -2.5707686412e+00 1.4842339670e+00 2.5707686412e+00 
86900 4.9764938811e+00 6.9722375117e-05 1.4842339670e+00 -2.5707686412e+00 1.4842339670e+00 2.5707686412e+00 
87000 4.9764938812e+00 6.9813956580e-05 1.4842339670e+00 -2.5707686412e+00 1.4842339670e+00 2.5707686412e+00 
87100 4.9764938812e+00 6.9905040154e-05 1.4842339670e+00 -2.5707686412e+00 1.4842339670e+00 2.5707686412e+00 
87200 4.9764938813e+00 6.9995620816e-05 1.4842339670e+00 -2.5707686412e+00 1.4842339670e+00 2.5707686412e+00 
87300 4.9764938814e+00 7.0085693462e-05 1.4842339670e+00 -2.5707686412e+00 1.4842339670e+00 2.5707686412e+00 
87400 4.9764938815e+00 7.0175252920e-05 1.4842339670e+00 -2.5707686412e+00 1.4842339670e+00 2.5707686412e+00 
87500 4.9764938815e+00 7.0264293965e-05 1.4842339670e+00 -2.5707686412e+00 1.4842339670e+00 2.5707686412e+00 
87600 4.9764938816e+00 7.0352811333e-05 1.4842339670e+00 -2.5707686412e+00 1.4842339670e+00 2.5707686412e+00 
87700 4.9764938817e+00 7.0440799730e-05 1.4842339670e+00 -2.5707686412e+00 1.4842339670e+00 2.5707686412e+00 
87800 4.9764938818e+00 7.0528253850e-05 1.4842339670e+00 -2.5707686412e+00 1.4842339670e+00 2.5707686412e+00 
87900 4.9764938819e+00 7.0615168386e-05 1.4842339670e+00 -2.5707686412e+00 1.4842339670e+00 2.5707686412e+00 
88000 4.9764938819e+00 7.0701538042e-05 1.4842339670e+00 -2.5707686412e+00 1.4842339670e+00 2.5707686412e+00 
88100 4.9764938820e+00 7.0787357546e-05 1.4842339670e+00 -2.5707686412e+00 1.4842339670e+00 2.5707686412e+00 
88200 4.9764938818e+00 6.9363227986e-05 1.4842315824e+00 -2.5707645109e+00 1.4842315824e+00 2.5707645109e+00 
88300 4.9764938819e+00 6.9440079296e-05 1.4842315824e+00 -2.5707645109e+00 1.4842315824e+00 2.5707645109e+00 
88400 4.9764938820e+00 6.9516539936e-05 1.4842315824e+00 -2.5707645109e+00 1.4842315824e+00 2.5707645109e+00 
88500 4.9764938821e+00 6.9592606356e-05 1.4842315824e+00 -2.5707645109e+00 1.4842315824e+00 2.5707645109e+00 
88600 4.9764938821e+00 6.9668274890e-05 1.4842315824e+00 -2.5707645109e+00 1.4842315824e+00 2.5707645109e+00 
88700 4.9764938822e+00 6.9743541769e-05 1.4842315824e+00 -2.5707645109e+00 1.4842315824e+00 2.5707645109e+00 
88800 4.9764938823e+00 6.9818403126e-05 1.4842315824e+00 -2.5707645109e+00 1.4842315824e+00 2.5707645109e+00 
88900 4.9764938823e+00 6.9892855009e-05 1.4842315824e+00 -2.5707645109e+00 1.4842315824e+00 2.5707645109e+00 
89000 4.9764938824e+00 6.9966893390e-05 1.4842315824e+00 -2.5707645109e+00 1.4842315824e+00 2.5707645109e+00 
89100 4.9764938824e+00 7.0040514169e-05 1.4842315824e+00 -2.5707645109e+00 1.4842315824e+00 2.5707645109e+00 
89200 4.9764938825e+00 7.0113713196e-05 1.4842315824e+00 -2.5707645109e+00 1.4842315824e+00 2.5707645109e+00 
89300 4.9764938826e+00 7.0186486273e-05 1.4842315824e+00 -2.5707645109e+00 1.4842315824e+00 2.5707645109e+00 
89400 4.9764938826e+00 7.0258829164e-05 1.4842315824e+00 -2.5707645109e+00 1.4842315824e+00 2.5707645109e+00 
89500 4.9764938827e+00 7.0330737613e-05 1.4842315824e+00 -2.5707645109e+00 1.4842315824e+00 2.5707645109e+00 
89600 4.9764938828e+00 7.0402207349e-05 1.4842315824e+00 -2.5707645109e+00 1.4842315824e+00 2.5707645109e+00 
89700 4.9764938828e+00 7.0473234096e-05 1.4842315824e+00 -2.5707645109e+00 1.4842315824e+00 2.5707645109e+00 
89800 4.9764938829e+00 7.0543813589e-05 1.4842315824e+00 -2.5707645109e+00 1.4842315824e+00 2.5707645109e+00 
89900 4.9764938829e+00 7.0613941578e-05 1.4842315824e+00 -2.5707645109e+00 1.4842315824e+00 2.5707645109e+00 
90000 4.9764938830e+00 7.0683613843e-05 1.4842315824e+00 -2.5707645109e+00 1.4842315824e+00 2.5707645109e+00 
90100 4.9764938830e+00 7.0752826202e-05 1.4842315824e+00 -2.5707645109e+00 1.4842315824e+00 2.5707645109e+00 
90200 4.9764938829e+00 6.9312929654e-05 1.4842291989e+00 -2.5707603825e+00 1.4842291989e+00 2.5707603825e+00 
90300 4.9764938829e+00 6.9373361372e-05 1.4842291989e+00 -2.5707603825e+00 1.4842291989e+00 2.5707603825e+00 
90400 4.9764938830e+00 6.9433495904e-05 1.4842291989e+00 -2.5707603825e+00 1.4842291989e+00 2.5707603825e+00 
90500 4.9764938830e+00 6.9493330811e-05 1.4842291989e+00 -2.5707603825e+00 1.4842291989e+00 2.5707603825e+00 
90600 4.9764938831e+00 6.9552863540e-05 1.4842291989e+00 -2.5707603825e+00 1.4842291989e+00 2.5707603825e+00 
90700 4.9764938831e+00 6.9612091429e-05 1.4842291989e+00 -2.5707603825e+00 1.4842291989e+00 2.5707603825e+00 
90800 4.9764938832e+00 6.9671011714e-05 1.4842291989e+00 -2.5707603825e+00 1.4842291989e+00 2.5707603825e+00 
90900 4.9764938832e+00 6.9729621540e-05 1.4842291989e+00 -2.5707603825e+00 1.4842291989e+00 2.5707603825e+00 
91000 4.9764938833e+00 6.9787917960e-05 1.4842291989e+00 -2.5707603825e+00 1.4842291989e+00 2.5707603825e+00 
91100 4.9764938833e+00 6.9845897950e-05 1.4842291989e+00 -2.5707603825e+00 1.4842291989e+00 2.5707603825e+00 
91200 4.9764938834e+00 6.9903558415e-05 1.4842291989e+00 -2.5707603825e+00 1.4842291989e+00 2.5707603825e+00 
91300 4.9764938834e+00 6.9960896195e-05 1.4842291989e+00 -2.5707603825e+00 1.4842291989e+00 2.5707603825e+00 
91400 4.9764938835e+00 7.0017908078e-05 1.4842291989e+00 -2.5707603825e+00 1.4842291989e+00 2.5707603825e+00 
91500 4.9764938835e+00 7.0074590805e-05 1.4842291989e+00 -2.5707603825e+00 1.4842291989e+00 2.5707603825e+00 
91600 4.9764938836e+00 7.0130941082e-05 1.4842291989e+00 -2.5707603825e+00 1.4842291989e+00 2.5707603825e+00 
91700 4.9764938836e+00 7.0186955586e-05 1.4842291989e+00 -2.5707603825e+00 1.4842291989e+00 2.5707603825e+00 
91800 4.9764938837e+00 7.0242630976e-05 1.4842291989e+00 -2.5707603825e+00 1.4842291989e+00 2.5707603825e+00 
91900 4.9764938837e+00 7.0297963899e-05 1.4842291989e+00 -2.5707603825e+00 1.4842291989e+00 2.5707603825e+00 
92000 4.9764938837e+00 7.0325500889e-05 1.4842291989e+00 -2.5707603825e+00 1.4842291989e+00 2.5707603825e+00 
92000 4.9764938837e+00 7.0325500889e-05 1.4842291989e+00 -2.5707603825e+00 1.4842291989e+00 2.5707603825e+00 
