# step Hamiltonian StressXX CellTensor1 CellTensor2 CellTensor3 CellTensor4 
0 4.6935647049e+00 1.9320738611e-02 1.6387017056e+00 -2.8383146126e+00 1.6387017056e+00 2.8383146126e+00 
100 4.6868090162e+00 1.6614106231e-02 1.6387017056e+00 -2.8383146126e+00 1.6387017056e+00 2.8383146126e+00 
200 4.6799490197e+00 1.3478147817e-02 1.6381948028e+00 -2.8374366312e+00 1.6381948028e+00 2.8374366312e+00 
300 4.6729995434e+00 1.0561656009e-02 1.6377834481e+00 -2.8367241439e+00 1.6377834481e+00 2.8367241439e+00 
400 4.6659697224e+00 7.8520381572e-03 1.6374610212e+00 -2.8361656841e+00 1.6374610212e+00 2.8361656841e+00 
500 4.6588756985e+00 5.3393179896e-03 1.6372212644e+00 -2.8357504132e+00 1.6372212644e+00 2.8357504132e+00 
600 4.6517388847e+00 3.0157068087e-03 1.6370582068e+00 -2.8354679891e+00 1.6370582068e+00 2.8354679891e+00 
700 4.6445844178e+00 8.7519826671e-04 1.6369661001e+00 -2.8353084557e+00 1.6369661001e+00 2.8353084557e+00 
800 4.6374398001e+00 -1.0868073871e-03 1.6369393679e+00 -2.8352621541e+00 1.6369393679e+00 2.8352621541e+00 
900 4.6303337254e+00 -2.8738453797e-03 1.6369725643e+00 -2.8353196520e+00 1.6369725643e+00 2.8353196520e+00 
1000 4.6232950826e+00 -4.4886921945e-03 1.6370603444e+00 -2.8354716915e+00 1.6370603444e+00 2.8354716915e+00 
1100 4.6163521268e+00 -5.9336338712e-03 1.6371974424e+00 -2.8357091523e+00 1.6371974424e+00 2.8357091523e+00 
1200 4.6095318076e+00 -7.2106968696e-03 1.6373786589e+00 -2.8360230284e+00 1.6373786589e+00 2.8360230284e+00 
1300 4.6028592405e+00 -8.3218425511e-03 1.6375988541e+00 -2.8364044177e+00 1.6375988541e+00 2.8364044177e+00 
1400 4.5963573082e+00 -9.2691271222e-03 1.6378529474e+00 -2.8368445202e+00 1.6378529474e+00 2.8368445202e+00 
1500 4.5900463777e+00 -1.0054829458e-02 1.6381359213e+00 -2.8373346454e+00 1.6381359213e+00 2.8373346454e+00 
1600 4.5839441189e+00 -1.0681549612e-02 1.6384428294e+00 -2.8378662258e+00 1.6384428294e+00 2.8378662258e+00 
1700 4.5780654108e+00 -1.1152281022e-02 1.6387688067e+00 -2.8384308351e+00 1.6387688067e+00 2.8384308351e+00 
1800 4.5724223218e+00 -1.1470459503e-02 1.6391090825e+00 -2.8390202101e+00 1.6391090825e+00 2.8390202101e+00 
1900 4.5670241528e+00 -1.1639992079e-02 1.6394589942e+00 -2.8396262748e+00 1.6394589942e+00 2.8396262748e+00 
2000 4.5618775300e+00 -1.1665268556e-02 1.6398140019e+00 -2.8402411662e+00 1.6398140019e+00 2.8402411662e+00 
2100 4.5569865384e+00 -1.1551158588e-02 1.6401697035e+00 -2.8408572595e+00 1.6401697035e+00 2.8408572595e+00 
2200 4.5523528857e+00 -1.1302996721e-02 1.6405218491e+00 -2.8414671937e+00 1.6405218491e+00 2.8414671937e+00 
2300 4.5479760889e+00 -1.0926557691e-02 1.6408663551e+00 -2.8420638955e+00 1.6408663551e+00 2.8420638955e+00 
2400 4.5438536763e+00 -1.0428023958e-02 1.6411993173e+00 -2.8426406029e+00 1.6411993173e+00 2.8426406029e+00 
2500 4.5399813981e+00 -9.8139472529e-03 1.6415170228e+00 -2.8431908849e+00 1.6415170228e+00 2.8431908849e+00 
2600 4.5363534408e+00 -9.0912056440e-03 1.6418159610e+00 -2.8437086612e+00 1.6418159610e+00 2.8437086612e+00 
2700 4.5329626411e+00 -8.2669574292e-03 1.6420928331e+00 -2.8441882177e+00 1.6420928331e+00 2.8441882177e+00 
2800 4.5298006954e+00 -7.3485929680e-03 1.6423445597e+00 -2.8446242210e+00 1.6423445597e+00 2.8446242210e+00 
2900 4.5268583616e+00 -6.3436853877e-03 1.6425682874e+00 -2.8450117287e+00 1.6425682874e+00 2.8450117287e+00 
3000 4.5241256511e+00 -5.2599409571e-03 1.6427613939e+00 -2.8453461989e+00 1.6427613939e+00 2.8453461989e+00 
3100 4.5215920103e+00 -4.1051497914e-03 1.6429214909e+00 -2.8456234952e+00 1.6429214909e+00 2.8456234952e+00 
3200 4.5192464878e+00 -2.8871374496e-03 1.6430464270e+00 -2.8458398907e+00 1.6430464270e+00 2.8458398907e+00 
3300 4.5170778891e+00 -1.6137178942e-03 1.6431342870e+00 -2.8459920688e+00 1.6431342870e+00 2.8459920688e+00 
3400 4.5150749164e+00 -2.9264821592e-04 1.6431833922e+00 -2.8460771214e+00 1.6431833922e+00 2.8460771214e+00 
3500 4.5132262940e+00 1.0684145395e-03 1.6431922971e+00 -2.8460925451e+00 1.6431922971e+00 2.8460925451e+00 
3600 4.5115208795e+00 2.4619541492e-03 1.6431597869e+00 -2.8460362358e+00 1.6431597869e+00 2.8460362358e+00 
3700 4.5099477604e+00 3.8806333487e-03 1.6430848722e+00 -2.8459064798e+00 1.6430848722e+00 2.8459064798e+00 
3800 4.5084963370e+00 5.3173291133e-03 1.6429667837e+00 -2.8457019446e+00 1.6429667837e+00 2.8457019446e+00 
3900 4.5071563917e+00 6.7651649066e-03 1.6428049654e+00 -2.8454216671e+00 1.6428049654e+00 2.8454216671e+00 
4000 4.5059181465e+00 8.2175397495e-03 1.6425990669e+00 -2.8450650403e+00 1.6425990669e+00 2.8450650403e+00 
4100 4.5047723073e+00 9.6681539933e-03 1.6423489349e+00 -2.8446317990e+00 1.6423489349e+00 2.8446317990e+00 
4200 4.5037100986e+00 1.1111031712e-02 1.6420546045e+00 -2.8441220037e+00 1.6420546045e+00 2.8441220037e+00 
4300 4.5027232868e+00 1.2540539663e-02 1.6417162890e+00 -2.8435360241e+00 1.6417162890e+00 2.8435360241e+00 
4400 4.5018041951e+00 1.3951402790e-02 1.6413343700e+00 -2.8428745210e+00 1.6413343700e+00 2.8428745210e+00 
4500 4.5009457093e+00 1.5338716287e-02 1.6409093865e+00 -2.8421384280e+00 1.6409093865e+00 2.8421384280e+00 
4600 4.5001412773e+00 1.6697954272e-02 1.6404420240e+00 -2.8413289325e+00 1.6404420240e+00 2.8413289325e+00 
4700 4.4993849007e+00 1.8024975142e-02 1.6399331036e+00 -2.8404474564e+00 1.6399331036e+00 2.8404474564e+00 
4800 4.4986711221e+00 1.9316023732e-02 1.6393835699e+00 -2.8394956362e+00 1.6393835699e+00 2.8394956362e+00 
4900 4.4979950071e+00 2.0567730426e-02 1.6387944806e+00 -2.8384753036e+00 1.6387944806e+00 2.8384753036e+00 
5000 4.4973521222e+00 2.1777107390e-02 1.6381669945e+00 -2.8373884657e+00 1.6381669945e+00 2.8373884657e+00 
5100 4.4967385103e+00 2.2941542121e-02 1.6375023603e+00 -2.8362372856e+00 1.6375023603e+00 2.8362372856e+00 
5200 4.4961506633e+00 2.4058788561e-02 1.6368019062e+00 -2.8350240635e+00 1.6368019062e+00 2.8350240635e+00 
5300 4.4955854930e+00 2.5126955996e-02 1.6360670284e+00 -2.8337512178e+00 1.6360670284e+00 2.8337512178e+00 
5400 4.4950403015e+00 2.6144496000e-02 1.6352991812e+00 -2.8324212674e+00 1.6352991812e+00 2.8324212674e+00 
5500 4.4945127503e+00 2.7110187704e-02 1.6344998668e+00 -2.8310368142e+00 1.6344998668e+00 2.8310368142e+00 
5600 4.4940008298e+00 2.8023121645e-02 1.6336706255e+00 -2.8296005263e+00 1.6336706255e+00 2.8296005263e+00 
5700 4.4935028294e+00 2.8882682471e-02 1.6328130271e+00 -2.8281151222e+00 1.6328130271e+00 2.8281151222e+00 
5800 4.4930173077e+00 2.9688530757e-02 1.6319286615e+00 -2.8265833560e+00 1.6319286615e+00 2.8265833560e+00 
5900 4.4925430644e+00 3.0440584208e-02 1.6310191312e+00 -2.8250080033e+00 1.6310191312e+00 2.8250080033e+00 
6000 4.4920791128e+00 3.1138998458e-02 1.6300860434e+00 -2.8233918479e+00 1.6300860434e+00 2.8233918479e+00 
6100 4.4916246546e+00 3.1784147722e-02 1.6291310032e+00 -2.8217376697e+00 1.6291310032e+00 2.8217376697e+00 
6200 4.4911790554e+00 3.2376605481e-02 1.6281556066e+00 -2.8200482333e+00 1.6281556066e+00 2.8200482333e+00 
6300 4.4907418227e+00 3.2917125405e-02 1.6271614355e+00 -2.8183262783e+00 1.6271614355e+00 2.8183262783e+00 
6400 4.4903125848e+00 3.3406622667e-02 1.6261500511e+00 -2.8165745092e+00 1.6261500511e+00 2.8165745092e+00 
6500 4.4898910725e+00 3.3846155795e-02 1.6251229902e+00 -2.8147955875e+00 1.6251229902e+00 2.8147955875e+00 
6600 4.4894771016e+00 3.4236909185e-02 1.6240817601e+00 -2.8129921241e+00 1.6240817601e+00 2.8129921241e+00 
6700 4.4890705574e+00 3.4580176362e-02 1.6230278352e+00 -2.8111666727e+00 1.6230278352e+00 2.8111666727e+00 
6800 4.4886713814e+00 3.4877344085e-02 1.6219626535e+00 -2.8093217238e+00 1.6219626535e+00 2.8093217238e+00 
6900 4.4882795586e+00 3.5129877336e-02 1.6208876137e+00 -2.8074597003e+00 1.6208876137e+00 2.8074597003e+00 
7000 4.4878951071e+00 3.5339305248e-02 1.6198040728e+00 -2.8055829524e+00 1.6198040728e+00 2.8055829524e+00 
7100 4.4875180688e+00 3.5507207990e-02 1.6187133441e+00 -2.8036937548e+00 1.6187133441e+00 2.8036937548e+00 
7200 4.4871485012e+00 3.5635204618e-02 1.6176166955e+00 -2.8017943037e+00 1.6176166955e+00 2.8017943037e+00 
7300 4.4867864710e+00 3.5724941890e-02 1.6165153481e+00 -2.7998867141e+00 1.6165153481e+00 2.7998867141e+00 
7400 4.4864320479e+00 3.5778084039e-02 1.6154104755e+00 -2.7979730187e+00 1.6154104755e+00 2.7979730187e+00 
7500 4.4860853000e+00 3.5796303464e-02 1.6143032030e+00 -2.7960551664e+00 1.6143032030e+00 2.7960551664e+00 
7600 4.4857462902e+00 3.5781272329e-02 1.6131946069e+00 -2.7941350217e+00 1.6131946069e+00 2.7941350217e+00 
7700 4.4854150729e+00 3.5734655016e-02 1.6120857150e+00 -2.7922143645e+00 1.6120857150e+00 2.7922143645e+00 
7800 4.4850916916e+00 3.5658101407e-02 1.6109775060e+00 -2.7902948903e+00 1.6109775060e+00 2.7902948903e+00 
7900 4.4847761773e+00 3.5553240933e-02 1.6098709103e+00 -2.7883782103e+00 1.6098709103e+00 2.7883782103e+00 
8000 4.4844685472e+00 3.5421677362e-02 1.6087668102e+00 -2.7864658527e+00 1.6087668102e+00 2.7864658527e+00 
8100 4.4841688038e+00 3.5264984266e-02 1.6076660405e+00 -2.7845592637e+00 1.6076660405e+00 2.7845592637e+00 
8200 4.4838769345e+00 3.5084701123e-02 1.6065693895e+00 -2.7826598084e+00 1.6065693895e+00 2.7826598084e+00 
8300 4.4835929119e+00 3.4882330011e-02 1.6054775996e+00 -2.7807687729e+00 1.6054775996e+00 2.7807687729e+00 
8400 4.4833166936e+00 3.4659332832e-02 1.6043913685e+00 -2.7788873655e+00 1.6043913685e+00 2.7788873655e+00 
8500 4.4830482226e+00 3.4417129044e-02 1.6033113502e+00 -2.7770167189e+00 1.6033113502e+00 2.7770167189e+00 
8600 4.4827874283e+00 3.4157093840e-02 1.6022381561e+00 -2.7751578921e+00 1.6022381561e+00 2.7751578921e+00 
8700 4.4825342269e+00 3.3880556727e-02 1.6011723562e+00 -2.7733118726e+00 1.6011723562e+00 2.7733118726e+00 
8800 4.4822885224e+00 3.3588800493e-02 1.6001144806e+00 -2.7714795783e+00 1.6001144806e+00 2.7714795783e+00 
8900 4.4820502073e+00 3.3283060494e-02 1.5990650205e+00 -2.7696618601e+00 1.5990650205e+00 2.7696618601e+00 
9000 4.4818191641e+00 3.2964524239e-02 1.5980244297e+00 -2.7678595039e+00 1.5980244297e+00 2.7678595039e+00 
9100 4.4815952655e+00 3.2634331248e-02 1.5969931258e+00 -2.7660732332e+00 1.5969931258e+00 2.7660732332e+00 
9200 4.4813783764e+00 3.2293573136e-02 1.5959714918e+00 -2.7643037112e+00 1.5959714918e+00 2.7643037112e+00 
9300 4.4811683539e+00 3.1943293907e-02 1.5949598773e+00 -2.7625515435e+00 1.5949598773e+00 2.7625515435e+00 
9400 4.4809650490e+00 3.1584490433e-02 1.5939585998e+00 -2.7608172800e+00 1.5939585998e+00 2.7608172800e+00 
9500 4.4807683073e+00 3.1218113078e-02 1.5929679462e+00 -2.7591014176e+00 1.5929679462e+00 2.7591014176e+00 
9600 4.4805779701e+00 3.0845066473e-02 1.5919881741e+00 -2.7574044026e+00 1.5919881741e+00 2.7574044026e+00 
9700 4.4803938750e+00 3.0466210392e-02 1.5910195131e+00 -2.7557266325e+00 1.5910195131e+00 2.7557266325e+00 
9800 4.4802158569e+00 3.0082360732e-02 1.5900621662e+00 -2.7540684590e+00 1.5900621662e+00 2.7540684590e+00 
9900 4.4800437489e+00 2.9694290581e-02 1.5891163108e+00 -2.7524301895e+00 1.5891163108e+00 2.7524301895e+00 
10000 4.4798773828e+00 2.9302731336e-02 1.5881821004e+00 -2.7508120896e+00 1.5881821004e+00 2.7508120896e+00 
10100 4.4797165901e+00 2.8908373890e-02 1.5872596655e+00 -2.7492143855e+00 1.5872596655e+00 2.7492143855e+00 
10200 4.4795612022e+00 2.8511869855e-02 1.5863491148e+00 -2.7476372654e+00 1.5863491148e+00 2.7476372654e+00 
10300 4.4794110514e+00 2.8113832813e-02 1.5854505366e+00 -2.7460808822e+00 1.5854505366e+00 2.7460808822e+00 
10400 4.4792659713e+00 2.7714839595e-02 1.5845639996e+00 -2.7445453551e+00 1.5845639996e+00 2.7445453551e+00 
10500 4.4791257969e+00 2.7315431569e-02 1.5836895543e+00 -2.7430307715e+00 1.5836895543e+00 2.7430307715e+00 
10600 4.4789903657e+00 2.6916115935e-02 1.5828272341e+00 -2.7415371890e+00 1.5828272341e+00 2.7415371890e+00 
10700 4.4788595176e+00 2.6517367022e-02 1.5819770559e+00 -2.7400646372e+00 1.5819770559e+00 2.7400646372e+00 
10800 4.4787330951e+00 2.6119627578e-02 1.5811390214e+00 -2.7386131190e+00 1.5811390214e+00 2.7386131190e+00 
10900 4.4786109441e+00 2.5723310046e-02 1.5803131184e+00 -2.7371826129e+00 1.5803131184e+00 2.7371826129e+00 
11000 4.4784929139e+00 2.5328797830e-02 1.5794993207e+00 -2.7357730740e+00 1.5794993207e+00 2.7357730740e+00 
11100 4.4783788570e+00 2.4936446539e-02 1.5786975903e+00 -2.7343844362e+00 1.5786975903e+00 2.7343844362e+00 
11200 4.4782686300e+00 2.4546585210e-02 1.5779078771e+00 -2.7330166128e+00 1.5779078771e+00 2.7330166128e+00 
11300 4.4781620932e+00 2.4159517510e-02 1.5771301204e+00 -2.7316694987e+00 1.5771301204e+00 2.7316694987e+00 
11400 4.4780591109e+00 2.3775522901e-02 1.5763642495e+00 -2.7303429714e+00 1.5763642495e+00 2.7303429714e+00 
11500 4.4779595515e+00 2.3394857792e-02 1.5756101844e+00 -2.7290368923e+00 1.5756101844e+00 2.7290368923e+00 
11600 4.4778632874e+00 2.3017756646e-02 1.5748678365e+00 -2.7277511080e+00 1.5748678365e+00 2.7277511080e+00 
11700 4.4777701951e+00 2.2644433067e-02 1.5741371092e+00 -2.7264854513e+00 1.5741371092e+00 2.7264854513e+00 
11800 4.4776801554e+00 2.2275080850e-02 1.5734178991e+00 -2.7252397428e+00 1.5734178991e+00 2.7252397428e+00 
11900 4.4775930531e+00 2.1909874998e-02 1.5727100957e+00 -2.7240137914e+00 1.5727100957e+00 2.7240137914e+00 
12000 4.4775087771e+00 2.1548972706e-02 1.5720135828e+00 -2.7228073957e+00 1.5720135828e+00 2.7228073957e+00 
12100 4.4774272205e+00 2.1192514319e-02 1.5713282387e+00 -2.7216203448e+00 1.5713282387e+00 2.7216203448e+00 
12200 4.4773482800e+00 2.0840624246e-02 1.5706539366e+00 -2.7204524193e+00 1.5706539366e+00 2.7204524193e+00 
12300 4.4772718566e+00 2.0493411845e-02 1.5699905455e+00 -2.7193033923e+00 1.5699905455e+00 2.7193033923e+00 
12400 4.4771978551e+00 2.0150972282e-02 1.5693379304e+00 -2.7181730297e+00 1.5693379304e+00 2.7181730297e+00 
12500 4.4771261838e+00 1.9813387344e-02 1.5686959527e+00 -2.7170610918e+00 1.5686959527e+00 2.7170610918e+00 
12600 4.4770567549e+00 1.9480726233e-02 1.5680644710e+00 -2.7159673333e+00 1.5680644710e+00 2.7159673333e+00 
12700 4.4769894842e+00 1.9153046319e-02 1.5674433409e+00 -2.7148915045e+00 1.5674433409e+00 2.7148915045e+00 
12800 4.4769242907e+00 1.8830393866e-02 1.5668324161e+00 -2.7138333516e+00 1.5668324161e+00 2.7138333516e+00 
12900 4.4768610970e+00 1.8512804729e-02 1.5662315481e+00 -2.7127926177e+00 1.5662315481e+00 2.7127926177e+00 
13000 4.4767998288e+00 1.8200305017e-02 1.5656405869e+00 -2.7117690429e+00 1.5656405869e+00 2.7117690429e+00 
13100 4.4767404151e+00 1.7892911730e-02 1.5650593814e+00 -2.7107623655e+00 1.5650593814e+00 2.7107623655e+00 
13200 4.4766827877e+00 1.7590633365e-02 1.5644877794e+00 -2.7097723217e+00 1.5644877794e+00 2.7097723217e+00 
13300 4.4766268815e+00 1.7293470500e-02 1.5639256280e+00 -2.7087986470e+00 1.5639256280e+00 2.7087986470e+00 
13400 4.4765726340e+00 1.7001416343e-02 1.5633727740e+00 -2.7078410757e+00 1.5633727740e+00 2.7078410757e+00 
13500 4.4765199856e+00 1.6714457263e-02 1.5628290639e+00 -2.7068993423e+00 1.5628290639e+00 2.7068993423e+00 
13600 4.4764688792e+00 1.6432573288e-02 1.5622943444e+00 -2.7059731809e+00 1.5622943444e+00 2.7059731809e+00 
13700 4.4764192602e+00 1.6155738589e-02 1.5617684624e+00 -2.7050623265e+00 1.5617684624e+00 2.7050623265e+00 
13800 4.4763710761e+00 1.5883921927e-02 1.5612512651e+00 -2.7041665146e+00 1.5612512651e+00 2.7041665146e+00 
13900 4.4763242770e+00 1.5617087091e-02 1.5607426007e+00 -2.7032854820e+00 1.5607426007e+00 2.7032854820e+00 
14000 4.4762788151e+00 1.5355193302e-02 1.5602423180e+00 -2.7024189668e+00 1.5602423180e+00 2.7024189668e+00 
14100 4.4762346445e+00 1.5098195606e-02 1.5597502666e+00 -2.7015667089e+00 1.5597502666e+00 2.7015667089e+00 
14200 4.4761917214e+00 1.4846045240e-02 1.5592662977e+00 -2.7007284501e+00 1.5592662977e+00 2.7007284501e+00 
14300 4.4761500038e+00 1.4598689978e-02 1.5587902632e+00 -2.6999039342e+00 1.5587902632e+00 2.6999039342e+00 
14400 4.4761094514e+00 1.4356074467e-02 1.5583220168e+00 -2.6990929077e+00 1.5583220168e+00 2.6990929077e+00 
14500 4.4760700260e+00 1.4118140530e-02 1.5578614135e+00 -2.6982951193e+00 1.5578614135e+00 2.6982951193e+00 
14600 4.4760316905e+00 1.3884827468e-02 1.5574083097e+00 -2.6975103206e+00 1.5574083097e+00 2.6975103206e+00 
14700 4.4759944096e+00 1.3656072330e-02 1.5569625639e+00 -2.6967382662e+00 1.5569625639e+00 2.6967382662e+00 
14800 4.4759581496e+00 1.3431810182e-02 1.5565240360e+00 -2.6959787136e+00 1.5565240360e+00 2.6959787136e+00 
14900 4.4759228778e+00 1.3211974346e-02 1.5560925878e+00 -2.6952314234e+00 1.5560925878e+00 2.6952314234e+00 
15000 4.4758885632e+00 1.2996496637e-02 1.5556680831e+00 -2.6944961596e+00 1.5556680831e+00 2.6944961596e+00 
15100 4.4758551758e+00 1.2785307574e-02 1.5552503875e+00 -2.6937726896e+00 1.5552503875e+00 2.6937726896e+00 
15200 4.4758226870e+00 1.2578336591e-02 1.5548393686e+00 -2.6930607841e+00 1.5548393686e+00 2.6930607841e+00 
15300 4.4757910692e+00 1.2375512225e-02 1.5544348963e+00 -2.6923602174e+00 1.5544348963e+00 2.6923602174e+00 
15400 4.4757602959e+00 1.2176762293e-02 1.5540368421e+00 -2.6916707674e+00 1.5540368421e+00 2.6916707674e+00 
15500 4.4757303417e+00 1.1982014062e-02 1.5536450802e+00 -2.6909922158e+00 1.5536450802e+00 2.6909922158e+00 
15600 4.4757011820e+00 1.1791194403e-02 1.5532594864e+00 -2.6903243477e+00 1.5532594864e+00 2.6903243477e+00 
15700 4.4756727933e+00 1.1604229940e-02 1.5528799389e+00 -2.6896669523e+00 1.5528799389e+00 2.6896669523e+00 
15800 4.4756451529e+00 1.1421047182e-02 1.5525063181e+00 -2.6890198221e+00 1.5525063181e+00 2.6890198221e+00 
15900 4.4756182389e+00 1.1241572649e-02 1.5521385065e+00 -2.6883827537e+00 1.5521385065e+00 2.6883827537e+00 
16000 4.4755920304e+00 1.1065732992e-02 1.5517763889e+00 -2.6877555475e+00 1.5517763889e+00 2.6877555475e+00 
16100 4.4755665069e+00 1.0893455097e-02 1.5514198520e+00 -2.6871380076e+00 1.5514198520e+00 2.6871380076e+00 
16200 4.4755416490e+00 1.0724666188e-02 1.5510687851e+00 -2.6865299418e+00 1.5510687851e+00 2.6865299418e+00 
16300 4.4755174376e+00 1.0559293917e-02 1.5507230794e+00 -2.6859311619e+00 1.5507230794e+00 2.6859311619e+00 
16400 4.4754938547e+00 1.0397266449e-02 1.5503826283e+00 -2.6853414833e+00 1.5503826283e+00 2.6853414833e+00 
16500 4.4754708825e+00 1.0238512541e-02 1.5500473274e+00 -2.6847607253e+00 1.5500473274e+00 2.6847607253e+00 
16600 4.4754485040e+00 1.0082961611e-02 1.5497170747e+00 -2.6841887107e+00 1.5497170747e+00 2.6841887107e+00 
16700 4.4754267028e+00 9.9305438045e-03 1.5493917698e+00 -2.6836252662e+00 1.5493917698e+00 2.6836252662e+00 
16800 4.4754054630e+00 9.7811900508e-03 1.5490713150e+00 -2.6830702221e+00 1.5490713150e+00 2.6830702221e+00 
16900 4.4753847691e+00 9.6348321186e-03 1.5487556143e+00 -2.6825234125e+00 1.5487556143e+00 2.6825234125e+00 
17000 4.4753646063e+00 9.4914026626e-03 1.5484445740e+00 -2.6819846748e+00 1.5484445740e+00 2.6819846748e+00 
17100 4.4753449600e+00 9.3508352663e-03 1.5481381022e+00 -2.6814538502e+00 1.5481381022e+00 2.6814538502e+00 
17200 4.4753258164e+00 9.2130644801e-03 1.5478361094e+00 -2.6809307834e+00 1.5478361094e+00 2.6809307834e+00 
17300 4.4753071618e+00 9.0780258552e-03 1.5475385079e+00 -2.6804153223e+00 1.5475385079e+00 2.6804153223e+00 
17400 4.4752889831e+00 8.9456559731e-03 1.5472452118e+00 -2.6799073186e+00 1.5472452118e+00 2.6799073186e+00 
17500 4.4752712677e+00 8.8158924709e-03 1.5469561375e+00 -2.6794066272e+00 1.5469561375e+00 2.6794066272e+00 
17600 4.4752540030e+00 8.6886740632e-03 1.5466712030e+00 -2.6789131063e+00 1.5466712030e+00 2.6789131063e+00 
17700 4.4752371772e+00 8.5639405609e-03 1.5463903285e+00 -2.6784266173e+00 1.5463903285e+00 2.6784266173e+00 
17800 4.4752207785e+00 8.4416328863e-03 1.5461134358e+00 -2.6779470250e+00 1.5461134358e+00 2.6779470250e+00 
17900 4.4752047958e+00 8.3216930850e-03 1.5458404485e+00 -2.6774741973e+00 1.5458404485e+00 2.6774741973e+00 
18000 4.4751892180e+00 8.2040643356e-03 1.5455712923e+00 -2.6770080050e+00 1.5455712923e+00 2.6770080050e+00 
18100 4.4751740344e+00 8.0886909567e-03 1.5453058944e+00 -2.6765483223e+00 1.5453058944e+00 2.6765483223e+00 
18200 4.4751592347e+00 7.9755184106e-03 1.5450441836e+00 -2.6760950260e+00 1.5450441836e+00 2.6760950260e+00 
18300 4.4751448089e+00 7.8644933058e-03 1.5447860908e+00 -2.6756479961e+00 1.5447860908e+00 2.6756479961e+00 
18400 4.4751307472e+00 7.7555633972e-03 1.5445315482e+00 -2.6752071154e+00 1.5445315482e+00 2.6752071154e+00 
18500 4.4751170400e+00 7.6486775833e-03 1.5442804898e+00 -2.6747722694e+00 1.5442804898e+00 2.6747722694e+00 
18600 4.4751036781e+00 7.5437859031e-03 1.5440328511e+00 -2.6743433466e+00 1.5440328511e+00 2.6743433466e+00 
18700 4.4750906526e+00 7.4408395303e-03 1.5437885691e+00 -2.6739202378e+00 1.5437885691e+00 2.6739202378e+00 
18800 4.4750779546e+00 7.3397907665e-03 1.5435475825e+00 -2.6735028369e+00 1.5435475825e+00 2.6735028369e+00 
18900 4.4750655757e+00 7.2405930325e-03 1.5433098315e+00 -2.6730910399e+00 1.5433098315e+00 2.6730910399e+00 
19000 4.4750535077e+00 7.1432008586e-03 1.5430752574e+00 -2.6726847457e+00 1.5430752574e+00 2.6726847457e+00 
19100 4.4750417423e+00 7.0475698741e-03 1.5428438033e+00 -2.6722838554e+00 1.5428438033e+00 2.6722838554e+00 
19200 4.4750302720e+00 6.9536567950e-03 1.5426154135e+00 -2.6718882727e+00 1.5426154135e+00 2.6718882727e+00 
19300 4.4750190889e+00 6.8614194109e-03 1.5423900337e+00 -2.6714979034e+00 1.5423900337e+00 2.6714979034e+00 
19400 4.4750081857e+00 6.7708165716e-03 1.5421676108e+00 -2.6711126558e+00 1.5421676108e+00 2.6711126558e+00 
19500 4.4749975552e+00 6.6818081722e-03 1.5419480933e+00 -2.6707324403e+00 1.5419480933e+00 2.6707324403e+00 
19600 4.4749871903e+00 6.5943551382e-03 1.5417314307e+00 -2.6703571695e+00 1.5417314307e+00 2.6703571695e+00 
19700 4.4749770842e+00 6.5084194087e-03 1.5415175736e+00 -2.6699867583e+00 1.5415175736e+00 2.6699867583e+00 
19800 4.4749672303e+00 6.4239639210e-03 1.5413064742e+00 -2.6696211233e+00 1.5413064742e+00 2.6696211233e+00 
19900 4.4749576220e+00 6.3409525927e-03 1.5410980854e+00 -2.6692601833e+00 1.5410980854e+00 2.6692601833e+00 
20000 4.4749482531e+00 6.2593503051e-03 1.5408923616e+00 -2.6689038592e+00 1.5408923616e+00 2.6689038592e+00 
20100 4.4749391174e+00 6.1791228847e-03 1.5406892581e+00 -2.6685520736e+00 1.5406892581e+00 2.6685520736e+00 
20200 4.4749302089e+00 6.1002370860e-03 1.5404887313e+00 -2.6682047511e+00 1.5404887313e+00 2.6682047511e+00 
20300 4.4749215218e+00 6.0226605723e-03 1.5402907387e+00 -2.6678618179e+00 1.5402907387e+00 2.6678618179e+00 
20400 4.4749130504e+00 5.9463618980e-03 1.5400952388e+00 -2.6675232022e+00 1.5400952388e+00 2.6675232022e+00 
20500 4.4749047892e+00 5.8713104897e-03 1.5399021911e+00 -2.6671888337e+00 1.5399021911e+00 2.6671888337e+00 
20600 4.4748967329e+00 5.7974766274e-03 1.5397115560e+00 -2.6668586440e+00 1.5397115560e+00 2.6668586440e+00 
20700 4.4748888761e+00 5.7248314258e-03 1.5395232948e+00 -2.6665325660e+00 1.5395232948e+00 2.6665325660e+00 
20800 4.4748812139e+00 5.6533468156e-03 1.5393373698e+00 -2.6662105345e+00 1.5393373698e+00 2.6662105345e+00 
20900 4.4748737411e+00 5.5829955246e-03 1.5391537443e+00 -2.6658924857e+00 1.5391537443e+00 2.6658924857e+00 
21000 4.4748664530e+00 5.5137510589e-03 1.5389723821e+00 -2.6655783572e+00 1.5389723821e+00 2.6655783572e+00 
21100 4.4748593449e+00 5.4455876843e-03 1.5387932481e+00 -2.6652680881e+00 1.5387932481e+00 2.6652680881e+00 
21200 4.4748524122e+00 5.3784804079e-03 1.5386163081e+00 -2.6649616189e+00 1.5386163081e+00 2.6649616189e+00 
21300 4.4748456504e+00 5.3124049593e-03 1.5384415283e+00 -2.6646588916e+00 1.5384415283e+00 2.6646588916e+00 
21400 4.4748390552e+00 5.2473377727e-03 1.5382688762e+00 -2.6643598492e+00 1.5382688762e+00 2.6643598492e+00 
21500 4.4748326223e+00 5.1832559684e-03 1.5380983195e+00 -2.6640644364e+00 1.5380983195e+00 2.6640644364e+00 
21600 4.4748263476e+00 5.1201373352e-03 1.5379298270e+00 -2.6637725988e+00 1.5379298270e+00 2.6637725988e+00 
21700 4.4748202271e+00 5.0579603124e-03 1.5377633680e+00 -2.6634842833e+00 1.5377633680e+00 2.6634842833e+00 
21800 4.4748142569e+00 4.9967039726e-03 1.5375989125e+00 -2.6631994382e+00 1.5375989125e+00 2.6631994382e+00 
21900 4.4748084331e+00 4.9363480040e-03 1.5374364314e+00 -2.6629180126e+00 1.5374364314e+00 2.6629180126e+00 
22000 4.4748027521e+00 4.8768726940e-03 1.5372758959e+00 -2.6626399570e+00 1.5372758959e+00 2.6626399570e+00 
22100 4.4747972102e+00 4.8182589118e-03 1.5371172781e+00 -2.6623652228e+00 1.5371172781e+00 2.6623652228e+00 
22200 4.4747918040e+00 4.7604880925e-03 1.5369605504e+00 -2.6620937625e+00 1.5369605504e+00 2.6620937625e+00 
22300 4.4747865299e+00 4.7035422203e-03 1.5368056860e+00 -2.6618255295e+00 1.5368056860e+00 2.6618255295e+00 
22400 4.4747813847e+00 4.6474038133e-03 1.5366526587e+00 -2.6615604785e+00 1.5366526587e+00 2.6615604785e+00 
22500 4.4747763651e+00 4.5920559072e-03 1.5365014428e+00 -2.6612985648e+00 1.5365014428e+00 2.6612985648e+00 
22600 4.4747714679e+00 4.5374820406e-03 1.5363520130e+00 -2.6610397448e+00 1.5363520130e+00 2.6610397448e+00 
22700 4.4747666900e+00 4.4836662394e-03 1.5362043447e+00 -2.6607839758e+00 1.5362043447e+00 2.6607839758e+00 
22800 4.4747620285e+00 4.4305930027e-03 1.5360584138e+00 -2.6605312160e+00 1.5360584138e+00 2.6605312160e+00 
22900 4.4747574804e+00 4.3782472879e-03 1.5359141965e+00 -2.6602814243e+00 1.5359141965e+00 2.6602814243e+00 
23000 4.4747530429e+00 4.3266144969e-03 1.5357716696e+00 -2.6600345606e+00 1.5357716696e+00 2.6600345606e+00 
23100 4.4747487132e+00 4.2756804623e-03 1.5356308105e+00 -2.6597905855e+00 1.5356308105e+00 2.6597905855e+00 
23200 4.4747444886e+00 4.2254314340e-03 1.5354915969e+00 -2.6595494604e+00 1.5354915969e+00 2.6595494604e+00 
23300 4.4747403664e+00 4.1758540661e-03 1.5353540068e+00 -2.6593111474e+00 1.5353540068e+00 2.6593111474e+00 
23400 4.4747363441e+00 4.1269354038e-03 1.5352180189e+00 -2.6590756094e+00 1.5352180189e+00 2.6590756094e+00 
23500 4.4747324192e+00 4.0786628713e-03 1.5350836120e+00 -2.6588428099e+00 1.5350836120e+00 2.6588428099e+00 
23600 4.4747285892e+00 4.0310242594e-03 1.5349507657e+00 -2.6586127134e+00 1.5349507657e+00 2.6586127134e+00 
23700 4.4747248518e+00 3.9840077138e-03 1.5348194597e+00 -2.6583852846e+00 1.5348194597e+00 2.6583852846e+00 
23800 4.4747212048e+00 3.9376017232e-03 1.5346896740e+00 -2.6581604892e+00 1.5346896740e+00 2.6581604892e+00 
23900 4.4747176457e+00 3.8917951086e-03 1.5345613892e+00 -2.6579382934e+00 1.5345613892e+00 2.6579382934e+00 
24000 4.4747141725e+00 3.8465770117e-03 1.5344345861e+00 -2.6577186641e+00 1.5344345861e+00 2.6577186641e+00 
24100 4.4747107829e+00 3.8019368848e-03 1.5343092460e+00 -2.6575015686e+00 1.5343092460e+00 2.6575015686e+00 
24200 4.4747074750e+00 3.7578644802e-03 1.5341853503e+00 -2.6572869750e+00 1.5341853503e+00 2.6572869750e+00 
24300 4.4747042467e+00 3.7143498401e-03 1.5340628810e+00 -2.6570748518e+00 1.5340628810e+00 2.6570748518e+00 
24400 4.4747010961e+00 3.6713832870e-03 1.5339418200e+00 -2.6568651682e+00 1.5339418200e+00 2.6568651682e+00 
24500 4.4746980211e+00 3.6289554139e-03 1.5338221501e+00 -2.6566578937e+00 1.5338221501e+00 2.6566578937e+00 
24600 4.4746950199e+00 3.5870570756e-03 1.5337038538e+00 -2.6564529986e+00 1.5337038538e+00 2.6564529986e+00 
24700 4.4746920908e+00 3.5456793793e-03 1.5335869143e+00 -2.6562504534e+00 1.5335869143e+00 2.6562504534e+00 
24800 4.4746892319e+00 3.5048136760e-03 1.5334713149e+00 -2.6560502293e+00 1.5334713149e+00 2.6560502293e+00 
24900 4.4746864414e+00 3.4644515525e-03 1.5333570392e+00 -2.6558522980e+00 1.5333570392e+00 2.6558522980e+00 
25000 4.4746837178e+00 3.4245848227e-03 1.5332440711e+00 -2.6556566315e+00 1.5332440711e+00 2.6556566315e+00 
25100 4.4746810593e+00 3.3852055200e-03 1.5331323947e+00 -2.6554632023e+00 1.5331323947e+00 2.6554632023e+00 
25200 4.4746784644e+00 3.3463058898e-03 1.5330219944e+00 -2.6552719834e+00 1.5330219944e+00 2.6552719834e+00 
25300 4.4746759315e+00 3.3078783817e-03 1.5329128549e+00 -2.6550829482e+00 1.5329128549e+00 2.6550829482e+00 
25400 4.4746734591e+00 3.2699156429e-03 1.5328049610e+00 -2.6548960705e+00 1.5328049610e+00 2.6548960705e+00 
25500 4.4746710456e+00 3.2324105107e-03 1.5326982977e+00 -2.6547113244e+00 1.5326982977e+00 2.6547113244e+00 
25600 4.4746686897e+00 3.1953560061e-03 1.5325928506e+00 -2.6545286845e+00 1.5325928506e+00 2.6545286845e+00 
25700 4.4746663900e+00 3.1587453276e-03 1.5324886050e+00 -2.6543481260e+00 1.5324886050e+00 2.6543481260e+00 
25800 4.4746641450e+00 3.1225718442e-03 1.5323855469e+00 -2.6541696239e+00 1.5323855469e+00 2.6541696239e+00 
25900 4.4746619534e+00 3.0868290902e-03 1.5322836620e+00 -2.6539931542e+00 1.5322836620e+00 2.6539931542e+00 
26000 4.4746598139e+00 3.0515107588e-03 1.5321829367e+00 -2.6538186928e+00 1.5321829367e+00 2.6538186928e+00 
26100 4.4746577253e+00 3.0166106966e-03 1.5320833573e+00 -2.6536462162e+00 1.5320833573e+00 2.6536462162e+00 
26200 4.4746556864e+00 2.9821228983e-03 1.5319849103e+00 -2.6534757011e+00 1.5319849103e+00 2.6534757011e+00 
26300 4.4746536958e+00 2.9480415012e-03 1.5318875826e+00 -2.6533071246e+00 1.5318875826e+00 2.6533071246e+00 
26400 4.4746517524e+00 2.9143607806e-03 1.5317913611e+00 -2.6531404641e+00 1.5317913611e+00 2.6531404641e+00 
26500 4.4746498551e+00 2.8810751443e-03 1.5316962329e+00 -2.6529756972e+00 1.5316962329e+00 2.6529756972e+00 
26600 4.4746480028e+00 2.8481791284e-03 1.5316021854e+00 -2.6528128021e+00 1.5316021854e+00 2.6528128021e+00 
26700 4.4746461944e+00 2.8156673924e-03 1.5315092059e+00 -2.6526517570e+00 1.5315092059e+00 2.6526517570e+00 
26800 4.4746444288e+00 2.7835347152e-03 1.5314172823e+00 -2.6524925405e+00 1.5314172823e+00 2.6524925405e+00 
26900 4.4746427049e+00 2.7517759905e-03 1.5313264022e+00 -2.6523351315e+00 1.5313264022e+00 2.6523351315e+00 
27000 4.4746410218e+00 2.7203862231e-03 1.5312365536e+00 -2.6521795093e+00 1.5312365536e+00 2.6521795093e+00 
27100 4.4746393785e+00 2.6893605248e-03 1.5311477248e+00 -2.6520256532e+00 1.5311477248e+00 2.6520256532e+00 
27200 4.4746377740e+00 2.6586941104e-03 1.5310599039e+00 -2.6518735430e+00 1.5310599039e+00 2.6518735430e+00 
27300 4.4746362074e+00 2.6283822949e-03 1.5309730794e+00 -2.6517231586e+00 1.5309730794e+00 2.6517231586e+00 
27400 4.4746346777e+00 2.5984204889e-03 1.5308872400e+00 -2.6515744803e+00 1.5308872400e+00 2.6515744803e+00 
27500 4.4746331842e+00 2.5688041963e-03 1.5308023743e+00 -2.6514274886e+00 1.5308023743e+00 2.6514274886e+00 
27600 4.4746317258e+00 2.5395290104e-03 1.5307184712e+00 -2.6512821642e+00 1.5307184712e+00 2.6512821642e+00 
27700 4.4746303018e+00 2.5105906111e-03 1.5306355197e+00 -2.6511384881e+00 1.5306355197e+00 2.6511384881e+00 
27800 4.4746289113e+00 2.4819847618e-03 1.5305535091e+00 -2.6509964415e+00 1.5305535091e+00 2.6509964415e+00 
27900 4.4746275536e+00 2.4537073066e-03 1.5304724285e+00 -2.6508560058e+00 1.5304724285e+00 2.6508560058e+00 
28000 4.4746262278e+00 2.4257541678e-03 1.5303922675e+00 -2.6507171628e+00 1.5303922675e+00 2.6507171628e+00 
28100 4.4746249332e+00 2.3981213427e-03 1.5303130155e+00 -2.6505798943e+00 1.5303130155e+00 2.6505798943e+00 
28200 4.4746236691e+00 2.3708049016e-03 1.5302346622e+00 -2.6504441824e+00 1.5302346622e+00 2.6504441824e+00 
28300 4.4746224346e+00 2.3438009852e-03 1.5301571974e+00 -2.6503100095e+00 1.5301571974e+00 2.6503100095e+00 
28400 4.4746212291e+00 2.3171058022e-03 1.5300806111e+00 -2.6501773582e+00 1.5300806111e+00 2.6501773582e+00 
28500 4.4746200520e+00 2.2907156271e-03 1.5300048933e+00 -2.6500462111e+00 1.5300048933e+00 2.6500462111e+00 
28600 4.4746189024e+00 2.2646267981e-03 1.5299300342e+00 -2.6499165513e+00 1.5299300342e+00 2.6499165513e+00 
28700 4.4746177799e+00 2.2388357151e-03 1.5298560240e+00 -2.6497883618e+00 1.5298560240e+00 2.6497883618e+00 
28800 4.4746166836e+00 2.2133388376e-03 1.5297828531e+00 -2.6496616262e+00 1.5297828531e+00 2.6496616262e+00 
28900 4.4746156131e+00 2.1881326829e-03 1.5297105121e+00 -2.6495363278e+00 1.5297105121e+00 2.6495363278e+00 
29000 4.4746145676e+00 2.1632138241e-03 1.5296389915e+00 -2.6494124506e+00 1.5296389915e+00 2.6494124506e+00 
29100 4.4746135466e+00 2.1385788887e-03 1.5295682821e+00 -2.6492899783e+00 1.5295682821e+00 2.6492899783e+00 
29200 4.4746125496e+00 2.1142245568e-03 1.5294983747e+00 -2.6491688951e+00 1.5294983747e+00 2.6491688951e+00 
29300 4.4746115758e+00 2.0901475592e-03 1.5294292603e+00 -2.6490491854e+00 1.5294292603e+00 2.6490491854e+00 
29400 4.4746106249e+00 2.0663446764e-03 1.5293609298e+00 -2.6489308336e+00 1.5293609298e+00 2.6489308336e+00 
29500 4.4746096962e+00 2.0428127368e-03 1.5292933745e+00 -2.6488138243e+00 1.5292933745e+00 2.6488138243e+00 
29600 4.4746087892e+00 2.0195486153e-03 1.5292265856e+00 -2.6486981425e+00 1.5292265856e+00 2.6486981425e+00 
29700 4.4746079034e+00 1.9965492322e-03 1.5291605543e+00 -2.6485837730e+00 1.5291605543e+00 2.6485837730e+00 
29800 4.4746070383e+00 1.9738115517e-03 1.5290952723e+00 -2.6484707012e+00 1.5290952723e+00 2.6484707012e+00 
29900 4.4746061934e+00 1.9513325806e-03 1.5290307309e+00 -2.6483589123e+00 1.5290307309e+00 2.6483589123e+00 
30000 4.4746053682e+00 1.9291093674e-03 1.5289669219e+00 -2.6482483918e+00 1.5289669219e+00 2.6482483918e+00 
30100 4.4746045623e+00 1.9071390011e-03 1.5289038369e+00 -2.6481391255e+00 1.5289038369e+00 2.6481391255e+00 
30200 4.4746037753e+00 1.8854186099e-03 1.5288414679e+00 -2.6480310991e+00 1.5288414679e+00 2.6480310991e+00 
30300 4.4746030065e+00 1.8639453603e-03 1.5287798066e+00 -2.6479242986e+00 1.5287798066e+00 2.6479242986e+00 
30400 4.4746022557e+00 1.8427164564e-03 1.5287188452e+00 -2.6478187103e+00 1.5287188452e+00 2.6478187103e+00 
30500 4.4746015224e+00 1.8217291384e-03 1.5286585756e+00 -2.6477143204e+00 1.5286585756e+00 2.6477143204e+00 
30600 4.4746008062e+00 1.8009806823e-03 1.5285989901e+00 -2.6476111153e+00 1.5285989901e+00 2.6476111153e+00 
30700 4.4746001067e+00 1.7804683985e-03 1.5285400810e+00 -2.6475090816e+00 1.5285400810e+00 2.6475090816e+00 
30800 4.4745994235e+00 1.7601896313e-03 1.5284818405e+00 -2.6474082062e+00 1.5284818405e+00 2.6474082062e+00 
30900 4.4745987562e+00 1.7401417581e-03 1.5284242612e+00 -2.6473084759e+00 1.5284242612e+00 2.6473084759e+00 
31000 4.4745981044e+00 1.7203221885e-03 1.5283673356e+00 -2.6472098778e+00 1.5283673356e+00 2.6472098778e+00 
31100 4.4745974679e+00 1.7007283635e-03 1.5283110562e+00 -2.6471123991e+00 1.5283110562e+00 2.6471123991e+00 
31200 4.4745968461e+00 1.6813577554e-03 1.5282554157e+00 -2.6470160270e+00 1.5282554157e+00 2.6470160270e+00 
31300 4.4745962388e+00 1.6622078661e-03 1.5282004070e+00 -2.6469207491e+00 1.5282004070e+00 2.6469207491e+00 
31400 4.4745956456e+00 1.6432762277e-03 1.5281460228e+00 -2.6468265529e+00 1.5281460228e+00 2.6468265529e+00 
31500 4.4745950662e+00 1.6245604007e-03 1.5280922562e+00 -2.6467334263e+00 1.5280922562e+00 2.6467334263e+00 
31600 4.4745945003e+00 1.6060579743e-03 1.5280391000e+00 -2.6466413571e+00 1.5280391000e+00 2.6466413571e+00 
31700 4.4745939475e+00 1.5877665654e-03 1.5279865474e+00 -2.6465503333e+00 1.5279865474e+00 2.6465503333e+00 
31800 4.4745934076e+00 1.5696838184e-03 1.5279345915e+00 -2.6464603431e+00 1.5279345915e+00 2.6464603431e+00 
31900 4.4745928803e+00 1.5518074041e-03 1.5278832256e+00 -2.6463713748e+00 1.5278832256e+00 2.6463713748e+00 
32000 4.4745923652e+00 1.5341350200e-03 1.5278324430e+00 -2.6462834166e+00 1.5278324430e+00 2.6462834166e+00 
32100 4.4745918620e+00 1.5166643892e-03 1.5277822370e+00 -2.6461964573e+00 1.5277822370e+00 2.6461964573e+00 
32200 4.4745913706e+00 1.4993932602e-03 1.5277326011e+00 -2.6461104855e+00 1.5277326011e+00 2.6461104855e+00 
32300 4.4745908905e+00 1.4823194064e-03 1.5276835289e+00 -2.6460254899e+00 1.5276835289e+00 2.6460254899e+00 
32400 4.4745904216e+00 1.4654406260e-03 1.5276350138e+00 -2.6459414594e+00 1.5276350138e+00 2.6459414594e+00 
32500 4.4745899636e+00 1.4487547409e-03 1.5275870497e+00 -2.6458583831e+00 1.5275870497e+00 2.6458583831e+00 
32600 4.4745895162e+00 1.4322595973e-03 1.5275396303e+00 -2.6457762502e+00 1.5275396303e+00 2.6457762502e+00 
32700 4.4745890792e+00 1.4159530643e-03 1.5274927493e+00 -2.6456950499e+00 1.5274927493e+00 2.6456950499e+00 
32800 4.4745886523e+00 1.3998330343e-03 1.5274464006e+00 -2.6456147716e+00 1.5274464006e+00 2.6456147716e+00 
32900 4.4745882354e+00 1.3838974224e-03 1.5274005781e+00 -2.6455354048e+00 1.5274005781e+00 2.6455354048e+00 
33000 4.4745878281e+00 1.3681441660e-03 1.5273552760e+00 -2.6454569392e+00 1.5273552760e+00 2.6454569392e+00 
33100 4.4745874302e+00 1.3525712247e-03 1.5273104882e+00 -2.6453793645e+00 1.5273104882e+00 2.6453793645e+00 
33200 4.4745870416e+00 1.3371765797e-03 1.5272662089e+00 -2.6453026705e+00 1.5272662089e+00 2.6453026705e+00 
33300 4.4745866620e+00 1.3219582337e-03 1.5272224323e+00 -2.6452268472e+00 1.5272224323e+00 2.6452268472e+00 
33400 4.4745862911e+00 1.3069142108e-03 1.5271791527e+00 -2.6451518847e+00 1.5271791527e+00 2.6451518847e+00 
33500 4.4745859289e+00 1.2920425558e-03 1.5271363644e+00 -2.6450777732e+00 1.5271363644e+00 2.6450777732e+00 
33600 4.4745855751e+00 1.2773413343e-03 1.5270940618e+00 -2.6450045029e+00 1.5270940618e+00 2.6450045029e+00 
33700 4.4745852295e+00 1.2628086322e-03 1.5270522394e+00 -2.6449320644e+00 1.5270522394e+00 2.6449320644e+00 
33800 4.4745848918e+00 1.2484425557e-03 1.5270108916e+00 -2.6448604480e+00 1.5270108916e+00 2.6448604480e+00 
33900 4.4745845620e+00 1.2342412308e-03 1.5269700132e+00 -2.6447896444e+00 1.5269700132e+00 2.6447896444e+00 
34000 4.4745842399e+00 1.2202028033e-03 1.5269295986e+00 -2.6447196444e+00 1.5269295986e+00 2.6447196444e+00 
34100 4.4745839252e+00 1.2063254384e-03 1.5268896427e+00 -2.6446504387e+00 1.5268896427e+00 2.6446504387e+00 
34200 4.4745836178e+00 1.1926073208e-03 1.5268501402e+00 -2.6445820183e+00 1.5268501402e+00 2.6445820183e+00 
34300 4.4745833175e+00 1.1790466539e-03 1.5268110858e+00 -2.6445143742e+00 1.5268110858e+00 2.6445143742e+00 
34400 4.4745830241e+00 1.1656416601e-03 1.5267724746e+00 -2.6444474976e+00 1.5267724746e+00 2.6444474976e+00 
34500 4.4745827376e+00 1.1523905807e-03 1.5267343014e+00 -2.6443813796e+00 1.5267343014e+00 2.6443813796e+00 
34600 4.4745824577e+00 1.1392916750e-03 1.5266965611e+00 -2.6443160116e+00 1.5266965611e+00 2.6443160116e+00 
34700 4.4745821843e+00 1.1263432210e-03 1.5266592490e+00 -2.6442513851e+00 1.5266592490e+00 2.6442513851e+00 
34800 4.4745819172e+00 1.1135435145e-03 1.5266223600e+00 -2.6441874915e+00 1.5266223600e+00 2.6441874915e+00 
34900 4.4745816562e+00 1.1008908694e-03 1.5265858893e+00 -2.6441243224e+00 1.5265858893e+00 2.6441243224e+00 
35000 4.4745814014e+00 1.0883836171e-03 1.5265498322e+00 -2.6440618696e+00 1.5265498322e+00 2.6440618696e+00 
35100 4.4745811524e+00 1.0760201069e-03 1.5265141838e+00 -2.6440001248e+00 1.5265141838e+00 2.6440001248e+00 
35200 4.4745809092e+00 1.0637987052e-03 1.5264789396e+00 -2.6439390801e+00 1.5264789396e+00 2.6439390801e+00 
35300 4.4745806716e+00 1.0517177957e-03 1.5264440949e+00 -2.6438787272e+00 1.5264440949e+00 2.6438787272e+00 
35400 4.4745804395e+00 1.0397757793e-03 1.5264096451e+00 -2.6438190584e+00 1.5264096451e+00 2.6438190584e+00 
35500 4.4745802128e+00 1.0279710736e-03 1.5263755857e+00 -2.6437600658e+00 1.5263755857e+00 2.6437600658e+00 
35600 4.4745799913e+00 1.0163021132e-03 1.5263419122e+00 -2.6437017417e+00 1.5263419122e+00 2.6437017417e+00 
35700 4.4745797750e+00 1.0047673490e-03 1.5263086202e+00 -2.6436440783e+00 1.5263086202e+00 2.6436440783e+00 
35800 4.4745795636e+00 9.9336524862e-04 1.5262757054e+00 -2.6435870681e+00 1.5262757054e+00 2.6435870681e+00 
35900 4.4745793572e+00 9.8209429581e-04 1.5262431634e+00 -2.6435307037e+00 1.5262431634e+00 2.6435307037e+00 
36000 4.4745791555e+00 9.7095299052e-04 1.5262109899e+00 -2.6434749776e+00 1.5262109899e+00 2.6434749776e+00 
36100 4.4745789585e+00 9.5993984873e-04 1.5261791808e+00 -2.6434198826e+00 1.5261791808e+00 2.6434198826e+00 
36200 4.4745787661e+00 9.4905340225e-04 1.5261477318e+00 -2.6433654113e+00 1.5261477318e+00 2.6433654113e+00 
36300 4.4745785781e+00 9.3829219863e-04 1.5261166388e+00 -2.6433115566e+00 1.5261166388e+00 2.6433115566e+00 
36400 4.4745783944e+00 9.2765480099e-04 1.5260858977e+00 -2.6432583115e+00 1.5260858977e+00 2.6432583115e+00 
36500 4.4745782150e+00 9.1713978790e-04 1.5260555045e+00 -2.6432056690e+00 1.5260555045e+00 2.6432056690e+00 
36600 4.4745780398e+00 9.0674575323e-04 1.5260254553e+00 -2.6431536222e+00 1.5260254553e+00 2.6431536222e+00 
36700 4.4745778686e+00 8.9647130603e-04 1.5259957460e+00 -2.6431021642e+00 1.5259957460e+00 2.6431021642e+00 
36800 4.4745777014e+00 8.8631507039e-04 1.5259663727e+00 -2.6430512882e+00 1.5259663727e+00 2.6430512882e+00 
36900 4.4745775380e+00 8.7627568530e-04 1.5259373317e+00 -2.6430009877e+00 1.5259373317e+00 2.6430009877e+00 
37000 4.4745773785e+00 8.6635180452e-04 1.5259086191e+00 -2.6429512560e+00 1.5259086191e+00 2.6429512560e+00 
37100 4.4745772226e+00 8.5654209646e-04 1.5258802311e+00 -2.6429020866e+00 1.5258802311e+00 2.6429020866e+00 
37200 4.4745770703e+00 8.4684524403e-04 1.5258521641e+00 -2.6428534730e+00 1.5258521641e+00 2.6428534730e+00 
37300 4.4745769216e+00 8.3725994453e-04 1.5258244143e+00 -2.6428054089e+00 1.5258244143e+00 2.6428054089e+00 
37400 4.4745767763e+00 8.2778490953e-04 1.5257969780e+00 -2.6427578880e+00 1.5257969780e+00 2.6427578880e+00 
37500 4.4745766343e+00 8.1841886471e-04 1.5257698518e+00 -2.6427109040e+00 1.5257698518e+00 2.6427109040e+00 
37600 4.4745764957e+00 8.0916054976e-04 1.5257430320e+00 -2.6426644507e+00 1.5257430320e+00 2.6426644507e+00 
37700 4.4745763602e+00 8.0000871826e-04 1.5257165151e+00 -2.6426185222e+00 1.5257165151e+00 2.6426185222e+00 
37800 4.4745762279e+00 7.9096213751e-04 1.5256902977e+00 -2.6425731123e+00 1.5256902977e+00 2.6425731123e+00 
37900 4.4745760987e+00 7.8201958847e-04 1.5256643764e+00 -2.6425282152e+00 1.5256643764e+00 2.6425282152e+00 
38000 4.4745759724e+00 7.7317986559e-04 1.5256387476e+00 -2.6424838249e+00 1.5256387476e+00 2.6424838249e+00 
38100 4.4745758491e+00 7.6444177672e-04 1.5256134081e+00 -2.6424399356e+00 1.5256134081e+00 2.6424399356e+00 
38200 4.4745757286e+00 7.5580414295e-04 1.5255883546e+00 -2.6423965416e+00 1.5255883546e+00 2.6423965416e+00 
38300 4.4745756109e+00 7.4726579852e-04 1.5255635838e+00 -2.6423536373e+00 1.5255635838e+00 2.6423536373e+00 
38400 4.4745754960e+00 7.3882559069e-04 1.5255390924e+00 -2.6423112169e+00 1.5255390924e+00 2.6423112169e+00 
38500 4.4745753837e+00 7.3048237961e-04 1.5255148772e+00 -2.6422692750e+00 1.5255148772e+00 2.6422692750e+00 
38600 4.4745752740e+00 7.2223503822e-04 1.5254909351e+00 -2.6422278061e+00 1.5254909351e+00 2.6422278061e+00 
38700 4.4745751668e+00 7.1408245212e-04 1.5254672630e+00 -2.6421868047e+00 1.5254672630e+00 2.6421868047e+00 
38800 4.4745750622e+00 7.0602351944e-04 1.5254438577e+00 -2.6421462656e+00 1.5254438577e+00 2.6421462656e+00 
38900 4.4745749599e+00 6.9805715075e-04 1.5254207161e+00 -2.6421061833e+00 1.5254207161e+00 2.6421061833e+00 
39000 4.4745748601e+00 6.9018226891e-04 1.5253978354e+00 -2.6420665526e+00 1.5253978354e+00 2.6420665526e+00 
39100 4.4745747625e+00 6.8239780897e-04 1.5253752124e+00 -2.6420273685e+00 1.5253752124e+00 2.6420273685e+00 
39200 4.4745746672e+00 6.7470271808e-04 1.5253528443e+00 -2.6419886258e+00 1.5253528443e+00 2.6419886258e+00 
39300 4.4745745741e+00 6.6709595531e-04 1.5253307280e+00 -2.6419503193e+00 1.5253307280e+00 2.6419503193e+00 
39400 4.4745744832e+00 6.5957649159e-04 1.5253088608e+00 -2.6419124442e+00 1.5253088608e+00 2.6419124442e+00 
39500 4.4745743944e+00 6.5214330958e-04 1.5252872398e+00 -2.6418749955e+00 1.5252872398e+00 2.6418749955e+00 
39600 4.4745743076e+00 6.4479540355e-04 1.5252658621e+00 -2.6418379683e+00 1.5252658621e+00 2.6418379683e+00 
39700 4.4745742229e+00 6.3753177927e-04 1.5252447250e+00 -2.6418013578e+00 1.5252447250e+00 2.6418013578e+00 
39800 4.4745741401e+00 6.3035145389e-04 1.5252238258e+00 -2.6417651591e+00 1.5252238258e+00 2.6417651591e+00 
39900 4.4745740593e+00 6.2325345584e-04 1.5252031616e+00 -2.6417293677e+00 1.5252031616e+00 2.6417293677e+00 
40000 4.4745739803e+00 6.1623682471e-04 1.5251827298e+00 -2.6416939789e+00 1.5251827298e+00 2.6416939789e+00 
40100 4.4745739031e+00 6.0930061114e-04 1.5251625278e+00 -2.6416589879e+00 1.5251625278e+00 2.6416589879e+00 
40200 4.4745738278e+00 6.0244387671e-04 1.5251425529e+00 -2.6416243904e+00 1.5251425529e+00 2.6416243904e+00 
40300 4.4745737542e+00 5.9566569383e-04 1.5251228025e+00 -2.6415901818e+00 1.5251228025e+00 2.6415901818e+00 
40400 4.4745736823e+00 5.8896514563e-04 1.5251032741e+00 -2.6415563576e+00 1.5251032741e+00 2.6415563576e+00 
40500 4.4745736121e+00 5.8234132584e-04 1.5250839651e+00 -2.6415229134e+00 1.5250839651e+00 2.6415229134e+00 
40600 4.4745735435e+00 5.7579333871e-04 1.5250648731e+00 -2.6414898450e+00 1.5250648731e+00 2.6414898450e+00 
40700 4.4745734765e+00 5.6932029886e-04 1.5250459954e+00 -2.6414571480e+00 1.5250459954e+00 2.6414571480e+00 
40800 4.4745734111e+00 5.6292133121e-04 1.5250273298e+00 -2.6414248181e+00 1.5250273298e+00 2.6414248181e+00 
40900 4.4745733471e+00 5.5659557087e-04 1.5250088737e+00 -2.6413928513e+00 1.5250088737e+00 2.6413928513e+00 
41000 4.4745732847e+00 5.5034216300e-04 1.5249906248e+00 -2.6413612433e+00 1.5249906248e+00 2.6413612433e+00 
41100 4.4745732237e+00 5.4416026275e-04 1.5249725808e+00 -2.6413299900e+00 1.5249725808e+00 2.6413299900e+00 
41200 4.4745731642e+00 5.3804903511e-04 1.5249547391e+00 -2.6412990875e+00 1.5249547391e+00 2.6412990875e+00 
41300 4.4745731060e+00 5.3200765484e-04 1.5249370977e+00 -2.6412685316e+00 1.5249370977e+00 2.6412685316e+00 
41400 4.4745730492e+00 5.2603530635e-04 1.5249196541e+00 -2.6412383184e+00 1.5249196541e+00 2.6412383184e+00 
41500 4.4745729937e+00 5.2013118362e-04 1.5249024062e+00 -2.6412084441e+00 1.5249024062e+00 2.6412084441e+00 
41600 4.4745729395e+00 5.1429449006e-04 1.5248853517e+00 -2.6411789048e+00 1.5248853517e+00 2.6411789048e+00 
41700 4.4745728865e+00 5.0852443843e-04 1.5248684883e+00 -2.6411496966e+00 1.5248684883e+00 2.6411496966e+00 
41800 4.4745728348e+00 5.0282025074e-04 1.5248518140e+00 -2.6411208158e+00 1.5248518140e+00 2.6411208158e+00 
41900 4.4745727843e+00 4.9718115815e-04 1.5248353265e+00 -2.6410922587e+00 1.5248353265e+00 2.6410922587e+00 
42000 4.4745727350e+00 4.9160640086e-04 1.5248190237e+00 -2.6410640215e+00 1.5248190237e+00 2.6410640215e+00 
42100 4.4745726868e+00 4.8609522803e-04 1.5248029036e+00 -2.6410361006e+00 1.5248029036e+00 2.6410361006e+00 
42200 4.4745726398e+00 4.8064689766e-04 1.5247869640e+00 -2.6410084924e+00 1.5247869640e+00 2.6410084924e+00 
42300 4.4745725938e+00 4.7526067649e-04 1.5247712029e+00 -2.6409811934e+00 1.5247712029e+00 2.6409811934e+00 
42400 4.4745725489e+00 4.6993583995e-04 1.5247556183e+00 -2.6409542001e+00 1.5247556183e+00 2.6409542001e+00 
42500 4.4745725051e+00 4.6467167200e-04 1.5247402081e+00 -2.6409275088e+00 1.5247402081e+00 2.6409275088e+00 
42600 4.4745724623e+00 4.5946746508e-04 1.5247249704e+00 -2.6409011164e+00 1.5247249704e+00 2.6409011164e+00 
42700 4.4745724205e+00 4.5432251999e-04 1.5247099032e+00 -2.6408750192e+00 1.5247099032e+00 2.6408750192e+00 
42800 4.4745723796e+00 4.4923614582e-04 1.5246950046e+00 -2.6408492140e+00 1.5246950046e+00 2.6408492140e+00 
42900 4.4745723398e+00 4.4420765982e-04 1.5246802726e+00 -2.6408236975e+00 1.5246802726e+00 2.6408236975e+00 
43000 4.4745723008e+00 4.3923638736e-04 1.5246657054e+00 -2.6407984663e+00 1.5246657054e+00 2.6407984663e+00 
43100 4.4745722628e+00 4.3432166178e-04 1.5246513011e+00 -2.6407735173e+00 1.5246513011e+00 2.6407735173e+00 
43200 4.4745722256e+00 4.2946282436e-04 1.5246370578e+00 -2.6407488472e+00 1.5246370578e+00 2.6407488472e+00 
43300 4.4745721893e+00 4.2465922416e-04 1.5246229737e+00 -2.6407244529e+00 1.5246229737e+00 2.6407244529e+00 
43400 4.4745721539e+00 4.1991021801e-04 1.5246090470e+00 -2.6407003312e+00 1.5246090470e+00 2.6407003312e+00 
43500 4.4745721193e+00 4.1521517034e-04 1.5245952760e+00 -2.6406764790e+00 1.5245952760e+00 2.6406764790e+00 
43600 4.4745720855e+00 4.1057345317e-04 1.5245816588e+00 -2.6406528933e+00 1.5245816588e+00 2.6406528933e+00 
43700 4.4745720525e+00 4.0598444596e-04 1.5245681937e+00 -2.6406295711e+00 1.5245681937e+00 2.6406295711e+00 
43800 4.4745720203e+00 4.0144753557e-04 1.5245548790e+00 -2.6406065093e+00 1.5245548790e+00 2.6406065093e+00 
43900 4.4745719888e+00 3.9696211613e-04 1.5245417129e+00 -2.6405837050e+00 1.5245417129e+00 2.6405837050e+00 
44000 4.4745719581e+00 3.9252758899e-04 1.5245286939e+00 -2.6405611554e+00 1.5245286939e+00 2.6405611554e+00 
44100 4.4745719281e+00 3.8814336264e-04 1.5245158202e+00 -2.6405388575e+00 1.5245158202e+00 2.6405388575e+00 
44200 4.4745718988e+00 3.8380885259e-04 1.5245030901e+00 -2.6405168084e+00 1.5245030901e+00 2.6405168084e+00 
44300 4.4745718702e+00 3.7952348132e-04 1.5244905021e+00 -2.6404950054e+00 1.5244905021e+00 2.6404950054e+00 
44400 4.4745718422e+00 3.7528667820e-04 1.5244780546e+00 -2.6404734456e+00 1.5244780546e+00 2.6404734456e+00 
44500 4.4745718149e+00 3.7109787937e-04 1.5244657459e+00 -2.6404521264e+00 1.5244657459e+00 2.6404521264e+00 
44600 4.4745717883e+00 3.6695652772e-04 1.5244535745e+00 -2.6404310449e+00 1.5244535745e+00 2.6404310449e+00 
44700 4.4745717623e+00 3.6286207275e-04 1.5244415389e+00 -2.6404101985e+00 1.5244415389e+00 2.6404101985e+00 
44800 4.4745717368e+00 3.5881397053e-04 1.5244296374e+00 -2.6403895846e+00 1.5244296374e+00 2.6403895846e+00 
44900 4.4745717120e+00 3.5481168363e-04 1.5244178686e+00 -2.6403692005e+00 1.5244178686e+00 2.6403692005e+00 
45000 4.4745716878e+00 3.5085468100e-04 1.5244062310e+00 -2.6403490435e+00 1.5244062310e+00 2.6403490435e+00 
45100 4.4745716642e+00 3.4694243793e-04 1.5243947231e+00 -2.6403291113e+00 1.5243947231e+00 2.6403291113e+00 
45200 4.4745716411e+00 3.4307443596e-04 1.5243833435e+00 -2.6403094011e+00 1.5243833435e+00 2.6403094011e+00 
45300 4.4745716185e+00 3.3925016282e-04 1.5243720906e+00 -2.6402899106e+00 1.5243720906e+00 2.6402899106e+00 
45400 4.4745715965e+00 3.3546911234e-04 1.5243609631e+00 -2.6402706371e+00 1.5243609631e+00 2.6402706371e+00 
45500 4.4745715750e+00 3.3173078438e-04 1.5243499595e+00 -2.6402515784e+00 1.5243499595e+00 2.6402515784e+00 
45600 4.4745715540e+00 3.2803468476e-04 1.5243390785e+00 -2.6402327318e+00 1.5243390785e+00 2.6402327318e+00 
45700 4.4745715335e+00 3.2438032519e-04 1.5243283186e+00 -2.6402140952e+00 1.5243283186e+00 2.6402140952e+00 
45800 4.4745715135e+00 3.2076722320e-04 1.5243176785e+00 -2.6401956660e+00 1.5243176785e+00 2.6401956660e+00 
45900 4.4745714939e+00 3.1719490207e-04 1.5243071568e+00 -2.6401774419e+00 1.5243071568e+00 2.6401774419e+00 
46000 4.4745714748e+00 3.1366289075e-04 1.5242967523e+00 -2.6401594207e+00 1.5242967523e+00 2.6401594207e+00 
46100 4.4745714562e+00 3.1017072382e-04 1.5242864635e+00 -2.6401416001e+00 1.5242864635e+00 2.6401416001e+00 
46200 4.4745714380e+00 3.0671794137e-04 1.5242762892e+00 -2.6401239777e+00 1.5242762892e+00 2.6401239777e+00 
46300 4.4745714203e+00 3.0330408899e-04 1.5242662281e+00 -2.6401065514e+00 1.5242662281e+00 2.6401065514e+00 
46400 4.4745714029e+00 2.9992871768e-04 1.5242562790e+00 -2.6400893189e+00 1.5242562790e+00 2.6400893189e+00 
46500 4.4745713860e+00 2.9659138378e-04 1.5242464404e+00 -2.6400722781e+00 1.5242464404e+00 2.6400722781e+00 
46600 4.4745713695e+00 2.9329164890e-04 1.5242367113e+00 -2.6400554268e+00 1.5242367113e+00 2.6400554268e+00 
46700 4.4745713533e+00 2.9002907987e-04 1.5242270904e+00 -2.6400387629e+00 1.5242270904e+00 2.6400387629e+00 
46800 4.4745713376e+00 2.8680324868e-04 1.5242175765e+00 -2.6400222842e+00 1.5242175765e+00 2.6400222842e+00 
46900 4.4745713222e+00 2.8361373239e-04 1.5242081683e+00 -2.6400059887e+00 1.5242081683e+00 2.6400059887e+00 
47000 4.4745713072e+00 2.8046011312e-04 1.5241988646e+00 -2.6399898744e+00 1.5241988646e+00 2.6399898744e+00 
47100 4.4745712926e+00 2.7734197792e-04 1.5241896644e+00 -2.6399739391e+00 1.5241896644e+00 2.6399739391e+00 
47200 4.4745712783e+00 2.7425891877e-04 1.5241805664e+00 -2.6399581809e+00 1.5241805664e+00 2.6399581809e+00 
47300 4.4745712643e+00 2.7121053248e-04 1.5241715695e+00 -2.6399425978e+00 1.5241715695e+00 2.6399425978e+00 
47400 4.4745712507e+00 2.6819642065e-04 1.5241626725e+00 -2.6399271877e+00 1.5241626725e+00 2.6399271877e+00 
47500 4.4745712374e+00 2.6521618963e-04 1.5241538743e+00 -2.6399119489e+00 1.5241538743e+00 2.6399119489e+00 
47600 4.4745712244e+00 2.6226945039e-04 1.5241451739e+00 -2.6398968793e+00 1.5241451739e+00 2.6398968793e+00 
47700 4.4745712117e+00 2.5935581857e-04 1.5241365701e+00 -2.6398819771e+00 1.5241365701e+00 2.6398819771e+00 
47800 4.4745711993e+00 2.5647491433e-04 1.5241280618e+00 -2.6398672403e+00 1.5241280618e+00 2.6398672403e+00 
47900 4.4745711872e+00 2.5362636235e-04 1.5241196480e+00 -2.6398526671e+00 1.5241196480e+00 2.6398526671e+00 
48000 4.4745711754e+00 2.5080979173e-04 1.5241113276e+00 -2.6398382558e+00 1.5241113276e+00 2.6398382558e+00 
48100 4.4745711639e+00 2.4802483600e-04 1.5241030995e+00 -2.6398240043e+00 1.5241030995e+00 2.6398240043e+00 
48200 4.4745711527e+00 2.4527113301e-04 1.5240949628e+00 -2.6398099111e+00 1.5240949628e+00 2.6398099111e+00 
48300 4.4745711417e+00 2.4254832487e-04 1.5240869163e+00 -2.6397959743e+00 1.5240869163e+00 2.6397959743e+00 
48400 4.4745711310e+00 2.3985605796e-04 1.5240789592e+00 -2.6397821920e+00 1.5240789592e+00 2.6397821920e+00 
48500 4.4745711206e+00 2.3719398283e-04 1.5240710903e+00 -2.6397685627e+00 1.5240710903e+00 2.6397685627e+00 
48600 4.4745711104e+00 2.3456175414e-04 1.5240633087e+00 -2.6397550846e+00 1.5240633087e+00 2.6397550846e+00 
48700 4.4745711004e+00 2.3195903065e-04 1.5240556134e+00 -2.6397417560e+00 1.5240556134e+00 2.6397417560e+00 
48800 4.4745710907e+00 2.2938547515e-04 1.5240480035e+00 -2.6397285753e+00 1.5240480035e+00 2.6397285753e+00 
48900 4.4745710812e+00 2.2684075438e-04 1.5240404780e+00 -2.6397155407e+00 1.5240404780e+00 2.6397155407e+00 
49000 4.4745710720e+00 2.2432453906e-04 1.5240330359e+00 -2.6397026506e+00 1.5240330359e+00 2.6397026506e+00 
49100 4.4745710630e+00 2.2183650373e-04 1.5240256764e+00 -2.6396899035e+00 1.5240256764e+00 2.6396899035e+00 
49200 4.4745710541e+00 2.1937632683e-04 1.5240183984e+00 -2.6396772977e+00 1.5240183984e+00 2.6396772977e+00 
49300 4.4745710455e+00 2.1694369054e-04 1.5240112011e+00 -2.6396648316e+00 1.5240112011e+00 2.6396648316e+00 
49400 4.4745710372e+00 2.1453828079e-04 1.5240040836e+00 -2.6396525037e+00 1.5240040836e+00 2.6396525037e+00 
49500 4.4745710290e+00 2.1215978723e-04 1.5239970449e+00 -2.6396403124e+00 1.5239970449e+00 2.6396403124e+00 
49600 4.4745710210e+00 2.0980790314e-04 1.5239900843e+00 -2.6396282563e+00 1.5239900843e+00 2.6396282563e+00 
49700 4.4745710132e+00 2.0748232540e-04 1.5239832008e+00 -2.6396163337e+00 1.5239832008e+00 2.6396163337e+00 
49800 4.4745710056e+00 2.0518275446e-04 1.5239763936e+00 -2.6396045432e+00 1.5239763936e+00 2.6396045432e+00 
49900 4.4745709981e+00 2.0290889430e-04 1.5239696618e+00 -2.6395928834e+00 1.5239696618e+00 2.6395928834e+00 
50000 4.4745709909e+00 2.0066045235e-04 1.5239630045e+00 -2.6395813527e+00 1.5239630045e+00 2.6395813527e+00 
50100 4.4745709838e+00 1.9843713949e-04 1.5239564210e+00 -2.6395699497e+00 1.5239564210e+00 2.6395699497e+00 
50200 4.4745709769e+00 1.9623866998e-04 1.5239499104e+00 -2.6395586730e+00 1.5239499104e+00 2.6395586730e+00 
50300 4.4745709702e+00 1.9406476145e-04 1.5239434719e+00 -2.6395475213e+00 1.5239434719e+00 2.6395475213e+00 
50400 4.4745709636e+00 1.9191513480e-04 1.5239371048e+00 -2.6395364930e+00 1.5239371048e+00 2.6395364930e+00 
50500 4.4745709572e+00 1.8978951423e-04 1.5239308081e+00 -2.6395255868e+00 1.5239308081e+00 2.6395255868e+00 
50600 4.4745709510e+00 1.8768762715e-04 1.5239245811e+00 -2.6395148014e+00 1.5239245811e+00 2.6395148014e+00 
50700 4.4745709449e+00 1.8560920418e-04 1.5239184231e+00 -2.6395041353e+00 1.5239184231e+00 2.6395041353e+00 
50800 4.4745709389e+00 1.8355397905e-04 1.5239123332e+00 -2.6394935874e+00 1.5239123332e+00 2.6394935874e+00 
50900 4.4745709331e+00 1.8152168864e-04 1.5239063108e+00 -2.6394831562e+00 1.5239063108e+00 2.6394831562e+00 
51000 4.4745709275e+00 1.7951207289e-04 1.5239003550e+00 -2.6394728405e+00 1.5239003550e+00 2.6394728405e+00 
51100 4.4745709219e+00 1.7752487476e-04 1.5238944651e+00 -2.6394626389e+00 1.5238944651e+00 2.6394626389e+00 
51200 4.4745709166e+00 1.7555984022e-04 1.5238886404e+00 -2.6394525502e+00 1.5238886404e+00 2.6394525502e+00 
51300 4.4745709113e+00 1.7361671821e-04 1.5238828801e+00 -2.6394425731e+00 1.5238828801e+00 2.6394425731e+00 
51400 4.4745709062e+00 1.7169526059e-04 1.5238771836e+00 -2.6394327065e+00 1.5238771836e+00 2.6394327065e+00 
51500 4.4745709012e+00 1.6979522210e-04 1.5238715501e+00 -2.6394229490e+00 1.5238715501e+00 2.6394229490e+00 
51600 4.4745708963e+00 1.6791636034e-04 1.5238659789e+00 -2.6394132994e+00 1.5238659789e+00 2.6394132994e+00 
51700 4.4745708915e+00 1.6605843575e-04 1.5238604694e+00 -2.6394037566e+00 1.5238604694e+00 2.6394037566e+00 
51800 4.4745708869e+00 1.6422121152e-04 1.5238550208e+00 -2.6393943193e+00 1.5238550208e+00 2.6393943193e+00 
51900 4.4745708824e+00 1.6240445362e-04 1.5238496324e+00 -2.6393849864e+00 1.5238496324e+00 2.6393849864e+00 
52000 4.4745708780e+00 1.6060793073e-04 1.5238443037e+00 -2.6393757568e+00 1.5238443037e+00 2.6393757568e+00 
52100 4.4745708736e+00 1.5883141421e-04 1.5238390338e+00 -2.6393666292e+00 1.5238390338e+00 2.6393666292e+00 
52200 4.4745708694e+00 1.5707467808e-04 1.5238338223e+00 -2.6393576025e+00 1.5238338223e+00 2.6393576025e+00 
52300 4.4745708653e+00 1.5533749899e-04 1.5238286684e+00 -2.6393486756e+00 1.5238286684e+00 2.6393486756e+00 
52400 4.4745708614e+00 1.5361965617e-04 1.5238235714e+00 -2.6393398475e+00 1.5238235714e+00 2.6393398475e+00 
52500 4.4745708575e+00 1.5192093139e-04 1.5238185308e+00 -2.6393311169e+00 1.5238185308e+00 2.6393311169e+00 
52600 4.4745708537e+00 1.5024110898e-04 1.5238135459e+00 -2.6393224828e+00 1.5238135459e+00 2.6393224828e+00 
52700 4.4745708500e+00 1.4857997574e-04 1.5238086162e+00 -2.6393139442e+00 1.5238086162e+00 2.6393139442e+00 
52800 4.4745708463e+00 1.4693732095e-04 1.5238037409e+00 -2.6393055000e+00 1.5238037409e+00 2.6393055000e+00 
52900 4.4745708428e+00 1.4531293633e-04 1.5237989195e+00 -2.6392971491e+00 1.5237989195e+00 2.6392971491e+00 
53000 4.4745708394e+00 1.4370661601e-04 1.5237941514e+00 -2.6392888905e+00 1.5237941514e+00 2.6392888905e+00 
53100 4.4745708360e+00 1.4211815646e-04 1.5237894360e+00 -2.6392807231e+00 1.5237894360e+00 2.6392807231e+00 
53200 4.4745708328e+00 1.4054735656e-04 1.5237847727e+00 -2.6392726460e+00 1.5237847727e+00 2.6392726460e+00 
53300 4.4745708296e+00 1.3899401746e-04 1.5237801609e+00 -2.6392646582e+00 1.5237801609e+00 2.6392646582e+00 
53400 4.4745708265e+00 1.3745794264e-04 1.5237756000e+00 -2.6392567586e+00 1.5237756000e+00 2.6392567586e+00 
53500 4.4745708235e+00 1.3593893782e-04 1.5237710896e+00 -2.6392489463e+00 1.5237710896e+00 2.6392489463e+00 
53600 4.4745708205e+00 1.3443681096e-04 1.5237666290e+00 -2.6392412203e+00 1.5237666290e+00 2.6392412203e+00 
53700 4.4745708176e+00 1.3295137226e-04 1.5237622177e+00 -2.6392335797e+00 1.5237622177e+00 2.6392335797e+00 
53800 4.4745708148e+00 1.3148243407e-04 1.5237578551e+00 -2.6392260234e+00 1.5237578551e+00 2.6392260234e+00 
53900 4.4745708121e+00 1.3002981092e-04 1.5237535407e+00 -2.6392185506e+00 1.5237535407e+00 2.6392185506e+00 
54000 4.4745708094e+00 1.2859331946e-04 1.5237492739e+00 -2.6392111604e+00 1.5237492739e+00 2.6392111604e+00 
54100 4.4745708068e+00 1.2717277847e-04 1.5237450543e+00 -2.6392038518e+00 1.5237450543e+00 2.6392038518e+00 
54200 4.4745708043e+00 1.2576800879e-04 1.5237408812e+00 -2.6391966239e+00 1.5237408812e+00 2.6391966239e+00 
54300 4.4745708018e+00 1.2437883332e-04 1.5237367543e+00 -2.6391894758e+00 1.5237367543e+00 2.6391894758e+00 
54400 4.4745707994e+00 1.2300507700e-04 1.5237326729e+00 -2.6391824066e+00 1.5237326729e+00 2.6391824066e+00 
54500 4.4745707971e+00 1.2164656679e-04 1.5237286366e+00 -2.6391754156e+00 1.5237286366e+00 2.6391754156e+00 
54600 4.4745707948e+00 1.2030313160e-04 1.5237246449e+00 -2.6391685017e+00 1.5237246449e+00 2.6391685017e+00 
54700 4.4745707926e+00 1.1897460234e-04 1.5237206972e+00 -2.6391616641e+00 1.5237206972e+00 2.6391616641e+00 
54800 4.4745707904e+00 1.1766081183e-04 1.5237167931e+00 -2.6391549020e+00 1.5237167931e+00 2.6391549020e+00 
54900 4.4745707883e+00 1.1636159482e-04 1.5237129322e+00 -2.6391482146e+00 1.5237129322e+00 2.6391482146e+00 
55000 4.4745707862e+00 1.1507678794e-04 1.5237091138e+00 -2.6391416010e+00 1.5237091138e+00 2.6391416010e+00 
55100 4.4745707842e+00 1.1380622970e-04 1.5237053376e+00 -2.6391350605e+00 1.5237053376e+00 2.6391350605e+00 
55200 4.4745707823e+00 1.1254976046e-04 1.5237016031e+00 -2.6391285921e+00 1.5237016031e+00 2.6391285921e+00 
55300 4.4745707804e+00 1.1130722239e-04 1.5236979098e+00 -2.6391221951e+00 1.5236979098e+00 2.6391221951e+00 
55400 4.4745707785e+00 1.1007845948e-04 1.5236942572e+00 -2.6391158687e+00 1.5236942572e+00 2.6391158687e+00 
55500 4.4745707767e+00 1.0886331748e-04 1.5236906450e+00 -2.6391096122e+00 1.5236906450e+00 2.6391096122e+00 
55600 4.4745707750e+00 1.0766164393e-04 1.5236870727e+00 -2.6391034247e+00 1.5236870727e+00 2.6391034247e+00 
55700 4.4745707732e+00 1.0647328810e-04 1.5236835397e+00 -2.6390973055e+00 1.5236835397e+00 2.6390973055e+00 
55800 4.4745707716e+00 1.0529810096e-04 1.5236800458e+00 -2.6390912538e+00 1.5236800458e+00 2.6390912538e+00 
55900 4.4745707699e+00 1.0413593520e-04 1.5236765904e+00 -2.6390852689e+00 1.5236765904e+00 2.6390852689e+00 
56000 4.4745707684e+00 1.0298664519e-04 1.5236731731e+00 -2.6390793500e+00 1.5236731731e+00 2.6390793500e+00 
56100 4.4745707668e+00 1.0185008695e-04 1.5236697936e+00 -2.6390734965e+00 1.5236697936e+00 2.6390734965e+00 
56200 4.4745707653e+00 1.0072611814e-04 1.5236664513e+00 -2.6390677075e+00 1.5236664513e+00 2.6390677075e+00 
56300 4.4745707638e+00 9.9614598052e-05 1.5236631459e+00 -2.6390619824e+00 1.5236631459e+00 2.6390619824e+00 
56400 4.4745707624e+00 9.8515387569e-05 1.5236598770e+00 -2.6390563205e+00 1.5236598770e+00 2.6390563205e+00 
56500 4.4745707610e+00 9.7428349159e-05 1.5236566442e+00 -2.6390507210e+00 1.5236566442e+00 2.6390507210e+00 
56600 4.4745707597e+00 9.6353346856e-05 1.5236534470e+00 -2.6390451833e+00 1.5236534470e+00 2.6390451833e+00 
56700 4.4745707584e+00 9.5290246238e-05 1.5236502851e+00 -2.6390397067e+00 1.5236502851e+00 2.6390397067e+00 
56800 4.4745707571e+00 9.4238914411e-05 1.5236471580e+00 -2.6390342905e+00 1.5236471580e+00 2.6390342905e+00 
56900 4.4745707558e+00 9.3199219990e-05 1.5236440655e+00 -2.6390289341e+00 1.5236440655e+00 2.6390289341e+00 
57000 4.4745707546e+00 9.2171033083e-05 1.5236410071e+00 -2.6390236367e+00 1.5236410071e+00 2.6390236367e+00 
57100 4.4745707534e+00 9.1154225272e-05 1.5236379824e+00 -2.6390183978e+00 1.5236379824e+00 2.6390183978e+00 
57200 4.4745707523e+00 9.0148669596e-05 1.5236349910e+00 -2.6390132167e+00 1.5236349910e+00 2.6390132167e+00 
57300 4.4745707512e+00 8.9154240535e-05 1.5236320327e+00 -2.6390080927e+00 1.5236320327e+00 2.6390080927e+00 
57400 4.4745707501e+00 8.8170813990e-05 1.5236291070e+00 -2.6390030252e+00 1.5236291070e+00 2.6390030252e+00 
57500 4.4745707490e+00 8.7198267271e-05 1.5236262135e+00 -2.6389980136e+00 1.5236262135e+00 2.6389980136e+00 
57600 4.4745707480e+00 8.6236479076e-05 1.5236233520e+00 -2.6389930573e+00 1.5236233520e+00 2.6389930573e+00 
57700 4.4745707470e+00 8.5285329479e-05 1.5236205220e+00 -2.6389881556e+00 1.5236205220e+00 2.6389881556e+00 
57800 4.4745707460e+00 8.4344699910e-05 1.5236177232e+00 -2.6389833080e+00 1.5236177232e+00 2.6389833080e+00 
57900 4.4745707450e+00 8.3414473145e-05 1.5236149553e+00 -2.6389785138e+00 1.5236149553e+00 2.6389785138e+00 
58000 4.4745707441e+00 8.2494533280e-05 1.5236122180e+00 -2.6389737725e+00 1.5236122180e+00 2.6389737725e+00 
58100 4.4745707432e+00 8.1584765727e-05 1.5236095108e+00 -2.6389690835e+00 1.5236095108e+00 2.6389690835e+00 
58200 4.4745707423e+00 8.0685057193e-05 1.5236068334e+00 -2.6389644462e+00 1.5236068334e+00 2.6389644462e+00 
58300 4.4745707415e+00 7.9795295664e-05 1.5236041856e+00 -2.6389598600e+00 1.5236041856e+00 2.6389598600e+00 
58400 4.4745707407e+00 7.8915370392e-05 1.5236015669e+00 -2.6389553244e+00 1.5236015669e+00 2.6389553244e+00 
58500 4.4745707399e+00 7.8045171881e-05 1.5235989772e+00 -2.6389508388e+00 1.5235989772e+00 2.6389508388e+00 
58600 4.4745707391e+00 7.7184591873e-05 1.5235964160e+00 -2.6389464027e+00 1.5235964160e+00 2.6389464027e+00 
58700 4.4745707383e+00 7.6333523327e-05 1.5235938830e+00 -2.6389420154e+00 1.5235938830e+00 2.6389420154e+00 
58800 4.4745707376e+00 7.5491860417e-05 1.5235913779e+00 -2.6389376766e+00 1.5235913779e+00 2.6389376766e+00 
58900 4.4745707368e+00 7.4659498505e-05 1.5235889005e+00 -2.6389333855e+00 1.5235889005e+00 2.6389333855e+00 
59000 4.4745707361e+00 7.3836334136e-05 1.5235864504e+00 -2.6389291418e+00 1.5235864504e+00 2.6389291418e+00 
59100 4.4745707355e+00 7.3022265023e-05 1.5235840273e+00 -2.6389249449e+00 1.5235840273e+00 2.6389249449e+00 
59200 4.4745707348e+00 7.2217190027e-05 1.5235816309e+00 -2.6389207942e+00 1.5235816309e+00 2.6389207942e+00 
59300 4.4745707342e+00 7.1421009153e-05 1.5235792609e+00 -2.6389166892e+00 1.5235792609e+00 2.6389166892e+00 
59400 4.4745707335e+00 7.0633623533e-05 1.5235769171e+00 -2.6389126296e+00 1.5235769171e+00 2.6389126296e+00 
59500 4.4745707331e+00 7.1072247502e-05 1.5235769171e+00 -2.6389126296e+00 1.5235769171e+00 2.6389126296e+00 
59600 4.4745707325e+00 7.0291014138e-05 1.5235745846e+00 -2.6389085897e+00 1.5235745846e+00 2.6389085897e+00 
59700 4.4745707322e+00 7.0729177869e-05 1.5235745846e+00 -2.6389085897e+00 1.5235745846e+00 2.6389085897e+00 
59800 4.4745707316e+00 6.9952827622e-05 1.5235722635e+00 -2.6389045693e+00 1.5235722635e+00 2.6389045693e+00 
59900 4.4745707313e+00 7.0389440181e-05 1.5235722635e+00 -2.6389045693e+00 1.5235722635e+00 2.6389045693e+00 
60000 4.4745707309e+00 7.0829950463e-05 1.5235722635e+00 -2.6389045693e+00 1.5235722635e+00 2.6389045693e+00 
60100 4.4745707304e+00 7.0053228045e-05 1.5235699390e+00 -2.6389005432e+00 1.5235699390e+00 2.6389005432e+00 
60200 4.4745707301e+00 7.0490212563e-05 1.5235699390e+00 -2.6389005432e+00 1.5235699390e+00 2.6389005432e+00 
60300 4.4745707298e+00 7.0930210063e-05 1.5235699390e+00 -2.6389005432e+00 1.5235699390e+00 2.6389005432e+00 
60400 4.4745707293e+00 7.0150449660e-05 1.5235676112e+00 -2.6388965114e+00 1.5235676112e+00 2.6388965114e+00 
60500 4.4745707291e+00 7.0585306450e-05 1.5235676112e+00 -2.6388965114e+00 1.5235676112e+00 2.6388965114e+00 
60600 4.4745707288e+00 7.1022453597e-05 1.5235676112e+00 -2.6388965114e+00 1.5235676112e+00 2.6388965114e+00 
60700 4.4745707283e+00 7.0237606080e-05 1.5235652805e+00 -2.6388924744e+00 1.5235652805e+00 2.6388924744e+00 
60800 4.4745707281e+00 7.0668292050e-05 1.5235652805e+00 -2.6388924744e+00 1.5235652805e+00 2.6388924744e+00 
60900 4.4745707279e+00 7.1100678470e-05 1.5235652805e+00 -2.6388924744e+00 1.5235652805e+00 2.6388924744e+00 
61000 4.4745707274e+00 7.0309198216e-05 1.5235629471e+00 -2.6388884329e+00 1.5235629471e+00 2.6388884329e+00 
61100 4.4745707272e+00 7.0734046004e-05 1.5235629471e+00 -2.6388884329e+00 1.5235629471e+00 2.6388884329e+00 
61200 4.4745707268e+00 6.9941236127e-05 1.5235606258e+00 -2.6388844122e+00 1.5235606258e+00 2.6388844122e+00 
61300 4.4745707266e+00 7.0358356328e-05 1.5235606258e+00 -2.6388844122e+00 1.5235606258e+00 2.6388844122e+00 
61400 4.4745707265e+00 7.0776588140e-05 1.5235606258e+00 -2.6388844122e+00 1.5235606258e+00 2.6388844122e+00 
61500 4.4745707261e+00 6.9976031630e-05 1.5235583030e+00 -2.6388803891e+00 1.5235583030e+00 2.6388803891e+00 
61600 4.4745707259e+00 7.0385713083e-05 1.5235583030e+00 -2.6388803891e+00 1.5235583030e+00 2.6388803891e+00 
61700 4.4745707257e+00 7.0796139873e-05 1.5235583030e+00 -2.6388803891e+00 1.5235583030e+00 2.6388803891e+00 
61800 4.4745707254e+00 6.9987125004e-05 1.5235559796e+00 -2.6388763649e+00 1.5235559796e+00 2.6388763649e+00 
61900 4.4745707252e+00 7.0388341602e-05 1.5235559796e+00 -2.6388763649e+00 1.5235559796e+00 2.6388763649e+00 
62000 4.4745707251e+00 7.0790010101e-05 1.5235559796e+00 -2.6388763649e+00 1.5235559796e+00 2.6388763649e+00 
62100 4.4745707248e+00 6.9972093751e-05 1.5235536565e+00 -2.6388723410e+00 1.5235536565e+00 2.6388723410e+00 
62200 4.4745707246e+00 7.0364029321e-05 1.5235536565e+00 -2.6388723410e+00 1.5235536565e+00 2.6388723410e+00 
62300 4.4745707245e+00 7.0756184374e-05 1.5235536565e+00 -2.6388723410e+00 1.5235536565e+00 2.6388723410e+00 
62400 4.4745707242e+00 6.9929145232e-05 1.5235513344e+00 -2.6388683191e+00 1.5235513344e+00 2.6388683191e+00 
62500 4.4745707241e+00 7.0311160637e-05 1.5235513344e+00 -2.6388683191e+00 1.5235513344e+00 2.6388683191e+00 
62600 4.4745707240e+00 7.0693214451e-05 1.5235513344e+00 -2.6388683191e+00 1.5235513344e+00 2.6388683191e+00 
62700 4.4745707239e+00 7.1075072912e-05 1.5235513344e+00 -2.6388683191e+00 1.5235513344e+00 2.6388683191e+00 
62800 4.4745707236e+00 7.0231887938e-05 1.5235490018e+00 -2.6388642790e+00 1.5235490018e+00 2.6388642790e+00 
62900 4.4745707235e+00 7.0602823074e-05 1.5235490018e+00 -2.6388642790e+00 1.5235490018e+00 2.6388642790e+00 
63000 4.4745707234e+00 7.0973471105e-05 1.5235490018e+00 -2.6388642790e+00 1.5235490018e+00 2.6388642790e+00 
63100 4.4745707232e+00 7.0120764562e-05 1.5235466726e+00 -2.6388602447e+00 1.5235466726e+00 2.6388602447e+00 
63200 4.4745707231e+00 7.0480349817e-05 1.5235466726e+00 -2.6388602447e+00 1.5235466726e+00 2.6388602447e+00 
63300 4.4745707230e+00 7.0839584560e-05 1.5235466726e+00 -2.6388602447e+00 1.5235466726e+00 2.6388602447e+00 
63400 4.4745707228e+00 6.9977735999e-05 1.5235443478e+00 -2.6388562180e+00 1.5235443478e+00 2.6388562180e+00 
63500 4.4745707227e+00 7.0325825968e-05 1.5235443478e+00 -2.6388562180e+00 1.5235443478e+00 2.6388562180e+00 
63600 4.4745707227e+00 7.0673526488e-05 1.5235443478e+00 -2.6388562180e+00 1.5235443478e+00 2.6388562180e+00 
63700 4.4745707226e+00 7.1020645975e-05 1.5235443478e+00 -2.6388562180e+00 1.5235443478e+00 2.6388562180e+00 
63800 4.4745707224e+00 7.0143378389e-05 1.5235420170e+00 -2.6388521809e+00 1.5235420170e+00 2.6388521809e+00 
63900 4.4745707223e+00 7.0478928288e-05 1.5235420170e+00 -2.6388521809e+00 1.5235420170e+00 2.6388521809e+00 
64000 4.4745707223e+00 7.0813918667e-05 1.5235420170e+00 -2.6388521809e+00 1.5235420170e+00 2.6388521809e+00 
64100 4.4745707220e+00 6.9928126443e-05 1.5235396930e+00 -2.6388481557e+00 1.5235396930e+00 2.6388481557e+00 
64200 4.4745707220e+00 7.0251631484e-05 1.5235396930e+00 -2.6388481557e+00 1.5235396930e+00 2.6388481557e+00 
64300 4.4745707220e+00 7.0574609247e-05 1.5235396930e+00 -2.6388481557e+00 1.5235396930e+00 2.6388481557e+00 
64400 4.4745707220e+00 7.0896889405e-05 1.5235396930e+00 -2.6388481557e+00 1.5235396930e+00 2.6388481557e+00 
64500 4.4745707217e+00 6.9996858220e-05 1.5235373663e+00 -2.6388441257e+00 1.5235373663e+00 2.6388441257e+00 
64600 4.4745707217e+00 7.0307412014e-05 1.5235373663e+00 -2.6388441257e+00 1.5235373663e+00 2.6388441257e+00 
64700 4.4745707217e+00 7.0617345965e-05 1.5235373663e+00 -2.6388441257e+00 1.5235373663e+00 2.6388441257e+00 
64800 4.4745707217e+00 7.0926502919e-05 1.5235373663e+00 -2.6388441257e+00 1.5235373663e+00 2.6388441257e+00 
64900 4.4745707215e+00 7.0012792947e-05 1.5235350386e+00 -2.6388400940e+00 1.5235350386e+00 2.6388400940e+00 
65000 4.4745707215e+00 7.0310096994e-05 1.5235350386e+00 -2.6388400940e+00 1.5235350386e+00 2.6388400940e+00 
65100 4.4745707215e+00 7.0606737032e-05 1.5235350386e+00 -2.6388400940e+00 1.5235350386e+00 2.6388400940e+00 
65200 4.4745707215e+00 7.0902566212e-05 1.5235350386e+00 -2.6388400940e+00 1.5235350386e+00 2.6388400940e+00 
65300 4.4745707213e+00 6.9975937056e-05 1.5235327117e+00 -2.6388360637e+00 1.5235327117e+00 2.6388360637e+00 
65400 4.4745707213e+00 7.0259877402e-05 1.5235327117e+00 -2.6388360637e+00 1.5235327117e+00 2.6388360637e+00 
65500 4.4745707213e+00 7.0543147123e-05 1.5235327117e+00 -2.6388360637e+00 1.5235327117e+00 2.6388360637e+00 
65600 4.4745707213e+00 7.0825607463e-05 1.5235327117e+00 -2.6388360637e+00 1.5235327117e+00 2.6388360637e+00 
65700 4.4745707211e+00 6.9886963587e-05 1.5235303873e+00 -2.6388320377e+00 1.5235303873e+00 2.6388320377e+00 
65800 4.4745707211e+00 7.0157571120e-05 1.5235303873e+00 -2.6388320377e+00 1.5235303873e+00 2.6388320377e+00 
65900 4.4745707211e+00 7.0427530481e-05 1.5235303873e+00 -2.6388320377e+00 1.5235303873e+00 2.6388320377e+00 
66000 4.4745707211e+00 7.0696709288e-05 1.5235303873e+00 -2.6388320377e+00 1.5235303873e+00 2.6388320377e+00 
66100 4.4745707211e+00 7.0964984914e-05 1.5235303873e+00 -2.6388320377e+00 1.5235303873e+00 2.6388320377e+00 
66200 4.4745707209e+00 7.0009699920e-05 1.5235280584e+00 -2.6388280038e+00 1.5235280584e+00 2.6388280038e+00 
66300 4.4745707210e+00 7.0265959838e-05 1.5235280584e+00 -2.6388280038e+00 1.5235280584e+00 2.6388280038e+00 
66400 4.4745707210e+00 7.0521521061e-05 1.5235280584e+00 -2.6388280038e+00 1.5235280584e+00 2.6388280038e+00 
66500 4.4745707210e+00 7.0776263419e-05 1.5235280584e+00 -2.6388280038e+00 1.5235280584e+00 2.6388280038e+00 
66600 4.4745707208e+00 6.9810799726e-05 1.5235257356e+00 -2.6388239807e+00 1.5235257356e+00 2.6388239807e+00 
66700 4.4745707208e+00 7.0053728187e-05 1.5235257356e+00 -2.6388239807e+00 1.5235257356e+00 2.6388239807e+00 
66800 4.4745707209e+00 7.0296047609e-05 1.5235257356e+00 -2.6388239807e+00 1.5235257356e+00 2.6388239807e+00 
66900 4.4745707209e+00 7.0537639923e-05 1.5235257356e+00 -2.6388239807e+00 1.5235257356e+00 2.6388239807e+00 
67000 4.4745707209e+00 7.0778395898e-05 1.5235257356e+00 -2.6388239807e+00 1.5235257356e+00 2.6388239807e+00 
67100 4.4745707207e+00 6.9798922384e-05 1.5235234127e+00 -2.6388199574e+00 1.5235234127e+00 2.6388199574e+00 
67200 4.4745707208e+00 7.0027859029e-05 1.5235234127e+00 -2.6388199574e+00 1.5235234127e+00 2.6388199574e+00 
67300 4.4745707208e+00 7.0256197701e-05 1.5235234127e+00 -2.6388199574e+00 1.5235234127e+00 2.6388199574e+00 
67400 4.4745707208e+00 7.0483828560e-05 1.5235234127e+00 -2.6388199574e+00 1.5235234127e+00 2.6388199574e+00 
67500 4.4745707209e+00 7.0710650041e-05 1.5235234127e+00 -2.6388199574e+00 1.5235234127e+00 2.6388199574e+00 
67600 4.4745707209e+00 7.0936568257e-05 1.5235234127e+00 -2.6388199574e+00 1.5235234127e+00 2.6388199574e+00 
67700 4.4745707207e+00 6.9939503153e-05 1.5235210847e+00 -2.6388159251e+00 1.5235210847e+00 2.6388159251e+00 
67800 4.4745707208e+00 7.0153487895e-05 1.5235210847e+00 -2.6388159251e+00 1.5235210847e+00 2.6388159251e+00 
67900 4.4745707208e+00 7.0366848773e-05 1.5235210847e+00 -2.6388159251e+00 1.5235210847e+00 2.6388159251e+00 
68000 4.4745707208e+00 7.0579487364e-05 1.5235210847e+00 -2.6388159251e+00 1.5235210847e+00 2.6388159251e+00 
68100 4.4745707209e+00 7.0791312723e-05 1.5235210847e+00 -2.6388159251e+00 1.5235210847e+00 2.6388159251e+00 
68200 4.4745707207e+00 6.9782767266e-05 1.5235187614e+00 -2.6388119011e+00 1.5235187614e+00 2.6388119011e+00 
68300 4.4745707207e+00 6.9982867500e-05 1.5235187614e+00 -2.6388119011e+00 1.5235187614e+00 2.6388119011e+00 
68400 4.4745707208e+00 7.0182440584e-05 1.5235187614e+00 -2.6388119011e+00 1.5235187614e+00 2.6388119011e+00 
68500 4.4745707208e+00 7.0381390396e-05 1.5235187614e+00 -2.6388119011e+00 1.5235187614e+00 2.6388119011e+00 
68600 4.4745707208e+00 7.0579628127e-05 1.5235187614e+00 -2.6388119011e+00 1.5235187614e+00 2.6388119011e+00 
68700 4.4745707209e+00 7.0777071753e-05 1.5235187614e+00 -2.6388119011e+00 1.5235187614e+00 2.6388119011e+00 
68800 4.4745707207e+00 6.9754437419e-05 1.5235164386e+00 -2.6388078778e+00 1.5235164386e+00 2.6388078778e+00 
68900 4.4745707208e+00 6.9940220321e-05 1.5235164386e+00 -2.6388078778e+00 1.5235164386e+00 2.6388078778e+00 
69000 4.4745707208e+00 7.0125518155e-05 1.5235164386e+00 -2.6388078778e+00 1.5235164386e+00 2.6388078778e+00 
69100 4.4745707208e+00 7.0310241387e-05 1.5235164386e+00 -2.6388078778e+00 1.5235164386e+00 2.6388078778e+00 
69200 4.4745707209e+00 7.0494307323e-05 1.5235164386e+00 -2.6388078778e+00 1.5235164386e+00 2.6388078778e+00 
69300 4.4745707209e+00 7.0677639595e-05 1.5235164386e+00 -2.6388078778e+00 1.5235164386e+00 2.6388078778e+00 
69400 4.4745707210e+00 7.0860167707e-05 1.5235164386e+00 -2.6388078778e+00 1.5235164386e+00 2.6388078778e+00 
69500 4.4745707208e+00 6.9821209134e-05 1.5235141131e+00 -2.6388038499e+00 1.5235141131e+00 2.6388038499e+00 
69600 4.4745707208e+00 6.9992076056e-05 1.5235141131e+00 -2.6388038499e+00 1.5235141131e+00 2.6388038499e+00 
69700 4.4745707209e+00 7.0162478230e-05 1.5235141131e+00 -2.6388038499e+00 1.5235141131e+00 2.6388038499e+00 
69800 4.4745707209e+00 7.0332334593e-05 1.5235141131e+00 -2.6388038499e+00 1.5235141131e+00 2.6388038499e+00 
69900 4.4745707210e+00 7.0501570294e-05 1.5235141131e+00 -2.6388038499e+00 1.5235141131e+00 2.6388038499e+00 
70000 4.4745707210e+00 7.0670116238e-05 1.5235141131e+00 -2.6388038499e+00 1.5235141131e+00 2.6388038499e+00 
70100 4.4745707211e+00 7.0837908663e-05 1.5235141131e+00 -2.6388038499e+00 1.5235141131e+00 2.6388038499e+00 
70200 4.4745707209e+00 6.9784674614e-05 1.5235117882e+00 -2.6387998232e+00 1.5235117882e+00 2.6387998232e+00 
70300 4.4745707209e+00 6.9940928432e-05 1.5235117882e+00 -2.6387998232e+00 1.5235117882e+00 2.6387998232e+00 
70400 4.4745707210e+00 7.0096785336e-05 1.5235117882e+00 -2.6387998232e+00 1.5235117882e+00 2.6387998232e+00 
70500 4.4745707210e+00 7.0252169211e-05 1.5235117882e+00 -2.6387998232e+00 1.5235117882e+00 2.6387998232e+00 
70600 4.4745707211e+00 7.0407009781e-05 1.5235117882e+00 -2.6387998232e+00 1.5235117882e+00 2.6387998232e+00 
70700 4.4745707211e+00 7.0561242171e-05 1.5235117882e+00 -2.6387998232e+00 1.5235117882e+00 2.6387998232e+00 
70800 4.4745707211e+00 7.0714806516e-05 1.5235117882e+00 -2.6387998232e+00 1.5235117882e+00 2.6387998232e+00 
70900 4.4745707210e+00 6.9649571873e-05 1.5235094675e+00 -2.6387958034e+00 1.5235094675e+00 2.6387958034e+00 
71000 4.4745707210e+00 6.9791796147e-05 1.5235094675e+00 -2.6387958034e+00 1.5235094675e+00 2.6387958034e+00 
71100 4.4745707211e+00 6.9933718015e-05 1.5235094675e+00 -2.6387958034e+00 1.5235094675e+00 2.6387958034e+00 
71200 4.4745707211e+00 7.0075264203e-05 1.5235094675e+00 -2.6387958034e+00 1.5235094675e+00 2.6387958034e+00 
71300 4.4745707211e+00 7.0216367034e-05 1.5235094675e+00 -2.6387958034e+00 1.5235094675e+00 2.6387958034e+00 
71400 4.4745707212e+00 7.0356964016e-05 1.5235094675e+00 -2.6387958034e+00 1.5235094675e+00 2.6387958034e+00 
71500 4.4745707212e+00 7.0496997450e-05 1.5235094675e+00 -2.6387958034e+00 1.5235094675e+00 2.6387958034e+00 
71600 4.4745707213e+00 7.0636414090e-05 1.5235094675e+00 -2.6387958034e+00 1.5235094675e+00 2.6387958034e+00 
71700 4.4745707213e+00 7.0775164809e-05 1.5235094675e+00 -2.6387958034e+00 1.5235094675e+00 2.6387958034e+00 
71800 4.4745707211e+00 6.9694110575e-05 1.5235071447e+00 -2.6387917803e+00 1.5235071447e+00 2.6387917803e+00 
71900 4.4745707212e+00 6.9821546035e-05 1.5235071447e+00 -2.6387917803e+00 1.5235071447e+00 2.6387917803e+00 
72000 4.4745707212e+00 6.9948709229e-05 1.5235071447e+00 -2.6387917803e+00 1.5235071447e+00 2.6387917803e+00 
72100 4.4745707213e+00 7.0075534684e-05 1.5235071447e+00 -2.6387917803e+00 1.5235071447e+00 2.6387917803e+00 
72200 4.4745707213e+00 7.0201961930e-05 1.5235071447e+00 -2.6387917803e+00 1.5235071447e+00 2.6387917803e+00 
72300 4.4745707213e+00 7.0327935128e-05 1.5235071447e+00 -2.6387917803e+00 1.5235071447e+00 2.6387917803e+00 
72400 4.4745707214e+00 7.0453402728e-05 1.5235071447e+00 -2.6387917803e+00 1.5235071447e+00 2.6387917803e+00 
72500 4.4745707214e+00 7.0578317151e-05 1.5235071447e+00 -2.6387917803e+00 1.5235071447e+00 2.6387917803e+00 
72600 4.4745707215e+00 7.0702634504e-05 1.5235071447e+00 -2.6387917803e+00 1.5235071447e+00 2.6387917803e+00 
72700 4.4745707215e+00 7.0826314313e-05 1.5235071447e+00 -2.6387917803e+00 1.5235071447e+00 2.6387917803e+00 
72800 4.4745707213e+00 6.9729365905e-05 1.5235048202e+00 -2.6387877542e+00 1.5235048202e+00 2.6387877542e+00 
72900 4.4745707214e+00 6.9841803423e-05 1.5235048202e+00 -2.6387877542e+00 1.5235048202e+00 2.6387877542e+00 
73000 4.4745707214e+00 6.9954019658e-05 1.5235048202e+00 -2.6387877542e+00 1.5235048202e+00 2.6387877542e+00 
73100 4.4745707214e+00 7.0065955427e-05 1.5235048202e+00 -2.6387877542e+00 1.5235048202e+00 2.6387877542e+00 
73200 4.4745707215e+00 7.0177556077e-05 1.5235048202e+00 -2.6387877542e+00 1.5235048202e+00 2.6387877542e+00 
73300 4.4745707215e+00 7.0288771134e-05 1.5235048202e+00 -2.6387877542e+00 1.5235048202e+00 2.6387877542e+00 
73400 4.4745707216e+00 7.0399554007e-05 1.5235048202e+00 -2.6387877542e+00 1.5235048202e+00 2.6387877542e+00 
73500 4.4745707216e+00 7.0509861688e-05 1.5235048202e+00 -2.6387877542e+00 1.5235048202e+00 2.6387877542e+00 
73600 4.4745707216e+00 7.0619654497e-05 1.5235048202e+00 -2.6387877542e+00 1.5235048202e+00 2.6387877542e+00 
73700 4.4745707217e+00 7.0728895843e-05 1.5235048202e+00 -2.6387877542e+00 1.5235048202e+00 2.6387877542e+00 
73800 4.4745707215e+00 6.9619295083e-05 1.5235024990e+00 -2.6387837337e+00 1.5235024990e+00 2.6387837337e+00 
73900 4.4745707215e+00 6.9717490254e-05 1.5235024990e+00 -2.6387837337e+00 1.5235024990e+00 2.6387837337e+00 
74000 4.4745707216e+00 6.9815559383e-05 1.5235024990e+00 -2.6387837337e+00 1.5235024990e+00 2.6387837337e+00 
74100 4.4745707216e+00 6.9913446091e-05 1.5235024990e+00 -2.6387837337e+00 1.5235024990e+00 2.6387837337e+00 
74200 4.4745707217e+00 7.0011098288e-05 1.5235024990e+00 -2.6387837337e+00 1.5235024990e+00 2.6387837337e+00 
74300 4.4745707217e+00 7.0108467848e-05 1.5235024990e+00 -2.6387837337e+00 1.5235024990e+00 2.6387837337e+00 
74400 4.4745707217e+00 7.0205510312e-05 1.5235024990e+00 -2.6387837337e+00 1.5235024990e+00 2.6387837337e+00 
74500 4.4745707218e+00 7.0302184616e-05 1.5235024990e+00 -2.6387837337e+00 1.5235024990e+00 2.6387837337e+00 
74600 4.4745707218e+00 7.0398452842e-05 1.5235024990e+00 -2.6387837337e+00 1.5235024990e+00 2.6387837337e+00 
74700 4.4745707218e+00 7.0494279987e-05 1.5235024990e+00 -2.6387837337e+00 1.5235024990e+00 2.6387837337e+00 
74800 4.4745707219e+00 7.0589633751e-05 1.5235024990e+00 -2.6387837337e+00 1.5235024990e+00 2.6387837337e+00 
74900 4.4745707219e+00 7.0684484347e-05 1.5235024990e+00 -2.6387837337e+00 1.5235024990e+00 2.6387837337e+00 
75000 4.4745707219e+00 7.0778804319e-05 1.5235024990e+00 -2.6387837337e+00 1.5235024990e+00 2.6387837337e+00 
75100 4.4745707218e+00 6.9653473289e-05 1.5235001761e+00 -2.6387797103e+00 1.5235001761e+00 2.6387797103e+00 
75200 4.4745707218e+00 6.9736806449e-05 1.5235001761e+00 -2.6387797103e+00 1.5235001761e+00 2.6387797103e+00 
75300 4.4745707218e+00 6.9820058221e-05 1.5235001761e+00 -2.6387797103e+00 1.5235001761e+00 2.6387797103e+00 
75400 4.4745707219e+00 6.9903178859e-05 1.5235001761e+00 -2.6387797103e+00 1.5235001761e+00 2.6387797103e+00 
75500 4.4745707219e+00 6.9986122393e-05 1.5235001761e+00 -2.6387797103e+00 1.5235001761e+00 2.6387797103e+00 
75600 4.4745707219e+00 7.0068846351e-05 1.5235001761e+00 -2.6387797103e+00 1.5235001761e+00 2.6387797103e+00 
75700 4.4745707219e+00 7.0151311489e-05 1.5235001761e+00 -2.6387797103e+00 1.5235001761e+00 2.6387797103e+00 
75800 4.4745707220e+00 7.0233481554e-05 1.5235001761e+00 -2.6387797103e+00 1.5235001761e+00 2.6387797103e+00 
75900 4.4745707220e+00 7.0315323065e-05 1.5235001761e+00 -2.6387797103e+00 1.5235001761e+00 2.6387797103e+00 
76000 4.4745707220e+00 7.0396805101e-05 1.5235001761e+00 -2.6387797103e+00 1.5235001761e+00 2.6387797103e+00 
76100 4.4745707221e+00 7.0477899127e-05 1.5235001761e+00 -2.6387797103e+00 1.5235001761e+00 2.6387797103e+00 
76200 4.4745707221e+00 7.0558578812e-05 1.5235001761e+00 -2.6387797103e+00 1.5235001761e+00 2.6387797103e+00 
76300 4.4745707221e+00 7.0638819880e-05 1.5235001761e+00 -2.6387797103e+00 1.5235001761e+00 2.6387797103e+00 
76400 4.4745707222e+00 7.0718599958e-05 1.5235001761e+00 -2.6387797103e+00 1.5235001761e+00 2.6387797103e+00 
76500 4.4745707220e+00 6.9579859550e-05 1.5234978552e+00 -2.6387756904e+00 1.5234978552e+00 2.6387756904e+00 
76600 4.4745707220e+00 6.9648814121e-05 1.5234978552e+00 -2.6387756904e+00 1.5234978552e+00 2.6387756904e+00 
76700 4.4745707220e+00 6.9717769489e-05 1.5234978552e+00 -2.6387756904e+00 1.5234978552e+00 2.6387756904e+00 
76800 4.4745707220e+00 6.9720527056e-05 1.5234978552e+00 -2.6387756904e+00 1.5234978552e+00 2.6387756904e+00 
76800 4.4745707220e+00 6.9720527056e-05 1.5234978552e+00 -2.6387756904e+00 1.5234978552e+00 2.6387756904e+00 
