# step Hamiltonian StressXX CellTensor1 CellTensor2 CellTensor3 CellTensor4 
0 5.9125025816e+00 -1.9194623632e-01 1.6087831444e+00 -2.7864941444e+00 1.6087831444e+00 2.7864941444e+00 
100 5.9114676797e+00 -1.9390031080e-01 1.6087831444e+00 -2.7864941444e+00 1.6087831444e+00 2.7864941444e+00 
200 5.9093729517e+00 -1.8988575942e-01 1.6148131961e+00 -2.7969385004e+00 1.6148131961e+00 2.7969385004e+00 
300 5.9076862325e+00 -1.8601825999e-01 1.6206962472e+00 -2.8071282438e+00 1.6206962472e+00 2.8071282438e+00 
400 5.9063738728e+00 -1.8229362961e-01 1.6264384599e+00 -2.8170740480e+00 1.6264384599e+00 2.8170740480e+00 
500 5.9054024089e+00 -1.7870804247e-01 1.6320457411e+00 -2.8267861439e+00 1.6320457411e+00 2.8267861439e+00 
600 5.9047387593e+00 -1.7525795651e-01 1.6375237624e+00 -2.8362743551e+00 1.6375237624e+00 2.8362743551e+00 
700 5.9043504115e+00 -1.7194004737e-01 1.6428779779e+00 -2.8455481283e+00 1.6428779779e+00 2.8455481283e+00 
800 5.9042056002e+00 -1.6875114898e-01 1.6481136386e+00 -2.8546165587e+00 1.6481136386e+00 2.8546165587e+00 
900 5.9042734726e+00 -1.6568820029e-01 1.6532358049e+00 -2.8634884110e+00 1.6532358049e+00 2.8634884110e+00 
1000 5.9045242417e+00 -1.6274819794e-01 1.6582493562e+00 -2.8721721365e+00 1.6582493562e+00 2.8721721365e+00 
1100 5.9049293249e+00 -1.5992815454e-01 1.6631589987e+00 -2.8806758868e+00 1.6631589987e+00 2.8806758868e+00 
1200 5.9054614678e+00 -1.5722506248e-01 1.6679692720e+00 -2.8890075246e+00 1.6679692720e+00 2.8890075246e+00 
1300 5.9060948522e+00 -1.5463586292e-01 1.6726845536e+00 -2.8971746319e+00 1.6726845536e+00 2.8971746319e+00 
1400 5.9068051872e+00 -1.5215742000e-01 1.6773090624e+00 -2.9051845161e+00 1.6773090624e+00 2.9051845161e+00 
1500 5.9075697841e+00 -1.4978649991e-01 1.6818468609e+00 -2.9130442137e+00 1.6818468609e+00 2.9130442137e+00 
1600 5.9083676145e+00 -1.4751975477e-01 1.6863018570e+00 -2.9207604933e+00 1.6863018570e+00 2.9207604933e+00 
1700 5.9091793511e+00 -1.4535371098e-01 1.6906778044e+00 -2.9283398565e+00 1.6906778044e+00 2.9283398565e+00 
1800 5.9099873934e+00 -1.4328476190e-01 1.6949783030e+00 -2.9357885386e+00 1.6949783030e+00 2.9357885386e+00 
1900 5.9107758767e+00 -1.4130916445e-01 1.6992067986e+00 -2.9431125077e+00 1.6992067986e+00 2.9431125077e+00 
2000 5.9115306665e+00 -1.3942303960e-01 1.7033665823e+00 -2.9503174645e+00 1.7033665823e+00 2.9503174645e+00 
2100 5.9122393393e+00 -1.3762237606e-01 1.7074607902e+00 -2.9574088405e+00 1.7074607902e+00 2.9574088405e+00 
2200 5.9128911494e+00 -1.3590303723e-01 1.7114924021e+00 -2.9643917972e+00 1.7114924021e+00 2.9643917972e+00 
2300 5.9134769841e+00 -1.3426077075e-01 1.7154642415e+00 -2.9712712249e+00 1.7154642415e+00 2.9712712249e+00 
2400 5.9139893090e+00 -1.3269122051e-01 1.7193789748e+00 -2.9780517419e+00 1.7193789748e+00 2.9780517419e+00 
2500 5.9144221022e+00 -1.3118994064e-01 1.7232391110e+00 -2.9847376939e+00 1.7232391110e+00 2.9847376939e+00 
2600 5.9147707813e+00 -1.2975241115e-01 1.7270470020e+00 -2.9913331545e+00 1.7270470020e+00 2.9913331545e+00 
2700 5.9150321235e+00 -1.2837405496e-01 1.7308048426e+00 -2.9978419253e+00 1.7308048426e+00 2.9978419253e+00 
2800 5.9152041790e+00 -1.2705025583e-01 1.7345146716e+00 -3.0042675376e+00 1.7345146716e+00 3.0042675376e+00 
2900 5.9152861811e+00 -1.2577637700e-01 1.7381783729e+00 -3.0106132544e+00 1.7381783729e+00 3.0106132544e+00 
3000 5.9152784525e+00 -1.2454778020e-01 1.7417976769e+00 -3.0168820729e+00 1.7417976769e+00 3.0168820729e+00 
3100 5.9151823090e+00 -1.2335984466e-01 1.7453741630e+00 -3.0230767285e+00 1.7453741630e+00 3.0230767285e+00 
3200 5.9149999636e+00 -1.2220798607e-01 1.7489092614e+00 -3.0291996985e+00 1.7489092614e+00 3.0291996985e+00 
3300 5.9147344286e+00 -1.2108767501e-01 1.7524042567e+00 -3.0352532080e+00 1.7524042567e+00 3.0352532080e+00 
3400 5.9143894206e+00 -1.1999445487e-01 1.7558602910e+00 -3.0412392350e+00 1.7558602910e+00 3.0412392350e+00 
3500 5.9139692654e+00 -1.1892395893e-01 1.7592783676e+00 -3.0471595173e+00 1.7592783676e+00 3.0471595173e+00 
3600 5.9134788070e+00 -1.1787192653e-01 1.7626593551e+00 -3.0530155595e+00 1.7626593551e+00 3.0530155595e+00 
3700 5.9129233183e+00 -1.1683421822e-01 1.7660039923e+00 -3.0588086411e+00 1.7660039923e+00 3.0588086411e+00 
3800 5.9123084163e+00 -1.1580682969e-01 1.7693128927e+00 -3.0645398246e+00 1.7693128927e+00 3.0645398246e+00 
3900 5.9116399812e+00 -1.1478590457e-01 1.7725865495e+00 -3.0702099645e+00 1.7725865495e+00 3.0702099645e+00 
4000 5.9109240800e+00 -1.1376774595e-01 1.7758253416e+00 -3.0758197169e+00 1.7758253416e+00 3.0758197169e+00 
4100 5.9101668947e+00 -1.1274882657e-01 1.7790295386e+00 -3.0813695490e+00 1.7790295386e+00 3.0813695490e+00 
4200 5.9093746558e+00 -1.1172579775e-01 1.7821993072e+00 -3.0868597493e+00 1.7821993072e+00 3.0868597493e+00 
4300 5.9085535811e+00 -1.1069549705e-01 1.7853347166e+00 -3.0922904377e+00 1.7853347166e+00 3.0922904377e+00 
4400 5.9077098189e+00 -1.0965495464e-01 1.7884357452e+00 -3.0976615767e+00 1.7884357452e+00 3.0976615767e+00 
4500 5.9068493977e+00 -1.0860139845e-01 1.7915022861e+00 -3.1029729814e+00 1.7915022861e+00 3.1029729814e+00 
4600 5.9059781803e+00 -1.0753225813e-01 1.7945341541e+00 -3.1082243309e+00 1.7945341541e+00 3.1082243309e+00 
4700 5.9051018230e+00 -1.0644516791e-01 1.7975310915e+00 -3.1134151787e+00 1.7975310915e+00 3.1134151787e+00 
4800 5.9042257407e+00 -1.0533796836e-01 1.8004927744e+00 -3.1185449640e+00 1.8004927744e+00 3.1185449640e+00 
4900 5.9033550760e+00 -1.0420870718e-01 1.8034188191e+00 -3.1236130220e+00 1.8034188191e+00 3.1236130220e+00 
5000 5.9024946735e+00 -1.0305563901e-01 1.8063087881e+00 -3.1286185951e+00 1.8063087881e+00 3.1286185951e+00 
5100 5.9016490584e+00 -1.0187722445e-01 1.8091621961e+00 -3.1335608428e+00 1.8091621961e+00 3.1335608428e+00 
5200 5.9008224195e+00 -1.0067212815e-01 1.8119785165e+00 -3.1384388529e+00 1.8119785165e+00 3.1384388529e+00 
5300 5.9000185966e+00 -9.9439216343e-02 1.8147571867e+00 -3.1432516508e+00 1.8147571867e+00 3.1432516508e+00 
5400 5.8992410708e+00 -9.8177553583e-02 1.8174976139e+00 -3.1479982099e+00 1.8174976139e+00 3.1479982099e+00 
5500 5.8984929594e+00 -9.6886398943e-02 1.8201991810e+00 -3.1526774613e+00 1.8201991810e+00 3.1526774613e+00 
5600 5.8977770136e+00 -9.5565201673e-02 1.8228612516e+00 -3.1572883029e+00 1.8228612516e+00 3.1572883029e+00 
5700 5.8970956189e+00 -9.4213596383e-02 1.8254831756e+00 -3.1618296084e+00 1.8254831756e+00 3.1618296084e+00 
5800 5.8964507990e+00 -9.2831397804e-02 1.8280642939e+00 -3.1663002365e+00 1.8280642939e+00 3.1663002365e+00 
5900 5.8958442220e+00 -9.1418595179e-02 1.8306039436e+00 -3.1706990388e+00 1.8306039436e+00 3.1706990388e+00 
6000 5.8952772086e+00 -8.9975346337e-02 1.8331014622e+00 -3.1750248680e+00 1.8331014622e+00 3.1750248680e+00 
6100 5.8947507423e+00 -8.8501971486e-02 1.8355561926e+00 -3.1792765857e+00 1.8355561926e+00 3.1792765857e+00 
6200 5.8942654822e+00 -8.6998946767e-02 1.8379674867e+00 -3.1834530697e+00 1.8379674867e+00 3.1834530697e+00 
6300 5.8938217765e+00 -8.5466897604e-02 1.8403347102e+00 -3.1875532209e+00 1.8403347102e+00 3.1875532209e+00 
6400 5.8934196776e+00 -8.3906591882e-02 1.8426572455e+00 -3.1915759701e+00 1.8426572455e+00 3.1915759701e+00 
6500 5.8930589587e+00 -8.2318932981e-02 1.8449344962e+00 -3.1955202840e+00 1.8449344962e+00 3.1955202840e+00 
6600 5.8927391311e+00 -8.0704952690e-02 1.8471658899e+00 -3.1993851712e+00 1.8471658899e+00 3.1993851712e+00 
6700 5.8924594623e+00 -7.9065804026e-02 1.8493508815e+00 -3.2031696878e+00 1.8493508815e+00 3.2031696878e+00 
6800 5.8922189949e+00 -7.7402753973e-02 1.8514889565e+00 -3.2068729424e+00 1.8514889565e+00 3.2068729424e+00 
6900 5.8920165653e+00 -7.5717176160e-02 1.8535796334e+00 -3.2104941009e+00 1.8535796334e+00 3.2104941009e+00 
7000 5.8918508238e+00 -7.4010543499e-02 1.8556224662e+00 -3.2140323911e+00 1.8556224662e+00 3.2140323911e+00 
7100 5.8917202541e+00 -7.2284420781e-02 1.8576170472e+00 -3.2174871067e+00 1.8576170472e+00 3.2174871067e+00 
7200 5.8916231926e+00 -7.0540457264e-02 1.8595630087e+00 -3.2208576110e+00 1.8595630087e+00 3.2208576110e+00 
7300 5.8915578484e+00 -6.8780379247e-02 1.8614600253e+00 -3.2241433400e+00 1.8614600253e+00 3.2241433400e+00 
7400 5.8915223223e+00 -6.7005982641e-02 1.8633078153e+00 -3.2273438062e+00 1.8633078153e+00 3.2273438062e+00 
7500 5.8915146259e+00 -6.5219125561e-02 1.8651061427e+00 -3.2304586006e+00 1.8651061427e+00 3.2304586006e+00 
7600 5.8915327003e+00 -6.3421720936e-02 1.8668548181e+00 -3.2334873953e+00 1.8668548181e+00 3.2334873953e+00 
7700 5.8915744340e+00 -6.1615729148e-02 1.8685537003e+00 -3.2364299457e+00 1.8685537003e+00 3.2364299457e+00 
7800 5.8916376801e+00 -5.9803150716e-02 1.8702026972e+00 -3.2392860919e+00 1.8702026972e+00 3.2392860919e+00 
7900 5.8917202735e+00 -5.7986019029e-02 1.8718017662e+00 -3.2420557608e+00 1.8718017662e+00 3.2420557608e+00 
8000 5.8918200464e+00 -5.6166393146e-02 1.8733509155e+00 -3.2447389661e+00 1.8733509155e+00 3.2447389661e+00 
8100 5.8919348440e+00 -5.4346350663e-02 1.8748502043e+00 -3.2473358104e+00 1.8748502043e+00 3.2473358104e+00 
8200 5.8920625381e+00 -5.2527980677e-02 1.8762997427e+00 -3.2498464845e+00 1.8762997427e+00 3.2498464845e+00 
8300 5.8922010411e+00 -5.0713376838e-02 1.8776996924e+00 -3.2522712686e+00 1.8776996924e+00 3.2522712686e+00 
8400 5.8923483182e+00 -4.8904630526e-02 1.8790502665e+00 -3.2546105316e+00 1.8790502665e+00 3.2546105316e+00 
8500 5.8925023986e+00 -4.7103824148e-02 1.8803517291e+00 -3.2568647309e+00 1.8803517291e+00 3.2568647309e+00 
8600 5.8926613864e+00 -4.5313024582e-02 1.8816043950e+00 -3.2590344118e+00 1.8816043950e+00 3.2590344118e+00 
8700 5.8928234696e+00 -4.3534276784e-02 1.8828086294e+00 -3.2611202070e+00 1.8828086294e+00 3.2611202070e+00 
8800 5.8929869283e+00 -4.1769597560e-02 1.8839648470e+00 -3.2631228346e+00 1.8839648470e+00 3.2631228346e+00 
8900 5.8931501426e+00 -4.0020969550e-02 1.8850735113e+00 -3.2650430975e+00 1.8850735113e+00 3.2650430975e+00 
9000 5.8933115980e+00 -3.8290335398e-02 1.8861351336e+00 -3.2668818814e+00 1.8861351336e+00 3.2668818814e+00 
9100 5.8934698913e+00 -3.6579592175e-02 1.8871502721e+00 -3.2686401528e+00 1.8871502721e+00 3.2686401528e+00 
9200 5.8936237342e+00 -3.4890586025e-02 1.8881195304e+00 -3.2703189575e+00 1.8881195304e+00 3.2703189575e+00 
9300 5.8937719564e+00 -3.3225107085e-02 1.8890435564e+00 -3.2719194174e+00 1.8890435564e+00 3.2719194174e+00 
9400 5.8939135082e+00 -3.1584884680e-02 1.8899230407e+00 -3.2734427290e+00 1.8899230407e+00 3.2734427290e+00 
9500 5.8940474610e+00 -2.9971582804e-02 1.8907587153e+00 -3.2748901597e+00 1.8907587153e+00 3.2748901597e+00 
9600 5.8941730078e+00 -2.8386795921e-02 1.8915513515e+00 -3.2762630459e+00 1.8915513515e+00 3.2762630459e+00 
9700 5.8942894623e+00 -2.6832045076e-02 1.8923017586e+00 -3.2775627891e+00 1.8923017586e+00 3.2775627891e+00 
9800 5.8943962574e+00 -2.5308774341e-02 1.8930107819e+00 -3.2787908535e+00 1.8930107819e+00 3.2787908535e+00 
9900 5.8944929430e+00 -2.3818347608e-02 1.8936793006e+00 -3.2799487619e+00 1.8936793006e+00 3.2799487619e+00 
10000 5.8945791825e+00 -2.2362045729e-02 1.8943082261e+00 -3.2810380929e+00 1.8943082261e+00 3.2810380929e+00 
10100 5.8946547491e+00 -2.0941064020e-02 1.8948984998e+00 -3.2820604769e+00 1.8948984998e+00 3.2820604769e+00 
10200 5.8947195214e+00 -1.9556510124e-02 1.8954510910e+00 -3.2830175928e+00 1.8954510910e+00 3.2830175928e+00 
10300 5.8947734782e+00 -1.8209402245e-02 1.8959669945e+00 -3.2839111639e+00 1.8959669945e+00 3.2839111639e+00 
10400 5.8948166929e+00 -1.6900667746e-02 1.8964472288e+00 -3.2847429542e+00 1.8964472288e+00 3.2847429542e+00 
10500 5.8948493277e+00 -1.5631142118e-02 1.8968928339e+00 -3.2855147648e+00 1.8968928339e+00 3.2855147648e+00 
10600 5.8948716267e+00 -1.4401568310e-02 1.8973048684e+00 -3.2862284296e+00 1.8973048684e+00 3.2862284296e+00 
10700 5.8948839097e+00 -1.3212596418e-02 1.8976844081e+00 -3.2868858115e+00 1.8976844081e+00 3.2868858115e+00 
10800 5.8948865650e+00 -1.2064783726e-02 1.8980325429e+00 -3.2874887987e+00 1.8980325429e+00 3.2874887987e+00 
10900 5.8948800421e+00 -1.0958595085e-02 1.8983503752e+00 -3.2880393004e+00 1.8983503752e+00 3.2880393004e+00 
11000 5.8948648444e+00 -9.8944036257e-03 1.8986390172e+00 -3.2885392430e+00 1.8986390172e+00 3.2885392430e+00 
11100 5.8948415222e+00 -8.8724917886e-03 1.8988995888e+00 -3.2889905663e+00 1.8988995888e+00 3.2889905663e+00 
11200 5.8948106651e+00 -7.8930526542e-03 1.8991332156e+00 -3.2893952197e+00 1.8991332156e+00 3.2893952197e+00 
11300 5.8947728947e+00 -6.9561915625e-03 1.8993410261e+00 -3.2897551580e+00 1.8993410261e+00 3.2897551580e+00 
11400 5.8947288576e+00 -6.0619280005e-03 1.8995241502e+00 -3.2900723383e+00 1.8995241502e+00 3.2900723383e+00 
11500 5.8946792183e+00 -5.2101977412e-03 1.8996837168e+00 -3.2903487158e+00 1.8996837168e+00 3.2903487158e+00 
11600 5.8946246527e+00 -4.4008552144e-03 1.8998208517e+00 -3.2905862405e+00 1.8998208517e+00 3.2905862405e+00 
11700 5.8945658414e+00 -3.6336760890e-03 1.8999366758e+00 -3.2907868537e+00 1.8999366758e+00 3.2907868537e+00 
11800 5.8945034637e+00 -2.9083600465e-03 1.9000323029e+00 -3.2909524846e+00 1.9000323029e+00 3.2909524846e+00 
11900 5.8944381917e+00 -2.2245337246e-03 1.9001088379e+00 -3.2910850471e+00 1.9001088379e+00 3.2910850471e+00 
12000 5.8943706850e+00 -1.5817538101e-03 1.9001673752e+00 -3.2911864367e+00 1.9001673752e+00 3.2911864367e+00 
12100 5.8943015856e+00 -9.7951026047e-04 1.9002089968e+00 -3.2912585274e+00 1.9002089968e+00 3.2912585274e+00 
12200 5.8942315134e+00 -4.1722963186e-04 1.9002347706e+00 -3.2913031689e+00 1.9002347706e+00 3.2913031689e+00 
12300 5.8941610621e+00 1.0572150457e-04 1.9002457490e+00 -3.2913221841e+00 1.9002457490e+00 3.2913221841e+00 
12400 5.8940907954e+00 5.9003307972e-04 1.9002429672e+00 -3.2913173659e+00 1.9002429672e+00 3.2913173659e+00 
12500 5.8940212438e+00 1.0364479952e-03 1.9002274420e+00 -3.2912904755e+00 1.9002274420e+00 3.2912904755e+00 
12600 5.8939529024e+00 1.4457585619e-03 1.9002001704e+00 -3.2912432396e+00 1.9002001704e+00 3.2912432396e+00 
12700 5.8938862277e+00 1.8188029267e-03 1.9001621282e+00 -3.2911773487e+00 1.9001621282e+00 3.2911773487e+00 
12800 5.8938216366e+00 2.1564615023e-03 1.9001142693e+00 -3.2910944546e+00 1.9001142693e+00 3.2910944546e+00 
12900 5.8937595050e+00 2.4596534169e-03 1.9000575240e+00 -3.2909961688e+00 1.9000575240e+00 3.2909961688e+00 
13000 5.8937001664e+00 2.7293329968e-03 1.8999927986e+00 -3.2908840612e+00 1.8999927986e+00 3.2908840612e+00 
13100 5.8936439120e+00 2.9664862964e-03 1.8999209742e+00 -3.2907596577e+00 1.8999209742e+00 3.2907596577e+00 
13200 5.8935909903e+00 3.1721276852e-03 1.8998429061e+00 -3.2906244397e+00 1.8998429061e+00 3.2906244397e+00 
13300 5.8935416075e+00 3.3472965047e-03 1.8997594227e+00 -3.2904798423e+00 1.8997594227e+00 3.2904798423e+00 
13400 5.8934959285e+00 3.4930538026e-03 1.8996713255e+00 -3.2903272535e+00 1.8996713255e+00 3.2903272535e+00 
13500 5.8934540773e+00 3.6104791546e-03 1.8995793879e+00 -3.2901680128e+00 1.8995793879e+00 3.2901680128e+00 
13600 5.8934161389e+00 3.7006675785e-03 1.8994843550e+00 -3.2900034111e+00 1.8994843550e+00 3.2900034111e+00 
13700 5.8933821605e+00 3.7647265484e-03 1.8993869434e+00 -3.2898346893e+00 1.8993869434e+00 3.2898346893e+00 
13800 5.8933521538e+00 3.8037731128e-03 1.8992878406e+00 -3.2896630381e+00 1.8992878406e+00 3.2896630381e+00 
13900 5.8933260963e+00 3.8189311211e-03 1.8991877046e+00 -3.2894895975e+00 1.8991877046e+00 3.2894895975e+00 
14000 5.8933039342e+00 3.8113285607e-03 1.8990871643e+00 -3.2893154566e+00 1.8990871643e+00 3.2893154566e+00 
14100 5.8932855846e+00 3.7820950073e-03 1.8989868189e+00 -3.2891416532e+00 1.8989868189e+00 3.2891416532e+00 
14200 5.8932709378e+00 3.7323591893e-03 1.8988872378e+00 -3.2889691738e+00 1.8988872378e+00 3.2889691738e+00 
14300 5.8932598601e+00 3.6632466672e-03 1.8987889612e+00 -3.2887989536e+00 1.8987889612e+00 3.2887989536e+00 
14400 5.8932521961e+00 3.5758776268e-03 1.8986924993e+00 -3.2886318767e+00 1.8986924993e+00 3.2886318767e+00 
14500 5.8932477718e+00 3.4713647868e-03 1.8985983332e+00 -3.2884687763e+00 1.8985983332e+00 3.2884687763e+00 
14600 5.8932463972e+00 3.3508114188e-03 1.8985069148e+00 -3.2883104349e+00 1.8985069148e+00 3.2883104349e+00 
14700 5.8932478685e+00 3.2153094777e-03 1.8984186669e+00 -3.2881575851e+00 1.8984186669e+00 3.2881575851e+00 
14800 5.8932519712e+00 3.0659378416e-03 1.8983339836e+00 -3.2880109094e+00 1.8983339836e+00 3.2880109094e+00 
14900 5.8932584824e+00 2.9037606571e-03 1.8982532308e+00 -3.2878710414e+00 1.8982532308e+00 3.2878710414e+00 
15000 5.8932671734e+00 2.7298257894e-03 1.8981767462e+00 -3.2877385662e+00 1.8981767462e+00 3.2877385662e+00 
15100 5.8932778118e+00 2.5451633730e-03 1.8981048402e+00 -3.2876140213e+00 1.8981048402e+00 3.2876140213e+00 
15200 5.8932901641e+00 2.3507844606e-03 1.8980377957e+00 -3.2874978969e+00 1.8980377957e+00 3.2874978969e+00 
15300 5.8933039975e+00 2.1476797673e-03 1.8979758693e+00 -3.2873906372e+00 1.8979758693e+00 3.2873906372e+00 
15400 5.8933190819e+00 1.9368185069e-03 1.8979192915e+00 -3.2872926415e+00 1.8979192915e+00 3.2872926415e+00 
15500 5.8933351918e+00 1.7191473173e-03 1.8978682669e+00 -3.2872042644e+00 1.8978682669e+00 3.2872042644e+00 
15600 5.8933521081e+00 1.4955892725e-03 1.8978229756e+00 -3.2871258174e+00 1.8978229756e+00 3.2871258174e+00 
15700 5.8933696192e+00 1.2670429772e-03 1.8977835729e+00 -3.2870575701e+00 1.8977835729e+00 3.2870575701e+00 
15800 5.8933875226e+00 1.0343817420e-03 1.8977501908e+00 -3.2869997506e+00 1.8977501908e+00 3.2869997506e+00 
15900 5.8934056262e+00 7.9845283641e-04 1.8977229381e+00 -3.2869525474e+00 1.8977229381e+00 3.2869525474e+00 
16000 5.8934237490e+00 5.6007681633e-04 1.8977019010e+00 -3.2869161101e+00 1.8977019010e+00 3.2869161101e+00 
16100 5.8934417219e+00 3.2004692400e-04 1.8976871443e+00 -3.2868905508e+00 1.8976871443e+00 3.2868905508e+00 
16200 5.8934593889e+00 7.9128557743e-05 1.8976787117e+00 -3.2868759452e+00 1.8976787117e+00 3.2868759452e+00 
16300 5.8934766068e+00 -1.6194119089e-04 1.8976766269e+00 -3.2868723341e+00 1.8976766269e+00 3.2868723341e+00 
16400 5.8934932463e+00 -4.0245393476e-04 1.8976808937e+00 -3.2868797244e+00 1.8976808937e+00 3.2868797244e+00 
16500 5.8935091919e+00 -6.4173032569e-04 1.8976914975e+00 -3.2868980908e+00 1.8976914975e+00 3.2868980908e+00 
16600 5.8935243419e+00 -8.7912032806e-04 1.8977084058e+00 -3.2869273767e+00 1.8977084058e+00 3.2869273767e+00 
16700 5.8935386086e+00 -1.1140034332e-03 1.8977315685e+00 -3.2869674957e+00 1.8977315685e+00 3.2869674957e+00 
16800 5.8935519179e+00 -1.3457888166e-03 1.8977609195e+00 -3.2870183332e+00 1.8977609195e+00 3.2870183332e+00 
16900 5.8935642092e+00 -1.5739154398e-03 1.8977963769e+00 -3.2870797472e+00 1.8977963769e+00 3.2870797472e+00 
17000 5.8935754351e+00 -1.7978520979e-03 1.8978378439e+00 -3.2871515702e+00 1.8978378439e+00 3.2871515702e+00 
17100 5.8935855606e+00 -2.0170974159e-03 1.8978852099e+00 -3.2872336105e+00 1.8978852099e+00 3.2872336105e+00 
17200 5.8935945629e+00 -2.2311797933e-03 1.8979383508e+00 -3.2873256533e+00 1.8979383508e+00 3.2873256533e+00 
17300 5.8936024306e+00 -2.4396573006e-03 1.8979971302e+00 -3.2874274621e+00 1.8979971302e+00 3.2874274621e+00 
17400 5.8936091633e+00 -2.6421175279e-03 1.8980613998e+00 -3.2875387803e+00 1.8980613998e+00 3.2875387803e+00 
17500 5.8936147704e+00 -2.8381773871e-03 1.8981310007e+00 -3.2876593325e+00 1.8981310007e+00 3.2876593325e+00 
17600 5.8936192709e+00 -3.0274828701e-03 1.8982057636e+00 -3.2877888257e+00 1.8982057636e+00 3.2877888257e+00 
17700 5.8936226921e+00 -3.2097087633e-03 1.8982855100e+00 -3.2879269506e+00 1.8982855100e+00 3.2879269506e+00 
17800 5.8936250693e+00 -3.3845583209e-03 1.8983700530e+00 -3.2880733833e+00 1.8983700530e+00 3.2880733833e+00 
17900 5.8936264444e+00 -3.5517628973e-03 1.8984591975e+00 -3.2882277861e+00 1.8984591975e+00 3.2882277861e+00 
18000 5.8936268658e+00 -3.7110815414e-03 1.8985527415e+00 -3.2883898092e+00 1.8985527415e+00 3.2883898092e+00 
18100 5.8936263867e+00 -3.8623005532e-03 1.8986504769e+00 -3.2885590917e+00 1.8986504769e+00 3.2885590917e+00 
18200 5.8936250652e+00 -4.0052330045e-03 1.8987521895e+00 -3.2887352632e+00 1.8987521895e+00 3.2887352632e+00 
18300 5.8936229628e+00 -4.1397182256e-03 1.8988576606e+00 -3.2889179445e+00 1.8988576606e+00 3.2889179445e+00 
18400 5.8936201438e+00 -4.2656212588e-03 1.8989666671e+00 -3.2891067494e+00 1.8989666671e+00 3.2891067494e+00 
18500 5.8936166750e+00 -4.3828322814e-03 1.8990789825e+00 -3.2893012853e+00 1.8990789825e+00 3.2893012853e+00 
18600 5.8936126241e+00 -4.4912659985e-03 1.8991943773e+00 -3.2895011550e+00 1.8991943773e+00 3.2895011550e+00 
18700 5.8936080601e+00 -4.5908610077e-03 1.8993126199e+00 -3.2897059571e+00 1.8993126199e+00 3.2897059571e+00 
18800 5.8936030516e+00 -4.6815791382e-03 1.8994334770e+00 -3.2899152878e+00 1.8994334770e+00 3.2899152878e+00 
18900 5.8935976671e+00 -4.7634047642e-03 1.8995567146e+00 -3.2901287415e+00 1.8995567146e+00 3.2901287415e+00 
19000 5.8935919736e+00 -4.8363440963e-03 1.8996820979e+00 -3.2903459119e+00 1.8996820979e+00 3.2903459119e+00 
19100 5.8935860370e+00 -4.9004244510e-03 1.8998093929e+00 -3.2905663932e+00 1.8998093929e+00 3.2905663932e+00 
19200 5.8935799207e+00 -4.9556935004e-03 1.8999383658e+00 -3.2907897808e+00 1.8999383658e+00 3.2907897808e+00 
19300 5.8935736861e+00 -5.0022185048e-03 1.9000687845e+00 -3.2910156727e+00 1.9000687845e+00 3.2910156727e+00 
19400 5.8935673914e+00 -5.0400855286e-03 1.9002004186e+00 -3.2912436696e+00 1.9002004186e+00 3.2912436696e+00 
19500 5.8935610919e+00 -5.0693986420e-03 1.9003330400e+00 -3.2914733766e+00 1.9003330400e+00 3.2914733766e+00 
19600 5.8935548394e+00 -5.0902791103e-03 1.9004664234e+00 -3.2917044034e+00 1.9004664234e+00 3.2917044034e+00 
19700 5.8935486821e+00 -5.1028645722e-03 1.9006003468e+00 -3.2919363656e+00 1.9006003468e+00 3.2919363656e+00 
19800 5.8935426644e+00 -5.1073082091e-03 1.9007345919e+00 -3.2921688848e+00 1.9007345919e+00 3.2921688848e+00 
19900 5.8935368266e+00 -5.1037779073e-03 1.9008689444e+00 -3.2924015902e+00 1.9008689444e+00 3.2924015902e+00 
20000 5.8935312053e+00 -5.0924554141e-03 1.9010031945e+00 -3.2926341182e+00 1.9010031945e+00 3.2926341182e+00 
20100 5.8935258327e+00 -5.0735354910e-03 1.9011371373e+00 -3.2928661140e+00 1.9011371373e+00 3.2928661140e+00 
20200 5.8935207370e+00 -5.0472250637e-03 1.9012705731e+00 -3.2930972316e+00 1.9012705731e+00 3.2930972316e+00 
20300 5.8935159425e+00 -5.0137423729e-03 1.9014033076e+00 -3.2933271345e+00 1.9014033076e+00 3.2933271345e+00 
20400 5.8935114692e+00 -4.9733161255e-03 1.9015351524e+00 -3.2935554963e+00 1.9015351524e+00 3.2935554963e+00 
20500 5.8935073332e+00 -4.9261846491e-03 1.9016659249e+00 -3.2937820010e+00 1.9016659249e+00 3.2937820010e+00 
20600 5.8935035471e+00 -4.8725950507e-03 1.9017954493e+00 -3.2940063438e+00 1.9017954493e+00 3.2940063438e+00 
20700 5.8935001194e+00 -4.8128023824e-03 1.9019235558e+00 -3.2942282308e+00 1.9019235558e+00 3.2942282308e+00 
20800 5.8934970553e+00 -4.7470688138e-03 1.9020500819e+00 -3.2944473803e+00 1.9020500819e+00 3.2944473803e+00 
20900 5.8934943566e+00 -4.6756628138e-03 1.9021748714e+00 -3.2946635222e+00 1.9021748714e+00 3.2946635222e+00 
21000 5.8934920220e+00 -4.5988583437e-03 1.9022977758e+00 -3.2948763989e+00 1.9022977758e+00 3.2948763989e+00 
21100 5.8934900472e+00 -4.5169340616e-03 1.9024186535e+00 -3.2950857652e+00 1.9024186535e+00 3.2950857652e+00 
21200 5.8934884251e+00 -4.4301725401e-03 1.9025373703e+00 -3.2952913887e+00 1.9025373703e+00 3.2952913887e+00 
21300 5.8934871464e+00 -4.3388594996e-03 1.9026537995e+00 -3.2954930500e+00 1.9026537995e+00 3.2954930500e+00 
21400 5.8934861993e+00 -4.2432830568e-03 1.9027678219e+00 -3.2956905425e+00 1.9027678219e+00 3.2956905425e+00 
21500 5.8934855699e+00 -4.1437329904e-03 1.9028793259e+00 -3.2958836731e+00 1.9028793259e+00 3.2958836731e+00 
21600 5.8934852429e+00 -4.0405000254e-03 1.9029882075e+00 -3.2960722617e+00 1.9029882075e+00 3.2960722617e+00 
21700 5.8934852012e+00 -3.9338751366e-03 1.9030943705e+00 -3.2962561413e+00 1.9030943705e+00 3.2962561413e+00 
21800 5.8934854264e+00 -3.8241488723e-03 1.9031977262e+00 -3.2964351585e+00 1.9031977262e+00 3.2964351585e+00 
21900 5.8934858992e+00 -3.7116106996e-03 1.9032981934e+00 -3.2966091730e+00 1.9032981934e+00 3.2966091730e+00 
22000 5.8934865993e+00 -3.5965483717e-03 1.9033956990e+00 -3.2967780576e+00 1.9033956990e+00 3.2967780576e+00 
22100 5.8934875060e+00 -3.4792473182e-03 1.9034901769e+00 -3.2969416981e+00 1.9034901769e+00 3.2969416981e+00 
22200 5.8934885981e+00 -3.3599900591e-03 1.9035815689e+00 -3.2970999937e+00 1.9035815689e+00 3.2970999937e+00 
22300 5.8934898540e+00 -3.2390556431e-03 1.9036698240e+00 -3.2972528561e+00 1.9036698240e+00 3.2972528561e+00 
22400 5.8934912525e+00 -3.1167191111e-03 1.9037548987e+00 -3.2974002096e+00 1.9037548987e+00 3.2974002096e+00 
22500 5.8934927724e+00 -2.9932509852e-03 1.9038367564e+00 -3.2975419914e+00 1.9038367564e+00 3.2975419914e+00 
22600 5.8934943927e+00 -2.8689167833e-03 1.9039153680e+00 -3.2976781506e+00 1.9039153680e+00 3.2976781506e+00 
22700 5.8934960931e+00 -2.7439765601e-03 1.9039907110e+00 -3.2978086486e+00 1.9039907110e+00 3.2978086486e+00 
22800 5.8934978539e+00 -2.6186844755e-03 1.9040627700e+00 -3.2979334585e+00 1.9040627700e+00 3.2979334585e+00 
22900 5.8934996560e+00 -2.4932883884e-03 1.9041315361e+00 -3.2980525649e+00 1.9041315361e+00 3.2980525649e+00 
23000 5.8935014815e+00 -2.3680294793e-03 1.9041970070e+00 -3.2981659637e+00 1.9041970070e+00 3.2981659637e+00 
23100 5.8935033131e+00 -2.2431418982e-03 1.9042591865e+00 -3.2982736619e+00 1.9042591865e+00 3.2982736619e+00 
23200 5.8935051348e+00 -2.1188524415e-03 1.9043180849e+00 -3.2983756768e+00 1.9043180849e+00 3.2983756768e+00 
23300 5.8935069316e+00 -1.9953802543e-03 1.9043737180e+00 -3.2984720361e+00 1.9043737180e+00 3.2984720361e+00 
23400 5.8935086898e+00 -1.8729365610e-03 1.9044261076e+00 -3.2985627777e+00 1.9044261076e+00 3.2985627777e+00 
23500 5.8935103967e+00 -1.7517244223e-03 1.9044752811e+00 -3.2986479486e+00 1.9044752811e+00 3.2986479486e+00 
23600 5.8935120411e+00 -1.6319385185e-03 1.9045212710e+00 -3.2987276054e+00 1.9045212710e+00 3.2987276054e+00 
23700 5.8935136130e+00 -1.5137649594e-03 1.9045641149e+00 -3.2988018133e+00 1.9045641149e+00 3.2988018133e+00 
23800 5.8935151034e+00 -1.3973811206e-03 1.9046038555e+00 -3.2988706461e+00 1.9046038555e+00 3.2988706461e+00 
23900 5.8935165049e+00 -1.2829555043e-03 1.9046405399e+00 -3.2989341853e+00 1.9046405399e+00 3.2989341853e+00 
24000 5.8935178112e+00 -1.1706476266e-03 1.9046742198e+00 -3.2989925205e+00 1.9046742198e+00 3.2989925205e+00 
24100 5.8935190173e+00 -1.0606079278e-03 1.9047049508e+00 -3.2990457482e+00 1.9047049508e+00 3.2990457482e+00 
24200 5.8935201191e+00 -9.5297770841e-04 1.9047327926e+00 -3.2990939717e+00 1.9047327926e+00 3.2990939717e+00 
24300 5.8935211141e+00 -8.4788908700e-04 1.9047578087e+00 -3.2991373008e+00 1.9047578087e+00 3.2991373008e+00 
24400 5.8935220005e+00 -7.4546498213e-04 1.9047800659e+00 -3.2991758514e+00 1.9047800659e+00 3.2991758514e+00 
24500 5.8935227778e+00 -6.4581911563e-04 1.9047996342e+00 -3.2992097447e+00 1.9047996342e+00 3.2992097447e+00 
24600 5.8935234462e+00 -5.4905603753e-04 1.9048165866e+00 -3.2992391072e+00 1.9048165866e+00 3.2992391072e+00 
24700 5.8935240071e+00 -4.5527117154e-04 1.9048309990e+00 -3.2992640701e+00 1.9048309990e+00 3.2992640701e+00 
24800 5.8935244626e+00 -3.6455088048e-04 1.9048429494e+00 -3.2992847688e+00 1.9048429494e+00 3.2992847688e+00 
24900 5.8935248156e+00 -2.7697255065e-04 1.9048525185e+00 -3.2993013429e+00 1.9048525185e+00 3.2993013429e+00 
25000 5.8935250696e+00 -1.9260469445e-04 1.9048597887e+00 -3.2993139353e+00 1.9048597887e+00 3.2993139353e+00 
25100 5.8935252289e+00 -1.1150707040e-04 1.9048648443e+00 -3.2993226919e+00 1.9048648443e+00 3.2993226919e+00 
25200 5.8935252982e+00 -3.3730819561e-05 1.9048677712e+00 -3.2993277614e+00 1.9048677712e+00 3.2993277614e+00 
25300 5.8935252826e+00 4.0057524363e-05 1.9048677712e+00 -3.2993277614e+00 1.9048677712e+00 3.2993277614e+00 
25400 5.8935251880e+00 1.1181993362e-04 1.9048677712e+00 -3.2993277614e+00 1.9048677712e+00 3.2993277614e+00 
25500 5.8935250203e+00 1.7940740688e-04 1.9048648361e+00 -3.2993226776e+00 1.9048648361e+00 3.2993226776e+00 
25600 5.8935247856e+00 2.4355190626e-04 1.9048601269e+00 -3.2993145211e+00 1.9048601269e+00 3.2993145211e+00 
25700 5.8935244902e+00 3.0424281281e-04 1.9048537340e+00 -3.2993034483e+00 1.9048537340e+00 3.2993034483e+00 
25800 5.8935241408e+00 3.6147700985e-04 1.9048457480e+00 -3.2992896161e+00 1.9048457480e+00 3.2992896161e+00 
25900 5.8935237439e+00 4.1525865609e-04 1.9048362597e+00 -3.2992731818e+00 1.9048362597e+00 3.2992731818e+00 
26000 5.8935233059e+00 4.6559894951e-04 1.9048253596e+00 -3.2992543023e+00 1.9048253596e+00 3.2992543023e+00 
26100 5.8935228335e+00 5.1251588278e-04 1.9048131380e+00 -3.2992331339e+00 1.9048131380e+00 3.2992331339e+00 
26200 5.8935223330e+00 5.5603399114e-04 1.9047996848e+00 -3.2992098324e+00 1.9047996848e+00 3.2992098324e+00 
26300 5.8935218106e+00 5.9618409363e-04 1.9047850893e+00 -3.2991845521e+00 1.9047850893e+00 3.2991845521e+00 
26400 5.8935212724e+00 6.3300302841e-04 1.9047694396e+00 -3.2991574461e+00 1.9047694396e+00 3.2991574461e+00 
26500 5.8935207240e+00 6.6653338319e-04 1.9047528234e+00 -3.2991286660e+00 1.9047528234e+00 3.2991286660e+00 
26600 5.8935201711e+00 6.9682322139e-04 1.9047353268e+00 -3.2990983610e+00 1.9047353268e+00 3.2990983610e+00 
26700 5.8935196188e+00 7.2392580494e-04 1.9047170350e+00 -3.2990666787e+00 1.9047170350e+00 3.2990666787e+00 
26800 5.8935190720e+00 7.4789931444e-04 1.9046980315e+00 -3.2990337637e+00 1.9046980315e+00 3.2990337637e+00 
26900 5.8935185351e+00 7.6880656749e-04 1.9046783985e+00 -3.2989997584e+00 1.9046783985e+00 3.2989997584e+00 
27000 5.8935180123e+00 7.8671473583e-04 1.9046582165e+00 -3.2989648021e+00 1.9046582165e+00 3.2989648021e+00 
27100 5.8935175074e+00 8.0169506204e-04 1.9046375642e+00 -3.2989290312e+00 1.9046375642e+00 3.2989290312e+00 
27200 5.8935170238e+00 8.1382257649e-04 1.9046165183e+00 -3.2988925787e+00 1.9046165183e+00 3.2988925787e+00 
27300 5.8935165644e+00 8.2317581518e-04 1.9045951539e+00 -3.2988555744e+00 1.9045951539e+00 3.2988555744e+00 
27400 5.8935161318e+00 8.2983653903e-04 1.9045735437e+00 -3.2988181444e+00 1.9045735437e+00 3.2988181444e+00 
27500 5.8935157282e+00 8.3388945529e-04 1.9045517584e+00 -3.2987804112e+00 1.9045517584e+00 3.2987804112e+00 
27600 5.8935153554e+00 8.3542194164e-04 1.9045298664e+00 -3.2987424931e+00 1.9045298664e+00 3.2987424931e+00 
27700 5.8935150148e+00 8.3452377346e-04 1.9045079340e+00 -3.2987045050e+00 1.9045079340e+00 3.2987045050e+00 
27800 5.8935147075e+00 8.3128685477e-04 1.9044860248e+00 -3.2986665573e+00 1.9044860248e+00 3.2986665573e+00 
27900 5.8935144343e+00 8.2580495343e-04 1.9044642004e+00 -3.2986287563e+00 1.9044642004e+00 3.2986287563e+00 
28000 5.8935141954e+00 8.1817344094e-04 1.9044425197e+00 -3.2985912042e+00 1.9044425197e+00 3.2985912042e+00 
28100 5.8935139909e+00 8.0848903733e-04 1.9044210391e+00 -3.2985539987e+00 1.9044210391e+00 3.2985539987e+00 
28200 5.8935138206e+00 7.9684956144e-04 1.9043998125e+00 -3.2985172331e+00 1.9043998125e+00 3.2985172331e+00 
28300 5.8935136840e+00 7.8335368715e-04 1.9043788912e+00 -3.2984809965e+00 1.9043788912e+00 3.2984809965e+00 
28400 5.8935135803e+00 7.6810070567e-04 1.9043583241e+00 -3.2984453732e+00 1.9043583241e+00 3.2984453732e+00 
28500 5.8935135085e+00 7.5119029436e-04 1.9043381572e+00 -3.2984104431e+00 1.9043381572e+00 3.2984104431e+00 
28600 5.8935134674e+00 7.3272229233e-04 1.9043184341e+00 -3.2983762817e+00 1.9043184341e+00 3.2983762817e+00 
28700 5.8935134555e+00 7.1279648307e-04 1.9042991957e+00 -3.2983429598e+00 1.9042991957e+00 3.2983429598e+00 
28800 5.8935134714e+00 6.9151238431e-04 1.9042804803e+00 -3.2983105437e+00 1.9042804803e+00 3.2983105437e+00 
28900 5.8935135133e+00 6.6896904538e-04 1.9042623235e+00 -3.2982790953e+00 1.9042623235e+00 3.2982790953e+00 
29000 5.8935135793e+00 6.4526485226e-04 1.9042447585e+00 -3.2982486718e+00 1.9042447585e+00 3.2982486718e+00 
29100 5.8935136676e+00 6.2049734038e-04 1.9042278157e+00 -3.2982193261e+00 1.9042278157e+00 3.2982193261e+00 
29200 5.8935137762e+00 5.9476301547e-04 1.9042115231e+00 -3.2981911064e+00 1.9042115231e+00 3.2981911064e+00 
29300 5.8935139031e+00 5.6815718242e-04 1.9041959061e+00 -3.2981640570e+00 1.9041959061e+00 3.2981640570e+00 
29400 5.8935140461e+00 5.4077378233e-04 1.9041809876e+00 -3.2981382173e+00 1.9041809876e+00 3.2981382173e+00 
29500 5.8935142033e+00 5.1270523782e-04 1.9041667880e+00 -3.2981136228e+00 1.9041667880e+00 3.2981136228e+00 
29600 5.8935143726e+00 4.8404230659e-04 1.9041533253e+00 -3.2980903047e+00 1.9041533253e+00 3.2980903047e+00 
29700 5.8935145519e+00 4.5487394339e-04 1.9041406151e+00 -3.2980682901e+00 1.9041406151e+00 3.2980682901e+00 
29800 5.8935147392e+00 4.2528717024e-04 1.9041286708e+00 -3.2980476019e+00 1.9041286708e+00 3.2980476019e+00 
29900 5.8935149326e+00 3.9536695505e-04 1.9041175033e+00 -3.2980282593e+00 1.9041175033e+00 3.2980282593e+00 
30000 5.8935151302e+00 3.6519609853e-04 1.9041071214e+00 -3.2980102773e+00 1.9041071214e+00 3.2980102773e+00 
30100 5.8935153303e+00 3.3485512942e-04 1.9040975317e+00 -3.2979936675e+00 1.9040975317e+00 3.2979936675e+00 
30200 5.8935155311e+00 3.0442220786e-04 1.9040887387e+00 -3.2979784376e+00 1.9040887387e+00 3.2979784376e+00 
30300 5.8935157311e+00 2.7397303703e-04 1.9040807448e+00 -3.2979645917e+00 1.9040807448e+00 3.2979645917e+00 
30400 5.8935159287e+00 2.4358078271e-04 1.9040735504e+00 -3.2979521307e+00 1.9040735504e+00 3.2979521307e+00 
30500 5.8935161226e+00 2.1331600103e-04 1.9040671541e+00 -3.2979410520e+00 1.9040671541e+00 3.2979410520e+00 
30600 5.8935163115e+00 1.8324657383e-04 1.9040615526e+00 -3.2979313498e+00 1.9040615526e+00 3.2979313498e+00 
30700 5.8935164942e+00 1.5343765198e-04 1.9040567406e+00 -3.2979230152e+00 1.9040567406e+00 3.2979230152e+00 
30800 5.8935166699e+00 1.2395160614e-04 1.9040527113e+00 -3.2979160363e+00 1.9040527113e+00 3.2979160363e+00 
30900 5.8935168374e+00 9.4847985129e-05 1.9040494564e+00 -3.2979103986e+00 1.9040494564e+00 3.2979103986e+00 
31000 5.8935169962e+00 6.6183481452e-05 1.9040469657e+00 -3.2979060846e+00 1.9040469657e+00 3.2979060846e+00 
31100 5.8935171455e+00 3.9239900995e-05 1.9040469657e+00 -3.2979060846e+00 1.9040469657e+00 3.2979060846e+00 
31200 5.8935172846e+00 1.2324814505e-05 1.9040469657e+00 -3.2979060846e+00 1.9040469657e+00 3.2979060846e+00 
31300 5.8935174133e+00 -1.4506602348e-05 1.9040469657e+00 -3.2979060846e+00 1.9040469657e+00 3.2979060846e+00 
31400 5.8935175314e+00 -4.1201252044e-05 1.9040469657e+00 -3.2979060846e+00 1.9040469657e+00 3.2979060846e+00 
31500 5.8935176386e+00 -6.7708156540e-05 1.9040469657e+00 -3.2979060846e+00 1.9040469657e+00 3.2979060846e+00 
31600 5.8935177350e+00 -9.3978492609e-05 1.9040469657e+00 -3.2979060846e+00 1.9040469657e+00 3.2979060846e+00 
31700 5.8935178203e+00 -1.1822229760e-04 1.9040494336e+00 -3.2979103591e+00 1.9040494336e+00 3.2979103591e+00 
31800 5.8935178948e+00 -1.4167832555e-04 1.9040525381e+00 -3.2979157362e+00 1.9040525381e+00 3.2979157362e+00 
31900 5.8935179585e+00 -1.6431601427e-04 1.9040562585e+00 -3.2979221802e+00 1.9040562585e+00 3.2979221802e+00 
32000 5.8935180118e+00 -1.8610764035e-04 1.9040605734e+00 -3.2979296538e+00 1.9040605734e+00 3.2979296538e+00 
32100 5.8935180550e+00 -2.0702828593e-04 1.9040654605e+00 -3.2979381186e+00 1.9040654605e+00 3.2979381186e+00 
32200 5.8935180884e+00 -2.2705580047e-04 1.9040708970e+00 -3.2979475348e+00 1.9040708970e+00 3.2979475348e+00 
32300 5.8935181126e+00 -2.4617075794e-04 1.9040768594e+00 -3.2979578620e+00 1.9040768594e+00 3.2979578620e+00 
32400 5.8935181281e+00 -2.6435640962e-04 1.9040833237e+00 -3.2979690585e+00 1.9040833237e+00 3.2979690585e+00 
32500 5.8935181353e+00 -2.8159863273e-04 1.9040902655e+00 -3.2979810821e+00 1.9040902655e+00 3.2979810821e+00 
32600 5.8935181349e+00 -2.9788587516e-04 1.9040976601e+00 -3.2979938899e+00 1.9040976601e+00 3.2979938899e+00 
32700 5.8935181274e+00 -3.1320909652e-04 1.9041054824e+00 -3.2980074384e+00 1.9041054824e+00 3.2980074384e+00 
32800 5.8935181135e+00 -3.2756170570e-04 1.9041137069e+00 -3.2980216838e+00 1.9041137069e+00 3.2980216838e+00 
32900 5.8935180938e+00 -3.4093949532e-04 1.9041223084e+00 -3.2980365819e+00 1.9041223084e+00 3.2980365819e+00 
33000 5.8935180689e+00 -3.5334057314e-04 1.9041312610e+00 -3.2980520884e+00 1.9041312610e+00 3.2980520884e+00 
33100 5.8935180396e+00 -3.6476529078e-04 1.9041405393e+00 -3.2980681588e+00 1.9041405393e+00 3.2980681588e+00 
33200 5.8935180063e+00 -3.7521616991e-04 1.9041501175e+00 -3.2980847488e+00 1.9041501175e+00 3.2980847488e+00 
33300 5.8935179699e+00 -3.8469782625e-04 1.9041599701e+00 -3.2981018140e+00 1.9041599701e+00 3.2981018140e+00 
33400 5.8935179308e+00 -3.9321689143e-04 1.9041700716e+00 -3.2981193103e+00 1.9041700716e+00 3.2981193103e+00 
33500 5.8935178896e+00 -4.0078193319e-04 1.9041803968e+00 -3.2981371940e+00 1.9041803968e+00 3.2981371940e+00 
33600 5.8935178470e+00 -4.0740337385e-04 1.9041909206e+00 -3.2981554217e+00 1.9041909206e+00 3.2981554217e+00 
33700 5.8935178035e+00 -4.1309340753e-04 1.9042016181e+00 -3.2981739504e+00 1.9042016181e+00 3.2981739504e+00 
33800 5.8935177596e+00 -4.1786591618e-04 1.9042124650e+00 -3.2981927378e+00 1.9042124650e+00 3.2981927378e+00 
33900 5.8935177159e+00 -4.2173638473e-04 1.9042234372e+00 -3.2982117421e+00 1.9042234372e+00 3.2982117421e+00 
34000 5.8935176726e+00 -4.2472181542e-04 1.9042345109e+00 -3.2982309224e+00 1.9042345109e+00 3.2982309224e+00 
34100 5.8935176304e+00 -4.2684064171e-04 1.9042456629e+00 -3.2982502383e+00 1.9042456629e+00 3.2982502383e+00 
34200 5.8935175895e+00 -4.2811264186e-04 1.9042568705e+00 -3.2982696505e+00 1.9042568705e+00 3.2982696505e+00 
34300 5.8935175503e+00 -4.2855885232e-04 1.9042681115e+00 -3.2982891203e+00 1.9042681115e+00 3.2982891203e+00 
34400 5.8935175132e+00 -4.2820148123e-04 1.9042793641e+00 -3.2983086104e+00 1.9042793641e+00 3.2983086104e+00 
34500 5.8935174783e+00 -4.2706382218e-04 1.9042906072e+00 -3.2983280841e+00 1.9042906072e+00 3.2983280841e+00 
34600 5.8935174459e+00 -4.2517016833e-04 1.9043018205e+00 -3.2983475060e+00 1.9043018205e+00 3.2983475060e+00 
34700 5.8935174163e+00 -4.2254572718e-04 1.9043129839e+00 -3.2983668416e+00 1.9043129839e+00 3.2983668416e+00 
34800 5.8935173895e+00 -4.1921653604e-04 1.9043240783e+00 -3.2983860577e+00 1.9043240783e+00 3.2983860577e+00 
34900 5.8935173657e+00 -4.1520937844e-04 1.9043350853e+00 -3.2984051224e+00 1.9043350853e+00 3.2984051224e+00 
35000 5.8935173450e+00 -4.1055170161e-04 1.9043459870e+00 -3.2984240047e+00 1.9043459870e+00 3.2984240047e+00 
35100 5.8935173274e+00 -4.0527153510e-04 1.9043567663e+00 -3.2984426751e+00 1.9043567663e+00 3.2984426751e+00 
35200 5.8935173129e+00 -3.9939741083e-04 1.9043674070e+00 -3.2984611052e+00 1.9043674070e+00 3.2984611052e+00 
35300 5.8935173017e+00 -3.9295828451e-04 1.9043778934e+00 -3.2984792681e+00 1.9043778934e+00 3.2984792681e+00 
35400 5.8935172935e+00 -3.8598345872e-04 1.9043882106e+00 -3.2984971381e+00 1.9043882106e+00 3.2984971381e+00 
35500 5.8935172884e+00 -3.7850250768e-04 1.9043983447e+00 -3.2985146908e+00 1.9043983447e+00 3.2985146908e+00 
35600 5.8935172862e+00 -3.7054520380e-04 1.9044082823e+00 -3.2985319032e+00 1.9044082823e+00 3.2985319032e+00 
35700 5.8935172869e+00 -3.6214144622e-04 1.9044180109e+00 -3.2985487537e+00 1.9044180109e+00 3.2985487537e+00 
35800 5.8935172904e+00 -3.5332119124e-04 1.9044275188e+00 -3.2985652219e+00 1.9044275188e+00 3.2985652219e+00 
35900 5.8935172964e+00 -3.4411438498e-04 1.9044367951e+00 -3.2985812890e+00 1.9044367951e+00 3.2985812890e+00 
36000 5.8935173049e+00 -3.3455089811e-04 1.9044458297e+00 -3.2985969373e+00 1.9044458297e+00 3.2985969373e+00 
36100 5.8935173157e+00 -3.2466046289e-04 1.9044546131e+00 -3.2986121506e+00 1.9044546131e+00 3.2986121506e+00 
36200 5.8935173285e+00 -3.1447261248e-04 1.9044631368e+00 -3.2986269142e+00 1.9044631368e+00 3.2986269142e+00 
36300 5.8935173433e+00 -3.0401662267e-04 1.9044713931e+00 -3.2986412143e+00 1.9044713931e+00 3.2986412143e+00 
36400 5.8935173598e+00 -2.9332145598e-04 1.9044793747e+00 -3.2986550390e+00 1.9044793747e+00 3.2986550390e+00 
36500 5.8935173779e+00 -2.8241570825e-04 1.9044870755e+00 -3.2986683772e+00 1.9044870755e+00 3.2986683772e+00 
36600 5.8935173973e+00 -2.7132755778e-04 1.9044944900e+00 -3.2986812195e+00 1.9044944900e+00 3.2986812195e+00 
36700 5.8935174178e+00 -2.6008471689e-04 1.9045016134e+00 -3.2986935575e+00 1.9045016134e+00 3.2986935575e+00 
36800 5.8935174393e+00 -2.4871438619e-04 1.9045084415e+00 -3.2987053842e+00 1.9045084415e+00 3.2987053842e+00 
36900 5.8935174615e+00 -2.3724321132e-04 1.9045149712e+00 -3.2987166938e+00 1.9045149712e+00 3.2987166938e+00 
37000 5.8935174843e+00 -2.2569724229e-04 1.9045211996e+00 -3.2987274818e+00 1.9045211996e+00 3.2987274818e+00 
37100 5.8935175075e+00 -2.1410189553e-04 1.9045271249e+00 -3.2987377448e+00 1.9045271249e+00 3.2987377448e+00 
37200 5.8935175309e+00 -2.0248191836e-04 1.9045327458e+00 -3.2987474804e+00 1.9045327458e+00 3.2987474804e+00 
37300 5.8935175543e+00 -1.9086135622e-04 1.9045380616e+00 -3.2987566876e+00 1.9045380616e+00 3.2987566876e+00 
37400 5.8935175777e+00 -1.7926352237e-04 1.9045430723e+00 -3.2987653664e+00 1.9045430723e+00 3.2987653664e+00 
37500 5.8935176008e+00 -1.6771097021e-04 1.9045477785e+00 -3.2987735178e+00 1.9045477785e+00 3.2987735178e+00 
37600 5.8935176235e+00 -1.5622546816e-04 1.9045521814e+00 -3.2987811439e+00 1.9045521814e+00 3.2987811439e+00 
37700 5.8935176457e+00 -1.4482797699e-04 1.9045562828e+00 -3.2987882476e+00 1.9045562828e+00 3.2987882476e+00 
37800 5.8935176673e+00 -1.3353862969e-04 1.9045600849e+00 -3.2987948332e+00 1.9045600849e+00 3.2987948332e+00 
37900 5.8935176881e+00 -1.2237671382e-04 1.9045635907e+00 -3.2988009053e+00 1.9045635907e+00 3.2988009053e+00 
38000 5.8935177081e+00 -1.1136065619e-04 1.9045668034e+00 -3.2988064699e+00 1.9045668034e+00 3.2988064699e+00 
38100 5.8935177273e+00 -1.0050800998e-04 1.9045697269e+00 -3.2988115336e+00 1.9045697269e+00 3.2988115336e+00 
38200 5.8935177455e+00 -8.9835444153e-05 1.9045723655e+00 -3.2988161038e+00 1.9045723655e+00 3.2988161038e+00 
38300 5.8935177627e+00 -7.9358735131e-05 1.9045747239e+00 -3.2988201887e+00 1.9045747239e+00 3.2988201887e+00 
38400 5.8935177788e+00 -6.9092760720e-05 1.9045768073e+00 -3.2988237972e+00 1.9045768073e+00 3.2988237972e+00 
38500 5.8935177939e+00 -6.0331487000e-05 1.9045768073e+00 -3.2988237972e+00 1.9045768073e+00 3.2988237972e+00 
38600 5.8935178079e+00 -5.1629780005e-05 1.9045768073e+00 -3.2988237972e+00 1.9045768073e+00 3.2988237972e+00 
38700 5.8935178207e+00 -4.3003295184e-05 1.9045768073e+00 -3.2988237972e+00 1.9045768073e+00 3.2988237972e+00 
38800 5.8935178323e+00 -3.4466988076e-05 1.9045768073e+00 -3.2988237972e+00 1.9045768073e+00 3.2988237972e+00 
38900 5.8935178428e+00 -2.6035106420e-05 1.9045768073e+00 -3.2988237972e+00 1.9045768073e+00 3.2988237972e+00 
39000 5.8935178521e+00 -1.7721184082e-05 1.9045768073e+00 -3.2988237972e+00 1.9045768073e+00 3.2988237972e+00 
39100 5.8935178604e+00 -9.5380367700e-06 1.9045768073e+00 -3.2988237972e+00 1.9045768073e+00 3.2988237972e+00 
39200 5.8935178676e+00 -1.4977594864e-06 1.9045768073e+00 -3.2988237972e+00 1.9045768073e+00 3.2988237972e+00 
39300 5.8935178738e+00 6.3882743774e-06 1.9045768073e+00 -3.2988237972e+00 1.9045768073e+00 3.2988237972e+00 
39400 5.8935178791e+00 1.4109412308e-05 1.9045768073e+00 -3.2988237972e+00 1.9045768073e+00 3.2988237972e+00 
39500 5.8935178835e+00 2.1655720406e-05 1.9045768073e+00 -3.2988237972e+00 1.9045768073e+00 3.2988237972e+00 
39600 5.8935178870e+00 2.9017979629e-05 1.9045768073e+00 -3.2988237972e+00 1.9045768073e+00 3.2988237972e+00 
39700 5.8935178898e+00 3.6187680606e-05 1.9045768073e+00 -3.2988237972e+00 1.9045768073e+00 3.2988237972e+00 
39800 5.8935178918e+00 4.3157017098e-05 1.9045768073e+00 -3.2988237972e+00 1.9045768073e+00 3.2988237972e+00 
39900 5.8935178931e+00 4.9918878146e-05 1.9045768073e+00 -3.2988237972e+00 1.9045768073e+00 3.2988237972e+00 
40000 5.8935178939e+00 5.6466838997e-05 1.9045768073e+00 -3.2988237972e+00 1.9045768073e+00 3.2988237972e+00 
40100 5.8935178941e+00 6.2795150855e-05 1.9045768073e+00 -3.2988237972e+00 1.9045768073e+00 3.2988237972e+00 
40200 5.8935178939e+00 6.8898729524e-05 1.9045768073e+00 -3.2988237972e+00 1.9045768073e+00 3.2988237972e+00 
40300 5.8935178932e+00 7.4773143018e-05 1.9045768073e+00 -3.2988237972e+00 1.9045768073e+00 3.2988237972e+00 
40400 5.8935178920e+00 7.9029034925e-05 1.9045748443e+00 -3.2988203972e+00 1.9045748443e+00 3.2988203972e+00 
40500 5.8935178905e+00 8.2961488531e-05 1.9045727696e+00 -3.2988168037e+00 1.9045727696e+00 3.2988168037e+00 
40600 5.8935178887e+00 8.6573219249e-05 1.9045705917e+00 -3.2988130314e+00 1.9045705917e+00 3.2988130314e+00 
40700 5.8935178868e+00 8.9867528347e-05 1.9045683189e+00 -3.2988090948e+00 1.9045683189e+00 3.2988090948e+00 
40800 5.8935178846e+00 9.2848277329e-05 1.9045659596e+00 -3.2988050084e+00 1.9045659596e+00 3.2988050084e+00 
40900 5.8935178823e+00 9.5519861901e-05 1.9045635221e+00 -3.2988007865e+00 1.9045635221e+00 3.2988007865e+00 
41000 5.8935178800e+00 9.7887185647e-05 1.9045610144e+00 -3.2987964431e+00 1.9045610144e+00 3.2987964431e+00 
41100 5.8935178777e+00 9.9955633410e-05 1.9045584446e+00 -3.2987919921e+00 1.9045584446e+00 3.2987919921e+00 
41200 5.8935178754e+00 1.0173104449e-04 1.9045558205e+00 -3.2987874470e+00 1.9045558205e+00 3.2987874470e+00 
41300 5.8935178732e+00 1.0321968574e-04 1.9045531498e+00 -3.2987828212e+00 1.9045531498e+00 3.2987828212e+00 
41400 5.8935178711e+00 1.0442822455e-04 1.9045504400e+00 -3.2987781276e+00 1.9045504400e+00 3.2987781276e+00 
41500 5.8935178691e+00 1.0536370189e-04 1.9045476984e+00 -3.2987733791e+00 1.9045476984e+00 3.2987733791e+00 
41600 5.8935178673e+00 1.0603350532e-04 1.9045449323e+00 -3.2987685881e+00 1.9045449323e+00 3.2987685881e+00 
41700 5.8935178657e+00 1.0644534222e-04 1.9045421486e+00 -3.2987637666e+00 1.9045421486e+00 3.2987637666e+00 
41800 5.8935178643e+00 1.0660721310e-04 1.9045393541e+00 -3.2987589264e+00 1.9045393541e+00 3.2987589264e+00 
41900 5.8935178631e+00 1.0652738518e-04 1.9045365554e+00 -3.2987540788e+00 1.9045365554e+00 3.2987540788e+00 
42000 5.8935178622e+00 1.0621436621e-04 1.9045337587e+00 -3.2987492348e+00 1.9045337587e+00 3.2987492348e+00 
42100 5.8935178615e+00 1.0567687864e-04 1.9045309702e+00 -3.2987444050e+00 1.9045309702e+00 3.2987444050e+00 
42200 5.8935178611e+00 1.0492383410e-04 1.9045281959e+00 -3.2987395997e+00 1.9045281959e+00 3.2987395997e+00 
42300 5.8935178610e+00 1.0396430838e-04 1.9045254413e+00 -3.2987348286e+00 1.9045254413e+00 3.2987348286e+00 
42400 5.8935178612e+00 1.0280751676e-04 1.9045227119e+00 -3.2987301011e+00 1.9045227119e+00 3.2987301011e+00 
42500 5.8935178616e+00 1.0146278989e-04 1.9045200128e+00 -3.2987254263e+00 1.9045200128e+00 3.2987254263e+00 
42600 5.8935178623e+00 9.9939550200e-05 1.9045173491e+00 -3.2987208126e+00 1.9045173491e+00 3.2987208126e+00 
42700 5.8935178632e+00 9.8247288795e-05 1.9045147254e+00 -3.2987162681e+00 1.9045147254e+00 3.2987162681e+00 
42800 5.8935178644e+00 9.6395543047e-05 1.9045121460e+00 -3.2987118006e+00 1.9045121460e+00 3.2987118006e+00 
42900 5.8935178659e+00 9.4393874736e-05 1.9045096153e+00 -3.2987074172e+00 1.9045096153e+00 3.2987074172e+00 
43000 5.8935178676e+00 9.2251848849e-05 1.9045071372e+00 -3.2987031249e+00 1.9045071372e+00 3.2987031249e+00 
43100 5.8935178695e+00 8.9979013082e-05 1.9045047152e+00 -3.2986989300e+00 1.9045047152e+00 3.2986989300e+00 
43200 5.8935178715e+00 8.7584877999e-05 1.9045023530e+00 -3.2986948384e+00 1.9045023530e+00 3.2986948384e+00 
43300 5.8935178738e+00 8.5078897944e-05 1.9045000535e+00 -3.2986908557e+00 1.9045000535e+00 3.2986908557e+00 
43400 5.8935178763e+00 8.2470452655e-05 1.9044978199e+00 -3.2986869870e+00 1.9044978199e+00 3.2986869870e+00 
43500 5.8935178789e+00 7.9768829651e-05 1.9044956548e+00 -3.2986832368e+00 1.9044956548e+00 3.2986832368e+00 
43600 5.8935178816e+00 7.6983207377e-05 1.9044935605e+00 -3.2986796095e+00 1.9044935605e+00 3.2986796095e+00 
43700 5.8935178845e+00 7.4122639118e-05 1.9044915394e+00 -3.2986761089e+00 1.9044915394e+00 3.2986761089e+00 
43800 5.8935178874e+00 7.1196037709e-05 1.9044895934e+00 -3.2986727383e+00 1.9044895934e+00 3.2986727383e+00 
43900 5.8935178905e+00 6.8212161036e-05 1.9044877243e+00 -3.2986695008e+00 1.9044877243e+00 3.2986695008e+00 
44000 5.8935178937e+00 6.6443917814e-05 1.9044877243e+00 -3.2986695008e+00 1.9044877243e+00 3.2986695008e+00 
44100 5.8935178969e+00 6.4586862522e-05 1.9044877243e+00 -3.2986695008e+00 1.9044877243e+00 3.2986695008e+00 
44200 5.8935179002e+00 6.2648337929e-05 1.9044877243e+00 -3.2986695008e+00 1.9044877243e+00 3.2986695008e+00 
44300 5.8935179034e+00 6.0635602449e-05 1.9044877243e+00 -3.2986695008e+00 1.9044877243e+00 3.2986695008e+00 
44400 5.8935179067e+00 5.8555817380e-05 1.9044877243e+00 -3.2986695008e+00 1.9044877243e+00 3.2986695008e+00 
44500 5.8935179098e+00 5.6416034809e-05 1.9044877243e+00 -3.2986695008e+00 1.9044877243e+00 3.2986695008e+00 
44600 5.8935179130e+00 5.4223186183e-05 1.9044877243e+00 -3.2986695008e+00 1.9044877243e+00 3.2986695008e+00 
44700 5.8935179160e+00 5.1984071561e-05 1.9044877243e+00 -3.2986695008e+00 1.9044877243e+00 3.2986695008e+00 
44800 5.8935179190e+00 4.9705349533e-05 1.9044877243e+00 -3.2986695008e+00 1.9044877243e+00 3.2986695008e+00 
44900 5.8935179219e+00 4.7393527814e-05 1.9044877243e+00 -3.2986695008e+00 1.9044877243e+00 3.2986695008e+00 
45000 5.8935179248e+00 4.5054954483e-05 1.9044877243e+00 -3.2986695008e+00 1.9044877243e+00 3.2986695008e+00 
45100 5.8935179275e+00 4.2695809915e-05 1.9044877243e+00 -3.2986695008e+00 1.9044877243e+00 3.2986695008e+00 
45200 5.8935179301e+00 4.0322099331e-05 1.9044877243e+00 -3.2986695008e+00 1.9044877243e+00 3.2986695008e+00 
45300 5.8935179326e+00 3.7939646023e-05 1.9044877243e+00 -3.2986695008e+00 1.9044877243e+00 3.2986695008e+00 
45400 5.8935179350e+00 3.5554085194e-05 1.9044877243e+00 -3.2986695008e+00 1.9044877243e+00 3.2986695008e+00 
45500 5.8935179373e+00 3.3170858442e-05 1.9044877243e+00 -3.2986695008e+00 1.9044877243e+00 3.2986695008e+00 
45600 5.8935179394e+00 3.0795208847e-05 1.9044877243e+00 -3.2986695008e+00 1.9044877243e+00 3.2986695008e+00 
45700 5.8935179415e+00 2.8432176682e-05 1.9044877243e+00 -3.2986695008e+00 1.9044877243e+00 3.2986695008e+00 
45800 5.8935179434e+00 2.6086595693e-05 1.9044877243e+00 -3.2986695008e+00 1.9044877243e+00 3.2986695008e+00 
45900 5.8935179452e+00 2.3763089978e-05 1.9044877243e+00 -3.2986695008e+00 1.9044877243e+00 3.2986695008e+00 
46000 5.8935179468e+00 2.1466071425e-05 1.9044877243e+00 -3.2986695008e+00 1.9044877243e+00 3.2986695008e+00 
46100 5.8935179484e+00 1.9199737699e-05 1.9044877243e+00 -3.2986695008e+00 1.9044877243e+00 3.2986695008e+00 
46200 5.8935179499e+00 1.6968070768e-05 1.9044877243e+00 -3.2986695008e+00 1.9044877243e+00 3.2986695008e+00 
46300 5.8935179512e+00 1.4774835943e-05 1.9044877243e+00 -3.2986695008e+00 1.9044877243e+00 3.2986695008e+00 
46400 5.8935179524e+00 1.2623581431e-05 1.9044877243e+00 -3.2986695008e+00 1.9044877243e+00 3.2986695008e+00 
46500 5.8935179536e+00 1.0517638369e-05 1.9044877243e+00 -3.2986695008e+00 1.9044877243e+00 3.2986695008e+00 
46600 5.8935179546e+00 8.4601213164e-06 1.9044877243e+00 -3.2986695008e+00 1.9044877243e+00 3.2986695008e+00 
46700 5.8935179556e+00 6.4539292207e-06 1.9044877243e+00 -3.2986695008e+00 1.9044877243e+00 3.2986695008e+00 
46800 5.8935179564e+00 4.5017467929e-06 1.9044877243e+00 -3.2986695008e+00 1.9044877243e+00 3.2986695008e+00 
46900 5.8935179572e+00 2.6060463106e-06 1.9044877243e+00 -3.2986695008e+00 1.9044877243e+00 3.2986695008e+00 
47000 5.8935179579e+00 7.6908981677e-07 1.9044877243e+00 -3.2986695008e+00 1.9044877243e+00 3.2986695008e+00 
47100 5.8935179586e+00 -1.0070683122e-06 1.9044877243e+00 -3.2986695008e+00 1.9044877243e+00 3.2986695008e+00 
47200 5.8935179592e+00 -2.7205784364e-06 1.9044877243e+00 -3.2986695008e+00 1.9044877243e+00 3.2986695008e+00 
47300 5.8935179597e+00 -4.3697923788e-06 1.9044877243e+00 -3.2986695008e+00 1.9044877243e+00 3.2986695008e+00 
47400 5.8935179602e+00 -5.9532598479e-06 1.9044877243e+00 -3.2986695008e+00 1.9044877243e+00 3.2986695008e+00 
47500 5.8935179606e+00 -7.4697245358e-06 1.9044877243e+00 -3.2986695008e+00 1.9044877243e+00 3.2986695008e+00 
47600 5.8935179610e+00 -8.9181199582e-06 1.9044877243e+00 -3.2986695008e+00 1.9044877243e+00 3.2986695008e+00 
47700 5.8935179614e+00 -1.0297565017e-05 1.9044877243e+00 -3.2986695008e+00 1.9044877243e+00 3.2986695008e+00 
47800 5.8935179617e+00 -1.1607359328e-05 1.9044877243e+00 -3.2986695008e+00 1.9044877243e+00 3.2986695008e+00 
47900 5.8935179620e+00 -1.2846978320e-05 1.9044877243e+00 -3.2986695008e+00 1.9044877243e+00 3.2986695008e+00 
48000 5.8935179623e+00 -1.4016068126e-05 1.9044877243e+00 -3.2986695008e+00 1.9044877243e+00 3.2986695008e+00 
48100 5.8935179626e+00 -1.5114440293e-05 1.9044877243e+00 -3.2986695008e+00 1.9044877243e+00 3.2986695008e+00 
48200 5.8935179629e+00 -1.6142066315e-05 1.9044877243e+00 -3.2986695008e+00 1.9044877243e+00 3.2986695008e+00 
48300 5.8935179632e+00 -1.7099072025e-05 1.9044877243e+00 -3.2986695008e+00 1.9044877243e+00 3.2986695008e+00 
48400 5.8935179635e+00 -1.7985731838e-05 1.9044877243e+00 -3.2986695008e+00 1.9044877243e+00 3.2986695008e+00 
48500 5.8935179637e+00 -1.8802462889e-05 1.9044877243e+00 -3.2986695008e+00 1.9044877243e+00 3.2986695008e+00 
48600 5.8935179640e+00 -1.9549819064e-05 1.9044877243e+00 -3.2986695008e+00 1.9044877243e+00 3.2986695008e+00 
48700 5.8935179643e+00 -2.0228484953e-05 1.9044877243e+00 -3.2986695008e+00 1.9044877243e+00 3.2986695008e+00 
48800 5.8935179646e+00 -2.0839269736e-05 1.9044877243e+00 -3.2986695008e+00 1.9044877243e+00 3.2986695008e+00 
48900 5.8935179649e+00 -2.1383101002e-05 1.9044877243e+00 -3.2986695008e+00 1.9044877243e+00 3.2986695008e+00 
49000 5.8935179652e+00 -2.1861018556e-05 1.9044877243e+00 -3.2986695008e+00 1.9044877243e+00 3.2986695008e+00 
49100 5.8935179655e+00 -2.2274168181e-05 1.9044877243e+00 -3.2986695008e+00 1.9044877243e+00 3.2986695008e+00 
49200 5.8935179659e+00 -2.2623795408e-05 1.9044877243e+00 -3.2986695008e+00 1.9044877243e+00 3.2986695008e+00 
49300 5.8935179662e+00 -2.2911239283e-05 1.9044877243e+00 -3.2986695008e+00 1.9044877243e+00 3.2986695008e+00 
49400 5.8935179666e+00 -2.3137926157e-05 1.9044877243e+00 -3.2986695008e+00 1.9044877243e+00 3.2986695008e+00 
49500 5.8935179670e+00 -2.3305363506e-05 1.9044877243e+00 -3.2986695008e+00 1.9044877243e+00 3.2986695008e+00 
49600 5.8935179674e+00 -2.3415133800e-05 1.9044877243e+00 -3.2986695008e+00 1.9044877243e+00 3.2986695008e+00 
49700 5.8935179678e+00 -2.3468888418e-05 1.9044877243e+00 -3.2986695008e+00 1.9044877243e+00 3.2986695008e+00 
49800 5.8935179682e+00 -2.3468341642e-05 1.9044877243e+00 -3.2986695008e+00 1.9044877243e+00 3.2986695008e+00 
49900 5.8935179687e+00 -2.3415264720e-05 1.9044877243e+00 -3.2986695008e+00 1.9044877243e+00 3.2986695008e+00 
50000 5.8935179692e+00 -2.3311480019e-05 1.9044877243e+00 -3.2986695008e+00 1.9044877243e+00 3.2986695008e+00 
50100 5.8935179696e+00 -2.3158855275e-05 1.9044877243e+00 -3.2986695008e+00 1.9044877243e+00 3.2986695008e+00 
50200 5.8935179701e+00 -2.2959297958e-05 1.9044877243e+00 -3.2986695008e+00 1.9044877243e+00 3.2986695008e+00 
50300 5.8935179706e+00 -2.2714749732e-05 1.9044877243e+00 -3.2986695008e+00 1.9044877243e+00 3.2986695008e+00 
50400 5.8935179711e+00 -2.2427181055e-05 1.9044877243e+00 -3.2986695008e+00 1.9044877243e+00 3.2986695008e+00 
50500 5.8935179716e+00 -2.2098585904e-05 1.9044877243e+00 -3.2986695008e+00 1.9044877243e+00 3.2986695008e+00 
50600 5.8935179721e+00 -2.1730976634e-05 1.9044877243e+00 -3.2986695008e+00 1.9044877243e+00 3.2986695008e+00 
50700 5.8935179727e+00 -2.1326378983e-05 1.9044877243e+00 -3.2986695008e+00 1.9044877243e+00 3.2986695008e+00 
50800 5.8935179732e+00 -2.0886827222e-05 1.9044877243e+00 -3.2986695008e+00 1.9044877243e+00 3.2986695008e+00 
50900 5.8935179737e+00 -2.0414359461e-05 1.9044877243e+00 -3.2986695008e+00 1.9044877243e+00 3.2986695008e+00 
51000 5.8935179742e+00 -1.9911013117e-05 1.9044877243e+00 -3.2986695008e+00 1.9044877243e+00 3.2986695008e+00 
51100 5.8935179748e+00 -1.9378820537e-05 1.9044877243e+00 -3.2986695008e+00 1.9044877243e+00 3.2986695008e+00 
51200 5.8935179753e+00 -1.8819804793e-05 1.9044877243e+00 -3.2986695008e+00 1.9044877243e+00 3.2986695008e+00 
51300 5.8935179758e+00 -1.8235975649e-05 1.9044877243e+00 -3.2986695008e+00 1.9044877243e+00 3.2986695008e+00 
51400 5.8935179764e+00 -1.7629325688e-05 1.9044877243e+00 -3.2986695008e+00 1.9044877243e+00 3.2986695008e+00 
51500 5.8935179769e+00 -1.7001826628e-05 1.9044877243e+00 -3.2986695008e+00 1.9044877243e+00 3.2986695008e+00 
51600 5.8935179774e+00 -1.6355425808e-05 1.9044877243e+00 -3.2986695008e+00 1.9044877243e+00 3.2986695008e+00 
51700 5.8935179779e+00 -1.5692042848e-05 1.9044877243e+00 -3.2986695008e+00 1.9044877243e+00 3.2986695008e+00 
51800 5.8935179784e+00 -1.5013566493e-05 1.9044877243e+00 -3.2986695008e+00 1.9044877243e+00 3.2986695008e+00 
51900 5.8935179789e+00 -1.4321851634e-05 1.9044877243e+00 -3.2986695008e+00 1.9044877243e+00 3.2986695008e+00 
52000 5.8935179794e+00 -1.3618716506e-05 1.9044877243e+00 -3.2986695008e+00 1.9044877243e+00 3.2986695008e+00 
52100 5.8935179798e+00 -1.2905940074e-05 1.9044877243e+00 -3.2986695008e+00 1.9044877243e+00 3.2986695008e+00 
52200 5.8935179803e+00 -1.2185259574e-05 1.9044877243e+00 -3.2986695008e+00 1.9044877243e+00 3.2986695008e+00 
52300 5.8935179807e+00 -1.1458368264e-05 1.9044877243e+00 -3.2986695008e+00 1.9044877243e+00 3.2986695008e+00 
52400 5.8935179812e+00 -1.0726913324e-05 1.9044877243e+00 -3.2986695008e+00 1.9044877243e+00 3.2986695008e+00 
52500 5.8935179816e+00 -9.9924939384e-06 1.9044877243e+00 -3.2986695008e+00 1.9044877243e+00 3.2986695008e+00 
52600 5.8935179820e+00 -9.2566595536e-06 1.9044877243e+00 -3.2986695008e+00 1.9044877243e+00 3.2986695008e+00 
52700 5.8935179824e+00 -8.5209083019e-06 1.9044877243e+00 -3.2986695008e+00 1.9044877243e+00 3.2986695008e+00 
52800 5.8935179828e+00 -7.7866855916e-06 1.9044877243e+00 -3.2986695008e+00 1.9044877243e+00 3.2986695008e+00 
52900 5.8935179832e+00 -7.0553828645e-06 1.9044877243e+00 -3.2986695008e+00 1.9044877243e+00 3.2986695008e+00 
53000 5.8935179835e+00 -6.3283365049e-06 1.9044877243e+00 -3.2986695008e+00 1.9044877243e+00 3.2986695008e+00 
53100 5.8935179839e+00 -5.6068269216e-06 1.9044877243e+00 -3.2986695008e+00 1.9044877243e+00 3.2986695008e+00 
53200 5.8935179842e+00 -4.8920777729e-06 1.9044877243e+00 -3.2986695008e+00 1.9044877243e+00 3.2986695008e+00 
53300 5.8935179845e+00 -4.1852553366e-06 1.9044877243e+00 -3.2986695008e+00 1.9044877243e+00 3.2986695008e+00 
53400 5.8935179849e+00 -3.4874680423e-06 1.9044877243e+00 -3.2986695008e+00 1.9044877243e+00 3.2986695008e+00 
53500 5.8935179852e+00 -2.7997661325e-06 1.9044877243e+00 -3.2986695008e+00 1.9044877243e+00 3.2986695008e+00 
53600 5.8935179855e+00 -2.1231414645e-06 1.9044877243e+00 -3.2986695008e+00 1.9044877243e+00 3.2986695008e+00 
53700 5.8935179857e+00 -1.4585274469e-06 1.9044877243e+00 -3.2986695008e+00 1.9044877243e+00 3.2986695008e+00 
53800 5.8935179860e+00 -8.0679910375e-07 1.9044877243e+00 -3.2986695008e+00 1.9044877243e+00 3.2986695008e+00 
53900 5.8935179863e+00 -1.6877326294e-07 1.9044877243e+00 -3.2986695008e+00 1.9044877243e+00 3.2986695008e+00 
54000 5.8935179865e+00 4.5479113363e-07 1.9044877243e+00 -3.2986695008e+00 1.9044877243e+00 3.2986695008e+00 
54100 5.8935179868e+00 1.0631926200e-06 1.9044877243e+00 -3.2986695008e+00 1.9044877243e+00 3.2986695008e+00 
54200 5.8935179870e+00 1.6557866619e-06 1.9044877243e+00 -3.2986695008e+00 1.9044877243e+00 3.2986695008e+00 
54300 5.8935179872e+00 2.2319850310e-06 1.9044877243e+00 -3.2986695008e+00 1.9044877243e+00 3.2986695008e+00 
54400 5.8935179874e+00 2.7912550689e-06 1.9044877243e+00 -3.2986695008e+00 1.9044877243e+00 3.2986695008e+00 
54500 5.8935179876e+00 3.3331188644e-06 1.9044877243e+00 -3.2986695008e+00 1.9044877243e+00 3.2986695008e+00 
54600 5.8935179878e+00 3.8571523312e-06 1.9044877243e+00 -3.2986695008e+00 1.9044877243e+00 3.2986695008e+00 
54700 5.8935179880e+00 4.3629842101e-06 1.9044877243e+00 -3.2986695008e+00 1.9044877243e+00 3.2986695008e+00 
54800 5.8935179882e+00 4.8502949939e-06 1.9044877243e+00 -3.2986695008e+00 1.9044877243e+00 3.2986695008e+00 
54900 5.8935179884e+00 5.3188157734e-06 1.9044877243e+00 -3.2986695008e+00 1.9044877243e+00 3.2986695008e+00 
55000 5.8935179886e+00 5.7683270197e-06 1.9044877243e+00 -3.2986695008e+00 1.9044877243e+00 3.2986695008e+00 
55100 5.8935179888e+00 6.1986572989e-06 1.9044877243e+00 -3.2986695008e+00 1.9044877243e+00 3.2986695008e+00 
55200 5.8935179890e+00 6.6096819305e-06 1.9044877243e+00 -3.2986695008e+00 1.9044877243e+00 3.2986695008e+00 
55300 5.8935179891e+00 7.0013215966e-06 1.9044877243e+00 -3.2986695008e+00 1.9044877243e+00 3.2986695008e+00 
55400 5.8935179893e+00 7.3735408948e-06 1.9044877243e+00 -3.2986695008e+00 1.9044877243e+00 3.2986695008e+00 
55500 5.8935179895e+00 7.7263468567e-06 1.9044877243e+00 -3.2986695008e+00 1.9044877243e+00 3.2986695008e+00 
55600 5.8935179896e+00 8.0597874196e-06 1.9044877243e+00 -3.2986695008e+00 1.9044877243e+00 3.2986695008e+00 
55700 5.8935179898e+00 8.3739498678e-06 1.9044877243e+00 -3.2986695008e+00 1.9044877243e+00 3.2986695008e+00 
55800 5.8935179899e+00 8.6689592452e-06 1.9044877243e+00 -3.2986695008e+00 1.9044877243e+00 3.2986695008e+00 
55900 5.8935179901e+00 8.9449767419e-06 1.9044877243e+00 -3.2986695008e+00 1.9044877243e+00 3.2986695008e+00 
56000 5.8935179902e+00 9.2021980579e-06 1.9044877243e+00 -3.2986695008e+00 1.9044877243e+00 3.2986695008e+00 
56100 5.8935179904e+00 9.4408517569e-06 1.9044877243e+00 -3.2986695008e+00 1.9044877243e+00 3.2986695008e+00 
56200 5.8935179905e+00 9.6611975964e-06 1.9044877243e+00 -3.2986695008e+00 1.9044877243e+00 3.2986695008e+00 
56300 5.8935179907e+00 9.8635248678e-06 1.9044877243e+00 -3.2986695008e+00 1.9044877243e+00 3.2986695008e+00 
56400 5.8935179908e+00 1.0048150710e-05 1.9044877243e+00 -3.2986695008e+00 1.9044877243e+00 3.2986695008e+00 
56500 5.8935179910e+00 1.0215418439e-05 1.9044877243e+00 -3.2986695008e+00 1.9044877243e+00 3.2986695008e+00 
56600 5.8935179911e+00 1.0365695876e-05 1.9044877243e+00 -3.2986695008e+00 1.9044877243e+00 3.2986695008e+00 
56700 5.8935179913e+00 1.0499373682e-05 1.9044877243e+00 -3.2986695008e+00 1.9044877243e+00 3.2986695008e+00 
56800 5.8935179914e+00 1.0616863695e-05 1.9044877243e+00 -3.2986695008e+00 1.9044877243e+00 3.2986695008e+00 
56900 5.8935179916e+00 1.0718597298e-05 1.9044877243e+00 -3.2986695008e+00 1.9044877243e+00 3.2986695008e+00 
57000 5.8935179917e+00 1.0805023784e-05 1.9044877243e+00 -3.2986695008e+00 1.9044877243e+00 3.2986695008e+00 
57100 5.8935179919e+00 1.0876608754e-05 1.9044877243e+00 -3.2986695008e+00 1.9044877243e+00 3.2986695008e+00 
57200 5.8935179920e+00 1.0933832524e-05 1.9044877243e+00 -3.2986695008e+00 1.9044877243e+00 3.2986695008e+00 
57300 5.8935179921e+00 1.0977188574e-05 1.9044877243e+00 -3.2986695008e+00 1.9044877243e+00 3.2986695008e+00 
57400 5.8935179923e+00 1.1007182010e-05 1.9044877243e+00 -3.2986695008e+00 1.9044877243e+00 3.2986695008e+00 
57500 5.8935179924e+00 1.1024328061e-05 1.9044877243e+00 -3.2986695008e+00 1.9044877243e+00 3.2986695008e+00 
57600 5.8935179926e+00 1.1029150602e-05 1.9044877243e+00 -3.2986695008e+00 1.9044877243e+00 3.2986695008e+00 
57700 5.8935179927e+00 1.1022180725e-05 1.9044877243e+00 -3.2986695008e+00 1.9044877243e+00 3.2986695008e+00 
57800 5.8935179928e+00 1.1003955329e-05 1.9044877243e+00 -3.2986695008e+00 1.9044877243e+00 3.2986695008e+00 
57900 5.8935179930e+00 1.0975015751e-05 1.9044877243e+00 -3.2986695008e+00 1.9044877243e+00 3.2986695008e+00 
58000 5.8935179931e+00 1.0935906452e-05 1.9044877243e+00 -3.2986695008e+00 1.9044877243e+00 3.2986695008e+00 
58100 5.8935179932e+00 1.0887173717e-05 1.9044877243e+00 -3.2986695008e+00 1.9044877243e+00 3.2986695008e+00 
58200 5.8935179934e+00 1.0829364426e-05 1.9044877243e+00 -3.2986695008e+00 1.9044877243e+00 3.2986695008e+00 
58300 5.8935179935e+00 1.0763024835e-05 1.9044877243e+00 -3.2986695008e+00 1.9044877243e+00 3.2986695008e+00 
58400 5.8935179936e+00 1.0688699434e-05 1.9044877243e+00 -3.2986695008e+00 1.9044877243e+00 3.2986695008e+00 
58500 5.8935179938e+00 1.0606929831e-05 1.9044877243e+00 -3.2986695008e+00 1.9044877243e+00 3.2986695008e+00 
58600 5.8935179939e+00 1.0518253680e-05 1.9044877243e+00 -3.2986695008e+00 1.9044877243e+00 3.2986695008e+00 
58700 5.8935179940e+00 1.0423203670e-05 1.9044877243e+00 -3.2986695008e+00 1.9044877243e+00 3.2986695008e+00 
58800 5.8935179941e+00 1.0322306547e-05 1.9044877243e+00 -3.2986695008e+00 1.9044877243e+00 3.2986695008e+00 
58900 5.8935179943e+00 1.0216082191e-05 1.9044877243e+00 -3.2986695008e+00 1.9044877243e+00 3.2986695008e+00 
59000 5.8935179944e+00 1.0105042736e-05 1.9044877243e+00 -3.2986695008e+00 1.9044877243e+00 3.2986695008e+00 
59100 5.8935179945e+00 9.9896917469e-06 1.9044877243e+00 -3.2986695008e+00 1.9044877243e+00 3.2986695008e+00 
59200 5.8935179946e+00 9.8705234330e-06 1.9044877243e+00 -3.2986695008e+00 1.9044877243e+00 3.2986695008e+00 
59300 5.8935179947e+00 9.7480219139e-06 1.9044877243e+00 -3.2986695008e+00 1.9044877243e+00 3.2986695008e+00 
59400 5.8935179948e+00 9.6226605419e-06 1.9044877243e+00 -3.2986695008e+00 1.9044877243e+00 3.2986695008e+00 
59500 5.8935179949e+00 9.4949012559e-06 1.9044877243e+00 -3.2986695008e+00 1.9044877243e+00 3.2986695008e+00 
59600 5.8935179950e+00 9.3651939949e-06 1.9044877243e+00 -3.2986695008e+00 1.9044877243e+00 3.2986695008e+00 
59700 5.8935179951e+00 9.2339761573e-06 1.9044877243e+00 -3.2986695008e+00 1.9044877243e+00 3.2986695008e+00 
59800 5.8935179953e+00 9.1016721016e-06 1.9044877243e+00 -3.2986695008e+00 1.9044877243e+00 3.2986695008e+00 
59900 5.8935179954e+00 8.9686926943e-06 1.9044877243e+00 -3.2986695008e+00 1.9044877243e+00 3.2986695008e+00 
60000 5.8935179955e+00 8.8354349081e-06 1.9044877243e+00 -3.2986695008e+00 1.9044877243e+00 3.2986695008e+00 
60100 5.8935179955e+00 8.7022814566e-06 1.9044877243e+00 -3.2986695008e+00 1.9044877243e+00 3.2986695008e+00 
60200 5.8935179956e+00 8.5696004818e-06 1.9044877243e+00 -3.2986695008e+00 1.9044877243e+00 3.2986695008e+00 
60300 5.8935179957e+00 8.4377452775e-06 1.9044877243e+00 -3.2986695008e+00 1.9044877243e+00 3.2986695008e+00 
60400 5.8935179958e+00 8.3070540551e-06 1.9044877243e+00 -3.2986695008e+00 1.9044877243e+00 3.2986695008e+00 
60500 5.8935179959e+00 8.1778497535e-06 1.9044877243e+00 -3.2986695008e+00 1.9044877243e+00 3.2986695008e+00 
60600 5.8935179960e+00 8.0504398876e-06 1.9044877243e+00 -3.2986695008e+00 1.9044877243e+00 3.2986695008e+00 
60700 5.8935179961e+00 7.9251164359e-06 1.9044877243e+00 -3.2986695008e+00 1.9044877243e+00 3.2986695008e+00 
60800 5.8935179962e+00 7.8021557636e-06 1.9044877243e+00 -3.2986695008e+00 1.9044877243e+00 3.2986695008e+00 
60900 5.8935179963e+00 7.6818185849e-06 1.9044877243e+00 -3.2986695008e+00 1.9044877243e+00 3.2986695008e+00 
61000 5.8935179963e+00 7.5643499595e-06 1.9044877243e+00 -3.2986695008e+00 1.9044877243e+00 3.2986695008e+00 
61100 5.8935179964e+00 7.4499793210e-06 1.9044877243e+00 -3.2986695008e+00 1.9044877243e+00 3.2986695008e+00 
61200 5.8935179965e+00 7.3389205420e-06 1.9044877243e+00 -3.2986695008e+00 1.9044877243e+00 3.2986695008e+00 
61300 5.8935179966e+00 7.2313720325e-06 1.9044877243e+00 -3.2986695008e+00 1.9044877243e+00 3.2986695008e+00 
61400 5.8935179966e+00 7.1275168541e-06 1.9044877243e+00 -3.2986695008e+00 1.9044877243e+00 3.2986695008e+00 
61500 5.8935179967e+00 7.0275228865e-06 1.9044877243e+00 -3.2986695008e+00 1.9044877243e+00 3.2986695008e+00 
61600 5.8935179968e+00 6.9315429941e-06 1.9044877243e+00 -3.2986695008e+00 1.9044877243e+00 3.2986695008e+00 
61700 5.8935179969e+00 6.8397152476e-06 1.9044877243e+00 -3.2986695008e+00 1.9044877243e+00 3.2986695008e+00 
61800 5.8935179969e+00 6.7521631458e-06 1.9044877243e+00 -3.2986695008e+00 1.9044877243e+00 3.2986695008e+00 
61900 5.8935179970e+00 6.6689958741e-06 1.9044877243e+00 -3.2986695008e+00 1.9044877243e+00 3.2986695008e+00 
62000 5.8935179971e+00 6.5903085795e-06 1.9044877243e+00 -3.2986695008e+00 1.9044877243e+00 3.2986695008e+00 
62100 5.8935179971e+00 6.5161826706e-06 1.9044877243e+00 -3.2986695008e+00 1.9044877243e+00 3.2986695008e+00 
62200 5.8935179972e+00 6.4466861337e-06 1.9044877243e+00 -3.2986695008e+00 1.9044877243e+00 3.2986695008e+00 
62300 5.8935179972e+00 6.3818738631e-06 1.9044877243e+00 -3.2986695008e+00 1.9044877243e+00 3.2986695008e+00 
62400 5.8935179973e+00 6.3217880176e-06 1.9044877243e+00 -3.2986695008e+00 1.9044877243e+00 3.2986695008e+00 
62500 5.8935179974e+00 6.2664583839e-06 1.9044877243e+00 -3.2986695008e+00 1.9044877243e+00 3.2986695008e+00 
62600 5.8935179974e+00 6.2159027532e-06 1.9044877243e+00 -3.2986695008e+00 1.9044877243e+00 3.2986695008e+00 
62700 5.8935179975e+00 6.1701273212e-06 1.9044877243e+00 -3.2986695008e+00 1.9044877243e+00 3.2986695008e+00 
62800 5.8935179975e+00 6.1291270802e-06 1.9044877243e+00 -3.2986695008e+00 1.9044877243e+00 3.2986695008e+00 
62900 5.8935179976e+00 6.0928862450e-06 1.9044877243e+00 -3.2986695008e+00 1.9044877243e+00 3.2986695008e+00 
63000 5.8935179977e+00 6.0613786630e-06 1.9044877243e+00 -3.2986695008e+00 1.9044877243e+00 3.2986695008e+00 
63100 5.8935179977e+00 6.0345682528e-06 1.9044877243e+00 -3.2986695008e+00 1.9044877243e+00 3.2986695008e+00 
63200 5.8935179978e+00 6.0124094342e-06 1.9044877243e+00 -3.2986695008e+00 1.9044877243e+00 3.2986695008e+00 
63300 5.8935179978e+00 5.9948475672e-06 1.9044877243e+00 -3.2986695008e+00 1.9044877243e+00 3.2986695008e+00 
63400 5.8935179979e+00 5.9818194054e-06 1.9044877243e+00 -3.2986695008e+00 1.9044877243e+00 3.2986695008e+00 
63500 5.8935179979e+00 5.9732535310e-06 1.9044877243e+00 -3.2986695008e+00 1.9044877243e+00 3.2986695008e+00 
63600 5.8935179980e+00 5.9690708161e-06 1.9044877243e+00 -3.2986695008e+00 1.9044877243e+00 3.2986695008e+00 
63700 5.8935179980e+00 5.9691848637e-06 1.9044877243e+00 -3.2986695008e+00 1.9044877243e+00 3.2986695008e+00 
63800 5.8935179981e+00 5.9735024608e-06 1.9044877243e+00 -3.2986695008e+00 1.9044877243e+00 3.2986695008e+00 
63900 5.8935179981e+00 5.9819240264e-06 1.9044877243e+00 -3.2986695008e+00 1.9044877243e+00 3.2986695008e+00 
64000 5.8935179982e+00 5.9943440581e-06 1.9044877243e+00 -3.2986695008e+00 1.9044877243e+00 3.2986695008e+00 
64100 5.8935179982e+00 6.0106515755e-06 1.9044877243e+00 -3.2986695008e+00 1.9044877243e+00 3.2986695008e+00 
64200 5.8935179983e+00 6.0307305561e-06 1.9044877243e+00 -3.2986695008e+00 1.9044877243e+00 3.2986695008e+00 
64300 5.8935179983e+00 6.0544603755e-06 1.9044877243e+00 -3.2986695008e+00 1.9044877243e+00 3.2986695008e+00 
64400 5.8935179984e+00 6.0817162323e-06 1.9044877243e+00 -3.2986695008e+00 1.9044877243e+00 3.2986695008e+00 
64500 5.8935179984e+00 6.0899623153e-06 1.9044877243e+00 -3.2986695008e+00 1.9044877243e+00 3.2986695008e+00 
64500 5.8935179984e+00 6.0899623150e-06 1.9044877243e+00 -3.2986695008e+00 1.9044877243e+00 3.2986695008e+00 
