# step Hamiltonian StressXX CellTensor1 CellTensor2 CellTensor3 CellTensor4 
0 6.0180722012e+00 1.9406166317e-01 2.8378601290e+00 -4.9153179282e+00 2.8378601290e+00 4.9153179282e+00 
100 6.0464945538e+00 2.2797266360e-01 2.8378601290e+00 -4.9153179282e+00 2.8378601290e+00 4.9153179282e+00 
200 6.0747299947e+00 2.5919259519e-01 2.8338444482e+00 -4.9083625650e+00 2.8338444482e+00 4.9083625650e+00 
300 6.1033347718e+00 2.8843033121e-01 2.8292725182e+00 -4.9004437499e+00 2.8292725182e+00 4.9004437499e+00 
400 6.1323504895e+00 3.1600955876e-01 2.8241767989e+00 -4.8916177053e+00 2.8241767989e+00 4.8916177053e+00 
500 6.1617706896e+00 3.4221525768e-01 2.8185839300e+00 -4.8819305721e+00 2.8185839300e+00 4.8819305721e+00 
600 6.1915405269e+00 3.6728319208e-01 2.8125154190e+00 -4.8714196028e+00 2.8125154190e+00 4.8714196028e+00 
700 6.2215506319e+00 3.9137723057e-01 2.8059885081e+00 -4.8601146616e+00 2.8059885081e+00 4.8601146616e+00 
800 6.2516195166e+00 4.1454066657e-01 2.7990174406e+00 -4.8480404185e+00 2.7990174406e+00 4.8480404185e+00 
900 6.2814546885e+00 4.3659583046e-01 2.7916156040e+00 -4.8352200614e+00 2.7916156040e+00 4.8352200614e+00 
1000 6.3105778636e+00 4.5695227770e-01 2.7837994952e+00 -4.8216821637e+00 2.7837994952e+00 4.8216821637e+00 
1100 6.3382024199e+00 4.7429305866e-01 2.7755961910e+00 -4.8074736241e+00 2.7755961910e+00 4.8074736241e+00 
1200 6.3630912268e+00 4.8623761202e-01 2.7670566027e+00 -4.7926826233e+00 2.7670566027e+00 4.7926826233e+00 
1300 6.3835576235e+00 4.8951015231e-01 2.7582750789e+00 -4.7774725779e+00 2.7582750789e+00 4.7774725779e+00 
1400 6.3979565500e+00 4.8164436571e-01 2.7494063688e+00 -4.7621115214e+00 2.7494063688e+00 4.7621115214e+00 
1500 6.4057393186e+00 4.6398801844e-01 2.7406519733e+00 -4.7469484637e+00 2.7406519733e+00 4.7469484637e+00 
1600 6.4080594359e+00 4.4218207252e-01 2.7321914239e+00 -4.7322943622e+00 2.7321914239e+00 4.7322943622e+00 
1700 6.4069365556e+00 4.2202719118e-01 2.7241033531e+00 -4.7182854127e+00 2.7241033531e+00 4.7182854127e+00 
1800 6.4040110612e+00 4.0598656905e-01 2.7163608677e+00 -4.7048750346e+00 2.7163608677e+00 4.7048750346e+00 
1900 6.4001730355e+00 3.9371334840e-01 2.7088913170e+00 -4.6919373933e+00 2.7088913170e+00 4.6919373933e+00 
2000 6.3958105928e+00 3.8394250932e-01 2.7016275180e+00 -4.6793561243e+00 2.7016275180e+00 4.6793561243e+00 
2100 6.3910845610e+00 3.7554760552e-01 2.6945248779e+00 -4.6670539908e+00 2.6945248779e+00 4.6670539908e+00 
2200 6.3860705551e+00 3.6778277717e-01 2.6875591729e+00 -4.6549890358e+00 2.6875591729e+00 4.6549890358e+00 
2300 6.3808143395e+00 3.6021602871e-01 2.6807197640e+00 -4.6431428321e+00 2.6807197640e+00 4.6431428321e+00 
2400 6.3753507596e+00 3.5261702828e-01 2.6740039337e+00 -4.6315106727e+00 2.6740039337e+00 4.6315106727e+00 
2500 6.3697098597e+00 3.4487245782e-01 2.6674132224e+00 -4.6200952259e+00 2.6674132224e+00 4.6200952259e+00 
2600 6.3639188247e+00 3.3693356430e-01 2.6609512911e+00 -4.6089028326e+00 2.6609512911e+00 4.6089028326e+00 
2700 6.3580026071e+00 3.2878614579e-01 2.6546227341e+00 -4.5979414504e+00 2.6546227341e+00 4.5979414504e+00 
2800 6.3519841494e+00 3.2043399318e-01 2.6484324380e+00 -4.5872195430e+00 2.6484324380e+00 4.5872195430e+00 
2900 6.3458844916e+00 3.1188992236e-01 2.6423852434e+00 -4.5767454948e+00 2.6423852434e+00 4.5767454948e+00 
3000 6.3397228549e+00 3.0317097376e-01 2.6364857713e+00 -4.5665273093e+00 2.6364857713e+00 4.5665273093e+00 
3100 6.3335167296e+00 2.9429587332e-01 2.6307383376e+00 -4.5565724621e+00 2.6307383376e+00 4.5565724621e+00 
3200 6.3272819724e+00 2.8528371475e-01 2.6251469156e+00 -4.5468878351e+00 2.6251469156e+00 4.5468878351e+00 
3300 6.3210329136e+00 2.7615329984e-01 2.6197151226e+00 -4.5374796936e+00 2.6197151226e+00 4.5374796936e+00 
3400 6.3147824704e+00 2.6692283173e-01 2.6144462193e+00 -4.5283536854e+00 2.6144462193e+00 4.5283536854e+00 
3500 6.3085422636e+00 2.5760979598e-01 2.6093431156e+00 -4.5195148507e+00 2.6093431156e+00 4.5195148507e+00 
3600 6.3023227341e+00 2.4823093930e-01 2.6044083790e+00 -4.5109676362e+00 2.6044083790e+00 4.5109676362e+00 
3700 6.2961332571e+00 2.3880229649e-01 2.5996442434e+00 -4.5027159111e+00 2.5996442434e+00 4.5027159111e+00 
3800 6.2899822521e+00 2.2933923890e-01 2.5950526179e+00 -4.4947629825e+00 2.5950526179e+00 4.4947629825e+00 
3900 6.2838772870e+00 2.1985652938e-01 2.5906350959e+00 -4.4871116099e+00 2.5906350959e+00 4.4871116099e+00 
4000 6.2778251746e+00 2.1036837581e-01 2.5863929621e+00 -4.4797640187e+00 2.5863929621e+00 4.4797640187e+00 
4100 6.2718320628e+00 2.0088847904e-01 2.5823272002e+00 -4.4727219125e+00 2.5823272002e+00 4.4727219125e+00 
4200 6.2659035150e+00 1.9143007304e-01 2.5784384991e+00 -4.4659864847e+00 2.5784384991e+00 4.4659864847e+00 
4300 6.2600445840e+00 1.8200595669e-01 2.5747272593e+00 -4.4595584287e+00 2.5747272593e+00 4.4595584287e+00 
4400 6.2542598764e+00 1.7262851686e-01 2.5711935985e+00 -4.4534379486e+00 2.5711935985e+00 4.4534379486e+00 
4500 6.2485536096e+00 1.6330974319e-01 2.5678373575e+00 -4.4476247688e+00 2.5678373575e+00 4.4476247688e+00 
4600 6.2429296605e+00 1.5406123520e-01 2.5646581064e+00 -4.4421181444e+00 2.5646581064e+00 4.4421181444e+00 
4700 6.2373916076e+00 1.4489420239e-01 2.5616551500e+00 -4.4369168713e+00 2.5616551500e+00 4.4369168713e+00 
4800 6.2319427649e+00 1.3581945812e-01 2.5588275346e+00 -4.4320192978e+00 2.5588275346e+00 4.4320192978e+00 
4900 6.2265862103e+00 1.2684740816e-01 2.5561740546e+00 -4.4274233355e+00 2.5561740546e+00 4.4274233355e+00 
5000 6.2213248069e+00 1.1798803487e-01 2.5536932598e+00 -4.4231264729e+00 2.5536932598e+00 4.4231264729e+00 
5100 6.2161612194e+00 1.0925087784e-01 2.5513834634e+00 -4.4191257882e+00 2.5513834634e+00 4.4191257882e+00 
5200 6.2110979251e+00 1.0064501188e-01 2.5492427506e+00 -4.4154179648e+00 2.5492427506e+00 4.4154179648e+00 
5300 6.2061372205e+00 9.2179023344e-02 2.5472689877e+00 -4.4119993073e+00 2.5472689877e+00 4.4119993073e+00 
5400 6.2012812243e+00 8.3860985638e-02 2.5454598324e+00 -4.4088657584e+00 2.5454598324e+00 4.4088657584e+00 
5500 6.1965318760e+00 7.5698434669e-02 2.5438127443e+00 -4.4060129180e+00 2.5438127443e+00 4.4060129180e+00 
5600 6.1918909329e+00 6.7698345140e-02 2.5423249962e+00 -4.4034360628e+00 2.5423249962e+00 4.4034360628e+00 
5700 6.1873599641e+00 5.9867108378e-02 2.5409936866e+00 -4.4011301669e+00 2.5409936866e+00 4.4011301669e+00 
5800 6.1829403433e+00 5.2210512381e-02 2.5398157521e+00 -4.3990899246e+00 2.5398157521e+00 4.3990899246e+00 
5900 6.1786332398e+00 4.4733724705e-02 2.5387879809e+00 -4.3973097726e+00 2.5387879809e+00 4.3973097726e+00 
6000 6.1744396098e+00 3.7441278695e-02 2.5379070264e+00 -4.3957839146e+00 2.5379070264e+00 4.3957839146e+00 
6100 6.1703601868e+00 3.0337063528e-02 2.5371694213e+00 -4.3945063451e+00 2.5371694213e+00 4.3945063451e+00 
6200 6.1663954725e+00 2.3424318376e-02 2.5365715922e+00 -4.3934708748e+00 2.5365715922e+00 4.3934708748e+00 
6300 6.1625457290e+00 1.6705630971e-02 2.5361098744e+00 -4.3926711560e+00 2.5361098744e+00 4.3926711560e+00 
6400 6.1588109712e+00 1.0182940696e-02 2.5357805261e+00 -4.3921007080e+00 2.5357805261e+00 4.3921007080e+00 
6500 6.1551909615e+00 3.8575462667e-03 2.5355797436e+00 -4.3917529425e+00 2.5355797436e+00 4.3917529425e+00 
6600 6.1516852055e+00 -2.2698820456e-03 2.5355036756e+00 -4.3916211890e+00 2.5355036756e+00 4.3916211890e+00 
6700 6.1482929506e+00 -8.1992857844e-03 2.5355484377e+00 -4.3916987192e+00 2.5355484377e+00 4.3916987192e+00 
6800 6.1450131852e+00 -1.3931197484e-02 2.5357101261e+00 -4.3919787716e+00 2.5357101261e+00 4.3919787716e+00 
6900 6.1418446417e+00 -1.9466715946e-02 2.5359848312e+00 -4.3924545748e+00 2.5359848312e+00 4.3924545748e+00 
7000 6.1387858006e+00 -2.4807477967e-02 2.5363686506e+00 -4.3931193696e+00 2.5363686506e+00 4.3931193696e+00 
7100 6.1358348971e+00 -2.9955626932e-02 2.5368577017e+00 -4.3939664309e+00 2.5368577017e+00 4.3939664309e+00 
7200 6.1329899302e+00 -3.4913778713e-02 2.5374481327e+00 -4.3949890874e+00 2.5374481327e+00 4.3949890874e+00 
7300 6.1302486733e+00 -3.9684985358e-02 2.5381361340e+00 -4.3961807407e+00 2.5381361340e+00 4.3961807407e+00 
7400 6.1276086871e+00 -4.4272697058e-02 2.5389179483e+00 -4.3975348828e+00 2.5389179483e+00 4.3975348828e+00 
7500 6.1250673339e+00 -4.8680722896e-02 2.5397898794e+00 -4.3990451117e+00 2.5397898794e+00 4.3990451117e+00 
7600 6.1226217938e+00 -5.2913190861e-02 2.5407483009e+00 -4.4007051464e+00 2.5407483009e+00 4.4007051464e+00 
7700 6.1202690817e+00 -5.6974507621e-02 2.5417896635e+00 -4.4025088393e+00 2.5417896635e+00 4.4025088393e+00 
7800 6.1180060656e+00 -6.0869318483e-02 2.5429105016e+00 -4.4044501878e+00 2.5429105016e+00 4.4044501878e+00 
7900 6.1158294858e+00 -6.4602467980e-02 2.5441074389e+00 -4.4065233441e+00 2.5441074389e+00 4.4065233441e+00 
8000 6.1137359741e+00 -6.8178961457e-02 2.5453771934e+00 -4.4087226234e+00 2.5453771934e+00 4.4087226234e+00 
8100 6.1117220739e+00 -7.1603927995e-02 2.5467165811e+00 -4.4110425110e+00 2.5467165811e+00 4.4110425110e+00 
8200 6.1097842601e+00 -7.4882584971e-02 2.5481225191e+00 -4.4134776670e+00 2.5481225191e+00 4.4134776670e+00 
8300 6.1079189584e+00 -7.8020204501e-02 2.5495920281e+00 -4.4160229312e+00 2.5495920281e+00 4.4160229312e+00 
8400 6.1061225650e+00 -8.1022081964e-02 2.5511222337e+00 -4.4186733251e+00 2.5511222337e+00 4.4186733251e+00 
8500 6.1043914649e+00 -8.3893506760e-02 2.5527103678e+00 -4.4214240540e+00 2.5527103678e+00 4.4214240540e+00 
8600 6.1027220501e+00 -8.6639735422e-02 2.5543537681e+00 -4.4242705069e+00 2.5543537681e+00 4.4242705069e+00 
8700 6.1011107365e+00 -8.9265967134e-02 2.5560498785e+00 -4.4272082562e+00 2.5560498785e+00 4.4272082562e+00 
8800 6.0995539797e+00 -9.1777321699e-02 2.5577962474e+00 -4.4302330560e+00 2.5577962474e+00 4.4302330560e+00 
8900 6.0980482901e+00 -9.4178819946e-02 2.5595905272e+00 -4.4333408397e+00 2.5595905272e+00 4.4333408397e+00 
9000 6.0965902464e+00 -9.6475366534e-02 2.5614304718e+00 -4.4365277172e+00 2.5614304718e+00 4.4365277172e+00 
9100 6.0951765083e+00 -9.8671735105e-02 2.5633139346e+00 -4.4397899705e+00 2.5633139346e+00 4.4397899705e+00 
9200 6.0938038270e+00 -1.0077255569e-01 2.5652388661e+00 -4.4431240496e+00 2.5652388661e+00 4.4431240496e+00 
9300 6.0924690559e+00 -1.0278230424e-01 2.5672033109e+00 -4.4465265679e+00 2.5672033109e+00 4.4465265679e+00 
9400 6.0911691583e+00 -1.0470529425e-01 2.5692054050e+00 -4.4499942966e+00 2.5692054050e+00 4.4499942966e+00 
9500 6.0899012153e+00 -1.0654567023e-01 2.5712433722e+00 -4.4535241592e+00 2.5712433722e+00 4.4535241592e+00 
9600 6.0886624314e+00 -1.0830740292e-01 2.5733155208e+00 -4.4571132259e+00 2.5733155208e+00 4.4571132259e+00 
9700 6.0874501397e+00 -1.0999428623e-01 2.5754202404e+00 -4.4607587072e+00 2.5754202404e+00 4.4607587072e+00 
9800 6.0862618054e+00 -1.1160993557e-01 2.5775559981e+00 -4.4644579481e+00 2.5775559981e+00 4.4644579481e+00 
9900 6.0850950284e+00 -1.1315778752e-01 2.5797213351e+00 -4.4682084218e+00 2.5797213351e+00 4.4682084218e+00 
10000 6.0839475451e+00 -1.1464110075e-01 2.5819148629e+00 -4.4720077234e+00 2.5819148629e+00 4.4720077234e+00 
10100 6.0828172290e+00 -1.1606295794e-01 2.5841352598e+00 -4.4758535636e+00 2.5841352598e+00 4.4758535636e+00 
10200 6.0817020906e+00 -1.1742626868e-01 2.5863812675e+00 -4.4797437631e+00 2.5863812675e+00 4.4797437631e+00 
10300 6.0806002764e+00 -1.1873377314e-01 2.5886516874e+00 -4.4836762457e+00 2.5886516874e+00 4.4836762457e+00 
10400 6.0795100671e+00 -1.1998804640e-01 2.5909453774e+00 -4.4876490333e+00 2.5909453774e+00 4.4876490333e+00 
10500 6.0784298756e+00 -1.2119150343e-01 2.5932612484e+00 -4.4916602395e+00 2.5932612484e+00 4.4916602395e+00 
10600 6.0773582440e+00 -1.2234640446e-01 2.5955982610e+00 -4.4957080641e+00 2.5955982610e+00 4.4957080641e+00 
10700 6.0762938402e+00 -1.2345486082e-01 2.5979554229e+00 -4.4997907882e+00 2.5979554229e+00 4.4997907882e+00 
10800 6.0752354544e+00 -1.2451884093e-01 2.6003317851e+00 -4.5039067683e+00 2.6003317851e+00 4.5039067683e+00 
10900 6.0741819946e+00 -1.2554017670e-01 2.6027264397e+00 -4.5080544318e+00 2.6027264397e+00 4.5080544318e+00 
11000 6.0731324824e+00 -1.2652056988e-01 2.6051385170e+00 -4.5122322722e+00 2.6051385170e+00 4.5122322722e+00 
11100 6.0720860486e+00 -1.2746159863e-01 2.6075671826e+00 -4.5164388444e+00 2.6075671826e+00 4.5164388444e+00 
11200 6.0710419279e+00 -1.2836472408e-01 2.6100116353e+00 -4.5206727607e+00 2.6100116353e+00 4.5206727607e+00 
11300 6.0699994542e+00 -1.2923129681e-01 2.6124711044e+00 -4.5249326862e+00 2.6124711044e+00 4.5249326862e+00 
11400 6.0689580554e+00 -1.3006256339e-01 2.6149448480e+00 -4.5292173357e+00 2.6149448480e+00 4.5292173357e+00 
11500 6.0679172488e+00 -1.3085967269e-01 2.6174321501e+00 -4.5335254694e+00 2.6174321501e+00 4.5335254694e+00 
11600 6.0668766350e+00 -1.3162368213e-01 2.6199323197e+00 -4.5378558900e+00 2.6199323197e+00 4.5378558900e+00 
11700 6.0658358937e+00 -1.3235556381e-01 2.6224446879e+00 -4.5422074395e+00 2.6224446879e+00 4.5422074395e+00 
11800 6.0647947783e+00 -1.3305621036e-01 2.6249686071e+00 -4.5465789958e+00 2.6249686071e+00 4.5465789958e+00 
11900 6.0637531109e+00 -1.3372644068e-01 2.6275034489e+00 -4.5509694705e+00 2.6275034489e+00 4.5509694705e+00 
12000 6.0627107772e+00 -1.3436700546e-01 2.6300486026e+00 -4.5553778061e+00 2.6300486026e+00 4.5553778061e+00 
12100 6.0616677223e+00 -1.3497859244e-01 2.6326034743e+00 -4.5598029737e+00 2.6326034743e+00 4.5598029737e+00 
12200 6.0606239453e+00 -1.3556183149e-01 2.6351674852e+00 -4.5642439708e+00 2.6351674852e+00 4.5642439708e+00 
12300 6.0595794956e+00 -1.3611729942e-01 2.6377400705e+00 -4.5686998193e+00 2.6377400705e+00 4.5686998193e+00 
12400 6.0585344678e+00 -1.3664552461e-01 2.6403206786e+00 -4.5731695637e+00 2.6403206786e+00 4.5731695637e+00 
12500 6.0574889979e+00 -1.3714699134e-01 2.6429087700e+00 -4.5776522694e+00 2.6429087700e+00 4.5776522694e+00 
12600 6.0564432593e+00 -1.3762214391e-01 2.6455038162e+00 -4.5821470213e+00 2.6455038162e+00 4.5821470213e+00 
12700 6.0553974588e+00 -1.3807139060e-01 2.6481052994e+00 -4.5866529224e+00 2.6481052994e+00 4.5866529224e+00 
12800 6.0543518330e+00 -1.3849510725e-01 2.6507127113e+00 -4.5911690922e+00 2.6507127113e+00 4.5911690922e+00 
12900 6.0533066447e+00 -1.3889364077e-01 2.6533255526e+00 -4.5956946661e+00 2.6533255526e+00 4.5956946661e+00 
13000 6.0522621799e+00 -1.3926731234e-01 2.6559433326e+00 -4.6002287941e+00 2.6559433326e+00 4.6002287941e+00 
13100 6.0512187441e+00 -1.3961642044e-01 2.6585655686e+00 -4.6047706400e+00 2.6585655686e+00 4.6047706400e+00 
13200 6.0501766601e+00 -1.3994124364e-01 2.6611917852e+00 -4.6093193806e+00 2.6611917852e+00 4.6093193806e+00 
13300 6.0491362643e+00 -1.4024204323e-01 2.6638215142e+00 -4.6138742049e+00 2.6638215142e+00 4.6138742049e+00 
13400 6.0480979050e+00 -1.4051906562e-01 2.6664542941e+00 -4.6184343135e+00 2.6664542941e+00 4.6184343135e+00 
13500 6.0470619394e+00 -1.4077254462e-01 2.6690896700e+00 -4.6229989184e+00 2.6690896700e+00 4.6229989184e+00 
13600 6.0460287314e+00 -1.4100270347e-01 2.6717271929e+00 -4.6275672421e+00 2.6717271929e+00 4.6275672421e+00 
13700 6.0449986496e+00 -1.4120975673e-01 2.6743664199e+00 -4.6321385174e+00 2.6743664199e+00 4.6321385174e+00 
13800 6.0439720651e+00 -1.4139391206e-01 2.6770069139e+00 -4.6367119870e+00 2.6770069139e+00 4.6367119870e+00 
13900 6.0429493500e+00 -1.4155537177e-01 2.6796482432e+00 -4.6412869036e+00 2.6796482432e+00 4.6412869036e+00 
14000 6.0419308756e+00 -1.4169433427e-01 2.6822899818e+00 -4.6458625291e+00 2.6822899818e+00 4.6458625291e+00 
14100 6.0409170105e+00 -1.4181099541e-01 2.6849317089e+00 -4.6504381348e+00 2.6849317089e+00 4.6504381348e+00 
14200 6.0399081197e+00 -1.4190554961e-01 2.6875730093e+00 -4.6550130011e+00 2.6875730093e+00 4.6550130011e+00 
14300 6.0389045631e+00 -1.4197819097e-01 2.6902134726e+00 -4.6595864177e+00 2.6902134726e+00 4.6595864177e+00 
14400 6.0379066943e+00 -1.4202911418e-01 2.6928526940e+00 -4.6641576833e+00 2.6928526940e+00 4.6641576833e+00 
14500 6.0369148594e+00 -1.4205851538e-01 2.6954902737e+00 -4.6687261054e+00 2.6954902737e+00 4.6687261054e+00 
14600 6.0359293964e+00 -1.4206659291e-01 2.6981258172e+00 -4.6732910007e+00 2.6981258172e+00 4.6732910007e+00 
14700 6.0349506338e+00 -1.4205354793e-01 2.7007589353e+00 -4.6778516949e+00 2.7007589353e+00 4.6778516949e+00 
14800 6.0339788906e+00 -1.4201958502e-01 2.7033892437e+00 -4.6824075227e+00 2.7033892437e+00 4.6824075227e+00 
14900 6.0330144749e+00 -1.4196491262e-01 2.7060163637e+00 -4.6869578281e+00 2.7060163637e+00 4.6869578281e+00 
15000 6.0320576836e+00 -1.4188974346e-01 2.7086399219e+00 -4.6915019641e+00 2.7086399219e+00 4.6915019641e+00 
15100 6.0311088020e+00 -1.4179429493e-01 2.7112595501e+00 -4.6960392932e+00 2.7112595501e+00 4.6960392932e+00 
15200 6.0301681034e+00 -1.4167878926e-01 2.7138748855e+00 -4.7005691871e+00 2.7138748855e+00 4.7005691871e+00 
15300 6.0292358482e+00 -1.4154345385e-01 2.7164855711e+00 -4.7050910271e+00 2.7164855711e+00 4.7050910271e+00 
15400 6.0283122844e+00 -1.4138852134e-01 2.7190912550e+00 -4.7096042041e+00 2.7190912550e+00 4.7096042041e+00 
15500 6.0273976467e+00 -1.4121422977e-01 2.7216915913e+00 -4.7141081187e+00 2.7216915913e+00 4.7141081187e+00 
15600 6.0264921567e+00 -1.4102082263e-01 2.7242862395e+00 -4.7186021811e+00 2.7242862395e+00 4.7186021811e+00 
15700 6.0255960226e+00 -1.4080854886e-01 2.7268748649e+00 -4.7230858118e+00 2.7268748649e+00 4.7230858118e+00 
15800 6.0247094391e+00 -1.4057766291e-01 2.7294571386e+00 -4.7275584412e+00 2.7294571386e+00 4.7275584412e+00 
15900 6.0238325875e+00 -1.4032842461e-01 2.7320327377e+00 -4.7320195097e+00 2.7320327377e+00 4.7320195097e+00 
16000 6.0229656357e+00 -1.4006109914e-01 2.7346013451e+00 -4.7364684682e+00 2.7346013451e+00 4.7364684682e+00 
16100 6.0221087379e+00 -1.3977595691e-01 2.7371626497e+00 -4.7409047779e+00 2.7371626497e+00 4.7409047779e+00 
16200 6.0212620352e+00 -1.3947327344e-01 2.7397163465e+00 -4.7453279104e+00 2.7397163465e+00 4.7453279104e+00 
16300 6.0204256554e+00 -1.3915332922e-01 2.7422621365e+00 -4.7497373480e+00 2.7422621365e+00 4.7497373480e+00 
16400 6.0195997132e+00 -1.3881640951e-01 2.7447997270e+00 -4.7541325837e+00 2.7447997270e+00 4.7541325837e+00 
16500 6.0187843102e+00 -1.3846280419e-01 2.7473288314e+00 -4.7585131212e+00 2.7473288314e+00 4.7585131212e+00 
16600 6.0179795354e+00 -1.3809280754e-01 2.7498491696e+00 -4.7628784748e+00 2.7498491696e+00 4.7628784748e+00 
16700 6.0171854654e+00 -1.3770671806e-01 2.7523604674e+00 -4.7672281702e+00 2.7523604674e+00 4.7672281702e+00 
16800 6.0164021642e+00 -1.3730483820e-01 2.7548624572e+00 -4.7715617438e+00 2.7548624572e+00 4.7715617438e+00 
16900 6.0156296840e+00 -1.3688747419e-01 2.7573548779e+00 -4.7758787430e+00 2.7573548779e+00 4.7758787430e+00 
17000 6.0148680651e+00 -1.3645493577e-01 2.7598374744e+00 -4.7801787263e+00 2.7598374744e+00 4.7801787263e+00 
17100 6.0141173365e+00 -1.3600753597e-01 2.7623099984e+00 -4.7844612635e+00 2.7623099984e+00 4.7844612635e+00 
17200 6.0133775158e+00 -1.3554559086e-01 2.7647722080e+00 -4.7887259356e+00 2.7647722080e+00 4.7887259356e+00 
17300 6.0126486098e+00 -1.3506941931e-01 2.7672238675e+00 -4.7929723344e+00 2.7672238675e+00 4.7929723344e+00 
17400 6.0119306148e+00 -1.3457934275e-01 2.7696647480e+00 -4.7972000635e+00 2.7696647480e+00 4.7972000635e+00 
17500 6.0112235168e+00 -1.3407568492e-01 2.7720946269e+00 -4.8014087373e+00 2.7720946269e+00 4.8014087373e+00 
17600 6.0105272921e+00 -1.3355877164e-01 2.7745132883e+00 -4.8055979816e+00 2.7745132883e+00 4.8055979816e+00 
17700 6.0098419073e+00 -1.3302893055e-01 2.7769205225e+00 -4.8097674335e+00 2.7769205225e+00 4.8097674335e+00 
17800 6.0091673198e+00 -1.3248649090e-01 2.7793161265e+00 -4.8139167414e+00 2.7793161265e+00 4.8139167414e+00 
17900 6.0085034783e+00 -1.3193178329e-01 2.7816999037e+00 -4.8180455646e+00 2.7816999037e+00 4.8180455646e+00 
18000 6.0078503230e+00 -1.3136513946e-01 2.7840716641e+00 -4.8221535741e+00 2.7840716641e+00 4.8221535741e+00 
18100 6.0072077861e+00 -1.3078689205e-01 2.7864312240e+00 -4.8262404518e+00 2.7864312240e+00 4.8262404518e+00 
18200 6.0065757918e+00 -1.3019737440e-01 2.7887784062e+00 -4.8303058906e+00 2.7887784062e+00 4.8303058906e+00 
18300 6.0059542571e+00 -1.2959692032e-01 2.7911130399e+00 -4.8343495948e+00 2.7911130399e+00 4.8343495948e+00 
18400 6.0053430922e+00 -1.2898586387e-01 2.7934349608e+00 -4.8383712797e+00 2.7934349608e+00 4.8383712797e+00 
18500 6.0047422004e+00 -1.2836453918e-01 2.7957440107e+00 -4.8423706715e+00 2.7957440107e+00 4.8423706715e+00 
18600 6.0041514788e+00 -1.2773328025e-01 2.7980400380e+00 -4.8463475075e+00 2.7980400380e+00 4.8463475075e+00 
18700 6.0035708187e+00 -1.2709242075e-01 2.8003228973e+00 -4.8503015358e+00 2.8003228973e+00 4.8503015358e+00 
18800 6.0030001059e+00 -1.2644229384e-01 2.8025924494e+00 -4.8542325152e+00 2.8025924494e+00 4.8542325152e+00 
18900 6.0024392209e+00 -1.2578323196e-01 2.8048485613e+00 -4.8581402156e+00 2.8048485613e+00 4.8581402156e+00 
19000 6.0018880396e+00 -1.2511556674e-01 2.8070911062e+00 -4.8620244174e+00 2.8070911062e+00 4.8620244174e+00 
19100 6.0013464333e+00 -1.2443962873e-01 2.8093199634e+00 -4.8658849114e+00 2.8093199634e+00 4.8658849114e+00 
19200 6.0008142692e+00 -1.2375574731e-01 2.8115350185e+00 -4.8697214993e+00 2.8115350185e+00 4.8697214993e+00 
19300 6.0002914109e+00 -1.2306425052e-01 2.8137361627e+00 -4.8735339929e+00 2.8137361627e+00 4.8735339929e+00 
19400 5.9997777185e+00 -1.2236546490e-01 2.8159232935e+00 -4.8773222145e+00 2.8159232935e+00 4.8773222145e+00 
19500 5.9992730492e+00 -1.2165971533e-01 2.8180963141e+00 -4.8810859966e+00 2.8180963141e+00 4.8810859966e+00 
19600 5.9987772573e+00 -1.2094732495e-01 2.8202551338e+00 -4.8848251820e+00 2.8202551338e+00 4.8848251820e+00 
19700 5.9982901948e+00 -1.2022861495e-01 2.8223996674e+00 -4.8885396232e+00 2.8223996674e+00 4.8885396232e+00 
19800 5.9978117117e+00 -1.1950390452e-01 2.8245298357e+00 -4.8922291829e+00 2.8245298357e+00 4.8922291829e+00 
19900 5.9973416562e+00 -1.1877351064e-01 2.8266455650e+00 -4.8958937335e+00 2.8266455650e+00 4.8958937335e+00 
20000 5.9968798749e+00 -1.1803774806e-01 2.8287467873e+00 -4.8995331573e+00 2.8287467873e+00 4.8995331573e+00 
20100 5.9964262136e+00 -1.1729692908e-01 2.8308334401e+00 -4.9031473459e+00 2.8308334401e+00 4.9031473459e+00 
20200 5.9959805169e+00 -1.1655136353e-01 2.8329054663e+00 -4.9067362007e+00 2.8329054663e+00 4.9067362007e+00 
20300 5.9955426291e+00 -1.1580135859e-01 2.8349628145e+00 -4.9102996323e+00 2.8349628145e+00 4.9102996323e+00 
20400 5.9951123942e+00 -1.1504721874e-01 2.8370054384e+00 -4.9138375606e+00 2.8370054384e+00 4.9138375606e+00 
20500 5.9946896560e+00 -1.1428924561e-01 2.8390332969e+00 -4.9173499146e+00 2.8390332969e+00 4.9173499146e+00 
20600 5.9942742587e+00 -1.1352773791e-01 2.8410463543e+00 -4.9208366323e+00 2.8410463543e+00 4.9208366323e+00 
20700 5.9938660471e+00 -1.1276299135e-01 2.8430445800e+00 -4.9242976607e+00 2.8430445800e+00 4.9242976607e+00 
20800 5.9934648665e+00 -1.1199529850e-01 2.8450279483e+00 -4.9277329554e+00 2.8450279483e+00 4.9277329554e+00 
20900 5.9930705633e+00 -1.1122494871e-01 2.8469964387e+00 -4.9311424808e+00 2.8469964387e+00 4.9311424808e+00 
21000 5.9926829852e+00 -1.1045222806e-01 2.8489500354e+00 -4.9345262096e+00 2.8489500354e+00 4.9345262096e+00 
21100 5.9923019811e+00 -1.0967741921e-01 2.8508887277e+00 -4.9378841230e+00 2.8508887277e+00 4.9378841230e+00 
21200 5.9919274017e+00 -1.0890080136e-01 2.8528125092e+00 -4.9412162105e+00 2.8528125092e+00 4.9412162105e+00 
21300 5.9915590996e+00 -1.0812265014e-01 2.8547213787e+00 -4.9445224694e+00 2.8547213787e+00 4.9445224694e+00 
21400 5.9911969289e+00 -1.0734323752e-01 2.8566153394e+00 -4.9478029054e+00 2.8566153394e+00 4.9478029054e+00 
21500 5.9908407465e+00 -1.0656283174e-01 2.8584943987e+00 -4.9510575317e+00 2.8584943987e+00 4.9510575317e+00 
21600 5.9904904113e+00 -1.0578169724e-01 2.8603585690e+00 -4.9542863694e+00 2.8603585690e+00 4.9542863694e+00 
21700 5.9901457845e+00 -1.0500009452e-01 2.8622078666e+00 -4.9574894468e+00 2.8622078666e+00 4.9574894468e+00 
21800 5.9898067303e+00 -1.0421828012e-01 2.8640423124e+00 -4.9606668001e+00 2.8640423124e+00 4.9606668001e+00 
21900 5.9894731154e+00 -1.0343650652e-01 2.8658619313e+00 -4.9638184724e+00 2.8658619313e+00 4.9638184724e+00 
22000 5.9891448094e+00 -1.0265502203e-01 2.8676667522e+00 -4.9669445141e+00 2.8676667522e+00 4.9669445141e+00 
22100 5.9888216849e+00 -1.0187407075e-01 2.8694568085e+00 -4.9700449824e+00 2.8694568085e+00 4.9700449824e+00 
22200 5.9885036175e+00 -1.0109389246e-01 2.8712321369e+00 -4.9731199415e+00 2.8712321369e+00 4.9731199415e+00 
22300 5.9881904861e+00 -1.0031472256e-01 2.8729927786e+00 -4.9761694623e+00 2.8729927786e+00 4.9761694623e+00 
22400 5.9878821725e+00 -9.9536791970e-02 2.8747387780e+00 -4.9791936220e+00 2.8747387780e+00 4.9791936220e+00 
22500 5.9875785621e+00 -9.8760327086e-02 2.8764701836e+00 -4.9821925045e+00 2.8764701836e+00 4.9821925045e+00 
22600 5.9872795434e+00 -9.7985549666e-02 2.8781870473e+00 -4.9851661997e+00 2.8781870473e+00 4.9851661997e+00 
22700 5.9869850086e+00 -9.7212676777e-02 2.8798894246e+00 -4.9881148035e+00 2.8798894246e+00 4.9881148035e+00 
22800 5.9866948528e+00 -9.6441920710e-02 2.8815773742e+00 -4.9910384181e+00 2.8815773742e+00 4.9910384181e+00 
22900 5.9864089750e+00 -9.5673488910e-02 2.8832509585e+00 -4.9939371510e+00 2.8832509585e+00 4.9939371510e+00 
23000 5.9861272773e+00 -9.4907583900e-02 2.8849102427e+00 -4.9968111157e+00 2.8849102427e+00 4.9968111157e+00 
23100 5.9858496655e+00 -9.4144403215e-02 2.8865552956e+00 -4.9996604308e+00 2.8865552956e+00 4.9996604308e+00 
23200 5.9855760486e+00 -9.3384139327e-02 2.8881861887e+00 -5.0024852206e+00 2.8881861887e+00 5.0024852206e+00 
23300 5.9853063392e+00 -9.2626979582e-02 2.8898029966e+00 -5.0052856140e+00 2.8898029966e+00 5.0052856140e+00 
23400 5.9850404531e+00 -9.1873106132e-02 2.8914057968e+00 -5.0080617454e+00 2.8914057968e+00 5.0080617454e+00 
23500 5.9847783096e+00 -9.1122695873e-02 2.8929946695e+00 -5.0108137537e+00 2.8929946695e+00 5.0108137537e+00 
23600 5.9845198313e+00 -9.0375920385e-02 2.8945696977e+00 -5.0135417824e+00 2.8945696977e+00 5.0135417824e+00 
23700 5.9842649440e+00 -8.9632945875e-02 2.8961309667e+00 -5.0162459797e+00 2.8961309667e+00 5.0162459797e+00 
23800 5.9840135767e+00 -8.8893933118e-02 2.8976785646e+00 -5.0189264978e+00 2.8976785646e+00 5.0189264978e+00 
23900 5.9837656616e+00 -8.8159037414e-02 2.8992125817e+00 -5.0215834935e+00 2.8992125817e+00 5.0215834935e+00 
24000 5.9835211340e+00 -8.7428408532e-02 2.9007331108e+00 -5.0242171270e+00 2.9007331108e+00 5.0242171270e+00 
24100 5.9832799320e+00 -8.6702190670e-02 2.9022402466e+00 -5.0268275628e+00 2.9022402466e+00 5.0268275628e+00 
24200 5.9830419968e+00 -8.5980522416e-02 2.9037340861e+00 -5.0294149688e+00 2.9037340861e+00 5.0294149688e+00 
24300 5.9828072725e+00 -8.5263536709e-02 2.9052147283e+00 -5.0319795163e+00 2.9052147283e+00 5.0319795163e+00 
24400 5.9825757056e+00 -8.4551360809e-02 2.9066822741e+00 -5.0345213801e+00 2.9066822741e+00 5.0345213801e+00 
24500 5.9823472456e+00 -8.3844116269e-02 2.9081368260e+00 -5.0370407380e+00 2.9081368260e+00 5.0370407380e+00 
24600 5.9821218444e+00 -8.3141918917e-02 2.9095784886e+00 -5.0395377708e+00 2.9095784886e+00 5.0395377708e+00 
24700 5.9818994564e+00 -8.2444878832e-02 2.9110073677e+00 -5.0420126621e+00 2.9110073677e+00 5.0420126621e+00 
24800 5.9816800381e+00 -8.1753100338e-02 2.9124235709e+00 -5.0444655980e+00 2.9124235709e+00 5.0444655980e+00 
24900 5.9814635485e+00 -8.1066681995e-02 2.9138272071e+00 -5.0468967673e+00 2.9138272071e+00 5.0468967673e+00 
25000 5.9812499487e+00 -8.0385716598e-02 2.9152183866e+00 -5.0493063607e+00 2.9152183866e+00 5.0493063607e+00 
25100 5.9810392018e+00 -7.9710291183e-02 2.9165972207e+00 -5.0516945714e+00 2.9165972207e+00 5.0516945714e+00 
25200 5.9808312727e+00 -7.9040487034e-02 2.9179638220e+00 -5.0540615943e+00 2.9179638220e+00 5.0540615943e+00 
25300 5.9806261281e+00 -7.8376379702e-02 2.9193183041e+00 -5.0564076262e+00 2.9193183041e+00 5.0564076262e+00 
25400 5.9804237365e+00 -7.7718039028e-02 2.9206607817e+00 -5.0587328655e+00 2.9206607817e+00 5.0587328655e+00 
25500 5.9802240680e+00 -7.7065529168e-02 2.9219913699e+00 -5.0610375119e+00 2.9219913699e+00 5.0610375119e+00 
25600 5.9800270941e+00 -7.6418908630e-02 2.9233101849e+00 -5.0633217666e+00 2.9233101849e+00 5.0633217666e+00 
25700 5.9798327876e+00 -7.5778230311e-02 2.9246173435e+00 -5.0655858317e+00 2.9246173435e+00 5.0655858317e+00 
25800 5.9796411226e+00 -7.5143541547e-02 2.9259129630e+00 -5.0678299104e+00 2.9259129630e+00 5.0678299104e+00 
25900 5.9794520744e+00 -7.4514884165e-02 2.9271971610e+00 -5.0700542067e+00 2.9271971610e+00 5.0700542067e+00 
26000 5.9792656194e+00 -7.3892294538e-02 2.9284700559e+00 -5.0722589252e+00 2.9284700559e+00 5.0722589252e+00 
26100 5.9790817349e+00 -7.3275803655e-02 2.9297317658e+00 -5.0744442710e+00 2.9297317658e+00 5.0744442710e+00 
26200 5.9789003989e+00 -7.2665437185e-02 2.9309824096e+00 -5.0766104495e+00 2.9309824096e+00 5.0766104495e+00 
26300 5.9787215905e+00 -7.2061215561e-02 2.9322221058e+00 -5.0787576664e+00 2.9322221058e+00 5.0787576664e+00 
26400 5.9785452891e+00 -7.1463154054e-02 2.9334509733e+00 -5.0808861272e+00 2.9334509733e+00 5.0808861272e+00 
26500 5.9783714750e+00 -7.0871262869e-02 2.9346691306e+00 -5.0829960377e+00 2.9346691306e+00 5.0829960377e+00 
26600 5.9782001289e+00 -7.0285547231e-02 2.9358766964e+00 -5.0850876030e+00 2.9358766964e+00 5.0850876030e+00 
26700 5.9780312320e+00 -6.9706007488e-02 2.9370737890e+00 -5.0871610281e+00 2.9370737890e+00 5.0871610281e+00 
26800 5.9778647656e+00 -6.9132639213e-02 2.9382605262e+00 -5.0892165173e+00 2.9382605262e+00 5.0892165173e+00 
26900 5.9777007116e+00 -6.8565433314e-02 2.9394370259e+00 -5.0912542745e+00 2.9394370259e+00 5.0912542745e+00 
27000 5.9775390521e+00 -6.8004376144e-02 2.9406034051e+00 -5.0932745026e+00 2.9406034051e+00 5.0932745026e+00 
27100 5.9773797691e+00 -6.7449449626e-02 2.9417597806e+00 -5.0952774036e+00 2.9417597806e+00 5.0952774036e+00 
27200 5.9772228449e+00 -6.6900631367e-02 2.9429062683e+00 -5.0972631786e+00 2.9429062683e+00 5.0972631786e+00 
27300 5.9770682620e+00 -6.6357894791e-02 2.9440429837e+00 -5.0992320274e+00 2.9440429837e+00 5.0992320274e+00 
27400 5.9769160025e+00 -6.5821209266e-02 2.9451700414e+00 -5.1011841486e+00 2.9451700414e+00 5.1011841486e+00 
27500 5.9767660489e+00 -6.5290540238e-02 2.9462875553e+00 -5.1031197395e+00 2.9462875553e+00 5.1031197395e+00 
27600 5.9766183833e+00 -6.4765849370e-02 2.9473956384e+00 -5.1050389958e+00 2.9473956384e+00 5.1050389958e+00 
27700 5.9764729878e+00 -6.4247094680e-02 2.9484944029e+00 -5.1069421116e+00 2.9484944029e+00 5.1069421116e+00 
27800 5.9763298444e+00 -6.3734230683e-02 2.9495839598e+00 -5.1088292796e+00 2.9495839598e+00 5.1088292796e+00 
27900 5.9761889348e+00 -6.3227208542e-02 2.9506644193e+00 -5.1107006903e+00 2.9506644193e+00 5.1107006903e+00 
28000 5.9760502407e+00 -6.2725976208e-02 2.9517358904e+00 -5.1125565327e+00 2.9517358904e+00 5.1125565327e+00 
28100 5.9759137433e+00 -6.2230478576e-02 2.9527984810e+00 -5.1143969937e+00 2.9527984810e+00 5.1143969937e+00 
28200 5.9757794239e+00 -6.1740657629e-02 2.9538522979e+00 -5.1162222581e+00 2.9538522979e+00 5.1162222581e+00 
28300 5.9756472632e+00 -6.1256452597e-02 2.9548974466e+00 -5.1180325087e+00 2.9548974466e+00 5.1180325087e+00 
28400 5.9755172418e+00 -6.0777800105e-02 2.9559340314e+00 -5.1198279262e+00 2.9559340314e+00 5.1198279262e+00 
28500 5.9753893401e+00 -6.0304634331e-02 2.9569621552e+00 -5.1216086888e+00 2.9569621552e+00 5.1216086888e+00 
28600 5.9752635381e+00 -5.9836887155e-02 2.9579819196e+00 -5.1233749727e+00 2.9579819196e+00 5.1233749727e+00 
28700 5.9751398156e+00 -5.9374488319e-02 2.9589934251e+00 -5.1251269515e+00 2.9589934251e+00 5.1251269515e+00 
28800 5.9750181520e+00 -5.8917365575e-02 2.9599967704e+00 -5.1268647965e+00 2.9599967704e+00 5.1268647965e+00 
28900 5.9748985265e+00 -5.8465444843e-02 2.9609920530e+00 -5.1285886766e+00 2.9609920530e+00 5.1285886766e+00 
29000 5.9747809182e+00 -5.8018650363e-02 2.9619793689e+00 -5.1302987579e+00 2.9619793689e+00 5.1302987579e+00 
29100 5.9746653056e+00 -5.7576904845e-02 2.9629588127e+00 -5.1319952044e+00 2.9629588127e+00 5.1319952044e+00 
29200 5.9745516672e+00 -5.7140129619e-02 2.9639304774e+00 -5.1336781770e+00 2.9639304774e+00 5.1336781770e+00 
29300 5.9744399812e+00 -5.6708244785e-02 2.9648944546e+00 -5.1353478344e+00 2.9648944546e+00 5.1353478344e+00 
29400 5.9743302254e+00 -5.6281169362e-02 2.9658508342e+00 -5.1370043325e+00 2.9658508342e+00 5.1370043325e+00 
29500 5.9742223776e+00 -5.5858821427e-02 2.9667997047e+00 -5.1386478245e+00 2.9667997047e+00 5.1386478245e+00 
29600 5.9741164152e+00 -5.5441118263e-02 2.9677411531e+00 -5.1402784609e+00 2.9677411531e+00 5.1402784609e+00 
29700 5.9740123157e+00 -5.5027976497e-02 2.9686752647e+00 -5.1418963896e+00 2.9686752647e+00 5.1418963896e+00 
29800 5.9739100560e+00 -5.4619312236e-02 2.9696021232e+00 -5.1435017556e+00 2.9696021232e+00 5.1435017556e+00 
29900 5.9738096133e+00 -5.4215041203e-02 2.9705218109e+00 -5.1450947014e+00 2.9705218109e+00 5.1450947014e+00 
30000 5.9737109642e+00 -5.3815078868e-02 2.9714344084e+00 -5.1466753667e+00 2.9714344084e+00 5.1466753667e+00 
30100 5.9736140856e+00 -5.3419340574e-02 2.9723399948e+00 -5.1482438883e+00 2.9723399948e+00 5.1482438883e+00 
30200 5.9735189539e+00 -5.3027741664e-02 2.9732386475e+00 -5.1498004006e+00 2.9732386475e+00 5.1498004006e+00 
30300 5.9734255458e+00 -5.2640197602e-02 2.9741304426e+00 -5.1513450349e+00 2.9741304426e+00 5.1513450349e+00 
30400 5.9733338375e+00 -5.2256624085e-02 2.9750154544e+00 -5.1528779202e+00 2.9750154544e+00 5.1528779202e+00 
30500 5.9732438056e+00 -5.1876937164e-02 2.9758937556e+00 -5.1543991826e+00 2.9758937556e+00 5.1543991826e+00 
30600 5.9731554263e+00 -5.1501053345e-02 2.9767654176e+00 -5.1559089454e+00 2.9767654176e+00 5.1559089454e+00 
30700 5.9730686759e+00 -5.1128889701e-02 2.9776305100e+00 -5.1574073295e+00 2.9776305100e+00 5.1574073295e+00 
30800 5.9729835308e+00 -5.0760363967e-02 2.9784891012e+00 -5.1588944531e+00 2.9784891012e+00 5.1588944531e+00 
30900 5.9728999673e+00 -5.0395394642e-02 2.9793412578e+00 -5.1603704316e+00 2.9793412578e+00 5.1603704316e+00 
31000 5.9728179617e+00 -5.0033901075e-02 2.9801870451e+00 -5.1618353782e+00 2.9801870451e+00 5.1618353782e+00 
31100 5.9727374906e+00 -4.9675803559e-02 2.9810265268e+00 -5.1632894031e+00 2.9810265268e+00 5.1632894031e+00 
31200 5.9726585302e+00 -4.9321023409e-02 2.9818597652e+00 -5.1647326144e+00 2.9818597652e+00 5.1647326144e+00 
31300 5.9725810573e+00 -4.8969483043e-02 2.9826868213e+00 -5.1661651175e+00 2.9826868213e+00 5.1661651175e+00 
31400 5.9725050484e+00 -4.8621106057e-02 2.9835077544e+00 -5.1675870154e+00 2.9835077544e+00 5.1675870154e+00 
31500 5.9724304803e+00 -4.8275817293e-02 2.9843226227e+00 -5.1689984087e+00 2.9843226227e+00 5.1689984087e+00 
31600 5.9723573299e+00 -4.7933542906e-02 2.9851314829e+00 -5.1703993957e+00 2.9851314829e+00 5.1703993957e+00 
31700 5.9722855742e+00 -4.7594210421e-02 2.9859343905e+00 -5.1717900723e+00 2.9859343905e+00 5.1717900723e+00 
31800 5.9722151903e+00 -4.7257748795e-02 2.9867313994e+00 -5.1731705323e+00 2.9867313994e+00 5.1731705323e+00 
31900 5.9721461556e+00 -4.6924088461e-02 2.9875225625e+00 -5.1745408670e+00 2.9875225625e+00 5.1745408670e+00 
32000 5.9720784475e+00 -4.6593161383e-02 2.9883079314e+00 -5.1759011658e+00 2.9883079314e+00 5.1759011658e+00 
32100 5.9720120437e+00 -4.6264901093e-02 2.9890875563e+00 -5.1772515157e+00 2.9890875563e+00 5.1772515157e+00 
32200 5.9719469221e+00 -4.5939242732e-02 2.9898614864e+00 -5.1785920020e+00 2.9898614864e+00 5.1785920020e+00 
32300 5.9718830607e+00 -4.5616123082e-02 2.9906297696e+00 -5.1799227076e+00 2.9906297696e+00 5.1799227076e+00 
32400 5.9718204376e+00 -4.5295480600e-02 2.9913924528e+00 -5.1812437137e+00 2.9913924528e+00 5.1812437137e+00 
32500 5.9717590315e+00 -4.4977255440e-02 2.9921495817e+00 -5.1825550993e+00 2.9921495817e+00 5.1825550993e+00 
32600 5.9716988210e+00 -4.4661389476e-02 2.9929012008e+00 -5.1838569418e+00 2.9929012008e+00 5.1838569418e+00 
32700 5.9716397849e+00 -4.4347826320e-02 2.9936473538e+00 -5.1851493168e+00 2.9936473538e+00 5.1851493168e+00 
32800 5.9715819024e+00 -4.4036511335e-02 2.9943880833e+00 -5.1864322978e+00 2.9943880833e+00 5.1864322978e+00 
32900 5.9715251529e+00 -4.3727391648e-02 2.9951234307e+00 -5.1877059569e+00 2.9951234307e+00 5.1877059569e+00 
33000 5.9714695160e+00 -4.3420416152e-02 2.9958534368e+00 -5.1889703646e+00 2.9958534368e+00 5.1889703646e+00 
33100 5.9714149715e+00 -4.3115535513e-02 2.9965781413e+00 -5.1902255895e+00 2.9965781413e+00 5.1902255895e+00 
33200 5.9713614995e+00 -4.2812702168e-02 2.9972975829e+00 -5.1914716990e+00 2.9972975829e+00 5.1914716990e+00 
33300 5.9713090804e+00 -4.2511870321e-02 2.9980117996e+00 -5.1927087586e+00 2.9980117996e+00 5.1927087586e+00 
33400 5.9712576947e+00 -4.2212995937e-02 2.9987208286e+00 -5.1939368329e+00 2.9987208286e+00 5.1939368329e+00 
33500 5.9712073234e+00 -4.1916036732e-02 2.9994247062e+00 -5.1951559846e+00 2.9994247062e+00 5.1951559846e+00 
33600 5.9711579476e+00 -4.1620952160e-02 3.0001234679e+00 -5.1963662754e+00 3.0001234679e+00 5.1963662754e+00 
33700 5.9711095486e+00 -4.1327703397e-02 3.0008171486e+00 -5.1975677656e+00 3.0008171486e+00 5.1975677656e+00 
33800 5.9710621080e+00 -4.1036253323e-02 3.0015057824e+00 -5.1987605144e+00 3.0015057824e+00 5.1987605144e+00 
33900 5.9710156079e+00 -4.0746566501e-02 3.0021894028e+00 -5.1999445796e+00 3.0021894028e+00 5.1999445796e+00 
34000 5.9709700303e+00 -4.0458609156e-02 3.0028680426e+00 -5.2011200182e+00 3.0028680426e+00 5.2011200182e+00 
34100 5.9709253576e+00 -4.0172349147e-02 3.0035417339e+00 -5.2022868857e+00 3.0035417339e+00 5.2022868857e+00 
34200 5.9708815727e+00 -3.9887755941e-02 3.0042105083e+00 -5.2034452371e+00 3.0042105083e+00 5.2034452371e+00 
34300 5.9708386583e+00 -3.9604800581e-02 3.0048743970e+00 -5.2045951259e+00 3.0048743970e+00 5.2045951259e+00 
34400 5.9707965978e+00 -3.9323455661e-02 3.0055334303e+00 -5.2057366051e+00 3.0055334303e+00 5.2057366051e+00 
34500 5.9707553746e+00 -3.9043695285e-02 3.0061876383e+00 -5.2068697267e+00 3.0061876383e+00 5.2068697267e+00 
34600 5.9707149725e+00 -3.8765495040e-02 3.0068370506e+00 -5.2079945417e+00 3.0068370506e+00 5.2079945417e+00 
34700 5.9706753754e+00 -3.8488831952e-02 3.0074816961e+00 -5.2091111004e+00 3.0074816961e+00 5.2091111004e+00 
34800 5.9706365677e+00 -3.8213684459e-02 3.0081216035e+00 -5.2102194526e+00 3.0081216035e+00 5.2102194526e+00 
34900 5.9705985338e+00 -3.7940032363e-02 3.0087568010e+00 -5.2113196470e+00 3.0087568010e+00 5.2113196470e+00 
35000 5.9705612585e+00 -3.7667856795e-02 3.0093873165e+00 -5.2124117319e+00 3.0093873165e+00 5.2124117319e+00 
35100 5.9705247268e+00 -3.7397140175e-02 3.0100131775e+00 -5.2134957549e+00 3.0100131775e+00 5.2134957549e+00 
35200 5.9704889241e+00 -3.7127866169e-02 3.0106344111e+00 -5.2145717631e+00 3.0106344111e+00 5.2145717631e+00 
35300 5.9704538358e+00 -3.6860019649e-02 3.0112510442e+00 -5.2156398029e+00 3.0112510442e+00 5.2156398029e+00 
35400 5.9704194478e+00 -3.6593586649e-02 3.0118631032e+00 -5.2166999202e+00 3.0118631032e+00 5.2166999202e+00 
35500 5.9703857460e+00 -3.6328554323e-02 3.0124706145e+00 -5.2177521606e+00 3.0124706145e+00 5.2177521606e+00 
35600 5.9703527168e+00 -3.6064910900e-02 3.0130736040e+00 -5.2187965691e+00 3.0130736040e+00 5.2187965691e+00 
35700 5.9703203467e+00 -3.5802645645e-02 3.0136720976e+00 -5.2198331904e+00 3.0136720976e+00 5.2198331904e+00 
35800 5.9702886224e+00 -3.5541748810e-02 3.0142661208e+00 -5.2208620688e+00 3.0142661208e+00 5.2208620688e+00 
35900 5.9702575309e+00 -3.5282211593e-02 3.0148556989e+00 -5.2218832480e+00 3.0148556989e+00 5.2218832480e+00 
36000 5.9702270595e+00 -3.5024026094e-02 3.0154408572e+00 -5.2228967718e+00 3.0154408572e+00 5.2228967718e+00 
36100 5.9701971957e+00 -3.4767185272e-02 3.0160216205e+00 -5.2239026834e+00 3.0160216205e+00 5.2239026834e+00 
36200 5.9701679271e+00 -3.4511682901e-02 3.0165980138e+00 -5.2249010259e+00 3.0165980138e+00 5.2249010259e+00 
36300 5.9701392417e+00 -3.4257513528e-02 3.0171700617e+00 -5.2258918420e+00 3.0171700617e+00 5.2258918420e+00 
36400 5.9701111275e+00 -3.4004672427e-02 3.0177377889e+00 -5.2268751743e+00 3.0177377889e+00 5.2268751743e+00 
36500 5.9700835732e+00 -3.3753155563e-02 3.0183012197e+00 -5.2278510651e+00 3.0183012197e+00 5.2278510651e+00 
36600 5.9700565671e+00 -3.3502959545e-02 3.0188603786e+00 -5.2288195567e+00 3.0188603786e+00 5.2288195567e+00 
36700 5.9700300981e+00 -3.3254081587e-02 3.0194152897e+00 -5.2297806910e+00 3.0194152897e+00 5.2297806910e+00 
36800 5.9700041554e+00 -3.3006519469e-02 3.0199659773e+00 -5.2307345099e+00 3.0199659773e+00 5.2307345099e+00 
36900 5.9699787280e+00 -3.2760271495e-02 3.0205124655e+00 -5.2316810552e+00 3.0205124655e+00 5.2316810552e+00 
37000 5.9699538056e+00 -3.2515336455e-02 3.0210547783e+00 -5.2326203685e+00 3.0210547783e+00 5.2326203685e+00 
37100 5.9699293777e+00 -3.2271713587e-02 3.0215929397e+00 -5.2335524914e+00 3.0215929397e+00 5.2335524914e+00 
37200 5.9699054342e+00 -3.2029402541e-02 3.0221269737e+00 -5.2344774654e+00 3.0221269737e+00 5.2344774654e+00 
37300 5.9698819652e+00 -3.1788403340e-02 3.0226569041e+00 -5.2353953317e+00 3.0226569041e+00 5.2353953317e+00 
37400 5.9698589610e+00 -3.1548716347e-02 3.0231827548e+00 -5.2363061318e+00 3.0231827548e+00 5.2363061318e+00 
37500 5.9698364120e+00 -3.1310342230e-02 3.0237045496e+00 -5.2372099070e+00 3.0237045496e+00 5.2372099070e+00 
37600 5.9698143089e+00 -3.1073281930e-02 3.0242223124e+00 -5.2381066985e+00 3.0242223124e+00 5.2381066985e+00 
37700 5.9697926426e+00 -3.0837536625e-02 3.0247360670e+00 -5.2389965476e+00 3.0247360670e+00 5.2389965476e+00 
37800 5.9697714040e+00 -3.0603107701e-02 3.0252458372e+00 -5.2398794954e+00 3.0252458372e+00 5.2398794954e+00 
37900 5.9697505845e+00 -3.0369996724e-02 3.0257516466e+00 -5.2407555831e+00 3.0257516466e+00 5.2407555831e+00 
38000 5.9697301754e+00 -3.0138205407e-02 3.0262535192e+00 -5.2416248519e+00 3.0262535192e+00 5.2416248519e+00 
38100 5.9697101683e+00 -2.9907735584e-02 3.0267514787e+00 -5.2424873430e+00 3.0267514787e+00 5.2424873430e+00 
38200 5.9696905549e+00 -2.9678589183e-02 3.0272455488e+00 -5.2433430975e+00 3.0272455488e+00 5.2433430975e+00 
38300 5.9696713273e+00 -2.9450768202e-02 3.0277357533e+00 -5.2441921567e+00 3.0277357533e+00 5.2441921567e+00 
38400 5.9696524774e+00 -2.9224274679e-02 3.0282221161e+00 -5.2450345616e+00 3.0282221161e+00 5.2450345616e+00 
38500 5.9696339977e+00 -2.8999110676e-02 3.0287046608e+00 -5.2458703536e+00 3.0287046608e+00 5.2458703536e+00 
38600 5.9696158804e+00 -2.8775278250e-02 3.0291834112e+00 -5.2466995737e+00 3.0291834112e+00 5.2466995737e+00 
38700 5.9695981181e+00 -2.8552779437e-02 3.0296583912e+00 -5.2475222632e+00 3.0296583912e+00 5.2475222632e+00 
38800 5.9695807037e+00 -2.8331616227e-02 3.0301296245e+00 -5.2483384632e+00 3.0301296245e+00 5.2483384632e+00 
38900 5.9695636301e+00 -2.8111790550e-02 3.0305971350e+00 -5.2491482150e+00 3.0305971350e+00 5.2491482150e+00 
39000 5.9695468902e+00 -2.7893304256e-02 3.0310609463e+00 -5.2499515599e+00 3.0310609463e+00 5.2499515599e+00 
39100 5.9695304773e+00 -2.7676159095e-02 3.0315210824e+00 -5.2507485390e+00 3.0315210824e+00 5.2507485390e+00 
39200 5.9695143848e+00 -2.7460356709e-02 3.0319775670e+00 -5.2515391935e+00 3.0319775670e+00 5.2515391935e+00 
39300 5.9694986061e+00 -2.7245898609e-02 3.0324304239e+00 -5.2523235647e+00 3.0324304239e+00 5.2523235647e+00 
39400 5.9694831348e+00 -2.7032786167e-02 3.0328796770e+00 -5.2531016937e+00 3.0328796770e+00 5.2531016937e+00 
39500 5.9694679648e+00 -2.6821020603e-02 3.0333253499e+00 -5.2538736219e+00 3.0333253499e+00 5.2538736219e+00 
39600 5.9694530900e+00 -2.6610602970e-02 3.0337674665e+00 -5.2546393904e+00 3.0337674665e+00 5.2546393904e+00 
39700 5.9694385043e+00 -2.6401534148e-02 3.0342060506e+00 -5.2553990403e+00 3.0342060506e+00 5.2553990403e+00 
39800 5.9694242019e+00 -2.6193814830e-02 3.0346411260e+00 -5.2561526129e+00 3.0346411260e+00 5.2561526129e+00 
39900 5.9694101772e+00 -2.5987445517e-02 3.0350727163e+00 -5.2569001493e+00 3.0350727163e+00 5.2569001493e+00 
40000 5.9693964245e+00 -2.5782426510e-02 3.0355008454e+00 -5.2576416906e+00 3.0355008454e+00 5.2576416906e+00 
40100 5.9693829384e+00 -2.5578757900e-02 3.0359255369e+00 -5.2583772779e+00 3.0359255369e+00 5.2583772779e+00 
40200 5.9693697135e+00 -2.5376439565e-02 3.0363468145e+00 -5.2591069521e+00 3.0363468145e+00 5.2591069521e+00 
40300 5.9693567447e+00 -2.5175471164e-02 3.0367647019e+00 -5.2598307543e+00 3.0367647019e+00 5.2598307543e+00 
40400 5.9693440267e+00 -2.4975852134e-02 3.0371792227e+00 -5.2605487254e+00 3.0371792227e+00 5.2605487254e+00 
40500 5.9693315546e+00 -2.4777581683e-02 3.0375904005e+00 -5.2612609063e+00 3.0375904005e+00 5.2612609063e+00 
40600 5.9693193234e+00 -2.4580658791e-02 3.0379982590e+00 -5.2619673378e+00 3.0379982590e+00 5.2619673378e+00 
40700 5.9693073285e+00 -2.4385082206e-02 3.0384028215e+00 -5.2626680606e+00 3.0384028215e+00 5.2626680606e+00 
40800 5.9692955650e+00 -2.4190850442e-02 3.0388041116e+00 -5.2633631155e+00 3.0388041116e+00 5.2633631155e+00 
40900 5.9692840285e+00 -2.3997961780e-02 3.0392021527e+00 -5.2640525429e+00 3.0392021527e+00 5.2640525429e+00 
41000 5.9692727143e+00 -2.3806414267e-02 3.0395969681e+00 -5.2647363834e+00 3.0395969681e+00 5.2647363834e+00 
41100 5.9692616182e+00 -2.3616205717e-02 3.0399885813e+00 -5.2654146773e+00 3.0399885813e+00 5.2654146773e+00 
41200 5.9692507357e+00 -2.3427333709e-02 3.0403770155e+00 -5.2660874650e+00 3.0403770155e+00 5.2660874650e+00 
41300 5.9692400628e+00 -2.3239795594e-02 3.0407622938e+00 -5.2667547867e+00 3.0407622938e+00 5.2667547867e+00 
41400 5.9692295952e+00 -2.3053588494e-02 3.0411444395e+00 -5.2674166824e+00 3.0411444395e+00 5.2674166824e+00 
41500 5.9692193290e+00 -2.2868709302e-02 3.0415234755e+00 -5.2680731921e+00 3.0415234755e+00 5.2680731921e+00 
41600 5.9692092602e+00 -2.2685154691e-02 3.0418994250e+00 -5.2687243556e+00 3.0418994250e+00 5.2687243556e+00 
41700 5.9691993849e+00 -2.2502921113e-02 3.0422723107e+00 -5.2693702126e+00 3.0422723107e+00 5.2693702126e+00 
41800 5.9691896993e+00 -2.2322004802e-02 3.0426421556e+00 -5.2700108027e+00 3.0426421556e+00 5.2700108027e+00 
41900 5.9691801998e+00 -2.2142401784e-02 3.0430089824e+00 -5.2706461654e+00 3.0430089824e+00 5.2706461654e+00 
42000 5.9691708827e+00 -2.1964107874e-02 3.0433728138e+00 -5.2712763398e+00 3.0433728138e+00 5.2712763398e+00 
42100 5.9691617444e+00 -2.1787118687e-02 3.0437336723e+00 -5.2719013652e+00 3.0437336723e+00 5.2719013652e+00 
42200 5.9691527815e+00 -2.1611429638e-02 3.0440915805e+00 -5.2725212804e+00 3.0440915805e+00 5.2725212804e+00 
42300 5.9691439906e+00 -2.1437035953e-02 3.0444465608e+00 -5.2731361242e+00 3.0444465608e+00 5.2731361242e+00 
42400 5.9691353684e+00 -2.1263932668e-02 3.0447986355e+00 -5.2737459354e+00 3.0447986355e+00 5.2737459354e+00 
42500 5.9691269115e+00 -2.1092114642e-02 3.0451478267e+00 -5.2743507524e+00 3.0451478267e+00 5.2743507524e+00 
42600 5.9691186167e+00 -2.0921576555e-02 3.0454941566e+00 -5.2749506133e+00 3.0454941566e+00 5.2749506133e+00 
42700 5.9691104810e+00 -2.0752312922e-02 3.0458376471e+00 -5.2755455564e+00 3.0458376471e+00 5.2755455564e+00 
42800 5.9691025013e+00 -2.0584318094e-02 3.0461783202e+00 -5.2761356196e+00 3.0461783202e+00 5.2761356196e+00 
42900 5.9690946745e+00 -2.0417586264e-02 3.0465161977e+00 -5.2767208405e+00 3.0465161977e+00 5.2767208405e+00 
43000 5.9690869978e+00 -2.0252111480e-02 3.0468513011e+00 -5.2773012566e+00 3.0468513011e+00 5.2773012566e+00 
43100 5.9690794682e+00 -2.0087887642e-02 3.0471836521e+00 -5.2778769054e+00 3.0471836521e+00 5.2778769054e+00 
43200 5.9690720828e+00 -1.9924908517e-02 3.0475132720e+00 -5.2784478239e+00 3.0475132720e+00 5.2784478239e+00 
43300 5.9690648390e+00 -1.9763167740e-02 3.0478401822e+00 -5.2790140490e+00 3.0478401822e+00 5.2790140490e+00 
43400 5.9690577340e+00 -1.9602658824e-02 3.0481644039e+00 -5.2795756174e+00 3.0481644039e+00 5.2795756174e+00 
43500 5.9690507651e+00 -1.9443375164e-02 3.0484859582e+00 -5.2801325657e+00 3.0484859582e+00 5.2801325657e+00 
43600 5.9690439297e+00 -1.9285310048e-02 3.0488048659e+00 -5.2806849301e+00 3.0488048659e+00 5.2806849301e+00 
43700 5.9690372253e+00 -1.9128456658e-02 3.0491211479e+00 -5.2812327466e+00 3.0491211479e+00 5.2812327466e+00 
43800 5.9690306494e+00 -1.8972808080e-02 3.0494348249e+00 -5.2817760511e+00 3.0494348249e+00 5.2817760511e+00 
43900 5.9690241995e+00 -1.8818357309e-02 3.0497459175e+00 -5.2823148793e+00 3.0497459175e+00 5.2823148793e+00 
44000 5.9690178732e+00 -1.8665097258e-02 3.0500544461e+00 -5.2828492664e+00 3.0500544461e+00 5.2828492664e+00 
44100 5.9690116681e+00 -1.8513020762e-02 3.0503604309e+00 -5.2833792477e+00 3.0503604309e+00 5.2833792477e+00 
44200 5.9690055819e+00 -1.8362120584e-02 3.0506638922e+00 -5.2839048582e+00 3.0506638922e+00 5.2839048582e+00 
44300 5.9689996123e+00 -1.8212389423e-02 3.0509648500e+00 -5.2844261324e+00 3.0509648500e+00 5.2844261324e+00 
44400 5.9689937572e+00 -1.8063819919e-02 3.0512633242e+00 -5.2849431049e+00 3.0512633242e+00 5.2849431049e+00 
44500 5.9689880143e+00 -1.7916404658e-02 3.0515593346e+00 -5.2854558099e+00 3.0515593346e+00 5.2854558099e+00 
44600 5.9689823815e+00 -1.7770136180e-02 3.0518529008e+00 -5.2859642814e+00 3.0518529008e+00 5.2859642814e+00 
44700 5.9689768566e+00 -1.7625006984e-02 3.0521440423e+00 -5.2864685532e+00 3.0521440423e+00 5.2864685532e+00 
44800 5.9689714377e+00 -1.7481009531e-02 3.0524327784e+00 -5.2869686589e+00 3.0524327784e+00 5.2869686589e+00 
44900 5.9689661227e+00 -1.7338136255e-02 3.0527191284e+00 -5.2874646316e+00 3.0527191284e+00 5.2874646316e+00 
45000 5.9689609097e+00 -1.7196379560e-02 3.0530031114e+00 -5.2879565046e+00 3.0530031114e+00 5.2879565046e+00 
45100 5.9689557966e+00 -1.7055731836e-02 3.0532847463e+00 -5.2884443105e+00 3.0532847463e+00 5.2884443105e+00 
45200 5.9689507816e+00 -1.6916185451e-02 3.0535640519e+00 -5.2889280820e+00 3.0535640519e+00 5.2889280820e+00 
45300 5.9689458628e+00 -1.6777732768e-02 3.0538410469e+00 -5.2894078515e+00 3.0538410469e+00 5.2894078515e+00 
45400 5.9689410383e+00 -1.6640366141e-02 3.0541157499e+00 -5.2898836510e+00 3.0541157499e+00 5.2898836510e+00 
45500 5.9689363064e+00 -1.6504077924e-02 3.0543881792e+00 -5.2903555124e+00 3.0543881792e+00 5.2903555124e+00 
45600 5.9689316654e+00 -1.6368860474e-02 3.0546583531e+00 -5.2908234674e+00 3.0546583531e+00 5.2908234674e+00 
45700 5.9689271134e+00 -1.6234706153e-02 3.0549262898e+00 -5.2912875473e+00 3.0549262898e+00 5.2912875473e+00 
45800 5.9689226488e+00 -1.6101607335e-02 3.0551920072e+00 -5.2917477833e+00 3.0551920072e+00 5.2917477833e+00 
45900 5.9689182699e+00 -1.5969556409e-02 3.0554555232e+00 -5.2922042064e+00 3.0554555232e+00 5.2922042064e+00 
46000 5.9689139750e+00 -1.5838545782e-02 3.0557168555e+00 -5.2926568472e+00 3.0557168555e+00 5.2926568472e+00 
46100 5.9689097627e+00 -1.5708567881e-02 3.0559760217e+00 -5.2931057362e+00 3.0559760217e+00 5.2931057362e+00 
46200 5.9689056312e+00 -1.5579615158e-02 3.0562330392e+00 -5.2935509037e+00 3.0562330392e+00 5.2935509037e+00 
46300 5.9689015791e+00 -1.5451680094e-02 3.0564879254e+00 -5.2939923795e+00 3.0564879254e+00 5.2939923795e+00 
46400 5.9688976048e+00 -1.5324755200e-02 3.0567406974e+00 -5.2944301935e+00 3.0567406974e+00 5.2944301935e+00 
46500 5.9688937069e+00 -1.5198833019e-02 3.0569913723e+00 -5.2948643752e+00 3.0569913723e+00 5.2948643752e+00 
46600 5.9688898839e+00 -1.5073906130e-02 3.0572399671e+00 -5.2952949539e+00 3.0572399671e+00 5.2952949539e+00 
46700 5.9688861343e+00 -1.4949967151e-02 3.0574864984e+00 -5.2957219587e+00 3.0574864984e+00 5.2957219587e+00 
46800 5.9688824568e+00 -1.4827008739e-02 3.0577309830e+00 -5.2961454184e+00 3.0577309830e+00 5.2961454184e+00 
46900 5.9688788500e+00 -1.4705023595e-02 3.0579734373e+00 -5.2965653617e+00 3.0579734373e+00 5.2965653617e+00 
47000 5.9688753125e+00 -1.4584004462e-02 3.0582138779e+00 -5.2969818169e+00 3.0582138779e+00 5.2969818169e+00 
47100 5.9688718430e+00 -1.4463944130e-02 3.0584523209e+00 -5.2973948123e+00 3.0584523209e+00 5.2973948123e+00 
47200 5.9688684403e+00 -1.4344835436e-02 3.0586887825e+00 -5.2978043758e+00 3.0586887825e+00 5.2978043758e+00 
47300 5.9688651029e+00 -1.4226671266e-02 3.0589232787e+00 -5.2982105352e+00 3.0589232787e+00 5.2982105352e+00 
47400 5.9688618297e+00 -1.4109444556e-02 3.0591558254e+00 -5.2986133179e+00 3.0591558254e+00 5.2986133179e+00 
47500 5.9688586195e+00 -1.3993148293e-02 3.0593864384e+00 -5.2990127513e+00 3.0593864384e+00 5.2990127513e+00 
47600 5.9688554711e+00 -1.3877775517e-02 3.0596151333e+00 -5.2994088626e+00 3.0596151333e+00 5.2994088626e+00 
47700 5.9688523831e+00 -1.3763319321e-02 3.0598419257e+00 -5.2998016785e+00 3.0598419257e+00 5.2998016785e+00 
47800 5.9688493546e+00 -1.3649772850e-02 3.0600668309e+00 -5.3001912257e+00 3.0600668309e+00 5.3001912257e+00 
47900 5.9688463844e+00 -1.3537129306e-02 3.0602898643e+00 -5.3005775308e+00 3.0602898643e+00 5.3005775308e+00 
48000 5.9688434713e+00 -1.3425381945e-02 3.0605110409e+00 -5.3009606200e+00 3.0605110409e+00 5.3009606200e+00 
48100 5.9688406142e+00 -1.3314524078e-02 3.0607303759e+00 -5.3013405193e+00 3.0607303759e+00 5.3013405193e+00 
48200 5.9688378121e+00 -1.3204549072e-02 3.0609478841e+00 -5.3017172546e+00 3.0609478841e+00 5.3017172546e+00 
48300 5.9688350640e+00 -1.3095450352e-02 3.0611635804e+00 -5.3020908516e+00 3.0611635804e+00 5.3020908516e+00 
48400 5.9688323687e+00 -1.2987221395e-02 3.0613774795e+00 -5.3024613357e+00 3.0613774795e+00 5.3024613357e+00 
48500 5.9688297253e+00 -1.2879855738e-02 3.0615895960e+00 -5.3028287322e+00 3.0615895960e+00 5.3028287322e+00 
48600 5.9688271327e+00 -1.2773346972e-02 3.0617999443e+00 -5.3031930661e+00 3.0617999443e+00 5.3031930661e+00 
48700 5.9688245901e+00 -1.2667688743e-02 3.0620085388e+00 -5.3035543624e+00 3.0620085388e+00 5.3035543624e+00 
48800 5.9688220964e+00 -1.2562874755e-02 3.0622153937e+00 -5.3039126457e+00 3.0622153937e+00 5.3039126457e+00 
48900 5.9688196507e+00 -1.2458898766e-02 3.0624205232e+00 -5.3042679404e+00 3.0624205232e+00 5.3042679404e+00 
49000 5.9688172521e+00 -1.2355754589e-02 3.0626239414e+00 -5.3046202709e+00 3.0626239414e+00 5.3046202709e+00 
49100 5.9688148996e+00 -1.2253436092e-02 3.0628256620e+00 -5.3049696613e+00 3.0628256620e+00 5.3049696613e+00 
49200 5.9688125925e+00 -1.2151937195e-02 3.0630256990e+00 -5.3053161356e+00 3.0630256990e+00 5.3053161356e+00 
49300 5.9688103297e+00 -1.2051251875e-02 3.0632240661e+00 -5.3056597174e+00 3.0632240661e+00 5.3056597174e+00 
49400 5.9688081105e+00 -1.1951374159e-02 3.0634207768e+00 -5.3060004304e+00 3.0634207768e+00 5.3060004304e+00 
49500 5.9688059340e+00 -1.1852298128e-02 3.0636158447e+00 -5.3063382979e+00 3.0636158447e+00 5.3063382979e+00 
49600 5.9688037994e+00 -1.1754017912e-02 3.0638092832e+00 -5.3066733432e+00 3.0638092832e+00 5.3066733432e+00 
49700 5.9688017059e+00 -1.1656527695e-02 3.0640011055e+00 -5.3070055892e+00 3.0640011055e+00 5.3070055892e+00 
49800 5.9687996527e+00 -1.1559821708e-02 3.0641913249e+00 -5.3073350588e+00 3.0641913249e+00 5.3073350588e+00 
49900 5.9687976390e+00 -1.1463894234e-02 3.0643799544e+00 -5.3076617748e+00 3.0643799544e+00 5.3076617748e+00 
50000 5.9687956641e+00 -1.1368739602e-02 3.0645670071e+00 -5.3079857596e+00 3.0645670071e+00 5.3079857596e+00 
50100 5.9687937272e+00 -1.1274352190e-02 3.0647524959e+00 -5.3083070355e+00 3.0647524959e+00 5.3083070355e+00 
50200 5.9687918276e+00 -1.1180726422e-02 3.0649364335e+00 -5.3086256248e+00 3.0649364335e+00 5.3086256248e+00 
50300 5.9687899646e+00 -1.1087856768e-02 3.0651188327e+00 -5.3089415494e+00 3.0651188327e+00 5.3089415494e+00 
50400 5.9687881374e+00 -1.0995737743e-02 3.0652997060e+00 -5.3092548312e+00 3.0652997060e+00 5.3092548312e+00 
50500 5.9687863454e+00 -1.0904363906e-02 3.0654790660e+00 -5.3095654919e+00 3.0654790660e+00 5.3095654919e+00 
50600 5.9687845878e+00 -1.0813729858e-02 3.0656569252e+00 -5.3098735530e+00 3.0656569252e+00 5.3098735530e+00 
50700 5.9687828642e+00 -1.0723830244e-02 3.0658332958e+00 -5.3101790358e+00 3.0658332958e+00 5.3101790358e+00 
50800 5.9687811736e+00 -1.0634659748e-02 3.0660081900e+00 -5.3104819615e+00 3.0660081900e+00 5.3104819615e+00 
50900 5.9687795156e+00 -1.0546213096e-02 3.0661816201e+00 -5.3107823512e+00 3.0661816201e+00 5.3107823512e+00 
51000 5.9687778896e+00 -1.0458485053e-02 3.0663535980e+00 -5.3110802257e+00 3.0663535980e+00 5.3110802257e+00 
51100 5.9687762948e+00 -1.0371470422e-02 3.0665241358e+00 -5.3113756058e+00 3.0665241358e+00 5.3113756058e+00 
51200 5.9687747307e+00 -1.0285164043e-02 3.0666932453e+00 -5.3116685120e+00 3.0666932453e+00 5.3116685120e+00 
51300 5.9687731967e+00 -1.0199560794e-02 3.0668609382e+00 -5.3119589647e+00 3.0668609382e+00 5.3119589647e+00 
51400 5.9687716922e+00 -1.0114655588e-02 3.0670272264e+00 -5.3122469843e+00 3.0670272264e+00 5.3122469843e+00 
51500 5.9687702167e+00 -1.0030443372e-02 3.0671921213e+00 -5.3125325907e+00 3.0671921213e+00 5.3125325907e+00 
51600 5.9687687696e+00 -9.9469191282e-03 3.0673556346e+00 -5.3128158040e+00 3.0673556346e+00 5.3128158040e+00 
51700 5.9687673503e+00 -9.8640778716e-03 3.0675177776e+00 -5.3130966440e+00 3.0675177776e+00 5.3130966440e+00 
51800 5.9687659583e+00 -9.7819146493e-03 3.0676785618e+00 -5.3133751303e+00 3.0676785618e+00 5.3133751303e+00 
51900 5.9687645932e+00 -9.7004245398e-03 3.0678379983e+00 -5.3136512824e+00 3.0678379983e+00 5.3136512824e+00 
52000 5.9687632542e+00 -9.6196026525e-03 3.0679960983e+00 -5.3139251198e+00 3.0679960983e+00 5.3139251198e+00 
52100 5.9687619411e+00 -9.5394441267e-03 3.0681528731e+00 -5.3141966615e+00 3.0681528731e+00 5.3141966615e+00 
52200 5.9687606532e+00 -9.4599441308e-03 3.0683083335e+00 -5.3144659268e+00 3.0683083335e+00 5.3144659268e+00 
52300 5.9687593901e+00 -9.3810978617e-03 3.0684624904e+00 -5.3147329346e+00 3.0684624904e+00 5.3147329346e+00 
52400 5.9687581513e+00 -9.3029005440e-03 3.0686153549e+00 -5.3149977035e+00 3.0686153549e+00 5.3149977035e+00 
52500 5.9687569363e+00 -9.2253474295e-03 3.0687669375e+00 -5.3152602524e+00 3.0687669375e+00 5.3152602524e+00 
52600 5.9687557447e+00 -9.1484337964e-03 3.0689172491e+00 -5.3155205996e+00 3.0689172491e+00 5.3155205996e+00 
52700 5.9687545760e+00 -9.0721549487e-03 3.0690663002e+00 -5.3157787637e+00 3.0690663002e+00 5.3157787637e+00 
52800 5.9687534298e+00 -8.9965062156e-03 3.0692141013e+00 -5.3160347627e+00 3.0692141013e+00 5.3160347627e+00 
52900 5.9687523057e+00 -8.9214829511e-03 3.0693606628e+00 -5.3162886148e+00 3.0693606628e+00 5.3162886148e+00 
53000 5.9687512032e+00 -8.8470805331e-03 3.0695059953e+00 -5.3165403380e+00 3.0695059953e+00 5.3165403380e+00 
53100 5.9687501219e+00 -8.7732943634e-03 3.0696501089e+00 -5.3167899500e+00 3.0696501089e+00 5.3167899500e+00 
53200 5.9687490615e+00 -8.7001198667e-03 3.0697930138e+00 -5.3170374686e+00 3.0697930138e+00 5.3170374686e+00 
53300 5.9687480214e+00 -8.6275524905e-03 3.0699347202e+00 -5.3172829113e+00 3.0699347202e+00 5.3172829113e+00 
53400 5.9687470013e+00 -8.5555877044e-03 3.0700752381e+00 -5.3175262955e+00 3.0700752381e+00 5.3175262955e+00 
53500 5.9687460009e+00 -8.4842210002e-03 3.0702145776e+00 -5.3177676385e+00 3.0702145776e+00 5.3177676385e+00 
53600 5.9687450198e+00 -8.4134478907e-03 3.0703527485e+00 -5.3180069575e+00 3.0703527485e+00 5.3180069575e+00 
53700 5.9687440575e+00 -8.3432639102e-03 3.0704897606e+00 -5.3182442695e+00 3.0704897606e+00 5.3182442695e+00 
53800 5.9687431137e+00 -8.2736646136e-03 3.0706256237e+00 -5.3184795913e+00 3.0706256237e+00 5.3184795913e+00 
53900 5.9687421881e+00 -8.2046455765e-03 3.0707603475e+00 -5.3187129397e+00 3.0707603475e+00 5.3187129397e+00 
54000 5.9687412804e+00 -8.1362023944e-03 3.0708939415e+00 -5.3189443313e+00 3.0708939415e+00 5.3189443313e+00 
54100 5.9687403901e+00 -8.0683306832e-03 3.0710264153e+00 -5.3191737827e+00 3.0710264153e+00 5.3191737827e+00 
54200 5.9687395169e+00 -8.0010260784e-03 3.0711577784e+00 -5.3194013102e+00 3.0711577784e+00 5.3194013102e+00 
54300 5.9687386606e+00 -7.9342842350e-03 3.0712880400e+00 -5.3196269300e+00 3.0712880400e+00 5.3196269300e+00 
54400 5.9687378208e+00 -7.8681008276e-03 3.0714172096e+00 -5.3198506583e+00 3.0714172096e+00 5.3198506583e+00 
54500 5.9687369971e+00 -7.8024715500e-03 3.0715452963e+00 -5.3200725110e+00 3.0715452963e+00 5.3200725110e+00 
54600 5.9687361894e+00 -7.7373921152e-03 3.0716723094e+00 -5.3202925040e+00 3.0716723094e+00 5.3202925040e+00 
54700 5.9687353972e+00 -7.6728582551e-03 3.0717982578e+00 -5.3205106531e+00 3.0717982578e+00 5.3205106531e+00 
54800 5.9687346202e+00 -7.6088657208e-03 3.0719231506e+00 -5.3207269738e+00 3.0719231506e+00 5.3207269738e+00 
54900 5.9687338583e+00 -7.5454102821e-03 3.0720469967e+00 -5.3209414816e+00 3.0720469967e+00 5.3209414816e+00 
55000 5.9687331110e+00 -7.4824877278e-03 3.0721698051e+00 -5.3211541919e+00 3.0721698051e+00 5.3211541919e+00 
55100 5.9687323782e+00 -7.4200938655e-03 3.0722915844e+00 -5.3213651199e+00 3.0722915844e+00 5.3213651199e+00 
55200 5.9687316595e+00 -7.3582245217e-03 3.0724123435e+00 -5.3215742808e+00 3.0724123435e+00 5.3215742808e+00 
55300 5.9687309546e+00 -7.2968755416e-03 3.0725320910e+00 -5.3217816895e+00 3.0725320910e+00 5.3217816895e+00 
55400 5.9687302634e+00 -7.2360427896e-03 3.0726508354e+00 -5.3219873609e+00 3.0726508354e+00 5.3219873609e+00 
55500 5.9687295855e+00 -7.1757221486e-03 3.0727685854e+00 -5.3221913098e+00 3.0727685854e+00 5.3221913098e+00 
55600 5.9687289207e+00 -7.1159095209e-03 3.0728853493e+00 -5.3223935508e+00 3.0728853493e+00 5.3223935508e+00 
55700 5.9687282688e+00 -7.0566008277e-03 3.0730011355e+00 -5.3225940983e+00 3.0730011355e+00 5.3225940983e+00 
55800 5.9687276294e+00 -6.9977920092e-03 3.0731159523e+00 -5.3227929669e+00 3.0731159523e+00 5.3227929669e+00 
55900 5.9687270025e+00 -6.9394790253e-03 3.0732298080e+00 -5.3229901708e+00 3.0732298080e+00 5.3229901708e+00 
56000 5.9687263876e+00 -6.8816578548e-03 3.0733427107e+00 -5.3231857241e+00 3.0733427107e+00 5.3231857241e+00 
56100 5.9687257847e+00 -6.8243244963e-03 3.0734546686e+00 -5.3233796408e+00 3.0734546686e+00 5.3233796408e+00 
56200 5.9687251934e+00 -6.7674749678e-03 3.0735656897e+00 -5.3235719350e+00 3.0735656897e+00 5.3235719350e+00 
56300 5.9687246136e+00 -6.7111053074e-03 3.0736757820e+00 -5.3237626204e+00 3.0736757820e+00 5.3237626204e+00 
56400 5.9687240450e+00 -6.6552115727e-03 3.0737849533e+00 -5.3239517106e+00 3.0737849533e+00 5.3239517106e+00 
56500 5.9687234874e+00 -6.5997898417e-03 3.0738932115e+00 -5.3241392194e+00 3.0738932115e+00 5.3241392194e+00 
56600 5.9687229407e+00 -6.5448362125e-03 3.0740005644e+00 -5.3243251601e+00 3.0740005644e+00 5.3243251601e+00 
56700 5.9687224045e+00 -6.4903468036e-03 3.0741070198e+00 -5.3245095461e+00 3.0741070198e+00 5.3245095461e+00 
56800 5.9687218788e+00 -6.4363177543e-03 3.0742125851e+00 -5.3246923907e+00 3.0742125851e+00 5.3246923907e+00 
56900 5.9687213633e+00 -6.3827452243e-03 3.0743172681e+00 -5.3248737069e+00 3.0743172681e+00 5.3248737069e+00 
57000 5.9687208578e+00 -6.3296253945e-03 3.0744210762e+00 -5.3250535078e+00 3.0744210762e+00 5.3250535078e+00 
57100 5.9687203621e+00 -6.2769544668e-03 3.0745240169e+00 -5.3252318063e+00 3.0745240169e+00 5.3252318063e+00 
57200 5.9687198761e+00 -6.2247286647e-03 3.0746260976e+00 -5.3254086152e+00 3.0746260976e+00 5.3254086152e+00 
57300 5.9687193995e+00 -6.1729442329e-03 3.0747273255e+00 -5.3255839472e+00 3.0747273255e+00 5.3255839472e+00 
57400 5.9687189323e+00 -6.1215974378e-03 3.0748277080e+00 -5.3257578148e+00 3.0748277080e+00 5.3257578148e+00 
57500 5.9687184741e+00 -6.0706845680e-03 3.0749272523e+00 -5.3259302306e+00 3.0749272523e+00 5.3259302306e+00 
57600 5.9687180249e+00 -6.0202019339e-03 3.0750259655e+00 -5.3261012069e+00 3.0750259655e+00 5.3261012069e+00 
57700 5.9687175845e+00 -5.9701458683e-03 3.0751238547e+00 -5.3262707558e+00 3.0751238547e+00 5.3262707558e+00 
57800 5.9687171527e+00 -5.9205127264e-03 3.0752209268e+00 -5.3264388897e+00 3.0752209268e+00 5.3264388897e+00 
57900 5.9687167293e+00 -5.8712988861e-03 3.0753171889e+00 -5.3266056205e+00 3.0753171889e+00 5.3266056205e+00 
58000 5.9687163142e+00 -5.8225007481e-03 3.0754126478e+00 -5.3267709603e+00 3.0754126478e+00 5.3267709603e+00 
58100 5.9687159072e+00 -5.7741147363e-03 3.0755073104e+00 -5.3269349207e+00 3.0755073104e+00 5.3269349207e+00 
58200 5.9687155083e+00 -5.7261372975e-03 3.0756011834e+00 -5.3270975135e+00 3.0756011834e+00 5.3270975135e+00 
58300 5.9687151171e+00 -5.6785649020e-03 3.0756942736e+00 -5.3272587505e+00 3.0756942736e+00 5.3272587505e+00 
58400 5.9687147337e+00 -5.6313940437e-03 3.0757865876e+00 -5.3274186430e+00 3.0757865876e+00 5.3274186430e+00 
58500 5.9687143578e+00 -5.5846212401e-03 3.0758781321e+00 -5.3275772026e+00 3.0758781321e+00 5.3275772026e+00 
58600 5.9687139893e+00 -5.5382430327e-03 3.0759689134e+00 -5.3277344406e+00 3.0759689134e+00 5.3277344406e+00 
58700 5.9687136280e+00 -5.4922559869e-03 3.0760589382e+00 -5.3278903681e+00 3.0760589382e+00 5.3278903681e+00 
58800 5.9687132739e+00 -5.4466566922e-03 3.0761482129e+00 -5.3280449964e+00 3.0761482129e+00 5.3280449964e+00 
58900 5.9687129268e+00 -5.4014417626e-03 3.0762367438e+00 -5.3281983364e+00 3.0762367438e+00 5.3281983364e+00 
59000 5.9687125866e+00 -5.3566078364e-03 3.0763245372e+00 -5.3283503990e+00 3.0763245372e+00 5.3283503990e+00 
59100 5.9687122530e+00 -5.3121515766e-03 3.0764115994e+00 -5.3285011952e+00 3.0764115994e+00 5.3285011952e+00 
59200 5.9687119261e+00 -5.2680696707e-03 3.0764979367e+00 -5.3286507357e+00 3.0764979367e+00 5.3286507357e+00 
59300 5.9687116057e+00 -5.2243588311e-03 3.0765835550e+00 -5.3287990310e+00 3.0765835550e+00 5.3287990310e+00 
59400 5.9687112917e+00 -5.1810157952e-03 3.0766684606e+00 -5.3289460918e+00 3.0766684606e+00 5.3289460918e+00 
59500 5.9687109839e+00 -5.1380373253e-03 3.0767526595e+00 -5.3290919285e+00 3.0767526595e+00 5.3290919285e+00 
59600 5.9687106822e+00 -5.0954202088e-03 3.0768361576e+00 -5.3292365515e+00 3.0768361576e+00 5.3292365515e+00 
59700 5.9687103866e+00 -5.0531612584e-03 3.0769189609e+00 -5.3293799710e+00 3.0769189609e+00 5.3293799710e+00 
59800 5.9687100968e+00 -5.0112573120e-03 3.0770010752e+00 -5.3295221972e+00 3.0770010752e+00 5.3295221972e+00 
59900 5.9687098129e+00 -4.9697052327e-03 3.0770825064e+00 -5.3296632402e+00 3.0770825064e+00 5.3296632402e+00 
60000 5.9687095347e+00 -4.9285019092e-03 3.0771632603e+00 -5.3298031101e+00 3.0771632603e+00 5.3298031101e+00 
60100 5.9687092620e+00 -4.8876442555e-03 3.0772433426e+00 -5.3299418166e+00 3.0772433426e+00 5.3299418166e+00 
60200 5.9687089948e+00 -4.8471292112e-03 3.0773227589e+00 -5.3300793696e+00 3.0773227589e+00 5.3300793696e+00 
60300 5.9687087330e+00 -4.8069537413e-03 3.0774015148e+00 -5.3302157790e+00 3.0774015148e+00 5.3302157790e+00 
60400 5.9687084765e+00 -4.7671148364e-03 3.0774796160e+00 -5.3303510542e+00 3.0774796160e+00 5.3303510542e+00 
60500 5.9687082252e+00 -4.7276095127e-03 3.0775570679e+00 -5.3304852049e+00 3.0775570679e+00 5.3304852049e+00 
60600 5.9687079789e+00 -4.6884348118e-03 3.0776338761e+00 -5.3306182405e+00 3.0776338761e+00 5.3306182405e+00 
60700 5.9687077377e+00 -4.6495878010e-03 3.0777100459e+00 -5.3307501704e+00 3.0777100459e+00 5.3307501704e+00 
60800 5.9687075013e+00 -4.6110655732e-03 3.0777855827e+00 -5.3308810040e+00 3.0777855827e+00 5.3308810040e+00 
60900 5.9687072698e+00 -4.5728652468e-03 3.0778604918e+00 -5.3310107504e+00 3.0778604918e+00 5.3310107504e+00 
61000 5.9687070429e+00 -4.5349839656e-03 3.0779347785e+00 -5.3311394188e+00 3.0779347785e+00 5.3311394188e+00 
61100 5.9687068208e+00 -4.4974188991e-03 3.0780084481e+00 -5.3312670182e+00 3.0780084481e+00 5.3312670182e+00 
61200 5.9687066031e+00 -4.4601672421e-03 3.0780815056e+00 -5.3313935576e+00 3.0780815056e+00 5.3313935576e+00 
61300 5.9687063899e+00 -4.4232262148e-03 3.0781539564e+00 -5.3315190460e+00 3.0781539564e+00 5.3315190460e+00 
61400 5.9687061811e+00 -4.3865930628e-03 3.0782258053e+00 -5.3316434920e+00 3.0782258053e+00 5.3316434920e+00 
61500 5.9687059766e+00 -4.3502650570e-03 3.0782970576e+00 -5.3317669045e+00 3.0782970576e+00 5.3317669045e+00 
61600 5.9687057764e+00 -4.3142394934e-03 3.0783677181e+00 -5.3318892921e+00 3.0783677181e+00 5.3318892921e+00 
61700 5.9687055802e+00 -4.2785136931e-03 3.0784377919e+00 -5.3320106634e+00 3.0784377919e+00 5.3320106634e+00 
61800 5.9687053882e+00 -4.2430850025e-03 3.0785072838e+00 -5.3321310269e+00 3.0785072838e+00 5.3321310269e+00 
61900 5.9687052001e+00 -4.2079507926e-03 3.0785761987e+00 -5.3322503911e+00 3.0785761987e+00 5.3322503911e+00 
62000 5.9687050160e+00 -4.1731084596e-03 3.0786445414e+00 -5.3323687642e+00 3.0786445414e+00 5.3323687642e+00 
62100 5.9687048356e+00 -4.1385554240e-03 3.0787123167e+00 -5.3324861545e+00 3.0787123167e+00 5.3324861545e+00 
62200 5.9687046591e+00 -4.1042891313e-03 3.0787795294e+00 -5.3326025703e+00 3.0787795294e+00 5.3326025703e+00 
62300 5.9687044863e+00 -4.0703070515e-03 3.0788461842e+00 -5.3327180196e+00 3.0788461842e+00 5.3327180196e+00 
62400 5.9687043171e+00 -4.0366066786e-03 3.0789122856e+00 -5.3328325106e+00 3.0789122856e+00 5.3328325106e+00 
62500 5.9687041515e+00 -4.0031855313e-03 3.0789778383e+00 -5.3329460513e+00 3.0789778383e+00 5.3329460513e+00 
62600 5.9687039894e+00 -3.9700411521e-03 3.0790428469e+00 -5.3330586494e+00 3.0790428469e+00 5.3330586494e+00 
62700 5.9687038307e+00 -3.9371711076e-03 3.0791073158e+00 -5.3331703130e+00 3.0791073158e+00 5.3331703130e+00 
62800 5.9687036754e+00 -3.9045729883e-03 3.0791712497e+00 -5.3332810497e+00 3.0791712497e+00 5.3332810497e+00 
62900 5.9687035234e+00 -3.8722444081e-03 3.0792346529e+00 -5.3333908673e+00 3.0792346529e+00 5.3333908673e+00 
63000 5.9687033747e+00 -3.8401830045e-03 3.0792975299e+00 -5.3334997733e+00 3.0792975299e+00 5.3334997733e+00 
63100 5.9687032291e+00 -3.8083864386e-03 3.0793598849e+00 -5.3336077755e+00 3.0793598849e+00 5.3336077755e+00 
63200 5.9687030867e+00 -3.7768523943e-03 3.0794217224e+00 -5.3337148812e+00 3.0794217224e+00 5.3337148812e+00 
63300 5.9687029474e+00 -3.7455785787e-03 3.0794830467e+00 -5.3338210979e+00 3.0794830467e+00 5.3338210979e+00 
63400 5.9687028111e+00 -3.7145627217e-03 3.0795438619e+00 -5.3339264330e+00 3.0795438619e+00 5.3339264330e+00 
63500 5.9687026778e+00 -3.6838025758e-03 3.0796041724e+00 -5.3340308938e+00 3.0796041724e+00 5.3340308938e+00 
63600 5.9687025473e+00 -3.6532959159e-03 3.0796639823e+00 -5.3341344876e+00 3.0796639823e+00 5.3341344876e+00 
63700 5.9687024197e+00 -3.6230405393e-03 3.0797232957e+00 -5.3342372214e+00 3.0797232957e+00 5.3342372214e+00 
63800 5.9687022949e+00 -3.5930342652e-03 3.0797821168e+00 -5.3343391025e+00 3.0797821168e+00 5.3343391025e+00 
63900 5.9687021729e+00 -3.5632749349e-03 3.0798404496e+00 -5.3344401378e+00 3.0798404496e+00 5.3344401378e+00 
64000 5.9687020536e+00 -3.5337604113e-03 3.0798982981e+00 -5.3345403345e+00 3.0798982981e+00 5.3345403345e+00 
64100 5.9687019369e+00 -3.5044885786e-03 3.0799556664e+00 -5.3346396993e+00 3.0799556664e+00 5.3346396993e+00 
64200 5.9687018228e+00 -3.4754573425e-03 3.0800125585e+00 -5.3347382392e+00 3.0800125585e+00 5.3347382392e+00 
64300 5.9687017113e+00 -3.4466646298e-03 3.0800689782e+00 -5.3348359610e+00 3.0800689782e+00 5.3348359610e+00 
64400 5.9687016023e+00 -3.4181083879e-03 3.0801249294e+00 -5.3349328714e+00 3.0801249294e+00 5.3349328714e+00 
64500 5.9687014957e+00 -3.3897865852e-03 3.0801804161e+00 -5.3350289772e+00 3.0801804161e+00 5.3350289772e+00 
64600 5.9687013915e+00 -3.3616972103e-03 3.0802354421e+00 -5.3351242849e+00 3.0802354421e+00 5.3351242849e+00 
64700 5.9687012897e+00 -3.3338382721e-03 3.0802900111e+00 -5.3352188012e+00 3.0802900111e+00 5.3352188012e+00 
64800 5.9687011903e+00 -3.3062077997e-03 3.0803441269e+00 -5.3353125325e+00 3.0803441269e+00 5.3353125325e+00 
64900 5.9687010931e+00 -3.2788038417e-03 3.0803977932e+00 -5.3354054854e+00 3.0803977932e+00 5.3354054854e+00 
65000 5.9687009981e+00 -3.2516244666e-03 3.0804510139e+00 -5.3354976662e+00 3.0804510139e+00 5.3354976662e+00 
65100 5.9687009054e+00 -3.2246677620e-03 3.0805037924e+00 -5.3355890813e+00 3.0805037924e+00 5.3355890813e+00 
65200 5.9687008148e+00 -3.1979318350e-03 3.0805561325e+00 -5.3356797370e+00 3.0805561325e+00 5.3356797370e+00 
65300 5.9687007263e+00 -3.1714148114e-03 3.0806080377e+00 -5.3357696395e+00 3.0806080377e+00 5.3357696395e+00 
65400 5.9687006399e+00 -3.1451148357e-03 3.0806595117e+00 -5.3358587951e+00 3.0806595117e+00 5.3358587951e+00 
65500 5.9687005555e+00 -3.1190300712e-03 3.0807105580e+00 -5.3359472098e+00 3.0807105580e+00 5.3359472098e+00 
65600 5.9687004731e+00 -3.0931586992e-03 3.0807611800e+00 -5.3360348898e+00 3.0807611800e+00 5.3360348898e+00 
65700 5.9687003927e+00 -3.0674989192e-03 3.0808113814e+00 -5.3361218411e+00 3.0808113814e+00 5.3361218411e+00 
65800 5.9687003142e+00 -3.0420489487e-03 3.0808611655e+00 -5.3362080697e+00 3.0808611655e+00 5.3362080697e+00 
65900 5.9687002376e+00 -3.0168070227e-03 3.0809105357e+00 -5.3362935814e+00 3.0809105357e+00 5.3362935814e+00 
66000 5.9687001629e+00 -2.9917713935e-03 3.0809594955e+00 -5.3363783823e+00 3.0809594955e+00 5.3363783823e+00 
66100 5.9687000900e+00 -2.9669403311e-03 3.0810080482e+00 -5.3364624781e+00 3.0810080482e+00 5.3364624781e+00 
66200 5.9687000188e+00 -2.9423121219e-03 3.0810561972e+00 -5.3365458745e+00 3.0810561972e+00 5.3365458745e+00 
66300 5.9686999494e+00 -2.9178850696e-03 3.0811039458e+00 -5.3366285775e+00 3.0811039458e+00 5.3366285775e+00 
66400 5.9686998817e+00 -2.8936574943e-03 3.0811512972e+00 -5.3367105925e+00 3.0811512972e+00 5.3367105925e+00 
66500 5.9686998157e+00 -2.8696277325e-03 3.0811982547e+00 -5.3367919253e+00 3.0811982547e+00 5.3367919253e+00 
66600 5.9686997514e+00 -2.8457941367e-03 3.0812448216e+00 -5.3368725815e+00 3.0812448216e+00 5.3368725815e+00 
66700 5.9686996887e+00 -2.8221550756e-03 3.0812910010e+00 -5.3369525666e+00 3.0812910010e+00 5.3369525666e+00 
66800 5.9686996275e+00 -2.7987089336e-03 3.0813367961e+00 -5.3370318861e+00 3.0813367961e+00 5.3370318861e+00 
66900 5.9686995679e+00 -2.7754541107e-03 3.0813822101e+00 -5.3371105454e+00 3.0813822101e+00 5.3371105454e+00 
67000 5.9686995099e+00 -2.7523890221e-03 3.0814272461e+00 -5.3371885500e+00 3.0814272461e+00 5.3371885500e+00 
67100 5.9686994534e+00 -2.7295120982e-03 3.0814719071e+00 -5.3372659052e+00 3.0814719071e+00 5.3372659052e+00 
67200 5.9686993983e+00 -2.7068217845e-03 3.0815161963e+00 -5.3373426164e+00 3.0815161963e+00 5.3373426164e+00 
67300 5.9686993447e+00 -2.6843165412e-03 3.0815601167e+00 -5.3374186887e+00 3.0815601167e+00 5.3374186887e+00 
67400 5.9686992924e+00 -2.6619948429e-03 3.0816036713e+00 -5.3374941275e+00 3.0816036713e+00 5.3374941275e+00 
67500 5.9686992416e+00 -2.6398551788e-03 3.0816468631e+00 -5.3375689379e+00 3.0816468631e+00 5.3375689379e+00 
67600 5.9686991922e+00 -2.6178960522e-03 3.0816896951e+00 -5.3376431251e+00 3.0816896951e+00 5.3376431251e+00 
67700 5.9686991440e+00 -2.5961159803e-03 3.0817321702e+00 -5.3377166942e+00 3.0817321702e+00 5.3377166942e+00 
67800 5.9686990972e+00 -2.5745134943e-03 3.0817742914e+00 -5.3377896501e+00 3.0817742914e+00 5.3377896501e+00 
67900 5.9686990517e+00 -2.5530871388e-03 3.0818160615e+00 -5.3378619980e+00 3.0818160615e+00 5.3378619980e+00 
68000 5.9686990074e+00 -2.5318354722e-03 3.0818574834e+00 -5.3379337429e+00 3.0818574834e+00 5.3379337429e+00 
68100 5.9686989644e+00 -2.5107570657e-03 3.0818985599e+00 -5.3380048895e+00 3.0818985599e+00 5.3380048895e+00 
68200 5.9686989226e+00 -2.4898505040e-03 3.0819392939e+00 -5.3380754429e+00 3.0819392939e+00 5.3380754429e+00 
68300 5.9686988819e+00 -2.4691143845e-03 3.0819796882e+00 -5.3381454079e+00 3.0819796882e+00 5.3381454079e+00 
68400 5.9686988425e+00 -2.4485473174e-03 3.0820197456e+00 -5.3382147893e+00 3.0820197456e+00 5.3382147893e+00 
68500 5.9686988041e+00 -2.4281479256e-03 3.0820594688e+00 -5.3382835919e+00 3.0820594688e+00 5.3382835919e+00 
68600 5.9686987669e+00 -2.4079148442e-03 3.0820988605e+00 -5.3383518203e+00 3.0820988605e+00 5.3383518203e+00 
68700 5.9686987308e+00 -2.3878467207e-03 3.0821379235e+00 -5.3384194794e+00 3.0821379235e+00 5.3384194794e+00 
68800 5.9686986958e+00 -2.3679422146e-03 3.0821766604e+00 -5.3384865738e+00 3.0821766604e+00 5.3384865738e+00 
68900 5.9686986618e+00 -2.3481999975e-03 3.0822150740e+00 -5.3385531080e+00 3.0822150740e+00 5.3385531080e+00 
69000 5.9686986289e+00 -2.3286187527e-03 3.0822531668e+00 -5.3386190867e+00 3.0822531668e+00 5.3386190867e+00 
69100 5.9686985969e+00 -2.3091971749e-03 3.0822909415e+00 -5.3386845144e+00 3.0822909415e+00 5.3386845144e+00 
69200 5.9686985660e+00 -2.2899339706e-03 3.0823284007e+00 -5.3387493956e+00 3.0823284007e+00 5.3387493956e+00 
69300 5.9686985360e+00 -2.2708278574e-03 3.0823655469e+00 -5.3388137348e+00 3.0823655469e+00 5.3388137348e+00 
69400 5.9686985070e+00 -2.2518775643e-03 3.0824023828e+00 -5.3388775364e+00 3.0824023828e+00 5.3388775364e+00 
69500 5.9686984789e+00 -2.2330818311e-03 3.0824389108e+00 -5.3389408048e+00 3.0824389108e+00 5.3389408048e+00 
69600 5.9686984517e+00 -2.2144394086e-03 3.0824751335e+00 -5.3390035444e+00 3.0824751335e+00 5.3390035444e+00 
69700 5.9686984255e+00 -2.1959490584e-03 3.0825110534e+00 -5.3390657594e+00 3.0825110534e+00 5.3390657594e+00 
69800 5.9686984001e+00 -2.1776095527e-03 3.0825466730e+00 -5.3391274543e+00 3.0825466730e+00 5.3391274543e+00 
69900 5.9686983755e+00 -2.1594196742e-03 3.0825819947e+00 -5.3391886332e+00 3.0825819947e+00 5.3391886332e+00 
70000 5.9686983519e+00 -2.1413782159e-03 3.0826170209e+00 -5.3392493004e+00 3.0826170209e+00 5.3392493004e+00 
70100 5.9686983290e+00 -2.1234839811e-03 3.0826517541e+00 -5.3393094601e+00 3.0826517541e+00 5.3393094601e+00 
70200 5.9686983070e+00 -2.1057357831e-03 3.0826861966e+00 -5.3393691163e+00 3.0826861966e+00 5.3393691163e+00 
70300 5.9686982857e+00 -2.0881324453e-03 3.0827203509e+00 -5.3394282733e+00 3.0827203509e+00 5.3394282733e+00 
70400 5.9686982652e+00 -2.0706728010e-03 3.0827542193e+00 -5.3394869351e+00 3.0827542193e+00 5.3394869351e+00 
70500 5.9686982455e+00 -2.0533556931e-03 3.0827878042e+00 -5.3395451058e+00 3.0827878042e+00 5.3395451058e+00 
70600 5.9686982265e+00 -2.0361799742e-03 3.0828211078e+00 -5.3396027893e+00 3.0828211078e+00 5.3396027893e+00 
70700 5.9686982083e+00 -2.0191445064e-03 3.0828541325e+00 -5.3396599897e+00 3.0828541325e+00 5.3396599897e+00 
70800 5.9686981907e+00 -2.0022481614e-03 3.0828868805e+00 -5.3397167110e+00 3.0828868805e+00 5.3397167110e+00 
70900 5.9686981739e+00 -1.9854898198e-03 3.0829193541e+00 -5.3397729570e+00 3.0829193541e+00 5.3397729570e+00 
71000 5.9686981577e+00 -1.9688683717e-03 3.0829515556e+00 -5.3398287316e+00 3.0829515556e+00 5.3398287316e+00 
71100 5.9686981423e+00 -1.9523827162e-03 3.0829834872e+00 -5.3398840388e+00 3.0829834872e+00 5.3398840388e+00 
71200 5.9686981274e+00 -1.9360317614e-03 3.0830151512e+00 -5.3399388823e+00 3.0830151512e+00 5.3399388823e+00 
71300 5.9686981133e+00 -1.9198144242e-03 3.0830465496e+00 -5.3399932659e+00 3.0830465496e+00 5.3399932659e+00 
71400 5.9686980997e+00 -1.9037296303e-03 3.0830776846e+00 -5.3400471935e+00 3.0830776846e+00 5.3400471935e+00 
71500 5.9686980867e+00 -1.8877763143e-03 3.0831085585e+00 -5.3401006686e+00 3.0831085585e+00 5.3401006686e+00 
71600 5.9686980744e+00 -1.8719534191e-03 3.0831391734e+00 -5.3401536951e+00 3.0831391734e+00 5.3401536951e+00 
71700 5.9686980627e+00 -1.8562598962e-03 3.0831695314e+00 -5.3402062767e+00 3.0831695314e+00 5.3402062767e+00 
71800 5.9686980515e+00 -1.8406947057e-03 3.0831996345e+00 -5.3402584169e+00 3.0831996345e+00 5.3402584169e+00 
71900 5.9686980409e+00 -1.8252568156e-03 3.0832294850e+00 -5.3403101194e+00 3.0832294850e+00 5.3403101194e+00 
72000 5.9686980308e+00 -1.8099452026e-03 3.0832590848e+00 -5.3403613877e+00 3.0832590848e+00 5.3403613877e+00 
72100 5.9686980213e+00 -1.7947588513e-03 3.0832884360e+00 -5.3404122255e+00 3.0832884360e+00 5.3404122255e+00 
72200 5.9686980123e+00 -1.7796967543e-03 3.0833175407e+00 -5.3404626363e+00 3.0833175407e+00 5.3404626363e+00 
72300 5.9686980038e+00 -1.7647579124e-03 3.0833464008e+00 -5.3405126235e+00 3.0833464008e+00 5.3405126235e+00 
72400 5.9686979958e+00 -1.7499413342e-03 3.0833750184e+00 -5.3405621907e+00 3.0833750184e+00 5.3405621907e+00 
72500 5.9686979883e+00 -1.7352460361e-03 3.0834033955e+00 -5.3406113413e+00 3.0834033955e+00 5.3406113413e+00 
72600 5.9686979813e+00 -1.7206710423e-03 3.0834315340e+00 -5.3406600786e+00 3.0834315340e+00 5.3406600786e+00 
72700 5.9686979748e+00 -1.7062153846e-03 3.0834594360e+00 -5.3407084062e+00 3.0834594360e+00 5.3407084062e+00 
72800 5.9686979687e+00 -1.6918781025e-03 3.0834871032e+00 -5.3407563273e+00 3.0834871032e+00 5.3407563273e+00 
72900 5.9686979630e+00 -1.6776582431e-03 3.0835145378e+00 -5.3408038453e+00 3.0835145378e+00 5.3408038453e+00 
73000 5.9686979578e+00 -1.6635548607e-03 3.0835417415e+00 -5.3408509635e+00 3.0835417415e+00 5.3408509635e+00 
73100 5.9686979531e+00 -1.6495670173e-03 3.0835687163e+00 -5.3408976852e+00 3.0835687163e+00 5.3408976852e+00 
73200 5.9686979487e+00 -1.6356937820e-03 3.0835954640e+00 -5.3409440136e+00 3.0835954640e+00 5.3409440136e+00 
73300 5.9686979448e+00 -1.6219342313e-03 3.0836219865e+00 -5.3409899520e+00 3.0836219865e+00 5.3409899520e+00 
73400 5.9686979413e+00 -1.6082874487e-03 3.0836482857e+00 -5.3410355036e+00 3.0836482857e+00 5.3410355036e+00 
73500 5.9686979381e+00 -1.5947525251e-03 3.0836743635e+00 -5.3410806715e+00 3.0836743635e+00 5.3410806715e+00 
73600 5.9686979353e+00 -1.5813285583e-03 3.0837002215e+00 -5.3411254589e+00 3.0837002215e+00 5.3411254589e+00 
73700 5.9686979329e+00 -1.5680146532e-03 3.0837258616e+00 -5.3411698690e+00 3.0837258616e+00 5.3411698690e+00 
73800 5.9686979309e+00 -1.5548099216e-03 3.0837512857e+00 -5.3412139047e+00 3.0837512857e+00 5.3412139047e+00 
73900 5.9686979292e+00 -1.5417134821e-03 3.0837764954e+00 -5.3412575693e+00 3.0837764954e+00 5.3412575693e+00 
74000 5.9686979279e+00 -1.5287244602e-03 3.0838014926e+00 -5.3413008657e+00 3.0838014926e+00 5.3413008657e+00 
74100 5.9686979269e+00 -1.5158419883e-03 3.0838262790e+00 -5.3413437970e+00 3.0838262790e+00 5.3413437970e+00 
74200 5.9686979262e+00 -1.5030652054e-03 3.0838508564e+00 -5.3413863662e+00 3.0838508564e+00 5.3413863662e+00 
74300 5.9686979259e+00 -1.4903932572e-03 3.0838752263e+00 -5.3414285762e+00 3.0838752263e+00 5.3414285762e+00 
74400 5.9686979258e+00 -1.4778252959e-03 3.0838993907e+00 -5.3414704301e+00 3.0838993907e+00 5.3414704301e+00 
74500 5.9686979261e+00 -1.4653604805e-03 3.0839233510e+00 -5.3415119306e+00 3.0839233510e+00 5.3415119306e+00 
74600 5.9686979267e+00 -1.4529979762e-03 3.0839471091e+00 -5.3415530809e+00 3.0839471091e+00 5.3415530809e+00 
74700 5.9686979275e+00 -1.4407369550e-03 3.0839706666e+00 -5.3415938836e+00 3.0839706666e+00 5.3415938836e+00 
74800 5.9686979286e+00 -1.4285765950e-03 3.0839940251e+00 -5.3416343417e+00 3.0839940251e+00 5.3416343417e+00 
74900 5.9686979301e+00 -1.4165160808e-03 3.0840171863e+00 -5.3416744580e+00 3.0840171863e+00 5.3416744580e+00 
75000 5.9686979317e+00 -1.4045546034e-03 3.0840401517e+00 -5.3417142354e+00 3.0840401517e+00 5.3417142354e+00 
75100 5.9686979337e+00 -1.3926913598e-03 3.0840629231e+00 -5.3417536766e+00 3.0840629231e+00 5.3417536766e+00 
75200 5.9686979359e+00 -1.3809255535e-03 3.0840855020e+00 -5.3417927843e+00 3.0840855020e+00 5.3417927843e+00 
75300 5.9686979383e+00 -1.3692563940e-03 3.0841078899e+00 -5.3418315614e+00 3.0841078899e+00 5.3418315614e+00 
75400 5.9686979410e+00 -1.3576830969e-03 3.0841300885e+00 -5.3418700105e+00 3.0841300885e+00 5.3418700105e+00 
75500 5.9686979439e+00 -1.3462048841e-03 3.0841520994e+00 -5.3419081343e+00 3.0841520994e+00 5.3419081343e+00 
75600 5.9686979470e+00 -1.3348209832e-03 3.0841739239e+00 -5.3419459356e+00 3.0841739239e+00 5.3419459356e+00 
75700 5.9686979504e+00 -1.3235306281e-03 3.0841955638e+00 -5.3419834170e+00 3.0841955638e+00 5.3419834170e+00 
75800 5.9686979539e+00 -1.3123330585e-03 3.0842170205e+00 -5.3420205811e+00 3.0842170205e+00 5.3420205811e+00 
75900 5.9686979577e+00 -1.3012275200e-03 3.0842382955e+00 -5.3420574304e+00 3.0842382955e+00 5.3420574304e+00 
76000 5.9686979617e+00 -1.2902132640e-03 3.0842593903e+00 -5.3420939677e+00 3.0842593903e+00 5.3420939677e+00 
76100 5.9686979659e+00 -1.2792895479e-03 3.0842803064e+00 -5.3421301955e+00 3.0842803064e+00 5.3421301955e+00 
76200 5.9686979703e+00 -1.2684556348e-03 3.0843010453e+00 -5.3421661163e+00 3.0843010453e+00 5.3421661163e+00 
76300 5.9686979748e+00 -1.2577107934e-03 3.0843216084e+00 -5.3422017327e+00 3.0843216084e+00 5.3422017327e+00 
76400 5.9686979796e+00 -1.2470542984e-03 3.0843419972e+00 -5.3422370471e+00 3.0843419972e+00 5.3422370471e+00 
76500 5.9686979845e+00 -1.2364854299e-03 3.0843622131e+00 -5.3422720621e+00 3.0843622131e+00 5.3422720621e+00 
76600 5.9686979896e+00 -1.2260034736e-03 3.0843822576e+00 -5.3423067801e+00 3.0843822576e+00 5.3423067801e+00 
76700 5.9686979948e+00 -1.2156077211e-03 3.0844021320e+00 -5.3423412036e+00 3.0844021320e+00 5.3423412036e+00 
76800 5.9686980002e+00 -1.2052974691e-03 3.0844218377e+00 -5.3423753349e+00 3.0844218377e+00 5.3423753349e+00 
76900 5.9686980058e+00 -1.1950720203e-03 3.0844413762e+00 -5.3424091766e+00 3.0844413762e+00 5.3424091766e+00 
77000 5.9686980115e+00 -1.1849306824e-03 3.0844607488e+00 -5.3424427309e+00 3.0844607488e+00 5.3424427309e+00 
77100 5.9686980173e+00 -1.1748727688e-03 3.0844799569e+00 -5.3424760003e+00 3.0844799569e+00 5.3424760003e+00 
77200 5.9686980233e+00 -1.1648975982e-03 3.0844990018e+00 -5.3425089871e+00 3.0844990018e+00 5.3425089871e+00 
77300 5.9686980295e+00 -1.1550044947e-03 3.0845178850e+00 -5.3425416936e+00 3.0845178850e+00 5.3425416936e+00 
77400 5.9686980357e+00 -1.1451927878e-03 3.0845366076e+00 -5.3425741222e+00 3.0845366076e+00 5.3425741222e+00 
77500 5.9686980421e+00 -1.1354618122e-03 3.0845551711e+00 -5.3426062750e+00 3.0845551711e+00 5.3426062750e+00 
77600 5.9686980486e+00 -1.1258109077e-03 3.0845735767e+00 -5.3426381545e+00 3.0845735767e+00 5.3426381545e+00 
77700 5.9686980552e+00 -1.1162394195e-03 3.0845918257e+00 -5.3426697628e+00 3.0845918257e+00 5.3426697628e+00 
77800 5.9686980620e+00 -1.1067466981e-03 3.0846099196e+00 -5.3427011022e+00 3.0846099196e+00 5.3427011022e+00 
77900 5.9686980688e+00 -1.0973320987e-03 3.0846278594e+00 -5.3427321749e+00 3.0846278594e+00 5.3427321749e+00 
78000 5.9686980758e+00 -1.0879949822e-03 3.0846456465e+00 -5.3427629831e+00 3.0846456465e+00 5.3427629831e+00 
78100 5.9686980829e+00 -1.0787347140e-03 3.0846632822e+00 -5.3427935290e+00 3.0846632822e+00 5.3427935290e+00 
78200 5.9686980900e+00 -1.0695506650e-03 3.0846807677e+00 -5.3428238147e+00 3.0846807677e+00 5.3428238147e+00 
78300 5.9686980973e+00 -1.0604422109e-03 3.0846981042e+00 -5.3428538424e+00 3.0846981042e+00 5.3428538424e+00 
78400 5.9686981046e+00 -1.0514087323e-03 3.0847152929e+00 -5.3428836142e+00 3.0847152929e+00 5.3428836142e+00 
78500 5.9686981120e+00 -1.0424496148e-03 3.0847323352e+00 -5.3429131323e+00 3.0847323352e+00 5.3429131323e+00 
78600 5.9686981195e+00 -1.0335642490e-03 3.0847492321e+00 -5.3429423986e+00 3.0847492321e+00 5.3429423986e+00 
78700 5.9686981271e+00 -1.0247520303e-03 3.0847659849e+00 -5.3429714154e+00 3.0847659849e+00 5.3429714154e+00 
78800 5.9686981348e+00 -1.0160123590e-03 3.0847825948e+00 -5.3430001846e+00 3.0847825948e+00 5.3430001846e+00 
78900 5.9686981425e+00 -1.0073446400e-03 3.0847990630e+00 -5.3430287082e+00 3.0847990630e+00 5.3430287082e+00 
79000 5.9686981504e+00 -9.9874828327e-04 3.0848153906e+00 -5.3430569884e+00 3.0848153906e+00 5.3430569884e+00 
79100 5.9686981582e+00 -9.9022270330e-04 3.0848315787e+00 -5.3430850271e+00 3.0848315787e+00 5.3430850271e+00 
79200 5.9686981662e+00 -9.8176731938e-04 3.0848476286e+00 -5.3431128263e+00 3.0848476286e+00 5.3431128263e+00 
79300 5.9686981742e+00 -9.7338155545e-04 3.0848635413e+00 -5.3431403880e+00 3.0848635413e+00 5.3431403880e+00 
79400 5.9686981822e+00 -9.6506484012e-04 3.0848793181e+00 -5.3431677142e+00 3.0848793181e+00 5.3431677142e+00 
79500 5.9686981904e+00 -9.5681660658e-04 3.0848949600e+00 -5.3431948067e+00 3.0848949600e+00 5.3431948067e+00 
79600 5.9686981985e+00 -9.4863629262e-04 3.0849104681e+00 -5.3432216675e+00 3.0849104681e+00 5.3432216675e+00 
79700 5.9686982067e+00 -9.4052334058e-04 3.0849258435e+00 -5.3432482985e+00 3.0849258435e+00 5.3432482985e+00 
79800 5.9686982150e+00 -9.3247719730e-04 3.0849410874e+00 -5.3432747017e+00 3.0849410874e+00 5.3432747017e+00 
79900 5.9686982233e+00 -9.2449731413e-04 3.0849562008e+00 -5.3433008788e+00 3.0849562008e+00 5.3433008788e+00 
80000 5.9686982317e+00 -9.1658314684e-04 3.0849711847e+00 -5.3433268318e+00 3.0849711847e+00 5.3433268318e+00 
80100 5.9686982400e+00 -9.0873415567e-04 3.0849860404e+00 -5.3433525625e+00 3.0849860404e+00 5.3433525625e+00 
80200 5.9686982485e+00 -9.0094980521e-04 3.0850007687e+00 -5.3433780728e+00 3.0850007687e+00 5.3433780728e+00 
80300 5.9686982569e+00 -8.9322956442e-04 3.0850153708e+00 -5.3434033644e+00 3.0850153708e+00 5.3434033644e+00 
80400 5.9686982654e+00 -8.8557290660e-04 3.0850298477e+00 -5.3434284392e+00 3.0850298477e+00 5.3434284392e+00 
80500 5.9686982739e+00 -8.7797930936e-04 3.0850442005e+00 -5.3434532989e+00 3.0850442005e+00 5.3434532989e+00 
80600 5.9686982825e+00 -8.7044825454e-04 3.0850584301e+00 -5.3434779453e+00 3.0850584301e+00 5.3434779453e+00 
80700 5.9686982910e+00 -8.6297922826e-04 3.0850725376e+00 -5.3435023802e+00 3.0850725376e+00 5.3435023802e+00 
80800 5.9686982996e+00 -8.5557172082e-04 3.0850865240e+00 -5.3435266053e+00 3.0850865240e+00 5.3435266053e+00 
80900 5.9686983082e+00 -8.4822522672e-04 3.0851003902e+00 -5.3435506224e+00 3.0851003902e+00 5.3435506224e+00 
81000 5.9686983169e+00 -8.4093924458e-04 3.0851141374e+00 -5.3435744331e+00 3.0851141374e+00 5.3435744331e+00 
81100 5.9686983255e+00 -8.3371327715e-04 3.0851277664e+00 -5.3435980392e+00 3.0851277664e+00 5.3435980392e+00 
81200 5.9686983342e+00 -8.2654683128e-04 3.0851412782e+00 -5.3436214424e+00 3.0851412782e+00 5.3436214424e+00 
81300 5.9686983428e+00 -8.1943941786e-04 3.0851546738e+00 -5.3436446443e+00 3.0851546738e+00 5.3436446443e+00 
81400 5.9686983515e+00 -8.1239055182e-04 3.0851679542e+00 -5.3436676465e+00 3.0851679542e+00 5.3436676465e+00 
81500 5.9686983602e+00 -8.0539975207e-04 3.0851811203e+00 -5.3436904508e+00 3.0851811203e+00 5.3436904508e+00 
81600 5.9686983689e+00 -7.9846654152e-04 3.0851941730e+00 -5.3437130588e+00 3.0851941730e+00 5.3437130588e+00 
81700 5.9686983776e+00 -7.9159044697e-04 3.0852071133e+00 -5.3437354721e+00 3.0852071133e+00 5.3437354721e+00 
81800 5.9686983863e+00 -7.8477099919e-04 3.0852199421e+00 -5.3437576922e+00 3.0852199421e+00 5.3437576922e+00 
81900 5.9686983950e+00 -7.7800773279e-04 3.0852326603e+00 -5.3437797209e+00 3.0852326603e+00 5.3437797209e+00 
82000 5.9686984037e+00 -7.7130018624e-04 3.0852452689e+00 -5.3438015596e+00 3.0852452689e+00 5.3438015596e+00 
82100 5.9686984124e+00 -7.6464790183e-04 3.0852577688e+00 -5.3438232099e+00 3.0852577688e+00 5.3438232099e+00 
82200 5.9686984211e+00 -7.5805042566e-04 3.0852701607e+00 -5.3438446735e+00 3.0852701607e+00 5.3438446735e+00 
82300 5.9686984298e+00 -7.5150730757e-04 3.0852824457e+00 -5.3438659517e+00 3.0852824457e+00 5.3438659517e+00 
82400 5.9686984385e+00 -7.4501810117e-04 3.0852946246e+00 -5.3438870462e+00 3.0852946246e+00 5.3438870462e+00 
82500 5.9686984472e+00 -7.3858236374e-04 3.0853066983e+00 -5.3439079585e+00 3.0853066983e+00 5.3439079585e+00 
82600 5.9686984558e+00 -7.3219965627e-04 3.0853186677e+00 -5.3439286900e+00 3.0853186677e+00 5.3439286900e+00 
82700 5.9686984645e+00 -7.2586954339e-04 3.0853305336e+00 -5.3439492423e+00 3.0853305336e+00 5.3439492423e+00 
82800 5.9686984731e+00 -7.1959159335e-04 3.0853422968e+00 -5.3439696168e+00 3.0853422968e+00 5.3439696168e+00 
82900 5.9686984818e+00 -7.1336537800e-04 3.0853539583e+00 -5.3439898151e+00 3.0853539583e+00 5.3439898151e+00 
83000 5.9686984904e+00 -7.0719047275e-04 3.0853655188e+00 -5.3440098385e+00 3.0853655188e+00 5.3440098385e+00 
83100 5.9686984990e+00 -7.0106645657e-04 3.0853769792e+00 -5.3440296885e+00 3.0853769792e+00 5.3440296885e+00 
83200 5.9686985076e+00 -6.9499291191e-04 3.0853883403e+00 -5.3440493665e+00 3.0853883403e+00 5.3440493665e+00 
83300 5.9686985162e+00 -6.8896942474e-04 3.0853996030e+00 -5.3440688740e+00 3.0853996030e+00 5.3440688740e+00 
83400 5.9686985247e+00 -6.8299558446e-04 3.0854107680e+00 -5.3440882124e+00 3.0854107680e+00 5.3440882124e+00 
83500 5.9686985333e+00 -6.7707098391e-04 3.0854218361e+00 -5.3441073830e+00 3.0854218361e+00 5.3441073830e+00 
83600 5.9686985418e+00 -6.7119521934e-04 3.0854328082e+00 -5.3441263872e+00 3.0854328082e+00 5.3441263872e+00 
83700 5.9686985503e+00 -6.6536789036e-04 3.0854436851e+00 -5.3441452265e+00 3.0854436851e+00 5.3441452265e+00 
83800 5.9686985587e+00 -6.5958859994e-04 3.0854544675e+00 -5.3441639021e+00 3.0854544675e+00 5.3441639021e+00 
83900 5.9686985672e+00 -6.5385695436e-04 3.0854651562e+00 -5.3441824154e+00 3.0854651562e+00 5.3441824154e+00 
84000 5.9686985756e+00 -6.4817256322e-04 3.0854757519e+00 -5.3442007679e+00 3.0854757519e+00 5.3442007679e+00 
84100 5.9686985840e+00 -6.4253503936e-04 3.0854862555e+00 -5.3442189606e+00 3.0854862555e+00 5.3442189606e+00 
84200 5.9686985923e+00 -6.3694399888e-04 3.0854966678e+00 -5.3442369951e+00 3.0854966678e+00 5.3442369951e+00 
84300 5.9686986007e+00 -6.3139906110e-04 3.0855069893e+00 -5.3442548727e+00 3.0855069893e+00 5.3442548727e+00 
84400 5.9686986090e+00 -6.2589984851e-04 3.0855172210e+00 -5.3442725945e+00 3.0855172210e+00 5.3442725945e+00 
84500 5.9686986172e+00 -6.2044598679e-04 3.0855273636e+00 -5.3442901619e+00 3.0855273636e+00 5.3442901619e+00 
84600 5.9686986255e+00 -6.1503710472e-04 3.0855374177e+00 -5.3443075762e+00 3.0855374177e+00 5.3443075762e+00 
84700 5.9686986337e+00 -6.0967283425e-04 3.0855473842e+00 -5.3443248386e+00 3.0855473842e+00 5.3443248386e+00 
84800 5.9686986419e+00 -6.0435281036e-04 3.0855572637e+00 -5.3443419504e+00 3.0855572637e+00 5.3443419504e+00 
84900 5.9686986500e+00 -5.9907667113e-04 3.0855670569e+00 -5.3443589128e+00 3.0855670569e+00 5.3443589128e+00 
85000 5.9686986582e+00 -5.9384405766e-04 3.0855767647e+00 -5.3443757271e+00 3.0855767647e+00 5.3443757271e+00 
85100 5.9686986663e+00 -5.8865461407e-04 3.0855863876e+00 -5.3443923944e+00 3.0855863876e+00 5.3443923944e+00 
85200 5.9686986743e+00 -5.8350798745e-04 3.0855959264e+00 -5.3444089161e+00 3.0855959264e+00 5.3444089161e+00 
85300 5.9686986823e+00 -5.7840382787e-04 3.0856053817e+00 -5.3444252932e+00 3.0856053817e+00 5.3444252932e+00 
85400 5.9686986903e+00 -5.7334178833e-04 3.0856147543e+00 -5.3444415271e+00 3.0856147543e+00 5.3444415271e+00 
85500 5.9686986982e+00 -5.6832152475e-04 3.0856240449e+00 -5.3444576188e+00 3.0856240449e+00 5.3444576188e+00 
85600 5.9686987062e+00 -5.6334269592e-04 3.0856332541e+00 -5.3444735696e+00 3.0856332541e+00 5.3444735696e+00 
85700 5.9686987140e+00 -5.5840496351e-04 3.0856423826e+00 -5.3444893806e+00 3.0856423826e+00 5.3444893806e+00 
85800 5.9686987219e+00 -5.5350799203e-04 3.0856514310e+00 -5.3445050530e+00 3.0856514310e+00 5.3445050530e+00 
85900 5.9686987296e+00 -5.4865144880e-04 3.0856604001e+00 -5.3445205878e+00 3.0856604001e+00 5.3445205878e+00 
86000 5.9686987374e+00 -5.4383500392e-04 3.0856692904e+00 -5.3445359864e+00 3.0856692904e+00 5.3445359864e+00 
86100 5.9686987451e+00 -5.3905833028e-04 3.0856781027e+00 -5.3445512497e+00 3.0856781027e+00 5.3445512497e+00 
86200 5.9686987528e+00 -5.3432110351e-04 3.0856868375e+00 -5.3445663789e+00 3.0856868375e+00 5.3445663789e+00 
86300 5.9686987604e+00 -5.2962300196e-04 3.0856954956e+00 -5.3445813751e+00 3.0856954956e+00 5.3445813751e+00 
86400 5.9686987680e+00 -5.2496370667e-04 3.0857040775e+00 -5.3445962394e+00 3.0857040775e+00 5.3445962394e+00 
86500 5.9686987756e+00 -5.2034290137e-04 3.0857125839e+00 -5.3446109729e+00 3.0857125839e+00 5.3446109729e+00 
86600 5.9686987831e+00 -5.1576027243e-04 3.0857210154e+00 -5.3446255767e+00 3.0857210154e+00 5.3446255767e+00 
86700 5.9686987906e+00 -5.1121550885e-04 3.0857293726e+00 -5.3446400518e+00 3.0857293726e+00 5.3446400518e+00 
86800 5.9686987980e+00 -5.0670830225e-04 3.0857376562e+00 -5.3446543993e+00 3.0857376562e+00 5.3446543993e+00 
86900 5.9686988054e+00 -5.0223834683e-04 3.0857458667e+00 -5.3446686203e+00 3.0857458667e+00 5.3446686203e+00 
87000 5.9686988127e+00 -4.9780533935e-04 3.0857540047e+00 -5.3446827158e+00 3.0857540047e+00 5.3446827158e+00 
87100 5.9686988200e+00 -4.9340897911e-04 3.0857620709e+00 -5.3446966868e+00 3.0857620709e+00 5.3446966868e+00 
87200 5.9686988273e+00 -4.8904896793e-04 3.0857700658e+00 -5.3447105345e+00 3.0857700658e+00 5.3447105345e+00 
87300 5.9686988345e+00 -4.8472501012e-04 3.0857779901e+00 -5.3447242597e+00 3.0857779901e+00 5.3447242597e+00 
87400 5.9686988417e+00 -4.8043681249e-04 3.0857858443e+00 -5.3447378635e+00 3.0857858443e+00 5.3447378635e+00 
87500 5.9686988488e+00 -4.7618408427e-04 3.0857936289e+00 -5.3447513470e+00 3.0857936289e+00 5.3447513470e+00 
87600 5.9686988559e+00 -4.7196653715e-04 3.0858013447e+00 -5.3447647111e+00 3.0858013447e+00 5.3447647111e+00 
87700 5.9686988629e+00 -4.6778388522e-04 3.0858089921e+00 -5.3447779567e+00 3.0858089921e+00 5.3447779567e+00 
87800 5.9686988699e+00 -4.6363584496e-04 3.0858165717e+00 -5.3447910850e+00 3.0858165717e+00 5.3447910850e+00 
87900 5.9686988769e+00 -4.5952213523e-04 3.0858240841e+00 -5.3448040968e+00 3.0858240841e+00 5.3448040968e+00 
88000 5.9686988838e+00 -4.5544247721e-04 3.0858315298e+00 -5.3448169931e+00 3.0858315298e+00 5.3448169931e+00 
88100 5.9686988907e+00 -4.5139659445e-04 3.0858389093e+00 -5.3448297749e+00 3.0858389093e+00 5.3448297749e+00 
88200 5.9686988975e+00 -4.4738421278e-04 3.0858462233e+00 -5.3448424432e+00 3.0858462233e+00 5.3448424432e+00 
88300 5.9686989043e+00 -4.4340506033e-04 3.0858534723e+00 -5.3448549988e+00 3.0858534723e+00 5.3448549988e+00 
88400 5.9686989110e+00 -4.3945886749e-04 3.0858606568e+00 -5.3448674427e+00 3.0858606568e+00 5.3448674427e+00 
88500 5.9686989177e+00 -4.3554536690e-04 3.0858677773e+00 -5.3448797758e+00 3.0858677773e+00 5.3448797758e+00 
88600 5.9686989243e+00 -4.3166429344e-04 3.0858748344e+00 -5.3448919990e+00 3.0858748344e+00 5.3448919990e+00 
88700 5.9686989309e+00 -4.2781538419e-04 3.0858818286e+00 -5.3449041133e+00 3.0858818286e+00 5.3449041133e+00 
88800 5.9686989374e+00 -4.2399837842e-04 3.0858887604e+00 -5.3449161196e+00 3.0858887604e+00 5.3449161196e+00 
88900 5.9686989439e+00 -4.2021301756e-04 3.0858956304e+00 -5.3449280187e+00 3.0858956304e+00 5.3449280187e+00 
89000 5.9686989504e+00 -4.1645904521e-04 3.0859024390e+00 -5.3449398116e+00 3.0859024390e+00 5.3449398116e+00 
89100 5.9686989568e+00 -4.1273620709e-04 3.0859091868e+00 -5.3449514990e+00 3.0859091868e+00 5.3449514990e+00 
89200 5.9686989632e+00 -4.0904425104e-04 3.0859158742e+00 -5.3449630820e+00 3.0859158742e+00 5.3449630820e+00 
89300 5.9686989695e+00 -4.0538292700e-04 3.0859225018e+00 -5.3449745614e+00 3.0859225018e+00 5.3449745614e+00 
89400 5.9686989757e+00 -4.0175198697e-04 3.0859290701e+00 -5.3449859379e+00 3.0859290701e+00 5.3449859379e+00 
89500 5.9686989820e+00 -3.9815118502e-04 3.0859355795e+00 -5.3449972126e+00 3.0859355795e+00 5.3449972126e+00 
89600 5.9686989882e+00 -3.9458027726e-04 3.0859420306e+00 -5.3450083861e+00 3.0859420306e+00 5.3450083861e+00 
89700 5.9686989943e+00 -3.9103902181e-04 3.0859484238e+00 -5.3450194595e+00 3.0859484238e+00 5.3450194595e+00 
89800 5.9686990004e+00 -3.8752717882e-04 3.0859547596e+00 -5.3450304334e+00 3.0859547596e+00 5.3450304334e+00 
89900 5.9686990064e+00 -3.8404451040e-04 3.0859610384e+00 -5.3450413088e+00 3.0859610384e+00 5.3450413088e+00 
90000 5.9686990124e+00 -3.8059078065e-04 3.0859672609e+00 -5.3450520864e+00 3.0859672609e+00 5.3450520864e+00 
90100 5.9686990184e+00 -3.7716575560e-04 3.0859734274e+00 -5.3450627670e+00 3.0859734274e+00 5.3450627670e+00 
90200 5.9686990243e+00 -3.7376920323e-04 3.0859795383e+00 -5.3450733515e+00 3.0859795383e+00 5.3450733515e+00 
90300 5.9686990301e+00 -3.7040089344e-04 3.0859855943e+00 -5.3450838407e+00 3.0859855943e+00 5.3450838407e+00 
90400 5.9686990359e+00 -3.6706059802e-04 3.0859915956e+00 -5.3450942353e+00 3.0859915956e+00 5.3450942353e+00 
90500 5.9686990417e+00 -3.6374809065e-04 3.0859975428e+00 -5.3451045362e+00 3.0859975428e+00 5.3451045362e+00 
90600 5.9686990474e+00 -3.6046314688e-04 3.0860034363e+00 -5.3451147441e+00 3.0860034363e+00 5.3451147441e+00 
90700 5.9686990531e+00 -3.5720554409e-04 3.0860092766e+00 -5.3451248598e+00 3.0860092766e+00 5.3451248598e+00 
90800 5.9686990587e+00 -3.5397506153e-04 3.0860150641e+00 -5.3451348840e+00 3.0860150641e+00 5.3451348840e+00 
90900 5.9686990643e+00 -3.5077148023e-04 3.0860207993e+00 -5.3451448176e+00 3.0860207993e+00 5.3451448176e+00 
91000 5.9686990699e+00 -3.4759458306e-04 3.0860264825e+00 -5.3451546612e+00 3.0860264825e+00 5.3451546612e+00 
91100 5.9686990754e+00 -3.4444415463e-04 3.0860321143e+00 -5.3451644157e+00 3.0860321143e+00 5.3451644157e+00 
91200 5.9686990808e+00 -3.4131998138e-04 3.0860376950e+00 -5.3451740818e+00 3.0860376950e+00 5.3451740818e+00 
91300 5.9686990862e+00 -3.3822185145e-04 3.0860432250e+00 -5.3451836601e+00 3.0860432250e+00 5.3451836601e+00 
91400 5.9686990916e+00 -3.3514955475e-04 3.0860487049e+00 -5.3451931515e+00 3.0860487049e+00 5.3451931515e+00 
91500 5.9686990969e+00 -3.3210288291e-04 3.0860541350e+00 -5.3452025567e+00 3.0860541350e+00 5.3452025567e+00 
91600 5.9686991022e+00 -3.2908162925e-04 3.0860595157e+00 -5.3452118764e+00 3.0860595157e+00 5.3452118764e+00 
91700 5.9686991074e+00 -3.2608558882e-04 3.0860648474e+00 -5.3452211112e+00 3.0860648474e+00 5.3452211112e+00 
91800 5.9686991126e+00 -3.2311455831e-04 3.0860701306e+00 -5.3452302620e+00 3.0860701306e+00 5.3452302620e+00 
91900 5.9686991178e+00 -3.2016833610e-04 3.0860753657e+00 -5.3452393293e+00 3.0860753657e+00 5.3452393293e+00 
92000 5.9686991229e+00 -3.1724672221e-04 3.0860805530e+00 -5.3452483140e+00 3.0860805530e+00 5.3452483140e+00 
92100 5.9686991279e+00 -3.1434951829e-04 3.0860856930e+00 -5.3452572167e+00 3.0860856930e+00 5.3452572167e+00 
92200 5.9686991329e+00 -3.1147652764e-04 3.0860907860e+00 -5.3452660381e+00 3.0860907860e+00 5.3452660381e+00 
92300 5.9686991379e+00 -3.0862755512e-04 3.0860958324e+00 -5.3452747788e+00 3.0860958324e+00 5.3452747788e+00 
92400 5.9686991428e+00 -3.0580240722e-04 3.0861008327e+00 -5.3452834395e+00 3.0861008327e+00 5.3452834395e+00 
92500 5.9686991477e+00 -3.0300089200e-04 3.0861057872e+00 -5.3452920210e+00 3.0861057872e+00 5.3452920210e+00 
92600 5.9686991526e+00 -3.0022281907e-04 3.0861106963e+00 -5.3453005239e+00 3.0861106963e+00 5.3453005239e+00 
92700 5.9686991574e+00 -2.9746799961e-04 3.0861155604e+00 -5.3453089487e+00 3.0861155604e+00 5.3453089487e+00 
92800 5.9686991621e+00 -2.9473624632e-04 3.0861203799e+00 -5.3453172963e+00 3.0861203799e+00 5.3453172963e+00 
92900 5.9686991668e+00 -2.9202737344e-04 3.0861251551e+00 -5.3453255671e+00 3.0861251551e+00 5.3453255671e+00 
93000 5.9686991715e+00 -2.8934119671e-04 3.0861298864e+00 -5.3453337620e+00 3.0861298864e+00 5.3453337620e+00 
93100 5.9686991761e+00 -2.8667753338e-04 3.0861345742e+00 -5.3453418814e+00 3.0861345742e+00 5.3453418814e+00 
93200 5.9686991807e+00 -2.8403620218e-04 3.0861392188e+00 -5.3453499261e+00 3.0861392188e+00 5.3453499261e+00 
93300 5.9686991853e+00 -2.8141702329e-04 3.0861438206e+00 -5.3453578967e+00 3.0861438206e+00 5.3453578967e+00 
93400 5.9686991898e+00 -2.7881981839e-04 3.0861483799e+00 -5.3453657937e+00 3.0861483799e+00 5.3453657937e+00 
93500 5.9686991943e+00 -2.7624441057e-04 3.0861528972e+00 -5.3453736179e+00 3.0861528972e+00 5.3453736179e+00 
93600 5.9686991987e+00 -2.7369062437e-04 3.0861573728e+00 -5.3453813698e+00 3.0861573728e+00 5.3453813698e+00 
93700 5.9686992031e+00 -2.7115828575e-04 3.0861618069e+00 -5.3453890500e+00 3.0861618069e+00 5.3453890500e+00 
93800 5.9686992074e+00 -2.6864722208e-04 3.0861662001e+00 -5.3453966591e+00 3.0861662001e+00 5.3453966591e+00 
93900 5.9686992117e+00 -2.6615726213e-04 3.0861705525e+00 -5.3454041978e+00 3.0861705525e+00 5.3454041978e+00 
94000 5.9686992160e+00 -2.6368823604e-04 3.0861748646e+00 -5.3454116665e+00 3.0861748646e+00 5.3454116665e+00 
94100 5.9686992202e+00 -2.6123997534e-04 3.0861791367e+00 -5.3454190660e+00 3.0861791367e+00 5.3454190660e+00 
94200 5.9686992244e+00 -2.5881231291e-04 3.0861833691e+00 -5.3454263968e+00 3.0861833691e+00 5.3454263968e+00 
94300 5.9686992285e+00 -2.5640508299e-04 3.0861875622e+00 -5.3454336594e+00 3.0861875622e+00 5.3454336594e+00 
94400 5.9686992327e+00 -2.5401812115e-04 3.0861917163e+00 -5.3454408545e+00 3.0861917163e+00 5.3454408545e+00 
94500 5.9686992367e+00 -2.5165126428e-04 3.0861958317e+00 -5.3454479826e+00 3.0861958317e+00 5.3454479826e+00 
94600 5.9686992408e+00 -2.4930435060e-04 3.0861999087e+00 -5.3454550442e+00 3.0861999087e+00 5.3454550442e+00 
94700 5.9686992448e+00 -2.4697721962e-04 3.0862039477e+00 -5.3454620400e+00 3.0862039477e+00 5.3454620400e+00 
94800 5.9686992487e+00 -2.4466971215e-04 3.0862079490e+00 -5.3454689705e+00 3.0862079490e+00 5.3454689705e+00 
94900 5.9686992526e+00 -2.4238167028e-04 3.0862119130e+00 -5.3454758362e+00 3.0862119130e+00 5.3454758362e+00 
95000 5.9686992565e+00 -2.4011293738e-04 3.0862158398e+00 -5.3454826377e+00 3.0862158398e+00 5.3454826377e+00 
95100 5.9686992603e+00 -2.3786335805e-04 3.0862197299e+00 -5.3454893755e+00 3.0862197299e+00 5.3454893755e+00 
95200 5.9686992642e+00 -2.3563277818e-04 3.0862235835e+00 -5.3454960502e+00 3.0862235835e+00 5.3454960502e+00 
95300 5.9686992679e+00 -2.3342104486e-04 3.0862274010e+00 -5.3455026623e+00 3.0862274010e+00 5.3455026623e+00 
95400 5.9686992717e+00 -2.3122800644e-04 3.0862311827e+00 -5.3455092123e+00 3.0862311827e+00 5.3455092123e+00 
95500 5.9686992754e+00 -2.2905351246e-04 3.0862349288e+00 -5.3455157008e+00 3.0862349288e+00 5.3455157008e+00 
95600 5.9686992790e+00 -2.2689741369e-04 3.0862386397e+00 -5.3455221282e+00 3.0862386397e+00 5.3455221282e+00 
95700 5.9686992826e+00 -2.2475956207e-04 3.0862423157e+00 -5.3455284952e+00 3.0862423157e+00 5.3455284952e+00 
95800 5.9686992862e+00 -2.2263981076e-04 3.0862459570e+00 -5.3455348021e+00 3.0862459570e+00 5.3455348021e+00 
95900 5.9686992898e+00 -2.2053801407e-04 3.0862495639e+00 -5.3455410496e+00 3.0862495639e+00 5.3455410496e+00 
96000 5.9686992933e+00 -2.1845402748e-04 3.0862531369e+00 -5.3455472381e+00 3.0862531369e+00 5.3455472381e+00 
96100 5.9686992968e+00 -2.1638770765e-04 3.0862566760e+00 -5.3455533680e+00 3.0862566760e+00 5.3455533680e+00 
96200 5.9686993002e+00 -2.1433891235e-04 3.0862601817e+00 -5.3455594400e+00 3.0862601817e+00 5.3455594400e+00 
96300 5.9686993036e+00 -2.1230750053e-04 3.0862636541e+00 -5.3455654545e+00 3.0862636541e+00 5.3455654545e+00 
96400 5.9686993070e+00 -2.1029333222e-04 3.0862670937e+00 -5.3455714120e+00 3.0862670937e+00 5.3455714120e+00 
96500 5.9686993104e+00 -2.0829626861e-04 3.0862705006e+00 -5.3455773130e+00 3.0862705006e+00 5.3455773130e+00 
96600 5.9686993137e+00 -2.0631617199e-04 3.0862738752e+00 -5.3455831579e+00 3.0862738752e+00 5.3455831579e+00 
96700 5.9686993170e+00 -2.0435290572e-04 3.0862772177e+00 -5.3455889472e+00 3.0862772177e+00 5.3455889472e+00 
96800 5.9686993202e+00 -2.0240633429e-04 3.0862805283e+00 -5.3455946815e+00 3.0862805283e+00 5.3455946815e+00 
96900 5.9686993234e+00 -2.0047632324e-04 3.0862838075e+00 -5.3456003611e+00 3.0862838075e+00 5.3456003611e+00 
97000 5.9686993266e+00 -1.9856273922e-04 3.0862870553e+00 -5.3456059866e+00 3.0862870553e+00 5.3456059866e+00 
97100 5.9686993297e+00 -1.9666544991e-04 3.0862902722e+00 -5.3456115583e+00 3.0862902722e+00 5.3456115583e+00 
97200 5.9686993329e+00 -1.9478432405e-04 3.0862934583e+00 -5.3456170768e+00 3.0862934583e+00 5.3456170768e+00 
97300 5.9686993359e+00 -1.9291923143e-04 3.0862966139e+00 -5.3456225425e+00 3.0862966139e+00 5.3456225425e+00 
97400 5.9686993390e+00 -1.9107004289e-04 3.0862997393e+00 -5.3456279559e+00 3.0862997393e+00 5.3456279559e+00 
97500 5.9686993420e+00 -1.8923663029e-04 3.0863028348e+00 -5.3456333174e+00 3.0863028348e+00 5.3456333174e+00 
97600 5.9686993450e+00 -1.8741886649e-04 3.0863059005e+00 -5.3456386275e+00 3.0863059005e+00 5.3456386275e+00 
97700 5.9686993479e+00 -1.8561662540e-04 3.0863089368e+00 -5.3456438865e+00 3.0863089368e+00 5.3456438865e+00 
97800 5.9686993509e+00 -1.8382978190e-04 3.0863119439e+00 -5.3456490949e+00 3.0863119439e+00 5.3456490949e+00 
97900 5.9686993538e+00 -1.8205821188e-04 3.0863149221e+00 -5.3456542532e+00 3.0863149221e+00 5.3456542532e+00 
98000 5.9686993566e+00 -1.8030179222e-04 3.0863178715e+00 -5.3456593618e+00 3.0863178715e+00 5.3456593618e+00 
98100 5.9686993595e+00 -1.7856040078e-04 3.0863207925e+00 -5.3456644211e+00 3.0863207925e+00 5.3456644211e+00 
98200 5.9686993623e+00 -1.7683391636e-04 3.0863236853e+00 -5.3456694315e+00 3.0863236853e+00 5.3456694315e+00 
98300 5.9686993650e+00 -1.7512221877e-04 3.0863265501e+00 -5.3456743935e+00 3.0863265501e+00 5.3456743935e+00 
98400 5.9686993678e+00 -1.7342518876e-04 3.0863293872e+00 -5.3456793075e+00 3.0863293872e+00 5.3456793075e+00 
98500 5.9686993705e+00 -1.7174270799e-04 3.0863321967e+00 -5.3456841738e+00 3.0863321967e+00 5.3456841738e+00 
98600 5.9686993732e+00 -1.7007465911e-04 3.0863349790e+00 -5.3456889929e+00 3.0863349790e+00 5.3456889929e+00 
98700 5.9686993759e+00 -1.6842092567e-04 3.0863377343e+00 -5.3456937652e+00 3.0863377343e+00 5.3456937652e+00 
98800 5.9686993785e+00 -1.6678139216e-04 3.0863404628e+00 -5.3456984911e+00 3.0863404628e+00 5.3456984911e+00 
98900 5.9686993811e+00 -1.6515594398e-04 3.0863431647e+00 -5.3457031709e+00 3.0863431647e+00 5.3457031709e+00 
99000 5.9686993837e+00 -1.6354446745e-04 3.0863458403e+00 -5.3457078052e+00 3.0863458403e+00 5.3457078052e+00 
99100 5.9686993862e+00 -1.6194684977e-04 3.0863484898e+00 -5.3457123942e+00 3.0863484898e+00 5.3457123942e+00 
99200 5.9686993887e+00 -1.6036297904e-04 3.0863511134e+00 -5.3457169384e+00 3.0863511134e+00 5.3457169384e+00 
99300 5.9686993912e+00 -1.5879274426e-04 3.0863537114e+00 -5.3457214382e+00 3.0863537114e+00 5.3457214382e+00 
99400 5.9686993937e+00 -1.5723603531e-04 3.0863562839e+00 -5.3457258939e+00 3.0863562839e+00 5.3457258939e+00 
99500 5.9686993961e+00 -1.5569274293e-04 3.0863588311e+00 -5.3457303059e+00 3.0863588311e+00 5.3457303059e+00 
99600 5.9686993985e+00 -1.5416275872e-04 3.0863613534e+00 -5.3457346746e+00 3.0863613534e+00 5.3457346746e+00 
99700 5.9686994009e+00 -1.5264597516e-04 3.0863638509e+00 -5.3457390004e+00 3.0863638509e+00 5.3457390004e+00 
99800 5.9686994033e+00 -1.5114228558e-04 3.0863663238e+00 -5.3457432836e+00 3.0863663238e+00 5.3457432836e+00 
99900 5.9686994056e+00 -1.4965158413e-04 3.0863687724e+00 -5.3457475246e+00 3.0863687724e+00 5.3457475246e+00 
100000 5.9686994079e+00 -1.4817376582e-04 3.0863711967e+00 -5.3457517238e+00 3.0863711967e+00 5.3457517238e+00 
100100 5.9686994102e+00 -1.4670872648e-04 3.0863735972e+00 -5.3457558815e+00 3.0863735972e+00 5.3457558815e+00 
100200 5.9686994125e+00 -1.4525636278e-04 3.0863759739e+00 -5.3457599981e+00 3.0863759739e+00 5.3457599981e+00 
100300 5.9686994147e+00 -1.4381657218e-04 3.0863783271e+00 -5.3457640739e+00 3.0863783271e+00 5.3457640739e+00 
100400 5.9686994169e+00 -1.4238925299e-04 3.0863806570e+00 -5.3457681094e+00 3.0863806570e+00 5.3457681094e+00 
100500 5.9686994191e+00 -1.4097430428e-04 3.0863829637e+00 -5.3457721047e+00 3.0863829637e+00 5.3457721047e+00 
100600 5.9686994212e+00 -1.3957162596e-04 3.0863852475e+00 -5.3457760604e+00 3.0863852475e+00 5.3457760604e+00 
100700 5.9686994234e+00 -1.3818111871e-04 3.0863875086e+00 -5.3457799767e+00 3.0863875086e+00 5.3457799767e+00 
100800 5.9686994255e+00 -1.3680268399e-04 3.0863897472e+00 -5.3457838540e+00 3.0863897472e+00 5.3457838540e+00 
100900 5.9686994276e+00 -1.3543622404e-04 3.0863919634e+00 -5.3457876926e+00 3.0863919634e+00 5.3457876926e+00 
101000 5.9686994296e+00 -1.3408164191e-04 3.0863941575e+00 -5.3457914929e+00 3.0863941575e+00 5.3457914929e+00 
101100 5.9686994317e+00 -1.3273884136e-04 3.0863963296e+00 -5.3457952552e+00 3.0863963296e+00 5.3457952552e+00 
101200 5.9686994337e+00 -1.3140772694e-04 3.0863984800e+00 -5.3457989798e+00 3.0863984800e+00 5.3457989798e+00 
101300 5.9686994357e+00 -1.3008820397e-04 3.0864006088e+00 -5.3458026670e+00 3.0864006088e+00 5.3458026670e+00 
101400 5.9686994377e+00 -1.2878017849e-04 3.0864027163e+00 -5.3458063172e+00 3.0864027163e+00 5.3458063172e+00 
101500 5.9686994396e+00 -1.2748355728e-04 3.0864048025e+00 -5.3458099307e+00 3.0864048025e+00 5.3458099307e+00 
101600 5.9686994415e+00 -1.2619824789e-04 3.0864068677e+00 -5.3458135078e+00 3.0864068677e+00 5.3458135078e+00 
101700 5.9686994435e+00 -1.2492415857e-04 3.0864089122e+00 -5.3458170488e+00 3.0864089122e+00 5.3458170488e+00 
101800 5.9686994453e+00 -1.2366119831e-04 3.0864109359e+00 -5.3458205541e+00 3.0864109359e+00 5.3458205541e+00 
101900 5.9686994472e+00 -1.2240927681e-04 3.0864129393e+00 -5.3458240239e+00 3.0864129393e+00 5.3458240239e+00 
102000 5.9686994490e+00 -1.2116830449e-04 3.0864149223e+00 -5.3458274587e+00 3.0864149223e+00 5.3458274587e+00 
102100 5.9686994509e+00 -1.1993819247e-04 3.0864168852e+00 -5.3458308586e+00 3.0864168852e+00 5.3458308586e+00 
102200 5.9686994527e+00 -1.1871885258e-04 3.0864188282e+00 -5.3458342239e+00 3.0864188282e+00 5.3458342239e+00 
102300 5.9686994544e+00 -1.1751019734e-04 3.0864207515e+00 -5.3458375551e+00 3.0864207515e+00 5.3458375551e+00 
102400 5.9686994562e+00 -1.1631213997e-04 3.0864226551e+00 -5.3458408523e+00 3.0864226551e+00 5.3458408523e+00 
102500 5.9686994579e+00 -1.1512459437e-04 3.0864245394e+00 -5.3458441160e+00 3.0864245394e+00 5.3458441160e+00 
102600 5.9686994596e+00 -1.1394747512e-04 3.0864264044e+00 -5.3458473463e+00 3.0864264044e+00 5.3458473463e+00 
102700 5.9686994613e+00 -1.1278069746e-04 3.0864282504e+00 -5.3458505435e+00 3.0864282504e+00 5.3458505435e+00 
102800 5.9686994630e+00 -1.1162417733e-04 3.0864300774e+00 -5.3458537081e+00 3.0864300774e+00 5.3458537081e+00 
102900 5.9686994647e+00 -1.1047783130e-04 3.0864318857e+00 -5.3458568401e+00 3.0864318857e+00 5.3458568401e+00 
103000 5.9686994663e+00 -1.0934157663e-04 3.0864336754e+00 -5.3458599401e+00 3.0864336754e+00 5.3458599401e+00 
103100 5.9686994679e+00 -1.0821533122e-04 3.0864354468e+00 -5.3458630081e+00 3.0864354468e+00 5.3458630081e+00 
103200 5.9686994695e+00 -1.0709901360e-04 3.0864371998e+00 -5.3458660445e+00 3.0864371998e+00 5.3458660445e+00 
103300 5.9686994711e+00 -1.0599254297e-04 3.0864389348e+00 -5.3458690496e+00 3.0864389348e+00 5.3458690496e+00 
103400 5.9686994727e+00 -1.0489583916e-04 3.0864406519e+00 -5.3458720237e+00 3.0864406519e+00 5.3458720237e+00 
103500 5.9686994742e+00 -1.0380882263e-04 3.0864423512e+00 -5.3458749669e+00 3.0864423512e+00 5.3458749669e+00 
103600 5.9686994758e+00 -1.0273141446e-04 3.0864440329e+00 -5.3458778797e+00 3.0864440329e+00 5.3458778797e+00 
103700 5.9686994773e+00 -1.0166353638e-04 3.0864456971e+00 -5.3458807622e+00 3.0864456971e+00 5.3458807622e+00 
103800 5.9686994788e+00 -1.0060511070e-04 3.0864473441e+00 -5.3458836148e+00 3.0864473441e+00 5.3458836148e+00 
103900 5.9686994802e+00 -9.9556060361e-05 3.0864489739e+00 -5.3458864377e+00 3.0864489739e+00 5.3458864377e+00 
104000 5.9686994817e+00 -9.8516308926e-05 3.0864505867e+00 -5.3458892311e+00 3.0864505867e+00 5.3458892311e+00 
104100 5.9686994831e+00 -9.7485780542e-05 3.0864521826e+00 -5.3458919954e+00 3.0864521826e+00 5.3458919954e+00 
104200 5.9686994845e+00 -9.6464399964e-05 3.0864537619e+00 -5.3458947307e+00 3.0864537619e+00 5.3458947307e+00 
104300 5.9686994859e+00 -9.5452092536e-05 3.0864553246e+00 -5.3458974374e+00 3.0864553246e+00 5.3458974374e+00 
104400 5.9686994873e+00 -9.4448784196e-05 3.0864568709e+00 -5.3459001157e+00 3.0864568709e+00 5.3459001157e+00 
104500 5.9686994887e+00 -9.3454401459e-05 3.0864584009e+00 -5.3459027658e+00 3.0864584009e+00 5.3459027658e+00 
104600 5.9686994901e+00 -9.2468871426e-05 3.0864599149e+00 -5.3459053881e+00 3.0864599149e+00 5.3459053881e+00 
104700 5.9686994914e+00 -9.1492121772e-05 3.0864614128e+00 -5.3459079826e+00 3.0864614128e+00 5.3459079826e+00 
104800 5.9686994927e+00 -9.0524080748e-05 3.0864628950e+00 -5.3459105498e+00 3.0864628950e+00 5.3459105498e+00 
104900 5.9686994940e+00 -8.9564677158e-05 3.0864643615e+00 -5.3459130898e+00 3.0864643615e+00 5.3459130898e+00 
105000 5.9686994953e+00 -8.8613840379e-05 3.0864658124e+00 -5.3459156029e+00 3.0864658124e+00 5.3459156029e+00 
105100 5.9686994966e+00 -8.7671500345e-05 3.0864672479e+00 -5.3459180893e+00 3.0864672479e+00 5.3459180893e+00 
105200 5.9686994979e+00 -8.6737587531e-05 3.0864686682e+00 -5.3459205492e+00 3.0864686682e+00 5.3459205492e+00 
105300 5.9686994991e+00 -8.5812032979e-05 3.0864700733e+00 -5.3459229830e+00 3.0864700733e+00 5.3459229830e+00 
105400 5.9686995003e+00 -8.4894768261e-05 3.0864714634e+00 -5.3459253908e+00 3.0864714634e+00 5.3459253908e+00 
105500 5.9686995015e+00 -8.3985725490e-05 3.0864728387e+00 -5.3459277728e+00 3.0864728387e+00 5.3459277728e+00 
105600 5.9686995027e+00 -8.3084837325e-05 3.0864741992e+00 -5.3459301293e+00 3.0864741992e+00 5.3459301293e+00 
105700 5.9686995039e+00 -8.2192036945e-05 3.0864755452e+00 -5.3459324606e+00 3.0864755452e+00 5.3459324606e+00 
105800 5.9686995051e+00 -8.1307258062e-05 3.0864768767e+00 -5.3459347668e+00 3.0864768767e+00 5.3459347668e+00 
105900 5.9686995062e+00 -8.0430434909e-05 3.0864781938e+00 -5.3459370482e+00 3.0864781938e+00 5.3459370482e+00 
106000 5.9686995074e+00 -7.9561502238e-05 3.0864794968e+00 -5.3459393050e+00 3.0864794968e+00 5.3459393050e+00 
106100 5.9686995085e+00 -7.8700395324e-05 3.0864807857e+00 -5.3459415373e+00 3.0864807857e+00 5.3459415373e+00 
106200 5.9686995096e+00 -7.7847049935e-05 3.0864820606e+00 -5.3459437456e+00 3.0864820606e+00 5.3459437456e+00 
106300 5.9686995107e+00 -7.7001402364e-05 3.0864833217e+00 -5.3459459299e+00 3.0864833217e+00 5.3459459299e+00 
106400 5.9686995118e+00 -7.6163389391e-05 3.0864845691e+00 -5.3459480904e+00 3.0864845691e+00 5.3459480904e+00 
106500 5.9686995129e+00 -7.5332948307e-05 3.0864858029e+00 -5.3459502274e+00 3.0864858029e+00 5.3459502274e+00 
106600 5.9686995139e+00 -7.4510016893e-05 3.0864870233e+00 -5.3459523412e+00 3.0864870233e+00 5.3459523412e+00 
106700 5.9686995150e+00 -7.3694533423e-05 3.0864882303e+00 -5.3459544318e+00 3.0864882303e+00 5.3459544318e+00 
106800 5.9686995160e+00 -7.2886436653e-05 3.0864894241e+00 -5.3459564996e+00 3.0864894241e+00 5.3459564996e+00 
106900 5.9686995170e+00 -7.2085665827e-05 3.0864906049e+00 -5.3459585447e+00 3.0864906049e+00 5.3459585447e+00 
107000 5.9686995181e+00 -7.1292160668e-05 3.0864917726e+00 -5.3459605673e+00 3.0864917726e+00 5.3459605673e+00 
107100 5.9686995190e+00 -7.0505861372e-05 3.0864929275e+00 -5.3459625677e+00 3.0864929275e+00 5.3459625677e+00 
107200 5.9686995201e+00 -7.0423297919e-05 3.0864929275e+00 -5.3459625677e+00 3.0864929275e+00 5.3459625677e+00 
107300 5.9686995211e+00 -7.0350140530e-05 3.0864929275e+00 -5.3459625677e+00 3.0864929275e+00 5.3459625677e+00 
107400 5.9686995221e+00 -7.0285791317e-05 3.0864929275e+00 -5.3459625677e+00 3.0864929275e+00 5.3459625677e+00 
107500 5.9686995231e+00 -7.0229728774e-05 3.0864929275e+00 -5.3459625677e+00 3.0864929275e+00 5.3459625677e+00 
107600 5.9686995241e+00 -7.0181495783e-05 3.0864929275e+00 -5.3459625677e+00 3.0864929275e+00 5.3459625677e+00 
107700 5.9686995251e+00 -7.0140689339e-05 3.0864929275e+00 -5.3459625677e+00 3.0864929275e+00 5.3459625677e+00 
107800 5.9686995260e+00 -7.0106951764e-05 3.0864929275e+00 -5.3459625677e+00 3.0864929275e+00 5.3459625677e+00 
107900 5.9686995270e+00 -7.0079963186e-05 3.0864929275e+00 -5.3459625677e+00 3.0864929275e+00 5.3459625677e+00 
108000 5.9686995279e+00 -7.0059435137e-05 3.0864929275e+00 -5.3459625677e+00 3.0864929275e+00 5.3459625677e+00 
108100 5.9686995288e+00 -7.0045105087e-05 3.0864929275e+00 -5.3459625677e+00 3.0864929275e+00 5.3459625677e+00 
108200 5.9686995297e+00 -7.0036731801e-05 3.0864929275e+00 -5.3459625677e+00 3.0864929275e+00 5.3459625677e+00 
108300 5.9686995306e+00 -7.0034091405e-05 3.0864929275e+00 -5.3459625677e+00 3.0864929275e+00 5.3459625677e+00 
108400 5.9686995315e+00 -7.0036974067e-05 3.0864929275e+00 -5.3459625677e+00 3.0864929275e+00 5.3459625677e+00 
108500 5.9686995324e+00 -7.0045181201e-05 3.0864929275e+00 -5.3459625677e+00 3.0864929275e+00 5.3459625677e+00 
108600 5.9686995332e+00 -7.0058523128e-05 3.0864929275e+00 -5.3459625677e+00 3.0864929275e+00 5.3459625677e+00 
108700 5.9686995341e+00 -7.0076817130e-05 3.0864929275e+00 -5.3459625677e+00 3.0864929275e+00 5.3459625677e+00 
108800 5.9686995349e+00 -7.0099885840e-05 3.0864929275e+00 -5.3459625677e+00 3.0864929275e+00 5.3459625677e+00 
108900 5.9686995357e+00 -7.0127555925e-05 3.0864929275e+00 -5.3459625677e+00 3.0864929275e+00 5.3459625677e+00 
109000 5.9686995366e+00 -7.0159657013e-05 3.0864929275e+00 -5.3459625677e+00 3.0864929275e+00 5.3459625677e+00 
109100 5.9686995374e+00 -7.0196020845e-05 3.0864929275e+00 -5.3459625677e+00 3.0864929275e+00 5.3459625677e+00 
109200 5.9686995382e+00 -7.0236480596e-05 3.0864929275e+00 -5.3459625677e+00 3.0864929275e+00 5.3459625677e+00 
109300 5.9686995389e+00 -7.0280870358e-05 3.0864929275e+00 -5.3459625677e+00 3.0864929275e+00 5.3459625677e+00 
109400 5.9686995397e+00 -7.0329024754e-05 3.0864929275e+00 -5.3459625677e+00 3.0864929275e+00 5.3459625677e+00 
109500 5.9686995405e+00 -7.0380778672e-05 3.0864929275e+00 -5.3459625677e+00 3.0864929275e+00 5.3459625677e+00 
109600 5.9686995412e+00 -7.0435967079e-05 3.0864929275e+00 -5.3459625677e+00 3.0864929275e+00 5.3459625677e+00 
109700 5.9686995420e+00 -7.0494424923e-05 3.0864929275e+00 -5.3459625677e+00 3.0864929275e+00 5.3459625677e+00 
109800 5.9686995427e+00 -7.0555987101e-05 3.0864929275e+00 -5.3459625677e+00 3.0864929275e+00 5.3459625677e+00 
109900 5.9686995434e+00 -7.0620488485e-05 3.0864929275e+00 -5.3459625677e+00 3.0864929275e+00 5.3459625677e+00 
110000 5.9686995441e+00 -7.0687763974e-05 3.0864929275e+00 -5.3459625677e+00 3.0864929275e+00 5.3459625677e+00 
110100 5.9686995449e+00 -7.0757648616e-05 3.0864929275e+00 -5.3459625677e+00 3.0864929275e+00 5.3459625677e+00 
110200 5.9686995455e+00 -7.0130879776e-05 3.0864940738e+00 -5.3459645530e+00 3.0864940738e+00 5.3459645530e+00 
110300 5.9686995462e+00 -7.0195438528e-05 3.0864940738e+00 -5.3459645530e+00 3.0864940738e+00 5.3459645530e+00 
110400 5.9686995469e+00 -7.0262614210e-05 3.0864940738e+00 -5.3459645530e+00 3.0864940738e+00 5.3459645530e+00 
110500 5.9686995475e+00 -7.0332173724e-05 3.0864940738e+00 -5.3459645530e+00 3.0864940738e+00 5.3459645530e+00 
110600 5.9686995482e+00 -7.0403896138e-05 3.0864940738e+00 -5.3459645530e+00 3.0864940738e+00 5.3459645530e+00 
110700 5.9686995488e+00 -7.0477571286e-05 3.0864940738e+00 -5.3459645530e+00 3.0864940738e+00 5.3459645530e+00 
110800 5.9686995495e+00 -7.0552998590e-05 3.0864940738e+00 -5.3459645530e+00 3.0864940738e+00 5.3459645530e+00 
110900 5.9686995501e+00 -7.0629986072e-05 3.0864940738e+00 -5.3459645530e+00 3.0864940738e+00 5.3459645530e+00 
111000 5.9686995507e+00 -7.0708349530e-05 3.0864940738e+00 -5.3459645530e+00 3.0864940738e+00 5.3459645530e+00 
111100 5.9686995514e+00 -7.0787911840e-05 3.0864940738e+00 -5.3459645530e+00 3.0864940738e+00 5.3459645530e+00 
111200 5.9686995519e+00 -7.0169102506e-05 3.0864952205e+00 -5.3459665392e+00 3.0864952205e+00 5.3459665392e+00 
111300 5.9686995525e+00 -7.0240502188e-05 3.0864952205e+00 -5.3459665392e+00 3.0864952205e+00 5.3459665392e+00 
111400 5.9686995531e+00 -7.0313107103e-05 3.0864952205e+00 -5.3459665392e+00 3.0864952205e+00 5.3459665392e+00 
111500 5.9686995537e+00 -7.0386693330e-05 3.0864952205e+00 -5.3459665392e+00 3.0864952205e+00 5.3459665392e+00 
111600 5.9686995543e+00 -7.0461053168e-05 3.0864952205e+00 -5.3459665392e+00 3.0864952205e+00 5.3459665392e+00 
111700 5.9686995548e+00 -7.0535993312e-05 3.0864952205e+00 -5.3459665392e+00 3.0864952205e+00 5.3459665392e+00 
111800 5.9686995554e+00 -7.0611333287e-05 3.0864952205e+00 -5.3459665392e+00 3.0864952205e+00 5.3459665392e+00 
111900 5.9686995559e+00 -7.0686904122e-05 3.0864952205e+00 -5.3459665392e+00 3.0864952205e+00 5.3459665392e+00 
112000 5.9686995565e+00 -7.0762547189e-05 3.0864952205e+00 -5.3459665392e+00 3.0864952205e+00 5.3459665392e+00 
112100 5.9686995570e+00 -7.0138962206e-05 3.0864963668e+00 -5.3459685247e+00 3.0864963668e+00 5.3459685247e+00 
112200 5.9686995575e+00 -7.0204259877e-05 3.0864963668e+00 -5.3459685247e+00 3.0864963668e+00 5.3459685247e+00 
112300 5.9686995580e+00 -7.0269707227e-05 3.0864963668e+00 -5.3459685247e+00 3.0864963668e+00 5.3459685247e+00 
112400 5.9686995585e+00 -7.0335108278e-05 3.0864963668e+00 -5.3459685247e+00 3.0864963668e+00 5.3459685247e+00 
112500 5.9686995590e+00 -7.0400284884e-05 3.0864963668e+00 -5.3459685247e+00 3.0864963668e+00 5.3459685247e+00 
112600 5.9686995595e+00 -7.0465074660e-05 3.0864963668e+00 -5.3459685247e+00 3.0864963668e+00 5.3459685247e+00 
112700 5.9686995600e+00 -7.0529329207e-05 3.0864963668e+00 -5.3459685247e+00 3.0864963668e+00 5.3459685247e+00 
112800 5.9686995605e+00 -7.0592912568e-05 3.0864963668e+00 -5.3459685247e+00 3.0864963668e+00 5.3459685247e+00 
112900 5.9686995610e+00 -7.0655699920e-05 3.0864963668e+00 -5.3459685247e+00 3.0864963668e+00 5.3459685247e+00 
113000 5.9686995615e+00 -7.0717576407e-05 3.0864963668e+00 -5.3459685247e+00 3.0864963668e+00 5.3459685247e+00 
113100 5.9686995619e+00 -7.0079727965e-05 3.0864975124e+00 -5.3459705090e+00 3.0864975124e+00 5.3459705090e+00 
113200 5.9686995623e+00 -7.0129429233e-05 3.0864975124e+00 -5.3459705090e+00 3.0864975124e+00 5.3459705090e+00 
113300 5.9686995628e+00 -7.0178425655e-05 3.0864975124e+00 -5.3459705090e+00 3.0864975124e+00 5.3459705090e+00 
113400 5.9686995632e+00 -7.0226563403e-05 3.0864975124e+00 -5.3459705090e+00 3.0864975124e+00 5.3459705090e+00 
113500 5.9686995637e+00 -7.0273705988e-05 3.0864975124e+00 -5.3459705090e+00 3.0864975124e+00 5.3459705090e+00 
113600 5.9686995641e+00 -7.0319732164e-05 3.0864975124e+00 -5.3459705090e+00 3.0864975124e+00 5.3459705090e+00 
113700 5.9686995645e+00 -7.0364534116e-05 3.0864975124e+00 -5.3459705090e+00 3.0864975124e+00 5.3459705090e+00 
113800 5.9686995650e+00 -7.0408015897e-05 3.0864975124e+00 -5.3459705090e+00 3.0864975124e+00 5.3459705090e+00 
113900 5.9686995654e+00 -7.0450092070e-05 3.0864975124e+00 -5.3459705090e+00 3.0864975124e+00 5.3459705090e+00 
114000 5.9686995658e+00 -7.0490686527e-05 3.0864975124e+00 -5.3459705090e+00 3.0864975124e+00 5.3459705090e+00 
114100 5.9686995662e+00 -7.0529731469e-05 3.0864975124e+00 -5.3459705090e+00 3.0864975124e+00 5.3459705090e+00 
114200 5.9686995666e+00 -7.0567166511e-05 3.0864975124e+00 -5.3459705090e+00 3.0864975124e+00 5.3459705090e+00 
114300 5.9686995670e+00 -7.0602937901e-05 3.0864975124e+00 -5.3459705090e+00 3.0864975124e+00 5.3459705090e+00 
114400 5.9686995674e+00 -7.0636997850e-05 3.0864975124e+00 -5.3459705090e+00 3.0864975124e+00 5.3459705090e+00 
114500 5.9686995677e+00 -7.0669303928e-05 3.0864975124e+00 -5.3459705090e+00 3.0864975124e+00 5.3459705090e+00 
114600 5.9686995681e+00 -7.0699818550e-05 3.0864975124e+00 -5.3459705090e+00 3.0864975124e+00 5.3459705090e+00 
114700 5.9686995685e+00 -7.0728508526e-05 3.0864975124e+00 -5.3459705090e+00 3.0864975124e+00 5.3459705090e+00 
114800 5.9686995688e+00 -7.0056526149e-05 3.0864986582e+00 -5.3459724935e+00 3.0864986582e+00 5.3459724935e+00 
114900 5.9686995692e+00 -7.0071437605e-05 3.0864986582e+00 -5.3459724935e+00 3.0864986582e+00 5.3459724935e+00 
115000 5.9686995695e+00 -7.0084947469e-05 3.0864986582e+00 -5.3459724935e+00 3.0864986582e+00 5.3459724935e+00 
115100 5.9686995699e+00 -7.0096966394e-05 3.0864986582e+00 -5.3459724935e+00 3.0864986582e+00 5.3459724935e+00 
115200 5.9686995702e+00 -7.0107419035e-05 3.0864986582e+00 -5.3459724935e+00 3.0864986582e+00 5.3459724935e+00 
115300 5.9686995705e+00 -7.0116242246e-05 3.0864986582e+00 -5.3459724935e+00 3.0864986582e+00 5.3459724935e+00 
115400 5.9686995709e+00 -7.0123383497e-05 3.0864986582e+00 -5.3459724935e+00 3.0864986582e+00 5.3459724935e+00 
115500 5.9686995712e+00 -7.0128799536e-05 3.0864986582e+00 -5.3459724935e+00 3.0864986582e+00 5.3459724935e+00 
115600 5.9686995715e+00 -7.0132455201e-05 3.0864986582e+00 -5.3459724935e+00 3.0864986582e+00 5.3459724935e+00 
115700 5.9686995718e+00 -7.0134322408e-05 3.0864986582e+00 -5.3459724935e+00 3.0864986582e+00 5.3459724935e+00 
115800 5.9686995722e+00 -7.0134379256e-05 3.0864986582e+00 -5.3459724935e+00 3.0864986582e+00 5.3459724935e+00 
115900 5.9686995725e+00 -7.0132609257e-05 3.0864986582e+00 -5.3459724935e+00 3.0864986582e+00 5.3459724935e+00 
116000 5.9686995728e+00 -7.0129000666e-05 3.0864986582e+00 -5.3459724935e+00 3.0864986582e+00 5.3459724935e+00 
116100 5.9686995731e+00 -7.0123545886e-05 3.0864986582e+00 -5.3459724935e+00 3.0864986582e+00 5.3459724935e+00 
116200 5.9686995734e+00 -7.0116240964e-05 3.0864986582e+00 -5.3459724935e+00 3.0864986582e+00 5.3459724935e+00 
116300 5.9686995737e+00 -7.0107085138e-05 3.0864986582e+00 -5.3459724935e+00 3.0864986582e+00 5.3459724935e+00 
116400 5.9686995740e+00 -7.0096080450e-05 3.0864986582e+00 -5.3459724935e+00 3.0864986582e+00 5.3459724935e+00 
116500 5.9686995742e+00 -7.0083231397e-05 3.0864986582e+00 -5.3459724935e+00 3.0864986582e+00 5.3459724935e+00 
116600 5.9686995745e+00 -7.0068544634e-05 3.0864986582e+00 -5.3459724935e+00 3.0864986582e+00 5.3459724935e+00 
116700 5.9686995748e+00 -7.0052028711e-05 3.0864986582e+00 -5.3459724935e+00 3.0864986582e+00 5.3459724935e+00 
116800 5.9686995751e+00 -7.0033693848e-05 3.0864986582e+00 -5.3459724935e+00 3.0864986582e+00 5.3459724935e+00 
116900 5.9686995753e+00 -7.0013551726e-05 3.0864986582e+00 -5.3459724935e+00 3.0864986582e+00 5.3459724935e+00 
117000 5.9686995756e+00 -6.9991615311e-05 3.0864986582e+00 -5.3459724935e+00 3.0864986582e+00 5.3459724935e+00 
117100 5.9686995759e+00 -6.9967898701e-05 3.0864986582e+00 -5.3459724935e+00 3.0864986582e+00 5.3459724935e+00 
117200 5.9686995761e+00 -6.9942416984e-05 3.0864986582e+00 -5.3459724935e+00 3.0864986582e+00 5.3459724935e+00 
117300 5.9686995764e+00 -6.9915186115e-05 3.0864986582e+00 -5.3459724935e+00 3.0864986582e+00 5.3459724935e+00 
117400 5.9686995766e+00 -6.9886222820e-05 3.0864986582e+00 -5.3459724935e+00 3.0864986582e+00 5.3459724935e+00 
117500 5.9686995769e+00 -6.9855544493e-05 3.0864986582e+00 -5.3459724935e+00 3.0864986582e+00 5.3459724935e+00 
117600 5.9686995771e+00 -6.9823169107e-05 3.0864986582e+00 -5.3459724935e+00 3.0864986582e+00 5.3459724935e+00 
117700 5.9686995773e+00 -6.9789115155e-05 3.0864986582e+00 -5.3459724935e+00 3.0864986582e+00 5.3459724935e+00 
117800 5.9686995776e+00 -6.9753401571e-05 3.0864986582e+00 -5.3459724935e+00 3.0864986582e+00 5.3459724935e+00 
117900 5.9686995778e+00 -6.9716047679e-05 3.0864986582e+00 -5.3459724935e+00 3.0864986582e+00 5.3459724935e+00 
118000 5.9686995780e+00 -6.9677073139e-05 3.0864986582e+00 -5.3459724935e+00 3.0864986582e+00 5.3459724935e+00 
118100 5.9686995782e+00 -6.9636497900e-05 3.0864986582e+00 -5.3459724935e+00 3.0864986582e+00 5.3459724935e+00 
118200 5.9686995785e+00 -6.9594342161e-05 3.0864986582e+00 -5.3459724935e+00 3.0864986582e+00 5.3459724935e+00 
118300 5.9686995787e+00 -6.9550626334e-05 3.0864986582e+00 -5.3459724935e+00 3.0864986582e+00 5.3459724935e+00 
118400 5.9686995789e+00 -6.9505371009e-05 3.0864986582e+00 -5.3459724935e+00 3.0864986582e+00 5.3459724935e+00 
118500 5.9686995791e+00 -6.9458596922e-05 3.0864986582e+00 -5.3459724935e+00 3.0864986582e+00 5.3459724935e+00 
118600 5.9686995793e+00 -6.9410324943e-05 3.0864986582e+00 -5.3459724935e+00 3.0864986582e+00 5.3459724935e+00 
118700 5.9686995795e+00 -6.9360576030e-05 3.0864986582e+00 -5.3459724935e+00 3.0864986582e+00 5.3459724935e+00 
118800 5.9686995797e+00 -6.9309371226e-05 3.0864986582e+00 -5.3459724935e+00 3.0864986582e+00 5.3459724935e+00 
118900 5.9686995799e+00 -6.9256731631e-05 3.0864986582e+00 -5.3459724935e+00 3.0864986582e+00 5.3459724935e+00 
119000 5.9686995801e+00 -6.9202678389e-05 3.0864986582e+00 -5.3459724935e+00 3.0864986582e+00 5.3459724935e+00 
119100 5.9686995803e+00 -6.9147232665e-05 3.0864986582e+00 -5.3459724935e+00 3.0864986582e+00 5.3459724935e+00 
119200 5.9686995805e+00 -6.9090415640e-05 3.0864986582e+00 -5.3459724935e+00 3.0864986582e+00 5.3459724935e+00 
119300 5.9686995807e+00 -6.9032248492e-05 3.0864986582e+00 -5.3459724935e+00 3.0864986582e+00 5.3459724935e+00 
119400 5.9686995808e+00 -6.8972752389e-05 3.0864986582e+00 -5.3459724935e+00 3.0864986582e+00 5.3459724935e+00 
119500 5.9686995810e+00 -6.8911948470e-05 3.0864986582e+00 -5.3459724935e+00 3.0864986582e+00 5.3459724935e+00 
119600 5.9686995812e+00 -6.8849857846e-05 3.0864986582e+00 -5.3459724935e+00 3.0864986582e+00 5.3459724935e+00 
119700 5.9686995814e+00 -6.8786501583e-05 3.0864986582e+00 -5.3459724935e+00 3.0864986582e+00 5.3459724935e+00 
119800 5.9686995815e+00 -6.8721900698e-05 3.0864986582e+00 -5.3459724935e+00 3.0864986582e+00 5.3459724935e+00 
119900 5.9686995817e+00 -6.8656076152e-05 3.0864986582e+00 -5.3459724935e+00 3.0864986582e+00 5.3459724935e+00 
120000 5.9686995819e+00 -6.8589048839e-05 3.0864986582e+00 -5.3459724935e+00 3.0864986582e+00 5.3459724935e+00 
120100 5.9686995820e+00 -6.8520839586e-05 3.0864986582e+00 -5.3459724935e+00 3.0864986582e+00 5.3459724935e+00 
120200 5.9686995822e+00 -6.8451469137e-05 3.0864986582e+00 -5.3459724935e+00 3.0864986582e+00 5.3459724935e+00 
120300 5.9686995824e+00 -6.8380958164e-05 3.0864986582e+00 -5.3459724935e+00 3.0864986582e+00 5.3459724935e+00 
120400 5.9686995825e+00 -6.8309327251e-05 3.0864986582e+00 -5.3459724935e+00 3.0864986582e+00 5.3459724935e+00 
120500 5.9686995827e+00 -6.8236596885e-05 3.0864986582e+00 -5.3459724935e+00 3.0864986582e+00 5.3459724935e+00 
120600 5.9686995828e+00 -6.8162787465e-05 3.0864986582e+00 -5.3459724935e+00 3.0864986582e+00 5.3459724935e+00 
120700 5.9686995830e+00 -6.8087919294e-05 3.0864986582e+00 -5.3459724935e+00 3.0864986582e+00 5.3459724935e+00 
120800 5.9686995831e+00 -6.8012012566e-05 3.0864986582e+00 -5.3459724935e+00 3.0864986582e+00 5.3459724935e+00 
120900 5.9686995833e+00 -6.7935087376e-05 3.0864986582e+00 -5.3459724935e+00 3.0864986582e+00 5.3459724935e+00 
121000 5.9686995834e+00 -6.7857163712e-05 3.0864986582e+00 -5.3459724935e+00 3.0864986582e+00 5.3459724935e+00 
121100 5.9686995835e+00 -6.7778261445e-05 3.0864986582e+00 -5.3459724935e+00 3.0864986582e+00 5.3459724935e+00 
121200 5.9686995837e+00 -6.7698400339e-05 3.0864986582e+00 -5.3459724935e+00 3.0864986582e+00 5.3459724935e+00 
121300 5.9686995838e+00 -6.7617600043e-05 3.0864986582e+00 -5.3459724935e+00 3.0864986582e+00 5.3459724935e+00 
121400 5.9686995839e+00 -6.7535880088e-05 3.0864986582e+00 -5.3459724935e+00 3.0864986582e+00 5.3459724935e+00 
121500 5.9686995841e+00 -6.7453259884e-05 3.0864986582e+00 -5.3459724935e+00 3.0864986582e+00 5.3459724935e+00 
121600 5.9686995842e+00 -6.7369758719e-05 3.0864986582e+00 -5.3459724935e+00 3.0864986582e+00 5.3459724935e+00 
121700 5.9686995843e+00 -6.7285395760e-05 3.0864986582e+00 -5.3459724935e+00 3.0864986582e+00 5.3459724935e+00 
121800 5.9686995845e+00 -6.7200190046e-05 3.0864986582e+00 -5.3459724935e+00 3.0864986582e+00 5.3459724935e+00 
121900 5.9686995846e+00 -6.7114160496e-05 3.0864986582e+00 -5.3459724935e+00 3.0864986582e+00 5.3459724935e+00 
122000 5.9686995847e+00 -6.7027325892e-05 3.0864986582e+00 -5.3459724935e+00 3.0864986582e+00 5.3459724935e+00 
122100 5.9686995848e+00 -6.6939704895e-05 3.0864986582e+00 -5.3459724935e+00 3.0864986582e+00 5.3459724935e+00 
122200 5.9686995849e+00 -6.6851316027e-05 3.0864986582e+00 -5.3459724935e+00 3.0864986582e+00 5.3459724935e+00 
122300 5.9686995851e+00 -6.6762177682e-05 3.0864986582e+00 -5.3459724935e+00 3.0864986582e+00 5.3459724935e+00 
122400 5.9686995852e+00 -6.6672308123e-05 3.0864986582e+00 -5.3459724935e+00 3.0864986582e+00 5.3459724935e+00 
122500 5.9686995853e+00 -6.6581725471e-05 3.0864986582e+00 -5.3459724935e+00 3.0864986582e+00 5.3459724935e+00 
122600 5.9686995854e+00 -6.6490447718e-05 3.0864986582e+00 -5.3459724935e+00 3.0864986582e+00 5.3459724935e+00 
122700 5.9686995855e+00 -6.6398492714e-05 3.0864986582e+00 -5.3459724935e+00 3.0864986582e+00 5.3459724935e+00 
122800 5.9686995856e+00 -6.6305878175e-05 3.0864986582e+00 -5.3459724935e+00 3.0864986582e+00 5.3459724935e+00 
122900 5.9686995857e+00 -6.6212621671e-05 3.0864986582e+00 -5.3459724935e+00 3.0864986582e+00 5.3459724935e+00 
123000 5.9686995858e+00 -6.6118740641e-05 3.0864986582e+00 -5.3459724935e+00 3.0864986582e+00 5.3459724935e+00 
123100 5.9686995859e+00 -6.6024252375e-05 3.0864986582e+00 -5.3459724935e+00 3.0864986582e+00 5.3459724935e+00 
123200 5.9686995860e+00 -6.5929174022e-05 3.0864986582e+00 -5.3459724935e+00 3.0864986582e+00 5.3459724935e+00 
123300 5.9686995861e+00 -6.5833522589e-05 3.0864986582e+00 -5.3459724935e+00 3.0864986582e+00 5.3459724935e+00 
123400 5.9686995862e+00 -6.5737314939e-05 3.0864986582e+00 -5.3459724935e+00 3.0864986582e+00 5.3459724935e+00 
123500 5.9686995863e+00 -6.5640567785e-05 3.0864986582e+00 -5.3459724935e+00 3.0864986582e+00 5.3459724935e+00 
123600 5.9686995864e+00 -6.5543297700e-05 3.0864986582e+00 -5.3459724935e+00 3.0864986582e+00 5.3459724935e+00 
123700 5.9686995865e+00 -6.5445521104e-05 3.0864986582e+00 -5.3459724935e+00 3.0864986582e+00 5.3459724935e+00 
123800 5.9686995866e+00 -6.5347254272e-05 3.0864986582e+00 -5.3459724935e+00 3.0864986582e+00 5.3459724935e+00 
123900 5.9686995867e+00 -6.5248513332e-05 3.0864986582e+00 -5.3459724935e+00 3.0864986582e+00 5.3459724935e+00 
124000 5.9686995868e+00 -6.5149314256e-05 3.0864986582e+00 -5.3459724935e+00 3.0864986582e+00 5.3459724935e+00 
124100 5.9686995869e+00 -6.5049672868e-05 3.0864986582e+00 -5.3459724935e+00 3.0864986582e+00 5.3459724935e+00 
124200 5.9686995869e+00 -6.4949604841e-05 3.0864986582e+00 -5.3459724935e+00 3.0864986582e+00 5.3459724935e+00 
124300 5.9686995870e+00 -6.4849125694e-05 3.0864986582e+00 -5.3459724935e+00 3.0864986582e+00 5.3459724935e+00 
124400 5.9686995871e+00 -6.4748250793e-05 3.0864986582e+00 -5.3459724935e+00 3.0864986582e+00 5.3459724935e+00 
124500 5.9686995872e+00 -6.4646995350e-05 3.0864986582e+00 -5.3459724935e+00 3.0864986582e+00 5.3459724935e+00 
124600 5.9686995873e+00 -6.4545374416e-05 3.0864986582e+00 -5.3459724935e+00 3.0864986582e+00 5.3459724935e+00 
124700 5.9686995873e+00 -6.4443402898e-05 3.0864986582e+00 -5.3459724935e+00 3.0864986582e+00 5.3459724935e+00 
124800 5.9686995874e+00 -6.4341095535e-05 3.0864986582e+00 -5.3459724935e+00 3.0864986582e+00 5.3459724935e+00 
124900 5.9686995875e+00 -6.4238466915e-05 3.0864986582e+00 -5.3459724935e+00 3.0864986582e+00 5.3459724935e+00 
125000 5.9686995876e+00 -6.4135531461e-05 3.0864986582e+00 -5.3459724935e+00 3.0864986582e+00 5.3459724935e+00 
125100 5.9686995876e+00 -6.4032303442e-05 3.0864986582e+00 -5.3459724935e+00 3.0864986582e+00 5.3459724935e+00 
125200 5.9686995877e+00 -6.3928796967e-05 3.0864986582e+00 -5.3459724935e+00 3.0864986582e+00 5.3459724935e+00 
125300 5.9686995878e+00 -6.3825025982e-05 3.0864986582e+00 -5.3459724935e+00 3.0864986582e+00 5.3459724935e+00 
125400 5.9686995879e+00 -6.3721004275e-05 3.0864986582e+00 -5.3459724935e+00 3.0864986582e+00 5.3459724935e+00 
125500 5.9686995879e+00 -6.3616745467e-05 3.0864986582e+00 -5.3459724935e+00 3.0864986582e+00 5.3459724935e+00 
125600 5.9686995880e+00 -6.3512263019e-05 3.0864986582e+00 -5.3459724935e+00 3.0864986582e+00 5.3459724935e+00 
125700 5.9686995881e+00 -6.3407570231e-05 3.0864986582e+00 -5.3459724935e+00 3.0864986582e+00 5.3459724935e+00 
125800 5.9686995881e+00 -6.3302680236e-05 3.0864986582e+00 -5.3459724935e+00 3.0864986582e+00 5.3459724935e+00 
125900 5.9686995882e+00 -6.3197606008e-05 3.0864986582e+00 -5.3459724935e+00 3.0864986582e+00 5.3459724935e+00 
126000 5.9686995883e+00 -6.3092360348e-05 3.0864986582e+00 -5.3459724935e+00 3.0864986582e+00 5.3459724935e+00 
126100 5.9686995883e+00 -6.2986955897e-05 3.0864986582e+00 -5.3459724935e+00 3.0864986582e+00 5.3459724935e+00 
126200 5.9686995884e+00 -6.2881405129e-05 3.0864986582e+00 -5.3459724935e+00 3.0864986582e+00 5.3459724935e+00 
126300 5.9686995884e+00 -6.2775720354e-05 3.0864986582e+00 -5.3459724935e+00 3.0864986582e+00 5.3459724935e+00 
126400 5.9686995885e+00 -6.2669913714e-05 3.0864986582e+00 -5.3459724935e+00 3.0864986582e+00 5.3459724935e+00 
126500 5.9686995886e+00 -6.2563997180e-05 3.0864986582e+00 -5.3459724935e+00 3.0864986582e+00 5.3459724935e+00 
126600 5.9686995886e+00 -6.2457982563e-05 3.0864986582e+00 -5.3459724935e+00 3.0864986582e+00 5.3459724935e+00 
126700 5.9686995887e+00 -6.2351881505e-05 3.0864986582e+00 -5.3459724935e+00 3.0864986582e+00 5.3459724935e+00 
126800 5.9686995887e+00 -6.2245705476e-05 3.0864986582e+00 -5.3459724935e+00 3.0864986582e+00 5.3459724935e+00 
126900 5.9686995888e+00 -6.2139465782e-05 3.0864986582e+00 -5.3459724935e+00 3.0864986582e+00 5.3459724935e+00 
127000 5.9686995888e+00 -6.2033173560e-05 3.0864986582e+00 -5.3459724935e+00 3.0864986582e+00 5.3459724935e+00 
127100 5.9686995889e+00 -6.1926839780e-05 3.0864986582e+00 -5.3459724935e+00 3.0864986582e+00 5.3459724935e+00 
127200 5.9686995889e+00 -6.1820475242e-05 3.0864986582e+00 -5.3459724935e+00 3.0864986582e+00 5.3459724935e+00 
127300 5.9686995890e+00 -6.1714090581e-05 3.0864986582e+00 -5.3459724935e+00 3.0864986582e+00 5.3459724935e+00 
127400 5.9686995890e+00 -6.1607696262e-05 3.0864986582e+00 -5.3459724935e+00 3.0864986582e+00 5.3459724935e+00 
127500 5.9686995891e+00 -6.1501302585e-05 3.0864986582e+00 -5.3459724935e+00 3.0864986582e+00 5.3459724935e+00 
127600 5.9686995891e+00 -6.1394919676e-05 3.0864986582e+00 -5.3459724935e+00 3.0864986582e+00 5.3459724935e+00 
127700 5.9686995892e+00 -6.1288557502e-05 3.0864986582e+00 -5.3459724935e+00 3.0864986582e+00 5.3459724935e+00 
127800 5.9686995892e+00 -6.1182225856e-05 3.0864986582e+00 -5.3459724935e+00 3.0864986582e+00 5.3459724935e+00 
127900 5.9686995893e+00 -6.1075934369e-05 3.0864986582e+00 -5.3459724935e+00 3.0864986582e+00 5.3459724935e+00 
128000 5.9686995893e+00 -6.1033431143e-05 3.0864986582e+00 -5.3459724935e+00 3.0864986582e+00 5.3459724935e+00 
128000 5.9686995893e+00 -6.1033431143e-05 3.0864986582e+00 -5.3459724935e+00 3.0864986582e+00 5.3459724935e+00 
