# step Hamiltonian StressXX CellTensor1 CellTensor2 CellTensor3 CellTensor4 
0 5.8809119278e+00 1.5762598529e-01 2.5594246509e+00 -4.4330535334e+00 2.5594246509e+00 4.4330535334e+00 
100 5.8907855046e+00 1.6944986200e-01 2.5594246509e+00 -4.4330535334e+00 2.5594246509e+00 4.4330535334e+00 
200 5.9004335559e+00 1.8038720785e-01 2.5561150538e+00 -4.4273211431e+00 2.5561150538e+00 4.4273211431e+00 
300 5.9100967823e+00 1.9085139032e-01 2.5525873243e+00 -4.4212109364e+00 2.5525873243e+00 4.4212109364e+00 
400 5.9196237729e+00 2.0080885825e-01 2.5488498471e+00 -4.4147374361e+00 2.5488498471e+00 4.4147374361e+00 
500 5.9288569433e+00 2.1020085544e-01 2.5449116580e+00 -4.4079162925e+00 2.5449116580e+00 4.4079162925e+00 
600 5.9376404156e+00 2.1894972920e-01 2.5407829506e+00 -4.4007651615e+00 2.5407829506e+00 4.4007651615e+00 
700 5.9458284339e+00 2.2696747254e-01 2.5364754646e+00 -4.3933043769e+00 2.5364754646e+00 4.3933043769e+00 
800 5.9532940876e+00 2.3416650254e-01 2.5320027103e+00 -4.3855573392e+00 2.5320027103e+00 4.3855573392e+00 
900 5.9599376682e+00 2.4047191935e-01 2.5273799843e+00 -4.3775505428e+00 2.5273799843e+00 4.3775505428e+00 
1000 5.9656935723e+00 2.4583362093e-01 2.5226241435e+00 -4.3693131849e+00 2.5226241435e+00 4.3693131849e+00 
1100 5.9705344791e+00 2.5023600782e-01 2.5177531379e+00 -4.3608763557e+00 2.5177531379e+00 4.3608763557e+00 
1200 5.9744717445e+00 2.5370300541e-01 2.5127853449e+00 -4.3522718859e+00 2.5127853449e+00 4.3522718859e+00 
1300 5.9775516181e+00 2.5629699008e-01 2.5077387959e+00 -4.3435310067e+00 2.5077387959e+00 4.3435310067e+00 
1400 5.9798478290e+00 2.5811174711e-01 2.5026304137e+00 -4.3346830290e+00 2.5026304137e+00 4.3346830290e+00 
1500 5.9814519398e+00 2.5926121028e-01 2.4974753792e+00 -4.3257542474e+00 2.4974753792e+00 4.3257542474e+00 
1600 5.9824632948e+00 2.5986672876e-01 2.4922867150e+00 -4.3167672174e+00 2.4922867150e+00 4.3167672174e+00 
1700 5.9829802307e+00 2.6004559383e-01 2.4870751168e+00 -4.3077404645e+00 2.4870751168e+00 4.3077404645e+00 
1800 5.9830936120e+00 2.5990268441e-01 2.4818490121e+00 -4.2986885857e+00 2.4818490121e+00 4.2986885857e+00 
1900 5.9828830091e+00 2.5952587326e-01 2.4766147875e+00 -4.2896226428e+00 2.4766147875e+00 4.2896226428e+00 
2000 5.9824152256e+00 2.5898480380e-01 2.4713771104e+00 -4.2805507200e+00 2.4713771104e+00 4.2805507200e+00 
2100 5.9817445518e+00 2.5833207891e-01 2.4661392798e+00 -4.2714785312e+00 2.4661392798e+00 4.2714785312e+00 
2200 5.9809140602e+00 2.5760579571e-01 2.4609035568e+00 -4.2624099929e+00 2.4609035568e+00 4.2624099929e+00 
2300 5.9799573688e+00 2.5683254750e-01 2.4556714483e+00 -4.2533477152e+00 2.4556714483e+00 4.2533477152e+00 
2400 5.9789004720e+00 2.5603031061e-01 2.4504439331e+00 -4.2442933932e+00 2.4504439331e+00 4.2442933932e+00 
2500 5.9777634093e+00 2.5521091199e-01 2.4452216315e+00 -4.2352481016e+00 2.4452216315e+00 4.2352481016e+00 
2600 5.9765616714e+00 2.5438197597e-01 2.4400049277e+00 -4.2262125056e+00 2.4400049277e+00 4.2262125056e+00 
2700 5.9753073220e+00 2.5354836988e-01 2.4347940529e+00 -4.2171870055e+00 2.4347940529e+00 4.2171870055e+00 
2800 5.9740098620e+00 2.5271322575e-01 2.4295891402e+00 -4.2081718324e+00 2.4295891402e+00 4.2081718324e+00 
2900 5.9726768764e+00 2.5187863132e-01 2.4243902597e+00 -4.1991671071e+00 2.4243902597e+00 4.1991671071e+00 
3000 5.9713145115e+00 2.5104607804e-01 2.4191974388e+00 -4.1901728775e+00 2.4191974388e+00 4.1901728775e+00 
3100 5.9699278216e+00 2.5021673854e-01 2.4140106743e+00 -4.1811891379e+00 2.4140106743e+00 4.1811891379e+00 
3200 5.9685210199e+00 2.4939162920e-01 2.4088299388e+00 -4.1722158408e+00 2.4088299388e+00 4.1722158408e+00 
3300 5.9670976604e+00 2.4857169821e-01 2.4036551835e+00 -4.1632529016e+00 2.4036551835e+00 4.1632529016e+00 
3400 5.9656607698e+00 2.4775786731e-01 2.3984863392e+00 -4.1543002008e+00 2.3984863392e+00 4.1543002008e+00 
3500 5.9642129432e+00 2.4695104596e-01 2.3933233172e+00 -4.1453575843e+00 2.3933233172e+00 4.1453575843e+00 
3600 5.9627564162e+00 2.4615213036e-01 2.3881660088e+00 -4.1364248641e+00 2.3881660088e+00 4.1364248641e+00 
3700 5.9612931188e+00 2.4536199483e-01 2.3830142855e+00 -4.1275018176e+00 2.3830142855e+00 4.1275018176e+00 
3800 5.9598247163e+00 2.4458148038e-01 2.3778679995e+00 -4.1185881889e+00 2.3778679995e+00 4.1185881889e+00 
3900 5.9583526423e+00 2.4381138278e-01 2.3727269840e+00 -4.1096836888e+00 2.3727269840e+00 4.1096836888e+00 
4000 5.9568781248e+00 2.4305244178e-01 2.3675910539e+00 -4.1007879968e+00 2.3675910539e+00 4.1007879968e+00 
4100 5.9554022079e+00 2.4230533190e-01 2.3624600067e+00 -4.0919007624e+00 2.3624600067e+00 4.0919007624e+00 
4200 5.9539257700e+00 2.4157065494e-01 2.3573336240e+00 -4.0830216072e+00 2.3573336240e+00 4.0830216072e+00 
4300 5.9524495394e+00 2.4084893416e-01 2.3522116729e+00 -4.0741501276e+00 2.3522116729e+00 4.0741501276e+00 
4400 5.9509741088e+00 2.4014060989e-01 2.3470939070e+00 -4.0652858970e+00 2.3470939070e+00 4.0652858970e+00 
4500 5.9494999469e+00 2.3944603623e-01 2.3419800685e+00 -4.0564284689e+00 2.3419800685e+00 4.0564284689e+00 
4600 5.9480274101e+00 2.3876547879e-01 2.3368698897e+00 -4.0475773796e+00 2.3368698897e+00 4.0475773796e+00 
4700 5.9465567526e+00 2.3809911292e-01 2.3317630950e+00 -4.0387321518e+00 2.3317630950e+00 4.0387321518e+00 
4800 5.9450881362e+00 2.3744702253e-01 2.3266594026e+00 -4.0298922972e+00 2.3266594026e+00 4.0298922972e+00 
4900 5.9436216387e+00 2.3680919911e-01 2.3215585263e+00 -4.0210573202e+00 2.3215585263e+00 4.0210573202e+00 
5000 5.9421572629e+00 2.3618554101e-01 2.3164601775e+00 -4.0122267211e+00 2.3164601775e+00 4.0122267211e+00 
5100 5.9406949442e+00 2.3557585267e-01 2.3113640675e+00 -4.0033999997e+00 2.3113640675e+00 4.0033999997e+00 
5200 5.9392345583e+00 2.3497984392e-01 2.3062699090e+00 -3.9945766584e+00 2.3062699090e+00 3.9945766584e+00 
5300 5.9377759286e+00 2.3439712925e-01 2.3011774187e+00 -3.9857562064e+00 2.3011774187e+00 3.9857562064e+00 
5400 5.9363188331e+00 2.3382722695e-01 2.2960863189e+00 -3.9769381630e+00 2.2960863189e+00 3.9769381630e+00 
5500 5.9348630116e+00 2.3326955820e-01 2.2909963402e+00 -3.9681220612e+00 2.2909963402e+00 3.9681220612e+00 
5600 5.9334081721e+00 2.3272344614e-01 2.2859072231e+00 -3.9593074518e+00 2.2859072231e+00 3.9593074518e+00 
5700 5.9319539979e+00 2.3218811490e-01 2.2808187209e+00 -3.9504939075e+00 2.2808187209e+00 3.9504939075e+00 
5800 5.9305001537e+00 2.3166268857e-01 2.2757306015e+00 -3.9416810261e+00 2.2757306015e+00 3.9416810261e+00 
5900 5.9290462923e+00 2.3114619029e-01 2.2706426500e+00 -3.9328684356e+00 2.2706426500e+00 3.9328684356e+00 
6000 5.9275920611e+00 2.3063754143e-01 2.2655546710e+00 -3.9240557975e+00 2.2655546710e+00 3.9240557975e+00 
6100 5.9261371086e+00 2.3013556089e-01 2.2604664914e+00 -3.9152428118e+00 2.2604664914e+00 3.9152428118e+00 
6200 5.9246810907e+00 2.2963896470e-01 2.2553779623e+00 -3.9064292209e+00 2.2553779623e+00 3.9064292209e+00 
6300 5.9232236774e+00 2.2914636584e-01 2.2502889621e+00 -3.8976148140e+00 2.2502889621e+00 3.8976148140e+00 
6400 5.9217645588e+00 2.2865627444e-01 2.2451993988e+00 -3.8887994319e+00 2.2451993988e+00 3.8887994319e+00 
6500 5.9203034524e+00 2.2816709850e-01 2.2401092129e+00 -3.8799829713e+00 2.2401092129e+00 3.8799829713e+00 
6600 5.9188401086e+00 2.2767714500e-01 2.2350183797e+00 -3.8711653896e+00 2.2350183797e+00 3.8711653896e+00 
6700 5.9173743179e+00 2.2718462173e-01 2.2299269122e+00 -3.8623467091e+00 2.2299269122e+00 3.8623467091e+00 
6800 5.9159059171e+00 2.2668763969e-01 2.2248348635e+00 -3.8535270220e+00 2.2248348635e+00 3.8535270220e+00 
6900 5.9144347953e+00 2.2618421626e-01 2.2197423298e+00 -3.8447064950e+00 2.2197423298e+00 3.8447064950e+00 
7000 5.9129609007e+00 2.2567227926e-01 2.2146494528e+00 -3.8358853733e+00 2.2146494528e+00 3.8358853733e+00 
7100 5.9114842461e+00 2.2514967171e-01 2.2095564222e+00 -3.8270639855e+00 2.2095564222e+00 3.8270639855e+00 
7200 5.9100049153e+00 2.2461415772e-01 2.2044634782e+00 -3.8182427476e+00 2.2044634782e+00 3.8182427476e+00 
7300 5.9085230680e+00 2.2406342920e-01 2.1993709138e+00 -3.8094221674e+00 2.1993709138e+00 3.8094221674e+00 
7400 5.9070389458e+00 2.2349511367e-01 2.1942790774e+00 -3.8006028480e+00 2.1942790774e+00 3.8006028480e+00 
7500 5.9055528764e+00 2.2290678306e-01 2.1891883744e+00 -3.7917854917e+00 2.1891883744e+00 3.7917854917e+00 
7600 5.9040652784e+00 2.2229596362e-01 2.1840992695e+00 -3.7829709035e+00 2.1840992695e+00 3.7829709035e+00 
7700 5.9025766649e+00 2.2166014676e-01 2.1790122883e+00 -3.7741599937e+00 2.1790122883e+00 3.7741599937e+00 
7800 5.9010876464e+00 2.2099680105e-01 2.1739280189e+00 -3.7653537807e+00 2.1739280189e+00 3.7653537807e+00 
7900 5.8995989336e+00 2.2030338503e-01 2.1688471128e+00 -3.7565533933e+00 2.1688471128e+00 3.7565533933e+00 
8000 5.8981113388e+00 2.1957736108e-01 2.1637702865e+00 -3.7477600722e+00 2.1637702865e+00 3.7477600722e+00 
8100 5.8966257762e+00 2.1881620999e-01 2.1586983215e+00 -3.7389751711e+00 2.1586983215e+00 3.7389751711e+00 
8200 5.8951432621e+00 2.1801744627e-01 2.1536320651e+00 -3.7302001576e+00 2.1536320651e+00 3.7302001576e+00 
8300 5.8936649131e+00 2.1717863411e-01 2.1485724301e+00 -3.7214366126e+00 2.1485724301e+00 3.7214366126e+00 
8400 5.8921919433e+00 2.1629740369e-01 2.1435203944e+00 -3.7126862302e+00 2.1435203944e+00 3.7126862302e+00 
8500 5.8907256611e+00 2.1537146777e-01 2.1384770006e+00 -3.7039508159e+00 2.1384770006e+00 3.7039508159e+00 
8600 5.8892674637e+00 2.1439863842e-01 2.1334433542e+00 -3.6952322845e+00 2.1334433542e+00 3.6952322845e+00 
8700 5.8878188309e+00 2.1337684358e-01 2.1284206222e+00 -3.6865326576e+00 2.1284206222e+00 3.6865326576e+00 
8800 5.8863813176e+00 2.1230414333e-01 2.1234100315e+00 -3.6778540598e+00 2.1234100315e+00 3.6778540598e+00 
8900 5.8849565451e+00 2.1117874560e-01 2.1184128656e+00 -3.6691987147e+00 2.1184128656e+00 3.6691987147e+00 
9000 5.8835461908e+00 2.0999902119e-01 2.1134304625e+00 -3.6605689393e+00 2.1134304625e+00 3.6605689393e+00 
9100 5.8821519772e+00 2.0876351777e-01 2.1084642109e+00 -3.6519671391e+00 2.1084642109e+00 3.6519671391e+00 
9200 5.8807756598e+00 2.0747097277e-01 2.1035155466e+00 -3.6433958012e+00 2.1035155466e+00 3.6433958012e+00 
9300 5.8794190135e+00 2.0612032489e-01 2.0985859487e+00 -3.6348574872e+00 2.0985859487e+00 3.6348574872e+00 
9400 5.8780838191e+00 2.0471072414e-01 2.0936769349e+00 -3.6263548260e+00 2.0936769349e+00 3.6263548260e+00 
9500 5.8767718482e+00 2.0324154015e-01 2.0887900571e+00 -3.6178905052e+00 2.0887900571e+00 3.6178905052e+00 
9600 5.8754848484e+00 2.0171236874e-01 2.0839268957e+00 -3.6094672627e+00 2.0839268957e+00 3.6094672627e+00 
9700 5.8742245276e+00 2.0012303662e-01 2.0790890554e+00 -3.6010878775e+00 2.0790890554e+00 3.6010878775e+00 
9800 5.8729925388e+00 1.9847360404e-01 2.0742781588e+00 -3.5927551601e+00 2.0742781588e+00 3.5927551601e+00 
9900 5.8717904644e+00 1.9676436565e-01 2.0694958414e+00 -3.5844719433e+00 2.0694958414e+00 3.5844719433e+00 
10000 5.8706198016e+00 1.9499584919e-01 2.0647437453e+00 -3.5762410715e+00 2.0647437453e+00 3.5762410715e+00 
10100 5.8694819476e+00 1.9316881240e-01 2.0600235142e+00 -3.5680653914e+00 2.0600235142e+00 3.5680653914e+00 
10200 5.8683781863e+00 1.9128423799e-01 2.0553367869e+00 -3.5599477415e+00 2.0553367869e+00 3.5599477415e+00 
10300 5.8673096756e+00 1.8934332688e-01 2.0506851916e+00 -3.5518909422e+00 2.0506851916e+00 3.5518909422e+00 
10400 5.8662774360e+00 1.8734748977e-01 2.0460703408e+00 -3.5438977862e+00 2.0460703408e+00 3.5438977862e+00 
10500 5.8652823407e+00 1.8529833726e-01 2.0414938250e+00 -3.5359710283e+00 2.0414938250e+00 3.5359710283e+00 
10600 5.8643251072e+00 1.8319766857e-01 2.0369572076e+00 -3.5281133763e+00 2.0369572076e+00 3.5281133763e+00 
10700 5.8634062904e+00 1.8104745923e-01 2.0324620195e+00 -3.5203274822e+00 2.0324620195e+00 3.5203274822e+00 
10800 5.8625262775e+00 1.7884984768e-01 2.0280097545e+00 -3.5126159331e+00 2.0280097545e+00 3.5126159331e+00 
10900 5.8616852852e+00 1.7660712120e-01 2.0236018641e+00 -3.5049812429e+00 2.0236018641e+00 3.5049812429e+00 
11000 5.8608833580e+00 1.7432170121e-01 2.0192397533e+00 -3.4974258454e+00 2.0192397533e+00 3.4974258454e+00 
11100 5.8601203688e+00 1.7199612825e-01 2.0149247763e+00 -3.4899520860e+00 2.0149247763e+00 3.4899520860e+00 
11200 5.8593960216e+00 1.6963304669e-01 2.0106582330e+00 -3.4825622162e+00 2.0106582330e+00 3.4825622162e+00 
11300 5.8587098552e+00 1.6723518944e-01 2.0064413650e+00 -3.4752583866e+00 2.0064413650e+00 3.4752583866e+00 
11400 5.8580612497e+00 1.6480536287e-01 2.0022753530e+00 -3.4680426421e+00 2.0022753530e+00 3.4680426421e+00 
11500 5.8574494332e+00 1.6234643184e-01 1.9981613137e+00 -3.4609169170e+00 1.9981613137e+00 3.4609169170e+00 
11600 5.8568734914e+00 1.5986130533e-01 1.9941002975e+00 -3.4538830306e+00 1.9941002975e+00 3.4538830306e+00 
11700 5.8563323773e+00 1.5735292242e-01 1.9900932863e+00 -3.4469426837e+00 1.9900932863e+00 3.4469426837e+00 
11800 5.8558249229e+00 1.5482423902e-01 1.9861411922e+00 -3.4400974559e+00 1.9861411922e+00 3.4400974559e+00 
11900 5.8553498511e+00 1.5227821513e-01 1.9822448554e+00 -3.4333488025e+00 1.9822448554e+00 3.4333488025e+00 
12000 5.8549057892e+00 1.4971780300e-01 1.9784050436e+00 -3.4266980535e+00 1.9784050436e+00 3.4266980535e+00 
12100 5.8544912821e+00 1.4714593599e-01 1.9746224515e+00 -3.4201464117e+00 1.9746224515e+00 3.4201464117e+00 
12200 5.8541048062e+00 1.4456551822e-01 1.9708976996e+00 -3.4136949523e+00 1.9708976996e+00 3.4136949523e+00 
12300 5.8537447840e+00 1.4197941513e-01 1.9672313348e+00 -3.4073446221e+00 1.9672313348e+00 3.4073446221e+00 
12400 5.8534095980e+00 1.3939044479e-01 1.9636238300e+00 -3.4010962406e+00 1.9636238300e+00 3.4010962406e+00 
12500 5.8530976045e+00 1.3680137006e-01 1.9600755848e+00 -3.3949504996e+00 1.9600755848e+00 3.3949504996e+00 
12600 5.8528071474e+00 1.3421489159e-01 1.9565869259e+00 -3.3889079651e+00 1.9565869259e+00 3.3889079651e+00 
12700 5.8525365713e+00 1.3163364150e-01 1.9531581079e+00 -3.3829690780e+00 1.9531581079e+00 3.3829690780e+00 
12800 5.8522842343e+00 1.2906017790e-01 1.9497893144e+00 -3.3771341566e+00 1.9497893144e+00 3.3771341566e+00 
12900 5.8520485194e+00 1.2649698010e-01 1.9464806594e+00 -3.3714033980e+00 1.9464806594e+00 3.3714033980e+00 
13000 5.8518278454e+00 1.2394644440e-01 1.9432321882e+00 -3.3657768809e+00 1.9432321882e+00 3.3657768809e+00 
13100 5.8516206776e+00 1.2141088065e-01 1.9400438794e+00 -3.3602545680e+00 1.9400438794e+00 3.3602545680e+00 
13200 5.8514255360e+00 1.1889250927e-01 1.9369156463e+00 -3.3548363093e+00 1.9369156463e+00 3.3548363093e+00 
13300 5.8512410040e+00 1.1639345890e-01 1.9338473386e+00 -3.3495218446e+00 1.9338473386e+00 3.3495218446e+00 
13400 5.8510657349e+00 1.1391576449e-01 1.9308387448e+00 -3.3443108072e+00 1.9308387448e+00 3.3443108072e+00 
13500 5.8508984582e+00 1.1146136588e-01 1.9278895934e+00 -3.3392027272e+00 1.9278895934e+00 3.3392027272e+00 
13600 5.8507379841e+00 1.0903210677e-01 1.9249995558e+00 -3.3341970352e+00 1.9249995558e+00 3.3341970352e+00 
13700 5.8505832073e+00 1.0662973411e-01 1.9221682478e+00 -3.3292930659e+00 1.9221682478e+00 3.3292930659e+00 
13800 5.8504331097e+00 1.0425589778e-01 1.9193952322e+00 -3.3244900619e+00 1.9193952322e+00 3.3244900619e+00 
13900 5.8502867625e+00 1.0191215066e-01 1.9166800208e+00 -3.3197871778e+00 1.9166800208e+00 3.3197871778e+00 
14000 5.8501433262e+00 9.9599948834e-02 1.9140220769e+00 -3.3151834840e+00 1.9140220769e+00 3.3151834840e+00 
14100 5.8500020513e+00 9.7320652235e-02 1.9114208176e+00 -3.3106779708e+00 1.9114208176e+00 3.3106779708e+00 
14200 5.8498622768e+00 9.5075525353e-02 1.9088756162e+00 -3.3062695526e+00 1.9088756162e+00 3.3062695526e+00 
14300 5.8497234285e+00 9.2865738226e-02 1.9063858043e+00 -3.3019570718e+00 1.9063858043e+00 3.3019570718e+00 
14400 5.8495850169e+00 9.0692367584e-02 1.9039506744e+00 -3.2977393033e+00 1.9039506744e+00 3.2977393033e+00 
14500 5.8494466338e+00 8.8556398156e-02 1.9015694826e+00 -3.2936149580e+00 1.9015694826e+00 3.2936149580e+00 
14600 5.8493079490e+00 8.6458724123e-02 1.8992414503e+00 -3.2895826878e+00 1.8992414503e+00 3.2895826878e+00 
14700 5.8491687059e+00 8.4400150697e-02 1.8969657672e+00 -3.2856410890e+00 1.8969657672e+00 3.2856410890e+00 
14800 5.8490287176e+00 8.2381395807e-02 1.8947415933e+00 -3.2817887068e+00 1.8947415933e+00 3.2817887068e+00 
14900 5.8488878615e+00 8.0403091900e-02 1.8925680615e+00 -3.2780240392e+00 1.8925680615e+00 3.2780240392e+00 
15000 5.8487460747e+00 7.8465787820e-02 1.8904442796e+00 -3.2743455411e+00 1.8904442796e+00 3.2743455411e+00 
15100 5.8486033489e+00 7.6569950785e-02 1.8883693331e+00 -3.2707516284e+00 1.8883693331e+00 3.2707516284e+00 
15200 5.8484597246e+00 7.4715968421e-02 1.8863422870e+00 -3.2672406815e+00 1.8863422870e+00 3.2672406815e+00 
15300 5.8483152866e+00 7.2904150878e-02 1.8843621882e+00 -3.2638110498e+00 1.8843621882e+00 3.2638110498e+00 
15400 5.8481701576e+00 7.1134732996e-02 1.8824280679e+00 -3.2604610551e+00 1.8824280679e+00 3.2604610551e+00 
15500 5.8480244941e+00 6.9407876533e-02 1.8805389433e+00 -3.2571889954e+00 1.8805389433e+00 3.2571889954e+00 
15600 5.8478784803e+00 6.7723672439e-02 1.8786938203e+00 -3.2539931487e+00 1.8786938203e+00 3.2539931487e+00 
15700 5.8477323236e+00 6.6082143174e-02 1.8768916950e+00 -3.2508717761e+00 1.8768916950e+00 3.2508717761e+00 
15800 5.8475862496e+00 6.4483245067e-02 1.8751315561e+00 -3.2478231260e+00 1.8751315561e+00 3.2478231260e+00 
15900 5.8474404978e+00 6.2926870711e-02 1.8734123865e+00 -3.2448454370e+00 1.8734123865e+00 3.2448454370e+00 
16000 5.8472953168e+00 6.1412851392e-02 1.8717331658e+00 -3.2419369413e+00 1.8717331658e+00 3.2419369413e+00 
16100 5.8471509607e+00 5.9940959539e-02 1.8700928713e+00 -3.2390958679e+00 1.8700928713e+00 3.2390958679e+00 
16200 5.8470076849e+00 5.8510911205e-02 1.8684904805e+00 -3.2363204457e+00 1.8684904805e+00 3.2363204457e+00 
16300 5.8468657431e+00 5.7122368564e-02 1.8669249726e+00 -3.2336089064e+00 1.8669249726e+00 3.2336089064e+00 
16400 5.8467253837e+00 5.5774942428e-02 1.8653953299e+00 -3.2309594877e+00 1.8653953299e+00 3.2309594877e+00 
16500 5.8465868473e+00 5.4468194772e-02 1.8639005399e+00 -3.2283704354e+00 1.8639005399e+00 3.2283704354e+00 
16600 5.8464503642e+00 5.3201641268e-02 1.8624395963e+00 -3.2258400068e+00 1.8624395963e+00 3.2258400068e+00 
16700 5.8463161516e+00 5.1974753832e-02 1.8610115007e+00 -3.2233664726e+00 1.8610115007e+00 3.2233664726e+00 
16800 5.8461844128e+00 5.0786963161e-02 1.8596152640e+00 -3.2209481198e+00 1.8596152640e+00 3.2209481198e+00 
16900 5.8460553346e+00 4.9637661272e-02 1.8582499079e+00 -3.2185832536e+00 1.8582499079e+00 3.2185832536e+00 
17000 5.8459290867e+00 4.8526204038e-02 1.8569144656e+00 -3.2162701997e+00 1.8569144656e+00 3.2162701997e+00 
17100 5.8458058203e+00 4.7451913705e-02 1.8556079835e+00 -3.2140073063e+00 1.8556079835e+00 3.2140073063e+00 
17200 5.8456856677e+00 4.6414081401e-02 1.8543295222e+00 -3.2117929464e+00 1.8543295222e+00 3.2117929464e+00 
17300 5.8455687416e+00 4.5411969623e-02 1.8530781573e+00 -3.2096255188e+00 1.8530781573e+00 3.2096255188e+00 
17400 5.8454551353e+00 4.4444814699e-02 1.8518529806e+00 -3.2075034506e+00 1.8518529806e+00 3.2075034506e+00 
17500 5.8453449220e+00 4.3511829229e-02 1.8506531011e+00 -3.2054251982e+00 1.8506531011e+00 3.2054251982e+00 
17600 5.8452381557e+00 4.2612204489e-02 1.8494776452e+00 -3.2033892490e+00 1.8494776452e+00 3.2033892490e+00 
17700 5.8451348712e+00 4.1745112801e-02 1.8483257584e+00 -3.2013941225e+00 1.8483257584e+00 3.2013941225e+00 
17800 5.8450350849e+00 4.0909709869e-02 1.8471966052e+00 -3.1994383718e+00 1.8471966052e+00 3.1994383718e+00 
17900 5.8449387954e+00 4.0105137063e-02 1.8460893701e+00 -3.1975205843e+00 1.8460893701e+00 3.1975205843e+00 
18000 5.8448459844e+00 3.9330523665e-02 1.8450032579e+00 -3.1956393828e+00 1.8450032579e+00 3.1956393828e+00 
18100 5.8447566176e+00 3.8584989060e-02 1.8439374946e+00 -3.1937934267e+00 1.8439374946e+00 3.1937934267e+00 
18200 5.8446706456e+00 3.7867644874e-02 1.8428913274e+00 -3.1919814120e+00 1.8428913274e+00 3.1919814120e+00 
18300 5.8445880056e+00 3.7177597057e-02 1.8418640253e+00 -3.1902020725e+00 1.8418640253e+00 3.1902020725e+00 
18400 5.8445086218e+00 3.6513947901e-02 1.8408548791e+00 -3.1884541800e+00 1.8408548791e+00 3.1884541800e+00 
18500 5.8444324074e+00 3.5875797999e-02 1.8398632022e+00 -3.1867365452e+00 1.8398632022e+00 3.1867365452e+00 
18600 5.8443592651e+00 3.5262248136e-02 1.8388883300e+00 -3.1850480171e+00 1.8388883300e+00 3.1850480171e+00 
18700 5.8442890891e+00 3.4672401114e-02 1.8379296209e+00 -3.1833874841e+00 1.8379296209e+00 3.1833874841e+00 
18800 5.8442217657e+00 3.4105363497e-02 1.8369864554e+00 -3.1817538736e+00 1.8369864554e+00 3.1817538736e+00 
18900 5.8441571752e+00 3.3560247294e-02 1.8360582371e+00 -3.1801461523e+00 1.8360582371e+00 3.1801461523e+00 
19000 5.8440951926e+00 3.3036171559e-02 1.8351443919e+00 -3.1785633259e+00 1.8351443919e+00 3.1785633259e+00 
19100 5.8440356891e+00 3.2532263918e-02 1.8342443681e+00 -3.1770044391e+00 1.8342443681e+00 3.1770044391e+00 
19200 5.8439785329e+00 3.2047662014e-02 1.8333576367e+00 -3.1754685753e+00 1.8333576367e+00 3.1754685753e+00 
19300 5.8439235911e+00 3.1581514877e-02 1.8324836907e+00 -3.1739548563e+00 1.8324836907e+00 3.1739548563e+00 
19400 5.8438707297e+00 3.1132984208e-02 1.8316220448e+00 -3.1724624419e+00 1.8316220448e+00 3.1724624419e+00 
19500 5.8438198153e+00 3.0701245590e-02 1.8307722359e+00 -3.1709905297e+00 1.8307722359e+00 3.1709905297e+00 
19600 5.8437707159e+00 3.0285489608e-02 1.8299338219e+00 -3.1695383541e+00 1.8299338219e+00 3.1695383541e+00 
19700 5.8437233015e+00 2.9884922894e-02 1.8291063820e+00 -3.1681051861e+00 1.8291063820e+00 3.1681051861e+00 
19800 5.8436774452e+00 2.9498769092e-02 1.8282895160e+00 -3.1666903326e+00 1.8282895160e+00 3.1666903326e+00 
19900 5.8436330236e+00 2.9126269736e-02 1.8274828440e+00 -3.1652931357e+00 1.8274828440e+00 3.1652931357e+00 
20000 5.8435899176e+00 2.8766685053e-02 1.8266860061e+00 -3.1639129720e+00 1.8266860061e+00 3.1639129720e+00 
20100 5.8435480129e+00 2.8419294687e-02 1.8258986617e+00 -3.1625492516e+00 1.8258986617e+00 3.1625492516e+00 
20200 5.8435072005e+00 2.8083398339e-02 1.8251204894e+00 -3.1612014177e+00 1.8251204894e+00 3.1612014177e+00 
20300 5.8434673769e+00 2.7758316340e-02 1.8243511861e+00 -3.1598689452e+00 1.8243511861e+00 3.1598689452e+00 
20400 5.8434284447e+00 2.7443390141e-02 1.8235904668e+00 -3.1585513406e+00 1.8235904668e+00 3.1585513406e+00 
20500 5.8433903127e+00 2.7137982733e-02 1.8228380637e+00 -3.1572481402e+00 1.8228380637e+00 3.1572481402e+00 
20600 5.8433528961e+00 2.6841478993e-02 1.8220937262e+00 -3.1559589099e+00 1.8220937262e+00 3.1559589099e+00 
20700 5.8433161166e+00 2.6553285970e-02 1.8213572199e+00 -3.1546832435e+00 1.8213572199e+00 3.1546832435e+00 
20800 5.8432799023e+00 2.6272833088e-02 1.8206283262e+00 -3.1534207627e+00 1.8206283262e+00 3.1534207627e+00 
20900 5.8432441881e+00 2.5999572299e-02 1.8199068419e+00 -3.1521711151e+00 1.8199068419e+00 3.1521711151e+00 
21000 5.8432089153e+00 2.5732978169e-02 1.8191925781e+00 -3.1509339740e+00 1.8191925781e+00 3.1509339740e+00 
21100 5.8431740315e+00 2.5472547898e-02 1.8184853602e+00 -3.1497090367e+00 1.8184853602e+00 3.1497090367e+00 
21200 5.8431394907e+00 2.5217801297e-02 1.8177850270e+00 -3.1484960241e+00 1.8177850270e+00 3.1484960241e+00 
21300 5.8431052527e+00 2.4968280696e-02 1.8170914303e+00 -3.1472946792e+00 1.8170914303e+00 3.1472946792e+00 
21400 5.8430712833e+00 2.4723550810e-02 1.8164044338e+00 -3.1461047665e+00 1.8164044338e+00 3.1461047665e+00 
21500 5.8430375539e+00 2.4483198554e-02 1.8157239134e+00 -3.1449260705e+00 1.8157239134e+00 3.1449260705e+00 
21600 5.8430040410e+00 2.4246832812e-02 1.8150497558e+00 -3.1437583953e+00 1.8150497558e+00 3.1437583953e+00 
21700 5.8429707262e+00 2.4014084162e-02 1.8143818582e+00 -3.1426015628e+00 1.8143818582e+00 3.1426015628e+00 
21800 5.8429375957e+00 2.3784604564e-02 1.8137201281e+00 -3.1414554125e+00 1.8137201281e+00 3.1414554125e+00 
21900 5.8429046399e+00 2.3558067006e-02 1.8130644820e+00 -3.1403198002e+00 1.8130644820e+00 3.1403198002e+00 
22000 5.8428718534e+00 2.3334165123e-02 1.8124148454e+00 -3.1391945966e+00 1.8124148454e+00 3.1391945966e+00 
22100 5.8428392342e+00 2.3112612775e-02 1.8117711522e+00 -3.1380796872e+00 1.8117711522e+00 3.1380796872e+00 
22200 5.8428067835e+00 2.2893143601e-02 1.8111333438e+00 -3.1369749707e+00 1.8111333438e+00 3.1369749707e+00 
22300 5.8427745056e+00 2.2675510551e-02 1.8105013690e+00 -3.1358803583e+00 1.8105013690e+00 3.1358803583e+00 
22400 5.8427424073e+00 2.2459485384e-02 1.8098751833e+00 -3.1347957728e+00 1.8098751833e+00 3.1347957728e+00 
22500 5.8427104973e+00 2.2244858156e-02 1.8092547482e+00 -3.1337211477e+00 1.8092547482e+00 3.1337211477e+00 
22600 5.8426787865e+00 2.2031436677e-02 1.8086400310e+00 -3.1326564264e+00 1.8086400310e+00 3.1326564264e+00 
22700 5.8426472873e+00 2.1819045965e-02 1.8080310044e+00 -3.1316015613e+00 1.8080310044e+00 3.1316015613e+00 
22800 5.8426160130e+00 2.1607527675e-02 1.8074276455e+00 -3.1305565130e+00 1.8074276455e+00 3.1305565130e+00 
22900 5.8425849783e+00 2.1396739522e-02 1.8068299359e+00 -3.1295212496e+00 1.8068299359e+00 3.1295212496e+00 
23000 5.8425541982e+00 2.1186554693e-02 1.8062378611e+00 -3.1284957460e+00 1.8062378611e+00 3.1284957460e+00 
23100 5.8425236881e+00 2.0976861248e-02 1.8056514099e+00 -3.1274799827e+00 1.8056514099e+00 3.1274799827e+00 
23200 5.8424934637e+00 2.0767561525e-02 1.8050705742e+00 -3.1264739457e+00 1.8050705742e+00 3.1264739457e+00 
23300 5.8424635405e+00 2.0558571525e-02 1.8044953485e+00 -3.1254776256e+00 1.8044953485e+00 3.1254776256e+00 
23400 5.8424339338e+00 2.0349820311e-02 1.8039257297e+00 -3.1244910169e+00 1.8039257297e+00 3.1244910169e+00 
23500 5.8424046583e+00 2.0141249398e-02 1.8033617165e+00 -3.1235141174e+00 1.8033617165e+00 3.1235141174e+00 
23600 5.8423757281e+00 1.9932812143e-02 1.8028033091e+00 -3.1225469274e+00 1.8028033091e+00 3.1225469274e+00 
23700 5.8423471566e+00 1.9724473143e-02 1.8022505091e+00 -3.1215894498e+00 1.8022505091e+00 3.1215894498e+00 
23800 5.8423189561e+00 1.9516207635e-02 1.8017033190e+00 -3.1206416886e+00 1.8017033190e+00 3.1206416886e+00 
23900 5.8422911381e+00 1.9308000894e-02 1.8011617417e+00 -3.1197036493e+00 1.8011617417e+00 3.1197036493e+00 
24000 5.8422637128e+00 1.9099847653e-02 1.8006257809e+00 -3.1187753379e+00 1.8006257809e+00 3.1187753379e+00 
24100 5.8422366894e+00 1.8891751512e-02 1.8000954400e+00 -3.1178567606e+00 1.8000954400e+00 3.1178567606e+00 
24200 5.8422100758e+00 1.8683724372e-02 1.7995707225e+00 -3.1169479231e+00 1.7995707225e+00 3.1169479231e+00 
24300 5.8421838785e+00 1.8475785866e-02 1.7990516313e+00 -3.1160488308e+00 1.7990516313e+00 3.1160488308e+00 
24400 5.8421581030e+00 1.8267962808e-02 1.7985381689e+00 -3.1151594879e+00 1.7985381689e+00 3.1151594879e+00 
24500 5.8421327532e+00 1.8060288653e-02 1.7980303370e+00 -3.1142798971e+00 1.7980303370e+00 3.1142798971e+00 
24600 5.8421078321e+00 1.7852802962e-02 1.7975281361e+00 -3.1134100597e+00 1.7975281361e+00 3.1134100597e+00 
24700 5.8420833410e+00 1.7645550888e-02 1.7970315658e+00 -3.1125499748e+00 1.7970315658e+00 3.1125499748e+00 
24800 5.8420592803e+00 1.7438582671e-02 1.7965406243e+00 -3.1116996392e+00 1.7965406243e+00 3.1116996392e+00 
24900 5.8420356492e+00 1.7231953147e-02 1.7960553084e+00 -3.1108590473e+00 1.7960553084e+00 3.1108590473e+00 
25000 5.8420124455e+00 1.7025721270e-02 1.7955756130e+00 -3.1100281906e+00 1.7955756130e+00 3.1100281906e+00 
25100 5.8419896662e+00 1.6819949653e-02 1.7951015319e+00 -3.1092070580e+00 1.7951015319e+00 3.1092070580e+00 
25200 5.8419673071e+00 1.6614704118e-02 1.7946330565e+00 -3.1083956348e+00 1.7946330565e+00 3.1083956348e+00 
25300 5.8419453633e+00 1.6410053266e-02 1.7941701766e+00 -3.1075939034e+00 1.7941701766e+00 3.1075939034e+00 
25400 5.8419238287e+00 1.6206068060e-02 1.7937128801e+00 -3.1068018425e+00 1.7937128801e+00 3.1068018425e+00 
25500 5.8419026967e+00 1.6002821425e-02 1.7932611526e+00 -3.1060194276e+00 1.7932611526e+00 3.1060194276e+00 
25600 5.8418819597e+00 1.5800387861e-02 1.7928149779e+00 -3.1052466302e+00 1.7928149779e+00 3.1052466302e+00 
25700 5.8418616098e+00 1.5598843076e-02 1.7923743373e+00 -3.1044834184e+00 1.7923743373e+00 3.1044834184e+00 
25800 5.8418416383e+00 1.5398263631e-02 1.7919392102e+00 -3.1037297562e+00 1.7919392102e+00 3.1037297562e+00 
25900 5.8418220361e+00 1.5198726605e-02 1.7915095738e+00 -3.1029856040e+00 1.7915095738e+00 3.1029856040e+00 
26000 5.8418027937e+00 1.5000309271e-02 1.7910854028e+00 -3.1022509184e+00 1.7910854028e+00 3.1022509184e+00 
26100 5.8417839013e+00 1.4803088793e-02 1.7906666700e+00 -3.1015256519e+00 1.7906666700e+00 3.1015256519e+00 
26200 5.8417653488e+00 1.4607141935e-02 1.7902533457e+00 -3.1008097533e+00 1.7902533457e+00 3.1008097533e+00 
26300 5.8417471261e+00 1.4412544787e-02 1.7898453983e+00 -3.1001031675e+00 1.7898453983e+00 3.1001031675e+00 
26400 5.8417292229e+00 1.4219372509e-02 1.7894427935e+00 -3.0994058356e+00 1.7894427935e+00 3.0994058356e+00 
26500 5.8417116287e+00 1.4027699084e-02 1.7890454954e+00 -3.0987176951e+00 1.7890454954e+00 3.0987176951e+00 
26600 5.8416943334e+00 1.3837597094e-02 1.7886534655e+00 -3.0980386793e+00 1.7886534655e+00 3.0980386793e+00 
26700 5.8416773267e+00 1.3649137506e-02 1.7882666634e+00 -3.0973687185e+00 1.7882666634e+00 3.0973687185e+00 
26800 5.8416605986e+00 1.3462389475e-02 1.7878850466e+00 -3.0967077388e+00 1.7878850466e+00 3.0967077388e+00 
26900 5.8416441391e+00 1.3277420158e-02 1.7875085706e+00 -3.0960556632e+00 1.7875085706e+00 3.0960556632e+00 
27000 5.8416279388e+00 1.3094294548e-02 1.7871371888e+00 -3.0954124112e+00 1.7871371888e+00 3.0954124112e+00 
27100 5.8416119881e+00 1.2913075316e-02 1.7867708530e+00 -3.0947778989e+00 1.7867708530e+00 3.0947778989e+00 
27200 5.8415962782e+00 1.2733822675e-02 1.7864095129e+00 -3.0941520395e+00 1.7864095129e+00 3.0941520395e+00 
27300 5.8415808002e+00 1.2556594244e-02 1.7860531165e+00 -3.0935347428e+00 1.7860531165e+00 3.0935347428e+00 
27400 5.8415655459e+00 1.2381444940e-02 1.7857016101e+00 -3.0929259158e+00 1.7857016101e+00 3.0929259158e+00 
27500 5.8415505073e+00 1.2208426873e-02 1.7853549384e+00 -3.0923254628e+00 1.7853549384e+00 3.0923254628e+00 
27600 5.8415356768e+00 1.2037589255e-02 1.7850130445e+00 -3.0917332853e+00 1.7850130445e+00 3.0917332853e+00 
27700 5.8415210474e+00 1.1868978324e-02 1.7846758702e+00 -3.0911492823e+00 1.7846758702e+00 3.0911492823e+00 
27800 5.8415066122e+00 1.1702637278e-02 1.7843433558e+00 -3.0905733504e+00 1.7843433558e+00 3.0905733504e+00 
27900 5.8414923651e+00 1.1538606219e-02 1.7840154403e+00 -3.0900053840e+00 1.7840154403e+00 3.0900053840e+00 
28000 5.8414783001e+00 1.1376922108e-02 1.7836920614e+00 -3.0894452754e+00 1.7836920614e+00 3.0894452754e+00 
28100 5.8414644117e+00 1.1217618736e-02 1.7833731559e+00 -3.0888929149e+00 1.7833731559e+00 3.0888929149e+00 
28200 5.8414506950e+00 1.1060726696e-02 1.7830586595e+00 -3.0883481912e+00 1.7830586595e+00 3.0883481912e+00 
28300 5.8414371453e+00 1.0906273371e-02 1.7827485069e+00 -3.0878109911e+00 1.7827485069e+00 3.0878109911e+00 
28400 5.8414237584e+00 1.0754282931e-02 1.7824426320e+00 -3.0872812002e+00 1.7824426320e+00 3.0872812002e+00 
28500 5.8414105303e+00 1.0604776337e-02 1.7821409679e+00 -3.0867587026e+00 1.7821409679e+00 3.0867587026e+00 
28600 5.8413974576e+00 1.0457771356e-02 1.7818434470e+00 -3.0862433814e+00 1.7818434470e+00 3.0862433814e+00 
28700 5.8413845371e+00 1.0313282577e-02 1.7815500014e+00 -3.0857351186e+00 1.7815500014e+00 3.0857351186e+00 
28800 5.8413717660e+00 1.0171321448e-02 1.7812605623e+00 -3.0852337955e+00 1.7812605623e+00 3.0852337955e+00 
28900 5.8413591418e+00 1.0031896308e-02 1.7809750609e+00 -3.0847392924e+00 1.7809750609e+00 3.0847392924e+00 
29000 5.8413466621e+00 9.8950124318e-03 1.7806934277e+00 -3.0842514895e+00 1.7806934277e+00 3.0842514895e+00 
29100 5.8413343250e+00 9.7606720812e-03 1.7804155934e+00 -3.0837702664e+00 1.7804155934e+00 3.0837702664e+00 
29200 5.8413221289e+00 9.6288745598e-03 1.7801414883e+00 -3.0832955023e+00 1.7801414883e+00 3.0832955023e+00 
29300 5.8413100720e+00 9.4996162765e-03 1.7798710426e+00 -3.0828270767e+00 1.7798710426e+00 3.0828270767e+00 
29400 5.8412981532e+00 9.3728908127e-03 1.7796041868e+00 -3.0823648689e+00 1.7796041868e+00 3.0823648689e+00 
29500 5.8412863712e+00 9.2486889952e-03 1.7793408513e+00 -3.0819087584e+00 1.7793408513e+00 3.0819087584e+00 
29600 5.8412747251e+00 9.1269989734e-03 1.7790809667e+00 -3.0814586252e+00 1.7790809667e+00 3.0814586252e+00 
29700 5.8412632140e+00 9.0078063009e-03 1.7788244641e+00 -3.0810143495e+00 1.7788244641e+00 3.0810143495e+00 
29800 5.8412518371e+00 8.8910940209e-03 1.7785712746e+00 -3.0805758125e+00 1.7785712746e+00 3.0805758125e+00 
29900 5.8412405939e+00 8.7768427549e-03 1.7783213300e+00 -3.0801428958e+00 1.7783213300e+00 3.0801428958e+00 
30000 5.8412294837e+00 8.6650307956e-03 1.7780745625e+00 -3.0797154818e+00 1.7780745625e+00 3.0797154818e+00 
30100 5.8412185060e+00 8.5556342008e-03 1.7778309047e+00 -3.0792934542e+00 1.7778309047e+00 3.0792934542e+00 
30200 5.8412076603e+00 8.4486268915e-03 1.7775902901e+00 -3.0788766975e+00 1.7775902901e+00 3.0788766975e+00 
30300 5.8411969462e+00 8.3439807511e-03 1.7773526527e+00 -3.0784650975e+00 1.7773526527e+00 3.0784650975e+00 
30400 5.8411863633e+00 8.2416657266e-03 1.7771179273e+00 -3.0780585411e+00 1.7771179273e+00 3.0780585411e+00 
30500 5.8411759110e+00 8.1416499315e-03 1.7768860494e+00 -3.0776569169e+00 1.7768860494e+00 3.0776569169e+00 
30600 5.8411655890e+00 8.0438997497e-03 1.7766569555e+00 -3.0772601146e+00 1.7766569555e+00 3.0772601146e+00 
30700 5.8411553969e+00 7.9483799400e-03 1.7764305829e+00 -3.0768680258e+00 1.7764305829e+00 3.0768680258e+00 
30800 5.8411453340e+00 7.8550537414e-03 1.7762068699e+00 -3.0764805435e+00 1.7762068699e+00 3.0764805435e+00 
30900 5.8411353999e+00 7.7638829792e-03 1.7759857557e+00 -3.0760975624e+00 1.7759857557e+00 3.0760975624e+00 
31000 5.8411255939e+00 7.6748281697e-03 1.7757671807e+00 -3.0757189793e+00 1.7757671807e+00 3.0757189793e+00 
31100 5.8411159155e+00 7.5878486261e-03 1.7755510861e+00 -3.0753446926e+00 1.7755510861e+00 3.0753446926e+00 
31200 5.8411063640e+00 7.5029025631e-03 1.7753374145e+00 -3.0749746025e+00 1.7753374145e+00 3.0749746025e+00 
31300 5.8410969386e+00 7.4199472010e-03 1.7751261095e+00 -3.0746086115e+00 1.7751261095e+00 3.0746086115e+00 
31400 5.8410876385e+00 7.3389388683e-03 1.7749171159e+00 -3.0742466239e+00 1.7749171159e+00 3.0742466239e+00 
31500 5.8410784629e+00 7.2598331041e-03 1.7747103796e+00 -3.0738885461e+00 1.7747103796e+00 3.0738885461e+00 
31600 5.8410694108e+00 7.1825847582e-03 1.7745058478e+00 -3.0735342867e+00 1.7745058478e+00 3.0735342867e+00 
31700 5.8410604811e+00 7.1071480897e-03 1.7743034690e+00 -3.0731837563e+00 1.7743034690e+00 3.0731837563e+00 
31800 5.8410516730e+00 7.0334768644e-03 1.7741031928e+00 -3.0728368678e+00 1.7741031928e+00 3.0728368678e+00 
31900 5.8410429851e+00 6.9615244495e-03 1.7739049702e+00 -3.0724935362e+00 1.7739049702e+00 3.0724935362e+00 
32000 5.8410344165e+00 6.8912439063e-03 1.7737087535e+00 -3.0721536789e+00 1.7737087535e+00 3.0721536789e+00 
32100 5.8410259657e+00 6.8225880815e-03 1.7735144962e+00 -3.0718172153e+00 1.7735144962e+00 3.0718172153e+00 
32200 5.8410176316e+00 6.7555096945e-03 1.7733221531e+00 -3.0714840673e+00 1.7733221531e+00 3.0714840673e+00 
32300 5.8410094128e+00 6.6899614235e-03 1.7731316804e+00 -3.0711541590e+00 1.7731316804e+00 3.0711541590e+00 
32400 5.8410013079e+00 6.6258959885e-03 1.7729430356e+00 -3.0708274165e+00 1.7729430356e+00 3.0708274165e+00 
32500 5.8409933155e+00 6.5632662313e-03 1.7727561773e+00 -3.0705037686e+00 1.7727561773e+00 3.0705037686e+00 
32600 5.8409854342e+00 6.5020251927e-03 1.7725710658e+00 -3.0701831460e+00 1.7725710658e+00 3.0701831460e+00 
32700 5.8409776623e+00 6.4421261870e-03 1.7723876624e+00 -3.0698654819e+00 1.7723876624e+00 3.0698654819e+00 
32800 5.8409699985e+00 6.3835228735e-03 1.7722059297e+00 -3.0695507117e+00 1.7722059297e+00 3.0695507117e+00 
32900 5.8409624412e+00 6.3261693245e-03 1.7720258317e+00 -3.0692387728e+00 1.7720258317e+00 3.0692387728e+00 
33000 5.8409549888e+00 6.2700200904e-03 1.7718473336e+00 -3.0689296051e+00 1.7718473336e+00 3.0689296051e+00 
33100 5.8409476397e+00 6.2150302618e-03 1.7716704020e+00 -3.0686231506e+00 1.7716704020e+00 3.0686231506e+00 
33200 5.8409403923e+00 6.1611555282e-03 1.7714950046e+00 -3.0683193533e+00 1.7714950046e+00 3.0683193533e+00 
33300 5.8409332451e+00 6.1083522333e-03 1.7713211104e+00 -3.0680181597e+00 1.7713211104e+00 3.0680181597e+00 
33400 5.8409261965e+00 6.0565774276e-03 1.7711486896e+00 -3.0677195181e+00 1.7711486896e+00 3.0677195181e+00 
33500 5.8409192448e+00 6.0057889168e-03 1.7709777135e+00 -3.0674233789e+00 1.7709777135e+00 3.0674233789e+00 
33600 5.8409123885e+00 5.9559453083e-03 1.7708081548e+00 -3.0671296946e+00 1.7708081548e+00 3.0671296946e+00 
33700 5.8409056261e+00 5.9070060529e-03 1.7706399872e+00 -3.0668384198e+00 1.7706399872e+00 3.0668384198e+00 
33800 5.8408989558e+00 5.8589314846e-03 1.7704731856e+00 -3.0665495109e+00 1.7704731856e+00 3.0665495109e+00 
33900 5.8408923763e+00 5.8116828565e-03 1.7703077259e+00 -3.0662629262e+00 1.7703077259e+00 3.0662629262e+00 
34000 5.8408858860e+00 5.7652223736e-03 1.7701435851e+00 -3.0659786261e+00 1.7701435851e+00 3.0659786261e+00 
34100 5.8408794834e+00 5.7195132229e-03 1.7699807414e+00 -3.0656965726e+00 1.7699807414e+00 3.0656965726e+00 
34200 5.8408731669e+00 5.6745195994e-03 1.7698191740e+00 -3.0654167295e+00 1.7698191740e+00 3.0654167295e+00 
34300 5.8408669353e+00 5.6302067307e-03 1.7696588628e+00 -3.0651390625e+00 1.7696588628e+00 3.0651390625e+00 
34400 5.8408607870e+00 5.5865408968e-03 1.7694997892e+00 -3.0648635388e+00 1.7694997892e+00 3.0648635388e+00 
34500 5.8408547206e+00 5.5434894486e-03 1.7693419350e+00 -3.0645901274e+00 1.7693419350e+00 3.0645901274e+00 
34600 5.8408487349e+00 5.5010208221e-03 1.7691852833e+00 -3.0643187988e+00 1.7691852833e+00 3.0643187988e+00 
34700 5.8408428284e+00 5.4591045515e-03 1.7690298180e+00 -3.0640495249e+00 1.7690298180e+00 3.0640495249e+00 
34800 5.8408370000e+00 5.4177112776e-03 1.7688755237e+00 -3.0637822793e+00 1.7688755237e+00 3.0637822793e+00 
34900 5.8408312482e+00 5.3768127555e-03 1.7687223859e+00 -3.0635170369e+00 1.7687223859e+00 3.0635170369e+00 
35000 5.8408255720e+00 5.3363818583e-03 1.7685703910e+00 -3.0632537740e+00 1.7685703910e+00 3.0632537740e+00 
35100 5.8408199701e+00 5.2963925794e-03 1.7684195260e+00 -3.0629924682e+00 1.7684195260e+00 3.0629924682e+00 
35200 5.8408144413e+00 5.2568200317e-03 1.7682697788e+00 -3.0627330984e+00 1.7682697788e+00 3.0627330984e+00 
35300 5.8408089846e+00 5.2176404449e-03 1.7681211379e+00 -3.0624756447e+00 1.7681211379e+00 3.0624756447e+00 
35400 5.8408035988e+00 5.1788311605e-03 1.7679735923e+00 -3.0622200883e+00 1.7679735923e+00 3.0622200883e+00 
35500 5.8407982830e+00 5.1403706246e-03 1.7678271320e+00 -3.0619664116e+00 1.7678271320e+00 3.0619664116e+00 
35600 5.8407930360e+00 5.1022383791e-03 1.7676817473e+00 -3.0617145979e+00 1.7676817473e+00 3.0617145979e+00 
35700 5.8407878569e+00 5.0644150507e-03 1.7675374292e+00 -3.0614646317e+00 1.7675374292e+00 3.0614646317e+00 
35800 5.8407827447e+00 5.0268823377e-03 1.7673941693e+00 -3.0612164982e+00 1.7673941693e+00 3.0612164982e+00 
35900 5.8407776984e+00 4.9896229959e-03 1.7672519595e+00 -3.0609701836e+00 1.7672519595e+00 3.0609701836e+00 
36000 5.8407727173e+00 4.9526208227e-03 1.7671107924e+00 -3.0607256750e+00 1.7671107924e+00 3.0607256750e+00 
36100 5.8407678003e+00 4.9158606389e-03 1.7669706609e+00 -3.0604829602e+00 1.7669706609e+00 3.0604829602e+00 
36200 5.8407629467e+00 4.8793282701e-03 1.7668315586e+00 -3.0602420279e+00 1.7668315586e+00 3.0602420279e+00 
36300 5.8407581556e+00 4.8430105262e-03 1.7666934791e+00 -3.0600028671e+00 1.7666934791e+00 3.0600028671e+00 
36400 5.8407534261e+00 4.8068951800e-03 1.7665564166e+00 -3.0597654680e+00 1.7665564166e+00 3.0597654680e+00 
36500 5.8407487576e+00 4.7709709441e-03 1.7664203656e+00 -3.0595298208e+00 1.7664203656e+00 3.0595298208e+00 
36600 5.8407441492e+00 4.7352274477e-03 1.7662853211e+00 -3.0592959167e+00 1.7662853211e+00 3.0592959167e+00 
36700 5.8407396002e+00 4.6996552115e-03 1.7661512779e+00 -3.0590637472e+00 1.7661512779e+00 3.0590637472e+00 
36800 5.8407351098e+00 4.6642456222e-03 1.7660182317e+00 -3.0588333044e+00 1.7660182317e+00 3.0588333044e+00 
36900 5.8407306774e+00 4.6289909065e-03 1.7658861779e+00 -3.0586045805e+00 1.7658861779e+00 3.0586045805e+00 
37000 5.8407263022e+00 4.5938841037e-03 1.7657551125e+00 -3.0583775685e+00 1.7657551125e+00 3.0583775685e+00 
37100 5.8407219836e+00 4.5589190384e-03 1.7656250313e+00 -3.0581522614e+00 1.7656250313e+00 3.0581522614e+00 
37200 5.8407177208e+00 4.5240902922e-03 1.7654959308e+00 -3.0579286527e+00 1.7654959308e+00 3.0579286527e+00 
37300 5.8407135132e+00 4.4893931757e-03 1.7653678071e+00 -3.0577067360e+00 1.7653678071e+00 3.0577067360e+00 
37400 5.8407093602e+00 4.4548236987e-03 1.7652406569e+00 -3.0574865053e+00 1.7652406569e+00 3.0574865053e+00 
37500 5.8407052611e+00 4.4203785421e-03 1.7651144766e+00 -3.0572679547e+00 1.7651144766e+00 3.0572679547e+00 
37600 5.8407012152e+00 4.3860550278e-03 1.7649892630e+00 -3.0570510784e+00 1.7649892630e+00 3.0570510784e+00 
37700 5.8406972220e+00 4.3518510896e-03 1.7648650129e+00 -3.0568358708e+00 1.7648650129e+00 3.0568358708e+00 
37800 5.8406932808e+00 4.3177652437e-03 1.7647417230e+00 -3.0566223265e+00 1.7647417230e+00 3.0566223265e+00 
37900 5.8406893910e+00 4.2837965588e-03 1.7646193902e+00 -3.0564104399e+00 1.7646193902e+00 3.0564104399e+00 
38000 5.8406855520e+00 4.2499446274e-03 1.7644980114e+00 -3.0562002056e+00 1.7644980114e+00 3.0562002056e+00 
38100 5.8406817633e+00 4.2162095355e-03 1.7643775835e+00 -3.0559916184e+00 1.7643775835e+00 3.0559916184e+00 
38200 5.8406780241e+00 4.1825918346e-03 1.7642581034e+00 -3.0557846727e+00 1.7642581034e+00 3.0557846727e+00 
38300 5.8406743339e+00 4.1490925118e-03 1.7641395678e+00 -3.0555793631e+00 1.7641395678e+00 3.0555793631e+00 
38400 5.8406706921e+00 4.1157129620e-03 1.7640219738e+00 -3.0553756843e+00 1.7640219738e+00 3.0553756843e+00 
38500 5.8406670982e+00 4.0824549593e-03 1.7639053180e+00 -3.0551736305e+00 1.7639053180e+00 3.0551736305e+00 
38600 5.8406635516e+00 4.0493206292e-03 1.7637895972e+00 -3.0549731962e+00 1.7637895972e+00 3.0549731962e+00 
38700 5.8406600516e+00 4.0163124215e-03 1.7636748081e+00 -3.0547743756e+00 1.7636748081e+00 3.0547743756e+00 
38800 5.8406565977e+00 3.9834330831e-03 1.7635609473e+00 -3.0545771629e+00 1.7635609473e+00 3.0545771629e+00 
38900 5.8406531894e+00 3.9506856316e-03 1.7634480113e+00 -3.0543815520e+00 1.7634480113e+00 3.0543815520e+00 
39000 5.8406498260e+00 3.9180733301e-03 1.7633359965e+00 -3.0541875368e+00 1.7633359965e+00 3.0541875368e+00 
39100 5.8406465070e+00 3.8855996610e-03 1.7632248994e+00 -3.0539951109e+00 1.7632248994e+00 3.0539951109e+00 
39200 5.8406432319e+00 3.8532683024e-03 1.7631147161e+00 -3.0538042678e+00 1.7631147161e+00 3.0538042678e+00 
39300 5.8406400001e+00 3.8210831034e-03 1.7630054427e+00 -3.0536150008e+00 1.7630054427e+00 3.0536150008e+00 
39400 5.8406368110e+00 3.7890480614e-03 1.7628970754e+00 -3.0534273031e+00 1.7628970754e+00 3.0534273031e+00 
39500 5.8406336640e+00 3.7571672991e-03 1.7627896100e+00 -3.0532411675e+00 1.7627896100e+00 3.0532411675e+00 
39600 5.8406305588e+00 3.7254450430e-03 1.7626830422e+00 -3.0530565868e+00 1.7626830422e+00 3.0530565868e+00 
39700 5.8406274946e+00 3.6938856021e-03 1.7625773679e+00 -3.0528735535e+00 1.7625773679e+00 3.0528735535e+00 
39800 5.8406244709e+00 3.6624933478e-03 1.7624725824e+00 -3.0526920597e+00 1.7624725824e+00 3.0526920597e+00 
39900 5.8406214874e+00 3.6312726941e-03 1.7623686813e+00 -3.0525120977e+00 1.7623686813e+00 3.0525120977e+00 
40000 5.8406185433e+00 3.6002280787e-03 1.7622656598e+00 -3.0523336593e+00 1.7622656598e+00 3.0523336593e+00 
40100 5.8406156381e+00 3.5693639457e-03 1.7621635131e+00 -3.0521567359e+00 1.7621635131e+00 3.0521567359e+00 
40200 5.8406127715e+00 3.5386847273e-03 1.7620622362e+00 -3.0519813192e+00 1.7620622362e+00 3.0519813192e+00 
40300 5.8406099427e+00 3.5081948286e-03 1.7619618240e+00 -3.0518074001e+00 1.7619618240e+00 3.0518074001e+00 
40400 5.8406071514e+00 3.4778986111e-03 1.7618622713e+00 -3.0516349698e+00 1.7618622713e+00 3.0516349698e+00 
40500 5.8406043971e+00 3.4478003784e-03 1.7617635727e+00 -3.0514640188e+00 1.7617635727e+00 3.0514640188e+00 
40600 5.8406016791e+00 3.4179043621e-03 1.7616657228e+00 -3.0512945378e+00 1.7616657228e+00 3.0512945378e+00 
40700 5.8405989971e+00 3.3882147087e-03 1.7615687159e+00 -3.0511265170e+00 1.7615687159e+00 3.0511265170e+00 
40800 5.8405963505e+00 3.3587354672e-03 1.7614725464e+00 -3.0509599465e+00 1.7614725464e+00 3.0509599465e+00 
40900 5.8405937390e+00 3.3294705775e-03 1.7613772084e+00 -3.0507948163e+00 1.7613772084e+00 3.0507948163e+00 
41000 5.8405911619e+00 3.3004238597e-03 1.7612826960e+00 -3.0506311159e+00 1.7612826960e+00 3.0506311159e+00 
41100 5.8405886188e+00 3.2715990041e-03 1.7611890031e+00 -3.0504688350e+00 1.7611890031e+00 3.0504688350e+00 
41200 5.8405861093e+00 3.2429995618e-03 1.7610961235e+00 -3.0503079628e+00 1.7610961235e+00 3.0503079628e+00 
41300 5.8405836329e+00 3.2146289367e-03 1.7610040509e+00 -3.0501484886e+00 1.7610040509e+00 3.0501484886e+00 
41400 5.8405811891e+00 3.1864903774e-03 1.7609127791e+00 -3.0499904011e+00 1.7609127791e+00 3.0499904011e+00 
41500 5.8405787776e+00 3.1585869700e-03 1.7608223015e+00 -3.0498336893e+00 1.7608223015e+00 3.0498336893e+00 
41600 5.8405763978e+00 3.1309216326e-03 1.7607326116e+00 -3.0496783418e+00 1.7607326116e+00 3.0496783418e+00 
41700 5.8405740494e+00 3.1034971091e-03 1.7606437027e+00 -3.0495243471e+00 1.7606437027e+00 3.0495243471e+00 
41800 5.8405717319e+00 3.0763159644e-03 1.7605555682e+00 -3.0493716936e+00 1.7605555682e+00 3.0493716936e+00 
41900 5.8405694449e+00 3.0493805807e-03 1.7604682011e+00 -3.0492203694e+00 1.7604682011e+00 3.0492203694e+00 
42000 5.8405671880e+00 3.0226931531e-03 1.7603815947e+00 -3.0490703628e+00 1.7603815947e+00 3.0490703628e+00 
42100 5.8405649608e+00 2.9962556876e-03 1.7602957421e+00 -3.0489216616e+00 1.7602957421e+00 3.0489216616e+00 
42200 5.8405627628e+00 2.9700699982e-03 1.7602106362e+00 -3.0487742539e+00 1.7602106362e+00 3.0487742539e+00 
42300 5.8405605938e+00 2.9441377053e-03 1.7601262700e+00 -3.0486281273e+00 1.7601262700e+00 3.0486281273e+00 
42400 5.8405584532e+00 2.9184602346e-03 1.7600426363e+00 -3.0484832696e+00 1.7600426363e+00 3.0484832696e+00 
42500 5.8405563408e+00 2.8930388168e-03 1.7599597282e+00 -3.0483396685e+00 1.7599597282e+00 3.0483396685e+00 
42600 5.8405542562e+00 2.8678744870e-03 1.7598775384e+00 -3.0481973115e+00 1.7598775384e+00 3.0481973115e+00 
42700 5.8405521989e+00 2.8429680855e-03 1.7597960596e+00 -3.0480561862e+00 1.7597960596e+00 3.0480561862e+00 
42800 5.8405501687e+00 2.8183202590e-03 1.7597152847e+00 -3.0479162800e+00 1.7597152847e+00 3.0479162800e+00 
42900 5.8405481651e+00 2.7939314611e-03 1.7596352065e+00 -3.0477775804e+00 1.7596352065e+00 3.0477775804e+00 
43000 5.8405461879e+00 2.7698019553e-03 1.7595558176e+00 -3.0476400748e+00 1.7595558176e+00 3.0476400748e+00 
43100 5.8405442366e+00 2.7459318163e-03 1.7594771107e+00 -3.0475037505e+00 1.7594771107e+00 3.0475037505e+00 
43200 5.8405423109e+00 2.7223209333e-03 1.7593990787e+00 -3.0473685951e+00 1.7593990787e+00 3.0473685951e+00 
43300 5.8405404105e+00 2.6989690127e-03 1.7593217142e+00 -3.0472345958e+00 1.7593217142e+00 3.0472345958e+00 
43400 5.8405385351e+00 2.6758755816e-03 1.7592450099e+00 -3.0471017401e+00 1.7592450099e+00 3.0471017401e+00 
43500 5.8405366844e+00 2.6530399916e-03 1.7591689586e+00 -3.0469700155e+00 1.7591689586e+00 3.0469700155e+00 
43600 5.8405348580e+00 2.6304614225e-03 1.7590935531e+00 -3.0468394093e+00 1.7590935531e+00 3.0468394093e+00 
43700 5.8405330555e+00 2.6081388871e-03 1.7590187861e+00 -3.0467099090e+00 1.7590187861e+00 3.0467099090e+00 
43800 5.8405312768e+00 2.5860712354e-03 1.7589446505e+00 -3.0465815023e+00 1.7589446505e+00 3.0465815023e+00 
43900 5.8405295214e+00 2.5642571595e-03 1.7588711390e+00 -3.0464541767e+00 1.7588711390e+00 3.0464541767e+00 
44000 5.8405277892e+00 2.5426951988e-03 1.7587982445e+00 -3.0463279197e+00 1.7587982445e+00 3.0463279197e+00 
44100 5.8405260797e+00 2.5213837450e-03 1.7587259600e+00 -3.0462027193e+00 1.7587259600e+00 3.0462027193e+00 
44200 5.8405243927e+00 2.5003210476e-03 1.7586542784e+00 -3.0460785631e+00 1.7586542784e+00 3.0460785631e+00 
44300 5.8405227280e+00 2.4795052198e-03 1.7585831926e+00 -3.0459554390e+00 1.7585831926e+00 3.0459554390e+00 
44400 5.8405210851e+00 2.4589342437e-03 1.7585126959e+00 -3.0458333350e+00 1.7585126959e+00 3.0458333350e+00 
44500 5.8405194639e+00 2.4386059763e-03 1.7584427812e+00 -3.0457122392e+00 1.7584427812e+00 3.0457122392e+00 
44600 5.8405178641e+00 2.4185181558e-03 1.7583734417e+00 -3.0455921397e+00 1.7583734417e+00 3.0455921397e+00 
44700 5.8405162853e+00 2.3986684072e-03 1.7583046707e+00 -3.0454730248e+00 1.7583046707e+00 3.0454730248e+00 
44800 5.8405147274e+00 2.3790542484e-03 1.7582364614e+00 -3.0453548829e+00 1.7582364614e+00 3.0453548829e+00 
44900 5.8405131900e+00 2.3596730969e-03 1.7581688073e+00 -3.0452377025e+00 1.7581688073e+00 3.0452377025e+00 
45000 5.8405116728e+00 2.3405222752e-03 1.7581017017e+00 -3.0451214723e+00 1.7581017017e+00 3.0451214723e+00 
45100 5.8405101758e+00 2.3215990176e-03 1.7580351382e+00 -3.0450061809e+00 1.7580351382e+00 3.0450061809e+00 
45200 5.8405086985e+00 2.3029004761e-03 1.7579691104e+00 -3.0448918174e+00 1.7579691104e+00 3.0448918174e+00 
45300 5.8405072407e+00 2.2844237266e-03 1.7579036119e+00 -3.0447783707e+00 1.7579036119e+00 3.0447783707e+00 
45400 5.8405058021e+00 2.2661657754e-03 1.7578386366e+00 -3.0446658300e+00 1.7578386366e+00 3.0446658300e+00 
45500 5.8405043826e+00 2.2481235647e-03 1.7577741781e+00 -3.0445541847e+00 1.7577741781e+00 3.0445541847e+00 
45600 5.8405029818e+00 2.2302939793e-03 1.7577102304e+00 -3.0444434241e+00 1.7577102304e+00 3.0444434241e+00 
45700 5.8405015996e+00 2.2126738522e-03 1.7576467877e+00 -3.0443335380e+00 1.7576467877e+00 3.0443335380e+00 
45800 5.8405002357e+00 2.1952599707e-03 1.7575838438e+00 -3.0442245161e+00 1.7575838438e+00 3.0442245161e+00 
45900 5.8404988898e+00 2.1780490822e-03 1.7575213931e+00 -3.0441163483e+00 1.7575213931e+00 3.0441163483e+00 
46000 5.8404975617e+00 2.1610378999e-03 1.7574594298e+00 -3.0440090247e+00 1.7574594298e+00 3.0440090247e+00 
46100 5.8404962512e+00 2.1442231085e-03 1.7573979483e+00 -3.0439025356e+00 1.7573979483e+00 3.0439025356e+00 
46200 5.8404949581e+00 2.1276013697e-03 1.7573369430e+00 -3.0437968714e+00 1.7573369430e+00 3.0437968714e+00 
46300 5.8404936821e+00 2.1111693277e-03 1.7572764086e+00 -3.0436920226e+00 1.7572764086e+00 3.0436920226e+00 
46400 5.8404924230e+00 2.0949236143e-03 1.7572163396e+00 -3.0435879800e+00 1.7572163396e+00 3.0435879800e+00 
46500 5.8404911806e+00 2.0788608539e-03 1.7571567307e+00 -3.0434847345e+00 1.7571567307e+00 3.0434847345e+00 
46600 5.8404899546e+00 2.0629776689e-03 1.7570975770e+00 -3.0433822772e+00 1.7570975770e+00 3.0433822772e+00 
46700 5.8404887450e+00 2.0472706842e-03 1.7570388732e+00 -3.0432805992e+00 1.7570388732e+00 3.0432805992e+00 
46800 5.8404875513e+00 2.0317365318e-03 1.7569806144e+00 -3.0431796920e+00 1.7569806144e+00 3.0431796920e+00 
46900 5.8404863735e+00 2.0163718558e-03 1.7569227957e+00 -3.0430795471e+00 1.7569227957e+00 3.0430795471e+00 
47000 5.8404852114e+00 2.0011733161e-03 1.7568654124e+00 -3.0429801563e+00 1.7568654124e+00 3.0429801563e+00 
47100 5.8404840646e+00 1.9861375929e-03 1.7568084598e+00 -3.0428815115e+00 1.7568084598e+00 3.0428815115e+00 
47200 5.8404829331e+00 1.9712613906e-03 1.7567519332e+00 -3.0427836046e+00 1.7567519332e+00 3.0427836046e+00 
47300 5.8404818166e+00 1.9565414418e-03 1.7566958282e+00 -3.0426864279e+00 1.7566958282e+00 3.0426864279e+00 
47400 5.8404807149e+00 1.9419745108e-03 1.7566401404e+00 -3.0425899738e+00 1.7566401404e+00 3.0425899738e+00 
47500 5.8404796278e+00 1.9275573969e-03 1.7565848654e+00 -3.0424942347e+00 1.7565848654e+00 3.0424942347e+00 
47600 5.8404785552e+00 1.9132869379e-03 1.7565299991e+00 -3.0423992034e+00 1.7565299991e+00 3.0423992034e+00 
47700 5.8404774968e+00 1.8991600131e-03 1.7564755373e+00 -3.0423048728e+00 1.7564755373e+00 3.0423048728e+00 
47800 5.8404764524e+00 1.8851735463e-03 1.7564214759e+00 -3.0422112357e+00 1.7564214759e+00 3.0422112357e+00 
47900 5.8404754220e+00 1.8713245084e-03 1.7563678110e+00 -3.0421182854e+00 1.7563678110e+00 3.0421182854e+00 
48000 5.8404744052e+00 1.8576099201e-03 1.7563145387e+00 -3.0420260150e+00 1.7563145387e+00 3.0420260150e+00 
48100 5.8404734019e+00 1.8440268538e-03 1.7562616552e+00 -3.0419344181e+00 1.7562616552e+00 3.0419344181e+00 
48200 5.8404724120e+00 1.8305724367e-03 1.7562091568e+00 -3.0418434883e+00 1.7562091568e+00 3.0418434883e+00 
48300 5.8404714352e+00 1.8172438519e-03 1.7561570399e+00 -3.0417532192e+00 1.7561570399e+00 3.0417532192e+00 
48400 5.8404704714e+00 1.8040383407e-03 1.7561053009e+00 -3.0416636047e+00 1.7561053009e+00 3.0416636047e+00 
48500 5.8404695203e+00 1.7909532041e-03 1.7560539364e+00 -3.0415746387e+00 1.7560539364e+00 3.0415746387e+00 
48600 5.8404685820e+00 1.7779858043e-03 1.7560029430e+00 -3.0414863155e+00 1.7560029430e+00 3.0414863155e+00 
48700 5.8404676560e+00 1.7651335662e-03 1.7559523173e+00 -3.0413986292e+00 1.7559523173e+00 3.0413986292e+00 
48800 5.8404667424e+00 1.7523939783e-03 1.7559020561e+00 -3.0413115743e+00 1.7559020561e+00 3.0413115743e+00 
48900 5.8404658410e+00 1.7397645938e-03 1.7558521562e+00 -3.0412251452e+00 1.7558521562e+00 3.0412251452e+00 
49000 5.8404649515e+00 1.7272430316e-03 1.7558026146e+00 -3.0411393365e+00 1.7558026146e+00 3.0411393365e+00 
49100 5.8404640738e+00 1.7148269765e-03 1.7557534281e+00 -3.0410541430e+00 1.7557534281e+00 3.0410541430e+00 
49200 5.8404632078e+00 1.7025141804e-03 1.7557045938e+00 -3.0409695596e+00 1.7557045938e+00 3.0409695596e+00 
49300 5.8404623533e+00 1.6903024621e-03 1.7556561088e+00 -3.0408855811e+00 1.7556561088e+00 3.0408855811e+00 
49400 5.8404615102e+00 1.6781897079e-03 1.7556079703e+00 -3.0408022027e+00 1.7556079703e+00 3.0408022027e+00 
49500 5.8404606783e+00 1.6661738716e-03 1.7555601754e+00 -3.0407194195e+00 1.7555601754e+00 3.0407194195e+00 
49600 5.8404598574e+00 1.6542529745e-03 1.7555127214e+00 -3.0406372268e+00 1.7555127214e+00 3.0406372268e+00 
49700 5.8404590475e+00 1.6424251051e-03 1.7554656057e+00 -3.0405556200e+00 1.7554656057e+00 3.0405556200e+00 
49800 5.8404582483e+00 1.6306884192e-03 1.7554188256e+00 -3.0404745944e+00 1.7554188256e+00 3.0404745944e+00 
49900 5.8404574597e+00 1.6190411390e-03 1.7553723785e+00 -3.0403941457e+00 1.7553723785e+00 3.0403941457e+00 
50000 5.8404566817e+00 1.6074815530e-03 1.7553262619e+00 -3.0403142695e+00 1.7553262619e+00 3.0403142695e+00 
50100 5.8404559139e+00 1.5960080154e-03 1.7552804735e+00 -3.0402349616e+00 1.7552804735e+00 3.0402349616e+00 
50200 5.8404551564e+00 1.5846189452e-03 1.7552350106e+00 -3.0401562176e+00 1.7552350106e+00 3.0401562176e+00 
50300 5.8404544090e+00 1.5733128253e-03 1.7551898710e+00 -3.0400780335e+00 1.7551898710e+00 3.0400780335e+00 
50400 5.8404536715e+00 1.5620882021e-03 1.7551450523e+00 -3.0400004053e+00 1.7551450523e+00 3.0400004053e+00 
50500 5.8404529438e+00 1.5509436838e-03 1.7551005523e+00 -3.0399233289e+00 1.7551005523e+00 3.0399233289e+00 
50600 5.8404522258e+00 1.5398779402e-03 1.7550563685e+00 -3.0398468005e+00 1.7550563685e+00 3.0398468005e+00 
50700 5.8404515174e+00 1.5288897008e-03 1.7550124990e+00 -3.0397708161e+00 1.7550124990e+00 3.0397708161e+00 
50800 5.8404508184e+00 1.5179777541e-03 1.7549689413e+00 -3.0396953721e+00 1.7549689413e+00 3.0396953721e+00 
50900 5.8404501287e+00 1.5071409459e-03 1.7549256935e+00 -3.0396204647e+00 1.7549256935e+00 3.0396204647e+00 
51000 5.8404494482e+00 1.4963781785e-03 1.7548827534e+00 -3.0395460902e+00 1.7548827534e+00 3.0395460902e+00 
51100 5.8404487767e+00 1.4856884089e-03 1.7548401189e+00 -3.0394722450e+00 1.7548401189e+00 3.0394722450e+00 
51200 5.8404481142e+00 1.4750706476e-03 1.7547977879e+00 -3.0393989256e+00 1.7547977879e+00 3.0393989256e+00 
51300 5.8404474605e+00 1.4645239568e-03 1.7547557584e+00 -3.0393261284e+00 1.7547557584e+00 3.0393261284e+00 
51400 5.8404468155e+00 1.4540474494e-03 1.7547140284e+00 -3.0392538500e+00 1.7547140284e+00 3.0392538500e+00 
51500 5.8404461791e+00 1.4436402871e-03 1.7546725960e+00 -3.0391820869e+00 1.7546725960e+00 3.0391820869e+00 
51600 5.8404455512e+00 1.4333016788e-03 1.7546314591e+00 -3.0391108357e+00 1.7546314591e+00 3.0391108357e+00 
51700 5.8404449317e+00 1.4230308791e-03 1.7545906159e+00 -3.0390400932e+00 1.7545906159e+00 3.0390400932e+00 
51800 5.8404443204e+00 1.4128271866e-03 1.7545500644e+00 -3.0389698560e+00 1.7545500644e+00 3.0389698560e+00 
51900 5.8404437172e+00 1.4026899426e-03 1.7545098027e+00 -3.0389001207e+00 1.7545098027e+00 3.0389001207e+00 
52000 5.8404431221e+00 1.3926185287e-03 1.7544698290e+00 -3.0388308843e+00 1.7544698290e+00 3.0388308843e+00 
52100 5.8404425349e+00 1.3826123660e-03 1.7544301415e+00 -3.0387621434e+00 1.7544301415e+00 3.0387621434e+00 
52200 5.8404419556e+00 1.3726709126e-03 1.7543907382e+00 -3.0386938948e+00 1.7543907382e+00 3.0386938948e+00 
52300 5.8404413840e+00 1.3627936626e-03 1.7543516173e+00 -3.0386261355e+00 1.7543516173e+00 3.0386261355e+00 
52400 5.8404408200e+00 1.3529801440e-03 1.7543127770e+00 -3.0385588622e+00 1.7543127770e+00 3.0385588622e+00 
52500 5.8404402635e+00 1.3432299173e-03 1.7542742156e+00 -3.0384920719e+00 1.7542742156e+00 3.0384920719e+00 
52600 5.8404397145e+00 1.3335425736e-03 1.7542359313e+00 -3.0384257615e+00 1.7542359313e+00 3.0384257615e+00 
52700 5.8404391728e+00 1.3239177330e-03 1.7541979222e+00 -3.0383599278e+00 1.7541979222e+00 3.0383599278e+00 
52800 5.8404386383e+00 1.3143550432e-03 1.7541601867e+00 -3.0382945679e+00 1.7541601867e+00 3.0382945679e+00 
52900 5.8404381110e+00 1.3048541776e-03 1.7541227228e+00 -3.0382296787e+00 1.7541227228e+00 3.0382296787e+00 
53000 5.8404375907e+00 1.2954148337e-03 1.7540855291e+00 -3.0381652571e+00 1.7540855291e+00 3.0381652571e+00 
53100 5.8404370773e+00 1.2860367319e-03 1.7540486035e+00 -3.0381013003e+00 1.7540486035e+00 3.0381013003e+00 
53200 5.8404365708e+00 1.2767196135e-03 1.7540119446e+00 -3.0380378051e+00 1.7540119446e+00 3.0380378051e+00 
53300 5.8404360711e+00 1.2674632392e-03 1.7539755504e+00 -3.0379747686e+00 1.7539755504e+00 3.0379747686e+00 
53400 5.8404355780e+00 1.2582673881e-03 1.7539394194e+00 -3.0379121878e+00 1.7539394194e+00 3.0379121878e+00 
53500 5.8404350915e+00 1.2491318557e-03 1.7539035498e+00 -3.0378500598e+00 1.7539035498e+00 3.0378500598e+00 
53600 5.8404346115e+00 1.2400564527e-03 1.7538679398e+00 -3.0377883816e+00 1.7538679398e+00 3.0377883816e+00 
53700 5.8404341380e+00 1.2310410035e-03 1.7538325879e+00 -3.0377271502e+00 1.7538325879e+00 3.0377271502e+00 
53800 5.8404336707e+00 1.2220853450e-03 1.7537974923e+00 -3.0376663628e+00 1.7537974923e+00 3.0376663628e+00 
53900 5.8404332098e+00 1.2131893254e-03 1.7537626513e+00 -3.0376060164e+00 1.7537626513e+00 3.0376060164e+00 
54000 5.8404327549e+00 1.2043528023e-03 1.7537280632e+00 -3.0375461081e+00 1.7537280632e+00 3.0375461081e+00 
54100 5.8404323062e+00 1.1955756421e-03 1.7536937264e+00 -3.0374866350e+00 1.7536937264e+00 3.0374866350e+00 
54200 5.8404318634e+00 1.1868577188e-03 1.7536596391e+00 -3.0374275942e+00 1.7536596391e+00 3.0374275942e+00 
54300 5.8404314266e+00 1.1781989122e-03 1.7536257998e+00 -3.0373689827e+00 1.7536257998e+00 3.0373689827e+00 
54400 5.8404309956e+00 1.1695991076e-03 1.7535922067e+00 -3.0373107977e+00 1.7535922067e+00 3.0373107977e+00 
54500 5.8404305704e+00 1.1610581941e-03 1.7535588581e+00 -3.0372530363e+00 1.7535588581e+00 3.0372530363e+00 
54600 5.8404301509e+00 1.1525760640e-03 1.7535257525e+00 -3.0371956957e+00 1.7535257525e+00 3.0371956957e+00 
54700 5.8404297369e+00 1.1441526115e-03 1.7534928880e+00 -3.0371387728e+00 1.7534928880e+00 3.0371387728e+00 
54800 5.8404293286e+00 1.1357877320e-03 1.7534602632e+00 -3.0370822649e+00 1.7534602632e+00 3.0370822649e+00 
54900 5.8404289256e+00 1.1274813212e-03 1.7534278762e+00 -3.0370261691e+00 1.7534278762e+00 3.0370261691e+00 
55000 5.8404285281e+00 1.1192332740e-03 1.7533957256e+00 -3.0369704824e+00 1.7533957256e+00 3.0369704824e+00 
55100 5.8404281359e+00 1.1110434841e-03 1.7533638095e+00 -3.0369152022e+00 1.7533638095e+00 3.0369152022e+00 
55200 5.8404277489e+00 1.1029118428e-03 1.7533321264e+00 -3.0368603255e+00 1.7533321264e+00 3.0368603255e+00 
55300 5.8404273672e+00 1.0948382387e-03 1.7533006746e+00 -3.0368058494e+00 1.7533006746e+00 3.0368058494e+00 
55400 5.8404269905e+00 1.0868225569e-03 1.7532694525e+00 -3.0367517711e+00 1.7532694525e+00 3.0367517711e+00 
55500 5.8404266189e+00 1.0788646780e-03 1.7532384584e+00 -3.0366980878e+00 1.7532384584e+00 3.0366980878e+00 
55600 5.8404262522e+00 1.0709644784e-03 1.7532076907e+00 -3.0366447966e+00 1.7532076907e+00 3.0366447966e+00 
55700 5.8404258905e+00 1.0631218287e-03 1.7531771478e+00 -3.0365918947e+00 1.7531771478e+00 3.0365918947e+00 
55800 5.8404255336e+00 1.0553365940e-03 1.7531468281e+00 -3.0365393793e+00 1.7531468281e+00 3.0365393793e+00 
55900 5.8404251815e+00 1.0476086333e-03 1.7531167298e+00 -3.0364872476e+00 1.7531167298e+00 3.0364872476e+00 
56000 5.8404248341e+00 1.0399377988e-03 1.7530868514e+00 -3.0364354967e+00 1.7530868514e+00 3.0364354967e+00 
56100 5.8404244913e+00 1.0323239356e-03 1.7530571913e+00 -3.0363841239e+00 1.7530571913e+00 3.0363841239e+00 
56200 5.8404241532e+00 1.0247668819e-03 1.7530277479e+00 -3.0363331264e+00 1.7530277479e+00 3.0363331264e+00 
56300 5.8404238195e+00 1.0172664678e-03 1.7529985194e+00 -3.0362825013e+00 1.7529985194e+00 3.0362825013e+00 
56400 5.8404234904e+00 1.0098225160e-03 1.7529695045e+00 -3.0362322459e+00 1.7529695045e+00 3.0362322459e+00 
56500 5.8404231656e+00 1.0024348407e-03 1.7529407014e+00 -3.0361823574e+00 1.7529407014e+00 3.0361823574e+00 
56600 5.8404228452e+00 9.9510324818e-04 1.7529121085e+00 -3.0361328331e+00 1.7529121085e+00 3.0361328331e+00 
56700 5.8404225291e+00 9.8782753613e-04 1.7528837243e+00 -3.0360836702e+00 1.7528837243e+00 3.0360836702e+00 
56800 5.8404222173e+00 9.8060749379e-04 1.7528555472e+00 -3.0360348660e+00 1.7528555472e+00 3.0360348660e+00 
56900 5.8404219096e+00 9.7344290179e-04 1.7528275755e+00 -3.0359864177e+00 1.7528275755e+00 3.0359864177e+00 
57000 5.8404216060e+00 9.6633353210e-04 1.7527998078e+00 -3.0359383226e+00 1.7527998078e+00 3.0359383226e+00 
57100 5.8404213065e+00 9.5927914805e-04 1.7527722424e+00 -3.0358905780e+00 1.7527722424e+00 3.0358905780e+00 
57200 5.8404210111e+00 9.5227950426e-04 1.7527448779e+00 -3.0358431812e+00 1.7527448779e+00 3.0358431812e+00 
57300 5.8404207196e+00 9.4533434676e-04 1.7527177126e+00 -3.0357961295e+00 1.7527177126e+00 3.0357961295e+00 
57400 5.8404204320e+00 9.3844341298e-04 1.7526907450e+00 -3.0357494203e+00 1.7526907450e+00 3.0357494203e+00 
57500 5.8404201482e+00 9.3160643189e-04 1.7526639735e+00 -3.0357030508e+00 1.7526639735e+00 3.0357030508e+00 
57600 5.8404198683e+00 9.2482312406e-04 1.7526373967e+00 -3.0356570184e+00 1.7526373967e+00 3.0356570184e+00 
57700 5.8404195921e+00 9.1809320181e-04 1.7526110130e+00 -3.0356113205e+00 1.7526110130e+00 3.0356113205e+00 
57800 5.8404193196e+00 9.1141636939e-04 1.7525848210e+00 -3.0355659545e+00 1.7525848210e+00 3.0355659545e+00 
57900 5.8404190508e+00 9.0479232310e-04 1.7525588190e+00 -3.0355209177e+00 1.7525588190e+00 3.0355209177e+00 
58000 5.8404187856e+00 8.9822075152e-04 1.7525330056e+00 -3.0354762076e+00 1.7525330056e+00 3.0354762076e+00 
58100 5.8404185239e+00 8.9170133568e-04 1.7525073793e+00 -3.0354318215e+00 1.7525073793e+00 3.0354318215e+00 
58200 5.8404182658e+00 8.8523374933e-04 1.7524819386e+00 -3.0353877570e+00 1.7524819386e+00 3.0353877570e+00 
58300 5.8404180111e+00 8.7881765911e-04 1.7524566821e+00 -3.0353440114e+00 1.7524566821e+00 3.0353440114e+00 
58400 5.8404177598e+00 8.7245272489e-04 1.7524316083e+00 -3.0353005823e+00 1.7524316083e+00 3.0353005823e+00 
58500 5.8404175119e+00 8.6613859993e-04 1.7524067157e+00 -3.0352574671e+00 1.7524067157e+00 3.0352574671e+00 
58600 5.8404172674e+00 8.5987493126e-04 1.7523820029e+00 -3.0352146633e+00 1.7523820029e+00 3.0352146633e+00 
58700 5.8404170261e+00 8.5366135987e-04 1.7523574685e+00 -3.0351721685e+00 1.7523574685e+00 3.0351721685e+00 
58800 5.8404167880e+00 8.4749752106e-04 1.7523331111e+00 -3.0351299801e+00 1.7523331111e+00 3.0351299801e+00 
58900 5.8404165532e+00 8.4138304475e-04 1.7523089291e+00 -3.0350880958e+00 1.7523089291e+00 3.0350880958e+00 
59000 5.8404163215e+00 8.3531755573e-04 1.7522849214e+00 -3.0350465131e+00 1.7522849214e+00 3.0350465131e+00 
59100 5.8404160929e+00 8.2930067402e-04 1.7522610863e+00 -3.0350052296e+00 1.7522610863e+00 3.0350052296e+00 
59200 5.8404158674e+00 8.2333201521e-04 1.7522374226e+00 -3.0349642429e+00 1.7522374226e+00 3.0349642429e+00 
59300 5.8404156450e+00 8.1741119070e-04 1.7522139290e+00 -3.0349235507e+00 1.7522139290e+00 3.0349235507e+00 
59400 5.8404154255e+00 8.1153780811e-04 1.7521906039e+00 -3.0348831505e+00 1.7521906039e+00 3.0348831505e+00 
59500 5.8404152089e+00 8.0571147158e-04 1.7521674462e+00 -3.0348430401e+00 1.7521674462e+00 3.0348430401e+00 
59600 5.8404149953e+00 7.9993178207e-04 1.7521444544e+00 -3.0348032171e+00 1.7521444544e+00 3.0348032171e+00 
59700 5.8404147845e+00 7.9419833773e-04 1.7521216272e+00 -3.0347636793e+00 1.7521216272e+00 3.0347636793e+00 
59800 5.8404145766e+00 7.8851073422e-04 1.7520989633e+00 -3.0347244244e+00 1.7520989633e+00 3.0347244244e+00 
59900 5.8404143715e+00 7.8286856500e-04 1.7520764615e+00 -3.0346854500e+00 1.7520764615e+00 3.0346854500e+00 
60000 5.8404141691e+00 7.7727142171e-04 1.7520541204e+00 -3.0346467541e+00 1.7520541204e+00 3.0346467541e+00 
60100 5.8404139694e+00 7.7171889446e-04 1.7520319387e+00 -3.0346083343e+00 1.7520319387e+00 3.0346083343e+00 
60200 5.8404137725e+00 7.6621057215e-04 1.7520099152e+00 -3.0345701885e+00 1.7520099152e+00 3.0345701885e+00 
60300 5.8404135782e+00 7.6074604281e-04 1.7519880486e+00 -3.0345323145e+00 1.7519880486e+00 3.0345323145e+00 
60400 5.8404133864e+00 7.5532489386e-04 1.7519663377e+00 -3.0344947101e+00 1.7519663377e+00 3.0344947101e+00 
60500 5.8404131973e+00 7.4994671249e-04 1.7519447813e+00 -3.0344573733e+00 1.7519447813e+00 3.0344573733e+00 
60600 5.8404130107e+00 7.4461108586e-04 1.7519233781e+00 -3.0344203018e+00 1.7519233781e+00 3.0344203018e+00 
60700 5.8404128266e+00 7.3931760151e-04 1.7519021269e+00 -3.0343834936e+00 1.7519021269e+00 3.0343834936e+00 
60800 5.8404126450e+00 7.3406584753e-04 1.7518810265e+00 -3.0343469467e+00 1.7518810265e+00 3.0343469467e+00 
60900 5.8404124659e+00 7.2885541293e-04 1.7518600757e+00 -3.0343106589e+00 1.7518600757e+00 3.0343106589e+00 
61000 5.8404122891e+00 7.2368588787e-04 1.7518392735e+00 -3.0342746283e+00 1.7518392735e+00 3.0342746283e+00 
61100 5.8404121148e+00 7.1855686392e-04 1.7518186185e+00 -3.0342388528e+00 1.7518186185e+00 3.0342388528e+00 
61200 5.8404119427e+00 7.1346793433e-04 1.7517981096e+00 -3.0342033305e+00 1.7517981096e+00 3.0342033305e+00 
61300 5.8404117730e+00 7.0841869426e-04 1.7517777458e+00 -3.0341680593e+00 1.7517777458e+00 3.0341680593e+00 
61400 5.8404116056e+00 7.0340874105e-04 1.7517575258e+00 -3.0341330373e+00 1.7517575258e+00 3.0341330373e+00 
61500 5.8404114404e+00 6.9843767442e-04 1.7517374486e+00 -3.0340982626e+00 1.7517374486e+00 3.0340982626e+00 
61600 5.8404112775e+00 6.9350509668e-04 1.7517175131e+00 -3.0340637332e+00 1.7517175131e+00 3.0340637332e+00 
61700 5.8404111167e+00 6.8861061297e-04 1.7516977181e+00 -3.0340294473e+00 1.7516977181e+00 3.0340294473e+00 
61800 5.8404109581e+00 6.8375383147e-04 1.7516780627e+00 -3.0339954030e+00 1.7516780627e+00 3.0339954030e+00 
61900 5.8404108016e+00 6.7893436353e-04 1.7516585456e+00 -3.0339615985e+00 1.7516585456e+00 3.0339615985e+00 
62000 5.8404106473e+00 6.7415182391e-04 1.7516391659e+00 -3.0339280318e+00 1.7516391659e+00 3.0339280318e+00 
62100 5.8404104950e+00 6.6940583092e-04 1.7516199224e+00 -3.0338947012e+00 1.7516199224e+00 3.0338947012e+00 
62200 5.8404103448e+00 6.6469600661e-04 1.7516008143e+00 -3.0338616049e+00 1.7516008143e+00 3.0338616049e+00 
62300 5.8404101966e+00 6.6002197688e-04 1.7515818404e+00 -3.0338287411e+00 1.7515818404e+00 3.0338287411e+00 
62400 5.8404100504e+00 6.5538337167e-04 1.7515629997e+00 -3.0337961081e+00 1.7515629997e+00 3.0337961081e+00 
62500 5.8404099061e+00 6.5077982503e-04 1.7515442912e+00 -3.0337637040e+00 1.7515442912e+00 3.0337637040e+00 
62600 5.8404097638e+00 6.4621097529e-04 1.7515257139e+00 -3.0337315272e+00 1.7515257139e+00 3.0337315272e+00 
62700 5.8404096235e+00 6.4167646518e-04 1.7515072668e+00 -3.0336995760e+00 1.7515072668e+00 3.0336995760e+00 
62800 5.8404094850e+00 6.3717594188e-04 1.7514889490e+00 -3.0336678486e+00 1.7514889490e+00 3.0336678486e+00 
62900 5.8404093483e+00 6.3270905716e-04 1.7514707595e+00 -3.0336363434e+00 1.7514707595e+00 3.0336363434e+00 
63000 5.8404092136e+00 6.2827546743e-04 1.7514526973e+00 -3.0336050588e+00 1.7514526973e+00 3.0336050588e+00 
63100 5.8404090806e+00 6.2387483384e-04 1.7514347615e+00 -3.0335739931e+00 1.7514347615e+00 3.0335739931e+00 
63200 5.8404089494e+00 6.1950682232e-04 1.7514169511e+00 -3.0335431446e+00 1.7514169511e+00 3.0335431446e+00 
63300 5.8404088200e+00 6.1517110366e-04 1.7513992653e+00 -3.0335125118e+00 1.7513992653e+00 3.0335125118e+00 
63400 5.8404086924e+00 6.1086735355e-04 1.7513817030e+00 -3.0334820931e+00 1.7513817030e+00 3.0334820931e+00 
63500 5.8404085664e+00 6.0659525259e-04 1.7513642635e+00 -3.0334518869e+00 1.7513642635e+00 3.0334518869e+00 
63600 5.8404084422e+00 6.0235448635e-04 1.7513469457e+00 -3.0334218917e+00 1.7513469457e+00 3.0334218917e+00 
63700 5.8404083196e+00 5.9814474540e-04 1.7513297489e+00 -3.0333921058e+00 1.7513297489e+00 3.0333921058e+00 
63800 5.8404081987e+00 5.9396572528e-04 1.7513126720e+00 -3.0333625279e+00 1.7513126720e+00 3.0333625279e+00 
63900 5.8404080794e+00 5.8981712656e-04 1.7512957143e+00 -3.0333331563e+00 1.7512957143e+00 3.0333331563e+00 
64000 5.8404079617e+00 5.8569865479e-04 1.7512788749e+00 -3.0333039895e+00 1.7512788749e+00 3.0333039895e+00 
64100 5.8404078456e+00 5.8161002051e-04 1.7512621529e+00 -3.0332750262e+00 1.7512621529e+00 3.0332750262e+00 
64200 5.8404077311e+00 5.7755093927e-04 1.7512455475e+00 -3.0332462647e+00 1.7512455475e+00 3.0332462647e+00 
64300 5.8404076181e+00 5.7352113152e-04 1.7512290578e+00 -3.0332177037e+00 1.7512290578e+00 3.0332177037e+00 
64400 5.8404075066e+00 5.6952032268e-04 1.7512126830e+00 -3.0331893418e+00 1.7512126830e+00 3.0331893418e+00 
64500 5.8404073967e+00 5.6554824305e-04 1.7511964223e+00 -3.0331611774e+00 1.7511964223e+00 3.0331611774e+00 
64600 5.8404072882e+00 5.6160462776e-04 1.7511802748e+00 -3.0331332092e+00 1.7511802748e+00 3.0331332092e+00 
64700 5.8404071812e+00 5.5768921677e-04 1.7511642398e+00 -3.0331054357e+00 1.7511642398e+00 3.0331054357e+00 
64800 5.8404070756e+00 5.5380175477e-04 1.7511483164e+00 -3.0330778557e+00 1.7511483164e+00 3.0330778557e+00 
64900 5.8404069715e+00 5.4994199117e-04 1.7511325039e+00 -3.0330504676e+00 1.7511325039e+00 3.0330504676e+00 
65000 5.8404068687e+00 5.4610967999e-04 1.7511168015e+00 -3.0330232702e+00 1.7511168015e+00 3.0330232702e+00 
65100 5.8404067674e+00 5.4230457983e-04 1.7511012083e+00 -3.0329962620e+00 1.7511012083e+00 3.0329962620e+00 
65200 5.8404066674e+00 5.3852645380e-04 1.7510857237e+00 -3.0329694418e+00 1.7510857237e+00 3.0329694418e+00 
65300 5.8404065687e+00 5.3477506941e-04 1.7510703468e+00 -3.0329428082e+00 1.7510703468e+00 3.0329428082e+00 
65400 5.8404064714e+00 5.3105019856e-04 1.7510550768e+00 -3.0329163599e+00 1.7510550768e+00 3.0329163599e+00 
65500 5.8404063754e+00 5.2735161738e-04 1.7510399131e+00 -3.0328900956e+00 1.7510399131e+00 3.0328900956e+00 
65600 5.8404062807e+00 5.2367910621e-04 1.7510248549e+00 -3.0328640140e+00 1.7510248549e+00 3.0328640140e+00 
65700 5.8404061873e+00 5.2003244948e-04 1.7510099014e+00 -3.0328381139e+00 1.7510099014e+00 3.0328381139e+00 
65800 5.8404060951e+00 5.1641143565e-04 1.7509950520e+00 -3.0328123938e+00 1.7509950520e+00 3.0328123938e+00 
65900 5.8404060042e+00 5.1281585707e-04 1.7509803058e+00 -3.0327868526e+00 1.7509803058e+00 3.0327868526e+00 
66000 5.8404059145e+00 5.0924550996e-04 1.7509656621e+00 -3.0327614891e+00 1.7509656621e+00 3.0327614891e+00 
66100 5.8404058260e+00 5.0570019424e-04 1.7509511203e+00 -3.0327363019e+00 1.7509511203e+00 3.0327363019e+00 
66200 5.8404057388e+00 5.0217971350e-04 1.7509366796e+00 -3.0327112898e+00 1.7509366796e+00 3.0327112898e+00 
66300 5.8404056526e+00 4.9868387486e-04 1.7509223393e+00 -3.0326864517e+00 1.7509223393e+00 3.0326864517e+00 
66400 5.8404055677e+00 4.9521248888e-04 1.7509080987e+00 -3.0326617863e+00 1.7509080987e+00 3.0326617863e+00 
66500 5.8404054839e+00 4.9176536948e-04 1.7508939571e+00 -3.0326372924e+00 1.7508939571e+00 3.0326372924e+00 
66600 5.8404054012e+00 4.8834233383e-04 1.7508799139e+00 -3.0326129688e+00 1.7508799139e+00 3.0326129688e+00 
66700 5.8404053197e+00 4.8494320225e-04 1.7508659683e+00 -3.0325888143e+00 1.7508659683e+00 3.0325888143e+00 
66800 5.8404052392e+00 4.8156779811e-04 1.7508521196e+00 -3.0325648277e+00 1.7508521196e+00 3.0325648277e+00 
66900 5.8404051599e+00 4.7821594773e-04 1.7508383672e+00 -3.0325410079e+00 1.7508383672e+00 3.0325410079e+00 
67000 5.8404050816e+00 4.7488748028e-04 1.7508247105e+00 -3.0325173537e+00 1.7508247105e+00 3.0325173537e+00 
67100 5.8404050043e+00 4.7158222771e-04 1.7508111487e+00 -3.0324938640e+00 1.7508111487e+00 3.0324938640e+00 
67200 5.8404049282e+00 4.6830002460e-04 1.7507976812e+00 -3.0324705376e+00 1.7507976812e+00 3.0324705376e+00 
67300 5.8404048530e+00 4.6504070811e-04 1.7507843073e+00 -3.0324473733e+00 1.7507843073e+00 3.0324473733e+00 
67400 5.8404047788e+00 4.6180411785e-04 1.7507710264e+00 -3.0324243701e+00 1.7507710264e+00 3.0324243701e+00 
67500 5.8404047057e+00 4.5859009583e-04 1.7507578378e+00 -3.0324015268e+00 1.7507578378e+00 3.0324015268e+00 
67600 5.8404046335e+00 4.5539848631e-04 1.7507447409e+00 -3.0323788423e+00 1.7507447409e+00 3.0323788423e+00 
67700 5.8404045624e+00 4.5222913575e-04 1.7507317351e+00 -3.0323563156e+00 1.7507317351e+00 3.0323563156e+00 
67800 5.8404044921e+00 4.4908189270e-04 1.7507188197e+00 -3.0323339454e+00 1.7507188197e+00 3.0323339454e+00 
67900 5.8404044229e+00 4.4595660772e-04 1.7507059940e+00 -3.0323117308e+00 1.7507059940e+00 3.0323117308e+00 
68000 5.8404043545e+00 4.4285313331e-04 1.7506932576e+00 -3.0322896706e+00 1.7506932576e+00 3.0322896706e+00 
68100 5.8404042871e+00 4.3977132376e-04 1.7506806096e+00 -3.0322677637e+00 1.7506806096e+00 3.0322677637e+00 
68200 5.8404042206e+00 4.3671103517e-04 1.7506680496e+00 -3.0322460092e+00 1.7506680496e+00 3.0322460092e+00 
68300 5.8404041550e+00 4.3367212527e-04 1.7506555770e+00 -3.0322244059e+00 1.7506555770e+00 3.0322244059e+00 
68400 5.8404040903e+00 4.3065445339e-04 1.7506431910e+00 -3.0322029527e+00 1.7506431910e+00 3.0322029527e+00 
68500 5.8404040265e+00 4.2765788039e-04 1.7506308911e+00 -3.0321816487e+00 1.7506308911e+00 3.0321816487e+00 
68600 5.8404039635e+00 4.2468226855e-04 1.7506186767e+00 -3.0321604928e+00 1.7506186767e+00 3.0321604928e+00 
68700 5.8404039014e+00 4.2172748156e-04 1.7506065473e+00 -3.0321394839e+00 1.7506065473e+00 3.0321394839e+00 
68800 5.8404038401e+00 4.1879338436e-04 1.7505945021e+00 -3.0321186211e+00 1.7505945021e+00 3.0321186211e+00 
68900 5.8404037796e+00 4.1587984315e-04 1.7505825406e+00 -3.0320979032e+00 1.7505825406e+00 3.0320979032e+00 
69000 5.8404037200e+00 4.1298672530e-04 1.7505706623e+00 -3.0320773294e+00 1.7505706623e+00 3.0320773294e+00 
69100 5.8404036611e+00 4.1011389927e-04 1.7505588666e+00 -3.0320568985e+00 1.7505588666e+00 3.0320568985e+00 
69200 5.8404036031e+00 4.0726123457e-04 1.7505471528e+00 -3.0320366097e+00 1.7505471528e+00 3.0320366097e+00 
69300 5.8404035458e+00 4.0442860171e-04 1.7505355204e+00 -3.0320164618e+00 1.7505355204e+00 3.0320164618e+00 
69400 5.8404034894e+00 4.0161587212e-04 1.7505239688e+00 -3.0319964539e+00 1.7505239688e+00 3.0319964539e+00 
69500 5.8404034336e+00 3.9882291811e-04 1.7505124975e+00 -3.0319765850e+00 1.7505124975e+00 3.0319765850e+00 
69600 5.8404033787e+00 3.9604961282e-04 1.7505011060e+00 -3.0319568542e+00 1.7505011060e+00 3.0319568542e+00 
69700 5.8404033245e+00 3.9329583018e-04 1.7504897935e+00 -3.0319372605e+00 1.7504897935e+00 3.0319372605e+00 
69800 5.8404032710e+00 3.9056144486e-04 1.7504785596e+00 -3.0319178028e+00 1.7504785596e+00 3.0319178028e+00 
69900 5.8404032182e+00 3.8784633221e-04 1.7504674038e+00 -3.0318984804e+00 1.7504674038e+00 3.0318984804e+00 
70000 5.8404031662e+00 3.8515036824e-04 1.7504563254e+00 -3.0318792921e+00 1.7504563254e+00 3.0318792921e+00 
70100 5.8404031148e+00 3.8247342959e-04 1.7504453240e+00 -3.0318602371e+00 1.7504453240e+00 3.0318602371e+00 
70200 5.8404030642e+00 3.7981539347e-04 1.7504343990e+00 -3.0318413144e+00 1.7504343990e+00 3.0318413144e+00 
70300 5.8404030142e+00 3.7717613764e-04 1.7504235498e+00 -3.0318225231e+00 1.7504235498e+00 3.0318225231e+00 
70400 5.8404029649e+00 3.7455554040e-04 1.7504127760e+00 -3.0318038623e+00 1.7504127760e+00 3.0318038623e+00 
70500 5.8404029163e+00 3.7195348050e-04 1.7504020770e+00 -3.0317853310e+00 1.7504020770e+00 3.0317853310e+00 
70600 5.8404028683e+00 3.6936983720e-04 1.7503914522e+00 -3.0317669283e+00 1.7503914522e+00 3.0317669283e+00 
70700 5.8404028210e+00 3.6680449016e-04 1.7503809011e+00 -3.0317486533e+00 1.7503809011e+00 3.0317486533e+00 
70800 5.8404027743e+00 3.6425731950e-04 1.7503704233e+00 -3.0317305052e+00 1.7503704233e+00 3.0317305052e+00 
70900 5.8404027283e+00 3.6172820571e-04 1.7503600181e+00 -3.0317124829e+00 1.7503600181e+00 3.0317124829e+00 
71000 5.8404026829e+00 3.5921702966e-04 1.7503496852e+00 -3.0316945857e+00 1.7503496852e+00 3.0316945857e+00 
71100 5.8404026381e+00 3.5672367262e-04 1.7503394239e+00 -3.0316768127e+00 1.7503394239e+00 3.0316768127e+00 
71200 5.8404025939e+00 3.5424801618e-04 1.7503292338e+00 -3.0316591629e+00 1.7503292338e+00 3.0316591629e+00 
71300 5.8404025503e+00 3.5178994229e-04 1.7503191143e+00 -3.0316416355e+00 1.7503191143e+00 3.0316416355e+00 
71400 5.8404025073e+00 3.4934933322e-04 1.7503090650e+00 -3.0316242296e+00 1.7503090650e+00 3.0316242296e+00 
71500 5.8404024648e+00 3.4692607156e-04 1.7502990854e+00 -3.0316069443e+00 1.7502990854e+00 3.0316069443e+00 
71600 5.8404024230e+00 3.4452004024e-04 1.7502891749e+00 -3.0315897789e+00 1.7502891749e+00 3.0315897789e+00 
71700 5.8404023817e+00 3.4213112248e-04 1.7502793331e+00 -3.0315727324e+00 1.7502793331e+00 3.0315727324e+00 
71800 5.8404023410e+00 3.3975920181e-04 1.7502695595e+00 -3.0315558040e+00 1.7502695595e+00 3.0315558040e+00 
71900 5.8404023008e+00 3.3740416207e-04 1.7502598536e+00 -3.0315389929e+00 1.7502598536e+00 3.0315389929e+00 
72000 5.8404022612e+00 3.3506588740e-04 1.7502502149e+00 -3.0315222982e+00 1.7502502149e+00 3.0315222982e+00 
72100 5.8404022221e+00 3.3274426226e-04 1.7502406430e+00 -3.0315057191e+00 1.7502406430e+00 3.0315057191e+00 
72200 5.8404021835e+00 3.3043917141e-04 1.7502311373e+00 -3.0314892548e+00 1.7502311373e+00 3.0314892548e+00 
72300 5.8404021455e+00 3.2815049990e-04 1.7502216975e+00 -3.0314729045e+00 1.7502216975e+00 3.0314729045e+00 
72400 5.8404021079e+00 3.2587813313e-04 1.7502123229e+00 -3.0314566674e+00 1.7502123229e+00 3.0314566674e+00 
72500 5.8404020709e+00 3.2362195680e-04 1.7502030133e+00 -3.0314405425e+00 1.7502030133e+00 3.0314405425e+00 
72600 5.8404020344e+00 3.2138185692e-04 1.7501937680e+00 -3.0314245293e+00 1.7501937680e+00 3.0314245293e+00 
72700 5.8404019984e+00 3.1915771987e-04 1.7501845867e+00 -3.0314086268e+00 1.7501845867e+00 3.0314086268e+00 
72800 5.8404019628e+00 3.1694943235e-04 1.7501754689e+00 -3.0313928342e+00 1.7501754689e+00 3.0313928342e+00 
72900 5.8404019278e+00 3.1475688141e-04 1.7501664141e+00 -3.0313771509e+00 1.7501664141e+00 3.0313771509e+00 
73000 5.8404018932e+00 3.1257995445e-04 1.7501574219e+00 -3.0313615760e+00 1.7501574219e+00 3.0313615760e+00 
73100 5.8404018591e+00 3.1041853926e-04 1.7501484919e+00 -3.0313461087e+00 1.7501484919e+00 3.0313461087e+00 
73200 5.8404018254e+00 3.0827252400e-04 1.7501396235e+00 -3.0313307483e+00 1.7501396235e+00 3.0313307483e+00 
73300 5.8404017922e+00 3.0614179721e-04 1.7501308164e+00 -3.0313154940e+00 1.7501308164e+00 3.0313154940e+00 
73400 5.8404017595e+00 3.0402624784e-04 1.7501220702e+00 -3.0313003450e+00 1.7501220702e+00 3.0313003450e+00 
73500 5.8404017272e+00 3.0192576527e-04 1.7501133843e+00 -3.0312853007e+00 1.7501133843e+00 3.0312853007e+00 
73600 5.8404016953e+00 2.9984023927e-04 1.7501047585e+00 -3.0312703602e+00 1.7501047585e+00 3.0312703602e+00 
73700 5.8404016639e+00 2.9776956008e-04 1.7500961921e+00 -3.0312555229e+00 1.7500961921e+00 3.0312555229e+00 
73800 5.8404016329e+00 2.9571361838e-04 1.7500876849e+00 -3.0312407879e+00 1.7500876849e+00 3.0312407879e+00 
73900 5.8404016023e+00 2.9367230532e-04 1.7500792363e+00 -3.0312261546e+00 1.7500792363e+00 3.0312261546e+00 
74000 5.8404015721e+00 2.9164551251e-04 1.7500708461e+00 -3.0312116223e+00 1.7500708461e+00 3.0312116223e+00 
74100 5.8404015424e+00 2.8963313208e-04 1.7500625137e+00 -3.0311971902e+00 1.7500625137e+00 3.0311971902e+00 
74200 5.8404015130e+00 2.8763505663e-04 1.7500542388e+00 -3.0311828576e+00 1.7500542388e+00 3.0311828576e+00 
74300 5.8404014840e+00 2.8565117931e-04 1.7500460209e+00 -3.0311686238e+00 1.7500460209e+00 3.0311686238e+00 
74400 5.8404014555e+00 2.8368139377e-04 1.7500378597e+00 -3.0311544881e+00 1.7500378597e+00 3.0311544881e+00 
74500 5.8404014273e+00 2.8172559423e-04 1.7500297547e+00 -3.0311404498e+00 1.7500297547e+00 3.0311404498e+00 
74600 5.8404013995e+00 2.7978367545e-04 1.7500217055e+00 -3.0311265083e+00 1.7500217055e+00 3.0311265083e+00 
74700 5.8404013721e+00 2.7785553276e-04 1.7500137118e+00 -3.0311126628e+00 1.7500137118e+00 3.0311126628e+00 
74800 5.8404013450e+00 2.7594106209e-04 1.7500057731e+00 -3.0310989126e+00 1.7500057731e+00 3.0310989126e+00 
74900 5.8404013183e+00 2.7404015992e-04 1.7499978891e+00 -3.0310852571e+00 1.7499978891e+00 3.0310852571e+00 
75000 5.8404012920e+00 2.7215272339e-04 1.7499900594e+00 -3.0310716956e+00 1.7499900594e+00 3.0310716956e+00 
75100 5.8404012660e+00 2.7027865022e-04 1.7499822836e+00 -3.0310582275e+00 1.7499822836e+00 3.0310582275e+00 
75200 5.8404012404e+00 2.6841783878e-04 1.7499745613e+00 -3.0310448520e+00 1.7499745613e+00 3.0310448520e+00 
75300 5.8404012152e+00 2.6657018806e-04 1.7499668921e+00 -3.0310315686e+00 1.7499668921e+00 3.0310315686e+00 
75400 5.8404011902e+00 2.6473559772e-04 1.7499592756e+00 -3.0310183766e+00 1.7499592756e+00 3.0310183766e+00 
75500 5.8404011657e+00 2.6291396807e-04 1.7499517116e+00 -3.0310052753e+00 1.7499517116e+00 3.0310052753e+00 
75600 5.8404011414e+00 2.6110520009e-04 1.7499441996e+00 -3.0309922640e+00 1.7499441996e+00 3.0309922640e+00 
75700 5.8404011175e+00 2.5930919545e-04 1.7499367392e+00 -3.0309793423e+00 1.7499367392e+00 3.0309793423e+00 
75800 5.8404010939e+00 2.5752585650e-04 1.7499293301e+00 -3.0309665094e+00 1.7499293301e+00 3.0309665094e+00 
75900 5.8404010706e+00 2.5575508629e-04 1.7499219719e+00 -3.0309537646e+00 1.7499219719e+00 3.0309537646e+00 
76000 5.8404010476e+00 2.5399678858e-04 1.7499146643e+00 -3.0309411075e+00 1.7499146643e+00 3.0309411075e+00 
76100 5.8404010250e+00 2.5225086784e-04 1.7499074069e+00 -3.0309285373e+00 1.7499074069e+00 3.0309285373e+00 
76200 5.8404010026e+00 2.5051722926e-04 1.7499001994e+00 -3.0309160535e+00 1.7499001994e+00 3.0309160535e+00 
76300 5.8404009806e+00 2.4879577875e-04 1.7498930413e+00 -3.0309036554e+00 1.7498930413e+00 3.0309036554e+00 
76400 5.8404009589e+00 2.4708642297e-04 1.7498859324e+00 -3.0308913424e+00 1.7498859324e+00 3.0308913424e+00 
76500 5.8404009374e+00 2.4538906931e-04 1.7498788724e+00 -3.0308791140e+00 1.7498788724e+00 3.0308791140e+00 
76600 5.8404009163e+00 2.4370362589e-04 1.7498718608e+00 -3.0308669696e+00 1.7498718608e+00 3.0308669696e+00 
76700 5.8404008954e+00 2.4203000160e-04 1.7498648973e+00 -3.0308549085e+00 1.7498648973e+00 3.0308549085e+00 
76800 5.8404008748e+00 2.4036810606e-04 1.7498579816e+00 -3.0308429302e+00 1.7498579816e+00 3.0308429302e+00 
76900 5.8404008545e+00 2.3871784967e-04 1.7498511134e+00 -3.0308310341e+00 1.7498511134e+00 3.0308310341e+00 
77000 5.8404008345e+00 2.3707914356e-04 1.7498442923e+00 -3.0308192197e+00 1.7498442923e+00 3.0308192197e+00 
77100 5.8404008147e+00 2.3545189964e-04 1.7498375180e+00 -3.0308074862e+00 1.7498375180e+00 3.0308074862e+00 
77200 5.8404007952e+00 2.3383603059e-04 1.7498307902e+00 -3.0307958333e+00 1.7498307902e+00 3.0307958333e+00 
77300 5.8404007760e+00 2.3223144981e-04 1.7498241086e+00 -3.0307842603e+00 1.7498241086e+00 3.0307842603e+00 
77400 5.8404007570e+00 2.3063807152e-04 1.7498174727e+00 -3.0307727667e+00 1.7498174727e+00 3.0307727667e+00 
77500 5.8404007383e+00 2.2905581066e-04 1.7498108824e+00 -3.0307613519e+00 1.7498108824e+00 3.0307613519e+00 
77600 5.8404007199e+00 2.2748458297e-04 1.7498043372e+00 -3.0307500154e+00 1.7498043372e+00 3.0307500154e+00 
77700 5.8404007017e+00 2.2592430492e-04 1.7497978369e+00 -3.0307387565e+00 1.7497978369e+00 3.0307387565e+00 
77800 5.8404006837e+00 2.2437489376e-04 1.7497913812e+00 -3.0307275749e+00 1.7497913812e+00 3.0307275749e+00 
77900 5.8404006660e+00 2.2283626751e-04 1.7497849697e+00 -3.0307164699e+00 1.7497849697e+00 3.0307164699e+00 
78000 5.8404006485e+00 2.2130834493e-04 1.7497786022e+00 -3.0307054410e+00 1.7497786022e+00 3.0307054410e+00 
78100 5.8404006313e+00 2.1979104555e-04 1.7497722783e+00 -3.0306944877e+00 1.7497722783e+00 3.0306944877e+00 
78200 5.8404006143e+00 2.1828428964e-04 1.7497659978e+00 -3.0306836095e+00 1.7497659978e+00 3.0306836095e+00 
78300 5.8404005975e+00 2.1678799823e-04 1.7497597602e+00 -3.0306728058e+00 1.7497597602e+00 3.0306728058e+00 
78400 5.8404005810e+00 2.1530209310e-04 1.7497535654e+00 -3.0306620761e+00 1.7497535654e+00 3.0306620761e+00 
78500 5.8404005646e+00 2.1382649676e-04 1.7497474131e+00 -3.0306514199e+00 1.7497474131e+00 3.0306514199e+00 
78600 5.8404005485e+00 2.1236113246e-04 1.7497413029e+00 -3.0306408367e+00 1.7497413029e+00 3.0306408367e+00 
78700 5.8404005327e+00 2.1090592421e-04 1.7497352345e+00 -3.0306303260e+00 1.7497352345e+00 3.0306303260e+00 
78800 5.8404005170e+00 2.0946079669e-04 1.7497292077e+00 -3.0306198873e+00 1.7497292077e+00 3.0306198873e+00 
78900 5.8404005016e+00 2.0802567537e-04 1.7497232222e+00 -3.0306095201e+00 1.7497232222e+00 3.0306095201e+00 
79000 5.8404004863e+00 2.0660048639e-04 1.7497172777e+00 -3.0305992239e+00 1.7497172777e+00 3.0305992239e+00 
79100 5.8404004713e+00 2.0518515662e-04 1.7497113739e+00 -3.0305889981e+00 1.7497113739e+00 3.0305889981e+00 
79200 5.8404004565e+00 2.0377961362e-04 1.7497055105e+00 -3.0305788424e+00 1.7497055105e+00 3.0305788424e+00 
79300 5.8404004418e+00 2.0238378566e-04 1.7496996872e+00 -3.0305687563e+00 1.7496996872e+00 3.0305687563e+00 
79400 5.8404004274e+00 2.0099760170e-04 1.7496939038e+00 -3.0305587392e+00 1.7496939038e+00 3.0305587392e+00 
79500 5.8404004132e+00 1.9962099137e-04 1.7496881601e+00 -3.0305487906e+00 1.7496881601e+00 3.0305487906e+00 
79600 5.8404003991e+00 1.9825388500e-04 1.7496824556e+00 -3.0305389102e+00 1.7496824556e+00 3.0305389102e+00 
79700 5.8404003853e+00 1.9689621358e-04 1.7496767902e+00 -3.0305290974e+00 1.7496767902e+00 3.0305290974e+00 
79800 5.8404003716e+00 1.9554790874e-04 1.7496711635e+00 -3.0305193518e+00 1.7496711635e+00 3.0305193518e+00 
79900 5.8404003581e+00 1.9420890278e-04 1.7496655754e+00 -3.0305096728e+00 1.7496655754e+00 3.0305096728e+00 
80000 5.8404003448e+00 1.9287912866e-04 1.7496600255e+00 -3.0305000601e+00 1.7496600255e+00 3.0305000601e+00 
80100 5.8404003317e+00 1.9155851995e-04 1.7496545136e+00 -3.0304905133e+00 1.7496545136e+00 3.0304905133e+00 
80200 5.8404003188e+00 1.9024701087e-04 1.7496490394e+00 -3.0304810317e+00 1.7496490394e+00 3.0304810317e+00 
80300 5.8404003060e+00 1.8894453625e-04 1.7496436027e+00 -3.0304716150e+00 1.7496436027e+00 3.0304716150e+00 
80400 5.8404002934e+00 1.8765103152e-04 1.7496382032e+00 -3.0304622628e+00 1.7496382032e+00 3.0304622628e+00 
80500 5.8404002810e+00 1.8636643274e-04 1.7496328406e+00 -3.0304529746e+00 1.7496328406e+00 3.0304529746e+00 
80600 5.8404002688e+00 1.8509067655e-04 1.7496275148e+00 -3.0304437499e+00 1.7496275148e+00 3.0304437499e+00 
80700 5.8404002567e+00 1.8382370018e-04 1.7496222253e+00 -3.0304345883e+00 1.7496222253e+00 3.0304345883e+00 
80800 5.8404002448e+00 1.8256544143e-04 1.7496169721e+00 -3.0304254895e+00 1.7496169721e+00 3.0304254895e+00 
80900 5.8404002330e+00 1.8131583868e-04 1.7496117548e+00 -3.0304164528e+00 1.7496117548e+00 3.0304164528e+00 
81000 5.8404002214e+00 1.8007483086e-04 1.7496065732e+00 -3.0304074780e+00 1.7496065732e+00 3.0304074780e+00 
81100 5.8404002100e+00 1.7884235746e-04 1.7496014271e+00 -3.0303985647e+00 1.7496014271e+00 3.0303985647e+00 
81200 5.8404001987e+00 1.7761835851e-04 1.7495963161e+00 -3.0303897122e+00 1.7495963161e+00 3.0303897122e+00 
81300 5.8404001876e+00 1.7640277458e-04 1.7495912401e+00 -3.0303809204e+00 1.7495912401e+00 3.0303809204e+00 
81400 5.8404001766e+00 1.7519554675e-04 1.7495861989e+00 -3.0303721887e+00 1.7495861989e+00 3.0303721887e+00 
81500 5.8404001658e+00 1.7399661663e-04 1.7495811921e+00 -3.0303635167e+00 1.7495811921e+00 3.0303635167e+00 
81600 5.8404001551e+00 1.7280592634e-04 1.7495762196e+00 -3.0303549040e+00 1.7495762196e+00 3.0303549040e+00 
81700 5.8404001446e+00 1.7162341849e-04 1.7495712811e+00 -3.0303463503e+00 1.7495712811e+00 3.0303463503e+00 
81800 5.8404001342e+00 1.7044903619e-04 1.7495663764e+00 -3.0303378551e+00 1.7495663764e+00 3.0303378551e+00 
81900 5.8404001239e+00 1.6928272303e-04 1.7495615052e+00 -3.0303294179e+00 1.7495615052e+00 3.0303294179e+00 
82000 5.8404001138e+00 1.6812442308e-04 1.7495566673e+00 -3.0303210385e+00 1.7495566673e+00 3.0303210385e+00 
82100 5.8404001039e+00 1.6697408087e-04 1.7495518626e+00 -3.0303127164e+00 1.7495518626e+00 3.0303127164e+00 
82200 5.8404000940e+00 1.6583164139e-04 1.7495470906e+00 -3.0303044512e+00 1.7495470906e+00 3.0303044512e+00 
82300 5.8404000843e+00 1.6469705010e-04 1.7495423514e+00 -3.0302962426e+00 1.7495423514e+00 3.0302962426e+00 
82400 5.8404000747e+00 1.6357025287e-04 1.7495376445e+00 -3.0302880901e+00 1.7495376445e+00 3.0302880901e+00 
82500 5.8404000653e+00 1.6245119604e-04 1.7495329698e+00 -3.0302799933e+00 1.7495329698e+00 3.0302799933e+00 
82600 5.8404000560e+00 1.6133982635e-04 1.7495283271e+00 -3.0302719519e+00 1.7495283271e+00 3.0302719519e+00 
82700 5.8404000468e+00 1.6023609098e-04 1.7495237162e+00 -3.0302639655e+00 1.7495237162e+00 3.0302639655e+00 
82800 5.8404000377e+00 1.5913993752e-04 1.7495191368e+00 -3.0302560337e+00 1.7495191368e+00 3.0302560337e+00 
82900 5.8404000288e+00 1.5805131396e-04 1.7495145887e+00 -3.0302481562e+00 1.7495145887e+00 3.0302481562e+00 
83000 5.8404000200e+00 1.5697016871e-04 1.7495100717e+00 -3.0302403325e+00 1.7495100717e+00 3.0302403325e+00 
83100 5.8404000113e+00 1.5589645054e-04 1.7495055856e+00 -3.0302325623e+00 1.7495055856e+00 3.0302325623e+00 
83200 5.8404000027e+00 1.5483010865e-04 1.7495011301e+00 -3.0302248453e+00 1.7495011301e+00 3.0302248453e+00 
83300 5.8403999942e+00 1.5377109257e-04 1.7494967051e+00 -3.0302171810e+00 1.7494967051e+00 3.0302171810e+00 
83400 5.8403999859e+00 1.5271935226e-04 1.7494923104e+00 -3.0302095691e+00 1.7494923104e+00 3.0302095691e+00 
83500 5.8403999777e+00 1.5167483799e-04 1.7494879457e+00 -3.0302020093e+00 1.7494879457e+00 3.0302020093e+00 
83600 5.8403999695e+00 1.5063750045e-04 1.7494836109e+00 -3.0301945011e+00 1.7494836109e+00 3.0301945011e+00 
83700 5.8403999615e+00 1.4960729064e-04 1.7494793057e+00 -3.0301870443e+00 1.7494793057e+00 3.0301870443e+00 
83800 5.8403999536e+00 1.4858415993e-04 1.7494750299e+00 -3.0301796384e+00 1.7494750299e+00 3.0301796384e+00 
83900 5.8403999458e+00 1.4756806004e-04 1.7494707834e+00 -3.0301722832e+00 1.7494707834e+00 3.0301722832e+00 
84000 5.8403999381e+00 1.4655894301e-04 1.7494665659e+00 -3.0301649783e+00 1.7494665659e+00 3.0301649783e+00 
84100 5.8403999306e+00 1.4555676125e-04 1.7494623772e+00 -3.0301577233e+00 1.7494623772e+00 3.0301577233e+00 
84200 5.8403999231e+00 1.4456146747e-04 1.7494582172e+00 -3.0301505179e+00 1.7494582172e+00 3.0301505179e+00 
84300 5.8403999157e+00 1.4357301471e-04 1.7494540856e+00 -3.0301433618e+00 1.7494540856e+00 3.0301433618e+00 
84400 5.8403999084e+00 1.4259135634e-04 1.7494499822e+00 -3.0301362545e+00 1.7494499822e+00 3.0301362545e+00 
84500 5.8403999012e+00 1.4161644604e-04 1.7494459069e+00 -3.0301291959e+00 1.7494459069e+00 3.0301291959e+00 
84600 5.8403998942e+00 1.4064823780e-04 1.7494418594e+00 -3.0301221854e+00 1.7494418594e+00 3.0301221854e+00 
84700 5.8403998872e+00 1.3968668592e-04 1.7494378396e+00 -3.0301152229e+00 1.7494378396e+00 3.0301152229e+00 
84800 5.8403998803e+00 1.3873174502e-04 1.7494338473e+00 -3.0301083080e+00 1.7494338473e+00 3.0301083080e+00 
84900 5.8403998735e+00 1.3778336998e-04 1.7494298823e+00 -3.0301014404e+00 1.7494298823e+00 3.0301014404e+00 
85000 5.8403998668e+00 1.3684151602e-04 1.7494259443e+00 -3.0300946196e+00 1.7494259443e+00 3.0300946196e+00 
85100 5.8403998602e+00 1.3590613862e-04 1.7494220333e+00 -3.0300878455e+00 1.7494220333e+00 3.0300878455e+00 
85200 5.8403998536e+00 1.3497719358e-04 1.7494181490e+00 -3.0300811177e+00 1.7494181490e+00 3.0300811177e+00 
85300 5.8403998472e+00 1.3405463695e-04 1.7494142912e+00 -3.0300744358e+00 1.7494142912e+00 3.0300744358e+00 
85400 5.8403998409e+00 1.3313842509e-04 1.7494104598e+00 -3.0300677996e+00 1.7494104598e+00 3.0300677996e+00 
85500 5.8403998346e+00 1.3222851464e-04 1.7494066545e+00 -3.0300612088e+00 1.7494066545e+00 3.0300612088e+00 
85600 5.8403998284e+00 1.3132486250e-04 1.7494028753e+00 -3.0300546629e+00 1.7494028753e+00 3.0300546629e+00 
85700 5.8403998223e+00 1.3042742585e-04 1.7493991219e+00 -3.0300481618e+00 1.7493991219e+00 3.0300481618e+00 
85800 5.8403998163e+00 1.2953616215e-04 1.7493953941e+00 -3.0300417051e+00 1.7493953941e+00 3.0300417051e+00 
85900 5.8403998104e+00 1.2865102913e-04 1.7493916918e+00 -3.0300352925e+00 1.7493916918e+00 3.0300352925e+00 
86000 5.8403998045e+00 1.2777198477e-04 1.7493880148e+00 -3.0300289237e+00 1.7493880148e+00 3.0300289237e+00 
86100 5.8403997988e+00 1.2689898734e-04 1.7493843629e+00 -3.0300225985e+00 1.7493843629e+00 3.0300225985e+00 
86200 5.8403997931e+00 1.2603199535e-04 1.7493807359e+00 -3.0300163164e+00 1.7493807359e+00 3.0300163164e+00 
86300 5.8403997875e+00 1.2517096758e-04 1.7493771337e+00 -3.0300100772e+00 1.7493771337e+00 3.0300100772e+00 
86400 5.8403997819e+00 1.2431586307e-04 1.7493735561e+00 -3.0300038807e+00 1.7493735561e+00 3.0300038807e+00 
86500 5.8403997765e+00 1.2346664112e-04 1.7493700030e+00 -3.0299977264e+00 1.7493700030e+00 3.0299977264e+00 
86600 5.8403997711e+00 1.2262326127e-04 1.7493664741e+00 -3.0299916142e+00 1.7493664741e+00 3.0299916142e+00 
86700 5.8403997658e+00 1.2178568333e-04 1.7493629693e+00 -3.0299855437e+00 1.7493629693e+00 3.0299855437e+00 
86800 5.8403997605e+00 1.2095386736e-04 1.7493594885e+00 -3.0299795147e+00 1.7493594885e+00 3.0299795147e+00 
86900 5.8403997554e+00 1.2012777366e-04 1.7493560314e+00 -3.0299735269e+00 1.7493560314e+00 3.0299735269e+00 
87000 5.8403997503e+00 1.1930736279e-04 1.7493525979e+00 -3.0299675799e+00 1.7493525979e+00 3.0299675799e+00 
87100 5.8403997452e+00 1.1849259554e-04 1.7493491878e+00 -3.0299616735e+00 1.7493491878e+00 3.0299616735e+00 
87200 5.8403997403e+00 1.1768343297e-04 1.7493458011e+00 -3.0299558075e+00 1.7493458011e+00 3.0299558075e+00 
87300 5.8403997354e+00 1.1687983637e-04 1.7493424374e+00 -3.0299499815e+00 1.7493424374e+00 3.0299499815e+00 
87400 5.8403997306e+00 1.1608176729e-04 1.7493390968e+00 -3.0299441953e+00 1.7493390968e+00 3.0299441953e+00 
87500 5.8403997258e+00 1.1528918749e-04 1.7493357789e+00 -3.0299384485e+00 1.7493357789e+00 3.0299384485e+00 
87600 5.8403997211e+00 1.1450205900e-04 1.7493324837e+00 -3.0299327410e+00 1.7493324837e+00 3.0299327410e+00 
87700 5.8403997165e+00 1.1372034409e-04 1.7493292109e+00 -3.0299270725e+00 1.7493292109e+00 3.0299270725e+00 
87800 5.8403997119e+00 1.1294400525e-04 1.7493259605e+00 -3.0299214426e+00 1.7493259605e+00 3.0299214426e+00 
87900 5.8403997074e+00 1.1217300524e-04 1.7493227323e+00 -3.0299158512e+00 1.7493227323e+00 3.0299158512e+00 
88000 5.8403997030e+00 1.1140730702e-04 1.7493195261e+00 -3.0299102979e+00 1.7493195261e+00 3.0299102979e+00 
88100 5.8403996986e+00 1.1064687382e-04 1.7493163418e+00 -3.0299047826e+00 1.7493163418e+00 3.0299047826e+00 
88200 5.8403996943e+00 1.0989166909e-04 1.7493131793e+00 -3.0298993048e+00 1.7493131793e+00 3.0298993048e+00 
88300 5.8403996900e+00 1.0914165651e-04 1.7493100383e+00 -3.0298938645e+00 1.7493100383e+00 3.0298938645e+00 
88400 5.8403996858e+00 1.0839680002e-04 1.7493069187e+00 -3.0298884612e+00 1.7493069187e+00 3.0298884612e+00 
88500 5.8403996816e+00 1.0765706376e-04 1.7493038204e+00 -3.0298830948e+00 1.7493038204e+00 3.0298830948e+00 
88600 5.8403996775e+00 1.0692241213e-04 1.7493007433e+00 -3.0298777651e+00 1.7493007433e+00 3.0298777651e+00 
88700 5.8403996735e+00 1.0619280976e-04 1.7492976871e+00 -3.0298724717e+00 1.7492976871e+00 3.0298724717e+00 
88800 5.8403996695e+00 1.0546822149e-04 1.7492946518e+00 -3.0298672144e+00 1.7492946518e+00 3.0298672144e+00 
88900 5.8403996656e+00 1.0474861241e-04 1.7492916372e+00 -3.0298619930e+00 1.7492916372e+00 3.0298619930e+00 
89000 5.8403996617e+00 1.0403394783e-04 1.7492886432e+00 -3.0298568072e+00 1.7492886432e+00 3.0298568072e+00 
89100 5.8403996579e+00 1.0332419332e-04 1.7492856696e+00 -3.0298516567e+00 1.7492856696e+00 3.0298516567e+00 
89200 5.8403996541e+00 1.0261931463e-04 1.7492827163e+00 -3.0298465414e+00 1.7492827163e+00 3.0298465414e+00 
89300 5.8403996504e+00 1.0191927777e-04 1.7492797831e+00 -3.0298414610e+00 1.7492797831e+00 3.0298414610e+00 
89400 5.8403996467e+00 1.0122404898e-04 1.7492768699e+00 -3.0298364152e+00 1.7492768699e+00 3.0298364152e+00 
89500 5.8403996431e+00 1.0053359470e-04 1.7492739766e+00 -3.0298314039e+00 1.7492739766e+00 3.0298314039e+00 
89600 5.8403996395e+00 9.9847881635e-05 1.7492711030e+00 -3.0298264267e+00 1.7492711030e+00 3.0298264267e+00 
89700 5.8403996360e+00 9.9166876682e-05 1.7492682491e+00 -3.0298214834e+00 1.7492682491e+00 3.0298214834e+00 
89800 5.8403996326e+00 9.8490546980e-05 1.7492654145e+00 -3.0298165739e+00 1.7492654145e+00 3.0298165739e+00 
89900 5.8403996291e+00 9.7818859886e-05 1.7492625993e+00 -3.0298116978e+00 1.7492625993e+00 3.0298116978e+00 
90000 5.8403996257e+00 9.7151782983e-05 1.7492598033e+00 -3.0298068550e+00 1.7492598033e+00 3.0298068550e+00 
90100 5.8403996224e+00 9.6489284075e-05 1.7492570264e+00 -3.0298020452e+00 1.7492570264e+00 3.0298020452e+00 
90200 5.8403996191e+00 9.5831331190e-05 1.7492542684e+00 -3.0297972682e+00 1.7492542684e+00 3.0297972682e+00 
90300 5.8403996159e+00 9.5177892576e-05 1.7492515292e+00 -3.0297925238e+00 1.7492515292e+00 3.0297925238e+00 
90400 5.8403996127e+00 9.4528936700e-05 1.7492488086e+00 -3.0297878117e+00 1.7492488086e+00 3.0297878117e+00 
90500 5.8403996095e+00 9.3884432251e-05 1.7492461067e+00 -3.0297831317e+00 1.7492461067e+00 3.0297831317e+00 
90600 5.8403996064e+00 9.3244348135e-05 1.7492434231e+00 -3.0297784836e+00 1.7492434231e+00 3.0297784836e+00 
90700 5.8403996034e+00 9.2608653477e-05 1.7492407578e+00 -3.0297738672e+00 1.7492407578e+00 3.0297738672e+00 
90800 5.8403996003e+00 9.1977317616e-05 1.7492381107e+00 -3.0297692823e+00 1.7492381107e+00 3.0297692823e+00 
90900 5.8403995973e+00 9.1350310114e-05 1.7492354816e+00 -3.0297647286e+00 1.7492354816e+00 3.0297647286e+00 
91000 5.8403995944e+00 9.0727600738e-05 1.7492328705e+00 -3.0297602060e+00 1.7492328705e+00 3.0297602060e+00 
91100 5.8403995915e+00 9.0109159480e-05 1.7492302771e+00 -3.0297557141e+00 1.7492302771e+00 3.0297557141e+00 
91200 5.8403995886e+00 8.9494956538e-05 1.7492277015e+00 -3.0297512529e+00 1.7492277015e+00 3.0297512529e+00 
91300 5.8403995858e+00 8.8884962324e-05 1.7492251433e+00 -3.0297468221e+00 1.7492251433e+00 3.0297468221e+00 
91400 5.8403995830e+00 8.8279147463e-05 1.7492226026e+00 -3.0297424215e+00 1.7492226026e+00 3.0297424215e+00 
91500 5.8403995803e+00 8.7677482789e-05 1.7492200793e+00 -3.0297380509e+00 1.7492200793e+00 3.0297380509e+00 
91600 5.8403995775e+00 8.7079939346e-05 1.7492175731e+00 -3.0297337100e+00 1.7492175731e+00 3.0297337100e+00 
91700 5.8403995749e+00 8.6486488384e-05 1.7492150840e+00 -3.0297293988e+00 1.7492150840e+00 3.0297293988e+00 
91800 5.8403995722e+00 8.5897101366e-05 1.7492126118e+00 -3.0297251169e+00 1.7492126118e+00 3.0297251169e+00 
91900 5.8403995696e+00 8.5311749953e-05 1.7492101565e+00 -3.0297208642e+00 1.7492101565e+00 3.0297208642e+00 
92000 5.8403995671e+00 8.4730406021e-05 1.7492077179e+00 -3.0297166404e+00 1.7492077179e+00 3.0297166404e+00 
92100 5.8403995645e+00 8.4153041639e-05 1.7492052960e+00 -3.0297124455e+00 1.7492052960e+00 3.0297124455e+00 
92200 5.8403995620e+00 8.3579629089e-05 1.7492028905e+00 -3.0297082791e+00 1.7492028905e+00 3.0297082791e+00 
92300 5.8403995596e+00 8.3010140845e-05 1.7492005014e+00 -3.0297041411e+00 1.7492005014e+00 3.0297041411e+00 
92400 5.8403995571e+00 8.2444549589e-05 1.7491981286e+00 -3.0297000313e+00 1.7491981286e+00 3.0297000313e+00 
92500 5.8403995547e+00 8.1882828199e-05 1.7491957720e+00 -3.0296959494e+00 1.7491957720e+00 3.0296959494e+00 
92600 5.8403995524e+00 8.1324949750e-05 1.7491934314e+00 -3.0296918954e+00 1.7491934314e+00 3.0296918954e+00 
92700 5.8403995500e+00 8.0770887517e-05 1.7491911068e+00 -3.0296878690e+00 1.7491911068e+00 3.0296878690e+00 
92800 5.8403995477e+00 8.0220614965e-05 1.7491887979e+00 -3.0296838701e+00 1.7491887979e+00 3.0296838701e+00 
92900 5.8403995455e+00 7.9674105761e-05 1.7491865049e+00 -3.0296798983e+00 1.7491865049e+00 3.0296798983e+00 
93000 5.8403995432e+00 7.9131333759e-05 1.7491842274e+00 -3.0296759537e+00 1.7491842274e+00 3.0296759537e+00 
93100 5.8403995410e+00 7.8592273007e-05 1.7491819655e+00 -3.0296720359e+00 1.7491819655e+00 3.0296720359e+00 
93200 5.8403995388e+00 7.8056897742e-05 1.7491797189e+00 -3.0296681447e+00 1.7491797189e+00 3.0296681447e+00 
93300 5.8403995367e+00 7.7525182391e-05 1.7491774877e+00 -3.0296642801e+00 1.7491774877e+00 3.0296642801e+00 
93400 5.8403995346e+00 7.6997101569e-05 1.7491752716e+00 -3.0296604418e+00 1.7491752716e+00 3.0296604418e+00 
93500 5.8403995325e+00 7.6472630076e-05 1.7491730707e+00 -3.0296566296e+00 1.7491730707e+00 3.0296566296e+00 
93600 5.8403995304e+00 7.5951742901e-05 1.7491708847e+00 -3.0296528434e+00 1.7491708847e+00 3.0296528434e+00 
93700 5.8403995284e+00 7.5434415210e-05 1.7491687136e+00 -3.0296490830e+00 1.7491687136e+00 3.0296490830e+00 
93800 5.8403995264e+00 7.4920622358e-05 1.7491665573e+00 -3.0296453482e+00 1.7491665573e+00 3.0296453482e+00 
93900 5.8403995244e+00 7.4410339876e-05 1.7491644157e+00 -3.0296416388e+00 1.7491644157e+00 3.0296416388e+00 
94000 5.8403995225e+00 7.3903543476e-05 1.7491622887e+00 -3.0296379547e+00 1.7491622887e+00 3.0296379547e+00 
94100 5.8403995205e+00 7.3400209052e-05 1.7491601762e+00 -3.0296342957e+00 1.7491601762e+00 3.0296342957e+00 
94200 5.8403995186e+00 7.2900312667e-05 1.7491580780e+00 -3.0296306616e+00 1.7491580780e+00 3.0296306616e+00 
94300 5.8403995168e+00 7.2403830567e-05 1.7491559941e+00 -3.0296270522e+00 1.7491559941e+00 3.0296270522e+00 
94400 5.8403995149e+00 7.1910739170e-05 1.7491539245e+00 -3.0296234674e+00 1.7491539245e+00 3.0296234674e+00 
94500 5.8403995131e+00 7.1421015062e-05 1.7491518689e+00 -3.0296199070e+00 1.7491518689e+00 3.0296199070e+00 
94600 5.8403995113e+00 7.0934635007e-05 1.7491498273e+00 -3.0296163709e+00 1.7491498273e+00 3.0296163709e+00 
94700 5.8403995095e+00 7.0451575933e-05 1.7491477996e+00 -3.0296128588e+00 1.7491477996e+00 3.0296128588e+00 
94800 5.8403995079e+00 7.1202129663e-05 1.7491477996e+00 -3.0296128588e+00 1.7491477996e+00 3.0296128588e+00 
94900 5.8403995062e+00 7.0709340848e-05 1.7491457643e+00 -3.0296093335e+00 1.7491457643e+00 3.0296093335e+00 
95000 5.8403995047e+00 7.1454835726e-05 1.7491457643e+00 -3.0296093335e+00 1.7491457643e+00 3.0296093335e+00 
95100 5.8403995030e+00 7.0952577136e-05 1.7491437217e+00 -3.0296057957e+00 1.7491437217e+00 3.0296057957e+00 
95200 5.8403995013e+00 7.0453928028e-05 1.7491416935e+00 -3.0296022828e+00 1.7491416935e+00 3.0296022828e+00 
95300 5.8403994999e+00 7.1189218358e-05 1.7491416935e+00 -3.0296022828e+00 1.7491416935e+00 3.0296022828e+00 
95400 5.8403994983e+00 7.0681362464e-05 1.7491396585e+00 -3.0295987581e+00 1.7491396585e+00 3.0295987581e+00 
95500 5.8403994968e+00 7.1411552572e-05 1.7491396585e+00 -3.0295987581e+00 1.7491396585e+00 3.0295987581e+00 
95600 5.8403994952e+00 7.0894688169e-05 1.7491376172e+00 -3.0295952224e+00 1.7491376172e+00 3.0295952224e+00 
95700 5.8403994937e+00 7.0381636083e-05 1.7491355906e+00 -3.0295917123e+00 1.7491355906e+00 3.0295917123e+00 
95800 5.8403994923e+00 7.1101463209e-05 1.7491355906e+00 -3.0295917123e+00 1.7491355906e+00 3.0295917123e+00 
95900 5.8403994908e+00 7.0579580236e-05 1.7491335581e+00 -3.0295881919e+00 1.7491335581e+00 3.0295881919e+00 
96000 5.8403994895e+00 7.1294138596e-05 1.7491335581e+00 -3.0295881919e+00 1.7491335581e+00 3.0295881919e+00 
96100 5.8403994880e+00 7.0763572195e-05 1.7491315202e+00 -3.0295846620e+00 1.7491315202e+00 3.0295846620e+00 
96200 5.8403994866e+00 7.0236949095e-05 1.7491294973e+00 -3.0295811584e+00 1.7491294973e+00 3.0295811584e+00 
96300 5.8403994853e+00 7.0940812508e-05 1.7491294973e+00 -3.0295811584e+00 1.7491294973e+00 3.0295811584e+00 
96400 5.8403994839e+00 7.0405618405e-05 1.7491274694e+00 -3.0295776460e+00 1.7491274694e+00 3.0295776460e+00 
96500 5.8403994826e+00 7.1103939667e-05 1.7491274694e+00 -3.0295776460e+00 1.7491274694e+00 3.0295776460e+00 
96600 5.8403994812e+00 7.0560286275e-05 1.7491254369e+00 -3.0295741255e+00 1.7491254369e+00 3.0295741255e+00 
96700 5.8403994800e+00 7.1252923042e-05 1.7491254369e+00 -3.0295741255e+00 1.7491254369e+00 3.0295741255e+00 
96800 5.8403994787e+00 7.0700906760e-05 1.7491234001e+00 -3.0295705976e+00 1.7491234001e+00 3.0295705976e+00 
96900 5.8403994775e+00 7.1387701822e-05 1.7491234001e+00 -3.0295705976e+00 1.7491234001e+00 3.0295705976e+00 
97000 5.8403994762e+00 7.0827406293e-05 1.7491213594e+00 -3.0295670631e+00 1.7491213594e+00 3.0295670631e+00 
97100 5.8403994749e+00 7.0271245245e-05 1.7491193348e+00 -3.0295635563e+00 1.7491193348e+00 3.0295635563e+00 
97200 5.8403994738e+00 7.0946371647e-05 1.7491193348e+00 -3.0295635563e+00 1.7491193348e+00 3.0295635563e+00 
97300 5.8403994725e+00 7.0381970095e-05 1.7491173067e+00 -3.0295600436e+00 1.7491173067e+00 3.0295600436e+00 
97400 5.8403994715e+00 7.1050847715e-05 1.7491173067e+00 -3.0295600436e+00 1.7491173067e+00 3.0295600436e+00 
97500 5.8403994702e+00 7.0478283162e-05 1.7491152756e+00 -3.0295565257e+00 1.7491152756e+00 3.0295565257e+00 
97600 5.8403994692e+00 7.1140734089e-05 1.7491152756e+00 -3.0295565257e+00 1.7491152756e+00 3.0295565257e+00 
97700 5.8403994680e+00 7.0560080409e-05 1.7491132420e+00 -3.0295530034e+00 1.7491132420e+00 3.0295530034e+00 
97800 5.8403994670e+00 7.1215922360e-05 1.7491132420e+00 -3.0295530034e+00 1.7491132420e+00 3.0295530034e+00 
97900 5.8403994658e+00 7.0627251977e-05 1.7491112063e+00 -3.0295494773e+00 1.7491112063e+00 3.0295494773e+00 
98000 5.8403994648e+00 7.1276300348e-05 1.7491112063e+00 -3.0295494773e+00 1.7491112063e+00 3.0295494773e+00 
98100 5.8403994637e+00 7.0679686345e-05 1.7491091688e+00 -3.0295459483e+00 1.7491091688e+00 3.0295459483e+00 
98200 5.8403994627e+00 7.1321756247e-05 1.7491091688e+00 -3.0295459483e+00 1.7491091688e+00 3.0295459483e+00 
98300 5.8403994616e+00 7.0717274383e-05 1.7491071299e+00 -3.0295424170e+00 1.7491071299e+00 3.0295424170e+00 
98400 5.8403994605e+00 7.0117124518e-05 1.7491051084e+00 -3.0295389156e+00 1.7491051084e+00 3.0295389156e+00 
98500 5.8403994596e+00 7.0745803145e-05 1.7491051084e+00 -3.0295389156e+00 1.7491051084e+00 3.0295389156e+00 
98600 5.8403994585e+00 7.0137839617e-05 1.7491030861e+00 -3.0295354128e+00 1.7491030861e+00 3.0295354128e+00 
98700 5.8403994576e+00 7.0759125786e-05 1.7491030861e+00 -3.0295354128e+00 1.7491030861e+00 3.0295354128e+00 
98800 5.8403994566e+00 7.0143452943e-05 1.7491010634e+00 -3.0295319093e+00 1.7491010634e+00 3.0295319093e+00 
98900 5.8403994557e+00 7.0757189550e-05 1.7491010634e+00 -3.0295319093e+00 1.7491010634e+00 3.0295319093e+00 
99000 5.8403994547e+00 7.0133920086e-05 1.7490990407e+00 -3.0295284059e+00 1.7490990407e+00 3.0295284059e+00 
99100 5.8403994538e+00 7.0739958063e-05 1.7490990407e+00 -3.0295284059e+00 1.7490990407e+00 3.0295284059e+00 
99200 5.8403994528e+00 7.0109213926e-05 1.7490970185e+00 -3.0295249034e+00 1.7490970185e+00 3.0295249034e+00 
99300 5.8403994520e+00 7.0707413385e-05 1.7490970185e+00 -3.0295249034e+00 1.7490970185e+00 3.0295249034e+00 
99400 5.8403994512e+00 7.1304239300e-05 1.7490970185e+00 -3.0295249034e+00 1.7490970185e+00 3.0295249034e+00 
99500 5.8403994503e+00 7.0654332479e-05 1.7490949802e+00 -3.0295213729e+00 1.7490949802e+00 3.0295213729e+00 
99600 5.8403994495e+00 7.1243099649e-05 1.7490949802e+00 -3.0295213729e+00 1.7490949802e+00 3.0295213729e+00 
99700 5.8403994485e+00 7.0586129946e-05 1.7490929436e+00 -3.0295178455e+00 1.7490929436e+00 3.0295178455e+00 
99800 5.8403994478e+00 7.1166712438e-05 1.7490929436e+00 -3.0295178455e+00 1.7490929436e+00 3.0295178455e+00 
99900 5.8403994469e+00 7.0502825624e-05 1.7490909092e+00 -3.0295143218e+00 1.7490909092e+00 3.0295143218e+00 
100000 5.8403994461e+00 7.1075109663e-05 1.7490909092e+00 -3.0295143218e+00 1.7490909092e+00 3.0295143218e+00 
100100 5.8403994452e+00 7.0404463640e-05 1.7490888775e+00 -3.0295108027e+00 1.7490888775e+00 3.0295108027e+00 
100200 5.8403994445e+00 7.0968348622e-05 1.7490888775e+00 -3.0295108027e+00 1.7490888775e+00 3.0295108027e+00 
100300 5.8403994436e+00 7.0291113906e-05 1.7490868487e+00 -3.0295072889e+00 1.7490868487e+00 3.0295072889e+00 
100400 5.8403994429e+00 7.0846513216e-05 1.7490868487e+00 -3.0295072889e+00 1.7490868487e+00 3.0295072889e+00 
100500 5.8403994421e+00 7.0162873199e-05 1.7490848235e+00 -3.0295037810e+00 1.7490848235e+00 3.0295037810e+00 
100600 5.8403994414e+00 7.0709714853e-05 1.7490848235e+00 -3.0295037810e+00 1.7490848235e+00 3.0295037810e+00 
100700 5.8403994408e+00 7.1254851634e-05 1.7490848235e+00 -3.0295037810e+00 1.7490848235e+00 3.0295037810e+00 
100800 5.8403994399e+00 7.0553770649e-05 1.7490827866e+00 -3.0295002530e+00 1.7490827866e+00 3.0295002530e+00 
100900 5.8403994393e+00 7.1090240227e-05 1.7490827866e+00 -3.0295002530e+00 1.7490827866e+00 3.0295002530e+00 
101000 5.8403994385e+00 7.0383330314e-05 1.7490807544e+00 -3.0294967331e+00 1.7490807544e+00 3.0294967331e+00 
101100 5.8403994379e+00 7.0911085509e-05 1.7490807544e+00 -3.0294967331e+00 1.7490807544e+00 3.0294967331e+00 
101200 5.8403994371e+00 7.0198560600e-05 1.7490787273e+00 -3.0294932221e+00 1.7490787273e+00 3.0294932221e+00 
101300 5.8403994365e+00 7.0717569511e-05 1.7490787273e+00 -3.0294932221e+00 1.7490787273e+00 3.0294932221e+00 
101400 5.8403994357e+00 6.9999655826e-05 1.7490767057e+00 -3.0294897206e+00 1.7490767057e+00 3.0294897206e+00 
101500 5.8403994351e+00 7.0509902117e-05 1.7490767057e+00 -3.0294897206e+00 1.7490767057e+00 3.0294897206e+00 
101600 5.8403994345e+00 7.1018355543e-05 1.7490767057e+00 -3.0294897206e+00 1.7490767057e+00 3.0294897206e+00 
101700 5.8403994338e+00 7.0284624609e-05 1.7490746755e+00 -3.0294862043e+00 1.7490746755e+00 3.0294862043e+00 
101800 5.8403994332e+00 7.0784290329e-05 1.7490746755e+00 -3.0294862043e+00 1.7490746755e+00 3.0294862043e+00 
101900 5.8403994325e+00 7.0045848828e-05 1.7490726521e+00 -3.0294826995e+00 1.7490726521e+00 3.0294826995e+00 
102000 5.8403994319e+00 7.0536736033e-05 1.7490726521e+00 -3.0294826995e+00 1.7490726521e+00 3.0294826995e+00 
102100 5.8403994314e+00 7.1025833173e-05 1.7490726521e+00 -3.0294826995e+00 1.7490726521e+00 3.0294826995e+00 
102200 5.8403994307e+00 7.0272612439e-05 1.7490706217e+00 -3.0294791828e+00 1.7490706217e+00 3.0294791828e+00 
102300 5.8403994302e+00 7.0752942827e-05 1.7490706217e+00 -3.0294791828e+00 1.7490706217e+00 3.0294791828e+00 
102400 5.8403994295e+00 6.9995721146e-05 1.7490685991e+00 -3.0294756795e+00 1.7490685991e+00 3.0294756795e+00 
102500 5.8403994290e+00 7.0467317598e-05 1.7490685991e+00 -3.0294756795e+00 1.7490685991e+00 3.0294756795e+00 
102600 5.8403994285e+00 7.0937152748e-05 1.7490685991e+00 -3.0294756795e+00 1.7490685991e+00 3.0294756795e+00 
102700 5.8403994278e+00 7.0166241602e-05 1.7490665712e+00 -3.0294721672e+00 1.7490665712e+00 3.0294721672e+00 
102800 5.8403994273e+00 7.0627388552e-05 1.7490665712e+00 -3.0294721672e+00 1.7490665712e+00 3.0294721672e+00 
102900 5.8403994268e+00 7.1086806065e-05 1.7490665712e+00 -3.0294721672e+00 1.7490665712e+00 3.0294721672e+00 
103000 5.8403994262e+00 7.0302890920e-05 1.7490645391e+00 -3.0294686474e+00 1.7490645391e+00 3.0294686474e+00 
103100 5.8403994257e+00 7.0753676835e-05 1.7490645391e+00 -3.0294686474e+00 1.7490645391e+00 3.0294686474e+00 
103200 5.8403994251e+00 6.9966960106e-05 1.7490625165e+00 -3.0294651442e+00 1.7490625165e+00 3.0294651442e+00 
103300 5.8403994247e+00 7.0409175213e-05 1.7490625165e+00 -3.0294651442e+00 1.7490625165e+00 3.0294651442e+00 
103400 5.8403994242e+00 7.0849719103e-05 1.7490625165e+00 -3.0294651442e+00 1.7490625165e+00 3.0294651442e+00 
103500 5.8403994236e+00 7.0051122754e-05 1.7490604911e+00 -3.0294616361e+00 1.7490604911e+00 3.0294616361e+00 
103600 5.8403994232e+00 7.0483180807e-05 1.7490604911e+00 -3.0294616361e+00 1.7490604911e+00 3.0294616361e+00 
103700 5.8403994227e+00 7.0913615152e-05 1.7490604911e+00 -3.0294616361e+00 1.7490604911e+00 3.0294616361e+00 
103800 5.8403994221e+00 7.0103836001e-05 1.7490584639e+00 -3.0294581249e+00 1.7490584639e+00 3.0294581249e+00 
103900 5.8403994217e+00 7.0525877265e-05 1.7490584639e+00 -3.0294581249e+00 1.7490584639e+00 3.0294581249e+00 
104000 5.8403994213e+00 7.0946344659e-05 1.7490584639e+00 -3.0294581249e+00 1.7490584639e+00 3.0294581249e+00 
104100 5.8403994208e+00 7.0126071777e-05 1.7490564358e+00 -3.0294546121e+00 1.7490564358e+00 3.0294546121e+00 
104200 5.8403994204e+00 7.0538245120e-05 1.7490564358e+00 -3.0294546121e+00 1.7490564358e+00 3.0294546121e+00 
104300 5.8403994200e+00 7.0948896130e-05 1.7490564358e+00 -3.0294546121e+00 1.7490564358e+00 3.0294546121e+00 
104400 5.8403994194e+00 7.0118808737e-05 1.7490544076e+00 -3.0294510991e+00 1.7490544076e+00 3.0294510991e+00 
104500 5.8403994190e+00 7.0521269834e-05 1.7490544076e+00 -3.0294510991e+00 1.7490544076e+00 3.0294510991e+00 
104600 5.8403994187e+00 7.0922261360e-05 1.7490544076e+00 -3.0294510991e+00 1.7490544076e+00 3.0294510991e+00 
104700 5.8403994181e+00 7.0083027265e-05 1.7490523801e+00 -3.0294475875e+00 1.7490523801e+00 3.0294475875e+00 
104800 5.8403994178e+00 7.0475937225e-05 1.7490523801e+00 -3.0294475875e+00 1.7490523801e+00 3.0294475875e+00 
104900 5.8403994174e+00 7.0867431242e-05 1.7490523801e+00 -3.0294475875e+00 1.7490523801e+00 3.0294475875e+00 
105000 5.8403994169e+00 7.0019705700e-05 1.7490503543e+00 -3.0294440786e+00 1.7490503543e+00 3.0294440786e+00 
105100 5.8403994165e+00 7.0403230010e-05 1.7490503543e+00 -3.0294440786e+00 1.7490503543e+00 3.0294440786e+00 
105200 5.8403994162e+00 7.0785392597e-05 1.7490503543e+00 -3.0294440786e+00 1.7490503543e+00 3.0294440786e+00 
105300 5.8403994157e+00 6.9929817488e-05 1.7490483307e+00 -3.0294405737e+00 1.7490483307e+00 3.0294405737e+00 
105400 5.8403994154e+00 7.0304125190e-05 1.7490483307e+00 -3.0294405737e+00 1.7490483307e+00 3.0294405737e+00 
105500 5.8403994150e+00 7.0677125774e-05 1.7490483307e+00 -3.0294405737e+00 1.7490483307e+00 3.0294405737e+00 
105600 5.8403994147e+00 7.1048844863e-05 1.7490483307e+00 -3.0294405737e+00 1.7490483307e+00 3.0294405737e+00 
105700 5.8403994142e+00 7.0178296920e-05 1.7490462997e+00 -3.0294370558e+00 1.7490462997e+00 3.0294370558e+00 
105800 5.8403994139e+00 7.0542295789e-05 1.7490462997e+00 -3.0294370558e+00 1.7490462997e+00 3.0294370558e+00 
105900 5.8403994136e+00 7.0905061219e-05 1.7490462997e+00 -3.0294370558e+00 1.7490462997e+00 3.0294370558e+00 
106000 5.8403994131e+00 7.0028113598e-05 1.7490442727e+00 -3.0294335450e+00 1.7490442727e+00 3.0294335450e+00 
106100 5.8403994128e+00 7.0383265133e-05 1.7490442727e+00 -3.0294335450e+00 1.7490442727e+00 3.0294335450e+00 
106200 5.8403994125e+00 7.0737231091e-05 1.7490442727e+00 -3.0294335450e+00 1.7490442727e+00 3.0294335450e+00 
106300 5.8403994121e+00 6.9854457971e-05 1.7490422505e+00 -3.0294300425e+00 1.7490422505e+00 3.0294300425e+00 
106400 5.8403994118e+00 7.0200918036e-05 1.7490422505e+00 -3.0294300425e+00 1.7490422505e+00 3.0294300425e+00 
106500 5.8403994115e+00 7.0546240476e-05 1.7490422505e+00 -3.0294300425e+00 1.7490422505e+00 3.0294300425e+00 
106600 5.8403994112e+00 7.0890448684e-05 1.7490422505e+00 -3.0294300425e+00 1.7490422505e+00 3.0294300425e+00 
106700 5.8403994108e+00 6.9995305134e-05 1.7490402240e+00 -3.0294265324e+00 1.7490402240e+00 3.0294265324e+00 
106800 5.8403994105e+00 7.0332132519e-05 1.7490402240e+00 -3.0294265324e+00 1.7490402240e+00 3.0294265324e+00 
106900 5.8403994102e+00 7.0667887252e-05 1.7490402240e+00 -3.0294265324e+00 1.7490402240e+00 3.0294265324e+00 
107000 5.8403994100e+00 7.1002590578e-05 1.7490402240e+00 -3.0294265324e+00 1.7490402240e+00 3.0294265324e+00 
107100 5.8403994096e+00 7.0096038349e-05 1.7490381942e+00 -3.0294230168e+00 1.7490381942e+00 3.0294230168e+00 
107200 5.8403994093e+00 7.0423471747e-05 1.7490381942e+00 -3.0294230168e+00 1.7490381942e+00 3.0294230168e+00 
107300 5.8403994090e+00 7.0749888893e-05 1.7490381942e+00 -3.0294230168e+00 1.7490381942e+00 3.0294230168e+00 
107400 5.8403994086e+00 6.9839494409e-05 1.7490361717e+00 -3.0294195136e+00 1.7490361717e+00 3.0294195136e+00 
107500 5.8403994084e+00 7.0158730770e-05 1.7490361717e+00 -3.0294195136e+00 1.7490361717e+00 3.0294195136e+00 
107600 5.8403994081e+00 7.0476986563e-05 1.7490361717e+00 -3.0294195136e+00 1.7490361717e+00 3.0294195136e+00 
107700 5.8403994079e+00 7.0794281260e-05 1.7490361717e+00 -3.0294195136e+00 1.7490361717e+00 3.0294195136e+00 
107800 5.8403994075e+00 6.9874036760e-05 1.7490341479e+00 -3.0294160083e+00 1.7490341479e+00 3.0294160083e+00 
107900 5.8403994073e+00 7.0184252482e-05 1.7490341479e+00 -3.0294160083e+00 1.7490341479e+00 3.0294160083e+00 
108000 5.8403994071e+00 7.0493537658e-05 1.7490341479e+00 -3.0294160083e+00 1.7490341479e+00 3.0294160083e+00 
108100 5.8403994068e+00 7.0801910111e-05 1.7490341479e+00 -3.0294160083e+00 1.7490341479e+00 3.0294160083e+00 
108200 5.8403994064e+00 6.9872651315e-05 1.7490321238e+00 -3.0294125026e+00 1.7490321238e+00 3.0294125026e+00 
108300 5.8403994062e+00 7.0174036111e-05 1.7490321238e+00 -3.0294125026e+00 1.7490321238e+00 3.0294125026e+00 
108400 5.8403994060e+00 7.0474534036e-05 1.7490321238e+00 -3.0294125026e+00 1.7490321238e+00 3.0294125026e+00 
108500 5.8403994058e+00 7.0774161443e-05 1.7490321238e+00 -3.0294125026e+00 1.7490321238e+00 3.0294125026e+00 
108600 5.8403994054e+00 6.9836677585e-05 1.7490301006e+00 -3.0294089982e+00 1.7490301006e+00 3.0294089982e+00 
108700 5.8403994052e+00 7.0129399581e-05 1.7490301006e+00 -3.0294089982e+00 1.7490301006e+00 3.0294089982e+00 
108800 5.8403994050e+00 7.0421272903e-05 1.7490301006e+00 -3.0294089982e+00 1.7490301006e+00 3.0294089982e+00 
108900 5.8403994048e+00 7.0712312695e-05 1.7490301006e+00 -3.0294089982e+00 1.7490301006e+00 3.0294089982e+00 
109000 5.8403994045e+00 6.9767351930e-05 1.7490280791e+00 -3.0294054969e+00 1.7490280791e+00 3.0294054969e+00 
109100 5.8403994043e+00 7.0051561427e-05 1.7490280791e+00 -3.0294054969e+00 1.7490280791e+00 3.0294054969e+00 
109200 5.8403994041e+00 7.0334956051e-05 1.7490280791e+00 -3.0294054969e+00 1.7490280791e+00 3.0294054969e+00 
109300 5.8403994039e+00 7.0617550024e-05 1.7490280791e+00 -3.0294054969e+00 1.7490280791e+00 3.0294054969e+00 
109400 5.8403994037e+00 7.0899355780e-05 1.7490280791e+00 -3.0294054969e+00 1.7490280791e+00 3.0294054969e+00 
109500 5.8403994034e+00 6.9941930649e-05 1.7490260523e+00 -3.0294019864e+00 1.7490260523e+00 3.0294019864e+00 
109600 5.8403994032e+00 7.0216974896e-05 1.7490260523e+00 -3.0294019864e+00 1.7490260523e+00 3.0294019864e+00 
109700 5.8403994030e+00 7.0491241651e-05 1.7490260523e+00 -3.0294019864e+00 1.7490260523e+00 3.0294019864e+00 
109800 5.8403994028e+00 7.0764742639e-05 1.7490260523e+00 -3.0294019864e+00 1.7490260523e+00 3.0294019864e+00 
109900 5.8403994025e+00 6.9801380543e-05 1.7490240293e+00 -3.0293984825e+00 1.7490240293e+00 3.0293984825e+00 
110000 5.8403994023e+00 7.0068173134e-05 1.7490240293e+00 -3.0293984825e+00 1.7490240293e+00 3.0293984825e+00 
110100 5.8403994022e+00 7.0334209308e-05 1.7490240293e+00 -3.0293984825e+00 1.7490240293e+00 3.0293984825e+00 
110200 5.8403994020e+00 7.0599500531e-05 1.7490240293e+00 -3.0293984825e+00 1.7490240293e+00 3.0293984825e+00 
110300 5.8403994018e+00 7.0864056667e-05 1.7490240293e+00 -3.0293984825e+00 1.7490240293e+00 3.0293984825e+00 
110400 5.8403994015e+00 6.9890038105e-05 1.7490220035e+00 -3.0293949737e+00 1.7490220035e+00 3.0293949737e+00 
110500 5.8403994014e+00 7.0147934490e-05 1.7490220035e+00 -3.0293949737e+00 1.7490220035e+00 3.0293949737e+00 
110600 5.8403994012e+00 7.0405099934e-05 1.7490220035e+00 -3.0293949737e+00 1.7490220035e+00 3.0293949737e+00 
110700 5.8403994010e+00 7.0661544343e-05 1.7490220035e+00 -3.0293949737e+00 1.7490220035e+00 3.0293949737e+00 
110800 5.8403994009e+00 7.0917276107e-05 1.7490220035e+00 -3.0293949737e+00 1.7490220035e+00 3.0293949737e+00 
110900 5.8403994006e+00 6.9933518930e-05 1.7490199762e+00 -3.0293914622e+00 1.7490199762e+00 3.0293914622e+00 
111000 5.8403994004e+00 7.0182627795e-05 1.7490199762e+00 -3.0293914622e+00 1.7490199762e+00 3.0293914622e+00 
111100 5.8403994003e+00 7.0431024301e-05 1.7490199762e+00 -3.0293914622e+00 1.7490199762e+00 3.0293914622e+00 
111200 5.8403994002e+00 7.0678717272e-05 1.7490199762e+00 -3.0293914622e+00 1.7490199762e+00 3.0293914622e+00 
111300 5.8403994000e+00 7.0925714121e-05 1.7490199762e+00 -3.0293914622e+00 1.7490199762e+00 3.0293914622e+00 
111400 5.8403993997e+00 6.9933084635e-05 1.7490179486e+00 -3.0293879503e+00 1.7490179486e+00 3.0293879503e+00 
111500 5.8403993996e+00 7.0173488419e-05 1.7490179486e+00 -3.0293879503e+00 1.7490179486e+00 3.0293879503e+00 
111600 5.8403993994e+00 7.0413194051e-05 1.7490179486e+00 -3.0293879503e+00 1.7490179486e+00 3.0293879503e+00 
111700 5.8403993993e+00 7.0652209793e-05 1.7490179486e+00 -3.0293879503e+00 1.7490179486e+00 3.0293879503e+00 
111800 5.8403993992e+00 7.0890542592e-05 1.7490179486e+00 -3.0293879503e+00 1.7490179486e+00 3.0293879503e+00 
111900 5.8403993989e+00 6.9889870645e-05 1.7490159220e+00 -3.0293844402e+00 1.7490159220e+00 3.0293844402e+00 
112000 5.8403993988e+00 7.0121638278e-05 1.7490159220e+00 -3.0293844402e+00 1.7490159220e+00 3.0293844402e+00 
112100 5.8403993986e+00 7.0352720162e-05 1.7490159220e+00 -3.0293844402e+00 1.7490159220e+00 3.0293844402e+00 
112200 5.8403993985e+00 7.0583124479e-05 1.7490159220e+00 -3.0293844402e+00 1.7490159220e+00 3.0293844402e+00 
112300 5.8403993984e+00 7.0812858196e-05 1.7490159220e+00 -3.0293844402e+00 1.7490159220e+00 3.0293844402e+00 
112400 5.8403993981e+00 6.9804951061e-05 1.7490138977e+00 -3.0293809339e+00 1.7490138977e+00 3.0293809339e+00 
112500 5.8403993980e+00 7.0028150362e-05 1.7490138977e+00 -3.0293809339e+00 1.7490138977e+00 3.0293809339e+00 
112600 5.8403993979e+00 7.0250676852e-05 1.7490138977e+00 -3.0293809339e+00 1.7490138977e+00 3.0293809339e+00 
112700 5.8403993978e+00 7.0472539064e-05 1.7490138977e+00 -3.0293809339e+00 1.7490138977e+00 3.0293809339e+00 
112800 5.8403993977e+00 7.0693744388e-05 1.7490138977e+00 -3.0293809339e+00 1.7490138977e+00 3.0293809339e+00 
112900 5.8403993975e+00 7.0914299029e-05 1.7490138977e+00 -3.0293809339e+00 1.7490138977e+00 3.0293809339e+00 
113000 5.8403993973e+00 6.9895454259e-05 1.7490118704e+00 -3.0293774226e+00 1.7490118704e+00 3.0293774226e+00 
113100 5.8403993972e+00 7.0109504663e-05 1.7490118704e+00 -3.0293774226e+00 1.7490118704e+00 3.0293774226e+00 
113200 5.8403993971e+00 7.0322900138e-05 1.7490118704e+00 -3.0293774226e+00 1.7490118704e+00 3.0293774226e+00 
113300 5.8403993970e+00 7.0535648662e-05 1.7490118704e+00 -3.0293774226e+00 1.7490118704e+00 3.0293774226e+00 
113400 5.8403993969e+00 7.0747757128e-05 1.7490118704e+00 -3.0293774226e+00 1.7490118704e+00 3.0293774226e+00 
113500 5.8403993966e+00 6.9723381324e-05 1.7490098479e+00 -3.0293739195e+00 1.7490098479e+00 3.0293739195e+00 
113600 5.8403993965e+00 6.9929021460e-05 1.7490098479e+00 -3.0293739195e+00 1.7490098479e+00 3.0293739195e+00 
113700 5.8403993964e+00 7.0134019955e-05 1.7490098479e+00 -3.0293739195e+00 1.7490098479e+00 3.0293739195e+00 
113800 5.8403993963e+00 7.0338385802e-05 1.7490098479e+00 -3.0293739195e+00 1.7490098479e+00 3.0293739195e+00 
113900 5.8403993962e+00 7.0542126981e-05 1.7490098479e+00 -3.0293739195e+00 1.7490098479e+00 3.0293739195e+00 
114000 5.8403993961e+00 7.0745250408e-05 1.7490098479e+00 -3.0293739195e+00 1.7490098479e+00 3.0293739195e+00 
114100 5.8403993959e+00 6.9711950068e-05 1.7490078254e+00 -3.0293704165e+00 1.7490078254e+00 3.0293704165e+00 
114200 5.8403993958e+00 6.9908650070e-05 1.7490078254e+00 -3.0293704165e+00 1.7490078254e+00 3.0293704165e+00 
114300 5.8403993957e+00 7.0104730968e-05 1.7490078254e+00 -3.0293704165e+00 1.7490078254e+00 3.0293704165e+00 
114400 5.8403993956e+00 7.0300201893e-05 1.7490078254e+00 -3.0293704165e+00 1.7490078254e+00 3.0293704165e+00 
114500 5.8403993955e+00 7.0495070995e-05 1.7490078254e+00 -3.0293704165e+00 1.7490078254e+00 3.0293704165e+00 
114600 5.8403993954e+00 7.0689345398e-05 1.7490078254e+00 -3.0293704165e+00 1.7490078254e+00 3.0293704165e+00 
114700 5.8403993953e+00 7.0883031163e-05 1.7490078254e+00 -3.0293704165e+00 1.7490078254e+00 3.0293704165e+00 
114800 5.8403993951e+00 6.9837908798e-05 1.7490057991e+00 -3.0293669067e+00 1.7490057991e+00 3.0293669067e+00 
114900 5.8403993950e+00 7.0025216633e-05 1.7490057991e+00 -3.0293669067e+00 1.7490057991e+00 3.0293669067e+00 
115000 5.8403993949e+00 7.0211931978e-05 1.7490057991e+00 -3.0293669067e+00 1.7490057991e+00 3.0293669067e+00 
115100 5.8403993948e+00 7.0398063209e-05 1.7490057991e+00 -3.0293669067e+00 1.7490057991e+00 3.0293669067e+00 
115200 5.8403993948e+00 7.0583617763e-05 1.7490057991e+00 -3.0293669067e+00 1.7490057991e+00 3.0293669067e+00 
115300 5.8403993947e+00 7.0768602094e-05 1.7490057991e+00 -3.0293669067e+00 1.7490057991e+00 3.0293669067e+00 
115400 5.8403993944e+00 6.9716790537e-05 1.7490037760e+00 -3.0293634026e+00 1.7490037760e+00 3.0293634026e+00 
115500 5.8403993944e+00 6.9895443612e-05 1.7490037760e+00 -3.0293634026e+00 1.7490037760e+00 3.0293634026e+00 
115600 5.8403993943e+00 7.0073524260e-05 1.7490037760e+00 -3.0293634026e+00 1.7490037760e+00 3.0293634026e+00 
115700 5.8403993942e+00 7.0251041515e-05 1.7490037760e+00 -3.0293634026e+00 1.7490037760e+00 3.0293634026e+00 
115800 5.8403993942e+00 7.0428003531e-05 1.7490037760e+00 -3.0293634026e+00 1.7490037760e+00 3.0293634026e+00 
115900 5.8403993941e+00 7.0604417533e-05 1.7490037760e+00 -3.0293634026e+00 1.7490037760e+00 3.0293634026e+00 
116000 5.8403993940e+00 7.0780289786e-05 1.7490037760e+00 -3.0293634026e+00 1.7490037760e+00 3.0293634026e+00 
116100 5.8403993938e+00 6.9719184603e-05 1.7490017525e+00 -3.0293598979e+00 1.7490017525e+00 3.0293598979e+00 
116200 5.8403993937e+00 6.9888781135e-05 1.7490017525e+00 -3.0293598979e+00 1.7490017525e+00 3.0293598979e+00 
116300 5.8403993936e+00 7.0057833283e-05 1.7490017525e+00 -3.0293598979e+00 1.7490017525e+00 3.0293598979e+00 
116400 5.8403993936e+00 7.0226349998e-05 1.7490017525e+00 -3.0293598979e+00 1.7490017525e+00 3.0293598979e+00 
116500 5.8403993935e+00 7.0394339386e-05 1.7490017525e+00 -3.0293598979e+00 1.7490017525e+00 3.0293598979e+00 
116600 5.8403993935e+00 7.0561808657e-05 1.7490017525e+00 -3.0293598979e+00 1.7490017525e+00 3.0293598979e+00 
116700 5.8403993934e+00 7.0728764093e-05 1.7490017525e+00 -3.0293598979e+00 1.7490017525e+00 3.0293598979e+00 
116800 5.8403993932e+00 6.9659664548e-05 1.7489997305e+00 -3.0293563957e+00 1.7489997305e+00 3.0293563957e+00 
116900 5.8403993931e+00 6.9820404043e-05 1.7489997305e+00 -3.0293563957e+00 1.7489997305e+00 3.0293563957e+00 
117000 5.8403993930e+00 6.9980627374e-05 1.7489997305e+00 -3.0293563957e+00 1.7489997305e+00 3.0293563957e+00 
117100 5.8403993930e+00 7.0140343661e-05 1.7489997305e+00 -3.0293563957e+00 1.7489997305e+00 3.0293563957e+00 
117200 5.8403993929e+00 7.0299561208e-05 1.7489997305e+00 -3.0293563957e+00 1.7489997305e+00 3.0293563957e+00 
117300 5.8403993929e+00 7.0458287470e-05 1.7489997305e+00 -3.0293563957e+00 1.7489997305e+00 3.0293563957e+00 
117400 5.8403993928e+00 7.0616529006e-05 1.7489997305e+00 -3.0293563957e+00 1.7489997305e+00 3.0293563957e+00 
117500 5.8403993928e+00 7.0774291459e-05 1.7489997305e+00 -3.0293563957e+00 1.7489997305e+00 3.0293563957e+00 
117600 5.8403993925e+00 6.9695232029e-05 1.7489977073e+00 -3.0293528913e+00 1.7489977073e+00 3.0293528913e+00 
117700 5.8403993925e+00 6.9846842774e-05 1.7489977073e+00 -3.0293528913e+00 1.7489977073e+00 3.0293528913e+00 
117800 5.8403993924e+00 6.9997970295e-05 1.7489977073e+00 -3.0293528913e+00 1.7489977073e+00 3.0293528913e+00 
117900 5.8403993924e+00 7.0148623170e-05 1.7489977073e+00 -3.0293528913e+00 1.7489977073e+00 3.0293528913e+00 
118000 5.8403993923e+00 7.0298809200e-05 1.7489977073e+00 -3.0293528913e+00 1.7489977073e+00 3.0293528913e+00 
118100 5.8403993923e+00 7.0448535368e-05 1.7489977073e+00 -3.0293528913e+00 1.7489977073e+00 3.0293528913e+00 
118200 5.8403993922e+00 7.0597807807e-05 1.7489977073e+00 -3.0293528913e+00 1.7489977073e+00 3.0293528913e+00 
118300 5.8403993922e+00 7.0746631776e-05 1.7489977073e+00 -3.0293528913e+00 1.7489977073e+00 3.0293528913e+00 
118400 5.8403993920e+00 6.9659141669e-05 1.7489956848e+00 -3.0293493882e+00 1.7489956848e+00 3.0293493882e+00 
118500 5.8403993919e+00 6.9801876156e-05 1.7489956848e+00 -3.0293493882e+00 1.7489956848e+00 3.0293493882e+00 
118600 5.8403993919e+00 6.9944157165e-05 1.7489956848e+00 -3.0293493882e+00 1.7489956848e+00 3.0293493882e+00 
118700 5.8403993918e+00 7.0085993071e-05 1.7489956848e+00 -3.0293493882e+00 1.7489956848e+00 3.0293493882e+00 
118800 5.8403993918e+00 7.0227391524e-05 1.7489956848e+00 -3.0293493882e+00 1.7489956848e+00 3.0293493882e+00 
118900 5.8403993917e+00 7.0368359402e-05 1.7489956848e+00 -3.0293493882e+00 1.7489956848e+00 3.0293493882e+00 
119000 5.8403993917e+00 7.0508902783e-05 1.7489956848e+00 -3.0293493882e+00 1.7489956848e+00 3.0293493882e+00 
119100 5.8403993916e+00 7.0649026919e-05 1.7489956848e+00 -3.0293493882e+00 1.7489956848e+00 3.0293493882e+00 
119200 5.8403993916e+00 7.0788736216e-05 1.7489956848e+00 -3.0293493882e+00 1.7489956848e+00 3.0293493882e+00 
119300 5.8403993914e+00 6.9691422998e-05 1.7489936611e+00 -3.0293458831e+00 1.7489936611e+00 3.0293458831e+00 
119400 5.8403993914e+00 6.9825104496e-05 1.7489936611e+00 -3.0293458831e+00 1.7489936611e+00 3.0293458831e+00 
119500 5.8403993913e+00 6.9958363809e-05 1.7489936611e+00 -3.0293458831e+00 1.7489936611e+00 3.0293458831e+00 
119600 5.8403993913e+00 7.0091208633e-05 1.7489936611e+00 -3.0293458831e+00 1.7489936611e+00 3.0293458831e+00 
119700 5.8403993912e+00 7.0223645984e-05 1.7489936611e+00 -3.0293458831e+00 1.7489936611e+00 3.0293458831e+00 
119800 5.8403993912e+00 7.0355682160e-05 1.7489936611e+00 -3.0293458831e+00 1.7489936611e+00 3.0293458831e+00 
119900 5.8403993912e+00 7.0487322714e-05 1.7489936611e+00 -3.0293458831e+00 1.7489936611e+00 3.0293458831e+00 
120000 5.8403993911e+00 7.0618572430e-05 1.7489936611e+00 -3.0293458831e+00 1.7489936611e+00 3.0293458831e+00 
120100 5.8403993911e+00 7.0749435303e-05 1.7489936611e+00 -3.0293458831e+00 1.7489936611e+00 3.0293458831e+00 
120200 5.8403993909e+00 6.9643984207e-05 1.7489916385e+00 -3.0293423799e+00 1.7489916385e+00 3.0293423799e+00 
120300 5.8403993908e+00 6.9768877108e-05 1.7489916385e+00 -3.0293423799e+00 1.7489916385e+00 3.0293423799e+00 
120400 5.8403993908e+00 6.9893374953e-05 1.7489916385e+00 -3.0293423799e+00 1.7489916385e+00 3.0293423799e+00 
120500 5.8403993908e+00 6.9972849744e-05 1.7489916385e+00 -3.0293423799e+00 1.7489916385e+00 3.0293423799e+00 
120500 5.8403993908e+00 6.9972849744e-05 1.7489916385e+00 -3.0293423799e+00 1.7489916385e+00 3.0293423799e+00 
