# step Hamiltonian StressXX CellTensor1 CellTensor2 CellTensor3 CellTensor4 
0 6.2422179156e+00 8.7128570628e-02 1.7865676565e+00 -3.0944259522e+00 1.7865676565e+00 3.0944259522e+00 
100 6.2399399389e+00 9.3122613186e-02 1.7865676565e+00 -3.0944259522e+00 1.7865676565e+00 3.0944259522e+00 
200 6.2373591851e+00 9.7578754511e-02 1.7839621034e+00 -3.0899130018e+00 1.7839621034e+00 3.0899130018e+00 
300 6.2347277863e+00 1.0159032623e-01 1.7812279145e+00 -3.0851772479e+00 1.7812279145e+00 3.0851772479e+00 
400 6.2320562456e+00 1.0517863393e-01 1.7783769830e+00 -3.0802392896e+00 1.7783769830e+00 3.0802392896e+00 
500 6.2293547137e+00 1.0836457659e-01 1.7754206516e+00 -3.0751187734e+00 1.7754206516e+00 3.0751187734e+00 
600 6.2266329035e+00 1.1116860181e-01 1.7723697273e+00 -3.0698344176e+00 1.7723697273e+00 3.0698344176e+00 
700 6.2239000249e+00 1.1361066388e-01 1.7692344967e+00 -3.0644040387e+00 1.7692344967e+00 3.0644040387e+00 
800 6.2211647367e+00 1.1571018578e-01 1.7660247402e+00 -3.0588445774e+00 1.7660247402e+00 3.0588445774e+00 
900 6.2184351141e+00 1.1748602581e-01 1.7627497480e+00 -3.0531721245e+00 1.7627497480e+00 3.0531721245e+00 
1000 6.2157186299e+00 1.1895644941e-01 1.7594183353e+00 -3.0474019484e+00 1.7594183353e+00 3.0474019484e+00 
1100 6.2130221474e+00 1.2013910644e-01 1.7560388581e+00 -3.0415485223e+00 1.7560388581e+00 3.0415485223e+00 
1200 6.2103519222e+00 1.2105101398e-01 1.7526192292e+00 -3.0356255512e+00 1.7526192292e+00 3.0356255512e+00 
1300 6.2077136127e+00 1.2170854457e-01 1.7491669339e+00 -3.0296460004e+00 1.7491669339e+00 3.0296460004e+00 
1400 6.2051122970e+00 1.2212741967e-01 1.7456890463e+00 -3.0236221225e+00 1.7456890463e+00 3.0236221225e+00 
1500 6.2025524946e+00 1.2232270793e-01 1.7421922451e+00 -3.0175654851e+00 1.7421922451e+00 3.0175654851e+00 
1600 6.2000381919e+00 1.2230882796e-01 1.7386828292e+00 -3.0114869984e+00 1.7386828292e+00 3.0114869984e+00 
1700 6.1975728706e+00 1.2209955505e-01 1.7351667334e+00 -3.0053969419e+00 1.7351667334e+00 3.0053969419e+00 
1800 6.1951595373e+00 1.2170803135e-01 1.7316495438e+00 -2.9993049908e+00 1.7316495438e+00 2.9993049908e+00 
1900 6.1928007551e+00 1.2114677910e-01 1.7281365125e+00 -2.9932202420e+00 1.7281365125e+00 2.9932202420e+00 
2000 6.1904986743e+00 1.2042771626e-01 1.7246325722e+00 -2.9871512395e+00 1.7246325722e+00 2.9871512395e+00 
2100 6.1882550639e+00 1.1956217426e-01 1.7211423505e+00 -2.9811059981e+00 1.7211423505e+00 2.9811059981e+00 
2200 6.1860713416e+00 1.1856091725e-01 1.7176701833e+00 -2.9750920282e+00 1.7176701833e+00 2.9750920282e+00 
2300 6.1839486034e+00 1.1743416254e-01 1.7142201283e+00 -2.9691163575e+00 1.7142201283e+00 2.9691163575e+00 
2400 6.1818876518e+00 1.1619160189e-01 1.7107959771e+00 -2.9631855538e+00 1.7107959771e+00 2.9631855538e+00 
2500 6.1798890222e+00 1.1484242321e-01 1.7074012682e+00 -2.9573057455e+00 1.7074012682e+00 2.9573057455e+00 
2600 6.1779530080e+00 1.1339533247e-01 1.7040392979e+00 -2.9514826421e+00 1.7040392979e+00 2.9514826421e+00 
2700 6.1760796848e+00 1.1185857559e-01 1.7007131317e+00 -2.9457215532e+00 1.7007131317e+00 2.9457215532e+00 
2800 6.1742689313e+00 1.1023996006e-01 1.6974256150e+00 -2.9400274073e+00 1.6974256150e+00 2.9400274073e+00 
2900 6.1725204503e+00 1.0854687605e-01 1.6941793831e+00 -2.9344047687e+00 1.6941793831e+00 2.9344047687e+00 
3000 6.1708337870e+00 1.0678631705e-01 1.6909768709e+00 -2.9288578549e+00 1.6909768709e+00 2.9288578549e+00 
3100 6.1692083463e+00 1.0496489979e-01 1.6878203221e+00 -2.9233905519e+00 1.6878203221e+00 2.9233905519e+00 
3200 6.1676434083e+00 1.0308888341e-01 1.6847117978e+00 -2.9180064298e+00 1.6847117978e+00 2.9180064298e+00 
3300 6.1661381426e+00 1.0116418778e-01 1.6816531849e+00 -2.9127087569e+00 1.6816531849e+00 2.9127087569e+00 
3400 6.1646916216e+00 9.9196410999e-02 1.6786462041e+00 -2.9075005134e+00 1.6786462041e+00 2.9075005134e+00 
3500 6.1633028318e+00 9.7190846043e-02 1.6756924173e+00 -2.9023844046e+00 1.6756924173e+00 2.9023844046e+00 
3600 6.1619706851e+00 9.5152496487e-02 1.6727932348e+00 -2.8973628732e+00 1.6727932348e+00 2.8973628732e+00 
3700 6.1606940280e+00 9.3086091392e-02 1.6699499220e+00 -2.8924381110e+00 1.6699499220e+00 2.8924381110e+00 
3800 6.1594716506e+00 9.0996099334e-02 1.6671636063e+00 -2.8876120706e+00 1.6671636063e+00 2.8876120706e+00 
3900 6.1583022948e+00 8.8886741619e-02 1.6644352828e+00 -2.8828864757e+00 1.6644352828e+00 2.8828864757e+00 
4000 6.1571846611e+00 8.6762004692e-02 1.6617658207e+00 -2.8782628317e+00 1.6617658207e+00 2.8782628317e+00 
4100 6.1561174154e+00 8.4625651812e-02 1.6591559688e+00 -2.8737424357e+00 1.6591559688e+00 2.8737424357e+00 
4200 6.1550991952e+00 8.2481234005e-02 1.6566063611e+00 -2.8693263855e+00 1.6566063611e+00 2.8693263855e+00 
4300 6.1541286146e+00 8.0332100346e-02 1.6541175216e+00 -2.8650155891e+00 1.6541175216e+00 2.8650155891e+00 
4400 6.1532042697e+00 7.8181407623e-02 1.6516898702e+00 -2.8608107734e+00 1.6516898702e+00 2.8608107734e+00 
4500 6.1523247430e+00 7.6032129406e-02 1.6493237265e+00 -2.8567124924e+00 1.6493237265e+00 2.8567124924e+00 
4600 6.1514886076e+00 7.3887064588e-02 1.6470193155e+00 -2.8527211355e+00 1.6470193155e+00 2.8527211355e+00 
4700 6.1506944310e+00 7.1748845414e-02 1.6447767713e+00 -2.8488369351e+00 1.6447767713e+00 2.8488369351e+00 
4800 6.1499407792e+00 6.9619945059e-02 1.6425961421e+00 -2.8450599744e+00 1.6425961421e+00 2.8450599744e+00 
4900 6.1492262194e+00 6.7502684780e-02 1.6404773938e+00 -2.8413901947e+00 1.6404773938e+00 2.8413901947e+00 
5000 6.1485493236e+00 6.5399240678e-02 1.6384204146e+00 -2.8378274022e+00 1.6384204146e+00 2.8378274022e+00 
5100 6.1479086712e+00 6.3311650109e-02 1.6364250187e+00 -2.8343712752e+00 1.6364250187e+00 2.8343712752e+00 
5200 6.1473028521e+00 6.1241817771e-02 1.6344909502e+00 -2.8310213703e+00 1.6344909502e+00 2.8310213703e+00 
5300 6.1467304690e+00 5.9191521488e-02 1.6326178867e+00 -2.8277771292e+00 1.6326178867e+00 2.8277771292e+00 
5400 6.1461901401e+00 5.7162417731e-02 1.6308054432e+00 -2.8246378849e+00 1.6308054432e+00 2.8246378849e+00 
5500 6.1456805009e+00 5.5156046879e-02 1.6290531751e+00 -2.8216028674e+00 1.6290531751e+00 2.8216028674e+00 
5600 6.1452002068e+00 5.3173838262e-02 1.6273605819e+00 -2.8186712101e+00 1.6273605819e+00 2.8186712101e+00 
5700 6.1447479352e+00 5.1217114982e-02 1.6257271108e+00 -2.8158419551e+00 1.6257271108e+00 2.8158419551e+00 
5800 6.1443223868e+00 4.9287098545e-02 1.6241521590e+00 -2.8131140586e+00 1.6241521590e+00 2.8131140586e+00 
5900 6.1439222878e+00 4.7384913310e-02 1.6226350777e+00 -2.8104863967e+00 1.6226350777e+00 2.8104863967e+00 
6000 6.1435463917e+00 4.5511590761e-02 1.6211751746e+00 -2.8079577703e+00 1.6211751746e+00 2.8079577703e+00 
6100 6.1431934802e+00 4.3668073631e-02 1.6197717168e+00 -2.8055269102e+00 1.6197717168e+00 2.8055269102e+00 
6200 6.1428623654e+00 4.1855219864e-02 1.6184239339e+00 -2.8031924817e+00 1.6184239339e+00 2.8031924817e+00 
6300 6.1425518904e+00 4.0073806439e-02 1.6171310205e+00 -2.8009530899e+00 1.6171310205e+00 2.8009530899e+00 
6400 6.1422609308e+00 3.8324533052e-02 1.6158921386e+00 -2.7988072836e+00 1.6158921386e+00 2.7988072836e+00 
6500 6.1419883956e+00 3.6608025676e-02 1.6147064208e+00 -2.7967535601e+00 1.6147064208e+00 2.7967535601e+00 
6600 6.1417332282e+00 3.4924839977e-02 1.6135729720e+00 -2.7947903693e+00 1.6135729720e+00 2.7947903693e+00 
6700 6.1414944072e+00 3.3275464627e-02 1.6124908724e+00 -2.7929161178e+00 1.6124908724e+00 2.7929161178e+00 
6800 6.1412709471e+00 3.1660324478e-02 1.6114591794e+00 -2.7911291730e+00 1.6114591794e+00 2.7911291730e+00 
6900 6.1410618986e+00 3.0079783629e-02 1.6104769297e+00 -2.7894278666e+00 1.6104769297e+00 2.7894278666e+00 
7000 6.1408663493e+00 2.8534148381e-02 1.6095431418e+00 -2.7878104987e+00 1.6095431418e+00 2.7878104987e+00 
7100 6.1406834239e+00 2.7023670070e-02 1.6086568180e+00 -2.7862753408e+00 1.6086568180e+00 2.7862753408e+00 
7200 6.1405122844e+00 2.5548547795e-02 1.6078169460e+00 -2.7848206398e+00 1.6078169460e+00 2.7848206398e+00 
7300 6.1403521301e+00 2.4108931045e-02 1.6070225010e+00 -2.7834446207e+00 1.6070225010e+00 2.7834446207e+00 
7400 6.1402021977e+00 2.2704922205e-02 1.6062724476e+00 -2.7821454900e+00 1.6062724476e+00 2.7821454900e+00 
7500 6.1400617607e+00 2.1336578973e-02 1.6055657413e+00 -2.7809214389e+00 1.6055657413e+00 2.7809214389e+00 
7600 6.1399301300e+00 2.0003916669e-02 1.6049013305e+00 -2.7797706455e+00 1.6049013305e+00 2.7797706455e+00 
7700 6.1398066525e+00 1.8706910443e-02 1.6042781575e+00 -2.7786912783e+00 1.6042781575e+00 2.7786912783e+00 
7800 6.1396907114e+00 1.7445497387e-02 1.6036951608e+00 -2.7776814984e+00 1.6036951608e+00 2.7776814984e+00 
7900 6.1395817253e+00 1.6219578563e-02 1.6031512760e+00 -2.7767394622e+00 1.6031512760e+00 2.7767394622e+00 
8000 6.1394791474e+00 1.5029020919e-02 1.6026454371e+00 -2.7758633235e+00 1.6026454371e+00 2.7758633235e+00 
8100 6.1393824651e+00 1.3873659136e-02 1.6021765783e+00 -2.7750512363e+00 1.6021765783e+00 2.7750512363e+00 
8200 6.1392911991e+00 1.2753297380e-02 1.6017436349e+00 -2.7743013564e+00 1.6017436349e+00 2.7743013564e+00 
8300 6.1392049022e+00 1.1667710968e-02 1.6013455447e+00 -2.7736118439e+00 1.6013455447e+00 2.7736118439e+00 
8400 6.1391231587e+00 1.0616647963e-02 1.6009812489e+00 -2.7729808651e+00 1.6009812489e+00 2.7729808651e+00 
8500 6.1390455831e+00 9.5998306849e-03 1.6006496935e+00 -2.7724065942e+00 1.6006496935e+00 2.7724065942e+00 
8600 6.1389718195e+00 8.6169571526e-03 1.6003498299e+00 -2.7718872153e+00 1.6003498299e+00 2.7718872153e+00 
8700 6.1389015397e+00 7.6677024551e-03 1.6000806164e+00 -2.7714209238e+00 1.6000806164e+00 2.7714209238e+00 
8800 6.1388344428e+00 6.7517200562e-03 1.5998410188e+00 -2.7710059285e+00 1.5998410188e+00 2.7710059285e+00 
8900 6.1387702537e+00 5.8686430366e-03 1.5996300112e+00 -2.7706404527e+00 1.5996300112e+00 2.7706404527e+00 
9000 6.1387087217e+00 5.0180852764e-03 1.5994465772e+00 -2.7703227356e+00 1.5994465772e+00 2.7703227356e+00 
9100 6.1386496195e+00 4.1996425830e-03 1.5992897103e+00 -2.7700510343e+00 1.5992897103e+00 2.7700510343e+00 
9200 6.1385927421e+00 3.4128937648e-03 1.5991584150e+00 -2.7698236241e+00 1.5991584150e+00 2.7698236241e+00 
9300 6.1385379051e+00 2.6574016576e-03 1.5990517071e+00 -2.7696388007e+00 1.5990517071e+00 2.7696388007e+00 
9400 6.1384849438e+00 1.9327141047e-03 1.5989686148e+00 -2.7694948805e+00 1.5989686148e+00 2.7694948805e+00 
9500 6.1384337118e+00 1.2383648943e-03 1.5989081789e+00 -2.7693902025e+00 1.5989081789e+00 2.7693902025e+00 
9600 6.1383840800e+00 5.7387465856e-04 1.5988694537e+00 -2.7693231285e+00 1.5988694537e+00 2.7693231285e+00 
9700 6.1383359347e+00 -6.1248264216e-05 1.5988515075e+00 -2.7692920447e+00 1.5988515075e+00 2.7692920447e+00 
9800 6.1382891805e+00 -6.6942352653e-04 1.5988515075e+00 -2.7692920447e+00 1.5988515075e+00 2.7692920447e+00 
9900 6.1382437285e+00 -1.2472740657e-03 1.5988724420e+00 -2.7693283044e+00 1.5988724420e+00 2.7693283044e+00 
10000 6.1381995060e+00 -1.7973001628e-03 1.5989114470e+00 -2.7693958630e+00 1.5989114470e+00 2.7693958630e+00 
10100 6.1381564513e+00 -2.3200345471e-03 1.5989676512e+00 -2.7694932115e+00 1.5989676512e+00 2.7694932115e+00 
10200 6.1381145129e+00 -2.8160183783e-03 1.5990401996e+00 -2.7696188691e+00 1.5990401996e+00 2.7696188691e+00 
10300 6.1380736483e+00 -3.2858005445e-03 1.5991282538e+00 -2.7697713835e+00 1.5991282538e+00 2.7697713835e+00 
10400 6.1380338231e+00 -3.7299369793e-03 1.5992309922e+00 -2.7699493315e+00 1.5992309922e+00 2.7699493315e+00 
10500 6.1379950102e+00 -4.1489899959e-03 1.5993476102e+00 -2.7701513198e+00 1.5993476102e+00 2.7701513198e+00 
10600 6.1379571885e+00 -4.5435276361e-03 1.5994773208e+00 -2.7703759851e+00 1.5994773208e+00 2.7703759851e+00 
10700 6.1379203425e+00 -4.9141230336e-03 1.5996193545e+00 -2.7706219948e+00 1.5996193545e+00 2.7706219948e+00 
10800 6.1378844610e+00 -5.2613537897e-03 1.5997729598e+00 -2.7708880470e+00 1.5997729598e+00 2.7708880470e+00 
10900 6.1378495367e+00 -5.5858013604e-03 1.5999374033e+00 -2.7711728715e+00 1.5999374033e+00 2.7711728715e+00 
11000 6.1378155656e+00 -5.8880504538e-03 1.6001119696e+00 -2.7714752291e+00 1.6001119696e+00 2.7714752291e+00 
11100 6.1377825457e+00 -6.1686884371e-03 1.6002959618e+00 -2.7717939130e+00 1.6002959618e+00 2.7717939130e+00 
11200 6.1377504772e+00 -6.4283047527e-03 1.6004887016e+00 -2.7721277480e+00 1.6004887016e+00 2.7721277480e+00 
11300 6.1377193614e+00 -6.6674903420e-03 1.6006895289e+00 -2.7724755913e+00 1.6006895289e+00 2.7724755913e+00 
11400 6.1376892004e+00 -6.8868370781e-03 1.6008978028e+00 -2.7728363321e+00 1.6008978028e+00 2.7728363321e+00 
11500 6.1376599965e+00 -7.0869372054e-03 1.6011129006e+00 -2.7732088924e+00 1.6011129006e+00 2.7732088924e+00 
11600 6.1376317520e+00 -7.2683827870e-03 1.6013342185e+00 -2.7735922263e+00 1.6013342185e+00 2.7735922263e+00 
11700 6.1376044687e+00 -7.4317651599e-03 1.6015611716e+00 -2.7739853206e+00 1.6015611716e+00 2.7739853206e+00 
11800 6.1375781475e+00 -7.5776743975e-03 1.6017931935e+00 -2.7743871943e+00 1.6017931935e+00 2.7743871943e+00 
11900 6.1375527884e+00 -7.7066987801e-03 1.6020297365e+00 -2.7747968989e+00 1.6020297365e+00 2.7747968989e+00 
12000 6.1375283901e+00 -7.8194242730e-03 1.6022702717e+00 -2.7752135181e+00 1.6022702717e+00 2.7752135181e+00 
12100 6.1375049497e+00 -7.9164340139e-03 1.6025142887e+00 -2.7756361679e+00 1.6025142887e+00 2.7756361679e+00 
12200 6.1374824627e+00 -7.9983078083e-03 1.6027612955e+00 -2.7760639961e+00 1.6027612955e+00 2.7760639961e+00 
12300 6.1374609230e+00 -8.0656216346e-03 1.6030108184e+00 -2.7764961826e+00 1.6030108184e+00 2.7764961826e+00 
12400 6.1374403223e+00 -8.1189471593e-03 1.6032624023e+00 -2.7769319386e+00 1.6032624023e+00 2.7769319386e+00 
12500 6.1374206509e+00 -8.1588512619e-03 1.6035156098e+00 -2.7773705068e+00 1.6035156098e+00 2.7773705068e+00 
12600 6.1374018968e+00 -8.1858955713e-03 1.6037700216e+00 -2.7778111611e+00 1.6037700216e+00 2.7778111611e+00 
12700 6.1373840463e+00 -8.2006360140e-03 1.6040252363e+00 -2.7782532058e+00 1.6040252363e+00 2.7782532058e+00 
12800 6.1373670837e+00 -8.2036223743e-03 1.6042808698e+00 -2.7786959762e+00 1.6042808698e+00 2.7786959762e+00 
12900 6.1373509916e+00 -8.1953978673e-03 1.6045365557e+00 -2.7791388371e+00 1.6045365557e+00 2.7791388371e+00 
13000 6.1373357506e+00 -8.1764987260e-03 1.6047919446e+00 -2.7795811836e+00 1.6047919446e+00 2.7795811836e+00 
13100 6.1373213400e+00 -8.1474538018e-03 1.6050467039e+00 -2.7800224398e+00 1.6050467039e+00 2.7800224398e+00 
13200 6.1373077373e+00 -8.1087841806e-03 1.6053005180e+00 -2.7804620586e+00 1.6053005180e+00 2.7804620586e+00 
13300 6.1372949184e+00 -8.0610028142e-03 1.6055530874e+00 -2.7808995217e+00 1.6055530874e+00 2.7808995217e+00 
13400 6.1372828582e+00 -8.0046141669e-03 1.6058041291e+00 -2.7813343385e+00 1.6058041291e+00 2.7813343385e+00 
13500 6.1372715301e+00 -7.9401138797e-03 1.6060533756e+00 -2.7817660461e+00 1.6060533756e+00 2.7817660461e+00 
13600 6.1372609067e+00 -7.8679884510e-03 1.6063005752e+00 -2.7821942085e+00 1.6063005752e+00 2.7821942085e+00 
13700 6.1372509595e+00 -7.7887149345e-03 1.6065454917e+00 -2.7826184163e+00 1.6065454917e+00 2.7826184163e+00 
13800 6.1372416592e+00 -7.7027606555e-03 1.6067879034e+00 -2.7830382858e+00 1.6067879034e+00 2.7830382858e+00 
13900 6.1372329761e+00 -7.6105829452e-03 1.6070276038e+00 -2.7834534589e+00 1.6070276038e+00 2.7834534589e+00 
14000 6.1372248798e+00 -7.5126288933e-03 1.6072644003e+00 -2.7838636025e+00 1.6072644003e+00 2.7838636025e+00 
14100 6.1372173398e+00 -7.4093351199e-03 1.6074981145e+00 -2.7842684074e+00 1.6074981145e+00 2.7842684074e+00 
14200 6.1372103253e+00 -7.3011275656e-03 1.6077285817e+00 -2.7846675883e+00 1.6077285817e+00 2.7846675883e+00 
14300 6.1372038054e+00 -7.1884213018e-03 1.6079556505e+00 -2.7850608830e+00 1.6079556505e+00 2.7850608830e+00 
14400 6.1371977495e+00 -7.0716203587e-03 1.6081791824e+00 -2.7854480516e+00 1.6081791824e+00 2.7854480516e+00 
14500 6.1371921270e+00 -6.9511175739e-03 1.6083990516e+00 -2.7858288762e+00 1.6083990516e+00 2.7858288762e+00 
14600 6.1371869080e+00 -6.8272944596e-03 1.6086151445e+00 -2.7862031601e+00 1.6086151445e+00 2.7862031601e+00 
14700 6.1371820628e+00 -6.7005210882e-03 1.6088273595e+00 -2.7865707273e+00 1.6088273595e+00 2.7865707273e+00 
14800 6.1371775623e+00 -6.5711559982e-03 1.6090356064e+00 -2.7869314214e+00 1.6090356064e+00 2.7869314214e+00 
14900 6.1371733784e+00 -6.4395461176e-03 1.6092398062e+00 -2.7872851059e+00 1.6092398062e+00 2.7872851059e+00 
15000 6.1371694834e+00 -6.3060267061e-03 1.6094398907e+00 -2.7876316624e+00 1.6094398907e+00 2.7876316624e+00 
15100 6.1371658508e+00 -6.1709213160e-03 1.6096358022e+00 -2.7879709910e+00 1.6096358022e+00 2.7879709910e+00 
15200 6.1371624548e+00 -6.0345417702e-03 1.6098274929e+00 -2.7883030091e+00 1.6098274929e+00 2.7883030091e+00 
15300 6.1371592709e+00 -5.8971881580e-03 1.6100149247e+00 -2.7886276505e+00 1.6100149247e+00 2.7886276505e+00 
15400 6.1371562754e+00 -5.7591488479e-03 1.6101980690e+00 -2.7889448657e+00 1.6101980690e+00 2.7889448657e+00 
15500 6.1371534460e+00 -5.6207005166e-03 1.6103769058e+00 -2.7892546202e+00 1.6103769058e+00 2.7892546202e+00 
15600 6.1371507614e+00 -5.4821081947e-03 1.6105514240e+00 -2.7895568947e+00 1.6105514240e+00 2.7895568947e+00 
15700 6.1371482015e+00 -5.3436253276e-03 1.6107216206e+00 -2.7898516837e+00 1.6107216206e+00 2.7898516837e+00 
15800 6.1371457475e+00 -5.2054938507e-03 1.6108875002e+00 -2.7901389955e+00 1.6108875002e+00 2.7901389955e+00 
15900 6.1371433819e+00 -5.0679442806e-03 1.6110490751e+00 -2.7904188515e+00 1.6110490751e+00 2.7904188515e+00 
16000 6.1371410884e+00 -4.9311958181e-03 1.6112063647e+00 -2.7906912852e+00 1.6112063647e+00 2.7906912852e+00 
16100 6.1371388519e+00 -4.7954564666e-03 1.6113593952e+00 -2.7909563418e+00 1.6113593952e+00 2.7909563418e+00 
16200 6.1371366586e+00 -4.6609231608e-03 1.6115081991e+00 -2.7912140776e+00 1.6115081991e+00 2.7912140776e+00 
16300 6.1371344959e+00 -4.5277819094e-03 1.6116528150e+00 -2.7914645597e+00 1.6116528150e+00 2.7914645597e+00 
16400 6.1371323525e+00 -4.3962079477e-03 1.6117932871e+00 -2.7917078646e+00 1.6117932871e+00 2.7917078646e+00 
16500 6.1371302182e+00 -4.2663659015e-03 1.6119296653e+00 -2.7919440786e+00 1.6119296653e+00 2.7919440786e+00 
16600 6.1371280839e+00 -4.1384099612e-03 1.6120620044e+00 -2.7921732965e+00 1.6120620044e+00 2.7921732965e+00 
16700 6.1371259419e+00 -4.0124840644e-03 1.6121903637e+00 -2.7923956215e+00 1.6121903637e+00 2.7923956215e+00 
16800 6.1371237852e+00 -3.8887220884e-03 1.6123148073e+00 -2.7926111641e+00 1.6123148073e+00 2.7926111641e+00 
16900 6.1371216082e+00 -3.7672480500e-03 1.6124354032e+00 -2.7928200423e+00 1.6124354032e+00 2.7928200423e+00 
17000 6.1371194061e+00 -3.6481763132e-03 1.6125522232e+00 -2.7930223805e+00 1.6125522232e+00 2.7930223805e+00 
17100 6.1371171751e+00 -3.5316118035e-03 1.6126653426e+00 -2.7932183090e+00 1.6126653426e+00 2.7932183090e+00 
17200 6.1371149121e+00 -3.4176502289e-03 1.6127748400e+00 -2.7934079640e+00 1.6127748400e+00 2.7934079640e+00 
17300 6.1371126153e+00 -3.3063783058e-03 1.6128807967e+00 -2.7935914865e+00 1.6128807967e+00 2.7935914865e+00 
17400 6.1371102832e+00 -3.1978739912e-03 1.6129832970e+00 -2.7937690221e+00 1.6129832970e+00 2.7937690221e+00 
17500 6.1371079153e+00 -3.0922067182e-03 1.6130824272e+00 -2.7939407206e+00 1.6130824272e+00 2.7939407206e+00 
17600 6.1371055117e+00 -2.9894376363e-03 1.6131782759e+00 -2.7941067355e+00 1.6131782759e+00 2.7941067355e+00 
17700 6.1371030731e+00 -2.8896198548e-03 1.6132709335e+00 -2.7942672232e+00 1.6132709335e+00 2.7942672232e+00 
17800 6.1371006009e+00 -2.7927986895e-03 1.6133604921e+00 -2.7944223433e+00 1.6133604921e+00 2.7944223433e+00 
17900 6.1370980968e+00 -2.6990119114e-03 1.6134470451e+00 -2.7945722575e+00 1.6134470451e+00 2.7945722575e+00 
18000 6.1370955630e+00 -2.6082899976e-03 1.6135306870e+00 -2.7947171295e+00 1.6135306870e+00 2.7947171295e+00 
18100 6.1370930023e+00 -2.5206563841e-03 1.6136115132e+00 -2.7948571246e+00 1.6136115132e+00 2.7948571246e+00 
18200 6.1370904176e+00 -2.4361277184e-03 1.6136896199e+00 -2.7949924094e+00 1.6136896199e+00 2.7949924094e+00 
18300 6.1370878122e+00 -2.3547141147e-03 1.6137651037e+00 -2.7951231510e+00 1.6137651037e+00 2.7951231510e+00 
18400 6.1370851897e+00 -2.2764194074e-03 1.6138380614e+00 -2.7952495175e+00 1.6138380614e+00 2.7952495175e+00 
18500 6.1370825536e+00 -2.2012414056e-03 1.6139085900e+00 -2.7953716767e+00 1.6139085900e+00 2.7953716767e+00 
18600 6.1370799080e+00 -2.1291721468e-03 1.6139767865e+00 -2.7954897964e+00 1.6139767865e+00 2.7954897964e+00 
18700 6.1370772569e+00 -2.0601981493e-03 1.6140427473e+00 -2.7956040440e+00 1.6140427473e+00 2.7956040440e+00 
18800 6.1370746041e+00 -1.9943006641e-03 1.6141065688e+00 -2.7957145860e+00 1.6141065688e+00 2.7957145860e+00 
18900 6.1370719540e+00 -1.9314559248e-03 1.6141683464e+00 -2.7958215880e+00 1.6141683464e+00 2.7958215880e+00 
19000 6.1370693104e+00 -1.8716353951e-03 1.6142281750e+00 -2.7959252141e+00 1.6142281750e+00 2.7959252141e+00 
19100 6.1370666776e+00 -1.8148060156e-03 1.6142861484e+00 -2.7960256271e+00 1.6142861484e+00 2.7960256271e+00 
19200 6.1370640593e+00 -1.7609304465e-03 1.6143423596e+00 -2.7961229876e+00 1.6143423596e+00 2.7961229876e+00 
19300 6.1370614597e+00 -1.7099673087e-03 1.6143969000e+00 -2.7962174545e+00 1.6143969000e+00 2.7962174545e+00 
19400 6.1370588822e+00 -1.6618714215e-03 1.6144498603e+00 -2.7963091843e+00 1.6144498603e+00 2.7963091843e+00 
19500 6.1370563307e+00 -1.6165940372e-03 1.6145013292e+00 -2.7963983311e+00 1.6145013292e+00 2.7963983311e+00 
19600 6.1370538085e+00 -1.5740830723e-03 1.6145513943e+00 -2.7964850463e+00 1.6145513943e+00 2.7964850463e+00 
19700 6.1370513190e+00 -1.5342833351e-03 1.6146001413e+00 -2.7965694786e+00 1.6146001413e+00 2.7965694786e+00 
19800 6.1370488651e+00 -1.4971367494e-03 1.6146476543e+00 -2.7966517736e+00 1.6146476543e+00 2.7966517736e+00 
19900 6.1370464498e+00 -1.4625825741e-03 1.6146940156e+00 -2.7967320738e+00 1.6146940156e+00 2.7967320738e+00 
20000 6.1370440756e+00 -1.4305576191e-03 1.6147393056e+00 -2.7968105183e+00 1.6147393056e+00 2.7968105183e+00 
20100 6.1370417451e+00 -1.4009964562e-03 1.6147836027e+00 -2.7968872431e+00 1.6147836027e+00 2.7968872431e+00 
20200 6.1370394604e+00 -1.3738316261e-03 1.6148269832e+00 -2.7969623803e+00 1.6148269832e+00 2.7969623803e+00 
20300 6.1370372235e+00 -1.3489938400e-03 1.6148695214e+00 -2.7970360587e+00 1.6148695214e+00 2.7970360587e+00 
20400 6.1370350361e+00 -1.3264121778e-03 1.6149112895e+00 -2.7971084031e+00 1.6149112895e+00 2.7971084031e+00 
20500 6.1370328996e+00 -1.3060142799e-03 1.6149523573e+00 -2.7971795347e+00 1.6149523573e+00 2.7971795347e+00 
20600 6.1370308154e+00 -1.2877265350e-03 1.6149927926e+00 -2.7972495706e+00 1.6149927926e+00 2.7972495706e+00 
20700 6.1370287844e+00 -1.2714742626e-03 1.6150326606e+00 -2.7973186240e+00 1.6150326606e+00 2.7973186240e+00 
20800 6.1370268073e+00 -1.2571818899e-03 1.6150720245e+00 -2.7973868043e+00 1.6150720245e+00 2.7973868043e+00 
20900 6.1370248849e+00 -1.2447731244e-03 1.6151109449e+00 -2.7974542165e+00 1.6151109449e+00 2.7974542165e+00 
21000 6.1370230173e+00 -1.2341711203e-03 1.6151494803e+00 -2.7975209617e+00 1.6151494803e+00 2.7975209617e+00 
21100 6.1370212048e+00 -1.2252986401e-03 1.6151876866e+00 -2.7975871369e+00 1.6151876866e+00 2.7975871369e+00 
21200 6.1370194473e+00 -1.2180782100e-03 1.6152256172e+00 -2.7976528348e+00 1.6152256172e+00 2.7976528348e+00 
21300 6.1370177445e+00 -1.2124322713e-03 1.6152633235e+00 -2.7977181440e+00 1.6152633235e+00 2.7977181440e+00 
21400 6.1370160961e+00 -1.2082833245e-03 1.6153008542e+00 -2.7977831489e+00 1.6153008542e+00 2.7977831489e+00 
21500 6.1370145013e+00 -1.2055540693e-03 1.6153382555e+00 -2.7978479299e+00 1.6153382555e+00 2.7978479299e+00 
21600 6.1370129594e+00 -1.2041675385e-03 1.6153755715e+00 -2.7979125631e+00 1.6153755715e+00 2.7979125631e+00 
21700 6.1370114696e+00 -1.2040472261e-03 1.6154128437e+00 -2.7979771204e+00 1.6154128437e+00 2.7979771204e+00 
21800 6.1370100309e+00 -1.2051172103e-03 1.6154501113e+00 -2.7980416699e+00 1.6154501113e+00 2.7980416699e+00 
21900 6.1370086419e+00 -1.2073022709e-03 1.6154874112e+00 -2.7981062751e+00 1.6154874112e+00 2.7981062751e+00 
22000 6.1370073016e+00 -1.2105280009e-03 1.6155247778e+00 -2.7981709961e+00 1.6155247778e+00 2.7981709961e+00 
22100 6.1370060085e+00 -1.2147209127e-03 1.6155622434e+00 -2.7982358884e+00 1.6155622434e+00 2.7982358884e+00 
22200 6.1370047611e+00 -1.2198085389e-03 1.6155998380e+00 -2.7983010040e+00 1.6155998380e+00 2.7983010040e+00 
22300 6.1370035580e+00 -1.2257195275e-03 1.6156375890e+00 -2.7983663908e+00 1.6156375890e+00 2.7983663908e+00 
22400 6.1370023976e+00 -1.2323837318e-03 1.6156755222e+00 -2.7984320930e+00 1.6156755222e+00 2.7984320930e+00 
22500 6.1370012783e+00 -1.2397322949e-03 1.6157136607e+00 -2.7984981508e+00 1.6157136607e+00 2.7984981508e+00 
22600 6.1370001984e+00 -1.2476977290e-03 1.6157520257e+00 -2.7985646009e+00 1.6157520257e+00 2.7985646009e+00 
22700 6.1369991561e+00 -1.2562139889e-03 1.6157906363e+00 -2.7986314764e+00 1.6157906363e+00 2.7986314764e+00 
22800 6.1369981498e+00 -1.2652165409e-03 1.6158295095e+00 -2.7986988068e+00 1.6158295095e+00 2.7986988068e+00 
22900 6.1369971778e+00 -1.2746424267e-03 1.6158686603e+00 -2.7987666180e+00 1.6158686603e+00 2.7987666180e+00 
23000 6.1369962384e+00 -1.2844303212e-03 1.6159081019e+00 -2.7988349328e+00 1.6159081019e+00 2.7988349328e+00 
23100 6.1369953297e+00 -1.2945205866e-03 1.6159478453e+00 -2.7989037705e+00 1.6159478453e+00 2.7989037705e+00 
23200 6.1369944502e+00 -1.3048553208e-03 1.6159879000e+00 -2.7989731473e+00 1.6159879000e+00 2.7989731473e+00 
23300 6.1369935981e+00 -1.3153784012e-03 1.6160282735e+00 -2.7990430762e+00 1.6160282735e+00 2.7990430762e+00 
23400 6.1369927719e+00 -1.3260355240e-03 1.6160689715e+00 -2.7991135673e+00 1.6160689715e+00 2.7991135673e+00 
23500 6.1369919699e+00 -1.3367742383e-03 1.6161099983e+00 -2.7991846277e+00 1.6161099983e+00 2.7991846277e+00 
23600 6.1369911906e+00 -1.3475439766e-03 1.6161513562e+00 -2.7992562617e+00 1.6161513562e+00 2.7992562617e+00 
23700 6.1369904325e+00 -1.3582960799e-03 1.6161930463e+00 -2.7993284711e+00 1.6161930463e+00 2.7993284711e+00 
23800 6.1369896941e+00 -1.3689838193e-03 1.6162350680e+00 -2.7994012547e+00 1.6162350680e+00 2.7994012547e+00 
23900 6.1369889740e+00 -1.3795624129e-03 1.6162774192e+00 -2.7994746091e+00 1.6162774192e+00 2.7994746091e+00 
24000 6.1369882709e+00 -1.3899890388e-03 1.6163200965e+00 -2.7995485285e+00 1.6163200965e+00 2.7995485285e+00 
24100 6.1369875836e+00 -1.4002228442e-03 1.6163630953e+00 -2.7996230045e+00 1.6163630953e+00 2.7996230045e+00 
24200 6.1369869108e+00 -1.4102249508e-03 1.6164064095e+00 -2.7996980269e+00 1.6164064095e+00 2.7996980269e+00 
24300 6.1369862513e+00 -1.4199584560e-03 1.6164500319e+00 -2.7997735831e+00 1.6164500319e+00 2.7997735831e+00 
24400 6.1369856042e+00 -1.4293884310e-03 1.6164939542e+00 -2.7998496588e+00 1.6164939542e+00 2.7998496588e+00 
24500 6.1369849683e+00 -1.4384819151e-03 1.6165381670e+00 -2.7999262377e+00 1.6165381670e+00 2.7999262377e+00 
24600 6.1369843429e+00 -1.4472079071e-03 1.6165826599e+00 -2.8000033016e+00 1.6165826599e+00 2.8000033016e+00 
24700 6.1369837270e+00 -1.4555373527e-03 1.6166274214e+00 -2.8000808309e+00 1.6166274214e+00 2.8000808309e+00 
24800 6.1369831198e+00 -1.4634431301e-03 1.6166724394e+00 -2.8001588042e+00 1.6166724394e+00 2.8001588042e+00 
24900 6.1369825206e+00 -1.4709000312e-03 1.6167177005e+00 -2.8002371988e+00 1.6167177005e+00 2.8002371988e+00 
25000 6.1369819287e+00 -1.4778847409e-03 1.6167631911e+00 -2.8003159907e+00 1.6167631911e+00 2.8003159907e+00 
25100 6.1369813436e+00 -1.4843758136e-03 1.6168088963e+00 -2.8003951546e+00 1.6168088963e+00 2.8003951546e+00 
25200 6.1369807648e+00 -1.4903536471e-03 1.6168548010e+00 -2.8004746639e+00 1.6168548010e+00 2.8004746639e+00 
25300 6.1369801917e+00 -1.4958004539e-03 1.6169008893e+00 -2.8005544911e+00 1.6169008893e+00 2.8005544911e+00 
25400 6.1369796239e+00 -1.5007002301e-03 1.6169471447e+00 -2.8006346078e+00 1.6169471447e+00 2.8006346078e+00 
25500 6.1369790611e+00 -1.5050387231e-03 1.6169935503e+00 -2.8007149846e+00 1.6169935503e+00 2.8007149846e+00 
25600 6.1369785030e+00 -1.5088033960e-03 1.6170400887e+00 -2.8007955915e+00 1.6170400887e+00 2.8007955915e+00 
25700 6.1369779493e+00 -1.5119833909e-03 1.6170867422e+00 -2.8008763977e+00 1.6170867422e+00 2.8008763977e+00 
25800 6.1369773999e+00 -1.5145694902e-03 1.6171334926e+00 -2.8009573718e+00 1.6171334926e+00 2.8009573718e+00 
25900 6.1369768545e+00 -1.5165540763e-03 1.6171803217e+00 -2.8010384821e+00 1.6171803217e+00 2.8010384821e+00 
26000 6.1369763131e+00 -1.5179310899e-03 1.6172272107e+00 -2.8011196964e+00 1.6172272107e+00 2.8011196964e+00 
26100 6.1369757755e+00 -1.5186959868e-03 1.6172741410e+00 -2.8012009820e+00 1.6172741410e+00 2.8012009820e+00 
26200 6.1369752418e+00 -1.5188456934e-03 1.6173210936e+00 -2.8012823062e+00 1.6173210936e+00 2.8012823062e+00 
26300 6.1369747119e+00 -1.5183785610e-03 1.6173680494e+00 -2.8013636361e+00 1.6173680494e+00 2.8013636361e+00 
26400 6.1369741859e+00 -1.5172943196e-03 1.6174149894e+00 -2.8014449386e+00 1.6174149894e+00 2.8014449386e+00 
26500 6.1369736637e+00 -1.5155940301e-03 1.6174618946e+00 -2.8015261807e+00 1.6174618946e+00 2.8015261807e+00 
26600 6.1369731455e+00 -1.5132800363e-03 1.6175087458e+00 -2.8016073294e+00 1.6175087458e+00 2.8016073294e+00 
26700 6.1369726313e+00 -1.5103559156e-03 1.6175555241e+00 -2.8016883518e+00 1.6175555241e+00 2.8016883518e+00 
26800 6.1369721213e+00 -1.5068264301e-03 1.6176022107e+00 -2.8017692154e+00 1.6176022107e+00 2.8017692154e+00 
26900 6.1369716155e+00 -1.5026974759e-03 1.6176487869e+00 -2.8018498877e+00 1.6176487869e+00 2.8018498877e+00 
27000 6.1369711142e+00 -1.4979760338e-03 1.6176952341e+00 -2.8019303365e+00 1.6176952341e+00 2.8019303365e+00 
27100 6.1369706173e+00 -1.4926701177e-03 1.6177415340e+00 -2.8020105304e+00 1.6177415340e+00 2.8020105304e+00 
27200 6.1369701252e+00 -1.4867887249e-03 1.6177876686e+00 -2.8020904378e+00 1.6177876686e+00 2.8020904378e+00 
27300 6.1369696379e+00 -1.4803417848e-03 1.6178336201e+00 -2.8021700282e+00 1.6178336201e+00 2.8021700282e+00 
27400 6.1369691556e+00 -1.4733401083e-03 1.6178793710e+00 -2.8022492712e+00 1.6178793710e+00 2.8022492712e+00 
27500 6.1369686784e+00 -1.4657953378e-03 1.6179249043e+00 -2.8023281371e+00 1.6179249043e+00 2.8023281371e+00 
27600 6.1369682066e+00 -1.4577198960e-03 1.6179702032e+00 -2.8024065970e+00 1.6179702032e+00 2.8024065970e+00 
27700 6.1369677402e+00 -1.4491269367e-03 1.6180152512e+00 -2.8024846224e+00 1.6180152512e+00 2.8024846224e+00 
27800 6.1369672794e+00 -1.4400302948e-03 1.6180600324e+00 -2.8025621858e+00 1.6180600324e+00 2.8025621858e+00 
27900 6.1369668244e+00 -1.4304444372e-03 1.6181045312e+00 -2.8026392601e+00 1.6181045312e+00 2.8026392601e+00 
28000 6.1369663753e+00 -1.4203844142e-03 1.6181487327e+00 -2.8027158192e+00 1.6181487327e+00 2.8027158192e+00 
28100 6.1369659323e+00 -1.4098658115e-03 1.6181926221e+00 -2.8027918378e+00 1.6181926221e+00 2.8027918378e+00 
28200 6.1369654953e+00 -1.3989047027e-03 1.6182361852e+00 -2.8028672915e+00 1.6182361852e+00 2.8028672915e+00 
28300 6.1369650647e+00 -1.3875176032e-03 1.6182794086e+00 -2.8029421565e+00 1.6182794086e+00 2.8029421565e+00 
28400 6.1369646404e+00 -1.3757214235e-03 1.6183222789e+00 -2.8030164101e+00 1.6183222789e+00 2.8030164101e+00 
28500 6.1369642225e+00 -1.3635334250e-03 1.6183647836e+00 -2.8030900304e+00 1.6183647836e+00 2.8030900304e+00 
28600 6.1369638112e+00 -1.3509711757e-03 1.6184069107e+00 -2.8031629967e+00 1.6184069107e+00 2.8031629967e+00 
28700 6.1369634065e+00 -1.3380525069e-03 1.6184486486e+00 -2.8032352888e+00 1.6184486486e+00 2.8032352888e+00 
28800 6.1369630084e+00 -1.3247954711e-03 1.6184899863e+00 -2.8033068877e+00 1.6184899863e+00 2.8033068877e+00 
28900 6.1369626171e+00 -1.3112183013e-03 1.6185309133e+00 -2.8033777755e+00 1.6185309133e+00 2.8033777755e+00 
29000 6.1369622324e+00 -1.2973393704e-03 1.6185714199e+00 -2.8034479350e+00 1.6185714199e+00 2.8034479350e+00 
29100 6.1369618546e+00 -1.2831771526e-03 1.6186114968e+00 -2.8035173501e+00 1.6186114968e+00 2.8035173501e+00 
29200 6.1369614835e+00 -1.2687501858e-03 1.6186511351e+00 -2.8035860058e+00 1.6186511351e+00 2.8035860058e+00 
29300 6.1369611191e+00 -1.2540770345e-03 1.6186903269e+00 -2.8036538879e+00 1.6186903269e+00 2.8036538879e+00 
29400 6.1369607615e+00 -1.2391762549e-03 1.6187290644e+00 -2.8037209833e+00 1.6187290644e+00 2.8037209833e+00 
29500 6.1369604106e+00 -1.2240663605e-03 1.6187673408e+00 -2.8037872799e+00 1.6187673408e+00 2.8037872799e+00 
29600 6.1369600664e+00 -1.2087657893e-03 1.6188051495e+00 -2.8038527666e+00 1.6188051495e+00 2.8038527666e+00 
29700 6.1369597289e+00 -1.1932928717e-03 1.6188424848e+00 -2.8039174331e+00 1.6188424848e+00 2.8039174331e+00 
29800 6.1369593979e+00 -1.1776658008e-03 1.6188793413e+00 -2.8039812705e+00 1.6188793413e+00 2.8039812705e+00 
29900 6.1369590735e+00 -1.1619026025e-03 1.6189157143e+00 -2.8040442704e+00 1.6189157143e+00 2.8040442704e+00 
30000 6.1369587555e+00 -1.1460211083e-03 1.6189515997e+00 -2.8041064256e+00 1.6189515997e+00 2.8041064256e+00 
30100 6.1369584439e+00 -1.1300389285e-03 1.6189869937e+00 -2.8041677299e+00 1.6189869937e+00 2.8041677299e+00 
30200 6.1369581386e+00 -1.1139734269e-03 1.6190218934e+00 -2.8042281779e+00 1.6190218934e+00 2.8042281779e+00 
30300 6.1369578394e+00 -1.0978416969e-03 1.6190562962e+00 -2.8042877653e+00 1.6190562962e+00 2.8042877653e+00 
30400 6.1369575464e+00 -1.0816605390e-03 1.6190902001e+00 -2.8043464886e+00 1.6190902001e+00 2.8043464886e+00 
30500 6.1369572594e+00 -1.0654464391e-03 1.6191236035e+00 -2.8044043450e+00 1.6191236035e+00 2.8044043450e+00 
30600 6.1369569782e+00 -1.0492155491e-03 1.6191565056e+00 -2.8044613331e+00 1.6191565056e+00 2.8044613331e+00 
30700 6.1369567029e+00 -1.0329836673e-03 1.6191889058e+00 -2.8045174518e+00 1.6191889058e+00 2.8045174518e+00 
30800 6.1369564331e+00 -1.0167662215e-03 1.6192208040e+00 -2.8045727013e+00 1.6192208040e+00 2.8045727013e+00 
30900 6.1369561690e+00 -1.0005782526e-03 1.6192522009e+00 -2.8046270823e+00 1.6192522009e+00 2.8046270823e+00 
31000 6.1369559102e+00 -9.8443439925e-04 1.6192830973e+00 -2.8046805964e+00 1.6192830973e+00 2.8046805964e+00 
31100 6.1369556567e+00 -9.6834888470e-04 1.6193134947e+00 -2.8047332461e+00 1.6193134947e+00 2.8047332461e+00 
31200 6.1369554085e+00 -9.5233550370e-04 1.6193433947e+00 -2.8047850346e+00 1.6193433947e+00 2.8047850346e+00 
31300 6.1369551652e+00 -9.3640761130e-04 1.6193727998e+00 -2.8048359657e+00 1.6193727998e+00 2.8048359657e+00 
31400 6.1369549269e+00 -9.2057811267e-04 1.6194017126e+00 -2.8048860440e+00 1.6194017126e+00 2.8048860440e+00 
31500 6.1369546934e+00 -9.0485945397e-04 1.6194301360e+00 -2.8049352749e+00 1.6194301360e+00 2.8049352749e+00 
31600 6.1369544645e+00 -8.8926361445e-04 1.6194580737e+00 -2.8049836644e+00 1.6194580737e+00 2.8049836644e+00 
31700 6.1369542402e+00 -8.7380209957e-04 1.6194855294e+00 -2.8050312190e+00 1.6194855294e+00 2.8050312190e+00 
31800 6.1369540204e+00 -8.5848593523e-04 1.6195125072e+00 -2.8050779460e+00 1.6195125072e+00 2.8050779460e+00 
31900 6.1369538048e+00 -8.4332566310e-04 1.6195390117e+00 -2.8051238532e+00 1.6195390117e+00 2.8051238532e+00 
32000 6.1369535935e+00 -8.2833133684e-04 1.6195650478e+00 -2.8051689489e+00 1.6195650478e+00 2.8051689489e+00 
32100 6.1369533862e+00 -8.1351251944e-04 1.6195906205e+00 -2.8052132422e+00 1.6195906205e+00 2.8052132422e+00 
32200 6.1369531829e+00 -7.9887828142e-04 1.6196157353e+00 -2.8052567423e+00 1.6196157353e+00 2.8052567423e+00 
32300 6.1369529835e+00 -7.8443720007e-04 1.6196403980e+00 -2.8052994593e+00 1.6196403980e+00 2.8052994593e+00 
32400 6.1369527878e+00 -7.7019735946e-04 1.6196646144e+00 -2.8053414034e+00 1.6196646144e+00 2.8053414034e+00 
32500 6.1369525958e+00 -7.5616635142e-04 1.6196883909e+00 -2.8053825856e+00 1.6196883909e+00 2.8053825856e+00 
32600 6.1369524074e+00 -7.4235127736e-04 1.6197117340e+00 -2.8054230168e+00 1.6197117340e+00 2.8054230168e+00 
32700 6.1369522224e+00 -7.2875875078e-04 1.6197346502e+00 -2.8054627089e+00 1.6197346502e+00 2.8054627089e+00 
32800 6.1369520407e+00 -7.1539490072e-04 1.6197571465e+00 -2.8055016736e+00 1.6197571465e+00 2.8055016736e+00 
32900 6.1369518624e+00 -7.0226537581e-04 1.6197792299e+00 -2.8055399233e+00 1.6197792299e+00 2.8055399233e+00 
33000 6.1369516872e+00 -6.8937534910e-04 1.6198009078e+00 -2.8055774704e+00 1.6198009078e+00 2.8055774704e+00 
33100 6.1369515151e+00 -6.7672952357e-04 1.6198221875e+00 -2.8056143279e+00 1.6198221875e+00 2.8056143279e+00 
33200 6.1369513461e+00 -6.6433213825e-04 1.6198430765e+00 -2.8056505088e+00 1.6198430765e+00 2.8056505088e+00 
33300 6.1369511800e+00 -6.5218697495e-04 1.6198635826e+00 -2.8056860264e+00 1.6198635826e+00 2.8056860264e+00 
33400 6.1369510169e+00 -6.4029736563e-04 1.6198837136e+00 -2.8057208943e+00 1.6198837136e+00 2.8057208943e+00 
33500 6.1369508565e+00 -6.2866620019e-04 1.6199034773e+00 -2.8057551260e+00 1.6199034773e+00 2.8057551260e+00 
33600 6.1369506989e+00 -6.1729593492e-04 1.6199228818e+00 -2.8057887356e+00 1.6199228818e+00 2.8057887356e+00 
33700 6.1369505439e+00 -6.0618860134e-04 1.6199419351e+00 -2.8058217368e+00 1.6199419351e+00 2.8058217368e+00 
33800 6.1369503916e+00 -5.9534581548e-04 1.6199606453e+00 -2.8058541439e+00 1.6199606453e+00 2.8058541439e+00 
33900 6.1369502419e+00 -5.8476878765e-04 1.6199790206e+00 -2.8058859709e+00 1.6199790206e+00 2.8058859709e+00 
34000 6.1369500947e+00 -5.7445833251e-04 1.6199970693e+00 -2.8059172322e+00 1.6199970693e+00 2.8059172322e+00 
34100 6.1369499500e+00 -5.6441487957e-04 1.6200147996e+00 -2.8059479419e+00 1.6200147996e+00 2.8059479419e+00 
34200 6.1369498077e+00 -5.5463848394e-04 1.6200322197e+00 -2.8059781144e+00 1.6200322197e+00 2.8059781144e+00 
34300 6.1369496678e+00 -5.4512883748e-04 1.6200493378e+00 -2.8060077639e+00 1.6200493378e+00 2.8060077639e+00 
34400 6.1369495302e+00 -5.3588528006e-04 1.6200661623e+00 -2.8060369048e+00 1.6200661623e+00 2.8060369048e+00 
34500 6.1369493949e+00 -5.2690681126e-04 1.6200827013e+00 -2.8060655512e+00 1.6200827013e+00 2.8060655512e+00 
34600 6.1369492619e+00 -5.1819210204e-04 1.6200989631e+00 -2.8060937174e+00 1.6200989631e+00 2.8060937174e+00 
34700 6.1369491311e+00 -5.0973950685e-04 1.6201149557e+00 -2.8061214174e+00 1.6201149557e+00 2.8061214174e+00 
34800 6.1369490025e+00 -5.0154707565e-04 1.6201306873e+00 -2.8061486654e+00 1.6201306873e+00 2.8061486654e+00 
34900 6.1369488761e+00 -4.9361256623e-04 1.6201461660e+00 -2.8061754751e+00 1.6201461660e+00 2.8061754751e+00 
35000 6.1369487517e+00 -4.8593345658e-04 1.6201613996e+00 -2.8062018605e+00 1.6201613996e+00 2.8062018605e+00 
35100 6.1369486295e+00 -4.7850695727e-04 1.6201763960e+00 -2.8062278352e+00 1.6201763960e+00 2.8062278352e+00 
35200 6.1369485093e+00 -4.7133002402e-04 1.6201911632e+00 -2.8062534126e+00 1.6201911632e+00 2.8062534126e+00 
35300 6.1369483912e+00 -4.6439937019e-04 1.6202057087e+00 -2.8062786062e+00 1.6202057087e+00 2.8062786062e+00 
35400 6.1369482751e+00 -4.5771147929e-04 1.6202200402e+00 -2.8063034291e+00 1.6202200402e+00 2.8063034291e+00 
35500 6.1369481609e+00 -4.5126261755e-04 1.6202341652e+00 -2.8063278943e+00 1.6202341652e+00 2.8063278943e+00 
35600 6.1369480488e+00 -4.4504884635e-04 1.6202480911e+00 -2.8063520146e+00 1.6202480911e+00 2.8063520146e+00 
35700 6.1369479385e+00 -4.3906603469e-04 1.6202618251e+00 -2.8063758026e+00 1.6202618251e+00 2.8063758026e+00 
35800 6.1369478302e+00 -4.3330987153e-04 1.6202753743e+00 -2.8063992706e+00 1.6202753743e+00 2.8063992706e+00 
35900 6.1369477237e+00 -4.2777587804e-04 1.6202887458e+00 -2.8064224307e+00 1.6202887458e+00 2.8064224307e+00 
36000 6.1369476191e+00 -4.2245941977e-04 1.6203019465e+00 -2.8064452949e+00 1.6203019465e+00 2.8064452949e+00 
36100 6.1369475164e+00 -4.1735571863e-04 1.6203149829e+00 -2.8064678747e+00 1.6203149829e+00 2.8064678747e+00 
36200 6.1369474154e+00 -4.1245986482e-04 1.6203278618e+00 -2.8064901815e+00 1.6203278618e+00 2.8064901815e+00 
36300 6.1369473162e+00 -4.0776682851e-04 1.6203405895e+00 -2.8065122265e+00 1.6203405895e+00 2.8065122265e+00 
36400 6.1369472189e+00 -4.0327147139e-04 1.6203531722e+00 -2.8065340205e+00 1.6203531722e+00 2.8065340205e+00 
36500 6.1369471232e+00 -3.9896855801e-04 1.6203656162e+00 -2.8065555741e+00 1.6203656162e+00 2.8065555741e+00 
36600 6.1369470293e+00 -3.9485276698e-04 1.6203779273e+00 -2.8065768975e+00 1.6203779273e+00 2.8065768975e+00 
36700 6.1369469371e+00 -3.9091870182e-04 1.6203901113e+00 -2.8065980008e+00 1.6203901113e+00 2.8065980008e+00 
36800 6.1369468465e+00 -3.8716090174e-04 1.6204021738e+00 -2.8066188937e+00 1.6204021738e+00 2.8066188937e+00 
36900 6.1369467576e+00 -3.8357385212e-04 1.6204141202e+00 -2.8066395855e+00 1.6204141202e+00 2.8066395855e+00 
37000 6.1369466704e+00 -3.8015199466e-04 1.6204259559e+00 -2.8066600855e+00 1.6204259559e+00 2.8066600855e+00 
37100 6.1369465847e+00 -3.7688973746e-04 1.6204376859e+00 -2.8066804025e+00 1.6204376859e+00 2.8066804025e+00 
37200 6.1369465006e+00 -3.7378146465e-04 1.6204493152e+00 -2.8067005450e+00 1.6204493152e+00 2.8067005450e+00 
37300 6.1369464181e+00 -3.7082154587e-04 1.6204608485e+00 -2.8067205212e+00 1.6204608485e+00 2.8067205212e+00 
37400 6.1369463371e+00 -3.6800434539e-04 1.6204722903e+00 -2.8067403391e+00 1.6204722903e+00 2.8067403391e+00 
37500 6.1369462577e+00 -3.6532423103e-04 1.6204836452e+00 -2.8067600063e+00 1.6204836452e+00 2.8067600063e+00 
37600 6.1369461797e+00 -3.6277558273e-04 1.6204949173e+00 -2.8067795302e+00 1.6204949173e+00 2.8067795302e+00 
37700 6.1369461032e+00 -3.6035280082e-04 1.6205061107e+00 -2.8067989176e+00 1.6205061107e+00 2.8067989176e+00 
37800 6.1369460281e+00 -3.5805031404e-04 1.6205172292e+00 -2.8068181755e+00 1.6205172292e+00 2.8068181755e+00 
37900 6.1369459544e+00 -3.5586258720e-04 1.6205282766e+00 -2.8068373102e+00 1.6205282766e+00 2.8068373102e+00 
38000 6.1369458822e+00 -3.5378412857e-04 1.6205392565e+00 -2.8068563279e+00 1.6205392565e+00 2.8068563279e+00 
38100 6.1369458113e+00 -3.5180949698e-04 1.6205501721e+00 -2.8068752343e+00 1.6205501721e+00 2.8068752343e+00 
38200 6.1369457417e+00 -3.4993330853e-04 1.6205610268e+00 -2.8068940351e+00 1.6205610268e+00 2.8068940351e+00 
38300 6.1369456735e+00 -3.4815024308e-04 1.6205718234e+00 -2.8069127355e+00 1.6205718234e+00 2.8069127355e+00 
38400 6.1369456065e+00 -3.4645505040e-04 1.6205825650e+00 -2.8069313405e+00 1.6205825650e+00 2.8069313405e+00 
38500 6.1369455409e+00 -3.4484255594e-04 1.6205932543e+00 -2.8069498548e+00 1.6205932543e+00 2.8069498548e+00 
38600 6.1369454765e+00 -3.4330766642e-04 1.6206038937e+00 -2.8069682828e+00 1.6206038937e+00 2.8069682828e+00 
38700 6.1369454133e+00 -3.4184537498e-04 1.6206144856e+00 -2.8069866286e+00 1.6206144856e+00 2.8069866286e+00 
38800 6.1369453513e+00 -3.4045076608e-04 1.6206250324e+00 -2.8070048962e+00 1.6206250324e+00 2.8070048962e+00 
38900 6.1369452904e+00 -3.3911902015e-04 1.6206355361e+00 -2.8070230891e+00 1.6206355361e+00 2.8070230891e+00 
39000 6.1369452308e+00 -3.3784541780e-04 1.6206459987e+00 -2.8070412108e+00 1.6206459987e+00 2.8070412108e+00 
39100 6.1369451722e+00 -3.3662534384e-04 1.6206564219e+00 -2.8070592643e+00 1.6206564219e+00 2.8070592643e+00 
39200 6.1369451148e+00 -3.3545429097e-04 1.6206668073e+00 -2.8070772524e+00 1.6206668073e+00 2.8070772524e+00 
39300 6.1369450584e+00 -3.3432786315e-04 1.6206771566e+00 -2.8070951779e+00 1.6206771566e+00 2.8070951779e+00 
39400 6.1369450031e+00 -3.3324177873e-04 1.6206874711e+00 -2.8071130431e+00 1.6206874711e+00 2.8071130431e+00 
39500 6.1369449489e+00 -3.3219187323e-04 1.6206977520e+00 -2.8071308501e+00 1.6206977520e+00 2.8071308501e+00 
39600 6.1369448957e+00 -3.3117410188e-04 1.6207080004e+00 -2.8071486009e+00 1.6207080004e+00 2.8071486009e+00 
39700 6.1369448434e+00 -3.3018454189e-04 1.6207182174e+00 -2.8071662972e+00 1.6207182174e+00 2.8071662972e+00 
39800 6.1369447922e+00 -3.2921939445e-04 1.6207284037e+00 -2.8071839405e+00 1.6207284037e+00 2.8071839405e+00 
39900 6.1369447419e+00 -3.2827498637e-04 1.6207385603e+00 -2.8072015322e+00 1.6207385603e+00 2.8072015322e+00 
40000 6.1369446925e+00 -3.2734777163e-04 1.6207486876e+00 -2.8072190732e+00 1.6207486876e+00 2.8072190732e+00 
40100 6.1369446440e+00 -3.2643433254e-04 1.6207587863e+00 -2.8072365647e+00 1.6207587863e+00 2.8072365647e+00 
40200 6.1369445965e+00 -3.2553138069e-04 1.6207688567e+00 -2.8072540071e+00 1.6207688567e+00 2.8072540071e+00 
40300 6.1369445498e+00 -3.2463575770e-04 1.6207788992e+00 -2.8072714013e+00 1.6207788992e+00 2.8072714013e+00 
40400 6.1369445040e+00 -3.2374443566e-04 1.6207889140e+00 -2.8072887475e+00 1.6207889140e+00 2.8072887475e+00 
40500 6.1369444590e+00 -3.2285451742e-04 1.6207989013e+00 -2.8073060459e+00 1.6207989013e+00 2.8073060459e+00 
40600 6.1369444148e+00 -3.2196323660e-04 1.6208088610e+00 -2.8073232967e+00 1.6208088610e+00 2.8073232967e+00 
40700 6.1369443715e+00 -3.2106795743e-04 1.6208187932e+00 -2.8073404997e+00 1.6208187932e+00 2.8073404997e+00 
40800 6.1369443289e+00 -3.2016617437e-04 1.6208286977e+00 -2.8073576548e+00 1.6208286977e+00 2.8073576548e+00 
40900 6.1369442871e+00 -3.1925551149e-04 1.6208385744e+00 -2.8073747617e+00 1.6208385744e+00 2.8073747617e+00 
41000 6.1369442461e+00 -3.1833372176e-04 1.6208484228e+00 -2.8073918197e+00 1.6208484228e+00 2.8073918197e+00 
41100 6.1369442058e+00 -3.1739868602e-04 1.6208582428e+00 -2.8074088284e+00 1.6208582428e+00 2.8074088284e+00 
41200 6.1369441662e+00 -3.1644841192e-04 1.6208680339e+00 -2.8074257871e+00 1.6208680339e+00 2.8074257871e+00 
41300 6.1369441274e+00 -3.1548103257e-04 1.6208777956e+00 -2.8074426949e+00 1.6208777956e+00 2.8074426949e+00 
41400 6.1369440892e+00 -3.1449480510e-04 1.6208875274e+00 -2.8074595508e+00 1.6208875274e+00 2.8074595508e+00 
41500 6.1369440518e+00 -3.1348810906e-04 1.6208972287e+00 -2.8074763540e+00 1.6208972287e+00 2.8074763540e+00 
41600 6.1369440150e+00 -3.1245944464e-04 1.6209068990e+00 -2.8074931033e+00 1.6209068990e+00 2.8074931033e+00 
41700 6.1369439788e+00 -3.1140743079e-04 1.6209165374e+00 -2.8075097976e+00 1.6209165374e+00 2.8075097976e+00 
41800 6.1369439433e+00 -3.1033080319e-04 1.6209261433e+00 -2.8075264355e+00 1.6209261433e+00 2.8075264355e+00 
41900 6.1369439084e+00 -3.0922841211e-04 1.6209357159e+00 -2.8075430158e+00 1.6209357159e+00 2.8075430158e+00 
42000 6.1369438742e+00 -3.0809922016e-04 1.6209452545e+00 -2.8075595371e+00 1.6209452545e+00 2.8075595371e+00 
42100 6.1369438405e+00 -3.0694229990e-04 1.6209547582e+00 -2.8075759980e+00 1.6209547582e+00 2.8075759980e+00 
42200 6.1369438075e+00 -3.0575683140e-04 1.6209642262e+00 -2.8075923970e+00 1.6209642262e+00 2.8075923970e+00 
42300 6.1369437751e+00 -3.0454209967e-04 1.6209736575e+00 -2.8076087326e+00 1.6209736575e+00 2.8076087326e+00 
42400 6.1369437432e+00 -3.0329749202e-04 1.6209830513e+00 -2.8076250031e+00 1.6209830513e+00 2.8076250031e+00 
42500 6.1369437119e+00 -3.0202249536e-04 1.6209924067e+00 -2.8076412071e+00 1.6209924067e+00 2.8076412071e+00 
42600 6.1369436811e+00 -3.0071669338e-04 1.6210017227e+00 -2.8076573428e+00 1.6210017227e+00 2.8076573428e+00 
42700 6.1369436509e+00 -2.9937976371e-04 1.6210109983e+00 -2.8076734087e+00 1.6210109983e+00 2.8076734087e+00 
42800 6.1369436212e+00 -2.9801147504e-04 1.6210202327e+00 -2.8076894031e+00 1.6210202327e+00 2.8076894031e+00 
42900 6.1369435921e+00 -2.9661168409e-04 1.6210294248e+00 -2.8077053243e+00 1.6210294248e+00 2.8077053243e+00 
43000 6.1369435635e+00 -2.9518033272e-04 1.6210385737e+00 -2.8077211706e+00 1.6210385737e+00 2.8077211706e+00 
43100 6.1369435354e+00 -2.9371744477e-04 1.6210476783e+00 -2.8077369404e+00 1.6210476783e+00 2.8077369404e+00 
43200 6.1369435078e+00 -2.9222312307e-04 1.6210567379e+00 -2.8077526319e+00 1.6210567379e+00 2.8077526319e+00 
43300 6.1369434807e+00 -2.9069754634e-04 1.6210657512e+00 -2.8077682435e+00 1.6210657512e+00 2.8077682435e+00 
43400 6.1369434541e+00 -2.8914096604e-04 1.6210747175e+00 -2.8077837735e+00 1.6210747175e+00 2.8077837735e+00 
43500 6.1369434279e+00 -2.8755370328e-04 1.6210836357e+00 -2.8077992203e+00 1.6210836357e+00 2.8077992203e+00 
43600 6.1369434022e+00 -2.8593614566e-04 1.6210925049e+00 -2.8078145822e+00 1.6210925049e+00 2.8078145822e+00 
43700 6.1369433770e+00 -2.8428874418e-04 1.6211013241e+00 -2.8078298576e+00 1.6211013241e+00 2.8078298576e+00 
43800 6.1369433523e+00 -2.8261201006e-04 1.6211100925e+00 -2.8078450449e+00 1.6211100925e+00 2.8078450449e+00 
43900 6.1369433280e+00 -2.8090651165e-04 1.6211188091e+00 -2.8078601425e+00 1.6211188091e+00 2.8078601425e+00 
44000 6.1369433041e+00 -2.7917287132e-04 1.6211274731e+00 -2.8078751490e+00 1.6211274731e+00 2.8078751490e+00 
44100 6.1369432807e+00 -2.7741176233e-04 1.6211360836e+00 -2.8078900627e+00 1.6211360836e+00 2.8078900627e+00 
44200 6.1369432577e+00 -2.7562390584e-04 1.6211446397e+00 -2.8079048823e+00 1.6211446397e+00 2.8079048823e+00 
44300 6.1369432351e+00 -2.7381006780e-04 1.6211531406e+00 -2.8079196063e+00 1.6211531406e+00 2.8079196063e+00 
44400 6.1369432130e+00 -2.7197105595e-04 1.6211615855e+00 -2.8079342334e+00 1.6211615855e+00 2.8079342334e+00 
44500 6.1369431912e+00 -2.7010771690e-04 1.6211699737e+00 -2.8079487621e+00 1.6211699737e+00 2.8079487621e+00 
44600 6.1369431698e+00 -2.6822093313e-04 1.6211783043e+00 -2.8079631912e+00 1.6211783043e+00 2.8079631912e+00 
44700 6.1369431489e+00 -2.6631162012e-04 1.6211865767e+00 -2.8079775194e+00 1.6211865767e+00 2.8079775194e+00 
44800 6.1369431283e+00 -2.6438072351e-04 1.6211947902e+00 -2.8079917456e+00 1.6211947902e+00 2.8079917456e+00 
44900 6.1369431081e+00 -2.6242921631e-04 1.6212029441e+00 -2.8080058686e+00 1.6212029441e+00 2.8080058686e+00 
45000 6.1369430883e+00 -2.6045809611e-04 1.6212110378e+00 -2.8080198872e+00 1.6212110378e+00 2.8080198872e+00 
45100 6.1369430689e+00 -2.5846838244e-04 1.6212190706e+00 -2.8080338005e+00 1.6212190706e+00 2.8080338005e+00 
45200 6.1369430498e+00 -2.5646111410e-04 1.6212270420e+00 -2.8080476074e+00 1.6212270420e+00 2.8080476074e+00 
45300 6.1369430311e+00 -2.5443734660e-04 1.6212349515e+00 -2.8080613070e+00 1.6212349515e+00 2.8080613070e+00 
45400 6.1369430128e+00 -2.5239814965e-04 1.6212427985e+00 -2.8080748985e+00 1.6212427985e+00 2.8080748985e+00 
45500 6.1369429948e+00 -2.5034460468e-04 1.6212505826e+00 -2.8080883809e+00 1.6212505826e+00 2.8080883809e+00 
45600 6.1369429771e+00 -2.4827780251e-04 1.6212583034e+00 -2.8081017536e+00 1.6212583034e+00 2.8081017536e+00 
45700 6.1369429598e+00 -2.4619884099e-04 1.6212659603e+00 -2.8081150159e+00 1.6212659603e+00 2.8081150159e+00 
45800 6.1369429428e+00 -2.4410882275e-04 1.6212735531e+00 -2.8081281670e+00 1.6212735531e+00 2.8081281670e+00 
45900 6.1369429261e+00 -2.4200885308e-04 1.6212810814e+00 -2.8081412064e+00 1.6212810814e+00 2.8081412064e+00 
46000 6.1369429097e+00 -2.3990003776e-04 1.6212885449e+00 -2.8081541336e+00 1.6212885449e+00 2.8081541336e+00 
46100 6.1369428937e+00 -2.3778348105e-04 1.6212959434e+00 -2.8081669481e+00 1.6212959434e+00 2.8081669481e+00 
46200 6.1369428779e+00 -2.3566028375e-04 1.6213032765e+00 -2.8081796494e+00 1.6213032765e+00 2.8081796494e+00 
46300 6.1369428625e+00 -2.3353154130e-04 1.6213105441e+00 -2.8081922373e+00 1.6213105441e+00 2.8081922373e+00 
46400 6.1369428474e+00 -2.3139834197e-04 1.6213177461e+00 -2.8082047114e+00 1.6213177461e+00 2.8082047114e+00 
46500 6.1369428325e+00 -2.2926176514e-04 1.6213248822e+00 -2.8082170716e+00 1.6213248822e+00 2.8082170716e+00 
46600 6.1369428180e+00 -2.2712287964e-04 1.6213319524e+00 -2.8082293175e+00 1.6213319524e+00 2.8082293175e+00 
46700 6.1369428037e+00 -2.2498274213e-04 1.6213389566e+00 -2.8082414492e+00 1.6213389566e+00 2.8082414492e+00 
46800 6.1369427897e+00 -2.2284239566e-04 1.6213458948e+00 -2.8082534665e+00 1.6213458948e+00 2.8082534665e+00 
46900 6.1369427760e+00 -2.2070286820e-04 1.6213527670e+00 -2.8082653694e+00 1.6213527670e+00 2.8082653694e+00 
47000 6.1369427626e+00 -2.1856517129e-04 1.6213595731e+00 -2.8082771579e+00 1.6213595731e+00 2.8082771579e+00 
47100 6.1369427494e+00 -2.1643029875e-04 1.6213663133e+00 -2.8082888323e+00 1.6213663133e+00 2.8082888323e+00 
47200 6.1369427365e+00 -2.1429922551e-04 1.6213729876e+00 -2.8083003926e+00 1.6213729876e+00 2.8083003926e+00 
47300 6.1369427238e+00 -2.1217290646e-04 1.6213795962e+00 -2.8083118389e+00 1.6213795962e+00 2.8083118389e+00 
47400 6.1369427114e+00 -2.1005227539e-04 1.6213861392e+00 -2.8083231717e+00 1.6213861392e+00 2.8083231717e+00 
47500 6.1369426992e+00 -2.0793824400e-04 1.6213926167e+00 -2.8083343912e+00 1.6213926167e+00 2.8083343912e+00 
47600 6.1369426873e+00 -2.0583170103e-04 1.6213990291e+00 -2.8083454977e+00 1.6213990291e+00 2.8083454977e+00 
47700 6.1369426756e+00 -2.0373351136e-04 1.6214053764e+00 -2.8083564916e+00 1.6214053764e+00 2.8083564916e+00 
47800 6.1369426641e+00 -2.0164451529e-04 1.6214116590e+00 -2.8083673734e+00 1.6214116590e+00 2.8083673734e+00 
47900 6.1369426528e+00 -1.9956552780e-04 1.6214178772e+00 -2.8083781436e+00 1.6214178772e+00 2.8083781436e+00 
48000 6.1369426418e+00 -1.9749733795e-04 1.6214240313e+00 -2.8083888028e+00 1.6214240313e+00 2.8083888028e+00 
48100 6.1369426310e+00 -1.9544070829e-04 1.6214301215e+00 -2.8083993514e+00 1.6214301215e+00 2.8083993514e+00 
48200 6.1369426204e+00 -1.9339637439e-04 1.6214361483e+00 -2.8084097901e+00 1.6214361483e+00 2.8084097901e+00 
48300 6.1369426101e+00 -1.9136504432e-04 1.6214421121e+00 -2.8084201196e+00 1.6214421121e+00 2.8084201196e+00 
48400 6.1369425999e+00 -1.8934739840e-04 1.6214480131e+00 -2.8084303406e+00 1.6214480131e+00 2.8084303406e+00 
48500 6.1369425899e+00 -1.8734408875e-04 1.6214538520e+00 -2.8084404538e+00 1.6214538520e+00 2.8084404538e+00 
48600 6.1369425802e+00 -1.8535573914e-04 1.6214596290e+00 -2.8084504599e+00 1.6214596290e+00 2.8084504599e+00 
48700 6.1369425706e+00 -1.8338294473e-04 1.6214653447e+00 -2.8084603598e+00 1.6214653447e+00 2.8084603598e+00 
48800 6.1369425612e+00 -1.8142627195e-04 1.6214709996e+00 -2.8084701543e+00 1.6214709996e+00 2.8084701543e+00 
48900 6.1369425520e+00 -1.7948625840e-04 1.6214765941e+00 -2.8084798442e+00 1.6214765941e+00 2.8084798442e+00 
49000 6.1369425430e+00 -1.7756341283e-04 1.6214821287e+00 -2.8084894305e+00 1.6214821287e+00 2.8084894305e+00 
49100 6.1369425341e+00 -1.7565821512e-04 1.6214876041e+00 -2.8084989141e+00 1.6214876041e+00 2.8084989141e+00 
49200 6.1369425255e+00 -1.7377111637e-04 1.6214930207e+00 -2.8085082959e+00 1.6214930207e+00 2.8085082959e+00 
49300 6.1369425170e+00 -1.7190253903e-04 1.6214983790e+00 -2.8085175769e+00 1.6214983790e+00 2.8085175769e+00 
49400 6.1369425087e+00 -1.7005287700e-04 1.6215036798e+00 -2.8085267580e+00 1.6215036798e+00 2.8085267580e+00 
49500 6.1369425006e+00 -1.6822249585e-04 1.6215089235e+00 -2.8085358403e+00 1.6215089235e+00 2.8085358403e+00 
49600 6.1369424926e+00 -1.6641173310e-04 1.6215141107e+00 -2.8085448249e+00 1.6215141107e+00 2.8085448249e+00 
49700 6.1369424848e+00 -1.6462089842e-04 1.6215192420e+00 -2.8085537127e+00 1.6215192420e+00 2.8085537127e+00 
49800 6.1369424771e+00 -1.6285027405e-04 1.6215243182e+00 -2.8085625048e+00 1.6215243182e+00 2.8085625048e+00 
49900 6.1369424696e+00 -1.6110011504e-04 1.6215293397e+00 -2.8085712023e+00 1.6215293397e+00 2.8085712023e+00 
50000 6.1369424622e+00 -1.5937064973e-04 1.6215343072e+00 -2.8085798064e+00 1.6215343072e+00 2.8085798064e+00 
50100 6.1369424550e+00 -1.5766208012e-04 1.6215392214e+00 -2.8085883180e+00 1.6215392214e+00 2.8085883180e+00 
50200 6.1369424479e+00 -1.5597458234e-04 1.6215440829e+00 -2.8085967384e+00 1.6215440829e+00 2.8085967384e+00 
50300 6.1369424410e+00 -1.5430830712e-04 1.6215488924e+00 -2.8086050686e+00 1.6215488924e+00 2.8086050686e+00 
50400 6.1369424342e+00 -1.5266338031e-04 1.6215536504e+00 -2.8086133098e+00 1.6215536504e+00 2.8086133098e+00 
50500 6.1369424276e+00 -1.5103990339e-04 1.6215583578e+00 -2.8086214631e+00 1.6215583578e+00 2.8086214631e+00 
50600 6.1369424211e+00 -1.4943795404e-04 1.6215630150e+00 -2.8086295297e+00 1.6215630150e+00 2.8086295297e+00 
50700 6.1369424147e+00 -1.4785758672e-04 1.6215676228e+00 -2.8086375107e+00 1.6215676228e+00 2.8086375107e+00 
50800 6.1369424085e+00 -1.4629883324e-04 1.6215721819e+00 -2.8086454073e+00 1.6215721819e+00 2.8086454073e+00 
50900 6.1369424024e+00 -1.4476170341e-04 1.6215766930e+00 -2.8086532206e+00 1.6215766930e+00 2.8086532206e+00 
51000 6.1369423964e+00 -1.4324618565e-04 1.6215811566e+00 -2.8086609518e+00 1.6215811566e+00 2.8086609518e+00 
51100 6.1369423905e+00 -1.4175224764e-04 1.6215855734e+00 -2.8086686020e+00 1.6215855734e+00 2.8086686020e+00 
51200 6.1369423848e+00 -1.4027983698e-04 1.6215899442e+00 -2.8086761725e+00 1.6215899442e+00 2.8086761725e+00 
51300 6.1369423791e+00 -1.3882888184e-04 1.6215942696e+00 -2.8086836642e+00 1.6215942696e+00 2.8086836642e+00 
51400 6.1369423736e+00 -1.3739929170e-04 1.6215985502e+00 -2.8086910785e+00 1.6215985502e+00 2.8086910785e+00 
51500 6.1369423682e+00 -1.3599095795e-04 1.6216027868e+00 -2.8086984164e+00 1.6216027868e+00 2.8086984164e+00 
51600 6.1369423629e+00 -1.3460375469e-04 1.6216069799e+00 -2.8087056791e+00 1.6216069799e+00 2.8087056791e+00 
51700 6.1369423577e+00 -1.3323753933e-04 1.6216111302e+00 -2.8087128677e+00 1.6216111302e+00 2.8087128677e+00 
51800 6.1369423527e+00 -1.3189215337e-04 1.6216152384e+00 -2.8087199832e+00 1.6216152384e+00 2.8087199832e+00 
51900 6.1369423477e+00 -1.3056742310e-04 1.6216193051e+00 -2.8087270270e+00 1.6216193051e+00 2.8087270270e+00 
52000 6.1369423428e+00 -1.2926316025e-04 1.6216233309e+00 -2.8087339999e+00 1.6216233309e+00 2.8087339999e+00 
52100 6.1369423381e+00 -1.2797916280e-04 1.6216273165e+00 -2.8087409032e+00 1.6216273165e+00 2.8087409032e+00 
52200 6.1369423334e+00 -1.2671521562e-04 1.6216312626e+00 -2.8087477379e+00 1.6216312626e+00 2.8087477379e+00 
52300 6.1369423288e+00 -1.2547109120e-04 1.6216351696e+00 -2.8087545051e+00 1.6216351696e+00 2.8087545051e+00 
52400 6.1369423244e+00 -1.2424655035e-04 1.6216390382e+00 -2.8087612058e+00 1.6216390382e+00 2.8087612058e+00 
52500 6.1369423200e+00 -1.2304134291e-04 1.6216428691e+00 -2.8087678411e+00 1.6216428691e+00 2.8087678411e+00 
52600 6.1369423157e+00 -1.2185520847e-04 1.6216466629e+00 -2.8087744120e+00 1.6216466629e+00 2.8087744120e+00 
52700 6.1369423115e+00 -1.2068787701e-04 1.6216504200e+00 -2.8087809196e+00 1.6216504200e+00 2.8087809196e+00 
52800 6.1369423074e+00 -1.1953906962e-04 1.6216541412e+00 -2.8087873648e+00 1.6216541412e+00 2.8087873648e+00 
52900 6.1369423034e+00 -1.1840849916e-04 1.6216578269e+00 -2.8087937486e+00 1.6216578269e+00 2.8087937486e+00 
53000 6.1369422995e+00 -1.1729587095e-04 1.6216614777e+00 -2.8088000721e+00 1.6216614777e+00 2.8088000721e+00 
53100 6.1369422956e+00 -1.1620088338e-04 1.6216650943e+00 -2.8088063361e+00 1.6216650943e+00 2.8088063361e+00 
53200 6.1369422919e+00 -1.1512322861e-04 1.6216686770e+00 -2.8088125416e+00 1.6216686770e+00 2.8088125416e+00 
53300 6.1369422882e+00 -1.1406259318e-04 1.6216722266e+00 -2.8088186896e+00 1.6216722266e+00 2.8088186896e+00 
53400 6.1369422846e+00 -1.1301865863e-04 1.6216757434e+00 -2.8088247809e+00 1.6216757434e+00 2.8088247809e+00 
53500 6.1369422810e+00 -1.1199110210e-04 1.6216792280e+00 -2.8088308165e+00 1.6216792280e+00 2.8088308165e+00 
53600 6.1369422776e+00 -1.1097959698e-04 1.6216826809e+00 -2.8088367971e+00 1.6216826809e+00 2.8088367971e+00 
53700 6.1369422742e+00 -1.0998381343e-04 1.6216861027e+00 -2.8088427238e+00 1.6216861027e+00 2.8088427238e+00 
53800 6.1369422709e+00 -1.0900341897e-04 1.6216894937e+00 -2.8088485972e+00 1.6216894937e+00 2.8088485972e+00 
53900 6.1369422677e+00 -1.0803807906e-04 1.6216928545e+00 -2.8088544183e+00 1.6216928545e+00 2.8088544183e+00 
54000 6.1369422645e+00 -1.0708745762e-04 1.6216961855e+00 -2.8088601878e+00 1.6216961855e+00 2.8088601878e+00 
54100 6.1369422614e+00 -1.0615121754e-04 1.6216994873e+00 -2.8088659065e+00 1.6216994873e+00 2.8088659065e+00 
54200 6.1369422584e+00 -1.0522902122e-04 1.6217027601e+00 -2.8088715753e+00 1.6217027601e+00 2.8088715753e+00 
54300 6.1369422554e+00 -1.0432053105e-04 1.6217060045e+00 -2.8088771947e+00 1.6217060045e+00 2.8088771947e+00 
54400 6.1369422525e+00 -1.0342540986e-04 1.6217092209e+00 -2.8088827657e+00 1.6217092209e+00 2.8088827657e+00 
54500 6.1369422497e+00 -1.0254332141e-04 1.6217124097e+00 -2.8088882888e+00 1.6217124097e+00 2.8088882888e+00 
54600 6.1369422469e+00 -1.0167393084e-04 1.6217155712e+00 -2.8088937648e+00 1.6217155712e+00 2.8088937648e+00 
54700 6.1369422442e+00 -1.0081690506e-04 1.6217187060e+00 -2.8088991944e+00 1.6217187060e+00 2.8088991944e+00 
54800 6.1369422416e+00 -9.9971913184e-05 1.6217218143e+00 -2.8089045782e+00 1.6217218143e+00 2.8089045782e+00 
54900 6.1369422390e+00 -9.9138626906e-05 1.6217248966e+00 -2.8089099168e+00 1.6217248966e+00 2.8089099168e+00 
55000 6.1369422364e+00 -9.8316720889e-05 1.6217279532e+00 -2.8089152110e+00 1.6217279532e+00 2.8089152110e+00 
55100 6.1369422340e+00 -9.7505873109e-05 1.6217309844e+00 -2.8089204612e+00 1.6217309844e+00 2.8089204612e+00 
55200 6.1369422316e+00 -9.6705765197e-05 1.6217339907e+00 -2.8089256682e+00 1.6217339907e+00 2.8089256682e+00 
55300 6.1369422292e+00 -9.5916082763e-05 1.6217369722e+00 -2.8089308324e+00 1.6217369722e+00 2.8089308324e+00 
55400 6.1369422269e+00 -9.5136515692e-05 1.6217399294e+00 -2.8089359544e+00 1.6217399294e+00 2.8089359544e+00 
55500 6.1369422246e+00 -9.4366758438e-05 1.6217428626e+00 -2.8089410348e+00 1.6217428626e+00 2.8089410348e+00 
55600 6.1369422224e+00 -9.3606510299e-05 1.6217457720e+00 -2.8089460741e+00 1.6217457720e+00 2.8089460741e+00 
55700 6.1369422202e+00 -9.2855475649e-05 1.6217486580e+00 -2.8089510727e+00 1.6217486580e+00 2.8089510727e+00 
55800 6.1369422181e+00 -9.2113364202e-05 1.6217515208e+00 -2.8089560313e+00 1.6217515208e+00 2.8089560313e+00 
55900 6.1369422161e+00 -9.1379891209e-05 1.6217543607e+00 -2.8089609502e+00 1.6217543607e+00 2.8089609502e+00 
56000 6.1369422141e+00 -9.0654777667e-05 1.6217571781e+00 -2.8089658299e+00 1.6217571781e+00 2.8089658299e+00 
56100 6.1369422121e+00 -8.9937750512e-05 1.6217599730e+00 -2.8089706709e+00 1.6217599730e+00 2.8089706709e+00 
56200 6.1369422102e+00 -8.9228542780e-05 1.6217627459e+00 -2.8089754737e+00 1.6217627459e+00 2.8089754737e+00 
56300 6.1369422083e+00 -8.8526893777e-05 1.6217654968e+00 -2.8089802385e+00 1.6217654968e+00 2.8089802385e+00 
56400 6.1369422065e+00 -8.7832549200e-05 1.6217682262e+00 -2.8089849658e+00 1.6217682262e+00 2.8089849658e+00 
56500 6.1369422047e+00 -8.7145261270e-05 1.6217709341e+00 -2.8089896561e+00 1.6217709341e+00 2.8089896561e+00 
56600 6.1369422029e+00 -8.6464788850e-05 1.6217736208e+00 -2.8089943097e+00 1.6217736208e+00 2.8089943097e+00 
56700 6.1369422012e+00 -8.5790897525e-05 1.6217762866e+00 -2.8089989269e+00 1.6217762866e+00 2.8089989269e+00 
56800 6.1369421995e+00 -8.5123359696e-05 1.6217789316e+00 -2.8090035081e+00 1.6217789316e+00 2.8090035081e+00 
56900 6.1369421979e+00 -8.4461954640e-05 1.6217815559e+00 -2.8090080537e+00 1.6217815559e+00 2.8090080537e+00 
57000 6.1369421963e+00 -8.3806468569e-05 1.6217841599e+00 -2.8090125639e+00 1.6217841599e+00 2.8090125639e+00 
57100 6.1369421948e+00 -8.3156694665e-05 1.6217867437e+00 -2.8090170391e+00 1.6217867437e+00 2.8090170391e+00 
57200 6.1369421932e+00 -8.2512433111e-05 1.6217893074e+00 -2.8090214796e+00 1.6217893074e+00 2.8090214796e+00 
57300 6.1369421917e+00 -8.1873491109e-05 1.6217918513e+00 -2.8090258858e+00 1.6217918513e+00 2.8090258858e+00 
57400 6.1369421903e+00 -8.1239682883e-05 1.6217943755e+00 -2.8090302577e+00 1.6217943755e+00 2.8090302577e+00 
57500 6.1369421889e+00 -8.0610829670e-05 1.6217968801e+00 -2.8090345959e+00 1.6217968801e+00 2.8090345959e+00 
57600 6.1369421875e+00 -7.9986759706e-05 1.6217993653e+00 -2.8090389004e+00 1.6217993653e+00 2.8090389004e+00 
57700 6.1369421862e+00 -7.9367308191e-05 1.6218018313e+00 -2.8090431717e+00 1.6218018313e+00 2.8090431717e+00 
57800 6.1369421848e+00 -7.8752317254e-05 1.6218042782e+00 -2.8090474098e+00 1.6218042782e+00 2.8090474098e+00 
57900 6.1369421836e+00 -7.8141635899e-05 1.6218067061e+00 -2.8090516151e+00 1.6218067061e+00 2.8090516151e+00 
58000 6.1369421823e+00 -7.7535119955e-05 1.6218091152e+00 -2.8090557877e+00 1.6218091152e+00 2.8090557877e+00 
58100 6.1369421811e+00 -7.6932632000e-05 1.6218115056e+00 -2.8090599280e+00 1.6218115056e+00 2.8090599280e+00 
58200 6.1369421799e+00 -7.6334041291e-05 1.6218138774e+00 -2.8090640361e+00 1.6218138774e+00 2.8090640361e+00 
58300 6.1369421787e+00 -7.5739223672e-05 1.6218162308e+00 -2.8090681122e+00 1.6218162308e+00 2.8090681122e+00 
58400 6.1369421776e+00 -7.5148061498e-05 1.6218185658e+00 -2.8090721566e+00 1.6218185658e+00 2.8090721566e+00 
58500 6.1369421765e+00 -7.4560443518e-05 1.6218208826e+00 -2.8090761694e+00 1.6218208826e+00 2.8090761694e+00 
58600 6.1369421754e+00 -7.3976264775e-05 1.6218231812e+00 -2.8090801508e+00 1.6218231812e+00 2.8090801508e+00 
58700 6.1369421744e+00 -7.3395426498e-05 1.6218254619e+00 -2.8090841010e+00 1.6218254619e+00 2.8090841010e+00 
58800 6.1369421733e+00 -7.2817835986e-05 1.6218277246e+00 -2.8090880202e+00 1.6218277246e+00 2.8090880202e+00 
58900 6.1369421723e+00 -7.2243406471e-05 1.6218299696e+00 -2.8090919085e+00 1.6218299696e+00 2.8090919085e+00 
59000 6.1369421714e+00 -7.1672056997e-05 1.6218321968e+00 -2.8090957662e+00 1.6218321968e+00 2.8090957662e+00 
59100 6.1369421704e+00 -7.1103712285e-05 1.6218344064e+00 -2.8090995933e+00 1.6218344064e+00 2.8090995933e+00 
59200 6.1369421695e+00 -7.0538302604e-05 1.6218365985e+00 -2.8091033901e+00 1.6218365985e+00 2.8091033901e+00 
59300 6.1369421688e+00 -7.2138888099e-05 1.6218365985e+00 -2.8091033901e+00 1.6218365985e+00 2.8091033901e+00 
59400 6.1369421679e+00 -7.1515861898e-05 1.6218388225e+00 -2.8091072422e+00 1.6218388225e+00 2.8091072422e+00 
59500 6.1369421670e+00 -7.0898117511e-05 1.6218410272e+00 -2.8091110610e+00 1.6218410272e+00 2.8091110610e+00 
59600 6.1369421662e+00 -7.0285473715e-05 1.6218432130e+00 -2.8091148468e+00 1.6218432130e+00 2.8091148468e+00 
59700 6.1369421656e+00 -7.1833119545e-05 1.6218432130e+00 -2.8091148468e+00 1.6218432130e+00 2.8091148468e+00 
59800 6.1369421648e+00 -7.1167104898e-05 1.6218454275e+00 -2.8091186825e+00 1.6218454275e+00 2.8091186825e+00 
59900 6.1369421640e+00 -7.0508226148e-05 1.6218476215e+00 -2.8091224826e+00 1.6218476215e+00 2.8091224826e+00 
60000 6.1369421634e+00 -7.2018394608e-05 1.6218476215e+00 -2.8091224826e+00 1.6218476215e+00 2.8091224826e+00 
60100 6.1369421627e+00 -7.1309717170e-05 1.6218498418e+00 -2.8091263282e+00 1.6218498418e+00 2.8091263282e+00 
60200 6.1369421619e+00 -7.0609929989e-05 1.6218520402e+00 -2.8091301360e+00 1.6218520402e+00 2.8091301360e+00 
60300 6.1369421614e+00 -7.2083968160e-05 1.6218520402e+00 -2.8091301360e+00 1.6218520402e+00 2.8091301360e+00 
60400 6.1369421607e+00 -7.1337542680e-05 1.6218542625e+00 -2.8091339851e+00 1.6218542625e+00 2.8091339851e+00 
60500 6.1369421601e+00 -7.0601516886e-05 1.6218564617e+00 -2.8091377943e+00 1.6218564617e+00 2.8091377943e+00 
60600 6.1369421596e+00 -7.2040485101e-05 1.6218564617e+00 -2.8091377943e+00 1.6218564617e+00 2.8091377943e+00 
60700 6.1369421590e+00 -7.1260627782e-05 1.6218586827e+00 -2.8091416411e+00 1.6218586827e+00 2.8091416411e+00 
60800 6.1369421583e+00 -7.0492467078e-05 1.6218608795e+00 -2.8091454462e+00 1.6218608795e+00 2.8091454462e+00 
60900 6.1369421579e+00 -7.1897181494e-05 1.6218608795e+00 -2.8091454462e+00 1.6218608795e+00 2.8091454462e+00 
61000 6.1369421573e+00 -7.1087694953e-05 1.6218630960e+00 -2.8091492853e+00 1.6218630960e+00 2.8091492853e+00 
61100 6.1369421567e+00 -7.0291018479e-05 1.6218652876e+00 -2.8091530811e+00 1.6218652876e+00 2.8091530811e+00 
61200 6.1369421564e+00 -7.1662091202e-05 1.6218652876e+00 -2.8091530811e+00 1.6218652876e+00 2.8091530811e+00 
61300 6.1369421558e+00 -7.0826340569e-05 1.6218674968e+00 -2.8091569077e+00 1.6218674968e+00 2.8091569077e+00 
61400 6.1369421553e+00 -7.0004355787e-05 1.6218696803e+00 -2.8091606896e+00 1.6218696803e+00 2.8091606896e+00 
61500 6.1369421549e+00 -7.1342232341e-05 1.6218696803e+00 -2.8091606896e+00 1.6218696803e+00 2.8091606896e+00 
61600 6.1369421544e+00 -7.0483212924e-05 1.6218718797e+00 -2.8091644990e+00 1.6218718797e+00 2.8091644990e+00 
61700 6.1369421541e+00 -7.1800150372e-05 1.6218718797e+00 -2.8091644990e+00 1.6218718797e+00 2.8091644990e+00 
61800 6.1369421536e+00 -7.0906427294e-05 1.6218740932e+00 -2.8091683329e+00 1.6218740932e+00 2.8091683329e+00 
61900 6.1369421532e+00 -7.0028588351e-05 1.6218762791e+00 -2.8091721191e+00 1.6218762791e+00 2.8091721191e+00 
62000 6.1369421529e+00 -7.1313359898e-05 1.6218762791e+00 -2.8091721191e+00 1.6218762791e+00 2.8091721191e+00 
62100 6.1369421524e+00 -7.0402409590e-05 1.6218784776e+00 -2.8091759269e+00 1.6218784776e+00 2.8091759269e+00 
62200 6.1369421522e+00 -7.1666762744e-05 1.6218784776e+00 -2.8091759269e+00 1.6218784776e+00 2.8091759269e+00 
62300 6.1369421518e+00 -7.0724774136e-05 1.6218806870e+00 -2.8091797537e+00 1.6218806870e+00 2.8091797537e+00 
62400 6.1369421513e+00 -6.9800342563e-05 1.6218828673e+00 -2.8091835301e+00 1.6218828673e+00 2.8091835301e+00 
62500 6.1369421511e+00 -7.1033107591e-05 1.6218828673e+00 -2.8091835301e+00 1.6218828673e+00 2.8091835301e+00 
62600 6.1369421507e+00 -7.0078898499e-05 1.6218850572e+00 -2.8091873230e+00 1.6218850572e+00 2.8091873230e+00 
62700 6.1369421505e+00 -7.1291514225e-05 1.6218850572e+00 -2.8091873230e+00 1.6218850572e+00 2.8091873230e+00 
62800 6.1369421501e+00 -7.0309408414e-05 1.6218872550e+00 -2.8091911297e+00 1.6218872550e+00 2.8091911297e+00 
62900 6.1369421500e+00 -7.1502194082e-05 1.6218872550e+00 -2.8091911297e+00 1.6218872550e+00 2.8091911297e+00 
63000 6.1369421496e+00 -7.0493944010e-05 1.6218894593e+00 -2.8091949477e+00 1.6218894593e+00 2.8091949477e+00 
63100 6.1369421494e+00 -7.1667161445e-05 1.6218894593e+00 -2.8091949477e+00 1.6218894593e+00 2.8091949477e+00 
63200 6.1369421491e+00 -7.0634403830e-05 1.6218916686e+00 -2.8091987744e+00 1.6218916686e+00 2.8091987744e+00 
63300 6.1369421489e+00 -7.1788264196e-05 1.6218916686e+00 -2.8091987744e+00 1.6218916686e+00 2.8091987744e+00 
63400 6.1369421486e+00 -7.0732531709e-05 1.6218938817e+00 -2.8092026076e+00 1.6218938817e+00 2.8092026076e+00 
63500 6.1369421483e+00 -6.9698232231e-05 1.6218960623e+00 -2.8092063845e+00 1.6218960623e+00 2.8092063845e+00 
63600 6.1369421482e+00 -7.0821680757e-05 1.6218960623e+00 -2.8092063845e+00 1.6218960623e+00 2.8092063845e+00 
63700 6.1369421478e+00 -6.9764962121e-05 1.6218982456e+00 -2.8092101661e+00 1.6218982456e+00 2.8092101661e+00 
63800 6.1369421477e+00 -7.0868817393e-05 1.6218982456e+00 -2.8092101661e+00 1.6218982456e+00 2.8092101661e+00 
63900 6.1369421474e+00 -6.9791156143e-05 1.6219004303e+00 -2.8092139502e+00 1.6219004303e+00 2.8092139502e+00 
64000 6.1369421473e+00 -7.0875590880e-05 1.6219004303e+00 -2.8092139502e+00 1.6219004303e+00 2.8092139502e+00 
64100 6.1369421471e+00 -6.9778381817e-05 1.6219026153e+00 -2.8092177346e+00 1.6219026153e+00 2.8092177346e+00 
64200 6.1369421470e+00 -7.0843540076e-05 1.6219026153e+00 -2.8092177346e+00 1.6219026153e+00 2.8092177346e+00 
64300 6.1369421467e+00 -6.9728104619e-05 1.6219047993e+00 -2.8092215173e+00 1.6219047993e+00 2.8092215173e+00 
64400 6.1369421466e+00 -7.0774106624e-05 1.6219047993e+00 -2.8092215173e+00 1.6219047993e+00 2.8092215173e+00 
64500 6.1369421464e+00 -6.9641700468e-05 1.6219069811e+00 -2.8092252964e+00 1.6219069811e+00 2.8092252964e+00 
64600 6.1369421463e+00 -7.0668647144e-05 1.6219069811e+00 -2.8092252964e+00 1.6219069811e+00 2.8092252964e+00 
64700 6.1369421463e+00 -7.1687448612e-05 1.6219069811e+00 -2.8092252964e+00 1.6219069811e+00 2.8092252964e+00 
64800 6.1369421460e+00 -7.0500248262e-05 1.6219091911e+00 -2.8092291242e+00 1.6219091911e+00 2.8092291242e+00 
64900 6.1369421460e+00 -7.1500749498e-05 1.6219091911e+00 -2.8092291242e+00 1.6219091911e+00 2.8092291242e+00 
65000 6.1369421457e+00 -7.0300965335e-05 1.6219113953e+00 -2.8092329420e+00 1.6219113953e+00 2.8092329420e+00 
65100 6.1369421457e+00 -7.1283144575e-05 1.6219113953e+00 -2.8092329420e+00 1.6219113953e+00 2.8092329420e+00 
65200 6.1369421455e+00 -7.0071700831e-05 1.6219135928e+00 -2.8092367482e+00 1.6219135928e+00 2.8092367482e+00 
65300 6.1369421455e+00 -7.1035534936e-05 1.6219135928e+00 -2.8092367482e+00 1.6219135928e+00 2.8092367482e+00 
65400 6.1369421452e+00 -6.9813328549e-05 1.6219157826e+00 -2.8092405411e+00 1.6219157826e+00 2.8092405411e+00 
65500 6.1369421452e+00 -7.0758796339e-05 1.6219157826e+00 -2.8092405411e+00 1.6219157826e+00 2.8092405411e+00 
65600 6.1369421450e+00 -6.9526700899e-05 1.6219179640e+00 -2.8092443193e+00 1.6219179640e+00 2.8092443193e+00 
65700 6.1369421450e+00 -7.0453786156e-05 1.6219179640e+00 -2.8092443193e+00 1.6219179640e+00 2.8092443193e+00 
65800 6.1369421450e+00 -7.1373022352e-05 1.6219179640e+00 -2.8092443193e+00 1.6219179640e+00 2.8092443193e+00 
65900 6.1369421448e+00 -7.0096197252e-05 1.6219201642e+00 -2.8092481303e+00 1.6219201642e+00 2.8092481303e+00 
66000 6.1369421448e+00 -7.0997670931e-05 1.6219201642e+00 -2.8092481303e+00 1.6219201642e+00 2.8092481303e+00 
66100 6.1369421446e+00 -6.9714547137e-05 1.6219223529e+00 -2.8092519212e+00 1.6219223529e+00 2.8092519212e+00 
66200 6.1369421446e+00 -7.0598173441e-05 1.6219223529e+00 -2.8092519212e+00 1.6219223529e+00 2.8092519212e+00 
66300 6.1369421446e+00 -7.1474198653e-05 1.6219223529e+00 -2.8092519212e+00 1.6219223529e+00 2.8092519212e+00 
66400 6.1369421445e+00 -7.0151304994e-05 1.6219245563e+00 -2.8092557376e+00 1.6219245563e+00 2.8092557376e+00 
66500 6.1369421445e+00 -7.1010019522e-05 1.6219245563e+00 -2.8092557376e+00 1.6219245563e+00 2.8092557376e+00 
66600 6.1369421443e+00 -6.9683977338e-05 1.6219267454e+00 -2.8092595292e+00 1.6219267454e+00 2.8092595292e+00 
66700 6.1369421443e+00 -7.0525250804e-05 1.6219267454e+00 -2.8092595292e+00 1.6219267454e+00 2.8092595292e+00 
66800 6.1369421444e+00 -7.1359110774e-05 1.6219267454e+00 -2.8092595292e+00 1.6219267454e+00 2.8092595292e+00 
66900 6.1369421442e+00 -6.9997769986e-05 1.6219289452e+00 -2.8092633394e+00 1.6219289452e+00 2.8092633394e+00 
67000 6.1369421442e+00 -7.0814672304e-05 1.6219289452e+00 -2.8092633394e+00 1.6219289452e+00 2.8092633394e+00 
67100 6.1369421441e+00 -6.9452981798e-05 1.6219311282e+00 -2.8092671205e+00 1.6219311282e+00 2.8092671205e+00 
67200 6.1369421441e+00 -7.0252770388e-05 1.6219311282e+00 -2.8092671205e+00 1.6219311282e+00 2.8092671205e+00 
67300 6.1369421441e+00 -7.1045296737e-05 1.6219311282e+00 -2.8092671205e+00 1.6219311282e+00 2.8092671205e+00 
67400 6.1369421440e+00 -6.9652401425e-05 1.6219333184e+00 -2.8092709139e+00 1.6219333184e+00 2.8092709139e+00 
67500 6.1369421440e+00 -7.0428269365e-05 1.6219333184e+00 -2.8092709139e+00 1.6219333184e+00 2.8092709139e+00 
67600 6.1369421441e+00 -7.1197090247e-05 1.6219333184e+00 -2.8092709139e+00 1.6219333184e+00 2.8092709139e+00 
67700 6.1369421439e+00 -6.9776045982e-05 1.6219355132e+00 -2.8092747155e+00 1.6219355132e+00 2.8092747155e+00 
67800 6.1369421440e+00 -7.0528604496e-05 1.6219355132e+00 -2.8092747155e+00 1.6219355132e+00 2.8092747155e+00 
67900 6.1369421440e+00 -7.1274302649e-05 1.6219355132e+00 -2.8092747155e+00 1.6219355132e+00 2.8092747155e+00 
68000 6.1369421439e+00 -6.9827952060e-05 1.6219377104e+00 -2.8092785211e+00 1.6219377104e+00 2.8092785211e+00 
68100 6.1369421439e+00 -7.0557734118e-05 1.6219377104e+00 -2.8092785211e+00 1.6219377104e+00 2.8092785211e+00 
68200 6.1369421440e+00 -7.1280818706e-05 1.6219377104e+00 -2.8092785211e+00 1.6219377104e+00 2.8092785211e+00 
68300 6.1369421438e+00 -6.9811816284e-05 1.6219399078e+00 -2.8092823272e+00 1.6219399078e+00 2.8092823272e+00 
68400 6.1369421439e+00 -7.0519290189e-05 1.6219399078e+00 -2.8092823272e+00 1.6219399078e+00 2.8092823272e+00 
68500 6.1369421440e+00 -7.1220210060e-05 1.6219399078e+00 -2.8092823272e+00 1.6219399078e+00 2.8092823272e+00 
68600 6.1369421438e+00 -6.9731044671e-05 1.6219421033e+00 -2.8092861299e+00 1.6219421033e+00 2.8092861299e+00 
68700 6.1369421439e+00 -7.0416626643e-05 1.6219421033e+00 -2.8092861299e+00 1.6219421033e+00 2.8092861299e+00 
68800 6.1369421439e+00 -7.1095782556e-05 1.6219421033e+00 -2.8092861299e+00 1.6219421033e+00 2.8092861299e+00 
68900 6.1369421438e+00 -6.9588797481e-05 1.6219442950e+00 -2.8092899260e+00 1.6219442950e+00 2.8092899260e+00 
69000 6.1369421439e+00 -7.0252863187e-05 1.6219442950e+00 -2.8092899260e+00 1.6219442950e+00 2.8092899260e+00 
69100 6.1369421439e+00 -7.0910618991e-05 1.6219442950e+00 -2.8092899260e+00 1.6219442950e+00 2.8092899260e+00 
69200 6.1369421438e+00 -6.9388029566e-05 1.6219464810e+00 -2.8092937122e+00 1.6219464810e+00 2.8092937122e+00 
69300 6.1369421439e+00 -7.0030924568e-05 1.6219464810e+00 -2.8092937122e+00 1.6219464810e+00 2.8092937122e+00 
69400 6.1369421440e+00 -7.0667617273e-05 1.6219464810e+00 -2.8092937122e+00 1.6219464810e+00 2.8092937122e+00 
69500 6.1369421440e+00 -7.1298380545e-05 1.6219464810e+00 -2.8092937122e+00 1.6219464810e+00 2.8092937122e+00 
69600 6.1369421439e+00 -6.9737278161e-05 1.6219486789e+00 -2.8092975192e+00 1.6219486789e+00 2.8092975192e+00 
69700 6.1369421440e+00 -7.0353876934e-05 1.6219486789e+00 -2.8092975192e+00 1.6219486789e+00 2.8092975192e+00 
69800 6.1369421440e+00 -7.0964603119e-05 1.6219486789e+00 -2.8092975192e+00 1.6219486789e+00 2.8092975192e+00 
69900 6.1369421439e+00 -6.9393759680e-05 1.6219508666e+00 -2.8093013083e+00 1.6219508666e+00 2.8093013083e+00 
70000 6.1369421440e+00 -6.9990445986e-05 1.6219508666e+00 -2.8093013083e+00 1.6219508666e+00 2.8093013083e+00 
70100 6.1369421441e+00 -7.0581316822e-05 1.6219508666e+00 -2.8093013083e+00 1.6219508666e+00 2.8093013083e+00 
70200 6.1369421441e+00 -7.1166629963e-05 1.6219508666e+00 -2.8093013083e+00 1.6219508666e+00 2.8093013083e+00 
70300 6.1369421440e+00 -6.9564485976e-05 1.6219530604e+00 -2.8093051081e+00 1.6219530604e+00 2.8093051081e+00 
70400 6.1369421441e+00 -7.0136341599e-05 1.6219530604e+00 -2.8093051081e+00 1.6219530604e+00 2.8093051081e+00 
70500 6.1369421442e+00 -7.0702656800e-05 1.6219530604e+00 -2.8093051081e+00 1.6219530604e+00 2.8093051081e+00 
70600 6.1369421442e+00 -7.1263677717e-05 1.6219530604e+00 -2.8093051081e+00 1.6219530604e+00 2.8093051081e+00 
70700 6.1369421441e+00 -6.9634523517e-05 1.6219552573e+00 -2.8093089132e+00 1.6219552573e+00 2.8093089132e+00 
70800 6.1369421442e+00 -7.0182576498e-05 1.6219552573e+00 -2.8093089132e+00 1.6219552573e+00 2.8093089132e+00 
70900 6.1369421443e+00 -7.0725319287e-05 1.6219552573e+00 -2.8093089132e+00 1.6219552573e+00 2.8093089132e+00 
71000 6.1369421441e+00 -6.9094386840e-05 1.6219574375e+00 -2.8093126895e+00 1.6219574375e+00 2.8093126895e+00 
71100 6.1369421442e+00 -6.9624159990e-05 1.6219574375e+00 -2.8093126895e+00 1.6219574375e+00 2.8093126895e+00 
71200 6.1369421443e+00 -7.0148619559e-05 1.6219574375e+00 -2.8093126895e+00 1.6219574375e+00 2.8093126895e+00 
71300 6.1369421444e+00 -7.0668004467e-05 1.6219574375e+00 -2.8093126895e+00 1.6219574375e+00 2.8093126895e+00 
71400 6.1369421444e+00 -7.1182542223e-05 1.6219574375e+00 -2.8093126895e+00 1.6219574375e+00 2.8093126895e+00 
71500 6.1369421443e+00 -6.9509833316e-05 1.6219596319e+00 -2.8093164902e+00 1.6219596319e+00 2.8093164902e+00 
71600 6.1369421444e+00 -7.0012248322e-05 1.6219596319e+00 -2.8093164902e+00 1.6219596319e+00 2.8093164902e+00 
71700 6.1369421445e+00 -7.0509749922e-05 1.6219596319e+00 -2.8093164902e+00 1.6219596319e+00 2.8093164902e+00 
71800 6.1369421445e+00 -7.1002558901e-05 1.6219596319e+00 -2.8093164902e+00 1.6219596319e+00 2.8093164902e+00 
71900 6.1369421444e+00 -6.9313793971e-05 1.6219618206e+00 -2.8093202813e+00 1.6219618206e+00 2.8093202813e+00 
72000 6.1369421445e+00 -6.9794778466e-05 1.6219618206e+00 -2.8093202813e+00 1.6219618206e+00 2.8093202813e+00 
72100 6.1369421446e+00 -7.0270987971e-05 1.6219618206e+00 -2.8093202813e+00 1.6219618206e+00 2.8093202813e+00 
72200 6.1369421446e+00 -7.0742637980e-05 1.6219618206e+00 -2.8093202813e+00 1.6219618206e+00 2.8093202813e+00 
72300 6.1369421445e+00 -6.9040817927e-05 1.6219640014e+00 -2.8093240585e+00 1.6219640014e+00 2.8093240585e+00 
72400 6.1369421446e+00 -6.9500906494e-05 1.6219640014e+00 -2.8093240585e+00 1.6219640014e+00 2.8093240585e+00 
72500 6.1369421447e+00 -6.9956341927e-05 1.6219640014e+00 -2.8093240585e+00 1.6219640014e+00 2.8093240585e+00 
72600 6.1369421448e+00 -7.0407335679e-05 1.6219640014e+00 -2.8093240585e+00 1.6219640014e+00 2.8093240585e+00 
72700 6.1369421448e+00 -7.0854089030e-05 1.6219640014e+00 -2.8093240585e+00 1.6219640014e+00 2.8093240585e+00 
72800 6.1369421447e+00 -6.9124265877e-05 1.6219661856e+00 -2.8093278417e+00 1.6219661856e+00 2.8093278417e+00 
72900 6.1369421448e+00 -6.9560050539e-05 1.6219661856e+00 -2.8093278417e+00 1.6219661856e+00 2.8093278417e+00 
73000 6.1369421449e+00 -6.9991460351e-05 1.6219661856e+00 -2.8093278417e+00 1.6219661856e+00 2.8093278417e+00 
73100 6.1369421449e+00 -7.0418694527e-05 1.6219661856e+00 -2.8093278417e+00 1.6219661856e+00 2.8093278417e+00 
73200 6.1369421450e+00 -7.0841942598e-05 1.6219661856e+00 -2.8093278417e+00 1.6219661856e+00 2.8093278417e+00 
73300 6.1369421449e+00 -6.9089235292e-05 1.6219683695e+00 -2.8093316242e+00 1.6219683695e+00 2.8093316242e+00 
73400 6.1369421450e+00 -6.9501990464e-05 1.6219683695e+00 -2.8093316242e+00 1.6219683695e+00 2.8093316242e+00 
73500 6.1369421450e+00 -6.9910592754e-05 1.6219683695e+00 -2.8093316242e+00 1.6219683695e+00 2.8093316242e+00 
73600 6.1369421451e+00 -7.0315231486e-05 1.6219683695e+00 -2.8093316242e+00 1.6219683695e+00 2.8093316242e+00 
73700 6.1369421452e+00 -7.0716086752e-05 1.6219683695e+00 -2.8093316242e+00 1.6219683695e+00 2.8093316242e+00 
73800 6.1369421451e+00 -6.8945045086e-05 1.6219705494e+00 -2.8093354000e+00 1.6219705494e+00 2.8093354000e+00 
73900 6.1369421451e+00 -6.9335791690e-05 1.6219705494e+00 -2.8093354000e+00 1.6219705494e+00 2.8093354000e+00 
74000 6.1369421452e+00 -6.9722563620e-05 1.6219705494e+00 -2.8093354000e+00 1.6219705494e+00 2.8093354000e+00 
74100 6.1369421453e+00 -7.0105542460e-05 1.6219705494e+00 -2.8093354000e+00 1.6219705494e+00 2.8093354000e+00 
74200 6.1369421453e+00 -7.0484900980e-05 1.6219705494e+00 -2.8093354000e+00 1.6219705494e+00 2.8093354000e+00 
74300 6.1369421454e+00 -7.0860803284e-05 1.6219705494e+00 -2.8093354000e+00 1.6219705494e+00 2.8093354000e+00 
74400 6.1369421453e+00 -6.9060688762e-05 1.6219727338e+00 -2.8093391835e+00 1.6219727338e+00 2.8093391835e+00 
74500 6.1369421453e+00 -6.9427085021e-05 1.6219727338e+00 -2.8093391835e+00 1.6219727338e+00 2.8093391835e+00 
74600 6.1369421454e+00 -6.9789787876e-05 1.6219727338e+00 -2.8093391835e+00 1.6219727338e+00 2.8093391835e+00 
74700 6.1369421455e+00 -7.0148965241e-05 1.6219727338e+00 -2.8093391835e+00 1.6219727338e+00 2.8093391835e+00 
74800 6.1369421455e+00 -7.0504776772e-05 1.6219727338e+00 -2.8093391835e+00 1.6219727338e+00 2.8093391835e+00 
74900 6.1369421456e+00 -7.0857374012e-05 1.6219727338e+00 -2.8093391835e+00 1.6219727338e+00 2.8093391835e+00 
75000 6.1369421455e+00 -6.9034295252e-05 1.6219749181e+00 -2.8093429668e+00 1.6219749181e+00 2.8093429668e+00 
75100 6.1369421456e+00 -6.9377834989e-05 1.6219749181e+00 -2.8093429668e+00 1.6219749181e+00 2.8093429668e+00 
75200 6.1369421456e+00 -6.9717888845e-05 1.6219749181e+00 -2.8093429668e+00 1.6219749181e+00 2.8093429668e+00 
75300 6.1369421457e+00 -7.0054614320e-05 1.6219749181e+00 -2.8093429668e+00 1.6219749181e+00 2.8093429668e+00 
75400 6.1369421457e+00 -7.0388161172e-05 1.6219749181e+00 -2.8093429668e+00 1.6219749181e+00 2.8093429668e+00 
75500 6.1369421458e+00 -7.0718671558e-05 1.6219749181e+00 -2.8093429668e+00 1.6219749181e+00 2.8093429668e+00 
75600 6.1369421457e+00 -6.8877933668e-05 1.6219770981e+00 -2.8093467427e+00 1.6219770981e+00 2.8093467427e+00 
75700 6.1369421457e+00 -6.9199722074e-05 1.6219770981e+00 -2.8093467427e+00 1.6219770981e+00 2.8093467427e+00 
75800 6.1369421458e+00 -6.9518178587e-05 1.6219770981e+00 -2.8093467427e+00 1.6219770981e+00 2.8093467427e+00 
75900 6.1369421459e+00 -6.9833453200e-05 1.6219770981e+00 -2.8093467427e+00 1.6219770981e+00 2.8093467427e+00 
76000 6.1369421459e+00 -7.0145688644e-05 1.6219770981e+00 -2.8093467427e+00 1.6219770981e+00 2.8093467427e+00 
76100 6.1369421460e+00 -7.0455020495e-05 1.6219770981e+00 -2.8093467427e+00 1.6219770981e+00 2.8093467427e+00 
76200 6.1369421461e+00 -7.0761577300e-05 1.6219770981e+00 -2.8093467427e+00 1.6219770981e+00 2.8093467427e+00 
76300 6.1369421459e+00 -6.8895824434e-05 1.6219792795e+00 -2.8093505209e+00 1.6219792795e+00 2.8093505209e+00 
76400 6.1369421460e+00 -6.9194141779e-05 1.6219792795e+00 -2.8093505209e+00 1.6219792795e+00 2.8093505209e+00 
76500 6.1369421460e+00 -6.9489350848e-05 1.6219792795e+00 -2.8093505209e+00 1.6219792795e+00 2.8093505209e+00 
76600 6.1369421461e+00 -6.9781590318e-05 1.6219792795e+00 -2.8093505209e+00 1.6219792795e+00 2.8093505209e+00 
76700 6.1369421462e+00 -7.0070992149e-05 1.6219792795e+00 -2.8093505209e+00 1.6219792795e+00 2.8093505209e+00 
76800 6.1369421462e+00 -7.0357681687e-05 1.6219792795e+00 -2.8093505209e+00 1.6219792795e+00 2.8093505209e+00 
76900 6.1369421463e+00 -7.0641777785e-05 1.6219792795e+00 -2.8093505209e+00 1.6219792795e+00 2.8093505209e+00 
77000 6.1369421463e+00 -7.0923392928e-05 1.6219792795e+00 -2.8093505209e+00 1.6219792795e+00 2.8093505209e+00 
77100 6.1369421462e+00 -6.9028021300e-05 1.6219814658e+00 -2.8093543077e+00 1.6219814658e+00 2.8093543077e+00 
77200 6.1369421463e+00 -6.9301932648e-05 1.6219814658e+00 -2.8093543077e+00 1.6219814658e+00 2.8093543077e+00 
77300 6.1369421463e+00 -6.9572983946e-05 1.6219814658e+00 -2.8093543077e+00 1.6219814658e+00 2.8093543077e+00 
77400 6.1369421464e+00 -6.9841300464e-05 1.6219814658e+00 -2.8093543077e+00 1.6219814658e+00 2.8093543077e+00 
77500 6.1369421464e+00 -7.0107001377e-05 1.6219814658e+00 -2.8093543077e+00 1.6219814658e+00 2.8093543077e+00 
77600 6.1369421465e+00 -7.0370199868e-05 1.6219814658e+00 -2.8093543077e+00 1.6219814658e+00 2.8093543077e+00 
77700 6.1369421465e+00 -7.0631003241e-05 1.6219814658e+00 -2.8093543077e+00 1.6219814658e+00 2.8093543077e+00 
77800 6.1369421466e+00 -7.0889513024e-05 1.6219814658e+00 -2.8093543077e+00 1.6219814658e+00 2.8093543077e+00 
77900 6.1369421464e+00 -6.8972257863e-05 1.6219836511e+00 -2.8093580927e+00 1.6219836511e+00 2.8093580927e+00 
78000 6.1369421465e+00 -6.9223409580e-05 1.6219836511e+00 -2.8093580927e+00 1.6219836511e+00 2.8093580927e+00 
78100 6.1369421465e+00 -6.9471859580e-05 1.6219836511e+00 -2.8093580927e+00 1.6219836511e+00 2.8093580927e+00 
78200 6.1369421466e+00 -6.9717724459e-05 1.6219836511e+00 -2.8093580927e+00 1.6219836511e+00 2.8093580927e+00 
78300 6.1369421466e+00 -6.9961115266e-05 1.6219836511e+00 -2.8093580927e+00 1.6219836511e+00 2.8093580927e+00 
78400 6.1369421467e+00 -7.0202137586e-05 1.6219836511e+00 -2.8093580927e+00 1.6219836511e+00 2.8093580927e+00 
78500 6.1369421467e+00 -7.0440891645e-05 1.6219836511e+00 -2.8093580927e+00 1.6219836511e+00 2.8093580927e+00 
78600 6.1369421468e+00 -7.0677472400e-05 1.6219836511e+00 -2.8093580927e+00 1.6219836511e+00 2.8093580927e+00 
78700 6.1369421468e+00 -7.0911969652e-05 1.6219836511e+00 -2.8093580927e+00 1.6219836511e+00 2.8093580927e+00 
78800 6.1369421467e+00 -6.8970218394e-05 1.6219858370e+00 -2.8093618789e+00 1.6219858370e+00 2.8093618789e+00 
78900 6.1369421467e+00 -6.9197744033e-05 1.6219858370e+00 -2.8093618789e+00 1.6219858370e+00 2.8093618789e+00 
79000 6.1369421468e+00 -6.9422746204e-05 1.6219858370e+00 -2.8093618789e+00 1.6219858370e+00 2.8093618789e+00 
79100 6.1369421468e+00 -6.9645332128e-05 1.6219858370e+00 -2.8093618789e+00 1.6219858370e+00 2.8093618789e+00 
79200 6.1369421469e+00 -6.9865604037e-05 1.6219858370e+00 -2.8093618789e+00 1.6219858370e+00 2.8093618789e+00 
79300 6.1369421469e+00 -7.0083659247e-05 1.6219858370e+00 -2.8093618789e+00 1.6219858370e+00 2.8093618789e+00 
79400 6.1369421470e+00 -7.0299590246e-05 1.6219858370e+00 -2.8093618789e+00 1.6219858370e+00 2.8093618789e+00 
79500 6.1369421470e+00 -7.0513484779e-05 1.6219858370e+00 -2.8093618789e+00 1.6219858370e+00 2.8093618789e+00 
79600 6.1369421471e+00 -7.0725425933e-05 1.6219858370e+00 -2.8093618789e+00 1.6219858370e+00 2.8093618789e+00 
79700 6.1369421469e+00 -6.8766968401e-05 1.6219880172e+00 -2.8093656551e+00 1.6219880172e+00 2.8093656551e+00 
79800 6.1369421470e+00 -6.8972188101e-05 1.6219880172e+00 -2.8093656551e+00 1.6219880172e+00 2.8093656551e+00 
79900 6.1369421470e+00 -6.9174999038e-05 1.6219880172e+00 -2.8093656551e+00 1.6219880172e+00 2.8093656551e+00 
80000 6.1369421470e+00 -6.9375503524e-05 1.6219880172e+00 -2.8093656551e+00 1.6219880172e+00 2.8093656551e+00 
80100 6.1369421471e+00 -6.9573799316e-05 1.6219880172e+00 -2.8093656551e+00 1.6219880172e+00 2.8093656551e+00 
80200 6.1369421471e+00 -6.9769979688e-05 1.6219880172e+00 -2.8093656551e+00 1.6219880172e+00 2.8093656551e+00 
80300 6.1369421472e+00 -6.9964133494e-05 1.6219880172e+00 -2.8093656551e+00 1.6219880172e+00 2.8093656551e+00 
80400 6.1369421472e+00 -7.0156345240e-05 1.6219880172e+00 -2.8093656551e+00 1.6219880172e+00 2.8093656551e+00 
80500 6.1369421473e+00 -7.0346695156e-05 1.6219880172e+00 -2.8093656551e+00 1.6219880172e+00 2.8093656551e+00 
80600 6.1369421473e+00 -7.0535259288e-05 1.6219880172e+00 -2.8093656551e+00 1.6219880172e+00 2.8093656551e+00 
80700 6.1369421473e+00 -7.0722109573e-05 1.6219880172e+00 -2.8093656551e+00 1.6219880172e+00 2.8093656551e+00 
80800 6.1369421472e+00 -6.8738897863e-05 1.6219901973e+00 -2.8093694312e+00 1.6219901973e+00 2.8093694312e+00 
80900 6.1369421472e+00 -6.8919474603e-05 1.6219901973e+00 -2.8093694312e+00 1.6219901973e+00 2.8093694312e+00 
81000 6.1369421473e+00 -6.9097851872e-05 1.6219901973e+00 -2.8093694312e+00 1.6219901973e+00 2.8093694312e+00 
81100 6.1369421473e+00 -6.9274122921e-05 1.6219901973e+00 -2.8093694312e+00 1.6219901973e+00 2.8093694312e+00 
81200 6.1369421473e+00 -6.9448376957e-05 1.6219901973e+00 -2.8093694312e+00 1.6219901973e+00 2.8093694312e+00 
81300 6.1369421474e+00 -6.9620699184e-05 1.6219901973e+00 -2.8093694312e+00 1.6219901973e+00 2.8093694312e+00 
81400 6.1369421474e+00 -6.9791170871e-05 1.6219901973e+00 -2.8093694312e+00 1.6219901973e+00 2.8093694312e+00 
81500 6.1369421474e+00 -6.9959869409e-05 1.6219901973e+00 -2.8093694312e+00 1.6219901973e+00 2.8093694312e+00 
81600 6.1369421475e+00 -7.0126868377e-05 1.6219901973e+00 -2.8093694312e+00 1.6219901973e+00 2.8093694312e+00 
81700 6.1369421475e+00 -7.0292237604e-05 1.6219901973e+00 -2.8093694312e+00 1.6219901973e+00 2.8093694312e+00 
81800 6.1369421475e+00 -7.0456043254e-05 1.6219901973e+00 -2.8093694312e+00 1.6219901973e+00 2.8093694312e+00 
81900 6.1369421476e+00 -7.0618347888e-05 1.6219901973e+00 -2.8093694312e+00 1.6219901973e+00 2.8093694312e+00 
82000 6.1369421476e+00 -7.0779210547e-05 1.6219901973e+00 -2.8093694312e+00 1.6219901973e+00 2.8093694312e+00 
82100 6.1369421475e+00 -6.8768526122e-05 1.6219923792e+00 -2.8093732103e+00 1.6219923792e+00 2.8093732103e+00 
82200 6.1369421475e+00 -6.8923620194e-05 1.6219923792e+00 -2.8093732103e+00 1.6219923792e+00 2.8093732103e+00 
82300 6.1369421475e+00 -6.9076750890e-05 1.6219923792e+00 -2.8093732103e+00 1.6219923792e+00 2.8093732103e+00 
82400 6.1369421476e+00 -6.9228000876e-05 1.6219923792e+00 -2.8093732103e+00 1.6219923792e+00 2.8093732103e+00 
82500 6.1369421476e+00 -6.9377449311e-05 1.6219923792e+00 -2.8093732103e+00 1.6219923792e+00 2.8093732103e+00 
82600 6.1369421476e+00 -6.9525171891e-05 1.6219923792e+00 -2.8093732103e+00 1.6219923792e+00 2.8093732103e+00 
82700 6.1369421477e+00 -6.9671240901e-05 1.6219923792e+00 -2.8093732103e+00 1.6219923792e+00 2.8093732103e+00 
82800 6.1369421477e+00 -6.9815725266e-05 1.6219923792e+00 -2.8093732103e+00 1.6219923792e+00 2.8093732103e+00 
82900 6.1369421477e+00 -6.9958690596e-05 1.6219923792e+00 -2.8093732103e+00 1.6219923792e+00 2.8093732103e+00 
83000 6.1369421477e+00 -7.0100199256e-05 1.6219923792e+00 -2.8093732103e+00 1.6219923792e+00 2.8093732103e+00 
83100 6.1369421478e+00 -7.0240310409e-05 1.6219923792e+00 -2.8093732103e+00 1.6219923792e+00 2.8093732103e+00 
83200 6.1369421478e+00 -7.0379080096e-05 1.6219923792e+00 -2.8093732103e+00 1.6219923792e+00 2.8093732103e+00 
83300 6.1369421478e+00 -7.0516561294e-05 1.6219923792e+00 -2.8093732103e+00 1.6219923792e+00 2.8093732103e+00 
83400 6.1369421479e+00 -7.0652803977e-05 1.6219923792e+00 -2.8093732103e+00 1.6219923792e+00 2.8093732103e+00 
83500 6.1369421479e+00 -7.0787855199e-05 1.6219923792e+00 -2.8093732103e+00 1.6219923792e+00 2.8093732103e+00 
83600 6.1369421477e+00 -6.8751339641e-05 1.6219945613e+00 -2.8093769898e+00 1.6219945613e+00 2.8093769898e+00 
83700 6.1369421478e+00 -6.8881089294e-05 1.6219945613e+00 -2.8093769898e+00 1.6219945613e+00 2.8093769898e+00 
83800 6.1369421478e+00 -6.9009093489e-05 1.6219945613e+00 -2.8093769898e+00 1.6219945613e+00 2.8093769898e+00 
83900 6.1369421478e+00 -6.9072463950e-05 1.6219945613e+00 -2.8093769898e+00 1.6219945613e+00 2.8093769898e+00 
83900 6.1369421478e+00 -6.9072463950e-05 1.6219945613e+00 -2.8093769898e+00 1.6219945613e+00 2.8093769898e+00 
