# step Hamiltonian StressXX CellTensor1 CellTensor2 CellTensor3 CellTensor4 
0 3.8603011510e+00 -1.7836882420e-01 1.3385767752e+00 -2.3184829844e+00 1.3385767752e+00 2.3184829844e+00 
100 3.8554217133e+00 -1.7260456570e-01 1.3385767752e+00 -2.3184829844e+00 1.3385767752e+00 2.3184829844e+00 
200 3.8490633189e+00 -1.6639597993e-01 1.3450292426e+00 -2.3296589858e+00 1.3450292426e+00 2.3296589858e+00 
300 3.8430145765e+00 -1.6070789488e-01 1.3512195517e+00 -2.3403809157e+00 1.3512195517e+00 2.3403809157e+00 
400 3.8372548008e+00 -1.5546950905e-01 1.3571706666e+00 -2.3506885492e+00 1.3571706666e+00 2.3506885492e+00 
500 3.8317637247e+00 -1.5062283254e-01 1.3629023852e+00 -2.3606161769e+00 1.3629023852e+00 2.3606161769e+00 
600 3.8265224194e+00 -1.4611987310e-01 1.3684319156e+00 -2.3701936044e+00 1.3684319156e+00 2.3701936044e+00 
700 3.8215138179e+00 -1.4192048991e-01 1.3737743267e+00 -2.3794469320e+00 1.3737743267e+00 2.3794469320e+00 
800 3.8167229508e+00 -1.3799075565e-01 1.3789429010e+00 -2.3883991652e+00 1.3789429010e+00 2.3883991652e+00 
900 3.8121369801e+00 -1.3430170553e-01 1.3839494137e+00 -2.3970706997e+00 1.3839494137e+00 2.3970706997e+00 
1000 3.8077450967e+00 -1.3082838035e-01 1.3888043566e+00 -2.4054797075e+00 1.3888043566e+00 2.4054797075e+00 
1100 3.8035383311e+00 -1.2754909283e-01 1.3935171184e+00 -2.4136424502e+00 1.3935171184e+00 2.4136424502e+00 
1200 3.7995093146e+00 -1.2444486319e-01 1.3980961321e+00 -2.4215735346e+00 1.3980961321e+00 2.4215735346e+00 
1300 3.7956520189e+00 -1.2149898248e-01 1.4025489974e+00 -2.4292861237e+00 1.4025489974e+00 2.4292861237e+00 
1400 3.7919614933e+00 -1.1869667248e-01 1.4068825831e+00 -2.4367921143e+00 1.4068825831e+00 2.4367921143e+00 
1500 3.7884336139e+00 -1.1602481799e-01 1.4111031135e+00 -2.4441022872e+00 1.4111031135e+00 2.4441022872e+00 
1600 3.7850648531e+00 -1.1347175343e-01 1.4152162428e+00 -2.4512264362e+00 1.4152162428e+00 2.4512264362e+00 
1700 3.7818520761e+00 -1.1102709010e-01 1.4192271202e+00 -2.4581734796e+00 1.4192271202e+00 2.4581734796e+00 
1800 3.7787923654e+00 -1.0868157376e-01 1.4231404455e+00 -2.4649515580e+00 1.4231404455e+00 2.4649515580e+00 
1900 3.7758828766e+00 -1.0642696486e-01 1.4269605198e+00 -2.4715681207e+00 1.4269605198e+00 2.4715681207e+00 
2000 3.7731207221e+00 -1.0425593579e-01 1.4306912887e+00 -2.4780300020e+00 1.4306912887e+00 2.4780300020e+00 
2100 3.7705028829e+00 -1.0216198098e-01 1.4343363824e+00 -2.4843434894e+00 1.4343363824e+00 2.4843434894e+00 
2200 3.7680261457e+00 -1.0013933688e-01 1.4378991503e+00 -2.4905143844e+00 1.4378991503e+00 2.4905143844e+00 
2300 3.7656870620e+00 -9.8182909583e-02 1.4413826928e+00 -2.4965480571e+00 1.4413826928e+00 2.4965480571e+00 
2400 3.7634819264e+00 -9.6288208768e-02 1.4447898894e+00 -2.5024494947e+00 1.4447898894e+00 2.5024494947e+00 
2500 3.7614067718e+00 -9.4451286710e-02 1.4481234238e+00 -2.5082233457e+00 1.4481234238e+00 2.5082233457e+00 
2600 3.7594573777e+00 -9.2668681820e-02 1.4513858066e+00 -2.5138739584e+00 1.4513858066e+00 2.5138739584e+00 
2700 3.7576292889e+00 -9.0937366145e-02 1.4545793951e+00 -2.5194054159e+00 1.4545793951e+00 2.5194054159e+00 
2800 3.7559178429e+00 -8.9254696575e-02 1.4577064113e+00 -2.5248215668e+00 1.4577064113e+00 2.5248215668e+00 
2900 3.7543182023e+00 -8.7618369520e-02 1.4607689578e+00 -2.5301260530e+00 1.4607689578e+00 2.5301260530e+00 
3000 3.7528253920e+00 -8.6026378947e-02 1.4637690314e+00 -2.5353223329e+00 1.4637690314e+00 2.5353223329e+00 
3100 3.7514343375e+00 -8.4476977663e-02 1.4667085356e+00 -2.5404137036e+00 1.4667085356e+00 2.5404137036e+00 
3200 3.7501399042e+00 -8.2968641770e-02 1.4695892909e+00 -2.5454033181e+00 1.4695892909e+00 2.5454033181e+00 
3300 3.7489369361e+00 -8.1500038216e-02 1.4724130442e+00 -2.5502942023e+00 1.4724130442e+00 2.5502942023e+00 
3400 3.7478202926e+00 -8.0069995354e-02 1.4751814767e+00 -2.5550892680e+00 1.4751814767e+00 2.5550892680e+00 
3500 3.7467848832e+00 -7.8677476419e-02 1.4778962105e+00 -2.5597913249e+00 1.4778962105e+00 2.5597913249e+00 
3600 3.7458256992e+00 -7.7321555819e-02 1.4805588147e+00 -2.5644030906e+00 1.4805588147e+00 2.5644030906e+00 
3700 3.7449378418e+00 -7.6001398106e-02 1.4831708097e+00 -2.5689271986e+00 1.4831708097e+00 2.5689271986e+00 
3800 3.7441165472e+00 -7.4716239510e-02 1.4857336717e+00 -2.5733662058e+00 1.4857336717e+00 2.5733662058e+00 
3900 3.7433572076e+00 -7.3465371877e-02 1.4882488357e+00 -2.5777225978e+00 1.4882488357e+00 2.5777225978e+00 
4000 3.7426553890e+00 -7.2248128865e-02 1.4907176985e+00 -2.5819987936e+00 1.4907176985e+00 2.5819987936e+00 
4100 3.7420068449e+00 -7.1063874222e-02 1.4931416206e+00 -2.5861971498e+00 1.4931416206e+00 2.5861971498e+00 
4200 3.7414075271e+00 -6.9911991993e-02 1.4955219280e+00 -2.5903199632e+00 1.4955219280e+00 2.5903199632e+00 
4300 3.7408535934e+00 -6.8791878476e-02 1.4978599136e+00 -2.5943694730e+00 1.4978599136e+00 2.5943694730e+00 
4400 3.7403414121e+00 -6.7702935761e-02 1.5001568383e+00 -2.5983478633e+00 1.5001568383e+00 2.5983478633e+00 
4500 3.7398675640e+00 -6.6644566680e-02 1.5024139318e+00 -2.6022572638e+00 1.5024139318e+00 2.6022572638e+00 
4600 3.7394288421e+00 -6.5616171019e-02 1.5046323930e+00 -2.6060997513e+00 1.5046323930e+00 2.6060997513e+00 
4700 3.7390222494e+00 -6.4617142811e-02 1.5068133907e+00 -2.6098773502e+00 1.5068133907e+00 2.6098773502e+00 
4800 3.7386449948e+00 -6.3646868590e-02 1.5089580639e+00 -2.6135920331e+00 1.5089580639e+00 2.6135920331e+00 
4900 3.7382944871e+00 -6.2704726438e-02 1.5110675219e+00 -2.6172457216e+00 1.5110675219e+00 2.6172457216e+00 
5000 3.7379683290e+00 -6.1790085720e-02 1.5131428447e+00 -2.6208402860e+00 1.5131428447e+00 2.6208402860e+00 
5100 3.7376643087e+00 -6.0902307363e-02 1.5151850829e+00 -2.6243775464e+00 1.5151850829e+00 2.6243775464e+00 
5200 3.7373803922e+00 -6.0040744595e-02 1.5171952582e+00 -2.6278592722e+00 1.5171952582e+00 2.6278592722e+00 
5300 3.7371147133e+00 -5.9204744022e-02 1.5191743633e+00 -2.6312871828e+00 1.5191743633e+00 2.6312871828e+00 
5400 3.7368655655e+00 -5.8393646970e-02 1.5211233623e+00 -2.6346629480e+00 1.5211233623e+00 2.6346629480e+00 
5500 3.7366313916e+00 -5.7606791014e-02 1.5230431905e+00 -2.6379881881e+00 1.5230431905e+00 2.6379881881e+00 
5600 3.7364107743e+00 -5.6843511624e-02 1.5249347553e+00 -2.6412644744e+00 1.5249347553e+00 2.6412644744e+00 
5700 3.7362024273e+00 -5.6103143870e-02 1.5267989359e+00 -2.6444933300e+00 1.5267989359e+00 2.6444933300e+00 
5800 3.7360051853e+00 -5.5385024144e-02 1.5286365840e+00 -2.6476762298e+00 1.5286365840e+00 2.6476762298e+00 
5900 3.7358179954e+00 -5.4688491856e-02 1.5304485239e+00 -2.6508146017e+00 1.5304485239e+00 2.6508146017e+00 
6000 3.7356399081e+00 -5.4012891065e-02 1.5322355529e+00 -2.6539098268e+00 1.5322355529e+00 2.6539098268e+00 
6100 3.7354700692e+00 -5.3357572041e-02 1.5339984423e+00 -2.6569632407e+00 1.5339984423e+00 2.6569632407e+00 
6200 3.7353077115e+00 -5.2721892713e-02 1.5357379370e+00 -2.6599761339e+00 1.5357379370e+00 2.6599761339e+00 
6300 3.7351521476e+00 -5.2105220006e-02 1.5374547567e+00 -2.6629497529e+00 1.5374547567e+00 2.6629497529e+00 
6400 3.7350027624e+00 -5.1506931055e-02 1.5391495962e+00 -2.6658853010e+00 1.5391495962e+00 2.6658853010e+00 
6500 3.7348590068e+00 -5.0926414290e-02 1.5408231259e+00 -2.6687839396e+00 1.5408231259e+00 2.6687839396e+00 
6600 3.7347203912e+00 -5.0363070389e-02 1.5424759927e+00 -2.6716467889e+00 1.5424759927e+00 2.6716467889e+00 
6700 3.7345864800e+00 -4.9816313098e-02 1.5441088202e+00 -2.6744749291e+00 1.5441088202e+00 2.6744749291e+00 
6800 3.7344568859e+00 -4.9285569930e-02 1.5457222097e+00 -2.6772694016e+00 1.5457222097e+00 2.6772694016e+00 
6900 3.7343312654e+00 -4.8770282738e-02 1.5473167405e+00 -2.6800312099e+00 1.5473167405e+00 2.6800312099e+00 
7000 3.7342093138e+00 -4.8269908174e-02 1.5488929709e+00 -2.6827613211e+00 1.5488929709e+00 2.6827613211e+00 
7100 3.7340907614e+00 -4.7783918039e-02 1.5504514386e+00 -2.6854606663e+00 1.5504514386e+00 2.6854606663e+00 
7200 3.7339753694e+00 -4.7311799534e-02 1.5519926615e+00 -2.6881301427e+00 1.5519926615e+00 2.6881301427e+00 
7300 3.7338629269e+00 -4.6853055412e-02 1.5535171383e+00 -2.6907706140e+00 1.5535171383e+00 2.6907706140e+00 
7400 3.7337532472e+00 -4.6407204055e-02 1.5550253491e+00 -2.6933829118e+00 1.5550253491e+00 2.6933829118e+00 
7500 3.7336461655e+00 -4.5973779466e-02 1.5565177563e+00 -2.6959678368e+00 1.5565177563e+00 2.6959678368e+00 
7600 3.7335415359e+00 -4.5552331201e-02 1.5579948047e+00 -2.6985261597e+00 1.5579948047e+00 2.6985261597e+00 
7700 3.7334392294e+00 -4.5142424234e-02 1.5594569228e+00 -2.7010586226e+00 1.5594569228e+00 2.7010586226e+00 
7800 3.7333391315e+00 -4.4743638772e-02 1.5609045230e+00 -2.7035659395e+00 1.5609045230e+00 2.7035659395e+00 
7900 3.7332411407e+00 -4.4355570026e-02 1.5623380020e+00 -2.7060487981e+00 1.5623380020e+00 2.7060487981e+00 
8000 3.7331451668e+00 -4.3977827941e-02 1.5637577422e+00 -2.7085078603e+00 1.5637577422e+00 2.7085078603e+00 
8100 3.7330511291e+00 -4.3610036890e-02 1.5651641114e+00 -2.7109437631e+00 1.5651641114e+00 2.7109437631e+00 
8200 3.7329589553e+00 -4.3251835346e-02 1.5665574637e+00 -2.7133571201e+00 1.5665574637e+00 2.7133571201e+00 
8300 3.7328685805e+00 -4.2902875532e-02 1.5679381402e+00 -2.7157485220e+00 1.5679381402e+00 2.7157485220e+00 
8400 3.7327799461e+00 -4.2562823042e-02 1.5693064694e+00 -2.7181185376e+00 1.5693064694e+00 2.7181185376e+00 
8500 3.7326929984e+00 -4.2231356469e-02 1.5706627675e+00 -2.7204677148e+00 1.5706627675e+00 2.7204677148e+00 
8600 3.7326076887e+00 -4.1908167000e-02 1.5720073392e+00 -2.7227965814e+00 1.5720073392e+00 2.7227965814e+00 
8700 3.7325239718e+00 -4.1592958023e-02 1.5733404782e+00 -2.7251056458e+00 1.5733404782e+00 2.7251056458e+00 
8800 3.7324418061e+00 -4.1285444719e-02 1.5746624672e+00 -2.7273953980e+00 1.5746624672e+00 2.7273953980e+00 
8900 3.7323611523e+00 -4.0985353662e-02 1.5759735789e+00 -2.7296663101e+00 1.5759735789e+00 2.7296663101e+00 
9000 3.7322819738e+00 -4.0692422411e-02 1.5772740762e+00 -2.7319188374e+00 1.5772740762e+00 2.7319188374e+00 
9100 3.7322042357e+00 -4.0406399111e-02 1.5785642123e+00 -2.7341534186e+00 1.5785642123e+00 2.7341534186e+00 
9200 3.7321279046e+00 -4.0127042100e-02 1.5798442316e+00 -2.7363704772e+00 1.5798442316e+00 2.7363704772e+00 
9300 3.7320529486e+00 -3.9854119516e-02 1.5811143699e+00 -2.7385704213e+00 1.5811143699e+00 2.7385704213e+00 
9400 3.7319793366e+00 -3.9587408919e-02 1.5823748546e+00 -2.7407536448e+00 1.5823748546e+00 2.7407536448e+00 
9500 3.7319070388e+00 -3.9326696915e-02 1.5836259052e+00 -2.7429205281e+00 1.5836259052e+00 2.7429205281e+00 
9600 3.7318360256e+00 -3.9071778794e-02 1.5848677336e+00 -2.7450714379e+00 1.5848677336e+00 2.7450714379e+00 
9700 3.7317662685e+00 -3.8822458171e-02 1.5861005444e+00 -2.7472067288e+00 1.5861005444e+00 2.7472067288e+00 
9800 3.7316977391e+00 -3.8578546649e-02 1.5873245351e+00 -2.7493267429e+00 1.5873245351e+00 2.7493267429e+00 
9900 3.7316304096e+00 -3.8339863480e-02 1.5885398967e+00 -2.7514318109e+00 1.5885398967e+00 2.7514318109e+00 
10000 3.7315642525e+00 -3.8106235242e-02 1.5897468136e+00 -2.7535222524e+00 1.5897468136e+00 2.7535222524e+00 
10100 3.7314992406e+00 -3.7877495531e-02 1.5909454642e+00 -2.7555983761e+00 1.5909454642e+00 2.7555983761e+00 
10200 3.7314353471e+00 -3.7653484656e-02 1.5921360209e+00 -2.7576604808e+00 1.5921360209e+00 2.7576604808e+00 
10300 3.7313725452e+00 -3.7434049354e-02 1.5933186505e+00 -2.7597088553e+00 1.5933186505e+00 2.7597088553e+00 
10400 3.7313108086e+00 -3.7219042506e-02 1.5944935142e+00 -2.7617437789e+00 1.5944935142e+00 2.7617437789e+00 
10500 3.7312501110e+00 -3.7008322872e-02 1.5956607682e+00 -2.7637655222e+00 1.5956607682e+00 2.7637655222e+00 
10600 3.7311904267e+00 -3.6801754834e-02 1.5968205637e+00 -2.7657743469e+00 1.5968205637e+00 2.7657743469e+00 
10700 3.7311317298e+00 -3.6599208147e-02 1.5979730469e+00 -2.7677705064e+00 1.5979730469e+00 2.7677705064e+00 
10800 3.7310739950e+00 -3.6400557704e-02 1.5991183596e+00 -2.7697542462e+00 1.5991183596e+00 2.7697542462e+00 
10900 3.7310171972e+00 -3.6205683310e-02 1.6002566391e+00 -2.7717258041e+00 1.6002566391e+00 2.7717258041e+00 
11000 3.7309613116e+00 -3.6014469464e-02 1.6013880184e+00 -2.7736854106e+00 1.6013880184e+00 2.7736854106e+00 
11100 3.7309063138e+00 -3.5826805148e-02 1.6025126266e+00 -2.7756332891e+00 1.6025126266e+00 2.7756332891e+00 
11200 3.7308521794e+00 -3.5642583637e-02 1.6036305887e+00 -2.7775696562e+00 1.6036305887e+00 2.7775696562e+00 
11300 3.7307988849e+00 -3.5461702300e-02 1.6047420260e+00 -2.7794947221e+00 1.6047420260e+00 2.7794947221e+00 
11400 3.7307464067e+00 -3.5284062427e-02 1.6058470563e+00 -2.7814086906e+00 1.6058470563e+00 2.7814086906e+00 
11500 3.7306947219e+00 -3.5109569049e-02 1.6069457936e+00 -2.7833117595e+00 1.6069457936e+00 2.7833117595e+00 
11600 3.7306438080e+00 -3.4938130779e-02 1.6080383490e+00 -2.7852041209e+00 1.6080383490e+00 2.7852041209e+00 
11700 3.7305936427e+00 -3.4769659649e-02 1.6091248299e+00 -2.7870859612e+00 1.6091248299e+00 2.7870859612e+00 
11800 3.7305442045e+00 -3.4604070965e-02 1.6102053411e+00 -2.7889574615e+00 1.6102053411e+00 2.7889574615e+00 
11900 3.7304954719e+00 -3.4441283158e-02 1.6112799841e+00 -2.7908187977e+00 1.6112799841e+00 2.7908187977e+00 
12000 3.7304474244e+00 -3.4281217654e-02 1.6123488576e+00 -2.7926701408e+00 1.6123488576e+00 2.7926701408e+00 
12100 3.7304000417e+00 -3.4123798739e-02 1.6134120574e+00 -2.7945116570e+00 1.6134120574e+00 2.7945116570e+00 
12200 3.7303533039e+00 -3.3968953434e-02 1.6144696770e+00 -2.7963435079e+00 1.6144696770e+00 2.7963435079e+00 
12300 3.7303071919e+00 -3.3816611383e-02 1.6155218071e+00 -2.7981658506e+00 1.6155218071e+00 2.7981658506e+00 
12400 3.7302616868e+00 -3.3666704731e-02 1.6165685357e+00 -2.7999788378e+00 1.6165685357e+00 2.7999788378e+00 
12500 3.7302167705e+00 -3.3519168026e-02 1.6176099490e+00 -2.8017826184e+00 1.6176099490e+00 2.8017826184e+00 
12600 3.7301724251e+00 -3.3373938110e-02 1.6186461303e+00 -2.8035773371e+00 1.6186461303e+00 2.8035773371e+00 
12700 3.7301286335e+00 -3.3230954023e-02 1.6196771610e+00 -2.8053631347e+00 1.6196771610e+00 2.8053631347e+00 
12800 3.7300853789e+00 -3.3090156913e-02 1.6207031204e+00 -2.8071401485e+00 1.6207031204e+00 2.8071401485e+00 
12900 3.7300426452e+00 -3.2951489942e-02 1.6217240856e+00 -2.8089085121e+00 1.6217240856e+00 2.8089085121e+00 
13000 3.7300004166e+00 -3.2814898207e-02 1.6227401317e+00 -2.8106683555e+00 1.6227401317e+00 2.8106683555e+00 
13100 3.7299586780e+00 -3.2680328656e-02 1.6237513319e+00 -2.8124198057e+00 1.6237513319e+00 2.8124198057e+00 
13200 3.7299174146e+00 -3.2547730011e-02 1.6247577576e+00 -2.8141629862e+00 1.6247577576e+00 2.8141629862e+00 
13300 3.7298766122e+00 -3.2417052699e-02 1.6257594784e+00 -2.8158980174e+00 1.6257594784e+00 2.8158980174e+00 
13400 3.7298362571e+00 -3.2288248778e-02 1.6267565620e+00 -2.8176250170e+00 1.6267565620e+00 2.8176250170e+00 
13500 3.7297963360e+00 -3.2161271870e-02 1.6277490747e+00 -2.8193440993e+00 1.6277490747e+00 2.8193440993e+00 
13600 3.7297568361e+00 -3.2036077102e-02 1.6287370809e+00 -2.8210553762e+00 1.6287370809e+00 2.8210553762e+00 
13700 3.7297177451e+00 -3.1912621042e-02 1.6297206435e+00 -2.8227589567e+00 1.6297206435e+00 2.8227589567e+00 
13800 3.7296790511e+00 -3.1790861642e-02 1.6306998241e+00 -2.8244549472e+00 1.6306998241e+00 2.8244549472e+00 
13900 3.7296407424e+00 -3.1670758184e-02 1.6316746824e+00 -2.8261434514e+00 1.6316746824e+00 2.8261434514e+00 
14000 3.7296028082e+00 -3.1552271226e-02 1.6326452771e+00 -2.8278245707e+00 1.6326452771e+00 2.8278245707e+00 
14100 3.7295652378e+00 -3.1435362551e-02 1.6336116653e+00 -2.8294984041e+00 1.6336116653e+00 2.8294984041e+00 
14200 3.7295280207e+00 -3.1319995122e-02 1.6345739027e+00 -2.8311650483e+00 1.6345739027e+00 2.8311650483e+00 
14300 3.7294911473e+00 -3.1206133035e-02 1.6355320440e+00 -2.8328245975e+00 1.6355320440e+00 2.8328245975e+00 
14400 3.7294546080e+00 -3.1093741473e-02 1.6364861422e+00 -2.8344771442e+00 1.6364861422e+00 2.8344771442e+00 
14500 3.7294183936e+00 -3.0982786668e-02 1.6374362495e+00 -2.8361227783e+00 1.6374362495e+00 2.8361227783e+00 
14600 3.7293824953e+00 -3.0873235858e-02 1.6383824167e+00 -2.8377615879e+00 1.6383824167e+00 2.8377615879e+00 
14700 3.7293469047e+00 -3.0765057251e-02 1.6393246934e+00 -2.8393936591e+00 1.6393246934e+00 2.8393936591e+00 
14800 3.7293116135e+00 -3.0658219986e-02 1.6402631283e+00 -2.8410190760e+00 1.6402631283e+00 2.8410190760e+00 
14900 3.7292766141e+00 -3.0552694101e-02 1.6411977689e+00 -2.8426379210e+00 1.6411977689e+00 2.8426379210e+00 
15000 3.7292418988e+00 -3.0448450497e-02 1.6421286616e+00 -2.8442502745e+00 1.6421286616e+00 2.8442502745e+00 
15100 3.7292074604e+00 -3.0345460907e-02 1.6430558519e+00 -2.8458562151e+00 1.6430558519e+00 2.8458562151e+00 
15200 3.7291732919e+00 -3.0243697868e-02 1.6439793841e+00 -2.8474558199e+00 1.6439793841e+00 2.8474558199e+00 
15300 3.7291393866e+00 -3.0143134685e-02 1.6448993019e+00 -2.8490491642e+00 1.6448993019e+00 2.8490491642e+00 
15400 3.7291057381e+00 -3.0043745411e-02 1.6458156477e+00 -2.8506363217e+00 1.6458156477e+00 2.8506363217e+00 
15500 3.7290723402e+00 -2.9945504814e-02 1.6467284632e+00 -2.8522173645e+00 1.6467284632e+00 2.8522173645e+00 
15600 3.7290391868e+00 -2.9848388355e-02 1.6476377892e+00 -2.8537923633e+00 1.6476377892e+00 2.8537923633e+00 
15700 3.7290062723e+00 -2.9752372161e-02 1.6485436655e+00 -2.8553613871e+00 1.6485436655e+00 2.8553613871e+00 
15800 3.7289735911e+00 -2.9657433003e-02 1.6494461313e+00 -2.8569245037e+00 1.6494461313e+00 2.8569245037e+00 
15900 3.7289411380e+00 -2.9563548272e-02 1.6503452248e+00 -2.8584817793e+00 1.6503452248e+00 2.8584817793e+00 
16000 3.7289089077e+00 -2.9470695957e-02 1.6512409834e+00 -2.8600332789e+00 1.6512409834e+00 2.8600332789e+00 
16100 3.7288768953e+00 -2.9378854627e-02 1.6521334440e+00 -2.8615790659e+00 1.6521334440e+00 2.8615790659e+00 
16200 3.7288450962e+00 -2.9288003407e-02 1.6530226424e+00 -2.8631192027e+00 1.6530226424e+00 2.8631192027e+00 
16300 3.7288135056e+00 -2.9198121962e-02 1.6539086139e+00 -2.8646537503e+00 1.6539086139e+00 2.8646537503e+00 
16400 3.7287821193e+00 -2.9109190477e-02 1.6547913929e+00 -2.8661827685e+00 1.6547913929e+00 2.8661827685e+00 
16500 3.7287509329e+00 -2.9021189640e-02 1.6556710134e+00 -2.8677063158e+00 1.6556710134e+00 2.8677063158e+00 
16600 3.7287199423e+00 -2.8934100624e-02 1.6565475084e+00 -2.8692244498e+00 1.6565475084e+00 2.8692244498e+00 
16700 3.7286891437e+00 -2.8847905071e-02 1.6574209106e+00 -2.8707372266e+00 1.6574209106e+00 2.8707372266e+00 
16800 3.7286585330e+00 -2.8762585080e-02 1.6582912516e+00 -2.8722447015e+00 1.6582912516e+00 2.8722447015e+00 
16900 3.7286281068e+00 -2.8678123184e-02 1.6591585628e+00 -2.8737469285e+00 1.6591585628e+00 2.8737469285e+00 
17000 3.7285978614e+00 -2.8594502343e-02 1.6600228747e+00 -2.8752439607e+00 1.6600228747e+00 2.8752439607e+00 
17100 3.7285677934e+00 -2.8511705928e-02 1.6608842175e+00 -2.8767358501e+00 1.6608842175e+00 2.8767358501e+00 
17200 3.7285378994e+00 -2.8429717707e-02 1.6617426205e+00 -2.8782226478e+00 1.6617426205e+00 2.8782226478e+00 
17300 3.7285081763e+00 -2.8348521830e-02 1.6625981126e+00 -2.8797044037e+00 1.6625981126e+00 2.8797044037e+00 
17400 3.7284786209e+00 -2.8268102822e-02 1.6634507223e+00 -2.8811811669e+00 1.6634507223e+00 2.8811811669e+00 
17500 3.7284492303e+00 -2.8188445567e-02 1.6643004772e+00 -2.8826529855e+00 1.6643004772e+00 2.8826529855e+00 
17600 3.7284200016e+00 -2.8109535298e-02 1.6651474046e+00 -2.8841199069e+00 1.6651474046e+00 2.8841199069e+00 
17700 3.7283909319e+00 -2.8031357585e-02 1.6659915314e+00 -2.8855819773e+00 1.6659915314e+00 2.8855819773e+00 
17800 3.7283620186e+00 -2.7953898327e-02 1.6668328836e+00 -2.8870392422e+00 1.6668328836e+00 2.8870392422e+00 
17900 3.7283332589e+00 -2.7877143740e-02 1.6676714872e+00 -2.8884917462e+00 1.6676714872e+00 2.8884917462e+00 
18000 3.7283046504e+00 -2.7801080347e-02 1.6685073674e+00 -2.8899395332e+00 1.6685073674e+00 2.8899395332e+00 
18100 3.7282761907e+00 -2.7725694969e-02 1.6693405490e+00 -2.8913826460e+00 1.6693405490e+00 2.8913826460e+00 
18200 3.7282478772e+00 -2.7650974719e-02 1.6701710564e+00 -2.8928211270e+00 1.6701710564e+00 2.8928211270e+00 
18300 3.7282197077e+00 -2.7576906987e-02 1.6709989134e+00 -2.8942550175e+00 1.6709989134e+00 2.8942550175e+00 
18400 3.7281916800e+00 -2.7503479437e-02 1.6718241436e+00 -2.8956843581e+00 1.6718241436e+00 2.8956843581e+00 
18500 3.7281637919e+00 -2.7430679999e-02 1.6726467701e+00 -2.8971091888e+00 1.6726467701e+00 2.8971091888e+00 
18600 3.7281360413e+00 -2.7358496857e-02 1.6734668153e+00 -2.8985295488e+00 1.6734668153e+00 2.8985295488e+00 
18700 3.7281084261e+00 -2.7286918446e-02 1.6742843016e+00 -2.8999454766e+00 1.6742843016e+00 2.8999454766e+00 
18800 3.7280809444e+00 -2.7215933443e-02 1.6750992507e+00 -2.9013570099e+00 1.6750992507e+00 2.9013570099e+00 
18900 3.7280535942e+00 -2.7145530759e-02 1.6759116841e+00 -2.9027641859e+00 1.6759116841e+00 2.9027641859e+00 
19000 3.7280263737e+00 -2.7075699535e-02 1.6767216228e+00 -2.9041670409e+00 1.6767216228e+00 2.9041670409e+00 
19100 3.7279992811e+00 -2.7006429134e-02 1.6775290876e+00 -2.9055656109e+00 1.6775290876e+00 2.9055656109e+00 
19200 3.7279723146e+00 -2.6937709136e-02 1.6783340986e+00 -2.9069599308e+00 1.6783340986e+00 2.9069599308e+00 
19300 3.7279454725e+00 -2.6869529330e-02 1.6791366758e+00 -2.9083500354e+00 1.6791366758e+00 2.9083500354e+00 
19400 3.7279187532e+00 -2.6801879711e-02 1.6799368389e+00 -2.9097359584e+00 1.6799368389e+00 2.9097359584e+00 
19500 3.7278921551e+00 -2.6734750471e-02 1.6807346070e+00 -2.9111177333e+00 1.6807346070e+00 2.9111177333e+00 
19600 3.7278656766e+00 -2.6668131999e-02 1.6815299990e+00 -2.9124953927e+00 1.6815299990e+00 2.9124953927e+00 
19700 3.7278393161e+00 -2.6602014871e-02 1.6823230335e+00 -2.9138689688e+00 1.6823230335e+00 2.9138689688e+00 
19800 3.7278130724e+00 -2.6536389847e-02 1.6831137288e+00 -2.9152384932e+00 1.6831137288e+00 2.9152384932e+00 
19900 3.7277869438e+00 -2.6471247866e-02 1.6839021027e+00 -2.9166039969e+00 1.6839021027e+00 2.9166039969e+00 
20000 3.7277609291e+00 -2.6406580044e-02 1.6846881730e+00 -2.9179655105e+00 1.6846881730e+00 2.9179655105e+00 
20100 3.7277350269e+00 -2.6342377664e-02 1.6854719568e+00 -2.9193230639e+00 1.6854719568e+00 2.9193230639e+00 
20200 3.7277092359e+00 -2.6278632177e-02 1.6862534712e+00 -2.9206766865e+00 1.6862534712e+00 2.9206766865e+00 
20300 3.7276835548e+00 -2.6215335197e-02 1.6870327329e+00 -2.9220264074e+00 1.6870327329e+00 2.9220264074e+00 
20400 3.7276579825e+00 -2.6152478495e-02 1.6878097583e+00 -2.9233722549e+00 1.6878097583e+00 2.9233722549e+00 
20500 3.7276325176e+00 -2.6090053995e-02 1.6885845636e+00 -2.9247142570e+00 1.6885845636e+00 2.9247142570e+00 
20600 3.7276071592e+00 -2.6028053775e-02 1.6893571646e+00 -2.9260524412e+00 1.6893571646e+00 2.9260524412e+00 
20700 3.7275819059e+00 -2.5966470057e-02 1.6901275769e+00 -2.9273868345e+00 1.6901275769e+00 2.9273868345e+00 
20800 3.7275567569e+00 -2.5905295208e-02 1.6908958158e+00 -2.9287174633e+00 1.6908958158e+00 2.9287174633e+00 
20900 3.7275317109e+00 -2.5844521736e-02 1.6916618965e+00 -2.9300443539e+00 1.6916618965e+00 2.9300443539e+00 
21000 3.7275067671e+00 -2.5784142287e-02 1.6924258336e+00 -2.9313675318e+00 1.6924258336e+00 2.9313675318e+00 
21100 3.7274819243e+00 -2.5724149638e-02 1.6931876417e+00 -2.9326870222e+00 1.6931876417e+00 2.9326870222e+00 
21200 3.7274571816e+00 -2.5664536701e-02 1.6939473352e+00 -2.9340028499e+00 1.6939473352e+00 2.9340028499e+00 
21300 3.7274325382e+00 -2.5605296515e-02 1.6947049281e+00 -2.9353150393e+00 1.6947049281e+00 2.9353150393e+00 
21400 3.7274079930e+00 -2.5546422243e-02 1.6954604342e+00 -2.9366236142e+00 1.6954604342e+00 2.9366236142e+00 
21500 3.7273835452e+00 -2.5487907175e-02 1.6962138671e+00 -2.9379285982e+00 1.6962138671e+00 2.9379285982e+00 
21600 3.7273591939e+00 -2.5429744716e-02 1.6969652401e+00 -2.9392300146e+00 1.6969652401e+00 2.9392300146e+00 
21700 3.7273349383e+00 -2.5371928394e-02 1.6977145665e+00 -2.9405278859e+00 1.6977145665e+00 2.9405278859e+00 
21800 3.7273107776e+00 -2.5314451849e-02 1.6984618590e+00 -2.9418222345e+00 1.6984618590e+00 2.9418222345e+00 
21900 3.7272867111e+00 -2.5257308836e-02 1.6992071304e+00 -2.9431130825e+00 1.6992071304e+00 2.9431130825e+00 
22000 3.7272627379e+00 -2.5200493220e-02 1.6999503932e+00 -2.9444004515e+00 1.6999503932e+00 2.9444004515e+00 
22100 3.7272388573e+00 -2.5143998974e-02 1.7006916597e+00 -2.9456843626e+00 1.7006916597e+00 2.9456843626e+00 
22200 3.7272150687e+00 -2.5087820179e-02 1.7014309418e+00 -2.9469648368e+00 1.7014309418e+00 2.9469648368e+00 
22300 3.7271913712e+00 -2.5031951019e-02 1.7021682516e+00 -2.9482418947e+00 1.7021682516e+00 2.9482418947e+00 
22400 3.7271677643e+00 -2.4976385781e-02 1.7029036005e+00 -2.9495155565e+00 1.7029036005e+00 2.9495155565e+00 
22500 3.7271442473e+00 -2.4921118853e-02 1.7036370001e+00 -2.9507858419e+00 1.7036370001e+00 2.9507858419e+00 
22600 3.7271208195e+00 -2.4866144720e-02 1.7043684617e+00 -2.9520527706e+00 1.7043684617e+00 2.9520527706e+00 
22700 3.7270974804e+00 -2.4811457966e-02 1.7050979964e+00 -2.9533163617e+00 1.7050979964e+00 2.9533163617e+00 
22800 3.7270742294e+00 -2.4757053267e-02 1.7058256151e+00 -2.9545766341e+00 1.7058256151e+00 2.9545766341e+00 
22900 3.7270510658e+00 -2.4702925394e-02 1.7065513284e+00 -2.9558336065e+00 1.7065513284e+00 2.9558336065e+00 
23000 3.7270279891e+00 -2.4649069210e-02 1.7072751470e+00 -2.9570872970e+00 1.7072751470e+00 2.9570872970e+00 
23100 3.7270049988e+00 -2.4595479666e-02 1.7079970811e+00 -2.9583377237e+00 1.7079970811e+00 2.9583377237e+00 
23200 3.7269820944e+00 -2.4542151802e-02 1.7087171411e+00 -2.9595849042e+00 1.7087171411e+00 2.9595849042e+00 
23300 3.7269592753e+00 -2.4489080746e-02 1.7094353369e+00 -2.9608288558e+00 1.7094353369e+00 2.9608288558e+00 
23400 3.7269365410e+00 -2.4436261709e-02 1.7101516785e+00 -2.9620695958e+00 1.7101516785e+00 2.9620695958e+00 
23500 3.7269138911e+00 -2.4383689988e-02 1.7108661754e+00 -2.9633071407e+00 1.7108661754e+00 2.9633071407e+00 
23600 3.7268913250e+00 -2.4331360959e-02 1.7115788373e+00 -2.9645415073e+00 1.7115788373e+00 2.9645415073e+00 
23700 3.7268688424e+00 -2.4279270082e-02 1.7122896735e+00 -2.9657727117e+00 1.7122896735e+00 2.9657727117e+00 
23800 3.7268464429e+00 -2.4227412895e-02 1.7129986933e+00 -2.9670007700e+00 1.7129986933e+00 2.9670007700e+00 
23900 3.7268241259e+00 -2.4175785014e-02 1.7137059057e+00 -2.9682256979e+00 1.7137059057e+00 2.9682256979e+00 
24000 3.7268018910e+00 -2.4124382132e-02 1.7144113197e+00 -2.9694475108e+00 1.7144113197e+00 2.9694475108e+00 
24100 3.7267797379e+00 -2.4073200019e-02 1.7151149441e+00 -2.9706662239e+00 1.7151149441e+00 2.9706662239e+00 
24200 3.7267576662e+00 -2.4022234517e-02 1.7158167874e+00 -2.9718818523e+00 1.7158167874e+00 2.9718818523e+00 
24300 3.7267356755e+00 -2.3971481543e-02 1.7165168583e+00 -2.9730944106e+00 1.7165168583e+00 2.9730944106e+00 
24400 3.7267137655e+00 -2.3920937084e-02 1.7172151650e+00 -2.9743039134e+00 1.7172151650e+00 2.9743039134e+00 
24500 3.7266919357e+00 -2.3870597199e-02 1.7179117159e+00 -2.9755103748e+00 1.7179117159e+00 2.9755103748e+00 
24600 3.7266701858e+00 -2.3820458017e-02 1.7186065189e+00 -2.9767138090e+00 1.7186065189e+00 2.9767138090e+00 
24700 3.7266485156e+00 -2.3770515735e-02 1.7192995821e+00 -2.9779142297e+00 1.7192995821e+00 2.9779142297e+00 
24800 3.7266269246e+00 -2.3720766617e-02 1.7199909133e+00 -2.9791116504e+00 1.7199909133e+00 2.9791116504e+00 
24900 3.7266054126e+00 -2.3671206994e-02 1.7206805202e+00 -2.9803060845e+00 1.7206805202e+00 2.9803060845e+00 
25000 3.7265839793e+00 -2.3621833262e-02 1.7213684103e+00 -2.9814975452e+00 1.7213684103e+00 2.9814975452e+00 
25100 3.7265626243e+00 -2.3572641881e-02 1.7220545912e+00 -2.9826860453e+00 1.7220545912e+00 2.9826860453e+00 
25200 3.7265413474e+00 -2.3523629375e-02 1.7227390701e+00 -2.9838715977e+00 1.7227390701e+00 2.9838715977e+00 
25300 3.7265201482e+00 -2.3474792330e-02 1.7234218544e+00 -2.9850542147e+00 1.7234218544e+00 2.9850542147e+00 
25400 3.7264990266e+00 -2.3426127394e-02 1.7241029511e+00 -2.9862339088e+00 1.7241029511e+00 2.9862339088e+00 
25500 3.7264779823e+00 -2.3377631273e-02 1.7247823672e+00 -2.9874106919e+00 1.7247823672e+00 2.9874106919e+00 
25600 3.7264570149e+00 -2.3329300736e-02 1.7254601095e+00 -2.9885845761e+00 1.7254601095e+00 2.9885845761e+00 
25700 3.7264361243e+00 -2.3281132608e-02 1.7261361850e+00 -2.9897555731e+00 1.7261361850e+00 2.9897555731e+00 
25800 3.7264153102e+00 -2.3233123773e-02 1.7268106001e+00 -2.9909236944e+00 1.7268106001e+00 2.9909236944e+00 
25900 3.7263945724e+00 -2.3185271171e-02 1.7274833615e+00 -2.9920889514e+00 1.7274833615e+00 2.9920889514e+00 
26000 3.7263739106e+00 -2.3137571797e-02 1.7281544757e+00 -2.9932513553e+00 1.7281544757e+00 2.9932513553e+00 
26100 3.7263533246e+00 -2.3090022704e-02 1.7288239490e+00 -2.9944109170e+00 1.7288239490e+00 2.9944109170e+00 
26200 3.7263328143e+00 -2.3042620997e-02 1.7294917876e+00 -2.9955676475e+00 1.7294917876e+00 2.9955676475e+00 
26300 3.7263123793e+00 -2.2995363836e-02 1.7301579978e+00 -2.9967215573e+00 1.7301579978e+00 2.9967215573e+00 
26400 3.7262920195e+00 -2.2948248431e-02 1.7308225855e+00 -2.9978726570e+00 1.7308225855e+00 2.9978726570e+00 
26500 3.7262717346e+00 -2.2901272046e-02 1.7314855568e+00 -2.9990209569e+00 1.7314855568e+00 2.9990209569e+00 
26600 3.7262515246e+00 -2.2854431996e-02 1.7321469175e+00 -3.0001664672e+00 1.7321469175e+00 3.0001664672e+00 
26700 3.7262313891e+00 -2.2807725647e-02 1.7328066733e+00 -3.0013091979e+00 1.7328066733e+00 3.0013091979e+00 
26800 3.7262113280e+00 -2.2761150411e-02 1.7334648301e+00 -3.0024491589e+00 1.7334648301e+00 3.0024491589e+00 
26900 3.7261913412e+00 -2.2714703754e-02 1.7341213934e+00 -3.0035863598e+00 1.7341213934e+00 3.0035863598e+00 
27000 3.7261714284e+00 -2.2668383185e-02 1.7347763687e+00 -3.0047208103e+00 1.7347763687e+00 3.0047208103e+00 
27100 3.7261515894e+00 -2.2622186265e-02 1.7354297614e+00 -3.0058525197e+00 1.7354297614e+00 3.0058525197e+00 
27200 3.7261318242e+00 -2.2576110597e-02 1.7360815769e+00 -3.0069814973e+00 1.7360815769e+00 3.0069814973e+00 
27300 3.7261121325e+00 -2.2530153835e-02 1.7367318206e+00 -3.0081077523e+00 1.7367318206e+00 3.0081077523e+00 
27400 3.7260925141e+00 -2.2484313674e-02 1.7373804974e+00 -3.0092312936e+00 1.7373804974e+00 3.0092312936e+00 
27500 3.7260729690e+00 -2.2438587856e-02 1.7380276127e+00 -3.0103521302e+00 1.7380276127e+00 3.0103521302e+00 
27600 3.7260534969e+00 -2.2392974166e-02 1.7386731714e+00 -3.0114702706e+00 1.7386731714e+00 3.0114702706e+00 
27700 3.7260340978e+00 -2.2347470432e-02 1.7393171784e+00 -3.0125857236e+00 1.7393171784e+00 3.0125857236e+00 
27800 3.7260147713e+00 -2.2302074526e-02 1.7399596388e+00 -3.0136984975e+00 1.7399596388e+00 3.0136984975e+00 
27900 3.7259955175e+00 -2.2256784361e-02 1.7406005572e+00 -3.0148086007e+00 1.7406005572e+00 3.0148086007e+00 
28000 3.7259763361e+00 -2.2211597892e-02 1.7412399384e+00 -3.0159160415e+00 1.7412399384e+00 3.0159160415e+00 
28100 3.7259572271e+00 -2.2166513113e-02 1.7418777871e+00 -3.0170208279e+00 1.7418777871e+00 3.0170208279e+00 
28200 3.7259381902e+00 -2.2121528060e-02 1.7425141080e+00 -3.0181229679e+00 1.7425141080e+00 3.0181229679e+00 
28300 3.7259192254e+00 -2.2076640808e-02 1.7431489054e+00 -3.0192224693e+00 1.7431489054e+00 3.0192224693e+00 
28400 3.7259003325e+00 -2.2031849471e-02 1.7437821840e+00 -3.0203193400e+00 1.7437821840e+00 3.0203193400e+00 
28500 3.7258815114e+00 -2.1987152201e-02 1.7444139481e+00 -3.0214135875e+00 1.7444139481e+00 3.0214135875e+00 
28600 3.7258627619e+00 -2.1942547189e-02 1.7450442020e+00 -3.0225052194e+00 1.7450442020e+00 3.0225052194e+00 
28700 3.7258440839e+00 -2.1898032661e-02 1.7456729501e+00 -3.0235942430e+00 1.7456729501e+00 3.0235942430e+00 
28800 3.7258254774e+00 -2.1853606881e-02 1.7463001966e+00 -3.0246806657e+00 1.7463001966e+00 3.0246806657e+00 
28900 3.7258069421e+00 -2.1809268150e-02 1.7469259456e+00 -3.0257644948e+00 1.7469259456e+00 3.0257644948e+00 
29000 3.7257884779e+00 -2.1765014803e-02 1.7475502012e+00 -3.0268457372e+00 1.7475502012e+00 3.0268457372e+00 
29100 3.7257700848e+00 -2.1720845210e-02 1.7481729675e+00 -3.0279244001e+00 1.7481729675e+00 3.0279244001e+00 
29200 3.7257517626e+00 -2.1676757777e-02 1.7487942484e+00 -3.0290004902e+00 1.7487942484e+00 3.0290004902e+00 
29300 3.7257335111e+00 -2.1632750942e-02 1.7494140480e+00 -3.0300740145e+00 1.7494140480e+00 3.0300740145e+00 
29400 3.7257153304e+00 -2.1588823178e-02 1.7500323700e+00 -3.0311449797e+00 1.7500323700e+00 3.0311449797e+00 
29500 3.7256972202e+00 -2.1544972990e-02 1.7506492183e+00 -3.0322133923e+00 1.7506492183e+00 3.0322133923e+00 
29600 3.7256791804e+00 -2.1501198916e-02 1.7512645967e+00 -3.0332792590e+00 1.7512645967e+00 3.0332792590e+00 
29700 3.7256612109e+00 -2.1457499525e-02 1.7518785089e+00 -3.0343425862e+00 1.7518785089e+00 3.0343425862e+00 
29800 3.7256433117e+00 -2.1413873419e-02 1.7524909586e+00 -3.0354033802e+00 1.7524909586e+00 3.0354033802e+00 
29900 3.7256254825e+00 -2.1370319229e-02 1.7531019494e+00 -3.0364616473e+00 1.7531019494e+00 3.0364616473e+00 
30000 3.7256077233e+00 -2.1326835618e-02 1.7537114849e+00 -3.0375173937e+00 1.7537114849e+00 3.0375173937e+00 
30100 3.7255900340e+00 -2.1283421279e-02 1.7543195686e+00 -3.0385706256e+00 1.7543195686e+00 3.0385706256e+00 
30200 3.7255724145e+00 -2.1240074933e-02 1.7549262040e+00 -3.0396213489e+00 1.7549262040e+00 3.0396213489e+00 
30300 3.7255548646e+00 -2.1196795331e-02 1.7555313946e+00 -3.0406695697e+00 1.7555313946e+00 3.0406695697e+00 
30400 3.7255373843e+00 -2.1153581253e-02 1.7561351437e+00 -3.0417152938e+00 1.7561351437e+00 3.0417152938e+00 
30500 3.7255199734e+00 -2.1110431506e-02 1.7567374547e+00 -3.0427585271e+00 1.7567374547e+00 3.0427585271e+00 
30600 3.7255026318e+00 -2.1067344927e-02 1.7573383309e+00 -3.0437992752e+00 1.7573383309e+00 3.0437992752e+00 
30700 3.7254853594e+00 -2.1024320378e-02 1.7579377756e+00 -3.0448375438e+00 1.7579377756e+00 3.0448375438e+00 
30800 3.7254681561e+00 -2.0981356748e-02 1.7585357919e+00 -3.0458733386e+00 1.7585357919e+00 3.0458733386e+00 
30900 3.7254510219e+00 -2.0938452953e-02 1.7591323832e+00 -3.0469066650e+00 1.7591323832e+00 3.0469066650e+00 
31000 3.7254339565e+00 -2.0895607936e-02 1.7597275526e+00 -3.0479375285e+00 1.7597275526e+00 3.0479375285e+00 
31100 3.7254169599e+00 -2.0852820664e-02 1.7603213031e+00 -3.0489659346e+00 1.7603213031e+00 3.0489659346e+00 
31200 3.7254000320e+00 -2.0810090129e-02 1.7609136378e+00 -3.0499918885e+00 1.7609136378e+00 3.0499918885e+00 
31300 3.7253831727e+00 -2.0767415350e-02 1.7615045599e+00 -3.0510153955e+00 1.7615045599e+00 3.0510153955e+00 
31400 3.7253663818e+00 -2.0724795368e-02 1.7620940722e+00 -3.0520364608e+00 1.7620940722e+00 3.0520364608e+00 
31500 3.7253496592e+00 -2.0682229248e-02 1.7626821778e+00 -3.0530550896e+00 1.7626821778e+00 3.0530550896e+00 
31600 3.7253330049e+00 -2.0639716081e-02 1.7632688796e+00 -3.0540712869e+00 1.7632688796e+00 3.0540712869e+00 
31700 3.7253164188e+00 -2.0597254979e-02 1.7638541805e+00 -3.0550850578e+00 1.7638541805e+00 3.0550850578e+00 
31800 3.7252999007e+00 -2.0554845078e-02 1.7644380834e+00 -3.0560964073e+00 1.7644380834e+00 3.0560964073e+00 
31900 3.7252834505e+00 -2.0512485534e-02 1.7650205911e+00 -3.0571053402e+00 1.7650205911e+00 3.0571053402e+00 
32000 3.7252670681e+00 -2.0470175530e-02 1.7656017064e+00 -3.0581118615e+00 1.7656017064e+00 3.0581118615e+00 
32100 3.7252507534e+00 -2.0427914265e-02 1.7661814322e+00 -3.0591159759e+00 1.7661814322e+00 3.0591159759e+00 
32200 3.7252345063e+00 -2.0385700963e-02 1.7667597711e+00 -3.0601176883e+00 1.7667597711e+00 3.0601176883e+00 
32300 3.7252183266e+00 -2.0343534869e-02 1.7673367259e+00 -3.0611170033e+00 1.7673367259e+00 3.0611170033e+00 
32400 3.7252022144e+00 -2.0301415247e-02 1.7679122992e+00 -3.0621139256e+00 1.7679122992e+00 3.0621139256e+00 
32500 3.7251861694e+00 -2.0259341382e-02 1.7684864938e+00 -3.0631084598e+00 1.7684864938e+00 3.0631084598e+00 
32600 3.7251701915e+00 -2.0217312578e-02 1.7690593123e+00 -3.0641006105e+00 1.7690593123e+00 3.0641006105e+00 
32700 3.7251542807e+00 -2.0175328162e-02 1.7696307573e+00 -3.0650903822e+00 1.7696307573e+00 3.0650903822e+00 
32800 3.7251384368e+00 -2.0133387477e-02 1.7702008313e+00 -3.0660777794e+00 1.7702008313e+00 3.0660777794e+00 
32900 3.7251226598e+00 -2.0091489885e-02 1.7707695370e+00 -3.0670628065e+00 1.7707695370e+00 3.0670628065e+00 
33000 3.7251069494e+00 -2.0049634769e-02 1.7713368768e+00 -3.0680454680e+00 1.7713368768e+00 3.0680454680e+00 
33100 3.7250913056e+00 -2.0007821528e-02 1.7719028534e+00 -3.0690257681e+00 1.7719028534e+00 3.0690257681e+00 
33200 3.7250757283e+00 -1.9966049580e-02 1.7724674691e+00 -3.0700037112e+00 1.7724674691e+00 3.0700037112e+00 
33300 3.7250602173e+00 -1.9924318362e-02 1.7730307264e+00 -3.0709793015e+00 1.7730307264e+00 3.0709793015e+00 
33400 3.7250447726e+00 -1.9882627325e-02 1.7735926279e+00 -3.0719525434e+00 1.7735926279e+00 3.0719525434e+00 
33500 3.7250293939e+00 -1.9840975941e-02 1.7741531758e+00 -3.0729234409e+00 1.7741531758e+00 3.0729234409e+00 
33600 3.7250140813e+00 -1.9799363697e-02 1.7747123727e+00 -3.0738919983e+00 1.7747123727e+00 3.0738919983e+00 
33700 3.7249988346e+00 -1.9757790096e-02 1.7752702208e+00 -3.0748582196e+00 1.7752702208e+00 3.0748582196e+00 
33800 3.7249836536e+00 -1.9716254657e-02 1.7758267226e+00 -3.0758221091e+00 1.7758267226e+00 3.0758221091e+00 
33900 3.7249685383e+00 -1.9674756918e-02 1.7763818805e+00 -3.0767836706e+00 1.7763818805e+00 3.0767836706e+00 
34000 3.7249534885e+00 -1.9633296428e-02 1.7769356966e+00 -3.0777429083e+00 1.7769356966e+00 3.0777429083e+00 
34100 3.7249385041e+00 -1.9591872756e-02 1.7774881733e+00 -3.0786998261e+00 1.7774881733e+00 3.0786998261e+00 
34200 3.7249235850e+00 -1.9550485482e-02 1.7780393130e+00 -3.0796544280e+00 1.7780393130e+00 3.0796544280e+00 
34300 3.7249087311e+00 -1.9509134204e-02 1.7785891179e+00 -3.0806067179e+00 1.7785891179e+00 3.0806067179e+00 
34400 3.7248939422e+00 -1.9467818534e-02 1.7791375901e+00 -3.0815566998e+00 1.7791375901e+00 3.0815566998e+00 
34500 3.7248792182e+00 -1.9426538096e-02 1.7796847321e+00 -3.0825043774e+00 1.7796847321e+00 3.0825043774e+00 
34600 3.7248645590e+00 -1.9385292531e-02 1.7802305459e+00 -3.0834497547e+00 1.7802305459e+00 3.0834497547e+00 
34700 3.7248499645e+00 -1.9344081492e-02 1.7807750338e+00 -3.0843928354e+00 1.7807750338e+00 3.0843928354e+00 
34800 3.7248354344e+00 -1.9302904647e-02 1.7813181980e+00 -3.0853336234e+00 1.7813181980e+00 3.0853336234e+00 
34900 3.7248209688e+00 -1.9261761676e-02 1.7818600406e+00 -3.0862721224e+00 1.7818600406e+00 3.0862721224e+00 
35000 3.7248065675e+00 -1.9220652272e-02 1.7824005639e+00 -3.0872083361e+00 1.7824005639e+00 3.0872083361e+00 
35100 3.7247922304e+00 -1.9179576142e-02 1.7829397699e+00 -3.0881422683e+00 1.7829397699e+00 3.0881422683e+00 
35200 3.7247779572e+00 -1.9138533004e-02 1.7834776607e+00 -3.0890739226e+00 1.7834776607e+00 3.0890739226e+00 
35300 3.7247637479e+00 -1.9097522591e-02 1.7840142386e+00 -3.0900033027e+00 1.7840142386e+00 3.0900033027e+00 
35400 3.7247496024e+00 -1.9056544645e-02 1.7845495055e+00 -3.0909304122e+00 1.7845495055e+00 3.0909304122e+00 
35500 3.7247355205e+00 -1.9015598923e-02 1.7850834637e+00 -3.0918552548e+00 1.7850834637e+00 3.0918552548e+00 
35600 3.7247215022e+00 -1.8974685190e-02 1.7856161151e+00 -3.0927778341e+00 1.7856161151e+00 3.0927778341e+00 
35700 3.7247075471e+00 -1.8933803226e-02 1.7861474618e+00 -3.0936981537e+00 1.7861474618e+00 3.0936981537e+00 
35800 3.7246936553e+00 -1.8892952820e-02 1.7866775059e+00 -3.0946162170e+00 1.7866775059e+00 3.0946162170e+00 
35900 3.7246798266e+00 -1.8852133773e-02 1.7872062495e+00 -3.0955320277e+00 1.7872062495e+00 3.0955320277e+00 
36000 3.7246660608e+00 -1.8811345896e-02 1.7877336945e+00 -3.0964455893e+00 1.7877336945e+00 3.0964455893e+00 
36100 3.7246523578e+00 -1.8770589013e-02 1.7882598430e+00 -3.0973569053e+00 1.7882598430e+00 3.0973569053e+00 
36200 3.7246387175e+00 -1.8729862954e-02 1.7887846970e+00 -3.0982659791e+00 1.7887846970e+00 3.0982659791e+00 
36300 3.7246251397e+00 -1.8689167564e-02 1.7893082585e+00 -3.0991728142e+00 1.7893082585e+00 3.0991728142e+00 
36400 3.7246116244e+00 -1.8648502694e-02 1.7898305295e+00 -3.1000774141e+00 1.7898305295e+00 3.1000774141e+00 
36500 3.7245981712e+00 -1.8607868208e-02 1.7903515120e+00 -3.1009797822e+00 1.7903515120e+00 3.1009797822e+00 
36600 3.7245847802e+00 -1.8567263977e-02 1.7908712080e+00 -3.1018799220e+00 1.7908712080e+00 3.1018799220e+00 
36700 3.7245714512e+00 -1.8526689884e-02 1.7913896193e+00 -3.1027778368e+00 1.7913896193e+00 3.1027778368e+00 
36800 3.7245581839e+00 -1.8486145819e-02 1.7919067481e+00 -3.1036735301e+00 1.7919067481e+00 3.1036735301e+00 
36900 3.7245449783e+00 -1.8445631682e-02 1.7924225961e+00 -3.1045670051e+00 1.7924225961e+00 3.1045670051e+00 
37000 3.7245318343e+00 -1.8405147382e-02 1.7929371655e+00 -3.1054582653e+00 1.7929371655e+00 3.1054582653e+00 
37100 3.7245187517e+00 -1.8364692836e-02 1.7934504580e+00 -3.1063473141e+00 1.7934504580e+00 3.1063473141e+00 
37200 3.7245057302e+00 -1.8324267970e-02 1.7939624757e+00 -3.1072341547e+00 1.7939624757e+00 3.1072341547e+00 
37300 3.7244927699e+00 -1.8283872719e-02 1.7944732204e+00 -3.1081187905e+00 1.7944732204e+00 3.1081187905e+00 
37400 3.7244798705e+00 -1.8243507024e-02 1.7949826941e+00 -3.1090012248e+00 1.7949826941e+00 3.1090012248e+00 
37500 3.7244670319e+00 -1.8203170838e-02 1.7954908986e+00 -3.1098814609e+00 1.7954908986e+00 3.1098814609e+00 
37600 3.7244542539e+00 -1.8162864117e-02 1.7959978359e+00 -3.1107595021e+00 1.7959978359e+00 3.1107595021e+00 
37700 3.7244415365e+00 -1.8122586827e-02 1.7965035079e+00 -3.1116353517e+00 1.7965035079e+00 3.1116353517e+00 
37800 3.7244288793e+00 -1.8082338943e-02 1.7970079165e+00 -3.1125090130e+00 1.7970079165e+00 3.1125090130e+00 
37900 3.7244162823e+00 -1.8042120445e-02 1.7975110635e+00 -3.1133804891e+00 1.7975110635e+00 3.1133804891e+00 
38000 3.7244037454e+00 -1.8001931321e-02 1.7980129508e+00 -3.1142497834e+00 1.7980129508e+00 3.1142497834e+00 
38100 3.7243912683e+00 -1.7961771565e-02 1.7985135803e+00 -3.1151168991e+00 1.7985135803e+00 3.1151168991e+00 
38200 3.7243788510e+00 -1.7921641181e-02 1.7990129538e+00 -3.1159818395e+00 1.7990129538e+00 3.1159818395e+00 
38300 3.7243664932e+00 -1.7881540176e-02 1.7995110733e+00 -3.1168446078e+00 1.7995110733e+00 3.1168446078e+00 
38400 3.7243541948e+00 -1.7841468566e-02 1.8000079406e+00 -3.1177052071e+00 1.8000079406e+00 3.1177052071e+00 
38500 3.7243419556e+00 -1.7801426373e-02 1.8005035575e+00 -3.1185636408e+00 1.8005035575e+00 3.1185636408e+00 
38600 3.7243297756e+00 -1.7761413624e-02 1.8009979259e+00 -3.1194199119e+00 1.8009979259e+00 3.1194199119e+00 
38700 3.7243176544e+00 -1.7721430353e-02 1.8014910476e+00 -3.1202740238e+00 1.8014910476e+00 3.1202740238e+00 
38800 3.7243055921e+00 -1.7681476601e-02 1.8019829245e+00 -3.1211259796e+00 1.8019829245e+00 3.1211259796e+00 
38900 3.7242935883e+00 -1.7641552414e-02 1.8024735584e+00 -3.1219757824e+00 1.8024735584e+00 3.1219757824e+00 
39000 3.7242816430e+00 -1.7601657843e-02 1.8029629512e+00 -3.1228234356e+00 1.8029629512e+00 3.1228234356e+00 
39100 3.7242697559e+00 -1.7561792946e-02 1.8034511046e+00 -3.1236689422e+00 1.8034511046e+00 3.1236689422e+00 
39200 3.7242579270e+00 -1.7521957786e-02 1.8039380206e+00 -3.1245123054e+00 1.8039380206e+00 3.1245123054e+00 
39300 3.7242461560e+00 -1.7482152430e-02 1.8044237009e+00 -3.1253535283e+00 1.8044237009e+00 3.1253535283e+00 
39400 3.7242344429e+00 -1.7442376953e-02 1.8049081474e+00 -3.1261926143e+00 1.8049081474e+00 3.1261926143e+00 
39500 3.7242227873e+00 -1.7402631432e-02 1.8053913619e+00 -3.1270295663e+00 1.8053913619e+00 3.1270295663e+00 
39600 3.7242111892e+00 -1.7362915952e-02 1.8058733462e+00 -3.1278643876e+00 1.8058733462e+00 3.1278643876e+00 
39700 3.7241996484e+00 -1.7323230601e-02 1.8063541021e+00 -3.1286970813e+00 1.8063541021e+00 3.1286970813e+00 
39800 3.7241881648e+00 -1.7283575472e-02 1.8068336315e+00 -3.1295276505e+00 1.8068336315e+00 3.1295276505e+00 
39900 3.7241767380e+00 -1.7243950662e-02 1.8073119361e+00 -3.1303560984e+00 1.8073119361e+00 3.1303560984e+00 
40000 3.7241653681e+00 -1.7204356274e-02 1.8077890178e+00 -3.1311824282e+00 1.8077890178e+00 3.1311824282e+00 
40100 3.7241540548e+00 -1.7164792415e-02 1.8082648784e+00 -3.1320066429e+00 1.8082648784e+00 3.1320066429e+00 
40200 3.7241427980e+00 -1.7125259195e-02 1.8087395196e+00 -3.1328287457e+00 1.8087395196e+00 3.1328287457e+00 
40300 3.7241315974e+00 -1.7085756729e-02 1.8092129434e+00 -3.1336487397e+00 1.8092129434e+00 3.1336487397e+00 
40400 3.7241204529e+00 -1.7046285138e-02 1.8096851515e+00 -3.1344666281e+00 1.8096851515e+00 3.1344666281e+00 
40500 3.7241093644e+00 -1.7006844543e-02 1.8101561457e+00 -3.1352824140e+00 1.8101561457e+00 3.1352824140e+00 
40600 3.7240983317e+00 -1.6967435072e-02 1.8106259278e+00 -3.1360961005e+00 1.8106259278e+00 3.1360961005e+00 
40700 3.7240873545e+00 -1.6928056856e-02 1.8110944997e+00 -3.1369076908e+00 1.8110944997e+00 3.1369076908e+00 
40800 3.7240764328e+00 -1.6888710028e-02 1.8115618631e+00 -3.1377171879e+00 1.8115618631e+00 3.1377171879e+00 
40900 3.7240655663e+00 -1.6849394728e-02 1.8120280198e+00 -3.1385245950e+00 1.8120280198e+00 3.1385245950e+00 
41000 3.7240547549e+00 -1.6810111096e-02 1.8124929716e+00 -3.1393299152e+00 1.8124929716e+00 3.1393299152e+00 
41100 3.7240439984e+00 -1.6770859277e-02 1.8129567204e+00 -3.1401331516e+00 1.8129567204e+00 3.1401331516e+00 
41200 3.7240332967e+00 -1.6731639419e-02 1.8134192679e+00 -3.1409343074e+00 1.8134192679e+00 3.1409343074e+00 
41300 3.7240226494e+00 -1.6692451673e-02 1.8138806159e+00 -3.1417333856e+00 1.8138806159e+00 3.1417333856e+00 
41400 3.7240120566e+00 -1.6653296194e-02 1.8143407663e+00 -3.1425303895e+00 1.8143407663e+00 3.1425303895e+00 
41500 3.7240015179e+00 -1.6614173138e-02 1.8147997208e+00 -3.1433253220e+00 1.8147997208e+00 3.1433253220e+00 
41600 3.7239910333e+00 -1.6575082666e-02 1.8152574813e+00 -3.1441181864e+00 1.8152574813e+00 3.1441181864e+00 
41700 3.7239806025e+00 -1.6536024941e-02 1.8157140495e+00 -3.1449089858e+00 1.8157140495e+00 3.1449089858e+00 
41800 3.7239702254e+00 -1.6497000128e-02 1.8161694273e+00 -3.1456977232e+00 1.8161694273e+00 3.1456977232e+00 
41900 3.7239599018e+00 -1.6458008396e-02 1.8166236164e+00 -3.1464844018e+00 1.8166236164e+00 3.1464844018e+00 
42000 3.7239496315e+00 -1.6419049915e-02 1.8170766186e+00 -3.1472690247e+00 1.8170766186e+00 3.1472690247e+00 
42100 3.7239394143e+00 -1.6380124859e-02 1.8175284359e+00 -3.1480515951e+00 1.8175284359e+00 3.1480515951e+00 
42200 3.7239292500e+00 -1.6341233403e-02 1.8179790698e+00 -3.1488321161e+00 1.8179790698e+00 3.1488321161e+00 
42300 3.7239191386e+00 -1.6302375725e-02 1.8184285224e+00 -3.1496105907e+00 1.8184285224e+00 3.1496105907e+00 
42400 3.7239090797e+00 -1.6263552006e-02 1.8188767953e+00 -3.1503870222e+00 1.8188767953e+00 3.1503870222e+00 
42500 3.7238990732e+00 -1.6224762428e-02 1.8193238904e+00 -3.1511614136e+00 1.8193238904e+00 3.1511614136e+00 
42600 3.7238891190e+00 -1.6186007175e-02 1.8197698095e+00 -3.1519337682e+00 1.8197698095e+00 3.1519337682e+00 
42700 3.7238792168e+00 -1.6147286433e-02 1.8202145544e+00 -3.1527040889e+00 1.8202145544e+00 3.1527040889e+00 
42800 3.7238693665e+00 -1.6108600392e-02 1.8206581269e+00 -3.1534723790e+00 1.8206581269e+00 3.1534723790e+00 
42900 3.7238595679e+00 -1.6069949240e-02 1.8211005288e+00 -3.1542386416e+00 1.8211005288e+00 3.1542386416e+00 
43000 3.7238498207e+00 -1.6031333171e-02 1.8215417619e+00 -3.1550028798e+00 1.8215417619e+00 3.1550028798e+00 
43100 3.7238401249e+00 -1.5992752377e-02 1.8219818281e+00 -3.1557650968e+00 1.8219818281e+00 3.1557650968e+00 
43200 3.7238304803e+00 -1.5954207054e-02 1.8224207291e+00 -3.1565252957e+00 1.8224207291e+00 3.1565252957e+00 
43300 3.7238208865e+00 -1.5915697400e-02 1.8228584669e+00 -3.1572834796e+00 1.8228584669e+00 3.1572834796e+00 
43400 3.7238113436e+00 -1.5877223611e-02 1.8232950431e+00 -3.1580396518e+00 1.8232950431e+00 3.1580396518e+00 
43500 3.7238018513e+00 -1.5838785888e-02 1.8237304596e+00 -3.1587938153e+00 1.8237304596e+00 3.1587938153e+00 
43600 3.7237924093e+00 -1.5800384433e-02 1.8241647182e+00 -3.1595459733e+00 1.8241647182e+00 3.1595459733e+00 
43700 3.7237830176e+00 -1.5762019448e-02 1.8245978208e+00 -3.1602961290e+00 1.8245978208e+00 3.1602961290e+00 
43800 3.7237736759e+00 -1.5723691135e-02 1.8250297692e+00 -3.1610442856e+00 1.8250297692e+00 3.1610442856e+00 
43900 3.7237643841e+00 -1.5685399702e-02 1.8254605652e+00 -3.1617904461e+00 1.8254605652e+00 3.1617904461e+00 
44000 3.7237551419e+00 -1.5647145353e-02 1.8258902106e+00 -3.1625346137e+00 1.8258902106e+00 3.1625346137e+00 
44100 3.7237459492e+00 -1.5608928295e-02 1.8263187072e+00 -3.1632767917e+00 1.8263187072e+00 3.1632767917e+00 
44200 3.7237368058e+00 -1.5570748737e-02 1.8267460570e+00 -3.1640169832e+00 1.8267460570e+00 3.1640169832e+00 
44300 3.7237277115e+00 -1.5532606888e-02 1.8271722616e+00 -3.1647551914e+00 1.8271722616e+00 3.1647551914e+00 
44400 3.7237186662e+00 -1.5494502957e-02 1.8275973231e+00 -3.1654914193e+00 1.8275973231e+00 3.1654914193e+00 
44500 3.7237096696e+00 -1.5456437156e-02 1.8280212431e+00 -3.1662256703e+00 1.8280212431e+00 3.1662256703e+00 
44600 3.7237007216e+00 -1.5418409697e-02 1.8284440235e+00 -3.1669579476e+00 1.8284440235e+00 3.1669579476e+00 
44700 3.7236918219e+00 -1.5380420790e-02 1.8288656663e+00 -3.1676882542e+00 1.8288656663e+00 3.1676882542e+00 
44800 3.7236829704e+00 -1.5342470650e-02 1.8292861731e+00 -3.1684165934e+00 1.8292861731e+00 3.1684165934e+00 
44900 3.7236741669e+00 -1.5304559490e-02 1.8297055459e+00 -3.1691429683e+00 1.8297055459e+00 3.1691429683e+00 
45000 3.7236654112e+00 -1.5266687525e-02 1.8301237865e+00 -3.1698673823e+00 1.8301237865e+00 3.1698673823e+00 
45100 3.7236567032e+00 -1.5228854968e-02 1.8305408967e+00 -3.1705898384e+00 1.8305408967e+00 3.1705898384e+00 
45200 3.7236480426e+00 -1.5191062036e-02 1.8309568784e+00 -3.1713103399e+00 1.8309568784e+00 3.1713103399e+00 
45300 3.7236394293e+00 -1.5153308943e-02 1.8313717335e+00 -3.1720288900e+00 1.8313717335e+00 3.1720288900e+00 
45400 3.7236308630e+00 -1.5115595906e-02 1.8317854638e+00 -3.1727454919e+00 1.8317854638e+00 3.1727454919e+00 
45500 3.7236223436e+00 -1.5077923141e-02 1.8321980712e+00 -3.1734601488e+00 1.8321980712e+00 3.1734601488e+00 
45600 3.7236138709e+00 -1.5040290865e-02 1.8326095574e+00 -3.1741728639e+00 1.8326095574e+00 3.1741728639e+00 
45700 3.7236054447e+00 -1.5002699295e-02 1.8330199245e+00 -3.1748836405e+00 1.8330199245e+00 3.1748836405e+00 
45800 3.7235970648e+00 -1.4965148647e-02 1.8334291742e+00 -3.1755924818e+00 1.8334291742e+00 3.1755924818e+00 
45900 3.7235887311e+00 -1.4927639138e-02 1.8338373084e+00 -3.1762993910e+00 1.8338373084e+00 3.1762993910e+00 
46000 3.7235804434e+00 -1.4890170987e-02 1.8342443290e+00 -3.1770043714e+00 1.8342443290e+00 3.1770043714e+00 
46100 3.7235722013e+00 -1.4852744411e-02 1.8346502379e+00 -3.1777074261e+00 1.8346502379e+00 3.1777074261e+00 
46200 3.7235640049e+00 -1.4815359626e-02 1.8350550369e+00 -3.1784085585e+00 1.8350550369e+00 3.1784085585e+00 
46300 3.7235558539e+00 -1.4778016851e-02 1.8354587278e+00 -3.1791077718e+00 1.8354587278e+00 3.1791077718e+00 
46400 3.7235477481e+00 -1.4740716302e-02 1.8358613127e+00 -3.1798050692e+00 1.8358613127e+00 3.1798050692e+00 
46500 3.7235396873e+00 -1.4703458197e-02 1.8362627932e+00 -3.1805004539e+00 1.8362627932e+00 3.1805004539e+00 
46600 3.7235316713e+00 -1.4666242753e-02 1.8366631714e+00 -3.1811939293e+00 1.8366631714e+00 3.1811939293e+00 
46700 3.7235237000e+00 -1.4629070187e-02 1.8370624492e+00 -3.1818854987e+00 1.8370624492e+00 3.1818854987e+00 
46800 3.7235157731e+00 -1.4591940715e-02 1.8374606283e+00 -3.1825751651e+00 1.8374606283e+00 3.1825751651e+00 
46900 3.7235078905e+00 -1.4554854555e-02 1.8378577107e+00 -3.1832629321e+00 1.8378577107e+00 3.1832629321e+00 
47000 3.7235000520e+00 -1.4517811922e-02 1.8382536983e+00 -3.1839488027e+00 1.8382536983e+00 3.1839488027e+00 
47100 3.7234922574e+00 -1.4480813033e-02 1.8386485930e+00 -3.1846327803e+00 1.8386485930e+00 3.1846327803e+00 
47200 3.7234845066e+00 -1.4443858102e-02 1.8390423966e+00 -3.1853148682e+00 1.8390423966e+00 3.1853148682e+00 
47300 3.7234767992e+00 -1.4406947346e-02 1.8394351111e+00 -3.1859950697e+00 1.8394351111e+00 3.1859950697e+00 
47400 3.7234691352e+00 -1.4370080978e-02 1.8398267384e+00 -3.1866733880e+00 1.8398267384e+00 3.1866733880e+00 
47500 3.7234615144e+00 -1.4333259214e-02 1.8402172803e+00 -3.1873498264e+00 1.8402172803e+00 3.1873498264e+00 
47600 3.7234539366e+00 -1.4296482266e-02 1.8406067388e+00 -3.1880243883e+00 1.8406067388e+00 3.1880243883e+00 
47700 3.7234464015e+00 -1.4259750349e-02 1.8409951157e+00 -3.1886970769e+00 1.8409951157e+00 3.1886970769e+00 
47800 3.7234389090e+00 -1.4223063675e-02 1.8413824131e+00 -3.1893678956e+00 1.8413824131e+00 3.1893678956e+00 
47900 3.7234314590e+00 -1.4186422457e-02 1.8417686327e+00 -3.1900368476e+00 1.8417686327e+00 3.1900368476e+00 
48000 3.7234240512e+00 -1.4149826905e-02 1.8421537765e+00 -3.1907039363e+00 1.8421537765e+00 3.1907039363e+00 
48100 3.7234166855e+00 -1.4113277232e-02 1.8425378465e+00 -3.1913691650e+00 1.8425378465e+00 3.1913691650e+00 
48200 3.7234093616e+00 -1.4076773647e-02 1.8429208445e+00 -3.1920325370e+00 1.8429208445e+00 3.1920325370e+00 
48300 3.7234020795e+00 -1.4040316361e-02 1.8433027724e+00 -3.1926940556e+00 1.8433027724e+00 3.1926940556e+00 
48400 3.7233948388e+00 -1.4003905582e-02 1.8436836323e+00 -3.1933537242e+00 1.8436836323e+00 3.1933537242e+00 
48500 3.7233876394e+00 -1.3967541518e-02 1.8440634259e+00 -3.1940115461e+00 1.8440634259e+00 3.1940115461e+00 
48600 3.7233804812e+00 -1.3931224377e-02 1.8444421553e+00 -3.1946675246e+00 1.8444421553e+00 3.1946675246e+00 
48700 3.7233733640e+00 -1.3894954366e-02 1.8448198223e+00 -3.1953216630e+00 1.8448198223e+00 3.1953216630e+00 
48800 3.7233662875e+00 -1.3858731691e-02 1.8451964289e+00 -3.1959739648e+00 1.8451964289e+00 3.1959739648e+00 
48900 3.7233592516e+00 -1.3822556556e-02 1.8455719771e+00 -3.1966244333e+00 1.8455719771e+00 3.1966244333e+00 
49000 3.7233522561e+00 -1.3786429166e-02 1.8459464687e+00 -3.1972730718e+00 1.8459464687e+00 3.1972730718e+00 
49100 3.7233453008e+00 -1.3750349725e-02 1.8463199056e+00 -3.1979198836e+00 1.8463199056e+00 3.1979198836e+00 
49200 3.7233383856e+00 -1.3714318434e-02 1.8466922900e+00 -3.1985648722e+00 1.8466922900e+00 3.1985648722e+00 
49300 3.7233315102e+00 -1.3678335496e-02 1.8470636236e+00 -3.1992080408e+00 1.8470636236e+00 3.1992080408e+00 
49400 3.7233246745e+00 -1.3642401110e-02 1.8474339084e+00 -3.1998493930e+00 1.8474339084e+00 3.1998493930e+00 
49500 3.7233178783e+00 -1.3606515477e-02 1.8478031464e+00 -3.2004889319e+00 1.8478031464e+00 3.2004889319e+00 
49600 3.7233111214e+00 -1.3570678795e-02 1.8481713395e+00 -3.2011266611e+00 1.8481713395e+00 3.2011266611e+00 
49700 3.7233044037e+00 -1.3534891262e-02 1.8485384896e+00 -3.2017625838e+00 1.8485384896e+00 3.2017625838e+00 
49800 3.7232977249e+00 -1.3499153074e-02 1.8489045988e+00 -3.2023967035e+00 1.8489045988e+00 3.2023967035e+00 
49900 3.7232910849e+00 -1.3463464428e-02 1.8492696689e+00 -3.2030290235e+00 1.8492696689e+00 3.2030290235e+00 
50000 3.7232844834e+00 -1.3427825516e-02 1.8496337020e+00 -3.2036595473e+00 1.8496337020e+00 3.2036595473e+00 
50100 3.7232779204e+00 -1.3392236534e-02 1.8499966999e+00 -3.2042882781e+00 1.8499966999e+00 3.2042882781e+00 
50200 3.7232713957e+00 -1.3356697673e-02 1.8503586647e+00 -3.2049152195e+00 1.8503586647e+00 3.2049152195e+00 
50300 3.7232649090e+00 -1.3321209124e-02 1.8507195983e+00 -3.2055403749e+00 1.8507195983e+00 3.2055403749e+00 
50400 3.7232584602e+00 -1.3285771078e-02 1.8510795027e+00 -3.2061637475e+00 1.8510795027e+00 3.2061637475e+00 
50500 3.7232520490e+00 -1.3250383723e-02 1.8514383798e+00 -3.2067853408e+00 1.8514383798e+00 3.2067853408e+00 
50600 3.7232456755e+00 -1.3215047247e-02 1.8517962315e+00 -3.2074051583e+00 1.8517962315e+00 3.2074051583e+00 
50700 3.7232393392e+00 -1.3179761837e-02 1.8521530600e+00 -3.2080232033e+00 1.8521530600e+00 3.2080232033e+00 
50800 3.7232330402e+00 -1.3144527679e-02 1.8525088671e+00 -3.2086394792e+00 1.8525088671e+00 3.2086394792e+00 
50900 3.7232267781e+00 -1.3109344955e-02 1.8528636548e+00 -3.2092539896e+00 1.8528636548e+00 3.2092539896e+00 
51000 3.7232205528e+00 -1.3074213850e-02 1.8532174251e+00 -3.2098667377e+00 1.8532174251e+00 3.2098667377e+00 
51100 3.7232143642e+00 -1.3039134545e-02 1.8535701799e+00 -3.2104777270e+00 1.8535701799e+00 3.2104777270e+00 
51200 3.7232082121e+00 -1.3004107221e-02 1.8539219213e+00 -3.2110869609e+00 1.8539219213e+00 3.2110869609e+00 
51300 3.7232020962e+00 -1.2969132056e-02 1.8542726512e+00 -3.2116944430e+00 1.8542726512e+00 3.2116944430e+00 
51400 3.7231960165e+00 -1.2934209229e-02 1.8546223716e+00 -3.2123001765e+00 1.8546223716e+00 3.2123001765e+00 
51500 3.7231899727e+00 -1.2899338917e-02 1.8549710845e+00 -3.2129041649e+00 1.8549710845e+00 3.2129041649e+00 
51600 3.7231839647e+00 -1.2864521294e-02 1.8553187918e+00 -3.2135064117e+00 1.8553187918e+00 3.2135064117e+00 
51700 3.7231779923e+00 -1.2829756534e-02 1.8556654957e+00 -3.2141069203e+00 1.8556654957e+00 3.2141069203e+00 
51800 3.7231720553e+00 -1.2795044811e-02 1.8560111979e+00 -3.2147056942e+00 1.8560111979e+00 3.2147056942e+00 
51900 3.7231661536e+00 -1.2760386296e-02 1.8563559006e+00 -3.2153027367e+00 1.8563559006e+00 3.2153027367e+00 
52000 3.7231602869e+00 -1.2725781158e-02 1.8566996057e+00 -3.2158980514e+00 1.8566996057e+00 3.2158980514e+00 
52100 3.7231544551e+00 -1.2691229567e-02 1.8570423152e+00 -3.2164916417e+00 1.8570423152e+00 3.2164916417e+00 
52200 3.7231486581e+00 -1.2656731690e-02 1.8573840311e+00 -3.2170835111e+00 1.8573840311e+00 3.2170835111e+00 
52300 3.7231428957e+00 -1.2622287692e-02 1.8577247555e+00 -3.2176736629e+00 1.8577247555e+00 3.2176736629e+00 
52400 3.7231371676e+00 -1.2587897738e-02 1.8580644902e+00 -3.2182621008e+00 1.8580644902e+00 3.2182621008e+00 
52500 3.7231314738e+00 -1.2553561992e-02 1.8584032373e+00 -3.2188488280e+00 1.8584032373e+00 3.2188488280e+00 
52600 3.7231258140e+00 -1.2519280615e-02 1.8587409988e+00 -3.2194338481e+00 1.8587409988e+00 3.2194338481e+00 
52700 3.7231201881e+00 -1.2485053767e-02 1.8590777768e+00 -3.2200171646e+00 1.8590777768e+00 3.2200171646e+00 
52800 3.7231145959e+00 -1.2450881608e-02 1.8594135731e+00 -3.2205987809e+00 1.8594135731e+00 3.2205987809e+00 
52900 3.7231090373e+00 -1.2416764294e-02 1.8597483898e+00 -3.2211787004e+00 1.8597483898e+00 3.2211787004e+00 
53000 3.7231035121e+00 -1.2382701982e-02 1.8600822289e+00 -3.2217569268e+00 1.8600822289e+00 3.2217569268e+00 
53100 3.7230980200e+00 -1.2348694826e-02 1.8604150925e+00 -3.2223334633e+00 1.8604150925e+00 3.2223334633e+00 
53200 3.7230925610e+00 -1.2314742981e-02 1.8607469824e+00 -3.2229083136e+00 1.8607469824e+00 3.2229083136e+00 
53300 3.7230871349e+00 -1.2280846596e-02 1.8610779008e+00 -3.2234814811e+00 1.8610779008e+00 3.2234814811e+00 
53400 3.7230817415e+00 -1.2247005823e-02 1.8614078497e+00 -3.2240529692e+00 1.8614078497e+00 3.2240529692e+00 
53500 3.7230763807e+00 -1.2213220810e-02 1.8617368309e+00 -3.2246227815e+00 1.8617368309e+00 3.2246227815e+00 
53600 3.7230710522e+00 -1.2179491706e-02 1.8620648467e+00 -3.2251909214e+00 1.8620648467e+00 3.2251909214e+00 
53700 3.7230657560e+00 -1.2145818654e-02 1.8623918989e+00 -3.2257573924e+00 1.8623918989e+00 3.2257573924e+00 
53800 3.7230604918e+00 -1.2112201800e-02 1.8627179896e+00 -3.2263221981e+00 1.8627179896e+00 3.2263221981e+00 
53900 3.7230552595e+00 -1.2078641288e-02 1.8630431207e+00 -3.2268853418e+00 1.8630431207e+00 3.2268853418e+00 
54000 3.7230500589e+00 -1.2045137257e-02 1.8633672944e+00 -3.2274468271e+00 1.8633672944e+00 3.2274468271e+00 
54100 3.7230448899e+00 -1.2011689848e-02 1.8636905127e+00 -3.2280066575e+00 1.8636905127e+00 3.2280066575e+00 
54200 3.7230397523e+00 -1.1978299200e-02 1.8640127774e+00 -3.2285648365e+00 1.8640127774e+00 3.2285648365e+00 
54300 3.7230346459e+00 -1.1944965448e-02 1.8643340908e+00 -3.2291213675e+00 1.8643340908e+00 3.2291213675e+00 
54400 3.7230295706e+00 -1.1911688730e-02 1.8646544547e+00 -3.2296762541e+00 1.8646544547e+00 3.2296762541e+00 
54500 3.7230245262e+00 -1.1878469178e-02 1.8649738712e+00 -3.2302294997e+00 1.8649738712e+00 3.2302294997e+00 
54600 3.7230195126e+00 -1.1845306924e-02 1.8652923423e+00 -3.2307811079e+00 1.8652923423e+00 3.2307811079e+00 
54700 3.7230145296e+00 -1.1812202101e-02 1.8656098701e+00 -3.2313310822e+00 1.8656098701e+00 3.2313310822e+00 
54800 3.7230095770e+00 -1.1779154836e-02 1.8659264566e+00 -3.2318794260e+00 1.8659264566e+00 3.2318794260e+00 
54900 3.7230046547e+00 -1.1746165258e-02 1.8662421037e+00 -3.2324261429e+00 1.8662421037e+00 3.2324261429e+00 
55000 3.7229997626e+00 -1.1713233493e-02 1.8665568136e+00 -3.2329712363e+00 1.8665568136e+00 3.2329712363e+00 
55100 3.7229949004e+00 -1.1680359665e-02 1.8668705881e+00 -3.2335147098e+00 1.8668705881e+00 3.2335147098e+00 
55200 3.7229900680e+00 -1.1647543899e-02 1.8671834295e+00 -3.2340565669e+00 1.8671834295e+00 3.2340565669e+00 
55300 3.7229852652e+00 -1.1614786315e-02 1.8674953396e+00 -3.2345968111e+00 1.8674953396e+00 3.2345968111e+00 
55400 3.7229804920e+00 -1.1582087034e-02 1.8678063205e+00 -3.2351354459e+00 1.8678063205e+00 3.2351354459e+00 
55500 3.7229757480e+00 -1.1549446174e-02 1.8681163743e+00 -3.2356724747e+00 1.8681163743e+00 3.2356724747e+00 
55600 3.7229710333e+00 -1.1516863853e-02 1.8684255029e+00 -3.2362079012e+00 1.8684255029e+00 3.2362079012e+00 
55700 3.7229663476e+00 -1.1484340186e-02 1.8687337084e+00 -3.2367417288e+00 1.8687337084e+00 3.2367417288e+00 
55800 3.7229616908e+00 -1.1451875287e-02 1.8690409928e+00 -3.2372739610e+00 1.8690409928e+00 3.2372739610e+00 
55900 3.7229570627e+00 -1.1419469268e-02 1.8693473582e+00 -3.2378046014e+00 1.8693473582e+00 3.2378046014e+00 
56000 3.7229524631e+00 -1.1387122241e-02 1.8696528065e+00 -3.2383336534e+00 1.8696528065e+00 3.2383336534e+00 
56100 3.7229478920e+00 -1.1354834315e-02 1.8699573398e+00 -3.2388611205e+00 1.8699573398e+00 3.2388611205e+00 
56200 3.7229433492e+00 -1.1322605597e-02 1.8702609601e+00 -3.2393870064e+00 1.8702609601e+00 3.2393870064e+00 
56300 3.7229388344e+00 -1.1290436195e-02 1.8705636695e+00 -3.2399113144e+00 1.8705636695e+00 3.2399113144e+00 
56400 3.7229343476e+00 -1.1258326212e-02 1.8708654700e+00 -3.2404340482e+00 1.8708654700e+00 3.2404340482e+00 
56500 3.7229298887e+00 -1.1226275753e-02 1.8711663636e+00 -3.2409552111e+00 1.8711663636e+00 3.2409552111e+00 
56600 3.7229254574e+00 -1.1194284919e-02 1.8714663523e+00 -3.2414748068e+00 1.8714663523e+00 3.2414748068e+00 
56700 3.7229210536e+00 -1.1162353809e-02 1.8717654382e+00 -3.2419928387e+00 1.8717654382e+00 3.2419928387e+00 
56800 3.7229166771e+00 -1.1130482524e-02 1.8720636232e+00 -3.2425093104e+00 1.8720636232e+00 3.2425093104e+00 
56900 3.7229123279e+00 -1.1098671160e-02 1.8723609095e+00 -3.2430242254e+00 1.8723609095e+00 3.2430242254e+00 
57000 3.7229080058e+00 -1.1066919812e-02 1.8726572991e+00 -3.2435375871e+00 1.8726572991e+00 3.2435375871e+00 
57100 3.7229037106e+00 -1.1035228576e-02 1.8729527939e+00 -3.2440493992e+00 1.8729527939e+00 3.2440493992e+00 
57200 3.7228994421e+00 -1.1003597542e-02 1.8732473960e+00 -3.2445596651e+00 1.8732473960e+00 3.2445596651e+00 
57300 3.7228952003e+00 -1.0972026803e-02 1.8735411075e+00 -3.2450683882e+00 1.8735411075e+00 3.2450683882e+00 
57400 3.7228909850e+00 -1.0940516448e-02 1.8738339303e+00 -3.2455755723e+00 1.8738339303e+00 3.2455755723e+00 
57500 3.7228867960e+00 -1.0909066565e-02 1.8741258666e+00 -3.2460812207e+00 1.8741258666e+00 3.2460812207e+00 
57600 3.7228826332e+00 -1.0877677241e-02 1.8744169182e+00 -3.2465853369e+00 1.8744169182e+00 3.2465853369e+00 
57700 3.7228784964e+00 -1.0846348560e-02 1.8747070873e+00 -3.2470879246e+00 1.8747070873e+00 3.2470879246e+00 
57800 3.7228743856e+00 -1.0815080606e-02 1.8749963759e+00 -3.2475889871e+00 1.8749963759e+00 3.2475889871e+00 
57900 3.7228703005e+00 -1.0783873461e-02 1.8752847860e+00 -3.2480885281e+00 1.8752847860e+00 3.2480885281e+00 
58000 3.7228662411e+00 -1.0752727206e-02 1.8755723197e+00 -3.2485865509e+00 1.8755723197e+00 3.2485865509e+00 
58100 3.7228622071e+00 -1.0721641919e-02 1.8758589789e+00 -3.2490830592e+00 1.8758589789e+00 3.2490830592e+00 
58200 3.7228581985e+00 -1.0690617678e-02 1.8761447656e+00 -3.2495780565e+00 1.8761447656e+00 3.2495780565e+00 
58300 3.7228542150e+00 -1.0659654559e-02 1.8764296820e+00 -3.2500715461e+00 1.8764296820e+00 3.2500715461e+00 
58400 3.7228502567e+00 -1.0628752637e-02 1.8767137301e+00 -3.2505635318e+00 1.8767137301e+00 3.2505635318e+00 
58500 3.7228463232e+00 -1.0597911984e-02 1.8769969118e+00 -3.2510540169e+00 1.8769969118e+00 3.2510540169e+00 
58600 3.7228424145e+00 -1.0567132672e-02 1.8772792292e+00 -3.2515430049e+00 1.8772792292e+00 3.2515430049e+00 
58700 3.7228385305e+00 -1.0536414771e-02 1.8775606843e+00 -3.2520304995e+00 1.8775606843e+00 3.2520304995e+00 
58800 3.7228346710e+00 -1.0505758349e-02 1.8778412791e+00 -3.2525165040e+00 1.8778412791e+00 3.2525165040e+00 
58900 3.7228308359e+00 -1.0475163475e-02 1.8781210158e+00 -3.2530010221e+00 1.8781210158e+00 3.2530010221e+00 
59000 3.7228270249e+00 -1.0444630213e-02 1.8783998962e+00 -3.2534840571e+00 1.8783998962e+00 3.2534840571e+00 
59100 3.7228232381e+00 -1.0414158627e-02 1.8786779224e+00 -3.2539656126e+00 1.8786779224e+00 3.2539656126e+00 
59200 3.7228194753e+00 -1.0383748781e-02 1.8789550964e+00 -3.2544456921e+00 1.8789550964e+00 3.2544456921e+00 
59300 3.7228157362e+00 -1.0353400735e-02 1.8792314203e+00 -3.2549242991e+00 1.8792314203e+00 3.2549242991e+00 
59400 3.7228120209e+00 -1.0323114549e-02 1.8795068960e+00 -3.2554014371e+00 1.8795068960e+00 3.2554014371e+00 
59500 3.7228083291e+00 -1.0292890282e-02 1.8797815257e+00 -3.2558771096e+00 1.8797815257e+00 3.2558771096e+00 
59600 3.7228046608e+00 -1.0262727991e-02 1.8800553112e+00 -3.2563513200e+00 1.8800553112e+00 3.2563513200e+00 
59700 3.7228010157e+00 -1.0232627731e-02 1.8803282547e+00 -3.2568240720e+00 1.8803282547e+00 3.2568240720e+00 
59800 3.7227973938e+00 -1.0202589556e-02 1.8806003581e+00 -3.2572953689e+00 1.8806003581e+00 3.2572953689e+00 
59900 3.7227937950e+00 -1.0172613518e-02 1.8808716234e+00 -3.2577652143e+00 1.8808716234e+00 3.2577652143e+00 
60000 3.7227902190e+00 -1.0142699670e-02 1.8811420528e+00 -3.2582336117e+00 1.8811420528e+00 3.2582336117e+00 
60100 3.7227866658e+00 -1.0112848060e-02 1.8814116481e+00 -3.2587005644e+00 1.8814116481e+00 3.2587005644e+00 
60200 3.7227831352e+00 -1.0083058738e-02 1.8816804114e+00 -3.2591660762e+00 1.8816804114e+00 3.2591660762e+00 
60300 3.7227796272e+00 -1.0053331749e-02 1.8819483447e+00 -3.2596301503e+00 1.8819483447e+00 3.2596301503e+00 
60400 3.7227761415e+00 -1.0023667141e-02 1.8822154501e+00 -3.2600927904e+00 1.8822154501e+00 3.2600927904e+00 
60500 3.7227726781e+00 -9.9940649556e-03 1.8824817295e+00 -3.2605539998e+00 1.8824817295e+00 3.2605539998e+00 
60600 3.7227692368e+00 -9.9645252372e-03 1.8827471849e+00 -3.2610137821e+00 1.8827471849e+00 3.2610137821e+00 
60700 3.7227658175e+00 -9.9350480268e-03 1.8830118184e+00 -3.2614721407e+00 1.8830118184e+00 3.2614721407e+00 
60800 3.7227624201e+00 -9.9056333643e-03 1.8832756319e+00 -3.2619290791e+00 1.8832756319e+00 3.2619290791e+00 
60900 3.7227590444e+00 -9.8762812884e-03 1.8835386275e+00 -3.2623846009e+00 1.8835386275e+00 3.2623846009e+00 
61000 3.7227556904e+00 -9.8469918365e-03 1.8838008072e+00 -3.2628387094e+00 1.8838008072e+00 3.2628387094e+00 
61100 3.7227523578e+00 -9.8177650443e-03 1.8840621729e+00 -3.2632914081e+00 1.8840621729e+00 3.2632914081e+00 
61200 3.7227490466e+00 -9.7886009465e-03 1.8843227267e+00 -3.2637427005e+00 1.8843227267e+00 3.2637427005e+00 
61300 3.7227457567e+00 -9.7594995763e-03 1.8845824706e+00 -3.2641925901e+00 1.8845824706e+00 3.2641925901e+00 
61400 3.7227424879e+00 -9.7304609654e-03 1.8848414065e+00 -3.2646410803e+00 1.8848414065e+00 3.2646410803e+00 
61500 3.7227392401e+00 -9.7014851445e-03 1.8850995365e+00 -3.2650881746e+00 1.8850995365e+00 3.2650881746e+00 
61600 3.7227360131e+00 -9.6725721427e-03 1.8853568626e+00 -3.2655338765e+00 1.8853568626e+00 3.2655338765e+00 
61700 3.7227328070e+00 -9.6437219878e-03 1.8856133868e+00 -3.2659781894e+00 1.8856133868e+00 3.2659781894e+00 
61800 3.7227296214e+00 -9.6149347065e-03 1.8858691110e+00 -3.2664211167e+00 1.8858691110e+00 3.2664211167e+00 
61900 3.7227264564e+00 -9.5862103239e-03 1.8861240373e+00 -3.2668626619e+00 1.8861240373e+00 3.2668626619e+00 
62000 3.7227233118e+00 -9.5575488639e-03 1.8863781676e+00 -3.2673028285e+00 1.8863781676e+00 3.2673028285e+00 
62100 3.7227201875e+00 -9.5289503491e-03 1.8866315039e+00 -3.2677416199e+00 1.8866315039e+00 3.2677416199e+00 
62200 3.7227170833e+00 -9.5004148010e-03 1.8868840483e+00 -3.2681790396e+00 1.8868840483e+00 3.2681790396e+00 
62300 3.7227139992e+00 -9.4719422394e-03 1.8871358026e+00 -3.2686150909e+00 1.8871358026e+00 3.2686150909e+00 
62400 3.7227109349e+00 -9.4435326832e-03 1.8873867690e+00 -3.2690497774e+00 1.8873867690e+00 3.2690497774e+00 
62500 3.7227078905e+00 -9.4151861498e-03 1.8876369493e+00 -3.2694831025e+00 1.8876369493e+00 3.2694831025e+00 
62600 3.7227048658e+00 -9.3869026554e-03 1.8878863456e+00 -3.2699150696e+00 1.8878863456e+00 3.2699150696e+00 
62700 3.7227018607e+00 -9.3586822150e-03 1.8881349599e+00 -3.2703456821e+00 1.8881349599e+00 3.2703456821e+00 
62800 3.7226988750e+00 -9.3305248422e-03 1.8883827940e+00 -3.2707749434e+00 1.8883827940e+00 3.2707749434e+00 
62900 3.7226959087e+00 -9.3024305495e-03 1.8886298501e+00 -3.2712028571e+00 1.8886298501e+00 3.2712028571e+00 
63000 3.7226929616e+00 -9.2743993481e-03 1.8888761300e+00 -3.2716294264e+00 1.8888761300e+00 3.2716294264e+00 
63100 3.7226900336e+00 -9.2464312479e-03 1.8891216358e+00 -3.2720546549e+00 1.8891216358e+00 3.2720546549e+00 
63200 3.7226871246e+00 -9.2185262576e-03 1.8893663694e+00 -3.2724785459e+00 1.8893663694e+00 3.2724785459e+00 
63300 3.7226842346e+00 -9.1906843847e-03 1.8896103328e+00 -3.2729011029e+00 1.8896103328e+00 3.2729011029e+00 
63400 3.7226813633e+00 -9.1629056356e-03 1.8898535280e+00 -3.2733223293e+00 1.8898535280e+00 3.2733223293e+00 
63500 3.7226785106e+00 -9.1351900152e-03 1.8900959568e+00 -3.2737422284e+00 1.8900959568e+00 3.2737422284e+00 
63600 3.7226756765e+00 -9.1075375275e-03 1.8903376214e+00 -3.2741608038e+00 1.8903376214e+00 3.2741608038e+00 
63700 3.7226728609e+00 -9.0799481752e-03 1.8905785237e+00 -3.2745780587e+00 1.8905785237e+00 3.2745780587e+00 
63800 3.7226700636e+00 -9.0524219597e-03 1.8908186655e+00 -3.2749939965e+00 1.8908186655e+00 3.2749939965e+00 
63900 3.7226672845e+00 -9.0249588813e-03 1.8910580489e+00 -3.2754086208e+00 1.8910580489e+00 3.2754086208e+00 
64000 3.7226645236e+00 -8.9975589393e-03 1.8912966759e+00 -3.2758219348e+00 1.8912966759e+00 3.2758219348e+00 
64100 3.7226617806e+00 -8.9702221314e-03 1.8915345483e+00 -3.2762339420e+00 1.8915345483e+00 3.2762339420e+00 
64200 3.7226590556e+00 -8.9429484546e-03 1.8917716682e+00 -3.2766446457e+00 1.8917716682e+00 3.2766446457e+00 
64300 3.7226563484e+00 -8.9157379045e-03 1.8920080375e+00 -3.2770540493e+00 1.8920080375e+00 3.2770540493e+00 
64400 3.7226536588e+00 -8.8885904755e-03 1.8922436582e+00 -3.2774621562e+00 1.8922436582e+00 3.2774621562e+00 
64500 3.7226509868e+00 -8.8615061611e-03 1.8924785321e+00 -3.2778689698e+00 1.8924785321e+00 3.2778689698e+00 
64600 3.7226483323e+00 -8.8344849535e-03 1.8927126613e+00 -3.2782744935e+00 1.8927126613e+00 3.2782744935e+00 
64700 3.7226456952e+00 -8.8075268438e-03 1.8929460476e+00 -3.2786787305e+00 1.8929460476e+00 3.2786787305e+00 
64800 3.7226430753e+00 -8.7806318220e-03 1.8931786931e+00 -3.2790816843e+00 1.8931786931e+00 3.2790816843e+00 
64900 3.7226404726e+00 -8.7537998769e-03 1.8934105997e+00 -3.2794833583e+00 1.8934105997e+00 3.2794833583e+00 
65000 3.7226378870e+00 -8.7270309963e-03 1.8936417693e+00 -3.2798837557e+00 1.8936417693e+00 3.2798837557e+00 
65100 3.7226353183e+00 -8.7003251668e-03 1.8938722038e+00 -3.2802828799e+00 1.8938722038e+00 3.2802828799e+00 
65200 3.7226327665e+00 -8.6736823742e-03 1.8941019051e+00 -3.2806807344e+00 1.8941019051e+00 3.2806807344e+00 
65300 3.7226302314e+00 -8.6471026028e-03 1.8943308753e+00 -3.2810773224e+00 1.8943308753e+00 3.2810773224e+00 
65400 3.7226277130e+00 -8.6205858361e-03 1.8945591162e+00 -3.2814726472e+00 1.8945591162e+00 3.2814726472e+00 
65500 3.7226252111e+00 -8.5941320565e-03 1.8947866298e+00 -3.2818667123e+00 1.8947866298e+00 3.2818667123e+00 
65600 3.7226227256e+00 -8.5677412452e-03 1.8950134180e+00 -3.2822595209e+00 1.8950134180e+00 3.2822595209e+00 
65700 3.7226202566e+00 -8.5414133824e-03 1.8952394826e+00 -3.2826510764e+00 1.8952394826e+00 3.2826510764e+00 
65800 3.7226178037e+00 -8.5151484474e-03 1.8954648257e+00 -3.2830413821e+00 1.8954648257e+00 3.2830413821e+00 
65900 3.7226153670e+00 -8.4889464184e-03 1.8956894492e+00 -3.2834304413e+00 1.8956894492e+00 3.2834304413e+00 
66000 3.7226129464e+00 -8.4628072723e-03 1.8959133549e+00 -3.2838182574e+00 1.8959133549e+00 3.2838182574e+00 
66100 3.7226105417e+00 -8.4367309854e-03 1.8961365447e+00 -3.2842048336e+00 1.8961365447e+00 3.2842048336e+00 
66200 3.7226081529e+00 -8.4107175327e-03 1.8963590207e+00 -3.2845901732e+00 1.8963590207e+00 3.2845901732e+00 
66300 3.7226057798e+00 -8.3847668882e-03 1.8965807847e+00 -3.2849742797e+00 1.8965807847e+00 3.2849742797e+00 
66400 3.7226034224e+00 -8.3588790250e-03 1.8968018385e+00 -3.2853571562e+00 1.8968018385e+00 3.2853571562e+00 
66500 3.7226010805e+00 -8.3330539152e-03 1.8970221842e+00 -3.2857388060e+00 1.8970221842e+00 3.2857388060e+00 
66600 3.7225987542e+00 -8.3072915299e-03 1.8972418235e+00 -3.2861192326e+00 1.8972418235e+00 3.2861192326e+00 
66700 3.7225964432e+00 -8.2815918391e-03 1.8974607585e+00 -3.2864984390e+00 1.8974607585e+00 3.2864984390e+00 
66800 3.7225941475e+00 -8.2559548119e-03 1.8976789909e+00 -3.2868764288e+00 1.8976789909e+00 3.2868764288e+00 
66900 3.7225918669e+00 -8.2303804165e-03 1.8978965228e+00 -3.2872532050e+00 1.8978965228e+00 3.2872532050e+00 
67000 3.7225896015e+00 -8.2048686200e-03 1.8981133559e+00 -3.2876287710e+00 1.8981133559e+00 3.2876287710e+00 
67100 3.7225873511e+00 -8.1794193888e-03 1.8983294922e+00 -3.2880031301e+00 1.8983294922e+00 3.2880031301e+00 
67200 3.7225851155e+00 -8.1540326881e-03 1.8985449336e+00 -3.2883762855e+00 1.8985449336e+00 3.2883762855e+00 
67300 3.7225828948e+00 -8.1287084821e-03 1.8987596819e+00 -3.2887482404e+00 1.8987596819e+00 3.2887482404e+00 
67400 3.7225806889e+00 -8.1034467344e-03 1.8989737390e+00 -3.2891189983e+00 1.8989737390e+00 3.2891189983e+00 
67500 3.7225784975e+00 -8.0782474074e-03 1.8991871069e+00 -3.2894885622e+00 1.8991871069e+00 3.2894885622e+00 
67600 3.7225763207e+00 -8.0531104627e-03 1.8993997873e+00 -3.2898569355e+00 1.8993997873e+00 3.2898569355e+00 
67700 3.7225741584e+00 -8.0280358609e-03 1.8996117822e+00 -3.2902241214e+00 1.8996117822e+00 3.2902241214e+00 
67800 3.7225720104e+00 -8.0030235618e-03 1.8998230934e+00 -3.2905901231e+00 1.8998230934e+00 3.2905901231e+00 
67900 3.7225698767e+00 -7.9780735242e-03 1.9000337228e+00 -3.2909549439e+00 1.9000337228e+00 3.2909549439e+00 
68000 3.7225677571e+00 -7.9531857061e-03 1.9002436722e+00 -3.2913185870e+00 1.9002436722e+00 3.2913185870e+00 
68100 3.7225656517e+00 -7.9283600646e-03 1.9004529436e+00 -3.2916810556e+00 1.9004529436e+00 3.2916810556e+00 
68200 3.7225635603e+00 -7.9035965559e-03 1.9006615387e+00 -3.2920423530e+00 1.9006615387e+00 3.2920423530e+00 
68300 3.7225614828e+00 -7.8788951353e-03 1.9008694595e+00 -3.2924024824e+00 1.9008694595e+00 3.2924024824e+00 
68400 3.7225594191e+00 -7.8542557573e-03 1.9010767078e+00 -3.2927614469e+00 1.9010767078e+00 3.2927614469e+00 
68500 3.7225573692e+00 -7.8296783755e-03 1.9012832854e+00 -3.2931192499e+00 1.9012832854e+00 3.2931192499e+00 
68600 3.7225553330e+00 -7.8051629427e-03 1.9014891942e+00 -3.2934758944e+00 1.9014891942e+00 3.2934758944e+00 
68700 3.7225533103e+00 -7.7807094108e-03 1.9016944360e+00 -3.2938313837e+00 1.9016944360e+00 3.2938313837e+00 
68800 3.7225513012e+00 -7.7563177309e-03 1.9018990128e+00 -3.2941857210e+00 1.9018990128e+00 3.2941857210e+00 
68900 3.7225493054e+00 -7.7319878533e-03 1.9021029262e+00 -3.2945389095e+00 1.9021029262e+00 3.2945389095e+00 
69000 3.7225473230e+00 -7.7077197275e-03 1.9023061783e+00 -3.2948909523e+00 1.9023061783e+00 3.2948909523e+00 
69100 3.7225453538e+00 -7.6835133020e-03 1.9025087707e+00 -3.2952418527e+00 1.9025087707e+00 3.2952418527e+00 
69200 3.7225433977e+00 -7.6593685247e-03 1.9027107054e+00 -3.2955916138e+00 1.9027107054e+00 3.2955916138e+00 
69300 3.7225414548e+00 -7.6352853427e-03 1.9029119841e+00 -3.2959402388e+00 1.9029119841e+00 3.2959402388e+00 
69400 3.7225395248e+00 -7.6112637022e-03 1.9031126087e+00 -3.2962877308e+00 1.9031126087e+00 3.2962877308e+00 
69500 3.7225376078e+00 -7.5873035486e-03 1.9033125810e+00 -3.2966340930e+00 1.9033125810e+00 3.2966340930e+00 
69600 3.7225357036e+00 -7.5634048266e-03 1.9035119029e+00 -3.2969793286e+00 1.9035119029e+00 3.2969793286e+00 
69700 3.7225338121e+00 -7.5395674802e-03 1.9037105761e+00 -3.2973234407e+00 1.9037105761e+00 3.2973234407e+00 
69800 3.7225319333e+00 -7.5157914525e-03 1.9039086025e+00 -3.2976664324e+00 1.9039086025e+00 3.2976664324e+00 
69900 3.7225300671e+00 -7.4920766858e-03 1.9041059838e+00 -3.2980083070e+00 1.9041059838e+00 3.2980083070e+00 
70000 3.7225282134e+00 -7.4684231218e-03 1.9043027220e+00 -3.2983490674e+00 1.9043027220e+00 3.2983490674e+00 
70100 3.7225263722e+00 -7.4448307014e-03 1.9044988187e+00 -3.2986887170e+00 1.9044988187e+00 3.2986887170e+00 
70200 3.7225245433e+00 -7.4212993648e-03 1.9046942759e+00 -3.2990272587e+00 1.9046942759e+00 3.2990272587e+00 
70300 3.7225227266e+00 -7.3978290513e-03 1.9048890952e+00 -3.2993646957e+00 1.9048890952e+00 3.2993646957e+00 
70400 3.7225209222e+00 -7.3744196997e-03 1.9050832785e+00 -3.2997010311e+00 1.9050832785e+00 3.2997010311e+00 
70500 3.7225191299e+00 -7.3510712480e-03 1.9052768277e+00 -3.3000362680e+00 1.9052768277e+00 3.3000362680e+00 
70600 3.7225173497e+00 -7.3277836333e-03 1.9054697444e+00 -3.3003704096e+00 1.9054697444e+00 3.3003704096e+00 
70700 3.7225155814e+00 -7.3045567924e-03 1.9056620305e+00 -3.3007034589e+00 1.9056620305e+00 3.3007034589e+00 
70800 3.7225138250e+00 -7.2813906610e-03 1.9058536878e+00 -3.3010354190e+00 1.9058536878e+00 3.3010354190e+00 
70900 3.7225120804e+00 -7.2582851744e-03 1.9060447180e+00 -3.3013662930e+00 1.9060447180e+00 3.3013662930e+00 
71000 3.7225103475e+00 -7.2352402670e-03 1.9062351229e+00 -3.3016960840e+00 1.9062351229e+00 3.3016960840e+00 
71100 3.7225086264e+00 -7.2122558727e-03 1.9064249043e+00 -3.3020247951e+00 1.9064249043e+00 3.3020247951e+00 
71200 3.7225069168e+00 -7.1893319246e-03 1.9066140640e+00 -3.3023524293e+00 1.9066140640e+00 3.3023524293e+00 
71300 3.7225052187e+00 -7.1664683551e-03 1.9068026038e+00 -3.3026789897e+00 1.9068026038e+00 3.3026789897e+00 
71400 3.7225035321e+00 -7.1436650962e-03 1.9069905253e+00 -3.3030044794e+00 1.9069905253e+00 3.3030044794e+00 
71500 3.7225018568e+00 -7.1209220790e-03 1.9071778304e+00 -3.3033289014e+00 1.9071778304e+00 3.3033289014e+00 
71600 3.7225001929e+00 -7.0982392340e-03 1.9073645209e+00 -3.3036522587e+00 1.9073645209e+00 3.3036522587e+00 
71700 3.7224985402e+00 -7.0756164910e-03 1.9075505985e+00 -3.3039745545e+00 1.9075505985e+00 3.3039745545e+00 
71800 3.7224968986e+00 -7.0530537795e-03 1.9077360649e+00 -3.3042957918e+00 1.9077360649e+00 3.3042957918e+00 
71900 3.7224952681e+00 -7.0305510279e-03 1.9079209219e+00 -3.3046159735e+00 1.9079209219e+00 3.3046159735e+00 
72000 3.7224936487e+00 -7.0081081644e-03 1.9081051712e+00 -3.3049351028e+00 1.9081051712e+00 3.3049351028e+00 
72100 3.7224920401e+00 -6.9857251162e-03 1.9082888147e+00 -3.3052531825e+00 1.9082888147e+00 3.3052531825e+00 
72200 3.7224904425e+00 -6.9634018103e-03 1.9084718540e+00 -3.3055702159e+00 1.9084718540e+00 3.3055702159e+00 
72300 3.7224888557e+00 -6.9411381728e-03 1.9086542909e+00 -3.3058862058e+00 1.9086542909e+00 3.3058862058e+00 
72400 3.7224872795e+00 -6.9189341292e-03 1.9088361270e+00 -3.3062011554e+00 1.9088361270e+00 3.3062011554e+00 
72500 3.7224857141e+00 -6.8967896047e-03 1.9090173643e+00 -3.3065150675e+00 1.9090173643e+00 3.3065150675e+00 
72600 3.7224841592e+00 -6.8747045235e-03 1.9091980043e+00 -3.3068279451e+00 1.9091980043e+00 3.3068279451e+00 
72700 3.7224826149e+00 -6.8526788097e-03 1.9093780488e+00 -3.3071397914e+00 1.9093780488e+00 3.3071397914e+00 
72800 3.7224810811e+00 -6.8307123864e-03 1.9095574995e+00 -3.3074506092e+00 1.9095574995e+00 3.3074506092e+00 
72900 3.7224795576e+00 -6.8088051764e-03 1.9097363582e+00 -3.3077604015e+00 1.9097363582e+00 3.3077604015e+00 
73000 3.7224780445e+00 -6.7869571019e-03 1.9099146266e+00 -3.3080691714e+00 1.9099146266e+00 3.3080691714e+00 
73100 3.7224765416e+00 -6.7651680844e-03 1.9100923063e+00 -3.3083769217e+00 1.9100923063e+00 3.3083769217e+00 
73200 3.7224750489e+00 -6.7434380450e-03 1.9102693991e+00 -3.3086836554e+00 1.9102693991e+00 3.3086836554e+00 
73300 3.7224735663e+00 -6.7217669043e-03 1.9104459067e+00 -3.3089893756e+00 1.9104459067e+00 3.3089893756e+00 
73400 3.7224720939e+00 -6.7001545822e-03 1.9106218309e+00 -3.3092940851e+00 1.9106218309e+00 3.3092940851e+00 
73500 3.7224706314e+00 -6.6786009982e-03 1.9107971732e+00 -3.3095977869e+00 1.9107971732e+00 3.3095977869e+00 
73600 3.7224691788e+00 -6.6571060712e-03 1.9109719354e+00 -3.3099004839e+00 1.9109719354e+00 3.3099004839e+00 
73700 3.7224677361e+00 -6.6356697197e-03 1.9111461192e+00 -3.3102021791e+00 1.9111461192e+00 3.3102021791e+00 
73800 3.7224663032e+00 -6.6142918616e-03 1.9113197263e+00 -3.3105028754e+00 1.9113197263e+00 3.3105028754e+00 
73900 3.7224648801e+00 -6.5929724144e-03 1.9114927583e+00 -3.3108025757e+00 1.9114927583e+00 3.3108025757e+00 
74000 3.7224634666e+00 -6.5717112948e-03 1.9116652170e+00 -3.3111012830e+00 1.9116652170e+00 3.3111012830e+00 
74100 3.7224620627e+00 -6.5505084194e-03 1.9118371041e+00 -3.3113990001e+00 1.9118371041e+00 3.3113990001e+00 
74200 3.7224606684e+00 -6.5293637041e-03 1.9120084211e+00 -3.3116957299e+00 1.9120084211e+00 3.3116957299e+00 
74300 3.7224592836e+00 -6.5082770643e-03 1.9121791699e+00 -3.3119914754e+00 1.9121791699e+00 3.3119914754e+00 
74400 3.7224579083e+00 -6.4872484151e-03 1.9123493520e+00 -3.3122862395e+00 1.9123493520e+00 3.3122862395e+00 
74500 3.7224565423e+00 -6.4662776708e-03 1.9125189691e+00 -3.3125800250e+00 1.9125189691e+00 3.3125800250e+00 
74600 3.7224551856e+00 -6.4453647457e-03 1.9126880230e+00 -3.3128728348e+00 1.9126880230e+00 3.3128728348e+00 
74700 3.7224538381e+00 -6.4245095533e-03 1.9128565151e+00 -3.3131646718e+00 1.9128565151e+00 3.3131646718e+00 
74800 3.7224524998e+00 -6.4037120067e-03 1.9130244473e+00 -3.3134555389e+00 1.9130244473e+00 3.3134555389e+00 
74900 3.7224511707e+00 -6.3829720185e-03 1.9131918212e+00 -3.3137454389e+00 1.9131918212e+00 3.3137454389e+00 
75000 3.7224498506e+00 -6.3622895012e-03 1.9133586383e+00 -3.3140343747e+00 1.9133586383e+00 3.3140343747e+00 
75100 3.7224485396e+00 -6.3416643664e-03 1.9135249005e+00 -3.3143223492e+00 1.9135249005e+00 3.3143223492e+00 
75200 3.7224472374e+00 -6.3210965256e-03 1.9136906092e+00 -3.3146093651e+00 1.9136906092e+00 3.3146093651e+00 
75300 3.7224459442e+00 -6.3005858897e-03 1.9138557662e+00 -3.3148954254e+00 1.9138557662e+00 3.3148954254e+00 
75400 3.7224446598e+00 -6.2801323693e-03 1.9140203731e+00 -3.3151805329e+00 1.9140203731e+00 3.3151805329e+00 
75500 3.7224433842e+00 -6.2597358744e-03 1.9141844315e+00 -3.3154646903e+00 1.9141844315e+00 3.3154646903e+00 
75600 3.7224421173e+00 -6.2393963149e-03 1.9143479430e+00 -3.3157479006e+00 1.9143479430e+00 3.3157479006e+00 
75700 3.7224408591e+00 -6.2191136000e-03 1.9145109093e+00 -3.3160301666e+00 1.9145109093e+00 3.3160301666e+00 
75800 3.7224396095e+00 -6.1988876386e-03 1.9146733320e+00 -3.3163114910e+00 1.9146733320e+00 3.3163114910e+00 
75900 3.7224383684e+00 -6.1787183393e-03 1.9148352128e+00 -3.3165918767e+00 1.9148352128e+00 3.3165918767e+00 
76000 3.7224371358e+00 -6.1586056101e-03 1.9149965532e+00 -3.3168713264e+00 1.9149965532e+00 3.3168713264e+00 
76100 3.7224359116e+00 -6.1385493589e-03 1.9151573548e+00 -3.3171498430e+00 1.9151573548e+00 3.3171498430e+00 
76200 3.7224346959e+00 -6.1185494930e-03 1.9153176193e+00 -3.3174274293e+00 1.9153176193e+00 3.3174274293e+00 
76300 3.7224334884e+00 -6.0986059195e-03 1.9154773483e+00 -3.3177040880e+00 1.9154773483e+00 3.3177040880e+00 
76400 3.7224322892e+00 -6.0787185449e-03 1.9156365434e+00 -3.3179798219e+00 1.9156365434e+00 3.3179798219e+00 
76500 3.7224310983e+00 -6.0588872755e-03 1.9157952061e+00 -3.3182546338e+00 1.9157952061e+00 3.3182546338e+00 
76600 3.7224299155e+00 -6.0391120173e-03 1.9159533381e+00 -3.3185285265e+00 1.9159533381e+00 3.3185285265e+00 
76700 3.7224287408e+00 -6.0193926758e-03 1.9161109410e+00 -3.3188015027e+00 1.9161109410e+00 3.3188015027e+00 
76800 3.7224275742e+00 -5.9997291562e-03 1.9162680163e+00 -3.3190735651e+00 1.9162680163e+00 3.3190735651e+00 
76900 3.7224264156e+00 -5.9801213635e-03 1.9164245656e+00 -3.3193447166e+00 1.9164245656e+00 3.3193447166e+00 
77000 3.7224252649e+00 -5.9605692021e-03 1.9165805906e+00 -3.3196149598e+00 1.9165805906e+00 3.3196149598e+00 
77100 3.7224241221e+00 -5.9410725763e-03 1.9167360928e+00 -3.3198842975e+00 1.9167360928e+00 3.3198842975e+00 
77200 3.7224229872e+00 -5.9216313899e-03 1.9168910738e+00 -3.3201527324e+00 1.9168910738e+00 3.3201527324e+00 
77300 3.7224218600e+00 -5.9022455465e-03 1.9170455351e+00 -3.3204202673e+00 1.9170455351e+00 3.3204202673e+00 
77400 3.7224207406e+00 -5.8829149494e-03 1.9171994784e+00 -3.3206869048e+00 1.9171994784e+00 3.3206869048e+00 
77500 3.7224196289e+00 -5.8636395015e-03 1.9173529051e+00 -3.3209526477e+00 1.9173529051e+00 3.3209526477e+00 
77600 3.7224185249e+00 -5.8444191053e-03 1.9175058169e+00 -3.3212174987e+00 1.9175058169e+00 3.3212174987e+00 
77700 3.7224174284e+00 -5.8252536633e-03 1.9176582153e+00 -3.3214814605e+00 1.9176582153e+00 3.3214814605e+00 
77800 3.7224163395e+00 -5.8061430774e-03 1.9178101019e+00 -3.3217445358e+00 1.9178101019e+00 3.3217445358e+00 
77900 3.7224152580e+00 -5.7870872494e-03 1.9179614782e+00 -3.3220067272e+00 1.9179614782e+00 3.3220067272e+00 
78000 3.7224141840e+00 -5.7680860807e-03 1.9181123457e+00 -3.3222680374e+00 1.9181123457e+00 3.3222680374e+00 
78100 3.7224131174e+00 -5.7491394725e-03 1.9182627061e+00 -3.3225284692e+00 1.9182627061e+00 3.3225284692e+00 
78200 3.7224120582e+00 -5.7302473256e-03 1.9184125608e+00 -3.3227880252e+00 1.9184125608e+00 3.3227880252e+00 
78300 3.7224110062e+00 -5.7114095406e-03 1.9185619114e+00 -3.3230467081e+00 1.9185619114e+00 3.3230467081e+00 
78400 3.7224099615e+00 -5.6926260179e-03 1.9187107595e+00 -3.3233045204e+00 1.9187107595e+00 3.3233045204e+00 
78500 3.7224089239e+00 -5.6738966575e-03 1.9188591065e+00 -3.3235614649e+00 1.9188591065e+00 3.3235614649e+00 
78600 3.7224078936e+00 -5.6552213593e-03 1.9190069539e+00 -3.3238175443e+00 1.9190069539e+00 3.3238175443e+00 
78700 3.7224068703e+00 -5.6366000227e-03 1.9191543034e+00 -3.3240727611e+00 1.9191543034e+00 3.3240727611e+00 
78800 3.7224058541e+00 -5.6180325471e-03 1.9193011564e+00 -3.3243271180e+00 1.9193011564e+00 3.3243271180e+00 
78900 3.7224048448e+00 -5.5995188315e-03 1.9194475145e+00 -3.3245806176e+00 1.9194475145e+00 3.3245806176e+00 
79000 3.7224038426e+00 -5.5810587747e-03 1.9195933791e+00 -3.3248332625e+00 1.9195933791e+00 3.3248332625e+00 
79100 3.7224028472e+00 -5.5626522752e-03 1.9197387518e+00 -3.3250850554e+00 1.9197387518e+00 3.3250850554e+00 
79200 3.7224018588e+00 -5.5442992315e-03 1.9198836341e+00 -3.3253359989e+00 1.9198836341e+00 3.3253359989e+00 
79300 3.7224008771e+00 -5.5259995415e-03 1.9200280274e+00 -3.3255860955e+00 1.9200280274e+00 3.3255860955e+00 
79400 3.7223999023e+00 -5.5077531032e-03 1.9201719334e+00 -3.3258353479e+00 1.9201719334e+00 3.3258353479e+00 
79500 3.7223989341e+00 -5.4895598142e-03 1.9203153534e+00 -3.3260837586e+00 1.9203153534e+00 3.3260837586e+00 
79600 3.7223979727e+00 -5.4714195719e-03 1.9204582890e+00 -3.3263313303e+00 1.9204582890e+00 3.3263313303e+00 
79700 3.7223970179e+00 -5.4533322735e-03 1.9206007416e+00 -3.3265780655e+00 1.9206007416e+00 3.3265780655e+00 
79800 3.7223960697e+00 -5.4352978161e-03 1.9207427128e+00 -3.3268239668e+00 1.9207427128e+00 3.3268239668e+00 
79900 3.7223951280e+00 -5.4173160964e-03 1.9208842040e+00 -3.3270690368e+00 1.9208842040e+00 3.3270690368e+00 
80000 3.7223941929e+00 -5.3993870110e-03 1.9210252167e+00 -3.3273132780e+00 1.9210252167e+00 3.3273132780e+00 
80100 3.7223932642e+00 -5.3815104563e-03 1.9211657525e+00 -3.3275566930e+00 1.9211657525e+00 3.3275566930e+00 
80200 3.7223923420e+00 -5.3636863286e-03 1.9213058126e+00 -3.3277992843e+00 1.9213058126e+00 3.3277992843e+00 
80300 3.7223914261e+00 -5.3459145237e-03 1.9214453987e+00 -3.3280410545e+00 1.9214453987e+00 3.3280410545e+00 
80400 3.7223905166e+00 -5.3281949377e-03 1.9215845122e+00 -3.3282820061e+00 1.9215845122e+00 3.3282820061e+00 
80500 3.7223896134e+00 -5.3105274660e-03 1.9217231545e+00 -3.3285221417e+00 1.9217231545e+00 3.3285221417e+00 
80600 3.7223887164e+00 -5.2929120042e-03 1.9218613272e+00 -3.3287614637e+00 1.9218613272e+00 3.3287614637e+00 
80700 3.7223878256e+00 -5.2753484476e-03 1.9219990316e+00 -3.3289999747e+00 1.9219990316e+00 3.3289999747e+00 
80800 3.7223869411e+00 -5.2578366912e-03 1.9221362692e+00 -3.3292376773e+00 1.9221362692e+00 3.3292376773e+00 
80900 3.7223860626e+00 -5.2403766301e-03 1.9222730414e+00 -3.3294745738e+00 1.9222730414e+00 3.3294745738e+00 
81000 3.7223851902e+00 -5.2229681590e-03 1.9224093498e+00 -3.3297106668e+00 1.9224093498e+00 3.3297106668e+00 
81100 3.7223843239e+00 -5.2056111725e-03 1.9225451958e+00 -3.3299459589e+00 1.9225451958e+00 3.3299459589e+00 
81200 3.7223834636e+00 -5.1883055653e-03 1.9226805807e+00 -3.3301804524e+00 1.9226805807e+00 3.3301804524e+00 
81300 3.7223826092e+00 -5.1710512314e-03 1.9228155060e+00 -3.3304141500e+00 1.9228155060e+00 3.3304141500e+00 
81400 3.7223817608e+00 -5.1538480653e-03 1.9229499732e+00 -3.3306470539e+00 1.9229499732e+00 3.3306470539e+00 
81500 3.7223809183e+00 -5.1366959608e-03 1.9230839836e+00 -3.3308791669e+00 1.9230839836e+00 3.3308791669e+00 
81600 3.7223800816e+00 -5.1195948119e-03 1.9232175388e+00 -3.3311104912e+00 1.9232175388e+00 3.3311104912e+00 
81700 3.7223792507e+00 -5.1025445124e-03 1.9233506400e+00 -3.3313410293e+00 1.9233506400e+00 3.3313410293e+00 
81800 3.7223784256e+00 -5.0855449558e-03 1.9234832888e+00 -3.3315707838e+00 1.9234832888e+00 3.3315707838e+00 
81900 3.7223776062e+00 -5.0685960357e-03 1.9236154866e+00 -3.3317997570e+00 1.9236154866e+00 3.3317997570e+00 
82000 3.7223767925e+00 -5.0516976454e-03 1.9237472347e+00 -3.3320279514e+00 1.9237472347e+00 3.3320279514e+00 
82100 3.7223759845e+00 -5.0348496783e-03 1.9238785346e+00 -3.3322553695e+00 1.9238785346e+00 3.3322553695e+00 
82200 3.7223751821e+00 -5.0180520273e-03 1.9240093876e+00 -3.3324820136e+00 1.9240093876e+00 3.3324820136e+00 
82300 3.7223743852e+00 -5.0013045856e-03 1.9241397952e+00 -3.3327078861e+00 1.9241397952e+00 3.3327078861e+00 
82400 3.7223735939e+00 -4.9846072460e-03 1.9242697587e+00 -3.3329329896e+00 1.9242697587e+00 3.3329329896e+00 
82500 3.7223728081e+00 -4.9679599013e-03 1.9243992796e+00 -3.3331573264e+00 1.9243992796e+00 3.3331573264e+00 
82600 3.7223720278e+00 -4.9513624442e-03 1.9245283593e+00 -3.3333808989e+00 1.9245283593e+00 3.3333808989e+00 
82700 3.7223712529e+00 -4.9348147673e-03 1.9246569991e+00 -3.3336037095e+00 1.9246569991e+00 3.3336037095e+00 
82800 3.7223704833e+00 -4.9183167631e-03 1.9247852003e+00 -3.3338257606e+00 1.9247852003e+00 3.3338257606e+00 
82900 3.7223697192e+00 -4.9018683240e-03 1.9249129645e+00 -3.3340470546e+00 1.9249129645e+00 3.3340470546e+00 
83000 3.7223689603e+00 -4.8854693423e-03 1.9250402929e+00 -3.3342675939e+00 1.9250402929e+00 3.3342675939e+00 
83100 3.7223682068e+00 -4.8691197101e-03 1.9251671869e+00 -3.3344873809e+00 1.9251671869e+00 3.3344873809e+00 
83200 3.7223674585e+00 -4.8528193196e-03 1.9252936480e+00 -3.3347064178e+00 1.9252936480e+00 3.3347064178e+00 
83300 3.7223667154e+00 -4.8365680629e-03 1.9254196774e+00 -3.3349247071e+00 1.9254196774e+00 3.3349247071e+00 
83400 3.7223659774e+00 -4.8203658319e-03 1.9255452765e+00 -3.3351422512e+00 1.9255452765e+00 3.3351422512e+00 
83500 3.7223652447e+00 -4.8042125185e-03 1.9256704467e+00 -3.3353590524e+00 1.9256704467e+00 3.3353590524e+00 
83600 3.7223645170e+00 -4.7881080145e-03 1.9257951894e+00 -3.3355751130e+00 1.9257951894e+00 3.3355751130e+00 
83700 3.7223637944e+00 -4.7720522117e-03 1.9259195058e+00 -3.3357904353e+00 1.9259195058e+00 3.3357904353e+00 
83800 3.7223630768e+00 -4.7560450017e-03 1.9260433974e+00 -3.3360050218e+00 1.9260433974e+00 3.3360050218e+00 
83900 3.7223623642e+00 -4.7400862761e-03 1.9261668654e+00 -3.3362188747e+00 1.9261668654e+00 3.3362188747e+00 
84000 3.7223616567e+00 -4.7241759265e-03 1.9262899112e+00 -3.3364319964e+00 1.9262899112e+00 3.3364319964e+00 
84100 3.7223609540e+00 -4.7083138444e-03 1.9264125362e+00 -3.3366443891e+00 1.9264125362e+00 3.3366443891e+00 
84200 3.7223602562e+00 -4.6924999212e-03 1.9265347417e+00 -3.3368560552e+00 1.9265347417e+00 3.3368560552e+00 
84300 3.7223595634e+00 -4.6767340484e-03 1.9266565290e+00 -3.3370669970e+00 1.9266565290e+00 3.3370669970e+00 
84400 3.7223588753e+00 -4.6610161172e-03 1.9267778995e+00 -3.3372772168e+00 1.9267778995e+00 3.3372772168e+00 
84500 3.7223581921e+00 -4.6453460189e-03 1.9268988544e+00 -3.3374867168e+00 1.9268988544e+00 3.3374867168e+00 
84600 3.7223575136e+00 -4.6297236448e-03 1.9270193951e+00 -3.3376954994e+00 1.9270193951e+00 3.3376954994e+00 
84700 3.7223568399e+00 -4.6141488861e-03 1.9271395229e+00 -3.3379035669e+00 1.9271395229e+00 3.3379035669e+00 
84800 3.7223561708e+00 -4.5986216340e-03 1.9272592391e+00 -3.3381109214e+00 1.9272592391e+00 3.3381109214e+00 
84900 3.7223555065e+00 -4.5831417797e-03 1.9273785450e+00 -3.3383175654e+00 1.9273785450e+00 3.3383175654e+00 
85000 3.7223548468e+00 -4.5677092141e-03 1.9274974420e+00 -3.3385235009e+00 1.9274974420e+00 3.3385235009e+00 
85100 3.7223541917e+00 -4.5523238284e-03 1.9276159312e+00 -3.3387287304e+00 1.9276159312e+00 3.3387287304e+00 
85200 3.7223535411e+00 -4.5369855136e-03 1.9277340142e+00 -3.3389332560e+00 1.9277340142e+00 3.3389332560e+00 
85300 3.7223528952e+00 -4.5216941608e-03 1.9278516920e+00 -3.3391370800e+00 1.9278516920e+00 3.3391370800e+00 
85400 3.7223522537e+00 -4.5064496610e-03 1.9279689661e+00 -3.3393402047e+00 1.9279689661e+00 3.3393402047e+00 
85500 3.7223516167e+00 -4.4912519051e-03 1.9280858376e+00 -3.3395426322e+00 1.9280858376e+00 3.3395426322e+00 
85600 3.7223509842e+00 -4.4761007842e-03 1.9282023080e+00 -3.3397443647e+00 1.9282023080e+00 3.3397443647e+00 
85700 3.7223503561e+00 -4.4609961891e-03 1.9283183784e+00 -3.3399454046e+00 1.9283183784e+00 3.3399454046e+00 
85800 3.7223497324e+00 -4.4459380108e-03 1.9284340502e+00 -3.3401457540e+00 1.9284340502e+00 3.3401457540e+00 
85900 3.7223491131e+00 -4.4309261403e-03 1.9285493247e+00 -3.3403454152e+00 1.9285493247e+00 3.3403454152e+00 
86000 3.7223484981e+00 -4.4159604685e-03 1.9286642030e+00 -3.3405443903e+00 1.9286642030e+00 3.3405443903e+00 
86100 3.7223478874e+00 -4.4010408863e-03 1.9287786865e+00 -3.3407426815e+00 1.9287786865e+00 3.3407426815e+00 
86200 3.7223472810e+00 -4.3861672847e-03 1.9288927764e+00 -3.3409402911e+00 1.9288927764e+00 3.3409402911e+00 
86300 3.7223466789e+00 -4.3713395546e-03 1.9290064740e+00 -3.3411372211e+00 1.9290064740e+00 3.3411372211e+00 
86400 3.7223460809e+00 -4.3565575868e-03 1.9291197806e+00 -3.3413334739e+00 1.9291197806e+00 3.3413334739e+00 
86500 3.7223454872e+00 -4.3418212725e-03 1.9292326974e+00 -3.3415290515e+00 1.9292326974e+00 3.3415290515e+00 
86600 3.7223448976e+00 -4.3271305024e-03 1.9293452256e+00 -3.3417239561e+00 1.9293452256e+00 3.3417239561e+00 
86700 3.7223443121e+00 -4.3124851677e-03 1.9294573666e+00 -3.3419181899e+00 1.9294573666e+00 3.3419181899e+00 
86800 3.7223437308e+00 -4.2978851592e-03 1.9295691215e+00 -3.3421117551e+00 1.9295691215e+00 3.3421117551e+00 
86900 3.7223431535e+00 -4.2833303679e-03 1.9296804916e+00 -3.3423046538e+00 1.9296804916e+00 3.3423046538e+00 
87000 3.7223425803e+00 -4.2688206849e-03 1.9297914781e+00 -3.3424968881e+00 1.9297914781e+00 3.3424968881e+00 
87100 3.7223420110e+00 -4.2543560012e-03 1.9299020824e+00 -3.3426884603e+00 1.9299020824e+00 3.3426884603e+00 
87200 3.7223414458e+00 -4.2399362079e-03 1.9300123055e+00 -3.3428793723e+00 1.9300123055e+00 3.3428793723e+00 
87300 3.7223408846e+00 -4.2255611960e-03 1.9301221487e+00 -3.3430696264e+00 1.9301221487e+00 3.3430696264e+00 
87400 3.7223403273e+00 -4.2112308567e-03 1.9302316133e+00 -3.3432592247e+00 1.9302316133e+00 3.3432592247e+00 
87500 3.7223397739e+00 -4.1969450811e-03 1.9303407005e+00 -3.3434481692e+00 1.9303407005e+00 3.3434481692e+00 
87600 3.7223392243e+00 -4.1827037604e-03 1.9304494115e+00 -3.3436364621e+00 1.9304494115e+00 3.3436364621e+00 
87700 3.7223386787e+00 -4.1685067857e-03 1.9305577475e+00 -3.3438241056e+00 1.9305577475e+00 3.3438241056e+00 
87800 3.7223381368e+00 -4.1543540484e-03 1.9306657097e+00 -3.3440111016e+00 1.9306657097e+00 3.3440111016e+00 
87900 3.7223375988e+00 -4.1402454396e-03 1.9307732993e+00 -3.3441974523e+00 1.9307732993e+00 3.3441974523e+00 
88000 3.7223370646e+00 -4.1261808509e-03 1.9308805176e+00 -3.3443831598e+00 1.9308805176e+00 3.3443831598e+00 
88100 3.7223365341e+00 -4.1121601734e-03 1.9309873657e+00 -3.3445682262e+00 1.9309873657e+00 3.3445682262e+00 
88200 3.7223360073e+00 -4.0981832987e-03 1.9310938449e+00 -3.3447526535e+00 1.9310938449e+00 3.3447526535e+00 
88300 3.7223354843e+00 -4.0842501181e-03 1.9311999563e+00 -3.3449364438e+00 1.9311999563e+00 3.3449364438e+00 
88400 3.7223349649e+00 -4.0703605233e-03 1.9313057011e+00 -3.3451195992e+00 1.9313057011e+00 3.3451195992e+00 
88500 3.7223344491e+00 -4.0565144057e-03 1.9314110805e+00 -3.3453021217e+00 1.9314110805e+00 3.3453021217e+00 
88600 3.7223339370e+00 -4.0427116570e-03 1.9315160957e+00 -3.3454840134e+00 1.9315160957e+00 3.3454840134e+00 
88700 3.7223334285e+00 -4.0289521689e-03 1.9316207479e+00 -3.3456652763e+00 1.9316207479e+00 3.3456652763e+00 
88800 3.7223329236e+00 -4.0152358330e-03 1.9317250383e+00 -3.3458459125e+00 1.9317250383e+00 3.3458459125e+00 
88900 3.7223324222e+00 -4.0015625412e-03 1.9318289680e+00 -3.3460259240e+00 1.9318289680e+00 3.3460259240e+00 
89000 3.7223319244e+00 -3.9879321853e-03 1.9319325382e+00 -3.3462053129e+00 1.9319325382e+00 3.3462053129e+00 
89100 3.7223314300e+00 -3.9743446572e-03 1.9320357500e+00 -3.3463840811e+00 1.9320357500e+00 3.3463840811e+00 
89200 3.7223309392e+00 -3.9607998490e-03 1.9321386048e+00 -3.3465622307e+00 1.9321386048e+00 3.3465622307e+00 
89300 3.7223304517e+00 -3.9472976526e-03 1.9322411035e+00 -3.3467397637e+00 1.9322411035e+00 3.3467397637e+00 
89400 3.7223299678e+00 -3.9338379601e-03 1.9323432474e+00 -3.3469166821e+00 1.9323432474e+00 3.3469166821e+00 
89500 3.7223294872e+00 -3.9204206638e-03 1.9324450376e+00 -3.3470929879e+00 1.9324450376e+00 3.3470929879e+00 
89600 3.7223290100e+00 -3.9070456560e-03 1.9325464753e+00 -3.3472686831e+00 1.9325464753e+00 3.3472686831e+00 
89700 3.7223285362e+00 -3.8937128288e-03 1.9326475616e+00 -3.3474437698e+00 1.9326475616e+00 3.3474437698e+00 
89800 3.7223280657e+00 -3.8804220748e-03 1.9327482976e+00 -3.3476182498e+00 1.9327482976e+00 3.3476182498e+00 
89900 3.7223275985e+00 -3.8671732864e-03 1.9328486846e+00 -3.3477921251e+00 1.9328486846e+00 3.3477921251e+00 
90000 3.7223271346e+00 -3.8539663562e-03 1.9329487237e+00 -3.3479653978e+00 1.9329487237e+00 3.3479653978e+00 
90100 3.7223266740e+00 -3.8408011768e-03 1.9330484159e+00 -3.3481380698e+00 1.9330484159e+00 3.3481380698e+00 
90200 3.7223262166e+00 -3.8276776409e-03 1.9331477625e+00 -3.3483101431e+00 1.9331477625e+00 3.3483101431e+00 
90300 3.7223257625e+00 -3.8145956415e-03 1.9332467645e+00 -3.3484816196e+00 1.9332467645e+00 3.3484816196e+00 
90400 3.7223253115e+00 -3.8015550713e-03 1.9333454231e+00 -3.3486525013e+00 1.9333454231e+00 3.3486525013e+00 
90500 3.7223248637e+00 -3.7885558234e-03 1.9334437394e+00 -3.3488227902e+00 1.9334437394e+00 3.3488227902e+00 
90600 3.7223244191e+00 -3.7755977907e-03 1.9335417145e+00 -3.3489924881e+00 1.9335417145e+00 3.3489924881e+00 
90700 3.7223239777e+00 -3.7626808666e-03 1.9336393496e+00 -3.3491615970e+00 1.9336393496e+00 3.3491615970e+00 
90800 3.7223235393e+00 -3.7498049443e-03 1.9337366457e+00 -3.3493301188e+00 1.9337366457e+00 3.3493301188e+00 
90900 3.7223231040e+00 -3.7369699170e-03 1.9338336040e+00 -3.3494980555e+00 1.9338336040e+00 3.3494980555e+00 
91000 3.7223226718e+00 -3.7241756783e-03 1.9339302256e+00 -3.3496654090e+00 1.9339302256e+00 3.3496654090e+00 
91100 3.7223222427e+00 -3.7114221217e-03 1.9340265115e+00 -3.3498321811e+00 1.9340265115e+00 3.3498321811e+00 
91200 3.7223218166e+00 -3.6987091409e-03 1.9341224630e+00 -3.3499983739e+00 1.9341224630e+00 3.3499983739e+00 
91300 3.7223213935e+00 -3.6860366296e-03 1.9342180810e+00 -3.3501639892e+00 1.9342180810e+00 3.3501639892e+00 
91400 3.7223209733e+00 -3.6734044816e-03 1.9343133667e+00 -3.3503290289e+00 1.9343133667e+00 3.3503290289e+00 
91500 3.7223205562e+00 -3.6608125909e-03 1.9344083212e+00 -3.3504934949e+00 1.9344083212e+00 3.3504934949e+00 
91600 3.7223201420e+00 -3.6482608515e-03 1.9345029455e+00 -3.3506573891e+00 1.9345029455e+00 3.3506573891e+00 
91700 3.7223197307e+00 -3.6357491577e-03 1.9345972408e+00 -3.3508207133e+00 1.9345972408e+00 3.3508207133e+00 
91800 3.7223193223e+00 -3.6232774037e-03 1.9346912082e+00 -3.3509834695e+00 1.9346912082e+00 3.3509834695e+00 
91900 3.7223189168e+00 -3.6108454839e-03 1.9347848486e+00 -3.3511456595e+00 1.9347848486e+00 3.3511456595e+00 
92000 3.7223185142e+00 -3.5984532927e-03 1.9348781632e+00 -3.3513072852e+00 1.9348781632e+00 3.3513072852e+00 
92100 3.7223181144e+00 -3.5861007248e-03 1.9349711531e+00 -3.3514683484e+00 1.9349711531e+00 3.3514683484e+00 
92200 3.7223177174e+00 -3.5737876749e-03 1.9350638193e+00 -3.3516288510e+00 1.9350638193e+00 3.3516288510e+00 
92300 3.7223173233e+00 -3.5615140378e-03 1.9351561630e+00 -3.3517887948e+00 1.9351561630e+00 3.3517887948e+00 
92400 3.7223169319e+00 -3.5492797084e-03 1.9352481850e+00 -3.3519481818e+00 1.9352481850e+00 3.3519481818e+00 
92500 3.7223165433e+00 -3.5370845819e-03 1.9353398867e+00 -3.3521070136e+00 1.9353398867e+00 3.3521070136e+00 
92600 3.7223161575e+00 -3.5249285534e-03 1.9354312689e+00 -3.3522652922e+00 1.9354312689e+00 3.3522652922e+00 
92700 3.7223157744e+00 -3.5128115183e-03 1.9355223327e+00 -3.3524230194e+00 1.9355223327e+00 3.3524230194e+00 
92800 3.7223153939e+00 -3.5007333719e-03 1.9356130792e+00 -3.3525801970e+00 1.9356130792e+00 3.3525801970e+00 
92900 3.7223150162e+00 -3.4886940098e-03 1.9357035095e+00 -3.3527368269e+00 1.9357035095e+00 3.3527368269e+00 
93000 3.7223146412e+00 -3.4766933276e-03 1.9357936246e+00 -3.3528929108e+00 1.9357936246e+00 3.3528929108e+00 
93100 3.7223142688e+00 -3.4647312213e-03 1.9358834255e+00 -3.3530484505e+00 1.9358834255e+00 3.3530484505e+00 
93200 3.7223138990e+00 -3.4528075866e-03 1.9359729133e+00 -3.3532034479e+00 1.9359729133e+00 3.3532034479e+00 
93300 3.7223135319e+00 -3.4409223196e-03 1.9360620889e+00 -3.3533579047e+00 1.9360620889e+00 3.3533579047e+00 
93400 3.7223131673e+00 -3.4290753166e-03 1.9361509536e+00 -3.3535118227e+00 1.9361509536e+00 3.3535118227e+00 
93500 3.7223128053e+00 -3.4172664739e-03 1.9362395082e+00 -3.3536652038e+00 1.9362395082e+00 3.3536652038e+00 
93600 3.7223124459e+00 -3.4054956878e-03 1.9363277538e+00 -3.3538180496e+00 1.9363277538e+00 3.3538180496e+00 
93700 3.7223120891e+00 -3.3937628549e-03 1.9364156914e+00 -3.3539703621e+00 1.9364156914e+00 3.3539703621e+00 
93800 3.7223117348e+00 -3.3820678721e-03 1.9365033221e+00 -3.3541221429e+00 1.9365033221e+00 3.3541221429e+00 
93900 3.7223113829e+00 -3.3704106360e-03 1.9365906468e+00 -3.3542733938e+00 1.9365906468e+00 3.3542733938e+00 
94000 3.7223110336e+00 -3.3587910437e-03 1.9366776667e+00 -3.3544241165e+00 1.9366776667e+00 3.3544241165e+00 
94100 3.7223106868e+00 -3.3472089923e-03 1.9367643826e+00 -3.3545743129e+00 1.9367643826e+00 3.3545743129e+00 
94200 3.7223103424e+00 -3.3356643791e-03 1.9368507956e+00 -3.3547239847e+00 1.9368507956e+00 3.3547239847e+00 
94300 3.7223100004e+00 -3.3241571014e-03 1.9369369068e+00 -3.3548731336e+00 1.9369369068e+00 3.3548731336e+00 
94400 3.7223096609e+00 -3.3126870567e-03 1.9370227171e+00 -3.3550217614e+00 1.9370227171e+00 3.3550217614e+00 
94500 3.7223093237e+00 -3.3012541429e-03 1.9371082274e+00 -3.3551698697e+00 1.9371082274e+00 3.3551698697e+00 
94600 3.7223089890e+00 -3.2898582575e-03 1.9371934390e+00 -3.3553174604e+00 1.9371934390e+00 3.3553174604e+00 
94700 3.7223086566e+00 -3.2784992987e-03 1.9372783526e+00 -3.3554645351e+00 1.9372783526e+00 3.3554645351e+00 
94800 3.7223083266e+00 -3.2671771645e-03 1.9373629693e+00 -3.3556110956e+00 1.9373629693e+00 3.3556110956e+00 
94900 3.7223079990e+00 -3.2558917532e-03 1.9374472901e+00 -3.3557571435e+00 1.9374472901e+00 3.3557571435e+00 
95000 3.7223076736e+00 -3.2446429631e-03 1.9375313160e+00 -3.3559026806e+00 1.9375313160e+00 3.3559026806e+00 
95100 3.7223073506e+00 -3.2334306928e-03 1.9376150480e+00 -3.3560477087e+00 1.9376150480e+00 3.3560477087e+00 
95200 3.7223070298e+00 -3.2222548410e-03 1.9376984870e+00 -3.3561922293e+00 1.9376984870e+00 3.3561922293e+00 
95300 3.7223067114e+00 -3.2111153066e-03 1.9377816341e+00 -3.3563362442e+00 1.9377816341e+00 3.3563362442e+00 
95400 3.7223063952e+00 -3.2000119884e-03 1.9378644901e+00 -3.3564797551e+00 1.9378644901e+00 3.3564797551e+00 
95500 3.7223060812e+00 -3.1889447857e-03 1.9379470561e+00 -3.3566227636e+00 1.9379470561e+00 3.3566227636e+00 
95600 3.7223057695e+00 -3.1779135977e-03 1.9380293331e+00 -3.3567652714e+00 1.9380293331e+00 3.3567652714e+00 
95700 3.7223054599e+00 -3.1669183239e-03 1.9381113219e+00 -3.3569072803e+00 1.9381113219e+00 3.3569072803e+00 
95800 3.7223051526e+00 -3.1559588639e-03 1.9381930236e+00 -3.3570487918e+00 1.9381930236e+00 3.3570487918e+00 
95900 3.7223048475e+00 -3.1450351173e-03 1.9382744392e+00 -3.3571898077e+00 1.9382744392e+00 3.3571898077e+00 
96000 3.7223045445e+00 -3.1341469842e-03 1.9383555695e+00 -3.3573303295e+00 1.9383555695e+00 3.3573303295e+00 
96100 3.7223042436e+00 -3.1232943646e-03 1.9384364156e+00 -3.3574703591e+00 1.9384364156e+00 3.3574703591e+00 
96200 3.7223039450e+00 -3.1124771587e-03 1.9385169784e+00 -3.3576098979e+00 1.9385169784e+00 3.3576098979e+00 
96300 3.7223036484e+00 -3.1016952669e-03 1.9385972588e+00 -3.3577489476e+00 1.9385972588e+00 3.3577489476e+00 
96400 3.7223033539e+00 -3.0909485896e-03 1.9386772578e+00 -3.3578875099e+00 1.9386772578e+00 3.3578875099e+00 
96500 3.7223030615e+00 -3.0802370277e-03 1.9387569763e+00 -3.3580255865e+00 1.9387569763e+00 3.3580255865e+00 
96600 3.7223027713e+00 -3.0695604819e-03 1.9388364153e+00 -3.3581631788e+00 1.9388364153e+00 3.3581631788e+00 
96700 3.7223024830e+00 -3.0589188533e-03 1.9389155757e+00 -3.3583002887e+00 1.9389155757e+00 3.3583002887e+00 
96800 3.7223021968e+00 -3.0483120430e-03 1.9389944584e+00 -3.3584369176e+00 1.9389944584e+00 3.3584369176e+00 
96900 3.7223019127e+00 -3.0377399524e-03 1.9390730644e+00 -3.3585730672e+00 1.9390730644e+00 3.3585730672e+00 
97000 3.7223016306e+00 -3.0272024830e-03 1.9391513947e+00 -3.3587087391e+00 1.9391513947e+00 3.3587087391e+00 
97100 3.7223013504e+00 -3.0166995364e-03 1.9392294500e+00 -3.3588439350e+00 1.9392294500e+00 3.3588439350e+00 
97200 3.7223010723e+00 -3.0062310144e-03 1.9393072314e+00 -3.3589786563e+00 1.9393072314e+00 3.3589786563e+00 
97300 3.7223007961e+00 -2.9957968192e-03 1.9393847398e+00 -3.3591129047e+00 1.9393847398e+00 3.3591129047e+00 
97400 3.7223005219e+00 -2.9853968527e-03 1.9394619761e+00 -3.3592466819e+00 1.9394619761e+00 3.3592466819e+00 
97500 3.7223002497e+00 -2.9750310174e-03 1.9395389411e+00 -3.3593799893e+00 1.9395389411e+00 3.3593799893e+00 
97600 3.7222999794e+00 -2.9646992157e-03 1.9396156359e+00 -3.3595128286e+00 1.9396156359e+00 3.3595128286e+00 
97700 3.7222997110e+00 -2.9544013504e-03 1.9396920613e+00 -3.3596452013e+00 1.9396920613e+00 3.3596452013e+00 
97800 3.7222994445e+00 -2.9441373241e-03 1.9397682183e+00 -3.3597771090e+00 1.9397682183e+00 3.3597771090e+00 
97900 3.7222991800e+00 -2.9339070400e-03 1.9398441077e+00 -3.3599085533e+00 1.9398441077e+00 3.3599085533e+00 
98000 3.7222989173e+00 -2.9237104011e-03 1.9399197304e+00 -3.3600395357e+00 1.9399197304e+00 3.3600395357e+00 
98100 3.7222986564e+00 -2.9135473109e-03 1.9399950874e+00 -3.3601700578e+00 1.9399950874e+00 3.3601700578e+00 
98200 3.7222983975e+00 -2.9034176729e-03 1.9400701795e+00 -3.3603001211e+00 1.9400701795e+00 3.3603001211e+00 
98300 3.7222981403e+00 -2.8933213906e-03 1.9401450076e+00 -3.3604297272e+00 1.9401450076e+00 3.3604297272e+00 
98400 3.7222978850e+00 -2.8832583681e-03 1.9402195726e+00 -3.3605588776e+00 1.9402195726e+00 3.3605588776e+00 
98500 3.7222976315e+00 -2.8732285092e-03 1.9402938755e+00 -3.3606875740e+00 1.9402938755e+00 3.3606875740e+00 
98600 3.7222973799e+00 -2.8632317182e-03 1.9403679170e+00 -3.3608158177e+00 1.9403679170e+00 3.3608158177e+00 
98700 3.7222971300e+00 -2.8532678995e-03 1.9404416981e+00 -3.3609436103e+00 1.9404416981e+00 3.3609436103e+00 
98800 3.7222968819e+00 -2.8433369577e-03 1.9405152197e+00 -3.3610709534e+00 1.9405152197e+00 3.3610709534e+00 
98900 3.7222966355e+00 -2.8334387973e-03 1.9405884826e+00 -3.3611978484e+00 1.9405884826e+00 3.3611978484e+00 
99000 3.7222963910e+00 -2.8235733234e-03 1.9406614877e+00 -3.3613242969e+00 1.9406614877e+00 3.3613242969e+00 
99100 3.7222961481e+00 -2.8137404411e-03 1.9407342358e+00 -3.3614503004e+00 1.9407342358e+00 3.3614503004e+00 
99200 3.7222959070e+00 -2.8039400555e-03 1.9408067279e+00 -3.3615758604e+00 1.9408067279e+00 3.3615758604e+00 
99300 3.7222956676e+00 -2.7941720721e-03 1.9408789648e+00 -3.3617009784e+00 1.9408789648e+00 3.3617009784e+00 
99400 3.7222954299e+00 -2.7844363965e-03 1.9409509474e+00 -3.3618256559e+00 1.9409509474e+00 3.3618256559e+00 
99500 3.7222951939e+00 -2.7747329345e-03 1.9410226765e+00 -3.3619498943e+00 1.9410226765e+00 3.3619498943e+00 
99600 3.7222949596e+00 -2.7650615920e-03 1.9410941530e+00 -3.3620736953e+00 1.9410941530e+00 3.3620736953e+00 
99700 3.7222947270e+00 -2.7554222753e-03 1.9411653777e+00 -3.3621970601e+00 1.9411653777e+00 3.3621970601e+00 
99800 3.7222944960e+00 -2.7458148905e-03 1.9412363516e+00 -3.3623199904e+00 1.9412363516e+00 3.3623199904e+00 
99900 3.7222942666e+00 -2.7362393443e-03 1.9413070754e+00 -3.3624424876e+00 1.9413070754e+00 3.3624424876e+00 
100000 3.7222940389e+00 -2.7266955433e-03 1.9413775499e+00 -3.3625645532e+00 1.9413775499e+00 3.3625645532e+00 
100100 3.7222938129e+00 -2.7171833943e-03 1.9414477761e+00 -3.3626861885e+00 1.9414477761e+00 3.3626861885e+00 
100200 3.7222935884e+00 -2.7077028045e-03 1.9415177548e+00 -3.3628073952e+00 1.9415177548e+00 3.3628073952e+00 
100300 3.7222933655e+00 -2.6982536809e-03 1.9415874869e+00 -3.3629281746e+00 1.9415874869e+00 3.3629281746e+00 
100400 3.7222931442e+00 -2.6888359311e-03 1.9416569730e+00 -3.3630485282e+00 1.9416569730e+00 3.3630485282e+00 
100500 3.7222929245e+00 -2.6794494627e-03 1.9417262142e+00 -3.3631684574e+00 1.9417262142e+00 3.3631684574e+00 
100600 3.7222927064e+00 -2.6700941833e-03 1.9417952112e+00 -3.3632879637e+00 1.9417952112e+00 3.3632879637e+00 
100700 3.7222924898e+00 -2.6607700010e-03 1.9418639648e+00 -3.3634070485e+00 1.9418639648e+00 3.3634070485e+00 
100800 3.7222922748e+00 -2.6514768239e-03 1.9419324760e+00 -3.3635257132e+00 1.9419324760e+00 3.3635257132e+00 
100900 3.7222920613e+00 -2.6422145603e-03 1.9420007454e+00 -3.3636439594e+00 1.9420007454e+00 3.3636439594e+00 
101000 3.7222918493e+00 -2.6329831188e-03 1.9420687739e+00 -3.3637617883e+00 1.9420687739e+00 3.3637617883e+00 
101100 3.7222916389e+00 -2.6237824079e-03 1.9421365624e+00 -3.3638792014e+00 1.9421365624e+00 3.3638792014e+00 
101200 3.7222914299e+00 -2.6146123367e-03 1.9422041117e+00 -3.3639962001e+00 1.9422041117e+00 3.3639962001e+00 
101300 3.7222912224e+00 -2.6054728141e-03 1.9422714225e+00 -3.3641127859e+00 1.9422714225e+00 3.3641127859e+00 
101400 3.7222910164e+00 -2.5963637495e-03 1.9423384957e+00 -3.3642289601e+00 1.9423384957e+00 3.3642289601e+00 
101500 3.7222908119e+00 -2.5872850522e-03 1.9424053322e+00 -3.3643447242e+00 1.9424053322e+00 3.3643447242e+00 
101600 3.7222906089e+00 -2.5782366319e-03 1.9424719326e+00 -3.3644600795e+00 1.9424719326e+00 3.3644600795e+00 
101700 3.7222904072e+00 -2.5692183983e-03 1.9425382978e+00 -3.3645750274e+00 1.9425382978e+00 3.3645750274e+00 
101800 3.7222902071e+00 -2.5602302615e-03 1.9426044286e+00 -3.3646895693e+00 1.9426044286e+00 3.3646895693e+00 
101900 3.7222900083e+00 -2.5512721317e-03 1.9426703258e+00 -3.3648037067e+00 1.9426703258e+00 3.3648037067e+00 
102000 3.7222898110e+00 -2.5423439192e-03 1.9427359902e+00 -3.3649174408e+00 1.9427359902e+00 3.3649174408e+00 
102100 3.7222896151e+00 -2.5334455346e-03 1.9428014227e+00 -3.3650307731e+00 1.9428014227e+00 3.3650307731e+00 
102200 3.7222894206e+00 -2.5245768887e-03 1.9428666239e+00 -3.3651437049e+00 1.9428666239e+00 3.3651437049e+00 
102300 3.7222892275e+00 -2.5157378922e-03 1.9429315946e+00 -3.3652562375e+00 1.9429315946e+00 3.3652562375e+00 
102400 3.7222890357e+00 -2.5069284565e-03 1.9429963358e+00 -3.3653683725e+00 1.9429963358e+00 3.3653683725e+00 
102500 3.7222888454e+00 -2.4981484928e-03 1.9430608480e+00 -3.3654801110e+00 1.9430608480e+00 3.3654801110e+00 
102600 3.7222886563e+00 -2.4893979126e-03 1.9431251322e+00 -3.3655914545e+00 1.9431251322e+00 3.3655914545e+00 
102700 3.7222884687e+00 -2.4806766276e-03 1.9431891891e+00 -3.3657024043e+00 1.9431891891e+00 3.3657024043e+00 
102800 3.7222882824e+00 -2.4719845496e-03 1.9432530195e+00 -3.3658129618e+00 1.9432530195e+00 3.3658129618e+00 
102900 3.7222880974e+00 -2.4633215908e-03 1.9433166242e+00 -3.3659231282e+00 1.9433166242e+00 3.3659231282e+00 
103000 3.7222879137e+00 -2.4546876634e-03 1.9433800038e+00 -3.3660329050e+00 1.9433800038e+00 3.3660329050e+00 
103100 3.7222877313e+00 -2.4460826798e-03 1.9434431593e+00 -3.3661422935e+00 1.9434431593e+00 3.3661422935e+00 
103200 3.7222875503e+00 -2.4375065527e-03 1.9435060913e+00 -3.3662512949e+00 1.9435060913e+00 3.3662512949e+00 
103300 3.7222873705e+00 -2.4289591950e-03 1.9435688006e+00 -3.3663599107e+00 1.9435688006e+00 3.3663599107e+00 
103400 3.7222871921e+00 -2.4204405196e-03 1.9436312881e+00 -3.3664681421e+00 1.9436312881e+00 3.3664681421e+00 
103500 3.7222870149e+00 -2.4119504397e-03 1.9436935543e+00 -3.3665759904e+00 1.9436935543e+00 3.3665759904e+00 
103600 3.7222868389e+00 -2.4034888688e-03 1.9437556002e+00 -3.3666834570e+00 1.9437556002e+00 3.3666834570e+00 
103700 3.7222866643e+00 -2.3950557204e-03 1.9438174264e+00 -3.3667905432e+00 1.9438174264e+00 3.3667905432e+00 
103800 3.7222864908e+00 -2.3866509084e-03 1.9438790338e+00 -3.3668972503e+00 1.9438790338e+00 3.3668972503e+00 
103900 3.7222863187e+00 -2.3782743467e-03 1.9439404230e+00 -3.3670035795e+00 1.9439404230e+00 3.3670035795e+00 
104000 3.7222861477e+00 -2.3699259494e-03 1.9440015948e+00 -3.3671095321e+00 1.9440015948e+00 3.3671095321e+00 
104100 3.7222859780e+00 -2.3616056311e-03 1.9440625499e+00 -3.3672151096e+00 1.9440625499e+00 3.3672151096e+00 
104200 3.7222858095e+00 -2.3533133061e-03 1.9441232892e+00 -3.3673203130e+00 1.9441232892e+00 3.3673203130e+00 
104300 3.7222856422e+00 -2.3450488892e-03 1.9441838133e+00 -3.3674251438e+00 1.9441838133e+00 3.3674251438e+00 
104400 3.7222854761e+00 -2.3368122954e-03 1.9442441229e+00 -3.3675296032e+00 1.9442441229e+00 3.3675296032e+00 
104500 3.7222853111e+00 -2.3286034399e-03 1.9443042189e+00 -3.3676336924e+00 1.9443042189e+00 3.3676336924e+00 
104600 3.7222851474e+00 -2.3204222378e-03 1.9443641019e+00 -3.3677374128e+00 1.9443641019e+00 3.3677374128e+00 
104700 3.7222849848e+00 -2.3122686048e-03 1.9444237726e+00 -3.3678407657e+00 1.9444237726e+00 3.3678407657e+00 
104800 3.7222848234e+00 -2.3041424566e-03 1.9444832319e+00 -3.3679437521e+00 1.9444832319e+00 3.3679437521e+00 
104900 3.7222846632e+00 -2.2960437090e-03 1.9445424804e+00 -3.3680463735e+00 1.9445424804e+00 3.3680463735e+00 
105000 3.7222845041e+00 -2.2879722782e-03 1.9446015189e+00 -3.3681486311e+00 1.9446015189e+00 3.3681486311e+00 
105100 3.7222843461e+00 -2.2799280804e-03 1.9446603480e+00 -3.3682505261e+00 1.9446603480e+00 3.3682505261e+00 
105200 3.7222841893e+00 -2.2719110321e-03 1.9447189685e+00 -3.3683520598e+00 1.9447189685e+00 3.3683520598e+00 
105300 3.7222840336e+00 -2.2639210500e-03 1.9447773811e+00 -3.3684532335e+00 1.9447773811e+00 3.3684532335e+00 
105400 3.7222838790e+00 -2.2559580509e-03 1.9448355865e+00 -3.3685540482e+00 1.9448355865e+00 3.3685540482e+00 
105500 3.7222837255e+00 -2.2480219519e-03 1.9448935855e+00 -3.3686545054e+00 1.9448935855e+00 3.3686545054e+00 
105600 3.7222835731e+00 -2.2401126703e-03 1.9449513787e+00 -3.3687546062e+00 1.9449513787e+00 3.3687546062e+00 
105700 3.7222834218e+00 -2.2322301235e-03 1.9450089669e+00 -3.3688543518e+00 1.9450089669e+00 3.3688543518e+00 
105800 3.7222832716e+00 -2.2243742291e-03 1.9450663507e+00 -3.3689537435e+00 1.9450663507e+00 3.3689537435e+00 
105900 3.7222831224e+00 -2.2165449051e-03 1.9451235309e+00 -3.3690527825e+00 1.9451235309e+00 3.3690527825e+00 
106000 3.7222829744e+00 -2.2087420693e-03 1.9451805081e+00 -3.3691514700e+00 1.9451805081e+00 3.3691514700e+00 
106100 3.7222828274e+00 -2.2009656400e-03 1.9452372832e+00 -3.3692498072e+00 1.9452372832e+00 3.3692498072e+00 
106200 3.7222826814e+00 -2.1932155357e-03 1.9452938566e+00 -3.3693477953e+00 1.9452938566e+00 3.3693477953e+00 
106300 3.7222825365e+00 -2.1854916748e-03 1.9453502292e+00 -3.3694454356e+00 1.9453502292e+00 3.3694454356e+00 
106400 3.7222823926e+00 -2.1777939764e-03 1.9454064017e+00 -3.3695427291e+00 1.9454064017e+00 3.3695427291e+00 
106500 3.7222822498e+00 -2.1701223592e-03 1.9454623747e+00 -3.3696396772e+00 1.9454623747e+00 3.3696396772e+00 
106600 3.7222821080e+00 -2.1624767426e-03 1.9455181489e+00 -3.3697362810e+00 1.9455181489e+00 3.3697362810e+00 
106700 3.7222819672e+00 -2.1548570458e-03 1.9455737250e+00 -3.3698325416e+00 1.9455737250e+00 3.3698325416e+00 
106800 3.7222818274e+00 -2.1472631886e-03 1.9456291037e+00 -3.3699284604e+00 1.9456291037e+00 3.3699284604e+00 
106900 3.7222816886e+00 -2.1396950905e-03 1.9456842857e+00 -3.3700240384e+00 1.9456842857e+00 3.3700240384e+00 
107000 3.7222815508e+00 -2.1321526717e-03 1.9457392716e+00 -3.3701192768e+00 1.9457392716e+00 3.3701192768e+00 
107100 3.7222814140e+00 -2.1246358522e-03 1.9457940622e+00 -3.3702141768e+00 1.9457940622e+00 3.3702141768e+00 
107200 3.7222812781e+00 -2.1171445524e-03 1.9458486581e+00 -3.3703087396e+00 1.9458486581e+00 3.3703087396e+00 
107300 3.7222811433e+00 -2.1096786928e-03 1.9459030599e+00 -3.3704029663e+00 1.9459030599e+00 3.3704029663e+00 
107400 3.7222810094e+00 -2.1022381943e-03 1.9459572684e+00 -3.3704968581e+00 1.9459572684e+00 3.3704968581e+00 
107500 3.7222808765e+00 -2.0948229776e-03 1.9460112841e+00 -3.3705904162e+00 1.9460112841e+00 3.3705904162e+00 
107600 3.7222807445e+00 -2.0874329639e-03 1.9460651079e+00 -3.3706836417e+00 1.9460651079e+00 3.3706836417e+00 
107700 3.7222806135e+00 -2.0800680746e-03 1.9461187403e+00 -3.3707765357e+00 1.9461187403e+00 3.3707765357e+00 
107800 3.7222804834e+00 -2.0727282311e-03 1.9461721820e+00 -3.3708690994e+00 1.9461721820e+00 3.3708690994e+00 
107900 3.7222803542e+00 -2.0654133551e-03 1.9462254336e+00 -3.3709613340e+00 1.9462254336e+00 3.3709613340e+00 
108000 3.7222802260e+00 -2.0581233686e-03 1.9462784959e+00 -3.3710532406e+00 1.9462784959e+00 3.3710532406e+00 
108100 3.7222800987e+00 -2.0508581937e-03 1.9463313694e+00 -3.3711448202e+00 1.9463313694e+00 3.3711448202e+00 
108200 3.7222799723e+00 -2.0436177525e-03 1.9463840549e+00 -3.3712360741e+00 1.9463840549e+00 3.3712360741e+00 
108300 3.7222798468e+00 -2.0364019676e-03 1.9464365529e+00 -3.3713270034e+00 1.9464365529e+00 3.3713270034e+00 
108400 3.7222797222e+00 -2.0292107616e-03 1.9464888642e+00 -3.3714176092e+00 1.9464888642e+00 3.3714176092e+00 
108500 3.7222795986e+00 -2.0220440575e-03 1.9465409893e+00 -3.3715078925e+00 1.9465409893e+00 3.3715078925e+00 
108600 3.7222794758e+00 -2.0149017782e-03 1.9465929290e+00 -3.3715978546e+00 1.9465929290e+00 3.3715978546e+00 
108700 3.7222793538e+00 -2.0077838470e-03 1.9466446838e+00 -3.3716874966e+00 1.9466446838e+00 3.3716874966e+00 
108800 3.7222792328e+00 -2.0006901873e-03 1.9466962544e+00 -3.3717768195e+00 1.9466962544e+00 3.3717768195e+00 
108900 3.7222791126e+00 -1.9936207229e-03 1.9467476414e+00 -3.3718658244e+00 1.9467476414e+00 3.3718658244e+00 
109000 3.7222789933e+00 -1.9865753773e-03 1.9467988455e+00 -3.3719545126e+00 1.9467988455e+00 3.3719545126e+00 
109100 3.7222788748e+00 -1.9795540748e-03 1.9468498673e+00 -3.3720428849e+00 1.9468498673e+00 3.3720428849e+00 
109200 3.7222787572e+00 -1.9725567395e-03 1.9469007075e+00 -3.3721309426e+00 1.9469007075e+00 3.3721309426e+00 
109300 3.7222786404e+00 -1.9655832958e-03 1.9469513666e+00 -3.3722186868e+00 1.9469513666e+00 3.3722186868e+00 
109400 3.7222785245e+00 -1.9586336683e-03 1.9470018453e+00 -3.3723061185e+00 1.9470018453e+00 3.3723061185e+00 
109500 3.7222784094e+00 -1.9517077818e-03 1.9470521442e+00 -3.3723932388e+00 1.9470521442e+00 3.3723932388e+00 
109600 3.7222782952e+00 -1.9448055612e-03 1.9471022640e+00 -3.3724800488e+00 1.9471022640e+00 3.3724800488e+00 
109700 3.7222781817e+00 -1.9379269318e-03 1.9471522052e+00 -3.3725665495e+00 1.9471522052e+00 3.3725665495e+00 
109800 3.7222780691e+00 -1.9310718188e-03 1.9472019686e+00 -3.3726527421e+00 1.9472019686e+00 3.3726527421e+00 
109900 3.7222779573e+00 -1.9242401478e-03 1.9472515546e+00 -3.3727386276e+00 1.9472515546e+00 3.3727386276e+00 
110000 3.7222778462e+00 -1.9174318446e-03 1.9473009639e+00 -3.3728242071e+00 1.9473009639e+00 3.3728242071e+00 
110100 3.7222777360e+00 -1.9106468351e-03 1.9473501972e+00 -3.3729094817e+00 1.9473501972e+00 3.3729094817e+00 
110200 3.7222776266e+00 -1.9038850453e-03 1.9473992550e+00 -3.3729944523e+00 1.9473992550e+00 3.3729944523e+00 
110300 3.7222775179e+00 -1.8971464017e-03 1.9474481380e+00 -3.3730791201e+00 1.9474481380e+00 3.3730791201e+00 
110400 3.7222774101e+00 -1.8904308307e-03 1.9474968467e+00 -3.3731634861e+00 1.9474968467e+00 3.3731634861e+00 
110500 3.7222773030e+00 -1.8837382591e-03 1.9475453818e+00 -3.3732475513e+00 1.9475453818e+00 3.3732475513e+00 
110600 3.7222771967e+00 -1.8770686136e-03 1.9475937438e+00 -3.3733313168e+00 1.9475937438e+00 3.3733313168e+00 
110700 3.7222770911e+00 -1.8704218214e-03 1.9476419335e+00 -3.3734147837e+00 1.9476419335e+00 3.3734147837e+00 
110800 3.7222769863e+00 -1.8637978097e-03 1.9476899513e+00 -3.3734979530e+00 1.9476899513e+00 3.3734979530e+00 
110900 3.7222768823e+00 -1.8571965060e-03 1.9477377978e+00 -3.3735808257e+00 1.9477377978e+00 3.3735808257e+00 
111000 3.7222767790e+00 -1.8506178380e-03 1.9477854738e+00 -3.3736634028e+00 1.9477854738e+00 3.3736634028e+00 
111100 3.7222766764e+00 -1.8440617334e-03 1.9478329796e+00 -3.3737456854e+00 1.9478329796e+00 3.3737456854e+00 
111200 3.7222765746e+00 -1.8375281202e-03 1.9478803161e+00 -3.3738276745e+00 1.9478803161e+00 3.3738276745e+00 
111300 3.7222764735e+00 -1.8310169268e-03 1.9479274836e+00 -3.3739093711e+00 1.9479274836e+00 3.3739093711e+00 
111400 3.7222763731e+00 -1.8245280815e-03 1.9479744829e+00 -3.3739907763e+00 1.9479744829e+00 3.3739907763e+00 
111500 3.7222762735e+00 -1.8180615128e-03 1.9480213145e+00 -3.3740718910e+00 1.9480213145e+00 3.3740718910e+00 
111600 3.7222761746e+00 -1.8116171496e-03 1.9480679790e+00 -3.3741527163e+00 1.9480679790e+00 3.3741527163e+00 
111700 3.7222760764e+00 -1.8051949208e-03 1.9481144770e+00 -3.3742332531e+00 1.9481144770e+00 3.3742332531e+00 
111800 3.7222759789e+00 -1.7987947556e-03 1.9481608090e+00 -3.3743135026e+00 1.9481608090e+00 3.3743135026e+00 
111900 3.7222758821e+00 -1.7924165833e-03 1.9482069757e+00 -3.3743934656e+00 1.9482069757e+00 3.3743934656e+00 
112000 3.7222757859e+00 -1.7860603335e-03 1.9482529776e+00 -3.3744731432e+00 1.9482529776e+00 3.3744731432e+00 
112100 3.7222756905e+00 -1.7797259358e-03 1.9482988153e+00 -3.3745525363e+00 1.9482988153e+00 3.3745525363e+00 
112200 3.7222755958e+00 -1.7734133202e-03 1.9483444893e+00 -3.3746316461e+00 1.9483444893e+00 3.3746316461e+00 
112300 3.7222755018e+00 -1.7671224167e-03 1.9483900002e+00 -3.3747104734e+00 1.9483900002e+00 3.3747104734e+00 
112400 3.7222754084e+00 -1.7608531557e-03 1.9484353487e+00 -3.3747890192e+00 1.9484353487e+00 3.3747890192e+00 
112500 3.7222753157e+00 -1.7546054676e-03 1.9484805352e+00 -3.3748672845e+00 1.9484805352e+00 3.3748672845e+00 
112600 3.7222752236e+00 -1.7483792831e-03 1.9485255603e+00 -3.3749452703e+00 1.9485255603e+00 3.3749452703e+00 
112700 3.7222751323e+00 -1.7421745329e-03 1.9485704247e+00 -3.3750229776e+00 1.9485704247e+00 3.3750229776e+00 
112800 3.7222750416e+00 -1.7359911482e-03 1.9486151288e+00 -3.3751004074e+00 1.9486151288e+00 3.3751004074e+00 
112900 3.7222749515e+00 -1.7298290601e-03 1.9486596731e+00 -3.3751775606e+00 1.9486596731e+00 3.3751775606e+00 
113000 3.7222748621e+00 -1.7236882000e-03 1.9487040584e+00 -3.3752544381e+00 1.9487040584e+00 3.3752544381e+00 
113100 3.7222747733e+00 -1.7175684996e-03 1.9487482851e+00 -3.3753310410e+00 1.9487482851e+00 3.3753310410e+00 
113200 3.7222746852e+00 -1.7114698905e-03 1.9487923538e+00 -3.3754073702e+00 1.9487923538e+00 3.3754073702e+00 
113300 3.7222745977e+00 -1.7053923047e-03 1.9488362650e+00 -3.3754834266e+00 1.9488362650e+00 3.3754834266e+00 
113400 3.7222745108e+00 -1.6993356745e-03 1.9488800193e+00 -3.3755592112e+00 1.9488800193e+00 3.3755592112e+00 
113500 3.7222744246e+00 -1.6932999320e-03 1.9489236172e+00 -3.3756347250e+00 1.9489236172e+00 3.3756347250e+00 
113600 3.7222743389e+00 -1.6872850098e-03 1.9489670593e+00 -3.3757099689e+00 1.9489670593e+00 3.3757099689e+00 
113700 3.7222742539e+00 -1.6812908407e-03 1.9490103461e+00 -3.3757849439e+00 1.9490103461e+00 3.3757849439e+00 
113800 3.7222741695e+00 -1.6753173574e-03 1.9490534781e+00 -3.3758596508e+00 1.9490534781e+00 3.3758596508e+00 
113900 3.7222740857e+00 -1.6693644930e-03 1.9490964560e+00 -3.3759340907e+00 1.9490964560e+00 3.3759340907e+00 
114000 3.7222740026e+00 -1.6634321808e-03 1.9491392802e+00 -3.3760082644e+00 1.9491392802e+00 3.3760082644e+00 
114100 3.7222739200e+00 -1.6575203541e-03 1.9491819513e+00 -3.3760821729e+00 1.9491819513e+00 3.3760821729e+00 
114200 3.7222738380e+00 -1.6516289467e-03 1.9492244698e+00 -3.3761558171e+00 1.9492244698e+00 3.3761558171e+00 
114300 3.7222737566e+00 -1.6457578923e-03 1.9492668363e+00 -3.3762291980e+00 1.9492668363e+00 3.3762291980e+00 
114400 3.7222736758e+00 -1.6399071249e-03 1.9493090513e+00 -3.3763023164e+00 1.9493090513e+00 3.3763023164e+00 
114500 3.7222735955e+00 -1.6340765785e-03 1.9493511152e+00 -3.3763751733e+00 1.9493511152e+00 3.3763751733e+00 
114600 3.7222735159e+00 -1.6282661877e-03 1.9493930287e+00 -3.3764477696e+00 1.9493930287e+00 3.3764477696e+00 
114700 3.7222734368e+00 -1.6224758868e-03 1.9494347923e+00 -3.3765201063e+00 1.9494347923e+00 3.3765201063e+00 
114800 3.7222733583e+00 -1.6167056106e-03 1.9494764064e+00 -3.3765921841e+00 1.9494764064e+00 3.3765921841e+00 
114900 3.7222732803e+00 -1.6109552940e-03 1.9495178717e+00 -3.3766640040e+00 1.9495178717e+00 3.3766640040e+00 
115000 3.7222732030e+00 -1.6052248720e-03 1.9495591886e+00 -3.3767355670e+00 1.9495591886e+00 3.3767355670e+00 
115100 3.7222731261e+00 -1.5995142799e-03 1.9496003577e+00 -3.3768068739e+00 1.9496003577e+00 3.3768068739e+00 
115200 3.7222730499e+00 -1.5938234530e-03 1.9496413794e+00 -3.3768779257e+00 1.9496413794e+00 3.3768779257e+00 
115300 3.7222729741e+00 -1.5881523271e-03 1.9496822543e+00 -3.3769487231e+00 1.9496822543e+00 3.3769487231e+00 
115400 3.7222728989e+00 -1.5825008379e-03 1.9497229830e+00 -3.3770192672e+00 1.9497229830e+00 3.3770192672e+00 
115500 3.7222728243e+00 -1.5768689213e-03 1.9497635658e+00 -3.3770895587e+00 1.9497635658e+00 3.3770895587e+00 
115600 3.7222727502e+00 -1.5712565135e-03 1.9498040034e+00 -3.3771595987e+00 1.9498040034e+00 3.3771595987e+00 
115700 3.7222726766e+00 -1.5656635509e-03 1.9498442962e+00 -3.3772293879e+00 1.9498442962e+00 3.3772293879e+00 
115800 3.7222726036e+00 -1.5600899699e-03 1.9498844448e+00 -3.3772989272e+00 1.9498844448e+00 3.3772989272e+00 
115900 3.7222725311e+00 -1.5545357071e-03 1.9499244496e+00 -3.3773682176e+00 1.9499244496e+00 3.3773682176e+00 
116000 3.7222724591e+00 -1.5490006996e-03 1.9499643112e+00 -3.3774372599e+00 1.9499643112e+00 3.3774372599e+00 
116100 3.7222723876e+00 -1.5434848842e-03 1.9500040300e+00 -3.3775060549e+00 1.9500040300e+00 3.3775060549e+00 
116200 3.7222723167e+00 -1.5379881982e-03 1.9500436066e+00 -3.3775746036e+00 1.9500436066e+00 3.3775746036e+00 
116300 3.7222722462e+00 -1.5325105791e-03 1.9500830414e+00 -3.3776429067e+00 1.9500830414e+00 3.3776429067e+00 
116400 3.7222721763e+00 -1.5270519643e-03 1.9501223350e+00 -3.3777109652e+00 1.9501223350e+00 3.3777109652e+00 
116500 3.7222721069e+00 -1.5216122916e-03 1.9501614879e+00 -3.3777787800e+00 1.9501614879e+00 3.3777787800e+00 
116600 3.7222720379e+00 -1.5161914990e-03 1.9502005005e+00 -3.3778463518e+00 1.9502005005e+00 3.3778463518e+00 
116700 3.7222719695e+00 -1.5107895245e-03 1.9502393733e+00 -3.3779136815e+00 1.9502393733e+00 3.3779136815e+00 
116800 3.7222719016e+00 -1.5054063065e-03 1.9502781069e+00 -3.3779807700e+00 1.9502781069e+00 3.3779807700e+00 
116900 3.7222718341e+00 -1.5000417833e-03 1.9503167017e+00 -3.3780476181e+00 1.9503167017e+00 3.3780476181e+00 
117000 3.7222717671e+00 -1.4946958936e-03 1.9503551582e+00 -3.3781142267e+00 1.9503551582e+00 3.3781142267e+00 
117100 3.7222717007e+00 -1.4893685761e-03 1.9503934768e+00 -3.3781805966e+00 1.9503934768e+00 3.3781805966e+00 
117200 3.7222716347e+00 -1.4840597700e-03 1.9504316582e+00 -3.3782467287e+00 1.9504316582e+00 3.3782467287e+00 
117300 3.7222715691e+00 -1.4787694142e-03 1.9504697027e+00 -3.3783126237e+00 1.9504697027e+00 3.3783126237e+00 
117400 3.7222715041e+00 -1.4734974483e-03 1.9505076109e+00 -3.3783782826e+00 1.9505076109e+00 3.3783782826e+00 
117500 3.7222714395e+00 -1.4682438115e-03 1.9505453831e+00 -3.3784437061e+00 1.9505453831e+00 3.3784437061e+00 
117600 3.7222713754e+00 -1.4630084436e-03 1.9505830200e+00 -3.3785088951e+00 1.9505830200e+00 3.3785088951e+00 
117700 3.7222713117e+00 -1.4577912846e-03 1.9506205220e+00 -3.3785738503e+00 1.9506205220e+00 3.3785738503e+00 
117800 3.7222712485e+00 -1.4525922742e-03 1.9506578895e+00 -3.3786385727e+00 1.9506578895e+00 3.3786385727e+00 
117900 3.7222711858e+00 -1.4474113529e-03 1.9506951230e+00 -3.3787030631e+00 1.9506951230e+00 3.3787030631e+00 
118000 3.7222711235e+00 -1.4422484609e-03 1.9507322230e+00 -3.3787673221e+00 1.9507322230e+00 3.3787673221e+00 
118100 3.7222710616e+00 -1.4371035387e-03 1.9507691899e+00 -3.3788313508e+00 1.9507691899e+00 3.3788313508e+00 
118200 3.7222710002e+00 -1.4319765271e-03 1.9508060243e+00 -3.3788951499e+00 1.9508060243e+00 3.3788951499e+00 
118300 3.7222709393e+00 -1.4268673670e-03 1.9508427266e+00 -3.3789587201e+00 1.9508427266e+00 3.3789587201e+00 
118400 3.7222708788e+00 -1.4217759994e-03 1.9508792973e+00 -3.3790220623e+00 1.9508792973e+00 3.3790220623e+00 
118500 3.7222708187e+00 -1.4167023654e-03 1.9509157368e+00 -3.3790851773e+00 1.9509157368e+00 3.3790851773e+00 
118600 3.7222707590e+00 -1.4116464066e-03 1.9509520455e+00 -3.3791480660e+00 1.9509520455e+00 3.3791480660e+00 
118700 3.7222706998e+00 -1.4066080645e-03 1.9509882240e+00 -3.3792107290e+00 1.9509882240e+00 3.3792107290e+00 
118800 3.7222706410e+00 -1.4015872808e-03 1.9510242727e+00 -3.3792731672e+00 1.9510242727e+00 3.3792731672e+00 
118900 3.7222705827e+00 -1.3965839974e-03 1.9510601921e+00 -3.3793353814e+00 1.9510601921e+00 3.3793353814e+00 
119000 3.7222705247e+00 -1.3915981564e-03 1.9510959826e+00 -3.3793973723e+00 1.9510959826e+00 3.3793973723e+00 
119100 3.7222704672e+00 -1.3866297000e-03 1.9511316447e+00 -3.3794591409e+00 1.9511316447e+00 3.3794591409e+00 
119200 3.7222704101e+00 -1.3816785706e-03 1.9511671788e+00 -3.3795206877e+00 1.9511671788e+00 3.3795206877e+00 
119300 3.7222703534e+00 -1.3767447108e-03 1.9512025854e+00 -3.3795820137e+00 1.9512025854e+00 3.3795820137e+00 
119400 3.7222702971e+00 -1.3718280634e-03 1.9512378648e+00 -3.3796431196e+00 1.9512378648e+00 3.3796431196e+00 
119500 3.7222702412e+00 -1.3669285712e-03 1.9512730177e+00 -3.3797040061e+00 1.9512730177e+00 3.3797040061e+00 
119600 3.7222701858e+00 -1.3620461774e-03 1.9513080444e+00 -3.3797646741e+00 1.9513080444e+00 3.3797646741e+00 
119700 3.7222701307e+00 -1.3571808252e-03 1.9513429454e+00 -3.3798251244e+00 1.9513429454e+00 3.3798251244e+00 
119800 3.7222700760e+00 -1.3523324579e-03 1.9513777210e+00 -3.3798853576e+00 1.9513777210e+00 3.3798853576e+00 
119900 3.7222700217e+00 -1.3475010193e-03 1.9514123718e+00 -3.3799453745e+00 1.9514123718e+00 3.3799453745e+00 
120000 3.7222699678e+00 -1.3426864530e-03 1.9514468982e+00 -3.3800051760e+00 1.9514468982e+00 3.3800051760e+00 
120100 3.7222699143e+00 -1.3378887029e-03 1.9514813007e+00 -3.3800647628e+00 1.9514813007e+00 3.3800647628e+00 
120200 3.7222698612e+00 -1.3331077131e-03 1.9515155796e+00 -3.3801241356e+00 1.9515155796e+00 3.3801241356e+00 
120300 3.7222698085e+00 -1.3283434279e-03 1.9515497354e+00 -3.3801832952e+00 1.9515497354e+00 3.3801832952e+00 
120400 3.7222697561e+00 -1.3235957917e-03 1.9515837685e+00 -3.3802422423e+00 1.9515837685e+00 3.3802422423e+00 
120500 3.7222697041e+00 -1.3188647490e-03 1.9516176794e+00 -3.3803009777e+00 1.9516176794e+00 3.3803009777e+00 
120600 3.7222696525e+00 -1.3141502446e-03 1.9516514685e+00 -3.3803595022e+00 1.9516514685e+00 3.3803595022e+00 
120700 3.7222696013e+00 -1.3094522234e-03 1.9516851363e+00 -3.3804178164e+00 1.9516851363e+00 3.3804178164e+00 
120800 3.7222695505e+00 -1.3047706304e-03 1.9517186831e+00 -3.3804759212e+00 1.9517186831e+00 3.3804759212e+00 
120900 3.7222695000e+00 -1.3001054108e-03 1.9517521094e+00 -3.3805338172e+00 1.9517521094e+00 3.3805338172e+00 
121000 3.7222694498e+00 -1.2954565102e-03 1.9517854156e+00 -3.3805915052e+00 1.9517854156e+00 3.3805915052e+00 
121100 3.7222694001e+00 -1.2908238739e-03 1.9518186021e+00 -3.3806489860e+00 1.9518186021e+00 3.3806489860e+00 
121200 3.7222693507e+00 -1.2862074478e-03 1.9518516694e+00 -3.3807062603e+00 1.9518516694e+00 3.3807062603e+00 
121300 3.7222693016e+00 -1.2816071776e-03 1.9518846179e+00 -3.3807633287e+00 1.9518846179e+00 3.3807633287e+00 
121400 3.7222692529e+00 -1.2770230095e-03 1.9519174480e+00 -3.3808201921e+00 1.9519174480e+00 3.3808201921e+00 
121500 3.7222692046e+00 -1.2724548897e-03 1.9519501601e+00 -3.3808768511e+00 1.9519501601e+00 3.3808768511e+00 
121600 3.7222691566e+00 -1.2679027644e-03 1.9519827546e+00 -3.3809333065e+00 1.9519827546e+00 3.3809333065e+00 
121700 3.7222691089e+00 -1.2633665802e-03 1.9520152320e+00 -3.3809895590e+00 1.9520152320e+00 3.3809895590e+00 
121800 3.7222690616e+00 -1.2588462839e-03 1.9520475927e+00 -3.3810456093e+00 1.9520475927e+00 3.3810456093e+00 
121900 3.7222690147e+00 -1.2543418221e-03 1.9520798370e+00 -3.3811014582e+00 1.9520798370e+00 3.3811014582e+00 
122000 3.7222689681e+00 -1.2498531420e-03 1.9521119655e+00 -3.3811571062e+00 1.9521119655e+00 3.3811571062e+00 
122100 3.7222689218e+00 -1.2453801907e-03 1.9521439784e+00 -3.3812125543e+00 1.9521439784e+00 3.3812125543e+00 
122200 3.7222688758e+00 -1.2409229155e-03 1.9521758762e+00 -3.3812678030e+00 1.9521758762e+00 3.3812678030e+00 
122300 3.7222688302e+00 -1.2364812639e-03 1.9522076594e+00 -3.3813228530e+00 1.9522076594e+00 3.3813228530e+00 
122400 3.7222687849e+00 -1.2320551836e-03 1.9522393283e+00 -3.3813777051e+00 1.9522393283e+00 3.3813777051e+00 
122500 3.7222687399e+00 -1.2276446222e-03 1.9522708833e+00 -3.3814323600e+00 1.9522708833e+00 3.3814323600e+00 
122600 3.7222686953e+00 -1.2232495278e-03 1.9523023248e+00 -3.3814868183e+00 1.9523023248e+00 3.3814868183e+00 
122700 3.7222686510e+00 -1.2188698484e-03 1.9523336533e+00 -3.3815410808e+00 1.9523336533e+00 3.3815410808e+00 
122800 3.7222686070e+00 -1.2145055324e-03 1.9523648691e+00 -3.3815951482e+00 1.9523648691e+00 3.3815951482e+00 
122900 3.7222685633e+00 -1.2101565282e-03 1.9523959726e+00 -3.3816490211e+00 1.9523959726e+00 3.3816490211e+00 
123000 3.7222685200e+00 -1.2058227842e-03 1.9524269643e+00 -3.3817027002e+00 1.9524269643e+00 3.3817027002e+00 
123100 3.7222684769e+00 -1.2015042494e-03 1.9524578445e+00 -3.3817561862e+00 1.9524578445e+00 3.3817561862e+00 
123200 3.7222684342e+00 -1.1972008724e-03 1.9524886136e+00 -3.3818094799e+00 1.9524886136e+00 3.3818094799e+00 
123300 3.7222683917e+00 -1.1929126025e-03 1.9525192720e+00 -3.3818625818e+00 1.9525192720e+00 3.3818625818e+00 
123400 3.7222683496e+00 -1.1886393887e-03 1.9525498201e+00 -3.3819154927e+00 1.9525498201e+00 3.3819154927e+00 
123500 3.7222683078e+00 -1.1843811805e-03 1.9525802583e+00 -3.3819682132e+00 1.9525802583e+00 3.3819682132e+00 
123600 3.7222682663e+00 -1.1801379273e-03 1.9526105870e+00 -3.3820207441e+00 1.9526105870e+00 3.3820207441e+00 
123700 3.7222682251e+00 -1.1759095788e-03 1.9526408066e+00 -3.3820730859e+00 1.9526408066e+00 3.3820730859e+00 
123800 3.7222681842e+00 -1.1716960849e-03 1.9526709174e+00 -3.3821252394e+00 1.9526709174e+00 3.3821252394e+00 
123900 3.7222681435e+00 -1.1674973954e-03 1.9527009199e+00 -3.3821772052e+00 1.9527009199e+00 3.3821772052e+00 
124000 3.7222681032e+00 -1.1633134605e-03 1.9527308144e+00 -3.3822289840e+00 1.9527308144e+00 3.3822289840e+00 
124100 3.7222680632e+00 -1.1591442304e-03 1.9527606013e+00 -3.3822805764e+00 1.9527606013e+00 3.3822805764e+00 
124200 3.7222680234e+00 -1.1549896557e-03 1.9527902810e+00 -3.3823319832e+00 1.9527902810e+00 3.3823319832e+00 
124300 3.7222679840e+00 -1.1508496868e-03 1.9528198538e+00 -3.3823832049e+00 1.9528198538e+00 3.3823832049e+00 
124400 3.7222679448e+00 -1.1467242745e-03 1.9528493203e+00 -3.3824342422e+00 1.9528493203e+00 3.3824342422e+00 
124500 3.7222679059e+00 -1.1426133696e-03 1.9528786806e+00 -3.3824850959e+00 1.9528786806e+00 3.3824850959e+00 
124600 3.7222678673e+00 -1.1385169232e-03 1.9529079353e+00 -3.3825357664e+00 1.9529079353e+00 3.3825357664e+00 
124700 3.7222678290e+00 -1.1344348865e-03 1.9529370846e+00 -3.3825862546e+00 1.9529370846e+00 3.3825862546e+00 
124800 3.7222677909e+00 -1.1303672108e-03 1.9529661290e+00 -3.3826365610e+00 1.9529661290e+00 3.3826365610e+00 
124900 3.7222677531e+00 -1.1263138476e-03 1.9529950689e+00 -3.3826866862e+00 1.9529950689e+00 3.3826866862e+00 
125000 3.7222677156e+00 -1.1222747484e-03 1.9530239045e+00 -3.3827366310e+00 1.9530239045e+00 3.3827366310e+00 
125100 3.7222676784e+00 -1.1182498652e-03 1.9530526363e+00 -3.3827863959e+00 1.9530526363e+00 3.3827863959e+00 
125200 3.7222676414e+00 -1.1142391497e-03 1.9530812646e+00 -3.3828359816e+00 1.9530812646e+00 3.3828359816e+00 
125300 3.7222676047e+00 -1.1102425540e-03 1.9531097898e+00 -3.3828853888e+00 1.9531097898e+00 3.3828853888e+00 
125400 3.7222675683e+00 -1.1062600305e-03 1.9531382123e+00 -3.3829346180e+00 1.9531382123e+00 3.3829346180e+00 
125500 3.7222675321e+00 -1.1022915314e-03 1.9531665325e+00 -3.3829836699e+00 1.9531665325e+00 3.3829836699e+00 
125600 3.7222674962e+00 -1.0983370093e-03 1.9531947506e+00 -3.3830325451e+00 1.9531947506e+00 3.3830325451e+00 
125700 3.7222674606e+00 -1.0943964167e-03 1.9532228671e+00 -3.3830812443e+00 1.9532228671e+00 3.3830812443e+00 
125800 3.7222674252e+00 -1.0904697066e-03 1.9532508823e+00 -3.3831297681e+00 1.9532508823e+00 3.3831297681e+00 
125900 3.7222673900e+00 -1.0865568319e-03 1.9532787966e+00 -3.3831781171e+00 1.9532787966e+00 3.3831781171e+00 
126000 3.7222673552e+00 -1.0826577457e-03 1.9533066103e+00 -3.3832262919e+00 1.9533066103e+00 3.3832262919e+00 
126100 3.7222673205e+00 -1.0787724011e-03 1.9533343239e+00 -3.3832742931e+00 1.9533343239e+00 3.3832742931e+00 
126200 3.7222672862e+00 -1.0749007517e-03 1.9533619375e+00 -3.3833221214e+00 1.9533619375e+00 3.3833221214e+00 
126300 3.7222672520e+00 -1.0710427510e-03 1.9533894517e+00 -3.3833697774e+00 1.9533894517e+00 3.3833697774e+00 
126400 3.7222672181e+00 -1.0671983525e-03 1.9534168668e+00 -3.3834172616e+00 1.9534168668e+00 3.3834172616e+00 
126500 3.7222671845e+00 -1.0633675102e-03 1.9534441830e+00 -3.3834645748e+00 1.9534441830e+00 3.3834645748e+00 
126600 3.7222671511e+00 -1.0595501780e-03 1.9534714009e+00 -3.3835117174e+00 1.9534714009e+00 3.3835117174e+00 
126700 3.7222671180e+00 -1.0557463101e-03 1.9534985206e+00 -3.3835586902e+00 1.9534985206e+00 3.3835586902e+00 
126800 3.7222670851e+00 -1.0519558606e-03 1.9535255426e+00 -3.3836054937e+00 1.9535255426e+00 3.3836054937e+00 
126900 3.7222670524e+00 -1.0481787839e-03 1.9535524672e+00 -3.3836521284e+00 1.9535524672e+00 3.3836521284e+00 
127000 3.7222670199e+00 -1.0444150347e-03 1.9535792948e+00 -3.3836985952e+00 1.9535792948e+00 3.3836985952e+00 
127100 3.7222669877e+00 -1.0406645675e-03 1.9536060256e+00 -3.3837448944e+00 1.9536060256e+00 3.3837448944e+00 
127200 3.7222669558e+00 -1.0369273373e-03 1.9536326602e+00 -3.3837910267e+00 1.9536326602e+00 3.3837910267e+00 
127300 3.7222669240e+00 -1.0332032989e-03 1.9536591987e+00 -3.3838369927e+00 1.9536591987e+00 3.3838369927e+00 
127400 3.7222668925e+00 -1.0294924075e-03 1.9536856415e+00 -3.3838827931e+00 1.9536856415e+00 3.3838827931e+00 
127500 3.7222668612e+00 -1.0257946183e-03 1.9537119890e+00 -3.3839284283e+00 1.9537119890e+00 3.3839284283e+00 
127600 3.7222668302e+00 -1.0221098866e-03 1.9537382415e+00 -3.3839738990e+00 1.9537382415e+00 3.3839738990e+00 
127700 3.7222667994e+00 -1.0184381681e-03 1.9537643994e+00 -3.3840192057e+00 1.9537643994e+00 3.3840192057e+00 
127800 3.7222667688e+00 -1.0147794184e-03 1.9537904629e+00 -3.3840643491e+00 1.9537904629e+00 3.3840643491e+00 
127900 3.7222667384e+00 -1.0111335932e-03 1.9538164325e+00 -3.3841093297e+00 1.9538164325e+00 3.3841093297e+00 
128000 3.7222667082e+00 -1.0075006486e-03 1.9538423084e+00 -3.3841541481e+00 1.9538423084e+00 3.3841541481e+00 
128100 3.7222666783e+00 -1.0038805405e-03 1.9538680910e+00 -3.3841988049e+00 1.9538680910e+00 3.3841988049e+00 
128200 3.7222666485e+00 -1.0002732253e-03 1.9538937806e+00 -3.3842433006e+00 1.9538937806e+00 3.3842433006e+00 
128300 3.7222666190e+00 -9.9667865922e-04 1.9539193776e+00 -3.3842876359e+00 1.9539193776e+00 3.3842876359e+00 
128400 3.7222665897e+00 -9.9309679882e-04 1.9539448822e+00 -3.3843318112e+00 1.9539448822e+00 3.3843318112e+00 
128500 3.7222665606e+00 -9.8952760070e-04 1.9539702949e+00 -3.3843758273e+00 1.9539702949e+00 3.3843758273e+00 
128600 3.7222665317e+00 -9.8597102164e-04 1.9539956159e+00 -3.3844196845e+00 1.9539956159e+00 3.3844196845e+00 
128700 3.7222665031e+00 -9.8242701854e-04 1.9540208456e+00 -3.3844633836e+00 1.9540208456e+00 3.3844633836e+00 
128800 3.7222664746e+00 -9.7889554843e-04 1.9540459842e+00 -3.3845069250e+00 1.9540459842e+00 3.3845069250e+00 
128900 3.7222664464e+00 -9.7537656849e-04 1.9540710322e+00 -3.3845503094e+00 1.9540710322e+00 3.3845503094e+00 
129000 3.7222664183e+00 -9.7187003603e-04 1.9540959898e+00 -3.3845935372e+00 1.9540959898e+00 3.3845935372e+00 
129100 3.7222663905e+00 -9.6837590850e-04 1.9541208574e+00 -3.3846366091e+00 1.9541208574e+00 3.3846366091e+00 
129200 3.7222663628e+00 -9.6489414346e-04 1.9541456352e+00 -3.3846795256e+00 1.9541456352e+00 3.3846795256e+00 
129300 3.7222663354e+00 -9.6142469864e-04 1.9541703236e+00 -3.3847222872e+00 1.9541703236e+00 3.3847222872e+00 
129400 3.7222663081e+00 -9.5796753189e-04 1.9541949230e+00 -3.3847648945e+00 1.9541949230e+00 3.3847648945e+00 
129500 3.7222662811e+00 -9.5452260118e-04 1.9542194336e+00 -3.3848073481e+00 1.9542194336e+00 3.3848073481e+00 
129600 3.7222662542e+00 -9.5108986463e-04 1.9542438557e+00 -3.3848496485e+00 1.9542438557e+00 3.3848496485e+00 
129700 3.7222662275e+00 -9.4766928048e-04 1.9542681898e+00 -3.3848917963e+00 1.9542681898e+00 3.3848917963e+00 
129800 3.7222662011e+00 -9.4426080711e-04 1.9542924359e+00 -3.3849337919e+00 1.9542924359e+00 3.3849337919e+00 
129900 3.7222661748e+00 -9.4086440305e-04 1.9543165946e+00 -3.3849756360e+00 1.9543165946e+00 3.3849756360e+00 
130000 3.7222661487e+00 -9.3748002692e-04 1.9543406661e+00 -3.3850173290e+00 1.9543406661e+00 3.3850173290e+00 
130100 3.7222661228e+00 -9.3410763751e-04 1.9543646507e+00 -3.3850588716e+00 1.9543646507e+00 3.3850588716e+00 
130200 3.7222660971e+00 -9.3074719372e-04 1.9543885488e+00 -3.3851002642e+00 1.9543885488e+00 3.3851002642e+00 
130300 3.7222660716e+00 -9.2739865459e-04 1.9544123605e+00 -3.3851415074e+00 1.9544123605e+00 3.3851415074e+00 
130400 3.7222660462e+00 -9.2406197928e-04 1.9544360864e+00 -3.3851826017e+00 1.9544360864e+00 3.3851826017e+00 
130500 3.7222660211e+00 -9.2073712711e-04 1.9544597265e+00 -3.3852235477e+00 1.9544597265e+00 3.3852235477e+00 
130600 3.7222659961e+00 -9.1742405749e-04 1.9544832813e+00 -3.3852643458e+00 1.9544832813e+00 3.3852643458e+00 
130700 3.7222659713e+00 -9.1412272998e-04 1.9545067511e+00 -3.3853049967e+00 1.9545067511e+00 3.3853049967e+00 
130800 3.7222659467e+00 -9.1083310426e-04 1.9545301362e+00 -3.3853455008e+00 1.9545301362e+00 3.3853455008e+00 
130900 3.7222659223e+00 -9.0755514017e-04 1.9545534368e+00 -3.3853858586e+00 1.9545534368e+00 3.3853858586e+00 
131000 3.7222658980e+00 -9.0428879763e-04 1.9545766533e+00 -3.3854260707e+00 1.9545766533e+00 3.3854260707e+00 
131100 3.7222658739e+00 -9.0103403672e-04 1.9545997859e+00 -3.3854661376e+00 1.9545997859e+00 3.3854661376e+00 
131200 3.7222658500e+00 -8.9779081764e-04 1.9546228350e+00 -3.3855060599e+00 1.9546228350e+00 3.3855060599e+00 
131300 3.7222658263e+00 -8.9455910072e-04 1.9546458009e+00 -3.3855458379e+00 1.9546458009e+00 3.3855458379e+00 
131400 3.7222658027e+00 -8.9133884641e-04 1.9546686838e+00 -3.3855854724e+00 1.9546686838e+00 3.3855854724e+00 
131500 3.7222657793e+00 -8.8813001530e-04 1.9546914841e+00 -3.3856249636e+00 1.9546914841e+00 3.3856249636e+00 
131600 3.7222657561e+00 -8.8493256808e-04 1.9547142021e+00 -3.3856643123e+00 1.9547142021e+00 3.3856643123e+00 
131700 3.7222657331e+00 -8.8174646561e-04 1.9547368380e+00 -3.3857035188e+00 1.9547368380e+00 3.3857035188e+00 
131800 3.7222657102e+00 -8.7857166883e-04 1.9547593921e+00 -3.3857425837e+00 1.9547593921e+00 3.3857425837e+00 
131900 3.7222656875e+00 -8.7540813883e-04 1.9547818648e+00 -3.3857815075e+00 1.9547818648e+00 3.3857815075e+00 
132000 3.7222656649e+00 -8.7225583682e-04 1.9548042563e+00 -3.3858202907e+00 1.9548042563e+00 3.3858202907e+00 
132100 3.7222656425e+00 -8.6911472415e-04 1.9548265669e+00 -3.3858589339e+00 1.9548265669e+00 3.3858589339e+00 
132200 3.7222656203e+00 -8.6598476225e-04 1.9548487969e+00 -3.3858974374e+00 1.9548487969e+00 3.3858974374e+00 
132300 3.7222655982e+00 -8.6286591273e-04 1.9548709466e+00 -3.3859358018e+00 1.9548709466e+00 3.3859358018e+00 
132400 3.7222655763e+00 -8.5975813729e-04 1.9548930163e+00 -3.3859740276e+00 1.9548930163e+00 3.3859740276e+00 
132500 3.7222655546e+00 -8.5666139775e-04 1.9549150062e+00 -3.3860121153e+00 1.9549150062e+00 3.3860121153e+00 
132600 3.7222655330e+00 -8.5357565608e-04 1.9549369167e+00 -3.3860500654e+00 1.9549369167e+00 3.3860500654e+00 
132700 3.7222655115e+00 -8.5050087435e-04 1.9549587481e+00 -3.3860878783e+00 1.9549587481e+00 3.3860878783e+00 
132800 3.7222654902e+00 -8.4743701476e-04 1.9549805005e+00 -3.3861255547e+00 1.9549805005e+00 3.3861255547e+00 
132900 3.7222654691e+00 -8.4438403963e-04 1.9550021743e+00 -3.3861630949e+00 1.9550021743e+00 3.3861630949e+00 
133000 3.7222654481e+00 -8.4134191141e-04 1.9550237698e+00 -3.3862004994e+00 1.9550237698e+00 3.3862004994e+00 
133100 3.7222654273e+00 -8.3831059265e-04 1.9550452873e+00 -3.3862377687e+00 1.9550452873e+00 3.3862377687e+00 
133200 3.7222654067e+00 -8.3529004605e-04 1.9550667270e+00 -3.3862749034e+00 1.9550667270e+00 3.3862749034e+00 
133300 3.7222653861e+00 -8.3228023441e-04 1.9550880893e+00 -3.3863119039e+00 1.9550880893e+00 3.3863119039e+00 
133400 3.7222653658e+00 -8.2928112065e-04 1.9551093743e+00 -3.3863487706e+00 1.9551093743e+00 3.3863487706e+00 
133500 3.7222653455e+00 -8.2629266784e-04 1.9551305824e+00 -3.3863855041e+00 1.9551305824e+00 3.3863855041e+00 
133600 3.7222653255e+00 -8.2331483912e-04 1.9551517138e+00 -3.3864221048e+00 1.9551517138e+00 3.3864221048e+00 
133700 3.7222653055e+00 -8.2034759780e-04 1.9551727688e+00 -3.3864585732e+00 1.9551727688e+00 3.3864585732e+00 
133800 3.7222652857e+00 -8.1739090726e-04 1.9551937478e+00 -3.3864949098e+00 1.9551937478e+00 3.3864949098e+00 
133900 3.7222652661e+00 -8.1444473105e-04 1.9552146509e+00 -3.3865311150e+00 1.9552146509e+00 3.3865311150e+00 
134000 3.7222652466e+00 -8.1150903280e-04 1.9552354784e+00 -3.3865671894e+00 1.9552354784e+00 3.3865671894e+00 
134100 3.7222652272e+00 -8.0858377627e-04 1.9552562307e+00 -3.3866031333e+00 1.9552562307e+00 3.3866031333e+00 
134200 3.7222652080e+00 -8.0566892534e-04 1.9552769079e+00 -3.3866389473e+00 1.9552769079e+00 3.3866389473e+00 
134300 3.7222651889e+00 -8.0276444400e-04 1.9552975104e+00 -3.3866746318e+00 1.9552975104e+00 3.3866746318e+00 
134400 3.7222651700e+00 -7.9987029638e-04 1.9553180383e+00 -3.3867101873e+00 1.9553180383e+00 3.3867101873e+00 
134500 3.7222651512e+00 -7.9698644670e-04 1.9553384921e+00 -3.3867456143e+00 1.9553384921e+00 3.3867456143e+00 
134600 3.7222651325e+00 -7.9411285931e-04 1.9553588719e+00 -3.3867809131e+00 1.9553588719e+00 3.3867809131e+00 
134700 3.7222651140e+00 -7.9124949867e-04 1.9553791780e+00 -3.3868160843e+00 1.9553791780e+00 3.3868160843e+00 
134800 3.7222650956e+00 -7.8839632936e-04 1.9553994106e+00 -3.3868511283e+00 1.9553994106e+00 3.3868511283e+00 
134900 3.7222650773e+00 -7.8555331607e-04 1.9554195701e+00 -3.3868860456e+00 1.9554195701e+00 3.3868860456e+00 
135000 3.7222650592e+00 -7.8272042361e-04 1.9554396567e+00 -3.3869208366e+00 1.9554396567e+00 3.3869208366e+00 
135100 3.7222650412e+00 -7.7989761692e-04 1.9554596707e+00 -3.3869555018e+00 1.9554596707e+00 3.3869555018e+00 
135200 3.7222650233e+00 -7.7708486101e-04 1.9554796123e+00 -3.3869900416e+00 1.9554796123e+00 3.3869900416e+00 
135300 3.7222650055e+00 -7.7428212107e-04 1.9554994817e+00 -3.3870244565e+00 1.9554994817e+00 3.3870244565e+00 
135400 3.7222649879e+00 -7.7148936233e-04 1.9555192793e+00 -3.3870587470e+00 1.9555192793e+00 3.3870587470e+00 
135500 3.7222649704e+00 -7.6870655020e-04 1.9555390053e+00 -3.3870929134e+00 1.9555390053e+00 3.3870929134e+00 
135600 3.7222649531e+00 -7.6593365016e-04 1.9555586599e+00 -3.3871269562e+00 1.9555586599e+00 3.3871269562e+00 
135700 3.7222649359e+00 -7.6317062782e-04 1.9555782435e+00 -3.3871608758e+00 1.9555782435e+00 3.3871608758e+00 
135800 3.7222649187e+00 -7.6041744890e-04 1.9555977561e+00 -3.3871946728e+00 1.9555977561e+00 3.3871946728e+00 
135900 3.7222649018e+00 -7.5767407923e-04 1.9556171983e+00 -3.3872283475e+00 1.9556171983e+00 3.3872283475e+00 
136000 3.7222648849e+00 -7.5494048475e-04 1.9556365700e+00 -3.3872619004e+00 1.9556365700e+00 3.3872619004e+00 
136100 3.7222648682e+00 -7.5221663153e-04 1.9556558717e+00 -3.3872953319e+00 1.9556558717e+00 3.3872953319e+00 
136200 3.7222648515e+00 -7.4950248573e-04 1.9556751036e+00 -3.3873286425e+00 1.9556751036e+00 3.3873286425e+00 
136300 3.7222648350e+00 -7.4679801362e-04 1.9556942658e+00 -3.3873618325e+00 1.9556942658e+00 3.3873618325e+00 
136400 3.7222648187e+00 -7.4410318160e-04 1.9557133588e+00 -3.3873949025e+00 1.9557133588e+00 3.3873949025e+00 
136500 3.7222648024e+00 -7.4141795617e-04 1.9557323826e+00 -3.3874278528e+00 1.9557323826e+00 3.3874278528e+00 
136600 3.7222647863e+00 -7.3874230393e-04 1.9557513377e+00 -3.3874606838e+00 1.9557513377e+00 3.3874606838e+00 
136700 3.7222647702e+00 -7.3607619160e-04 1.9557702241e+00 -3.3874933961e+00 1.9557702241e+00 3.3874933961e+00 
136800 3.7222647543e+00 -7.3341958602e-04 1.9557890422e+00 -3.3875259900e+00 1.9557890422e+00 3.3875259900e+00 
136900 3.7222647385e+00 -7.3077245412e-04 1.9558077922e+00 -3.3875584659e+00 1.9558077922e+00 3.3875584659e+00 
137000 3.7222647229e+00 -7.2813476295e-04 1.9558264743e+00 -3.3875908244e+00 1.9558264743e+00 3.3875908244e+00 
137100 3.7222647073e+00 -7.2550647966e-04 1.9558450889e+00 -3.3876230657e+00 1.9558450889e+00 3.3876230657e+00 
137200 3.7222646918e+00 -7.2288757152e-04 1.9558636360e+00 -3.3876551903e+00 1.9558636360e+00 3.3876551903e+00 
137300 3.7222646765e+00 -7.2027800589e-04 1.9558821161e+00 -3.3876871987e+00 1.9558821161e+00 3.3876871987e+00 
137400 3.7222646613e+00 -7.1767775027e-04 1.9559005292e+00 -3.3877190912e+00 1.9559005292e+00 3.3877190912e+00 
137500 3.7222646462e+00 -7.1508677223e-04 1.9559188757e+00 -3.3877508683e+00 1.9559188757e+00 3.3877508683e+00 
137600 3.7222646312e+00 -7.1250503946e-04 1.9559371558e+00 -3.3877825303e+00 1.9559371558e+00 3.3877825303e+00 
137700 3.7222646163e+00 -7.0993251978e-04 1.9559553698e+00 -3.3878140778e+00 1.9559553698e+00 3.3878140778e+00 
137800 3.7222646015e+00 -7.0736918107e-04 1.9559735178e+00 -3.3878455110e+00 1.9559735178e+00 3.3878455110e+00 
137900 3.7222645868e+00 -7.0481499137e-04 1.9559916001e+00 -3.3878768305e+00 1.9559916001e+00 3.3878768305e+00 
138000 3.7222645722e+00 -7.0226991878e-04 1.9560096169e+00 -3.3879080366e+00 1.9560096169e+00 3.3879080366e+00 
138100 3.7222645577e+00 -6.9973393153e-04 1.9560275686e+00 -3.3879391297e+00 1.9560275686e+00 3.3879391297e+00 
138200 3.7222645434e+00 -6.9720699794e-04 1.9560454552e+00 -3.3879701103e+00 1.9560454552e+00 3.3879701103e+00 
138300 3.7222645291e+00 -6.9468908646e-04 1.9560632771e+00 -3.3880009787e+00 1.9560632771e+00 3.3880009787e+00 
138400 3.7222645149e+00 -6.9218016562e-04 1.9560810344e+00 -3.3880317353e+00 1.9560810344e+00 3.3880317353e+00 
138500 3.7222645009e+00 -6.8968020405e-04 1.9560987275e+00 -3.3880623806e+00 1.9560987275e+00 3.3880623806e+00 
138600 3.7222644869e+00 -6.8718917052e-04 1.9561163565e+00 -3.3880929149e+00 1.9561163565e+00 3.3880929149e+00 
138700 3.7222644731e+00 -6.8470703387e-04 1.9561339216e+00 -3.3881233387e+00 1.9561339216e+00 3.3881233387e+00 
138800 3.7222644593e+00 -6.8223376305e-04 1.9561514232e+00 -3.3881536523e+00 1.9561514232e+00 3.3881536523e+00 
138900 3.7222644457e+00 -6.7976932711e-04 1.9561688614e+00 -3.3881838561e+00 1.9561688614e+00 3.3881838561e+00 
139000 3.7222644321e+00 -6.7731369523e-04 1.9561862364e+00 -3.3882139506e+00 1.9561862364e+00 3.3882139506e+00 
139100 3.7222644187e+00 -6.7486683665e-04 1.9562035486e+00 -3.3882439361e+00 1.9562035486e+00 3.3882439361e+00 
139200 3.7222644053e+00 -6.7242872074e-04 1.9562207980e+00 -3.3882738129e+00 1.9562207980e+00 3.3882738129e+00 
139300 3.7222643920e+00 -6.6999931697e-04 1.9562379850e+00 -3.3883035816e+00 1.9562379850e+00 3.3883035816e+00 
139400 3.7222643789e+00 -6.6757859491e-04 1.9562551097e+00 -3.3883332425e+00 1.9562551097e+00 3.3883332425e+00 
139500 3.7222643658e+00 -6.6516652422e-04 1.9562721724e+00 -3.3883627960e+00 1.9562721724e+00 3.3883627960e+00 
139600 3.7222643528e+00 -6.6276307467e-04 1.9562891733e+00 -3.3883922424e+00 1.9562891733e+00 3.3883922424e+00 
139700 3.7222643400e+00 -6.6036821613e-04 1.9563061126e+00 -3.3884215821e+00 1.9563061126e+00 3.3884215821e+00 
139800 3.7222643272e+00 -6.5798191857e-04 1.9563229905e+00 -3.3884508156e+00 1.9563229905e+00 3.3884508156e+00 
139900 3.7222643145e+00 -6.5560415206e-04 1.9563398074e+00 -3.3884799432e+00 1.9563398074e+00 3.3884799432e+00 
140000 3.7222643019e+00 -6.5323488678e-04 1.9563565633e+00 -3.3885089653e+00 1.9563565633e+00 3.3885089653e+00 
140100 3.7222642894e+00 -6.5087409298e-04 1.9563732585e+00 -3.3885378823e+00 1.9563732585e+00 3.3885378823e+00 
140200 3.7222642770e+00 -6.4852174104e-04 1.9563898932e+00 -3.3885666945e+00 1.9563898932e+00 3.3885666945e+00 
140300 3.7222642646e+00 -6.4617780142e-04 1.9564064677e+00 -3.3885954023e+00 1.9564064677e+00 3.3885954023e+00 
140400 3.7222642524e+00 -6.4384224470e-04 1.9564229821e+00 -3.3886240061e+00 1.9564229821e+00 3.3886240061e+00 
140500 3.7222642402e+00 -6.4151504153e-04 1.9564394367e+00 -3.3886525063e+00 1.9564394367e+00 3.3886525063e+00 
140600 3.7222642282e+00 -6.3919616267e-04 1.9564558317e+00 -3.3886809033e+00 1.9564558317e+00 3.3886809033e+00 
140700 3.7222642162e+00 -6.3688557899e-04 1.9564721673e+00 -3.3887091973e+00 1.9564721673e+00 3.3887091973e+00 
140800 3.7222642043e+00 -6.3458326144e-04 1.9564884437e+00 -3.3887373889e+00 1.9564884437e+00 3.3887373889e+00 
140900 3.7222641925e+00 -6.3228918108e-04 1.9565046611e+00 -3.3887654783e+00 1.9565046611e+00 3.3887654783e+00 
141000 3.7222641808e+00 -6.3000330906e-04 1.9565208198e+00 -3.3887934659e+00 1.9565208198e+00 3.3887934659e+00 
141100 3.7222641692e+00 -6.2772561661e-04 1.9565369199e+00 -3.3888213521e+00 1.9565369199e+00 3.3888213521e+00 
141200 3.7222641576e+00 -6.2545607510e-04 1.9565529617e+00 -3.3888491373e+00 1.9565529617e+00 3.3888491373e+00 
141300 3.7222641461e+00 -6.2319465595e-04 1.9565689453e+00 -3.3888768218e+00 1.9565689453e+00 3.3888768218e+00 
141400 3.7222641348e+00 -6.2094133070e-04 1.9565848710e+00 -3.3889044060e+00 1.9565848710e+00 3.3889044060e+00 
141500 3.7222641235e+00 -6.1869607098e-04 1.9566007390e+00 -3.3889318901e+00 1.9566007390e+00 3.3889318901e+00 
141600 3.7222641123e+00 -6.1645884853e-04 1.9566165495e+00 -3.3889592747e+00 1.9566165495e+00 3.3889592747e+00 
141700 3.7222641011e+00 -6.1422963514e-04 1.9566323028e+00 -3.3889865601e+00 1.9566323028e+00 3.3889865601e+00 
141800 3.7222640901e+00 -6.1200840275e-04 1.9566479989e+00 -3.3890137466e+00 1.9566479989e+00 3.3890137466e+00 
141900 3.7222640791e+00 -6.0979512336e-04 1.9566636381e+00 -3.3890408345e+00 1.9566636381e+00 3.3890408345e+00 
142000 3.7222640682e+00 -6.0758976907e-04 1.9566792206e+00 -3.3890678243e+00 1.9566792206e+00 3.3890678243e+00 
142100 3.7222640574e+00 -6.0539231208e-04 1.9566947467e+00 -3.3890947162e+00 1.9566947467e+00 3.3890947162e+00 
142200 3.7222640466e+00 -6.0320272468e-04 1.9567102165e+00 -3.3891215107e+00 1.9567102165e+00 3.3891215107e+00 
142300 3.7222640360e+00 -6.0102097925e-04 1.9567256302e+00 -3.3891482080e+00 1.9567256302e+00 3.3891482080e+00 
142400 3.7222640254e+00 -5.9884704827e-04 1.9567409881e+00 -3.3891748086e+00 1.9567409881e+00 3.3891748086e+00 
142500 3.7222640149e+00 -5.9668090431e-04 1.9567562902e+00 -3.3892013127e+00 1.9567562902e+00 3.3892013127e+00 
142600 3.7222640045e+00 -5.9452252002e-04 1.9567715369e+00 -3.3892277208e+00 1.9567715369e+00 3.3892277208e+00 
142700 3.7222639941e+00 -5.9237186816e-04 1.9567867284e+00 -3.3892540331e+00 1.9567867284e+00 3.3892540331e+00 
142800 3.7222639839e+00 -5.9022892157e-04 1.9568018647e+00 -3.3892802501e+00 1.9568018647e+00 3.3892802501e+00 
142900 3.7222639737e+00 -5.8809365318e-04 1.9568169462e+00 -3.3893063720e+00 1.9568169462e+00 3.3893063720e+00 
143000 3.7222639635e+00 -5.8596603603e-04 1.9568319730e+00 -3.3893323992e+00 1.9568319730e+00 3.3893323992e+00 
143100 3.7222639535e+00 -5.8384604323e-04 1.9568469454e+00 -3.3893583320e+00 1.9568469454e+00 3.3893583320e+00 
143200 3.7222639435e+00 -5.8173364799e-04 1.9568618634e+00 -3.3893841708e+00 1.9568618634e+00 3.3893841708e+00 
143300 3.7222639336e+00 -5.7962882361e-04 1.9568767274e+00 -3.3894099160e+00 1.9568767274e+00 3.3894099160e+00 
143400 3.7222639237e+00 -5.7753154347e-04 1.9568915374e+00 -3.3894355677e+00 1.9568915374e+00 3.3894355677e+00 
143500 3.7222639140e+00 -5.7544178106e-04 1.9569062938e+00 -3.3894611265e+00 1.9569062938e+00 3.3894611265e+00 
143600 3.7222639043e+00 -5.7335950993e-04 1.9569209967e+00 -3.3894865926e+00 1.9569209967e+00 3.3894865926e+00 
143700 3.7222638947e+00 -5.7128470375e-04 1.9569356462e+00 -3.3895119664e+00 1.9569356462e+00 3.3895119664e+00 
143800 3.7222638851e+00 -5.6921733626e-04 1.9569502426e+00 -3.3895372481e+00 1.9569502426e+00 3.3895372481e+00 
143900 3.7222638756e+00 -5.6715738130e-04 1.9569647861e+00 -3.3895624382e+00 1.9569647861e+00 3.3895624382e+00 
144000 3.7222638662e+00 -5.6510481278e-04 1.9569792769e+00 -3.3895875370e+00 1.9569792769e+00 3.3895875370e+00 
144100 3.7222638569e+00 -5.6305960473e-04 1.9569937151e+00 -3.3896125447e+00 1.9569937151e+00 3.3896125447e+00 
144200 3.7222638476e+00 -5.6102173123e-04 1.9570081010e+00 -3.3896374617e+00 1.9570081010e+00 3.3896374617e+00 
144300 3.7222638384e+00 -5.5899116647e-04 1.9570224346e+00 -3.3896622883e+00 1.9570224346e+00 3.3896622883e+00 
144400 3.7222638292e+00 -5.5696788473e-04 1.9570367163e+00 -3.3896870250e+00 1.9570367163e+00 3.3896870250e+00 
144500 3.7222638201e+00 -5.5495186036e-04 1.9570509462e+00 -3.3897116719e+00 1.9570509462e+00 3.3897116719e+00 
144600 3.7222638111e+00 -5.5294306782e-04 1.9570651245e+00 -3.3897362294e+00 1.9570651245e+00 3.3897362294e+00 
144700 3.7222638022e+00 -5.5094148164e-04 1.9570792514e+00 -3.3897606978e+00 1.9570792514e+00 3.3897606978e+00 
144800 3.7222637933e+00 -5.4894707643e-04 1.9570933270e+00 -3.3897850775e+00 1.9570933270e+00 3.3897850775e+00 
144900 3.7222637845e+00 -5.4695982690e-04 1.9571073516e+00 -3.3898093688e+00 1.9571073516e+00 3.3898093688e+00 
145000 3.7222637757e+00 -5.4497970784e-04 1.9571213253e+00 -3.3898335719e+00 1.9571213253e+00 3.3898335719e+00 
145100 3.7222637670e+00 -5.4300669413e-04 1.9571352483e+00 -3.3898576873e+00 1.9571352483e+00 3.3898576873e+00 
145200 3.7222637584e+00 -5.4104076074e-04 1.9571491208e+00 -3.3898817152e+00 1.9571491208e+00 3.3898817152e+00 
145300 3.7222637498e+00 -5.3908188270e-04 1.9571629430e+00 -3.3899056559e+00 1.9571629430e+00 3.3899056559e+00 
145400 3.7222637413e+00 -5.3713003515e-04 1.9571767150e+00 -3.3899295098e+00 1.9571767150e+00 3.3899295098e+00 
145500 3.7222637329e+00 -5.3518519330e-04 1.9571904371e+00 -3.3899532771e+00 1.9571904371e+00 3.3899532771e+00 
145600 3.7222637245e+00 -5.3324733246e-04 1.9572041094e+00 -3.3899769582e+00 1.9572041094e+00 3.3899769582e+00 
145700 3.7222637162e+00 -5.3131642800e-04 1.9572177321e+00 -3.3900005534e+00 1.9572177321e+00 3.3900005534e+00 
145800 3.7222637079e+00 -5.2939245541e-04 1.9572313053e+00 -3.3900240630e+00 1.9572313053e+00 3.3900240630e+00 
145900 3.7222636997e+00 -5.2747539021e-04 1.9572448294e+00 -3.3900474873e+00 1.9572448294e+00 3.3900474873e+00 
146000 3.7222636916e+00 -5.2556520806e-04 1.9572583043e+00 -3.3900708266e+00 1.9572583043e+00 3.3900708266e+00 
146100 3.7222636835e+00 -5.2366188466e-04 1.9572717304e+00 -3.3900940813e+00 1.9572717304e+00 3.3900940813e+00 
146200 3.7222636755e+00 -5.2176539582e-04 1.9572851078e+00 -3.3901172515e+00 1.9572851078e+00 3.3901172515e+00 
146300 3.7222636675e+00 -5.1987571741e-04 1.9572984366e+00 -3.3901403377e+00 1.9572984366e+00 3.3901403377e+00 
146400 3.7222636596e+00 -5.1799282540e-04 1.9573117170e+00 -3.3901633402e+00 1.9573117170e+00 3.3901633402e+00 
146500 3.7222636518e+00 -5.1611669583e-04 1.9573249493e+00 -3.3901862591e+00 1.9573249493e+00 3.3901862591e+00 
146600 3.7222636440e+00 -5.1424730483e-04 1.9573381336e+00 -3.3902090949e+00 1.9573381336e+00 3.3902090949e+00 
146700 3.7222636363e+00 -5.1238462861e-04 1.9573512700e+00 -3.3902318478e+00 1.9573512700e+00 3.3902318478e+00 
146800 3.7222636286e+00 -5.1052864346e-04 1.9573643587e+00 -3.3902545182e+00 1.9573643587e+00 3.3902545182e+00 
146900 3.7222636210e+00 -5.0867932575e-04 1.9573773999e+00 -3.3902771063e+00 1.9573773999e+00 3.3902771063e+00 
147000 3.7222636134e+00 -5.0683665192e-04 1.9573903939e+00 -3.3902996124e+00 1.9573903939e+00 3.3902996124e+00 
147100 3.7222636059e+00 -5.0500059850e-04 1.9574033406e+00 -3.3903220368e+00 1.9574033406e+00 3.3903220368e+00 
147200 3.7222635984e+00 -5.0317114212e-04 1.9574162404e+00 -3.3903443799e+00 1.9574162404e+00 3.3903443799e+00 
147300 3.7222635910e+00 -5.0134825945e-04 1.9574290933e+00 -3.3903666419e+00 1.9574290933e+00 3.3903666419e+00 
147400 3.7222635837e+00 -4.9953192727e-04 1.9574418996e+00 -3.3903888231e+00 1.9574418996e+00 3.3903888231e+00 
147500 3.7222635764e+00 -4.9772212242e-04 1.9574546595e+00 -3.3904109237e+00 1.9574546595e+00 3.3904109237e+00 
147600 3.7222635691e+00 -4.9591882183e-04 1.9574673730e+00 -3.3904329442e+00 1.9574673730e+00 3.3904329442e+00 
147700 3.7222635620e+00 -4.9412200252e-04 1.9574800404e+00 -3.3904548847e+00 1.9574800404e+00 3.3904548847e+00 
147800 3.7222635548e+00 -4.9233164156e-04 1.9574926618e+00 -3.3904767456e+00 1.9574926618e+00 3.3904767456e+00 
147900 3.7222635477e+00 -4.9054771611e-04 1.9575052373e+00 -3.3904985272e+00 1.9575052373e+00 3.3904985272e+00 
148000 3.7222635407e+00 -4.8877020343e-04 1.9575177673e+00 -3.3905202296e+00 1.9575177673e+00 3.3905202296e+00 
148100 3.7222635337e+00 -4.8699908082e-04 1.9575302517e+00 -3.3905418533e+00 1.9575302517e+00 3.3905418533e+00 
148200 3.7222635268e+00 -4.8523432569e-04 1.9575426909e+00 -3.3905633986e+00 1.9575426909e+00 3.3905633986e+00 
148300 3.7222635199e+00 -4.8347591551e-04 1.9575550848e+00 -3.3905848656e+00 1.9575550848e+00 3.3905848656e+00 
148400 3.7222635131e+00 -4.8172382782e-04 1.9575674338e+00 -3.3906062546e+00 1.9575674338e+00 3.3906062546e+00 
148500 3.7222635063e+00 -4.7997804026e-04 1.9575797380e+00 -3.3906275661e+00 1.9575797380e+00 3.3906275661e+00 
148600 3.7222634996e+00 -4.7823853054e-04 1.9575919975e+00 -3.3906488001e+00 1.9575919975e+00 3.3906488001e+00 
148700 3.7222634929e+00 -4.7650527642e-04 1.9576042125e+00 -3.3906699571e+00 1.9576042125e+00 3.3906699571e+00 
148800 3.7222634862e+00 -4.7477825577e-04 1.9576163831e+00 -3.3906910372e+00 1.9576163831e+00 3.3906910372e+00 
148900 3.7222634796e+00 -4.7305744652e-04 1.9576285095e+00 -3.3907120409e+00 1.9576285095e+00 3.3907120409e+00 
149000 3.7222634731e+00 -4.7134282668e-04 1.9576405920e+00 -3.3907329682e+00 1.9576405920e+00 3.3907329682e+00 
149100 3.7222634666e+00 -4.6963437433e-04 1.9576526305e+00 -3.3907538196e+00 1.9576526305e+00 3.3907538196e+00 
149200 3.7222634602e+00 -4.6793206763e-04 1.9576646254e+00 -3.3907745953e+00 1.9576646254e+00 3.3907745953e+00 
149300 3.7222634538e+00 -4.6623588481e-04 1.9576765767e+00 -3.3907952956e+00 1.9576765767e+00 3.3907952956e+00 
149400 3.7222634474e+00 -4.6454580419e-04 1.9576884846e+00 -3.3908159207e+00 1.9576884846e+00 3.3908159207e+00 
149500 3.7222634411e+00 -4.6286180413e-04 1.9577003492e+00 -3.3908364709e+00 1.9577003492e+00 3.3908364709e+00 
149600 3.7222634349e+00 -4.6118386310e-04 1.9577121708e+00 -3.3908569464e+00 1.9577121708e+00 3.3908569464e+00 
149700 3.7222634286e+00 -4.5951195964e-04 1.9577239495e+00 -3.3908773477e+00 1.9577239495e+00 3.3908773477e+00 
149800 3.7222634225e+00 -4.5784607233e-04 1.9577356853e+00 -3.3908976748e+00 1.9577356853e+00 3.3908976748e+00 
149900 3.7222634163e+00 -4.5618617987e-04 1.9577473786e+00 -3.3909179281e+00 1.9577473786e+00 3.3909179281e+00 
150000 3.7222634103e+00 -4.5453226099e-04 1.9577590294e+00 -3.3909381079e+00 1.9577590294e+00 3.3909381079e+00 
150100 3.7222634042e+00 -4.5288429453e-04 1.9577706379e+00 -3.3909582144e+00 1.9577706379e+00 3.3909582144e+00 
150200 3.7222633982e+00 -4.5124225938e-04 1.9577822042e+00 -3.3909782479e+00 1.9577822042e+00 3.3909782479e+00 
150300 3.7222633923e+00 -4.4960613451e-04 1.9577937286e+00 -3.3909982086e+00 1.9577937286e+00 3.3909982086e+00 
150400 3.7222633864e+00 -4.4797589896e-04 1.9578052111e+00 -3.3910180969e+00 1.9578052111e+00 3.3910180969e+00 
150500 3.7222633805e+00 -4.4635153184e-04 1.9578166518e+00 -3.3910379129e+00 1.9578166518e+00 3.3910379129e+00 
150600 3.7222633747e+00 -4.4473301234e-04 1.9578280511e+00 -3.3910576569e+00 1.9578280511e+00 3.3910576569e+00 
150700 3.7222633689e+00 -4.4312031971e-04 1.9578394089e+00 -3.3910773293e+00 1.9578394089e+00 3.3910773293e+00 
150800 3.7222633632e+00 -4.4151343328e-04 1.9578507255e+00 -3.3910969302e+00 1.9578507255e+00 3.3910969302e+00 
150900 3.7222633575e+00 -4.3991233245e-04 1.9578620009e+00 -3.3911164598e+00 1.9578620009e+00 3.3911164598e+00 
151000 3.7222633518e+00 -4.3831699670e-04 1.9578732355e+00 -3.3911359186e+00 1.9578732355e+00 3.3911359186e+00 
151100 3.7222633462e+00 -4.3672740555e-04 1.9578844292e+00 -3.3911553067e+00 1.9578844292e+00 3.3911553067e+00 
151200 3.7222633407e+00 -4.3514353863e-04 1.9578955822e+00 -3.3911746243e+00 1.9578955822e+00 3.3911746243e+00 
151300 3.7222633351e+00 -4.3356537561e-04 1.9579066948e+00 -3.3911938718e+00 1.9579066948e+00 3.3911938718e+00 
151400 3.7222633296e+00 -4.3199289624e-04 1.9579177670e+00 -3.3912130494e+00 1.9579177670e+00 3.3912130494e+00 
151500 3.7222633242e+00 -4.3042608034e-04 1.9579287989e+00 -3.3912321573e+00 1.9579287989e+00 3.3912321573e+00 
151600 3.7222633188e+00 -4.2886490781e-04 1.9579397908e+00 -3.3912511958e+00 1.9579397908e+00 3.3912511958e+00 
151700 3.7222633134e+00 -4.2730935861e-04 1.9579507427e+00 -3.3912701651e+00 1.9579507427e+00 3.3912701651e+00 
151800 3.7222633081e+00 -4.2575941275e-04 1.9579616549e+00 -3.3912890656e+00 1.9579616549e+00 3.3912890656e+00 
151900 3.7222633028e+00 -4.2421505035e-04 1.9579725274e+00 -3.3913078973e+00 1.9579725274e+00 3.3913078973e+00 
152000 3.7222632975e+00 -4.2267625156e-04 1.9579833605e+00 -3.3913266607e+00 1.9579833605e+00 3.3913266607e+00 
152100 3.7222632923e+00 -4.2114299663e-04 1.9579941541e+00 -3.3913453559e+00 1.9579941541e+00 3.3913453559e+00 
152200 3.7222632871e+00 -4.1961526584e-04 1.9580049086e+00 -3.3913639832e+00 1.9580049086e+00 3.3913639832e+00 
152300 3.7222632820e+00 -4.1809303959e-04 1.9580156240e+00 -3.3913825428e+00 1.9580156240e+00 3.3913825428e+00 
152400 3.7222632769e+00 -4.1657629829e-04 1.9580263004e+00 -3.3914010349e+00 1.9580263004e+00 3.3914010349e+00 
152500 3.7222632718e+00 -4.1506502246e-04 1.9580369381e+00 -3.3914194599e+00 1.9580369381e+00 3.3914194599e+00 
152600 3.7222632668e+00 -4.1355919268e-04 1.9580475371e+00 -3.3914378179e+00 1.9580475371e+00 3.3914378179e+00 
152700 3.7222632618e+00 -4.1205878958e-04 1.9580580976e+00 -3.3914561093e+00 1.9580580976e+00 3.3914561093e+00 
152800 3.7222632569e+00 -4.1056379387e-04 1.9580686198e+00 -3.3914743342e+00 1.9580686198e+00 3.3914743342e+00 
152900 3.7222632519e+00 -4.0907418632e-04 1.9580791037e+00 -3.3914924928e+00 1.9580791037e+00 3.3914924928e+00 
153000 3.7222632471e+00 -4.0758994778e-04 1.9580895495e+00 -3.3915105855e+00 1.9580895495e+00 3.3915105855e+00 
153100 3.7222632422e+00 -4.0611105915e-04 1.9580999574e+00 -3.3915286124e+00 1.9580999574e+00 3.3915286124e+00 
153200 3.7222632374e+00 -4.0463750141e-04 1.9581103274e+00 -3.3915465739e+00 1.9581103274e+00 3.3915465739e+00 
153300 3.7222632326e+00 -4.0316925559e-04 1.9581206597e+00 -3.3915644700e+00 1.9581206597e+00 3.3915644700e+00 
153400 3.7222632279e+00 -4.0170630279e-04 1.9581309546e+00 -3.3915823012e+00 1.9581309546e+00 3.3915823012e+00 
153500 3.7222632232e+00 -4.0024862419e-04 1.9581412120e+00 -3.3916000675e+00 1.9581412120e+00 3.3916000675e+00 
153600 3.7222632185e+00 -3.9879620103e-04 1.9581514321e+00 -3.3916177693e+00 1.9581514321e+00 3.3916177693e+00 
153700 3.7222632138e+00 -3.9734901459e-04 1.9581616151e+00 -3.3916354067e+00 1.9581616151e+00 3.3916354067e+00 
153800 3.7222632092e+00 -3.9590704625e-04 1.9581717610e+00 -3.3916529801e+00 1.9581717610e+00 3.3916529801e+00 
153900 3.7222632047e+00 -3.9447027743e-04 1.9581818702e+00 -3.3916704896e+00 1.9581818702e+00 3.3916704896e+00 
154000 3.7222632001e+00 -3.9303868963e-04 1.9581919425e+00 -3.3916879354e+00 1.9581919425e+00 3.3916879354e+00 
154100 3.7222631956e+00 -3.9161226440e-04 1.9582019783e+00 -3.3917053179e+00 1.9582019783e+00 3.3917053179e+00 
154200 3.7222631911e+00 -3.9019098337e-04 1.9582119776e+00 -3.3917226372e+00 1.9582119776e+00 3.3917226372e+00 
154300 3.7222631867e+00 -3.8877482822e-04 1.9582219405e+00 -3.3917398935e+00 1.9582219405e+00 3.3917398935e+00 
154400 3.7222631823e+00 -3.8736378070e-04 1.9582318673e+00 -3.3917570871e+00 1.9582318673e+00 3.3917570871e+00 
154500 3.7222631779e+00 -3.8595782262e-04 1.9582417579e+00 -3.3917742182e+00 1.9582417579e+00 3.3917742182e+00 
154600 3.7222631736e+00 -3.8455693586e-04 1.9582516126e+00 -3.3917912871e+00 1.9582516126e+00 3.3917912871e+00 
154700 3.7222631692e+00 -3.8316110235e-04 1.9582614315e+00 -3.3918082939e+00 1.9582614315e+00 3.3918082939e+00 
154800 3.7222631650e+00 -3.8177030409e-04 1.9582712147e+00 -3.3918252389e+00 1.9582712147e+00 3.3918252389e+00 
154900 3.7222631607e+00 -3.8038452315e-04 1.9582809624e+00 -3.3918421223e+00 1.9582809624e+00 3.3918421223e+00 
155000 3.7222631565e+00 -3.7900374165e-04 1.9582906746e+00 -3.3918589444e+00 1.9582906746e+00 3.3918589444e+00 
155100 3.7222631523e+00 -3.7762794178e-04 1.9583003515e+00 -3.3918757053e+00 1.9583003515e+00 3.3918757053e+00 
155200 3.7222631481e+00 -3.7625710579e-04 1.9583099932e+00 -3.3918924053e+00 1.9583099932e+00 3.3918924053e+00 
155300 3.7222631440e+00 -3.7489121598e-04 1.9583195999e+00 -3.3919090445e+00 1.9583195999e+00 3.3919090445e+00 
155400 3.7222631399e+00 -3.7353025473e-04 1.9583291717e+00 -3.3919256233e+00 1.9583291717e+00 3.3919256233e+00 
155500 3.7222631358e+00 -3.7217420448e-04 1.9583387087e+00 -3.3919421418e+00 1.9583387087e+00 3.3919421418e+00 
155600 3.7222631318e+00 -3.7082304771e-04 1.9583482110e+00 -3.3919586003e+00 1.9583482110e+00 3.3919586003e+00 
155700 3.7222631278e+00 -3.6947676698e-04 1.9583576787e+00 -3.3919749989e+00 1.9583576787e+00 3.3919749989e+00 
155800 3.7222631238e+00 -3.6813534492e-04 1.9583671121e+00 -3.3919913380e+00 1.9583671121e+00 3.3919913380e+00 
155900 3.7222631198e+00 -3.6679876418e-04 1.9583765111e+00 -3.3920076176e+00 1.9583765111e+00 3.3920076176e+00 
156000 3.7222631159e+00 -3.6546700752e-04 1.9583858760e+00 -3.3920238380e+00 1.9583858760e+00 3.3920238380e+00 
156100 3.7222631120e+00 -3.6414005772e-04 1.9583952068e+00 -3.3920399995e+00 1.9583952068e+00 3.3920399995e+00 
156200 3.7222631082e+00 -3.6281789764e-04 1.9584045037e+00 -3.3920561022e+00 1.9584045037e+00 3.3920561022e+00 
156300 3.7222631043e+00 -3.6150051021e-04 1.9584137668e+00 -3.3920721464e+00 1.9584137668e+00 3.3920721464e+00 
156400 3.7222631005e+00 -3.6018787839e-04 1.9584229963e+00 -3.3920881322e+00 1.9584229963e+00 3.3920881322e+00 
156500 3.7222630967e+00 -3.5887998521e-04 1.9584321921e+00 -3.3921040599e+00 1.9584321921e+00 3.3921040599e+00 
156600 3.7222630930e+00 -3.5757681378e-04 1.9584413546e+00 -3.3921199297e+00 1.9584413546e+00 3.3921199297e+00 
156700 3.7222630892e+00 -3.5627834724e-04 1.9584504837e+00 -3.3921357419e+00 1.9584504837e+00 3.3921357419e+00 
156800 3.7222630855e+00 -3.5498456881e-04 1.9584595796e+00 -3.3921514965e+00 1.9584595796e+00 3.3921514965e+00 
156900 3.7222630819e+00 -3.5369546175e-04 1.9584686425e+00 -3.3921671938e+00 1.9584686425e+00 3.3921671938e+00 
157000 3.7222630782e+00 -3.5241100940e-04 1.9584776724e+00 -3.3921828341e+00 1.9584776724e+00 3.3921828341e+00 
157100 3.7222630746e+00 -3.5113119514e-04 1.9584866695e+00 -3.3921984174e+00 1.9584866695e+00 3.3921984174e+00 
157200 3.7222630710e+00 -3.4985600241e-04 1.9584956338e+00 -3.3922139442e+00 1.9584956338e+00 3.3922139442e+00 
157300 3.7222630674e+00 -3.4858541471e-04 1.9585045656e+00 -3.3922294144e+00 1.9585045656e+00 3.3922294144e+00 
157400 3.7222630639e+00 -3.4731941561e-04 1.9585134649e+00 -3.3922448284e+00 1.9585134649e+00 3.3922448284e+00 
157500 3.7222630604e+00 -3.4605798872e-04 1.9585223318e+00 -3.3922601864e+00 1.9585223318e+00 3.3922601864e+00 
157600 3.7222630569e+00 -3.4480111771e-04 1.9585311665e+00 -3.3922754885e+00 1.9585311665e+00 3.3922754885e+00 
157700 3.7222630534e+00 -3.4354878632e-04 1.9585399690e+00 -3.3922907350e+00 1.9585399690e+00 3.3922907350e+00 
157800 3.7222630500e+00 -3.4230097832e-04 1.9585487395e+00 -3.3923059260e+00 1.9585487395e+00 3.3923059260e+00 
157900 3.7222630466e+00 -3.4105767758e-04 1.9585574782e+00 -3.3923210618e+00 1.9585574782e+00 3.3923210618e+00 
158000 3.7222630432e+00 -3.3981886797e-04 1.9585661851e+00 -3.3923361425e+00 1.9585661851e+00 3.3923361425e+00 
158100 3.7222630398e+00 -3.3858453347e-04 1.9585748603e+00 -3.3923511684e+00 1.9585748603e+00 3.3923511684e+00 
158200 3.7222630365e+00 -3.3735465809e-04 1.9585835039e+00 -3.3923661396e+00 1.9585835039e+00 3.3923661396e+00 
158300 3.7222630331e+00 -3.3612922589e-04 1.9585921161e+00 -3.3923810564e+00 1.9585921161e+00 3.3923810564e+00 
158400 3.7222630298e+00 -3.3490822099e-04 1.9586006970e+00 -3.3923959190e+00 1.9586006970e+00 3.3923959190e+00 
158500 3.7222630266e+00 -3.3369162758e-04 1.9586092467e+00 -3.3924107275e+00 1.9586092467e+00 3.3924107275e+00 
158600 3.7222630233e+00 -3.3247942989e-04 1.9586177653e+00 -3.3924254821e+00 1.9586177653e+00 3.3924254821e+00 
158700 3.7222630201e+00 -3.3127161221e-04 1.9586262529e+00 -3.3924401831e+00 1.9586262529e+00 3.3924401831e+00 
158800 3.7222630169e+00 -3.3006815888e-04 1.9586347096e+00 -3.3924548306e+00 1.9586347096e+00 3.3924548306e+00 
158900 3.7222630137e+00 -3.2886905431e-04 1.9586431356e+00 -3.3924694248e+00 1.9586431356e+00 3.3924694248e+00 
159000 3.7222630106e+00 -3.2767428294e-04 1.9586515310e+00 -3.3924839659e+00 1.9586515310e+00 3.3924839659e+00 
159100 3.7222630075e+00 -3.2648382929e-04 1.9586598958e+00 -3.3924984542e+00 1.9586598958e+00 3.3924984542e+00 
159200 3.7222630043e+00 -3.2529767792e-04 1.9586682301e+00 -3.3925128898e+00 1.9586682301e+00 3.3925128898e+00 
159300 3.7222630013e+00 -3.2411581345e-04 1.9586765342e+00 -3.3925272728e+00 1.9586765342e+00 3.3925272728e+00 
159400 3.7222629982e+00 -3.2293822053e-04 1.9586848080e+00 -3.3925416035e+00 1.9586848080e+00 3.3925416035e+00 
159500 3.7222629952e+00 -3.2176488391e-04 1.9586930518e+00 -3.3925558822e+00 1.9586930518e+00 3.3925558822e+00 
159600 3.7222629921e+00 -3.2059578835e-04 1.9587012656e+00 -3.3925701088e+00 1.9587012656e+00 3.3925701088e+00 
159700 3.7222629891e+00 -3.1943091868e-04 1.9587094495e+00 -3.3925842837e+00 1.9587094495e+00 3.3925842837e+00 
159800 3.7222629862e+00 -3.1827025980e-04 1.9587176036e+00 -3.3925984071e+00 1.9587176036e+00 3.3925984071e+00 
159900 3.7222629832e+00 -3.1711379663e-04 1.9587257280e+00 -3.3926124791e+00 1.9587257280e+00 3.3926124791e+00 
160000 3.7222629803e+00 -3.1596151416e-04 1.9587338230e+00 -3.3926264999e+00 1.9587338230e+00 3.3926264999e+00 
160100 3.7222629774e+00 -3.1481339745e-04 1.9587418884e+00 -3.3926404696e+00 1.9587418884e+00 3.3926404696e+00 
160200 3.7222629745e+00 -3.1366943157e-04 1.9587499245e+00 -3.3926543886e+00 1.9587499245e+00 3.3926543886e+00 
160300 3.7222629716e+00 -3.1252960168e-04 1.9587579314e+00 -3.3926682569e+00 1.9587579314e+00 3.3926682569e+00 
160400 3.7222629688e+00 -3.1139389298e-04 1.9587659092e+00 -3.3926820748e+00 1.9587659092e+00 3.3926820748e+00 
160500 3.7222629660e+00 -3.1026229071e-04 1.9587738579e+00 -3.3926958424e+00 1.9587738579e+00 3.3926958424e+00 
160600 3.7222629632e+00 -3.0913478018e-04 1.9587817777e+00 -3.3927095599e+00 1.9587817777e+00 3.3927095599e+00 
160700 3.7222629604e+00 -3.0801134674e-04 1.9587896687e+00 -3.3927232276e+00 1.9587896687e+00 3.3927232276e+00 
160800 3.7222629576e+00 -3.0689197580e-04 1.9587975310e+00 -3.3927368454e+00 1.9587975310e+00 3.3927368454e+00 
160900 3.7222629549e+00 -3.0577665281e-04 1.9588053647e+00 -3.3927504138e+00 1.9588053647e+00 3.3927504138e+00 
161000 3.7222629521e+00 -3.0466536328e-04 1.9588131699e+00 -3.3927639328e+00 1.9588131699e+00 3.3927639328e+00 
161100 3.7222629494e+00 -3.0355809276e-04 1.9588209467e+00 -3.3927774026e+00 1.9588209467e+00 3.3927774026e+00 
161200 3.7222629467e+00 -3.0245482688e-04 1.9588286952e+00 -3.3927908234e+00 1.9588286952e+00 3.3927908234e+00 
161300 3.7222629441e+00 -3.0135555127e-04 1.9588364155e+00 -3.3928041953e+00 1.9588364155e+00 3.3928041953e+00 
161400 3.7222629414e+00 -3.0026025167e-04 1.9588441077e+00 -3.3928175186e+00 1.9588441077e+00 3.3928175186e+00 
161500 3.7222629388e+00 -2.9916891381e-04 1.9588517719e+00 -3.3928307934e+00 1.9588517719e+00 3.3928307934e+00 
161600 3.7222629362e+00 -2.9808152352e-04 1.9588594082e+00 -3.3928440200e+00 1.9588594082e+00 3.3928440200e+00 
161700 3.7222629336e+00 -2.9699806665e-04 1.9588670168e+00 -3.3928571984e+00 1.9588670168e+00 3.3928571984e+00 
161800 3.7222629310e+00 -2.9591852911e-04 1.9588745977e+00 -3.3928703288e+00 1.9588745977e+00 3.3928703288e+00 
161900 3.7222629285e+00 -2.9484289686e-04 1.9588821510e+00 -3.3928834115e+00 1.9588821510e+00 3.3928834115e+00 
162000 3.7222629260e+00 -2.9377115591e-04 1.9588896768e+00 -3.3928964466e+00 1.9588896768e+00 3.3928964466e+00 
162100 3.7222629234e+00 -2.9270329231e-04 1.9588971752e+00 -3.3929094342e+00 1.9588971752e+00 3.3929094342e+00 
162200 3.7222629210e+00 -2.9163929217e-04 1.9589046463e+00 -3.3929223746e+00 1.9589046463e+00 3.3929223746e+00 
162300 3.7222629185e+00 -2.9057914165e-04 1.9589120902e+00 -3.3929352679e+00 1.9589120902e+00 3.3929352679e+00 
162400 3.7222629160e+00 -2.8952282695e-04 1.9589195071e+00 -3.3929481142e+00 1.9589195071e+00 3.3929481142e+00 
162500 3.7222629136e+00 -2.8847033431e-04 1.9589268970e+00 -3.3929609138e+00 1.9589268970e+00 3.3929609138e+00 
162600 3.7222629111e+00 -2.8742165005e-04 1.9589342599e+00 -3.3929736669e+00 1.9589342599e+00 3.3929736669e+00 
162700 3.7222629087e+00 -2.8637676050e-04 1.9589415961e+00 -3.3929863735e+00 1.9589415961e+00 3.3929863735e+00 
162800 3.7222629064e+00 -2.8533565207e-04 1.9589489056e+00 -3.3929990339e+00 1.9589489056e+00 3.3929990339e+00 
162900 3.7222629040e+00 -2.8429831120e-04 1.9589561885e+00 -3.3930116482e+00 1.9589561885e+00 3.3930116482e+00 
163000 3.7222629016e+00 -2.8326472437e-04 1.9589634449e+00 -3.3930242167e+00 1.9589634449e+00 3.3930242167e+00 
163100 3.7222628993e+00 -2.8223487814e-04 1.9589706748e+00 -3.3930367393e+00 1.9589706748e+00 3.3930367393e+00 
163200 3.7222628970e+00 -2.8120875909e-04 1.9589778785e+00 -3.3930492164e+00 1.9589778785e+00 3.3930492164e+00 
163300 3.7222628947e+00 -2.8018635384e-04 1.9589850559e+00 -3.3930616481e+00 1.9589850559e+00 3.3930616481e+00 
163400 3.7222628924e+00 -2.7916764909e-04 1.9589922072e+00 -3.3930740346e+00 1.9589922072e+00 3.3930740346e+00 
163500 3.7222628901e+00 -2.7815263155e-04 1.9589993325e+00 -3.3930863759e+00 1.9589993325e+00 3.3930863759e+00 
163600 3.7222628879e+00 -2.7714128801e-04 1.9590064319e+00 -3.3930986724e+00 1.9590064319e+00 3.3930986724e+00 
163700 3.7222628856e+00 -2.7613360529e-04 1.9590135054e+00 -3.3931109241e+00 1.9590135054e+00 3.3931109241e+00 
163800 3.7222628834e+00 -2.7512957024e-04 1.9590205532e+00 -3.3931231312e+00 1.9590205532e+00 3.3931231312e+00 
163900 3.7222628812e+00 -2.7412916980e-04 1.9590275753e+00 -3.3931352939e+00 1.9590275753e+00 3.3931352939e+00 
164000 3.7222628790e+00 -2.7313239091e-04 1.9590345719e+00 -3.3931474123e+00 1.9590345719e+00 3.3931474123e+00 
164100 3.7222628768e+00 -2.7213922058e-04 1.9590415430e+00 -3.3931594866e+00 1.9590415430e+00 3.3931594866e+00 
164200 3.7222628747e+00 -2.7114964586e-04 1.9590484887e+00 -3.3931715169e+00 1.9590484887e+00 3.3931715169e+00 
164300 3.7222628725e+00 -2.7016365385e-04 1.9590554091e+00 -3.3931835035e+00 1.9590554091e+00 3.3931835035e+00 
164400 3.7222628704e+00 -2.6918123170e-04 1.9590623044e+00 -3.3931954464e+00 1.9590623044e+00 3.3931954464e+00 
164500 3.7222628683e+00 -2.6820236659e-04 1.9590691746e+00 -3.3932073459e+00 1.9590691746e+00 3.3932073459e+00 
164600 3.7222628662e+00 -2.6722704575e-04 1.9590760197e+00 -3.3932192020e+00 1.9590760197e+00 3.3932192020e+00 
164700 3.7222628641e+00 -2.6625525647e-04 1.9590828400e+00 -3.3932310150e+00 1.9590828400e+00 3.3932310150e+00 
164800 3.7222628621e+00 -2.6528698606e-04 1.9590896354e+00 -3.3932427850e+00 1.9590896354e+00 3.3932427850e+00 
164900 3.7222628600e+00 -2.6432222189e-04 1.9590964060e+00 -3.3932545122e+00 1.9590964060e+00 3.3932545122e+00 
165000 3.7222628580e+00 -2.6336095138e-04 1.9591031521e+00 -3.3932661966e+00 1.9591031521e+00 3.3932661966e+00 
165100 3.7222628560e+00 -2.6240316198e-04 1.9591098735e+00 -3.3932778386e+00 1.9591098735e+00 3.3932778386e+00 
165200 3.7222628540e+00 -2.6144884119e-04 1.9591165705e+00 -3.3932894381e+00 1.9591165705e+00 3.3932894381e+00 
165300 3.7222628520e+00 -2.6049797657e-04 1.9591232432e+00 -3.3933009954e+00 1.9591232432e+00 3.3933009954e+00 
165400 3.7222628500e+00 -2.5955055568e-04 1.9591298915e+00 -3.3933125107e+00 1.9591298915e+00 3.3933125107e+00 
165500 3.7222628480e+00 -2.5860656618e-04 1.9591365156e+00 -3.3933239840e+00 1.9591365156e+00 3.3933239840e+00 
165600 3.7222628461e+00 -2.5766599573e-04 1.9591431156e+00 -3.3933354156e+00 1.9591431156e+00 3.3933354156e+00 
165700 3.7222628442e+00 -2.5672883206e-04 1.9591496916e+00 -3.3933468056e+00 1.9591496916e+00 3.3933468056e+00 
165800 3.7222628422e+00 -2.5579506293e-04 1.9591562437e+00 -3.3933581540e+00 1.9591562437e+00 3.3933581540e+00 
165900 3.7222628403e+00 -2.5486467614e-04 1.9591627719e+00 -3.3933694612e+00 1.9591627719e+00 3.3933694612e+00 
166000 3.7222628384e+00 -2.5393765955e-04 1.9591692763e+00 -3.3933807272e+00 1.9591692763e+00 3.3933807272e+00 
166100 3.7222628366e+00 -2.5301400104e-04 1.9591757571e+00 -3.3933919522e+00 1.9591757571e+00 3.3933919522e+00 
166200 3.7222628347e+00 -2.5209368856e-04 1.9591822142e+00 -3.3934031363e+00 1.9591822142e+00 3.3934031363e+00 
166300 3.7222628329e+00 -2.5117671007e-04 1.9591886479e+00 -3.3934142797e+00 1.9591886479e+00 3.3934142797e+00 
166400 3.7222628310e+00 -2.5026305361e-04 1.9591950581e+00 -3.3934253826e+00 1.9591950581e+00 3.3934253826e+00 
166500 3.7222628292e+00 -2.4935270723e-04 1.9592014450e+00 -3.3934364450e+00 1.9592014450e+00 3.3934364450e+00 
166600 3.7222628274e+00 -2.4844565904e-04 1.9592078086e+00 -3.3934474671e+00 1.9592078086e+00 3.3934474671e+00 
166700 3.7222628256e+00 -2.4754189719e-04 1.9592141491e+00 -3.3934584491e+00 1.9592141491e+00 3.3934584491e+00 
166800 3.7222628238e+00 -2.4664140985e-04 1.9592204665e+00 -3.3934693912e+00 1.9592204665e+00 3.3934693912e+00 
166900 3.7222628220e+00 -2.4574418527e-04 1.9592267609e+00 -3.3934802933e+00 1.9592267609e+00 3.3934802933e+00 
167000 3.7222628203e+00 -2.4485021172e-04 1.9592330323e+00 -3.3934911558e+00 1.9592330323e+00 3.3934911558e+00 
167100 3.7222628185e+00 -2.4395947751e-04 1.9592392809e+00 -3.3935019788e+00 1.9592392809e+00 3.3935019788e+00 
167200 3.7222628168e+00 -2.4307197099e-04 1.9592455068e+00 -3.3935127623e+00 1.9592455068e+00 3.3935127623e+00 
167300 3.7222628151e+00 -2.4218768056e-04 1.9592517100e+00 -3.3935235066e+00 1.9592517100e+00 3.3935235066e+00 
167400 3.7222628134e+00 -2.4130659466e-04 1.9592578906e+00 -3.3935342117e+00 1.9592578906e+00 3.3935342117e+00 
167500 3.7222628117e+00 -2.4042870177e-04 1.9592640488e+00 -3.3935448779e+00 1.9592640488e+00 3.3935448779e+00 
167600 3.7222628100e+00 -2.3955399040e-04 1.9592701845e+00 -3.3935555052e+00 1.9592701845e+00 3.3935555052e+00 
167700 3.7222628083e+00 -2.3868244911e-04 1.9592762978e+00 -3.3935660939e+00 1.9592762978e+00 3.3935660939e+00 
167800 3.7222628067e+00 -2.3781406651e-04 1.9592823889e+00 -3.3935766439e+00 1.9592823889e+00 3.3935766439e+00 
167900 3.7222628050e+00 -2.3694883123e-04 1.9592884578e+00 -3.3935871556e+00 1.9592884578e+00 3.3935871556e+00 
168000 3.7222628034e+00 -2.3608673196e-04 1.9592945046e+00 -3.3935976290e+00 1.9592945046e+00 3.3935976290e+00 
168100 3.7222628018e+00 -2.3522775741e-04 1.9593005294e+00 -3.3936080642e+00 1.9593005294e+00 3.3936080642e+00 
168200 3.7222628002e+00 -2.3437189635e-04 1.9593065323e+00 -3.3936184615e+00 1.9593065323e+00 3.3936184615e+00 
168300 3.7222627986e+00 -2.3351913758e-04 1.9593125133e+00 -3.3936288209e+00 1.9593125133e+00 3.3936288209e+00 
168400 3.7222627970e+00 -2.3266946993e-04 1.9593184725e+00 -3.3936391425e+00 1.9593184725e+00 3.3936391425e+00 
168500 3.7222627954e+00 -2.3182288229e-04 1.9593244100e+00 -3.3936494266e+00 1.9593244100e+00 3.3936494266e+00 
168600 3.7222627938e+00 -2.3097936357e-04 1.9593303259e+00 -3.3936596732e+00 1.9593303259e+00 3.3936596732e+00 
168700 3.7222627923e+00 -2.3013890273e-04 1.9593362202e+00 -3.3936698825e+00 1.9593362202e+00 3.3936698825e+00 
168800 3.7222627907e+00 -2.2930148878e-04 1.9593420931e+00 -3.3936800547e+00 1.9593420931e+00 3.3936800547e+00 
168900 3.7222627892e+00 -2.2846711074e-04 1.9593479446e+00 -3.3936901898e+00 1.9593479446e+00 3.3936901898e+00 
169000 3.7222627877e+00 -2.2763575770e-04 1.9593537748e+00 -3.3937002879e+00 1.9593537748e+00 3.3937002879e+00 
169100 3.7222627862e+00 -2.2680741875e-04 1.9593595837e+00 -3.3937103493e+00 1.9593595837e+00 3.3937103493e+00 
169200 3.7222627847e+00 -2.2598208307e-04 1.9593653715e+00 -3.3937203741e+00 1.9593653715e+00 3.3937203741e+00 
169300 3.7222627832e+00 -2.2515973984e-04 1.9593711383e+00 -3.3937303623e+00 1.9593711383e+00 3.3937303623e+00 
169400 3.7222627817e+00 -2.2434037828e-04 1.9593768840e+00 -3.3937403142e+00 1.9593768840e+00 3.3937403142e+00 
169500 3.7222627803e+00 -2.2352398767e-04 1.9593826088e+00 -3.3937502298e+00 1.9593826088e+00 3.3937502298e+00 
169600 3.7222627788e+00 -2.2271055731e-04 1.9593883127e+00 -3.3937601094e+00 1.9593883127e+00 3.3937601094e+00 
169700 3.7222627774e+00 -2.2190007654e-04 1.9593939959e+00 -3.3937699529e+00 1.9593939959e+00 3.3937699529e+00 
169800 3.7222627759e+00 -2.2109253475e-04 1.9593996583e+00 -3.3937797606e+00 1.9593996583e+00 3.3937797606e+00 
169900 3.7222627745e+00 -2.2028792135e-04 1.9594053002e+00 -3.3937895325e+00 1.9594053002e+00 3.3937895325e+00 
170000 3.7222627731e+00 -2.1948622581e-04 1.9594109215e+00 -3.3937992689e+00 1.9594109215e+00 3.3937992689e+00 
170100 3.7222627717e+00 -2.1868743761e-04 1.9594165223e+00 -3.3938089698e+00 1.9594165223e+00 3.3938089698e+00 
170200 3.7222627703e+00 -2.1789154628e-04 1.9594221027e+00 -3.3938186354e+00 1.9594221027e+00 3.3938186354e+00 
170300 3.7222627689e+00 -2.1709854140e-04 1.9594276628e+00 -3.3938282658e+00 1.9594276628e+00 3.3938282658e+00 
170400 3.7222627676e+00 -2.1630841257e-04 1.9594332027e+00 -3.3938378611e+00 1.9594332027e+00 3.3938378611e+00 
170500 3.7222627662e+00 -2.1552114943e-04 1.9594387224e+00 -3.3938474214e+00 1.9594387224e+00 3.3938474214e+00 
170600 3.7222627648e+00 -2.1473674166e-04 1.9594442219e+00 -3.3938569470e+00 1.9594442219e+00 3.3938569470e+00 
170700 3.7222627635e+00 -2.1395517897e-04 1.9594497015e+00 -3.3938664378e+00 1.9594497015e+00 3.3938664378e+00 
170800 3.7222627622e+00 -2.1317645113e-04 1.9594551610e+00 -3.3938758941e+00 1.9594551610e+00 3.3938758941e+00 
170900 3.7222627608e+00 -2.1240054791e-04 1.9594606007e+00 -3.3938853159e+00 1.9594606007e+00 3.3938853159e+00 
171000 3.7222627595e+00 -2.1162745914e-04 1.9594660206e+00 -3.3938947034e+00 1.9594660206e+00 3.3938947034e+00 
171100 3.7222627582e+00 -2.1085717468e-04 1.9594714207e+00 -3.3939040567e+00 1.9594714207e+00 3.3939040567e+00 
171200 3.7222627569e+00 -2.1008968444e-04 1.9594768012e+00 -3.3939133759e+00 1.9594768012e+00 3.3939133759e+00 
171300 3.7222627557e+00 -2.0932497833e-04 1.9594821621e+00 -3.3939226612e+00 1.9594821621e+00 3.3939226612e+00 
171400 3.7222627544e+00 -2.0856304634e-04 1.9594875034e+00 -3.3939319127e+00 1.9594875034e+00 3.3939319127e+00 
171500 3.7222627531e+00 -2.0780387846e-04 1.9594928253e+00 -3.3939411304e+00 1.9594928253e+00 3.3939411304e+00 
171600 3.7222627519e+00 -2.0704746474e-04 1.9594981278e+00 -3.3939503146e+00 1.9594981278e+00 3.3939503146e+00 
171700 3.7222627506e+00 -2.0629379524e-04 1.9595034109e+00 -3.3939594654e+00 1.9595034109e+00 3.3939594654e+00 
171800 3.7222627494e+00 -2.0554286009e-04 1.9595086749e+00 -3.3939685828e+00 1.9595086749e+00 3.3939685828e+00 
171900 3.7222627481e+00 -2.0479464942e-04 1.9595139196e+00 -3.3939776669e+00 1.9595139196e+00 3.3939776669e+00 
172000 3.7222627469e+00 -2.0404915343e-04 1.9595191453e+00 -3.3939867180e+00 1.9595191453e+00 3.3939867180e+00 
172100 3.7222627457e+00 -2.0330636231e-04 1.9595243519e+00 -3.3939957362e+00 1.9595243519e+00 3.3939957362e+00 
172200 3.7222627445e+00 -2.0256626632e-04 1.9595295395e+00 -3.3940047214e+00 1.9595295395e+00 3.3940047214e+00 
172300 3.7222627433e+00 -2.0182885576e-04 1.9595347083e+00 -3.3940136740e+00 1.9595347083e+00 3.3940136740e+00 
172400 3.7222627421e+00 -2.0109412093e-04 1.9595398582e+00 -3.3940225939e+00 1.9595398582e+00 3.3940225939e+00 
172500 3.7222627410e+00 -2.0036205219e-04 1.9595449894e+00 -3.3940314813e+00 1.9595449894e+00 3.3940314813e+00 
172600 3.7222627398e+00 -1.9963263993e-04 1.9595501018e+00 -3.3940403364e+00 1.9595501018e+00 3.3940403364e+00 
172700 3.7222627386e+00 -1.9890587458e-04 1.9595551957e+00 -3.3940491592e+00 1.9595551957e+00 3.3940491592e+00 
172800 3.7222627375e+00 -1.9818174658e-04 1.9595602710e+00 -3.3940579498e+00 1.9595602710e+00 3.3940579498e+00 
172900 3.7222627363e+00 -1.9746024643e-04 1.9595653278e+00 -3.3940667084e+00 1.9595653278e+00 3.3940667084e+00 
173000 3.7222627352e+00 -1.9674136466e-04 1.9595703661e+00 -3.3940754351e+00 1.9595703661e+00 3.3940754351e+00 
173100 3.7222627341e+00 -1.9602509182e-04 1.9595753861e+00 -3.3940841301e+00 1.9595753861e+00 3.3940841301e+00 
173200 3.7222627330e+00 -1.9531141850e-04 1.9595803879e+00 -3.3940927933e+00 1.9595803879e+00 3.3940927933e+00 
173300 3.7222627319e+00 -1.9460033533e-04 1.9595853714e+00 -3.3941014250e+00 1.9595853714e+00 3.3941014250e+00 
173400 3.7222627308e+00 -1.9389183297e-04 1.9595903367e+00 -3.3941100252e+00 1.9595903367e+00 3.3941100252e+00 
173500 3.7222627297e+00 -1.9318590211e-04 1.9595952840e+00 -3.3941185941e+00 1.9595952840e+00 3.3941185941e+00 
173600 3.7222627286e+00 -1.9248253347e-04 1.9596002132e+00 -3.3941271318e+00 1.9596002132e+00 3.3941271318e+00 
173700 3.7222627275e+00 -1.9178171782e-04 1.9596051245e+00 -3.3941356384e+00 1.9596051245e+00 3.3941356384e+00 
173800 3.7222627264e+00 -1.9108344594e-04 1.9596100179e+00 -3.3941441140e+00 1.9596100179e+00 3.3941441140e+00 
173900 3.7222627254e+00 -1.9038770866e-04 1.9596148934e+00 -3.3941525587e+00 1.9596148934e+00 3.3941525587e+00 
174000 3.7222627243e+00 -1.8969449683e-04 1.9596197512e+00 -3.3941609726e+00 1.9596197512e+00 3.3941609726e+00 
174100 3.7222627233e+00 -1.8900380134e-04 1.9596245913e+00 -3.3941693559e+00 1.9596245913e+00 3.3941693559e+00 
174200 3.7222627222e+00 -1.8831561312e-04 1.9596294137e+00 -3.3941777086e+00 1.9596294137e+00 3.3941777086e+00 
174300 3.7222627212e+00 -1.8762992311e-04 1.9596342186e+00 -3.3941860309e+00 1.9596342186e+00 3.3941860309e+00 
174400 3.7222627202e+00 -1.8694672232e-04 1.9596390060e+00 -3.3941943229e+00 1.9596390060e+00 3.3941943229e+00 
174500 3.7222627192e+00 -1.8626600174e-04 1.9596437759e+00 -3.3942025846e+00 1.9596437759e+00 3.3942025846e+00 
174600 3.7222627182e+00 -1.8558775244e-04 1.9596485285e+00 -3.3942108163e+00 1.9596485285e+00 3.3942108163e+00 
174700 3.7222627172e+00 -1.8491196549e-04 1.9596532637e+00 -3.3942190179e+00 1.9596532637e+00 3.3942190179e+00 
174800 3.7222627162e+00 -1.8423863201e-04 1.9596579817e+00 -3.3942271897e+00 1.9596579817e+00 3.3942271897e+00 
174900 3.7222627152e+00 -1.8356774314e-04 1.9596626825e+00 -3.3942353317e+00 1.9596626825e+00 3.3942353317e+00 
175000 3.7222627142e+00 -1.8289929007e-04 1.9596673661e+00 -3.3942434441e+00 1.9596673661e+00 3.3942434441e+00 
175100 3.7222627132e+00 -1.8223326399e-04 1.9596720327e+00 -3.3942515268e+00 1.9596720327e+00 3.3942515268e+00 
175200 3.7222627123e+00 -1.8156965616e-04 1.9596766823e+00 -3.3942595802e+00 1.9596766823e+00 3.3942595802e+00 
175300 3.7222627113e+00 -1.8090845783e-04 1.9596813149e+00 -3.3942676041e+00 1.9596813149e+00 3.3942676041e+00 
175400 3.7222627103e+00 -1.8024966032e-04 1.9596859307e+00 -3.3942755989e+00 1.9596859307e+00 3.3942755989e+00 
175500 3.7222627094e+00 -1.7959325496e-04 1.9596905297e+00 -3.3942835645e+00 1.9596905297e+00 3.3942835645e+00 
175600 3.7222627085e+00 -1.7893923311e-04 1.9596951118e+00 -3.3942915011e+00 1.9596951118e+00 3.3942915011e+00 
175700 3.7222627075e+00 -1.7828758617e-04 1.9596996773e+00 -3.3942994087e+00 1.9596996773e+00 3.3942994087e+00 
175800 3.7222627066e+00 -1.7763830555e-04 1.9597042262e+00 -3.3943072876e+00 1.9597042262e+00 3.3943072876e+00 
175900 3.7222627057e+00 -1.7699138273e-04 1.9597087585e+00 -3.3943151377e+00 1.9597087585e+00 3.3943151377e+00 
176000 3.7222627048e+00 -1.7634680918e-04 1.9597132742e+00 -3.3943229592e+00 1.9597132742e+00 3.3943229592e+00 
176100 3.7222627039e+00 -1.7570457643e-04 1.9597177735e+00 -3.3943307522e+00 1.9597177735e+00 3.3943307522e+00 
176200 3.7222627030e+00 -1.7506467601e-04 1.9597222564e+00 -3.3943385169e+00 1.9597222564e+00 3.3943385169e+00 
176300 3.7222627021e+00 -1.7442709951e-04 1.9597267230e+00 -3.3943462532e+00 1.9597267230e+00 3.3943462532e+00 
176400 3.7222627012e+00 -1.7379183854e-04 1.9597311733e+00 -3.3943539613e+00 1.9597311733e+00 3.3943539613e+00 
176500 3.7222627003e+00 -1.7315888473e-04 1.9597356074e+00 -3.3943616414e+00 1.9597356074e+00 3.3943616414e+00 
176600 3.7222626995e+00 -1.7252822976e-04 1.9597400253e+00 -3.3943692934e+00 1.9597400253e+00 3.3943692934e+00 
176700 3.7222626986e+00 -1.7189986531e-04 1.9597444271e+00 -3.3943769176e+00 1.9597444271e+00 3.3943769176e+00 
176800 3.7222626977e+00 -1.7127378312e-04 1.9597488129e+00 -3.3943845140e+00 1.9597488129e+00 3.3943845140e+00 
176900 3.7222626969e+00 -1.7064997493e-04 1.9597531827e+00 -3.3943920827e+00 1.9597531827e+00 3.3943920827e+00 
177000 3.7222626960e+00 -1.7002843255e-04 1.9597575365e+00 -3.3943996238e+00 1.9597575365e+00 3.3943996238e+00 
177100 3.7222626952e+00 -1.6940914778e-04 1.9597618745e+00 -3.3944071374e+00 1.9597618745e+00 3.3944071374e+00 
177200 3.7222626944e+00 -1.6879211247e-04 1.9597661967e+00 -3.3944146237e+00 1.9597661967e+00 3.3944146237e+00 
177300 3.7222626935e+00 -1.6817731849e-04 1.9597705032e+00 -3.3944220826e+00 1.9597705032e+00 3.3944220826e+00 
177400 3.7222626927e+00 -1.6756475774e-04 1.9597747939e+00 -3.3944295144e+00 1.9597747939e+00 3.3944295144e+00 
177500 3.7222626919e+00 -1.6695442216e-04 1.9597790690e+00 -3.3944369191e+00 1.9597790690e+00 3.3944369191e+00 
177600 3.7222626911e+00 -1.6634630371e-04 1.9597833285e+00 -3.3944442968e+00 1.9597833285e+00 3.3944442968e+00 
177700 3.7222626903e+00 -1.6574039437e-04 1.9597875725e+00 -3.3944516476e+00 1.9597875725e+00 3.3944516476e+00 
177800 3.7222626895e+00 -1.6513668616e-04 1.9597918010e+00 -3.3944589717e+00 1.9597918010e+00 3.3944589717e+00 
177900 3.7222626887e+00 -1.6453517114e-04 1.9597960142e+00 -3.3944662690e+00 1.9597960142e+00 3.3944662690e+00 
178000 3.7222626879e+00 -1.6393584137e-04 1.9598002119e+00 -3.3944735398e+00 1.9598002119e+00 3.3944735398e+00 
178100 3.7222626871e+00 -1.6333868895e-04 1.9598043944e+00 -3.3944807840e+00 1.9598043944e+00 3.3944807840e+00 
178200 3.7222626863e+00 -1.6274370603e-04 1.9598085616e+00 -3.3944880018e+00 1.9598085616e+00 3.3944880018e+00 
178300 3.7222626856e+00 -1.6215088475e-04 1.9598127137e+00 -3.3944951934e+00 1.9598127137e+00 3.3944951934e+00 
178400 3.7222626848e+00 -1.6156021731e-04 1.9598168505e+00 -3.3945023587e+00 1.9598168505e+00 3.3945023587e+00 
178500 3.7222626840e+00 -1.6097169593e-04 1.9598209724e+00 -3.3945094979e+00 1.9598209724e+00 3.3945094979e+00 
178600 3.7222626833e+00 -1.6038531283e-04 1.9598250792e+00 -3.3945166111e+00 1.9598250792e+00 3.3945166111e+00 
178700 3.7222626825e+00 -1.5980106031e-04 1.9598291710e+00 -3.3945236983e+00 1.9598291710e+00 3.3945236983e+00 
178800 3.7222626818e+00 -1.5921893065e-04 1.9598332479e+00 -3.3945307597e+00 1.9598332479e+00 3.3945307597e+00 
178900 3.7222626811e+00 -1.5863891618e-04 1.9598373100e+00 -3.3945377954e+00 1.9598373100e+00 3.3945377954e+00 
179000 3.7222626803e+00 -1.5806100925e-04 1.9598413572e+00 -3.3945448055e+00 1.9598413572e+00 3.3945448055e+00 
179100 3.7222626796e+00 -1.5748520225e-04 1.9598453897e+00 -3.3945517900e+00 1.9598453897e+00 3.3945517900e+00 
179200 3.7222626789e+00 -1.5691148758e-04 1.9598494075e+00 -3.3945587490e+00 1.9598494075e+00 3.3945587490e+00 
179300 3.7222626782e+00 -1.5633985769e-04 1.9598534107e+00 -3.3945656827e+00 1.9598534107e+00 3.3945656827e+00 
179400 3.7222626775e+00 -1.5577030502e-04 1.9598573992e+00 -3.3945725910e+00 1.9598573992e+00 3.3945725910e+00 
179500 3.7222626768e+00 -1.5520282208e-04 1.9598613732e+00 -3.3945794743e+00 1.9598613732e+00 3.3945794743e+00 
179600 3.7222626761e+00 -1.5463740137e-04 1.9598653328e+00 -3.3945863324e+00 1.9598653328e+00 3.3945863324e+00 
179700 3.7222626754e+00 -1.5407403545e-04 1.9598692779e+00 -3.3945931655e+00 1.9598692779e+00 3.3945931655e+00 
179800 3.7222626747e+00 -1.5351271688e-04 1.9598732086e+00 -3.3945999737e+00 1.9598732086e+00 3.3945999737e+00 
179900 3.7222626740e+00 -1.5295343825e-04 1.9598771250e+00 -3.3946067571e+00 1.9598771250e+00 3.3946067571e+00 
180000 3.7222626733e+00 -1.5239619220e-04 1.9598810271e+00 -3.3946135158e+00 1.9598810271e+00 3.3946135158e+00 
180100 3.7222626726e+00 -1.5184097136e-04 1.9598849150e+00 -3.3946202498e+00 1.9598849150e+00 3.3946202498e+00 
180200 3.7222626720e+00 -1.5128776842e-04 1.9598887887e+00 -3.3946269593e+00 1.9598887887e+00 3.3946269593e+00 
180300 3.7222626713e+00 -1.5073657608e-04 1.9598926483e+00 -3.3946336443e+00 1.9598926483e+00 3.3946336443e+00 
180400 3.7222626706e+00 -1.5018738706e-04 1.9598964939e+00 -3.3946403050e+00 1.9598964939e+00 3.3946403050e+00 
180500 3.7222626700e+00 -1.4964019413e-04 1.9599003254e+00 -3.3946469414e+00 1.9599003254e+00 3.3946469414e+00 
180600 3.7222626693e+00 -1.4909499005e-04 1.9599041429e+00 -3.3946535535e+00 1.9599041429e+00 3.3946535535e+00 
180700 3.7222626687e+00 -1.4855176764e-04 1.9599079466e+00 -3.3946601416e+00 1.9599079466e+00 3.3946601416e+00 
180800 3.7222626681e+00 -1.4801051973e-04 1.9599117363e+00 -3.3946667057e+00 1.9599117363e+00 3.3946667057e+00 
180900 3.7222626674e+00 -1.4747123917e-04 1.9599155123e+00 -3.3946732458e+00 1.9599155123e+00 3.3946732458e+00 
181000 3.7222626668e+00 -1.4693391885e-04 1.9599192745e+00 -3.3946797621e+00 1.9599192745e+00 3.3946797621e+00 
181100 3.7222626662e+00 -1.4639855167e-04 1.9599230229e+00 -3.3946862547e+00 1.9599230229e+00 3.3946862547e+00 
181200 3.7222626655e+00 -1.4586513058e-04 1.9599267577e+00 -3.3946927235e+00 1.9599267577e+00 3.3946927235e+00 
181300 3.7222626649e+00 -1.4533364852e-04 1.9599304789e+00 -3.3946991688e+00 1.9599304789e+00 3.3946991688e+00 
181400 3.7222626643e+00 -1.4480409849e-04 1.9599341866e+00 -3.3947055906e+00 1.9599341866e+00 3.3947055906e+00 
181500 3.7222626637e+00 -1.4427647349e-04 1.9599378807e+00 -3.3947119890e+00 1.9599378807e+00 3.3947119890e+00 
181600 3.7222626631e+00 -1.4375076656e-04 1.9599415613e+00 -3.3947183640e+00 1.9599415613e+00 3.3947183640e+00 
181700 3.7222626625e+00 -1.4322697076e-04 1.9599452285e+00 -3.3947247159e+00 1.9599452285e+00 3.3947247159e+00 
181800 3.7222626619e+00 -1.4270507917e-04 1.9599488824e+00 -3.3947310445e+00 1.9599488824e+00 3.3947310445e+00 
181900 3.7222626613e+00 -1.4218508490e-04 1.9599525229e+00 -3.3947373501e+00 1.9599525229e+00 3.3947373501e+00 
182000 3.7222626607e+00 -1.4166698108e-04 1.9599561502e+00 -3.3947436327e+00 1.9599561502e+00 3.3947436327e+00 
182100 3.7222626601e+00 -1.4115076088e-04 1.9599597642e+00 -3.3947498924e+00 1.9599597642e+00 3.3947498924e+00 
182200 3.7222626595e+00 -1.4063641748e-04 1.9599633651e+00 -3.3947561293e+00 1.9599633651e+00 3.3947561293e+00 
182300 3.7222626590e+00 -1.4012394408e-04 1.9599669528e+00 -3.3947623434e+00 1.9599669528e+00 3.3947623434e+00 
182400 3.7222626584e+00 -1.3961333391e-04 1.9599705274e+00 -3.3947685349e+00 1.9599705274e+00 3.3947685349e+00 
182500 3.7222626578e+00 -1.3910458024e-04 1.9599740891e+00 -3.3947747038e+00 1.9599740891e+00 3.3947747038e+00 
182600 3.7222626573e+00 -1.3859767634e-04 1.9599776377e+00 -3.3947808502e+00 1.9599776377e+00 3.3947808502e+00 
182700 3.7222626567e+00 -1.3809261552e-04 1.9599811734e+00 -3.3947869742e+00 1.9599811734e+00 3.3947869742e+00 
182800 3.7222626562e+00 -1.3758939111e-04 1.9599846962e+00 -3.3947930759e+00 1.9599846962e+00 3.3947930759e+00 
182900 3.7222626556e+00 -1.3708799645e-04 1.9599882062e+00 -3.3947991553e+00 1.9599882062e+00 3.3947991553e+00 
183000 3.7222626551e+00 -1.3658842493e-04 1.9599917033e+00 -3.3948052126e+00 1.9599917033e+00 3.3948052126e+00 
183100 3.7222626545e+00 -1.3609066994e-04 1.9599951877e+00 -3.3948112478e+00 1.9599951877e+00 3.3948112478e+00 
183200 3.7222626540e+00 -1.3559472491e-04 1.9599986595e+00 -3.3948172609e+00 1.9599986595e+00 3.3948172609e+00 
183300 3.7222626535e+00 -1.3510058329e-04 1.9600021185e+00 -3.3948232522e+00 1.9600021185e+00 3.3948232522e+00 
183400 3.7222626529e+00 -1.3460823854e-04 1.9600055650e+00 -3.3948292216e+00 1.9600055650e+00 3.3948292216e+00 
183500 3.7222626524e+00 -1.3411768416e-04 1.9600089988e+00 -3.3948351693e+00 1.9600089988e+00 3.3948351693e+00 
183600 3.7222626519e+00 -1.3362891367e-04 1.9600124202e+00 -3.3948410952e+00 1.9600124202e+00 3.3948410952e+00 
183700 3.7222626514e+00 -1.3314192062e-04 1.9600158291e+00 -3.3948469996e+00 1.9600158291e+00 3.3948469996e+00 
183800 3.7222626508e+00 -1.3265669855e-04 1.9600192255e+00 -3.3948528824e+00 1.9600192255e+00 3.3948528824e+00 
183900 3.7222626503e+00 -1.3217324106e-04 1.9600226096e+00 -3.3948587438e+00 1.9600226096e+00 3.3948587438e+00 
184000 3.7222626498e+00 -1.3169154177e-04 1.9600259813e+00 -3.3948645838e+00 1.9600259813e+00 3.3948645838e+00 
184100 3.7222626493e+00 -1.3121159430e-04 1.9600293407e+00 -3.3948704025e+00 1.9600293407e+00 3.3948704025e+00 
184200 3.7222626488e+00 -1.3073339231e-04 1.9600326879e+00 -3.3948762000e+00 1.9600326879e+00 3.3948762000e+00 
184300 3.7222626483e+00 -1.3025692947e-04 1.9600360229e+00 -3.3948819763e+00 1.9600360229e+00 3.3948819763e+00 
184400 3.7222626478e+00 -1.2978219950e-04 1.9600393457e+00 -3.3948877316e+00 1.9600393457e+00 3.3948877316e+00 
184500 3.7222626473e+00 -1.2930919611e-04 1.9600426564e+00 -3.3948934659e+00 1.9600426564e+00 3.3948934659e+00 
184600 3.7222626469e+00 -1.2883791305e-04 1.9600459551e+00 -3.3948991793e+00 1.9600459551e+00 3.3948991793e+00 
184700 3.7222626464e+00 -1.2836834409e-04 1.9600492417e+00 -3.3949048719e+00 1.9600492417e+00 3.3949048719e+00 
184800 3.7222626459e+00 -1.2790048302e-04 1.9600525163e+00 -3.3949105437e+00 1.9600525163e+00 3.3949105437e+00 
184900 3.7222626454e+00 -1.2743432366e-04 1.9600557790e+00 -3.3949161949e+00 1.9600557790e+00 3.3949161949e+00 
185000 3.7222626449e+00 -1.2696985984e-04 1.9600590298e+00 -3.3949218254e+00 1.9600590298e+00 3.3949218254e+00 
185100 3.7222626445e+00 -1.2650708541e-04 1.9600622687e+00 -3.3949274354e+00 1.9600622687e+00 3.3949274354e+00 
185200 3.7222626440e+00 -1.2604599427e-04 1.9600654958e+00 -3.3949330249e+00 1.9600654958e+00 3.3949330249e+00 
185300 3.7222626436e+00 -1.2558658031e-04 1.9600687112e+00 -3.3949385941e+00 1.9600687112e+00 3.3949385941e+00 
185400 3.7222626431e+00 -1.2512883745e-04 1.9600719148e+00 -3.3949441429e+00 1.9600719148e+00 3.3949441429e+00 
185500 3.7222626426e+00 -1.2467275964e-04 1.9600751067e+00 -3.3949496715e+00 1.9600751067e+00 3.3949496715e+00 
185600 3.7222626422e+00 -1.2421834085e-04 1.9600782870e+00 -3.3949551800e+00 1.9600782870e+00 3.3949551800e+00 
185700 3.7222626417e+00 -1.2376557507e-04 1.9600814558e+00 -3.3949606683e+00 1.9600814558e+00 3.3949606683e+00 
185800 3.7222626413e+00 -1.2331445631e-04 1.9600846129e+00 -3.3949661367e+00 1.9600846129e+00 3.3949661367e+00 
185900 3.7222626409e+00 -1.2286497860e-04 1.9600877585e+00 -3.3949715851e+00 1.9600877585e+00 3.3949715851e+00 
186000 3.7222626404e+00 -1.2241713600e-04 1.9600908927e+00 -3.3949770136e+00 1.9600908927e+00 3.3949770136e+00 
186100 3.7222626400e+00 -1.2197092258e-04 1.9600940155e+00 -3.3949824224e+00 1.9600940155e+00 3.3949824224e+00 
186200 3.7222626396e+00 -1.2152633243e-04 1.9600971268e+00 -3.3949878114e+00 1.9600971268e+00 3.3949878114e+00 
186300 3.7222626391e+00 -1.2108335968e-04 1.9601002268e+00 -3.3949931808e+00 1.9601002268e+00 3.3949931808e+00 
186400 3.7222626387e+00 -1.2064199847e-04 1.9601033155e+00 -3.3949985306e+00 1.9601033155e+00 3.3949985306e+00 
186500 3.7222626383e+00 -1.2020224295e-04 1.9601063930e+00 -3.3950038609e+00 1.9601063930e+00 3.3950038609e+00 
186600 3.7222626379e+00 -1.1976408730e-04 1.9601094592e+00 -3.3950091717e+00 1.9601094592e+00 3.3950091717e+00 
186700 3.7222626374e+00 -1.1932752573e-04 1.9601125142e+00 -3.3950144632e+00 1.9601125142e+00 3.3950144632e+00 
186800 3.7222626370e+00 -1.1889255246e-04 1.9601155581e+00 -3.3950197354e+00 1.9601155581e+00 3.3950197354e+00 
186900 3.7222626366e+00 -1.1845916174e-04 1.9601185909e+00 -3.3950249883e+00 1.9601185909e+00 3.3950249883e+00 
187000 3.7222626362e+00 -1.1802734782e-04 1.9601216126e+00 -3.3950302221e+00 1.9601216126e+00 3.3950302221e+00 
187100 3.7222626358e+00 -1.1759710499e-04 1.9601246234e+00 -3.3950354368e+00 1.9601246234e+00 3.3950354368e+00 
187200 3.7222626354e+00 -1.1716842757e-04 1.9601276231e+00 -3.3950406325e+00 1.9601276231e+00 3.3950406325e+00 
187300 3.7222626350e+00 -1.1674130987e-04 1.9601306119e+00 -3.3950458093e+00 1.9601306119e+00 3.3950458093e+00 
187400 3.7222626346e+00 -1.1631574623e-04 1.9601335898e+00 -3.3950509671e+00 1.9601335898e+00 3.3950509671e+00 
187500 3.7222626342e+00 -1.1589173104e-04 1.9601365568e+00 -3.3950561062e+00 1.9601365568e+00 3.3950561062e+00 
187600 3.7222626338e+00 -1.1546925867e-04 1.9601395130e+00 -3.3950612265e+00 1.9601395130e+00 3.3950612265e+00 
187700 3.7222626334e+00 -1.1504832353e-04 1.9601424585e+00 -3.3950663282e+00 1.9601424585e+00 3.3950663282e+00 
187800 3.7222626331e+00 -1.1462450033e-04 1.9601453932e+00 -3.3950714112e+00 1.9601453932e+00 3.3950714112e+00 
187900 3.7222626327e+00 -1.1418792452e-04 1.9601483171e+00 -3.3950764755e+00 1.9601483171e+00 3.3950764755e+00 
188000 3.7222626323e+00 -1.1375411005e-04 1.9601512298e+00 -3.3950815205e+00 1.9601512298e+00 3.3950815205e+00 
188100 3.7222626320e+00 -1.1332065414e-04 1.9601541315e+00 -3.3950865464e+00 1.9601541315e+00 3.3950865464e+00 
188200 3.7222626316e+00 -1.1289000883e-04 1.9601570221e+00 -3.3950915530e+00 1.9601570221e+00 3.3950915530e+00 
188300 3.7222626312e+00 -1.1245860590e-04 1.9601599017e+00 -3.3950965407e+00 1.9601599017e+00 3.3950965407e+00 
188400 3.7222626309e+00 -1.1203112734e-04 1.9601627703e+00 -3.3951015093e+00 1.9601627703e+00 3.3951015093e+00 
188500 3.7222626305e+00 -1.1160520676e-04 1.9601656280e+00 -3.3951064589e+00 1.9601656280e+00 3.3951064589e+00 
188600 3.7222626302e+00 -1.1118084325e-04 1.9601684748e+00 -3.3951113898e+00 1.9601684748e+00 3.3951113898e+00 
188700 3.7222626298e+00 -1.1075699201e-04 1.9601713108e+00 -3.3951163019e+00 1.9601713108e+00 3.3951163019e+00 
188800 3.7222626295e+00 -1.1033231146e-04 1.9601741360e+00 -3.3951211953e+00 1.9601741360e+00 3.3951211953e+00 
188900 3.7222626292e+00 -1.0990922041e-04 1.9601769504e+00 -3.3951260699e+00 1.9601769504e+00 3.3951260699e+00 
189000 3.7222626288e+00 -1.0948771527e-04 1.9601797539e+00 -3.3951309258e+00 1.9601797539e+00 3.3951309258e+00 
189100 3.7222626285e+00 -1.0907022171e-04 1.9601825467e+00 -3.3951357630e+00 1.9601825467e+00 3.3951357630e+00 
189200 3.7222626281e+00 -1.0865427134e-04 1.9601853289e+00 -3.3951405818e+00 1.9601853289e+00 3.3951405818e+00 
189300 3.7222626278e+00 -1.0823986150e-04 1.9601881004e+00 -3.3951453823e+00 1.9601881004e+00 3.3951453823e+00 
189400 3.7222626275e+00 -1.0782598586e-04 1.9601908614e+00 -3.3951501644e+00 1.9601908614e+00 3.3951501644e+00 
189500 3.7222626272e+00 -1.0741117779e-04 1.9601936117e+00 -3.3951549282e+00 1.9601936117e+00 3.3951549282e+00 
189600 3.7222626268e+00 -1.0699893650e-04 1.9601963516e+00 -3.3951596737e+00 1.9601963516e+00 3.3951596737e+00 
189700 3.7222626265e+00 -1.0658976380e-04 1.9601990808e+00 -3.3951644010e+00 1.9601990808e+00 3.3951644010e+00 
189800 3.7222626262e+00 -1.0618211619e-04 1.9602017997e+00 -3.3951691102e+00 1.9602017997e+00 3.3951691102e+00 
189900 3.7222626259e+00 -1.0577599045e-04 1.9602045082e+00 -3.3951738013e+00 1.9602045082e+00 3.3951738013e+00 
190000 3.7222626256e+00 -1.0537041164e-04 1.9602072062e+00 -3.3951784746e+00 1.9602072062e+00 3.3951784746e+00 
190100 3.7222626253e+00 -1.0496479243e-04 1.9602098940e+00 -3.3951831299e+00 1.9602098940e+00 3.3951831299e+00 
190200 3.7222626249e+00 -1.0456229821e-04 1.9602125714e+00 -3.3951877672e+00 1.9602125714e+00 3.3951877672e+00 
190300 3.7222626246e+00 -1.0415972923e-04 1.9602152385e+00 -3.3951923868e+00 1.9602152385e+00 3.3951923868e+00 
190400 3.7222626243e+00 -1.0376030139e-04 1.9602178953e+00 -3.3951969886e+00 1.9602178953e+00 3.3951969886e+00 
190500 3.7222626240e+00 -1.0336237428e-04 1.9602205420e+00 -3.3952015727e+00 1.9602205420e+00 3.3952015727e+00 
190600 3.7222626237e+00 -1.0296594449e-04 1.9602231785e+00 -3.3952061393e+00 1.9602231785e+00 3.3952061393e+00 
190700 3.7222626234e+00 -1.0257100849e-04 1.9602258049e+00 -3.3952106883e+00 1.9602258049e+00 3.3952106883e+00 
190800 3.7222626231e+00 -1.0217663062e-04 1.9602284212e+00 -3.3952152199e+00 1.9602284212e+00 3.3952152199e+00 
190900 3.7222626228e+00 -1.0178208996e-04 1.9602310274e+00 -3.3952197340e+00 1.9602310274e+00 3.3952197340e+00 
191000 3.7222626225e+00 -1.0139073862e-04 1.9602336236e+00 -3.3952242308e+00 1.9602336236e+00 3.3952242308e+00 
191100 3.7222626223e+00 -1.0099827574e-04 1.9602362098e+00 -3.3952287102e+00 1.9602362098e+00 3.3952287102e+00 
191200 3.7222626220e+00 -1.0060824907e-04 1.9602387860e+00 -3.3952331722e+00 1.9602387860e+00 3.3952331722e+00 
191300 3.7222626217e+00 -1.0022142647e-04 1.9602413522e+00 -3.3952376171e+00 1.9602413522e+00 3.3952376171e+00 
191400 3.7222626214e+00 -9.9836069755e-05 1.9602439085e+00 -3.3952420448e+00 1.9602439085e+00 3.3952420448e+00 
191500 3.7222626211e+00 -9.9451273405e-05 1.9602464551e+00 -3.3952464555e+00 1.9602464551e+00 3.3952464555e+00 
191600 3.7222626208e+00 -9.9066221190e-05 1.9602489918e+00 -3.3952508492e+00 1.9602489918e+00 3.3952508492e+00 
191700 3.7222626206e+00 -9.8685289832e-05 1.9602515186e+00 -3.3952552259e+00 1.9602515186e+00 3.3952552259e+00 
191800 3.7222626203e+00 -9.8304918942e-05 1.9602540358e+00 -3.3952595857e+00 1.9602540358e+00 3.3952595857e+00 
191900 3.7222626200e+00 -9.7925997678e-05 1.9602565433e+00 -3.3952639288e+00 1.9602565433e+00 3.3952639288e+00 
192000 3.7222626198e+00 -9.7546774178e-05 1.9602590410e+00 -3.3952682551e+00 1.9602590410e+00 3.3952682551e+00 
192100 3.7222626195e+00 -9.7170792151e-05 1.9602615291e+00 -3.3952725646e+00 1.9602615291e+00 3.3952725646e+00 
192200 3.7222626192e+00 -9.6796247227e-05 1.9602640077e+00 -3.3952768575e+00 1.9602640077e+00 3.3952768575e+00 
192300 3.7222626190e+00 -9.6422266598e-05 1.9602664766e+00 -3.3952811339e+00 1.9602664766e+00 3.3952811339e+00 
192400 3.7222626187e+00 -9.6047941721e-05 1.9602689360e+00 -3.3952853937e+00 1.9602689360e+00 3.3952853937e+00 
192500 3.7222626184e+00 -9.5677734943e-05 1.9602713859e+00 -3.3952896370e+00 1.9602713859e+00 3.3952896370e+00 
192600 3.7222626182e+00 -9.5308091271e-05 1.9602738263e+00 -3.3952938639e+00 1.9602738263e+00 3.3952938639e+00 
192700 3.7222626179e+00 -9.4940722238e-05 1.9602762573e+00 -3.3952980745e+00 1.9602762573e+00 3.3952980745e+00 
192800 3.7222626177e+00 -9.4573917415e-05 1.9602786789e+00 -3.3953022689e+00 1.9602786789e+00 3.3953022689e+00 
192900 3.7222626174e+00 -9.4208525663e-05 1.9602810912e+00 -3.3953064471e+00 1.9602810912e+00 3.3953064471e+00 
193000 3.7222626172e+00 -9.3844543498e-05 1.9602834941e+00 -3.3953106091e+00 1.9602834941e+00 3.3953106091e+00 
193100 3.7222626169e+00 -9.3481967388e-05 1.9602858878e+00 -3.3953147550e+00 1.9602858878e+00 3.3953147550e+00 
193200 3.7222626167e+00 -9.3119958356e-05 1.9602882722e+00 -3.3953188849e+00 1.9602882722e+00 3.3953188849e+00 
193300 3.7222626164e+00 -9.2757521405e-05 1.9602906473e+00 -3.3953229988e+00 1.9602906473e+00 3.3953229988e+00 
193400 3.7222626162e+00 -9.2398358637e-05 1.9602930132e+00 -3.3953270967e+00 1.9602930132e+00 3.3953270967e+00 
193500 3.7222626159e+00 -9.2038749645e-05 1.9602953700e+00 -3.3953311787e+00 1.9602953700e+00 3.3953311787e+00 
193600 3.7222626157e+00 -9.1682415364e-05 1.9602977176e+00 -3.3953352448e+00 1.9602977176e+00 3.3953352448e+00 
193700 3.7222626155e+00 -9.1327463663e-05 1.9603000560e+00 -3.3953392952e+00 1.9603000560e+00 3.3953392952e+00 
193800 3.7222626152e+00 -9.0973891072e-05 1.9603023855e+00 -3.3953433298e+00 1.9603023855e+00 3.3953433298e+00 
193900 3.7222626150e+00 -9.0619024674e-05 1.9603047059e+00 -3.3953473489e+00 1.9603047059e+00 3.3953473489e+00 
194000 3.7222626148e+00 -9.0268246835e-05 1.9603070172e+00 -3.3953513523e+00 1.9603070172e+00 3.3953513523e+00 
194100 3.7222626145e+00 -8.9918835826e-05 1.9603093196e+00 -3.3953553402e+00 1.9603093196e+00 3.3953553402e+00 
194200 3.7222626143e+00 -8.9570788118e-05 1.9603116131e+00 -3.3953593126e+00 1.9603116131e+00 3.3953593126e+00 
194300 3.7222626141e+00 -8.9223297816e-05 1.9603138977e+00 -3.3953632696e+00 1.9603138977e+00 3.3953632696e+00 
194400 3.7222626138e+00 -8.8877164394e-05 1.9603161735e+00 -3.3953672113e+00 1.9603161735e+00 3.3953672113e+00 
194500 3.7222626136e+00 -8.8530506740e-05 1.9603184404e+00 -3.3953711377e+00 1.9603184404e+00 3.3953711377e+00 
194600 3.7222626134e+00 -8.8187124602e-05 1.9603206984e+00 -3.3953750488e+00 1.9603206984e+00 3.3953750488e+00 
194700 3.7222626132e+00 -8.7845086873e-05 1.9603229477e+00 -3.3953789447e+00 1.9603229477e+00 3.3953789447e+00 
194800 3.7222626130e+00 -8.7504390010e-05 1.9603251883e+00 -3.3953828255e+00 1.9603251883e+00 3.3953828255e+00 
194900 3.7222626127e+00 -8.7165030433e-05 1.9603274202e+00 -3.3953866913e+00 1.9603274202e+00 3.3953866913e+00 
195000 3.7222626125e+00 -8.6827004525e-05 1.9603296434e+00 -3.3953905420e+00 1.9603296434e+00 3.3953905420e+00 
195100 3.7222626123e+00 -8.6489528386e-05 1.9603318580e+00 -3.3953943778e+00 1.9603318580e+00 3.3953943778e+00 
195200 3.7222626121e+00 -8.6151479451e-05 1.9603340640e+00 -3.3953981987e+00 1.9603340640e+00 3.3953981987e+00 
195300 3.7222626119e+00 -8.5816699832e-05 1.9603362614e+00 -3.3954020047e+00 1.9603362614e+00 3.3954020047e+00 
195400 3.7222626117e+00 -8.5484011451e-05 1.9603384502e+00 -3.3954057958e+00 1.9603384502e+00 3.3954057958e+00 
195500 3.7222626115e+00 -8.5151866063e-05 1.9603406306e+00 -3.3954095723e+00 1.9603406306e+00 3.3954095723e+00 
195600 3.7222626113e+00 -8.4821030923e-05 1.9603428024e+00 -3.3954133341e+00 1.9603428024e+00 3.3954133341e+00 
195700 3.7222626111e+00 -8.4491502385e-05 1.9603449658e+00 -3.3954170812e+00 1.9603449658e+00 3.3954170812e+00 
195800 3.7222626109e+00 -8.4163276775e-05 1.9603471209e+00 -3.3954208138e+00 1.9603471209e+00 3.3954208138e+00 
195900 3.7222626107e+00 -8.3836350384e-05 1.9603492675e+00 -3.3954245319e+00 1.9603492675e+00 3.3954245319e+00 
196000 3.7222626105e+00 -8.3510719479e-05 1.9603514058e+00 -3.3954282356e+00 1.9603514058e+00 3.3954282356e+00 
196100 3.7222626103e+00 -8.3185623747e-05 1.9603535358e+00 -3.3954319248e+00 1.9603535358e+00 3.3954319248e+00 
196200 3.7222626101e+00 -8.2859892077e-05 1.9603556575e+00 -3.3954355997e+00 1.9603556575e+00 3.3954355997e+00 
196300 3.7222626099e+00 -8.2537413572e-05 1.9603577709e+00 -3.3954392602e+00 1.9603577709e+00 3.3954392602e+00 
196400 3.7222626097e+00 -8.2214286804e-05 1.9603598761e+00 -3.3954429064e+00 1.9603598761e+00 3.3954429064e+00 
196500 3.7222626095e+00 -8.1894407694e-05 1.9603619730e+00 -3.3954465384e+00 1.9603619730e+00 3.3954465384e+00 
196600 3.7222626093e+00 -8.1575798306e-05 1.9603640617e+00 -3.3954501563e+00 1.9603640617e+00 3.3954501563e+00 
196700 3.7222626091e+00 -8.1258454986e-05 1.9603661424e+00 -3.3954537600e+00 1.9603661424e+00 3.3954537600e+00 
196800 3.7222626089e+00 -8.0939695490e-05 1.9603682149e+00 -3.3954573497e+00 1.9603682149e+00 3.3954573497e+00 
196900 3.7222626087e+00 -8.0624916511e-05 1.9603702793e+00 -3.3954609254e+00 1.9603702793e+00 3.3954609254e+00 
197000 3.7222626085e+00 -8.0311391167e-05 1.9603723357e+00 -3.3954644871e+00 1.9603723357e+00 3.3954644871e+00 
197100 3.7222626084e+00 -7.9999115766e-05 1.9603743840e+00 -3.3954680350e+00 1.9603743840e+00 3.3954680350e+00 
197200 3.7222626082e+00 -7.9688086596e-05 1.9603764244e+00 -3.3954715691e+00 1.9603764244e+00 3.3954715691e+00 
197300 3.7222626080e+00 -7.9377564234e-05 1.9603784569e+00 -3.3954750894e+00 1.9603784569e+00 3.3954750894e+00 
197400 3.7222626078e+00 -7.9069013381e-05 1.9603804815e+00 -3.3954785961e+00 1.9603804815e+00 3.3954785961e+00 
197500 3.7222626076e+00 -7.8760965681e-05 1.9603824981e+00 -3.3954820890e+00 1.9603824981e+00 3.3954820890e+00 
197600 3.7222626075e+00 -7.8454148257e-05 1.9603845069e+00 -3.3954855684e+00 1.9603845069e+00 3.3954855684e+00 
197700 3.7222626073e+00 -7.8148557383e-05 1.9603865079e+00 -3.3954890342e+00 1.9603865079e+00 3.3954890342e+00 
197800 3.7222626071e+00 -7.7841514065e-05 1.9603885011e+00 -3.3954924865e+00 1.9603885011e+00 3.3954924865e+00 
197900 3.7222626069e+00 -7.7535730989e-05 1.9603904865e+00 -3.3954959253e+00 1.9603904865e+00 3.3954959253e+00 
198000 3.7222626068e+00 -7.7231203406e-05 1.9603924640e+00 -3.3954993505e+00 1.9603924640e+00 3.3954993505e+00 
198100 3.7222626066e+00 -7.6930603037e-05 1.9603944338e+00 -3.3955027623e+00 1.9603944338e+00 3.3955027623e+00 
198200 3.7222626064e+00 -7.6631206845e-05 1.9603963960e+00 -3.3955061608e+00 1.9603963960e+00 3.3955061608e+00 
198300 3.7222626062e+00 -7.6333011164e-05 1.9603983504e+00 -3.3955095460e+00 1.9603983504e+00 3.3955095460e+00 
198400 3.7222626061e+00 -7.6035291685e-05 1.9604002973e+00 -3.3955129181e+00 1.9604002973e+00 3.3955129181e+00 
198500 3.7222626059e+00 -7.5736809813e-05 1.9604022366e+00 -3.3955162771e+00 1.9604022366e+00 3.3955162771e+00 
198600 3.7222626058e+00 -7.5441513716e-05 1.9604041683e+00 -3.3955196228e+00 1.9604041683e+00 3.3955196228e+00 
198700 3.7222626056e+00 -7.5148118203e-05 1.9604060924e+00 -3.3955229555e+00 1.9604060924e+00 3.3955229555e+00 
198800 3.7222626054e+00 -7.4855187929e-05 1.9604080090e+00 -3.3955262752e+00 1.9604080090e+00 3.3955262752e+00 
198900 3.7222626053e+00 -7.4563433631e-05 1.9604099182e+00 -3.3955295820e+00 1.9604099182e+00 3.3955295820e+00 
199000 3.7222626051e+00 -7.4272851648e-05 1.9604118199e+00 -3.3955328759e+00 1.9604118199e+00 3.3955328759e+00 
199100 3.7222626049e+00 -7.3983438298e-05 1.9604137143e+00 -3.3955361570e+00 1.9604137143e+00 3.3955361570e+00 
199200 3.7222626048e+00 -7.3692519794e-05 1.9604156012e+00 -3.3955394252e+00 1.9604156012e+00 3.3955394252e+00 
199300 3.7222626046e+00 -7.3405472941e-05 1.9604174807e+00 -3.3955426806e+00 1.9604174807e+00 3.3955426806e+00 
199400 3.7222626045e+00 -7.3119582459e-05 1.9604193529e+00 -3.3955459234e+00 1.9604193529e+00 3.3955459234e+00 
199500 3.7222626043e+00 -7.2834844655e-05 1.9604212178e+00 -3.3955491535e+00 1.9604212178e+00 3.3955491535e+00 
199600 3.7222626042e+00 -7.2550549928e-05 1.9604230754e+00 -3.3955523710e+00 1.9604230754e+00 3.3955523710e+00 
199700 3.7222626040e+00 -7.2268103470e-05 1.9604249258e+00 -3.3955555759e+00 1.9604249258e+00 3.3955555759e+00 
199800 3.7222626039e+00 -7.1986095401e-05 1.9604267690e+00 -3.3955587684e+00 1.9604267690e+00 3.3955587684e+00 
199900 3.7222626037e+00 -7.1705925647e-05 1.9604286050e+00 -3.3955619484e+00 1.9604286050e+00 3.3955619484e+00 
200000 3.7222626036e+00 -7.1426189292e-05 1.9604304338e+00 -3.3955651160e+00 1.9604304338e+00 3.3955651160e+00 
200100 3.7222626034e+00 -7.1147581802e-05 1.9604322555e+00 -3.3955682713e+00 1.9604322555e+00 3.3955682713e+00 
200200 3.7222626033e+00 -7.0870099479e-05 1.9604340701e+00 -3.3955714143e+00 1.9604340701e+00 3.3955714143e+00 
200300 3.7222626031e+00 -7.0593738616e-05 1.9604358776e+00 -3.3955745450e+00 1.9604358776e+00 3.3955745450e+00 
200300 3.7222626031e+00 -7.0593738616e-05 1.9604358776e+00 -3.3955745450e+00 1.9604358776e+00 3.3955745450e+00 
