# step Hamiltonian StressXX CellTensor1 CellTensor2 CellTensor3 CellTensor4 
0 6.6120601276e+00 -3.3605942357e-01 1.7438352029e+00 -3.0204111715e+00 1.7438352029e+00 3.0204111715e+00 
100 6.5930333112e+00 -3.3907383430e-01 1.7438352029e+00 -3.0204111715e+00 1.7438352029e+00 3.0204111715e+00 
200 6.5719380102e+00 -3.3307258779e-01 1.7535662586e+00 -3.0372658543e+00 1.7535662586e+00 3.0372658543e+00 
300 6.5526922685e+00 -3.2716992472e-01 1.7630717908e+00 -3.0537299191e+00 1.7630717908e+00 3.0537299191e+00 
400 6.5352912785e+00 -3.2138172422e-01 1.7723582925e+00 -3.0698146119e+00 1.7723582925e+00 3.0698146119e+00 
500 6.5197111485e+00 -3.1572607276e-01 1.7814324830e+00 -3.0855315708e+00 1.7814324830e+00 3.0855315708e+00 
600 6.5059100457e+00 -3.1022266060e-01 1.7903013719e+00 -3.1008929370e+00 1.7903013719e+00 3.1008929370e+00 
700 6.4938296096e+00 -3.0489220427e-01 1.7989723050e+00 -3.1159114337e+00 1.7989723050e+00 3.1159114337e+00 
800 6.4833965742e+00 -2.9975590655e-01 1.8074529928e+00 -3.1306004158e+00 1.8074529928e+00 3.1306004158e+00 
900 6.4745245461e+00 -2.9483495986e-01 1.8157515229e+00 -3.1449738916e+00 1.8157515229e+00 3.1449738916e+00 
1000 6.4671158850e+00 -2.9015009516e-01 1.8238763598e+00 -3.1590465219e+00 1.8238763598e+00 3.1590465219e+00 
1100 6.4610636442e+00 -2.8572117645e-01 1.8318363313e+00 -3.1728335969e+00 1.8318363313e+00 3.1728335969e+00 
1200 6.4562535282e+00 -2.8156683999e-01 1.8396406053e+00 -3.1863509960e+00 1.8396406053e+00 3.1863509960e+00 
1300 6.4525658321e+00 -2.7770417696e-01 1.8472986567e+00 -3.1996151302e+00 1.8472986567e+00 3.1996151302e+00 
1400 6.4498773299e+00 -2.7414845865e-01 1.8548202271e+00 -3.2126428723e+00 1.8548202271e+00 3.2126428723e+00 
1500 6.4480630841e+00 -2.7091290329e-01 1.8622152776e+00 -3.2254514755e+00 1.8622152776e+00 3.2254514755e+00 
1600 6.4469981518e+00 -2.6800848417e-01 1.8694939362e+00 -3.2380584819e+00 1.8694939362e+00 3.2380584819e+00 
1700 6.4465591674e+00 -2.6544377873e-01 1.8766664413e+00 -3.2504816251e+00 1.8766664413e+00 3.2504816251e+00 
1800 6.4466257861e+00 -2.6322485827e-01 1.8837430817e+00 -3.2627387259e+00 1.8837430817e+00 3.2627387259e+00 
1900 6.4470819748e+00 -2.6135521802e-01 1.8907341352e+00 -3.2748475858e+00 1.8907341352e+00 3.2748475858e+00 
2000 6.4478171424e+00 -2.5983574672e-01 1.8976498052e+00 -3.2868258775e+00 1.8976498052e+00 3.2868258775e+00 
2100 6.4487271044e+00 -2.5866473450e-01 1.9045001582e+00 -3.2986910371e+00 1.9045001582e+00 3.2986910371e+00 
2200 6.4497148807e+00 -2.5783791763e-01 1.9112950621e+00 -3.3104601557e+00 1.9112950621e+00 3.3104601557e+00 
2300 6.4506913272e+00 -2.5734855753e-01 1.9180441257e+00 -3.3221498768e+00 1.9180441257e+00 3.3221498768e+00 
2400 6.4515756069e+00 -2.5718755166e-01 1.9247566421e+00 -3.3337762963e+00 1.9247566421e+00 3.3337762963e+00 
2500 6.4522955070e+00 -2.5734357265e-01 1.9314415346e+00 -3.3453548697e+00 1.9314415346e+00 3.3453548697e+00 
2600 6.4527876110e+00 -2.5780323210e-01 1.9381073072e+00 -3.3569003266e+00 1.9381073072e+00 3.3569003266e+00 
2700 6.4529973378e+00 -2.5855126492e-01 1.9447620000e+00 -3.3684265927e+00 1.9447620000e+00 3.3684265927e+00 
2800 6.4528788591e+00 -2.5957072993e-01 1.9514131495e+00 -3.3799467215e+00 1.9514131495e+00 3.3799467215e+00 
2900 6.4523949091e+00 -2.6084322212e-01 1.9580677545e+00 -3.3914728355e+00 1.9580677545e+00 3.3914728355e+00 
3000 6.4515164999e+00 -2.6234909255e-01 1.9647322482e+00 -3.4030160772e+00 1.9647322482e+00 3.4030160772e+00 
3100 6.4502225571e+00 -2.6406767114e-01 1.9714124759e+00 -3.4145865709e+00 1.9714124759e+00 3.4145865709e+00 
3200 6.4484994889e+00 -2.6597748889e-01 1.9781136783e+00 -3.4261933940e+00 1.9781136783e+00 3.4261933940e+00 
3300 6.4463407027e+00 -2.6805649535e-01 1.9848404819e+00 -3.4378445595e+00 1.9848404819e+00 3.4378445595e+00 
3400 6.4437460816e+00 -2.7028226850e-01 1.9915968931e+00 -3.4495470071e+00 1.9915968931e+00 3.4495470071e+00 
3500 6.4407214334e+00 -2.7263221404e-01 1.9983862998e+00 -3.4613066045e+00 1.9983862998e+00 3.4613066045e+00 
3600 6.4372779212e+00 -2.7508375182e-01 2.0052114764e+00 -3.4731281571e+00 2.0052114764e+00 3.4731281571e+00 
3700 6.4334314886e+00 -2.7761448759e-01 2.0120745941e+00 -3.4850154256e+00 2.0120745941e+00 3.4850154256e+00 
3800 6.4292022846e+00 -2.8020236884e-01 2.0189772355e+00 -3.4969711511e+00 2.0189772355e+00 3.4969711511e+00 
3900 6.4246140982e+00 -2.8282582377e-01 2.0259204125e+00 -3.5089970865e+00 2.0259204125e+00 3.5089970865e+00 
4000 6.4196938084e+00 -2.8546388294e-01 2.0329045880e+00 -3.5210940334e+00 2.0329045880e+00 3.5210940334e+00 
4100 6.4144708542e+00 -2.8809628374e-01 2.0399296997e+00 -3.5332618838e+00 2.0399296997e+00 3.5332618838e+00 
4200 6.4089767296e+00 -2.9070355774e-01 2.0469951864e+00 -3.5454996657e+00 2.0469951864e+00 3.5454996657e+00 
4300 6.4032445065e+00 -2.9326710164e-01 2.0541000161e+00 -3.5578055918e+00 2.0541000161e+00 3.5578055918e+00 
4400 6.3973083876e+00 -2.9576923262e-01 2.0612427155e+00 -3.5701771100e+00 2.0612427155e+00 3.5701771100e+00 
4500 6.3912032913e+00 -2.9819322900e-01 2.0684213999e+00 -3.5826109561e+00 2.0684213999e+00 3.5826109561e+00 
4600 6.3849644693e+00 -3.0052335745e-01 2.0756338041e+00 -3.5951032065e+00 2.0756338041e+00 3.5951032065e+00 
4700 6.3786271571e+00 -3.0274488785e-01 2.0828773130e+00 -3.6076493321e+00 2.0828773130e+00 3.6076493321e+00 
4800 6.3722262566e+00 -3.0484409714e-01 2.0901489926e+00 -3.6202442506e+00 2.0901489926e+00 3.6202442506e+00 
4900 6.3657960520e+00 -3.0680826346e-01 2.0974456195e+00 -3.6328823790e+00 2.0974456195e+00 3.6328823790e+00 
5000 6.3593699548e+00 -3.0862565175e-01 2.1047637103e+00 -3.6455576842e+00 2.1047637103e+00 3.6455576842e+00 
5100 6.3529802807e+00 -3.1028549218e-01 2.1120995505e+00 -3.6582637321e+00 2.1120995505e+00 3.6582637321e+00 
5200 6.3466580529e+00 -3.1177795254e-01 2.1194492211e+00 -3.6709937350e+00 2.1194492211e+00 3.6709937350e+00 
5300 6.3404328330e+00 -3.1309410567e-01 2.1268086250e+00 -3.6837405965e+00 2.1268086250e+00 3.6837405965e+00 
5400 6.3343325769e+00 -3.1422589314e-01 2.1341735114e+00 -3.6964969540e+00 2.1341735114e+00 3.6964969540e+00 
5500 6.3283835135e+00 -3.1516608593e-01 2.1415394993e+00 -3.7092552192e+00 2.1415394993e+00 3.7092552192e+00 
5600 6.3226100452e+00 -3.1590824322e-01 2.1489020989e+00 -3.7220076157e+00 2.1489020989e+00 3.7220076157e+00 
5700 6.3170346680e+00 -3.1644666995e-01 2.1562567319e+00 -3.7347462138e+00 2.1562567319e+00 3.7347462138e+00 
5800 6.3116779096e+00 -3.1677637392e-01 2.1635987505e+00 -3.7474629631e+00 2.1635987505e+00 3.7474629631e+00 
5900 6.3065582842e+00 -3.1689302313e-01 2.1709234545e+00 -3.7601497225e+00 2.1709234545e+00 3.7601497225e+00 
6000 6.3016922620e+00 -3.1679290376e-01 2.1782261070e+00 -3.7727982877e+00 2.1782261070e+00 3.7727982877e+00 
6100 6.2970942520e+00 -3.1647287953e-01 2.1855019490e+00 -3.7854004158e+00 2.1855019490e+00 3.7854004158e+00 
6200 6.2927765975e+00 -3.1593035266e-01 2.1927462126e+00 -3.7979478483e+00 2.1927462126e+00 3.7979478483e+00 
6300 6.2887495816e+00 -3.1516322688e-01 2.1999541324e+00 -3.8104323316e+00 2.1999541324e+00 3.8104323316e+00 
6400 6.2850214435e+00 -3.1416987283e-01 2.2071209567e+00 -3.8228456355e+00 2.2071209567e+00 3.8228456355e+00 
6500 6.2815984023e+00 -3.1294909609e-01 2.2142419570e+00 -3.8351795698e+00 2.2142419570e+00 3.8351795698e+00 
6600 6.2784846898e+00 -3.1150010803e-01 2.2213124361e+00 -3.8474259988e+00 2.2213124361e+00 3.8474259988e+00 
6700 6.2756825895e+00 -3.0982249974e-01 2.2283277362e+00 -3.8595768550e+00 2.2283277362e+00 3.8595768550e+00 
6800 6.2731924825e+00 -3.0791621911e-01 2.2352832457e+00 -3.8716241509e+00 2.2352832457e+00 3.8716241509e+00 
6900 6.2710128983e+00 -3.0578155122e-01 2.2421744052e+00 -3.8835599892e+00 2.2421744052e+00 3.8835599892e+00 
7000 6.2691405723e+00 -3.0341910216e-01 2.2489967128e+00 -3.8953765726e+00 2.2489967128e+00 3.8953765726e+00 
7100 6.2675705067e+00 -3.0082978629e-01 2.2557457295e+00 -3.9070662124e+00 2.2557457295e+00 3.9070662124e+00 
7200 6.2662960368e+00 -2.9801481697e-01 2.2624170834e+00 -3.9186213363e+00 2.2624170834e+00 3.9186213363e+00 
7300 6.2653089014e+00 -2.9497570090e-01 2.2690064738e+00 -3.9300344954e+00 2.2690064738e+00 3.9300344954e+00 
7400 6.2645993180e+00 -2.9171423593e-01 2.2755096756e+00 -3.9412983712e+00 2.2755096756e+00 3.9412983712e+00 
7500 6.2641560609e+00 -2.8823251241e-01 2.2819225423e+00 -3.9524057822e+00 2.2819225423e+00 3.9524057822e+00 
7600 6.2639665451e+00 -2.8453291796e-01 2.2882410105e+00 -3.9633496901e+00 2.2882410105e+00 3.9633496901e+00 
7700 6.2640169132e+00 -2.8061814566e-01 2.2944611030e+00 -3.9741232064e+00 2.2944611030e+00 3.9741232064e+00 
7800 6.2642921271e+00 -2.7649120550e-01 2.3005789331e+00 -3.9847195990e+00 2.3005789331e+00 3.9847195990e+00 
7900 6.2647760647e+00 -2.7215543899e-01 2.3065907081e+00 -3.9951322987e+00 2.3065907081e+00 3.9951322987e+00 
8000 6.2654516201e+00 -2.6761453670e-01 2.3124927339e+00 -4.0053549073e+00 2.3124927339e+00 4.0053549073e+00 
8100 6.2663008099e+00 -2.6287255854e-01 2.3182814194e+00 -4.0153812046e+00 2.3182814194e+00 4.0153812046e+00 
8200 6.2673048837e+00 -2.5793395654e-01 2.3239532813e+00 -4.0252051577e+00 2.3239532813e+00 4.0252051577e+00 
8300 6.2684444405e+00 -2.5280359969e-01 2.3295049499e+00 -4.0348209297e+00 2.3295049499e+00 4.0348209297e+00 
8400 6.2696995496e+00 -2.4748680060e-01 2.3349331743e+00 -4.0442228902e+00 2.3349331743e+00 4.0442228902e+00 
8500 6.2710498777e+00 -2.4198934338e-01 2.3402348295e+00 -4.0534056263e+00 2.3402348295e+00 4.0534056263e+00 
8600 6.2724748208e+00 -2.3631751230e-01 2.3454069226e+00 -4.0623639544e+00 2.3454069226e+00 4.0623639544e+00 
8700 6.2739536423e+00 -2.3047812062e-01 2.3504466010e+00 -4.0710929334e+00 2.3504466010e+00 4.0710929334e+00 
8800 6.2754656150e+00 -2.2447853890e-01 2.3553511600e+00 -4.0795878788e+00 2.3553511600e+00 4.0795878788e+00 
8900 6.2769901689e+00 -2.1832672204e-01 2.3601180517e+00 -4.0878443775e+00 2.3601180517e+00 4.0878443775e+00 
9000 6.2785070428e+00 -2.1203123434e-01 2.3647448943e+00 -4.0958583039e+00 2.3647448943e+00 4.0958583039e+00 
9100 6.2799964391e+00 -2.0560127154e-01 2.3692294818e+00 -4.1036258372e+00 2.3692294818e+00 4.1036258372e+00 
9200 6.2814391822e+00 -1.9904667924e-01 2.3735697940e+00 -4.1111434784e+00 2.3735697940e+00 4.1111434784e+00 
9300 6.2828168769e+00 -1.9237796643e-01 2.3777640077e+00 -4.1184080697e+00 2.3777640077e+00 4.1184080697e+00 
9400 6.2841120680e+00 -1.8560631355e-01 2.3818105073e+00 -4.1254168126e+00 2.3818105073e+00 4.1254168126e+00 
9500 6.2853083979e+00 -1.7874357397e-01 2.3857078962e+00 -4.1321672882e+00 2.3857078962e+00 4.1321672882e+00 
9600 6.2863907607e+00 -1.7180226818e-01 2.3894550079e+00 -4.1386574760e+00 2.3894550079e+00 4.1386574760e+00 
9700 6.2873454509e+00 -1.6479556981e-01 2.3930509175e+00 -4.1448857741e+00 2.3930509175e+00 4.1448857741e+00 
9800 6.2881603045e+00 -1.5773728299e-01 2.3964949527e+00 -4.1508510181e+00 2.3964949527e+00 4.1508510181e+00 
9900 6.2888248292e+00 -1.5064181042e-01 2.3997867046e+00 -4.1565524996e+00 2.3997867046e+00 4.1565524996e+00 
10000 6.2893303227e+00 -1.4352411178e-01 2.4029260378e+00 -4.1619899843e+00 2.4029260378e+00 4.1619899843e+00 
10100 6.2896699753e+00 -1.3639965241e-01 2.4059131003e+00 -4.1671637283e+00 2.4059131003e+00 4.1671637283e+00 
10200 6.2898389541e+00 -1.2928434226e-01 2.4087483317e+00 -4.1720744931e+00 2.4087483317e+00 4.1720744931e+00 
10300 6.2898344680e+00 -1.2219446517e-01 2.4114324710e+00 -4.1767235588e+00 2.4114324710e+00 4.1767235588e+00 
10400 6.2896558084e+00 -1.1514659923e-01 2.4139665631e+00 -4.1811127351e+00 2.4139665631e+00 4.1811127351e+00 
10500 6.2893043668e+00 -1.0815752862e-01 2.4163519636e+00 -4.1852443699e+00 2.4163519636e+00 4.1852443699e+00 
10600 6.2887836250e+00 -1.0124414786e-01 2.4185903422e+00 -4.1891213554e+00 2.4185903422e+00 4.1891213554e+00 
10700 6.2880991176e+00 -9.4423359633e-02 2.4206836842e+00 -4.1927471302e+00 2.4206836842e+00 4.1927471302e+00 
10800 6.2872583666e+00 -8.7711967355e-02 2.4226342908e+00 -4.1961256798e+00 2.4226342908e+00 4.1961256798e+00 
10900 6.2862707868e+00 -8.1126563918e-02 2.4244447762e+00 -4.1992615326e+00 2.4244447762e+00 4.1992615326e+00 
11000 6.2851475628e+00 -7.4683418229e-02 2.4261180643e+00 -4.2021597525e+00 2.4261180643e+00 4.2021597525e+00 
11100 6.2839014988e+00 -6.8398361215e-02 2.4276573816e+00 -4.2048259282e+00 2.4276573816e+00 4.2048259282e+00 
11200 6.2825468427e+00 -6.2286673092e-02 2.4290662495e+00 -4.2072661591e+00 2.4290662495e+00 4.2072661591e+00 
11300 6.2810990861e+00 -5.6362973712e-02 2.4303484737e+00 -4.2094870365e+00 2.4303484737e+00 4.2094870365e+00 
11400 6.2795747442e+00 -5.0641117823e-02 2.4315081315e+00 -4.2114956228e+00 2.4315081315e+00 4.2114956228e+00 
11500 6.2779911179e+00 -4.5134096998e-02 2.4325495578e+00 -4.2132994261e+00 2.4325495578e+00 4.2132994261e+00 
11600 6.2763660429e+00 -3.9853949864e-02 2.4334773285e+00 -4.2149063721e+00 2.4334773285e+00 4.2149063721e+00 
11700 6.2747176299e+00 -3.4811682114e-02 2.4342962428e+00 -4.2163247732e+00 2.4342962428e+00 4.2163247732e+00 
11800 6.2730639998e+00 -3.0017197538e-02 2.4350113034e+00 -4.2175632944e+00 2.4350113034e+00 4.2175632944e+00 
11900 6.2714230206e+00 -2.5479241041e-02 2.4356276961e+00 -4.2186309179e+00 2.4356276961e+00 4.2186309179e+00 
12000 6.2698120494e+00 -2.1205354309e-02 2.4361507676e+00 -4.2195369044e+00 2.4361507676e+00 4.2195369044e+00 
12100 6.2682476846e+00 -1.7201844481e-02 2.4365860031e+00 -4.2202907544e+00 2.4365860031e+00 4.2202907544e+00 
12200 6.2667455344e+00 -1.3473765832e-02 2.4369390024e+00 -4.2209021670e+00 2.4369390024e+00 4.2209021670e+00 
12300 6.2653200046e+00 -1.0024914182e-02 2.4372154562e+00 -4.2213809990e+00 2.4372154562e+00 4.2213809990e+00 
12400 6.2639841097e+00 -6.8578334508e-03 2.4374211223e+00 -4.2217372233e+00 2.4374211223e+00 4.2217372233e+00 
12500 6.2627493125e+00 -3.9738335506e-03 2.4375618017e+00 -4.2219808872e+00 2.4375618017e+00 4.2219808872e+00 
12600 6.2616253922e+00 -1.3730185775e-03 2.4376433147e+00 -4.2221220717e+00 2.4376433147e+00 4.2221220717e+00 
12700 6.2606203454e+00 9.4567583482e-04 2.4376714775e+00 -4.2221708513e+00 2.4376714775e+00 4.2221708513e+00 
12800 6.2597403200e+00 2.9844372609e-03 2.4376520804e+00 -4.2221372545e+00 2.4376520804e+00 4.2221372545e+00 
12900 6.2589895822e+00 4.7465246096e-03 2.4375908653e+00 -4.2220312268e+00 2.4375908653e+00 4.2220312268e+00 
13000 6.2583705173e+00 6.2362109033e-03 2.4374935050e+00 -4.2218625937e+00 2.4374935050e+00 4.2218625937e+00 
13100 6.2578836625e+00 7.4587219342e-03 2.4373655835e+00 -4.2216410272e+00 2.4373655835e+00 4.2216410272e+00 
13200 6.2575277694e+00 8.4201719318e-03 2.4372125772e+00 -4.2213760126e+00 2.4372125772e+00 4.2213760126e+00 
13300 6.2572998947e+00 9.1274972743e-03 2.4370398374e+00 -4.2210768185e+00 2.4370398374e+00 4.2210768185e+00 
13400 6.2571955158e+00 9.5883891452e-03 2.4368525737e+00 -4.2207524683e+00 2.4368525737e+00 4.2207524683e+00 
13500 6.2572086676e+00 9.8112259139e-03 2.4366558392e+00 -4.2204117141e+00 2.4366558392e+00 4.2204117141e+00 
13600 6.2573320973e+00 9.8050058810e-03 2.4364545164e+00 -4.2200630127e+00 2.4364545164e+00 4.2200630127e+00 
13700 6.2575574331e+00 9.5792809093e-03 2.4362533045e+00 -4.2197145035e+00 2.4362533045e+00 4.2197145035e+00 
13800 6.2578753626e+00 9.1440913456e-03 2.4360567085e+00 -4.2193739893e+00 2.4360567085e+00 4.2193739893e+00 
13900 6.2582758179e+00 8.5099025364e-03 2.4358690287e+00 -4.2190489183e+00 2.4358690287e+00 4.2190489183e+00 
14000 6.2587481623e+00 7.6875431572e-03 2.4356943518e+00 -4.2187463690e+00 2.4356943518e+00 4.2187463690e+00 
14100 6.2592813760e+00 6.6881455060e-03 2.4355365434e+00 -4.2184730369e+00 2.4355365434e+00 4.2184730369e+00 
14200 6.2598642372e+00 5.5230878574e-03 2.4353992414e+00 -4.2182352228e+00 2.4353992414e+00 4.2182352228e+00 
14300 6.2604854956e+00 4.2039389378e-03 2.4352858504e+00 -4.2180388239e+00 2.4352858504e+00 4.2180388239e+00 
14400 6.2611340354e+00 2.7424045561e-03 2.4351995379e+00 -4.2178893262e+00 2.4351995379e+00 4.2178893262e+00 
14500 6.2617990262e+00 1.1502764102e-03 2.4351432305e+00 -4.2177917989e+00 2.4351432305e+00 4.2177917989e+00 
14600 6.2624700596e+00 -5.6061691267e-04 2.4351196123e+00 -4.2177508910e+00 2.4351196123e+00 4.2177508910e+00 
14700 6.2631372705e+00 -2.3784567261e-03 2.4351311234e+00 -4.2177708288e+00 2.4351311234e+00 4.2177708288e+00 
14800 6.2637914414e+00 -4.2914788009e-03 2.4351799598e+00 -4.2178554160e+00 2.4351799598e+00 4.2178554160e+00 
14900 6.2644240903e+00 -6.2880156567e-03 2.4352680746e+00 -4.2180080352e+00 2.4352680746e+00 4.2180080352e+00 
15000 6.2650275411e+00 -8.3565365521e-03 2.4353971789e+00 -4.2182316504e+00 2.4353971789e+00 4.2182316504e+00 
15100 6.2655949775e+00 -1.0485685126e-02 2.4355687450e+00 -4.2185288117e+00 2.4355687450e+00 4.2185288117e+00 
15200 6.2661204795e+00 -1.2664314644e-02 2.4357840097e+00 -4.2189016611e+00 2.4357840097e+00 4.2189016611e+00 
15300 6.2665990455e+00 -1.4881520798e-02 2.4360439782e+00 -4.2193519397e+00 2.4360439782e+00 4.2193519397e+00 
15400 6.2670265984e+00 -1.7126672012e-02 2.4363494290e+00 -4.2198809960e+00 2.4363494290e+00 4.2198809960e+00 
15500 6.2673999788e+00 -1.9389437220e-02 2.4367009197e+00 -4.2204897958e+00 2.4367009197e+00 4.2204897958e+00 
15600 6.2677169257e+00 -2.1659811065e-02 2.4370987930e+00 -4.2211789325e+00 2.4370987930e+00 4.2211789325e+00 
15700 6.2679760455e+00 -2.3928136531e-02 2.4375431835e+00 -4.2219486394e+00 2.4375431835e+00 4.2219486394e+00 
15800 6.2681767726e+00 -2.6185124972e-02 2.4380340248e+00 -4.2227988015e+00 2.4380340248e+00 4.2227988015e+00 
15900 6.2683193209e+00 -2.8421873575e-02 2.4385710576e+00 -4.2237289697e+00 2.4385710576e+00 4.2237289697e+00 
16000 6.2684046284e+00 -3.0629880276e-02 2.4391538376e+00 -4.2247383741e+00 2.4391538376e+00 4.2247383741e+00 
16100 6.2684342974e+00 -3.2801056181e-02 2.4397817437e+00 -4.2258259395e+00 2.4397817437e+00 4.2258259395e+00 
16200 6.2684105295e+00 -3.4927735565e-02 2.4404539875e+00 -4.2269902999e+00 2.4404539875e+00 4.2269902999e+00 
16300 6.2683360585e+00 -3.7002683519e-02 2.4411696216e+00 -4.2282298145e+00 2.4411696216e+00 4.2282298145e+00 
16400 6.2682140812e+00 -3.9019101375e-02 2.4419275492e+00 -4.2295425836e+00 2.4419275492e+00 4.2295425836e+00 
16500 6.2680481882e+00 -4.0970629987e-02 2.4427265334e+00 -4.2309264648e+00 2.4427265334e+00 4.2309264648e+00 
16600 6.2678422943e+00 -4.2851351035e-02 2.4435652063e+00 -4.2323790889e+00 2.4435652063e+00 4.2323790889e+00 
16700 6.2676005709e+00 -4.4655786457e-02 2.4444420790e+00 -4.2338978770e+00 2.4444420790e+00 4.2338978770e+00 
16800 6.2673273797e+00 -4.6378896179e-02 2.4453555506e+00 -4.2354800562e+00 2.4453555506e+00 4.2354800562e+00 
16900 6.2670272096e+00 -4.8016074279e-02 2.4463039176e+00 -4.2371226761e+00 2.4463039176e+00 4.2371226761e+00 
17000 6.2667046164e+00 -4.9563143751e-02 2.4472853837e+00 -4.2388226251e+00 2.4472853837e+00 4.2388226251e+00 
17100 6.2663641664e+00 -5.1016350008e-02 2.4482980682e+00 -4.2405766462e+00 2.4482980682e+00 4.2405766462e+00 
17200 6.2660103837e+00 -5.2372353296e-02 2.4493400158e+00 -4.2423813524e+00 2.4493400158e+00 4.2423813524e+00 
17300 6.2656477016e+00 -5.3628220145e-02 2.4504092051e+00 -4.2442332425e+00 2.4504092051e+00 4.2442332425e+00 
17400 6.2652804192e+00 -5.4781414025e-02 2.4515035572e+00 -4.2461287160e+00 2.4515035572e+00 4.2461287160e+00 
17500 6.2649126614e+00 -5.5829785326e-02 2.4526209444e+00 -4.2480640874e+00 2.4526209444e+00 4.2480640874e+00 
17600 6.2645483447e+00 -5.6771560796e-02 2.4537591982e+00 -4.2500356007e+00 2.4537591982e+00 4.2500356007e+00 
17700 6.2641911461e+00 -5.7605332562e-02 2.4549161173e+00 -4.2520394435e+00 2.4549161173e+00 4.2520394435e+00 
17800 6.2638444784e+00 -5.8330046829e-02 2.4560894755e+00 -4.2540717595e+00 2.4560894755e+00 4.2540717595e+00 
17900 6.2635114680e+00 -5.8944992379e-02 2.4572770288e+00 -4.2561286622e+00 2.4572770288e+00 4.2561286622e+00 
18000 6.2631949385e+00 -5.9449788937e-02 2.4584765229e+00 -4.2582062469e+00 2.4584765229e+00 4.2582062469e+00 
18100 6.2628973977e+00 -5.9844375493e-02 2.4596856998e+00 -4.2603006027e+00 2.4596856998e+00 4.2603006027e+00 
18200 6.2626210288e+00 -6.0128998641e-02 2.4609023045e+00 -4.2624078239e+00 2.4609023045e+00 4.2624078239e+00 
18300 6.2623676852e+00 -6.0304201002e-02 2.4621240916e+00 -4.2645240212e+00 2.4621240916e+00 4.2645240212e+00 
18400 6.2621388890e+00 -6.0370809758e-02 2.4633488308e+00 -4.2666453317e+00 2.4633488308e+00 4.2666453317e+00 
18500 6.2619358330e+00 -6.0329925355e-02 2.4645743132e+00 -4.2687679294e+00 2.4645743132e+00 4.2687679294e+00 
18600 6.2617593851e+00 -6.0182910379e-02 2.4657983565e+00 -4.2708880347e+00 2.4657983565e+00 4.2708880347e+00 
18700 6.2616100965e+00 -5.9931378640e-02 2.4670188106e+00 -4.2730019232e+00 2.4670188106e+00 4.2730019232e+00 
18800 6.2614882115e+00 -5.9577184462e-02 2.4682335620e+00 -4.2751059344e+00 2.4682335620e+00 4.2751059344e+00 
18900 6.2613936806e+00 -5.9122412185e-02 2.4694405393e+00 -4.2771964804e+00 2.4694405393e+00 4.2771964804e+00 
19000 6.2613261749e+00 -5.8569365870e-02 2.4706377171e+00 -4.2792700531e+00 2.4706377171e+00 4.2792700531e+00 
19100 6.2612851029e+00 -5.7920559202e-02 2.4718231205e+00 -4.2813232320e+00 2.4718231205e+00 4.2813232320e+00 
19200 6.2612696286e+00 -5.7178705557e-02 2.4729948292e+00 -4.2833526910e+00 2.4729948292e+00 4.2833526910e+00 
19300 6.2612786913e+00 -5.6346708236e-02 2.4741509812e+00 -4.2853552050e+00 2.4741509812e+00 4.2853552050e+00 
19400 6.2613110260e+00 -5.5427650812e-02 2.4752897765e+00 -4.2873276563e+00 2.4752897765e+00 4.2873276563e+00 
19500 6.2613651856e+00 -5.4424787587e-02 2.4764094803e+00 -4.2892670402e+00 2.4764094803e+00 4.2892670402e+00 
19600 6.2614395629e+00 -5.3341534100e-02 2.4775084264e+00 -4.2911704706e+00 2.4775084264e+00 4.2911704706e+00 
19700 6.2615324137e+00 -5.2181457683e-02 2.4785850200e+00 -4.2930351855e+00 2.4785850200e+00 4.2930351855e+00 
19800 6.2616418799e+00 -5.0948268002e-02 2.4796377406e+00 -4.2948585510e+00 2.4796377406e+00 4.2948585510e+00 
19900 6.2617660129e+00 -4.9645807565e-02 2.4806651444e+00 -4.2966380666e+00 2.4806651444e+00 4.2966380666e+00 
20000 6.2619027969e+00 -4.8278042165e-02 2.4816658668e+00 -4.2983713687e+00 2.4816658668e+00 4.2983713687e+00 
20100 6.2620501714e+00 -4.6849051218e-02 2.4826386245e+00 -4.3000562345e+00 2.4826386245e+00 4.3000562345e+00 
20200 6.2622060541e+00 -4.5363017963e-02 2.4835822177e+00 -4.3016905859e+00 2.4835822177e+00 4.3016905859e+00 
20300 6.2623683625e+00 -4.3824219512e-02 2.4844955315e+00 -4.3032724917e+00 2.4844955315e+00 4.3032724917e+00 
20400 6.2625350348e+00 -4.2237016708e-02 2.4853775377e+00 -4.3048001714e+00 2.4853775377e+00 4.3048001714e+00 
20500 6.2627040502e+00 -4.0605843789e-02 2.4862272964e+00 -4.3062719966e+00 2.4862272964e+00 4.3062719966e+00 
20600 6.2628734478e+00 -3.8935197823e-02 2.4870439568e+00 -4.3076864938e+00 2.4870439568e+00 4.3076864938e+00 
20700 6.2630413443e+00 -3.7229627920e-02 2.4878267584e+00 -4.3090423460e+00 2.4878267584e+00 4.3090423460e+00 
20800 6.2632059505e+00 -3.5493724208e-02 2.4885750318e+00 -4.3103383936e+00 2.4885750318e+00 4.3103383936e+00 
20900 6.2633655859e+00 -3.3732106576e-02 2.4892881994e+00 -4.3115736360e+00 2.4892881994e+00 4.3115736360e+00 
21000 6.2635186927e+00 -3.1949413187e-02 2.4899657753e+00 -4.3127472320e+00 2.4899657753e+00 4.3127472320e+00 
21100 6.2636638471e+00 -3.0150288780e-02 2.4906073662e+00 -4.3138584999e+00 2.4906073662e+00 4.3138584999e+00 
21200 6.2637997696e+00 -2.8339372772e-02 2.4912126705e+00 -4.3149069178e+00 2.4912126705e+00 4.3149069178e+00 
21300 6.2639253330e+00 -2.6521287198e-02 2.4917814789e+00 -4.3158921227e+00 2.4917814789e+00 4.3158921227e+00 
21400 6.2640395693e+00 -2.4700624499e-02 2.4923136730e+00 -4.3168139101e+00 2.4923136730e+00 4.3168139101e+00 
21500 6.2641416739e+00 -2.2881935220e-02 2.4928092255e+00 -4.3176722321e+00 2.4928092255e+00 4.3176722321e+00 
21600 6.2642310091e+00 -2.1069715638e-02 2.4932681984e+00 -4.3184671965e+00 2.4932681984e+00 4.3184671965e+00 
21700 6.2643071041e+00 -1.9268395387e-02 2.4936907424e+00 -4.3191990641e+00 2.4936907424e+00 4.3191990641e+00 
21800 6.2643696553e+00 -1.7482325117e-02 2.4940770953e+00 -4.3198682470e+00 2.4940770953e+00 4.3198682470e+00 
21900 6.2644185231e+00 -1.5715764249e-02 2.4944275803e+00 -4.3204753049e+00 2.4944275803e+00 4.3204753049e+00 
22000 6.2644537278e+00 -1.3972868893e-02 2.4947426044e+00 -4.3210209426e+00 2.4947426044e+00 4.3210209426e+00 
22100 6.2644754438e+00 -1.2257679972e-02 2.4950226559e+00 -4.3215060061e+00 2.4950226559e+00 4.3215060061e+00 
22200 6.2644839925e+00 -1.0574111645e-02 2.4952683026e+00 -4.3219314786e+00 2.4952683026e+00 4.3219314786e+00 
22300 6.2644798330e+00 -8.9259400627e-03 2.4954801889e+00 -4.3222984764e+00 2.4954801889e+00 4.3222984764e+00 
22400 6.2644635527e+00 -7.3167925433e-03 2.4956590331e+00 -4.3226082438e+00 2.4956590331e+00 4.3226082438e+00 
22500 6.2644358556e+00 -5.7501372263e-03 2.4958056250e+00 -4.3228621483e+00 2.4958056250e+00 4.3228621483e+00 
22600 6.2643975504e+00 -4.2292732646e-03 2.4959208219e+00 -4.3230616751e+00 2.4959208219e+00 4.3230616751e+00 
22700 6.2643495375e+00 -2.7573216188e-03 2.4960055461e+00 -4.3232084217e+00 2.4960055461e+00 4.3232084217e+00 
22800 6.2642927954e+00 -1.3372165106e-03 2.4960607809e+00 -4.3233040914e+00 2.4960607809e+00 4.3233040914e+00 
22900 6.2642283662e+00 2.8302412274e-05 2.4960875675e+00 -4.3233504871e+00 2.4960875675e+00 4.3233504871e+00 
23000 6.2641573429e+00 1.3369160528e-03 2.4960875675e+00 -4.3233504871e+00 2.4960875675e+00 4.3233504871e+00 
23100 6.2640808504e+00 2.5858591875e-03 2.4960607873e+00 -4.3233041025e+00 2.4960607873e+00 4.3233041025e+00 
23200 6.2640000356e+00 3.7732314970e-03 2.4960089887e+00 -4.3232143846e+00 2.4960089887e+00 4.3232143846e+00 
23300 6.2639160509e+00 4.8971341456e-03 2.4959334038e+00 -4.3230834677e+00 2.4959334038e+00 4.3230834677e+00 
23400 6.2638300409e+00 5.9558898583e-03 2.4958353022e+00 -4.3229135507e+00 2.4958353022e+00 4.3229135507e+00 
23500 6.2637431287e+00 6.9480456659e-03 2.4957159866e+00 -4.3227068900e+00 2.4957159866e+00 4.3227068900e+00 
23600 6.2636564033e+00 7.8723747256e-03 2.4955767884e+00 -4.3224657917e+00 2.4955767884e+00 4.3224657917e+00 
23700 6.2635709076e+00 8.7278772131e-03 2.4954190635e+00 -4.3221926042e+00 2.4954190635e+00 4.3221926042e+00 
23800 6.2634876276e+00 9.5137802907e-03 2.4952441876e+00 -4.3218897102e+00 2.4952441876e+00 4.3218897102e+00 
23900 6.2634074829e+00 1.0229537161e-02 2.4950535518e+00 -4.3215595192e+00 2.4950535518e+00 4.3215595192e+00 
24000 6.2633313174e+00 1.0874825221e-02 2.4948485582e+00 -4.3212044600e+00 2.4948485582e+00 4.3212044600e+00 
24100 6.2632598925e+00 1.1449543352e-02 2.4946306158e+00 -4.3208269727e+00 2.4946306158e+00 4.3208269727e+00 
24200 6.2631938807e+00 1.1953808346e-02 2.4944011356e+00 -4.3204295013e+00 2.4944011356e+00 4.3204295013e+00 
24300 6.2631338608e+00 1.2387950543e-02 2.4941615266e+00 -4.3200144864e+00 2.4941615266e+00 4.3200144864e+00 
24400 6.2630803147e+00 1.2752508678e-02 2.4939131918e+00 -4.3195843578e+00 2.4939131918e+00 4.3195843578e+00 
24500 6.2630336251e+00 1.3048224009e-02 2.4936575235e+00 -4.3191415273e+00 2.4936575235e+00 4.3191415273e+00 
24600 6.2629940752e+00 1.3276033762e-02 2.4933958998e+00 -4.3186883818e+00 2.4933958998e+00 4.3186883818e+00 
24700 6.2629618485e+00 1.3437063935e-02 2.4931296806e+00 -4.3182272767e+00 2.4931296806e+00 4.3182272767e+00 
24800 6.2629370314e+00 1.3532621530e-02 2.4928602036e+00 -4.3177605288e+00 2.4928602036e+00 4.3177605288e+00 
24900 6.2629196158e+00 1.3564186254e-02 2.4925887809e+00 -4.3172904109e+00 2.4925887809e+00 4.3172904109e+00 
25000 6.2629095031e+00 1.3533401744e-02 2.4923166955e+00 -4.3168191452e+00 2.4923166955e+00 4.3168191452e+00 
25100 6.2629065094e+00 1.3442066379e-02 2.4920451980e+00 -4.3163488977e+00 2.4920451980e+00 4.3163488977e+00 
25200 6.2629103714e+00 1.3292123731e-02 2.4917755034e+00 -4.3158817729e+00 2.4917755034e+00 4.3158817729e+00 
25300 6.2629207530e+00 1.3085652706e-02 2.4915087882e+00 -4.3154198087e+00 2.4915087882e+00 4.3154198087e+00 
25400 6.2629372527e+00 1.2824857434e-02 2.4912461879e+00 -4.3149649715e+00 2.4912461879e+00 4.3149649715e+00 
25500 6.2629594117e+00 1.2512056966e-02 2.4909887939e+00 -4.3145191520e+00 2.4909887939e+00 4.3145191520e+00 
25600 6.2629867216e+00 1.2149674822e-02 2.4907376517e+00 -4.3140841610e+00 2.4907376517e+00 4.3140841610e+00 
25700 6.2630186334e+00 1.1740228447e-02 2.4904937585e+00 -4.3136617257e+00 2.4904937585e+00 4.3136617257e+00 
25800 6.2630545660e+00 1.1286318615e-02 2.4902580614e+00 -4.3132534864e+00 2.4902580614e+00 4.3132534864e+00 
25900 6.2630939149e+00 1.0790618845e-02 2.4900314555e+00 -4.3128609933e+00 2.4900314555e+00 4.3128609933e+00 
26000 6.2631360607e+00 1.0255864852e-02 2.4898147822e+00 -4.3124857043e+00 2.4898147822e+00 4.3124857043e+00 
26100 6.2631803775e+00 9.6848440909e-03 2.4896088287e+00 -4.3121289823e+00 2.4896088287e+00 4.3121289823e+00 
26200 6.2632262413e+00 9.0803854268e-03 2.4894143259e+00 -4.3117920935e+00 2.4894143259e+00 4.3117920935e+00 
26300 6.2632730369e+00 8.4453489697e-03 2.4892319482e+00 -4.3114762061e+00 2.4892319482e+00 4.3114762061e+00 
26400 6.2633201661e+00 7.7826161069e-03 2.4890623125e+00 -4.3111823884e+00 2.4890623125e+00 4.3111823884e+00 
26500 6.2633670534e+00 7.0950797670e-03 2.4889059778e+00 -4.3109116088e+00 2.4889059778e+00 4.3109116088e+00 
26600 6.2634131528e+00 6.3856349430e-03 2.4887634450e+00 -4.3106647348e+00 2.4887634450e+00 4.3106647348e+00 
26700 6.2634579525e+00 5.6571695024e-03 2.4886351568e+00 -4.3104425331e+00 2.4886351568e+00 4.3104425331e+00 
26800 6.2635009802e+00 4.9125553076e-03 2.4885214976e+00 -4.3102456696e+00 2.4885214976e+00 4.3102456696e+00 
26900 6.2635418066e+00 4.1546396676e-03 2.4884227940e+00 -4.3100747099e+00 2.4884227940e+00 4.3100747099e+00 
27000 6.2635800488e+00 3.3862371411e-03 2.4883393151e+00 -4.3099301202e+00 2.4883393151e+00 4.3099301202e+00 
27100 6.2636153728e+00 2.6101217067e-03 2.4882712733e+00 -4.3098122683e+00 2.4882712733e+00 4.3098122683e+00 
27200 6.2636474953e+00 1.8290193143e-03 2.4882188249e+00 -4.3097214252e+00 2.4882188249e+00 4.3097214252e+00 
27300 6.2636761845e+00 1.0456008293e-03 2.4881820715e+00 -4.3096577662e+00 2.4881820715e+00 4.3096577662e+00 
27400 6.2637012607e+00 2.6247537987e-04 2.4881610601e+00 -4.3096213736e+00 2.4881610601e+00 4.3096213736e+00 
27500 6.2637225961e+00 -5.1781588648e-04 2.4881557857e+00 -4.3096122379e+00 2.4881557857e+00 4.3096122379e+00 
27600 6.2637401133e+00 -1.2928056313e-03 2.4881661913e+00 -4.3096302610e+00 2.4881661913e+00 4.3096302610e+00 
27700 6.2637537845e+00 -2.0601057351e-03 2.4881921704e+00 -4.3096752581e+00 2.4881921704e+00 4.3096752581e+00 
27800 6.2637636289e+00 -2.8174122877e-03 2.4882335682e+00 -4.3097469612e+00 2.4882335682e+00 4.3097469612e+00 
27900 6.2637697108e+00 -3.5625101597e-03 2.4882901831e+00 -4.3098450211e+00 2.4882901831e+00 4.3098450211e+00 
28000 6.2637721359e+00 -4.2932771559e-03 2.4883617689e+00 -4.3099690114e+00 2.4883617689e+00 4.3099690114e+00 
28100 6.2637710487e+00 -5.0076877565e-03 2.4884480366e+00 -4.3101184313e+00 2.4884480366e+00 4.3101184313e+00 
28200 6.2637666287e+00 -5.7038164480e-03 2.4885486559e+00 -4.3102927092e+00 2.4885486559e+00 4.3102927092e+00 
28300 6.2637590864e+00 -6.3798406535e-03 2.4886632581e+00 -4.3104912059e+00 2.4886632581e+00 4.3104912059e+00 
28400 6.2637486598e+00 -7.0340432669e-03 2.4887914373e+00 -4.3107132188e+00 2.4887914373e+00 4.3107132188e+00 
28500 6.2637356095e+00 -7.6648148011e-03 2.4889327530e+00 -4.3109579849e+00 2.4889327530e+00 4.3109579849e+00 
28600 6.2637202154e+00 -8.2706551598e-03 2.4890867326e+00 -4.3112246852e+00 2.4890867326e+00 4.3112246852e+00 
28700 6.2637027718e+00 -8.8501750416e-03 2.4892528728e+00 -4.3115124485e+00 2.4892528728e+00 4.3115124485e+00 
28800 6.2636835836e+00 -9.4020969888e-03 2.4894306426e+00 -4.3118203548e+00 2.4894306426e+00 4.3118203548e+00 
28900 6.2636629623e+00 -9.9252560923e-03 2.4896194853e+00 -4.3121474400e+00 2.4896194853e+00 4.3121474400e+00 
29000 6.2636412217e+00 -1.0418600362e-02 2.4898188207e+00 -4.3124926991e+00 2.4898188207e+00 4.3124926991e+00 
29100 6.2636186744e+00 -1.0881190780e-02 2.4900280477e+00 -4.3128550909e+00 2.4900280477e+00 4.3128550909e+00 
29200 6.2635956281e+00 -1.1312201043e-02 2.4902465463e+00 -4.3132335415e+00 2.4902465463e+00 4.3132335415e+00 
29300 6.2635723823e+00 -1.1710917011e-02 2.4904736798e+00 -4.3136269484e+00 2.4904736798e+00 4.3136269484e+00 
29400 6.2635492253e+00 -1.2076735871e-02 2.4907087978e+00 -4.3140341846e+00 2.4907087978e+00 4.3140341846e+00 
29500 6.2635264311e+00 -1.2409165036e-02 2.4909512375e+00 -4.3144541024e+00 2.4909512375e+00 4.3144541024e+00 
29600 6.2635042571e+00 -1.2707820781e-02 2.4912003265e+00 -4.3148855373e+00 2.4912003265e+00 4.3148855373e+00 
29700 6.2634829421e+00 -1.2972426639e-02 2.4914553850e+00 -4.3153273116e+00 2.4914553850e+00 4.3153273116e+00 
29800 6.2634627040e+00 -1.3202811557e-02 2.4917157279e+00 -4.3157782387e+00 2.4917157279e+00 4.3157782387e+00 
29900 6.2634437385e+00 -1.3398907841e-02 2.4919806667e+00 -4.3162371262e+00 2.4919806667e+00 4.3162371262e+00 
30000 6.2634262177e+00 -1.3560748882e-02 2.4922495121e+00 -4.3167027800e+00 2.4922495121e+00 4.3167027800e+00 
30100 6.2634102896e+00 -1.3688466697e-02 2.4925215754e+00 -4.3171740076e+00 2.4925215754e+00 4.3171740076e+00 
30200 6.2633960770e+00 -1.3782289268e-02 2.4927961712e+00 -4.3176496214e+00 2.4927961712e+00 4.3176496214e+00 
30300 6.2633836776e+00 -1.3842537722e-02 2.4930726187e+00 -4.3181284425e+00 2.4930726187e+00 4.3181284425e+00 
30400 6.2633731638e+00 -1.3869623333e-02 2.4933502438e+00 -4.3186093034e+00 2.4933502438e+00 4.3186093034e+00 
30500 6.2633645832e+00 -1.3864044378e-02 2.4936283813e+00 -4.3190910516e+00 2.4936283813e+00 4.3190910516e+00 
30600 6.2633579589e+00 -1.3826382846e-02 2.4939063758e+00 -4.3195725523e+00 2.4939063758e+00 4.3195725523e+00 
30700 6.2633532908e+00 -1.3757301013e-02 2.4941835843e+00 -4.3200526914e+00 2.4941835843e+00 4.3200526914e+00 
30800 6.2633505562e+00 -1.3657537890e-02 2.4944593770e+00 -4.3205303784e+00 2.4944593770e+00 4.3205303784e+00 
30900 6.2633497110e+00 -1.3527905561e-02 2.4947331395e+00 -4.3210045490e+00 2.4947331395e+00 4.3210045490e+00 
31000 6.2633506918e+00 -1.3369285411e-02 2.4950042737e+00 -4.3214741672e+00 2.4950042737e+00 4.3214741672e+00 
31100 6.2633534167e+00 -1.3182624255e-02 2.4952721996e+00 -4.3219382285e+00 2.4952721996e+00 4.3219382285e+00 
31200 6.2633577875e+00 -1.2968930387e-02 2.4955363563e+00 -4.3223957613e+00 2.4955363563e+00 4.3223957613e+00 
31300 6.2633636914e+00 -1.2729269542e-02 2.4957962034e+00 -4.3228458296e+00 2.4957962034e+00 4.3228458296e+00 
31400 6.2633710029e+00 -1.2464760795e-02 2.4960512219e+00 -4.3232875346e+00 2.4960512219e+00 4.3232875346e+00 
31500 6.2633795859e+00 -1.2176572396e-02 2.4963009157e+00 -4.3237200169e+00 2.4963009157e+00 4.3237200169e+00 
31600 6.2633892955e+00 -1.1865917553e-02 2.4965448120e+00 -4.3241424577e+00 2.4965448120e+00 4.3241424577e+00 
31700 6.2633999803e+00 -1.1534050174e-02 2.4967824625e+00 -4.3245540806e+00 2.4967824625e+00 4.3245540806e+00 
31800 6.2634114842e+00 -1.1182260579e-02 2.4970134444e+00 -4.3249541528e+00 2.4970134444e+00 4.3249541528e+00 
31900 6.2634236484e+00 -1.0811871184e-02 2.4972373604e+00 -4.3253419868e+00 2.4972373604e+00 4.3253419868e+00 
32000 6.2634363135e+00 -1.0424232173e-02 2.4974538402e+00 -4.3257169408e+00 2.4974538402e+00 4.3257169408e+00 
32100 6.2634493210e+00 -1.0020717164e-02 2.4976625403e+00 -4.3260784199e+00 2.4976625403e+00 4.3260784199e+00 
32200 6.2634625155e+00 -9.6027188861e-03 2.4978631449e+00 -4.3264258773e+00 2.4978631449e+00 4.3264258773e+00 
32300 6.2634757459e+00 -9.1716448666e-03 2.4980553660e+00 -4.3267588141e+00 2.4980553660e+00 4.3267588141e+00 
32400 6.2634888675e+00 -8.7289131455e-03 2.4982389440e+00 -4.3270767804e+00 2.4982389440e+00 4.3270767804e+00 
32500 6.2635017427e+00 -8.2759480272e-03 2.4984136473e+00 -4.3273793755e+00 2.4984136473e+00 4.3273793755e+00 
32600 6.2635142429e+00 -7.8141758778e-03 2.4985792732e+00 -4.3276662479e+00 2.4985792732e+00 4.3276662479e+00 
32700 6.2635262491e+00 -7.3450209789e-03 2.4987356472e+00 -4.3279370957e+00 2.4987356472e+00 4.3279370957e+00 
32800 6.2635376532e+00 -6.8699014496e-03 2.4988826234e+00 -4.3281916659e+00 2.4988826234e+00 4.3281916659e+00 
32900 6.2635483586e+00 -6.3902252452e-03 2.4990200841e+00 -4.3284297549e+00 2.4990200841e+00 4.3284297549e+00 
33000 6.2635582809e+00 -5.9073862447e-03 2.4991479398e+00 -4.3286512074e+00 2.4991479398e+00 4.3286512074e+00 
33100 6.2635673484e+00 -5.4227604361e-03 2.4992661288e+00 -4.3288559167e+00 2.4992661288e+00 4.3288559167e+00 
33200 6.2635755020e+00 -4.9377022112e-03 2.4993746166e+00 -4.3290438231e+00 2.4993746166e+00 4.3290438231e+00 
33300 6.2635826961e+00 -4.4535407778e-03 2.4994733960e+00 -4.3292149141e+00 2.4994733960e+00 4.3292149141e+00 
33400 6.2635888977e+00 -3.9715767009e-03 2.4995624861e+00 -4.3293692227e+00 2.4995624861e+00 4.3293692227e+00 
33500 6.2635940870e+00 -3.4930785811e-03 2.4996419320e+00 -4.3295068270e+00 2.4996419320e+00 4.3295068270e+00 
33600 6.2635982564e+00 -3.0192798800e-03 2.4997118039e+00 -4.3296278486e+00 2.4997118039e+00 4.3296278486e+00 
33700 6.2636014105e+00 -2.5513759005e-03 2.4997721967e+00 -4.3297324520e+00 2.4997721967e+00 4.3297324520e+00 
33800 6.2636035655e+00 -2.0905209305e-03 2.4998232290e+00 -4.3298208427e+00 2.4998232290e+00 4.3298208427e+00 
33900 6.2636047484e+00 -1.6378255575e-03 2.4998650425e+00 -4.3298932657e+00 2.4998650425e+00 4.3298932657e+00 
34000 6.2636049960e+00 -1.1943541614e-03 2.4998978009e+00 -4.3299500049e+00 2.4998978009e+00 4.3299500049e+00 
34100 6.2636043546e+00 -7.6112259068e-04 2.4999216890e+00 -4.3299913803e+00 2.4999216890e+00 4.3299913803e+00 
34200 6.2636028785e+00 -3.3909602962e-04 2.4999369119e+00 -4.3300177472e+00 2.4999369119e+00 4.3300177472e+00 
34300 6.2636006294e+00 7.0812940832e-05 2.4999436940e+00 -4.3300294941e+00 2.4999436940e+00 4.3300294941e+00 
34400 6.2635976751e+00 4.6774608252e-04 2.4999422777e+00 -4.3300270410e+00 2.4999422777e+00 4.3300270410e+00 
34500 6.2635940886e+00 8.5090103752e-04 2.4999329226e+00 -4.3300108375e+00 2.4999329226e+00 4.3300108375e+00 
34600 6.2635899470e+00 1.2195326606e-03 2.4999159041e+00 -4.3299813606e+00 2.4999159041e+00 4.3299813606e+00 
34700 6.2635853302e+00 1.5729541451e-03 2.4998915127e+00 -4.3299391134e+00 2.4998915127e+00 4.3299391134e+00 
34800 6.2635803203e+00 1.9105379411e-03 2.4998600523e+00 -4.3298846224e+00 2.4998600523e+00 4.3298846224e+00 
34900 6.2635750000e+00 2.2317164667e-03 2.4998218395e+00 -4.3298184359e+00 2.4998218395e+00 4.3298184359e+00 
35000 6.2635694518e+00 2.5359826116e-03 2.4997772022e+00 -4.3297411217e+00 2.4997772022e+00 4.3297411217e+00 
35100 6.2635637574e+00 2.8228900363e-03 2.4997264782e+00 -4.3296532652e+00 2.4997264782e+00 4.3296532652e+00 
35200 6.2635579960e+00 3.0920532683e-03 2.4996700144e+00 -4.3295554671e+00 2.4996700144e+00 4.3295554671e+00 
35300 6.2635522442e+00 3.3431475992e-03 2.4996081654e+00 -4.3294483415e+00 2.4996081654e+00 4.3294483415e+00 
35400 6.2635465749e+00 3.5759087864e-03 2.4995412923e+00 -4.3293325138e+00 2.4995412923e+00 4.3293325138e+00 
35500 6.2635410566e+00 3.7901325636e-03 2.4994697613e+00 -4.3292086186e+00 2.4994697613e+00 4.3292086186e+00 
35600 6.2635357526e+00 3.9856739677e-03 2.4993939430e+00 -4.3290772974e+00 2.4993939430e+00 4.3290772974e+00 
35700 6.2635307208e+00 4.1624464849e-03 2.4993142106e+00 -4.3289391968e+00 2.4993142106e+00 4.3289391968e+00 
35800 6.2635260133e+00 4.3204210265e-03 2.4992309393e+00 -4.3287949667e+00 2.4992309393e+00 4.3287949667e+00 
35900 6.2635216756e+00 4.4596247383e-03 2.4991445048e+00 -4.3286452577e+00 2.4991445048e+00 4.3286452577e+00 
36000 6.2635177468e+00 4.5801396547e-03 2.4990552823e+00 -4.3284907198e+00 2.4990552823e+00 4.3284907198e+00 
36100 6.2635142591e+00 4.6821012026e-03 2.4989636454e+00 -4.3283320001e+00 2.4989636454e+00 4.3283320001e+00 
36200 6.2635112380e+00 4.7656965670e-03 2.4988699651e+00 -4.3281697411e+00 2.4988699651e+00 4.3281697411e+00 
36300 6.2635087020e+00 4.8311629249e-03 2.4987746087e+00 -4.3280045789e+00 2.4987746087e+00 4.3280045789e+00 
36400 6.2635066631e+00 4.8787855585e-03 2.4986779387e+00 -4.3278371416e+00 2.4986779387e+00 4.3278371416e+00 
36500 6.2635051266e+00 4.9088958564e-03 2.4985803120e+00 -4.3276680471e+00 2.4985803120e+00 4.3276680471e+00 
36600 6.2635040914e+00 4.9218692139e-03 2.4984820789e+00 -4.3274979025e+00 2.4984820789e+00 4.3274979025e+00 
36700 6.2635035504e+00 4.9181228407e-03 2.4983835824e+00 -4.3273273015e+00 2.4983835824e+00 4.3273273015e+00 
36800 6.2635034910e+00 4.8981134874e-03 2.4982851569e+00 -4.3271568236e+00 2.4982851569e+00 4.3271568236e+00 
36900 6.2635038951e+00 4.8623351008e-03 2.4981871281e+00 -4.3269870326e+00 2.4981871281e+00 4.3269870326e+00 
37000 6.2635047399e+00 4.8113164174e-03 2.4980898114e+00 -4.3268184753e+00 2.4980898114e+00 4.3268184753e+00 
37100 6.2635059984e+00 4.7456185059e-03 2.4979935121e+00 -4.3266516800e+00 2.4979935121e+00 4.3266516800e+00 
37200 6.2635076398e+00 4.6658322678e-03 2.4978985241e+00 -4.3264871559e+00 2.4978985241e+00 4.3264871559e+00 
37300 6.2635096299e+00 4.5725759069e-03 2.4978051296e+00 -4.3263253918e+00 2.4978051296e+00 4.3263253918e+00 
37400 6.2635119319e+00 4.4664923767e-03 2.4977135982e+00 -4.3261668549e+00 2.4977135982e+00 4.3261668549e+00 
37500 6.2635145071e+00 4.3482468144e-03 2.4976241872e+00 -4.3260119904e+00 2.4976241872e+00 4.3260119904e+00 
37600 6.2635173151e+00 4.2185239723e-03 2.4975371400e+00 -4.3258612203e+00 2.4975371400e+00 4.3258612203e+00 
37700 6.2635203144e+00 4.0780256536e-03 2.4974526868e+00 -4.3257149430e+00 2.4974526868e+00 4.3257149430e+00 
37800 6.2635234633e+00 3.9274681621e-03 2.4973710435e+00 -4.3255735328e+00 2.4973710435e+00 4.3255735328e+00 
37900 6.2635267200e+00 3.7675797733e-03 2.4972924119e+00 -4.3254373388e+00 2.4972924119e+00 4.3254373388e+00 
38000 6.2635300435e+00 3.5990982360e-03 2.4972169790e+00 -4.3253066851e+00 2.4972169790e+00 4.3253066851e+00 
38100 6.2635333936e+00 3.4227683095e-03 2.4971449171e+00 -4.3251818704e+00 2.4971449171e+00 4.3251818704e+00 
38200 6.2635367317e+00 3.2393393455e-03 2.4970763838e+00 -4.3250631672e+00 2.4970763838e+00 4.3250631672e+00 
38300 6.2635400212e+00 3.0495629202e-03 2.4970115215e+00 -4.3249508223e+00 2.4970115215e+00 4.3249508223e+00 
38400 6.2635432274e+00 2.8541905231e-03 2.4969504575e+00 -4.3248450563e+00 2.4969504575e+00 4.3248450563e+00 
38500 6.2635463186e+00 2.6539713078e-03 2.4968933042e+00 -4.3247460639e+00 2.4968933042e+00 4.3247460639e+00 
38600 6.2635492654e+00 2.4496499111e-03 2.4968401589e+00 -4.3246540135e+00 2.4968401589e+00 4.3246540135e+00 
38700 6.2635520419e+00 2.2419643435e-03 2.4967911040e+00 -4.3245690481e+00 2.4967911040e+00 4.3245690481e+00 
38800 6.2635546250e+00 2.0316439580e-03 2.4967462073e+00 -4.3244912846e+00 2.4967462073e+00 4.3244912846e+00 
38900 6.2635569953e+00 1.8194074987e-03 2.4967055215e+00 -4.3244208148e+00 2.4967055215e+00 4.3244208148e+00 
39000 6.2635591364e+00 1.6059612346e-03 2.4966690855e+00 -4.3243577057e+00 2.4966690855e+00 4.3243577057e+00 
39100 6.2635610356e+00 1.3919971809e-03 2.4966369234e+00 -4.3243019995e+00 2.4966369234e+00 4.3243019995e+00 
39200 6.2635626836e+00 1.1781914111e-03 2.4966090461e+00 -4.3242537144e+00 2.4966090461e+00 4.3242537144e+00 
39300 6.2635640744e+00 9.6520246170e-04 2.4965854503e+00 -4.3242128453e+00 2.4965854503e+00 4.3242128453e+00 
39400 6.2635652054e+00 7.5366983197e-04 2.4965661198e+00 -4.3241793640e+00 2.4965661198e+00 4.3241793640e+00 
39500 6.2635660771e+00 5.4421258044e-04 2.4965510257e+00 -4.3241532202e+00 2.4965510257e+00 4.3241532202e+00 
39600 6.2635666930e+00 3.3742801891e-04 2.4965401264e+00 -4.3241343421e+00 2.4965401264e+00 4.3241343421e+00 
39700 6.2635670594e+00 1.3389050545e-04 2.4965333685e+00 -4.3241226371e+00 2.4965333685e+00 4.3241226371e+00 
39800 6.2635671855e+00 -6.5849663368e-05 2.4965306870e+00 -4.3241179925e+00 2.4965306870e+00 4.3241179925e+00 
39900 6.2635670831e+00 -2.6177437058e-04 2.4965306870e+00 -4.3241179925e+00 2.4965306870e+00 4.3241179925e+00 
40000 6.2635667652e+00 -4.5237565228e-04 2.4965359298e+00 -4.3241270733e+00 2.4965359298e+00 4.3241270733e+00 
40100 6.2635662474e+00 -6.3768306017e-04 2.4965449898e+00 -4.3241427658e+00 2.4965449898e+00 4.3241427658e+00 
40200 6.2635655467e+00 -8.1725162256e-04 2.4965577612e+00 -4.3241648864e+00 2.4965577612e+00 4.3241648864e+00 
40300 6.2635646817e+00 -9.9066447396e-04 2.4965741287e+00 -4.3241932358e+00 2.4965741287e+00 4.3241932358e+00 
40400 6.2635636719e+00 -1.1575333716e-03 2.4965939692e+00 -4.3242276006e+00 2.4965939692e+00 4.3242276006e+00 
40500 6.2635625375e+00 -1.3174991163e-03 2.4966171515e+00 -4.3242677535e+00 2.4966171515e+00 4.3242677535e+00 
40600 6.2635612995e+00 -1.4702318802e-03 2.4966435373e+00 -4.3243134549e+00 2.4966435373e+00 4.3243134549e+00 
40700 6.2635599790e+00 -1.6154314409e-03 2.4966729815e+00 -4.3243644538e+00 2.4966729815e+00 4.3243644538e+00 
40800 6.2635585971e+00 -1.7528273271e-03 2.4967053332e+00 -4.3244204887e+00 2.4967053332e+00 4.3244204887e+00 
40900 6.2635571745e+00 -1.8821788746e-03 2.4967404361e+00 -4.3244812887e+00 2.4967404361e+00 4.3244812887e+00 
41000 6.2635557317e+00 -2.0032751969e-03 2.4967781290e+00 -4.3245465746e+00 2.4967781290e+00 4.3245465746e+00 
41100 6.2635542882e+00 -2.1159350728e-03 2.4968182463e+00 -4.3246160598e+00 2.4968182463e+00 4.3246160598e+00 
41200 6.2635528629e+00 -2.2200067522e-03 2.4968606190e+00 -4.3246894516e+00 2.4968606190e+00 4.3246894516e+00 
41300 6.2635514734e+00 -2.3153676839e-03 2.4969050751e+00 -4.3247664518e+00 2.4969050751e+00 4.3247664518e+00 
41400 6.2635501361e+00 -2.4019241677e-03 2.4969514400e+00 -4.3248467581e+00 2.4969514400e+00 4.3248467581e+00 
41500 6.2635488661e+00 -2.4796109345e-03 2.4969995373e+00 -4.3249300651e+00 2.4969995373e+00 4.3249300651e+00 
41600 6.2635476769e+00 -2.5483906552e-03 2.4970491893e+00 -4.3250160648e+00 2.4970491893e+00 4.3250160648e+00 
41700 6.2635465805e+00 -2.6082533843e-03 2.4971002175e+00 -4.3251044483e+00 2.4971002175e+00 4.3251044483e+00 
41800 6.2635455872e+00 -2.6592159393e-03 2.4971524433e+00 -4.3251949061e+00 2.4971524433e+00 4.3251949061e+00 
41900 6.2635447056e+00 -2.7013212197e-03 2.4972056885e+00 -4.3252871294e+00 2.4972056885e+00 4.3252871294e+00 
42000 6.2635439428e+00 -2.7346374686e-03 2.4972597755e+00 -4.3253808109e+00 2.4972597755e+00 4.3253808109e+00 
42100 6.2635433038e+00 -2.7592574815e-03 2.4973145285e+00 -4.3254756458e+00 2.4973145285e+00 4.3254756458e+00 
42200 6.2635427921e+00 -2.7752977629e-03 2.4973697732e+00 -4.3255713325e+00 2.4973697732e+00 4.3255713325e+00 
42300 6.2635424097e+00 -2.7828976373e-03 2.4974253378e+00 -4.3256675732e+00 2.4974253378e+00 4.3256675732e+00 
42400 6.2635421566e+00 -2.7822183157e-03 2.4974810534e+00 -4.3257640754e+00 2.4974810534e+00 4.3257640754e+00 
42500 6.2635420315e+00 -2.7734419220e-03 2.4975367541e+00 -4.3258605518e+00 2.4975367541e+00 4.3258605518e+00 
42600 6.2635420316e+00 -2.7567704824e-03 2.4975922778e+00 -4.3259567218e+00 2.4975922778e+00 4.3259567218e+00 
42700 6.2635421528e+00 -2.7324248816e-03 2.4976474666e+00 -4.3260523115e+00 2.4976474666e+00 4.3260523115e+00 
42800 6.2635423896e+00 -2.7006437893e-03 2.4977021667e+00 -4.3261470550e+00 2.4977021667e+00 4.3261470550e+00 
42900 6.2635427354e+00 -2.6616825597e-03 2.4977562295e+00 -4.3262406944e+00 2.4977562295e+00 4.3262406944e+00 
43000 6.2635431828e+00 -2.6158121088e-03 2.4978095112e+00 -4.3263329810e+00 2.4978095112e+00 4.3263329810e+00 
43100 6.2635437231e+00 -2.5633177718e-03 2.4978618735e+00 -4.3264236751e+00 2.4978618735e+00 4.3264236751e+00 
43200 6.2635443473e+00 -2.5044981448e-03 2.4979131839e+00 -4.3265125474e+00 2.4979131839e+00 4.3265125474e+00 
43300 6.2635450456e+00 -2.4396639131e-03 2.4979633159e+00 -4.3265993785e+00 2.4979633159e+00 4.3265993785e+00 
43400 6.2635458078e+00 -2.3691366718e-03 2.4980121491e+00 -4.3266839601e+00 2.4980121491e+00 4.3266839601e+00 
43500 6.2635466232e+00 -2.2932477394e-03 2.4980595697e+00 -4.3267660950e+00 2.4980595697e+00 4.3267660950e+00 
43600 6.2635474812e+00 -2.2123369694e-03 2.4981054704e+00 -4.3268455974e+00 2.4981054704e+00 4.3268455974e+00 
43700 6.2635483710e+00 -2.1267515626e-03 2.4981497508e+00 -4.3269222933e+00 2.4981497508e+00 4.3269222933e+00 
43800 6.2635492818e+00 -2.0368448841e-03 2.4981923175e+00 -4.3269960209e+00 2.4981923175e+00 4.3269960209e+00 
43900 6.2635502033e+00 -1.9429752862e-03 2.4982330840e+00 -4.3270666306e+00 2.4982330840e+00 4.3270666306e+00 
44000 6.2635511252e+00 -1.8455049437e-03 2.4982719710e+00 -4.3271339850e+00 2.4982719710e+00 4.3271339850e+00 
44100 6.2635520378e+00 -1.7447987003e-03 2.4983089068e+00 -4.3271979595e+00 2.4983089068e+00 4.3271979595e+00 
44200 6.2635529317e+00 -1.6412229338e-03 2.4983438264e+00 -4.3272584422e+00 2.4983438264e+00 4.3272584422e+00 
44300 6.2635537985e+00 -1.5351444384e-03 2.4983766727e+00 -4.3273153336e+00 2.4983766727e+00 4.3273153336e+00 
44400 6.2635546302e+00 -1.4269293308e-03 2.4984073956e+00 -4.3273685472e+00 2.4984073956e+00 4.3273685472e+00 
44500 6.2635554195e+00 -1.3169419803e-03 2.4984359525e+00 -4.3274180091e+00 2.4984359525e+00 4.3274180091e+00 
44600 6.2635561600e+00 -1.2055439661e-03 2.4984623078e+00 -4.3274636580e+00 2.4984623078e+00 4.3274636580e+00 
44700 6.2635568461e+00 -1.0930930651e-03 2.4984864336e+00 -4.3275054450e+00 2.4984864336e+00 4.3275054450e+00 
44800 6.2635574732e+00 -9.7994227162e-04 2.4985083087e+00 -4.3275433339e+00 2.4985083087e+00 4.3275433339e+00 
44900 6.2635580374e+00 -8.6643885142e-04 2.4985279193e+00 -4.3275773004e+00 2.4985279193e+00 4.3275773004e+00 
45000 6.2635585357e+00 -7.5292343271e-04 2.4985452583e+00 -4.3276073324e+00 2.4985452583e+00 4.3276073324e+00 
45100 6.2635589661e+00 -6.3972913552e-04 2.4985603256e+00 -4.3276334297e+00 2.4985603256e+00 4.3276334297e+00 
45200 6.2635593273e+00 -5.2718074152e-04 2.4985731275e+00 -4.3276556033e+00 2.4985731275e+00 4.3276556033e+00 
45300 6.2635596191e+00 -4.1559390600e-04 2.4985836772e+00 -4.3276738758e+00 2.4985836772e+00 4.3276738758e+00 
45400 6.2635598418e+00 -3.0527441355e-04 2.4985919938e+00 -4.3276882806e+00 2.4985919938e+00 4.3276882806e+00 
45500 6.2635599968e+00 -1.9651747881e-04 2.4985981027e+00 -4.3276988616e+00 2.4985981027e+00 4.3276988616e+00 
45600 6.2635600860e+00 -8.9607093470e-05 2.4986020353e+00 -4.3277056730e+00 2.4986020353e+00 4.3277056730e+00 
45700 6.2635601119e+00 1.5184579251e-05 2.4986038284e+00 -4.3277087788e+00 2.4986038284e+00 4.3277087788e+00 
45800 6.2635600780e+00 1.1771430151e-04 2.4986038284e+00 -4.3277087788e+00 2.4986038284e+00 4.3277087788e+00 
45900 6.2635599879e+00 2.1750342607e-04 2.4986014728e+00 -4.3277046988e+00 2.4986014728e+00 4.3277046988e+00 
46000 6.2635598459e+00 3.1443374013e-04 2.4985971203e+00 -4.3276971600e+00 2.4985971203e+00 4.3276971600e+00 
46100 6.2635596567e+00 4.0828547087e-04 2.4985908281e+00 -4.3276862616e+00 2.4985908281e+00 4.3276862616e+00 
46200 6.2635594252e+00 4.9885296301e-04 2.4985826578e+00 -4.3276721102e+00 2.4985826578e+00 4.3276721102e+00 
46300 6.2635591568e+00 5.8594498641e-04 2.4985726751e+00 -4.3276548196e+00 2.4985726751e+00 4.3276548196e+00 
46400 6.2635588568e+00 6.6938499328e-04 2.4985609495e+00 -4.3276345103e+00 2.4985609495e+00 4.3276345103e+00 
46500 6.2635585309e+00 7.4901132509e-04 2.4985475541e+00 -4.3276113088e+00 2.4985475541e+00 4.3276113088e+00 
46600 6.2635581847e+00 8.2467736981e-04 2.4985325652e+00 -4.3275853472e+00 2.4985325652e+00 4.3275853472e+00 
46700 6.2635578237e+00 8.9625166968e-04 2.4985160620e+00 -4.3275567628e+00 2.4985160620e+00 4.3275567628e+00 
46800 6.2635574535e+00 9.6361798047e-04 2.4984981263e+00 -4.3275256974e+00 2.4984981263e+00 4.3275256974e+00 
46900 6.2635570794e+00 1.0266752829e-03 2.4984788424e+00 -4.3274922966e+00 2.4984788424e+00 4.3274922966e+00 
47000 6.2635567066e+00 1.0853377472e-03 2.4984582964e+00 -4.3274567100e+00 2.4984582964e+00 4.3274567100e+00 
47100 6.2635563399e+00 1.1395346519e-03 2.4984365763e+00 -4.3274190896e+00 2.4984365763e+00 4.3274190896e+00 
47200 6.2635559840e+00 1.1892102585e-03 2.4984137714e+00 -4.3273795903e+00 2.4984137714e+00 4.3273795903e+00 
47300 6.2635556432e+00 1.2343236421e-03 2.4983899721e+00 -4.3273383688e+00 2.4983899721e+00 4.3273383688e+00 
47400 6.2635553212e+00 1.2748484813e-03 2.4983652698e+00 -4.3272955831e+00 2.4983652698e+00 4.3272955831e+00 
47500 6.2635550216e+00 1.3107728072e-03 2.4983397561e+00 -4.3272513922e+00 2.4983397561e+00 4.3272513922e+00 
47600 6.2635547474e+00 1.3420987148e-03 2.4983135233e+00 -4.3272059556e+00 2.4983135233e+00 4.3272059556e+00 
47700 6.2635545013e+00 1.3688420365e-03 2.4982866633e+00 -4.3271594326e+00 2.4982866633e+00 4.3271594326e+00 
47800 6.2635542853e+00 1.3910319818e-03 2.4982592677e+00 -4.3271119821e+00 2.4982592677e+00 4.3271119821e+00 
47900 6.2635541011e+00 1.4087107436e-03 2.4982314277e+00 -4.3270637619e+00 2.4982314277e+00 4.3270637619e+00 
48000 6.2635539500e+00 1.4219330736e-03 2.4982032336e+00 -4.3270149283e+00 2.4982032336e+00 4.3270149283e+00 
48100 6.2635538327e+00 1.4307658287e-03 2.4981747746e+00 -4.3269656357e+00 2.4981747746e+00 4.3269656357e+00 
48200 6.2635537496e+00 1.4352874906e-03 2.4981461384e+00 -4.3269160364e+00 2.4981461384e+00 4.3269160364e+00 
48300 6.2635537005e+00 1.4355876610e-03 2.4981174114e+00 -4.3268662798e+00 2.4981174114e+00 4.3268662798e+00 
48400 6.2635536850e+00 1.4317665339e-03 2.4980886781e+00 -4.3268165122e+00 2.4980886781e+00 4.3268165122e+00 
48500 6.2635537022e+00 1.4239343474e-03 2.4980600209e+00 -4.3267668765e+00 2.4980600209e+00 4.3267668765e+00 
48600 6.2635537508e+00 1.4122108182e-03 2.4980315201e+00 -4.3267175118e+00 2.4980315201e+00 4.3267175118e+00 
48700 6.2635538293e+00 1.3967245591e-03 2.4980032537e+00 -4.3266685529e+00 2.4980032537e+00 4.3266685529e+00 
48800 6.2635539358e+00 1.3776124835e-03 2.4979752969e+00 -4.3266201303e+00 2.4979752969e+00 4.3266201303e+00 
48900 6.2635540682e+00 1.3550191981e-03 2.4979477224e+00 -4.3265723699e+00 2.4979477224e+00 4.3265723699e+00 
49000 6.2635542243e+00 1.3290963862e-03 2.4979205998e+00 -4.3265253921e+00 2.4979205998e+00 4.3265253921e+00 
49100 6.2635544014e+00 1.3000021840e-03 2.4978939958e+00 -4.3264793126e+00 2.4978939958e+00 4.3264793126e+00 
49200 6.2635545970e+00 1.2679005517e-03 2.4978679739e+00 -4.3264342414e+00 2.4978679739e+00 4.3264342414e+00 
49300 6.2635548082e+00 1.2329606414e-03 2.4978425943e+00 -4.3263902826e+00 2.4978425943e+00 4.3263902826e+00 
49400 6.2635550324e+00 1.1953561648e-03 2.4978179138e+00 -4.3263475347e+00 2.4978179138e+00 4.3263475347e+00 
49500 6.2635552665e+00 1.1552647607e-03 2.4977939858e+00 -4.3263060903e+00 2.4977939858e+00 4.3263060903e+00 
49600 6.2635555079e+00 1.1128673671e-03 2.4977708602e+00 -4.3262660355e+00 2.4977708602e+00 4.3262660355e+00 
49700 6.2635557536e+00 1.0683475966e-03 2.4977485830e+00 -4.3262274503e+00 2.4977485830e+00 4.3262274503e+00 
49800 6.2635560009e+00 1.0218911194e-03 2.4977271968e+00 -4.3261904083e+00 2.4977271968e+00 4.3261904083e+00 
49900 6.2635562472e+00 9.7368505493e-04 2.4977067404e+00 -4.3261549768e+00 2.4977067404e+00 4.3261549768e+00 
50000 6.2635564900e+00 9.2391737247e-04 2.4976872489e+00 -4.3261212164e+00 2.4976872489e+00 4.3261212164e+00 
50100 6.2635567268e+00 8.7277630483e-04 2.4976687534e+00 -4.3260891814e+00 2.4976687534e+00 4.3260891814e+00 
50200 6.2635569556e+00 8.2044977422e-04 2.4976512816e+00 -4.3260589194e+00 2.4976512816e+00 4.3260589194e+00 
50300 6.2635571742e+00 7.6712483331e-04 2.4976348572e+00 -4.3260304714e+00 2.4976348572e+00 4.3260304714e+00 
50400 6.2635573810e+00 7.1298712209e-04 2.4976195002e+00 -4.3260038723e+00 2.4976195002e+00 4.3260038723e+00 
50500 6.2635575742e+00 6.5822034202e-04 2.4976052269e+00 -4.3259791502e+00 2.4976052269e+00 4.3259791502e+00 
50600 6.2635577525e+00 6.0300574867e-04 2.4975920499e+00 -4.3259563269e+00 2.4975920499e+00 4.3259563269e+00 
50700 6.2635579149e+00 5.4752166378e-04 2.4975799781e+00 -4.3259354181e+00 2.4975799781e+00 4.3259354181e+00 
50800 6.2635580604e+00 4.9194300800e-04 2.4975690171e+00 -4.3259164330e+00 2.4975690171e+00 4.3259164330e+00 
50900 6.2635581883e+00 4.3644085491e-04 2.4975591687e+00 -4.3258993750e+00 2.4975591687e+00 4.3258993750e+00 
51000 6.2635582982e+00 3.8118200733e-04 2.4975504313e+00 -4.3258842415e+00 2.4975504313e+00 4.3258842415e+00 
51100 6.2635583900e+00 3.2632859668e-04 2.4975428002e+00 -4.3258710240e+00 2.4975428002e+00 4.3258710240e+00 
51200 6.2635584635e+00 2.7203770583e-04 2.4975362672e+00 -4.3258597086e+00 2.4975362672e+00 4.3258597086e+00 
51300 6.2635585192e+00 2.1846101621e-04 2.4975308211e+00 -4.3258502756e+00 2.4975308211e+00 4.3258502756e+00 
51400 6.2635585572e+00 1.6574447945e-04 2.4975264476e+00 -4.3258427004e+00 2.4975264476e+00 4.3258427004e+00 
51500 6.2635585784e+00 1.1402801410e-04 2.4975231294e+00 -4.3258369532e+00 2.4975231294e+00 4.3258369532e+00 
51600 6.2635585833e+00 6.3445227601e-05 2.4975208466e+00 -4.3258329992e+00 2.4975208466e+00 4.3258329992e+00 
51700 6.2635585730e+00 1.4611146505e-05 2.4975208466e+00 -4.3258329992e+00 2.4975208466e+00 4.3258329992e+00 
51800 6.2635585484e+00 -3.3212161100e-05 2.4975208466e+00 -4.3258329992e+00 2.4975208466e+00 4.3258329992e+00 
51900 6.2635585109e+00 -7.9907387520e-05 2.4975208466e+00 -4.3258329992e+00 2.4975208466e+00 4.3258329992e+00 
52000 6.2635584615e+00 -1.2474921488e-04 2.4975224463e+00 -4.3258357700e+00 2.4975224463e+00 4.3258357700e+00 
52100 6.2635584018e+00 -1.6789167967e-04 2.4975249438e+00 -4.3258400958e+00 2.4975249438e+00 4.3258400958e+00 
52200 6.2635583330e+00 -2.0924346373e-04 2.4975283049e+00 -4.3258459175e+00 2.4975283049e+00 4.3258459175e+00 
52300 6.2635582567e+00 -2.4872079317e-04 2.4975324939e+00 -4.3258531730e+00 2.4975324939e+00 4.3258531730e+00 
52400 6.2635581742e+00 -2.8624751297e-04 2.4975374733e+00 -4.3258617975e+00 2.4975374733e+00 4.3258617975e+00 
52500 6.2635580871e+00 -3.2175513726e-04 2.4975432039e+00 -4.3258717232e+00 2.4975432039e+00 4.3258717232e+00 
52600 6.2635579968e+00 -3.5518287555e-04 2.4975496453e+00 -4.3258828801e+00 2.4975496453e+00 4.3258828801e+00 
52700 6.2635579046e+00 -3.8647763562e-04 2.4975567559e+00 -4.3258951961e+00 2.4975567559e+00 4.3258951961e+00 
52800 6.2635578120e+00 -4.1559400340e-04 2.4975644930e+00 -4.3259085971e+00 2.4975644930e+00 4.3259085971e+00 
52900 6.2635577203e+00 -4.4249420062e-04 2.4975728130e+00 -4.3259230078e+00 2.4975728130e+00 4.3259230078e+00 
53000 6.2635576306e+00 -4.6714802081e-04 2.4975816715e+00 -4.3259383511e+00 2.4975816715e+00 4.3259383511e+00 
53100 6.2635575442e+00 -4.8953274432e-04 2.4975910235e+00 -4.3259545493e+00 2.4975910235e+00 4.3259545493e+00 
53200 6.2635574621e+00 -5.0963303322e-04 2.4976008236e+00 -4.3259715236e+00 2.4976008236e+00 4.3259715236e+00 
53300 6.2635573853e+00 -5.2744080663e-04 2.4976110261e+00 -4.3259891948e+00 2.4976110261e+00 4.3259891948e+00 
53400 6.2635573146e+00 -5.4295509766e-04 2.4976215850e+00 -4.3260074833e+00 2.4976215850e+00 4.3260074833e+00 
53500 6.2635572507e+00 -5.5618189239e-04 2.4976324545e+00 -4.3260263098e+00 2.4976324545e+00 4.3260263098e+00 
53600 6.2635571942e+00 -5.6713395213e-04 2.4976435887e+00 -4.3260455948e+00 2.4976435887e+00 4.3260455948e+00 
53700 6.2635571457e+00 -5.7583061965e-04 2.4976549420e+00 -4.3260652594e+00 2.4976549420e+00 4.3260652594e+00 
53800 6.2635571055e+00 -5.8229761043e-04 2.4976664695e+00 -4.3260852255e+00 2.4976664695e+00 4.3260852255e+00 
53900 6.2635570739e+00 -5.8656678978e-04 2.4976781263e+00 -4.3261054157e+00 2.4976781263e+00 4.3261054157e+00 
54000 6.2635570511e+00 -5.8867593691e-04 2.4976898686e+00 -4.3261257539e+00 2.4976898686e+00 4.3261257539e+00 
54100 6.2635570370e+00 -5.8866849688e-04 2.4977016530e+00 -4.3261461651e+00 2.4977016530e+00 4.3261461651e+00 
54200 6.2635570315e+00 -5.8659332141e-04 2.4977134372e+00 -4.3261665760e+00 2.4977134372e+00 4.3261665760e+00 
54300 6.2635570346e+00 -5.8250439964e-04 2.4977251798e+00 -4.3261869148e+00 2.4977251798e+00 4.3261869148e+00 
54400 6.2635570459e+00 -5.7646057968e-04 2.4977368405e+00 -4.3262071117e+00 2.4977368405e+00 4.3262071117e+00 
54500 6.2635570651e+00 -5.6852528226e-04 2.4977483802e+00 -4.3262270990e+00 2.4977483802e+00 4.3262270990e+00 
54600 6.2635570918e+00 -5.5876620712e-04 2.4977597610e+00 -4.3262468111e+00 2.4977597610e+00 4.3262468111e+00 
54700 6.2635571253e+00 -5.4725503354e-04 2.4977709463e+00 -4.3262661847e+00 2.4977709463e+00 4.3262661847e+00 
54800 6.2635571653e+00 -5.3406711566e-04 2.4977819012e+00 -4.3262851591e+00 2.4977819012e+00 4.3262851591e+00 
54900 6.2635572109e+00 -5.1928117395e-04 2.4977925920e+00 -4.3263036762e+00 2.4977925920e+00 4.3263036762e+00 
55000 6.2635572617e+00 -5.0297898346e-04 2.4978029868e+00 -4.3263216805e+00 2.4978029868e+00 4.3263216805e+00 
55100 6.2635573168e+00 -4.8524506011e-04 2.4978130553e+00 -4.3263391195e+00 2.4978130553e+00 4.3263391195e+00 
55200 6.2635573756e+00 -4.6616634587e-04 2.4978227687e+00 -4.3263559436e+00 2.4978227687e+00 4.3263559436e+00 
55300 6.2635574373e+00 -4.4583189374e-04 2.4978321001e+00 -4.3263721062e+00 2.4978321001e+00 4.3263721062e+00 
55400 6.2635575013e+00 -4.2433255357e-04 2.4978410245e+00 -4.3263875637e+00 2.4978410245e+00 4.3263875637e+00 
55500 6.2635575667e+00 -4.0176065950e-04 2.4978495185e+00 -4.3264022757e+00 2.4978495185e+00 4.3264022757e+00 
55600 6.2635576328e+00 -3.7820971997e-04 2.4978575606e+00 -4.3264162051e+00 2.4978575606e+00 4.3264162051e+00 
55700 6.2635576991e+00 -3.5377411116e-04 2.4978651313e+00 -4.3264293179e+00 2.4978651313e+00 4.3264293179e+00 
55800 6.2635577647e+00 -3.2854877469e-04 2.4978722129e+00 -4.3264415835e+00 2.4978722129e+00 4.3264415835e+00 
55900 6.2635578291e+00 -3.0262892029e-04 2.4978787894e+00 -4.3264529745e+00 2.4978787894e+00 4.3264529745e+00 
56000 6.2635578916e+00 -2.7610973437e-04 2.4978848472e+00 -4.3264634667e+00 2.4978848472e+00 4.3264634667e+00 
56100 6.2635579518e+00 -2.4908609501e-04 2.4978903740e+00 -4.3264730396e+00 2.4978903740e+00 4.3264730396e+00 
56200 6.2635580091e+00 -2.2165229432e-04 2.4978953600e+00 -4.3264816754e+00 2.4978953600e+00 4.3264816754e+00 
56300 6.2635580632e+00 -1.9390176863e-04 2.4978997967e+00 -4.3264893602e+00 2.4978997967e+00 4.3264893602e+00 
56400 6.2635581135e+00 -1.6592683720e-04 2.4979036780e+00 -4.3264960828e+00 2.4979036780e+00 4.3264960828e+00 
56500 6.2635581598e+00 -1.3781845006e-04 2.4979069994e+00 -4.3265018355e+00 2.4979069994e+00 4.3265018355e+00 
56600 6.2635582019e+00 -1.0966594558e-04 2.4979097580e+00 -4.3265066137e+00 2.4979097580e+00 4.3265066137e+00 
56700 6.2635582395e+00 -8.1556818138e-05 2.4979119532e+00 -4.3265104158e+00 2.4979119532e+00 4.3265104158e+00 
56800 6.2635582724e+00 -5.3576496459e-05 2.4979135857e+00 -4.3265132433e+00 2.4979135857e+00 4.3265132433e+00 
56900 6.2635583007e+00 -2.6219973218e-05 2.4979135857e+00 -4.3265132433e+00 2.4979135857e+00 4.3265132433e+00 
57000 6.2635583242e+00 1.0495925203e-06 2.4979135857e+00 -4.3265132433e+00 2.4979135857e+00 4.3265132433e+00 
57100 6.2635583430e+00 2.8155549629e-05 2.4979135857e+00 -4.3265132433e+00 2.4979135857e+00 4.3265132433e+00 
57200 6.2635583572e+00 5.5023664962e-05 2.4979135857e+00 -4.3265132433e+00 2.4979135857e+00 4.3265132433e+00 
57300 6.2635583670e+00 8.1582297635e-05 2.4979135857e+00 -4.3265132433e+00 2.4979135857e+00 4.3265132433e+00 
57400 6.2635583724e+00 1.0713533401e-04 2.4979119527e+00 -4.3265104149e+00 2.4979119527e+00 4.3265104149e+00 
57500 6.2635583738e+00 1.3203569401e-04 2.4979098082e+00 -4.3265067005e+00 2.4979098082e+00 4.3265067005e+00 
57600 6.2635583713e+00 1.5622106872e-04 2.4979071653e+00 -4.3265021228e+00 2.4979071653e+00 4.3265021228e+00 
57700 6.2635583653e+00 1.7963267154e-04 2.4979040382e+00 -4.3264967066e+00 2.4979040382e+00 4.3264967066e+00 
57800 6.2635583561e+00 2.0221533682e-04 2.4979004426e+00 -4.3264904788e+00 2.4979004426e+00 4.3264904788e+00 
57900 6.2635583440e+00 2.2391760540e-04 2.4978963949e+00 -4.3264834679e+00 2.4978963949e+00 4.3264834679e+00 
58000 6.2635583293e+00 2.4469179723e-04 2.4978919127e+00 -4.3264757047e+00 2.4978919127e+00 4.3264757047e+00 
58100 6.2635583125e+00 2.6449407090e-04 2.4978870148e+00 -4.3264672211e+00 2.4978870148e+00 4.3264672211e+00 
58200 6.2635582939e+00 2.8328447035e-04 2.4978817204e+00 -4.3264580511e+00 2.4978817204e+00 4.3264580511e+00 
58300 6.2635582739e+00 3.0102695893e-04 2.4978760499e+00 -4.3264482295e+00 2.4978760499e+00 4.3264482295e+00 
58400 6.2635582528e+00 3.1768944082e-04 2.4978700243e+00 -4.3264377927e+00 2.4978700243e+00 4.3264377927e+00 
58500 6.2635582311e+00 3.3324377019e-04 2.4978636651e+00 -4.3264267783e+00 2.4978636651e+00 4.3264267783e+00 
58600 6.2635582091e+00 3.4766574823e-04 2.4978569945e+00 -4.3264152245e+00 2.4978569945e+00 4.3264152245e+00 
58700 6.2635581871e+00 3.6093510844e-04 2.4978500352e+00 -4.3264031707e+00 2.4978500352e+00 4.3264031707e+00 
58800 6.2635581655e+00 3.7303549035e-04 2.4978428103e+00 -4.3263906568e+00 2.4978428103e+00 4.3263906568e+00 
58900 6.2635581446e+00 3.8395440213e-04 2.4978353432e+00 -4.3263777233e+00 2.4978353432e+00 4.3263777233e+00 
59000 6.2635581247e+00 3.9368317234e-04 2.4978276574e+00 -4.3263644112e+00 2.4978276574e+00 4.3263644112e+00 
59100 6.2635581060e+00 4.0221689136e-04 2.4978197769e+00 -4.3263507618e+00 2.4978197769e+00 4.3263507618e+00 
59200 6.2635580888e+00 4.0955434268e-04 2.4978117256e+00 -4.3263368164e+00 2.4978117256e+00 4.3263368164e+00 
59300 6.2635580732e+00 4.1569792471e-04 2.4978035273e+00 -4.3263226166e+00 2.4978035273e+00 4.3263226166e+00 
59400 6.2635580595e+00 4.2065356349e-04 2.4977952060e+00 -4.3263082037e+00 2.4977952060e+00 4.3263082037e+00 
59500 6.2635580478e+00 4.2443061659e-04 2.4977867855e+00 -4.3262936190e+00 2.4977867855e+00 4.3262936190e+00 
59600 6.2635580382e+00 4.2704176904e-04 2.4977782894e+00 -4.3262789033e+00 2.4977782894e+00 4.3262789033e+00 
59700 6.2635580308e+00 4.2850292143e-04 2.4977697410e+00 -4.3262640970e+00 2.4977697410e+00 4.3262640970e+00 
59800 6.2635580257e+00 4.2883307094e-04 2.4977611633e+00 -4.3262492400e+00 2.4977611633e+00 4.3262492400e+00 
59900 6.2635580228e+00 4.2805418564e-04 2.4977525789e+00 -4.3262343714e+00 2.4977525789e+00 4.3262343714e+00 
60000 6.2635580221e+00 4.2619107279e-04 2.4977440101e+00 -4.3262195299e+00 2.4977440101e+00 4.3262195299e+00 
60100 6.2635580237e+00 4.2327124149e-04 2.4977354786e+00 -4.3262047529e+00 2.4977354786e+00 4.3262047529e+00 
60200 6.2635580275e+00 4.1932476029e-04 2.4977270055e+00 -4.3261900770e+00 2.4977270055e+00 4.3261900770e+00 
60300 6.2635580333e+00 4.1438411037e-04 2.4977186114e+00 -4.3261755380e+00 2.4977186114e+00 4.3261755380e+00 
60400 6.2635580411e+00 4.0848403472e-04 2.4977103162e+00 -4.3261611702e+00 2.4977103162e+00 4.3261611702e+00 
60500 6.2635580508e+00 4.0166138393e-04 2.4977021390e+00 -4.3261470069e+00 2.4977021390e+00 4.3261470069e+00 
60600 6.2635580621e+00 3.9395495916e-04 2.4976940984e+00 -4.3261330802e+00 2.4976940984e+00 4.3261330802e+00 
60700 6.2635580750e+00 3.8540535276e-04 2.4976862120e+00 -4.3261194206e+00 2.4976862120e+00 4.3261194206e+00 
60800 6.2635580894e+00 3.7605478711e-04 2.4976784968e+00 -4.3261060574e+00 2.4976784968e+00 4.3261060574e+00 
60900 6.2635581049e+00 3.6594695219e-04 2.4976709687e+00 -4.3260930184e+00 2.4976709687e+00 4.3260930184e+00 
61000 6.2635581214e+00 3.5512684247e-04 2.4976636429e+00 -4.3260803298e+00 2.4976636429e+00 4.3260803298e+00 
61100 6.2635581388e+00 3.4364059348e-04 2.4976565338e+00 -4.3260680163e+00 2.4976565338e+00 4.3260680163e+00 
61200 6.2635581568e+00 3.3153531873e-04 2.4976496545e+00 -4.3260561011e+00 2.4976496545e+00 4.3260561011e+00 
61300 6.2635581752e+00 3.1885894731e-04 2.4976430176e+00 -4.3260446056e+00 2.4976430176e+00 4.3260446056e+00 
61400 6.2635581939e+00 3.0566006279e-04 2.4976366344e+00 -4.3260335496e+00 2.4976366344e+00 4.3260335496e+00 
61500 6.2635582127e+00 2.9198774371e-04 2.4976305154e+00 -4.3260229512e+00 2.4976305154e+00 4.3260229512e+00 
61600 6.2635582314e+00 2.7789140627e-04 2.4976246701e+00 -4.3260128268e+00 2.4976246701e+00 4.3260128268e+00 
61700 6.2635582498e+00 2.6342064953e-04 2.4976191070e+00 -4.3260031912e+00 2.4976191070e+00 4.3260031912e+00 
61800 6.2635582678e+00 2.4862510351e-04 2.4976138335e+00 -4.3259940574e+00 2.4976138335e+00 4.3259940574e+00 
61900 6.2635582852e+00 2.3355428072e-04 2.4976088563e+00 -4.3259854365e+00 2.4976088563e+00 4.3259854365e+00 
62000 6.2635583018e+00 2.1825743137e-04 2.4976041807e+00 -4.3259773382e+00 2.4976041807e+00 4.3259773382e+00 
62100 6.2635583177e+00 2.0278340255e-04 2.4975998114e+00 -4.3259697703e+00 2.4975998114e+00 4.3259697703e+00 
62200 6.2635583325e+00 1.8718050191e-04 2.4975957518e+00 -4.3259627389e+00 2.4975957518e+00 4.3259627389e+00 
62300 6.2635583464e+00 1.7149636597e-04 2.4975920046e+00 -4.3259562486e+00 2.4975920046e+00 4.3259562486e+00 
62400 6.2635583591e+00 1.5577783340e-04 2.4975885714e+00 -4.3259503020e+00 2.4975885714e+00 4.3259503020e+00 
62500 6.2635583707e+00 1.4007082356e-04 2.4975854528e+00 -4.3259449005e+00 2.4975854528e+00 4.3259449005e+00 
62600 6.2635583810e+00 1.2442022052e-04 2.4975826487e+00 -4.3259400436e+00 2.4975826487e+00 4.3259400436e+00 
62700 6.2635583901e+00 1.0886976278e-04 2.4975801579e+00 -4.3259357294e+00 2.4975801579e+00 4.3259357294e+00 
62800 6.2635583979e+00 9.3461938901e-05 2.4975779784e+00 -4.3259319544e+00 2.4975779784e+00 4.3259319544e+00 
62900 6.2635584045e+00 7.8237889187e-05 2.4975761073e+00 -4.3259287137e+00 2.4975761073e+00 4.3259287137e+00 
63000 6.2635584098e+00 6.3237313611e-05 2.4975745411e+00 -4.3259260008e+00 2.4975745411e+00 4.3259260008e+00 
63100 6.2635584139e+00 4.8984840576e-05 2.4975745411e+00 -4.3259260008e+00 2.4975745411e+00 4.3259260008e+00 
63200 6.2635584168e+00 3.4926349973e-05 2.4975745411e+00 -4.3259260008e+00 2.4975745411e+00 4.3259260008e+00 
63300 6.2635584186e+00 2.1097402310e-05 2.4975745411e+00 -4.3259260008e+00 2.4975745411e+00 4.3259260008e+00 
63400 6.2635584193e+00 7.5320070694e-06 2.4975745411e+00 -4.3259260008e+00 2.4975745411e+00 4.3259260008e+00 
63500 6.2635584190e+00 -5.7374470654e-06 2.4975745411e+00 -4.3259260008e+00 2.4975745411e+00 4.3259260008e+00 
63600 6.2635584178e+00 -1.8680254222e-05 2.4975745411e+00 -4.3259260008e+00 2.4975745411e+00 4.3259260008e+00 
63700 6.2635584158e+00 -3.1267445784e-05 2.4975745411e+00 -4.3259260008e+00 2.4975745411e+00 4.3259260008e+00 
63800 6.2635584131e+00 -4.3471837345e-05 2.4975745411e+00 -4.3259260008e+00 2.4975745411e+00 4.3259260008e+00 
63900 6.2635584098e+00 -5.5268068321e-05 2.4975745411e+00 -4.3259260008e+00 2.4975745411e+00 4.3259260008e+00 
64000 6.2635584060e+00 -6.6632634300e-05 2.4975745411e+00 -4.3259260008e+00 2.4975745411e+00 4.3259260008e+00 
64100 6.2635584019e+00 -7.7543912411e-05 2.4975745411e+00 -4.3259260008e+00 2.4975745411e+00 4.3259260008e+00 
64200 6.2635583973e+00 -8.7385771126e-05 2.4975760934e+00 -4.3259286896e+00 2.4975760934e+00 4.3259286896e+00 
64300 6.2635583925e+00 -9.6649896490e-05 2.4975778429e+00 -4.3259317197e+00 2.4975778429e+00 4.3259317197e+00 
64400 6.2635583875e+00 -1.0532279499e-04 2.4975797777e+00 -4.3259350710e+00 2.4975797777e+00 4.3259350710e+00 
64500 6.2635583825e+00 -1.1339299811e-04 2.4975818862e+00 -4.3259387230e+00 2.4975818862e+00 4.3259387230e+00 
64600 6.2635583775e+00 -1.2085105179e-04 2.4975841563e+00 -4.3259426549e+00 2.4975841563e+00 4.3259426549e+00 
64700 6.2635583727e+00 -1.2768949992e-04 2.4975865756e+00 -4.3259468453e+00 2.4975865756e+00 4.3259468453e+00 
64800 6.2635583681e+00 -1.3390286248e-04 2.4975891319e+00 -4.3259512729e+00 2.4975891319e+00 4.3259512729e+00 
64900 6.2635583637e+00 -1.3948760805e-04 2.4975918125e+00 -4.3259559159e+00 2.4975918125e+00 4.3259559159e+00 
65000 6.2635583597e+00 -1.4444212129e-04 2.4975946050e+00 -4.3259607525e+00 2.4975946050e+00 4.3259607525e+00 
65100 6.2635583561e+00 -1.4876666542e-04 2.4975974966e+00 -4.3259657610e+00 2.4975974966e+00 4.3259657610e+00 
65200 6.2635583529e+00 -1.5246333987e-04 2.4976004748e+00 -4.3259709194e+00 2.4976004748e+00 4.3259709194e+00 
65300 6.2635583502e+00 -1.5553603354e-04 2.4976035270e+00 -4.3259762059e+00 2.4976035270e+00 4.3259762059e+00 
65400 6.2635583481e+00 -1.5799037369e-04 2.4976066407e+00 -4.3259815990e+00 2.4976066407e+00 4.3259815990e+00 
65500 6.2635583465e+00 -1.5983367087e-04 2.4976098035e+00 -4.3259870772e+00 2.4976098035e+00 4.3259870772e+00 
65600 6.2635583455e+00 -1.6107486007e-04 2.4976130033e+00 -4.3259926193e+00 2.4976130033e+00 4.3259926193e+00 
65700 6.2635583450e+00 -1.6172443838e-04 2.4976162279e+00 -4.3259982044e+00 2.4976162279e+00 4.3259982044e+00 
65800 6.2635583452e+00 -1.6179439936e-04 2.4976194654e+00 -4.3260038121e+00 2.4976194654e+00 4.3260038121e+00 
65900 6.2635583459e+00 -1.6129816452e-04 2.4976227044e+00 -4.3260094222e+00 2.4976227044e+00 4.3260094222e+00 
66000 6.2635583472e+00 -1.6025051202e-04 2.4976259334e+00 -4.3260150150e+00 2.4976259334e+00 4.3260150150e+00 
66100 6.2635583490e+00 -1.5866750300e-04 2.4976291415e+00 -4.3260205715e+00 2.4976291415e+00 4.3260205715e+00 
66200 6.2635583514e+00 -1.5656640573e-04 2.4976323179e+00 -4.3260260732e+00 2.4976323179e+00 4.3260260732e+00 
66300 6.2635583543e+00 -1.5396561789e-04 2.4976354522e+00 -4.3260315019e+00 2.4976354522e+00 4.3260315019e+00 
66400 6.2635583576e+00 -1.5088458724e-04 2.4976385344e+00 -4.3260368405e+00 2.4976385344e+00 4.3260368405e+00 
66500 6.2635583614e+00 -1.4734373089e-04 2.4976415549e+00 -4.3260420722e+00 2.4976415549e+00 4.3260420722e+00 
66600 6.2635583655e+00 -1.4336435366e-04 2.4976445046e+00 -4.3260471812e+00 2.4976445046e+00 4.3260471812e+00 
66700 6.2635583700e+00 -1.3896856545e-04 2.4976473746e+00 -4.3260521522e+00 2.4976473746e+00 4.3260521522e+00 
66800 6.2635583747e+00 -1.3417919817e-04 2.4976501566e+00 -4.3260569707e+00 2.4976501566e+00 4.3260569707e+00 
66900 6.2635583797e+00 -1.2901972241e-04 2.4976528427e+00 -4.3260616232e+00 2.4976528427e+00 4.3260616232e+00 
67000 6.2635583849e+00 -1.2351416404e-04 2.4976554255e+00 -4.3260660968e+00 2.4976554255e+00 4.3260660968e+00 
67100 6.2635583903e+00 -1.1768702100e-04 2.4976578981e+00 -4.3260703794e+00 2.4976578981e+00 4.3260703794e+00 
67200 6.2635583957e+00 -1.1156318059e-04 2.4976602540e+00 -4.3260744601e+00 2.4976602540e+00 4.3260744601e+00 
67300 6.2635584012e+00 -1.0516783750e-04 2.4976624874e+00 -4.3260783283e+00 2.4976624874e+00 4.3260783283e+00 
67400 6.2635584066e+00 -9.8526412646e-05 2.4976645927e+00 -4.3260819749e+00 2.4976645927e+00 4.3260819749e+00 
67500 6.2635584120e+00 -9.1664473262e-05 2.4976665651e+00 -4.3260853911e+00 2.4976665651e+00 4.3260853911e+00 
67600 6.2635584174e+00 -8.4607654272e-05 2.4976684001e+00 -4.3260885694e+00 2.4976684001e+00 4.3260885694e+00 
67700 6.2635584225e+00 -7.7381581267e-05 2.4976700938e+00 -4.3260915031e+00 2.4976700938e+00 4.3260915031e+00 
67800 6.2635584276e+00 -7.0011795185e-05 2.4976716429e+00 -4.3260941861e+00 2.4976716429e+00 4.3260941861e+00 
67900 6.2635584324e+00 -6.3062080552e-05 2.4976716429e+00 -4.3260941861e+00 2.4976716429e+00 4.3260941861e+00 
68000 6.2635584371e+00 -5.5971753792e-05 2.4976716429e+00 -4.3260941861e+00 2.4976716429e+00 4.3260941861e+00 
68100 6.2635584414e+00 -4.8764427040e-05 2.4976716429e+00 -4.3260941861e+00 2.4976716429e+00 4.3260941861e+00 
68200 6.2635584454e+00 -4.1463464620e-05 2.4976716429e+00 -4.3260941861e+00 2.4976716429e+00 4.3260941861e+00 
68300 6.2635584491e+00 -3.4091914205e-05 2.4976716429e+00 -4.3260941861e+00 2.4976716429e+00 4.3260941861e+00 
68400 6.2635584525e+00 -2.6672441342e-05 2.4976716429e+00 -4.3260941861e+00 2.4976716429e+00 4.3260941861e+00 
68500 6.2635584555e+00 -1.9227267355e-05 2.4976716429e+00 -4.3260941861e+00 2.4976716429e+00 4.3260941861e+00 
68600 6.2635584582e+00 -1.1778110697e-05 2.4976716429e+00 -4.3260941861e+00 2.4976716429e+00 4.3260941861e+00 
68700 6.2635584606e+00 -4.3461318118e-06 2.4976716429e+00 -4.3260941861e+00 2.4976716429e+00 4.3260941861e+00 
68800 6.2635584626e+00 3.0481184928e-06 2.4976716429e+00 -4.3260941861e+00 2.4976716429e+00 4.3260941861e+00 
68900 6.2635584643e+00 1.0384747069e-05 2.4976716429e+00 -4.3260941861e+00 2.4976716429e+00 4.3260941861e+00 
69000 6.2635584657e+00 1.7644562875e-05 2.4976716429e+00 -4.3260941861e+00 2.4976716429e+00 4.3260941861e+00 
69100 6.2635584668e+00 2.4809117830e-05 2.4976716429e+00 -4.3260941861e+00 2.4976716429e+00 4.3260941861e+00 
69200 6.2635584677e+00 3.1860744038e-05 2.4976716429e+00 -4.3260941861e+00 2.4976716429e+00 4.3260941861e+00 
69300 6.2635584683e+00 3.8782587424e-05 2.4976716429e+00 -4.3260941861e+00 2.4976716429e+00 4.3260941861e+00 
69400 6.2635584686e+00 4.5558637781e-05 2.4976716429e+00 -4.3260941861e+00 2.4976716429e+00 4.3260941861e+00 
69500 6.2635584688e+00 5.2173755245e-05 2.4976716429e+00 -4.3260941861e+00 2.4976716429e+00 4.3260941861e+00 
69600 6.2635584688e+00 5.8613693261e-05 2.4976716429e+00 -4.3260941861e+00 2.4976716429e+00 4.3260941861e+00 
69700 6.2635584686e+00 6.4865118019e-05 2.4976716429e+00 -4.3260941861e+00 2.4976716429e+00 4.3260941861e+00 
69800 6.2635584682e+00 7.0915624499e-05 2.4976716429e+00 -4.3260941861e+00 2.4976716429e+00 4.3260941861e+00 
69900 6.2635584677e+00 7.6208298786e-05 2.4976702233e+00 -4.3260917273e+00 2.4976702233e+00 4.3260917273e+00 
70000 6.2635584671e+00 8.1227088208e-05 2.4976686977e+00 -4.3260890849e+00 2.4976686977e+00 4.3260890849e+00 
70100 6.2635584664e+00 8.5963209774e-05 2.4976670716e+00 -4.3260862684e+00 2.4976670716e+00 4.3260862684e+00 
70200 6.2635584656e+00 9.0408906112e-05 2.4976653508e+00 -4.3260832878e+00 2.4976653508e+00 4.3260832878e+00 
70300 6.2635584648e+00 9.4557445991e-05 2.4976635409e+00 -4.3260801530e+00 2.4976635409e+00 4.3260801530e+00 
70400 6.2635584640e+00 9.8403121667e-05 2.4976616480e+00 -4.3260768744e+00 2.4976616480e+00 4.3260768744e+00 
70500 6.2635584632e+00 1.0194124322e-04 2.4976596781e+00 -4.3260734624e+00 2.4976596781e+00 4.3260734624e+00 
70600 6.2635584625e+00 1.0516812988e-04 2.4976576373e+00 -4.3260699278e+00 2.4976576373e+00 4.3260699278e+00 
70700 6.2635584617e+00 1.0808109856e-04 2.4976555320e+00 -4.3260662812e+00 2.4976555320e+00 4.3260662812e+00 
70800 6.2635584611e+00 1.1067844954e-04 2.4976533683e+00 -4.3260625337e+00 2.4976533683e+00 4.3260625337e+00 
70900 6.2635584606e+00 1.1295944963e-04 2.4976511527e+00 -4.3260586961e+00 2.4976511527e+00 4.3260586961e+00 
71000 6.2635584601e+00 1.1492431270e-04 2.4976488914e+00 -4.3260547793e+00 2.4976488914e+00 4.3260547793e+00 
71100 6.2635584598e+00 1.1657417780e-04 2.4976465907e+00 -4.3260507945e+00 2.4976465907e+00 4.3260507945e+00 
71200 6.2635584595e+00 1.1791108507e-04 2.4976442571e+00 -4.3260467524e+00 2.4976442571e+00 4.3260467524e+00 
71300 6.2635584595e+00 1.1893794944e-04 2.4976418966e+00 -4.3260426640e+00 2.4976418966e+00 4.3260426640e+00 
71400 6.2635584595e+00 1.1965853229e-04 2.4976395156e+00 -4.3260385400e+00 2.4976395156e+00 4.3260385400e+00 
71500 6.2635584597e+00 1.2007741123e-04 2.4976371202e+00 -4.3260343910e+00 2.4976371202e+00 4.3260343910e+00 
71600 6.2635584600e+00 1.2019994814e-04 2.4976347164e+00 -4.3260302275e+00 2.4976347164e+00 4.3260302275e+00 
71700 6.2635584605e+00 1.2003225553e-04 2.4976323101e+00 -4.3260260597e+00 2.4976323101e+00 4.3260260597e+00 
71800 6.2635584611e+00 1.1958116148e-04 2.4976299072e+00 -4.3260218977e+00 2.4976299072e+00 4.3260218977e+00 
71900 6.2635584619e+00 1.1885417321e-04 2.4976275133e+00 -4.3260177514e+00 2.4976275133e+00 4.3260177514e+00 
72000 6.2635584628e+00 1.1785943943e-04 2.4976251339e+00 -4.3260136302e+00 2.4976251339e+00 4.3260136302e+00 
72100 6.2635584638e+00 1.1660571166e-04 2.4976227745e+00 -4.3260095436e+00 2.4976227745e+00 4.3260095436e+00 
72200 6.2635584649e+00 1.1510230460e-04 2.4976204402e+00 -4.3260055004e+00 2.4976204402e+00 4.3260055004e+00 
72300 6.2635584662e+00 1.1335905578e-04 2.4976181359e+00 -4.3260015093e+00 2.4976181359e+00 4.3260015093e+00 
72400 6.2635584675e+00 1.1138628445e-04 2.4976158666e+00 -4.3259975787e+00 2.4976158666e+00 4.3259975787e+00 
72500 6.2635584689e+00 1.0919475013e-04 2.4976136367e+00 -4.3259937165e+00 2.4976136367e+00 4.3259937165e+00 
72600 6.2635584704e+00 1.0679561064e-04 2.4976114507e+00 -4.3259899303e+00 2.4976114507e+00 4.3259899303e+00 
72700 6.2635584720e+00 1.0420037998e-04 2.4976093128e+00 -4.3259862272e+00 2.4976093128e+00 4.3259862272e+00 
72800 6.2635584736e+00 1.0142088613e-04 2.4976072268e+00 -4.3259826141e+00 2.4976072268e+00 4.3259826141e+00 
72900 6.2635584752e+00 9.8469228803e-05 2.4976051964e+00 -4.3259790975e+00 2.4976051964e+00 4.3259790975e+00 
73000 6.2635584769e+00 9.5357737391e-05 2.4976032252e+00 -4.3259756831e+00 2.4976032252e+00 4.3259756831e+00 
73100 6.2635584786e+00 9.2098929221e-05 2.4976013162e+00 -4.3259723767e+00 2.4976013162e+00 4.3259723767e+00 
73200 6.2635584803e+00 8.8705468133e-05 2.4975994724e+00 -4.3259691832e+00 2.4975994724e+00 4.3259691832e+00 
73300 6.2635584820e+00 8.5190123628e-05 2.4975976966e+00 -4.3259661074e+00 2.4975976966e+00 4.3259661074e+00 
73400 6.2635584837e+00 8.1565730618e-05 2.4975959912e+00 -4.3259631535e+00 2.4975959912e+00 4.3259631535e+00 
73500 6.2635584853e+00 7.7845149871e-05 2.4975943583e+00 -4.3259603252e+00 2.4975943583e+00 4.3259603252e+00 
73600 6.2635584869e+00 7.4041229340e-05 2.4975927999e+00 -4.3259576260e+00 2.4975927999e+00 4.3259576260e+00 
73700 6.2635584884e+00 7.0166766358e-05 2.4975913176e+00 -4.3259550587e+00 2.4975913176e+00 4.3259550587e+00 
73800 6.2635584899e+00 6.6774245365e-05 2.4975913176e+00 -4.3259550587e+00 2.4975913176e+00 4.3259550587e+00 
73900 6.2635584914e+00 6.3316390077e-05 2.4975913176e+00 -4.3259550587e+00 2.4975913176e+00 4.3259550587e+00 
74000 6.2635584928e+00 5.9805272429e-05 2.4975913176e+00 -4.3259550587e+00 2.4975913176e+00 4.3259550587e+00 
74100 6.2635584941e+00 5.6252830535e-05 2.4975913176e+00 -4.3259550587e+00 2.4975913176e+00 4.3259550587e+00 
74200 6.2635584953e+00 5.2670831828e-05 2.4975913176e+00 -4.3259550587e+00 2.4975913176e+00 4.3259550587e+00 
74300 6.2635584964e+00 4.9070838123e-05 2.4975913176e+00 -4.3259550587e+00 2.4975913176e+00 4.3259550587e+00 
74400 6.2635584973e+00 4.5464172657e-05 2.4975913176e+00 -4.3259550587e+00 2.4975913176e+00 4.3259550587e+00 
74500 6.2635584982e+00 4.1861889063e-05 2.4975913176e+00 -4.3259550587e+00 2.4975913176e+00 4.3259550587e+00 
74600 6.2635584990e+00 3.8274742369e-05 2.4975913176e+00 -4.3259550587e+00 2.4975913176e+00 4.3259550587e+00 
74700 6.2635584997e+00 3.4713161932e-05 2.4975913176e+00 -4.3259550587e+00 2.4975913176e+00 4.3259550587e+00 
74800 6.2635585004e+00 3.1187226410e-05 2.4975913176e+00 -4.3259550587e+00 2.4975913176e+00 4.3259550587e+00 
74900 6.2635585009e+00 2.7706640690e-05 2.4975913176e+00 -4.3259550587e+00 2.4975913176e+00 4.3259550587e+00 
75000 6.2635585013e+00 2.4280714823e-05 2.4975913176e+00 -4.3259550587e+00 2.4975913176e+00 4.3259550587e+00 
75100 6.2635585017e+00 2.0918344926e-05 2.4975913176e+00 -4.3259550587e+00 2.4975913176e+00 4.3259550587e+00 
75200 6.2635585020e+00 1.7627996061e-05 2.4975913176e+00 -4.3259550587e+00 2.4975913176e+00 4.3259550587e+00 
75300 6.2635585023e+00 1.4417687018e-05 2.4975913176e+00 -4.3259550587e+00 2.4975913176e+00 4.3259550587e+00 
75400 6.2635585025e+00 1.1294977087e-05 2.4975913176e+00 -4.3259550587e+00 2.4975913176e+00 4.3259550587e+00 
75500 6.2635585026e+00 8.2669546710e-06 2.4975913176e+00 -4.3259550587e+00 2.4975913176e+00 4.3259550587e+00 
75600 6.2635585027e+00 5.3402278168e-06 2.4975913176e+00 -4.3259550587e+00 2.4975913176e+00 4.3259550587e+00 
75700 6.2635585028e+00 2.5209165341e-06 2.4975913176e+00 -4.3259550587e+00 2.4975913176e+00 4.3259550587e+00 
75800 6.2635585028e+00 -1.8535304233e-07 2.4975913176e+00 -4.3259550587e+00 2.4975913176e+00 4.3259550587e+00 
75900 6.2635585028e+00 -2.7734527672e-06 2.4975913176e+00 -4.3259550587e+00 2.4975913176e+00 4.3259550587e+00 
76000 6.2635585028e+00 -5.2387548534e-06 2.4975913176e+00 -4.3259550587e+00 2.4975913176e+00 4.3259550587e+00 
76100 6.2635585028e+00 -7.5771326106e-06 2.4975913176e+00 -4.3259550587e+00 2.4975913176e+00 4.3259550587e+00 
76200 6.2635585028e+00 -9.7849595348e-06 2.4975913176e+00 -4.3259550587e+00 2.4975913176e+00 4.3259550587e+00 
76300 6.2635585028e+00 -1.1859106855e-05 2.4975913176e+00 -4.3259550587e+00 2.4975913176e+00 4.3259550587e+00 
76400 6.2635585028e+00 -1.3796939566e-05 2.4975913176e+00 -4.3259550587e+00 2.4975913176e+00 4.3259550587e+00 
76500 6.2635585029e+00 -1.5596311026e-05 2.4975913176e+00 -4.3259550587e+00 2.4975913176e+00 4.3259550587e+00 
76600 6.2635585029e+00 -1.7255556155e-05 2.4975913176e+00 -4.3259550587e+00 2.4975913176e+00 4.3259550587e+00 
76700 6.2635585030e+00 -1.8773483326e-05 2.4975913176e+00 -4.3259550587e+00 2.4975913176e+00 4.3259550587e+00 
76800 6.2635585031e+00 -2.0149364990e-05 2.4975913176e+00 -4.3259550587e+00 2.4975913176e+00 4.3259550587e+00 
76900 6.2635585032e+00 -2.1382927109e-05 2.4975913176e+00 -4.3259550587e+00 2.4975913176e+00 4.3259550587e+00 
77000 6.2635585033e+00 -2.2474337491e-05 2.4975913176e+00 -4.3259550587e+00 2.4975913176e+00 4.3259550587e+00 
77100 6.2635585035e+00 -2.3424193041e-05 2.4975913176e+00 -4.3259550587e+00 2.4975913176e+00 4.3259550587e+00 
77200 6.2635585037e+00 -2.4233506054e-05 2.4975913176e+00 -4.3259550587e+00 2.4975913176e+00 4.3259550587e+00 
77300 6.2635585040e+00 -2.4903689608e-05 2.4975913176e+00 -4.3259550587e+00 2.4975913176e+00 4.3259550587e+00 
77400 6.2635585043e+00 -2.5436542096e-05 2.4975913176e+00 -4.3259550587e+00 2.4975913176e+00 4.3259550587e+00 
77500 6.2635585046e+00 -2.5834231006e-05 2.4975913176e+00 -4.3259550587e+00 2.4975913176e+00 4.3259550587e+00 
77600 6.2635585050e+00 -2.6099276024e-05 2.4975913176e+00 -4.3259550587e+00 2.4975913176e+00 4.3259550587e+00 
77700 6.2635585053e+00 -2.6234531489e-05 2.4975913176e+00 -4.3259550587e+00 2.4975913176e+00 4.3259550587e+00 
77800 6.2635585058e+00 -2.6243168335e-05 2.4975913176e+00 -4.3259550587e+00 2.4975913176e+00 4.3259550587e+00 
77900 6.2635585062e+00 -2.6128655537e-05 2.4975913176e+00 -4.3259550587e+00 2.4975913176e+00 4.3259550587e+00 
78000 6.2635585067e+00 -2.5894741154e-05 2.4975913176e+00 -4.3259550587e+00 2.4975913176e+00 4.3259550587e+00 
78100 6.2635585071e+00 -2.5545433048e-05 2.4975913176e+00 -4.3259550587e+00 2.4975913176e+00 4.3259550587e+00 
78200 6.2635585076e+00 -2.5084979352e-05 2.4975913176e+00 -4.3259550587e+00 2.4975913176e+00 4.3259550587e+00 
78300 6.2635585082e+00 -2.4517848702e-05 2.4975913176e+00 -4.3259550587e+00 2.4975913176e+00 4.3259550587e+00 
78400 6.2635585087e+00 -2.3848710389e-05 2.4975913176e+00 -4.3259550587e+00 2.4975913176e+00 4.3259550587e+00 
78500 6.2635585093e+00 -2.3082414411e-05 2.4975913176e+00 -4.3259550587e+00 2.4975913176e+00 4.3259550587e+00 
78600 6.2635585098e+00 -2.2223971543e-05 2.4975913176e+00 -4.3259550587e+00 2.4975913176e+00 4.3259550587e+00 
78700 6.2635585104e+00 -2.1278533466e-05 2.4975913176e+00 -4.3259550587e+00 2.4975913176e+00 4.3259550587e+00 
78800 6.2635585109e+00 -2.0251373015e-05 2.4975913176e+00 -4.3259550587e+00 2.4975913176e+00 4.3259550587e+00 
78900 6.2635585115e+00 -1.9147864597e-05 2.4975913176e+00 -4.3259550587e+00 2.4975913176e+00 4.3259550587e+00 
79000 6.2635585120e+00 -1.7973464866e-05 2.4975913176e+00 -4.3259550587e+00 2.4975913176e+00 4.3259550587e+00 
79100 6.2635585126e+00 -1.6733693662e-05 2.4975913176e+00 -4.3259550587e+00 2.4975913176e+00 4.3259550587e+00 
79200 6.2635585131e+00 -1.5434115302e-05 2.4975913176e+00 -4.3259550587e+00 2.4975913176e+00 4.3259550587e+00 
79300 6.2635585137e+00 -1.4080320247e-05 2.4975913176e+00 -4.3259550587e+00 2.4975913176e+00 4.3259550587e+00 
79400 6.2635585142e+00 -1.2677907210e-05 2.4975913176e+00 -4.3259550587e+00 2.4975913176e+00 4.3259550587e+00 
79500 6.2635585147e+00 -1.1232465740e-05 2.4975913176e+00 -4.3259550587e+00 2.4975913176e+00 4.3259550587e+00 
79600 6.2635585152e+00 -9.7495593034e-06 2.4975913176e+00 -4.3259550587e+00 2.4975913176e+00 4.3259550587e+00 
79700 6.2635585156e+00 -8.2347089423e-06 2.4975913176e+00 -4.3259550587e+00 2.4975913176e+00 4.3259550587e+00 
79800 6.2635585161e+00 -6.6933775021e-06 2.4975913176e+00 -4.3259550587e+00 2.4975913176e+00 4.3259550587e+00 
79900 6.2635585165e+00 -5.1309544834e-06 2.4975913176e+00 -4.3259550587e+00 2.4975913176e+00 4.3259550587e+00 
80000 6.2635585169e+00 -3.5527415591e-06 2.4975913176e+00 -4.3259550587e+00 2.4975913176e+00 4.3259550587e+00 
80100 6.2635585173e+00 -1.9639387373e-06 2.4975913176e+00 -4.3259550587e+00 2.4975913176e+00 4.3259550587e+00 
80200 6.2635585176e+00 -3.6963124556e-07 2.4975913176e+00 -4.3259550587e+00 2.4975913176e+00 4.3259550587e+00 
80300 6.2635585180e+00 1.2252228768e-06 2.4975913176e+00 -4.3259550587e+00 2.4975913176e+00 4.3259550587e+00 
80400 6.2635585183e+00 2.8158044282e-06 2.4975913176e+00 -4.3259550587e+00 2.4975913176e+00 4.3259550587e+00 
80500 6.2635585186e+00 4.3974439805e-06 2.4975913176e+00 -4.3259550587e+00 2.4975913176e+00 4.3259550587e+00 
80600 6.2635585189e+00 5.9656320004e-06 2.4975913176e+00 -4.3259550587e+00 2.4975913176e+00 4.3259550587e+00 
80700 6.2635585191e+00 7.5160282441e-06 2.4975913176e+00 -4.3259550587e+00 2.4975913176e+00 4.3259550587e+00 
80800 6.2635585194e+00 9.0444703213e-06 2.4975913176e+00 -4.3259550587e+00 2.4975913176e+00 4.3259550587e+00 
80900 6.2635585196e+00 1.0546981513e-05 2.4975913176e+00 -4.3259550587e+00 2.4975913176e+00 4.3259550587e+00 
81000 6.2635585198e+00 1.2019777778e-05 2.4975913176e+00 -4.3259550587e+00 2.4975913176e+00 4.3259550587e+00 
81100 6.2635585200e+00 1.3459273972e-05 2.4975913176e+00 -4.3259550587e+00 2.4975913176e+00 4.3259550587e+00 
81200 6.2635585202e+00 1.4862089293e-05 2.4975913176e+00 -4.3259550587e+00 2.4975913176e+00 4.3259550587e+00 
81300 6.2635585204e+00 1.6225051932e-05 2.4975913176e+00 -4.3259550587e+00 2.4975913176e+00 4.3259550587e+00 
81400 6.2635585205e+00 1.7545202953e-05 2.4975913176e+00 -4.3259550587e+00 2.4975913176e+00 4.3259550587e+00 
81500 6.2635585207e+00 1.8819799429e-05 2.4975913176e+00 -4.3259550587e+00 2.4975913176e+00 4.3259550587e+00 
81600 6.2635585208e+00 2.0046316792e-05 2.4975913176e+00 -4.3259550587e+00 2.4975913176e+00 4.3259550587e+00 
81700 6.2635585210e+00 2.1222450477e-05 2.4975913176e+00 -4.3259550587e+00 2.4975913176e+00 4.3259550587e+00 
81800 6.2635585211e+00 2.2346116829e-05 2.4975913176e+00 -4.3259550587e+00 2.4975913176e+00 4.3259550587e+00 
81900 6.2635585212e+00 2.3415453299e-05 2.4975913176e+00 -4.3259550587e+00 2.4975913176e+00 4.3259550587e+00 
82000 6.2635585214e+00 2.4428817968e-05 2.4975913176e+00 -4.3259550587e+00 2.4975913176e+00 4.3259550587e+00 
82100 6.2635585215e+00 2.5384788406e-05 2.4975913176e+00 -4.3259550587e+00 2.4975913176e+00 4.3259550587e+00 
82200 6.2635585216e+00 2.6282159863e-05 2.4975913176e+00 -4.3259550587e+00 2.4975913176e+00 4.3259550587e+00 
82300 6.2635585218e+00 2.7119942880e-05 2.4975913176e+00 -4.3259550587e+00 2.4975913176e+00 4.3259550587e+00 
82400 6.2635585219e+00 2.7897360267e-05 2.4975913176e+00 -4.3259550587e+00 2.4975913176e+00 4.3259550587e+00 
82500 6.2635585220e+00 2.8613843546e-05 2.4975913176e+00 -4.3259550587e+00 2.4975913176e+00 4.3259550587e+00 
82600 6.2635585222e+00 2.9269028812e-05 2.4975913176e+00 -4.3259550587e+00 2.4975913176e+00 4.3259550587e+00 
82700 6.2635585223e+00 2.9862752130e-05 2.4975913176e+00 -4.3259550587e+00 2.4975913176e+00 4.3259550587e+00 
82800 6.2635585224e+00 3.0395044395e-05 2.4975913176e+00 -4.3259550587e+00 2.4975913176e+00 4.3259550587e+00 
82900 6.2635585226e+00 3.0866125773e-05 2.4975913176e+00 -4.3259550587e+00 2.4975913176e+00 4.3259550587e+00 
83000 6.2635585227e+00 3.1276399698e-05 2.4975913176e+00 -4.3259550587e+00 2.4975913176e+00 4.3259550587e+00 
83100 6.2635585229e+00 3.1626446477e-05 2.4975913176e+00 -4.3259550587e+00 2.4975913176e+00 4.3259550587e+00 
83200 6.2635585231e+00 3.1917016524e-05 2.4975913176e+00 -4.3259550587e+00 2.4975913176e+00 4.3259550587e+00 
83300 6.2635585232e+00 3.2149023274e-05 2.4975913176e+00 -4.3259550587e+00 2.4975913176e+00 4.3259550587e+00 
83400 6.2635585234e+00 3.2323535780e-05 2.4975913176e+00 -4.3259550587e+00 2.4975913176e+00 4.3259550587e+00 
83500 6.2635585236e+00 3.2441771039e-05 2.4975913176e+00 -4.3259550587e+00 2.4975913176e+00 4.3259550587e+00 
83600 6.2635585238e+00 3.2505086091e-05 2.4975913176e+00 -4.3259550587e+00 2.4975913176e+00 4.3259550587e+00 
83700 6.2635585240e+00 3.2514969877e-05 2.4975913176e+00 -4.3259550587e+00 2.4975913176e+00 4.3259550587e+00 
83800 6.2635585242e+00 3.2473034965e-05 2.4975913176e+00 -4.3259550587e+00 2.4975913176e+00 4.3259550587e+00 
83900 6.2635585244e+00 3.2381009083e-05 2.4975913176e+00 -4.3259550587e+00 2.4975913176e+00 4.3259550587e+00 
84000 6.2635585246e+00 3.2240726558e-05 2.4975913176e+00 -4.3259550587e+00 2.4975913176e+00 4.3259550587e+00 
84100 6.2635585248e+00 3.2054119659e-05 2.4975913176e+00 -4.3259550587e+00 2.4975913176e+00 4.3259550587e+00 
84200 6.2635585250e+00 3.1823209884e-05 2.4975913176e+00 -4.3259550587e+00 2.4975913176e+00 4.3259550587e+00 
84300 6.2635585252e+00 3.1550099212e-05 2.4975913176e+00 -4.3259550587e+00 2.4975913176e+00 4.3259550587e+00 
84400 6.2635585254e+00 3.1236961359e-05 2.4975913176e+00 -4.3259550587e+00 2.4975913176e+00 4.3259550587e+00 
84500 6.2635585256e+00 3.0886033028e-05 2.4975913176e+00 -4.3259550587e+00 2.4975913176e+00 4.3259550587e+00 
84600 6.2635585258e+00 3.0499605275e-05 2.4975913176e+00 -4.3259550587e+00 2.4975913176e+00 4.3259550587e+00 
84700 6.2635585260e+00 3.0080014870e-05 2.4975913176e+00 -4.3259550587e+00 2.4975913176e+00 4.3259550587e+00 
84800 6.2635585262e+00 2.9629635817e-05 2.4975913176e+00 -4.3259550587e+00 2.4975913176e+00 4.3259550587e+00 
84900 6.2635585264e+00 2.9150870963e-05 2.4975913176e+00 -4.3259550587e+00 2.4975913176e+00 4.3259550587e+00 
85000 6.2635585266e+00 2.8646143771e-05 2.4975913176e+00 -4.3259550587e+00 2.4975913176e+00 4.3259550587e+00 
85100 6.2635585267e+00 2.8117890249e-05 2.4975913176e+00 -4.3259550587e+00 2.4975913176e+00 4.3259550587e+00 
85200 6.2635585269e+00 2.7568551081e-05 2.4975913176e+00 -4.3259550587e+00 2.4975913176e+00 4.3259550587e+00 
85300 6.2635585271e+00 2.7000563935e-05 2.4975913176e+00 -4.3259550587e+00 2.4975913176e+00 4.3259550587e+00 
85400 6.2635585273e+00 2.6416356023e-05 2.4975913176e+00 -4.3259550587e+00 2.4975913176e+00 4.3259550587e+00 
85500 6.2635585275e+00 2.5818336889e-05 2.4975913176e+00 -4.3259550587e+00 2.4975913176e+00 4.3259550587e+00 
85600 6.2635585276e+00 2.5208891447e-05 2.4975913176e+00 -4.3259550587e+00 2.4975913176e+00 4.3259550587e+00 
85700 6.2635585278e+00 2.4590373305e-05 2.4975913176e+00 -4.3259550587e+00 2.4975913176e+00 4.3259550587e+00 
85800 6.2635585280e+00 2.3965098352e-05 2.4975913176e+00 -4.3259550587e+00 2.4975913176e+00 4.3259550587e+00 
85900 6.2635585281e+00 2.3335338661e-05 2.4975913176e+00 -4.3259550587e+00 2.4975913176e+00 4.3259550587e+00 
86000 6.2635585283e+00 2.2703316671e-05 2.4975913176e+00 -4.3259550587e+00 2.4975913176e+00 4.3259550587e+00 
86100 6.2635585284e+00 2.2071199719e-05 2.4975913176e+00 -4.3259550587e+00 2.4975913176e+00 4.3259550587e+00 
86200 6.2635585286e+00 2.1441094854e-05 2.4975913176e+00 -4.3259550587e+00 2.4975913176e+00 4.3259550587e+00 
86300 6.2635585287e+00 2.0815044026e-05 2.4975913176e+00 -4.3259550587e+00 2.4975913176e+00 4.3259550587e+00 
86400 6.2635585288e+00 2.0195019557e-05 2.4975913176e+00 -4.3259550587e+00 2.4975913176e+00 4.3259550587e+00 
86500 6.2635585289e+00 1.9582919993e-05 2.4975913176e+00 -4.3259550587e+00 2.4975913176e+00 4.3259550587e+00 
86600 6.2635585291e+00 1.8980566299e-05 2.4975913176e+00 -4.3259550587e+00 2.4975913176e+00 4.3259550587e+00 
86700 6.2635585292e+00 1.8389698371e-05 2.4975913176e+00 -4.3259550587e+00 2.4975913176e+00 4.3259550587e+00 
86800 6.2635585293e+00 1.7811971907e-05 2.4975913176e+00 -4.3259550587e+00 2.4975913176e+00 4.3259550587e+00 
86900 6.2635585294e+00 1.7248955639e-05 2.4975913176e+00 -4.3259550587e+00 2.4975913176e+00 4.3259550587e+00 
87000 6.2635585295e+00 1.6702128894e-05 2.4975913176e+00 -4.3259550587e+00 2.4975913176e+00 4.3259550587e+00 
87100 6.2635585296e+00 1.6172879493e-05 2.4975913176e+00 -4.3259550587e+00 2.4975913176e+00 4.3259550587e+00 
87200 6.2635585297e+00 1.5662502021e-05 2.4975913176e+00 -4.3259550587e+00 2.4975913176e+00 4.3259550587e+00 
87300 6.2635585298e+00 1.5172196384e-05 2.4975913176e+00 -4.3259550587e+00 2.4975913176e+00 4.3259550587e+00 
87400 6.2635585299e+00 1.4703066739e-05 2.4975913176e+00 -4.3259550587e+00 2.4975913176e+00 4.3259550587e+00 
87500 6.2635585300e+00 1.4256120743e-05 2.4975913176e+00 -4.3259550587e+00 2.4975913176e+00 4.3259550587e+00 
87600 6.2635585301e+00 1.3832269088e-05 2.4975913176e+00 -4.3259550587e+00 2.4975913176e+00 4.3259550587e+00 
87700 6.2635585302e+00 1.3432325392e-05 2.4975913176e+00 -4.3259550587e+00 2.4975913176e+00 4.3259550587e+00 
87800 6.2635585303e+00 1.3057006353e-05 2.4975913176e+00 -4.3259550587e+00 2.4975913176e+00 4.3259550587e+00 
87900 6.2635585304e+00 1.2706932227e-05 2.4975913176e+00 -4.3259550587e+00 2.4975913176e+00 4.3259550587e+00 
88000 6.2635585304e+00 1.2382627561e-05 2.4975913176e+00 -4.3259550587e+00 2.4975913176e+00 4.3259550587e+00 
88100 6.2635585305e+00 1.2084522237e-05 2.4975913176e+00 -4.3259550587e+00 2.4975913176e+00 4.3259550587e+00 
88200 6.2635585306e+00 1.1812952741e-05 2.4975913176e+00 -4.3259550587e+00 2.4975913176e+00 4.3259550587e+00 
88300 6.2635585307e+00 1.1568163713e-05 2.4975913176e+00 -4.3259550587e+00 2.4975913176e+00 4.3259550587e+00 
88400 6.2635585308e+00 1.1350309704e-05 2.4975913176e+00 -4.3259550587e+00 2.4975913176e+00 4.3259550587e+00 
88500 6.2635585309e+00 1.1159457205e-05 2.4975913176e+00 -4.3259550587e+00 2.4975913176e+00 4.3259550587e+00 
88600 6.2635585309e+00 1.0995586861e-05 2.4975913176e+00 -4.3259550587e+00 2.4975913176e+00 4.3259550587e+00 
88700 6.2635585310e+00 1.0858595880e-05 2.4975913176e+00 -4.3259550587e+00 2.4975913176e+00 4.3259550587e+00 
88800 6.2635585311e+00 1.0748300673e-05 2.4975913176e+00 -4.3259550587e+00 2.4975913176e+00 4.3259550587e+00 
88900 6.2635585312e+00 1.0664439615e-05 2.4975913176e+00 -4.3259550587e+00 2.4975913176e+00 4.3259550587e+00 
89000 6.2635585313e+00 1.0606676015e-05 2.4975913176e+00 -4.3259550587e+00 2.4975913176e+00 4.3259550587e+00 
89100 6.2635585314e+00 1.0574601213e-05 2.4975913176e+00 -4.3259550587e+00 2.4975913176e+00 4.3259550587e+00 
89200 6.2635585315e+00 1.0567737820e-05 2.4975913176e+00 -4.3259550587e+00 2.4975913176e+00 4.3259550587e+00 
89300 6.2635585315e+00 1.0585543070e-05 2.4975913176e+00 -4.3259550587e+00 2.4975913176e+00 4.3259550587e+00 
89400 6.2635585316e+00 1.0627412292e-05 2.4975913176e+00 -4.3259550587e+00 2.4975913176e+00 4.3259550587e+00 
89500 6.2635585317e+00 1.0692682470e-05 2.4975913176e+00 -4.3259550587e+00 2.4975913176e+00 4.3259550587e+00 
89600 6.2635585318e+00 1.0780635884e-05 2.4975913176e+00 -4.3259550587e+00 2.4975913176e+00 4.3259550587e+00 
89700 6.2635585319e+00 1.0890503824e-05 2.4975913176e+00 -4.3259550587e+00 2.4975913176e+00 4.3259550587e+00 
89800 6.2635585320e+00 1.1021470354e-05 2.4975913176e+00 -4.3259550587e+00 2.4975913176e+00 4.3259550587e+00 
89900 6.2635585321e+00 1.1172676110e-05 2.4975913176e+00 -4.3259550587e+00 2.4975913176e+00 4.3259550587e+00 
90000 6.2635585321e+00 1.1343222146e-05 2.4975913176e+00 -4.3259550587e+00 2.4975913176e+00 4.3259550587e+00 
90100 6.2635585322e+00 1.1532173775e-05 2.4975913176e+00 -4.3259550587e+00 2.4975913176e+00 4.3259550587e+00 
90200 6.2635585323e+00 1.1738564425e-05 2.4975913176e+00 -4.3259550587e+00 2.4975913176e+00 4.3259550587e+00 
90300 6.2635585324e+00 1.1961399483e-05 2.4975913176e+00 -4.3259550587e+00 2.4975913176e+00 4.3259550587e+00 
90400 6.2635585325e+00 1.2199660120e-05 2.4975913176e+00 -4.3259550587e+00 2.4975913176e+00 4.3259550587e+00 
90500 6.2635585326e+00 1.2452307088e-05 2.4975913176e+00 -4.3259550587e+00 2.4975913176e+00 4.3259550587e+00 
90600 6.2635585326e+00 1.2718284474e-05 2.4975913176e+00 -4.3259550587e+00 2.4975913176e+00 4.3259550587e+00 
90700 6.2635585327e+00 1.2996523392e-05 2.4975913176e+00 -4.3259550587e+00 2.4975913176e+00 4.3259550587e+00 
90800 6.2635585328e+00 1.3285945624e-05 2.4975913176e+00 -4.3259550587e+00 2.4975913176e+00 4.3259550587e+00 
90900 6.2635585329e+00 1.3585467194e-05 2.4975913176e+00 -4.3259550587e+00 2.4975913176e+00 4.3259550587e+00 
91000 6.2635585330e+00 1.3894001837e-05 2.4975913176e+00 -4.3259550587e+00 2.4975913176e+00 4.3259550587e+00 
91100 6.2635585330e+00 1.4210464411e-05 2.4975913176e+00 -4.3259550587e+00 2.4975913176e+00 4.3259550587e+00 
91200 6.2635585331e+00 1.4533774191e-05 2.4975913176e+00 -4.3259550587e+00 2.4975913176e+00 4.3259550587e+00 
91300 6.2635585332e+00 1.4862858069e-05 2.4975913176e+00 -4.3259550587e+00 2.4975913176e+00 4.3259550587e+00 
91400 6.2635585333e+00 1.5196653631e-05 2.4975913176e+00 -4.3259550587e+00 2.4975913176e+00 4.3259550587e+00 
91500 6.2635585333e+00 1.5534112117e-05 2.4975913176e+00 -4.3259550587e+00 2.4975913176e+00 4.3259550587e+00 
91600 6.2635585334e+00 1.5874201285e-05 2.4975913176e+00 -4.3259550587e+00 2.4975913176e+00 4.3259550587e+00 
91700 6.2635585335e+00 1.6215908107e-05 2.4975913176e+00 -4.3259550587e+00 2.4975913176e+00 4.3259550587e+00 
91800 6.2635585335e+00 1.6558241359e-05 2.4975913176e+00 -4.3259550587e+00 2.4975913176e+00 4.3259550587e+00 
91900 6.2635585336e+00 1.6900234054e-05 2.4975913176e+00 -4.3259550587e+00 2.4975913176e+00 4.3259550587e+00 
92000 6.2635585337e+00 1.7240945757e-05 2.4975913176e+00 -4.3259550587e+00 2.4975913176e+00 4.3259550587e+00 
92100 6.2635585337e+00 1.7579464728e-05 2.4975913176e+00 -4.3259550587e+00 2.4975913176e+00 4.3259550587e+00 
92200 6.2635585338e+00 1.7914909929e-05 2.4975913176e+00 -4.3259550587e+00 2.4975913176e+00 4.3259550587e+00 
92300 6.2635585338e+00 1.8246432908e-05 2.4975913176e+00 -4.3259550587e+00 2.4975913176e+00 4.3259550587e+00 
92400 6.2635585339e+00 1.8573219478e-05 2.4975913176e+00 -4.3259550587e+00 2.4975913176e+00 4.3259550587e+00 
92500 6.2635585340e+00 1.8894491287e-05 2.4975913176e+00 -4.3259550587e+00 2.4975913176e+00 4.3259550587e+00 
92600 6.2635585340e+00 1.9209507233e-05 2.4975913176e+00 -4.3259550587e+00 2.4975913176e+00 4.3259550587e+00 
92700 6.2635585341e+00 1.9517564695e-05 2.4975913176e+00 -4.3259550587e+00 2.4975913176e+00 4.3259550587e+00 
92800 6.2635585341e+00 1.9818000649e-05 2.4975913176e+00 -4.3259550587e+00 2.4975913176e+00 4.3259550587e+00 
92900 6.2635585342e+00 2.0110192607e-05 2.4975913176e+00 -4.3259550587e+00 2.4975913176e+00 4.3259550587e+00 
93000 6.2635585342e+00 2.0393559412e-05 2.4975913176e+00 -4.3259550587e+00 2.4975913176e+00 4.3259550587e+00 
93100 6.2635585343e+00 2.0667561905e-05 2.4975913176e+00 -4.3259550587e+00 2.4975913176e+00 4.3259550587e+00 
93200 6.2635585343e+00 2.0931703407e-05 2.4975913176e+00 -4.3259550587e+00 2.4975913176e+00 4.3259550587e+00 
93300 6.2635585344e+00 2.1185530090e-05 2.4975913176e+00 -4.3259550587e+00 2.4975913176e+00 4.3259550587e+00 
93400 6.2635585344e+00 2.1428631195e-05 2.4975913176e+00 -4.3259550587e+00 2.4975913176e+00 4.3259550587e+00 
93500 6.2635585345e+00 2.1660639108e-05 2.4975913176e+00 -4.3259550587e+00 2.4975913176e+00 4.3259550587e+00 
93600 6.2635585345e+00 2.1881229309e-05 2.4975913176e+00 -4.3259550587e+00 2.4975913176e+00 4.3259550587e+00 
93700 6.2635585346e+00 2.2090120191e-05 2.4975913176e+00 -4.3259550587e+00 2.4975913176e+00 4.3259550587e+00 
93800 6.2635585346e+00 2.2287072739e-05 2.4975913176e+00 -4.3259550587e+00 2.4975913176e+00 4.3259550587e+00 
93900 6.2635585347e+00 2.2471890115e-05 2.4975913176e+00 -4.3259550587e+00 2.4975913176e+00 4.3259550587e+00 
94000 6.2635585347e+00 2.2644417093e-05 2.4975913176e+00 -4.3259550587e+00 2.4975913176e+00 4.3259550587e+00 
94100 6.2635585347e+00 2.2804539412e-05 2.4975913176e+00 -4.3259550587e+00 2.4975913176e+00 4.3259550587e+00 
94200 6.2635585348e+00 2.2952182995e-05 2.4975913176e+00 -4.3259550587e+00 2.4975913176e+00 4.3259550587e+00 
94300 6.2635585348e+00 2.3087313093e-05 2.4975913176e+00 -4.3259550587e+00 2.4975913176e+00 4.3259550587e+00 
94400 6.2635585349e+00 2.3209933303e-05 2.4975913176e+00 -4.3259550587e+00 2.4975913176e+00 4.3259550587e+00 
94500 6.2635585349e+00 2.3320084532e-05 2.4975913176e+00 -4.3259550587e+00 2.4975913176e+00 4.3259550587e+00 
94600 6.2635585350e+00 2.3417843831e-05 2.4975913176e+00 -4.3259550587e+00 2.4975913176e+00 4.3259550587e+00 
94700 6.2635585350e+00 2.3503323196e-05 2.4975913176e+00 -4.3259550587e+00 2.4975913176e+00 4.3259550587e+00 
94800 6.2635585350e+00 2.3576668261e-05 2.4975913176e+00 -4.3259550587e+00 2.4975913176e+00 4.3259550587e+00 
94900 6.2635585351e+00 2.3607614841e-05 2.4975913176e+00 -4.3259550587e+00 2.4975913176e+00 4.3259550587e+00 
94900 6.2635585351e+00 2.3607614841e-05 2.4975913176e+00 -4.3259550587e+00 2.4975913176e+00 4.3259550587e+00 
