# step Hamiltonian StressXX CellTensor1 CellTensor2 CellTensor3 CellTensor4 
0 7.1079536299e+00 2.1985193535e-01 2.5594246509e+00 -4.4330535334e+00 2.5594246509e+00 4.4330535334e+00 
100 7.1297537922e+00 2.4222167823e-01 2.5594246509e+00 -4.4330535334e+00 2.5594246509e+00 4.4330535334e+00 
200 7.1502405180e+00 2.6292722624e-01 2.5546941560e+00 -4.4248600760e+00 2.5546941560e+00 4.4248600760e+00 
300 7.1699985097e+00 2.8256152125e-01 2.5495499242e+00 -4.4159500052e+00 2.5495499242e+00 4.4159500052e+00 
400 7.1888212461e+00 3.0100824788e-01 2.5440105359e+00 -4.4063555032e+00 2.5440105359e+00 4.4063555032e+00 
500 7.2064488188e+00 3.1804132909e-01 2.5380968161e+00 -4.3961126399e+00 2.5380968161e+00 4.3961126399e+00 
600 7.2225748644e+00 3.3332230562e-01 2.5318340495e+00 -4.3852652101e+00 2.5318340495e+00 4.3852652101e+00 
700 7.2368645296e+00 3.4642075466e-01 2.5252542839e+00 -4.3738687217e+00 2.5252542839e+00 4.3738687217e+00 
800 7.2489901386e+00 3.5687471427e-01 2.5183982713e+00 -4.3619937596e+00 2.5183982713e+00 4.3619937596e+00 
900 7.2586867029e+00 3.6429957890e-01 2.5113162521e+00 -4.3497273424e+00 2.5113162521e+00 4.3497273424e+00 
1000 7.2658177350e+00 3.6852648757e-01 2.5040665934e+00 -4.3371705654e+00 2.5040665934e+00 4.3371705654e+00 
1100 7.2704268699e+00 3.6971308242e-01 2.4967116480e+00 -4.3244314263e+00 2.4967116480e+00 4.3244314263e+00 
1200 7.2727458672e+00 3.6835544297e-01 2.4893113179e+00 -4.3116136785e+00 2.4893113179e+00 4.3116136785e+00 
1300 7.2731469901e+00 3.6517393511e-01 2.4819162520e+00 -4.2988050485e+00 2.4819162520e+00 4.2988050485e+00 
1400 7.2720594402e+00 3.6092575140e-01 2.4745632038e+00 -4.2860691955e+00 2.4745632038e+00 4.2860691955e+00 
1500 7.2698882933e+00 3.5623978103e-01 2.4672740800e+00 -4.2734440628e+00 2.4672740800e+00 4.2734440628e+00 
1600 7.2669648782e+00 3.5153765960e-01 2.4600583121e+00 -4.2609459861e+00 2.4600583121e+00 4.2609459861e+00 
1700 7.2635333180e+00 3.4704036730e-01 2.4529168757e+00 -4.2485766555e+00 2.4529168757e+00 4.2485766555e+00 
1800 7.2597609687e+00 3.4282111427e-01 2.4458462513e+00 -4.2363299748e+00 2.4458462513e+00 4.2363299748e+00 
1900 7.2557578004e+00 3.3886567819e-01 2.4388413767e+00 -4.2241971760e+00 2.4388413767e+00 4.2241971760e+00 
2000 7.2515950787e+00 3.3511961421e-01 2.4318974167e+00 -4.2121698846e+00 2.4318974167e+00 4.2121698846e+00 
2100 7.2473196001e+00 3.3151784333e-01 2.4250105942e+00 -4.2002415580e+00 2.4250105942e+00 4.2002415580e+00 
2200 7.2429632416e+00 3.2799996739e-01 2.4181784248e+00 -4.1884078936e+00 2.4181784248e+00 4.1884078936e+00 
2300 7.2385488913e+00 3.2451640349e-01 2.4113996401e+00 -4.1766666940e+00 2.4113996401e+00 4.1766666940e+00 
2400 7.2340939633e+00 3.2102951044e-01 2.4046739806e+00 -4.1650175100e+00 2.4046739806e+00 4.1650175100e+00 
2500 7.2296124275e+00 3.1751241247e-01 2.3980019623e+00 -4.1534612354e+00 2.3980019623e+00 4.1534612354e+00 
2600 7.2251159738e+00 3.1394703277e-01 2.3913846635e+00 -4.1419997376e+00 2.3913846635e+00 4.1419997376e+00 
2700 7.2206146842e+00 3.1032207861e-01 2.3848235482e+00 -4.1306355525e+00 2.3848235482e+00 4.1306355525e+00 
2800 7.2161174311e+00 3.0663128425e-01 2.3783203293e+00 -4.1193716470e+00 2.3783203293e+00 4.1193716470e+00 
2900 7.2116321235e+00 3.0287199729e-01 2.3718768661e+00 -4.1082112414e+00 2.3718768661e+00 4.1082112414e+00 
3000 7.2071658680e+00 2.9904409394e-01 2.3654950898e+00 -4.0971576806e+00 2.3654950898e+00 4.0971576806e+00 
3100 7.2027250810e+00 2.9514917262e-01 2.3591769504e+00 -4.0862143422e+00 2.3591769504e+00 4.0862143422e+00 
3200 7.1983155729e+00 2.9118996779e-01 2.3529243801e+00 -4.0753845727e+00 2.3529243801e+00 4.0753845727e+00 
3300 7.1939426134e+00 2.8716993156e-01 2.3467392684e+00 -4.0646716451e+00 2.3467392684e+00 4.0646716451e+00 
3400 7.1896109864e+00 2.8309293983e-01 2.3406234459e+00 -4.0540787297e+00 2.3406234459e+00 4.0540787297e+00 
3500 7.1853250359e+00 2.7896308928e-01 2.3345786735e+00 -4.0436088767e+00 2.3345786735e+00 4.0436088767e+00 
3600 7.1810887053e+00 2.7478455956e-01 2.3286066366e+00 -4.0332650054e+00 2.3286066366e+00 4.0332650054e+00 
3700 7.1769055732e+00 2.7056152189e-01 2.3227089418e+00 -4.0230498984e+00 2.3227089418e+00 4.0230498984e+00 
3800 7.1727788832e+00 2.6629808026e-01 2.3168871154e+00 -4.0129661993e+00 2.3168871154e+00 4.0129661993e+00 
3900 7.1687115718e+00 2.6199823522e-01 2.3111426034e+00 -4.0030164126e+00 2.3111426034e+00 4.0030164126e+00 
4000 7.1647062920e+00 2.5766586317e-01 2.3054767722e+00 -3.9932029051e+00 2.3054767722e+00 3.9932029051e+00 
4100 7.1607654353e+00 2.5330470601e-01 2.2998909098e+00 -3.9835279076e+00 2.2998909098e+00 3.9835279076e+00 
4200 7.1568911503e+00 2.4891836766e-01 2.2943862275e+00 -3.9739935181e+00 2.2943862275e+00 3.9739935181e+00 
4300 7.1530853597e+00 2.4451031487e-01 2.2889638612e+00 -3.9646017042e+00 2.2889638612e+00 3.9646017042e+00 
4400 7.1493497756e+00 2.4008388064e-01 2.2836248734e+00 -3.9553543061e+00 2.2836248734e+00 3.9553543061e+00 
4500 7.1456859127e+00 2.3564226896e-01 2.2783702546e+00 -3.9462530395e+00 2.2783702546e+00 3.9462530395e+00 
4600 7.1420951002e+00 2.3118856024e-01 2.2732009253e+00 -3.9372994984e+00 2.2732009253e+00 3.9372994984e+00 
4700 7.1385784930e+00 2.2672571677e-01 2.2681177368e+00 -3.9284951577e+00 2.2681177368e+00 3.9284951577e+00 
4800 7.1351370804e+00 2.2225658789e-01 2.2631214736e+00 -3.9198413761e+00 2.2631214736e+00 3.9198413761e+00 
4900 7.1317716955e+00 2.1778391479e-01 2.2582128542e+00 -3.9113393978e+00 2.2582128542e+00 3.9113393978e+00 
5000 7.1284830224e+00 2.1331033470e-01 2.2533925327e+00 -3.9029903560e+00 2.2533925327e+00 3.9029903560e+00 
5100 7.1252716037e+00 2.0883838455e-01 2.2486610999e+00 -3.8947952741e+00 2.2486610999e+00 3.8947952741e+00 
5200 7.1221378466e+00 2.0437050400e-01 2.2440190852e+00 -3.8867550688e+00 2.2440190852e+00 3.8867550688e+00 
5300 7.1190820289e+00 1.9990903796e-01 2.2394669572e+00 -3.8788705517e+00 2.2394669572e+00 3.8788705517e+00 
5400 7.1161043047e+00 1.9545623863e-01 2.2350051253e+00 -3.8711424322e+00 2.2350051253e+00 3.8711424322e+00 
5500 7.1132047092e+00 1.9101426710e-01 2.2306339411e+00 -3.8635713191e+00 2.2306339411e+00 3.8635713191e+00 
5600 7.1103831635e+00 1.8658519450e-01 2.2263536996e+00 -3.8561577233e+00 2.2263536996e+00 3.8561577233e+00 
5700 7.1076394795e+00 1.8217100301e-01 2.2221646403e+00 -3.8489020597e+00 2.2221646403e+00 3.8489020597e+00 
5800 7.1049733641e+00 1.7777358645e-01 2.2180669490e+00 -3.8418046502e+00 2.2180669490e+00 3.8418046502e+00 
5900 7.1023844232e+00 1.7339475079e-01 2.2140607588e+00 -3.8348657253e+00 2.2140607588e+00 3.8348657253e+00 
6000 7.0998721661e+00 1.6903621450e-01 2.2101461519e+00 -3.8280854273e+00 2.2101461519e+00 3.8280854273e+00 
6100 7.0974360095e+00 1.6469960882e-01 2.2063231608e+00 -3.8214638124e+00 2.2063231608e+00 3.8214638124e+00 
6200 7.0950752809e+00 1.6038647797e-01 2.2025917696e+00 -3.8150008534e+00 2.2025917696e+00 3.8150008534e+00 
6300 7.0927892234e+00 1.5609827938e-01 2.1989519163e+00 -3.8086964425e+00 2.1989519163e+00 3.8086964425e+00 
6400 7.0905769985e+00 1.5183638397e-01 2.1954034936e+00 -3.8025503941e+00 2.1954034936e+00 3.8025503941e+00 
6500 7.0884376906e+00 1.4760207644e-01 2.1919463510e+00 -3.7965624474e+00 2.1919463510e+00 3.7965624474e+00 
6600 7.0863703108e+00 1.4339655572e-01 2.1885802962e+00 -3.7907322694e+00 2.1885802962e+00 3.7907322694e+00 
6700 7.0843738001e+00 1.3922093545e-01 2.1853050970e+00 -3.7850594581e+00 2.1853050970e+00 3.7850594581e+00 
6800 7.0824470336e+00 1.3507624465e-01 2.1821204830e+00 -3.7795435448e+00 2.1821204830e+00 3.7795435448e+00 
6900 7.0805888243e+00 1.3096342846e-01 2.1790261473e+00 -3.7741839981e+00 2.1790261473e+00 3.7741839981e+00 
7000 7.0787979264e+00 1.2688334911e-01 2.1760217482e+00 -3.7689802262e+00 2.1760217482e+00 3.7689802262e+00 
7100 7.0770730396e+00 1.2283678694e-01 2.1731069111e+00 -3.7639315803e+00 2.1731069111e+00 3.7639315803e+00 
7200 7.0754128122e+00 1.1882444166e-01 2.1702812304e+00 -3.7590373577e+00 2.1702812304e+00 3.7590373577e+00 
7300 7.0738158451e+00 1.1484693370e-01 2.1675442710e+00 -3.7542968051e+00 2.1675442710e+00 3.7542968051e+00 
7400 7.0722806955e+00 1.1090480577e-01 2.1648955706e+00 -3.7497091213e+00 2.1648955706e+00 3.7497091213e+00 
7500 7.0708058802e+00 1.0699852447e-01 2.1623346408e+00 -3.7452734608e+00 2.1623346408e+00 3.7452734608e+00 
7600 7.0693898793e+00 1.0312848221e-01 2.1598609696e+00 -3.7409889367e+00 2.1598609696e+00 3.7409889367e+00 
7700 7.0680311399e+00 9.9294999094e-02 2.1574740229e+00 -3.7368546237e+00 2.1574740229e+00 3.7368546237e+00 
7800 7.0667280793e+00 9.5498325027e-02 2.1551732460e+00 -3.7328695611e+00 2.1551732460e+00 3.7328695611e+00 
7900 7.0654790884e+00 9.1738641951e-02 2.1529580657e+00 -3.7290327563e+00 2.1529580657e+00 3.7290327563e+00 
8000 7.0642825352e+00 8.8016066154e-02 2.1508278919e+00 -3.7253431871e+00 2.1508278919e+00 3.7253431871e+00 
8100 7.0631367678e+00 8.4330650706e-02 2.1487821192e+00 -3.7217998049e+00 2.1487821192e+00 3.7217998049e+00 
8200 7.0620401179e+00 8.0682387993e-02 2.1468201287e+00 -3.7184015376e+00 2.1468201287e+00 3.7184015376e+00 
8300 7.0609909036e+00 7.7071212329e-02 2.1449412893e+00 -3.7151472922e+00 2.1449412893e+00 3.7151472922e+00 
8400 7.0599874324e+00 7.3497002644e-02 2.1431449593e+00 -3.7120359575e+00 2.1431449593e+00 3.7120359575e+00 
8500 7.0590280044e+00 6.9959585246e-02 2.1414304884e+00 -3.7090664068e+00 2.1414304884e+00 3.7090664068e+00 
8600 7.0581109145e+00 6.6458736631e-02 2.1397972184e+00 -3.7062375002e+00 2.1397972184e+00 3.7062375002e+00 
8700 7.0572344558e+00 6.2994186347e-02 2.1382444850e+00 -3.7035480870e+00 2.1382444850e+00 3.7035480870e+00 
8800 7.0563969219e+00 5.9565619890e-02 2.1367716191e+00 -3.7009970084e+00 2.1367716191e+00 3.7009970084e+00 
8900 7.0555966092e+00 5.6172681634e-02 2.1353779479e+00 -3.6985830991e+00 2.1353779479e+00 3.6985830991e+00 
9000 7.0548318194e+00 5.2814977778e-02 2.1340627964e+00 -3.6963051899e+00 2.1340627964e+00 3.6963051899e+00 
9100 7.0541008620e+00 4.9492079310e-02 2.1328254881e+00 -3.6941621091e+00 2.1328254881e+00 3.6941621091e+00 
9200 7.0534020561e+00 4.6203524971e-02 2.1316653466e+00 -3.6921526850e+00 2.1316653466e+00 3.6921526850e+00 
9300 7.0527337325e+00 4.2948824224e-02 2.1305816960e+00 -3.6902757471e+00 2.1305816960e+00 3.6902757471e+00 
9400 7.0520942359e+00 3.9727460203e-02 2.1295738624e+00 -3.6885301281e+00 2.1295738624e+00 3.6885301281e+00 
9500 7.0514819265e+00 3.6538892659e-02 2.1286411744e+00 -3.6869146651e+00 2.1286411744e+00 3.6869146651e+00 
9600 7.0508951815e+00 3.3382560879e-02 2.1277829641e+00 -3.6854282013e+00 2.1277829641e+00 3.6854282013e+00 
9700 7.0503323972e+00 3.0257886578e-02 2.1269985676e+00 -3.6840695867e+00 2.1269985676e+00 3.6840695867e+00 
9800 7.0497919901e+00 2.7164276760e-02 2.1262873260e+00 -3.6828376800e+00 2.1262873260e+00 3.6828376800e+00 
9900 7.0492723982e+00 2.4101126551e-02 2.1256485855e+00 -3.6817313491e+00 2.1256485855e+00 3.6817313491e+00 
10000 7.0487720827e+00 2.1067821978e-02 2.1250816984e+00 -3.6807494718e+00 2.1250816984e+00 3.6807494718e+00 
10100 7.0482895285e+00 1.8063742715e-02 2.1245860232e+00 -3.6798909373e+00 2.1245860232e+00 3.6798909373e+00 
10200 7.0478232460e+00 1.5088264780e-02 2.1241609254e+00 -3.6791546462e+00 2.1241609254e+00 3.6791546462e+00 
10300 7.0473717716e+00 1.2140763176e-02 2.1238057770e+00 -3.6785395112e+00 2.1238057770e+00 3.6785395112e+00 
10400 7.0469336687e+00 9.2206144864e-03 2.1235199578e+00 -3.6780444578e+00 2.1235199578e+00 3.6780444578e+00 
10500 7.0465075284e+00 6.3271994047e-03 2.1233028547e+00 -3.6776684241e+00 2.1233028547e+00 3.6776684241e+00 
10600 7.0460919704e+00 3.4599052141e-03 2.1231538621e+00 -3.6774103615e+00 2.1231538621e+00 3.6774103615e+00 
10700 7.0456856433e+00 6.1812819932e-04 2.1230723823e+00 -3.6772692343e+00 2.1230723823e+00 3.6772692343e+00 
10800 7.0452872254e+00 -2.1987240030e-03 2.1230578249e+00 -3.6772440202e+00 2.1230578249e+00 3.6772440202e+00 
10900 7.0448954253e+00 -4.9912301203e-03 2.1231096072e+00 -3.6773337096e+00 2.1231096072e+00 3.6773337096e+00 
11000 7.0445089817e+00 -7.7599530295e-03 2.1232271535e+00 -3.6775373059e+00 2.1232271535e+00 3.6775373059e+00 
11100 7.0441266645e+00 -1.0505437612e-02 2.1234098957e+00 -3.6778538247e+00 2.1234098957e+00 3.6778538247e+00 
11200 7.0437472745e+00 -1.3228208682e-02 2.1236572724e+00 -3.6782822937e+00 2.1236572724e+00 3.6782822937e+00 
11300 7.0433696438e+00 -1.5928768992e-02 2.1239687288e+00 -3.6788217519e+00 2.1239687288e+00 3.6788217519e+00 
11400 7.0429926362e+00 -1.8607597312e-02 2.1243437163e+00 -3.6794712495e+00 2.1243437163e+00 3.6794712495e+00 
11500 7.0426151468e+00 -2.1265146593e-02 2.1247816925e+00 -3.6802298464e+00 2.1247816925e+00 3.6802298464e+00 
11600 7.0422361028e+00 -2.3901842210e-02 2.1252821199e+00 -3.6810966121e+00 2.1252821199e+00 3.6810966121e+00 
11700 7.0418544630e+00 -2.6518080294e-02 2.1258444663e+00 -3.6820706247e+00 2.1258444663e+00 3.6820706247e+00 
11800 7.0414692178e+00 -2.9114226145e-02 2.1264682038e+00 -3.6831509696e+00 2.1264682038e+00 3.6831509696e+00 
11900 7.0410793899e+00 -3.1690612747e-02 2.1271528081e+00 -3.6843367392e+00 2.1271528081e+00 3.6843367392e+00 
12000 7.0406840333e+00 -3.4247539367e-02 2.1278977584e+00 -3.6856270309e+00 2.1278977584e+00 3.6856270309e+00 
12100 7.0402822340e+00 -3.6785270254e-02 2.1287025362e+00 -3.6870209469e+00 2.1287025362e+00 3.6870209469e+00 
12200 7.0398731096e+00 -3.9304033446e-02 2.1295666250e+00 -3.6885175925e+00 2.1295666250e+00 3.6885175925e+00 
12300 7.0394558096e+00 -4.1804019668e-02 2.1304895092e+00 -3.6901160750e+00 2.1304895092e+00 3.6901160750e+00 
12400 7.0390295148e+00 -4.4285381346e-02 2.1314706740e+00 -3.6918155023e+00 2.1314706740e+00 3.6918155023e+00 
12500 7.0385934377e+00 -4.6748231736e-02 2.1325096040e+00 -3.6936149818e+00 2.1325096040e+00 3.6936149818e+00 
12600 7.0381468222e+00 -4.9192644155e-02 2.1336057828e+00 -3.6955136191e+00 2.1336057828e+00 3.6955136191e+00 
12700 7.0376889435e+00 -5.1618651342e-02 2.1347586919e+00 -3.6975105163e+00 2.1347586919e+00 3.6975105163e+00 
12800 7.0372191085e+00 -5.4026244938e-02 2.1359678103e+00 -3.6996047708e+00 2.1359678103e+00 3.6996047708e+00 
12900 7.0367366553e+00 -5.6415375088e-02 2.1372326134e+00 -3.7017954740e+00 2.1372326134e+00 3.7017954740e+00 
13000 7.0362409530e+00 -5.8785950178e-02 2.1385525722e+00 -3.7040817097e+00 2.1385525722e+00 3.7040817097e+00 
13100 7.0357314025e+00 -6.1137836705e-02 2.1399271524e+00 -3.7064625525e+00 2.1399271524e+00 3.7064625525e+00 
13200 7.0352074357e+00 -6.3470859274e-02 2.1413558140e+00 -3.7089370670e+00 2.1413558140e+00 3.7089370670e+00 
13300 7.0346685159e+00 -6.5784800747e-02 2.1428380099e+00 -3.7115043055e+00 2.1428380099e+00 3.7115043055e+00 
13400 7.0341141377e+00 -6.8079402528e-02 2.1443731854e+00 -3.7141633075e+00 2.1443731854e+00 3.7141633075e+00 
13500 7.0335438272e+00 -7.0354364988e-02 2.1459607775e+00 -3.7169130976e+00 2.1459607775e+00 3.7169130976e+00 
13600 7.0329571418e+00 -7.2609348049e-02 2.1476002136e+00 -3.7197526844e+00 2.1476002136e+00 3.7197526844e+00 
13700 7.0323536705e+00 -7.4843971901e-02 2.1492909116e+00 -3.7226810591e+00 2.1492909116e+00 3.7226810591e+00 
13800 7.0317330340e+00 -7.7057817883e-02 2.1510322782e+00 -3.7256971946e+00 2.1510322782e+00 3.7256971946e+00 
13900 7.0310948846e+00 -7.9250429505e-02 2.1528237089e+00 -3.7288000435e+00 2.1528237089e+00 3.7288000435e+00 
14000 7.0304389063e+00 -8.1421313622e-02 2.1546645868e+00 -3.7319885376e+00 2.1546645868e+00 3.7319885376e+00 
14100 7.0297648151e+00 -8.3569941761e-02 2.1565542824e+00 -3.7352615864e+00 2.1565542824e+00 3.7352615864e+00 
14200 7.0290723590e+00 -8.5695751591e-02 2.1584921526e+00 -3.7386180760e+00 2.1584921526e+00 3.7386180760e+00 
14300 7.0283613182e+00 -8.7798148547e-02 2.1604775402e+00 -3.7420568683e+00 2.1604775402e+00 3.7420568683e+00 
14400 7.0276315047e+00 -8.9876507592e-02 2.1625097738e+00 -3.7455768000e+00 2.1625097738e+00 3.7455768000e+00 
14500 7.0268827632e+00 -9.1930175118e-02 2.1645881664e+00 -3.7491766817e+00 2.1645881664e+00 3.7491766817e+00 
14600 7.0261149705e+00 -9.3958470990e-02 2.1667120159e+00 -3.7528552970e+00 2.1667120159e+00 3.7528552970e+00 
14700 7.0253280357e+00 -9.5960690715e-02 2.1688806042e+00 -3.7566114021e+00 2.1688806042e+00 3.7566114021e+00 
14800 7.0245219004e+00 -9.7936107739e-02 2.1710931969e+00 -3.7604437250e+00 2.1710931969e+00 3.7604437250e+00 
14900 7.0236965387e+00 -9.9883975859e-02 2.1733490431e+00 -3.7643509653e+00 2.1733490431e+00 3.7643509653e+00 
15000 7.0228519566e+00 -1.0180353175e-01 2.1756473753e+00 -3.7683317933e+00 2.1756473753e+00 3.7683317933e+00 
15100 7.0219881929e+00 -1.0369399759e-01 2.1779874088e+00 -3.7723848503e+00 2.1779874088e+00 3.7723848503e+00 
15200 7.0211053180e+00 -1.0555458378e-01 2.1803683424e+00 -3.7765087482e+00 2.1803683424e+00 3.7765087482e+00 
15300 7.0202034346e+00 -1.0738449175e-01 2.1827893575e+00 -3.7807020694e+00 2.1827893575e+00 3.7807020694e+00 
15400 7.0192826769e+00 -1.0918291684e-01 2.1852496186e+00 -3.7849633667e+00 2.1852496186e+00 3.7849633667e+00 
15500 7.0183432104e+00 -1.1094905120e-01 2.1877482736e+00 -3.7892911640e+00 2.1877482736e+00 3.7892911640e+00 
15600 7.0173852318e+00 -1.1268208683e-01 2.1902844534e+00 -3.7936839563e+00 2.1902844534e+00 3.7936839563e+00 
15700 7.0164089685e+00 -1.1438121856e-01 2.1928572726e+00 -3.7981402098e+00 2.1928572726e+00 3.7981402098e+00 
15800 7.0154146777e+00 -1.1604564713e-01 2.1954658296e+00 -3.8026583631e+00 2.1954658296e+00 3.8026583631e+00 
15900 7.0144026465e+00 -1.1767458221e-01 2.1981092071e+00 -3.8072368273e+00 2.1981092071e+00 3.8072368273e+00 
16000 7.0133731906e+00 -1.1926724547e-01 2.2007864726e+00 -3.8118739871e+00 2.2007864726e+00 3.8118739871e+00 
16100 7.0123266540e+00 -1.2082287361e-01 2.2034966784e+00 -3.8165682014e+00 2.2034966784e+00 3.8165682014e+00 
16200 7.0112634082e+00 -1.2234072140e-01 2.2062388631e+00 -3.8213178046e+00 2.2062388631e+00 3.8213178046e+00 
16300 7.0101838509e+00 -1.2382006459e-01 2.2090120514e+00 -3.8261211075e+00 2.2090120514e+00 3.8261211075e+00 
16400 7.0090884057e+00 -1.2526020283e-01 2.2118152551e+00 -3.8309763987e+00 2.2118152551e+00 3.8309763987e+00 
16500 7.0079775203e+00 -1.2666046252e-01 2.2146474739e+00 -3.8358819456e+00 2.2146474739e+00 3.8358819456e+00 
16600 7.0068516660e+00 -1.2802019953e-01 2.2175076962e+00 -3.8408359961e+00 2.2175076962e+00 3.8408359961e+00 
16700 7.0057113362e+00 -1.2933880187e-01 2.2203949002e+00 -3.8458367799e+00 2.2203949002e+00 3.8458367799e+00 
16800 7.0045570452e+00 -1.3061569219e-01 2.2233080540e+00 -3.8508825105e+00 2.2233080540e+00 3.8508825105e+00 
16900 7.0033893268e+00 -1.3185033024e-01 2.2262461178e+00 -3.8559713862e+00 2.2262461178e+00 3.8559713862e+00 
17000 7.0022087330e+00 -1.3304221511e-01 2.2292080437e+00 -3.8611015923e+00 2.2292080437e+00 3.8611015923e+00 
17100 7.0010158324e+00 -1.3419088740e-01 2.2321927776e+00 -3.8662713032e+00 2.2321927776e+00 3.8662713032e+00 
17200 6.9998112086e+00 -1.3529593115e-01 2.2351992600e+00 -3.8714786833e+00 2.2351992600e+00 3.8714786833e+00 
17300 6.9985954589e+00 -1.3635697574e-01 2.2382264268e+00 -3.8767218901e+00 2.2382264268e+00 3.8767218901e+00 
17400 6.9973691925e+00 -1.3737369744e-01 2.2412732111e+00 -3.8819990753e+00 2.2412732111e+00 3.8819990753e+00 
17500 6.9961330287e+00 -1.3834582098e-01 2.2443385438e+00 -3.8873083873e+00 2.2443385438e+00 3.8873083873e+00 
17600 6.9948875952e+00 -1.3927312076e-01 2.2474213551e+00 -3.8926479730e+00 2.2474213551e+00 3.8926479730e+00 
17700 6.9936335268e+00 -1.4015542202e-01 2.2505205754e+00 -3.8980159801e+00 2.2505205754e+00 3.8980159801e+00 
17800 6.9923714630e+00 -1.4099260167e-01 2.2536351370e+00 -3.9034105589e+00 2.2536351370e+00 3.9034105589e+00 
17900 6.9911020467e+00 -1.4178458910e-01 2.2567639747e+00 -3.9088298649e+00 2.2567639747e+00 3.9088298649e+00 
18000 6.9898259224e+00 -1.4253136663e-01 2.2599060276e+00 -3.9142720602e+00 2.2599060276e+00 3.9142720602e+00 
18100 6.9885437340e+00 -1.4323296987e-01 2.2630602399e+00 -3.9197353162e+00 2.2630602399e+00 3.9197353162e+00 
18200 6.9872561238e+00 -1.4388948785e-01 2.2662255623e+00 -3.9252178154e+00 2.2662255623e+00 3.9252178154e+00 
18300 6.9859637301e+00 -1.4450106295e-01 2.2694009531e+00 -3.9307177535e+00 2.2694009531e+00 3.9307177535e+00 
18400 6.9846671859e+00 -1.4506789067e-01 2.2725853794e+00 -3.9362333417e+00 2.2725853794e+00 3.9362333417e+00 
18500 6.9833671172e+00 -1.4559021920e-01 2.2757778183e+00 -3.9417628081e+00 2.2757778183e+00 3.9417628081e+00 
18600 6.9820641411e+00 -1.4606834878e-01 2.2789772580e+00 -3.9473044001e+00 2.2789772580e+00 3.9473044001e+00 
18700 6.9807588648e+00 -1.4650263092e-01 2.2821826988e+00 -3.9528563865e+00 2.2821826988e+00 3.9528563865e+00 
18800 6.9794518836e+00 -1.4689346746e-01 2.2853931544e+00 -3.9584170587e+00 2.2853931544e+00 3.9584170587e+00 
18900 6.9781437798e+00 -1.4724130945e-01 2.2886076526e+00 -3.9639847330e+00 2.2886076526e+00 3.9639847330e+00 
19000 6.9768351212e+00 -1.4754665587e-01 2.2918252368e+00 -3.9695577522e+00 2.2918252368e+00 3.9695577522e+00 
19100 6.9755264598e+00 -1.4781005222e-01 2.2950449663e+00 -3.9751344873e+00 2.2950449663e+00 3.9751344873e+00 
19200 6.9742183310e+00 -1.4803208897e-01 2.2982659178e+00 -3.9807133389e+00 2.2982659178e+00 3.9807133389e+00 
19300 6.9729112519e+00 -1.4821339991e-01 2.3014871859e+00 -3.9862927389e+00 2.3014871859e+00 3.9862927389e+00 
19400 6.9716057208e+00 -1.4835466033e-01 2.3047078840e+00 -3.9918711518e+00 2.3047078840e+00 3.9918711518e+00 
19500 6.9703022160e+00 -1.4845658513e-01 2.3079271454e+00 -3.9974470760e+00 2.3079271454e+00 3.9974470760e+00 
19600 6.9690011953e+00 -1.4851992689e-01 2.3111441234e+00 -4.0030190454e+00 2.3111441234e+00 4.0030190454e+00 
19700 6.9677030951e+00 -1.4854547373e-01 2.3143579925e+00 -4.0085856299e+00 2.3143579925e+00 4.0085856299e+00 
19800 6.9664083296e+00 -1.4853404721e-01 2.3175679487e+00 -4.0141454372e+00 2.3175679487e+00 4.0141454372e+00 
19900 6.9651172909e+00 -1.4848650010e-01 2.3207732103e+00 -4.0196971131e+00 2.3207732103e+00 4.0196971131e+00 
20000 6.9638303481e+00 -1.4840371419e-01 2.3239730182e+00 -4.0252393429e+00 2.3239730182e+00 4.0252393429e+00 
20100 6.9625478470e+00 -1.4828659792e-01 2.3271666363e+00 -4.0307708518e+00 2.3271666363e+00 4.0307708518e+00 
20200 6.9612701105e+00 -1.4813608411e-01 2.3303533524e+00 -4.0362904060e+00 2.3303533524e+00 4.0362904060e+00 
20300 6.9599974377e+00 -1.4795312760e-01 2.3335324778e+00 -4.0417968127e+00 2.3335324778e+00 4.0417968127e+00 
20400 6.9587301046e+00 -1.4773870291e-01 2.3367033483e+00 -4.0472889214e+00 2.3367033483e+00 4.0472889214e+00 
20500 6.9574683637e+00 -1.4749380191e-01 2.3398653237e+00 -4.0527656234e+00 2.3398653237e+00 4.0527656234e+00 
20600 6.9562124448e+00 -1.4721943142e-01 2.3430177886e+00 -4.0582258529e+00 2.3430177886e+00 4.0582258529e+00 
20700 6.9549625546e+00 -1.4691661098e-01 2.3461601525e+00 -4.0636685868e+00 2.3461601525e+00 4.0636685868e+00 
20800 6.9537188775e+00 -1.4658637047e-01 2.3492918493e+00 -4.0690928447e+00 2.3492918493e+00 4.0690928447e+00 
20900 6.9524815759e+00 -1.4622974790e-01 2.3524123379e+00 -4.0744976896e+00 2.3524123379e+00 4.0744976896e+00 
21000 6.9512507909e+00 -1.4584778720e-01 2.3555211021e+00 -4.0798822272e+00 2.3555211021e+00 4.0798822272e+00 
21100 6.9500266427e+00 -1.4544153602e-01 2.3586176503e+00 -4.0852456060e+00 2.3586176503e+00 4.0852456060e+00 
21200 6.9488092314e+00 -1.4501204364e-01 2.3617015156e+00 -4.0905870174e+00 2.3617015156e+00 4.0905870174e+00 
21300 6.9475986375e+00 -1.4456035890e-01 2.3647722555e+00 -4.0959056949e+00 2.3647722555e+00 4.0959056949e+00 
21400 6.9463949230e+00 -1.4408752824e-01 2.3678294518e+00 -4.1012009142e+00 2.3678294518e+00 4.1012009142e+00 
21500 6.9451981319e+00 -1.4359459375e-01 2.3708727104e+00 -4.1064719927e+00 2.3708727104e+00 4.1064719927e+00 
21600 6.9440082912e+00 -1.4308259135e-01 2.3739016610e+00 -4.1117182889e+00 2.3739016610e+00 4.1117182889e+00 
21700 6.9428254120e+00 -1.4255254903e-01 2.3769159566e+00 -4.1169392021e+00 2.3769159566e+00 4.1169392021e+00 
21800 6.9416494899e+00 -1.4200548514e-01 2.3799152735e+00 -4.1221341714e+00 2.3799152735e+00 4.1221341714e+00 
21900 6.9404805066e+00 -1.4144240682e-01 2.3828993107e+00 -4.1273026755e+00 2.3828993107e+00 4.1273026755e+00 
22000 6.9393184302e+00 -1.4086430847e-01 2.3858677897e+00 -4.1324442320e+00 2.3858677897e+00 4.1324442320e+00 
22100 6.9381632168e+00 -1.4027217031e-01 2.3888204538e+00 -4.1375583961e+00 2.3888204538e+00 4.1375583961e+00 
22200 6.9370148110e+00 -1.3966695707e-01 2.3917570677e+00 -4.1426447607e+00 2.3917570677e+00 4.1426447607e+00 
22300 6.9358731473e+00 -1.3904961670e-01 2.3946774174e+00 -4.1477029547e+00 2.3946774174e+00 4.1477029547e+00 
22400 6.9347381507e+00 -1.3842107924e-01 2.3975813092e+00 -4.1527326427e+00 2.3975813092e+00 4.1527326427e+00 
22500 6.9336097381e+00 -1.3778225573e-01 2.4004685694e+00 -4.1577335241e+00 2.4004685694e+00 4.1577335241e+00 
22600 6.9324878187e+00 -1.3713403722e-01 2.4033390439e+00 -4.1627053318e+00 2.4033390439e+00 4.1627053318e+00 
22700 6.9313722956e+00 -1.3647729385e-01 2.4061925975e+00 -4.1676478317e+00 2.4061925975e+00 4.1676478317e+00 
22800 6.9302630665e+00 -1.3581287409e-01 2.4090291134e+00 -4.1725608213e+00 2.4090291134e+00 4.1725608213e+00 
22900 6.9291600242e+00 -1.3514160396e-01 2.4118484926e+00 -4.1774441293e+00 2.4118484926e+00 4.1774441293e+00 
23000 6.9280630583e+00 -1.3446428639e-01 2.4146506532e+00 -4.1822976138e+00 2.4146506532e+00 4.1822976138e+00 
23100 6.9269720554e+00 -1.3378170067e-01 2.4174355301e+00 -4.1871211622e+00 2.4174355301e+00 4.1871211622e+00 
23200 6.9258869001e+00 -1.3309460195e-01 2.4202030743e+00 -4.1919146893e+00 2.4202030743e+00 4.1919146893e+00 
23300 6.9248074759e+00 -1.3240372081e-01 2.4229532521e+00 -4.1966781370e+00 2.4229532521e+00 4.1966781370e+00 
23400 6.9237336662e+00 -1.3170976296e-01 2.4256860448e+00 -4.2014114727e+00 2.4256860448e+00 4.2014114727e+00 
23500 6.9226653543e+00 -1.3101340893e-01 2.4284014478e+00 -4.2061146887e+00 2.4284014478e+00 4.2061146887e+00 
23600 6.9216024248e+00 -1.3031531390e-01 2.4310994703e+00 -4.2107878009e+00 2.4310994703e+00 4.2107878009e+00 
23700 6.9205447640e+00 -1.2961610754e-01 2.4337801347e+00 -4.2154308477e+00 2.4337801347e+00 4.2154308477e+00 
23800 6.9194922605e+00 -1.2891639396e-01 2.4364434754e+00 -4.2200438892e+00 2.4364434754e+00 4.2200438892e+00 
23900 6.9184448056e+00 -1.2821675168e-01 2.4390895393e+00 -4.2246270062e+00 2.4390895393e+00 4.2246270062e+00 
24000 6.9174022942e+00 -1.2751773368e-01 2.4417183840e+00 -4.2291802989e+00 2.4417183840e+00 4.2291802989e+00 
24100 6.9163646249e+00 -1.2681986750e-01 2.4443300783e+00 -4.2337038860e+00 2.4443300783e+00 4.2337038860e+00 
24200 6.9153317007e+00 -1.2612365538e-01 2.4469247008e+00 -4.2381979040e+00 2.4469247008e+00 4.2381979040e+00 
24300 6.9143034294e+00 -1.2542957446e-01 2.4495023398e+00 -4.2426625058e+00 2.4495023398e+00 4.2426625058e+00 
24400 6.9132797236e+00 -1.2473807702e-01 2.4520630926e+00 -4.2470978598e+00 2.4520630926e+00 4.2470978598e+00 
24500 6.9122605016e+00 -1.2404959074e-01 2.4546070651e+00 -4.2515041494e+00 2.4546070651e+00 4.2515041494e+00 
24600 6.9112456872e+00 -1.2336451905e-01 2.4571343709e+00 -4.2558815714e+00 2.4571343709e+00 4.2558815714e+00 
24700 6.9102352099e+00 -1.2268324149e-01 2.4596451311e+00 -4.2602303356e+00 2.4596451311e+00 4.2602303356e+00 
24800 6.9092290057e+00 -1.2200611404e-01 2.4621394737e+00 -4.2645506638e+00 2.4621394737e+00 4.2645506638e+00 
24900 6.9082270165e+00 -1.2133346961e-01 2.4646175331e+00 -4.2688427885e+00 2.4646175331e+00 4.2688427885e+00 
25000 6.9072291907e+00 -1.2066561842e-01 2.4670794495e+00 -4.2731069528e+00 2.4670794495e+00 4.2731069528e+00 
25100 6.9062354832e+00 -1.2000284854e-01 2.4695253685e+00 -4.2773434089e+00 2.4695253685e+00 4.2773434089e+00 
25200 6.9052458554e+00 -1.1934542631e-01 2.4719554409e+00 -4.2815524177e+00 2.4719554409e+00 4.2815524177e+00 
25300 6.9042602751e+00 -1.1869359690e-01 2.4743698216e+00 -4.2857342478e+00 2.4743698216e+00 4.2857342478e+00 
25400 6.9032787168e+00 -1.1804758482e-01 2.4767686699e+00 -4.2898891748e+00 2.4767686699e+00 4.2898891748e+00 
25500 6.9023011614e+00 -1.1740759447e-01 2.4791521484e+00 -4.2940174806e+00 2.4791521484e+00 4.2940174806e+00 
25600 6.9013275964e+00 -1.1677381071e-01 2.4815204231e+00 -4.2981194528e+00 2.4815204231e+00 4.2981194528e+00 
25700 6.9003580155e+00 -1.1614639941e-01 2.4838736627e+00 -4.3021953835e+00 2.4838736627e+00 4.3021953835e+00 
25800 6.8993924185e+00 -1.1552550802e-01 2.4862120386e+00 -4.3062455692e+00 2.4862120386e+00 4.3062455692e+00 
25900 6.8984308117e+00 -1.1491126618e-01 2.4885357238e+00 -4.3102703101e+00 2.4885357238e+00 4.3102703101e+00 
26000 6.8974732070e+00 -1.1430378633e-01 2.4908448934e+00 -4.3142699091e+00 2.4908448934e+00 4.3142699091e+00 
26100 6.8965196223e+00 -1.1370316422e-01 2.4931397235e+00 -4.3182446715e+00 2.4931397235e+00 4.3182446715e+00 
26200 6.8955700809e+00 -1.1310947962e-01 2.4954203915e+00 -4.3221949044e+00 2.4954203915e+00 4.3221949044e+00 
26300 6.8946246117e+00 -1.1252279683e-01 2.4976870755e+00 -4.3261209161e+00 2.4976870755e+00 4.3261209161e+00 
26400 6.8936832487e+00 -1.1194316532e-01 2.4999399536e+00 -4.3300230156e+00 2.4999399536e+00 4.3300230156e+00 
26500 6.8927460309e+00 -1.1137062031e-01 2.5021792046e+00 -4.3339015120e+00 2.5021792046e+00 4.3339015120e+00 
26600 6.8918130018e+00 -1.1080518336e-01 2.5044050067e+00 -4.3377567144e+00 2.5044050067e+00 4.3377567144e+00 
26700 6.8908842097e+00 -1.1024686299e-01 2.5066175379e+00 -4.3415889307e+00 2.5066175379e+00 4.3415889307e+00 
26800 6.8899597068e+00 -1.0969565522e-01 2.5088169753e+00 -4.3453984681e+00 2.5088169753e+00 4.3453984681e+00 
26900 6.8890395495e+00 -1.0915154416e-01 2.5110034954e+00 -4.3491856320e+00 2.5110034954e+00 4.3491856320e+00 
27000 6.8881237976e+00 -1.0861450261e-01 2.5131772733e+00 -4.3529507257e+00 2.5131772733e+00 4.3529507257e+00 
27100 6.8872125147e+00 -1.0808449257e-01 2.5153384828e+00 -4.3566940504e+00 2.5153384828e+00 4.3566940504e+00 
27200 6.8863057671e+00 -1.0756146584e-01 2.5174872963e+00 -4.3604159046e+00 2.5174872963e+00 4.3604159046e+00 
27300 6.8854036242e+00 -1.0704536454e-01 2.5196238844e+00 -4.3641165837e+00 2.5196238844e+00 4.3641165837e+00 
27400 6.8845061581e+00 -1.0653612165e-01 2.5217484156e+00 -4.3677963797e+00 2.5217484156e+00 4.3677963797e+00 
27500 6.8836134431e+00 -1.0603366152e-01 2.5238610566e+00 -4.3714555813e+00 2.5238610566e+00 4.3714555813e+00 
27600 6.8827255553e+00 -1.0553790041e-01 2.5259619717e+00 -4.3750944731e+00 2.5259619717e+00 4.3750944731e+00 
27700 6.8818425730e+00 -1.0504874699e-01 2.5280513230e+00 -4.3787133356e+00 2.5280513230e+00 4.3787133356e+00 
27800 6.8809645758e+00 -1.0456610279e-01 2.5301292698e+00 -4.3823124450e+00 2.5301292698e+00 4.3823124450e+00 
27900 6.8800916445e+00 -1.0408986273e-01 2.5321959690e+00 -4.3858920731e+00 2.5321959690e+00 4.3858920731e+00 
28000 6.8792238609e+00 -1.0361991555e-01 2.5342515748e+00 -4.3894524867e+00 2.5342515748e+00 4.3894524867e+00 
28100 6.8783613077e+00 -1.0315614428e-01 2.5362962384e+00 -4.3929939479e+00 2.5362962384e+00 4.3929939479e+00 
28200 6.8775040678e+00 -1.0269842669e-01 2.5383301080e+00 -4.3965167134e+00 2.5383301080e+00 4.3965167134e+00 
28300 6.8766522247e+00 -1.0224663569e-01 2.5403533290e+00 -4.4000210350e+00 2.5403533290e+00 4.4000210350e+00 
28400 6.8758058616e+00 -1.0180063978e-01 2.5423660436e+00 -4.4035071590e+00 2.5423660436e+00 4.4035071590e+00 
28500 6.8749650617e+00 -1.0136030341e-01 2.5443683908e+00 -4.4069753261e+00 2.5443683908e+00 4.4069753261e+00 
28600 6.8741299076e+00 -1.0092548743e-01 2.5463605064e+00 -4.4104257715e+00 2.5463605064e+00 4.4104257715e+00 
28700 6.8733004815e+00 -1.0049604941e-01 2.5483425229e+00 -4.4138587247e+00 2.5483425229e+00 4.4138587247e+00 
28800 6.8724768645e+00 -1.0007184403e-01 2.5503145694e+00 -4.4172744094e+00 2.5503145694e+00 4.4172744094e+00 
28900 6.8716591369e+00 -9.9652723459e-02 2.5522767717e+00 -4.4206730436e+00 2.5522767717e+00 4.4206730436e+00 
29000 6.8708473776e+00 -9.9238537628e-02 2.5542292523e+00 -4.4240548392e+00 2.5542292523e+00 4.4240548392e+00 
29100 6.8700416643e+00 -9.8829134619e-02 2.5561721301e+00 -4.4274200023e+00 2.5561721301e+00 4.4274200023e+00 
29200 6.8692420728e+00 -9.8424360949e-02 2.5581055207e+00 -4.4307687330e+00 2.5581055207e+00 4.4307687330e+00 
29300 6.8684486777e+00 -9.8024061882e-02 2.5600295361e+00 -4.4341012254e+00 2.5600295361e+00 4.4341012254e+00 
29400 6.8676615512e+00 -9.7628081715e-02 2.5619442849e+00 -4.4374176676e+00 2.5619442849e+00 4.4374176676e+00 
29500 6.8668807639e+00 -9.7236264059e-02 2.5638498723e+00 -4.4407182418e+00 2.5638498723e+00 4.4407182418e+00 
29600 6.8661063841e+00 -9.6848452107e-02 2.5657463999e+00 -4.4440031240e+00 2.5657463999e+00 4.4440031240e+00 
29700 6.8653384779e+00 -9.6464488886e-02 2.5676339660e+00 -4.4472724843e+00 2.5676339660e+00 4.4472724843e+00 
29800 6.8645771089e+00 -9.6084217503e-02 2.5695126653e+00 -4.4505264870e+00 2.5695126653e+00 4.4505264870e+00 
29900 6.8638223384e+00 -9.5707481381e-02 2.5713825892e+00 -4.4537652901e+00 2.5713825892e+00 4.4537652901e+00 
30000 6.8630742250e+00 -9.5334124475e-02 2.5732438256e+00 -4.4569890461e+00 2.5732438256e+00 4.4569890461e+00 
30100 6.8623328247e+00 -9.4963991488e-02 2.5750964591e+00 -4.4601979015e+00 2.5750964591e+00 4.4601979015e+00 
30200 6.8615981908e+00 -9.4596928073e-02 2.5769405709e+00 -4.4633919968e+00 2.5769405709e+00 4.4633919968e+00 
30300 6.8608703738e+00 -9.4232781023e-02 2.5787762389e+00 -4.4665714672e+00 2.5787762389e+00 4.4665714672e+00 
30400 6.8601494213e+00 -9.3871398452e-02 2.5806035379e+00 -4.4697364418e+00 2.5806035379e+00 4.4697364418e+00 
30500 6.8594353780e+00 -9.3512629969e-02 2.5824225390e+00 -4.4728870442e+00 2.5824225390e+00 4.4728870442e+00 
30600 6.8587282855e+00 -9.3156326839e-02 2.5842333107e+00 -4.4760233927e+00 2.5842333107e+00 4.4760233927e+00 
30700 6.8580281826e+00 -9.2802342137e-02 2.5860359178e+00 -4.4791455998e+00 2.5860359178e+00 4.4791455998e+00 
30800 6.8573351049e+00 -9.2450530894e-02 2.5878304224e+00 -4.4822537729e+00 2.5878304224e+00 4.4822537729e+00 
30900 6.8566490851e+00 -9.2100750234e-02 2.5896168833e+00 -4.4853480140e+00 2.5896168833e+00 4.4853480140e+00 
31000 6.8559701526e+00 -9.1752859498e-02 2.5913953565e+00 -4.4884284200e+00 2.5913953565e+00 4.4884284200e+00 
31100 6.8552983339e+00 -9.1406720369e-02 2.5931658949e+00 -4.4914950824e+00 2.5931658949e+00 4.4914950824e+00 
31200 6.8546336522e+00 -9.1062196983e-02 2.5949285486e+00 -4.4945480881e+00 2.5949285486e+00 4.4945480881e+00 
31300 6.8539761278e+00 -9.0719156032e-02 2.5966833647e+00 -4.4975875189e+00 2.5966833647e+00 4.4975875189e+00 
31400 6.8533257777e+00 -9.0377466862e-02 2.5984303879e+00 -4.5006134518e+00 2.5984303879e+00 4.5006134518e+00 
31500 6.8526826159e+00 -9.0037001566e-02 2.6001696599e+00 -4.5036259592e+00 2.6001696599e+00 4.5036259592e+00 
31600 6.8520466533e+00 -8.9697635063e-02 2.6019012197e+00 -4.5066251088e+00 2.6019012197e+00 4.5066251088e+00 
31700 6.8514178978e+00 -8.9359245181e-02 2.6036251040e+00 -4.5096109640e+00 2.6036251040e+00 4.5096109640e+00 
31800 6.8507963542e+00 -8.9021712722e-02 2.6053413468e+00 -4.5125835836e+00 2.6053413468e+00 4.5125835836e+00 
31900 6.8501820242e+00 -8.8684921529e-02 2.6070499796e+00 -4.5155430225e+00 2.6070499796e+00 4.5155430225e+00 
32000 6.8495749066e+00 -8.8348758547e-02 2.6087510317e+00 -4.5184893312e+00 2.6087510317e+00 4.5184893312e+00 
32100 6.8489749974e+00 -8.8013113871e-02 2.6104445300e+00 -4.5214225564e+00 2.6104445300e+00 4.5214225564e+00 
32200 6.8483822895e+00 -8.7677880796e-02 2.6121304992e+00 -4.5243427407e+00 2.6121304992e+00 4.5243427407e+00 
32300 6.8477967730e+00 -8.7342955862e-02 2.6138089618e+00 -4.5272499231e+00 2.6138089618e+00 4.5272499231e+00 
32400 6.8472184352e+00 -8.7008238885e-02 2.6154799380e+00 -4.5301441389e+00 2.6154799380e+00 4.5301441389e+00 
32500 6.8466472607e+00 -8.6673632993e-02 2.6171434464e+00 -4.5330254199e+00 2.6171434464e+00 4.5330254199e+00 
32600 6.8460832311e+00 -8.6339044654e-02 2.6187995033e+00 -4.5358937945e+00 2.6187995033e+00 4.5358937945e+00 
32700 6.8455263257e+00 -8.6004383696e-02 2.6204481231e+00 -4.5387492878e+00 2.6204481231e+00 4.5387492878e+00 
32800 6.8449765211e+00 -8.5669563327e-02 2.6220893186e+00 -4.5415919219e+00 2.6220893186e+00 4.5415919219e+00 
32900 6.8444337912e+00 -8.5334500151e-02 2.6237231008e+00 -4.5444217155e+00 2.6237231008e+00 4.5444217155e+00 
33000 6.8438981075e+00 -8.4999114176e-02 2.6253494788e+00 -4.5472386848e+00 2.6253494788e+00 4.5472386848e+00 
33100 6.8433694392e+00 -8.4663328819e-02 2.6269684602e+00 -4.5500428430e+00 2.6269684602e+00 4.5500428430e+00 
33200 6.8428477529e+00 -8.4327070912e-02 2.6285800513e+00 -4.5528342007e+00 2.6285800513e+00 4.5528342007e+00 
33300 6.8423330132e+00 -8.3990270701e-02 2.6301842566e+00 -4.5556127658e+00 2.6301842566e+00 4.5556127658e+00 
33400 6.8418251823e+00 -8.3652861839e-02 2.6317810794e+00 -4.5583785440e+00 2.6317810794e+00 4.5583785440e+00 
33500 6.8413242201e+00 -8.3314781378e-02 2.6333705216e+00 -4.5611315386e+00 2.6333705216e+00 4.5611315386e+00 
33600 6.8408300847e+00 -8.2975969764e-02 2.6349525838e+00 -4.5638717506e+00 2.6349525838e+00 4.5638717506e+00 
33700 6.8403427321e+00 -8.2636370815e-02 2.6365272654e+00 -4.5665991792e+00 2.6365272654e+00 4.5665991792e+00 
33800 6.8398621162e+00 -8.2295931712e-02 2.6380945648e+00 -4.5693138214e+00 2.6380945648e+00 4.5693138214e+00 
33900 6.8393881891e+00 -8.1954602972e-02 2.6396544793e+00 -4.5720156725e+00 2.6396544793e+00 4.5720156725e+00 
34000 6.8389209012e+00 -8.1612338434e-02 2.6412070050e+00 -4.5747047260e+00 2.6412070050e+00 4.5747047260e+00 
34100 6.8384602010e+00 -8.1269095226e-02 2.6427521374e+00 -4.5773809738e+00 2.6427521374e+00 4.5773809738e+00 
34200 6.8380060355e+00 -8.0924833745e-02 2.6442898709e+00 -4.5800444064e+00 2.6442898709e+00 4.5800444064e+00 
34300 6.8375583500e+00 -8.0579517621e-02 2.6458201993e+00 -4.5826950128e+00 2.6458201993e+00 4.5826950128e+00 
34400 6.8371170881e+00 -8.0233113692e-02 2.6473431153e+00 -4.5853327808e+00 2.6473431153e+00 4.5853327808e+00 
34500 6.8366821924e+00 -7.9885591964e-02 2.6488586115e+00 -4.5879576971e+00 2.6488586115e+00 4.5879576971e+00 
34600 6.8362536037e+00 -7.9536925578e-02 2.6503666792e+00 -4.5905697471e+00 2.6503666792e+00 4.5905697471e+00 
34700 6.8358312617e+00 -7.9187090773e-02 2.6518673098e+00 -4.5931689156e+00 2.6518673098e+00 4.5931689156e+00 
34800 6.8354151047e+00 -7.8836066842e-02 2.6533604938e+00 -4.5957551861e+00 2.6533604938e+00 4.5957551861e+00 
34900 6.8350050701e+00 -7.8483836097e-02 2.6548462215e+00 -4.5983285418e+00 2.6548462215e+00 4.5983285418e+00 
35000 6.8346010939e+00 -7.8130383817e-02 2.6563244825e+00 -4.6008889651e+00 2.6563244825e+00 4.6008889651e+00 
35100 6.8342031113e+00 -7.7775698212e-02 2.6577952665e+00 -4.6034364376e+00 2.6577952665e+00 4.6034364376e+00 
35200 6.8338110564e+00 -7.7419770370e-02 2.6592585626e+00 -4.6059709409e+00 2.6592585626e+00 4.6059709409e+00 
35300 6.8334248624e+00 -7.7062594211e-02 2.6607143599e+00 -4.6084924558e+00 2.6607143599e+00 4.6084924558e+00 
35400 6.8330444618e+00 -7.6704166439e-02 2.6621626473e+00 -4.6110009631e+00 2.6621626473e+00 4.6110009631e+00 
35500 6.8326697862e+00 -7.6344486487e-02 2.6636034135e+00 -4.6134964434e+00 2.6636034135e+00 4.6134964434e+00 
35600 6.8323007666e+00 -7.5983556472e-02 2.6650366473e+00 -4.6159788772e+00 2.6650366473e+00 4.6159788772e+00 
35700 6.8319373332e+00 -7.5621381133e-02 2.6664623374e+00 -4.6184482449e+00 2.6664623374e+00 4.6184482449e+00 
35800 6.8315794159e+00 -7.5257967783e-02 2.6678804726e+00 -4.6209045270e+00 2.6678804726e+00 4.6209045270e+00 
35900 6.8312269438e+00 -7.4893326251e-02 2.6692910417e+00 -4.6233477044e+00 2.6692910417e+00 4.6233477044e+00 
36000 6.8308798458e+00 -7.4527468825e-02 2.6706940338e+00 -4.6257777579e+00 2.6706940338e+00 4.6257777579e+00 
36100 6.8305380503e+00 -7.4160410195e-02 2.6720894380e+00 -4.6281946690e+00 2.6720894380e+00 4.6281946690e+00 
36200 6.8302014853e+00 -7.3792167394e-02 2.6734772438e+00 -4.6305984192e+00 2.6734772438e+00 4.6305984192e+00 
36300 6.8298700786e+00 -7.3422759740e-02 2.6748574409e+00 -4.6329889907e+00 2.6748574409e+00 4.6329889907e+00 
36400 6.8295437578e+00 -7.3052208774e-02 2.6762300194e+00 -4.6353663664e+00 2.6762300194e+00 4.6353663664e+00 
36500 6.8292224504e+00 -7.2680538198e-02 2.6775949696e+00 -4.6377305295e+00 2.6775949696e+00 4.6377305295e+00 
36600 6.8289060836e+00 -7.2307773819e-02 2.6789522824e+00 -4.6400814641e+00 2.6789522824e+00 4.6400814641e+00 
36700 6.8285945847e+00 -7.1933943477e-02 2.6803019489e+00 -4.6424191550e+00 2.6803019489e+00 4.6424191550e+00 
36800 6.8282878810e+00 -7.1559076994e-02 2.6816439608e+00 -4.6447435879e+00 2.6816439608e+00 4.6447435879e+00 
36900 6.8279858998e+00 -7.1183206098e-02 2.6829783103e+00 -4.6470547491e+00 2.6829783103e+00 4.6470547491e+00 
37000 6.8276885684e+00 -7.0806364370e-02 2.6843049902e+00 -4.6493526261e+00 2.6843049902e+00 4.6493526261e+00 
37100 6.8273958145e+00 -7.0428587172e-02 2.6856239939e+00 -4.6516372074e+00 2.6856239939e+00 4.6516372074e+00 
37200 6.8271075657e+00 -7.0049911586e-02 2.6869353151e+00 -4.6539084824e+00 2.6869353151e+00 4.6539084824e+00 
37300 6.8268237501e+00 -6.9670376347e-02 2.6882389485e+00 -4.6561664417e+00 2.6882389485e+00 4.6561664417e+00 
37400 6.8265442959e+00 -6.9290021779e-02 2.6895348893e+00 -4.6584110770e+00 2.6895348893e+00 4.6584110770e+00 
37500 6.8262691317e+00 -6.8908889728e-02 2.6908231334e+00 -4.6606423813e+00 2.6908231334e+00 4.6606423813e+00 
37600 6.8259981863e+00 -6.8527023497e-02 2.6921036775e+00 -4.6628603487e+00 2.6921036775e+00 4.6628603487e+00 
37700 6.8257313892e+00 -6.8144467779e-02 2.6933765189e+00 -4.6650649746e+00 2.6933765189e+00 4.6650649746e+00 
37800 6.8254686700e+00 -6.7761268591e-02 2.6946416558e+00 -4.6672562560e+00 2.6946416558e+00 4.6672562560e+00 
37900 6.8252099592e+00 -6.7377473210e-02 2.6958990871e+00 -4.6694341909e+00 2.6958990871e+00 4.6694341909e+00 
38000 6.8249551873e+00 -6.6993130103e-02 2.6971488126e+00 -4.6715987790e+00 2.6971488126e+00 4.6715987790e+00 
38100 6.8247042857e+00 -6.6608288863e-02 2.6983908328e+00 -4.6737500211e+00 2.6983908328e+00 4.6737500211e+00 
38200 6.8244571863e+00 -6.6223000143e-02 2.6996251493e+00 -4.6758879200e+00 2.6996251493e+00 4.6758879200e+00 
38300 6.8242138216e+00 -6.5837315590e-02 2.7008517643e+00 -4.6780124794e+00 2.7008517643e+00 4.6780124794e+00 
38400 6.8239741247e+00 -6.5451287778e-02 2.7020706809e+00 -4.6801237050e+00 2.7020706809e+00 4.6801237050e+00 
38500 6.8237380293e+00 -6.5064970142e-02 2.7032819034e+00 -4.6822216039e+00 2.7032819034e+00 4.6822216039e+00 
38600 6.8235054700e+00 -6.4678416918e-02 2.7044854367e+00 -4.6843061847e+00 2.7044854367e+00 4.6843061847e+00 
38700 6.8232763820e+00 -6.4291683071e-02 2.7056812868e+00 -4.6863774578e+00 2.7056812868e+00 4.6863774578e+00 
38800 6.8230507011e+00 -6.3904824234e-02 2.7068694604e+00 -4.6884354350e+00 2.7068694604e+00 4.6884354350e+00 
38900 6.8228283640e+00 -6.3517896644e-02 2.7080499656e+00 -4.6904801299e+00 2.7080499656e+00 4.6904801299e+00 
39000 6.8226093084e+00 -6.3130957077e-02 2.7092228110e+00 -4.6925115577e+00 2.7092228110e+00 4.6925115577e+00 
39100 6.8223934723e+00 -6.2744062786e-02 2.7103880064e+00 -4.6945297354e+00 2.7103880064e+00 4.6945297354e+00 
39200 6.8221807950e+00 -6.2357271439e-02 2.7115455626e+00 -4.6965346814e+00 2.7115455626e+00 4.6965346814e+00 
39300 6.8219712164e+00 -6.1970641053e-02 2.7126954912e+00 -4.6985264162e+00 2.7126954912e+00 4.6985264162e+00 
39400 6.8217646773e+00 -6.1584229939e-02 2.7138378050e+00 -4.7005049617e+00 2.7138378050e+00 4.7005049617e+00 
39500 6.8215611194e+00 -6.1198096636e-02 2.7149725176e+00 -4.7024703416e+00 2.7149725176e+00 4.7024703416e+00 
39600 6.8213604851e+00 -6.0812299853e-02 2.7160996437e+00 -4.7044225813e+00 2.7160996437e+00 4.7044225813e+00 
39700 6.8211627181e+00 -6.0426898411e-02 2.7172191990e+00 -4.7063617080e+00 2.7172191990e+00 4.7063617080e+00 
39800 6.8209677625e+00 -6.0041951181e-02 2.7183312002e+00 -4.7082877505e+00 2.7183312002e+00 4.7082877505e+00 
39900 6.8207755638e+00 -5.9657517031e-02 2.7194356648e+00 -4.7102007394e+00 2.7194356648e+00 4.7102007394e+00 
40000 6.8205860681e+00 -5.9273654768e-02 2.7205326116e+00 -4.7121007070e+00 2.7205326116e+00 4.7121007070e+00 
40100 6.8203992224e+00 -5.8890423080e-02 2.7216220603e+00 -4.7139876874e+00 2.7216220603e+00 4.7139876874e+00 
40200 6.8202149750e+00 -5.8507880483e-02 2.7227040313e+00 -4.7158617161e+00 2.7227040313e+00 4.7158617161e+00 
40300 6.8200332748e+00 -5.8126085269e-02 2.7237785463e+00 -4.7177228307e+00 2.7237785463e+00 4.7177228307e+00 
40400 6.8198540717e+00 -5.7745095449e-02 2.7248456279e+00 -4.7195710702e+00 2.7248456279e+00 4.7195710702e+00 
40500 6.8196773167e+00 -5.7364968709e-02 2.7259052996e+00 -4.7214064755e+00 2.7259052996e+00 4.7214064755e+00 
40600 6.8195029615e+00 -5.6985762349e-02 2.7269575859e+00 -4.7232290889e+00 2.7269575859e+00 4.7232290889e+00 
40700 6.8193309591e+00 -5.6607533243e-02 2.7280025123e+00 -4.7250389545e+00 2.7280025123e+00 4.7250389545e+00 
40800 6.8191612631e+00 -5.6230337787e-02 2.7290401052e+00 -4.7268361181e+00 2.7290401052e+00 4.7268361181e+00 
40900 6.8189938282e+00 -5.5854231852e-02 2.7300703919e+00 -4.7286206270e+00 2.7300703919e+00 4.7286206270e+00 
41000 6.8188286101e+00 -5.5479270739e-02 2.7310934007e+00 -4.7303925302e+00 2.7310934007e+00 4.7303925302e+00 
41100 6.8186655653e+00 -5.5105509136e-02 2.7321091607e+00 -4.7321518781e+00 2.7321091607e+00 4.7321518781e+00 
41200 6.8185046514e+00 -5.4733001071e-02 2.7331177019e+00 -4.7338987228e+00 2.7331177019e+00 4.7338987228e+00 
41300 6.8183458268e+00 -5.4361799876e-02 2.7341190555e+00 -4.7356331180e+00 2.7341190555e+00 4.7356331180e+00 
41400 6.8181890510e+00 -5.3991958139e-02 2.7351132531e+00 -4.7373551188e+00 2.7351132531e+00 4.7373551188e+00 
41500 6.8180342840e+00 -5.3623527674e-02 2.7361003275e+00 -4.7390647818e+00 2.7361003275e+00 4.7390647818e+00 
41600 6.8178814873e+00 -5.3256559476e-02 2.7370803121e+00 -4.7407621650e+00 2.7370803121e+00 4.7407621650e+00 
41700 6.8177306229e+00 -5.2891103689e-02 2.7380532415e+00 -4.7424473280e+00 2.7380532415e+00 4.7424473280e+00 
41800 6.8175816537e+00 -5.2527209567e-02 2.7390191506e+00 -4.7441203317e+00 2.7390191506e+00 4.7441203317e+00 
41900 6.8174345438e+00 -5.2164925448e-02 2.7399780755e+00 -4.7457812384e+00 2.7399780755e+00 4.7457812384e+00 
42000 6.8172892577e+00 -5.1804298712e-02 2.7409300529e+00 -4.7474301116e+00 2.7409300529e+00 4.7474301116e+00 
42100 6.8171457612e+00 -5.1445375760e-02 2.7418751203e+00 -4.7490670164e+00 2.7418751203e+00 4.7490670164e+00 
42200 6.8170040207e+00 -5.1088201979e-02 2.7428133160e+00 -4.7506920190e+00 2.7428133160e+00 4.7506920190e+00 
42300 6.8168640036e+00 -5.0732821716e-02 2.7437446789e+00 -4.7523051869e+00 2.7437446789e+00 4.7523051869e+00 
42400 6.8167256779e+00 -5.0379278254e-02 2.7446692487e+00 -4.7539065888e+00 2.7446692487e+00 4.7539065888e+00 
42500 6.8165890126e+00 -5.0027613785e-02 2.7455870658e+00 -4.7554962946e+00 2.7455870658e+00 4.7554962946e+00 
42600 6.8164539774e+00 -4.9677869387e-02 2.7464981711e+00 -4.7570743753e+00 2.7464981711e+00 4.7570743753e+00 
42700 6.8163205429e+00 -4.9330085003e-02 2.7474026064e+00 -4.7586409031e+00 2.7474026064e+00 4.7586409031e+00 
42800 6.8161886803e+00 -4.8984299423e-02 2.7483004138e+00 -4.7601959512e+00 2.7483004138e+00 4.7601959512e+00 
42900 6.8160583618e+00 -4.8640550260e-02 2.7491916364e+00 -4.7617395939e+00 2.7491916364e+00 4.7617395939e+00 
43000 6.8159295600e+00 -4.8298873940e-02 2.7500763175e+00 -4.7632719066e+00 2.7500763175e+00 4.7632719066e+00 
43100 6.8158022486e+00 -4.7959305681e-02 2.7509545012e+00 -4.7647929653e+00 2.7509545012e+00 4.7647929653e+00 
43200 6.8156764018e+00 -4.7621879479e-02 2.7518262320e+00 -4.7663028474e+00 2.7518262320e+00 4.7663028474e+00 
43300 6.8155519945e+00 -4.7286628099e-02 2.7526915551e+00 -4.7678016310e+00 2.7526915551e+00 4.7678016310e+00 
43400 6.8154290022e+00 -4.6953583061e-02 2.7535505159e+00 -4.7692893948e+00 2.7535505159e+00 4.7692893948e+00 
43500 6.8153074013e+00 -4.6622774630e-02 2.7544031606e+00 -4.7707662188e+00 2.7544031606e+00 4.7707662188e+00 
43600 6.8151871687e+00 -4.6294231808e-02 2.7552495357e+00 -4.7722321833e+00 2.7552495357e+00 4.7722321833e+00 
43700 6.8150682818e+00 -4.5967982328e-02 2.7560896880e+00 -4.7736873698e+00 2.7560896880e+00 4.7736873698e+00 
43800 6.8149507190e+00 -4.5644052648e-02 2.7569236648e+00 -4.7751318600e+00 2.7569236648e+00 4.7751318600e+00 
43900 6.8148344588e+00 -4.5322467946e-02 2.7577515139e+00 -4.7765657368e+00 2.7577515139e+00 4.7765657368e+00 
44000 6.8147194808e+00 -4.5003252115e-02 2.7585732834e+00 -4.7779890832e+00 2.7585732834e+00 4.7779890832e+00 
44100 6.8146057646e+00 -4.4686427768e-02 2.7593890215e+00 -4.7794019831e+00 2.7593890215e+00 4.7794019831e+00 
44200 6.8144932909e+00 -4.4372016231e-02 2.7601987771e+00 -4.7808045209e+00 2.7601987771e+00 4.7808045209e+00 
44300 6.8143820406e+00 -4.4060037547e-02 2.7610025991e+00 -4.7821967814e+00 2.7610025991e+00 4.7821967814e+00 
44400 6.8142719952e+00 -4.3750510478e-02 2.7618005367e+00 -4.7835788500e+00 2.7618005367e+00 4.7835788500e+00 
44500 6.8141631367e+00 -4.3443452508e-02 2.7625926396e+00 -4.7849508123e+00 2.7625926396e+00 4.7849508123e+00 
44600 6.8140554475e+00 -4.3138879848e-02 2.7633789573e+00 -4.7863127546e+00 2.7633789573e+00 4.7863127546e+00 
44700 6.8139489108e+00 -4.2836807442e-02 2.7641595399e+00 -4.7876647633e+00 2.7641595399e+00 4.7876647633e+00 
44800 6.8138435097e+00 -4.2537248973e-02 2.7649344374e+00 -4.7890069252e+00 2.7649344374e+00 4.7890069252e+00 
44900 6.8137392283e+00 -4.2240216874e-02 2.7657037002e+00 -4.7903393274e+00 2.7657037002e+00 4.7903393274e+00 
45000 6.8136360507e+00 -4.1945722332e-02 2.7664673785e+00 -4.7916620571e+00 2.7664673785e+00 4.7916620571e+00 
45100 6.8135339617e+00 -4.1653775303e-02 2.7672255230e+00 -4.7929752018e+00 2.7672255230e+00 4.7929752018e+00 
45200 6.8134329464e+00 -4.1364384522e-02 2.7679781841e+00 -4.7942788491e+00 2.7679781841e+00 4.7942788491e+00 
45300 6.8133329901e+00 -4.1077557513e-02 2.7687254126e+00 -4.7955730869e+00 2.7687254126e+00 4.7955730869e+00 
45400 6.8132340788e+00 -4.0793300604e-02 2.7694672593e+00 -4.7968580029e+00 2.7694672593e+00 4.7968580029e+00 
45500 6.8131361986e+00 -4.0511618943e-02 2.7702037747e+00 -4.7981336851e+00 2.7702037747e+00 4.7981336851e+00 
45600 6.8130393360e+00 -4.0232516509e-02 2.7709350097e+00 -4.7994002213e+00 2.7709350097e+00 4.7994002213e+00 
45700 6.8129434778e+00 -3.9955996128e-02 2.7716610151e+00 -4.8006576995e+00 2.7716610151e+00 4.8006576995e+00 
45800 6.8128486113e+00 -3.9682059496e-02 2.7723818415e+00 -4.8019062074e+00 2.7723818415e+00 4.8019062074e+00 
45900 6.8127547239e+00 -3.9410707185e-02 2.7730975395e+00 -4.8031458328e+00 2.7730975395e+00 4.8031458328e+00 
46000 6.8126618033e+00 -3.9141938674e-02 2.7738081599e+00 -4.8043766633e+00 2.7738081599e+00 4.8043766633e+00 
46100 6.8125698376e+00 -3.8875752357e-02 2.7745137529e+00 -4.8055987864e+00 2.7745137529e+00 4.8055987864e+00 
46200 6.8124788151e+00 -3.8612145568e-02 2.7752143692e+00 -4.8068122893e+00 2.7752143692e+00 4.8068122893e+00 
46300 6.8123887242e+00 -3.8351114600e-02 2.7759100588e+00 -4.8080172592e+00 2.7759100588e+00 4.8080172592e+00 
46400 6.8122995538e+00 -3.8092654726e-02 2.7766008720e+00 -4.8092137827e+00 2.7766008720e+00 4.8092137827e+00 
46500 6.8122112930e+00 -3.7836760218e-02 2.7772868587e+00 -4.8104019464e+00 2.7772868587e+00 4.8104019464e+00 
46600 6.8121239309e+00 -3.7583424373e-02 2.7779680686e+00 -4.8115818366e+00 2.7779680686e+00 4.8115818366e+00 
46700 6.8120374569e+00 -3.7332639530e-02 2.7786445513e+00 -4.8127535391e+00 2.7786445513e+00 4.8127535391e+00 
46800 6.8119518609e+00 -3.7084397095e-02 2.7793163563e+00 -4.8139171394e+00 2.7793163563e+00 4.8139171394e+00 
46900 6.8118671326e+00 -3.6838687567e-02 2.7799835326e+00 -4.8150727226e+00 2.7799835326e+00 4.8150727226e+00 
47000 6.8117832621e+00 -3.6595500556e-02 2.7806461291e+00 -4.8162203735e+00 2.7806461291e+00 4.8162203735e+00 
47100 6.8117002396e+00 -3.6354824811e-02 2.7813041946e+00 -4.8173601764e+00 2.7813041946e+00 4.8173601764e+00 
47200 6.8116180554e+00 -3.6116648240e-02 2.7819577773e+00 -4.8184922149e+00 2.7819577773e+00 4.8184922149e+00 
47300 6.8115367002e+00 -3.5880957939e-02 2.7826069254e+00 -4.8196165724e+00 2.7826069254e+00 4.8196165724e+00 
47400 6.8114561647e+00 -3.5647740213e-02 2.7832516867e+00 -4.8207333316e+00 2.7832516867e+00 4.8207333316e+00 
47500 6.8113764396e+00 -3.5416980602e-02 2.7838921086e+00 -4.8218425749e+00 2.7838921086e+00 4.8218425749e+00 
47600 6.8112975160e+00 -3.5188663906e-02 2.7845282383e+00 -4.8229443839e+00 2.7845282383e+00 4.8229443839e+00 
47700 6.8112193851e+00 -3.4962774211e-02 2.7851601226e+00 -4.8240388396e+00 2.7851601226e+00 4.8240388396e+00 
47800 6.8111420380e+00 -3.4739294910e-02 2.7857878080e+00 -4.8251260226e+00 2.7857878080e+00 4.8251260226e+00 
47900 6.8110654662e+00 -3.4518208735e-02 2.7864113406e+00 -4.8262060128e+00 2.7864113406e+00 4.8262060128e+00 
48000 6.8109896611e+00 -3.4299497775e-02 2.7870307662e+00 -4.8272788893e+00 2.7870307662e+00 4.8272788893e+00 
48100 6.8109146144e+00 -3.4083143507e-02 2.7876461300e+00 -4.8283447307e+00 2.7876461300e+00 4.8283447307e+00 
48200 6.8108403177e+00 -3.3869126819e-02 2.7882574772e+00 -4.8294036150e+00 2.7882574772e+00 4.8294036150e+00 
48300 6.8107667630e+00 -3.3657428034e-02 2.7888648521e+00 -4.8304556193e+00 2.7888648521e+00 4.8304556193e+00 
48400 6.8106939420e+00 -3.3448026938e-02 2.7894682991e+00 -4.8315008202e+00 2.7894682991e+00 4.8315008202e+00 
48500 6.8106218468e+00 -3.3240902804e-02 2.7900678619e+00 -4.8325392933e+00 2.7900678619e+00 4.8325392933e+00 
48600 6.8105504696e+00 -3.3036034413e-02 2.7906635837e+00 -4.8335711137e+00 2.7906635837e+00 4.8335711137e+00 
48700 6.8104798024e+00 -3.2833400087e-02 2.7912555074e+00 -4.8345963558e+00 2.7912555074e+00 4.8345963558e+00 
48800 6.8104098376e+00 -3.2632977707e-02 2.7918436756e+00 -4.8356150929e+00 2.7918436756e+00 4.8356150929e+00 
48900 6.8103405674e+00 -3.2434744739e-02 2.7924281302e+00 -4.8366273979e+00 2.7924281302e+00 4.8366273979e+00 
49000 6.8102719844e+00 -3.2238678260e-02 2.7930089127e+00 -4.8376333428e+00 2.7930089127e+00 4.8376333428e+00 
49100 6.8102040809e+00 -3.2044754980e-02 2.7935860642e+00 -4.8386329986e+00 2.7935860642e+00 4.8386329986e+00 
49200 6.8101368497e+00 -3.1852951268e-02 2.7941596254e+00 -4.8396264357e+00 2.7941596254e+00 4.8396264357e+00 
49300 6.8100702832e+00 -3.1663243174e-02 2.7947296364e+00 -4.8406137237e+00 2.7947296364e+00 4.8406137237e+00 
49400 6.8100043743e+00 -3.1475606452e-02 2.7952961369e+00 -4.8415949313e+00 2.7952961369e+00 4.8415949313e+00 
49500 6.8099391156e+00 -3.1290016583e-02 2.7958591660e+00 -4.8425701263e+00 2.7958591660e+00 4.8425701263e+00 
49600 6.8098745000e+00 -3.1106448799e-02 2.7964187625e+00 -4.8435393759e+00 2.7964187625e+00 4.8435393759e+00 
49700 6.8098105203e+00 -3.0924878105e-02 2.7969749646e+00 -4.8445027462e+00 2.7969749646e+00 4.8445027462e+00 
49800 6.8097471696e+00 -3.0745279300e-02 2.7975278100e+00 -4.8454603026e+00 2.7975278100e+00 4.8454603026e+00 
49900 6.8096844408e+00 -3.0567626999e-02 2.7980773360e+00 -4.8464121095e+00 2.7980773360e+00 4.8464121095e+00 
50000 6.8096223271e+00 -3.0391895654e-02 2.7986235794e+00 -4.8473582307e+00 2.7986235794e+00 4.8473582307e+00 
50100 6.8095608214e+00 -3.0218059576e-02 2.7991665763e+00 -4.8482987289e+00 2.7991665763e+00 4.8482987289e+00 
50200 6.8094999170e+00 -3.0046092954e-02 2.7997063625e+00 -4.8492336661e+00 2.7997063625e+00 4.8492336661e+00 
50300 6.8094396071e+00 -2.9875969876e-02 2.8002429733e+00 -4.8501631032e+00 2.8002429733e+00 4.8501631032e+00 
50400 6.8093798850e+00 -2.9707664347e-02 2.8007764434e+00 -4.8510871006e+00 2.8007764434e+00 4.8510871006e+00 
50500 6.8093207440e+00 -2.9541150312e-02 2.8013068070e+00 -4.8520057174e+00 2.8013068070e+00 4.8520057174e+00 
50600 6.8092621775e+00 -2.9376401670e-02 2.8018340980e+00 -4.8529190122e+00 2.8018340980e+00 4.8529190122e+00 
50700 6.8092041790e+00 -2.9213392296e-02 2.8023583496e+00 -4.8538270425e+00 2.8023583496e+00 4.8538270425e+00 
50800 6.8091467419e+00 -2.9052096056e-02 2.8028795944e+00 -4.8547298651e+00 2.8028795944e+00 4.8547298651e+00 
50900 6.8090898597e+00 -2.8892486829e-02 2.8033978649e+00 -4.8556275358e+00 2.8033978649e+00 4.8556275358e+00 
51000 6.8090335262e+00 -2.8734538517e-02 2.8039131926e+00 -4.8565201095e+00 2.8039131926e+00 4.8565201095e+00 
51100 6.8089777348e+00 -2.8578225068e-02 2.8044256088e+00 -4.8574076405e+00 2.8044256088e+00 4.8574076405e+00 
51200 6.8089224792e+00 -2.8423520487e-02 2.8049351444e+00 -4.8582901820e+00 2.8049351444e+00 4.8582901820e+00 
51300 6.8088677533e+00 -2.8270398858e-02 2.8054418294e+00 -4.8591677863e+00 2.8054418294e+00 4.8591677863e+00 
51400 6.8088135508e+00 -2.8118834351e-02 2.8059456938e+00 -4.8600405050e+00 2.8059456938e+00 4.8600405050e+00 
51500 6.8087598656e+00 -2.7968801243e-02 2.8064467668e+00 -4.8609083888e+00 2.8064467668e+00 4.8609083888e+00 
51600 6.8087066915e+00 -2.7820273929e-02 2.8069450771e+00 -4.8617714877e+00 2.8069450771e+00 4.8617714877e+00 
51700 6.8086540224e+00 -2.7673226937e-02 2.8074406531e+00 -4.8626298505e+00 2.8074406531e+00 4.8626298505e+00 
51800 6.8086018524e+00 -2.7527634940e-02 2.8079335226e+00 -4.8634835255e+00 2.8079335226e+00 4.8634835255e+00 
51900 6.8085501755e+00 -2.7383472770e-02 2.8084237129e+00 -4.8643325600e+00 2.8084237129e+00 4.8643325600e+00 
52000 6.8084989859e+00 -2.7240715430e-02 2.8089112509e+00 -4.8651770005e+00 2.8089112509e+00 4.8651770005e+00 
52100 6.8084482775e+00 -2.7099338105e-02 2.8093961630e+00 -4.8660168929e+00 2.8093961630e+00 4.8660168929e+00 
52200 6.8083980447e+00 -2.6959316175e-02 2.8098784750e+00 -4.8668522819e+00 2.8098784750e+00 4.8668522819e+00 
52300 6.8083482817e+00 -2.6820625221e-02 2.8103582126e+00 -4.8676832117e+00 2.8103582126e+00 4.8676832117e+00 
52400 6.8082989827e+00 -2.6683241044e-02 2.8108354006e+00 -4.8685097255e+00 2.8108354006e+00 4.8685097255e+00 
52500 6.8082501421e+00 -2.6547139667e-02 2.8113100636e+00 -4.8693318660e+00 2.8113100636e+00 4.8693318660e+00 
52600 6.8082017544e+00 -2.6412297347e-02 2.8117822257e+00 -4.8701496747e+00 2.8117822257e+00 4.8701496747e+00 
52700 6.8081538139e+00 -2.6278690586e-02 2.8122519106e+00 -4.8709631928e+00 2.8122519106e+00 4.8709631928e+00 
52800 6.8081063152e+00 -2.6146296136e-02 2.8127191415e+00 -4.8717724604e+00 2.8127191415e+00 4.8717724604e+00 
52900 6.8080592529e+00 -2.6015091012e-02 2.8131839411e+00 -4.8725775170e+00 2.8131839411e+00 4.8725775170e+00 
53000 6.8080126214e+00 -2.5885052494e-02 2.8136463318e+00 -4.8733784013e+00 2.8136463318e+00 4.8733784013e+00 
53100 6.8079664156e+00 -2.5756158137e-02 2.8141063356e+00 -4.8741751511e+00 2.8141063356e+00 4.8741751511e+00 
53200 6.8079206301e+00 -2.5628385780e-02 2.8145639739e+00 -4.8749678039e+00 2.8145639739e+00 4.8749678039e+00 
53300 6.8078752597e+00 -2.5501713547e-02 2.8150192678e+00 -4.8757563961e+00 2.8150192678e+00 4.8757563961e+00 
53400 6.8078302992e+00 -2.5376119861e-02 2.8154722380e+00 -4.8765409635e+00 2.8154722380e+00 4.8765409635e+00 
53500 6.8077857434e+00 -2.5251583438e-02 2.8159229048e+00 -4.8773215413e+00 2.8159229048e+00 4.8773215413e+00 
53600 6.8077415874e+00 -2.5128083305e-02 2.8163712880e+00 -4.8780981638e+00 2.8163712880e+00 4.8780981638e+00 
53700 6.8076978261e+00 -2.5005598796e-02 2.8168174072e+00 -4.8788708650e+00 2.8168174072e+00 4.8788708650e+00 
53800 6.8076544546e+00 -2.4884109558e-02 2.8172612815e+00 -4.8796396778e+00 2.8172612815e+00 4.8796396778e+00 
53900 6.8076114679e+00 -2.4763595558e-02 2.8177029296e+00 -4.8804046346e+00 2.8177029296e+00 4.8804046346e+00 
54000 6.8075688612e+00 -2.4644037084e-02 2.8181423698e+00 -4.8811657674e+00 2.8181423698e+00 4.8811657674e+00 
54100 6.8075266296e+00 -2.4525414749e-02 2.8185796201e+00 -4.8819231072e+00 2.8185796201e+00 4.8819231072e+00 
54200 6.8074847686e+00 -2.4407709495e-02 2.8190146982e+00 -4.8826766846e+00 2.8190146982e+00 4.8826766846e+00 
54300 6.8074432732e+00 -2.4290902591e-02 2.8194476214e+00 -4.8834265295e+00 2.8194476214e+00 4.8834265295e+00 
54400 6.8074021391e+00 -2.4174975644e-02 2.8198784065e+00 -4.8841726712e+00 2.8198784065e+00 4.8841726712e+00 
54500 6.8073613614e+00 -2.4059910591e-02 2.8203070701e+00 -4.8849151384e+00 2.8203070701e+00 4.8849151384e+00 
54600 6.8073209358e+00 -2.3945689708e-02 2.8207336286e+00 -4.8856539593e+00 2.8207336286e+00 4.8856539593e+00 
54700 6.8072808578e+00 -2.3832295608e-02 2.8211580978e+00 -4.8863891615e+00 2.8211580978e+00 4.8863891615e+00 
54800 6.8072411229e+00 -2.3719711241e-02 2.8215804933e+00 -4.8871207720e+00 2.8215804933e+00 4.8871207720e+00 
54900 6.8072017268e+00 -2.3607919899e-02 2.8220008304e+00 -4.8878488173e+00 2.8220008304e+00 4.8878488173e+00 
55000 6.8071626652e+00 -2.3496905211e-02 2.8224191241e+00 -4.8885733232e+00 2.8224191241e+00 4.8885733232e+00 
55100 6.8071239339e+00 -2.3386651147e-02 2.8228353890e+00 -4.8892943152e+00 2.8228353890e+00 4.8892943152e+00 
55200 6.8070855285e+00 -2.3277142016e-02 2.8232496396e+00 -4.8900118183e+00 2.8232496396e+00 4.8900118183e+00 
55300 6.8070474451e+00 -2.3168362467e-02 2.8236618899e+00 -4.8907258567e+00 2.8236618899e+00 4.8907258567e+00 
55400 6.8070096795e+00 -2.3060297486e-02 2.8240721536e+00 -4.8914364544e+00 2.8240721536e+00 4.8914364544e+00 
55500 6.8069722277e+00 -2.2952932398e-02 2.8244804444e+00 -4.8921436347e+00 2.8244804444e+00 4.8921436347e+00 
55600 6.8069350857e+00 -2.2846252864e-02 2.8248867755e+00 -4.8928474208e+00 2.8248867755e+00 4.8928474208e+00 
55700 6.8068982496e+00 -2.2740244879e-02 2.8252911598e+00 -4.8935478350e+00 2.8252911598e+00 4.8935478350e+00 
55800 6.8068617155e+00 -2.2634894773e-02 2.8256936101e+00 -4.8942448993e+00 2.8256936101e+00 4.8942448993e+00 
55900 6.8068254795e+00 -2.2530189206e-02 2.8260941388e+00 -4.8949386354e+00 2.8260941388e+00 4.8949386354e+00 
56000 6.8067895380e+00 -2.2426115169e-02 2.8264927582e+00 -4.8956290645e+00 2.8264927582e+00 4.8956290645e+00 
56100 6.8067538872e+00 -2.2322659979e-02 2.8268894803e+00 -4.8963162072e+00 2.8268894803e+00 4.8963162072e+00 
56200 6.8067185235e+00 -2.2219811278e-02 2.8272843167e+00 -4.8970000840e+00 2.8272843167e+00 4.8970000840e+00 
56300 6.8066834432e+00 -2.2117557032e-02 2.8276772791e+00 -4.8976807147e+00 2.8276772791e+00 4.8976807147e+00 
56400 6.8066486427e+00 -2.2015885526e-02 2.8280683786e+00 -4.8983581190e+00 2.8280683786e+00 4.8983581190e+00 
56500 6.8066141187e+00 -2.1914785360e-02 2.8284576265e+00 -4.8990323161e+00 2.8284576265e+00 4.8990323161e+00 
56600 6.8065798675e+00 -2.1814245449e-02 2.8288450335e+00 -4.8997033247e+00 2.8288450335e+00 4.8997033247e+00 
56700 6.8065458859e+00 -2.1714255020e-02 2.8292306103e+00 -4.9003711633e+00 2.8292306103e+00 4.9003711633e+00 
56800 6.8065121704e+00 -2.1614803603e-02 2.8296143674e+00 -4.9010358501e+00 2.8296143674e+00 4.9010358501e+00 
56900 6.8064787177e+00 -2.1515881037e-02 2.8299963150e+00 -4.9016974028e+00 2.8299963150e+00 4.9016974028e+00 
57000 6.8064455247e+00 -2.1417477455e-02 2.8303764632e+00 -4.9023558389e+00 2.8303764632e+00 4.9023558389e+00 
57100 6.8064125880e+00 -2.1319583292e-02 2.8307548220e+00 -4.9030111754e+00 2.8307548220e+00 4.9030111754e+00 
57200 6.8063799046e+00 -2.1222189270e-02 2.8311314010e+00 -4.9036634294e+00 2.8311314010e+00 4.9036634294e+00 
57300 6.8063474713e+00 -2.1125286405e-02 2.8315062097e+00 -4.9043126172e+00 2.8315062097e+00 4.9043126172e+00 
57400 6.8063152850e+00 -2.1028865992e-02 2.8318792577e+00 -4.9049587552e+00 2.8318792577e+00 4.9049587552e+00 
57500 6.8062833427e+00 -2.0932919611e-02 2.8322505540e+00 -4.9056018592e+00 2.8322505540e+00 4.9056018592e+00 
57600 6.8062516415e+00 -2.0837439114e-02 2.8326201077e+00 -4.9062419450e+00 2.8326201077e+00 4.9062419450e+00 
57700 6.8062201785e+00 -2.0742416628e-02 2.8329879277e+00 -4.9068790281e+00 2.8329879277e+00 4.9068790281e+00 
57800 6.8061889507e+00 -2.0647844546e-02 2.8333540229e+00 -4.9075131235e+00 2.8333540229e+00 4.9075131235e+00 
57900 6.8061579554e+00 -2.0553715523e-02 2.8337184018e+00 -4.9081442462e+00 2.8337184018e+00 4.9081442462e+00 
58000 6.8061271897e+00 -2.0460022475e-02 2.8340810729e+00 -4.9087724109e+00 2.8340810729e+00 4.9087724109e+00 
58100 6.8060966509e+00 -2.0366758568e-02 2.8344420445e+00 -4.9093976321e+00 2.8344420445e+00 4.9093976321e+00 
58200 6.8060663363e+00 -2.0273917222e-02 2.8348013249e+00 -4.9100199240e+00 2.8348013249e+00 4.9100199240e+00 
58300 6.8060362432e+00 -2.0181492097e-02 2.8351589221e+00 -4.9106393006e+00 2.8351589221e+00 4.9106393006e+00 
58400 6.8060063691e+00 -2.0089477097e-02 2.8355148442e+00 -4.9112557758e+00 2.8355148442e+00 4.9112557758e+00 
58500 6.8059767114e+00 -1.9997866359e-02 2.8358690990e+00 -4.9118693631e+00 2.8358690990e+00 4.9118693631e+00 
58600 6.8059472675e+00 -1.9906654250e-02 2.8362216943e+00 -4.9124800760e+00 2.8362216943e+00 4.9124800760e+00 
58700 6.8059180349e+00 -1.9815835363e-02 2.8365726377e+00 -4.9130879278e+00 2.8365726377e+00 4.9130879278e+00 
58800 6.8058890113e+00 -1.9725404515e-02 2.8369219367e+00 -4.9136929315e+00 2.8369219367e+00 4.9136929315e+00 
58900 6.8058601941e+00 -1.9635356734e-02 2.8372695989e+00 -4.9142951000e+00 2.8372695989e+00 4.9142951000e+00 
59000 6.8058315811e+00 -1.9545687263e-02 2.8376156315e+00 -4.9148944461e+00 2.8376156315e+00 4.9148944461e+00 
59100 6.8058031699e+00 -1.9456391549e-02 2.8379600418e+00 -4.9154909822e+00 2.8379600418e+00 4.9154909822e+00 
59200 6.8057749582e+00 -1.9367465244e-02 2.8383028370e+00 -4.9160847210e+00 2.8383028370e+00 4.9160847210e+00 
59300 6.8057469438e+00 -1.9278904193e-02 2.8386440242e+00 -4.9166756746e+00 2.8386440242e+00 4.9166756746e+00 
59400 6.8057191244e+00 -1.9190704435e-02 2.8389836105e+00 -4.9172638552e+00 2.8389836105e+00 4.9172638552e+00 
59500 6.8056914979e+00 -1.9102862195e-02 2.8393216027e+00 -4.9178492748e+00 2.8393216027e+00 4.9178492748e+00 
59600 6.8056640622e+00 -1.9015373883e-02 2.8396580076e+00 -4.9184319454e+00 2.8396580076e+00 4.9184319454e+00 
59700 6.8056368150e+00 -1.8928236084e-02 2.8399928323e+00 -4.9190118786e+00 2.8399928323e+00 4.9190118786e+00 
59800 6.8056097545e+00 -1.8841445556e-02 2.8403260832e+00 -4.9195890862e+00 2.8403260832e+00 4.9195890862e+00 
59900 6.8055828785e+00 -1.8754999226e-02 2.8406577672e+00 -4.9201635797e+00 2.8406577672e+00 4.9201635797e+00 
60000 6.8055561850e+00 -1.8668894185e-02 2.8409878908e+00 -4.9207353705e+00 2.8409878908e+00 4.9207353705e+00 
60100 6.8055296721e+00 -1.8583127681e-02 2.8413164605e+00 -4.9213044700e+00 2.8413164605e+00 4.9213044700e+00 
60200 6.8055033379e+00 -1.8497697116e-02 2.8416434829e+00 -4.9218708894e+00 2.8416434829e+00 4.9218708894e+00 
60300 6.8054771804e+00 -1.8412600045e-02 2.8419689645e+00 -4.9224346400e+00 2.8419689645e+00 4.9224346400e+00 
60400 6.8054511978e+00 -1.8327834162e-02 2.8422929115e+00 -4.9229957328e+00 2.8422929115e+00 4.9229957328e+00 
60500 6.8054253882e+00 -1.8243397307e-02 2.8426153305e+00 -4.9235541787e+00 2.8426153305e+00 4.9235541787e+00 
60600 6.8053997499e+00 -1.8159287452e-02 2.8429362276e+00 -4.9241099888e+00 2.8429362276e+00 4.9241099888e+00 
60700 6.8053742810e+00 -1.8075502702e-02 2.8432556091e+00 -4.9246631739e+00 2.8432556091e+00 4.9246631739e+00 
60800 6.8053489799e+00 -1.7992041289e-02 2.8435734813e+00 -4.9252137447e+00 2.8435734813e+00 4.9252137447e+00 
60900 6.8053238448e+00 -1.7908901567e-02 2.8438898504e+00 -4.9257617121e+00 2.8438898504e+00 4.9257617121e+00 
61000 6.8052988740e+00 -1.7826082009e-02 2.8442047225e+00 -4.9263070866e+00 2.8442047225e+00 4.9263070866e+00 
61100 6.8052740659e+00 -1.7743581202e-02 2.8445181038e+00 -4.9268498788e+00 2.8445181038e+00 4.9268498788e+00 
61200 6.8052494189e+00 -1.7661397842e-02 2.8448300003e+00 -4.9273900994e+00 2.8448300003e+00 4.9273900994e+00 
61300 6.8052249314e+00 -1.7579530731e-02 2.8451404181e+00 -4.9279277589e+00 2.8451404181e+00 4.9279277589e+00 
61400 6.8052006017e+00 -1.7497978773e-02 2.8454493633e+00 -4.9284628676e+00 2.8454493633e+00 4.9284628676e+00 
61500 6.8051764284e+00 -1.7416740969e-02 2.8457568419e+00 -4.9289954361e+00 2.8457568419e+00 4.9289954361e+00 
61600 6.8051524099e+00 -1.7335816415e-02 2.8460628598e+00 -4.9295254748e+00 2.8460628598e+00 4.9295254748e+00 
61700 6.8051285448e+00 -1.7255204295e-02 2.8463674231e+00 -4.9300529939e+00 2.8463674231e+00 4.9300529939e+00 
61800 6.8051048315e+00 -1.7174903879e-02 2.8466705377e+00 -4.9305780038e+00 2.8466705377e+00 4.9305780038e+00 
61900 6.8050812686e+00 -1.7094914519e-02 2.8469722096e+00 -4.9311005147e+00 2.8469722096e+00 4.9311005147e+00 
62000 6.8050578548e+00 -1.7015235647e-02 2.8472724446e+00 -4.9316205370e+00 2.8472724446e+00 4.9316205370e+00 
62100 6.8050345886e+00 -1.6935866768e-02 2.8475712487e+00 -4.9321380809e+00 2.8475712487e+00 4.9321380809e+00 
62200 6.8050114687e+00 -1.6856807457e-02 2.8478686278e+00 -4.9326531565e+00 2.8478686278e+00 4.9326531565e+00 
62300 6.8049884936e+00 -1.6778057359e-02 2.8481645877e+00 -4.9331657742e+00 2.8481645877e+00 4.9331657742e+00 
62400 6.8049656622e+00 -1.6699616181e-02 2.8484591343e+00 -4.9336759439e+00 2.8484591343e+00 4.9336759439e+00 
62500 6.8049429730e+00 -1.6621483691e-02 2.8487522735e+00 -4.9341836760e+00 2.8487522735e+00 4.9341836760e+00 
62600 6.8049204248e+00 -1.6543659715e-02 2.8490440112e+00 -4.9346889804e+00 2.8490440112e+00 4.9346889804e+00 
62700 6.8048980164e+00 -1.6466144132e-02 2.8493343532e+00 -4.9351918675e+00 2.8493343532e+00 4.9351918675e+00 
62800 6.8048757465e+00 -1.6388936872e-02 2.8496233053e+00 -4.9356923472e+00 2.8496233053e+00 4.9356923472e+00 
62900 6.8048536139e+00 -1.6312037913e-02 2.8499108733e+00 -4.9361904297e+00 2.8499108733e+00 4.9361904297e+00 
63000 6.8048316173e+00 -1.6235447278e-02 2.8501970632e+00 -4.9366861250e+00 2.8501970632e+00 4.9366861250e+00 
63100 6.8048097557e+00 -1.6159165029e-02 2.8504818806e+00 -4.9371794433e+00 2.8504818806e+00 4.9371794433e+00 
63200 6.8047880279e+00 -1.6083191270e-02 2.8507653315e+00 -4.9376703947e+00 2.8507653315e+00 4.9376703947e+00 
63300 6.8047664326e+00 -1.6007526138e-02 2.8510474217e+00 -4.9381589891e+00 2.8510474217e+00 4.9381589891e+00 
63400 6.8047449689e+00 -1.5932169805e-02 2.8513281569e+00 -4.9386452368e+00 2.8513281569e+00 4.9386452368e+00 
63500 6.8047236356e+00 -1.5857122471e-02 2.8516075430e+00 -4.9391291478e+00 2.8516075430e+00 4.9391291478e+00 
63600 6.8047024315e+00 -1.5782384365e-02 2.8518855858e+00 -4.9396107321e+00 2.8518855858e+00 4.9396107321e+00 
63700 6.8046813558e+00 -1.5707955741e-02 2.8521622912e+00 -4.9400899998e+00 2.8521622912e+00 4.9400899998e+00 
63800 6.8046604072e+00 -1.5633836874e-02 2.8524376649e+00 -4.9405669610e+00 2.8524376649e+00 4.9405669610e+00 
63900 6.8046395848e+00 -1.5560028061e-02 2.8527117127e+00 -4.9410416257e+00 2.8527117127e+00 4.9410416257e+00 
64000 6.8046188876e+00 -1.5486529615e-02 2.8529844405e+00 -4.9415140041e+00 2.8529844405e+00 4.9415140041e+00 
64100 6.8045983145e+00 -1.5413341865e-02 2.8532558541e+00 -4.9419841063e+00 2.8532558541e+00 4.9419841063e+00 
64200 6.8045778645e+00 -1.5340465151e-02 2.8535259593e+00 -4.9424519422e+00 2.8535259593e+00 4.9424519422e+00 
64300 6.8045575368e+00 -1.5267899827e-02 2.8537947619e+00 -4.9429175220e+00 2.8537947619e+00 4.9429175220e+00 
64400 6.8045373303e+00 -1.5195646254e-02 2.8540622678e+00 -4.9433808558e+00 2.8540622678e+00 4.9433808558e+00 
64500 6.8045172441e+00 -1.5123704798e-02 2.8543284828e+00 -4.9438419537e+00 2.8543284828e+00 4.9438419537e+00 
64600 6.8044972773e+00 -1.5052075831e-02 2.8545934127e+00 -4.9443008257e+00 2.8545934127e+00 4.9443008257e+00 
64700 6.8044774290e+00 -1.4980759729e-02 2.8548570633e+00 -4.9447574820e+00 2.8548570633e+00 4.9447574820e+00 
64800 6.8044576982e+00 -1.4909756867e-02 2.8551194406e+00 -4.9452119327e+00 2.8551194406e+00 4.9452119327e+00 
64900 6.8044380842e+00 -1.4839067618e-02 2.8553805502e+00 -4.9456641879e+00 2.8553805502e+00 4.9456641879e+00 
65000 6.8044185859e+00 -1.4768692354e-02 2.8556403981e+00 -4.9461142576e+00 2.8556403981e+00 4.9461142576e+00 
65100 6.8043992026e+00 -1.4698631443e-02 2.8558989901e+00 -4.9465621521e+00 2.8558989901e+00 4.9465621521e+00 
65200 6.8043799334e+00 -1.4628885244e-02 2.8561563320e+00 -4.9470078814e+00 2.8561563320e+00 4.9470078814e+00 
65300 6.8043607775e+00 -1.4559454111e-02 2.8564124298e+00 -4.9474514557e+00 2.8564124298e+00 4.9474514557e+00 
65400 6.8043417341e+00 -1.4490338387e-02 2.8566672892e+00 -4.9478928852e+00 2.8566672892e+00 4.9478928852e+00 
65500 6.8043228023e+00 -1.4421538406e-02 2.8569209161e+00 -4.9483321798e+00 2.8569209161e+00 4.9483321798e+00 
65600 6.8043039813e+00 -1.4353054489e-02 2.8571733163e+00 -4.9487693499e+00 2.8571733163e+00 4.9487693499e+00 
65700 6.8042852705e+00 -1.4284886943e-02 2.8574244958e+00 -4.9492044054e+00 2.8574244958e+00 4.9492044054e+00 
65800 6.8042666689e+00 -1.4217036061e-02 2.8576744603e+00 -4.9496373567e+00 2.8576744603e+00 4.9496373567e+00 
65900 6.8042481759e+00 -1.4149502121e-02 2.8579232157e+00 -4.9500682138e+00 2.8579232157e+00 4.9500682138e+00 
66000 6.8042297907e+00 -1.4082285382e-02 2.8581707680e+00 -4.9504969869e+00 2.8581707680e+00 4.9504969869e+00 
66100 6.8042115125e+00 -1.4015386086e-02 2.8584171229e+00 -4.9509236861e+00 2.8584171229e+00 4.9509236861e+00 
66200 6.8041933406e+00 -1.3948804457e-02 2.8586622863e+00 -4.9513483216e+00 2.8586622863e+00 4.9513483216e+00 
66300 6.8041752743e+00 -1.3882540695e-02 2.8589062641e+00 -4.9517709035e+00 2.8589062641e+00 4.9517709035e+00 
66400 6.8041573129e+00 -1.3816594983e-02 2.8591490622e+00 -4.9521914421e+00 2.8591490622e+00 4.9521914421e+00 
66500 6.8041394556e+00 -1.3750967480e-02 2.8593906863e+00 -4.9526099474e+00 2.8593906863e+00 4.9526099474e+00 
66600 6.8041217018e+00 -1.3685658321e-02 2.8596311424e+00 -4.9530264296e+00 2.8596311424e+00 4.9530264296e+00 
66700 6.8041040508e+00 -1.3620667620e-02 2.8598704364e+00 -4.9534408989e+00 2.8598704364e+00 4.9534408989e+00 
66800 6.8040865019e+00 -1.3555995464e-02 2.8601085741e+00 -4.9538533654e+00 2.8601085741e+00 4.9538533654e+00 
66900 6.8040690545e+00 -1.3491641915e-02 2.8603455613e+00 -4.9542638393e+00 2.8603455613e+00 4.9542638393e+00 
67000 6.8040517079e+00 -1.3427607011e-02 2.8605814039e+00 -4.9546723307e+00 2.8605814039e+00 4.9546723307e+00 
67100 6.8040344614e+00 -1.3363890762e-02 2.8608161077e+00 -4.9550788497e+00 2.8608161077e+00 4.9550788497e+00 
67200 6.8040173144e+00 -1.3300493151e-02 2.8610496787e+00 -4.9554834065e+00 2.8610496787e+00 4.9554834065e+00 
67300 6.8040002662e+00 -1.3237414134e-02 2.8612821227e+00 -4.9558860112e+00 2.8612821227e+00 4.9558860112e+00 
67400 6.8039833163e+00 -1.3174653637e-02 2.8615134454e+00 -4.9562866740e+00 2.8615134454e+00 4.9562866740e+00 
67500 6.8039664640e+00 -1.3112211561e-02 2.8617436528e+00 -4.9566854049e+00 2.8617436528e+00 4.9566854049e+00 
67600 6.8039497088e+00 -1.3050087776e-02 2.8619727506e+00 -4.9570822140e+00 2.8619727506e+00 4.9570822140e+00 
67700 6.8039330499e+00 -1.2988282121e-02 2.8622007448e+00 -4.9574771114e+00 2.8622007448e+00 4.9574771114e+00 
67800 6.8039164868e+00 -1.2926794409e-02 2.8624276411e+00 -4.9578701073e+00 2.8624276411e+00 4.9578701073e+00 
67900 6.8039000190e+00 -1.2865624420e-02 2.8626534453e+00 -4.9582612117e+00 2.8626534453e+00 4.9582612117e+00 
68000 6.8038836457e+00 -1.2804771905e-02 2.8628781632e+00 -4.9586504346e+00 2.8628781632e+00 4.9586504346e+00 
68100 6.8038673666e+00 -1.2744236586e-02 2.8631018007e+00 -4.9590377861e+00 2.8631018007e+00 4.9590377861e+00 
68200 6.8038511809e+00 -1.2684018151e-02 2.8633243636e+00 -4.9594232763e+00 2.8633243636e+00 4.9594232763e+00 
68300 6.8038350881e+00 -1.2624116262e-02 2.8635458576e+00 -4.9598069151e+00 2.8635458576e+00 4.9598069151e+00 
68400 6.8038190877e+00 -1.2564530546e-02 2.8637662884e+00 -4.9601887126e+00 2.8637662884e+00 4.9601887126e+00 
68500 6.8038031791e+00 -1.2505260601e-02 2.8639856620e+00 -4.9605686787e+00 2.8639856620e+00 4.9605686787e+00 
68600 6.8037873618e+00 -1.2446305994e-02 2.8642039839e+00 -4.9609468234e+00 2.8642039839e+00 4.9609468234e+00 
68700 6.8037716352e+00 -1.2387666261e-02 2.8644212601e+00 -4.9613231567e+00 2.8644212601e+00 4.9613231567e+00 
68800 6.8037559988e+00 -1.2329340906e-02 2.8646374961e+00 -4.9616976885e+00 2.8646374961e+00 4.9616976885e+00 
68900 6.8037404521e+00 -1.2271329405e-02 2.8648526978e+00 -4.9620704287e+00 2.8648526978e+00 4.9620704287e+00 
69000 6.8037249945e+00 -1.2213631199e-02 2.8650668708e+00 -4.9624413873e+00 2.8650668708e+00 4.9624413873e+00 
69100 6.8037096255e+00 -1.2156245703e-02 2.8652800208e+00 -4.9628105740e+00 2.8652800208e+00 4.9628105740e+00 
69200 6.8036943446e+00 -1.2099172297e-02 2.8654921536e+00 -4.9631779987e+00 2.8654921536e+00 4.9631779987e+00 
69300 6.8036791513e+00 -1.2042410334e-02 2.8657032748e+00 -4.9635436713e+00 2.8657032748e+00 4.9635436713e+00 
69400 6.8036640452e+00 -1.1985959134e-02 2.8659133900e+00 -4.9639076015e+00 2.8659133900e+00 4.9639076015e+00 
69500 6.8036490256e+00 -1.1929817990e-02 2.8661225049e+00 -4.9642697992e+00 2.8661225049e+00 4.9642697992e+00 
69600 6.8036340921e+00 -1.1873986162e-02 2.8663306251e+00 -4.9646302740e+00 2.8663306251e+00 4.9646302740e+00 
69700 6.8036192443e+00 -1.1818462883e-02 2.8665377563e+00 -4.9649890358e+00 2.8665377563e+00 4.9649890358e+00 
69800 6.8036044816e+00 -1.1763247356e-02 2.8667439040e+00 -4.9653460941e+00 2.8667439040e+00 4.9653460941e+00 
69900 6.8035898035e+00 -1.1708338753e-02 2.8669490739e+00 -4.9657014587e+00 2.8669490739e+00 4.9657014587e+00 
70000 6.8035752097e+00 -1.1653736221e-02 2.8671532714e+00 -4.9660551392e+00 2.8671532714e+00 4.9660551392e+00 
70100 6.8035606995e+00 -1.1599438876e-02 2.8673565021e+00 -4.9664071451e+00 2.8673565021e+00 4.9664071451e+00 
70200 6.8035462726e+00 -1.1545445806e-02 2.8675587716e+00 -4.9667574862e+00 2.8675587716e+00 4.9667574862e+00 
70300 6.8035319284e+00 -1.1491756072e-02 2.8677600854e+00 -4.9671061718e+00 2.8677600854e+00 4.9671061718e+00 
70400 6.8035176666e+00 -1.1438368709e-02 2.8679604489e+00 -4.9674532116e+00 2.8679604489e+00 4.9674532116e+00 
70500 6.8035034867e+00 -1.1385282724e-02 2.8681598677e+00 -4.9677986150e+00 2.8681598677e+00 4.9677986150e+00 
70600 6.8034893882e+00 -1.1332497096e-02 2.8683583471e+00 -4.9681423915e+00 2.8683583471e+00 4.9681423915e+00 
70700 6.8034753706e+00 -1.1280010781e-02 2.8685558926e+00 -4.9684845504e+00 2.8685558926e+00 4.9684845504e+00 
70800 6.8034614336e+00 -1.1227822707e-02 2.8687525097e+00 -4.9688251011e+00 2.8687525097e+00 4.9688251011e+00 
70900 6.8034475766e+00 -1.1175931778e-02 2.8689482036e+00 -4.9691640529e+00 2.8689482036e+00 4.9691640529e+00 
71000 6.8034337993e+00 -1.1124336874e-02 2.8691429798e+00 -4.9695014153e+00 2.8691429798e+00 4.9695014153e+00 
71100 6.8034201013e+00 -1.1073036849e-02 2.8693368437e+00 -4.9698371973e+00 2.8693368437e+00 4.9698371973e+00 
71200 6.8034064820e+00 -1.1022030535e-02 2.8695298005e+00 -4.9701714083e+00 2.8695298005e+00 4.9701714083e+00 
71300 6.8033929411e+00 -1.0971316741e-02 2.8697218555e+00 -4.9705040574e+00 2.8697218555e+00 4.9705040574e+00 
71400 6.8033794781e+00 -1.0920894251e-02 2.8699130141e+00 -4.9708351537e+00 2.8699130141e+00 4.9708351537e+00 
71500 6.8033660926e+00 -1.0870761830e-02 2.8701032814e+00 -4.9711647064e+00 2.8701032814e+00 4.9711647064e+00 
71600 6.8033527843e+00 -1.0820918220e-02 2.8702926628e+00 -4.9714927246e+00 2.8702926628e+00 4.9714927246e+00 
71700 6.8033395526e+00 -1.0771362140e-02 2.8704811634e+00 -4.9718192172e+00 2.8704811634e+00 4.9718192172e+00 
71800 6.8033263972e+00 -1.0722092293e-02 2.8706687884e+00 -4.9721441932e+00 2.8706687884e+00 4.9721441932e+00 
71900 6.8033133177e+00 -1.0673107357e-02 2.8708555429e+00 -4.9724676615e+00 2.8708555429e+00 4.9724676615e+00 
72000 6.8033003137e+00 -1.0624405995e-02 2.8710414321e+00 -4.9727896311e+00 2.8710414321e+00 4.9727896311e+00 
72100 6.8032873847e+00 -1.0575986849e-02 2.8712264612e+00 -4.9731101108e+00 2.8712264612e+00 4.9731101108e+00 
72200 6.8032745304e+00 -1.0527848542e-02 2.8714106351e+00 -4.9734291093e+00 2.8714106351e+00 4.9734291093e+00 
72300 6.8032617504e+00 -1.0479989680e-02 2.8715939589e+00 -4.9737466356e+00 2.8715939589e+00 4.9737466356e+00 
72400 6.8032490443e+00 -1.0432408854e-02 2.8717764377e+00 -4.9740626981e+00 2.8717764377e+00 4.9740626981e+00 
72500 6.8032364116e+00 -1.0385104636e-02 2.8719580765e+00 -4.9743773057e+00 2.8719580765e+00 4.9743773057e+00 
72600 6.8032238521e+00 -1.0338075582e-02 2.8721388802e+00 -4.9746904669e+00 2.8721388802e+00 4.9746904669e+00 
72700 6.8032113652e+00 -1.0291320233e-02 2.8723188538e+00 -4.9750021903e+00 2.8723188538e+00 4.9750021903e+00 
72800 6.8031989507e+00 -1.0244837118e-02 2.8724980022e+00 -4.9753124845e+00 2.8724980022e+00 4.9753124845e+00 
72900 6.8031866082e+00 -1.0198624747e-02 2.8726763303e+00 -4.9756213578e+00 2.8726763303e+00 4.9756213578e+00 
73000 6.8031743372e+00 -1.0152681619e-02 2.8728538430e+00 -4.9759288188e+00 2.8728538430e+00 4.9759288188e+00 
73100 6.8031621374e+00 -1.0107006222e-02 2.8730305451e+00 -4.9762348758e+00 2.8730305451e+00 4.9762348758e+00 
73200 6.8031500084e+00 -1.0061597027e-02 2.8732064414e+00 -4.9765395372e+00 2.8732064414e+00 4.9765395372e+00 
73300 6.8031379499e+00 -1.0016452497e-02 2.8733815367e+00 -4.9768428111e+00 2.8733815367e+00 4.9768428111e+00 
73400 6.8031259615e+00 -9.9715710811e-03 2.8735558358e+00 -4.9771447060e+00 2.8735558358e+00 4.9771447060e+00 
73500 6.8031140428e+00 -9.9269512203e-03 2.8737293433e+00 -4.9774452298e+00 2.8737293433e+00 4.9774452298e+00 
73600 6.8031021934e+00 -9.8825913436e-03 2.8739020640e+00 -4.9777443908e+00 2.8739020640e+00 4.9777443908e+00 
73700 6.8030904131e+00 -9.8384898712e-03 2.8740740025e+00 -4.9780421971e+00 2.8740740025e+00 4.9780421971e+00 
73800 6.8030787013e+00 -9.7946452143e-03 2.8742451635e+00 -4.9783386566e+00 2.8742451635e+00 4.9783386566e+00 
73900 6.8030670578e+00 -9.7510557757e-03 2.8744155516e+00 -4.9786337774e+00 2.8744155516e+00 4.9786337774e+00 
74000 6.8030554823e+00 -9.7077199506e-03 2.8745851713e+00 -4.9789275674e+00 2.8745851713e+00 4.9789275674e+00 
74100 6.8030439743e+00 -9.6646361267e-03 2.8747540273e+00 -4.9792200345e+00 2.8747540273e+00 4.9792200345e+00 
74200 6.8030325335e+00 -9.6218026855e-03 2.8749221239e+00 -4.9795111864e+00 2.8749221239e+00 4.9795111864e+00 
74300 6.8030211595e+00 -9.5792180019e-03 2.8750894658e+00 -4.9798010310e+00 2.8750894658e+00 4.9798010310e+00 
74400 6.8030098521e+00 -9.5368804458e-03 2.8752560573e+00 -4.9800895760e+00 2.8752560573e+00 4.9800895760e+00 
74500 6.8029986108e+00 -9.4947883817e-03 2.8754219029e+00 -4.9803768290e+00 2.8754219029e+00 4.9803768290e+00 
74600 6.8029874353e+00 -9.4529401699e-03 2.8755870070e+00 -4.9806627977e+00 2.8755870070e+00 4.9806627977e+00 
74700 6.8029763254e+00 -9.4113341667e-03 2.8757513740e+00 -4.9809474897e+00 2.8757513740e+00 4.9809474897e+00 
74800 6.8029652805e+00 -9.3699687251e-03 2.8759150081e+00 -4.9812309123e+00 2.8759150081e+00 4.9812309123e+00 
74900 6.8029543004e+00 -9.3288421951e-03 2.8760779138e+00 -4.9815130732e+00 2.8760779138e+00 4.9815130732e+00 
75000 6.8029433848e+00 -9.2879529247e-03 2.8762400953e+00 -4.9817939798e+00 2.8762400953e+00 4.9817939798e+00 
75100 6.8029325333e+00 -9.2472992598e-03 2.8764015567e+00 -4.9820736392e+00 2.8764015567e+00 4.9820736392e+00 
75200 6.8029217456e+00 -9.2068795451e-03 2.8765623025e+00 -4.9823520590e+00 2.8765623025e+00 4.9823520590e+00 
75300 6.8029110213e+00 -9.1666921245e-03 2.8767223366e+00 -4.9826292463e+00 2.8767223366e+00 4.9826292463e+00 
75400 6.8029003602e+00 -9.1267353416e-03 2.8768816634e+00 -4.9829052084e+00 2.8768816634e+00 4.9829052084e+00 
75500 6.8028897619e+00 -9.0870075400e-03 2.8770402869e+00 -4.9831799523e+00 2.8770402869e+00 4.9831799523e+00 
75600 6.8028792260e+00 -9.0475070642e-03 2.8771982111e+00 -4.9834534852e+00 2.8771982111e+00 4.9834534852e+00 
75700 6.8028687522e+00 -9.0082322597e-03 2.8773554403e+00 -4.9837258141e+00 2.8773554403e+00 4.9837258141e+00 
75800 6.8028583403e+00 -8.9691814734e-03 2.8775119784e+00 -4.9839969460e+00 2.8775119784e+00 4.9839969460e+00 
75900 6.8028479898e+00 -8.9303530545e-03 2.8776678294e+00 -4.9842668878e+00 2.8776678294e+00 4.9842668878e+00 
76000 6.8028377005e+00 -8.8917453545e-03 2.8778229973e+00 -4.9845356465e+00 2.8778229973e+00 4.9845356465e+00 
76100 6.8028274721e+00 -8.8533567277e-03 2.8779774860e+00 -4.9848032288e+00 2.8779774860e+00 4.9848032288e+00 
76200 6.8028173042e+00 -8.8151855320e-03 2.8781312995e+00 -4.9850696416e+00 2.8781312995e+00 4.9850696416e+00 
76300 6.8028071965e+00 -8.7772301288e-03 2.8782844417e+00 -4.9853348916e+00 2.8782844417e+00 4.9853348916e+00 
76400 6.8027971487e+00 -8.7394888837e-03 2.8784369163e+00 -4.9855989854e+00 2.8784369163e+00 4.9855989854e+00 
76500 6.8027871605e+00 -8.7019601668e-03 2.8785887273e+00 -4.9858619297e+00 2.8785887273e+00 4.9858619297e+00 
76600 6.8027772316e+00 -8.6646423531e-03 2.8787398784e+00 -4.9861237311e+00 2.8787398784e+00 4.9861237311e+00 
76700 6.8027673616e+00 -8.6275338231e-03 2.8788903733e+00 -4.9863843960e+00 2.8788903733e+00 4.9863843960e+00 
76800 6.8027575503e+00 -8.5906329628e-03 2.8790402159e+00 -4.9866439310e+00 2.8790402159e+00 4.9866439310e+00 
76900 6.8027477973e+00 -8.5539381642e-03 2.8791894099e+00 -4.9869023425e+00 2.8791894099e+00 4.9869023425e+00 
77000 6.8027381024e+00 -8.5174478259e-03 2.8793379588e+00 -4.9871596369e+00 2.8793379588e+00 4.9871596369e+00 
77100 6.8027284652e+00 -8.4811603529e-03 2.8794858665e+00 -4.9874158204e+00 2.8794858665e+00 4.9874158204e+00 
77200 6.8027188854e+00 -8.4450741575e-03 2.8796331364e+00 -4.9876708994e+00 2.8796331364e+00 4.9876708994e+00 
77300 6.8027093627e+00 -8.4091876594e-03 2.8797797722e+00 -4.9879248800e+00 2.8797797722e+00 4.9879248800e+00 
77400 6.8026998969e+00 -8.3734992858e-03 2.8799257774e+00 -4.9881777685e+00 2.8799257774e+00 4.9881777685e+00 
77500 6.8026904876e+00 -8.3380074721e-03 2.8800711556e+00 -4.9884295710e+00 2.8800711556e+00 4.9884295710e+00 
77600 6.8026811345e+00 -8.3027106619e-03 2.8802159103e+00 -4.9886802935e+00 2.8802159103e+00 4.9886802935e+00 
77700 6.8026718374e+00 -8.2676073073e-03 2.8803600450e+00 -4.9889299421e+00 2.8803600450e+00 4.9889299421e+00 
77800 6.8026625958e+00 -8.2326958693e-03 2.8805035631e+00 -4.9891785227e+00 2.8805035631e+00 4.9891785227e+00 
77900 6.8026534097e+00 -8.1979748182e-03 2.8806464681e+00 -4.9894260413e+00 2.8806464681e+00 4.9894260413e+00 
78000 6.8026442785e+00 -8.1634426334e-03 2.8807887632e+00 -4.9896725038e+00 2.8807887632e+00 4.9896725038e+00 
78100 6.8026352022e+00 -8.1290978039e-03 2.8809304520e+00 -4.9899179160e+00 2.8809304520e+00 4.9899179160e+00 
78200 6.8026261802e+00 -8.0949388289e-03 2.8810715378e+00 -4.9901622837e+00 2.8810715378e+00 4.9901622837e+00 
78300 6.8026172125e+00 -8.0609642174e-03 2.8812120238e+00 -4.9904056126e+00 2.8812120238e+00 4.9904056126e+00 
78400 6.8026082986e+00 -8.0271724886e-03 2.8813519133e+00 -4.9906479084e+00 2.8813519133e+00 4.9906479084e+00 
78500 6.8025994384e+00 -7.9935621724e-03 2.8814912097e+00 -4.9908891768e+00 2.8814912097e+00 4.9908891768e+00 
78600 6.8025906314e+00 -7.9601318094e-03 2.8816299161e+00 -4.9911294233e+00 2.8816299161e+00 4.9911294233e+00 
78700 6.8025818775e+00 -7.9268799510e-03 2.8817680358e+00 -4.9913686536e+00 2.8817680358e+00 4.9913686536e+00 
78800 6.8025731763e+00 -7.8938051597e-03 2.8819055719e+00 -4.9916068731e+00 2.8819055719e+00 4.9916068731e+00 
78900 6.8025645276e+00 -7.8609060093e-03 2.8820425276e+00 -4.9918440874e+00 2.8820425276e+00 4.9918440874e+00 
79000 6.8025559311e+00 -7.8281810848e-03 2.8821789060e+00 -4.9920803017e+00 2.8821789060e+00 4.9920803017e+00 
79100 6.8025473865e+00 -7.7956289830e-03 2.8823147103e+00 -4.9923155216e+00 2.8823147103e+00 4.9923155216e+00 
79200 6.8025388935e+00 -7.7632483123e-03 2.8824499434e+00 -4.9925497522e+00 2.8824499434e+00 4.9925497522e+00 
79300 6.8025304519e+00 -7.7310376929e-03 2.8825846085e+00 -4.9927829991e+00 2.8825846085e+00 4.9927829991e+00 
79400 6.8025220613e+00 -7.6989957570e-03 2.8827187086e+00 -4.9930152672e+00 2.8827187086e+00 4.9930152672e+00 
79500 6.8025137215e+00 -7.6671211489e-03 2.8828522467e+00 -4.9932465620e+00 2.8828522467e+00 4.9932465620e+00 
79600 6.8025054322e+00 -7.6354125250e-03 2.8829852258e+00 -4.9934768885e+00 2.8829852258e+00 4.9934768885e+00 
79700 6.8024971932e+00 -7.6038685540e-03 2.8831176488e+00 -4.9937062519e+00 2.8831176488e+00 4.9937062519e+00 
79800 6.8024890042e+00 -7.5724879171e-03 2.8832495186e+00 -4.9939346572e+00 2.8832495186e+00 4.9939346572e+00 
79900 6.8024808649e+00 -7.5412693079e-03 2.8833808383e+00 -4.9941621094e+00 2.8833808383e+00 4.9941621094e+00 
80000 6.8024727750e+00 -7.5102114324e-03 2.8835116106e+00 -4.9943886137e+00 2.8835116106e+00 4.9943886137e+00 
80100 6.8024647344e+00 -7.4793130095e-03 2.8836418384e+00 -4.9946141749e+00 2.8836418384e+00 4.9946141749e+00 
80200 6.8024567426e+00 -7.4485727705e-03 2.8837715245e+00 -4.9948387979e+00 2.8837715245e+00 4.9948387979e+00 
80300 6.8024487994e+00 -7.4179894595e-03 2.8839006719e+00 -4.9950624877e+00 2.8839006719e+00 4.9950624877e+00 
80400 6.8024409047e+00 -7.3875618335e-03 2.8840292832e+00 -4.9952852490e+00 2.8840292832e+00 4.9952852490e+00 
80500 6.8024330580e+00 -7.3572886621e-03 2.8841573612e+00 -4.9955070867e+00 2.8841573612e+00 4.9955070867e+00 
80600 6.8024252592e+00 -7.3271687278e-03 2.8842849087e+00 -4.9957280055e+00 2.8842849087e+00 4.9957280055e+00 
80700 6.8024175080e+00 -7.2972008262e-03 2.8844119285e+00 -4.9959480101e+00 2.8844119285e+00 4.9959480101e+00 
80800 6.8024098041e+00 -7.2673837653e-03 2.8845384232e+00 -4.9961671053e+00 2.8845384232e+00 4.9961671053e+00 
80900 6.8024021473e+00 -7.2377163665e-03 2.8846643954e+00 -4.9963852956e+00 2.8846643954e+00 4.9963852956e+00 
81000 6.8023945373e+00 -7.2081974638e-03 2.8847898479e+00 -4.9966025858e+00 2.8847898479e+00 4.9966025858e+00 
81100 6.8023869739e+00 -7.1788259040e-03 2.8849147834e+00 -4.9968189803e+00 2.8849147834e+00 4.9968189803e+00 
81200 6.8023794568e+00 -7.1496005471e-03 2.8850392043e+00 -4.9970344837e+00 2.8850392043e+00 4.9970344837e+00 
81300 6.8023719857e+00 -7.1205202656e-03 2.8851631134e+00 -4.9972491006e+00 2.8851631134e+00 4.9972491006e+00 
81400 6.8023645604e+00 -7.0915839452e-03 2.8852865132e+00 -4.9974628353e+00 2.8852865132e+00 4.9974628353e+00 
81500 6.8023571807e+00 -7.0627904840e-03 2.8854094063e+00 -4.9976756923e+00 2.8854094063e+00 4.9976756923e+00 
81600 6.8023498463e+00 -7.0341387933e-03 2.8855317952e+00 -4.9978876761e+00 2.8855317952e+00 4.9978876761e+00 
81700 6.8023425569e+00 -7.0056277969e-03 2.8856536824e+00 -4.9980987909e+00 2.8856536824e+00 4.9980987909e+00 
81800 6.8023353123e+00 -6.9772564312e-03 2.8857750704e+00 -4.9983090412e+00 2.8857750704e+00 4.9983090412e+00 
81900 6.8023281122e+00 -6.9490236455e-03 2.8858959618e+00 -4.9985184312e+00 2.8858959618e+00 4.9985184312e+00 
82000 6.8023209565e+00 -6.9209284016e-03 2.8860163589e+00 -4.9987269651e+00 2.8860163589e+00 4.9987269651e+00 
82100 6.8023138448e+00 -6.8929696737e-03 2.8861362643e+00 -4.9989346473e+00 2.8861362643e+00 4.9989346473e+00 
82200 6.8023067769e+00 -6.8651464485e-03 2.8862556803e+00 -4.9991414819e+00 2.8862556803e+00 4.9991414819e+00 
82300 6.8022997526e+00 -6.8374577252e-03 2.8863746093e+00 -4.9993474730e+00 2.8863746093e+00 4.9993474730e+00 
82400 6.8022927716e+00 -6.8099025153e-03 2.8864930538e+00 -4.9995526250e+00 2.8864930538e+00 4.9995526250e+00 
82500 6.8022858337e+00 -6.7824798423e-03 2.8866110162e+00 -4.9997569417e+00 2.8866110162e+00 4.9997569417e+00 
82600 6.8022789386e+00 -6.7551887423e-03 2.8867284987e+00 -4.9999604274e+00 2.8867284987e+00 4.9999604274e+00 
82700 6.8022720862e+00 -6.7280282630e-03 2.8868455037e+00 -5.0001630860e+00 2.8868455037e+00 5.0001630860e+00 
82800 6.8022652761e+00 -6.7009974644e-03 2.8869620335e+00 -5.0003649216e+00 2.8869620335e+00 5.0003649216e+00 
82900 6.8022585081e+00 -6.6740954182e-03 2.8870780905e+00 -5.0005659382e+00 2.8870780905e+00 5.0005659382e+00 
83000 6.8022517821e+00 -6.6473212079e-03 2.8871936769e+00 -5.0007661398e+00 2.8871936769e+00 5.0007661398e+00 
83100 6.8022450977e+00 -6.6206739289e-03 2.8873087951e+00 -5.0009655302e+00 2.8873087951e+00 5.0009655302e+00 
83200 6.8022384547e+00 -6.5941526877e-03 2.8874234471e+00 -5.0011641134e+00 2.8874234471e+00 5.0011641134e+00 
83300 6.8022318529e+00 -6.5677566028e-03 2.8875376353e+00 -5.0013618932e+00 2.8875376353e+00 5.0013618932e+00 
83400 6.8022252921e+00 -6.5414848037e-03 2.8876513620e+00 -5.0015588735e+00 2.8876513620e+00 5.0015588735e+00 
83500 6.8022187720e+00 -6.5153364313e-03 2.8877646293e+00 -5.0017550582e+00 2.8877646293e+00 5.0017550582e+00 
83600 6.8022122924e+00 -6.4893106375e-03 2.8878774393e+00 -5.0019504510e+00 2.8878774393e+00 5.0019504510e+00 
83700 6.8022058530e+00 -6.4634065853e-03 2.8879897944e+00 -5.0021450556e+00 2.8879897944e+00 5.0021450556e+00 
83800 6.8021994537e+00 -6.4376234485e-03 2.8881016966e+00 -5.0023388759e+00 2.8881016966e+00 5.0023388759e+00 
83900 6.8021930943e+00 -6.4119604117e-03 2.8882131481e+00 -5.0025319156e+00 2.8882131481e+00 5.0025319156e+00 
84000 6.8021867744e+00 -6.3864166703e-03 2.8883241510e+00 -5.0027241783e+00 2.8883241510e+00 5.0027241783e+00 
84100 6.8021804939e+00 -6.3609914298e-03 2.8884347075e+00 -5.0029156677e+00 2.8884347075e+00 5.0029156677e+00 
84200 6.8021742525e+00 -6.3356839063e-03 2.8885448196e+00 -5.0031063874e+00 2.8885448196e+00 5.0031063874e+00 
84300 6.8021680500e+00 -6.3104933262e-03 2.8886544894e+00 -5.0032963411e+00 2.8886544894e+00 5.0032963411e+00 
84400 6.8021618863e+00 -6.2854189260e-03 2.8887637190e+00 -5.0034855324e+00 2.8887637190e+00 5.0034855324e+00 
84500 6.8021557610e+00 -6.2604599519e-03 2.8888725105e+00 -5.0036739648e+00 2.8888725105e+00 5.0036739648e+00 
84600 6.8021496740e+00 -6.2356156603e-03 2.8889808659e+00 -5.0038616418e+00 2.8889808659e+00 5.0038616418e+00 
84700 6.8021436250e+00 -6.2108853170e-03 2.8890887873e+00 -5.0040485671e+00 2.8890887873e+00 5.0040485671e+00 
84800 6.8021376138e+00 -6.1862681975e-03 2.8891962766e+00 -5.0042347441e+00 2.8891962766e+00 5.0042347441e+00 
84900 6.8021316403e+00 -6.1617635866e-03 2.8893033359e+00 -5.0044201762e+00 2.8893033359e+00 5.0044201762e+00 
85000 6.8021257041e+00 -6.1373707785e-03 2.8894099671e+00 -5.0046048670e+00 2.8894099671e+00 5.0046048670e+00 
85100 6.8021198051e+00 -6.1130890764e-03 2.8895161724e+00 -5.0047888198e+00 2.8895161724e+00 5.0047888198e+00 
85200 6.8021139431e+00 -6.0889177927e-03 2.8896219535e+00 -5.0049720381e+00 2.8896219535e+00 5.0049720381e+00 
85300 6.8021081178e+00 -6.0648562484e-03 2.8897273125e+00 -5.0051545253e+00 2.8897273125e+00 5.0051545253e+00 
85400 6.8021023291e+00 -6.0409037732e-03 2.8898322514e+00 -5.0053362847e+00 2.8898322514e+00 5.0053362847e+00 
85500 6.8020965766e+00 -6.0170597056e-03 2.8899367720e+00 -5.0055173197e+00 2.8899367720e+00 5.0055173197e+00 
85600 6.8020908603e+00 -5.9933233923e-03 2.8900408763e+00 -5.0056976336e+00 2.8900408763e+00 5.0056976336e+00 
85700 6.8020851799e+00 -5.9696941884e-03 2.8901445661e+00 -5.0058772297e+00 2.8901445661e+00 5.0058772297e+00 
85800 6.8020795352e+00 -5.9461714569e-03 2.8902478435e+00 -5.0060561114e+00 2.8902478435e+00 5.0060561114e+00 
85900 6.8020739260e+00 -5.9227545691e-03 2.8903507102e+00 -5.0062342818e+00 2.8903507102e+00 5.0062342818e+00 
86000 6.8020683521e+00 -5.8994429039e-03 2.8904531682e+00 -5.0064117442e+00 2.8904531682e+00 5.0064117442e+00 
86100 6.8020628133e+00 -5.8762358479e-03 2.8905552193e+00 -5.0065885018e+00 2.8905552193e+00 5.0065885018e+00 
86200 6.8020573093e+00 -5.8531327955e-03 2.8906568653e+00 -5.0067645580e+00 2.8906568653e+00 5.0067645580e+00 
86300 6.8020518400e+00 -5.8301331481e-03 2.8907581082e+00 -5.0069399157e+00 2.8907581082e+00 5.0069399157e+00 
86400 6.8020464052e+00 -5.8072363148e-03 2.8908589497e+00 -5.0071145783e+00 2.8908589497e+00 5.0071145783e+00 
86500 6.8020410047e+00 -5.7844417115e-03 2.8909593916e+00 -5.0072885489e+00 2.8909593916e+00 5.0072885489e+00 
86600 6.8020356382e+00 -5.7617487613e-03 2.8910594358e+00 -5.0074618305e+00 2.8910594358e+00 5.0074618305e+00 
86700 6.8020303057e+00 -5.7391568940e-03 2.8911590841e+00 -5.0076344264e+00 2.8911590841e+00 5.0076344264e+00 
86800 6.8020250067e+00 -5.7166655461e-03 2.8912583382e+00 -5.0078063396e+00 2.8912583382e+00 5.0078063396e+00 
86900 6.8020197413e+00 -5.6942741609e-03 2.8913572000e+00 -5.0079775732e+00 2.8913572000e+00 5.0079775732e+00 
87000 6.8020145092e+00 -5.6719821878e-03 2.8914556712e+00 -5.0081481303e+00 2.8914556712e+00 5.0081481303e+00 
87100 6.8020093101e+00 -5.6497890828e-03 2.8915537535e+00 -5.0083180139e+00 2.8915537535e+00 5.0083180139e+00 
87200 6.8020041439e+00 -5.6276943080e-03 2.8916514487e+00 -5.0084872270e+00 2.8916514487e+00 5.0084872270e+00 
87300 6.8019990104e+00 -5.6056973312e-03 2.8917487586e+00 -5.0086557727e+00 2.8917487586e+00 5.0086557727e+00 
87400 6.8019939095e+00 -5.5837976267e-03 2.8918456849e+00 -5.0088236539e+00 2.8918456849e+00 5.0088236539e+00 
87500 6.8019888408e+00 -5.5619946740e-03 2.8919422293e+00 -5.0089908736e+00 2.8919422293e+00 5.0089908736e+00 
87600 6.8019838043e+00 -5.5402879586e-03 2.8920383935e+00 -5.0091574349e+00 2.8920383935e+00 5.0091574349e+00 
87700 6.8019787997e+00 -5.5186769714e-03 2.8921341792e+00 -5.0093233406e+00 2.8921341792e+00 5.0093233406e+00 
87800 6.8019738269e+00 -5.4971612086e-03 2.8922295881e+00 -5.0094885937e+00 2.8922295881e+00 5.0094885937e+00 
87900 6.8019688856e+00 -5.4757401719e-03 2.8923246219e+00 -5.0096531971e+00 2.8923246219e+00 5.0096531971e+00 
88000 6.8019639757e+00 -5.4544133679e-03 2.8924192822e+00 -5.0098171536e+00 2.8924192822e+00 5.0098171536e+00 
88100 6.8019590969e+00 -5.4331803083e-03 2.8925135708e+00 -5.0099804663e+00 2.8925135708e+00 5.0099804663e+00 
88200 6.8019542492e+00 -5.4120405098e-03 2.8926074893e+00 -5.0101431378e+00 2.8926074893e+00 5.0101431378e+00 
88300 6.8019494323e+00 -5.3909934938e-03 2.8927010393e+00 -5.0103051712e+00 2.8927010393e+00 5.0103051712e+00 
88400 6.8019446460e+00 -5.3700387864e-03 2.8927942225e+00 -5.0104665692e+00 2.8927942225e+00 5.0104665692e+00 
88500 6.8019398902e+00 -5.3491759181e-03 2.8928870405e+00 -5.0106273347e+00 2.8928870405e+00 5.0106273347e+00 
88600 6.8019351646e+00 -5.3284044240e-03 2.8929794950e+00 -5.0107874705e+00 2.8929794950e+00 5.0107874705e+00 
88700 6.8019304692e+00 -5.3077238437e-03 2.8930715874e+00 -5.0109469794e+00 2.8930715874e+00 5.0109469794e+00 
88800 6.8019258036e+00 -5.2871337206e-03 2.8931633195e+00 -5.0111058640e+00 2.8931633195e+00 5.0111058640e+00 
88900 6.8019211678e+00 -5.2666336026e-03 2.8932546929e+00 -5.0112641274e+00 2.8932546929e+00 5.0112641274e+00 
89000 6.8019165615e+00 -5.2462230414e-03 2.8933457091e+00 -5.0114217721e+00 2.8933457091e+00 5.0114217721e+00 
89100 6.8019119846e+00 -5.2259015928e-03 2.8934363697e+00 -5.0115788009e+00 2.8934363697e+00 5.0115788009e+00 
89200 6.8019074369e+00 -5.2056688161e-03 2.8935266764e+00 -5.0117352165e+00 2.8935266764e+00 5.0117352165e+00 
89300 6.8019029183e+00 -5.1855242746e-03 2.8936166305e+00 -5.0118910217e+00 2.8936166305e+00 5.0118910217e+00 
89400 6.8018984284e+00 -5.1654675351e-03 2.8937062338e+00 -5.0120462191e+00 2.8937062338e+00 5.0120462191e+00 
89500 6.8018939673e+00 -5.1454981679e-03 2.8937954878e+00 -5.0122008115e+00 2.8937954878e+00 5.0122008115e+00 
89600 6.8018895347e+00 -5.1256157469e-03 2.8938843939e+00 -5.0123548015e+00 2.8938843939e+00 5.0123548015e+00 
89700 6.8018851304e+00 -5.1058198492e-03 2.8939729538e+00 -5.0125081917e+00 2.8939729538e+00 5.0125081917e+00 
89800 6.8018807542e+00 -5.0861100550e-03 2.8940611690e+00 -5.0126609849e+00 2.8940611690e+00 5.0126609849e+00 
89900 6.8018764061e+00 -5.0664859479e-03 2.8941490409e+00 -5.0128131835e+00 2.8941490409e+00 5.0128131835e+00 
90000 6.8018720858e+00 -5.0469471146e-03 2.8942365712e+00 -5.0129647904e+00 2.8942365712e+00 5.0129647904e+00 
90100 6.8018677931e+00 -5.0274931445e-03 2.8943237612e+00 -5.0131158080e+00 2.8943237612e+00 5.0131158080e+00 
90200 6.8018635280e+00 -5.0081236304e-03 2.8944106125e+00 -5.0132662389e+00 2.8944106125e+00 5.0132662389e+00 
90300 6.8018592901e+00 -4.9888381674e-03 2.8944971267e+00 -5.0134160858e+00 2.8944971267e+00 5.0134160858e+00 
90400 6.8018550794e+00 -4.9696363539e-03 2.8945833051e+00 -5.0135653511e+00 2.8945833051e+00 5.0135653511e+00 
90500 6.8018508957e+00 -4.9505177904e-03 2.8946691492e+00 -5.0137140376e+00 2.8946691492e+00 5.0137140376e+00 
90600 6.8018467389e+00 -4.9314820806e-03 2.8947546606e+00 -5.0138621476e+00 2.8947546606e+00 5.0138621476e+00 
90700 6.8018426087e+00 -4.9125288304e-03 2.8948398406e+00 -5.0140096838e+00 2.8948398406e+00 5.0140096838e+00 
90800 6.8018385050e+00 -4.8936576482e-03 2.8949246908e+00 -5.0141566486e+00 2.8949246908e+00 5.0141566486e+00 
90900 6.8018344276e+00 -4.8748681449e-03 2.8950092125e+00 -5.0143030445e+00 2.8950092125e+00 5.0143030445e+00 
91000 6.8018303764e+00 -4.8561599338e-03 2.8950934073e+00 -5.0144488741e+00 2.8950934073e+00 5.0144488741e+00 
91100 6.8018263513e+00 -4.8375326304e-03 2.8951772765e+00 -5.0145941398e+00 2.8951772765e+00 5.0145941398e+00 
91200 6.8018223520e+00 -4.8189858524e-03 2.8952608216e+00 -5.0147388441e+00 2.8952608216e+00 5.0147388441e+00 
91300 6.8018183785e+00 -4.8005192198e-03 2.8953440439e+00 -5.0148829895e+00 2.8953440439e+00 5.0148829895e+00 
91400 6.8018144304e+00 -4.7821323546e-03 2.8954269450e+00 -5.0150265783e+00 2.8954269450e+00 5.0150265783e+00 
91500 6.8018105078e+00 -4.7638248809e-03 2.8955095262e+00 -5.0151696131e+00 2.8955095262e+00 5.0151696131e+00 
91600 6.8018066104e+00 -4.7455964248e-03 2.8955917889e+00 -5.0153120963e+00 2.8955917889e+00 5.0153120963e+00 
91700 6.8018027381e+00 -4.7274466143e-03 2.8956737344e+00 -5.0154540302e+00 2.8956737344e+00 5.0154540302e+00 
91800 6.8017988908e+00 -4.7093750795e-03 2.8957553643e+00 -5.0155954172e+00 2.8957553643e+00 5.0155954172e+00 
91900 6.8017950682e+00 -4.6913814522e-03 2.8958366798e+00 -5.0157362599e+00 2.8958366798e+00 5.0157362599e+00 
92000 6.8017912702e+00 -4.6734653660e-03 2.8959176824e+00 -5.0158765604e+00 2.8959176824e+00 5.0158765604e+00 
92100 6.8017874967e+00 -4.6556264564e-03 2.8959983733e+00 -5.0160163212e+00 2.8959983733e+00 5.0160163212e+00 
92200 6.8017837475e+00 -4.6378643605e-03 2.8960787540e+00 -5.0161555447e+00 2.8960787540e+00 5.0161555447e+00 
92300 6.8017800225e+00 -4.6201787172e-03 2.8961588258e+00 -5.0162942331e+00 2.8961588258e+00 5.0162942331e+00 
92400 6.8017763216e+00 -4.6025691670e-03 2.8962385901e+00 -5.0164323889e+00 2.8962385901e+00 5.0164323889e+00 
92500 6.8017726445e+00 -4.5850353521e-03 2.8963180482e+00 -5.0165700143e+00 2.8963180482e+00 5.0165700143e+00 
92600 6.8017689911e+00 -4.5675769161e-03 2.8963972014e+00 -5.0167071117e+00 2.8963972014e+00 5.0167071117e+00 
92700 6.8017653614e+00 -4.5501935044e-03 2.8964760510e+00 -5.0168436833e+00 2.8964760510e+00 5.0168436833e+00 
92800 6.8017617550e+00 -4.5328847637e-03 2.8965545984e+00 -5.0169797314e+00 2.8965545984e+00 5.0169797314e+00 
92900 6.8017581720e+00 -4.5156503423e-03 2.8966328449e+00 -5.0171152583e+00 2.8966328449e+00 5.0171152583e+00 
93000 6.8017546121e+00 -4.4984898899e-03 2.8967107918e+00 -5.0172502663e+00 2.8967107918e+00 5.0172502663e+00 
93100 6.8017510753e+00 -4.4814030578e-03 2.8967884404e+00 -5.0173847576e+00 2.8967884404e+00 5.0173847576e+00 
93200 6.8017475612e+00 -4.4643894986e-03 2.8968657920e+00 -5.0175187344e+00 2.8968657920e+00 5.0175187344e+00 
93300 6.8017440700e+00 -4.4474488661e-03 2.8969428478e+00 -5.0176521991e+00 2.8969428478e+00 5.0176521991e+00 
93400 6.8017406013e+00 -4.4305808157e-03 2.8970196092e+00 -5.0177851537e+00 2.8970196092e+00 5.0177851537e+00 
93500 6.8017371550e+00 -4.4137850042e-03 2.8970960775e+00 -5.0179176006e+00 2.8970960775e+00 5.0179176006e+00 
93600 6.8017337310e+00 -4.3970610895e-03 2.8971722538e+00 -5.0180495419e+00 2.8971722538e+00 5.0180495419e+00 
93700 6.8017303292e+00 -4.3804087309e-03 2.8972481396e+00 -5.0181809799e+00 2.8972481396e+00 5.0181809799e+00 
93800 6.8017269495e+00 -4.3638275891e-03 2.8973237359e+00 -5.0183119166e+00 2.8973237359e+00 5.0183119166e+00 
93900 6.8017235916e+00 -4.3473173258e-03 2.8973990442e+00 -5.0184423543e+00 2.8973990442e+00 5.0184423543e+00 
94000 6.8017202555e+00 -4.3308776041e-03 2.8974740655e+00 -5.0185722951e+00 2.8974740655e+00 5.0185722951e+00 
94100 6.8017169410e+00 -4.3145080885e-03 2.8975488012e+00 -5.0187017411e+00 2.8975488012e+00 5.0187017411e+00 
94200 6.8017136480e+00 -4.2982084445e-03 2.8976232525e+00 -5.0188306946e+00 2.8976232525e+00 5.0188306946e+00 
94300 6.8017103763e+00 -4.2819783390e-03 2.8976974207e+00 -5.0189591576e+00 2.8976974207e+00 5.0189591576e+00 
94400 6.8017071258e+00 -4.2658174398e-03 2.8977713069e+00 -5.0190871322e+00 2.8977713069e+00 5.0190871322e+00 
94500 6.8017038965e+00 -4.2497254162e-03 2.8978449123e+00 -5.0192146206e+00 2.8978449123e+00 5.0192146206e+00 
94600 6.8017006881e+00 -4.2337019387e-03 2.8979182383e+00 -5.0193416249e+00 2.8979182383e+00 5.0193416249e+00 
94700 6.8016975005e+00 -4.2177466786e-03 2.8979912859e+00 -5.0194681470e+00 2.8979912859e+00 5.0194681470e+00 
94800 6.8016943336e+00 -4.2018593089e-03 2.8980640563e+00 -5.0195941892e+00 2.8980640563e+00 5.0195941892e+00 
94900 6.8016911872e+00 -4.1860395033e-03 2.8981365509e+00 -5.0197197534e+00 2.8981365509e+00 5.0197197534e+00 
95000 6.8016880613e+00 -4.1702869370e-03 2.8982087707e+00 -5.0198448418e+00 2.8982087707e+00 5.0198448418e+00 
95100 6.8016849557e+00 -4.1546012862e-03 2.8982807169e+00 -5.0199694563e+00 2.8982807169e+00 5.0199694563e+00 
95200 6.8016818703e+00 -4.1389822283e-03 2.8983523908e+00 -5.0200935991e+00 2.8983523908e+00 5.0200935991e+00 
95300 6.8016788049e+00 -4.1234294417e-03 2.8984237934e+00 -5.0202172720e+00 2.8984237934e+00 5.0202172720e+00 
95400 6.8016757595e+00 -4.1079426062e-03 2.8984949260e+00 -5.0203404772e+00 2.8984949260e+00 5.0203404772e+00 
95500 6.8016727338e+00 -4.0925214026e-03 2.8985657896e+00 -5.0204632167e+00 2.8985657896e+00 5.0204632167e+00 
95600 6.8016697279e+00 -4.0771655129e-03 2.8986363855e+00 -5.0205854924e+00 2.8986363855e+00 5.0205854924e+00 
95700 6.8016667414e+00 -4.0618746202e-03 2.8987067148e+00 -5.0207073064e+00 2.8987067148e+00 5.0207073064e+00 
95800 6.8016637745e+00 -4.0466484088e-03 2.8987767787e+00 -5.0208286605e+00 2.8987767787e+00 5.0208286605e+00 
95900 6.8016608268e+00 -4.0314865640e-03 2.8988465782e+00 -5.0209495568e+00 2.8988465782e+00 5.0209495568e+00 
96000 6.8016578983e+00 -4.0163887726e-03 2.8989161145e+00 -5.0210699973e+00 2.8989161145e+00 5.0210699973e+00 
96100 6.8016549888e+00 -4.0013547222e-03 2.8989853888e+00 -5.0211899838e+00 2.8989853888e+00 5.0211899838e+00 
96200 6.8016520984e+00 -3.9863841018e-03 2.8990544021e+00 -5.0213095183e+00 2.8990544021e+00 5.0213095183e+00 
96300 6.8016492267e+00 -3.9714766013e-03 2.8991231555e+00 -5.0214286028e+00 2.8991231555e+00 5.0214286028e+00 
96400 6.8016463737e+00 -3.9566319120e-03 2.8991916503e+00 -5.0215472391e+00 2.8991916503e+00 5.0215472391e+00 
96500 6.8016435394e+00 -3.9418497264e-03 2.8992598873e+00 -5.0216654292e+00 2.8992598873e+00 5.0216654292e+00 
96600 6.8016407235e+00 -3.9271297379e-03 2.8993278679e+00 -5.0217831750e+00 2.8993278679e+00 5.0217831750e+00 
96700 6.8016379259e+00 -3.9124716413e-03 2.8993955930e+00 -5.0219004783e+00 2.8993955930e+00 5.0219004783e+00 
96800 6.8016351466e+00 -3.8978751326e-03 2.8994630637e+00 -5.0220173410e+00 2.8994630637e+00 5.0220173410e+00 
96900 6.8016323854e+00 -3.8833399089e-03 2.8995302811e+00 -5.0221337650e+00 2.8995302811e+00 5.0221337650e+00 
97000 6.8016296422e+00 -3.8688656684e-03 2.8995972464e+00 -5.0222497522e+00 2.8995972464e+00 5.0222497522e+00 
97100 6.8016269169e+00 -3.8544521108e-03 2.8996639605e+00 -5.0223653044e+00 2.8996639605e+00 5.0223653044e+00 
97200 6.8016242094e+00 -3.8400989367e-03 2.8997304245e+00 -5.0224804235e+00 2.8997304245e+00 5.0224804235e+00 
97300 6.8016215196e+00 -3.8258058481e-03 2.8997966395e+00 -5.0225951113e+00 2.8997966395e+00 5.0225951113e+00 
97400 6.8016188473e+00 -3.8115725481e-03 2.8998626066e+00 -5.0227093695e+00 2.8998626066e+00 5.0227093695e+00 
97500 6.8016161924e+00 -3.7973987412e-03 2.8999283267e+00 -5.0228232002e+00 2.8999283267e+00 5.0228232002e+00 
97600 6.8016135549e+00 -3.7832841329e-03 2.8999938010e+00 -5.0229366049e+00 2.8999938010e+00 5.0229366049e+00 
97700 6.8016109346e+00 -3.7692284302e-03 2.9000590304e+00 -5.0230495856e+00 2.9000590304e+00 5.0230495856e+00 
97800 6.8016083314e+00 -3.7552313411e-03 2.9001240160e+00 -5.0231621440e+00 2.9001240160e+00 5.0231621440e+00 
97900 6.8016057452e+00 -3.7412925751e-03 2.9001887588e+00 -5.0232742818e+00 2.9001887588e+00 5.0232742818e+00 
98000 6.8016031760e+00 -3.7274118428e-03 2.9002532599e+00 -5.0233860010e+00 2.9002532599e+00 5.0233860010e+00 
98100 6.8016006235e+00 -3.7135888560e-03 2.9003175203e+00 -5.0234973032e+00 2.9003175203e+00 5.0234973032e+00 
98200 6.8015980877e+00 -3.6998233280e-03 2.9003815409e+00 -5.0236081901e+00 2.9003815409e+00 5.0236081901e+00 
98300 6.8015955684e+00 -3.6861149732e-03 2.9004453228e+00 -5.0237186636e+00 2.9004453228e+00 5.0237186636e+00 
98400 6.8015930656e+00 -3.6724635075e-03 2.9005088670e+00 -5.0238287254e+00 2.9005088670e+00 5.0238287254e+00 
98500 6.8015905792e+00 -3.6588686478e-03 2.9005721744e+00 -5.0239383771e+00 2.9005721744e+00 5.0239383771e+00 
98600 6.8015881091e+00 -3.6453301126e-03 2.9006352462e+00 -5.0240476206e+00 2.9006352462e+00 5.0240476206e+00 
98700 6.8015856551e+00 -3.6318476216e-03 2.9006980831e+00 -5.0241564574e+00 2.9006980831e+00 5.0241564574e+00 
98800 6.8015832171e+00 -3.6184208957e-03 2.9007606864e+00 -5.0242648894e+00 2.9007606864e+00 5.0242648894e+00 
98900 6.8015807951e+00 -3.6050496573e-03 2.9008230568e+00 -5.0243729181e+00 2.9008230568e+00 5.0243729181e+00 
99000 6.8015783890e+00 -3.5917336301e-03 2.9008851954e+00 -5.0244805453e+00 2.9008851954e+00 5.0244805453e+00 
99100 6.8015759986e+00 -3.5784725391e-03 2.9009471032e+00 -5.0245877727e+00 2.9009471032e+00 5.0245877727e+00 
99200 6.8015736238e+00 -3.5652661106e-03 2.9010087810e+00 -5.0246946020e+00 2.9010087810e+00 5.0246946020e+00 
99300 6.8015712646e+00 -3.5521140723e-03 2.9010702300e+00 -5.0248010347e+00 2.9010702300e+00 5.0248010347e+00 
99400 6.8015689209e+00 -3.5390161534e-03 2.9011314510e+00 -5.0249070725e+00 2.9011314510e+00 5.0249070725e+00 
99500 6.8015665925e+00 -3.5259720843e-03 2.9011924449e+00 -5.0250127171e+00 2.9011924449e+00 5.0250127171e+00 
99600 6.8015642793e+00 -3.5129815968e-03 2.9012532127e+00 -5.0251179701e+00 2.9012532127e+00 5.0251179701e+00 
99700 6.8015619813e+00 -3.5000444241e-03 2.9013137554e+00 -5.0252228331e+00 2.9013137554e+00 5.0252228331e+00 
99800 6.8015596983e+00 -3.4871603008e-03 2.9013740739e+00 -5.0253273078e+00 2.9013740739e+00 5.0253273078e+00 
99900 6.8015574303e+00 -3.4743289628e-03 2.9014341691e+00 -5.0254313957e+00 2.9014341691e+00 5.0254313957e+00 
100000 6.8015551772e+00 -3.4615501475e-03 2.9014940419e+00 -5.0255350985e+00 2.9014940419e+00 5.0255350985e+00 
100100 6.8015529388e+00 -3.4488235936e-03 2.9015536933e+00 -5.0256384177e+00 2.9015536933e+00 5.0256384177e+00 
100200 6.8015507151e+00 -3.4361490414e-03 2.9016131241e+00 -5.0257413549e+00 2.9016131241e+00 5.0257413549e+00 
100300 6.8015485059e+00 -3.4235262323e-03 2.9016723353e+00 -5.0258439117e+00 2.9016723353e+00 5.0258439117e+00 
100400 6.8015463113e+00 -3.4109549093e-03 2.9017313278e+00 -5.0259460897e+00 2.9017313278e+00 5.0259460897e+00 
100500 6.8015441310e+00 -3.3984348169e-03 2.9017901025e+00 -5.0260478905e+00 2.9017901025e+00 5.0260478905e+00 
100600 6.8015419650e+00 -3.3859657008e-03 2.9018486603e+00 -5.0261493155e+00 2.9018486603e+00 5.0261493155e+00 
100700 6.8015398133e+00 -3.3735473083e-03 2.9019070020e+00 -5.0262503663e+00 2.9019070020e+00 5.0262503663e+00 
100800 6.8015376756e+00 -3.3611793880e-03 2.9019651286e+00 -5.0263510445e+00 2.9019651286e+00 5.0263510445e+00 
100900 6.8015355520e+00 -3.3488616900e-03 2.9020230409e+00 -5.0264513516e+00 2.9020230409e+00 5.0264513516e+00 
101000 6.8015334423e+00 -3.3365939658e-03 2.9020807398e+00 -5.0265512890e+00 2.9020807398e+00 5.0265512890e+00 
101100 6.8015313464e+00 -3.3243759684e-03 2.9021382263e+00 -5.0266508585e+00 2.9021382263e+00 5.0266508585e+00 
101200 6.8015292643e+00 -3.3122074520e-03 2.9021955010e+00 -5.0267500613e+00 2.9021955010e+00 5.0267500613e+00 
101300 6.8015271959e+00 -3.3000881725e-03 2.9022525650e+00 -5.0268488991e+00 2.9022525650e+00 5.0268488991e+00 
101400 6.8015251410e+00 -3.2880178872e-03 2.9023094191e+00 -5.0269473732e+00 2.9023094191e+00 5.0269473732e+00 
101500 6.8015230997e+00 -3.2759963546e-03 2.9023660642e+00 -5.0270454853e+00 2.9023660642e+00 5.0270454853e+00 
101600 6.8015210717e+00 -3.2640233350e-03 2.9024225010e+00 -5.0271432368e+00 2.9024225010e+00 5.0271432368e+00 
101700 6.8015190570e+00 -3.2520985898e-03 2.9024787305e+00 -5.0272406291e+00 2.9024787305e+00 5.0272406291e+00 
101800 6.8015170556e+00 -3.2402218820e-03 2.9025347535e+00 -5.0273376637e+00 2.9025347535e+00 5.0273376637e+00 
101900 6.8015150673e+00 -3.2283929761e-03 2.9025905707e+00 -5.0274343421e+00 2.9025905707e+00 5.0274343421e+00 
102000 6.8015130921e+00 -3.2166116379e-03 2.9026461832e+00 -5.0275306657e+00 2.9026461832e+00 5.0275306657e+00 
102100 6.8015111298e+00 -3.2048776346e-03 2.9027015916e+00 -5.0276266359e+00 2.9027015916e+00 5.0276266359e+00 
102200 6.8015091805e+00 -3.1931907351e-03 2.9027567969e+00 -5.0277222542e+00 2.9027567969e+00 5.0277222542e+00 
102300 6.8015072439e+00 -3.1815507093e-03 2.9028117998e+00 -5.0278175220e+00 2.9028117998e+00 5.0278175220e+00 
102400 6.8015053201e+00 -3.1699573290e-03 2.9028666011e+00 -5.0279124408e+00 2.9028666011e+00 5.0279124408e+00 
102500 6.8015034089e+00 -3.1584103671e-03 2.9029212018e+00 -5.0280070118e+00 2.9029212018e+00 5.0280070118e+00 
102600 6.8015015102e+00 -3.1469095980e-03 2.9029756025e+00 -5.0281012367e+00 2.9029756025e+00 5.0281012367e+00 
102700 6.8014996241e+00 -3.1354547976e-03 2.9030298041e+00 -5.0281951166e+00 2.9030298041e+00 5.0281951166e+00 
102800 6.8014977503e+00 -3.1240457432e-03 2.9030838074e+00 -5.0282886531e+00 2.9030838074e+00 5.0282886531e+00 
102900 6.8014958889e+00 -3.1126822134e-03 2.9031376132e+00 -5.0283818475e+00 2.9031376132e+00 5.0283818475e+00 
103000 6.8014940396e+00 -3.1013639883e-03 2.9031912223e+00 -5.0284747012e+00 2.9031912223e+00 5.0284747012e+00 
103100 6.8014922026e+00 -3.0900908496e-03 2.9032446355e+00 -5.0285672155e+00 2.9032446355e+00 5.0285672155e+00 
103200 6.8014903776e+00 -3.0788625799e-03 2.9032978536e+00 -5.0286593919e+00 2.9032978536e+00 5.0286593919e+00 
103300 6.8014885646e+00 -3.0676789638e-03 2.9033508773e+00 -5.0287512316e+00 2.9033508773e+00 5.0287512316e+00 
103400 6.8014867636e+00 -3.0565397868e-03 2.9034037074e+00 -5.0288427361e+00 2.9034037074e+00 5.0288427361e+00 
103500 6.8014849744e+00 -3.0454448361e-03 2.9034563447e+00 -5.0289339066e+00 2.9034563447e+00 5.0289339066e+00 
103600 6.8014831969e+00 -3.0343939001e-03 2.9035087901e+00 -5.0290247446e+00 2.9035087901e+00 5.0290247446e+00 
103700 6.8014814312e+00 -3.0233867688e-03 2.9035610441e+00 -5.0291152513e+00 2.9035610441e+00 5.0291152513e+00 
103800 6.8014796770e+00 -3.0124232334e-03 2.9036131077e+00 -5.0292054281e+00 2.9036131077e+00 5.0292054281e+00 
103900 6.8014779344e+00 -3.0015030864e-03 2.9036649816e+00 -5.0292952762e+00 2.9036649816e+00 5.0292952762e+00 
104000 6.8014762033e+00 -2.9906261218e-03 2.9037166665e+00 -5.0293847971e+00 2.9037166665e+00 5.0293847971e+00 
104100 6.8014744835e+00 -2.9797921350e-03 2.9037681631e+00 -5.0294739919e+00 2.9037681631e+00 5.0294739919e+00 
104200 6.8014727751e+00 -2.9690009226e-03 2.9038194723e+00 -5.0295628621e+00 2.9038194723e+00 5.0295628621e+00 
104300 6.8014710779e+00 -2.9582522827e-03 2.9038705948e+00 -5.0296514088e+00 2.9038705948e+00 5.0296514088e+00 
104400 6.8014693919e+00 -2.9475460146e-03 2.9039215313e+00 -5.0297396335e+00 2.9039215313e+00 5.0297396335e+00 
104500 6.8014677170e+00 -2.9368819190e-03 2.9039722826e+00 -5.0298275373e+00 2.9039722826e+00 5.0298275373e+00 
104600 6.8014660530e+00 -2.9262597978e-03 2.9040228494e+00 -5.0299151215e+00 2.9040228494e+00 5.0299151215e+00 
104700 6.8014644001e+00 -2.9156794545e-03 2.9040732324e+00 -5.0300023874e+00 2.9040732324e+00 5.0300023874e+00 
104800 6.8014627580e+00 -2.9051406937e-03 2.9041234324e+00 -5.0300893363e+00 2.9041234324e+00 5.0300893363e+00 
104900 6.8014611268e+00 -2.8946433212e-03 2.9041734500e+00 -5.0301759695e+00 2.9041734500e+00 5.0301759695e+00 
105000 6.8014595062e+00 -2.8841871443e-03 2.9042232861e+00 -5.0302622881e+00 2.9042232861e+00 5.0302622881e+00 
105100 6.8014578964e+00 -2.8737719715e-03 2.9042729413e+00 -5.0303482934e+00 2.9042729413e+00 5.0303482934e+00 
105200 6.8014562971e+00 -2.8633976125e-03 2.9043224163e+00 -5.0304339867e+00 2.9043224163e+00 5.0304339867e+00 
105300 6.8014547084e+00 -2.8530638784e-03 2.9043717119e+00 -5.0305193691e+00 2.9043717119e+00 5.0305193691e+00 
105400 6.8014531301e+00 -2.8427705815e-03 2.9044208288e+00 -5.0306044420e+00 2.9044208288e+00 5.0306044420e+00 
105500 6.8014515623e+00 -2.8325175353e-03 2.9044697676e+00 -5.0306892065e+00 2.9044697676e+00 5.0306892065e+00 
105600 6.8014500047e+00 -2.8223045547e-03 2.9045185291e+00 -5.0307736639e+00 2.9045185291e+00 5.0307736639e+00 
105700 6.8014484574e+00 -2.8121314556e-03 2.9045671139e+00 -5.0308578153e+00 2.9045671139e+00 5.0308578153e+00 
105800 6.8014469203e+00 -2.8019980552e-03 2.9046155229e+00 -5.0309416621e+00 2.9046155229e+00 5.0309416621e+00 
105900 6.8014453934e+00 -2.7919041720e-03 2.9046637565e+00 -5.0310252052e+00 2.9046637565e+00 5.0310252052e+00 
106000 6.8014438764e+00 -2.7818496256e-03 2.9047118157e+00 -5.0311084461e+00 2.9047118157e+00 5.0311084461e+00 
106100 6.8014423695e+00 -2.7718342370e-03 2.9047597009e+00 -5.0311913858e+00 2.9047597009e+00 5.0311913858e+00 
106200 6.8014408725e+00 -2.7618578280e-03 2.9048074130e+00 -5.0312740255e+00 2.9048074130e+00 5.0312740255e+00 
106300 6.8014393854e+00 -2.7519202219e-03 2.9048549525e+00 -5.0313563664e+00 2.9048549525e+00 5.0313563664e+00 
106400 6.8014379081e+00 -2.7420212431e-03 2.9049023203e+00 -5.0314384097e+00 2.9049023203e+00 5.0314384097e+00 
106500 6.8014364404e+00 -2.7321607170e-03 2.9049495169e+00 -5.0315201566e+00 2.9049495169e+00 5.0315201566e+00 
106600 6.8014349825e+00 -2.7223384704e-03 2.9049965429e+00 -5.0316016082e+00 2.9049965429e+00 5.0316016082e+00 
106700 6.8014335342e+00 -2.7125543309e-03 2.9050433992e+00 -5.0316827656e+00 2.9050433992e+00 5.0316827656e+00 
106800 6.8014320954e+00 -2.7028081276e-03 2.9050900863e+00 -5.0317636301e+00 2.9050900863e+00 5.0317636301e+00 
106900 6.8014306661e+00 -2.6930996904e-03 2.9051366049e+00 -5.0318442027e+00 2.9051366049e+00 5.0318442027e+00 
107000 6.8014292462e+00 -2.6834288505e-03 2.9051829557e+00 -5.0319244846e+00 2.9051829557e+00 5.0319244846e+00 
107100 6.8014278357e+00 -2.6737954400e-03 2.9052291393e+00 -5.0320044769e+00 2.9052291393e+00 5.0320044769e+00 
107200 6.8014264345e+00 -2.6641992924e-03 2.9052751564e+00 -5.0320841808e+00 2.9052751564e+00 5.0320841808e+00 
107300 6.8014250425e+00 -2.6546402419e-03 2.9053210076e+00 -5.0321635974e+00 2.9053210076e+00 5.0321635974e+00 
107400 6.8014236596e+00 -2.6451181240e-03 2.9053666935e+00 -5.0322427278e+00 2.9053666935e+00 5.0322427278e+00 
107500 6.8014222859e+00 -2.6356327752e-03 2.9054122149e+00 -5.0323215731e+00 2.9054122149e+00 5.0323215731e+00 
107600 6.8014209213e+00 -2.6261840331e-03 2.9054575723e+00 -5.0324001344e+00 2.9054575723e+00 5.0324001344e+00 
107700 6.8014195656e+00 -2.6167717361e-03 2.9055027664e+00 -5.0324784129e+00 2.9055027664e+00 5.0324784129e+00 
107800 6.8014182189e+00 -2.6073957239e-03 2.9055477978e+00 -5.0325564096e+00 2.9055477978e+00 5.0325564096e+00 
107900 6.8014168811e+00 -2.5980558371e-03 2.9055926672e+00 -5.0326341257e+00 2.9055926672e+00 5.0326341257e+00 
108000 6.8014155520e+00 -2.5887519173e-03 2.9056373751e+00 -5.0327115621e+00 2.9056373751e+00 5.0327115621e+00 
108100 6.8014142318e+00 -2.5794838070e-03 2.9056819223e+00 -5.0327887201e+00 2.9056819223e+00 5.0327887201e+00 
108200 6.8014129202e+00 -2.5702513499e-03 2.9057263093e+00 -5.0328656006e+00 2.9057263093e+00 5.0328656006e+00 
108300 6.8014116173e+00 -2.5610543904e-03 2.9057705368e+00 -5.0329422049e+00 2.9057705368e+00 5.0329422049e+00 
108400 6.8014103230e+00 -2.5518927741e-03 2.9058146053e+00 -5.0330185338e+00 2.9058146053e+00 5.0330185338e+00 
108500 6.8014090372e+00 -2.5427663474e-03 2.9058585155e+00 -5.0330945885e+00 2.9058585155e+00 5.0330945885e+00 
108600 6.8014077599e+00 -2.5336749577e-03 2.9059022681e+00 -5.0331703701e+00 2.9059022681e+00 5.0331703701e+00 
108700 6.8014064910e+00 -2.5246184533e-03 2.9059458635e+00 -5.0332458796e+00 2.9059458635e+00 5.0332458796e+00 
108800 6.8014052305e+00 -2.5155966834e-03 2.9059893024e+00 -5.0333211181e+00 2.9059893024e+00 5.0333211181e+00 
108900 6.8014039783e+00 -2.5066094982e-03 2.9060325855e+00 -5.0333960866e+00 2.9060325855e+00 5.0333960866e+00 
109000 6.8014027343e+00 -2.4976567487e-03 2.9060757133e+00 -5.0334707861e+00 2.9060757133e+00 5.0334707861e+00 
109100 6.8014014986e+00 -2.4887382869e-03 2.9061186864e+00 -5.0335452177e+00 2.9061186864e+00 5.0335452177e+00 
109200 6.8014002710e+00 -2.4798539656e-03 2.9061615055e+00 -5.0336193825e+00 2.9061615055e+00 5.0336193825e+00 
109300 6.8013990515e+00 -2.4710036384e-03 2.9062041710e+00 -5.0336932814e+00 2.9062041710e+00 5.0336932814e+00 
109400 6.8013978400e+00 -2.4621871599e-03 2.9062466837e+00 -5.0337669155e+00 2.9062466837e+00 5.0337669155e+00 
109500 6.8013966365e+00 -2.4534043855e-03 2.9062890441e+00 -5.0338402858e+00 2.9062890441e+00 5.0338402858e+00 
109600 6.8013954410e+00 -2.4446551715e-03 2.9063312527e+00 -5.0339133933e+00 2.9063312527e+00 5.0339133933e+00 
109700 6.8013942533e+00 -2.4359393748e-03 2.9063733102e+00 -5.0339862390e+00 2.9063733102e+00 5.0339862390e+00 
109800 6.8013930735e+00 -2.4272568534e-03 2.9064152172e+00 -5.0340588240e+00 2.9064152172e+00 5.0340588240e+00 
109900 6.8013919015e+00 -2.4186074659e-03 2.9064569742e+00 -5.0341311492e+00 2.9064569742e+00 5.0341311492e+00 
110000 6.8013907372e+00 -2.4099910720e-03 2.9064985817e+00 -5.0342032157e+00 2.9064985817e+00 5.0342032157e+00 
110100 6.8013895805e+00 -2.4014075318e-03 2.9065400405e+00 -5.0342750244e+00 2.9065400405e+00 5.0342750244e+00 
110200 6.8013884316e+00 -2.3928567065e-03 2.9065813510e+00 -5.0343465763e+00 2.9065813510e+00 5.0343465763e+00 
110300 6.8013872901e+00 -2.3843384579e-03 2.9066225138e+00 -5.0344178724e+00 2.9066225138e+00 5.0344178724e+00 
110400 6.8013861562e+00 -2.3758526487e-03 2.9066635296e+00 -5.0344889137e+00 2.9066635296e+00 5.0344889137e+00 
110500 6.8013850298e+00 -2.3673991422e-03 2.9067043987e+00 -5.0345597012e+00 2.9067043987e+00 5.0345597012e+00 
110600 6.8013839108e+00 -2.3589778026e-03 2.9067451219e+00 -5.0346302358e+00 2.9067451219e+00 5.0346302358e+00 
110700 6.8013827992e+00 -2.3505884948e-03 2.9067856997e+00 -5.0347005185e+00 2.9067856997e+00 5.0347005185e+00 
110800 6.8013816950e+00 -2.3422310844e-03 2.9068261325e+00 -5.0347705503e+00 2.9068261325e+00 5.0347705503e+00 
110900 6.8013805980e+00 -2.3339054377e-03 2.9068664211e+00 -5.0348403321e+00 2.9068664211e+00 5.0348403321e+00 
111000 6.8013795082e+00 -2.3256114218e-03 2.9069065659e+00 -5.0349098649e+00 2.9069065659e+00 5.0349098649e+00 
111100 6.8013784257e+00 -2.3173489045e-03 2.9069465674e+00 -5.0349791497e+00 2.9069465674e+00 5.0349791497e+00 
111200 6.8013773503e+00 -2.3091177542e-03 2.9069864263e+00 -5.0350481873e+00 2.9069864263e+00 5.0350481873e+00 
111300 6.8013762819e+00 -2.3009178401e-03 2.9070261431e+00 -5.0351169788e+00 2.9070261431e+00 5.0351169788e+00 
111400 6.8013752207e+00 -2.2927490321e-03 2.9070657183e+00 -5.0351855251e+00 2.9070657183e+00 5.0351855251e+00 
111500 6.8013741664e+00 -2.2846112006e-03 2.9071051525e+00 -5.0352538271e+00 2.9071051525e+00 5.0352538271e+00 
111600 6.8013731191e+00 -2.2765042169e-03 2.9071444462e+00 -5.0353218857e+00 2.9071444462e+00 5.0353218857e+00 
111700 6.8013720787e+00 -2.2684279529e-03 2.9071835999e+00 -5.0353897019e+00 2.9071835999e+00 5.0353897019e+00 
111800 6.8013710451e+00 -2.2603822810e-03 2.9072226141e+00 -5.0354572766e+00 2.9072226141e+00 5.0354572766e+00 
111900 6.8013700184e+00 -2.2523670744e-03 2.9072614895e+00 -5.0355246107e+00 2.9072614895e+00 5.0355246107e+00 
112000 6.8013689984e+00 -2.2443822070e-03 2.9073002265e+00 -5.0355917052e+00 2.9073002265e+00 5.0355917052e+00 
112100 6.8013679852e+00 -2.2364275532e-03 2.9073388257e+00 -5.0356585609e+00 2.9073388257e+00 5.0356585609e+00 
112200 6.8013669786e+00 -2.2285029880e-03 2.9073772875e+00 -5.0357251788e+00 2.9073772875e+00 5.0357251788e+00 
112300 6.8013659787e+00 -2.2206083872e-03 2.9074156126e+00 -5.0357915597e+00 2.9074156126e+00 5.0357915597e+00 
112400 6.8013649854e+00 -2.2127436270e-03 2.9074538014e+00 -5.0358577046e+00 2.9074538014e+00 5.0358577046e+00 
112500 6.8013639987e+00 -2.2049085845e-03 2.9074918544e+00 -5.0359236144e+00 2.9074918544e+00 5.0359236144e+00 
112600 6.8013630184e+00 -2.1971031370e-03 2.9075297722e+00 -5.0359892900e+00 2.9075297722e+00 5.0359892900e+00 
112700 6.8013620446e+00 -2.1893271627e-03 2.9075675553e+00 -5.0360547321e+00 2.9075675553e+00 5.0360547321e+00 
112800 6.8013610773e+00 -2.1815805403e-03 2.9076052041e+00 -5.0361199419e+00 2.9076052041e+00 5.0361199419e+00 
112900 6.8013601163e+00 -2.1738631492e-03 2.9076427193e+00 -5.0361849200e+00 2.9076427193e+00 5.0361849200e+00 
113000 6.8013591617e+00 -2.1661748691e-03 2.9076801012e+00 -5.0362496675e+00 2.9076801012e+00 5.0362496675e+00 
113100 6.8013582133e+00 -2.1585155805e-03 2.9077173505e+00 -5.0363141851e+00 2.9077173505e+00 5.0363141851e+00 
113200 6.8013572713e+00 -2.1508851645e-03 2.9077544676e+00 -5.0363784738e+00 2.9077544676e+00 5.0363784738e+00 
113300 6.8013563354e+00 -2.1432835025e-03 2.9077914530e+00 -5.0364425344e+00 2.9077914530e+00 5.0364425344e+00 
113400 6.8013554057e+00 -2.1357104768e-03 2.9078283072e+00 -5.0365063678e+00 2.9078283072e+00 5.0365063678e+00 
113500 6.8013544821e+00 -2.1281659699e-03 2.9078650308e+00 -5.0365699748e+00 2.9078650308e+00 5.0365699748e+00 
113600 6.8013535647e+00 -2.1206498652e-03 2.9079016241e+00 -5.0366333564e+00 2.9079016241e+00 5.0366333564e+00 
113700 6.8013526533e+00 -2.1131620463e-03 2.9079380878e+00 -5.0366965133e+00 2.9079380878e+00 5.0366965133e+00 
113800 6.8013517479e+00 -2.1057023976e-03 2.9079744222e+00 -5.0367594464e+00 2.9079744222e+00 5.0367594464e+00 
113900 6.8013508484e+00 -2.0982708038e-03 2.9080106280e+00 -5.0368221566e+00 2.9080106280e+00 5.0368221566e+00 
114000 6.8013499549e+00 -2.0908671504e-03 2.9080467055e+00 -5.0368846446e+00 2.9080467055e+00 5.0368846446e+00 
114100 6.8013490673e+00 -2.0834913232e-03 2.9080826552e+00 -5.0369469114e+00 2.9080826552e+00 5.0369469114e+00 
114200 6.8013481856e+00 -2.0761432086e-03 2.9081184777e+00 -5.0370089578e+00 2.9081184777e+00 5.0370089578e+00 
114300 6.8013473097e+00 -2.0688226934e-03 2.9081541734e+00 -5.0370707846e+00 2.9081541734e+00 5.0370707846e+00 
114400 6.8013464395e+00 -2.0615296652e-03 2.9081897428e+00 -5.0371323926e+00 2.9081897428e+00 5.0371323926e+00 
114500 6.8013455751e+00 -2.0542640118e-03 2.9082251864e+00 -5.0371937827e+00 2.9082251864e+00 5.0371937827e+00 
114600 6.8013447164e+00 -2.0470256216e-03 2.9082605047e+00 -5.0372549557e+00 2.9082605047e+00 5.0372549557e+00 
114700 6.8013438633e+00 -2.0398143835e-03 2.9082956980e+00 -5.0373159124e+00 2.9082956980e+00 5.0373159124e+00 
114800 6.8013430159e+00 -2.0326301869e-03 2.9083307670e+00 -5.0373766537e+00 2.9083307670e+00 5.0373766537e+00 
114900 6.8013421741e+00 -2.0254729218e-03 2.9083657120e+00 -5.0374371803e+00 2.9083657120e+00 5.0374371803e+00 
115000 6.8013413378e+00 -2.0183424784e-03 2.9084005336e+00 -5.0374974930e+00 2.9084005336e+00 5.0374974930e+00 
115100 6.8013405071e+00 -2.0112387477e-03 2.9084352322e+00 -5.0375575926e+00 2.9084352322e+00 5.0375575926e+00 
115200 6.8013396818e+00 -2.0041616209e-03 2.9084698082e+00 -5.0376174801e+00 2.9084698082e+00 5.0376174801e+00 
115300 6.8013388619e+00 -1.9971109898e-03 2.9085042622e+00 -5.0376771561e+00 2.9085042622e+00 5.0376771561e+00 
115400 6.8013380475e+00 -1.9900867468e-03 2.9085385945e+00 -5.0377366214e+00 2.9085385945e+00 5.0377366214e+00 
115500 6.8013372384e+00 -1.9830887845e-03 2.9085728057e+00 -5.0377958769e+00 2.9085728057e+00 5.0377958769e+00 
115600 6.8013364347e+00 -1.9761169962e-03 2.9086068961e+00 -5.0378549234e+00 2.9086068961e+00 5.0378549234e+00 
115700 6.8013356363e+00 -1.9691712755e-03 2.9086408664e+00 -5.0379137615e+00 2.9086408664e+00 5.0379137615e+00 
115800 6.8013348431e+00 -1.9622515165e-03 2.9086747168e+00 -5.0379723922e+00 2.9086747168e+00 5.0379723922e+00 
115900 6.8013340552e+00 -1.9553576138e-03 2.9087084479e+00 -5.0380308162e+00 2.9087084479e+00 5.0380308162e+00 
116000 6.8013332725e+00 -1.9484894625e-03 2.9087420601e+00 -5.0380890342e+00 2.9087420601e+00 5.0380890342e+00 
116100 6.8013324949e+00 -1.9416469579e-03 2.9087755538e+00 -5.0381470471e+00 2.9087755538e+00 5.0381470471e+00 
116200 6.8013317225e+00 -1.9348299961e-03 2.9088089296e+00 -5.0382048555e+00 2.9088089296e+00 5.0382048555e+00 
116300 6.8013309552e+00 -1.9280384733e-03 2.9088421877e+00 -5.0382624604e+00 2.9088421877e+00 5.0382624604e+00 
116400 6.8013301929e+00 -1.9212722864e-03 2.9088753288e+00 -5.0383198624e+00 2.9088753288e+00 5.0383198624e+00 
116500 6.8013294356e+00 -1.9145313327e-03 2.9089083532e+00 -5.0383770623e+00 2.9089083532e+00 5.0383770623e+00 
116600 6.8013286834e+00 -1.9078155097e-03 2.9089412613e+00 -5.0384340608e+00 2.9089412613e+00 5.0384340608e+00 
116700 6.8013279361e+00 -1.9011247156e-03 2.9089740536e+00 -5.0384908588e+00 2.9089740536e+00 5.0384908588e+00 
116800 6.8013271937e+00 -1.8944588490e-03 2.9090067306e+00 -5.0385474570e+00 2.9090067306e+00 5.0385474570e+00 
116900 6.8013264562e+00 -1.8878178087e-03 2.9090392926e+00 -5.0386038560e+00 2.9090392926e+00 5.0386038560e+00 
117000 6.8013257236e+00 -1.8812014943e-03 2.9090717401e+00 -5.0386600567e+00 2.9090717401e+00 5.0386600567e+00 
117100 6.8013249958e+00 -1.8746098055e-03 2.9091040735e+00 -5.0387160599e+00 2.9091040735e+00 5.0387160599e+00 
117200 6.8013242728e+00 -1.8680426426e-03 2.9091362933e+00 -5.0387718662e+00 2.9091362933e+00 5.0387718662e+00 
117300 6.8013235546e+00 -1.8614999062e-03 2.9091683999e+00 -5.0388274763e+00 2.9091683999e+00 5.0388274763e+00 
117400 6.8013228411e+00 -1.8549814974e-03 2.9092003936e+00 -5.0388828911e+00 2.9092003936e+00 5.0388828911e+00 
117500 6.8013221324e+00 -1.8484873177e-03 2.9092322749e+00 -5.0389381112e+00 2.9092322749e+00 5.0389381112e+00 
117600 6.8013214283e+00 -1.8420172690e-03 2.9092640443e+00 -5.0389931374e+00 2.9092640443e+00 5.0389931374e+00 
117700 6.8013207288e+00 -1.8355712537e-03 2.9092957022e+00 -5.0390479704e+00 2.9092957022e+00 5.0390479704e+00 
117800 6.8013200340e+00 -1.8291491744e-03 2.9093272489e+00 -5.0391026109e+00 2.9093272489e+00 5.0391026109e+00 
117900 6.8013193437e+00 -1.8227509344e-03 2.9093586849e+00 -5.0391570597e+00 2.9093586849e+00 5.0391570597e+00 
118000 6.8013186580e+00 -1.8163764371e-03 2.9093900106e+00 -5.0392113174e+00 2.9093900106e+00 5.0392113174e+00 
118100 6.8013179768e+00 -1.8100255866e-03 2.9094212264e+00 -5.0392653848e+00 2.9094212264e+00 5.0392653848e+00 
118200 6.8013173001e+00 -1.8036982872e-03 2.9094523328e+00 -5.0393192625e+00 2.9094523328e+00 5.0393192625e+00 
118300 6.8013166278e+00 -1.7973944436e-03 2.9094833300e+00 -5.0393729514e+00 2.9094833300e+00 5.0393729514e+00 
118400 6.8013159600e+00 -1.7911139610e-03 2.9095142186e+00 -5.0394264520e+00 2.9095142186e+00 5.0394264520e+00 
118500 6.8013152966e+00 -1.7848567451e-03 2.9095449990e+00 -5.0394797651e+00 2.9095449990e+00 5.0394797651e+00 
118600 6.8013146376e+00 -1.7786227017e-03 2.9095756715e+00 -5.0395328915e+00 2.9095756715e+00 5.0395328915e+00 
118700 6.8013139829e+00 -1.7724117372e-03 2.9096062365e+00 -5.0395858316e+00 2.9096062365e+00 5.0395858316e+00 
118800 6.8013133325e+00 -1.7662237584e-03 2.9096366945e+00 -5.0396385864e+00 2.9096366945e+00 5.0396385864e+00 
118900 6.8013126864e+00 -1.7600586724e-03 2.9096670458e+00 -5.0396911565e+00 2.9096670458e+00 5.0396911565e+00 
119000 6.8013120446e+00 -1.7539163868e-03 2.9096972909e+00 -5.0397435425e+00 2.9096972909e+00 5.0397435425e+00 
119100 6.8013114070e+00 -1.7477968094e-03 2.9097274301e+00 -5.0397957451e+00 2.9097274301e+00 5.0397957451e+00 
119200 6.8013107736e+00 -1.7416998487e-03 2.9097574638e+00 -5.0398477651e+00 2.9097574638e+00 5.0398477651e+00 
119300 6.8013101444e+00 -1.7356254134e-03 2.9097873925e+00 -5.0398996030e+00 2.9097873925e+00 5.0398996030e+00 
119400 6.8013095193e+00 -1.7295734124e-03 2.9098172165e+00 -5.0399512597e+00 2.9098172165e+00 5.0399512597e+00 
119500 6.8013088983e+00 -1.7235437554e-03 2.9098469361e+00 -5.0400027356e+00 2.9098469361e+00 5.0400027356e+00 
119600 6.8013082815e+00 -1.7175363521e-03 2.9098765519e+00 -5.0400540317e+00 2.9098765519e+00 5.0400540317e+00 
119700 6.8013076687e+00 -1.7115511129e-03 2.9099060641e+00 -5.0401051483e+00 2.9099060641e+00 5.0401051483e+00 
119800 6.8013070599e+00 -1.7055879484e-03 2.9099354732e+00 -5.0401560864e+00 2.9099354732e+00 5.0401560864e+00 
119900 6.8013064552e+00 -1.6996467696e-03 2.9099647796e+00 -5.0402068464e+00 2.9099647796e+00 5.0402068464e+00 
120000 6.8013058544e+00 -1.6937274878e-03 2.9099939835e+00 -5.0402574292e+00 2.9099939835e+00 5.0402574292e+00 
120100 6.8013052576e+00 -1.6878300149e-03 2.9100230855e+00 -5.0403078352e+00 2.9100230855e+00 5.0403078352e+00 
120200 6.8013046647e+00 -1.6819542631e-03 2.9100520858e+00 -5.0403580653e+00 2.9100520858e+00 5.0403580653e+00 
120300 6.8013040758e+00 -1.6761001447e-03 2.9100809849e+00 -5.0404081200e+00 2.9100809849e+00 5.0404081200e+00 
120400 6.8013034907e+00 -1.6702675729e-03 2.9101097831e+00 -5.0404580000e+00 2.9101097831e+00 5.0404580000e+00 
120500 6.8013029095e+00 -1.6644564608e-03 2.9101384808e+00 -5.0405077059e+00 2.9101384808e+00 5.0405077059e+00 
120600 6.8013023321e+00 -1.6586667220e-03 2.9101670784e+00 -5.0405572384e+00 2.9101670784e+00 5.0405572384e+00 
120700 6.8013017585e+00 -1.6528982707e-03 2.9101955763e+00 -5.0406065981e+00 2.9101955763e+00 5.0406065981e+00 
120800 6.8013011887e+00 -1.6471510212e-03 2.9102239747e+00 -5.0406557856e+00 2.9102239747e+00 5.0406557856e+00 
120900 6.8013006226e+00 -1.6414248883e-03 2.9102522742e+00 -5.0407048017e+00 2.9102522742e+00 5.0407048017e+00 
121000 6.8013000603e+00 -1.6357197871e-03 2.9102804749e+00 -5.0407536469e+00 2.9102804749e+00 5.0407536469e+00 
121100 6.8012995016e+00 -1.6300356331e-03 2.9103085774e+00 -5.0408023218e+00 2.9103085774e+00 5.0408023218e+00 
121200 6.8012989467e+00 -1.6243723422e-03 2.9103365820e+00 -5.0408508271e+00 2.9103365820e+00 5.0408508271e+00 
121300 6.8012983954e+00 -1.6187298307e-03 2.9103644890e+00 -5.0408991634e+00 2.9103644890e+00 5.0408991634e+00 
121400 6.8012978477e+00 -1.6131080150e-03 2.9103922988e+00 -5.0409473314e+00 2.9103922988e+00 5.0409473314e+00 
121500 6.8012973037e+00 -1.6075068123e-03 2.9104200117e+00 -5.0409953316e+00 2.9104200117e+00 5.0409953316e+00 
121600 6.8012967632e+00 -1.6019261398e-03 2.9104476282e+00 -5.0410431647e+00 2.9104476282e+00 5.0410431647e+00 
121700 6.8012962263e+00 -1.5963659152e-03 2.9104751485e+00 -5.0410908313e+00 2.9104751485e+00 5.0410908313e+00 
121800 6.8012956929e+00 -1.5908260565e-03 2.9105025730e+00 -5.0411383320e+00 2.9105025730e+00 5.0411383320e+00 
121900 6.8012951631e+00 -1.5853064823e-03 2.9105299021e+00 -5.0411856674e+00 2.9105299021e+00 5.0411856674e+00 
122000 6.8012946367e+00 -1.5798071111e-03 2.9105571361e+00 -5.0412328381e+00 2.9105571361e+00 5.0412328381e+00 
122100 6.8012941138e+00 -1.5743278622e-03 2.9105842754e+00 -5.0412798448e+00 2.9105842754e+00 5.0412798448e+00 
122200 6.8012935944e+00 -1.5688686551e-03 2.9106113203e+00 -5.0413266879e+00 2.9106113203e+00 5.0413266879e+00 
122300 6.8012930783e+00 -1.5634294095e-03 2.9106382712e+00 -5.0413733682e+00 2.9106382712e+00 5.0413733682e+00 
122400 6.8012925657e+00 -1.5580100457e-03 2.9106651284e+00 -5.0414198863e+00 2.9106651284e+00 5.0414198863e+00 
122500 6.8012920564e+00 -1.5526104841e-03 2.9106918923e+00 -5.0414662426e+00 2.9106918923e+00 5.0414662426e+00 
122600 6.8012915505e+00 -1.5472306458e-03 2.9107185631e+00 -5.0415124379e+00 2.9107185631e+00 5.0415124379e+00 
122700 6.8012910479e+00 -1.5418704519e-03 2.9107451413e+00 -5.0415584727e+00 2.9107451413e+00 5.0415584727e+00 
122800 6.8012905487e+00 -1.5365298240e-03 2.9107716272e+00 -5.0416043476e+00 2.9107716272e+00 5.0416043476e+00 
122900 6.8012900527e+00 -1.5312086841e-03 2.9107980211e+00 -5.0416500631e+00 2.9107980211e+00 5.0416500631e+00 
123000 6.8012895600e+00 -1.5259069544e-03 2.9108243234e+00 -5.0416956200e+00 2.9108243234e+00 5.0416956200e+00 
123100 6.8012890705e+00 -1.5206245576e-03 2.9108505343e+00 -5.0417410187e+00 2.9108505343e+00 5.0417410187e+00 
123200 6.8012885842e+00 -1.5153614167e-03 2.9108766543e+00 -5.0417862598e+00 2.9108766543e+00 5.0417862598e+00 
123300 6.8012881012e+00 -1.5101174550e-03 2.9109026836e+00 -5.0418313439e+00 2.9109026836e+00 5.0418313439e+00 
123400 6.8012876213e+00 -1.5048925961e-03 2.9109286227e+00 -5.0418762716e+00 2.9109286227e+00 5.0418762716e+00 
123500 6.8012871446e+00 -1.4996867640e-03 2.9109544717e+00 -5.0419210435e+00 2.9109544717e+00 5.0419210435e+00 
123600 6.8012866710e+00 -1.4944998832e-03 2.9109802311e+00 -5.0419656601e+00 2.9109802311e+00 5.0419656601e+00 
123700 6.8012862006e+00 -1.4893318782e-03 2.9110059012e+00 -5.0420101220e+00 2.9110059012e+00 5.0420101220e+00 
123800 6.8012857332e+00 -1.4841826741e-03 2.9110314823e+00 -5.0420544297e+00 2.9110314823e+00 5.0420544297e+00 
123900 6.8012852689e+00 -1.4790521963e-03 2.9110569747e+00 -5.0420985839e+00 2.9110569747e+00 5.0420985839e+00 
124000 6.8012848077e+00 -1.4739403704e-03 2.9110823788e+00 -5.0421425851e+00 2.9110823788e+00 5.0421425851e+00 
124100 6.8012843495e+00 -1.4688471225e-03 2.9111076948e+00 -5.0421864338e+00 2.9111076948e+00 5.0421864338e+00 
124200 6.8012838944e+00 -1.4637723789e-03 2.9111329232e+00 -5.0422301306e+00 2.9111329232e+00 5.0422301306e+00 
124300 6.8012834422e+00 -1.4587160664e-03 2.9111580642e+00 -5.0422736760e+00 2.9111580642e+00 5.0422736760e+00 
124400 6.8012829930e+00 -1.4536781119e-03 2.9111831181e+00 -5.0423170707e+00 2.9111831181e+00 5.0423170707e+00 
124500 6.8012825467e+00 -1.4486584428e-03 2.9112080853e+00 -5.0423603151e+00 2.9112080853e+00 5.0423603151e+00 
124600 6.8012821034e+00 -1.4436569867e-03 2.9112329660e+00 -5.0424034098e+00 2.9112329660e+00 5.0424034098e+00 
124700 6.8012816630e+00 -1.4386736718e-03 2.9112577606e+00 -5.0424463553e+00 2.9112577606e+00 5.0424463553e+00 
124800 6.8012812255e+00 -1.4337084262e-03 2.9112824695e+00 -5.0424891523e+00 2.9112824695e+00 5.0424891523e+00 
124900 6.8012807909e+00 -1.4287611787e-03 2.9113070928e+00 -5.0425318012e+00 2.9113070928e+00 5.0425318012e+00 
125000 6.8012803592e+00 -1.4238318582e-03 2.9113316310e+00 -5.0425743026e+00 2.9113316310e+00 5.0425743026e+00 
125100 6.8012799302e+00 -1.4189203940e-03 2.9113560843e+00 -5.0426166569e+00 2.9113560843e+00 5.0426166569e+00 
125200 6.8012795042e+00 -1.4140267158e-03 2.9113804531e+00 -5.0426588648e+00 2.9113804531e+00 5.0426588648e+00 
125300 6.8012790809e+00 -1.4091507535e-03 2.9114047376e+00 -5.0427009268e+00 2.9114047376e+00 5.0427009268e+00 
125400 6.8012786604e+00 -1.4042924372e-03 2.9114289381e+00 -5.0427428435e+00 2.9114289381e+00 5.0427428435e+00 
125500 6.8012782426e+00 -1.3994516977e-03 2.9114530550e+00 -5.0427846152e+00 2.9114530550e+00 5.0427846152e+00 
125600 6.8012778276e+00 -1.3946284658e-03 2.9114770886e+00 -5.0428262426e+00 2.9114770886e+00 5.0428262426e+00 
125700 6.8012774154e+00 -1.3898226726e-03 2.9115010392e+00 -5.0428677262e+00 2.9115010392e+00 5.0428677262e+00 
125800 6.8012770058e+00 -1.3850342497e-03 2.9115249070e+00 -5.0429090665e+00 2.9115249070e+00 5.0429090665e+00 
125900 6.8012765990e+00 -1.3802631288e-03 2.9115486924e+00 -5.0429502640e+00 2.9115486924e+00 5.0429502640e+00 
126000 6.8012761948e+00 -1.3755092422e-03 2.9115723957e+00 -5.0429913193e+00 2.9115723957e+00 5.0429913193e+00 
126100 6.8012757933e+00 -1.3707725223e-03 2.9115960172e+00 -5.0430322329e+00 2.9115960172e+00 5.0430322329e+00 
126200 6.8012753944e+00 -1.3660529017e-03 2.9116195571e+00 -5.0430730052e+00 2.9116195571e+00 5.0430730052e+00 
126300 6.8012749981e+00 -1.3613503136e-03 2.9116430158e+00 -5.0431136368e+00 2.9116430158e+00 5.0431136368e+00 
126400 6.8012746045e+00 -1.3566646912e-03 2.9116663935e+00 -5.0431541282e+00 2.9116663935e+00 5.0431541282e+00 
126500 6.8012742134e+00 -1.3519959683e-03 2.9116896906e+00 -5.0431944799e+00 2.9116896906e+00 5.0431944799e+00 
126600 6.8012738249e+00 -1.3473440787e-03 2.9117129073e+00 -5.0432346925e+00 2.9117129073e+00 5.0432346925e+00 
126700 6.8012734390e+00 -1.3427089568e-03 2.9117360439e+00 -5.0432747663e+00 2.9117360439e+00 5.0432747663e+00 
126800 6.8012730556e+00 -1.3380905370e-03 2.9117591008e+00 -5.0433147020e+00 2.9117591008e+00 5.0433147020e+00 
126900 6.8012726747e+00 -1.3334887542e-03 2.9117820782e+00 -5.0433545000e+00 2.9117820782e+00 5.0433545000e+00 
127000 6.8012722964e+00 -1.3289035436e-03 2.9118049764e+00 -5.0433941609e+00 2.9118049764e+00 5.0433941609e+00 
127100 6.8012719205e+00 -1.3243348406e-03 2.9118277957e+00 -5.0434336850e+00 2.9118277957e+00 5.0434336850e+00 
127200 6.8012715471e+00 -1.3197825808e-03 2.9118505363e+00 -5.0434730729e+00 2.9118505363e+00 5.0434730729e+00 
127300 6.8012711761e+00 -1.3152467004e-03 2.9118731986e+00 -5.0435123252e+00 2.9118731986e+00 5.0435123252e+00 
127400 6.8012708076e+00 -1.3107271356e-03 2.9118957828e+00 -5.0435514422e+00 2.9118957828e+00 5.0435514422e+00 
127500 6.8012704415e+00 -1.3062238230e-03 2.9119182893e+00 -5.0435904245e+00 2.9119182893e+00 5.0435904245e+00 
127600 6.8012700778e+00 -1.3017366994e-03 2.9119407182e+00 -5.0436292726e+00 2.9119407182e+00 5.0436292726e+00 
127700 6.8012697165e+00 -1.2972657021e-03 2.9119630700e+00 -5.0436679870e+00 2.9119630700e+00 5.0436679870e+00 
127800 6.8012693576e+00 -1.2928107684e-03 2.9119853448e+00 -5.0437065680e+00 2.9119853448e+00 5.0437065680e+00 
127900 6.8012690010e+00 -1.2883718362e-03 2.9120075429e+00 -5.0437450163e+00 2.9120075429e+00 5.0437450163e+00 
128000 6.8012686468e+00 -1.2839488433e-03 2.9120296646e+00 -5.0437833323e+00 2.9120296646e+00 5.0437833323e+00 
128100 6.8012682949e+00 -1.2795417281e-03 2.9120517103e+00 -5.0438215164e+00 2.9120517103e+00 5.0438215164e+00 
128200 6.8012679453e+00 -1.2751504292e-03 2.9120736800e+00 -5.0438595692e+00 2.9120736800e+00 5.0438595692e+00 
128300 6.8012675981e+00 -1.2707748853e-03 2.9120955743e+00 -5.0438974911e+00 2.9120955743e+00 5.0438974911e+00 
128400 6.8012672531e+00 -1.2664150357e-03 2.9121173932e+00 -5.0439352826e+00 2.9121173932e+00 5.0439352826e+00 
128500 6.8012669103e+00 -1.2620708195e-03 2.9121391371e+00 -5.0439729442e+00 2.9121391371e+00 5.0439729442e+00 
128600 6.8012665698e+00 -1.2577421766e-03 2.9121608063e+00 -5.0440104763e+00 2.9121608063e+00 5.0440104763e+00 
128700 6.8012662316e+00 -1.2534290469e-03 2.9121824010e+00 -5.0440478794e+00 2.9121824010e+00 5.0440478794e+00 
128800 6.8012658956e+00 -1.2491313705e-03 2.9122039214e+00 -5.0440851539e+00 2.9122039214e+00 5.0440851539e+00 
128900 6.8012655618e+00 -1.2448490878e-03 2.9122253680e+00 -5.0441223004e+00 2.9122253680e+00 5.0441223004e+00 
129000 6.8012652302e+00 -1.2405821397e-03 2.9122467408e+00 -5.0441593192e+00 2.9122467408e+00 5.0441593192e+00 
129100 6.8012649007e+00 -1.2363304671e-03 2.9122680402e+00 -5.0441962109e+00 2.9122680402e+00 5.0441962109e+00 
129200 6.8012645734e+00 -1.2320940112e-03 2.9122892665e+00 -5.0442329759e+00 2.9122892665e+00 5.0442329759e+00 
129300 6.8012642483e+00 -1.2278727136e-03 2.9123104199e+00 -5.0442696146e+00 2.9123104199e+00 5.0442696146e+00 
129400 6.8012639253e+00 -1.2236665160e-03 2.9123315006e+00 -5.0443061276e+00 2.9123315006e+00 5.0443061276e+00 
129500 6.8012636045e+00 -1.2194753605e-03 2.9123525090e+00 -5.0443425152e+00 2.9123525090e+00 5.0443425152e+00 
129600 6.8012632857e+00 -1.2152991893e-03 2.9123734453e+00 -5.0443787779e+00 2.9123734453e+00 5.0443787779e+00 
129700 6.8012629690e+00 -1.2111379450e-03 2.9123943098e+00 -5.0444149162e+00 2.9123943098e+00 5.0444149162e+00 
129800 6.8012626544e+00 -1.2069915704e-03 2.9124151026e+00 -5.0444509304e+00 2.9124151026e+00 5.0444509304e+00 
129900 6.8012623419e+00 -1.2028600085e-03 2.9124358241e+00 -5.0444868211e+00 2.9124358241e+00 5.0444868211e+00 
130000 6.8012620315e+00 -1.1987432026e-03 2.9124564746e+00 -5.0445225888e+00 2.9124564746e+00 5.0445225888e+00 
130100 6.8012617230e+00 -1.1946410963e-03 2.9124770542e+00 -5.0445582337e+00 2.9124770542e+00 5.0445582337e+00 
130200 6.8012614166e+00 -1.1905536334e-03 2.9124975632e+00 -5.0445937564e+00 2.9124975632e+00 5.0445937564e+00 
130300 6.8012611122e+00 -1.1864807579e-03 2.9125180019e+00 -5.0446291573e+00 2.9125180019e+00 5.0446291573e+00 
130400 6.8012608099e+00 -1.1824224140e-03 2.9125383706e+00 -5.0446644369e+00 2.9125383706e+00 5.0446644369e+00 
130500 6.8012605095e+00 -1.1783785464e-03 2.9125586695e+00 -5.0446995955e+00 2.9125586695e+00 5.0446995955e+00 
130600 6.8012602110e+00 -1.1743490998e-03 2.9125788988e+00 -5.0447346337e+00 2.9125788988e+00 5.0447346337e+00 
130700 6.8012599145e+00 -1.1703340192e-03 2.9125990587e+00 -5.0447695518e+00 2.9125990587e+00 5.0447695518e+00 
130800 6.8012596200e+00 -1.1663332499e-03 2.9126191496e+00 -5.0448043503e+00 2.9126191496e+00 5.0448043503e+00 
130900 6.8012593274e+00 -1.1623467373e-03 2.9126391717e+00 -5.0448390296e+00 2.9126391717e+00 5.0448390296e+00 
131000 6.8012590368e+00 -1.1583744272e-03 2.9126591252e+00 -5.0448735901e+00 2.9126591252e+00 5.0448735901e+00 
131100 6.8012587480e+00 -1.1544162655e-03 2.9126790104e+00 -5.0449080322e+00 2.9126790104e+00 5.0449080322e+00 
131200 6.8012584611e+00 -1.1504721985e-03 2.9126988276e+00 -5.0449423565e+00 2.9126988276e+00 5.0449423565e+00 
131300 6.8012581762e+00 -1.1465421726e-03 2.9127185768e+00 -5.0449765632e+00 2.9127185768e+00 5.0449765632e+00 
131400 6.8012578930e+00 -1.1426261344e-03 2.9127382585e+00 -5.0450106529e+00 2.9127382585e+00 5.0450106529e+00 
131500 6.8012576118e+00 -1.1387240309e-03 2.9127578728e+00 -5.0450446259e+00 2.9127578728e+00 5.0450446259e+00 
131600 6.8012573324e+00 -1.1348358091e-03 2.9127774200e+00 -5.0450784826e+00 2.9127774200e+00 5.0450784826e+00 
131700 6.8012570548e+00 -1.1309614164e-03 2.9127969003e+00 -5.0451122235e+00 2.9127969003e+00 5.0451122235e+00 
131800 6.8012567791e+00 -1.1271008004e-03 2.9128163140e+00 -5.0451458490e+00 2.9128163140e+00 5.0451458490e+00 
131900 6.8012565051e+00 -1.1232539088e-03 2.9128356613e+00 -5.0451793595e+00 2.9128356613e+00 5.0451793595e+00 
132000 6.8012562330e+00 -1.1194206898e-03 2.9128549424e+00 -5.0452127554e+00 2.9128549424e+00 5.0452127554e+00 
132100 6.8012559626e+00 -1.1156010915e-03 2.9128741576e+00 -5.0452460371e+00 2.9128741576e+00 5.0452460371e+00 
132200 6.8012556940e+00 -1.1117950625e-03 2.9128933072e+00 -5.0452792050e+00 2.9128933072e+00 5.0452792050e+00 
132300 6.8012554272e+00 -1.1080025513e-03 2.9129123912e+00 -5.0453122596e+00 2.9129123912e+00 5.0453122596e+00 
132400 6.8012551621e+00 -1.1042235070e-03 2.9129314100e+00 -5.0453452012e+00 2.9129314100e+00 5.0453452012e+00 
132500 6.8012548988e+00 -1.1004578785e-03 2.9129503639e+00 -5.0453780302e+00 2.9129503639e+00 5.0453780302e+00 
132600 6.8012546372e+00 -1.0967056154e-03 2.9129692530e+00 -5.0454107470e+00 2.9129692530e+00 5.0454107470e+00 
132700 6.8012543773e+00 -1.0929666670e-03 2.9129880775e+00 -5.0454433521e+00 2.9129880775e+00 5.0454433521e+00 
132800 6.8012541191e+00 -1.0892409832e-03 2.9130068378e+00 -5.0454758458e+00 2.9130068378e+00 5.0454758458e+00 
132900 6.8012538627e+00 -1.0855285140e-03 2.9130255340e+00 -5.0455082285e+00 2.9130255340e+00 5.0455082285e+00 
133000 6.8012536078e+00 -1.0818292096e-03 2.9130441663e+00 -5.0455405007e+00 2.9130441663e+00 5.0455405007e+00 
133100 6.8012533547e+00 -1.0781430203e-03 2.9130627350e+00 -5.0455726627e+00 2.9130627350e+00 5.0455726627e+00 
133200 6.8012531032e+00 -1.0744698967e-03 2.9130812404e+00 -5.0456047149e+00 2.9130812404e+00 5.0456047149e+00 
133300 6.8012528534e+00 -1.0708097897e-03 2.9130996825e+00 -5.0456366577e+00 2.9130996825e+00 5.0456366577e+00 
133400 6.8012526052e+00 -1.0671626504e-03 2.9131180618e+00 -5.0456684914e+00 2.9131180618e+00 5.0456684914e+00 
133500 6.8012523587e+00 -1.0635284298e-03 2.9131363783e+00 -5.0457002166e+00 2.9131363783e+00 5.0457002166e+00 
133600 6.8012521137e+00 -1.0599070795e-03 2.9131546323e+00 -5.0457318335e+00 2.9131546323e+00 5.0457318335e+00 
133700 6.8012518704e+00 -1.0562985510e-03 2.9131728241e+00 -5.0457633425e+00 2.9131728241e+00 5.0457633425e+00 
133800 6.8012516287e+00 -1.0527027963e-03 2.9131909538e+00 -5.0457947441e+00 2.9131909538e+00 5.0457947441e+00 
133900 6.8012513885e+00 -1.0491197673e-03 2.9132090217e+00 -5.0458260386e+00 2.9132090217e+00 5.0458260386e+00 
134000 6.8012511500e+00 -1.0455494162e-03 2.9132270279e+00 -5.0458572264e+00 2.9132270279e+00 5.0458572264e+00 
134100 6.8012509129e+00 -1.0419916956e-03 2.9132449728e+00 -5.0458883078e+00 2.9132449728e+00 5.0458883078e+00 
134200 6.8012506775e+00 -1.0384465581e-03 2.9132628565e+00 -5.0459192833e+00 2.9132628565e+00 5.0459192833e+00 
134300 6.8012504436e+00 -1.0349139564e-03 2.9132806793e+00 -5.0459501533e+00 2.9132806793e+00 5.0459501533e+00 
134400 6.8012502112e+00 -1.0313938436e-03 2.9132984413e+00 -5.0459809180e+00 2.9132984413e+00 5.0459809180e+00 
134500 6.8012499803e+00 -1.0278861729e-03 2.9133161428e+00 -5.0460115779e+00 2.9133161428e+00 5.0460115779e+00 
134600 6.8012497510e+00 -1.0243908977e-03 2.9133337840e+00 -5.0460421333e+00 2.9133337840e+00 5.0460421333e+00 
134700 6.8012495232e+00 -1.0209079716e-03 2.9133513651e+00 -5.0460725847e+00 2.9133513651e+00 5.0460725847e+00 
134800 6.8012492968e+00 -1.0174373484e-03 2.9133688863e+00 -5.0461029323e+00 2.9133688863e+00 5.0461029323e+00 
134900 6.8012490720e+00 -1.0139789821e-03 2.9133863479e+00 -5.0461331766e+00 2.9133863479e+00 5.0461331766e+00 
135000 6.8012488486e+00 -1.0105328268e-03 2.9134037499e+00 -5.0461633179e+00 2.9134037499e+00 5.0461633179e+00 
135100 6.8012486267e+00 -1.0070988370e-03 2.9134210928e+00 -5.0461933565e+00 2.9134210928e+00 5.0461933565e+00 
135200 6.8012484062e+00 -1.0036769670e-03 2.9134383766e+00 -5.0462232930e+00 2.9134383766e+00 5.0462232930e+00 
135300 6.8012481872e+00 -1.0002671718e-03 2.9134556016e+00 -5.0462531275e+00 2.9134556016e+00 5.0462531275e+00 
135400 6.8012479696e+00 -9.9686940610e-04 2.9134727679e+00 -5.0462828605e+00 2.9134727679e+00 5.0462828605e+00 
135500 6.8012477534e+00 -9.9348362511e-04 2.9134898759e+00 -5.0463124923e+00 2.9134898759e+00 5.0463124923e+00 
135600 6.8012475387e+00 -9.9010978408e-04 2.9135069256e+00 -5.0463420233e+00 2.9135069256e+00 5.0463420233e+00 
135700 6.8012473254e+00 -9.8674783847e-04 2.9135239173e+00 -5.0463714539e+00 2.9135239173e+00 5.0463714539e+00 
135800 6.8012471134e+00 -9.8339774392e-04 2.9135408513e+00 -5.0464007843e+00 2.9135408513e+00 5.0464007843e+00 
135900 6.8012469029e+00 -9.8005945626e-04 2.9135577276e+00 -5.0464300150e+00 2.9135577276e+00 5.0464300150e+00 
136000 6.8012466937e+00 -9.7673293148e-04 2.9135745466e+00 -5.0464591463e+00 2.9135745466e+00 5.0464591463e+00 
136100 6.8012464859e+00 -9.7341812578e-04 2.9135913084e+00 -5.0464881786e+00 2.9135913084e+00 5.0464881786e+00 
136200 6.8012462795e+00 -9.7011499549e-04 2.9136080132e+00 -5.0465171121e+00 2.9136080132e+00 5.0465171121e+00 
136300 6.8012460744e+00 -9.6682349716e-04 2.9136246612e+00 -5.0465459473e+00 2.9136246612e+00 5.0465459473e+00 
136400 6.8012458707e+00 -9.6354358749e-04 2.9136412526e+00 -5.0465746845e+00 2.9136412526e+00 5.0465746845e+00 
136500 6.8012456683e+00 -9.6027522337e-04 2.9136577877e+00 -5.0466033241e+00 2.9136577877e+00 5.0466033241e+00 
136600 6.8012454672e+00 -9.5701836185e-04 2.9136742665e+00 -5.0466318664e+00 2.9136742665e+00 5.0466318664e+00 
136700 6.8012452674e+00 -9.5377296015e-04 2.9136906894e+00 -5.0466603116e+00 2.9136906894e+00 5.0466603116e+00 
136800 6.8012450690e+00 -9.5053897569e-04 2.9137070565e+00 -5.0466886603e+00 2.9137070565e+00 5.0466886603e+00 
136900 6.8012448718e+00 -9.4731636603e-04 2.9137233681e+00 -5.0467169127e+00 2.9137233681e+00 5.0467169127e+00 
137000 6.8012446760e+00 -9.4410508892e-04 2.9137396242e+00 -5.0467450691e+00 2.9137396242e+00 5.0467450691e+00 
137100 6.8012444814e+00 -9.4090510226e-04 2.9137558251e+00 -5.0467731300e+00 2.9137558251e+00 5.0467731300e+00 
137200 6.8012442881e+00 -9.3771636413e-04 2.9137719711e+00 -5.0468010955e+00 2.9137719711e+00 5.0468010955e+00 
137300 6.8012440960e+00 -9.3453883279e-04 2.9137880622e+00 -5.0468289662e+00 2.9137880622e+00 5.0468289662e+00 
137400 6.8012439053e+00 -9.3137246665e-04 2.9138040987e+00 -5.0468567422e+00 2.9138040987e+00 5.0468567422e+00 
137500 6.8012437157e+00 -9.2821722428e-04 2.9138200808e+00 -5.0468844240e+00 2.9138200808e+00 5.0468844240e+00 
137600 6.8012435275e+00 -9.2507306443e-04 2.9138360086e+00 -5.0469120119e+00 2.9138360086e+00 5.0469120119e+00 
137700 6.8012433404e+00 -9.2193994602e-04 2.9138518824e+00 -5.0469395061e+00 2.9138518824e+00 5.0469395061e+00 
137800 6.8012431546e+00 -9.1881782812e-04 2.9138677024e+00 -5.0469669071e+00 2.9138677024e+00 5.0469669071e+00 
137900 6.8012429700e+00 -9.1570666996e-04 2.9138834687e+00 -5.0469942151e+00 2.9138834687e+00 5.0469942151e+00 
138000 6.8012427866e+00 -9.1260643095e-04 2.9138991815e+00 -5.0470214306e+00 2.9138991815e+00 5.0470214306e+00 
138100 6.8012426044e+00 -9.0951707064e-04 2.9139148411e+00 -5.0470485537e+00 2.9139148411e+00 5.0470485537e+00 
138200 6.8012424233e+00 -9.0643854875e-04 2.9139304476e+00 -5.0470755849e+00 2.9139304476e+00 5.0470755849e+00 
138300 6.8012422435e+00 -9.0337082517e-04 2.9139460011e+00 -5.0471025244e+00 2.9139460011e+00 5.0471025244e+00 
138400 6.8012420649e+00 -9.0031385994e-04 2.9139615019e+00 -5.0471293727e+00 2.9139615019e+00 5.0471293727e+00 
138500 6.8012418874e+00 -8.9726761326e-04 2.9139769502e+00 -5.0471561299e+00 2.9139769502e+00 5.0471561299e+00 
138600 6.8012417111e+00 -8.9423204547e-04 2.9139923462e+00 -5.0471827965e+00 2.9139923462e+00 5.0471827965e+00 
138700 6.8012415359e+00 -8.9120711710e-04 2.9140076900e+00 -5.0472093726e+00 2.9140076900e+00 5.0472093726e+00 
138800 6.8012413619e+00 -8.8819278882e-04 2.9140229817e+00 -5.0472358588e+00 2.9140229817e+00 5.0472358588e+00 
138900 6.8012411890e+00 -8.8518902145e-04 2.9140382217e+00 -5.0472622552e+00 2.9140382217e+00 5.0472622552e+00 
139000 6.8012410173e+00 -8.8219577597e-04 2.9140534101e+00 -5.0472885623e+00 2.9140534101e+00 5.0472885623e+00 
139100 6.8012408467e+00 -8.7921301352e-04 2.9140685470e+00 -5.0473147802e+00 2.9140685470e+00 5.0473147802e+00 
139200 6.8012406772e+00 -8.7624069538e-04 2.9140836327e+00 -5.0473409094e+00 2.9140836327e+00 5.0473409094e+00 
139300 6.8012405088e+00 -8.7327878299e-04 2.9140986673e+00 -5.0473669500e+00 2.9140986673e+00 5.0473669500e+00 
139400 6.8012403415e+00 -8.7032723795e-04 2.9141136510e+00 -5.0473929026e+00 2.9141136510e+00 5.0473929026e+00 
139500 6.8012401753e+00 -8.6738602201e-04 2.9141285840e+00 -5.0474187672e+00 2.9141285840e+00 5.0474187672e+00 
139600 6.8012400102e+00 -8.6445509705e-04 2.9141434664e+00 -5.0474445444e+00 2.9141434664e+00 5.0474445444e+00 
139700 6.8012398462e+00 -8.6153442512e-04 2.9141582985e+00 -5.0474702343e+00 2.9141582985e+00 5.0474702343e+00 
139800 6.8012396832e+00 -8.5862396842e-04 2.9141730804e+00 -5.0474958373e+00 2.9141730804e+00 5.0474958373e+00 
139900 6.8012395213e+00 -8.5572368929e-04 2.9141878123e+00 -5.0475213536e+00 2.9141878123e+00 5.0475213536e+00 
140000 6.8012393605e+00 -8.5283355022e-04 2.9142024943e+00 -5.0475467837e+00 2.9142024943e+00 5.0475467837e+00 
140100 6.8012392007e+00 -8.4995351386e-04 2.9142171267e+00 -5.0475721277e+00 2.9142171267e+00 5.0475721277e+00 
140200 6.8012390420e+00 -8.4708354299e-04 2.9142317096e+00 -5.0475973860e+00 2.9142317096e+00 5.0475973860e+00 
140300 6.8012388843e+00 -8.4422360053e-04 2.9142462431e+00 -5.0476225589e+00 2.9142462431e+00 5.0476225589e+00 
140400 6.8012387277e+00 -8.4137364958e-04 2.9142607276e+00 -5.0476476467e+00 2.9142607276e+00 5.0476476467e+00 
140500 6.8012385720e+00 -8.3853365335e-04 2.9142751630e+00 -5.0476726496e+00 2.9142751630e+00 5.0476726496e+00 
140600 6.8012384174e+00 -8.3570357521e-04 2.9142895497e+00 -5.0476975681e+00 2.9142895497e+00 5.0476975681e+00 
140700 6.8012382638e+00 -8.3288337867e-04 2.9143038878e+00 -5.0477224023e+00 2.9143038878e+00 5.0477224023e+00 
140800 6.8012381112e+00 -8.3007302739e-04 2.9143181774e+00 -5.0477471526e+00 2.9143181774e+00 5.0477471526e+00 
140900 6.8012379596e+00 -8.2727248517e-04 2.9143324187e+00 -5.0477718193e+00 2.9143324187e+00 5.0477718193e+00 
141000 6.8012378090e+00 -8.2448171595e-04 2.9143466118e+00 -5.0477964026e+00 2.9143466118e+00 5.0477964026e+00 
141100 6.8012376594e+00 -8.2170068379e-04 2.9143607571e+00 -5.0478209028e+00 2.9143607571e+00 5.0478209028e+00 
141200 6.8012375107e+00 -8.1892935294e-04 2.9143748545e+00 -5.0478453203e+00 2.9143748545e+00 5.0478453203e+00 
141300 6.8012373631e+00 -8.1616768774e-04 2.9143889044e+00 -5.0478696554e+00 2.9143889044e+00 5.0478696554e+00 
141400 6.8012372163e+00 -8.1341565271e-04 2.9144029068e+00 -5.0478939082e+00 2.9144029068e+00 5.0478939082e+00 
141500 6.8012370706e+00 -8.1067321248e-04 2.9144168619e+00 -5.0479180792e+00 2.9144168619e+00 5.0479180792e+00 
141600 6.8012369258e+00 -8.0794033182e-04 2.9144307699e+00 -5.0479421686e+00 2.9144307699e+00 5.0479421686e+00 
141700 6.8012367820e+00 -8.0521697567e-04 2.9144446309e+00 -5.0479661766e+00 2.9144446309e+00 5.0479661766e+00 
141800 6.8012366391e+00 -8.0250310907e-04 2.9144584452e+00 -5.0479901036e+00 2.9144584452e+00 5.0479901036e+00 
141900 6.8012364971e+00 -7.9979869722e-04 2.9144722128e+00 -5.0480139498e+00 2.9144722128e+00 5.0480139498e+00 
142000 6.8012363560e+00 -7.9710370543e-04 2.9144859340e+00 -5.0480377156e+00 2.9144859340e+00 5.0480377156e+00 
142100 6.8012362159e+00 -7.9441809918e-04 2.9144996088e+00 -5.0480614011e+00 2.9144996088e+00 5.0480614011e+00 
142200 6.8012360767e+00 -7.9174184407e-04 2.9145132376e+00 -5.0480850068e+00 2.9145132376e+00 5.0480850068e+00 
142300 6.8012359384e+00 -7.8907490582e-04 2.9145268203e+00 -5.0481085328e+00 2.9145268203e+00 5.0481085328e+00 
142400 6.8012358010e+00 -7.8641725030e-04 2.9145403573e+00 -5.0481319795e+00 2.9145403573e+00 5.0481319795e+00 
142500 6.8012356645e+00 -7.8376884352e-04 2.9145538485e+00 -5.0481553471e+00 2.9145538485e+00 5.0481553471e+00 
142600 6.8012355289e+00 -7.8112965161e-04 2.9145672943e+00 -5.0481786359e+00 2.9145672943e+00 5.0481786359e+00 
142700 6.8012353942e+00 -7.7849964083e-04 2.9145806948e+00 -5.0482018461e+00 2.9145806948e+00 5.0482018461e+00 
142800 6.8012352604e+00 -7.7587877758e-04 2.9145940501e+00 -5.0482249781e+00 2.9145940501e+00 5.0482249781e+00 
142900 6.8012351274e+00 -7.7326702839e-04 2.9146073603e+00 -5.0482480322e+00 2.9146073603e+00 5.0482480322e+00 
143000 6.8012349953e+00 -7.7066435992e-04 2.9146206257e+00 -5.0482710085e+00 2.9146206257e+00 5.0482710085e+00 
143100 6.8012348641e+00 -7.6807073896e-04 2.9146338464e+00 -5.0482939074e+00 2.9146338464e+00 5.0482939074e+00 
143200 6.8012347337e+00 -7.6548613243e-04 2.9146470225e+00 -5.0483167291e+00 2.9146470225e+00 5.0483167291e+00 
143300 6.8012346042e+00 -7.6291050739e-04 2.9146601542e+00 -5.0483394739e+00 2.9146601542e+00 5.0483394739e+00 
143400 6.8012344756e+00 -7.6034383099e-04 2.9146732417e+00 -5.0483621420e+00 2.9146732417e+00 5.0483621420e+00 
143500 6.8012343477e+00 -7.5778607056e-04 2.9146862851e+00 -5.0483847339e+00 2.9146862851e+00 5.0483847339e+00 
143600 6.8012342207e+00 -7.5523719352e-04 2.9146992845e+00 -5.0484072496e+00 2.9146992845e+00 5.0484072496e+00 
143700 6.8012340946e+00 -7.5269716744e-04 2.9147122402e+00 -5.0484296895e+00 2.9147122402e+00 5.0484296895e+00 
143800 6.8012339692e+00 -7.5016596001e-04 2.9147251522e+00 -5.0484520538e+00 2.9147251522e+00 5.0484520538e+00 
143900 6.8012338447e+00 -7.4764353903e-04 2.9147380208e+00 -5.0484743428e+00 2.9147380208e+00 5.0484743428e+00 
144000 6.8012337210e+00 -7.4512987245e-04 2.9147508460e+00 -5.0484965567e+00 2.9147508460e+00 5.0484965567e+00 
144100 6.8012335981e+00 -7.4262492833e-04 2.9147636281e+00 -5.0485186959e+00 2.9147636281e+00 5.0485186959e+00 
144200 6.8012334760e+00 -7.4012867486e-04 2.9147763671e+00 -5.0485407606e+00 2.9147763671e+00 5.0485407606e+00 
144300 6.8012333547e+00 -7.3764108035e-04 2.9147890633e+00 -5.0485627510e+00 2.9147890633e+00 5.0485627510e+00 
144400 6.8012332342e+00 -7.3516211324e-04 2.9148017167e+00 -5.0485846673e+00 2.9148017167e+00 5.0485846673e+00 
144500 6.8012331145e+00 -7.3269174209e-04 2.9148143276e+00 -5.0486065100e+00 2.9148143276e+00 5.0486065100e+00 
144600 6.8012329956e+00 -7.3022993558e-04 2.9148268960e+00 -5.0486282791e+00 2.9148268960e+00 5.0486282791e+00 
144700 6.8012328774e+00 -7.2777666251e-04 2.9148394221e+00 -5.0486499750e+00 2.9148394221e+00 5.0486499750e+00 
144800 6.8012327600e+00 -7.2533189182e-04 2.9148519061e+00 -5.0486715980e+00 2.9148519061e+00 5.0486715980e+00 
144900 6.8012326434e+00 -7.2289559254e-04 2.9148643481e+00 -5.0486931482e+00 2.9148643481e+00 5.0486931482e+00 
145000 6.8012325276e+00 -7.2046773385e-04 2.9148767483e+00 -5.0487146259e+00 2.9148767483e+00 5.0487146259e+00 
145100 6.8012324125e+00 -7.1804828503e-04 2.9148891068e+00 -5.0487360314e+00 2.9148891068e+00 5.0487360314e+00 
145200 6.8012322981e+00 -7.1563721549e-04 2.9149014237e+00 -5.0487573649e+00 2.9149014237e+00 5.0487573649e+00 
145300 6.8012321845e+00 -7.1323449476e-04 2.9149136992e+00 -5.0487786267e+00 2.9149136992e+00 5.0487786267e+00 
145400 6.8012320717e+00 -7.1084009248e-04 2.9149259334e+00 -5.0487998170e+00 2.9149259334e+00 5.0487998170e+00 
145500 6.8012319595e+00 -7.0845397842e-04 2.9149381266e+00 -5.0488209361e+00 2.9149381266e+00 5.0488209361e+00 
145600 6.8012318481e+00 -7.0607612245e-04 2.9149502787e+00 -5.0488419842e+00 2.9149502787e+00 5.0488419842e+00 
145700 6.8012317375e+00 -7.0370649458e-04 2.9149623900e+00 -5.0488629616e+00 2.9149623900e+00 5.0488629616e+00 
145800 6.8012316275e+00 -7.0134506493e-04 2.9149744606e+00 -5.0488838685e+00 2.9149744606e+00 5.0488838685e+00 
145900 6.8012315183e+00 -6.9899180371e-04 2.9149864906e+00 -5.0489047052e+00 2.9149864906e+00 5.0489047052e+00 
146000 6.8012314098e+00 -6.9664668129e-04 2.9149984803e+00 -5.0489254718e+00 2.9149984803e+00 5.0489254718e+00 
146100 6.8012313020e+00 -6.9430966812e-04 2.9150104296e+00 -5.0489461687e+00 2.9150104296e+00 5.0489461687e+00 
146200 6.8012311949e+00 -6.9198073479e-04 2.9150223388e+00 -5.0489667961e+00 2.9150223388e+00 5.0489667961e+00 
146300 6.8012310885e+00 -6.8965985197e-04 2.9150342081e+00 -5.0489873542e+00 2.9150342081e+00 5.0489873542e+00 
146400 6.8012309828e+00 -6.8734699049e-04 2.9150460374e+00 -5.0490078432e+00 2.9150460374e+00 5.0490078432e+00 
146500 6.8012308778e+00 -6.8504212126e-04 2.9150578271e+00 -5.0490282635e+00 2.9150578271e+00 5.0490282635e+00 
146600 6.8012307735e+00 -6.8274521531e-04 2.9150695772e+00 -5.0490486152e+00 2.9150695772e+00 5.0490486152e+00 
146700 6.8012306698e+00 -6.8045624379e-04 2.9150812878e+00 -5.0490688986e+00 2.9150812878e+00 5.0490688986e+00 
146800 6.8012305669e+00 -6.7817517796e-04 2.9150929591e+00 -5.0490891139e+00 2.9150929591e+00 5.0490891139e+00 
146900 6.8012304646e+00 -6.7590198918e-04 2.9151045912e+00 -5.0491092614e+00 2.9151045912e+00 5.0491092614e+00 
147000 6.8012303630e+00 -6.7363664893e-04 2.9151161843e+00 -5.0491293413e+00 2.9151161843e+00 5.0491293413e+00 
147100 6.8012302620e+00 -6.7137912882e-04 2.9151277386e+00 -5.0491493537e+00 2.9151277386e+00 5.0491493537e+00 
147200 6.8012301617e+00 -6.6912940053e-04 2.9151392540e+00 -5.0491692991e+00 2.9151392540e+00 5.0491692991e+00 
147300 6.8012300620e+00 -6.6688743588e-04 2.9151507308e+00 -5.0491891775e+00 2.9151507308e+00 5.0491891775e+00 
147400 6.8012299630e+00 -6.6465320679e-04 2.9151621691e+00 -5.0492089892e+00 2.9151621691e+00 5.0492089892e+00 
147500 6.8012298647e+00 -6.6242668529e-04 2.9151735691e+00 -5.0492287345e+00 2.9151735691e+00 5.0492287345e+00 
147600 6.8012297670e+00 -6.6020784353e-04 2.9151849308e+00 -5.0492484135e+00 2.9151849308e+00 5.0492484135e+00 
147700 6.8012296699e+00 -6.5799665373e-04 2.9151962544e+00 -5.0492680266e+00 2.9151962544e+00 5.0492680266e+00 
147800 6.8012295735e+00 -6.5579308826e-04 2.9152075400e+00 -5.0492875739e+00 2.9152075400e+00 5.0492875739e+00 
147900 6.8012294776e+00 -6.5359711958e-04 2.9152187878e+00 -5.0493070557e+00 2.9152187878e+00 5.0493070557e+00 
148000 6.8012293825e+00 -6.5140872026e-04 2.9152299979e+00 -5.0493264721e+00 2.9152299979e+00 5.0493264721e+00 
148100 6.8012292879e+00 -6.4922786297e-04 2.9152411704e+00 -5.0493458235e+00 2.9152411704e+00 5.0493458235e+00 
148200 6.8012291939e+00 -6.4705452048e-04 2.9152523055e+00 -5.0493651100e+00 2.9152523055e+00 5.0493651100e+00 
148300 6.8012291006e+00 -6.4488866570e-04 2.9152634032e+00 -5.0493843319e+00 2.9152634032e+00 5.0493843319e+00 
148400 6.8012290079e+00 -6.4273027160e-04 2.9152744638e+00 -5.0494034893e+00 2.9152744638e+00 5.0494034893e+00 
148500 6.8012289158e+00 -6.4057931128e-04 2.9152854873e+00 -5.0494225826e+00 2.9152854873e+00 5.0494225826e+00 
148600 6.8012288242e+00 -6.3843575794e-04 2.9152964739e+00 -5.0494416119e+00 2.9152964739e+00 5.0494416119e+00 
148700 6.8012287333e+00 -6.3629958488e-04 2.9153074236e+00 -5.0494605774e+00 2.9153074236e+00 5.0494605774e+00 
148800 6.8012286430e+00 -6.3417076551e-04 2.9153183367e+00 -5.0494794795e+00 2.9153183367e+00 5.0494794795e+00 
148900 6.8012285533e+00 -6.3204927333e-04 2.9153292133e+00 -5.0494983182e+00 2.9153292133e+00 5.0494983182e+00 
149000 6.8012284641e+00 -6.2993508196e-04 2.9153400534e+00 -5.0495170938e+00 2.9153400534e+00 5.0495170938e+00 
149100 6.8012283755e+00 -6.2782816511e-04 2.9153508572e+00 -5.0495358065e+00 2.9153508572e+00 5.0495358065e+00 
149200 6.8012282875e+00 -6.2572849659e-04 2.9153616248e+00 -5.0495544566e+00 2.9153616248e+00 5.0495544566e+00 
149300 6.8012282001e+00 -6.2363605032e-04 2.9153723564e+00 -5.0495730443e+00 2.9153723564e+00 5.0495730443e+00 
149400 6.8012281133e+00 -6.2155080031e-04 2.9153830521e+00 -5.0495915697e+00 2.9153830521e+00 5.0495915697e+00 
149500 6.8012280270e+00 -6.1947272069e-04 2.9153937119e+00 -5.0496100331e+00 2.9153937119e+00 5.0496100331e+00 
149600 6.8012279413e+00 -6.1740178566e-04 2.9154043361e+00 -5.0496284347e+00 2.9154043361e+00 5.0496284347e+00 
149700 6.8012278561e+00 -6.1533796954e-04 2.9154149247e+00 -5.0496467747e+00 2.9154149247e+00 5.0496467747e+00 
149800 6.8012277715e+00 -6.1328124675e-04 2.9154254779e+00 -5.0496650534e+00 2.9154254779e+00 5.0496650534e+00 
149900 6.8012276874e+00 -6.1123159179e-04 2.9154359958e+00 -5.0496832709e+00 2.9154359958e+00 5.0496832709e+00 
150000 6.8012276039e+00 -6.0918897929e-04 2.9154464784e+00 -5.0497014274e+00 2.9154464784e+00 5.0497014274e+00 
150100 6.8012275210e+00 -6.0715338395e-04 2.9154569261e+00 -5.0497195232e+00 2.9154569261e+00 5.0497195232e+00 
150200 6.8012274386e+00 -6.0512478057e-04 2.9154673387e+00 -5.0497375585e+00 2.9154673387e+00 5.0497375585e+00 
150300 6.8012273567e+00 -6.0310314406e-04 2.9154777166e+00 -5.0497555334e+00 2.9154777166e+00 5.0497555334e+00 
150400 6.8012272753e+00 -6.0108844941e-04 2.9154880597e+00 -5.0497734483e+00 2.9154880597e+00 5.0497734483e+00 
150500 6.8012271945e+00 -5.9908067173e-04 2.9154983683e+00 -5.0497913032e+00 2.9154983683e+00 5.0497913032e+00 
150600 6.8012271142e+00 -5.9707978621e-04 2.9155086423e+00 -5.0498090984e+00 2.9155086423e+00 5.0498090984e+00 
150700 6.8012270344e+00 -5.9508576812e-04 2.9155188821e+00 -5.0498268341e+00 2.9155188821e+00 5.0498268341e+00 
150800 6.8012269552e+00 -5.9309859286e-04 2.9155290875e+00 -5.0498445106e+00 2.9155290875e+00 5.0498445106e+00 
150900 6.8012268765e+00 -5.9111823590e-04 2.9155392589e+00 -5.0498621279e+00 2.9155392589e+00 5.0498621279e+00 
151000 6.8012267982e+00 -5.8914467280e-04 2.9155493963e+00 -5.0498796864e+00 2.9155493963e+00 5.0498796864e+00 
151100 6.8012267205e+00 -5.8717787924e-04 2.9155594998e+00 -5.0498971861e+00 2.9155594998e+00 5.0498971861e+00 
151200 6.8012266433e+00 -5.8521783097e-04 2.9155695695e+00 -5.0499146274e+00 2.9155695695e+00 5.0499146274e+00 
151300 6.8012265666e+00 -5.8326450383e-04 2.9155796056e+00 -5.0499320105e+00 2.9155796056e+00 5.0499320105e+00 
151400 6.8012264904e+00 -5.8131787378e-04 2.9155896082e+00 -5.0499493354e+00 2.9155896082e+00 5.0499493354e+00 
151500 6.8012264147e+00 -5.7937791684e-04 2.9155995773e+00 -5.0499666024e+00 2.9155995773e+00 5.0499666024e+00 
151600 6.8012263395e+00 -5.7744460915e-04 2.9156095131e+00 -5.0499838118e+00 2.9156095131e+00 5.0499838118e+00 
151700 6.8012262648e+00 -5.7551792691e-04 2.9156194158e+00 -5.0500009637e+00 2.9156194158e+00 5.0500009637e+00 
151800 6.8012261906e+00 -5.7359784645e-04 2.9156292854e+00 -5.0500180583e+00 2.9156292854e+00 5.0500180583e+00 
151900 6.8012261168e+00 -5.7168434415e-04 2.9156391220e+00 -5.0500350958e+00 2.9156391220e+00 5.0500350958e+00 
152000 6.8012260436e+00 -5.6977739650e-04 2.9156489257e+00 -5.0500520764e+00 2.9156489257e+00 5.0500520764e+00 
152100 6.8012259708e+00 -5.6787698010e-04 2.9156586968e+00 -5.0500690003e+00 2.9156586968e+00 5.0500690003e+00 
152200 6.8012258985e+00 -5.6598307160e-04 2.9156684352e+00 -5.0500858677e+00 2.9156684352e+00 5.0500858677e+00 
152300 6.8012258266e+00 -5.6409564776e-04 2.9156781411e+00 -5.0501026788e+00 2.9156781411e+00 5.0501026788e+00 
152400 6.8012257552e+00 -5.6221468542e-04 2.9156878146e+00 -5.0501194338e+00 2.9156878146e+00 5.0501194338e+00 
152500 6.8012256843e+00 -5.6034016153e-04 2.9156974558e+00 -5.0501361329e+00 2.9156974558e+00 5.0501361329e+00 
152600 6.8012256139e+00 -5.5847205311e-04 2.9157070648e+00 -5.0501527762e+00 2.9157070648e+00 5.0501527762e+00 
152700 6.8012255439e+00 -5.5661033726e-04 2.9157166418e+00 -5.0501693640e+00 2.9157166418e+00 5.0501693640e+00 
152800 6.8012254744e+00 -5.5475499118e-04 2.9157261868e+00 -5.0501858964e+00 2.9157261868e+00 5.0501858964e+00 
152900 6.8012254053e+00 -5.5290599215e-04 2.9157356999e+00 -5.0502023737e+00 2.9157356999e+00 5.0502023737e+00 
153000 6.8012253367e+00 -5.5106331755e-04 2.9157451813e+00 -5.0502187960e+00 2.9157451813e+00 5.0502187960e+00 
153100 6.8012252685e+00 -5.4922694483e-04 2.9157546311e+00 -5.0502351635e+00 2.9157546311e+00 5.0502351635e+00 
153200 6.8012252007e+00 -5.4739685154e-04 2.9157640494e+00 -5.0502514764e+00 2.9157640494e+00 5.0502514764e+00 
153300 6.8012251334e+00 -5.4557301529e-04 2.9157734363e+00 -5.0502677350e+00 2.9157734363e+00 5.0502677350e+00 
153400 6.8012250666e+00 -5.4375541381e-04 2.9157827918e+00 -5.0502839392e+00 2.9157827918e+00 5.0502839392e+00 
153500 6.8012250002e+00 -5.4194402489e-04 2.9157921162e+00 -5.0503000895e+00 2.9157921162e+00 5.0503000895e+00 
153600 6.8012249342e+00 -5.4013882641e-04 2.9158014094e+00 -5.0503161859e+00 2.9158014094e+00 5.0503161859e+00 
153700 6.8012248686e+00 -5.3833979634e-04 2.9158106717e+00 -5.0503322286e+00 2.9158106717e+00 5.0503322286e+00 
153800 6.8012248035e+00 -5.3654691271e-04 2.9158199031e+00 -5.0503482179e+00 2.9158199031e+00 5.0503482179e+00 
153900 6.8012247388e+00 -5.3476015368e-04 2.9158291037e+00 -5.0503641538e+00 2.9158291037e+00 5.0503641538e+00 
154000 6.8012246745e+00 -5.3297949744e-04 2.9158382737e+00 -5.0503800366e+00 2.9158382737e+00 5.0503800366e+00 
154100 6.8012246106e+00 -5.3120492231e-04 2.9158474131e+00 -5.0503958665e+00 2.9158474131e+00 5.0503958665e+00 
154200 6.8012245472e+00 -5.2943640665e-04 2.9158565220e+00 -5.0504116437e+00 2.9158565220e+00 5.0504116437e+00 
154300 6.8012244841e+00 -5.2767392892e-04 2.9158656006e+00 -5.0504273682e+00 2.9158656006e+00 5.0504273682e+00 
154400 6.8012244215e+00 -5.2591746768e-04 2.9158746489e+00 -5.0504430404e+00 2.9158746489e+00 5.0504430404e+00 
154500 6.8012243593e+00 -5.2416700155e-04 2.9158836671e+00 -5.0504586603e+00 2.9158836671e+00 5.0504586603e+00 
154600 6.8012242975e+00 -5.2242250921e-04 2.9158926552e+00 -5.0504742283e+00 2.9158926552e+00 5.0504742283e+00 
154700 6.8012242361e+00 -5.2068396947e-04 2.9159016134e+00 -5.0504897443e+00 2.9159016134e+00 5.0504897443e+00 
154800 6.8012241750e+00 -5.1895136119e-04 2.9159105418e+00 -5.0505052087e+00 2.9159105418e+00 5.0505052087e+00 
154900 6.8012241144e+00 -5.1722466331e-04 2.9159194404e+00 -5.0505206215e+00 2.9159194404e+00 5.0505206215e+00 
155000 6.8012240542e+00 -5.1550385485e-04 2.9159283094e+00 -5.0505359831e+00 2.9159283094e+00 5.0505359831e+00 
155100 6.8012239944e+00 -5.1378891493e-04 2.9159371488e+00 -5.0505512935e+00 2.9159371488e+00 5.0505512935e+00 
155200 6.8012239349e+00 -5.1207982271e-04 2.9159459589e+00 -5.0505665529e+00 2.9159459589e+00 5.0505665529e+00 
155300 6.8012238759e+00 -5.1037655746e-04 2.9159547395e+00 -5.0505817614e+00 2.9159547395e+00 5.0505817614e+00 
155400 6.8012238172e+00 -5.0867909852e-04 2.9159634910e+00 -5.0505969194e+00 2.9159634910e+00 5.0505969194e+00 
155500 6.8012237589e+00 -5.0698742531e-04 2.9159722133e+00 -5.0506120269e+00 2.9159722133e+00 5.0506120269e+00 
155600 6.8012237010e+00 -5.0530151731e-04 2.9159809066e+00 -5.0506270841e+00 2.9159809066e+00 5.0506270841e+00 
155700 6.8012236435e+00 -5.0362135410e-04 2.9159895709e+00 -5.0506420912e+00 2.9159895709e+00 5.0506420912e+00 
155800 6.8012235864e+00 -5.0194691532e-04 2.9159982065e+00 -5.0506570484e+00 2.9159982065e+00 5.0506570484e+00 
155900 6.8012235296e+00 -5.0027818071e-04 2.9160068132e+00 -5.0506719558e+00 2.9160068132e+00 5.0506719558e+00 
156000 6.8012234732e+00 -4.9861513005e-04 2.9160153914e+00 -5.0506868135e+00 2.9160153914e+00 5.0506868135e+00 
156100 6.8012234171e+00 -4.9695774323e-04 2.9160239410e+00 -5.0507016219e+00 2.9160239410e+00 5.0507016219e+00 
156200 6.8012233614e+00 -4.9530600019e-04 2.9160324621e+00 -5.0507163810e+00 2.9160324621e+00 5.0507163810e+00 
156300 6.8012233061e+00 -4.9365988096e-04 2.9160409550e+00 -5.0507310909e+00 2.9160409550e+00 5.0507310909e+00 
156400 6.8012232512e+00 -4.9201936565e-04 2.9160494195e+00 -5.0507457520e+00 2.9160494195e+00 5.0507457520e+00 
156500 6.8012231966e+00 -4.9038443443e-04 2.9160578559e+00 -5.0507603643e+00 2.9160578559e+00 5.0507603643e+00 
156600 6.8012231423e+00 -4.8875506754e-04 2.9160662643e+00 -5.0507749280e+00 2.9160662643e+00 5.0507749280e+00 
156700 6.8012230884e+00 -4.8713124532e-04 2.9160746447e+00 -5.0507894432e+00 2.9160746447e+00 5.0507894432e+00 
156800 6.8012230349e+00 -4.8551294817e-04 2.9160829972e+00 -5.0508039102e+00 2.9160829972e+00 5.0508039102e+00 
156900 6.8012229817e+00 -4.8390015654e-04 2.9160913219e+00 -5.0508183291e+00 2.9160913219e+00 5.0508183291e+00 
157000 6.8012229289e+00 -4.8229285099e-04 2.9160996190e+00 -5.0508327001e+00 2.9160996190e+00 5.0508327001e+00 
157100 6.8012228764e+00 -4.8069101213e-04 2.9161078885e+00 -5.0508470232e+00 2.9161078885e+00 5.0508470232e+00 
157200 6.8012228242e+00 -4.7909462066e-04 2.9161161305e+00 -5.0508612988e+00 2.9161161305e+00 5.0508612988e+00 
157300 6.8012227724e+00 -4.7750365733e-04 2.9161243451e+00 -5.0508755269e+00 2.9161243451e+00 5.0508755269e+00 
157400 6.8012227209e+00 -4.7591810297e-04 2.9161325324e+00 -5.0508897077e+00 2.9161325324e+00 5.0508897077e+00 
157500 6.8012226697e+00 -4.7433793850e-04 2.9161406925e+00 -5.0509038414e+00 2.9161406925e+00 5.0509038414e+00 
157600 6.8012226189e+00 -4.7276314489e-04 2.9161488255e+00 -5.0509179282e+00 2.9161488255e+00 5.0509179282e+00 
157700 6.8012225684e+00 -4.7119370319e-04 2.9161569314e+00 -5.0509319681e+00 2.9161569314e+00 5.0509319681e+00 
157800 6.8012225183e+00 -4.6962959450e-04 2.9161650105e+00 -5.0509459614e+00 2.9161650105e+00 5.0509459614e+00 
157900 6.8012224685e+00 -4.6807080003e-04 2.9161730626e+00 -5.0509599081e+00 2.9161730626e+00 5.0509599081e+00 
158000 6.8012224189e+00 -4.6651730103e-04 2.9161810881e+00 -5.0509738086e+00 2.9161810881e+00 5.0509738086e+00 
158100 6.8012223698e+00 -4.6496907883e-04 2.9161890868e+00 -5.0509876629e+00 2.9161890868e+00 5.0509876629e+00 
158200 6.8012223209e+00 -4.6342611482e-04 2.9161970590e+00 -5.0510014712e+00 2.9161970590e+00 5.0510014712e+00 
158300 6.8012222724e+00 -4.6188839048e-04 2.9162050048e+00 -5.0510152336e+00 2.9162050048e+00 5.0510152336e+00 
158400 6.8012222241e+00 -4.6035588734e-04 2.9162129241e+00 -5.0510289503e+00 2.9162129241e+00 5.0510289503e+00 
158500 6.8012221762e+00 -4.5882858699e-04 2.9162208172e+00 -5.0510426214e+00 2.9162208172e+00 5.0510426214e+00 
158600 6.8012221286e+00 -4.5730647112e-04 2.9162286840e+00 -5.0510562472e+00 2.9162286840e+00 5.0510562472e+00 
158700 6.8012220813e+00 -4.5578952148e-04 2.9162365247e+00 -5.0510698277e+00 2.9162365247e+00 5.0510698277e+00 
158800 6.8012220343e+00 -4.5427771985e-04 2.9162443394e+00 -5.0510833632e+00 2.9162443394e+00 5.0510833632e+00 
158900 6.8012219876e+00 -4.5277104813e-04 2.9162521282e+00 -5.0510968537e+00 2.9162521282e+00 5.0510968537e+00 
159000 6.8012219413e+00 -4.5126948825e-04 2.9162598911e+00 -5.0511102994e+00 2.9162598911e+00 5.0511102994e+00 
159100 6.8012218952e+00 -4.4977302223e-04 2.9162676282e+00 -5.0511237005e+00 2.9162676282e+00 5.0511237005e+00 
159200 6.8012218494e+00 -4.4828163215e-04 2.9162753396e+00 -5.0511370571e+00 2.9162753396e+00 5.0511370571e+00 
159300 6.8012218039e+00 -4.4679530014e-04 2.9162830255e+00 -5.0511503694e+00 2.9162830255e+00 5.0511503694e+00 
159400 6.8012217588e+00 -4.4531400842e-04 2.9162906859e+00 -5.0511636376e+00 2.9162906859e+00 5.0511636376e+00 
159500 6.8012217139e+00 -4.4383773927e-04 2.9162983208e+00 -5.0511768617e+00 2.9162983208e+00 5.0511768617e+00 
159600 6.8012216693e+00 -4.4236647502e-04 2.9163059304e+00 -5.0511900419e+00 2.9163059304e+00 5.0511900419e+00 
159700 6.8012216250e+00 -4.4090019809e-04 2.9163135148e+00 -5.0512031784e+00 2.9163135148e+00 5.0512031784e+00 
159800 6.8012215810e+00 -4.3943889094e-04 2.9163210740e+00 -5.0512162713e+00 2.9163210740e+00 5.0512162713e+00 
159900 6.8012215372e+00 -4.3798253612e-04 2.9163286081e+00 -5.0512293209e+00 2.9163286081e+00 5.0512293209e+00 
160000 6.8012214938e+00 -4.3653111623e-04 2.9163361173e+00 -5.0512423271e+00 2.9163361173e+00 5.0512423271e+00 
160100 6.8012214506e+00 -4.3508461392e-04 2.9163436015e+00 -5.0512552902e+00 2.9163436015e+00 5.0512552902e+00 
160200 6.8012214077e+00 -4.3364301194e-04 2.9163510609e+00 -5.0512682103e+00 2.9163510609e+00 5.0512682103e+00 
160300 6.8012213651e+00 -4.3220629308e-04 2.9163584956e+00 -5.0512810875e+00 2.9163584956e+00 5.0512810875e+00 
160400 6.8012213228e+00 -4.3077444020e-04 2.9163659057e+00 -5.0512939221e+00 2.9163659057e+00 5.0512939221e+00 
160500 6.8012212807e+00 -4.2934743621e-04 2.9163732911e+00 -5.0513067141e+00 2.9163732911e+00 5.0513067141e+00 
160600 6.8012212390e+00 -4.2792526410e-04 2.9163806521e+00 -5.0513194637e+00 2.9163806521e+00 5.0513194637e+00 
160700 6.8012211975e+00 -4.2650790691e-04 2.9163879887e+00 -5.0513321710e+00 2.9163879887e+00 5.0513321710e+00 
160800 6.8012211562e+00 -4.2509534777e-04 2.9163953010e+00 -5.0513448362e+00 2.9163953010e+00 5.0513448362e+00 
160900 6.8012211152e+00 -4.2368756984e-04 2.9164025890e+00 -5.0513574595e+00 2.9164025890e+00 5.0513574595e+00 
161000 6.8012210745e+00 -4.2228455636e-04 2.9164098529e+00 -5.0513700409e+00 2.9164098529e+00 5.0513700409e+00 
161100 6.8012210341e+00 -4.2088629061e-04 2.9164170927e+00 -5.0513825806e+00 2.9164170927e+00 5.0513825806e+00 
161200 6.8012209939e+00 -4.1949275597e-04 2.9164243085e+00 -5.0513950787e+00 2.9164243085e+00 5.0513950787e+00 
161300 6.8012209540e+00 -4.1810393584e-04 2.9164315004e+00 -5.0514075355e+00 2.9164315004e+00 5.0514075355e+00 
161400 6.8012209144e+00 -4.1671981372e-04 2.9164386685e+00 -5.0514199510e+00 2.9164386685e+00 5.0514199510e+00 
161500 6.8012208750e+00 -4.1534037313e-04 2.9164458128e+00 -5.0514323253e+00 2.9164458128e+00 5.0514323253e+00 
161600 6.8012208358e+00 -4.1396559769e-04 2.9164529335e+00 -5.0514446587e+00 2.9164529335e+00 5.0514446587e+00 
161700 6.8012207969e+00 -4.1259547105e-04 2.9164600305e+00 -5.0514569512e+00 2.9164600305e+00 5.0514569512e+00 
161800 6.8012207583e+00 -4.1122997693e-04 2.9164671041e+00 -5.0514692029e+00 2.9164671041e+00 5.0514692029e+00 
161900 6.8012207199e+00 -4.0986909913e-04 2.9164741543e+00 -5.0514814141e+00 2.9164741543e+00 5.0514814141e+00 
162000 6.8012206818e+00 -4.0851282148e-04 2.9164811811e+00 -5.0514935849e+00 2.9164811811e+00 5.0514935849e+00 
162100 6.8012206439e+00 -4.0716112788e-04 2.9164881846e+00 -5.0515057154e+00 2.9164881846e+00 5.0515057154e+00 
162200 6.8012206063e+00 -4.0581400230e-04 2.9164951649e+00 -5.0515178057e+00 2.9164951649e+00 5.0515178057e+00 
162300 6.8012205689e+00 -4.0447142875e-04 2.9165021221e+00 -5.0515298559e+00 2.9165021221e+00 5.0515298559e+00 
162400 6.8012205317e+00 -4.0313339131e-04 2.9165090563e+00 -5.0515418663e+00 2.9165090563e+00 5.0515418663e+00 
162500 6.8012204948e+00 -4.0179987413e-04 2.9165159676e+00 -5.0515538369e+00 2.9165159676e+00 5.0515538369e+00 
162600 6.8012204581e+00 -4.0047086138e-04 2.9165228559e+00 -5.0515657679e+00 2.9165228559e+00 5.0515657679e+00 
162700 6.8012204217e+00 -3.9914633734e-04 2.9165297215e+00 -5.0515776594e+00 2.9165297215e+00 5.0515776594e+00 
162800 6.8012203855e+00 -3.9782628631e-04 2.9165365643e+00 -5.0515895115e+00 2.9165365643e+00 5.0515895115e+00 
162900 6.8012203495e+00 -3.9651069265e-04 2.9165433845e+00 -5.0516013244e+00 2.9165433845e+00 5.0516013244e+00 
163000 6.8012203138e+00 -3.9519954080e-04 2.9165501821e+00 -5.0516130982e+00 2.9165501821e+00 5.0516130982e+00 
163100 6.8012202783e+00 -3.9389281524e-04 2.9165569572e+00 -5.0516248331e+00 2.9165569572e+00 5.0516248331e+00 
163200 6.8012202431e+00 -3.9259050051e-04 2.9165637099e+00 -5.0516365291e+00 2.9165637099e+00 5.0516365291e+00 
163300 6.8012202080e+00 -3.9129258121e-04 2.9165704403e+00 -5.0516481864e+00 2.9165704403e+00 5.0516481864e+00 
163400 6.8012201732e+00 -3.8999904199e-04 2.9165771484e+00 -5.0516598052e+00 2.9165771484e+00 5.0516598052e+00 
163500 6.8012201386e+00 -3.8870986755e-04 2.9165838343e+00 -5.0516713855e+00 2.9165838343e+00 5.0516713855e+00 
163600 6.8012201043e+00 -3.8742504267e-04 2.9165904981e+00 -5.0516829276e+00 2.9165904981e+00 5.0516829276e+00 
163700 6.8012200702e+00 -3.8614455218e-04 2.9165971398e+00 -5.0516944314e+00 2.9165971398e+00 5.0516944314e+00 
163800 6.8012200362e+00 -3.8486838094e-04 2.9166037596e+00 -5.0517058972e+00 2.9166037596e+00 5.0517058972e+00 
163900 6.8012200026e+00 -3.8359651388e-04 2.9166103575e+00 -5.0517173251e+00 2.9166103575e+00 5.0517173251e+00 
164000 6.8012199691e+00 -3.8232893601e-04 2.9166169336e+00 -5.0517287152e+00 2.9166169336e+00 5.0517287152e+00 
164100 6.8012199358e+00 -3.8106563235e-04 2.9166234879e+00 -5.0517400676e+00 2.9166234879e+00 5.0517400676e+00 
164200 6.8012199028e+00 -3.7980658801e-04 2.9166300206e+00 -5.0517513825e+00 2.9166300206e+00 5.0517513825e+00 
164300 6.8012198700e+00 -3.7855178815e-04 2.9166365316e+00 -5.0517626600e+00 2.9166365316e+00 5.0517626600e+00 
164400 6.8012198374e+00 -3.7730121796e-04 2.9166430211e+00 -5.0517739002e+00 2.9166430211e+00 5.0517739002e+00 
164500 6.8012198050e+00 -3.7605486270e-04 2.9166494892e+00 -5.0517851032e+00 2.9166494892e+00 5.0517851032e+00 
164600 6.8012197728e+00 -3.7481270771e-04 2.9166559359e+00 -5.0517962692e+00 2.9166559359e+00 5.0517962692e+00 
164700 6.8012197408e+00 -3.7357473833e-04 2.9166623613e+00 -5.0518073983e+00 2.9166623613e+00 5.0518073983e+00 
164800 6.8012197090e+00 -3.7234094000e-04 2.9166687654e+00 -5.0518184906e+00 2.9166687654e+00 5.0518184906e+00 
164900 6.8012196775e+00 -3.7111129818e-04 2.9166751484e+00 -5.0518295463e+00 2.9166751484e+00 5.0518295463e+00 
165000 6.8012196461e+00 -3.6988579842e-04 2.9166815103e+00 -5.0518405654e+00 2.9166815103e+00 5.0518405654e+00 
165100 6.8012196150e+00 -3.6866442628e-04 2.9166878512e+00 -5.0518515481e+00 2.9166878512e+00 5.0518515481e+00 
165200 6.8012195840e+00 -3.6744716741e-04 2.9166941711e+00 -5.0518624945e+00 2.9166941711e+00 5.0518624945e+00 
165300 6.8012195532e+00 -3.6623400748e-04 2.9167004701e+00 -5.0518734048e+00 2.9167004701e+00 5.0518734048e+00 
165400 6.8012195227e+00 -3.6502493225e-04 2.9167067484e+00 -5.0518842790e+00 2.9167067484e+00 5.0518842790e+00 
165500 6.8012194923e+00 -3.6381992749e-04 2.9167130059e+00 -5.0518951172e+00 2.9167130059e+00 5.0518951172e+00 
165600 6.8012194622e+00 -3.6261897906e-04 2.9167192427e+00 -5.0519059197e+00 2.9167192427e+00 5.0519059197e+00 
165700 6.8012194322e+00 -3.6142207285e-04 2.9167254589e+00 -5.0519166865e+00 2.9167254589e+00 5.0519166865e+00 
165800 6.8012194025e+00 -3.6022919479e-04 2.9167316546e+00 -5.0519274178e+00 2.9167316546e+00 5.0519274178e+00 
165900 6.8012193729e+00 -3.5904033090e-04 2.9167378298e+00 -5.0519381136e+00 2.9167378298e+00 5.0519381136e+00 
166000 6.8012193435e+00 -3.5785546721e-04 2.9167439846e+00 -5.0519487740e+00 2.9167439846e+00 5.0519487740e+00 
166100 6.8012193143e+00 -3.5667458983e-04 2.9167501191e+00 -5.0519593993e+00 2.9167501191e+00 5.0519593993e+00 
166200 6.8012192853e+00 -3.5549768491e-04 2.9167562334e+00 -5.0519699895e+00 2.9167562334e+00 5.0519699895e+00 
166300 6.8012192565e+00 -3.5432473865e-04 2.9167623274e+00 -5.0519805447e+00 2.9167623274e+00 5.0519805447e+00 
166400 6.8012192279e+00 -3.5315573729e-04 2.9167684014e+00 -5.0519910651e+00 2.9167684014e+00 5.0519910651e+00 
166500 6.8012191994e+00 -3.5199066714e-04 2.9167744553e+00 -5.0520015507e+00 2.9167744553e+00 5.0520015507e+00 
166600 6.8012191712e+00 -3.5082951455e-04 2.9167804892e+00 -5.0520120018e+00 2.9167804892e+00 5.0520120018e+00 
166700 6.8012191431e+00 -3.4967226592e-04 2.9167865032e+00 -5.0520224183e+00 2.9167865032e+00 5.0520224183e+00 
166800 6.8012191152e+00 -3.4851890771e-04 2.9167924973e+00 -5.0520328005e+00 2.9167924973e+00 5.0520328005e+00 
166900 6.8012190875e+00 -3.4736942640e-04 2.9167984717e+00 -5.0520431483e+00 2.9167984717e+00 5.0520431483e+00 
167000 6.8012190600e+00 -3.4622380854e-04 2.9168044263e+00 -5.0520534621e+00 2.9168044263e+00 5.0520534621e+00 
167100 6.8012190326e+00 -3.4508204075e-04 2.9168103613e+00 -5.0520637418e+00 2.9168103613e+00 5.0520637418e+00 
167200 6.8012190055e+00 -3.4394410965e-04 2.9168162767e+00 -5.0520739876e+00 2.9168162767e+00 5.0520739876e+00 
167300 6.8012189785e+00 -3.4281000194e-04 2.9168221726e+00 -5.0520841995e+00 2.9168221726e+00 5.0520841995e+00 
167400 6.8012189517e+00 -3.4167970438e-04 2.9168280490e+00 -5.0520943778e+00 2.9168280490e+00 5.0520943778e+00 
167500 6.8012189250e+00 -3.4055320374e-04 2.9168339060e+00 -5.0521045225e+00 2.9168339060e+00 5.0521045225e+00 
167600 6.8012188985e+00 -3.3943048687e-04 2.9168397438e+00 -5.0521146337e+00 2.9168397438e+00 5.0521146337e+00 
167700 6.8012188722e+00 -3.3831154066e-04 2.9168455622e+00 -5.0521247116e+00 2.9168455622e+00 5.0521247116e+00 
167800 6.8012188461e+00 -3.3719635204e-04 2.9168513615e+00 -5.0521347562e+00 2.9168513615e+00 5.0521347562e+00 
167900 6.8012188201e+00 -3.3608490799e-04 2.9168571416e+00 -5.0521447678e+00 2.9168571416e+00 5.0521447678e+00 
168000 6.8012187943e+00 -3.3497719555e-04 2.9168629027e+00 -5.0521547462e+00 2.9168629027e+00 5.0521547462e+00 
168100 6.8012187687e+00 -3.3387320178e-04 2.9168686448e+00 -5.0521646918e+00 2.9168686448e+00 5.0521646918e+00 
168200 6.8012187433e+00 -3.3277291381e-04 2.9168743680e+00 -5.0521746046e+00 2.9168743680e+00 5.0521746046e+00 
168300 6.8012187180e+00 -3.3167631882e-04 2.9168800722e+00 -5.0521844847e+00 2.9168800722e+00 5.0521844847e+00 
168400 6.8012186928e+00 -3.3058340401e-04 2.9168857577e+00 -5.0521943322e+00 2.9168857577e+00 5.0521943322e+00 
168500 6.8012186679e+00 -3.2949415666e-04 2.9168914244e+00 -5.0522041473e+00 2.9168914244e+00 5.0522041473e+00 
168600 6.8012186431e+00 -3.2840856407e-04 2.9168970725e+00 -5.0522139299e+00 2.9168970725e+00 5.0522139299e+00 
168700 6.8012186184e+00 -3.2732661359e-04 2.9169027019e+00 -5.0522236804e+00 2.9169027019e+00 5.0522236804e+00 
168800 6.8012185940e+00 -3.2624829264e-04 2.9169083127e+00 -5.0522333987e+00 2.9169083127e+00 5.0522333987e+00 
168900 6.8012185696e+00 -3.2517358865e-04 2.9169139051e+00 -5.0522430849e+00 2.9169139051e+00 5.0522430849e+00 
169000 6.8012185455e+00 -3.2410248911e-04 2.9169194790e+00 -5.0522527393e+00 2.9169194790e+00 5.0522527393e+00 
169100 6.8012185215e+00 -3.2303498158e-04 2.9169250346e+00 -5.0522623618e+00 2.9169250346e+00 5.0522623618e+00 
169200 6.8012184976e+00 -3.2197105362e-04 2.9169305719e+00 -5.0522719526e+00 2.9169305719e+00 5.0522719526e+00 
169300 6.8012184739e+00 -3.2091069286e-04 2.9169360909e+00 -5.0522815118e+00 2.9169360909e+00 5.0522815118e+00 
169400 6.8012184504e+00 -3.1985388699e-04 2.9169415917e+00 -5.0522910395e+00 2.9169415917e+00 5.0522910395e+00 
169500 6.8012184270e+00 -3.1880062371e-04 2.9169470744e+00 -5.0523005358e+00 2.9169470744e+00 5.0523005358e+00 
169600 6.8012184037e+00 -3.1775089080e-04 2.9169525390e+00 -5.0523100008e+00 2.9169525390e+00 5.0523100008e+00 
169700 6.8012183806e+00 -3.1670467604e-04 2.9169579856e+00 -5.0523194346e+00 2.9169579856e+00 5.0523194346e+00 
169800 6.8012183577e+00 -3.1566196730e-04 2.9169634143e+00 -5.0523288374e+00 2.9169634143e+00 5.0523288374e+00 
169900 6.8012183349e+00 -3.1462275247e-04 2.9169688251e+00 -5.0523382092e+00 2.9169688251e+00 5.0523382092e+00 
170000 6.8012183123e+00 -3.1358701948e-04 2.9169742181e+00 -5.0523475501e+00 2.9169742181e+00 5.0523475501e+00 
170100 6.8012182898e+00 -3.1255475632e-04 2.9169795933e+00 -5.0523568602e+00 2.9169795933e+00 5.0523568602e+00 
170200 6.8012182674e+00 -3.1152595102e-04 2.9169849508e+00 -5.0523661397e+00 2.9169849508e+00 5.0523661397e+00 
170300 6.8012182452e+00 -3.1050059163e-04 2.9169902907e+00 -5.0523753886e+00 2.9169902907e+00 5.0523753886e+00 
170400 6.8012182232e+00 -3.0947866628e-04 2.9169956129e+00 -5.0523846071e+00 2.9169956129e+00 5.0523846071e+00 
170500 6.8012182012e+00 -3.0846016312e-04 2.9170009177e+00 -5.0523937952e+00 2.9170009177e+00 5.0523937952e+00 
170600 6.8012181795e+00 -3.0744507034e-04 2.9170062050e+00 -5.0524029530e+00 2.9170062050e+00 5.0524029530e+00 
170700 6.8012181578e+00 -3.0643337618e-04 2.9170114749e+00 -5.0524120807e+00 2.9170114749e+00 5.0524120807e+00 
170800 6.8012181363e+00 -3.0542506893e-04 2.9170167274e+00 -5.0524211784e+00 2.9170167274e+00 5.0524211784e+00 
170900 6.8012181150e+00 -3.0442013691e-04 2.9170219626e+00 -5.0524302460e+00 2.9170219626e+00 5.0524302460e+00 
171000 6.8012180938e+00 -3.0341856849e-04 2.9170271806e+00 -5.0524392839e+00 2.9170271806e+00 5.0524392839e+00 
171100 6.8012180727e+00 -3.0242035207e-04 2.9170323814e+00 -5.0524482920e+00 2.9170323814e+00 5.0524482920e+00 
171200 6.8012180517e+00 -3.0142547611e-04 2.9170375651e+00 -5.0524572704e+00 2.9170375651e+00 5.0524572704e+00 
171300 6.8012180309e+00 -3.0043392910e-04 2.9170427318e+00 -5.0524662193e+00 2.9170427318e+00 5.0524662193e+00 
171400 6.8012180103e+00 -2.9944569957e-04 2.9170478814e+00 -5.0524751387e+00 2.9170478814e+00 5.0524751387e+00 
171500 6.8012179897e+00 -2.9846077609e-04 2.9170530141e+00 -5.0524840288e+00 2.9170530141e+00 5.0524840288e+00 
171600 6.8012179693e+00 -2.9747914729e-04 2.9170581299e+00 -5.0524928896e+00 2.9170581299e+00 5.0524928896e+00 
171700 6.8012179491e+00 -2.9650080182e-04 2.9170632288e+00 -5.0525017212e+00 2.9170632288e+00 5.0525017212e+00 
171800 6.8012179289e+00 -2.9552572837e-04 2.9170683110e+00 -5.0525105238e+00 2.9170683110e+00 5.0525105238e+00 
171900 6.8012179089e+00 -2.9455391570e-04 2.9170733765e+00 -5.0525192975e+00 2.9170733765e+00 5.0525192975e+00 
172000 6.8012178890e+00 -2.9358535257e-04 2.9170784253e+00 -5.0525280422e+00 2.9170784253e+00 5.0525280422e+00 
172100 6.8012178693e+00 -2.9262002780e-04 2.9170834575e+00 -5.0525367582e+00 2.9170834575e+00 5.0525367582e+00 
172200 6.8012178497e+00 -2.9165793026e-04 2.9170884731e+00 -5.0525454456e+00 2.9170884731e+00 5.0525454456e+00 
172300 6.8012178302e+00 -2.9069904884e-04 2.9170934722e+00 -5.0525541043e+00 2.9170934722e+00 5.0525541043e+00 
172400 6.8012178108e+00 -2.8974337249e-04 2.9170984549e+00 -5.0525627346e+00 2.9170984549e+00 5.0525627346e+00 
172500 6.8012177916e+00 -2.8879089018e-04 2.9171034212e+00 -5.0525713364e+00 2.9171034212e+00 5.0525713364e+00 
172600 6.8012177724e+00 -2.8784159093e-04 2.9171083712e+00 -5.0525799100e+00 2.9171083712e+00 5.0525799100e+00 
172700 6.8012177534e+00 -2.8689546381e-04 2.9171133048e+00 -5.0525884554e+00 2.9171133048e+00 5.0525884554e+00 
172800 6.8012177346e+00 -2.8595249791e-04 2.9171182223e+00 -5.0525969727e+00 2.9171182223e+00 5.0525969727e+00 
172900 6.8012177158e+00 -2.8501268236e-04 2.9171231236e+00 -5.0526054620e+00 2.9171231236e+00 5.0526054620e+00 
173000 6.8012176972e+00 -2.8407600635e-04 2.9171280087e+00 -5.0526139233e+00 2.9171280087e+00 5.0526139233e+00 
173100 6.8012176787e+00 -2.8314245909e-04 2.9171328779e+00 -5.0526223569e+00 2.9171328779e+00 5.0526223569e+00 
173200 6.8012176603e+00 -2.8221202983e-04 2.9171377310e+00 -5.0526307627e+00 2.9171377310e+00 5.0526307627e+00 
173300 6.8012176420e+00 -2.8128470786e-04 2.9171425681e+00 -5.0526391409e+00 2.9171425681e+00 5.0526391409e+00 
173400 6.8012176239e+00 -2.8036048252e-04 2.9171473893e+00 -5.0526474915e+00 2.9171473893e+00 5.0526474915e+00 
173500 6.8012176059e+00 -2.7943934318e-04 2.9171521947e+00 -5.0526558147e+00 2.9171521947e+00 5.0526558147e+00 
173600 6.8012175879e+00 -2.7852127923e-04 2.9171569843e+00 -5.0526641105e+00 2.9171569843e+00 5.0526641105e+00 
173700 6.8012175702e+00 -2.7760628013e-04 2.9171617582e+00 -5.0526723790e+00 2.9171617582e+00 5.0526723790e+00 
173800 6.8012175525e+00 -2.7669433537e-04 2.9171665163e+00 -5.0526806204e+00 2.9171665163e+00 5.0526806204e+00 
173900 6.8012175349e+00 -2.7578543445e-04 2.9171712588e+00 -5.0526888347e+00 2.9171712588e+00 5.0526888347e+00 
174000 6.8012175174e+00 -2.7487956695e-04 2.9171759858e+00 -5.0526970220e+00 2.9171759858e+00 5.0526970220e+00 
174100 6.8012175001e+00 -2.7397672245e-04 2.9171806972e+00 -5.0527051824e+00 2.9171806972e+00 5.0527051824e+00 
174200 6.8012174829e+00 -2.7307689058e-04 2.9171853931e+00 -5.0527133159e+00 2.9171853931e+00 5.0527133159e+00 
174300 6.8012174658e+00 -2.7218006103e-04 2.9171900736e+00 -5.0527214228e+00 2.9171900736e+00 5.0527214228e+00 
174400 6.8012174488e+00 -2.7128622349e-04 2.9171947387e+00 -5.0527295030e+00 2.9171947387e+00 5.0527295030e+00 
174500 6.8012174319e+00 -2.7039536771e-04 2.9171993885e+00 -5.0527375566e+00 2.9171993885e+00 5.0527375566e+00 
174600 6.8012174151e+00 -2.6950748347e-04 2.9172040230e+00 -5.0527455838e+00 2.9172040230e+00 5.0527455838e+00 
174700 6.8012173984e+00 -2.6862256059e-04 2.9172086422e+00 -5.0527535847e+00 2.9172086422e+00 5.0527535847e+00 
174800 6.8012173818e+00 -2.6774058892e-04 2.9172132464e+00 -5.0527615592e+00 2.9172132464e+00 5.0527615592e+00 
174900 6.8012173654e+00 -2.6686155835e-04 2.9172178353e+00 -5.0527695075e+00 2.9172178353e+00 5.0527695075e+00 
175000 6.8012173490e+00 -2.6598545880e-04 2.9172224092e+00 -5.0527774298e+00 2.9172224092e+00 5.0527774298e+00 
175100 6.8012173328e+00 -2.6511228025e-04 2.9172269681e+00 -5.0527853260e+00 2.9172269681e+00 5.0527853260e+00 
175200 6.8012173166e+00 -2.6424201268e-04 2.9172315120e+00 -5.0527931963e+00 2.9172315120e+00 5.0527931963e+00 
175300 6.8012173006e+00 -2.6337464614e-04 2.9172360410e+00 -5.0528010407e+00 2.9172360410e+00 5.0528010407e+00 
175400 6.8012172847e+00 -2.6251017068e-04 2.9172405551e+00 -5.0528088594e+00 2.9172405551e+00 5.0528088594e+00 
175500 6.8012172688e+00 -2.6164857642e-04 2.9172450544e+00 -5.0528166524e+00 2.9172450544e+00 5.0528166524e+00 
175600 6.8012172531e+00 -2.6078985349e-04 2.9172495389e+00 -5.0528244198e+00 2.9172495389e+00 5.0528244198e+00 
175700 6.8012172375e+00 -2.5993399208e-04 2.9172540087e+00 -5.0528321617e+00 2.9172540087e+00 5.0528321617e+00 
175800 6.8012172219e+00 -2.5908098238e-04 2.9172584638e+00 -5.0528398782e+00 2.9172584638e+00 5.0528398782e+00 
175900 6.8012172065e+00 -2.5823081465e-04 2.9172629043e+00 -5.0528475693e+00 2.9172629043e+00 5.0528475693e+00 
176000 6.8012171912e+00 -2.5738347917e-04 2.9172673302e+00 -5.0528552352e+00 2.9172673302e+00 5.0528552352e+00 
176100 6.8012171760e+00 -2.5653896625e-04 2.9172717416e+00 -5.0528628760e+00 2.9172717416e+00 5.0528628760e+00 
176200 6.8012171608e+00 -2.5569726624e-04 2.9172761385e+00 -5.0528704916e+00 2.9172761385e+00 5.0528704916e+00 
176300 6.8012171458e+00 -2.5485836952e-04 2.9172805210e+00 -5.0528780823e+00 2.9172805210e+00 5.0528780823e+00 
176400 6.8012171309e+00 -2.5402226652e-04 2.9172848891e+00 -5.0528856480e+00 2.9172848891e+00 5.0528856480e+00 
176500 6.8012171160e+00 -2.5318894768e-04 2.9172892428e+00 -5.0528931889e+00 2.9172892428e+00 5.0528931889e+00 
176600 6.8012171013e+00 -2.5235840349e-04 2.9172935823e+00 -5.0529007051e+00 2.9172935823e+00 5.0529007051e+00 
176700 6.8012170867e+00 -2.5153062447e-04 2.9172979075e+00 -5.0529081966e+00 2.9172979075e+00 5.0529081966e+00 
176800 6.8012170721e+00 -2.5070560118e-04 2.9173022185e+00 -5.0529156635e+00 2.9173022185e+00 5.0529156635e+00 
176900 6.8012170577e+00 -2.4988332420e-04 2.9173065154e+00 -5.0529231059e+00 2.9173065154e+00 5.0529231059e+00 
177000 6.8012170433e+00 -2.4906378415e-04 2.9173107982e+00 -5.0529305239e+00 2.9173107982e+00 5.0529305239e+00 
177100 6.8012170290e+00 -2.4824697169e-04 2.9173150669e+00 -5.0529379175e+00 2.9173150669e+00 5.0529379175e+00 
177200 6.8012170149e+00 -2.4743287750e-04 2.9173193216e+00 -5.0529452869e+00 2.9173193216e+00 5.0529452869e+00 
177300 6.8012170008e+00 -2.4662149231e-04 2.9173235624e+00 -5.0529526321e+00 2.9173235624e+00 5.0529526321e+00 
177400 6.8012169868e+00 -2.4581280687e-04 2.9173277892e+00 -5.0529599532e+00 2.9173277892e+00 5.0529599532e+00 
177500 6.8012169729e+00 -2.4500681196e-04 2.9173320022e+00 -5.0529672503e+00 2.9173320022e+00 5.0529672503e+00 
177600 6.8012169591e+00 -2.4420349842e-04 2.9173362013e+00 -5.0529745235e+00 2.9173362013e+00 5.0529745235e+00 
177700 6.8012169454e+00 -2.4340285707e-04 2.9173403867e+00 -5.0529817728e+00 2.9173403867e+00 5.0529817728e+00 
177800 6.8012169317e+00 -2.4260487882e-04 2.9173445584e+00 -5.0529889983e+00 2.9173445584e+00 5.0529889983e+00 
177900 6.8012169182e+00 -2.4180955458e-04 2.9173487164e+00 -5.0529962001e+00 2.9173487164e+00 5.0529962001e+00 
178000 6.8012169047e+00 -2.4101687529e-04 2.9173528607e+00 -5.0530033783e+00 2.9173528607e+00 5.0530033783e+00 
178100 6.8012168914e+00 -2.4022683194e-04 2.9173569915e+00 -5.0530105330e+00 2.9173569915e+00 5.0530105330e+00 
178200 6.8012168781e+00 -2.3943941555e-04 2.9173611087e+00 -5.0530176642e+00 2.9173611087e+00 5.0530176642e+00 
178300 6.8012168649e+00 -2.3865461715e-04 2.9173652124e+00 -5.0530247720e+00 2.9173652124e+00 5.0530247720e+00 
178400 6.8012168518e+00 -2.3787242783e-04 2.9173693026e+00 -5.0530318565e+00 2.9173693026e+00 5.0530318565e+00 
178500 6.8012168387e+00 -2.3709283869e-04 2.9173733794e+00 -5.0530389178e+00 2.9173733794e+00 5.0530389178e+00 
178600 6.8012168258e+00 -2.3631584087e-04 2.9173774429e+00 -5.0530459559e+00 2.9173774429e+00 5.0530459559e+00 
178700 6.8012168129e+00 -2.3554142554e-04 2.9173814930e+00 -5.0530529710e+00 2.9173814930e+00 5.0530529710e+00 
178800 6.8012168002e+00 -2.3476958391e-04 2.9173855299e+00 -5.0530599631e+00 2.9173855299e+00 5.0530599631e+00 
178900 6.8012167875e+00 -2.3400030722e-04 2.9173895535e+00 -5.0530669322e+00 2.9173895535e+00 5.0530669322e+00 
179000 6.8012167749e+00 -2.3323358672e-04 2.9173935640e+00 -5.0530738785e+00 2.9173935640e+00 5.0530738785e+00 
179100 6.8012167623e+00 -2.3246941371e-04 2.9173975613e+00 -5.0530808020e+00 2.9173975613e+00 5.0530808020e+00 
179200 6.8012167499e+00 -2.3170777952e-04 2.9174015455e+00 -5.0530877028e+00 2.9174015455e+00 5.0530877028e+00 
179300 6.8012167375e+00 -2.3094867551e-04 2.9174055166e+00 -5.0530945810e+00 2.9174055166e+00 5.0530945810e+00 
179400 6.8012167252e+00 -2.3019209306e-04 2.9174094747e+00 -5.0531014367e+00 2.9174094747e+00 5.0531014367e+00 
179500 6.8012167130e+00 -2.2943802360e-04 2.9174134199e+00 -5.0531082699e+00 2.9174134199e+00 5.0531082699e+00 
179600 6.8012167009e+00 -2.2868645856e-04 2.9174173521e+00 -5.0531150807e+00 2.9174173521e+00 5.0531150807e+00 
179700 6.8012166889e+00 -2.2793738944e-04 2.9174212714e+00 -5.0531218692e+00 2.9174212714e+00 5.0531218692e+00 
179800 6.8012166769e+00 -2.2719080774e-04 2.9174251779e+00 -5.0531286354e+00 2.9174251779e+00 5.0531286354e+00 
179900 6.8012166650e+00 -2.2644670499e-04 2.9174290716e+00 -5.0531353795e+00 2.9174290716e+00 5.0531353795e+00 
180000 6.8012166532e+00 -2.2570507278e-04 2.9174329525e+00 -5.0531421014e+00 2.9174329525e+00 5.0531421014e+00 
180100 6.8012166414e+00 -2.2496590270e-04 2.9174368207e+00 -5.0531488014e+00 2.9174368207e+00 5.0531488014e+00 
180200 6.8012166298e+00 -2.2422918637e-04 2.9174406763e+00 -5.0531554794e+00 2.9174406763e+00 5.0531554794e+00 
180300 6.8012166182e+00 -2.2349491546e-04 2.9174445192e+00 -5.0531621355e+00 2.9174445192e+00 5.0531621355e+00 
180400 6.8012166067e+00 -2.2276308165e-04 2.9174483495e+00 -5.0531687698e+00 2.9174483495e+00 5.0531687698e+00 
180500 6.8012165952e+00 -2.2203367666e-04 2.9174521673e+00 -5.0531753824e+00 2.9174521673e+00 5.0531753824e+00 
180600 6.8012165839e+00 -2.2130669225e-04 2.9174559725e+00 -5.0531819733e+00 2.9174559725e+00 5.0531819733e+00 
180700 6.8012165726e+00 -2.2058212017e-04 2.9174597653e+00 -5.0531885426e+00 2.9174597653e+00 5.0531885426e+00 
180800 6.8012165614e+00 -2.1985995224e-04 2.9174635457e+00 -5.0531950904e+00 2.9174635457e+00 5.0531950904e+00 
180900 6.8012165502e+00 -2.1914018029e-04 2.9174673137e+00 -5.0532016168e+00 2.9174673137e+00 5.0532016168e+00 
181000 6.8012165392e+00 -2.1842279619e-04 2.9174710694e+00 -5.0532081218e+00 2.9174710694e+00 5.0532081218e+00 
181100 6.8012165282e+00 -2.1770779182e-04 2.9174748127e+00 -5.0532146055e+00 2.9174748127e+00 5.0532146055e+00 
181200 6.8012165172e+00 -2.1699515911e-04 2.9174785438e+00 -5.0532210679e+00 2.9174785438e+00 5.0532210679e+00 
181300 6.8012165064e+00 -2.1628488999e-04 2.9174822627e+00 -5.0532275092e+00 2.9174822627e+00 5.0532275092e+00 
181400 6.8012164956e+00 -2.1557697646e-04 2.9174859694e+00 -5.0532339294e+00 2.9174859694e+00 5.0532339294e+00 
181500 6.8012164849e+00 -2.1487141051e-04 2.9174896640e+00 -5.0532403286e+00 2.9174896640e+00 5.0532403286e+00 
181600 6.8012164742e+00 -2.1416818417e-04 2.9174933465e+00 -5.0532467068e+00 2.9174933465e+00 5.0532467068e+00 
181700 6.8012164636e+00 -2.1346728952e-04 2.9174970169e+00 -5.0532530642e+00 2.9174970169e+00 5.0532530642e+00 
181800 6.8012164531e+00 -2.1276871863e-04 2.9175006753e+00 -5.0532594007e+00 2.9175006753e+00 5.0532594007e+00 
181900 6.8012164427e+00 -2.1207246363e-04 2.9175043217e+00 -5.0532657165e+00 2.9175043217e+00 5.0532657165e+00 
182000 6.8012164323e+00 -2.1137851665e-04 2.9175079562e+00 -5.0532720116e+00 2.9175079562e+00 5.0532720116e+00 
182100 6.8012164220e+00 -2.1068686987e-04 2.9175115788e+00 -5.0532782861e+00 2.9175115788e+00 5.0532782861e+00 
182200 6.8012164118e+00 -2.0999751550e-04 2.9175151895e+00 -5.0532845401e+00 2.9175151895e+00 5.0532845401e+00 
182300 6.8012164016e+00 -2.0931044575e-04 2.9175187884e+00 -5.0532907736e+00 2.9175187884e+00 5.0532907736e+00 
182400 6.8012163915e+00 -2.0862565289e-04 2.9175223755e+00 -5.0532969867e+00 2.9175223755e+00 5.0532969867e+00 
182500 6.8012163814e+00 -2.0794312919e-04 2.9175259509e+00 -5.0533031794e+00 2.9175259509e+00 5.0533031794e+00 
182600 6.8012163714e+00 -2.0726286697e-04 2.9175295146e+00 -5.0533093519e+00 2.9175295146e+00 5.0533093519e+00 
182700 6.8012163615e+00 -2.0658485856e-04 2.9175330667e+00 -5.0533155042e+00 2.9175330667e+00 5.0533155042e+00 
182800 6.8012163517e+00 -2.0590909632e-04 2.9175366071e+00 -5.0533216364e+00 2.9175366071e+00 5.0533216364e+00 
182900 6.8012163419e+00 -2.0523557264e-04 2.9175401359e+00 -5.0533277485e+00 2.9175401359e+00 5.0533277485e+00 
183000 6.8012163322e+00 -2.0456427994e-04 2.9175436532e+00 -5.0533338406e+00 2.9175436532e+00 5.0533338406e+00 
183100 6.8012163225e+00 -2.0389521067e-04 2.9175471589e+00 -5.0533399127e+00 2.9175471589e+00 5.0533399127e+00 
183200 6.8012163129e+00 -2.0322835728e-04 2.9175506532e+00 -5.0533459650e+00 2.9175506532e+00 5.0533459650e+00 
183300 6.8012163034e+00 -2.0256371229e-04 2.9175541361e+00 -5.0533519975e+00 2.9175541361e+00 5.0533519975e+00 
183400 6.8012162939e+00 -2.0190126821e-04 2.9175576075e+00 -5.0533580103e+00 2.9175576075e+00 5.0533580103e+00 
183500 6.8012162845e+00 -2.0124101759e-04 2.9175610676e+00 -5.0533640033e+00 2.9175610676e+00 5.0533640033e+00 
183600 6.8012162751e+00 -2.0058295300e-04 2.9175645164e+00 -5.0533699768e+00 2.9175645164e+00 5.0533699768e+00 
183700 6.8012162658e+00 -1.9992706705e-04 2.9175679539e+00 -5.0533759308e+00 2.9175679539e+00 5.0533759308e+00 
183800 6.8012162566e+00 -1.9927335237e-04 2.9175713802e+00 -5.0533818652e+00 2.9175713802e+00 5.0533818652e+00 
183900 6.8012162474e+00 -1.9862180160e-04 2.9175747953e+00 -5.0533877803e+00 2.9175747953e+00 5.0533877803e+00 
184000 6.8012162383e+00 -1.9797240743e-04 2.9175781991e+00 -5.0533936760e+00 2.9175781991e+00 5.0533936760e+00 
184100 6.8012162293e+00 -1.9732516255e-04 2.9175815919e+00 -5.0533995524e+00 2.9175815919e+00 5.0533995524e+00 
184200 6.8012162203e+00 -1.9668005971e-04 2.9175849736e+00 -5.0534054096e+00 2.9175849736e+00 5.0534054096e+00 
184300 6.8012162114e+00 -1.9603709165e-04 2.9175883442e+00 -5.0534112476e+00 2.9175883442e+00 5.0534112476e+00 
184400 6.8012162025e+00 -1.9539625116e-04 2.9175917037e+00 -5.0534170666e+00 2.9175917037e+00 5.0534170666e+00 
184500 6.8012161937e+00 -1.9475753104e-04 2.9175950523e+00 -5.0534228665e+00 2.9175950523e+00 5.0534228665e+00 
184600 6.8012161849e+00 -1.9412092413e-04 2.9175983900e+00 -5.0534286475e+00 2.9175983900e+00 5.0534286475e+00 
184700 6.8012161762e+00 -1.9348642327e-04 2.9176017167e+00 -5.0534344095e+00 2.9176017167e+00 5.0534344095e+00 
184800 6.8012161675e+00 -1.9285402135e-04 2.9176050325e+00 -5.0534401528e+00 2.9176050325e+00 5.0534401528e+00 
184900 6.8012161589e+00 -1.9222371128e-04 2.9176083375e+00 -5.0534458772e+00 2.9176083375e+00 5.0534458772e+00 
185000 6.8012161504e+00 -1.9159548600e-04 2.9176116317e+00 -5.0534515829e+00 2.9176116317e+00 5.0534515829e+00 
185100 6.8012161419e+00 -1.9096933844e-04 2.9176149152e+00 -5.0534572700e+00 2.9176149152e+00 5.0534572700e+00 
185200 6.8012161335e+00 -1.9034526161e-04 2.9176181879e+00 -5.0534629385e+00 2.9176181879e+00 5.0534629385e+00 
185300 6.8012161251e+00 -1.8972324849e-04 2.9176214499e+00 -5.0534685884e+00 2.9176214499e+00 5.0534685884e+00 
185400 6.8012161168e+00 -1.8910329212e-04 2.9176247012e+00 -5.0534742199e+00 2.9176247012e+00 5.0534742199e+00 
185500 6.8012161085e+00 -1.8848538556e-04 2.9176279419e+00 -5.0534798330e+00 2.9176279419e+00 5.0534798330e+00 
185600 6.8012161003e+00 -1.8786952188e-04 2.9176311720e+00 -5.0534854277e+00 2.9176311720e+00 5.0534854277e+00 
185700 6.8012160922e+00 -1.8725569418e-04 2.9176343916e+00 -5.0534910041e+00 2.9176343916e+00 5.0534910041e+00 
185800 6.8012160840e+00 -1.8664389560e-04 2.9176376006e+00 -5.0534965623e+00 2.9176376006e+00 5.0534965623e+00 
185900 6.8012160760e+00 -1.8603411928e-04 2.9176407991e+00 -5.0535021024e+00 2.9176407991e+00 5.0535021024e+00 
186000 6.8012160680e+00 -1.8542635839e-04 2.9176439872e+00 -5.0535076243e+00 2.9176439872e+00 5.0535076243e+00 
186100 6.8012160600e+00 -1.8482060614e-04 2.9176471649e+00 -5.0535131282e+00 2.9176471649e+00 5.0535131282e+00 
186200 6.8012160521e+00 -1.8421685575e-04 2.9176503322e+00 -5.0535186141e+00 2.9176503322e+00 5.0535186141e+00 
186300 6.8012160443e+00 -1.8361510047e-04 2.9176534891e+00 -5.0535240821e+00 2.9176534891e+00 5.0535240821e+00 
186400 6.8012160365e+00 -1.8301533355e-04 2.9176566358e+00 -5.0535295322e+00 2.9176566358e+00 5.0535295322e+00 
186500 6.8012160288e+00 -1.8241754830e-04 2.9176597721e+00 -5.0535349645e+00 2.9176597721e+00 5.0535349645e+00 
186600 6.8012160211e+00 -1.8182173803e-04 2.9176628982e+00 -5.0535403790e+00 2.9176628982e+00 5.0535403790e+00 
186700 6.8012160134e+00 -1.8122789609e-04 2.9176660141e+00 -5.0535457759e+00 2.9176660141e+00 5.0535457759e+00 
186800 6.8012160058e+00 -1.8063601583e-04 2.9176691198e+00 -5.0535511551e+00 2.9176691198e+00 5.0535511551e+00 
186900 6.8012159983e+00 -1.8004609063e-04 2.9176722153e+00 -5.0535565168e+00 2.9176722153e+00 5.0535565168e+00 
187000 6.8012159908e+00 -1.7945811393e-04 2.9176753008e+00 -5.0535618609e+00 2.9176753008e+00 5.0535618609e+00 
187100 6.8012159833e+00 -1.7887207913e-04 2.9176783761e+00 -5.0535671876e+00 2.9176783761e+00 5.0535671876e+00 
187200 6.8012159759e+00 -1.7828797969e-04 2.9176814415e+00 -5.0535724969e+00 2.9176814415e+00 5.0535724969e+00 
187300 6.8012159686e+00 -1.7770580910e-04 2.9176844968e+00 -5.0535777888e+00 2.9176844968e+00 5.0535777888e+00 
187400 6.8012159613e+00 -1.7712556087e-04 2.9176875421e+00 -5.0535830635e+00 2.9176875421e+00 5.0535830635e+00 
187500 6.8012159540e+00 -1.7654722849e-04 2.9176905775e+00 -5.0535883209e+00 2.9176905775e+00 5.0535883209e+00 
187600 6.8012159468e+00 -1.7597080553e-04 2.9176936029e+00 -5.0535935612e+00 2.9176936029e+00 5.0535935612e+00 
187700 6.8012159396e+00 -1.7539628556e-04 2.9176966185e+00 -5.0535987843e+00 2.9176966185e+00 5.0535987843e+00 
187800 6.8012159325e+00 -1.7482366215e-04 2.9176996242e+00 -5.0536039904e+00 2.9176996242e+00 5.0536039904e+00 
187900 6.8012159254e+00 -1.7425292894e-04 2.9177026202e+00 -5.0536091795e+00 2.9177026202e+00 5.0536091795e+00 
188000 6.8012159184e+00 -1.7368407954e-04 2.9177056063e+00 -5.0536143516e+00 2.9177056063e+00 5.0536143516e+00 
188100 6.8012159114e+00 -1.7311710763e-04 2.9177085827e+00 -5.0536195069e+00 2.9177085827e+00 5.0536195069e+00 
188200 6.8012159045e+00 -1.7255200687e-04 2.9177115493e+00 -5.0536246453e+00 2.9177115493e+00 5.0536246453e+00 
188300 6.8012158976e+00 -1.7198877097e-04 2.9177145063e+00 -5.0536297669e+00 2.9177145063e+00 5.0536297669e+00 
188400 6.8012158907e+00 -1.7142739366e-04 2.9177174536e+00 -5.0536348718e+00 2.9177174536e+00 5.0536348718e+00 
188500 6.8012158839e+00 -1.7086786867e-04 2.9177203913e+00 -5.0536399600e+00 2.9177203913e+00 5.0536399600e+00 
188600 6.8012158772e+00 -1.7031018978e-04 2.9177233194e+00 -5.0536450317e+00 2.9177233194e+00 5.0536450317e+00 
188700 6.8012158705e+00 -1.6975435077e-04 2.9177262380e+00 -5.0536500867e+00 2.9177262380e+00 5.0536500867e+00 
188800 6.8012158638e+00 -1.6920034546e-04 2.9177291470e+00 -5.0536551253e+00 2.9177291470e+00 5.0536551253e+00 
188900 6.8012158572e+00 -1.6864816767e-04 2.9177320465e+00 -5.0536601474e+00 2.9177320465e+00 5.0536601474e+00 
189000 6.8012158506e+00 -1.6809781126e-04 2.9177349366e+00 -5.0536651532e+00 2.9177349366e+00 5.0536651532e+00 
189100 6.8012158440e+00 -1.6754927011e-04 2.9177378172e+00 -5.0536701425e+00 2.9177378172e+00 5.0536701425e+00 
189200 6.8012158375e+00 -1.6700253810e-04 2.9177406884e+00 -5.0536751156e+00 2.9177406884e+00 5.0536751156e+00 
189300 6.8012158311e+00 -1.6645760916e-04 2.9177435503e+00 -5.0536800725e+00 2.9177435503e+00 5.0536800725e+00 
189400 6.8012158246e+00 -1.6591447723e-04 2.9177464028e+00 -5.0536850132e+00 2.9177464028e+00 5.0536850132e+00 
189500 6.8012158183e+00 -1.6537313626e-04 2.9177492460e+00 -5.0536899378e+00 2.9177492460e+00 5.0536899378e+00 
189600 6.8012158119e+00 -1.6483358023e-04 2.9177520799e+00 -5.0536948462e+00 2.9177520799e+00 5.0536948462e+00 
189700 6.8012158056e+00 -1.6429580315e-04 2.9177549045e+00 -5.0536997387e+00 2.9177549045e+00 5.0536997387e+00 
189800 6.8012157994e+00 -1.6375979904e-04 2.9177577200e+00 -5.0537046152e+00 2.9177577200e+00 5.0537046152e+00 
189900 6.8012157932e+00 -1.6322556193e-04 2.9177605263e+00 -5.0537094758e+00 2.9177605263e+00 5.0537094758e+00 
190000 6.8012157870e+00 -1.6269308591e-04 2.9177633234e+00 -5.0537143205e+00 2.9177633234e+00 5.0537143205e+00 
190100 6.8012157809e+00 -1.6216236503e-04 2.9177661113e+00 -5.0537191494e+00 2.9177661113e+00 5.0537191494e+00 
190200 6.8012157748e+00 -1.6163339342e-04 2.9177688902e+00 -5.0537239626e+00 2.9177688902e+00 5.0537239626e+00 
190300 6.8012157687e+00 -1.6110616520e-04 2.9177716600e+00 -5.0537287601e+00 2.9177716600e+00 5.0537287601e+00 
190400 6.8012157627e+00 -1.6058067450e-04 2.9177744208e+00 -5.0537335419e+00 2.9177744208e+00 5.0537335419e+00 
190500 6.8012157567e+00 -1.6005691551e-04 2.9177771726e+00 -5.0537383081e+00 2.9177771726e+00 5.0537383081e+00 
190600 6.8012157508e+00 -1.5953488240e-04 2.9177799154e+00 -5.0537430587e+00 2.9177799154e+00 5.0537430587e+00 
190700 6.8012157449e+00 -1.5901456937e-04 2.9177826492e+00 -5.0537477939e+00 2.9177826492e+00 5.0537477939e+00 
190800 6.8012157390e+00 -1.5849597066e-04 2.9177853741e+00 -5.0537525136e+00 2.9177853741e+00 5.0537525136e+00 
190900 6.8012157332e+00 -1.5797908051e-04 2.9177880902e+00 -5.0537572179e+00 2.9177880902e+00 5.0537572179e+00 
191000 6.8012157274e+00 -1.5746389319e-04 2.9177907973e+00 -5.0537619068e+00 2.9177907973e+00 5.0537619068e+00 
191100 6.8012157217e+00 -1.5695040299e-04 2.9177934957e+00 -5.0537665805e+00 2.9177934957e+00 5.0537665805e+00 
191200 6.8012157160e+00 -1.5643860420e-04 2.9177961852e+00 -5.0537712389e+00 2.9177961852e+00 5.0537712389e+00 
191300 6.8012157103e+00 -1.5592849115e-04 2.9177988660e+00 -5.0537758821e+00 2.9177988660e+00 5.0537758821e+00 
191400 6.8012157047e+00 -1.5542005819e-04 2.9178015380e+00 -5.0537805102e+00 2.9178015380e+00 5.0537805102e+00 
191500 6.8012156991e+00 -1.5491329969e-04 2.9178042013e+00 -5.0537851232e+00 2.9178042013e+00 5.0537851232e+00 
191600 6.8012156935e+00 -1.5440821002e-04 2.9178068559e+00 -5.0537897211e+00 2.9178068559e+00 5.0537897211e+00 
191700 6.8012156880e+00 -1.5390478360e-04 2.9178095019e+00 -5.0537943041e+00 2.9178095019e+00 5.0537943041e+00 
191800 6.8012156825e+00 -1.5340301483e-04 2.9178121392e+00 -5.0537988721e+00 2.9178121392e+00 5.0537988721e+00 
191900 6.8012156770e+00 -1.5290289817e-04 2.9178147680e+00 -5.0538034252e+00 2.9178147680e+00 5.0538034252e+00 
192000 6.8012156716e+00 -1.5240442809e-04 2.9178173881e+00 -5.0538079634e+00 2.9178173881e+00 5.0538079634e+00 
192100 6.8012156662e+00 -1.5190759904e-04 2.9178199997e+00 -5.0538124869e+00 2.9178199997e+00 5.0538124869e+00 
192200 6.8012156609e+00 -1.5141240555e-04 2.9178226028e+00 -5.0538169956e+00 2.9178226028e+00 5.0538169956e+00 
192300 6.8012156556e+00 -1.5091884212e-04 2.9178251975e+00 -5.0538214896e+00 2.9178251975e+00 5.0538214896e+00 
192400 6.8012156503e+00 -1.5042690329e-04 2.9178277836e+00 -5.0538259689e+00 2.9178277836e+00 5.0538259689e+00 
192500 6.8012156450e+00 -1.4993658362e-04 2.9178303613e+00 -5.0538304337e+00 2.9178303613e+00 5.0538304337e+00 
192600 6.8012156398e+00 -1.4944787769e-04 2.9178329306e+00 -5.0538348839e+00 2.9178329306e+00 5.0538348839e+00 
192700 6.8012156346e+00 -1.4896078008e-04 2.9178354916e+00 -5.0538393196e+00 2.9178354916e+00 5.0538393196e+00 
192800 6.8012156295e+00 -1.4847528542e-04 2.9178380442e+00 -5.0538437408e+00 2.9178380442e+00 5.0538437408e+00 
192900 6.8012156244e+00 -1.4799138833e-04 2.9178405884e+00 -5.0538481476e+00 2.9178405884e+00 5.0538481476e+00 
193000 6.8012156193e+00 -1.4750908346e-04 2.9178431244e+00 -5.0538525400e+00 2.9178431244e+00 5.0538525400e+00 
193100 6.8012156142e+00 -1.4702836548e-04 2.9178456521e+00 -5.0538569181e+00 2.9178456521e+00 5.0538569181e+00 
193200 6.8012156092e+00 -1.4654922908e-04 2.9178481716e+00 -5.0538612820e+00 2.9178481716e+00 5.0538612820e+00 
193300 6.8012156043e+00 -1.4607166896e-04 2.9178506828e+00 -5.0538656316e+00 2.9178506828e+00 5.0538656316e+00 
193400 6.8012155993e+00 -1.4559567984e-04 2.9178531859e+00 -5.0538699670e+00 2.9178531859e+00 5.0538699670e+00 
193500 6.8012155944e+00 -1.4512125647e-04 2.9178556808e+00 -5.0538742884e+00 2.9178556808e+00 5.0538742884e+00 
193600 6.8012155895e+00 -1.4464839361e-04 2.9178581676e+00 -5.0538785956e+00 2.9178581676e+00 5.0538785956e+00 
193700 6.8012155846e+00 -1.4417708603e-04 2.9178606463e+00 -5.0538828888e+00 2.9178606463e+00 5.0538828888e+00 
193800 6.8012155798e+00 -1.4370732853e-04 2.9178631169e+00 -5.0538871680e+00 2.9178631169e+00 5.0538871680e+00 
193900 6.8012155750e+00 -1.4323911592e-04 2.9178655794e+00 -5.0538914332e+00 2.9178655794e+00 5.0538914332e+00 
194000 6.8012155703e+00 -1.4277244304e-04 2.9178680339e+00 -5.0538956846e+00 2.9178680339e+00 5.0538956846e+00 
194100 6.8012155655e+00 -1.4230730473e-04 2.9178704805e+00 -5.0538999221e+00 2.9178704805e+00 5.0538999221e+00 
194200 6.8012155608e+00 -1.4184369586e-04 2.9178729190e+00 -5.0539041458e+00 2.9178729190e+00 5.0539041458e+00 
194300 6.8012155562e+00 -1.4138161131e-04 2.9178753496e+00 -5.0539083557e+00 2.9178753496e+00 5.0539083557e+00 
194400 6.8012155515e+00 -1.4092104600e-04 2.9178777723e+00 -5.0539125519e+00 2.9178777723e+00 5.0539125519e+00 
194500 6.8012155469e+00 -1.4046199483e-04 2.9178801871e+00 -5.0539167344e+00 2.9178801871e+00 5.0539167344e+00 
194600 6.8012155423e+00 -1.4000445274e-04 2.9178825940e+00 -5.0539209033e+00 2.9178825940e+00 5.0539209033e+00 
194700 6.8012155378e+00 -1.3954841469e-04 2.9178849931e+00 -5.0539250587e+00 2.9178849931e+00 5.0539250587e+00 
194800 6.8012155333e+00 -1.3909387566e-04 2.9178873843e+00 -5.0539292004e+00 2.9178873843e+00 5.0539292004e+00 
194900 6.8012155288e+00 -1.3864083062e-04 2.9178897678e+00 -5.0539333287e+00 2.9178897678e+00 5.0539333287e+00 
195000 6.8012155243e+00 -1.3818927460e-04 2.9178921435e+00 -5.0539374436e+00 2.9178921435e+00 5.0539374436e+00 
195100 6.8012155199e+00 -1.3773920260e-04 2.9178945115e+00 -5.0539415450e+00 2.9178945115e+00 5.0539415450e+00 
195200 6.8012155155e+00 -1.3729060968e-04 2.9178968717e+00 -5.0539456331e+00 2.9178968717e+00 5.0539456331e+00 
195300 6.8012155111e+00 -1.3684349089e-04 2.9178992243e+00 -5.0539497078e+00 2.9178992243e+00 5.0539497078e+00 
195400 6.8012155067e+00 -1.3639784130e-04 2.9179015692e+00 -5.0539537693e+00 2.9179015692e+00 5.0539537693e+00 
195500 6.8012155024e+00 -1.3595365601e-04 2.9179039064e+00 -5.0539578176e+00 2.9179039064e+00 5.0539578176e+00 
195600 6.8012154981e+00 -1.3551093012e-04 2.9179062361e+00 -5.0539618526e+00 2.9179062361e+00 5.0539618526e+00 
195700 6.8012154939e+00 -1.3506965877e-04 2.9179085581e+00 -5.0539658746e+00 2.9179085581e+00 5.0539658746e+00 
195800 6.8012154896e+00 -1.3462983710e-04 2.9179108726e+00 -5.0539698834e+00 2.9179108726e+00 5.0539698834e+00 
195900 6.8012154854e+00 -1.3419146026e-04 2.9179131796e+00 -5.0539738791e+00 2.9179131796e+00 5.0539738791e+00 
196000 6.8012154812e+00 -1.3375452342e-04 2.9179154790e+00 -5.0539778619e+00 2.9179154790e+00 5.0539778619e+00 
196100 6.8012154771e+00 -1.3331902179e-04 2.9179177710e+00 -5.0539818317e+00 2.9179177710e+00 5.0539818317e+00 
196200 6.8012154730e+00 -1.3288495057e-04 2.9179200555e+00 -5.0539857885e+00 2.9179200555e+00 5.0539857885e+00 
196300 6.8012154689e+00 -1.3245230498e-04 2.9179223325e+00 -5.0539897325e+00 2.9179223325e+00 5.0539897325e+00 
196400 6.8012154648e+00 -1.3202108027e-04 2.9179246022e+00 -5.0539936636e+00 2.9179246022e+00 5.0539936636e+00 
196500 6.8012154607e+00 -1.3159127170e-04 2.9179268644e+00 -5.0539975819e+00 2.9179268644e+00 5.0539975819e+00 
196600 6.8012154567e+00 -1.3116287453e-04 2.9179291193e+00 -5.0540014875e+00 2.9179291193e+00 5.0540014875e+00 
196700 6.8012154527e+00 -1.3073588407e-04 2.9179313668e+00 -5.0540053803e+00 2.9179313668e+00 5.0540053803e+00 
196800 6.8012154487e+00 -1.3031029561e-04 2.9179336070e+00 -5.0540092605e+00 2.9179336070e+00 5.0540092605e+00 
196900 6.8012154448e+00 -1.2988610448e-04 2.9179358400e+00 -5.0540131280e+00 2.9179358400e+00 5.0540131280e+00 
197000 6.8012154409e+00 -1.2946330602e-04 2.9179380656e+00 -5.0540169830e+00 2.9179380656e+00 5.0540169830e+00 
197100 6.8012154370e+00 -1.2904189558e-04 2.9179402840e+00 -5.0540208254e+00 2.9179402840e+00 5.0540208254e+00 
197200 6.8012154331e+00 -1.2862186854e-04 2.9179424952e+00 -5.0540246552e+00 2.9179424952e+00 5.0540246552e+00 
197300 6.8012154293e+00 -1.2820322027e-04 2.9179446992e+00 -5.0540284727e+00 2.9179446992e+00 5.0540284727e+00 
197400 6.8012154255e+00 -1.2778594619e-04 2.9179468960e+00 -5.0540322776e+00 2.9179468960e+00 5.0540322776e+00 
197500 6.8012154217e+00 -1.2737004171e-04 2.9179490856e+00 -5.0540360702e+00 2.9179490856e+00 5.0540360702e+00 
197600 6.8012154179e+00 -1.2695550226e-04 2.9179512682e+00 -5.0540398505e+00 2.9179512682e+00 5.0540398505e+00 
197700 6.8012154141e+00 -1.2654232330e-04 2.9179534436e+00 -5.0540436184e+00 2.9179534436e+00 5.0540436184e+00 
197800 6.8012154104e+00 -1.2613050029e-04 2.9179556119e+00 -5.0540473741e+00 2.9179556119e+00 5.0540473741e+00 
197900 6.8012154067e+00 -1.2572002871e-04 2.9179577732e+00 -5.0540511175e+00 2.9179577732e+00 5.0540511175e+00 
198000 6.8012154031e+00 -1.2531090405e-04 2.9179599275e+00 -5.0540548488e+00 2.9179599275e+00 5.0540548488e+00 
198100 6.8012153994e+00 -1.2490312183e-04 2.9179620747e+00 -5.0540585679e+00 2.9179620747e+00 5.0540585679e+00 
198200 6.8012153958e+00 -1.2449667757e-04 2.9179642149e+00 -5.0540622749e+00 2.9179642149e+00 5.0540622749e+00 
198300 6.8012153922e+00 -1.2409156682e-04 2.9179663482e+00 -5.0540659699e+00 2.9179663482e+00 5.0540659699e+00 
198400 6.8012153886e+00 -1.2368778514e-04 2.9179684746e+00 -5.0540696528e+00 2.9179684746e+00 5.0540696528e+00 
198500 6.8012153850e+00 -1.2328532809e-04 2.9179705940e+00 -5.0540733238e+00 2.9179705940e+00 5.0540733238e+00 
198600 6.8012153815e+00 -1.2288419126e-04 2.9179727065e+00 -5.0540769827e+00 2.9179727065e+00 5.0540769827e+00 
198700 6.8012153780e+00 -1.2248437026e-04 2.9179748121e+00 -5.0540806298e+00 2.9179748121e+00 5.0540806298e+00 
198800 6.8012153745e+00 -1.2208586071e-04 2.9179769109e+00 -5.0540842650e+00 2.9179769109e+00 5.0540842650e+00 
198900 6.8012153710e+00 -1.2168865824e-04 2.9179790029e+00 -5.0540878884e+00 2.9179790029e+00 5.0540878884e+00 
199000 6.8012153676e+00 -1.2129275849e-04 2.9179810880e+00 -5.0540915000e+00 2.9179810880e+00 5.0540915000e+00 
199100 6.8012153642e+00 -1.2089815713e-04 2.9179831664e+00 -5.0540950999e+00 2.9179831664e+00 5.0540950999e+00 
199200 6.8012153608e+00 -1.2050484984e-04 2.9179852380e+00 -5.0540986880e+00 2.9179852380e+00 5.0540986880e+00 
199300 6.8012153574e+00 -1.2011283230e-04 2.9179873029e+00 -5.0541022644e+00 2.9179873029e+00 5.0541022644e+00 
199400 6.8012153541e+00 -1.1972210023e-04 2.9179893610e+00 -5.0541058292e+00 2.9179893610e+00 5.0541058292e+00 
199500 6.8012153507e+00 -1.1933264935e-04 2.9179914125e+00 -5.0541093825e+00 2.9179914125e+00 5.0541093825e+00 
199600 6.8012153474e+00 -1.1894447539e-04 2.9179934572e+00 -5.0541129241e+00 2.9179934572e+00 5.0541129241e+00 
199700 6.8012153441e+00 -1.1855757411e-04 2.9179954954e+00 -5.0541164542e+00 2.9179954954e+00 5.0541164542e+00 
199800 6.8012153408e+00 -1.1817194127e-04 2.9179975269e+00 -5.0541199729e+00 2.9179975269e+00 5.0541199729e+00 
199900 6.8012153376e+00 -1.1778757264e-04 2.9179995517e+00 -5.0541234801e+00 2.9179995517e+00 5.0541234801e+00 
200000 6.8012153344e+00 -1.1740446404e-04 2.9180015700e+00 -5.0541269759e+00 2.9180015700e+00 5.0541269759e+00 
200100 6.8012153312e+00 -1.1702261125e-04 2.9180035818e+00 -5.0541304603e+00 2.9180035818e+00 5.0541304603e+00 
200200 6.8012153280e+00 -1.1664201011e-04 2.9180055869e+00 -5.0541339334e+00 2.9180055869e+00 5.0541339334e+00 
200300 6.8012153248e+00 -1.1626265646e-04 2.9180075856e+00 -5.0541373951e+00 2.9180075856e+00 5.0541373951e+00 
200400 6.8012153217e+00 -1.1588454614e-04 2.9180095778e+00 -5.0541408457e+00 2.9180095778e+00 5.0541408457e+00 
200500 6.8012153186e+00 -1.1550767502e-04 2.9180115634e+00 -5.0541442850e+00 2.9180115634e+00 5.0541442850e+00 
200600 6.8012153154e+00 -1.1513203898e-04 2.9180135427e+00 -5.0541477131e+00 2.9180135427e+00 5.0541477131e+00 
200700 6.8012153124e+00 -1.1475763391e-04 2.9180155154e+00 -5.0541511300e+00 2.9180155154e+00 5.0541511300e+00 
200800 6.8012153093e+00 -1.1438445573e-04 2.9180174818e+00 -5.0541545359e+00 2.9180174818e+00 5.0541545359e+00 
200900 6.8012153063e+00 -1.1401250034e-04 2.9180194418e+00 -5.0541579306e+00 2.9180194418e+00 5.0541579306e+00 
201000 6.8012153032e+00 -1.1364176370e-04 2.9180213954e+00 -5.0541613143e+00 2.9180213954e+00 5.0541613143e+00 
201100 6.8012153002e+00 -1.1327224175e-04 2.9180233426e+00 -5.0541646871e+00 2.9180233426e+00 5.0541646871e+00 
201200 6.8012152972e+00 -1.1290393044e-04 2.9180252835e+00 -5.0541680488e+00 2.9180252835e+00 5.0541680488e+00 
201300 6.8012152943e+00 -1.1253682577e-04 2.9180272181e+00 -5.0541713996e+00 2.9180272181e+00 5.0541713996e+00 
201400 6.8012152913e+00 -1.1217092371e-04 2.9180291464e+00 -5.0541747396e+00 2.9180291464e+00 5.0541747396e+00 
201500 6.8012152884e+00 -1.1180622028e-04 2.9180310684e+00 -5.0541780686e+00 2.9180310684e+00 5.0541780686e+00 
201600 6.8012152855e+00 -1.1144271149e-04 2.9180329842e+00 -5.0541813868e+00 2.9180329842e+00 5.0541813868e+00 
201700 6.8012152826e+00 -1.1108039337e-04 2.9180348938e+00 -5.0541846943e+00 2.9180348938e+00 5.0541846943e+00 
201800 6.8012152797e+00 -1.1071926198e-04 2.9180367971e+00 -5.0541879910e+00 2.9180367971e+00 5.0541879910e+00 
201900 6.8012152769e+00 -1.1035931335e-04 2.9180386943e+00 -5.0541912769e+00 2.9180386943e+00 5.0541912769e+00 
202000 6.8012152740e+00 -1.1000054358e-04 2.9180405853e+00 -5.0541945522e+00 2.9180405853e+00 5.0541945522e+00 
202100 6.8012152712e+00 -1.0964294874e-04 2.9180424701e+00 -5.0541978169e+00 2.9180424701e+00 5.0541978169e+00 
202200 6.8012152684e+00 -1.0928652493e-04 2.9180443488e+00 -5.0542010709e+00 2.9180443488e+00 5.0542010709e+00 
202300 6.8012152657e+00 -1.0893126827e-04 2.9180462214e+00 -5.0542043143e+00 2.9180462214e+00 5.0542043143e+00 
202400 6.8012152629e+00 -1.0857717488e-04 2.9180480879e+00 -5.0542075472e+00 2.9180480879e+00 5.0542075472e+00 
202500 6.8012152601e+00 -1.0822424090e-04 2.9180499484e+00 -5.0542107696e+00 2.9180499484e+00 5.0542107696e+00 
202600 6.8012152574e+00 -1.0787246248e-04 2.9180518027e+00 -5.0542139815e+00 2.9180518027e+00 5.0542139815e+00 
202700 6.8012152547e+00 -1.0752183578e-04 2.9180536511e+00 -5.0542171829e+00 2.9180536511e+00 5.0542171829e+00 
202800 6.8012152520e+00 -1.0717235698e-04 2.9180554935e+00 -5.0542203740e+00 2.9180554935e+00 5.0542203740e+00 
202900 6.8012152493e+00 -1.0682402228e-04 2.9180573298e+00 -5.0542235547e+00 2.9180573298e+00 5.0542235547e+00 
203000 6.8012152467e+00 -1.0647682787e-04 2.9180591602e+00 -5.0542267250e+00 2.9180591602e+00 5.0542267250e+00 
203100 6.8012152441e+00 -1.0613076998e-04 2.9180609847e+00 -5.0542298850e+00 2.9180609847e+00 5.0542298850e+00 
203200 6.8012152414e+00 -1.0578584483e-04 2.9180628032e+00 -5.0542330348e+00 2.9180628032e+00 5.0542330348e+00 
203300 6.8012152388e+00 -1.0544204866e-04 2.9180646158e+00 -5.0542361743e+00 2.9180646158e+00 5.0542361743e+00 
203400 6.8012152362e+00 -1.0509937773e-04 2.9180664225e+00 -5.0542393036e+00 2.9180664225e+00 5.0542393036e+00 
203500 6.8012152337e+00 -1.0475782831e-04 2.9180682233e+00 -5.0542424228e+00 2.9180682233e+00 5.0542424228e+00 
203600 6.8012152311e+00 -1.0441739667e-04 2.9180700183e+00 -5.0542455318e+00 2.9180700183e+00 5.0542455318e+00 
203700 6.8012152286e+00 -1.0407807912e-04 2.9180718075e+00 -5.0542486307e+00 2.9180718075e+00 5.0542486307e+00 
203800 6.8012152260e+00 -1.0373987195e-04 2.9180735908e+00 -5.0542517195e+00 2.9180735908e+00 5.0542517195e+00 
203900 6.8012152235e+00 -1.0340277148e-04 2.9180753684e+00 -5.0542547983e+00 2.9180753684e+00 5.0542547983e+00 
204000 6.8012152211e+00 -1.0306677405e-04 2.9180771401e+00 -5.0542578671e+00 2.9180771401e+00 5.0542578671e+00 
204100 6.8012152186e+00 -1.0273187600e-04 2.9180789061e+00 -5.0542609259e+00 2.9180789061e+00 5.0542609259e+00 
204200 6.8012152161e+00 -1.0239807368e-04 2.9180806664e+00 -5.0542639748e+00 2.9180806664e+00 5.0542639748e+00 
204300 6.8012152137e+00 -1.0206536345e-04 2.9180824209e+00 -5.0542670137e+00 2.9180824209e+00 5.0542670137e+00 
204400 6.8012152113e+00 -1.0173374171e-04 2.9180841698e+00 -5.0542700428e+00 2.9180841698e+00 5.0542700428e+00 
204500 6.8012152088e+00 -1.0140320485e-04 2.9180859129e+00 -5.0542730621e+00 2.9180859129e+00 5.0542730621e+00 
204600 6.8012152064e+00 -1.0107374926e-04 2.9180876504e+00 -5.0542760715e+00 2.9180876504e+00 5.0542760715e+00 
204700 6.8012152041e+00 -1.0074537136e-04 2.9180893823e+00 -5.0542790712e+00 2.9180893823e+00 5.0542790712e+00 
204800 6.8012152017e+00 -1.0041806760e-04 2.9180911085e+00 -5.0542820611e+00 2.9180911085e+00 5.0542820611e+00 
204900 6.8012151994e+00 -1.0009183440e-04 2.9180928291e+00 -5.0542850412e+00 2.9180928291e+00 5.0542850412e+00 
205000 6.8012151970e+00 -9.9766668209e-05 2.9180945441e+00 -5.0542880118e+00 2.9180945441e+00 5.0542880118e+00 
205100 6.8012151947e+00 -9.9442565506e-05 2.9180962536e+00 -5.0542909726e+00 2.9180962536e+00 5.0542909726e+00 
205200 6.8012151924e+00 -9.9119522765e-05 2.9180979575e+00 -5.0542939238e+00 2.9180979575e+00 5.0542939238e+00 
205300 6.8012151901e+00 -9.8797536474e-05 2.9180996559e+00 -5.0542968655e+00 2.9180996559e+00 5.0542968655e+00 
205400 6.8012151878e+00 -9.8476603132e-05 2.9181013487e+00 -5.0542997976e+00 2.9181013487e+00 5.0542997976e+00 
205500 6.8012151856e+00 -9.8156719255e-05 2.9181030360e+00 -5.0543027201e+00 2.9181030360e+00 5.0543027201e+00 
205600 6.8012151833e+00 -9.7837881366e-05 2.9181047179e+00 -5.0543056332e+00 2.9181047179e+00 5.0543056332e+00 
205700 6.8012151811e+00 -9.7520086001e-05 2.9181063943e+00 -5.0543085368e+00 2.9181063943e+00 5.0543085368e+00 
205800 6.8012151789e+00 -9.7203329710e-05 2.9181080652e+00 -5.0543114310e+00 2.9181080652e+00 5.0543114310e+00 
205900 6.8012151767e+00 -9.6887609052e-05 2.9181097308e+00 -5.0543143157e+00 2.9181097308e+00 5.0543143157e+00 
206000 6.8012151745e+00 -9.6572920602e-05 2.9181113909e+00 -5.0543171911e+00 2.9181113909e+00 5.0543171911e+00 
206100 6.8012151723e+00 -9.6259260935e-05 2.9181130456e+00 -5.0543200572e+00 2.9181130456e+00 5.0543200572e+00 
206200 6.8012151702e+00 -9.5946626653e-05 2.9181146949e+00 -5.0543229139e+00 2.9181146949e+00 5.0543229139e+00 
206300 6.8012151680e+00 -9.5635014360e-05 2.9181163389e+00 -5.0543257614e+00 2.9181163389e+00 5.0543257614e+00 
206400 6.8012151659e+00 -9.5324420672e-05 2.9181179775e+00 -5.0543285996e+00 2.9181179775e+00 5.0543285996e+00 
206500 6.8012151638e+00 -9.5014842221e-05 2.9181196109e+00 -5.0543314286e+00 2.9181196109e+00 5.0543314286e+00 
206600 6.8012151617e+00 -9.4706275645e-05 2.9181212389e+00 -5.0543342484e+00 2.9181212389e+00 5.0543342484e+00 
206700 6.8012151596e+00 -9.4398717599e-05 2.9181228616e+00 -5.0543370590e+00 2.9181228616e+00 5.0543370590e+00 
206800 6.8012151575e+00 -9.4092164744e-05 2.9181244791e+00 -5.0543398605e+00 2.9181244791e+00 5.0543398605e+00 
206900 6.8012151554e+00 -9.3786613755e-05 2.9181260913e+00 -5.0543426530e+00 2.9181260913e+00 5.0543426530e+00 
207000 6.8012151534e+00 -9.3482061316e-05 2.9181276982e+00 -5.0543454363e+00 2.9181276982e+00 5.0543454363e+00 
207100 6.8012151514e+00 -9.3178504128e-05 2.9181293000e+00 -5.0543482106e+00 2.9181293000e+00 5.0543482106e+00 
207200 6.8012151493e+00 -9.2875938898e-05 2.9181308965e+00 -5.0543509759e+00 2.9181308965e+00 5.0543509759e+00 
207300 6.8012151473e+00 -9.2574362343e-05 2.9181324879e+00 -5.0543537322e+00 2.9181324879e+00 5.0543537322e+00 
207400 6.8012151453e+00 -9.2273771193e-05 2.9181340741e+00 -5.0543564796e+00 2.9181340741e+00 5.0543564796e+00 
207500 6.8012151433e+00 -9.1974162194e-05 2.9181356551e+00 -5.0543592180e+00 2.9181356551e+00 5.0543592180e+00 
207600 6.8012151414e+00 -9.1675532096e-05 2.9181372310e+00 -5.0543619476e+00 2.9181372310e+00 5.0543619476e+00 
207700 6.8012151394e+00 -9.1377877662e-05 2.9181388018e+00 -5.0543646683e+00 2.9181388018e+00 5.0543646683e+00 
207800 6.8012151375e+00 -9.1081195666e-05 2.9181403675e+00 -5.0543673801e+00 2.9181403675e+00 5.0543673801e+00 
207900 6.8012151355e+00 -9.0785482894e-05 2.9181419281e+00 -5.0543700832e+00 2.9181419281e+00 5.0543700832e+00 
208000 6.8012151336e+00 -9.0490736143e-05 2.9181434836e+00 -5.0543727774e+00 2.9181434836e+00 5.0543727774e+00 
208100 6.8012151317e+00 -9.0196952219e-05 2.9181450341e+00 -5.0543754630e+00 2.9181450341e+00 5.0543754630e+00 
208200 6.8012151298e+00 -8.9904127939e-05 2.9181465796e+00 -5.0543781398e+00 2.9181465796e+00 5.0543781398e+00 
208300 6.8012151279e+00 -8.9612260132e-05 2.9181481200e+00 -5.0543808079e+00 2.9181481200e+00 5.0543808079e+00 
208400 6.8012151260e+00 -8.9321345636e-05 2.9181496554e+00 -5.0543834673e+00 2.9181496554e+00 5.0543834673e+00 
208500 6.8012151242e+00 -8.9031381304e-05 2.9181511859e+00 -5.0543861181e+00 2.9181511859e+00 5.0543861181e+00 
208600 6.8012151223e+00 -8.8742363995e-05 2.9181527114e+00 -5.0543887603e+00 2.9181527114e+00 5.0543887603e+00 
208700 6.8012151205e+00 -8.8454290577e-05 2.9181542319e+00 -5.0543913939e+00 2.9181542319e+00 5.0543913939e+00 
208800 6.8012151187e+00 -8.8167157940e-05 2.9181557475e+00 -5.0543940190e+00 2.9181557475e+00 5.0543940190e+00 
208900 6.8012151169e+00 -8.7880962967e-05 2.9181572581e+00 -5.0543966356e+00 2.9181572581e+00 5.0543966356e+00 
209000 6.8012151151e+00 -8.7595702563e-05 2.9181587639e+00 -5.0543992436e+00 2.9181587639e+00 5.0543992436e+00 
209100 6.8012151133e+00 -8.7311373645e-05 2.9181602648e+00 -5.0544018432e+00 2.9181602648e+00 5.0544018432e+00 
209200 6.8012151115e+00 -8.7027973131e-05 2.9181617608e+00 -5.0544044344e+00 2.9181617608e+00 5.0544044344e+00 
209300 6.8012151097e+00 -8.6745497959e-05 2.9181632519e+00 -5.0544070171e+00 2.9181632519e+00 5.0544070171e+00 
209400 6.8012151080e+00 -8.6463945074e-05 2.9181647382e+00 -5.0544095914e+00 2.9181647382e+00 5.0544095914e+00 
209500 6.8012151062e+00 -8.6183311426e-05 2.9181662197e+00 -5.0544121574e+00 2.9181662197e+00 5.0544121574e+00 
209600 6.8012151045e+00 -8.5903593982e-05 2.9181676964e+00 -5.0544147151e+00 2.9181676964e+00 5.0544147151e+00 
209700 6.8012151028e+00 -8.5624789716e-05 2.9181691682e+00 -5.0544172645e+00 2.9181691682e+00 5.0544172645e+00 
209800 6.8012151011e+00 -8.5346895616e-05 2.9181706353e+00 -5.0544198056e+00 2.9181706353e+00 5.0544198056e+00 
209900 6.8012150994e+00 -8.5069908676e-05 2.9181720977e+00 -5.0544223384e+00 2.9181720977e+00 5.0544223384e+00 
210000 6.8012150977e+00 -8.4793825900e-05 2.9181735553e+00 -5.0544248630e+00 2.9181735553e+00 5.0544248630e+00 
210100 6.8012150960e+00 -8.4518644306e-05 2.9181750081e+00 -5.0544273794e+00 2.9181750081e+00 5.0544273794e+00 
210200 6.8012150943e+00 -8.4244360917e-05 2.9181764563e+00 -5.0544298877e+00 2.9181764563e+00 5.0544298877e+00 
210300 6.8012150927e+00 -8.3970972772e-05 2.9181778997e+00 -5.0544323878e+00 2.9181778997e+00 5.0544323878e+00 
210400 6.8012150910e+00 -8.3698476911e-05 2.9181793385e+00 -5.0544348798e+00 2.9181793385e+00 5.0544348798e+00 
210500 6.8012150894e+00 -8.3426870397e-05 2.9181807725e+00 -5.0544373637e+00 2.9181807725e+00 5.0544373637e+00 
210600 6.8012150878e+00 -8.3156150291e-05 2.9181822020e+00 -5.0544398396e+00 2.9181822020e+00 5.0544398396e+00 
210700 6.8012150862e+00 -8.2886313668e-05 2.9181836268e+00 -5.0544423074e+00 2.9181836268e+00 5.0544423074e+00 
210800 6.8012150846e+00 -8.2617357617e-05 2.9181850469e+00 -5.0544447672e+00 2.9181850469e+00 5.0544447672e+00 
210900 6.8012150830e+00 -8.2349279228e-05 2.9181864625e+00 -5.0544472190e+00 2.9181864625e+00 5.0544472190e+00 
211000 6.8012150814e+00 -8.2082075610e-05 2.9181878735e+00 -5.0544496629e+00 2.9181878735e+00 5.0544496629e+00 
211100 6.8012150798e+00 -8.1815743873e-05 2.9181892799e+00 -5.0544520988e+00 2.9181892799e+00 5.0544520988e+00 
211200 6.8012150783e+00 -8.1550281146e-05 2.9181906817e+00 -5.0544545269e+00 2.9181906817e+00 5.0544545269e+00 
211300 6.8012150767e+00 -8.1285684560e-05 2.9181920790e+00 -5.0544569470e+00 2.9181920790e+00 5.0544569470e+00 
211400 6.8012150752e+00 -8.1021951260e-05 2.9181934717e+00 -5.0544593593e+00 2.9181934717e+00 5.0544593593e+00 
211500 6.8012150736e+00 -8.0759078397e-05 2.9181948599e+00 -5.0544617638e+00 2.9181948599e+00 5.0544617638e+00 
211600 6.8012150721e+00 -8.0497063137e-05 2.9181962436e+00 -5.0544641604e+00 2.9181962436e+00 5.0544641604e+00 
211700 6.8012150706e+00 -8.0235902650e-05 2.9181976229e+00 -5.0544665493e+00 2.9181976229e+00 5.0544665493e+00 
211800 6.8012150691e+00 -7.9975594119e-05 2.9181989976e+00 -5.0544689305e+00 2.9181989976e+00 5.0544689305e+00 
211900 6.8012150676e+00 -7.9716134734e-05 2.9182003679e+00 -5.0544713039e+00 2.9182003679e+00 5.0544713039e+00 
212000 6.8012150661e+00 -7.9457521698e-05 2.9182017338e+00 -5.0544736696e+00 2.9182017338e+00 5.0544736696e+00 
212100 6.8012150647e+00 -7.9199752216e-05 2.9182030952e+00 -5.0544760276e+00 2.9182030952e+00 5.0544760276e+00 
212200 6.8012150632e+00 -7.8942823513e-05 2.9182044522e+00 -5.0544783780e+00 2.9182044522e+00 5.0544783780e+00 
212300 6.8012150617e+00 -7.8686732817e-05 2.9182058048e+00 -5.0544807208e+00 2.9182058048e+00 5.0544807208e+00 
212400 6.8012150603e+00 -7.8431477364e-05 2.9182071530e+00 -5.0544830559e+00 2.9182071530e+00 5.0544830559e+00 
212500 6.8012150589e+00 -7.8177054400e-05 2.9182084968e+00 -5.0544853835e+00 2.9182084968e+00 5.0544853835e+00 
212600 6.8012150574e+00 -7.7923461187e-05 2.9182098363e+00 -5.0544877035e+00 2.9182098363e+00 5.0544877035e+00 
212700 6.8012150560e+00 -7.7670694988e-05 2.9182111714e+00 -5.0544900160e+00 2.9182111714e+00 5.0544900160e+00 
212800 6.8012150546e+00 -7.7418753079e-05 2.9182125022e+00 -5.0544923210e+00 2.9182125022e+00 5.0544923210e+00 
212900 6.8012150532e+00 -7.7167632742e-05 2.9182138286e+00 -5.0544946186e+00 2.9182138286e+00 5.0544946186e+00 
213000 6.8012150518e+00 -7.6917331271e-05 2.9182151508e+00 -5.0544969086e+00 2.9182151508e+00 5.0544969086e+00 
213100 6.8012150504e+00 -7.6667845970e-05 2.9182164687e+00 -5.0544991913e+00 2.9182164687e+00 5.0544991913e+00 
213200 6.8012150491e+00 -7.6419174149e-05 2.9182177823e+00 -5.0545014665e+00 2.9182177823e+00 5.0545014665e+00 
213300 6.8012150477e+00 -7.6171313131e-05 2.9182190917e+00 -5.0545037344e+00 2.9182190917e+00 5.0545037344e+00 
213400 6.8012150463e+00 -7.5924260242e-05 2.9182203968e+00 -5.0545059949e+00 2.9182203968e+00 5.0545059949e+00 
213500 6.8012150450e+00 -7.5678012822e-05 2.9182216976e+00 -5.0545082480e+00 2.9182216976e+00 5.0545082480e+00 
213600 6.8012150437e+00 -7.5432568218e-05 2.9182229943e+00 -5.0545104939e+00 2.9182229943e+00 5.0545104939e+00 
213700 6.8012150423e+00 -7.5187923787e-05 2.9182242867e+00 -5.0545127325e+00 2.9182242867e+00 5.0545127325e+00 
213800 6.8012150410e+00 -7.4944076893e-05 2.9182255750e+00 -5.0545149638e+00 2.9182255750e+00 5.0545149638e+00 
213900 6.8012150397e+00 -7.4701024912e-05 2.9182268590e+00 -5.0545171878e+00 2.9182268590e+00 5.0545171878e+00 
214000 6.8012150384e+00 -7.4458765226e-05 2.9182281389e+00 -5.0545194047e+00 2.9182281389e+00 5.0545194047e+00 
214100 6.8012150371e+00 -7.4217295227e-05 2.9182294147e+00 -5.0545216144e+00 2.9182294147e+00 5.0545216144e+00 
214200 6.8012150358e+00 -7.3976612313e-05 2.9182306863e+00 -5.0545238169e+00 2.9182306863e+00 5.0545238169e+00 
214300 6.8012150345e+00 -7.3736713894e-05 2.9182319538e+00 -5.0545260122e+00 2.9182319538e+00 5.0545260122e+00 
214400 6.8012150333e+00 -7.3497597391e-05 2.9182332172e+00 -5.0545282005e+00 2.9182332172e+00 5.0545282005e+00 
214500 6.8012150320e+00 -7.3259260228e-05 2.9182344765e+00 -5.0545303816e+00 2.9182344765e+00 5.0545303816e+00 
214600 6.8012150308e+00 -7.3021699835e-05 2.9182357317e+00 -5.0545325557e+00 2.9182357317e+00 5.0545325557e+00 
214700 6.8012150295e+00 -7.2784913664e-05 2.9182369828e+00 -5.0545347227e+00 2.9182369828e+00 5.0545347227e+00 
214800 6.8012150283e+00 -7.2548899161e-05 2.9182382298e+00 -5.0545368827e+00 2.9182382298e+00 5.0545368827e+00 
214900 6.8012150271e+00 -7.2313653793e-05 2.9182394729e+00 -5.0545390357e+00 2.9182394729e+00 5.0545390357e+00 
215000 6.8012150258e+00 -7.2079175025e-05 2.9182407119e+00 -5.0545411817e+00 2.9182407119e+00 5.0545411817e+00 
215100 6.8012150246e+00 -7.1845460334e-05 2.9182419468e+00 -5.0545433207e+00 2.9182419468e+00 5.0545433207e+00 
215200 6.8012150234e+00 -7.1612507207e-05 2.9182431778e+00 -5.0545454528e+00 2.9182431778e+00 5.0545454528e+00 
215300 6.8012150222e+00 -7.1380313140e-05 2.9182444048e+00 -5.0545475780e+00 2.9182444048e+00 5.0545475780e+00 
215400 6.8012150210e+00 -7.1148875634e-05 2.9182456278e+00 -5.0545496963e+00 2.9182456278e+00 5.0545496963e+00 
215500 6.8012150198e+00 -7.0918192201e-05 2.9182468468e+00 -5.0545518077e+00 2.9182468468e+00 5.0545518077e+00 
215600 6.8012150187e+00 -7.0688260362e-05 2.9182480619e+00 -5.0545539123e+00 2.9182480619e+00 5.0545539123e+00 
215700 6.8012150176e+00 -7.1310910428e-05 2.9182480619e+00 -5.0545539123e+00 2.9182480619e+00 5.0545539123e+00 
215800 6.8012150164e+00 -7.1082489539e-05 2.9182492837e+00 -5.0545560286e+00 2.9182492837e+00 5.0545560286e+00 
215900 6.8012150153e+00 -7.0853567357e-05 2.9182505016e+00 -5.0545581380e+00 2.9182505016e+00 5.0545581380e+00 
216000 6.8012150141e+00 -7.0624479883e-05 2.9182517156e+00 -5.0545602407e+00 2.9182517156e+00 5.0545602407e+00 
216100 6.8012150130e+00 -7.1246533583e-05 2.9182517156e+00 -5.0545602407e+00 2.9182517156e+00 5.0545602407e+00 
216200 6.8012150119e+00 -7.1017786700e-05 2.9182529363e+00 -5.0545623550e+00 2.9182529363e+00 5.0545623550e+00 
216300 6.8012150108e+00 -7.0788169916e-05 2.9182541531e+00 -5.0545644625e+00 2.9182541531e+00 5.0545644625e+00 
216400 6.8012150097e+00 -7.0558111209e-05 2.9182553659e+00 -5.0545665633e+00 2.9182553659e+00 5.0545665633e+00 
216500 6.8012150086e+00 -7.1178184832e-05 2.9182553659e+00 -5.0545665633e+00 2.9182553659e+00 5.0545665633e+00 
216600 6.8012150075e+00 -7.0948095008e-05 2.9182565855e+00 -5.0545686756e+00 2.9182565855e+00 5.0545686756e+00 
216700 6.8012150064e+00 -7.0717009763e-05 2.9182578011e+00 -5.0545707810e+00 2.9182578011e+00 5.0545707810e+00 
216800 6.8012150053e+00 -7.0485381875e-05 2.9182590127e+00 -5.0545728796e+00 2.9182590127e+00 5.0545728796e+00 
216900 6.8012150043e+00 -7.1102927576e-05 2.9182590127e+00 -5.0545728796e+00 2.9182590127e+00 5.0545728796e+00 
217000 6.8012150032e+00 -7.0871114630e-05 2.9182602309e+00 -5.0545749897e+00 2.9182602309e+00 5.0545749897e+00 
217100 6.8012150022e+00 -7.0638245331e-05 2.9182614452e+00 -5.0545770929e+00 2.9182614452e+00 5.0545770929e+00 
217200 6.8012150012e+00 -7.1256011217e-05 2.9182614452e+00 -5.0545770929e+00 2.9182614452e+00 5.0545770929e+00 
217300 6.8012150001e+00 -7.1022288633e-05 2.9182626661e+00 -5.0545792075e+00 2.9182626661e+00 5.0545792075e+00 
217400 6.8012149991e+00 -7.0787287860e-05 2.9182638829e+00 -5.0545813151e+00 2.9182638829e+00 5.0545813151e+00 
217500 6.8012149980e+00 -7.0551515961e-05 2.9182650958e+00 -5.0545834158e+00 2.9182650958e+00 5.0545834158e+00 
217600 6.8012149970e+00 -7.1165525743e-05 2.9182650958e+00 -5.0545834158e+00 2.9182650958e+00 5.0545834158e+00 
217700 6.8012149960e+00 -7.0929214400e-05 2.9182663151e+00 -5.0545855277e+00 2.9182663151e+00 5.0545855277e+00 
217800 6.8012149950e+00 -7.0691699832e-05 2.9182675303e+00 -5.0545876326e+00 2.9182675303e+00 5.0545876326e+00 
217900 6.8012149940e+00 -7.1305331401e-05 2.9182675303e+00 -5.0545876326e+00 2.9182675303e+00 5.0545876326e+00 
218000 6.8012149930e+00 -7.1066702034e-05 2.9182687520e+00 -5.0545897487e+00 2.9182687520e+00 5.0545897487e+00 
218100 6.8012149920e+00 -7.0826671429e-05 2.9182699697e+00 -5.0545918577e+00 2.9182699697e+00 5.0545918577e+00 
218200 6.8012149910e+00 -7.0585749203e-05 2.9182711832e+00 -5.0545939595e+00 2.9182711832e+00 5.0545939595e+00 
218300 6.8012149901e+00 -7.1194902708e-05 2.9182711832e+00 -5.0545939595e+00 2.9182711832e+00 5.0545939595e+00 
218400 6.8012149891e+00 -7.0953201134e-05 2.9182724030e+00 -5.0545960723e+00 2.9182724030e+00 5.0545960723e+00 
218500 6.8012149882e+00 -7.0710174631e-05 2.9182736187e+00 -5.0545981779e+00 2.9182736187e+00 5.0545981779e+00 
218600 6.8012149872e+00 -7.1318394793e-05 2.9182736187e+00 -5.0545981779e+00 2.9182736187e+00 5.0545981779e+00 
218700 6.8012149863e+00 -7.1074005129e-05 2.9182748406e+00 -5.0546002943e+00 2.9182748406e+00 5.0546002943e+00 
218800 6.8012149853e+00 -7.0828087043e-05 2.9182760583e+00 -5.0546024035e+00 2.9182760583e+00 5.0546024035e+00 
218900 6.8012149844e+00 -7.0581148296e-05 2.9182772718e+00 -5.0546045054e+00 2.9182772718e+00 5.0546045054e+00 
219000 6.8012149835e+00 -7.1184099907e-05 2.9182772718e+00 -5.0546045054e+00 2.9182772718e+00 5.0546045054e+00 
219100 6.8012149825e+00 -7.0936118213e-05 2.9182784915e+00 -5.0546066179e+00 2.9182784915e+00 5.0546066179e+00 
219200 6.8012149816e+00 -7.0686677705e-05 2.9182797068e+00 -5.0546087230e+00 2.9182797068e+00 5.0546087230e+00 
219300 6.8012149807e+00 -7.1288066393e-05 2.9182797068e+00 -5.0546087230e+00 2.9182797068e+00 5.0546087230e+00 
219400 6.8012149798e+00 -7.1036991257e-05 2.9182809283e+00 -5.0546108385e+00 2.9182809283e+00 5.0546108385e+00 
219500 6.8012149789e+00 -7.0784251352e-05 2.9182821454e+00 -5.0546129466e+00 2.9182821454e+00 5.0546129466e+00 
219600 6.8012149780e+00 -7.0530353981e-05 2.9182833581e+00 -5.0546150472e+00 2.9182833581e+00 5.0546150472e+00 
219700 6.8012149771e+00 -7.1125598599e-05 2.9182833581e+00 -5.0546150472e+00 2.9182833581e+00 5.0546150472e+00 
219800 6.8012149762e+00 -7.0870384368e-05 2.9182845767e+00 -5.0546171579e+00 2.9182845767e+00 5.0546171579e+00 
219900 6.8012149753e+00 -7.0613576049e-05 2.9182857910e+00 -5.0546192610e+00 2.9182857910e+00 5.0546192610e+00 
220000 6.8012149745e+00 -7.1206581943e-05 2.9182857910e+00 -5.0546192610e+00 2.9182857910e+00 5.0546192610e+00 
220100 6.8012149736e+00 -7.0947870480e-05 2.9182870110e+00 -5.0546213741e+00 2.9182870110e+00 5.0546213741e+00 
220200 6.8012149728e+00 -7.0687363300e-05 2.9182882266e+00 -5.0546234796e+00 2.9182882266e+00 5.0546234796e+00 
220300 6.8012149719e+00 -7.1277398625e-05 2.9182882266e+00 -5.0546234796e+00 2.9182882266e+00 5.0546234796e+00 
220400 6.8012149711e+00 -7.1014695239e-05 2.9182894478e+00 -5.0546255948e+00 2.9182894478e+00 5.0546255948e+00 
220500 6.8012149702e+00 -7.0750084965e-05 2.9182906645e+00 -5.0546277022e+00 2.9182906645e+00 5.0546277022e+00 
220600 6.8012149694e+00 -7.0484093108e-05 2.9182918767e+00 -5.0546298018e+00 2.9182918767e+00 5.0546298018e+00 
220700 6.8012149686e+00 -7.1066476730e-05 2.9182918767e+00 -5.0546298018e+00 2.9182918767e+00 5.0546298018e+00 
220800 6.8012149677e+00 -7.0798759762e-05 2.9182930943e+00 -5.0546319107e+00 2.9182930943e+00 5.0546319107e+00 
220900 6.8012149669e+00 -7.0529261346e-05 2.9182943073e+00 -5.0546340117e+00 2.9182943073e+00 5.0546340117e+00 
221000 6.8012149661e+00 -7.1108382822e-05 2.9182943073e+00 -5.0546340117e+00 2.9182943073e+00 5.0546340117e+00 
221100 6.8012149653e+00 -7.0836630718e-05 2.9182955256e+00 -5.0546361219e+00 2.9182955256e+00 5.0546361219e+00 
221200 6.8012149645e+00 -7.0562920232e-05 2.9182967393e+00 -5.0546382240e+00 2.9182967393e+00 5.0546382240e+00 
221300 6.8012149637e+00 -7.1138096889e-05 2.9182967393e+00 -5.0546382240e+00 2.9182967393e+00 5.0546382240e+00 
221400 6.8012149629e+00 -7.0861883594e-05 2.9182979581e+00 -5.0546403351e+00 2.9182979581e+00 5.0546403351e+00 
221500 6.8012149621e+00 -7.0583621914e-05 2.9182991722e+00 -5.0546424380e+00 2.9182991722e+00 5.0546424380e+00 
221600 6.8012149613e+00 -7.1154423030e-05 2.9182991722e+00 -5.0546424380e+00 2.9182991722e+00 5.0546424380e+00 
221700 6.8012149605e+00 -7.0873522564e-05 2.9183003913e+00 -5.0546445495e+00 2.9183003913e+00 5.0546445495e+00 
221800 6.8012149598e+00 -7.0590520950e-05 2.9183016056e+00 -5.0546466528e+00 2.9183016056e+00 5.0546466528e+00 
221900 6.8012149590e+00 -7.1156620260e-05 2.9183016056e+00 -5.0546466528e+00 2.9183016056e+00 5.0546466528e+00 
222000 6.8012149582e+00 -7.0870895465e-05 2.9183028248e+00 -5.0546487644e+00 2.9183028248e+00 5.0546487644e+00 
222100 6.8012149575e+00 -7.0583035321e-05 2.9183040390e+00 -5.0546508675e+00 2.9183040390e+00 5.0546508675e+00 
222200 6.8012149567e+00 -7.1144156096e-05 2.9183040390e+00 -5.0546508675e+00 2.9183040390e+00 5.0546508675e+00 
222300 6.8012149560e+00 -7.0853516448e-05 2.9183052580e+00 -5.0546529788e+00 2.9183052580e+00 5.0546529788e+00 
222400 6.8012149552e+00 -7.0560718532e-05 2.9183064719e+00 -5.0546550814e+00 2.9183064719e+00 5.0546550814e+00 
222500 6.8012149545e+00 -7.1116612671e-05 2.9183064719e+00 -5.0546550814e+00 2.9183064719e+00 5.0546550814e+00 
222600 6.8012149538e+00 -7.0820997691e-05 2.9183076904e+00 -5.0546571918e+00 2.9183076904e+00 5.0546571918e+00 
222700 6.8012149530e+00 -7.0523209888e-05 2.9183089038e+00 -5.0546592935e+00 2.9183089038e+00 5.0546592935e+00 
222800 6.8012149523e+00 -7.1073649903e-05 2.9183089038e+00 -5.0546592935e+00 2.9183089038e+00 5.0546592935e+00 
222900 6.8012149516e+00 -7.0773022451e-05 2.9183101215e+00 -5.0546614026e+00 2.9183101215e+00 5.0546614026e+00 
223000 6.8012149508e+00 -7.0470214776e-05 2.9183113340e+00 -5.0546635029e+00 2.9183113340e+00 5.0546635029e+00 
223100 6.8012149502e+00 -7.1014990853e-05 2.9183113340e+00 -5.0546635029e+00 2.9183113340e+00 5.0546635029e+00 
223200 6.8012149495e+00 -7.0709334329e-05 2.9183125508e+00 -5.0546656103e+00 2.9183125508e+00 5.0546656103e+00 
223300 6.8012149488e+00 -7.1253593026e-05 2.9183125508e+00 -5.0546656103e+00 2.9183125508e+00 5.0546656103e+00 
223400 6.8012149481e+00 -7.0944138537e-05 2.9183137716e+00 -5.0546677248e+00 2.9183137716e+00 5.0546677248e+00 
223500 6.8012149474e+00 -7.0632210017e-05 2.9183149871e+00 -5.0546698301e+00 2.9183149871e+00 5.0546698301e+00 
223600 6.8012149467e+00 -7.1169606264e-05 2.9183149871e+00 -5.0546698301e+00 2.9183149871e+00 5.0546698301e+00 
223700 6.8012149460e+00 -7.0854465774e-05 2.9183162064e+00 -5.0546719421e+00 2.9183162064e+00 5.0546719421e+00 
223800 6.8012149453e+00 -7.0537034607e-05 2.9183174204e+00 -5.0546740447e+00 2.9183174204e+00 5.0546740447e+00 
223900 6.8012149447e+00 -7.1067918007e-05 2.9183174204e+00 -5.0546740447e+00 2.9183174204e+00 5.0546740447e+00 
224000 6.8012149440e+00 -7.0747515214e-05 2.9183186380e+00 -5.0546761537e+00 2.9183186380e+00 5.0546761537e+00 
224100 6.8012149433e+00 -7.0424903728e-05 2.9183198501e+00 -5.0546782532e+00 2.9183198501e+00 5.0546782532e+00 
224200 6.8012149427e+00 -7.0949320576e-05 2.9183198501e+00 -5.0546782532e+00 2.9183198501e+00 5.0546782532e+00 
224300 6.8012149420e+00 -7.0623855632e-05 2.9183210657e+00 -5.0546803586e+00 2.9183210657e+00 5.0546803586e+00 
224400 6.8012149414e+00 -7.1147295459e-05 2.9183210657e+00 -5.0546803586e+00 2.9183210657e+00 5.0546803586e+00 
224500 6.8012149407e+00 -7.0818081657e-05 2.9183222847e+00 -5.0546824699e+00 2.9183222847e+00 5.0546824699e+00 
224600 6.8012149400e+00 -7.0486435113e-05 2.9183234980e+00 -5.0546845715e+00 2.9183234980e+00 5.0546845715e+00 
224700 6.8012149394e+00 -7.1002406428e-05 2.9183234980e+00 -5.0546845715e+00 2.9183234980e+00 5.0546845715e+00 
224800 6.8012149388e+00 -7.0667654179e-05 2.9183247145e+00 -5.0546866785e+00 2.9183247145e+00 5.0546866785e+00 
224900 6.8012149382e+00 -7.1182272572e-05 2.9183247145e+00 -5.0546866785e+00 2.9183247145e+00 5.0546866785e+00 
225000 6.8012149375e+00 -7.0843675885e-05 2.9183259341e+00 -5.0546887909e+00 2.9183259341e+00 5.0546887909e+00 
225100 6.8012149369e+00 -7.0502634235e-05 2.9183271479e+00 -5.0546908932e+00 2.9183271479e+00 5.0546908932e+00 
225200 6.8012149363e+00 -7.1009410371e-05 2.9183271479e+00 -5.0546908932e+00 2.9183271479e+00 5.0546908932e+00 
225300 6.8012149357e+00 -7.0665284607e-05 2.9183283645e+00 -5.0546930004e+00 2.9183283645e+00 5.0546930004e+00 
225400 6.8012149351e+00 -7.1170528057e-05 2.9183283645e+00 -5.0546930004e+00 2.9183283645e+00 5.0546930004e+00 
225500 6.8012149344e+00 -7.0822619438e-05 2.9183295838e+00 -5.0546951125e+00 2.9183295838e+00 5.0546951125e+00 
225600 6.8012149338e+00 -7.0472307040e-05 2.9183307973e+00 -5.0546972141e+00 2.9183307973e+00 5.0546972141e+00 
225700 6.8012149333e+00 -7.0969493457e-05 2.9183307973e+00 -5.0546972141e+00 2.9183307973e+00 5.0546972141e+00 
225800 6.8012149326e+00 -7.0616193677e-05 2.9183320132e+00 -5.0546993202e+00 2.9183320132e+00 5.0546993202e+00 
225900 6.8012149321e+00 -7.1111726363e-05 2.9183320132e+00 -5.0546993202e+00 2.9183320132e+00 5.0546993202e+00 
226000 6.8012149315e+00 -7.0754755869e-05 2.9183332315e+00 -5.0547014305e+00 2.9183332315e+00 5.0547014305e+00 
226100 6.8012149309e+00 -7.0395442657e-05 2.9183344438e+00 -5.0547035301e+00 2.9183344438e+00 5.0547035301e+00 
226200 6.8012149303e+00 -7.0882765248e-05 2.9183344438e+00 -5.0547035301e+00 2.9183344438e+00 5.0547035301e+00 
226300 6.8012149297e+00 -7.0520592722e-05 2.9183356582e+00 -5.0547056336e+00 2.9183356582e+00 5.0547056336e+00 
226400 6.8012149292e+00 -7.1006168943e-05 2.9183356582e+00 -5.0547056336e+00 2.9183356582e+00 5.0547056336e+00 
226500 6.8012149286e+00 -7.0640463406e-05 2.9183368748e+00 -5.0547077407e+00 2.9183368748e+00 5.0547077407e+00 
226600 6.8012149281e+00 -7.1123755455e-05 2.9183368748e+00 -5.0547077407e+00 2.9183368748e+00 5.0547077407e+00 
226700 6.8012149275e+00 -7.0754186370e-05 2.9183380933e+00 -5.0547098513e+00 2.9183380933e+00 5.0547098513e+00 
226800 6.8012149269e+00 -7.0382255081e-05 2.9183393056e+00 -5.0547119510e+00 2.9183393056e+00 5.0547119510e+00 
226900 6.8012149264e+00 -7.0856815327e-05 2.9183393056e+00 -5.0547119510e+00 2.9183393056e+00 5.0547119510e+00 
227000 6.8012149258e+00 -7.0482078203e-05 2.9183405196e+00 -5.0547140537e+00 2.9183405196e+00 5.0547140537e+00 
227100 6.8012149253e+00 -7.0954684211e-05 2.9183405196e+00 -5.0547140537e+00 2.9183405196e+00 5.0547140537e+00 
227200 6.8012149247e+00 -7.0576544317e-05 2.9183417352e+00 -5.0547161593e+00 2.9183417352e+00 5.0547161593e+00 
227300 6.8012149242e+00 -7.1046715506e-05 2.9183417352e+00 -5.0547161593e+00 2.9183417352e+00 5.0547161593e+00 
227400 6.8012149236e+00 -7.0664886874e-05 2.9183429525e+00 -5.0547182676e+00 2.9183429525e+00 5.0547182676e+00 
227500 6.8012149231e+00 -7.1132357336e-05 2.9183429525e+00 -5.0547182676e+00 2.9183429525e+00 5.0547182676e+00 
227600 6.8012149226e+00 -7.0746715786e-05 2.9183441712e+00 -5.0547203785e+00 2.9183441712e+00 5.0547203785e+00 
227700 6.8012149220e+00 -7.0358783452e-05 2.9183453833e+00 -5.0547224779e+00 2.9183453833e+00 5.0547224779e+00 
227800 6.8012149215e+00 -7.0817152316e-05 2.9183453833e+00 -5.0547224779e+00 2.9183453833e+00 5.0547224779e+00 
227900 6.8012149210e+00 -7.0426613536e-05 2.9183465966e+00 -5.0547245794e+00 2.9183465966e+00 5.0547245794e+00 
228000 6.8012149205e+00 -7.0882869469e-05 2.9183465966e+00 -5.0547245794e+00 2.9183465966e+00 5.0547245794e+00 
228100 6.8012149200e+00 -7.0489175567e-05 2.9183478111e+00 -5.0547266829e+00 2.9183478111e+00 5.0547266829e+00 
228200 6.8012149195e+00 -7.0942876178e-05 2.9183478111e+00 -5.0547266829e+00 2.9183478111e+00 5.0547266829e+00 
228300 6.8012149190e+00 -7.0545770075e-05 2.9183490265e+00 -5.0547287881e+00 2.9183490265e+00 5.0547287881e+00 
228400 6.8012149185e+00 -7.0996674111e-05 2.9183490265e+00 -5.0547287881e+00 2.9183490265e+00 5.0547287881e+00 
228500 6.8012149180e+00 -7.0596049836e-05 2.9183502429e+00 -5.0547308950e+00 2.9183502429e+00 5.0547308950e+00 
228600 6.8012149175e+00 -7.1044021192e-05 2.9183502429e+00 -5.0547308950e+00 2.9183502429e+00 5.0547308950e+00 
228700 6.8012149170e+00 -7.0639852133e-05 2.9183514601e+00 -5.0547330032e+00 2.9183514601e+00 5.0547330032e+00 
228800 6.8012149165e+00 -7.1084810559e-05 2.9183514601e+00 -5.0547330032e+00 2.9183514601e+00 5.0547330032e+00 
228900 6.8012149160e+00 -7.0677112367e-05 2.9183526780e+00 -5.0547351127e+00 2.9183526780e+00 5.0547351127e+00 
229000 6.8012149156e+00 -7.1119007810e-05 2.9183526780e+00 -5.0547351127e+00 2.9183526780e+00 5.0547351127e+00 
229100 6.8012149151e+00 -7.0707818884e-05 2.9183538965e+00 -5.0547372231e+00 2.9183538965e+00 5.0547372231e+00 
229200 6.8012149146e+00 -7.1146617878e-05 2.9183538965e+00 -5.0547372231e+00 2.9183538965e+00 5.0547372231e+00 
229300 6.8012149141e+00 -7.0731988924e-05 2.9183551154e+00 -5.0547393344e+00 2.9183551154e+00 5.0547393344e+00 
229400 6.8012149136e+00 -7.0315295047e-05 2.9183563273e+00 -5.0547414334e+00 2.9183563273e+00 5.0547414334e+00 
229500 6.8012149132e+00 -7.0744622728e-05 2.9183563273e+00 -5.0547414334e+00 2.9183563273e+00 5.0547414334e+00 
229600 6.8012149127e+00 -7.0325822179e-05 2.9183575393e+00 -5.0547435328e+00 2.9183575393e+00 5.0547435328e+00 
229700 6.8012149122e+00 -7.0752869495e-05 2.9183575393e+00 -5.0547435328e+00 2.9183575393e+00 5.0547435328e+00 
229800 6.8012149118e+00 -7.0331454234e-05 2.9183587515e+00 -5.0547456324e+00 2.9183587515e+00 5.0547456324e+00 
229900 6.8012149113e+00 -7.0755814142e-05 2.9183587515e+00 -5.0547456324e+00 2.9183587515e+00 5.0547456324e+00 
230000 6.8012149109e+00 -7.0331550668e-05 2.9183599638e+00 -5.0547477320e+00 2.9183599638e+00 5.0547477320e+00 
230100 6.8012149104e+00 -7.0753005279e-05 2.9183599638e+00 -5.0547477320e+00 2.9183599638e+00 5.0547477320e+00 
230200 6.8012149100e+00 -7.0325801726e-05 2.9183611760e+00 -5.0547498316e+00 2.9183611760e+00 5.0547498316e+00 
230300 6.8012149095e+00 -7.0744231687e-05 2.9183611760e+00 -5.0547498316e+00 2.9183611760e+00 5.0547498316e+00 
230400 6.8012149091e+00 -7.0314070308e-05 2.9183623880e+00 -5.0547519310e+00 2.9183623880e+00 5.0547519310e+00 
230500 6.8012149087e+00 -7.0729408540e-05 2.9183623880e+00 -5.0547519310e+00 2.9183623880e+00 5.0547519310e+00 
230600 6.8012149082e+00 -7.0296310986e-05 2.9183635998e+00 -5.0547540299e+00 2.9183635998e+00 5.0547540299e+00 
230700 6.8012149078e+00 -7.0708518773e-05 2.9183635998e+00 -5.0547540299e+00 2.9183635998e+00 5.0547540299e+00 
230800 6.8012149074e+00 -7.1124618177e-05 2.9183635998e+00 -5.0547540299e+00 2.9183635998e+00 5.0547540299e+00 
230900 6.8012149069e+00 -7.0686847460e-05 2.9183648184e+00 -5.0547561405e+00 2.9183648184e+00 5.0547561405e+00 
231000 6.8012149066e+00 -7.1098601503e-05 2.9183648184e+00 -5.0547561405e+00 2.9183648184e+00 5.0547561405e+00 
231100 6.8012149061e+00 -7.0657107625e-05 2.9183660365e+00 -5.0547582504e+00 2.9183660365e+00 5.0547582504e+00 
231200 6.8012149057e+00 -7.1065049869e-05 2.9183660365e+00 -5.0547582504e+00 2.9183660365e+00 5.0547582504e+00 
231300 6.8012149053e+00 -7.0620306346e-05 2.9183672541e+00 -5.0547603592e+00 2.9183672541e+00 5.0547603592e+00 
231400 6.8012149049e+00 -7.1024712640e-05 2.9183672541e+00 -5.0547603592e+00 2.9183672541e+00 5.0547603592e+00 
231500 6.8012149044e+00 -7.0576999467e-05 2.9183684709e+00 -5.0547624669e+00 2.9183684709e+00 5.0547624669e+00 
231600 6.8012149041e+00 -7.0978013057e-05 2.9183684709e+00 -5.0547624669e+00 2.9183684709e+00 5.0547624669e+00 
231700 6.8012149036e+00 -7.0527509553e-05 2.9183696870e+00 -5.0547645732e+00 2.9183696870e+00 5.0547645732e+00 
231800 6.8012149033e+00 -7.0925204478e-05 2.9183696870e+00 -5.0547645732e+00 2.9183696870e+00 5.0547645732e+00 
231900 6.8012149028e+00 -7.0472036646e-05 2.9183709021e+00 -5.0547666779e+00 2.9183709021e+00 5.0547666779e+00 
232000 6.8012149025e+00 -7.0866450288e-05 2.9183709021e+00 -5.0547666779e+00 2.9183709021e+00 5.0547666779e+00 
232100 6.8012149020e+00 -7.0410715359e-05 2.9183721163e+00 -5.0547687808e+00 2.9183721163e+00 5.0547687808e+00 
232200 6.8012149017e+00 -7.0801865428e-05 2.9183721163e+00 -5.0547687808e+00 2.9183721163e+00 5.0547687808e+00 
232300 6.8012149012e+00 -7.0343644821e-05 2.9183733293e+00 -5.0547708819e+00 2.9183733293e+00 5.0547708819e+00 
232400 6.8012149009e+00 -7.0731538437e-05 2.9183733293e+00 -5.0547708819e+00 2.9183733293e+00 5.0547708819e+00 
232500 6.8012149005e+00 -7.0270904773e-05 2.9183745412e+00 -5.0547729808e+00 2.9183745412e+00 5.0547729808e+00 
232600 6.8012149001e+00 -7.0655543462e-05 2.9183745412e+00 -5.0547729808e+00 2.9183745412e+00 5.0547729808e+00 
232700 6.8012148998e+00 -7.1044017273e-05 2.9183745412e+00 -5.0547729808e+00 2.9183745412e+00 5.0547729808e+00 
232800 6.8012148994e+00 -7.0579536934e-05 2.9183757583e+00 -5.0547750890e+00 2.9183757583e+00 5.0547750890e+00 
232900 6.8012148990e+00 -7.0963569965e-05 2.9183757583e+00 -5.0547750890e+00 2.9183757583e+00 5.0547750890e+00 
233000 6.8012148986e+00 -7.0495927594e-05 2.9183769742e+00 -5.0547771949e+00 2.9183769742e+00 5.0547771949e+00 
233100 6.8012148983e+00 -7.0876061625e-05 2.9183769742e+00 -5.0547771949e+00 2.9183769742e+00 5.0547771949e+00 
233200 6.8012148979e+00 -7.0405731086e-05 2.9183781885e+00 -5.0547792981e+00 2.9183781885e+00 5.0547792981e+00 
233300 6.8012148975e+00 -7.0782246443e-05 2.9183781885e+00 -5.0547792981e+00 2.9183781885e+00 5.0547792981e+00 
233400 6.8012148971e+00 -7.0309505426e-05 2.9183794012e+00 -5.0547813986e+00 2.9183794012e+00 5.0547813986e+00 
233500 6.8012148968e+00 -7.0682548116e-05 2.9183794012e+00 -5.0547813986e+00 2.9183794012e+00 5.0547813986e+00 
233600 6.8012148965e+00 -7.1059351335e-05 2.9183794012e+00 -5.0547813986e+00 2.9183794012e+00 5.0547813986e+00 
233700 6.8012148961e+00 -7.0582953192e-05 2.9183806186e+00 -5.0547835072e+00 2.9183806186e+00 5.0547835072e+00 
233800 6.8012148958e+00 -7.0955199065e-05 2.9183806186e+00 -5.0547835072e+00 2.9183806186e+00 5.0547835072e+00 
233900 6.8012148954e+00 -7.0475824269e-05 2.9183818343e+00 -5.0547856128e+00 2.9183818343e+00 5.0547856128e+00 
234000 6.8012148950e+00 -7.0844086027e-05 2.9183818343e+00 -5.0547856128e+00 2.9183818343e+00 5.0547856128e+00 
234100 6.8012148947e+00 -7.0362230551e-05 2.9183830480e+00 -5.0547877151e+00 2.9183830480e+00 5.0547877151e+00 
234200 6.8012148944e+00 -7.0726805836e-05 2.9183830480e+00 -5.0547877151e+00 2.9183830480e+00 5.0547877151e+00 
234300 6.8012148940e+00 -7.0242758575e-05 2.9183842598e+00 -5.0547898139e+00 2.9183842598e+00 5.0547898139e+00 
234400 6.8012148937e+00 -7.0603802991e-05 2.9183842598e+00 -5.0547898139e+00 2.9183842598e+00 5.0547898139e+00 
234500 6.8012148934e+00 -7.0968575327e-05 2.9183842598e+00 -5.0547898139e+00 2.9183842598e+00 5.0547898139e+00 
234600 6.8012148930e+00 -7.0481208037e-05 2.9183854757e+00 -5.0547919199e+00 2.9183854757e+00 5.0547919199e+00 
234700 6.8012148927e+00 -7.0841373188e-05 2.9183854757e+00 -5.0547919199e+00 2.9183854757e+00 5.0547919199e+00 
234800 6.8012148923e+00 -7.0351256486e-05 2.9183866894e+00 -5.0547940221e+00 2.9183866894e+00 5.0547940221e+00 
234900 6.8012148920e+00 -7.0707389627e-05 2.9183866894e+00 -5.0547940221e+00 2.9183866894e+00 5.0547940221e+00 
235000 6.8012148917e+00 -7.1067097886e-05 2.9183866894e+00 -5.0547940221e+00 2.9183866894e+00 5.0547940221e+00 
235100 6.8012148914e+00 -7.0573362876e-05 2.9183879069e+00 -5.0547961310e+00 2.9183879069e+00 5.0547961310e+00 
235200 6.8012148911e+00 -7.0928244514e-05 2.9183879069e+00 -5.0547961310e+00 2.9183879069e+00 5.0547961310e+00 
235300 6.8012148907e+00 -7.0431728651e-05 2.9183891221e+00 -5.0547982358e+00 2.9183891221e+00 5.0547982358e+00 
235400 6.8012148904e+00 -7.0782442575e-05 2.9183891221e+00 -5.0547982358e+00 2.9183891221e+00 5.0547982358e+00 
235500 6.8012148901e+00 -7.0283704334e-05 2.9183903348e+00 -5.0548003362e+00 2.9183903348e+00 5.0548003362e+00 
235600 6.8012148898e+00 -7.0630594161e-05 2.9183903348e+00 -5.0548003362e+00 2.9183903348e+00 5.0548003362e+00 
235700 6.8012148895e+00 -7.0981108557e-05 2.9183903348e+00 -5.0548003362e+00 2.9183903348e+00 5.0548003362e+00 
235800 6.8012148891e+00 -7.0479244447e-05 2.9183915509e+00 -5.0548024426e+00 2.9183915509e+00 5.0548024426e+00 
235900 6.8012148889e+00 -7.0824987322e-05 2.9183915509e+00 -5.0548024426e+00 2.9183915509e+00 5.0548024426e+00 
236000 6.8012148885e+00 -7.0320578232e-05 2.9183927644e+00 -5.0548045443e+00 2.9183927644e+00 5.0548045443e+00 
236100 6.8012148882e+00 -7.0662163682e-05 2.9183927644e+00 -5.0548045443e+00 2.9183927644e+00 5.0548045443e+00 
236200 6.8012148880e+00 -7.1007267150e-05 2.9183927644e+00 -5.0548045443e+00 2.9183927644e+00 5.0548045443e+00 
236300 6.8012148876e+00 -7.0499593765e-05 2.9183939809e+00 -5.0548066514e+00 2.9183939809e+00 5.0548066514e+00 
236400 6.8012148873e+00 -7.0839773487e-05 2.9183939809e+00 -5.0548066514e+00 2.9183939809e+00 5.0548066514e+00 
236500 6.8012148870e+00 -7.0329569868e-05 2.9183951946e+00 -5.0548087536e+00 2.9183951946e+00 5.0548087536e+00 
236600 6.8012148867e+00 -7.0665493111e-05 2.9183951946e+00 -5.0548087536e+00 2.9183951946e+00 5.0548087536e+00 
236700 6.8012148865e+00 -7.1004896928e-05 2.9183951946e+00 -5.0548087536e+00 2.9183951946e+00 5.0548087536e+00 
236800 6.8012148861e+00 -7.0491519346e-05 2.9183964111e+00 -5.0548108606e+00 2.9183964111e+00 5.0548108606e+00 
236900 6.8012148859e+00 -7.0825937433e-05 2.9183964111e+00 -5.0548108606e+00 2.9183964111e+00 5.0548108606e+00 
237000 6.8012148856e+00 -7.0310111499e-05 2.9183976245e+00 -5.0548129624e+00 2.9183976245e+00 5.0548129624e+00 
237100 6.8012148853e+00 -7.0640222554e-05 2.9183976245e+00 -5.0548129624e+00 2.9183976245e+00 5.0548129624e+00 
237200 6.8012148850e+00 -7.0973789733e-05 2.9183976245e+00 -5.0548129624e+00 2.9183976245e+00 5.0548129624e+00 
237300 6.8012148847e+00 -7.0454926678e-05 2.9183988405e+00 -5.0548150685e+00 2.9183988405e+00 5.0548150685e+00 
237400 6.8012148845e+00 -7.0783466394e-05 2.9183988405e+00 -5.0548150685e+00 2.9183988405e+00 5.0548150685e+00 
237500 6.8012148842e+00 -7.0262250845e-05 2.9184000532e+00 -5.0548171690e+00 2.9184000532e+00 5.0548171690e+00 
237600 6.8012148839e+00 -7.0586444493e-05 2.9184000532e+00 -5.0548171690e+00 2.9184000532e+00 5.0548171690e+00 
237700 6.8012148836e+00 -7.0914071483e-05 2.9184000532e+00 -5.0548171690e+00 2.9184000532e+00 5.0548171690e+00 
237800 6.8012148833e+00 -7.0389965374e-05 2.9184012682e+00 -5.0548192733e+00 2.9184012682e+00 5.0548192733e+00 
237900 6.8012148831e+00 -7.0712529219e-05 2.9184012682e+00 -5.0548192733e+00 2.9184012682e+00 5.0548192733e+00 
238000 6.8012148828e+00 -7.0186169711e-05 2.9184024797e+00 -5.0548213717e+00 2.9184024797e+00 5.0548213717e+00 
238100 6.8012148825e+00 -7.0504352704e-05 2.9184024797e+00 -5.0548213717e+00 2.9184024797e+00 5.0548213717e+00 
238200 6.8012148823e+00 -7.0825945868e-05 2.9184024797e+00 -5.0548213717e+00 2.9184024797e+00 5.0548213717e+00 
238300 6.8012148820e+00 -7.0296845221e-05 2.9184036931e+00 -5.0548234734e+00 2.9184036931e+00 5.0548234734e+00 
238400 6.8012148818e+00 -7.0613343409e-05 2.9184036931e+00 -5.0548234734e+00 2.9184036931e+00 5.0548234734e+00 
238500 6.8012148815e+00 -7.0933037411e-05 2.9184036931e+00 -5.0548234734e+00 2.9184036931e+00 5.0548234734e+00 
238600 6.8012148812e+00 -7.0400588094e-05 2.9184049084e+00 -5.0548255783e+00 2.9184049084e+00 5.0548255783e+00 
238700 6.8012148810e+00 -7.0714894453e-05 2.9184049084e+00 -5.0548255783e+00 2.9184049084e+00 5.0548255783e+00 
238800 6.8012148807e+00 -7.0180137646e-05 2.9184061199e+00 -5.0548276768e+00 2.9184061199e+00 5.0548276768e+00 
238900 6.8012148805e+00 -7.0489862365e-05 2.9184061199e+00 -5.0548276768e+00 2.9184061199e+00 5.0548276768e+00 
239000 6.8012148802e+00 -7.0802923143e-05 2.9184061199e+00 -5.0548276768e+00 2.9184061199e+00 5.0548276768e+00 
239100 6.8012148800e+00 -7.0265504433e-05 2.9184073329e+00 -5.0548297778e+00 2.9184073329e+00 5.0548297778e+00 
239200 6.8012148797e+00 -7.0573356459e-05 2.9184073329e+00 -5.0548297778e+00 2.9184073329e+00 5.0548297778e+00 
239300 6.8012148795e+00 -7.0884355565e-05 2.9184073329e+00 -5.0548297778e+00 2.9184073329e+00 5.0548297778e+00 
239400 6.8012148792e+00 -7.0343753589e-05 2.9184085474e+00 -5.0548318813e+00 2.9184085474e+00 5.0548318813e+00 
239500 6.8012148790e+00 -7.0649287415e-05 2.9184085474e+00 -5.0548318813e+00 2.9184085474e+00 5.0548318813e+00 
239600 6.8012148788e+00 -7.0957890304e-05 2.9184085474e+00 -5.0548318813e+00 2.9184085474e+00 5.0548318813e+00 
239700 6.8012148785e+00 -7.0413945735e-05 2.9184097631e+00 -5.0548339869e+00 2.9184097631e+00 5.0548339869e+00 
239800 6.8012148783e+00 -7.0716965828e-05 2.9184097631e+00 -5.0548339869e+00 2.9184097631e+00 5.0548339869e+00 
239900 6.8012148780e+00 -7.0170822069e-05 2.9184109746e+00 -5.0548360854e+00 2.9184109746e+00 5.0548360854e+00 
240000 6.8012148778e+00 -7.0469118595e-05 2.9184109746e+00 -5.0548360854e+00 2.9184109746e+00 5.0548360854e+00 
240100 6.8012148776e+00 -7.0770690920e-05 2.9184109746e+00 -5.0548360854e+00 2.9184109746e+00 5.0548360854e+00 
240200 6.8012148773e+00 -7.0222116063e-05 2.9184121871e+00 -5.0548381855e+00 2.9184121871e+00 5.0548381855e+00 
240300 6.8012148771e+00 -7.0518376475e-05 2.9184121871e+00 -5.0548381855e+00 2.9184121871e+00 5.0548381855e+00 
240400 6.8012148769e+00 -7.0817733500e-05 2.9184121871e+00 -5.0548381855e+00 2.9184121871e+00 5.0548381855e+00 
240500 6.8012148766e+00 -7.0266243318e-05 2.9184134004e+00 -5.0548402870e+00 2.9184134004e+00 5.0548402870e+00 
240600 6.8012148764e+00 -7.0560049080e-05 2.9184134004e+00 -5.0548402870e+00 2.9184134004e+00 5.0548402870e+00 
240700 6.8012148762e+00 -7.0856876541e-05 2.9184134004e+00 -5.0548402870e+00 2.9184134004e+00 5.0548402870e+00 
240800 6.8012148759e+00 -7.0302327122e-05 2.9184146144e+00 -5.0548423896e+00 2.9184146144e+00 5.0548423896e+00 
240900 6.8012148757e+00 -7.0593494555e-05 2.9184146144e+00 -5.0548423896e+00 2.9184146144e+00 5.0548423896e+00 
241000 6.8012148755e+00 -7.0887647997e-05 2.9184146144e+00 -5.0548423896e+00 2.9184146144e+00 5.0548423896e+00 
241100 6.8012148753e+00 -7.0330024291e-05 2.9184158289e+00 -5.0548444932e+00 2.9184158289e+00 5.0548444932e+00 
241200 6.8012148751e+00 -7.0618459411e-05 2.9184158289e+00 -5.0548444932e+00 2.9184158289e+00 5.0548444932e+00 
241300 6.8012148749e+00 -7.0909859853e-05 2.9184158289e+00 -5.0548444932e+00 2.9184158289e+00 5.0548444932e+00 
241400 6.8012148746e+00 -7.0349196986e-05 2.9184170437e+00 -5.0548465974e+00 2.9184170437e+00 5.0548465974e+00 
241500 6.8012148744e+00 -7.0634840976e-05 2.9184170437e+00 -5.0548465974e+00 2.9184170437e+00 5.0548465974e+00 
241600 6.8012148742e+00 -7.0923435254e-05 2.9184170437e+00 -5.0548465974e+00 2.9184170437e+00 5.0548465974e+00 
241700 6.8012148740e+00 -7.0359788248e-05 2.9184182588e+00 -5.0548487020e+00 2.9184182588e+00 5.0548487020e+00 
241800 6.8012148738e+00 -7.0642596217e-05 2.9184182588e+00 -5.0548487020e+00 2.9184182588e+00 5.0548487020e+00 
241900 6.8012148736e+00 -7.0928341381e-05 2.9184182588e+00 -5.0548487020e+00 2.9184182588e+00 5.0548487020e+00 
242000 6.8012148734e+00 -7.0361773107e-05 2.9184194740e+00 -5.0548508068e+00 2.9184194740e+00 5.0548508068e+00 
242100 6.8012148732e+00 -7.0641705604e-05 2.9184194740e+00 -5.0548508068e+00 2.9184194740e+00 5.0548508068e+00 
242200 6.8012148730e+00 -7.0924562636e-05 2.9184194740e+00 -5.0548508068e+00 2.9184194740e+00 5.0548508068e+00 
242300 6.8012148728e+00 -7.0355139004e-05 2.9184206891e+00 -5.0548529114e+00 2.9184206891e+00 5.0548529114e+00 
242400 6.8012148726e+00 -7.0632158615e-05 2.9184206891e+00 -5.0548529114e+00 2.9184206891e+00 5.0548529114e+00 
242500 6.8012148724e+00 -7.0912089984e-05 2.9184206891e+00 -5.0548529114e+00 2.9184206891e+00 5.0548529114e+00 
242600 6.8012148721e+00 -7.0339878085e-05 2.9184219040e+00 -5.0548550157e+00 2.9184219040e+00 5.0548550157e+00 
242700 6.8012148720e+00 -7.0613948243e-05 2.9184219040e+00 -5.0548550157e+00 2.9184219040e+00 5.0548550157e+00 
242800 6.8012148718e+00 -7.0890917087e-05 2.9184219040e+00 -5.0548550157e+00 2.9184219040e+00 5.0548550157e+00 
242900 6.8012148716e+00 -7.0315984705e-05 2.9184231186e+00 -5.0548571194e+00 2.9184231186e+00 5.0548571194e+00 
243000 6.8012148714e+00 -7.0587069427e-05 2.9184231186e+00 -5.0548571194e+00 2.9184231186e+00 5.0548571194e+00 
243100 6.8012148712e+00 -7.0861039527e-05 2.9184231186e+00 -5.0548571194e+00 2.9184231186e+00 5.0548571194e+00 
243200 6.8012148710e+00 -7.0283455195e-05 2.9184243326e+00 -5.0548592221e+00 2.9184243326e+00 5.0548592221e+00 
243300 6.8012148708e+00 -7.0551519301e-05 2.9184243326e+00 -5.0548592221e+00 2.9184243326e+00 5.0548592221e+00 
243400 6.8012148706e+00 -7.0822455343e-05 2.9184243326e+00 -5.0548592221e+00 2.9184243326e+00 5.0548592221e+00 
243500 6.8012148704e+00 -7.0242288675e-05 2.9184255460e+00 -5.0548613237e+00 2.9184255460e+00 5.0548613237e+00 
243600 6.8012148702e+00 -7.0507298190e-05 2.9184255460e+00 -5.0548613237e+00 2.9184255460e+00 5.0548613237e+00 
243700 6.8012148701e+00 -7.0775166229e-05 2.9184255460e+00 -5.0548613237e+00 2.9184255460e+00 5.0548613237e+00 
243800 6.8012148698e+00 -7.0192488341e-05 2.9184267585e+00 -5.0548634240e+00 2.9184267585e+00 5.0548634240e+00 
243900 6.8012148697e+00 -7.0454410966e-05 2.9184267585e+00 -5.0548634240e+00 2.9184267585e+00 5.0548634240e+00 
244000 6.8012148695e+00 -7.0719178896e-05 2.9184267585e+00 -5.0548634240e+00 2.9184267585e+00 5.0548634240e+00 
244100 6.8012148693e+00 -7.0134062806e-05 2.9184279701e+00 -5.0548655225e+00 2.9184279701e+00 5.0548655225e+00 
244200 6.8012148691e+00 -7.0392868396e-05 2.9184279701e+00 -5.0548655225e+00 2.9184279701e+00 5.0548655225e+00 
244300 6.8012148690e+00 -7.0654506411e-05 2.9184279701e+00 -5.0548655225e+00 2.9184279701e+00 5.0548655225e+00 
244400 6.8012148688e+00 -7.0918473115e-05 2.9184279701e+00 -5.0548655225e+00 2.9184279701e+00 5.0548655225e+00 
244500 6.8012148686e+00 -7.0329776717e-05 2.9184291851e+00 -5.0548676270e+00 2.9184291851e+00 5.0548676270e+00 
244600 6.8012148684e+00 -7.0587098627e-05 2.9184291851e+00 -5.0548676270e+00 2.9184291851e+00 5.0548676270e+00 
244700 6.8012148683e+00 -7.0847051798e-05 2.9184291851e+00 -5.0548676270e+00 2.9184291851e+00 5.0548676270e+00 
244800 6.8012148681e+00 -7.0255417388e-05 2.9184303989e+00 -5.0548697293e+00 2.9184303989e+00 5.0548697293e+00 
244900 6.8012148679e+00 -7.0509103166e-05 2.9184303989e+00 -5.0548697293e+00 2.9184303989e+00 5.0548697293e+00 
245000 6.8012148678e+00 -7.0765526366e-05 2.9184303989e+00 -5.0548697293e+00 2.9184303989e+00 5.0548697293e+00 
245100 6.8012148675e+00 -7.0171418717e-05 2.9184316113e+00 -5.0548718292e+00 2.9184316113e+00 5.0548718292e+00 
245200 6.8012148674e+00 -7.0421711975e-05 2.9184316113e+00 -5.0548718292e+00 2.9184316113e+00 5.0548718292e+00 
245300 6.8012148672e+00 -7.0674776080e-05 2.9184316113e+00 -5.0548718292e+00 2.9184316113e+00 5.0548718292e+00 
245400 6.8012148671e+00 -7.0930115085e-05 2.9184316113e+00 -5.0548718292e+00 2.9184316113e+00 5.0548718292e+00 
245500 6.8012148669e+00 -7.0332602304e-05 2.9184328265e+00 -5.0548739340e+00 2.9184328265e+00 5.0548739340e+00 
245600 6.8012148667e+00 -7.0581203212e-05 2.9184328265e+00 -5.0548739340e+00 2.9184328265e+00 5.0548739340e+00 
245700 6.8012148666e+00 -7.0832394983e-05 2.9184328265e+00 -5.0548739340e+00 2.9184328265e+00 5.0548739340e+00 
245800 6.8012148664e+00 -7.0232137345e-05 2.9184340401e+00 -5.0548760359e+00 2.9184340401e+00 5.0548760359e+00 
245900 6.8012148662e+00 -7.0476989431e-05 2.9184340401e+00 -5.0548760359e+00 2.9184340401e+00 5.0548760359e+00 
246000 6.8012148661e+00 -7.0724543499e-05 2.9184340401e+00 -5.0548760359e+00 2.9184340401e+00 5.0548760359e+00 
246100 6.8012148659e+00 -7.0122025829e-05 2.9184352518e+00 -5.0548781346e+00 2.9184352518e+00 5.0548781346e+00 
246200 6.8012148658e+00 -7.0363387798e-05 2.9184352518e+00 -5.0548781346e+00 2.9184352518e+00 5.0548781346e+00 
246300 6.8012148656e+00 -7.0607486696e-05 2.9184352518e+00 -5.0548781346e+00 2.9184352518e+00 5.0548781346e+00 
246400 6.8012148655e+00 -7.0853827135e-05 2.9184352518e+00 -5.0548781346e+00 2.9184352518e+00 5.0548781346e+00 
246500 6.8012148653e+00 -7.0248201947e-05 2.9184364657e+00 -5.0548802372e+00 2.9184364657e+00 5.0548802372e+00 
246600 6.8012148651e+00 -7.0487749950e-05 2.9184364657e+00 -5.0548802372e+00 2.9184364657e+00 5.0548802372e+00 
246700 6.8012148650e+00 -7.0729855238e-05 2.9184364657e+00 -5.0548802372e+00 2.9184364657e+00 5.0548802372e+00 
246800 6.8012148648e+00 -7.0121713589e-05 2.9184376774e+00 -5.0548823360e+00 2.9184376774e+00 5.0548823360e+00 
246900 6.8012148647e+00 -7.0357428641e-05 2.9184376774e+00 -5.0548823360e+00 2.9184376774e+00 5.0548823360e+00 
247000 6.8012148645e+00 -7.0595811853e-05 2.9184376774e+00 -5.0548823360e+00 2.9184376774e+00 5.0548823360e+00 
247100 6.8012148644e+00 -7.0836380693e-05 2.9184376774e+00 -5.0548823360e+00 2.9184376774e+00 5.0548823360e+00 
247200 6.8012148642e+00 -7.0225147406e-05 2.9184388910e+00 -5.0548844381e+00 2.9184388910e+00 5.0548844381e+00 
247300 6.8012148641e+00 -7.0458840292e-05 2.9184388910e+00 -5.0548844381e+00 2.9184388910e+00 5.0548844381e+00 
247400 6.8012148640e+00 -7.0695055651e-05 2.9184388910e+00 -5.0548844381e+00 2.9184388910e+00 5.0548844381e+00 
247500 6.8012148638e+00 -7.0933347760e-05 2.9184388910e+00 -5.0548844381e+00 2.9184388910e+00 5.0548844381e+00 
247600 6.8012148636e+00 -7.0318586648e-05 2.9184401063e+00 -5.0548865430e+00 2.9184401063e+00 5.0548865430e+00 
247700 6.8012148635e+00 -7.0549843478e-05 2.9184401063e+00 -5.0548865430e+00 2.9184401063e+00 5.0548865430e+00 
247800 6.8012148634e+00 -7.0783575275e-05 2.9184401063e+00 -5.0548865430e+00 2.9184401063e+00 5.0548865430e+00 
247900 6.8012148632e+00 -7.0166343558e-05 2.9184413190e+00 -5.0548886434e+00 2.9184413190e+00 5.0548886434e+00 
248000 6.8012148631e+00 -7.0393549871e-05 2.9184413190e+00 -5.0548886434e+00 2.9184413190e+00 5.0548886434e+00 
248100 6.8012148629e+00 -7.0623373625e-05 2.9184413190e+00 -5.0548886434e+00 2.9184413190e+00 5.0548886434e+00 
248200 6.8012148628e+00 -7.0855337349e-05 2.9184413190e+00 -5.0548886434e+00 2.9184413190e+00 5.0548886434e+00 
248300 6.8012148626e+00 -7.0235228157e-05 2.9184425329e+00 -5.0548907460e+00 2.9184425329e+00 5.0548907460e+00 
248400 6.8012148625e+00 -7.0460232088e-05 2.9184425329e+00 -5.0548907460e+00 2.9184425329e+00 5.0548907460e+00 
248500 6.8012148624e+00 -7.0687721448e-05 2.9184425329e+00 -5.0548907460e+00 2.9184425329e+00 5.0548907460e+00 
248600 6.8012148623e+00 -7.0917251808e-05 2.9184425329e+00 -5.0548907460e+00 2.9184425329e+00 5.0548907460e+00 
248700 6.8012148621e+00 -7.0293887746e-05 2.9184437479e+00 -5.0548928504e+00 2.9184437479e+00 5.0548928504e+00 
248800 6.8012148620e+00 -7.0516316251e-05 2.9184437479e+00 -5.0548928504e+00 2.9184437479e+00 5.0548928504e+00 
248900 6.8012148619e+00 -7.0741185664e-05 2.9184437479e+00 -5.0548928504e+00 2.9184437479e+00 5.0548928504e+00 
249000 6.8012148617e+00 -7.0115568390e-05 2.9184449599e+00 -5.0548949496e+00 2.9184449599e+00 5.0548949496e+00 
249100 6.8012148616e+00 -7.0333851402e-05 2.9184449599e+00 -5.0548949496e+00 2.9184449599e+00 5.0548949496e+00 
249200 6.8012148615e+00 -7.0554717822e-05 2.9184449599e+00 -5.0548949496e+00 2.9184449599e+00 5.0548949496e+00 
249300 6.8012148613e+00 -7.0777690452e-05 2.9184449599e+00 -5.0548949496e+00 2.9184449599e+00 5.0548949496e+00 
249400 6.8012148612e+00 -7.0149492088e-05 2.9184461725e+00 -5.0548970499e+00 2.9184461725e+00 5.0548970499e+00 
249500 6.8012148611e+00 -7.0365449395e-05 2.9184461725e+00 -5.0548970499e+00 2.9184461725e+00 5.0548970499e+00 
249600 6.8012148609e+00 -7.0583857642e-05 2.9184461725e+00 -5.0548970499e+00 2.9184461725e+00 5.0548970499e+00 
249700 6.8012148608e+00 -7.0804272884e-05 2.9184461725e+00 -5.0548970499e+00 2.9184461725e+00 5.0548970499e+00 
249800 6.8012148607e+00 -7.0173121411e-05 2.9184473855e+00 -5.0548991509e+00 2.9184473855e+00 5.0548991509e+00 
249900 6.8012148605e+00 -7.0386384492e-05 2.9184473855e+00 -5.0548991509e+00 2.9184473855e+00 5.0548991509e+00 
250000 6.8012148604e+00 -7.0602053773e-05 2.9184473855e+00 -5.0548991509e+00 2.9184473855e+00 5.0548991509e+00 
250100 6.8012148603e+00 -7.0819694419e-05 2.9184473855e+00 -5.0548991509e+00 2.9184473855e+00 5.0548991509e+00 
250200 6.8012148602e+00 -7.0185553417e-05 2.9184485988e+00 -5.0549012524e+00 2.9184485988e+00 5.0549012524e+00 
250300 6.8012148601e+00 -7.0395986734e-05 2.9184485988e+00 -5.0549012524e+00 2.9184485988e+00 5.0549012524e+00 
250400 6.8012148599e+00 -7.0608806080e-05 2.9184485988e+00 -5.0549012524e+00 2.9184485988e+00 5.0549012524e+00 
250500 6.8012148598e+00 -7.0823579224e-05 2.9184485988e+00 -5.0549012524e+00 2.9184485988e+00 5.0549012524e+00 
250600 6.8012148597e+00 -7.0186508131e-05 2.9184498122e+00 -5.0549033541e+00 2.9184498122e+00 5.0549033541e+00 
250700 6.8012148596e+00 -7.0394043564e-05 2.9184498122e+00 -5.0549033541e+00 2.9184498122e+00 5.0549033541e+00 
250800 6.8012148595e+00 -7.0603951919e-05 2.9184498122e+00 -5.0549033541e+00 2.9184498122e+00 5.0549033541e+00 
250900 6.8012148594e+00 -7.0815801722e-05 2.9184498122e+00 -5.0549033541e+00 2.9184498122e+00 5.0549033541e+00 
251000 6.8012148592e+00 -7.0175889111e-05 2.9184510254e+00 -5.0549054555e+00 2.9184510254e+00 5.0549054555e+00 
251100 6.8012148591e+00 -7.0380479201e-05 2.9184510254e+00 -5.0549054555e+00 2.9184510254e+00 5.0549054555e+00 
251200 6.8012148590e+00 -7.0587430992e-05 2.9184510254e+00 -5.0549054555e+00 2.9184510254e+00 5.0549054555e+00 
251300 6.8012148589e+00 -7.0796313255e-05 2.9184510254e+00 -5.0549054555e+00 2.9184510254e+00 5.0549054555e+00 
251400 6.8012148587e+00 -7.0153657068e-05 2.9184522384e+00 -5.0549075563e+00 2.9184522384e+00 5.0549075563e+00 
251500 6.8012148586e+00 -7.0355261026e-05 2.9184522384e+00 -5.0549075563e+00 2.9184522384e+00 5.0549075563e+00 
251600 6.8012148585e+00 -7.0559215793e-05 2.9184522384e+00 -5.0549075563e+00 2.9184522384e+00 5.0549075563e+00 
251700 6.8012148584e+00 -7.0765090297e-05 2.9184522384e+00 -5.0549075563e+00 2.9184522384e+00 5.0549075563e+00 
251800 6.8012148583e+00 -7.0119791928e-05 2.9184534507e+00 -5.0549096562e+00 2.9184534507e+00 5.0549096562e+00 
251900 6.8012148582e+00 -7.0318371566e-05 2.9184534507e+00 -5.0549096562e+00 2.9184534507e+00 5.0549096562e+00 
252000 6.8012148581e+00 -7.0519291072e-05 2.9184534507e+00 -5.0549096562e+00 2.9184534507e+00 5.0549096562e+00 
252100 6.8012148580e+00 -7.0722119582e-05 2.9184534507e+00 -5.0549096562e+00 2.9184534507e+00 5.0549096562e+00 
252200 6.8012148579e+00 -7.0074282438e-05 2.9184546624e+00 -5.0549117548e+00 2.9184546624e+00 5.0549117548e+00 
252300 6.8012148578e+00 -7.0269801399e-05 2.9184546624e+00 -5.0549117548e+00 2.9184546624e+00 5.0549117548e+00 
252400 6.8012148577e+00 -7.0467649269e-05 2.9184546624e+00 -5.0549117548e+00 2.9184546624e+00 5.0549117548e+00 
252500 6.8012148576e+00 -7.0667395503e-05 2.9184546624e+00 -5.0549117548e+00 2.9184546624e+00 5.0549117548e+00 
252600 6.8012148575e+00 -7.0868728839e-05 2.9184546624e+00 -5.0549117548e+00 2.9184546624e+00 5.0549117548e+00 
252700 6.8012148573e+00 -7.0217393276e-05 2.9184558765e+00 -5.0549138578e+00 2.9184558765e+00 5.0549138578e+00 
252800 6.8012148572e+00 -7.0410985363e-05 2.9184558765e+00 -5.0549138578e+00 2.9184558765e+00 5.0549138578e+00 
252900 6.8012148572e+00 -7.0606778860e-05 2.9184558765e+00 -5.0549138578e+00 2.9184558765e+00 5.0549138578e+00 
253000 6.8012148571e+00 -7.0804374781e-05 2.9184558765e+00 -5.0549138578e+00 2.9184558765e+00 5.0549138578e+00 
253100 6.8012148569e+00 -7.0150229972e-05 2.9184570896e+00 -5.0549159588e+00 2.9184570896e+00 5.0549159588e+00 
253200 6.8012148568e+00 -7.0340354445e-05 2.9184570896e+00 -5.0549159588e+00 2.9184570896e+00 5.0549159588e+00 
253300 6.8012148567e+00 -7.0532754793e-05 2.9184570896e+00 -5.0549159588e+00 2.9184570896e+00 5.0549159588e+00 
253400 6.8012148567e+00 -7.0727009048e-05 2.9184570896e+00 -5.0549159588e+00 2.9184570896e+00 5.0549159588e+00 
253500 6.8012148565e+00 -7.0070489772e-05 2.9184583013e+00 -5.0549180576e+00 2.9184583013e+00 5.0549180576e+00 
253600 6.8012148564e+00 -7.0257341534e-05 2.9184583013e+00 -5.0549180576e+00 2.9184583013e+00 5.0549180576e+00 
253700 6.8012148563e+00 -7.0446481980e-05 2.9184583013e+00 -5.0549180576e+00 2.9184583013e+00 5.0549180576e+00 
253800 6.8012148562e+00 -7.0637483089e-05 2.9184583013e+00 -5.0549180576e+00 2.9184583013e+00 5.0549180576e+00 
253900 6.8012148562e+00 -7.0830035439e-05 2.9184583013e+00 -5.0549180576e+00 2.9184583013e+00 5.0549180576e+00 
254000 6.8012148560e+00 -7.0170350353e-05 2.9184595148e+00 -5.0549201594e+00 2.9184595148e+00 5.0549201594e+00 
254100 6.8012148559e+00 -7.0355099134e-05 2.9184595148e+00 -5.0549201594e+00 2.9184595148e+00 5.0549201594e+00 
254200 6.8012148559e+00 -7.0542015831e-05 2.9184595148e+00 -5.0549201594e+00 2.9184595148e+00 5.0549201594e+00 
254300 6.8012148558e+00 -7.0730702116e-05 2.9184595148e+00 -5.0549201594e+00 2.9184595148e+00 5.0549201594e+00 
254400 6.8012148556e+00 -7.0068502883e-05 2.9184607265e+00 -5.0549222583e+00 2.9184607265e+00 5.0549222583e+00 
254500 6.8012148556e+00 -7.0249664181e-05 2.9184607265e+00 -5.0549222583e+00 2.9184607265e+00 5.0549222583e+00 
254600 6.8012148555e+00 -7.0433068422e-05 2.9184607265e+00 -5.0549222583e+00 2.9184607265e+00 5.0549222583e+00 
254700 6.8012148554e+00 -7.0618294158e-05 2.9184607265e+00 -5.0549222583e+00 2.9184607265e+00 5.0549222583e+00 
254800 6.8012148553e+00 -7.0805036788e-05 2.9184607265e+00 -5.0549222583e+00 2.9184607265e+00 5.0549222583e+00 
254900 6.8012148552e+00 -7.0139812225e-05 2.9184619396e+00 -5.0549243593e+00 2.9184619396e+00 5.0549243593e+00 
255000 6.8012148551e+00 -7.0318696017e-05 2.9184619396e+00 -5.0549243593e+00 2.9184619396e+00 5.0549243593e+00 
255100 6.8012148550e+00 -7.0499721076e-05 2.9184619396e+00 -5.0549243593e+00 2.9184619396e+00 5.0549243593e+00 
255200 6.8012148549e+00 -7.0682490612e-05 2.9184619396e+00 -5.0549243593e+00 2.9184619396e+00 5.0549243593e+00 
255300 6.8012148549e+00 -7.0866717868e-05 2.9184619396e+00 -5.0549243593e+00 2.9184619396e+00 5.0549243593e+00 
255400 6.8012148547e+00 -7.0198188163e-05 2.9184631537e+00 -5.0549264622e+00 2.9184631537e+00 5.0549264622e+00 
255500 6.8012148547e+00 -7.0374464599e-05 2.9184631537e+00 -5.0549264622e+00 2.9184631537e+00 5.0549264622e+00 
255600 6.8012148546e+00 -7.0552853275e-05 2.9184631537e+00 -5.0549264622e+00 2.9184631537e+00 5.0549264622e+00 
255700 6.8012148545e+00 -7.0732962098e-05 2.9184631537e+00 -5.0549264622e+00 2.9184631537e+00 5.0549264622e+00 
255800 6.8012148544e+00 -7.0062112921e-05 2.9184643655e+00 -5.0549285612e+00 2.9184643655e+00 5.0549285612e+00 
255900 6.8012148543e+00 -7.0234610148e-05 2.9184643655e+00 -5.0549285612e+00 2.9184643655e+00 5.0549285612e+00 
256000 6.8012148542e+00 -7.0409311220e-05 2.9184643655e+00 -5.0549285612e+00 2.9184643655e+00 5.0549285612e+00 
256100 6.8012148542e+00 -7.0585796436e-05 2.9184643655e+00 -5.0549285612e+00 2.9184643655e+00 5.0549285612e+00 
256200 6.8012148541e+00 -7.0763762446e-05 2.9184643655e+00 -5.0549285612e+00 2.9184643655e+00 5.0549285612e+00 
256300 6.8012148540e+00 -7.0090223171e-05 2.9184655779e+00 -5.0549306610e+00 2.9184655779e+00 5.0549306610e+00 
256400 6.8012148539e+00 -7.0260266735e-05 2.9184655779e+00 -5.0549306610e+00 2.9184655779e+00 5.0549306610e+00 
256500 6.8012148538e+00 -7.0432416813e-05 2.9184655779e+00 -5.0549306610e+00 2.9184655779e+00 5.0549306610e+00 
256600 6.8012148537e+00 -7.0606277124e-05 2.9184655779e+00 -5.0549306610e+00 2.9184655779e+00 5.0549306610e+00 
256700 6.8012148537e+00 -7.0781561276e-05 2.9184655779e+00 -5.0549306610e+00 2.9184655779e+00 5.0549306610e+00 
256800 6.8012148535e+00 -7.0105080854e-05 2.9184667905e+00 -5.0549327614e+00 2.9184667905e+00 5.0549327614e+00 
256900 6.8012148535e+00 -7.0272359723e-05 2.9184667905e+00 -5.0549327614e+00 2.9184667905e+00 5.0549327614e+00 
257000 6.8012148534e+00 -7.0441716292e-05 2.9184667905e+00 -5.0549327614e+00 2.9184667905e+00 5.0549327614e+00 
257100 6.8012148533e+00 -7.0612759025e-05 2.9184667905e+00 -5.0549327614e+00 2.9184667905e+00 5.0549327614e+00 
257200 6.8012148533e+00 -7.0785205020e-05 2.9184667905e+00 -5.0549327614e+00 2.9184667905e+00 5.0549327614e+00 
257300 6.8012148531e+00 -7.0105824405e-05 2.9184680032e+00 -5.0549348619e+00 2.9184680032e+00 5.0549348619e+00 
257400 6.8012148531e+00 -7.0270230538e-05 2.9184680032e+00 -5.0549348619e+00 2.9184680032e+00 5.0549348619e+00 
257500 6.8012148530e+00 -7.0436699745e-05 2.9184680032e+00 -5.0549348619e+00 2.9184680032e+00 5.0549348619e+00 
257600 6.8012148529e+00 -7.0604841507e-05 2.9184680032e+00 -5.0549348619e+00 2.9184680032e+00 5.0549348619e+00 
257700 6.8012148529e+00 -7.0774373687e-05 2.9184680032e+00 -5.0549348619e+00 2.9184680032e+00 5.0549348619e+00 
257800 6.8012148528e+00 -7.0092197390e-05 2.9184692158e+00 -5.0549369620e+00 2.9184692158e+00 5.0549369620e+00 
257900 6.8012148527e+00 -7.0253667167e-05 2.9184692158e+00 -5.0549369620e+00 2.9184692158e+00 5.0549369620e+00 
258000 6.8012148526e+00 -7.0417188271e-05 2.9184692158e+00 -5.0549369620e+00 2.9184692158e+00 5.0549369620e+00 
258100 6.8012148526e+00 -7.0582370459e-05 2.9184692158e+00 -5.0549369620e+00 2.9184692158e+00 5.0549369620e+00 
258200 6.8012148525e+00 -7.0748931785e-05 2.9184692158e+00 -5.0549369620e+00 2.9184692158e+00 5.0549369620e+00 
258300 6.8012148524e+00 -7.0064080027e-05 2.9184704279e+00 -5.0549390614e+00 2.9184704279e+00 5.0549390614e+00 
258400 6.8012148523e+00 -7.0222560554e-05 2.9184704279e+00 -5.0549390614e+00 2.9184704279e+00 5.0549390614e+00 
258500 6.8012148523e+00 -7.0383081079e-05 2.9184704279e+00 -5.0549390614e+00 2.9184704279e+00 5.0549390614e+00 
258600 6.8012148522e+00 -7.0545251546e-05 2.9184704279e+00 -5.0549390614e+00 2.9184704279e+00 5.0549390614e+00 
258700 6.8012148521e+00 -7.0708790157e-05 2.9184704279e+00 -5.0549390614e+00 2.9184704279e+00 5.0549390614e+00 
258800 6.8012148521e+00 -7.0873492706e-05 2.9184704279e+00 -5.0549390614e+00 2.9184704279e+00 5.0549390614e+00 
258900 6.8012148520e+00 -7.0185121424e-05 2.9184716421e+00 -5.0549411645e+00 2.9184716421e+00 5.0549411645e+00 
259000 6.8012148519e+00 -7.0341446705e-05 2.9184716421e+00 -5.0549411645e+00 2.9184716421e+00 5.0549411645e+00 
259100 6.8012148518e+00 -7.0499723953e-05 2.9184716421e+00 -5.0549411645e+00 2.9184716421e+00 5.0549411645e+00 
259200 6.8012148518e+00 -7.0659583610e-05 2.9184716421e+00 -5.0549411645e+00 2.9184716421e+00 5.0549411645e+00 
259300 6.8012148517e+00 -7.0820758753e-05 2.9184716421e+00 -5.0549411645e+00 2.9184716421e+00 5.0549411645e+00 
259400 6.8012148516e+00 -7.0129602135e-05 2.9184728554e+00 -5.0549432661e+00 2.9184728554e+00 5.0549432661e+00 
259500 6.8012148515e+00 -7.0282588600e-05 2.9184728554e+00 -5.0549432661e+00 2.9184728554e+00 5.0549432661e+00 
259600 6.8012148515e+00 -7.0437577162e-05 2.9184728554e+00 -5.0549432661e+00 2.9184728554e+00 5.0549432661e+00 
259700 6.8012148514e+00 -7.0594181614e-05 2.9184728554e+00 -5.0549432661e+00 2.9184728554e+00 5.0549432661e+00 
259800 6.8012148514e+00 -7.0752122940e-05 2.9184728554e+00 -5.0549432661e+00 2.9184728554e+00 5.0549432661e+00 
259900 6.8012148513e+00 -7.0058572211e-05 2.9184740675e+00 -5.0549453655e+00 2.9184740675e+00 5.0549453655e+00 
260000 6.8012148512e+00 -7.0208353610e-05 2.9184740675e+00 -5.0549453655e+00 2.9184740675e+00 5.0549453655e+00 
260100 6.8012148511e+00 -7.0360137465e-05 2.9184740675e+00 -5.0549453655e+00 2.9184740675e+00 5.0549453655e+00 
260200 6.8012148511e+00 -7.0513534445e-05 2.9184740675e+00 -5.0549453655e+00 2.9184740675e+00 5.0549453655e+00 
260300 6.8012148510e+00 -7.0668263259e-05 2.9184740675e+00 -5.0549453655e+00 2.9184740675e+00 5.0549453655e+00 
260400 6.8012148510e+00 -7.0824120037e-05 2.9184740675e+00 -5.0549453655e+00 2.9184740675e+00 5.0549453655e+00 
260500 6.8012148509e+00 -7.0127461965e-05 2.9184752809e+00 -5.0549474672e+00 2.9184752809e+00 5.0549474672e+00 
260600 6.8012148508e+00 -7.0274877478e-05 2.9184752809e+00 -5.0549474672e+00 2.9184752809e+00 5.0549474672e+00 
260700 6.8012148508e+00 -7.0424208716e-05 2.9184752809e+00 -5.0549474672e+00 2.9184752809e+00 5.0549474672e+00 
260800 6.8012148507e+00 -7.0575086438e-05 2.9184752809e+00 -5.0549474672e+00 2.9184752809e+00 5.0549474672e+00 
260900 6.8012148507e+00 -7.0727243969e-05 2.9184752809e+00 -5.0549474672e+00 2.9184752809e+00 5.0549474672e+00 
261000 6.8012148505e+00 -7.0028161029e-05 2.9184764926e+00 -5.0549495659e+00 2.9184764926e+00 5.0549495659e+00 
261100 6.8012148505e+00 -7.0172072921e-05 2.9184764926e+00 -5.0549495659e+00 2.9184764926e+00 5.0549495659e+00 
261200 6.8012148504e+00 -7.0317950408e-05 2.9184764926e+00 -5.0549495659e+00 2.9184764926e+00 5.0549495659e+00 
261300 6.8012148504e+00 -7.0465407926e-05 2.9184764926e+00 -5.0549495659e+00 2.9184764926e+00 5.0549495659e+00 
261400 6.8012148503e+00 -7.0614167022e-05 2.9184764926e+00 -5.0549495659e+00 2.9184764926e+00 5.0549495659e+00 
261500 6.8012148503e+00 -7.0764025979e-05 2.9184764926e+00 -5.0549495659e+00 2.9184764926e+00 5.0549495659e+00 
261600 6.8012148502e+00 -7.0062067678e-05 2.9184777050e+00 -5.0549516658e+00 2.9184777050e+00 5.0549516658e+00 
261700 6.8012148501e+00 -7.0203442581e-05 2.9184777050e+00 -5.0549516658e+00 2.9184777050e+00 5.0549516658e+00 
261800 6.8012148501e+00 -7.0346708108e-05 2.9184777050e+00 -5.0549516658e+00 2.9184777050e+00 5.0549516658e+00 
261900 6.8012148500e+00 -7.0491496101e-05 2.9184777050e+00 -5.0549516658e+00 2.9184777050e+00 5.0549516658e+00 
262000 6.8012148500e+00 -7.0637540760e-05 2.9184777050e+00 -5.0549516658e+00 2.9184777050e+00 5.0549516658e+00 
262100 6.8012148499e+00 -7.0784649610e-05 2.9184777050e+00 -5.0549516658e+00 2.9184777050e+00 5.0549516658e+00 
262200 6.8012148498e+00 -7.0079663604e-05 2.9184789177e+00 -5.0549537662e+00 2.9184789177e+00 5.0549537662e+00 
262300 6.8012148498e+00 -7.0218232594e-05 2.9184789177e+00 -5.0549537662e+00 2.9184789177e+00 5.0549537662e+00 
262400 6.8012148497e+00 -7.0358672238e-05 2.9184789177e+00 -5.0549537662e+00 2.9184789177e+00 5.0549537662e+00 
262500 6.8012148497e+00 -7.0500616970e-05 2.9184789177e+00 -5.0549537662e+00 2.9184789177e+00 5.0549537662e+00 
262600 6.8012148496e+00 -7.0643802898e-05 2.9184789177e+00 -5.0549537662e+00 2.9184789177e+00 5.0549537662e+00 
262700 6.8012148496e+00 -7.0788038946e-05 2.9184789177e+00 -5.0549537662e+00 2.9184789177e+00 5.0549537662e+00 
262800 6.8012148495e+00 -7.0080126123e-05 2.9184801304e+00 -5.0549558668e+00 2.9184801304e+00 5.0549558668e+00 
262900 6.8012148494e+00 -7.0215796535e-05 2.9184801304e+00 -5.0549558668e+00 2.9184801304e+00 5.0549558668e+00 
263000 6.8012148494e+00 -7.0353325888e-05 2.9184801304e+00 -5.0549558668e+00 2.9184801304e+00 5.0549558668e+00 
263100 6.8012148494e+00 -7.0492348989e-05 2.9184801304e+00 -5.0549558668e+00 2.9184801304e+00 5.0549558668e+00 
263200 6.8012148493e+00 -7.0632602199e-05 2.9184801304e+00 -5.0549558668e+00 2.9184801304e+00 5.0549558668e+00 
263300 6.8012148493e+00 -7.0773894609e-05 2.9184801304e+00 -5.0549558668e+00 2.9184801304e+00 5.0549558668e+00 
263400 6.8012148492e+00 -7.0063197704e-05 2.9184813429e+00 -5.0549579669e+00 2.9184813429e+00 5.0549579669e+00 
263500 6.8012148491e+00 -7.0195905038e-05 2.9184813429e+00 -5.0549579669e+00 2.9184813429e+00 5.0549579669e+00 
263600 6.8012148491e+00 -7.0330460399e-05 2.9184813429e+00 -5.0549579669e+00 2.9184813429e+00 5.0549579669e+00 
263700 6.8012148490e+00 -7.0466498668e-05 2.9184813429e+00 -5.0549579669e+00 2.9184813429e+00 5.0549579669e+00 
263800 6.8012148490e+00 -7.0603756267e-05 2.9184813429e+00 -5.0549579669e+00 2.9184813429e+00 5.0549579669e+00 
263900 6.8012148489e+00 -7.0742042328e-05 2.9184813429e+00 -5.0549579669e+00 2.9184813429e+00 5.0549579669e+00 
264000 6.8012148488e+00 -7.0028712149e-05 2.9184825549e+00 -5.0549600661e+00 2.9184825549e+00 5.0549600661e+00 
264100 6.8012148488e+00 -7.0158396429e-05 2.9184825549e+00 -5.0549600661e+00 2.9184825549e+00 5.0549600661e+00 
264200 6.8012148488e+00 -7.0289917590e-05 2.9184825549e+00 -5.0549600661e+00 2.9184825549e+00 5.0549600661e+00 
264300 6.8012148487e+00 -7.0422910692e-05 2.9184825549e+00 -5.0549600661e+00 2.9184825549e+00 5.0549600661e+00 
264400 6.8012148487e+00 -7.0557112307e-05 2.9184825549e+00 -5.0549600661e+00 2.9184825549e+00 5.0549600661e+00 
264500 6.8012148486e+00 -7.0692331705e-05 2.9184825549e+00 -5.0549600661e+00 2.9184825549e+00 5.0549600661e+00 
264600 6.8012148486e+00 -7.0828430364e-05 2.9184825549e+00 -5.0549600661e+00 2.9184825549e+00 5.0549600661e+00 
264700 6.8012148485e+00 -7.0111759958e-05 2.9184837684e+00 -5.0549621679e+00 2.9184837684e+00 5.0549621679e+00 
264800 6.8012148485e+00 -7.0239048590e-05 2.9184837684e+00 -5.0549621679e+00 2.9184837684e+00 5.0549621679e+00 
264900 6.8012148484e+00 -7.0368110956e-05 2.9184837684e+00 -5.0549621679e+00 2.9184837684e+00 5.0549621679e+00 
265000 6.8012148484e+00 -7.0498596069e-05 2.9184837684e+00 -5.0549621679e+00 2.9184837684e+00 5.0549621679e+00 
265100 6.8012148483e+00 -7.0630250647e-05 2.9184837684e+00 -5.0549621679e+00 2.9184837684e+00 5.0549621679e+00 
265200 6.8012148483e+00 -7.0762891346e-05 2.9184837684e+00 -5.0549621679e+00 2.9184837684e+00 5.0549621679e+00 
265300 6.8012148482e+00 -7.0043627438e-05 2.9184849807e+00 -5.0549642677e+00 2.9184849807e+00 5.0549642677e+00 
265400 6.8012148482e+00 -7.0167593760e-05 2.9184849807e+00 -5.0549642677e+00 2.9184849807e+00 5.0549642677e+00 
265500 6.8012148481e+00 -7.0293367409e-05 2.9184849807e+00 -5.0549642677e+00 2.9184849807e+00 5.0549642677e+00 
265600 6.8012148481e+00 -7.0420585497e-05 2.9184849807e+00 -5.0549642677e+00 2.9184849807e+00 5.0549642677e+00 
265700 6.8012148480e+00 -7.0548986078e-05 2.9184849807e+00 -5.0549642677e+00 2.9184849807e+00 5.0549642677e+00 
265800 6.8012148480e+00 -7.0678379502e-05 2.9184849807e+00 -5.0549642677e+00 2.9184849807e+00 5.0549642677e+00 
265900 6.8012148480e+00 -7.0808628016e-05 2.9184849807e+00 -5.0549642677e+00 2.9184849807e+00 5.0549642677e+00 
266000 6.8012148479e+00 -7.0086322277e-05 2.9184861938e+00 -5.0549663688e+00 2.9184861938e+00 5.0549663688e+00 
266100 6.8012148478e+00 -7.0207716874e-05 2.9184861938e+00 -5.0549663688e+00 2.9184861938e+00 5.0549663688e+00 
266200 6.8012148478e+00 -7.0330861922e-05 2.9184861938e+00 -5.0549663688e+00 2.9184861938e+00 5.0549663688e+00 
266300 6.8012148478e+00 -7.0455406700e-05 2.9184861938e+00 -5.0549663688e+00 2.9184861938e+00 5.0549663688e+00 
266400 6.8012148477e+00 -7.0581098119e-05 2.9184861938e+00 -5.0549663688e+00 2.9184861938e+00 5.0549663688e+00 
266500 6.8012148477e+00 -7.0707752983e-05 2.9184861938e+00 -5.0549663688e+00 2.9184861938e+00 5.0549663688e+00 
266600 6.8012148477e+00 -7.0835238251e-05 2.9184861938e+00 -5.0549663688e+00 2.9184861938e+00 5.0549663688e+00 
266700 6.8012148476e+00 -7.0109827191e-05 2.9184874073e+00 -5.0549684708e+00 2.9184874073e+00 5.0549684708e+00 
266800 6.8012148475e+00 -7.0228414769e-05 2.9184874073e+00 -5.0549684708e+00 2.9184874073e+00 5.0549684708e+00 
266900 6.8012148475e+00 -7.0348736339e-05 2.9184874073e+00 -5.0549684708e+00 2.9184874073e+00 5.0549684708e+00 
267000 6.8012148475e+00 -7.0470442400e-05 2.9184874073e+00 -5.0549684708e+00 2.9184874073e+00 5.0549684708e+00 
267100 6.8012148474e+00 -7.0593280749e-05 2.9184874073e+00 -5.0549684708e+00 2.9184874073e+00 5.0549684708e+00 
267200 6.8012148474e+00 -7.0717068817e-05 2.9184874073e+00 -5.0549684708e+00 2.9184874073e+00 5.0549684708e+00 
267300 6.8012148473e+00 -6.9989468366e-05 2.9184886189e+00 -5.0549705692e+00 2.9184886189e+00 5.0549705692e+00 
267400 6.8012148473e+00 -7.0104517583e-05 2.9184886189e+00 -5.0549705692e+00 2.9184886189e+00 5.0549705692e+00 
267500 6.8012148472e+00 -7.0221338270e-05 2.9184886189e+00 -5.0549705692e+00 2.9184886189e+00 5.0549705692e+00 
267600 6.8012148472e+00 -7.0339567972e-05 2.9184886189e+00 -5.0549705692e+00 2.9184886189e+00 5.0549705692e+00 
267700 6.8012148472e+00 -7.0458945091e-05 2.9184886189e+00 -5.0549705692e+00 2.9184886189e+00 5.0549705692e+00 
267800 6.8012148471e+00 -7.0579280259e-05 2.9184886189e+00 -5.0549705692e+00 2.9184886189e+00 5.0549705692e+00 
267900 6.8012148471e+00 -7.0700435983e-05 2.9184886189e+00 -5.0549705692e+00 2.9184886189e+00 5.0549705692e+00 
268000 6.8012148471e+00 -7.0822312114e-05 2.9184886189e+00 -5.0549705692e+00 2.9184886189e+00 5.0549705692e+00 
268100 6.8012148470e+00 -7.0091361236e-05 2.9184898322e+00 -5.0549726708e+00 2.9184898322e+00 5.0549726708e+00 
268200 6.8012148469e+00 -7.0204186429e-05 2.9184898322e+00 -5.0549726708e+00 2.9184898322e+00 5.0549726708e+00 
268300 6.8012148469e+00 -7.0318688983e-05 2.9184898322e+00 -5.0549726708e+00 2.9184898322e+00 5.0549726708e+00 
268400 6.8012148469e+00 -7.0434528663e-05 2.9184898322e+00 -5.0549726708e+00 2.9184898322e+00 5.0549726708e+00 
268500 6.8012148468e+00 -7.0551460084e-05 2.9184898322e+00 -5.0549726708e+00 2.9184898322e+00 5.0549726708e+00 
268600 6.8012148468e+00 -7.0669305747e-05 2.9184898322e+00 -5.0549726708e+00 2.9184898322e+00 5.0549726708e+00 
268700 6.8012148468e+00 -7.0787936839e-05 2.9184898322e+00 -5.0549726708e+00 2.9184898322e+00 5.0549726708e+00 
268800 6.8012148467e+00 -7.0054199538e-05 2.9184910450e+00 -5.0549747713e+00 2.9184910450e+00 5.0549747713e+00 
268900 6.8012148467e+00 -7.0163858699e-05 2.9184910450e+00 -5.0549747713e+00 2.9184910450e+00 5.0549747713e+00 
269000 6.8012148466e+00 -7.0275213460e-05 2.9184910450e+00 -5.0549747713e+00 2.9184910450e+00 5.0549747713e+00 
269100 6.8012148466e+00 -7.0387915902e-05 2.9184910450e+00 -5.0549747713e+00 2.9184910450e+00 5.0549747713e+00 
269200 6.8012148466e+00 -7.0501715043e-05 2.9184910450e+00 -5.0549747713e+00 2.9184910450e+00 5.0549747713e+00 
269300 6.8012148465e+00 -7.0616429284e-05 2.9184910450e+00 -5.0549747713e+00 2.9184910450e+00 5.0549747713e+00 
269400 6.8012148465e+00 -7.0731926806e-05 2.9184910450e+00 -5.0549747713e+00 2.9184910450e+00 5.0549747713e+00 
269500 6.8012148464e+00 -6.9995726532e-05 2.9184922568e+00 -5.0549768702e+00 2.9184922568e+00 5.0549768702e+00 
269600 6.8012148464e+00 -7.0102250000e-05 2.9184922568e+00 -5.0549768702e+00 2.9184922568e+00 5.0549768702e+00 
269700 6.8012148464e+00 -7.0210461052e-05 2.9184922568e+00 -5.0549768702e+00 2.9184922568e+00 5.0549768702e+00 
269800 6.8012148463e+00 -7.0320011183e-05 2.9184922568e+00 -5.0549768702e+00 2.9184922568e+00 5.0549768702e+00 
269900 6.8012148463e+00 -7.0430649007e-05 2.9184922568e+00 -5.0549768702e+00 2.9184922568e+00 5.0549768702e+00 
270000 6.8012148463e+00 -7.0542192660e-05 2.9184922568e+00 -5.0549768702e+00 2.9184922568e+00 5.0549768702e+00 
270100 6.8012148462e+00 -7.0654510187e-05 2.9184922568e+00 -5.0549768702e+00 2.9184922568e+00 5.0549768702e+00 
270200 6.8012148462e+00 -7.0767505544e-05 2.9184922568e+00 -5.0549768702e+00 2.9184922568e+00 5.0549768702e+00 
270300 6.8012148461e+00 -7.0028294576e-05 2.9184934692e+00 -5.0549789701e+00 2.9184934692e+00 5.0549789701e+00 
270400 6.8012148461e+00 -7.0132170352e-05 2.9184934692e+00 -5.0549789701e+00 2.9184934692e+00 5.0549789701e+00 
270500 6.8012148461e+00 -7.0237687124e-05 2.9184934692e+00 -5.0549789701e+00 2.9184934692e+00 5.0549789701e+00 
270600 6.8012148461e+00 -7.0344506207e-05 2.9184934692e+00 -5.0549789701e+00 2.9184934692e+00 5.0549789701e+00 
270700 6.8012148460e+00 -7.0378921396e-05 2.9184934692e+00 -5.0549789701e+00 2.9184934692e+00 5.0549789701e+00 
270700 6.8012148460e+00 -7.0378921396e-05 2.9184934692e+00 -5.0549789701e+00 2.9184934692e+00 5.0549789701e+00 
