# step Hamiltonian StressXX CellTensor1 CellTensor2 CellTensor3 CellTensor4 
0 5.3517867651e+00 8.8387458635e-02 1.7439943123e+00 -3.0206867570e+00 1.7439943123e+00 3.0206867570e+00 
100 5.3520945433e+00 8.8656594612e-02 1.7439943123e+00 -3.0206867570e+00 1.7439943123e+00 3.0206867570e+00 
200 5.3519646645e+00 8.7300626999e-02 1.7414531622e+00 -3.0162853559e+00 1.7414531622e+00 3.0162853559e+00 
300 5.3516980219e+00 8.5902344040e-02 1.7389472190e+00 -3.0119449349e+00 1.7389472190e+00 3.0119449349e+00 
400 5.3513268249e+00 8.4483934638e-02 1.7364778519e+00 -3.0076678657e+00 1.7364778519e+00 3.0076678657e+00 
500 5.3508781885e+00 8.3063750588e-02 1.7340457972e+00 -3.0034554234e+00 1.7340457972e+00 3.0034554234e+00 
600 5.3503747818e+00 8.1656795017e-02 1.7316512641e+00 -2.9993079704e+00 1.7316512641e+00 2.9993079704e+00 
700 5.3498354046e+00 8.0275158399e-02 1.7292940273e+00 -2.9952251166e+00 1.7292940273e+00 2.9952251166e+00 
800 5.3492754980e+00 7.8928406293e-02 1.7269735088e+00 -2.9912058606e+00 1.7269735088e+00 2.9912058606e+00 
900 5.3487075975e+00 7.7623923031e-02 1.7246888479e+00 -2.9872487118e+00 1.7246888479e+00 2.9872487118e+00 
1000 5.3481417328e+00 7.6367215545e-02 1.7224389632e+00 -2.9833517973e+00 1.7224389632e+00 2.9833517973e+00 
1100 5.3475857812e+00 7.5162181347e-02 1.7202226057e+00 -2.9795129533e+00 1.7202226057e+00 2.9795129533e+00 
1200 5.3470457802e+00 7.4011344481e-02 1.7180384043e+00 -2.9757298055e+00 1.7180384043e+00 2.9757298055e+00 
1300 5.3465262016e+00 7.2916062942e-02 1.7158849058e+00 -2.9719998369e+00 1.7158849058e+00 2.9719998369e+00 
1400 5.3460301937e+00 7.1876710824e-02 1.7137606085e+00 -2.9683204459e+00 1.7137606085e+00 2.9683204459e+00 
1500 5.3455597943e+00 7.0892838095e-02 1.7116639902e+00 -2.9646889966e+00 1.7116639902e+00 2.9646889966e+00 
1600 5.3451161168e+00 6.9963310652e-02 1.7095935335e+00 -2.9611028603e+00 1.7095935335e+00 2.9611028603e+00 
1700 5.3446995145e+00 6.9086432983e-02 1.7075477449e+00 -2.9575594506e+00 1.7075477449e+00 2.9575594506e+00 
1800 5.3443097227e+00 6.8260055513e-02 1.7055251726e+00 -2.9540562526e+00 1.7055251726e+00 2.9540562526e+00 
1900 5.3439459842e+00 6.7481668470e-02 1.7035244197e+00 -2.9505908468e+00 1.7035244197e+00 2.9505908468e+00 
2000 5.3436071570e+00 6.6748483858e-02 1.7015441552e+00 -2.9471609282e+00 1.7015441552e+00 2.9471609282e+00 
2100 5.3432918084e+00 6.6057506951e-02 1.6995831234e+00 -2.9437643214e+00 1.6995831234e+00 2.9437643214e+00 
2200 5.3429982955e+00 6.5405598515e-02 1.6976401497e+00 -2.9403989923e+00 1.6976401497e+00 2.9403989923e+00 
2300 5.3427248345e+00 6.4789528839e-02 1.6957141463e+00 -2.9370630565e+00 1.6957141463e+00 2.9370630565e+00 
2400 5.3424695596e+00 6.4206024478e-02 1.6938041148e+00 -2.9337547849e+00 1.6938041148e+00 2.9337547849e+00 
2500 5.3422305723e+00 6.3651808536e-02 1.6919091484e+00 -2.9304726068e+00 1.6919091484e+00 2.9304726068e+00 
2600 5.3420059829e+00 6.3123635177e-02 1.6900284327e+00 -2.9272151118e+00 1.6900284327e+00 2.9272151118e+00 
2700 5.3417939445e+00 6.2618318994e-02 1.6881612453e+00 -2.9239810483e+00 1.6881612453e+00 2.9239810483e+00 
2800 5.3415926806e+00 6.2132759769e-02 1.6863069544e+00 -2.9207693222e+00 1.6863069544e+00 2.9207693222e+00 
2900 5.3414005065e+00 6.1663963116e-02 1.6844650171e+00 -2.9175789932e+00 1.6844650171e+00 2.9175789932e+00 
3000 5.3412158463e+00 6.1209057421e-02 1.6826349766e+00 -2.9144092701e+00 1.6826349766e+00 2.9144092701e+00 
3100 5.3410372451e+00 6.0765307475e-02 1.6808164593e+00 -2.9112595056e+00 1.6808164593e+00 2.9112595056e+00 
3200 5.3408633769e+00 6.0330125145e-02 1.6790091708e+00 -2.9081291902e+00 1.6790091708e+00 2.9081291902e+00 
3300 5.3406930500e+00 5.9901077387e-02 1.6772128925e+00 -2.9050179449e+00 1.6772128925e+00 2.9050179449e+00 
3400 5.3405252087e+00 5.9475891901e-02 1.6754274770e+00 -2.9019255146e+00 1.6754274770e+00 2.9019255146e+00 
3500 5.3403589330e+00 5.9052460686e-02 1.6736528440e+00 -2.8988517600e+00 1.6736528440e+00 2.8988517600e+00 
3600 5.3401934358e+00 5.8628841738e-02 1.6718889754e+00 -2.8957966499e+00 1.6718889754e+00 2.8957966499e+00 
3700 5.3400280589e+00 5.8203259118e-02 1.6701359109e+00 -2.8927602532e+00 1.6701359109e+00 2.8927602532e+00 
3800 5.3398622672e+00 5.7774101597e-02 1.6683937435e+00 -2.8897427307e+00 1.6683937435e+00 2.8897427307e+00 
3900 5.3396956420e+00 5.7339920067e-02 1.6666626144e+00 -2.8867443272e+00 1.6666626144e+00 2.8867443272e+00 
4000 5.3395278730e+00 5.6899423909e-02 1.6649427088e+00 -2.8837653633e+00 1.6649427088e+00 2.8837653633e+00 
4100 5.3393587506e+00 5.6451476458e-02 1.6632342512e+00 -2.8808062279e+00 1.6632342512e+00 2.8808062279e+00 
4200 5.3391881570e+00 5.5995089748e-02 1.6615375008e+00 -2.8778673701e+00 1.6615375008e+00 2.8778673701e+00 
4300 5.3390160572e+00 5.5529418640e-02 1.6598527475e+00 -2.8749492918e+00 1.6598527475e+00 2.8749492918e+00 
4400 5.3388424901e+00 5.5053754490e-02 1.6581803075e+00 -2.8720525407e+00 1.6581803075e+00 2.8720525407e+00 
4500 5.3386675598e+00 5.4567518448e-02 1.6565205194e+00 -2.8691777034e+00 1.6565205194e+00 2.8691777034e+00 
4600 5.3384914268e+00 5.4070254499e-02 1.6548737403e+00 -2.8663253983e+00 1.6548737403e+00 2.8663253983e+00 
4700 5.3383142995e+00 5.3561622339e-02 1.6532403423e+00 -2.8634962700e+00 1.6532403423e+00 2.8634962700e+00 
4800 5.3381364261e+00 5.3041390156e-02 1.6516207089e+00 -2.8606909826e+00 1.6516207089e+00 2.8606909826e+00 
4900 5.3379580871e+00 5.2509427398e-02 1.6500152317e+00 -2.8579102146e+00 1.6500152317e+00 2.8579102146e+00 
5000 5.3377795880e+00 5.1965697580e-02 1.6484243076e+00 -2.8551546532e+00 1.6484243076e+00 2.8551546532e+00 
5100 5.3376012526e+00 5.1410251183e-02 1.6468483357e+00 -2.8524249898e+00 1.6468483357e+00 2.8524249898e+00 
5200 5.3374234169e+00 5.0843218698e-02 1.6452877147e+00 -2.8497219149e+00 1.6452877147e+00 2.8497219149e+00 
5300 5.3372464232e+00 5.0264803830e-02 1.6437428404e+00 -2.8470461141e+00 1.6437428404e+00 2.8470461141e+00 
5400 5.3370706152e+00 4.9675276918e-02 1.6422141036e+00 -2.8443982643e+00 1.6422141036e+00 2.8443982643e+00 
5500 5.3368963333e+00 4.9074968575e-02 1.6407018877e+00 -2.8417790296e+00 1.6407018877e+00 2.8417790296e+00 
5600 5.3367239108e+00 4.8464263577e-02 1.6392065671e+00 -2.8391890583e+00 1.6392065671e+00 2.8391890583e+00 
5700 5.3365536698e+00 4.7843595005e-02 1.6377285053e+00 -2.8366289802e+00 1.6377285053e+00 2.8366289802e+00 
5800 5.3363859187e+00 4.7213438663e-02 1.6362680533e+00 -2.8340994031e+00 1.6362680533e+00 2.8340994031e+00 
5900 5.3362209493e+00 4.6574307764e-02 1.6348255484e+00 -2.8316009113e+00 1.6348255484e+00 2.8316009113e+00 
6000 5.3360590346e+00 4.5926747897e-02 1.6334013127e+00 -2.8291340627e+00 1.6334013127e+00 2.8291340627e+00 
6100 5.3359004274e+00 4.5271332269e-02 1.6319956522e+00 -2.8266993873e+00 1.6319956522e+00 2.8266993873e+00 
6200 5.3357453586e+00 4.4608657224e-02 1.6306088558e+00 -2.8242973855e+00 1.6306088558e+00 2.8242973855e+00 
6300 5.3355940362e+00 4.3939338035e-02 1.6292411944e+00 -2.8219285265e+00 1.6292411944e+00 2.8219285265e+00 
6400 5.3354466452e+00 4.3264004963e-02 1.6278929204e+00 -2.8195932474e+00 1.6278929204e+00 2.8195932474e+00 
6500 5.3353033465e+00 4.2583299573e-02 1.6265642668e+00 -2.8172919519e+00 1.6265642668e+00 2.8172919519e+00 
6600 5.3351642774e+00 4.1897871310e-02 1.6252554472e+00 -2.8150250099e+00 1.6252554472e+00 2.8150250099e+00 
6700 5.3350295514e+00 4.1208374318e-02 1.6239666551e+00 -2.8127927564e+00 1.6239666551e+00 2.8127927564e+00 
6800 5.3348992590e+00 4.0515464492e-02 1.6226980636e+00 -2.8105954916e+00 1.6226980636e+00 2.8105954916e+00 
6900 5.3347734678e+00 3.9819796767e-02 1.6214498257e+00 -2.8084334800e+00 1.6214498257e+00 2.8084334800e+00 
7000 5.3346522237e+00 3.9122022621e-02 1.6202220737e+00 -2.8063069511e+00 1.6202220737e+00 2.8063069511e+00 
7100 5.3345355514e+00 3.8422787789e-02 1.6190149194e+00 -2.8042160986e+00 1.6190149194e+00 2.8042160986e+00 
7200 5.3344234558e+00 3.7722730178e-02 1.6178284544e+00 -2.8021610809e+00 1.6178284544e+00 2.8021610809e+00 
7300 5.3343159227e+00 3.7022477973e-02 1.6166627499e+00 -2.8001420216e+00 1.6166627499e+00 2.8001420216e+00 
7400 5.3342129204e+00 3.6322647930e-02 1.6155178573e+00 -2.7981590094e+00 1.6155178573e+00 2.7981590094e+00 
7500 5.3341144007e+00 3.5623843833e-02 1.6143938081e+00 -2.7962120990e+00 1.6143938081e+00 2.7962120990e+00 
7600 5.3340203002e+00 3.4926655123e-02 1.6132906143e+00 -2.7943013114e+00 1.6132906143e+00 2.7943013114e+00 
7700 5.3339305418e+00 3.4231655679e-02 1.6122082691e+00 -2.7924266345e+00 1.6122082691e+00 2.7924266345e+00 
7800 5.3338450357e+00 3.3539402742e-02 1.6111467470e+00 -2.7905880242e+00 1.6111467470e+00 2.7905880242e+00 
7900 5.3337636811e+00 3.2850435987e-02 1.6101060041e+00 -2.7887854047e+00 1.6101060041e+00 2.7887854047e+00 
8000 5.3336863673e+00 3.2165276711e-02 1.6090859792e+00 -2.7870186697e+00 1.6090859792e+00 2.7870186697e+00 
8100 5.3336129749e+00 3.1484427152e-02 1.6080865937e+00 -2.7852876832e+00 1.6080865937e+00 2.7852876832e+00 
8200 5.3335433773e+00 3.0808369924e-02 1.6071077524e+00 -2.7835922804e+00 1.6071077524e+00 2.7835922804e+00 
8300 5.3334774418e+00 3.0137567544e-02 1.6061493442e+00 -2.7819322686e+00 1.6061493442e+00 2.7819322686e+00 
8400 5.3334150308e+00 2.9472462078e-02 1.6052112424e+00 -2.7803074287e+00 1.6052112424e+00 2.7803074287e+00 
8500 5.3333560027e+00 2.8813474863e-02 1.6042933055e+00 -2.7787175154e+00 1.6042933055e+00 2.7787175154e+00 
8600 5.3333002134e+00 2.8161006323e-02 1.6033953779e+00 -2.7771622591e+00 1.6033953779e+00 2.7771622591e+00 
8700 5.3332475170e+00 2.7515435861e-02 1.6025172902e+00 -2.7756413667e+00 1.6025172902e+00 2.7756413667e+00 
8800 5.3331977665e+00 2.6877121824e-02 1.6016588602e+00 -2.7741545223e+00 1.6016588602e+00 2.7741545223e+00 
8900 5.3331508152e+00 2.6246401541e-02 1.6008198934e+00 -2.7727013891e+00 1.6008198934e+00 2.7727013891e+00 
9000 5.3331065172e+00 2.5623591411e-02 1.6000001834e+00 -2.7712816098e+00 1.6000001834e+00 2.7712816098e+00 
9100 5.3330647281e+00 2.5008987060e-02 1.5991995131e+00 -2.7698948081e+00 1.5991995131e+00 2.7698948081e+00 
9200 5.3330253058e+00 2.4402863540e-02 1.5984176548e+00 -2.7685405899e+00 1.5984176548e+00 2.7685405899e+00 
9300 5.3329881109e+00 2.3805475580e-02 1.5976543712e+00 -2.7672185438e+00 1.5976543712e+00 2.7672185438e+00 
9400 5.3329530074e+00 2.3217057879e-02 1.5969094158e+00 -2.7659282433e+00 1.5969094158e+00 2.7659282433e+00 
9500 5.3329198632e+00 2.2637825434e-02 1.5961825338e+00 -2.7646692466e+00 1.5961825338e+00 2.7646692466e+00 
9600 5.3328885502e+00 2.2067973903e-02 1.5954734623e+00 -2.7634410989e+00 1.5954734623e+00 2.7634410989e+00 
9700 5.3328589451e+00 2.1507680003e-02 1.5947819316e+00 -2.7622433325e+00 1.5947819316e+00 2.7622433325e+00 
9800 5.3328309292e+00 2.0957101926e-02 1.5941076650e+00 -2.7610754685e+00 1.5941076650e+00 2.7610754685e+00 
9900 5.3328043890e+00 2.0416379787e-02 1.5934503800e+00 -2.7599370175e+00 1.5934503800e+00 2.7599370175e+00 
10000 5.3327792162e+00 1.9885636088e-02 1.5928097886e+00 -2.7588274807e+00 1.5928097886e+00 2.7588274807e+00 
10100 5.3327553076e+00 1.9364976203e-02 1.5921855981e+00 -2.7577463509e+00 1.5921855981e+00 2.7577463509e+00 
10200 5.3327325659e+00 1.8854488874e-02 1.5915775112e+00 -2.7566931136e+00 1.5915775112e+00 2.7566931136e+00 
10300 5.3327108988e+00 1.8354246718e-02 1.5909852272e+00 -2.7556672476e+00 1.5909852272e+00 2.7556672476e+00 
10400 5.3326902199e+00 1.7864306758e-02 1.5904084419e+00 -2.7546682261e+00 1.5904084419e+00 2.7546682261e+00 
10500 5.3326704479e+00 1.7384710942e-02 1.5898468486e+00 -2.7536955180e+00 1.5898468486e+00 2.7536955180e+00 
10600 5.3326515069e+00 1.6915486685e-02 1.5893001382e+00 -2.7527485879e+00 1.5893001382e+00 2.7527485879e+00 
10700 5.3326333265e+00 1.6456647404e-02 1.5887680002e+00 -2.7518268977e+00 1.5887680002e+00 2.7518268977e+00 
10800 5.3326158412e+00 1.6008193067e-02 1.5882501224e+00 -2.7509299071e+00 1.5882501224e+00 2.7509299071e+00 
10900 5.3325989907e+00 1.5570110731e-02 1.5877461921e+00 -2.7500570743e+00 1.5877461921e+00 2.7500570743e+00 
11000 5.3325827194e+00 1.5142375093e-02 1.5872558962e+00 -2.7492078568e+00 1.5872558962e+00 2.7492078568e+00 
11100 5.3325669764e+00 1.4724949024e-02 1.5867789216e+00 -2.7483817125e+00 1.5867789216e+00 2.7483817125e+00 
11200 5.3325517154e+00 1.4317784119e-02 1.5863149555e+00 -2.7475780997e+00 1.5863149555e+00 2.7475780997e+00 
11300 5.3325368941e+00 1.3920821226e-02 1.5858636862e+00 -2.7467964784e+00 1.5858636862e+00 2.7467964784e+00 
11400 5.3325224746e+00 1.3533990981e-02 1.5854248030e+00 -2.7460363103e+00 1.5854248030e+00 2.7460363103e+00 
11500 5.3325084225e+00 1.3157214338e-02 1.5849979968e+00 -2.7452970603e+00 1.5849979968e+00 2.7452970603e+00 
11600 5.3324947074e+00 1.2790403083e-02 1.5845829603e+00 -2.7445781960e+00 1.5845829603e+00 2.7445781960e+00 
11700 5.3324813018e+00 1.2433460353e-02 1.5841793885e+00 -2.7438791891e+00 1.5841793885e+00 2.7438791891e+00 
11800 5.3324681820e+00 1.2086281139e-02 1.5837869788e+00 -2.7431995156e+00 1.5837869788e+00 2.7431995156e+00 
11900 5.3324553267e+00 1.1748752783e-02 1.5834054314e+00 -2.7425386561e+00 1.5834054314e+00 2.7425386561e+00 
12000 5.3324427175e+00 1.1420755469e-02 1.5830344495e+00 -2.7418960967e+00 1.5830344495e+00 2.7418960967e+00 
12100 5.3324303388e+00 1.1102162700e-02 1.5826737397e+00 -2.7412713290e+00 1.5826737397e+00 2.7412713290e+00 
12200 5.3324181769e+00 1.0792841770e-02 1.5823230119e+00 -2.7406638507e+00 1.5823230119e+00 2.7406638507e+00 
12300 5.3324062204e+00 1.0492654221e-02 1.5819819800e+00 -2.7400731660e+00 1.5819819800e+00 2.7400731660e+00 
12400 5.3323944597e+00 1.0201456292e-02 1.5816503616e+00 -2.7394987860e+00 1.5816503616e+00 2.7394987860e+00 
12500 5.3323828872e+00 9.9190993594e-03 1.5813278785e+00 -2.7389402290e+00 1.5813278785e+00 2.7389402290e+00 
12600 5.3323714965e+00 9.6454303628e-03 1.5810142569e+00 -2.7383970204e+00 1.5810142569e+00 2.7383970204e+00 
12700 5.3323602827e+00 9.3802922198e-03 1.5807092274e+00 -2.7378686938e+00 1.5807092274e+00 2.7378686938e+00 
12800 5.3323492421e+00 9.1235242308e-03 1.5804125252e+00 -2.7373547905e+00 1.5804125252e+00 2.7373547905e+00 
12900 5.3323383720e+00 8.8749624718e-03 1.5801238902e+00 -2.7368548601e+00 1.5801238902e+00 2.7368548601e+00 
13000 5.3323276706e+00 8.6344401747e-03 1.5798430673e+00 -2.7363684605e+00 1.5798430673e+00 2.7363684605e+00 
13100 5.3323171370e+00 8.4017880958e-03 1.5795698062e+00 -2.7358951585e+00 1.5795698062e+00 2.7358951585e+00 
13200 5.3323067708e+00 8.1768348726e-03 1.5793038619e+00 -2.7354345294e+00 1.5793038619e+00 2.7354345294e+00 
13300 5.3322965721e+00 7.9594073682e-03 1.5790449943e+00 -2.7349861576e+00 1.5790449943e+00 2.7349861576e+00 
13400 5.3322865415e+00 7.7493310035e-03 1.5787929687e+00 -2.7345496365e+00 1.5787929687e+00 2.7345496365e+00 
13500 5.3322766800e+00 7.5464300772e-03 1.5785475556e+00 -2.7341245685e+00 1.5785475556e+00 2.7341245685e+00 
13600 5.3322669886e+00 7.3505280738e-03 1.5783085308e+00 -2.7337105654e+00 1.5783085308e+00 2.7337105654e+00 
13700 5.3322574687e+00 7.1614479594e-03 1.5780756756e+00 -2.7333072484e+00 1.5780756756e+00 2.7333072484e+00 
13800 5.3322481215e+00 6.9790124646e-03 1.5778487766e+00 -2.7329142477e+00 1.5778487766e+00 2.7329142477e+00 
13900 5.3322389486e+00 6.8030443569e-03 1.5776276258e+00 -2.7325312034e+00 1.5776276258e+00 2.7325312034e+00 
14000 5.3322299512e+00 6.6333666993e-03 1.5774120208e+00 -2.7321577645e+00 1.5774120208e+00 2.7321577645e+00 
14100 5.3322211307e+00 6.4698030978e-03 1.5772017644e+00 -2.7317935897e+00 1.5772017644e+00 2.7317935897e+00 
14200 5.3322124882e+00 6.3121779377e-03 1.5769966650e+00 -2.7314383471e+00 1.5769966650e+00 2.7314383471e+00 
14300 5.3322040246e+00 6.1603166065e-03 1.5767965363e+00 -2.7310917141e+00 1.5767965363e+00 2.7310917141e+00 
14400 5.3321957408e+00 6.0140457069e-03 1.5766011976e+00 -2.7307533775e+00 1.5766011976e+00 2.7307533775e+00 
14500 5.3321876374e+00 5.8731932574e-03 1.5764104732e+00 -2.7304230333e+00 1.5764104732e+00 2.7304230333e+00 
14600 5.3321797147e+00 5.7375888820e-03 1.5762241932e+00 -2.7301003867e+00 1.5762241932e+00 2.7301003867e+00 
14700 5.3321719729e+00 5.6070639881e-03 1.5760421925e+00 -2.7297851522e+00 1.5760421925e+00 2.7297851522e+00 
14800 5.3321644118e+00 5.4814519347e-03 1.5758643115e+00 -2.7294770533e+00 1.5758643115e+00 2.7294770533e+00 
14900 5.3321570310e+00 5.3605881887e-03 1.5756903958e+00 -2.7291758225e+00 1.5756903958e+00 2.7291758225e+00 
15000 5.3321498299e+00 5.2443104712e-03 1.5755202960e+00 -2.7288812010e+00 1.5755202960e+00 2.7288812010e+00 
15100 5.3321428076e+00 5.1324588934e-03 1.5753538679e+00 -2.7285929390e+00 1.5753538679e+00 2.7285929390e+00 
15200 5.3321359628e+00 5.0248760822e-03 1.5751909721e+00 -2.7283107952e+00 1.5751909721e+00 2.7283107952e+00 
15300 5.3321292943e+00 4.9214072963e-03 1.5750314742e+00 -2.7280345369e+00 1.5750314742e+00 2.7280345369e+00 
15400 5.3321228003e+00 4.8219005322e-03 1.5748752448e+00 -2.7277639395e+00 1.5748752448e+00 2.7277639395e+00 
15500 5.3321164790e+00 4.7262066214e-03 1.5747221589e+00 -2.7274987870e+00 1.5747221589e+00 2.7274987870e+00 
15600 5.3321103283e+00 4.6341793177e-03 1.5745720965e+00 -2.7272388714e+00 1.5745720965e+00 2.7272388714e+00 
15700 5.3321043458e+00 4.5456753762e-03 1.5744249420e+00 -2.7269839923e+00 1.5744249420e+00 2.7269839923e+00 
15800 5.3320985291e+00 4.4605546234e-03 1.5742805844e+00 -2.7267339575e+00 1.5742805844e+00 2.7267339575e+00 
15900 5.3320928755e+00 4.3786800192e-03 1.5741389169e+00 -2.7264885822e+00 1.5741389169e+00 2.7264885822e+00 
16000 5.3320873822e+00 4.2999177104e-03 1.5739998372e+00 -2.7262476891e+00 1.5739998372e+00 2.7262476891e+00 
16100 5.3320820461e+00 4.2241370767e-03 1.5738632471e+00 -2.7260111081e+00 1.5738632471e+00 2.7260111081e+00 
16200 5.3320768643e+00 4.1512107693e-03 1.5737290525e+00 -2.7257786764e+00 1.5737290525e+00 2.7257786764e+00 
16300 5.3320718335e+00 4.0810147417e-03 1.5735971635e+00 -2.7255502378e+00 1.5735971635e+00 2.7255502378e+00 
16400 5.3320669503e+00 4.0134282741e-03 1.5734674938e+00 -2.7253256432e+00 1.5734674938e+00 2.7253256432e+00 
16500 5.3320622113e+00 3.9483339906e-03 1.5733399610e+00 -2.7251047500e+00 1.5733399610e+00 2.7251047500e+00 
16600 5.3320576132e+00 3.8856178704e-03 1.5732144864e+00 -2.7248874217e+00 1.5732144864e+00 2.7248874217e+00 
16700 5.3320531524e+00 3.8251692526e-03 1.5730909951e+00 -2.7246735285e+00 1.5730909951e+00 2.7246735285e+00 
16800 5.3320488253e+00 3.7668808355e-03 1.5729694154e+00 -2.7244629462e+00 1.5729694154e+00 2.7244629462e+00 
16900 5.3320446283e+00 3.7106486695e-03 1.5728496790e+00 -2.7242555567e+00 1.5728496790e+00 2.7242555567e+00 
17000 5.3320405579e+00 3.6563721456e-03 1.5727317210e+00 -2.7240512475e+00 1.5727317210e+00 2.7240512475e+00 
17100 5.3320366104e+00 3.6039539785e-03 1.5726154798e+00 -2.7238499117e+00 1.5726154798e+00 2.7238499117e+00 
17200 5.3320327823e+00 3.5533001849e-03 1.5725008964e+00 -2.7236514476e+00 1.5725008964e+00 2.7236514476e+00 
17300 5.3320290700e+00 3.5043200570e-03 1.5723879153e+00 -2.7234557586e+00 1.5723879153e+00 2.7234557586e+00 
17400 5.3320254700e+00 3.4569261325e-03 1.5722764836e+00 -2.7232627531e+00 1.5722764836e+00 2.7232627531e+00 
17500 5.3320219787e+00 3.4110341602e-03 1.5721665511e+00 -2.7230723444e+00 1.5721665511e+00 2.7230723444e+00 
17600 5.3320185928e+00 3.3665630616e-03 1.5720580704e+00 -2.7228844503e+00 1.5720580704e+00 2.7228844503e+00 
17700 5.3320153088e+00 3.3234348895e-03 1.5719509966e+00 -2.7226989931e+00 1.5719509966e+00 2.7226989931e+00 
17800 5.3320121234e+00 3.2815747831e-03 1.5718452872e+00 -2.7225158991e+00 1.5718452872e+00 2.7225158991e+00 
17900 5.3320090334e+00 3.2409109203e-03 1.5717409023e+00 -2.7223350992e+00 1.5717409023e+00 2.7223350992e+00 
18000 5.3320060355e+00 3.2013744669e-03 1.5716378041e+00 -2.7221565277e+00 1.5716378041e+00 2.7221565277e+00 
18100 5.3320031267e+00 3.1628995240e-03 1.5715359568e+00 -2.7219801231e+00 1.5715359568e+00 2.7219801231e+00 
18200 5.3320003038e+00 3.1254230718e-03 1.5714353270e+00 -2.7218058273e+00 1.5714353270e+00 2.7218058273e+00 
18300 5.3319975641e+00 3.0888849130e-03 1.5713358832e+00 -2.7216335855e+00 1.5713358832e+00 2.7216335855e+00 
18400 5.3319949045e+00 3.0532276125e-03 1.5712375958e+00 -2.7214633466e+00 1.5712375958e+00 2.7214633466e+00 
18500 5.3319923223e+00 3.0183964372e-03 1.5711404368e+00 -2.7212950624e+00 1.5711404368e+00 2.7212950624e+00 
18600 5.3319898149e+00 2.9843392926e-03 1.5710443803e+00 -2.7211286876e+00 1.5710443803e+00 2.7211286876e+00 
18700 5.3319873797e+00 2.9510066596e-03 1.5709494018e+00 -2.7209641800e+00 1.5709494018e+00 2.7209641800e+00 
18800 5.3319850140e+00 2.9183515290e-03 1.5708554784e+00 -2.7208014999e+00 1.5708554784e+00 2.7208014999e+00 
18900 5.3319827156e+00 2.8863293361e-03 1.5707625888e+00 -2.7206406104e+00 1.5707625888e+00 2.7206406104e+00 
19000 5.3319804821e+00 2.8548978935e-03 1.5706707130e+00 -2.7204814769e+00 1.5706707130e+00 2.7204814769e+00 
19100 5.3319783112e+00 2.8240173239e-03 1.5705798324e+00 -2.7203240671e+00 1.5705798324e+00 2.7203240671e+00 
19200 5.3319762009e+00 2.7936499924e-03 1.5704899296e+00 -2.7201683508e+00 1.5704899296e+00 2.7201683508e+00 
19300 5.3319741489e+00 2.7637604384e-03 1.5704009885e+00 -2.7200143003e+00 1.5704009885e+00 2.7200143003e+00 
19400 5.3319721535e+00 2.7343153074e-03 1.5703129939e+00 -2.7198618892e+00 1.5703129939e+00 2.7198618892e+00 
19500 5.3319702126e+00 2.7052832822e-03 1.5702259320e+00 -2.7197110935e+00 1.5702259320e+00 2.7197110935e+00 
19600 5.3319683244e+00 2.6766350153e-03 1.5701397896e+00 -2.7195618906e+00 1.5701397896e+00 2.7195618906e+00 
19700 5.3319664873e+00 2.6483430604e-03 1.5700545548e+00 -2.7194142596e+00 1.5700545548e+00 2.7194142596e+00 
19800 5.3319646995e+00 2.6203818049e-03 1.5699702164e+00 -2.7192681811e+00 1.5699702164e+00 2.7192681811e+00 
19900 5.3319629595e+00 2.5927274027e-03 1.5698867639e+00 -2.7191236372e+00 1.5698867639e+00 2.7191236372e+00 
20000 5.3319612657e+00 2.5653577069e-03 1.5698041877e+00 -2.7189806111e+00 1.5698041877e+00 2.7189806111e+00 
20100 5.3319596167e+00 2.5382522045e-03 1.5697224789e+00 -2.7188390873e+00 1.5697224789e+00 2.7188390873e+00 
20200 5.3319580110e+00 2.5113919503e-03 1.5696416293e+00 -2.7186990516e+00 1.5696416293e+00 2.7186990516e+00 
20300 5.3319564474e+00 2.4847595024e-03 1.5695616311e+00 -2.7185604906e+00 1.5695616311e+00 2.7185604906e+00 
20400 5.3319549246e+00 2.4583388585e-03 1.5694824772e+00 -2.7184233920e+00 1.5694824772e+00 2.7184233920e+00 
20500 5.3319534414e+00 2.4321153932e-03 1.5694041610e+00 -2.7182877444e+00 1.5694041610e+00 2.7182877444e+00 
20600 5.3319519966e+00 2.4060757960e-03 1.5693266763e+00 -2.7181535370e+00 1.5693266763e+00 2.7181535370e+00 
20700 5.3319505891e+00 2.3802080104e-03 1.5692500174e+00 -2.7180207599e+00 1.5692500174e+00 2.7180207599e+00 
20800 5.3319492179e+00 2.3545011745e-03 1.5691741790e+00 -2.7178894039e+00 1.5691741790e+00 2.7178894039e+00 
20900 5.3319478819e+00 2.3289455624e-03 1.5690991560e+00 -2.7177594603e+00 1.5690991560e+00 2.7177594603e+00 
21000 5.3319465801e+00 2.3035325271e-03 1.5690249438e+00 -2.7176309210e+00 1.5690249438e+00 2.7176309210e+00 
21100 5.3319453116e+00 2.2782544442e-03 1.5689515379e+00 -2.7175037782e+00 1.5689515379e+00 2.7175037782e+00 
21200 5.3319440756e+00 2.2531046573e-03 1.5688789341e+00 -2.7173780247e+00 1.5688789341e+00 2.7173780247e+00 
21300 5.3319428712e+00 2.2280774249e-03 1.5688071284e+00 -2.7172536537e+00 1.5688071284e+00 2.7172536537e+00 
21400 5.3319416975e+00 2.2031678680e-03 1.5687361171e+00 -2.7171306585e+00 1.5687361171e+00 2.7171306585e+00 
21500 5.3319405537e+00 2.1783719193e-03 1.5686658965e+00 -2.7170090329e+00 1.5686658965e+00 2.7170090329e+00 
21600 5.3319394392e+00 2.1536862744e-03 1.5685964631e+00 -2.7168887707e+00 1.5685964631e+00 2.7168887707e+00 
21700 5.3319383531e+00 2.1291083438e-03 1.5685278135e+00 -2.7167698661e+00 1.5685278135e+00 2.7167698661e+00 
21800 5.3319372947e+00 2.1046362060e-03 1.5684599444e+00 -2.7166523133e+00 1.5684599444e+00 2.7166523133e+00 
21900 5.3319362634e+00 2.0802685632e-03 1.5683928524e+00 -2.7165361066e+00 1.5683928524e+00 2.7165361066e+00 
22000 5.3319352585e+00 2.0560046970e-03 1.5683265344e+00 -2.7164212404e+00 1.5683265344e+00 2.7164212404e+00 
22100 5.3319342793e+00 2.0318444268e-03 1.5682609871e+00 -2.7163077092e+00 1.5682609871e+00 2.7163077092e+00 
22200 5.3319333252e+00 2.0077880689e-03 1.5681962074e+00 -2.7161955074e+00 1.5681962074e+00 2.7161955074e+00 
22300 5.3319323957e+00 1.9838363972e-03 1.5681321920e+00 -2.7160846295e+00 1.5681321920e+00 2.7160846295e+00 
22400 5.3319314901e+00 1.9599906053e-03 1.5680689377e+00 -2.7159750698e+00 1.5680689377e+00 2.7159750698e+00 
22500 5.3319306079e+00 1.9362522703e-03 1.5680064411e+00 -2.7158668226e+00 1.5680064411e+00 2.7158668226e+00 
22600 5.3319297485e+00 1.9126233177e-03 1.5679446990e+00 -2.7157598822e+00 1.5679446990e+00 2.7157598822e+00 
22700 5.3319289113e+00 1.8891059875e-03 1.5678837080e+00 -2.7156542426e+00 1.5678837080e+00 2.7156542426e+00 
22800 5.3319280959e+00 1.8657028026e-03 1.5678234646e+00 -2.7155498980e+00 1.5678234646e+00 2.7155498980e+00 
22900 5.3319273017e+00 1.8424165374e-03 1.5677639652e+00 -2.7154468420e+00 1.5677639652e+00 2.7154468420e+00 
23000 5.3319265283e+00 1.8192501886e-03 1.5677052062e+00 -2.7153450684e+00 1.5677052062e+00 2.7153450684e+00 
23100 5.3319257751e+00 1.7962069470e-03 1.5676471838e+00 -2.7152445707e+00 1.5676471838e+00 2.7152445707e+00 
23200 5.3319250416e+00 1.7732901704e-03 1.5675898943e+00 -2.7151453423e+00 1.5675898943e+00 2.7151453423e+00 
23300 5.3319243274e+00 1.7505033585e-03 1.5675333336e+00 -2.7150473763e+00 1.5675333336e+00 2.7150473763e+00 
23400 5.3319236321e+00 1.7278501284e-03 1.5674774977e+00 -2.7149506657e+00 1.5674774977e+00 2.7149506657e+00 
23500 5.3319229551e+00 1.7053341914e-03 1.5674223824e+00 -2.7148552032e+00 1.5674223824e+00 2.7148552032e+00 
23600 5.3319222961e+00 1.6829593313e-03 1.5673679834e+00 -2.7147609813e+00 1.5673679834e+00 2.7147609813e+00 
23700 5.3319216546e+00 1.6607293840e-03 1.5673142962e+00 -2.7146679925e+00 1.5673142962e+00 2.7146679925e+00 
23800 5.3319210301e+00 1.6386482177e-03 1.5672613164e+00 -2.7145762288e+00 1.5672613164e+00 2.7145762288e+00 
23900 5.3319204223e+00 1.6167197146e-03 1.5672090393e+00 -2.7144856821e+00 1.5672090393e+00 2.7144856821e+00 
24000 5.3319198308e+00 1.5949477540e-03 1.5671574600e+00 -2.7143963442e+00 1.5671574600e+00 2.7143963442e+00 
24100 5.3319192551e+00 1.5733361958e-03 1.5671065736e+00 -2.7143082064e+00 1.5671065736e+00 2.7143082064e+00 
24200 5.3319186949e+00 1.5518888657e-03 1.5670563751e+00 -2.7142212600e+00 1.5670563751e+00 2.7142212600e+00 
24300 5.3319181498e+00 1.5306095407e-03 1.5670068593e+00 -2.7141354962e+00 1.5670068593e+00 2.7141354962e+00 
24400 5.3319176194e+00 1.5095019368e-03 1.5669580210e+00 -2.7140509056e+00 1.5669580210e+00 2.7140509056e+00 
24500 5.3319171033e+00 1.4885696959e-03 1.5669098546e+00 -2.7139674790e+00 1.5669098546e+00 2.7139674790e+00 
24600 5.3319166012e+00 1.4678163754e-03 1.5668623546e+00 -2.7138852067e+00 1.5668623546e+00 2.7138852067e+00 
24700 5.3319161127e+00 1.4472454378e-03 1.5668155155e+00 -2.7138040790e+00 1.5668155155e+00 2.7138040790e+00 
24800 5.3319156375e+00 1.4268602406e-03 1.5667693314e+00 -2.7137240858e+00 1.5667693314e+00 2.7137240858e+00 
24900 5.3319151751e+00 1.4066640288e-03 1.5667237966e+00 -2.7136452171e+00 1.5667237966e+00 2.7136452171e+00 
25000 5.3319147254e+00 1.3866599262e-03 1.5666789049e+00 -2.7135674624e+00 1.5666789049e+00 2.7135674624e+00 
25100 5.3319142880e+00 1.3668509291e-03 1.5666346503e+00 -2.7134908113e+00 1.5666346503e+00 2.7134908113e+00 
25200 5.3319138625e+00 1.3472398993e-03 1.5665910267e+00 -2.7134152530e+00 1.5665910267e+00 2.7134152530e+00 
25300 5.3319134486e+00 1.3278295594e-03 1.5665480278e+00 -2.7133407767e+00 1.5665480278e+00 2.7133407767e+00 
25400 5.3319130460e+00 1.3086224874e-03 1.5665056473e+00 -2.7132673714e+00 1.5665056473e+00 2.7132673714e+00 
25500 5.3319126545e+00 1.2896211127e-03 1.5664638786e+00 -2.7131950260e+00 1.5664638786e+00 2.7131950260e+00 
25600 5.3319122737e+00 1.2708277127e-03 1.5664227154e+00 -2.7131237291e+00 1.5664227154e+00 2.7131237291e+00 
25700 5.3319119033e+00 1.2522444093e-03 1.5663821509e+00 -2.7130534694e+00 1.5663821509e+00 2.7130534694e+00 
25800 5.3319115431e+00 1.2338731673e-03 1.5663421785e+00 -2.7129842353e+00 1.5663421785e+00 2.7129842353e+00 
25900 5.3319111927e+00 1.2157157920e-03 1.5663027916e+00 -2.7129160151e+00 1.5663027916e+00 2.7129160151e+00 
26000 5.3319108520e+00 1.1977739282e-03 1.5662639833e+00 -2.7128487972e+00 1.5662639833e+00 2.7128487972e+00 
26100 5.3319105207e+00 1.1800490589e-03 1.5662257468e+00 -2.7127825696e+00 1.5662257468e+00 2.7127825696e+00 
26200 5.3319101984e+00 1.1625425056e-03 1.5661880752e+00 -2.7127173205e+00 1.5661880752e+00 2.7127173205e+00 
26300 5.3319098850e+00 1.1452554280e-03 1.5661509616e+00 -2.7126530379e+00 1.5661509616e+00 2.7126530379e+00 
26400 5.3319095802e+00 1.1281888245e-03 1.5661143990e+00 -2.7125897096e+00 1.5661143990e+00 2.7125897096e+00 
26500 5.3319092838e+00 1.1113435330e-03 1.5660783804e+00 -2.7125273236e+00 1.5660783804e+00 2.7125273236e+00 
26600 5.3319089955e+00 1.0947202326e-03 1.5660428988e+00 -2.7124658676e+00 1.5660428988e+00 2.7124658676e+00 
26700 5.3319087151e+00 1.0783194446e-03 1.5660079472e+00 -2.7124053296e+00 1.5660079472e+00 2.7124053296e+00 
26800 5.3319084424e+00 1.0621415348e-03 1.5659735184e+00 -2.7123456971e+00 1.5659735184e+00 2.7123456971e+00 
26900 5.3319081773e+00 1.0461867155e-03 1.5659396054e+00 -2.7122869581e+00 1.5659396054e+00 2.7122869581e+00 
27000 5.3319079193e+00 1.0304550482e-03 1.5659062010e+00 -2.7122291001e+00 1.5659062010e+00 2.7122291001e+00 
27100 5.3319076685e+00 1.0149464460e-03 1.5658732983e+00 -2.7121721109e+00 1.5658732983e+00 2.7121721109e+00 
27200 5.3319074245e+00 9.9966067695e-04 1.5658408901e+00 -2.7121159782e+00 1.5658408901e+00 2.7121159782e+00 
27300 5.3319071873e+00 9.8459736702e-04 1.5658089693e+00 -2.7120606898e+00 1.5658089693e+00 2.7120606898e+00 
27400 5.3319069565e+00 9.6975600351e-04 1.5657775289e+00 -2.7120062334e+00 1.5657775289e+00 2.7120062334e+00 
27500 5.3319067320e+00 9.5513593859e-04 1.5657465618e+00 -2.7119525968e+00 1.5657465618e+00 2.7119525968e+00 
27600 5.3319065137e+00 9.4073639309e-04 1.5657160609e+00 -2.7118997677e+00 1.5657160609e+00 2.7118997677e+00 
27700 5.3319063014e+00 9.2655646030e-04 1.5656860193e+00 -2.7118477341e+00 1.5656860193e+00 2.7118477341e+00 
27800 5.3319060949e+00 9.1259510999e-04 1.5656564299e+00 -2.7117964838e+00 1.5656564299e+00 2.7117964838e+00 
27900 5.3319058940e+00 8.9885119250e-04 1.5656272858e+00 -2.7117460047e+00 1.5656272858e+00 2.7117460047e+00 
28000 5.3319056986e+00 8.8532344293e-04 1.5655985801e+00 -2.7116962850e+00 1.5655985801e+00 2.7116962850e+00 
28100 5.3319055086e+00 8.7201048543e-04 1.5655703059e+00 -2.7116473127e+00 1.5655703059e+00 2.7116473127e+00 
28200 5.3319053237e+00 8.5891083756e-04 1.5655424564e+00 -2.7115990759e+00 1.5655424564e+00 2.7115990759e+00 
28300 5.3319051439e+00 8.4602291462e-04 1.5655150247e+00 -2.7115515628e+00 1.5655150247e+00 2.7115515628e+00 
28400 5.3319049690e+00 8.3334503419e-04 1.5654880042e+00 -2.7115047619e+00 1.5654880042e+00 2.7115047619e+00 
28500 5.3319047988e+00 8.2087542052e-04 1.5654613881e+00 -2.7114586616e+00 1.5654613881e+00 2.7114586616e+00 
28600 5.3319046334e+00 8.0861220907e-04 1.5654351699e+00 -2.7114132502e+00 1.5654351699e+00 2.7114132502e+00 
28700 5.3319044724e+00 7.9655345099e-04 1.5654093429e+00 -2.7113685165e+00 1.5654093429e+00 2.7113685165e+00 
28800 5.3319043158e+00 7.8469711758e-04 1.5653839006e+00 -2.7113244492e+00 1.5653839006e+00 2.7113244492e+00 
28900 5.3319041635e+00 7.7304110485e-04 1.5653588366e+00 -2.7112810371e+00 1.5653588366e+00 2.7112810371e+00 
29000 5.3319040153e+00 7.6158323792e-04 1.5653341446e+00 -2.7112382692e+00 1.5653341446e+00 2.7112382692e+00 
29100 5.3319038712e+00 7.5032127545e-04 1.5653098181e+00 -2.7111961345e+00 1.5653098181e+00 2.7111961345e+00 
29200 5.3319037310e+00 7.3925291407e-04 1.5652858510e+00 -2.7111546223e+00 1.5652858510e+00 2.7111546223e+00 
29300 5.3319035946e+00 7.2837579271e-04 1.5652622370e+00 -2.7111137217e+00 1.5652622370e+00 2.7111137217e+00 
29400 5.3319034619e+00 7.1768749686e-04 1.5652389702e+00 -2.7110734224e+00 1.5652389702e+00 2.7110734224e+00 
29500 5.3319033329e+00 7.0718556289e-04 1.5652160445e+00 -2.7110337138e+00 1.5652160445e+00 2.7110337138e+00 
29600 5.3319032074e+00 6.9686748210e-04 1.5651934538e+00 -2.7109945857e+00 1.5651934538e+00 2.7109945857e+00 
29700 5.3319030852e+00 6.8673070492e-04 1.5651711925e+00 -2.7109560280e+00 1.5651711925e+00 2.7109560280e+00 
29800 5.3319029665e+00 6.7677264489e-04 1.5651492547e+00 -2.7109180305e+00 1.5651492547e+00 2.7109180305e+00 
29900 5.3319028509e+00 6.6699068259e-04 1.5651276347e+00 -2.7108805836e+00 1.5651276347e+00 2.7108805836e+00 
30000 5.3319027386e+00 6.5738216952e-04 1.5651063268e+00 -2.7108436773e+00 1.5651063268e+00 2.7108436773e+00 
30100 5.3319026292e+00 6.4794443183e-04 1.5650853257e+00 -2.7108073023e+00 1.5650853257e+00 2.7108073023e+00 
30200 5.3319025229e+00 6.3867477405e-04 1.5650646258e+00 -2.7107714490e+00 1.5650646258e+00 2.7107714490e+00 
30300 5.3319024195e+00 6.2957048258e-04 1.5650442217e+00 -2.7107361081e+00 1.5650442217e+00 2.7107361081e+00 
30400 5.3319023189e+00 6.2062882926e-04 1.5650241082e+00 -2.7107012706e+00 1.5650241082e+00 2.7107012706e+00 
30500 5.3319022211e+00 6.1184707466e-04 1.5650042802e+00 -2.7106669274e+00 1.5650042802e+00 2.7106669274e+00 
30600 5.3319021259e+00 6.0322247143e-04 1.5649847325e+00 -2.7106330697e+00 1.5649847325e+00 2.7106330697e+00 
30700 5.3319020333e+00 5.9475226738e-04 1.5649654600e+00 -2.7105996889e+00 1.5649654600e+00 2.7105996889e+00 
30800 5.3319019433e+00 5.8643370862e-04 1.5649464580e+00 -2.7105667763e+00 1.5649464580e+00 2.7105667763e+00 
30900 5.3319018557e+00 5.7826404244e-04 1.5649277215e+00 -2.7105343238e+00 1.5649277215e+00 2.7105343238e+00 
31000 5.3319017706e+00 5.7024052022e-04 1.5649092458e+00 -2.7105023229e+00 1.5649092458e+00 2.7105023229e+00 
31100 5.3319016878e+00 5.6236040008e-04 1.5648910262e+00 -2.7104707657e+00 1.5648910262e+00 2.7104707657e+00 
31200 5.3319016072e+00 5.5462094958e-04 1.5648730582e+00 -2.7104396442e+00 1.5648730582e+00 2.7104396442e+00 
31300 5.3319015289e+00 5.4701944816e-04 1.5648553373e+00 -2.7104089507e+00 1.5648553373e+00 2.7104089507e+00 
31400 5.3319014527e+00 5.3955318960e-04 1.5648378590e+00 -2.7103786774e+00 1.5648378590e+00 2.7103786774e+00 
31500 5.3319013786e+00 5.3221948427e-04 1.5648206192e+00 -2.7103488171e+00 1.5648206192e+00 2.7103488171e+00 
31600 5.3319013066e+00 5.2501566132e-04 1.5648036134e+00 -2.7103193623e+00 1.5648036134e+00 2.7103193623e+00 
31700 5.3319012366e+00 5.1793907074e-04 1.5647868377e+00 -2.7102903059e+00 1.5647868377e+00 2.7102903059e+00 
31800 5.3319011684e+00 5.1098708536e-04 1.5647702879e+00 -2.7102616408e+00 1.5647702879e+00 2.7102616408e+00 
31900 5.3319011022e+00 5.0415710266e-04 1.5647539600e+00 -2.7102333601e+00 1.5647539600e+00 2.7102333601e+00 
32000 5.3319010378e+00 4.9744654654e-04 1.5647378503e+00 -2.7102054572e+00 1.5647378503e+00 2.7102054572e+00 
32100 5.3319009752e+00 4.9085286899e-04 1.5647219548e+00 -2.7101779254e+00 1.5647219548e+00 2.7101779254e+00 
32200 5.3319009143e+00 4.8437355157e-04 1.5647062698e+00 -2.7101507583e+00 1.5647062698e+00 2.7101507583e+00 
32300 5.3319008551e+00 4.7800610692e-04 1.5646907918e+00 -2.7101239495e+00 1.5646907918e+00 2.7101239495e+00 
32400 5.3319007976e+00 4.7174808005e-04 1.5646755170e+00 -2.7100974928e+00 1.5646755170e+00 2.7100974928e+00 
32500 5.3319007416e+00 4.6559704964e-04 1.5646604421e+00 -2.7100713823e+00 1.5646604421e+00 2.7100713823e+00 
32600 5.3319006872e+00 4.5955062913e-04 1.5646455636e+00 -2.7100456119e+00 1.5646455636e+00 2.7100456119e+00 
32700 5.3319006343e+00 4.5360646779e-04 1.5646308781e+00 -2.7100201760e+00 1.5646308781e+00 2.7100201760e+00 
32800 5.3319005829e+00 4.4776225174e-04 1.5646163825e+00 -2.7099950689e+00 1.5646163825e+00 2.7099950689e+00 
32900 5.3319005329e+00 4.4201570473e-04 1.5646020735e+00 -2.7099702850e+00 1.5646020735e+00 2.7099702850e+00 
33000 5.3319004844e+00 4.3636458901e-04 1.5645879481e+00 -2.7099458189e+00 1.5645879481e+00 2.7099458189e+00 
33100 5.3319004371e+00 4.3080670599e-04 1.5645740030e+00 -2.7099216655e+00 1.5645740030e+00 2.7099216655e+00 
33200 5.3319003912e+00 4.2533989689e-04 1.5645602355e+00 -2.7098978194e+00 1.5645602355e+00 2.7098978194e+00 
33300 5.3319003466e+00 4.1996204323e-04 1.5645466426e+00 -2.7098742758e+00 1.5645466426e+00 2.7098742758e+00 
33400 5.3319003032e+00 4.1467106737e-04 1.5645332214e+00 -2.7098510296e+00 1.5645332214e+00 2.7098510296e+00 
33500 5.3319002611e+00 4.0946493284e-04 1.5645199692e+00 -2.7098280761e+00 1.5645199692e+00 2.7098280761e+00 
33600 5.3319002201e+00 4.0434164468e-04 1.5645068832e+00 -2.7098054106e+00 1.5645068832e+00 2.7098054106e+00 
33700 5.3319001803e+00 3.9929924967e-04 1.5644939609e+00 -2.7097830285e+00 1.5644939609e+00 2.7097830285e+00 
33800 5.3319001416e+00 3.9433583656e-04 1.5644811997e+00 -2.7097609253e+00 1.5644811997e+00 2.7097609253e+00 
33900 5.3319001040e+00 3.8944953613e-04 1.5644685969e+00 -2.7097390967e+00 1.5644685969e+00 2.7097390967e+00 
34000 5.3319000674e+00 3.8463852127e-04 1.5644561502e+00 -2.7097175384e+00 1.5644561502e+00 2.7097175384e+00 
34100 5.3319000319e+00 3.7990100698e-04 1.5644438572e+00 -2.7096962462e+00 1.5644438572e+00 2.7096962462e+00 
34200 5.3318999974e+00 3.7523525030e-04 1.5644317155e+00 -2.7096752162e+00 1.5644317155e+00 2.7096752162e+00 
34300 5.3318999638e+00 3.7063955020e-04 1.5644197228e+00 -2.7096544442e+00 1.5644197228e+00 2.7096544442e+00 
34400 5.3318999312e+00 3.6611224741e-04 1.5644078769e+00 -2.7096339265e+00 1.5644078769e+00 2.7096339265e+00 
34500 5.3318998995e+00 3.6165172419e-04 1.5643961756e+00 -2.7096136593e+00 1.5643961756e+00 2.7096136593e+00 
34600 5.3318998688e+00 3.5725640411e-04 1.5643846168e+00 -2.7095936389e+00 1.5643846168e+00 2.7095936389e+00 
34700 5.3318998389e+00 3.5292475169e-04 1.5643731984e+00 -2.7095738616e+00 1.5643731984e+00 2.7095738616e+00 
34800 5.3318998098e+00 3.4865527208e-04 1.5643619183e+00 -2.7095543240e+00 1.5643619183e+00 2.7095543240e+00 
34900 5.3318997816e+00 3.4444651067e-04 1.5643507746e+00 -2.7095350225e+00 1.5643507746e+00 2.7095350225e+00 
35000 5.3318997541e+00 3.4029705266e-04 1.5643397654e+00 -2.7095159540e+00 1.5643397654e+00 2.7095159540e+00 
35100 5.3318997275e+00 3.3620552260e-04 1.5643288887e+00 -2.7094971150e+00 1.5643288887e+00 2.7094971150e+00 
35200 5.3318997016e+00 3.3217058391e-04 1.5643181427e+00 -2.7094785024e+00 1.5643181427e+00 2.7094785024e+00 
35300 5.3318996764e+00 3.2819093831e-04 1.5643075256e+00 -2.7094601131e+00 1.5643075256e+00 2.7094601131e+00 
35400 5.3318996520e+00 3.2426532535e-04 1.5642970357e+00 -2.7094419439e+00 1.5642970357e+00 2.7094419439e+00 
35500 5.3318996282e+00 3.2039252175e-04 1.5642866711e+00 -2.7094239920e+00 1.5642866711e+00 2.7094239920e+00 
35600 5.3318996052e+00 3.1657134085e-04 1.5642764303e+00 -2.7094062543e+00 1.5642764303e+00 2.7094062543e+00 
35700 5.3318995828e+00 3.1280063197e-04 1.5642663115e+00 -2.7093887281e+00 1.5642663115e+00 2.7093887281e+00 
35800 5.3318995610e+00 3.0907927977e-04 1.5642563132e+00 -2.7093714105e+00 1.5642563132e+00 2.7093714105e+00 
35900 5.3318995399e+00 3.0540620358e-04 1.5642464338e+00 -2.7093542989e+00 1.5642464338e+00 2.7093542989e+00 
36000 5.3318995193e+00 3.0178035674e-04 1.5642366717e+00 -2.7093373905e+00 1.5642366717e+00 2.7093373905e+00 
36100 5.3318994994e+00 2.9820072589e-04 1.5642270255e+00 -2.7093206827e+00 1.5642270255e+00 2.7093206827e+00 
36200 5.3318994800e+00 2.9466633028e-04 1.5642174936e+00 -2.7093041730e+00 1.5642174936e+00 2.7093041730e+00 
36300 5.3318994612e+00 2.9117622104e-04 1.5642080746e+00 -2.7092878589e+00 1.5642080746e+00 2.7092878589e+00 
36400 5.3318994429e+00 2.8772948047e-04 1.5641987672e+00 -2.7092717379e+00 1.5641987672e+00 2.7092717379e+00 
36500 5.3318994252e+00 2.8432522128e-04 1.5641895698e+00 -2.7092558076e+00 1.5641895698e+00 2.7092558076e+00 
36600 5.3318994079e+00 2.8096258589e-04 1.5641804813e+00 -2.7092400658e+00 1.5641804813e+00 2.7092400658e+00 
36700 5.3318993912e+00 2.7764074567e-04 1.5641715001e+00 -2.7092245100e+00 1.5641715001e+00 2.7092245100e+00 
36800 5.3318993749e+00 2.7435890016e-04 1.5641626251e+00 -2.7092091380e+00 1.5641626251e+00 2.7092091380e+00 
36900 5.3318993592e+00 2.7111627637e-04 1.5641538550e+00 -2.7091939477e+00 1.5641538550e+00 2.7091939477e+00 
37000 5.3318993438e+00 2.6791212801e-04 1.5641451885e+00 -2.7091789368e+00 1.5641451885e+00 2.7091789368e+00 
37100 5.3318993290e+00 2.6474573472e-04 1.5641366243e+00 -2.7091641032e+00 1.5641366243e+00 2.7091641032e+00 
37200 5.3318993145e+00 2.6161640135e-04 1.5641281613e+00 -2.7091494449e+00 1.5641281613e+00 2.7091494449e+00 
37300 5.3318993005e+00 2.5852345719e-04 1.5641197983e+00 -2.7091349598e+00 1.5641197983e+00 2.7091349598e+00 
37400 5.3318992868e+00 2.5546625524e-04 1.5641115341e+00 -2.7091206458e+00 1.5641115341e+00 2.7091206458e+00 
37500 5.3318992736e+00 2.5244417149e-04 1.5641033676e+00 -2.7091065010e+00 1.5641033676e+00 2.7091065010e+00 
37600 5.3318992608e+00 2.4945660413e-04 1.5640952977e+00 -2.7090925235e+00 1.5640952977e+00 2.7090925235e+00 
37700 5.3318992483e+00 2.4650297289e-04 1.5640873232e+00 -2.7090787113e+00 1.5640873232e+00 2.7090787113e+00 
37800 5.3318992362e+00 2.4358271827e-04 1.5640794432e+00 -2.7090650626e+00 1.5640794432e+00 2.7090650626e+00 
37900 5.3318992245e+00 2.4069530088e-04 1.5640716564e+00 -2.7090515755e+00 1.5640716564e+00 2.7090515755e+00 
38000 5.3318992130e+00 2.3784020067e-04 1.5640639619e+00 -2.7090382483e+00 1.5640639619e+00 2.7090382483e+00 
38100 5.3318992020e+00 2.3501691629e-04 1.5640563586e+00 -2.7090250790e+00 1.5640563586e+00 2.7090250790e+00 
38200 5.3318991912e+00 2.3222496441e-04 1.5640488456e+00 -2.7090120660e+00 1.5640488456e+00 2.7090120660e+00 
38300 5.3318991808e+00 2.2946387899e-04 1.5640414217e+00 -2.7089992076e+00 1.5640414217e+00 2.7089992076e+00 
38400 5.3318991707e+00 2.2673321070e-04 1.5640340861e+00 -2.7089865019e+00 1.5640340861e+00 2.7089865019e+00 
38500 5.3318991609e+00 2.2403252619e-04 1.5640268378e+00 -2.7089739474e+00 1.5640268378e+00 2.7089739474e+00 
38600 5.3318991513e+00 2.2136140752e-04 1.5640196757e+00 -2.7089615424e+00 1.5640196757e+00 2.7089615424e+00 
38700 5.3318991421e+00 2.1871945150e-04 1.5640125991e+00 -2.7089492853e+00 1.5640125991e+00 2.7089492853e+00 
38800 5.3318991331e+00 2.1610626907e-04 1.5640056068e+00 -2.7089371743e+00 1.5640056068e+00 2.7089371743e+00 
38900 5.3318991244e+00 2.1352148474e-04 1.5639986981e+00 -2.7089252081e+00 1.5639986981e+00 2.7089252081e+00 
39000 5.3318991159e+00 2.1096473595e-04 1.5639918719e+00 -2.7089133848e+00 1.5639918719e+00 2.7089133848e+00 
39100 5.3318991077e+00 2.0843567257e-04 1.5639851275e+00 -2.7089017032e+00 1.5639851275e+00 2.7089017032e+00 
39200 5.3318990998e+00 2.0593395628e-04 1.5639784639e+00 -2.7088901615e+00 1.5639784639e+00 2.7088901615e+00 
39300 5.3318990921e+00 2.0345926003e-04 1.5639718803e+00 -2.7088787582e+00 1.5639718803e+00 2.7088787582e+00 
39400 5.3318990846e+00 2.0101126758e-04 1.5639653757e+00 -2.7088674920e+00 1.5639653757e+00 2.7088674920e+00 
39500 5.3318990773e+00 1.9858967291e-04 1.5639589494e+00 -2.7088563613e+00 1.5639589494e+00 2.7088563613e+00 
39600 5.3318990703e+00 1.9619417973e-04 1.5639526004e+00 -2.7088453646e+00 1.5639526004e+00 2.7088453646e+00 
39700 5.3318990634e+00 1.9382450105e-04 1.5639463281e+00 -2.7088345005e+00 1.5639463281e+00 2.7088345005e+00 
39800 5.3318990568e+00 1.9148035865e-04 1.5639401314e+00 -2.7088237676e+00 1.5639401314e+00 2.7088237676e+00 
39900 5.3318990504e+00 1.8916148266e-04 1.5639340097e+00 -2.7088131645e+00 1.5639340097e+00 2.7088131645e+00 
40000 5.3318990441e+00 1.8686761110e-04 1.5639279621e+00 -2.7088026897e+00 1.5639279621e+00 2.7088026897e+00 
40100 5.3318990381e+00 1.8459848945e-04 1.5639219878e+00 -2.7087923419e+00 1.5639219878e+00 2.7087923419e+00 
40200 5.3318990322e+00 1.8235387027e-04 1.5639160860e+00 -2.7087821197e+00 1.5639160860e+00 2.7087821197e+00 
40300 5.3318990265e+00 1.8013351278e-04 1.5639102560e+00 -2.7087720218e+00 1.5639102560e+00 2.7087720218e+00 
40400 5.3318990210e+00 1.7793718246e-04 1.5639044969e+00 -2.7087620468e+00 1.5639044969e+00 2.7087620468e+00 
40500 5.3318990157e+00 1.7576465072e-04 1.5638988080e+00 -2.7087521934e+00 1.5638988080e+00 2.7087521934e+00 
40600 5.3318990105e+00 1.7361569452e-04 1.5638931886e+00 -2.7087424602e+00 1.5638931886e+00 2.7087424602e+00 
40700 5.3318990055e+00 1.7149009604e-04 1.5638876378e+00 -2.7087328461e+00 1.5638876378e+00 2.7087328461e+00 
40800 5.3318990006e+00 1.6938764234e-04 1.5638821550e+00 -2.7087233496e+00 1.5638821550e+00 2.7087233496e+00 
40900 5.3318989959e+00 1.6730812507e-04 1.5638767394e+00 -2.7087139694e+00 1.5638767394e+00 2.7087139694e+00 
41000 5.3318989913e+00 1.6525134015e-04 1.5638713903e+00 -2.7087047044e+00 1.5638713903e+00 2.7087047044e+00 
41100 5.3318989869e+00 1.6321708748e-04 1.5638661069e+00 -2.7086955533e+00 1.5638661069e+00 2.7086955533e+00 
41200 5.3318989826e+00 1.6120517071e-04 1.5638608885e+00 -2.7086865148e+00 1.5638608885e+00 2.7086865148e+00 
41300 5.3318989784e+00 1.5921539690e-04 1.5638557344e+00 -2.7086775877e+00 1.5638557344e+00 2.7086775877e+00 
41400 5.3318989744e+00 1.5724757636e-04 1.5638506439e+00 -2.7086687707e+00 1.5638506439e+00 2.7086687707e+00 
41500 5.3318989705e+00 1.5530152236e-04 1.5638456164e+00 -2.7086600627e+00 1.5638456164e+00 2.7086600627e+00 
41600 5.3318989667e+00 1.5337705091e-04 1.5638406510e+00 -2.7086514625e+00 1.5638406510e+00 2.7086514625e+00 
41700 5.3318989631e+00 1.5147398055e-04 1.5638357471e+00 -2.7086429687e+00 1.5638357471e+00 2.7086429687e+00 
41800 5.3318989595e+00 1.4959213218e-04 1.5638309041e+00 -2.7086345804e+00 1.5638309041e+00 2.7086345804e+00 
41900 5.3318989561e+00 1.4773132882e-04 1.5638261212e+00 -2.7086262962e+00 1.5638261212e+00 2.7086262962e+00 
42000 5.3318989528e+00 1.4589139547e-04 1.5638213979e+00 -2.7086181150e+00 1.5638213979e+00 2.7086181150e+00 
42100 5.3318989495e+00 1.4407215893e-04 1.5638167333e+00 -2.7086100358e+00 1.5638167333e+00 2.7086100358e+00 
42200 5.3318989464e+00 1.4227344762e-04 1.5638121268e+00 -2.7086020572e+00 1.5638121268e+00 2.7086020572e+00 
42300 5.3318989434e+00 1.4049509146e-04 1.5638075779e+00 -2.7085941782e+00 1.5638075779e+00 2.7085941782e+00 
42400 5.3318989405e+00 1.3873692174e-04 1.5638030858e+00 -2.7085863977e+00 1.5638030858e+00 2.7085863977e+00 
42500 5.3318989376e+00 1.3699877093e-04 1.5637986500e+00 -2.7085787145e+00 1.5637986500e+00 2.7085787145e+00 
42600 5.3318989349e+00 1.3528047266e-04 1.5637942696e+00 -2.7085711276e+00 1.5637942696e+00 2.7085711276e+00 
42700 5.3318989322e+00 1.3358186149e-04 1.5637899442e+00 -2.7085636358e+00 1.5637899442e+00 2.7085636358e+00 
42800 5.3318989297e+00 1.3190277291e-04 1.5637856732e+00 -2.7085562381e+00 1.5637856732e+00 2.7085562381e+00 
42900 5.3318989272e+00 1.3024304318e-04 1.5637814557e+00 -2.7085489333e+00 1.5637814557e+00 2.7085489333e+00 
43000 5.3318989248e+00 1.2860250928e-04 1.5637772914e+00 -2.7085417204e+00 1.5637772914e+00 2.7085417204e+00 
43100 5.3318989225e+00 1.2698100879e-04 1.5637731795e+00 -2.7085345983e+00 1.5637731795e+00 2.7085345983e+00 
43200 5.3318989202e+00 1.2537837987e-04 1.5637691194e+00 -2.7085275661e+00 1.5637691194e+00 2.7085275661e+00 
43300 5.3318989181e+00 1.2379446116e-04 1.5637651105e+00 -2.7085206225e+00 1.5637651105e+00 2.7085206225e+00 
43400 5.3318989160e+00 1.2222909170e-04 1.5637611523e+00 -2.7085137667e+00 1.5637611523e+00 2.7085137667e+00 
43500 5.3318989139e+00 1.2068211096e-04 1.5637572441e+00 -2.7085069976e+00 1.5637572441e+00 2.7085069976e+00 
43600 5.3318989120e+00 1.1915335868e-04 1.5637533854e+00 -2.7085003141e+00 1.5637533854e+00 2.7085003141e+00 
43700 5.3318989101e+00 1.1764267492e-04 1.5637495756e+00 -2.7084937152e+00 1.5637495756e+00 2.7084937152e+00 
43800 5.3318989082e+00 1.1614990000e-04 1.5637458140e+00 -2.7084872000e+00 1.5637458140e+00 2.7084872000e+00 
43900 5.3318989064e+00 1.1467487444e-04 1.5637421002e+00 -2.7084807674e+00 1.5637421002e+00 2.7084807674e+00 
44000 5.3318989047e+00 1.1321743898e-04 1.5637384335e+00 -2.7084744166e+00 1.5637384335e+00 2.7084744166e+00 
44100 5.3318989031e+00 1.1177743452e-04 1.5637348134e+00 -2.7084681464e+00 1.5637348134e+00 2.7084681464e+00 
44200 5.3318989015e+00 1.1035470212e-04 1.5637312394e+00 -2.7084619560e+00 1.5637312394e+00 2.7084619560e+00 
44300 5.3318988999e+00 1.0894908302e-04 1.5637277108e+00 -2.7084558443e+00 1.5637277108e+00 2.7084558443e+00 
44400 5.3318988984e+00 1.0756041858e-04 1.5637242272e+00 -2.7084498105e+00 1.5637242272e+00 2.7084498105e+00 
44500 5.3318988970e+00 1.0618855029e-04 1.5637207879e+00 -2.7084438535e+00 1.5637207879e+00 2.7084438535e+00 
44600 5.3318988956e+00 1.0483331981e-04 1.5637173925e+00 -2.7084379726e+00 1.5637173925e+00 2.7084379726e+00 
44700 5.3318988943e+00 1.0349456892e-04 1.5637140405e+00 -2.7084321666e+00 1.5637140405e+00 2.7084321666e+00 
44800 5.3318988930e+00 1.0217213956e-04 1.5637107312e+00 -2.7084264348e+00 1.5637107312e+00 2.7084264348e+00 
44900 5.3318988917e+00 1.0086587382e-04 1.5637074643e+00 -2.7084207763e+00 1.5637074643e+00 2.7084207763e+00 
45000 5.3318988905e+00 9.9575613962e-05 1.5637042390e+00 -2.7084151900e+00 1.5637042390e+00 2.7084151900e+00 
45100 5.3318988894e+00 9.8301202435e-05 1.5637010551e+00 -2.7084096752e+00 1.5637010551e+00 2.7084096752e+00 
45200 5.3318988882e+00 9.7042481889e-05 1.5636979119e+00 -2.7084042310e+00 1.5636979119e+00 2.7084042310e+00 
45300 5.3318988871e+00 9.5799295187e-05 1.5636948089e+00 -2.7083988565e+00 1.5636948089e+00 2.7083988565e+00 
45400 5.3318988861e+00 9.4571485435e-05 1.5636917456e+00 -2.7083935508e+00 1.5636917456e+00 2.7083935508e+00 
45500 5.3318988851e+00 9.3358895999e-05 1.5636887217e+00 -2.7083883131e+00 1.5636887217e+00 2.7083883131e+00 
45600 5.3318988841e+00 9.2161370532e-05 1.5636857365e+00 -2.7083831426e+00 1.5636857365e+00 2.7083831426e+00 
45700 5.3318988832e+00 9.0978752990e-05 1.5636827895e+00 -2.7083780384e+00 1.5636827895e+00 2.7083780384e+00 
45800 5.3318988823e+00 8.9810887671e-05 1.5636798804e+00 -2.7083729996e+00 1.5636798804e+00 2.7083729996e+00 
45900 5.3318988814e+00 8.8657619235e-05 1.5636770086e+00 -2.7083680256e+00 1.5636770086e+00 2.7083680256e+00 
46000 5.3318988806e+00 8.7518792729e-05 1.5636741737e+00 -2.7083631154e+00 1.5636741737e+00 2.7083631154e+00 
46100 5.3318988798e+00 8.6394253627e-05 1.5636713752e+00 -2.7083582682e+00 1.5636713752e+00 2.7083582682e+00 
46200 5.3318988790e+00 8.5283847845e-05 1.5636686127e+00 -2.7083534834e+00 1.5636686127e+00 2.7083534834e+00 
46300 5.3318988783e+00 8.4187421786e-05 1.5636658856e+00 -2.7083487600e+00 1.5636658856e+00 2.7083487600e+00 
46400 5.3318988776e+00 8.3104822359e-05 1.5636631937e+00 -2.7083440973e+00 1.5636631937e+00 2.7083440973e+00 
46500 5.3318988769e+00 8.2035897014e-05 1.5636605363e+00 -2.7083394946e+00 1.5636605363e+00 2.7083394946e+00 
46600 5.3318988762e+00 8.0980493777e-05 1.5636579131e+00 -2.7083349511e+00 1.5636579131e+00 2.7083349511e+00 
46700 5.3318988756e+00 7.9938461273e-05 1.5636553236e+00 -2.7083304660e+00 1.5636553236e+00 2.7083304660e+00 
46800 5.3318988750e+00 7.8909648764e-05 1.5636527675e+00 -2.7083260387e+00 1.5636527675e+00 2.7083260387e+00 
46900 5.3318988744e+00 7.7893906178e-05 1.5636502442e+00 -2.7083216683e+00 1.5636502442e+00 2.7083216683e+00 
47000 5.3318988738e+00 7.6891084138e-05 1.5636477535e+00 -2.7083173541e+00 1.5636477535e+00 2.7083173541e+00 
47100 5.3318988733e+00 7.5901033995e-05 1.5636452948e+00 -2.7083130955e+00 1.5636452948e+00 2.7083130955e+00 
47200 5.3318988728e+00 7.4923607856e-05 1.5636428677e+00 -2.7083088918e+00 1.5636428677e+00 2.7083088918e+00 
47300 5.3318988723e+00 7.3958658616e-05 1.5636404719e+00 -2.7083047421e+00 1.5636404719e+00 2.7083047421e+00 
47400 5.3318988718e+00 7.3006039985e-05 1.5636381069e+00 -2.7083006459e+00 1.5636381069e+00 2.7083006459e+00 
47500 5.3318988714e+00 7.2065606520e-05 1.5636357725e+00 -2.7082966024e+00 1.5636357725e+00 2.7082966024e+00 
47600 5.3318988709e+00 7.1137213649e-05 1.5636334680e+00 -2.7082926110e+00 1.5636334680e+00 2.7082926110e+00 
47700 5.3318988705e+00 7.0220717702e-05 1.5636311933e+00 -2.7082886711e+00 1.5636311933e+00 2.7082886711e+00 
47800 5.3318988703e+00 7.0890403460e-05 1.5636311933e+00 -2.7082886711e+00 1.5636311933e+00 2.7082886711e+00 
47900 5.3318988699e+00 6.9971170696e-05 1.5636289264e+00 -2.7082847448e+00 1.5636289264e+00 2.7082847448e+00 
48000 5.3318988697e+00 7.0632488921e-05 1.5636289264e+00 -2.7082847448e+00 1.5636289264e+00 2.7082847448e+00 
48100 5.3318988696e+00 7.1294197925e-05 1.5636289264e+00 -2.7082847448e+00 1.5636289264e+00 2.7082847448e+00 
48200 5.3318988692e+00 7.0357706224e-05 1.5636266467e+00 -2.7082807961e+00 1.5636266467e+00 2.7082807961e+00 
48300 5.3318988691e+00 7.1010482192e-05 1.5636266467e+00 -2.7082807961e+00 1.5636266467e+00 2.7082807961e+00 
48400 5.3318988688e+00 7.0071280160e-05 1.5636243760e+00 -2.7082768631e+00 1.5636243760e+00 2.7082768631e+00 
48500 5.3318988687e+00 7.0714857845e-05 1.5636243760e+00 -2.7082768631e+00 1.5636243760e+00 2.7082768631e+00 
48600 5.3318988684e+00 6.9772940389e-05 1.5636221147e+00 -2.7082729465e+00 1.5636221147e+00 2.7082729465e+00 
48700 5.3318988683e+00 7.0407044972e-05 1.5636221147e+00 -2.7082729465e+00 1.5636221147e+00 2.7082729465e+00 
48800 5.3318988682e+00 7.1040950718e-05 1.5636221147e+00 -2.7082729465e+00 1.5636221147e+00 2.7082729465e+00 
48900 5.3318988680e+00 7.0081770630e-05 1.5636198431e+00 -2.7082690119e+00 1.5636198431e+00 2.7082690119e+00 
49000 5.3318988679e+00 7.0705560417e-05 1.5636198431e+00 -2.7082690119e+00 1.5636198431e+00 2.7082690119e+00 
49100 5.3318988679e+00 7.1328845374e-05 1.5636198431e+00 -2.7082690119e+00 1.5636198431e+00 2.7082690119e+00 
49200 5.3318988676e+00 7.0352297811e-05 1.5636175622e+00 -2.7082650613e+00 1.5636175622e+00 2.7082650613e+00 
49300 5.3318988676e+00 7.0964809660e-05 1.5636175622e+00 -2.7082650613e+00 1.5636175622e+00 2.7082650613e+00 
49400 5.3318988674e+00 6.9985489436e-05 1.5636152929e+00 -2.7082611308e+00 1.5636152929e+00 2.7082611308e+00 
49500 5.3318988674e+00 7.0586939981e-05 1.5636152929e+00 -2.7082611308e+00 1.5636152929e+00 2.7082611308e+00 
49600 5.3318988674e+00 7.1187412686e-05 1.5636152929e+00 -2.7082611308e+00 1.5636152929e+00 2.7082611308e+00 
49700 5.3318988672e+00 7.0190779254e-05 1.5636130165e+00 -2.7082571880e+00 1.5636130165e+00 2.7082571880e+00 
49800 5.3318988672e+00 7.0779566982e-05 1.5636130165e+00 -2.7082571880e+00 1.5636130165e+00 2.7082571880e+00 
49900 5.3318988670e+00 6.9780243195e-05 1.5636107532e+00 -2.7082532678e+00 1.5636107532e+00 2.7082532678e+00 
50000 5.3318988670e+00 7.0357092173e-05 1.5636107532e+00 -2.7082532678e+00 1.5636107532e+00 2.7082532678e+00 
50100 5.3318988670e+00 7.0932525871e-05 1.5636107532e+00 -2.7082532678e+00 1.5636107532e+00 2.7082532678e+00 
50200 5.3318988669e+00 6.9916161622e-05 1.5636084850e+00 -2.7082493391e+00 1.5636084850e+00 2.7082493391e+00 
50300 5.3318988669e+00 7.0479100480e-05 1.5636084850e+00 -2.7082493391e+00 1.5636084850e+00 2.7082493391e+00 
50400 5.3318988669e+00 7.1040364618e-05 1.5636084850e+00 -2.7082493391e+00 1.5636084850e+00 2.7082493391e+00 
50500 5.3318988668e+00 7.0007172390e-05 1.5636062133e+00 -2.7082454045e+00 1.5636062133e+00 2.7082454045e+00 
50600 5.3318988668e+00 7.0555427810e-05 1.5636062133e+00 -2.7082454045e+00 1.5636062133e+00 2.7082454045e+00 
50700 5.3318988669e+00 7.1101769462e-05 1.5636062133e+00 -2.7082454045e+00 1.5636062133e+00 2.7082454045e+00 
50800 5.3318988668e+00 7.0052058264e-05 1.5636039397e+00 -2.7082414664e+00 1.5636039397e+00 2.7082414664e+00 
50900 5.3318988668e+00 7.0584928232e-05 1.5636039397e+00 -2.7082414664e+00 1.5636039397e+00 2.7082414664e+00 
51000 5.3318988669e+00 7.1115669497e-05 1.5636039397e+00 -2.7082414664e+00 1.5636039397e+00 2.7082414664e+00 
51100 5.3318988668e+00 7.0049850774e-05 1.5636016656e+00 -2.7082375275e+00 1.5636016656e+00 2.7082375275e+00 
51200 5.3318988668e+00 7.0566714850e-05 1.5636016656e+00 -2.7082375275e+00 1.5636016656e+00 2.7082375275e+00 
51300 5.3318988669e+00 7.1081262119e-05 1.5636016656e+00 -2.7082375275e+00 1.5636016656e+00 2.7082375275e+00 
51400 5.3318988668e+00 6.9999852028e-05 1.5635993926e+00 -2.7082335906e+00 1.5635993926e+00 2.7082335906e+00 
51500 5.3318988669e+00 7.0500178672e-05 1.5635993926e+00 -2.7082335906e+00 1.5635993926e+00 2.7082335906e+00 
51600 5.3318988670e+00 7.0998029037e-05 1.5635993926e+00 -2.7082335906e+00 1.5635993926e+00 2.7082335906e+00 
51700 5.3318988669e+00 6.9901647613e-05 1.5635971222e+00 -2.7082296583e+00 1.5635971222e+00 2.7082296583e+00 
51800 5.3318988669e+00 7.0384998847e-05 1.5635971222e+00 -2.7082296583e+00 1.5635971222e+00 2.7082296583e+00 
51900 5.3318988670e+00 7.0865743975e-05 1.5635971222e+00 -2.7082296583e+00 1.5635971222e+00 2.7082296583e+00 
52000 5.3318988669e+00 6.9755111694e-05 1.5635948561e+00 -2.7082257332e+00 1.5635948561e+00 2.7082257332e+00 
52100 5.3318988670e+00 7.0221145430e-05 1.5635948561e+00 -2.7082257332e+00 1.5635948561e+00 2.7082257332e+00 
52200 5.3318988671e+00 7.0684473183e-05 1.5635948561e+00 -2.7082257332e+00 1.5635948561e+00 2.7082257332e+00 
52300 5.3318988672e+00 7.1145031157e-05 1.5635948561e+00 -2.7082257332e+00 1.5635948561e+00 2.7082257332e+00 
52400 5.3318988671e+00 7.0007809243e-05 1.5635925811e+00 -2.7082217927e+00 1.5635925811e+00 2.7082217927e+00 
52500 5.3318988672e+00 7.0453322198e-05 1.5635925811e+00 -2.7082217927e+00 1.5635925811e+00 2.7082217927e+00 
52600 5.3318988674e+00 7.0895996658e-05 1.5635925811e+00 -2.7082217927e+00 1.5635925811e+00 2.7082217927e+00 
52700 5.3318988673e+00 6.9746422910e-05 1.5635903140e+00 -2.7082178660e+00 1.5635903140e+00 2.7082178660e+00 
52800 5.3318988674e+00 7.0173978694e-05 1.5635903140e+00 -2.7082178660e+00 1.5635903140e+00 2.7082178660e+00 
52900 5.3318988675e+00 7.0598657799e-05 1.5635903140e+00 -2.7082178660e+00 1.5635903140e+00 2.7082178660e+00 
53000 5.3318988676e+00 7.1020416920e-05 1.5635903140e+00 -2.7082178660e+00 1.5635903140e+00 2.7082178660e+00 
53100 5.3318988675e+00 6.9847077443e-05 1.5635880429e+00 -2.7082139324e+00 1.5635880429e+00 2.7082139324e+00 
53200 5.3318988676e+00 7.0253568399e-05 1.5635880429e+00 -2.7082139324e+00 1.5635880429e+00 2.7082139324e+00 
53300 5.3318988677e+00 7.0657131226e-05 1.5635880429e+00 -2.7082139324e+00 1.5635880429e+00 2.7082139324e+00 
53400 5.3318988678e+00 7.1057732507e-05 1.5635880429e+00 -2.7082139324e+00 1.5635880429e+00 2.7082139324e+00 
53500 5.3318988677e+00 6.9862376350e-05 1.5635857706e+00 -2.7082099968e+00 1.5635857706e+00 2.7082099968e+00 
53600 5.3318988679e+00 7.0247650773e-05 1.5635857706e+00 -2.7082099968e+00 1.5635857706e+00 2.7082099968e+00 
53700 5.3318988680e+00 7.0629984771e-05 1.5635857706e+00 -2.7082099968e+00 1.5635857706e+00 2.7082099968e+00 
53800 5.3318988681e+00 7.1009354455e-05 1.5635857706e+00 -2.7082099968e+00 1.5635857706e+00 2.7082099968e+00 
53900 5.3318988680e+00 6.9793866403e-05 1.5635834999e+00 -2.7082060637e+00 1.5635834999e+00 2.7082060637e+00 
54000 5.3318988681e+00 7.0157938021e-05 1.5635834999e+00 -2.7082060637e+00 1.5635834999e+00 2.7082060637e+00 
54100 5.3318988682e+00 7.0519094121e-05 1.5635834999e+00 -2.7082060637e+00 1.5635834999e+00 2.7082060637e+00 
54200 5.3318988683e+00 7.0877319737e-05 1.5635834999e+00 -2.7082060637e+00 1.5635834999e+00 2.7082060637e+00 
54300 5.3318988683e+00 6.9643697823e-05 1.5635812334e+00 -2.7082021380e+00 1.5635812334e+00 2.7082021380e+00 
54400 5.3318988684e+00 6.9986736346e-05 1.5635812334e+00 -2.7082021380e+00 1.5635812334e+00 2.7082021380e+00 
54500 5.3318988685e+00 7.0326918642e-05 1.5635812334e+00 -2.7082021380e+00 1.5635812334e+00 2.7082021380e+00 
54600 5.3318988686e+00 7.0664237893e-05 1.5635812334e+00 -2.7082021380e+00 1.5635812334e+00 2.7082021380e+00 
54700 5.3318988687e+00 7.0998686657e-05 1.5635812334e+00 -2.7082021380e+00 1.5635812334e+00 2.7082021380e+00 
54800 5.3318988686e+00 6.9738644549e-05 1.5635789630e+00 -2.7081982056e+00 1.5635789630e+00 2.7081982056e+00 
54900 5.3318988687e+00 7.0058032428e-05 1.5635789630e+00 -2.7081982056e+00 1.5635789630e+00 2.7081982056e+00 
55000 5.3318988689e+00 7.0374646221e-05 1.5635789630e+00 -2.7081982056e+00 1.5635789630e+00 2.7081982056e+00 
55100 5.3318988690e+00 7.0688486184e-05 1.5635789630e+00 -2.7081982056e+00 1.5635789630e+00 2.7081982056e+00 
55200 5.3318988691e+00 7.0999551809e-05 1.5635789630e+00 -2.7081982056e+00 1.5635789630e+00 2.7081982056e+00 
55300 5.3318988690e+00 6.9716218964e-05 1.5635766926e+00 -2.7081942731e+00 1.5635766926e+00 2.7081942731e+00 
55400 5.3318988691e+00 7.0012436036e-05 1.5635766926e+00 -2.7081942731e+00 1.5635766926e+00 2.7081942731e+00 
55500 5.3318988692e+00 7.0305995048e-05 1.5635766926e+00 -2.7081942731e+00 1.5635766926e+00 2.7081942731e+00 
55600 5.3318988693e+00 7.0596902543e-05 1.5635766926e+00 -2.7081942731e+00 1.5635766926e+00 2.7081942731e+00 
55700 5.3318988694e+00 7.0885164125e-05 1.5635766926e+00 -2.7081942731e+00 1.5635766926e+00 2.7081942731e+00 
55800 5.3318988693e+00 6.9581733695e-05 1.5635744259e+00 -2.7081903470e+00 1.5635744259e+00 2.7081903470e+00 
55900 5.3318988694e+00 6.9855436121e-05 1.5635744259e+00 -2.7081903470e+00 1.5635744259e+00 2.7081903470e+00 
56000 5.3318988696e+00 7.0126625943e-05 1.5635744259e+00 -2.7081903470e+00 1.5635744259e+00 2.7081903470e+00 
56100 5.3318988697e+00 7.0395315048e-05 1.5635744259e+00 -2.7081903470e+00 1.5635744259e+00 2.7081903470e+00 
56200 5.3318988698e+00 7.0661514184e-05 1.5635744259e+00 -2.7081903470e+00 1.5635744259e+00 2.7081903470e+00 
56300 5.3318988699e+00 7.0925233052e-05 1.5635744259e+00 -2.7081903470e+00 1.5635744259e+00 2.7081903470e+00 
56400 5.3318988698e+00 6.9596540630e-05 1.5635721578e+00 -2.7081864186e+00 1.5635721578e+00 2.7081864186e+00 
56500 5.3318988699e+00 6.9846038209e-05 1.5635721578e+00 -2.7081864186e+00 1.5635721578e+00 2.7081864186e+00 
56600 5.3318988700e+00 7.0093200536e-05 1.5635721578e+00 -2.7081864186e+00 1.5635721578e+00 2.7081864186e+00 
56700 5.3318988701e+00 7.0338043140e-05 1.5635721578e+00 -2.7081864186e+00 1.5635721578e+00 2.7081864186e+00 
56800 5.3318988702e+00 7.0580580284e-05 1.5635721578e+00 -2.7081864186e+00 1.5635721578e+00 2.7081864186e+00 
56900 5.3318988703e+00 7.0820825058e-05 1.5635721578e+00 -2.7081864186e+00 1.5635721578e+00 2.7081864186e+00 
57000 5.3318988702e+00 6.9471198291e-05 1.5635698931e+00 -2.7081824960e+00 1.5635698931e+00 2.7081824960e+00 
57100 5.3318988703e+00 6.9697620837e-05 1.5635698931e+00 -2.7081824960e+00 1.5635698931e+00 2.7081824960e+00 
57200 5.3318988704e+00 6.9921905209e-05 1.5635698931e+00 -2.7081824960e+00 1.5635698931e+00 2.7081824960e+00 
57300 5.3318988705e+00 7.0144069762e-05 1.5635698931e+00 -2.7081824960e+00 1.5635698931e+00 2.7081824960e+00 
57400 5.3318988706e+00 7.0364131447e-05 1.5635698931e+00 -2.7081824960e+00 1.5635698931e+00 2.7081824960e+00 
57500 5.3318988707e+00 7.0582105903e-05 1.5635698931e+00 -2.7081824960e+00 1.5635698931e+00 2.7081824960e+00 
57600 5.3318988708e+00 7.0798007535e-05 1.5635698931e+00 -2.7081824960e+00 1.5635698931e+00 2.7081824960e+00 
57700 5.3318988707e+00 6.9424778889e-05 1.5635676291e+00 -2.7081785747e+00 1.5635676291e+00 2.7081785747e+00 
57800 5.3318988708e+00 6.9627304061e-05 1.5635676291e+00 -2.7081785747e+00 1.5635676291e+00 2.7081785747e+00 
57900 5.3318988708e+00 6.9827914167e-05 1.5635676291e+00 -2.7081785747e+00 1.5635676291e+00 2.7081785747e+00 
58000 5.3318988709e+00 7.0026628629e-05 1.5635676291e+00 -2.7081785747e+00 1.5635676291e+00 2.7081785747e+00 
58100 5.3318988710e+00 7.0223465398e-05 1.5635676291e+00 -2.7081785747e+00 1.5635676291e+00 2.7081785747e+00 
58200 5.3318988711e+00 7.0418441037e-05 1.5635676291e+00 -2.7081785747e+00 1.5635676291e+00 2.7081785747e+00 
58300 5.3318988712e+00 7.0611570809e-05 1.5635676291e+00 -2.7081785747e+00 1.5635676291e+00 2.7081785747e+00 
58400 5.3318988713e+00 7.0802868759e-05 1.5635676291e+00 -2.7081785747e+00 1.5635676291e+00 2.7081785747e+00 
58500 5.3318988712e+00 6.9405177461e-05 1.5635653650e+00 -2.7081746531e+00 1.5635653650e+00 2.7081746531e+00 
58600 5.3318988713e+00 6.9583579217e-05 1.5635653650e+00 -2.7081746531e+00 1.5635653650e+00 2.7081746531e+00 
58700 5.3318988714e+00 6.9760305859e-05 1.5635653650e+00 -2.7081746531e+00 1.5635653650e+00 2.7081746531e+00 
58800 5.3318988714e+00 6.9935376453e-05 1.5635653650e+00 -2.7081746531e+00 1.5635653650e+00 2.7081746531e+00 
58900 5.3318988715e+00 7.0108808584e-05 1.5635653650e+00 -2.7081746531e+00 1.5635653650e+00 2.7081746531e+00 
59000 5.3318988716e+00 7.0280618442e-05 1.5635653650e+00 -2.7081746531e+00 1.5635653650e+00 2.7081746531e+00 
59100 5.3318988717e+00 7.0450820902e-05 1.5635653650e+00 -2.7081746531e+00 1.5635653650e+00 2.7081746531e+00 
59200 5.3318988718e+00 7.0619429608e-05 1.5635653650e+00 -2.7081746531e+00 1.5635653650e+00 2.7081746531e+00 
59300 5.3318988718e+00 7.0786457042e-05 1.5635653650e+00 -2.7081746531e+00 1.5635653650e+00 2.7081746531e+00 
59400 5.3318988717e+00 6.9365121482e-05 1.5635631013e+00 -2.7081707324e+00 1.5635631013e+00 2.7081707324e+00 
59500 5.3318988718e+00 6.9519751494e-05 1.5635631013e+00 -2.7081707324e+00 1.5635631013e+00 2.7081707324e+00 
59600 5.3318988719e+00 6.9672952574e-05 1.5635631013e+00 -2.7081707324e+00 1.5635631013e+00 2.7081707324e+00 
59700 5.3318988720e+00 6.9824742430e-05 1.5635631013e+00 -2.7081707324e+00 1.5635631013e+00 2.7081707324e+00 
59800 5.3318988720e+00 6.9975137332e-05 1.5635631013e+00 -2.7081707324e+00 1.5635631013e+00 2.7081707324e+00 
59900 5.3318988721e+00 7.0124152190e-05 1.5635631013e+00 -2.7081707324e+00 1.5635631013e+00 2.7081707324e+00 
60000 5.3318988722e+00 7.0271800634e-05 1.5635631013e+00 -2.7081707324e+00 1.5635631013e+00 2.7081707324e+00 
60100 5.3318988723e+00 7.0418095088e-05 1.5635631013e+00 -2.7081707324e+00 1.5635631013e+00 2.7081707324e+00 
60200 5.3318988723e+00 7.0563046847e-05 1.5635631013e+00 -2.7081707324e+00 1.5635631013e+00 2.7081707324e+00 
60300 5.3318988724e+00 7.0706666148e-05 1.5635631013e+00 -2.7081707324e+00 1.5635631013e+00 2.7081707324e+00 
60400 5.3318988725e+00 7.0848962239e-05 1.5635631013e+00 -2.7081707324e+00 1.5635631013e+00 2.7081707324e+00 
60500 5.3318988723e+00 6.9401759352e-05 1.5635608357e+00 -2.7081668082e+00 1.5635608357e+00 2.7081668082e+00 
60600 5.3318988724e+00 6.9532156846e-05 1.5635608357e+00 -2.7081668082e+00 1.5635608357e+00 2.7081668082e+00 
60700 5.3318988725e+00 6.9661374807e-05 1.5635608357e+00 -2.7081668082e+00 1.5635608357e+00 2.7081668082e+00 
60800 5.3318988725e+00 6.9789428316e-05 1.5635608357e+00 -2.7081668082e+00 1.5635608357e+00 2.7081668082e+00 
60900 5.3318988726e+00 6.9916331144e-05 1.5635608357e+00 -2.7081668082e+00 1.5635608357e+00 2.7081668082e+00 
61000 5.3318988727e+00 7.0042095829e-05 1.5635608357e+00 -2.7081668082e+00 1.5635608357e+00 2.7081668082e+00 
61100 5.3318988727e+00 7.0166733747e-05 1.5635608357e+00 -2.7081668082e+00 1.5635608357e+00 2.7081668082e+00 
61200 5.3318988728e+00 7.0290255180e-05 1.5635608357e+00 -2.7081668082e+00 1.5635608357e+00 2.7081668082e+00 
61300 5.3318988729e+00 7.0412669385e-05 1.5635608357e+00 -2.7081668082e+00 1.5635608357e+00 2.7081668082e+00 
61400 5.3318988729e+00 7.0533984658e-05 1.5635608357e+00 -2.7081668082e+00 1.5635608357e+00 2.7081668082e+00 
61500 5.3318988730e+00 7.0654208403e-05 1.5635608357e+00 -2.7081668082e+00 1.5635608357e+00 2.7081668082e+00 
61600 5.3318988730e+00 7.0773347189e-05 1.5635608357e+00 -2.7081668082e+00 1.5635608357e+00 2.7081668082e+00 
61700 5.3318988729e+00 6.9304926695e-05 1.5635585725e+00 -2.7081628882e+00 1.5635585725e+00 2.7081628882e+00 
61800 5.3318988730e+00 6.9412645800e-05 1.5635585725e+00 -2.7081628882e+00 1.5635585725e+00 2.7081628882e+00 
61900 5.3318988730e+00 6.9519416310e-05 1.5635585725e+00 -2.7081628882e+00 1.5635585725e+00 2.7081628882e+00 
62000 5.3318988731e+00 6.9625251160e-05 1.5635585725e+00 -2.7081628882e+00 1.5635585725e+00 2.7081628882e+00 
62100 5.3318988731e+00 6.9730162090e-05 1.5635585725e+00 -2.7081628882e+00 1.5635585725e+00 2.7081628882e+00 
62200 5.3318988732e+00 6.9834159719e-05 1.5635585725e+00 -2.7081628882e+00 1.5635585725e+00 2.7081628882e+00 
62300 5.3318988732e+00 6.9937253609e-05 1.5635585725e+00 -2.7081628882e+00 1.5635585725e+00 2.7081628882e+00 
62400 5.3318988733e+00 7.0039452322e-05 1.5635585725e+00 -2.7081628882e+00 1.5635585725e+00 2.7081628882e+00 
62500 5.3318988734e+00 7.0140763488e-05 1.5635585725e+00 -2.7081628882e+00 1.5635585725e+00 2.7081628882e+00 
62600 5.3318988734e+00 7.0241193862e-05 1.5635585725e+00 -2.7081628882e+00 1.5635585725e+00 2.7081628882e+00 
62700 5.3318988735e+00 7.0340749381e-05 1.5635585725e+00 -2.7081628882e+00 1.5635585725e+00 2.7081628882e+00 
62800 5.3318988735e+00 7.0439435222e-05 1.5635585725e+00 -2.7081628882e+00 1.5635585725e+00 2.7081628882e+00 
62900 5.3318988736e+00 7.0537255855e-05 1.5635585725e+00 -2.7081628882e+00 1.5635585725e+00 2.7081628882e+00 
63000 5.3318988736e+00 7.0634215100e-05 1.5635585725e+00 -2.7081628882e+00 1.5635585725e+00 2.7081628882e+00 
63100 5.3318988737e+00 7.0730316172e-05 1.5635585725e+00 -2.7081628882e+00 1.5635585725e+00 2.7081628882e+00 
63200 5.3318988735e+00 6.9240055566e-05 1.5635563107e+00 -2.7081589706e+00 1.5635563107e+00 2.7081589706e+00 
63300 5.3318988736e+00 6.9325186945e-05 1.5635563107e+00 -2.7081589706e+00 1.5635563107e+00 2.7081589706e+00 
63400 5.3318988736e+00 6.9409587665e-05 1.5635563107e+00 -2.7081589706e+00 1.5635563107e+00 2.7081589706e+00 
63500 5.3318988737e+00 6.9493268117e-05 1.5635563107e+00 -2.7081589706e+00 1.5635563107e+00 2.7081589706e+00 
63600 5.3318988737e+00 6.9576237680e-05 1.5635563107e+00 -2.7081589706e+00 1.5635563107e+00 2.7081589706e+00 
63700 5.3318988738e+00 6.9658504776e-05 1.5635563107e+00 -2.7081589706e+00 1.5635563107e+00 2.7081589706e+00 
63800 5.3318988738e+00 6.9740076933e-05 1.5635563107e+00 -2.7081589706e+00 1.5635563107e+00 2.7081589706e+00 
63900 5.3318988738e+00 6.9820960828e-05 1.5635563107e+00 -2.7081589706e+00 1.5635563107e+00 2.7081589706e+00 
64000 5.3318988739e+00 6.9901162344e-05 1.5635563107e+00 -2.7081589706e+00 1.5635563107e+00 2.7081589706e+00 
64100 5.3318988739e+00 6.9980686624e-05 1.5635563107e+00 -2.7081589706e+00 1.5635563107e+00 2.7081589706e+00 
64200 5.3318988740e+00 7.0059538115e-05 1.5635563107e+00 -2.7081589706e+00 1.5635563107e+00 2.7081589706e+00 
64300 5.3318988740e+00 7.0137720618e-05 1.5635563107e+00 -2.7081589706e+00 1.5635563107e+00 2.7081589706e+00 
64400 5.3318988741e+00 7.0215237335e-05 1.5635563107e+00 -2.7081589706e+00 1.5635563107e+00 2.7081589706e+00 
64500 5.3318988741e+00 7.0292090914e-05 1.5635563107e+00 -2.7081589706e+00 1.5635563107e+00 2.7081589706e+00 
64600 5.3318988741e+00 7.0368283491e-05 1.5635563107e+00 -2.7081589706e+00 1.5635563107e+00 2.7081589706e+00 
64700 5.3318988742e+00 7.0443816733e-05 1.5635563107e+00 -2.7081589706e+00 1.5635563107e+00 2.7081589706e+00 
64800 5.3318988742e+00 7.0518691879e-05 1.5635563107e+00 -2.7081589706e+00 1.5635563107e+00 2.7081589706e+00 
64900 5.3318988742e+00 7.0539539114e-05 1.5635563107e+00 -2.7081589706e+00 1.5635563107e+00 2.7081589706e+00 
64900 5.3318988742e+00 7.0539539114e-05 1.5635563107e+00 -2.7081589706e+00 1.5635563107e+00 2.7081589706e+00 
