# step Hamiltonian StressXX CellTensor1 CellTensor2 CellTensor3 CellTensor4 
0 6.6154474065e+00 1.7738344267e-01 2.5594246509e+00 -4.4330535334e+00 2.5594246509e+00 4.4330535334e+00 
100 6.6331330380e+00 1.9393479330e-01 2.5594246509e+00 -4.4330535334e+00 2.5594246509e+00 4.4330535334e+00 
200 6.6498885799e+00 2.0933769382e-01 2.5556369465e+00 -4.4264930371e+00 2.5556369465e+00 4.4264930371e+00 
300 6.6660587205e+00 2.2406816415e-01 2.5515424352e+00 -4.4194011354e+00 2.5515424352e+00 4.4194011354e+00 
400 6.6814931829e+00 2.3807282833e-01 2.5471528592e+00 -4.4117981667e+00 2.5471528592e+00 4.4117981667e+00 
500 6.6960334633e+00 2.5126171402e-01 2.5424809783e+00 -4.4037062317e+00 2.5424809783e+00 4.4037062317e+00 
600 6.7095215240e+00 2.6351572158e-01 2.5375413117e+00 -4.3951504781e+00 2.5375413117e+00 4.3951504781e+00 
700 6.7218101909e+00 2.7469863468e-01 2.5323507426e+00 -4.3861601487e+00 2.5323507426e+00 4.3861601487e+00 
800 6.7327751691e+00 2.8467432184e-01 2.5269288956e+00 -4.3767692342e+00 2.5269288956e+00 4.3767692342e+00 
900 6.7423276662e+00 2.9332814481e-01 2.5212981807e+00 -4.3670165500e+00 2.5212981807e+00 4.3670165500e+00 
1000 6.7504255772e+00 3.0058935141e-01 2.5154834164e+00 -4.3569450828e+00 2.5154834164e+00 4.3569450828e+00 
1100 6.7570805229e+00 3.0644926328e-01 2.5095110042e+00 -4.3466005615e+00 2.5095110042e+00 4.3466005615e+00 
1200 6.7623582899e+00 3.1096969468e-01 2.5034077297e+00 -4.3360293799e+00 2.5034077297e+00 4.3360293799e+00 
1300 6.7663716569e+00 3.1427817969e-01 2.4971993765e+00 -4.3252761966e+00 2.4971993765e+00 4.3252761966e+00 
1400 6.7692667932e+00 3.1655076547e-01 2.4909094130e+00 -4.3143816604e+00 2.4909094130e+00 4.3143816604e+00 
1500 6.7712063657e+00 3.1798735485e-01 2.4845580010e+00 -4.3033806921e+00 2.4845580010e+00 4.3033806921e+00 
1600 6.7723532094e+00 3.1878660055e-01 2.4781614810e+00 -4.2923015944e+00 2.4781614810e+00 4.2923015944e+00 
1700 6.7728576446e+00 3.1912631478e-01 2.4717323531e+00 -4.2811660182e+00 2.4717323531e+00 4.2811660182e+00 
1800 6.7728498533e+00 3.1915229399e-01 2.4652796512e+00 -4.2699896108e+00 2.4652796512e+00 4.2699896108e+00 
1900 6.7724370722e+00 3.1897525661e-01 2.4588095483e+00 -4.2587830637e+00 2.4588095483e+00 4.2587830637e+00 
2000 6.7717043487e+00 3.1867361395e-01 2.4523260318e+00 -4.2475532838e+00 2.4523260318e+00 4.2475532838e+00 
2100 6.7707173454e+00 3.1829930696e-01 2.4458315340e+00 -4.2363044837e+00 2.4458315340e+00 4.2363044837e+00 
2200 6.7695259265e+00 3.1788445420e-01 2.4393274517e+00 -4.2250390826e+00 2.4393274517e+00 4.2250390826e+00 
2300 6.7681676945e+00 3.1744741939e-01 2.4328145385e+00 -4.2137583861e+00 2.4328145385e+00 4.2137583861e+00 
2400 6.7666710501e+00 3.1699768036e-01 2.4262931793e+00 -4.2024630606e+00 2.4262931793e+00 4.2024630606e+00 
2500 6.7650576373e+00 3.1653939724e-01 2.4197635676e+00 -4.1911534413e+00 2.4197635676e+00 4.1911534413e+00 
2600 6.7633441952e+00 3.1607384383e-01 2.4132258130e+00 -4.1798297182e+00 2.4132258130e+00 4.1798297182e+00 
2700 6.7615439112e+00 3.1560095808e-01 2.4066799999e+00 -4.1684920374e+00 2.4066799999e+00 4.1684920374e+00 
2800 6.7596673858e+00 3.1512026426e-01 2.4001262150e+00 -4.1571405489e+00 2.4001262150e+00 4.1571405489e+00 
2900 6.7577233105e+00 3.1463137437e-01 2.3935645555e+00 -4.1457754212e+00 2.3935645555e+00 4.1457754212e+00 
3000 6.7557189407e+00 3.1413422405e-01 2.3869951277e+00 -4.1343968386e+00 2.3869951277e+00 4.1343968386e+00 
3100 6.7536604249e+00 3.1362915012e-01 2.3804180406e+00 -4.1230049895e+00 2.3804180406e+00 4.1230049895e+00 
3200 6.7515530356e+00 3.1311688057e-01 2.3738333970e+00 -4.1116000522e+00 2.3738333970e+00 4.1116000522e+00 
3300 6.7494013328e+00 3.1259848124e-01 2.3672412854e+00 -4.1001821802e+00 2.3672412854e+00 4.1001821802e+00 
3400 6.7472092815e+00 3.1207528530e-01 2.3606417731e+00 -4.0887514895e+00 2.3606417731e+00 4.0887514895e+00 
3500 6.7449803377e+00 3.1154882036e-01 2.3540348995e+00 -4.0773080487e+00 2.3540348995e+00 4.0773080487e+00 
3600 6.7427175135e+00 3.1102074072e-01 2.3474206720e+00 -4.0658518707e+00 2.3474206720e+00 4.0658518707e+00 
3700 6.7404234272e+00 3.1049276777e-01 2.3407990630e+00 -4.0543829075e+00 2.3407990630e+00 4.0543829075e+00 
3800 6.7381003423e+00 3.0996663943e-01 2.3341700077e+00 -4.0429010468e+00 2.3341700077e+00 4.0429010468e+00 
3900 6.7357502002e+00 3.0944406812e-01 2.3275334031e+00 -4.0314061106e+00 2.3275334031e+00 4.0314061106e+00 
4000 6.7333746464e+00 3.0892670592e-01 2.3208891086e+00 -4.0198978548e+00 2.3208891086e+00 4.0198978548e+00 
4100 6.7309750537e+00 3.0841611589e-01 2.3142369460e+00 -4.0083759712e+00 2.3142369460e+00 4.0083759712e+00 
4200 6.7285525417e+00 3.0791374799e-01 2.3075767014e+00 -3.9968400891e+00 2.3075767014e+00 3.9968400891e+00 
4300 6.7261079942e+00 3.0742091852e-01 2.3009081269e+00 -3.9852897793e+00 2.3009081269e+00 3.9852897793e+00 
4400 6.7236420752e+00 3.0693879212e-01 2.2942309432e+00 -3.9737245579e+00 2.2942309432e+00 3.9737245579e+00 
4500 6.7211552432e+00 3.0646836533e-01 2.2875448421e+00 -3.9621438912e+00 2.2875448421e+00 3.9621438912e+00 
4600 6.7186477650e+00 3.0601045115e-01 2.2808494902e+00 -3.9505472015e+00 2.2808494902e+00 3.9505472015e+00 
4700 6.7161197282e+00 3.0556566402e-01 2.2741445321e+00 -3.9389338734e+00 2.2741445321e+00 3.9389338734e+00 
4800 6.7135710542e+00 3.0513440479e-01 2.2674295946e+00 -3.9273032604e+00 2.2674295946e+00 3.9273032604e+00 
4900 6.7110015106e+00 3.0471684549e-01 2.2607042912e+00 -3.9156546932e+00 2.2607042912e+00 3.9156546932e+00 
5000 6.7084107231e+00 3.0431291358e-01 2.2539682268e+00 -3.9039874875e+00 2.2539682268e+00 3.9039874875e+00 
5100 6.7057981892e+00 3.0392227570e-01 2.2472210031e+00 -3.8923009533e+00 2.2472210031e+00 3.8923009533e+00 
5200 6.7031632906e+00 3.0354432080e-01 2.2404622244e+00 -3.8805944050e+00 2.2404622244e+00 3.8805944050e+00 
5300 6.7005053081e+00 3.0317814275e-01 2.2336915033e+00 -3.8688671722e+00 2.2336915033e+00 3.8688671722e+00 
5400 6.6978234357e+00 3.0282252265e-01 2.2269084683e+00 -3.8571186109e+00 2.2269084683e+00 3.8571186109e+00 
5500 6.6951167974e+00 3.0247591075e-01 2.2201127702e+00 -3.8453481165e+00 2.2201127702e+00 3.8453481165e+00 
5600 6.6923844639e+00 3.0213640853e-01 2.2133040901e+00 -3.8335551367e+00 2.2133040901e+00 3.8335551367e+00 
5700 6.6896254715e+00 3.0180175113e-01 2.2064821482e+00 -3.8217391867e+00 2.2064821482e+00 3.8217391867e+00 
5800 6.6868388427e+00 3.0146929042e-01 2.1996467120e+00 -3.8098998639e+00 2.1996467120e+00 3.8098998639e+00 
5900 6.6840236080e+00 3.0113597933e-01 2.1927976060e+00 -3.7980368643e+00 2.1927976060e+00 3.7980368643e+00 
6000 6.6811788301e+00 3.0079835784e-01 2.1859347217e+00 -3.7861500000e+00 2.1859347217e+00 3.7861500000e+00 
6100 6.6783036293e+00 3.0045254122e-01 2.1790580282e+00 -3.7742392174e+00 2.1790580282e+00 3.7742392174e+00 
6200 6.6753972120e+00 3.0009421112e-01 2.1721675827e+00 -3.7623046158e+00 2.1721675827e+00 3.7623046158e+00 
6300 6.6724588999e+00 2.9971861027e-01 2.1652635424e+00 -3.7503464673e+00 2.1652635424e+00 3.7503464673e+00 
6400 6.6694881620e+00 2.9932054142e-01 2.1583461760e+00 -3.7383652371e+00 2.1583461760e+00 3.7383652371e+00 
6500 6.6664846481e+00 2.9889437129e-01 2.1514158754e+00 -3.7263616044e+00 2.1514158754e+00 3.7263616044e+00 
6600 6.6634482238e+00 2.9843404026e-01 2.1444731683e+00 -3.7143364829e+00 2.1444731683e+00 3.7143364829e+00 
6700 6.6603790070e+00 2.9793307859e-01 2.1375187300e+00 -3.7022910424e+00 2.1375187300e+00 3.7022910424e+00 
6800 6.6572774047e+00 2.9738462976e-01 2.1305533956e+00 -3.6902267294e+00 2.1305533956e+00 3.6902267294e+00 
6900 6.6541441512e+00 2.9678148160e-01 2.1235781717e+00 -3.6781452872e+00 2.1235781717e+00 3.6781452872e+00 
7000 6.6509803450e+00 2.9611610567e-01 2.1165942475e+00 -3.6660487756e+00 2.1165942475e+00 3.6660487756e+00 
7100 6.6477874858e+00 2.9538070523e-01 2.1096030053e+00 -3.6539395890e+00 2.1096030053e+00 3.6539395890e+00 
7200 6.6445675091e+00 2.9456727199e-01 2.1026060303e+00 -3.6418204728e+00 2.1026060303e+00 3.6418204728e+00 
7300 6.6413228186e+00 2.9366765143e-01 2.0956051190e+00 -3.6296945387e+00 2.0956051190e+00 3.6296945387e+00 
7400 6.6380563147e+00 2.9267361647e-01 2.0886022860e+00 -3.6175652761e+00 2.0886022860e+00 3.6175652761e+00 
7500 6.6347714186e+00 2.9157694878e-01 2.0815997697e+00 -3.6054365621e+00 2.0815997697e+00 3.6054365621e+00 
7600 6.6314720905e+00 2.9036952674e-01 2.0746000357e+00 -3.5933126673e+00 2.0746000357e+00 3.5933126673e+00 
7700 6.6281628412e+00 2.8904341878e-01 2.0676057785e+00 -3.5811982584e+00 2.0676057785e+00 3.5811982584e+00 
7800 6.6248487357e+00 2.8759098062e-01 2.0606199205e+00 -3.5690983974e+00 2.0606199205e+00 3.5690983974e+00 
7900 6.6215353881e+00 2.8600495432e-01 2.0536456089e+00 -3.5570185353e+00 2.0536456089e+00 3.5570185353e+00 
8000 6.6182289467e+00 2.8427856727e-01 2.0466862100e+00 -3.5449645030e+00 2.0466862100e+00 3.5449645030e+00 
8100 6.6149360690e+00 2.8240562874e-01 2.0397453012e+00 -3.5329424961e+00 2.0397453012e+00 3.5329424961e+00 
8200 6.6116638859e+00 2.8038062165e-01 2.0328266593e+00 -3.5209590569e+00 2.0328266593e+00 3.5209590569e+00 
8300 6.6084199556e+00 2.7819878724e-01 2.0259342479e+00 -3.5090210502e+00 2.0259342479e+00 3.5090210502e+00 
8400 6.6052122058e+00 2.7585620043e-01 2.0190722010e+00 -3.4971356363e+00 2.0190722010e+00 3.4971356363e+00 
8500 6.6020488669e+00 2.7334983381e-01 2.0122448048e+00 -3.4853102392e+00 2.0122448048e+00 3.4853102392e+00 
8600 6.5989383952e+00 2.7067760857e-01 2.0054564773e+00 -3.4735525111e+00 2.0054564773e+00 3.4735525111e+00 
8700 6.5958893879e+00 2.6783843100e-01 1.9987117464e+00 -3.4618702944e+00 1.9987117464e+00 3.4618702944e+00 
8800 6.5929104917e+00 2.6483221381e-01 1.9920152259e+00 -3.4502715807e+00 1.9920152259e+00 3.4502715807e+00 
8900 6.5900103060e+00 2.6165988168e-01 1.9853715912e+00 -3.4387644678e+00 1.9853715912e+00 3.4387644678e+00 
9000 6.5871972831e+00 2.5832336135e-01 1.9787855532e+00 -3.4273571155e+00 1.9787855532e+00 3.4273571155e+00 
9100 6.5844796270e+00 2.5482555665e-01 1.9722618329e+00 -3.4160577004e+00 1.9722618329e+00 3.4160577004e+00 
9200 6.5818651932e+00 2.5117030970e-01 1.9658051348e+00 -3.4048743712e+00 1.9658051348e+00 3.4048743712e+00 
9300 6.5793613919e+00 2.4736234952e-01 1.9594201219e+00 -3.3938152045e+00 1.9594201219e+00 3.3938152045e+00 
9400 6.5769750959e+00 2.4340722988e-01 1.9531113903e+00 -3.3828881609e+00 1.9531113903e+00 3.3828881609e+00 
9500 6.5747125552e+00 2.3931125825e-01 1.9468834458e+00 -3.3721010446e+00 1.9468834458e+00 3.3721010446e+00 
9600 6.5725793202e+00 2.3508141790e-01 1.9407406809e+00 -3.3614614636e+00 1.9407406809e+00 3.3614614636e+00 
9700 6.5705801755e+00 2.3072528526e-01 1.9346873537e+00 -3.3509767934e+00 1.9346873537e+00 3.3509767934e+00 
9800 6.5687190839e+00 2.2625094446e-01 1.9287275691e+00 -3.3406541436e+00 1.9287275691e+00 3.3406541436e+00 
9900 6.5669991427e+00 2.2166690100e-01 1.9228652605e+00 -3.3305003273e+00 1.9228652605e+00 3.3305003273e+00 
10000 6.5654225523e+00 2.1698199625e-01 1.9171041750e+00 -3.3205218345e+00 1.9171041750e+00 3.3205218345e+00 
10100 6.5639905972e+00 2.1220532427e-01 1.9114478593e+00 -3.3107248084e+00 1.9114478593e+00 3.3107248084e+00 
10200 6.5627036400e+00 2.0734615215e-01 1.9058996484e+00 -3.3011150252e+00 1.9058996484e+00 3.3011150252e+00 
10300 6.5615611266e+00 2.0241384490e-01 1.9004626560e+00 -3.2916978781e+00 1.9004626560e+00 3.2916978781e+00 
10400 6.5605616041e+00 1.9741779578e-01 1.8951397667e+00 -3.2824783633e+00 1.8951397667e+00 3.2824783633e+00 
10500 6.5597027486e+00 1.9236736229e-01 1.8899336304e+00 -3.2734610708e+00 1.8899336304e+00 3.2734610708e+00 
10600 6.5589814029e+00 1.8727180858e-01 1.8848466583e+00 -3.2646501766e+00 1.8848466583e+00 3.2646501766e+00 
10700 6.5583936237e+00 1.8214025400e-01 1.8798810202e+00 -3.2560494392e+00 1.8798810202e+00 3.2560494392e+00 
10800 6.5579347356e+00 1.7698162810e-01 1.8750386440e+00 -3.2476621976e+00 1.8750386440e+00 3.2476621976e+00 
10900 6.5575993919e+00 1.7180463180e-01 1.8703212159e+00 -3.2394913725e+00 1.8703212159e+00 3.2394913725e+00 
11000 6.5573816411e+00 1.6661770455e-01 1.8657301826e+00 -3.2315394694e+00 1.8657301826e+00 3.2315394694e+00 
11100 6.5572749967e+00 1.6142899709e-01 1.8612667536e+00 -3.2238085836e+00 1.8612667536e+00 3.2238085836e+00 
11200 6.5572725103e+00 1.5624634966e-01 1.8569319057e+00 -3.2163004068e+00 1.8569319057e+00 3.2163004068e+00 
11300 6.5573668467e+00 1.5107727493e-01 1.8527263875e+00 -3.2090162357e+00 1.8527263875e+00 3.2090162357e+00 
11400 6.5575503592e+00 1.4592894563e-01 1.8486507252e+00 -3.2019569815e+00 1.8486507252e+00 3.2019569815e+00 
11500 6.5578151652e+00 1.4080818604e-01 1.8447052285e+00 -3.1951231807e+00 1.8447052285e+00 3.1951231807e+00 
11600 6.5581532203e+00 1.3572146734e-01 1.8408899975e+00 -3.1885150068e+00 1.8408899975e+00 3.1885150068e+00 
11700 6.5585563903e+00 1.3067490597e-01 1.8372049299e+00 -3.1821322825e+00 1.8372049299e+00 3.1821322825e+00 
11800 6.5590165211e+00 1.2567426503e-01 1.8336497286e+00 -3.1759744933e+00 1.8336497286e+00 3.1759744933e+00 
11900 6.5595255046e+00 1.2072495793e-01 1.8302239095e+00 -3.1700408005e+00 1.8302239095e+00 3.1700408005e+00 
12000 6.5600753415e+00 1.1583205428e-01 1.8269268093e+00 -3.1643300553e+00 1.8269268093e+00 3.1643300553e+00 
12100 6.5606581990e+00 1.1100028742e-01 1.8237575937e+00 -3.1588408130e+00 1.8237575937e+00 3.1588408130e+00 
12200 6.5612664644e+00 1.0623406345e-01 1.8207152660e+00 -3.1535713468e+00 1.8207152660e+00 3.1535713468e+00 
12300 6.5618927939e+00 1.0153747140e-01 1.8177986746e+00 -3.1485196624e+00 1.8177986746e+00 3.1485196624e+00 
12400 6.5625301558e+00 9.6914294215e-02 1.8150065219e+00 -3.1436835120e+00 1.8150065219e+00 3.1436835120e+00 
12500 6.5631718689e+00 9.2368020495e-02 1.8123373717e+00 -3.1390604083e+00 1.8123373717e+00 3.1390604083e+00 
12600 6.5638116358e+00 8.7901856593e-02 1.8097896578e+00 -3.1346476383e+00 1.8097896578e+00 3.1346476383e+00 
12700 6.5644435702e+00 8.3518738995e-02 1.8073616913e+00 -3.1304422770e+00 1.8073616913e+00 3.1304422770e+00 
12800 6.5650622198e+00 7.9221346764e-02 1.8050516689e+00 -3.1264412008e+00 1.8050516689e+00 3.1264412008e+00 
12900 6.5656625839e+00 7.5012113935e-02 1.8028576797e+00 -3.1226411001e+00 1.8028576797e+00 3.1226411001e+00 
13000 6.5662401261e+00 7.0893241713e-02 1.8007777133e+00 -3.1190384925e+00 1.8007777133e+00 3.1190384925e+00 
13100 6.5667907820e+00 6.6866710388e-02 1.7988096660e+00 -3.1156297347e+00 1.7988096660e+00 3.1156297347e+00 
13200 6.5673109634e+00 6.2934290864e-02 1.7969513487e+00 -3.1124110347e+00 1.7969513487e+00 3.1124110347e+00 
13300 6.5677975571e+00 5.9097555751e-02 1.7952004927e+00 -3.1093784632e+00 1.7952004927e+00 3.1093784632e+00 
13400 6.5682479208e+00 5.5357889952e-02 1.7935547569e+00 -3.1065279651e+00 1.7935547569e+00 3.1065279651e+00 
13500 6.5686598748e+00 5.1716500714e-02 1.7920117333e+00 -3.1038553699e+00 1.7920117333e+00 3.1038553699e+00 
13600 6.5690316907e+00 4.8174427102e-02 1.7905689539e+00 -3.1013564026e+00 1.7905689539e+00 3.1013564026e+00 
13700 6.5693620772e+00 4.4732548902e-02 1.7892238956e+00 -3.0990266934e+00 1.7892238956e+00 3.0990266934e+00 
13800 6.5696501629e+00 4.1391594930e-02 1.7879739868e+00 -3.0968617877e+00 1.7879739868e+00 3.0968617877e+00 
13900 6.5698954775e+00 3.8152150751e-02 1.7868166118e+00 -3.0948571555e+00 1.7868166118e+00 3.0948571555e+00 
14000 6.5700979299e+00 3.5014665828e-02 1.7857491170e+00 -3.0930082002e+00 1.7857491170e+00 3.0930082002e+00 
14100 6.5702577858e+00 3.1979460111e-02 1.7847688152e+00 -3.0913102678e+00 1.7847688152e+00 3.0913102678e+00 
14200 6.5703756433e+00 2.9046730082e-02 1.7838729910e+00 -3.0897586547e+00 1.7838729910e+00 3.0897586547e+00 
14300 6.5704524073e+00 2.6216554303e-02 1.7830589050e+00 -3.0883486164e+00 1.7830589050e+00 3.0883486164e+00 
14400 6.5704892635e+00 2.3488898470e-02 1.7823237989e+00 -3.0870753752e+00 1.7823237989e+00 3.0870753752e+00 
14500 6.5704876517e+00 2.0863620023e-02 1.7816648992e+00 -3.0859341275e+00 1.7816648992e+00 3.0859341275e+00 
14600 6.5704492388e+00 1.8340472347e-02 1.7810794222e+00 -3.0849200515e+00 1.7810794222e+00 3.0849200515e+00 
14700 6.5703758916e+00 1.5919108580e-02 1.7805645774e+00 -3.0840283143e+00 1.7805645774e+00 3.0840283143e+00 
14800 6.5702696501e+00 1.3599085091e-02 1.7801175719e+00 -3.0832540781e+00 1.7801175719e+00 3.0832540781e+00 
14900 6.5701327011e+00 1.1379864640e-02 1.7797356141e+00 -3.0825925076e+00 1.7797356141e+00 3.0825925076e+00 
15000 6.5699673518e+00 9.2608192687e-03 1.7794159170e+00 -3.0820387761e+00 1.7794159170e+00 3.0820387761e+00 
15100 6.5697760052e+00 7.2412329463e-03 1.7791557026e+00 -3.0815880715e+00 1.7791557026e+00 3.0815880715e+00 
15200 6.5695611351e+00 5.3203040142e-03 1.7789522046e+00 -3.0812356025e+00 1.7789522046e+00 3.0812356025e+00 
15300 6.5693252630e+00 3.4971474514e-03 1.7788026719e+00 -3.0809766043e+00 1.7788026719e+00 3.0809766043e+00 
15400 6.5690709359e+00 1.7707969952e-03 1.7787043722e+00 -3.0808063443e+00 1.7787043722e+00 3.0808063443e+00 
15500 6.5688007050e+00 1.4020714529e-04 1.7786545947e+00 -3.0807201271e+00 1.7786545947e+00 3.0807201271e+00 
15600 6.5685171056e+00 -1.3957449250e-03 1.7786506533e+00 -3.0807133005e+00 1.7786506533e+00 3.0807133005e+00 
15700 6.5682226394e+00 -2.8382575229e-03 1.7786898895e+00 -3.0807812596e+00 1.7786898895e+00 3.0807812596e+00 
15800 6.5679197564e+00 -4.1886026354e-03 1.7787696752e+00 -3.0809194524e+00 1.7787696752e+00 3.0809194524e+00 
15900 6.5676108398e+00 -5.4481241516e-03 1.7788874152e+00 -3.0811233841e+00 1.7788874152e+00 3.0811233841e+00 
16000 6.5672981915e+00 -6.6182360906e-03 1.7790405503e+00 -3.0813886219e+00 1.7790405503e+00 3.0813886219e+00 
16100 6.5669840193e+00 -7.7004208170e-03 1.7792265593e+00 -3.0817107990e+00 1.7792265593e+00 3.0817107990e+00 
16200 6.5666704258e+00 -8.6962272292e-03 1.7794429617e+00 -3.0820856189e+00 1.7794429617e+00 3.0820856189e+00 
16300 6.5663593977e+00 -9.6072689069e-03 1.7796873198e+00 -3.0825088595e+00 1.7796873198e+00 3.0825088595e+00 
16400 6.5660527983e+00 -1.0435222207e-02 1.7799572412e+00 -3.0829763770e+00 1.7799572412e+00 3.0829763770e+00 
16500 6.5657523598e+00 -1.1181824293e-02 1.7802503805e+00 -3.0834841092e+00 1.7802503805e+00 3.0834841092e+00 
16600 6.5654596774e+00 -1.1848871099e-02 1.7805644417e+00 -3.0840280792e+00 1.7805644417e+00 3.0840280792e+00 
16700 6.5651762054e+00 -1.2438215207e-02 1.7808971800e+00 -3.0846043989e+00 1.7808971800e+00 3.0846043989e+00 
16800 6.5649032537e+00 -1.2951763640e-02 1.7812464035e+00 -3.0852092716e+00 1.7812464035e+00 3.0852092716e+00 
16900 6.5646419859e+00 -1.3391475571e-02 1.7816099749e+00 -3.0858389957e+00 1.7816099749e+00 3.0858389957e+00 
17000 6.5643934186e+00 -1.3759359923e-02 1.7819858132e+00 -3.0864899668e+00 1.7819858132e+00 3.0864899668e+00 
17100 6.5641584219e+00 -1.4057472882e-02 1.7823718953e+00 -3.0871586806e+00 1.7823718953e+00 3.0871586806e+00 
17200 6.5639377202e+00 -1.4287915309e-02 1.7827662572e+00 -3.0878417355e+00 1.7827662572e+00 3.0878417355e+00 
17300 6.5637318953e+00 -1.4452830040e-02 1.7831669954e+00 -3.0885358344e+00 1.7831669954e+00 3.0885358344e+00 
17400 6.5635413890e+00 -1.4554399099e-02 1.7835722681e+00 -3.0892377873e+00 1.7835722681e+00 3.0892377873e+00 
17500 6.5633665078e+00 -1.4594840800e-02 1.7839802962e+00 -3.0899445127e+00 1.7839802962e+00 3.0899445127e+00 
17600 6.5632074269e+00 -1.4576406753e-02 1.7843893646e+00 -3.0906530400e+00 1.7843893646e+00 3.0906530400e+00 
17700 6.5630641966e+00 -1.4501378773e-02 1.7847978226e+00 -3.0913605100e+00 1.7847978226e+00 3.0913605100e+00 
17800 6.5629367480e+00 -1.4372065694e-02 1.7852040851e+00 -3.0920641773e+00 1.7852040851e+00 3.0920641773e+00 
17900 6.5628248994e+00 -1.4190800097e-02 1.7856066331e+00 -3.0927614108e+00 1.7856066331e+00 3.0927614108e+00 
18000 6.5627283641e+00 -1.3959934950e-02 1.7860040142e+00 -3.0934496951e+00 1.7860040142e+00 3.0934496951e+00 
18100 6.5626467574e+00 -1.3681840168e-02 1.7863948432e+00 -3.0941266308e+00 1.7863948432e+00 3.0941266308e+00 
18200 6.5625796046e+00 -1.3358899103e-02 1.7867778025e+00 -3.0947899357e+00 1.7867778025e+00 3.0947899357e+00 
18300 6.5625263491e+00 -1.2993504968e-02 1.7871516420e+00 -3.0954374448e+00 1.7871516420e+00 3.0954374448e+00 
18400 6.5624863608e+00 -1.2588057197e-02 1.7875151799e+00 -3.0960671108e+00 1.7875151799e+00 3.0960671108e+00 
18500 6.5624589445e+00 -1.2144957769e-02 1.7878673019e+00 -3.0966770041e+00 1.7878673019e+00 3.0966770041e+00 
18600 6.5624433480e+00 -1.1666607476e-02 1.7882069620e+00 -3.0972653126e+00 1.7882069620e+00 3.0972653126e+00 
18700 6.5624387712e+00 -1.1155402173e-02 1.7885331816e+00 -3.0978303415e+00 1.7885331816e+00 3.0978303415e+00 
18800 6.5624443738e+00 -1.0613729003e-02 1.7888450496e+00 -3.0983705127e+00 1.7888450496e+00 3.0983705127e+00 
18900 6.5624592843e+00 -1.0043962612e-02 1.7891417221e+00 -3.0988843646e+00 1.7891417221e+00 3.0988843646e+00 
19000 6.5624826073e+00 -9.4484613746e-03 1.7894224216e+00 -3.0993705504e+00 1.7894224216e+00 3.0993705504e+00 
19100 6.5625134322e+00 -8.8295636272e-03 1.7896864368e+00 -3.0998278381e+00 1.7896864368e+00 3.0998278381e+00 
19200 6.5625508402e+00 -8.1895839324e-03 1.7899331215e+00 -3.1002551086e+00 1.7899331215e+00 3.1002551086e+00 
19300 6.5625939119e+00 -7.5308093836e-03 1.7901618943e+00 -3.1006513547e+00 1.7901618943e+00 3.1006513547e+00 
19400 6.5626417342e+00 -6.8554959639e-03 1.7903722372e+00 -3.1010156792e+00 1.7903722372e+00 3.1010156792e+00 
19500 6.5626934070e+00 -6.1658649706e-03 1.7905636951e+00 -3.1013472941e+00 1.7905636951e+00 3.1013472941e+00 
19600 6.5627480491e+00 -5.4640995199e-03 1.7907358745e+00 -3.1016455175e+00 1.7907358745e+00 3.1016455175e+00 
19700 6.5628048042e+00 -4.7523411445e-03 1.7908884424e+00 -3.1019097729e+00 1.7908884424e+00 3.1019097729e+00 
19800 6.5628628461e+00 -4.0326864971e-03 1.7910211251e+00 -3.1021395862e+00 1.7910211251e+00 3.1021395862e+00 
19900 6.5629213834e+00 -3.3071841711e-03 1.7911337070e+00 -3.1023345836e+00 1.7911337070e+00 3.1023345836e+00 
20000 6.5629796640e+00 -2.5778316529e-03 1.7912260287e+00 -3.1024944896e+00 1.7912260287e+00 3.1024944896e+00 
20100 6.5630369786e+00 -1.8465724143e-03 1.7912979864e+00 -3.1026191240e+00 1.7912979864e+00 3.1026191240e+00 
20200 6.5630926643e+00 -1.1152931589e-03 1.7913495295e+00 -3.1027083992e+00 1.7913495295e+00 3.1027083992e+00 
20300 6.5631461073e+00 -3.8582123058e-04 1.7913806596e+00 -3.1027623181e+00 1.7913806596e+00 3.1027623181e+00 
20400 6.5631967451e+00 3.4007780594e-04 1.7913914284e+00 -3.1027809702e+00 1.7913914284e+00 3.1027809702e+00 
20500 6.5632440684e+00 1.0607024035e-03 1.7913819364e+00 -3.1027645296e+00 1.7913819364e+00 3.1027645296e+00 
20600 6.5632876221e+00 1.7744170832e-03 1.7913523308e+00 -3.1027132512e+00 1.7913523308e+00 3.1027132512e+00 
20700 6.5633270066e+00 2.4796542907e-03 1.7913028037e+00 -3.1026274678e+00 1.7913028037e+00 3.1026274678e+00 
20800 6.5633618777e+00 3.1749160524e-03 1.7912335905e+00 -3.1025075869e+00 1.7912335905e+00 3.1025075869e+00 
20900 6.5633919465e+00 3.8587754277e-03 1.7911449675e+00 -3.1023540874e+00 1.7911449675e+00 3.1023540874e+00 
21000 6.5634169793e+00 4.5298777540e-03 1.7910372504e+00 -3.1021675160e+00 1.7910372504e+00 3.1021675160e+00 
21100 6.5634367961e+00 5.1869416824e-03 1.7909107923e+00 -3.1019484841e+00 1.7909107923e+00 3.1019484841e+00 
21200 6.5634512697e+00 5.8287600041e-03 1.7907659813e+00 -3.1016976640e+00 1.7907659813e+00 3.1016976640e+00 
21300 6.5634603237e+00 6.4542002656e-03 1.7906032389e+00 -3.1014157859e+00 1.7906032389e+00 3.1014157859e+00 
21400 6.5634639310e+00 7.0622051771e-03 1.7904230177e+00 -3.1011036337e+00 1.7904230177e+00 3.1011036337e+00 
21500 6.5634621110e+00 7.6517928140e-03 1.7902257996e+00 -3.1007620420e+00 1.7902257996e+00 3.1007620420e+00 
21600 6.5634549273e+00 8.2220566163e-03 1.7900120936e+00 -3.1003918923e+00 1.7900120936e+00 3.1003918923e+00 
21700 6.5634424850e+00 8.7721651893e-03 1.7897824337e+00 -3.0999941096e+00 1.7897824337e+00 3.0999941096e+00 
21800 6.5634249278e+00 9.3013619124e-03 1.7895373769e+00 -3.0995696589e+00 1.7895373769e+00 3.0995696589e+00 
21900 6.5634024345e+00 9.8089643599e-03 1.7892775015e+00 -3.0991195414e+00 1.7892775015e+00 3.0991195414e+00 
22000 6.5633752165e+00 1.0294363543e-02 1.7890034044e+00 -3.0986447914e+00 1.7890034044e+00 3.0986447914e+00 
22100 6.5633435136e+00 1.0757022978e-02 1.7887156999e+00 -3.0981464725e+00 1.7887156999e+00 3.0981464725e+00 
22200 6.5633075913e+00 1.1196477593e-02 1.7884150171e+00 -3.0976256746e+00 1.7884150171e+00 3.0976256746e+00 
22300 6.5632677370e+00 1.1612332473e-02 1.7881019983e+00 -3.0970835101e+00 1.7881019983e+00 3.0970835101e+00 
22400 6.5632242568e+00 1.2004261465e-02 1.7877772970e+00 -3.0965211110e+00 1.7877772970e+00 3.0965211110e+00 
22500 6.5631774717e+00 1.2372005641e-02 1.7874415760e+00 -3.0959396252e+00 1.7874415760e+00 3.0959396252e+00 
22600 6.5631277148e+00 1.2715371638e-02 1.7870955058e+00 -3.0953402140e+00 1.7870955058e+00 3.0953402140e+00 
22700 6.5630753277e+00 1.3034229872e-02 1.7867397624e+00 -3.0947240483e+00 1.7867397624e+00 3.0947240483e+00 
22800 6.5630206570e+00 1.3328512656e-02 1.7863750258e+00 -3.0940923061e+00 1.7863750258e+00 3.0940923061e+00 
22900 6.5629640521e+00 1.3598212207e-02 1.7860019785e+00 -3.0934461691e+00 1.7860019785e+00 3.0934461691e+00 
23000 6.5629058614e+00 1.3843378581e-02 1.7856213034e+00 -3.0927868206e+00 1.7856213034e+00 3.0927868206e+00 
23100 6.5628464299e+00 1.4064117513e-02 1.7852336826e+00 -3.0921154417e+00 1.7852336826e+00 3.0921154417e+00 
23200 6.5627860967e+00 1.4260588206e-02 1.7848397958e+00 -3.0914332097e+00 1.7848397958e+00 3.0914332097e+00 
23300 6.5627251922e+00 1.4433001052e-02 1.7844403186e+00 -3.0907412949e+00 1.7844403186e+00 3.0907412949e+00 
23400 6.5626640365e+00 1.4581615308e-02 1.7840359214e+00 -3.0900408583e+00 1.7840359214e+00 3.0900408583e+00 
23500 6.5626029366e+00 1.4706736736e-02 1.7836272676e+00 -3.0893330493e+00 1.7836272676e+00 3.0893330493e+00 
23600 6.5625421851e+00 1.4808715207e-02 1.7832150131e+00 -3.0886190034e+00 1.7832150131e+00 3.0886190034e+00 
23700 6.5624820586e+00 1.4887942294e-02 1.7827998040e+00 -3.0878998403e+00 1.7827998040e+00 3.0878998403e+00 
23800 6.5624228160e+00 1.4944848844e-02 1.7823822764e+00 -3.0871766613e+00 1.7823822764e+00 3.0871766613e+00 
23900 6.5623646975e+00 1.4979902549e-02 1.7819630548e+00 -3.0864505482e+00 1.7819630548e+00 3.0864505482e+00 
24000 6.5623079237e+00 1.4993605521e-02 1.7815427511e+00 -3.0857225608e+00 1.7815427511e+00 3.0857225608e+00 
24100 6.5622526945e+00 1.4986491878e-02 1.7811219637e+00 -3.0849937357e+00 1.7811219637e+00 3.0849937357e+00 
24200 6.5621991892e+00 1.4959125346e-02 1.7807012766e+00 -3.0842650842e+00 1.7807012766e+00 3.0842650842e+00 
24300 6.5621475654e+00 1.4912096885e-02 1.7802812585e+00 -3.0835375914e+00 1.7802812585e+00 3.0835375914e+00 
24400 6.5620979595e+00 1.4846022348e-02 1.7798624619e+00 -3.0828122145e+00 1.7798624619e+00 3.0828122145e+00 
24500 6.5620504861e+00 1.4761540169e-02 1.7794454229e+00 -3.0820898818e+00 1.7794454229e+00 3.0820898818e+00 
24600 6.5620052387e+00 1.4659309097e-02 1.7790306598e+00 -3.0813714910e+00 1.7790306598e+00 3.0813714910e+00 
24700 6.5619622900e+00 1.4540005971e-02 1.7786186730e+00 -3.0806579089e+00 1.7786186730e+00 3.0806579089e+00 
24800 6.5619216920e+00 1.4404323548e-02 1.7782099443e+00 -3.0799499701e+00 1.7782099443e+00 3.0799499701e+00 
24900 6.5618834770e+00 1.4252968380e-02 1.7778049365e+00 -3.0792484760e+00 1.7778049365e+00 3.0792484760e+00 
25000 6.5618476584e+00 1.4086658745e-02 1.7774040930e+00 -3.0785541947e+00 1.7774040930e+00 3.0785541947e+00 
25100 6.5618142315e+00 1.3906122644e-02 1.7770078372e+00 -3.0778678594e+00 1.7770078372e+00 3.0778678594e+00 
25200 6.5617831744e+00 1.3712095851e-02 1.7766165724e+00 -3.0771901689e+00 1.7766165724e+00 3.0771901689e+00 
25300 6.5617544491e+00 1.3505320029e-02 1.7762306816e+00 -3.0765217864e+00 1.7762306816e+00 3.0765217864e+00 
25400 6.5617280028e+00 1.3286540914e-02 1.7758505272e+00 -3.0758633397e+00 1.7758505272e+00 3.0758633397e+00 
25500 6.5617037689e+00 1.3056506560e-02 1.7754764508e+00 -3.0752154204e+00 1.7754764508e+00 3.0752154204e+00 
25600 6.5616816685e+00 1.2815965655e-02 1.7751087733e+00 -3.0745785843e+00 1.7751087733e+00 3.0745785843e+00 
25700 6.5616616113e+00 1.2565665899e-02 1.7747477945e+00 -3.0739533507e+00 1.7747477945e+00 3.0739533507e+00 
25800 6.5616434973e+00 1.2306352457e-02 1.7743937936e+00 -3.0733402031e+00 1.7743937936e+00 3.0733402031e+00 
25900 6.5616272178e+00 1.2038766479e-02 1.7740470286e+00 -3.0727395886e+00 1.7740470286e+00 3.0727395886e+00 
26000 6.5616126571e+00 1.1763643683e-02 1.7737077371e+00 -3.0721519184e+00 1.7737077371e+00 3.0721519184e+00 
26100 6.5615996933e+00 1.1481713011e-02 1.7733761358e+00 -3.0715775681e+00 1.7733761358e+00 3.0715775681e+00 
26200 6.5615882000e+00 1.1193695351e-02 1.7730524209e+00 -3.0710168775e+00 1.7730524209e+00 3.0710168775e+00 
26300 6.5615780471e+00 1.0900302329e-02 1.7727367686e+00 -3.0704701516e+00 1.7727367686e+00 3.0704701516e+00 
26400 6.5615691027e+00 1.0602235160e-02 1.7724293347e+00 -3.0699376605e+00 1.7724293347e+00 3.0699376605e+00 
26500 6.5615612334e+00 1.0300183570e-02 1.7721302554e+00 -3.0694196400e+00 1.7721302554e+00 3.0694196400e+00 
26600 6.5615543061e+00 9.9948247819e-03 1.7718396475e+00 -3.0689162923e+00 1.7718396475e+00 3.0689162923e+00 
26700 6.5615481887e+00 9.6868225633e-03 1.7715576084e+00 -3.0684277863e+00 1.7715576084e+00 3.0684277863e+00 
26800 6.5615427512e+00 9.3768263351e-03 1.7712842170e+00 -3.0679542585e+00 1.7712842170e+00 3.0679542585e+00 
26900 6.5615378664e+00 9.0654703432e-03 1.7710195335e+00 -3.0674958133e+00 1.7710195335e+00 3.0674958133e+00 
27000 6.5615334110e+00 8.7533728881e-03 1.7707636004e+00 -3.0670525241e+00 1.7707636004e+00 3.0670525241e+00 
27100 6.5615292663e+00 8.4411356133e-03 1.7705164424e+00 -3.0666244338e+00 1.7705164424e+00 3.0666244338e+00 
27200 6.5615253186e+00 8.1293428502e-03 1.7702780671e+00 -3.0662115557e+00 1.7702780671e+00 3.0662115557e+00 
27300 6.5615214602e+00 7.8185610186e-03 1.7700484657e+00 -3.0658138744e+00 1.7700484657e+00 3.0658138744e+00 
27400 6.5615175897e+00 7.5093380807e-03 1.7698276130e+00 -3.0654313464e+00 1.7698276130e+00 3.0654313464e+00 
27500 6.5615136124e+00 7.2022030490e-03 1.7696154684e+00 -3.0650639011e+00 1.7696154684e+00 3.0650639011e+00 
27600 6.5615094410e+00 6.8976655438e-03 1.7694119760e+00 -3.0647114420e+00 1.7694119760e+00 3.0647114420e+00 
27700 6.5615049952e+00 6.5962154021e-03 1.7692170655e+00 -3.0643738471e+00 1.7692170655e+00 3.0643738471e+00 
27800 6.5615002027e+00 6.2983223345e-03 1.7690306526e+00 -3.0640509704e+00 1.7690306526e+00 3.0640509704e+00 
27900 6.5614949989e+00 6.0044356293e-03 1.7688526394e+00 -3.0637426425e+00 1.7688526394e+00 3.0637426425e+00 
28000 6.5614893269e+00 5.7149839026e-03 1.7686829152e+00 -3.0634486717e+00 1.7686829152e+00 3.0634486717e+00 
28100 6.5614831379e+00 5.4303748934e-03 1.7685213573e+00 -3.0631688450e+00 1.7685213573e+00 3.0631688450e+00 
28200 6.5614763908e+00 5.1509953018e-03 1.7683678308e+00 -3.0629029294e+00 1.7683678308e+00 3.0629029294e+00 
28300 6.5614690520e+00 4.8772106692e-03 1.7682221902e+00 -3.0626506724e+00 1.7682221902e+00 3.0626506724e+00 
28400 6.5614610958e+00 4.6093653000e-03 1.7680842791e+00 -3.0624118035e+00 1.7680842791e+00 3.0624118035e+00 
28500 6.5614525035e+00 4.3477822223e-03 1.7679539316e+00 -3.0621860349e+00 1.7679539316e+00 3.0621860349e+00 
28600 6.5614432635e+00 4.0927631874e-03 1.7678309722e+00 -3.0619730630e+00 1.7678309722e+00 3.0619730630e+00 
28700 6.5614333711e+00 3.8445887071e-03 1.7677152168e+00 -3.0617725688e+00 1.7677152168e+00 3.0617725688e+00 
28800 6.5614228279e+00 3.6035181260e-03 1.7676064733e+00 -3.0615842196e+00 1.7676064733e+00 3.0615842196e+00 
28900 6.5614116413e+00 3.3697897302e-03 1.7675045422e+00 -3.0614076697e+00 1.7675045422e+00 3.0614076697e+00 
29000 6.5613998248e+00 3.1436208883e-03 1.7674092168e+00 -3.0612425613e+00 1.7674092168e+00 3.0612425613e+00 
29100 6.5613873968e+00 2.9252082266e-03 1.7673202846e+00 -3.0610885261e+00 1.7673202846e+00 3.0610885261e+00 
29200 6.5613743805e+00 2.7147278349e-03 1.7672375269e+00 -3.0609451857e+00 1.7672375269e+00 3.0609451857e+00 
29300 6.5613608036e+00 2.5123355028e-03 1.7671607204e+00 -3.0608121528e+00 1.7671607204e+00 3.0608121528e+00 
29400 6.5613466975e+00 2.3181669857e-03 1.7670896369e+00 -3.0606890326e+00 1.7670896369e+00 3.0606890326e+00 
29500 6.5613320971e+00 2.1323382984e-03 1.7670240445e+00 -3.0605754233e+00 1.7670240445e+00 3.0605754233e+00 
29600 6.5613170402e+00 1.9549460366e-03 1.7669637078e+00 -3.0604709171e+00 1.7669637078e+00 3.0604709171e+00 
29700 6.5613015672e+00 1.7860677233e-03 1.7669083888e+00 -3.0603751017e+00 1.7669083888e+00 3.0603751017e+00 
29800 6.5612857205e+00 1.6257621803e-03 1.7668578468e+00 -3.0602875605e+00 1.7668578468e+00 3.0602875605e+00 
29900 6.5612695440e+00 1.4740699240e-03 1.7668118399e+00 -3.0602078741e+00 1.7668118399e+00 3.0602078741e+00 
30000 6.5612530830e+00 1.3310135825e-03 1.7667701245e+00 -3.0601356210e+00 1.7667701245e+00 3.0601356210e+00 
30100 6.5612363834e+00 1.1965983346e-03 1.7667324567e+00 -3.0600703783e+00 1.7667324567e+00 3.0600703783e+00 
30200 6.5612194913e+00 1.0708123695e-03 1.7666985920e+00 -3.0600117231e+00 1.7666985920e+00 3.0600117231e+00 
30300 6.5612024530e+00 9.5362736401e-04 1.7666682867e+00 -3.0599592326e+00 1.7666682867e+00 3.0599592326e+00 
30400 6.5611853144e+00 8.4499897931e-04 1.7666412973e+00 -3.0599124857e+00 1.7666412973e+00 3.0599124857e+00 
30500 6.5611681207e+00 7.4486737284e-04 1.7666173820e+00 -3.0598710631e+00 1.7666173820e+00 3.0598710631e+00 
30600 6.5611509158e+00 6.5315772654e-04 1.7665963003e+00 -3.0598345485e+00 1.7665963003e+00 3.0598345485e+00 
30700 6.5611337425e+00 5.6978078893e-04 1.7665778140e+00 -3.0598025293e+00 1.7665778140e+00 3.0598025293e+00 
30800 6.5611166421e+00 4.9463343034e-04 1.7665616873e+00 -3.0597745971e+00 1.7665616873e+00 3.0597745971e+00 
30900 6.5610996538e+00 4.2759920997e-04 1.7665476874e+00 -3.0597503486e+00 1.7665476874e+00 3.0597503486e+00 
31000 6.5610828150e+00 3.6854895358e-04 1.7665355848e+00 -3.0597293862e+00 1.7665355848e+00 3.0597293862e+00 
31100 6.5610661609e+00 3.1734134055e-04 1.7665251534e+00 -3.0597113185e+00 1.7665251534e+00 3.0597113185e+00 
31200 6.5610497242e+00 2.7382349929e-04 1.7665161713e+00 -3.0596957611e+00 1.7665161713e+00 3.0596957611e+00 
31300 6.5610335351e+00 2.3783160955e-04 1.7665084209e+00 -3.0596823370e+00 1.7665084209e+00 3.0596823370e+00 
31400 6.5610176214e+00 2.0919151059e-04 1.7665016892e+00 -3.0596706774e+00 1.7665016892e+00 3.0596706774e+00 
31500 6.5610020079e+00 1.8771931396e-04 1.7664957682e+00 -3.0596604218e+00 1.7664957682e+00 3.0596604218e+00 
31600 6.5609867170e+00 1.7322201980e-04 1.7664904548e+00 -3.0596512189e+00 1.7664904548e+00 3.0596512189e+00 
31700 6.5609717682e+00 1.6549813523e-04 1.7664855519e+00 -3.0596427266e+00 1.7664855519e+00 3.0596427266e+00 
31800 6.5609571782e+00 1.6433829403e-04 1.7664808675e+00 -3.0596346130e+00 1.7664808675e+00 3.0596346130e+00 
31900 6.5609429611e+00 1.6952587605e-04 1.7664762159e+00 -3.0596265563e+00 1.7664762159e+00 3.0596265563e+00 
32000 6.5609291281e+00 1.8083762558e-04 1.7664714175e+00 -3.0596182452e+00 1.7664714175e+00 3.0596182452e+00 
32100 6.5609156878e+00 1.9804426726e-04 1.7664662989e+00 -3.0596093795e+00 1.7664662989e+00 3.0596093795e+00 
32200 6.5609026463e+00 2.2091111867e-04 1.7664606932e+00 -3.0595996702e+00 1.7664606932e+00 3.0595996702e+00 
32300 6.5608900071e+00 2.4919869826e-04 1.7664544403e+00 -3.0595888398e+00 1.7664544403e+00 3.0595888398e+00 
32400 6.5608777713e+00 2.8266332783e-04 1.7664473866e+00 -3.0595766226e+00 1.7664473866e+00 3.0595766226e+00 
32500 6.5608659379e+00 3.2105772829e-04 1.7664393858e+00 -3.0595627646e+00 1.7664393858e+00 3.0595627646e+00 
32600 6.5608545033e+00 3.6413160785e-04 1.7664302981e+00 -3.0595470243e+00 1.7664302981e+00 3.0595470243e+00 
32700 6.5608434623e+00 4.1163224158e-04 1.7664199911e+00 -3.0595291720e+00 1.7664199911e+00 3.0595291720e+00 
32800 6.5608328076e+00 4.6330504142e-04 1.7664083395e+00 -3.0595089909e+00 1.7664083395e+00 3.0595089909e+00 
32900 6.5608225302e+00 5.1889411568e-04 1.7663952252e+00 -3.0594862763e+00 1.7663952252e+00 3.0594862763e+00 
33000 6.5608126196e+00 5.7814281727e-04 1.7663805373e+00 -3.0594608360e+00 1.7663805373e+00 3.0594608360e+00 
33100 6.5608030636e+00 6.4079427969e-04 1.7663641721e+00 -3.0594324908e+00 1.7663641721e+00 3.0594324908e+00 
33200 6.5607938490e+00 7.0659193996e-04 1.7663460333e+00 -3.0594010735e+00 1.7663460333e+00 3.0594010735e+00 
33300 6.5607849614e+00 7.7528004789e-04 1.7663260319e+00 -3.0593664299e+00 1.7663260319e+00 3.0593664299e+00 
33400 6.5607763855e+00 8.4660416081e-04 1.7663040858e+00 -3.0593284182e+00 1.7663040858e+00 3.0593284182e+00 
33500 6.5607681050e+00 9.2031162311e-04 1.7662801204e+00 -3.0592869090e+00 1.7662801204e+00 3.0592869090e+00 
33600 6.5607601032e+00 9.9615202999e-04 1.7662540682e+00 -3.0592417853e+00 1.7662540682e+00 3.0592417853e+00 
33700 6.5607523629e+00 1.0738776748e-03 1.7662258687e+00 -3.0591929423e+00 1.7662258687e+00 3.0591929423e+00 
33800 6.5607448664e+00 1.1532439795e-03 1.7661954685e+00 -3.0591402875e+00 1.7661954685e+00 3.0591402875e+00 
33900 6.5607375959e+00 1.2340099075e-03 1.7661628209e+00 -3.0590837402e+00 1.7661628209e+00 3.0590837402e+00 
34000 6.5607305336e+00 1.3159383588e-03 1.7661278862e+00 -3.0590232316e+00 1.7661278862e+00 3.0590232316e+00 
34100 6.5607236618e+00 1.3987965467e-03 1.7660906315e+00 -3.0589587045e+00 1.7660906315e+00 3.0589587045e+00 
34200 6.5607169628e+00 1.4823563558e-03 1.7660510301e+00 -3.0588901129e+00 1.7660510301e+00 3.0588901129e+00 
34300 6.5607104194e+00 1.5663946812e-03 1.7660090622e+00 -3.0588174223e+00 1.7660090622e+00 3.0588174223e+00 
34400 6.5607040148e+00 1.6506937483e-03 1.7659647139e+00 -3.0587406089e+00 1.7659647139e+00 3.0587406089e+00 
34500 6.5606977326e+00 1.7350414134e-03 1.7659179778e+00 -3.0586596596e+00 1.7659179778e+00 3.0586596596e+00 
34600 6.5606915572e+00 1.8192314442e-03 1.7658688523e+00 -3.0585745717e+00 1.7658688523e+00 3.0585745717e+00 
34700 6.5606854734e+00 1.9030637813e-03 1.7658173416e+00 -3.0584853525e+00 1.7658173416e+00 3.0584853525e+00 
34800 6.5606794671e+00 1.9863447789e-03 1.7657634557e+00 -3.0583920194e+00 1.7657634557e+00 3.0583920194e+00 
34900 6.5606735247e+00 2.0688874273e-03 1.7657072099e+00 -3.0582945988e+00 1.7657072099e+00 3.0582945988e+00 
35000 6.5606676336e+00 2.1505115536e-03 1.7656486250e+00 -3.0581931268e+00 1.7656486250e+00 3.0581931268e+00 
35100 6.5606617822e+00 2.2310440043e-03 1.7655877267e+00 -3.0580876479e+00 1.7655877267e+00 3.0580876479e+00 
35200 6.5606559597e+00 2.3103188077e-03 1.7655245458e+00 -3.0579782153e+00 1.7655245458e+00 3.0579782153e+00 
35300 6.5606501563e+00 2.3881773166e-03 1.7654591175e+00 -3.0578648902e+00 1.7654591175e+00 3.0578648902e+00 
35400 6.5606443632e+00 2.4644683324e-03 1.7653914818e+00 -3.0577477416e+00 1.7653914818e+00 3.0577477416e+00 
35500 6.5606385725e+00 2.5390482097e-03 1.7653216827e+00 -3.0576268462e+00 1.7653216827e+00 3.0576268462e+00 
35600 6.5606327773e+00 2.6117809422e-03 1.7652497686e+00 -3.0575022873e+00 1.7652497686e+00 3.0575022873e+00 
35700 6.5606269719e+00 2.6825382307e-03 1.7651757915e+00 -3.0573741551e+00 1.7651757915e+00 3.0573741551e+00 
35800 6.5606211513e+00 2.7511995324e-03 1.7650998070e+00 -3.0572425462e+00 1.7650998070e+00 3.0572425462e+00 
35900 6.5606153116e+00 2.8176520927e-03 1.7650218743e+00 -3.0571075628e+00 1.7650218743e+00 3.0571075628e+00 
36000 6.5606094495e+00 2.8817909602e-03 1.7649420557e+00 -3.0569693129e+00 1.7649420557e+00 3.0569693129e+00 
36100 6.5606035631e+00 2.9435189844e-03 1.7648604165e+00 -3.0568279097e+00 1.7648604165e+00 3.0568279097e+00 
36200 6.5605976510e+00 3.0027467972e-03 1.7647770248e+00 -3.0566834710e+00 1.7647770248e+00 3.0566834710e+00 
36300 6.5605917126e+00 3.0593927786e-03 1.7646919511e+00 -3.0565361190e+00 1.7646919511e+00 3.0565361190e+00 
36400 6.5605857481e+00 3.1133830069e-03 1.7646052683e+00 -3.0563859800e+00 1.7646052683e+00 3.0563859800e+00 
36500 6.5605797585e+00 3.1646511947e-03 1.7645170515e+00 -3.0562331840e+00 1.7645170515e+00 3.0562331840e+00 
36600 6.5605737453e+00 3.2131386098e-03 1.7644273776e+00 -3.0560778642e+00 1.7644273776e+00 3.0560778642e+00 
36700 6.5605677108e+00 3.2587939834e-03 1.7643363250e+00 -3.0559201566e+00 1.7643363250e+00 3.0559201566e+00 
36800 6.5605616576e+00 3.3015734045e-03 1.7642439740e+00 -3.0557601999e+00 1.7642439740e+00 3.0557601999e+00 
36900 6.5605555890e+00 3.3414402025e-03 1.7641504058e+00 -3.0555981350e+00 1.7641504058e+00 3.0555981350e+00 
37000 6.5605495086e+00 3.3783648173e-03 1.7640557027e+00 -3.0554341044e+00 1.7640557027e+00 3.0554341044e+00 
37100 6.5605434205e+00 3.4123246592e-03 1.7639599479e+00 -3.0552682523e+00 1.7639599479e+00 3.0552682523e+00 
37200 6.5605373290e+00 3.4433039572e-03 1.7638632254e+00 -3.0551007240e+00 1.7638632254e+00 3.0551007240e+00 
37300 6.5605312387e+00 3.4712935981e-03 1.7637656194e+00 -3.0549316654e+00 1.7637656194e+00 3.0549316654e+00 
37400 6.5605251545e+00 3.4962909564e-03 1.7636672146e+00 -3.0547612233e+00 1.7636672146e+00 3.0547612233e+00 
37500 6.5605190812e+00 3.5182997149e-03 1.7635680956e+00 -3.0545895441e+00 1.7635680956e+00 3.0545895441e+00 
37600 6.5605130240e+00 3.5373296784e-03 1.7634683470e+00 -3.0544167746e+00 1.7634683470e+00 3.0544167746e+00 
37700 6.5605069879e+00 3.5533965789e-03 1.7633680533e+00 -3.0542430608e+00 1.7633680533e+00 3.0542430608e+00 
37800 6.5605009782e+00 3.5665218751e-03 1.7632672983e+00 -3.0540685480e+00 1.7632672983e+00 3.0540685480e+00 
37900 6.5604949998e+00 3.5767325456e-03 1.7631661654e+00 -3.0538933806e+00 1.7631661654e+00 3.0538933806e+00 
38000 6.5604890579e+00 3.5840608763e-03 1.7630647371e+00 -3.0537177017e+00 1.7630647371e+00 3.0537177017e+00 
38100 6.5604831571e+00 3.5885442437e-03 1.7629630952e+00 -3.0535416527e+00 1.7629630952e+00 3.0535416527e+00 
38200 6.5604773024e+00 3.5902248932e-03 1.7628613202e+00 -3.0533653733e+00 1.7628613202e+00 3.0533653733e+00 
38300 6.5604714982e+00 3.5891497147e-03 1.7627594917e+00 -3.0531890012e+00 1.7627594917e+00 3.0531890012e+00 
38400 6.5604657488e+00 3.5853700147e-03 1.7626576878e+00 -3.0530126717e+00 1.7626576878e+00 3.0530126717e+00 
38500 6.5604600582e+00 3.5789412861e-03 1.7625559853e+00 -3.0528365177e+00 1.7625559853e+00 3.0528365177e+00 
38600 6.5604544304e+00 3.5699229760e-03 1.7624544592e+00 -3.0526606694e+00 1.7624544592e+00 3.0526606694e+00 
38700 6.5604488687e+00 3.5583782526e-03 1.7623531832e+00 -3.0524852542e+00 1.7623531832e+00 3.0524852542e+00 
38800 6.5604433765e+00 3.5443737711e-03 1.7622522288e+00 -3.0523103961e+00 1.7622522288e+00 3.0523103961e+00 
38900 6.5604379565e+00 3.5279794392e-03 1.7621516660e+00 -3.0521362162e+00 1.7621516660e+00 3.0521362162e+00 
39000 6.5604326113e+00 3.5092681833e-03 1.7620515627e+00 -3.0519628321e+00 1.7620515627e+00 3.0519628321e+00 
39100 6.5604273432e+00 3.4883157147e-03 1.7619519846e+00 -3.0517903578e+00 1.7619519846e+00 3.0517903578e+00 
39200 6.5604221541e+00 3.4652002980e-03 1.7618529954e+00 -3.0516189035e+00 1.7618529954e+00 3.0516189035e+00 
39300 6.5604170455e+00 3.4400025200e-03 1.7617546567e+00 -3.0514485758e+00 1.7617546567e+00 3.0514485758e+00 
39400 6.5604120186e+00 3.4128050617e-03 1.7616570276e+00 -3.0512794773e+00 1.7616570276e+00 3.0512794773e+00 
39500 6.5604070743e+00 3.3836924722e-03 1.7615601650e+00 -3.0511117063e+00 1.7615601650e+00 3.0511117063e+00 
39600 6.5604022131e+00 3.3527509455e-03 1.7614641233e+00 -3.0509453573e+00 1.7614641233e+00 3.0509453573e+00 
39700 6.5603974355e+00 3.3200681005e-03 1.7613689548e+00 -3.0507805205e+00 1.7613689548e+00 3.0507805205e+00 
39800 6.5603927412e+00 3.2857327650e-03 1.7612747088e+00 -3.0506172817e+00 1.7612747088e+00 3.0506172817e+00 
39900 6.5603881299e+00 3.2498347628e-03 1.7611814325e+00 -3.0504557224e+00 1.7611814325e+00 3.0504557224e+00 
40000 6.5603836010e+00 3.2124647061e-03 1.7610891704e+00 -3.0502959198e+00 1.7610891704e+00 3.0502959198e+00 
40100 6.5603791537e+00 3.1737137911e-03 1.7609979644e+00 -3.0501379464e+00 1.7609979644e+00 3.0501379464e+00 
40200 6.5603747868e+00 3.1336735998e-03 1.7609078540e+00 -3.0499818705e+00 1.7609078540e+00 3.0499818705e+00 
40300 6.5603704990e+00 3.0924359053e-03 1.7608188758e+00 -3.0498277558e+00 1.7608188758e+00 3.0498277558e+00 
40400 6.5603662887e+00 3.0500924837e-03 1.7607310641e+00 -3.0496756614e+00 1.7607310641e+00 3.0496756614e+00 
40500 6.5603621542e+00 3.0067349310e-03 1.7606444504e+00 -3.0495256422e+00 1.7606444504e+00 3.0495256422e+00 
40600 6.5603580936e+00 2.9624544849e-03 1.7605590638e+00 -3.0493777482e+00 1.7605590638e+00 3.0493777482e+00 
40700 6.5603541049e+00 2.9173418538e-03 1.7604749305e+00 -3.0492320251e+00 1.7604749305e+00 3.0492320251e+00 
40800 6.5603501858e+00 2.8714870510e-03 1.7603920745e+00 -3.0490885143e+00 1.7603920745e+00 3.0490885143e+00 
40900 6.5603463341e+00 2.8249792348e-03 1.7603105170e+00 -3.0489472525e+00 1.7603105170e+00 3.0489472525e+00 
41000 6.5603425474e+00 2.7779065557e-03 1.7602302766e+00 -3.0488082721e+00 1.7602302766e+00 3.0488082721e+00 
41100 6.5603388233e+00 2.7303560095e-03 1.7601513697e+00 -3.0486716014e+00 1.7601513697e+00 3.0486716014e+00 
41200 6.5603351593e+00 2.6824132966e-03 1.7600738101e+00 -3.0485372641e+00 1.7600738101e+00 3.0485372641e+00 
41300 6.5603315530e+00 2.6341626885e-03 1.7599976089e+00 -3.0484052798e+00 1.7599976089e+00 3.0484052798e+00 
41400 6.5603280017e+00 2.5856869007e-03 1.7599227751e+00 -3.0482756639e+00 1.7599227751e+00 3.0482756639e+00 
41500 6.5603245031e+00 2.5370669717e-03 1.7598493154e+00 -3.0481484280e+00 1.7598493154e+00 3.0481484280e+00 
41600 6.5603210545e+00 2.4883821496e-03 1.7597772340e+00 -3.0480235792e+00 1.7597772340e+00 3.0480235792e+00 
41700 6.5603176537e+00 2.4397097851e-03 1.7597065328e+00 -3.0479011212e+00 1.7597065328e+00 3.0479011212e+00 
41800 6.5603142980e+00 2.3911252306e-03 1.7596372118e+00 -3.0477810537e+00 1.7596372118e+00 3.0477810537e+00 
41900 6.5603109853e+00 2.3427017473e-03 1.7595692685e+00 -3.0476633725e+00 1.7595692685e+00 3.0476633725e+00 
42000 6.5603077133e+00 2.2945104176e-03 1.7595026986e+00 -3.0475480701e+00 1.7595026986e+00 3.0475480701e+00 
42100 6.5603044798e+00 2.2466200655e-03 1.7594374956e+00 -3.0474351352e+00 1.7594374956e+00 3.0474351352e+00 
42200 6.5603012826e+00 2.1990971826e-03 1.7593736512e+00 -3.0473245533e+00 1.7593736512e+00 3.0473245533e+00 
42300 6.5602981200e+00 2.1520058610e-03 1.7593111550e+00 -3.0472163067e+00 1.7593111550e+00 3.0472163067e+00 
42400 6.5602949899e+00 2.1054077334e-03 1.7592499948e+00 -3.0471103743e+00 1.7592499948e+00 3.0471103743e+00 
42500 6.5602918907e+00 2.0593619185e-03 1.7591901570e+00 -3.0470067320e+00 1.7591901570e+00 3.0470067320e+00 
42600 6.5602888206e+00 2.0139249737e-03 1.7591316258e+00 -3.0469053530e+00 1.7591316258e+00 3.0469053530e+00 
42700 6.5602857783e+00 1.9691508534e-03 1.7590743840e+00 -3.0468062075e+00 1.7590743840e+00 3.0468062075e+00 
42800 6.5602827623e+00 1.9250908744e-03 1.7590184131e+00 -3.0467092630e+00 1.7590184131e+00 3.0467092630e+00 
42900 6.5602797714e+00 1.8817936860e-03 1.7589636928e+00 -3.0466144846e+00 1.7589636928e+00 3.0466144846e+00 
43000 6.5602768044e+00 1.8393052478e-03 1.7589102015e+00 -3.0465218350e+00 1.7589102015e+00 3.0465218350e+00 
43100 6.5602738604e+00 1.7976688114e-03 1.7588579164e+00 -3.0464312745e+00 1.7588579164e+00 3.0464312745e+00 
43200 6.5602709385e+00 1.7569249094e-03 1.7588068134e+00 -3.0463427615e+00 1.7588068134e+00 3.0463427615e+00 
43300 6.5602680379e+00 1.7171113495e-03 1.7587568671e+00 -3.0462562520e+00 1.7587568671e+00 3.0462562520e+00 
43400 6.5602651580e+00 1.6782632131e-03 1.7587080513e+00 -3.0461717005e+00 1.7587080513e+00 3.0461717005e+00 
43500 6.5602622983e+00 1.6404128609e-03 1.7586603385e+00 -3.0460890596e+00 1.7586603385e+00 3.0460890596e+00 
43600 6.5602594584e+00 1.6035899419e-03 1.7586137006e+00 -3.0460082804e+00 1.7586137006e+00 3.0460082804e+00 
43700 6.5602566379e+00 1.5678214089e-03 1.7585681084e+00 -3.0459293123e+00 1.7585681084e+00 3.0459293123e+00 
43800 6.5602538368e+00 1.5331315372e-03 1.7585235319e+00 -3.0458521036e+00 1.7585235319e+00 3.0458521036e+00 
43900 6.5602510547e+00 1.4995419496e-03 1.7584799406e+00 -3.0457766013e+00 1.7584799406e+00 3.0457766013e+00 
44000 6.5602482919e+00 1.4670716444e-03 1.7584373034e+00 -3.0457027514e+00 1.7584373034e+00 3.0457027514e+00 
44100 6.5602455482e+00 1.4357370288e-03 1.7583955883e+00 -3.0456304988e+00 1.7583955883e+00 3.0456304988e+00 
44200 6.5602428238e+00 1.4055519557e-03 1.7583547633e+00 -3.0455597877e+00 1.7583547633e+00 3.0455597877e+00 
44300 6.5602401190e+00 1.3765277647e-03 1.7583147956e+00 -3.0454905617e+00 1.7583147956e+00 3.0454905617e+00 
44400 6.5602374339e+00 1.3486733269e-03 1.7582756524e+00 -3.0454227636e+00 1.7582756524e+00 3.0454227636e+00 
44500 6.5602347688e+00 1.3219950931e-03 1.7582373004e+00 -3.0453563360e+00 1.7582373004e+00 3.0453563360e+00 
44600 6.5602321242e+00 1.2964971455e-03 1.7581997062e+00 -3.0452912209e+00 1.7581997062e+00 3.0452912209e+00 
44700 6.5602295003e+00 1.2721812525e-03 1.7581628363e+00 -3.0452273604e+00 1.7581628363e+00 3.0452273604e+00 
44800 6.5602268976e+00 1.2490469269e-03 1.7581266571e+00 -3.0451646963e+00 1.7581266571e+00 3.0451646963e+00 
44900 6.5602243166e+00 1.2270914859e-03 1.7580911351e+00 -3.0451031704e+00 1.7580911351e+00 3.0451031704e+00 
45000 6.5602217576e+00 1.2063101149e-03 1.7580562369e+00 -3.0450427248e+00 1.7580562369e+00 3.0450427248e+00 
45100 6.5602192211e+00 1.1866959332e-03 1.7580219289e+00 -3.0449833017e+00 1.7580219289e+00 3.0449833017e+00 
45200 6.5602167075e+00 1.1682400617e-03 1.7579881781e+00 -3.0449248436e+00 1.7579881781e+00 3.0449248436e+00 
45300 6.5602142174e+00 1.1509316931e-03 1.7579549516e+00 -3.0448672936e+00 1.7579549516e+00 3.0448672936e+00 
45400 6.5602117512e+00 1.1347581638e-03 1.7579222168e+00 -3.0448105952e+00 1.7579222168e+00 3.0448105952e+00 
45500 6.5602093092e+00 1.1197050273e-03 1.7578899413e+00 -3.0447546924e+00 1.7578899413e+00 3.0447546924e+00 
45600 6.5602068920e+00 1.1057561297e-03 1.7578580934e+00 -3.0446995303e+00 1.7578580934e+00 3.0446995303e+00 
45700 6.5602044998e+00 1.0928936855e-03 1.7578266417e+00 -3.0446450543e+00 1.7578266417e+00 3.0446450543e+00 
45800 6.5602021331e+00 1.0810983555e-03 1.7577955553e+00 -3.0445912111e+00 1.7577955553e+00 3.0445912111e+00 
45900 6.5601997922e+00 1.0703493252e-03 1.7577648038e+00 -3.0445379480e+00 1.7577648038e+00 3.0445379480e+00 
46000 6.5601974774e+00 1.0606243842e-03 1.7577343576e+00 -3.0444852136e+00 1.7577343576e+00 3.0444852136e+00 
46100 6.5601951889e+00 1.0519000057e-03 1.7577041875e+00 -3.0444329574e+00 1.7577041875e+00 3.0444329574e+00 
46200 6.5601929271e+00 1.0441514272e-03 1.7576742650e+00 -3.0443811302e+00 1.7576742650e+00 3.0443811302e+00 
46300 6.5601906919e+00 1.0373527309e-03 1.7576445625e+00 -3.0443296838e+00 1.7576445625e+00 3.0443296838e+00 
46400 6.5601884837e+00 1.0314769245e-03 1.7576150528e+00 -3.0442785716e+00 1.7576150528e+00 3.0442785716e+00 
46500 6.5601863025e+00 1.0264960217e-03 1.7575857098e+00 -3.0442277480e+00 1.7575857098e+00 3.0442277480e+00 
46600 6.5601841484e+00 1.0223811228e-03 1.7575565080e+00 -3.0441771690e+00 1.7575565080e+00 3.0441771690e+00 
46700 6.5601820214e+00 1.0191024948e-03 1.7575274228e+00 -3.0441267920e+00 1.7575274228e+00 3.0441267920e+00 
46800 6.5601799215e+00 1.0166296508e-03 1.7574984304e+00 -3.0440765756e+00 1.7574984304e+00 3.0440765756e+00 
46900 6.5601778486e+00 1.0149314293e-03 1.7574695078e+00 -3.0440264803e+00 1.7574695078e+00 3.0440264803e+00 
47000 6.5601758027e+00 1.0139760721e-03 1.7574406331e+00 -3.0439764678e+00 1.7574406331e+00 3.0439764678e+00 
47100 6.5601737835e+00 1.0137313017e-03 1.7574117851e+00 -3.0439265016e+00 1.7574117851e+00 3.0439265016e+00 
47200 6.5601717910e+00 1.0141643976e-03 1.7573829436e+00 -3.0438765466e+00 1.7573829436e+00 3.0438765466e+00 
47300 6.5601698248e+00 1.0152422714e-03 1.7573540892e+00 -3.0438265695e+00 1.7573540892e+00 3.0438265695e+00 
47400 6.5601678848e+00 1.0169315403e-03 1.7573252038e+00 -3.0437765384e+00 1.7573252038e+00 3.0437765384e+00 
47500 6.5601659706e+00 1.0191986001e-03 1.7572962698e+00 -3.0437264232e+00 1.7572962698e+00 3.0437264232e+00 
47600 6.5601640820e+00 1.0220096957e-03 1.7572672708e+00 -3.0436761955e+00 1.7572672708e+00 3.0436761955e+00 
47700 6.5601622186e+00 1.0253309906e-03 1.7572381914e+00 -3.0436258285e+00 1.7572381914e+00 3.0436258285e+00 
47800 6.5601603801e+00 1.0291286349e-03 1.7572090170e+00 -3.0435752969e+00 1.7572090170e+00 3.0435752969e+00 
47900 6.5601585660e+00 1.0333688305e-03 1.7571797340e+00 -3.0435245773e+00 1.7571797340e+00 3.0435245773e+00 
48000 6.5601567760e+00 1.0380178959e-03 1.7571503299e+00 -3.0434736479e+00 1.7571503299e+00 3.0434736479e+00 
48100 6.5601550096e+00 1.0430423279e-03 1.7571207930e+00 -3.0434224885e+00 1.7571207930e+00 3.0434224885e+00 
48200 6.5601532664e+00 1.0484088619e-03 1.7570911126e+00 -3.0433710806e+00 1.7570911126e+00 3.0433710806e+00 
48300 6.5601515459e+00 1.0540845297e-03 1.7570612791e+00 -3.0433194074e+00 1.7570612791e+00 3.0433194074e+00 
48400 6.5601498477e+00 1.0600367160e-03 1.7570312835e+00 -3.0432674535e+00 1.7570312835e+00 3.0432674535e+00 
48500 6.5601481713e+00 1.0662332116e-03 1.7570011180e+00 -3.0432152054e+00 1.7570011180e+00 3.0432152054e+00 
48600 6.5601465163e+00 1.0726422651e-03 1.7569707757e+00 -3.0431626509e+00 1.7569707757e+00 3.0431626509e+00 
48700 6.5601448820e+00 1.0792326323e-03 1.7569402504e+00 -3.0431097796e+00 1.7569402504e+00 3.0431097796e+00 
48800 6.5601432682e+00 1.0859736228e-03 1.7569095371e+00 -3.0430565826e+00 1.7569095371e+00 3.0430565826e+00 
48900 6.5601416742e+00 1.0928351451e-03 1.7568786314e+00 -3.0430030524e+00 1.7568786314e+00 3.0430030524e+00 
49000 6.5601400997e+00 1.0997877483e-03 1.7568475299e+00 -3.0429491829e+00 1.7568475299e+00 3.0429491829e+00 
49100 6.5601385440e+00 1.1068026625e-03 1.7568162300e+00 -3.0428949699e+00 1.7568162300e+00 3.0428949699e+00 
49200 6.5601370069e+00 1.1138518357e-03 1.7567847298e+00 -3.0428404100e+00 1.7567847298e+00 3.0428404100e+00 
49300 6.5601354878e+00 1.1209079692e-03 1.7567530285e+00 -3.0427855017e+00 1.7567530285e+00 3.0427855017e+00 
49400 6.5601339863e+00 1.1279445501e-03 1.7567211257e+00 -3.0427302445e+00 1.7567211257e+00 3.0427302445e+00 
49500 6.5601325020e+00 1.1349358814e-03 1.7566890222e+00 -3.0426746395e+00 1.7566890222e+00 3.0426746395e+00 
49600 6.5601310344e+00 1.1418571102e-03 1.7566567190e+00 -3.0426186887e+00 1.7566567190e+00 3.0426186887e+00 
49700 6.5601295832e+00 1.1486842523e-03 1.7566242182e+00 -3.0425623958e+00 1.7566242182e+00 3.0425623958e+00 
49800 6.5601281480e+00 1.1553942161e-03 1.7565915225e+00 -3.0425057652e+00 1.7565915225e+00 3.0425057652e+00 
49900 6.5601267283e+00 1.1619648226e-03 1.7565586353e+00 -3.0424488027e+00 1.7565586353e+00 3.0424488027e+00 
50000 6.5601253240e+00 1.1683748238e-03 1.7565255603e+00 -3.0423915153e+00 1.7565255603e+00 3.0423915153e+00 
50100 6.5601239345e+00 1.1746039189e-03 1.7564923023e+00 -3.0423339107e+00 1.7564923023e+00 3.0423339107e+00 
50200 6.5601225596e+00 1.1806327677e-03 1.7564588663e+00 -3.0422759979e+00 1.7564588663e+00 3.0422759979e+00 
50300 6.5601211991e+00 1.1864430021e-03 1.7564252581e+00 -3.0422177868e+00 1.7564252581e+00 3.0422177868e+00 
50400 6.5601198525e+00 1.1920172352e-03 1.7563914839e+00 -3.0421592880e+00 1.7563914839e+00 3.0421592880e+00 
50500 6.5601185198e+00 1.1973390687e-03 1.7563575503e+00 -3.0421005133e+00 1.7563575503e+00 3.0421005133e+00 
50600 6.5601172005e+00 1.2023930973e-03 1.7563234645e+00 -3.0420414751e+00 1.7563234645e+00 3.0420414751e+00 
50700 6.5601158945e+00 1.2071649118e-03 1.7562892342e+00 -3.0419821865e+00 1.7562892342e+00 3.0419821865e+00 
50800 6.5601146017e+00 1.2116410998e-03 1.7562548674e+00 -3.0419226614e+00 1.7562548674e+00 3.0419226614e+00 
50900 6.5601133217e+00 1.2158092446e-03 1.7562203725e+00 -3.0418629145e+00 1.7562203725e+00 3.0418629145e+00 
51000 6.5601120544e+00 1.2196579217e-03 1.7561857583e+00 -3.0418029608e+00 1.7561857583e+00 3.0418029608e+00 
51100 6.5601107996e+00 1.2231766946e-03 1.7561510338e+00 -3.0417428162e+00 1.7561510338e+00 3.0417428162e+00 
51200 6.5601095573e+00 1.2263561073e-03 1.7561162084e+00 -3.0416824969e+00 1.7561162084e+00 3.0416824969e+00 
51300 6.5601083272e+00 1.2291876760e-03 1.7560812918e+00 -3.0416220196e+00 1.7560812918e+00 3.0416220196e+00 
51400 6.5601071093e+00 1.2316638791e-03 1.7560462939e+00 -3.0415614014e+00 1.7560462939e+00 3.0415614014e+00 
51500 6.5601059034e+00 1.2337781452e-03 1.7560112247e+00 -3.0415006599e+00 1.7560112247e+00 3.0415006599e+00 
51600 6.5601047094e+00 1.2355248399e-03 1.7559760947e+00 -3.0414398129e+00 1.7559760947e+00 3.0414398129e+00 
51700 6.5601035273e+00 1.2368992508e-03 1.7559409143e+00 -3.0413788786e+00 1.7559409143e+00 3.0413788786e+00 
51800 6.5601023570e+00 1.2378975716e-03 1.7559056940e+00 -3.0413178753e+00 1.7559056940e+00 3.0413178753e+00 
51900 6.5601011983e+00 1.2385168844e-03 1.7558704446e+00 -3.0412568215e+00 1.7558704446e+00 3.0412568215e+00 
52000 6.5601000513e+00 1.2387551407e-03 1.7558351768e+00 -3.0411957359e+00 1.7558351768e+00 3.0411957359e+00 
52100 6.5600989159e+00 1.2386111420e-03 1.7557999015e+00 -3.0411346374e+00 1.7557999015e+00 3.0411346374e+00 
52200 6.5600977920e+00 1.2380845179e-03 1.7557646296e+00 -3.0410735447e+00 1.7557646296e+00 3.0410735447e+00 
52300 6.5600966796e+00 1.2371757049e-03 1.7557293721e+00 -3.0410124768e+00 1.7557293721e+00 3.0410124768e+00 
52400 6.5600955786e+00 1.2358859224e-03 1.7556941397e+00 -3.0409514524e+00 1.7556941397e+00 3.0409514524e+00 
52500 6.5600944890e+00 1.2342171494e-03 1.7556589433e+00 -3.0408904905e+00 1.7556589433e+00 3.0408904905e+00 
52600 6.5600934107e+00 1.2321720991e-03 1.7556237937e+00 -3.0408296097e+00 1.7556237937e+00 3.0408296097e+00 
52700 6.5600923438e+00 1.2297541939e-03 1.7555887017e+00 -3.0407688285e+00 1.7555887017e+00 3.0407688285e+00 
52800 6.5600912882e+00 1.2269675387e-03 1.7555536778e+00 -3.0407081654e+00 1.7555536778e+00 3.0407081654e+00 
52900 6.5600902438e+00 1.2238168941e-03 1.7555187326e+00 -3.0406476385e+00 1.7555187326e+00 3.0406476385e+00 
53000 6.5600892106e+00 1.2203076493e-03 1.7554838764e+00 -3.0405872659e+00 1.7554838764e+00 3.0405872659e+00 
53100 6.5600881886e+00 1.2164457938e-03 1.7554491195e+00 -3.0405270651e+00 1.7554491195e+00 3.0405270651e+00 
53200 6.5600871777e+00 1.2122378894e-03 1.7554144719e+00 -3.0404670538e+00 1.7554144719e+00 3.0404670538e+00 
53300 6.5600861779e+00 1.2076910415e-03 1.7553799435e+00 -3.0404072488e+00 1.7553799435e+00 3.0404072488e+00 
53400 6.5600851892e+00 1.2028128700e-03 1.7553455439e+00 -3.0403476669e+00 1.7553455439e+00 3.0403476669e+00 
53500 6.5600842114e+00 1.1976114807e-03 1.7553112826e+00 -3.0402883246e+00 1.7553112826e+00 3.0402883246e+00 
53600 6.5600832445e+00 1.1920954355e-03 1.7552771688e+00 -3.0402292377e+00 1.7552771688e+00 3.0402292377e+00 
53700 6.5600822886e+00 1.1862737234e-03 1.7552432114e+00 -3.0401704218e+00 1.7552432114e+00 3.0401704218e+00 
53800 6.5600813434e+00 1.1801557313e-03 1.7552094192e+00 -3.0401118921e+00 1.7552094192e+00 3.0401118921e+00 
53900 6.5600804090e+00 1.1737512140e-03 1.7551758007e+00 -3.0400536630e+00 1.7551758007e+00 3.0400536630e+00 
54000 6.5600794853e+00 1.1670702658e-03 1.7551423639e+00 -3.0399957489e+00 1.7551423639e+00 3.0399957489e+00 
54100 6.5600785722e+00 1.1601232910e-03 1.7551091169e+00 -3.0399381633e+00 1.7551091169e+00 3.0399381633e+00 
54200 6.5600776696e+00 1.1529209750e-03 1.7550760671e+00 -3.0398809194e+00 1.7550760671e+00 3.0398809194e+00 
54300 6.5600767774e+00 1.1454742558e-03 1.7550432219e+00 -3.0398240298e+00 1.7550432219e+00 3.0398240298e+00 
54400 6.5600758957e+00 1.1377942957e-03 1.7550105882e+00 -3.0397675066e+00 1.7550105882e+00 3.0397675066e+00 
54500 6.5600750241e+00 1.1298924532e-03 1.7549781727e+00 -3.0397113613e+00 1.7549781727e+00 3.0397113613e+00 
54600 6.5600741628e+00 1.1217802555e-03 1.7549459817e+00 -3.0396556049e+00 1.7549459817e+00 3.0396556049e+00 
54700 6.5600733115e+00 1.1134693713e-03 1.7549140213e+00 -3.0396002478e+00 1.7549140213e+00 3.0396002478e+00 
54800 6.5600724702e+00 1.1049715841e-03 1.7548822970e+00 -3.0395452998e+00 1.7548822970e+00 3.0395452998e+00 
54900 6.5600716388e+00 1.0962987662e-03 1.7548508144e+00 -3.0394907702e+00 1.7548508144e+00 3.0394907702e+00 
55000 6.5600708171e+00 1.0874628528e-03 1.7548195782e+00 -3.0394366676e+00 1.7548195782e+00 3.0394366676e+00 
55100 6.5600700050e+00 1.0784758172e-03 1.7547885933e+00 -3.0393830001e+00 1.7547885933e+00 3.0393830001e+00 
55200 6.5600692025e+00 1.0693496464e-03 1.7547578638e+00 -3.0393297752e+00 1.7547578638e+00 3.0393297752e+00 
55300 6.5600684094e+00 1.0600963171e-03 1.7547273939e+00 -3.0392769997e+00 1.7547273939e+00 3.0392769997e+00 
55400 6.5600676255e+00 1.0507277729e-03 1.7546971872e+00 -3.0392246800e+00 1.7546971872e+00 3.0392246800e+00 
55500 6.5600668509e+00 1.0412559016e-03 1.7546672468e+00 -3.0391728218e+00 1.7546672468e+00 3.0391728218e+00 
55600 6.5600660853e+00 1.0316925139e-03 1.7546375759e+00 -3.0391214302e+00 1.7546375759e+00 3.0391214302e+00 
55700 6.5600653286e+00 1.0220493221e-03 1.7546081769e+00 -3.0390705098e+00 1.7546081769e+00 3.0390705098e+00 
55800 6.5600645807e+00 1.0123379205e-03 1.7545790523e+00 -3.0390200644e+00 1.7545790523e+00 3.0390200644e+00 
55900 6.5600638415e+00 1.0025697653e-03 1.7545502039e+00 -3.0389700976e+00 1.7545502039e+00 3.0389700976e+00 
56000 6.5600631109e+00 9.9275615671e-04 1.7545216334e+00 -3.0389206121e+00 1.7545216334e+00 3.0389206121e+00 
56100 6.5600623887e+00 9.8290822075e-04 1.7544933421e+00 -3.0388716101e+00 1.7544933421e+00 3.0388716101e+00 
56200 6.5600616748e+00 9.7303689263e-04 1.7544653310e+00 -3.0388230935e+00 1.7544653310e+00 3.0388230935e+00 
56300 6.5600609690e+00 9.6315290049e-04 1.7544376008e+00 -3.0387750633e+00 1.7544376008e+00 3.0387750633e+00 
56400 6.5600602714e+00 9.5326675027e-04 1.7544101518e+00 -3.0387275203e+00 1.7544101518e+00 3.0387275203e+00 
56500 6.5600595817e+00 9.4338871124e-04 1.7543829842e+00 -3.0386804645e+00 1.7543829842e+00 3.0386804645e+00 
56600 6.5600588998e+00 9.3352880250e-04 1.7543560976e+00 -3.0386338956e+00 1.7543560976e+00 3.0386338956e+00 
56700 6.5600582256e+00 9.2369678032e-04 1.7543294917e+00 -3.0385878128e+00 1.7543294917e+00 3.0385878128e+00 
56800 6.5600575590e+00 9.1390212631e-04 1.7543031655e+00 -3.0385422146e+00 1.7543031655e+00 3.0385422146e+00 
56900 6.5600568998e+00 9.0415403644e-04 1.7542771181e+00 -3.0384970992e+00 1.7542771181e+00 3.0384970992e+00 
57000 6.5600562481e+00 8.9446141097e-04 1.7542513482e+00 -3.0384524644e+00 1.7542513482e+00 3.0384524644e+00 
57100 6.5600556036e+00 8.8483284514e-04 1.7542258542e+00 -3.0384083074e+00 1.7542258542e+00 3.0384083074e+00 
57200 6.5600549663e+00 8.7527662082e-04 1.7542006342e+00 -3.0383646251e+00 1.7542006342e+00 3.0383646251e+00 
57300 6.5600543360e+00 8.6580069889e-04 1.7541756862e+00 -3.0383214140e+00 1.7541756862e+00 3.0383214140e+00 
57400 6.5600537126e+00 8.5641271252e-04 1.7541510080e+00 -3.0382786700e+00 1.7541510080e+00 3.0382786700e+00 
57500 6.5600530961e+00 8.4711996120e-04 1.7541265970e+00 -3.0382363890e+00 1.7541265970e+00 3.0382363890e+00 
57600 6.5600524864e+00 8.3792940571e-04 1.7541024506e+00 -3.0381945661e+00 1.7541024506e+00 3.0381945661e+00 
57700 6.5600518833e+00 8.2884766367e-04 1.7540785658e+00 -3.0381531965e+00 1.7540785658e+00 3.0381531965e+00 
57800 6.5600512868e+00 8.1988100613e-04 1.7540549396e+00 -3.0381122746e+00 1.7540549396e+00 3.0381122746e+00 
57900 6.5600506968e+00 8.1103535470e-04 1.7540315686e+00 -3.0380717949e+00 1.7540315686e+00 3.0380717949e+00 
58000 6.5600501132e+00 8.0231627957e-04 1.7540084495e+00 -3.0380317514e+00 1.7540084495e+00 3.0380317514e+00 
58100 6.5600495359e+00 7.9372899821e-04 1.7539855786e+00 -3.0379921379e+00 1.7539855786e+00 3.0379921379e+00 
58200 6.5600489649e+00 7.8527837481e-04 1.7539629522e+00 -3.0379529478e+00 1.7539629522e+00 3.0379529478e+00 
58300 6.5600484000e+00 7.7696892037e-04 1.7539405664e+00 -3.0379141745e+00 1.7539405664e+00 3.0379141745e+00 
58400 6.5600478412e+00 7.6880479357e-04 1.7539184172e+00 -3.0378758110e+00 1.7539184172e+00 3.0378758110e+00 
58500 6.5600472885e+00 7.6078980218e-04 1.7538965005e+00 -3.0378378501e+00 1.7538965005e+00 3.0378378501e+00 
58600 6.5600467417e+00 7.5292740516e-04 1.7538748120e+00 -3.0378002845e+00 1.7538748120e+00 3.0378002845e+00 
58700 6.5600462007e+00 7.4522071542e-04 1.7538533473e+00 -3.0377631066e+00 1.7538533473e+00 3.0377631066e+00 
58800 6.5600456657e+00 7.3767250310e-04 1.7538321021e+00 -3.0377263089e+00 1.7538321021e+00 3.0377263089e+00 
58900 6.5600451363e+00 7.3028519945e-04 1.7538110719e+00 -3.0376898834e+00 1.7538110719e+00 3.0376898834e+00 
59000 6.5600446127e+00 7.2306090127e-04 1.7537902520e+00 -3.0376538222e+00 1.7537902520e+00 3.0376538222e+00 
59100 6.5600440948e+00 7.1600137588e-04 1.7537696378e+00 -3.0376181174e+00 1.7537696378e+00 3.0376181174e+00 
59200 6.5600435824e+00 7.0910806654e-04 1.7537492246e+00 -3.0375827607e+00 1.7537492246e+00 3.0375827607e+00 
59300 6.5600430755e+00 7.0238209840e-04 1.7537290077e+00 -3.0375477441e+00 1.7537290077e+00 3.0375477441e+00 
59400 6.5600425742e+00 6.9582428488e-04 1.7537089824e+00 -3.0375130592e+00 1.7537089824e+00 3.0375130592e+00 
59500 6.5600420783e+00 6.8943513450e-04 1.7536891438e+00 -3.0374786977e+00 1.7536891438e+00 3.0374786977e+00 
59600 6.5600415877e+00 6.8321485806e-04 1.7536694871e+00 -3.0374446513e+00 1.7536694871e+00 3.0374446513e+00 
59700 6.5600411025e+00 6.7716337625e-04 1.7536500075e+00 -3.0374109118e+00 1.7536500075e+00 3.0374109118e+00 
59800 6.5600406226e+00 6.7128032756e-04 1.7536307003e+00 -3.0373774707e+00 1.7536307003e+00 3.0373774707e+00 
59900 6.5600401479e+00 6.6556507660e-04 1.7536115606e+00 -3.0373443198e+00 1.7536115606e+00 3.0373443198e+00 
60000 6.5600396783e+00 6.6001672263e-04 1.7535925837e+00 -3.0373114507e+00 1.7535925837e+00 3.0373114507e+00 
60100 6.5600392140e+00 6.5463410843e-04 1.7535737647e+00 -3.0372788553e+00 1.7535737647e+00 3.0372788553e+00 
60200 6.5600387547e+00 6.4941582938e-04 1.7535550991e+00 -3.0372465254e+00 1.7535550991e+00 3.0372465254e+00 
60300 6.5600383005e+00 6.4436024282e-04 1.7535365820e+00 -3.0372144529e+00 1.7535365820e+00 3.0372144529e+00 
60400 6.5600378512e+00 6.3946547754e-04 1.7535182088e+00 -3.0371826297e+00 1.7535182088e+00 3.0371826297e+00 
60500 6.5600374070e+00 6.3472944354e-04 1.7534999751e+00 -3.0371510479e+00 1.7534999751e+00 3.0371510479e+00 
60600 6.5600369676e+00 6.3014984187e-04 1.7534818762e+00 -3.0371196997e+00 1.7534818762e+00 3.0371196997e+00 
60700 6.5600365332e+00 6.2572417465e-04 1.7534639077e+00 -3.0370885773e+00 1.7534639077e+00 3.0370885773e+00 
60800 6.5600361035e+00 6.2144975515e-04 1.7534460652e+00 -3.0370576733e+00 1.7534460652e+00 3.0370576733e+00 
60900 6.5600356786e+00 6.1732371805e-04 1.7534283444e+00 -3.0370269800e+00 1.7534283444e+00 3.0370269800e+00 
61000 6.5600352585e+00 6.1334302965e-04 1.7534107411e+00 -3.0369964901e+00 1.7534107411e+00 3.0369964901e+00 
61100 6.5600348431e+00 6.0950449820e-04 1.7533932511e+00 -3.0369661966e+00 1.7533932511e+00 3.0369661966e+00 
61200 6.5600344323e+00 6.0580478423e-04 1.7533758705e+00 -3.0369360924e+00 1.7533758705e+00 3.0369360924e+00 
61300 6.5600340261e+00 6.0224041091e-04 1.7533585951e+00 -3.0369061706e+00 1.7533585951e+00 3.0369061706e+00 
61400 6.5600336245e+00 5.9880777432e-04 1.7533414212e+00 -3.0368764246e+00 1.7533414212e+00 3.0368764246e+00 
61500 6.5600332274e+00 5.9550315377e-04 1.7533243451e+00 -3.0368468478e+00 1.7533243451e+00 3.0368468478e+00 
61600 6.5600328347e+00 5.9232272198e-04 1.7533073630e+00 -3.0368174340e+00 1.7533073630e+00 3.0368174340e+00 
61700 6.5600324465e+00 5.8926255529e-04 1.7532904714e+00 -3.0367881769e+00 1.7532904714e+00 3.0367881769e+00 
61800 6.5600320627e+00 5.8631864365e-04 1.7532736670e+00 -3.0367590708e+00 1.7532736670e+00 3.0367590708e+00 
61900 6.5600316832e+00 5.8348690061e-04 1.7532569463e+00 -3.0367301097e+00 1.7532569463e+00 3.0367301097e+00 
62000 6.5600313080e+00 5.8076317312e-04 1.7532403063e+00 -3.0367012883e+00 1.7532403063e+00 3.0367012883e+00 
62100 6.5600309370e+00 5.7814325123e-04 1.7532237437e+00 -3.0366726011e+00 1.7532237437e+00 3.0366726011e+00 
62200 6.5600305702e+00 5.7562287759e-04 1.7532072557e+00 -3.0366440431e+00 1.7532072557e+00 3.0366440431e+00 
62300 6.5600302076e+00 5.7319775685e-04 1.7531908395e+00 -3.0366156093e+00 1.7531908395e+00 3.0366156093e+00 
62400 6.5600298491e+00 5.7086356475e-04 1.7531744922e+00 -3.0365872951e+00 1.7531744922e+00 3.0365872951e+00 
62500 6.5600294947e+00 5.6861595721e-04 1.7531582114e+00 -3.0365590959e+00 1.7531582114e+00 3.0365590959e+00 
62600 6.5600291442e+00 5.6645057897e-04 1.7531419945e+00 -3.0365310074e+00 1.7531419945e+00 3.0365310074e+00 
62700 6.5600287977e+00 5.6436307224e-04 1.7531258393e+00 -3.0365030256e+00 1.7531258393e+00 3.0365030256e+00 
62800 6.5600284552e+00 5.6234908498e-04 1.7531097434e+00 -3.0364751468e+00 1.7531097434e+00 3.0364751468e+00 
62900 6.5600281165e+00 5.6040427896e-04 1.7530937048e+00 -3.0364473671e+00 1.7530937048e+00 3.0364473671e+00 
63000 6.5600277816e+00 5.5852433762e-04 1.7530777215e+00 -3.0364196833e+00 1.7530777215e+00 3.0364196833e+00 
63100 6.5600274506e+00 5.5670497362e-04 1.7530617917e+00 -3.0363920920e+00 1.7530617917e+00 3.0363920920e+00 
63200 6.5600271232e+00 5.5494193616e-04 1.7530459137e+00 -3.0363645904e+00 1.7530459137e+00 3.0363645904e+00 
63300 6.5600267996e+00 5.5323101802e-04 1.7530300857e+00 -3.0363371757e+00 1.7530300857e+00 3.0363371757e+00 
63400 6.5600264796e+00 5.5156806231e-04 1.7530143065e+00 -3.0363098452e+00 1.7530143065e+00 3.0363098452e+00 
63500 6.5600261632e+00 5.4994896891e-04 1.7529985745e+00 -3.0362825967e+00 1.7529985745e+00 3.0362825967e+00 
63600 6.5600258504e+00 5.4836970073e-04 1.7529828886e+00 -3.0362554278e+00 1.7529828886e+00 3.0362554278e+00 
63700 6.5600255411e+00 5.4682628955e-04 1.7529672476e+00 -3.0362283368e+00 1.7529672476e+00 3.0362283368e+00 
63800 6.5600252353e+00 5.4531484161e-04 1.7529516504e+00 -3.0362013218e+00 1.7529516504e+00 3.0362013218e+00 
63900 6.5600249329e+00 5.4383154297e-04 1.7529360963e+00 -3.0361743812e+00 1.7529360963e+00 3.0361743812e+00 
64000 6.5600246339e+00 5.4237266444e-04 1.7529205843e+00 -3.0361475136e+00 1.7529205843e+00 3.0361475136e+00 
64100 6.5600243382e+00 5.4093456631e-04 1.7529051138e+00 -3.0361207179e+00 1.7529051138e+00 3.0361207179e+00 
64200 6.5600240459e+00 5.3951370274e-04 1.7528896841e+00 -3.0360939929e+00 1.7528896841e+00 3.0360939929e+00 
64300 6.5600237568e+00 5.3810662587e-04 1.7528742949e+00 -3.0360673380e+00 1.7528742949e+00 3.0360673380e+00 
64400 6.5600234709e+00 5.3670998958e-04 1.7528589456e+00 -3.0360407523e+00 1.7528589456e+00 3.0360407523e+00 
64500 6.5600231883e+00 5.3532055298e-04 1.7528436361e+00 -3.0360142354e+00 1.7528436361e+00 3.0360142354e+00 
64600 6.5600229087e+00 5.3393518362e-04 1.7528283661e+00 -3.0359877870e+00 1.7528283661e+00 3.0359877870e+00 
64700 6.5600226323e+00 5.3255086037e-04 1.7528131354e+00 -3.0359614067e+00 1.7528131354e+00 3.0359614067e+00 
64800 6.5600223590e+00 5.3116467600e-04 1.7527979441e+00 -3.0359350946e+00 1.7527979441e+00 3.0359350946e+00 
64900 6.5600220887e+00 5.2977383949e-04 1.7527827922e+00 -3.0359088508e+00 1.7527827922e+00 3.0359088508e+00 
65000 6.5600218213e+00 5.2837567806e-04 1.7527676799e+00 -3.0358826754e+00 1.7527676799e+00 3.0358826754e+00 
65100 6.5600215570e+00 5.2696763887e-04 1.7527526073e+00 -3.0358565689e+00 1.7527526073e+00 3.0358565689e+00 
65200 6.5600212956e+00 5.2554729050e-04 1.7527375747e+00 -3.0358305318e+00 1.7527375747e+00 3.0358305318e+00 
65300 6.5600210370e+00 5.2411232408e-04 1.7527225826e+00 -3.0358045646e+00 1.7527225826e+00 3.0358045646e+00 
65400 6.5600207814e+00 5.2266055425e-04 1.7527076312e+00 -3.0357786681e+00 1.7527076312e+00 3.0357786681e+00 
65500 6.5600205285e+00 5.2118991975e-04 1.7526927211e+00 -3.0357528431e+00 1.7526927211e+00 3.0357528431e+00 
65600 6.5600202785e+00 5.1969848383e-04 1.7526778529e+00 -3.0357270905e+00 1.7526778529e+00 3.0357270905e+00 
65700 6.5600200312e+00 5.1818443437e-04 1.7526630271e+00 -3.0357014115e+00 1.7526630271e+00 3.0357014115e+00 
65800 6.5600197866e+00 5.1664608375e-04 1.7526482443e+00 -3.0356758070e+00 1.7526482443e+00 3.0356758070e+00 
65900 6.5600195448e+00 5.1508186854e-04 1.7526335053e+00 -3.0356502783e+00 1.7526335053e+00 3.0356502783e+00 
66000 6.5600193056e+00 5.1349034885e-04 1.7526188108e+00 -3.0356248267e+00 1.7526188108e+00 3.0356248267e+00 
66100 6.5600190690e+00 5.1187020760e-04 1.7526041616e+00 -3.0355994535e+00 1.7526041616e+00 3.0355994535e+00 
66200 6.5600188351e+00 5.1022024943e-04 1.7525895585e+00 -3.0355741602e+00 1.7525895585e+00 3.0355741602e+00 
66300 6.5600186037e+00 5.0853939949e-04 1.7525750024e+00 -3.0355489482e+00 1.7525750024e+00 3.0355489482e+00 
66400 6.5600183749e+00 5.0682670204e-04 1.7525604940e+00 -3.0355238190e+00 1.7525604940e+00 3.0355238190e+00 
66500 6.5600181486e+00 5.0508131879e-04 1.7525460344e+00 -3.0354987743e+00 1.7525460344e+00 3.0354987743e+00 
66600 6.5600179248e+00 5.0330252711e-04 1.7525316245e+00 -3.0354738156e+00 1.7525316245e+00 3.0354738156e+00 
66700 6.5600177035e+00 5.0148971806e-04 1.7525172653e+00 -3.0354489446e+00 1.7525172653e+00 3.0354489446e+00 
66800 6.5600174846e+00 4.9964239424e-04 1.7525029576e+00 -3.0354241629e+00 1.7525029576e+00 3.0354241629e+00 
66900 6.5600172681e+00 4.9776016749e-04 1.7524887025e+00 -3.0353994724e+00 1.7524887025e+00 3.0353994724e+00 
67000 6.5600170541e+00 4.9584275643e-04 1.7524745010e+00 -3.0353748747e+00 1.7524745010e+00 3.0353748747e+00 
67100 6.5600168424e+00 4.9388998391e-04 1.7524603541e+00 -3.0353503715e+00 1.7524603541e+00 3.0353503715e+00 
67200 6.5600166330e+00 4.9190177424e-04 1.7524462628e+00 -3.0353259646e+00 1.7524462628e+00 3.0353259646e+00 
67300 6.5600164260e+00 4.8987815040e-04 1.7524322281e+00 -3.0353016558e+00 1.7524322281e+00 3.0353016558e+00 
67400 6.5600162212e+00 4.8781923106e-04 1.7524182510e+00 -3.0352774468e+00 1.7524182510e+00 3.0352774468e+00 
67500 6.5600160187e+00 4.8572522756e-04 1.7524043325e+00 -3.0352533394e+00 1.7524043325e+00 3.0352533394e+00 
67600 6.5600158185e+00 4.8359644070e-04 1.7523904737e+00 -3.0352293352e+00 1.7523904737e+00 3.0352293352e+00 
67700 6.5600156205e+00 4.8143325757e-04 1.7523766756e+00 -3.0352054361e+00 1.7523766756e+00 3.0352054361e+00 
67800 6.5600154246e+00 4.7923614820e-04 1.7523629390e+00 -3.0351816437e+00 1.7523629390e+00 3.0351816437e+00 
67900 6.5600152310e+00 4.7700566220e-04 1.7523492650e+00 -3.0351579596e+00 1.7523492650e+00 3.0351579596e+00 
68000 6.5600150395e+00 4.7474242530e-04 1.7523356546e+00 -3.0351343857e+00 1.7523356546e+00 3.0351343857e+00 
68100 6.5600148501e+00 4.7244713588e-04 1.7523221086e+00 -3.0351109233e+00 1.7523221086e+00 3.0351109233e+00 
68200 6.5600146629e+00 4.7012056141e-04 1.7523086280e+00 -3.0350875743e+00 1.7523086280e+00 3.0350875743e+00 
68300 6.5600144777e+00 4.6776353490e-04 1.7522952137e+00 -3.0350643400e+00 1.7522952137e+00 3.0350643400e+00 
68400 6.5600142946e+00 4.6537695128e-04 1.7522818666e+00 -3.0350412221e+00 1.7522818666e+00 3.0350412221e+00 
68500 6.5600141135e+00 4.6296176380e-04 1.7522685874e+00 -3.0350182219e+00 1.7522685874e+00 3.0350182219e+00 
68600 6.5600139345e+00 4.6051898040e-04 1.7522553771e+00 -3.0349953409e+00 1.7522553771e+00 3.0349953409e+00 
68700 6.5600137574e+00 4.5804966004e-04 1.7522422363e+00 -3.0349725805e+00 1.7522422363e+00 3.0349725805e+00 
68800 6.5600135823e+00 4.5555490912e-04 1.7522291660e+00 -3.0349499420e+00 1.7522291660e+00 3.0349499420e+00 
68900 6.5600134092e+00 4.5303587781e-04 1.7522161667e+00 -3.0349274266e+00 1.7522161667e+00 3.0349274266e+00 
69000 6.5600132380e+00 4.5049375647e-04 1.7522032392e+00 -3.0349050355e+00 1.7522032392e+00 3.0349050355e+00 
69100 6.5600130687e+00 4.4792977206e-04 1.7521903842e+00 -3.0348827699e+00 1.7521903842e+00 3.0348827699e+00 
69200 6.5600129014e+00 4.4534518455e-04 1.7521776022e+00 -3.0348606309e+00 1.7521776022e+00 3.0348606309e+00 
69300 6.5600127358e+00 4.4274128347e-04 1.7521648939e+00 -3.0348386194e+00 1.7521648939e+00 3.0348386194e+00 
69400 6.5600125722e+00 4.4011938435e-04 1.7521522597e+00 -3.0348167365e+00 1.7521522597e+00 3.0348167365e+00 
69500 6.5600124104e+00 4.3748082536e-04 1.7521397004e+00 -3.0347949830e+00 1.7521397004e+00 3.0347949830e+00 
69600 6.5600122503e+00 4.3482696386e-04 1.7521272162e+00 -3.0347733598e+00 1.7521272162e+00 3.0347733598e+00 
69700 6.5600120921e+00 4.3215917315e-04 1.7521148077e+00 -3.0347518676e+00 1.7521148077e+00 3.0347518676e+00 
69800 6.5600119356e+00 4.2947883914e-04 1.7521024752e+00 -3.0347305071e+00 1.7521024752e+00 3.0347305071e+00 
69900 6.5600117809e+00 4.2678735720e-04 1.7520902191e+00 -3.0347092789e+00 1.7520902191e+00 3.0347092789e+00 
70000 6.5600116280e+00 4.2408612901e-04 1.7520780397e+00 -3.0346881836e+00 1.7520780397e+00 3.0346881836e+00 
70100 6.5600114767e+00 4.2137655954e-04 1.7520659374e+00 -3.0346672217e+00 1.7520659374e+00 3.0346672217e+00 
70200 6.5600113271e+00 4.1866005404e-04 1.7520539123e+00 -3.0346463936e+00 1.7520539123e+00 3.0346463936e+00 
70300 6.5600111792e+00 4.1593801521e-04 1.7520419646e+00 -3.0346256996e+00 1.7520419646e+00 3.0346256996e+00 
70400 6.5600110330e+00 4.1321184035e-04 1.7520300945e+00 -3.0346051401e+00 1.7520300945e+00 3.0346051401e+00 
70500 6.5600108884e+00 4.1048291865e-04 1.7520183021e+00 -3.0345847151e+00 1.7520183021e+00 3.0345847151e+00 
70600 6.5600107454e+00 4.0775262861e-04 1.7520065876e+00 -3.0345644249e+00 1.7520065876e+00 3.0345644249e+00 
70700 6.5600106040e+00 4.0502233548e-04 1.7519949509e+00 -3.0345442695e+00 1.7519949509e+00 3.0345442695e+00 
70800 6.5600104642e+00 4.0229338883e-04 1.7519833920e+00 -3.0345242489e+00 1.7519833920e+00 3.0345242489e+00 
70900 6.5600103260e+00 3.9956712024e-04 1.7519719109e+00 -3.0345043631e+00 1.7519719109e+00 3.0345043631e+00 
71000 6.5600101893e+00 3.9684484108e-04 1.7519605076e+00 -3.0344846120e+00 1.7519605076e+00 3.0344846120e+00 
71100 6.5600100541e+00 3.9412784032e-04 1.7519491818e+00 -3.0344649952e+00 1.7519491818e+00 3.0344649952e+00 
71200 6.5600099205e+00 3.9141738259e-04 1.7519379336e+00 -3.0344455127e+00 1.7519379336e+00 3.0344455127e+00 
71300 6.5600097883e+00 3.8871470620e-04 1.7519267626e+00 -3.0344261640e+00 1.7519267626e+00 3.0344261640e+00 
71400 6.5600096576e+00 3.8602102135e-04 1.7519156687e+00 -3.0344069488e+00 1.7519156687e+00 3.0344069488e+00 
71500 6.5600095284e+00 3.8333750842e-04 1.7519046516e+00 -3.0343878666e+00 1.7519046516e+00 3.0343878666e+00 
71600 6.5600094006e+00 3.8066531636e-04 1.7518937110e+00 -3.0343689170e+00 1.7518937110e+00 3.0343689170e+00 
71700 6.5600092743e+00 3.7800556119e-04 1.7518828466e+00 -3.0343500993e+00 1.7518828466e+00 3.0343500993e+00 
71800 6.5600091493e+00 3.7535932464e-04 1.7518720581e+00 -3.0343314130e+00 1.7518720581e+00 3.0343314130e+00 
71900 6.5600090258e+00 3.7272765284e-04 1.7518613450e+00 -3.0343128574e+00 1.7518613450e+00 3.0343128574e+00 
72000 6.5600089036e+00 3.7011155513e-04 1.7518507070e+00 -3.0342944318e+00 1.7518507070e+00 3.0342944318e+00 
72100 6.5600087828e+00 3.6751200302e-04 1.7518401435e+00 -3.0342761354e+00 1.7518401435e+00 3.0342761354e+00 
72200 6.5600086633e+00 3.6492992923e-04 1.7518296542e+00 -3.0342579674e+00 1.7518296542e+00 3.0342579674e+00 
72300 6.5600085452e+00 3.6236622677e-04 1.7518192386e+00 -3.0342399269e+00 1.7518192386e+00 3.0342399269e+00 
72400 6.5600084283e+00 3.5982174822e-04 1.7518088960e+00 -3.0342220131e+00 1.7518088960e+00 3.0342220131e+00 
72500 6.5600083128e+00 3.5729730507e-04 1.7517986260e+00 -3.0342042249e+00 1.7517986260e+00 3.0342042249e+00 
72600 6.5600081986e+00 3.5479366714e-04 1.7517884280e+00 -3.0341865614e+00 1.7517884280e+00 3.0341865614e+00 
72700 6.5600080856e+00 3.5231156210e-04 1.7517783014e+00 -3.0341690216e+00 1.7517783014e+00 3.0341690216e+00 
72800 6.5600079739e+00 3.4985167517e-04 1.7517682456e+00 -3.0341516045e+00 1.7517682456e+00 3.0341516045e+00 
72900 6.5600078634e+00 3.4741464875e-04 1.7517582599e+00 -3.0341343088e+00 1.7517582599e+00 3.0341343088e+00 
73000 6.5600077542e+00 3.4500108229e-04 1.7517483438e+00 -3.0341171335e+00 1.7517483438e+00 3.0341171335e+00 
73100 6.5600076462e+00 3.4261153222e-04 1.7517384964e+00 -3.0341000774e+00 1.7517384964e+00 3.0341000774e+00 
73200 6.5600075394e+00 3.4024651186e-04 1.7517287173e+00 -3.0340831394e+00 1.7517287173e+00 3.0340831394e+00 
73300 6.5600074337e+00 3.3790649160e-04 1.7517190055e+00 -3.0340663182e+00 1.7517190055e+00 3.0340663182e+00 
73400 6.5600073293e+00 3.3559189897e-04 1.7517093606e+00 -3.0340496126e+00 1.7517093606e+00 3.0340496126e+00 
73500 6.5600072260e+00 3.3330311893e-04 1.7516997816e+00 -3.0340330213e+00 1.7516997816e+00 3.0340330213e+00 
73600 6.5600071238e+00 3.3104049419e-04 1.7516902679e+00 -3.0340165431e+00 1.7516902679e+00 3.0340165431e+00 
73700 6.5600070228e+00 3.2880432558e-04 1.7516808187e+00 -3.0340001767e+00 1.7516808187e+00 3.0340001767e+00 
73800 6.5600069229e+00 3.2659487251e-04 1.7516714333e+00 -3.0339839207e+00 1.7516714333e+00 3.0339839207e+00 
73900 6.5600068242e+00 3.2441235354e-04 1.7516621110e+00 -3.0339677739e+00 1.7516621110e+00 3.0339677739e+00 
74000 6.5600067265e+00 3.2225694692e-04 1.7516528508e+00 -3.0339517349e+00 1.7516528508e+00 3.0339517349e+00 
74100 6.5600066299e+00 3.2012879130e-04 1.7516436522e+00 -3.0339358024e+00 1.7516436522e+00 3.0339358024e+00 
74200 6.5600065344e+00 3.1802798644e-04 1.7516345143e+00 -3.0339199750e+00 1.7516345143e+00 3.0339199750e+00 
74300 6.5600064399e+00 3.1595459396e-04 1.7516254362e+00 -3.0339042514e+00 1.7516254362e+00 3.0339042514e+00 
74400 6.5600063465e+00 3.1390863819e-04 1.7516164173e+00 -3.0338886302e+00 1.7516164173e+00 3.0338886302e+00 
74500 6.5600062542e+00 3.1189010706e-04 1.7516074568e+00 -3.0338731101e+00 1.7516074568e+00 3.0338731101e+00 
74600 6.5600061628e+00 3.0989895302e-04 1.7515985538e+00 -3.0338576897e+00 1.7515985538e+00 3.0338576897e+00 
74700 6.5600060725e+00 3.0793509400e-04 1.7515897077e+00 -3.0338423677e+00 1.7515897077e+00 3.0338423677e+00 
74800 6.5600059832e+00 3.0599841443e-04 1.7515809175e+00 -3.0338271427e+00 1.7515809175e+00 3.0338271427e+00 
74900 6.5600058949e+00 3.0408876632e-04 1.7515721826e+00 -3.0338120134e+00 1.7515721826e+00 3.0338120134e+00 
75000 6.5600058075e+00 3.0220597029e-04 1.7515635022e+00 -3.0337969784e+00 1.7515635022e+00 3.0337969784e+00 
75100 6.5600057212e+00 3.0034981675e-04 1.7515548754e+00 -3.0337820365e+00 1.7515548754e+00 3.0337820365e+00 
75200 6.5600056358e+00 2.9852006700e-04 1.7515463016e+00 -3.0337671862e+00 1.7515463016e+00 3.0337671862e+00 
75300 6.5600055513e+00 2.9671645443e-04 1.7515377800e+00 -3.0337524264e+00 1.7515377800e+00 3.0337524264e+00 
75400 6.5600054678e+00 2.9493868570e-04 1.7515293098e+00 -3.0337377556e+00 1.7515293098e+00 3.0337377556e+00 
75500 6.5600053853e+00 2.9318644196e-04 1.7515208904e+00 -3.0337231727e+00 1.7515208904e+00 3.0337231727e+00 
75600 6.5600053036e+00 2.9145938010e-04 1.7515125209e+00 -3.0337086763e+00 1.7515125209e+00 3.0337086763e+00 
75700 6.5600052229e+00 2.8975713395e-04 1.7515042007e+00 -3.0336942653e+00 1.7515042007e+00 3.0336942653e+00 
75800 6.5600051430e+00 2.8807931560e-04 1.7514959290e+00 -3.0336799384e+00 1.7514959290e+00 3.0336799384e+00 
75900 6.5600050641e+00 2.8642551663e-04 1.7514877052e+00 -3.0336656943e+00 1.7514877052e+00 3.0336656943e+00 
76000 6.5600049860e+00 2.8479530936e-04 1.7514795286e+00 -3.0336515320e+00 1.7514795286e+00 3.0336515320e+00 
76100 6.5600049088e+00 2.8318824817e-04 1.7514713985e+00 -3.0336374502e+00 1.7514713985e+00 3.0336374502e+00 
76200 6.5600048325e+00 2.8160387076e-04 1.7514633142e+00 -3.0336234478e+00 1.7514633142e+00 3.0336234478e+00 
76300 6.5600047570e+00 2.8004169941e-04 1.7514552751e+00 -3.0336095237e+00 1.7514552751e+00 3.0336095237e+00 
76400 6.5600046823e+00 2.7850124226e-04 1.7514472806e+00 -3.0335956767e+00 1.7514472806e+00 3.0335956767e+00 
76500 6.5600046085e+00 2.7698199455e-04 1.7514393300e+00 -3.0335819059e+00 1.7514393300e+00 3.0335819059e+00 
76600 6.5600045355e+00 2.7548343993e-04 1.7514314227e+00 -3.0335682101e+00 1.7514314227e+00 3.0335682101e+00 
76700 6.5600044634e+00 2.7400505163e-04 1.7514235582e+00 -3.0335545884e+00 1.7514235582e+00 3.0335545884e+00 
76800 6.5600043920e+00 2.7254629375e-04 1.7514157358e+00 -3.0335410397e+00 1.7514157358e+00 3.0335410397e+00 
76900 6.5600043214e+00 2.7110662241e-04 1.7514079551e+00 -3.0335275630e+00 1.7514079551e+00 3.0335275630e+00 
77000 6.5600042517e+00 2.6968548702e-04 1.7514002154e+00 -3.0335141575e+00 1.7514002154e+00 3.0335141575e+00 
77100 6.5600041827e+00 2.6828233139e-04 1.7513925163e+00 -3.0335008222e+00 1.7513925163e+00 3.0335008222e+00 
77200 6.5600041144e+00 2.6689659491e-04 1.7513848572e+00 -3.0334875563e+00 1.7513848572e+00 3.0334875563e+00 
77300 6.5600040470e+00 2.6552771370e-04 1.7513772376e+00 -3.0334743588e+00 1.7513772376e+00 3.0334743588e+00 
77400 6.5600039803e+00 2.6417512170e-04 1.7513696571e+00 -3.0334612289e+00 1.7513696571e+00 3.0334612289e+00 
77500 6.5600039143e+00 2.6283825175e-04 1.7513621151e+00 -3.0334481658e+00 1.7513621151e+00 3.0334481658e+00 
77600 6.5600038491e+00 2.6151653666e-04 1.7513546113e+00 -3.0334351688e+00 1.7513546113e+00 3.0334351688e+00 
77700 6.5600037846e+00 2.6020941021e-04 1.7513471452e+00 -3.0334222372e+00 1.7513471452e+00 3.0334222372e+00 
77800 6.5600037208e+00 2.5891630818e-04 1.7513397164e+00 -3.0334093700e+00 1.7513397164e+00 3.0334093700e+00 
77900 6.5600036577e+00 2.5763666931e-04 1.7513323244e+00 -3.0333965668e+00 1.7513323244e+00 3.0333965668e+00 
78000 6.5600035953e+00 2.5636993621e-04 1.7513249690e+00 -3.0333838268e+00 1.7513249690e+00 3.0333838268e+00 
78100 6.5600035337e+00 2.5511555628e-04 1.7513176497e+00 -3.0333711494e+00 1.7513176497e+00 3.0333711494e+00 
78200 6.5600034727e+00 2.5387298260e-04 1.7513103661e+00 -3.0333585340e+00 1.7513103661e+00 3.0333585340e+00 
78300 6.5600034124e+00 2.5264167472e-04 1.7513031181e+00 -3.0333459799e+00 1.7513031181e+00 3.0333459799e+00 
78400 6.5600033528e+00 2.5142109948e-04 1.7512959051e+00 -3.0333334867e+00 1.7512959051e+00 3.0333334867e+00 
78500 6.5600032938e+00 2.5021073178e-04 1.7512887270e+00 -3.0333210538e+00 1.7512887270e+00 3.0333210538e+00 
78600 6.5600032355e+00 2.4901005531e-04 1.7512815833e+00 -3.0333086807e+00 1.7512815833e+00 3.0333086807e+00 
78700 6.5600031779e+00 2.4781856320e-04 1.7512744740e+00 -3.0332963669e+00 1.7512744740e+00 3.0332963669e+00 
78800 6.5600031209e+00 2.4663575874e-04 1.7512673986e+00 -3.0332841120e+00 1.7512673986e+00 3.0332841120e+00 
78900 6.5600030645e+00 2.4546115594e-04 1.7512603570e+00 -3.0332719156e+00 1.7512603570e+00 3.0332719156e+00 
79000 6.5600030088e+00 2.4429428012e-04 1.7512533489e+00 -3.0332597771e+00 1.7512533489e+00 3.0332597771e+00 
79100 6.5600029537e+00 2.4313466847e-04 1.7512463740e+00 -3.0332476964e+00 1.7512463740e+00 3.0332476964e+00 
79200 6.5600028992e+00 2.4198187055e-04 1.7512394323e+00 -3.0332356729e+00 1.7512394323e+00 3.0332356729e+00 
79300 6.5600028453e+00 2.4083544874e-04 1.7512325234e+00 -3.0332237064e+00 1.7512325234e+00 3.0332237064e+00 
79400 6.5600027920e+00 2.3969497867e-04 1.7512256472e+00 -3.0332117965e+00 1.7512256472e+00 3.0332117965e+00 
79500 6.5600027393e+00 2.3856004964e-04 1.7512188036e+00 -3.0331999430e+00 1.7512188036e+00 3.0331999430e+00 
79600 6.5600026872e+00 2.3743026492e-04 1.7512119923e+00 -3.0331881456e+00 1.7512119923e+00 3.0331881456e+00 
79700 6.5600026356e+00 2.3630524212e-04 1.7512052133e+00 -3.0331764039e+00 1.7512052133e+00 3.0331764039e+00 
79800 6.5600025847e+00 2.3518461347e-04 1.7511984664e+00 -3.0331647179e+00 1.7511984664e+00 3.0331647179e+00 
79900 6.5600025343e+00 2.3406802602e-04 1.7511917514e+00 -3.0331530873e+00 1.7511917514e+00 3.0331530873e+00 
80000 6.5600024845e+00 2.3295514189e-04 1.7511850683e+00 -3.0331415118e+00 1.7511850683e+00 3.0331415118e+00 
80100 6.5600024352e+00 2.3184563844e-04 1.7511784170e+00 -3.0331299913e+00 1.7511784170e+00 3.0331299913e+00 
80200 6.5600023865e+00 2.3073920839e-04 1.7511717973e+00 -3.0331185257e+00 1.7511717973e+00 3.0331185257e+00 
80300 6.5600023383e+00 2.2963555996e-04 1.7511652091e+00 -3.0331071147e+00 1.7511652091e+00 3.0331071147e+00 
80400 6.5600022907e+00 2.2853441693e-04 1.7511586525e+00 -3.0330957582e+00 1.7511586525e+00 3.0330957582e+00 
80500 6.5600022436e+00 2.2743551867e-04 1.7511521273e+00 -3.0330844562e+00 1.7511521273e+00 3.0330844562e+00 
80600 6.5600021970e+00 2.2633862017e-04 1.7511456334e+00 -3.0330732085e+00 1.7511456334e+00 3.0330732085e+00 
80700 6.5600021510e+00 2.2524349203e-04 1.7511391708e+00 -3.0330620150e+00 1.7511391708e+00 3.0330620150e+00 
80800 6.5600021054e+00 2.2414992040e-04 1.7511327395e+00 -3.0330508756e+00 1.7511327395e+00 3.0330508756e+00 
80900 6.5600020604e+00 2.2305770687e-04 1.7511263393e+00 -3.0330397902e+00 1.7511263393e+00 3.0330397902e+00 
81000 6.5600020158e+00 2.2196666844e-04 1.7511199704e+00 -3.0330287588e+00 1.7511199704e+00 3.0330287588e+00 
81100 6.5600019718e+00 2.2087663733e-04 1.7511136325e+00 -3.0330177813e+00 1.7511136325e+00 3.0330177813e+00 
81200 6.5600019282e+00 2.1978746084e-04 1.7511073258e+00 -3.0330068577e+00 1.7511073258e+00 3.0330068577e+00 
81300 6.5600018852e+00 2.1869900118e-04 1.7511010501e+00 -3.0329959880e+00 1.7511010501e+00 3.0329959880e+00 
81400 6.5600018426e+00 2.1761113525e-04 1.7510948055e+00 -3.0329851720e+00 1.7510948055e+00 3.0329851720e+00 
81500 6.5600018005e+00 2.1652375442e-04 1.7510885919e+00 -3.0329744098e+00 1.7510885919e+00 3.0329744098e+00 
81600 6.5600017589e+00 2.1543676427e-04 1.7510824094e+00 -3.0329637013e+00 1.7510824094e+00 3.0329637013e+00 
81700 6.5600017177e+00 2.1435008435e-04 1.7510762579e+00 -3.0329530465e+00 1.7510762579e+00 3.0329530465e+00 
81800 6.5600016770e+00 2.1326364784e-04 1.7510701373e+00 -3.0329424455e+00 1.7510701373e+00 3.0329424455e+00 
81900 6.5600016367e+00 2.1217740132e-04 1.7510640478e+00 -3.0329318981e+00 1.7510640478e+00 3.0329318981e+00 
82000 6.5600015969e+00 2.1109130434e-04 1.7510579893e+00 -3.0329214044e+00 1.7510579893e+00 3.0329214044e+00 
82100 6.5600015575e+00 2.1000532917e-04 1.7510519618e+00 -3.0329109645e+00 1.7510519618e+00 3.0329109645e+00 
82200 6.5600015186e+00 2.0891946043e-04 1.7510459652e+00 -3.0329005781e+00 1.7510459652e+00 3.0329005781e+00 
82300 6.5600014801e+00 2.0783369465e-04 1.7510399997e+00 -3.0328902455e+00 1.7510399997e+00 3.0328902455e+00 
82400 6.5600014420e+00 2.0674803997e-04 1.7510340651e+00 -3.0328799665e+00 1.7510340651e+00 3.0328799665e+00 
82500 6.5600014044e+00 2.0566251572e-04 1.7510281615e+00 -3.0328697412e+00 1.7510281615e+00 3.0328697412e+00 
82600 6.5600013672e+00 2.0457715200e-04 1.7510222889e+00 -3.0328595695e+00 1.7510222889e+00 3.0328595695e+00 
82700 6.5600013304e+00 2.0349198927e-04 1.7510164472e+00 -3.0328494515e+00 1.7510164472e+00 3.0328494515e+00 
82800 6.5600012940e+00 2.0240707792e-04 1.7510106365e+00 -3.0328393871e+00 1.7510106365e+00 3.0328393871e+00 
82900 6.5600012580e+00 2.0132247789e-04 1.7510048568e+00 -3.0328293763e+00 1.7510048568e+00 3.0328293763e+00 
83000 6.5600012224e+00 2.0023825814e-04 1.7509991081e+00 -3.0328194192e+00 1.7509991081e+00 3.0328194192e+00 
83100 6.5600011872e+00 1.9915449631e-04 1.7509933902e+00 -3.0328095156e+00 1.7509933902e+00 3.0328095156e+00 
83200 6.5600011524e+00 1.9807127819e-04 1.7509877033e+00 -3.0327996656e+00 1.7509877033e+00 3.0327996656e+00 
83300 6.5600011180e+00 1.9698869733e-04 1.7509820473e+00 -3.0327898691e+00 1.7509820473e+00 3.0327898691e+00 
83400 6.5600010840e+00 1.9590685453e-04 1.7509764223e+00 -3.0327801262e+00 1.7509764223e+00 3.0327801262e+00 
83500 6.5600010504e+00 1.9482585745e-04 1.7509708280e+00 -3.0327704367e+00 1.7509708280e+00 3.0327704367e+00 
83600 6.5600010171e+00 1.9374582010e-04 1.7509652647e+00 -3.0327608007e+00 1.7509652647e+00 3.0327608007e+00 
83700 6.5600009842e+00 1.9266686241e-04 1.7509597321e+00 -3.0327512181e+00 1.7509597321e+00 3.0327512181e+00 
83800 6.5600009517e+00 1.9158910979e-04 1.7509542304e+00 -3.0327416888e+00 1.7509542304e+00 3.0327416888e+00 
83900 6.5600009195e+00 1.9051269264e-04 1.7509487594e+00 -3.0327322127e+00 1.7509487594e+00 3.0327322127e+00 
84000 6.5600008877e+00 1.8943774596e-04 1.7509433191e+00 -3.0327227899e+00 1.7509433191e+00 3.0327227899e+00 
84100 6.5600008562e+00 1.8836440883e-04 1.7509379095e+00 -3.0327134202e+00 1.7509379095e+00 3.0327134202e+00 
84200 6.5600008251e+00 1.8729282405e-04 1.7509325306e+00 -3.0327041036e+00 1.7509325306e+00 3.0327041036e+00 
84300 6.5600007944e+00 1.8622313762e-04 1.7509271822e+00 -3.0326948400e+00 1.7509271822e+00 3.0326948400e+00 
84400 6.5600007640e+00 1.8515549841e-04 1.7509218644e+00 -3.0326856292e+00 1.7509218644e+00 3.0326856292e+00 
84500 6.5600007339e+00 1.8409005764e-04 1.7509165770e+00 -3.0326764712e+00 1.7509165770e+00 3.0326764712e+00 
84600 6.5600007042e+00 1.8302696854e-04 1.7509113201e+00 -3.0326673659e+00 1.7509113201e+00 3.0326673659e+00 
84700 6.5600006748e+00 1.8196638590e-04 1.7509060934e+00 -3.0326583131e+00 1.7509060934e+00 3.0326583131e+00 
84800 6.5600006457e+00 1.8090846566e-04 1.7509008971e+00 -3.0326493128e+00 1.7509008971e+00 3.0326493128e+00 
84900 6.5600006169e+00 1.7985336458e-04 1.7508957309e+00 -3.0326403647e+00 1.7508957309e+00 3.0326403647e+00 
85000 6.5600005885e+00 1.7880123980e-04 1.7508905949e+00 -3.0326314689e+00 1.7508905949e+00 3.0326314689e+00 
85100 6.5600005604e+00 1.7775224849e-04 1.7508854889e+00 -3.0326226250e+00 1.7508854889e+00 3.0326226250e+00 
85200 6.5600005326e+00 1.7670654750e-04 1.7508804128e+00 -3.0326138330e+00 1.7508804128e+00 3.0326138330e+00 
85300 6.5600005051e+00 1.7566429298e-04 1.7508753666e+00 -3.0326050927e+00 1.7508753666e+00 3.0326050927e+00 
85400 6.5600004780e+00 1.7462564007e-04 1.7508703501e+00 -3.0325964039e+00 1.7508703501e+00 3.0325964039e+00 
85500 6.5600004511e+00 1.7359074258e-04 1.7508653633e+00 -3.0325877665e+00 1.7508653633e+00 3.0325877665e+00 
85600 6.5600004245e+00 1.7255975263e-04 1.7508604060e+00 -3.0325791802e+00 1.7508604060e+00 3.0325791802e+00 
85700 6.5600003982e+00 1.7153282040e-04 1.7508554782e+00 -3.0325706449e+00 1.7508554782e+00 3.0325706449e+00 
85800 6.5600003722e+00 1.7051009380e-04 1.7508505796e+00 -3.0325621604e+00 1.7508505796e+00 3.0325621604e+00 
85900 6.5600003465e+00 1.6949171820e-04 1.7508457103e+00 -3.0325537265e+00 1.7508457103e+00 3.0325537265e+00 
86000 6.5600003211e+00 1.6847783619e-04 1.7508408700e+00 -3.0325453428e+00 1.7508408700e+00 3.0325453428e+00 
86100 6.5600002960e+00 1.6746858728e-04 1.7508360587e+00 -3.0325370094e+00 1.7508360587e+00 3.0325370094e+00 
86200 6.5600002712e+00 1.6646410772e-04 1.7508312762e+00 -3.0325287258e+00 1.7508312762e+00 3.0325287258e+00 
86300 6.5600002466e+00 1.6546453021e-04 1.7508265223e+00 -3.0325204919e+00 1.7508265223e+00 3.0325204919e+00 
86400 6.5600002223e+00 1.6446998375e-04 1.7508217970e+00 -3.0325123074e+00 1.7508217970e+00 3.0325123074e+00 
86500 6.5600001983e+00 1.6348059338e-04 1.7508171000e+00 -3.0325041720e+00 1.7508171000e+00 3.0325041720e+00 
86600 6.5600001746e+00 1.6249648003e-04 1.7508124313e+00 -3.0324960856e+00 1.7508124313e+00 3.0324960856e+00 
86700 6.5600001511e+00 1.6151776036e-04 1.7508077907e+00 -3.0324880479e+00 1.7508077907e+00 3.0324880479e+00 
86800 6.5600001278e+00 1.6054454655e-04 1.7508031781e+00 -3.0324800585e+00 1.7508031781e+00 3.0324800585e+00 
86900 6.5600001049e+00 1.5957694621e-04 1.7507985932e+00 -3.0324721172e+00 1.7507985932e+00 3.0324721172e+00 
87000 6.5600000822e+00 1.5861506220e-04 1.7507940359e+00 -3.0324642238e+00 1.7507940359e+00 3.0324642238e+00 
87100 6.5600000597e+00 1.5765899253e-04 1.7507895061e+00 -3.0324563780e+00 1.7507895061e+00 3.0324563780e+00 
87200 6.5600000375e+00 1.5670883028e-04 1.7507850036e+00 -3.0324485794e+00 1.7507850036e+00 3.0324485794e+00 
87300 6.5600000156e+00 1.5576466343e-04 1.7507805282e+00 -3.0324408278e+00 1.7507805282e+00 3.0324408278e+00 
87400 6.5599999939e+00 1.5482657488e-04 1.7507760798e+00 -3.0324331229e+00 1.7507760798e+00 3.0324331229e+00 
87500 6.5599999724e+00 1.5389464228e-04 1.7507716582e+00 -3.0324254644e+00 1.7507716582e+00 3.0324254644e+00 
87600 6.5599999512e+00 1.5296893805e-04 1.7507672631e+00 -3.0324178519e+00 1.7507672631e+00 3.0324178519e+00 
87700 6.5599999302e+00 1.5204952929e-04 1.7507628945e+00 -3.0324102853e+00 1.7507628945e+00 3.0324102853e+00 
87800 6.5599999094e+00 1.5113647776e-04 1.7507585521e+00 -3.0324027640e+00 1.7507585521e+00 3.0324027640e+00 
87900 6.5599998889e+00 1.5022983988e-04 1.7507542358e+00 -3.0323952880e+00 1.7507542358e+00 3.0323952880e+00 
88000 6.5599998686e+00 1.4932966666e-04 1.7507499454e+00 -3.0323878567e+00 1.7507499454e+00 3.0323878567e+00 
88100 6.5599998485e+00 1.4843600377e-04 1.7507456806e+00 -3.0323804700e+00 1.7507456806e+00 3.0323804700e+00 
88200 6.5599998287e+00 1.4754889151e-04 1.7507414414e+00 -3.0323731274e+00 1.7507414414e+00 3.0323731274e+00 
88300 6.5599998091e+00 1.4666836485e-04 1.7507372275e+00 -3.0323658288e+00 1.7507372275e+00 3.0323658288e+00 
88400 6.5599997897e+00 1.4579445342e-04 1.7507330388e+00 -3.0323585736e+00 1.7507330388e+00 3.0323585736e+00 
88500 6.5599997705e+00 1.4492718163e-04 1.7507288749e+00 -3.0323513617e+00 1.7507288749e+00 3.0323513617e+00 
88600 6.5599997515e+00 1.4406656863e-04 1.7507247359e+00 -3.0323441926e+00 1.7507247359e+00 3.0323441926e+00 
88700 6.5599997327e+00 1.4321262844e-04 1.7507206214e+00 -3.0323370661e+00 1.7507206214e+00 3.0323370661e+00 
88800 6.5599997142e+00 1.4236536998e-04 1.7507165313e+00 -3.0323299819e+00 1.7507165313e+00 3.0323299819e+00 
88900 6.5599996958e+00 1.4152479716e-04 1.7507124654e+00 -3.0323229395e+00 1.7507124654e+00 3.0323229395e+00 
89000 6.5599996777e+00 1.4069090896e-04 1.7507084235e+00 -3.0323159387e+00 1.7507084235e+00 3.0323159387e+00 
89100 6.5599996598e+00 1.3986369952e-04 1.7507044054e+00 -3.0323089791e+00 1.7507044054e+00 3.0323089791e+00 
89200 6.5599996420e+00 1.3904315824e-04 1.7507004109e+00 -3.0323020605e+00 1.7507004109e+00 3.0323020605e+00 
89300 6.5599996245e+00 1.3822926989e-04 1.7506964398e+00 -3.0322951824e+00 1.7506964398e+00 3.0322951824e+00 
89400 6.5599996071e+00 1.3742201472e-04 1.7506924920e+00 -3.0322883445e+00 1.7506924920e+00 3.0322883445e+00 
89500 6.5599995900e+00 1.3662136856e-04 1.7506885672e+00 -3.0322815466e+00 1.7506885672e+00 3.0322815466e+00 
89600 6.5599995730e+00 1.3582730298e-04 1.7506846652e+00 -3.0322747882e+00 1.7506846652e+00 3.0322747882e+00 
89700 6.5599995563e+00 1.3503978537e-04 1.7506807860e+00 -3.0322680692e+00 1.7506807860e+00 3.0322680692e+00 
89800 6.5599995397e+00 1.3425877914e-04 1.7506769292e+00 -3.0322613890e+00 1.7506769292e+00 3.0322613890e+00 
89900 6.5599995233e+00 1.3348424377e-04 1.7506730947e+00 -3.0322547475e+00 1.7506730947e+00 3.0322547475e+00 
90000 6.5599995071e+00 1.3271613504e-04 1.7506692824e+00 -3.0322481443e+00 1.7506692824e+00 3.0322481443e+00 
90100 6.5599994911e+00 1.3195440511e-04 1.7506654919e+00 -3.0322415791e+00 1.7506654919e+00 3.0322415791e+00 
90200 6.5599994752e+00 1.3119900269e-04 1.7506617232e+00 -3.0322350515e+00 1.7506617232e+00 3.0322350515e+00 
90300 6.5599994595e+00 1.3044987320e-04 1.7506579761e+00 -3.0322285613e+00 1.7506579761e+00 3.0322285613e+00 
90400 6.5599994440e+00 1.2970695894e-04 1.7506542504e+00 -3.0322221081e+00 1.7506542504e+00 3.0322221081e+00 
90500 6.5599994287e+00 1.2897019917e-04 1.7506505458e+00 -3.0322156917e+00 1.7506505458e+00 3.0322156917e+00 
90600 6.5599994136e+00 1.2823953037e-04 1.7506468623e+00 -3.0322093117e+00 1.7506468623e+00 3.0322093117e+00 
90700 6.5599993986e+00 1.2751488633e-04 1.7506431997e+00 -3.0322029678e+00 1.7506431997e+00 3.0322029678e+00 
90800 6.5599993837e+00 1.2679619831e-04 1.7506395578e+00 -3.0321966598e+00 1.7506395578e+00 3.0321966598e+00 
90900 6.5599993691e+00 1.2608339526e-04 1.7506359363e+00 -3.0321903873e+00 1.7506359363e+00 3.0321903873e+00 
91000 6.5599993546e+00 1.2537640391e-04 1.7506323353e+00 -3.0321841501e+00 1.7506323353e+00 3.0321841501e+00 
91100 6.5599993403e+00 1.2467514897e-04 1.7506287544e+00 -3.0321779478e+00 1.7506287544e+00 3.0321779478e+00 
91200 6.5599993261e+00 1.2397955329e-04 1.7506251935e+00 -3.0321717802e+00 1.7506251935e+00 3.0321717802e+00 
91300 6.5599993121e+00 1.2328953799e-04 1.7506216525e+00 -3.0321656470e+00 1.7506216525e+00 3.0321656470e+00 
91400 6.5599992983e+00 1.2260502266e-04 1.7506181312e+00 -3.0321595479e+00 1.7506181312e+00 3.0321595479e+00 
91500 6.5599992846e+00 1.2192592552e-04 1.7506146294e+00 -3.0321534827e+00 1.7506146294e+00 3.0321534827e+00 
91600 6.5599992710e+00 1.2125216351e-04 1.7506111471e+00 -3.0321474510e+00 1.7506111471e+00 3.0321474510e+00 
91700 6.5599992576e+00 1.2058365253e-04 1.7506076839e+00 -3.0321414527e+00 1.7506076839e+00 3.0321414527e+00 
91800 6.5599992444e+00 1.1992030754e-04 1.7506042399e+00 -3.0321354874e+00 1.7506042399e+00 3.0321354874e+00 
91900 6.5599992313e+00 1.1926204273e-04 1.7506008148e+00 -3.0321295550e+00 1.7506008148e+00 3.0321295550e+00 
92000 6.5599992183e+00 1.1860877167e-04 1.7505974085e+00 -3.0321236550e+00 1.7505974085e+00 3.0321236550e+00 
92100 6.5599992055e+00 1.1796040745e-04 1.7505940208e+00 -3.0321177874e+00 1.7505940208e+00 3.0321177874e+00 
92200 6.5599991929e+00 1.1731686281e-04 1.7505906516e+00 -3.0321119519e+00 1.7505906516e+00 3.0321119519e+00 
92300 6.5599991804e+00 1.1667805030e-04 1.7505873009e+00 -3.0321061482e+00 1.7505873009e+00 3.0321061482e+00 
92400 6.5599991680e+00 1.1604388244e-04 1.7505839683e+00 -3.0321003760e+00 1.7505839683e+00 3.0321003760e+00 
92500 6.5599991557e+00 1.1541427177e-04 1.7505806539e+00 -3.0320946353e+00 1.7505806539e+00 3.0320946353e+00 
92600 6.5599991436e+00 1.1478913109e-04 1.7505773574e+00 -3.0320889257e+00 1.7505773574e+00 3.0320889257e+00 
92700 6.5599991317e+00 1.1416837349e-04 1.7505740788e+00 -3.0320832469e+00 1.7505740788e+00 3.0320832469e+00 
92800 6.5599991198e+00 1.1355191254e-04 1.7505708179e+00 -3.0320775989e+00 1.7505708179e+00 3.0320775989e+00 
92900 6.5599991081e+00 1.1293966235e-04 1.7505675747e+00 -3.0320719814e+00 1.7505675747e+00 3.0320719814e+00 
93000 6.5599990966e+00 1.1233153775e-04 1.7505643489e+00 -3.0320663941e+00 1.7505643489e+00 3.0320663941e+00 
93100 6.5599990851e+00 1.1172745434e-04 1.7505611404e+00 -3.0320608370e+00 1.7505611404e+00 3.0320608370e+00 
93200 6.5599990738e+00 1.1112732862e-04 1.7505579492e+00 -3.0320553097e+00 1.7505579492e+00 3.0320553097e+00 
93300 6.5599990626e+00 1.1053107810e-04 1.7505547752e+00 -3.0320498120e+00 1.7505547752e+00 3.0320498120e+00 
93400 6.5599990515e+00 1.0993862139e-04 1.7505516182e+00 -3.0320443439e+00 1.7505516182e+00 3.0320443439e+00 
93500 6.5599990406e+00 1.0934987828e-04 1.7505484780e+00 -3.0320389051e+00 1.7505484780e+00 3.0320389051e+00 
93600 6.5599990298e+00 1.0876476984e-04 1.7505453547e+00 -3.0320334954e+00 1.7505453547e+00 3.0320334954e+00 
93700 6.5599990191e+00 1.0818321850e-04 1.7505422481e+00 -3.0320281146e+00 1.7505422481e+00 3.0320281146e+00 
93800 6.5599990085e+00 1.0760514813e-04 1.7505391582e+00 -3.0320227626e+00 1.7505391582e+00 3.0320227626e+00 
93900 6.5599989981e+00 1.0703048409e-04 1.7505360847e+00 -3.0320174391e+00 1.7505360847e+00 3.0320174391e+00 
94000 6.5599989877e+00 1.0645915334e-04 1.7505330276e+00 -3.0320121441e+00 1.7505330276e+00 3.0320121441e+00 
94100 6.5599989775e+00 1.0589108449e-04 1.7505299868e+00 -3.0320068774e+00 1.7505299868e+00 3.0320068774e+00 
94200 6.5599989674e+00 1.0532620783e-04 1.7505269623e+00 -3.0320016387e+00 1.7505269623e+00 3.0320016387e+00 
94300 6.5599989574e+00 1.0476445541e-04 1.7505239539e+00 -3.0319964280e+00 1.7505239539e+00 3.0319964280e+00 
94400 6.5599989475e+00 1.0420576109e-04 1.7505209615e+00 -3.0319912450e+00 1.7505209615e+00 3.0319912450e+00 
94500 6.5599989377e+00 1.0365006059e-04 1.7505179851e+00 -3.0319860897e+00 1.7505179851e+00 3.0319860897e+00 
94600 6.5599989281e+00 1.0309729149e-04 1.7505150245e+00 -3.0319809619e+00 1.7505150245e+00 3.0319809619e+00 
94700 6.5599989185e+00 1.0254739333e-04 1.7505120798e+00 -3.0319758614e+00 1.7505120798e+00 3.0319758614e+00 
94800 6.5599989090e+00 1.0200030760e-04 1.7505091507e+00 -3.0319707881e+00 1.7505091507e+00 3.0319707881e+00 
94900 6.5599988997e+00 1.0145597775e-04 1.7505062372e+00 -3.0319657419e+00 1.7505062372e+00 3.0319657419e+00 
95000 6.5599988905e+00 1.0091434927e-04 1.7505033393e+00 -3.0319607226e+00 1.7505033393e+00 3.0319607226e+00 
95100 6.5599988813e+00 1.0037536965e-04 1.7505004569e+00 -3.0319557300e+00 1.7505004569e+00 3.0319557300e+00 
95200 6.5599988723e+00 9.9838988427e-05 1.7504975899e+00 -3.0319507642e+00 1.7504975899e+00 3.0319507642e+00 
95300 6.5599988633e+00 9.9305157189e-05 1.7504947381e+00 -3.0319458248e+00 1.7504947381e+00 3.0319458248e+00 
95400 6.5599988545e+00 9.8773829572e-05 1.7504919016e+00 -3.0319409119e+00 1.7504919016e+00 3.0319409119e+00 
95500 6.5599988458e+00 9.8244961274e-05 1.7504890803e+00 -3.0319360252e+00 1.7504890803e+00 3.0319360252e+00 
95600 6.5599988371e+00 9.7718510038e-05 1.7504862741e+00 -3.0319311647e+00 1.7504862741e+00 3.0319311647e+00 
95700 6.5599988286e+00 9.7194435662e-05 1.7504834829e+00 -3.0319263302e+00 1.7504834829e+00 3.0319263302e+00 
95800 6.5599988201e+00 9.6672699975e-05 1.7504807067e+00 -3.0319215217e+00 1.7504807067e+00 3.0319215217e+00 
95900 6.5599988118e+00 9.6153266839e-05 1.7504779454e+00 -3.0319167389e+00 1.7504779454e+00 3.0319167389e+00 
96000 6.5599988035e+00 9.5636102113e-05 1.7504751989e+00 -3.0319119819e+00 1.7504751989e+00 3.0319119819e+00 
96100 6.5599987954e+00 9.5121173652e-05 1.7504724672e+00 -3.0319072504e+00 1.7504724672e+00 3.0319072504e+00 
96200 6.5599987873e+00 9.4608451277e-05 1.7504697502e+00 -3.0319025444e+00 1.7504697502e+00 3.0319025444e+00 
96300 6.5599987793e+00 9.4097906748e-05 1.7504670478e+00 -3.0318978638e+00 1.7504670478e+00 3.0318978638e+00 
96400 6.5599987714e+00 9.3589513733e-05 1.7504643600e+00 -3.0318932084e+00 1.7504643600e+00 3.0318932084e+00 
96500 6.5599987636e+00 9.3083247781e-05 1.7504616867e+00 -3.0318885781e+00 1.7504616867e+00 3.0318885781e+00 
96600 6.5599987559e+00 9.2579086291e-05 1.7504590279e+00 -3.0318839729e+00 1.7504590279e+00 3.0318839729e+00 
96700 6.5599987482e+00 9.2077008462e-05 1.7504563835e+00 -3.0318793926e+00 1.7504563835e+00 3.0318793926e+00 
96800 6.5599987407e+00 9.1576995276e-05 1.7504537534e+00 -3.0318748372e+00 1.7504537534e+00 3.0318748372e+00 
96900 6.5599987332e+00 9.1079029430e-05 1.7504511376e+00 -3.0318703065e+00 1.7504511376e+00 3.0318703065e+00 
97000 6.5599987258e+00 9.0583095320e-05 1.7504485360e+00 -3.0318658004e+00 1.7504485360e+00 3.0318658004e+00 
97100 6.5599987185e+00 9.0089178972e-05 1.7504459486e+00 -3.0318613189e+00 1.7504459486e+00 3.0318613189e+00 
97200 6.5599987113e+00 8.9597268015e-05 1.7504433753e+00 -3.0318568617e+00 1.7504433753e+00 3.0318568617e+00 
97300 6.5599987042e+00 8.9107351616e-05 1.7504408160e+00 -3.0318524289e+00 1.7504408160e+00 3.0318524289e+00 
97400 6.5599986971e+00 8.8619420445e-05 1.7504382707e+00 -3.0318480204e+00 1.7504382707e+00 3.0318480204e+00 
97500 6.5599986902e+00 8.8133466610e-05 1.7504357394e+00 -3.0318436360e+00 1.7504357394e+00 3.0318436360e+00 
97600 6.5599986833e+00 8.7649483618e-05 1.7504332219e+00 -3.0318392756e+00 1.7504332219e+00 3.0318392756e+00 
97700 6.5599986764e+00 8.7167466308e-05 1.7504307182e+00 -3.0318349391e+00 1.7504307182e+00 3.0318349391e+00 
97800 6.5599986697e+00 8.6687410808e-05 1.7504282284e+00 -3.0318306265e+00 1.7504282284e+00 3.0318306265e+00 
97900 6.5599986630e+00 8.6209314468e-05 1.7504257522e+00 -3.0318263376e+00 1.7504257522e+00 3.0318263376e+00 
98000 6.5599986564e+00 8.5733175812e-05 1.7504232897e+00 -3.0318220724e+00 1.7504232897e+00 3.0318220724e+00 
98100 6.5599986499e+00 8.5258994486e-05 1.7504208407e+00 -3.0318178308e+00 1.7504208407e+00 3.0318178308e+00 
98200 6.5599986435e+00 8.4786771184e-05 1.7504184053e+00 -3.0318136126e+00 1.7504184053e+00 3.0318136126e+00 
98300 6.5599986371e+00 8.4316507613e-05 1.7504159834e+00 -3.0318094177e+00 1.7504159834e+00 3.0318094177e+00 
98400 6.5599986308e+00 8.3848206410e-05 1.7504135750e+00 -3.0318052461e+00 1.7504135750e+00 3.0318052461e+00 
98500 6.5599986245e+00 8.3381871105e-05 1.7504111799e+00 -3.0318010977e+00 1.7504111799e+00 3.0318010977e+00 
98600 6.5599986184e+00 8.2917506058e-05 1.7504087981e+00 -3.0317969723e+00 1.7504087981e+00 3.0317969723e+00 
98700 6.5599986123e+00 8.2455116394e-05 1.7504064296e+00 -3.0317928699e+00 1.7504064296e+00 3.0317928699e+00 
98800 6.5599986062e+00 8.1994707946e-05 1.7504040743e+00 -3.0317887904e+00 1.7504040743e+00 3.0317887904e+00 
98900 6.5599986003e+00 8.1536287217e-05 1.7504017321e+00 -3.0317847337e+00 1.7504017321e+00 3.0317847337e+00 
99000 6.5599985944e+00 8.1079861295e-05 1.7503994030e+00 -3.0317806996e+00 1.7503994030e+00 3.0317806996e+00 
99100 6.5599985886e+00 8.0625437817e-05 1.7503970870e+00 -3.0317766881e+00 1.7503970870e+00 3.0317766881e+00 
99200 6.5599985828e+00 8.0173024909e-05 1.7503947839e+00 -3.0317726991e+00 1.7503947839e+00 3.0317726991e+00 
99300 6.5599985771e+00 7.9722631129e-05 1.7503924938e+00 -3.0317687324e+00 1.7503924938e+00 3.0317687324e+00 
99400 6.5599985715e+00 7.9274265410e-05 1.7503902165e+00 -3.0317647881e+00 1.7503902165e+00 3.0317647881e+00 
99500 6.5599985659e+00 7.8827937014e-05 1.7503879520e+00 -3.0317608659e+00 1.7503879520e+00 3.0317608659e+00 
99600 6.5599985604e+00 7.8383655479e-05 1.7503857003e+00 -3.0317569658e+00 1.7503857003e+00 3.0317569658e+00 
99700 6.5599985549e+00 7.7941430564e-05 1.7503834613e+00 -3.0317530877e+00 1.7503834613e+00 3.0317530877e+00 
99800 6.5599985495e+00 7.7501272199e-05 1.7503812349e+00 -3.0317492314e+00 1.7503812349e+00 3.0317492314e+00 
99900 6.5599985442e+00 7.7063190443e-05 1.7503790210e+00 -3.0317453969e+00 1.7503790210e+00 3.0317453969e+00 
100000 6.5599985390e+00 7.6627195427e-05 1.7503768197e+00 -3.0317415841e+00 1.7503768197e+00 3.0317415841e+00 
100100 6.5599985337e+00 7.6193297318e-05 1.7503746308e+00 -3.0317377929e+00 1.7503746308e+00 3.0317377929e+00 
100200 6.5599985286e+00 7.5761506265e-05 1.7503724543e+00 -3.0317340231e+00 1.7503724543e+00 3.0317340231e+00 
100300 6.5599985235e+00 7.5331832363e-05 1.7503702902e+00 -3.0317302746e+00 1.7503702902e+00 3.0317302746e+00 
100400 6.5599985185e+00 7.4904285600e-05 1.7503681383e+00 -3.0317265475e+00 1.7503681383e+00 3.0317265475e+00 
100500 6.5599985135e+00 7.4478875834e-05 1.7503659986e+00 -3.0317228415e+00 1.7503659986e+00 3.0317228415e+00 
100600 6.5599985086e+00 7.4055612737e-05 1.7503638711e+00 -3.0317191565e+00 1.7503638711e+00 3.0317191565e+00 
100700 6.5599985037e+00 7.3634505773e-05 1.7503617557e+00 -3.0317154924e+00 1.7503617557e+00 3.0317154924e+00 
100800 6.5599984989e+00 7.3215564141e-05 1.7503596523e+00 -3.0317118492e+00 1.7503596523e+00 3.0317118492e+00 
100900 6.5599984941e+00 7.2798796764e-05 1.7503575608e+00 -3.0317082267e+00 1.7503575608e+00 3.0317082267e+00 
101000 6.5599984894e+00 7.2384212243e-05 1.7503554813e+00 -3.0317046249e+00 1.7503554813e+00 3.0317046249e+00 
101100 6.5599984848e+00 7.1971818828e-05 1.7503534136e+00 -3.0317010435e+00 1.7503534136e+00 3.0317010435e+00 
101200 6.5599984802e+00 7.1561624390e-05 1.7503513577e+00 -3.0316974826e+00 1.7503513577e+00 3.0316974826e+00 
101300 6.5599984756e+00 7.1153636397e-05 1.7503493134e+00 -3.0316939419e+00 1.7503493134e+00 3.0316939419e+00 
101400 6.5599984711e+00 7.0747861877e-05 1.7503472809e+00 -3.0316904214e+00 1.7503472809e+00 3.0316904214e+00 
101500 6.5599984667e+00 7.0344307403e-05 1.7503452599e+00 -3.0316869210e+00 1.7503452599e+00 3.0316869210e+00 
101600 6.5599984624e+00 7.1782404520e-05 1.7503452599e+00 -3.0316869210e+00 1.7503452599e+00 3.0316869210e+00 
101700 6.5599984581e+00 7.1344747723e-05 1.7503432094e+00 -3.0316833694e+00 1.7503432094e+00 3.0316833694e+00 
101800 6.5599984538e+00 7.0910326785e-05 1.7503411714e+00 -3.0316798394e+00 1.7503411714e+00 3.0316798394e+00 
101900 6.5599984495e+00 7.0479106041e-05 1.7503391458e+00 -3.0316763310e+00 1.7503391458e+00 3.0316763310e+00 
102000 6.5599984455e+00 7.1894027326e-05 1.7503391458e+00 -3.0316763310e+00 1.7503391458e+00 3.0316763310e+00 
102100 6.5599984413e+00 7.1430465852e-05 1.7503370921e+00 -3.0316727738e+00 1.7503370921e+00 3.0316727738e+00 
102200 6.5599984372e+00 7.0970999845e-05 1.7503350516e+00 -3.0316692396e+00 1.7503350516e+00 3.0316692396e+00 
102300 6.5599984331e+00 7.0515554410e-05 1.7503330242e+00 -3.0316657281e+00 1.7503330242e+00 3.0316657281e+00 
102400 6.5599984293e+00 7.1908013261e-05 1.7503330242e+00 -3.0316657281e+00 1.7503330242e+00 3.0316657281e+00 
102500 6.5599984253e+00 7.1421733140e-05 1.7503309701e+00 -3.0316621703e+00 1.7503309701e+00 3.0316621703e+00 
102600 6.5599984213e+00 7.0940257489e-05 1.7503289299e+00 -3.0316586365e+00 1.7503289299e+00 3.0316586365e+00 
102700 6.5599984174e+00 7.0463476183e-05 1.7503269034e+00 -3.0316551265e+00 1.7503269034e+00 3.0316551265e+00 
102800 6.5599984138e+00 7.1833904001e-05 1.7503269034e+00 -3.0316551265e+00 1.7503269034e+00 3.0316551265e+00 
102900 6.5599984099e+00 7.1327561953e-05 1.7503248514e+00 -3.0316515723e+00 1.7503248514e+00 3.0316515723e+00 
103000 6.5599984062e+00 7.0826598406e-05 1.7503228138e+00 -3.0316480432e+00 1.7503228138e+00 3.0316480432e+00 
103100 6.5599984025e+00 7.0330872583e-05 1.7503207906e+00 -3.0316445388e+00 1.7503207906e+00 3.0316445388e+00 
103200 6.5599983989e+00 7.1679429138e-05 1.7503207906e+00 -3.0316445388e+00 1.7503207906e+00 3.0316445388e+00 
103300 6.5599983953e+00 7.1155213933e-05 1.7503187430e+00 -3.0316409923e+00 1.7503187430e+00 3.0316409923e+00 
103400 6.5599983917e+00 7.0636833921e-05 1.7503167103e+00 -3.0316374716e+00 1.7503167103e+00 3.0316374716e+00 
103500 6.5599983883e+00 7.1971324173e-05 1.7503167103e+00 -3.0316374716e+00 1.7503167103e+00 3.0316374716e+00 
103600 6.5599983848e+00 7.1425394950e-05 1.7503146544e+00 -3.0316339106e+00 1.7503146544e+00 3.0316339106e+00 
103700 6.5599983813e+00 7.0885818360e-05 1.7503126140e+00 -3.0316303766e+00 1.7503126140e+00 3.0316303766e+00 
103800 6.5599983778e+00 7.0352401706e-05 1.7503105891e+00 -3.0316268693e+00 1.7503105891e+00 3.0316268693e+00 
103900 6.5599983746e+00 7.1664748463e-05 1.7503105891e+00 -3.0316268693e+00 1.7503105891e+00 3.0316268693e+00 
104000 6.5599983712e+00 7.1104527037e-05 1.7503085419e+00 -3.0316233234e+00 1.7503085419e+00 3.0316233234e+00 
104100 6.5599983679e+00 7.0550921387e-05 1.7503065107e+00 -3.0316198053e+00 1.7503065107e+00 3.0316198053e+00 
104200 6.5599983648e+00 7.1848722713e-05 1.7503065107e+00 -3.0316198053e+00 1.7503065107e+00 3.0316198053e+00 
104300 6.5599983615e+00 7.1269048716e-05 1.7503044582e+00 -3.0316162503e+00 1.7503044582e+00 3.0316162503e+00 
104400 6.5599983583e+00 7.0696385344e-05 1.7503024223e+00 -3.0316127240e+00 1.7503024223e+00 3.0316127240e+00 
104500 6.5599983552e+00 7.1979327130e-05 1.7503024223e+00 -3.0316127240e+00 1.7503024223e+00 3.0316127240e+00 
104600 6.5599983521e+00 7.1381247829e-05 1.7503003661e+00 -3.0316091626e+00 1.7503003661e+00 3.0316091626e+00 
104700 6.5599983490e+00 7.0790521151e-05 1.7502983270e+00 -3.0316056308e+00 1.7502983270e+00 3.0316056308e+00 
104800 6.5599983459e+00 7.0206902117e-05 1.7502963048e+00 -3.0316021281e+00 1.7502963048e+00 3.0316021281e+00 
104900 6.5599983430e+00 7.1466203774e-05 1.7502963048e+00 -3.0316021281e+00 1.7502963048e+00 3.0316021281e+00 
105000 6.5599983400e+00 7.0857608866e-05 1.7502942632e+00 -3.0315985921e+00 1.7502942632e+00 3.0315985921e+00 
105100 6.5599983370e+00 7.0256437437e-05 1.7502922390e+00 -3.0315950861e+00 1.7502922390e+00 3.0315950861e+00 
105200 6.5599983342e+00 7.1499803307e-05 1.7502922390e+00 -3.0315950861e+00 1.7502922390e+00 3.0315950861e+00 
105300 6.5599983313e+00 7.0874221843e-05 1.7502901965e+00 -3.0315915484e+00 1.7502901965e+00 3.0315915484e+00 
105400 6.5599983284e+00 7.0256344003e-05 1.7502881719e+00 -3.0315880416e+00 1.7502881719e+00 3.0315880416e+00 
105500 6.5599983257e+00 7.1483288908e-05 1.7502881719e+00 -3.0315880416e+00 1.7502881719e+00 3.0315880416e+00 
105600 6.5599983229e+00 7.0841529995e-05 1.7502861299e+00 -3.0315845047e+00 1.7502861299e+00 3.0315845047e+00 
105700 6.5599983201e+00 7.0207725653e-05 1.7502841061e+00 -3.0315809995e+00 1.7502841061e+00 3.0315809995e+00 
105800 6.5599983175e+00 7.1417733529e-05 1.7502841061e+00 -3.0315809995e+00 1.7502841061e+00 3.0315809995e+00 
105900 6.5599983147e+00 7.0760552185e-05 1.7502820660e+00 -3.0315774658e+00 1.7502820660e+00 3.0315774658e+00 
106000 6.5599983120e+00 7.0111553257e-05 1.7502800446e+00 -3.0315739647e+00 1.7502800446e+00 3.0315739647e+00 
106100 6.5599983095e+00 7.1304091292e-05 1.7502800446e+00 -3.0315739647e+00 1.7502800446e+00 3.0315739647e+00 
106200 6.5599983069e+00 7.0632205653e-05 1.7502780076e+00 -3.0315704366e+00 1.7502780076e+00 3.0315704366e+00 
106300 6.5599983044e+00 7.1815967606e-05 1.7502780076e+00 -3.0315704366e+00 1.7502780076e+00 3.0315704366e+00 
106400 6.5599983018e+00 7.1121861619e-05 1.7502759561e+00 -3.0315668832e+00 1.7502759561e+00 3.0315668832e+00 
106500 6.5599982992e+00 7.0436608181e-05 1.7502739243e+00 -3.0315633641e+00 1.7502739243e+00 3.0315633641e+00 
106600 6.5599982969e+00 7.1602071811e-05 1.7502739243e+00 -3.0315633641e+00 1.7502739243e+00 3.0315633641e+00 
106700 6.5599982944e+00 7.0895036089e-05 1.7502718789e+00 -3.0315598213e+00 1.7502718789e+00 3.0315598213e+00 
106800 6.5599982919e+00 7.0197013467e-05 1.7502698536e+00 -3.0315563134e+00 1.7502698536e+00 3.0315563134e+00 
106900 6.5599982896e+00 7.1343619530e-05 1.7502698536e+00 -3.0315563134e+00 1.7502698536e+00 3.0315563134e+00 
107000 6.5599982872e+00 7.0624264617e-05 1.7502678156e+00 -3.0315527834e+00 1.7502678156e+00 3.0315527834e+00 
107100 6.5599982849e+00 7.1761172585e-05 1.7502678156e+00 -3.0315527834e+00 1.7502678156e+00 3.0315527834e+00 
107200 6.5599982826e+00 7.1021138297e-05 1.7502657655e+00 -3.0315492327e+00 1.7502657655e+00 3.0315492327e+00 
107300 6.5599982802e+00 7.0290704276e-05 1.7502637367e+00 -3.0315457186e+00 1.7502637367e+00 3.0315457186e+00 
107400 6.5599982780e+00 7.1407952806e-05 1.7502637367e+00 -3.0315457186e+00 1.7502637367e+00 3.0315457186e+00 
107500 6.5599982757e+00 7.0657275031e-05 1.7502616968e+00 -3.0315421853e+00 1.7502616968e+00 3.0315421853e+00 
107600 6.5599982736e+00 7.1764308140e-05 1.7502616968e+00 -3.0315421853e+00 1.7502616968e+00 3.0315421853e+00 
107700 6.5599982714e+00 7.0994036524e-05 1.7502596467e+00 -3.0315386345e+00 1.7502596467e+00 3.0315386345e+00 
107800 6.5599982692e+00 7.0233905320e-05 1.7502576186e+00 -3.0315351217e+00 1.7502576186e+00 3.0315351217e+00 
107900 6.5599982671e+00 7.1320531497e-05 1.7502576186e+00 -3.0315351217e+00 1.7502576186e+00 3.0315351217e+00 
108000 6.5599982649e+00 7.0541245490e-05 1.7502555811e+00 -3.0315315928e+00 1.7502555811e+00 3.0315315928e+00 
108100 6.5599982629e+00 7.1617182584e-05 1.7502555811e+00 -3.0315315928e+00 1.7502555811e+00 3.0315315928e+00 
108200 6.5599982608e+00 7.0819398488e-05 1.7502535352e+00 -3.0315280491e+00 1.7502535352e+00 3.0315280491e+00 
108300 6.5599982587e+00 7.0032262329e-05 1.7502515121e+00 -3.0315245450e+00 1.7502515121e+00 3.0315245450e+00 
108400 6.5599982568e+00 7.1087140432e-05 1.7502515121e+00 -3.0315245450e+00 1.7502515121e+00 3.0315245450e+00 
108500 6.5599982547e+00 7.0281962368e-05 1.7502494813e+00 -3.0315210276e+00 1.7502494813e+00 3.0315210276e+00 
108600 6.5599982528e+00 7.1325747221e-05 1.7502494813e+00 -3.0315210276e+00 1.7502494813e+00 3.0315210276e+00 
108700 6.5599982508e+00 7.0503197682e-05 1.7502474438e+00 -3.0315174984e+00 1.7502474438e+00 3.0315174984e+00 
108800 6.5599982490e+00 7.1535801327e-05 1.7502474438e+00 -3.0315174984e+00 1.7502474438e+00 3.0315174984e+00 
108900 6.5599982470e+00 7.0696538795e-05 1.7502454002e+00 -3.0315139588e+00 1.7502454002e+00 3.0315139588e+00 
109000 6.5599982452e+00 7.1717876586e-05 1.7502454002e+00 -3.0315139588e+00 1.7502454002e+00 3.0315139588e+00 
109100 6.5599982433e+00 7.0862548027e-05 1.7502433514e+00 -3.0315104102e+00 1.7502433514e+00 3.0315104102e+00 
109200 6.5599982413e+00 7.0019101346e-05 1.7502413270e+00 -3.0315069039e+00 1.7502413270e+00 3.0315069039e+00 
109300 6.5599982396e+00 7.1018587334e-05 1.7502413270e+00 -3.0315069039e+00 1.7502413270e+00 3.0315069039e+00 
109400 6.5599982377e+00 7.0159521175e-05 1.7502392982e+00 -3.0315033899e+00 1.7502392982e+00 3.0315033899e+00 
109500 6.5599982360e+00 7.1147445850e-05 1.7502392982e+00 -3.0315033899e+00 1.7502392982e+00 3.0315033899e+00 
109600 6.5599982342e+00 7.0273427763e-05 1.7502372657e+00 -3.0314998695e+00 1.7502372657e+00 3.0314998695e+00 
109700 6.5599982325e+00 7.1249752901e-05 1.7502372657e+00 -3.0314998695e+00 1.7502372657e+00 3.0314998695e+00 
109800 6.5599982307e+00 7.0361440590e-05 1.7502352302e+00 -3.0314963440e+00 1.7502352302e+00 3.0314963440e+00 
109900 6.5599982291e+00 7.1326134482e-05 1.7502352302e+00 -3.0314963440e+00 1.7502352302e+00 3.0314963440e+00 
110000 6.5599982274e+00 7.0424175828e-05 1.7502331926e+00 -3.0314928147e+00 1.7502331926e+00 3.0314928147e+00 
110100 6.5599982258e+00 7.1377213255e-05 1.7502331926e+00 -3.0314928147e+00 1.7502331926e+00 3.0314928147e+00 
110200 6.5599982241e+00 7.0462246417e-05 1.7502311536e+00 -3.0314892829e+00 1.7502311536e+00 3.0314892829e+00 
110300 6.5599982225e+00 7.1403608699e-05 1.7502311536e+00 -3.0314892829e+00 1.7502311536e+00 3.0314892829e+00 
110400 6.5599982208e+00 7.0476262275e-05 1.7502291137e+00 -3.0314857498e+00 1.7502291137e+00 3.0314857498e+00 
110500 6.5599982193e+00 7.1405937375e-05 1.7502291137e+00 -3.0314857498e+00 1.7502291137e+00 3.0314857498e+00 
110600 6.5599982177e+00 7.0466830590e-05 1.7502270738e+00 -3.0314822166e+00 1.7502270738e+00 3.0314822166e+00 
110700 6.5599982162e+00 7.1384813249e-05 1.7502270738e+00 -3.0314822166e+00 1.7502270738e+00 3.0314822166e+00 
110800 6.5599982146e+00 7.0434556180e-05 1.7502250345e+00 -3.0314786845e+00 1.7502250345e+00 3.0314786845e+00 
110900 6.5599982131e+00 7.1340848072e-05 1.7502250345e+00 -3.0314786845e+00 1.7502250345e+00 3.0314786845e+00 
111000 6.5599982116e+00 7.0380041871e-05 1.7502229965e+00 -3.0314751545e+00 1.7502229965e+00 3.0314751545e+00 
111100 6.5599982101e+00 7.1274651775e-05 1.7502229965e+00 -3.0314751545e+00 1.7502229965e+00 3.0314751545e+00 
111200 6.5599982086e+00 7.0303888873e-05 1.7502209603e+00 -3.0314716277e+00 1.7502209603e+00 3.0314716277e+00 
111300 6.5599982072e+00 7.1186832845e-05 1.7502209603e+00 -3.0314716277e+00 1.7502209603e+00 3.0314716277e+00 
111400 6.5599982057e+00 7.0206697174e-05 1.7502189267e+00 -3.0314681053e+00 1.7502189267e+00 3.0314681053e+00 
111500 6.5599982044e+00 7.1077998688e-05 1.7502189267e+00 -3.0314681053e+00 1.7502189267e+00 3.0314681053e+00 
111600 6.5599982029e+00 7.0089065831e-05 1.7502168961e+00 -3.0314645883e+00 1.7502168961e+00 3.0314645883e+00 
111700 6.5599982016e+00 7.0948755933e-05 1.7502168961e+00 -3.0314645883e+00 1.7502168961e+00 3.0314645883e+00 
111800 6.5599982001e+00 6.9951593280e-05 1.7502148693e+00 -3.0314610777e+00 1.7502148693e+00 3.0314610777e+00 
111900 6.5599981988e+00 7.0799710687e-05 1.7502148693e+00 -3.0314610777e+00 1.7502148693e+00 3.0314610777e+00 
112000 6.5599981974e+00 6.9794877552e-05 1.7502128467e+00 -3.0314575745e+00 1.7502128467e+00 3.0314575745e+00 
112100 6.5599981961e+00 7.0631468741e-05 1.7502128467e+00 -3.0314575745e+00 1.7502128467e+00 3.0314575745e+00 
112200 6.5599981949e+00 7.1467048806e-05 1.7502128467e+00 -3.0314575745e+00 1.7502128467e+00 3.0314575745e+00 
112300 6.5599981935e+00 7.0432360048e-05 1.7502108050e+00 -3.0314540382e+00 1.7502108050e+00 3.0314540382e+00 
112400 6.5599981923e+00 7.1256613615e-05 1.7502108050e+00 -3.0314540382e+00 1.7502108050e+00 3.0314540382e+00 
112500 6.5599981909e+00 7.0216096693e-05 1.7502087693e+00 -3.0314505123e+00 1.7502087693e+00 3.0314505123e+00 
112600 6.5599981898e+00 7.1029058757e-05 1.7502087693e+00 -3.0314505123e+00 1.7502087693e+00 3.0314505123e+00 
112700 6.5599981884e+00 6.9983198456e-05 1.7502067402e+00 -3.0314469977e+00 1.7502067402e+00 3.0314469977e+00 
112800 6.5599981873e+00 7.0784910215e-05 1.7502067402e+00 -3.0314469977e+00 1.7502067402e+00 3.0314469977e+00 
112900 6.5599981860e+00 6.9734184101e-05 1.7502047180e+00 -3.0314434952e+00 1.7502047180e+00 3.0314434952e+00 
113000 6.5599981848e+00 7.0524693510e-05 1.7502047180e+00 -3.0314434952e+00 1.7502047180e+00 3.0314434952e+00 
113100 6.5599981837e+00 7.1314348750e-05 1.7502047180e+00 -3.0314434952e+00 1.7502047180e+00 3.0314434952e+00 
113200 6.5599981825e+00 7.0237846081e-05 1.7502026807e+00 -3.0314399665e+00 1.7502026807e+00 3.0314399665e+00 
113300 6.5599981814e+00 7.1016499704e-05 1.7502026807e+00 -3.0314399665e+00 1.7502026807e+00 3.0314399665e+00 
113400 6.5599981801e+00 6.9936774996e-05 1.7502006519e+00 -3.0314364525e+00 1.7502006519e+00 3.0314364525e+00 
113500 6.5599981791e+00 7.0704462624e-05 1.7502006519e+00 -3.0314364525e+00 1.7502006519e+00 3.0314364525e+00 
113600 6.5599981780e+00 7.1471422403e-05 1.7502006519e+00 -3.0314364525e+00 1.7502006519e+00 3.0314364525e+00 
113700 6.5599981768e+00 7.0368218123e-05 1.7501986101e+00 -3.0314329160e+00 1.7501986101e+00 3.0314329160e+00 
113800 6.5599981758e+00 7.1124392935e-05 1.7501986101e+00 -3.0314329160e+00 1.7501986101e+00 3.0314329160e+00 
113900 6.5599981746e+00 7.0019459607e-05 1.7501965782e+00 -3.0314293966e+00 1.7501965782e+00 3.0314293966e+00 
114000 6.5599981736e+00 7.0764871232e-05 1.7501965782e+00 -3.0314293966e+00 1.7501965782e+00 3.0314293966e+00 
114100 6.5599981724e+00 6.9658559779e-05 1.7501945565e+00 -3.0314258951e+00 1.7501945565e+00 3.0314258951e+00 
114200 6.5599981715e+00 7.0393236389e-05 1.7501945565e+00 -3.0314258951e+00 1.7501945565e+00 3.0314258951e+00 
114300 6.5599981705e+00 7.1127278537e-05 1.7501945565e+00 -3.0314258951e+00 1.7501945565e+00 3.0314258951e+00 
114400 6.5599981694e+00 7.0000220673e-05 1.7501925246e+00 -3.0314223756e+00 1.7501925246e+00 3.0314223756e+00 
114500 6.5599981684e+00 7.0723699223e-05 1.7501925246e+00 -3.0314223756e+00 1.7501925246e+00 3.0314223756e+00 
114600 6.5599981673e+00 6.9596607059e-05 1.7501905041e+00 -3.0314188760e+00 1.7501905041e+00 3.0314188760e+00 
114700 6.5599981664e+00 7.0309539370e-05 1.7501905041e+00 -3.0314188760e+00 1.7501905041e+00 3.0314188760e+00 
114800 6.5599981655e+00 7.1021922866e-05 1.7501905041e+00 -3.0314188760e+00 1.7501905041e+00 3.0314188760e+00 
114900 6.5599981644e+00 6.9876025349e-05 1.7501884751e+00 -3.0314153617e+00 1.7501884751e+00 3.0314153617e+00 
115000 6.5599981635e+00 7.0578018184e-05 1.7501884751e+00 -3.0314153617e+00 1.7501884751e+00 3.0314153617e+00 
115100 6.5599981626e+00 7.1279552039e-05 1.7501884751e+00 -3.0314153617e+00 1.7501884751e+00 3.0314153617e+00 
115200 6.5599981616e+00 7.0116140795e-05 1.7501864388e+00 -3.0314118347e+00 1.7501864388e+00 3.0314118347e+00 
115300 6.5599981607e+00 7.0807413649e-05 1.7501864388e+00 -3.0314118347e+00 1.7501864388e+00 3.0314118347e+00 
115400 6.5599981597e+00 6.9646045739e-05 1.7501844159e+00 -3.0314083310e+00 1.7501844159e+00 3.0314083310e+00 
115500 6.5599981589e+00 7.0327047168e-05 1.7501844159e+00 -3.0314083310e+00 1.7501844159e+00 3.0314083310e+00 
115600 6.5599981580e+00 7.1007629515e-05 1.7501844159e+00 -3.0314083310e+00 1.7501844159e+00 3.0314083310e+00 
115700 6.5599981570e+00 6.9830397765e-05 1.7501823874e+00 -3.0314048174e+00 1.7501823874e+00 3.0314048174e+00 
115800 6.5599981562e+00 7.0500824314e-05 1.7501823874e+00 -3.0314048174e+00 1.7501823874e+00 3.0314048174e+00 
115900 6.5599981554e+00 7.1170895956e-05 1.7501823874e+00 -3.0314048174e+00 1.7501823874e+00 3.0314048174e+00 
116000 6.5599981545e+00 6.9978932753e-05 1.7501803541e+00 -3.0314012957e+00 1.7501803541e+00 3.0314012957e+00 
116100 6.5599981537e+00 7.0638941342e-05 1.7501803541e+00 -3.0314012957e+00 1.7501803541e+00 3.0314012957e+00 
116200 6.5599981529e+00 7.1298645410e-05 1.7501803541e+00 -3.0314012957e+00 1.7501803541e+00 3.0314012957e+00 
116300 6.5599981520e+00 7.0093009251e-05 1.7501783172e+00 -3.0313977677e+00 1.7501783172e+00 3.0313977677e+00 
116400 6.5599981512e+00 7.0742720546e-05 1.7501783172e+00 -3.0313977677e+00 1.7501783172e+00 3.0313977677e+00 
116500 6.5599981503e+00 6.9541563774e-05 1.7501762962e+00 -3.0313942672e+00 1.7501762962e+00 3.0313942672e+00 
116600 6.5599981496e+00 7.0181235189e-05 1.7501762962e+00 -3.0313942672e+00 1.7501762962e+00 3.0313942672e+00 
116700 6.5599981488e+00 7.0820582310e-05 1.7501762962e+00 -3.0313942672e+00 1.7501762962e+00 3.0313942672e+00 
116800 6.5599981479e+00 6.9607055112e-05 1.7501742730e+00 -3.0313907629e+00 1.7501742730e+00 3.0313907629e+00 
116900 6.5599981472e+00 7.0236428248e-05 1.7501742730e+00 -3.0313907629e+00 1.7501742730e+00 3.0313907629e+00 
117000 6.5599981465e+00 7.0865510233e-05 1.7501742730e+00 -3.0313907629e+00 1.7501742730e+00 3.0313907629e+00 
117100 6.5599981456e+00 6.9640563174e-05 1.7501722484e+00 -3.0313872563e+00 1.7501722484e+00 3.0313872563e+00 
117200 6.5599981450e+00 7.0259721622e-05 1.7501722484e+00 -3.0313872563e+00 1.7501722484e+00 3.0313872563e+00 
117300 6.5599981443e+00 7.0878612466e-05 1.7501722484e+00 -3.0313872563e+00 1.7501722484e+00 3.0313872563e+00 
117400 6.5599981434e+00 6.9643142713e-05 1.7501702235e+00 -3.0313837491e+00 1.7501702235e+00 3.0313837491e+00 
117500 6.5599981428e+00 7.0252146212e-05 1.7501702235e+00 -3.0313837491e+00 1.7501702235e+00 3.0313837491e+00 
117600 6.5599981421e+00 7.0860896830e-05 1.7501702235e+00 -3.0313837491e+00 1.7501702235e+00 3.0313837491e+00 
117700 6.5599981413e+00 6.9615752984e-05 1.7501681991e+00 -3.0313802427e+00 1.7501681991e+00 3.0313802427e+00 
117800 6.5599981406e+00 7.0214639835e-05 1.7501681991e+00 -3.0313802427e+00 1.7501681991e+00 3.0313802427e+00 
117900 6.5599981400e+00 7.0813280692e-05 1.7501681991e+00 -3.0313802427e+00 1.7501681991e+00 3.0313802427e+00 
118000 6.5599981392e+00 6.9559267947e-05 1.7501661761e+00 -3.0313767387e+00 1.7501661761e+00 3.0313767387e+00 
118100 6.5599981386e+00 7.0148057971e-05 1.7501661761e+00 -3.0313767387e+00 1.7501661761e+00 3.0313767387e+00 
118200 6.5599981380e+00 7.0736602157e-05 1.7501661761e+00 -3.0313767387e+00 1.7501661761e+00 3.0313767387e+00 
118300 6.5599981372e+00 6.9474487568e-05 1.7501641552e+00 -3.0313732385e+00 1.7501641552e+00 3.0313732385e+00 
118400 6.5599981366e+00 7.0053185420e-05 1.7501641552e+00 -3.0313732385e+00 1.7501641552e+00 3.0313732385e+00 
118500 6.5599981360e+00 7.0631632054e-05 1.7501641552e+00 -3.0313732385e+00 1.7501641552e+00 3.0313732385e+00 
118600 6.5599981354e+00 7.1209909165e-05 1.7501641552e+00 -3.0313732385e+00 1.7501641552e+00 3.0313732385e+00 
118700 6.5599981347e+00 6.9925205619e-05 1.7501621209e+00 -3.0313697148e+00 1.7501621209e+00 3.0313697148e+00 
118800 6.5599981341e+00 7.0493705622e-05 1.7501621209e+00 -3.0313697148e+00 1.7501621209e+00 3.0313697148e+00 
118900 6.5599981335e+00 7.1062010067e-05 1.7501621209e+00 -3.0313697148e+00 1.7501621209e+00 3.0313697148e+00 
119000 6.5599981328e+00 6.9771165999e-05 1.7501600907e+00 -3.0313661985e+00 1.7501600907e+00 3.0313661985e+00 
119100 6.5599981322e+00 7.0329656251e-05 1.7501600907e+00 -3.0313661985e+00 1.7501600907e+00 3.0313661985e+00 
119200 6.5599981317e+00 7.0887920907e-05 1.7501600907e+00 -3.0313661985e+00 1.7501600907e+00 3.0313661985e+00 
119300 6.5599981310e+00 6.9591551063e-05 1.7501580655e+00 -3.0313626908e+00 1.7501580655e+00 3.0313626908e+00 
119400 6.5599981305e+00 7.0139961822e-05 1.7501580655e+00 -3.0313626908e+00 1.7501580655e+00 3.0313626908e+00 
119500 6.5599981299e+00 7.0688114828e-05 1.7501580655e+00 -3.0313626908e+00 1.7501580655e+00 3.0313626908e+00 
119600 6.5599981294e+00 7.1236083803e-05 1.7501580655e+00 -3.0313626908e+00 1.7501580655e+00 3.0313626908e+00 
119700 6.5599981287e+00 6.9920336988e-05 1.7501560304e+00 -3.0313591658e+00 1.7501560304e+00 3.0313591658e+00 
119800 6.5599981282e+00 7.0458473473e-05 1.7501560304e+00 -3.0313591658e+00 1.7501560304e+00 3.0313591658e+00 
119900 6.5599981277e+00 7.0996378360e-05 1.7501560304e+00 -3.0313591658e+00 1.7501560304e+00 3.0313591658e+00 
120000 6.5599981270e+00 6.9676781289e-05 1.7501540021e+00 -3.0313556527e+00 1.7501540021e+00 3.0313556527e+00 
120100 6.5599981265e+00 7.0204789924e-05 1.7501540021e+00 -3.0313556527e+00 1.7501540021e+00 3.0313556527e+00 
120200 6.5599981261e+00 7.0732519663e-05 1.7501540021e+00 -3.0313556527e+00 1.7501540021e+00 3.0313556527e+00 
120300 6.5599981254e+00 6.9409594211e-05 1.7501519814e+00 -3.0313521527e+00 1.7501519814e+00 3.0313521527e+00 
120400 6.5599981249e+00 6.9927369699e-05 1.7501519814e+00 -3.0313521527e+00 1.7501519814e+00 3.0313521527e+00 
120500 6.5599981245e+00 7.0444821228e-05 1.7501519814e+00 -3.0313521527e+00 1.7501519814e+00 3.0313521527e+00 
120600 6.5599981240e+00 7.0962018924e-05 1.7501519814e+00 -3.0313521527e+00 1.7501519814e+00 3.0313521527e+00 
120700 6.5599981234e+00 6.9622569923e-05 1.7501499540e+00 -3.0313486413e+00 1.7501499540e+00 3.0313486413e+00 
120800 6.5599981229e+00 7.0129823323e-05 1.7501499540e+00 -3.0313486413e+00 1.7501499540e+00 3.0313486413e+00 
120900 6.5599981225e+00 7.0636768232e-05 1.7501499540e+00 -3.0313486413e+00 1.7501499540e+00 3.0313486413e+00 
121000 6.5599981220e+00 7.1143471909e-05 1.7501499540e+00 -3.0313486413e+00 1.7501499540e+00 3.0313486413e+00 
121100 6.5599981214e+00 6.9788781946e-05 1.7501479215e+00 -3.0313451209e+00 1.7501479215e+00 3.0313451209e+00 
121200 6.5599981210e+00 7.0285533279e-05 1.7501479215e+00 -3.0313451209e+00 1.7501479215e+00 3.0313451209e+00 
121300 6.5599981206e+00 7.0781979794e-05 1.7501479215e+00 -3.0313451209e+00 1.7501479215e+00 3.0313451209e+00 
121400 6.5599981200e+00 6.9426418458e-05 1.7501458994e+00 -3.0313416184e+00 1.7501458994e+00 3.0313416184e+00 
121500 6.5599981195e+00 6.9912837971e-05 1.7501458994e+00 -3.0313416184e+00 1.7501458994e+00 3.0313416184e+00 
121600 6.5599981191e+00 7.0398894380e-05 1.7501458994e+00 -3.0313416184e+00 1.7501458994e+00 3.0313416184e+00 
121700 6.5599981187e+00 7.0884654103e-05 1.7501458994e+00 -3.0313416184e+00 1.7501458994e+00 3.0313416184e+00 
121800 6.5599981181e+00 6.9515716853e-05 1.7501438743e+00 -3.0313381108e+00 1.7501438743e+00 3.0313381108e+00 
121900 6.5599981177e+00 6.9991446838e-05 1.7501438743e+00 -3.0313381108e+00 1.7501438743e+00 3.0313381108e+00 
122000 6.5599981174e+00 7.0466816694e-05 1.7501438743e+00 -3.0313381108e+00 1.7501438743e+00 3.0313381108e+00 
122100 6.5599981170e+00 7.0941891339e-05 1.7501438743e+00 -3.0313381108e+00 1.7501438743e+00 3.0313381108e+00 
122200 6.5599981164e+00 6.9560762166e-05 1.7501418475e+00 -3.0313346004e+00 1.7501418475e+00 3.0313346004e+00 
122300 6.5599981160e+00 7.0025797813e-05 1.7501418475e+00 -3.0313346004e+00 1.7501418475e+00 3.0313346004e+00 
122400 6.5599981157e+00 7.0490470479e-05 1.7501418475e+00 -3.0313346004e+00 1.7501418475e+00 3.0313346004e+00 
122500 6.5599981153e+00 7.0954843852e-05 1.7501418475e+00 -3.0313346004e+00 1.7501418475e+00 3.0313346004e+00 
122600 6.5599981147e+00 6.9562659906e-05 1.7501398204e+00 -3.0313310893e+00 1.7501398204e+00 3.0313310893e+00 
122700 6.5599981144e+00 7.0016980823e-05 1.7501398204e+00 -3.0313310893e+00 1.7501398204e+00 3.0313310893e+00 
122800 6.5599981140e+00 7.0470931435e-05 1.7501398204e+00 -3.0313310893e+00 1.7501398204e+00 3.0313310893e+00 
122900 6.5599981137e+00 7.0924574543e-05 1.7501398204e+00 -3.0313310893e+00 1.7501398204e+00 3.0313310893e+00 
123000 6.5599981131e+00 6.9522433881e-05 1.7501377942e+00 -3.0313275797e+00 1.7501377942e+00 3.0313275797e+00 
123100 6.5599981128e+00 6.9966009756e-05 1.7501377942e+00 -3.0313275797e+00 1.7501377942e+00 3.0313275797e+00 
123200 6.5599981125e+00 7.0409205112e-05 1.7501377942e+00 -3.0313275797e+00 1.7501377942e+00 3.0313275797e+00 
123300 6.5599981121e+00 7.0852082228e-05 1.7501377942e+00 -3.0313275797e+00 1.7501377942e+00 3.0313275797e+00 
123400 6.5599981116e+00 6.9441051699e-05 1.7501357700e+00 -3.0313240737e+00 1.7501357700e+00 3.0313240737e+00 
123500 6.5599981113e+00 6.9873848634e-05 1.7501357700e+00 -3.0313240737e+00 1.7501357700e+00 3.0313240737e+00 
123600 6.5599981110e+00 7.0306253599e-05 1.7501357700e+00 -3.0313240737e+00 1.7501357700e+00 3.0313240737e+00 
123700 6.5599981106e+00 7.0738328722e-05 1.7501357700e+00 -3.0313240737e+00 1.7501357700e+00 3.0313240737e+00 
123800 6.5599981101e+00 6.9319451419e-05 1.7501337490e+00 -3.0313205734e+00 1.7501337490e+00 3.0313205734e+00 
123900 6.5599981098e+00 6.9741438416e-05 1.7501337490e+00 -3.0313205734e+00 1.7501337490e+00 3.0313205734e+00 
124000 6.5599981095e+00 7.0163022375e-05 1.7501337490e+00 -3.0313205734e+00 1.7501337490e+00 3.0313205734e+00 
124100 6.5599981092e+00 7.0584265643e-05 1.7501337490e+00 -3.0313205734e+00 1.7501337490e+00 3.0313205734e+00 
124200 6.5599981089e+00 7.1005227665e-05 1.7501337490e+00 -3.0313205734e+00 1.7501337490e+00 3.0313205734e+00 
124300 6.5599981084e+00 6.9568290644e-05 1.7501317205e+00 -3.0313170598e+00 1.7501317205e+00 3.0313170598e+00 
124400 6.5599981081e+00 6.9979216935e-05 1.7501317205e+00 -3.0313170598e+00 1.7501317205e+00 3.0313170598e+00 
124500 6.5599981078e+00 7.0389779413e-05 1.7501317205e+00 -3.0313170598e+00 1.7501317205e+00 3.0313170598e+00 
124600 6.5599981075e+00 7.0800037558e-05 1.7501317205e+00 -3.0313170598e+00 1.7501317205e+00 3.0313170598e+00 
124700 6.5599981071e+00 6.9357732966e-05 1.7501296978e+00 -3.0313135564e+00 1.7501296978e+00 3.0313135564e+00 
124800 6.5599981068e+00 6.9757937682e-05 1.7501296978e+00 -3.0313135564e+00 1.7501296978e+00 3.0313135564e+00 
124900 6.5599981065e+00 7.0157757251e-05 1.7501296978e+00 -3.0313135564e+00 1.7501296978e+00 3.0313135564e+00 
125000 6.5599981062e+00 7.0557251761e-05 1.7501296978e+00 -3.0313135564e+00 1.7501296978e+00 3.0313135564e+00 
125100 6.5599981060e+00 7.0956478522e-05 1.7501296978e+00 -3.0313135564e+00 1.7501296978e+00 3.0313135564e+00 
125200 6.5599981055e+00 6.9499074428e-05 1.7501276706e+00 -3.0313100452e+00 1.7501276706e+00 3.0313100452e+00 
125300 6.5599981053e+00 6.9888292865e-05 1.7501276706e+00 -3.0313100452e+00 1.7501276706e+00 3.0313100452e+00 
125400 6.5599981050e+00 7.0277155555e-05 1.7501276706e+00 -3.0313100452e+00 1.7501276706e+00 3.0313100452e+00 
125500 6.5599981047e+00 7.0665720390e-05 1.7501276706e+00 -3.0313100452e+00 1.7501276706e+00 3.0313100452e+00 
125600 6.5599981045e+00 7.1054042504e-05 1.7501276706e+00 -3.0313100452e+00 1.7501276706e+00 3.0313100452e+00 
125700 6.5599981040e+00 6.9583194545e-05 1.7501256406e+00 -3.0313065292e+00 1.7501256406e+00 3.0313065292e+00 
125800 6.5599981038e+00 6.9961538560e-05 1.7501256406e+00 -3.0313065292e+00 1.7501256406e+00 3.0313065292e+00 
125900 6.5599981035e+00 7.0339545201e-05 1.7501256406e+00 -3.0313065292e+00 1.7501256406e+00 3.0313065292e+00 
126000 6.5599981033e+00 7.0717270360e-05 1.7501256406e+00 -3.0313065292e+00 1.7501256406e+00 3.0313065292e+00 
126100 6.5599981029e+00 6.9244589693e-05 1.7501236203e+00 -3.0313030298e+00 1.7501236203e+00 3.0313030298e+00 
126200 6.5599981026e+00 6.9612307971e-05 1.7501236203e+00 -3.0313030298e+00 1.7501236203e+00 3.0313030298e+00 
126300 6.5599981024e+00 6.9979654790e-05 1.7501236203e+00 -3.0313030298e+00 1.7501236203e+00 3.0313030298e+00 
126400 6.5599981022e+00 7.0346687528e-05 1.7501236203e+00 -3.0313030298e+00 1.7501236203e+00 3.0313030298e+00 
126500 6.5599981019e+00 7.0713461031e-05 1.7501236203e+00 -3.0313030298e+00 1.7501236203e+00 3.0313030298e+00 
126600 6.5599981015e+00 6.9229940257e-05 1.7501216000e+00 -3.0312995307e+00 1.7501216000e+00 3.0312995307e+00 
126700 6.5599981013e+00 6.9586748601e-05 1.7501216000e+00 -3.0312995307e+00 1.7501216000e+00 3.0312995307e+00 
126800 6.5599981011e+00 6.9943204663e-05 1.7501216000e+00 -3.0312995307e+00 1.7501216000e+00 3.0312995307e+00 
126900 6.5599981008e+00 7.0299364830e-05 1.7501216000e+00 -3.0312995307e+00 1.7501216000e+00 3.0312995307e+00 
127000 6.5599981006e+00 7.0655282987e-05 1.7501216000e+00 -3.0312995307e+00 1.7501216000e+00 3.0312995307e+00 
127100 6.5599981004e+00 7.1011010362e-05 1.7501216000e+00 -3.0312995307e+00 1.7501216000e+00 3.0312995307e+00 
127200 6.5599981000e+00 6.9508713582e-05 1.7501195713e+00 -3.0312960168e+00 1.7501195713e+00 3.0312960168e+00 
127300 6.5599980998e+00 6.9854560872e-05 1.7501195713e+00 -3.0312960168e+00 1.7501195713e+00 3.0312960168e+00 
127400 6.5599980996e+00 7.0200111953e-05 1.7501195713e+00 -3.0312960168e+00 1.7501195713e+00 3.0312960168e+00 
127500 6.5599980994e+00 7.0545419372e-05 1.7501195713e+00 -3.0312960168e+00 1.7501195713e+00 3.0312960168e+00 
127600 6.5599980992e+00 7.0890533149e-05 1.7501195713e+00 -3.0312960168e+00 1.7501195713e+00 3.0312960168e+00 
127700 6.5599980988e+00 6.9380761683e-05 1.7501175460e+00 -3.0312925089e+00 1.7501175460e+00 3.0312925089e+00 
127800 6.5599980986e+00 6.9716002781e-05 1.7501175460e+00 -3.0312925089e+00 1.7501175460e+00 3.0312925089e+00 
127900 6.5599980984e+00 7.0050942407e-05 1.7501175460e+00 -3.0312925089e+00 1.7501175460e+00 3.0312925089e+00 
128000 6.5599980982e+00 7.0385632400e-05 1.7501175460e+00 -3.0312925089e+00 1.7501175460e+00 3.0312925089e+00 
128100 6.5599980980e+00 7.0720122205e-05 1.7501175460e+00 -3.0312925089e+00 1.7501175460e+00 3.0312925089e+00 
128200 6.5599980977e+00 6.9204169180e-05 1.7501155255e+00 -3.0312890094e+00 1.7501155255e+00 3.0312890094e+00 
128300 6.5599980975e+00 6.9528794966e-05 1.7501155255e+00 -3.0312890094e+00 1.7501155255e+00 3.0312890094e+00 
128400 6.5599980973e+00 6.9853112314e-05 1.7501155255e+00 -3.0312890094e+00 1.7501155255e+00 3.0312890094e+00 
128500 6.5599980971e+00 7.0177172931e-05 1.7501155255e+00 -3.0312890094e+00 1.7501155255e+00 3.0312890094e+00 
128600 6.5599980969e+00 7.0501026240e-05 1.7501155255e+00 -3.0312890094e+00 1.7501155255e+00 3.0312890094e+00 
128700 6.5599980967e+00 7.0824719233e-05 1.7501155255e+00 -3.0312890094e+00 1.7501155255e+00 3.0312890094e+00 
128800 6.5599980964e+00 6.9295260682e-05 1.7501135021e+00 -3.0312855047e+00 1.7501135021e+00 3.0312855047e+00 
128900 6.5599980962e+00 6.9609147615e-05 1.7501135021e+00 -3.0312855047e+00 1.7501135021e+00 3.0312855047e+00 
129000 6.5599980960e+00 6.9922758225e-05 1.7501135021e+00 -3.0312855047e+00 1.7501135021e+00 3.0312855047e+00 
129100 6.5599980959e+00 7.0236141790e-05 1.7501135021e+00 -3.0312855047e+00 1.7501135021e+00 3.0312855047e+00 
129200 6.5599980957e+00 7.0549345328e-05 1.7501135021e+00 -3.0312855047e+00 1.7501135021e+00 3.0312855047e+00 
129300 6.5599980955e+00 7.0862413465e-05 1.7501135021e+00 -3.0312855047e+00 1.7501135021e+00 3.0312855047e+00 
129400 6.5599980952e+00 6.9321357008e-05 1.7501114776e+00 -3.0312819981e+00 1.7501114776e+00 3.0312819981e+00 
129500 6.5599980950e+00 6.9624656727e-05 1.7501114776e+00 -3.0312819981e+00 1.7501114776e+00 3.0312819981e+00 
129600 6.5599980949e+00 6.9927698130e-05 1.7501114776e+00 -3.0312819981e+00 1.7501114776e+00 3.0312819981e+00 
129700 6.5599980947e+00 7.0230528366e-05 1.7501114776e+00 -3.0312819981e+00 1.7501114776e+00 3.0312819981e+00 
129800 6.5599980946e+00 7.0533192400e-05 1.7501114776e+00 -3.0312819981e+00 1.7501114776e+00 3.0312819981e+00 
129900 6.5599980944e+00 7.0835732883e-05 1.7501114776e+00 -3.0312819981e+00 1.7501114776e+00 3.0312819981e+00 
130000 6.5599980941e+00 6.9284847463e-05 1.7501094539e+00 -3.0312784929e+00 1.7501094539e+00 3.0312784929e+00 
130100 6.5599980939e+00 6.9577641116e-05 1.7501094539e+00 -3.0312784929e+00 1.7501094539e+00 3.0312784929e+00 
130200 6.5599980938e+00 6.9870183009e-05 1.7501094539e+00 -3.0312784929e+00 1.7501094539e+00 3.0312784929e+00 
130300 6.5599980936e+00 7.0162518674e-05 1.7501094539e+00 -3.0312784929e+00 1.7501094539e+00 3.0312784929e+00 
130400 6.5599980935e+00 7.0454691561e-05 1.7501094539e+00 -3.0312784929e+00 1.7501094539e+00 3.0312784929e+00 
130500 6.5599980933e+00 7.0746742906e-05 1.7501094539e+00 -3.0312784929e+00 1.7501094539e+00 3.0312784929e+00 
130600 6.5599980930e+00 6.9187688141e-05 1.7501074326e+00 -3.0312749920e+00 1.7501074326e+00 3.0312749920e+00 
130700 6.5599980929e+00 6.9470004784e-05 1.7501074326e+00 -3.0312749920e+00 1.7501074326e+00 3.0312749920e+00 
130800 6.5599980927e+00 6.9752068375e-05 1.7501074326e+00 -3.0312749920e+00 1.7501074326e+00 3.0312749920e+00 
130900 6.5599980926e+00 7.0033923436e-05 1.7501074326e+00 -3.0312749920e+00 1.7501074326e+00 3.0312749920e+00 
131000 6.5599980924e+00 7.0315612517e-05 1.7501074326e+00 -3.0312749920e+00 1.7501074326e+00 3.0312749920e+00 
131100 6.5599980923e+00 7.0597176061e-05 1.7501074326e+00 -3.0312749920e+00 1.7501074326e+00 3.0312749920e+00 
131200 6.5599980922e+00 7.0878652302e-05 1.7501074326e+00 -3.0312749920e+00 1.7501074326e+00 3.0312749920e+00 
131300 6.5599980919e+00 6.9305592830e-05 1.7501054077e+00 -3.0312714847e+00 1.7501054077e+00 3.0312714847e+00 
131400 6.5599980917e+00 6.9577375787e-05 1.7501054077e+00 -3.0312714847e+00 1.7501054077e+00 3.0312714847e+00 
131500 6.5599980916e+00 6.9848930577e-05 1.7501054077e+00 -3.0312714847e+00 1.7501054077e+00 3.0312714847e+00 
131600 6.5599980915e+00 7.0120298857e-05 1.7501054077e+00 -3.0312714847e+00 1.7501054077e+00 3.0312714847e+00 
131700 6.5599980914e+00 7.0391520364e-05 1.7501054077e+00 -3.0312714847e+00 1.7501054077e+00 3.0312714847e+00 
131800 6.5599980912e+00 7.0662632794e-05 1.7501054077e+00 -3.0312714847e+00 1.7501054077e+00 3.0312714847e+00 
131900 6.5599980911e+00 7.0933671713e-05 1.7501054077e+00 -3.0312714847e+00 1.7501054077e+00 3.0312714847e+00 
132000 6.5599980908e+00 6.9348737092e-05 1.7501033811e+00 -3.0312679746e+00 1.7501033811e+00 3.0312679746e+00 
132100 6.5599980907e+00 6.9610094983e-05 1.7501033811e+00 -3.0312679746e+00 1.7501033811e+00 3.0312679746e+00 
132200 6.5599980906e+00 6.9871230828e-05 1.7501033811e+00 -3.0312679746e+00 1.7501033811e+00 3.0312679746e+00 
132300 6.5599980905e+00 7.0132183989e-05 1.7501033811e+00 -3.0312679746e+00 1.7501033811e+00 3.0312679746e+00 
132400 6.5599980903e+00 7.0392992016e-05 1.7501033811e+00 -3.0312679746e+00 1.7501033811e+00 3.0312679746e+00 
132500 6.5599980902e+00 7.0653690534e-05 1.7501033811e+00 -3.0312679746e+00 1.7501033811e+00 3.0312679746e+00 
132600 6.5599980901e+00 7.0914313146e-05 1.7501033811e+00 -3.0312679746e+00 1.7501033811e+00 3.0312679746e+00 
132700 6.5599980898e+00 6.9319455104e-05 1.7501013551e+00 -3.0312644654e+00 1.7501013551e+00 3.0312644654e+00 
132800 6.5599980897e+00 6.9570388985e-05 1.7501013551e+00 -3.0312644654e+00 1.7501013551e+00 3.0312644654e+00 
132900 6.5599980896e+00 6.9821093348e-05 1.7501013551e+00 -3.0312644654e+00 1.7501013551e+00 3.0312644654e+00 
133000 6.5599980895e+00 7.0071606089e-05 1.7501013551e+00 -3.0312644654e+00 1.7501013551e+00 3.0312644654e+00 
133100 6.5599980894e+00 7.0321963411e-05 1.7501013551e+00 -3.0312644654e+00 1.7501013551e+00 3.0312644654e+00 
133200 6.5599980893e+00 7.0572199724e-05 1.7501013551e+00 -3.0312644654e+00 1.7501013551e+00 3.0312644654e+00 
133300 6.5599980892e+00 7.0822347542e-05 1.7501013551e+00 -3.0312644654e+00 1.7501013551e+00 3.0312644654e+00 
133400 6.5599980889e+00 6.9219398116e-05 1.7500993317e+00 -3.0312609608e+00 1.7500993317e+00 3.0312609608e+00 
133500 6.5599980888e+00 6.9459841610e-05 1.7500993317e+00 -3.0312609608e+00 1.7500993317e+00 3.0312609608e+00 
133600 6.5599980887e+00 6.9700040824e-05 1.7500993317e+00 -3.0312609608e+00 1.7500993317e+00 3.0312609608e+00 
133700 6.5599980886e+00 6.9940033056e-05 1.7500993317e+00 -3.0312609608e+00 1.7500993317e+00 3.0312609608e+00 
133800 6.5599980885e+00 7.0179854041e-05 1.7500993317e+00 -3.0312609608e+00 1.7500993317e+00 3.0312609608e+00 
133900 6.5599980884e+00 7.0419537846e-05 1.7500993317e+00 -3.0312609608e+00 1.7500993317e+00 3.0312609608e+00 
134000 6.5599980883e+00 7.0659116757e-05 1.7500993317e+00 -3.0312609608e+00 1.7500993317e+00 3.0312609608e+00 
134100 6.5599980882e+00 7.0898621205e-05 1.7500993317e+00 -3.0312609608e+00 1.7500993317e+00 3.0312609608e+00 
134200 6.5599980879e+00 6.9283035222e-05 1.7500973062e+00 -3.0312574525e+00 1.7500973062e+00 3.0312574525e+00 
134300 6.5599980879e+00 6.9512846804e-05 1.7500973062e+00 -3.0312574525e+00 1.7500973062e+00 3.0312574525e+00 
134400 6.5599980878e+00 6.9742421924e-05 1.7500973062e+00 -3.0312574525e+00 1.7500973062e+00 3.0312574525e+00 
134500 6.5599980877e+00 6.9971796025e-05 1.7500973062e+00 -3.0312574525e+00 1.7500973062e+00 3.0312574525e+00 
134600 6.5599980876e+00 7.0201003066e-05 1.7500973062e+00 -3.0312574525e+00 1.7500973062e+00 3.0312574525e+00 
134700 6.5599980875e+00 7.0430075413e-05 1.7500973062e+00 -3.0312574525e+00 1.7500973062e+00 3.0312574525e+00 
134800 6.5599980874e+00 7.0659043742e-05 1.7500973062e+00 -3.0312574525e+00 1.7500973062e+00 3.0312574525e+00 
134900 6.5599980873e+00 7.0887936954e-05 1.7500973062e+00 -3.0312574525e+00 1.7500973062e+00 3.0312574525e+00 
135000 6.5599980871e+00 6.9262007804e-05 1.7500952809e+00 -3.0312539446e+00 1.7500952809e+00 3.0312539446e+00 
135100 6.5599980870e+00 6.9481203935e-05 1.7500952809e+00 -3.0312539446e+00 1.7500952809e+00 3.0312539446e+00 
135200 6.5599980869e+00 6.9700158987e-05 1.7500952809e+00 -3.0312539446e+00 1.7500952809e+00 3.0312539446e+00 
135300 6.5599980868e+00 6.9918907267e-05 1.7500952809e+00 -3.0312539446e+00 1.7500952809e+00 3.0312539446e+00 
135400 6.5599980867e+00 7.0137481697e-05 1.7500952809e+00 -3.0312539446e+00 1.7500952809e+00 3.0312539446e+00 
135500 6.5599980866e+00 7.0355913713e-05 1.7500952809e+00 -3.0312539446e+00 1.7500952809e+00 3.0312539446e+00 
135600 6.5599980866e+00 7.0574233164e-05 1.7500952809e+00 -3.0312539446e+00 1.7500952809e+00 3.0312539446e+00 
135700 6.5599980865e+00 7.0792468236e-05 1.7500952809e+00 -3.0312539446e+00 1.7500952809e+00 3.0312539446e+00 
135800 6.5599980862e+00 6.9158359743e-05 1.7500932584e+00 -3.0312504415e+00 1.7500932584e+00 3.0312504415e+00 
135900 6.5599980862e+00 6.9366890302e-05 1.7500932584e+00 -3.0312504415e+00 1.7500932584e+00 3.0312504415e+00 
136000 6.5599980861e+00 6.9575169343e-05 1.7500932584e+00 -3.0312504415e+00 1.7500932584e+00 3.0312504415e+00 
136100 6.5599980860e+00 6.9783230862e-05 1.7500932584e+00 -3.0312504415e+00 1.7500932584e+00 3.0312504415e+00 
136200 6.5599980859e+00 6.9991107579e-05 1.7500932584e+00 -3.0312504415e+00 1.7500932584e+00 3.0312504415e+00 
136300 6.5599980858e+00 7.0198830828e-05 1.7500932584e+00 -3.0312504415e+00 1.7500932584e+00 3.0312504415e+00 
136400 6.5599980858e+00 7.0406430461e-05 1.7500932584e+00 -3.0312504415e+00 1.7500932584e+00 3.0312504415e+00 
136500 6.5599980857e+00 7.0613934764e-05 1.7500932584e+00 -3.0312504415e+00 1.7500932584e+00 3.0312504415e+00 
136600 6.5599980856e+00 7.0821370382e-05 1.7500932584e+00 -3.0312504415e+00 1.7500932584e+00 3.0312504415e+00 
136700 6.5599980854e+00 6.9175710979e-05 1.7500912350e+00 -3.0312469369e+00 1.7500912350e+00 3.0312469369e+00 
136800 6.5599980853e+00 6.9373464915e-05 1.7500912350e+00 -3.0312469369e+00 1.7500912350e+00 3.0312469369e+00 
136900 6.5599980853e+00 6.9570978549e-05 1.7500912350e+00 -3.0312469369e+00 1.7500912350e+00 3.0312469369e+00 
137000 6.5599980852e+00 6.9768284529e-05 1.7500912350e+00 -3.0312469369e+00 1.7500912350e+00 3.0312469369e+00 
137100 6.5599980851e+00 6.9965414269e-05 1.7500912350e+00 -3.0312469369e+00 1.7500912350e+00 3.0312469369e+00 
137200 6.5599980850e+00 7.0162397868e-05 1.7500912350e+00 -3.0312469369e+00 1.7500912350e+00 3.0312469369e+00 
137300 6.5599980850e+00 7.0359264007e-05 1.7500912350e+00 -3.0312469369e+00 1.7500912350e+00 3.0312469369e+00 
137400 6.5599980849e+00 7.0556039879e-05 1.7500912350e+00 -3.0312469369e+00 1.7500912350e+00 3.0312469369e+00 
137500 6.5599980848e+00 7.0752751108e-05 1.7500912350e+00 -3.0312469369e+00 1.7500912350e+00 3.0312469369e+00 
137600 6.5599980846e+00 6.9098156559e-05 1.7500892136e+00 -3.0312434358e+00 1.7500892136e+00 3.0312434358e+00 
137700 6.5599980846e+00 6.9285200594e-05 1.7500892136e+00 -3.0312434358e+00 1.7500892136e+00 3.0312434358e+00 
137800 6.5599980845e+00 6.9472006019e-05 1.7500892136e+00 -3.0312434358e+00 1.7500892136e+00 3.0312434358e+00 
137900 6.5599980844e+00 6.9658604761e-05 1.7500892136e+00 -3.0312434358e+00 1.7500892136e+00 3.0312434358e+00 
138000 6.5599980844e+00 6.9845027612e-05 1.7500892136e+00 -3.0312434358e+00 1.7500892136e+00 3.0312434358e+00 
138100 6.5599980843e+00 7.0031304126e-05 1.7500892136e+00 -3.0312434358e+00 1.7500892136e+00 3.0312434358e+00 
138200 6.5599980843e+00 7.0217462528e-05 1.7500892136e+00 -3.0312434358e+00 1.7500892136e+00 3.0312434358e+00 
138300 6.5599980842e+00 7.0403529634e-05 1.7500892136e+00 -3.0312434358e+00 1.7500892136e+00 3.0312434358e+00 
138400 6.5599980841e+00 7.0589530785e-05 1.7500892136e+00 -3.0312434358e+00 1.7500892136e+00 3.0312434358e+00 
138500 6.5599980841e+00 7.0775489779e-05 1.7500892136e+00 -3.0312434358e+00 1.7500892136e+00 3.0312434358e+00 
138600 6.5599980839e+00 6.9109559326e-05 1.7500871916e+00 -3.0312399335e+00 1.7500871916e+00 3.0312399335e+00 
138700 6.5599980838e+00 6.9285887502e-05 1.7500871916e+00 -3.0312399335e+00 1.7500871916e+00 3.0312399335e+00 
138800 6.5599980837e+00 6.9461994226e-05 1.7500871916e+00 -3.0312399335e+00 1.7500871916e+00 3.0312399335e+00 
138900 6.5599980837e+00 6.9637909773e-05 1.7500871916e+00 -3.0312399335e+00 1.7500871916e+00 3.0312399335e+00 
139000 6.5599980836e+00 6.9813663342e-05 1.7500871916e+00 -3.0312399335e+00 1.7500871916e+00 3.0312399335e+00 
139100 6.5599980836e+00 6.9989282957e-05 1.7500871916e+00 -3.0312399335e+00 1.7500871916e+00 3.0312399335e+00 
139200 6.5599980835e+00 7.0164795382e-05 1.7500871916e+00 -3.0312399335e+00 1.7500871916e+00 3.0312399335e+00 
139300 6.5599980835e+00 7.0340226049e-05 1.7500871916e+00 -3.0312399335e+00 1.7500871916e+00 3.0312399335e+00 
139400 6.5599980834e+00 7.0515598984e-05 1.7500871916e+00 -3.0312399335e+00 1.7500871916e+00 3.0312399335e+00 
139500 6.5599980834e+00 7.0690936756e-05 1.7500871916e+00 -3.0312399335e+00 1.7500871916e+00 3.0312399335e+00 
139600 6.5599980833e+00 7.0866260415e-05 1.7500871916e+00 -3.0312399335e+00 1.7500871916e+00 3.0312399335e+00 
139700 6.5599980831e+00 6.9187335395e-05 1.7500851669e+00 -3.0312364267e+00 1.7500851669e+00 3.0312364267e+00 
139800 6.5599980831e+00 6.9353063767e-05 1.7500851669e+00 -3.0312364267e+00 1.7500851669e+00 3.0312364267e+00 
139900 6.5599980830e+00 6.9518590478e-05 1.7500851669e+00 -3.0312364267e+00 1.7500851669e+00 3.0312364267e+00 
140000 6.5599980830e+00 6.9683943291e-05 1.7500851669e+00 -3.0312364267e+00 1.7500851669e+00 3.0312364267e+00 
140100 6.5599980829e+00 6.9849148964e-05 1.7500851669e+00 -3.0312364267e+00 1.7500851669e+00 3.0312364267e+00 
140200 6.5599980829e+00 7.0014233163e-05 1.7500851669e+00 -3.0312364267e+00 1.7500851669e+00 3.0312364267e+00 
140300 6.5599980828e+00 7.0179220384e-05 1.7500851669e+00 -3.0312364267e+00 1.7500851669e+00 3.0312364267e+00 
140400 6.5599980828e+00 7.0344133881e-05 1.7500851669e+00 -3.0312364267e+00 1.7500851669e+00 3.0312364267e+00 
140500 6.5599980827e+00 7.0508995603e-05 1.7500851669e+00 -3.0312364267e+00 1.7500851669e+00 3.0312364267e+00 
140600 6.5599980827e+00 7.0673826139e-05 1.7500851669e+00 -3.0312364267e+00 1.7500851669e+00 3.0312364267e+00 
140700 6.5599980826e+00 7.0838644677e-05 1.7500851669e+00 -3.0312364267e+00 1.7500851669e+00 3.0312364267e+00 
140800 6.5599980824e+00 6.9149928092e-05 1.7500831431e+00 -3.0312329212e+00 1.7500831431e+00 3.0312329212e+00 
140900 6.5599980824e+00 6.9305153991e-05 1.7500831431e+00 -3.0312329212e+00 1.7500831431e+00 3.0312329212e+00 
141000 6.5599980823e+00 6.9460175501e-05 1.7500831431e+00 -3.0312329212e+00 1.7500831431e+00 3.0312329212e+00 
141100 6.5599980823e+00 6.9615018966e-05 1.7500831431e+00 -3.0312329212e+00 1.7500831431e+00 3.0312329212e+00 
141200 6.5599980823e+00 6.9769709840e-05 1.7500831431e+00 -3.0312329212e+00 1.7500831431e+00 3.0312329212e+00 
141300 6.5599980822e+00 6.9924272609e-05 1.7500831431e+00 -3.0312329212e+00 1.7500831431e+00 3.0312329212e+00 
141400 6.5599980822e+00 7.0078730702e-05 1.7500831431e+00 -3.0312329212e+00 1.7500831431e+00 3.0312329212e+00 
141500 6.5599980821e+00 7.0233106428e-05 1.7500831431e+00 -3.0312329212e+00 1.7500831431e+00 3.0312329212e+00 
141600 6.5599980821e+00 7.0387420913e-05 1.7500831431e+00 -3.0312329212e+00 1.7500831431e+00 3.0312329212e+00 
141700 6.5599980820e+00 7.0541694043e-05 1.7500831431e+00 -3.0312329212e+00 1.7500831431e+00 3.0312329212e+00 
141800 6.5599980820e+00 7.0695944415e-05 1.7500831431e+00 -3.0312329212e+00 1.7500831431e+00 3.0312329212e+00 
141900 6.5599980820e+00 7.0850189304e-05 1.7500831431e+00 -3.0312329212e+00 1.7500831431e+00 3.0312329212e+00 
142000 6.5599980818e+00 6.9150592255e-05 1.7500811189e+00 -3.0312294152e+00 1.7500811189e+00 3.0312294152e+00 
142100 6.5599980817e+00 6.9295250403e-05 1.7500811189e+00 -3.0312294152e+00 1.7500811189e+00 3.0312294152e+00 
142200 6.5599980817e+00 6.9439705428e-05 1.7500811189e+00 -3.0312294152e+00 1.7500811189e+00 3.0312294152e+00 
142300 6.5599980817e+00 6.9583982120e-05 1.7500811189e+00 -3.0312294152e+00 1.7500811189e+00 3.0312294152e+00 
142400 6.5599980816e+00 6.9728104487e-05 1.7500811189e+00 -3.0312294152e+00 1.7500811189e+00 3.0312294152e+00 
142500 6.5599980816e+00 6.9872095664e-05 1.7500811189e+00 -3.0312294152e+00 1.7500811189e+00 3.0312294152e+00 
142600 6.5599980815e+00 7.0015977838e-05 1.7500811189e+00 -3.0312294152e+00 1.7500811189e+00 3.0312294152e+00 
142700 6.5599980815e+00 7.0159772187e-05 1.7500811189e+00 -3.0312294152e+00 1.7500811189e+00 3.0312294152e+00 
142800 6.5599980815e+00 7.0303498808e-05 1.7500811189e+00 -3.0312294152e+00 1.7500811189e+00 3.0312294152e+00 
142900 6.5599980814e+00 7.0447176669e-05 1.7500811189e+00 -3.0312294152e+00 1.7500811189e+00 3.0312294152e+00 
143000 6.5599980814e+00 7.0590823563e-05 1.7500811189e+00 -3.0312294152e+00 1.7500811189e+00 3.0312294152e+00 
143100 6.5599980814e+00 7.0734456064e-05 1.7500811189e+00 -3.0312294152e+00 1.7500811189e+00 3.0312294152e+00 
143200 6.5599980812e+00 6.9027256165e-05 1.7500790980e+00 -3.0312259150e+00 1.7500790980e+00 3.0312259150e+00 
143300 6.5599980811e+00 6.9161298034e-05 1.7500790980e+00 -3.0312259150e+00 1.7500790980e+00 3.0312259150e+00 
143400 6.5599980811e+00 6.9295126842e-05 1.7500790980e+00 -3.0312259150e+00 1.7500790980e+00 3.0312259150e+00 
143500 6.5599980811e+00 6.9428767102e-05 1.7500790980e+00 -3.0312259150e+00 1.7500790980e+00 3.0312259150e+00 
143600 6.5599980810e+00 6.9562242642e-05 1.7500790980e+00 -3.0312259150e+00 1.7500790980e+00 3.0312259150e+00 
143700 6.5599980810e+00 6.9695576531e-05 1.7500790980e+00 -3.0312259150e+00 1.7500790980e+00 3.0312259150e+00 
143800 6.5599980810e+00 6.9828790986e-05 1.7500790980e+00 -3.0312259150e+00 1.7500790980e+00 3.0312259150e+00 
143900 6.5599980810e+00 6.9961907314e-05 1.7500790980e+00 -3.0312259150e+00 1.7500790980e+00 3.0312259150e+00 
144000 6.5599980809e+00 7.0073664102e-05 1.7500790980e+00 -3.0312259150e+00 1.7500790980e+00 3.0312259150e+00 
144000 6.5599980809e+00 7.0073664102e-05 1.7500790980e+00 -3.0312259150e+00 1.7500790980e+00 3.0312259150e+00 
