# step Hamiltonian StressXX CellTensor1 CellTensor2 CellTensor3 CellTensor4 
0 5.7777482969e+00 3.8940692346e-02 1.7438352029e+00 -3.0204111715e+00 1.7438352029e+00 3.0204111715e+00 
100 5.7759120059e+00 3.9945402017e-02 1.7438352029e+00 -3.0204111715e+00 1.7438352029e+00 3.0204111715e+00 
200 5.7742336610e+00 3.9636615385e-02 1.7426899965e+00 -3.0184276157e+00 1.7426899965e+00 3.0184276157e+00 
300 5.7727489947e+00 3.9061995524e-02 1.7415528952e+00 -3.0164580985e+00 1.7415528952e+00 3.0164580985e+00 
400 5.7714423195e+00 3.8241753756e-02 1.7404315453e+00 -3.0145158636e+00 1.7404315453e+00 3.0145158636e+00 
500 5.7702984184e+00 3.7195571862e-02 1.7393330325e+00 -3.0126131836e+00 1.7393330325e+00 3.0126131836e+00 
600 5.7693025492e+00 3.5942560059e-02 1.7382638940e+00 -3.0107613813e+00 1.7382638940e+00 3.0107613813e+00 
700 5.7684404552e+00 3.4501222209e-02 1.7372301328e+00 -3.0089708544e+00 1.7372301328e+00 3.0089708544e+00 
800 5.7676983821e+00 3.2889427859e-02 1.7362372323e+00 -3.0072511003e+00 1.7362372323e+00 3.0072511003e+00 
900 5.7670630975e+00 3.1124390664e-02 1.7352901717e+00 -3.0056107433e+00 1.7352901717e+00 3.0056107433e+00 
1000 5.7665219133e+00 2.9222652729e-02 1.7343934425e+00 -3.0040575627e+00 1.7343934425e+00 3.0040575627e+00 
1100 5.7660627088e+00 2.7200074382e-02 1.7335510648e+00 -3.0025985218e+00 1.7335510648e+00 3.0025985218e+00 
1200 5.7656739536e+00 2.5071828907e-02 1.7327666051e+00 -3.0012397976e+00 1.7327666051e+00 3.0012397976e+00 
1300 5.7653447289e+00 2.2852401718e-02 1.7320431930e+00 -2.9999868113e+00 1.7320431930e+00 2.9999868113e+00 
1400 5.7650647480e+00 2.0555593512e-02 1.7313835400e+00 -2.9988442587e+00 1.7313835400e+00 2.9988442587e+00 
1500 5.7648243731e+00 1.8194526916e-02 1.7307899564e+00 -2.9978161417e+00 1.7307899564e+00 2.9978161417e+00 
1600 5.7646146293e+00 1.5781656155e-02 1.7302643696e+00 -2.9969057987e+00 1.7302643696e+00 2.9969057987e+00 
1700 5.7644272156e+00 1.3328779315e-02 1.7298083421e+00 -2.9961159359e+00 1.7298083421e+00 2.9961159359e+00 
1800 5.7642545115e+00 1.0847052771e-02 1.7294230889e+00 -2.9954486578e+00 1.7294230889e+00 2.9954486578e+00 
1900 5.7640895795e+00 8.3470073778e-03 1.7291094952e+00 -2.9949054975e+00 1.7291094952e+00 2.9949054975e+00 
2000 5.7639261642e+00 5.8385660764e-03 1.7288681336e+00 -2.9944874469e+00 1.7288681336e+00 2.9944874469e+00 
2100 5.7637586867e+00 3.3310625591e-03 1.7286992812e+00 -2.9941949860e+00 1.7286992812e+00 2.9941949860e+00 
2200 5.7635822356e+00 8.3326069710e-04 1.7286029361e+00 -2.9940281115e+00 1.7286029361e+00 2.9940281115e+00 
2300 5.7633925532e+00 -1.6466255468e-03 1.7285788341e+00 -2.9939863655e+00 1.7285788341e+00 2.9939863655e+00 
2400 5.7631860192e+00 -4.1009119665e-03 1.7286264637e+00 -2.9940688625e+00 1.7286264637e+00 2.9940688625e+00 
2500 5.7629596297e+00 -6.5224239350e-03 1.7287450827e+00 -2.9942743166e+00 1.7287450827e+00 2.9942743166e+00 
2600 5.7627109745e+00 -8.9044763861e-03 1.7289337324e+00 -2.9946010674e+00 1.7289337324e+00 2.9946010674e+00 
2700 5.7624382100e+00 -1.1240854113e-02 1.7291912523e+00 -2.9950471050e+00 1.7291912523e+00 2.9950471050e+00 
2800 5.7621400310e+00 -1.3525792513e-02 1.7295162946e+00 -2.9956100947e+00 1.7295162946e+00 2.9956100947e+00 
2900 5.7618156390e+00 -1.5753958888e-02 1.7299073375e+00 -2.9962874009e+00 1.7299073375e+00 2.9962874009e+00 
3000 5.7614647099e+00 -1.7920434376e-02 1.7303626986e+00 -2.9970761095e+00 1.7303626986e+00 2.9970761095e+00 
3100 5.7610873591e+00 -2.0020696592e-02 1.7308805475e+00 -2.9979730501e+00 1.7308805475e+00 2.9979730501e+00 
3200 5.7606841064e+00 -2.2050603003e-02 1.7314589182e+00 -2.9989748175e+00 1.7314589182e+00 2.9989748175e+00 
3300 5.7602558394e+00 -2.4006375078e-02 1.7320957209e+00 -3.0000777921e+00 1.7320957209e+00 3.0000777921e+00 
3400 5.7598037768e+00 -2.5884583232e-02 1.7327887534e+00 -3.0012781597e+00 1.7327887534e+00 3.0012781597e+00 
3500 5.7593294316e+00 -2.7682132542e-02 1.7335357124e+00 -3.0025719306e+00 1.7335357124e+00 3.0025719306e+00 
3600 5.7588345739e+00 -2.9396249251e-02 1.7343342035e+00 -3.0039549578e+00 1.7343342035e+00 3.0039549578e+00 
3700 5.7583211948e+00 -3.1024468027e-02 1.7351817519e+00 -3.0054229546e+00 1.7351817519e+00 3.0054229546e+00 
3800 5.7577914707e+00 -3.2564619951e-02 1.7360758118e+00 -3.0069715119e+00 1.7360758118e+00 3.0069715119e+00 
3900 5.7572477281e+00 -3.4014821211e-02 1.7370137763e+00 -3.0085961141e+00 1.7370137763e+00 3.0085961141e+00 
4000 5.7566924104e+00 -3.5373462453e-02 1.7379929860e+00 -3.0102921550e+00 1.7379929860e+00 3.0102921550e+00 
4100 5.7561280453e+00 -3.6639198759e-02 1.7390107379e+00 -3.0120549530e+00 1.7390107379e+00 3.0120549530e+00 
4200 5.7555572135e+00 -3.7810940201e-02 1.7400642937e+00 -3.0138797651e+00 1.7400642937e+00 3.0138797651e+00 
4300 5.7549825201e+00 -3.8887842935e-02 1.7411508878e+00 -3.0157618013e+00 1.7411508878e+00 3.0157618013e+00 
4400 5.7544065665e+00 -3.9869300782e-02 1.7422677352e+00 -3.0176962378e+00 1.7422677352e+00 3.0176962378e+00 
4500 5.7538319249e+00 -4.0754937253e-02 1.7434120387e+00 -3.0196782296e+00 1.7434120387e+00 3.0196782296e+00 
4600 5.7532611145e+00 -4.1544597978e-02 1.7445809961e+00 -3.0217029232e+00 1.7445809961e+00 3.0217029232e+00 
4700 5.7526965796e+00 -4.2238343482e-02 1.7457718070e+00 -3.0237654681e+00 1.7457718070e+00 3.0237654681e+00 
4800 5.7521406700e+00 -4.2836442283e-02 1.7469816793e+00 -3.0258610284e+00 1.7469816793e+00 3.0258610284e+00 
4900 5.7515956229e+00 -4.3339364246e-02 1.7482078355e+00 -3.0279847933e+00 1.7482078355e+00 3.0279847933e+00 
5000 5.7510635476e+00 -4.3747774182e-02 1.7494475188e+00 -3.0301319878e+00 1.7494475188e+00 3.0301319878e+00 
5100 5.7505464114e+00 -4.4062525622e-02 1.7506979988e+00 -3.0322978826e+00 1.7506979988e+00 3.0322978826e+00 
5200 5.7500460285e+00 -4.4284654755e-02 1.7519565768e+00 -3.0344778037e+00 1.7519565768e+00 3.0344778037e+00 
5300 5.7495640498e+00 -4.4415374483e-02 1.7532205915e+00 -3.0366671413e+00 1.7532205915e+00 3.0366671413e+00 
5400 5.7491019556e+00 -4.4456068559e-02 1.7544874235e+00 -3.0388613587e+00 1.7544874235e+00 3.0388613587e+00 
5500 5.7486610495e+00 -4.4408285779e-02 1.7557545005e+00 -3.0410560005e+00 1.7557545005e+00 3.0410560005e+00 
5600 5.7482424544e+00 -4.4273734207e-02 1.7570193019e+00 -3.0432467007e+00 1.7570193019e+00 3.0432467007e+00 
5700 5.7478471103e+00 -4.4054275393e-02 1.7582793626e+00 -3.0454291900e+00 1.7582793626e+00 3.0454291900e+00 
5800 5.7474757738e+00 -4.3751918566e-02 1.7595322779e+00 -3.0475993030e+00 1.7595322779e+00 3.0475993030e+00 
5900 5.7471290186e+00 -4.3368814781e-02 1.7607757069e+00 -3.0497529851e+00 1.7607757069e+00 3.0497529851e+00 
6000 5.7468072382e+00 -4.2907250993e-02 1.7620073762e+00 -3.0518862988e+00 1.7620073762e+00 3.0518862988e+00 
6100 5.7465106498e+00 -4.2369644043e-02 1.7632250836e+00 -3.0539954300e+00 1.7632250836e+00 3.0539954300e+00 
6200 5.7462392992e+00 -4.1758534539e-02 1.7644267014e+00 -3.0560766930e+00 1.7644267014e+00 3.0560766930e+00 
6300 5.7459930667e+00 -4.1076580613e-02 1.7656101793e+00 -3.0581265368e+00 1.7656101793e+00 3.0581265368e+00 
6400 5.7457716753e+00 -4.0326551547e-02 1.7667735473e+00 -3.0601415493e+00 1.7667735473e+00 3.0601415493e+00 
6500 5.7455746978e+00 -3.9511321248e-02 1.7679149185e+00 -3.0621184623e+00 1.7679149185e+00 3.0621184623e+00 
6600 5.7454015668e+00 -3.8633861577e-02 1.7690324915e+00 -3.0640541556e+00 1.7690324915e+00 3.0640541556e+00 
6700 5.7452515842e+00 -3.7697235504e-02 1.7701245527e+00 -3.0659456610e+00 1.7701245527e+00 3.0659456610e+00 
6800 5.7451239315e+00 -3.6704590102e-02 1.7711894781e+00 -3.0677901660e+00 1.7711894781e+00 3.0677901660e+00 
6900 5.7450176811e+00 -3.5659149380e-02 1.7722257356e+00 -3.0695850165e+00 1.7722257356e+00 3.0695850165e+00 
7000 5.7449318075e+00 -3.4564206928e-02 1.7732318862e+00 -3.0713277206e+00 1.7732318862e+00 3.0713277206e+00 
7100 5.7448651990e+00 -3.3423118410e-02 1.7742065859e+00 -3.0730159500e+00 1.7742065859e+00 3.0730159500e+00 
7200 5.7448166698e+00 -3.2239293887e-02 1.7751485866e+00 -3.0746475429e+00 1.7751485866e+00 3.0746475429e+00 
7300 5.7447849718e+00 -3.1016189984e-02 1.7760567371e+00 -3.0762205057e+00 1.7760567371e+00 3.0762205057e+00 
7400 5.7447688067e+00 -2.9757301907e-02 1.7769299842e+00 -3.0777330142e+00 1.7769299842e+00 3.0777330142e+00 
7500 5.7447668380e+00 -2.8466155332e-02 1.7777673734e+00 -3.0791834147e+00 1.7777673734e+00 3.0791834147e+00 
7600 5.7447777030e+00 -2.7146298166e-02 1.7785680487e+00 -3.0805702251e+00 1.7785680487e+00 3.0805702251e+00 
7700 5.7448000236e+00 -2.5801292206e-02 1.7793312537e+00 -3.0818921349e+00 1.7793312537e+00 3.0818921349e+00 
7800 5.7448324185e+00 -2.4434704710e-02 1.7800563307e+00 -3.0831480051e+00 1.7800563307e+00 3.0831480051e+00 
7900 5.7448735129e+00 -2.3050099910e-02 1.7807427212e+00 -3.0843368683e+00 1.7807427212e+00 3.0843368683e+00 
8000 5.7449219498e+00 -2.1651030478e-02 1.7813899650e+00 -3.0854579275e+00 1.7813899650e+00 3.0854579275e+00 
8100 5.7449763989e+00 -2.0241028980e-02 1.7819977000e+00 -3.0865105554e+00 1.7819977000e+00 3.0865105554e+00 
8200 5.7450355664e+00 -1.8823599343e-02 1.7825656610e+00 -3.0874942927e+00 1.7825656610e+00 3.0874942927e+00 
8300 5.7450982030e+00 -1.7402208361e-02 1.7830936788e+00 -3.0884088464e+00 1.7830936788e+00 3.0884088464e+00 
8400 5.7451631119e+00 -1.5980277278e-02 1.7835816791e+00 -3.0892540876e+00 1.7835816791e+00 3.0892540876e+00 
8500 5.7452291560e+00 -1.4561173467e-02 1.7840296806e+00 -3.0900300490e+00 1.7840296806e+00 3.0900300490e+00 
8600 5.7452952638e+00 -1.3148202259e-02 1.7844377940e+00 -3.0907369221e+00 1.7844377940e+00 3.0907369221e+00 
8700 5.7453604353e+00 -1.1744598924e-02 1.7848062197e+00 -3.0913750541e+00 1.7848062197e+00 3.0913750541e+00 
8800 5.7454237462e+00 -1.0353520872e-02 1.7851352459e+00 -3.0919449442e+00 1.7851352459e+00 3.0919449442e+00 
8900 5.7454843523e+00 -8.9780400811e-03 1.7854252463e+00 -3.0924472398e+00 1.7854252463e+00 3.0924472398e+00 
9000 5.7455414922e+00 -7.6211357999e-03 1.7856766780e+00 -3.0928827323e+00 1.7856766780e+00 3.0928827323e+00 
9100 5.7455944894e+00 -6.2856875493e-03 1.7858900786e+00 -3.0932523529e+00 1.7858900786e+00 3.0932523529e+00 
9200 5.7456427541e+00 -4.9744684612e-03 1.7860660634e+00 -3.0935571675e+00 1.7860660634e+00 3.0935571675e+00 
9300 5.7456857836e+00 -3.6901389806e-03 1.7862053229e+00 -3.0937983720e+00 1.7862053229e+00 3.0937983720e+00 
9400 5.7457231619e+00 -2.4352409590e-03 1.7863086194e+00 -3.0939772868e+00 1.7863086194e+00 3.0939772868e+00 
9500 5.7457545594e+00 -1.2121921693e-03 1.7863767839e+00 -3.0940953511e+00 1.7863767839e+00 3.0940953511e+00 
9600 5.7457797306e+00 -2.3281262720e-05 1.7864107128e+00 -3.0941541177e+00 1.7864107128e+00 3.0941541177e+00 
9700 5.7457985108e+00 1.1287388755e-03 1.7864107128e+00 -3.0941541177e+00 1.7864107128e+00 3.0941541177e+00 
9800 5.7458108179e+00 2.2430584688e-03 1.7863791205e+00 -3.0940993983e+00 1.7863791205e+00 3.0940993983e+00 
9900 5.7458166441e+00 3.3171914863e-03 1.7863163386e+00 -3.0939906569e+00 1.7863163386e+00 3.0939906569e+00 
10000 5.7458160533e+00 4.3494066531e-03 1.7862234894e+00 -3.0938298372e+00 1.7862234894e+00 3.0938298372e+00 
10100 5.7458091770e+00 5.3381196849e-03 1.7861017421e+00 -3.0936189648e+00 1.7861017421e+00 3.0936189648e+00 
10200 5.7457962093e+00 6.2818952973e-03 1.7859523092e+00 -3.0933601395e+00 1.7859523092e+00 3.0933601395e+00 
10300 5.7457774018e+00 7.1794486751e-03 1.7857764425e+00 -3.0930555294e+00 1.7857764425e+00 3.0930555294e+00 
10400 5.7457530582e+00 8.0296464000e-03 1.7855754287e+00 -3.0927073632e+00 1.7855754287e+00 3.0927073632e+00 
10500 5.7457235283e+00 8.8315068389e-03 1.7853505858e+00 -3.0923179240e+00 1.7853505858e+00 3.0923179240e+00 
10600 5.7456892027e+00 9.5841999964e-03 1.7851032590e+00 -3.0918895413e+00 1.7851032590e+00 3.0918895413e+00 
10700 5.7456505063e+00 1.0287046840e-02 1.7848348162e+00 -3.0914245849e+00 1.7848348162e+00 3.0914245849e+00 
10800 5.7456078926e+00 1.0939518108e-02 1.7845466448e+00 -3.0909254572e+00 1.7845466448e+00 3.0909254572e+00 
10900 5.7455618378e+00 1.1541232615e-02 1.7842401466e+00 -3.0903945868e+00 1.7842401466e+00 3.0903945868e+00 
11000 5.7455128344e+00 1.2091955070e-02 1.7839167349e+00 -3.0898344213e+00 1.7839167349e+00 3.0898344213e+00 
11100 5.7454613863e+00 1.2591593427e-02 1.7835778297e+00 -3.0892474203e+00 1.7835778297e+00 3.0892474203e+00 
11200 5.7454080023e+00 1.3040195783e-02 1.7832248544e+00 -3.0886360492e+00 1.7832248544e+00 3.0886360492e+00 
11300 5.7453531912e+00 1.3437946863e-02 1.7828592317e+00 -3.0880027721e+00 1.7828592317e+00 3.0880027721e+00 
11400 5.7452974565e+00 1.3785164096e-02 1.7824823799e+00 -3.0873500457e+00 1.7824823799e+00 3.0873500457e+00 
11500 5.7452412915e+00 1.4082293326e-02 1.7820957095e+00 -3.0866803128e+00 1.7820957095e+00 3.0866803128e+00 
11600 5.7451851751e+00 1.4329904175e-02 1.7817006192e+00 -3.0859959964e+00 1.7817006192e+00 3.0859959964e+00 
11700 5.7451295674e+00 1.4528685096e-02 1.7812984932e+00 -3.0852994936e+00 1.7812984932e+00 3.0852994936e+00 
11800 5.7450749057e+00 1.4679438147e-02 1.7808906971e+00 -3.0845931701e+00 1.7808906971e+00 3.0845931701e+00 
11900 5.7450216018e+00 1.4783073502e-02 1.7804785755e+00 -3.0838793545e+00 1.7804785755e+00 3.0838793545e+00 
12000 5.7449700384e+00 1.4840603757e-02 1.7800634483e+00 -3.0831603332e+00 1.7800634483e+00 3.0831603332e+00 
12100 5.7449205669e+00 1.4853138043e-02 1.7796466086e+00 -3.0824383456e+00 1.7796466086e+00 3.0824383456e+00 
12200 5.7448735053e+00 1.4821875976e-02 1.7792293191e+00 -3.0817155789e+00 1.7792293191e+00 3.0817155789e+00 
12300 5.7448291364e+00 1.4748101503e-02 1.7788128101e+00 -3.0809941643e+00 1.7788128101e+00 3.0809941643e+00 
12400 5.7447877067e+00 1.4633176637e-02 1.7783982772e+00 -3.0802761723e+00 1.7783982772e+00 3.0802761723e+00 
12500 5.7447494256e+00 1.4478535145e-02 1.7779868786e+00 -3.0795636090e+00 1.7779868786e+00 3.0795636090e+00 
12600 5.7447144650e+00 1.4285676194e-02 1.7775797333e+00 -3.0788584125e+00 1.7775797333e+00 3.0788584125e+00 
12700 5.7446829590e+00 1.4056158006e-02 1.7771779190e+00 -3.0781624498e+00 1.7771779190e+00 3.0781624498e+00 
12800 5.7446550049e+00 1.3791591527e-02 1.7767824708e+00 -3.0774775134e+00 1.7767824708e+00 3.0774775134e+00 
12900 5.7446306632e+00 1.3493634150e-02 1.7763943791e+00 -3.0768053189e+00 1.7763943791e+00 3.0768053189e+00 
13000 5.7446099592e+00 1.3163983518e-02 1.7760145886e+00 -3.0761475025e+00 1.7760145886e+00 3.0761475025e+00 
13100 5.7445928839e+00 1.2804371418e-02 1.7756439969e+00 -3.0755056188e+00 1.7756439969e+00 3.0755056188e+00 
13200 5.7445793962e+00 1.2416557793e-02 1.7752834534e+00 -3.0748811392e+00 1.7752834534e+00 3.0748811392e+00 
13300 5.7445694240e+00 1.2002324898e-02 1.7749337586e+00 -3.0742754499e+00 1.7749337586e+00 3.0742754499e+00 
13400 5.7445628672e+00 1.1563471602e-02 1.7745956630e+00 -3.0736898513e+00 1.7745956630e+00 3.0736898513e+00 
13500 5.7445595990e+00 1.1101807868e-02 1.7742698672e+00 -3.0731255563e+00 1.7742698672e+00 3.0731255563e+00 
13600 5.7445594691e+00 1.0619149414e-02 1.7739570207e+00 -3.0725836903e+00 1.7739570207e+00 3.0725836903e+00 
13700 5.7445623057e+00 1.0117312562e-02 1.7736577223e+00 -3.0720652902e+00 1.7736577223e+00 3.0720652902e+00 
13800 5.7445679185e+00 9.5981093083e-03 1.7733725195e+00 -3.0715713046e+00 1.7733725195e+00 3.0715713046e+00 
13900 5.7445761012e+00 9.0633425886e-03 1.7731019090e+00 -3.0711025934e+00 1.7731019090e+00 3.0711025934e+00 
14000 5.7445866339e+00 8.5148017778e-03 1.7728463364e+00 -3.0706599287e+00 1.7728463364e+00 3.0706599287e+00 
14100 5.7445992866e+00 7.9542584072e-03 1.7726061969e+00 -3.0702439949e+00 1.7726061969e+00 3.0702439949e+00 
14200 5.7446138209e+00 7.3834621123e-03 1.7723818354e+00 -3.0698553894e+00 1.7723818354e+00 3.0698553894e+00 
14300 5.7446299933e+00 6.8041368107e-03 1.7721735474e+00 -3.0694946240e+00 1.7721735474e+00 3.0694946240e+00 
14400 5.7446475576e+00 6.2179771113e-03 1.7719815794e+00 -3.0691621256e+00 1.7719815794e+00 3.0691621256e+00 
14500 5.7446662670e+00 5.6266449544e-03 1.7718061296e+00 -3.0688582377e+00 1.7718061296e+00 3.0688582377e+00 
14600 5.7446858770e+00 5.0317664808e-03 1.7716473493e+00 -3.0685832220e+00 1.7716473493e+00 3.0685832220e+00 
14700 5.7447061470e+00 4.4349291279e-03 1.7715053430e+00 -3.0683372600e+00 1.7715053430e+00 3.0683372600e+00 
14800 5.7447268428e+00 3.8376789492e-03 1.7713801705e+00 -3.0681204548e+00 1.7713801705e+00 3.0681204548e+00 
14900 5.7447477380e+00 3.2415181533e-03 1.7712718470e+00 -3.0679328331e+00 1.7712718470e+00 3.0679328331e+00 
15000 5.7447686164e+00 2.6479028570e-03 1.7711803453e+00 -3.0677743474e+00 1.7711803453e+00 3.0677743474e+00 
15100 5.7447892728e+00 2.0582410486e-03 1.7711055961e+00 -3.0676448781e+00 1.7711055961e+00 3.0676448781e+00 
15200 5.7448095148e+00 1.4738907535e-03 1.7710474903e+00 -3.0675442359e+00 1.7710474903e+00 3.0675442359e+00 
15300 5.7448291637e+00 8.9615839852e-04 1.7710058798e+00 -3.0674721643e+00 1.7710058798e+00 3.0674721643e+00 
15400 5.7448480555e+00 3.2629736603e-04 1.7709805790e+00 -3.0674283421e+00 1.7709805790e+00 3.0674283421e+00 
15500 5.7448660421e+00 -2.3449326659e-04 1.7709713667e+00 -3.0674123859e+00 1.7709713667e+00 3.0674123859e+00 
15600 5.7448829910e+00 -7.8506981056e-04 1.7709779872e+00 -3.0674238529e+00 1.7709779872e+00 3.0674238529e+00 
15700 5.7448987868e+00 -1.3243448783e-03 1.7710001521e+00 -3.0674622436e+00 1.7710001521e+00 3.0674622436e+00 
15800 5.7449133303e+00 -1.8512881323e-03 1.7710375420e+00 -3.0675270048e+00 1.7710375420e+00 3.0675270048e+00 
15900 5.7449265395e+00 -2.3649268767e-03 1.7710898078e+00 -3.0676175320e+00 1.7710898078e+00 3.0676175320e+00 
16000 5.7449383490e+00 -2.8643464988e-03 1.7711565730e+00 -3.0677331726e+00 1.7711565730e+00 3.0677331726e+00 
16100 5.7449487098e+00 -3.3486907671e-03 1.7712374345e+00 -3.0678732289e+00 1.7712374345e+00 3.0678732289e+00 
16200 5.7449575891e+00 -3.8171619924e-03 1.7713319651e+00 -3.0680369606e+00 1.7713319651e+00 3.0680369606e+00 
16300 5.7449649695e+00 -4.2690210571e-03 1.7714397145e+00 -3.0682235881e+00 1.7714397145e+00 3.0682235881e+00 
16400 5.7449708485e+00 -4.7035873221e-03 1.7715602117e+00 -3.0684322953e+00 1.7715602117e+00 3.0684322953e+00 
16500 5.7449752380e+00 -5.1202384129e-03 1.7716929660e+00 -3.0686622326e+00 1.7716929660e+00 3.0686622326e+00 
16600 5.7449781630e+00 -5.5184098950e-03 1.7718374693e+00 -3.0689125195e+00 1.7718374693e+00 3.0689125195e+00 
16700 5.7449796608e+00 -5.8975948404e-03 1.7719931972e+00 -3.0691822482e+00 1.7719931972e+00 3.0691822482e+00 
16800 5.7449797803e+00 -6.2573432943e-03 1.7721596111e+00 -3.0694704856e+00 1.7721596111e+00 3.0694704856e+00 
16900 5.7449785808e+00 -6.5972616430e-03 1.7723361597e+00 -3.0697762768e+00 1.7723361597e+00 3.0697762768e+00 
17000 5.7449761307e+00 -6.9170118924e-03 1.7725222807e+00 -3.0700986477e+00 1.7725222807e+00 3.0700986477e+00 
17100 5.7449725068e+00 -7.2163108576e-03 1.7727174020e+00 -3.0704366078e+00 1.7727174020e+00 3.0704366078e+00 
17200 5.7449677928e+00 -7.4949292719e-03 1.7729209440e+00 -3.0707891528e+00 1.7729209440e+00 3.0707891528e+00 
17300 5.7449620783e+00 -7.7526908163e-03 1.7731323206e+00 -3.0711552678e+00 1.7731323206e+00 3.0711552678e+00 
17400 5.7449554579e+00 -7.9894710764e-03 1.7733509407e+00 -3.0715339290e+00 1.7733509407e+00 3.0715339290e+00 
17500 5.7449480296e+00 -8.2051964288e-03 1.7735762103e+00 -3.0719241074e+00 1.7735762103e+00 3.0719241074e+00 
17600 5.7449398942e+00 -8.3998428619e-03 1.7738075332e+00 -3.0723247703e+00 1.7738075332e+00 3.0723247703e+00 
17700 5.7449311539e+00 -8.5734347346e-03 1.7740443128e+00 -3.0727348847e+00 1.7740443128e+00 3.0727348847e+00 
17800 5.7449219115e+00 -8.7260434760e-03 1.7742859536e+00 -3.0731534188e+00 1.7742859536e+00 3.0731534188e+00 
17900 5.7449122694e+00 -8.8577862310e-03 1.7745318622e+00 -3.0735793451e+00 1.7745318622e+00 3.0735793451e+00 
18000 5.7449023284e+00 -8.9688244528e-03 1.7747814490e+00 -3.0740116420e+00 1.7747814490e+00 3.0740116420e+00 
18100 5.7448921873e+00 -9.0593624488e-03 1.7750341291e+00 -3.0744492967e+00 1.7750341291e+00 3.0744492967e+00 
18200 5.7448819418e+00 -9.1296458797e-03 1.7752893236e+00 -3.0748913066e+00 1.7752893236e+00 3.0748913066e+00 
18300 5.7448716840e+00 -9.1799602177e-03 1.7755464610e+00 -3.0753366817e+00 1.7755464610e+00 3.0753366817e+00 
18400 5.7448615015e+00 -9.2106291659e-03 1.7758049781e+00 -3.0757844464e+00 1.7758049781e+00 3.0757844464e+00 
18500 5.7448514769e+00 -9.2220130412e-03 1.7760643212e+00 -3.0762336418e+00 1.7760643212e+00 3.0762336418e+00 
18600 5.7448416874e+00 -9.2145071256e-03 1.7763239468e+00 -3.0766833266e+00 1.7763239468e+00 3.0766833266e+00 
18700 5.7448322045e+00 -9.1885399868e-03 1.7765833233e+00 -3.0771325798e+00 1.7765833233e+00 3.0771325798e+00 
18800 5.7448230932e+00 -9.1445717728e-03 1.7768419310e+00 -3.0775805015e+00 1.7768419310e+00 3.0775805015e+00 
18900 5.7448144122e+00 -9.0830924828e-03 1.7770992637e+00 -3.0780262149e+00 1.7770992637e+00 3.0780262149e+00 
19000 5.7448062132e+00 -9.0046202175e-03 1.7773548294e+00 -3.0784688675e+00 1.7773548294e+00 3.0784688675e+00 
19100 5.7447985414e+00 -8.9096994115e-03 1.7776081506e+00 -3.0789076328e+00 1.7776081506e+00 3.0789076328e+00 
19200 5.7447914349e+00 -8.7988990516e-03 1.7778587657e+00 -3.0793417108e+00 1.7778587657e+00 3.0793417108e+00 
19300 5.7447849250e+00 -8.6728108833e-03 1.7781062292e+00 -3.0797703302e+00 1.7781062292e+00 3.0797703302e+00 
19400 5.7447790359e+00 -8.5320476084e-03 1.7783501125e+00 -3.0801927485e+00 1.7783501125e+00 3.0801927485e+00 
19500 5.7447737854e+00 -8.3772410784e-03 1.7785900045e+00 -3.0806082537e+00 1.7785900045e+00 3.0806082537e+00 
19600 5.7447691845e+00 -8.2090404839e-03 1.7788255120e+00 -3.0810161646e+00 1.7788255120e+00 3.0810161646e+00 
19700 5.7447652382e+00 -8.0281105461e-03 1.7790562603e+00 -3.0814158323e+00 1.7790562603e+00 3.0814158323e+00 
19800 5.7447619450e+00 -7.8351297113e-03 1.7792818934e+00 -3.0818066404e+00 1.7792818934e+00 3.0818066404e+00 
19900 5.7447592980e+00 -7.6307883529e-03 1.7795020747e+00 -3.0821880055e+00 1.7795020747e+00 3.0821880055e+00 
20000 5.7447572848e+00 -7.4157869827e-03 1.7797164869e+00 -3.0825593785e+00 1.7797164869e+00 3.0825593785e+00 
20100 5.7447558881e+00 -7.1908344766e-03 1.7799248328e+00 -3.0829202441e+00 1.7799248328e+00 3.0829202441e+00 
20200 5.7447550859e+00 -6.9566463151e-03 1.7801268349e+00 -3.0832701220e+00 1.7801268349e+00 3.0832701220e+00 
20300 5.7447548519e+00 -6.7139428443e-03 1.7803222360e+00 -3.0836085665e+00 1.7803222360e+00 3.0836085665e+00 
20400 5.7447551564e+00 -6.4634475590e-03 1.7805107991e+00 -3.0839351674e+00 1.7805107991e+00 3.0839351674e+00 
20500 5.7447559660e+00 -6.2058854115e-03 1.7806923076e+00 -3.0842495494e+00 1.7806923076e+00 3.0842495494e+00 
20600 5.7447572449e+00 -5.9419811483e-03 1.7808665653e+00 -3.0845513725e+00 1.7808665653e+00 3.0845513725e+00 
20700 5.7447589548e+00 -5.6724576795e-03 1.7810333962e+00 -3.0848403323e+00 1.7810333962e+00 3.0848403323e+00 
20800 5.7447610553e+00 -5.3980344818e-03 1.7811926449e+00 -3.0851161590e+00 1.7811926449e+00 3.0851161590e+00 
20900 5.7447635048e+00 -5.1194260392e-03 1.7813441757e+00 -3.0853786180e+00 1.7813441757e+00 3.0853786180e+00 
21000 5.7447662607e+00 -4.8373403239e-03 1.7814878732e+00 -3.0856275094e+00 1.7814878732e+00 3.0856275094e+00 
21100 5.7447692799e+00 -4.5524773203e-03 1.7816236418e+00 -3.0858626675e+00 1.7816236418e+00 3.0858626675e+00 
21200 5.7447725189e+00 -4.2655275944e-03 1.7817514053e+00 -3.0860839605e+00 1.7817514053e+00 3.0860839605e+00 
21300 5.7447759346e+00 -3.9771709113e-03 1.7818711071e+00 -3.0862912900e+00 1.7818711071e+00 3.0862912900e+00 
21400 5.7447794848e+00 -3.6880749036e-03 1.7819827092e+00 -3.0864845906e+00 1.7819827092e+00 3.0864845906e+00 
21500 5.7447831279e+00 -3.3988937927e-03 1.7820861926e+00 -3.0866638290e+00 1.7820861926e+00 3.0866638290e+00 
21600 5.7447868238e+00 -3.1102671649e-03 1.7821815562e+00 -3.0868290036e+00 1.7821815562e+00 3.0868290036e+00 
21700 5.7447905340e+00 -2.8228188051e-03 1.7822688170e+00 -3.0869801438e+00 1.7822688170e+00 3.0869801438e+00 
21800 5.7447942219e+00 -2.5371555899e-03 1.7823480093e+00 -3.0871173089e+00 1.7823480093e+00 3.0871173089e+00 
21900 5.7447978529e+00 -2.2538664406e-03 1.7824191843e+00 -3.0872405876e+00 1.7824191843e+00 3.0872405876e+00 
22000 5.7448013949e+00 -1.9735213405e-03 1.7824824096e+00 -3.0873500971e+00 1.7824824096e+00 3.0873500971e+00 
22100 5.7448048182e+00 -1.6966704141e-03 1.7825377687e+00 -3.0874459818e+00 1.7825377687e+00 3.0874459818e+00 
22200 5.7448080958e+00 -1.4238430738e-03 1.7825853603e+00 -3.0875284129e+00 1.7825853603e+00 3.0875284129e+00 
22300 5.7448112033e+00 -1.1555472312e-03 1.7826252981e+00 -3.0875975871e+00 1.7826252981e+00 3.0875975871e+00 
22400 5.7448141194e+00 -8.9226857668e-04 1.7826577096e+00 -3.0876537255e+00 1.7826577096e+00 3.0876537255e+00 
22500 5.7448168254e+00 -6.3446992702e-04 1.7826827360e+00 -3.0876970725e+00 1.7826827360e+00 3.0876970725e+00 
22600 5.7448193058e+00 -3.8259064125e-04 1.7827005314e+00 -3.0877278950e+00 1.7827005314e+00 3.0877278950e+00 
22700 5.7448215479e+00 -1.3704610565e-04 1.7827112620e+00 -3.0877464811e+00 1.7827112620e+00 3.0877464811e+00 
22800 5.7448235418e+00 1.0177271213e-04 1.7827151058e+00 -3.0877531387e+00 1.7827151058e+00 3.0877531387e+00 
22900 5.7448252806e+00 3.3349964003e-04 1.7827122514e+00 -3.0877481946e+00 1.7827122514e+00 3.0877481946e+00 
23000 5.7448267600e+00 5.5779360959e-04 1.7827028977e+00 -3.0877319935e+00 1.7827028977e+00 3.0877319935e+00 
23100 5.7448279784e+00 7.7433889573e-04 1.7826872531e+00 -3.0877048963e+00 1.7826872531e+00 3.0877048963e+00 
23200 5.7448289368e+00 9.8284528865e-04 1.7826655348e+00 -3.0876672792e+00 1.7826655348e+00 3.0876672792e+00 
23300 5.7448296385e+00 1.1830481990e-03 1.7826379682e+00 -3.0876195323e+00 1.7826379682e+00 3.0876195323e+00 
23400 5.7448300891e+00 1.3747086968e-03 1.7826047857e+00 -3.0875620587e+00 1.7826047857e+00 3.0875620587e+00 
23500 5.7448302964e+00 1.5576134863e-03 1.7825662269e+00 -3.0874952728e+00 1.7825662269e+00 3.0874952728e+00 
23600 5.7448302698e+00 1.7315748163e-03 1.7825225369e+00 -3.0874195995e+00 1.7825225369e+00 3.0874195995e+00 
23700 5.7448300207e+00 1.8964303300e-03 1.7824739662e+00 -3.0873354726e+00 1.7824739662e+00 3.0873354726e+00 
23800 5.7448295619e+00 2.0520428536e-03 1.7824207699e+00 -3.0872433339e+00 1.7824207699e+00 3.0872433339e+00 
23900 5.7448289076e+00 2.1983001269e-03 1.7823632068e+00 -3.0871436317e+00 1.7823632068e+00 3.0871436317e+00 
24000 5.7448280730e+00 2.3351144779e-03 1.7823015390e+00 -3.0870368200e+00 1.7823015390e+00 3.0870368200e+00 
24100 5.7448270745e+00 2.4624224425e-03 1.7822360310e+00 -3.0869233568e+00 1.7822360310e+00 3.0869233568e+00 
24200 5.7448259290e+00 2.5801843326e-03 1.7821669491e+00 -3.0868037034e+00 1.7821669491e+00 3.0868037034e+00 
24300 5.7448246539e+00 2.6883837545e-03 1.7820945606e+00 -3.0866783229e+00 1.7820945606e+00 3.0866783229e+00 
24400 5.7448232673e+00 2.7870270797e-03 1.7820191335e+00 -3.0865476793e+00 1.7820191335e+00 3.0865476793e+00 
24500 5.7448217871e+00 2.8761428717e-03 1.7819409355e+00 -3.0864122364e+00 1.7819409355e+00 3.0864122364e+00 
24600 5.7448202313e+00 2.9557812700e-03 1.7818602336e+00 -3.0862724566e+00 1.7818602336e+00 3.0862724566e+00 
24700 5.7448186178e+00 3.0260133350e-03 1.7817772933e+00 -3.0861287999e+00 1.7817772933e+00 3.0861287999e+00 
24800 5.7448169641e+00 3.0869303566e-03 1.7816923784e+00 -3.0859817229e+00 1.7816923784e+00 3.0859817229e+00 
24900 5.7448152873e+00 3.1386431283e-03 1.7816057500e+00 -3.0858316780e+00 1.7816057500e+00 3.0858316780e+00 
25000 5.7448136037e+00 3.1812811907e-03 1.7815176660e+00 -3.0856791121e+00 1.7815176660e+00 3.0856791121e+00 
25100 5.7448119291e+00 3.2149920469e-03 1.7814283811e+00 -3.0855244661e+00 1.7814283811e+00 3.0855244661e+00 
25200 5.7448102782e+00 3.2399403519e-03 1.7813381455e+00 -3.0853681734e+00 1.7813381455e+00 3.0853681734e+00 
25300 5.7448086649e+00 3.2563070807e-03 1.7812472051e+00 -3.0852106600e+00 1.7812472051e+00 3.0852106600e+00 
25400 5.7448071021e+00 3.2642886756e-03 1.7811558006e+00 -3.0850523428e+00 1.7811558006e+00 3.0850523428e+00 
25500 5.7448056015e+00 3.2640961773e-03 1.7810641674e+00 -3.0848936294e+00 1.7810641674e+00 3.0848936294e+00 
25600 5.7448041736e+00 3.2559543422e-03 1.7809725348e+00 -3.0847349172e+00 1.7809725348e+00 3.0847349172e+00 
25700 5.7448028280e+00 3.2401007479e-03 1.7808811262e+00 -3.0845765928e+00 1.7808811262e+00 3.0845765928e+00 
25800 5.7448015727e+00 3.2167848906e-03 1.7807901579e+00 -3.0844190311e+00 1.7807901579e+00 3.0844190311e+00 
25900 5.7448004146e+00 3.1862672764e-03 1.7806998396e+00 -3.0842625953e+00 1.7806998396e+00 3.0842625953e+00 
26000 5.7447993595e+00 3.1488185098e-03 1.7806103737e+00 -3.0841076357e+00 1.7806103737e+00 3.0841076357e+00 
26100 5.7447984117e+00 3.1047183805e-03 1.7805219548e+00 -3.0839544897e+00 1.7805219548e+00 3.0839544897e+00 
26200 5.7447975745e+00 3.0542549532e-03 1.7804347699e+00 -3.0838034810e+00 1.7804347699e+00 3.0838034810e+00 
26300 5.7447968499e+00 2.9977236604e-03 1.7803489978e+00 -3.0836549194e+00 1.7803489978e+00 3.0836549194e+00 
26400 5.7447962388e+00 2.9354264018e-03 1.7802648093e+00 -3.0835091006e+00 1.7802648093e+00 3.0835091006e+00 
26500 5.7447957409e+00 2.8676706525e-03 1.7801823664e+00 -3.0833663053e+00 1.7801823664e+00 3.0833663053e+00 
26600 5.7447953551e+00 2.7947685816e-03 1.7801018227e+00 -3.0832267995e+00 1.7801018227e+00 3.0832267995e+00 
26700 5.7447950791e+00 2.7170361835e-03 1.7800233230e+00 -3.0830908341e+00 1.7800233230e+00 3.0830908341e+00 
26800 5.7447949096e+00 2.6347924232e-03 1.7799470033e+00 -3.0829586445e+00 1.7799470033e+00 3.0829586445e+00 
26900 5.7447948429e+00 2.5483583989e-03 1.7798729906e+00 -3.0828304508e+00 1.7798729906e+00 3.0828304508e+00 
27000 5.7447948740e+00 2.4580565210e-03 1.7798014029e+00 -3.0827064572e+00 1.7798014029e+00 3.0827064572e+00 
27100 5.7447949975e+00 2.3642097120e-03 1.7797323491e+00 -3.0825868525e+00 1.7797323491e+00 3.0825868525e+00 
27200 5.7447952076e+00 2.2671406265e-03 1.7796659291e+00 -3.0824718098e+00 1.7796659291e+00 3.0824718098e+00 
27300 5.7447954975e+00 2.1671708939e-03 1.7796022338e+00 -3.0823614863e+00 1.7796022338e+00 3.0823614863e+00 
27400 5.7447958605e+00 2.0646203838e-03 1.7795413450e+00 -3.0822560237e+00 1.7795413450e+00 3.0822560237e+00 
27500 5.7447962892e+00 1.9598064976e-03 1.7794833354e+00 -3.0821555481e+00 1.7794833354e+00 3.0821555481e+00 
27600 5.7447967761e+00 1.8530434841e-03 1.7794282690e+00 -3.0820601703e+00 1.7794282690e+00 3.0820601703e+00 
27700 5.7447973135e+00 1.7446417823e-03 1.7793762007e+00 -3.0819699854e+00 1.7793762007e+00 3.0819699854e+00 
27800 5.7447978937e+00 1.6349073923e-03 1.7793271770e+00 -3.0818850738e+00 1.7793271770e+00 3.0818850738e+00 
27900 5.7447985088e+00 1.5241412732e-03 1.7792812354e+00 -3.0818055007e+00 1.7792812354e+00 3.0818055007e+00 
28000 5.7447991511e+00 1.4126387702e-03 1.7792384053e+00 -3.0817313168e+00 1.7792384053e+00 3.0817313168e+00 
28100 5.7447998130e+00 1.3006890712e-03 1.7791987076e+00 -3.0816625584e+00 1.7791987076e+00 3.0816625584e+00 
28200 5.7448004872e+00 1.1885746926e-03 1.7791621551e+00 -3.0815992475e+00 1.7791621551e+00 3.0815992475e+00 
28300 5.7448011664e+00 1.0765709954e-03 1.7791287526e+00 -3.0815413926e+00 1.7791287526e+00 3.0815413926e+00 
28400 5.7448018438e+00 9.6494573149e-04 1.7790984971e+00 -3.0814889886e+00 1.7790984971e+00 3.0814889886e+00 
28500 5.7448025130e+00 8.5395862029e-04 1.7790713782e+00 -3.0814420173e+00 1.7790713782e+00 3.0814420173e+00 
28600 5.7448031679e+00 7.4386095614e-04 1.7790473781e+00 -3.0814004480e+00 1.7790473781e+00 3.0814004480e+00 
28700 5.7448038028e+00 6.3489524591e-04 1.7790264720e+00 -3.0813642375e+00 1.7790264720e+00 3.0813642375e+00 
28800 5.7448044125e+00 5.2729487726e-04 1.7790086281e+00 -3.0813333310e+00 1.7790086281e+00 3.0813333310e+00 
28900 5.7448049924e+00 4.2128381725e-04 1.7789938083e+00 -3.0813076622e+00 1.7789938083e+00 3.0813076622e+00 
29000 5.7448055383e+00 3.1707634094e-04 1.7789819678e+00 -3.0812871539e+00 1.7789819678e+00 3.0812871539e+00 
29100 5.7448060465e+00 2.1487679000e-04 1.7789730560e+00 -3.0812717183e+00 1.7789730560e+00 3.0812717183e+00 
29200 5.7448065140e+00 1.1487936086e-04 1.7789670167e+00 -3.0812612579e+00 1.7789670167e+00 3.0812612579e+00 
29300 5.7448069381e+00 1.7267921902e-05 1.7789637879e+00 -3.0812556654e+00 1.7789637879e+00 3.0812556654e+00 
29400 5.7448073167e+00 -7.7327782906e-05 1.7789637879e+00 -3.0812556654e+00 1.7789637879e+00 3.0812556654e+00 
29500 5.7448076483e+00 -1.6966736728e-04 1.7789659613e+00 -3.0812594298e+00 1.7789659613e+00 3.0812594298e+00 
29600 5.7448079321e+00 -2.5913212131e-04 1.7789707300e+00 -3.0812676895e+00 1.7789707300e+00 3.0812676895e+00 
29700 5.7448081673e+00 -3.4558079391e-04 1.7789780132e+00 -3.0812803044e+00 1.7789780132e+00 3.0812803044e+00 
29800 5.7448083541e+00 -4.2888295296e-04 1.7789877261e+00 -3.0812971276e+00 1.7789877261e+00 3.0812971276e+00 
29900 5.7448084928e+00 -5.0891900371e-04 1.7789997802e+00 -3.0813180060e+00 1.7789997802e+00 3.0813180060e+00 
30000 5.7448085843e+00 -5.8558018187e-04 1.7790140838e+00 -3.0813427805e+00 1.7790140838e+00 3.0813427805e+00 
30100 5.7448086298e+00 -6.5876852229e-04 1.7790305418e+00 -3.0813712866e+00 1.7790305418e+00 3.0813712866e+00 
30200 5.7448086309e+00 -7.2839680381e-04 1.7790490566e+00 -3.0814033552e+00 1.7790490566e+00 3.0814033552e+00 
30300 5.7448085896e+00 -7.9438847122e-04 1.7790695282e+00 -3.0814388130e+00 1.7790695282e+00 3.0814388130e+00 
30400 5.7448085081e+00 -8.5667753490e-04 1.7790918542e+00 -3.0814774828e+00 1.7790918542e+00 3.0814774828e+00 
30500 5.7448083890e+00 -9.1520844923e-04 1.7791159305e+00 -3.0815191842e+00 1.7791159305e+00 3.0815191842e+00 
30600 5.7448082348e+00 -9.6993597042e-04 1.7791416514e+00 -3.0815637342e+00 1.7791416514e+00 3.0815637342e+00 
30700 5.7448080487e+00 -1.0208249947e-03 1.7791689101e+00 -3.0816109475e+00 1.7791689101e+00 3.0816109475e+00 
30800 5.7448078336e+00 -1.0678503776e-03 1.7791975984e+00 -3.0816606371e+00 1.7791975984e+00 3.0816606371e+00 
30900 5.7448075927e+00 -1.1109967357e-03 1.7792276078e+00 -3.0817126149e+00 1.7792276078e+00 3.0817126149e+00 
31000 5.7448073294e+00 -1.1502582307e-03 1.7792588292e+00 -3.0817666920e+00 1.7792588292e+00 3.0817666920e+00 
31100 5.7448070469e+00 -1.1856383384e-03 1.7792911534e+00 -3.0818226791e+00 1.7792911534e+00 3.0818226791e+00 
31200 5.7448067486e+00 -1.2171496013e-03 1.7793244712e+00 -3.0818803873e+00 1.7793244712e+00 3.0818803873e+00 
31300 5.7448064379e+00 -1.2448133682e-03 1.7793586739e+00 -3.0819396281e+00 1.7793586739e+00 3.0819396281e+00 
31400 5.7448061179e+00 -1.2686595194e-03 1.7793936533e+00 -3.0820002141e+00 1.7793936533e+00 3.0820002141e+00 
31500 5.7448057920e+00 -1.2887261805e-03 1.7794293020e+00 -3.0820619596e+00 1.7794293020e+00 3.0820619596e+00 
31600 5.7448054631e+00 -1.3050594237e-03 1.7794655140e+00 -3.0821246805e+00 1.7794655140e+00 3.0821246805e+00 
31700 5.7448051344e+00 -1.3177129598e-03 1.7795021841e+00 -3.0821881950e+00 1.7795021841e+00 3.0821881950e+00 
31800 5.7448048085e+00 -1.3267478197e-03 1.7795392090e+00 -3.0822523240e+00 1.7795392090e+00 3.0822523240e+00 
31900 5.7448044883e+00 -1.3322320274e-03 1.7795764869e+00 -3.0823168913e+00 1.7795764869e+00 3.0823168913e+00 
32000 5.7448041762e+00 -1.3342402658e-03 1.7796139182e+00 -3.0823817242e+00 1.7796139182e+00 3.0823817242e+00 
32100 5.7448038744e+00 -1.3328535354e-03 1.7796514051e+00 -3.0824466535e+00 1.7796514051e+00 3.0824466535e+00 
32200 5.7448035852e+00 -1.3281588067e-03 1.7796888523e+00 -3.0825115139e+00 1.7796888523e+00 3.0825115139e+00 
32300 5.7448033102e+00 -1.3202486682e-03 1.7797261668e+00 -3.0825761444e+00 1.7797261668e+00 3.0825761444e+00 
32400 5.7448030513e+00 -1.3092209704e-03 1.7797632583e+00 -3.0826403888e+00 1.7797632583e+00 3.0826403888e+00 
32500 5.7448028098e+00 -1.2951784662e-03 1.7798000392e+00 -3.0827040951e+00 1.7798000392e+00 3.0827040951e+00 
32600 5.7448025870e+00 -1.2782284486e-03 1.7798364248e+00 -3.0827671169e+00 1.7798364248e+00 3.0827671169e+00 
32700 5.7448023837e+00 -1.2584823884e-03 1.7798723335e+00 -3.0828293126e+00 1.7798723335e+00 3.0828293126e+00 
32800 5.7448022008e+00 -1.2360555695e-03 1.7799076868e+00 -3.0828905463e+00 1.7799076868e+00 3.0828905463e+00 
32900 5.7448020388e+00 -1.2110667254e-03 1.7799424094e+00 -3.0829506875e+00 1.7799424094e+00 3.0829506875e+00 
33000 5.7448018979e+00 -1.1836376767e-03 1.7799764293e+00 -3.0830096118e+00 1.7799764293e+00 3.0830096118e+00 
33100 5.7448017783e+00 -1.1538929701e-03 1.7800096781e+00 -3.0830672004e+00 1.7800096781e+00 3.0830672004e+00 
33200 5.7448016799e+00 -1.1219595195e-03 1.7800420907e+00 -3.0831233408e+00 1.7800420907e+00 3.0831233408e+00 
33300 5.7448016024e+00 -1.0879662516e-03 1.7800736058e+00 -3.0831779264e+00 1.7800736058e+00 3.0831779264e+00 
33400 5.7448015454e+00 -1.0520437543e-03 1.7801041655e+00 -3.0832308574e+00 1.7801041655e+00 3.0832308574e+00 
33500 5.7448015081e+00 -1.0143239306e-03 1.7801337156e+00 -3.0832820397e+00 1.7801337156e+00 3.0832820397e+00 
33600 5.7448014900e+00 -9.7493965712e-04 1.7801622058e+00 -3.0833313861e+00 1.7801622058e+00 3.0833313861e+00 
33700 5.7448014900e+00 -9.3402444966e-04 1.7801895893e+00 -3.0833788158e+00 1.7801895893e+00 3.0833788158e+00 
33800 5.7448015071e+00 -8.9171213440e-04 1.7802158232e+00 -3.0834242543e+00 1.7802158232e+00 3.0834242543e+00 
33900 5.7448015402e+00 -8.4813652690e-04 1.7802408683e+00 -3.0834676337e+00 1.7802408683e+00 3.0834676337e+00 
34000 5.7448015881e+00 -8.0343111882e-04 1.7802646892e+00 -3.0835088927e+00 1.7802646892e+00 3.0835088927e+00 
34100 5.7448016495e+00 -7.5772877286e-04 1.7802872542e+00 -3.0835479764e+00 1.7802872542e+00 3.0835479764e+00 
34200 5.7448017231e+00 -7.1116142663e-04 1.7803085353e+00 -3.0835848364e+00 1.7803085353e+00 3.0835848364e+00 
34300 5.7448018074e+00 -6.6385980582e-04 1.7803285084e+00 -3.0836194306e+00 1.7803285084e+00 3.0836194306e+00 
34400 5.7448019011e+00 -6.1595314717e-04 1.7803471527e+00 -3.0836517236e+00 1.7803471527e+00 3.0836517236e+00 
34500 5.7448020027e+00 -5.6756893154e-04 1.7803644514e+00 -3.0836816858e+00 1.7803644514e+00 3.0836816858e+00 
34600 5.7448021108e+00 -5.1883262762e-04 1.7803803911e+00 -3.0837092942e+00 1.7803803911e+00 3.0837092942e+00 
34700 5.7448022240e+00 -4.6986744651e-04 1.7803949620e+00 -3.0837345317e+00 1.7803949620e+00 3.0837345317e+00 
34800 5.7448023409e+00 -4.2079410758e-04 1.7804081576e+00 -3.0837573871e+00 1.7804081576e+00 3.0837573871e+00 
34900 5.7448024602e+00 -3.7173061580e-04 1.7804199749e+00 -3.0837778554e+00 1.7804199749e+00 3.0837778554e+00 
35000 5.7448025805e+00 -3.2279205082e-04 1.7804304144e+00 -3.0837959370e+00 1.7804304144e+00 3.0837959370e+00 
35100 5.7448027005e+00 -2.7409036815e-04 1.7804394794e+00 -3.0838116381e+00 1.7804394794e+00 3.0838116381e+00 
35200 5.7448028193e+00 -2.2573421238e-04 1.7804471766e+00 -3.0838249701e+00 1.7804471766e+00 3.0838249701e+00 
35300 5.7448029355e+00 -1.7782874284e-04 1.7804535159e+00 -3.0838359501e+00 1.7804535159e+00 3.0838359501e+00 
35400 5.7448030482e+00 -1.3047547166e-04 1.7804585098e+00 -3.0838445998e+00 1.7804585098e+00 3.0838445998e+00 
35500 5.7448031565e+00 -8.3772114385e-05 1.7804621739e+00 -3.0838509462e+00 1.7804621739e+00 3.0838509462e+00 
35600 5.7448032594e+00 -3.7812453223e-05 1.7804645265e+00 -3.0838550209e+00 1.7804645265e+00 3.0838550209e+00 
35700 5.7448033563e+00 6.3187604024e-06 1.7804645265e+00 -3.0838550209e+00 1.7804645265e+00 3.0838550209e+00 
35800 5.7448034465e+00 5.0713062327e-05 1.7804645265e+00 -3.0838550209e+00 1.7804645265e+00 3.0838550209e+00 
35900 5.7448035295e+00 9.5270690418e-05 1.7804645265e+00 -3.0838550209e+00 1.7804645265e+00 3.0838550209e+00 
36000 5.7448036048e+00 1.3738766218e-04 1.7804618510e+00 -3.0838503869e+00 1.7804618510e+00 3.0838503869e+00 
36100 5.7448036720e+00 1.7835577005e-04 1.7804579928e+00 -3.0838437043e+00 1.7804579928e+00 3.0838437043e+00 
36200 5.7448037307e+00 2.1810694104e-04 1.7804529841e+00 -3.0838350290e+00 1.7804529841e+00 3.0838350290e+00 
36300 5.7448037809e+00 2.5657764340e-04 1.7804468591e+00 -3.0838244201e+00 1.7804468591e+00 3.0838244201e+00 
36400 5.7448038225e+00 2.9370892412e-04 1.7804396537e+00 -3.0838119399e+00 1.7804396537e+00 3.0838119399e+00 
36500 5.7448038553e+00 3.2944643461e-04 1.7804314054e+00 -3.0837976536e+00 1.7804314054e+00 3.0837976536e+00 
36600 5.7448038796e+00 3.6374044468e-04 1.7804221536e+00 -3.0837816289e+00 1.7804221536e+00 3.0837816289e+00 
36700 5.7448038955e+00 3.9654584540e-04 1.7804119386e+00 -3.0837639360e+00 1.7804119386e+00 3.0837639360e+00 
36800 5.7448039031e+00 4.2782214067e-04 1.7804008022e+00 -3.0837446473e+00 1.7804008022e+00 3.0837446473e+00 
36900 5.7448039029e+00 4.5753342823e-04 1.7803887875e+00 -3.0837238372e+00 1.7803887875e+00 3.0837238372e+00 
37000 5.7448038950e+00 4.8564837004e-04 1.7803759382e+00 -3.0837015816e+00 1.7803759382e+00 3.0837015816e+00 
37100 5.7448038801e+00 5.1214015261e-04 1.7803622993e+00 -3.0836779583e+00 1.7803622993e+00 3.0836779583e+00 
37200 5.7448038584e+00 5.3698643753e-04 1.7803479163e+00 -3.0836530462e+00 1.7803479163e+00 3.0836530462e+00 
37300 5.7448038305e+00 5.6016930255e-04 1.7803328354e+00 -3.0836269253e+00 1.7803328354e+00 3.0836269253e+00 
37400 5.7448037969e+00 5.8167517365e-04 1.7803171033e+00 -3.0835996765e+00 1.7803171033e+00 3.0835996765e+00 
37500 5.7448037582e+00 6.0149474837e-04 1.7803007670e+00 -3.0835713812e+00 1.7803007670e+00 3.0835713812e+00 
37600 5.7448037150e+00 6.1962291098e-04 1.7802838740e+00 -3.0835421216e+00 1.7802838740e+00 3.0835421216e+00 
37700 5.7448036678e+00 6.3605863969e-04 1.7802664716e+00 -3.0835119799e+00 1.7802664716e+00 3.0835119799e+00 
37800 5.7448036172e+00 6.5080490653e-04 1.7802486075e+00 -3.0834810384e+00 1.7802486075e+00 3.0834810384e+00 
37900 5.7448035639e+00 6.6386857016e-04 1.7802303291e+00 -3.0834493792e+00 1.7802303291e+00 3.0834493792e+00 
38000 5.7448035084e+00 6.7526026215e-04 1.7802116835e+00 -3.0834170841e+00 1.7802116835e+00 3.0834170841e+00 
38100 5.7448034514e+00 6.8499426711e-04 1.7801927178e+00 -3.0833842346e+00 1.7801927178e+00 3.0833842346e+00 
38200 5.7448033934e+00 6.9308839721e-04 1.7801734785e+00 -3.0833509111e+00 1.7801734785e+00 3.0833509111e+00 
38300 5.7448033350e+00 6.9956386134e-04 1.7801540117e+00 -3.0833171936e+00 1.7801540117e+00 3.0833171936e+00 
38400 5.7448032766e+00 7.0444512962e-04 1.7801343628e+00 -3.0832831606e+00 1.7801343628e+00 3.0832831606e+00 
38500 5.7448032189e+00 7.0775979353e-04 1.7801145765e+00 -3.0832488898e+00 1.7801145765e+00 3.0832488898e+00 
38600 5.7448031623e+00 7.0953842212e-04 1.7800946969e+00 -3.0832144574e+00 1.7800946969e+00 3.0832144574e+00 
38700 5.7448031072e+00 7.0981441484e-04 1.7800747672e+00 -3.0831799380e+00 1.7800747672e+00 3.0831799380e+00 
38800 5.7448030541e+00 7.0862385139e-04 1.7800548295e+00 -3.0831454049e+00 1.7800548295e+00 3.0831454049e+00 
38900 5.7448030033e+00 7.0600533892e-04 1.7800349249e+00 -3.0831109292e+00 1.7800349249e+00 3.0831109292e+00 
39000 5.7448029552e+00 7.0199985725e-04 1.7800150938e+00 -3.0830765806e+00 1.7800150938e+00 3.0830765806e+00 
39100 5.7448029100e+00 6.9665060225e-04 1.7799953749e+00 -3.0830424265e+00 1.7799953749e+00 3.0830424265e+00 
39200 5.7448028681e+00 6.9000282816e-04 1.7799758060e+00 -3.0830085322e+00 1.7799758060e+00 3.0830085322e+00 
39300 5.7448028295e+00 6.8210368877e-04 1.7799564237e+00 -3.0829749611e+00 1.7799564237e+00 3.0829749611e+00 
39400 5.7448027945e+00 6.7300207847e-04 1.7799372630e+00 -3.0829417738e+00 1.7799372630e+00 3.0829417738e+00 
39500 5.7448027633e+00 6.6274847294e-04 1.7799183578e+00 -3.0829090291e+00 1.7799183578e+00 3.0829090291e+00 
39600 5.7448027359e+00 6.5139477040e-04 1.7798997405e+00 -3.0828767829e+00 1.7798997405e+00 3.0828767829e+00 
39700 5.7448027123e+00 6.3899413345e-04 1.7798814419e+00 -3.0828450888e+00 1.7798814419e+00 3.0828450888e+00 
39800 5.7448026926e+00 6.2560083197e-04 1.7798634914e+00 -3.0828139977e+00 1.7798634914e+00 3.0828139977e+00 
39900 5.7448026767e+00 6.1127008746e-04 1.7798459171e+00 -3.0827835580e+00 1.7798459171e+00 3.0827835580e+00 
40000 5.7448026647e+00 5.9605791911e-04 1.7798287451e+00 -3.0827538153e+00 1.7798287451e+00 3.0827538153e+00 
40100 5.7448026563e+00 5.8002099199e-04 1.7798120003e+00 -3.0827248125e+00 1.7798120003e+00 3.0827248125e+00 
40200 5.7448026516e+00 5.6321646747e-04 1.7797957059e+00 -3.0826965897e+00 1.7797957059e+00 3.0826965897e+00 
40300 5.7448026502e+00 5.4570185653e-04 1.7797798834e+00 -3.0826691844e+00 1.7797798834e+00 3.0826691844e+00 
40400 5.7448026522e+00 5.2753487578e-04 1.7797645528e+00 -3.0826426310e+00 1.7797645528e+00 3.0826426310e+00 
40500 5.7448026573e+00 5.0877330691e-04 1.7797497325e+00 -3.0826169615e+00 1.7797497325e+00 3.0826169615e+00 
40600 5.7448026652e+00 4.8947485949e-04 1.7797354391e+00 -3.0825922046e+00 1.7797354391e+00 3.0825922046e+00 
40700 5.7448026758e+00 4.6969703743e-04 1.7797216878e+00 -3.0825683866e+00 1.7797216878e+00 3.0825683866e+00 
40800 5.7448026889e+00 4.4949700950e-04 1.7797084920e+00 -3.0825455308e+00 1.7797084920e+00 3.0825455308e+00 
40900 5.7448027041e+00 4.2893148386e-04 1.7796958636e+00 -3.0825236579e+00 1.7796958636e+00 3.0825236579e+00 
41000 5.7448027212e+00 4.0805658694e-04 1.7796838130e+00 -3.0825027855e+00 1.7796838130e+00 3.0825027855e+00 
41100 5.7448027400e+00 3.8692774680e-04 1.7796723487e+00 -3.0824829287e+00 1.7796723487e+00 3.0824829287e+00 
41200 5.7448027603e+00 3.6559958115e-04 1.7796614779e+00 -3.0824641001e+00 1.7796614779e+00 3.0824641001e+00 
41300 5.7448027817e+00 3.4412579013e-04 1.7796512063e+00 -3.0824463091e+00 1.7796512063e+00 3.0824463091e+00 
41400 5.7448028040e+00 3.2255905402e-04 1.7796415380e+00 -3.0824295631e+00 1.7796415380e+00 3.0824295631e+00 
41500 5.7448028269e+00 3.0095093596e-04 1.7796324755e+00 -3.0824138664e+00 1.7796324755e+00 3.0824138664e+00 
41600 5.7448028502e+00 2.7935178983e-04 1.7796240201e+00 -3.0823992212e+00 1.7796240201e+00 3.0823992212e+00 
41700 5.7448028737e+00 2.5781067329e-04 1.7796161715e+00 -3.0823856270e+00 1.7796161715e+00 3.0823856270e+00 
41800 5.7448028972e+00 2.3637526607e-04 1.7796089281e+00 -3.0823730810e+00 1.7796089281e+00 3.0823730810e+00 
41900 5.7448029204e+00 2.1509179369e-04 1.7796022869e+00 -3.0823615781e+00 1.7796022869e+00 3.0823615781e+00 
42000 5.7448029431e+00 1.9400495644e-04 1.7795962436e+00 -3.0823511109e+00 1.7795962436e+00 3.0823511109e+00 
42100 5.7448029652e+00 1.7315786377e-04 1.7795907928e+00 -3.0823416698e+00 1.7795907928e+00 3.0823416698e+00 
42200 5.7448029865e+00 1.5259197413e-04 1.7795859277e+00 -3.0823332432e+00 1.7795859277e+00 3.0823332432e+00 
42300 5.7448030068e+00 1.3234704019e-04 1.7795816404e+00 -3.0823258174e+00 1.7795816404e+00 3.0823258174e+00 
42400 5.7448030260e+00 1.1246105938e-04 1.7795779219e+00 -3.0823193768e+00 1.7795779219e+00 3.0823193768e+00 
42500 5.7448030440e+00 9.2970229950e-05 1.7795747622e+00 -3.0823139039e+00 1.7795747622e+00 3.0823139039e+00 
42600 5.7448030607e+00 7.3908912171e-05 1.7795721500e+00 -3.0823093796e+00 1.7795721500e+00 3.0823093796e+00 
42700 5.7448030759e+00 5.5309594968e-05 1.7795700734e+00 -3.0823057828e+00 1.7795700734e+00 3.0823057828e+00 
42800 5.7448030898e+00 3.8662006165e-05 1.7795700734e+00 -3.0823057828e+00 1.7795700734e+00 3.0823057828e+00 
42900 5.7448031020e+00 2.2065838923e-05 1.7795700734e+00 -3.0823057828e+00 1.7795700734e+00 3.0823057828e+00 
43000 5.7448031127e+00 5.5603191894e-06 1.7795700734e+00 -3.0823057828e+00 1.7795700734e+00 3.0823057828e+00 
43100 5.7448031218e+00 -1.0816993985e-05 1.7795700734e+00 -3.0823057828e+00 1.7795700734e+00 3.0823057828e+00 
43200 5.7448031294e+00 -2.7030231445e-05 1.7795700734e+00 -3.0823057828e+00 1.7795700734e+00 3.0823057828e+00 
43300 5.7448031355e+00 -4.3045232290e-05 1.7795700734e+00 -3.0823057828e+00 1.7795700734e+00 3.0823057828e+00 
43400 5.7448031401e+00 -5.8829557703e-05 1.7795700734e+00 -3.0823057828e+00 1.7795700734e+00 3.0823057828e+00 
43500 5.7448031434e+00 -7.4352500407e-05 1.7795700734e+00 -3.0823057828e+00 1.7795700734e+00 3.0823057828e+00 
43600 5.7448031452e+00 -8.7623899091e-05 1.7795721625e+00 -3.0823094011e+00 1.7795721625e+00 3.0823094011e+00 
43700 5.7448031456e+00 -1.0021713190e-04 1.7795746244e+00 -3.0823136654e+00 1.7795746244e+00 3.0823136654e+00 
43800 5.7448031448e+00 -1.1212096183e-04 1.7795774402e+00 -3.0823185424e+00 1.7795774402e+00 3.0823185424e+00 
43900 5.7448031428e+00 -1.2332604604e-04 1.7795805904e+00 -3.0823239987e+00 1.7795805904e+00 3.0823239987e+00 
44000 5.7448031397e+00 -1.3382490944e-04 1.7795840554e+00 -3.0823300003e+00 1.7795840554e+00 3.0823300003e+00 
44100 5.7448031355e+00 -1.4361191462e-04 1.7795878154e+00 -3.0823365129e+00 1.7795878154e+00 3.0823365129e+00 
44200 5.7448031305e+00 -1.5268322826e-04 1.7795918504e+00 -3.0823435016e+00 1.7795918504e+00 3.0823435016e+00 
44300 5.7448031247e+00 -1.6103678425e-04 1.7795961403e+00 -3.0823509319e+00 1.7795961403e+00 3.0823509319e+00 
44400 5.7448031181e+00 -1.6867224362e-04 1.7796006648e+00 -3.0823587686e+00 1.7796006648e+00 3.0823587686e+00 
44500 5.7448031110e+00 -1.7559095141e-04 1.7796054038e+00 -3.0823669769e+00 1.7796054038e+00 3.0823669769e+00 
44600 5.7448031034e+00 -1.8179589082e-04 1.7796103373e+00 -3.0823755218e+00 1.7796103373e+00 3.0823755218e+00 
44700 5.7448030955e+00 -1.8729163466e-04 1.7796154450e+00 -3.0823843687e+00 1.7796154450e+00 3.0823843687e+00 
44800 5.7448030873e+00 -1.9208429438e-04 1.7796207071e+00 -3.0823934830e+00 1.7796207071e+00 3.0823934830e+00 
44900 5.7448030789e+00 -1.9618146675e-04 1.7796261039e+00 -3.0824028305e+00 1.7796261039e+00 3.0824028305e+00 
45000 5.7448030704e+00 -1.9959217850e-04 1.7796316158e+00 -3.0824123773e+00 1.7796316158e+00 3.0824123773e+00 
45100 5.7448030620e+00 -2.0232682901e-04 1.7796372235e+00 -3.0824220901e+00 1.7796372235e+00 3.0824220901e+00 
45200 5.7448030537e+00 -2.0439713125e-04 1.7796429080e+00 -3.0824319360e+00 1.7796429080e+00 3.0824319360e+00 
45300 5.7448030457e+00 -2.0581605119e-04 1.7796486506e+00 -3.0824418825e+00 1.7796486506e+00 3.0824418825e+00 
45400 5.7448030379e+00 -2.0659774580e-04 1.7796544331e+00 -3.0824518981e+00 1.7796544331e+00 3.0824518981e+00 
45500 5.7448030305e+00 -2.0675749985e-04 1.7796602376e+00 -3.0824619517e+00 1.7796602376e+00 3.0824619517e+00 
45600 5.7448030235e+00 -2.0631166171e-04 1.7796660465e+00 -3.0824720130e+00 1.7796660465e+00 3.0824720130e+00 
45700 5.7448030170e+00 -2.0527757822e-04 1.7796718428e+00 -3.0824820526e+00 1.7796718428e+00 3.0824820526e+00 
45800 5.7448030110e+00 -2.0367352901e-04 1.7796776101e+00 -3.0824920418e+00 1.7796776101e+00 3.0824920418e+00 
45900 5.7448030056e+00 -2.0151866014e-04 1.7796833323e+00 -3.0825019530e+00 1.7796833323e+00 3.0825019530e+00 
46000 5.7448030008e+00 -1.9883291755e-04 1.7796889940e+00 -3.0825117592e+00 1.7796889940e+00 3.0825117592e+00 
46100 5.7448029967e+00 -1.9563698021e-04 1.7796945802e+00 -3.0825214348e+00 1.7796945802e+00 3.0825214348e+00 
46200 5.7448029932e+00 -1.9195219331e-04 1.7797000765e+00 -3.0825309548e+00 1.7797000765e+00 3.0825309548e+00 
46300 5.7448029905e+00 -1.8780050156e-04 1.7797054693e+00 -3.0825402954e+00 1.7797054693e+00 3.0825402954e+00 
46400 5.7448029884e+00 -1.8320438276e-04 1.7797107455e+00 -3.0825494340e+00 1.7797107455e+00 3.0825494340e+00 
46500 5.7448029870e+00 -1.7818678182e-04 1.7797158925e+00 -3.0825583489e+00 1.7797158925e+00 3.0825583489e+00 
46600 5.7448029863e+00 -1.7277104534e-04 1.7797208986e+00 -3.0825670197e+00 1.7797208986e+00 3.0825670197e+00 
46700 5.7448029863e+00 -1.6698085691e-04 1.7797257525e+00 -3.0825754268e+00 1.7797257525e+00 3.0825754268e+00 
46800 5.7448029869e+00 -1.6084017318e-04 1.7797304437e+00 -3.0825835522e+00 1.7797304437e+00 3.0825835522e+00 
46900 5.7448029881e+00 -1.5437316104e-04 1.7797349623e+00 -3.0825913788e+00 1.7797349623e+00 3.0825913788e+00 
47000 5.7448029900e+00 -1.4760413574e-04 1.7797392993e+00 -3.0825988906e+00 1.7797392993e+00 3.0825988906e+00 
47100 5.7448029925e+00 -1.4055750030e-04 1.7797434461e+00 -3.0826060731e+00 1.7797434461e+00 3.0826060731e+00 
47200 5.7448029954e+00 -1.3325768626e-04 1.7797473949e+00 -3.0826129126e+00 1.7797473949e+00 3.0826129126e+00 
47300 5.7448029989e+00 -1.2572909573e-04 1.7797511386e+00 -3.0826193970e+00 1.7797511386e+00 3.0826193970e+00 
47400 5.7448030029e+00 -1.1799604511e-04 1.7797546709e+00 -3.0826255149e+00 1.7797546709e+00 3.0826255149e+00 
47500 5.7448030073e+00 -1.1008271032e-04 1.7797579858e+00 -3.0826312566e+00 1.7797579858e+00 3.0826312566e+00 
47600 5.7448030120e+00 -1.0201307378e-04 1.7797610784e+00 -3.0826366132e+00 1.7797610784e+00 3.0826366132e+00 
47700 5.7448030171e+00 -9.3810873181e-05 1.7797639444e+00 -3.0826415771e+00 1.7797639444e+00 3.0826415771e+00 
47800 5.7448030225e+00 -8.5499552047e-05 1.7797665799e+00 -3.0826461419e+00 1.7797665799e+00 3.0826461419e+00 
47900 5.7448030281e+00 -7.7102212325e-05 1.7797689818e+00 -3.0826503023e+00 1.7797689818e+00 3.0826503023e+00 
48000 5.7448030339e+00 -6.8641568869e-05 1.7797711479e+00 -3.0826540540e+00 1.7797711479e+00 3.0826540540e+00 
48100 5.7448030399e+00 -6.1949371578e-05 1.7797711479e+00 -3.0826540540e+00 1.7797711479e+00 3.0826540540e+00 
48200 5.7448030460e+00 -5.5023684487e-05 1.7797711479e+00 -3.0826540540e+00 1.7797711479e+00 3.0826540540e+00 
48300 5.7448030521e+00 -4.7885704661e-05 1.7797711479e+00 -3.0826540540e+00 1.7797711479e+00 3.0826540540e+00 
48400 5.7448030581e+00 -4.0556357691e-05 1.7797711479e+00 -3.0826540540e+00 1.7797711479e+00 3.0826540540e+00 
48500 5.7448030641e+00 -3.3056260530e-05 1.7797711479e+00 -3.0826540540e+00 1.7797711479e+00 3.0826540540e+00 
48600 5.7448030699e+00 -2.5405686360e-05 1.7797711479e+00 -3.0826540540e+00 1.7797711479e+00 3.0826540540e+00 
48700 5.7448030757e+00 -1.7624531546e-05 1.7797711479e+00 -3.0826540540e+00 1.7797711479e+00 3.0826540540e+00 
48800 5.7448030812e+00 -9.7322846303e-06 1.7797711479e+00 -3.0826540540e+00 1.7797711479e+00 3.0826540540e+00 
48900 5.7448030867e+00 -1.7479973949e-06 1.7797711479e+00 -3.0826540540e+00 1.7797711479e+00 3.0826540540e+00 
49000 5.7448030919e+00 6.3097420442e-06 1.7797711479e+00 -3.0826540540e+00 1.7797711479e+00 3.0826540540e+00 
49100 5.7448030969e+00 1.4422834089e-05 1.7797711479e+00 -3.0826540540e+00 1.7797711479e+00 3.0826540540e+00 
49200 5.7448031017e+00 2.2573690551e-05 1.7797711479e+00 -3.0826540540e+00 1.7797711479e+00 3.0826540540e+00 
49300 5.7448031063e+00 3.0745255488e-05 1.7797711479e+00 -3.0826540540e+00 1.7797711479e+00 3.0826540540e+00 
49400 5.7448031107e+00 3.8921024146e-05 1.7797711479e+00 -3.0826540540e+00 1.7797711479e+00 3.0826540540e+00 
49500 5.7448031148e+00 4.7085059918e-05 1.7797711479e+00 -3.0826540540e+00 1.7797711479e+00 3.0826540540e+00 
49600 5.7448031187e+00 5.5222009434e-05 1.7797711479e+00 -3.0826540540e+00 1.7797711479e+00 3.0826540540e+00 
49700 5.7448031223e+00 6.3317115782e-05 1.7797711479e+00 -3.0826540540e+00 1.7797711479e+00 3.0826540540e+00 
49800 5.7448031257e+00 7.1356229900e-05 1.7797711479e+00 -3.0826540540e+00 1.7797711479e+00 3.0826540540e+00 
49900 5.7448031287e+00 7.7444508716e-05 1.7797691433e+00 -3.0826505819e+00 1.7797691433e+00 3.0826505819e+00 
50000 5.7448031314e+00 8.3279595413e-05 1.7797669676e+00 -3.0826468135e+00 1.7797669676e+00 3.0826468135e+00 
50100 5.7448031338e+00 8.8853332722e-05 1.7797646280e+00 -3.0826427611e+00 1.7797646280e+00 3.0826427611e+00 
50200 5.7448031359e+00 9.4158391769e-05 1.7797621318e+00 -3.0826384376e+00 1.7797621318e+00 3.0826384376e+00 
50300 5.7448031378e+00 9.9188268182e-05 1.7797594865e+00 -3.0826338559e+00 1.7797594865e+00 3.0826338559e+00 
50400 5.7448031394e+00 1.0393727637e-04 1.7797566999e+00 -3.0826290294e+00 1.7797566999e+00 3.0826290294e+00 
50500 5.7448031408e+00 1.0840054202e-04 1.7797537800e+00 -3.0826239718e+00 1.7797537800e+00 3.0826239718e+00 
50600 5.7448031419e+00 1.1257399293e-04 1.7797507346e+00 -3.0826186971e+00 1.7797507346e+00 3.0826186971e+00 
50700 5.7448031428e+00 1.1645434812e-04 1.7797475719e+00 -3.0826132192e+00 1.7797475719e+00 3.0826132192e+00 
50800 5.7448031435e+00 1.2003910539e-04 1.7797443003e+00 -3.0826075526e+00 1.7797443003e+00 3.0826075526e+00 
50900 5.7448031440e+00 1.2332652743e-04 1.7797409279e+00 -3.0826017115e+00 1.7797409279e+00 3.0826017115e+00 
51000 5.7448031444e+00 1.2631562641e-04 1.7797374632e+00 -3.0825957104e+00 1.7797374632e+00 3.0825957104e+00 
51100 5.7448031446e+00 1.2900614721e-04 1.7797339145e+00 -3.0825895638e+00 1.7797339145e+00 3.0825895638e+00 
51200 5.7448031447e+00 1.3139854942e-04 1.7797302902e+00 -3.0825832863e+00 1.7797302902e+00 3.0825832863e+00 
51300 5.7448031448e+00 1.3349398803e-04 1.7797265986e+00 -3.0825768924e+00 1.7797265986e+00 3.0825768924e+00 
51400 5.7448031447e+00 1.3529429309e-04 1.7797228482e+00 -3.0825703965e+00 1.7797228482e+00 3.0825703965e+00 
51500 5.7448031445e+00 1.3680194815e-04 1.7797190472e+00 -3.0825638130e+00 1.7797190472e+00 3.0825638130e+00 
51600 5.7448031443e+00 1.3802006790e-04 1.7797152039e+00 -3.0825571561e+00 1.7797152039e+00 3.0825571561e+00 
51700 5.7448031441e+00 1.3895237472e-04 1.7797113263e+00 -3.0825504399e+00 1.7797113263e+00 3.0825504399e+00 
51800 5.7448031439e+00 1.3960317452e-04 1.7797074225e+00 -3.0825436784e+00 1.7797074225e+00 3.0825436784e+00 
51900 5.7448031437e+00 1.3997733177e-04 1.7797035004e+00 -3.0825368851e+00 1.7797035004e+00 3.0825368851e+00 
52000 5.7448031435e+00 1.4008024384e-04 1.7796995678e+00 -3.0825300737e+00 1.7796995678e+00 3.0825300737e+00 
52100 5.7448031433e+00 1.3991781482e-04 1.7796956323e+00 -3.0825232572e+00 1.7796956323e+00 3.0825232572e+00 
52200 5.7448031432e+00 1.3949642871e-04 1.7796917014e+00 -3.0825164486e+00 1.7796917014e+00 3.0825164486e+00 
52300 5.7448031431e+00 1.3882292225e-04 1.7796877823e+00 -3.0825096605e+00 1.7796877823e+00 3.0825096605e+00 
52400 5.7448031432e+00 1.3790455730e-04 1.7796838821e+00 -3.0825029051e+00 1.7796838821e+00 3.0825029051e+00 
52500 5.7448031433e+00 1.3674899303e-04 1.7796800076e+00 -3.0824961945e+00 1.7796800076e+00 3.0824961945e+00 
52600 5.7448031434e+00 1.3536425775e-04 1.7796761657e+00 -3.0824895400e+00 1.7796761657e+00 3.0824895400e+00 
52700 5.7448031437e+00 1.3375872072e-04 1.7796723626e+00 -3.0824829529e+00 1.7796723626e+00 3.0824829529e+00 
52800 5.7448031441e+00 1.3194106378e-04 1.7796686047e+00 -3.0824764439e+00 1.7796686047e+00 3.0824764439e+00 
52900 5.7448031446e+00 1.2992025301e-04 1.7796648978e+00 -3.0824700234e+00 1.7796648978e+00 3.0824700234e+00 
53000 5.7448031452e+00 1.2770551045e-04 1.7796612476e+00 -3.0824637012e+00 1.7796612476e+00 3.0824637012e+00 
53100 5.7448031459e+00 1.2530628590e-04 1.7796576597e+00 -3.0824574867e+00 1.7796576597e+00 3.0824574867e+00 
53200 5.7448031467e+00 1.2273222897e-04 1.7796541392e+00 -3.0824513890e+00 1.7796541392e+00 3.0824513890e+00 
53300 5.7448031476e+00 1.1999316126e-04 1.7796506910e+00 -3.0824454166e+00 1.7796506910e+00 3.0824454166e+00 
53400 5.7448031486e+00 1.1709904900e-04 1.7796473198e+00 -3.0824395774e+00 1.7796473198e+00 3.0824395774e+00 
53500 5.7448031498e+00 1.1405997585e-04 1.7796440298e+00 -3.0824338790e+00 1.7796440298e+00 3.0824338790e+00 
53600 5.7448031510e+00 1.1088611634e-04 1.7796408252e+00 -3.0824283285e+00 1.7796408252e+00 3.0824283285e+00 
53700 5.7448031523e+00 1.0758770958e-04 1.7796377098e+00 -3.0824229325e+00 1.7796377098e+00 3.0824229325e+00 
53800 5.7448031538e+00 1.0417503356e-04 1.7796346871e+00 -3.0824176970e+00 1.7796346871e+00 3.0824176970e+00 
53900 5.7448031553e+00 1.0065838005e-04 1.7796317602e+00 -3.0824126275e+00 1.7796317602e+00 3.0824126275e+00 
54000 5.7448031569e+00 9.7048030071e-05 1.7796289322e+00 -3.0824077291e+00 1.7796289322e+00 3.0824077291e+00 
54100 5.7448031585e+00 9.3354229969e-05 1.7796262055e+00 -3.0824030064e+00 1.7796262055e+00 3.0824030064e+00 
54200 5.7448031602e+00 8.9587168269e-05 1.7796235827e+00 -3.0823984635e+00 1.7796235827e+00 3.0823984635e+00 
54300 5.7448031620e+00 8.5756953179e-05 1.7796210656e+00 -3.0823941039e+00 1.7796210656e+00 3.0823941039e+00 
54400 5.7448031638e+00 8.1873590900e-05 1.7796186562e+00 -3.0823899307e+00 1.7796186562e+00 3.0823899307e+00 
54500 5.7448031657e+00 7.7946964686e-05 1.7796163559e+00 -3.0823859464e+00 1.7796163559e+00 3.0823859464e+00 
54600 5.7448031676e+00 7.3986814766e-05 1.7796141659e+00 -3.0823821532e+00 1.7796141659e+00 3.0823821532e+00 
54700 5.7448031695e+00 7.0002719077e-05 1.7796120872e+00 -3.0823785528e+00 1.7796120872e+00 3.0823785528e+00 
54800 5.7448031716e+00 6.7850460153e-05 1.7796120872e+00 -3.0823785528e+00 1.7796120872e+00 3.0823785528e+00 
54900 5.7448031737e+00 6.5597391775e-05 1.7796120872e+00 -3.0823785528e+00 1.7796120872e+00 3.0823785528e+00 
55000 5.7448031757e+00 6.3253433803e-05 1.7796120872e+00 -3.0823785528e+00 1.7796120872e+00 3.0823785528e+00 
55100 5.7448031777e+00 6.0828335332e-05 1.7796120872e+00 -3.0823785528e+00 1.7796120872e+00 3.0823785528e+00 
55200 5.7448031796e+00 5.8331659144e-05 1.7796120872e+00 -3.0823785528e+00 1.7796120872e+00 3.0823785528e+00 
55300 5.7448031815e+00 5.5772767119e-05 1.7796120872e+00 -3.0823785528e+00 1.7796120872e+00 3.0823785528e+00 
55400 5.7448031834e+00 5.3160806666e-05 1.7796120872e+00 -3.0823785528e+00 1.7796120872e+00 3.0823785528e+00 
55500 5.7448031852e+00 5.0504698120e-05 1.7796120872e+00 -3.0823785528e+00 1.7796120872e+00 3.0823785528e+00 
55600 5.7448031870e+00 4.7813123107e-05 1.7796120872e+00 -3.0823785528e+00 1.7796120872e+00 3.0823785528e+00 
55700 5.7448031887e+00 4.5094513896e-05 1.7796120872e+00 -3.0823785528e+00 1.7796120872e+00 3.0823785528e+00 
55800 5.7448031903e+00 4.2357043682e-05 1.7796120872e+00 -3.0823785528e+00 1.7796120872e+00 3.0823785528e+00 
55900 5.7448031919e+00 3.9608617824e-05 1.7796120872e+00 -3.0823785528e+00 1.7796120872e+00 3.0823785528e+00 
56000 5.7448031934e+00 3.6856865995e-05 1.7796120872e+00 -3.0823785528e+00 1.7796120872e+00 3.0823785528e+00 
56100 5.7448031948e+00 3.4109135244e-05 1.7796120872e+00 -3.0823785528e+00 1.7796120872e+00 3.0823785528e+00 
56200 5.7448031962e+00 3.1372483952e-05 1.7796120872e+00 -3.0823785528e+00 1.7796120872e+00 3.0823785528e+00 
56300 5.7448031975e+00 2.8653676662e-05 1.7796120872e+00 -3.0823785528e+00 1.7796120872e+00 3.0823785528e+00 
56400 5.7448031988e+00 2.5959179747e-05 1.7796120872e+00 -3.0823785528e+00 1.7796120872e+00 3.0823785528e+00 
56500 5.7448032000e+00 2.3295157909e-05 1.7796120872e+00 -3.0823785528e+00 1.7796120872e+00 3.0823785528e+00 
56600 5.7448032011e+00 2.0667471504e-05 1.7796120872e+00 -3.0823785528e+00 1.7796120872e+00 3.0823785528e+00 
56700 5.7448032022e+00 1.8081674619e-05 1.7796120872e+00 -3.0823785528e+00 1.7796120872e+00 3.0823785528e+00 
56800 5.7448032032e+00 1.5543013925e-05 1.7796120872e+00 -3.0823785528e+00 1.7796120872e+00 3.0823785528e+00 
56900 5.7448032042e+00 1.3056428266e-05 1.7796120872e+00 -3.0823785528e+00 1.7796120872e+00 3.0823785528e+00 
57000 5.7448032052e+00 1.0626548937e-05 1.7796120872e+00 -3.0823785528e+00 1.7796120872e+00 3.0823785528e+00 
57100 5.7448032061e+00 8.2577006589e-06 1.7796120872e+00 -3.0823785528e+00 1.7796120872e+00 3.0823785528e+00 
57200 5.7448032069e+00 5.9539031981e-06 1.7796120872e+00 -3.0823785528e+00 1.7796120872e+00 3.0823785528e+00 
57300 5.7448032077e+00 3.7188736077e-06 1.7796120872e+00 -3.0823785528e+00 1.7796120872e+00 3.0823785528e+00 
57400 5.7448032085e+00 1.5560290725e-06 1.7796120872e+00 -3.0823785528e+00 1.7796120872e+00 3.0823785528e+00 
57500 5.7448032093e+00 -5.3150967770e-07 1.7796120872e+00 -3.0823785528e+00 1.7796120872e+00 3.0823785528e+00 
57600 5.7448032100e+00 -2.5409144231e-06 1.7796120872e+00 -3.0823785528e+00 1.7796120872e+00 3.0823785528e+00 
57700 5.7448032107e+00 -4.4696449880e-06 1.7796120872e+00 -3.0823785528e+00 1.7796120872e+00 3.0823785528e+00 
57800 5.7448032113e+00 -6.3154443015e-06 1.7796120872e+00 -3.0823785528e+00 1.7796120872e+00 3.0823785528e+00 
57900 5.7448032120e+00 -8.0763329927e-06 1.7796120872e+00 -3.0823785528e+00 1.7796120872e+00 3.0823785528e+00 
58000 5.7448032126e+00 -9.7506035809e-06 1.7796120872e+00 -3.0823785528e+00 1.7796120872e+00 3.0823785528e+00 
58100 5.7448032132e+00 -1.1336814248e-05 1.7796120872e+00 -3.0823785528e+00 1.7796120872e+00 3.0823785528e+00 
58200 5.7448032138e+00 -1.2833782259e-05 1.7796120872e+00 -3.0823785528e+00 1.7796120872e+00 3.0823785528e+00 
58300 5.7448032144e+00 -1.4240577032e-05 1.7796120872e+00 -3.0823785528e+00 1.7796120872e+00 3.0823785528e+00 
58400 5.7448032150e+00 -1.5556512911e-05 1.7796120872e+00 -3.0823785528e+00 1.7796120872e+00 3.0823785528e+00 
58500 5.7448032156e+00 -1.6781141641e-05 1.7796120872e+00 -3.0823785528e+00 1.7796120872e+00 3.0823785528e+00 
58600 5.7448032162e+00 -1.7914244595e-05 1.7796120872e+00 -3.0823785528e+00 1.7796120872e+00 3.0823785528e+00 
58700 5.7448032167e+00 -1.8955824772e-05 1.7796120872e+00 -3.0823785528e+00 1.7796120872e+00 3.0823785528e+00 
58800 5.7448032173e+00 -1.9906098589e-05 1.7796120872e+00 -3.0823785528e+00 1.7796120872e+00 3.0823785528e+00 
58900 5.7448032179e+00 -2.0765487499e-05 1.7796120872e+00 -3.0823785528e+00 1.7796120872e+00 3.0823785528e+00 
59000 5.7448032185e+00 -2.1534609449e-05 1.7796120872e+00 -3.0823785528e+00 1.7796120872e+00 3.0823785528e+00 
59100 5.7448032190e+00 -2.2214270224e-05 1.7796120872e+00 -3.0823785528e+00 1.7796120872e+00 3.0823785528e+00 
59200 5.7448032196e+00 -2.2805454687e-05 1.7796120872e+00 -3.0823785528e+00 1.7796120872e+00 3.0823785528e+00 
59300 5.7448032202e+00 -2.3309317918e-05 1.7796120872e+00 -3.0823785528e+00 1.7796120872e+00 3.0823785528e+00 
59400 5.7448032208e+00 -2.3727176330e-05 1.7796120872e+00 -3.0823785528e+00 1.7796120872e+00 3.0823785528e+00 
59500 5.7448032214e+00 -2.4060498720e-05 1.7796120872e+00 -3.0823785528e+00 1.7796120872e+00 3.0823785528e+00 
59600 5.7448032220e+00 -2.4310897338e-05 1.7796120872e+00 -3.0823785528e+00 1.7796120872e+00 3.0823785528e+00 
59700 5.7448032226e+00 -2.4480118922e-05 1.7796120872e+00 -3.0823785528e+00 1.7796120872e+00 3.0823785528e+00 
59800 5.7448032232e+00 -2.4570035805e-05 1.7796120872e+00 -3.0823785528e+00 1.7796120872e+00 3.0823785528e+00 
59900 5.7448032238e+00 -2.4582637031e-05 1.7796120872e+00 -3.0823785528e+00 1.7796120872e+00 3.0823785528e+00 
60000 5.7448032245e+00 -2.4520019561e-05 1.7796120872e+00 -3.0823785528e+00 1.7796120872e+00 3.0823785528e+00 
60100 5.7448032251e+00 -2.4384379549e-05 1.7796120872e+00 -3.0823785528e+00 1.7796120872e+00 3.0823785528e+00 
60200 5.7448032257e+00 -2.4178003708e-05 1.7796120872e+00 -3.0823785528e+00 1.7796120872e+00 3.0823785528e+00 
60300 5.7448032263e+00 -2.3903260818e-05 1.7796120872e+00 -3.0823785528e+00 1.7796120872e+00 3.0823785528e+00 
60400 5.7448032270e+00 -2.3562593330e-05 1.7796120872e+00 -3.0823785528e+00 1.7796120872e+00 3.0823785528e+00 
60500 5.7448032276e+00 -2.3158509137e-05 1.7796120872e+00 -3.0823785528e+00 1.7796120872e+00 3.0823785528e+00 
60600 5.7448032283e+00 -2.2693573483e-05 1.7796120872e+00 -3.0823785528e+00 1.7796120872e+00 3.0823785528e+00 
60700 5.7448032289e+00 -2.2170401054e-05 1.7796120872e+00 -3.0823785528e+00 1.7796120872e+00 3.0823785528e+00 
60800 5.7448032296e+00 -2.1591648253e-05 1.7796120872e+00 -3.0823785528e+00 1.7796120872e+00 3.0823785528e+00 
60900 5.7448032302e+00 -2.0960005643e-05 1.7796120872e+00 -3.0823785528e+00 1.7796120872e+00 3.0823785528e+00 
61000 5.7448032308e+00 -2.0278190615e-05 1.7796120872e+00 -3.0823785528e+00 1.7796120872e+00 3.0823785528e+00 
61100 5.7448032315e+00 -1.9548940250e-05 1.7796120872e+00 -3.0823785528e+00 1.7796120872e+00 3.0823785528e+00 
61200 5.7448032321e+00 -1.8775004412e-05 1.7796120872e+00 -3.0823785528e+00 1.7796120872e+00 3.0823785528e+00 
61300 5.7448032328e+00 -1.7959139056e-05 1.7796120872e+00 -3.0823785528e+00 1.7796120872e+00 3.0823785528e+00 
61400 5.7448032334e+00 -1.7104099772e-05 1.7796120872e+00 -3.0823785528e+00 1.7796120872e+00 3.0823785528e+00 
61500 5.7448032340e+00 -1.6212635565e-05 1.7796120872e+00 -3.0823785528e+00 1.7796120872e+00 3.0823785528e+00 
61600 5.7448032346e+00 -1.5287482889e-05 1.7796120872e+00 -3.0823785528e+00 1.7796120872e+00 3.0823785528e+00 
61700 5.7448032353e+00 -1.4331359913e-05 1.7796120872e+00 -3.0823785528e+00 1.7796120872e+00 3.0823785528e+00 
61800 5.7448032359e+00 -1.3346961049e-05 1.7796120872e+00 -3.0823785528e+00 1.7796120872e+00 3.0823785528e+00 
61900 5.7448032365e+00 -1.2336951727e-05 1.7796120872e+00 -3.0823785528e+00 1.7796120872e+00 3.0823785528e+00 
62000 5.7448032371e+00 -1.1303963447e-05 1.7796120872e+00 -3.0823785528e+00 1.7796120872e+00 3.0823785528e+00 
62100 5.7448032377e+00 -1.0250589057e-05 1.7796120872e+00 -3.0823785528e+00 1.7796120872e+00 3.0823785528e+00 
62200 5.7448032382e+00 -9.1793783175e-06 1.7796120872e+00 -3.0823785528e+00 1.7796120872e+00 3.0823785528e+00 
62300 5.7448032388e+00 -8.0928337184e-06 1.7796120872e+00 -3.0823785528e+00 1.7796120872e+00 3.0823785528e+00 
62400 5.7448032394e+00 -6.9934065479e-06 1.7796120872e+00 -3.0823785528e+00 1.7796120872e+00 3.0823785528e+00 
62500 5.7448032399e+00 -5.8834932353e-06 1.7796120872e+00 -3.0823785528e+00 1.7796120872e+00 3.0823785528e+00 
62600 5.7448032405e+00 -4.7654319356e-06 1.7796120872e+00 -3.0823785528e+00 1.7796120872e+00 3.0823785528e+00 
62700 5.7448032410e+00 -3.6414993857e-06 1.7796120872e+00 -3.0823785528e+00 1.7796120872e+00 3.0823785528e+00 
62800 5.7448032415e+00 -2.5139080007e-06 1.7796120872e+00 -3.0823785528e+00 1.7796120872e+00 3.0823785528e+00 
62900 5.7448032421e+00 -1.3848032350e-06 1.7796120872e+00 -3.0823785528e+00 1.7796120872e+00 3.0823785528e+00 
63000 5.7448032426e+00 -2.5626117228e-07 1.7796120872e+00 -3.0823785528e+00 1.7796120872e+00 3.0823785528e+00 
63100 5.7448032431e+00 8.6971361725e-07 1.7796120872e+00 -3.0823785528e+00 1.7796120872e+00 3.0823785528e+00 
63200 5.7448032435e+00 1.9911900068e-06 1.7796120872e+00 -3.0823785528e+00 1.7796120872e+00 3.0823785528e+00 
63300 5.7448032440e+00 3.1063119743e-06 1.7796120872e+00 -3.0823785528e+00 1.7796120872e+00 3.0823785528e+00 
63400 5.7448032445e+00 4.2133000678e-06 1.7796120872e+00 -3.0823785528e+00 1.7796120872e+00 3.0823785528e+00 
63500 5.7448032449e+00 5.3104526261e-06 1.7796120872e+00 -3.0823785528e+00 1.7796120872e+00 3.0823785528e+00 
63600 5.7448032454e+00 6.3961467790e-06 1.7796120872e+00 -3.0823785528e+00 1.7796120872e+00 3.0823785528e+00 
63700 5.7448032458e+00 7.4688392424e-06 1.7796120872e+00 -3.0823785528e+00 1.7796120872e+00 3.0823785528e+00 
63800 5.7448032463e+00 8.5270669036e-06 1.7796120872e+00 -3.0823785528e+00 1.7796120872e+00 3.0823785528e+00 
63900 5.7448032467e+00 9.5694471934e-06 1.7796120872e+00 -3.0823785528e+00 1.7796120872e+00 3.0823785528e+00 
64000 5.7448032471e+00 1.0594678291e-05 1.7796120872e+00 -3.0823785528e+00 1.7796120872e+00 3.0823785528e+00 
64100 5.7448032475e+00 1.1601539104e-05 1.7796120872e+00 -3.0823785528e+00 1.7796120872e+00 3.0823785528e+00 
64200 5.7448032479e+00 1.2588889101e-05 1.7796120872e+00 -3.0823785528e+00 1.7796120872e+00 3.0823785528e+00 
64300 5.7448032483e+00 1.3555667947e-05 1.7796120872e+00 -3.0823785528e+00 1.7796120872e+00 3.0823785528e+00 
64400 5.7448032487e+00 1.4500894983e-05 1.7796120872e+00 -3.0823785528e+00 1.7796120872e+00 3.0823785528e+00 
64500 5.7448032491e+00 1.5423668543e-05 1.7796120872e+00 -3.0823785528e+00 1.7796120872e+00 3.0823785528e+00 
64600 5.7448032494e+00 1.6323165119e-05 1.7796120872e+00 -3.0823785528e+00 1.7796120872e+00 3.0823785528e+00 
64700 5.7448032498e+00 1.7198638383e-05 1.7796120872e+00 -3.0823785528e+00 1.7796120872e+00 3.0823785528e+00 
64800 5.7448032501e+00 1.8049418065e-05 1.7796120872e+00 -3.0823785528e+00 1.7796120872e+00 3.0823785528e+00 
64900 5.7448032505e+00 1.8874908719e-05 1.7796120872e+00 -3.0823785528e+00 1.7796120872e+00 3.0823785528e+00 
65000 5.7448032508e+00 1.9674588339e-05 1.7796120872e+00 -3.0823785528e+00 1.7796120872e+00 3.0823785528e+00 
65100 5.7448032512e+00 2.0448006881e-05 1.7796120872e+00 -3.0823785528e+00 1.7796120872e+00 3.0823785528e+00 
65200 5.7448032515e+00 2.1194784679e-05 1.7796120872e+00 -3.0823785528e+00 1.7796120872e+00 3.0823785528e+00 
65300 5.7448032518e+00 2.1914610749e-05 1.7796120872e+00 -3.0823785528e+00 1.7796120872e+00 3.0823785528e+00 
65400 5.7448032522e+00 2.2607241012e-05 1.7796120872e+00 -3.0823785528e+00 1.7796120872e+00 3.0823785528e+00 
65500 5.7448032525e+00 2.3272496420e-05 1.7796120872e+00 -3.0823785528e+00 1.7796120872e+00 3.0823785528e+00 
65600 5.7448032528e+00 2.3910261018e-05 1.7796120872e+00 -3.0823785528e+00 1.7796120872e+00 3.0823785528e+00 
65700 5.7448032531e+00 2.4520479931e-05 1.7796120872e+00 -3.0823785528e+00 1.7796120872e+00 3.0823785528e+00 
65800 5.7448032534e+00 2.5103157285e-05 1.7796120872e+00 -3.0823785528e+00 1.7796120872e+00 3.0823785528e+00 
65900 5.7448032537e+00 2.5658354070e-05 1.7796120872e+00 -3.0823785528e+00 1.7796120872e+00 3.0823785528e+00 
66000 5.7448032540e+00 2.6186185968e-05 1.7796120872e+00 -3.0823785528e+00 1.7796120872e+00 3.0823785528e+00 
66100 5.7448032543e+00 2.6686821116e-05 1.7796120872e+00 -3.0823785528e+00 1.7796120872e+00 3.0823785528e+00 
66200 5.7448032546e+00 2.7160477855e-05 1.7796120872e+00 -3.0823785528e+00 1.7796120872e+00 3.0823785528e+00 
66300 5.7448032549e+00 2.7607422431e-05 1.7796120872e+00 -3.0823785528e+00 1.7796120872e+00 3.0823785528e+00 
66400 5.7448032552e+00 2.8027966686e-05 1.7796120872e+00 -3.0823785528e+00 1.7796120872e+00 3.0823785528e+00 
66500 5.7448032555e+00 2.8422465727e-05 1.7796120872e+00 -3.0823785528e+00 1.7796120872e+00 3.0823785528e+00 
66600 5.7448032557e+00 2.8791315585e-05 1.7796120872e+00 -3.0823785528e+00 1.7796120872e+00 3.0823785528e+00 
66700 5.7448032560e+00 2.9134950859e-05 1.7796120872e+00 -3.0823785528e+00 1.7796120872e+00 3.0823785528e+00 
66800 5.7448032563e+00 2.9453842375e-05 1.7796120872e+00 -3.0823785528e+00 1.7796120872e+00 3.0823785528e+00 
66900 5.7448032565e+00 2.9748494838e-05 1.7796120872e+00 -3.0823785528e+00 1.7796120872e+00 3.0823785528e+00 
67000 5.7448032568e+00 3.0019444498e-05 1.7796120872e+00 -3.0823785528e+00 1.7796120872e+00 3.0823785528e+00 
67100 5.7448032571e+00 3.0267256839e-05 1.7796120872e+00 -3.0823785528e+00 1.7796120872e+00 3.0823785528e+00 
67200 5.7448032573e+00 3.0492524267e-05 1.7796120872e+00 -3.0823785528e+00 1.7796120872e+00 3.0823785528e+00 
67300 5.7448032576e+00 3.0695863845e-05 1.7796120872e+00 -3.0823785528e+00 1.7796120872e+00 3.0823785528e+00 
67400 5.7448032578e+00 3.0877915031e-05 1.7796120872e+00 -3.0823785528e+00 1.7796120872e+00 3.0823785528e+00 
67500 5.7448032581e+00 3.1039337494e-05 1.7796120872e+00 -3.0823785528e+00 1.7796120872e+00 3.0823785528e+00 
67600 5.7448032583e+00 3.1180808898e-05 1.7796120872e+00 -3.0823785528e+00 1.7796120872e+00 3.0823785528e+00 
67700 5.7448032586e+00 3.1303022786e-05 1.7796120872e+00 -3.0823785528e+00 1.7796120872e+00 3.0823785528e+00 
67800 5.7448032588e+00 3.1406686474e-05 1.7796120872e+00 -3.0823785528e+00 1.7796120872e+00 3.0823785528e+00 
67900 5.7448032591e+00 3.1492519012e-05 1.7796120872e+00 -3.0823785528e+00 1.7796120872e+00 3.0823785528e+00 
68000 5.7448032593e+00 3.1561249165e-05 1.7796120872e+00 -3.0823785528e+00 1.7796120872e+00 3.0823785528e+00 
68100 5.7448032595e+00 3.1613613476e-05 1.7796120872e+00 -3.0823785528e+00 1.7796120872e+00 3.0823785528e+00 
68200 5.7448032598e+00 3.1650354367e-05 1.7796120872e+00 -3.0823785528e+00 1.7796120872e+00 3.0823785528e+00 
68300 5.7448032600e+00 3.1672218300e-05 1.7796120872e+00 -3.0823785528e+00 1.7796120872e+00 3.0823785528e+00 
68400 5.7448032602e+00 3.1679953992e-05 1.7796120872e+00 -3.0823785528e+00 1.7796120872e+00 3.0823785528e+00 
68500 5.7448032605e+00 3.1674310698e-05 1.7796120872e+00 -3.0823785528e+00 1.7796120872e+00 3.0823785528e+00 
68600 5.7448032607e+00 3.1656036550e-05 1.7796120872e+00 -3.0823785528e+00 1.7796120872e+00 3.0823785528e+00 
68700 5.7448032609e+00 3.1625876965e-05 1.7796120872e+00 -3.0823785528e+00 1.7796120872e+00 3.0823785528e+00 
68800 5.7448032611e+00 3.1584573111e-05 1.7796120872e+00 -3.0823785528e+00 1.7796120872e+00 3.0823785528e+00 
68900 5.7448032613e+00 3.1532860441e-05 1.7796120872e+00 -3.0823785528e+00 1.7796120872e+00 3.0823785528e+00 
69000 5.7448032615e+00 3.1471467295e-05 1.7796120872e+00 -3.0823785528e+00 1.7796120872e+00 3.0823785528e+00 
69100 5.7448032617e+00 3.1401113564e-05 1.7796120872e+00 -3.0823785528e+00 1.7796120872e+00 3.0823785528e+00 
69200 5.7448032619e+00 3.1322509438e-05 1.7796120872e+00 -3.0823785528e+00 1.7796120872e+00 3.0823785528e+00 
69300 5.7448032621e+00 3.1236354197e-05 1.7796120872e+00 -3.0823785528e+00 1.7796120872e+00 3.0823785528e+00 
69400 5.7448032623e+00 3.1143335087e-05 1.7796120872e+00 -3.0823785528e+00 1.7796120872e+00 3.0823785528e+00 
69500 5.7448032625e+00 3.1044126264e-05 1.7796120872e+00 -3.0823785528e+00 1.7796120872e+00 3.0823785528e+00 
69600 5.7448032627e+00 3.0939387798e-05 1.7796120872e+00 -3.0823785528e+00 1.7796120872e+00 3.0823785528e+00 
69700 5.7448032629e+00 3.0829764756e-05 1.7796120872e+00 -3.0823785528e+00 1.7796120872e+00 3.0823785528e+00 
69800 5.7448032631e+00 3.0715886334e-05 1.7796120872e+00 -3.0823785528e+00 1.7796120872e+00 3.0823785528e+00 
69900 5.7448032633e+00 3.0598365080e-05 1.7796120872e+00 -3.0823785528e+00 1.7796120872e+00 3.0823785528e+00 
70000 5.7448032634e+00 3.0477796160e-05 1.7796120872e+00 -3.0823785528e+00 1.7796120872e+00 3.0823785528e+00 
70100 5.7448032636e+00 3.0354756713e-05 1.7796120872e+00 -3.0823785528e+00 1.7796120872e+00 3.0823785528e+00 
70200 5.7448032638e+00 3.0229805239e-05 1.7796120872e+00 -3.0823785528e+00 1.7796120872e+00 3.0823785528e+00 
70300 5.7448032640e+00 3.0103481088e-05 1.7796120872e+00 -3.0823785528e+00 1.7796120872e+00 3.0823785528e+00 
70400 5.7448032641e+00 2.9976303979e-05 1.7796120872e+00 -3.0823785528e+00 1.7796120872e+00 3.0823785528e+00 
70500 5.7448032643e+00 2.9848773601e-05 1.7796120872e+00 -3.0823785528e+00 1.7796120872e+00 3.0823785528e+00 
70600 5.7448032644e+00 2.9721369253e-05 1.7796120872e+00 -3.0823785528e+00 1.7796120872e+00 3.0823785528e+00 
70700 5.7448032646e+00 2.9594549574e-05 1.7796120872e+00 -3.0823785528e+00 1.7796120872e+00 3.0823785528e+00 
70800 5.7448032648e+00 2.9468752293e-05 1.7796120872e+00 -3.0823785528e+00 1.7796120872e+00 3.0823785528e+00 
70900 5.7448032649e+00 2.9344394062e-05 1.7796120872e+00 -3.0823785528e+00 1.7796120872e+00 3.0823785528e+00 
71000 5.7448032651e+00 2.9221870328e-05 1.7796120872e+00 -3.0823785528e+00 1.7796120872e+00 3.0823785528e+00 
71100 5.7448032652e+00 2.9101555257e-05 1.7796120872e+00 -3.0823785528e+00 1.7796120872e+00 3.0823785528e+00 
71200 5.7448032654e+00 2.8983801725e-05 1.7796120872e+00 -3.0823785528e+00 1.7796120872e+00 3.0823785528e+00 
71300 5.7448032655e+00 2.8868941329e-05 1.7796120872e+00 -3.0823785528e+00 1.7796120872e+00 3.0823785528e+00 
71400 5.7448032656e+00 2.8757284471e-05 1.7796120872e+00 -3.0823785528e+00 1.7796120872e+00 3.0823785528e+00 
71500 5.7448032658e+00 2.8649120470e-05 1.7796120872e+00 -3.0823785528e+00 1.7796120872e+00 3.0823785528e+00 
71600 5.7448032659e+00 2.8544717723e-05 1.7796120872e+00 -3.0823785528e+00 1.7796120872e+00 3.0823785528e+00 
71700 5.7448032661e+00 2.8444323911e-05 1.7796120872e+00 -3.0823785528e+00 1.7796120872e+00 3.0823785528e+00 
71800 5.7448032662e+00 2.8348166226e-05 1.7796120872e+00 -3.0823785528e+00 1.7796120872e+00 3.0823785528e+00 
71900 5.7448032663e+00 2.8256451661e-05 1.7796120872e+00 -3.0823785528e+00 1.7796120872e+00 3.0823785528e+00 
72000 5.7448032665e+00 2.8169367314e-05 1.7796120872e+00 -3.0823785528e+00 1.7796120872e+00 3.0823785528e+00 
72100 5.7448032666e+00 2.8087080732e-05 1.7796120872e+00 -3.0823785528e+00 1.7796120872e+00 3.0823785528e+00 
72200 5.7448032667e+00 2.8009740289e-05 1.7796120872e+00 -3.0823785528e+00 1.7796120872e+00 3.0823785528e+00 
72300 5.7448032668e+00 2.7937475590e-05 1.7796120872e+00 -3.0823785528e+00 1.7796120872e+00 3.0823785528e+00 
72400 5.7448032669e+00 2.7870397900e-05 1.7796120872e+00 -3.0823785528e+00 1.7796120872e+00 3.0823785528e+00 
72500 5.7448032671e+00 2.7808600596e-05 1.7796120872e+00 -3.0823785528e+00 1.7796120872e+00 3.0823785528e+00 
72600 5.7448032672e+00 2.7752159656e-05 1.7796120872e+00 -3.0823785528e+00 1.7796120872e+00 3.0823785528e+00 
72700 5.7448032673e+00 2.7701134150e-05 1.7796120872e+00 -3.0823785528e+00 1.7796120872e+00 3.0823785528e+00 
72800 5.7448032674e+00 2.7655566766e-05 1.7796120872e+00 -3.0823785528e+00 1.7796120872e+00 3.0823785528e+00 
72900 5.7448032675e+00 2.7615484337e-05 1.7796120872e+00 -3.0823785528e+00 1.7796120872e+00 3.0823785528e+00 
73000 5.7448032676e+00 2.7580898401e-05 1.7796120872e+00 -3.0823785528e+00 1.7796120872e+00 3.0823785528e+00 
73100 5.7448032677e+00 2.7551805770e-05 1.7796120872e+00 -3.0823785528e+00 1.7796120872e+00 3.0823785528e+00 
73200 5.7448032679e+00 2.7528189091e-05 1.7796120872e+00 -3.0823785528e+00 1.7796120872e+00 3.0823785528e+00 
73300 5.7448032680e+00 2.7510017458e-05 1.7796120872e+00 -3.0823785528e+00 1.7796120872e+00 3.0823785528e+00 
73400 5.7448032681e+00 2.7497246989e-05 1.7796120872e+00 -3.0823785528e+00 1.7796120872e+00 3.0823785528e+00 
73500 5.7448032682e+00 2.7489821431e-05 1.7796120872e+00 -3.0823785528e+00 1.7796120872e+00 3.0823785528e+00 
73600 5.7448032683e+00 2.7487672780e-05 1.7796120872e+00 -3.0823785528e+00 1.7796120872e+00 3.0823785528e+00 
73700 5.7448032684e+00 2.7490721882e-05 1.7796120872e+00 -3.0823785528e+00 1.7796120872e+00 3.0823785528e+00 
73800 5.7448032685e+00 2.7498879056e-05 1.7796120872e+00 -3.0823785528e+00 1.7796120872e+00 3.0823785528e+00 
73900 5.7448032686e+00 2.7512044699e-05 1.7796120872e+00 -3.0823785528e+00 1.7796120872e+00 3.0823785528e+00 
74000 5.7448032687e+00 2.7530109905e-05 1.7796120872e+00 -3.0823785528e+00 1.7796120872e+00 3.0823785528e+00 
74100 5.7448032688e+00 2.7552957083e-05 1.7796120872e+00 -3.0823785528e+00 1.7796120872e+00 3.0823785528e+00 
74200 5.7448032688e+00 2.7580460557e-05 1.7796120872e+00 -3.0823785528e+00 1.7796120872e+00 3.0823785528e+00 
74300 5.7448032689e+00 2.7612487172e-05 1.7796120872e+00 -3.0823785528e+00 1.7796120872e+00 3.0823785528e+00 
74400 5.7448032690e+00 2.7648896898e-05 1.7796120872e+00 -3.0823785528e+00 1.7796120872e+00 3.0823785528e+00 
74500 5.7448032691e+00 2.7689543415e-05 1.7796120872e+00 -3.0823785528e+00 1.7796120872e+00 3.0823785528e+00 
74600 5.7448032692e+00 2.7734274701e-05 1.7796120872e+00 -3.0823785528e+00 1.7796120872e+00 3.0823785528e+00 
74700 5.7448032693e+00 2.7782933604e-05 1.7796120872e+00 -3.0823785528e+00 1.7796120872e+00 3.0823785528e+00 
74800 5.7448032694e+00 2.7835358411e-05 1.7796120872e+00 -3.0823785528e+00 1.7796120872e+00 3.0823785528e+00 
74900 5.7448032695e+00 2.7891383395e-05 1.7796120872e+00 -3.0823785528e+00 1.7796120872e+00 3.0823785528e+00 
75000 5.7448032695e+00 2.7950839365e-05 1.7796120872e+00 -3.0823785528e+00 1.7796120872e+00 3.0823785528e+00 
75100 5.7448032696e+00 2.8013554185e-05 1.7796120872e+00 -3.0823785528e+00 1.7796120872e+00 3.0823785528e+00 
75200 5.7448032697e+00 2.8079353306e-05 1.7796120872e+00 -3.0823785528e+00 1.7796120872e+00 3.0823785528e+00 
75300 5.7448032698e+00 2.8148060252e-05 1.7796120872e+00 -3.0823785528e+00 1.7796120872e+00 3.0823785528e+00 
75400 5.7448032699e+00 2.8219497119e-05 1.7796120872e+00 -3.0823785528e+00 1.7796120872e+00 3.0823785528e+00 
75500 5.7448032699e+00 2.8293485047e-05 1.7796120872e+00 -3.0823785528e+00 1.7796120872e+00 3.0823785528e+00 
75600 5.7448032700e+00 2.8369844676e-05 1.7796120872e+00 -3.0823785528e+00 1.7796120872e+00 3.0823785528e+00 
75700 5.7448032701e+00 2.8448396584e-05 1.7796120872e+00 -3.0823785528e+00 1.7796120872e+00 3.0823785528e+00 
75800 5.7448032702e+00 2.8528961718e-05 1.7796120872e+00 -3.0823785528e+00 1.7796120872e+00 3.0823785528e+00 
75900 5.7448032702e+00 2.8611361800e-05 1.7796120872e+00 -3.0823785528e+00 1.7796120872e+00 3.0823785528e+00 
76000 5.7448032703e+00 2.8695419714e-05 1.7796120872e+00 -3.0823785528e+00 1.7796120872e+00 3.0823785528e+00 
76100 5.7448032704e+00 2.8780959896e-05 1.7796120872e+00 -3.0823785528e+00 1.7796120872e+00 3.0823785528e+00 
76200 5.7448032704e+00 2.8867808662e-05 1.7796120872e+00 -3.0823785528e+00 1.7796120872e+00 3.0823785528e+00 
76300 5.7448032705e+00 2.8955794579e-05 1.7796120872e+00 -3.0823785528e+00 1.7796120872e+00 3.0823785528e+00 
76400 5.7448032706e+00 2.9044748762e-05 1.7796120872e+00 -3.0823785528e+00 1.7796120872e+00 3.0823785528e+00 
76500 5.7448032706e+00 2.9134505193e-05 1.7796120872e+00 -3.0823785528e+00 1.7796120872e+00 3.0823785528e+00 
76600 5.7448032707e+00 2.9224900992e-05 1.7796120872e+00 -3.0823785528e+00 1.7796120872e+00 3.0823785528e+00 
76700 5.7448032708e+00 2.9315776699e-05 1.7796120872e+00 -3.0823785528e+00 1.7796120872e+00 3.0823785528e+00 
76800 5.7448032708e+00 2.9406976519e-05 1.7796120872e+00 -3.0823785528e+00 1.7796120872e+00 3.0823785528e+00 
76900 5.7448032709e+00 2.9498348547e-05 1.7796120872e+00 -3.0823785528e+00 1.7796120872e+00 3.0823785528e+00 
77000 5.7448032709e+00 2.9589744992e-05 1.7796120872e+00 -3.0823785528e+00 1.7796120872e+00 3.0823785528e+00 
77100 5.7448032710e+00 2.9681022366e-05 1.7796120872e+00 -3.0823785528e+00 1.7796120872e+00 3.0823785528e+00 
77200 5.7448032711e+00 2.9772041679e-05 1.7796120872e+00 -3.0823785528e+00 1.7796120872e+00 3.0823785528e+00 
77300 5.7448032711e+00 2.9862668580e-05 1.7796120872e+00 -3.0823785528e+00 1.7796120872e+00 3.0823785528e+00 
77400 5.7448032712e+00 2.9952773526e-05 1.7796120872e+00 -3.0823785528e+00 1.7796120872e+00 3.0823785528e+00 
77500 5.7448032712e+00 3.0042231896e-05 1.7796120872e+00 -3.0823785528e+00 1.7796120872e+00 3.0823785528e+00 
77600 5.7448032713e+00 3.0130924110e-05 1.7796120872e+00 -3.0823785528e+00 1.7796120872e+00 3.0823785528e+00 
77700 5.7448032713e+00 3.0218735733e-05 1.7796120872e+00 -3.0823785528e+00 1.7796120872e+00 3.0823785528e+00 
77800 5.7448032714e+00 3.0305557551e-05 1.7796120872e+00 -3.0823785528e+00 1.7796120872e+00 3.0823785528e+00 
77900 5.7448032715e+00 3.0391285636e-05 1.7796120872e+00 -3.0823785528e+00 1.7796120872e+00 3.0823785528e+00 
78000 5.7448032715e+00 3.0475821412e-05 1.7796120872e+00 -3.0823785528e+00 1.7796120872e+00 3.0823785528e+00 
78100 5.7448032716e+00 3.0559071679e-05 1.7796120872e+00 -3.0823785528e+00 1.7796120872e+00 3.0823785528e+00 
78200 5.7448032716e+00 3.0640948650e-05 1.7796120872e+00 -3.0823785528e+00 1.7796120872e+00 3.0823785528e+00 
78300 5.7448032717e+00 3.0721369960e-05 1.7796120872e+00 -3.0823785528e+00 1.7796120872e+00 3.0823785528e+00 
78400 5.7448032717e+00 3.0800258659e-05 1.7796120872e+00 -3.0823785528e+00 1.7796120872e+00 3.0823785528e+00 
78500 5.7448032717e+00 3.0814290256e-05 1.7796120872e+00 -3.0823785528e+00 1.7796120872e+00 3.0823785528e+00 
78500 5.7448032717e+00 3.0814290256e-05 1.7796120872e+00 -3.0823785528e+00 1.7796120872e+00 3.0823785528e+00 
