# step Hamiltonian StressXX CellTensor1 CellTensor2 CellTensor3 CellTensor4 
0 4.9531190147e+00 -4.6333205855e-01 1.6087831444e+00 -2.7864941444e+00 1.6087831444e+00 2.7864941444e+00 
100 4.9566149882e+00 -4.6507814678e-01 1.6087831444e+00 -2.7864941444e+00 1.6087831444e+00 2.7864941444e+00 
200 4.9525328133e+00 -4.5160745282e-01 1.6232589415e+00 -2.8115669604e+00 1.6232589415e+00 2.8115669604e+00 
300 4.9495835538e+00 -4.3901598463e-01 1.6371891582e+00 -2.8356948036e+00 1.6371891582e+00 2.8356948036e+00 
400 4.9476159671e+00 -4.2724887958e-01 1.6506149229e+00 -2.8589489101e+00 1.6506149229e+00 2.8589489101e+00 
500 4.9464871613e+00 -4.1625576075e-01 1.6635738164e+00 -2.8813943721e+00 1.6635738164e+00 2.8813943721e+00 
600 4.9460623756e+00 -4.0599023578e-01 1.6761002700e+00 -2.9030908262e+00 1.6761002700e+00 2.9030908262e+00 
700 4.9462149344e+00 -3.9640941321e-01 1.6882259067e+00 -2.9240930451e+00 1.6882259067e+00 2.9240930451e+00 
800 4.9468263175e+00 -3.8747344443e-01 1.6999798342e+00 -2.9444514446e+00 1.6999798342e+00 2.9444514446e+00 
900 4.9477862950e+00 -3.7914509753e-01 1.7113888956e+00 -2.9642125187e+00 1.7113888956e+00 2.9642125187e+00 
1000 4.9489930873e+00 -3.7138936812e-01 1.7224778852e+00 -2.9834192121e+00 1.7224778852e+00 2.9834192121e+00 
1100 4.9503535173e+00 -3.6417313040e-01 1.7332697325e+00 -3.0021112400e+00 1.7332697325e+00 3.0021112400e+00 
1200 4.9517831311e+00 -3.5746483090e-01 1.7437856604e+00 -3.0203253613e+00 1.7437856604e+00 3.0203253613e+00 
1300 4.9532062658e+00 -3.5123422598e-01 1.7540453207e+00 -3.0380956142e+00 1.7540453207e+00 3.0380956142e+00 
1400 4.9545560531e+00 -3.4545216279e-01 1.7640669110e+00 -3.0554535178e+00 1.7640669110e+00 3.0554535178e+00 
1500 4.9557743497e+00 -3.4009040271e-01 1.7738672753e+00 -3.0724282466e+00 1.7738672753e+00 3.0724282466e+00 
1600 4.9568115902e+00 -3.3512148504e-01 1.7834619916e+00 -3.0890467829e+00 1.7834619916e+00 3.0890467829e+00 
1700 4.9576265631e+00 -3.3051862796e-01 1.7928654491e+00 -3.1053340489e+00 1.7928654491e+00 3.1053340489e+00 
1800 4.9581861120e+00 -3.2625566320e-01 1.8020909153e+00 -3.1213130252e+00 1.8020909153e+00 3.1213130252e+00 
1900 4.9584647689e+00 -3.2230700026e-01 1.8111505979e+00 -3.1370048558e+00 1.8111505979e+00 3.1370048558e+00 
2000 4.9584443253e+00 -3.1864761571e-01 1.8200556999e+00 -3.1524289448e+00 1.8200556999e+00 3.1524289448e+00 
2100 4.9581133516e+00 -3.1525306302e-01 1.8288164709e+00 -3.1676030452e+00 1.8288164709e+00 3.1676030452e+00 
2200 4.9574666747e+00 -3.1209949834e-01 1.8374422551e+00 -3.1825433419e+00 1.8374422551e+00 3.1825433419e+00 
2300 4.9565048232e+00 -3.0916371779e-01 1.8459415376e+00 -3.1972645310e+00 1.8459415376e+00 3.1972645310e+00 
2400 4.9552334507e+00 -3.0642320236e-01 1.8543219877e+00 -3.2117798962e+00 1.8543219877e+00 3.2117798962e+00 
2500 4.9536627492e+00 -3.0385616641e-01 1.8625905018e+00 -3.2261013827e+00 1.8625905018e+00 3.2261013827e+00 
2600 4.9518068591e+00 -3.0144160691e-01 1.8707532455e+00 -3.2402396696e+00 1.8707532455e+00 3.2402396696e+00 
2700 4.9496832875e+00 -2.9915935046e-01 1.8788156943e+00 -3.2542042406e+00 1.8788156943e+00 3.2542042406e+00 
2800 4.9473123403e+00 -2.9699009609e-01 1.8867826742e+00 -3.2680034545e+00 1.8867826742e+00 3.2680034545e+00 
2900 4.9447165769e+00 -2.9491545213e-01 1.8946584013e+00 -3.2816446140e+00 1.8946584013e+00 3.2816446140e+00 
3000 4.9419202904e+00 -2.9291796601e-01 1.9024465211e+00 -3.2951340333e+00 1.9024465211e+00 3.2951340333e+00 
3100 4.9389490215e+00 -2.9098114637e-01 1.9101501470e+00 -3.3084771046e+00 1.9101501470e+00 3.3084771046e+00 
3200 4.9358291052e+00 -2.8908947715e-01 1.9177718975e+00 -3.3216783638e+00 1.9177718975e+00 3.3216783638e+00 
3300 4.9325872567e+00 -2.8722842372e-01 1.9253139336e+00 -3.3347415535e+00 1.9253139336e+00 3.3347415535e+00 
3400 4.9292501954e+00 -2.8538443149e-01 1.9327779936e+00 -3.3476696847e+00 1.9327779936e+00 3.3476696847e+00 
3500 4.9258443080e+00 -2.8354491736e-01 1.9401654283e+00 -3.3604650969e+00 1.9401654283e+00 3.3604650969e+00 
3600 4.9223953520e+00 -2.8169825499e-01 1.9474772335e+00 -3.3731295151e+00 1.9474772335e+00 3.3731295151e+00 
3700 4.9189281968e+00 -2.7983375445e-01 1.9547140824e+00 -3.3856641050e+00 1.9547140824e+00 3.3856641050e+00 
3800 4.9154666029e+00 -2.7794163729e-01 1.9618763554e+00 -3.3980695257e+00 1.9618763554e+00 3.3980695257e+00 
3900 4.9120330360e+00 -2.7601300787e-01 1.9689641693e+00 -3.4103459796e+00 1.9689641693e+00 3.4103459796e+00 
4000 4.9086485159e+00 -2.7403982175e-01 1.9759774047e+00 -3.4224932596e+00 1.9759774047e+00 3.4224932596e+00 
4100 4.9053324960e+00 -2.7201485207e-01 1.9829157316e+00 -3.4345107943e+00 1.9829157316e+00 3.4345107943e+00 
4200 4.9021027722e+00 -2.6993165456e-01 1.9897786337e+00 -3.4463976893e+00 1.9897786337e+00 3.4463976893e+00 
4300 4.8989754187e+00 -2.6778453193e-01 1.9965654312e+00 -3.4581527675e+00 1.9965654312e+00 3.4581527675e+00 
4400 4.8959647483e+00 -2.6556849826e-01 2.0032753024e+00 -3.4697746053e+00 2.0032753024e+00 3.4697746053e+00 
4500 4.8930832938e+00 -2.6327924376e-01 2.0099073031e+00 -3.4812615675e+00 2.0099073031e+00 3.4812615675e+00 
4600 4.8903418101e+00 -2.6091310050e-01 2.0164603856e+00 -3.4926118394e+00 2.0164603856e+00 3.4926118394e+00 
4700 4.8877492924e+00 -2.5846700927e-01 2.0229334157e+00 -3.5038234563e+00 2.0229334157e+00 3.5038234563e+00 
4800 4.8853130104e+00 -2.5593848799e-01 2.0293251886e+00 -3.5148943317e+00 2.0293251886e+00 3.5148943317e+00 
4900 4.8830385550e+00 -2.5332560176e-01 2.0356344443e+00 -3.5258222831e+00 2.0356344443e+00 3.5258222831e+00 
5000 4.8809298973e+00 -2.5062693461e-01 2.0418598809e+00 -3.5366050556e+00 2.0418598809e+00 3.5366050556e+00 
5100 4.8789894558e+00 -2.4784156323e-01 2.0480001678e+00 -3.5472403445e+00 2.0480001678e+00 3.5472403445e+00 
5200 4.8772181730e+00 -2.4496903243e-01 2.0540539575e+00 -3.5577258158e+00 2.0540539575e+00 3.5577258158e+00 
5300 4.8756155972e+00 -2.4200933250e-01 2.0600198965e+00 -3.5680591254e+00 2.0600198965e+00 3.5680591254e+00 
5400 4.8741799713e+00 -2.3896287827e-01 2.0658966363e+00 -3.5782379373e+00 2.0658966363e+00 3.5782379373e+00 
5500 4.8729083242e+00 -2.3583048988e-01 2.0716828422e+00 -3.5882599398e+00 2.0716828422e+00 3.5882599398e+00 
5600 4.8717965662e+00 -2.3261337507e-01 2.0773772027e+00 -3.5981228616e+00 2.0773772027e+00 3.5981228616e+00 
5700 4.8708395870e+00 -2.2931311279e-01 2.0829784382e+00 -3.6078244861e+00 2.0829784382e+00 3.6078244861e+00 
5800 4.8700313540e+00 -2.2593163817e-01 2.0884853086e+00 -3.6173626653e+00 2.0884853086e+00 3.6173626653e+00 
5900 4.8693650127e+00 -2.2247122840e-01 2.0938966205e+00 -3.6267353325e+00 2.0938966205e+00 3.6267353325e+00 
6000 4.8688329864e+00 -2.1893448958e-01 2.0992112349e+00 -3.6359405146e+00 2.0992112349e+00 3.6359405146e+00 
6100 4.8684270755e+00 -2.1532434420e-01 2.1044280731e+00 -3.6449763435e+00 2.1044280731e+00 3.6449763435e+00 
6200 4.8681385565e+00 -2.1164401910e-01 2.1095461235e+00 -3.6538410667e+00 2.1095461235e+00 3.6538410667e+00 
6300 4.8679582790e+00 -2.0789703377e-01 2.1145644470e+00 -3.6625330580e+00 2.1145644470e+00 3.6625330580e+00 
6400 4.8678767613e+00 -2.0408718869e-01 2.1194821831e+00 -3.6710508268e+00 2.1194821831e+00 3.6710508268e+00 
6500 4.8678842836e+00 -2.0021855355e-01 2.1242985548e+00 -3.6793930273e+00 2.1242985548e+00 3.6793930273e+00 
6600 4.8679709786e+00 -1.9629545530e-01 2.1290128737e+00 -3.6875584672e+00 2.1290128737e+00 3.6875584672e+00 
6700 4.8681269201e+00 -1.9232246562e-01 2.1336245448e+00 -3.6955461159e+00 2.1336245448e+00 3.6955461159e+00 
6800 4.8683422071e+00 -1.8830438783e-01 2.1381330707e+00 -3.7033551118e+00 2.1381330707e+00 3.7033551118e+00 
6900 4.8686070453e+00 -1.8424624302e-01 2.1425380559e+00 -3.7109847700e+00 2.1425380559e+00 3.7109847700e+00 
7000 4.8689118245e+00 -1.8015325528e-01 2.1468392104e+00 -3.7184345882e+00 2.1468392104e+00 3.7184345882e+00 
7100 4.8692471920e+00 -1.7603083588e-01 2.1510363534e+00 -3.7257042531e+00 2.1510363534e+00 3.7257042531e+00 
7200 4.8696041211e+00 -1.7188456638e-01 2.1551294162e+00 -3.7327936458e+00 2.1551294162e+00 3.7327936458e+00 
7300 4.8699739751e+00 -1.6772018054e-01 2.1591184453e+00 -3.7397028468e+00 2.1591184453e+00 3.7397028468e+00 
7400 4.8703485663e+00 -1.6354354500e-01 2.1630036044e+00 -3.7464321398e+00 2.1630036044e+00 3.7464321398e+00 
7500 4.8707202090e+00 -1.5936063876e-01 2.1667851770e+00 -3.7529820156e+00 2.1667851770e+00 3.7529820156e+00 
7600 4.8710817675e+00 -1.5517753141e-01 2.1704635675e+00 -3.7593531748e+00 2.1704635675e+00 3.7593531748e+00 
7700 4.8714266973e+00 -1.5100036027e-01 2.1740393026e+00 -3.7655465298e+00 2.1740393026e+00 3.7655465298e+00 
7800 4.8717490805e+00 -1.4683530637e-01 2.1775130323e+00 -3.7715632061e+00 2.1775130323e+00 3.7715632061e+00 
7900 4.8720436542e+00 -1.4268856948e-01 2.1808855297e+00 -3.7774045429e+00 2.1808855297e+00 3.7774045429e+00 
8000 4.8723058328e+00 -1.3856634242e-01 2.1841576911e+00 -3.7830720927e+00 2.1841576911e+00 3.7830720927e+00 
8100 4.8725317226e+00 -1.3447478455e-01 2.1873305351e+00 -3.7885676198e+00 2.1873305351e+00 3.7885676198e+00 
8200 4.8727181300e+00 -1.3041999496e-01 2.1904052016e+00 -3.7938930983e+00 2.1904052016e+00 3.7938930983e+00 
8300 4.8728625622e+00 -1.2640798531e-01 2.1933829497e+00 -3.7990507093e+00 2.1933829497e+00 3.7990507093e+00 
8400 4.8729632213e+00 -1.2244465276e-01 2.1962651556e+00 -3.8040428365e+00 2.1962651556e+00 3.8040428365e+00 
8500 4.8730189910e+00 -1.1853575305e-01 2.1990533099e+00 -3.8088720613e+00 2.1990533099e+00 3.8088720613e+00 
8600 4.8730294171e+00 -1.1468687420e-01 2.2017490139e+00 -3.8135411576e+00 2.2017490139e+00 3.8135411576e+00 
8700 4.8729946808e+00 -1.1090341085e-01 2.2043539761e+00 -3.8180530845e+00 2.2043539761e+00 3.8180530845e+00 
8800 4.8729155667e+00 -1.0719053971e-01 2.2068700076e+00 -3.8224109788e+00 2.2068700076e+00 3.8224109788e+00 
8900 4.8727934245e+00 -1.0355319624e-01 2.2092990174e+00 -3.8266181472e+00 2.2092990174e+00 3.8266181472e+00 
9000 4.8726301253e+00 -9.9996052821e-02 2.2116430071e+00 -3.8306780565e+00 2.2116430071e+00 3.8306780565e+00 
9100 4.8724280140e+00 -9.6523498675e-02 2.2139040653e+00 -3.8345943242e+00 2.2139040653e+00 3.8345943242e+00 
9200 4.8721898573e+00 -9.3139621685e-02 2.2160843613e+00 -3.8383707077e+00 2.2160843613e+00 3.8383707077e+00 
9300 4.8719187881e+00 -8.9848192282e-02 2.2181861389e+00 -3.8420110932e+00 2.2181861389e+00 3.8420110932e+00 
9400 4.8716182478e+00 -8.6652649575e-02 2.2202117095e+00 -3.8455194844e+00 2.2202117095e+00 3.8455194844e+00 
9500 4.8712919269e+00 -8.3556089788e-02 2.2221634452e+00 -3.8488999899e+00 2.2221634452e+00 3.8488999899e+00 
9600 4.8709437041e+00 -8.0561257107e-02 2.2240437719e+00 -3.8521568111e+00 2.2240437719e+00 3.8521568111e+00 
9700 4.8705775863e+00 -7.7670536966e-02 2.2258551612e+00 -3.8552942295e+00 2.2258551612e+00 3.8552942295e+00 
9800 4.8701976482e+00 -7.4885951774e-02 2.2276001237e+00 -3.8583165932e+00 2.2276001237e+00 3.8583165932e+00 
9900 4.8698079741e+00 -7.2209159058e-02 2.2292812010e+00 -3.8612283046e+00 2.2292812010e+00 3.8612283046e+00 
10000 4.8694126021e+00 -6.9641451966e-02 2.2309009585e+00 -3.8640338067e+00 2.2309009585e+00 3.8640338067e+00 
10100 4.8690154709e+00 -6.7183762038e-02 2.2324619773e+00 -3.8667375706e+00 2.2324619773e+00 3.8667375706e+00 
10200 4.8686203704e+00 -6.4836664130e-02 2.2339668474e+00 -3.8693440820e+00 2.2339668474e+00 3.8693440820e+00 
10300 4.8682308970e+00 -6.2600383351e-02 2.2354181598e+00 -3.8718578290e+00 2.2354181598e+00 3.8718578290e+00 
10400 4.8678504131e+00 -6.0474803865e-02 2.2368184999e+00 -3.8742832892e+00 2.2368184999e+00 3.8742832892e+00 
10500 4.8674820122e+00 -5.8459479373e-02 2.2381704400e+00 -3.8766249181e+00 2.2381704400e+00 3.8766249181e+00 
10600 4.8671284895e+00 -5.6553645108e-02 2.2394765327e+00 -3.8788871370e+00 2.2394765327e+00 3.8788871370e+00 
10700 4.8667923181e+00 -5.4756231134e-02 2.2407393045e+00 -3.8810743219e+00 2.2407393045e+00 3.8810743219e+00 
10800 4.8664756312e+00 -5.3065876780e-02 2.2419612495e+00 -3.8831907928e+00 2.2419612495e+00 3.8831907928e+00 
10900 4.8661802105e+00 -5.1480946001e-02 2.2431448236e+00 -3.8852408032e+00 2.2431448236e+00 3.8852408032e+00 
11000 4.8659074793e+00 -4.9999543492e-02 2.2442924386e+00 -3.8872285307e+00 2.2442924386e+00 3.8872285307e+00 
11100 4.8656585031e+00 -4.8619531367e-02 2.2454064573e+00 -3.8891580678e+00 2.2454064573e+00 3.8891580678e+00 
11200 4.8654339934e+00 -4.7338546249e-02 2.2464891886e+00 -3.8910334134e+00 2.2464891886e+00 3.8910334134e+00 
11300 4.8652343183e+00 -4.6154016606e-02 2.2475428827e+00 -3.8928584650e+00 2.2475428827e+00 3.8928584650e+00 
11400 4.8650595167e+00 -4.5063180200e-02 2.2485697269e+00 -3.8946370113e+00 2.2485697269e+00 3.8946370113e+00 
11500 4.8649093165e+00 -4.4063101511e-02 2.2495718423e+00 -3.8963727261e+00 2.2495718423e+00 3.8963727261e+00 
11600 4.8647831576e+00 -4.3150689048e-02 2.2505512797e+00 -3.8980691615e+00 2.2505512797e+00 3.8980691615e+00 
11700 4.8646802159e+00 -4.2322712425e-02 2.2515100170e+00 -3.8997297433e+00 2.2515100170e+00 3.8997297433e+00 
11800 4.8645994319e+00 -4.1575819142e-02 2.2524499564e+00 -3.9013577659e+00 2.2524499564e+00 3.9013577659e+00 
11900 4.8645395393e+00 -4.0906550993e-02 2.2533729215e+00 -3.9029563885e+00 2.2533729215e+00 3.9029563885e+00 
12000 4.8644990962e+00 -4.0311360048e-02 2.2542806562e+00 -3.9045286311e+00 2.2542806562e+00 3.9045286311e+00 
12100 4.8644765162e+00 -3.9786624169e-02 2.2551748223e+00 -3.9060773721e+00 2.2551748223e+00 3.9060773721e+00 
12200 4.8644700999e+00 -3.9328662032e-02 2.2560569982e+00 -3.9076053456e+00 2.2560569982e+00 3.9076053456e+00 
12300 4.8644780661e+00 -3.8933747607e-02 2.2569286781e+00 -3.9091151396e+00 2.2569286781e+00 3.9091151396e+00 
12400 4.8644985819e+00 -3.8598124115e-02 2.2577912713e+00 -3.9106091948e+00 2.2577912713e+00 3.9106091948e+00 
12500 4.8645297917e+00 -3.8318017417e-02 2.2586461014e+00 -3.9120898040e+00 2.2586461014e+00 3.9120898040e+00 
12600 4.8645698447e+00 -3.8089648845e-02 2.2594944064e+00 -3.9135591113e+00 2.2594944064e+00 3.9135591113e+00 
12700 4.8646169201e+00 -3.7909247470e-02 2.2603373387e+00 -3.9150191129e+00 2.2603373387e+00 3.9150191129e+00 
12800 4.8646692500e+00 -3.7773061796e-02 2.2611759655e+00 -3.9164716571e+00 2.2611759655e+00 3.9164716571e+00 
12900 4.8647251407e+00 -3.7677370890e-02 2.2620112695e+00 -3.9179184461e+00 2.2620112695e+00 3.9179184461e+00 
13000 4.8647829903e+00 -3.7618494946e-02 2.2628441496e+00 -3.9193610367e+00 2.2628441496e+00 3.9193610367e+00 
13100 4.8648413042e+00 -3.7592805276e-02 2.2636754220e+00 -3.9208008427e+00 2.2636754220e+00 3.9208008427e+00 
13200 4.8648987081e+00 -3.7596733744e-02 2.2645058216e+00 -3.9222391370e+00 2.2645058216e+00 3.9222391370e+00 
13300 4.8649539579e+00 -3.7626781629e-02 2.2653360034e+00 -3.9236770540e+00 2.2653360034e+00 3.9236770540e+00 
13400 4.8650059470e+00 -3.7679527929e-02 2.2661665442e+00 -3.9251155929e+00 2.2661665442e+00 3.9251155929e+00 
13500 4.8650537114e+00 -3.7751637105e-02 2.2669979445e+00 -3.9265556205e+00 2.2669979445e+00 3.9265556205e+00 
13600 4.8650964320e+00 -3.7839866262e-02 2.2678306304e+00 -3.9279978748e+00 2.2678306304e+00 3.9279978748e+00 
13700 4.8651334346e+00 -3.7941071771e-02 2.2686649561e+00 -3.9294429693e+00 2.2686649561e+00 3.9294429693e+00 
13800 4.8651641884e+00 -3.8052215339e-02 2.2695012056e+00 -3.9308913960e+00 2.2695012056e+00 3.9308913960e+00 
13900 4.8651883018e+00 -3.8170369518e-02 2.2703395960e+00 -3.9323435306e+00 2.2703395960e+00 3.9323435306e+00 
14000 4.8652055171e+00 -3.8292722675e-02 2.2711802791e+00 -3.9337996365e+00 2.2711802791e+00 3.9337996365e+00 
14100 4.8652157033e+00 -3.8416583404e-02 2.2720233449e+00 -3.9352598694e+00 2.2720233449e+00 3.9352598694e+00 
14200 4.8652188484e+00 -3.8539384410e-02 2.2728688240e+00 -3.9367242822e+00 2.2728688240e+00 3.9367242822e+00 
14300 4.8652150497e+00 -3.8658685850e-02 2.2737166904e+00 -3.9381928298e+00 2.2737166904e+00 3.9381928298e+00 
14400 4.8652045039e+00 -3.8772178162e-02 2.2745668643e+00 -3.9396653742e+00 2.2745668643e+00 3.9396653742e+00 
14500 4.8651874968e+00 -3.8877684372e-02 2.2754192156e+00 -3.9411416899e+00 2.2754192156e+00 3.9411416899e+00 
14600 4.8651643917e+00 -3.8973161902e-02 2.2762735662e+00 -3.9426214686e+00 2.2762735662e+00 3.9426214686e+00 
14700 4.8651356189e+00 -3.9056703892e-02 2.2771296936e+00 -3.9441043248e+00 2.2771296936e+00 3.9441043248e+00 
14800 4.8651016638e+00 -3.9126540042e-02 2.2779873337e+00 -3.9455898010e+00 2.2779873337e+00 3.9455898010e+00 
14900 4.8650630564e+00 -3.9181037000e-02 2.2788461839e+00 -3.9470773732e+00 2.2788461839e+00 3.9470773732e+00 
15000 4.8650203600e+00 -3.9218698308e-02 2.2797059063e+00 -3.9485664560e+00 2.2797059063e+00 3.9485664560e+00 
15100 4.8649741610e+00 -3.9238163919e-02 2.2805661305e+00 -3.9500564080e+00 2.2805661305e+00 3.9500564080e+00 
15200 4.8649250591e+00 -3.9238209317e-02 2.2814264570e+00 -3.9515465372e+00 2.2814264570e+00 3.9515465372e+00 
15300 4.8648736576e+00 -3.9217744238e-02 2.2822864600e+00 -3.9530361061e+00 2.2822864600e+00 3.9530361061e+00 
15400 4.8648205554e+00 -3.9175811038e-02 2.2831456905e+00 -3.9545243371e+00 2.2831456905e+00 3.9545243371e+00 
15500 4.8647663383e+00 -3.9111582705e-02 2.2840036792e+00 -3.9560104171e+00 2.2840036792e+00 3.9560104171e+00 
15600 4.8647115726e+00 -3.9024360545e-02 2.2848599393e+00 -3.9574935031e+00 2.2848599393e+00 3.9574935031e+00 
15700 4.8646567987e+00 -3.8913571571e-02 2.2857139696e+00 -3.9589727269e+00 2.2857139696e+00 3.9589727269e+00 
15800 4.8646025251e+00 -3.8778765593e-02 2.2865652569e+00 -3.9604471998e+00 2.2865652569e+00 3.9604471998e+00 
15900 4.8645492245e+00 -3.8619612051e-02 2.2874132791e+00 -3.9619160173e+00 2.2874132791e+00 3.9619160173e+00 
16000 4.8644973295e+00 -3.8435896603e-02 2.2882575075e+00 -3.9633782638e+00 2.2882575075e+00 3.9633782638e+00 
16100 4.8644472301e+00 -3.8227517475e-02 2.2890974097e+00 -3.9648330170e+00 2.2890974097e+00 3.9648330170e+00 
16200 4.8643992709e+00 -3.7994481620e-02 2.2899324515e+00 -3.9662793518e+00 2.2899324515e+00 3.9662793518e+00 
16300 4.8643537502e+00 -3.7736900669e-02 2.2907620998e+00 -3.9677163450e+00 2.2907620998e+00 3.9677163450e+00 
16400 4.8643109189e+00 -3.7454986730e-02 2.2915858249e+00 -3.9691430786e+00 2.2915858249e+00 3.9691430786e+00 
16500 4.8642709809e+00 -3.7149048013e-02 2.2924031020e+00 -3.9705586440e+00 2.2924031020e+00 3.9705586440e+00 
16600 4.8642340931e+00 -3.6819484334e-02 2.2932134140e+00 -3.9719621456e+00 2.2932134140e+00 3.9719621456e+00 
16700 4.8642003670e+00 -3.6466782489e-02 2.2940162532e+00 -3.9733527039e+00 2.2940162532e+00 3.9733527039e+00 
16800 4.8641698700e+00 -3.6091511525e-02 2.2948111230e+00 -3.9747294589e+00 2.2948111230e+00 3.9747294589e+00 
16900 4.8641426278e+00 -3.5694317919e-02 2.2955975401e+00 -3.9760915732e+00 2.2955975401e+00 3.9760915732e+00 
17000 4.8641186263e+00 -3.5275920690e-02 2.2963750355e+00 -3.9774382347e+00 2.2963750355e+00 3.9774382347e+00 
17100 4.8640978152e+00 -3.4837106438e-02 2.2971431567e+00 -3.9787686597e+00 2.2971431567e+00 3.9787686597e+00 
17200 4.8640801105e+00 -3.4378724349e-02 2.2979014687e+00 -3.9800820945e+00 2.2979014687e+00 3.9800820945e+00 
17300 4.8640653979e+00 -3.3901681157e-02 2.2986495553e+00 -3.9813778186e+00 2.2986495553e+00 3.9813778186e+00 
17400 4.8640535362e+00 -3.3406936094e-02 2.2993870208e+00 -3.9826551463e+00 2.2993870208e+00 3.9826551463e+00 
17500 4.8640443610e+00 -3.2895495832e-02 2.3001134904e+00 -3.9839134285e+00 2.3001134904e+00 3.9839134285e+00 
17600 4.8640376881e+00 -3.2368409432e-02 2.3008286116e+00 -3.9851520548e+00 2.3008286116e+00 3.9851520548e+00 
17700 4.8640333174e+00 -3.1826763310e-02 2.3015320551e+00 -3.9863704547e+00 2.3015320551e+00 3.9863704547e+00 
17800 4.8640310361e+00 -3.1271676243e-02 2.3022235153e+00 -3.9875680989e+00 2.3022235153e+00 3.9875680989e+00 
17900 4.8640306223e+00 -3.0704294415e-02 2.3029027111e+00 -3.9887445006e+00 2.3029027111e+00 3.9887445006e+00 
18000 4.8640318485e+00 -3.0125786517e-02 2.3035693866e+00 -3.9898992164e+00 2.3035693866e+00 3.9898992164e+00 
18100 4.8640344847e+00 -2.9537338926e-02 2.3042233112e+00 -3.9910318469e+00 2.3042233112e+00 3.9910318469e+00 
18200 4.8640383014e+00 -2.8940150960e-02 2.3048642800e+00 -3.9921420376e+00 2.3048642800e+00 3.9921420376e+00 
18300 4.8640430725e+00 -2.8335430223e-02 2.3054921145e+00 -3.9932294788e+00 2.3054921145e+00 3.9932294788e+00 
18400 4.8640485778e+00 -2.7724388063e-02 2.3061066620e+00 -3.9942939063e+00 2.3061066620e+00 3.9942939063e+00 
18500 4.8640546056e+00 -2.7108235138e-02 2.3067077962e+00 -3.9953351013e+00 2.3067077962e+00 3.9953351013e+00 
18600 4.8640609542e+00 -2.6488177115e-02 2.3072954169e+00 -3.9963528902e+00 2.3072954169e+00 3.9963528902e+00 
18700 4.8640674344e+00 -2.5865410505e-02 2.3078694500e+00 -3.9973471446e+00 2.3078694500e+00 3.9973471446e+00 
18800 4.8640738709e+00 -2.5241118643e-02 2.3084298468e+00 -3.9983177804e+00 2.3084298468e+00 3.9983177804e+00 
18900 4.8640801031e+00 -2.4616467829e-02 2.3089765846e+00 -3.9992647580e+00 2.3089765846e+00 3.9992647580e+00 
19000 4.8640859867e+00 -2.3992603634e-02 2.3095096652e+00 -4.0001880808e+00 2.3095096652e+00 4.0001880808e+00 
19100 4.8640913941e+00 -2.3370647384e-02 2.3100291154e+00 -4.0010877948e+00 2.3100291154e+00 4.0010877948e+00 
19200 4.8640962150e+00 -2.2751692824e-02 2.3105349856e+00 -4.0019639878e+00 2.3105349856e+00 4.0019639878e+00 
19300 4.8641003565e+00 -2.2136802976e-02 2.3110273500e+00 -4.0028167878e+00 2.3110273500e+00 4.0028167878e+00 
19400 4.8641037432e+00 -2.1527007192e-02 2.3115063051e+00 -4.0036463624e+00 2.3115063051e+00 4.0036463624e+00 
19500 4.8641063170e+00 -2.0923298416e-02 2.3119719696e+00 -4.0044529171e+00 2.3119719696e+00 4.0044529171e+00 
19600 4.8641080364e+00 -2.0326630647e-02 2.3124244833e+00 -4.0052366938e+00 2.3124244833e+00 4.0052366938e+00 
19700 4.8641088764e+00 -1.9737916621e-02 2.3128640063e+00 -4.0059979700e+00 2.3128640063e+00 4.0059979700e+00 
19800 4.8641088269e+00 -1.9158025711e-02 2.3132907180e+00 -4.0067370563e+00 2.3132907180e+00 4.0067370563e+00 
19900 4.8641078926e+00 -1.8587782034e-02 2.3137048164e+00 -4.0074542957e+00 2.3137048164e+00 4.0074542957e+00 
20000 4.8641060913e+00 -1.8027962799e-02 2.3141065167e+00 -4.0081500611e+00 2.3141065167e+00 4.0081500611e+00 
20100 4.8641034532e+00 -1.7479296854e-02 2.3144960508e+00 -4.0088247540e+00 2.3144960508e+00 4.0088247540e+00 
20200 4.8641000191e+00 -1.6942463469e-02 2.3148736659e+00 -4.0094788025e+00 2.3148736659e+00 4.0094788025e+00 
20300 4.8640958396e+00 -1.6418091336e-02 2.3152396235e+00 -4.0101126595e+00 2.3152396235e+00 4.0101126595e+00 
20400 4.8640909735e+00 -1.5906757778e-02 2.3155941982e+00 -4.0107268010e+00 2.3155941982e+00 4.0107268010e+00 
20500 4.8640854865e+00 -1.5408988187e-02 2.3159376770e+00 -4.0113217238e+00 2.3159376770e+00 4.0113217238e+00 
20600 4.8640794496e+00 -1.4925255656e-02 2.3162703578e+00 -4.0118979437e+00 2.3162703578e+00 4.0118979437e+00 
20700 4.8640729382e+00 -1.4455980833e-02 2.3165925482e+00 -4.0124559939e+00 2.3165925482e+00 4.0124559939e+00 
20800 4.8640660301e+00 -1.4001531960e-02 2.3169045647e+00 -4.0129964224e+00 2.3169045647e+00 4.0129964224e+00 
20900 4.8640588051e+00 -1.3562225120e-02 2.3172067316e+00 -4.0135197908e+00 2.3172067316e+00 4.0135197908e+00 
21000 4.8640513429e+00 -1.3138324662e-02 2.3174993794e+00 -4.0140266717e+00 2.3174993794e+00 4.0140266717e+00 
21100 4.8640437225e+00 -1.2730043804e-02 2.3177828443e+00 -4.0145176472e+00 2.3177828443e+00 4.0145176472e+00 
21200 4.8640360211e+00 -1.2337545418e-02 2.3180574666e+00 -4.0149933069e+00 2.3180574666e+00 4.0149933069e+00 
21300 4.8640283130e+00 -1.1960942966e-02 2.3183235898e+00 -4.0154542460e+00 2.3183235898e+00 4.0154542460e+00 
21400 4.8640206688e+00 -1.1600301595e-02 2.3185815600e+00 -4.0159010634e+00 2.3185815600e+00 4.0159010634e+00 
21500 4.8640131546e+00 -1.1255639373e-02 2.3188317239e+00 -4.0163343600e+00 2.3188317239e+00 4.0163343600e+00 
21600 4.8640058316e+00 -1.0926928664e-02 2.3190744288e+00 -4.0167547372e+00 2.3190744288e+00 4.0167547372e+00 
21700 4.8639987553e+00 -1.0614097622e-02 2.3193100209e+00 -4.0171627948e+00 2.3193100209e+00 4.0171627948e+00 
21800 4.8639919751e+00 -1.0317031798e-02 2.3195388448e+00 -4.0175591294e+00 2.3195388448e+00 4.0175591294e+00 
21900 4.8639855342e+00 -1.0035575856e-02 2.3197612424e+00 -4.0179443333e+00 2.3197612424e+00 4.0179443333e+00 
22000 4.8639794694e+00 -9.7695353741e-03 2.3199775520e+00 -4.0183189925e+00 2.3199775520e+00 4.0183189925e+00 
22100 4.8639738107e+00 -9.5186787343e-03 2.3201881076e+00 -4.0186836854e+00 2.3201881076e+00 4.0186836854e+00 
22200 4.8639685816e+00 -9.2827390801e-03 2.3203932379e+00 -4.0190389816e+00 2.3203932379e+00 4.0190389816e+00 
22300 4.8639637990e+00 -9.0614163370e-03 2.3205932659e+00 -4.0193854402e+00 2.3205932659e+00 4.0193854402e+00 
22400 4.8639594735e+00 -8.8543792844e-03 2.3207885079e+00 -4.0197236092e+00 2.3207885079e+00 4.0197236092e+00 
22500 4.8639556098e+00 -8.6612676680e-03 2.3209792728e+00 -4.0200540238e+00 2.3209792728e+00 4.0200540238e+00 
22600 4.8639522066e+00 -8.4816943449e-03 2.3211658618e+00 -4.0203772054e+00 2.3211658618e+00 4.0203772054e+00 
22700 4.8639492573e+00 -8.3152474501e-03 2.3213485675e+00 -4.0206936610e+00 2.3213485675e+00 4.0206936610e+00 
22800 4.8639467504e+00 -8.1614925762e-03 2.3215276736e+00 -4.0210038818e+00 2.3215276736e+00 4.0210038818e+00 
22900 4.8639446698e+00 -8.0199749574e-03 2.3217034543e+00 -4.0213083430e+00 2.3217034543e+00 4.0213083430e+00 
23000 4.8639429956e+00 -7.8902216495e-03 2.3218761739e+00 -4.0216075021e+00 2.3218761739e+00 4.0216075021e+00 
23100 4.8639417043e+00 -7.7717436971e-03 2.3220460865e+00 -4.0219017993e+00 2.3220460865e+00 4.0219017993e+00 
23200 4.8639407694e+00 -7.6640382817e-03 2.3222134354e+00 -4.0221916561e+00 2.3222134354e+00 4.0221916561e+00 
23300 4.8639401622e+00 -7.5665908420e-03 2.3223784531e+00 -4.0224774752e+00 2.3223784531e+00 4.0224774752e+00 
23400 4.8639398518e+00 -7.4788771606e-03 2.3225413611e+00 -4.0227596401e+00 2.3225413611e+00 4.0227596401e+00 
23500 4.8639398064e+00 -7.4003654106e-03 2.3227023693e+00 -4.0230385145e+00 2.3227023693e+00 4.0230385145e+00 
23600 4.8639399929e+00 -7.3305181554e-03 2.3228616762e+00 -4.0233144421e+00 2.3228616762e+00 4.0233144421e+00 
23700 4.8639403782e+00 -7.2687942976e-03 2.3230194686e+00 -4.0235877466e+00 2.3230194686e+00 4.0235877466e+00 
23800 4.8639409292e+00 -7.2146509703e-03 2.3231759218e+00 -4.0238587315e+00 2.3231759218e+00 4.0238587315e+00 
23900 4.8639416133e+00 -7.1675453677e-03 2.3233311992e+00 -4.0241276797e+00 2.3233311992e+00 4.0241276797e+00 
24000 4.8639423988e+00 -7.1269365102e-03 2.3234854523e+00 -4.0243948541e+00 2.3234854523e+00 4.0243948541e+00 
24100 4.8639432553e+00 -7.0922869393e-03 2.3236388214e+00 -4.0246604971e+00 2.3236388214e+00 4.0246604971e+00 
24200 4.8639441539e+00 -7.0630643412e-03 2.3237914347e+00 -4.0249248311e+00 2.3237914347e+00 4.0249248311e+00 
24300 4.8639450679e+00 -7.0387430938e-03 2.3239434092e+00 -4.0251880587e+00 2.3239434092e+00 4.0251880587e+00 
24400 4.8639459721e+00 -7.0188057361e-03 2.3240948505e+00 -4.0254503627e+00 2.3240948505e+00 4.0254503627e+00 
24500 4.8639468440e+00 -7.0027443575e-03 2.3242458530e+00 -4.0257119066e+00 2.3242458530e+00 4.0257119066e+00 
24600 4.8639476633e+00 -6.9900619048e-03 2.3243965001e+00 -4.0259728351e+00 2.3243965001e+00 4.0259728351e+00 
24700 4.8639484122e+00 -6.9802734062e-03 2.3245468647e+00 -4.0262332742e+00 2.3245468647e+00 4.0262332742e+00 
24800 4.8639490756e+00 -6.9729071108e-03 2.3246970090e+00 -4.0264933317e+00 2.3246970090e+00 4.0264933317e+00 
24900 4.8639496407e+00 -6.9675055425e-03 2.3248469851e+00 -4.0267530980e+00 2.3248469851e+00 4.0267530980e+00 
25000 4.8639500974e+00 -6.9636264696e-03 2.3249968354e+00 -4.0270126464e+00 2.3249968354e+00 4.0270126464e+00 
25100 4.8639504381e+00 -6.9608437875e-03 2.3251465926e+00 -4.0272720335e+00 2.3251465926e+00 4.0272720335e+00 
25200 4.8639506575e+00 -6.9587483170e-03 2.3252962804e+00 -4.0275313002e+00 2.3252962804e+00 4.0275313002e+00 
25300 4.8639507527e+00 -6.9569485172e-03 2.3254459134e+00 -4.0277904723e+00 2.3254459134e+00 4.0277904723e+00 
25400 4.8639507230e+00 -6.9550711146e-03 2.3255954981e+00 -4.0280495606e+00 2.3255954981e+00 4.0280495606e+00 
25500 4.8639505696e+00 -6.9527616492e-03 2.3257450328e+00 -4.0283085623e+00 2.3257450328e+00 4.0283085623e+00 
25600 4.8639502957e+00 -6.9496849381e-03 2.3258945083e+00 -4.0285674614e+00 2.3258945083e+00 4.0285674614e+00 
25700 4.8639499061e+00 -6.9455254595e-03 2.3260439080e+00 -4.0288262293e+00 2.3260439080e+00 4.0288262293e+00 
25800 4.8639494071e+00 -6.9399876574e-03 2.3261932087e+00 -4.0290848257e+00 2.3261932087e+00 4.0290848257e+00 
25900 4.8639488062e+00 -6.9327961696e-03 2.3263423808e+00 -4.0293431993e+00 2.3263423808e+00 4.0293431993e+00 
26000 4.8639481121e+00 -6.9236959810e-03 2.3264913887e+00 -4.0296012887e+00 2.3264913887e+00 4.0296012887e+00 
26100 4.8639473344e+00 -6.9124525036e-03 2.3266401916e+00 -4.0298590227e+00 2.3266401916e+00 4.0298590227e+00 
26200 4.8639464833e+00 -6.8988515872e-03 2.3267887432e+00 -4.0301163218e+00 2.3267887432e+00 4.0301163218e+00 
26300 4.8639455696e+00 -6.8826994610e-03 2.3269369932e+00 -4.0303730982e+00 2.3269369932e+00 4.0303730982e+00 
26400 4.8639446042e+00 -6.8638226106e-03 2.3270848866e+00 -4.0306292571e+00 2.3270848866e+00 4.0306292571e+00 
26500 4.8639435984e+00 -6.8420675930e-03 2.3272323650e+00 -4.0308846971e+00 2.3272323650e+00 4.0308846971e+00 
26600 4.8639425633e+00 -6.8173007902e-03 2.3273793666e+00 -4.0311393115e+00 2.3273793666e+00 4.0311393115e+00 
26700 4.8639415099e+00 -6.7894081076e-03 2.3275258269e+00 -4.0313929881e+00 2.3275258269e+00 4.0313929881e+00 
26800 4.8639404487e+00 -6.7582946175e-03 2.3276716787e+00 -4.0316456109e+00 2.3276716787e+00 4.0316456109e+00 
26900 4.8639393900e+00 -6.7238841519e-03 2.3278168531e+00 -4.0318970603e+00 2.3278168531e+00 4.0318970603e+00 
27000 4.8639383433e+00 -6.6861188479e-03 2.3279612793e+00 -4.0321472137e+00 2.3279612793e+00 4.0321472137e+00 
27100 4.8639373176e+00 -6.6449586475e-03 2.3281048853e+00 -4.0323959468e+00 2.3281048853e+00 4.0323959468e+00 
27200 4.8639363211e+00 -6.6003807570e-03 2.3282475986e+00 -4.0326431333e+00 2.3282475986e+00 4.0326431333e+00 
27300 4.8639353611e+00 -6.5523790671e-03 2.3283893457e+00 -4.0328886465e+00 2.3283893457e+00 4.0328886465e+00 
27400 4.8639344441e+00 -6.5009635384e-03 2.3285300533e+00 -4.0331323593e+00 2.3285300533e+00 4.0331323593e+00 
27500 4.8639335758e+00 -6.4461595546e-03 2.3286696485e+00 -4.0333741452e+00 2.3286696485e+00 4.0333741452e+00 
27600 4.8639327610e+00 -6.3880072466e-03 2.3288080585e+00 -4.0336138783e+00 2.3288080585e+00 4.0336138783e+00 
27700 4.8639320034e+00 -6.3265607922e-03 2.3289452117e+00 -4.0338514347e+00 2.3289452117e+00 4.0338514347e+00 
27800 4.8639313060e+00 -6.2618876915e-03 2.3290810376e+00 -4.0340866920e+00 2.3290810376e+00 4.0340866920e+00 
27900 4.8639306707e+00 -6.1940680244e-03 2.3292154672e+00 -4.0343195309e+00 2.3292154672e+00 4.0343195309e+00 
28000 4.8639300987e+00 -6.1231936910e-03 2.3293484331e+00 -4.0345498347e+00 2.3293484331e+00 4.0345498347e+00 
28100 4.8639295903e+00 -6.0493676390e-03 2.3294798701e+00 -4.0347774903e+00 2.3294798701e+00 4.0347774903e+00 
28200 4.8639291453e+00 -5.9727030808e-03 2.3296097151e+00 -4.0350023883e+00 2.3296097151e+00 4.0350023883e+00 
28300 4.8639287622e+00 -5.8933227028e-03 2.3297379073e+00 -4.0352244238e+00 2.3297379073e+00 4.0352244238e+00 
28400 4.8639284395e+00 -5.8113578710e-03 2.3298643888e+00 -4.0354434962e+00 2.3298643888e+00 4.0354434962e+00 
28500 4.8639281747e+00 -5.7269478334e-03 2.3299891045e+00 -4.0356595100e+00 2.3299891045e+00 4.0356595100e+00 
28600 4.8639279649e+00 -5.6402389252e-03 2.3301120020e+00 -4.0358723748e+00 2.3301120020e+00 4.0358723748e+00 
28700 4.8639278067e+00 -5.5513837756e-03 2.3302330324e+00 -4.0360820056e+00 2.3302330324e+00 4.0360820056e+00 
28800 4.8639276965e+00 -5.4605405219e-03 2.3303521499e+00 -4.0362883231e+00 2.3303521499e+00 4.0362883231e+00 
28900 4.8639276301e+00 -5.3678720313e-03 2.3304693121e+00 -4.0364912541e+00 2.3304693121e+00 4.0364912541e+00 
29000 4.8639276034e+00 -5.2735451343e-03 2.3305844803e+00 -4.0366907312e+00 2.3305844803e+00 4.0366907312e+00 
29100 4.8639276119e+00 -5.1777298700e-03 2.3306976190e+00 -4.0368866932e+00 2.3306976190e+00 4.0368866932e+00 
29200 4.8639276511e+00 -5.0805987470e-03 2.3308086967e+00 -4.0370790855e+00 2.3308086967e+00 4.0370790855e+00 
29300 4.8639277164e+00 -4.9823260218e-03 2.3309176855e+00 -4.0372678595e+00 2.3309176855e+00 4.0372678595e+00 
29400 4.8639278034e+00 -4.8830869953e-03 2.3310245611e+00 -4.0374529735e+00 2.3310245611e+00 4.0374529735e+00 
29500 4.8639279076e+00 -4.7830573302e-03 2.3311293031e+00 -4.0376343919e+00 2.3311293031e+00 4.0376343919e+00 
29600 4.8639280248e+00 -4.6824123914e-03 2.3312318948e+00 -4.0378120860e+00 2.3312318948e+00 4.0378120860e+00 
29700 4.8639281508e+00 -4.5813266093e-03 2.3313323234e+00 -4.0379860334e+00 2.3313323234e+00 4.0379860334e+00 
29800 4.8639282819e+00 -4.4799728686e-03 2.3314305796e+00 -4.0381562182e+00 2.3314305796e+00 4.0381562182e+00 
29900 4.8639284144e+00 -4.3785219241e-03 2.3315266581e+00 -4.0383226310e+00 2.3315266581e+00 4.0383226310e+00 
30000 4.8639285449e+00 -4.2771418431e-03 2.3316205569e+00 -4.0384852685e+00 2.3316205569e+00 4.0384852685e+00 
30100 4.8639286705e+00 -4.1759974774e-03 2.3317122778e+00 -4.0386441338e+00 2.3317122778e+00 4.0386441338e+00 
30200 4.8639287885e+00 -4.0752499641e-03 2.3318018263e+00 -4.0387992363e+00 2.3318018263e+00 4.0387992363e+00 
30300 4.8639288966e+00 -3.9750562566e-03 2.3318892110e+00 -4.0389505910e+00 2.3318892110e+00 4.0389505910e+00 
30400 4.8639289927e+00 -3.8755686871e-03 2.3319744440e+00 -4.0390982190e+00 2.3319744440e+00 4.0390982190e+00 
30500 4.8639290753e+00 -3.7769345593e-03 2.3320575408e+00 -4.0392421468e+00 2.3320575408e+00 4.0392421468e+00 
30600 4.8639291430e+00 -3.6792957741e-03 2.3321385199e+00 -4.0393824067e+00 2.3321385199e+00 4.0393824067e+00 
30700 4.8639291949e+00 -3.5827884859e-03 2.3322174027e+00 -4.0395190358e+00 2.3322174027e+00 4.0395190358e+00 
30800 4.8639292304e+00 -3.4875427922e-03 2.3322942139e+00 -4.0396520767e+00 2.3322942139e+00 4.0396520767e+00 
30900 4.8639292491e+00 -3.3936824540e-03 2.3323689807e+00 -4.0397815766e+00 2.3323689807e+00 4.0397815766e+00 
31000 4.8639292510e+00 -3.3013246496e-03 2.3324417329e+00 -4.0399075871e+00 2.3324417329e+00 4.0399075871e+00 
31100 4.8639292363e+00 -3.2105797586e-03 2.3325125030e+00 -4.0400301644e+00 2.3325125030e+00 4.0400301644e+00 
31200 4.8639292055e+00 -3.1215511789e-03 2.3325813257e+00 -4.0401493688e+00 2.3325813257e+00 4.0401493688e+00 
31300 4.8639291594e+00 -3.0343351731e-03 2.3326482379e+00 -4.0402652643e+00 2.3326482379e+00 4.0402652643e+00 
31400 4.8639290989e+00 -2.9490207471e-03 2.3327132788e+00 -4.0403779184e+00 2.3327132788e+00 4.0403779184e+00 
31500 4.8639290249e+00 -2.8656895571e-03 2.3327764892e+00 -4.0404874020e+00 2.3327764892e+00 4.0404874020e+00 
31600 4.8639289388e+00 -2.7844158467e-03 2.3328379117e+00 -4.0405937890e+00 2.3328379117e+00 4.0405937890e+00 
31700 4.8639288419e+00 -2.7052664124e-03 2.3328975907e+00 -4.0406971560e+00 2.3328975907e+00 4.0406971560e+00 
31800 4.8639287355e+00 -2.6283005959e-03 2.3329555718e+00 -4.0407975821e+00 2.3329555718e+00 4.0407975821e+00 
31900 4.8639286213e+00 -2.5535703044e-03 2.3330119019e+00 -4.0408951487e+00 2.3330119019e+00 4.0408951487e+00 
32000 4.8639285006e+00 -2.4811200551e-03 2.3330666290e+00 -4.0409899388e+00 2.3330666290e+00 4.0409899388e+00 
32100 4.8639283751e+00 -2.4109870456e-03 2.3331198021e+00 -4.0410820374e+00 2.3331198021e+00 4.0410820374e+00 
32200 4.8639282461e+00 -2.3432012467e-03 2.3331714710e+00 -4.0411715306e+00 2.3331714710e+00 4.0411715306e+00 
32300 4.8639281153e+00 -2.2777855190e-03 2.3332216862e+00 -4.0412585058e+00 2.3332216862e+00 4.0412585058e+00 
32400 4.8639279841e+00 -2.2147557491e-03 2.3332704984e+00 -4.0413430510e+00 2.3332704984e+00 4.0413430510e+00 
32500 4.8639278538e+00 -2.1541210069e-03 2.3333179588e+00 -4.0414252549e+00 2.3333179588e+00 4.0414252549e+00 
32600 4.8639277257e+00 -2.0958837215e-03 2.3333641190e+00 -4.0415052067e+00 2.3333641190e+00 4.0415052067e+00 
32700 4.8639276011e+00 -2.0400398739e-03 2.3334090304e+00 -4.0415829955e+00 2.3334090304e+00 4.0415829955e+00 
32800 4.8639274809e+00 -1.9865792068e-03 2.3334527442e+00 -4.0416587101e+00 2.3334527442e+00 4.0416587101e+00 
32900 4.8639273661e+00 -1.9354854487e-03 2.3334953117e+00 -4.0417324392e+00 2.3334953117e+00 4.0417324392e+00 
33000 4.8639272577e+00 -1.8867365511e-03 2.3335367837e+00 -4.0418042707e+00 2.3335367837e+00 4.0418042707e+00 
33100 4.8639271563e+00 -1.8403049394e-03 2.3335772103e+00 -4.0418742917e+00 2.3335772103e+00 4.0418742917e+00 
33200 4.8639270625e+00 -1.7961577728e-03 2.3336166414e+00 -4.0419425884e+00 2.3336166414e+00 4.0419425884e+00 
33300 4.8639269769e+00 -1.7542572158e-03 2.3336551260e+00 -4.0420092455e+00 2.3336551260e+00 4.0420092455e+00 
33400 4.8639268997e+00 -1.7145607158e-03 2.3336927121e+00 -4.0420743466e+00 2.3336927121e+00 4.0420743466e+00 
33500 4.8639268312e+00 -1.6770212901e-03 2.3337294471e+00 -4.0421379736e+00 2.3337294471e+00 4.0421379736e+00 
33600 4.8639267714e+00 -1.6415878168e-03 2.3337653773e+00 -4.0422002064e+00 2.3337653773e+00 4.0422002064e+00 
33700 4.8639267205e+00 -1.6082053310e-03 2.3338005478e+00 -4.0422611234e+00 2.3338005478e+00 4.0422611234e+00 
33800 4.8639266782e+00 -1.5768153247e-03 2.3338350025e+00 -4.0423208008e+00 2.3338350025e+00 4.0423208008e+00 
33900 4.8639266444e+00 -1.5473560477e-03 2.3338687842e+00 -4.0423793124e+00 2.3338687842e+00 4.0423793124e+00 
34000 4.8639266188e+00 -1.5197628112e-03 2.3339019343e+00 -4.0424367301e+00 2.3339019343e+00 4.0424367301e+00 
34100 4.8639266010e+00 -1.4939682897e-03 2.3339344928e+00 -4.0424931230e+00 2.3339344928e+00 4.0424931230e+00 
34200 4.8639265906e+00 -1.4699028225e-03 2.3339664982e+00 -4.0425485581e+00 2.3339664982e+00 4.0425485581e+00 
34300 4.8639265870e+00 -1.4474947135e-03 2.3339979877e+00 -4.0426030994e+00 2.3339979877e+00 4.0426030994e+00 
34400 4.8639265898e+00 -1.4266705268e-03 2.3340289966e+00 -4.0426568085e+00 2.3340289966e+00 4.0426568085e+00 
34500 4.8639265984e+00 -1.4073553790e-03 2.3340595591e+00 -4.0427097443e+00 2.3340595591e+00 4.0427097443e+00 
34600 4.8639266121e+00 -1.3894732264e-03 2.3340897074e+00 -4.0427619627e+00 2.3340897074e+00 4.0427619627e+00 
34700 4.8639266303e+00 -1.3729471466e-03 2.3341194722e+00 -4.0428135169e+00 2.3341194722e+00 4.0428135169e+00 
34800 4.8639266524e+00 -1.3576996129e-03 2.3341488827e+00 -4.0428644573e+00 2.3341488827e+00 4.0428644573e+00 
34900 4.8639266777e+00 -1.3436527621e-03 2.3341779662e+00 -4.0429148313e+00 2.3341779662e+00 4.0429148313e+00 
35000 4.8639267057e+00 -1.3307286543e-03 2.3342067484e+00 -4.0429646835e+00 2.3342067484e+00 4.0429646835e+00 
35100 4.8639267356e+00 -1.3188495235e-03 2.3342352534e+00 -4.0430140556e+00 2.3342352534e+00 4.0430140556e+00 
35200 4.8639267670e+00 -1.3079380201e-03 2.3342635036e+00 -4.0430629864e+00 2.3342635036e+00 4.0430629864e+00 
35300 4.8639267992e+00 -1.2979174424e-03 2.3342915197e+00 -4.0431115118e+00 2.3342915197e+00 4.0431115118e+00 
35400 4.8639268317e+00 -1.2887119595e-03 2.3343193208e+00 -4.0431596648e+00 2.3343193208e+00 4.0431596648e+00 
35500 4.8639268641e+00 -1.2802468223e-03 2.3343469245e+00 -4.0432074757e+00 2.3343469245e+00 4.0432074757e+00 
35600 4.8639268959e+00 -1.2724485642e-03 2.3343743465e+00 -4.0432549720e+00 2.3343743465e+00 4.0432549720e+00 
35700 4.8639269266e+00 -1.2652451910e-03 2.3344016011e+00 -4.0433021784e+00 2.3344016011e+00 4.0433021784e+00 
35800 4.8639269560e+00 -1.2585663583e-03 2.3344287012e+00 -4.0433491171e+00 2.3344287012e+00 4.0433491171e+00 
35900 4.8639269837e+00 -1.2523435383e-03 2.3344556579e+00 -4.0433958074e+00 2.3344556579e+00 4.0433958074e+00 
36000 4.8639270095e+00 -1.2465101739e-03 2.3344824809e+00 -4.0434422664e+00 2.3344824809e+00 4.0434422664e+00 
36100 4.8639270332e+00 -1.2410018215e-03 2.3345091788e+00 -4.0434885084e+00 2.3345091788e+00 4.0434885084e+00 
36200 4.8639270545e+00 -1.2357562810e-03 2.3345357583e+00 -4.0435345455e+00 2.3345357583e+00 4.0435345455e+00 
36300 4.8639270735e+00 -1.2307137149e-03 2.3345622252e+00 -4.0435803875e+00 2.3345622252e+00 4.0435803875e+00 
36400 4.8639270899e+00 -1.2258167540e-03 2.3345885838e+00 -4.0436260420e+00 2.3345885838e+00 4.0436260420e+00 
36500 4.8639271039e+00 -1.2210105922e-03 2.3346148373e+00 -4.0436715142e+00 2.3346148373e+00 4.0436715142e+00 
36600 4.8639271154e+00 -1.2162430690e-03 2.3346409875e+00 -4.0437168077e+00 2.3346409875e+00 4.0437168077e+00 
36700 4.8639271244e+00 -1.2114647398e-03 2.3346670353e+00 -4.0437619238e+00 2.3346670353e+00 4.0437619238e+00 
36800 4.8639271310e+00 -1.2066289356e-03 2.3346929804e+00 -4.0438068622e+00 2.3346929804e+00 4.0438068622e+00 
36900 4.8639271355e+00 -1.2016918107e-03 2.3347188218e+00 -4.0438516207e+00 2.3347188218e+00 4.0438516207e+00 
37000 4.8639271378e+00 -1.1966123791e-03 2.3347445571e+00 -4.0438961955e+00 2.3347445571e+00 4.0438961955e+00 
37100 4.8639271381e+00 -1.1913525401e-03 2.3347701833e+00 -4.0439405815e+00 2.3347701833e+00 4.0439405815e+00 
37200 4.8639271367e+00 -1.1858770943e-03 2.3347956966e+00 -4.0439847719e+00 2.3347956966e+00 4.0439847719e+00 
37300 4.8639271337e+00 -1.1801537473e-03 2.3348210924e+00 -4.0440287586e+00 2.3348210924e+00 4.0440287586e+00 
37400 4.8639271293e+00 -1.1741531058e-03 2.3348463654e+00 -4.0440725327e+00 2.3348463654e+00 4.0440725327e+00 
37500 4.8639271237e+00 -1.1678486623e-03 2.3348715095e+00 -4.0441160836e+00 2.3348715095e+00 4.0441160836e+00 
37600 4.8639271172e+00 -1.1612167712e-03 2.3348965184e+00 -4.0441594003e+00 2.3348965184e+00 4.0441594003e+00 
37700 4.8639271100e+00 -1.1542366169e-03 2.3349213850e+00 -4.0442024705e+00 2.3349213850e+00 4.0442024705e+00 
37800 4.8639271022e+00 -1.1468901723e-03 2.3349461019e+00 -4.0442452814e+00 2.3349461019e+00 4.0442452814e+00 
37900 4.8639270940e+00 -1.1391621499e-03 2.3349706612e+00 -4.0442878193e+00 2.3349706612e+00 4.0442878193e+00 
38000 4.8639270858e+00 -1.1310399459e-03 2.3349950547e+00 -4.0443300702e+00 2.3349950547e+00 4.0443300702e+00 
38100 4.8639270776e+00 -1.1225135762e-03 2.3350192741e+00 -4.0443720193e+00 2.3350192741e+00 4.0443720193e+00 
38200 4.8639270696e+00 -1.1135756067e-03 2.3350433106e+00 -4.0444136518e+00 2.3350433106e+00 4.0444136518e+00 
38300 4.8639270621e+00 -1.1042210773e-03 2.3350671555e+00 -4.0444549524e+00 2.3350671555e+00 4.0444549524e+00 
38400 4.8639270550e+00 -1.0944474196e-03 2.3350907998e+00 -4.0444959056e+00 2.3350907998e+00 4.0444959056e+00 
38500 4.8639270487e+00 -1.0842543708e-03 2.3351142347e+00 -4.0445364959e+00 2.3351142347e+00 4.0445364959e+00 
38600 4.8639270431e+00 -1.0736438811e-03 2.3351374510e+00 -4.0445767078e+00 2.3351374510e+00 4.0445767078e+00 
38700 4.8639270384e+00 -1.0626200186e-03 2.3351604399e+00 -4.0446165258e+00 2.3351604399e+00 4.0446165258e+00 
38800 4.8639270346e+00 -1.0511888693e-03 2.3351831926e+00 -4.0446559345e+00 2.3351831926e+00 4.0446559345e+00 
38900 4.8639270318e+00 -1.0393584345e-03 2.3352057003e+00 -4.0446949190e+00 2.3352057003e+00 4.0446949190e+00 
39000 4.8639270301e+00 -1.0271385246e-03 2.3352279544e+00 -4.0447334643e+00 2.3352279544e+00 4.0447334643e+00 
39100 4.8639270295e+00 -1.0145406516e-03 2.3352499467e+00 -4.0447715560e+00 2.3352499467e+00 4.0447715560e+00 
39200 4.8639270299e+00 -1.0015779189e-03 2.3352716690e+00 -4.0448091802e+00 2.3352716690e+00 4.0448091802e+00 
39300 4.8639270315e+00 -9.8826490966e-04 2.3352931136e+00 -4.0448463234e+00 2.3352931136e+00 4.0448463234e+00 
39400 4.8639270341e+00 -9.7461757461e-04 2.3353142730e+00 -4.0448829725e+00 2.3353142730e+00 4.0448829725e+00 
39500 4.8639270377e+00 -9.6065311881e-04 2.3353351400e+00 -4.0449191152e+00 2.3353351400e+00 4.0449191152e+00 
39600 4.8639270423e+00 -9.4638988837e-04 2.3353557078e+00 -4.0449547396e+00 2.3353557078e+00 4.0449547396e+00 
39700 4.8639270479e+00 -9.3184725727e-04 2.3353759700e+00 -4.0449898349e+00 2.3353759700e+00 4.0449898349e+00 
39800 4.8639270543e+00 -9.1704551487e-04 2.3353959208e+00 -4.0450243905e+00 2.3353959208e+00 4.0450243905e+00 
39900 4.8639270616e+00 -9.0200575417e-04 2.3354155544e+00 -4.0450583970e+00 2.3354155544e+00 4.0450583970e+00 
40000 4.8639270695e+00 -8.8674976150e-04 2.3354348659e+00 -4.0450918455e+00 2.3354348659e+00 4.0450918455e+00 
40100 4.8639270782e+00 -8.7129990773e-04 2.3354538506e+00 -4.0451247280e+00 2.3354538506e+00 4.0451247280e+00 
40200 4.8639270873e+00 -8.5567904142e-04 2.3354725044e+00 -4.0451570373e+00 2.3354725044e+00 4.0451570373e+00 
40300 4.8639270970e+00 -8.3991038420e-04 2.3354908236e+00 -4.0451887671e+00 2.3354908236e+00 4.0451887671e+00 
40400 4.8639271071e+00 -8.2401742863e-04 2.3355088051e+00 -4.0452199119e+00 2.3355088051e+00 4.0452199119e+00 
40500 4.8639271174e+00 -8.0802383887e-04 2.3355264462e+00 -4.0452504672e+00 2.3355264462e+00 4.0452504672e+00 
40600 4.8639271280e+00 -7.9195335427e-04 2.3355437447e+00 -4.0452804292e+00 2.3355437447e+00 4.0452804292e+00 
40700 4.8639271387e+00 -7.7582969631e-04 2.3355606991e+00 -4.0453097950e+00 2.3355606991e+00 4.0453097950e+00 
40800 4.8639271495e+00 -7.5967647889e-04 2.3355773082e+00 -4.0453385628e+00 2.3355773082e+00 4.0453385628e+00 
40900 4.8639271603e+00 -7.4351712224e-04 2.3355935714e+00 -4.0453667314e+00 2.3355935714e+00 4.0453667314e+00 
41000 4.8639271710e+00 -7.2737477070e-04 2.3356094885e+00 -4.0453943007e+00 2.3356094885e+00 4.0453943007e+00 
41100 4.8639271816e+00 -7.1127221439e-04 2.3356250599e+00 -4.0454212712e+00 2.3356250599e+00 4.0454212712e+00 
41200 4.8639271919e+00 -6.9523181495e-04 2.3356402865e+00 -4.0454476444e+00 2.3356402865e+00 4.0454476444e+00 
41300 4.8639272020e+00 -6.7927543551e-04 2.3356551696e+00 -4.0454734228e+00 2.3356551696e+00 4.0454734228e+00 
41400 4.8639272118e+00 -6.6342437489e-04 2.3356697111e+00 -4.0454986093e+00 2.3356697111e+00 4.0454986093e+00 
41500 4.8639272213e+00 -6.4769930622e-04 2.3356839131e+00 -4.0455232079e+00 2.3356839131e+00 4.0455232079e+00 
41600 4.8639272304e+00 -6.3212021993e-04 2.3356977784e+00 -4.0455472234e+00 2.3356977784e+00 4.0455472234e+00 
41700 4.8639272391e+00 -6.1670637120e-04 2.3357113102e+00 -4.0455706610e+00 2.3357113102e+00 4.0455706610e+00 
41800 4.8639272474e+00 -6.0147623196e-04 2.3357245119e+00 -4.0455935270e+00 2.3357245119e+00 4.0455935270e+00 
41900 4.8639272553e+00 -5.8644744726e-04 2.3357373875e+00 -4.0456158282e+00 2.3357373875e+00 4.0456158282e+00 
42000 4.8639272628e+00 -5.7163679628e-04 2.3357499413e+00 -4.0456375720e+00 2.3357499413e+00 4.0456375720e+00 
42100 4.8639272698e+00 -5.5706015765e-04 2.3357621780e+00 -4.0456587666e+00 2.3357621780e+00 4.0456587666e+00 
42200 4.8639272765e+00 -5.4273247931e-04 2.3357741026e+00 -4.0456794206e+00 2.3357741026e+00 4.0456794206e+00 
42300 4.8639272827e+00 -5.2866775269e-04 2.3357857204e+00 -4.0456995433e+00 2.3357857204e+00 4.0456995433e+00 
42400 4.8639272885e+00 -5.1487899121e-04 2.3357970371e+00 -4.0457191444e+00 2.3357970371e+00 4.0457191444e+00 
42500 4.8639272939e+00 -5.0137821302e-04 2.3358080586e+00 -4.0457382342e+00 2.3358080586e+00 4.0457382342e+00 
42600 4.8639272990e+00 -4.8817642788e-04 2.3358187910e+00 -4.0457568234e+00 2.3358187910e+00 4.0457568234e+00 
42700 4.8639273038e+00 -4.7528362804e-04 2.3358292408e+00 -4.0457749229e+00 2.3358292408e+00 4.0457749229e+00 
42800 4.8639273082e+00 -4.6270878317e-04 2.3358394146e+00 -4.0457925444e+00 2.3358394146e+00 4.0457925444e+00 
42900 4.8639273124e+00 -4.5045983894e-04 2.3358493192e+00 -4.0458096996e+00 2.3358493192e+00 4.0458096996e+00 
43000 4.8639273163e+00 -4.3854371942e-04 2.3358589615e+00 -4.0458264006e+00 2.3358589615e+00 4.0458264006e+00 
43100 4.8639273200e+00 -4.2696633297e-04 2.3358683487e+00 -4.0458426597e+00 2.3358683487e+00 4.0458426597e+00 
43200 4.8639273235e+00 -4.1573258148e-04 2.3358774881e+00 -4.0458584896e+00 2.3358774881e+00 4.0458584896e+00 
43300 4.8639273269e+00 -4.0484637295e-04 2.3358863869e+00 -4.0458739029e+00 2.3358863869e+00 4.0458739029e+00 
43400 4.8639273302e+00 -3.9431063707e-04 2.3358950527e+00 -4.0458889125e+00 2.3358950527e+00 4.0458889125e+00 
43500 4.8639273333e+00 -3.8412734380e-04 2.3359034930e+00 -4.0459035314e+00 2.3359034930e+00 4.0459035314e+00 
43600 4.8639273364e+00 -3.7429752467e-04 2.3359117152e+00 -4.0459177728e+00 2.3359117152e+00 4.0459177728e+00 
43700 4.8639273394e+00 -3.6482129663e-04 2.3359197270e+00 -4.0459316496e+00 2.3359197270e+00 4.0459316496e+00 
43800 4.8639273424e+00 -3.5569788837e-04 2.3359275360e+00 -4.0459451751e+00 2.3359275360e+00 4.0459451751e+00 
43900 4.8639273454e+00 -3.4692566889e-04 2.3359351496e+00 -4.0459583623e+00 2.3359351496e+00 4.0459583623e+00 
44000 4.8639273485e+00 -3.3850217800e-04 2.3359425755e+00 -4.0459712243e+00 2.3359425755e+00 4.0459712243e+00 
44100 4.8639273516e+00 -3.3042415888e-04 2.3359498210e+00 -4.0459837739e+00 2.3359498210e+00 4.0459837739e+00 
44200 4.8639273547e+00 -3.2268759217e-04 2.3359568936e+00 -4.0459960240e+00 2.3359568936e+00 4.0459960240e+00 
44300 4.8639273579e+00 -3.1528773170e-04 2.3359638005e+00 -4.0460079872e+00 2.3359638005e+00 4.0460079872e+00 
44400 4.8639273612e+00 -3.0821914148e-04 2.3359705491e+00 -4.0460196760e+00 2.3359705491e+00 4.0460196760e+00 
44500 4.8639273646e+00 -3.0147573390e-04 2.3359771463e+00 -4.0460311028e+00 2.3359771463e+00 4.0460311028e+00 
44600 4.8639273680e+00 -2.9505080890e-04 2.3359835992e+00 -4.0460422795e+00 2.3359835992e+00 4.0460422795e+00 
44700 4.8639273716e+00 -2.8893709398e-04 2.3359899146e+00 -4.0460532180e+00 2.3359899146e+00 4.0460532180e+00 
44800 4.8639273752e+00 -2.8312678483e-04 2.3359960991e+00 -4.0460639298e+00 2.3359960991e+00 4.0460639298e+00 
44900 4.8639273790e+00 -2.7761158646e-04 2.3360021591e+00 -4.0460744262e+00 2.3360021591e+00 4.0460744262e+00 
45000 4.8639273828e+00 -2.7238275467e-04 2.3360081012e+00 -4.0460847181e+00 2.3360081012e+00 4.0460847181e+00 
45100 4.8639273868e+00 -2.6743113766e-04 2.3360139313e+00 -4.0460948161e+00 2.3360139313e+00 4.0460948161e+00 
45200 4.8639273908e+00 -2.6274721770e-04 2.3360196554e+00 -4.0461047306e+00 2.3360196554e+00 4.0461047306e+00 
45300 4.8639273949e+00 -2.5832115261e-04 2.3360252792e+00 -4.0461144713e+00 2.3360252792e+00 4.0461144713e+00 
45400 4.8639273990e+00 -2.5414281703e-04 2.3360308083e+00 -4.0461240479e+00 2.3360308083e+00 4.0461240479e+00 
45500 4.8639274032e+00 -2.5020184327e-04 2.3360362479e+00 -4.0461334697e+00 2.3360362479e+00 4.0461334697e+00 
45600 4.8639274075e+00 -2.4648766161e-04 2.3360416032e+00 -4.0461427453e+00 2.3360416032e+00 4.0461427453e+00 
45700 4.8639274118e+00 -2.4298953997e-04 2.3360468789e+00 -4.0461518831e+00 2.3360468789e+00 4.0461518831e+00 
45800 4.8639274161e+00 -2.3969662282e-04 2.3360520798e+00 -4.0461608913e+00 2.3360520798e+00 4.0461608913e+00 
45900 4.8639274205e+00 -2.3659796918e-04 2.3360572102e+00 -4.0461697774e+00 2.3360572102e+00 4.0461697774e+00 
46000 4.8639274248e+00 -2.3368258966e-04 2.3360622742e+00 -4.0461785486e+00 2.3360622742e+00 4.0461785486e+00 
46100 4.8639274291e+00 -2.3093948245e-04 2.3360672758e+00 -4.0461872117e+00 2.3360672758e+00 4.0461872117e+00 
46200 4.8639274335e+00 -2.2835766809e-04 2.3360722188e+00 -4.0461957730e+00 2.3360722188e+00 4.0461957730e+00 
46300 4.8639274377e+00 -2.2592622311e-04 2.3360771064e+00 -4.0462042387e+00 2.3360771064e+00 4.0462042387e+00 
46400 4.8639274420e+00 -2.2363431219e-04 2.3360819420e+00 -4.0462126142e+00 2.3360819420e+00 4.0462126142e+00 
46500 4.8639274462e+00 -2.2147121911e-04 2.3360867285e+00 -4.0462209047e+00 2.3360867285e+00 4.0462209047e+00 
46600 4.8639274503e+00 -2.1942637612e-04 2.3360914687e+00 -4.0462291150e+00 2.3360914687e+00 4.0462291150e+00 
46700 4.8639274544e+00 -2.1748939195e-04 2.3360961652e+00 -4.0462372495e+00 2.3360961652e+00 4.0462372495e+00 
46800 4.8639274584e+00 -2.1565007815e-04 2.3361008202e+00 -4.0462453121e+00 2.3361008202e+00 4.0462453121e+00 
46900 4.8639274623e+00 -2.1389847396e-04 2.3361054358e+00 -4.0462533066e+00 2.3361054358e+00 4.0462533066e+00 
47000 4.8639274661e+00 -2.1222486952e-04 2.3361100139e+00 -4.0462612361e+00 2.3361100139e+00 4.0462612361e+00 
47100 4.8639274699e+00 -2.1061982747e-04 2.3361145561e+00 -4.0462691035e+00 2.3361145561e+00 4.0462691035e+00 
47200 4.8639274735e+00 -2.0907420285e-04 2.3361190640e+00 -4.0462769115e+00 2.3361190640e+00 4.0462769115e+00 
47300 4.8639274771e+00 -2.0757916147e-04 2.3361235389e+00 -4.0462846621e+00 2.3361235389e+00 4.0462846621e+00 
47400 4.8639274805e+00 -2.0612619643e-04 2.3361279817e+00 -4.0462923573e+00 2.3361279817e+00 4.0462923573e+00 
47500 4.8639274839e+00 -2.0470714313e-04 2.3361323934e+00 -4.0462999986e+00 2.3361323934e+00 4.0462999986e+00 
47600 4.8639274872e+00 -2.0331419255e-04 2.3361367747e+00 -4.0463075872e+00 2.3361367747e+00 4.0463075872e+00 
47700 4.8639274904e+00 -2.0193990284e-04 2.3361411262e+00 -4.0463151243e+00 2.3361411262e+00 4.0463151243e+00 
47800 4.8639274934e+00 -2.0057720941e-04 2.3361454483e+00 -4.0463226103e+00 2.3361454483e+00 4.0463226103e+00 
47900 4.8639274964e+00 -1.9921943326e-04 2.3361497412e+00 -4.0463300459e+00 2.3361497412e+00 4.0463300459e+00 
48000 4.8639274993e+00 -1.9786028781e-04 2.3361540051e+00 -4.0463374311e+00 2.3361540051e+00 4.0463374311e+00 
48100 4.8639275021e+00 -1.9649388421e-04 2.3361582398e+00 -4.0463447659e+00 2.3361582398e+00 4.0463447659e+00 
48200 4.8639275049e+00 -1.9511473499e-04 2.3361624453e+00 -4.0463520500e+00 2.3361624453e+00 4.0463520500e+00 
48300 4.8639275075e+00 -1.9371775644e-04 2.3361666213e+00 -4.0463592830e+00 2.3361666213e+00 4.0463592830e+00 
48400 4.8639275101e+00 -1.9229826936e-04 2.3361707673e+00 -4.0463664642e+00 2.3361707673e+00 4.0463664642e+00 
48500 4.8639275126e+00 -1.9085199854e-04 2.3361748830e+00 -4.0463735927e+00 2.3361748830e+00 4.0463735927e+00 
48600 4.8639275151e+00 -1.8937507089e-04 2.3361789677e+00 -4.0463806676e+00 2.3361789677e+00 4.0463806676e+00 
48700 4.8639275174e+00 -1.8786401222e-04 2.3361830208e+00 -4.0463876878e+00 2.3361830208e+00 4.0463876878e+00 
48800 4.8639275198e+00 -1.8631574290e-04 2.3361870416e+00 -4.0463946520e+00 2.3361870416e+00 4.0463946520e+00 
48900 4.8639275221e+00 -1.8472757223e-04 2.3361910292e+00 -4.0464015587e+00 2.3361910292e+00 4.0464015587e+00 
49000 4.8639275243e+00 -1.8309719177e-04 2.3361949828e+00 -4.0464084065e+00 2.3361949828e+00 4.0464084065e+00 
49100 4.8639275265e+00 -1.8142266764e-04 2.3361989015e+00 -4.0464151939e+00 2.3361989015e+00 4.0464151939e+00 
49200 4.8639275287e+00 -1.7970243173e-04 2.3362027843e+00 -4.0464219192e+00 2.3362027843e+00 4.0464219192e+00 
49300 4.8639275308e+00 -1.7793527213e-04 2.3362066304e+00 -4.0464285808e+00 2.3362066304e+00 4.0464285808e+00 
49400 4.8639275329e+00 -1.7612032257e-04 2.3362104386e+00 -4.0464351768e+00 2.3362104386e+00 4.0464351768e+00 
49500 4.8639275349e+00 -1.7425705112e-04 2.3362142079e+00 -4.0464417055e+00 2.3362142079e+00 4.0464417055e+00 
49600 4.8639275370e+00 -1.7234524821e-04 2.3362179374e+00 -4.0464481652e+00 2.3362179374e+00 4.0464481652e+00 
49700 4.8639275390e+00 -1.7038501391e-04 2.3362216260e+00 -4.0464545539e+00 2.3362216260e+00 4.0464545539e+00 
49800 4.8639275410e+00 -1.6837674467e-04 2.3362252726e+00 -4.0464608700e+00 2.3362252726e+00 4.0464608700e+00 
49900 4.8639275430e+00 -1.6632111950e-04 2.3362288762e+00 -4.0464671116e+00 2.3362288762e+00 4.0464671116e+00 
50000 4.8639275450e+00 -1.6421908571e-04 2.3362324358e+00 -4.0464732771e+00 2.3362324358e+00 4.0464732771e+00 
50100 4.8639275470e+00 -1.6207184425e-04 2.3362359504e+00 -4.0464793646e+00 2.3362359504e+00 4.0464793646e+00 
50200 4.8639275489e+00 -1.5988083470e-04 2.3362394190e+00 -4.0464853724e+00 2.3362394190e+00 4.0464853724e+00 
50300 4.8639275509e+00 -1.5764772004e-04 2.3362428408e+00 -4.0464912991e+00 2.3362428408e+00 4.0464912991e+00 
50400 4.8639275528e+00 -1.5537437110e-04 2.3362462148e+00 -4.0464971430e+00 2.3362462148e+00 4.0464971430e+00 
50500 4.8639275547e+00 -1.5306285101e-04 2.3362495401e+00 -4.0465029026e+00 2.3362495401e+00 4.0465029026e+00 
50600 4.8639275566e+00 -1.5071539947e-04 2.3362528159e+00 -4.0465085764e+00 2.3362528159e+00 4.0465085764e+00 
50700 4.8639275585e+00 -1.4833441696e-04 2.3362560415e+00 -4.0465141633e+00 2.3362560415e+00 4.0465141633e+00 
50800 4.8639275604e+00 -1.4592244907e-04 2.3362592161e+00 -4.0465196619e+00 2.3362592161e+00 4.0465196619e+00 
50900 4.8639275623e+00 -1.4348217083e-04 2.3362623391e+00 -4.0465250711e+00 2.3362623391e+00 4.0465250711e+00 
51000 4.8639275642e+00 -1.4101637118e-04 2.3362654098e+00 -4.0465303898e+00 2.3362654098e+00 4.0465303898e+00 
51100 4.8639275660e+00 -1.3852793765e-04 2.3362684278e+00 -4.0465356171e+00 2.3362684278e+00 4.0465356171e+00 
51200 4.8639275679e+00 -1.3601984122e-04 2.3362713926e+00 -4.0465407522e+00 2.3362713926e+00 4.0465407522e+00 
51300 4.8639275697e+00 -1.3349512144e-04 2.3362743036e+00 -4.0465457943e+00 2.3362743036e+00 4.0465457943e+00 
51400 4.8639275715e+00 -1.3095687193e-04 2.3362771606e+00 -4.0465507428e+00 2.3362771606e+00 4.0465507428e+00 
51500 4.8639275733e+00 -1.2840822614e-04 2.3362799633e+00 -4.0465555971e+00 2.3362799633e+00 4.0465555971e+00 
51600 4.8639275751e+00 -1.2585234354e-04 2.3362827114e+00 -4.0465603571e+00 2.3362827114e+00 4.0465603571e+00 
51700 4.8639275768e+00 -1.2329239622e-04 2.3362854049e+00 -4.0465650222e+00 2.3362854049e+00 4.0465650222e+00 
51800 4.8639275785e+00 -1.2073155592e-04 2.3362880435e+00 -4.0465695925e+00 2.3362880435e+00 4.0465695925e+00 
51900 4.8639275802e+00 -1.1817298159e-04 2.3362906273e+00 -4.0465740678e+00 2.3362906273e+00 4.0465740678e+00 
52000 4.8639275819e+00 -1.1561980736e-04 2.3362931564e+00 -4.0465784483e+00 2.3362931564e+00 4.0465784483e+00 
52100 4.8639275836e+00 -1.1307513115e-04 2.3362956308e+00 -4.0465827341e+00 2.3362956308e+00 4.0465827341e+00 
52200 4.8639275852e+00 -1.1054200374e-04 2.3362980508e+00 -4.0465869256e+00 2.3362980508e+00 4.0465869256e+00 
52300 4.8639275868e+00 -1.0802341845e-04 2.3363004166e+00 -4.0465910232e+00 2.3363004166e+00 4.0465910232e+00 
52400 4.8639275884e+00 -1.0552230136e-04 2.3363027284e+00 -4.0465950275e+00 2.3363027284e+00 4.0465950275e+00 
52500 4.8639275899e+00 -1.0304150220e-04 2.3363049867e+00 -4.0465989390e+00 2.3363049867e+00 4.0465989390e+00 
52600 4.8639275914e+00 -1.0058378577e-04 2.3363071920e+00 -4.0466027586e+00 2.3363071920e+00 4.0466027586e+00 
52700 4.8639275929e+00 -9.8151823984e-05 2.3363093446e+00 -4.0466064870e+00 2.3363093446e+00 4.0466064870e+00 
52800 4.8639275944e+00 -9.5748188597e-05 2.3363114452e+00 -4.0466101253e+00 2.3363114452e+00 4.0466101253e+00 
52900 4.8639275958e+00 -9.3375344468e-05 2.3363134943e+00 -4.0466136745e+00 2.3363134943e+00 4.0466136745e+00 
53000 4.8639275972e+00 -9.1035643506e-05 2.3363154926e+00 -4.0466171358e+00 2.3363154926e+00 4.0466171358e+00 
53100 4.8639275986e+00 -8.8731319205e-05 2.3363174409e+00 -4.0466205103e+00 2.3363174409e+00 4.0466205103e+00 
53200 4.8639275999e+00 -8.6464481828e-05 2.3363193399e+00 -4.0466237994e+00 2.3363193399e+00 4.0466237994e+00 
53300 4.8639276012e+00 -8.4237114169e-05 2.3363211903e+00 -4.0466270044e+00 2.3363211903e+00 4.0466270044e+00 
53400 4.8639276025e+00 -8.2051067959e-05 2.3363229931e+00 -4.0466301269e+00 2.3363229931e+00 4.0466301269e+00 
53500 4.8639276038e+00 -7.9908060844e-05 2.3363247491e+00 -4.0466331684e+00 2.3363247491e+00 4.0466331684e+00 
53600 4.8639276050e+00 -7.7809673956e-05 2.3363264592e+00 -4.0466361304e+00 2.3363264592e+00 4.0466361304e+00 
53700 4.8639276063e+00 -7.5757350061e-05 2.3363281244e+00 -4.0466390146e+00 2.3363281244e+00 4.0466390146e+00 
53800 4.8639276074e+00 -7.3752392281e-05 2.3363297457e+00 -4.0466418228e+00 2.3363297457e+00 4.0466418228e+00 
53900 4.8639276086e+00 -7.1795963326e-05 2.3363313241e+00 -4.0466445566e+00 2.3363313241e+00 4.0466445566e+00 
54000 4.8639276098e+00 -6.9889085291e-05 2.3363328606e+00 -4.0466472179e+00 2.3363328606e+00 4.0466472179e+00 
54100 4.8639276110e+00 -6.8654299936e-05 2.3363328606e+00 -4.0466472179e+00 2.3363328606e+00 4.0466472179e+00 
54200 4.8639276121e+00 -6.7465040983e-05 2.3363328606e+00 -4.0466472179e+00 2.3363328606e+00 4.0466472179e+00 
54300 4.8639276133e+00 -6.6322265895e-05 2.3363328606e+00 -4.0466472179e+00 2.3363328606e+00 4.0466472179e+00 
54400 4.8639276144e+00 -6.5226786281e-05 2.3363328606e+00 -4.0466472179e+00 2.3363328606e+00 4.0466472179e+00 
54500 4.8639276155e+00 -6.4179268525e-05 2.3363328606e+00 -4.0466472179e+00 2.3363328606e+00 4.0466472179e+00 
54600 4.8639276166e+00 -6.3180234940e-05 2.3363328606e+00 -4.0466472179e+00 2.3363328606e+00 4.0466472179e+00 
54700 4.8639276177e+00 -6.2230065474e-05 2.3363328606e+00 -4.0466472179e+00 2.3363328606e+00 4.0466472179e+00 
54800 4.8639276187e+00 -6.1328999904e-05 2.3363328606e+00 -4.0466472179e+00 2.3363328606e+00 4.0466472179e+00 
54900 4.8639276197e+00 -6.0477140489e-05 2.3363328606e+00 -4.0466472179e+00 2.3363328606e+00 4.0466472179e+00 
55000 4.8639276207e+00 -5.9674455083e-05 2.3363328606e+00 -4.0466472179e+00 2.3363328606e+00 4.0466472179e+00 
55100 4.8639276217e+00 -5.8920780651e-05 2.3363328606e+00 -4.0466472179e+00 2.3363328606e+00 4.0466472179e+00 
55200 4.8639276227e+00 -5.8215827169e-05 2.3363328606e+00 -4.0466472179e+00 2.3363328606e+00 4.0466472179e+00 
55300 4.8639276236e+00 -5.7559181881e-05 2.3363328606e+00 -4.0466472179e+00 2.3363328606e+00 4.0466472179e+00 
55400 4.8639276246e+00 -5.6950313880e-05 2.3363328606e+00 -4.0466472179e+00 2.3363328606e+00 4.0466472179e+00 
55500 4.8639276255e+00 -5.6388578985e-05 2.3363328606e+00 -4.0466472179e+00 2.3363328606e+00 4.0466472179e+00 
55600 4.8639276264e+00 -5.5873224884e-05 2.3363328606e+00 -4.0466472179e+00 2.3363328606e+00 4.0466472179e+00 
55700 4.8639276273e+00 -5.5403396516e-05 2.3363328606e+00 -4.0466472179e+00 2.3363328606e+00 4.0466472179e+00 
55800 4.8639276282e+00 -5.4978141647e-05 2.3363328606e+00 -4.0466472179e+00 2.3363328606e+00 4.0466472179e+00 
55900 4.8639276291e+00 -5.4596416643e-05 2.3363328606e+00 -4.0466472179e+00 2.3363328606e+00 4.0466472179e+00 
56000 4.8639276300e+00 -5.4257092381e-05 2.3363328606e+00 -4.0466472179e+00 2.3363328606e+00 4.0466472179e+00 
56100 4.8639276308e+00 -5.3958960282e-05 2.3363328606e+00 -4.0466472179e+00 2.3363328606e+00 4.0466472179e+00 
56200 4.8639276317e+00 -5.3700738451e-05 2.3363328606e+00 -4.0466472179e+00 2.3363328606e+00 4.0466472179e+00 
56300 4.8639276325e+00 -5.3481077862e-05 2.3363328606e+00 -4.0466472179e+00 2.3363328606e+00 4.0466472179e+00 
56400 4.8639276334e+00 -5.3298568615e-05 2.3363328606e+00 -4.0466472179e+00 2.3363328606e+00 4.0466472179e+00 
56500 4.8639276342e+00 -5.3151746193e-05 2.3363328606e+00 -4.0466472179e+00 2.3363328606e+00 4.0466472179e+00 
56600 4.8639276350e+00 -5.3039097712e-05 2.3363328606e+00 -4.0466472179e+00 2.3363328606e+00 4.0466472179e+00 
56700 4.8639276358e+00 -5.2959068154e-05 2.3363328606e+00 -4.0466472179e+00 2.3363328606e+00 4.0466472179e+00 
56800 4.8639276366e+00 -5.2910066536e-05 2.3363328606e+00 -4.0466472179e+00 2.3363328606e+00 4.0466472179e+00 
56900 4.8639276374e+00 -5.2890472019e-05 2.3363328606e+00 -4.0466472179e+00 2.3363328606e+00 4.0466472179e+00 
57000 4.8639276381e+00 -5.2898639917e-05 2.3363328606e+00 -4.0466472179e+00 2.3363328606e+00 4.0466472179e+00 
57100 4.8639276389e+00 -5.2932907599e-05 2.3363328606e+00 -4.0466472179e+00 2.3363328606e+00 4.0466472179e+00 
57200 4.8639276396e+00 -5.2991600262e-05 2.3363328606e+00 -4.0466472179e+00 2.3363328606e+00 4.0466472179e+00 
57300 4.8639276404e+00 -5.3073036567e-05 2.3363328606e+00 -4.0466472179e+00 2.3363328606e+00 4.0466472179e+00 
57400 4.8639276411e+00 -5.3175534093e-05 2.3363328606e+00 -4.0466472179e+00 2.3363328606e+00 4.0466472179e+00 
57500 4.8639276418e+00 -5.3297414641e-05 2.3363328606e+00 -4.0466472179e+00 2.3363328606e+00 4.0466472179e+00 
57600 4.8639276425e+00 -5.3437009343e-05 2.3363328606e+00 -4.0466472179e+00 2.3363328606e+00 4.0466472179e+00 
57700 4.8639276432e+00 -5.3592663564e-05 2.3363328606e+00 -4.0466472179e+00 2.3363328606e+00 4.0466472179e+00 
57800 4.8639276439e+00 -5.3762741600e-05 2.3363328606e+00 -4.0466472179e+00 2.3363328606e+00 4.0466472179e+00 
57900 4.8639276445e+00 -5.3945631166e-05 2.3363328606e+00 -4.0466472179e+00 2.3363328606e+00 4.0466472179e+00 
58000 4.8639276452e+00 -5.4139747635e-05 2.3363328606e+00 -4.0466472179e+00 2.3363328606e+00 4.0466472179e+00 
58100 4.8639276458e+00 -5.4343538066e-05 2.3363328606e+00 -4.0466472179e+00 2.3363328606e+00 4.0466472179e+00 
58200 4.8639276465e+00 -5.4555484967e-05 2.3363328606e+00 -4.0466472179e+00 2.3363328606e+00 4.0466472179e+00 
58300 4.8639276471e+00 -5.4774109831e-05 2.3363328606e+00 -4.0466472179e+00 2.3363328606e+00 4.0466472179e+00 
58400 4.8639276477e+00 -5.4997976422e-05 2.3363328606e+00 -4.0466472179e+00 2.3363328606e+00 4.0466472179e+00 
58500 4.8639276483e+00 -5.5225693789e-05 2.3363328606e+00 -4.0466472179e+00 2.3363328606e+00 4.0466472179e+00 
58600 4.8639276489e+00 -5.5455919047e-05 2.3363328606e+00 -4.0466472179e+00 2.3363328606e+00 4.0466472179e+00 
58700 4.8639276495e+00 -5.5687359891e-05 2.3363328606e+00 -4.0466472179e+00 2.3363328606e+00 4.0466472179e+00 
58800 4.8639276500e+00 -5.5918776861e-05 2.3363328606e+00 -4.0466472179e+00 2.3363328606e+00 4.0466472179e+00 
58900 4.8639276506e+00 -5.6148985343e-05 2.3363328606e+00 -4.0466472179e+00 2.3363328606e+00 4.0466472179e+00 
59000 4.8639276511e+00 -5.6376857334e-05 2.3363328606e+00 -4.0466472179e+00 2.3363328606e+00 4.0466472179e+00 
59100 4.8639276516e+00 -5.6601322932e-05 2.3363328606e+00 -4.0466472179e+00 2.3363328606e+00 4.0466472179e+00 
59200 4.8639276522e+00 -5.6821371615e-05 2.3363328606e+00 -4.0466472179e+00 2.3363328606e+00 4.0466472179e+00 
59300 4.8639276527e+00 -5.7036053244e-05 2.3363328606e+00 -4.0466472179e+00 2.3363328606e+00 4.0466472179e+00 
59400 4.8639276532e+00 -5.7244478845e-05 2.3363328606e+00 -4.0466472179e+00 2.3363328606e+00 4.0466472179e+00 
59500 4.8639276537e+00 -5.7445821166e-05 2.3363328606e+00 -4.0466472179e+00 2.3363328606e+00 4.0466472179e+00 
59600 4.8639276542e+00 -5.7639314995e-05 2.3363328606e+00 -4.0466472179e+00 2.3363328606e+00 4.0466472179e+00 
59700 4.8639276546e+00 -5.7824257272e-05 2.3363328606e+00 -4.0466472179e+00 2.3363328606e+00 4.0466472179e+00 
59800 4.8639276551e+00 -5.8000006977e-05 2.3363328606e+00 -4.0466472179e+00 2.3363328606e+00 4.0466472179e+00 
59900 4.8639276556e+00 -5.8165984829e-05 2.3363328606e+00 -4.0466472179e+00 2.3363328606e+00 4.0466472179e+00 
60000 4.8639276560e+00 -5.8321672785e-05 2.3363328606e+00 -4.0466472179e+00 2.3363328606e+00 4.0466472179e+00 
60100 4.8639276565e+00 -5.8466613346e-05 2.3363328606e+00 -4.0466472179e+00 2.3363328606e+00 4.0466472179e+00 
60200 4.8639276569e+00 -5.8600408699e-05 2.3363328606e+00 -4.0466472179e+00 2.3363328606e+00 4.0466472179e+00 
60300 4.8639276573e+00 -5.8722719681e-05 2.3363328606e+00 -4.0466472179e+00 2.3363328606e+00 4.0466472179e+00 
60400 4.8639276577e+00 -5.8833264591e-05 2.3363328606e+00 -4.0466472179e+00 2.3363328606e+00 4.0466472179e+00 
60500 4.8639276582e+00 -5.8931817850e-05 2.3363328606e+00 -4.0466472179e+00 2.3363328606e+00 4.0466472179e+00 
60600 4.8639276586e+00 -5.9018208523e-05 2.3363328606e+00 -4.0466472179e+00 2.3363328606e+00 4.0466472179e+00 
60700 4.8639276590e+00 -5.9092318714e-05 2.3363328606e+00 -4.0466472179e+00 2.3363328606e+00 4.0466472179e+00 
60800 4.8639276594e+00 -5.9154081848e-05 2.3363328606e+00 -4.0466472179e+00 2.3363328606e+00 4.0466472179e+00 
60900 4.8639276598e+00 -5.9203480829e-05 2.3363328606e+00 -4.0466472179e+00 2.3363328606e+00 4.0466472179e+00 
61000 4.8639276601e+00 -5.9240546116e-05 2.3363328606e+00 -4.0466472179e+00 2.3363328606e+00 4.0466472179e+00 
61100 4.8639276605e+00 -5.9265353713e-05 2.3363328606e+00 -4.0466472179e+00 2.3363328606e+00 4.0466472179e+00 
61200 4.8639276609e+00 -5.9278023059e-05 2.3363328606e+00 -4.0466472179e+00 2.3363328606e+00 4.0466472179e+00 
61300 4.8639276612e+00 -5.9278714878e-05 2.3363328606e+00 -4.0466472179e+00 2.3363328606e+00 4.0466472179e+00 
61400 4.8639276616e+00 -5.9267628954e-05 2.3363328606e+00 -4.0466472179e+00 2.3363328606e+00 4.0466472179e+00 
61500 4.8639276620e+00 -5.9245001864e-05 2.3363328606e+00 -4.0466472179e+00 2.3363328606e+00 4.0466472179e+00 
61600 4.8639276623e+00 -5.9211104673e-05 2.3363328606e+00 -4.0466472179e+00 2.3363328606e+00 4.0466472179e+00 
61700 4.8639276627e+00 -5.9166240591e-05 2.3363328606e+00 -4.0466472179e+00 2.3363328606e+00 4.0466472179e+00 
61800 4.8639276630e+00 -5.9110742631e-05 2.3363328606e+00 -4.0466472179e+00 2.3363328606e+00 4.0466472179e+00 
61900 4.8639276633e+00 -5.9044971223e-05 2.3363328606e+00 -4.0466472179e+00 2.3363328606e+00 4.0466472179e+00 
62000 4.8639276637e+00 -5.8969311866e-05 2.3363328606e+00 -4.0466472179e+00 2.3363328606e+00 4.0466472179e+00 
62100 4.8639276640e+00 -5.8884172742e-05 2.3363328606e+00 -4.0466472179e+00 2.3363328606e+00 4.0466472179e+00 
62200 4.8639276643e+00 -5.8789982382e-05 2.3363328606e+00 -4.0466472179e+00 2.3363328606e+00 4.0466472179e+00 
62300 4.8639276646e+00 -5.8687187322e-05 2.3363328606e+00 -4.0466472179e+00 2.3363328606e+00 4.0466472179e+00 
62400 4.8639276649e+00 -5.8576249813e-05 2.3363328606e+00 -4.0466472179e+00 2.3363328606e+00 4.0466472179e+00 
62500 4.8639276652e+00 -5.8457645542e-05 2.3363328606e+00 -4.0466472179e+00 2.3363328606e+00 4.0466472179e+00 
62600 4.8639276655e+00 -5.8331861416e-05 2.3363328606e+00 -4.0466472179e+00 2.3363328606e+00 4.0466472179e+00 
62700 4.8639276658e+00 -5.8199393378e-05 2.3363328606e+00 -4.0466472179e+00 2.3363328606e+00 4.0466472179e+00 
62800 4.8639276661e+00 -5.8060744279e-05 2.3363328606e+00 -4.0466472179e+00 2.3363328606e+00 4.0466472179e+00 
62900 4.8639276664e+00 -5.7916421816e-05 2.3363328606e+00 -4.0466472179e+00 2.3363328606e+00 4.0466472179e+00 
63000 4.8639276667e+00 -5.7766936532e-05 2.3363328606e+00 -4.0466472179e+00 2.3363328606e+00 4.0466472179e+00 
63100 4.8639276670e+00 -5.7612799874e-05 2.3363328606e+00 -4.0466472179e+00 2.3363328606e+00 4.0466472179e+00 
63200 4.8639276673e+00 -5.7454522324e-05 2.3363328606e+00 -4.0466472179e+00 2.3363328606e+00 4.0466472179e+00 
63300 4.8639276675e+00 -5.7292611625e-05 2.3363328606e+00 -4.0466472179e+00 2.3363328606e+00 4.0466472179e+00 
63400 4.8639276678e+00 -5.7127571065e-05 2.3363328606e+00 -4.0466472179e+00 2.3363328606e+00 4.0466472179e+00 
63500 4.8639276681e+00 -5.6959897846e-05 2.3363328606e+00 -4.0466472179e+00 2.3363328606e+00 4.0466472179e+00 
63600 4.8639276683e+00 -5.6790081548e-05 2.3363328606e+00 -4.0466472179e+00 2.3363328606e+00 4.0466472179e+00 
63700 4.8639276686e+00 -5.6618602672e-05 2.3363328606e+00 -4.0466472179e+00 2.3363328606e+00 4.0466472179e+00 
63800 4.8639276688e+00 -5.6445931263e-05 2.3363328606e+00 -4.0466472179e+00 2.3363328606e+00 4.0466472179e+00 
63900 4.8639276691e+00 -5.6272525647e-05 2.3363328606e+00 -4.0466472179e+00 2.3363328606e+00 4.0466472179e+00 
64000 4.8639276693e+00 -5.6098831228e-05 2.3363328606e+00 -4.0466472179e+00 2.3363328606e+00 4.0466472179e+00 
64100 4.8639276695e+00 -5.5925279402e-05 2.3363328606e+00 -4.0466472179e+00 2.3363328606e+00 4.0466472179e+00 
64200 4.8639276698e+00 -5.5752286547e-05 2.3363328606e+00 -4.0466472179e+00 2.3363328606e+00 4.0466472179e+00 
64300 4.8639276700e+00 -5.5580253119e-05 2.3363328606e+00 -4.0466472179e+00 2.3363328606e+00 4.0466472179e+00 
64400 4.8639276702e+00 -5.5409562813e-05 2.3363328606e+00 -4.0466472179e+00 2.3363328606e+00 4.0466472179e+00 
64500 4.8639276704e+00 -5.5240581847e-05 2.3363328606e+00 -4.0466472179e+00 2.3363328606e+00 4.0466472179e+00 
64600 4.8639276707e+00 -5.5073658314e-05 2.3363328606e+00 -4.0466472179e+00 2.3363328606e+00 4.0466472179e+00 
64700 4.8639276709e+00 -5.4909121632e-05 2.3363328606e+00 -4.0466472179e+00 2.3363328606e+00 4.0466472179e+00 
64800 4.8639276711e+00 -5.4747282075e-05 2.3363328606e+00 -4.0466472179e+00 2.3363328606e+00 4.0466472179e+00 
64900 4.8639276713e+00 -5.4588430392e-05 2.3363328606e+00 -4.0466472179e+00 2.3363328606e+00 4.0466472179e+00 
65000 4.8639276715e+00 -5.4432837516e-05 2.3363328606e+00 -4.0466472179e+00 2.3363328606e+00 4.0466472179e+00 
65100 4.8639276717e+00 -5.4280754339e-05 2.3363328606e+00 -4.0466472179e+00 2.3363328606e+00 4.0466472179e+00 
65200 4.8639276719e+00 -5.4132411584e-05 2.3363328606e+00 -4.0466472179e+00 2.3363328606e+00 4.0466472179e+00 
65300 4.8639276721e+00 -5.3988019738e-05 2.3363328606e+00 -4.0466472179e+00 2.3363328606e+00 4.0466472179e+00 
65400 4.8639276723e+00 -5.3847769069e-05 2.3363328606e+00 -4.0466472179e+00 2.3363328606e+00 4.0466472179e+00 
65500 4.8639276725e+00 -5.3711829706e-05 2.3363328606e+00 -4.0466472179e+00 2.3363328606e+00 4.0466472179e+00 
65600 4.8639276727e+00 -5.3580351797e-05 2.3363328606e+00 -4.0466472179e+00 2.3363328606e+00 4.0466472179e+00 
65700 4.8639276728e+00 -5.3453465716e-05 2.3363328606e+00 -4.0466472179e+00 2.3363328606e+00 4.0466472179e+00 
65800 4.8639276730e+00 -5.3331282348e-05 2.3363328606e+00 -4.0466472179e+00 2.3363328606e+00 4.0466472179e+00 
65900 4.8639276732e+00 -5.3213893425e-05 2.3363328606e+00 -4.0466472179e+00 2.3363328606e+00 4.0466472179e+00 
66000 4.8639276734e+00 -5.3101371908e-05 2.3363328606e+00 -4.0466472179e+00 2.3363328606e+00 4.0466472179e+00 
66100 4.8639276735e+00 -5.2993772444e-05 2.3363328606e+00 -4.0466472179e+00 2.3363328606e+00 4.0466472179e+00 
66200 4.8639276737e+00 -5.2891131836e-05 2.3363328606e+00 -4.0466472179e+00 2.3363328606e+00 4.0466472179e+00 
66300 4.8639276739e+00 -5.2793469592e-05 2.3363328606e+00 -4.0466472179e+00 2.3363328606e+00 4.0466472179e+00 
66400 4.8639276740e+00 -5.2700788495e-05 2.3363328606e+00 -4.0466472179e+00 2.3363328606e+00 4.0466472179e+00 
66500 4.8639276742e+00 -5.2613075210e-05 2.3363328606e+00 -4.0466472179e+00 2.3363328606e+00 4.0466472179e+00 
66600 4.8639276744e+00 -5.2530300934e-05 2.3363328606e+00 -4.0466472179e+00 2.3363328606e+00 4.0466472179e+00 
66700 4.8639276745e+00 -5.2452422070e-05 2.3363328606e+00 -4.0466472179e+00 2.3363328606e+00 4.0466472179e+00 
66800 4.8639276747e+00 -5.2379380926e-05 2.3363328606e+00 -4.0466472179e+00 2.3363328606e+00 4.0466472179e+00 
66900 4.8639276748e+00 -5.2311106441e-05 2.3363328606e+00 -4.0466472179e+00 2.3363328606e+00 4.0466472179e+00 
67000 4.8639276750e+00 -5.2247514926e-05 2.3363328606e+00 -4.0466472179e+00 2.3363328606e+00 4.0466472179e+00 
67100 4.8639276751e+00 -5.2188510829e-05 2.3363328606e+00 -4.0466472179e+00 2.3363328606e+00 4.0466472179e+00 
67200 4.8639276753e+00 -5.2133987498e-05 2.3363328606e+00 -4.0466472179e+00 2.3363328606e+00 4.0466472179e+00 
67300 4.8639276754e+00 -5.2083827981e-05 2.3363328606e+00 -4.0466472179e+00 2.3363328606e+00 4.0466472179e+00 
67400 4.8639276755e+00 -5.2037905797e-05 2.3363328606e+00 -4.0466472179e+00 2.3363328606e+00 4.0466472179e+00 
67500 4.8639276757e+00 -5.1996085739e-05 2.3363328606e+00 -4.0466472179e+00 2.3363328606e+00 4.0466472179e+00 
67600 4.8639276758e+00 -5.1958224661e-05 2.3363328606e+00 -4.0466472179e+00 2.3363328606e+00 4.0466472179e+00 
67700 4.8639276759e+00 -5.1924172278e-05 2.3363328606e+00 -4.0466472179e+00 2.3363328606e+00 4.0466472179e+00 
67800 4.8639276761e+00 -5.1893771941e-05 2.3363328606e+00 -4.0466472179e+00 2.3363328606e+00 4.0466472179e+00 
67900 4.8639276762e+00 -5.1866861427e-05 2.3363328606e+00 -4.0466472179e+00 2.3363328606e+00 4.0466472179e+00 
68000 4.8639276763e+00 -5.1843273699e-05 2.3363328606e+00 -4.0466472179e+00 2.3363328606e+00 4.0466472179e+00 
68100 4.8639276765e+00 -5.1822837670e-05 2.3363328606e+00 -4.0466472179e+00 2.3363328606e+00 4.0466472179e+00 
68200 4.8639276766e+00 -5.1805378938e-05 2.3363328606e+00 -4.0466472179e+00 2.3363328606e+00 4.0466472179e+00 
68300 4.8639276767e+00 -5.1790720517e-05 2.3363328606e+00 -4.0466472179e+00 2.3363328606e+00 4.0466472179e+00 
68400 4.8639276768e+00 -5.1778683547e-05 2.3363328606e+00 -4.0466472179e+00 2.3363328606e+00 4.0466472179e+00 
68500 4.8639276769e+00 -5.1769087972e-05 2.3363328606e+00 -4.0466472179e+00 2.3363328606e+00 4.0466472179e+00 
68600 4.8639276771e+00 -5.1761753210e-05 2.3363328606e+00 -4.0466472179e+00 2.3363328606e+00 4.0466472179e+00 
68700 4.8639276772e+00 -5.1756498806e-05 2.3363328606e+00 -4.0466472179e+00 2.3363328606e+00 4.0466472179e+00 
68800 4.8639276773e+00 -5.1753145026e-05 2.3363328606e+00 -4.0466472179e+00 2.3363328606e+00 4.0466472179e+00 
68900 4.8639276774e+00 -5.1751513471e-05 2.3363328606e+00 -4.0466472179e+00 2.3363328606e+00 4.0466472179e+00 
69000 4.8639276775e+00 -5.1751427631e-05 2.3363328606e+00 -4.0466472179e+00 2.3363328606e+00 4.0466472179e+00 
69100 4.8639276776e+00 -5.1752713421e-05 2.3363328606e+00 -4.0466472179e+00 2.3363328606e+00 4.0466472179e+00 
69200 4.8639276777e+00 -5.1755199691e-05 2.3363328606e+00 -4.0466472179e+00 2.3363328606e+00 4.0466472179e+00 
69300 4.8639276778e+00 -5.1758718705e-05 2.3363328606e+00 -4.0466472179e+00 2.3363328606e+00 4.0466472179e+00 
69400 4.8639276779e+00 -5.1763106588e-05 2.3363328606e+00 -4.0466472179e+00 2.3363328606e+00 4.0466472179e+00 
69500 4.8639276780e+00 -5.1768203744e-05 2.3363328606e+00 -4.0466472179e+00 2.3363328606e+00 4.0466472179e+00 
69600 4.8639276781e+00 -5.1773855236e-05 2.3363328606e+00 -4.0466472179e+00 2.3363328606e+00 4.0466472179e+00 
69700 4.8639276782e+00 -5.1779911161e-05 2.3363328606e+00 -4.0466472179e+00 2.3363328606e+00 4.0466472179e+00 
69800 4.8639276783e+00 -5.1786226952e-05 2.3363328606e+00 -4.0466472179e+00 2.3363328606e+00 4.0466472179e+00 
69900 4.8639276784e+00 -5.1792663688e-05 2.3363328606e+00 -4.0466472179e+00 2.3363328606e+00 4.0466472179e+00 
70000 4.8639276785e+00 -5.1799088345e-05 2.3363328606e+00 -4.0466472179e+00 2.3363328606e+00 4.0466472179e+00 
70100 4.8639276786e+00 -5.1805374043e-05 2.3363328606e+00 -4.0466472179e+00 2.3363328606e+00 4.0466472179e+00 
70200 4.8639276787e+00 -5.1811400234e-05 2.3363328606e+00 -4.0466472179e+00 2.3363328606e+00 4.0466472179e+00 
70300 4.8639276788e+00 -5.1817052880e-05 2.3363328606e+00 -4.0466472179e+00 2.3363328606e+00 4.0466472179e+00 
70400 4.8639276789e+00 -5.1822224599e-05 2.3363328606e+00 -4.0466472179e+00 2.3363328606e+00 4.0466472179e+00 
70500 4.8639276790e+00 -5.1826814772e-05 2.3363328606e+00 -4.0466472179e+00 2.3363328606e+00 4.0466472179e+00 
70600 4.8639276791e+00 -5.1830729637e-05 2.3363328606e+00 -4.0466472179e+00 2.3363328606e+00 4.0466472179e+00 
70700 4.8639276791e+00 -5.1833882342e-05 2.3363328606e+00 -4.0466472179e+00 2.3363328606e+00 4.0466472179e+00 
70800 4.8639276792e+00 -5.1836192981e-05 2.3363328606e+00 -4.0466472179e+00 2.3363328606e+00 4.0466472179e+00 
70900 4.8639276793e+00 -5.1837588601e-05 2.3363328606e+00 -4.0466472179e+00 2.3363328606e+00 4.0466472179e+00 
71000 4.8639276794e+00 -5.1838003180e-05 2.3363328606e+00 -4.0466472179e+00 2.3363328606e+00 4.0466472179e+00 
71100 4.8639276795e+00 -5.1837377592e-05 2.3363328606e+00 -4.0466472179e+00 2.3363328606e+00 4.0466472179e+00 
71200 4.8639276795e+00 -5.1835659541e-05 2.3363328606e+00 -4.0466472179e+00 2.3363328606e+00 4.0466472179e+00 
71300 4.8639276796e+00 -5.1832803474e-05 2.3363328606e+00 -4.0466472179e+00 2.3363328606e+00 4.0466472179e+00 
71400 4.8639276797e+00 -5.1828770478e-05 2.3363328606e+00 -4.0466472179e+00 2.3363328606e+00 4.0466472179e+00 
71500 4.8639276798e+00 -5.1823528151e-05 2.3363328606e+00 -4.0466472179e+00 2.3363328606e+00 4.0466472179e+00 
71600 4.8639276798e+00 -5.1817050469e-05 2.3363328606e+00 -4.0466472179e+00 2.3363328606e+00 4.0466472179e+00 
71700 4.8639276799e+00 -5.1809317611e-05 2.3363328606e+00 -4.0466472179e+00 2.3363328606e+00 4.0466472179e+00 
71800 4.8639276800e+00 -5.1800315800e-05 2.3363328606e+00 -4.0466472179e+00 2.3363328606e+00 4.0466472179e+00 
71900 4.8639276801e+00 -5.1790037100e-05 2.3363328606e+00 -4.0466472179e+00 2.3363328606e+00 4.0466472179e+00 
72000 4.8639276801e+00 -5.1778479222e-05 2.3363328606e+00 -4.0466472179e+00 2.3363328606e+00 4.0466472179e+00 
72100 4.8639276802e+00 -5.1765645304e-05 2.3363328606e+00 -4.0466472179e+00 2.3363328606e+00 4.0466472179e+00 
72200 4.8639276803e+00 -5.1751543686e-05 2.3363328606e+00 -4.0466472179e+00 2.3363328606e+00 4.0466472179e+00 
72300 4.8639276803e+00 -5.1736187676e-05 2.3363328606e+00 -4.0466472179e+00 2.3363328606e+00 4.0466472179e+00 
72400 4.8639276804e+00 -5.1719595304e-05 2.3363328606e+00 -4.0466472179e+00 2.3363328606e+00 4.0466472179e+00 
72500 4.8639276805e+00 -5.1701789073e-05 2.3363328606e+00 -4.0466472179e+00 2.3363328606e+00 4.0466472179e+00 
72600 4.8639276805e+00 -5.1682795703e-05 2.3363328606e+00 -4.0466472179e+00 2.3363328606e+00 4.0466472179e+00 
72700 4.8639276806e+00 -5.1662645860e-05 2.3363328606e+00 -4.0466472179e+00 2.3363328606e+00 4.0466472179e+00 
72800 4.8639276806e+00 -5.1641373903e-05 2.3363328606e+00 -4.0466472179e+00 2.3363328606e+00 4.0466472179e+00 
72900 4.8639276807e+00 -5.1619017606e-05 2.3363328606e+00 -4.0466472179e+00 2.3363328606e+00 4.0466472179e+00 
73000 4.8639276808e+00 -5.1595617887e-05 2.3363328606e+00 -4.0466472179e+00 2.3363328606e+00 4.0466472179e+00 
73100 4.8639276808e+00 -5.1571218544e-05 2.3363328606e+00 -4.0466472179e+00 2.3363328606e+00 4.0466472179e+00 
73200 4.8639276809e+00 -5.1545865981e-05 2.3363328606e+00 -4.0466472179e+00 2.3363328606e+00 4.0466472179e+00 
73300 4.8639276809e+00 -5.1519608933e-05 2.3363328606e+00 -4.0466472179e+00 2.3363328606e+00 4.0466472179e+00 
73400 4.8639276810e+00 -5.1492498202e-05 2.3363328606e+00 -4.0466472179e+00 2.3363328606e+00 4.0466472179e+00 
73500 4.8639276810e+00 -5.1464586400e-05 2.3363328606e+00 -4.0466472179e+00 2.3363328606e+00 4.0466472179e+00 
73600 4.8639276811e+00 -5.1435927668e-05 2.3363328606e+00 -4.0466472179e+00 2.3363328606e+00 4.0466472179e+00 
73700 4.8639276812e+00 -5.1406577446e-05 2.3363328606e+00 -4.0466472179e+00 2.3363328606e+00 4.0466472179e+00 
73800 4.8639276812e+00 -5.1376592200e-05 2.3363328606e+00 -4.0466472179e+00 2.3363328606e+00 4.0466472179e+00 
73900 4.8639276813e+00 -5.1346029187e-05 2.3363328606e+00 -4.0466472179e+00 2.3363328606e+00 4.0466472179e+00 
74000 4.8639276813e+00 -5.1314946218e-05 2.3363328606e+00 -4.0466472179e+00 2.3363328606e+00 4.0466472179e+00 
74100 4.8639276814e+00 -5.1283401418e-05 2.3363328606e+00 -4.0466472179e+00 2.3363328606e+00 4.0466472179e+00 
74200 4.8639276814e+00 -5.1251453015e-05 2.3363328606e+00 -4.0466472179e+00 2.3363328606e+00 4.0466472179e+00 
74300 4.8639276814e+00 -5.1239863985e-05 2.3363328606e+00 -4.0466472179e+00 2.3363328606e+00 4.0466472179e+00 
74300 4.8639276814e+00 -5.1239863985e-05 2.3363328606e+00 -4.0466472179e+00 2.3363328606e+00 4.0466472179e+00 
