# step Hamiltonian StressXX CellTensor1 CellTensor2 CellTensor3 CellTensor4 
0 6.0379062461e+00 9.0127681111e-02 1.7438352029e+00 -3.0204111715e+00 1.7438352029e+00 3.0204111715e+00 
100 6.0368315357e+00 9.4312017236e-02 1.7438352029e+00 -3.0204111715e+00 1.7438352029e+00 3.0204111715e+00 
200 6.0355191116e+00 9.6135448817e-02 1.7411317478e+00 -3.0157286498e+00 1.7411317478e+00 3.0157286498e+00 
300 6.0342433733e+00 9.7610526812e-02 1.7383717613e+00 -3.0109482130e+00 1.7383717613e+00 3.0109482130e+00 
400 6.0330039911e+00 9.8757995524e-02 1.7355649908e+00 -3.0060867439e+00 1.7355649908e+00 3.0060867439e+00 
500 6.0318009287e+00 9.9597936932e-02 1.7327206442e+00 -3.0011601910e+00 1.7327206442e+00 3.0011601910e+00 
600 6.0306343567e+00 1.0014977419e-01 1.7298474067e+00 -2.9961835977e+00 1.7298474067e+00 2.9961835977e+00 
700 6.0295045776e+00 1.0043227444e-01 1.7269534579e+00 -2.9911711314e+00 1.7269534579e+00 2.9911711314e+00 
800 6.0284119639e+00 1.0046355132e-01 1.7240464878e+00 -2.9861361115e+00 1.7240464878e+00 2.9861361115e+00 
900 6.0273569052e+00 1.0026106761e-01 1.7211337123e+00 -2.9810910363e+00 1.7211337123e+00 2.9810910363e+00 
1000 6.0263397664e+00 9.9841638318e-02 1.7182218891e+00 -2.9760476106e+00 1.7182218891e+00 2.9760476106e+00 
1100 6.0253608528e+00 9.9221434309e-02 1.7153173326e+00 -2.9710167711e+00 1.7153173326e+00 2.9710167711e+00 
1200 6.0244203840e+00 9.8415986796e-02 1.7124259287e+00 -2.9660087126e+00 1.7124259287e+00 2.9660087126e+00 
1300 6.0235184737e+00 9.7440192709e-02 1.7095531499e+00 -2.9610329139e+00 1.7095531499e+00 2.9610329139e+00 
1400 6.0226551156e+00 9.6308321049e-02 1.7067040699e+00 -2.9560981626e+00 1.7067040699e+00 2.9560981626e+00 
1500 6.0218301745e+00 9.5034020246e-02 1.7038833776e+00 -2.9512125801e+00 1.7038833776e+00 2.9512125801e+00 
1600 6.0210433814e+00 9.3630326552e-02 1.7010953918e+00 -2.9463836470e+00 1.7010953918e+00 2.9463836470e+00 
1700 6.0202943325e+00 9.2109673415e-02 1.6983440752e+00 -2.9416182269e+00 1.6983440752e+00 2.9416182269e+00 
1800 6.0195824915e+00 9.0483901837e-02 1.6956330485e+00 -2.9369225909e+00 1.6956330485e+00 2.9369225909e+00 
1900 6.0189071942e+00 8.8764271637e-02 1.6929656042e+00 -2.9323024419e+00 1.6929656042e+00 2.9323024419e+00 
2000 6.0182676557e+00 8.6961473566e-02 1.6903447202e+00 -2.9277629377e+00 1.6903447202e+00 2.9277629377e+00 
2100 6.0176629784e+00 8.5085642211e-02 1.6877730736e+00 -2.9233087152e+00 1.6877730736e+00 2.9233087152e+00 
2200 6.0170921623e+00 8.3146369603e-02 1.6852530538e+00 -2.9189439128e+00 1.6852530538e+00 2.9189439128e+00 
2300 6.0165541158e+00 8.1152719457e-02 1.6827867757e+00 -2.9146721938e+00 1.6827867757e+00 2.9146721938e+00 
2400 6.0160476669e+00 7.9113241956e-02 1.6803760927e+00 -2.9104967683e+00 1.6803760927e+00 2.9104967683e+00 
2500 6.0155715754e+00 7.7035989005e-02 1.6780226093e+00 -2.9064204155e+00 1.6780226093e+00 2.9064204155e+00 
2600 6.0151245447e+00 7.4928529868e-02 1.6757276938e+00 -2.9024455053e+00 1.6757276938e+00 2.9024455053e+00 
2700 6.0147052338e+00 7.2797967113e-02 1.6734924903e+00 -2.8985740193e+00 1.6734924903e+00 2.8985740193e+00 
2800 6.0143122691e+00 7.0650952779e-02 1.6713179309e+00 -2.8948075719e+00 1.6713179309e+00 2.8948075719e+00 
2900 6.0139442557e+00 6.8493704700e-02 1.6692047470e+00 -2.8911474301e+00 1.6692047470e+00 2.8911474301e+00 
3000 6.0135997882e+00 6.6332022911e-02 1.6671534811e+00 -2.8875945333e+00 1.6671534811e+00 2.8875945333e+00 
3100 6.0132774614e+00 6.4171306056e-02 1.6651644976e+00 -2.8841495128e+00 1.6651644976e+00 2.8841495128e+00 
3200 6.0129758793e+00 6.2016567763e-02 1.6632379938e+00 -2.8808127103e+00 1.6632379938e+00 2.8808127103e+00 
3300 6.0126936645e+00 5.9872452886e-02 1.6613740101e+00 -2.8775841959e+00 1.6613740101e+00 2.8775841959e+00 
3400 6.0124294661e+00 5.7743253596e-02 1.6595724405e+00 -2.8744637858e+00 1.6595724405e+00 2.8744637858e+00 
3500 6.0121819670e+00 5.5632925247e-02 1.6578330421e+00 -2.8714510593e+00 1.6578330421e+00 2.8714510593e+00 
3600 6.0119498908e+00 5.3545101980e-02 1.6561554446e+00 -2.8685453752e+00 1.6561554446e+00 2.8685453752e+00 
3700 6.0117320068e+00 5.1483112022e-02 1.6545391596e+00 -2.8657458876e+00 1.6545391596e+00 2.8657458876e+00 
3800 6.0115271354e+00 4.9449992646e-02 1.6529835894e+00 -2.8630515609e+00 1.6529835894e+00 2.8630515609e+00 
3900 6.0113341521e+00 4.7448504750e-02 1.6514880353e+00 -2.8604611852e+00 1.6514880353e+00 2.8604611852e+00 
4000 6.0111519908e+00 4.5481147045e-02 1.6500517058e+00 -2.8579733896e+00 1.6500517058e+00 2.8579733896e+00 
4100 6.0109796462e+00 4.3550169815e-02 1.6486737244e+00 -2.8555866558e+00 1.6486737244e+00 2.8555866558e+00 
4200 6.0108161760e+00 4.1657588231e-02 1.6473531372e+00 -2.8532993316e+00 1.6473531372e+00 2.8532993316e+00 
4300 6.0106607017e+00 3.9805195221e-02 1.6460889196e+00 -2.8511096425e+00 1.6460889196e+00 2.8511096425e+00 
4400 6.0105124095e+00 3.7994573860e-02 1.6448799837e+00 -2.8490157042e+00 1.6448799837e+00 2.8490157042e+00 
4500 6.0103705501e+00 3.6227109291e-02 1.6437251844e+00 -2.8470155331e+00 1.6437251844e+00 2.8470155331e+00 
4600 6.0102344382e+00 3.4504000176e-02 1.6426233257e+00 -2.8451070578e+00 1.6426233257e+00 2.8451070578e+00 
4700 6.0101034516e+00 3.2826269658e-02 1.6415731665e+00 -2.8432881287e+00 1.6415731665e+00 2.8432881287e+00 
4800 6.0099770295e+00 3.1194775854e-02 1.6405734262e+00 -2.8415565278e+00 1.6405734262e+00 2.8415565278e+00 
4900 6.0098546707e+00 2.9610221879e-02 1.6396227903e+00 -2.8399099781e+00 1.6396227903e+00 2.8399099781e+00 
5000 6.0097359318e+00 2.8073165406e-02 1.6387199149e+00 -2.8383461519e+00 1.6387199149e+00 2.8383461519e+00 
5100 6.0096204242e+00 2.6584027769e-02 1.6378634318e+00 -2.8368626797e+00 1.6378634318e+00 2.8368626797e+00 
5200 6.0095078115e+00 2.5143102630e-02 1.6370519529e+00 -2.8354571570e+00 1.6370519529e+00 2.8354571570e+00 
5300 6.0093978069e+00 2.3750564211e-02 1.6362840745e+00 -2.8341271527e+00 1.6362840745e+00 2.8341271527e+00 
5400 6.0092901697e+00 2.2406475110e-02 1.6355583812e+00 -2.8328702150e+00 1.6355583812e+00 2.8328702150e+00 
5500 6.0091847024e+00 2.1110793720e-02 1.6348734497e+00 -2.8316838788e+00 1.6348734497e+00 2.8316838788e+00 
5600 6.0090812472e+00 1.9863381258e-02 1.6342278522e+00 -2.8305656712e+00 1.6342278522e+00 2.8305656712e+00 
5700 6.0089796829e+00 1.8664008426e-02 1.6336201600e+00 -2.8295131174e+00 1.6336201600e+00 2.8295131174e+00 
5800 6.0088799213e+00 1.7512361715e-02 1.6330489464e+00 -2.8285237465e+00 1.6330489464e+00 2.8285237465e+00 
5900 6.0087819041e+00 1.6408049381e-02 1.6325127897e+00 -2.8275950958e+00 1.6325127897e+00 2.8275950958e+00 
6000 6.0086855996e+00 1.5350607088e-02 1.6320102758e+00 -2.8267247162e+00 1.6320102758e+00 2.8267247162e+00 
6100 6.0085909992e+00 1.4339503264e-02 1.6315400009e+00 -2.8259101762e+00 1.6315400009e+00 2.8259101762e+00 
6200 6.0084981147e+00 1.3374144155e-02 1.6311005738e+00 -2.8251490660e+00 1.6311005738e+00 2.8251490660e+00 
6300 6.0084069751e+00 1.2453878620e-02 1.6306906179e+00 -2.8244390017e+00 1.6306906179e+00 2.8244390017e+00 
6400 6.0083176235e+00 1.1578002660e-02 1.6303087738e+00 -2.8237776283e+00 1.6303087738e+00 2.8237776283e+00 
6500 6.0082301147e+00 1.0745763722e-02 1.6299537005e+00 -2.8231626233e+00 1.6299537005e+00 2.8231626233e+00 
6600 6.0081445126e+00 9.9563647632e-03 1.6296240776e+00 -2.8225916997e+00 1.6296240776e+00 2.8225916997e+00 
6700 6.0080608873e+00 9.2089681152e-03 1.6293186068e+00 -2.8220626086e+00 1.6293186068e+00 2.8220626086e+00 
6800 6.0079793136e+00 8.5026991442e-03 1.6290360131e+00 -2.8215731421e+00 1.6290360131e+00 2.8215731421e+00 
6900 6.0078998680e+00 7.8366497309e-03 1.6287750467e+00 -2.8211211351e+00 1.6287750467e+00 2.8211211351e+00 
7000 6.0078226278e+00 7.2098815754e-03 1.6285344839e+00 -2.8207044679e+00 1.6285344839e+00 2.8207044679e+00 
7100 6.0077476683e+00 6.6214293415e-03 1.6283131278e+00 -2.8203210680e+00 1.6283131278e+00 2.8203210680e+00 
7200 6.0076750622e+00 6.0703036505e-03 1.6281098103e+00 -2.8199689118e+00 1.6281098103e+00 2.8199689118e+00 
7300 6.0076048777e+00 5.5554939338e-03 1.6279233921e+00 -2.8196460259e+00 1.6279233921e+00 2.8196460259e+00 
7400 6.0075371773e+00 5.0759711543e-03 1.6277527637e+00 -2.8193504890e+00 1.6277527637e+00 2.8193504890e+00 
7500 6.0074720171e+00 4.6306904037e-03 1.6275968466e+00 -2.8190804326e+00 1.6275968466e+00 2.8190804326e+00 
7600 6.0074094454e+00 4.2185933851e-03 1.6274545933e+00 -2.8188340425e+00 1.6274545933e+00 2.8188340425e+00 
7700 6.0073495026e+00 3.8386107861e-03 1.6273249879e+00 -2.8186095594e+00 1.6273249879e+00 2.8186095594e+00 
7800 6.0072922204e+00 3.4896645512e-03 1.6272070469e+00 -2.8184052797e+00 1.6272070469e+00 2.8184052797e+00 
7900 6.0072376210e+00 3.1706700560e-03 1.6270998195e+00 -2.8182195563e+00 1.6270998195e+00 2.8182195563e+00 
8000 6.0071857174e+00 2.8805381925e-03 1.6270023873e+00 -2.8180507988e+00 1.6270023873e+00 2.8180507988e+00 
8100 6.0071365132e+00 2.6181773659e-03 1.6269138652e+00 -2.8178974741e+00 1.6269138652e+00 2.8178974741e+00 
8200 6.0070900021e+00 2.3824954103e-03 1.6268334013e+00 -2.8177581065e+00 1.6268334013e+00 2.8177581065e+00 
8300 6.0070461686e+00 2.1724014255e-03 1.6267601769e+00 -2.8176312782e+00 1.6267601769e+00 2.8176312782e+00 
8400 6.0070049874e+00 1.9868075381e-03 1.6266934066e+00 -2.8175156286e+00 1.6266934066e+00 2.8175156286e+00 
8500 6.0069664247e+00 1.8246305899e-03 1.6266323381e+00 -2.8174098548e+00 1.6266323381e+00 2.8174098548e+00 
8600 6.0069304377e+00 1.6847937559e-03 1.6265762523e+00 -2.8173127113e+00 1.6265762523e+00 2.8173127113e+00 
8700 6.0068969753e+00 1.5662280946e-03 1.6265244630e+00 -2.8172230096e+00 1.6265244630e+00 2.8172230096e+00 
8800 6.0068659787e+00 1.4678740301e-03 1.6264763167e+00 -2.8171396179e+00 1.6264763167e+00 2.8171396179e+00 
8900 6.0068373818e+00 1.3886827709e-03 1.6264311926e+00 -2.8170614606e+00 1.6264311926e+00 2.8170614606e+00 
9000 6.0068111118e+00 1.3276176635e-03 1.6263885017e+00 -2.8169875177e+00 1.6263885017e+00 2.8169875177e+00 
9100 6.0067870899e+00 1.2836554828e-03 1.6263476869e+00 -2.8169168246e+00 1.6263476869e+00 2.8169168246e+00 
9200 6.0067652318e+00 1.2557876610e-03 1.6263082227e+00 -2.8168484706e+00 1.6263082227e+00 2.8168484706e+00 
9300 6.0067454485e+00 1.2430214541e-03 1.6262696144e+00 -2.8167815989e+00 1.6262696144e+00 2.8167815989e+00 
9400 6.0067276470e+00 1.2443810474e-03 1.6262313976e+00 -2.8167154054e+00 1.6262313976e+00 2.8167154054e+00 
9500 6.0067117306e+00 1.2589086003e-03 1.6261931380e+00 -2.8166491380e+00 1.6261931380e+00 2.8166491380e+00 
9600 6.0066976001e+00 1.2856652298e-03 1.6261544310e+00 -2.8165820954e+00 1.6261544310e+00 2.8165820954e+00 
9700 6.0066851541e+00 1.3237319348e-03 1.6261149003e+00 -2.8165136262e+00 1.6261149003e+00 2.8165136262e+00 
9800 6.0066742900e+00 1.3722104588e-03 1.6260741982e+00 -2.8164431281e+00 1.6260741982e+00 2.8164431281e+00 
9900 6.0066649040e+00 1.4302240941e-03 1.6260320044e+00 -2.8163700463e+00 1.6260320044e+00 2.8163700463e+00 
10000 6.0066568926e+00 1.4969184246e-03 1.6259880256e+00 -2.8162938729e+00 1.6259880256e+00 2.8162938729e+00 
10100 6.0066501523e+00 1.5714620107e-03 1.6259419948e+00 -2.8162141451e+00 1.6259419948e+00 2.8162141451e+00 
10200 6.0066445808e+00 1.6530470128e-03 1.6258936704e+00 -2.8161304448e+00 1.6258936704e+00 2.8161304448e+00 
10300 6.0066400772e+00 1.7408897579e-03 1.6258428356e+00 -2.8160423964e+00 1.6258428356e+00 2.8160423964e+00 
10400 6.0066365425e+00 1.8342312454e-03 1.6257892978e+00 -2.8159496662e+00 1.6257892978e+00 2.8159496662e+00 
10500 6.0066338804e+00 1.9323375959e-03 1.6257328877e+00 -2.8158519610e+00 1.6257328877e+00 2.8158519610e+00 
10600 6.0066319971e+00 2.0345004413e-03 1.6256734583e+00 -2.8157490263e+00 1.6256734583e+00 2.8157490263e+00 
10700 6.0066308020e+00 2.1400372583e-03 1.6256108846e+00 -2.8156406455e+00 1.6256108846e+00 2.8156406455e+00 
10800 6.0066302084e+00 2.2482916447e-03 1.6255450625e+00 -2.8155266382e+00 1.6255450625e+00 2.8155266382e+00 
10900 6.0066301329e+00 2.3586335400e-03 1.6254759080e+00 -2.8154068591e+00 1.6254759080e+00 2.8154068591e+00 
11000 6.0066304967e+00 2.4704593914e-03 1.6254033564e+00 -2.8152811961e+00 1.6254033564e+00 2.8152811961e+00 
11100 6.0066312247e+00 2.5831922646e-03 1.6253273618e+00 -2.8151495695e+00 1.6253273618e+00 2.8151495695e+00 
11200 6.0066322467e+00 2.6962819034e-03 1.6252478956e+00 -2.8150119300e+00 1.6252478956e+00 2.8150119300e+00 
11300 6.0066334969e+00 2.8092047358e-03 1.6251649464e+00 -2.8148682579e+00 1.6251649464e+00 2.8148682579e+00 
11400 6.0066349140e+00 2.9214638305e-03 1.6250785189e+00 -2.8147185610e+00 1.6250785189e+00 2.8147185610e+00 
11500 6.0066364416e+00 3.0325888040e-03 1.6249886329e+00 -2.8145628738e+00 1.6249886329e+00 2.8145628738e+00 
11600 6.0066380280e+00 3.1421356796e-03 1.6248953227e+00 -2.8144012559e+00 1.6248953227e+00 2.8144012559e+00 
11700 6.0066396261e+00 3.2496867013e-03 1.6247986363e+00 -2.8142337902e+00 1.6247986363e+00 2.8142337902e+00 
11800 6.0066411936e+00 3.3548501014e-03 1.6246986346e+00 -2.8140605821e+00 1.6246986346e+00 2.8140605821e+00 
11900 6.0066426928e+00 3.4572598270e-03 1.6245953904e+00 -2.8138817579e+00 1.6245953904e+00 2.8138817579e+00 
12000 6.0066440903e+00 3.5565752240e-03 1.6244889878e+00 -2.8136974632e+00 1.6244889878e+00 2.8136974632e+00 
12100 6.0066453573e+00 3.6524806829e-03 1.6243795215e+00 -2.8135078621e+00 1.6243795215e+00 2.8135078621e+00 
12200 6.0066464692e+00 3.7446852464e-03 1.6242670959e+00 -2.8133131351e+00 1.6242670959e+00 2.8133131351e+00 
12300 6.0066474054e+00 3.8329221820e-03 1.6241518242e+00 -2.8131134787e+00 1.6241518242e+00 2.8131134787e+00 
12400 6.0066481493e+00 3.9169485215e-03 1.6240338279e+00 -2.8129091032e+00 1.6240338279e+00 2.8129091032e+00 
12500 6.0066486877e+00 3.9965445680e-03 1.6239132362e+00 -2.8127002323e+00 1.6239132362e+00 2.8127002323e+00 
12600 6.0066490113e+00 4.0715133750e-03 1.6237901849e+00 -2.8124871011e+00 1.6237901849e+00 2.8124871011e+00 
12700 6.0066491138e+00 4.1416801966e-03 1.6236648158e+00 -2.8122699555e+00 1.6236648158e+00 2.8122699555e+00 
12800 6.0066489921e+00 4.2068919141e-03 1.6235372764e+00 -2.8120490507e+00 1.6235372764e+00 2.8120490507e+00 
12900 6.0066486457e+00 4.2670164382e-03 1.6234077187e+00 -2.8118246501e+00 1.6234077187e+00 2.8118246501e+00 
13000 6.0066480770e+00 4.3219420909e-03 1.6232762989e+00 -2.8115970243e+00 1.6232762989e+00 2.8115970243e+00 
13100 6.0066472905e+00 4.3715769683e-03 1.6231431766e+00 -2.8113664499e+00 1.6231431766e+00 2.8113664499e+00 
13200 6.0066462929e+00 4.4158482861e-03 1.6230085146e+00 -2.8111332083e+00 1.6230085146e+00 2.8111332083e+00 
13300 6.0066450927e+00 4.4547017112e-03 1.6228724775e+00 -2.8108975852e+00 1.6228724775e+00 2.8108975852e+00 
13400 6.0066437001e+00 4.4881006792e-03 1.6227352320e+00 -2.8106598690e+00 1.6227352320e+00 2.8106598690e+00 
13500 6.0066421269e+00 4.5160257022e-03 1.6225969458e+00 -2.8104203504e+00 1.6225969458e+00 2.8104203504e+00 
13600 6.0066403857e+00 4.5384736670e-03 1.6224577874e+00 -2.8101793209e+00 1.6224577874e+00 2.8101793209e+00 
13700 6.0066384905e+00 4.5554571265e-03 1.6223179252e+00 -2.8099370725e+00 1.6223179252e+00 2.8099370725e+00 
13800 6.0066364557e+00 4.5670035862e-03 1.6221775276e+00 -2.8096938967e+00 1.6221775276e+00 2.8096938967e+00 
13900 6.0066342967e+00 4.5731547865e-03 1.6220367620e+00 -2.8094500835e+00 1.6220367620e+00 2.8094500835e+00 
14000 6.0066320288e+00 4.5739659846e-03 1.6218957945e+00 -2.8092059206e+00 1.6218957945e+00 2.8092059206e+00 
14100 6.0066296680e+00 4.5695052351e-03 1.6217547898e+00 -2.8089616933e+00 1.6217547898e+00 2.8089616933e+00 
14200 6.0066272301e+00 4.5598526734e-03 1.6216139103e+00 -2.8087176829e+00 1.6216139103e+00 2.8087176829e+00 
14300 6.0066247309e+00 4.5450998015e-03 1.6214733162e+00 -2.8084741668e+00 1.6214733162e+00 2.8084741668e+00 
14400 6.0066221859e+00 4.5253487789e-03 1.6213331648e+00 -2.8082314175e+00 1.6213331648e+00 2.8082314175e+00 
14500 6.0066196104e+00 4.5007117196e-03 1.6211936104e+00 -2.8079897021e+00 1.6211936104e+00 2.8079897021e+00 
14600 6.0066170189e+00 4.4713099961e-03 1.6210548038e+00 -2.8077492820e+00 1.6210548038e+00 2.8077492820e+00 
14700 6.0066144258e+00 4.4372735524e-03 1.6209168922e+00 -2.8075104121e+00 1.6209168922e+00 2.8075104121e+00 
14800 6.0066118445e+00 4.3987402270e-03 1.6207800187e+00 -2.8072733402e+00 1.6207800187e+00 2.8072733402e+00 
14900 6.0066092877e+00 4.3558550867e-03 1.6206443223e+00 -2.8070383072e+00 1.6206443223e+00 2.8070383072e+00 
15000 6.0066067675e+00 4.3087697722e-03 1.6205099377e+00 -2.8068055462e+00 1.6205099377e+00 2.8068055462e+00 
15100 6.0066042949e+00 4.2576418571e-03 1.6203769946e+00 -2.8065752821e+00 1.6203769946e+00 2.8065752821e+00 
15200 6.0066018801e+00 4.2026342205e-03 1.6202456182e+00 -2.8063477315e+00 1.6202456182e+00 2.8063477315e+00 
15300 6.0065995324e+00 4.1439144344e-03 1.6201159287e+00 -2.8061231027e+00 1.6201159287e+00 2.8061231027e+00 
15400 6.0065972601e+00 4.0816541667e-03 1.6199880409e+00 -2.8059015946e+00 1.6199880409e+00 2.8059015946e+00 
15500 6.0065950706e+00 4.0160285998e-03 1.6198620647e+00 -2.8056833973e+00 1.6198620647e+00 2.8056833973e+00 
15600 6.0065929703e+00 3.9472158665e-03 1.6197381042e+00 -2.8054686914e+00 1.6197381042e+00 2.8054686914e+00 
15700 6.0065909647e+00 3.8753965032e-03 1.6196162584e+00 -2.8052576483e+00 1.6196162584e+00 2.8052576483e+00 
15800 6.0065890581e+00 3.8007529199e-03 1.6194966205e+00 -2.8050504294e+00 1.6194966205e+00 2.8050504294e+00 
15900 6.0065872541e+00 3.7234688897e-03 1.6193792783e+00 -2.8048471867e+00 1.6193792783e+00 2.8048471867e+00 
16000 6.0065855555e+00 3.6437290557e-03 1.6192643137e+00 -2.8046480622e+00 1.6192643137e+00 2.8046480622e+00 
16100 6.0065839640e+00 3.5617184573e-03 1.6191518031e+00 -2.8044531882e+00 1.6191518031e+00 2.8044531882e+00 
16200 6.0065824805e+00 3.4776220752e-03 1.6190418172e+00 -2.8042626870e+00 1.6190418172e+00 2.8042626870e+00 
16300 6.0065811052e+00 3.3916243958e-03 1.6189344209e+00 -2.8040766711e+00 1.6189344209e+00 2.8040766711e+00 
16400 6.0065798375e+00 3.3039089944e-03 1.6188296733e+00 -2.8038952430e+00 1.6188296733e+00 2.8038952430e+00 
16500 6.0065786762e+00 3.2146581388e-03 1.6187276282e+00 -2.8037184956e+00 1.6187276282e+00 2.8037184956e+00 
16600 6.0065776194e+00 3.1240524111e-03 1.6186283334e+00 -2.8035465120e+00 1.6186283334e+00 2.8035465120e+00 
16700 6.0065766644e+00 3.0322703496e-03 1.6185318312e+00 -2.8033793654e+00 1.6185318312e+00 2.8033793654e+00 
16800 6.0065758084e+00 2.9394881098e-03 1.6184381587e+00 -2.8032171197e+00 1.6184381587e+00 2.8032171197e+00 
16900 6.0065750478e+00 2.8458791448e-03 1.6183473470e+00 -2.8030598293e+00 1.6183473470e+00 2.8030598293e+00 
17000 6.0065743785e+00 2.7516139040e-03 1.6182594223e+00 -2.8029075393e+00 1.6182594223e+00 2.8029075393e+00 
17100 6.0065737964e+00 2.6568595522e-03 1.6181744054e+00 -2.8027602856e+00 1.6181744054e+00 2.8027602856e+00 
17200 6.0065732969e+00 2.5617797052e-03 1.6180923117e+00 -2.8026180952e+00 1.6180923117e+00 2.8026180952e+00 
17300 6.0065728749e+00 2.4665341862e-03 1.6180131519e+00 -2.8024809864e+00 1.6180131519e+00 2.8024809864e+00 
17400 6.0065725255e+00 2.3712787983e-03 1.6179369314e+00 -2.8023489686e+00 1.6179369314e+00 2.8023489686e+00 
17500 6.0065722434e+00 2.2761651160e-03 1.6178636510e+00 -2.8022220433e+00 1.6178636510e+00 2.8022220433e+00 
17600 6.0065720232e+00 2.1813402938e-03 1.6177933067e+00 -2.8021002034e+00 1.6177933067e+00 2.8021002034e+00 
17700 6.0065718596e+00 2.0869468925e-03 1.6177258901e+00 -2.8019834343e+00 1.6177258901e+00 2.8019834343e+00 
17800 6.0065717472e+00 1.9931227214e-03 1.6176613880e+00 -2.8018717135e+00 1.6176613880e+00 2.8018717135e+00 
17900 6.0065716805e+00 1.9000006977e-03 1.6175997833e+00 -2.8017650110e+00 1.6175997833e+00 2.8017650110e+00 
18000 6.0065716542e+00 1.8077087216e-03 1.6175410547e+00 -2.8016632900e+00 1.6175410547e+00 2.8016632900e+00 
18100 6.0065716632e+00 1.7163695670e-03 1.6174851767e+00 -2.8015665065e+00 1.6174851767e+00 2.8015665065e+00 
18200 6.0065717022e+00 1.6261007877e-03 1.6174321203e+00 -2.8014746101e+00 1.6174321203e+00 2.8014746101e+00 
18300 6.0065717665e+00 1.5370146382e-03 1.6173818525e+00 -2.8013875438e+00 1.6173818525e+00 2.8013875438e+00 
18400 6.0065718513e+00 1.4492180081e-03 1.6173343373e+00 -2.8013052450e+00 1.6173343373e+00 2.8013052450e+00 
18500 6.0065719520e+00 1.3628123720e-03 1.6172895348e+00 -2.8012276448e+00 1.6172895348e+00 2.8012276448e+00 
18600 6.0065720644e+00 1.2778937509e-03 1.6172474024e+00 -2.8011546693e+00 1.6172474024e+00 2.8011546693e+00 
18700 6.0065721843e+00 1.1945526882e-03 1.6172078942e+00 -2.8010862392e+00 1.6172078942e+00 2.8010862392e+00 
18800 6.0065723082e+00 1.1128742367e-03 1.6171709618e+00 -2.8010222704e+00 1.6171709618e+00 2.8010222704e+00 
18900 6.0065724323e+00 1.0329379589e-03 1.6171365539e+00 -2.8009626741e+00 1.6171365539e+00 2.8009626741e+00 
19000 6.0065725536e+00 9.5481793771e-04 1.6171046167e+00 -2.8009073573e+00 1.6171046167e+00 2.8009073573e+00 
19100 6.0065726691e+00 8.7858279919e-04 1.6170750944e+00 -2.8008562231e+00 1.6170750944e+00 2.8008562231e+00 
19200 6.0065727761e+00 8.0429574493e-04 1.6170479286e+00 -2.8008091707e+00 1.6170479286e+00 2.8008091707e+00 
19300 6.0065728723e+00 7.3201459512e-04 1.6170230594e+00 -2.8007660960e+00 1.6170230594e+00 2.8007660960e+00 
19400 6.0065729556e+00 6.6179184107e-04 1.6170004249e+00 -2.8007268917e+00 1.6170004249e+00 2.8007268917e+00 
19500 6.0065730243e+00 5.9367470682e-04 1.6169799613e+00 -2.8006914479e+00 1.6169799613e+00 2.8006914479e+00 
19600 6.0065730768e+00 5.2770521942e-04 1.6169616039e+00 -2.8006596518e+00 1.6169616039e+00 2.8006596518e+00 
19700 6.0065731120e+00 4.6392028749e-04 1.6169452861e+00 -2.8006313886e+00 1.6169452861e+00 2.8006313886e+00 
19800 6.0065731288e+00 4.0235178746e-04 1.6169309405e+00 -2.8006065413e+00 1.6169309405e+00 2.8006065413e+00 
19900 6.0065731265e+00 3.4302665709e-04 1.6169184987e+00 -2.8005849915e+00 1.6169184987e+00 2.8005849915e+00 
20000 6.0065731046e+00 2.8596699585e-04 1.6169078913e+00 -2.8005666189e+00 1.6169078913e+00 2.8005666189e+00 
20100 6.0065730630e+00 2.3119017169e-04 1.6168990483e+00 -2.8005513023e+00 1.6168990483e+00 2.8005513023e+00 
20200 6.0065730015e+00 1.7870893373e-04 1.6168918991e+00 -2.8005389196e+00 1.6168918991e+00 2.8005389196e+00 
20300 6.0065729203e+00 1.2853153045e-04 1.6168863728e+00 -2.8005293478e+00 1.6168863728e+00 2.8005293478e+00 
20400 6.0065728198e+00 8.0661832998e-05 1.6168823981e+00 -2.8005224634e+00 1.6168823981e+00 2.8005224634e+00 
20500 6.0065727005e+00 3.5099463165e-05 1.6168799038e+00 -2.8005181431e+00 1.6168799038e+00 2.8005181431e+00 
20600 6.0065725629e+00 -7.0670731935e-06 1.6168799038e+00 -2.8005181431e+00 1.6168799038e+00 2.8005181431e+00 
20700 6.0065724078e+00 -4.8280807771e-05 1.6168799038e+00 -2.8005181431e+00 1.6168799038e+00 2.8005181431e+00 
20800 6.0065722366e+00 -8.8488916135e-05 1.6168799038e+00 -2.8005181431e+00 1.6168799038e+00 2.8005181431e+00 
20900 6.0065720497e+00 -1.2488785083e-04 1.6168826402e+00 -2.8005228827e+00 1.6168826402e+00 2.8005228827e+00 
21000 6.0065718485e+00 -1.5904102120e-04 1.6168865022e+00 -2.8005295719e+00 1.6168865022e+00 2.8005295719e+00 
21100 6.0065716341e+00 -1.9097136678e-04 1.6168914203e+00 -2.8005380903e+00 1.6168914203e+00 2.8005380903e+00 
21200 6.0065714077e+00 -2.2070508572e-04 1.6168973258e+00 -2.8005483190e+00 1.6168973258e+00 2.8005483190e+00 
21300 6.0065711706e+00 -2.4827148371e-04 1.6169041508e+00 -2.8005601401e+00 1.6169041508e+00 2.8005601401e+00 
21400 6.0065709241e+00 -2.7370282167e-04 1.6169118282e+00 -2.8005734377e+00 1.6169118282e+00 2.8005734377e+00 
21500 6.0065706696e+00 -2.9703416250e-04 1.6169202919e+00 -2.8005880974e+00 1.6169202919e+00 2.8005880974e+00 
21600 6.0065704083e+00 -3.1830321730e-04 1.6169294771e+00 -2.8006040066e+00 1.6169294771e+00 2.8006040066e+00 
21700 6.0065701416e+00 -3.3755019131e-04 1.6169393200e+00 -2.8006210549e+00 1.6169393200e+00 2.8006210549e+00 
21800 6.0065698708e+00 -3.5481762985e-04 1.6169497579e+00 -2.8006391340e+00 1.6169497579e+00 2.8006391340e+00 
21900 6.0065695972e+00 -3.7015026469e-04 1.6169607297e+00 -2.8006581377e+00 1.6169607297e+00 2.8006581377e+00 
22000 6.0065693220e+00 -3.8359486095e-04 1.6169721756e+00 -2.8006779626e+00 1.6169721756e+00 2.8006779626e+00 
22100 6.0065690465e+00 -3.9520006500e-04 1.6169840371e+00 -2.8006985074e+00 1.6169840371e+00 2.8006985074e+00 
22200 6.0065687717e+00 -4.0501625342e-04 1.6169962574e+00 -2.8007196735e+00 1.6169962574e+00 2.8007196735e+00 
22300 6.0065684988e+00 -4.1309538348e-04 1.6170087812e+00 -2.8007413653e+00 1.6170087812e+00 2.8007413653e+00 
22400 6.0065682289e+00 -4.1949084524e-04 1.6170215546e+00 -2.8007634896e+00 1.6170215546e+00 2.8007634896e+00 
22500 6.0065679628e+00 -4.2425731552e-04 1.6170345258e+00 -2.8007859562e+00 1.6170345258e+00 2.8007859562e+00 
22600 6.0065677015e+00 -4.2745061407e-04 1.6170476441e+00 -2.8008086779e+00 1.6170476441e+00 2.8008086779e+00 
22700 6.0065674458e+00 -4.2912756199e-04 1.6170608612e+00 -2.8008315705e+00 1.6170608612e+00 2.8008315705e+00 
22800 6.0065671965e+00 -4.2934584272e-04 1.6170741299e+00 -2.8008545527e+00 1.6170741299e+00 2.8008545527e+00 
22900 6.0065669543e+00 -4.2816386577e-04 1.6170874054e+00 -2.8008775463e+00 1.6170874054e+00 2.8008775463e+00 
23000 6.0065667197e+00 -4.2564063332e-04 1.6171006441e+00 -2.8009004765e+00 1.6171006441e+00 2.8009004765e+00 
23100 6.0065664933e+00 -4.2183560991e-04 1.6171138047e+00 -2.8009232714e+00 1.6171138047e+00 2.8009232714e+00 
23200 6.0065662755e+00 -4.1680859533e-04 1.6171268476e+00 -2.8009458623e+00 1.6171268476e+00 2.8009458623e+00 
23300 6.0065660667e+00 -4.1061960093e-04 1.6171397349e+00 -2.8009681839e+00 1.6171397349e+00 2.8009681839e+00 
23400 6.0065658673e+00 -4.0332872937e-04 1.6171524308e+00 -2.8009901738e+00 1.6171524308e+00 2.8009901738e+00 
23500 6.0065656773e+00 -3.9499605809e-04 1.6171649012e+00 -2.8010117730e+00 1.6171649012e+00 2.8010117730e+00 
23600 6.0065654970e+00 -3.8568152641e-04 1.6171771138e+00 -2.8010329259e+00 1.6171771138e+00 2.8010329259e+00 
23700 6.0065653266e+00 -3.7544482659e-04 1.6171890383e+00 -2.8010535799e+00 1.6171890383e+00 2.8010535799e+00 
23800 6.0065651659e+00 -3.6434529879e-04 1.6172006463e+00 -2.8010736854e+00 1.6172006463e+00 2.8010736854e+00 
23900 6.0065650150e+00 -3.5244183001e-04 1.6172119110e+00 -2.8010931965e+00 1.6172119110e+00 2.8010931965e+00 
24000 6.0065648738e+00 -3.3979275718e-04 1.6172228076e+00 -2.8011120699e+00 1.6172228076e+00 2.8011120699e+00 
24100 6.0065647422e+00 -3.2645577441e-04 1.6172333131e+00 -2.8011302659e+00 1.6172333131e+00 2.8011302659e+00 
24200 6.0065646200e+00 -3.1248784440e-04 1.6172434061e+00 -2.8011477476e+00 1.6172434061e+00 2.8011477476e+00 
24300 6.0065645070e+00 -2.9794511414e-04 1.6172530672e+00 -2.8011644811e+00 1.6172530672e+00 2.8011644811e+00 
24400 6.0065644029e+00 -2.8288283486e-04 1.6172622787e+00 -2.8011804359e+00 1.6172622787e+00 2.8011804359e+00 
24500 6.0065643074e+00 -2.6735528636e-04 1.6172710244e+00 -2.8011955839e+00 1.6172710244e+00 2.8011955839e+00 
24600 6.0065642202e+00 -2.5141570552e-04 1.6172792901e+00 -2.8012099004e+00 1.6172792901e+00 2.8012099004e+00 
24700 6.0065641409e+00 -2.3511621929e-04 1.6172870629e+00 -2.8012233633e+00 1.6172870629e+00 2.8012233633e+00 
24800 6.0065640691e+00 -2.1850778190e-04 1.6172943317e+00 -2.8012359534e+00 1.6172943317e+00 2.8012359534e+00 
24900 6.0065640045e+00 -2.0164011642e-04 1.6173010871e+00 -2.8012476540e+00 1.6173010871e+00 2.8012476540e+00 
25000 6.0065639467e+00 -1.8456166054e-04 1.6173073209e+00 -2.8012584513e+00 1.6173073209e+00 2.8012584513e+00 
25100 6.0065638953e+00 -1.6731951673e-04 1.6173130268e+00 -2.8012683341e+00 1.6173130268e+00 2.8012683341e+00 
25200 6.0065638497e+00 -1.4995940649e-04 1.6173181995e+00 -2.8012772936e+00 1.6173181995e+00 2.8012772936e+00 
25300 6.0065638096e+00 -1.3252562887e-04 1.6173228356e+00 -2.8012853235e+00 1.6173228356e+00 2.8012853235e+00 
25400 6.0065637746e+00 -1.1506102308e-04 1.6173269327e+00 -2.8012924198e+00 1.6173269327e+00 2.8012924198e+00 
25500 6.0065637442e+00 -9.7606935169e-05 1.6173304898e+00 -2.8012985810e+00 1.6173304898e+00 2.8012985810e+00 
25600 6.0065637181e+00 -8.0203188688e-05 1.6173335073e+00 -2.8013038075e+00 1.6173335073e+00 2.8013038075e+00 
25700 6.0065636958e+00 -6.2888059357e-05 1.6173359868e+00 -2.8013081021e+00 1.6173359868e+00 2.8013081021e+00 
25800 6.0065636769e+00 -4.7652044038e-05 1.6173359868e+00 -2.8013081021e+00 1.6173359868e+00 2.8013081021e+00 
25900 6.0065636610e+00 -3.2052580764e-05 1.6173359868e+00 -2.8013081021e+00 1.6173359868e+00 2.8013081021e+00 
26000 6.0065636476e+00 -1.6125917248e-05 1.6173359868e+00 -2.8013081021e+00 1.6173359868e+00 2.8013081021e+00 
26100 6.0065636364e+00 9.2429426429e-08 1.6173359868e+00 -2.8013081021e+00 1.6173359868e+00 2.8013081021e+00 
26200 6.0065636272e+00 1.6567711705e-05 1.6173359868e+00 -2.8013081021e+00 1.6173359868e+00 2.8013081021e+00 
26300 6.0065636198e+00 3.3265987379e-05 1.6173359868e+00 -2.8013081021e+00 1.6173359868e+00 2.8013081021e+00 
26400 6.0065636137e+00 5.0154152414e-05 1.6173359868e+00 -2.8013081021e+00 1.6173359868e+00 2.8013081021e+00 
26500 6.0065636088e+00 6.7199970829e-05 1.6173359868e+00 -2.8013081021e+00 1.6173359868e+00 2.8013081021e+00 
26600 6.0065636049e+00 8.4372101692e-05 1.6173359868e+00 -2.8013081021e+00 1.6173359868e+00 2.8013081021e+00 
26700 6.0065636014e+00 9.9018411305e-05 1.6173333785e+00 -2.8013035843e+00 1.6173333785e+00 2.8013035843e+00 
26800 6.0065635982e+00 1.1326232250e-04 1.6173303173e+00 -2.8012982822e+00 1.6173303173e+00 2.8012982822e+00 
26900 6.0065635952e+00 1.2708471868e-04 1.6173268158e+00 -2.8012922174e+00 1.6173268158e+00 2.8012922174e+00 
27000 6.0065635921e+00 1.4046804658e-04 1.6173228869e+00 -2.8012854124e+00 1.6173228869e+00 2.8012854124e+00 
27100 6.0065635890e+00 1.5339629653e-04 1.6173185443e+00 -2.8012778908e+00 1.6173185443e+00 2.8012778908e+00 
27200 6.0065635855e+00 1.6585498032e-04 1.6173138020e+00 -2.8012696769e+00 1.6173138020e+00 2.8012696769e+00 
27300 6.0065635816e+00 1.7783110685e-04 1.6173086745e+00 -2.8012607958e+00 1.6173086745e+00 2.8012607958e+00 
27400 6.0065635772e+00 1.8931315561e-04 1.6173031768e+00 -2.8012512734e+00 1.6173031768e+00 2.8012512734e+00 
27500 6.0065635722e+00 2.0029104822e-04 1.6172973241e+00 -2.8012411362e+00 1.6172973241e+00 2.8012411362e+00 
27600 6.0065635666e+00 2.1075611801e-04 1.6172911319e+00 -2.8012304111e+00 1.6172911319e+00 2.8012304111e+00 
27700 6.0065635603e+00 2.2070107786e-04 1.6172846162e+00 -2.8012191255e+00 1.6172846162e+00 2.8012191255e+00 
27800 6.0065635534e+00 2.3011998648e-04 1.6172777930e+00 -2.8012073074e+00 1.6172777930e+00 2.8012073074e+00 
27900 6.0065635457e+00 2.3900821308e-04 1.6172706786e+00 -2.8011949849e+00 1.6172706786e+00 2.8011949849e+00 
28000 6.0065635373e+00 2.4736240067e-04 1.6172632893e+00 -2.8011821864e+00 1.6172632893e+00 2.8011821864e+00 
28100 6.0065635283e+00 2.5518042816e-04 1.6172556418e+00 -2.8011689404e+00 1.6172556418e+00 2.8011689404e+00 
28200 6.0065635186e+00 2.6246137124e-04 1.6172477525e+00 -2.8011552757e+00 1.6172477525e+00 2.8011552757e+00 
28300 6.0065635082e+00 2.6920546221e-04 1.6172396380e+00 -2.8011412211e+00 1.6172396380e+00 2.8011412211e+00 
28400 6.0065634973e+00 2.7541404896e-04 1.6172313151e+00 -2.8011268053e+00 1.6172313151e+00 2.8011268053e+00 
28500 6.0065634859e+00 2.8108955312e-04 1.6172228001e+00 -2.8011120569e+00 1.6172228001e+00 2.8011120569e+00 
28600 6.0065634740e+00 2.8623542748e-04 1.6172141096e+00 -2.8010970045e+00 1.6172141096e+00 2.8010970045e+00 
28700 6.0065634617e+00 2.9085611284e-04 1.6172052600e+00 -2.8010816765e+00 1.6172052600e+00 2.8010816765e+00 
28800 6.0065634491e+00 2.9495699446e-04 1.6171962674e+00 -2.8010661010e+00 1.6171962674e+00 2.8010661010e+00 
28900 6.0065634362e+00 2.9854435800e-04 1.6171871480e+00 -2.8010503057e+00 1.6171871480e+00 2.8010503057e+00 
29000 6.0065634231e+00 3.0162534528e-04 1.6171779177e+00 -2.8010343183e+00 1.6171779177e+00 2.8010343183e+00 
29100 6.0065634099e+00 3.0420790986e-04 1.6171685920e+00 -2.8010181658e+00 1.6171685920e+00 2.8010181658e+00 
29200 6.0065633967e+00 3.0630077252e-04 1.6171591864e+00 -2.8010018749e+00 1.6171591864e+00 2.8010018749e+00 
29300 6.0065633836e+00 3.0791337670e-04 1.6171497161e+00 -2.8009854718e+00 1.6171497161e+00 2.8009854718e+00 
29400 6.0065633705e+00 3.0905584417e-04 1.6171401959e+00 -2.8009689822e+00 1.6171401959e+00 2.8009689822e+00 
29500 6.0065633577e+00 3.0973893076e-04 1.6171306403e+00 -2.8009524314e+00 1.6171306403e+00 2.8009524314e+00 
29600 6.0065633451e+00 3.0997398244e-04 1.6171210635e+00 -2.8009358439e+00 1.6171210635e+00 2.8009358439e+00 
29700 6.0065633329e+00 3.0977289170e-04 1.6171114793e+00 -2.8009192437e+00 1.6171114793e+00 2.8009192437e+00 
29800 6.0065633211e+00 3.0914805434e-04 1.6171019014e+00 -2.8009026542e+00 1.6171019014e+00 2.8009026542e+00 
29900 6.0065633098e+00 3.0811232687e-04 1.6170923427e+00 -2.8008860981e+00 1.6170923427e+00 2.8008860981e+00 
30000 6.0065632989e+00 3.0667898429e-04 1.6170828160e+00 -2.8008695973e+00 1.6170828160e+00 2.8008695973e+00 
30100 6.0065632887e+00 3.0486167865e-04 1.6170733335e+00 -2.8008531732e+00 1.6170733335e+00 2.8008531732e+00 
30200 6.0065632791e+00 3.0267439824e-04 1.6170639072e+00 -2.8008368463e+00 1.6170639072e+00 2.8008368463e+00 
30300 6.0065632702e+00 3.0013142752e-04 1.6170545484e+00 -2.8008206364e+00 1.6170545484e+00 2.8008206364e+00 
30400 6.0065632619e+00 2.9724730787e-04 1.6170452682e+00 -2.8008045627e+00 1.6170452682e+00 2.8008045627e+00 
30500 6.0065632545e+00 2.9403679916e-04 1.6170360772e+00 -2.8007886433e+00 1.6170360772e+00 2.8007886433e+00 
30600 6.0065632478e+00 2.9051484231e-04 1.6170269853e+00 -2.8007728958e+00 1.6170269853e+00 2.8007728958e+00 
30700 6.0065632419e+00 2.8669652264e-04 1.6170180024e+00 -2.8007573368e+00 1.6170180024e+00 2.8007573368e+00 
30800 6.0065632368e+00 2.8259703438e-04 1.6170091374e+00 -2.8007419822e+00 1.6170091374e+00 2.8007419822e+00 
30900 6.0065632326e+00 2.7823164603e-04 1.6170003991e+00 -2.8007268471e+00 1.6170003991e+00 2.8007268471e+00 
31000 6.0065632292e+00 2.7361566691e-04 1.6169917958e+00 -2.8007119458e+00 1.6169917958e+00 2.8007119458e+00 
31100 6.0065632267e+00 2.6876441473e-04 1.6169833352e+00 -2.8006972915e+00 1.6169833352e+00 2.8006972915e+00 
31200 6.0065632250e+00 2.6369318426e-04 1.6169750245e+00 -2.8006828970e+00 1.6169750245e+00 2.8006828970e+00 
31300 6.0065632241e+00 2.5841721720e-04 1.6169668706e+00 -2.8006687741e+00 1.6169668706e+00 2.8006687741e+00 
31400 6.0065632241e+00 2.5295167309e-04 1.6169588798e+00 -2.8006549336e+00 1.6169588798e+00 2.8006549336e+00 
31500 6.0065632249e+00 2.4731160156e-04 1.6169510580e+00 -2.8006413858e+00 1.6169510580e+00 2.8006413858e+00 
31600 6.0065632265e+00 2.4151191561e-04 1.6169434105e+00 -2.8006281400e+00 1.6169434105e+00 2.8006281400e+00 
31700 6.0065632289e+00 2.3556736614e-04 1.6169359424e+00 -2.8006152048e+00 1.6169359424e+00 2.8006152048e+00 
31800 6.0065632321e+00 2.2949251779e-04 1.6169286580e+00 -2.8006025879e+00 1.6169286580e+00 2.8006025879e+00 
31900 6.0065632360e+00 2.2330172580e-04 1.6169215615e+00 -2.8005902963e+00 1.6169215615e+00 2.8005902963e+00 
32000 6.0065632406e+00 2.1700911429e-04 1.6169146563e+00 -2.8005783362e+00 1.6169146563e+00 2.8005783362e+00 
32100 6.0065632459e+00 2.1062855563e-04 1.6169079457e+00 -2.8005667131e+00 1.6169079457e+00 2.8005667131e+00 
32200 6.0065632518e+00 2.0417365104e-04 1.6169014324e+00 -2.8005554318e+00 1.6169014324e+00 2.8005554318e+00 
32300 6.0065632584e+00 1.9765771249e-04 1.6168951187e+00 -2.8005444961e+00 1.6168951187e+00 2.8005444961e+00 
32400 6.0065632655e+00 1.9109374569e-04 1.6168890064e+00 -2.8005339093e+00 1.6168890064e+00 2.8005339093e+00 
32500 6.0065632732e+00 1.8449443439e-04 1.6168830971e+00 -2.8005236741e+00 1.6168830971e+00 2.8005236741e+00 
32600 6.0065632814e+00 1.7787212581e-04 1.6168773919e+00 -2.8005137923e+00 1.6168773919e+00 2.8005137923e+00 
32700 6.0065632901e+00 1.7123881722e-04 1.6168718914e+00 -2.8005042652e+00 1.6168718914e+00 2.8005042652e+00 
32800 6.0065632992e+00 1.6460614376e-04 1.6168665960e+00 -2.8004950934e+00 1.6168665960e+00 2.8004950934e+00 
32900 6.0065633087e+00 1.5798536737e-04 1.6168615057e+00 -2.8004862768e+00 1.6168615057e+00 2.8004862768e+00 
33000 6.0065633186e+00 1.5138736682e-04 1.6168566202e+00 -2.8004778147e+00 1.6168566202e+00 2.8004778147e+00 
33100 6.0065633288e+00 1.4482262889e-04 1.6168519387e+00 -2.8004697061e+00 1.6168519387e+00 2.8004697061e+00 
33200 6.0065633394e+00 1.3830124064e-04 1.6168474601e+00 -2.8004619490e+00 1.6168474601e+00 2.8004619490e+00 
33300 6.0065633501e+00 1.3183288272e-04 1.6168431832e+00 -2.8004545413e+00 1.6168431832e+00 2.8004545413e+00 
33400 6.0065633611e+00 1.2542682373e-04 1.6168391064e+00 -2.8004474799e+00 1.6168391064e+00 2.8004474799e+00 
33500 6.0065633723e+00 1.1909191560e-04 1.6168352276e+00 -2.8004407617e+00 1.6168352276e+00 2.8004407617e+00 
33600 6.0065633837e+00 1.1283658997e-04 1.6168315448e+00 -2.8004343828e+00 1.6168315448e+00 2.8004343828e+00 
33700 6.0065633952e+00 1.0666885557e-04 1.6168280553e+00 -2.8004283389e+00 1.6168280553e+00 2.8004283389e+00 
33800 6.0065634069e+00 1.0059629641e-04 1.6168247566e+00 -2.8004226254e+00 1.6168247566e+00 2.8004226254e+00 
33900 6.0065634186e+00 9.4626071036e-05 1.6168216457e+00 -2.8004172371e+00 1.6168216457e+00 2.8004172371e+00 
34000 6.0065634303e+00 8.8764912552e-05 1.6168187194e+00 -2.8004121686e+00 1.6168187194e+00 2.8004121686e+00 
34100 6.0065634421e+00 8.3019129546e-05 1.6168159743e+00 -2.8004074141e+00 1.6168159743e+00 2.8004074141e+00 
34200 6.0065634539e+00 7.7394607801e-05 1.6168134070e+00 -2.8004029673e+00 1.6168134070e+00 2.8004029673e+00 
34300 6.0065634657e+00 7.1896812819e-05 1.6168110136e+00 -2.8003988217e+00 1.6168110136e+00 2.8003988217e+00 
34400 6.0065634775e+00 6.6530793063e-05 1.6168087901e+00 -2.8003949706e+00 1.6168087901e+00 2.8003949706e+00 
34500 6.0065634894e+00 6.3371991294e-05 1.6168087901e+00 -2.8003949706e+00 1.6168087901e+00 2.8003949706e+00 
34600 6.0065635012e+00 6.0201740607e-05 1.6168087901e+00 -2.8003949706e+00 1.6168087901e+00 2.8003949706e+00 
34700 6.0065635129e+00 5.7027955377e-05 1.6168087901e+00 -2.8003949706e+00 1.6168087901e+00 2.8003949706e+00 
34800 6.0065635245e+00 5.3858211019e-05 1.6168087901e+00 -2.8003949706e+00 1.6168087901e+00 2.8003949706e+00 
34900 6.0065635360e+00 5.0699743512e-05 1.6168087901e+00 -2.8003949706e+00 1.6168087901e+00 2.8003949706e+00 
35000 6.0065635474e+00 4.7559449605e-05 1.6168087901e+00 -2.8003949706e+00 1.6168087901e+00 2.8003949706e+00 
35100 6.0065635586e+00 4.4443887653e-05 1.6168087901e+00 -2.8003949706e+00 1.6168087901e+00 2.8003949706e+00 
35200 6.0065635697e+00 4.1359279087e-05 1.6168087901e+00 -2.8003949706e+00 1.6168087901e+00 2.8003949706e+00 
35300 6.0065635807e+00 3.8311510457e-05 1.6168087901e+00 -2.8003949706e+00 1.6168087901e+00 2.8003949706e+00 
35400 6.0065635916e+00 3.5306136039e-05 1.6168087901e+00 -2.8003949706e+00 1.6168087901e+00 2.8003949706e+00 
35500 6.0065636023e+00 3.2348380978e-05 1.6168087901e+00 -2.8003949706e+00 1.6168087901e+00 2.8003949706e+00 
35600 6.0065636129e+00 2.9443144921e-05 1.6168087901e+00 -2.8003949706e+00 1.6168087901e+00 2.8003949706e+00 
35700 6.0065636234e+00 2.6595006143e-05 1.6168087901e+00 -2.8003949706e+00 1.6168087901e+00 2.8003949706e+00 
35800 6.0065636338e+00 2.3808226104e-05 1.6168087901e+00 -2.8003949706e+00 1.6168087901e+00 2.8003949706e+00 
35900 6.0065636440e+00 2.1086754433e-05 1.6168087901e+00 -2.8003949706e+00 1.6168087901e+00 2.8003949706e+00 
36000 6.0065636542e+00 1.8434234310e-05 1.6168087901e+00 -2.8003949706e+00 1.6168087901e+00 2.8003949706e+00 
36100 6.0065636642e+00 1.5854008202e-05 1.6168087901e+00 -2.8003949706e+00 1.6168087901e+00 2.8003949706e+00 
36200 6.0065636742e+00 1.3349123956e-05 1.6168087901e+00 -2.8003949706e+00 1.6168087901e+00 2.8003949706e+00 
36300 6.0065636840e+00 1.0922341191e-05 1.6168087901e+00 -2.8003949706e+00 1.6168087901e+00 2.8003949706e+00 
36400 6.0065636938e+00 8.5761379896e-06 1.6168087901e+00 -2.8003949706e+00 1.6168087901e+00 2.8003949706e+00 
36500 6.0065637035e+00 6.3127178497e-06 1.6168087901e+00 -2.8003949706e+00 1.6168087901e+00 2.8003949706e+00 
36600 6.0065637130e+00 4.1340168822e-06 1.6168087901e+00 -2.8003949706e+00 1.6168087901e+00 2.8003949706e+00 
36700 6.0065637226e+00 2.0417112158e-06 1.6168087901e+00 -2.8003949706e+00 1.6168087901e+00 2.8003949706e+00 
36800 6.0065637320e+00 3.7224606668e-08 1.6168087901e+00 -2.8003949706e+00 1.6168087901e+00 2.8003949706e+00 
36900 6.0065637414e+00 -1.8782637903e-06 1.6168087901e+00 -2.8003949706e+00 1.6168087901e+00 2.8003949706e+00 
37000 6.0065637507e+00 -3.7038114959e-06 1.6168087901e+00 -2.8003949706e+00 1.6168087901e+00 2.8003949706e+00 
37100 6.0065637599e+00 -5.4387046494e-06 1.6168087901e+00 -2.8003949706e+00 1.6168087901e+00 2.8003949706e+00 
37200 6.0065637691e+00 -7.0824498549e-06 1.6168087901e+00 -2.8003949706e+00 1.6168087901e+00 2.8003949706e+00 
37300 6.0065637783e+00 -8.6347659298e-06 1.6168087901e+00 -2.8003949706e+00 1.6168087901e+00 2.8003949706e+00 
37400 6.0065637874e+00 -1.0095575592e-05 1.6168087901e+00 -2.8003949706e+00 1.6168087901e+00 2.8003949706e+00 
37500 6.0065637964e+00 -1.1464997097e-05 1.6168087901e+00 -2.8003949706e+00 1.6168087901e+00 2.8003949706e+00 
37600 6.0065638055e+00 -1.2743335841e-05 1.6168087901e+00 -2.8003949706e+00 1.6168087901e+00 2.8003949706e+00 
37700 6.0065638144e+00 -1.3931075945e-05 1.6168087901e+00 -2.8003949706e+00 1.6168087901e+00 2.8003949706e+00 
37800 6.0065638234e+00 -1.5028871864e-05 1.6168087901e+00 -2.8003949706e+00 1.6168087901e+00 2.8003949706e+00 
37900 6.0065638323e+00 -1.6037539982e-05 1.6168087901e+00 -2.8003949706e+00 1.6168087901e+00 2.8003949706e+00 
38000 6.0065638411e+00 -1.6958050273e-05 1.6168087901e+00 -2.8003949706e+00 1.6168087901e+00 2.8003949706e+00 
38100 6.0065638500e+00 -1.7791517987e-05 1.6168087901e+00 -2.8003949706e+00 1.6168087901e+00 2.8003949706e+00 
38200 6.0065638588e+00 -1.8539195411e-05 1.6168087901e+00 -2.8003949706e+00 1.6168087901e+00 2.8003949706e+00 
38300 6.0065638676e+00 -1.9202463707e-05 1.6168087901e+00 -2.8003949706e+00 1.6168087901e+00 2.8003949706e+00 
38400 6.0065638763e+00 -1.9782824818e-05 1.6168087901e+00 -2.8003949706e+00 1.6168087901e+00 2.8003949706e+00 
38500 6.0065638850e+00 -2.0281893511e-05 1.6168087901e+00 -2.8003949706e+00 1.6168087901e+00 2.8003949706e+00 
38600 6.0065638937e+00 -2.0701389493e-05 1.6168087901e+00 -2.8003949706e+00 1.6168087901e+00 2.8003949706e+00 
38700 6.0065639024e+00 -2.1043129675e-05 1.6168087901e+00 -2.8003949706e+00 1.6168087901e+00 2.8003949706e+00 
38800 6.0065639110e+00 -2.1309020550e-05 1.6168087901e+00 -2.8003949706e+00 1.6168087901e+00 2.8003949706e+00 
38900 6.0065639196e+00 -2.1501050729e-05 1.6168087901e+00 -2.8003949706e+00 1.6168087901e+00 2.8003949706e+00 
39000 6.0065639282e+00 -2.1621283607e-05 1.6168087901e+00 -2.8003949706e+00 1.6168087901e+00 2.8003949706e+00 
39100 6.0065639367e+00 -2.1671850205e-05 1.6168087901e+00 -2.8003949706e+00 1.6168087901e+00 2.8003949706e+00 
39200 6.0065639452e+00 -2.1654942157e-05 1.6168087901e+00 -2.8003949706e+00 1.6168087901e+00 2.8003949706e+00 
39300 6.0065639537e+00 -2.1572804890e-05 1.6168087901e+00 -2.8003949706e+00 1.6168087901e+00 2.8003949706e+00 
39400 6.0065639621e+00 -2.1427730958e-05 1.6168087901e+00 -2.8003949706e+00 1.6168087901e+00 2.8003949706e+00 
39500 6.0065639705e+00 -2.1222053571e-05 1.6168087901e+00 -2.8003949706e+00 1.6168087901e+00 2.8003949706e+00 
39600 6.0065639788e+00 -2.0958140318e-05 1.6168087901e+00 -2.8003949706e+00 1.6168087901e+00 2.8003949706e+00 
39700 6.0065639872e+00 -2.0638387065e-05 1.6168087901e+00 -2.8003949706e+00 1.6168087901e+00 2.8003949706e+00 
39800 6.0065639954e+00 -2.0265212061e-05 1.6168087901e+00 -2.8003949706e+00 1.6168087901e+00 2.8003949706e+00 
39900 6.0065640036e+00 -1.9841050237e-05 1.6168087901e+00 -2.8003949706e+00 1.6168087901e+00 2.8003949706e+00 
40000 6.0065640118e+00 -1.9368347709e-05 1.6168087901e+00 -2.8003949706e+00 1.6168087901e+00 2.8003949706e+00 
40100 6.0065640199e+00 -1.8849556482e-05 1.6168087901e+00 -2.8003949706e+00 1.6168087901e+00 2.8003949706e+00 
40200 6.0065640280e+00 -1.8287129366e-05 1.6168087901e+00 -2.8003949706e+00 1.6168087901e+00 2.8003949706e+00 
40300 6.0065640360e+00 -1.7683515089e-05 1.6168087901e+00 -2.8003949706e+00 1.6168087901e+00 2.8003949706e+00 
40400 6.0065640440e+00 -1.7041153628e-05 1.6168087901e+00 -2.8003949706e+00 1.6168087901e+00 2.8003949706e+00 
40500 6.0065640519e+00 -1.6362471738e-05 1.6168087901e+00 -2.8003949706e+00 1.6168087901e+00 2.8003949706e+00 
40600 6.0065640598e+00 -1.5649878699e-05 1.6168087901e+00 -2.8003949706e+00 1.6168087901e+00 2.8003949706e+00 
40700 6.0065640676e+00 -1.4905762267e-05 1.6168087901e+00 -2.8003949706e+00 1.6168087901e+00 2.8003949706e+00 
40800 6.0065640753e+00 -1.4132484825e-05 1.6168087901e+00 -2.8003949706e+00 1.6168087901e+00 2.8003949706e+00 
40900 6.0065640830e+00 -1.3332379752e-05 1.6168087901e+00 -2.8003949706e+00 1.6168087901e+00 2.8003949706e+00 
41000 6.0065640906e+00 -1.2507747988e-05 1.6168087901e+00 -2.8003949706e+00 1.6168087901e+00 2.8003949706e+00 
41100 6.0065640981e+00 -1.1660854807e-05 1.6168087901e+00 -2.8003949706e+00 1.6168087901e+00 2.8003949706e+00 
41200 6.0065641056e+00 -1.0793926781e-05 1.6168087901e+00 -2.8003949706e+00 1.6168087901e+00 2.8003949706e+00 
41300 6.0065641130e+00 -9.9091489587e-06 1.6168087901e+00 -2.8003949706e+00 1.6168087901e+00 2.8003949706e+00 
41400 6.0065641204e+00 -9.0086622225e-06 1.6168087901e+00 -2.8003949706e+00 1.6168087901e+00 2.8003949706e+00 
41500 6.0065641276e+00 -8.0945608466e-06 1.6168087901e+00 -2.8003949706e+00 1.6168087901e+00 2.8003949706e+00 
41600 6.0065641348e+00 -7.1688902501e-06 1.6168087901e+00 -2.8003949706e+00 1.6168087901e+00 2.8003949706e+00 
41700 6.0065641420e+00 -6.2336449175e-06 1.6168087901e+00 -2.8003949706e+00 1.6168087901e+00 2.8003949706e+00 
41800 6.0065641490e+00 -5.2907665230e-06 1.6168087901e+00 -2.8003949706e+00 1.6168087901e+00 2.8003949706e+00 
41900 6.0065641560e+00 -4.3421422198e-06 1.6168087901e+00 -2.8003949706e+00 1.6168087901e+00 2.8003949706e+00 
42000 6.0065641630e+00 -3.3896031060e-06 1.6168087901e+00 -2.8003949706e+00 1.6168087901e+00 2.8003949706e+00 
42100 6.0065641698e+00 -2.4349228648e-06 1.6168087901e+00 -2.8003949706e+00 1.6168087901e+00 2.8003949706e+00 
42200 6.0065641766e+00 -1.4798165655e-06 1.6168087901e+00 -2.8003949706e+00 1.6168087901e+00 2.8003949706e+00 
42300 6.0065641833e+00 -5.2593963194e-07 1.6168087901e+00 -2.8003949706e+00 1.6168087901e+00 2.8003949706e+00 
42400 6.0065641899e+00 4.2511303834e-07 1.6168087901e+00 -2.8003949706e+00 1.6168087901e+00 2.8003949706e+00 
42500 6.0065641965e+00 1.3718078022e-06 1.6168087901e+00 -2.8003949706e+00 1.6168087901e+00 2.8003949706e+00 
42600 6.0065642030e+00 2.3126728460e-06 1.6168087901e+00 -2.8003949706e+00 1.6168087901e+00 2.8003949706e+00 
42700 6.0065642094e+00 3.2462986230e-06 1.6168087901e+00 -2.8003949706e+00 1.6168087901e+00 2.8003949706e+00 
42800 6.0065642157e+00 4.1713381535e-06 1.6168087901e+00 -2.8003949706e+00 1.6168087901e+00 2.8003949706e+00 
42900 6.0065642220e+00 5.0865071924e-06 1.6168087901e+00 -2.8003949706e+00 1.6168087901e+00 2.8003949706e+00 
43000 6.0065642282e+00 5.9905842628e-06 1.6168087901e+00 -2.8003949706e+00 1.6168087901e+00 2.8003949706e+00 
43100 6.0065642343e+00 6.8824105793e-06 1.6168087901e+00 -2.8003949706e+00 1.6168087901e+00 2.8003949706e+00 
43200 6.0065642404e+00 7.7608898462e-06 1.6168087901e+00 -2.8003949706e+00 1.6168087901e+00 2.8003949706e+00 
43300 6.0065642463e+00 8.6249879432e-06 1.6168087901e+00 -2.8003949706e+00 1.6168087901e+00 2.8003949706e+00 
43400 6.0065642522e+00 9.4737325081e-06 1.6168087901e+00 -2.8003949706e+00 1.6168087901e+00 2.8003949706e+00 
43500 6.0065642581e+00 1.0306212416e-05 1.6168087901e+00 -2.8003949706e+00 1.6168087901e+00 2.8003949706e+00 
43600 6.0065642639e+00 1.1121577160e-05 1.6168087901e+00 -2.8003949706e+00 1.6168087901e+00 2.8003949706e+00 
43700 6.0065642696e+00 1.1919036148e-05 1.6168087901e+00 -2.8003949706e+00 1.6168087901e+00 2.8003949706e+00 
43800 6.0065642752e+00 1.2697857898e-05 1.6168087901e+00 -2.8003949706e+00 1.6168087901e+00 2.8003949706e+00 
43900 6.0065642808e+00 1.3457369174e-05 1.6168087901e+00 -2.8003949706e+00 1.6168087901e+00 2.8003949706e+00 
44000 6.0065642863e+00 1.4196954020e-05 1.6168087901e+00 -2.8003949706e+00 1.6168087901e+00 2.8003949706e+00 
44100 6.0065642917e+00 1.4916052743e-05 1.6168087901e+00 -2.8003949706e+00 1.6168087901e+00 2.8003949706e+00 
44200 6.0065642971e+00 1.5614160825e-05 1.6168087901e+00 -2.8003949706e+00 1.6168087901e+00 2.8003949706e+00 
44300 6.0065643024e+00 1.6290827760e-05 1.6168087901e+00 -2.8003949706e+00 1.6168087901e+00 2.8003949706e+00 
44400 6.0065643076e+00 1.6945655852e-05 1.6168087901e+00 -2.8003949706e+00 1.6168087901e+00 2.8003949706e+00 
44500 6.0065643128e+00 1.7578298946e-05 1.6168087901e+00 -2.8003949706e+00 1.6168087901e+00 2.8003949706e+00 
44600 6.0065643179e+00 1.8188461127e-05 1.6168087901e+00 -2.8003949706e+00 1.6168087901e+00 2.8003949706e+00 
44700 6.0065643230e+00 1.8775895353e-05 1.6168087901e+00 -2.8003949706e+00 1.6168087901e+00 2.8003949706e+00 
44800 6.0065643279e+00 1.9340402075e-05 1.6168087901e+00 -2.8003949706e+00 1.6168087901e+00 2.8003949706e+00 
44900 6.0065643329e+00 1.9881827790e-05 1.6168087901e+00 -2.8003949706e+00 1.6168087901e+00 2.8003949706e+00 
45000 6.0065643377e+00 2.0400063605e-05 1.6168087901e+00 -2.8003949706e+00 1.6168087901e+00 2.8003949706e+00 
45100 6.0065643426e+00 2.0895043730e-05 1.6168087901e+00 -2.8003949706e+00 1.6168087901e+00 2.8003949706e+00 
45200 6.0065643473e+00 2.1366743981e-05 1.6168087901e+00 -2.8003949706e+00 1.6168087901e+00 2.8003949706e+00 
45300 6.0065643520e+00 2.1815180248e-05 1.6168087901e+00 -2.8003949706e+00 1.6168087901e+00 2.8003949706e+00 
45400 6.0065643566e+00 2.2240406951e-05 1.6168087901e+00 -2.8003949706e+00 1.6168087901e+00 2.8003949706e+00 
45500 6.0065643612e+00 2.2642515482e-05 1.6168087901e+00 -2.8003949706e+00 1.6168087901e+00 2.8003949706e+00 
45600 6.0065643658e+00 2.3021632646e-05 1.6168087901e+00 -2.8003949706e+00 1.6168087901e+00 2.8003949706e+00 
45700 6.0065643702e+00 2.3377919091e-05 1.6168087901e+00 -2.8003949706e+00 1.6168087901e+00 2.8003949706e+00 
45800 6.0065643746e+00 2.3711567731e-05 1.6168087901e+00 -2.8003949706e+00 1.6168087901e+00 2.8003949706e+00 
45900 6.0065643790e+00 2.4022802184e-05 1.6168087901e+00 -2.8003949706e+00 1.6168087901e+00 2.8003949706e+00 
46000 6.0065643833e+00 2.4311875198e-05 1.6168087901e+00 -2.8003949706e+00 1.6168087901e+00 2.8003949706e+00 
46100 6.0065643876e+00 2.4579067099e-05 1.6168087901e+00 -2.8003949706e+00 1.6168087901e+00 2.8003949706e+00 
46200 6.0065643918e+00 2.4824684238e-05 1.6168087901e+00 -2.8003949706e+00 1.6168087901e+00 2.8003949706e+00 
46300 6.0065643959e+00 2.5049057453e-05 1.6168087901e+00 -2.8003949706e+00 1.6168087901e+00 2.8003949706e+00 
46400 6.0065644000e+00 2.5252540548e-05 1.6168087901e+00 -2.8003949706e+00 1.6168087901e+00 2.8003949706e+00 
46500 6.0065644041e+00 2.5435508784e-05 1.6168087901e+00 -2.8003949706e+00 1.6168087901e+00 2.8003949706e+00 
46600 6.0065644081e+00 2.5598357395e-05 1.6168087901e+00 -2.8003949706e+00 1.6168087901e+00 2.8003949706e+00 
46700 6.0065644121e+00 2.5741500121e-05 1.6168087901e+00 -2.8003949706e+00 1.6168087901e+00 2.8003949706e+00 
46800 6.0065644160e+00 2.5865367766e-05 1.6168087901e+00 -2.8003949706e+00 1.6168087901e+00 2.8003949706e+00 
46900 6.0065644198e+00 2.5970406777e-05 1.6168087901e+00 -2.8003949706e+00 1.6168087901e+00 2.8003949706e+00 
47000 6.0065644236e+00 2.6057077850e-05 1.6168087901e+00 -2.8003949706e+00 1.6168087901e+00 2.8003949706e+00 
47100 6.0065644274e+00 2.6125854580e-05 1.6168087901e+00 -2.8003949706e+00 1.6168087901e+00 2.8003949706e+00 
47200 6.0065644311e+00 2.6177222108e-05 1.6168087901e+00 -2.8003949706e+00 1.6168087901e+00 2.8003949706e+00 
47300 6.0065644348e+00 2.6211675834e-05 1.6168087901e+00 -2.8003949706e+00 1.6168087901e+00 2.8003949706e+00 
47400 6.0065644384e+00 2.6229720133e-05 1.6168087901e+00 -2.8003949706e+00 1.6168087901e+00 2.8003949706e+00 
47500 6.0065644420e+00 2.6231867128e-05 1.6168087901e+00 -2.8003949706e+00 1.6168087901e+00 2.8003949706e+00 
47600 6.0065644455e+00 2.6218635479e-05 1.6168087901e+00 -2.8003949706e+00 1.6168087901e+00 2.8003949706e+00 
47700 6.0065644490e+00 2.6190549216e-05 1.6168087901e+00 -2.8003949706e+00 1.6168087901e+00 2.8003949706e+00 
47800 6.0065644525e+00 2.6148136611e-05 1.6168087901e+00 -2.8003949706e+00 1.6168087901e+00 2.8003949706e+00 
47900 6.0065644559e+00 2.6091929074e-05 1.6168087901e+00 -2.8003949706e+00 1.6168087901e+00 2.8003949706e+00 
48000 6.0065644592e+00 2.6022460102e-05 1.6168087901e+00 -2.8003949706e+00 1.6168087901e+00 2.8003949706e+00 
48100 6.0065644625e+00 2.5940264252e-05 1.6168087901e+00 -2.8003949706e+00 1.6168087901e+00 2.8003949706e+00 
48200 6.0065644658e+00 2.5845876162e-05 1.6168087901e+00 -2.8003949706e+00 1.6168087901e+00 2.8003949706e+00 
48300 6.0065644690e+00 2.5739829605e-05 1.6168087901e+00 -2.8003949706e+00 1.6168087901e+00 2.8003949706e+00 
48400 6.0065644722e+00 2.5622656582e-05 1.6168087901e+00 -2.8003949706e+00 1.6168087901e+00 2.8003949706e+00 
48500 6.0065644754e+00 2.5494886458e-05 1.6168087901e+00 -2.8003949706e+00 1.6168087901e+00 2.8003949706e+00 
48600 6.0065644785e+00 2.5357045132e-05 1.6168087901e+00 -2.8003949706e+00 1.6168087901e+00 2.8003949706e+00 
48700 6.0065644816e+00 2.5209654250e-05 1.6168087901e+00 -2.8003949706e+00 1.6168087901e+00 2.8003949706e+00 
48800 6.0065644846e+00 2.5053230452e-05 1.6168087901e+00 -2.8003949706e+00 1.6168087901e+00 2.8003949706e+00 
48900 6.0065644876e+00 2.4888284664e-05 1.6168087901e+00 -2.8003949706e+00 1.6168087901e+00 2.8003949706e+00 
49000 6.0065644905e+00 2.4715321421e-05 1.6168087901e+00 -2.8003949706e+00 1.6168087901e+00 2.8003949706e+00 
49100 6.0065644934e+00 2.4534838236e-05 1.6168087901e+00 -2.8003949706e+00 1.6168087901e+00 2.8003949706e+00 
49200 6.0065644963e+00 2.4347325005e-05 1.6168087901e+00 -2.8003949706e+00 1.6168087901e+00 2.8003949706e+00 
49300 6.0065644991e+00 2.4153263439e-05 1.6168087901e+00 -2.8003949706e+00 1.6168087901e+00 2.8003949706e+00 
49400 6.0065645019e+00 2.3953126554e-05 1.6168087901e+00 -2.8003949706e+00 1.6168087901e+00 2.8003949706e+00 
49500 6.0065645047e+00 2.3747378175e-05 1.6168087901e+00 -2.8003949706e+00 1.6168087901e+00 2.8003949706e+00 
49600 6.0065645074e+00 2.3536472495e-05 1.6168087901e+00 -2.8003949706e+00 1.6168087901e+00 2.8003949706e+00 
49700 6.0065645101e+00 2.3320853652e-05 1.6168087901e+00 -2.8003949706e+00 1.6168087901e+00 2.8003949706e+00 
49800 6.0065645128e+00 2.3100955355e-05 1.6168087901e+00 -2.8003949706e+00 1.6168087901e+00 2.8003949706e+00 
49900 6.0065645154e+00 2.2877200543e-05 1.6168087901e+00 -2.8003949706e+00 1.6168087901e+00 2.8003949706e+00 
50000 6.0065645180e+00 2.2650001063e-05 1.6168087901e+00 -2.8003949706e+00 1.6168087901e+00 2.8003949706e+00 
50100 6.0065645205e+00 2.2419757400e-05 1.6168087901e+00 -2.8003949706e+00 1.6168087901e+00 2.8003949706e+00 
50200 6.0065645230e+00 2.2186858422e-05 1.6168087901e+00 -2.8003949706e+00 1.6168087901e+00 2.8003949706e+00 
50300 6.0065645255e+00 2.1951681169e-05 1.6168087901e+00 -2.8003949706e+00 1.6168087901e+00 2.8003949706e+00 
50400 6.0065645279e+00 2.1714590665e-05 1.6168087901e+00 -2.8003949706e+00 1.6168087901e+00 2.8003949706e+00 
50500 6.0065645303e+00 2.1475939763e-05 1.6168087901e+00 -2.8003949706e+00 1.6168087901e+00 2.8003949706e+00 
50600 6.0065645327e+00 2.1236069013e-05 1.6168087901e+00 -2.8003949706e+00 1.6168087901e+00 2.8003949706e+00 
50700 6.0065645351e+00 2.0995306561e-05 1.6168087901e+00 -2.8003949706e+00 1.6168087901e+00 2.8003949706e+00 
50800 6.0065645374e+00 2.0753968083e-05 1.6168087901e+00 -2.8003949706e+00 1.6168087901e+00 2.8003949706e+00 
50900 6.0065645397e+00 2.0512356727e-05 1.6168087901e+00 -2.8003949706e+00 1.6168087901e+00 2.8003949706e+00 
51000 6.0065645419e+00 2.0270763093e-05 1.6168087901e+00 -2.8003949706e+00 1.6168087901e+00 2.8003949706e+00 
51100 6.0065645441e+00 2.0029465235e-05 1.6168087901e+00 -2.8003949706e+00 1.6168087901e+00 2.8003949706e+00 
51200 6.0065645463e+00 1.9788728681e-05 1.6168087901e+00 -2.8003949706e+00 1.6168087901e+00 2.8003949706e+00 
51300 6.0065645485e+00 1.9548806480e-05 1.6168087901e+00 -2.8003949706e+00 1.6168087901e+00 2.8003949706e+00 
51400 6.0065645506e+00 1.9309939269e-05 1.6168087901e+00 -2.8003949706e+00 1.6168087901e+00 2.8003949706e+00 
51500 6.0065645527e+00 1.9072355356e-05 1.6168087901e+00 -2.8003949706e+00 1.6168087901e+00 2.8003949706e+00 
51600 6.0065645548e+00 1.8836270828e-05 1.6168087901e+00 -2.8003949706e+00 1.6168087901e+00 2.8003949706e+00 
51700 6.0065645568e+00 1.8601889670e-05 1.6168087901e+00 -2.8003949706e+00 1.6168087901e+00 2.8003949706e+00 
51800 6.0065645588e+00 1.8369403911e-05 1.6168087901e+00 -2.8003949706e+00 1.6168087901e+00 2.8003949706e+00 
51900 6.0065645608e+00 1.8138993776e-05 1.6168087901e+00 -2.8003949706e+00 1.6168087901e+00 2.8003949706e+00 
52000 6.0065645628e+00 1.7910827861e-05 1.6168087901e+00 -2.8003949706e+00 1.6168087901e+00 2.8003949706e+00 
52100 6.0065645647e+00 1.7685063312e-05 1.6168087901e+00 -2.8003949706e+00 1.6168087901e+00 2.8003949706e+00 
52200 6.0065645666e+00 1.7461846038e-05 1.6168087901e+00 -2.8003949706e+00 1.6168087901e+00 2.8003949706e+00 
52300 6.0065645685e+00 1.7241310909e-05 1.6168087901e+00 -2.8003949706e+00 1.6168087901e+00 2.8003949706e+00 
52400 6.0065645703e+00 1.7023581983e-05 1.6168087901e+00 -2.8003949706e+00 1.6168087901e+00 2.8003949706e+00 
52500 6.0065645721e+00 1.6808772746e-05 1.6168087901e+00 -2.8003949706e+00 1.6168087901e+00 2.8003949706e+00 
52600 6.0065645739e+00 1.6596986350e-05 1.6168087901e+00 -2.8003949706e+00 1.6168087901e+00 2.8003949706e+00 
52700 6.0065645757e+00 1.6388315871e-05 1.6168087901e+00 -2.8003949706e+00 1.6168087901e+00 2.8003949706e+00 
52800 6.0065645775e+00 1.6182844562e-05 1.6168087901e+00 -2.8003949706e+00 1.6168087901e+00 2.8003949706e+00 
52900 6.0065645792e+00 1.5980646133e-05 1.6168087901e+00 -2.8003949706e+00 1.6168087901e+00 2.8003949706e+00 
53000 6.0065645809e+00 1.5781785013e-05 1.6168087901e+00 -2.8003949706e+00 1.6168087901e+00 2.8003949706e+00 
53100 6.0065645826e+00 1.5586316642e-05 1.6168087901e+00 -2.8003949706e+00 1.6168087901e+00 2.8003949706e+00 
53200 6.0065645842e+00 1.5394287750e-05 1.6168087901e+00 -2.8003949706e+00 1.6168087901e+00 2.8003949706e+00 
53300 6.0065645858e+00 1.5205736652e-05 1.6168087901e+00 -2.8003949706e+00 1.6168087901e+00 2.8003949706e+00 
53400 6.0065645875e+00 1.5020693536e-05 1.6168087901e+00 -2.8003949706e+00 1.6168087901e+00 2.8003949706e+00 
53500 6.0065645890e+00 1.4839180767e-05 1.6168087901e+00 -2.8003949706e+00 1.6168087901e+00 2.8003949706e+00 
53600 6.0065645906e+00 1.4661213175e-05 1.6168087901e+00 -2.8003949706e+00 1.6168087901e+00 2.8003949706e+00 
53700 6.0065645921e+00 1.4486798369e-05 1.6168087901e+00 -2.8003949706e+00 1.6168087901e+00 2.8003949706e+00 
53800 6.0065645936e+00 1.4315937025e-05 1.6168087901e+00 -2.8003949706e+00 1.6168087901e+00 2.8003949706e+00 
53900 6.0065645951e+00 1.4148623198e-05 1.6168087901e+00 -2.8003949706e+00 1.6168087901e+00 2.8003949706e+00 
54000 6.0065645966e+00 1.3984844616e-05 1.6168087901e+00 -2.8003949706e+00 1.6168087901e+00 2.8003949706e+00 
54100 6.0065645981e+00 1.3824582986e-05 1.6168087901e+00 -2.8003949706e+00 1.6168087901e+00 2.8003949706e+00 
54200 6.0065645995e+00 1.3667814293e-05 1.6168087901e+00 -2.8003949706e+00 1.6168087901e+00 2.8003949706e+00 
54300 6.0065646009e+00 1.3514509090e-05 1.6168087901e+00 -2.8003949706e+00 1.6168087901e+00 2.8003949706e+00 
54400 6.0065646023e+00 1.3364632807e-05 1.6168087901e+00 -2.8003949706e+00 1.6168087901e+00 2.8003949706e+00 
54500 6.0065646037e+00 1.3218146027e-05 1.6168087901e+00 -2.8003949706e+00 1.6168087901e+00 2.8003949706e+00 
54600 6.0065646050e+00 1.3075004789e-05 1.6168087901e+00 -2.8003949706e+00 1.6168087901e+00 2.8003949706e+00 
54700 6.0065646064e+00 1.2935160866e-05 1.6168087901e+00 -2.8003949706e+00 1.6168087901e+00 2.8003949706e+00 
54800 6.0065646077e+00 1.2798562052e-05 1.6168087901e+00 -2.8003949706e+00 1.6168087901e+00 2.8003949706e+00 
54900 6.0065646090e+00 1.2665152434e-05 1.6168087901e+00 -2.8003949706e+00 1.6168087901e+00 2.8003949706e+00 
55000 6.0065646102e+00 1.2534872669e-05 1.6168087901e+00 -2.8003949706e+00 1.6168087901e+00 2.8003949706e+00 
55100 6.0065646115e+00 1.2407660249e-05 1.6168087901e+00 -2.8003949706e+00 1.6168087901e+00 2.8003949706e+00 
55200 6.0065646127e+00 1.2283449767e-05 1.6168087901e+00 -2.8003949706e+00 1.6168087901e+00 2.8003949706e+00 
55300 6.0065646140e+00 1.2162173168e-05 1.6168087901e+00 -2.8003949706e+00 1.6168087901e+00 2.8003949706e+00 
55400 6.0065646152e+00 1.2043760004e-05 1.6168087901e+00 -2.8003949706e+00 1.6168087901e+00 2.8003949706e+00 
55500 6.0065646164e+00 1.1928137681e-05 1.6168087901e+00 -2.8003949706e+00 1.6168087901e+00 2.8003949706e+00 
55600 6.0065646175e+00 1.1815231694e-05 1.6168087901e+00 -2.8003949706e+00 1.6168087901e+00 2.8003949706e+00 
55700 6.0065646187e+00 1.1704965858e-05 1.6168087901e+00 -2.8003949706e+00 1.6168087901e+00 2.8003949706e+00 
55800 6.0065646198e+00 1.1597262541e-05 1.6168087901e+00 -2.8003949706e+00 1.6168087901e+00 2.8003949706e+00 
55900 6.0065646209e+00 1.1492042874e-05 1.6168087901e+00 -2.8003949706e+00 1.6168087901e+00 2.8003949706e+00 
56000 6.0065646221e+00 1.1389226966e-05 1.6168087901e+00 -2.8003949706e+00 1.6168087901e+00 2.8003949706e+00 
56100 6.0065646231e+00 1.1288734115e-05 1.6168087901e+00 -2.8003949706e+00 1.6168087901e+00 2.8003949706e+00 
56200 6.0065646242e+00 1.1190482996e-05 1.6168087901e+00 -2.8003949706e+00 1.6168087901e+00 2.8003949706e+00 
56300 6.0065646253e+00 1.1094391858e-05 1.6168087901e+00 -2.8003949706e+00 1.6168087901e+00 2.8003949706e+00 
56400 6.0065646263e+00 1.1000378708e-05 1.6168087901e+00 -2.8003949706e+00 1.6168087901e+00 2.8003949706e+00 
56500 6.0065646273e+00 1.0908361479e-05 1.6168087901e+00 -2.8003949706e+00 1.6168087901e+00 2.8003949706e+00 
56600 6.0065646284e+00 1.0818258211e-05 1.6168087901e+00 -2.8003949706e+00 1.6168087901e+00 2.8003949706e+00 
56700 6.0065646294e+00 1.0729987201e-05 1.6168087901e+00 -2.8003949706e+00 1.6168087901e+00 2.8003949706e+00 
56800 6.0065646303e+00 1.0643467166e-05 1.6168087901e+00 -2.8003949706e+00 1.6168087901e+00 2.8003949706e+00 
56900 6.0065646313e+00 1.0558617383e-05 1.6168087901e+00 -2.8003949706e+00 1.6168087901e+00 2.8003949706e+00 
57000 6.0065646323e+00 1.0475357831e-05 1.6168087901e+00 -2.8003949706e+00 1.6168087901e+00 2.8003949706e+00 
57100 6.0065646332e+00 1.0393609324e-05 1.6168087901e+00 -2.8003949706e+00 1.6168087901e+00 2.8003949706e+00 
57200 6.0065646341e+00 1.0313293636e-05 1.6168087901e+00 -2.8003949706e+00 1.6168087901e+00 2.8003949706e+00 
57300 6.0065646350e+00 1.0234333614e-05 1.6168087901e+00 -2.8003949706e+00 1.6168087901e+00 2.8003949706e+00 
57400 6.0065646359e+00 1.0156653298e-05 1.6168087901e+00 -2.8003949706e+00 1.6168087901e+00 2.8003949706e+00 
57500 6.0065646368e+00 1.0080178012e-05 1.6168087901e+00 -2.8003949706e+00 1.6168087901e+00 2.8003949706e+00 
57600 6.0065646377e+00 1.0004834474e-05 1.6168087901e+00 -2.8003949706e+00 1.6168087901e+00 2.8003949706e+00 
57700 6.0065646386e+00 9.9305508768e-06 1.6168087901e+00 -2.8003949706e+00 1.6168087901e+00 2.8003949706e+00 
57800 6.0065646394e+00 9.8572569740e-06 1.6168087901e+00 -2.8003949706e+00 1.6168087901e+00 2.8003949706e+00 
57900 6.0065646403e+00 9.7848841556e-06 1.6168087901e+00 -2.8003949706e+00 1.6168087901e+00 2.8003949706e+00 
58000 6.0065646411e+00 9.7133655215e-06 1.6168087901e+00 -2.8003949706e+00 1.6168087901e+00 2.8003949706e+00 
58100 6.0065646419e+00 9.6426359405e-06 1.6168087901e+00 -2.8003949706e+00 1.6168087901e+00 2.8003949706e+00 
58200 6.0065646427e+00 9.5726321119e-06 1.6168087901e+00 -2.8003949706e+00 1.6168087901e+00 2.8003949706e+00 
58300 6.0065646435e+00 9.5032926145e-06 1.6168087901e+00 -2.8003949706e+00 1.6168087901e+00 2.8003949706e+00 
58400 6.0065646443e+00 9.4345579562e-06 1.6168087901e+00 -2.8003949706e+00 1.6168087901e+00 2.8003949706e+00 
58500 6.0065646450e+00 9.3663706080e-06 1.6168087901e+00 -2.8003949706e+00 1.6168087901e+00 2.8003949706e+00 
58600 6.0065646458e+00 9.2986750445e-06 1.6168087901e+00 -2.8003949706e+00 1.6168087901e+00 2.8003949706e+00 
58700 6.0065646465e+00 9.2314177673e-06 1.6168087901e+00 -2.8003949706e+00 1.6168087901e+00 2.8003949706e+00 
58800 6.0065646473e+00 9.1645473346e-06 1.6168087901e+00 -2.8003949706e+00 1.6168087901e+00 2.8003949706e+00 
58900 6.0065646480e+00 9.0980143776e-06 1.6168087901e+00 -2.8003949706e+00 1.6168087901e+00 2.8003949706e+00 
59000 6.0065646487e+00 9.0317716110e-06 1.6168087901e+00 -2.8003949706e+00 1.6168087901e+00 2.8003949706e+00 
59100 6.0065646494e+00 8.9657738467e-06 1.6168087901e+00 -2.8003949706e+00 1.6168087901e+00 2.8003949706e+00 
59200 6.0065646501e+00 8.8999779970e-06 1.6168087901e+00 -2.8003949706e+00 1.6168087901e+00 2.8003949706e+00 
59300 6.0065646508e+00 8.8343430730e-06 1.6168087901e+00 -2.8003949706e+00 1.6168087901e+00 2.8003949706e+00 
59400 6.0065646514e+00 8.7688301861e-06 1.6168087901e+00 -2.8003949706e+00 1.6168087901e+00 2.8003949706e+00 
59500 6.0065646521e+00 8.7034025340e-06 1.6168087901e+00 -2.8003949706e+00 1.6168087901e+00 2.8003949706e+00 
59600 6.0065646528e+00 8.6380253923e-06 1.6168087901e+00 -2.8003949706e+00 1.6168087901e+00 2.8003949706e+00 
59700 6.0065646534e+00 8.5726660969e-06 1.6168087901e+00 -2.8003949706e+00 1.6168087901e+00 2.8003949706e+00 
59800 6.0065646540e+00 8.5072940281e-06 1.6168087901e+00 -2.8003949706e+00 1.6168087901e+00 2.8003949706e+00 
59900 6.0065646546e+00 8.4418805880e-06 1.6168087901e+00 -2.8003949706e+00 1.6168087901e+00 2.8003949706e+00 
60000 6.0065646553e+00 8.3763991713e-06 1.6168087901e+00 -2.8003949706e+00 1.6168087901e+00 2.8003949706e+00 
60100 6.0065646559e+00 8.3108251432e-06 1.6168087901e+00 -2.8003949706e+00 1.6168087901e+00 2.8003949706e+00 
60200 6.0065646565e+00 8.2451358058e-06 1.6168087901e+00 -2.8003949706e+00 1.6168087901e+00 2.8003949706e+00 
60300 6.0065646570e+00 8.1793103618e-06 1.6168087901e+00 -2.8003949706e+00 1.6168087901e+00 2.8003949706e+00 
60400 6.0065646576e+00 8.1133298838e-06 1.6168087901e+00 -2.8003949706e+00 1.6168087901e+00 2.8003949706e+00 
60500 6.0065646582e+00 8.0471772753e-06 1.6168087901e+00 -2.8003949706e+00 1.6168087901e+00 2.8003949706e+00 
60600 6.0065646588e+00 7.9808372271e-06 1.6168087901e+00 -2.8003949706e+00 1.6168087901e+00 2.8003949706e+00 
60700 6.0065646593e+00 7.9142961780e-06 1.6168087901e+00 -2.8003949706e+00 1.6168087901e+00 2.8003949706e+00 
60800 6.0065646599e+00 7.8475422701e-06 1.6168087901e+00 -2.8003949706e+00 1.6168087901e+00 2.8003949706e+00 
60900 6.0065646604e+00 7.7805653054e-06 1.6168087901e+00 -2.8003949706e+00 1.6168087901e+00 2.8003949706e+00 
61000 6.0065646609e+00 7.7133566973e-06 1.6168087901e+00 -2.8003949706e+00 1.6168087901e+00 2.8003949706e+00 
61100 6.0065646614e+00 7.6459094229e-06 1.6168087901e+00 -2.8003949706e+00 1.6168087901e+00 2.8003949706e+00 
61200 6.0065646620e+00 7.5782179724e-06 1.6168087901e+00 -2.8003949706e+00 1.6168087901e+00 2.8003949706e+00 
61300 6.0065646625e+00 7.5102783019e-06 1.6168087901e+00 -2.8003949706e+00 1.6168087901e+00 2.8003949706e+00 
61400 6.0065646630e+00 7.4420877798e-06 1.6168087901e+00 -2.8003949706e+00 1.6168087901e+00 2.8003949706e+00 
61500 6.0065646635e+00 7.3736451352e-06 1.6168087901e+00 -2.8003949706e+00 1.6168087901e+00 2.8003949706e+00 
61600 6.0065646639e+00 7.3049504088e-06 1.6168087901e+00 -2.8003949706e+00 1.6168087901e+00 2.8003949706e+00 
61700 6.0065646644e+00 7.2360048933e-06 1.6168087901e+00 -2.8003949706e+00 1.6168087901e+00 2.8003949706e+00 
61800 6.0065646649e+00 7.1668110888e-06 1.6168087901e+00 -2.8003949706e+00 1.6168087901e+00 2.8003949706e+00 
61900 6.0065646653e+00 7.0973726427e-06 1.6168087901e+00 -2.8003949706e+00 1.6168087901e+00 2.8003949706e+00 
62000 6.0065646658e+00 7.0276942978e-06 1.6168087901e+00 -2.8003949706e+00 1.6168087901e+00 2.8003949706e+00 
62100 6.0065646663e+00 6.9577818414e-06 1.6168087901e+00 -2.8003949706e+00 1.6168087901e+00 2.8003949706e+00 
62200 6.0065646667e+00 6.8876420472e-06 1.6168087901e+00 -2.8003949706e+00 1.6168087901e+00 2.8003949706e+00 
62300 6.0065646671e+00 6.8172826274e-06 1.6168087901e+00 -2.8003949706e+00 1.6168087901e+00 2.8003949706e+00 
62400 6.0065646676e+00 6.7467121737e-06 1.6168087901e+00 -2.8003949706e+00 1.6168087901e+00 2.8003949706e+00 
62500 6.0065646680e+00 6.6759401095e-06 1.6168087901e+00 -2.8003949706e+00 1.6168087901e+00 2.8003949706e+00 
62600 6.0065646684e+00 6.6049766383e-06 1.6168087901e+00 -2.8003949706e+00 1.6168087901e+00 2.8003949706e+00 
62700 6.0065646688e+00 6.5338326868e-06 1.6168087901e+00 -2.8003949706e+00 1.6168087901e+00 2.8003949706e+00 
62800 6.0065646692e+00 6.4625198583e-06 1.6168087901e+00 -2.8003949706e+00 1.6168087901e+00 2.8003949706e+00 
62900 6.0065646696e+00 6.3910503797e-06 1.6168087901e+00 -2.8003949706e+00 1.6168087901e+00 2.8003949706e+00 
63000 6.0065646700e+00 6.3194370569e-06 1.6168087901e+00 -2.8003949706e+00 1.6168087901e+00 2.8003949706e+00 
63100 6.0065646704e+00 6.2476932184e-06 1.6168087901e+00 -2.8003949706e+00 1.6168087901e+00 2.8003949706e+00 
63200 6.0065646708e+00 6.1758326786e-06 1.6168087901e+00 -2.8003949706e+00 1.6168087901e+00 2.8003949706e+00 
63300 6.0065646711e+00 6.1038696762e-06 1.6168087901e+00 -2.8003949706e+00 1.6168087901e+00 2.8003949706e+00 
63400 6.0065646715e+00 6.0318188418e-06 1.6168087901e+00 -2.8003949706e+00 1.6168087901e+00 2.8003949706e+00 
63500 6.0065646719e+00 5.9596951463e-06 1.6168087901e+00 -2.8003949706e+00 1.6168087901e+00 2.8003949706e+00 
63600 6.0065646722e+00 5.8875138586e-06 1.6168087901e+00 -2.8003949706e+00 1.6168087901e+00 2.8003949706e+00 
63700 6.0065646726e+00 5.8152905020e-06 1.6168087901e+00 -2.8003949706e+00 1.6168087901e+00 2.8003949706e+00 
63800 6.0065646729e+00 5.7430408147e-06 1.6168087901e+00 -2.8003949706e+00 1.6168087901e+00 2.8003949706e+00 
63900 6.0065646733e+00 5.6707807123e-06 1.6168087901e+00 -2.8003949706e+00 1.6168087901e+00 2.8003949706e+00 
64000 6.0065646736e+00 5.5985262413e-06 1.6168087901e+00 -2.8003949706e+00 1.6168087901e+00 2.8003949706e+00 
64100 6.0065646740e+00 5.5262935450e-06 1.6168087901e+00 -2.8003949706e+00 1.6168087901e+00 2.8003949706e+00 
64200 6.0065646743e+00 5.4540988296e-06 1.6168087901e+00 -2.8003949706e+00 1.6168087901e+00 2.8003949706e+00 
64300 6.0065646746e+00 5.3819583277e-06 1.6168087901e+00 -2.8003949706e+00 1.6168087901e+00 2.8003949706e+00 
64400 6.0065646749e+00 5.3098882628e-06 1.6168087901e+00 -2.8003949706e+00 1.6168087901e+00 2.8003949706e+00 
64500 6.0065646752e+00 5.2379048181e-06 1.6168087901e+00 -2.8003949706e+00 1.6168087901e+00 2.8003949706e+00 
64600 6.0065646756e+00 5.1660241056e-06 1.6168087901e+00 -2.8003949706e+00 1.6168087901e+00 2.8003949706e+00 
64700 6.0065646759e+00 5.0942621358e-06 1.6168087901e+00 -2.8003949706e+00 1.6168087901e+00 2.8003949706e+00 
64800 6.0065646762e+00 5.0226347888e-06 1.6168087901e+00 -2.8003949706e+00 1.6168087901e+00 2.8003949706e+00 
64900 6.0065646765e+00 4.9511577880e-06 1.6168087901e+00 -2.8003949706e+00 1.6168087901e+00 2.8003949706e+00 
65000 6.0065646767e+00 4.8798466750e-06 1.6168087901e+00 -2.8003949706e+00 1.6168087901e+00 2.8003949706e+00 
65100 6.0065646770e+00 4.8087167841e-06 1.6168087901e+00 -2.8003949706e+00 1.6168087901e+00 2.8003949706e+00 
65200 6.0065646773e+00 4.7377832172e-06 1.6168087901e+00 -2.8003949706e+00 1.6168087901e+00 2.8003949706e+00 
65300 6.0065646776e+00 4.6670608267e-06 1.6168087901e+00 -2.8003949706e+00 1.6168087901e+00 2.8003949706e+00 
65400 6.0065646779e+00 4.5965641915e-06 1.6168087901e+00 -2.8003949706e+00 1.6168087901e+00 2.8003949706e+00 
65500 6.0065646781e+00 4.5263076007e-06 1.6168087901e+00 -2.8003949706e+00 1.6168087901e+00 2.8003949706e+00 
65600 6.0065646784e+00 4.4563050314e-06 1.6168087901e+00 -2.8003949706e+00 1.6168087901e+00 2.8003949706e+00 
65700 6.0065646787e+00 4.3865701345e-06 1.6168087901e+00 -2.8003949706e+00 1.6168087901e+00 2.8003949706e+00 
65800 6.0065646789e+00 4.3171162212e-06 1.6168087901e+00 -2.8003949706e+00 1.6168087901e+00 2.8003949706e+00 
65900 6.0065646792e+00 4.2479562493e-06 1.6168087901e+00 -2.8003949706e+00 1.6168087901e+00 2.8003949706e+00 
66000 6.0065646794e+00 4.1791028025e-06 1.6168087901e+00 -2.8003949706e+00 1.6168087901e+00 2.8003949706e+00 
66100 6.0065646797e+00 4.1105680911e-06 1.6168087901e+00 -2.8003949706e+00 1.6168087901e+00 2.8003949706e+00 
66200 6.0065646799e+00 4.0423639289e-06 1.6168087901e+00 -2.8003949706e+00 1.6168087901e+00 2.8003949706e+00 
66300 6.0065646802e+00 3.9745017322e-06 1.6168087901e+00 -2.8003949706e+00 1.6168087901e+00 2.8003949706e+00 
66400 6.0065646804e+00 3.9069925093e-06 1.6168087901e+00 -2.8003949706e+00 1.6168087901e+00 2.8003949706e+00 
66500 6.0065646806e+00 3.8398468515e-06 1.6168087901e+00 -2.8003949706e+00 1.6168087901e+00 2.8003949706e+00 
66600 6.0065646809e+00 3.7730749286e-06 1.6168087901e+00 -2.8003949706e+00 1.6168087901e+00 2.8003949706e+00 
66700 6.0065646811e+00 3.7066864853e-06 1.6168087901e+00 -2.8003949706e+00 1.6168087901e+00 2.8003949706e+00 
66800 6.0065646813e+00 3.6406908309e-06 1.6168087901e+00 -2.8003949706e+00 1.6168087901e+00 2.8003949706e+00 
66900 6.0065646815e+00 3.5750968442e-06 1.6168087901e+00 -2.8003949706e+00 1.6168087901e+00 2.8003949706e+00 
67000 6.0065646818e+00 3.5099129669e-06 1.6168087901e+00 -2.8003949706e+00 1.6168087901e+00 2.8003949706e+00 
67100 6.0065646820e+00 3.4451471998e-06 1.6168087901e+00 -2.8003949706e+00 1.6168087901e+00 2.8003949706e+00 
67200 6.0065646822e+00 3.3808071073e-06 1.6168087901e+00 -2.8003949706e+00 1.6168087901e+00 2.8003949706e+00 
67300 6.0065646824e+00 3.3168998157e-06 1.6168087901e+00 -2.8003949706e+00 1.6168087901e+00 2.8003949706e+00 
67400 6.0065646826e+00 3.2534320124e-06 1.6168087901e+00 -2.8003949706e+00 1.6168087901e+00 2.8003949706e+00 
67500 6.0065646828e+00 3.1904099484e-06 1.6168087901e+00 -2.8003949706e+00 1.6168087901e+00 2.8003949706e+00 
67600 6.0065646830e+00 3.1278394470e-06 1.6168087901e+00 -2.8003949706e+00 1.6168087901e+00 2.8003949706e+00 
67700 6.0065646832e+00 3.0657258963e-06 1.6168087901e+00 -2.8003949706e+00 1.6168087901e+00 2.8003949706e+00 
67800 6.0065646834e+00 3.0040742617e-06 1.6168087901e+00 -2.8003949706e+00 1.6168087901e+00 2.8003949706e+00 
67900 6.0065646836e+00 2.9428890872e-06 1.6168087901e+00 -2.8003949706e+00 1.6168087901e+00 2.8003949706e+00 
68000 6.0065646837e+00 2.8821744977e-06 1.6168087901e+00 -2.8003949706e+00 1.6168087901e+00 2.8003949706e+00 
68100 6.0065646839e+00 2.8219342139e-06 1.6168087901e+00 -2.8003949706e+00 1.6168087901e+00 2.8003949706e+00 
68200 6.0065646841e+00 2.7621715499e-06 1.6168087901e+00 -2.8003949706e+00 1.6168087901e+00 2.8003949706e+00 
68300 6.0065646843e+00 2.7028894207e-06 1.6168087901e+00 -2.8003949706e+00 1.6168087901e+00 2.8003949706e+00 
68400 6.0065646845e+00 2.6440903534e-06 1.6168087901e+00 -2.8003949706e+00 1.6168087901e+00 2.8003949706e+00 
68500 6.0065646846e+00 2.5857764923e-06 1.6168087901e+00 -2.8003949706e+00 1.6168087901e+00 2.8003949706e+00 
68600 6.0065646848e+00 2.5279496062e-06 1.6168087901e+00 -2.8003949706e+00 1.6168087901e+00 2.8003949706e+00 
68700 6.0065646850e+00 2.4706111015e-06 1.6168087901e+00 -2.8003949706e+00 1.6168087901e+00 2.8003949706e+00 
68800 6.0065646851e+00 2.4137620255e-06 1.6168087901e+00 -2.8003949706e+00 1.6168087901e+00 2.8003949706e+00 
68900 6.0065646853e+00 2.3574030773e-06 1.6168087901e+00 -2.8003949706e+00 1.6168087901e+00 2.8003949706e+00 
69000 6.0065646855e+00 2.3015346186e-06 1.6168087901e+00 -2.8003949706e+00 1.6168087901e+00 2.8003949706e+00 
69100 6.0065646856e+00 2.2461566828e-06 1.6168087901e+00 -2.8003949706e+00 1.6168087901e+00 2.8003949706e+00 
69200 6.0065646858e+00 2.1912689806e-06 1.6168087901e+00 -2.8003949706e+00 1.6168087901e+00 2.8003949706e+00 
69300 6.0065646859e+00 2.1368709184e-06 1.6168087901e+00 -2.8003949706e+00 1.6168087901e+00 2.8003949706e+00 
69400 6.0065646861e+00 2.0829616013e-06 1.6168087901e+00 -2.8003949706e+00 1.6168087901e+00 2.8003949706e+00 
69500 6.0065646862e+00 2.0295398460e-06 1.6168087901e+00 -2.8003949706e+00 1.6168087901e+00 2.8003949706e+00 
69600 6.0065646864e+00 1.9766041917e-06 1.6168087901e+00 -2.8003949706e+00 1.6168087901e+00 2.8003949706e+00 
69700 6.0065646865e+00 1.9241529126e-06 1.6168087901e+00 -2.8003949706e+00 1.6168087901e+00 2.8003949706e+00 
69800 6.0065646867e+00 1.8721840230e-06 1.6168087901e+00 -2.8003949706e+00 1.6168087901e+00 2.8003949706e+00 
69900 6.0065646868e+00 1.8206952924e-06 1.6168087901e+00 -2.8003949706e+00 1.6168087901e+00 2.8003949706e+00 
70000 6.0065646870e+00 1.7696842567e-06 1.6168087901e+00 -2.8003949706e+00 1.6168087901e+00 2.8003949706e+00 
70100 6.0065646871e+00 1.7191482254e-06 1.6168087901e+00 -2.8003949706e+00 1.6168087901e+00 2.8003949706e+00 
70200 6.0065646872e+00 1.6690842945e-06 1.6168087901e+00 -2.8003949706e+00 1.6168087901e+00 2.8003949706e+00 
70300 6.0065646874e+00 1.6194893595e-06 1.6168087901e+00 -2.8003949706e+00 1.6168087901e+00 2.8003949706e+00 
70400 6.0065646875e+00 1.5703601205e-06 1.6168087901e+00 -2.8003949706e+00 1.6168087901e+00 2.8003949706e+00 
70500 6.0065646876e+00 1.5216930994e-06 1.6168087901e+00 -2.8003949706e+00 1.6168087901e+00 2.8003949706e+00 
70600 6.0065646877e+00 1.4734846445e-06 1.6168087901e+00 -2.8003949706e+00 1.6168087901e+00 2.8003949706e+00 
70700 6.0065646879e+00 1.4257309437e-06 1.6168087901e+00 -2.8003949706e+00 1.6168087901e+00 2.8003949706e+00 
70800 6.0065646880e+00 1.3784280360e-06 1.6168087901e+00 -2.8003949706e+00 1.6168087901e+00 2.8003949706e+00 
70900 6.0065646881e+00 1.3315718194e-06 1.6168087901e+00 -2.8003949706e+00 1.6168087901e+00 2.8003949706e+00 
71000 6.0065646882e+00 1.2851580625e-06 1.6168087901e+00 -2.8003949706e+00 1.6168087901e+00 2.8003949706e+00 
71100 6.0065646883e+00 1.2391824114e-06 1.6168087901e+00 -2.8003949706e+00 1.6168087901e+00 2.8003949706e+00 
71200 6.0065646885e+00 1.1936404038e-06 1.6168087901e+00 -2.8003949706e+00 1.6168087901e+00 2.8003949706e+00 
71300 6.0065646886e+00 1.1485274788e-06 1.6168087901e+00 -2.8003949706e+00 1.6168087901e+00 2.8003949706e+00 
71400 6.0065646887e+00 1.1038389789e-06 1.6168087901e+00 -2.8003949706e+00 1.6168087901e+00 2.8003949706e+00 
71500 6.0065646888e+00 1.0595701668e-06 1.6168087901e+00 -2.8003949706e+00 1.6168087901e+00 2.8003949706e+00 
71600 6.0065646889e+00 1.0157162322e-06 1.6168087901e+00 -2.8003949706e+00 1.6168087901e+00 2.8003949706e+00 
71700 6.0065646890e+00 9.7227229803e-07 1.6168087901e+00 -2.8003949706e+00 1.6168087901e+00 2.8003949706e+00 
71800 6.0065646891e+00 9.2923343274e-07 1.6168087901e+00 -2.8003949706e+00 1.6168087901e+00 2.8003949706e+00 
71900 6.0065646892e+00 8.8659465815e-07 1.6168087901e+00 -2.8003949706e+00 1.6168087901e+00 2.8003949706e+00 
72000 6.0065646893e+00 8.4435095249e-07 1.6168087901e+00 -2.8003949706e+00 1.6168087901e+00 2.8003949706e+00 
72100 6.0065646894e+00 8.0249726409e-07 1.6168087901e+00 -2.8003949706e+00 1.6168087901e+00 2.8003949706e+00 
72200 6.0065646895e+00 7.6102851717e-07 1.6168087901e+00 -2.8003949706e+00 1.6168087901e+00 2.8003949706e+00 
72300 6.0065646896e+00 7.1993961634e-07 1.6168087901e+00 -2.8003949706e+00 1.6168087901e+00 2.8003949706e+00 
72400 6.0065646897e+00 6.7922545946e-07 1.6168087901e+00 -2.8003949706e+00 1.6168087901e+00 2.8003949706e+00 
72500 6.0065646898e+00 6.3888093954e-07 1.6168087901e+00 -2.8003949706e+00 1.6168087901e+00 2.8003949706e+00 
72600 6.0065646899e+00 5.9890095034e-07 1.6168087901e+00 -2.8003949706e+00 1.6168087901e+00 2.8003949706e+00 
72700 6.0065646900e+00 5.5928039883e-07 1.6168087901e+00 -2.8003949706e+00 1.6168087901e+00 2.8003949706e+00 
72800 6.0065646901e+00 5.2001420553e-07 1.6168087901e+00 -2.8003949706e+00 1.6168087901e+00 2.8003949706e+00 
72900 6.0065646902e+00 4.8109731089e-07 1.6168087901e+00 -2.8003949706e+00 1.6168087901e+00 2.8003949706e+00 
73000 6.0065646903e+00 4.4252468442e-07 1.6168087901e+00 -2.8003949706e+00 1.6168087901e+00 2.8003949706e+00 
73100 6.0065646904e+00 4.0429132687e-07 1.6168087901e+00 -2.8003949706e+00 1.6168087901e+00 2.8003949706e+00 
73200 6.0065646905e+00 3.6639227483e-07 1.6168087901e+00 -2.8003949706e+00 1.6168087901e+00 2.8003949706e+00 
73300 6.0065646906e+00 3.2882260794e-07 1.6168087901e+00 -2.8003949706e+00 1.6168087901e+00 2.8003949706e+00 
73400 6.0065646906e+00 2.9157745179e-07 1.6168087901e+00 -2.8003949706e+00 1.6168087901e+00 2.8003949706e+00 
73500 6.0065646907e+00 2.5465198070e-07 1.6168087901e+00 -2.8003949706e+00 1.6168087901e+00 2.8003949706e+00 
73600 6.0065646908e+00 2.1804142588e-07 1.6168087901e+00 -2.8003949706e+00 1.6168087901e+00 2.8003949706e+00 
73700 6.0065646909e+00 1.8174107414e-07 1.6168087901e+00 -2.8003949706e+00 1.6168087901e+00 2.8003949706e+00 
73800 6.0065646910e+00 1.4574627331e-07 1.6168087901e+00 -2.8003949706e+00 1.6168087901e+00 2.8003949706e+00 
73900 6.0065646910e+00 1.1005243880e-07 1.6168087901e+00 -2.8003949706e+00 1.6168087901e+00 2.8003949706e+00 
74000 6.0065646911e+00 7.4655050801e-08 1.6168087901e+00 -2.8003949706e+00 1.6168087901e+00 2.8003949706e+00 
74100 6.0065646912e+00 3.9549659697e-08 1.6168087901e+00 -2.8003949706e+00 1.6168087901e+00 2.8003949706e+00 
74200 6.0065646913e+00 4.7318921038e-09 1.6168087901e+00 -2.8003949706e+00 1.6168087901e+00 2.8003949706e+00 
74300 6.0065646913e+00 -2.9802553550e-08 1.6168087901e+00 -2.8003949706e+00 1.6168087901e+00 2.8003949706e+00 
74400 6.0065646914e+00 -6.4057900699e-08 1.6168087901e+00 -2.8003949706e+00 1.6168087901e+00 2.8003949706e+00 
74500 6.0065646915e+00 -9.8038292134e-08 1.6168087901e+00 -2.8003949706e+00 1.6168087901e+00 2.8003949706e+00 
74600 6.0065646916e+00 -1.3174779497e-07 1.6168087901e+00 -2.8003949706e+00 1.6168087901e+00 2.8003949706e+00 
74700 6.0065646916e+00 -1.6519038864e-07 1.6168087901e+00 -2.8003949706e+00 1.6168087901e+00 2.8003949706e+00 
74800 6.0065646917e+00 -1.9836997196e-07 1.6168087901e+00 -2.8003949706e+00 1.6168087901e+00 2.8003949706e+00 
74900 6.0065646918e+00 -2.3129035752e-07 1.6168087901e+00 -2.8003949706e+00 1.6168087901e+00 2.8003949706e+00 
75000 6.0065646918e+00 -2.6395527476e-07 1.6168087901e+00 -2.8003949706e+00 1.6168087901e+00 2.8003949706e+00 
75100 6.0065646919e+00 -2.9636836630e-07 1.6168087901e+00 -2.8003949706e+00 1.6168087901e+00 2.8003949706e+00 
75200 6.0065646920e+00 -3.2853319042e-07 1.6168087901e+00 -2.8003949706e+00 1.6168087901e+00 2.8003949706e+00 
75300 6.0065646920e+00 -3.6045321434e-07 1.6168087901e+00 -2.8003949706e+00 1.6168087901e+00 2.8003949706e+00 
75400 6.0065646921e+00 -3.9213182068e-07 1.6168087901e+00 -2.8003949706e+00 1.6168087901e+00 2.8003949706e+00 
75500 6.0065646922e+00 -4.2357230608e-07 1.6168087901e+00 -2.8003949706e+00 1.6168087901e+00 2.8003949706e+00 
75600 6.0065646922e+00 -4.5477787929e-07 1.6168087901e+00 -2.8003949706e+00 1.6168087901e+00 2.8003949706e+00 
75700 6.0065646923e+00 -4.8575166188e-07 1.6168087901e+00 -2.8003949706e+00 1.6168087901e+00 2.8003949706e+00 
75800 6.0065646923e+00 -5.1649669202e-07 1.6168087901e+00 -2.8003949706e+00 1.6168087901e+00 2.8003949706e+00 
75900 6.0065646924e+00 -5.4701591824e-07 1.6168087901e+00 -2.8003949706e+00 1.6168087901e+00 2.8003949706e+00 
76000 6.0065646924e+00 -5.7731220787e-07 1.6168087901e+00 -2.8003949706e+00 1.6168087901e+00 2.8003949706e+00 
76100 6.0065646925e+00 -6.0738834389e-07 1.6168087901e+00 -2.8003949706e+00 1.6168087901e+00 2.8003949706e+00 
76200 6.0065646926e+00 -6.3724702298e-07 1.6168087901e+00 -2.8003949706e+00 1.6168087901e+00 2.8003949706e+00 
76300 6.0065646926e+00 -6.6689086291e-07 1.6168087901e+00 -2.8003949706e+00 1.6168087901e+00 2.8003949706e+00 
76400 6.0065646927e+00 -6.9632239844e-07 1.6168087901e+00 -2.8003949706e+00 1.6168087901e+00 2.8003949706e+00 
76500 6.0065646927e+00 -7.2554408473e-07 1.6168087901e+00 -2.8003949706e+00 1.6168087901e+00 2.8003949706e+00 
76600 6.0065646928e+00 -7.5455829975e-07 1.6168087901e+00 -2.8003949706e+00 1.6168087901e+00 2.8003949706e+00 
76700 6.0065646928e+00 -7.8336734332e-07 1.6168087901e+00 -2.8003949706e+00 1.6168087901e+00 2.8003949706e+00 
76800 6.0065646929e+00 -8.1197343903e-07 1.6168087901e+00 -2.8003949706e+00 1.6168087901e+00 2.8003949706e+00 
76900 6.0065646929e+00 -8.4037873668e-07 1.6168087901e+00 -2.8003949706e+00 1.6168087901e+00 2.8003949706e+00 
77000 6.0065646930e+00 -8.6858531416e-07 1.6168087901e+00 -2.8003949706e+00 1.6168087901e+00 2.8003949706e+00 
77100 6.0065646930e+00 -8.9659517716e-07 1.6168087901e+00 -2.8003949706e+00 1.6168087901e+00 2.8003949706e+00 
77200 6.0065646931e+00 -9.1785157809e-07 1.6168087901e+00 -2.8003949706e+00 1.6168087901e+00 2.8003949706e+00 
77200 6.0065646931e+00 -9.1785157818e-07 1.6168087901e+00 -2.8003949706e+00 1.6168087901e+00 2.8003949706e+00 
