# step Hamiltonian StressXX CellTensor1 CellTensor2 CellTensor3 CellTensor4 
0 5.3603271231e+00 -8.3907906737e-02 1.6087831444e+00 -2.7864941444e+00 1.6087831444e+00 2.7864941444e+00 
100 5.3584466497e+00 -8.5132392390e-02 1.6087831444e+00 -2.7864941444e+00 1.6087831444e+00 2.7864941444e+00 
200 5.3563686543e+00 -8.3672498975e-02 1.6114297313e+00 -2.7910781674e+00 1.6114297313e+00 2.7910781674e+00 
300 5.3543701890e+00 -8.2248675837e-02 1.6140266466e+00 -2.7955761567e+00 1.6140266466e+00 2.7955761567e+00 
400 5.3524432519e+00 -8.0855995085e-02 1.6165752502e+00 -2.7999904676e+00 1.6165752502e+00 2.7999904676e+00 
500 5.3505808017e+00 -7.9490048579e-02 1.6190767363e+00 -2.8043231686e+00 1.6190767363e+00 2.8043231686e+00 
600 5.3487767002e+00 -7.8146890600e-02 1.6215321512e+00 -2.8085760720e+00 1.6215321512e+00 2.8085760720e+00 
700 5.3470256536e+00 -7.6822987551e-02 1.6239424092e+00 -2.8127507614e+00 1.6239424092e+00 2.8127507614e+00 
800 5.3453231520e+00 -7.5515173976e-02 1.6263083062e+00 -2.8168486152e+00 1.6263083062e+00 2.8168486152e+00 
900 5.3436654087e+00 -7.4220614222e-02 1.6286305325e+00 -2.8208708290e+00 1.6286305325e+00 2.8208708290e+00 
1000 5.3420492985e+00 -7.2936769114e-02 1.6309096834e+00 -2.8248184342e+00 1.6309096834e+00 2.8248184342e+00 
1100 5.3404722968e+00 -7.1661367081e-02 1.6331462700e+00 -2.8286923158e+00 1.6331462700e+00 2.8286923158e+00 
1200 5.3389324190e+00 -7.0392379210e-02 1.6353407271e+00 -2.8324932271e+00 1.6353407271e+00 2.8324932271e+00 
1300 5.3374281611e+00 -6.9127997746e-02 1.6374934222e+00 -2.8362218043e+00 1.6374934222e+00 2.8362218043e+00 
1400 5.3359584421e+00 -6.7866617594e-02 1.6396046622e+00 -2.8398785792e+00 1.6396046622e+00 2.8398785792e+00 
1500 5.3345225485e+00 -6.6606820433e-02 1.6416747001e+00 -2.8434639901e+00 1.6416747001e+00 2.8434639901e+00 
1600 5.3331200806e+00 -6.5347361066e-02 1.6437037416e+00 -2.8469783930e+00 1.6437037416e+00 2.8469783930e+00 
1700 5.3317509018e+00 -6.4087155679e-02 1.6456919501e+00 -2.8504220712e+00 1.6456919501e+00 2.8504220712e+00 
1800 5.3304150911e+00 -6.2825271721e-02 1.6476394524e+00 -2.8537952442e+00 1.6476394524e+00 2.8537952442e+00 
1900 5.3291128981e+00 -6.1560919116e-02 1.6495463434e+00 -2.8570980761e+00 1.6495463434e+00 2.8570980761e+00 
2000 5.3278447016e+00 -6.0293442595e-02 1.6514126902e+00 -2.8603306837e+00 1.6514126902e+00 2.8603306837e+00 
2100 5.3266109719e+00 -5.9022314915e-02 1.6532385372e+00 -2.8634931435e+00 1.6532385372e+00 2.8634931435e+00 
2200 5.3254122355e+00 -5.7747130796e-02 1.6550239095e+00 -2.8665854990e+00 1.6550239095e+00 2.8665854990e+00 
2300 5.3242490446e+00 -5.6467601405e-02 1.6567688168e+00 -2.8696077671e+00 1.6567688168e+00 2.8696077671e+00 
2400 5.3231219490e+00 -5.5183549249e-02 1.6584732571e+00 -2.8725599443e+00 1.6584732571e+00 2.8725599443e+00 
2500 5.3220314721e+00 -5.3894903364e-02 1.6601372202e+00 -2.8754420129e+00 1.6601372202e+00 2.8754420129e+00 
2600 5.3209780895e+00 -5.2601694694e-02 1.6617606908e+00 -2.8782539464e+00 1.6617606908e+00 2.8782539464e+00 
2700 5.3199622118e+00 -5.1304051581e-02 1.6633436514e+00 -2.8809957147e+00 1.6633436514e+00 2.8809957147e+00 
2800 5.3189841696e+00 -5.0002195293e-02 1.6648860859e+00 -2.8836672896e+00 1.6648860859e+00 2.8836672896e+00 
2900 5.3180442015e+00 -4.8696435552e-02 1.6663879816e+00 -2.8862686493e+00 1.6663879816e+00 2.8862686493e+00 
3000 5.3171424453e+00 -4.7387166000e-02 1.6678493323e+00 -2.8887997830e+00 1.6678493323e+00 2.8887997830e+00 
3100 5.3162789317e+00 -4.6074859592e-02 1.6692701408e+00 -2.8912606954e+00 1.6692701408e+00 2.8912606954e+00 
3200 5.3154535795e+00 -4.4760063891e-02 1.6706504207e+00 -2.8936514104e+00 1.6706504207e+00 2.8936514104e+00 
3300 5.3146661944e+00 -4.3443396249e-02 1.6719901996e+00 -2.8959719754e+00 1.6719901996e+00 2.8959719754e+00 
3400 5.3139164683e+00 -4.2125538882e-02 1.6732895199e+00 -2.8982224643e+00 1.6732895199e+00 2.8982224643e+00 
3500 5.3132039811e+00 -4.0807233827e-02 1.6745484418e+00 -2.9004029810e+00 1.6745484418e+00 2.9004029810e+00 
3600 5.3125282044e+00 -3.9489277812e-02 1.6757670443e+00 -2.9025136624e+00 1.6757670443e+00 2.9025136624e+00 
3700 5.3118885053e+00 -3.8172517024e-02 1.6769454272e+00 -2.9045546814e+00 1.6769454272e+00 2.9045546814e+00 
3800 5.3112841525e+00 -3.6857841819e-02 1.6780837120e+00 -2.9065262486e+00 1.6780837120e+00 2.9065262486e+00 
3900 5.3107143228e+00 -3.5546181374e-02 1.6791820440e+00 -2.9084286153e+00 1.6791820440e+00 2.9084286153e+00 
4000 5.3101781087e+00 -3.4238498310e-02 1.6802405925e+00 -2.9102620752e+00 1.6802405925e+00 2.9102620752e+00 
4100 5.3096745257e+00 -3.2935783315e-02 1.6812595524e+00 -2.9120269655e+00 1.6812595524e+00 2.9120269655e+00 
4200 5.3092025216e+00 -3.1639049779e-02 1.6822391448e+00 -2.9137236692e+00 1.6822391448e+00 2.9137236692e+00 
4300 5.3087609845e+00 -3.0349328472e-02 1.6831796174e+00 -2.9153526155e+00 1.6831796174e+00 2.9153526155e+00 
4400 5.3083487520e+00 -2.9067662298e-02 1.6840812453e+00 -2.9169142810e+00 1.6840812453e+00 2.9169142810e+00 
4500 5.3079646201e+00 -2.7795101128e-02 1.6849443315e+00 -2.9184091900e+00 1.6849443315e+00 2.9184091900e+00 
4600 5.3076073517e+00 -2.6532696763e-02 1.6857692064e+00 -2.9198379153e+00 1.6857692064e+00 2.9198379153e+00 
4700 5.3072756855e+00 -2.5281498022e-02 1.6865562287e+00 -2.9212010780e+00 1.6865562287e+00 2.9212010780e+00 
4800 5.3069683444e+00 -2.4042546006e-02 1.6873057848e+00 -2.9224993472e+00 1.6873057848e+00 2.9224993472e+00 
4900 5.3066840433e+00 -2.2816869523e-02 1.6880182887e+00 -2.9237334401e+00 1.6880182887e+00 2.9237334401e+00 
5000 5.3064214970e+00 -2.1605480732e-02 1.6886941816e+00 -2.9249041209e+00 1.6886941816e+00 2.9249041209e+00 
5100 5.3061794274e+00 -2.0409370991e-02 1.6893339316e+00 -2.9260122006e+00 1.6893339316e+00 2.9260122006e+00 
5200 5.3059565697e+00 -1.9229506938e-02 1.6899380333e+00 -2.9270585352e+00 1.6899380333e+00 2.9270585352e+00 
5300 5.3057516793e+00 -1.8066826817e-02 1.6905070063e+00 -2.9280440255e+00 1.6905070063e+00 2.9280440255e+00 
5400 5.3055635370e+00 -1.6922237063e-02 1.6910413957e+00 -2.9289696150e+00 1.6910413957e+00 2.9289696150e+00 
5500 5.3053909540e+00 -1.5796609148e-02 1.6915417699e+00 -2.9298362886e+00 1.6915417699e+00 2.9298362886e+00 
5600 5.3052327769e+00 -1.4690776698e-02 1.6920087207e+00 -2.9306450712e+00 1.6920087207e+00 2.9306450712e+00 
5700 5.3050878909e+00 -1.3605532891e-02 1.6924428617e+00 -2.9313970253e+00 1.6924428617e+00 2.9313970253e+00 
5800 5.3049552237e+00 -1.2541628128e-02 1.6928448271e+00 -2.9320932499e+00 1.6928448271e+00 2.9320932499e+00 
5900 5.3048337485e+00 -1.1499767999e-02 1.6932152712e+00 -2.9327348778e+00 1.6932152712e+00 2.9327348778e+00 
6000 5.3047224854e+00 -1.0480611513e-02 1.6935548663e+00 -2.9333230738e+00 1.6935548663e+00 2.9333230738e+00 
6100 5.3046205044e+00 -9.4847696181e-03 1.6938643021e+00 -2.9338590323e+00 1.6938643021e+00 2.9338590323e+00 
6200 5.3045269254e+00 -8.5128039942e-03 1.6941442841e+00 -2.9343439754e+00 1.6941442841e+00 2.9343439754e+00 
6300 5.3044409203e+00 -7.5652261098e-03 1.6943955323e+00 -2.9347791501e+00 1.6943955323e+00 2.9347791501e+00 
6400 5.3043617124e+00 -6.6424965451e-03 1.6946187798e+00 -2.9351658261e+00 1.6946187798e+00 2.9351658261e+00 
6500 5.3042885769e+00 -5.7450245661e-03 1.6948147715e+00 -2.9355052937e+00 1.6948147715e+00 2.9355052937e+00 
6600 5.3042208403e+00 -4.8731679425e-03 1.6949842626e+00 -2.9357988609e+00 1.6949842626e+00 2.9357988609e+00 
6700 5.3041578802e+00 -4.0272329985e-03 1.6951280173e+00 -2.9360478512e+00 1.6951280173e+00 2.9360478512e+00 
6800 5.3040991235e+00 -3.2074748841e-03 1.6952468071e+00 -2.9362536013e+00 1.6952468071e+00 2.9362536013e+00 
6900 5.3040440457e+00 -2.4140980556e-03 1.6953414100e+00 -2.9364174583e+00 1.6953414100e+00 2.9364174583e+00 
7000 5.3039921693e+00 -1.6472569509e-03 1.6954126085e+00 -2.9365407777e+00 1.6954126085e+00 2.9365407777e+00 
7100 5.3039430622e+00 -9.0705684724e-04 1.6954611885e+00 -2.9366249208e+00 1.6954611885e+00 2.9366249208e+00 
7200 5.3038963353e+00 -1.9355488640e-04 1.6954879382e+00 -2.9366712525e+00 1.6954879382e+00 2.9366712525e+00 
7300 5.3038516412e+00 4.9323874622e-04 1.6954936461e+00 -2.9366811390e+00 1.6954936461e+00 2.9366811390e+00 
7400 5.3038086717e+00 1.1533595032e-03 1.6954791006e+00 -2.9366559453e+00 1.6954791006e+00 2.9366559453e+00 
7500 5.3037671554e+00 1.7868870314e-03 1.6954450879e+00 -2.9365970337e+00 1.6954450879e+00 2.9365970337e+00 
7600 5.3037268560e+00 2.3939436177e-03 1.6953923915e+00 -2.9365057608e+00 1.6953923915e+00 2.9365057608e+00 
7700 5.3036875695e+00 2.9746925373e-03 1.6953217905e+00 -2.9363834763e+00 1.6953217905e+00 2.9363834763e+00 
7800 5.3036491220e+00 3.5293363191e-03 1.6952340589e+00 -2.9362315207e+00 1.6952340589e+00 2.9362315207e+00 
7900 5.3036113677e+00 4.0581149401e-03 1.6951299641e+00 -2.9360512232e+00 1.6951299641e+00 2.9360512232e+00 
8000 5.3035741860e+00 4.5613039637e-03 1.6950102663e+00 -2.9358439005e+00 1.6950102663e+00 2.9358439005e+00 
8100 5.3035374798e+00 5.0392126316e-03 1.6948757171e+00 -2.9356108546e+00 1.6948757171e+00 2.9356108546e+00 
8200 5.3035011733e+00 5.4921819228e-03 1.6947270591e+00 -2.9353533712e+00 1.6947270591e+00 2.9353533712e+00 
8300 5.3034652093e+00 5.9205825903e-03 1.6945650243e+00 -2.9350727188e+00 1.6945650243e+00 2.9350727188e+00 
8400 5.3034295480e+00 6.3248131850e-03 1.6943903340e+00 -2.9347701463e+00 1.6943903340e+00 2.9347701463e+00 
8500 5.3033941641e+00 6.7052980777e-03 1.6942036976e+00 -2.9344468827e+00 1.6942036976e+00 2.9344468827e+00 
8600 5.3033590459e+00 7.0624854880e-03 1.6940058121e+00 -2.9341041349e+00 1.6940058121e+00 2.9341041349e+00 
8700 5.3033241926e+00 7.3968455274e-03 1.6937973612e+00 -2.9337430874e+00 1.6937973612e+00 2.9337430874e+00 
8800 5.3032896135e+00 7.7088682652e-03 1.6935790149e+00 -2.9333649005e+00 1.6935790149e+00 2.9333649005e+00 
8900 5.3032553257e+00 7.9990618244e-03 1.6933514290e+00 -2.9329707101e+00 1.6933514290e+00 2.9329707101e+00 
9000 5.3032213531e+00 8.2679505128e-03 1.6931152442e+00 -2.9325616261e+00 1.6931152442e+00 2.9325616261e+00 
9100 5.3031877249e+00 8.5160729953e-03 1.6928710863e+00 -2.9321387321e+00 1.6928710863e+00 2.9321387321e+00 
9200 5.3031544745e+00 8.7439805127e-03 1.6926195650e+00 -2.9317030845e+00 1.6926195650e+00 2.9317030845e+00 
9300 5.3031216380e+00 8.9522351513e-03 1.6923612743e+00 -2.9312557118e+00 1.6923612743e+00 2.9312557118e+00 
9400 5.3030892537e+00 9.1414081665e-03 1.6920967917e+00 -2.9307976145e+00 1.6920967917e+00 2.9307976145e+00 
9500 5.3030573608e+00 9.3120783635e-03 1.6918266782e+00 -2.9303297642e+00 1.6918266782e+00 2.9303297642e+00 
9600 5.3030259987e+00 9.4648305391e-03 1.6915514778e+00 -2.9298531032e+00 1.6915514778e+00 2.9298531032e+00 
9700 5.3029952065e+00 9.6002539847e-03 1.6912717178e+00 -2.9293685446e+00 1.6912717178e+00 2.9293685446e+00 
9800 5.3029650218e+00 9.7189410541e-03 1.6909879081e+00 -2.9288769718e+00 1.6909879081e+00 2.9288769718e+00 
9900 5.3029354808e+00 9.8214857954e-03 1.6907005416e+00 -2.9283792385e+00 1.6907005416e+00 2.9283792385e+00 
10000 5.3029066174e+00 9.9084826499e-03 1.6904100938e+00 -2.9278761681e+00 1.6904100938e+00 2.9278761681e+00 
10100 5.3028784632e+00 9.9805252167e-03 1.6901170230e+00 -2.9273685546e+00 1.6901170230e+00 2.9273685546e+00 
10200 5.3028510466e+00 1.0038205084e-02 1.6898217703e+00 -2.9268571618e+00 1.6898217703e+00 2.9268571618e+00 
10300 5.3028243932e+00 1.0082110728e-02 1.6895247593e+00 -2.9263427238e+00 1.6895247593e+00 2.9263427238e+00 
10400 5.3027985254e+00 1.0112826473e-02 1.6892263969e+00 -2.9258259449e+00 1.6892263969e+00 2.9258259449e+00 
10500 5.3027734620e+00 1.0130931525e-02 1.6889270727e+00 -2.9253075002e+00 1.6889270727e+00 2.9253075002e+00 
10600 5.3027492186e+00 1.0136999060e-02 1.6886271595e+00 -2.9247880352e+00 1.6886271595e+00 2.9247880352e+00 
10700 5.3027258072e+00 1.0131595381e-02 1.6883270133e+00 -2.9242681668e+00 1.6883270133e+00 2.9242681668e+00 
10800 5.3027032363e+00 1.0115279138e-02 1.6880269738e+00 -2.9237484832e+00 1.6880269738e+00 2.9237484832e+00 
10900 5.3026815113e+00 1.0088600603e-02 1.6877273643e+00 -2.9232295443e+00 1.6877273643e+00 2.9232295443e+00 
11000 5.3026606339e+00 1.0052101006e-02 1.6874284919e+00 -2.9227118821e+00 1.6874284919e+00 2.9227118821e+00 
11100 5.3026406029e+00 1.0006311931e-02 1.6871306480e+00 -2.9221960013e+00 1.6871306480e+00 2.9221960013e+00 
11200 5.3026214141e+00 9.9517547614e-03 1.6868341085e+00 -2.9216823798e+00 1.6868341085e+00 2.9216823798e+00 
11300 5.3026030603e+00 9.8889401825e-03 1.6865391338e+00 -2.9211714688e+00 1.6865391338e+00 2.9211714688e+00 
11400 5.3025855316e+00 9.8183677353e-03 1.6862459698e+00 -2.9206636937e+00 1.6862459698e+00 2.9206636937e+00 
11500 5.3025688156e+00 9.7405254176e-03 1.6859548472e+00 -2.9201594546e+00 1.6859548472e+00 2.9201594546e+00 
11600 5.3025528978e+00 9.6558893341e-03 1.6856659828e+00 -2.9196591268e+00 1.6856659828e+00 2.9196591268e+00 
11700 5.3025377612e+00 9.5649233909e-03 1.6853795792e+00 -2.9191630612e+00 1.6853795792e+00 2.9191630612e+00 
11800 5.3025233873e+00 9.4680790338e-03 1.6850958255e+00 -2.9186715853e+00 1.6850958255e+00 2.9186715853e+00 
11900 5.3025097557e+00 9.3657950278e-03 1.6848148973e+00 -2.9181850035e+00 1.6848148973e+00 2.9181850035e+00 
12000 5.3024968446e+00 9.2584972759e-03 1.6845369577e+00 -2.9177035979e+00 1.6845369577e+00 2.9177035979e+00 
12100 5.3024846311e+00 9.1465986750e-03 1.6842621568e+00 -2.9172276288e+00 1.6842621568e+00 2.9172276288e+00 
12200 5.3024730909e+00 9.0304990074e-03 1.6839906328e+00 -2.9167573354e+00 1.6839906328e+00 2.9167573354e+00 
12300 5.3024621991e+00 8.9105848655e-03 1.6837225119e+00 -2.9162929365e+00 1.6837225119e+00 2.9162929365e+00 
12400 5.3024519302e+00 8.7872296086e-03 1.6834579092e+00 -2.9158346311e+00 1.6834579092e+00 2.9158346311e+00 
12500 5.3024422580e+00 8.6607933486e-03 1.6831969284e+00 -2.9153825992e+00 1.6831969284e+00 2.9153825992e+00 
12600 5.3024331561e+00 8.5316229642e-03 1.6829396629e+00 -2.9149370021e+00 1.6829396629e+00 2.9149370021e+00 
12700 5.3024245980e+00 8.4000521411e-03 1.6826861954e+00 -2.9144979836e+00 1.6826861954e+00 2.9144979836e+00 
12800 5.3024165571e+00 8.2664014370e-03 1.6824365991e+00 -2.9140656702e+00 1.6824365991e+00 2.9140656702e+00 
12900 5.3024090071e+00 8.1309783689e-03 1.6821909375e+00 -2.9136401719e+00 1.6821909375e+00 2.9136401719e+00 
13000 5.3024019218e+00 7.9940775220e-03 1.6819492651e+00 -2.9132215829e+00 1.6819492651e+00 2.9132215829e+00 
13100 5.3023952754e+00 7.8559806784e-03 1.6817116275e+00 -2.9128099825e+00 1.6817116275e+00 2.9128099825e+00 
13200 5.3023890429e+00 7.7169569643e-03 1.6814780619e+00 -2.9124054350e+00 1.6814780619e+00 2.9124054350e+00 
13300 5.3023831995e+00 7.5772630134e-03 1.6812485977e+00 -2.9120079913e+00 1.6812485977e+00 2.9120079913e+00 
13400 5.3023777213e+00 7.4371431466e-03 1.6810232564e+00 -2.9116176888e+00 1.6810232564e+00 2.9116176888e+00 
13500 5.3023725851e+00 7.2968295655e-03 1.6808020524e+00 -2.9112345523e+00 1.6808020524e+00 2.9112345523e+00 
13600 5.3023677685e+00 7.1565425586e-03 1.6805849932e+00 -2.9108585946e+00 1.6805849932e+00 2.9108585946e+00 
13700 5.3023632501e+00 7.0164907207e-03 1.6803720795e+00 -2.9104898173e+00 1.6803720795e+00 2.9104898173e+00 
13800 5.3023590091e+00 6.8768711807e-03 1.6801633059e+00 -2.9101282109e+00 1.6801633059e+00 2.9101282109e+00 
13900 5.3023550260e+00 6.7378698415e-03 1.6799586612e+00 -2.9097737558e+00 1.6799586612e+00 2.9097737558e+00 
14000 5.3023512821e+00 6.5996616264e-03 1.6797581284e+00 -2.9094264228e+00 1.6797581284e+00 2.9094264228e+00 
14100 5.3023477595e+00 6.4624107343e-03 1.6795616855e+00 -2.9090861736e+00 1.6795616855e+00 2.9090861736e+00 
14200 5.3023444416e+00 6.3262709013e-03 1.6793693053e+00 -2.9087529614e+00 1.6793693053e+00 2.9087529614e+00 
14300 5.3023413126e+00 6.1913856677e-03 1.6791809562e+00 -2.9084267313e+00 1.6791809562e+00 2.9084267313e+00 
14400 5.3023383577e+00 6.0578886505e-03 1.6789966023e+00 -2.9081074209e+00 1.6789966023e+00 2.9081074209e+00 
14500 5.3023355630e+00 5.9259038198e-03 1.6788162035e+00 -2.9077949610e+00 1.6788162035e+00 2.9077949610e+00 
14600 5.3023329159e+00 5.7955457785e-03 1.6786397160e+00 -2.9074892757e+00 1.6786397160e+00 2.9074892757e+00 
14700 5.3023304042e+00 5.6669200448e-03 1.6784670927e+00 -2.9071902834e+00 1.6784670927e+00 2.9071902834e+00 
14800 5.3023280169e+00 5.5401233367e-03 1.6782982832e+00 -2.9068978967e+00 1.6782982832e+00 2.9068978967e+00 
14900 5.3023257440e+00 5.4152438579e-03 1.6781332341e+00 -2.9066120233e+00 1.6781332341e+00 2.9066120233e+00 
15000 5.3023235760e+00 5.2923615847e-03 1.6779718894e+00 -2.9063325661e+00 1.6779718894e+00 2.9063325661e+00 
15100 5.3023215045e+00 5.1715485524e-03 1.6778141907e+00 -2.9060594240e+00 1.6778141907e+00 2.9060594240e+00 
15200 5.3023195217e+00 5.0528691423e-03 1.6776600774e+00 -2.9057924920e+00 1.6776600774e+00 2.9057924920e+00 
15300 5.3023176205e+00 4.9363803675e-03 1.6775094869e+00 -2.9055316615e+00 1.6775094869e+00 2.9055316615e+00 
15400 5.3023157946e+00 4.8221321569e-03 1.6773623549e+00 -2.9052768214e+00 1.6773623549e+00 2.9052768214e+00 
15500 5.3023140384e+00 4.7101676387e-03 1.6772186154e+00 -2.9050278573e+00 1.6772186154e+00 2.9050278573e+00 
15600 5.3023123467e+00 4.6005234202e-03 1.6770782013e+00 -2.9047846530e+00 1.6770782013e+00 2.9047846530e+00 
15700 5.3023107151e+00 4.4932298667e-03 1.6769410443e+00 -2.9045470901e+00 1.6769410443e+00 2.9045470901e+00 
15800 5.3023091394e+00 4.3883113762e-03 1.6768070751e+00 -2.9043150486e+00 1.6768070751e+00 2.9043150486e+00 
15900 5.3023076163e+00 4.2857866514e-03 1.6766762236e+00 -2.9040884071e+00 1.6766762236e+00 2.9040884071e+00 
16000 5.3023061426e+00 4.1856689686e-03 1.6765484192e+00 -2.9038670434e+00 1.6765484192e+00 2.9038670434e+00 
16100 5.3023047156e+00 4.0879664415e-03 1.6764235908e+00 -2.9036508343e+00 1.6764235908e+00 2.9036508343e+00 
16200 5.3023033331e+00 3.9926822828e-03 1.6763016671e+00 -2.9034396562e+00 1.6763016671e+00 2.9034396562e+00 
16300 5.3023019930e+00 3.8998150593e-03 1.6761825765e+00 -2.9032333852e+00 1.6761825765e+00 2.9032333852e+00 
16400 5.3023006937e+00 3.8093589440e-03 1.6760662476e+00 -2.9030318976e+00 1.6760662476e+00 2.9030318976e+00 
16500 5.3022994338e+00 3.7213039632e-03 1.6759526090e+00 -2.9028350698e+00 1.6759526090e+00 2.9028350698e+00 
16600 5.3022982120e+00 3.6356362373e-03 1.6758415896e+00 -2.9026427787e+00 1.6758415896e+00 2.9026427787e+00 
16700 5.3022970274e+00 3.5523382184e-03 1.6757331189e+00 -2.9024549018e+00 1.6757331189e+00 2.9024549018e+00 
16800 5.3022958792e+00 3.4713889209e-03 1.6756271264e+00 -2.9022713175e+00 1.6756271264e+00 2.9022713175e+00 
16900 5.3022947667e+00 3.3927641479e-03 1.6755235427e+00 -2.9020919053e+00 1.6755235427e+00 2.9020919053e+00 
17000 5.3022936893e+00 3.3164367107e-03 1.6754222988e+00 -2.9019165457e+00 1.6754222988e+00 2.9019165457e+00 
17100 5.3022926467e+00 3.2423766439e-03 1.6753233267e+00 -2.9017451209e+00 1.6753233267e+00 2.9017451209e+00 
17200 5.3022916384e+00 3.1705514136e-03 1.6752265589e+00 -2.9015775142e+00 1.6752265589e+00 2.9015775142e+00 
17300 5.3022906641e+00 3.1009261206e-03 1.6751319293e+00 -2.9014136109e+00 1.6751319293e+00 2.9014136109e+00 
17400 5.3022897237e+00 3.0334636968e-03 1.6750393725e+00 -2.9012532978e+00 1.6750393725e+00 2.9012532978e+00 
17500 5.3022888168e+00 2.9681250963e-03 1.6749488242e+00 -2.9010964637e+00 1.6749488242e+00 2.9010964637e+00 
17600 5.3022879433e+00 2.9048694796e-03 1.6748602216e+00 -2.9009429993e+00 1.6748602216e+00 2.9009429993e+00 
17700 5.3022871029e+00 2.8436543928e-03 1.6747735026e+00 -2.9007927976e+00 1.6747735026e+00 2.9007927976e+00 
17800 5.3022862955e+00 2.7844359395e-03 1.6746886066e+00 -2.9006457535e+00 1.6746886066e+00 2.9006457535e+00 
17900 5.3022855208e+00 2.7271689473e-03 1.6746054743e+00 -2.9005017642e+00 1.6746054743e+00 2.9005017642e+00 
18000 5.3022847786e+00 2.6718071281e-03 1.6745240478e+00 -2.9003607293e+00 1.6745240478e+00 2.9003607293e+00 
18100 5.3022840686e+00 2.6183032315e-03 1.6744442703e+00 -2.9002225506e+00 1.6744442703e+00 2.9002225506e+00 
18200 5.3022833905e+00 2.5666091933e-03 1.6743660867e+00 -2.9000871326e+00 1.6743660867e+00 2.9000871326e+00 
18300 5.3022827440e+00 2.5166762771e-03 1.6742894431e+00 -2.8999543819e+00 1.6742894431e+00 2.8999543819e+00 
18400 5.3022821287e+00 2.4684552097e-03 1.6742142871e+00 -2.8998242080e+00 1.6742142871e+00 2.8998242080e+00 
18500 5.3022815442e+00 2.4218963113e-03 1.6741405678e+00 -2.8996965224e+00 1.6741405678e+00 2.8996965224e+00 
18600 5.3022809900e+00 2.3769496185e-03 1.6740682358e+00 -2.8995712397e+00 1.6740682358e+00 2.8995712397e+00 
18700 5.3022804656e+00 2.3335650031e-03 1.6739972431e+00 -2.8994482768e+00 1.6739972431e+00 2.8994482768e+00 
18800 5.3022799704e+00 2.2916922833e-03 1.6739275432e+00 -2.8993275530e+00 1.6739275432e+00 2.8993275530e+00 
18900 5.3022795040e+00 2.2512813303e-03 1.6738590911e+00 -2.8992089905e+00 1.6738590911e+00 2.8992089905e+00 
19000 5.3022790656e+00 2.2122821688e-03 1.6737918433e+00 -2.8990925139e+00 1.6737918433e+00 2.8990925139e+00 
19100 5.3022786546e+00 2.1746450723e-03 1.6737257578e+00 -2.8989780505e+00 1.6737257578e+00 2.8989780505e+00 
19200 5.3022782703e+00 2.1383206521e-03 1.6736607940e+00 -2.8988655299e+00 1.6736607940e+00 2.8988655299e+00 
19300 5.3022779120e+00 2.1032599418e-03 1.6735969129e+00 -2.8987548845e+00 1.6735969129e+00 2.8987548845e+00 
19400 5.3022775790e+00 2.0694144759e-03 1.6735340768e+00 -2.8986460492e+00 1.6735340768e+00 2.8986460492e+00 
19500 5.3022772703e+00 2.0367363640e-03 1.6734722495e+00 -2.8985389612e+00 1.6734722495e+00 2.8985389612e+00 
19600 5.3022769853e+00 2.0051783587e-03 1.6734113962e+00 -2.8984335603e+00 1.6734113962e+00 2.8984335603e+00 
19700 5.3022767232e+00 1.9746939198e-03 1.6733514837e+00 -2.8983297887e+00 1.6733514837e+00 2.8983297887e+00 
19800 5.3022764830e+00 1.9452372731e-03 1.6732924799e+00 -2.8982275911e+00 1.6732924799e+00 2.8982275911e+00 
19900 5.3022762639e+00 1.9167634642e-03 1.6732343542e+00 -2.8981269144e+00 1.6732343542e+00 2.8981269144e+00 
20000 5.3022760651e+00 1.8892284087e-03 1.6731770773e+00 -2.8980277080e+00 1.6731770773e+00 2.8980277080e+00 
20100 5.3022758857e+00 1.8625889371e-03 1.6731206213e+00 -2.8979299233e+00 1.6731206213e+00 2.8979299233e+00 
20200 5.3022757248e+00 1.8368028356e-03 1.6730649595e+00 -2.8978335142e+00 1.6730649595e+00 2.8978335142e+00 
20300 5.3022755816e+00 1.8118288830e-03 1.6730100665e+00 -2.8977384367e+00 1.6730100665e+00 2.8977384367e+00 
20400 5.3022754552e+00 1.7876268832e-03 1.6729559180e+00 -2.8976446488e+00 1.6729559180e+00 2.8976446488e+00 
20500 5.3022753448e+00 1.7641576943e-03 1.6729024911e+00 -2.8975521106e+00 1.6729024911e+00 2.8975521106e+00 
20600 5.3022752495e+00 1.7413832534e-03 1.6728497639e+00 -2.8974607845e+00 1.6728497639e+00 2.8974607845e+00 
20700 5.3022751685e+00 1.7192665982e-03 1.6727977158e+00 -2.8973706345e+00 1.6727977158e+00 2.8973706345e+00 
20800 5.3022751009e+00 1.6977718851e-03 1.6727463271e+00 -2.8972816266e+00 1.6727463271e+00 2.8972816266e+00 
20900 5.3022750460e+00 1.6768644035e-03 1.6726955793e+00 -2.8971937289e+00 1.6726955793e+00 2.8971937289e+00 
21000 5.3022750030e+00 1.6565105874e-03 1.6726454549e+00 -2.8971069110e+00 1.6726454549e+00 2.8971069110e+00 
21100 5.3022749712e+00 1.6366780242e-03 1.6725959375e+00 -2.8970211442e+00 1.6725959375e+00 2.8970211442e+00 
21200 5.3022749497e+00 1.6173354597e-03 1.6725470114e+00 -2.8969364018e+00 1.6725470114e+00 2.8969364018e+00 
21300 5.3022749380e+00 1.5984528009e-03 1.6724986622e+00 -2.8968526585e+00 1.6724986622e+00 2.8968526585e+00 
21400 5.3022749352e+00 1.5800011164e-03 1.6724508760e+00 -2.8967698905e+00 1.6724508760e+00 2.8967698905e+00 
21500 5.3022749408e+00 1.5619526337e-03 1.6724036402e+00 -2.8966880755e+00 1.6724036402e+00 2.8966880755e+00 
21600 5.3022749540e+00 1.5442807345e-03 1.6723569425e+00 -2.8966071929e+00 1.6723569425e+00 2.8966071929e+00 
21700 5.3022749744e+00 1.5269599477e-03 1.6723107720e+00 -2.8965272231e+00 1.6723107720e+00 2.8965272231e+00 
21800 5.3022750013e+00 1.5099659404e-03 1.6722651180e+00 -2.8964481481e+00 1.6722651180e+00 2.8964481481e+00 
21900 5.3022750341e+00 1.4932755064e-03 1.6722199709e+00 -2.8963699510e+00 1.6722199709e+00 2.8963699510e+00 
22000 5.3022750723e+00 1.4768665537e-03 1.6721753216e+00 -2.8962926161e+00 1.6721753216e+00 2.8962926161e+00 
22100 5.3022751155e+00 1.4607180895e-03 1.6721311617e+00 -2.8962161290e+00 1.6721311617e+00 2.8962161290e+00 
22200 5.3022751632e+00 1.4448102042e-03 1.6720874836e+00 -2.8961404763e+00 1.6720874836e+00 2.8961404763e+00 
22300 5.3022752149e+00 1.4291240532e-03 1.6720442800e+00 -2.8960656454e+00 1.6720442800e+00 2.8960656454e+00 
22400 5.3022752701e+00 1.4136418381e-03 1.6720015443e+00 -2.8959916251e+00 1.6720015443e+00 2.8959916251e+00 
22500 5.3022753286e+00 1.3983467860e-03 1.6719592706e+00 -2.8959184048e+00 1.6719592706e+00 2.8959184048e+00 
22600 5.3022753900e+00 1.3832231283e-03 1.6719174531e+00 -2.8958459749e+00 1.6719174531e+00 2.8958459749e+00 
22700 5.3022754538e+00 1.3682560775e-03 1.6718760869e+00 -2.8957743265e+00 1.6718760869e+00 2.8957743265e+00 
22800 5.3022755198e+00 1.3534318041e-03 1.6718351673e+00 -2.8957034517e+00 1.6718351673e+00 2.8957034517e+00 
22900 5.3022755878e+00 1.3387374119e-03 1.6717946901e+00 -2.8956333430e+00 1.6717946901e+00 2.8956333430e+00 
23000 5.3022756574e+00 1.3241609129e-03 1.6717546513e+00 -2.8955639938e+00 1.6717546513e+00 2.8955639938e+00 
23100 5.3022757283e+00 1.3096912016e-03 1.6717150475e+00 -2.8954953981e+00 1.6717150475e+00 2.8954953981e+00 
23200 5.3022758004e+00 1.2953180282e-03 1.6716758756e+00 -2.8954275503e+00 1.6716758756e+00 2.8954275503e+00 
23300 5.3022758735e+00 1.2810319722e-03 1.6716371326e+00 -2.8953604455e+00 1.6716371326e+00 2.8953604455e+00 
23400 5.3022759473e+00 1.2668244147e-03 1.6715988161e+00 -2.8952940794e+00 1.6715988161e+00 2.8952940794e+00 
23500 5.3022760217e+00 1.2526875110e-03 1.6715609236e+00 -2.8952284477e+00 1.6715609236e+00 2.8952284477e+00 
23600 5.3022760966e+00 1.2386141629e-03 1.6715234532e+00 -2.8951635470e+00 1.6715234532e+00 2.8951635470e+00 
23700 5.3022761717e+00 1.2245979902e-03 1.6714864029e+00 -2.8950993739e+00 1.6714864029e+00 2.8950993739e+00 
23800 5.3022762470e+00 1.2106333030e-03 1.6714497710e+00 -2.8950359257e+00 1.6714497710e+00 2.8950359257e+00 
23900 5.3022763224e+00 1.1967150735e-03 1.6714135561e+00 -2.8949731996e+00 1.6714135561e+00 2.8949731996e+00 
24000 5.3022763977e+00 1.1828389076e-03 1.6713777567e+00 -2.8949111932e+00 1.6713777567e+00 2.8949111932e+00 
24100 5.3022764729e+00 1.1690010173e-03 1.6713423717e+00 -2.8948499046e+00 1.6713423717e+00 2.8948499046e+00 
24200 5.3022765479e+00 1.1551981923e-03 1.6713073999e+00 -2.8947893317e+00 1.6713073999e+00 2.8947893317e+00 
24300 5.3022766226e+00 1.1414277727e-03 1.6712728403e+00 -2.8947294727e+00 1.6712728403e+00 2.8947294727e+00 
24400 5.3022766969e+00 1.1276876214e-03 1.6712386919e+00 -2.8946703260e+00 1.6712386919e+00 2.8946703260e+00 
24500 5.3022767709e+00 1.1139760968e-03 1.6712049540e+00 -2.8946118902e+00 1.6712049540e+00 2.8946118902e+00 
24600 5.3022768444e+00 1.1002920265e-03 1.6711716256e+00 -2.8945541636e+00 1.6711716256e+00 2.8945541636e+00 
24700 5.3022769175e+00 1.0866346800e-03 1.6711387059e+00 -2.8944971451e+00 1.6711387059e+00 2.8944971451e+00 
24800 5.3022769901e+00 1.0730037435e-03 1.6711061942e+00 -2.8944408332e+00 1.6711061942e+00 2.8944408332e+00 
24900 5.3022770622e+00 1.0593992940e-03 1.6710740897e+00 -2.8943852266e+00 1.6710740897e+00 2.8943852266e+00 
25000 5.3022771338e+00 1.0458217742e-03 1.6710423916e+00 -2.8943303239e+00 1.6710423916e+00 2.8943303239e+00 
25100 5.3022772048e+00 1.0322719677e-03 1.6710110992e+00 -2.8942761239e+00 1.6710110992e+00 2.8942761239e+00 
25200 5.3022772752e+00 1.0187509755e-03 1.6709802117e+00 -2.8942226251e+00 1.6709802117e+00 2.8942226251e+00 
25300 5.3022773450e+00 1.0052601922e-03 1.6709497282e+00 -2.8941698261e+00 1.6709497282e+00 2.8941698261e+00 
25400 5.3022774143e+00 9.9180128307e-04 1.6709196477e+00 -2.8941177253e+00 1.6709196477e+00 2.8941177253e+00 
25500 5.3022774830e+00 9.7837616193e-04 1.6708899695e+00 -2.8940663211e+00 1.6708899695e+00 2.8940663211e+00 
25600 5.3022775511e+00 9.6498696942e-04 1.6708606925e+00 -2.8940156118e+00 1.6708606925e+00 2.8940156118e+00 
25700 5.3022776186e+00 9.5163605206e-04 1.6708318157e+00 -2.8939655956e+00 1.6708318157e+00 2.8939655956e+00 
25800 5.3022776856e+00 9.3832594181e-04 1.6708033378e+00 -2.8939162706e+00 1.6708033378e+00 2.8939162706e+00 
25900 5.3022777519e+00 9.2505933643e-04 1.6707752578e+00 -2.8938676346e+00 1.6707752578e+00 2.8938676346e+00 
26000 5.3022778177e+00 9.1183908042e-04 1.6707475744e+00 -2.8938196854e+00 1.6707475744e+00 2.8938196854e+00 
26100 5.3022778829e+00 8.9866814671e-04 1.6707202861e+00 -2.8937724207e+00 1.6707202861e+00 2.8937724207e+00 
26200 5.3022779475e+00 8.8554961899e-04 1.6706933915e+00 -2.8937258380e+00 1.6706933915e+00 2.8937258380e+00 
26300 5.3022780115e+00 8.7248667469e-04 1.6706668891e+00 -2.8936799345e+00 1.6706668891e+00 2.8936799345e+00 
26400 5.3022780749e+00 8.5948256876e-04 1.6706407773e+00 -2.8936347074e+00 1.6706407773e+00 2.8936347074e+00 
26500 5.3022781378e+00 8.4654061804e-04 1.6706150542e+00 -2.8935901537e+00 1.6706150542e+00 2.8935901537e+00 
26600 5.3022782001e+00 8.3366418634e-04 1.6705897181e+00 -2.8935462703e+00 1.6705897181e+00 2.8935462703e+00 
26700 5.3022782619e+00 8.2085667023e-04 1.6705647669e+00 -2.8935030537e+00 1.6705647669e+00 2.8935030537e+00 
26800 5.3022783230e+00 8.0812148552e-04 1.6705401987e+00 -2.8934605003e+00 1.6705401987e+00 2.8934605003e+00 
26900 5.3022783837e+00 7.9546205435e-04 1.6705160114e+00 -2.8934186066e+00 1.6705160114e+00 2.8934186066e+00 
27000 5.3022784437e+00 7.8288179300e-04 1.6704922026e+00 -2.8933773685e+00 1.6704922026e+00 2.8933773685e+00 
27100 5.3022785032e+00 7.7038410038e-04 1.6704687699e+00 -2.8933367820e+00 1.6704687699e+00 2.8933367820e+00 
27200 5.3022785621e+00 7.5797234713e-04 1.6704457111e+00 -2.8932968429e+00 1.6704457111e+00 2.8932968429e+00 
27300 5.3022786205e+00 7.4564986539e-04 1.6704230234e+00 -2.8932575467e+00 1.6704230234e+00 2.8932575467e+00 
27400 5.3022786783e+00 7.3341993916e-04 1.6704007043e+00 -2.8932188888e+00 1.6704007043e+00 2.8932188888e+00 
27500 5.3022787355e+00 7.2128579537e-04 1.6703787509e+00 -2.8931808644e+00 1.6703787509e+00 2.8931808644e+00 
27600 5.3022787922e+00 7.0925059546e-04 1.6703571605e+00 -2.8931434687e+00 1.6703571605e+00 2.8931434687e+00 
27700 5.3022788483e+00 6.9731742763e-04 1.6703359300e+00 -2.8931066965e+00 1.6703359300e+00 2.8931066965e+00 
27800 5.3022789038e+00 6.8548929964e-04 1.6703150565e+00 -2.8930705425e+00 1.6703150565e+00 2.8930705425e+00 
27900 5.3022789587e+00 6.7376913218e-04 1.6702945368e+00 -2.8930350013e+00 1.6702945368e+00 2.8930350013e+00 
28000 5.3022790131e+00 6.6215975280e-04 1.6702743676e+00 -2.8930000673e+00 1.6702743676e+00 2.8930000673e+00 
28100 5.3022790669e+00 6.5066389043e-04 1.6702545458e+00 -2.8929657349e+00 1.6702545458e+00 2.8929657349e+00 
28200 5.3022791201e+00 6.3928417029e-04 1.6702350678e+00 -2.8929319981e+00 1.6702350678e+00 2.8929319981e+00 
28300 5.3022791727e+00 6.2802310951e-04 1.6702159303e+00 -2.8928988509e+00 1.6702159303e+00 2.8928988509e+00 
28400 5.3022792247e+00 6.1688311304e-04 1.6701971297e+00 -2.8928662873e+00 1.6701971297e+00 2.8928662873e+00 
28500 5.3022792762e+00 6.0586647018e-04 1.6701786623e+00 -2.8928343009e+00 1.6701786623e+00 2.8928343009e+00 
28600 5.3022793270e+00 5.9497535151e-04 1.6701605246e+00 -2.8928028854e+00 1.6701605246e+00 2.8928028854e+00 
28700 5.3022793772e+00 5.8421180630e-04 1.6701427127e+00 -2.8927720343e+00 1.6701427127e+00 2.8927720343e+00 
28800 5.3022794269e+00 5.7357776027e-04 1.6701252229e+00 -2.8927417410e+00 1.6701252229e+00 2.8927417410e+00 
28900 5.3022794759e+00 5.6307501391e-04 1.6701080512e+00 -2.8927119988e+00 1.6701080512e+00 2.8927119988e+00 
29000 5.3022795243e+00 5.5270524102e-04 1.6700911938e+00 -2.8926828009e+00 1.6700911938e+00 2.8926828009e+00 
29100 5.3022795721e+00 5.4246998773e-04 1.6700746467e+00 -2.8926541404e+00 1.6700746467e+00 2.8926541404e+00 
29200 5.3022796193e+00 5.3237067192e-04 1.6700584058e+00 -2.8926260104e+00 1.6700584058e+00 2.8926260104e+00 
29300 5.3022796659e+00 5.2240858284e-04 1.6700424671e+00 -2.8925984039e+00 1.6700424671e+00 2.8925984039e+00 
29400 5.3022797119e+00 5.1258488124e-04 1.6700268266e+00 -2.8925713136e+00 1.6700268266e+00 2.8925713136e+00 
29500 5.3022797572e+00 5.0290059965e-04 1.6700114800e+00 -2.8925447326e+00 1.6700114800e+00 2.8925447326e+00 
29600 5.3022798020e+00 4.9335664303e-04 1.6699964232e+00 -2.8925186535e+00 1.6699964232e+00 2.8925186535e+00 
29700 5.3022798461e+00 4.8395378974e-04 1.6699816521e+00 -2.8924930691e+00 1.6699816521e+00 2.8924930691e+00 
29800 5.3022798896e+00 4.7469269269e-04 1.6699671623e+00 -2.8924679720e+00 1.6699671623e+00 2.8924679720e+00 
29900 5.3022799325e+00 4.6557388077e-04 1.6699529497e+00 -2.8924433551e+00 1.6699529497e+00 2.8924433551e+00 
30000 5.3022799748e+00 4.5659776055e-04 1.6699390100e+00 -2.8924192108e+00 1.6699390100e+00 2.8924192108e+00 
30100 5.3022800165e+00 4.4776461815e-04 1.6699253389e+00 -2.8923955318e+00 1.6699253389e+00 2.8923955318e+00 
30200 5.3022800575e+00 4.3907462131e-04 1.6699119322e+00 -2.8923723107e+00 1.6699119322e+00 2.8923723107e+00 
30300 5.3022800980e+00 4.3052782171e-04 1.6698987856e+00 -2.8923495401e+00 1.6698987856e+00 2.8923495401e+00 
30400 5.3022801378e+00 4.2212415737e-04 1.6698858947e+00 -2.8923272125e+00 1.6698858947e+00 2.8923272125e+00 
30500 5.3022801771e+00 4.1386345531e-04 1.6698732554e+00 -2.8923053206e+00 1.6698732554e+00 2.8923053206e+00 
30600 5.3022802157e+00 4.0574543425e-04 1.6698608634e+00 -2.8922838570e+00 1.6698608634e+00 2.8922838570e+00 
30700 5.3022802538e+00 3.9776970757e-04 1.6698487143e+00 -2.8922628142e+00 1.6698487143e+00 2.8922628142e+00 
30800 5.3022802912e+00 3.8993578626e-04 1.6698368040e+00 -2.8922421849e+00 1.6698368040e+00 2.8922421849e+00 
30900 5.3022803281e+00 3.8224308206e-04 1.6698251281e+00 -2.8922219617e+00 1.6698251281e+00 2.8922219617e+00 
31000 5.3022803644e+00 3.7469091069e-04 1.6698136825e+00 -2.8922021373e+00 1.6698136825e+00 2.8922021373e+00 
31100 5.3022804001e+00 3.6727849514e-04 1.6698024630e+00 -2.8921827046e+00 1.6698024630e+00 2.8921827046e+00 
31200 5.3022804352e+00 3.6000496901e-04 1.6697914654e+00 -2.8921636561e+00 1.6697914654e+00 2.8921636561e+00 
31300 5.3022804698e+00 3.5286937999e-04 1.6697806854e+00 -2.8921449847e+00 1.6697806854e+00 2.8921449847e+00 
31400 5.3022805038e+00 3.4587069334e-04 1.6697701191e+00 -2.8921266833e+00 1.6697701191e+00 2.8921266833e+00 
31500 5.3022805372e+00 3.3900779536e-04 1.6697597623e+00 -2.8921087447e+00 1.6697597623e+00 2.8921087447e+00 
31600 5.3022805701e+00 3.3227949704e-04 1.6697496109e+00 -2.8920911620e+00 1.6697496109e+00 2.8920911620e+00 
31700 5.3022806025e+00 3.2568453755e-04 1.6697396609e+00 -2.8920739282e+00 1.6697396609e+00 2.8920739282e+00 
31800 5.3022806343e+00 3.1922158790e-04 1.6697299084e+00 -2.8920570362e+00 1.6697299084e+00 2.8920570362e+00 
31900 5.3022806655e+00 3.1288925452e-04 1.6697203493e+00 -2.8920404795e+00 1.6697203493e+00 2.8920404795e+00 
32000 5.3022806963e+00 3.0668608282e-04 1.6697109798e+00 -2.8920242510e+00 1.6697109798e+00 2.8920242510e+00 
32100 5.3022807265e+00 3.0061056084e-04 1.6697017960e+00 -2.8920083442e+00 1.6697017960e+00 2.8920083442e+00 
32200 5.3022807563e+00 2.9466112278e-04 1.6696927941e+00 -2.8919927524e+00 1.6696927941e+00 2.8919927524e+00 
32300 5.3022807855e+00 2.8883615254e-04 1.6696839703e+00 -2.8919774691e+00 1.6696839703e+00 2.8919774691e+00 
32400 5.3022808142e+00 2.8313398723e-04 1.6696753209e+00 -2.8919624879e+00 1.6696753209e+00 2.8919624879e+00 
32500 5.3022808425e+00 2.7755292068e-04 1.6696668422e+00 -2.8919478024e+00 1.6696668422e+00 2.8919478024e+00 
32600 5.3022808702e+00 2.7209120682e-04 1.6696585306e+00 -2.8919334062e+00 1.6696585306e+00 2.8919334062e+00 
32700 5.3022808975e+00 2.6674706310e-04 1.6696503825e+00 -2.8919192933e+00 1.6696503825e+00 2.8919192933e+00 
32800 5.3022809243e+00 2.6151867380e-04 1.6696423943e+00 -2.8919054575e+00 1.6696423943e+00 2.8919054575e+00 
32900 5.3022809507e+00 2.5640419330e-04 1.6696345628e+00 -2.8918918928e+00 1.6696345628e+00 2.8918918928e+00 
33000 5.3022809766e+00 2.5140174930e-04 1.6696268843e+00 -2.8918785933e+00 1.6696268843e+00 2.8918785933e+00 
33100 5.3022810020e+00 2.4650944594e-04 1.6696193557e+00 -2.8918655533e+00 1.6696193557e+00 2.8918655533e+00 
33200 5.3022810270e+00 2.4172536690e-04 1.6696119735e+00 -2.8918527669e+00 1.6696119735e+00 2.8918527669e+00 
33300 5.3022810516e+00 2.3704757835e-04 1.6696047345e+00 -2.8918402287e+00 1.6696047345e+00 2.8918402287e+00 
33400 5.3022810757e+00 2.3247413192e-04 1.6695976356e+00 -2.8918279330e+00 1.6695976356e+00 2.8918279330e+00 
33500 5.3022810995e+00 2.2800306750e-04 1.6695906736e+00 -2.8918158745e+00 1.6695906736e+00 2.8918158745e+00 
33600 5.3022811228e+00 2.2363241602e-04 1.6695838455e+00 -2.8918040479e+00 1.6695838455e+00 2.8918040479e+00 
33700 5.3022811457e+00 2.1936020211e-04 1.6695771483e+00 -2.8917924479e+00 1.6695771483e+00 2.8917924479e+00 
33800 5.3022811682e+00 2.1518444672e-04 1.6695705789e+00 -2.8917810695e+00 1.6695705789e+00 2.8917810695e+00 
33900 5.3022811904e+00 2.1110316957e-04 1.6695641346e+00 -2.8917699077e+00 1.6695641346e+00 2.8917699077e+00 
34000 5.3022812121e+00 2.0711439158e-04 1.6695578125e+00 -2.8917589575e+00 1.6695578125e+00 2.8917589575e+00 
34100 5.3022812335e+00 2.0321613722e-04 1.6695516099e+00 -2.8917482141e+00 1.6695516099e+00 2.8917482141e+00 
34200 5.3022812545e+00 1.9940643671e-04 1.6695455239e+00 -2.8917376730e+00 1.6695455239e+00 2.8917376730e+00 
34300 5.3022812751e+00 1.9568332817e-04 1.6695395520e+00 -2.8917273294e+00 1.6695395520e+00 2.8917273294e+00 
34400 5.3022812954e+00 1.9204485965e-04 1.6695336916e+00 -2.8917171789e+00 1.6695336916e+00 2.8917171789e+00 
34500 5.3022813153e+00 1.8848909112e-04 1.6695279402e+00 -2.8917072171e+00 1.6695279402e+00 2.8917072171e+00 
34600 5.3022813349e+00 1.8501409629e-04 1.6695222952e+00 -2.8916974397e+00 1.6695222952e+00 2.8916974397e+00 
34700 5.3022813541e+00 1.8161796444e-04 1.6695167543e+00 -2.8916878425e+00 1.6695167543e+00 2.8916878425e+00 
34800 5.3022813730e+00 1.7829880201e-04 1.6695113151e+00 -2.8916784215e+00 1.6695113151e+00 2.8916784215e+00 
34900 5.3022813915e+00 1.7505473430e-04 1.6695059752e+00 -2.8916691726e+00 1.6695059752e+00 2.8916691726e+00 
35000 5.3022814098e+00 1.7188390687e-04 1.6695007325e+00 -2.8916600920e+00 1.6695007325e+00 2.8916600920e+00 
35100 5.3022814277e+00 1.6878448702e-04 1.6694955847e+00 -2.8916511758e+00 1.6694955847e+00 2.8916511758e+00 
35200 5.3022814453e+00 1.6575466506e-04 1.6694905298e+00 -2.8916424203e+00 1.6694905298e+00 2.8916424203e+00 
35300 5.3022814626e+00 1.6279265559e-04 1.6694855656e+00 -2.8916338220e+00 1.6694855656e+00 2.8916338220e+00 
35400 5.3022814796e+00 1.5989669861e-04 1.6694806900e+00 -2.8916253774e+00 1.6694806900e+00 2.8916253774e+00 
35500 5.3022814963e+00 1.5706506060e-04 1.6694759012e+00 -2.8916170829e+00 1.6694759012e+00 2.8916170829e+00 
35600 5.3022815127e+00 1.5429603551e-04 1.6694711972e+00 -2.8916089353e+00 1.6694711972e+00 2.8916089353e+00 
35700 5.3022815289e+00 1.5158794565e-04 1.6694665761e+00 -2.8916009313e+00 1.6694665761e+00 2.8916009313e+00 
35800 5.3022815447e+00 1.4893914251e-04 1.6694620361e+00 -2.8915930678e+00 1.6694620361e+00 2.8915930678e+00 
35900 5.3022815603e+00 1.4634800750e-04 1.6694575754e+00 -2.8915853417e+00 1.6694575754e+00 2.8915853417e+00 
36000 5.3022815755e+00 1.4381295263e-04 1.6694531923e+00 -2.8915777499e+00 1.6694531923e+00 2.8915777499e+00 
36100 5.3022815906e+00 1.4133242107e-04 1.6694488851e+00 -2.8915702896e+00 1.6694488851e+00 2.8915702896e+00 
36200 5.3022816053e+00 1.3890488773e-04 1.6694446522e+00 -2.8915629580e+00 1.6694446522e+00 2.8915629580e+00 
36300 5.3022816198e+00 1.3652885965e-04 1.6694404920e+00 -2.8915557523e+00 1.6694404920e+00 2.8915557523e+00 
36400 5.3022816341e+00 1.3420287641e-04 1.6694364029e+00 -2.8915486699e+00 1.6694364029e+00 2.8915486699e+00 
36500 5.3022816481e+00 1.3192551044e-04 1.6694323835e+00 -2.8915417081e+00 1.6694323835e+00 2.8915417081e+00 
36600 5.3022816618e+00 1.2969536730e-04 1.6694284323e+00 -2.8915348644e+00 1.6694284323e+00 2.8915348644e+00 
36700 5.3022816753e+00 1.2751108582e-04 1.6694245479e+00 -2.8915281364e+00 1.6694245479e+00 2.8915281364e+00 
36800 5.3022816886e+00 1.2537133828e-04 1.6694207289e+00 -2.8915215216e+00 1.6694207289e+00 2.8915215216e+00 
36900 5.3022817016e+00 1.2327483046e-04 1.6694169740e+00 -2.8915150179e+00 1.6694169740e+00 2.8915150179e+00 
37000 5.3022817144e+00 1.2122030169e-04 1.6694132818e+00 -2.8915086229e+00 1.6694132818e+00 2.8915086229e+00 
37100 5.3022817270e+00 1.1920652478e-04 1.6694096512e+00 -2.8915023345e+00 1.6694096512e+00 2.8915023345e+00 
37200 5.3022817394e+00 1.1723230597e-04 1.6694060809e+00 -2.8914961505e+00 1.6694060809e+00 2.8914961505e+00 
37300 5.3022817515e+00 1.1529648479e-04 1.6694025697e+00 -2.8914900689e+00 1.6694025697e+00 2.8914900689e+00 
37400 5.3022817635e+00 1.1339793387e-04 1.6693991164e+00 -2.8914840878e+00 1.6693991164e+00 2.8914840878e+00 
37500 5.3022817752e+00 1.1153555877e-04 1.6693957201e+00 -2.8914782051e+00 1.6693957201e+00 2.8914782051e+00 
37600 5.3022817867e+00 1.0970829768e-04 1.6693923795e+00 -2.8914724190e+00 1.6693923795e+00 2.8914724190e+00 
37700 5.3022817980e+00 1.0791512114e-04 1.6693890936e+00 -2.8914667277e+00 1.6693890936e+00 2.8914667277e+00 
37800 5.3022818091e+00 1.0615503168e-04 1.6693858614e+00 -2.8914611294e+00 1.6693858614e+00 2.8914611294e+00 
37900 5.3022818200e+00 1.0442706350e-04 1.6693826820e+00 -2.8914556224e+00 1.6693826820e+00 2.8914556224e+00 
38000 5.3022818307e+00 1.0273028204e-04 1.6693795542e+00 -2.8914502051e+00 1.6693795542e+00 2.8914502051e+00 
38100 5.3022818412e+00 1.0106378355e-04 1.6693764773e+00 -2.8914448757e+00 1.6693764773e+00 2.8914448757e+00 
38200 5.3022818516e+00 9.9426694636e-05 1.6693734504e+00 -2.8914396328e+00 1.6693734504e+00 2.8914396328e+00 
38300 5.3022818617e+00 9.7818171774e-05 1.6693704724e+00 -2.8914344748e+00 1.6693704724e+00 2.8914344748e+00 
38400 5.3022818717e+00 9.6237400806e-05 1.6693675426e+00 -2.8914294003e+00 1.6693675426e+00 2.8914294003e+00 
38500 5.3022818815e+00 9.4683596406e-05 1.6693646602e+00 -2.8914244077e+00 1.6693646602e+00 2.8914244077e+00 
38600 5.3022818911e+00 9.3156001533e-05 1.6693618242e+00 -2.8914194958e+00 1.6693618242e+00 2.8914194958e+00 
38700 5.3022819006e+00 9.1653886855e-05 1.6693590341e+00 -2.8914146631e+00 1.6693590341e+00 2.8914146631e+00 
38800 5.3022819098e+00 9.0176550166e-05 1.6693562889e+00 -2.8914099083e+00 1.6693562889e+00 2.8914099083e+00 
38900 5.3022819190e+00 8.8723315792e-05 1.6693535879e+00 -2.8914052301e+00 1.6693535879e+00 2.8914052301e+00 
39000 5.3022819279e+00 8.7293533971e-05 1.6693509305e+00 -2.8914006273e+00 1.6693509305e+00 2.8914006273e+00 
39100 5.3022819367e+00 8.5886580223e-05 1.6693483159e+00 -2.8913960987e+00 1.6693483159e+00 2.8913960987e+00 
39200 5.3022819454e+00 8.4501854733e-05 1.6693457435e+00 -2.8913916431e+00 1.6693457435e+00 2.8913916431e+00 
39300 5.3022819538e+00 8.3138781689e-05 1.6693432125e+00 -2.8913872593e+00 1.6693432125e+00 2.8913872593e+00 
39400 5.3022819622e+00 8.1796808644e-05 1.6693407223e+00 -2.8913829462e+00 1.6693407223e+00 2.8913829462e+00 
39500 5.3022819704e+00 8.0475405858e-05 1.6693382724e+00 -2.8913787027e+00 1.6693382724e+00 2.8913787027e+00 
39600 5.3022819784e+00 7.9174065635e-05 1.6693358620e+00 -2.8913745278e+00 1.6693358620e+00 2.8913745278e+00 
39700 5.3022819863e+00 7.7892301673e-05 1.6693334905e+00 -2.8913704204e+00 1.6693334905e+00 2.8913704204e+00 
39800 5.3022819940e+00 7.6629648388e-05 1.6693311575e+00 -2.8913663795e+00 1.6693311575e+00 2.8913663795e+00 
39900 5.3022820017e+00 7.5385660262e-05 1.6693288623e+00 -2.8913624040e+00 1.6693288623e+00 2.8913624040e+00 
40000 5.3022820091e+00 7.4159911172e-05 1.6693266043e+00 -2.8913584931e+00 1.6693266043e+00 2.8913584931e+00 
40100 5.3022820165e+00 7.2951993740e-05 1.6693243831e+00 -2.8913546458e+00 1.6693243831e+00 2.8913546458e+00 
40200 5.3022820237e+00 7.1761518673e-05 1.6693221980e+00 -2.8913508611e+00 1.6693221980e+00 2.8913508611e+00 
40300 5.3022820308e+00 7.0588114110e-05 1.6693200486e+00 -2.8913471382e+00 1.6693200486e+00 2.8913471382e+00 
40400 5.3022820379e+00 7.0924584280e-05 1.6693200486e+00 -2.8913471382e+00 1.6693200486e+00 2.8913471382e+00 
40500 5.3022820448e+00 6.9762360432e-05 1.6693179242e+00 -2.8913434587e+00 1.6693179242e+00 2.8913434587e+00 
40600 5.3022820516e+00 7.0092063002e-05 1.6693179242e+00 -2.8913434587e+00 1.6693179242e+00 2.8913434587e+00 
40700 5.3022820584e+00 7.0422995443e-05 1.6693179242e+00 -2.8913434587e+00 1.6693179242e+00 2.8913434587e+00 
40800 5.3022820650e+00 7.0754954398e-05 1.6693179242e+00 -2.8913434587e+00 1.6693179242e+00 2.8913434587e+00 
40900 5.3022820714e+00 6.9591050962e-05 1.6693158049e+00 -2.8913397880e+00 1.6693158049e+00 2.8913397880e+00 
41000 5.3022820778e+00 6.9914758861e-05 1.6693158049e+00 -2.8913397880e+00 1.6693158049e+00 2.8913397880e+00 
41100 5.3022820841e+00 7.0238959659e-05 1.6693158049e+00 -2.8913397880e+00 1.6693158049e+00 2.8913397880e+00 
41200 5.3022820903e+00 7.0563462870e-05 1.6693158049e+00 -2.8913397880e+00 1.6693158049e+00 2.8913397880e+00 
41300 5.3022820963e+00 7.0888078517e-05 1.6693158049e+00 -2.8913397880e+00 1.6693158049e+00 2.8913397880e+00 
41400 5.3022821021e+00 6.9713118755e-05 1.6693136817e+00 -2.8913361104e+00 1.6693136817e+00 2.8913361104e+00 
41500 5.3022821079e+00 7.0027683881e-05 1.6693136817e+00 -2.8913361104e+00 1.6693136817e+00 2.8913361104e+00 
41600 5.3022821137e+00 7.0341878095e-05 1.6693136817e+00 -2.8913361104e+00 1.6693136817e+00 2.8913361104e+00 
41700 5.3022821193e+00 7.0655530581e-05 1.6693136817e+00 -2.8913361104e+00 1.6693136817e+00 2.8913361104e+00 
41800 5.3022821249e+00 7.0968472302e-05 1.6693136817e+00 -2.8913361104e+00 1.6693136817e+00 2.8913361104e+00 
41900 5.3022821301e+00 6.9779337254e-05 1.6693115560e+00 -2.8913324286e+00 1.6693115560e+00 2.8913324286e+00 
42000 5.3022821355e+00 7.0080638396e-05 1.6693115560e+00 -2.8913324286e+00 1.6693115560e+00 2.8913324286e+00 
42100 5.3022821407e+00 7.0380814908e-05 1.6693115560e+00 -2.8913324286e+00 1.6693115560e+00 2.8913324286e+00 
42200 5.3022821459e+00 7.0679720970e-05 1.6693115560e+00 -2.8913324286e+00 1.6693115560e+00 2.8913324286e+00 
42300 5.3022821509e+00 7.0977213288e-05 1.6693115560e+00 -2.8913324286e+00 1.6693115560e+00 2.8913324286e+00 
42400 5.3022821557e+00 6.9771766302e-05 1.6693094301e+00 -2.8913287464e+00 1.6693094301e+00 2.8913287464e+00 
42500 5.3022821606e+00 7.0056290712e-05 1.6693094301e+00 -2.8913287464e+00 1.6693094301e+00 2.8913287464e+00 
42600 5.3022821654e+00 7.0339068401e-05 1.6693094301e+00 -2.8913287464e+00 1.6693094301e+00 2.8913287464e+00 
42700 5.3022821701e+00 7.0619981424e-05 1.6693094301e+00 -2.8913287464e+00 1.6693094301e+00 2.8913287464e+00 
42800 5.3022821747e+00 7.0898914696e-05 1.6693094301e+00 -2.8913287464e+00 1.6693094301e+00 2.8913287464e+00 
42900 5.3022821791e+00 6.9676025135e-05 1.6693073065e+00 -2.8913250682e+00 1.6693073065e+00 2.8913250682e+00 
43000 5.3022821835e+00 6.9940954770e-05 1.6693073065e+00 -2.8913250682e+00 1.6693073065e+00 2.8913250682e+00 
43100 5.3022821879e+00 7.0203657391e-05 1.6693073065e+00 -2.8913250682e+00 1.6693073065e+00 2.8913250682e+00 
43200 5.3022821922e+00 7.0464043807e-05 1.6693073065e+00 -2.8913250682e+00 1.6693073065e+00 2.8913250682e+00 
43300 5.3022821964e+00 7.0722027662e-05 1.6693073065e+00 -2.8913250682e+00 1.6693073065e+00 2.8913250682e+00 
43400 5.3022822004e+00 6.9481533049e-05 1.6693051882e+00 -2.8913213992e+00 1.6693051882e+00 2.8913213992e+00 
43500 5.3022822045e+00 6.9724777712e-05 1.6693051882e+00 -2.8913213992e+00 1.6693051882e+00 2.8913213992e+00 
43600 5.3022822085e+00 6.9965457793e-05 1.6693051882e+00 -2.8913213992e+00 1.6693051882e+00 2.8913213992e+00 
43700 5.3022822124e+00 7.0203512121e-05 1.6693051882e+00 -2.8913213992e+00 1.6693051882e+00 2.8913213992e+00 
43800 5.3022822163e+00 7.0438882073e-05 1.6693051882e+00 -2.8913213992e+00 1.6693051882e+00 2.8913213992e+00 
43900 5.3022822201e+00 7.0671511634e-05 1.6693051882e+00 -2.8913213992e+00 1.6693051882e+00 2.8913213992e+00 
44000 5.3022822238e+00 7.0901347468e-05 1.6693051882e+00 -2.8913213992e+00 1.6693051882e+00 2.8913213992e+00 
44100 5.3022822273e+00 6.9628549705e-05 1.6693030645e+00 -2.8913177209e+00 1.6693030645e+00 2.8913177209e+00 
44200 5.3022822309e+00 6.9842937643e-05 1.6693030645e+00 -2.8913177209e+00 1.6693030645e+00 2.8913177209e+00 
44300 5.3022822344e+00 7.0054467503e-05 1.6693030645e+00 -2.8913177209e+00 1.6693030645e+00 2.8913177209e+00 
44400 5.3022822379e+00 7.0263109929e-05 1.6693030645e+00 -2.8913177209e+00 1.6693030645e+00 2.8913177209e+00 
44500 5.3022822413e+00 7.0468837663e-05 1.6693030645e+00 -2.8913177209e+00 1.6693030645e+00 2.8913177209e+00 
44600 5.3022822446e+00 7.0671625572e-05 1.6693030645e+00 -2.8913177209e+00 1.6693030645e+00 2.8913177209e+00 
44700 5.3022822479e+00 7.0871450665e-05 1.6693030645e+00 -2.8913177209e+00 1.6693030645e+00 2.8913177209e+00 
44800 5.3022822510e+00 6.9569130455e-05 1.6693009417e+00 -2.8913140441e+00 1.6693009417e+00 2.8913140441e+00 
44900 5.3022822541e+00 6.9753262402e-05 1.6693009417e+00 -2.8913140441e+00 1.6693009417e+00 2.8913140441e+00 
45000 5.3022822573e+00 6.9934454603e-05 1.6693009417e+00 -2.8913140441e+00 1.6693009417e+00 2.8913140441e+00 
45100 5.3022822603e+00 7.0112705550e-05 1.6693009417e+00 -2.8913140441e+00 1.6693009417e+00 2.8913140441e+00 
45200 5.3022822633e+00 7.0288015131e-05 1.6693009417e+00 -2.8913140441e+00 1.6693009417e+00 2.8913140441e+00 
45300 5.3022822663e+00 7.0460384635e-05 1.6693009417e+00 -2.8913140441e+00 1.6693009417e+00 2.8913140441e+00 
45400 5.3022822692e+00 7.0629816745e-05 1.6693009417e+00 -2.8913140441e+00 1.6693009417e+00 2.8913140441e+00 
45500 5.3022822720e+00 7.0796315533e-05 1.6693009417e+00 -2.8913140441e+00 1.6693009417e+00 2.8913140441e+00 
45600 5.3022822746e+00 6.9462308380e-05 1.6692988212e+00 -2.8913103712e+00 1.6692988212e+00 2.8913103712e+00 
45700 5.3022822774e+00 6.9613261526e-05 1.6692988212e+00 -2.8913103712e+00 1.6692988212e+00 2.8913103712e+00 
45800 5.3022822801e+00 6.9761380790e-05 1.6692988212e+00 -2.8913103712e+00 1.6692988212e+00 2.8913103712e+00 
45900 5.3022822827e+00 6.9906688498e-05 1.6692988212e+00 -2.8913103712e+00 1.6692988212e+00 2.8913103712e+00 
46000 5.3022822854e+00 7.0049207536e-05 1.6692988212e+00 -2.8913103712e+00 1.6692988212e+00 2.8913103712e+00 
46100 5.3022822879e+00 7.0188961341e-05 1.6692988212e+00 -2.8913103712e+00 1.6692988212e+00 2.8913103712e+00 
46200 5.3022822904e+00 7.0325973883e-05 1.6692988212e+00 -2.8913103712e+00 1.6692988212e+00 2.8913103712e+00 
46300 5.3022822929e+00 7.0460269658e-05 1.6692988212e+00 -2.8913103712e+00 1.6692988212e+00 2.8913103712e+00 
46400 5.3022822953e+00 7.0591873674e-05 1.6692988212e+00 -2.8913103712e+00 1.6692988212e+00 2.8913103712e+00 
46500 5.3022822977e+00 7.0720811437e-05 1.6692988212e+00 -2.8913103712e+00 1.6692988212e+00 2.8913103712e+00 
46600 5.3022822999e+00 6.9351121063e-05 1.6692967029e+00 -2.8913067023e+00 1.6692967029e+00 2.8913067023e+00 
46700 5.3022823022e+00 6.9465118548e-05 1.6692967029e+00 -2.8913067023e+00 1.6692967029e+00 2.8913067023e+00 
46800 5.3022823045e+00 6.9576608009e-05 1.6692967029e+00 -2.8913067023e+00 1.6692967029e+00 2.8913067023e+00 
46900 5.3022823067e+00 6.9685629583e-05 1.6692967029e+00 -2.8913067023e+00 1.6692967029e+00 2.8913067023e+00 
47000 5.3022823089e+00 6.9792223063e-05 1.6692967029e+00 -2.8913067023e+00 1.6692967029e+00 2.8913067023e+00 
47100 5.3022823110e+00 6.9896427894e-05 1.6692967029e+00 -2.8913067023e+00 1.6692967029e+00 2.8913067023e+00 
47200 5.3022823131e+00 6.9998283166e-05 1.6692967029e+00 -2.8913067023e+00 1.6692967029e+00 2.8913067023e+00 
47300 5.3022823152e+00 7.0097827604e-05 1.6692967029e+00 -2.8913067023e+00 1.6692967029e+00 2.8913067023e+00 
47400 5.3022823172e+00 7.0195099570e-05 1.6692967029e+00 -2.8913067023e+00 1.6692967029e+00 2.8913067023e+00 
47500 5.3022823192e+00 7.0290137054e-05 1.6692967029e+00 -2.8913067023e+00 1.6692967029e+00 2.8913067023e+00 
47600 5.3022823212e+00 7.0382977669e-05 1.6692967029e+00 -2.8913067023e+00 1.6692967029e+00 2.8913067023e+00 
47700 5.3022823231e+00 7.0473658648e-05 1.6692967029e+00 -2.8913067023e+00 1.6692967029e+00 2.8913067023e+00 
47800 5.3022823250e+00 7.0562216839e-05 1.6692967029e+00 -2.8913067023e+00 1.6692967029e+00 2.8913067023e+00 
47900 5.3022823269e+00 7.0648688705e-05 1.6692967029e+00 -2.8913067023e+00 1.6692967029e+00 2.8913067023e+00 
48000 5.3022823287e+00 7.0733110311e-05 1.6692967029e+00 -2.8913067023e+00 1.6692967029e+00 2.8913067023e+00 
48100 5.3022823304e+00 6.9319260173e-05 1.6692945842e+00 -2.8913030327e+00 1.6692945842e+00 2.8913030327e+00 
48200 5.3022823321e+00 6.9390000285e-05 1.6692945842e+00 -2.8913030327e+00 1.6692945842e+00 2.8913030327e+00 
48300 5.3022823339e+00 6.9458874853e-05 1.6692945842e+00 -2.8913030327e+00 1.6692945842e+00 2.8913030327e+00 
48400 5.3022823356e+00 6.9525931165e-05 1.6692945842e+00 -2.8913030327e+00 1.6692945842e+00 2.8913030327e+00 
48500 5.3022823373e+00 6.9591215348e-05 1.6692945842e+00 -2.8913030327e+00 1.6692945842e+00 2.8913030327e+00 
48600 5.3022823389e+00 6.9654772381e-05 1.6692945842e+00 -2.8913030327e+00 1.6692945842e+00 2.8913030327e+00 
48700 5.3022823406e+00 6.9716646108e-05 1.6692945842e+00 -2.8913030327e+00 1.6692945842e+00 2.8913030327e+00 
48800 5.3022823422e+00 6.9776879249e-05 1.6692945842e+00 -2.8913030327e+00 1.6692945842e+00 2.8913030327e+00 
48900 5.3022823437e+00 6.9835513416e-05 1.6692945842e+00 -2.8913030327e+00 1.6692945842e+00 2.8913030327e+00 
49000 5.3022823453e+00 6.9892589129e-05 1.6692945842e+00 -2.8913030327e+00 1.6692945842e+00 2.8913030327e+00 
49100 5.3022823468e+00 6.9948145829e-05 1.6692945842e+00 -2.8913030327e+00 1.6692945842e+00 2.8913030327e+00 
49200 5.3022823483e+00 7.0002221897e-05 1.6692945842e+00 -2.8913030327e+00 1.6692945842e+00 2.8913030327e+00 
49300 5.3022823497e+00 7.0054854671e-05 1.6692945842e+00 -2.8913030327e+00 1.6692945842e+00 2.8913030327e+00 
49400 5.3022823512e+00 7.0106080461e-05 1.6692945842e+00 -2.8913030327e+00 1.6692945842e+00 2.8913030327e+00 
49500 5.3022823526e+00 7.0155934573e-05 1.6692945842e+00 -2.8913030327e+00 1.6692945842e+00 2.8913030327e+00 
49600 5.3022823540e+00 7.0204451322e-05 1.6692945842e+00 -2.8913030327e+00 1.6692945842e+00 2.8913030327e+00 
49700 5.3022823553e+00 7.0251664058e-05 1.6692945842e+00 -2.8913030327e+00 1.6692945842e+00 2.8913030327e+00 
49800 5.3022823567e+00 7.0297605177e-05 1.6692945842e+00 -2.8913030327e+00 1.6692945842e+00 2.8913030327e+00 
49900 5.3022823580e+00 7.0342306153e-05 1.6692945842e+00 -2.8913030327e+00 1.6692945842e+00 2.8913030327e+00 
50000 5.3022823593e+00 7.0385797546e-05 1.6692945842e+00 -2.8913030327e+00 1.6692945842e+00 2.8913030327e+00 
50100 5.3022823606e+00 7.0428109031e-05 1.6692945842e+00 -2.8913030327e+00 1.6692945842e+00 2.8913030327e+00 
50200 5.3022823618e+00 7.0469269416e-05 1.6692945842e+00 -2.8913030327e+00 1.6692945842e+00 2.8913030327e+00 
50300 5.3022823631e+00 7.0509306664e-05 1.6692945842e+00 -2.8913030327e+00 1.6692945842e+00 2.8913030327e+00 
50400 5.3022823643e+00 7.0548247911e-05 1.6692945842e+00 -2.8913030327e+00 1.6692945842e+00 2.8913030327e+00 
50500 5.3022823655e+00 7.0586119492e-05 1.6692945842e+00 -2.8913030327e+00 1.6692945842e+00 2.8913030327e+00 
50600 5.3022823667e+00 7.0622946959e-05 1.6692945842e+00 -2.8913030327e+00 1.6692945842e+00 2.8913030327e+00 
50700 5.3022823678e+00 7.0658755102e-05 1.6692945842e+00 -2.8913030327e+00 1.6692945842e+00 2.8913030327e+00 
50800 5.3022823689e+00 7.0693567973e-05 1.6692945842e+00 -2.8913030327e+00 1.6692945842e+00 2.8913030327e+00 
50900 5.3022823700e+00 7.0727408902e-05 1.6692945842e+00 -2.8913030327e+00 1.6692945842e+00 2.8913030327e+00 
51000 5.3022823710e+00 6.9264149282e-05 1.6692924657e+00 -2.8912993634e+00 1.6692924657e+00 2.8912993634e+00 
51100 5.3022823720e+00 6.9286427149e-05 1.6692924657e+00 -2.8912993634e+00 1.6692924657e+00 2.8912993634e+00 
51200 5.3022823731e+00 6.9307877804e-05 1.6692924657e+00 -2.8912993634e+00 1.6692924657e+00 2.8912993634e+00 
51300 5.3022823741e+00 6.9328534723e-05 1.6692924657e+00 -2.8912993634e+00 1.6692924657e+00 2.8912993634e+00 
51400 5.3022823752e+00 6.9348430008e-05 1.6692924657e+00 -2.8912993634e+00 1.6692924657e+00 2.8912993634e+00 
51500 5.3022823762e+00 6.9367594423e-05 1.6692924657e+00 -2.8912993634e+00 1.6692924657e+00 2.8912993634e+00 
51600 5.3022823772e+00 6.9386057425e-05 1.6692924657e+00 -2.8912993634e+00 1.6692924657e+00 2.8912993634e+00 
51700 5.3022823781e+00 6.9403847197e-05 1.6692924657e+00 -2.8912993634e+00 1.6692924657e+00 2.8912993634e+00 
51800 5.3022823791e+00 6.9420990689e-05 1.6692924657e+00 -2.8912993634e+00 1.6692924657e+00 2.8912993634e+00 
51900 5.3022823800e+00 6.9437513639e-05 1.6692924657e+00 -2.8912993634e+00 1.6692924657e+00 2.8912993634e+00 
52000 5.3022823809e+00 6.9453440625e-05 1.6692924657e+00 -2.8912993634e+00 1.6692924657e+00 2.8912993634e+00 
52100 5.3022823819e+00 6.9468795081e-05 1.6692924657e+00 -2.8912993634e+00 1.6692924657e+00 2.8912993634e+00 
52200 5.3022823827e+00 6.9483599345e-05 1.6692924657e+00 -2.8912993634e+00 1.6692924657e+00 2.8912993634e+00 
52300 5.3022823836e+00 6.9497874689e-05 1.6692924657e+00 -2.8912993634e+00 1.6692924657e+00 2.8912993634e+00 
52400 5.3022823845e+00 6.9511641355e-05 1.6692924657e+00 -2.8912993634e+00 1.6692924657e+00 2.8912993634e+00 
52500 5.3022823853e+00 6.9524918589e-05 1.6692924657e+00 -2.8912993634e+00 1.6692924657e+00 2.8912993634e+00 
52600 5.3022823862e+00 6.9537724672e-05 1.6692924657e+00 -2.8912993634e+00 1.6692924657e+00 2.8912993634e+00 
52700 5.3022823870e+00 6.9550076962e-05 1.6692924657e+00 -2.8912993634e+00 1.6692924657e+00 2.8912993634e+00 
52800 5.3022823878e+00 6.9561991922e-05 1.6692924657e+00 -2.8912993634e+00 1.6692924657e+00 2.8912993634e+00 
52900 5.3022823886e+00 6.9573485153e-05 1.6692924657e+00 -2.8912993634e+00 1.6692924657e+00 2.8912993634e+00 
53000 5.3022823894e+00 6.9584571432e-05 1.6692924657e+00 -2.8912993634e+00 1.6692924657e+00 2.8912993634e+00 
53100 5.3022823901e+00 6.9595264739e-05 1.6692924657e+00 -2.8912993634e+00 1.6692924657e+00 2.8912993634e+00 
53200 5.3022823909e+00 6.9605578298e-05 1.6692924657e+00 -2.8912993634e+00 1.6692924657e+00 2.8912993634e+00 
53300 5.3022823916e+00 6.9615524598e-05 1.6692924657e+00 -2.8912993634e+00 1.6692924657e+00 2.8912993634e+00 
53400 5.3022823924e+00 6.9625115434e-05 1.6692924657e+00 -2.8912993634e+00 1.6692924657e+00 2.8912993634e+00 
53500 5.3022823931e+00 6.9634361929e-05 1.6692924657e+00 -2.8912993634e+00 1.6692924657e+00 2.8912993634e+00 
53600 5.3022823938e+00 6.9643274574e-05 1.6692924657e+00 -2.8912993634e+00 1.6692924657e+00 2.8912993634e+00 
53700 5.3022823945e+00 6.9651863250e-05 1.6692924657e+00 -2.8912993634e+00 1.6692924657e+00 2.8912993634e+00 
53800 5.3022823952e+00 6.9660137260e-05 1.6692924657e+00 -2.8912993634e+00 1.6692924657e+00 2.8912993634e+00 
53900 5.3022823958e+00 6.9668105359e-05 1.6692924657e+00 -2.8912993634e+00 1.6692924657e+00 2.8912993634e+00 
54000 5.3022823965e+00 6.9675775776e-05 1.6692924657e+00 -2.8912993634e+00 1.6692924657e+00 2.8912993634e+00 
54100 5.3022823972e+00 6.9683156249e-05 1.6692924657e+00 -2.8912993634e+00 1.6692924657e+00 2.8912993634e+00 
54200 5.3022823978e+00 6.9690254046e-05 1.6692924657e+00 -2.8912993634e+00 1.6692924657e+00 2.8912993634e+00 
54300 5.3022823984e+00 6.9697075989e-05 1.6692924657e+00 -2.8912993634e+00 1.6692924657e+00 2.8912993634e+00 
54400 5.3022823990e+00 6.9703628486e-05 1.6692924657e+00 -2.8912993634e+00 1.6692924657e+00 2.8912993634e+00 
54500 5.3022823997e+00 6.9709917550e-05 1.6692924657e+00 -2.8912993634e+00 1.6692924657e+00 2.8912993634e+00 
54600 5.3022824002e+00 6.9715948820e-05 1.6692924657e+00 -2.8912993634e+00 1.6692924657e+00 2.8912993634e+00 
54700 5.3022824008e+00 6.9721727593e-05 1.6692924657e+00 -2.8912993634e+00 1.6692924657e+00 2.8912993634e+00 
54800 5.3022824014e+00 6.9727258835e-05 1.6692924657e+00 -2.8912993634e+00 1.6692924657e+00 2.8912993634e+00 
54900 5.3022824020e+00 6.9732547210e-05 1.6692924657e+00 -2.8912993634e+00 1.6692924657e+00 2.8912993634e+00 
55000 5.3022824025e+00 6.9737597097e-05 1.6692924657e+00 -2.8912993634e+00 1.6692924657e+00 2.8912993634e+00 
55100 5.3022824031e+00 6.9742412613e-05 1.6692924657e+00 -2.8912993634e+00 1.6692924657e+00 2.8912993634e+00 
55200 5.3022824036e+00 6.9746997625e-05 1.6692924657e+00 -2.8912993634e+00 1.6692924657e+00 2.8912993634e+00 
55300 5.3022824042e+00 6.9751355777e-05 1.6692924657e+00 -2.8912993634e+00 1.6692924657e+00 2.8912993634e+00 
55400 5.3022824047e+00 6.9755490502e-05 1.6692924657e+00 -2.8912993634e+00 1.6692924657e+00 2.8912993634e+00 
55500 5.3022824052e+00 6.9759405039e-05 1.6692924657e+00 -2.8912993634e+00 1.6692924657e+00 2.8912993634e+00 
55600 5.3022824057e+00 6.9763102450e-05 1.6692924657e+00 -2.8912993634e+00 1.6692924657e+00 2.8912993634e+00 
55700 5.3022824062e+00 6.9766585639e-05 1.6692924657e+00 -2.8912993634e+00 1.6692924657e+00 2.8912993634e+00 
55800 5.3022824067e+00 6.9769857361e-05 1.6692924657e+00 -2.8912993634e+00 1.6692924657e+00 2.8912993634e+00 
55900 5.3022824072e+00 6.9772920236e-05 1.6692924657e+00 -2.8912993634e+00 1.6692924657e+00 2.8912993634e+00 
56000 5.3022824077e+00 6.9775776768e-05 1.6692924657e+00 -2.8912993634e+00 1.6692924657e+00 2.8912993634e+00 
56100 5.3022824081e+00 6.9778429353e-05 1.6692924657e+00 -2.8912993634e+00 1.6692924657e+00 2.8912993634e+00 
56200 5.3022824086e+00 6.9780880292e-05 1.6692924657e+00 -2.8912993634e+00 1.6692924657e+00 2.8912993634e+00 
56300 5.3022824090e+00 6.9783131802e-05 1.6692924657e+00 -2.8912993634e+00 1.6692924657e+00 2.8912993634e+00 
56400 5.3022824095e+00 6.9785186028e-05 1.6692924657e+00 -2.8912993634e+00 1.6692924657e+00 2.8912993634e+00 
56500 5.3022824099e+00 6.9787045051e-05 1.6692924657e+00 -2.8912993634e+00 1.6692924657e+00 2.8912993634e+00 
56600 5.3022824104e+00 6.9788710899e-05 1.6692924657e+00 -2.8912993634e+00 1.6692924657e+00 2.8912993634e+00 
56700 5.3022824108e+00 6.9790185556e-05 1.6692924657e+00 -2.8912993634e+00 1.6692924657e+00 2.8912993634e+00 
56800 5.3022824112e+00 6.9791470970e-05 1.6692924657e+00 -2.8912993634e+00 1.6692924657e+00 2.8912993634e+00 
56900 5.3022824116e+00 6.9792569061e-05 1.6692924657e+00 -2.8912993634e+00 1.6692924657e+00 2.8912993634e+00 
57000 5.3022824120e+00 6.9793481724e-05 1.6692924657e+00 -2.8912993634e+00 1.6692924657e+00 2.8912993634e+00 
57100 5.3022824124e+00 6.9794210844e-05 1.6692924657e+00 -2.8912993634e+00 1.6692924657e+00 2.8912993634e+00 
57200 5.3022824128e+00 6.9794758296e-05 1.6692924657e+00 -2.8912993634e+00 1.6692924657e+00 2.8912993634e+00 
57300 5.3022824132e+00 6.9795125953e-05 1.6692924657e+00 -2.8912993634e+00 1.6692924657e+00 2.8912993634e+00 
57400 5.3022824136e+00 6.9795315689e-05 1.6692924657e+00 -2.8912993634e+00 1.6692924657e+00 2.8912993634e+00 
57500 5.3022824139e+00 6.9795329387e-05 1.6692924657e+00 -2.8912993634e+00 1.6692924657e+00 2.8912993634e+00 
57600 5.3022824143e+00 6.9795168941e-05 1.6692924657e+00 -2.8912993634e+00 1.6692924657e+00 2.8912993634e+00 
57700 5.3022824147e+00 6.9794836259e-05 1.6692924657e+00 -2.8912993634e+00 1.6692924657e+00 2.8912993634e+00 
57800 5.3022824150e+00 6.9794333271e-05 1.6692924657e+00 -2.8912993634e+00 1.6692924657e+00 2.8912993634e+00 
57900 5.3022824154e+00 6.9793661928e-05 1.6692924657e+00 -2.8912993634e+00 1.6692924657e+00 2.8912993634e+00 
58000 5.3022824157e+00 6.9792824205e-05 1.6692924657e+00 -2.8912993634e+00 1.6692924657e+00 2.8912993634e+00 
58100 5.3022824161e+00 6.9791822107e-05 1.6692924657e+00 -2.8912993634e+00 1.6692924657e+00 2.8912993634e+00 
58200 5.3022824164e+00 6.9790657663e-05 1.6692924657e+00 -2.8912993634e+00 1.6692924657e+00 2.8912993634e+00 
58300 5.3022824167e+00 6.9789332937e-05 1.6692924657e+00 -2.8912993634e+00 1.6692924657e+00 2.8912993634e+00 
58400 5.3022824170e+00 6.9787850026e-05 1.6692924657e+00 -2.8912993634e+00 1.6692924657e+00 2.8912993634e+00 
58500 5.3022824174e+00 6.9786211059e-05 1.6692924657e+00 -2.8912993634e+00 1.6692924657e+00 2.8912993634e+00 
58600 5.3022824177e+00 6.9784418198e-05 1.6692924657e+00 -2.8912993634e+00 1.6692924657e+00 2.8912993634e+00 
58700 5.3022824180e+00 6.9782473643e-05 1.6692924657e+00 -2.8912993634e+00 1.6692924657e+00 2.8912993634e+00 
58800 5.3022824183e+00 6.9780379626e-05 1.6692924657e+00 -2.8912993634e+00 1.6692924657e+00 2.8912993634e+00 
58900 5.3022824186e+00 6.9778138417e-05 1.6692924657e+00 -2.8912993634e+00 1.6692924657e+00 2.8912993634e+00 
59000 5.3022824189e+00 6.9775752320e-05 1.6692924657e+00 -2.8912993634e+00 1.6692924657e+00 2.8912993634e+00 
59100 5.3022824191e+00 6.9773223673e-05 1.6692924657e+00 -2.8912993634e+00 1.6692924657e+00 2.8912993634e+00 
59200 5.3022824194e+00 6.9770554849e-05 1.6692924657e+00 -2.8912993634e+00 1.6692924657e+00 2.8912993634e+00 
59300 5.3022824197e+00 6.9767748253e-05 1.6692924657e+00 -2.8912993634e+00 1.6692924657e+00 2.8912993634e+00 
59400 5.3022824200e+00 6.9764806327e-05 1.6692924657e+00 -2.8912993634e+00 1.6692924657e+00 2.8912993634e+00 
59500 5.3022824203e+00 6.9761731541e-05 1.6692924657e+00 -2.8912993634e+00 1.6692924657e+00 2.8912993634e+00 
59600 5.3022824205e+00 6.9758526394e-05 1.6692924657e+00 -2.8912993634e+00 1.6692924657e+00 2.8912993634e+00 
59700 5.3022824208e+00 6.9755193419e-05 1.6692924657e+00 -2.8912993634e+00 1.6692924657e+00 2.8912993634e+00 
59800 5.3022824210e+00 6.9751735172e-05 1.6692924657e+00 -2.8912993634e+00 1.6692924657e+00 2.8912993634e+00 
59900 5.3022824213e+00 6.9748154239e-05 1.6692924657e+00 -2.8912993634e+00 1.6692924657e+00 2.8912993634e+00 
60000 5.3022824215e+00 6.9744453227e-05 1.6692924657e+00 -2.8912993634e+00 1.6692924657e+00 2.8912993634e+00 
60100 5.3022824218e+00 6.9740634768e-05 1.6692924657e+00 -2.8912993634e+00 1.6692924657e+00 2.8912993634e+00 
60200 5.3022824220e+00 6.9736701515e-05 1.6692924657e+00 -2.8912993634e+00 1.6692924657e+00 2.8912993634e+00 
60300 5.3022824223e+00 6.9732656139e-05 1.6692924657e+00 -2.8912993634e+00 1.6692924657e+00 2.8912993634e+00 
60400 5.3022824225e+00 6.9728501329e-05 1.6692924657e+00 -2.8912993634e+00 1.6692924657e+00 2.8912993634e+00 
60500 5.3022824227e+00 6.9724239790e-05 1.6692924657e+00 -2.8912993634e+00 1.6692924657e+00 2.8912993634e+00 
60600 5.3022824230e+00 6.9719874240e-05 1.6692924657e+00 -2.8912993634e+00 1.6692924657e+00 2.8912993634e+00 
60700 5.3022824232e+00 6.9715407407e-05 1.6692924657e+00 -2.8912993634e+00 1.6692924657e+00 2.8912993634e+00 
60800 5.3022824234e+00 6.9710842028e-05 1.6692924657e+00 -2.8912993634e+00 1.6692924657e+00 2.8912993634e+00 
60900 5.3022824236e+00 6.9706180850e-05 1.6692924657e+00 -2.8912993634e+00 1.6692924657e+00 2.8912993634e+00 
61000 5.3022824238e+00 6.9701426624e-05 1.6692924657e+00 -2.8912993634e+00 1.6692924657e+00 2.8912993634e+00 
61100 5.3022824240e+00 6.9696582102e-05 1.6692924657e+00 -2.8912993634e+00 1.6692924657e+00 2.8912993634e+00 
61200 5.3022824242e+00 6.9691650040e-05 1.6692924657e+00 -2.8912993634e+00 1.6692924657e+00 2.8912993634e+00 
61300 5.3022824244e+00 6.9686633188e-05 1.6692924657e+00 -2.8912993634e+00 1.6692924657e+00 2.8912993634e+00 
61400 5.3022824246e+00 6.9681534299e-05 1.6692924657e+00 -2.8912993634e+00 1.6692924657e+00 2.8912993634e+00 
61500 5.3022824248e+00 6.9676356116e-05 1.6692924657e+00 -2.8912993634e+00 1.6692924657e+00 2.8912993634e+00 
61600 5.3022824250e+00 6.9671101377e-05 1.6692924657e+00 -2.8912993634e+00 1.6692924657e+00 2.8912993634e+00 
61700 5.3022824252e+00 6.9665772811e-05 1.6692924657e+00 -2.8912993634e+00 1.6692924657e+00 2.8912993634e+00 
61800 5.3022824254e+00 6.9660373133e-05 1.6692924657e+00 -2.8912993634e+00 1.6692924657e+00 2.8912993634e+00 
61900 5.3022824256e+00 6.9654905049e-05 1.6692924657e+00 -2.8912993634e+00 1.6692924657e+00 2.8912993634e+00 
62000 5.3022824258e+00 6.9649371247e-05 1.6692924657e+00 -2.8912993634e+00 1.6692924657e+00 2.8912993634e+00 
62100 5.3022824260e+00 6.9643774400e-05 1.6692924657e+00 -2.8912993634e+00 1.6692924657e+00 2.8912993634e+00 
62200 5.3022824261e+00 6.9638117160e-05 1.6692924657e+00 -2.8912993634e+00 1.6692924657e+00 2.8912993634e+00 
62300 5.3022824263e+00 6.9632402162e-05 1.6692924657e+00 -2.8912993634e+00 1.6692924657e+00 2.8912993634e+00 
62400 5.3022824265e+00 6.9626632016e-05 1.6692924657e+00 -2.8912993634e+00 1.6692924657e+00 2.8912993634e+00 
62500 5.3022824267e+00 6.9620809310e-05 1.6692924657e+00 -2.8912993634e+00 1.6692924657e+00 2.8912993634e+00 
62600 5.3022824268e+00 6.9614936606e-05 1.6692924657e+00 -2.8912993634e+00 1.6692924657e+00 2.8912993634e+00 
62700 5.3022824270e+00 6.9609016441e-05 1.6692924657e+00 -2.8912993634e+00 1.6692924657e+00 2.8912993634e+00 
62800 5.3022824271e+00 6.9603051323e-05 1.6692924657e+00 -2.8912993634e+00 1.6692924657e+00 2.8912993634e+00 
62900 5.3022824273e+00 6.9597043729e-05 1.6692924657e+00 -2.8912993634e+00 1.6692924657e+00 2.8912993634e+00 
63000 5.3022824275e+00 6.9590996107e-05 1.6692924657e+00 -2.8912993634e+00 1.6692924657e+00 2.8912993634e+00 
63100 5.3022824276e+00 6.9584910873e-05 1.6692924657e+00 -2.8912993634e+00 1.6692924657e+00 2.8912993634e+00 
63200 5.3022824278e+00 6.9578790408e-05 1.6692924657e+00 -2.8912993634e+00 1.6692924657e+00 2.8912993634e+00 
63300 5.3022824279e+00 6.9572637060e-05 1.6692924657e+00 -2.8912993634e+00 1.6692924657e+00 2.8912993634e+00 
63400 5.3022824281e+00 6.9566453141e-05 1.6692924657e+00 -2.8912993634e+00 1.6692924657e+00 2.8912993634e+00 
63500 5.3022824282e+00 6.9560240928e-05 1.6692924657e+00 -2.8912993634e+00 1.6692924657e+00 2.8912993634e+00 
63600 5.3022824283e+00 6.9554002658e-05 1.6692924657e+00 -2.8912993634e+00 1.6692924657e+00 2.8912993634e+00 
63700 5.3022824285e+00 6.9547740533e-05 1.6692924657e+00 -2.8912993634e+00 1.6692924657e+00 2.8912993634e+00 
63800 5.3022824286e+00 6.9541456711e-05 1.6692924657e+00 -2.8912993634e+00 1.6692924657e+00 2.8912993634e+00 
63900 5.3022824287e+00 6.9535153315e-05 1.6692924657e+00 -2.8912993634e+00 1.6692924657e+00 2.8912993634e+00 
64000 5.3022824289e+00 6.9528832427e-05 1.6692924657e+00 -2.8912993634e+00 1.6692924657e+00 2.8912993634e+00 
64100 5.3022824290e+00 6.9522496084e-05 1.6692924657e+00 -2.8912993634e+00 1.6692924657e+00 2.8912993634e+00 
64200 5.3022824291e+00 6.9516146287e-05 1.6692924657e+00 -2.8912993634e+00 1.6692924657e+00 2.8912993634e+00 
64300 5.3022824293e+00 6.9509784990e-05 1.6692924657e+00 -2.8912993634e+00 1.6692924657e+00 2.8912993634e+00 
64400 5.3022824294e+00 6.9503414107e-05 1.6692924657e+00 -2.8912993634e+00 1.6692924657e+00 2.8912993634e+00 
64500 5.3022824295e+00 6.9497035508e-05 1.6692924657e+00 -2.8912993634e+00 1.6692924657e+00 2.8912993634e+00 
64600 5.3022824296e+00 6.9490651022e-05 1.6692924657e+00 -2.8912993634e+00 1.6692924657e+00 2.8912993634e+00 
64700 5.3022824298e+00 6.9484262430e-05 1.6692924657e+00 -2.8912993634e+00 1.6692924657e+00 2.8912993634e+00 
64800 5.3022824299e+00 6.9477871474e-05 1.6692924657e+00 -2.8912993634e+00 1.6692924657e+00 2.8912993634e+00 
64900 5.3022824300e+00 6.9471479850e-05 1.6692924657e+00 -2.8912993634e+00 1.6692924657e+00 2.8912993634e+00 
65000 5.3022824301e+00 6.9465089211e-05 1.6692924657e+00 -2.8912993634e+00 1.6692924657e+00 2.8912993634e+00 
65100 5.3022824302e+00 6.9458701164e-05 1.6692924657e+00 -2.8912993634e+00 1.6692924657e+00 2.8912993634e+00 
65200 5.3022824303e+00 6.9452317274e-05 1.6692924657e+00 -2.8912993634e+00 1.6692924657e+00 2.8912993634e+00 
65300 5.3022824304e+00 6.9445939063e-05 1.6692924657e+00 -2.8912993634e+00 1.6692924657e+00 2.8912993634e+00 
65400 5.3022824305e+00 6.9439568006e-05 1.6692924657e+00 -2.8912993634e+00 1.6692924657e+00 2.8912993634e+00 
65500 5.3022824306e+00 6.9433205538e-05 1.6692924657e+00 -2.8912993634e+00 1.6692924657e+00 2.8912993634e+00 
65600 5.3022824308e+00 6.9426853047e-05 1.6692924657e+00 -2.8912993634e+00 1.6692924657e+00 2.8912993634e+00 
65700 5.3022824309e+00 6.9420511881e-05 1.6692924657e+00 -2.8912993634e+00 1.6692924657e+00 2.8912993634e+00 
65800 5.3022824310e+00 6.9414183344e-05 1.6692924657e+00 -2.8912993634e+00 1.6692924657e+00 2.8912993634e+00 
65900 5.3022824311e+00 6.9407868695e-05 1.6692924657e+00 -2.8912993634e+00 1.6692924657e+00 2.8912993634e+00 
66000 5.3022824312e+00 6.9401569156e-05 1.6692924657e+00 -2.8912993634e+00 1.6692924657e+00 2.8912993634e+00 
66100 5.3022824312e+00 6.9395285901e-05 1.6692924657e+00 -2.8912993634e+00 1.6692924657e+00 2.8912993634e+00 
66200 5.3022824313e+00 6.9389020068e-05 1.6692924657e+00 -2.8912993634e+00 1.6692924657e+00 2.8912993634e+00 
66300 5.3022824314e+00 6.9382772750e-05 1.6692924657e+00 -2.8912993634e+00 1.6692924657e+00 2.8912993634e+00 
66400 5.3022824315e+00 6.9376545003e-05 1.6692924657e+00 -2.8912993634e+00 1.6692924657e+00 2.8912993634e+00 
66500 5.3022824316e+00 6.9370337838e-05 1.6692924657e+00 -2.8912993634e+00 1.6692924657e+00 2.8912993634e+00 
66600 5.3022824317e+00 6.9364152234e-05 1.6692924657e+00 -2.8912993634e+00 1.6692924657e+00 2.8912993634e+00 
66700 5.3022824318e+00 6.9357989123e-05 1.6692924657e+00 -2.8912993634e+00 1.6692924657e+00 2.8912993634e+00 
66800 5.3022824319e+00 6.9351849404e-05 1.6692924657e+00 -2.8912993634e+00 1.6692924657e+00 2.8912993634e+00 
66900 5.3022824320e+00 6.9345733936e-05 1.6692924657e+00 -2.8912993634e+00 1.6692924657e+00 2.8912993634e+00 
67000 5.3022824321e+00 6.9339643543e-05 1.6692924657e+00 -2.8912993634e+00 1.6692924657e+00 2.8912993634e+00 
67100 5.3022824321e+00 6.9333579009e-05 1.6692924657e+00 -2.8912993634e+00 1.6692924657e+00 2.8912993634e+00 
67200 5.3022824322e+00 6.9327541087e-05 1.6692924657e+00 -2.8912993634e+00 1.6692924657e+00 2.8912993634e+00 
67300 5.3022824323e+00 6.9321530490e-05 1.6692924657e+00 -2.8912993634e+00 1.6692924657e+00 2.8912993634e+00 
67400 5.3022824324e+00 6.9315547899e-05 1.6692924657e+00 -2.8912993634e+00 1.6692924657e+00 2.8912993634e+00 
67500 5.3022824325e+00 6.9309593962e-05 1.6692924657e+00 -2.8912993634e+00 1.6692924657e+00 2.8912993634e+00 
67600 5.3022824325e+00 6.9303669291e-05 1.6692924657e+00 -2.8912993634e+00 1.6692924657e+00 2.8912993634e+00 
67700 5.3022824326e+00 6.9297774470e-05 1.6692924657e+00 -2.8912993634e+00 1.6692924657e+00 2.8912993634e+00 
67800 5.3022824327e+00 6.9291910047e-05 1.6692924657e+00 -2.8912993634e+00 1.6692924657e+00 2.8912993634e+00 
67900 5.3022824328e+00 6.9286076543e-05 1.6692924657e+00 -2.8912993634e+00 1.6692924657e+00 2.8912993634e+00 
68000 5.3022824328e+00 6.9280274445e-05 1.6692924657e+00 -2.8912993634e+00 1.6692924657e+00 2.8912993634e+00 
68100 5.3022824329e+00 6.9274504214e-05 1.6692924657e+00 -2.8912993634e+00 1.6692924657e+00 2.8912993634e+00 
68200 5.3022824330e+00 6.9268766281e-05 1.6692924657e+00 -2.8912993634e+00 1.6692924657e+00 2.8912993634e+00 
68300 5.3022824330e+00 6.9263061047e-05 1.6692924657e+00 -2.8912993634e+00 1.6692924657e+00 2.8912993634e+00 
68400 5.3022824331e+00 6.9257388890e-05 1.6692924657e+00 -2.8912993634e+00 1.6692924657e+00 2.8912993634e+00 
68500 5.3022824332e+00 6.9251750160e-05 1.6692924657e+00 -2.8912993634e+00 1.6692924657e+00 2.8912993634e+00 
68600 5.3022824332e+00 6.9246145179e-05 1.6692924657e+00 -2.8912993634e+00 1.6692924657e+00 2.8912993634e+00 
68700 5.3022824333e+00 6.9240574248e-05 1.6692924657e+00 -2.8912993634e+00 1.6692924657e+00 2.8912993634e+00 
68800 5.3022824334e+00 6.9235037640e-05 1.6692924657e+00 -2.8912993634e+00 1.6692924657e+00 2.8912993634e+00 
68900 5.3022824334e+00 6.9229535606e-05 1.6692924657e+00 -2.8912993634e+00 1.6692924657e+00 2.8912993634e+00 
69000 5.3022824335e+00 6.9224068378e-05 1.6692924657e+00 -2.8912993634e+00 1.6692924657e+00 2.8912993634e+00 
69100 5.3022824335e+00 6.9218636160e-05 1.6692924657e+00 -2.8912993634e+00 1.6692924657e+00 2.8912993634e+00 
69200 5.3022824336e+00 6.9213239136e-05 1.6692924657e+00 -2.8912993634e+00 1.6692924657e+00 2.8912993634e+00 
69300 5.3022824337e+00 6.9207877475e-05 1.6692924657e+00 -2.8912993634e+00 1.6692924657e+00 2.8912993634e+00 
69400 5.3022824337e+00 6.9202551318e-05 1.6692924657e+00 -2.8912993634e+00 1.6692924657e+00 2.8912993634e+00 
69500 5.3022824338e+00 6.9197260794e-05 1.6692924657e+00 -2.8912993634e+00 1.6692924657e+00 2.8912993634e+00 
69600 5.3022824338e+00 6.9192006010e-05 1.6692924657e+00 -2.8912993634e+00 1.6692924657e+00 2.8912993634e+00 
69700 5.3022824339e+00 6.9186787054e-05 1.6692924657e+00 -2.8912993634e+00 1.6692924657e+00 2.8912993634e+00 
69800 5.3022824339e+00 6.9181604001e-05 1.6692924657e+00 -2.8912993634e+00 1.6692924657e+00 2.8912993634e+00 
69900 5.3022824340e+00 6.9176456905e-05 1.6692924657e+00 -2.8912993634e+00 1.6692924657e+00 2.8912993634e+00 
70000 5.3022824341e+00 6.9171345808e-05 1.6692924657e+00 -2.8912993634e+00 1.6692924657e+00 2.8912993634e+00 
70100 5.3022824341e+00 6.9166270735e-05 1.6692924657e+00 -2.8912993634e+00 1.6692924657e+00 2.8912993634e+00 
70200 5.3022824342e+00 6.9161231697e-05 1.6692924657e+00 -2.8912993634e+00 1.6692924657e+00 2.8912993634e+00 
70300 5.3022824342e+00 6.9156228690e-05 1.6692924657e+00 -2.8912993634e+00 1.6692924657e+00 2.8912993634e+00 
70400 5.3022824343e+00 6.9151261699e-05 1.6692924657e+00 -2.8912993634e+00 1.6692924657e+00 2.8912993634e+00 
70500 5.3022824343e+00 6.9147904702e-05 1.6692924657e+00 -2.8912993634e+00 1.6692924657e+00 2.8912993634e+00 
70500 5.3022824343e+00 6.9147904702e-05 1.6692924657e+00 -2.8912993634e+00 1.6692924657e+00 2.8912993634e+00 
