# step Hamiltonian StressXX CellTensor1 CellTensor2 CellTensor3 CellTensor4 
0 6.0211327108e+00 3.5936390333e-03 1.7438352029e+00 -3.0204111715e+00 1.7438352029e+00 3.0204111715e+00 
100 6.0181510195e+00 5.8012320904e-03 1.7438352029e+00 -3.0204111715e+00 1.7438352029e+00 3.0204111715e+00 
200 6.0152713653e+00 7.5923118168e-03 1.7436688701e+00 -3.0201230746e+00 1.7436688701e+00 3.0201230746e+00 
300 6.0124979840e+00 9.0781414304e-03 1.7434511638e+00 -3.0197459963e+00 1.7434511638e+00 3.0197459963e+00 
400 6.0098338624e+00 1.0274890954e-02 1.7431908206e+00 -3.0192950685e+00 1.7431908206e+00 3.0192950685e+00 
500 6.0072812049e+00 1.1198346835e-02 1.7428961138e+00 -3.0187846215e+00 1.7428961138e+00 3.0187846215e+00 
600 6.0048414592e+00 1.1863916739e-02 1.7425748668e+00 -3.0182282053e+00 1.7425748668e+00 3.0182282053e+00 
700 6.0025153468e+00 1.2286631520e-02 1.7422344645e+00 -3.0176386112e+00 1.7422344645e+00 3.0176386112e+00 
800 6.0003028961e+00 1.2481145034e-02 1.7418818651e+00 -3.0170278911e+00 1.7418818651e+00 3.0170278911e+00 
900 5.9982034795e+00 1.2461732366e-02 1.7415236113e+00 -3.0164073773e+00 1.7415236113e+00 3.0164073773e+00 
1000 5.9962158536e+00 1.2242287018e-02 1.7411658411e+00 -3.0157877011e+00 1.7411658411e+00 3.0157877011e+00 
1100 5.9943382008e+00 1.1836317500e-02 1.7408142986e+00 -3.0151788117e+00 1.7408142986e+00 3.0151788117e+00 
1200 5.9925681749e+00 1.1256943714e-02 1.7404743447e+00 -3.0145899943e+00 1.7404743447e+00 3.0145899943e+00 
1300 5.9909029466e+00 1.0516893478e-02 1.7401509675e+00 -3.0140298885e+00 1.7401509675e+00 3.0140298885e+00 
1400 5.9893392514e+00 9.6284994479e-03 1.7398487928e+00 -3.0135065067e+00 1.7398487928e+00 3.0135065067e+00 
1500 5.9878734381e+00 8.6036966533e-03 1.7395720951e+00 -3.0130272522e+00 1.7395720951e+00 3.0130272522e+00 
1600 5.9865015177e+00 7.4540208282e-03 1.7393248075e+00 -3.0125989375e+00 1.7393248075e+00 3.0125989375e+00 
1700 5.9852192122e+00 6.1906076416e-03 1.7391105327e+00 -3.0122278027e+00 1.7391105327e+00 3.0122278027e+00 
1800 5.9840220036e+00 4.8241929166e-03 1.7389325538e+00 -3.0119195341e+00 1.7389325538e+00 3.0119195341e+00 
1900 5.9829051810e+00 3.3651138794e-03 1.7387938443e+00 -3.0116792822e+00 1.7387938443e+00 3.0116792822e+00 
2000 5.9818638881e+00 1.8233114486e-03 1.7386970794e+00 -3.0115116806e+00 1.7386970794e+00 3.0115116806e+00 
2100 5.9808931680e+00 2.0833355131e-04 1.7386446464e+00 -3.0114208639e+00 1.7386446464e+00 3.0114208639e+00 
2200 5.9799880067e+00 -1.4706605750e-03 1.7386386552e+00 -3.0114104868e+00 1.7386386552e+00 3.0114104868e+00 
2300 5.9791433749e+00 -3.2048951489e-03 1.7386809488e+00 -3.0114837415e+00 1.7386809488e+00 3.0114837415e+00 
2400 5.9783542669e+00 -4.9859717536e-03 1.7387731142e+00 -3.0116433766e+00 1.7387731142e+00 3.0116433766e+00 
2500 5.9776157374e+00 -6.8058624687e-03 1.7389164923e+00 -3.0118917148e+00 1.7389164923e+00 3.0118917148e+00 
2600 5.9769229359e+00 -8.6569023171e-03 1.7391121886e+00 -3.0122306707e+00 1.7391121886e+00 3.0122306707e+00 
2700 5.9762711376e+00 -1.0531781121e-02 1.7393610831e+00 -3.0126617686e+00 1.7393610831e+00 3.0126617686e+00 
2800 5.9756557720e+00 -1.2423534864e-02 1.7396638404e+00 -3.0131861597e+00 1.7396638404e+00 3.0131861597e+00 
2900 5.9750724486e+00 -1.4325536661e-02 1.7400209197e+00 -3.0138046392e+00 1.7400209197e+00 3.0138046392e+00 
3000 5.9745169790e+00 -1.6231487426e-02 1.7404325844e+00 -3.0145176632e+00 1.7404325844e+00 3.0145176632e+00 
3100 5.9739853965e+00 -1.8135406329e-02 1.7408989113e+00 -3.0153253652e+00 1.7408989113e+00 3.0153253652e+00 
3200 5.9734739726e+00 -2.0031621140e-02 1.7414198005e+00 -3.0162275718e+00 1.7414198005e+00 3.0162275718e+00 
3300 5.9729792305e+00 -2.1914758523e-02 1.7419949842e+00 -3.0172238191e+00 1.7419949842e+00 3.0172238191e+00 
3400 5.9724979556e+00 -2.3779734374e-02 1.7426240353e+00 -3.0183133676e+00 1.7426240353e+00 3.0183133676e+00 
3500 5.9720272033e+00 -2.5621744252e-02 1.7433063765e+00 -3.0194952173e+00 1.7433063765e+00 3.0194952173e+00 
3600 5.9715643044e+00 -2.7436253974e-02 1.7440412888e+00 -3.0207681226e+00 1.7440412888e+00 3.0207681226e+00 
3700 5.9711068671e+00 -2.9218990425e-02 1.7448279191e+00 -3.0221306063e+00 1.7448279191e+00 3.0221306063e+00 
3800 5.9706527778e+00 -3.0965932622e-02 1.7456652889e+00 -3.0235809735e+00 1.7456652889e+00 3.0235809735e+00 
3900 5.9702001980e+00 -3.2673303067e-02 1.7465523019e+00 -3.0251173249e+00 1.7465523019e+00 3.0251173249e+00 
4000 5.9697475611e+00 -3.4337559429e-02 1.7474877510e+00 -3.0267375704e+00 1.7474877510e+00 3.0267375704e+00 
4100 5.9692935650e+00 -3.5955386567e-02 1.7484703266e+00 -3.0284394412e+00 1.7484703266e+00 3.0284394412e+00 
4200 5.9688371648e+00 -3.7523688910e-02 1.7494986228e+00 -3.0302205025e+00 1.7494986228e+00 3.0302205025e+00 
4300 5.9683775631e+00 -3.9039583220e-02 1.7505711449e+00 -3.0320781653e+00 1.7505711449e+00 3.0320781653e+00 
4400 5.9679141982e+00 -4.0500391710e-02 1.7516863160e+00 -3.0340096982e+00 1.7516863160e+00 3.0340096982e+00 
4500 5.9674467325e+00 -4.1903635557e-02 1.7528424831e+00 -3.0360122385e+00 1.7528424831e+00 3.0360122385e+00 
4600 5.9669750390e+00 -4.3247028773e-02 1.7540379241e+00 -3.0380828030e+00 1.7540379241e+00 3.0380828030e+00 
4700 5.9664991862e+00 -4.4528472437e-02 1.7552708533e+00 -3.0402182990e+00 1.7552708533e+00 3.0402182990e+00 
4800 5.9660194240e+00 -4.5746049291e-02 1.7565394277e+00 -3.0424155342e+00 1.7565394277e+00 3.0424155342e+00 
4900 5.9655361673e+00 -4.6898018653e-02 1.7578417525e+00 -3.0446712269e+00 1.7578417525e+00 3.0446712269e+00 
5000 5.9650499803e+00 -4.7982811663e-02 1.7591758869e+00 -3.0469820156e+00 1.7591758869e+00 3.0469820156e+00 
5100 5.9645615602e+00 -4.8999026826e-02 1.7605398497e+00 -3.0493444684e+00 1.7605398497e+00 3.0493444684e+00 
5200 5.9640717203e+00 -4.9945425834e-02 1.7619316238e+00 -3.0517550919e+00 1.7619316238e+00 3.0517550919e+00 
5300 5.9635813743e+00 -5.0820929652e-02 1.7633491623e+00 -3.0542103405e+00 1.7633491623e+00 3.0542103405e+00 
5400 5.9630915192e+00 -5.1624614841e-02 1.7647903926e+00 -3.0567066247e+00 1.7647903926e+00 3.0567066247e+00 
5500 5.9626032198e+00 -5.2355710097e-02 1.7662532218e+00 -3.0592403192e+00 1.7662532218e+00 3.0592403192e+00 
5600 5.9621175928e+00 -5.3013592990e-02 1.7677355412e+00 -3.0618077717e+00 1.7677355412e+00 3.0618077717e+00 
5700 5.9616357918e+00 -5.3597786868e-02 1.7692352305e+00 -3.0644053097e+00 1.7692352305e+00 3.0644053097e+00 
5800 5.9611589924e+00 -5.4107957922e-02 1.7707501627e+00 -3.0670292492e+00 1.7707501627e+00 3.0670292492e+00 
5900 5.9606883782e+00 -5.4543912373e-02 1.7722782080e+00 -3.0696759015e+00 1.7722782080e+00 3.0696759015e+00 
6000 5.9602251277e+00 -5.4905593776e-02 1.7738172384e+00 -3.0723415802e+00 1.7738172384e+00 3.0723415802e+00 
6100 5.9597704017e+00 -5.5193080405e-02 1.7753651310e+00 -3.0750226088e+00 1.7753651310e+00 3.0750226088e+00 
6200 5.9593253313e+00 -5.5406582721e-02 1.7769197725e+00 -3.0777153269e+00 1.7769197725e+00 3.0777153269e+00 
6300 5.9588910074e+00 -5.5546440877e-02 1.7784790629e+00 -3.0804160971e+00 1.7784790629e+00 3.0804160971e+00 
6400 5.9584684706e+00 -5.5613122272e-02 1.7800409188e+00 -3.0831213110e+00 1.7800409188e+00 3.0831213110e+00 
6500 5.9580587020e+00 -5.5607219108e-02 1.7816032776e+00 -3.0858273957e+00 1.7816032776e+00 3.0858273957e+00 
6600 5.9576626155e+00 -5.5529445962e-02 1.7831641001e+00 -3.0885308196e+00 1.7831641001e+00 3.0885308196e+00 
6700 5.9572810503e+00 -5.5380637332e-02 1.7847213746e+00 -3.0912280982e+00 1.7847213746e+00 3.0912280982e+00 
6800 5.9569147649e+00 -5.5161745165e-02 1.7862731197e+00 -3.0939157996e+00 1.7862731197e+00 3.0939157996e+00 
6900 5.9565644317e+00 -5.4873836332e-02 1.7878173877e+00 -3.0965905501e+00 1.7878173877e+00 3.0965905501e+00 
7000 5.9562306331e+00 -5.4518090060e-02 1.7893522670e+00 -3.0992490391e+00 1.7893522670e+00 3.0992490391e+00 
7100 5.9559138581e+00 -5.4095795285e-02 1.7908758859e+00 -3.1018880245e+00 1.7908758859e+00 3.1018880245e+00 
7200 5.9556144994e+00 -5.3608347934e-02 1.7923864147e+00 -3.1045043371e+00 1.7923864147e+00 3.1045043371e+00 
7300 5.9553328527e+00 -5.3057248115e-02 1.7938820687e+00 -3.1070948858e+00 1.7938820687e+00 3.1070948858e+00 
7400 5.9550691156e+00 -5.2444097206e-02 1.7953611105e+00 -3.1096566613e+00 1.7953611105e+00 3.1096566613e+00 
7500 5.9548233877e+00 -5.1770594840e-02 1.7968218529e+00 -3.1121867414e+00 1.7968218529e+00 3.1121867414e+00 
7600 5.9545956721e+00 -5.1038535760e-02 1.7982626609e+00 -3.1146822941e+00 1.7982626609e+00 3.1146822941e+00 
7700 5.9543858765e+00 -5.0249806565e-02 1.7996819543e+00 -3.1171405822e+00 1.7996819543e+00 3.1171405822e+00 
7800 5.9541938165e+00 -4.9406382309e-02 1.8010782092e+00 -3.1195589668e+00 1.8010782092e+00 3.1195589668e+00 
7900 5.9540192181e+00 -4.8510322964e-02 1.8024499611e+00 -3.1219349108e+00 1.8024499611e+00 3.1219349108e+00 
8000 5.9538617215e+00 -4.7563769743e-02 1.8037958058e+00 -3.1242659822e+00 1.8037958058e+00 3.1242659822e+00 
8100 5.9537208860e+00 -4.6568941259e-02 1.8051144019e+00 -3.1265498575e+00 1.8051144019e+00 3.1265498575e+00 
8200 5.9535961942e+00 -4.5528129540e-02 1.8064044720e+00 -3.1287843245e+00 1.8064044720e+00 3.1287843245e+00 
8300 5.9534870578e+00 -4.4443695883e-02 1.8076648049e+00 -3.1309672851e+00 1.8076648049e+00 3.1309672851e+00 
8400 5.9533928229e+00 -4.3318066539e-02 1.8088942565e+00 -3.1330967578e+00 1.8088942565e+00 3.1330967578e+00 
8500 5.9533127766e+00 -4.2153728244e-02 1.8100917517e+00 -3.1351708803e+00 1.8100917517e+00 3.1351708803e+00 
8600 5.9532461530e+00 -4.0953223582e-02 1.8112562851e+00 -3.1371879113e+00 1.8112562851e+00 3.1371879113e+00 
8700 5.9531921397e+00 -3.9719146182e-02 1.8123869224e+00 -3.1391462326e+00 1.8123869224e+00 3.1391462326e+00 
8800 5.9531498851e+00 -3.8454135764e-02 1.8134828017e+00 -3.1410443513e+00 1.8134828017e+00 3.1410443513e+00 
8900 5.9531185048e+00 -3.7160873012e-02 1.8145431338e+00 -3.1428809003e+00 1.8145431338e+00 3.1428809003e+00 
9000 5.9530970889e+00 -3.5842074310e-02 1.8155672034e+00 -3.1446546408e+00 1.8155672034e+00 3.1446546408e+00 
9100 5.9530847089e+00 -3.4500486311e-02 1.8165543692e+00 -3.1463644622e+00 1.8165543692e+00 3.1463644622e+00 
9200 5.9530804246e+00 -3.3138880383e-02 1.8175040653e+00 -3.1480093841e+00 1.8175040653e+00 3.1480093841e+00 
9300 5.9530832911e+00 -3.1760046912e-02 1.8184158005e+00 -3.1495885558e+00 1.8184158005e+00 3.1495885558e+00 
9400 5.9530923655e+00 -3.0366789481e-02 1.8192891593e+00 -3.1511012576e+00 1.8192891593e+00 3.1511012576e+00 
9500 5.9531067133e+00 -2.8961918947e-02 1.8201238015e+00 -3.1525469003e+00 1.8201238015e+00 3.1525469003e+00 
9600 5.9531254149e+00 -2.7548247412e-02 1.8209194624e+00 -3.1539250254e+00 1.8209194624e+00 3.1539250254e+00 
9700 5.9531475716e+00 -2.6128582114e-02 1.8216759526e+00 -3.1552353049e+00 1.8216759526e+00 3.1552353049e+00 
9800 5.9531723111e+00 -2.4705719248e-02 1.8223931574e+00 -3.1564775401e+00 1.8223931574e+00 3.1564775401e+00 
9900 5.9531987932e+00 -2.3282437742e-02 1.8230710367e+00 -3.1576516614e+00 1.8230710367e+00 3.1576516614e+00 
10000 5.9532262145e+00 -2.1861492992e-02 1.8237096239e+00 -3.1587577268e+00 1.8237096239e+00 3.1587577268e+00 
10100 5.9532538131e+00 -2.0445610598e-02 1.8243090255e+00 -3.1597959209e+00 1.8243090255e+00 3.1597959209e+00 
10200 5.9532808728e+00 -1.9037480097e-02 1.8248694201e+00 -3.1607665527e+00 1.8248694201e+00 3.1607665527e+00 
10300 5.9533067264e+00 -1.7639748738e-02 1.8253910570e+00 -3.1616700545e+00 1.8253910570e+00 3.1616700545e+00 
10400 5.9533307594e+00 -1.6255015304e-02 1.8258742556e+00 -3.1625069789e+00 1.8258742556e+00 3.1625069789e+00 
10500 5.9533524122e+00 -1.4885824018e-02 1.8263194033e+00 -3.1632779974e+00 1.8263194033e+00 3.1632779974e+00 
10600 5.9533711824e+00 -1.3534658547e-02 1.8267269546e+00 -3.1639838970e+00 1.8267269546e+00 3.1639838970e+00 
10700 5.9533866268e+00 -1.2203936142e-02 1.8270974292e+00 -3.1646255777e+00 1.8270974292e+00 3.1646255777e+00 
10800 5.9533983619e+00 -1.0896001920e-02 1.8274314099e+00 -3.1652040493e+00 1.8274314099e+00 3.1652040493e+00 
10900 5.9534060652e+00 -9.6131233374e-03 1.8277295414e+00 -3.1657204283e+00 1.8277295414e+00 3.1657204283e+00 
11000 5.9534094746e+00 -8.3574848506e-03 1.8279925277e+00 -3.1661759338e+00 1.8279925277e+00 3.1661759338e+00 
11100 5.9534083889e+00 -7.1311828196e-03 1.8282211298e+00 -3.1665718843e+00 1.8282211298e+00 3.1665718843e+00 
11200 5.9534026662e+00 -5.9362206537e-03 1.8284161639e+00 -3.1669096932e+00 1.8284161639e+00 3.1669096932e+00 
11300 5.9533922229e+00 -4.7745042344e-03 1.8285784986e+00 -3.1671908652e+00 1.8285784986e+00 3.1671908652e+00 
11400 5.9533770321e+00 -3.6478376356e-03 1.8287090525e+00 -3.1674169912e+00 1.8287090525e+00 3.1674169912e+00 
11500 5.9533571209e+00 -2.5579191606e-03 1.8288087915e+00 -3.1675897442e+00 1.8288087915e+00 3.1675897442e+00 
11600 5.9533325688e+00 -1.5063377155e-03 1.8288787259e+00 -3.1677108742e+00 1.8288787259e+00 3.1677108742e+00 
11700 5.9533035037e+00 -4.9456953842e-04 1.8289199081e+00 -3.1677822038e+00 1.8289199081e+00 3.1677822038e+00 
11800 5.9532700996e+00 4.7602470242e-04 1.8289334289e+00 -3.1678056226e+00 1.8289334289e+00 3.1678056226e+00 
11900 5.9532325726e+00 1.4042024251e-03 1.8289204152e+00 -3.1677830821e+00 1.8289204152e+00 3.1677830821e+00 
12000 5.9531911772e+00 2.2888412546e-03 1.8288820265e+00 -3.1677165910e+00 1.8288820265e+00 3.1677165910e+00 
12100 5.9531462026e+00 3.1289407383e-03 1.8288194520e+00 -3.1676082087e+00 1.8288194520e+00 3.1676082087e+00 
12200 5.9530979684e+00 3.9236236469e-03 1.8287339073e+00 -3.1674600410e+00 1.8287339073e+00 3.1674600410e+00 
12300 5.9530468204e+00 4.6721368595e-03 1.8286266313e+00 -3.1672742335e+00 1.8286266313e+00 3.1672742335e+00 
12400 5.9529931263e+00 5.3738518264e-03 1.8284988829e+00 -3.1670529668e+00 1.8284988829e+00 3.1670529668e+00 
12500 5.9529372714e+00 6.0282646131e-03 1.8283519378e+00 -3.1667984503e+00 1.8283519378e+00 3.1667984503e+00 
12600 5.9528796541e+00 6.6349955262e-03 1.8281870851e+00 -3.1665129171e+00 1.8281870851e+00 3.1665129171e+00 
12700 5.9528206817e+00 7.1937883261e-03 1.8280056243e+00 -3.1661986178e+00 1.8280056243e+00 3.1661986178e+00 
12800 5.9527607661e+00 7.7045090354e-03 1.8278088618e+00 -3.1658578152e+00 1.8278088618e+00 3.1658578152e+00 
12900 5.9527003195e+00 8.1671443507e-03 1.8275981078e+00 -3.1654927785e+00 1.8275981078e+00 3.1654927785e+00 
13000 5.9526397509e+00 8.5817996717e-03 1.8273746731e+00 -3.1651057782e+00 1.8273746731e+00 3.1651057782e+00 
13100 5.9525794618e+00 8.9486967601e-03 1.8271398658e+00 -3.1646990801e+00 1.8271398658e+00 3.1646990801e+00 
13200 5.9525198426e+00 9.2681710453e-03 1.8268949886e+00 -3.1642749404e+00 1.8268949886e+00 3.1642749404e+00 
13300 5.9524612697e+00 9.5406685940e-03 1.8266413354e+00 -3.1638356001e+00 1.8266413354e+00 3.1638356001e+00 
13400 5.9524041017e+00 9.7667427644e-03 1.8263801883e+00 -3.1633832801e+00 1.8263801883e+00 3.1633832801e+00 
13500 5.9523486774e+00 9.9470505638e-03 1.8261128151e+00 -3.1629201760e+00 1.8261128151e+00 3.1629201760e+00 
13600 5.9522953123e+00 1.0082348734e-02 1.8258404660e+00 -3.1624484536e+00 1.8258404660e+00 3.1624484536e+00 
13700 5.9522442972e+00 1.0173489586e-02 1.8255643714e+00 -3.1619702437e+00 1.8255643714e+00 3.1619702437e+00 
13800 5.9521958958e+00 1.0221416610e-02 1.8252857389e+00 -3.1614876381e+00 1.8252857389e+00 3.1614876381e+00 
13900 5.9521503432e+00 1.0227159882e-02 1.8250057511e+00 -3.1610026849e+00 1.8250057511e+00 3.1610026849e+00 
14000 5.9521078449e+00 1.0191831295e-02 1.8247255630e+00 -3.1605173849e+00 1.8247255630e+00 3.1605173849e+00 
14100 5.9520685754e+00 1.0116619640e-02 1.8244462998e+00 -3.1600336870e+00 1.8244462998e+00 3.1600336870e+00 
14200 5.9520326781e+00 1.0002785562e-02 1.8241690551e+00 -3.1595534850e+00 1.8241690551e+00 3.1595534850e+00 
14300 5.9520002645e+00 9.8516564115e-03 1.8238948882e+00 -3.1590786140e+00 1.8238948882e+00 3.1590786140e+00 
14400 5.9519714148e+00 9.6646210221e-03 1.8236248229e+00 -3.1586108472e+00 1.8236248229e+00 3.1586108472e+00 
14500 5.9519461777e+00 9.4431244381e-03 1.8233598455e+00 -3.1581518929e+00 1.8233598455e+00 3.1581518929e+00 
14600 5.9519245713e+00 9.1886626108e-03 1.8231009032e+00 -3.1577033917e+00 1.8231009032e+00 3.1577033917e+00 
14700 5.9519065840e+00 8.9027770892e-03 1.8228489026e+00 -3.1572669138e+00 1.8228489026e+00 3.1572669138e+00 
14800 5.9518921754e+00 8.5870497271e-03 1.8226047085e+00 -3.1568439572e+00 1.8226047085e+00 3.1568439572e+00 
14900 5.9518812780e+00 8.2430974254e-03 1.8223691428e+00 -3.1564359454e+00 1.8223691428e+00 3.1564359454e+00 
15000 5.9518737982e+00 7.8725669298e-03 1.8221429831e+00 -3.1560442254e+00 1.8221429831e+00 3.1560442254e+00 
15100 5.9518696188e+00 7.4771297021e-03 1.8219269624e+00 -3.1556700666e+00 1.8219269624e+00 3.1556700666e+00 
15200 5.9518686003e+00 7.0584768806e-03 1.8217217679e+00 -3.1553146593e+00 1.8217217679e+00 3.1553146593e+00 
15300 5.9518705832e+00 6.6183143466e-03 1.8215280404e+00 -3.1549791134e+00 1.8215280404e+00 3.1549791134e+00 
15400 5.9518753899e+00 6.1583579093e-03 1.8213463741e+00 -3.1546644582e+00 1.8213463741e+00 3.1546644582e+00 
15500 5.9518828275e+00 5.6803286231e-03 1.8211773162e+00 -3.1543716412e+00 1.8211773162e+00 3.1543716412e+00 
15600 5.9518926894e+00 5.1859482469e-03 1.8210213663e+00 -3.1541015281e+00 1.8210213663e+00 3.1541015281e+00 
15700 5.9519047580e+00 4.6769348564e-03 1.8208789769e+00 -3.1538549025e+00 1.8208789769e+00 3.1538549025e+00 
15800 5.9519188071e+00 4.1549986176e-03 1.8207505532e+00 -3.1536324661e+00 1.8207505532e+00 3.1536324661e+00 
15900 5.9519346039e+00 3.6218377277e-03 1.8206364532e+00 -3.1534348390e+00 1.8206364532e+00 3.1534348390e+00 
16000 5.9519519117e+00 3.0791345304e-03 1.8205369878e+00 -3.1532625600e+00 1.8205369878e+00 3.1532625600e+00 
16100 5.9519704917e+00 2.5285518094e-03 1.8204524218e+00 -3.1531160874e+00 1.8204524218e+00 3.1531160874e+00 
16200 5.9519901056e+00 1.9717292643e-03 1.8203829738e+00 -3.1529957999e+00 1.8203829738e+00 3.1529957999e+00 
16300 5.9520105173e+00 1.4102801706e-03 1.8203288171e+00 -3.1529019977e+00 1.8203288171e+00 3.1529019977e+00 
16400 5.9520314951e+00 8.4578822592e-04 1.8202900803e+00 -3.1528349036e+00 1.8202900803e+00 3.1528349036e+00 
16500 5.9520528135e+00 2.7980458233e-04 1.8202668481e+00 -3.1527946642e+00 1.8202668481e+00 3.1527946642e+00 
16600 5.9520742548e+00 -2.8615493468e-04 1.8202591623e+00 -3.1527813520e+00 1.8202591623e+00 3.1527813520e+00 
16700 5.9520956108e+00 -8.5061242249e-04 1.8202670226e+00 -3.1527949664e+00 1.8202670226e+00 3.1527949664e+00 
16800 5.9521166841e+00 -1.4121303141e-03 1.8202903877e+00 -3.1528354360e+00 1.8202903877e+00 3.1528354360e+00 
16900 5.9521372897e+00 -1.9693136098e-03 1.8203291764e+00 -3.1529026200e+00 1.8203291764e+00 3.1529026200e+00 
17000 5.9521572556e+00 -2.5208119308e-03 1.8203832689e+00 -3.1529963110e+00 1.8203832689e+00 3.1529963110e+00 
17100 5.9521764239e+00 -3.0653213977e-03 1.8204525078e+00 -3.1531162364e+00 1.8204525078e+00 3.1531162364e+00 
17200 5.9521946518e+00 -3.6015863382e-03 1.8205366997e+00 -3.1532620609e+00 1.8205366997e+00 3.1532620609e+00 
17300 5.9522118120e+00 -4.1284008271e-03 1.8206356161e+00 -3.1534333891e+00 1.8206356161e+00 3.1534333891e+00 
17400 5.9522277931e+00 -4.6446100636e-03 1.8207489953e+00 -3.1536297677e+00 1.8207489953e+00 3.1536297677e+00 
17500 5.9522425000e+00 -5.1491115907e-03 1.8208765435e+00 -3.1538506876e+00 1.8208765435e+00 3.1538506876e+00 
17600 5.9522558538e+00 -5.6408563600e-03 1.8210179363e+00 -3.1540955872e+00 1.8210179363e+00 3.1540955872e+00 
17700 5.9522677921e+00 -6.1188496479e-03 1.8211728204e+00 -3.1543638544e+00 1.8211728204e+00 3.1543638544e+00 
17800 5.9522782685e+00 -6.5821518278e-03 1.8213408150e+00 -3.1546548296e+00 1.8213408150e+00 3.1546548296e+00 
17900 5.9522872524e+00 -7.0298790022e-03 1.8215215133e+00 -3.1549678080e+00 1.8215215133e+00 3.1549678080e+00 
18000 5.9522947286e+00 -7.4612035012e-03 1.8217144839e+00 -3.1553020430e+00 1.8217144839e+00 3.1553020430e+00 
18100 5.9523006967e+00 -7.8753542504e-03 1.8219192729e+00 -3.1556567480e+00 1.8219192729e+00 3.1556567480e+00 
18200 5.9523051703e+00 -8.2716170143e-03 1.8221354052e+00 -3.1560311000e+00 1.8221354052e+00 3.1560311000e+00 
18300 5.9523081765e+00 -8.6493345191e-03 1.8223623858e+00 -3.1564242420e+00 1.8223623858e+00 3.1564242420e+00 
18400 5.9523097548e+00 -9.0079064599e-03 1.8225997020e+00 -3.1568352857e+00 1.8225997020e+00 3.1568352857e+00 
18500 5.9523099565e+00 -9.3467893966e-03 1.8228468246e+00 -3.1572633145e+00 1.8228468246e+00 3.1572633145e+00 
18600 5.9523088433e+00 -9.6654965425e-03 1.8231032095e+00 -3.1577073862e+00 1.8231032095e+00 3.1577073862e+00 
18700 5.9523064865e+00 -9.9635974508e-03 1.8233682995e+00 -3.1581665357e+00 1.8233682995e+00 3.1581665357e+00 
18800 5.9523029658e+00 -1.0240717602e-02 1.8236415259e+00 -3.1586397776e+00 1.8236415259e+00 3.1586397776e+00 
18900 5.9522983686e+00 -1.0496537896e-02 1.8239223097e+00 -3.1591261095e+00 1.8239223097e+00 3.1591261095e+00 
19000 5.9522927884e+00 -1.0730794057e-02 1.8242100636e+00 -3.1596245138e+00 1.8242100636e+00 3.1596245138e+00 
19100 5.9522863236e+00 -1.0943275945e-02 1.8245041931e+00 -3.1601339611e+00 1.8245041931e+00 3.1601339611e+00 
19200 5.9522790771e+00 -1.1133826789e-02 1.8248040986e+00 -3.1606534127e+00 1.8248040986e+00 3.1606534127e+00 
19300 5.9522711543e+00 -1.1302342339e-02 1.8251091762e+00 -3.1611818225e+00 1.8251091762e+00 3.1611818225e+00 
19400 5.9522626628e+00 -1.1448769942e-02 1.8254188197e+00 -3.1617181407e+00 1.8254188197e+00 3.1617181407e+00 
19500 5.9522537108e+00 -1.1573107540e-02 1.8257324216e+00 -3.1622613152e+00 1.8257324216e+00 3.1622613152e+00 
19600 5.9522444064e+00 -1.1675402606e-02 1.8260493750e+00 -3.1628102946e+00 1.8260493750e+00 3.1628102946e+00 
19700 5.9522348563e+00 -1.1755751009e-02 1.8263690746e+00 -3.1633640305e+00 1.8263690746e+00 3.1633640305e+00 
19800 5.9522251653e+00 -1.1814295810e-02 1.8266909179e+00 -3.1639214796e+00 1.8266909179e+00 3.1639214796e+00 
19900 5.9522154353e+00 -1.1851226005e-02 1.8270143072e+00 -3.1644816062e+00 1.8270143072e+00 3.1644816062e+00 
20000 5.9522057644e+00 -1.1866775208e-02 1.8273386499e+00 -3.1650433843e+00 1.8273386499e+00 3.1650433843e+00 
20100 5.9521962461e+00 -1.1861220277e-02 1.8276633606e+00 -3.1656057997e+00 1.8276633606e+00 3.1656057997e+00 
20200 5.9521869690e+00 -1.1834879885e-02 1.8279878616e+00 -3.1661678519e+00 1.8279878616e+00 3.1661678519e+00 
20300 5.9521780159e+00 -1.1788113048e-02 1.8283115844e+00 -3.1667285563e+00 1.8283115844e+00 3.1667285563e+00 
20400 5.9521694635e+00 -1.1721317603e-02 1.8286339709e+00 -3.1672869461e+00 1.8286339709e+00 3.1672869461e+00 
20500 5.9521613817e+00 -1.1634928642e-02 1.8289544741e+00 -3.1678420739e+00 1.8289544741e+00 3.1678420739e+00 
20600 5.9521538337e+00 -1.1529416900e-02 1.8292725593e+00 -3.1683930136e+00 1.8292725593e+00 3.1683930136e+00 
20700 5.9521468752e+00 -1.1405287118e-02 1.8295877050e+00 -3.1689388619e+00 1.8295877050e+00 3.1689388619e+00 
20800 5.9521405546e+00 -1.1263076354e-02 1.8298994039e+00 -3.1694787403e+00 1.8298994039e+00 3.1694787403e+00 
20900 5.9521349127e+00 -1.1103352273e-02 1.8302071638e+00 -3.1700117961e+00 1.8302071638e+00 3.1700117961e+00 
21000 5.9521299826e+00 -1.0926711403e-02 1.8305105081e+00 -3.1705372038e+00 1.8305105081e+00 3.1705372038e+00 
21100 5.9521257899e+00 -1.0733777363e-02 1.8308089770e+00 -3.1710541671e+00 1.8308089770e+00 3.1710541671e+00 
21200 5.9521223525e+00 -1.0525199067e-02 1.8311021278e+00 -3.1715619192e+00 1.8311021278e+00 3.1715619192e+00 
21300 5.9521196812e+00 -1.0301648909e-02 1.8313895360e+00 -3.1720597248e+00 1.8313895360e+00 3.1720597248e+00 
21400 5.9521177792e+00 -1.0063820932e-02 1.8316707955e+00 -3.1725468805e+00 1.8316707955e+00 3.1725468805e+00 
21500 5.9521166432e+00 -9.8124289712e-03 1.8319455193e+00 -3.1730227161e+00 1.8319455193e+00 3.1730227161e+00 
21600 5.9521162630e+00 -9.5482047985e-03 1.8322133402e+00 -3.1734865956e+00 1.8322133402e+00 3.1734865956e+00 
21700 5.9521166221e+00 -9.2718962501e-03 1.8324739112e+00 -3.1739379177e+00 1.8324739112e+00 3.1739379177e+00 
21800 5.9521176984e+00 -8.9842653505e-03 1.8327269055e+00 -3.1743761167e+00 1.8327269055e+00 3.1743761167e+00 
21900 5.9521194641e+00 -8.6860864343e-03 1.8329720175e+00 -3.1748006631e+00 1.8329720175e+00 3.1748006631e+00 
22000 5.9521218864e+00 -8.3781442690e-03 1.8332089625e+00 -3.1752110640e+00 1.8332089625e+00 3.1752110640e+00 
22100 5.9521249282e+00 -8.0612321812e-03 1.8334374776e+00 -3.1756068637e+00 1.8334374776e+00 3.1756068637e+00 
22200 5.9521285482e+00 -7.7361501910e-03 1.8336573213e+00 -3.1759876442e+00 1.8336573213e+00 3.1759876442e+00 
22300 5.9521327017e+00 -7.4037031575e-03 1.8338682740e+00 -3.1763530249e+00 1.8338682740e+00 3.1763530249e+00 
22400 5.9521373410e+00 -7.0646989376e-03 1.8340701380e+00 -3.1767026636e+00 1.8340701380e+00 3.1767026636e+00 
22500 5.9521424160e+00 -6.7199465641e-03 1.8342627375e+00 -3.1770362559e+00 1.8342627375e+00 3.1770362559e+00 
22600 5.9521478748e+00 -6.3702544436e-03 1.8344459190e+00 -3.1773535354e+00 1.8344459190e+00 3.1773535354e+00 
22700 5.9521536639e+00 -6.0164285800e-03 1.8346195506e+00 -3.1776542742e+00 1.8346195506e+00 3.1776542742e+00 
22800 5.9521597292e+00 -5.6592708256e-03 1.8347835224e+00 -3.1779382817e+00 1.8347835224e+00 3.1779382817e+00 
22900 5.9521660162e+00 -5.2995771642e-03 1.8349377463e+00 -3.1782054054e+00 1.8349377463e+00 3.1782054054e+00 
23000 5.9521724706e+00 -4.9381360283e-03 1.8350821558e+00 -3.1784555298e+00 1.8350821558e+00 3.1784555298e+00 
23100 5.9521790384e+00 -4.5757266556e-03 1.8352167055e+00 -3.1786885768e+00 1.8352167055e+00 3.1786885768e+00 
23200 5.9521856673e+00 -4.2131174862e-03 1.8353413714e+00 -3.1789045045e+00 1.8353413714e+00 3.1789045045e+00 
23300 5.9521923058e+00 -3.8510646051e-03 1.8354561501e+00 -3.1791033070e+00 1.8354561501e+00 3.1791033070e+00 
23400 5.9521989048e+00 -3.4903102320e-03 1.8355610586e+00 -3.1792850139e+00 1.8355610586e+00 3.1792850139e+00 
23500 5.9522054172e+00 -3.1315812634e-03 1.8356561342e+00 -3.1794496897e+00 1.8356561342e+00 3.1794496897e+00 
23600 5.9522117986e+00 -2.7755878670e-03 1.8357414336e+00 -3.1795974325e+00 1.8357414336e+00 3.1795974325e+00 
23700 5.9522180072e+00 -2.4230221346e-03 1.8358170326e+00 -3.1797283739e+00 1.8358170326e+00 3.1797283739e+00 
23800 5.9522240047e+00 -2.0745567931e-03 1.8358830260e+00 -3.1798426779e+00 1.8358830260e+00 3.1798426779e+00 
23900 5.9522297557e+00 -1.7308439791e-03 1.8359395266e+00 -3.1799405396e+00 1.8359395266e+00 3.1799405396e+00 
24000 5.9522352286e+00 -1.3925140767e-03 1.8359866646e+00 -3.1800221851e+00 1.8359866646e+00 3.1800221851e+00 
24100 5.9522403955e+00 -1.0601746235e-03 1.8360245875e+00 -3.1800878695e+00 1.8360245875e+00 3.1800878695e+00 
24200 5.9522452319e+00 -7.3440928460e-04 1.8360534591e+00 -3.1801378765e+00 1.8360534591e+00 3.1801378765e+00 
24300 5.9522497174e+00 -4.1577689808e-04 1.8360734588e+00 -3.1801725170e+00 1.8360734588e+00 3.1801725170e+00 
24400 5.9522538354e+00 -1.0481059300e-04 1.8360847812e+00 -3.1801921281e+00 1.8360847812e+00 3.1801921281e+00 
24500 5.9522575730e+00 1.9798301850e-04 1.8360876354e+00 -3.1801970717e+00 1.8360876354e+00 3.1801970717e+00 
24600 5.9522609214e+00 4.9212457361e-04 1.8360822440e+00 -3.1801877334e+00 1.8360822440e+00 3.1801877334e+00 
24700 5.9522638753e+00 7.7716261462e-04 1.8360688425e+00 -3.1801645214e+00 1.8360688425e+00 3.1801645214e+00 
24800 5.9522664330e+00 1.0526741673e-03 1.8360476788e+00 -3.1801278648e+00 1.8360476788e+00 3.1801278648e+00 
24900 5.9522685965e+00 1.3182652412e-03 1.8360190120e+00 -3.1800782124e+00 1.8360190120e+00 3.1800782124e+00 
25000 5.9522703709e+00 1.5735712515e-03 1.8359831120e+00 -3.1800160319e+00 1.8359831120e+00 3.1800160319e+00 
25100 5.9522717647e+00 1.8182573621e-03 1.8359402585e+00 -3.1799418075e+00 1.8359402585e+00 3.1799418075e+00 
25200 5.9522727892e+00 2.0520187505e-03 1.8358907403e+00 -3.1798560394e+00 1.8358907403e+00 3.1798560394e+00 
25300 5.9522734586e+00 2.2745807938e-03 1.8358348544e+00 -3.1797592422e+00 1.8358348544e+00 3.1797592422e+00 
25400 5.9522737896e+00 2.4856991777e-03 1.8357729053e+00 -3.1796519431e+00 1.8357729053e+00 3.1796519431e+00 
25500 5.9522738010e+00 2.6851599283e-03 1.8357052040e+00 -3.1795346810e+00 1.8357052040e+00 3.1795346810e+00 
25600 5.9522735138e+00 2.8727793677e-03 1.8356320675e+00 -3.1794080049e+00 1.8356320675e+00 3.1794080049e+00 
25700 5.9522729505e+00 3.0484039954e-03 1.8355538176e+00 -3.1792724721e+00 1.8355538176e+00 3.1792724721e+00 
25800 5.9522721355e+00 3.2119102964e-03 1.8354707805e+00 -3.1791286477e+00 1.8354707805e+00 3.1791286477e+00 
25900 5.9522710939e+00 3.3632044777e-03 1.8353832857e+00 -3.1789771022e+00 1.8353832857e+00 3.1789771022e+00 
26000 5.9522698521e+00 3.5022221352e-03 1.8352916651e+00 -3.1788184107e+00 1.8352916651e+00 3.1788184107e+00 
26100 5.9522684369e+00 3.6289278532e-03 1.8351962527e+00 -3.1786531516e+00 1.8351962527e+00 3.1786531516e+00 
26200 5.9522668757e+00 3.7433147383e-03 1.8350973833e+00 -3.1784819047e+00 1.8350973833e+00 3.1784819047e+00 
26300 5.9522651958e+00 3.8454038908e-03 1.8349953920e+00 -3.1783052506e+00 1.8349953920e+00 3.1783052506e+00 
26400 5.9522634246e+00 3.9352438156e-03 1.8348906133e+00 -3.1781237686e+00 1.8348906133e+00 3.1781237686e+00 
26500 5.9522615890e+00 4.0129097760e-03 1.8347833806e+00 -3.1779380361e+00 1.8347833806e+00 3.1779380361e+00 
26600 5.9522597153e+00 4.0785030920e-03 1.8346740252e+00 -3.1777486270e+00 1.8346740252e+00 3.1777486270e+00 
26700 5.9522578289e+00 4.1321503882e-03 1.8345628757e+00 -3.1775561104e+00 1.8345628757e+00 3.1775561104e+00 
26800 5.9522559545e+00 4.1740027920e-03 1.8344502574e+00 -3.1773610498e+00 1.8344502574e+00 3.1773610498e+00 
26900 5.9522541154e+00 4.2042350877e-03 1.8343364914e+00 -3.1771640014e+00 1.8343364914e+00 3.1771640014e+00 
27000 5.9522523335e+00 4.2230448270e-03 1.8342218944e+00 -3.1769655134e+00 1.8342218944e+00 3.1769655134e+00 
27100 5.9522506294e+00 4.2306514026e-03 1.8341067774e+00 -3.1767661250e+00 1.8341067774e+00 3.1767661250e+00 
27200 5.9522490218e+00 4.2272950849e-03 1.8339914459e+00 -3.1765663649e+00 1.8339914459e+00 3.1765663649e+00 
27300 5.9522475279e+00 4.2132360281e-03 1.8338761986e+00 -3.1763667508e+00 1.8338761986e+00 3.1763667508e+00 
27400 5.9522461632e+00 4.1887532468e-03 1.8337613274e+00 -3.1761677880e+00 1.8337613274e+00 3.1761677880e+00 
27500 5.9522449410e+00 4.1541435685e-03 1.8336471165e+00 -3.1759699689e+00 1.8336471165e+00 3.1759699689e+00 
27600 5.9522438729e+00 4.1097205639e-03 1.8335338422e+00 -3.1757737721e+00 1.8335338422e+00 3.1757737721e+00 
27700 5.9522429684e+00 4.0558134592e-03 1.8334217723e+00 -3.1755796614e+00 1.8334217723e+00 3.1755796614e+00 
27800 5.9522422353e+00 3.9927660340e-03 1.8333111657e+00 -3.1753880851e+00 1.8333111657e+00 3.1753880851e+00 
27900 5.9522416792e+00 3.9209355071e-03 1.8332022718e+00 -3.1751994754e+00 1.8332022718e+00 3.1751994754e+00 
28000 5.9522413039e+00 3.8406914149e-03 1.8330953306e+00 -3.1750142478e+00 1.8330953306e+00 3.1750142478e+00 
28100 5.9522411113e+00 3.7524144843e-03 1.8329905719e+00 -3.1748328003e+00 1.8329905719e+00 3.1748328003e+00 
28200 5.9522411014e+00 3.6564955038e-03 1.8328882151e+00 -3.1746555132e+00 1.8328882151e+00 3.1746555132e+00 
28300 5.9522412727e+00 3.5533341961e-03 1.8327884692e+00 -3.1744827482e+00 1.8327884692e+00 3.1744827482e+00 
28400 5.9522416218e+00 3.4433380944e-03 1.8326915322e+00 -3.1743148483e+00 1.8326915322e+00 3.1743148483e+00 
28500 5.9522421438e+00 3.3269214266e-03 1.8325975908e+00 -3.1741521372e+00 1.8325975908e+00 3.1741521372e+00 
28600 5.9522428324e+00 3.2045040078e-03 1.8325068209e+00 -3.1739949191e+00 1.8325068209e+00 3.1739949191e+00 
28700 5.9522436799e+00 3.0765101464e-03 1.8324193867e+00 -3.1738434785e+00 1.8324193867e+00 3.1738434785e+00 
28800 5.9522446775e+00 2.9433675645e-03 1.8323354406e+00 -3.1736980797e+00 1.8323354406e+00 3.1736980797e+00 
28900 5.9522458151e+00 2.8055063352e-03 1.8322551238e+00 -3.1735589669e+00 1.8322551238e+00 3.1735589669e+00 
29000 5.9522470818e+00 2.6633578402e-03 1.8321785655e+00 -3.1734263641e+00 1.8321785655e+00 3.1734263641e+00 
29100 5.9522484660e+00 2.5173537481e-03 1.8321058832e+00 -3.1733004746e+00 1.8321058832e+00 3.1733004746e+00 
29200 5.9522499553e+00 2.3679250162e-03 1.8320371825e+00 -3.1731814815e+00 1.8320371825e+00 3.1731814815e+00 
29300 5.9522515366e+00 2.2155009190e-03 1.8319725575e+00 -3.1730695476e+00 1.8319725575e+00 3.1730695476e+00 
29400 5.9522531967e+00 2.0605081018e-03 1.8319120902e+00 -3.1729648151e+00 1.8319120902e+00 3.1729648151e+00 
29500 5.9522549220e+00 1.9033696645e-03 1.8318558512e+00 -3.1728674064e+00 1.8318558512e+00 3.1728674064e+00 
29600 5.9522566989e+00 1.7445042750e-03 1.8318038995e+00 -3.1727774234e+00 1.8318038995e+00 3.1727774234e+00 
29700 5.9522585135e+00 1.5843253139e-03 1.8317562826e+00 -3.1726949485e+00 1.8317562826e+00 3.1726949485e+00 
29800 5.9522603524e+00 1.4232400521e-03 1.8317130367e+00 -3.1726200444e+00 1.8317130367e+00 3.1726200444e+00 
29900 5.9522622024e+00 1.2616488620e-03 1.8316741868e+00 -3.1725527545e+00 1.8316741868e+00 3.1725527545e+00 
30000 5.9522640503e+00 1.0999444632e-03 1.8316397472e+00 -3.1724931032e+00 1.8316397472e+00 3.1724931032e+00 
30100 5.9522658837e+00 9.3851120402e-04 1.8316097210e+00 -3.1724410964e+00 1.8316097210e+00 3.1724410964e+00 
30200 5.9522676908e+00 7.7772437893e-04 1.8315841012e+00 -3.1723967217e+00 1.8315841012e+00 3.1723967217e+00 
30300 5.9522694603e+00 6.1794958265e-04 1.8315628703e+00 -3.1723599487e+00 1.8315628703e+00 3.1723599487e+00 
30400 5.9522711815e+00 4.5954210179e-04 1.8315460009e+00 -3.1723307300e+00 1.8315460009e+00 3.1723307300e+00 
30500 5.9522728448e+00 3.0284634394e-04 1.8315334557e+00 -3.1723090011e+00 1.8315334557e+00 3.1723090011e+00 
30600 5.9522744412e+00 1.4819530468e-04 1.8315251882e+00 -3.1722946813e+00 1.8315251882e+00 3.1722946813e+00 
30700 5.9522759626e+00 -4.0899273391e-06 1.8315211425e+00 -3.1722876739e+00 1.8315211425e+00 3.1722876739e+00 
30800 5.9522774021e+00 -1.5380502177e-04 1.8315211425e+00 -3.1722876739e+00 1.8315211425e+00 3.1722876739e+00 
30900 5.9522787534e+00 -3.0044310369e-04 1.8315253413e+00 -3.1722949465e+00 1.8315253413e+00 3.1722949465e+00 
31000 5.9522800114e+00 -4.4382808864e-04 1.8315335433e+00 -3.1723091528e+00 1.8315335433e+00 3.1723091528e+00 
31100 5.9522811719e+00 -5.8369068979e-04 1.8315456596e+00 -3.1723301389e+00 1.8315456596e+00 3.1723301389e+00 
31200 5.9522822316e+00 -7.1977543096e-04 1.8315615940e+00 -3.1723577381e+00 1.8315615940e+00 3.1723577381e+00 
31300 5.9522831884e+00 -8.5184091411e-04 1.8315812433e+00 -3.1723917716e+00 1.8315812433e+00 3.1723917716e+00 
31400 5.9522840409e+00 -9.7966005003e-04 1.8316044976e+00 -3.1724320492e+00 1.8316044976e+00 3.1724320492e+00 
31500 5.9522847889e+00 -1.1030202523e-03 1.8316312409e+00 -3.1724783699e+00 1.8316312409e+00 3.1724783699e+00 
31600 5.9522854328e+00 -1.2217235954e-03 1.8316613513e+00 -3.1725305227e+00 1.8316613513e+00 3.1725305227e+00 
31700 5.9522859740e+00 -1.3355869375e-03 1.8316947015e+00 -3.1725882870e+00 1.8316947015e+00 3.1725882870e+00 
31800 5.9522864148e+00 -1.4444420078e-03 1.8317311593e+00 -3.1726514338e+00 1.8317311593e+00 3.1726514338e+00 
31900 5.9522867580e+00 -1.5481354604e-03 1.8317705878e+00 -3.1727197259e+00 1.8317705878e+00 3.1727197259e+00 
32000 5.9522870074e+00 -1.6465288947e-03 1.8318128459e+00 -3.1727929190e+00 1.8318128459e+00 3.1727929190e+00 
32100 5.9522871672e+00 -1.7394988423e-03 1.8318577887e+00 -3.1728707622e+00 1.8318577887e+00 3.1728707622e+00 
32200 5.9522872422e+00 -1.8269367229e-03 1.8319052680e+00 -3.1729529988e+00 1.8319052680e+00 3.1729529988e+00 
32300 5.9522872379e+00 -1.9087487687e-03 1.8319551326e+00 -3.1730393668e+00 1.8319551326e+00 3.1730393668e+00 
32400 5.9522871601e+00 -1.9848559187e-03 1.8320072288e+00 -3.1731296001e+00 1.8320072288e+00 3.1731296001e+00 
32500 5.9522870150e+00 -2.0551936836e-03 1.8320614007e+00 -3.1732234285e+00 1.8320614007e+00 3.1732234285e+00 
32600 5.9522868090e+00 -2.1197119824e-03 1.8321174906e+00 -3.1733205791e+00 1.8321174906e+00 3.1733205791e+00 
32700 5.9522865489e+00 -2.1783749516e-03 1.8321753396e+00 -3.1734207765e+00 1.8321753396e+00 3.1734207765e+00 
32800 5.9522862416e+00 -2.2311607282e-03 1.8322347877e+00 -3.1735237437e+00 1.8322347877e+00 3.1735237437e+00 
32900 5.9522858940e+00 -2.2780612069e-03 1.8322956743e+00 -3.1736292024e+00 1.8322956743e+00 3.1736292024e+00 
33000 5.9522855132e+00 -2.3190817730e-03 1.8323578388e+00 -3.1737368745e+00 1.8323578388e+00 3.1737368745e+00 
33100 5.9522851062e+00 -2.3542410122e-03 1.8324211205e+00 -3.1738464816e+00 1.8324211205e+00 3.1738464816e+00 
33200 5.9522846799e+00 -2.3835703980e-03 1.8324853595e+00 -3.1739577467e+00 1.8324853595e+00 3.1739577467e+00 
33300 5.9522842409e+00 -2.4071139580e-03 1.8325503964e+00 -3.1740703940e+00 1.8325503964e+00 3.1740703940e+00 
33400 5.9522837959e+00 -2.4249279199e-03 1.8326160734e+00 -3.1741841499e+00 1.8326160734e+00 3.1741841499e+00 
33500 5.9522833512e+00 -2.4370803387e-03 1.8326822341e+00 -3.1742987435e+00 1.8326822341e+00 3.1742987435e+00 
33600 5.9522829127e+00 -2.4436507066e-03 1.8327487239e+00 -3.1744139073e+00 1.8327487239e+00 3.1744139073e+00 
33700 5.9522824861e+00 -2.4447295448e-03 1.8328153906e+00 -3.1745293774e+00 1.8328153906e+00 3.1745293774e+00 
33800 5.9522820767e+00 -2.4404179814e-03 1.8328820843e+00 -3.1746448943e+00 1.8328820843e+00 3.1746448943e+00 
33900 5.9522816894e+00 -2.4308273138e-03 1.8329486579e+00 -3.1747602032e+00 1.8329486579e+00 3.1747602032e+00 
34000 5.9522813287e+00 -2.4160785580e-03 1.8330149675e+00 -3.1748750548e+00 1.8330149675e+00 3.1748750548e+00 
34100 5.9522809984e+00 -2.3963019866e-03 1.8330808724e+00 -3.1749892054e+00 1.8330808724e+00 3.1749892054e+00 
34200 5.9522807021e+00 -2.3716366545e-03 1.8331462355e+00 -3.1751024176e+00 1.8331462355e+00 3.1751024176e+00 
34300 5.9522804430e+00 -2.3422299163e-03 1.8332109235e+00 -3.1752144605e+00 1.8332109235e+00 3.1752144605e+00 
34400 5.9522802235e+00 -2.3082369340e-03 1.8332748071e+00 -3.1753251102e+00 1.8332748071e+00 3.1753251102e+00 
34500 5.9522800457e+00 -2.2698201778e-03 1.8333377614e+00 -3.1754341502e+00 1.8333377614e+00 3.1754341502e+00 
34600 5.9522799112e+00 -2.2271489206e-03 1.8333996658e+00 -3.1755413717e+00 1.8333996658e+00 3.1755413717e+00 
34700 5.9522798210e+00 -2.1803987272e-03 1.8334604043e+00 -3.1756465740e+00 1.8334604043e+00 3.1756465740e+00 
34800 5.9522797759e+00 -2.1297509395e-03 1.8335198660e+00 -3.1757495645e+00 1.8335198660e+00 3.1757495645e+00 
34900 5.9522797759e+00 -2.0753921592e-03 1.8335779445e+00 -3.1758501595e+00 1.8335779445e+00 3.1758501595e+00 
35000 5.9522798208e+00 -2.0175137283e-03 1.8336345388e+00 -3.1759481838e+00 1.8336345388e+00 3.1759481838e+00 
35100 5.9522799098e+00 -1.9563112094e-03 1.8336895532e+00 -3.1760434714e+00 1.8336895532e+00 3.1760434714e+00 
35200 5.9522800419e+00 -1.8919838662e-03 1.8337428970e+00 -3.1761358656e+00 1.8337428970e+00 3.1761358656e+00 
35300 5.9522802157e+00 -1.8247341458e-03 1.8337944853e+00 -3.1762252191e+00 1.8337944853e+00 3.1762252191e+00 
35400 5.9522804292e+00 -1.7547671634e-03 1.8338442385e+00 -3.1763113942e+00 1.8338442385e+00 3.1763113942e+00 
35500 5.9522806804e+00 -1.6822901912e-03 1.8338920826e+00 -3.1763942627e+00 1.8338920826e+00 3.1763942627e+00 
35600 5.9522809670e+00 -1.6075121513e-03 1.8339379495e+00 -3.1764737064e+00 1.8339379495e+00 3.1764737064e+00 
35700 5.9522812861e+00 -1.5306431147e-03 1.8339817764e+00 -3.1765496169e+00 1.8339817764e+00 3.1765496169e+00 
35800 5.9522816351e+00 -1.4518938075e-03 1.8340235066e+00 -3.1766218958e+00 1.8340235066e+00 3.1766218958e+00 
35900 5.9522820108e+00 -1.3714751237e-03 1.8340630890e+00 -3.1766904544e+00 1.8340630890e+00 3.1766904544e+00 
36000 5.9522824101e+00 -1.2895976475e-03 1.8341004781e+00 -3.1767552143e+00 1.8341004781e+00 3.1767552143e+00 
36100 5.9522828297e+00 -1.2064711849e-03 1.8341356344e+00 -3.1768161067e+00 1.8341356344e+00 3.1768161067e+00 
36200 5.9522832662e+00 -1.1223043051e-03 1.8341685238e+00 -3.1768730729e+00 1.8341685238e+00 3.1768730729e+00 
36300 5.9522837163e+00 -1.0373038939e-03 1.8341991183e+00 -3.1769260640e+00 1.8341991183e+00 3.1769260640e+00 
36400 5.9522841765e+00 -9.5167471884e-04 1.8342273951e+00 -3.1769750409e+00 1.8342273951e+00 3.1769750409e+00 
36500 5.9522846434e+00 -8.6561900659e-04 1.8342533373e+00 -3.1770199741e+00 1.8342533373e+00 3.1770199741e+00 
36600 5.9522851138e+00 -7.7933603456e-04 1.8342769333e+00 -3.1770608436e+00 1.8342769333e+00 3.1770608436e+00 
36700 5.9522855843e+00 -6.9302173624e-04 1.8342981770e+00 -3.1770976388e+00 1.8342981770e+00 3.1770976388e+00 
36800 5.9522860519e+00 -6.0686832155e-04 1.8343170677e+00 -3.1771303584e+00 1.8343170677e+00 3.1771303584e+00 
36900 5.9522865135e+00 -5.2106391255e-04 1.8343336098e+00 -3.1771590102e+00 1.8343336098e+00 3.1771590102e+00 
37000 5.9522869662e+00 -4.3579219516e-04 1.8343478129e+00 -3.1771836107e+00 1.8343478129e+00 3.1771836107e+00 
37100 5.9522874074e+00 -3.5123208741e-04 1.8343596916e+00 -3.1772041851e+00 1.8343596916e+00 3.1772041851e+00 
37200 5.9522878345e+00 -2.6755742470e-04 1.8343692653e+00 -3.1772207673e+00 1.8343692653e+00 3.1772207673e+00 
37300 5.9522882453e+00 -1.8493666246e-04 1.8343765582e+00 -3.1772333990e+00 1.8343765582e+00 3.1772333990e+00 
37400 5.9522886377e+00 -1.0353259661e-04 1.8343815990e+00 -3.1772421300e+00 1.8343815990e+00 3.1772421300e+00 
37500 5.9522890099e+00 -2.3502102236e-05 1.8343844210e+00 -3.1772470178e+00 1.8343844210e+00 3.1772470178e+00 
37600 5.9522893601e+00 5.4409264934e-05 1.8343844210e+00 -3.1772470178e+00 1.8343844210e+00 3.1772470178e+00 
37700 5.9522896875e+00 1.3263597149e-04 1.8343844210e+00 -3.1772470178e+00 1.8343844210e+00 3.1772470178e+00 
37800 5.9522899904e+00 2.0765072307e-04 1.8343808058e+00 -3.1772407560e+00 1.8343808058e+00 3.1772407560e+00 
37900 5.9522902681e+00 2.8072943682e-04 1.8343751458e+00 -3.1772309527e+00 1.8343751458e+00 3.1772309527e+00 
38000 5.9522905199e+00 3.5174801641e-04 1.8343674939e+00 -3.1772176992e+00 1.8343674939e+00 3.1772176992e+00 
38100 5.9522907455e+00 4.2058946367e-04 1.8343579062e+00 -3.1772010928e+00 1.8343579062e+00 3.1772010928e+00 
38200 5.9522909446e+00 4.8714400740e-04 1.8343464420e+00 -3.1771812362e+00 1.8343464420e+00 3.1771812362e+00 
38300 5.9522911175e+00 5.5130921305e-04 1.8343331636e+00 -3.1771582373e+00 1.8343331636e+00 3.1771582373e+00 
38400 5.9522912642e+00 6.1299007328e-04 1.8343181361e+00 -3.1771322090e+00 1.8343181361e+00 3.1771322090e+00 
38500 5.9522913854e+00 6.7209907965e-04 1.8343014272e+00 -3.1771032683e+00 1.8343014272e+00 3.1771032683e+00 
38600 5.9522914816e+00 7.2855627557e-04 1.8342831069e+00 -3.1770715367e+00 1.8342831069e+00 3.1770715367e+00 
38700 5.9522915539e+00 7.8228929061e-04 1.8342632475e+00 -3.1770371392e+00 1.8342632475e+00 3.1770371392e+00 
38800 5.9522916031e+00 8.3323335665e-04 1.8342419232e+00 -3.1770002044e+00 1.8342419232e+00 3.1770002044e+00 
38900 5.9522916305e+00 8.8133130602e-04 1.8342192100e+00 -3.1769608639e+00 1.8342192100e+00 3.1769608639e+00 
39000 5.9522916374e+00 9.2653355198e-04 1.8341951853e+00 -3.1769192520e+00 1.8341951853e+00 3.1769192520e+00 
39100 5.9522916252e+00 9.6879805199e-04 1.8341699282e+00 -3.1768755053e+00 1.8341699282e+00 3.1768755053e+00 
39200 5.9522915955e+00 1.0080902541e-03 1.8341435185e+00 -3.1768297624e+00 1.8341435185e+00 3.1768297624e+00 
39300 5.9522915498e+00 1.0443830271e-03 1.8341160374e+00 -3.1767821637e+00 1.8341160374e+00 3.1767821637e+00 
39400 5.9522914898e+00 1.0776565743e-03 1.8340875664e+00 -3.1767328506e+00 1.8340875664e+00 3.1767328506e+00 
39500 5.9522914173e+00 1.1078983329e-03 1.8340581879e+00 -3.1766819656e+00 1.8340581879e+00 3.1766819656e+00 
39600 5.9522913340e+00 1.1351028573e-03 1.8340279846e+00 -3.1766296518e+00 1.8340279846e+00 3.1766296518e+00 
39700 5.9522912417e+00 1.1592716890e-03 1.8339970390e+00 -3.1765760525e+00 1.8339970390e+00 3.1765760525e+00 
39800 5.9522911421e+00 1.1804132126e-03 1.8339654341e+00 -3.1765213111e+00 1.8339654341e+00 3.1765213111e+00 
39900 5.9522910371e+00 1.1985424985e-03 1.8339332522e+00 -3.1764655704e+00 1.8339332522e+00 3.1764655704e+00 
40000 5.9522909282e+00 1.2136811338e-03 1.8339005754e+00 -3.1764089727e+00 1.8339005754e+00 3.1764089727e+00 
40100 5.9522908172e+00 1.2258570405e-03 1.8338674854e+00 -3.1763516590e+00 1.8338674854e+00 3.1763516590e+00 
40200 5.9522907057e+00 1.2351042834e-03 1.8338340627e+00 -3.1762937693e+00 1.8338340627e+00 3.1762937693e+00 
40300 5.9522905951e+00 1.2414628674e-03 1.8338003874e+00 -3.1762354419e+00 1.8338003874e+00 3.1762354419e+00 
40400 5.9522904871e+00 1.2449785250e-03 1.8337665380e+00 -3.1761768131e+00 1.8337665380e+00 3.1761768131e+00 
40500 5.9522903829e+00 1.2457024945e-03 1.8337325922e+00 -3.1761180172e+00 1.8337325922e+00 3.1761180172e+00 
40600 5.9522902838e+00 1.2436912909e-03 1.8336986260e+00 -3.1760591860e+00 1.8336986260e+00 3.1760591860e+00 
40700 5.9522901910e+00 1.2390064683e-03 1.8336647140e+00 -3.1760004487e+00 1.8336647140e+00 3.1760004487e+00 
40800 5.9522901054e+00 1.2317143756e-03 1.8336309291e+00 -3.1759419316e+00 1.8336309291e+00 3.1759419316e+00 
40900 5.9522900281e+00 1.2218859068e-03 1.8335973425e+00 -3.1758837578e+00 1.8335973425e+00 3.1758837578e+00 
41000 5.9522899599e+00 1.2095962449e-03 1.8335640232e+00 -3.1758260471e+00 1.8335640232e+00 3.1758260471e+00 
41100 5.9522899013e+00 1.1949246021e-03 1.8335310385e+00 -3.1757689159e+00 1.8335310385e+00 3.1757689159e+00 
41200 5.9522898530e+00 1.1779539557e-03 1.8334984532e+00 -3.1757124766e+00 1.8334984532e+00 3.1757124766e+00 
41300 5.9522898154e+00 1.1587707804e-03 1.8334663302e+00 -3.1756568379e+00 1.8334663302e+00 3.1756568379e+00 
41400 5.9522897889e+00 1.1374647787e-03 1.8334347297e+00 -3.1756021043e+00 1.8334347297e+00 3.1756021043e+00 
41500 5.9522897736e+00 1.1141286092e-03 1.8334037098e+00 -3.1755483761e+00 1.8334037098e+00 3.1755483761e+00 
41600 5.9522897695e+00 1.0888576140e-03 1.8333733257e+00 -3.1754957494e+00 1.8333733257e+00 3.1754957494e+00 
41700 5.9522897767e+00 1.0617495450e-03 1.8333436303e+00 -3.1754443154e+00 1.8333436303e+00 3.1754443154e+00 
41800 5.9522897950e+00 1.0329042914e-03 1.8333146737e+00 -3.1753941612e+00 1.8333146737e+00 3.1753941612e+00 
41900 5.9522898242e+00 1.0024236071e-03 1.8332865034e+00 -3.1753453687e+00 1.8332865034e+00 3.1753453687e+00 
42000 5.9522898639e+00 9.7041084001e-04 1.8332591640e+00 -3.1752980154e+00 1.8332591640e+00 3.1752980154e+00 
42100 5.9522899136e+00 9.3697066360e-04 1.8332326972e+00 -3.1752521737e+00 1.8332326972e+00 3.1752521737e+00 
42200 5.9522899729e+00 9.0220881056e-04 1.8332071421e+00 -3.1752079109e+00 1.8332071421e+00 3.1752079109e+00 
42300 5.9522900413e+00 8.6623181016e-04 1.8331825348e+00 -3.1751652898e+00 1.8331825348e+00 3.1751652898e+00 
42400 5.9522901179e+00 8.2914672912e-04 1.8331589084e+00 -3.1751243677e+00 1.8331589084e+00 3.1751243677e+00 
42500 5.9522902022e+00 7.9106091684e-04 1.8331362932e+00 -3.1750851970e+00 1.8331362932e+00 3.1750851970e+00 
42600 5.9522902934e+00 7.5208175537e-04 1.8331147165e+00 -3.1750478251e+00 1.8331147165e+00 3.1750478251e+00 
42700 5.9522903906e+00 7.1231641468e-04 1.8330942028e+00 -3.1750122943e+00 1.8330942028e+00 3.1750122943e+00 
42800 5.9522904932e+00 6.7187161356e-04 1.8330747735e+00 -3.1749786417e+00 1.8330747735e+00 3.1749786417e+00 
42900 5.9522906001e+00 6.3085338672e-04 1.8330564472e+00 -3.1749468996e+00 1.8330564472e+00 3.1749468996e+00 
43000 5.9522907106e+00 5.8936685838e-04 1.8330392395e+00 -3.1749170951e+00 1.8330392395e+00 3.1749170951e+00 
43100 5.9522908239e+00 5.4751602278e-04 1.8330231633e+00 -3.1748892503e+00 1.8330231633e+00 3.1748892503e+00 
43200 5.9522909390e+00 5.0540353192e-04 1.8330082285e+00 -3.1748633825e+00 1.8330082285e+00 3.1748633825e+00 
43300 5.9522910552e+00 4.6313049095e-04 1.8329944424e+00 -3.1748395042e+00 1.8329944424e+00 3.1748395042e+00 
43400 5.9522911715e+00 4.2079626135e-04 1.8329818092e+00 -3.1748176229e+00 1.8329818092e+00 3.1748176229e+00 
43500 5.9522912873e+00 3.7849827237e-04 1.8329703308e+00 -3.1747977417e+00 1.8329703308e+00 3.1747977417e+00 
43600 5.9522914017e+00 3.3633184076e-04 1.8329600061e+00 -3.1747798587e+00 1.8329600061e+00 3.1747798587e+00 
43700 5.9522915140e+00 2.9438999926e-04 1.8329508315e+00 -3.1747639679e+00 1.8329508315e+00 3.1747639679e+00 
43800 5.9522916235e+00 2.5276333378e-04 1.8329428010e+00 -3.1747500587e+00 1.8329428010e+00 3.1747500587e+00 
43900 5.9522917297e+00 2.1153982973e-04 1.8329359060e+00 -3.1747381162e+00 1.8329359060e+00 3.1747381162e+00 
44000 5.9522918318e+00 1.7080472736e-04 1.8329301355e+00 -3.1747281214e+00 1.8329301355e+00 3.1747281214e+00 
44100 5.9522919294e+00 1.3064038647e-04 1.8329254762e+00 -3.1747200512e+00 1.8329254762e+00 3.1747200512e+00 
44200 5.9522920221e+00 9.1126160446e-05 1.8329219125e+00 -3.1747138787e+00 1.8329219125e+00 3.1747138787e+00 
44300 5.9522921093e+00 5.2338279787e-05 1.8329194266e+00 -3.1747095731e+00 1.8329194266e+00 3.1747095731e+00 
44400 5.9522921907e+00 1.5679794511e-05 1.8329194266e+00 -3.1747095731e+00 1.8329194266e+00 3.1747095731e+00 
44500 5.9522922659e+00 -2.1068149552e-05 1.8329194266e+00 -3.1747095731e+00 1.8329194266e+00 3.1747095731e+00 
44600 5.9522923349e+00 -5.7820662052e-05 1.8329194266e+00 -3.1747095731e+00 1.8329194266e+00 3.1747095731e+00 
44700 5.9522923977e+00 -9.4495701599e-05 1.8329194266e+00 -3.1747095731e+00 1.8329194266e+00 3.1747095731e+00 
44800 5.9522924538e+00 -1.2861316064e-04 1.8329220044e+00 -3.1747140379e+00 1.8329220044e+00 3.1747140379e+00 
44900 5.9522925032e+00 -1.6161868455e-04 1.8329255128e+00 -3.1747201146e+00 1.8329255128e+00 3.1747201146e+00 
45000 5.9522925461e+00 -1.9346031613e-04 1.8329299216e+00 -3.1747277508e+00 1.8329299216e+00 3.1747277508e+00 
45100 5.9522925823e+00 -2.2408981207e-04 1.8329351989e+00 -3.1747368915e+00 1.8329351989e+00 3.1747368915e+00 
45200 5.9522926122e+00 -2.5346267460e-04 1.8329413118e+00 -3.1747474793e+00 1.8329413118e+00 3.1747474793e+00 
45300 5.9522926357e+00 -2.8153817393e-04 1.8329482259e+00 -3.1747594549e+00 1.8329482259e+00 3.1747594549e+00 
45400 5.9522926532e+00 -3.0827936196e-04 1.8329559058e+00 -3.1747727569e+00 1.8329559058e+00 3.1747727569e+00 
45500 5.9522926649e+00 -3.3365307706e-04 1.8329643152e+00 -3.1747873223e+00 1.8329643152e+00 3.1747873223e+00 
45600 5.9522926710e+00 -3.5762994046e-04 1.8329734166e+00 -3.1748030865e+00 1.8329734166e+00 3.1748030865e+00 
45700 5.9522926719e+00 -3.8018434412e-04 1.8329831721e+00 -3.1748199835e+00 1.8329831721e+00 3.1748199835e+00 
45800 5.9522926680e+00 -4.0129443052e-04 1.8329935428e+00 -3.1748379460e+00 1.8329935428e+00 3.1748379460e+00 
45900 5.9522926596e+00 -4.2094206440e-04 1.8330044892e+00 -3.1748569058e+00 1.8330044892e+00 3.1748569058e+00 
46000 5.9522926472e+00 -4.3911279691e-04 1.8330159715e+00 -3.1748767937e+00 1.8330159715e+00 3.1748767937e+00 
46100 5.9522926310e+00 -4.5579582207e-04 1.8330279494e+00 -3.1748975400e+00 1.8330279494e+00 3.1748975400e+00 
46200 5.9522926117e+00 -4.7098392621e-04 1.8330403823e+00 -3.1749190744e+00 1.8330403823e+00 3.1749190744e+00 
46300 5.9522925896e+00 -4.8467343029e-04 1.8330532294e+00 -3.1749413262e+00 1.8330532294e+00 3.1749413262e+00 
46400 5.9522925651e+00 -4.9686412554e-04 1.8330664498e+00 -3.1749642246e+00 1.8330664498e+00 3.1749642246e+00 
46500 5.9522925388e+00 -5.0755920273e-04 1.8330800026e+00 -3.1749876988e+00 1.8330800026e+00 3.1749876988e+00 
46600 5.9522925110e+00 -5.1676517526e-04 1.8330938470e+00 -3.1750116781e+00 1.8330938470e+00 3.1750116781e+00 
46700 5.9522924822e+00 -5.2449179643e-04 1.8331079425e+00 -3.1750360922e+00 1.8331079425e+00 3.1750360922e+00 
46800 5.9522924528e+00 -5.3075197115e-04 1.8331222486e+00 -3.1750608711e+00 1.8331222486e+00 3.1750608711e+00 
46900 5.9522924232e+00 -5.3556166243e-04 1.8331367253e+00 -3.1750859455e+00 1.8331367253e+00 3.1750859455e+00 
47000 5.9522923938e+00 -5.3893979299e-04 1.8331513332e+00 -3.1751112470e+00 1.8331513332e+00 3.1751112470e+00 
47100 5.9522923649e+00 -5.4090814215e-04 1.8331660330e+00 -3.1751367078e+00 1.8331660330e+00 3.1751367078e+00 
47200 5.9522923370e+00 -5.4149123861e-04 1.8331807864e+00 -3.1751622615e+00 1.8331807864e+00 3.1751622615e+00 
47300 5.9522923103e+00 -5.4071624911e-04 1.8331955556e+00 -3.1751878425e+00 1.8331955556e+00 3.1751878425e+00 
47400 5.9522922851e+00 -5.3861286353e-04 1.8332103035e+00 -3.1752133867e+00 1.8332103035e+00 3.1752133867e+00 
47500 5.9522922618e+00 -5.3521317666e-04 1.8332249940e+00 -3.1752388313e+00 1.8332249940e+00 3.1752388313e+00 
47600 5.9522922405e+00 -5.3055156703e-04 1.8332395916e+00 -3.1752641151e+00 1.8332395916e+00 3.1752641151e+00 
47700 5.9522922214e+00 -5.2466457300e-04 1.8332540619e+00 -3.1752891784e+00 1.8332540619e+00 3.1752891784e+00 
47800 5.9522922048e+00 -5.1759076659e-04 1.8332683716e+00 -3.1753139635e+00 1.8332683716e+00 3.1753139635e+00 
47900 5.9522921907e+00 -5.0937062526e-04 1.8332824882e+00 -3.1753384142e+00 1.8332824882e+00 3.1753384142e+00 
48000 5.9522921794e+00 -5.0004640201e-04 1.8332963806e+00 -3.1753624764e+00 1.8332963806e+00 3.1753624764e+00 
48100 5.9522921708e+00 -4.8966199418e-04 1.8333100185e+00 -3.1753860980e+00 1.8333100185e+00 3.1753860980e+00 
48200 5.9522921650e+00 -4.7826281109e-04 1.8333233731e+00 -3.1754092289e+00 1.8333233731e+00 3.1754092289e+00 
48300 5.9522921621e+00 -4.6589564105e-04 1.8333364167e+00 -3.1754318211e+00 1.8333364167e+00 3.1754318211e+00 
48400 5.9522921621e+00 -4.5260851788e-04 1.8333491229e+00 -3.1754538289e+00 1.8333491229e+00 3.1754538289e+00 
48500 5.9522921648e+00 -4.3845058732e-04 1.8333614667e+00 -3.1754752090e+00 1.8333614667e+00 3.1754752090e+00 
48600 5.9522921704e+00 -4.2347197368e-04 1.8333734243e+00 -3.1754959201e+00 1.8333734243e+00 3.1754959201e+00 
48700 5.9522921786e+00 -4.0772364686e-04 1.8333849733e+00 -3.1755159235e+00 1.8333849733e+00 3.1755159235e+00 
48800 5.9522921894e+00 -3.9125729021e-04 1.8333960927e+00 -3.1755351830e+00 1.8333960927e+00 3.1755351830e+00 
48900 5.9522922027e+00 -3.7412516936e-04 1.8334067630e+00 -3.1755536645e+00 1.8334067630e+00 3.1755536645e+00 
49000 5.9522922182e+00 -3.5638000245e-04 1.8334169660e+00 -3.1755713366e+00 1.8334169660e+00 3.1755713366e+00 
49100 5.9522922360e+00 -3.3807483180e-04 1.8334266850e+00 -3.1755881704e+00 1.8334266850e+00 3.1755881704e+00 
49200 5.9522922557e+00 -3.1926289753e-04 1.8334359048e+00 -3.1756041395e+00 1.8334359048e+00 3.1756041395e+00 
49300 5.9522922772e+00 -2.9999751322e-04 1.8334446115e+00 -3.1756192200e+00 1.8334446115e+00 3.1756192200e+00 
49400 5.9522923003e+00 -2.8033194380e-04 1.8334527928e+00 -3.1756333903e+00 1.8334527928e+00 3.1756333903e+00 
49500 5.9522923248e+00 -2.6031928611e-04 1.8334604377e+00 -3.1756466317e+00 1.8334604377e+00 3.1756466317e+00 
49600 5.9522923505e+00 -2.4001235213e-04 1.8334675368e+00 -3.1756589278e+00 1.8334675368e+00 3.1756589278e+00 
49700 5.9522923772e+00 -2.1946355521e-04 1.8334740821e+00 -3.1756702646e+00 1.8334740821e+00 3.1756702646e+00 
49800 5.9522924046e+00 -1.9872479944e-04 1.8334800670e+00 -3.1756806308e+00 1.8334800670e+00 3.1756806308e+00 
49900 5.9522924326e+00 -1.7784737239e-04 1.8334854864e+00 -3.1756900173e+00 1.8334854864e+00 3.1756900173e+00 
50000 5.9522924609e+00 -1.5688184140e-04 1.8334903364e+00 -3.1756984178e+00 1.8334903364e+00 3.1756984178e+00 
50100 5.9522924893e+00 -1.3587795352e-04 1.8334946146e+00 -3.1757058279e+00 1.8334946146e+00 3.1757058279e+00 
50200 5.9522925177e+00 -1.1488453931e-04 1.8334983200e+00 -3.1757122459e+00 1.8334983200e+00 3.1757122459e+00 
50300 5.9522925457e+00 -9.3949420614e-05 1.8335014530e+00 -3.1757176723e+00 1.8335014530e+00 3.1757176723e+00 
50400 5.9522925734e+00 -7.3119322538e-05 1.8335040150e+00 -3.1757221098e+00 1.8335040150e+00 3.1757221098e+00 
50500 5.9522926004e+00 -5.2439789533e-05 1.8335060090e+00 -3.1757255635e+00 1.8335060090e+00 3.1757255635e+00 
50600 5.9522926266e+00 -3.3285292059e-05 1.8335060090e+00 -3.1757255635e+00 1.8335060090e+00 3.1757255635e+00 
50700 5.9522926518e+00 -1.3856022229e-05 1.8335060090e+00 -3.1757255635e+00 1.8335060090e+00 3.1757255635e+00 
50800 5.9522926758e+00 5.8017040079e-06 1.8335060090e+00 -3.1757255635e+00 1.8335060090e+00 3.1757255635e+00 
50900 5.9522926987e+00 2.5642613648e-05 1.8335060090e+00 -3.1757255635e+00 1.8335060090e+00 3.1757255635e+00 
51000 5.9522927203e+00 4.5622536698e-05 1.8335060090e+00 -3.1757255635e+00 1.8335060090e+00 3.1757255635e+00 
51100 5.9522927406e+00 6.5698461962e-05 1.8335060090e+00 -3.1757255635e+00 1.8335060090e+00 3.1757255635e+00 
51200 5.9522927595e+00 8.5828588599e-05 1.8335060090e+00 -3.1757255635e+00 1.8335060090e+00 3.1757255635e+00 
51300 5.9522927768e+00 1.0379494981e-04 1.8335036684e+00 -3.1757215095e+00 1.8335036684e+00 3.1757215095e+00 
51400 5.9522927925e+00 1.2126835591e-04 1.8335008379e+00 -3.1757166070e+00 1.8335008379e+00 3.1757166070e+00 
51500 5.9522928065e+00 1.3821851738e-04 1.8334975309e+00 -3.1757108790e+00 1.8334975309e+00 3.1757108790e+00 
51600 5.9522928189e+00 1.5461695053e-04 1.8334937616e+00 -3.1757043505e+00 1.8334937616e+00 3.1757043505e+00 
51700 5.9522928296e+00 1.7043700536e-04 1.8334895452e+00 -3.1756970474e+00 1.8334895452e+00 3.1756970474e+00 
51800 5.9522928387e+00 1.8565388894e-04 1.8334848973e+00 -3.1756889970e+00 1.8334848973e+00 3.1756889970e+00 
51900 5.9522928462e+00 2.0024468386e-04 1.8334798344e+00 -3.1756802279e+00 1.8334798344e+00 3.1756802279e+00 
52000 5.9522928521e+00 2.1418836225e-04 1.8334743736e+00 -3.1756707695e+00 1.8334743736e+00 3.1756707695e+00 
52100 5.9522928565e+00 2.2746579510e-04 1.8334685326e+00 -3.1756606525e+00 1.8334685326e+00 3.1756606525e+00 
52200 5.9522928595e+00 2.4005975712e-04 1.8334623294e+00 -3.1756499083e+00 1.8334623294e+00 3.1756499083e+00 
52300 5.9522928610e+00 2.5195492719e-04 1.8334557828e+00 -3.1756385693e+00 1.8334557828e+00 3.1756385693e+00 
52400 5.9522928612e+00 2.6313788443e-04 1.8334489118e+00 -3.1756266683e+00 1.8334489118e+00 3.1756266683e+00 
52500 5.9522928602e+00 2.7359710008e-04 1.8334417357e+00 -3.1756142390e+00 1.8334417357e+00 3.1756142390e+00 
52600 5.9522928580e+00 2.8332292517e-04 1.8334342745e+00 -3.1756013157e+00 1.8334342745e+00 3.1756013157e+00 
52700 5.9522928548e+00 2.9230757422e-04 1.8334265479e+00 -3.1755879329e+00 1.8334265479e+00 3.1755879329e+00 
52800 5.9522928506e+00 3.0054510498e-04 1.8334185763e+00 -3.1755741257e+00 1.8334185763e+00 3.1755741257e+00 
52900 5.9522928457e+00 3.0803139448e-04 1.8334103800e+00 -3.1755599293e+00 1.8334103800e+00 3.1755599293e+00 
53000 5.9522928400e+00 3.1476411125e-04 1.8334019795e+00 -3.1755453792e+00 1.8334019795e+00 3.1755453792e+00 
53100 5.9522928337e+00 3.2074268420e-04 1.8333933953e+00 -3.1755305110e+00 1.8333933953e+00 3.1755305110e+00 
53200 5.9522928269e+00 3.2596826801e-04 1.8333846481e+00 -3.1755153603e+00 1.8333846481e+00 3.1755153603e+00 
53300 5.9522928197e+00 3.3044370538e-04 1.8333757583e+00 -3.1754999628e+00 1.8333757583e+00 3.1754999628e+00 
53400 5.9522928122e+00 3.3417348607e-04 1.8333667464e+00 -3.1754843537e+00 1.8333667464e+00 3.1754843537e+00 
53500 5.9522928046e+00 3.3716370317e-04 1.8333576328e+00 -3.1754685684e+00 1.8333576328e+00 3.1754685684e+00 
53600 5.9522927969e+00 3.3942200652e-04 1.8333484375e+00 -3.1754526418e+00 1.8333484375e+00 3.1754526418e+00 
53700 5.9522927893e+00 3.4095755353e-04 1.8333391807e+00 -3.1754366084e+00 1.8333391807e+00 3.1754366084e+00 
53800 5.9522927817e+00 3.4178095765e-04 1.8333298819e+00 -3.1754205024e+00 1.8333298819e+00 3.1754205024e+00 
53900 5.9522927744e+00 3.4190423443e-04 1.8333205605e+00 -3.1754043574e+00 1.8333205605e+00 3.1754043574e+00 
54000 5.9522927674e+00 3.4134074567e-04 1.8333112358e+00 -3.1753882065e+00 1.8333112358e+00 3.1753882065e+00 
54100 5.9522927608e+00 3.4010514146e-04 1.8333019264e+00 -3.1753720822e+00 1.8333019264e+00 3.1753720822e+00 
54200 5.9522927546e+00 3.3821330063e-04 1.8332926507e+00 -3.1753560161e+00 1.8332926507e+00 3.1753560161e+00 
54300 5.9522927489e+00 3.3568226951e-04 1.8332834265e+00 -3.1753400394e+00 1.8332834265e+00 3.1753400394e+00 
54400 5.9522927438e+00 3.3253019933e-04 1.8332742713e+00 -3.1753241821e+00 1.8332742713e+00 3.1753241821e+00 
54500 5.9522927393e+00 3.2877628240e-04 1.8332652020e+00 -3.1753084736e+00 1.8332652020e+00 3.1753084736e+00 
54600 5.9522927354e+00 3.2444068718e-04 1.8332562350e+00 -3.1752929424e+00 1.8332562350e+00 3.1752929424e+00 
54700 5.9522927322e+00 3.1954449254e-04 1.8332473863e+00 -3.1752776159e+00 1.8332473863e+00 3.1752776159e+00 
54800 5.9522927297e+00 3.1410962118e-04 1.8332386710e+00 -3.1752625206e+00 1.8332386710e+00 3.1752625206e+00 
54900 5.9522927279e+00 3.0815877263e-04 1.8332301040e+00 -3.1752476821e+00 1.8332301040e+00 3.1752476821e+00 
55000 5.9522927269e+00 3.0171535576e-04 1.8332216992e+00 -3.1752331245e+00 1.8332216992e+00 3.1752331245e+00 
55100 5.9522927266e+00 2.9480342108e-04 1.8332134701e+00 -3.1752188713e+00 1.8332134701e+00 3.1752188713e+00 
55200 5.9522927270e+00 2.8744759305e-04 1.8332054295e+00 -3.1752049446e+00 1.8332054295e+00 3.1752049446e+00 
55300 5.9522927281e+00 2.7967300235e-04 1.8331975895e+00 -3.1751913652e+00 1.8331975895e+00 3.1751913652e+00 
55400 5.9522927299e+00 2.7150521852e-04 1.8331899614e+00 -3.1751781531e+00 1.8331899614e+00 3.1751781531e+00 
55500 5.9522927324e+00 2.6297018288e-04 1.8331825562e+00 -3.1751653269e+00 1.8331825562e+00 3.1751653269e+00 
55600 5.9522927355e+00 2.5409414209e-04 1.8331753837e+00 -3.1751529037e+00 1.8331753837e+00 3.1751529037e+00 
55700 5.9522927392e+00 2.4490358228e-04 1.8331684533e+00 -3.1751408999e+00 1.8331684533e+00 3.1751408999e+00 
55800 5.9522927434e+00 2.3542516407e-04 1.8331617735e+00 -3.1751293301e+00 1.8331617735e+00 3.1751293301e+00 
55900 5.9522927482e+00 2.2568565853e-04 1.8331553522e+00 -3.1751182081e+00 1.8331553522e+00 3.1751182081e+00 
56000 5.9522927535e+00 2.1571188415e-04 1.8331491965e+00 -3.1751075462e+00 1.8331491965e+00 3.1751075462e+00 
56100 5.9522927592e+00 2.0553064507e-04 1.8331433129e+00 -3.1750973555e+00 1.8331433129e+00 3.1750973555e+00 
56200 5.9522927652e+00 1.9516867057e-04 1.8331377069e+00 -3.1750876457e+00 1.8331377069e+00 3.1750876457e+00 
56300 5.9522927716e+00 1.8465255602e-04 1.8331323836e+00 -3.1750784254e+00 1.8331323836e+00 3.1750784254e+00 
56400 5.9522927782e+00 1.7400870527e-04 1.8331273471e+00 -3.1750697018e+00 1.8331273471e+00 3.1750697018e+00 
56500 5.9522927851e+00 1.6326327482e-04 1.8331226008e+00 -3.1750614811e+00 1.8331226008e+00 3.1750614811e+00 
56600 5.9522927921e+00 1.5244211949e-04 1.8331181477e+00 -3.1750537681e+00 1.8331181477e+00 3.1750537681e+00 
56700 5.9522927992e+00 1.4157074008e-04 1.8331139897e+00 -3.1750465662e+00 1.8331139897e+00 3.1750465662e+00 
56800 5.9522928064e+00 1.3067423284e-04 1.8331101282e+00 -3.1750398779e+00 1.8331101282e+00 3.1750398779e+00 
56900 5.9522928136e+00 1.1977724085e-04 1.8331065639e+00 -3.1750337044e+00 1.8331065639e+00 3.1750337044e+00 
57000 5.9522928207e+00 1.0890390753e-04 1.8331032969e+00 -3.1750280457e+00 1.8331032969e+00 3.1750280457e+00 
57100 5.9522928277e+00 9.8077832153e-05 1.8331003264e+00 -3.1750229007e+00 1.8331003264e+00 3.1750229007e+00 
57200 5.9522928346e+00 8.7322027579e-05 1.8330976512e+00 -3.1750182671e+00 1.8330976512e+00 3.1750182671e+00 
57300 5.9522928413e+00 7.6658880122e-05 1.8330952694e+00 -3.1750141417e+00 1.8330952694e+00 3.1750141417e+00 
57400 5.9522928478e+00 6.6110111696e-05 1.8330931784e+00 -3.1750105200e+00 1.8330931784e+00 3.1750105200e+00 
57500 5.9522928541e+00 5.7375745787e-05 1.8330931784e+00 -3.1750105200e+00 1.8330931784e+00 3.1750105200e+00 
57600 5.9522928601e+00 4.8541411094e-05 1.8330931784e+00 -3.1750105200e+00 1.8330931784e+00 3.1750105200e+00 
57700 5.9522928657e+00 3.9631092071e-05 1.8330931784e+00 -3.1750105200e+00 1.8330931784e+00 3.1750105200e+00 
57800 5.9522928709e+00 3.0668114075e-05 1.8330931784e+00 -3.1750105200e+00 1.8330931784e+00 3.1750105200e+00 
57900 5.9522928757e+00 2.1675116656e-05 1.8330931784e+00 -3.1750105200e+00 1.8330931784e+00 3.1750105200e+00 
58000 5.9522928801e+00 1.2674029175e-05 1.8330931784e+00 -3.1750105200e+00 1.8330931784e+00 3.1750105200e+00 
58100 5.9522928841e+00 3.6860486929e-06 1.8330931784e+00 -3.1750105200e+00 1.8330931784e+00 3.1750105200e+00 
58200 5.9522928877e+00 -5.2683798975e-06 1.8330931784e+00 -3.1750105200e+00 1.8330931784e+00 3.1750105200e+00 
58300 5.9522928909e+00 -1.4169581473e-05 1.8330931784e+00 -3.1750105200e+00 1.8330931784e+00 3.1750105200e+00 
58400 5.9522928938e+00 -2.2998666135e-05 1.8330931784e+00 -3.1750105200e+00 1.8330931784e+00 3.1750105200e+00 
58500 5.9522928962e+00 -3.1737542493e-05 1.8330931784e+00 -3.1750105200e+00 1.8330931784e+00 3.1750105200e+00 
58600 5.9522928983e+00 -4.0368928850e-05 1.8330931784e+00 -3.1750105200e+00 1.8330931784e+00 3.1750105200e+00 
58700 5.9522929001e+00 -4.8876362307e-05 1.8330931784e+00 -3.1750105200e+00 1.8330931784e+00 3.1750105200e+00 
58800 5.9522929015e+00 -5.7244205888e-05 1.8330931784e+00 -3.1750105200e+00 1.8330931784e+00 3.1750105200e+00 
58900 5.9522929026e+00 -6.5457653672e-05 1.8330931784e+00 -3.1750105200e+00 1.8330931784e+00 3.1750105200e+00 
59000 5.9522929034e+00 -7.3502734024e-05 1.8330931784e+00 -3.1750105200e+00 1.8330931784e+00 3.1750105200e+00 
59100 5.9522929037e+00 -7.9499843220e-05 1.8330951833e+00 -3.1750139926e+00 1.8330951833e+00 3.1750139926e+00 
59200 5.9522929038e+00 -8.5141079074e-05 1.8330973518e+00 -3.1750177485e+00 1.8330973518e+00 3.1750177485e+00 
59300 5.9522929035e+00 -9.0421109568e-05 1.8330996741e+00 -3.1750217709e+00 1.8330996741e+00 3.1750217709e+00 
59400 5.9522929030e+00 -9.5335537668e-05 1.8331021404e+00 -3.1750260427e+00 1.8331021404e+00 3.1750260427e+00 
59500 5.9522929022e+00 -9.9880891712e-05 1.8331047408e+00 -3.1750305467e+00 1.8331047408e+00 3.1750305467e+00 
59600 5.9522929013e+00 -1.0405461393e-04 1.8331074652e+00 -3.1750352654e+00 1.8331074652e+00 3.1750352654e+00 
59700 5.9522929001e+00 -1.0785504717e-04 1.8331103034e+00 -3.1750401814e+00 1.8331103034e+00 3.1750401814e+00 
59800 5.9522928988e+00 -1.1128141984e-04 1.8331132453e+00 -3.1750452768e+00 1.8331132453e+00 3.1750452768e+00 
59900 5.9522928973e+00 -1.1433382922e-04 1.8331162806e+00 -3.1750505341e+00 1.8331162806e+00 3.1750505341e+00 
60000 5.9522928957e+00 -1.1701322315e-04 1.8331193991e+00 -3.1750559356e+00 1.8331193991e+00 3.1750559356e+00 
60100 5.9522928941e+00 -1.1932138019e-04 1.8331225908e+00 -3.1750614637e+00 1.8331225908e+00 3.1750614637e+00 
60200 5.9522928924e+00 -1.2126088829e-04 1.8331258454e+00 -3.1750671008e+00 1.8331258454e+00 3.1750671008e+00 
60300 5.9522928907e+00 -1.2283512220e-04 1.8331291529e+00 -3.1750728296e+00 1.8331291529e+00 3.1750728296e+00 
60400 5.9522928890e+00 -1.2404821939e-04 1.8331325033e+00 -3.1750786327e+00 1.8331325033e+00 3.1750786327e+00 
60500 5.9522928873e+00 -1.2490505497e-04 1.8331358868e+00 -3.1750844931e+00 1.8331358868e+00 3.1750844931e+00 
60600 5.9522928856e+00 -1.2541121526e-04 1.8331392937e+00 -3.1750903940e+00 1.8331392937e+00 3.1750903940e+00 
60700 5.9522928840e+00 -1.2557297046e-04 1.8331427143e+00 -3.1750963187e+00 1.8331427143e+00 3.1750963187e+00 
60800 5.9522928826e+00 -1.2539724629e-04 1.8331461394e+00 -3.1751022511e+00 1.8331461394e+00 3.1751022511e+00 
60900 5.9522928812e+00 -1.2489159470e-04 1.8331495597e+00 -3.1751081752e+00 1.8331495597e+00 3.1751081752e+00 
61000 5.9522928799e+00 -1.2406416385e-04 1.8331529662e+00 -3.1751140754e+00 1.8331529662e+00 3.1751140754e+00 
61100 5.9522928788e+00 -1.2292366727e-04 1.8331563501e+00 -3.1751199365e+00 1.8331563501e+00 3.1751199365e+00 
61200 5.9522928778e+00 -1.2147935251e-04 1.8331597028e+00 -3.1751257437e+00 1.8331597028e+00 3.1751257437e+00 
61300 5.9522928769e+00 -1.1974096908e-04 1.8331630162e+00 -3.1751314827e+00 1.8331630162e+00 3.1751314827e+00 
61400 5.9522928763e+00 -1.1771873606e-04 1.8331662822e+00 -3.1751371395e+00 1.8331662822e+00 3.1751371395e+00 
61500 5.9522928758e+00 -1.1542330920e-04 1.8331694930e+00 -3.1751427008e+00 1.8331694930e+00 3.1751427008e+00 
61600 5.9522928755e+00 -1.1286574775e-04 1.8331726412e+00 -3.1751481536e+00 1.8331726412e+00 3.1751481536e+00 
61700 5.9522928753e+00 -1.1005748113e-04 1.8331757196e+00 -3.1751534856e+00 1.8331757196e+00 3.1751534856e+00 
61800 5.9522928754e+00 -1.0701027533e-04 1.8331787214e+00 -3.1751586849e+00 1.8331787214e+00 3.1751586849e+00 
61900 5.9522928756e+00 -1.0373619932e-04 1.8331816402e+00 -3.1751637403e+00 1.8331816402e+00 3.1751637403e+00 
62000 5.9522928760e+00 -1.0024759142e-04 1.8331844696e+00 -3.1751686409e+00 1.8331844696e+00 3.1751686409e+00 
62100 5.9522928766e+00 -9.6557025790e-05 1.8331872038e+00 -3.1751733768e+00 1.8331872038e+00 3.1751733768e+00 
62200 5.9522928773e+00 -9.2677279048e-05 1.8331898374e+00 -3.1751779383e+00 1.8331898374e+00 3.1751779383e+00 
62300 5.9522928782e+00 -8.8621297097e-05 1.8331923652e+00 -3.1751823165e+00 1.8331923652e+00 3.1751823165e+00 
62400 5.9522928793e+00 -8.4402162296e-05 1.8331947823e+00 -3.1751865031e+00 1.8331947823e+00 3.1751865031e+00 
62500 5.9522928805e+00 -8.0033060942e-05 1.8331970843e+00 -3.1751904904e+00 1.8331970843e+00 3.1751904904e+00 
62600 5.9522928818e+00 -7.5527251225e-05 1.8331992672e+00 -3.1751942712e+00 1.8331992672e+00 3.1751942712e+00 
62700 5.9522928833e+00 -7.0898031631e-05 1.8332013272e+00 -3.1751978392e+00 1.8332013272e+00 3.1751978392e+00 
62800 5.9522928849e+00 -6.6158709938e-05 1.8332032609e+00 -3.1752011885e+00 1.8332032609e+00 3.1752011885e+00 
62900 5.9522928867e+00 -6.3002027684e-05 1.8332032609e+00 -3.1752011885e+00 1.8332032609e+00 3.1752011885e+00 
63000 5.9522928885e+00 -5.9647851583e-05 1.8332032609e+00 -3.1752011885e+00 1.8332032609e+00 3.1752011885e+00 
63100 5.9522928904e+00 -5.6108463545e-05 1.8332032609e+00 -3.1752011885e+00 1.8332032609e+00 3.1752011885e+00 
63200 5.9522928923e+00 -5.2396135975e-05 1.8332032609e+00 -3.1752011885e+00 1.8332032609e+00 3.1752011885e+00 
63300 5.9522928942e+00 -4.8523106360e-05 1.8332032609e+00 -3.1752011885e+00 1.8332032609e+00 3.1752011885e+00 
63400 5.9522928961e+00 -4.4501552779e-05 1.8332032609e+00 -3.1752011885e+00 1.8332032609e+00 3.1752011885e+00 
63500 5.9522928980e+00 -4.0343570326e-05 1.8332032609e+00 -3.1752011885e+00 1.8332032609e+00 3.1752011885e+00 
63600 5.9522928999e+00 -3.6061148492e-05 1.8332032609e+00 -3.1752011885e+00 1.8332032609e+00 3.1752011885e+00 
63700 5.9522929018e+00 -3.1666149499e-05 1.8332032609e+00 -3.1752011885e+00 1.8332032609e+00 3.1752011885e+00 
63800 5.9522929037e+00 -2.7170287619e-05 1.8332032609e+00 -3.1752011885e+00 1.8332032609e+00 3.1752011885e+00 
63900 5.9522929055e+00 -2.2585109486e-05 1.8332032609e+00 -3.1752011885e+00 1.8332032609e+00 3.1752011885e+00 
64000 5.9522929072e+00 -1.7921975385e-05 1.8332032609e+00 -3.1752011885e+00 1.8332032609e+00 3.1752011885e+00 
64100 5.9522929089e+00 -1.3192041592e-05 1.8332032609e+00 -3.1752011885e+00 1.8332032609e+00 3.1752011885e+00 
64200 5.9522929105e+00 -8.4062436582e-06 1.8332032609e+00 -3.1752011885e+00 1.8332032609e+00 3.1752011885e+00 
64300 5.9522929121e+00 -3.5752807716e-06 1.8332032609e+00 -3.1752011885e+00 1.8332032609e+00 3.1752011885e+00 
64400 5.9522929136e+00 1.2903989097e-06 1.8332032609e+00 -3.1752011885e+00 1.8332032609e+00 3.1752011885e+00 
64500 5.9522929150e+00 6.1806118964e-06 1.8332032609e+00 -3.1752011885e+00 1.8332032609e+00 3.1752011885e+00 
64600 5.9522929164e+00 1.1085452023e-05 1.8332032609e+00 -3.1752011885e+00 1.8332032609e+00 3.1752011885e+00 
64700 5.9522929177e+00 1.5995302073e-05 1.8332032609e+00 -3.1752011885e+00 1.8332032609e+00 3.1752011885e+00 
64800 5.9522929189e+00 2.0900844429e-05 1.8332032609e+00 -3.1752011885e+00 1.8332032609e+00 3.1752011885e+00 
64900 5.9522929200e+00 2.5793070760e-05 1.8332032609e+00 -3.1752011885e+00 1.8332032609e+00 3.1752011885e+00 
65000 5.9522929210e+00 3.0663290703e-05 1.8332032609e+00 -3.1752011885e+00 1.8332032609e+00 3.1752011885e+00 
65100 5.9522929220e+00 3.5503139615e-05 1.8332032609e+00 -3.1752011885e+00 1.8332032609e+00 3.1752011885e+00 
65200 5.9522929229e+00 4.0304585385e-05 1.8332032609e+00 -3.1752011885e+00 1.8332032609e+00 3.1752011885e+00 
65300 5.9522929237e+00 4.5059934301e-05 1.8332032609e+00 -3.1752011885e+00 1.8332032609e+00 3.1752011885e+00 
65400 5.9522929245e+00 4.9761836029e-05 1.8332032609e+00 -3.1752011885e+00 1.8332032609e+00 3.1752011885e+00 
65500 5.9522929252e+00 5.4403287712e-05 1.8332032609e+00 -3.1752011885e+00 1.8332032609e+00 3.1752011885e+00 
65600 5.9522929258e+00 5.8977637180e-05 1.8332032609e+00 -3.1752011885e+00 1.8332032609e+00 3.1752011885e+00 
65700 5.9522929264e+00 6.3478585327e-05 1.8332032609e+00 -3.1752011885e+00 1.8332032609e+00 3.1752011885e+00 
65800 5.9522929269e+00 6.7900187682e-05 1.8332032609e+00 -3.1752011885e+00 1.8332032609e+00 3.1752011885e+00 
65900 5.9522929273e+00 7.2236855158e-05 1.8332032609e+00 -3.1752011885e+00 1.8332032609e+00 3.1752011885e+00 
66000 5.9522929276e+00 7.4649354156e-05 1.8332012907e+00 -3.1751977760e+00 1.8332012907e+00 3.1751977760e+00 
66100 5.9522929277e+00 7.6895869132e-05 1.8331992547e+00 -3.1751942495e+00 1.8331992547e+00 3.1751942495e+00 
66200 5.9522929278e+00 7.8973697269e-05 1.8331971573e+00 -3.1751906168e+00 1.8331971573e+00 3.1751906168e+00 
66300 5.9522929279e+00 8.0880602022e-05 1.8331950034e+00 -3.1751868860e+00 1.8331950034e+00 3.1751868860e+00 
66400 5.9522929278e+00 8.2614807580e-05 1.8331927974e+00 -3.1751830651e+00 1.8331927974e+00 3.1751830651e+00 
66500 5.9522929277e+00 8.4174992462e-05 1.8331905440e+00 -3.1751791622e+00 1.8331905440e+00 3.1751791622e+00 
66600 5.9522929276e+00 8.5560282257e-05 1.8331882482e+00 -3.1751751857e+00 1.8331882482e+00 3.1751751857e+00 
66700 5.9522929275e+00 8.6770241531e-05 1.8331859145e+00 -3.1751711437e+00 1.8331859145e+00 3.1751711437e+00 
66800 5.9522929273e+00 8.7804864960e-05 1.8331835479e+00 -3.1751670445e+00 1.8331835479e+00 3.1751670445e+00 
66900 5.9522929271e+00 8.8664567673e-05 1.8331811530e+00 -3.1751628965e+00 1.8331811530e+00 3.1751628965e+00 
67000 5.9522929268e+00 8.9350174916e-05 1.8331787347e+00 -3.1751587078e+00 1.8331787347e+00 3.1751587078e+00 
67100 5.9522929266e+00 8.9862910995e-05 1.8331762977e+00 -3.1751544868e+00 1.8331762977e+00 3.1751544868e+00 
67200 5.9522929264e+00 9.0204387593e-05 1.8331738466e+00 -3.1751502415e+00 1.8331738466e+00 3.1751502415e+00 
67300 5.9522929261e+00 9.0376591473e-05 1.8331713863e+00 -3.1751459801e+00 1.8331713863e+00 3.1751459801e+00 
67400 5.9522929259e+00 9.0381871616e-05 1.8331689213e+00 -3.1751417105e+00 1.8331689213e+00 3.1751417105e+00 
67500 5.9522929256e+00 9.0222925823e-05 1.8331664561e+00 -3.1751374407e+00 1.8331664561e+00 3.1751374407e+00 
67600 5.9522929254e+00 8.9902786818e-05 1.8331639953e+00 -3.1751331784e+00 1.8331639953e+00 3.1751331784e+00 
67700 5.9522929252e+00 8.9424807938e-05 1.8331615431e+00 -3.1751289312e+00 1.8331615431e+00 3.1751289312e+00 
67800 5.9522929251e+00 8.8792648359e-05 1.8331591040e+00 -3.1751247066e+00 1.8331591040e+00 3.1751247066e+00 
67900 5.9522929249e+00 8.8010258008e-05 1.8331566822e+00 -3.1751205118e+00 1.8331566822e+00 3.1751205118e+00 
68000 5.9522929248e+00 8.7081862113e-05 1.8331542817e+00 -3.1751163540e+00 1.8331542817e+00 3.1751163540e+00 
68100 5.9522929248e+00 8.6011945463e-05 1.8331519065e+00 -3.1751122400e+00 1.8331519065e+00 3.1751122400e+00 
68200 5.9522929247e+00 8.4805236471e-05 1.8331495605e+00 -3.1751081766e+00 1.8331495605e+00 3.1751081766e+00 
68300 5.9522929247e+00 8.3466690966e-05 1.8331472474e+00 -3.1751041702e+00 1.8331472474e+00 3.1751041702e+00 
68400 5.9522929248e+00 8.2001475855e-05 1.8331449708e+00 -3.1751002270e+00 1.8331449708e+00 3.1751002270e+00 
68500 5.9522929249e+00 8.0414952665e-05 1.8331427342e+00 -3.1750963531e+00 1.8331427342e+00 3.1750963531e+00 
68600 5.9522929250e+00 7.8712660977e-05 1.8331405408e+00 -3.1750925541e+00 1.8331405408e+00 3.1750925541e+00 
68700 5.9522929252e+00 7.6900301824e-05 1.8331383939e+00 -3.1750888355e+00 1.8331383939e+00 3.1750888355e+00 
68800 5.9522929254e+00 7.4983721082e-05 1.8331362964e+00 -3.1750852025e+00 1.8331362964e+00 3.1750852025e+00 
68900 5.9522929256e+00 7.2968892879e-05 1.8331342511e+00 -3.1750816600e+00 1.8331342511e+00 3.1750816600e+00 
69000 5.9522929259e+00 7.0861903062e-05 1.8331322608e+00 -3.1750782128e+00 1.8331322608e+00 3.1750782128e+00 
69100 5.9522929263e+00 6.8668932792e-05 1.8331303280e+00 -3.1750748651e+00 1.8331303280e+00 3.1750748651e+00 
69200 5.9522929268e+00 6.8140004389e-05 1.8331303280e+00 -3.1750748651e+00 1.8331303280e+00 3.1750748651e+00 
69300 5.9522929273e+00 6.7489155982e-05 1.8331303280e+00 -3.1750748651e+00 1.8331303280e+00 3.1750748651e+00 
69400 5.9522929278e+00 6.6722553641e-05 1.8331303280e+00 -3.1750748651e+00 1.8331303280e+00 3.1750748651e+00 
69500 5.9522929284e+00 6.5846392958e-05 1.8331303280e+00 -3.1750748651e+00 1.8331303280e+00 3.1750748651e+00 
69600 5.9522929290e+00 6.4866885220e-05 1.8331303280e+00 -3.1750748651e+00 1.8331303280e+00 3.1750748651e+00 
69700 5.9522929295e+00 6.3790244002e-05 1.8331303280e+00 -3.1750748651e+00 1.8331303280e+00 3.1750748651e+00 
69800 5.9522929301e+00 6.2622672198e-05 1.8331303280e+00 -3.1750748651e+00 1.8331303280e+00 3.1750748651e+00 
69900 5.9522929307e+00 6.1370349476e-05 1.8331303280e+00 -3.1750748651e+00 1.8331303280e+00 3.1750748651e+00 
70000 5.9522929313e+00 6.0039420211e-05 1.8331303280e+00 -3.1750748651e+00 1.8331303280e+00 3.1750748651e+00 
70100 5.9522929319e+00 5.8635981884e-05 1.8331303280e+00 -3.1750748651e+00 1.8331303280e+00 3.1750748651e+00 
70200 5.9522929324e+00 5.7166073940e-05 1.8331303280e+00 -3.1750748651e+00 1.8331303280e+00 3.1750748651e+00 
70300 5.9522929330e+00 5.5635667148e-05 1.8331303280e+00 -3.1750748651e+00 1.8331303280e+00 3.1750748651e+00 
70400 5.9522929336e+00 5.4050653446e-05 1.8331303280e+00 -3.1750748651e+00 1.8331303280e+00 3.1750748651e+00 
70500 5.9522929341e+00 5.2416836291e-05 1.8331303280e+00 -3.1750748651e+00 1.8331303280e+00 3.1750748651e+00 
70600 5.9522929346e+00 5.0739921498e-05 1.8331303280e+00 -3.1750748651e+00 1.8331303280e+00 3.1750748651e+00 
70700 5.9522929351e+00 4.9025508584e-05 1.8331303280e+00 -3.1750748651e+00 1.8331303280e+00 3.1750748651e+00 
70800 5.9522929356e+00 4.7279082640e-05 1.8331303280e+00 -3.1750748651e+00 1.8331303280e+00 3.1750748651e+00 
70900 5.9522929361e+00 4.5506006670e-05 1.8331303280e+00 -3.1750748651e+00 1.8331303280e+00 3.1750748651e+00 
71000 5.9522929366e+00 4.3711514487e-05 1.8331303280e+00 -3.1750748651e+00 1.8331303280e+00 3.1750748651e+00 
71100 5.9522929370e+00 4.1900704066e-05 1.8331303280e+00 -3.1750748651e+00 1.8331303280e+00 3.1750748651e+00 
71200 5.9522929374e+00 4.0078531426e-05 1.8331303280e+00 -3.1750748651e+00 1.8331303280e+00 3.1750748651e+00 
71300 5.9522929378e+00 3.8249805011e-05 1.8331303280e+00 -3.1750748651e+00 1.8331303280e+00 3.1750748651e+00 
71400 5.9522929382e+00 3.6419180552e-05 1.8331303280e+00 -3.1750748651e+00 1.8331303280e+00 3.1750748651e+00 
71500 5.9522929386e+00 3.4591156430e-05 1.8331303280e+00 -3.1750748651e+00 1.8331303280e+00 3.1750748651e+00 
71600 5.9522929389e+00 3.2770069516e-05 1.8331303280e+00 -3.1750748651e+00 1.8331303280e+00 3.1750748651e+00 
71700 5.9522929393e+00 3.0960091490e-05 1.8331303280e+00 -3.1750748651e+00 1.8331303280e+00 3.1750748651e+00 
71800 5.9522929396e+00 2.9165225622e-05 1.8331303280e+00 -3.1750748651e+00 1.8331303280e+00 3.1750748651e+00 
71900 5.9522929398e+00 2.7389304021e-05 1.8331303280e+00 -3.1750748651e+00 1.8331303280e+00 3.1750748651e+00 
72000 5.9522929401e+00 2.5635985329e-05 1.8331303280e+00 -3.1750748651e+00 1.8331303280e+00 3.1750748651e+00 
72100 5.9522929404e+00 2.3908752852e-05 1.8331303280e+00 -3.1750748651e+00 1.8331303280e+00 3.1750748651e+00 
72200 5.9522929406e+00 2.2210913128e-05 1.8331303280e+00 -3.1750748651e+00 1.8331303280e+00 3.1750748651e+00 
72300 5.9522929408e+00 2.0545594912e-05 1.8331303280e+00 -3.1750748651e+00 1.8331303280e+00 3.1750748651e+00 
72400 5.9522929410e+00 1.8915748560e-05 1.8331303280e+00 -3.1750748651e+00 1.8331303280e+00 3.1750748651e+00 
72500 5.9522929412e+00 1.7324145817e-05 1.8331303280e+00 -3.1750748651e+00 1.8331303280e+00 3.1750748651e+00 
72600 5.9522929414e+00 1.5773379981e-05 1.8331303280e+00 -3.1750748651e+00 1.8331303280e+00 3.1750748651e+00 
72700 5.9522929415e+00 1.4265866440e-05 1.8331303280e+00 -3.1750748651e+00 1.8331303280e+00 3.1750748651e+00 
72800 5.9522929417e+00 1.2803843568e-05 1.8331303280e+00 -3.1750748651e+00 1.8331303280e+00 3.1750748651e+00 
72900 5.9522929418e+00 1.1389373956e-05 1.8331303280e+00 -3.1750748651e+00 1.8331303280e+00 3.1750748651e+00 
73000 5.9522929420e+00 1.0024345977e-05 1.8331303280e+00 -3.1750748651e+00 1.8331303280e+00 3.1750748651e+00 
73100 5.9522929421e+00 8.7104756532e-06 1.8331303280e+00 -3.1750748651e+00 1.8331303280e+00 3.1750748651e+00 
73200 5.9522929422e+00 7.4493088513e-06 1.8331303280e+00 -3.1750748651e+00 1.8331303280e+00 3.1750748651e+00 
73300 5.9522929423e+00 6.2422237283e-06 1.8331303280e+00 -3.1750748651e+00 1.8331303280e+00 3.1750748651e+00 
73400 5.9522929424e+00 5.0904334743e-06 1.8331303280e+00 -3.1750748651e+00 1.8331303280e+00 3.1750748651e+00 
73500 5.9522929425e+00 3.9949893020e-06 1.8331303280e+00 -3.1750748651e+00 1.8331303280e+00 3.1750748651e+00 
73600 5.9522929426e+00 2.9567836701e-06 1.8331303280e+00 -3.1750748651e+00 1.8331303280e+00 3.1750748651e+00 
73700 5.9522929427e+00 1.9765537546e-06 1.8331303280e+00 -3.1750748651e+00 1.8331303280e+00 3.1750748651e+00 
73800 5.9522929428e+00 1.0548850992e-06 1.8331303280e+00 -3.1750748651e+00 1.8331303280e+00 3.1750748651e+00 
73900 5.9522929429e+00 1.9221550571e-07 1.8331303280e+00 -3.1750748651e+00 1.8331303280e+00 3.1750748651e+00 
74000 5.9522929430e+00 -6.1116093613e-07 1.8331303280e+00 -3.1750748651e+00 1.8331303280e+00 3.1750748651e+00 
74100 5.9522929431e+00 -1.3550896252e-06 1.8331303280e+00 -3.1750748651e+00 1.8331303280e+00 3.1750748651e+00 
74200 5.9522929432e+00 -2.0395510731e-06 1.8331303280e+00 -3.1750748651e+00 1.8331303280e+00 3.1750748651e+00 
74300 5.9522929433e+00 -2.6646564055e-06 1.8331303280e+00 -3.1750748651e+00 1.8331303280e+00 3.1750748651e+00 
74400 5.9522929434e+00 -3.2306427183e-06 1.8331303280e+00 -3.1750748651e+00 1.8331303280e+00 3.1750748651e+00 
74500 5.9522929435e+00 -3.7378683368e-06 1.8331303280e+00 -3.1750748651e+00 1.8331303280e+00 3.1750748651e+00 
74600 5.9522929436e+00 -4.1868079711e-06 1.8331303280e+00 -3.1750748651e+00 1.8331303280e+00 3.1750748651e+00 
74700 5.9522929437e+00 -4.5780477941e-06 1.8331303280e+00 -3.1750748651e+00 1.8331303280e+00 3.1750748651e+00 
74800 5.9522929438e+00 -4.9122804370e-06 1.8331303280e+00 -3.1750748651e+00 1.8331303280e+00 3.1750748651e+00 
74900 5.9522929439e+00 -5.1902999332e-06 1.8331303280e+00 -3.1750748651e+00 1.8331303280e+00 3.1750748651e+00 
75000 5.9522929441e+00 -5.4129966305e-06 1.8331303280e+00 -3.1750748651e+00 1.8331303280e+00 3.1750748651e+00 
75100 5.9522929442e+00 -5.5813520420e-06 1.8331303280e+00 -3.1750748651e+00 1.8331303280e+00 3.1750748651e+00 
75200 5.9522929443e+00 -5.6964336994e-06 1.8331303280e+00 -3.1750748651e+00 1.8331303280e+00 3.1750748651e+00 
75300 5.9522929444e+00 -5.7593899835e-06 1.8331303280e+00 -3.1750748651e+00 1.8331303280e+00 3.1750748651e+00 
75400 5.9522929446e+00 -5.7714449731e-06 1.8331303280e+00 -3.1750748651e+00 1.8331303280e+00 3.1750748651e+00 
75500 5.9522929447e+00 -5.7338932829e-06 1.8331303280e+00 -3.1750748651e+00 1.8331303280e+00 3.1750748651e+00 
75600 5.9522929448e+00 -5.6480949380e-06 1.8331303280e+00 -3.1750748651e+00 1.8331303280e+00 3.1750748651e+00 
75700 5.9522929450e+00 -5.5154702903e-06 1.8331303280e+00 -3.1750748651e+00 1.8331303280e+00 3.1750748651e+00 
75800 5.9522929451e+00 -5.3374949504e-06 1.8331303280e+00 -3.1750748651e+00 1.8331303280e+00 3.1750748651e+00 
75900 5.9522929453e+00 -5.1156948094e-06 1.8331303280e+00 -3.1750748651e+00 1.8331303280e+00 3.1750748651e+00 
76000 5.9522929454e+00 -4.8516410792e-06 1.8331303280e+00 -3.1750748651e+00 1.8331303280e+00 3.1750748651e+00 
76100 5.9522929455e+00 -4.5469454359e-06 1.8331303280e+00 -3.1750748651e+00 1.8331303280e+00 3.1750748651e+00 
76200 5.9522929457e+00 -4.2032552266e-06 1.8331303280e+00 -3.1750748651e+00 1.8331303280e+00 3.1750748651e+00 
76300 5.9522929458e+00 -3.8222487620e-06 1.8331303280e+00 -3.1750748651e+00 1.8331303280e+00 3.1750748651e+00 
76400 5.9522929460e+00 -3.4056306922e-06 1.8331303280e+00 -3.1750748651e+00 1.8331303280e+00 3.1750748651e+00 
76500 5.9522929462e+00 -2.9551275072e-06 1.8331303280e+00 -3.1750748651e+00 1.8331303280e+00 3.1750748651e+00 
76600 5.9522929463e+00 -2.4724831075e-06 1.8331303280e+00 -3.1750748651e+00 1.8331303280e+00 3.1750748651e+00 
76700 5.9522929465e+00 -1.9594545121e-06 1.8331303280e+00 -3.1750748651e+00 1.8331303280e+00 3.1750748651e+00 
76800 5.9522929466e+00 -1.4178076712e-06 1.8331303280e+00 -3.1750748651e+00 1.8331303280e+00 3.1750748651e+00 
76900 5.9522929468e+00 -8.4931340249e-07 1.8331303280e+00 -3.1750748651e+00 1.8331303280e+00 3.1750748651e+00 
77000 5.9522929469e+00 -2.5574345187e-07 1.8331303280e+00 -3.1750748651e+00 1.8331303280e+00 3.1750748651e+00 
77100 5.9522929471e+00 3.6113332027e-07 1.8331303280e+00 -3.1750748651e+00 1.8331303280e+00 3.1750748651e+00 
77200 5.9522929472e+00 9.9955460398e-07 1.8331303280e+00 -3.1750748651e+00 1.8331303280e+00 3.1750748651e+00 
77300 5.9522929474e+00 1.6577681844e-06 1.8331303280e+00 -3.1750748651e+00 1.8331303280e+00 3.1750748651e+00 
77400 5.9522929475e+00 2.3340353491e-06 1.8331303280e+00 -3.1750748651e+00 1.8331303280e+00 3.1750748651e+00 
77500 5.9522929477e+00 3.0266341259e-06 1.8331303280e+00 -3.1750748651e+00 1.8331303280e+00 3.1750748651e+00 
77600 5.9522929478e+00 3.7338624079e-06 1.8331303280e+00 -3.1750748651e+00 1.8331303280e+00 3.1750748651e+00 
77700 5.9522929479e+00 4.4540409231e-06 1.8331303280e+00 -3.1750748651e+00 1.8331303280e+00 3.1750748651e+00 
77800 5.9522929481e+00 5.1855160422e-06 1.8331303280e+00 -3.1750748651e+00 1.8331303280e+00 3.1750748651e+00 
77900 5.9522929482e+00 5.9266624551e-06 1.8331303280e+00 -3.1750748651e+00 1.8331303280e+00 3.1750748651e+00 
78000 5.9522929483e+00 6.6758856857e-06 1.8331303280e+00 -3.1750748651e+00 1.8331303280e+00 3.1750748651e+00 
78100 5.9522929485e+00 7.4316244708e-06 1.8331303280e+00 -3.1750748651e+00 1.8331303280e+00 3.1750748651e+00 
78200 5.9522929486e+00 8.1923529783e-06 1.8331303280e+00 -3.1750748651e+00 1.8331303280e+00 3.1750748651e+00 
78300 5.9522929487e+00 8.9565828783e-06 1.8331303280e+00 -3.1750748651e+00 1.8331303280e+00 3.1750748651e+00 
78400 5.9522929489e+00 9.7228652626e-06 1.8331303280e+00 -3.1750748651e+00 1.8331303280e+00 3.1750748651e+00 
78500 5.9522929490e+00 1.0489792426e-05 1.8331303280e+00 -3.1750748651e+00 1.8331303280e+00 3.1750748651e+00 
78600 5.9522929491e+00 1.1255999492e-05 1.8331303280e+00 -3.1750748651e+00 1.8331303280e+00 3.1750748651e+00 
78700 5.9522929492e+00 1.2020165899e-05 1.8331303280e+00 -3.1750748651e+00 1.8331303280e+00 3.1750748651e+00 
78800 5.9522929493e+00 1.2781016732e-05 1.8331303280e+00 -3.1750748651e+00 1.8331303280e+00 3.1750748651e+00 
78900 5.9522929494e+00 1.3537323927e-05 1.8331303280e+00 -3.1750748651e+00 1.8331303280e+00 3.1750748651e+00 
79000 5.9522929495e+00 1.4287907327e-05 1.8331303280e+00 -3.1750748651e+00 1.8331303280e+00 3.1750748651e+00 
79100 5.9522929496e+00 1.5031635612e-05 1.8331303280e+00 -3.1750748651e+00 1.8331303280e+00 3.1750748651e+00 
79200 5.9522929497e+00 1.5767427065e-05 1.8331303280e+00 -3.1750748651e+00 1.8331303280e+00 3.1750748651e+00 
79300 5.9522929498e+00 1.6494250253e-05 1.8331303280e+00 -3.1750748651e+00 1.8331303280e+00 3.1750748651e+00 
79400 5.9522929499e+00 1.7211124538e-05 1.8331303280e+00 -3.1750748651e+00 1.8331303280e+00 3.1750748651e+00 
79500 5.9522929500e+00 1.7917120484e-05 1.8331303280e+00 -3.1750748651e+00 1.8331303280e+00 3.1750748651e+00 
79600 5.9522929501e+00 1.8611360130e-05 1.8331303280e+00 -3.1750748651e+00 1.8331303280e+00 3.1750748651e+00 
79700 5.9522929502e+00 1.9293017164e-05 1.8331303280e+00 -3.1750748651e+00 1.8331303280e+00 3.1750748651e+00 
79800 5.9522929503e+00 1.9961316955e-05 1.8331303280e+00 -3.1750748651e+00 1.8331303280e+00 3.1750748651e+00 
79900 5.9522929504e+00 2.0615536495e-05 1.8331303280e+00 -3.1750748651e+00 1.8331303280e+00 3.1750748651e+00 
80000 5.9522929505e+00 2.1255004228e-05 1.8331303280e+00 -3.1750748651e+00 1.8331303280e+00 3.1750748651e+00 
80100 5.9522929506e+00 2.1879099766e-05 1.8331303280e+00 -3.1750748651e+00 1.8331303280e+00 3.1750748651e+00 
80200 5.9522929506e+00 2.2487253526e-05 1.8331303280e+00 -3.1750748651e+00 1.8331303280e+00 3.1750748651e+00 
80300 5.9522929507e+00 2.3078946246e-05 1.8331303280e+00 -3.1750748651e+00 1.8331303280e+00 3.1750748651e+00 
80400 5.9522929508e+00 2.3653708431e-05 1.8331303280e+00 -3.1750748651e+00 1.8331303280e+00 3.1750748651e+00 
80500 5.9522929509e+00 2.4211119706e-05 1.8331303280e+00 -3.1750748651e+00 1.8331303280e+00 3.1750748651e+00 
80600 5.9522929509e+00 2.4750808074e-05 1.8331303280e+00 -3.1750748651e+00 1.8331303280e+00 3.1750748651e+00 
80700 5.9522929510e+00 2.5272449125e-05 1.8331303280e+00 -3.1750748651e+00 1.8331303280e+00 3.1750748651e+00 
80800 5.9522929511e+00 2.5775765130e-05 1.8331303280e+00 -3.1750748651e+00 1.8331303280e+00 3.1750748651e+00 
80900 5.9522929512e+00 2.6260524107e-05 1.8331303280e+00 -3.1750748651e+00 1.8331303280e+00 3.1750748651e+00 
81000 5.9522929512e+00 2.6726538796e-05 1.8331303280e+00 -3.1750748651e+00 1.8331303280e+00 3.1750748651e+00 
81100 5.9522929513e+00 2.7173665576e-05 1.8331303280e+00 -3.1750748651e+00 1.8331303280e+00 3.1750748651e+00 
81200 5.9522929514e+00 2.7601803337e-05 1.8331303280e+00 -3.1750748651e+00 1.8331303280e+00 3.1750748651e+00 
81300 5.9522929514e+00 2.8010892281e-05 1.8331303280e+00 -3.1750748651e+00 1.8331303280e+00 3.1750748651e+00 
81400 5.9522929515e+00 2.8400912704e-05 1.8331303280e+00 -3.1750748651e+00 1.8331303280e+00 3.1750748651e+00 
81500 5.9522929516e+00 2.8771883696e-05 1.8331303280e+00 -3.1750748651e+00 1.8331303280e+00 3.1750748651e+00 
81600 5.9522929516e+00 2.9123861832e-05 1.8331303280e+00 -3.1750748651e+00 1.8331303280e+00 3.1750748651e+00 
81700 5.9522929517e+00 2.9456939821e-05 1.8331303280e+00 -3.1750748651e+00 1.8331303280e+00 3.1750748651e+00 
81800 5.9522929518e+00 2.9771245110e-05 1.8331303280e+00 -3.1750748651e+00 1.8331303280e+00 3.1750748651e+00 
81900 5.9522929518e+00 3.0066938473e-05 1.8331303280e+00 -3.1750748651e+00 1.8331303280e+00 3.1750748651e+00 
82000 5.9522929519e+00 3.0344212585e-05 1.8331303280e+00 -3.1750748651e+00 1.8331303280e+00 3.1750748651e+00 
82100 5.9522929520e+00 3.0603290545e-05 1.8331303280e+00 -3.1750748651e+00 1.8331303280e+00 3.1750748651e+00 
82200 5.9522929520e+00 3.0844424422e-05 1.8331303280e+00 -3.1750748651e+00 1.8331303280e+00 3.1750748651e+00 
82300 5.9522929521e+00 3.1067893758e-05 1.8331303280e+00 -3.1750748651e+00 1.8331303280e+00 3.1750748651e+00 
82400 5.9522929522e+00 3.1274004076e-05 1.8331303280e+00 -3.1750748651e+00 1.8331303280e+00 3.1750748651e+00 
82500 5.9522929522e+00 3.1463085390e-05 1.8331303280e+00 -3.1750748651e+00 1.8331303280e+00 3.1750748651e+00 
82600 5.9522929523e+00 3.1635490690e-05 1.8331303280e+00 -3.1750748651e+00 1.8331303280e+00 3.1750748651e+00 
82700 5.9522929523e+00 3.1791594449e-05 1.8331303280e+00 -3.1750748651e+00 1.8331303280e+00 3.1750748651e+00 
82800 5.9522929524e+00 3.1931791138e-05 1.8331303280e+00 -3.1750748651e+00 1.8331303280e+00 3.1750748651e+00 
82900 5.9522929525e+00 3.2056493712e-05 1.8331303280e+00 -3.1750748651e+00 1.8331303280e+00 3.1750748651e+00 
83000 5.9522929525e+00 3.2166132158e-05 1.8331303280e+00 -3.1750748651e+00 1.8331303280e+00 3.1750748651e+00 
83100 5.9522929526e+00 3.2261152024e-05 1.8331303280e+00 -3.1750748651e+00 1.8331303280e+00 3.1750748651e+00 
83200 5.9522929526e+00 3.2342012962e-05 1.8331303280e+00 -3.1750748651e+00 1.8331303280e+00 3.1750748651e+00 
83300 5.9522929527e+00 3.2409187313e-05 1.8331303280e+00 -3.1750748651e+00 1.8331303280e+00 3.1750748651e+00 
83400 5.9522929528e+00 3.2463158685e-05 1.8331303280e+00 -3.1750748651e+00 1.8331303280e+00 3.1750748651e+00 
83500 5.9522929528e+00 3.2504420568e-05 1.8331303280e+00 -3.1750748651e+00 1.8331303280e+00 3.1750748651e+00 
83600 5.9522929529e+00 3.2533474981e-05 1.8331303280e+00 -3.1750748651e+00 1.8331303280e+00 3.1750748651e+00 
83700 5.9522929529e+00 3.2550831140e-05 1.8331303280e+00 -3.1750748651e+00 1.8331303280e+00 3.1750748651e+00 
83800 5.9522929530e+00 3.2557004142e-05 1.8331303280e+00 -3.1750748651e+00 1.8331303280e+00 3.1750748651e+00 
83900 5.9522929531e+00 3.2552513703e-05 1.8331303280e+00 -3.1750748651e+00 1.8331303280e+00 3.1750748651e+00 
84000 5.9522929531e+00 3.2537882913e-05 1.8331303280e+00 -3.1750748651e+00 1.8331303280e+00 3.1750748651e+00 
84100 5.9522929532e+00 3.2513637030e-05 1.8331303280e+00 -3.1750748651e+00 1.8331303280e+00 3.1750748651e+00 
84200 5.9522929532e+00 3.2480302312e-05 1.8331303280e+00 -3.1750748651e+00 1.8331303280e+00 3.1750748651e+00 
84300 5.9522929533e+00 3.2438404881e-05 1.8331303280e+00 -3.1750748651e+00 1.8331303280e+00 3.1750748651e+00 
84400 5.9522929533e+00 3.2388469631e-05 1.8331303280e+00 -3.1750748651e+00 1.8331303280e+00 3.1750748651e+00 
84500 5.9522929534e+00 3.2331019164e-05 1.8331303280e+00 -3.1750748651e+00 1.8331303280e+00 3.1750748651e+00 
84600 5.9522929534e+00 3.2266572786e-05 1.8331303280e+00 -3.1750748651e+00 1.8331303280e+00 3.1750748651e+00 
84700 5.9522929535e+00 3.2195645524e-05 1.8331303280e+00 -3.1750748651e+00 1.8331303280e+00 3.1750748651e+00 
84800 5.9522929535e+00 3.2118747191e-05 1.8331303280e+00 -3.1750748651e+00 1.8331303280e+00 3.1750748651e+00 
84900 5.9522929536e+00 3.2036381501e-05 1.8331303280e+00 -3.1750748651e+00 1.8331303280e+00 3.1750748651e+00 
85000 5.9522929536e+00 3.1949045218e-05 1.8331303280e+00 -3.1750748651e+00 1.8331303280e+00 3.1750748651e+00 
85100 5.9522929537e+00 3.1857227346e-05 1.8331303280e+00 -3.1750748651e+00 1.8331303280e+00 3.1750748651e+00 
85200 5.9522929537e+00 3.1761408373e-05 1.8331303280e+00 -3.1750748651e+00 1.8331303280e+00 3.1750748651e+00 
85300 5.9522929538e+00 3.1662059549e-05 1.8331303280e+00 -3.1750748651e+00 1.8331303280e+00 3.1750748651e+00 
85400 5.9522929538e+00 3.1559642212e-05 1.8331303280e+00 -3.1750748651e+00 1.8331303280e+00 3.1750748651e+00 
85500 5.9522929539e+00 3.1458853265e-05 1.8331303280e+00 -3.1750748651e+00 1.8331303280e+00 3.1750748651e+00 
85500 5.9522929539e+00 3.1458853265e-05 1.8331303280e+00 -3.1750748651e+00 1.8331303280e+00 3.1750748651e+00 
