# step Hamiltonian StressXX CellTensor1 CellTensor2 CellTensor3 CellTensor4 
0 6.7269161780e+00 -2.0784452153e-01 1.7438352029e+00 -3.0204111715e+00 1.7438352029e+00 3.0204111715e+00 
100 6.7133533959e+00 -2.0790946509e-01 1.7438352029e+00 -3.0204111715e+00 1.7438352029e+00 3.0204111715e+00 
200 6.6995277635e+00 -2.0310854983e-01 1.7497998582e+00 -3.0307422575e+00 1.7497998582e+00 3.0307422575e+00 
300 6.6869154009e+00 -1.9849888329e-01 1.7556068211e+00 -3.0408002123e+00 1.7556068211e+00 3.0408002123e+00 
400 6.6755020218e+00 -1.9407411407e-01 1.7612631295e+00 -3.0505972259e+00 1.7612631295e+00 3.0505972259e+00 
500 6.6652646487e+00 -1.8982996760e-01 1.7667755081e+00 -3.0601449455e+00 1.7667755081e+00 3.0601449455e+00 
600 6.6561720230e+00 -1.8576402863e-01 1.7721504376e+00 -3.0694545966e+00 1.7721504376e+00 3.0694545966e+00 
700 6.6481851559e+00 -1.8187549464e-01 1.7773942172e+00 -3.0785370893e+00 1.7773942172e+00 3.0785370893e+00 
800 6.6412579954e+00 -1.7816491311e-01 1.7825130170e+00 -3.0874031105e+00 1.7825130170e+00 3.0874031105e+00 
900 6.6353381829e+00 -1.7463391320e-01 1.7875129225e+00 -3.0960632009e+00 1.7875129225e+00 3.0960632009e+00 
1000 6.6303678763e+00 -1.7128494021e-01 1.7923999706e+00 -3.1045278166e+00 1.7923999706e+00 3.1045278166e+00 
1100 6.6262846177e+00 -1.6812099896e-01 1.7971801771e+00 -3.1128073771e+00 1.7971801771e+00 3.1128073771e+00 
1200 6.6230222248e+00 -1.6514541089e-01 1.8018595559e+00 -3.1209122988e+00 1.8018595559e+00 3.1209122988e+00 
1300 6.6205116890e+00 -1.6236158823e-01 1.8064441317e+00 -3.1288530171e+00 1.8064441317e+00 3.1288530171e+00 
1400 6.6186820624e+00 -1.5977282751e-01 1.8109399458e+00 -3.1366399955e+00 1.8109399458e+00 3.1366399955e+00 
1500 6.6174613205e+00 -1.5738212402e-01 1.8153530556e+00 -3.1442837259e+00 1.8153530556e+00 3.1442837259e+00 
1600 6.6167771880e+00 -1.5519200822e-01 1.8196895291e+00 -3.1517947183e+00 1.8196895291e+00 3.1517947183e+00 
1700 6.6165579173e+00 -1.5320440446e-01 1.8239554348e+00 -3.1591834838e+00 1.8239554348e+00 3.1591834838e+00 
1800 6.6167330105e+00 -1.5142051233e-01 1.8281568275e+00 -3.1664605095e+00 1.8281568275e+00 3.1664605095e+00 
1900 6.6172338785e+00 -1.4984071026e-01 1.8322997312e+00 -3.1736362291e+00 1.8322997312e+00 3.1736362291e+00 
2000 6.6179944322e+00 -1.4846448115e-01 1.8363901186e+00 -3.1807209880e+00 1.8363901186e+00 3.1807209880e+00 
2100 6.6189516016e+00 -1.4729035901e-01 1.8404338898e+00 -3.1877250051e+00 1.8404338898e+00 3.1877250051e+00 
2200 6.6200457819e+00 -1.4631589600e-01 1.8444368485e+00 -3.1946583329e+00 1.8444368485e+00 3.1946583329e+00 
2300 6.6212212041e+00 -1.4553764860e-01 1.8484046782e+00 -3.2015308155e+00 1.8484046782e+00 3.2015308155e+00 
2400 6.6224262332e+00 -1.4495118150e-01 1.8523429175e+00 -3.2083520462e+00 1.8523429175e+00 3.2083520462e+00 
2500 6.6236135940e+00 -1.4455108789e-01 1.8562569364e+00 -3.2151313258e+00 1.8562569364e+00 3.2151313258e+00 
2600 6.6247405279e+00 -1.4433102443e-01 1.8601519122e+00 -3.2218776217e+00 1.8601519122e+00 3.2218776217e+00 
2700 6.6257688849e+00 -1.4428375916e-01 1.8640328073e+00 -3.2285995292e+00 1.8640328073e+00 3.2285995292e+00 
2800 6.6266651543e+00 -1.4440123060e-01 1.8679043482e+00 -3.2353052347e+00 1.8679043482e+00 3.2353052347e+00 
2900 6.6274004402e+00 -1.4467461608e-01 1.8717710058e+00 -3.2420024821e+00 1.8717710058e+00 3.2420024821e+00 
3000 6.6279503861e+00 -1.4509440755e-01 1.8756369781e+00 -3.2486985426e+00 1.8756369781e+00 3.2486985426e+00 
3100 6.6282950548e+00 -1.4565049305e-01 1.8795061749e+00 -3.2554001881e+00 1.8795061749e+00 3.2554001881e+00 
3200 6.6284187692e+00 -1.4633224192e-01 1.8833822046e+00 -3.2621136685e+00 1.8833822046e+00 3.2621136685e+00 
3300 6.6283099202e+00 -1.4712859236e-01 1.8872683634e+00 -3.2688446928e+00 1.8872683634e+00 3.2688446928e+00 
3400 6.6279607464e+00 -1.4802813948e-01 1.8911676269e+00 -3.2755984154e+00 1.8911676269e+00 3.2755984154e+00 
3500 6.6273670921e+00 -1.4901922272e-01 1.8950826445e+00 -3.2823794248e+00 1.8950826445e+00 3.2823794248e+00 
3600 6.6265281482e+00 -1.5009001117e-01 1.8990157353e+00 -3.2891917379e+00 1.8990157353e+00 3.2891917379e+00 
3700 6.6254461811e+00 -1.5122858590e-01 1.9029688874e+00 -3.2960387981e+00 1.9029688874e+00 3.2960387981e+00 
3800 6.6241262536e+00 -1.5242301819e-01 1.9069437580e+00 -3.3029234761e+00 1.9069437580e+00 3.3029234761e+00 
3900 6.6225759429e+00 -1.5366144304e-01 1.9109416774e+00 -3.3098480756e+00 1.9109416774e+00 3.3098480756e+00 
4000 6.6208050584e+00 -1.5493212742e-01 1.9149636529e+00 -3.3168143415e+00 1.9149636529e+00 3.3168143415e+00 
4100 6.6188253628e+00 -1.5622353267e-01 1.9190103762e+00 -3.3238234719e+00 1.9190103762e+00 3.3238234719e+00 
4200 6.6166502994e+00 -1.5752437093e-01 1.9230822313e+00 -3.3308761318e+00 1.9230822313e+00 3.3308761318e+00 
4300 6.6142947279e+00 -1.5882365544e-01 1.9271793043e+00 -3.3379724704e+00 1.9271793043e+00 3.3379724704e+00 
4400 6.6117746706e+00 -1.6011074461e-01 1.9313013944e+00 -3.3451121398e+00 1.9313013944e+00 3.3451121398e+00 
4500 6.6091070705e+00 -1.6137538000e-01 1.9354480257e+00 -3.3522943159e+00 1.9354480257e+00 3.3522943159e+00 
4600 6.6063095629e+00 -1.6260771842e-01 1.9396184603e+00 -3.3595177206e+00 1.9396184603e+00 3.3595177206e+00 
4700 6.6034002608e+00 -1.6379835831e-01 1.9438117118e+00 -3.3667806452e+00 1.9438117118e+00 3.3667806452e+00 
4800 6.6003975551e+00 -1.6493836080e-01 1.9480265595e+00 -3.3740809755e+00 1.9480265595e+00 3.3740809755e+00 
4900 6.5973199301e+00 -1.6601926572e-01 1.9522615626e+00 -3.3814162161e+00 1.9522615626e+00 3.3814162161e+00 
5000 6.5941857940e+00 -1.6703310298e-01 1.9565150756e+00 -3.3887835168e+00 1.9565150756e+00 3.3887835168e+00 
5100 6.5910133247e+00 -1.6797239977e-01 1.9607852627e+00 -3.3961796978e+00 1.9607852627e+00 3.3961796978e+00 
5200 6.5878203303e+00 -1.6883018391e-01 1.9650701129e+00 -3.4036012760e+00 1.9650701129e+00 3.4036012760e+00 
5300 6.5846241243e+00 -1.6959998381e-01 1.9693674548e+00 -3.4110444905e+00 1.9693674548e+00 3.4110444905e+00 
5400 6.5814414152e+00 -1.7027582547e-01 1.9736749712e+00 -3.4185053277e+00 1.9736749712e+00 3.4185053277e+00 
5500 6.5782882089e+00 -1.7085222694e-01 1.9779902135e+00 -3.4259795467e+00 1.9779902135e+00 3.4259795467e+00 
5600 6.5751797250e+00 -1.7132419050e-01 1.9823106158e+00 -3.4334627029e+00 1.9823106158e+00 3.4334627029e+00 
5700 6.5721303242e+00 -1.7168719312e-01 1.9866335079e+00 -3.4409501718e+00 1.9866335079e+00 3.4409501718e+00 
5800 6.5691534484e+00 -1.7193717540e-01 1.9909561295e+00 -3.4484371719e+00 1.9909561295e+00 3.4484371719e+00 
5900 6.5662615711e+00 -1.7207052933e-01 1.9952756418e+00 -3.4559187867e+00 1.9952756418e+00 3.4559187867e+00 
6000 6.5634661574e+00 -1.7208408526e-01 1.9995891404e+00 -3.4633899854e+00 1.9995891404e+00 3.4633899854e+00 
6100 6.5607776348e+00 -1.7197509820e-01 2.0038936664e+00 -3.4708456432e+00 2.0038936664e+00 3.4708456432e+00 
6200 6.5582053712e+00 -1.7174123383e-01 2.0081862181e+00 -3.4782805609e+00 2.0081862181e+00 3.4782805609e+00 
6300 6.5557576623e+00 -1.7138055435e-01 2.0124637610e+00 -3.4856894824e+00 2.0124637610e+00 3.4856894824e+00 
6400 6.5534417251e+00 -1.7089150437e-01 2.0167232380e+00 -3.4930671130e+00 2.0167232380e+00 3.4930671130e+00 
6500 6.5512636998e+00 -1.7027289706e-01 2.0209615790e+00 -3.5004081349e+00 2.0209615790e+00 3.5004081349e+00 
6600 6.5492286560e+00 -1.6952390064e-01 2.0251757098e+00 -3.5077072236e+00 2.0251757098e+00 3.5077072236e+00 
6700 6.5473406067e+00 -1.6864402536e-01 2.0293625606e+00 -3.5149590620e+00 2.0293625606e+00 3.5149590620e+00 
6800 6.5456025256e+00 -1.6763311105e-01 2.0335190741e+00 -3.5221583545e+00 2.0335190741e+00 3.5221583545e+00 
6900 6.5440163704e+00 -1.6649131537e-01 2.0376422129e+00 -3.5292998403e+00 2.0376422129e+00 3.5292998403e+00 
7000 6.5425831096e+00 -1.6521910271e-01 2.0417289666e+00 -3.5363783054e+00 2.0417289666e+00 3.5363783054e+00 
7100 6.5413027540e+00 -1.6381723396e-01 2.0457763589e+00 -3.5433885946e+00 2.0457763589e+00 3.5433885946e+00 
7200 6.5401743907e+00 -1.6228675692e-01 2.0497814537e+00 -3.5503256222e+00 2.0497814537e+00 3.5503256222e+00 
7300 6.5391962213e+00 -1.6062899765e-01 2.0537413610e+00 -3.5571843829e+00 2.0537413610e+00 3.5571843829e+00 
7400 6.5383656024e+00 -1.5884555252e-01 2.0576532431e+00 -3.5639599613e+00 2.0576532431e+00 3.5639599613e+00 
7500 6.5376790890e+00 -1.5693828102e-01 2.0615143193e+00 -3.5706475416e+00 2.0615143193e+00 3.5706475416e+00 
7600 6.5371324800e+00 -1.5490929936e-01 2.0653218720e+00 -3.5772424163e+00 2.0653218720e+00 3.5772424163e+00 
7700 6.5367208665e+00 -1.5276097473e-01 2.0690732508e+00 -3.5837399950e+00 2.0690732508e+00 3.5837399950e+00 
7800 6.5364386812e+00 -1.5049592013e-01 2.0727658779e+00 -3.5901358127e+00 2.0727658779e+00 3.5901358127e+00 
7900 6.5362797505e+00 -1.4811698985e-01 2.0763972522e+00 -3.5964255375e+00 2.0763972522e+00 3.5964255375e+00 
8000 6.5362373474e+00 -1.4562727535e-01 2.0799649539e+00 -3.6026049782e+00 2.0799649539e+00 3.6026049782e+00 
8100 6.5363042464e+00 -1.4303010152e-01 2.0834666489e+00 -3.6086700918e+00 2.0834666489e+00 3.6086700918e+00 
8200 6.5364727794e+00 -1.4032902328e-01 2.0869000926e+00 -3.6146169908e+00 2.0869000926e+00 3.6146169908e+00 
8300 6.5367348927e+00 -1.3752782225e-01 2.0902631344e+00 -3.6204419499e+00 2.0902631344e+00 3.6204419499e+00 
8400 6.5370822053e+00 -1.3463050355e-01 2.0935537210e+00 -3.6261414132e+00 2.0935537210e+00 3.6261414132e+00 
8500 6.5375060676e+00 -1.3164129252e-01 2.0967699011e+00 -3.6317120004e+00 2.0967699011e+00 3.6317120004e+00 
8600 6.5379976206e+00 -1.2856463112e-01 2.0999098281e+00 -3.6371505136e+00 2.0999098281e+00 3.6371505136e+00 
8700 6.5385478564e+00 -1.2540517417e-01 2.1029717649e+00 -3.6424539436e+00 2.1029717649e+00 3.6424539436e+00 
8800 6.5391476775e+00 -1.2216778496e-01 2.1059540866e+00 -3.6476194763e+00 2.1059540866e+00 3.6476194763e+00 
8900 6.5397879578e+00 -1.1885753031e-01 2.1088552844e+00 -3.6526444984e+00 2.1088552844e+00 3.6526444984e+00 
9000 6.5404596017e+00 -1.1547967490e-01 2.1116739692e+00 -3.6575266037e+00 2.1116739692e+00 3.6575266037e+00 
9100 6.5411536041e+00 -1.1203967465e-01 2.1144088745e+00 -3.6622635985e+00 2.1144088745e+00 3.6622635985e+00 
9200 6.5418611084e+00 -1.0854316920e-01 2.1170588596e+00 -3.6668535075e+00 2.1170588596e+00 3.6668535075e+00 
9300 6.5425734648e+00 -1.0499597320e-01 2.1196229133e+00 -3.6712945786e+00 2.1196229133e+00 3.6712945786e+00 
9400 6.5432822858e+00 -1.0140406640e-01 2.1221001557e+00 -3.6755852884e+00 2.1221001557e+00 3.6755852884e+00 
9500 6.5439795009e+00 -9.7773582475e-02 2.1244898420e+00 -3.6797243465e+00 2.1244898420e+00 3.6797243465e+00 
9600 6.5446574087e+00 -9.4110796441e-02 2.1267913643e+00 -3.6837107000e+00 2.1267913643e+00 3.6837107000e+00 
9700 6.5453087270e+00 -9.0422110692e-02 2.1290042540e+00 -3.6875435375e+00 2.1290042540e+00 3.6875435375e+00 
9800 6.5459266394e+00 -8.6714039585e-02 2.1311281842e+00 -3.6912222925e+00 2.1311281842e+00 3.6912222925e+00 
9900 6.5465048386e+00 -8.2993192594e-02 2.1331629709e+00 -3.6947466463e+00 2.1331629709e+00 3.6947466463e+00 
10000 6.5470375670e+00 -7.9266256055e-02 2.1351085745e+00 -3.6981165308e+00 2.1351085745e+00 3.6981165308e+00 
10100 6.5475196517e+00 -7.5539973562e-02 2.1369651015e+00 -3.7013321298e+00 2.1369651015e+00 3.7013321298e+00 
10200 6.5479465360e+00 -7.1821125081e-02 2.1387328042e+00 -3.7043938806e+00 2.1387328042e+00 3.7043938806e+00 
10300 6.5483143058e+00 -6.8116504908e-02 2.1404120816e+00 -3.7073024745e+00 2.1404120816e+00 3.7073024745e+00 
10400 6.5486197107e+00 -6.4432898590e-02 2.1420034793e+00 -3.7100588562e+00 2.1420034793e+00 3.7100588562e+00 
10500 6.5488601792e+00 -6.0777058964e-02 2.1435076887e+00 -3.7126642232e+00 2.1435076887e+00 3.7126642232e+00 
10600 6.5490338290e+00 -5.7155681509e-02 2.1449255458e+00 -3.7151200238e+00 2.1449255458e+00 3.7151200238e+00 
10700 6.5491394706e+00 -5.3575379187e-02 2.1462580302e+00 -3.7174279545e+00 2.1462580302e+00 3.7174279545e+00 
10800 6.5491766043e+00 -5.0042656996e-02 2.1475062624e+00 -3.7195899561e+00 2.1475062624e+00 3.7195899561e+00 
10900 6.5491454123e+00 -4.6563886459e-02 2.1486715019e+00 -3.7216082100e+00 2.1486715019e+00 3.7216082100e+00 
11000 6.5490467434e+00 -4.3145280274e-02 2.1497551435e+00 -3.7234851324e+00 2.1497551435e+00 3.7234851324e+00 
11100 6.5488820916e+00 -3.9792867373e-02 2.1507587144e+00 -3.7252233682e+00 2.1507587144e+00 3.7252233682e+00 
11200 6.5486535692e+00 -3.6512468606e-02 2.1516838698e+00 -3.7268257843e+00 2.1516838698e+00 3.7268257843e+00 
11300 6.5483638736e+00 -3.3309673314e-02 2.1525323882e+00 -3.7282954613e+00 2.1525323882e+00 3.7282954613e+00 
11400 6.5480162485e+00 -3.0189816982e-02 2.1533061667e+00 -3.7296356850e+00 2.1533061667e+00 3.7296356850e+00 
11500 6.5476144403e+00 -2.7157960222e-02 2.1540072156e+00 -3.7308499372e+00 2.1540072156e+00 3.7308499372e+00 
11600 6.5471626496e+00 -2.4218869257e-02 2.1546376518e+00 -3.7319418848e+00 2.1546376518e+00 3.7319418848e+00 
11700 6.5466654782e+00 -2.1376998119e-02 2.1551996934e+00 -3.7329153695e+00 2.1551996934e+00 3.7329153695e+00 
11800 6.5461278732e+00 -1.8636472698e-02 2.1556956525e+00 -3.7337743959e+00 2.1556956525e+00 3.7337743959e+00 
11900 6.5455550676e+00 -1.6001076813e-02 2.1561279282e+00 -3.7345231193e+00 2.1561279282e+00 3.7345231193e+00 
12000 6.5449525191e+00 -1.3474240394e-02 2.1564989993e+00 -3.7351658333e+00 2.1564989993e+00 3.7351658333e+00 
12100 6.5443258468e+00 -1.1059029882e-02 2.1568114169e+00 -3.7357069565e+00 2.1568114169e+00 3.7357069565e+00 
12200 6.5436807681e+00 -8.7581409019e-03 2.1570677965e+00 -3.7361510190e+00 2.1570677965e+00 3.7361510190e+00 
12300 6.5430230347e+00 -6.5738932376e-03 2.1572708100e+00 -3.7365026487e+00 2.1572708100e+00 3.7365026487e+00 
12400 6.5423583700e+00 -4.5082281060e-03 2.1574231778e+00 -3.7367665574e+00 2.1574231778e+00 3.7367665574e+00 
12500 6.5416924082e+00 -2.5627077042e-03 2.1575276604e+00 -3.7369475266e+00 2.1575276604e+00 3.7369475266e+00 
12600 6.5410306353e+00 -7.3851696444e-04 2.1575870506e+00 -3.7370503934e+00 2.1575870506e+00 3.7370503934e+00 
12700 6.5403783334e+00 9.6353257178e-04 2.1576041651e+00 -3.7370800365e+00 2.1576041651e+00 3.7370800365e+00 
12800 6.5397405289e+00 2.5429968745e-03 2.1575818363e+00 -3.7370413620e+00 2.1575818363e+00 3.7370413620e+00 
12900 6.5391219449e+00 3.9997916807e-03 2.1575229050e+00 -3.7369392899e+00 2.1575229050e+00 3.7369392899e+00 
13000 6.5385269582e+00 5.3341830403e-03 2.1574302116e+00 -3.7367787402e+00 2.1574302116e+00 3.7367787402e+00 
13100 6.5379595620e+00 6.5467763268e-03 2.1573065892e+00 -3.7365646200e+00 2.1573065892e+00 3.7365646200e+00 
13200 6.5374233343e+00 7.6385038960e-03 2.1571548560e+00 -3.7363018104e+00 2.1571548560e+00 3.7363018104e+00 
13300 6.5369214120e+00 8.6106115831e-03 2.1569778080e+00 -3.7359951543e+00 2.1569778080e+00 3.7359951543e+00 
13400 6.5364564712e+00 9.4646442322e-03 2.1567782121e+00 -3.7356494440e+00 2.1567782121e+00 3.7356494440e+00 
13500 6.5360307138e+00 1.0202430447e-02 2.1565587996e+00 -3.7352694104e+00 2.1565587996e+00 3.7352694104e+00 
13600 6.5356458603e+00 1.0826066750e-02 2.1563222597e+00 -3.7348597112e+00 2.1563222597e+00 3.7348597112e+00 
13700 6.5353031488e+00 1.1337901324e-02 2.1560712337e+00 -3.7344249216e+00 2.1560712337e+00 3.7344249216e+00 
13800 6.5350033397e+00 1.1740517499e-02 2.1558083094e+00 -3.7339695233e+00 2.1558083094e+00 3.7339695233e+00 
13900 6.5347467263e+00 1.2036717135e-02 2.1555360155e+00 -3.7334978964e+00 2.1555360155e+00 3.7334978964e+00 
14000 6.5345331504e+00 1.2229504029e-02 2.1552568168e+00 -3.7330143100e+00 2.1552568168e+00 3.7330143100e+00 
14100 6.5343620229e+00 1.2322067468e-02 2.1549731096e+00 -3.7325229148e+00 2.1549731096e+00 3.7325229148e+00 
14200 6.5342323490e+00 1.2317766011e-02 2.1546872175e+00 -3.7320277352e+00 2.1546872175e+00 3.7320277352e+00 
14300 6.5341427566e+00 1.2220111601e-02 2.1544013873e+00 -3.7315326628e+00 2.1544013873e+00 3.7315326628e+00 
14400 6.5340915292e+00 1.2032754047e-02 2.1541177855e+00 -3.7310414500e+00 2.1541177855e+00 3.7310414500e+00 
14500 6.5340766398e+00 1.1759465933e-02 2.1538384950e+00 -3.7305577046e+00 2.1538384950e+00 3.7305577046e+00 
14600 6.5340957890e+00 1.1404127991e-02 2.1535655122e+00 -3.7300848845e+00 2.1535655122e+00 3.7300848845e+00 
14700 6.5341464425e+00 1.0970714943e-02 2.1533007444e+00 -3.7296262933e+00 2.1533007444e+00 3.7296262933e+00 
14800 6.5342258714e+00 1.0463281832e-02 2.1530460076e+00 -3.7291850762e+00 2.1530460076e+00 3.7291850762e+00 
14900 6.5343311917e+00 9.8859508368e-03 2.1528030243e+00 -3.7287642168e+00 2.1528030243e+00 3.7287642168e+00 
15000 6.5344594039e+00 9.2428985603e-03 2.1525734219e+00 -3.7283665338e+00 2.1525734219e+00 3.7283665338e+00 
15100 6.5346074323e+00 8.5383437828e-03 2.1523587313e+00 -3.7279946788e+00 2.1523587313e+00 3.7279946788e+00 
15200 6.5347721627e+00 7.7765356592e-03 2.1521603858e+00 -3.7276511343e+00 2.1521603858e+00 3.7276511343e+00 
15300 6.5349504789e+00 6.9617423441e-03 2.1519797202e+00 -3.7273382123e+00 2.1519797202e+00 3.7273382123e+00 
15400 6.5351392967e+00 6.0982400260e-03 2.1518179702e+00 -3.7270580531e+00 2.1518179702e+00 3.7270580531e+00 
15500 6.5353355962e+00 5.1903023508e-03 2.1516762721e+00 -3.7268126246e+00 2.1516762721e+00 3.7268126246e+00 
15600 6.5355364514e+00 4.2421902192e-03 2.1515556625e+00 -3.7266037228e+00 2.1515556625e+00 3.7266037228e+00 
15700 6.5357390567e+00 3.2581419441e-03 2.1514570790e+00 -3.7264329712e+00 2.1514570790e+00 3.7264329712e+00 
15800 6.5359407510e+00 2.2423637562e-03 2.1513813600e+00 -3.7263018220e+00 2.1513813600e+00 3.7263018220e+00 
15900 6.5361390381e+00 1.1990206505e-03 2.1513292457e+00 -3.7262115574e+00 2.1513292457e+00 3.7262115574e+00 
16000 6.5363316049e+00 1.3222756807e-04 2.1513013788e+00 -3.7261632905e+00 2.1513013788e+00 3.7261632905e+00 
16100 6.5365163354e+00 -9.5395908672e-04 2.1512983056e+00 -3.7261579676e+00 2.1512983056e+00 3.7261579676e+00 
16200 6.5366913224e+00 -2.0555495936e-03 2.1513204774e+00 -3.7261963702e+00 2.1513204774e+00 3.7261963702e+00 
16300 6.5368548760e+00 -3.1686287228e-03 2.1513682517e+00 -3.7262791177e+00 2.1513682517e+00 3.7262791177e+00 
16400 6.5370055287e+00 -4.2893631949e-03 2.1514418943e+00 -3.7264066704e+00 2.1514418943e+00 3.7264066704e+00 
16500 6.5371420382e+00 -5.4140087846e-03 2.1515415808e+00 -3.7265793326e+00 2.1515415808e+00 3.7265793326e+00 
16600 6.5372633877e+00 -6.5389170599e-03 2.1516673990e+00 -3.7267972561e+00 2.1516673990e+00 3.7267972561e+00 
16700 6.5373687829e+00 -7.6605417455e-03 2.1518193508e+00 -3.7270604443e+00 2.1518193508e+00 3.7270604443e+00 
16800 6.5374576476e+00 -8.7754446995e-03 2.1519973548e+00 -3.7273687562e+00 2.1519973548e+00 3.7273687562e+00 
16900 6.5375296166e+00 -9.8803014935e-03 2.1522012487e+00 -3.7277219108e+00 2.1522012487e+00 3.7277219108e+00 
17000 6.5375845275e+00 -1.0971906586e-02 2.1524307922e+00 -3.7281194919e+00 2.1524307922e+00 3.7281194919e+00 
17100 6.5376224100e+00 -1.2047178080e-02 2.1526856697e+00 -3.7285609526e+00 2.1526856697e+00 3.7285609526e+00 
17200 6.5376434741e+00 -1.3103162057e-02 2.1529654931e+00 -3.7290456211e+00 2.1529654931e+00 3.7290456211e+00 
17300 6.5376480977e+00 -1.4137036485e-02 2.1532698053e+00 -3.7295727052e+00 2.1532698053e+00 3.7295727052e+00 
17400 6.5376368126e+00 -1.5146114688e-02 2.1535980827e+00 -3.7301412983e+00 2.1535980827e+00 3.7301412983e+00 
17500 6.5376102898e+00 -1.6127848388e-02 2.1539497390e+00 -3.7307503849e+00 2.1539497390e+00 3.7307503849e+00 
17600 6.5375693247e+00 -1.7079830308e-02 2.1543241283e+00 -3.7313988462e+00 2.1543241283e+00 3.7313988462e+00 
17700 6.5375148215e+00 -1.7999796348e-02 2.1547205485e+00 -3.7320854662e+00 2.1547205485e+00 3.7320854662e+00 
17800 6.5374477777e+00 -1.8885627325e-02 2.1551382449e+00 -3.7328089375e+00 2.1551382449e+00 3.7328089375e+00 
17900 6.5373692689e+00 -1.9735350305e-02 2.1555764132e+00 -3.7335678673e+00 2.1555764132e+00 3.7335678673e+00 
18000 6.5372804327e+00 -2.0547139514e-02 2.1560342037e+00 -3.7343607837e+00 2.1560342037e+00 3.7343607837e+00 
18100 6.5371824548e+00 -2.1319316846e-02 2.1565107244e+00 -3.7351861417e+00 2.1565107244e+00 3.7351861417e+00 
18200 6.5370765533e+00 -2.2050351995e-02 2.1570050445e+00 -3.7360423292e+00 2.1570050445e+00 3.7360423292e+00 
18300 6.5369639656e+00 -2.2738862193e-02 2.1575161982e+00 -3.7369276734e+00 2.1575161982e+00 3.7369276734e+00 
18400 6.5368459346e+00 -2.3383611598e-02 2.1580431881e+00 -3.7378404468e+00 2.1580431881e+00 3.7378404468e+00 
18500 6.5367236963e+00 -2.3983510334e-02 2.1585849889e+00 -3.7387788733e+00 2.1585849889e+00 3.7387788733e+00 
18600 6.5365984682e+00 -2.4537613201e-02 2.1591405505e+00 -3.7397411342e+00 2.1591405505e+00 3.7397411342e+00 
18700 6.5364714379e+00 -2.5045118072e-02 2.1597088018e+00 -3.7407253743e+00 2.1597088018e+00 3.7407253743e+00 
18800 6.5363437540e+00 -2.5505363993e-02 2.1602886540e+00 -3.7417297078e+00 2.1602886540e+00 3.7417297078e+00 
18900 6.5362165165e+00 -2.5917829010e-02 2.1608790040e+00 -3.7427522239e+00 2.1608790040e+00 3.7427522239e+00 
19000 6.5360907689e+00 -2.6282127736e-02 2.1614787374e+00 -3.7437909927e+00 2.1614787374e+00 3.7437909927e+00 
19100 6.5359674915e+00 -2.6598008668e-02 2.1620867323e+00 -3.7448440707e+00 2.1620867323e+00 3.7448440707e+00 
19200 6.5358475952e+00 -2.6865351288e-02 2.1627018618e+00 -3.7459095063e+00 2.1627018618e+00 3.7459095063e+00 
19300 6.5357319163e+00 -2.7084162947e-02 2.1633229978e+00 -3.7469853453e+00 2.1633229978e+00 3.7469853453e+00 
19400 6.5356212130e+00 -2.7254575561e-02 2.1639490131e+00 -3.7480696358e+00 2.1639490131e+00 3.7480696358e+00 
19500 6.5355161616e+00 -2.7376842131e-02 2.1645787853e+00 -3.7491604331e+00 2.1645787853e+00 3.7491604331e+00 
19600 6.5354173550e+00 -2.7451333091e-02 2.1652111988e+00 -3.7502558054e+00 2.1652111988e+00 3.7502558054e+00 
19700 6.5353253009e+00 -2.7478532517e-02 2.1658451478e+00 -3.7513538374e+00 2.1658451478e+00 3.7513538374e+00 
19800 6.5352404216e+00 -2.7459034199e-02 2.1664795393e+00 -3.7524526356e+00 2.1664795393e+00 3.7524526356e+00 
19900 6.5351630544e+00 -2.7393537579e-02 2.1671132949e+00 -3.7535503326e+00 2.1671132949e+00 3.7535503326e+00 
20000 6.5350934525e+00 -2.7282843596e-02 2.1677453539e+00 -3.7546450909e+00 2.1677453539e+00 3.7546450909e+00 
20100 6.5350317869e+00 -2.7127850413e-02 2.1683746751e+00 -3.7557351072e+00 2.1683746751e+00 3.7557351072e+00 
20200 6.5349781487e+00 -2.6929549059e-02 2.1690002394e+00 -3.7568186163e+00 2.1690002394e+00 3.7568186163e+00 
20300 6.5349325526e+00 -2.6689018997e-02 2.1696210515e+00 -3.7578938944e+00 2.1696210515e+00 3.7578938944e+00 
20400 6.5348949399e+00 -2.6407423610e-02 2.1702361424e+00 -3.7589592630e+00 2.1702361424e+00 3.7589592630e+00 
20500 6.5348651826e+00 -2.6086005626e-02 2.1708445705e+00 -3.7600130915e+00 2.1708445705e+00 3.7600130915e+00 
20600 6.5348430883e+00 -2.5726082486e-02 2.1714454244e+00 -3.7610538010e+00 2.1714454244e+00 3.7610538010e+00 
20700 6.5348284046e+00 -2.5329041668e-02 2.1720378237e+00 -3.7620798666e+00 2.1720378237e+00 3.7620798666e+00 
20800 6.5348208243e+00 -2.4896335963e-02 2.1726209207e+00 -3.7630898202e+00 2.1726209207e+00 3.7630898202e+00 
20900 6.5348199909e+00 -2.4429478714e-02 2.1731939021e+00 -3.7640822532e+00 2.1731939021e+00 3.7640822532e+00 
21000 6.5348255037e+00 -2.3930039037e-02 2.1737559903e+00 -3.7650558184e+00 2.1737559903e+00 3.7650558184e+00 
21100 6.5348369241e+00 -2.3399637006e-02 2.1743064442e+00 -3.7660092325e+00 2.1743064442e+00 3.7660092325e+00 
21200 6.5348537807e+00 -2.2839938832e-02 2.1748445606e+00 -3.7669412776e+00 2.1748445606e+00 3.7669412776e+00 
21300 6.5348755757e+00 -2.2252652029e-02 2.1753696754e+00 -3.7678508030e+00 2.1753696754e+00 3.7678508030e+00 
21400 6.5349017901e+00 -2.1639520574e-02 2.1758811637e+00 -3.7687367267e+00 2.1758811637e+00 3.7687367267e+00 
21500 6.5349318895e+00 -2.1002320076e-02 2.1763784414e+00 -3.7695980370e+00 2.1763784414e+00 3.7695980370e+00 
21600 6.5349653299e+00 -2.0342852953e-02 2.1768609654e+00 -3.7704337931e+00 2.1768609654e+00 3.7704337931e+00 
21700 6.5350015628e+00 -1.9662943624e-02 2.1773282341e+00 -3.7712431262e+00 2.1773282341e+00 3.7712431262e+00 
21800 6.5350400406e+00 -1.8964433730e-02 2.1777797881e+00 -3.7720252406e+00 2.1777797881e+00 3.7720252406e+00 
21900 6.5350802213e+00 -1.8249177383e-02 2.1782152101e+00 -3.7727794137e+00 2.1782152101e+00 3.7727794137e+00 
22000 6.5351215737e+00 -1.7519036459e-02 2.1786341256e+00 -3.7735049966e+00 2.1786341256e+00 3.7735049966e+00 
22100 6.5351635812e+00 -1.6775875939e-02 2.1790362026e+00 -3.7742014145e+00 2.1790362026e+00 3.7742014145e+00 
22200 6.5352057462e+00 -1.6021559302e-02 2.1794211519e+00 -3.7748681662e+00 2.1794211519e+00 3.7748681662e+00 
22300 6.5352475939e+00 -1.5257943995e-02 2.1797887268e+00 -3.7755048246e+00 2.1797887268e+00 3.7755048246e+00 
22400 6.5352886755e+00 -1.4486876961e-02 2.1801387229e+00 -3.7761110357e+00 2.1801387229e+00 3.7761110357e+00 
22500 6.5353285713e+00 -1.3710190270e-02 2.1804709781e+00 -3.7766865184e+00 2.1804709781e+00 3.7766865184e+00 
22600 6.5353668932e+00 -1.2929696828e-02 2.1807853716e+00 -3.7772310640e+00 2.1807853716e+00 3.7772310640e+00 
22700 6.5354032873e+00 -1.2147186198e-02 2.1810818242e+00 -3.7777445350e+00 2.1810818242e+00 3.7777445350e+00 
22800 6.5354374351e+00 -1.1364420530e-02 2.1813602971e+00 -3.7782268642e+00 2.1813602971e+00 3.7782268642e+00 
22900 6.5354690555e+00 -1.0583130616e-02 2.1816207916e+00 -3.7786780539e+00 2.1816207916e+00 3.7786780539e+00 
23000 6.5354979052e+00 -9.8050120753e-03 2.1818633481e+00 -3.7790981741e+00 2.1818633481e+00 3.7790981741e+00 
23100 6.5355237801e+00 -9.0317216780e-03 2.1820880455e+00 -3.7794873614e+00 2.1820880455e+00 3.7794873614e+00 
23200 6.5355465148e+00 -8.2648738264e-03 2.1822950001e+00 -3.7798458174e+00 2.1822950001e+00 3.7798458174e+00 
23300 6.5355659829e+00 -7.5060371900e-03 2.1824843649e+00 -3.7801738067e+00 2.1824843649e+00 3.7801738067e+00 
23400 6.5355820963e+00 -6.7567315108e-03 2.1826563280e+00 -3.7804716555e+00 2.1826563280e+00 3.7804716555e+00 
23500 6.5355948046e+00 -6.0184245840e-03 2.1828111121e+00 -3.7807397495e+00 2.1828111121e+00 3.7807397495e+00 
23600 6.5356040937e+00 -5.2925294237e-03 2.1829489730e+00 -3.7809785316e+00 2.1829489730e+00 3.7809785316e+00 
23700 6.5356099844e+00 -4.5804016183e-03 2.1830701985e+00 -3.7811885002e+00 2.1830701985e+00 3.7811885002e+00 
23800 6.5356125306e+00 -3.8833368842e-03 2.1831751066e+00 -3.7813702065e+00 2.1831751066e+00 3.7813702065e+00 
23900 6.5356118179e+00 -3.2025688214e-03 2.1832640451e+00 -3.7815242524e+00 2.1832640451e+00 3.7815242524e+00 
24000 6.5356079604e+00 -2.5392668781e-03 2.1833373891e+00 -3.7816512879e+00 2.1833373891e+00 3.7816512879e+00 
24100 6.5356010993e+00 -1.8945345268e-03 2.1833955404e+00 -3.7817520090e+00 2.1833955404e+00 3.7817520090e+00 
24200 6.5355913999e+00 -1.2694076556e-03 2.1834389256e+00 -3.7818271543e+00 2.1834389256e+00 3.7818271543e+00 
24300 6.5355790487e+00 -6.6485317808e-04 2.1834679946e+00 -3.7818775034e+00 2.1834679946e+00 3.7818775034e+00 
24400 6.5355642512e+00 -8.1767861517e-05 2.1834832194e+00 -3.7819038734e+00 2.1834832194e+00 3.7819038734e+00 
24500 6.5355472288e+00 4.7902262424e-04 2.1834850918e+00 -3.7819071165e+00 2.1834850918e+00 3.7819071165e+00 
24600 6.5355282158e+00 1.0167644385e-03 2.1834741226e+00 -3.7818881173e+00 2.1834741226e+00 3.7818881173e+00 
24700 6.5355074567e+00 1.5307760831e-03 2.1834508394e+00 -3.7818477897e+00 2.1834508394e+00 3.7818477897e+00 
24800 6.5354852031e+00 2.0204486993e-03 2.1834157855e+00 -3.7817870745e+00 2.1834157855e+00 3.7817870745e+00 
24900 6.5354617114e+00 2.4852461512e-03 2.1833695176e+00 -3.7817069361e+00 2.1833695176e+00 3.7817069361e+00 
25000 6.5354372394e+00 2.9247048998e-03 2.1833126047e+00 -3.7816083602e+00 2.1833126047e+00 3.7816083602e+00 
25100 6.5354120442e+00 3.3384336723e-03 2.1832456264e+00 -3.7814923504e+00 2.1832456264e+00 3.7814923504e+00 
25200 6.5353863793e+00 3.7261129314e-03 2.1831691711e+00 -3.7813599259e+00 2.1831691711e+00 3.7813599259e+00 
25300 6.5353604924e+00 4.0874941518e-03 2.1830838345e+00 -3.7812121185e+00 2.1830838345e+00 3.7812121185e+00 
25400 6.5353346233e+00 4.4223989094e-03 2.1829902177e+00 -3.7810499695e+00 2.1829902177e+00 3.7810499695e+00 
25500 6.5353090015e+00 4.7307177923e-03 2.1828889262e+00 -3.7808745275e+00 2.1828889262e+00 3.7808745275e+00 
25600 6.5352838446e+00 5.0124091398e-03 2.1827805680e+00 -3.7806868456e+00 2.1827805680e+00 3.7806868456e+00 
25700 6.5352593566e+00 5.2674976187e-03 2.1826657520e+00 -3.7804879784e+00 2.1826657520e+00 3.7804879784e+00 
25800 6.5352357263e+00 5.4960726463e-03 2.1825450865e+00 -3.7802789796e+00 2.1825450865e+00 3.7802789796e+00 
25900 6.5352131265e+00 5.6982866681e-03 2.1824191780e+00 -3.7800608997e+00 2.1824191780e+00 3.7800608997e+00 
26000 6.5351917123e+00 5.8743533006e-03 2.1822886295e+00 -3.7798347831e+00 2.1822886295e+00 3.7798347831e+00 
26100 6.5351716208e+00 6.0245453485e-03 2.1821540393e+00 -3.7796016660e+00 2.1821540393e+00 3.7796016660e+00 
26200 6.5351529705e+00 6.1491927070e-03 2.1820159995e+00 -3.7793625741e+00 2.1820159995e+00 3.7793625741e+00 
26300 6.5351358607e+00 6.2486801572e-03 2.1818750948e+00 -3.7791185200e+00 2.1818750948e+00 3.7791185200e+00 
26400 6.5351203713e+00 6.3234450680e-03 2.1817319012e+00 -3.7788705013e+00 2.1817319012e+00 3.7788705013e+00 
26500 6.5351065634e+00 6.3739750105e-03 2.1815869848e+00 -3.7786194988e+00 2.1815869848e+00 3.7786194988e+00 
26600 6.5350944787e+00 6.4008052984e-03 2.1814409007e+00 -3.7783664737e+00 2.1814409007e+00 3.7783664737e+00 
26700 6.5350841408e+00 6.4045164618e-03 2.1812941918e+00 -3.7781123665e+00 2.1812941918e+00 3.7781123665e+00 
26800 6.5350755549e+00 6.3857316660e-03 2.1811473880e+00 -3.7778580949e+00 2.1811473880e+00 3.7778580949e+00 
26900 6.5350687095e+00 6.3451140826e-03 2.1810010050e+00 -3.7776045520e+00 2.1810010050e+00 3.7776045520e+00 
27000 6.5350635764e+00 6.2833642244e-03 2.1808555433e+00 -3.7773526049e+00 2.1808555433e+00 3.7773526049e+00 
27100 6.5350601122e+00 6.2012172521e-03 2.1807114875e+00 -3.7771030930e+00 2.1807114875e+00 3.7771030930e+00 
27200 6.5350582594e+00 6.0994402608e-03 2.1805693057e+00 -3.7768568269e+00 2.1805693057e+00 3.7768568269e+00 
27300 6.5350579476e+00 5.9788295562e-03 2.1804294483e+00 -3.7766145868e+00 2.1804294483e+00 3.7766145868e+00 
27400 6.5350590946e+00 5.8402079274e-03 2.1802923476e+00 -3.7763771215e+00 2.1802923476e+00 3.7763771215e+00 
27500 6.5350616080e+00 5.6844219250e-03 2.1801584173e+00 -3.7761451472e+00 2.1801584173e+00 3.7761451472e+00 
27600 6.5350653863e+00 5.5123391511e-03 2.1800280514e+00 -3.7759193469e+00 2.1800280514e+00 3.7759193469e+00 
27700 6.5350703208e+00 5.3248455682e-03 2.1799016244e+00 -3.7757003690e+00 2.1799016244e+00 3.7757003690e+00 
27800 6.5350762966e+00 5.1228428352e-03 2.1797794906e+00 -3.7754888270e+00 2.1797794906e+00 3.7754888270e+00 
27900 6.5350831939e+00 4.9072456746e-03 2.1796619833e+00 -3.7752852985e+00 2.1796619833e+00 3.7752852985e+00 
28000 6.5350908902e+00 4.6789792787e-03 2.1795494154e+00 -3.7750903250e+00 2.1795494154e+00 3.7750903250e+00 
28100 6.5350992606e+00 4.4389767591e-03 2.1794420780e+00 -3.7749044113e+00 2.1794420780e+00 3.7749044113e+00 
28200 6.5351081801e+00 4.1881766458e-03 2.1793402413e+00 -3.7747280250e+00 2.1793402413e+00 3.7747280250e+00 
28300 6.5351175241e+00 3.9275204406e-03 2.1792441539e+00 -3.7745615966e+00 2.1792441539e+00 3.7745615966e+00 
28400 6.5351271702e+00 3.6579502283e-03 2.1791540425e+00 -3.7744055191e+00 2.1791540425e+00 3.7744055191e+00 
28500 6.5351369987e+00 3.3804063517e-03 2.1790701125e+00 -3.7742601482e+00 2.1790701125e+00 3.7742601482e+00 
28600 6.5351468945e+00 3.0958251522e-03 2.1789925477e+00 -3.7741258019e+00 2.1789925477e+00 3.7741258019e+00 
28700 6.5351567470e+00 2.8051367826e-03 2.1789215101e+00 -3.7740027611e+00 2.1789215101e+00 3.7740027611e+00 
28800 6.5351664519e+00 2.5092630912e-03 2.1788571405e+00 -3.7738912698e+00 2.1788571405e+00 3.7738912698e+00 
28900 6.5351759113e+00 2.2091155844e-03 2.1787995587e+00 -3.7737915351e+00 2.1787995587e+00 3.7737915351e+00 
29000 6.5351850348e+00 1.9055934676e-03 2.1787488632e+00 -3.7737037280e+00 2.1787488632e+00 3.7737037280e+00 
29100 6.5351937397e+00 1.5995817679e-03 2.1787051320e+00 -3.7736279833e+00 2.1787051320e+00 3.7736279833e+00 
29200 6.5352019515e+00 1.2919495404e-03 2.1786684226e+00 -3.7735644008e+00 2.1786684226e+00 3.7735644008e+00 
29300 6.5352096045e+00 9.8354816077e-04 2.1786387727e+00 -3.7735130456e+00 2.1786387727e+00 3.7735130456e+00 
29400 6.5352166417e+00 6.7520970397e-04 2.1786162002e+00 -3.7734739489e+00 2.1786162002e+00 3.7734739489e+00 
29500 6.5352230152e+00 3.6774541219e-04 2.1786007039e+00 -3.7734471086e+00 2.1786007039e+00 3.7734471086e+00 
29600 6.5352286859e+00 6.1944252043e-05 2.1785922640e+00 -3.7734324902e+00 2.1785922640e+00 3.7734324902e+00 
29700 6.5352336233e+00 -2.4061767599e-04 2.1785922640e+00 -3.7734324902e+00 2.1785922640e+00 3.7734324902e+00 
29800 6.5352378068e+00 -5.4082583355e-04 2.1785977863e+00 -3.7734420551e+00 2.1785977863e+00 3.7734420551e+00 
29900 6.5352412239e+00 -8.3715037541e-04 2.1786101985e+00 -3.7734635538e+00 2.1786101985e+00 3.7734635538e+00 
30000 6.5352438703e+00 -1.1289040527e-03 2.1786294115e+00 -3.7734968316e+00 2.1786294115e+00 3.7734968316e+00 
30100 6.5352457497e+00 -1.4154277434e-03 2.1786553202e+00 -3.7735417067e+00 2.1786553202e+00 3.7735417067e+00 
30200 6.5352468733e+00 -1.6960913477e-03 2.1786878042e+00 -3.7735979707e+00 2.1786878042e+00 3.7735979707e+00 
30300 6.5352472594e+00 -1.9702945919e-03 2.1787267289e+00 -3.7736653903e+00 2.1787267289e+00 3.7736653903e+00 
30400 6.5352469328e+00 -2.2374677421e-03 2.1787719457e+00 -3.7737437081e+00 2.1787719457e+00 3.7737437081e+00 
30500 6.5352459240e+00 -2.4970722287e-03 2.1788232929e+00 -3.7738326441e+00 2.1788232929e+00 3.7738326441e+00 
30600 6.5352442694e+00 -2.7486011817e-03 2.1788805964e+00 -3.7739318966e+00 2.1788805964e+00 3.7739318966e+00 
30700 6.5352420095e+00 -2.9915798791e-03 2.1789436704e+00 -3.7740411440e+00 2.1789436704e+00 3.7740411440e+00 
30800 6.5352391896e+00 -3.2255661085e-03 2.1790123183e+00 -3.7741600455e+00 2.1790123183e+00 3.7741600455e+00 
30900 6.5352358579e+00 -3.4501504444e-03 2.1790863331e+00 -3.7742882430e+00 2.1790863331e+00 3.7742882430e+00 
31000 6.5352320658e+00 -3.6649564417e-03 2.1791654986e+00 -3.7744253617e+00 2.1791654986e+00 3.7744253617e+00 
31100 6.5352278667e+00 -3.8696407477e-03 2.1792495900e+00 -3.7745710123e+00 2.1792495900e+00 3.7745710123e+00 
31200 6.5352233157e+00 -4.0638931346e-03 2.1793383744e+00 -3.7747247913e+00 2.1793383744e+00 3.7747247913e+00 
31300 6.5352184687e+00 -4.2474364535e-03 2.1794316119e+00 -3.7748862835e+00 2.1794316119e+00 3.7748862835e+00 
31400 6.5352133822e+00 -4.4200265129e-03 2.1795290563e+00 -3.7750550621e+00 2.1795290563e+00 3.7750550621e+00 
31500 6.5352081123e+00 -4.5814518834e-03 2.1796304558e+00 -3.7752306911e+00 2.1796304558e+00 3.7752306911e+00 
31600 6.5352027143e+00 -4.7315336303e-03 2.1797355536e+00 -3.7754127259e+00 2.1797355536e+00 3.7754127259e+00 
31700 6.5351972424e+00 -4.8701249778e-03 2.1798440891e+00 -3.7756007148e+00 2.1798440891e+00 3.7756007148e+00 
31800 6.5351917491e+00 -4.9971109056e-03 2.1799557981e+00 -3.7757942006e+00 2.1799557981e+00 3.7757942006e+00 
31900 6.5351862845e+00 -5.1124076811e-03 2.1800704141e+00 -3.7759927213e+00 2.1800704141e+00 3.7759927213e+00 
32000 6.5351808965e+00 -5.2159623304e-03 2.1801876684e+00 -3.7761958117e+00 2.1801876684e+00 3.7761958117e+00 
32100 6.5351756300e+00 -5.3077520493e-03 2.1803072914e+00 -3.7764030048e+00 2.1803072914e+00 3.7764030048e+00 
32200 6.5351705265e+00 -5.3877835577e-03 2.1804290128e+00 -3.7766138324e+00 2.1804290128e+00 3.7766138324e+00 
32300 6.5351656243e+00 -5.4560924003e-03 2.1805525626e+00 -3.7768278271e+00 2.1805525626e+00 3.7768278271e+00 
32400 6.5351609580e+00 -5.5127421961e-03 2.1806776719e+00 -3.7770445226e+00 2.1806776719e+00 3.7770445226e+00 
32500 6.5351565584e+00 -5.5578238391e-03 2.1808040728e+00 -3.7772634555e+00 2.1808040728e+00 3.7772634555e+00 
32600 6.5351524523e+00 -5.5914546539e-03 2.1809315001e+00 -3.7774841660e+00 2.1809315001e+00 3.7774841660e+00 
32700 6.5351486627e+00 -5.6137775081e-03 2.1810596910e+00 -3.7777061991e+00 2.1810596910e+00 3.7777061991e+00 
32800 6.5351452083e+00 -5.6249598850e-03 2.1811883860e+00 -3.7779291055e+00 2.1811883860e+00 3.7779291055e+00 
32900 6.5351421038e+00 -5.6251929192e-03 2.1813173299e+00 -3.7781524427e+00 2.1813173299e+00 3.7781524427e+00 
33000 6.5351393601e+00 -5.6146903984e-03 2.1814462714e+00 -3.7783757760e+00 2.1814462714e+00 3.7783757760e+00 
33100 6.5351369841e+00 -5.5936877334e-03 2.1815749646e+00 -3.7785986792e+00 2.1815749646e+00 3.7785986792e+00 
33200 6.5351349789e+00 -5.5624409009e-03 2.1817031688e+00 -3.7788207354e+00 2.1817031688e+00 3.7788207354e+00 
33300 6.5351333438e+00 -5.5212253595e-03 2.1818306494e+00 -3.7790415382e+00 2.1818306494e+00 3.7790415382e+00 
33400 6.5351320749e+00 -5.4703349448e-03 2.1819571780e+00 -3.7792606922e+00 2.1819571780e+00 3.7792606922e+00 
33500 6.5351311650e+00 -5.4100807442e-03 2.1820825330e+00 -3.7794778135e+00 2.1820825330e+00 3.7794778135e+00 
33600 6.5351306035e+00 -5.3407899553e-03 2.1822065002e+00 -3.7796925309e+00 2.1822065002e+00 3.7796925309e+00 
33700 6.5351303775e+00 -5.2628047307e-03 2.1823288726e+00 -3.7799044862e+00 2.1823288726e+00 3.7799044862e+00 
33800 6.5351304711e+00 -5.1764810120e-03 2.1824494515e+00 -3.7801133349e+00 2.1824494515e+00 3.7801133349e+00 
33900 6.5351308665e+00 -5.0821873559e-03 2.1825680459e+00 -3.7803187465e+00 2.1825680459e+00 3.7803187465e+00 
34000 6.5351315436e+00 -4.9803037553e-03 2.1826844737e+00 -3.7805204054e+00 2.1826844737e+00 3.7805204054e+00 
34100 6.5351324806e+00 -4.8712204579e-03 2.1827985614e+00 -3.7807180110e+00 2.1827985614e+00 3.7807180110e+00 
34200 6.5351336545e+00 -4.7553367856e-03 2.1829101443e+00 -3.7809112784e+00 2.1829101443e+00 3.7809112784e+00 
34300 6.5351350410e+00 -4.6330599569e-03 2.1830190672e+00 -3.7810999383e+00 2.1830190672e+00 3.7810999383e+00 
34400 6.5351366149e+00 -4.5048039148e-03 2.1831251839e+00 -3.7812837379e+00 2.1831251839e+00 3.7812837379e+00 
34500 6.5351383504e+00 -4.3709881644e-03 2.1832283580e+00 -3.7814624407e+00 2.1832283580e+00 3.7814624407e+00 
34600 6.5351402217e+00 -4.2320366201e-03 2.1833284626e+00 -3.7816358268e+00 2.1833284626e+00 3.7816358268e+00 
34700 6.5351422025e+00 -4.0883764673e-03 2.1834253804e+00 -3.7818036934e+00 2.1834253804e+00 3.7818036934e+00 
34800 6.5351442671e+00 -3.9404370403e-03 2.1835190041e+00 -3.7819658543e+00 2.1835190041e+00 3.7819658543e+00 
34900 6.5351463901e+00 -3.7886487179e-03 2.1836092360e+00 -3.7821221407e+00 2.1836092360e+00 3.7821221407e+00 
35000 6.5351485468e+00 -3.6334418400e-03 2.1836959886e+00 -3.7822724005e+00 2.1836959886e+00 3.7822724005e+00 
35100 6.5351507133e+00 -3.4752456477e-03 2.1837791839e+00 -3.7824164990e+00 2.1837791839e+00 3.7824164990e+00 
35200 6.5351528669e+00 -3.3144872480e-03 2.1838587539e+00 -3.7825543183e+00 2.1838587539e+00 3.7825543183e+00 
35300 6.5351549861e+00 -3.1515906051e-03 2.1839346404e+00 -3.7826857575e+00 2.1839346404e+00 3.7826857575e+00 
35400 6.5351570508e+00 -2.9869755624e-03 2.1840067947e+00 -3.7828107325e+00 2.1840067947e+00 3.7828107325e+00 
35500 6.5351590423e+00 -2.8210568938e-03 2.1840751780e+00 -3.7829291758e+00 2.1840751780e+00 3.7829291758e+00 
35600 6.5351609438e+00 -2.6542433885e-03 2.1841397607e+00 -3.7830410364e+00 2.1841397607e+00 3.7830410364e+00 
35700 6.5351627400e+00 -2.4869369706e-03 2.1842005228e+00 -3.7831462794e+00 2.1842005228e+00 3.7831462794e+00 
35800 6.5351644175e+00 -2.3195318536e-03 2.1842574532e+00 -3.7832448857e+00 2.1842574532e+00 3.7832448857e+00 
35900 6.5351659646e+00 -2.1524137330e-03 2.1843105500e+00 -3.7833368520e+00 2.1843105500e+00 3.7833368520e+00 
36000 6.5351673717e+00 -1.9859590177e-03 2.1843598200e+00 -3.7834221903e+00 2.1843598200e+00 3.7834221903e+00 
36100 6.5351686307e+00 -1.8205341003e-03 2.1844052788e+00 -3.7835009271e+00 2.1844052788e+00 3.7835009271e+00 
36200 6.5351697358e+00 -1.6564946696e-03 2.1844469501e+00 -3.7835731039e+00 2.1844469501e+00 3.7835731039e+00 
36300 6.5351706828e+00 -1.4941850641e-03 2.1844848658e+00 -3.7836387760e+00 2.1844848658e+00 3.7836387760e+00 
36400 6.5351714692e+00 -1.3339376684e-03 2.1845190659e+00 -3.7836980122e+00 2.1845190659e+00 3.7836980122e+00 
36500 6.5351720944e+00 -1.1760723530e-03 2.1845495975e+00 -3.7837508946e+00 2.1845495975e+00 3.7837508946e+00 
36600 6.5351725594e+00 -1.0208959585e-03 2.1845765155e+00 -3.7837975180e+00 2.1845765155e+00 3.7837975180e+00 
36700 6.5351728667e+00 -8.6870182346e-04 2.1845998816e+00 -3.7838379891e+00 2.1845998816e+00 3.7838379891e+00 
36800 6.5351730203e+00 -7.1976935749e-04 2.1846197640e+00 -3.7838724265e+00 2.1846197640e+00 3.7838724265e+00 
36900 6.5351730256e+00 -5.7436365901e-04 2.1846362376e+00 -3.7839009596e+00 2.1846362376e+00 3.7839009596e+00 
37000 6.5351728893e+00 -4.3273517807e-04 2.1846493831e+00 -3.7839237283e+00 2.1846493831e+00 3.7839237283e+00 
37100 6.5351726190e+00 -2.9511942395e-04 2.1846592871e+00 -3.7839408825e+00 2.1846592871e+00 3.7839408825e+00 
37200 6.5351722235e+00 -1.6173671754e-04 2.1846660415e+00 -3.7839525814e+00 2.1846660415e+00 3.7839525814e+00 
37300 6.5351717123e+00 -3.2791988033e-05 2.1846697431e+00 -3.7839589929e+00 2.1846697431e+00 3.7839589929e+00 
37400 6.5351710956e+00 9.1100462217e-05 2.1846697431e+00 -3.7839589929e+00 2.1846697431e+00 3.7839589929e+00 
37500 6.5351703844e+00 2.1061873050e-04 2.1846676581e+00 -3.7839553815e+00 2.1846676581e+00 3.7839553815e+00 
37600 6.5351695901e+00 3.2517780140e-04 2.1846628378e+00 -3.7839470324e+00 2.1846628378e+00 3.7839470324e+00 
37700 6.5351687242e+00 4.3463547908e-04 2.1846553955e+00 -3.7839341420e+00 2.1846553955e+00 3.7839341420e+00 
37800 6.5351677987e+00 5.3886533089e-04 2.1846454480e+00 -3.7839169125e+00 2.1846454480e+00 3.7839169125e+00 
37900 6.5351668254e+00 6.3775663707e-04 2.1846331150e+00 -3.7838955511e+00 2.1846331150e+00 3.7838955511e+00 
38000 6.5351658162e+00 7.3121430150e-04 2.1846185186e+00 -3.7838702694e+00 2.1846185186e+00 3.7838702694e+00 
38100 6.5351647826e+00 8.1915872440e-04 2.1846017831e+00 -3.7838412827e+00 2.1846017831e+00 3.7838412827e+00 
38200 6.5351637360e+00 9.0152563836e-04 2.1845830347e+00 -3.7838088094e+00 2.1845830347e+00 3.7838088094e+00 
38300 6.5351626875e+00 9.7826590893e-04 2.1845624009e+00 -3.7837730706e+00 2.1845624009e+00 3.7837730706e+00 
38400 6.5351616475e+00 1.0493453011e-03 2.1845400105e+00 -3.7837342893e+00 2.1845400105e+00 3.7837342893e+00 
38500 6.5351606260e+00 1.1147442131e-03 2.1845159930e+00 -3.7836926898e+00 2.1845159930e+00 3.7836926898e+00 
38600 6.5351596322e+00 1.1744573793e-03 2.1844904784e+00 -3.7836484972e+00 2.1844904784e+00 3.7836484972e+00 
38700 6.5351586748e+00 1.2284935432e-03 2.1844635967e+00 -3.7836019368e+00 2.1844635967e+00 3.7836019368e+00 
38800 6.5351577616e+00 1.2768751024e-03 2.1844354779e+00 -3.7835532336e+00 2.1844354779e+00 3.7835532336e+00 
38900 6.5351568997e+00 1.3196377275e-03 2.1844062513e+00 -3.7835026116e+00 2.1844062513e+00 3.7835026116e+00 
39000 6.5351560954e+00 1.3568299558e-03 2.1843760455e+00 -3.7834502936e+00 2.1843760455e+00 3.7834502936e+00 
39100 6.5351553540e+00 1.3885127623e-03 2.1843449880e+00 -3.7833965004e+00 2.1843449880e+00 3.7833965004e+00 
39200 6.5351546801e+00 1.4147591094e-03 2.1843132048e+00 -3.7833414503e+00 2.1843132048e+00 3.7833414503e+00 
39300 6.5351540772e+00 1.4356534761e-03 2.1842808203e+00 -3.7832853588e+00 2.1842808203e+00 3.7832853588e+00 
39400 6.5351535483e+00 1.4512913708e-03 2.1842479571e+00 -3.7832284380e+00 2.1842479571e+00 3.7832284380e+00 
39500 6.5351530952e+00 1.4617788266e-03 2.1842147354e+00 -3.7831708964e+00 2.1842147354e+00 3.7831708964e+00 
39600 6.5351527191e+00 1.4672318825e-03 2.1841812732e+00 -3.7831129381e+00 2.1841812732e+00 3.7831129381e+00 
39700 6.5351524201e+00 1.4677760526e-03 2.1841476856e+00 -3.7830547626e+00 2.1841476856e+00 3.7830547626e+00 
39800 6.5351521980e+00 1.4635457831e-03 2.1841140850e+00 -3.7829965647e+00 2.1841140850e+00 3.7829965647e+00 
39900 6.5351520514e+00 1.4546839010e-03 2.1840805807e+00 -3.7829385337e+00 2.1840805807e+00 3.7829385337e+00 
40000 6.5351519785e+00 1.4413410547e-03 2.1840472789e+00 -3.7828808531e+00 2.1840472789e+00 3.7828808531e+00 
40100 6.5351519767e+00 1.4236751484e-03 2.1840142819e+00 -3.7828237007e+00 2.1840142819e+00 3.7828237007e+00 
40200 6.5351520429e+00 1.4018507729e-03 2.1839816889e+00 -3.7827672480e+00 2.1839816889e+00 3.7827672480e+00 
40300 6.5351521735e+00 1.3760386329e-03 2.1839495951e+00 -3.7827116598e+00 2.1839495951e+00 3.7827116598e+00 
40400 6.5351523645e+00 1.3464149733e-03 2.1839180917e+00 -3.7826570944e+00 2.1839180917e+00 3.7826570944e+00 
40500 6.5351526112e+00 1.3131610057e-03 2.1838872661e+00 -3.7826037029e+00 2.1838872661e+00 3.7826037029e+00 
40600 6.5351529090e+00 1.2764623371e-03 2.1838572014e+00 -3.7825516293e+00 2.1838572014e+00 3.7825516293e+00 
40700 6.5351532527e+00 1.2365084013e-03 2.1838279765e+00 -3.7825010103e+00 2.1838279765e+00 3.7825010103e+00 
40800 6.5351536369e+00 1.1934918947e-03 2.1837996660e+00 -3.7824519751e+00 2.1837996660e+00 3.7824519751e+00 
40900 6.5351540562e+00 1.1476082187e-03 2.1837723400e+00 -3.7824046451e+00 2.1837723400e+00 3.7824046451e+00 
41000 6.5351545052e+00 1.0990549286e-03 2.1837460643e+00 -3.7823591341e+00 2.1837460643e+00 3.7823591341e+00 
41100 6.5351549781e+00 1.0480311908e-03 2.1837208999e+00 -3.7823155481e+00 2.1837208999e+00 3.7823155481e+00 
41200 6.5351554694e+00 9.9473725043e-04 2.1836969035e+00 -3.7822739851e+00 2.1836969035e+00 3.7822739851e+00 
41300 6.5351559737e+00 9.3937390813e-04 2.1836741270e+00 -3.7822345352e+00 2.1836741270e+00 3.7822345352e+00 
41400 6.5351564856e+00 8.8214200983e-04 2.1836526181e+00 -3.7821972806e+00 2.1836526181e+00 3.7821972806e+00 
41500 6.5351570001e+00 8.2324194850e-04 2.1836324193e+00 -3.7821622953e+00 2.1836324193e+00 3.7821622953e+00 
41600 6.5351575120e+00 7.6287317954e-04 2.1836135691e+00 -3.7821296457e+00 2.1836135691e+00 3.7821296457e+00 
41700 6.5351580168e+00 7.0123375076e-04 2.1835961009e+00 -3.7820993901e+00 2.1835961009e+00 3.7820993901e+00 
41800 6.5351585101e+00 6.3851984741e-04 2.1835800441e+00 -3.7820715788e+00 2.1835800441e+00 3.7820715788e+00 
41900 6.5351589877e+00 5.7492535338e-04 2.1835654232e+00 -3.7820462546e+00 2.1835654232e+00 3.7820462546e+00 
42000 6.5351594460e+00 5.1064142888e-04 2.1835522584e+00 -3.7820234525e+00 2.1835522584e+00 3.7820234525e+00 
42100 6.5351598817e+00 4.4585610549e-04 2.1835405655e+00 -3.7820031998e+00 2.1835405655e+00 3.7820031998e+00 
42200 6.5351602917e+00 3.8075389905e-04 2.1835303560e+00 -3.7819855165e+00 2.1835303560e+00 3.7819855165e+00 
42300 6.5351606734e+00 3.1551544087e-04 2.1835216372e+00 -3.7819704151e+00 2.1835216372e+00 3.7819704151e+00 
42400 6.5351610248e+00 2.5031712771e-04 2.1835144123e+00 -3.7819579012e+00 2.1835144123e+00 3.7819579012e+00 
42500 6.5351613439e+00 1.8533079088e-04 2.1835086804e+00 -3.7819479731e+00 2.1835086804e+00 3.7819479731e+00 
42600 6.5351616295e+00 1.2072338496e-04 2.1835044365e+00 -3.7819406225e+00 2.1835044365e+00 3.7819406225e+00 
42700 6.5351618805e+00 5.6656696122e-05 2.1835016720e+00 -3.7819358344e+00 2.1835016720e+00 3.7819358344e+00 
42800 6.5351620964e+00 -5.9760463468e-06 2.1835016720e+00 -3.7819358344e+00 2.1835016720e+00 3.7819358344e+00 
42900 6.5351622768e+00 -6.8579340547e-05 2.1835016720e+00 -3.7819358344e+00 2.1835016720e+00 3.7819358344e+00 
43000 6.5351624223e+00 -1.3100361128e-04 2.1835016720e+00 -3.7819358344e+00 2.1835016720e+00 3.7819358344e+00 
43100 6.5351625330e+00 -1.9140033172e-04 2.1835046719e+00 -3.7819410303e+00 2.1835046719e+00 3.7819410303e+00 
43200 6.5351626097e+00 -2.5053383556e-04 2.1835090548e+00 -3.7819486216e+00 2.1835090548e+00 3.7819486216e+00 
43300 6.5351626536e+00 -3.0827834788e-04 2.1835147917e+00 -3.7819585583e+00 2.1835147917e+00 3.7819585583e+00 
43400 6.5351626661e+00 -3.6451473787e-04 2.1835218509e+00 -3.7819707853e+00 2.1835218509e+00 3.7819707853e+00 
43500 6.5351626487e+00 -4.1913064934e-04 2.1835301979e+00 -3.7819852426e+00 2.1835301979e+00 3.7819852426e+00 
43600 6.5351626032e+00 -4.7202061138e-04 2.1835397954e+00 -3.7820018661e+00 2.1835397954e+00 3.7820018661e+00 
43700 6.5351625317e+00 -5.2308612945e-04 2.1835506041e+00 -3.7820205871e+00 2.1835506041e+00 3.7820205871e+00 
43800 6.5351624365e+00 -5.7223575710e-04 2.1835625820e+00 -3.7820413335e+00 2.1835625820e+00 3.7820413335e+00 
43900 6.5351623196e+00 -6.1938514871e-04 2.1835756852e+00 -3.7820640290e+00 2.1835756852e+00 3.7820640290e+00 
44000 6.5351621837e+00 -6.6445709347e-04 2.1835898681e+00 -3.7820885944e+00 2.1835898681e+00 3.7820885944e+00 
44100 6.5351620312e+00 -7.0738153116e-04 2.1836050829e+00 -3.7821149472e+00 2.1836050829e+00 3.7821149472e+00 
44200 6.5351618645e+00 -7.4809554998e-04 2.1836212805e+00 -3.7821430022e+00 2.1836212805e+00 3.7821430022e+00 
44300 6.5351616864e+00 -7.8654336690e-04 2.1836384102e+00 -3.7821726718e+00 2.1836384102e+00 3.7821726718e+00 
44400 6.5351614992e+00 -8.2267629114e-04 2.1836564201e+00 -3.7822038659e+00 2.1836564201e+00 3.7822038659e+00 
44500 6.5351613056e+00 -8.5645267109e-04 2.1836752573e+00 -3.7822364928e+00 2.1836752573e+00 3.7822364928e+00 
44600 6.5351611079e+00 -8.8783782533e-04 2.1836948677e+00 -3.7822704590e+00 2.1836948677e+00 3.7822704590e+00 
44700 6.5351609086e+00 -9.1680395824e-04 2.1837151965e+00 -3.7823056696e+00 2.1837151965e+00 3.7823056696e+00 
44800 6.5351607099e+00 -9.4333006086e-04 2.1837361884e+00 -3.7823420286e+00 2.1837361884e+00 3.7823420286e+00 
44900 6.5351605141e+00 -9.6740179743e-04 2.1837577874e+00 -3.7823794392e+00 2.1837577874e+00 3.7823794392e+00 
45000 6.5351603231e+00 -9.8901137846e-04 2.1837799374e+00 -3.7824178041e+00 2.1837799374e+00 3.7824178041e+00 
45100 6.5351601388e+00 -1.0081574207e-03 2.1838025819e+00 -3.7824570255e+00 2.1838025819e+00 3.7824570255e+00 
45200 6.5351599631e+00 -1.0248447949e-03 2.1838256645e+00 -3.7824970058e+00 2.1838256645e+00 3.7824970058e+00 
45300 6.5351597974e+00 -1.0390844618e-03 2.1838491290e+00 -3.7825376475e+00 2.1838491290e+00 3.7825376475e+00 
45400 6.5351596431e+00 -1.0508932974e-03 2.1838729193e+00 -3.7825788534e+00 2.1838729193e+00 3.7825788534e+00 
45500 6.5351595016e+00 -1.0602939074e-03 2.1838969796e+00 -3.7826205272e+00 2.1838969796e+00 3.7826205272e+00 
45600 6.5351593738e+00 -1.0673144327e-03 2.1839212549e+00 -3.7826625733e+00 2.1839212549e+00 3.7826625733e+00 
45700 6.5351592605e+00 -1.0719883452e-03 2.1839456907e+00 -3.7827048973e+00 2.1839456907e+00 3.7827048973e+00 
45800 6.5351591625e+00 -1.0743542366e-03 2.1839702332e+00 -3.7827474062e+00 2.1839702332e+00 3.7827474062e+00 
45900 6.5351590803e+00 -1.0744555978e-03 2.1839948296e+00 -3.7827900084e+00 2.1839948296e+00 3.7827900084e+00 
46000 6.5351590141e+00 -1.0723405938e-03 2.1840194281e+00 -3.7828326142e+00 2.1840194281e+00 3.7828326142e+00 
46100 6.5351589641e+00 -1.0680618305e-03 2.1840439778e+00 -3.7828751356e+00 2.1840439778e+00 3.7828751356e+00 
46200 6.5351589302e+00 -1.0616761171e-03 2.1840684294e+00 -3.7829174868e+00 2.1840684294e+00 3.7829174868e+00 
46300 6.5351589123e+00 -1.0532442240e-03 2.1840927344e+00 -3.7829595844e+00 2.1840927344e+00 3.7829595844e+00 
46400 6.5351589101e+00 -1.0428306360e-03 2.1841168462e+00 -3.7830013472e+00 2.1841168462e+00 3.7830013472e+00 
46500 6.5351589230e+00 -1.0305033025e-03 2.1841407193e+00 -3.7830426966e+00 2.1841407193e+00 3.7830426966e+00 
46600 6.5351589505e+00 -1.0163333854e-03 2.1841643099e+00 -3.7830835568e+00 2.1841643099e+00 3.7830835568e+00 
46700 6.5351589918e+00 -1.0003950049e-03 2.1841875759e+00 -3.7831238547e+00 2.1841875759e+00 3.7831238547e+00 
46800 6.5351590461e+00 -9.8276498326e-04 2.1842104768e+00 -3.7831635202e+00 2.1842104768e+00 3.7831635202e+00 
46900 6.5351591125e+00 -9.6352258937e-04 2.1842329738e+00 -3.7832024863e+00 2.1842329738e+00 3.7832024863e+00 
47000 6.5351591900e+00 -9.4274928202e-04 2.1842550302e+00 -3.7832406890e+00 2.1842550302e+00 3.7832406890e+00 
47100 6.5351592776e+00 -9.2052845456e-04 2.1842766108e+00 -3.7832780677e+00 2.1842766108e+00 3.7832780677e+00 
47200 6.5351593741e+00 -8.9694518051e-04 2.1842976825e+00 -3.7833145650e+00 2.1842976825e+00 3.7833145650e+00 
47300 6.5351594784e+00 -8.7208596109e-04 2.1843182142e+00 -3.7833501269e+00 2.1843182142e+00 3.7833501269e+00 
47400 6.5351595893e+00 -8.4603847516e-04 2.1843381767e+00 -3.7833847029e+00 2.1843381767e+00 3.7833847029e+00 
47500 6.5351597057e+00 -8.1889133214e-04 2.1843575427e+00 -3.7834182459e+00 2.1843575427e+00 3.7834182459e+00 
47600 6.5351598264e+00 -7.9073382841e-04 2.1843762872e+00 -3.7834507123e+00 2.1843762872e+00 3.7834507123e+00 
47700 6.5351599502e+00 -7.6165570774e-04 2.1843943870e+00 -3.7834820620e+00 2.1843943870e+00 3.7834820620e+00 
47800 6.5351600759e+00 -7.3174692633e-04 2.1844118210e+00 -3.7835122587e+00 2.1844118210e+00 3.7835122587e+00 
47900 6.5351602024e+00 -7.0109742273e-04 2.1844285703e+00 -3.7835412693e+00 2.1844285703e+00 3.7835412693e+00 
48000 6.5351603287e+00 -6.6979689330e-04 2.1844446180e+00 -3.7835690647e+00 2.1844446180e+00 3.7835690647e+00 
48100 6.5351604538e+00 -6.3793457351e-04 2.1844599491e+00 -3.7835956189e+00 2.1844599491e+00 3.7835956189e+00 
48200 6.5351605766e+00 -6.0559902556e-04 2.1844745507e+00 -3.7836209097e+00 2.1844745507e+00 3.7836209097e+00 
48300 6.5351606963e+00 -5.7287793264e-04 2.1844884122e+00 -3.7836449184e+00 2.1844884122e+00 3.7836449184e+00 
48400 6.5351608121e+00 -5.3985790026e-04 2.1845015246e+00 -3.7836676298e+00 2.1845015246e+00 3.7836676298e+00 
48500 6.5351609231e+00 -5.0662426486e-04 2.1845138812e+00 -3.7836890320e+00 2.1845138812e+00 3.7836890320e+00 
48600 6.5351610288e+00 -4.7326091021e-04 2.1845254770e+00 -3.7837091165e+00 2.1845254770e+00 3.7837091165e+00 
48700 6.5351611285e+00 -4.3985009159e-04 2.1845363091e+00 -3.7837278783e+00 2.1845363091e+00 3.7837278783e+00 
48800 6.5351612217e+00 -4.0647226832e-04 2.1845463765e+00 -3.7837453155e+00 2.1845463765e+00 3.7837453155e+00 
48900 6.5351613079e+00 -3.7320594465e-04 2.1845556798e+00 -3.7837614294e+00 2.1845556798e+00 3.7837614294e+00 
49000 6.5351613870e+00 -3.4012751925e-04 2.1845642218e+00 -3.7837762245e+00 2.1845642218e+00 3.7837762245e+00 
49100 6.5351614585e+00 -3.0731114358e-04 2.1845720066e+00 -3.7837897081e+00 2.1845720066e+00 3.7837897081e+00 
49200 6.5351615224e+00 -2.7482858915e-04 2.1845790402e+00 -3.7838018908e+00 2.1845790402e+00 3.7838018908e+00 
49300 6.5351615786e+00 -2.4274912392e-04 2.1845853304e+00 -3.7838127858e+00 2.1845853304e+00 3.7838127858e+00 
49400 6.5351616269e+00 -2.1113939783e-04 2.1845908864e+00 -3.7838224090e+00 2.1845908864e+00 3.7838224090e+00 
49500 6.5351616676e+00 -1.8006333761e-04 2.1845957189e+00 -3.7838307790e+00 2.1845957189e+00 3.7838307790e+00 
49600 6.5351617007e+00 -1.4958205086e-04 2.1845998401e+00 -3.7838379172e+00 2.1845998401e+00 3.7838379172e+00 
49700 6.5351617264e+00 -1.1975373958e-04 2.1846032636e+00 -3.7838438470e+00 2.1846032636e+00 3.7838438470e+00 
49800 6.5351617450e+00 -9.0633622811e-05 2.1846060045e+00 -3.7838485943e+00 2.1846060045e+00 3.7838485943e+00 
49900 6.5351617568e+00 -6.2273868815e-05 2.1846080788e+00 -3.7838521872e+00 2.1846080788e+00 3.7838521872e+00 
50000 6.5351617623e+00 -3.5532020883e-05 2.1846080788e+00 -3.7838521872e+00 2.1846080788e+00 3.7838521872e+00 
50100 6.5351617616e+00 -9.2944307020e-06 2.1846080788e+00 -3.7838521872e+00 2.1846080788e+00 3.7838521872e+00 
50200 6.5351617553e+00 1.6387698328e-05 2.1846080788e+00 -3.7838521872e+00 2.1846080788e+00 3.7838521872e+00 
50300 6.5351617440e+00 4.1465897935e-05 2.1846080788e+00 -3.7838521872e+00 2.1846080788e+00 3.7838521872e+00 
50400 6.5351617282e+00 6.5894493573e-05 2.1846080788e+00 -3.7838521872e+00 2.1846080788e+00 3.7838521872e+00 
50500 6.5351617084e+00 8.9630653167e-05 2.1846080788e+00 -3.7838521872e+00 2.1846080788e+00 3.7838521872e+00 
50600 6.5351616851e+00 1.1147049031e-04 2.1846060274e+00 -3.7838486340e+00 2.1846060274e+00 3.7838486340e+00 
50700 6.5351616588e+00 1.3224774768e-04 2.1846034762e+00 -3.7838442151e+00 2.1846034762e+00 3.7838442151e+00 
50800 6.5351616300e+00 1.5193928891e-04 2.1846004493e+00 -3.7838389725e+00 2.1846004493e+00 3.7838389725e+00 
50900 6.5351615994e+00 1.7052521392e-04 2.1845969718e+00 -3.7838329493e+00 2.1845969718e+00 3.7838329493e+00 
51000 6.5351615675e+00 1.8798883228e-04 2.1845930689e+00 -3.7838261893e+00 2.1845930689e+00 3.7838261893e+00 
51100 6.5351615347e+00 2.0431662915e-04 2.1845887663e+00 -3.7838187369e+00 2.1845887663e+00 3.7838187369e+00 
51200 6.5351615016e+00 2.1949822406e-04 2.1845840900e+00 -3.7838106373e+00 2.1845840900e+00 3.7838106373e+00 
51300 6.5351614686e+00 2.3352632270e-04 2.1845790662e+00 -3.7838019359e+00 2.1845790662e+00 3.7838019359e+00 
51400 6.5351614363e+00 2.4639666218e-04 2.1845737213e+00 -3.7837926783e+00 2.1845737213e+00 3.7837926783e+00 
51500 6.5351614050e+00 2.5810794989e-04 2.1845680819e+00 -3.7837829104e+00 2.1845680819e+00 3.7837829104e+00 
51600 6.5351613752e+00 2.6866179636e-04 2.1845621744e+00 -3.7837726783e+00 2.1845621744e+00 3.7837726783e+00 
51700 6.5351613472e+00 2.7806264239e-04 2.1845560253e+00 -3.7837620277e+00 2.1845560253e+00 3.7837620277e+00 
51800 6.5351613212e+00 2.8631768085e-04 2.1845496610e+00 -3.7837510045e+00 2.1845496610e+00 3.7837510045e+00 
51900 6.5351612977e+00 2.9343677332e-04 2.1845431077e+00 -3.7837396539e+00 2.1845431077e+00 3.7837396539e+00 
52000 6.5351612768e+00 2.9943236211e-04 2.1845363915e+00 -3.7837280211e+00 2.1845363915e+00 3.7837280211e+00 
52100 6.5351612588e+00 3.0431937782e-04 2.1845295381e+00 -3.7837161506e+00 2.1845295381e+00 3.7837161506e+00 
52200 6.5351612438e+00 3.0811514283e-04 2.1845225728e+00 -3.7837040863e+00 2.1845225728e+00 3.7837040863e+00 
52300 6.5351612320e+00 3.1083927114e-04 2.1845155205e+00 -3.7836918715e+00 2.1845155205e+00 3.7836918715e+00 
52400 6.5351612234e+00 3.1251356479e-04 2.1845084059e+00 -3.7836795486e+00 2.1845084059e+00 3.7836795486e+00 
52500 6.5351612181e+00 3.1316190729e-04 2.1845012530e+00 -3.7836671594e+00 2.1845012530e+00 3.7836671594e+00 
52600 6.5351612161e+00 3.1281015430e-04 2.1844940852e+00 -3.7836547444e+00 2.1844940852e+00 3.7836547444e+00 
52700 6.5351612174e+00 3.1148602205e-04 2.1844869254e+00 -3.7836423433e+00 2.1844869254e+00 3.7836423433e+00 
52800 6.5351612220e+00 3.0921897367e-04 2.1844797959e+00 -3.7836299946e+00 2.1844797959e+00 3.7836299946e+00 
52900 6.5351612297e+00 3.0604010393e-04 2.1844727183e+00 -3.7836177358e+00 2.1844727183e+00 3.7836177358e+00 
53000 6.5351612405e+00 3.0198202256e-04 2.1844657134e+00 -3.7836056030e+00 2.1844657134e+00 3.7836056030e+00 
53100 6.5351612542e+00 2.9707873663e-04 2.1844588014e+00 -3.7835936310e+00 2.1844588014e+00 3.7835936310e+00 
53200 6.5351612706e+00 2.9136553215e-04 2.1844520015e+00 -3.7835818533e+00 2.1844520015e+00 3.7835818533e+00 
53300 6.5351612896e+00 2.8487885539e-04 2.1844453325e+00 -3.7835703022e+00 2.1844453325e+00 3.7835703022e+00 
53400 6.5351613109e+00 2.7765619405e-04 2.1844388118e+00 -3.7835590081e+00 2.1844388118e+00 3.7835590081e+00 
53500 6.5351613344e+00 2.6973595871e-04 2.1844324565e+00 -3.7835480004e+00 2.1844324565e+00 3.7835480004e+00 
53600 6.5351613599e+00 2.6115736475e-04 2.1844262825e+00 -3.7835373066e+00 2.1844262825e+00 3.7835373066e+00 
53700 6.5351613870e+00 2.5196031517e-04 2.1844203048e+00 -3.7835269529e+00 2.1844203048e+00 3.7835269529e+00 
53800 6.5351614155e+00 2.4218528435e-04 2.1844145376e+00 -3.7835169638e+00 2.1844145376e+00 3.7835169638e+00 
53900 6.5351614452e+00 2.3187320331e-04 2.1844089941e+00 -3.7835073622e+00 2.1844089941e+00 3.7835073622e+00 
54000 6.5351614759e+00 2.2106534650e-04 2.1844036866e+00 -3.7834981695e+00 2.1844036866e+00 3.7834981695e+00 
54100 6.5351615073e+00 2.0980322037e-04 2.1843986265e+00 -3.7834894051e+00 2.1843986265e+00 3.7834894051e+00 
54200 6.5351615391e+00 1.9812845421e-04 2.1843938242e+00 -3.7834810873e+00 2.1843938242e+00 3.7834810873e+00 
54300 6.5351615711e+00 1.8608269307e-04 2.1843892891e+00 -3.7834732323e+00 2.1843892891e+00 3.7834732323e+00 
54400 6.5351616031e+00 1.7370749341e-04 2.1843850298e+00 -3.7834658548e+00 2.1843850298e+00 3.7834658548e+00 
54500 6.5351616348e+00 1.6104422129e-04 2.1843810536e+00 -3.7834589680e+00 2.1843810536e+00 3.7834589680e+00 
54600 6.5351616661e+00 1.4813395363e-04 2.1843773674e+00 -3.7834525832e+00 2.1843773674e+00 3.7834525832e+00 
54700 6.5351616967e+00 1.3501738243e-04 2.1843739766e+00 -3.7834467102e+00 2.1843739766e+00 3.7834467102e+00 
54800 6.5351617264e+00 1.2173472230e-04 2.1843708861e+00 -3.7834413573e+00 2.1843708861e+00 3.7834413573e+00 
54900 6.5351617552e+00 1.0832562140e-04 2.1843680996e+00 -3.7834365309e+00 2.1843680996e+00 3.7834365309e+00 
55000 6.5351617828e+00 9.4829075891e-05 2.1843656200e+00 -3.7834322362e+00 2.1843656200e+00 3.7834322362e+00 
55100 6.5351618091e+00 8.1283348101e-05 2.1843634494e+00 -3.7834284766e+00 2.1843634494e+00 3.7834284766e+00 
55200 6.5351618341e+00 6.7725888440e-05 2.1843615888e+00 -3.7834252540e+00 2.1843615888e+00 3.7834252540e+00 
55300 6.5351618575e+00 5.5073306972e-05 2.1843615888e+00 -3.7834252540e+00 2.1843615888e+00 3.7834252540e+00 
55400 6.5351618794e+00 4.2312431064e-05 2.1843615888e+00 -3.7834252540e+00 2.1843615888e+00 3.7834252540e+00 
55500 6.5351618995e+00 2.9477590249e-05 2.1843615888e+00 -3.7834252540e+00 2.1843615888e+00 3.7834252540e+00 
55600 6.5351619179e+00 1.6602412190e-05 2.1843615888e+00 -3.7834252540e+00 2.1843615888e+00 3.7834252540e+00 
55700 6.5351619346e+00 3.7197510348e-06 2.1843615888e+00 -3.7834252540e+00 2.1843615888e+00 3.7834252540e+00 
55800 6.5351619496e+00 -9.1383797456e-06 2.1843615888e+00 -3.7834252540e+00 2.1843615888e+00 3.7834252540e+00 
55900 6.5351619628e+00 -2.1940870023e-05 2.1843615888e+00 -3.7834252540e+00 2.1843615888e+00 3.7834252540e+00 
56000 6.5351619744e+00 -3.4657571192e-05 2.1843615888e+00 -3.7834252540e+00 2.1843615888e+00 3.7834252540e+00 
56100 6.5351619844e+00 -4.7259349871e-05 2.1843615888e+00 -3.7834252540e+00 2.1843615888e+00 3.7834252540e+00 
56200 6.5351619928e+00 -5.9718137156e-05 2.1843615888e+00 -3.7834252540e+00 2.1843615888e+00 3.7834252540e+00 
56300 6.5351619998e+00 -7.2006973442e-05 2.1843615888e+00 -3.7834252540e+00 2.1843615888e+00 3.7834252540e+00 
56400 6.5351620052e+00 -8.3164534747e-05 2.1843632371e+00 -3.7834281088e+00 2.1843632371e+00 3.7834281088e+00 
56500 6.5351620092e+00 -9.3949198522e-05 2.1843651407e+00 -3.7834314060e+00 2.1843651407e+00 3.7834314060e+00 
56600 6.5351620119e+00 -1.0434083297e-04 2.1843672912e+00 -3.7834351307e+00 2.1843672912e+00 3.7834351307e+00 
56700 6.5351620135e+00 -1.1432078784e-04 2.1843696796e+00 -3.7834392675e+00 2.1843696796e+00 3.7834392675e+00 
56800 6.5351620140e+00 -1.2387190597e-04 2.1843722963e+00 -3.7834437999e+00 2.1843722963e+00 3.7834437999e+00 
56900 6.5351620135e+00 -1.3297853084e-04 2.1843751318e+00 -3.7834487110e+00 2.1843751318e+00 3.7834487110e+00 
57000 6.5351620121e+00 -1.4162651011e-04 2.1843781756e+00 -3.7834539831e+00 2.1843781756e+00 3.7834539831e+00 
57100 6.5351620100e+00 -1.4980319540e-04 2.1843814174e+00 -3.7834595981e+00 2.1843814174e+00 3.7834595981e+00 
57200 6.5351620073e+00 -1.5749743828e-04 2.1843848464e+00 -3.7834655372e+00 2.1843848464e+00 3.7834655372e+00 
57300 6.5351620041e+00 -1.6469958260e-04 2.1843884515e+00 -3.7834717814e+00 2.1843884515e+00 3.7834717814e+00 
57400 6.5351620005e+00 -1.7140145328e-04 2.1843922214e+00 -3.7834783111e+00 2.1843922214e+00 3.7834783111e+00 
57500 6.5351619966e+00 -1.7759634166e-04 2.1843961447e+00 -3.7834851065e+00 2.1843961447e+00 3.7834851065e+00 
57600 6.5351619925e+00 -1.8327898752e-04 2.1844002098e+00 -3.7834921475e+00 2.1844002098e+00 3.7834921475e+00 
57700 6.5351619884e+00 -1.8844555799e-04 2.1844044050e+00 -3.7834994137e+00 2.1844044050e+00 3.7834994137e+00 
57800 6.5351619843e+00 -1.9309362326e-04 2.1844087184e+00 -3.7835068848e+00 2.1844087184e+00 3.7835068848e+00 
57900 6.5351619803e+00 -1.9722212950e-04 2.1844131382e+00 -3.7835145402e+00 2.1844131382e+00 3.7835145402e+00 
58000 6.5351619765e+00 -2.0083136886e-04 2.1844176526e+00 -3.7835223592e+00 2.1844176526e+00 3.7835223592e+00 
58100 6.5351619731e+00 -2.0392294695e-04 2.1844222495e+00 -3.7835303213e+00 2.1844222495e+00 3.7835303213e+00 
58200 6.5351619700e+00 -2.0649974771e-04 2.1844269171e+00 -3.7835384059e+00 2.1844269171e+00 3.7835384059e+00 
58300 6.5351619673e+00 -2.0856589597e-04 2.1844316438e+00 -3.7835465927e+00 2.1844316438e+00 3.7835465927e+00 
58400 6.5351619651e+00 -2.1012671777e-04 2.1844364177e+00 -3.7835548613e+00 2.1844364177e+00 3.7835548613e+00 
58500 6.5351619635e+00 -2.1118869866e-04 2.1844412273e+00 -3.7835631919e+00 2.1844412273e+00 3.7835631919e+00 
58600 6.5351619624e+00 -2.1175944004e-04 2.1844460612e+00 -3.7835715645e+00 2.1844460612e+00 3.7835715645e+00 
58700 6.5351619620e+00 -2.1184761383e-04 2.1844509082e+00 -3.7835799597e+00 2.1844509082e+00 3.7835799597e+00 
58800 6.5351619622e+00 -2.1146291540e-04 2.1844557572e+00 -3.7835883584e+00 2.1844557572e+00 3.7835883584e+00 
58900 6.5351619630e+00 -2.1061601525e-04 2.1844605974e+00 -3.7835967418e+00 2.1844605974e+00 3.7835967418e+00 
59000 6.5351619645e+00 -2.0931850919e-04 2.1844654182e+00 -3.7836050917e+00 2.1844654182e+00 3.7836050917e+00 
59100 6.5351619667e+00 -2.0758286755e-04 2.1844702093e+00 -3.7836133900e+00 2.1844702093e+00 3.7836133900e+00 
59200 6.5351619695e+00 -2.0542238332e-04 2.1844749606e+00 -3.7836216196e+00 2.1844749606e+00 3.7836216196e+00 
59300 6.5351619729e+00 -2.0285111949e-04 2.1844796625e+00 -3.7836297635e+00 2.1844796625e+00 3.7836297635e+00 
59400 6.5351619770e+00 -1.9988385567e-04 2.1844843055e+00 -3.7836378054e+00 2.1844843055e+00 3.7836378054e+00 
59500 6.5351619816e+00 -1.9653603427e-04 2.1844888806e+00 -3.7836457297e+00 2.1844888806e+00 3.7836457297e+00 
59600 6.5351619868e+00 -1.9282370617e-04 2.1844933790e+00 -3.7836535212e+00 2.1844933790e+00 3.7836535212e+00 
59700 6.5351619926e+00 -1.8876347624e-04 2.1844977925e+00 -3.7836611656e+00 2.1844977925e+00 3.7836611656e+00 
59800 6.5351619988e+00 -1.8437244876e-04 2.1845021130e+00 -3.7836686489e+00 2.1845021130e+00 3.7836686489e+00 
59900 6.5351620054e+00 -1.7966817280e-04 2.1845063330e+00 -3.7836759582e+00 2.1845063330e+00 3.7836759582e+00 
60000 6.5351620125e+00 -1.7466858785e-04 2.1845104453e+00 -3.7836830810e+00 2.1845104453e+00 3.7836830810e+00 
60100 6.5351620198e+00 -1.6939196973e-04 2.1845144432e+00 -3.7836900055e+00 2.1845144432e+00 3.7836900055e+00 
60200 6.5351620275e+00 -1.6385687693e-04 2.1845183203e+00 -3.7836967209e+00 2.1845183203e+00 3.7836967209e+00 
60300 6.5351620354e+00 -1.5808209750e-04 2.1845220707e+00 -3.7837032168e+00 2.1845220707e+00 3.7837032168e+00 
60400 6.5351620435e+00 -1.5208659661e-04 2.1845256890e+00 -3.7837094837e+00 2.1845256890e+00 3.7837094837e+00 
60500 6.5351620518e+00 -1.4588946493e-04 2.1845291700e+00 -3.7837155130e+00 2.1845291700e+00 3.7837155130e+00 
60600 6.5351620601e+00 -1.3950986788e-04 2.1845325091e+00 -3.7837212966e+00 2.1845325091e+00 3.7837212966e+00 
60700 6.5351620685e+00 -1.3296699589e-04 2.1845357023e+00 -3.7837268273e+00 2.1845357023e+00 3.7837268273e+00 
60800 6.5351620768e+00 -1.2628001577e-04 2.1845387456e+00 -3.7837320985e+00 2.1845387456e+00 3.7837320985e+00 
60900 6.5351620851e+00 -1.1946802324e-04 2.1845416359e+00 -3.7837371047e+00 2.1845416359e+00 3.7837371047e+00 
61000 6.5351620933e+00 -1.1254999688e-04 2.1845443703e+00 -3.7837418408e+00 2.1845443703e+00 3.7837418408e+00 
61100 6.5351621013e+00 -1.0554475327e-04 2.1845469464e+00 -3.7837463027e+00 2.1845469464e+00 3.7837463027e+00 
61200 6.5351621091e+00 -9.8470903698e-05 2.1845493621e+00 -3.7837504868e+00 2.1845493621e+00 3.7837504868e+00 
61300 6.5351621167e+00 -9.1346812417e-05 2.1845516159e+00 -3.7837543905e+00 2.1845516159e+00 3.7837543905e+00 
61400 6.5351621241e+00 -8.4190556401e-05 2.1845537067e+00 -3.7837580118e+00 2.1845537067e+00 3.7837580118e+00 
61500 6.5351621311e+00 -7.7019886852e-05 2.1845556336e+00 -3.7837613494e+00 2.1845556336e+00 3.7837613494e+00 
61600 6.5351621379e+00 -6.9852192363e-05 2.1845573964e+00 -3.7837644027e+00 2.1845573964e+00 3.7837644027e+00 
61700 6.5351621444e+00 -6.3611710531e-05 2.1845573964e+00 -3.7837644027e+00 2.1845573964e+00 3.7837644027e+00 
61800 6.5351621505e+00 -5.7322293676e-05 2.1845573964e+00 -3.7837644027e+00 2.1845573964e+00 3.7837644027e+00 
61900 6.5351621562e+00 -5.1000148031e-05 2.1845573964e+00 -3.7837644027e+00 2.1845573964e+00 3.7837644027e+00 
62000 6.5351621615e+00 -4.4661162795e-05 2.1845573964e+00 -3.7837644027e+00 2.1845573964e+00 3.7837644027e+00 
62100 6.5351621663e+00 -3.8320874551e-05 2.1845573964e+00 -3.7837644027e+00 2.1845573964e+00 3.7837644027e+00 
62200 6.5351621708e+00 -3.1994433949e-05 2.1845573964e+00 -3.7837644027e+00 2.1845573964e+00 3.7837644027e+00 
62300 6.5351621749e+00 -2.5696574628e-05 2.1845573964e+00 -3.7837644027e+00 2.1845573964e+00 3.7837644027e+00 
62400 6.5351621786e+00 -1.9441584386e-05 2.1845573964e+00 -3.7837644027e+00 2.1845573964e+00 3.7837644027e+00 
62500 6.5351621818e+00 -1.3243278555e-05 2.1845573964e+00 -3.7837644027e+00 2.1845573964e+00 3.7837644027e+00 
62600 6.5351621848e+00 -7.1149755863e-06 2.1845573964e+00 -3.7837644027e+00 2.1845573964e+00 3.7837644027e+00 
62700 6.5351621873e+00 -1.0694748167e-06 2.1845573964e+00 -3.7837644027e+00 2.1845573964e+00 3.7837644027e+00 
62800 6.5351621896e+00 4.8809636146e-06 2.1845573964e+00 -3.7837644027e+00 2.1845573964e+00 3.7837644027e+00 
62900 6.5351621915e+00 1.0724636730e-05 2.1845573964e+00 -3.7837644027e+00 2.1845573964e+00 3.7837644027e+00 
63000 6.5351621931e+00 1.6450414574e-05 2.1845573964e+00 -3.7837644027e+00 2.1845573964e+00 3.7837644027e+00 
63100 6.5351621945e+00 2.2047754006e-05 2.1845573964e+00 -3.7837644027e+00 2.1845573964e+00 3.7837644027e+00 
63200 6.5351621956e+00 2.7506710480e-05 2.1845573964e+00 -3.7837644027e+00 2.1845573964e+00 3.7837644027e+00 
63300 6.5351621965e+00 3.2817947847e-05 2.1845573964e+00 -3.7837644027e+00 2.1845573964e+00 3.7837644027e+00 
63400 6.5351621973e+00 3.7972746195e-05 2.1845573964e+00 -3.7837644027e+00 2.1845573964e+00 3.7837644027e+00 
63500 6.5351621978e+00 4.2963007805e-05 2.1845573964e+00 -3.7837644027e+00 2.1845573964e+00 3.7837644027e+00 
63600 6.5351621982e+00 4.7781261260e-05 2.1845573964e+00 -3.7837644027e+00 2.1845573964e+00 3.7837644027e+00 
63700 6.5351621985e+00 5.2420663754e-05 2.1845573964e+00 -3.7837644027e+00 2.1845573964e+00 3.7837644027e+00 
63800 6.5351621987e+00 5.6875001661e-05 2.1845573964e+00 -3.7837644027e+00 2.1845573964e+00 3.7837644027e+00 
63900 6.5351621988e+00 6.1138689396e-05 2.1845573964e+00 -3.7837644027e+00 2.1845573964e+00 3.7837644027e+00 
64000 6.5351621989e+00 6.5206766683e-05 2.1845573964e+00 -3.7837644027e+00 2.1845573964e+00 3.7837644027e+00 
64100 6.5351621990e+00 6.9074894207e-05 2.1845573964e+00 -3.7837644027e+00 2.1845573964e+00 3.7837644027e+00 
64200 6.5351621991e+00 7.2739347781e-05 2.1845573964e+00 -3.7837644027e+00 2.1845573964e+00 3.7837644027e+00 
64300 6.5351621990e+00 7.5252049757e-05 2.1845557316e+00 -3.7837615191e+00 2.1845557316e+00 3.7837615191e+00 
64400 6.5351621990e+00 7.7515126747e-05 2.1845540092e+00 -3.7837585358e+00 2.1845540092e+00 3.7837585358e+00 
64500 6.5351621990e+00 7.9529223898e-05 2.1845522350e+00 -3.7837554629e+00 2.1845522350e+00 3.7837554629e+00 
64600 6.5351621991e+00 8.1295566591e-05 2.1845504148e+00 -3.7837523101e+00 2.1845504148e+00 3.7837523101e+00 
64700 6.5351621992e+00 8.2815945204e-05 2.1845485541e+00 -3.7837490873e+00 2.1845485541e+00 3.7837490873e+00 
64800 6.5351621994e+00 8.4092698766e-05 2.1845466586e+00 -3.7837458042e+00 2.1845466586e+00 3.7837458042e+00 
64900 6.5351621997e+00 8.5128697498e-05 2.1845447339e+00 -3.7837424705e+00 2.1845447339e+00 3.7837424705e+00 
65000 6.5351622001e+00 8.5927324366e-05 2.1845427855e+00 -3.7837390957e+00 2.1845427855e+00 3.7837390957e+00 
65100 6.5351622007e+00 8.6492455699e-05 2.1845408187e+00 -3.7837356893e+00 2.1845408187e+00 3.7837356893e+00 
65200 6.5351622013e+00 8.6828440958e-05 2.1845388391e+00 -3.7837322604e+00 2.1845388391e+00 3.7837322604e+00 
65300 6.5351622020e+00 8.6940081732e-05 2.1845368518e+00 -3.7837288182e+00 2.1845368518e+00 3.7837288182e+00 
65400 6.5351622029e+00 8.6832610043e-05 2.1845348619e+00 -3.7837253716e+00 2.1845348619e+00 3.7837253716e+00 
65500 6.5351622039e+00 8.6511666018e-05 2.1845328744e+00 -3.7837219293e+00 2.1845328744e+00 3.7837219293e+00 
65600 6.5351622050e+00 8.5983275037e-05 2.1845308943e+00 -3.7837184997e+00 2.1845308943e+00 3.7837184997e+00 
65700 6.5351622062e+00 8.5253824380e-05 2.1845289263e+00 -3.7837150910e+00 2.1845289263e+00 3.7837150910e+00 
65800 6.5351622076e+00 8.4330039511e-05 2.1845269750e+00 -3.7837117112e+00 2.1845269750e+00 3.7837117112e+00 
65900 6.5351622091e+00 8.3218960007e-05 2.1845250448e+00 -3.7837083681e+00 2.1845250448e+00 3.7837083681e+00 
66000 6.5351622107e+00 8.1927915247e-05 2.1845231401e+00 -3.7837050690e+00 2.1845231401e+00 3.7837050690e+00 
66100 6.5351622123e+00 8.0464499928e-05 2.1845212649e+00 -3.7837018210e+00 2.1845212649e+00 3.7837018210e+00 
66200 6.5351622141e+00 7.8836549439e-05 2.1845194232e+00 -3.7836986311e+00 2.1845194232e+00 3.7836986311e+00 
66300 6.5351622160e+00 7.7052115202e-05 2.1845176188e+00 -3.7836955058e+00 2.1845176188e+00 3.7836955058e+00 
66400 6.5351622179e+00 7.5119440039e-05 2.1845158552e+00 -3.7836924511e+00 2.1845158552e+00 3.7836924511e+00 
66500 6.5351622199e+00 7.3046933588e-05 2.1845141358e+00 -3.7836894731e+00 2.1845141358e+00 3.7836894731e+00 
66600 6.5351622220e+00 7.0843147886e-05 2.1845124639e+00 -3.7836865772e+00 2.1845124639e+00 3.7836865772e+00 
66700 6.5351622241e+00 6.8516753149e-05 2.1845108424e+00 -3.7836837687e+00 2.1845108424e+00 3.7836837687e+00 
66800 6.5351622264e+00 6.6966715788e-05 2.1845108424e+00 -3.7836837687e+00 2.1845108424e+00 3.7836837687e+00 
66900 6.5351622287e+00 6.5287179637e-05 2.1845108424e+00 -3.7836837687e+00 2.1845108424e+00 3.7836837687e+00 
67000 6.5351622309e+00 6.3485786804e-05 2.1845108424e+00 -3.7836837687e+00 2.1845108424e+00 3.7836837687e+00 
67100 6.5351622332e+00 6.1570296279e-05 2.1845108424e+00 -3.7836837687e+00 2.1845108424e+00 3.7836837687e+00 
67200 6.5351622354e+00 5.9548558825e-05 2.1845108424e+00 -3.7836837687e+00 2.1845108424e+00 3.7836837687e+00 
67300 6.5351622377e+00 5.7428492535e-05 2.1845108424e+00 -3.7836837687e+00 2.1845108424e+00 3.7836837687e+00 
67400 6.5351622398e+00 5.5218059092e-05 2.1845108424e+00 -3.7836837687e+00 2.1845108424e+00 3.7836837687e+00 
67500 6.5351622420e+00 5.2925240741e-05 2.1845108424e+00 -3.7836837687e+00 2.1845108424e+00 3.7836837687e+00 
67600 6.5351622441e+00 5.0558018011e-05 2.1845108424e+00 -3.7836837687e+00 2.1845108424e+00 3.7836837687e+00 
67700 6.5351622461e+00 4.8124348210e-05 2.1845108424e+00 -3.7836837687e+00 2.1845108424e+00 3.7836837687e+00 
67800 6.5351622480e+00 4.5632144705e-05 2.1845108424e+00 -3.7836837687e+00 2.1845108424e+00 3.7836837687e+00 
67900 6.5351622499e+00 4.3089257010e-05 2.1845108424e+00 -3.7836837687e+00 2.1845108424e+00 3.7836837687e+00 
68000 6.5351622517e+00 4.0503451705e-05 2.1845108424e+00 -3.7836837687e+00 2.1845108424e+00 3.7836837687e+00 
68100 6.5351622534e+00 3.7882394205e-05 2.1845108424e+00 -3.7836837687e+00 2.1845108424e+00 3.7836837687e+00 
68200 6.5351622551e+00 3.5233631368e-05 2.1845108424e+00 -3.7836837687e+00 2.1845108424e+00 3.7836837687e+00 
68300 6.5351622566e+00 3.2564574995e-05 2.1845108424e+00 -3.7836837687e+00 2.1845108424e+00 3.7836837687e+00 
68400 6.5351622581e+00 2.9882486198e-05 2.1845108424e+00 -3.7836837687e+00 2.1845108424e+00 3.7836837687e+00 
68500 6.5351622595e+00 2.7194460660e-05 2.1845108424e+00 -3.7836837687e+00 2.1845108424e+00 3.7836837687e+00 
68600 6.5351622608e+00 2.4507414793e-05 2.1845108424e+00 -3.7836837687e+00 2.1845108424e+00 3.7836837687e+00 
68700 6.5351622620e+00 2.1828072794e-05 2.1845108424e+00 -3.7836837687e+00 2.1845108424e+00 3.7836837687e+00 
68800 6.5351622631e+00 1.9162954606e-05 2.1845108424e+00 -3.7836837687e+00 2.1845108424e+00 3.7836837687e+00 
68900 6.5351622642e+00 1.6518364781e-05 2.1845108424e+00 -3.7836837687e+00 2.1845108424e+00 3.7836837687e+00 
69000 6.5351622652e+00 1.3900382248e-05 2.1845108424e+00 -3.7836837687e+00 2.1845108424e+00 3.7836837687e+00 
69100 6.5351622660e+00 1.1314850972e-05 2.1845108424e+00 -3.7836837687e+00 2.1845108424e+00 3.7836837687e+00 
69200 6.5351622669e+00 8.7673715136e-06 2.1845108424e+00 -3.7836837687e+00 2.1845108424e+00 3.7836837687e+00 
69300 6.5351622676e+00 6.2632934834e-06 2.1845108424e+00 -3.7836837687e+00 2.1845108424e+00 3.7836837687e+00 
69400 6.5351622683e+00 3.8077088529e-06 2.1845108424e+00 -3.7836837687e+00 2.1845108424e+00 3.7836837687e+00 
69500 6.5351622689e+00 1.4054461535e-06 2.1845108424e+00 -3.7836837687e+00 2.1845108424e+00 3.7836837687e+00 
69600 6.5351622695e+00 -9.3893447844e-07 2.1845108424e+00 -3.7836837687e+00 2.1845108424e+00 3.7836837687e+00 
69700 6.5351622700e+00 -3.2211454156e-06 2.1845108424e+00 -3.7836837687e+00 2.1845108424e+00 3.7836837687e+00 
69800 6.5351622705e+00 -5.4371748227e-06 2.1845108424e+00 -3.7836837687e+00 2.1845108424e+00 3.7836837687e+00 
69900 6.5351622710e+00 -7.5832891385e-06 2.1845108424e+00 -3.7836837687e+00 2.1845108424e+00 3.7836837687e+00 
70000 6.5351622714e+00 -9.6560347585e-06 2.1845108424e+00 -3.7836837687e+00 2.1845108424e+00 3.7836837687e+00 
70100 6.5351622718e+00 -1.1652238944e-05 2.1845108424e+00 -3.7836837687e+00 2.1845108424e+00 3.7836837687e+00 
70200 6.5351622721e+00 -1.3569010000e-05 2.1845108424e+00 -3.7836837687e+00 2.1845108424e+00 3.7836837687e+00 
70300 6.5351622725e+00 -1.5403736691e-05 2.1845108424e+00 -3.7836837687e+00 2.1845108424e+00 3.7836837687e+00 
70400 6.5351622728e+00 -1.7154086993e-05 2.1845108424e+00 -3.7836837687e+00 2.1845108424e+00 3.7836837687e+00 
70500 6.5351622731e+00 -1.8818006133e-05 2.1845108424e+00 -3.7836837687e+00 2.1845108424e+00 3.7836837687e+00 
70600 6.5351622734e+00 -2.0393713980e-05 2.1845108424e+00 -3.7836837687e+00 2.1845108424e+00 3.7836837687e+00 
70700 6.5351622737e+00 -2.1879701815e-05 2.1845108424e+00 -3.7836837687e+00 2.1845108424e+00 3.7836837687e+00 
70800 6.5351622740e+00 -2.3274728497e-05 2.1845108424e+00 -3.7836837687e+00 2.1845108424e+00 3.7836837687e+00 
70900 6.5351622743e+00 -2.4577816041e-05 2.1845108424e+00 -3.7836837687e+00 2.1845108424e+00 3.7836837687e+00 
71000 6.5351622747e+00 -2.5788244670e-05 2.1845108424e+00 -3.7836837687e+00 2.1845108424e+00 3.7836837687e+00 
71100 6.5351622750e+00 -2.6905547326e-05 2.1845108424e+00 -3.7836837687e+00 2.1845108424e+00 3.7836837687e+00 
71200 6.5351622753e+00 -2.7929503709e-05 2.1845108424e+00 -3.7836837687e+00 2.1845108424e+00 3.7836837687e+00 
71300 6.5351622757e+00 -2.8860133854e-05 2.1845108424e+00 -3.7836837687e+00 2.1845108424e+00 3.7836837687e+00 
71400 6.5351622760e+00 -2.9697691264e-05 2.1845108424e+00 -3.7836837687e+00 2.1845108424e+00 3.7836837687e+00 
71500 6.5351622764e+00 -3.0442655667e-05 2.1845108424e+00 -3.7836837687e+00 2.1845108424e+00 3.7836837687e+00 
71600 6.5351622768e+00 -3.1095725377e-05 2.1845108424e+00 -3.7836837687e+00 2.1845108424e+00 3.7836837687e+00 
71700 6.5351622772e+00 -3.1657809347e-05 2.1845108424e+00 -3.7836837687e+00 2.1845108424e+00 3.7836837687e+00 
71800 6.5351622777e+00 -3.2130018873e-05 2.1845108424e+00 -3.7836837687e+00 2.1845108424e+00 3.7836837687e+00 
71900 6.5351622781e+00 -3.2513659058e-05 2.1845108424e+00 -3.7836837687e+00 2.1845108424e+00 3.7836837687e+00 
72000 6.5351622786e+00 -3.2810220001e-05 2.1845108424e+00 -3.7836837687e+00 2.1845108424e+00 3.7836837687e+00 
72100 6.5351622791e+00 -3.3021367772e-05 2.1845108424e+00 -3.7836837687e+00 2.1845108424e+00 3.7836837687e+00 
72200 6.5351622796e+00 -3.3148935208e-05 2.1845108424e+00 -3.7836837687e+00 2.1845108424e+00 3.7836837687e+00 
72300 6.5351622801e+00 -3.3194912527e-05 2.1845108424e+00 -3.7836837687e+00 2.1845108424e+00 3.7836837687e+00 
72400 6.5351622806e+00 -3.3161437830e-05 2.1845108424e+00 -3.7836837687e+00 2.1845108424e+00 3.7836837687e+00 
72500 6.5351622812e+00 -3.3050787478e-05 2.1845108424e+00 -3.7836837687e+00 2.1845108424e+00 3.7836837687e+00 
72600 6.5351622817e+00 -3.2865366414e-05 2.1845108424e+00 -3.7836837687e+00 2.1845108424e+00 3.7836837687e+00 
72700 6.5351622823e+00 -3.2607698415e-05 2.1845108424e+00 -3.7836837687e+00 2.1845108424e+00 3.7836837687e+00 
72800 6.5351622829e+00 -3.2280416323e-05 2.1845108424e+00 -3.7836837687e+00 2.1845108424e+00 3.7836837687e+00 
72900 6.5351622834e+00 -3.1886252291e-05 2.1845108424e+00 -3.7836837687e+00 2.1845108424e+00 3.7836837687e+00 
73000 6.5351622840e+00 -3.1428028042e-05 2.1845108424e+00 -3.7836837687e+00 2.1845108424e+00 3.7836837687e+00 
73100 6.5351622846e+00 -3.0908645179e-05 2.1845108424e+00 -3.7836837687e+00 2.1845108424e+00 3.7836837687e+00 
73200 6.5351622852e+00 -3.0331075571e-05 2.1845108424e+00 -3.7836837687e+00 2.1845108424e+00 3.7836837687e+00 
73300 6.5351622858e+00 -2.9698351838e-05 2.1845108424e+00 -3.7836837687e+00 2.1845108424e+00 3.7836837687e+00 
73400 6.5351622863e+00 -2.9013557946e-05 2.1845108424e+00 -3.7836837687e+00 2.1845108424e+00 3.7836837687e+00 
73500 6.5351622869e+00 -2.8279819945e-05 2.1845108424e+00 -3.7836837687e+00 2.1845108424e+00 3.7836837687e+00 
73600 6.5351622875e+00 -2.7500296866e-05 2.1845108424e+00 -3.7836837687e+00 2.1845108424e+00 3.7836837687e+00 
73700 6.5351622881e+00 -2.6678171783e-05 2.1845108424e+00 -3.7836837687e+00 2.1845108424e+00 3.7836837687e+00 
73800 6.5351622886e+00 -2.5816643087e-05 2.1845108424e+00 -3.7836837687e+00 2.1845108424e+00 3.7836837687e+00 
73900 6.5351622892e+00 -2.4918915946e-05 2.1845108424e+00 -3.7836837687e+00 2.1845108424e+00 3.7836837687e+00 
74000 6.5351622897e+00 -2.3988194023e-05 2.1845108424e+00 -3.7836837687e+00 2.1845108424e+00 3.7836837687e+00 
74100 6.5351622902e+00 -2.3027671400e-05 2.1845108424e+00 -3.7836837687e+00 2.1845108424e+00 3.7836837687e+00 
74200 6.5351622907e+00 -2.2040524779e-05 2.1845108424e+00 -3.7836837687e+00 2.1845108424e+00 3.7836837687e+00 
74300 6.5351622912e+00 -2.1029905952e-05 2.1845108424e+00 -3.7836837687e+00 2.1845108424e+00 3.7836837687e+00 
74400 6.5351622917e+00 -1.9998934527e-05 2.1845108424e+00 -3.7836837687e+00 2.1845108424e+00 3.7836837687e+00 
74500 6.5351622922e+00 -1.8950690970e-05 2.1845108424e+00 -3.7836837687e+00 2.1845108424e+00 3.7836837687e+00 
74600 6.5351622926e+00 -1.7888209920e-05 2.1845108424e+00 -3.7836837687e+00 2.1845108424e+00 3.7836837687e+00 
74700 6.5351622930e+00 -1.6814473836e-05 2.1845108424e+00 -3.7836837687e+00 2.1845108424e+00 3.7836837687e+00 
74800 6.5351622935e+00 -1.5732406939e-05 2.1845108424e+00 -3.7836837687e+00 2.1845108424e+00 3.7836837687e+00 
74900 6.5351622938e+00 -1.4644869489e-05 2.1845108424e+00 -3.7836837687e+00 2.1845108424e+00 3.7836837687e+00 
75000 6.5351622942e+00 -1.3554652362e-05 2.1845108424e+00 -3.7836837687e+00 2.1845108424e+00 3.7836837687e+00 
75100 6.5351622946e+00 -1.2464472003e-05 2.1845108424e+00 -3.7836837687e+00 2.1845108424e+00 3.7836837687e+00 
75200 6.5351622949e+00 -1.1376965666e-05 2.1845108424e+00 -3.7836837687e+00 2.1845108424e+00 3.7836837687e+00 
75300 6.5351622953e+00 -1.0294687015e-05 2.1845108424e+00 -3.7836837687e+00 2.1845108424e+00 3.7836837687e+00 
75400 6.5351622956e+00 -9.2201020692e-06 2.1845108424e+00 -3.7836837687e+00 2.1845108424e+00 3.7836837687e+00 
75500 6.5351622959e+00 -8.1555854634e-06 2.1845108424e+00 -3.7836837687e+00 2.1845108424e+00 3.7836837687e+00 
75600 6.5351622962e+00 -7.1034170698e-06 2.1845108424e+00 -3.7836837687e+00 2.1845108424e+00 3.7836837687e+00 
75700 6.5351622965e+00 -6.0657789415e-06 2.1845108424e+00 -3.7836837687e+00 2.1845108424e+00 3.7836837687e+00 
75800 6.5351622967e+00 -5.0447526009e-06 2.1845108424e+00 -3.7836837687e+00 2.1845108424e+00 3.7836837687e+00 
75900 6.5351622970e+00 -4.0423166646e-06 2.1845108424e+00 -3.7836837687e+00 2.1845108424e+00 3.7836837687e+00 
76000 6.5351622972e+00 -3.0603447800e-06 2.1845108424e+00 -3.7836837687e+00 2.1845108424e+00 3.7836837687e+00 
76100 6.5351622975e+00 -2.1006039076e-06 2.1845108424e+00 -3.7836837687e+00 2.1845108424e+00 3.7836837687e+00 
76200 6.5351622977e+00 -1.1647529127e-06 2.1845108424e+00 -3.7836837687e+00 2.1845108424e+00 3.7836837687e+00 
76300 6.5351622979e+00 -2.5434147397e-07 2.1845108424e+00 -3.7836837687e+00 2.1845108424e+00 3.7836837687e+00 
76400 6.5351622981e+00 6.2919069536e-07 2.1845108424e+00 -3.7836837687e+00 2.1845108424e+00 3.7836837687e+00 
76500 6.5351622983e+00 1.4845143344e-06 2.1845108424e+00 -3.7836837687e+00 2.1845108424e+00 3.7836837687e+00 
76600 6.5351622985e+00 2.3104108176e-06 2.1845108424e+00 -3.7836837687e+00 2.1845108424e+00 3.7836837687e+00 
76700 6.5351622987e+00 3.1057720489e-06 2.1845108424e+00 -3.7836837687e+00 2.1845108424e+00 3.7836837687e+00 
76800 6.5351622989e+00 3.8696000894e-06 2.1845108424e+00 -3.7836837687e+00 2.1845108424e+00 3.7836837687e+00 
76900 6.5351622990e+00 4.6010065060e-06 2.1845108424e+00 -3.7836837687e+00 2.1845108424e+00 3.7836837687e+00 
77000 6.5351622992e+00 5.2992114655e-06 2.1845108424e+00 -3.7836837687e+00 2.1845108424e+00 3.7836837687e+00 
77100 6.5351622994e+00 5.9635425696e-06 2.1845108424e+00 -3.7836837687e+00 2.1845108424e+00 3.7836837687e+00 
77200 6.5351622995e+00 6.5934334721e-06 2.1845108424e+00 -3.7836837687e+00 2.1845108424e+00 3.7836837687e+00 
77300 6.5351622997e+00 7.1884222323e-06 2.1845108424e+00 -3.7836837687e+00 2.1845108424e+00 3.7836837687e+00 
77400 6.5351622999e+00 7.7481494841e-06 2.1845108424e+00 -3.7836837687e+00 2.1845108424e+00 3.7836837687e+00 
77500 6.5351623000e+00 8.2723563657e-06 2.1845108424e+00 -3.7836837687e+00 2.1845108424e+00 3.7836837687e+00 
77600 6.5351623002e+00 8.7608822855e-06 2.1845108424e+00 -3.7836837687e+00 2.1845108424e+00 3.7836837687e+00 
77700 6.5351623004e+00 9.2136624724e-06 2.1845108424e+00 -3.7836837687e+00 2.1845108424e+00 3.7836837687e+00 
77800 6.5351623005e+00 9.6307253649e-06 2.1845108424e+00 -3.7836837687e+00 2.1845108424e+00 3.7836837687e+00 
77900 6.5351623007e+00 1.0012189845e-05 2.1845108424e+00 -3.7836837687e+00 2.1845108424e+00 3.7836837687e+00 
78000 6.5351623009e+00 1.0358262310e-05 2.1845108424e+00 -3.7836837687e+00 2.1845108424e+00 3.7836837687e+00 
78100 6.5351623011e+00 1.0669233606e-05 2.1845108424e+00 -3.7836837687e+00 2.1845108424e+00 3.7836837687e+00 
78200 6.5351623012e+00 1.0945475841e-05 2.1845108424e+00 -3.7836837687e+00 2.1845108424e+00 3.7836837687e+00 
78300 6.5351623014e+00 1.1187439084e-05 2.1845108424e+00 -3.7836837687e+00 2.1845108424e+00 3.7836837687e+00 
78400 6.5351623016e+00 1.1395647946e-05 2.1845108424e+00 -3.7836837687e+00 2.1845108424e+00 3.7836837687e+00 
78500 6.5351623017e+00 1.1570698080e-05 2.1845108424e+00 -3.7836837687e+00 2.1845108424e+00 3.7836837687e+00 
78600 6.5351623019e+00 1.1713252609e-05 2.1845108424e+00 -3.7836837687e+00 2.1845108424e+00 3.7836837687e+00 
78700 6.5351623021e+00 1.1824038466e-05 2.1845108424e+00 -3.7836837687e+00 2.1845108424e+00 3.7836837687e+00 
78800 6.5351623023e+00 1.1903842684e-05 2.1845108424e+00 -3.7836837687e+00 2.1845108424e+00 3.7836837687e+00 
78900 6.5351623025e+00 1.1953508646e-05 2.1845108424e+00 -3.7836837687e+00 2.1845108424e+00 3.7836837687e+00 
79000 6.5351623026e+00 1.1973932292e-05 2.1845108424e+00 -3.7836837687e+00 2.1845108424e+00 3.7836837687e+00 
79100 6.5351623028e+00 1.1966058299e-05 2.1845108424e+00 -3.7836837687e+00 2.1845108424e+00 3.7836837687e+00 
79200 6.5351623030e+00 1.1930876249e-05 2.1845108424e+00 -3.7836837687e+00 2.1845108424e+00 3.7836837687e+00 
79300 6.5351623032e+00 1.1869416801e-05 2.1845108424e+00 -3.7836837687e+00 2.1845108424e+00 3.7836837687e+00 
79400 6.5351623033e+00 1.1782747851e-05 2.1845108424e+00 -3.7836837687e+00 2.1845108424e+00 3.7836837687e+00 
79500 6.5351623035e+00 1.1671970727e-05 2.1845108424e+00 -3.7836837687e+00 2.1845108424e+00 3.7836837687e+00 
79600 6.5351623037e+00 1.1538216386e-05 2.1845108424e+00 -3.7836837687e+00 2.1845108424e+00 3.7836837687e+00 
79700 6.5351623039e+00 1.1382641663e-05 2.1845108424e+00 -3.7836837687e+00 2.1845108424e+00 3.7836837687e+00 
79800 6.5351623041e+00 1.1206425556e-05 2.1845108424e+00 -3.7836837687e+00 2.1845108424e+00 3.7836837687e+00 
79900 6.5351623042e+00 1.1010765551e-05 2.1845108424e+00 -3.7836837687e+00 2.1845108424e+00 3.7836837687e+00 
80000 6.5351623044e+00 1.0796874026e-05 2.1845108424e+00 -3.7836837687e+00 2.1845108424e+00 3.7836837687e+00 
80100 6.5351623046e+00 1.0565974702e-05 2.1845108424e+00 -3.7836837687e+00 2.1845108424e+00 3.7836837687e+00 
80200 6.5351623047e+00 1.0319299172e-05 2.1845108424e+00 -3.7836837687e+00 2.1845108424e+00 3.7836837687e+00 
80300 6.5351623049e+00 1.0058083515e-05 2.1845108424e+00 -3.7836837687e+00 2.1845108424e+00 3.7836837687e+00 
80400 6.5351623050e+00 9.7835649868e-06 2.1845108424e+00 -3.7836837687e+00 2.1845108424e+00 3.7836837687e+00 
80500 6.5351623052e+00 9.4969788133e-06 2.1845108424e+00 -3.7836837687e+00 2.1845108424e+00 3.7836837687e+00 
80600 6.5351623054e+00 9.1995550675e-06 2.1845108424e+00 -3.7836837687e+00 2.1845108424e+00 3.7836837687e+00 
80700 6.5351623055e+00 8.8925156683e-06 2.1845108424e+00 -3.7836837687e+00 2.1845108424e+00 3.7836837687e+00 
80800 6.5351623057e+00 8.5770714619e-06 2.1845108424e+00 -3.7836837687e+00 2.1845108424e+00 3.7836837687e+00 
80900 6.5351623058e+00 8.2544194430e-06 2.1845108424e+00 -3.7836837687e+00 2.1845108424e+00 3.7836837687e+00 
81000 6.5351623059e+00 7.9257400605e-06 2.1845108424e+00 -3.7836837687e+00 2.1845108424e+00 3.7836837687e+00 
81100 6.5351623061e+00 7.5921946742e-06 2.1845108424e+00 -3.7836837687e+00 2.1845108424e+00 3.7836837687e+00 
81200 6.5351623062e+00 7.2549231050e-06 2.1845108424e+00 -3.7836837687e+00 2.1845108424e+00 3.7836837687e+00 
81300 6.5351623063e+00 6.9150413357e-06 2.1845108424e+00 -3.7836837687e+00 2.1845108424e+00 3.7836837687e+00 
81400 6.5351623065e+00 6.5736393139e-06 2.1845108424e+00 -3.7836837687e+00 2.1845108424e+00 3.7836837687e+00 
81500 6.5351623066e+00 6.2317789068e-06 2.1845108424e+00 -3.7836837687e+00 2.1845108424e+00 3.7836837687e+00 
81600 6.5351623067e+00 5.8904919745e-06 2.1845108424e+00 -3.7836837687e+00 2.1845108424e+00 3.7836837687e+00 
81700 6.5351623068e+00 5.5507785731e-06 2.1845108424e+00 -3.7836837687e+00 2.1845108424e+00 3.7836837687e+00 
81800 6.5351623069e+00 5.2136053017e-06 2.1845108424e+00 -3.7836837687e+00 2.1845108424e+00 3.7836837687e+00 
81900 6.5351623070e+00 4.8799037694e-06 2.1845108424e+00 -3.7836837687e+00 2.1845108424e+00 3.7836837687e+00 
82000 6.5351623071e+00 4.5505692099e-06 2.1845108424e+00 -3.7836837687e+00 2.1845108424e+00 3.7836837687e+00 
82100 6.5351623072e+00 4.2264592119e-06 2.1845108424e+00 -3.7836837687e+00 2.1845108424e+00 3.7836837687e+00 
82200 6.5351623073e+00 3.9083926009e-06 2.1845108424e+00 -3.7836837687e+00 2.1845108424e+00 3.7836837687e+00 
82300 6.5351623074e+00 3.5971484367e-06 2.1845108424e+00 -3.7836837687e+00 2.1845108424e+00 3.7836837687e+00 
82400 6.5351623075e+00 3.2934651522e-06 2.1845108424e+00 -3.7836837687e+00 2.1845108424e+00 3.7836837687e+00 
82500 6.5351623076e+00 2.9980398087e-06 2.1845108424e+00 -3.7836837687e+00 2.1845108424e+00 3.7836837687e+00 
82600 6.5351623077e+00 2.7115275003e-06 2.1845108424e+00 -3.7836837687e+00 2.1845108424e+00 3.7836837687e+00 
82700 6.5351623078e+00 2.4345408517e-06 2.1845108424e+00 -3.7836837687e+00 2.1845108424e+00 3.7836837687e+00 
82800 6.5351623079e+00 2.1676496716e-06 2.1845108424e+00 -3.7836837687e+00 2.1845108424e+00 3.7836837687e+00 
82900 6.5351623080e+00 1.9113806975e-06 2.1845108424e+00 -3.7836837687e+00 2.1845108424e+00 3.7836837687e+00 
83000 6.5351623081e+00 1.6662174827e-06 2.1845108424e+00 -3.7836837687e+00 2.1845108424e+00 3.7836837687e+00 
83100 6.5351623081e+00 1.4326003778e-06 2.1845108424e+00 -3.7836837687e+00 2.1845108424e+00 3.7836837687e+00 
83200 6.5351623082e+00 1.2109266297e-06 2.1845108424e+00 -3.7836837687e+00 2.1845108424e+00 3.7836837687e+00 
83300 6.5351623083e+00 1.0015506020e-06 2.1845108424e+00 -3.7836837687e+00 2.1845108424e+00 3.7836837687e+00 
83400 6.5351623084e+00 8.0478406764e-07 2.1845108424e+00 -3.7836837687e+00 2.1845108424e+00 3.7836837687e+00 
83500 6.5351623084e+00 6.2089663508e-07 2.1845108424e+00 -3.7836837687e+00 2.1845108424e+00 3.7836837687e+00 
83600 6.5351623085e+00 4.5011625926e-07 2.1845108424e+00 -3.7836837687e+00 2.1845108424e+00 3.7836837687e+00 
83700 6.5351623086e+00 2.9262982654e-07 2.1845108424e+00 -3.7836837687e+00 2.1845108424e+00 3.7836837687e+00 
83800 6.5351623087e+00 1.4858386096e-07 2.1845108424e+00 -3.7836837687e+00 2.1845108424e+00 3.7836837687e+00 
83900 6.5351623087e+00 1.8085285670e-08 2.1845108424e+00 -3.7836837687e+00 2.1845108424e+00 3.7836837687e+00 
84000 6.5351623088e+00 -9.8797719760e-08 2.1845108424e+00 -3.7836837687e+00 2.1845108424e+00 3.7836837687e+00 
84100 6.5351623089e+00 -2.0203479351e-07 2.1845108424e+00 -3.7836837687e+00 2.1845108424e+00 3.7836837687e+00 
84200 6.5351623089e+00 -2.9163239450e-07 2.1845108424e+00 -3.7836837687e+00 2.1845108424e+00 3.7836837687e+00 
84300 6.5351623090e+00 -3.6763273958e-07 2.1845108424e+00 -3.7836837687e+00 2.1845108424e+00 3.7836837687e+00 
84400 6.5351623091e+00 -4.3011267479e-07 2.1845108424e+00 -3.7836837687e+00 2.1845108424e+00 3.7836837687e+00 
84500 6.5351623091e+00 -4.7918249200e-07 2.1845108424e+00 -3.7836837687e+00 2.1845108424e+00 3.7836837687e+00 
84600 6.5351623092e+00 -5.1498470956e-07 2.1845108424e+00 -3.7836837687e+00 2.1845108424e+00 3.7836837687e+00 
84700 6.5351623093e+00 -5.3769276597e-07 2.1845108424e+00 -3.7836837687e+00 2.1845108424e+00 3.7836837687e+00 
84800 6.5351623093e+00 -5.4750972101e-07 2.1845108424e+00 -3.7836837687e+00 2.1845108424e+00 3.7836837687e+00 
84900 6.5351623094e+00 -5.4466687517e-07 2.1845108424e+00 -3.7836837687e+00 2.1845108424e+00 3.7836837687e+00 
85000 6.5351623095e+00 -5.2942238034e-07 2.1845108424e+00 -3.7836837687e+00 2.1845108424e+00 3.7836837687e+00 
85100 6.5351623095e+00 -5.0205981408e-07 2.1845108424e+00 -3.7836837687e+00 2.1845108424e+00 3.7836837687e+00 
85200 6.5351623096e+00 -4.6288673163e-07 2.1845108424e+00 -3.7836837687e+00 2.1845108424e+00 3.7836837687e+00 
85300 6.5351623097e+00 -4.1223318961e-07 2.1845108424e+00 -3.7836837687e+00 2.1845108424e+00 3.7836837687e+00 
85400 6.5351623097e+00 -3.5045026605e-07 2.1845108424e+00 -3.7836837687e+00 2.1845108424e+00 3.7836837687e+00 
85500 6.5351623098e+00 -2.7790855990e-07 2.1845108424e+00 -3.7836837687e+00 2.1845108424e+00 3.7836837687e+00 
85600 6.5351623099e+00 -1.9499668027e-07 2.1845108424e+00 -3.7836837687e+00 2.1845108424e+00 3.7836837687e+00 
85700 6.5351623099e+00 -1.0211974726e-07 2.1845108424e+00 -3.7836837687e+00 2.1845108424e+00 3.7836837687e+00 
85800 6.5351623100e+00 3.0212497087e-10 2.1845108424e+00 -3.7836837687e+00 2.1845108424e+00 3.7836837687e+00 
85900 6.5351623100e+00 1.1183532984e-07 2.1845108424e+00 -3.7836837687e+00 2.1845108424e+00 3.7836837687e+00 
86000 6.5351623101e+00 2.3203426013e-07 2.1845108424e+00 -3.7836837687e+00 2.1845108424e+00 3.7836837687e+00 
86100 6.5351623102e+00 3.6044279893e-07 2.1845108424e+00 -3.7836837687e+00 2.1845108424e+00 3.7836837687e+00 
86200 6.5351623102e+00 4.9659579104e-07 2.1845108424e+00 -3.7836837687e+00 2.1845108424e+00 3.7836837687e+00 
86300 6.5351623103e+00 6.4002047836e-07 2.1845108424e+00 -3.7836837687e+00 2.1845108424e+00 3.7836837687e+00 
86400 6.5351623103e+00 7.9023795095e-07 2.1845108424e+00 -3.7836837687e+00 2.1845108424e+00 3.7836837687e+00 
86500 6.5351623104e+00 9.4676453914e-07 2.1845108424e+00 -3.7836837687e+00 2.1845108424e+00 3.7836837687e+00 
86600 6.5351623105e+00 1.1091131928e-06 2.1845108424e+00 -3.7836837687e+00 2.1845108424e+00 3.7836837687e+00 
86700 6.5351623105e+00 1.2767948283e-06 2.1845108424e+00 -3.7836837687e+00 2.1845108424e+00 3.7836837687e+00 
86800 6.5351623106e+00 1.4493196416e-06 2.1845108424e+00 -3.7836837687e+00 2.1845108424e+00 3.7836837687e+00 
86900 6.5351623106e+00 1.6261983935e-06 2.1845108424e+00 -3.7836837687e+00 2.1845108424e+00 3.7836837687e+00 
87000 6.5351623107e+00 1.8069436461e-06 2.1845108424e+00 -3.7836837687e+00 2.1845108424e+00 3.7836837687e+00 
87100 6.5351623107e+00 1.9910709560e-06 2.1845108424e+00 -3.7836837687e+00 2.1845108424e+00 3.7836837687e+00 
87200 6.5351623108e+00 2.1781000532e-06 2.1845108424e+00 -3.7836837687e+00 2.1845108424e+00 3.7836837687e+00 
87300 6.5351623108e+00 2.3675559425e-06 2.1845108424e+00 -3.7836837687e+00 2.1845108424e+00 3.7836837687e+00 
87400 6.5351623109e+00 2.5589699847e-06 2.1845108424e+00 -3.7836837687e+00 2.1845108424e+00 3.7836837687e+00 
87500 6.5351623109e+00 2.7518809095e-06 2.1845108424e+00 -3.7836837687e+00 2.1845108424e+00 3.7836837687e+00 
87600 6.5351623110e+00 2.9458358124e-06 2.1845108424e+00 -3.7836837687e+00 2.1845108424e+00 3.7836837687e+00 
87700 6.5351623110e+00 3.1403910601e-06 2.1845108424e+00 -3.7836837687e+00 2.1845108424e+00 3.7836837687e+00 
87800 6.5351623111e+00 3.3234329122e-06 2.1845108424e+00 -3.7836837687e+00 2.1845108424e+00 3.7836837687e+00 
87800 6.5351623111e+00 3.3234329126e-06 2.1845108424e+00 -3.7836837687e+00 2.1845108424e+00 3.7836837687e+00 
