# step Hamiltonian StressXX CellTensor1 CellTensor2 CellTensor3 CellTensor4 
0 5.5785656509e+00 2.5961146274e-01 2.8237630504e+00 -4.8909010719e+00 2.8237630504e+00 4.8909010719e+00 
100 5.5588023374e+00 2.9066949057e-01 2.8237630504e+00 -4.8909010719e+00 2.8237630504e+00 4.8909010719e+00 
200 5.5436530770e+00 3.1963795185e-01 2.8186177705e+00 -4.8819891856e+00 2.8186177705e+00 4.8819891856e+00 
300 5.5334411293e+00 3.4673215070e-01 2.8129495566e+00 -4.8721715511e+00 2.8129495566e+00 4.8721715511e+00 
400 5.5277064971e+00 3.7216279325e-01 2.8067886701e+00 -4.8615005827e+00 2.8067886701e+00 4.8615005827e+00 
500 5.5260228256e+00 3.9616858069e-01 2.8001615958e+00 -4.8500221534e+00 2.8001615958e+00 4.8500221534e+00 
600 5.5279798146e+00 4.1900009576e-01 2.7930905512e+00 -4.8377747449e+00 2.7930905512e+00 4.8377747449e+00 
700 5.5331685001e+00 4.4090302383e-01 2.7855932637e+00 -4.8247890620e+00 2.7855932637e+00 4.8247890620e+00 
800 5.5411673387e+00 4.6209781579e-01 2.7776830339e+00 -4.8110881420e+00 2.7776830339e+00 4.8110881420e+00 
900 5.5515246004e+00 4.8274704524e-01 2.7693691535e+00 -4.7966880788e+00 2.7693691535e+00 4.7966880788e+00 
1000 5.5637280458e+00 5.0288937864e-01 2.7606579092e+00 -4.7815997610e+00 2.7606579092e+00 4.7815997610e+00 
1100 5.5771445264e+00 5.2229445945e-01 2.7515547904e+00 -4.7658326968e+00 2.7515547904e+00 4.7658326968e+00 
1200 5.5908998754e+00 5.4015370109e-01 2.7420693685e+00 -4.7494034640e+00 2.7420693685e+00 4.7494034640e+00 
1300 5.6036661569e+00 5.5450677572e-01 2.7322259054e+00 -4.7323540860e+00 2.7322259054e+00 4.7323540860e+00 
1400 5.6133933727e+00 5.6152944751e-01 2.7220846822e+00 -4.7147889721e+00 2.7220846822e+00 4.7147889721e+00 
1500 5.6173203138e+00 5.5580531492e-01 2.7117768934e+00 -4.6969353582e+00 2.7117768934e+00 4.6969353582e+00 
1600 5.6130251662e+00 5.3395470901e-01 2.7015353813e+00 -4.6791965389e+00 2.7015353813e+00 4.6791965389e+00 
1700 5.6004327106e+00 5.0025953681e-01 2.6916589981e+00 -4.6620901414e+00 2.6916589981e+00 4.6620901414e+00 
1800 5.5822127993e+00 4.6495687361e-01 2.6823715905e+00 -4.6460038795e+00 2.6823715905e+00 4.6460038795e+00 
1900 5.5615295854e+00 4.3528488411e-01 2.6737093738e+00 -4.6310004801e+00 2.6737093738e+00 4.6310004801e+00 
2000 5.5403161951e+00 4.1232552881e-01 2.6655734234e+00 -4.6169086006e+00 2.6655734234e+00 4.6169086006e+00 
2100 5.5193773804e+00 3.9424203626e-01 2.6578429000e+00 -4.6035189413e+00 2.6578429000e+00 4.6035189413e+00 
2200 5.4989818078e+00 3.7906385311e-01 2.6504297799e+00 -4.5906790407e+00 2.6504297799e+00 4.5906790407e+00 
2300 5.4792086504e+00 3.6547761729e-01 2.6432820158e+00 -4.5782987501e+00 2.6432820158e+00 4.5782987501e+00 
2400 5.4600784479e+00 3.5274787061e-01 2.6363717073e+00 -4.5663297447e+00 2.6363717073e+00 4.5663297447e+00 
2500 5.4415941163e+00 3.4049727161e-01 2.6296845186e+00 -4.5547471940e+00 2.6296845186e+00 4.5547471940e+00 
2600 5.4237527986e+00 3.2854422455e-01 2.6232130728e+00 -4.5435383212e+00 2.6232130728e+00 4.5435383212e+00 
2700 5.4065491567e+00 3.1680820403e-01 2.6169533222e+00 -4.5326961151e+00 2.6169533222e+00 4.5326961151e+00 
2800 5.3899762525e+00 3.0525915215e-01 2.6109026642e+00 -4.5222160680e+00 2.6109026642e+00 4.5222160680e+00 
2900 5.3740257777e+00 2.9389139859e-01 2.6050589959e+00 -4.5120945376e+00 2.6050589959e+00 4.5120945376e+00 
3000 5.3586881304e+00 2.8271043587e-01 2.5994202540e+00 -4.5023279501e+00 2.5994202540e+00 4.5023279501e+00 
3100 5.3439524793e+00 2.7172627751e-01 2.5939842023e+00 -4.4929124324e+00 2.5939842023e+00 4.4929124324e+00 
3200 5.3298068488e+00 2.6095016126e-01 2.5887483444e+00 -4.4838436606e+00 2.5887483444e+00 4.4838436606e+00 
3300 5.3162382284e+00 2.5039295078e-01 2.5837098995e+00 -4.4751168179e+00 2.5837098995e+00 4.4751168179e+00 
3400 5.3032326996e+00 2.4006440030e-01 2.5788658081e+00 -4.4667266055e+00 2.5788658081e+00 4.4667266055e+00 
3500 5.2907755735e+00 2.2997285756e-01 2.5742127537e+00 -4.4586672789e+00 2.5742127537e+00 4.4586672789e+00 
3600 5.2788515309e+00 2.2012518768e-01 2.5697471898e+00 -4.4509326953e+00 2.5697471898e+00 4.4509326953e+00 
3700 5.2674447596e+00 2.1052680613e-01 2.5654653690e+00 -4.4435163642e+00 2.5654653690e+00 4.4435163642e+00 
3800 5.2565390854e+00 2.0118176289e-01 2.5613633725e+00 -4.4364114979e+00 2.5613633725e+00 4.4364114979e+00 
3900 5.2461180925e+00 1.9209284797e-01 2.5574371379e+00 -4.4296110599e+00 2.5574371379e+00 4.4296110599e+00 
4000 5.2361652331e+00 1.8326170281e-01 2.5536824852e+00 -4.4231078107e+00 2.5536824852e+00 4.4231078107e+00 
4100 5.2266639247e+00 1.7468892990e-01 2.5500951417e+00 -4.4168943495e+00 2.5500951417e+00 4.4168943495e+00 
4200 5.2175976356e+00 1.6637419688e-01 2.5466707641e+00 -4.4109631536e+00 2.5466707641e+00 4.4109631536e+00 
4300 5.2089499577e+00 1.5831633371e-01 2.5434049595e+00 -4.4053066140e+00 2.5434049595e+00 4.4053066140e+00 
4400 5.2007046690e+00 1.5051342243e-01 2.5402933038e+00 -4.3999170684e+00 2.5402933038e+00 4.3999170684e+00 
4500 5.1928457862e+00 1.4296287975e-01 2.5373313598e+00 -4.3947868308e+00 2.5373313598e+00 4.3947868308e+00 
4600 5.1853576073e+00 1.3566153293e-01 2.5345146919e+00 -4.3899082189e+00 2.5345146919e+00 4.3899082189e+00 
4700 5.1782247470e+00 1.2860568948e-01 2.5318388812e+00 -4.3852735787e+00 2.5318388812e+00 4.3852735787e+00 
4800 5.1714321647e+00 1.2179120130e-01 2.5292995378e+00 -4.3808753070e+00 2.5292995378e+00 4.3808753070e+00 
4900 5.1649651868e+00 1.1521352374e-01 2.5268923128e+00 -4.3767058710e+00 2.5268923128e+00 4.3767058710e+00 
5000 5.1588095235e+00 1.0886777016e-01 2.5246129085e+00 -4.3727578269e+00 2.5246129085e+00 4.3727578269e+00 
5100 5.1529512818e+00 1.0274876233e-01 2.5224570877e+00 -4.3690238358e+00 2.5224570877e+00 4.3690238358e+00 
5200 5.1473769744e+00 9.6851077073e-02 2.5204206819e+00 -4.3654966775e+00 2.5204206819e+00 4.3654966775e+00 
5300 5.1420735261e+00 9.1169089479e-02 2.5184995986e+00 -4.3621692636e+00 2.5184995986e+00 4.3621692636e+00 
5400 5.1370282774e+00 8.5697012894e-02 2.5166898274e+00 -4.3590346479e+00 2.5166898274e+00 4.3590346479e+00 
5500 5.1322289862e+00 8.0428935926e-02 2.5149874455e+00 -4.3560860359e+00 2.5149874455e+00 4.3560860359e+00 
5600 5.1276638280e+00 7.5358856645e-02 2.5133886222e+00 -4.3533167928e+00 2.5133886222e+00 4.3533167928e+00 
5700 5.1233213945e+00 7.0480714107e-02 2.5118896228e+00 -4.3507204497e+00 2.5118896228e+00 4.3507204497e+00 
5800 5.1191906910e+00 6.5788417346e-02 2.5104868114e+00 -4.3482907090e+00 2.5104868114e+00 4.3482907090e+00 
5900 5.1152611333e+00 6.1275871925e-02 2.5091766533e+00 -4.3460214487e+00 2.5091766533e+00 4.3460214487e+00 
6000 5.1115225434e+00 5.6937004162e-02 2.5079557169e+00 -4.3439067249e+00 2.5079557169e+00 4.3439067249e+00 
6100 5.1079651445e+00 5.2765783104e-02 2.5068206748e+00 -4.3419407743e+00 2.5068206748e+00 4.3419407743e+00 
6200 5.1045795555e+00 4.8756240352e-02 2.5057683042e+00 -4.3401180149e+00 2.5057683042e+00 4.3401180149e+00 
6300 5.1013567849e+00 4.4902487816e-02 2.5047954871e+00 -4.3384330463e+00 2.5047954871e+00 4.3384330463e+00 
6400 5.0982882243e+00 4.1198733487e-02 2.5038992102e+00 -4.3368806491e+00 2.5038992102e+00 4.3368806491e+00 
6500 5.0953656413e+00 3.7639295307e-02 2.5030765637e+00 -4.3354557836e+00 2.5030765637e+00 4.3354557836e+00 
6600 5.0925811721e+00 3.4218613246e-02 2.5023247407e+00 -4.3341535880e+00 2.5023247407e+00 4.3341535880e+00 
6700 5.0899273131e+00 3.0931259654e-02 2.5016410354e+00 -4.3329693756e+00 2.5016410354e+00 4.3329693756e+00 
6800 5.0873969134e+00 2.7771948002e-02 2.5010228415e+00 -4.3318986323e+00 2.5010228415e+00 4.3318986323e+00 
6900 5.0849831653e+00 2.4735540096e-02 2.5004676502e+00 -4.3309370129e+00 2.5004676502e+00 4.3309370129e+00 
7000 5.0826795958e+00 2.1817051872e-02 2.4999730483e+00 -4.3300803371e+00 2.4999730483e+00 4.3300803371e+00 
7100 5.0804800573e+00 1.9011657857e-02 2.4995367152e+00 -4.3293245861e+00 2.4995367152e+00 4.3293245861e+00 
7200 5.0783787175e+00 1.6314694419e-02 2.4991564212e+00 -4.3286658976e+00 2.4991564212e+00 4.3286658976e+00 
7300 5.0763700501e+00 1.3721661869e-02 2.4988300243e+00 -4.3281005616e+00 2.4988300243e+00 4.3281005616e+00 
7400 5.0744488243e+00 1.1228225554e-02 2.4985554676e+00 -4.3276250154e+00 2.4985554676e+00 4.3276250154e+00 
7500 5.0726100948e+00 8.8302159926e-03 2.4983307766e+00 -4.3272358392e+00 2.4983307766e+00 4.3272358392e+00 
7600 5.0708491914e+00 6.5236281900e-03 2.4981540564e+00 -4.3269297508e+00 2.4981540564e+00 4.3269297508e+00 
7700 5.0691617083e+00 4.3046201823e-03 2.4980234886e+00 -4.3267036007e+00 2.4980234886e+00 4.3267036007e+00 
7800 5.0675434938e+00 2.1695109235e-03 2.4979373285e+00 -4.3265543671e+00 2.4979373285e+00 4.3265543671e+00 
7900 5.0659906393e+00 1.1477758445e-04 2.4978939026e+00 -4.3264791512e+00 2.4978939026e+00 4.3264791512e+00 
8000 5.0644994694e+00 -1.8629476553e-03 2.4978916051e+00 -4.3264751719e+00 2.4978916051e+00 4.3264751719e+00 
8100 5.0630665307e+00 -3.7668812492e-03 2.4979288956e+00 -4.3265397609e+00 2.4979288956e+00 4.3265397609e+00 
8200 5.0616885819e+00 -5.6000922916e-03 2.4980042961e+00 -4.3266703583e+00 2.4980042961e+00 4.3266703583e+00 
8300 5.0603625829e+00 -7.3655068275e-03 2.4981163883e+00 -4.3268645077e+00 2.4981163883e+00 4.3268645077e+00 
8400 5.0590856855e+00 -9.0659124050e-03 2.4982638109e+00 -4.3271198512e+00 2.4982638109e+00 4.3271198512e+00 
8500 5.0578552227e+00 -1.0703962818e-02 2.4984452574e+00 -4.3274341257e+00 2.4984452574e+00 4.3274341257e+00 
8600 5.0566686992e+00 -1.2282182986e-02 2.4986594729e+00 -4.3278051579e+00 2.4986594729e+00 4.3278051579e+00 
8700 5.0555237822e+00 -1.3802973934e-02 2.4989052524e+00 -4.3282308604e+00 2.4989052524e+00 4.3282308604e+00 
8800 5.0544182918e+00 -1.5268617822e-02 2.4991814379e+00 -4.3287092277e+00 2.4991814379e+00 4.3287092277e+00 
8900 5.0533501920e+00 -1.6681282997e-02 2.4994869165e+00 -4.3292383322e+00 2.4994869165e+00 4.3292383322e+00 
9000 5.0523175826e+00 -1.8043029027e-02 2.4998206180e+00 -4.3298163203e+00 2.4998206180e+00 4.3298163203e+00 
9100 5.0513186900e+00 -1.9355811704e-02 2.5001815132e+00 -4.3304414090e+00 2.5001815132e+00 4.3304414090e+00 
9200 5.0503518602e+00 -2.0621487967e-02 2.5005686113e+00 -4.3311118826e+00 2.5005686113e+00 4.3311118826e+00 
9300 5.0494155501e+00 -2.1841820750e-02 2.5009809586e+00 -4.3318260891e+00 2.5009809586e+00 4.3318260891e+00 
9400 5.0485083209e+00 -2.3018483722e-02 2.5014176364e+00 -4.3325824372e+00 2.5014176364e+00 4.3325824372e+00 
9500 5.0476288307e+00 -2.4153065902e-02 2.5018777593e+00 -4.3333793934e+00 2.5018777593e+00 4.3333793934e+00 
9600 5.0467758281e+00 -2.5247076147e-02 2.5023604736e+00 -4.3342154791e+00 2.5023604736e+00 4.3342154791e+00 
9700 5.0459481456e+00 -2.6301947497e-02 2.5028649557e+00 -4.3350892678e+00 2.5028649557e+00 4.3350892678e+00 
9800 5.0451446935e+00 -2.7319041363e-02 2.5033904109e+00 -4.3359993829e+00 2.5033904109e+00 4.3359993829e+00 
9900 5.0443644548e+00 -2.8299651569e-02 2.5039360716e+00 -4.3369444949e+00 2.5039360716e+00 4.3369444949e+00 
10000 5.0436064792e+00 -2.9245008224e-02 2.5045011961e+00 -4.3379233193e+00 2.5045011961e+00 4.3379233193e+00 
10100 5.0428698785e+00 -3.0156281434e-02 2.5050850678e+00 -4.3389346147e+00 2.5050850678e+00 4.3389346147e+00 
10200 5.0421538217e+00 -3.1034584846e-02 2.5056869932e+00 -4.3399771801e+00 2.5056869932e+00 4.3399771801e+00 
10300 5.0414575306e+00 -3.1880979036e-02 2.5063063017e+00 -4.3410498538e+00 2.5063063017e+00 4.3410498538e+00 
10400 5.0407802757e+00 -3.2696474722e-02 2.5069423438e+00 -4.3421515111e+00 2.5069423438e+00 4.3421515111e+00 
10500 5.0401213723e+00 -3.3482035819e-02 2.5075944907e+00 -4.3432810626e+00 2.5075944907e+00 4.3432810626e+00 
10600 5.0394801770e+00 -3.4238582341e-02 2.5082621329e+00 -4.3444374529e+00 2.5082621329e+00 4.3444374529e+00 
10700 5.0388560842e+00 -3.4966993134e-02 2.5089446799e+00 -4.3456196589e+00 2.5089446799e+00 4.3456196589e+00 
10800 5.0382485232e+00 -3.5668108470e-02 2.5096415588e+00 -4.3468266886e+00 2.5096415588e+00 4.3468266886e+00 
10900 5.0376569553e+00 -3.6342732484e-02 2.5103522139e+00 -4.3480575793e+00 2.5103522139e+00 4.3480575793e+00 
11000 5.0370808709e+00 -3.6991635472e-02 2.5110761059e+00 -4.3493113971e+00 2.5110761059e+00 4.3493113971e+00 
11100 5.0365197876e+00 -3.7615556052e-02 2.5118127113e+00 -4.3505872350e+00 2.5118127113e+00 4.3505872350e+00 
11200 5.0359732473e+00 -3.8215203188e-02 2.5125615216e+00 -4.3518842125e+00 2.5125615216e+00 4.3518842125e+00 
11300 5.0354408149e+00 -3.8791258086e-02 2.5133220428e+00 -4.3532014740e+00 2.5133220428e+00 4.3532014740e+00 
11400 5.0349220757e+00 -3.9344375979e-02 2.5140937952e+00 -4.3545381882e+00 2.5140937952e+00 4.3545381882e+00 
11500 5.0344166341e+00 -3.9875187776e-02 2.5148763120e+00 -4.3558935472e+00 2.5148763120e+00 4.3558935472e+00 
11600 5.0339241119e+00 -4.0384301621e-02 2.5156691399e+00 -4.3572667654e+00 2.5156691399e+00 4.3572667654e+00 
11700 5.0334441470e+00 -4.0872304327e-02 2.5164718379e+00 -4.3586570790e+00 2.5164718379e+00 4.3586570790e+00 
11800 5.0329763919e+00 -4.1339762725e-02 2.5172839769e+00 -4.3600637452e+00 2.5172839769e+00 4.3600637452e+00 
11900 5.0325205127e+00 -4.1787224908e-02 2.5181051400e+00 -4.3614860412e+00 2.5181051400e+00 4.3614860412e+00 
12000 5.0320761879e+00 -4.2215221392e-02 2.5189349210e+00 -4.3629232642e+00 2.5189349210e+00 4.3629232642e+00 
12100 5.0316431075e+00 -4.2624266186e-02 2.5197729252e+00 -4.3643747300e+00 2.5197729252e+00 4.3643747300e+00 
12200 5.0312209723e+00 -4.3014857786e-02 2.5206187683e+00 -4.3658397732e+00 2.5206187683e+00 4.3658397732e+00 
12300 5.0308094928e+00 -4.3387480096e-02 2.5214720763e+00 -4.3673177460e+00 2.5214720763e+00 4.3673177460e+00 
12400 5.0304083886e+00 -4.3742603273e-02 2.5223324853e+00 -4.3688080182e+00 2.5223324853e+00 4.3688080182e+00 
12500 5.0300173881e+00 -4.4080684509e-02 2.5231996412e+00 -4.3703099762e+00 2.5231996412e+00 4.3703099762e+00 
12600 5.0296362273e+00 -4.4402168752e-02 2.5240731993e+00 -4.3718230231e+00 2.5240731993e+00 4.3718230231e+00 
12700 5.0292646499e+00 -4.4707489369e-02 2.5249528240e+00 -4.3733465780e+00 2.5249528240e+00 4.3733465780e+00 
12800 5.0289024067e+00 -4.4997068751e-02 2.5258381891e+00 -4.3748800753e+00 2.5258381891e+00 4.3748800753e+00 
12900 5.0285492550e+00 -4.5271318877e-02 2.5267289768e+00 -4.3764229648e+00 2.5267289768e+00 4.3764229648e+00 
13000 5.0282049584e+00 -4.5530641820e-02 2.5276248781e+00 -4.3779747113e+00 2.5276248781e+00 4.3779747113e+00 
13100 5.0278692863e+00 -4.5775430221e-02 2.5285255921e+00 -4.3795347938e+00 2.5285255921e+00 4.3795347938e+00 
13200 5.0275420142e+00 -4.6006067712e-02 2.5294308264e+00 -4.3811027056e+00 2.5294308264e+00 4.3811027056e+00 
13300 5.0272229227e+00 -4.6222929313e-02 2.5303402963e+00 -4.3826779536e+00 2.5303402963e+00 4.3826779536e+00 
13400 5.0269117977e+00 -4.6426381786e-02 2.5312537250e+00 -4.3842600585e+00 2.5312537250e+00 4.3842600585e+00 
13500 5.0266084302e+00 -4.6616783964e-02 2.5321708433e+00 -4.3858485541e+00 2.5321708433e+00 4.3858485541e+00 
13600 5.0263126160e+00 -4.6794487042e-02 2.5330913896e+00 -4.3874429870e+00 2.5330913896e+00 4.3874429870e+00 
13700 5.0260241558e+00 -4.6959834857e-02 2.5340151093e+00 -4.3890429165e+00 2.5340151093e+00 4.3890429165e+00 
13800 5.0257428547e+00 -4.7113164124e-02 2.5349417552e+00 -4.3906479143e+00 2.5349417552e+00 4.3906479143e+00 
13900 5.0254685223e+00 -4.7254804668e-02 2.5358710871e+00 -4.3922575643e+00 2.5358710871e+00 4.3922575643e+00 
14000 5.0252009727e+00 -4.7385079623e-02 2.5368028714e+00 -4.3938714620e+00 2.5368028714e+00 4.3938714620e+00 
14100 5.0249400242e+00 -4.7504305617e-02 2.5377368814e+00 -4.3954892148e+00 2.5377368814e+00 4.3954892148e+00 
14200 5.0246854991e+00 -4.7612792946e-02 2.5386728970e+00 -4.3971104413e+00 2.5386728970e+00 4.3971104413e+00 
14300 5.0244372243e+00 -4.7710845721e-02 2.5396107043e+00 -4.3987347714e+00 2.5396107043e+00 4.3987347714e+00 
14400 5.0241950302e+00 -4.7798762009e-02 2.5405500961e+00 -4.4003618456e+00 2.5405500961e+00 4.4003618456e+00 
14500 5.0239587515e+00 -4.7876833966e-02 2.5414908709e+00 -4.4019913153e+00 2.5414908709e+00 4.4019913153e+00 
14600 5.0237282268e+00 -4.7945347944e-02 2.5424328335e+00 -4.4036228425e+00 2.5424328335e+00 4.4036228425e+00 
14700 5.0235032985e+00 -4.8004584607e-02 2.5433757947e+00 -4.4052560992e+00 2.5433757947e+00 4.4052560992e+00 
14800 5.0232838129e+00 -4.8054819023e-02 2.5443195710e+00 -4.4068907676e+00 2.5443195710e+00 4.4068907676e+00 
14900 5.0230696199e+00 -4.8096320756e-02 2.5452639844e+00 -4.4085265396e+00 2.5452639844e+00 4.4085265396e+00 
15000 5.0228605732e+00 -4.8129353952e-02 2.5462088627e+00 -4.4101631169e+00 2.5462088627e+00 4.4101631169e+00 
15100 5.0226565302e+00 -4.8154177411e-02 2.5471540391e+00 -4.4118002104e+00 2.5471540391e+00 4.4118002104e+00 
15200 5.0224573519e+00 -4.8171044665e-02 2.5480993521e+00 -4.4134375405e+00 2.5480993521e+00 4.4134375405e+00 
15300 5.0222629028e+00 -4.8180204042e-02 2.5490446453e+00 -4.4150748364e+00 2.5490446453e+00 4.4150748364e+00 
15400 5.0220730510e+00 -4.8181898733e-02 2.5499897676e+00 -4.4167118363e+00 2.5499897676e+00 4.4167118363e+00 
15500 5.0218876678e+00 -4.8176366851e-02 2.5509345728e+00 -4.4183482870e+00 2.5509345728e+00 4.4183482870e+00 
15600 5.0217066283e+00 -4.8163841491e-02 2.5518789196e+00 -4.4199839436e+00 2.5518789196e+00 4.4199839436e+00 
15700 5.0215298106e+00 -4.8144550784e-02 2.5528226715e+00 -4.4216185697e+00 2.5528226715e+00 4.4216185697e+00 
15800 5.0213570964e+00 -4.8118717952e-02 2.5537656965e+00 -4.4232519370e+00 2.5537656965e+00 4.4232519370e+00 
15900 5.0211883704e+00 -4.8086561363e-02 2.5547078674e+00 -4.4248838249e+00 2.5547078674e+00 4.4248838249e+00 
16000 5.0210235206e+00 -4.8048294580e-02 2.5556490614e+00 -4.4265140207e+00 2.5556490614e+00 4.4265140207e+00 
16100 5.0208624382e+00 -4.8004126415e-02 2.5565891600e+00 -4.4281423191e+00 2.5565891600e+00 4.4281423191e+00 
16200 5.0207050173e+00 -4.7954260977e-02 2.5575280489e+00 -4.4297685224e+00 2.5575280489e+00 4.4297685224e+00 
16300 5.0205511552e+00 -4.7898897725e-02 2.5584656180e+00 -4.4313924399e+00 2.5584656180e+00 4.4313924399e+00 
16400 5.0204007521e+00 -4.7838231515e-02 2.5594017615e+00 -4.4330138879e+00 2.5594017615e+00 4.4330138879e+00 
16500 5.0202537112e+00 -4.7772452657e-02 2.5603363772e+00 -4.4346326898e+00 2.5603363772e+00 4.4346326898e+00 
16600 5.0201099382e+00 -4.7701746959e-02 2.5612693670e+00 -4.4362486755e+00 2.5612693670e+00 4.4362486755e+00 
16700 5.0199693421e+00 -4.7626295783e-02 2.5622006364e+00 -4.4378616814e+00 2.5622006364e+00 4.4378616814e+00 
16800 5.0198318341e+00 -4.7546276095e-02 2.5631300947e+00 -4.4394715505e+00 2.5631300947e+00 4.4394715505e+00 
16900 5.0196973286e+00 -4.7461860520e-02 2.5640576548e+00 -4.4410781316e+00 2.5640576548e+00 4.4410781316e+00 
17000 5.0195657421e+00 -4.7373217391e-02 2.5649832329e+00 -4.4426812800e+00 2.5649832329e+00 4.4426812800e+00 
17100 5.0194369939e+00 -4.7280510808e-02 2.5659067489e+00 -4.4442808566e+00 2.5659067489e+00 4.4442808566e+00 
17200 5.0193110058e+00 -4.7183900690e-02 2.5668281257e+00 -4.4458767280e+00 2.5668281257e+00 4.4458767280e+00 
17300 5.0191877019e+00 -4.7083542831e-02 2.5677472896e+00 -4.4474687666e+00 2.5677472896e+00 4.4474687666e+00 
17400 5.0190670086e+00 -4.6979588957e-02 2.5686641700e+00 -4.4490568500e+00 2.5686641700e+00 4.4490568500e+00 
17500 5.0189488548e+00 -4.6872186784e-02 2.5695786994e+00 -4.4506408613e+00 2.5695786994e+00 4.4506408613e+00 
17600 5.0188331715e+00 -4.6761480073e-02 2.5704908131e+00 -4.4522206886e+00 2.5704908131e+00 4.4522206886e+00 
17700 5.0187198918e+00 -4.6647608695e-02 2.5714004494e+00 -4.4537962250e+00 2.5714004494e+00 4.4537962250e+00 
17800 5.0186089511e+00 -4.6530708681e-02 2.5723075495e+00 -4.4553673684e+00 2.5723075495e+00 4.4553673684e+00 
17900 5.0185002865e+00 -4.6410912294e-02 2.5732120571e+00 -4.4569340215e+00 2.5732120571e+00 4.4569340215e+00 
18000 5.0183938375e+00 -4.6288348079e-02 2.5741139187e+00 -4.4584960916e+00 2.5741139187e+00 4.4584960916e+00 
18100 5.0182895452e+00 -4.6163140933e-02 2.5750130832e+00 -4.4600534903e+00 2.5750130832e+00 4.4600534903e+00 
18200 5.0181873528e+00 -4.6035412160e-02 2.5759095023e+00 -4.4616061338e+00 2.5759095023e+00 4.4616061338e+00 
18300 5.0180872051e+00 -4.5905279540e-02 2.5768031299e+00 -4.4631539420e+00 2.5768031299e+00 4.4631539420e+00 
18400 5.0179890489e+00 -4.5772857388e-02 2.5776939221e+00 -4.4646968394e+00 2.5776939221e+00 4.4646968394e+00 
18500 5.0178928324e+00 -4.5638256619e-02 2.5785818375e+00 -4.4662347541e+00 2.5785818375e+00 4.4662347541e+00 
18600 5.0177985056e+00 -4.5501584811e-02 2.5794668369e+00 -4.4677676179e+00 2.5794668369e+00 4.4677676179e+00 
18700 5.0177060202e+00 -4.5362946269e-02 2.5803488831e+00 -4.4692953667e+00 2.5803488831e+00 4.4692953667e+00 
18800 5.0176153292e+00 -4.5222442091e-02 2.5812279410e+00 -4.4708179396e+00 2.5812279410e+00 4.4708179396e+00 
18900 5.0175263872e+00 -4.5080170231e-02 2.5821039775e+00 -4.4723352794e+00 2.5821039775e+00 4.4723352794e+00 
19000 5.0174391504e+00 -4.4936225562e-02 2.5829769615e+00 -4.4738473321e+00 2.5829769615e+00 4.4738473321e+00 
19100 5.0173535761e+00 -4.4790699943e-02 2.5838468637e+00 -4.4753540469e+00 2.5838468637e+00 4.4753540469e+00 
19200 5.0172696231e+00 -4.4643682282e-02 2.5847136566e+00 -4.4768553762e+00 2.5847136566e+00 4.4768553762e+00 
19300 5.0171872515e+00 -4.4495258602e-02 2.5855773145e+00 -4.4783512756e+00 2.5855773145e+00 4.4783512756e+00 
19400 5.0171064225e+00 -4.4345512102e-02 2.5864378133e+00 -4.4798417033e+00 2.5864378133e+00 4.4798417033e+00 
19500 5.0170270987e+00 -4.4194523225e-02 2.5872951307e+00 -4.4813266206e+00 2.5872951307e+00 4.4813266206e+00 
19600 5.0169492437e+00 -4.4042369716e-02 2.5881492458e+00 -4.4828059912e+00 2.5881492458e+00 4.4828059912e+00 
19700 5.0168728224e+00 -4.3889126692e-02 2.5890001391e+00 -4.4842797818e+00 2.5890001391e+00 4.4842797818e+00 
19800 5.0167978007e+00 -4.3734866701e-02 2.5898477930e+00 -4.4857479614e+00 2.5898477930e+00 4.4857479614e+00 
19900 5.0167241453e+00 -4.3579659783e-02 2.5906921910e+00 -4.4872105015e+00 2.5906921910e+00 4.4872105015e+00 
20000 5.0166518244e+00 -4.3423573537e-02 2.5915333179e+00 -4.4886673760e+00 2.5915333179e+00 4.4886673760e+00 
20100 5.0165808066e+00 -4.3266673178e-02 2.5923711599e+00 -4.4901185611e+00 2.5923711599e+00 4.4901185611e+00 
20200 5.0165110620e+00 -4.3109021598e-02 2.5932057046e+00 -4.4915640349e+00 2.5932057046e+00 4.4915640349e+00 
20300 5.0164425611e+00 -4.2950679431e-02 2.5940369407e+00 -4.4930037781e+00 2.5940369407e+00 4.4930037781e+00 
20400 5.0163752756e+00 -4.2791705107e-02 2.5948648581e+00 -4.4944377730e+00 2.5948648581e+00 4.4944377730e+00 
20500 5.0163091779e+00 -4.2632154914e-02 2.5956894477e+00 -4.4958660040e+00 2.5956894477e+00 4.4958660040e+00 
20600 5.0162442411e+00 -4.2472083054e-02 2.5965107016e+00 -4.4972884575e+00 2.5965107016e+00 4.4972884575e+00 
20700 5.0161804394e+00 -4.2311541703e-02 2.5973286129e+00 -4.4987051216e+00 2.5973286129e+00 4.4987051216e+00 
20800 5.0161177474e+00 -4.2150581067e-02 2.5981431759e+00 -4.5001159860e+00 2.5981431759e+00 4.5001159860e+00 
20900 5.0160561406e+00 -4.1989249436e-02 2.5989543855e+00 -4.5015210422e+00 2.5989543855e+00 4.5015210422e+00 
21000 5.0159955951e+00 -4.1827593241e-02 2.5997622377e+00 -4.5029202834e+00 2.5997622377e+00 4.5029202834e+00 
21100 5.0159360878e+00 -4.1665657106e-02 2.6005667296e+00 -4.5043137041e+00 2.6005667296e+00 4.5043137041e+00 
21200 5.0158775961e+00 -4.1503483904e-02 2.6013678587e+00 -4.5057013005e+00 2.6013678587e+00 4.5057013005e+00 
21300 5.0158200981e+00 -4.1341114807e-02 2.6021656237e+00 -4.5070830700e+00 2.6021656237e+00 4.5070830700e+00 
21400 5.0157635725e+00 -4.1178589338e-02 2.6029600239e+00 -4.5084590115e+00 2.6029600239e+00 4.5084590115e+00 
21500 5.0157079985e+00 -4.1015945423e-02 2.6037510594e+00 -4.5098291251e+00 2.6037510594e+00 4.5098291251e+00 
21600 5.0156533559e+00 -4.0853219436e-02 2.6045387309e+00 -4.5111934122e+00 2.6045387309e+00 4.5111934122e+00 
21700 5.0155996251e+00 -4.0690446256e-02 2.6053230400e+00 -4.5125518755e+00 2.6053230400e+00 4.5125518755e+00 
21800 5.0155467869e+00 -4.0527659303e-02 2.6061039888e+00 -4.5139045185e+00 2.6061039888e+00 4.5139045185e+00 
21900 5.0154948227e+00 -4.0364890596e-02 2.6068815801e+00 -4.5152513461e+00 2.6068815801e+00 4.5152513461e+00 
22000 5.0154437143e+00 -4.0202170790e-02 2.6076558172e+00 -4.5165923640e+00 2.6076558172e+00 4.5165923640e+00 
22100 5.0153934440e+00 -4.0039529226e-02 2.6084267040e+00 -4.5179275792e+00 2.6084267040e+00 4.5179275792e+00 
22200 5.0153439946e+00 -3.9876993972e-02 2.6091942451e+00 -4.5192569993e+00 2.6091942451e+00 4.5192569993e+00 
22300 5.0152953493e+00 -3.9714591867e-02 2.6099584454e+00 -4.5205806331e+00 2.6099584454e+00 4.5205806331e+00 
22400 5.0152474916e+00 -3.9552348561e-02 2.6107193104e+00 -4.5218984899e+00 2.6107193104e+00 4.5218984899e+00 
22500 5.0152004056e+00 -3.9390288558e-02 2.6114768461e+00 -4.5232105802e+00 2.6114768461e+00 4.5232105802e+00 
22600 5.0151540756e+00 -3.9228435252e-02 2.6122310588e+00 -4.5245169150e+00 2.6122310588e+00 4.5245169150e+00 
22700 5.0151084865e+00 -3.9066810972e-02 2.6129819556e+00 -4.5258175063e+00 2.6129819556e+00 4.5258175063e+00 
22800 5.0150636234e+00 -3.8905437012e-02 2.6137295434e+00 -4.5271123665e+00 2.6137295434e+00 4.5271123665e+00 
22900 5.0150194718e+00 -3.8744333673e-02 2.6144738301e+00 -4.5284015089e+00 2.6144738301e+00 4.5284015089e+00 
23000 5.0149760175e+00 -3.8583520299e-02 2.6152148237e+00 -4.5296849473e+00 2.6152148237e+00 4.5296849473e+00 
23100 5.0149332467e+00 -3.8423015307e-02 2.6159525323e+00 -4.5309626962e+00 2.6159525323e+00 4.5309626962e+00 
23200 5.0148911459e+00 -3.8262836227e-02 2.6166869649e+00 -4.5322347707e+00 2.6166869649e+00 4.5322347707e+00 
23300 5.0148497020e+00 -3.8102999731e-02 2.6174181302e+00 -4.5335011862e+00 2.6174181302e+00 4.5335011862e+00 
23400 5.0148089020e+00 -3.7943521665e-02 2.6181460377e+00 -4.5347619590e+00 2.6181460377e+00 4.5347619590e+00 
23500 5.0147687333e+00 -3.7784417083e-02 2.6188706969e+00 -4.5360171055e+00 2.6188706969e+00 4.5360171055e+00 
23600 5.0147291836e+00 -3.7625700274e-02 2.6195921176e+00 -4.5372666428e+00 2.6195921176e+00 4.5372666428e+00 
23700 5.0146902410e+00 -3.7467384795e-02 2.6203103099e+00 -4.5385105884e+00 2.6203103099e+00 4.5385105884e+00 
23800 5.0146518936e+00 -3.7309483496e-02 2.6210252842e+00 -4.5397489602e+00 2.6210252842e+00 4.5397489602e+00 
23900 5.0146141300e+00 -3.7152008547e-02 2.6217370509e+00 -4.5409817763e+00 2.6217370509e+00 4.5409817763e+00 
24000 5.0145769388e+00 -3.6994971470e-02 2.6224456209e+00 -4.5422090554e+00 2.6224456209e+00 4.5422090554e+00 
24100 5.0145403092e+00 -3.6838383160e-02 2.6231510050e+00 -4.5434308165e+00 2.6231510050e+00 4.5434308165e+00 
24200 5.0145042303e+00 -3.6682253912e-02 2.6238532144e+00 -4.5446470789e+00 2.6238532144e+00 4.5446470789e+00 
24300 5.0144686916e+00 -3.6526593445e-02 2.6245522604e+00 -4.5458578621e+00 2.6245522604e+00 4.5458578621e+00 
24400 5.0144336829e+00 -3.6371410924e-02 2.6252481545e+00 -4.5470631860e+00 2.6252481545e+00 4.5470631860e+00 
24500 5.0143991940e+00 -3.6216714987e-02 2.6259409082e+00 -4.5482630707e+00 2.6259409082e+00 4.5482630707e+00 
24600 5.0143652152e+00 -3.6062513763e-02 2.6266305334e+00 -4.5494575366e+00 2.6266305334e+00 4.5494575366e+00 
24700 5.0143317367e+00 -3.5908814894e-02 2.6273170419e+00 -4.5506466042e+00 2.6273170419e+00 4.5506466042e+00 
24800 5.0142987491e+00 -3.5755625557e-02 2.6280004457e+00 -4.5518302943e+00 2.6280004457e+00 4.5518302943e+00 
24900 5.0142662432e+00 -3.5602952482e-02 2.6286807570e+00 -4.5530086281e+00 2.6286807570e+00 4.5530086281e+00 
25000 5.0142342099e+00 -3.5450801972e-02 2.6293579880e+00 -4.5541816265e+00 2.6293579880e+00 4.5541816265e+00 
25100 5.0142026404e+00 -3.5299179924e-02 2.6300321510e+00 -4.5553493111e+00 2.6300321510e+00 4.5553493111e+00 
25200 5.0141715260e+00 -3.5148091840e-02 2.6307032584e+00 -4.5565117032e+00 2.6307032584e+00 4.5565117032e+00 
25300 5.0141408583e+00 -3.4997542852e-02 2.6313713227e+00 -4.5576688245e+00 2.6313713227e+00 4.5576688245e+00 
25400 5.0141106288e+00 -3.4847537734e-02 2.6320363565e+00 -4.5588206968e+00 2.6320363565e+00 4.5588206968e+00 
25500 5.0140808296e+00 -3.4698080917e-02 2.6326983724e+00 -4.5599673420e+00 2.6326983724e+00 4.5599673420e+00 
25600 5.0140514525e+00 -3.4549176509e-02 2.6333573831e+00 -4.5611087820e+00 2.6333573831e+00 4.5611087820e+00 
25700 5.0140224899e+00 -3.4400828306e-02 2.6340134014e+00 -4.5622450390e+00 2.6340134014e+00 4.5622450390e+00 
25800 5.0139939340e+00 -3.4253039807e-02 2.6346664400e+00 -4.5633761350e+00 2.6346664400e+00 4.5633761350e+00 
25900 5.0139657773e+00 -3.4105814226e-02 2.6353165118e+00 -4.5645020924e+00 2.6353165118e+00 4.5645020924e+00 
26000 5.0139380127e+00 -3.3959154511e-02 2.6359636297e+00 -4.5656229335e+00 2.6359636297e+00 4.5656229335e+00 
26100 5.0139106328e+00 -3.3813063349e-02 2.6366078066e+00 -4.5667386806e+00 2.6366078066e+00 4.5667386806e+00 
26200 5.0138836306e+00 -3.3667543182e-02 2.6372490554e+00 -4.5678493562e+00 2.6372490554e+00 4.5678493562e+00 
26300 5.0138569993e+00 -3.3522596221e-02 2.6378873891e+00 -4.5689549827e+00 2.6378873891e+00 4.5689549827e+00 
26400 5.0138307320e+00 -3.3378224451e-02 2.6385228208e+00 -4.5700555825e+00 2.6385228208e+00 4.5700555825e+00 
26500 5.0138048223e+00 -3.3234429646e-02 2.6391553633e+00 -4.5711511783e+00 2.6391553633e+00 4.5711511783e+00 
26600 5.0137792636e+00 -3.3091213380e-02 2.6397850297e+00 -4.5722417926e+00 2.6397850297e+00 4.5722417926e+00 
26700 5.0137540495e+00 -3.2948577033e-02 2.6404118331e+00 -4.5733274478e+00 2.6404118331e+00 4.5733274478e+00 
26800 5.0137291739e+00 -3.2806521804e-02 2.6410357864e+00 -4.5744081667e+00 2.6410357864e+00 4.5744081667e+00 
26900 5.0137046307e+00 -3.2665048717e-02 2.6416569027e+00 -4.5754839717e+00 2.6416569027e+00 4.5754839717e+00 
27000 5.0136804138e+00 -3.2524158632e-02 2.6422751950e+00 -4.5765548853e+00 2.6422751950e+00 4.5765548853e+00 
27100 5.0136565176e+00 -3.2383852253e-02 2.6428906763e+00 -4.5776209303e+00 2.6428906763e+00 4.5776209303e+00 
27200 5.0136329362e+00 -3.2244130135e-02 2.6435033597e+00 -4.5786821290e+00 2.6435033597e+00 4.5786821290e+00 
27300 5.0136096640e+00 -3.2104992690e-02 2.6441132581e+00 -4.5797385040e+00 2.6441132581e+00 4.5797385040e+00 
27400 5.0135866955e+00 -3.1966440199e-02 2.6447203845e+00 -4.5807900778e+00 2.6447203845e+00 4.5807900778e+00 
27500 5.0135640255e+00 -3.1828472813e-02 2.6453247520e+00 -4.5818368729e+00 2.6453247520e+00 4.5818368729e+00 
27600 5.0135416485e+00 -3.1691090565e-02 2.6459263734e+00 -4.5828789118e+00 2.6459263734e+00 4.5828789118e+00 
27700 5.0135195594e+00 -3.1554293371e-02 2.6465252616e+00 -4.5839162167e+00 2.6465252616e+00 4.5839162167e+00 
27800 5.0134977532e+00 -3.1418081041e-02 2.6471214297e+00 -4.5849488101e+00 2.6471214297e+00 4.5849488101e+00 
27900 5.0134762249e+00 -3.1282453282e-02 2.6477148905e+00 -4.5859767143e+00 2.6477148905e+00 4.5859767143e+00 
28000 5.0134549696e+00 -3.1147409703e-02 2.6483056568e+00 -4.5869999516e+00 2.6483056568e+00 4.5869999516e+00 
28100 5.0134339826e+00 -3.1012949820e-02 2.6488937416e+00 -4.5880185442e+00 2.6488937416e+00 4.5880185442e+00 
28200 5.0134132592e+00 -3.0879073066e-02 2.6494791575e+00 -4.5890325144e+00 2.6494791575e+00 4.5890325144e+00 
28300 5.0133927949e+00 -3.0745778786e-02 2.6500619174e+00 -4.5900418841e+00 2.6500619174e+00 4.5900418841e+00 
28400 5.0133725851e+00 -3.0613066252e-02 2.6506420340e+00 -4.5910466756e+00 2.6506420340e+00 4.5910466756e+00 
28500 5.0133526255e+00 -3.0480934659e-02 2.6512195201e+00 -4.5920469109e+00 2.6512195201e+00 4.5920469109e+00 
28600 5.0133329118e+00 -3.0349383134e-02 2.6517943883e+00 -4.5930426118e+00 2.6517943883e+00 4.5930426118e+00 
28700 5.0133134397e+00 -3.0218410738e-02 2.6523666513e+00 -4.5940338003e+00 2.6523666513e+00 4.5940338003e+00 
28800 5.0132942053e+00 -3.0088016469e-02 2.6529363216e+00 -4.5950204983e+00 2.6529363216e+00 4.5950204983e+00 
28900 5.0132752043e+00 -2.9958199267e-02 2.6535034119e+00 -4.5960027275e+00 2.6535034119e+00 4.5960027275e+00 
29000 5.0132564328e+00 -2.9828958017e-02 2.6540679347e+00 -4.5969805096e+00 2.6540679347e+00 4.5969805096e+00 
29100 5.0132378870e+00 -2.9700291550e-02 2.6546299024e+00 -4.5979538662e+00 2.6546299024e+00 4.5979538662e+00 
29200 5.0132195630e+00 -2.9572198649e-02 2.6551893275e+00 -4.5989228190e+00 2.6551893275e+00 4.5989228190e+00 
29300 5.0132014572e+00 -2.9444678049e-02 2.6557462225e+00 -4.5998873894e+00 2.6557462225e+00 4.5998873894e+00 
29400 5.0131835658e+00 -2.9317728444e-02 2.6563005997e+00 -4.6008475989e+00 2.6563005997e+00 4.6008475989e+00 
29500 5.0131658854e+00 -2.9191348483e-02 2.6568524714e+00 -4.6018034687e+00 2.6568524714e+00 4.6018034687e+00 
29600 5.0131484123e+00 -2.9065536777e-02 2.6574018499e+00 -4.6027550202e+00 2.6574018499e+00 4.6027550202e+00 
29700 5.0131311431e+00 -2.8940291902e-02 2.6579487475e+00 -4.6037022746e+00 2.6579487475e+00 4.6037022746e+00 
29800 5.0131140746e+00 -2.8815612397e-02 2.6584931764e+00 -4.6046452531e+00 2.6584931764e+00 4.6046452531e+00 
29900 5.0130972033e+00 -2.8691496769e-02 2.6590351487e+00 -4.6055839766e+00 2.6590351487e+00 4.6055839766e+00 
30000 5.0130805260e+00 -2.8567943495e-02 2.6595746764e+00 -4.6065184661e+00 2.6595746764e+00 4.6065184661e+00 
30100 5.0130640396e+00 -2.8444951021e-02 2.6601117718e+00 -4.6074487426e+00 2.6601117718e+00 4.6074487426e+00 
30200 5.0130477410e+00 -2.8322517768e-02 2.6606464468e+00 -4.6083748268e+00 2.6606464468e+00 4.6083748268e+00 
30300 5.0130316271e+00 -2.8200642129e-02 2.6611787133e+00 -4.6092967395e+00 2.6611787133e+00 4.6092967395e+00 
30400 5.0130156950e+00 -2.8079322475e-02 2.6617085834e+00 -4.6102145013e+00 2.6617085834e+00 4.6102145013e+00 
30500 5.0129999417e+00 -2.7958557152e-02 2.6622360688e+00 -4.6111281329e+00 2.6622360688e+00 4.6111281329e+00 
30600 5.0129843643e+00 -2.7838344486e-02 2.6627611814e+00 -4.6120376547e+00 2.6627611814e+00 4.6120376547e+00 
30700 5.0129689600e+00 -2.7718682782e-02 2.6632839331e+00 -4.6129430870e+00 2.6632839331e+00 4.6129430870e+00 
30800 5.0129537262e+00 -2.7599570327e-02 2.6638043354e+00 -4.6138444504e+00 2.6638043354e+00 4.6138444504e+00 
30900 5.0129386600e+00 -2.7481005388e-02 2.6643224002e+00 -4.6147417649e+00 2.6643224002e+00 4.6147417649e+00 
31000 5.0129237589e+00 -2.7362986217e-02 2.6648381391e+00 -4.6156350508e+00 2.6648381391e+00 4.6156350508e+00 
31100 5.0129090203e+00 -2.7245511049e-02 2.6653515636e+00 -4.6165243282e+00 2.6653515636e+00 4.6165243282e+00 
31200 5.0128944415e+00 -2.7128578105e-02 2.6658626853e+00 -4.6174096170e+00 2.6658626853e+00 4.6174096170e+00 
31300 5.0128800202e+00 -2.7012185591e-02 2.6663715157e+00 -4.6182909371e+00 2.6663715157e+00 4.6182909371e+00 
31400 5.0128657539e+00 -2.6896331701e-02 2.6668780663e+00 -4.6191683085e+00 2.6668780663e+00 4.6191683085e+00 
31500 5.0128516402e+00 -2.6781014614e-02 2.6673823485e+00 -4.6200417507e+00 2.6673823485e+00 4.6200417507e+00 
31600 5.0128376767e+00 -2.6666232500e-02 2.6678843735e+00 -4.6209112836e+00 2.6678843735e+00 4.6209112836e+00 
31700 5.0128238611e+00 -2.6551983516e-02 2.6683841527e+00 -4.6217769267e+00 2.6683841527e+00 4.6217769267e+00 
31800 5.0128101912e+00 -2.6438265811e-02 2.6688816975e+00 -4.6226386994e+00 2.6688816975e+00 4.6226386994e+00 
31900 5.0127966649e+00 -2.6325077520e-02 2.6693770188e+00 -4.6234966212e+00 2.6693770188e+00 4.6234966212e+00 
32000 5.0127832798e+00 -2.6212416773e-02 2.6698701280e+00 -4.6243507114e+00 2.6698701280e+00 4.6243507114e+00 
32100 5.0127700339e+00 -2.6100281690e-02 2.6703610362e+00 -4.6252009892e+00 2.6703610362e+00 4.6252009892e+00 
32200 5.0127569251e+00 -2.5988670380e-02 2.6708497543e+00 -4.6260474739e+00 2.6708497543e+00 4.6260474739e+00 
32300 5.0127439514e+00 -2.5877580949e-02 2.6713362935e+00 -4.6268901844e+00 2.6713362935e+00 4.6268901844e+00 
32400 5.0127311107e+00 -2.5767011492e-02 2.6718206646e+00 -4.6277291398e+00 2.6718206646e+00 4.6277291398e+00 
32500 5.0127184011e+00 -2.5656960098e-02 2.6723028786e+00 -4.6285643589e+00 2.6723028786e+00 4.6285643589e+00 
32600 5.0127058207e+00 -2.5547424851e-02 2.6727829463e+00 -4.6293958606e+00 2.6727829463e+00 4.6293958606e+00 
32700 5.0126933676e+00 -2.5438403828e-02 2.6732608786e+00 -4.6302236637e+00 2.6732608786e+00 4.6302236637e+00 
32800 5.0126810399e+00 -2.5329895099e-02 2.6737366863e+00 -4.6310477867e+00 2.6737366863e+00 4.6310477867e+00 
32900 5.0126688358e+00 -2.5221896729e-02 2.6742103799e+00 -4.6318682482e+00 2.6742103799e+00 4.6318682482e+00 
33000 5.0126567535e+00 -2.5114406781e-02 2.6746819703e+00 -4.6326850667e+00 2.6746819703e+00 4.6326850667e+00 
33100 5.0126447912e+00 -2.5007423309e-02 2.6751514680e+00 -4.6334982606e+00 2.6751514680e+00 4.6334982606e+00 
33200 5.0126329474e+00 -2.4900944364e-02 2.6756188836e+00 -4.6343078482e+00 2.6756188836e+00 4.6343078482e+00 
33300 5.0126212202e+00 -2.4794967994e-02 2.6760842277e+00 -4.6351138477e+00 2.6760842277e+00 4.6351138477e+00 
33400 5.0126096080e+00 -2.4689492241e-02 2.6765475106e+00 -4.6359162773e+00 2.6765475106e+00 4.6359162773e+00 
33500 5.0125981093e+00 -2.4584515145e-02 2.6770087429e+00 -4.6367151550e+00 2.6770087429e+00 4.6367151550e+00 
33600 5.0125867223e+00 -2.4480034742e-02 2.6774679348e+00 -4.6375104988e+00 2.6774679348e+00 4.6375104988e+00 
33700 5.0125754457e+00 -2.4376049062e-02 2.6779250968e+00 -4.6383023266e+00 2.6779250968e+00 4.6383023266e+00 
33800 5.0125642777e+00 -2.4272556137e-02 2.6783802391e+00 -4.6390906561e+00 2.6783802391e+00 4.6390906561e+00 
33900 5.0125532170e+00 -2.4169553992e-02 2.6788333720e+00 -4.6398755052e+00 2.6788333720e+00 4.6398755052e+00 
34000 5.0125422620e+00 -2.4067040650e-02 2.6792845055e+00 -4.6406568915e+00 2.6792845055e+00 4.6406568915e+00 
34100 5.0125314113e+00 -2.3965014133e-02 2.6797336499e+00 -4.6414348324e+00 2.6797336499e+00 4.6414348324e+00 
34200 5.0125206636e+00 -2.3863472460e-02 2.6801808153e+00 -4.6422093455e+00 2.6801808153e+00 4.6422093455e+00 
34300 5.0125100173e+00 -2.3762413647e-02 2.6806260116e+00 -4.6429804481e+00 2.6806260116e+00 4.6429804481e+00 
34400 5.0124994711e+00 -2.3661835709e-02 2.6810692489e+00 -4.6437481577e+00 2.6810692489e+00 4.6437481577e+00 
34500 5.0124890238e+00 -2.3561736658e-02 2.6815105371e+00 -4.6445124912e+00 2.6815105371e+00 4.6445124912e+00 
34600 5.0124786739e+00 -2.3462114505e-02 2.6819498861e+00 -4.6452734661e+00 2.6819498861e+00 4.6452734661e+00 
34700 5.0124684202e+00 -2.3362967260e-02 2.6823873057e+00 -4.6460310991e+00 2.6823873057e+00 4.6460310991e+00 
34800 5.0124582614e+00 -2.3264292931e-02 2.6828228059e+00 -4.6467854074e+00 2.6828228059e+00 4.6467854074e+00 
34900 5.0124481963e+00 -2.3166089524e-02 2.6832563962e+00 -4.6475364079e+00 2.6832563962e+00 4.6475364079e+00 
35000 5.0124382236e+00 -2.3068355045e-02 2.6836880864e+00 -4.6482841173e+00 2.6836880864e+00 4.6482841173e+00 
35100 5.0124283422e+00 -2.2971087499e-02 2.6841178862e+00 -4.6490285523e+00 2.6841178862e+00 4.6490285523e+00 
35200 5.0124185508e+00 -2.2874284890e-02 2.6845458051e+00 -4.6497697297e+00 2.6845458051e+00 4.6497697297e+00 
35300 5.0124088483e+00 -2.2777945221e-02 2.6849718528e+00 -4.6505076659e+00 2.6849718528e+00 4.6505076659e+00 
35400 5.0123992336e+00 -2.2682066494e-02 2.6853960387e+00 -4.6512423774e+00 2.6853960387e+00 4.6512423774e+00 
35500 5.0123897055e+00 -2.2586646712e-02 2.6858183723e+00 -4.6519738807e+00 2.6858183723e+00 4.6519738807e+00 
35600 5.0123802630e+00 -2.2491683876e-02 2.6862388631e+00 -4.6527021921e+00 2.6862388631e+00 4.6527021921e+00 
35700 5.0123709050e+00 -2.2397175987e-02 2.6866575203e+00 -4.6534273277e+00 2.6866575203e+00 4.6534273277e+00 
35800 5.0123616303e+00 -2.2303121048e-02 2.6870743534e+00 -4.6541493038e+00 2.6870743534e+00 4.6541493038e+00 
35900 5.0123524381e+00 -2.2209517060e-02 2.6874893716e+00 -4.6548681364e+00 2.6874893716e+00 4.6548681364e+00 
36000 5.0123433272e+00 -2.2116362025e-02 2.6879025841e+00 -4.6555838415e+00 2.6879025841e+00 4.6555838415e+00 
36100 5.0123342966e+00 -2.2023653945e-02 2.6883140002e+00 -4.6562964351e+00 2.6883140002e+00 4.6562964351e+00 
36200 5.0123253454e+00 -2.1931390822e-02 2.6887236289e+00 -4.6570059328e+00 2.6887236289e+00 4.6570059328e+00 
36300 5.0123164726e+00 -2.1839570659e-02 2.6891314794e+00 -4.6577123506e+00 2.6891314794e+00 4.6577123506e+00 
36400 5.0123076772e+00 -2.1748191461e-02 2.6895375607e+00 -4.6584157041e+00 2.6895375607e+00 4.6584157041e+00 
36500 5.0122989583e+00 -2.1657251231e-02 2.6899418819e+00 -4.6591160088e+00 2.6899418819e+00 4.6591160088e+00 
36600 5.0122903150e+00 -2.1566747975e-02 2.6903444517e+00 -4.6598132803e+00 2.6903444517e+00 4.6598132803e+00 
36700 5.0122817464e+00 -2.1476679699e-02 2.6907452793e+00 -4.6605075339e+00 2.6907452793e+00 4.6605075339e+00 
36800 5.0122732515e+00 -2.1387044412e-02 2.6911443734e+00 -4.6611987852e+00 2.6911443734e+00 4.6611987852e+00 
36900 5.0122648296e+00 -2.1297840121e-02 2.6915417428e+00 -4.6618870492e+00 2.6915417428e+00 4.6618870492e+00 
37000 5.0122564797e+00 -2.1209064837e-02 2.6919373964e+00 -4.6625723413e+00 2.6919373964e+00 4.6625723413e+00 
37100 5.0122482010e+00 -2.1120716573e-02 2.6923313428e+00 -4.6632546765e+00 2.6923313428e+00 4.6632546765e+00 
37200 5.0122399927e+00 -2.1032793340e-02 2.6927235907e+00 -4.6639340699e+00 2.6927235907e+00 4.6639340699e+00 
37300 5.0122318539e+00 -2.0945293156e-02 2.6931141489e+00 -4.6646105364e+00 2.6931141489e+00 4.6646105364e+00 
37400 5.0122237839e+00 -2.0858214035e-02 2.6935030258e+00 -4.6652840910e+00 2.6935030258e+00 4.6652840910e+00 
37500 5.0122157818e+00 -2.0771553998e-02 2.6938902300e+00 -4.6659547483e+00 2.6938902300e+00 4.6659547483e+00 
37600 5.0122078470e+00 -2.0685311065e-02 2.6942757700e+00 -4.6666225232e+00 2.6942757700e+00 4.6666225232e+00 
37700 5.0121999785e+00 -2.0599483260e-02 2.6946596543e+00 -4.6672874303e+00 2.6946596543e+00 4.6672874303e+00 
37800 5.0121921757e+00 -2.0514068608e-02 2.6950418912e+00 -4.6679494841e+00 2.6950418912e+00 4.6679494841e+00 
37900 5.0121844379e+00 -2.0429065137e-02 2.6954224892e+00 -4.6686086992e+00 2.6954224892e+00 4.6686086992e+00 
38000 5.0121767642e+00 -2.0344470878e-02 2.6958014566e+00 -4.6692650899e+00 2.6958014566e+00 4.6692650899e+00 
38100 5.0121691540e+00 -2.0260283864e-02 2.6961788016e+00 -4.6699186707e+00 2.6961788016e+00 4.6699186707e+00 
38200 5.0121616066e+00 -2.0176502132e-02 2.6965545325e+00 -4.6705694557e+00 2.6965545325e+00 4.6705694557e+00 
38300 5.0121541212e+00 -2.0093123719e-02 2.6969286575e+00 -4.6712174592e+00 2.6969286575e+00 4.6712174592e+00 
38400 5.0121466973e+00 -2.0010146669e-02 2.6973011847e+00 -4.6718626953e+00 2.6973011847e+00 4.6718626953e+00 
38500 5.0121393341e+00 -1.9927569026e-02 2.6976721223e+00 -4.6725051779e+00 2.6976721223e+00 4.6725051779e+00 
38600 5.0121320309e+00 -1.9845388838e-02 2.6980414782e+00 -4.6731449212e+00 2.6980414782e+00 4.6731449212e+00 
38700 5.0121247872e+00 -1.9763604158e-02 2.6984092605e+00 -4.6737819388e+00 2.6984092605e+00 4.6737819388e+00 
38800 5.0121176022e+00 -1.9682213040e-02 2.6987754772e+00 -4.6744162448e+00 2.6987754772e+00 4.6744162448e+00 
38900 5.0121104754e+00 -1.9601213543e-02 2.6991401362e+00 -4.6750478527e+00 2.6991401362e+00 4.6750478527e+00 
39000 5.0121034061e+00 -1.9520603730e-02 2.6995032455e+00 -4.6756767763e+00 2.6995032455e+00 4.6756767763e+00 
39100 5.0120963936e+00 -1.9440381666e-02 2.6998648127e+00 -4.6763030292e+00 2.6998648127e+00 4.6763030292e+00 
39200 5.0120894375e+00 -1.9360545422e-02 2.7002248458e+00 -4.6769266248e+00 2.7002248458e+00 4.6769266248e+00 
39300 5.0120825371e+00 -1.9281093072e-02 2.7005833525e+00 -4.6775475766e+00 2.7005833525e+00 4.6775475766e+00 
39400 5.0120756919e+00 -1.9202022694e-02 2.7009403405e+00 -4.6781658980e+00 2.7009403405e+00 4.6781658980e+00 
39500 5.0120689011e+00 -1.9123332371e-02 2.7012958175e+00 -4.6787816022e+00 2.7012958175e+00 4.6787816022e+00 
39600 5.0120621644e+00 -1.9045020189e-02 2.7016497912e+00 -4.6793947025e+00 2.7016497912e+00 4.6793947025e+00 
39700 5.0120554811e+00 -1.8967084239e-02 2.7020022690e+00 -4.6800052121e+00 2.7020022690e+00 4.6800052121e+00 
39800 5.0120488507e+00 -1.8889522617e-02 2.7023532586e+00 -4.6806131439e+00 2.7023532586e+00 4.6806131439e+00 
39900 5.0120422726e+00 -1.8812333424e-02 2.7027027675e+00 -4.6812185111e+00 2.7027027675e+00 4.6812185111e+00 
40000 5.0120357462e+00 -1.8735514764e-02 2.7030508031e+00 -4.6818213265e+00 2.7030508031e+00 4.6818213265e+00 
40100 5.0120292712e+00 -1.8659064747e-02 2.7033973729e+00 -4.6824216030e+00 2.7033973729e+00 4.6824216030e+00 
40200 5.0120228469e+00 -1.8582981488e-02 2.7037424843e+00 -4.6830193533e+00 2.7037424843e+00 4.6830193533e+00 
40300 5.0120164729e+00 -1.8507263107e-02 2.7040861445e+00 -4.6836145903e+00 2.7040861445e+00 4.6836145903e+00 
40400 5.0120101486e+00 -1.8431907728e-02 2.7044283609e+00 -4.6842073265e+00 2.7044283609e+00 4.6842073265e+00 
40500 5.0120038735e+00 -1.8356913481e-02 2.7047691408e+00 -4.6847975746e+00 2.7047691408e+00 4.6847975746e+00 
40600 5.0119976472e+00 -1.8282278502e-02 2.7051084913e+00 -4.6853853470e+00 2.7051084913e+00 4.6853853470e+00 
40700 5.0119914692e+00 -1.8208000932e-02 2.7054464197e+00 -4.6859706561e+00 2.7054464197e+00 4.6859706561e+00 
40800 5.0119853390e+00 -1.8134078915e-02 2.7057829331e+00 -4.6865535144e+00 2.7057829331e+00 4.6865535144e+00 
40900 5.0119792560e+00 -1.8060510606e-02 2.7061180386e+00 -4.6871339341e+00 2.7061180386e+00 4.6871339341e+00 
41000 5.0119732200e+00 -1.7987294159e-02 2.7064517432e+00 -4.6877119274e+00 2.7064517432e+00 4.6877119274e+00 
41100 5.0119672304e+00 -1.7914427739e-02 2.7067840540e+00 -4.6882875066e+00 2.7067840540e+00 4.6882875066e+00 
41200 5.0119612867e+00 -1.7841909514e-02 2.7071149779e+00 -4.6888606837e+00 2.7071149779e+00 4.6888606837e+00 
41300 5.0119553885e+00 -1.7769737659e-02 2.7074445219e+00 -4.6894314707e+00 2.7074445219e+00 4.6894314707e+00 
41400 5.0119495354e+00 -1.7697910354e-02 2.7077726930e+00 -4.6899998795e+00 2.7077726930e+00 4.6899998795e+00 
41500 5.0119437270e+00 -1.7626425787e-02 2.7080994978e+00 -4.6905659222e+00 2.7080994978e+00 4.6905659222e+00 
41600 5.0119379628e+00 -1.7555282149e-02 2.7084249434e+00 -4.6911296104e+00 2.7084249434e+00 4.6911296104e+00 
41700 5.0119322423e+00 -1.7484477640e-02 2.7087490364e+00 -4.6916909560e+00 2.7087490364e+00 4.6916909560e+00 
41800 5.0119265653e+00 -1.7414010464e-02 2.7090717836e+00 -4.6922499706e+00 2.7090717836e+00 4.6922499706e+00 
41900 5.0119209313e+00 -1.7343878834e-02 2.7093931918e+00 -4.6928066658e+00 2.7093931918e+00 4.6928066658e+00 
42000 5.0119153398e+00 -1.7274080966e-02 2.7097132675e+00 -4.6933610533e+00 2.7097132675e+00 4.6933610533e+00 
42100 5.0119097905e+00 -1.7204615086e-02 2.7100320175e+00 -4.6939131444e+00 2.7100320175e+00 4.6939131444e+00 
42200 5.0119042830e+00 -1.7135479424e-02 2.7103494482e+00 -4.6944629506e+00 2.7103494482e+00 4.6944629506e+00 
42300 5.0118988169e+00 -1.7066672218e-02 2.7106655664e+00 -4.6950104833e+00 2.7106655664e+00 4.6950104833e+00 
42400 5.0118933918e+00 -1.6998191711e-02 2.7109803784e+00 -4.6955557537e+00 2.7109803784e+00 4.6955557537e+00 
42500 5.0118880073e+00 -1.6930036153e-02 2.7112938908e+00 -4.6960987731e+00 2.7112938908e+00 4.6960987731e+00 
42600 5.0118826632e+00 -1.6862203804e-02 2.7116061100e+00 -4.6966395526e+00 2.7116061100e+00 4.6966395526e+00 
42700 5.0118773589e+00 -1.6794692926e-02 2.7119170424e+00 -4.6971781034e+00 2.7119170424e+00 4.6971781034e+00 
42800 5.0118720941e+00 -1.6727501791e-02 2.7122266945e+00 -4.6977144365e+00 2.7122266945e+00 4.6977144365e+00 
42900 5.0118668686e+00 -1.6660628677e-02 2.7125350724e+00 -4.6982485628e+00 2.7125350724e+00 4.6982485628e+00 
43000 5.0118616818e+00 -1.6594071869e-02 2.7128421826e+00 -4.6987804932e+00 2.7128421826e+00 4.6987804932e+00 
43100 5.0118565336e+00 -1.6527829659e-02 2.7131480313e+00 -4.6993102387e+00 2.7131480313e+00 4.6993102387e+00 
43200 5.0118514234e+00 -1.6461900346e-02 2.7134526247e+00 -4.6998378099e+00 2.7134526247e+00 4.6998378099e+00 
43300 5.0118463511e+00 -1.6396282237e-02 2.7137559690e+00 -4.7003632176e+00 2.7137559690e+00 4.7003632176e+00 
43400 5.0118413162e+00 -1.6330973644e-02 2.7140580703e+00 -4.7008864725e+00 2.7140580703e+00 4.7008864725e+00 
43500 5.0118363184e+00 -1.6265972888e-02 2.7143589348e+00 -4.7014075851e+00 2.7143589348e+00 4.7014075851e+00 
43600 5.0118313575e+00 -1.6201278297e-02 2.7146585686e+00 -4.7019265660e+00 2.7146585686e+00 4.7019265660e+00 
43700 5.0118264330e+00 -1.6136888207e-02 2.7149569777e+00 -4.7024434257e+00 2.7149569777e+00 4.7024434257e+00 
43800 5.0118215446e+00 -1.6072800959e-02 2.7152541681e+00 -4.7029581746e+00 2.7152541681e+00 4.7029581746e+00 
43900 5.0118166921e+00 -1.6009014903e-02 2.7155501458e+00 -4.7034708229e+00 2.7155501458e+00 4.7034708229e+00 
44000 5.0118118751e+00 -1.5945528397e-02 2.7158449167e+00 -4.7039813812e+00 2.7158449167e+00 4.7039813812e+00 
44100 5.0118070933e+00 -1.5882339805e-02 2.7161384867e+00 -4.7044898594e+00 2.7161384867e+00 4.7044898594e+00 
44200 5.0118023464e+00 -1.5819447498e-02 2.7164308618e+00 -4.7049962680e+00 2.7164308618e+00 4.7049962680e+00 
44300 5.0117976342e+00 -1.5756849858e-02 2.7167220478e+00 -4.7055006168e+00 2.7167220478e+00 4.7055006168e+00 
44400 5.0117929562e+00 -1.5694545270e-02 2.7170120504e+00 -4.7060029161e+00 2.7170120504e+00 4.7060029161e+00 
44500 5.0117883123e+00 -1.5632532130e-02 2.7173008755e+00 -4.7065031758e+00 2.7173008755e+00 4.7065031758e+00 
44600 5.0117837021e+00 -1.5570808839e-02 2.7175885287e+00 -4.7070014058e+00 2.7175885287e+00 4.7070014058e+00 
44700 5.0117791253e+00 -1.5509373807e-02 2.7178750158e+00 -4.7074976160e+00 2.7178750158e+00 4.7074976160e+00 
44800 5.0117745816e+00 -1.5448225452e-02 2.7181603425e+00 -4.7079918163e+00 2.7181603425e+00 4.7079918163e+00 
44900 5.0117700709e+00 -1.5387362198e-02 2.7184445144e+00 -4.7084840165e+00 2.7184445144e+00 4.7084840165e+00 
45000 5.0117655927e+00 -1.5326782478e-02 2.7187275371e+00 -4.7089742261e+00 2.7187275371e+00 4.7089742261e+00 
45100 5.0117611469e+00 -1.5266484733e-02 2.7190094161e+00 -4.7094624550e+00 2.7190094161e+00 4.7094624550e+00 
45200 5.0117567331e+00 -1.5206467411e-02 2.7192901571e+00 -4.7099487126e+00 2.7192901571e+00 4.7099487126e+00 
45300 5.0117523510e+00 -1.5146728967e-02 2.7195697655e+00 -4.7104330086e+00 2.7195697655e+00 4.7104330086e+00 
45400 5.0117480005e+00 -1.5087267865e-02 2.7198482468e+00 -4.7109153524e+00 2.7198482468e+00 4.7109153524e+00 
45500 5.0117436813e+00 -1.5028082575e-02 2.7201256065e+00 -4.7113957534e+00 2.7201256065e+00 4.7113957534e+00 
45600 5.0117393930e+00 -1.4969171578e-02 2.7204018499e+00 -4.7118742211e+00 2.7204018499e+00 4.7118742211e+00 
45700 5.0117351355e+00 -1.4910533359e-02 2.7206769825e+00 -4.7123507647e+00 2.7206769825e+00 4.7123507647e+00 
45800 5.0117309085e+00 -1.4852166413e-02 2.7209510096e+00 -4.7128253936e+00 2.7209510096e+00 4.7128253936e+00 
45900 5.0117267116e+00 -1.4794069243e-02 2.7212239365e+00 -4.7132981168e+00 2.7212239365e+00 4.7132981168e+00 
46000 5.0117225448e+00 -1.4736240357e-02 2.7214957685e+00 -4.7137689437e+00 2.7214957685e+00 4.7137689437e+00 
46100 5.0117184077e+00 -1.4678678275e-02 2.7217665109e+00 -4.7142378832e+00 2.7217665109e+00 4.7142378832e+00 
46200 5.0117143001e+00 -1.4621381521e-02 2.7220361689e+00 -4.7147049445e+00 2.7220361689e+00 4.7147049445e+00 
46300 5.0117102218e+00 -1.4564348630e-02 2.7223047476e+00 -4.7151701366e+00 2.7223047476e+00 4.7151701366e+00 
46400 5.0117061725e+00 -1.4507578141e-02 2.7225722524e+00 -4.7156334684e+00 2.7225722524e+00 4.7156334684e+00 
46500 5.0117021519e+00 -1.4451068605e-02 2.7228386882e+00 -4.7160949487e+00 2.7228386882e+00 4.7160949487e+00 
46600 5.0116981600e+00 -1.4394818577e-02 2.7231040602e+00 -4.7165545865e+00 2.7231040602e+00 4.7165545865e+00 
46700 5.0116941963e+00 -1.4338826622e-02 2.7233683734e+00 -4.7170123905e+00 2.7233683734e+00 4.7170123905e+00 
46800 5.0116902607e+00 -1.4283091314e-02 2.7236316331e+00 -4.7174683695e+00 2.7236316331e+00 4.7174683695e+00 
46900 5.0116863530e+00 -1.4227611231e-02 2.7238938440e+00 -4.7179225322e+00 2.7238938440e+00 4.7179225322e+00 
47000 5.0116824730e+00 -1.4172384961e-02 2.7241550113e+00 -4.7183748872e+00 2.7241550113e+00 4.7183748872e+00 
47100 5.0116786203e+00 -1.4117411101e-02 2.7244151398e+00 -4.7188254431e+00 2.7244151398e+00 4.7188254431e+00 
47200 5.0116747949e+00 -1.4062688254e-02 2.7246742346e+00 -4.7192742084e+00 2.7246742346e+00 4.7192742084e+00 
47300 5.0116709964e+00 -1.4008215030e-02 2.7249323005e+00 -4.7197211917e+00 2.7249323005e+00 4.7197211917e+00 
47400 5.0116672248e+00 -1.3953990049e-02 2.7251893424e+00 -4.7201664013e+00 2.7251893424e+00 4.7201664013e+00 
47500 5.0116634797e+00 -1.3900011938e-02 2.7254453651e+00 -4.7206098457e+00 2.7254453651e+00 4.7206098457e+00 
47600 5.0116597609e+00 -1.3846279330e-02 2.7257003735e+00 -4.7210515332e+00 2.7257003735e+00 4.7210515332e+00 
47700 5.0116560683e+00 -1.3792790868e-02 2.7259543724e+00 -4.7214914721e+00 2.7259543724e+00 4.7214914721e+00 
47800 5.0116524017e+00 -1.3739545202e-02 2.7262073664e+00 -4.7219296706e+00 2.7262073664e+00 4.7219296706e+00 
47900 5.0116487608e+00 -1.3686540989e-02 2.7264593604e+00 -4.7223661370e+00 2.7264593604e+00 4.7223661370e+00 
48000 5.0116451454e+00 -1.3633776894e-02 2.7267103590e+00 -4.7228008793e+00 2.7267103590e+00 4.7228008793e+00 
48100 5.0116415553e+00 -1.3581251591e-02 2.7269603670e+00 -4.7232339058e+00 2.7269603670e+00 4.7232339058e+00 
48200 5.0116379904e+00 -1.3528963759e-02 2.7272093889e+00 -4.7236652244e+00 2.7272093889e+00 4.7236652244e+00 
48300 5.0116344505e+00 -1.3476912086e-02 2.7274574294e+00 -4.7240948432e+00 2.7274574294e+00 4.7240948432e+00 
48400 5.0116309353e+00 -1.3425095270e-02 2.7277044931e+00 -4.7245227701e+00 2.7277044931e+00 4.7245227701e+00 
48500 5.0116274446e+00 -1.3373512012e-02 2.7279505846e+00 -4.7249490131e+00 2.7279505846e+00 4.7249490131e+00 
48600 5.0116239784e+00 -1.3322161023e-02 2.7281957084e+00 -4.7253735800e+00 2.7281957084e+00 4.7253735800e+00 
48700 5.0116205363e+00 -1.3271041023e-02 2.7284398690e+00 -4.7257964786e+00 2.7284398690e+00 4.7257964786e+00 
48800 5.0116171182e+00 -1.3220150736e-02 2.7286830710e+00 -4.7262177167e+00 2.7286830710e+00 4.7262177167e+00 
48900 5.0116137239e+00 -1.3169488897e-02 2.7289253187e+00 -4.7266373021e+00 2.7289253187e+00 4.7266373021e+00 
49000 5.0116103533e+00 -1.3119054247e-02 2.7291666167e+00 -4.7270552425e+00 2.7291666167e+00 4.7270552425e+00 
49100 5.0116070061e+00 -1.3068845533e-02 2.7294069693e+00 -4.7274715454e+00 2.7294069693e+00 4.7274715454e+00 
49200 5.0116036822e+00 -1.3018861512e-02 2.7296463810e+00 -4.7278862185e+00 2.7296463810e+00 4.7278862185e+00 
49300 5.0116003814e+00 -1.2969100947e-02 2.7298848560e+00 -4.7282992694e+00 2.7298848560e+00 4.7282992694e+00 
49400 5.0115971035e+00 -1.2919562609e-02 2.7301223988e+00 -4.7287107056e+00 2.7301223988e+00 4.7287107056e+00 
49500 5.0115938483e+00 -1.2870245276e-02 2.7303590136e+00 -4.7291205345e+00 2.7303590136e+00 4.7291205345e+00 
49600 5.0115906158e+00 -1.2821147733e-02 2.7305947048e+00 -4.7295287636e+00 2.7305947048e+00 4.7295287636e+00 
49700 5.0115874056e+00 -1.2772268773e-02 2.7308294766e+00 -4.7299354003e+00 2.7308294766e+00 4.7299354003e+00 
49800 5.0115842176e+00 -1.2723607196e-02 2.7310633332e+00 -4.7303404518e+00 2.7310633332e+00 4.7303404518e+00 
49900 5.0115810518e+00 -1.2675161810e-02 2.7312962789e+00 -4.7307439256e+00 2.7312962789e+00 4.7307439256e+00 
50000 5.0115779078e+00 -1.2626931429e-02 2.7315283178e+00 -4.7311458288e+00 2.7315283178e+00 4.7311458288e+00 
50100 5.0115747856e+00 -1.2578914874e-02 2.7317594542e+00 -4.7315461687e+00 2.7317594542e+00 4.7315461687e+00 
50200 5.0115716849e+00 -1.2531110975e-02 2.7319896921e+00 -4.7319449524e+00 2.7319896921e+00 4.7319449524e+00 
50300 5.0115686056e+00 -1.2483518569e-02 2.7322190357e+00 -4.7323421872e+00 2.7322190357e+00 4.7323421872e+00 
50400 5.0115655476e+00 -1.2436136497e-02 2.7324474890e+00 -4.7327378800e+00 2.7324474890e+00 4.7327378800e+00 
50500 5.0115625107e+00 -1.2388963611e-02 2.7326750562e+00 -4.7331320380e+00 2.7326750562e+00 4.7331320380e+00 
50600 5.0115594948e+00 -1.2341998768e-02 2.7329017413e+00 -4.7335246681e+00 2.7329017413e+00 4.7335246681e+00 
50700 5.0115564996e+00 -1.2295240833e-02 2.7331275484e+00 -4.7339157774e+00 2.7331275484e+00 4.7339157774e+00 
50800 5.0115535250e+00 -1.2248688677e-02 2.7333524813e+00 -4.7343053727e+00 2.7333524813e+00 4.7343053727e+00 
50900 5.0115505709e+00 -1.2202341178e-02 2.7335765442e+00 -4.7346934610e+00 2.7335765442e+00 4.7346934610e+00 
51000 5.0115476372e+00 -1.2156197222e-02 2.7337997409e+00 -4.7350800490e+00 2.7337997409e+00 4.7350800490e+00 
51100 5.0115447236e+00 -1.2110255702e-02 2.7340220755e+00 -4.7354651438e+00 2.7340220755e+00 4.7354651438e+00 
51200 5.0115418300e+00 -1.2064515517e-02 2.7342435517e+00 -4.7358487519e+00 2.7342435517e+00 4.7358487519e+00 
51300 5.0115389563e+00 -1.2018975572e-02 2.7344641736e+00 -4.7362308801e+00 2.7344641736e+00 4.7362308801e+00 
51400 5.0115361024e+00 -1.1973634781e-02 2.7346839449e+00 -4.7366115352e+00 2.7346839449e+00 4.7366115352e+00 
51500 5.0115332680e+00 -1.1928492064e-02 2.7349028696e+00 -4.7369907239e+00 2.7349028696e+00 4.7369907239e+00 
51600 5.0115304530e+00 -1.1883546347e-02 2.7351209514e+00 -4.7373684526e+00 2.7351209514e+00 4.7373684526e+00 
51700 5.0115276574e+00 -1.1838796563e-02 2.7353381941e+00 -4.7377447281e+00 2.7353381941e+00 4.7377447281e+00 
51800 5.0115248809e+00 -1.1794241652e-02 2.7355546016e+00 -4.7381195568e+00 2.7355546016e+00 4.7381195568e+00 
51900 5.0115221234e+00 -1.1749880561e-02 2.7357701776e+00 -4.7384929454e+00 2.7357701776e+00 4.7384929454e+00 
52000 5.0115193849e+00 -1.1705712244e-02 2.7359849258e+00 -4.7388649001e+00 2.7359849258e+00 4.7388649001e+00 
52100 5.0115166650e+00 -1.1661735659e-02 2.7361988499e+00 -4.7392354276e+00 2.7361988499e+00 4.7392354276e+00 
52200 5.0115139638e+00 -1.1617949774e-02 2.7364119537e+00 -4.7396045342e+00 2.7364119537e+00 4.7396045342e+00 
52300 5.0115112810e+00 -1.1574353561e-02 2.7366242408e+00 -4.7399722263e+00 2.7366242408e+00 4.7399722263e+00 
52400 5.0115086166e+00 -1.1530945999e-02 2.7368357149e+00 -4.7403385102e+00 2.7368357149e+00 4.7403385102e+00 
52500 5.0115059703e+00 -1.1487726076e-02 2.7370463796e+00 -4.7407033921e+00 2.7370463796e+00 4.7407033921e+00 
52600 5.0115033422e+00 -1.1444692782e-02 2.7372562385e+00 -4.7410668785e+00 2.7372562385e+00 4.7410668785e+00 
52700 5.0115007320e+00 -1.1401845117e-02 2.7374652953e+00 -4.7414289754e+00 2.7374652953e+00 4.7414289754e+00 
52800 5.0114981395e+00 -1.1359182085e-02 2.7376735535e+00 -4.7417896891e+00 2.7376735535e+00 4.7417896891e+00 
52900 5.0114955648e+00 -1.1316702699e-02 2.7378810166e+00 -4.7421490258e+00 2.7378810166e+00 4.7421490258e+00 
53000 5.0114930076e+00 -1.1274405975e-02 2.7380876882e+00 -4.7425069915e+00 2.7380876882e+00 4.7425069915e+00 
53100 5.0114904679e+00 -1.1232290938e-02 2.7382935718e+00 -4.7428635924e+00 2.7382935718e+00 4.7428635924e+00 
53200 5.0114879455e+00 -1.1190356618e-02 2.7384986709e+00 -4.7432188344e+00 2.7384986709e+00 4.7432188344e+00 
53300 5.0114854402e+00 -1.1148602051e-02 2.7387029890e+00 -4.7435727237e+00 2.7387029890e+00 4.7435727237e+00 
53400 5.0114829520e+00 -1.1107026280e-02 2.7389065295e+00 -4.7439252662e+00 2.7389065295e+00 4.7439252662e+00 
53500 5.0114804807e+00 -1.1065628353e-02 2.7391092959e+00 -4.7442764679e+00 2.7391092959e+00 4.7442764679e+00 
53600 5.0114780262e+00 -1.1024407324e-02 2.7393112915e+00 -4.7446263347e+00 2.7393112915e+00 4.7446263347e+00 
53700 5.0114755885e+00 -1.0983362256e-02 2.7395125199e+00 -4.7449748724e+00 2.7395125199e+00 4.7449748724e+00 
53800 5.0114731673e+00 -1.0942492214e-02 2.7397129843e+00 -4.7453220870e+00 2.7397129843e+00 4.7453220870e+00 
53900 5.0114707625e+00 -1.0901796271e-02 2.7399126882e+00 -4.7456679842e+00 2.7399126882e+00 4.7456679842e+00 
54000 5.0114683741e+00 -1.0861273505e-02 2.7401116348e+00 -4.7460125699e+00 2.7401116348e+00 4.7460125699e+00 
54100 5.0114660019e+00 -1.0820923002e-02 2.7403098275e+00 -4.7463558498e+00 2.7403098275e+00 4.7463558498e+00 
54200 5.0114636458e+00 -1.0780743852e-02 2.7405072697e+00 -4.7466978296e+00 2.7405072697e+00 4.7466978296e+00 
54300 5.0114613057e+00 -1.0740735150e-02 2.7407039645e+00 -4.7470385151e+00 2.7407039645e+00 4.7470385151e+00 
54400 5.0114589815e+00 -1.0700896000e-02 2.7408999153e+00 -4.7473779118e+00 2.7408999153e+00 4.7473779118e+00 
54500 5.0114566731e+00 -1.0661225508e-02 2.7410951254e+00 -4.7477160255e+00 2.7410951254e+00 4.7477160255e+00 
54600 5.0114543803e+00 -1.0621722788e-02 2.7412895978e+00 -4.7480528617e+00 2.7412895978e+00 4.7480528617e+00 
54700 5.0114521030e+00 -1.0582386960e-02 2.7414833360e+00 -4.7483884261e+00 2.7414833360e+00 4.7483884261e+00 
54800 5.0114498412e+00 -1.0543217148e-02 2.7416763430e+00 -4.7487227240e+00 2.7416763430e+00 4.7487227240e+00 
54900 5.0114475947e+00 -1.0504212483e-02 2.7418686221e+00 -4.7490557612e+00 2.7418686221e+00 4.7490557612e+00 
55000 5.0114453634e+00 -1.0465372101e-02 2.7420601764e+00 -4.7493875430e+00 2.7420601764e+00 4.7493875430e+00 
55100 5.0114431472e+00 -1.0426695143e-02 2.7422510091e+00 -4.7497180749e+00 2.7422510091e+00 4.7497180749e+00 
55200 5.0114409460e+00 -1.0388180757e-02 2.7424411233e+00 -4.7500473623e+00 2.7424411233e+00 4.7500473623e+00 
55300 5.0114387597e+00 -1.0349828096e-02 2.7426305221e+00 -4.7503754106e+00 2.7426305221e+00 4.7503754106e+00 
55400 5.0114365882e+00 -1.0311636316e-02 2.7428192085e+00 -4.7507022252e+00 2.7428192085e+00 4.7507022252e+00 
55500 5.0114344314e+00 -1.0273604582e-02 2.7430071858e+00 -4.7510278114e+00 2.7430071858e+00 4.7510278114e+00 
55600 5.0114322892e+00 -1.0235732063e-02 2.7431944570e+00 -4.7513521745e+00 2.7431944570e+00 4.7513521745e+00 
55700 5.0114301615e+00 -1.0198017933e-02 2.7433810250e+00 -4.7516753198e+00 2.7433810250e+00 4.7516753198e+00 
55800 5.0114280481e+00 -1.0160461371e-02 2.7435668930e+00 -4.7519972526e+00 2.7435668930e+00 4.7519972526e+00 
55900 5.0114259490e+00 -1.0123061562e-02 2.7437520639e+00 -4.7523179780e+00 2.7437520639e+00 4.7523179780e+00 
56000 5.0114238641e+00 -1.0085817696e-02 2.7439365407e+00 -4.7526375013e+00 2.7439365407e+00 4.7526375013e+00 
56100 5.0114217932e+00 -1.0048728969e-02 2.7441203265e+00 -4.7529558276e+00 2.7441203265e+00 4.7529558276e+00 
56200 5.0114197364e+00 -1.0011794580e-02 2.7443034242e+00 -4.7532729621e+00 2.7443034242e+00 4.7532729621e+00 
56300 5.0114176934e+00 -9.9750137349e-03 2.7444858367e+00 -4.7535889098e+00 2.7444858367e+00 4.7535889098e+00 
56400 5.0114156642e+00 -9.9383856448e-03 2.7446675670e+00 -4.7539036759e+00 2.7446675670e+00 4.7539036759e+00 
56500 5.0114136487e+00 -9.9019095251e-03 2.7448486180e+00 -4.7542172654e+00 2.7448486180e+00 4.7542172654e+00 
56600 5.0114116468e+00 -9.8655845966e-03 2.7450289925e+00 -4.7545296833e+00 2.7450289925e+00 4.7545296833e+00 
56700 5.0114096584e+00 -9.8294100849e-03 2.7452086936e+00 -4.7548409347e+00 2.7452086936e+00 4.7548409347e+00 
56800 5.0114076834e+00 -9.7933852207e-03 2.7453877240e+00 -4.7551510244e+00 2.7453877240e+00 4.7551510244e+00 
56900 5.0114057217e+00 -9.7575092395e-03 2.7455660866e+00 -4.7554599576e+00 2.7455660866e+00 4.7554599576e+00 
57000 5.0114037733e+00 -9.7217813820e-03 2.7457437843e+00 -4.7557677390e+00 2.7457437843e+00 4.7557677390e+00 
57100 5.0114018379e+00 -9.6862008934e-03 2.7459208199e+00 -4.7560743736e+00 2.7459208199e+00 4.7560743736e+00 
57200 5.0113999156e+00 -9.6507670239e-03 2.7460971961e+00 -4.7563798662e+00 2.7460971961e+00 4.7563798662e+00 
57300 5.0113980063e+00 -9.6154790286e-03 2.7462729159e+00 -4.7566842217e+00 2.7462729159e+00 4.7566842217e+00 
57400 5.0113961098e+00 -9.5803361672e-03 2.7464479819e+00 -4.7569874450e+00 2.7464479819e+00 4.7569874450e+00 
57500 5.0113942260e+00 -9.5453377042e-03 2.7466223969e+00 -4.7572895407e+00 2.7466223969e+00 4.7572895407e+00 
57600 5.0113923550e+00 -9.5104829088e-03 2.7467961638e+00 -4.7575905137e+00 2.7467961638e+00 4.7575905137e+00 
57700 5.0113904965e+00 -9.4757710548e-03 2.7469692852e+00 -4.7578903687e+00 2.7469692852e+00 4.7578903687e+00 
57800 5.0113886505e+00 -9.4412014208e-03 2.7471417638e+00 -4.7581891105e+00 2.7471417638e+00 4.7581891105e+00 
57900 5.0113868170e+00 -9.4067732899e-03 2.7473136024e+00 -4.7584867437e+00 2.7473136024e+00 4.7584867437e+00 
58000 5.0113849957e+00 -9.3724859496e-03 2.7474848037e+00 -4.7587832730e+00 2.7474848037e+00 4.7587832730e+00 
58100 5.0113831868e+00 -9.3383386924e-03 2.7476553703e+00 -4.7590787030e+00 2.7476553703e+00 4.7590787030e+00 
58200 5.0113813900e+00 -9.3043308148e-03 2.7478253049e+00 -4.7593730384e+00 2.7478253049e+00 4.7593730384e+00 
58300 5.0113796052e+00 -9.2704616181e-03 2.7479946101e+00 -4.7596662837e+00 2.7479946101e+00 4.7596662837e+00 
58400 5.0113778325e+00 -9.2367304079e-03 2.7481632887e+00 -4.7599584436e+00 2.7481632887e+00 4.7599584436e+00 
58500 5.0113760716e+00 -9.2031364943e-03 2.7483313432e+00 -4.7602495225e+00 2.7483313432e+00 4.7602495225e+00 
58600 5.0113743226e+00 -9.1696791917e-03 2.7484987763e+00 -4.7605395251e+00 2.7484987763e+00 4.7605395251e+00 
58700 5.0113725854e+00 -9.1363578190e-03 2.7486655905e+00 -4.7608284557e+00 2.7486655905e+00 4.7608284557e+00 
58800 5.0113708598e+00 -9.1031716992e-03 2.7488317884e+00 -4.7611163189e+00 2.7488317884e+00 4.7611163189e+00 
58900 5.0113691458e+00 -9.0701201598e-03 2.7489973726e+00 -4.7614031192e+00 2.7489973726e+00 4.7614031192e+00 
59000 5.0113674433e+00 -9.0372025325e-03 2.7491623457e+00 -4.7616888610e+00 2.7491623457e+00 4.7616888610e+00 
59100 5.0113657522e+00 -9.0044181531e-03 2.7493267101e+00 -4.7619735486e+00 2.7493267101e+00 4.7619735486e+00 
59200 5.0113640725e+00 -8.9717663617e-03 2.7494904686e+00 -4.7622571865e+00 2.7494904686e+00 4.7622571865e+00 
59300 5.0113624041e+00 -8.9392465027e-03 2.7496536234e+00 -4.7625397790e+00 2.7496536234e+00 4.7625397790e+00 
59400 5.0113607468e+00 -8.9068579244e-03 2.7498161773e+00 -4.7628213305e+00 2.7498161773e+00 4.7628213305e+00 
59500 5.0113591007e+00 -8.8745999794e-03 2.7499781325e+00 -4.7631018453e+00 2.7499781325e+00 4.7631018453e+00 
59600 5.0113574656e+00 -8.8424720243e-03 2.7501394918e+00 -4.7633813276e+00 2.7501394918e+00 4.7633813276e+00 
59700 5.0113558414e+00 -8.8104734197e-03 2.7503002574e+00 -4.7636597819e+00 2.7503002574e+00 4.7636597819e+00 
59800 5.0113542282e+00 -8.7786035304e-03 2.7504604319e+00 -4.7639372122e+00 2.7504604319e+00 4.7639372122e+00 
59900 5.0113526258e+00 -8.7468617249e-03 2.7506200177e+00 -4.7642136230e+00 2.7506200177e+00 4.7642136230e+00 
60000 5.0113510341e+00 -8.7152473760e-03 2.7507790172e+00 -4.7644890182e+00 2.7507790172e+00 4.7644890182e+00 
60100 5.0113494531e+00 -8.6837598603e-03 2.7509374329e+00 -4.7647634022e+00 2.7509374329e+00 4.7647634022e+00 
60200 5.0113478827e+00 -8.6523985581e-03 2.7510952672e+00 -4.7650367792e+00 2.7510952672e+00 4.7650367792e+00 
60300 5.0113463228e+00 -8.6211628540e-03 2.7512525224e+00 -4.7653091532e+00 2.7512525224e+00 4.7653091532e+00 
60400 5.0113447733e+00 -8.5900521361e-03 2.7514092009e+00 -4.7655805284e+00 2.7514092009e+00 4.7655805284e+00 
60500 5.0113432342e+00 -8.5590657964e-03 2.7515653052e+00 -4.7658509089e+00 2.7515653052e+00 4.7658509089e+00 
60600 5.0113417055e+00 -8.5282032309e-03 2.7517208375e+00 -4.7661202987e+00 2.7517208375e+00 4.7661202987e+00 
60700 5.0113401870e+00 -8.4974638391e-03 2.7518758002e+00 -4.7663887021e+00 2.7518758002e+00 4.7663887021e+00 
60800 5.0113386786e+00 -8.4668470244e-03 2.7520301957e+00 -4.7666561229e+00 2.7520301957e+00 4.7666561229e+00 
60900 5.0113371803e+00 -8.4363521939e-03 2.7521840262e+00 -4.7669225652e+00 2.7521840262e+00 4.7669225652e+00 
61000 5.0113356921e+00 -8.4059787583e-03 2.7523372941e+00 -4.7671880330e+00 2.7523372941e+00 4.7671880330e+00 
61100 5.0113342138e+00 -8.3757261320e-03 2.7524900017e+00 -4.7674525303e+00 2.7524900017e+00 4.7674525303e+00 
61200 5.0113327455e+00 -8.3455937332e-03 2.7526421513e+00 -4.7677160611e+00 2.7526421513e+00 4.7677160611e+00 
61300 5.0113312869e+00 -8.3155809833e-03 2.7527937451e+00 -4.7679786293e+00 2.7527937451e+00 4.7679786293e+00 
61400 5.0113298381e+00 -8.2856873078e-03 2.7529447854e+00 -4.7682402388e+00 2.7529447854e+00 4.7682402388e+00 
61500 5.0113283991e+00 -8.2559121354e-03 2.7530952745e+00 -4.7685008935e+00 2.7530952745e+00 4.7685008935e+00 
61600 5.0113269696e+00 -8.2262548984e-03 2.7532452146e+00 -4.7687605974e+00 2.7532452146e+00 4.7687605974e+00 
61700 5.0113255497e+00 -8.1967150327e-03 2.7533946079e+00 -4.7690193542e+00 2.7533946079e+00 4.7690193542e+00 
61800 5.0113241393e+00 -8.1672919776e-03 2.7535434567e+00 -4.7692771679e+00 2.7535434567e+00 4.7692771679e+00 
61900 5.0113227383e+00 -8.1379851757e-03 2.7536917632e+00 -4.7695340422e+00 2.7536917632e+00 4.7695340422e+00 
62000 5.0113213467e+00 -8.1087940734e-03 2.7538395295e+00 -4.7697899810e+00 2.7538395295e+00 4.7697899810e+00 
62100 5.0113199644e+00 -8.0797181202e-03 2.7539867579e+00 -4.7700449880e+00 2.7539867579e+00 4.7700449880e+00 
62200 5.0113185913e+00 -8.0507567690e-03 2.7541334505e+00 -4.7702990670e+00 2.7541334505e+00 4.7702990670e+00 
62300 5.0113172274e+00 -8.0219094763e-03 2.7542796095e+00 -4.7705522219e+00 2.7542796095e+00 4.7705522219e+00 
62400 5.0113158727e+00 -7.9931757015e-03 2.7544252370e+00 -4.7708044562e+00 2.7544252370e+00 4.7708044562e+00 
62500 5.0113145270e+00 -7.9645549077e-03 2.7545703353e+00 -4.7710557737e+00 2.7545703353e+00 4.7710557737e+00 
62600 5.0113131902e+00 -7.9360465612e-03 2.7547149064e+00 -4.7713061782e+00 2.7547149064e+00 4.7713061782e+00 
62700 5.0113118624e+00 -7.9076501313e-03 2.7548589524e+00 -4.7715556733e+00 2.7548589524e+00 4.7715556733e+00 
62800 5.0113105435e+00 -7.8793650907e-03 2.7550024755e+00 -4.7718042626e+00 2.7550024755e+00 4.7718042626e+00 
62900 5.0113092334e+00 -7.8511909155e-03 2.7551454778e+00 -4.7720519498e+00 2.7551454778e+00 4.7720519498e+00 
63000 5.0113079321e+00 -7.8231270847e-03 2.7552879614e+00 -4.7722987386e+00 2.7552879614e+00 4.7722987386e+00 
63100 5.0113066394e+00 -7.7951730806e-03 2.7554299283e+00 -4.7725446325e+00 2.7554299283e+00 4.7725446325e+00 
63200 5.0113053554e+00 -7.7673283885e-03 2.7555713806e+00 -4.7727896351e+00 2.7555713806e+00 4.7727896351e+00 
63300 5.0113040799e+00 -7.7395924970e-03 2.7557123204e+00 -4.7730337500e+00 2.7557123204e+00 4.7730337500e+00 
63400 5.0113028130e+00 -7.7119648977e-03 2.7558527498e+00 -4.7732769808e+00 2.7558527498e+00 4.7732769808e+00 
63500 5.0113015545e+00 -7.6844450852e-03 2.7559926707e+00 -4.7735193310e+00 2.7559926707e+00 4.7735193310e+00 
63600 5.0113003044e+00 -7.6570325572e-03 2.7561320853e+00 -4.7737608041e+00 2.7561320853e+00 4.7737608041e+00 
63700 5.0112990627e+00 -7.6297268146e-03 2.7562709955e+00 -4.7740014036e+00 2.7562709955e+00 4.7740014036e+00 
63800 5.0112978293e+00 -7.6025273609e-03 2.7564094033e+00 -4.7742411330e+00 2.7564094033e+00 4.7742411330e+00 
63900 5.0112966040e+00 -7.5754337030e-03 2.7565473108e+00 -4.7744799958e+00 2.7565473108e+00 4.7744799958e+00 
64000 5.0112953870e+00 -7.5484453504e-03 2.7566847200e+00 -4.7747179955e+00 2.7566847200e+00 4.7747179955e+00 
64100 5.0112941781e+00 -7.5215618159e-03 2.7568216328e+00 -4.7749551354e+00 2.7568216328e+00 4.7749551354e+00 
64200 5.0112929773e+00 -7.4947826148e-03 2.7569580512e+00 -4.7751914190e+00 2.7569580512e+00 4.7751914190e+00 
64300 5.0112917844e+00 -7.4681072657e-03 2.7570939772e+00 -4.7754268497e+00 2.7570939772e+00 4.7754268497e+00 
64400 5.0112905996e+00 -7.4415352898e-03 2.7572294127e+00 -4.7756614309e+00 2.7572294127e+00 4.7756614309e+00 
64500 5.0112894226e+00 -7.4150662112e-03 2.7573643596e+00 -4.7758951659e+00 2.7573643596e+00 4.7758951659e+00 
64600 5.0112882535e+00 -7.3886995569e-03 2.7574988200e+00 -4.7761280581e+00 2.7574988200e+00 4.7761280581e+00 
64700 5.0112870922e+00 -7.3624348566e-03 2.7576327958e+00 -4.7763601109e+00 2.7576327958e+00 4.7763601109e+00 
64800 5.0112859386e+00 -7.3362716429e-03 2.7577662888e+00 -4.7765913276e+00 2.7577662888e+00 4.7765913276e+00 
64900 5.0112847927e+00 -7.3102094511e-03 2.7578993010e+00 -4.7768217115e+00 2.7578993010e+00 4.7768217115e+00 
65000 5.0112836545e+00 -7.2842478192e-03 2.7580318343e+00 -4.7770512658e+00 2.7580318343e+00 4.7770512658e+00 
65100 5.0112825239e+00 -7.2583862880e-03 2.7581638905e+00 -4.7772799939e+00 2.7581638905e+00 4.7772799939e+00 
65200 5.0112814008e+00 -7.2326244011e-03 2.7582954716e+00 -4.7775078991e+00 2.7582954716e+00 4.7775078991e+00 
65300 5.0112802851e+00 -7.2069617045e-03 2.7584265794e+00 -4.7777349845e+00 2.7584265794e+00 4.7777349845e+00 
65400 5.0112791770e+00 -7.1813977472e-03 2.7585572158e+00 -4.7779612534e+00 2.7585572158e+00 4.7779612534e+00 
65500 5.0112780762e+00 -7.1559320806e-03 2.7586873827e+00 -4.7781867090e+00 2.7586873827e+00 4.7781867090e+00 
65600 5.0112769827e+00 -7.1305642588e-03 2.7588170818e+00 -4.7784113545e+00 2.7588170818e+00 4.7784113545e+00 
65700 5.0112758966e+00 -7.1052938385e-03 2.7589463151e+00 -4.7786351931e+00 2.7589463151e+00 4.7786351931e+00 
65800 5.0112748176e+00 -7.0801203791e-03 2.7590750843e+00 -4.7788582280e+00 2.7590750843e+00 4.7788582280e+00 
65900 5.0112737459e+00 -7.0550434424e-03 2.7592033914e+00 -4.7790804623e+00 2.7592033914e+00 4.7790804623e+00 
66000 5.0112726813e+00 -7.0300625928e-03 2.7593312380e+00 -4.7793018992e+00 2.7593312380e+00 4.7793018992e+00 
66100 5.0112716238e+00 -7.0051773973e-03 2.7594586261e+00 -4.7795225418e+00 2.7594586261e+00 4.7795225418e+00 
66200 5.0112705734e+00 -6.9803874254e-03 2.7595855573e+00 -4.7797423931e+00 2.7595855573e+00 4.7797423931e+00 
66300 5.0112695299e+00 -6.9556922490e-03 2.7597120336e+00 -4.7799614564e+00 2.7597120336e+00 4.7799614564e+00 
66400 5.0112684934e+00 -6.9310914425e-03 2.7598380566e+00 -4.7801797347e+00 2.7598380566e+00 4.7801797347e+00 
66500 5.0112674639e+00 -6.9065845829e-03 2.7599636282e+00 -4.7803972311e+00 2.7599636282e+00 4.7803972311e+00 
66600 5.0112664411e+00 -6.8821712495e-03 2.7600887501e+00 -4.7806139485e+00 2.7600887501e+00 4.7806139485e+00 
66700 5.0112654252e+00 -6.8578510240e-03 2.7602134240e+00 -4.7808298901e+00 2.7602134240e+00 4.7808298901e+00 
66800 5.0112644161e+00 -6.8336234906e-03 2.7603376518e+00 -4.7810450589e+00 2.7603376518e+00 4.7810450589e+00 
66900 5.0112634136e+00 -6.8094882359e-03 2.7604614351e+00 -4.7812594579e+00 2.7604614351e+00 4.7812594579e+00 
67000 5.0112624179e+00 -6.7854448488e-03 2.7605847757e+00 -4.7814730901e+00 2.7605847757e+00 4.7814730901e+00 
67100 5.0112614288e+00 -6.7614929205e-03 2.7607076753e+00 -4.7816859584e+00 2.7607076753e+00 4.7816859584e+00 
67200 5.0112604462e+00 -6.7376320447e-03 2.7608301356e+00 -4.7818980659e+00 2.7608301356e+00 4.7818980659e+00 
67300 5.0112594703e+00 -6.7138618172e-03 2.7609521583e+00 -4.7821094155e+00 2.7609521583e+00 4.7821094155e+00 
67400 5.0112585008e+00 -6.6901818364e-03 2.7610737452e+00 -4.7823200102e+00 2.7610737452e+00 4.7823200102e+00 
67500 5.0112575377e+00 -6.6665917026e-03 2.7611948979e+00 -4.7825298528e+00 2.7611948979e+00 4.7825298528e+00 
67600 5.0112565811e+00 -6.6430910188e-03 2.7613156181e+00 -4.7827389463e+00 2.7613156181e+00 4.7827389463e+00 
67700 5.0112556309e+00 -6.6196793899e-03 2.7614359075e+00 -4.7829472937e+00 2.7614359075e+00 4.7829472937e+00 
67800 5.0112546869e+00 -6.5963564231e-03 2.7615557677e+00 -4.7831548977e+00 2.7615557677e+00 4.7831548977e+00 
67900 5.0112537493e+00 -6.5731217280e-03 2.7616752005e+00 -4.7833617613e+00 2.7616752005e+00 4.7833617613e+00 
68000 5.0112528179e+00 -6.5499749162e-03 2.7617942074e+00 -4.7835678873e+00 2.7617942074e+00 4.7835678873e+00 
68100 5.0112518927e+00 -6.5269156017e-03 2.7619127901e+00 -4.7837732786e+00 2.7619127901e+00 4.7837732786e+00 
68200 5.0112509737e+00 -6.5039434004e-03 2.7620309503e+00 -4.7839779380e+00 2.7620309503e+00 4.7839779380e+00 
68300 5.0112500608e+00 -6.4810579306e-03 2.7621486896e+00 -4.7841818684e+00 2.7621486896e+00 4.7841818684e+00 
68400 5.0112491539e+00 -6.4582588125e-03 2.7622660095e+00 -4.7843850725e+00 2.7622660095e+00 4.7843850725e+00 
68500 5.0112482531e+00 -6.4355456687e-03 2.7623829118e+00 -4.7845875533e+00 2.7623829118e+00 4.7845875533e+00 
68600 5.0112473583e+00 -6.4129181238e-03 2.7624993981e+00 -4.7847893133e+00 2.7624993981e+00 4.7847893133e+00 
68700 5.0112464694e+00 -6.3903758043e-03 2.7626154698e+00 -4.7849903555e+00 2.7626154698e+00 4.7849903555e+00 
68800 5.0112455865e+00 -6.3679183390e-03 2.7627311287e+00 -4.7851906825e+00 2.7627311287e+00 4.7851906825e+00 
68900 5.0112447094e+00 -6.3455453588e-03 2.7628463763e+00 -4.7853902972e+00 2.7628463763e+00 4.7853902972e+00 
69000 5.0112438382e+00 -6.3232564964e-03 2.7629612142e+00 -4.7855892023e+00 2.7629612142e+00 4.7855892023e+00 
69100 5.0112429728e+00 -6.3010513868e-03 2.7630756440e+00 -4.7857874005e+00 2.7630756440e+00 4.7857874005e+00 
69200 5.0112421131e+00 -6.2789296669e-03 2.7631896672e+00 -4.7859848945e+00 2.7631896672e+00 4.7859848945e+00 
69300 5.0112412591e+00 -6.2568909756e-03 2.7633032854e+00 -4.7861816870e+00 2.7633032854e+00 4.7861816870e+00 
69400 5.0112404109e+00 -6.2349349538e-03 2.7634165001e+00 -4.7863777807e+00 2.7634165001e+00 4.7863777807e+00 
69500 5.0112395682e+00 -6.2130612443e-03 2.7635293129e+00 -4.7865731782e+00 2.7635293129e+00 4.7865731782e+00 
69600 5.0112387312e+00 -6.1912694921e-03 2.7636417254e+00 -4.7867678823e+00 2.7636417254e+00 4.7867678823e+00 
69700 5.0112378998e+00 -6.1695593438e-03 2.7637537391e+00 -4.7869618957e+00 2.7637537391e+00 4.7869618957e+00 
69800 5.0112370738e+00 -6.1479304483e-03 2.7638653554e+00 -4.7871552208e+00 2.7638653554e+00 4.7871552208e+00 
69900 5.0112362534e+00 -6.1263824562e-03 2.7639765759e+00 -4.7873478604e+00 2.7639765759e+00 4.7873478604e+00 
70000 5.0112354384e+00 -6.1049150199e-03 2.7640874022e+00 -4.7875398171e+00 2.7640874022e+00 4.7875398171e+00 
70100 5.0112346289e+00 -6.0835277941e-03 2.7641978357e+00 -4.7877310935e+00 2.7641978357e+00 4.7877310935e+00 
70200 5.0112338247e+00 -6.0622204349e-03 2.7643078779e+00 -4.7879216922e+00 2.7643078779e+00 4.7879216922e+00 
70300 5.0112330259e+00 -6.0409926006e-03 2.7644175303e+00 -4.7881116157e+00 2.7644175303e+00 4.7881116157e+00 
70400 5.0112322324e+00 -6.0198439512e-03 2.7645267944e+00 -4.7883008667e+00 2.7645267944e+00 4.7883008667e+00 
70500 5.0112314441e+00 -5.9987741487e-03 2.7646356717e+00 -4.7884894477e+00 2.7646356717e+00 4.7884894477e+00 
70600 5.0112306611e+00 -5.9777828567e-03 2.7647441636e+00 -4.7886773613e+00 2.7647441636e+00 4.7886773613e+00 
70700 5.0112298834e+00 -5.9568697407e-03 2.7648522716e+00 -4.7888646099e+00 2.7648522716e+00 4.7888646099e+00 
70800 5.0112291108e+00 -5.9360344681e-03 2.7649599973e+00 -4.7890511961e+00 2.7649599973e+00 4.7890511961e+00 
70900 5.0112283433e+00 -5.9152767080e-03 2.7650673419e+00 -4.7892371225e+00 2.7650673419e+00 4.7892371225e+00 
71000 5.0112275809e+00 -5.8945961313e-03 2.7651743070e+00 -4.7894223915e+00 2.7651743070e+00 4.7894223915e+00 
71100 5.0112268236e+00 -5.8739924106e-03 2.7652808940e+00 -4.7896070057e+00 2.7652808940e+00 4.7896070057e+00 
71200 5.0112260713e+00 -5.8534652204e-03 2.7653871044e+00 -4.7897909674e+00 2.7653871044e+00 4.7897909674e+00 
71300 5.0112253241e+00 -5.8330142368e-03 2.7654929395e+00 -4.7899742793e+00 2.7654929395e+00 4.7899742793e+00 
71400 5.0112245818e+00 -5.8126391376e-03 2.7655984009e+00 -4.7901569436e+00 2.7655984009e+00 4.7901569436e+00 
71500 5.0112238444e+00 -5.7923396025e-03 2.7657034898e+00 -4.7903389630e+00 2.7657034898e+00 4.7903389630e+00 
71600 5.0112231120e+00 -5.7721153128e-03 2.7658082078e+00 -4.7905203398e+00 2.7658082078e+00 4.7905203398e+00 
71700 5.0112223844e+00 -5.7519659514e-03 2.7659125561e+00 -4.7907010765e+00 2.7659125561e+00 4.7907010765e+00 
71800 5.0112216616e+00 -5.7318912031e-03 2.7660165363e+00 -4.7908811755e+00 2.7660165363e+00 4.7908811755e+00 
71900 5.0112209437e+00 -5.7118907540e-03 2.7661201497e+00 -4.7910606391e+00 2.7661201497e+00 4.7910606391e+00 
72000 5.0112202305e+00 -5.6919642923e-03 2.7662233977e+00 -4.7912394699e+00 2.7662233977e+00 4.7912394699e+00 
72100 5.0112195220e+00 -5.6721115075e-03 2.7663262816e+00 -4.7914176701e+00 2.7663262816e+00 4.7914176701e+00 
72200 5.0112188183e+00 -5.6523320910e-03 2.7664288029e+00 -4.7915952422e+00 2.7664288029e+00 4.7915952422e+00 
72300 5.0112181193e+00 -5.6326257355e-03 2.7665309629e+00 -4.7917721885e+00 2.7665309629e+00 4.7917721885e+00 
72400 5.0112174248e+00 -5.6129921357e-03 2.7666327630e+00 -4.7919485113e+00 2.7666327630e+00 4.7919485113e+00 
72500 5.0112167351e+00 -5.5934309875e-03 2.7667342045e+00 -4.7921242131e+00 2.7667342045e+00 4.7921242131e+00 
72600 5.0112160498e+00 -5.5739419887e-03 2.7668352887e+00 -4.7922992962e+00 2.7668352887e+00 4.7922992962e+00 
72700 5.0112153692e+00 -5.5545248385e-03 2.7669360171e+00 -4.7924737628e+00 2.7669360171e+00 4.7924737628e+00 
72800 5.0112146931e+00 -5.5351792379e-03 2.7670363909e+00 -4.7926476154e+00 2.7670363909e+00 4.7926476154e+00 
72900 5.0112140214e+00 -5.5159048890e-03 2.7671364115e+00 -4.7928208561e+00 2.7671364115e+00 4.7928208561e+00 
73000 5.0112133542e+00 -5.4967014960e-03 2.7672360802e+00 -4.7929934874e+00 2.7672360802e+00 4.7929934874e+00 
73100 5.0112126915e+00 -5.4775687642e-03 2.7673353983e+00 -4.7931655115e+00 2.7673353983e+00 4.7931655115e+00 
73200 5.0112120332e+00 -5.4585064006e-03 2.7674343672e+00 -4.7933369306e+00 2.7674343672e+00 4.7933369306e+00 
73300 5.0112113792e+00 -5.4395141138e-03 2.7675329881e+00 -4.7935077470e+00 2.7675329881e+00 4.7935077470e+00 
73400 5.0112107296e+00 -5.4205916138e-03 2.7676312624e+00 -4.7936779631e+00 2.7676312624e+00 4.7936779631e+00 
73500 5.0112100843e+00 -5.4017386119e-03 2.7677291913e+00 -4.7938475810e+00 2.7677291913e+00 4.7938475810e+00 
73600 5.0112094433e+00 -5.3829548214e-03 2.7678267762e+00 -4.7940166029e+00 2.7678267762e+00 4.7940166029e+00 
73700 5.0112088065e+00 -5.3642399564e-03 2.7679240183e+00 -4.7941850312e+00 2.7679240183e+00 4.7941850312e+00 
73800 5.0112081740e+00 -5.3455937331e-03 2.7680209189e+00 -4.7943528680e+00 2.7680209189e+00 4.7943528680e+00 
73900 5.0112075457e+00 -5.3270158688e-03 2.7681174794e+00 -4.7945201156e+00 2.7681174794e+00 4.7945201156e+00 
74000 5.0112069215e+00 -5.3085060823e-03 2.7682137008e+00 -4.7946867760e+00 2.7682137008e+00 4.7946867760e+00 
74100 5.0112063015e+00 -5.2900640938e-03 2.7683095846e+00 -4.7948528516e+00 2.7683095846e+00 4.7948528516e+00 
74200 5.0112056856e+00 -5.2716896251e-03 2.7684051320e+00 -4.7950183446e+00 2.7684051320e+00 4.7950183446e+00 
74300 5.0112050738e+00 -5.2533823991e-03 2.7685003442e+00 -4.7951832570e+00 2.7685003442e+00 4.7951832570e+00 
74400 5.0112044661e+00 -5.2351421405e-03 2.7685952225e+00 -4.7953475910e+00 2.7685952225e+00 4.7953475910e+00 
74500 5.0112038624e+00 -5.2169685750e-03 2.7686897682e+00 -4.7955113488e+00 2.7686897682e+00 4.7955113488e+00 
74600 5.0112032627e+00 -5.1988614300e-03 2.7687839824e+00 -4.7956745326e+00 2.7687839824e+00 4.7956745326e+00 
74700 5.0112026670e+00 -5.1808204341e-03 2.7688778664e+00 -4.7958371445e+00 2.7688778664e+00 4.7958371445e+00 
74800 5.0112020753e+00 -5.1628453174e-03 2.7689714214e+00 -4.7959991866e+00 2.7689714214e+00 4.7959991866e+00 
74900 5.0112014875e+00 -5.1449358111e-03 2.7690646487e+00 -4.7961606610e+00 2.7690646487e+00 4.7961606610e+00 
75000 5.0112009035e+00 -5.1270916482e-03 2.7691575495e+00 -4.7963215698e+00 2.7691575495e+00 4.7963215698e+00 
75100 5.0112003235e+00 -5.1093125625e-03 2.7692501249e+00 -4.7964819152e+00 2.7692501249e+00 4.7964819152e+00 
75200 5.0111997473e+00 -5.0915982895e-03 2.7693423763e+00 -4.7966416993e+00 2.7693423763e+00 4.7966416993e+00 
75300 5.0111991750e+00 -5.0739485660e-03 2.7694343047e+00 -4.7968009240e+00 2.7694343047e+00 4.7968009240e+00 
75400 5.0111986064e+00 -5.0563631300e-03 2.7695259114e+00 -4.7969595915e+00 2.7695259114e+00 4.7969595915e+00 
75500 5.0111980417e+00 -5.0388417207e-03 2.7696171977e+00 -4.7971177039e+00 2.7696171977e+00 4.7971177039e+00 
75600 5.0111974806e+00 -5.0213840790e-03 2.7697081645e+00 -4.7972752631e+00 2.7697081645e+00 4.7972752631e+00 
75700 5.0111969233e+00 -5.0039899466e-03 2.7697988133e+00 -4.7974322714e+00 2.7697988133e+00 4.7974322714e+00 
75800 5.0111963697e+00 -4.9866590668e-03 2.7698891451e+00 -4.7975887306e+00 2.7698891451e+00 4.7975887306e+00 
75900 5.0111958198e+00 -4.9693911841e-03 2.7699791611e+00 -4.7977446429e+00 2.7699791611e+00 4.7977446429e+00 
76000 5.0111952735e+00 -4.9521860442e-03 2.7700688624e+00 -4.7979000102e+00 2.7700688624e+00 4.7979000102e+00 
76100 5.0111947309e+00 -4.9350433941e-03 2.7701582503e+00 -4.7980548346e+00 2.7701582503e+00 4.7980548346e+00 
76200 5.0111941918e+00 -4.9179629822e-03 2.7702473259e+00 -4.7982091180e+00 2.7702473259e+00 4.7982091180e+00 
76300 5.0111936564e+00 -4.9009445577e-03 2.7703360904e+00 -4.7983628625e+00 2.7703360904e+00 4.7983628625e+00 
76400 5.0111931245e+00 -4.8839878715e-03 2.7704245448e+00 -4.7985160701e+00 2.7704245448e+00 4.7985160701e+00 
76500 5.0111925961e+00 -4.8670926756e-03 2.7705126904e+00 -4.7986687428e+00 2.7705126904e+00 4.7986687428e+00 
76600 5.0111920712e+00 -4.8502587230e-03 2.7706005282e+00 -4.7988208824e+00 2.7706005282e+00 4.7988208824e+00 
76700 5.0111915499e+00 -4.8334857681e-03 2.7706880595e+00 -4.7989724910e+00 2.7706880595e+00 4.7989724910e+00 
76800 5.0111910319e+00 -4.8167735664e-03 2.7707752854e+00 -4.7991235706e+00 2.7707752854e+00 4.7991235706e+00 
76900 5.0111905174e+00 -4.8001218749e-03 2.7708622069e+00 -4.7992741230e+00 2.7708622069e+00 4.7992741230e+00 
77000 5.0111900064e+00 -4.7835304512e-03 2.7709488251e+00 -4.7994241503e+00 2.7709488251e+00 4.7994241503e+00 
77100 5.0111894987e+00 -4.7669990547e-03 2.7710351413e+00 -4.7995736544e+00 2.7710351413e+00 4.7995736544e+00 
77200 5.0111889944e+00 -4.7505274455e-03 2.7711211566e+00 -4.7997226371e+00 2.7711211566e+00 4.7997226371e+00 
77300 5.0111884934e+00 -4.7341153851e-03 2.7712068719e+00 -4.7998711004e+00 2.7712068719e+00 4.7998711004e+00 
77400 5.0111879958e+00 -4.7177626360e-03 2.7712922885e+00 -4.8000190462e+00 2.7712922885e+00 4.8000190462e+00 
77500 5.0111875015e+00 -4.7014689621e-03 2.7713774074e+00 -4.8001664765e+00 2.7713774074e+00 4.8001664765e+00 
77600 5.0111870104e+00 -4.6852341283e-03 2.7714622297e+00 -4.8003133931e+00 2.7714622297e+00 4.8003133931e+00 
77700 5.0111865227e+00 -4.6690579004e-03 2.7715467565e+00 -4.8004597978e+00 2.7715467565e+00 4.8004597978e+00 
77800 5.0111860381e+00 -4.6529400456e-03 2.7716309889e+00 -4.8006056926e+00 2.7716309889e+00 4.8006056926e+00 
77900 5.0111855568e+00 -4.6368803323e-03 2.7717149280e+00 -4.8007510794e+00 2.7717149280e+00 4.8007510794e+00 
78000 5.0111850786e+00 -4.6208785298e-03 2.7717985748e+00 -4.8008959600e+00 2.7717985748e+00 4.8008959600e+00 
78100 5.0111846037e+00 -4.6049344084e-03 2.7718819305e+00 -4.8010403362e+00 2.7718819305e+00 4.8010403362e+00 
78200 5.0111841319e+00 -4.5890477399e-03 2.7719649960e+00 -4.8011842099e+00 2.7719649960e+00 4.8011842099e+00 
78300 5.0111836632e+00 -4.5732182969e-03 2.7720477725e+00 -4.8013275830e+00 2.7720477725e+00 4.8013275830e+00 
78400 5.0111831976e+00 -4.5574458530e-03 2.7721302610e+00 -4.8014704573e+00 2.7721302610e+00 4.8014704573e+00 
78500 5.0111827351e+00 -4.5417301831e-03 2.7722124626e+00 -4.8016128346e+00 2.7722124626e+00 4.8016128346e+00 
78600 5.0111822757e+00 -4.5260710631e-03 2.7722943782e+00 -4.8017547166e+00 2.7722943782e+00 4.8017547166e+00 
78700 5.0111818194e+00 -4.5104682699e-03 2.7723760091e+00 -4.8018961054e+00 2.7723760091e+00 4.8018961054e+00 
78800 5.0111813660e+00 -4.4949215816e-03 2.7724573561e+00 -4.8020370025e+00 2.7724573561e+00 4.8020370025e+00 
78900 5.0111809157e+00 -4.4794307771e-03 2.7725384203e+00 -4.8021774099e+00 2.7725384203e+00 4.8021774099e+00 
79000 5.0111804684e+00 -4.4639956366e-03 2.7726192028e+00 -4.8023173294e+00 2.7726192028e+00 4.8023173294e+00 
79100 5.0111800240e+00 -4.4486159412e-03 2.7726997046e+00 -4.8024567626e+00 2.7726997046e+00 4.8024567626e+00 
79200 5.0111795826e+00 -4.4332914730e-03 2.7727799268e+00 -4.8025957114e+00 2.7727799268e+00 4.8025957114e+00 
79300 5.0111791441e+00 -4.4180220153e-03 2.7728598702e+00 -4.8027341775e+00 2.7728598702e+00 4.8027341775e+00 
79400 5.0111787085e+00 -4.4028073522e-03 2.7729395361e+00 -4.8028721628e+00 2.7729395361e+00 4.8028721628e+00 
79500 5.0111782758e+00 -4.3876472690e-03 2.7730189253e+00 -4.8030096689e+00 2.7730189253e+00 4.8030096689e+00 
79600 5.0111778460e+00 -4.3725415518e-03 2.7730980388e+00 -4.8031466976e+00 2.7730980388e+00 4.8031466976e+00 
79700 5.0111774191e+00 -4.3574899879e-03 2.7731768778e+00 -4.8032832506e+00 2.7731768778e+00 4.8032832506e+00 
79800 5.0111769949e+00 -4.3424923654e-03 2.7732554431e+00 -4.8034193298e+00 2.7732554431e+00 4.8034193298e+00 
79900 5.0111765736e+00 -4.3275484737e-03 2.7733337358e+00 -4.8035549367e+00 2.7733337358e+00 4.8035549367e+00 
80000 5.0111761551e+00 -4.3126581027e-03 2.7734117568e+00 -4.8036900731e+00 2.7734117568e+00 4.8036900731e+00 
80100 5.0111757393e+00 -4.2978210438e-03 2.7734895072e+00 -4.8038247408e+00 2.7734895072e+00 4.8038247408e+00 
80200 5.0111753264e+00 -4.2830370890e-03 2.7735669880e+00 -4.8039589414e+00 2.7735669880e+00 4.8039589414e+00 
80300 5.0111749161e+00 -4.2683060314e-03 2.7736442001e+00 -4.8040926766e+00 2.7736442001e+00 4.8040926766e+00 
80400 5.0111745086e+00 -4.2536276650e-03 2.7737211444e+00 -4.8042259482e+00 2.7737211444e+00 4.8042259482e+00 
80500 5.0111741038e+00 -4.2390017848e-03 2.7737978221e+00 -4.8043587577e+00 2.7737978221e+00 4.8043587577e+00 
80600 5.0111737016e+00 -4.2244281868e-03 2.7738742339e+00 -4.8044911070e+00 2.7738742339e+00 4.8044911070e+00 
80700 5.0111733022e+00 -4.2099066677e-03 2.7739503810e+00 -4.8046229975e+00 2.7739503810e+00 4.8046229975e+00 
80800 5.0111729054e+00 -4.1954370255e-03 2.7740262642e+00 -4.8047544311e+00 2.7740262642e+00 4.8047544311e+00 
80900 5.0111725112e+00 -4.1810190589e-03 2.7741018845e+00 -4.8048854094e+00 2.7741018845e+00 4.8048854094e+00 
81000 5.0111721196e+00 -4.1666525675e-03 2.7741772430e+00 -4.8050159340e+00 2.7741772430e+00 4.8050159340e+00 
81100 5.0111717306e+00 -4.1523373518e-03 2.7742523404e+00 -4.8051460066e+00 2.7742523404e+00 4.8051460066e+00 
81200 5.0111713442e+00 -4.1380732135e-03 2.7743271778e+00 -4.8052756287e+00 2.7743271778e+00 4.8052756287e+00 
81300 5.0111709604e+00 -4.1238599548e-03 2.7744017561e+00 -4.8054048021e+00 2.7744017561e+00 4.8054048021e+00 
81400 5.0111705791e+00 -4.1096973791e-03 2.7744760762e+00 -4.8055335284e+00 2.7744760762e+00 4.8055335284e+00 
81500 5.0111702004e+00 -4.0955852905e-03 2.7745501391e+00 -4.8056618091e+00 2.7745501391e+00 4.8056618091e+00 
81600 5.0111698242e+00 -4.0815234941e-03 2.7746239457e+00 -4.8057896459e+00 2.7746239457e+00 4.8057896459e+00 
81700 5.0111694504e+00 -4.0675117960e-03 2.7746974970e+00 -4.8059170404e+00 2.7746974970e+00 4.8059170404e+00 
81800 5.0111690792e+00 -4.0535500029e-03 2.7747707938e+00 -4.8060439942e+00 2.7747707938e+00 4.8060439942e+00 
81900 5.0111687104e+00 -4.0396379226e-03 2.7748438371e+00 -4.8061705089e+00 2.7748438371e+00 4.8061705089e+00 
82000 5.0111683440e+00 -4.0257753636e-03 2.7749166278e+00 -4.8062965861e+00 2.7749166278e+00 4.8062965861e+00 
82100 5.0111679801e+00 -4.0119621354e-03 2.7749891668e+00 -4.8064222273e+00 2.7749891668e+00 4.8064222273e+00 
82200 5.0111676186e+00 -3.9981980484e-03 2.7750614550e+00 -4.8065474341e+00 2.7750614550e+00 4.8065474341e+00 
82300 5.0111672595e+00 -3.9844829136e-03 2.7751334933e+00 -4.8066722082e+00 2.7751334933e+00 4.8066722082e+00 
82400 5.0111669027e+00 -3.9708165432e-03 2.7752052826e+00 -4.8067965509e+00 2.7752052826e+00 4.8067965509e+00 
82500 5.0111665484e+00 -3.9571987499e-03 2.7752768239e+00 -4.8069204640e+00 2.7752768239e+00 4.8069204640e+00 
82600 5.0111661964e+00 -3.9436293475e-03 2.7753481180e+00 -4.8070439490e+00 2.7753481180e+00 4.8070439490e+00 
82700 5.0111658467e+00 -3.9301081505e-03 2.7754191657e+00 -4.8071670074e+00 2.7754191657e+00 4.8071670074e+00 
82800 5.0111654993e+00 -3.9166349742e-03 2.7754899681e+00 -4.8072896406e+00 2.7754899681e+00 4.8072896406e+00 
82900 5.0111651543e+00 -3.9032096349e-03 2.7755605259e+00 -4.8074118504e+00 2.7755605259e+00 4.8074118504e+00 
83000 5.0111648115e+00 -3.8898319496e-03 2.7756308401e+00 -4.8075336382e+00 2.7756308401e+00 4.8075336382e+00 
83100 5.0111644710e+00 -3.8765017362e-03 2.7757009116e+00 -4.8076550054e+00 2.7757009116e+00 4.8076550054e+00 
83200 5.0111641328e+00 -3.8632188131e-03 2.7757707411e+00 -4.8077759537e+00 2.7757707411e+00 4.8077759537e+00 
83300 5.0111637968e+00 -3.8499829999e-03 2.7758403296e+00 -4.8078964846e+00 2.7758403296e+00 4.8078964846e+00 
83400 5.0111634630e+00 -3.8367941169e-03 2.7759096780e+00 -4.8080165994e+00 2.7759096780e+00 4.8080165994e+00 
83500 5.0111631315e+00 -3.8236519850e-03 2.7759787870e+00 -4.8081362998e+00 2.7759787870e+00 4.8081362998e+00 
83600 5.0111628021e+00 -3.8105564261e-03 2.7760476576e+00 -4.8082555873e+00 2.7760476576e+00 4.8082555873e+00 
83700 5.0111624750e+00 -3.7975072629e-03 2.7761162907e+00 -4.8083744632e+00 2.7761162907e+00 4.8083744632e+00 
83800 5.0111621500e+00 -3.7845043187e-03 2.7761846870e+00 -4.8084929291e+00 2.7761846870e+00 4.8084929291e+00 
83900 5.0111618271e+00 -3.7715474177e-03 2.7762528475e+00 -4.8086109864e+00 2.7762528475e+00 4.8086109864e+00 
84000 5.0111615064e+00 -3.7586363849e-03 2.7763207729e+00 -4.8087286367e+00 2.7763207729e+00 4.8087286367e+00 
84100 5.0111611879e+00 -3.7457710460e-03 2.7763884641e+00 -4.8088458814e+00 2.7763884641e+00 4.8088458814e+00 
84200 5.0111608714e+00 -3.7329512276e-03 2.7764559220e+00 -4.8089627219e+00 2.7764559220e+00 4.8089627219e+00 
84300 5.0111605570e+00 -3.7201767567e-03 2.7765231474e+00 -4.8090791597e+00 2.7765231474e+00 4.8090791597e+00 
84400 5.0111602448e+00 -3.7074474616e-03 2.7765901411e+00 -4.8091951962e+00 2.7765901411e+00 4.8091951962e+00 
84500 5.0111599346e+00 -3.6947631709e-03 2.7766569040e+00 -4.8093108328e+00 2.7766569040e+00 4.8093108328e+00 
84600 5.0111596264e+00 -3.6821237142e-03 2.7767234368e+00 -4.8094260711e+00 2.7767234368e+00 4.8094260711e+00 
84700 5.0111593203e+00 -3.6695289218e-03 2.7767897405e+00 -4.8095409124e+00 2.7767897405e+00 4.8095409124e+00 
84800 5.0111590162e+00 -3.6569786245e-03 2.7768558158e+00 -4.8096553582e+00 2.7768558158e+00 4.8096553582e+00 
84900 5.0111587142e+00 -3.6444726542e-03 2.7769216635e+00 -4.8097694098e+00 2.7769216635e+00 4.8097694098e+00 
85000 5.0111584141e+00 -3.6320108434e-03 2.7769872845e+00 -4.8098830687e+00 2.7769872845e+00 4.8098830687e+00 
85100 5.0111581161e+00 -3.6195930252e-03 2.7770526795e+00 -4.8099963363e+00 2.7770526795e+00 4.8099963363e+00 
85200 5.0111578200e+00 -3.6072190336e-03 2.7771178495e+00 -4.8101092139e+00 2.7771178495e+00 4.8101092139e+00 
85300 5.0111575259e+00 -3.5948887032e-03 2.7771827951e+00 -4.8102217030e+00 2.7771827951e+00 4.8102217030e+00 
85400 5.0111572337e+00 -3.5826018694e-03 2.7772475172e+00 -4.8103338050e+00 2.7772475172e+00 4.8103338050e+00 
85500 5.0111569434e+00 -3.5703583682e-03 2.7773120166e+00 -4.8104455212e+00 2.7773120166e+00 4.8104455212e+00 
85600 5.0111566551e+00 -3.5581580364e-03 2.7773762941e+00 -4.8105568531e+00 2.7773762941e+00 4.8105568531e+00 
85700 5.0111563687e+00 -3.5460007115e-03 2.7774403504e+00 -4.8106678019e+00 2.7774403504e+00 4.8106678019e+00 
85800 5.0111560842e+00 -3.5338862317e-03 2.7775041864e+00 -4.8107783692e+00 2.7775041864e+00 4.8107783692e+00 
85900 5.0111558016e+00 -3.5218144359e-03 2.7775678029e+00 -4.8108885561e+00 2.7775678029e+00 4.8108885561e+00 
86000 5.0111555209e+00 -3.5097851637e-03 2.7776312006e+00 -4.8109983641e+00 2.7776312006e+00 4.8109983641e+00 
86100 5.0111552420e+00 -3.4977982553e-03 2.7776943803e+00 -4.8111077946e+00 2.7776943803e+00 4.8111077946e+00 
86200 5.0111549649e+00 -3.4858535516e-03 2.7777573428e+00 -4.8112168488e+00 2.7777573428e+00 4.8112168488e+00 
86300 5.0111546898e+00 -3.4739508943e-03 2.7778200889e+00 -4.8113255282e+00 2.7778200889e+00 4.8113255282e+00 
86400 5.0111544164e+00 -3.4620901258e-03 2.7778826193e+00 -4.8114338340e+00 2.7778826193e+00 4.8114338340e+00 
86500 5.0111541448e+00 -3.4502710889e-03 2.7779449348e+00 -4.8115417676e+00 2.7779449348e+00 4.8115417676e+00 
86600 5.0111538751e+00 -3.4384936274e-03 2.7780070361e+00 -4.8116493304e+00 2.7780070361e+00 4.8116493304e+00 
86700 5.0111536071e+00 -3.4267575855e-03 2.7780689241e+00 -4.8117565236e+00 2.7780689241e+00 4.8117565236e+00 
86800 5.0111533409e+00 -3.4150628083e-03 2.7781305995e+00 -4.8118633485e+00 2.7781305995e+00 4.8118633485e+00 
86900 5.0111530765e+00 -3.4034091414e-03 2.7781920631e+00 -4.8119698065e+00 2.7781920631e+00 4.8119698065e+00 
87000 5.0111528138e+00 -3.3917964311e-03 2.7782533156e+00 -4.8120758988e+00 2.7782533156e+00 4.8120758988e+00 
87100 5.0111525529e+00 -3.3802245244e-03 2.7783143577e+00 -4.8121816269e+00 2.7783143577e+00 4.8121816269e+00 
87200 5.0111522937e+00 -3.3686932688e-03 2.7783751902e+00 -4.8122869919e+00 2.7783751902e+00 4.8122869919e+00 
87300 5.0111520362e+00 -3.3572025127e-03 2.7784358138e+00 -4.8123919951e+00 2.7784358138e+00 4.8123919951e+00 
87400 5.0111517804e+00 -3.3457521048e-03 2.7784962294e+00 -4.8124966379e+00 2.7784962294e+00 4.8124966379e+00 
87500 5.0111515263e+00 -3.3343418948e-03 2.7785564376e+00 -4.8126009216e+00 2.7785564376e+00 4.8126009216e+00 
87600 5.0111512739e+00 -3.3229717328e-03 2.7786164391e+00 -4.8127048473e+00 2.7786164391e+00 4.8127048473e+00 
87700 5.0111510232e+00 -3.3116414696e-03 2.7786762348e+00 -4.8128084164e+00 2.7786762348e+00 4.8128084164e+00 
87800 5.0111507741e+00 -3.3003509566e-03 2.7787358253e+00 -4.8129116302e+00 2.7787358253e+00 4.8129116302e+00 
87900 5.0111505267e+00 -3.2891000459e-03 2.7787952113e+00 -4.8130144898e+00 2.7787952113e+00 4.8130144898e+00 
88000 5.0111502810e+00 -3.2778885902e-03 2.7788543936e+00 -4.8131169966e+00 2.7788543936e+00 4.8131169966e+00 
88100 5.0111500368e+00 -3.2667164427e-03 2.7789133730e+00 -4.8132191518e+00 2.7789133730e+00 4.8132191518e+00 
88200 5.0111497943e+00 -3.2555834575e-03 2.7789721501e+00 -4.8133209567e+00 2.7789721501e+00 4.8133209567e+00 
88300 5.0111495534e+00 -3.2444894889e-03 2.7790307256e+00 -4.8134224125e+00 2.7790307256e+00 4.8134224125e+00 
88400 5.0111493141e+00 -3.2334343921e-03 2.7790891003e+00 -4.8135235204e+00 2.7790891003e+00 4.8135235204e+00 
88500 5.0111490763e+00 -3.2224180230e-03 2.7791472748e+00 -4.8136242817e+00 2.7791472748e+00 4.8136242817e+00 
88600 5.0111488402e+00 -3.2114402377e-03 2.7792052500e+00 -4.8137246976e+00 2.7792052500e+00 4.8137246976e+00 
88700 5.0111486056e+00 -3.2005008933e-03 2.7792630264e+00 -4.8138247693e+00 2.7792630264e+00 4.8138247693e+00 
88800 5.0111483725e+00 -3.1895998473e-03 2.7793206048e+00 -4.8139244981e+00 2.7793206048e+00 4.8139244981e+00 
88900 5.0111481410e+00 -3.1787369579e-03 2.7793779860e+00 -4.8140238851e+00 2.7793779860e+00 4.8140238851e+00 
89000 5.0111479111e+00 -3.1679120837e-03 2.7794351705e+00 -4.8141229316e+00 2.7794351705e+00 4.8141229316e+00 
89100 5.0111476827e+00 -3.1571250841e-03 2.7794921591e+00 -4.8142216388e+00 2.7794921591e+00 4.8142216388e+00 
89200 5.0111474557e+00 -3.1463758189e-03 2.7795489525e+00 -4.8143200078e+00 2.7795489525e+00 4.8143200078e+00 
89300 5.0111472303e+00 -3.1356641488e-03 2.7796055513e+00 -4.8144180399e+00 2.7796055513e+00 4.8144180399e+00 
89400 5.0111470064e+00 -3.1249899346e-03 2.7796619564e+00 -4.8145157363e+00 2.7796619564e+00 4.8145157363e+00 
89500 5.0111467840e+00 -3.1143530380e-03 2.7797181683e+00 -4.8146130981e+00 2.7797181683e+00 4.8146130981e+00 
89600 5.0111465630e+00 -3.1037533213e-03 2.7797741877e+00 -4.8147101266e+00 2.7797741877e+00 4.8147101266e+00 
89700 5.0111463435e+00 -3.0931906473e-03 2.7798300153e+00 -4.8148068229e+00 2.7798300153e+00 4.8148068229e+00 
89800 5.0111461255e+00 -3.0826648792e-03 2.7798856518e+00 -4.8149031882e+00 2.7798856518e+00 4.8149031882e+00 
89900 5.0111459089e+00 -3.0721758810e-03 2.7799410979e+00 -4.8149992236e+00 2.7799410979e+00 4.8149992236e+00 
90000 5.0111456937e+00 -3.0617235171e-03 2.7799963542e+00 -4.8150949303e+00 2.7799963542e+00 4.8150949303e+00 
90100 5.0111454800e+00 -3.0513076526e-03 2.7800514214e+00 -4.8151903096e+00 2.7800514214e+00 4.8151903096e+00 
90200 5.0111452676e+00 -3.0409281530e-03 2.7801063002e+00 -4.8152853624e+00 2.7801063002e+00 4.8152853624e+00 
90300 5.0111450567e+00 -3.0305848845e-03 2.7801609913e+00 -4.8153800901e+00 2.7801609913e+00 4.8153800901e+00 
90400 5.0111448472e+00 -3.0202777138e-03 2.7802154952e+00 -4.8154744937e+00 2.7802154952e+00 4.8154744937e+00 
90500 5.0111446391e+00 -3.0100065081e-03 2.7802698127e+00 -4.8155685744e+00 2.7802698127e+00 4.8155685744e+00 
90600 5.0111444323e+00 -2.9997711352e-03 2.7803239444e+00 -4.8156623333e+00 2.7803239444e+00 4.8156623333e+00 
90700 5.0111442270e+00 -2.9895714633e-03 2.7803778910e+00 -4.8157557715e+00 2.7803778910e+00 4.8157557715e+00 
90800 5.0111440230e+00 -2.9794073614e-03 2.7804316532e+00 -4.8158488903e+00 2.7804316532e+00 4.8158488903e+00 
90900 5.0111438203e+00 -2.9692786989e-03 2.7804852315e+00 -4.8159416907e+00 2.7804852315e+00 4.8159416907e+00 
91000 5.0111436190e+00 -2.9591853456e-03 2.7805386266e+00 -4.8160341738e+00 2.7805386266e+00 4.8160341738e+00 
91100 5.0111434190e+00 -2.9491271720e-03 2.7805918393e+00 -4.8161263407e+00 2.7805918393e+00 4.8161263407e+00 
91200 5.0111432203e+00 -2.9391040491e-03 2.7806448700e+00 -4.8162181926e+00 2.7806448700e+00 4.8162181926e+00 
91300 5.0111430230e+00 -2.9291158485e-03 2.7806977195e+00 -4.8163097306e+00 2.7806977195e+00 4.8163097306e+00 
91400 5.0111428269e+00 -2.9191624421e-03 2.7807503884e+00 -4.8164009558e+00 2.7807503884e+00 4.8164009558e+00 
91500 5.0111426322e+00 -2.9092437025e-03 2.7808028773e+00 -4.8164918693e+00 2.7808028773e+00 4.8164918693e+00 
91600 5.0111424388e+00 -2.8993595027e-03 2.7808551869e+00 -4.8165824722e+00 2.7808551869e+00 4.8165824722e+00 
91700 5.0111422466e+00 -2.8895097165e-03 2.7809073178e+00 -4.8166727655e+00 2.7809073178e+00 4.8166727655e+00 
91800 5.0111420557e+00 -2.8796942177e-03 2.7809592706e+00 -4.8167627504e+00 2.7809592706e+00 4.8167627504e+00 
91900 5.0111418661e+00 -2.8699128812e-03 2.7810110459e+00 -4.8168524279e+00 2.7810110459e+00 4.8168524279e+00 
92000 5.0111416777e+00 -2.8601655819e-03 2.7810626445e+00 -4.8169417992e+00 2.7810626445e+00 4.8169417992e+00 
92100 5.0111414906e+00 -2.8504521956e-03 2.7811140668e+00 -4.8170308653e+00 2.7811140668e+00 4.8170308653e+00 
92200 5.0111413047e+00 -2.8407725983e-03 2.7811653135e+00 -4.8171196273e+00 2.7811653135e+00 4.8171196273e+00 
92300 5.0111411201e+00 -2.8311266666e-03 2.7812163853e+00 -4.8172080862e+00 2.7812163853e+00 4.8172080862e+00 
92400 5.0111409366e+00 -2.8215142777e-03 2.7812672827e+00 -4.8172962431e+00 2.7812672827e+00 4.8172962431e+00 
92500 5.0111407544e+00 -2.8119353092e-03 2.7813180064e+00 -4.8173840991e+00 2.7813180064e+00 4.8173840991e+00 
92600 5.0111405734e+00 -2.8023896393e-03 2.7813685570e+00 -4.8174716553e+00 2.7813685570e+00 4.8174716553e+00 
92700 5.0111403936e+00 -2.7928771464e-03 2.7814189350e+00 -4.8175589126e+00 2.7814189350e+00 4.8175589126e+00 
92800 5.0111402150e+00 -2.7833977097e-03 2.7814691412e+00 -4.8176458722e+00 2.7814691412e+00 4.8176458722e+00 
92900 5.0111400376e+00 -2.7739512088e-03 2.7815191760e+00 -4.8177325350e+00 2.7815191760e+00 4.8177325350e+00 
93000 5.0111398613e+00 -2.7645375237e-03 2.7815690401e+00 -4.8178189022e+00 2.7815690401e+00 4.8178189022e+00 
93100 5.0111396862e+00 -2.7551565350e-03 2.7816187341e+00 -4.8179049747e+00 2.7816187341e+00 4.8179049747e+00 
93200 5.0111395123e+00 -2.7458081237e-03 2.7816682586e+00 -4.8179907537e+00 2.7816682586e+00 4.8179907537e+00 
93300 5.0111393395e+00 -2.7364921713e-03 2.7817176141e+00 -4.8180762400e+00 2.7817176141e+00 4.8180762400e+00 
93400 5.0111391679e+00 -2.7272085597e-03 2.7817668014e+00 -4.8181614348e+00 2.7817668014e+00 4.8181614348e+00 
93500 5.0111389974e+00 -2.7179571715e-03 2.7818158209e+00 -4.8182463391e+00 2.7818158209e+00 4.8182463391e+00 
93600 5.0111388281e+00 -2.7087378894e-03 2.7818646732e+00 -4.8183309538e+00 2.7818646732e+00 4.8183309538e+00 
93700 5.0111386598e+00 -2.6995505969e-03 2.7819133590e+00 -4.8184152801e+00 2.7819133590e+00 4.8184152801e+00 
93800 5.0111384927e+00 -2.6903951778e-03 2.7819618788e+00 -4.8184993189e+00 2.7819618788e+00 4.8184993189e+00 
93900 5.0111383267e+00 -2.6812715165e-03 2.7820102333e+00 -4.8185830712e+00 2.7820102333e+00 4.8185830712e+00 
94000 5.0111381618e+00 -2.6721794977e-03 2.7820584229e+00 -4.8186665380e+00 2.7820584229e+00 4.8186665380e+00 
94100 5.0111379979e+00 -2.6631190066e-03 2.7821064482e+00 -4.8187497204e+00 2.7821064482e+00 4.8187497204e+00 
94200 5.0111378352e+00 -2.6540899289e-03 2.7821543099e+00 -4.8188326193e+00 2.7821543099e+00 4.8188326193e+00 
94300 5.0111376735e+00 -2.6450921507e-03 2.7822020085e+00 -4.8189152357e+00 2.7822020085e+00 4.8189152357e+00 
94400 5.0111375129e+00 -2.6361255587e-03 2.7822495446e+00 -4.8189975706e+00 2.7822495446e+00 4.8189975706e+00 
94500 5.0111373534e+00 -2.6271900398e-03 2.7822969187e+00 -4.8190796250e+00 2.7822969187e+00 4.8190796250e+00 
94600 5.0111371950e+00 -2.6182854816e-03 2.7823441315e+00 -4.8191613999e+00 2.7823441315e+00 4.8191613999e+00 
94700 5.0111370375e+00 -2.6094117720e-03 2.7823911834e+00 -4.8192428962e+00 2.7823911834e+00 4.8192428962e+00 
94800 5.0111368812e+00 -2.6005687993e-03 2.7824380751e+00 -4.8193241149e+00 2.7824380751e+00 4.8193241149e+00 
94900 5.0111367258e+00 -2.5917564524e-03 2.7824848070e+00 -4.8194050571e+00 2.7824848070e+00 4.8194050571e+00 
95000 5.0111365715e+00 -2.5829746206e-03 2.7825313799e+00 -4.8194857236e+00 2.7825313799e+00 4.8194857236e+00 
95100 5.0111364182e+00 -2.5742231934e-03 2.7825777941e+00 -4.8195661154e+00 2.7825777941e+00 4.8195661154e+00 
95200 5.0111362659e+00 -2.5655020611e-03 2.7826240503e+00 -4.8196462335e+00 2.7826240503e+00 4.8196462335e+00 
95300 5.0111361147e+00 -2.5568111142e-03 2.7826701491e+00 -4.8197260789e+00 2.7826701491e+00 4.8197260789e+00 
95400 5.0111359644e+00 -2.5481502437e-03 2.7827160909e+00 -4.8198056524e+00 2.7827160909e+00 4.8198056524e+00 
95500 5.0111358152e+00 -2.5395193410e-03 2.7827618763e+00 -4.8198849551e+00 2.7827618763e+00 4.8198849551e+00 
95600 5.0111356669e+00 -2.5309182980e-03 2.7828075059e+00 -4.8199639879e+00 2.7828075059e+00 4.8199639879e+00 
95700 5.0111355196e+00 -2.5223470070e-03 2.7828529802e+00 -4.8200427517e+00 2.7828529802e+00 4.8200427517e+00 
95800 5.0111353733e+00 -2.5138053606e-03 2.7828982998e+00 -4.8201212475e+00 2.7828982998e+00 4.8201212475e+00 
95900 5.0111352279e+00 -2.5052932519e-03 2.7829434652e+00 -4.8201994762e+00 2.7829434652e+00 4.8201994762e+00 
96000 5.0111350835e+00 -2.4968105746e-03 2.7829884768e+00 -4.8202774388e+00 2.7829884768e+00 4.8202774388e+00 
96100 5.0111349401e+00 -2.4883572224e-03 2.7830333354e+00 -4.8203551361e+00 2.7830333354e+00 4.8203551361e+00 
96200 5.0111347976e+00 -2.4799330900e-03 2.7830780414e+00 -4.8204325691e+00 2.7830780414e+00 4.8204325691e+00 
96300 5.0111346561e+00 -2.4715380719e-03 2.7831225953e+00 -4.8205097387e+00 2.7831225953e+00 4.8205097387e+00 
96400 5.0111345155e+00 -2.4631720634e-03 2.7831669976e+00 -4.8205866459e+00 2.7831669976e+00 4.8205866459e+00 
96500 5.0111343758e+00 -2.4548349601e-03 2.7832112490e+00 -4.8206632915e+00 2.7832112490e+00 4.8206632915e+00 
96600 5.0111342371e+00 -2.4465266581e-03 2.7832553499e+00 -4.8207396764e+00 2.7832553499e+00 4.8207396764e+00 
96700 5.0111340992e+00 -2.4382470537e-03 2.7832993008e+00 -4.8208158017e+00 2.7832993008e+00 4.8208158017e+00 
96800 5.0111339623e+00 -2.4299960437e-03 2.7833431023e+00 -4.8208916681e+00 2.7833431023e+00 4.8208916681e+00 
96900 5.0111338263e+00 -2.4217735255e-03 2.7833867549e+00 -4.8209672766e+00 2.7833867549e+00 4.8209672766e+00 
97000 5.0111336912e+00 -2.4135793965e-03 2.7834302591e+00 -4.8210426281e+00 2.7834302591e+00 4.8210426281e+00 
97100 5.0111335570e+00 -2.4054135549e-03 2.7834736154e+00 -4.8211177234e+00 2.7834736154e+00 4.8211177234e+00 
97200 5.0111334237e+00 -2.3972758991e-03 2.7835168244e+00 -4.8211925635e+00 2.7835168244e+00 4.8211925635e+00 
97300 5.0111332913e+00 -2.3891663278e-03 2.7835598865e+00 -4.8212671493e+00 2.7835598865e+00 4.8212671493e+00 
97400 5.0111331597e+00 -2.3810847403e-03 2.7836028022e+00 -4.8213414816e+00 2.7836028022e+00 4.8213414816e+00 
97500 5.0111330290e+00 -2.3730310362e-03 2.7836455722e+00 -4.8214155613e+00 2.7836455722e+00 4.8214155613e+00 
97600 5.0111328992e+00 -2.3650051155e-03 2.7836881968e+00 -4.8214893893e+00 2.7836881968e+00 4.8214893893e+00 
97700 5.0111327702e+00 -2.3570068785e-03 2.7837306766e+00 -4.8215629665e+00 2.7837306766e+00 4.8215629665e+00 
97800 5.0111326421e+00 -2.3490362260e-03 2.7837730121e+00 -4.8216362938e+00 2.7837730121e+00 4.8216362938e+00 
97900 5.0111325149e+00 -2.3410930592e-03 2.7838152038e+00 -4.8217093719e+00 2.7838152038e+00 4.8217093719e+00 
98000 5.0111323884e+00 -2.3331772796e-03 2.7838572522e+00 -4.8217822019e+00 2.7838572522e+00 4.8217822019e+00 
98100 5.0111322629e+00 -2.3252887892e-03 2.7838991578e+00 -4.8218547845e+00 2.7838991578e+00 4.8218547845e+00 
98200 5.0111321381e+00 -2.3174274901e-03 2.7839409211e+00 -4.8219271206e+00 2.7839409211e+00 4.8219271206e+00 
98300 5.0111320142e+00 -2.3095932851e-03 2.7839825425e+00 -4.8219992110e+00 2.7839825425e+00 4.8219992110e+00 
98400 5.0111318911e+00 -2.3017860772e-03 2.7840240227e+00 -4.8220710567e+00 2.7840240227e+00 4.8220710567e+00 
98500 5.0111317688e+00 -2.2940057698e-03 2.7840653619e+00 -4.8221426585e+00 2.7840653619e+00 4.8221426585e+00 
98600 5.0111316473e+00 -2.2862522668e-03 2.7841065609e+00 -4.8222140172e+00 2.7841065609e+00 4.8222140172e+00 
98700 5.0111315267e+00 -2.2785254722e-03 2.7841476200e+00 -4.8222851336e+00 2.7841476200e+00 4.8222851336e+00 
98800 5.0111314068e+00 -2.2708252907e-03 2.7841885397e+00 -4.8223560086e+00 2.7841885397e+00 4.8223560086e+00 
98900 5.0111312877e+00 -2.2631516271e-03 2.7842293206e+00 -4.8224266431e+00 2.7842293206e+00 4.8224266431e+00 
99000 5.0111311694e+00 -2.2555043867e-03 2.7842699630e+00 -4.8224970379e+00 2.7842699630e+00 4.8224970379e+00 
99100 5.0111310519e+00 -2.2478834751e-03 2.7843104675e+00 -4.8225671938e+00 2.7843104675e+00 4.8225671938e+00 
99200 5.0111309352e+00 -2.2402887983e-03 2.7843508346e+00 -4.8226371116e+00 2.7843508346e+00 4.8226371116e+00 
99300 5.0111308193e+00 -2.2327202626e-03 2.7843910647e+00 -4.8227067921e+00 2.7843910647e+00 4.8227067921e+00 
99400 5.0111307041e+00 -2.2251777748e-03 2.7844311583e+00 -4.8227762363e+00 2.7844311583e+00 4.8227762363e+00 
99500 5.0111305896e+00 -2.2176612420e-03 2.7844711159e+00 -4.8228454449e+00 2.7844711159e+00 4.8228454449e+00 
99600 5.0111304760e+00 -2.2101705715e-03 2.7845109379e+00 -4.8229144187e+00 2.7845109379e+00 4.8229144187e+00 
99700 5.0111303631e+00 -2.2027056711e-03 2.7845506249e+00 -4.8229831585e+00 2.7845506249e+00 4.8229831585e+00 
99800 5.0111302509e+00 -2.1952664490e-03 2.7845901772e+00 -4.8230516652e+00 2.7845901772e+00 4.8230516652e+00 
99900 5.0111301395e+00 -2.1878528137e-03 2.7846295954e+00 -4.8231199396e+00 2.7846295954e+00 4.8231199396e+00 
100000 5.0111300288e+00 -2.1804646740e-03 2.7846688800e+00 -4.8231879824e+00 2.7846688800e+00 4.8231879824e+00 
100100 5.0111299189e+00 -2.1731019391e-03 2.7847080313e+00 -4.8232557945e+00 2.7847080313e+00 4.8232557945e+00 
100200 5.0111298096e+00 -2.1657645184e-03 2.7847470499e+00 -4.8233233766e+00 2.7847470499e+00 4.8233233766e+00 
100300 5.0111297011e+00 -2.1584523220e-03 2.7847859362e+00 -4.8233907297e+00 2.7847859362e+00 4.8233907297e+00 
100400 5.0111295934e+00 -2.1511652600e-03 2.7848246906e+00 -4.8234578544e+00 2.7848246906e+00 4.8234578544e+00 
100500 5.0111294863e+00 -2.1439032429e-03 2.7848633137e+00 -4.8235247515e+00 2.7848633137e+00 4.8235247515e+00 
100600 5.0111293799e+00 -2.1366661817e-03 2.7849018059e+00 -4.8235914219e+00 2.7849018059e+00 4.8235914219e+00 
100700 5.0111292743e+00 -2.1294539876e-03 2.7849401676e+00 -4.8236578663e+00 2.7849401676e+00 4.8236578663e+00 
100800 5.0111291693e+00 -2.1222665722e-03 2.7849783993e+00 -4.8237240855e+00 2.7849783993e+00 4.8237240855e+00 
100900 5.0111290651e+00 -2.1151038474e-03 2.7850165014e+00 -4.8237900803e+00 2.7850165014e+00 4.8237900803e+00 
101000 5.0111289615e+00 -2.1079657255e-03 2.7850544744e+00 -4.8238558515e+00 2.7850544744e+00 4.8238558515e+00 
101100 5.0111288586e+00 -2.1008521190e-03 2.7850923187e+00 -4.8239213998e+00 2.7850923187e+00 4.8239213998e+00 
101200 5.0111287564e+00 -2.0937629409e-03 2.7851300348e+00 -4.8239867260e+00 2.7851300348e+00 4.8239867260e+00 
101300 5.0111286549e+00 -2.0866981044e-03 2.7851676231e+00 -4.8240518309e+00 2.7851676231e+00 4.8240518309e+00 
101400 5.0111285540e+00 -2.0796575231e-03 2.7852050841e+00 -4.8241167152e+00 2.7852050841e+00 4.8241167152e+00 
101500 5.0111284539e+00 -2.0726411109e-03 2.7852424182e+00 -4.8241813798e+00 2.7852424182e+00 4.8241813798e+00 
101600 5.0111283543e+00 -2.0656487820e-03 2.7852796259e+00 -4.8242458253e+00 2.7852796259e+00 4.8242458253e+00 
101700 5.0111282555e+00 -2.0586804509e-03 2.7853167075e+00 -4.8243100525e+00 2.7853167075e+00 4.8243100525e+00 
101800 5.0111281573e+00 -2.0517360327e-03 2.7853536635e+00 -4.8243740622e+00 2.7853536635e+00 4.8243740622e+00 
101900 5.0111280597e+00 -2.0448154424e-03 2.7853904944e+00 -4.8244378552e+00 2.7853904944e+00 4.8244378552e+00 
102000 5.0111279628e+00 -2.0379185956e-03 2.7854272006e+00 -4.8245014321e+00 2.7854272006e+00 4.8245014321e+00 
102100 5.0111278665e+00 -2.0310454081e-03 2.7854637824e+00 -4.8245647938e+00 2.7854637824e+00 4.8245647938e+00 
102200 5.0111277709e+00 -2.0241957961e-03 2.7855002404e+00 -4.8246279410e+00 2.7855002404e+00 4.8246279410e+00 
102300 5.0111276759e+00 -2.0173696761e-03 2.7855365750e+00 -4.8246908743e+00 2.7855365750e+00 4.8246908743e+00 
102400 5.0111275815e+00 -2.0105669648e-03 2.7855727866e+00 -4.8247535946e+00 2.7855727866e+00 4.8247535946e+00 
102500 5.0111274878e+00 -2.0037875794e-03 2.7856088756e+00 -4.8248161026e+00 2.7856088756e+00 4.8248161026e+00 
102600 5.0111273947e+00 -1.9970314373e-03 2.7856448425e+00 -4.8248783990e+00 2.7856448425e+00 4.8248783990e+00 
102700 5.0111273022e+00 -1.9902984561e-03 2.7856806876e+00 -4.8249404846e+00 2.7856806876e+00 4.8249404846e+00 
102800 5.0111272103e+00 -1.9835885541e-03 2.7857164114e+00 -4.8250023601e+00 2.7857164114e+00 4.8250023601e+00 
102900 5.0111271190e+00 -1.9769016494e-03 2.7857520144e+00 -4.8250640261e+00 2.7857520144e+00 4.8250640261e+00 
103000 5.0111270283e+00 -1.9702376608e-03 2.7857874968e+00 -4.8251254835e+00 2.7857874968e+00 4.8251254835e+00 
103100 5.0111269382e+00 -1.9635965072e-03 2.7858228592e+00 -4.8251867330e+00 2.7858228592e+00 4.8251867330e+00 
103200 5.0111268487e+00 -1.9569781079e-03 2.7858581019e+00 -4.8252477752e+00 2.7858581019e+00 4.8252477752e+00 
103300 5.0111267598e+00 -1.9503823825e-03 2.7858932254e+00 -4.8253086109e+00 2.7858932254e+00 4.8253086109e+00 
103400 5.0111266715e+00 -1.9438092507e-03 2.7859282301e+00 -4.8253692408e+00 2.7859282301e+00 4.8253692408e+00 
103500 5.0111265838e+00 -1.9372586329e-03 2.7859631164e+00 -4.8254296656e+00 2.7859631164e+00 4.8254296656e+00 
103600 5.0111264967e+00 -1.9307304495e-03 2.7859978847e+00 -4.8254898860e+00 2.7859978847e+00 4.8254898860e+00 
103700 5.0111264101e+00 -1.9242246212e-03 2.7860325354e+00 -4.8255499028e+00 2.7860325354e+00 4.8255499028e+00 
103800 5.0111263241e+00 -1.9177410691e-03 2.7860670688e+00 -4.8256097165e+00 2.7860670688e+00 4.8256097165e+00 
103900 5.0111262387e+00 -1.9112797146e-03 2.7861014855e+00 -4.8256693280e+00 2.7861014855e+00 4.8256693280e+00 
104000 5.0111261539e+00 -1.9048404793e-03 2.7861357859e+00 -4.8257287379e+00 2.7861357859e+00 4.8257287379e+00 
104100 5.0111260696e+00 -1.8984232852e-03 2.7861699702e+00 -4.8257879469e+00 2.7861699702e+00 4.8257879469e+00 
104200 5.0111259858e+00 -1.8920280546e-03 2.7862040390e+00 -4.8258469558e+00 2.7862040390e+00 4.8258469558e+00 
104300 5.0111259027e+00 -1.8856547099e-03 2.7862379926e+00 -4.8259057651e+00 2.7862379926e+00 4.8259057651e+00 
104400 5.0111258200e+00 -1.8793031740e-03 2.7862718313e+00 -4.8259643756e+00 2.7862718313e+00 4.8259643756e+00 
104500 5.0111257380e+00 -1.8729733700e-03 2.7863055557e+00 -4.8260227880e+00 2.7863055557e+00 4.8260227880e+00 
104600 5.0111256564e+00 -1.8666652213e-03 2.7863391661e+00 -4.8260810029e+00 2.7863391661e+00 4.8260810029e+00 
104700 5.0111255754e+00 -1.8603786517e-03 2.7863726630e+00 -4.8261390211e+00 2.7863726630e+00 4.8261390211e+00 
104800 5.0111254950e+00 -1.8541135849e-03 2.7864060465e+00 -4.8261968431e+00 2.7864060465e+00 4.8261968431e+00 
104900 5.0111254150e+00 -1.8478699454e-03 2.7864393173e+00 -4.8262544698e+00 2.7864393173e+00 4.8262544698e+00 
105000 5.0111253356e+00 -1.8416476577e-03 2.7864724756e+00 -4.8263119017e+00 2.7864724756e+00 4.8263119017e+00 
105100 5.0111252568e+00 -1.8354466465e-03 2.7865055219e+00 -4.8263691395e+00 2.7865055219e+00 4.8263691395e+00 
105200 5.0111251784e+00 -1.8292668370e-03 2.7865384565e+00 -4.8264261840e+00 2.7865384565e+00 4.8264261840e+00 
105300 5.0111251006e+00 -1.8231081545e-03 2.7865712799e+00 -4.8264830357e+00 2.7865712799e+00 4.8264830357e+00 
105400 5.0111250233e+00 -1.8169705248e-03 2.7866039923e+00 -4.8265396953e+00 2.7866039923e+00 4.8265396953e+00 
105500 5.0111249465e+00 -1.8108538737e-03 2.7866365943e+00 -4.8265961635e+00 2.7866365943e+00 4.8265961635e+00 
105600 5.0111248702e+00 -1.8047581274e-03 2.7866690861e+00 -4.8266524410e+00 2.7866690861e+00 4.8266524410e+00 
105700 5.0111247944e+00 -1.7986832125e-03 2.7867014682e+00 -4.8267085284e+00 2.7867014682e+00 4.8267085284e+00 
105800 5.0111247191e+00 -1.7926290556e-03 2.7867337408e+00 -4.8267644263e+00 2.7867337408e+00 4.8267644263e+00 
105900 5.0111246443e+00 -1.7865955839e-03 2.7867659045e+00 -4.8268201354e+00 2.7867659045e+00 4.8268201354e+00 
106000 5.0111245700e+00 -1.7805827245e-03 2.7867979596e+00 -4.8268756564e+00 2.7867979596e+00 4.8268756564e+00 
106100 5.0111244962e+00 -1.7745904052e-03 2.7868299064e+00 -4.8269309899e+00 2.7868299064e+00 4.8269309899e+00 
106200 5.0111244229e+00 -1.7686185536e-03 2.7868617453e+00 -4.8269861366e+00 2.7868617453e+00 4.8269861366e+00 
106300 5.0111243500e+00 -1.7626670980e-03 2.7868934768e+00 -4.8270410970e+00 2.7868934768e+00 4.8270410970e+00 
106400 5.0111242777e+00 -1.7567359667e-03 2.7869251010e+00 -4.8270958719e+00 2.7869251010e+00 4.8270958719e+00 
106500 5.0111242058e+00 -1.7508250882e-03 2.7869566186e+00 -4.8271504618e+00 2.7869566186e+00 4.8271504618e+00 
106600 5.0111241344e+00 -1.7449343916e-03 2.7869880297e+00 -4.8272048675e+00 2.7869880297e+00 4.8272048675e+00 
106700 5.0111240635e+00 -1.7390638060e-03 2.7870193348e+00 -4.8272590895e+00 2.7870193348e+00 4.8272590895e+00 
106800 5.0111239931e+00 -1.7332132608e-03 2.7870505342e+00 -4.8273131284e+00 2.7870505342e+00 4.8273131284e+00 
106900 5.0111239231e+00 -1.7273826858e-03 2.7870816283e+00 -4.8273669850e+00 2.7870816283e+00 4.8273669850e+00 
107000 5.0111238536e+00 -1.7215720107e-03 2.7871126174e+00 -4.8274206598e+00 2.7871126174e+00 4.8274206598e+00 
107100 5.0111237845e+00 -1.7157811659e-03 2.7871435020e+00 -4.8274741534e+00 2.7871435020e+00 4.8274741534e+00 
107200 5.0111237159e+00 -1.7100100819e-03 2.7871742823e+00 -4.8275274665e+00 2.7871742823e+00 4.8275274665e+00 
107300 5.0111236477e+00 -1.7042586892e-03 2.7872049588e+00 -4.8275805997e+00 2.7872049588e+00 4.8275805997e+00 
107400 5.0111235800e+00 -1.6985269190e-03 2.7872355317e+00 -4.8276335536e+00 2.7872355317e+00 4.8276335536e+00 
107500 5.0111235128e+00 -1.6928147024e-03 2.7872660015e+00 -4.8276863289e+00 2.7872660015e+00 4.8276863289e+00 
107600 5.0111234460e+00 -1.6871219710e-03 2.7872963685e+00 -4.8277389261e+00 2.7872963685e+00 4.8277389261e+00 
107700 5.0111233796e+00 -1.6814486564e-03 2.7873266331e+00 -4.8277913458e+00 2.7873266331e+00 4.8277913458e+00 
107800 5.0111233137e+00 -1.6757946907e-03 2.7873567955e+00 -4.8278435887e+00 2.7873567955e+00 4.8278435887e+00 
107900 5.0111232482e+00 -1.6701600061e-03 2.7873868562e+00 -4.8278956553e+00 2.7873868562e+00 4.8278956553e+00 
108000 5.0111231832e+00 -1.6645445351e-03 2.7874168155e+00 -4.8279475463e+00 2.7874168155e+00 4.8279475463e+00 
108100 5.0111231185e+00 -1.6589482104e-03 2.7874466738e+00 -4.8279992623e+00 2.7874466738e+00 4.8279992623e+00 
108200 5.0111230543e+00 -1.6533709650e-03 2.7874764313e+00 -4.8280508039e+00 2.7874764313e+00 4.8280508039e+00 
108300 5.0111229906e+00 -1.6478127322e-03 2.7875060885e+00 -4.8281021717e+00 2.7875060885e+00 4.8281021717e+00 
108400 5.0111229272e+00 -1.6422734454e-03 2.7875356456e+00 -4.8281533662e+00 2.7875356456e+00 4.8281533662e+00 
108500 5.0111228643e+00 -1.6367530383e-03 2.7875651031e+00 -4.8282043880e+00 2.7875651031e+00 4.8282043880e+00 
108600 5.0111228018e+00 -1.6312514449e-03 2.7875944613e+00 -4.8282552379e+00 2.7875944613e+00 4.8282552379e+00 
108700 5.0111227397e+00 -1.6257685995e-03 2.7876237205e+00 -4.8283059163e+00 2.7876237205e+00 4.8283059163e+00 
108800 5.0111226780e+00 -1.6203044364e-03 2.7876528810e+00 -4.8283564238e+00 2.7876528810e+00 4.8283564238e+00 
108900 5.0111226167e+00 -1.6148588904e-03 2.7876819432e+00 -4.8284067610e+00 2.7876819432e+00 4.8284067610e+00 
109000 5.0111225558e+00 -1.6094318964e-03 2.7877109075e+00 -4.8284569285e+00 2.7877109075e+00 4.8284569285e+00 
109100 5.0111224954e+00 -1.6040233895e-03 2.7877397741e+00 -4.8285069270e+00 2.7877397741e+00 4.8285069270e+00 
109200 5.0111224353e+00 -1.5986333052e-03 2.7877685434e+00 -4.8285567568e+00 2.7877685434e+00 4.8285567568e+00 
109300 5.0111223756e+00 -1.5932615792e-03 2.7877972157e+00 -4.8286064188e+00 2.7877972157e+00 4.8286064188e+00 
109400 5.0111223163e+00 -1.5879081472e-03 2.7878257914e+00 -4.8286559133e+00 2.7878257914e+00 4.8286559133e+00 
109500 5.0111222575e+00 -1.5825729454e-03 2.7878542707e+00 -4.8287052410e+00 2.7878542707e+00 4.8287052410e+00 
109600 5.0111221990e+00 -1.5772559101e-03 2.7878826541e+00 -4.8287544025e+00 2.7878826541e+00 4.8287544025e+00 
109700 5.0111221408e+00 -1.5719569780e-03 2.7879109419e+00 -4.8288033983e+00 2.7879109419e+00 4.8288033983e+00 
109800 5.0111220831e+00 -1.5666760859e-03 2.7879391343e+00 -4.8288522291e+00 2.7879391343e+00 4.8288522291e+00 
109900 5.0111220258e+00 -1.5614131707e-03 2.7879672318e+00 -4.8289008952e+00 2.7879672318e+00 4.8289008952e+00 
110000 5.0111219688e+00 -1.5561681698e-03 2.7879952345e+00 -4.8289493974e+00 2.7879952345e+00 4.8289493974e+00 
110100 5.0111219122e+00 -1.5509410207e-03 2.7880231429e+00 -4.8289977362e+00 2.7880231429e+00 4.8289977362e+00 
110200 5.0111218560e+00 -1.5457316611e-03 2.7880509573e+00 -4.8290459122e+00 2.7880509573e+00 4.8290459122e+00 
110300 5.0111218002e+00 -1.5405400290e-03 2.7880786780e+00 -4.8290939258e+00 2.7880786780e+00 4.8290939258e+00 
110400 5.0111217447e+00 -1.5353660625e-03 2.7881063053e+00 -4.8291417778e+00 2.7881063053e+00 4.8291417778e+00 
110500 5.0111216896e+00 -1.5302097000e-03 2.7881338396e+00 -4.8291894685e+00 2.7881338396e+00 4.8291894685e+00 
110600 5.0111216349e+00 -1.5250708803e-03 2.7881612811e+00 -4.8292369986e+00 2.7881612811e+00 4.8292369986e+00 
110700 5.0111215805e+00 -1.5199495421e-03 2.7881886302e+00 -4.8292843686e+00 2.7881886302e+00 4.8292843686e+00 
110800 5.0111215265e+00 -1.5148456246e-03 2.7882158872e+00 -4.8293315791e+00 2.7882158872e+00 4.8293315791e+00 
110900 5.0111214728e+00 -1.5097590670e-03 2.7882430524e+00 -4.8293786305e+00 2.7882430524e+00 4.8293786305e+00 
111000 5.0111214195e+00 -1.5046898089e-03 2.7882701261e+00 -4.8294255236e+00 2.7882701261e+00 4.8294255236e+00 
111100 5.0111213666e+00 -1.4996377901e-03 2.7882971086e+00 -4.8294722587e+00 2.7882971086e+00 4.8294722587e+00 
111200 5.0111213140e+00 -1.4946029504e-03 2.7883240003e+00 -4.8295188365e+00 2.7883240003e+00 4.8295188365e+00 
111300 5.0111212617e+00 -1.4895852301e-03 2.7883508014e+00 -4.8295652574e+00 2.7883508014e+00 4.8295652574e+00 
111400 5.0111212098e+00 -1.4845845696e-03 2.7883775123e+00 -4.8296115221e+00 2.7883775123e+00 4.8296115221e+00 
111500 5.0111211583e+00 -1.4796009095e-03 2.7884041333e+00 -4.8296576310e+00 2.7884041333e+00 4.8296576310e+00 
111600 5.0111211070e+00 -1.4746341906e-03 2.7884306647e+00 -4.8297035846e+00 2.7884306647e+00 4.8297035846e+00 
111700 5.0111210562e+00 -1.4696843540e-03 2.7884571067e+00 -4.8297493836e+00 2.7884571067e+00 4.8297493836e+00 
111800 5.0111210056e+00 -1.4647513410e-03 2.7884834598e+00 -4.8297950284e+00 2.7884834598e+00 4.8297950284e+00 
111900 5.0111209554e+00 -1.4598350930e-03 2.7885097241e+00 -4.8298405196e+00 2.7885097241e+00 4.8298405196e+00 
112000 5.0111209055e+00 -1.4549355518e-03 2.7885359001e+00 -4.8298858577e+00 2.7885359001e+00 4.8298858577e+00 
112100 5.0111208560e+00 -1.4500526591e-03 2.7885619879e+00 -4.8299310431e+00 2.7885619879e+00 4.8299310431e+00 
112200 5.0111208068e+00 -1.4451863572e-03 2.7885879880e+00 -4.8299760765e+00 2.7885879880e+00 4.8299760765e+00 
112300 5.0111207579e+00 -1.4403365884e-03 2.7886139005e+00 -4.8300209584e+00 2.7886139005e+00 4.8300209584e+00 
112400 5.0111207093e+00 -1.4355032952e-03 2.7886397259e+00 -4.8300656892e+00 2.7886397259e+00 4.8300656892e+00 
112500 5.0111206610e+00 -1.4306864203e-03 2.7886654643e+00 -4.8301102695e+00 2.7886654643e+00 4.8301102695e+00 
112600 5.0111206131e+00 -1.4258859068e-03 2.7886911162e+00 -4.8301546998e+00 2.7886911162e+00 4.8301546998e+00 
112700 5.0111205655e+00 -1.4211016976e-03 2.7887166817e+00 -4.8301989806e+00 2.7887166817e+00 4.8301989806e+00 
112800 5.0111205182e+00 -1.4163337363e-03 2.7887421612e+00 -4.8302431125e+00 2.7887421612e+00 4.8302431125e+00 
112900 5.0111204712e+00 -1.4115819664e-03 2.7887675551e+00 -4.8302870959e+00 2.7887675551e+00 4.8302870959e+00 
113000 5.0111204245e+00 -1.4068463316e-03 2.7887928634e+00 -4.8303309313e+00 2.7887928634e+00 4.8303309313e+00 
113100 5.0111203782e+00 -1.4021267760e-03 2.7888180867e+00 -4.8303746192e+00 2.7888180867e+00 4.8303746192e+00 
113200 5.0111203321e+00 -1.3974232437e-03 2.7888432251e+00 -4.8304181602e+00 2.7888432251e+00 4.8304181602e+00 
113300 5.0111202864e+00 -1.3927356790e-03 2.7888682790e+00 -4.8304615548e+00 2.7888682790e+00 4.8304615548e+00 
113400 5.0111202409e+00 -1.3880640266e-03 2.7888932485e+00 -4.8305048034e+00 2.7888932485e+00 4.8305048034e+00 
113500 5.0111201958e+00 -1.3834082313e-03 2.7889181342e+00 -4.8305479065e+00 2.7889181342e+00 4.8305479065e+00 
113600 5.0111201509e+00 -1.3787682380e-03 2.7889429361e+00 -4.8305908647e+00 2.7889429361e+00 4.8305908647e+00 
113700 5.0111201064e+00 -1.3741439920e-03 2.7889676546e+00 -4.8306336784e+00 2.7889676546e+00 4.8306336784e+00 
113800 5.0111200621e+00 -1.3695354385e-03 2.7889922900e+00 -4.8306763481e+00 2.7889922900e+00 4.8306763481e+00 
113900 5.0111200181e+00 -1.3649425232e-03 2.7890168425e+00 -4.8307188744e+00 2.7890168425e+00 4.8307188744e+00 
114000 5.0111199745e+00 -1.3603651918e-03 2.7890413125e+00 -4.8307612577e+00 2.7890413125e+00 4.8307612577e+00 
114100 5.0111199311e+00 -1.3558033904e-03 2.7890657002e+00 -4.8308034984e+00 2.7890657002e+00 4.8308034984e+00 
114200 5.0111198880e+00 -1.3512570650e-03 2.7890900060e+00 -4.8308455972e+00 2.7890900060e+00 4.8308455972e+00 
114300 5.0111198452e+00 -1.3467261620e-03 2.7891142300e+00 -4.8308875544e+00 2.7891142300e+00 4.8308875544e+00 
114400 5.0111198026e+00 -1.3422106281e-03 2.7891383725e+00 -4.8309293706e+00 2.7891383725e+00 4.8309293706e+00 
114500 5.0111197604e+00 -1.3377104098e-03 2.7891624340e+00 -4.8309710462e+00 2.7891624340e+00 4.8309710462e+00 
114600 5.0111197184e+00 -1.3332254543e-03 2.7891864145e+00 -4.8310125817e+00 2.7891864145e+00 4.8310125817e+00 
114700 5.0111196767e+00 -1.3287557085e-03 2.7892103144e+00 -4.8310539776e+00 2.7892103144e+00 4.8310539776e+00 
114800 5.0111196353e+00 -1.3243011198e-03 2.7892341340e+00 -4.8310952344e+00 2.7892341340e+00 4.8310952344e+00 
114900 5.0111195942e+00 -1.3198616358e-03 2.7892578736e+00 -4.8311363525e+00 2.7892578736e+00 4.8311363525e+00 
115000 5.0111195533e+00 -1.3154372040e-03 2.7892815333e+00 -4.8311773324e+00 2.7892815333e+00 4.8311773324e+00 
115100 5.0111195127e+00 -1.3110277725e-03 2.7893051136e+00 -4.8312181746e+00 2.7893051136e+00 4.8312181746e+00 
115200 5.0111194724e+00 -1.3066332892e-03 2.7893286146e+00 -4.8312588795e+00 2.7893286146e+00 4.8312588795e+00 
115300 5.0111194323e+00 -1.3022537024e-03 2.7893520366e+00 -4.8312994477e+00 2.7893520366e+00 4.8312994477e+00 
115400 5.0111193925e+00 -1.2978889606e-03 2.7893753800e+00 -4.8313398795e+00 2.7893753800e+00 4.8313398795e+00 
115500 5.0111193530e+00 -1.2935390125e-03 2.7893986449e+00 -4.8313801755e+00 2.7893986449e+00 4.8313801755e+00 
115600 5.0111193137e+00 -1.2892038067e-03 2.7894218316e+00 -4.8314203361e+00 2.7894218316e+00 4.8314203361e+00 
115700 5.0111192747e+00 -1.2848832924e-03 2.7894449404e+00 -4.8314603617e+00 2.7894449404e+00 4.8314603617e+00 
115800 5.0111192359e+00 -1.2805774186e-03 2.7894679716e+00 -4.8315002530e+00 2.7894679716e+00 4.8315002530e+00 
115900 5.0111191974e+00 -1.2762861349e-03 2.7894909255e+00 -4.8315400101e+00 2.7894909255e+00 4.8315400101e+00 
116000 5.0111191592e+00 -1.2720093906e-03 2.7895138022e+00 -4.8315796338e+00 2.7895138022e+00 4.8315796338e+00 
116100 5.0111191212e+00 -1.2677471356e-03 2.7895366020e+00 -4.8316191243e+00 2.7895366020e+00 4.8316191243e+00 
116200 5.0111190834e+00 -1.2634993197e-03 2.7895593253e+00 -4.8316584822e+00 2.7895593253e+00 4.8316584822e+00 
116300 5.0111190459e+00 -1.2592658931e-03 2.7895819723e+00 -4.8316977079e+00 2.7895819723e+00 4.8316977079e+00 
116400 5.0111190087e+00 -1.2550468059e-03 2.7896045432e+00 -4.8317368018e+00 2.7896045432e+00 4.8317368018e+00 
116500 5.0111189717e+00 -1.2508420088e-03 2.7896270383e+00 -4.8317757645e+00 2.7896270383e+00 4.8317757645e+00 
116600 5.0111189350e+00 -1.2466514522e-03 2.7896494578e+00 -4.8318145963e+00 2.7896494578e+00 4.8318145963e+00 
116700 5.0111188985e+00 -1.2424750869e-03 2.7896718021e+00 -4.8318532977e+00 2.7896718021e+00 4.8318532977e+00 
116800 5.0111188622e+00 -1.2383128641e-03 2.7896940713e+00 -4.8318918691e+00 2.7896940713e+00 4.8318918691e+00 
116900 5.0111188262e+00 -1.2341647347e-03 2.7897162658e+00 -4.8319303110e+00 2.7897162658e+00 4.8319303110e+00 
117000 5.0111187904e+00 -1.2300306502e-03 2.7897383857e+00 -4.8319686239e+00 2.7897383857e+00 4.8319686239e+00 
117100 5.0111187548e+00 -1.2259105620e-03 2.7897604314e+00 -4.8320068081e+00 2.7897604314e+00 4.8320068081e+00 
117200 5.0111187195e+00 -1.2218044218e-03 2.7897824030e+00 -4.8320448641e+00 2.7897824030e+00 4.8320448641e+00 
117300 5.0111186844e+00 -1.2177121814e-03 2.7898043009e+00 -4.8320827923e+00 2.7898043009e+00 4.8320827923e+00 
117400 5.0111186496e+00 -1.2136337930e-03 2.7898261252e+00 -4.8321205932e+00 2.7898261252e+00 4.8321205932e+00 
117500 5.0111186150e+00 -1.2095692086e-03 2.7898478763e+00 -4.8321582672e+00 2.7898478763e+00 4.8321582672e+00 
117600 5.0111185806e+00 -1.2055183806e-03 2.7898695544e+00 -4.8321958147e+00 2.7898695544e+00 4.8321958147e+00 
117700 5.0111185464e+00 -1.2014812616e-03 2.7898911597e+00 -4.8322332362e+00 2.7898911597e+00 4.8322332362e+00 
117800 5.0111185125e+00 -1.1974578043e-03 2.7899126925e+00 -4.8322705321e+00 2.7899126925e+00 4.8322705321e+00 
117900 5.0111184788e+00 -1.1934479615e-03 2.7899341530e+00 -4.8323077028e+00 2.7899341530e+00 4.8323077028e+00 
118000 5.0111184453e+00 -1.1894516863e-03 2.7899555415e+00 -4.8323447488e+00 2.7899555415e+00 4.8323447488e+00 
118100 5.0111184120e+00 -1.1854689319e-03 2.7899768582e+00 -4.8323816704e+00 2.7899768582e+00 4.8323816704e+00 
118200 5.0111183789e+00 -1.1814996517e-03 2.7899981034e+00 -4.8324184681e+00 2.7899981034e+00 4.8324184681e+00 
118300 5.0111183461e+00 -1.1775437992e-03 2.7900192773e+00 -4.8324551423e+00 2.7900192773e+00 4.8324551423e+00 
118400 5.0111183135e+00 -1.1736013281e-03 2.7900403801e+00 -4.8324916935e+00 2.7900403801e+00 4.8324916935e+00 
118500 5.0111182811e+00 -1.1696721923e-03 2.7900614121e+00 -4.8325281220e+00 2.7900614121e+00 4.8325281220e+00 
118600 5.0111182489e+00 -1.1657563458e-03 2.7900823735e+00 -4.8325644282e+00 2.7900823735e+00 4.8325644282e+00 
118700 5.0111182170e+00 -1.1618537428e-03 2.7901032646e+00 -4.8326006127e+00 2.7901032646e+00 4.8326006127e+00 
118800 5.0111181852e+00 -1.1579643378e-03 2.7901240856e+00 -4.8326366757e+00 2.7901240856e+00 4.8326366757e+00 
118900 5.0111181537e+00 -1.1540880852e-03 2.7901448368e+00 -4.8326726178e+00 2.7901448368e+00 4.8326726178e+00 
119000 5.0111181223e+00 -1.1502249396e-03 2.7901655183e+00 -4.8327084392e+00 2.7901655183e+00 4.8327084392e+00 
119100 5.0111180912e+00 -1.1463748561e-03 2.7901861305e+00 -4.8327441405e+00 2.7901861305e+00 4.8327441405e+00 
119200 5.0111180603e+00 -1.1425377895e-03 2.7902066735e+00 -4.8327797220e+00 2.7902066735e+00 4.8327797220e+00 
119300 5.0111180295e+00 -1.1387136951e-03 2.7902271476e+00 -4.8328151842e+00 2.7902271476e+00 4.8328151842e+00 
119400 5.0111179990e+00 -1.1349025282e-03 2.7902475530e+00 -4.8328505274e+00 2.7902475530e+00 4.8328505274e+00 
119500 5.0111179687e+00 -1.1311042442e-03 2.7902678899e+00 -4.8328857521e+00 2.7902678899e+00 4.8328857521e+00 
119600 5.0111179386e+00 -1.1273187989e-03 2.7902881587e+00 -4.8329208586e+00 2.7902881587e+00 4.8329208586e+00 
119700 5.0111179087e+00 -1.1235461480e-03 2.7903083595e+00 -4.8329558474e+00 2.7903083595e+00 4.8329558474e+00 
119800 5.0111178790e+00 -1.1197862475e-03 2.7903284925e+00 -4.8329907189e+00 2.7903284925e+00 4.8329907189e+00 
119900 5.0111178494e+00 -1.1160390535e-03 2.7903485580e+00 -4.8330254734e+00 2.7903485580e+00 4.8330254734e+00 
120000 5.0111178201e+00 -1.1123045223e-03 2.7903685563e+00 -4.8330601113e+00 2.7903685563e+00 4.8330601113e+00 
120100 5.0111177910e+00 -1.1085826103e-03 2.7903884874e+00 -4.8330946331e+00 2.7903884874e+00 4.8330946331e+00 
120200 5.0111177620e+00 -1.1048732742e-03 2.7904083518e+00 -4.8331290391e+00 2.7904083518e+00 4.8331290391e+00 
120300 5.0111177333e+00 -1.1011764706e-03 2.7904281495e+00 -4.8331633298e+00 2.7904281495e+00 4.8331633298e+00 
120400 5.0111177047e+00 -1.0974921565e-03 2.7904478808e+00 -4.8331975055e+00 2.7904478808e+00 4.8331975055e+00 
120500 5.0111176764e+00 -1.0938202889e-03 2.7904675460e+00 -4.8332315666e+00 2.7904675460e+00 4.8332315666e+00 
120600 5.0111176482e+00 -1.0901608250e-03 2.7904871453e+00 -4.8332655135e+00 2.7904871453e+00 4.8332655135e+00 
120700 5.0111176202e+00 -1.0865137221e-03 2.7905066788e+00 -4.8332993466e+00 2.7905066788e+00 4.8332993466e+00 
120800 5.0111175924e+00 -1.0828789378e-03 2.7905261469e+00 -4.8333330662e+00 2.7905261469e+00 4.8333330662e+00 
120900 5.0111175648e+00 -1.0792564298e-03 2.7905455497e+00 -4.8333666729e+00 2.7905455497e+00 4.8333666729e+00 
121000 5.0111175373e+00 -1.0756461557e-03 2.7905648874e+00 -4.8334001668e+00 2.7905648874e+00 4.8334001668e+00 
121100 5.0111175101e+00 -1.0720480737e-03 2.7905841604e+00 -4.8334335485e+00 2.7905841604e+00 4.8334335485e+00 
121200 5.0111174830e+00 -1.0684621417e-03 2.7906033687e+00 -4.8334668183e+00 2.7906033687e+00 4.8334668183e+00 
121300 5.0111174561e+00 -1.0648883181e-03 2.7906225126e+00 -4.8334999766e+00 2.7906225126e+00 4.8334999766e+00 
121400 5.0111174294e+00 -1.0613265612e-03 2.7906415924e+00 -4.8335330238e+00 2.7906415924e+00 4.8335330238e+00 
121500 5.0111174028e+00 -1.0577768297e-03 2.7906606083e+00 -4.8335659602e+00 2.7906606083e+00 4.8335659602e+00 
121600 5.0111173764e+00 -1.0542390821e-03 2.7906795604e+00 -4.8335987862e+00 2.7906795604e+00 4.8335987862e+00 
121700 5.0111173502e+00 -1.0507132773e-03 2.7906984490e+00 -4.8336315022e+00 2.7906984490e+00 4.8336315022e+00 
121800 5.0111173242e+00 -1.0471993744e-03 2.7907172743e+00 -4.8336641086e+00 2.7907172743e+00 4.8336641086e+00 
121900 5.0111172984e+00 -1.0436973324e-03 2.7907360365e+00 -4.8336966057e+00 2.7907360365e+00 4.8336966057e+00 
122000 5.0111172727e+00 -1.0402071107e-03 2.7907547358e+00 -4.8337289939e+00 2.7907547358e+00 4.8337289939e+00 
122100 5.0111172472e+00 -1.0367286686e-03 2.7907733725e+00 -4.8337612736e+00 2.7907733725e+00 4.8337612736e+00 
122200 5.0111172218e+00 -1.0332619657e-03 2.7907919467e+00 -4.8337934451e+00 2.7907919467e+00 4.8337934451e+00 
122300 5.0111171967e+00 -1.0298069618e-03 2.7908104587e+00 -4.8338255088e+00 2.7908104587e+00 4.8338255088e+00 
122400 5.0111171717e+00 -1.0263636166e-03 2.7908289087e+00 -4.8338574651e+00 2.7908289087e+00 4.8338574651e+00 
122500 5.0111171468e+00 -1.0229318903e-03 2.7908472969e+00 -4.8338893144e+00 2.7908472969e+00 4.8338893144e+00 
122600 5.0111171221e+00 -1.0195117428e-03 2.7908656235e+00 -4.8339210569e+00 2.7908656235e+00 4.8339210569e+00 
122700 5.0111170976e+00 -1.0161031345e-03 2.7908838886e+00 -4.8339526931e+00 2.7908838886e+00 4.8339526931e+00 
122800 5.0111170733e+00 -1.0127060259e-03 2.7909020926e+00 -4.8339842234e+00 2.7909020926e+00 4.8339842234e+00 
122900 5.0111170491e+00 -1.0093203774e-03 2.7909202356e+00 -4.8340156480e+00 2.7909202356e+00 4.8340156480e+00 
123000 5.0111170250e+00 -1.0059461497e-03 2.7909383179e+00 -4.8340469673e+00 2.7909383179e+00 4.8340469673e+00 
123100 5.0111170012e+00 -1.0025833038e-03 2.7909563395e+00 -4.8340781818e+00 2.7909563395e+00 4.8340781818e+00 
123200 5.0111169775e+00 -9.9923180053e-04 2.7909743008e+00 -4.8341092916e+00 2.7909743008e+00 4.8341092916e+00 
123300 5.0111169539e+00 -9.9589160104e-04 2.7909922020e+00 -4.8341402973e+00 2.7909922020e+00 4.8341402973e+00 
123400 5.0111169305e+00 -9.9256266658e-04 2.7910100432e+00 -4.8341711992e+00 2.7910100432e+00 4.8341711992e+00 
123500 5.0111169073e+00 -9.8924495853e-04 2.7910278246e+00 -4.8342019976e+00 2.7910278246e+00 4.8342019976e+00 
123600 5.0111168842e+00 -9.8593843842e-04 2.7910455465e+00 -4.8342326928e+00 2.7910455465e+00 4.8342326928e+00 
123700 5.0111168612e+00 -9.8264306790e-04 2.7910632091e+00 -4.8342632852e+00 2.7910632091e+00 4.8342632852e+00 
123800 5.0111168384e+00 -9.7935880878e-04 2.7910808125e+00 -4.8342937752e+00 2.7910808125e+00 4.8342937752e+00 
123900 5.0111168158e+00 -9.7608562296e-04 2.7910983569e+00 -4.8343241631e+00 2.7910983569e+00 4.8343241631e+00 
124000 5.0111167933e+00 -9.7282347252e-04 2.7911158426e+00 -4.8343544492e+00 2.7911158426e+00 4.8343544492e+00 
124100 5.0111167710e+00 -9.6957231966e-04 2.7911332698e+00 -4.8343846340e+00 2.7911332698e+00 4.8343846340e+00 
124200 5.0111167488e+00 -9.6633212670e-04 2.7911506386e+00 -4.8344147176e+00 2.7911506386e+00 4.8344147176e+00 
124300 5.0111167267e+00 -9.6310285610e-04 2.7911679492e+00 -4.8344447006e+00 2.7911679492e+00 4.8344447006e+00 
124400 5.0111167048e+00 -9.5988447047e-04 2.7911852020e+00 -4.8344745831e+00 2.7911852020e+00 4.8344745831e+00 
124500 5.0111166831e+00 -9.5667693251e-04 2.7912023969e+00 -4.8345043656e+00 2.7912023969e+00 4.8345043656e+00 
124600 5.0111166615e+00 -9.5348020511e-04 2.7912195343e+00 -4.8345340484e+00 2.7912195343e+00 4.8345340484e+00 
124700 5.0111166400e+00 -9.5029425123e-04 2.7912366143e+00 -4.8345636319e+00 2.7912366143e+00 4.8345636319e+00 
124800 5.0111166187e+00 -9.4711903400e-04 2.7912536371e+00 -4.8345931163e+00 2.7912536371e+00 4.8345931163e+00 
124900 5.0111165975e+00 -9.4395451667e-04 2.7912706030e+00 -4.8346225020e+00 2.7912706030e+00 4.8346225020e+00 
125000 5.0111165765e+00 -9.4080066262e-04 2.7912875120e+00 -4.8346517894e+00 2.7912875120e+00 4.8346517894e+00 
125100 5.0111165556e+00 -9.3765743535e-04 2.7913043645e+00 -4.8346809787e+00 2.7913043645e+00 4.8346809787e+00 
125200 5.0111165348e+00 -9.3452479849e-04 2.7913211606e+00 -4.8347100703e+00 2.7913211606e+00 4.8347100703e+00 
125300 5.0111165142e+00 -9.3140271583e-04 2.7913379004e+00 -4.8347390646e+00 2.7913379004e+00 4.8347390646e+00 
125400 5.0111164937e+00 -9.2829115123e-04 2.7913545842e+00 -4.8347679618e+00 2.7913545842e+00 4.8347679618e+00 
125500 5.0111164733e+00 -9.2519006873e-04 2.7913712122e+00 -4.8347967623e+00 2.7913712122e+00 4.8347967623e+00 
125600 5.0111164531e+00 -9.2209943246e-04 2.7913877846e+00 -4.8348254665e+00 2.7913877846e+00 4.8348254665e+00 
125700 5.0111164330e+00 -9.1901920670e-04 2.7914043014e+00 -4.8348540746e+00 2.7914043014e+00 4.8348540746e+00 
125800 5.0111164130e+00 -9.1594935584e-04 2.7914207630e+00 -4.8348825869e+00 2.7914207630e+00 4.8348825869e+00 
125900 5.0111163932e+00 -9.1288984440e-04 2.7914371696e+00 -4.8349110038e+00 2.7914371696e+00 4.8349110038e+00 
126000 5.0111163735e+00 -9.0984063703e-04 2.7914535212e+00 -4.8349393257e+00 2.7914535212e+00 4.8349393257e+00 
126100 5.0111163540e+00 -9.0680169851e-04 2.7914698181e+00 -4.8349675528e+00 2.7914698181e+00 4.8349675528e+00 
126200 5.0111163345e+00 -9.0377299371e-04 2.7914860605e+00 -4.8349956854e+00 2.7914860605e+00 4.8349956854e+00 
126300 5.0111163152e+00 -9.0075448767e-04 2.7915022485e+00 -4.8350237239e+00 2.7915022485e+00 4.8350237239e+00 
126400 5.0111162961e+00 -8.9774614552e-04 2.7915183824e+00 -4.8350516686e+00 2.7915183824e+00 4.8350516686e+00 
126500 5.0111162770e+00 -8.9474793253e-04 2.7915344623e+00 -4.8350795198e+00 2.7915344623e+00 4.8350795198e+00 
126600 5.0111162581e+00 -8.9175981407e-04 2.7915504884e+00 -4.8351072779e+00 2.7915504884e+00 4.8351072779e+00 
126700 5.0111162393e+00 -8.8878175566e-04 2.7915664609e+00 -4.8351349430e+00 2.7915664609e+00 4.8351349430e+00 
126800 5.0111162206e+00 -8.8581372292e-04 2.7915823800e+00 -4.8351625157e+00 2.7915823800e+00 4.8351625157e+00 
126900 5.0111162021e+00 -8.8285568160e-04 2.7915982458e+00 -4.8351899961e+00 2.7915982458e+00 4.8351899961e+00 
127000 5.0111161836e+00 -8.7990759756e-04 2.7916140586e+00 -4.8352173845e+00 2.7916140586e+00 4.8352173845e+00 
127100 5.0111161653e+00 -8.7696943681e-04 2.7916298184e+00 -4.8352446814e+00 2.7916298184e+00 4.8352446814e+00 
127200 5.0111161471e+00 -8.7404116543e-04 2.7916455255e+00 -4.8352718870e+00 2.7916455255e+00 4.8352718870e+00 
127300 5.0111161291e+00 -8.7112274966e-04 2.7916611801e+00 -4.8352990015e+00 2.7916611801e+00 4.8352990015e+00 
127400 5.0111161111e+00 -8.6821415585e-04 2.7916767824e+00 -4.8353260254e+00 2.7916767824e+00 4.8353260254e+00 
127500 5.0111160933e+00 -8.6531535045e-04 2.7916923325e+00 -4.8353529589e+00 2.7916923325e+00 4.8353529589e+00 
127600 5.0111160756e+00 -8.6242630004e-04 2.7917078305e+00 -4.8353798023e+00 2.7917078305e+00 4.8353798023e+00 
127700 5.0111160580e+00 -8.5954697133e-04 2.7917232767e+00 -4.8354065560e+00 2.7917232767e+00 4.8354065560e+00 
127800 5.0111160405e+00 -8.5667733112e-04 2.7917386713e+00 -4.8354332202e+00 2.7917386713e+00 4.8354332202e+00 
127900 5.0111160232e+00 -8.5381734634e-04 2.7917540144e+00 -4.8354597952e+00 2.7917540144e+00 4.8354597952e+00 
128000 5.0111160059e+00 -8.5096698405e-04 2.7917693062e+00 -4.8354862813e+00 2.7917693062e+00 4.8354862813e+00 
128100 5.0111159888e+00 -8.4812621140e-04 2.7917845468e+00 -4.8355126789e+00 2.7917845468e+00 4.8355126789e+00 
128200 5.0111159718e+00 -8.4529499566e-04 2.7917997365e+00 -4.8355389882e+00 2.7917997365e+00 4.8355389882e+00 
128300 5.0111159549e+00 -8.4247330423e-04 2.7918148754e+00 -4.8355652096e+00 2.7918148754e+00 4.8355652096e+00 
128400 5.0111159381e+00 -8.3966110461e-04 2.7918299637e+00 -4.8355913433e+00 2.7918299637e+00 4.8355913433e+00 
128500 5.0111159214e+00 -8.3685836443e-04 2.7918450016e+00 -4.8356173896e+00 2.7918450016e+00 4.8356173896e+00 
128600 5.0111159048e+00 -8.3406505141e-04 2.7918599891e+00 -4.8356433488e+00 2.7918599891e+00 4.8356433488e+00 
128700 5.0111158884e+00 -8.3128113340e-04 2.7918749266e+00 -4.8356692212e+00 2.7918749266e+00 4.8356692212e+00 
128800 5.0111158720e+00 -8.2850657835e-04 2.7918898141e+00 -4.8356950072e+00 2.7918898141e+00 4.8356950072e+00 
128900 5.0111158558e+00 -8.2574135433e-04 2.7919046519e+00 -4.8357207069e+00 2.7919046519e+00 4.8357207069e+00 
129000 5.0111158396e+00 -8.2298542953e-04 2.7919194400e+00 -4.8357463207e+00 2.7919194400e+00 4.8357463207e+00 
129100 5.0111158236e+00 -8.2023877224e-04 2.7919341787e+00 -4.8357718489e+00 2.7919341787e+00 4.8357718489e+00 
129200 5.0111158077e+00 -8.1750135086e-04 2.7919488682e+00 -4.8357972918e+00 2.7919488682e+00 4.8357972918e+00 
129300 5.0111157918e+00 -8.1477313390e-04 2.7919635085e+00 -4.8358226496e+00 2.7919635085e+00 4.8358226496e+00 
129400 5.0111157761e+00 -8.1205408998e-04 2.7919780999e+00 -4.8358479227e+00 2.7919780999e+00 4.8358479227e+00 
129500 5.0111157605e+00 -8.0934418785e-04 2.7919926426e+00 -4.8358731113e+00 2.7919926426e+00 4.8358731113e+00 
129600 5.0111157450e+00 -8.0664339634e-04 2.7920071366e+00 -4.8358982157e+00 2.7920071366e+00 4.8358982157e+00 
129700 5.0111157296e+00 -8.0395168440e-04 2.7920215822e+00 -4.8359232362e+00 2.7920215822e+00 4.8359232362e+00 
129800 5.0111157143e+00 -8.0126902110e-04 2.7920359795e+00 -4.8359481731e+00 2.7920359795e+00 4.8359481731e+00 
129900 5.0111156991e+00 -7.9859537559e-04 2.7920503287e+00 -4.8359730266e+00 2.7920503287e+00 4.8359730266e+00 
130000 5.0111156840e+00 -7.9593071716e-04 2.7920646300e+00 -4.8359977971e+00 2.7920646300e+00 4.8359977971e+00 
130100 5.0111156690e+00 -7.9327501520e-04 2.7920788834e+00 -4.8360224848e+00 2.7920788834e+00 4.8360224848e+00 
130200 5.0111156541e+00 -7.9062823917e-04 2.7920930893e+00 -4.8360470900e+00 2.7920930893e+00 4.8360470900e+00 
130300 5.0111156393e+00 -7.8799035869e-04 2.7921072476e+00 -4.8360716130e+00 2.7921072476e+00 4.8360716130e+00 
130400 5.0111156246e+00 -7.8536134346e-04 2.7921213587e+00 -4.8360960541e+00 2.7921213587e+00 4.8360960541e+00 
130500 5.0111156100e+00 -7.8274116328e-04 2.7921354225e+00 -4.8361204135e+00 2.7921354225e+00 4.8361204135e+00 
130600 5.0111155955e+00 -7.8012978807e-04 2.7921494395e+00 -4.8361446915e+00 2.7921494395e+00 4.8361446915e+00 
130700 5.0111155811e+00 -7.7752718784e-04 2.7921634095e+00 -4.8361688883e+00 2.7921634095e+00 4.8361688883e+00 
130800 5.0111155667e+00 -7.7493333271e-04 2.7921773329e+00 -4.8361930044e+00 2.7921773329e+00 4.8361930044e+00 
130900 5.0111155525e+00 -7.7234819292e-04 2.7921912098e+00 -4.8362170398e+00 2.7921912098e+00 4.8362170398e+00 
131000 5.0111155384e+00 -7.6977173880e-04 2.7922050403e+00 -4.8362409950e+00 2.7922050403e+00 4.8362409950e+00 
131100 5.0111155243e+00 -7.6720394077e-04 2.7922188246e+00 -4.8362648701e+00 2.7922188246e+00 4.8362648701e+00 
131200 5.0111155104e+00 -7.6464476937e-04 2.7922325629e+00 -4.8362886654e+00 2.7922325629e+00 4.8362886654e+00 
131300 5.0111154965e+00 -7.6209419525e-04 2.7922462552e+00 -4.8363123813e+00 2.7922462552e+00 4.8363123813e+00 
131400 5.0111154828e+00 -7.5955218915e-04 2.7922599019e+00 -4.8363360180e+00 2.7922599019e+00 4.8363360180e+00 
131500 5.0111154691e+00 -7.5701872190e-04 2.7922735029e+00 -4.8363595757e+00 2.7922735029e+00 4.8363595757e+00 
131600 5.0111154555e+00 -7.5449376446e-04 2.7922870585e+00 -4.8363830547e+00 2.7922870585e+00 4.8363830547e+00 
131700 5.0111154420e+00 -7.5197728787e-04 2.7923005688e+00 -4.8364064552e+00 2.7923005688e+00 4.8364064552e+00 
131800 5.0111154286e+00 -7.4946926328e-04 2.7923140340e+00 -4.8364297777e+00 2.7923140340e+00 4.8364297777e+00 
131900 5.0111154153e+00 -7.4696966193e-04 2.7923274543e+00 -4.8364530222e+00 2.7923274543e+00 4.8364530222e+00 
132000 5.0111154021e+00 -7.4447845518e-04 2.7923408297e+00 -4.8364761891e+00 2.7923408297e+00 4.8364761891e+00 
132100 5.0111153890e+00 -7.4199561446e-04 2.7923541604e+00 -4.8364992786e+00 2.7923541604e+00 4.8364992786e+00 
132200 5.0111153759e+00 -7.3952111134e-04 2.7923674466e+00 -4.8365222910e+00 2.7923674466e+00 4.8365222910e+00 
132300 5.0111153629e+00 -7.3705491745e-04 2.7923806885e+00 -4.8365452265e+00 2.7923806885e+00 4.8365452265e+00 
132400 5.0111153501e+00 -7.3459700454e-04 2.7923938861e+00 -4.8365680855e+00 2.7923938861e+00 4.8365680855e+00 
132500 5.0111153373e+00 -7.3214734445e-04 2.7924070396e+00 -4.8365908681e+00 2.7924070396e+00 4.8365908681e+00 
132600 5.0111153246e+00 -7.2970590913e-04 2.7924201493e+00 -4.8366135746e+00 2.7924201493e+00 4.8366135746e+00 
132700 5.0111153119e+00 -7.2727267060e-04 2.7924332151e+00 -4.8366362053e+00 2.7924332151e+00 4.8366362053e+00 
132800 5.0111152994e+00 -7.2484760101e-04 2.7924462373e+00 -4.8366587604e+00 2.7924462373e+00 4.8366587604e+00 
132900 5.0111152869e+00 -7.2243067259e-04 2.7924592160e+00 -4.8366812402e+00 2.7924592160e+00 4.8366812402e+00 
133000 5.0111152746e+00 -7.2002185767e-04 2.7924721514e+00 -4.8367036450e+00 2.7924721514e+00 4.8367036450e+00 
133100 5.0111152623e+00 -7.1762112867e-04 2.7924850436e+00 -4.8367259750e+00 2.7924850436e+00 4.8367259750e+00 
133200 5.0111152501e+00 -7.1522845811e-04 2.7924978928e+00 -4.8367482304e+00 2.7924978928e+00 4.8367482304e+00 
133300 5.0111152379e+00 -7.1284381861e-04 2.7925106991e+00 -4.8367704114e+00 2.7925106991e+00 4.8367704114e+00 
133400 5.0111152259e+00 -7.1046718289e-04 2.7925234626e+00 -4.8367925185e+00 2.7925234626e+00 4.8367925185e+00 
133500 5.0111152139e+00 -7.0809852374e-04 2.7925361835e+00 -4.8368145517e+00 2.7925361835e+00 4.8368145517e+00 
133600 5.0111152020e+00 -7.0573781407e-04 2.7925488619e+00 -4.8368365114e+00 2.7925488619e+00 4.8368365114e+00 
133700 5.0111151902e+00 -7.0338502687e-04 2.7925614980e+00 -4.8368583977e+00 2.7925614980e+00 4.8368583977e+00 
133800 5.0111151785e+00 -7.0104013524e-04 2.7925740919e+00 -4.8368802110e+00 2.7925740919e+00 4.8368802110e+00 
133900 5.0111151668e+00 -6.9870311235e-04 2.7925866438e+00 -4.8369019515e+00 2.7925866438e+00 4.8369019515e+00 
134000 5.0111151552e+00 -6.9637393148e-04 2.7925991537e+00 -4.8369236194e+00 2.7925991537e+00 4.8369236194e+00 
134100 5.0111151437e+00 -6.9405256600e-04 2.7926116219e+00 -4.8369452150e+00 2.7926116219e+00 4.8369452150e+00 
134200 5.0111151323e+00 -6.9173898936e-04 2.7926240485e+00 -4.8369667385e+00 2.7926240485e+00 4.8369667385e+00 
134300 5.0111151209e+00 -6.8943317512e-04 2.7926364337e+00 -4.8369881902e+00 2.7926364337e+00 4.8369881902e+00 
134400 5.0111151097e+00 -6.8713509693e-04 2.7926487774e+00 -4.8370095702e+00 2.7926487774e+00 4.8370095702e+00 
134500 5.0111150984e+00 -6.8484472852e-04 2.7926610800e+00 -4.8370308789e+00 2.7926610800e+00 4.8370308789e+00 
134600 5.0111150873e+00 -6.8256204371e-04 2.7926733415e+00 -4.8370521165e+00 2.7926733415e+00 4.8370521165e+00 
134700 5.0111150763e+00 -6.8028701643e-04 2.7926855621e+00 -4.8370732832e+00 2.7926855621e+00 4.8370732832e+00 
134800 5.0111150653e+00 -6.7801962068e-04 2.7926977419e+00 -4.8370943792e+00 2.7926977419e+00 4.8370943792e+00 
134900 5.0111150544e+00 -6.7575983056e-04 2.7927098811e+00 -4.8371154048e+00 2.7927098811e+00 4.8371154048e+00 
135000 5.0111150435e+00 -6.7350762025e-04 2.7927219797e+00 -4.8371363603e+00 2.7927219797e+00 4.8371363603e+00 
135100 5.0111150328e+00 -6.7126296404e-04 2.7927340380e+00 -4.8371572459e+00 2.7927340380e+00 4.8371572459e+00 
135200 5.0111150221e+00 -6.6902583629e-04 2.7927460560e+00 -4.8371780617e+00 2.7927460560e+00 4.8371780617e+00 
135300 5.0111150114e+00 -6.6679621146e-04 2.7927580340e+00 -4.8371988081e+00 2.7927580340e+00 4.8371988081e+00 
135400 5.0111150009e+00 -6.6457406409e-04 2.7927699719e+00 -4.8372194852e+00 2.7927699719e+00 4.8372194852e+00 
135500 5.0111149904e+00 -6.6235936881e-04 2.7927818701e+00 -4.8372400934e+00 2.7927818701e+00 4.8372400934e+00 
135600 5.0111149800e+00 -6.6015210034e-04 2.7927937285e+00 -4.8372606328e+00 2.7927937285e+00 4.8372606328e+00 
135700 5.0111149696e+00 -6.5795223349e-04 2.7928055473e+00 -4.8372811037e+00 2.7928055473e+00 4.8372811037e+00 
135800 5.0111149594e+00 -6.5575974315e-04 2.7928173268e+00 -4.8373015062e+00 2.7928173268e+00 4.8373015062e+00 
135900 5.0111149492e+00 -6.5357460431e-04 2.7928290669e+00 -4.8373218407e+00 2.7928290669e+00 4.8373218407e+00 
136000 5.0111149390e+00 -6.5139679203e-04 2.7928407678e+00 -4.8373421073e+00 2.7928407678e+00 4.8373421073e+00 
136100 5.0111149289e+00 -6.4922628147e-04 2.7928524297e+00 -4.8373623064e+00 2.7928524297e+00 4.8373623064e+00 
136200 5.0111149189e+00 -6.4706304787e-04 2.7928640527e+00 -4.8373824380e+00 2.7928640527e+00 4.8373824380e+00 
136300 5.0111149090e+00 -6.4490706655e-04 2.7928756370e+00 -4.8374025025e+00 2.7928756370e+00 4.8374025025e+00 
136400 5.0111148991e+00 -6.4275831293e-04 2.7928871826e+00 -4.8374225000e+00 2.7928871826e+00 4.8374225000e+00 
136500 5.0111148893e+00 -6.4061676250e-04 2.7928986896e+00 -4.8374424308e+00 2.7928986896e+00 4.8374424308e+00 
136600 5.0111148796e+00 -6.3848239084e-04 2.7929101583e+00 -4.8374622952e+00 2.7929101583e+00 4.8374622952e+00 
136700 5.0111148699e+00 -6.3635517362e-04 2.7929215887e+00 -4.8374820932e+00 2.7929215887e+00 4.8374820932e+00 
136800 5.0111148603e+00 -6.3423508659e-04 2.7929329810e+00 -4.8375018253e+00 2.7929329810e+00 4.8375018253e+00 
136900 5.0111148507e+00 -6.3212210558e-04 2.7929443353e+00 -4.8375214915e+00 2.7929443353e+00 4.8375214915e+00 
137000 5.0111148412e+00 -6.3001620652e-04 2.7929556517e+00 -4.8375410921e+00 2.7929556517e+00 4.8375410921e+00 
137100 5.0111148318e+00 -6.2791736539e-04 2.7929669304e+00 -4.8375606273e+00 2.7929669304e+00 4.8375606273e+00 
137200 5.0111148224e+00 -6.2582555829e-04 2.7929781715e+00 -4.8375800974e+00 2.7929781715e+00 4.8375800974e+00 
137300 5.0111148131e+00 -6.2374076138e-04 2.7929893750e+00 -4.8375995025e+00 2.7929893750e+00 4.8375995025e+00 
137400 5.0111148039e+00 -6.2166295091e-04 2.7930005412e+00 -4.8376188429e+00 2.7930005412e+00 4.8376188429e+00 
137500 5.0111147947e+00 -6.1959210320e-04 2.7930116702e+00 -4.8376381189e+00 2.7930116702e+00 4.8376381189e+00 
137600 5.0111147856e+00 -6.1752819468e-04 2.7930227620e+00 -4.8376573305e+00 2.7930227620e+00 4.8376573305e+00 
137700 5.0111147765e+00 -6.1547120184e-04 2.7930338168e+00 -4.8376764780e+00 2.7930338168e+00 4.8376764780e+00 
137800 5.0111147675e+00 -6.1342110125e-04 2.7930448348e+00 -4.8376955617e+00 2.7930448348e+00 4.8376955617e+00 
137900 5.0111147586e+00 -6.1137786956e-04 2.7930558160e+00 -4.8377145818e+00 2.7930558160e+00 4.8377145818e+00 
138000 5.0111147497e+00 -6.0934148352e-04 2.7930667607e+00 -4.8377335384e+00 2.7930667607e+00 4.8377335384e+00 
138100 5.0111147409e+00 -6.0731191994e-04 2.7930776688e+00 -4.8377524318e+00 2.7930776688e+00 4.8377524318e+00 
138200 5.0111147321e+00 -6.0528915572e-04 2.7930885405e+00 -4.8377712622e+00 2.7930885405e+00 4.8377712622e+00 
138300 5.0111147234e+00 -6.0327316783e-04 2.7930993760e+00 -4.8377900298e+00 2.7930993760e+00 4.8377900298e+00 
138400 5.0111147147e+00 -6.0126393333e-04 2.7931101754e+00 -4.8378087349e+00 2.7931101754e+00 4.8378087349e+00 
138500 5.0111147062e+00 -5.9926142936e-04 2.7931209387e+00 -4.8378273775e+00 2.7931209387e+00 4.8378273775e+00 
138600 5.0111146976e+00 -5.9726563313e-04 2.7931316662e+00 -4.8378459580e+00 2.7931316662e+00 4.8378459580e+00 
138700 5.0111146891e+00 -5.9527652193e-04 2.7931423579e+00 -4.8378644766e+00 2.7931423579e+00 4.8378644766e+00 
138800 5.0111146807e+00 -5.9329407314e-04 2.7931530139e+00 -4.8378829334e+00 2.7931530139e+00 4.8378829334e+00 
138900 5.0111146723e+00 -5.9131826420e-04 2.7931636344e+00 -4.8379013287e+00 2.7931636344e+00 4.8379013287e+00 
139000 5.0111146640e+00 -5.8934907265e-04 2.7931742195e+00 -4.8379196626e+00 2.7931742195e+00 4.8379196626e+00 
139100 5.0111146558e+00 -5.8738647608e-04 2.7931847693e+00 -4.8379379354e+00 2.7931847693e+00 4.8379379354e+00 
139200 5.0111146476e+00 -5.8543045218e-04 2.7931952840e+00 -4.8379561473e+00 2.7931952840e+00 4.8379561473e+00 
139300 5.0111146394e+00 -5.8348097870e-04 2.7932057636e+00 -4.8379742985e+00 2.7932057636e+00 4.8379742985e+00 
139400 5.0111146313e+00 -5.8153803349e-04 2.7932162082e+00 -4.8379923892e+00 2.7932162082e+00 4.8379923892e+00 
139500 5.0111146233e+00 -5.7960159445e-04 2.7932266181e+00 -4.8380104195e+00 2.7932266181e+00 4.8380104195e+00 
139600 5.0111146153e+00 -5.7767163957e-04 2.7932369932e+00 -4.8380283898e+00 2.7932369932e+00 4.8380283898e+00 
139700 5.0111146074e+00 -5.7574814692e-04 2.7932473337e+00 -4.8380463001e+00 2.7932473337e+00 4.8380463001e+00 
139800 5.0111145995e+00 -5.7383109464e-04 2.7932576398e+00 -4.8380641508e+00 2.7932576398e+00 4.8380641508e+00 
139900 5.0111145917e+00 -5.7192046093e-04 2.7932679115e+00 -4.8380819419e+00 2.7932679115e+00 4.8380819419e+00 
140000 5.0111145839e+00 -5.7001622410e-04 2.7932781490e+00 -4.8380996738e+00 2.7932781490e+00 4.8380996738e+00 
140100 5.0111145762e+00 -5.6811836250e-04 2.7932883524e+00 -4.8381173465e+00 2.7932883524e+00 4.8381173465e+00 
140200 5.0111145685e+00 -5.6622685458e-04 2.7932985217e+00 -4.8381349604e+00 2.7932985217e+00 4.8381349604e+00 
140300 5.0111145609e+00 -5.6434167884e-04 2.7933086572e+00 -4.8381525155e+00 2.7933086572e+00 4.8381525155e+00 
140400 5.0111145533e+00 -5.6246281388e-04 2.7933187589e+00 -4.8381700121e+00 2.7933187589e+00 4.8381700121e+00 
140500 5.0111145458e+00 -5.6059023836e-04 2.7933288269e+00 -4.8381874504e+00 2.7933288269e+00 4.8381874504e+00 
140600 5.0111145383e+00 -5.5872393100e-04 2.7933388613e+00 -4.8382048306e+00 2.7933388613e+00 4.8382048306e+00 
140700 5.0111145309e+00 -5.5686387063e-04 2.7933488624e+00 -4.8382221529e+00 2.7933488624e+00 4.8382221529e+00 
140800 5.0111145235e+00 -5.5501003612e-04 2.7933588300e+00 -4.8382394174e+00 2.7933588300e+00 4.8382394174e+00 
140900 5.0111145162e+00 -5.5316240642e-04 2.7933687645e+00 -4.8382566244e+00 2.7933687645e+00 4.8382566244e+00 
141000 5.0111145089e+00 -5.5132096055e-04 2.7933786659e+00 -4.8382737740e+00 2.7933786659e+00 4.8382737740e+00 
141100 5.0111145016e+00 -5.4948567763e-04 2.7933885342e+00 -4.8382908665e+00 2.7933885342e+00 4.8382908665e+00 
141200 5.0111144945e+00 -5.4765653681e-04 2.7933983697e+00 -4.8383079021e+00 2.7933983697e+00 4.8383079021e+00 
141300 5.0111144873e+00 -5.4583351734e-04 2.7934081724e+00 -4.8383248808e+00 2.7934081724e+00 4.8383248808e+00 
141400 5.0111144802e+00 -5.4401659854e-04 2.7934179424e+00 -4.8383418030e+00 2.7934179424e+00 4.8383418030e+00 
141500 5.0111144732e+00 -5.4220575978e-04 2.7934276799e+00 -4.8383586688e+00 2.7934276799e+00 4.8383586688e+00 
141600 5.0111144662e+00 -5.4040098052e-04 2.7934373849e+00 -4.8383754785e+00 2.7934373849e+00 4.8383754785e+00 
141700 5.0111144592e+00 -5.3860224029e-04 2.7934470576e+00 -4.8383922321e+00 2.7934470576e+00 4.8383922321e+00 
141800 5.0111144523e+00 -5.3680951868e-04 2.7934566981e+00 -4.8384089298e+00 2.7934566981e+00 4.8384089298e+00 
141900 5.0111144455e+00 -5.3502279537e-04 2.7934663064e+00 -4.8384255720e+00 2.7934663064e+00 4.8384255720e+00 
142000 5.0111144387e+00 -5.3324205008e-04 2.7934758828e+00 -4.8384421587e+00 2.7934758828e+00 4.8384421587e+00 
142100 5.0111144319e+00 -5.3146726262e-04 2.7934854272e+00 -4.8384586901e+00 2.7934854272e+00 4.8384586901e+00 
142200 5.0111144252e+00 -5.2969841287e-04 2.7934949398e+00 -4.8384751664e+00 2.7934949398e+00 4.8384751664e+00 
142300 5.0111144185e+00 -5.2793548077e-04 2.7935044207e+00 -4.8384915879e+00 2.7935044207e+00 4.8384915879e+00 
142400 5.0111144119e+00 -5.2617844633e-04 2.7935138701e+00 -4.8385079546e+00 2.7935138701e+00 4.8385079546e+00 
142500 5.0111144053e+00 -5.2442728965e-04 2.7935232879e+00 -4.8385242669e+00 2.7935232879e+00 4.8385242669e+00 
142600 5.0111143987e+00 -5.2268199086e-04 2.7935326744e+00 -4.8385405247e+00 2.7935326744e+00 4.8385405247e+00 
142700 5.0111143922e+00 -5.2094253019e-04 2.7935420297e+00 -4.8385567285e+00 2.7935420297e+00 4.8385567285e+00 
142800 5.0111143858e+00 -5.1920888792e-04 2.7935513537e+00 -4.8385728782e+00 2.7935513537e+00 4.8385728782e+00 
142900 5.0111143794e+00 -5.1748104441e-04 2.7935606467e+00 -4.8385889741e+00 2.7935606467e+00 4.8385889741e+00 
143000 5.0111143730e+00 -5.1575898008e-04 2.7935699087e+00 -4.8386050164e+00 2.7935699087e+00 4.8386050164e+00 
143100 5.0111143667e+00 -5.1404267541e-04 2.7935791399e+00 -4.8386210053e+00 2.7935791399e+00 4.8386210053e+00 
143200 5.0111143604e+00 -5.1233211098e-04 2.7935883404e+00 -4.8386369410e+00 2.7935883404e+00 4.8386369410e+00 
143300 5.0111143541e+00 -5.1062726738e-04 2.7935975102e+00 -4.8386528235e+00 2.7935975102e+00 4.8386528235e+00 
143400 5.0111143479e+00 -5.0892812533e-04 2.7936066494e+00 -4.8386686531e+00 2.7936066494e+00 4.8386686531e+00 
143500 5.0111143417e+00 -5.0723466557e-04 2.7936157582e+00 -4.8386844301e+00 2.7936157582e+00 4.8386844301e+00 
143600 5.0111143356e+00 -5.0554686892e-04 2.7936248367e+00 -4.8387001544e+00 2.7936248367e+00 4.8387001544e+00 
143700 5.0111143295e+00 -5.0386471627e-04 2.7936338849e+00 -4.8387158264e+00 2.7936338849e+00 4.8387158264e+00 
143800 5.0111143235e+00 -5.0218818857e-04 2.7936429030e+00 -4.8387314462e+00 2.7936429030e+00 4.8387314462e+00 
143900 5.0111143175e+00 -5.0051726685e-04 2.7936518911e+00 -4.8387470140e+00 2.7936518911e+00 4.8387470140e+00 
144000 5.0111143115e+00 -4.9885193219e-04 2.7936608492e+00 -4.8387625299e+00 2.7936608492e+00 4.8387625299e+00 
144100 5.0111143056e+00 -4.9719216572e-04 2.7936697775e+00 -4.8387779942e+00 2.7936697775e+00 4.8387779942e+00 
144200 5.0111142997e+00 -4.9553794868e-04 2.7936786760e+00 -4.8387934069e+00 2.7936786760e+00 4.8387934069e+00 
144300 5.0111142939e+00 -4.9388926233e-04 2.7936875449e+00 -4.8388087683e+00 2.7936875449e+00 4.8388087683e+00 
144400 5.0111142880e+00 -4.9224608802e-04 2.7936963843e+00 -4.8388240786e+00 2.7936963843e+00 4.8388240786e+00 
144500 5.0111142823e+00 -4.9060840714e-04 2.7937051943e+00 -4.8388393379e+00 2.7937051943e+00 4.8388393379e+00 
144600 5.0111142765e+00 -4.8897620118e-04 2.7937139749e+00 -4.8388545463e+00 2.7937139749e+00 4.8388545463e+00 
144700 5.0111142708e+00 -4.8734945167e-04 2.7937227263e+00 -4.8388697041e+00 2.7937227263e+00 4.8388697041e+00 
144800 5.0111142652e+00 -4.8572814019e-04 2.7937314485e+00 -4.8388848115e+00 2.7937314485e+00 4.8388848115e+00 
144900 5.0111142596e+00 -4.8411224842e-04 2.7937401417e+00 -4.8388998685e+00 2.7937401417e+00 4.8388998685e+00 
145000 5.0111142540e+00 -4.8250175806e-04 2.7937488059e+00 -4.8389148754e+00 2.7937488059e+00 4.8389148754e+00 
145100 5.0111142484e+00 -4.8089665091e-04 2.7937574413e+00 -4.8389298323e+00 2.7937574413e+00 4.8389298323e+00 
145200 5.0111142429e+00 -4.7929690882e-04 2.7937660479e+00 -4.8389447395e+00 2.7937660479e+00 4.8389447395e+00 
145300 5.0111142375e+00 -4.7770251369e-04 2.7937746259e+00 -4.8389595969e+00 2.7937746259e+00 4.8389595969e+00 
145400 5.0111142320e+00 -4.7611344749e-04 2.7937831753e+00 -4.8389744050e+00 2.7937831753e+00 4.8389744050e+00 
145500 5.0111142266e+00 -4.7452969227e-04 2.7937916963e+00 -4.8389891637e+00 2.7937916963e+00 4.8389891637e+00 
145600 5.0111142213e+00 -4.7295123010e-04 2.7938001888e+00 -4.8390038733e+00 2.7938001888e+00 4.8390038733e+00 
145700 5.0111142159e+00 -4.7137804315e-04 2.7938086531e+00 -4.8390185339e+00 2.7938086531e+00 4.8390185339e+00 
145800 5.0111142106e+00 -4.6981011364e-04 2.7938170893e+00 -4.8390331457e+00 2.7938170893e+00 4.8390331457e+00 
145900 5.0111142054e+00 -4.6824742384e-04 2.7938254973e+00 -4.8390477088e+00 2.7938254973e+00 4.8390477088e+00 
146000 5.0111142002e+00 -4.6668995609e-04 2.7938338773e+00 -4.8390622235e+00 2.7938338773e+00 4.8390622235e+00 
146100 5.0111141950e+00 -4.6513769280e-04 2.7938422295e+00 -4.8390766898e+00 2.7938422295e+00 4.8390766898e+00 
146200 5.0111141898e+00 -4.6359061641e-04 2.7938505538e+00 -4.8390911080e+00 2.7938505538e+00 4.8390911080e+00 
146300 5.0111141847e+00 -4.6204870946e-04 2.7938588505e+00 -4.8391054782e+00 2.7938588505e+00 4.8391054782e+00 
146400 5.0111141796e+00 -4.6051195451e-04 2.7938671195e+00 -4.8391198005e+00 2.7938671195e+00 4.8391198005e+00 
146500 5.0111141745e+00 -4.5898033421e-04 2.7938753610e+00 -4.8391340752e+00 2.7938753610e+00 4.8391340752e+00 
146600 5.0111141695e+00 -4.5745383126e-04 2.7938835750e+00 -4.8391483023e+00 2.7938835750e+00 4.8391483023e+00 
146700 5.0111141645e+00 -4.5593242841e-04 2.7938917617e+00 -4.8391624821e+00 2.7938917617e+00 4.8391624821e+00 
146800 5.0111141596e+00 -4.5441610848e-04 2.7938999212e+00 -4.8391766147e+00 2.7938999212e+00 4.8391766147e+00 
146900 5.0111141547e+00 -4.5290485435e-04 2.7939080535e+00 -4.8391907003e+00 2.7939080535e+00 4.8391907003e+00 
147000 5.0111141498e+00 -4.5139864895e-04 2.7939161587e+00 -4.8392047389e+00 2.7939161587e+00 4.8392047389e+00 
147100 5.0111141449e+00 -4.4989747527e-04 2.7939242369e+00 -4.8392187309e+00 2.7939242369e+00 4.8392187309e+00 
147200 5.0111141401e+00 -4.4840131635e-04 2.7939322883e+00 -4.8392326762e+00 2.7939322883e+00 4.8392326762e+00 
147300 5.0111141353e+00 -4.4691015532e-04 2.7939403129e+00 -4.8392465752e+00 2.7939403129e+00 4.8392465752e+00 
147400 5.0111141305e+00 -4.4542397534e-04 2.7939483107e+00 -4.8392604279e+00 2.7939483107e+00 4.8392604279e+00 
147500 5.0111141258e+00 -4.4394275962e-04 2.7939562819e+00 -4.8392742344e+00 2.7939562819e+00 4.8392742344e+00 
147600 5.0111141211e+00 -4.4246649146e-04 2.7939642266e+00 -4.8392879951e+00 2.7939642266e+00 4.8392879951e+00 
147700 5.0111141164e+00 -4.4099515418e-04 2.7939721449e+00 -4.8393017099e+00 2.7939721449e+00 4.8393017099e+00 
147800 5.0111141118e+00 -4.3952873119e-04 2.7939800368e+00 -4.8393153791e+00 2.7939800368e+00 4.8393153791e+00 
147900 5.0111141072e+00 -4.3806720594e-04 2.7939879024e+00 -4.8393290028e+00 2.7939879024e+00 4.8393290028e+00 
148000 5.0111141026e+00 -4.3661056192e-04 2.7939957419e+00 -4.8393425811e+00 2.7939957419e+00 4.8393425811e+00 
148100 5.0111140981e+00 -4.3515878272e-04 2.7940035553e+00 -4.8393561143e+00 2.7940035553e+00 4.8393561143e+00 
148200 5.0111140936e+00 -4.3371185195e-04 2.7940113427e+00 -4.8393696024e+00 2.7940113427e+00 4.8393696024e+00 
148300 5.0111140891e+00 -4.3226975328e-04 2.7940191041e+00 -4.8393830456e+00 2.7940191041e+00 4.8393830456e+00 
148400 5.0111140846e+00 -4.3083247045e-04 2.7940268397e+00 -4.8393964442e+00 2.7940268397e+00 4.8393964442e+00 
148500 5.0111140802e+00 -4.2939998725e-04 2.7940345496e+00 -4.8394097981e+00 2.7940345496e+00 4.8394097981e+00 
148600 5.0111140758e+00 -4.2797228752e-04 2.7940422339e+00 -4.8394231075e+00 2.7940422339e+00 4.8394231075e+00 
148700 5.0111140714e+00 -4.2654935516e-04 2.7940498925e+00 -4.8394363727e+00 2.7940498925e+00 4.8394363727e+00 
148800 5.0111140671e+00 -4.2513117413e-04 2.7940575257e+00 -4.8394495938e+00 2.7940575257e+00 4.8394495938e+00 
148900 5.0111140628e+00 -4.2371772842e-04 2.7940651335e+00 -4.8394627708e+00 2.7940651335e+00 4.8394627708e+00 
149000 5.0111140585e+00 -4.2230900211e-04 2.7940727159e+00 -4.8394759041e+00 2.7940727159e+00 4.8394759041e+00 
149100 5.0111140542e+00 -4.2090497931e-04 2.7940802732e+00 -4.8394889936e+00 2.7940802732e+00 4.8394889936e+00 
149200 5.0111140500e+00 -4.1950564420e-04 2.7940878053e+00 -4.8395020395e+00 2.7940878053e+00 4.8395020395e+00 
149300 5.0111140458e+00 -4.1811098100e-04 2.7940953123e+00 -4.8395150421e+00 2.7940953123e+00 4.8395150421e+00 
149400 5.0111140417e+00 -4.1672097399e-04 2.7941027943e+00 -4.8395280014e+00 2.7941027943e+00 4.8395280014e+00 
149500 5.0111140375e+00 -4.1533560750e-04 2.7941102515e+00 -4.8395409175e+00 2.7941102515e+00 4.8395409175e+00 
149600 5.0111140334e+00 -4.1395486591e-04 2.7941176838e+00 -4.8395537907e+00 2.7941176838e+00 4.8395537907e+00 
149700 5.0111140293e+00 -4.1257873368e-04 2.7941250915e+00 -4.8395666211e+00 2.7941250915e+00 4.8395666211e+00 
149800 5.0111140252e+00 -4.1120719530e-04 2.7941324744e+00 -4.8395794088e+00 2.7941324744e+00 4.8395794088e+00 
149900 5.0111140212e+00 -4.0984023530e-04 2.7941398328e+00 -4.8395921539e+00 2.7941398328e+00 4.8395921539e+00 
150000 5.0111140172e+00 -4.0847783828e-04 2.7941471668e+00 -4.8396048567e+00 2.7941471668e+00 4.8396048567e+00 
150100 5.0111140132e+00 -4.0711998891e-04 2.7941544763e+00 -4.8396175171e+00 2.7941544763e+00 4.8396175171e+00 
150200 5.0111140093e+00 -4.0576667188e-04 2.7941617615e+00 -4.8396301355e+00 2.7941617615e+00 4.8396301355e+00 
150300 5.0111140053e+00 -4.0441787195e-04 2.7941690225e+00 -4.8396427119e+00 2.7941690225e+00 4.8396427119e+00 
150400 5.0111140014e+00 -4.0307357392e-04 2.7941762593e+00 -4.8396552464e+00 2.7941762593e+00 4.8396552464e+00 
150500 5.0111139976e+00 -4.0173376266e-04 2.7941834721e+00 -4.8396677393e+00 2.7941834721e+00 4.8396677393e+00 
150600 5.0111139937e+00 -4.0039842308e-04 2.7941906608e+00 -4.8396801906e+00 2.7941906608e+00 4.8396801906e+00 
150700 5.0111139899e+00 -3.9906754013e-04 2.7941978256e+00 -4.8396926004e+00 2.7941978256e+00 4.8396926004e+00 
150800 5.0111139861e+00 -3.9774109884e-04 2.7942049667e+00 -4.8397049690e+00 2.7942049667e+00 4.8397049690e+00 
150900 5.0111139823e+00 -3.9641908427e-04 2.7942120839e+00 -4.8397172965e+00 2.7942120839e+00 4.8397172965e+00 
151000 5.0111139786e+00 -3.9510148153e-04 2.7942191775e+00 -4.8397295829e+00 2.7942191775e+00 4.8397295829e+00 
151100 5.0111139748e+00 -3.9378827579e-04 2.7942262475e+00 -4.8397418285e+00 2.7942262475e+00 4.8397418285e+00 
151200 5.0111139711e+00 -3.9247945227e-04 2.7942332939e+00 -4.8397540333e+00 2.7942332939e+00 4.8397540333e+00 
151300 5.0111139675e+00 -3.9117499624e-04 2.7942403170e+00 -4.8397661975e+00 2.7942403170e+00 4.8397661975e+00 
151400 5.0111139638e+00 -3.8987489301e-04 2.7942473166e+00 -4.8397783213e+00 2.7942473166e+00 4.8397783213e+00 
151500 5.0111139602e+00 -3.8857912795e-04 2.7942542930e+00 -4.8397904048e+00 2.7942542930e+00 4.8397904048e+00 
151600 5.0111139566e+00 -3.8728768647e-04 2.7942612462e+00 -4.8398024480e+00 2.7942612462e+00 4.8398024480e+00 
151700 5.0111139530e+00 -3.8600055406e-04 2.7942681763e+00 -4.8398144513e+00 2.7942681763e+00 4.8398144513e+00 
151800 5.0111139494e+00 -3.8471771622e-04 2.7942750833e+00 -4.8398264146e+00 2.7942750833e+00 4.8398264146e+00 
151900 5.0111139459e+00 -3.8343915851e-04 2.7942819673e+00 -4.8398383381e+00 2.7942819673e+00 4.8398383381e+00 
152000 5.0111139424e+00 -3.8216486657e-04 2.7942888285e+00 -4.8398502219e+00 2.7942888285e+00 4.8398502219e+00 
152100 5.0111139389e+00 -3.8089482604e-04 2.7942956668e+00 -4.8398620662e+00 2.7942956668e+00 4.8398620662e+00 
152200 5.0111139355e+00 -3.7962902264e-04 2.7943024824e+00 -4.8398738712e+00 2.7943024824e+00 4.8398738712e+00 
152300 5.0111139320e+00 -3.7836744213e-04 2.7943092753e+00 -4.8398856368e+00 2.7943092753e+00 4.8398856368e+00 
152400 5.0111139286e+00 -3.7711007033e-04 2.7943160456e+00 -4.8398973634e+00 2.7943160456e+00 4.8398973634e+00 
152500 5.0111139252e+00 -3.7585689309e-04 2.7943227934e+00 -4.8399090509e+00 2.7943227934e+00 4.8399090509e+00 
152600 5.0111139218e+00 -3.7460789632e-04 2.7943295188e+00 -4.8399206996e+00 2.7943295188e+00 4.8399206996e+00 
152700 5.0111139185e+00 -3.7336306598e-04 2.7943362218e+00 -4.8399323095e+00 2.7943362218e+00 4.8399323095e+00 
152800 5.0111139152e+00 -3.7212238806e-04 2.7943429025e+00 -4.8399438809e+00 2.7943429025e+00 4.8399438809e+00 
152900 5.0111139118e+00 -3.7088584861e-04 2.7943495610e+00 -4.8399554137e+00 2.7943495610e+00 4.8399554137e+00 
153000 5.0111139086e+00 -3.6965343374e-04 2.7943561973e+00 -4.8399669082e+00 2.7943561973e+00 4.8399669082e+00 
153100 5.0111139053e+00 -3.6842512959e-04 2.7943628116e+00 -4.8399783645e+00 2.7943628116e+00 4.8399783645e+00 
153200 5.0111139021e+00 -3.6720092235e-04 2.7943694039e+00 -4.8399897827e+00 2.7943694039e+00 4.8399897827e+00 
153300 5.0111138988e+00 -3.6598079826e-04 2.7943759743e+00 -4.8400011629e+00 2.7943759743e+00 4.8400011629e+00 
153400 5.0111138956e+00 -3.6476474360e-04 2.7943825228e+00 -4.8400125053e+00 2.7943825228e+00 4.8400125053e+00 
153500 5.0111138925e+00 -3.6355274472e-04 2.7943890496e+00 -4.8400238100e+00 2.7943890496e+00 4.8400238100e+00 
153600 5.0111138893e+00 -3.6234478798e-04 2.7943955546e+00 -4.8400350771e+00 2.7943955546e+00 4.8400350771e+00 
153700 5.0111138862e+00 -3.6114085981e-04 2.7944020381e+00 -4.8400463067e+00 2.7944020381e+00 4.8400463067e+00 
153800 5.0111138831e+00 -3.5994094668e-04 2.7944084999e+00 -4.8400574990e+00 2.7944084999e+00 4.8400574990e+00 
153900 5.0111138800e+00 -3.5874503512e-04 2.7944149403e+00 -4.8400686540e+00 2.7944149403e+00 4.8400686540e+00 
154000 5.0111138769e+00 -3.5755311168e-04 2.7944213593e+00 -4.8400797720e+00 2.7944213593e+00 4.8400797720e+00 
154100 5.0111138738e+00 -3.5636516297e-04 2.7944277569e+00 -4.8400908530e+00 2.7944277569e+00 4.8400908530e+00 
154200 5.0111138708e+00 -3.5518117565e-04 2.7944341333e+00 -4.8401018972e+00 2.7944341333e+00 4.8401018972e+00 
154300 5.0111138678e+00 -3.5400113642e-04 2.7944404884e+00 -4.8401129047e+00 2.7944404884e+00 4.8401129047e+00 
154400 5.0111138648e+00 -3.5282503202e-04 2.7944468224e+00 -4.8401238755e+00 2.7944468224e+00 4.8401238755e+00 
154500 5.0111138618e+00 -3.5165284925e-04 2.7944531354e+00 -4.8401348099e+00 2.7944531354e+00 4.8401348099e+00 
154600 5.0111138589e+00 -3.5048457493e-04 2.7944594274e+00 -4.8401457079e+00 2.7944594274e+00 4.8401457079e+00 
154700 5.0111138559e+00 -3.4932019595e-04 2.7944656985e+00 -4.8401565697e+00 2.7944656985e+00 4.8401565697e+00 
154800 5.0111138530e+00 -3.4815969923e-04 2.7944719487e+00 -4.8401673954e+00 2.7944719487e+00 4.8401673954e+00 
154900 5.0111138501e+00 -3.4700307174e-04 2.7944781781e+00 -4.8401781851e+00 2.7944781781e+00 4.8401781851e+00 
155000 5.0111138473e+00 -3.4585030050e-04 2.7944843868e+00 -4.8401889390e+00 2.7944843868e+00 4.8401889390e+00 
155100 5.0111138444e+00 -3.4470137256e-04 2.7944905749e+00 -4.8401996570e+00 2.7944905749e+00 4.8401996570e+00 
155200 5.0111138416e+00 -3.4355627502e-04 2.7944967424e+00 -4.8402103395e+00 2.7944967424e+00 4.8402103395e+00 
155300 5.0111138387e+00 -3.4241499502e-04 2.7945028895e+00 -4.8402209865e+00 2.7945028895e+00 4.8402209865e+00 
155400 5.0111138359e+00 -3.4127751977e-04 2.7945090160e+00 -4.8402315980e+00 2.7945090160e+00 4.8402315980e+00 
155500 5.0111138332e+00 -3.4014383648e-04 2.7945151223e+00 -4.8402421743e+00 2.7945151223e+00 4.8402421743e+00 
155600 5.0111138304e+00 -3.3901393243e-04 2.7945212082e+00 -4.8402527154e+00 2.7945212082e+00 4.8402527154e+00 
155700 5.0111138277e+00 -3.3788779495e-04 2.7945272739e+00 -4.8402632215e+00 2.7945272739e+00 4.8402632215e+00 
155800 5.0111138249e+00 -3.3676541139e-04 2.7945333194e+00 -4.8402736927e+00 2.7945333194e+00 4.8402736927e+00 
155900 5.0111138222e+00 -3.3564676916e-04 2.7945393448e+00 -4.8402841290e+00 2.7945393448e+00 4.8402841290e+00 
156000 5.0111138195e+00 -3.3453185571e-04 2.7945453502e+00 -4.8402945307e+00 2.7945453502e+00 4.8402945307e+00 
156100 5.0111138168e+00 -3.3342065853e-04 2.7945513357e+00 -4.8403048978e+00 2.7945513357e+00 4.8403048978e+00 
156200 5.0111138142e+00 -3.3231316514e-04 2.7945573012e+00 -4.8403152304e+00 2.7945573012e+00 4.8403152304e+00 
156300 5.0111138116e+00 -3.3120936313e-04 2.7945632470e+00 -4.8403255287e+00 2.7945632470e+00 4.8403255287e+00 
156400 5.0111138089e+00 -3.3010924010e-04 2.7945691729e+00 -4.8403357928e+00 2.7945691729e+00 4.8403357928e+00 
156500 5.0111138063e+00 -3.2901278373e-04 2.7945750792e+00 -4.8403460227e+00 2.7945750792e+00 4.8403460227e+00 
156600 5.0111138037e+00 -3.2791998171e-04 2.7945809658e+00 -4.8403562187e+00 2.7945809658e+00 4.8403562187e+00 
156700 5.0111138012e+00 -3.2683082179e-04 2.7945868329e+00 -4.8403663808e+00 2.7945868329e+00 4.8403663808e+00 
156800 5.0111137986e+00 -3.2574529174e-04 2.7945926805e+00 -4.8403765090e+00 2.7945926805e+00 4.8403765090e+00 
156900 5.0111137961e+00 -3.2466337939e-04 2.7945985086e+00 -4.8403866037e+00 2.7945985086e+00 4.8403866037e+00 
157000 5.0111137936e+00 -3.2358507262e-04 2.7946043174e+00 -4.8403966648e+00 2.7946043174e+00 4.8403966648e+00 
157100 5.0111137911e+00 -3.2251035933e-04 2.7946101068e+00 -4.8404066924e+00 2.7946101068e+00 4.8404066924e+00 
157200 5.0111137886e+00 -3.2143922746e-04 2.7946158771e+00 -4.8404166867e+00 2.7946158771e+00 4.8404166867e+00 
157300 5.0111137861e+00 -3.2037166502e-04 2.7946216281e+00 -4.8404266478e+00 2.7946216281e+00 4.8404266478e+00 
157400 5.0111137837e+00 -3.1930766002e-04 2.7946273600e+00 -4.8404365758e+00 2.7946273600e+00 4.8404365758e+00 
157500 5.0111137812e+00 -3.1824720055e-04 2.7946330729e+00 -4.8404464708e+00 2.7946330729e+00 4.8404464708e+00 
157600 5.0111137788e+00 -3.1719027470e-04 2.7946387668e+00 -4.8404563330e+00 2.7946387668e+00 4.8404563330e+00 
157700 5.0111137764e+00 -3.1613687065e-04 2.7946444418e+00 -4.8404661623e+00 2.7946444418e+00 4.8404661623e+00 
157800 5.0111137740e+00 -3.1508697657e-04 2.7946500979e+00 -4.8404759590e+00 2.7946500979e+00 4.8404759590e+00 
157900 5.0111137716e+00 -3.1404058070e-04 2.7946557353e+00 -4.8404857231e+00 2.7946557353e+00 4.8404857231e+00 
158000 5.0111137693e+00 -3.1299767131e-04 2.7946613539e+00 -4.8404954548e+00 2.7946613539e+00 4.8404954548e+00 
158100 5.0111137669e+00 -3.1195823672e-04 2.7946669538e+00 -4.8405051542e+00 2.7946669538e+00 4.8405051542e+00 
158200 5.0111137646e+00 -3.1092226527e-04 2.7946725351e+00 -4.8405148213e+00 2.7946725351e+00 4.8405148213e+00 
158300 5.0111137623e+00 -3.0988974536e-04 2.7946780979e+00 -4.8405244563e+00 2.7946780979e+00 4.8405244563e+00 
158400 5.0111137600e+00 -3.0886066542e-04 2.7946836421e+00 -4.8405340593e+00 2.7946836421e+00 4.8405340593e+00 
158500 5.0111137577e+00 -3.0783501392e-04 2.7946891680e+00 -4.8405436304e+00 2.7946891680e+00 4.8405436304e+00 
158600 5.0111137555e+00 -3.0681277937e-04 2.7946946755e+00 -4.8405531696e+00 2.7946946755e+00 4.8405531696e+00 
158700 5.0111137532e+00 -3.0579395031e-04 2.7947001647e+00 -4.8405626772e+00 2.7947001647e+00 4.8405626772e+00 
158800 5.0111137510e+00 -3.0477851533e-04 2.7947056357e+00 -4.8405721532e+00 2.7947056357e+00 4.8405721532e+00 
158900 5.0111137488e+00 -3.0376646305e-04 2.7947110885e+00 -4.8405815977e+00 2.7947110885e+00 4.8405815977e+00 
159000 5.0111137465e+00 -3.0275778215e-04 2.7947165231e+00 -4.8405910108e+00 2.7947165231e+00 4.8405910108e+00 
159100 5.0111137444e+00 -3.0175246132e-04 2.7947219397e+00 -4.8406003927e+00 2.7947219397e+00 4.8406003927e+00 
159200 5.0111137422e+00 -3.0075048930e-04 2.7947273384e+00 -4.8406097433e+00 2.7947273384e+00 4.8406097433e+00 
159300 5.0111137400e+00 -2.9975185487e-04 2.7947327190e+00 -4.8406190630e+00 2.7947327190e+00 4.8406190630e+00 
159400 5.0111137379e+00 -2.9875654686e-04 2.7947380818e+00 -4.8406283516e+00 2.7947380818e+00 4.8406283516e+00 
159500 5.0111137357e+00 -2.9776455410e-04 2.7947434268e+00 -4.8406376094e+00 2.7947434268e+00 4.8406376094e+00 
159600 5.0111137336e+00 -2.9677586550e-04 2.7947487541e+00 -4.8406468364e+00 2.7947487541e+00 4.8406468364e+00 
159700 5.0111137315e+00 -2.9579046999e-04 2.7947540636e+00 -4.8406560328e+00 2.7947540636e+00 4.8406560328e+00 
159800 5.0111137294e+00 -2.9480835652e-04 2.7947593555e+00 -4.8406651986e+00 2.7947593555e+00 4.8406651986e+00 
159900 5.0111137273e+00 -2.9382951412e-04 2.7947646298e+00 -4.8406743340e+00 2.7947646298e+00 4.8406743340e+00 
160000 5.0111137253e+00 -2.9285393181e-04 2.7947698866e+00 -4.8406834390e+00 2.7947698866e+00 4.8406834390e+00 
160100 5.0111137232e+00 -2.9188159868e-04 2.7947751259e+00 -4.8406925138e+00 2.7947751259e+00 4.8406925138e+00 
160200 5.0111137212e+00 -2.9091250385e-04 2.7947803478e+00 -4.8407015584e+00 2.7947803478e+00 4.8407015584e+00 
160300 5.0111137192e+00 -2.8994663646e-04 2.7947855524e+00 -4.8407105730e+00 2.7947855524e+00 4.8407105730e+00 
160400 5.0111137172e+00 -2.8898398571e-04 2.7947907397e+00 -4.8407195576e+00 2.7947907397e+00 4.8407195576e+00 
160500 5.0111137152e+00 -2.8802454082e-04 2.7947959097e+00 -4.8407285124e+00 2.7947959097e+00 4.8407285124e+00 
160600 5.0111137132e+00 -2.8706829106e-04 2.7948010626e+00 -4.8407374374e+00 2.7948010626e+00 4.8407374374e+00 
160700 5.0111137112e+00 -2.8611522572e-04 2.7948061983e+00 -4.8407463328e+00 2.7948061983e+00 4.8407463328e+00 
160800 5.0111137092e+00 -2.8516533415e-04 2.7948113170e+00 -4.8407551987e+00 2.7948113170e+00 4.8407551987e+00 
160900 5.0111137073e+00 -2.8421860570e-04 2.7948164187e+00 -4.8407640351e+00 2.7948164187e+00 4.8407640351e+00 
161000 5.0111137054e+00 -2.8327502979e-04 2.7948215035e+00 -4.8407728421e+00 2.7948215035e+00 4.8407728421e+00 
161100 5.0111137034e+00 -2.8233459586e-04 2.7948265713e+00 -4.8407816199e+00 2.7948265713e+00 4.8407816199e+00 
161200 5.0111137015e+00 -2.8139729340e-04 2.7948316224e+00 -4.8407903685e+00 2.7948316224e+00 4.8407903685e+00 
161300 5.0111136996e+00 -2.8046311191e-04 2.7948366566e+00 -4.8407990881e+00 2.7948366566e+00 4.8407990881e+00 
161400 5.0111136978e+00 -2.7953204094e-04 2.7948416741e+00 -4.8408077787e+00 2.7948416741e+00 4.8408077787e+00 
161500 5.0111136959e+00 -2.7860407008e-04 2.7948466750e+00 -4.8408164404e+00 2.7948466750e+00 4.8408164404e+00 
161600 5.0111136940e+00 -2.7767918896e-04 2.7948516592e+00 -4.8408250734e+00 2.7948516592e+00 4.8408250734e+00 
161700 5.0111136922e+00 -2.7675738722e-04 2.7948566269e+00 -4.8408336777e+00 2.7948566269e+00 4.8408336777e+00 
161800 5.0111136904e+00 -2.7583865455e-04 2.7948615781e+00 -4.8408422534e+00 2.7948615781e+00 4.8408422534e+00 
161900 5.0111136885e+00 -2.7492298069e-04 2.7948665129e+00 -4.8408508006e+00 2.7948665129e+00 4.8408508006e+00 
162000 5.0111136867e+00 -2.7401035539e-04 2.7948714312e+00 -4.8408593195e+00 2.7948714312e+00 4.8408593195e+00 
162100 5.0111136849e+00 -2.7310076845e-04 2.7948763332e+00 -4.8408678100e+00 2.7948763332e+00 4.8408678100e+00 
162200 5.0111136832e+00 -2.7219420970e-04 2.7948812190e+00 -4.8408762724e+00 2.7948812190e+00 4.8408762724e+00 
162300 5.0111136814e+00 -2.7129066899e-04 2.7948860885e+00 -4.8408847066e+00 2.7948860885e+00 4.8408847066e+00 
162400 5.0111136796e+00 -2.7039013623e-04 2.7948909418e+00 -4.8408931129e+00 2.7948909418e+00 4.8408931129e+00 
162500 5.0111136779e+00 -2.6949260136e-04 2.7948957791e+00 -4.8409014912e+00 2.7948957791e+00 4.8409014912e+00 
162600 5.0111136761e+00 -2.6859805433e-04 2.7949006002e+00 -4.8409098417e+00 2.7949006002e+00 4.8409098417e+00 
162700 5.0111136744e+00 -2.6770648514e-04 2.7949054054e+00 -4.8409181644e+00 2.7949054054e+00 4.8409181644e+00 
162800 5.0111136727e+00 -2.6681788384e-04 2.7949101946e+00 -4.8409264596e+00 2.7949101946e+00 4.8409264596e+00 
162900 5.0111136710e+00 -2.6593224048e-04 2.7949149678e+00 -4.8409347271e+00 2.7949149678e+00 4.8409347271e+00 
163000 5.0111136693e+00 -2.6504954517e-04 2.7949197253e+00 -4.8409429672e+00 2.7949197253e+00 4.8409429672e+00 
163100 5.0111136676e+00 -2.6416978805e-04 2.7949244669e+00 -4.8409511800e+00 2.7949244669e+00 4.8409511800e+00 
163200 5.0111136659e+00 -2.6329295928e-04 2.7949291928e+00 -4.8409593655e+00 2.7949291928e+00 4.8409593655e+00 
163300 5.0111136643e+00 -2.6241904906e-04 2.7949339030e+00 -4.8409675238e+00 2.7949339030e+00 4.8409675238e+00 
163400 5.0111136626e+00 -2.6154804763e-04 2.7949385975e+00 -4.8409756550e+00 2.7949385975e+00 4.8409756550e+00 
163500 5.0111136610e+00 -2.6067994525e-04 2.7949432765e+00 -4.8409837591e+00 2.7949432765e+00 4.8409837591e+00 
163600 5.0111136594e+00 -2.5981473222e-04 2.7949479399e+00 -4.8409918364e+00 2.7949479399e+00 4.8409918364e+00 
163700 5.0111136578e+00 -2.5895239889e-04 2.7949525878e+00 -4.8409998869e+00 2.7949525878e+00 4.8409998869e+00 
163800 5.0111136562e+00 -2.5809293560e-04 2.7949572203e+00 -4.8410079106e+00 2.7949572203e+00 4.8410079106e+00 
163900 5.0111136546e+00 -2.5723633277e-04 2.7949618375e+00 -4.8410159077e+00 2.7949618375e+00 4.8410159077e+00 
164000 5.0111136530e+00 -2.5638258082e-04 2.7949664393e+00 -4.8410238782e+00 2.7949664393e+00 4.8410238782e+00 
164100 5.0111136514e+00 -2.5553167021e-04 2.7949710258e+00 -4.8410318223e+00 2.7949710258e+00 4.8410318223e+00 
164200 5.0111136498e+00 -2.5468359144e-04 2.7949755970e+00 -4.8410397400e+00 2.7949755970e+00 4.8410397400e+00 
164300 5.0111136483e+00 -2.5383833504e-04 2.7949801531e+00 -4.8410476314e+00 2.7949801531e+00 4.8410476314e+00 
164400 5.0111136468e+00 -2.5299589156e-04 2.7949846941e+00 -4.8410554966e+00 2.7949846941e+00 4.8410554966e+00 
164500 5.0111136452e+00 -2.5215625160e-04 2.7949892200e+00 -4.8410633356e+00 2.7949892200e+00 4.8410633356e+00 
164600 5.0111136437e+00 -2.5131940578e-04 2.7949937309e+00 -4.8410711487e+00 2.7949937309e+00 4.8410711487e+00 
164700 5.0111136422e+00 -2.5048534476e-04 2.7949982267e+00 -4.8410789358e+00 2.7949982267e+00 4.8410789358e+00 
164800 5.0111136407e+00 -2.4965405921e-04 2.7950027077e+00 -4.8410866970e+00 2.7950027077e+00 4.8410866970e+00 
164900 5.0111136392e+00 -2.4882553986e-04 2.7950071738e+00 -4.8410944325e+00 2.7950071738e+00 4.8410944325e+00 
165000 5.0111136377e+00 -2.4799977746e-04 2.7950116250e+00 -4.8411021423e+00 2.7950116250e+00 4.8411021423e+00 
165100 5.0111136362e+00 -2.4717676278e-04 2.7950160615e+00 -4.8411098265e+00 2.7950160615e+00 4.8411098265e+00 
165200 5.0111136348e+00 -2.4635648664e-04 2.7950204833e+00 -4.8411174852e+00 2.7950204833e+00 4.8411174852e+00 
165300 5.0111136333e+00 -2.4553893988e-04 2.7950248903e+00 -4.8411251184e+00 2.7950248903e+00 4.8411251184e+00 
165400 5.0111136319e+00 -2.4472411337e-04 2.7950292827e+00 -4.8411327264e+00 2.7950292827e+00 4.8411327264e+00 
165500 5.0111136304e+00 -2.4391199802e-04 2.7950336606e+00 -4.8411403090e+00 2.7950336606e+00 4.8411403090e+00 
165600 5.0111136290e+00 -2.4310258475e-04 2.7950380239e+00 -4.8411478665e+00 2.7950380239e+00 4.8411478665e+00 
165700 5.0111136276e+00 -2.4229586455e-04 2.7950423727e+00 -4.8411553989e+00 2.7950423727e+00 4.8411553989e+00 
165800 5.0111136262e+00 -2.4149182839e-04 2.7950467071e+00 -4.8411629062e+00 2.7950467071e+00 4.8411629062e+00 
165900 5.0111136248e+00 -2.4069046732e-04 2.7950510271e+00 -4.8411703887e+00 2.7950510271e+00 4.8411703887e+00 
166000 5.0111136234e+00 -2.3989177238e-04 2.7950553328e+00 -4.8411778463e+00 2.7950553328e+00 4.8411778463e+00 
166100 5.0111136220e+00 -2.3909573465e-04 2.7950596241e+00 -4.8411852792e+00 2.7950596241e+00 4.8411852792e+00 
166200 5.0111136207e+00 -2.3830234527e-04 2.7950639012e+00 -4.8411926874e+00 2.7950639012e+00 4.8411926874e+00 
166300 5.0111136193e+00 -2.3751159536e-04 2.7950681642e+00 -4.8412000709e+00 2.7950681642e+00 4.8412000709e+00 
166400 5.0111136180e+00 -2.3672347612e-04 2.7950724129e+00 -4.8412074300e+00 2.7950724129e+00 4.8412074300e+00 
166500 5.0111136166e+00 -2.3593797874e-04 2.7950766476e+00 -4.8412147647e+00 2.7950766476e+00 4.8412147647e+00 
166600 5.0111136153e+00 -2.3515509447e-04 2.7950808682e+00 -4.8412220750e+00 2.7950808682e+00 4.8412220750e+00 
166700 5.0111136140e+00 -2.3437481456e-04 2.7950850748e+00 -4.8412293610e+00 2.7950850748e+00 4.8412293610e+00 
166800 5.0111136127e+00 -2.3359713031e-04 2.7950892674e+00 -4.8412366228e+00 2.7950892674e+00 4.8412366228e+00 
166900 5.0111136113e+00 -2.3282203305e-04 2.7950934461e+00 -4.8412438605e+00 2.7950934461e+00 4.8412438605e+00 
167000 5.0111136100e+00 -2.3204951412e-04 2.7950976109e+00 -4.8412510743e+00 2.7950976109e+00 4.8412510743e+00 
167100 5.0111136088e+00 -2.3127956492e-04 2.7951017619e+00 -4.8412582640e+00 2.7951017619e+00 4.8412582640e+00 
167200 5.0111136075e+00 -2.3051217685e-04 2.7951058992e+00 -4.8412654299e+00 2.7951058992e+00 4.8412654299e+00 
167300 5.0111136062e+00 -2.2974734136e-04 2.7951100227e+00 -4.8412725720e+00 2.7951100227e+00 4.8412725720e+00 
167400 5.0111136049e+00 -2.2898504991e-04 2.7951141325e+00 -4.8412796904e+00 2.7951141325e+00 4.8412796904e+00 
167500 5.0111136037e+00 -2.2822529400e-04 2.7951182287e+00 -4.8412867852e+00 2.7951182287e+00 4.8412867852e+00 
167600 5.0111136024e+00 -2.2746806515e-04 2.7951223112e+00 -4.8412938564e+00 2.7951223112e+00 4.8412938564e+00 
167700 5.0111136012e+00 -2.2671335494e-04 2.7951263802e+00 -4.8413009042e+00 2.7951263802e+00 4.8413009042e+00 
167800 5.0111136000e+00 -2.2596115492e-04 2.7951304358e+00 -4.8413079285e+00 2.7951304358e+00 4.8413079285e+00 
167900 5.0111135987e+00 -2.2521145673e-04 2.7951344778e+00 -4.8413149295e+00 2.7951344778e+00 4.8413149295e+00 
168000 5.0111135975e+00 -2.2446425200e-04 2.7951385064e+00 -4.8413219073e+00 2.7951385064e+00 4.8413219073e+00 
168100 5.0111135963e+00 -2.2371953240e-04 2.7951425217e+00 -4.8413288620e+00 2.7951425217e+00 4.8413288620e+00 
168200 5.0111135951e+00 -2.2297728962e-04 2.7951465236e+00 -4.8413357935e+00 2.7951465236e+00 4.8413357935e+00 
168300 5.0111135939e+00 -2.2223751539e-04 2.7951505123e+00 -4.8413427021e+00 2.7951505123e+00 4.8413427021e+00 
168400 5.0111135928e+00 -2.2150020147e-04 2.7951544877e+00 -4.8413495877e+00 2.7951544877e+00 4.8413495877e+00 
168500 5.0111135916e+00 -2.2076533963e-04 2.7951584499e+00 -4.8413564505e+00 2.7951584499e+00 4.8413564505e+00 
168600 5.0111135904e+00 -2.2003292168e-04 2.7951623990e+00 -4.8413632905e+00 2.7951623990e+00 4.8413632905e+00 
168700 5.0111135893e+00 -2.1930293945e-04 2.7951663349e+00 -4.8413701077e+00 2.7951663349e+00 4.8413701077e+00 
168800 5.0111135881e+00 -2.1857538482e-04 2.7951702578e+00 -4.8413769024e+00 2.7951702578e+00 4.8413769024e+00 
168900 5.0111135870e+00 -2.1785024966e-04 2.7951741677e+00 -4.8413836745e+00 2.7951741677e+00 4.8413836745e+00 
169000 5.0111135858e+00 -2.1712752591e-04 2.7951780646e+00 -4.8413904241e+00 2.7951780646e+00 4.8413904241e+00 
169100 5.0111135847e+00 -2.1640720550e-04 2.7951819486e+00 -4.8413971514e+00 2.7951819486e+00 4.8413971514e+00 
169200 5.0111135836e+00 -2.1568928040e-04 2.7951858197e+00 -4.8414038563e+00 2.7951858197e+00 4.8414038563e+00 
169300 5.0111135825e+00 -2.1497374262e-04 2.7951896779e+00 -4.8414105389e+00 2.7951896779e+00 4.8414105389e+00 
169400 5.0111135814e+00 -2.1426058418e-04 2.7951935233e+00 -4.8414171994e+00 2.7951935233e+00 4.8414171994e+00 
169500 5.0111135803e+00 -2.1354979714e-04 2.7951973560e+00 -4.8414238377e+00 2.7951973560e+00 4.8414238377e+00 
169600 5.0111135792e+00 -2.1284137356e-04 2.7952011759e+00 -4.8414304541e+00 2.7952011759e+00 4.8414304541e+00 
169700 5.0111135781e+00 -2.1213530557e-04 2.7952049832e+00 -4.8414370485e+00 2.7952049832e+00 4.8414370485e+00 
169800 5.0111135770e+00 -2.1143158530e-04 2.7952087778e+00 -4.8414436209e+00 2.7952087778e+00 4.8414436209e+00 
169900 5.0111135759e+00 -2.1073020489e-04 2.7952125599e+00 -4.8414501716e+00 2.7952125599e+00 4.8414501716e+00 
170000 5.0111135749e+00 -2.1003115655e-04 2.7952163293e+00 -4.8414567006e+00 2.7952163293e+00 4.8414567006e+00 
170100 5.0111135738e+00 -2.0933443248e-04 2.7952200863e+00 -4.8414632078e+00 2.7952200863e+00 4.8414632078e+00 
170200 5.0111135728e+00 -2.0864002491e-04 2.7952238308e+00 -4.8414696935e+00 2.7952238308e+00 4.8414696935e+00 
170300 5.0111135717e+00 -2.0794792613e-04 2.7952275629e+00 -4.8414761577e+00 2.7952275629e+00 4.8414761577e+00 
170400 5.0111135707e+00 -2.0725812840e-04 2.7952312826e+00 -4.8414826004e+00 2.7952312826e+00 4.8414826004e+00 
170500 5.0111135696e+00 -2.0657062406e-04 2.7952349900e+00 -4.8414890217e+00 2.7952349900e+00 4.8414890217e+00 
170600 5.0111135686e+00 -2.0588540545e-04 2.7952386850e+00 -4.8414954217e+00 2.7952386850e+00 4.8414954217e+00 
170700 5.0111135676e+00 -2.0520246492e-04 2.7952423678e+00 -4.8415018005e+00 2.7952423678e+00 4.8415018005e+00 
170800 5.0111135666e+00 -2.0452179488e-04 2.7952460384e+00 -4.8415081581e+00 2.7952460384e+00 4.8415081581e+00 
170900 5.0111135656e+00 -2.0384338775e-04 2.7952496967e+00 -4.8415144946e+00 2.7952496967e+00 4.8415144946e+00 
171000 5.0111135646e+00 -2.0316723597e-04 2.7952533430e+00 -4.8415208101e+00 2.7952533430e+00 4.8415208101e+00 
171100 5.0111135636e+00 -2.0249333201e-04 2.7952569771e+00 -4.8415271046e+00 2.7952569771e+00 4.8415271046e+00 
171200 5.0111135626e+00 -2.0182166837e-04 2.7952605992e+00 -4.8415333783e+00 2.7952605992e+00 4.8415333783e+00 
171300 5.0111135617e+00 -2.0115223757e-04 2.7952642093e+00 -4.8415396311e+00 2.7952642093e+00 4.8415396311e+00 
171400 5.0111135607e+00 -2.0048503215e-04 2.7952678074e+00 -4.8415458632e+00 2.7952678074e+00 4.8415458632e+00 
171500 5.0111135597e+00 -1.9982004469e-04 2.7952713935e+00 -4.8415520746e+00 2.7952713935e+00 4.8415520746e+00 
171600 5.0111135588e+00 -1.9915726778e-04 2.7952749678e+00 -4.8415582653e+00 2.7952749678e+00 4.8415582653e+00 
171700 5.0111135578e+00 -1.9849669404e-04 2.7952785302e+00 -4.8415644356e+00 2.7952785302e+00 4.8415644356e+00 
171800 5.0111135569e+00 -1.9783831612e-04 2.7952820808e+00 -4.8415705854e+00 2.7952820808e+00 4.8415705854e+00 
171900 5.0111135559e+00 -1.9718212669e-04 2.7952856196e+00 -4.8415767147e+00 2.7952856196e+00 4.8415767147e+00 
172000 5.0111135550e+00 -1.9652811845e-04 2.7952891466e+00 -4.8415828238e+00 2.7952891466e+00 4.8415828238e+00 
172100 5.0111135541e+00 -1.9587628411e-04 2.7952926619e+00 -4.8415889125e+00 2.7952926619e+00 4.8415889125e+00 
172200 5.0111135532e+00 -1.9522661642e-04 2.7952961656e+00 -4.8415949811e+00 2.7952961656e+00 4.8415949811e+00 
172300 5.0111135522e+00 -1.9457910815e-04 2.7952996577e+00 -4.8416010295e+00 2.7952996577e+00 4.8416010295e+00 
172400 5.0111135513e+00 -1.9393375209e-04 2.7953031382e+00 -4.8416070578e+00 2.7953031382e+00 4.8416070578e+00 
172500 5.0111135504e+00 -1.9329054106e-04 2.7953066071e+00 -4.8416130662e+00 2.7953066071e+00 4.8416130662e+00 
172600 5.0111135495e+00 -1.9264946790e-04 2.7953100645e+00 -4.8416190546e+00 2.7953100645e+00 4.8416190546e+00 
172700 5.0111135487e+00 -1.9201052548e-04 2.7953135104e+00 -4.8416250231e+00 2.7953135104e+00 4.8416250231e+00 
172800 5.0111135478e+00 -1.9137370668e-04 2.7953169449e+00 -4.8416309719e+00 2.7953169449e+00 4.8416309719e+00 
172900 5.0111135469e+00 -1.9073900442e-04 2.7953203681e+00 -4.8416369009e+00 2.7953203681e+00 4.8416369009e+00 
173000 5.0111135460e+00 -1.9010641164e-04 2.7953237798e+00 -4.8416428102e+00 2.7953237798e+00 4.8416428102e+00 
173100 5.0111135452e+00 -1.8947592129e-04 2.7953271802e+00 -4.8416487000e+00 2.7953271802e+00 4.8416487000e+00 
173200 5.0111135443e+00 -1.8884752637e-04 2.7953305694e+00 -4.8416545702e+00 2.7953305694e+00 4.8416545702e+00 
173300 5.0111135434e+00 -1.8822121987e-04 2.7953339473e+00 -4.8416604209e+00 2.7953339473e+00 4.8416604209e+00 
173400 5.0111135426e+00 -1.8759699484e-04 2.7953373140e+00 -4.8416662522e+00 2.7953373140e+00 4.8416662522e+00 
173500 5.0111135417e+00 -1.8697484433e-04 2.7953406696e+00 -4.8416720641e+00 2.7953406696e+00 4.8416720641e+00 
173600 5.0111135409e+00 -1.8635476141e-04 2.7953440140e+00 -4.8416778568e+00 2.7953440140e+00 4.8416778568e+00 
173700 5.0111135401e+00 -1.8573673919e-04 2.7953473473e+00 -4.8416836303e+00 2.7953473473e+00 4.8416836303e+00 
173800 5.0111135393e+00 -1.8512077080e-04 2.7953506695e+00 -4.8416893846e+00 2.7953506695e+00 4.8416893846e+00 
173900 5.0111135384e+00 -1.8450684937e-04 2.7953539807e+00 -4.8416951198e+00 2.7953539807e+00 4.8416951198e+00 
174000 5.0111135376e+00 -1.8389496809e-04 2.7953572810e+00 -4.8417008360e+00 2.7953572810e+00 4.8417008360e+00 
174100 5.0111135368e+00 -1.8328512014e-04 2.7953605703e+00 -4.8417065332e+00 2.7953605703e+00 4.8417065332e+00 
174200 5.0111135360e+00 -1.8267729874e-04 2.7953638487e+00 -4.8417122115e+00 2.7953638487e+00 4.8417122115e+00 
174300 5.0111135352e+00 -1.8207149714e-04 2.7953671162e+00 -4.8417178710e+00 2.7953671162e+00 4.8417178710e+00 
174400 5.0111135344e+00 -1.8146770860e-04 2.7953703728e+00 -4.8417235117e+00 2.7953703728e+00 4.8417235117e+00 
174500 5.0111135336e+00 -1.8086592639e-04 2.7953736187e+00 -4.8417291337e+00 2.7953736187e+00 4.8417291337e+00 
174600 5.0111135328e+00 -1.8026614383e-04 2.7953768538e+00 -4.8417347371e+00 2.7953768538e+00 4.8417347371e+00 
174700 5.0111135321e+00 -1.7966835425e-04 2.7953800781e+00 -4.8417403218e+00 2.7953800781e+00 4.8417403218e+00 
174800 5.0111135313e+00 -1.7907255100e-04 2.7953832918e+00 -4.8417458880e+00 2.7953832918e+00 4.8417458880e+00 
174900 5.0111135305e+00 -1.7847872746e-04 2.7953864948e+00 -4.8417514358e+00 2.7953864948e+00 4.8417514358e+00 
175000 5.0111135297e+00 -1.7788687701e-04 2.7953896872e+00 -4.8417569652e+00 2.7953896872e+00 4.8417569652e+00 
175100 5.0111135290e+00 -1.7729699309e-04 2.7953928690e+00 -4.8417624762e+00 2.7953928690e+00 4.8417624762e+00 
175200 5.0111135282e+00 -1.7670906914e-04 2.7953960402e+00 -4.8417679689e+00 2.7953960402e+00 4.8417679689e+00 
175300 5.0111135275e+00 -1.7612309861e-04 2.7953992009e+00 -4.8417734435e+00 2.7953992009e+00 4.8417734435e+00 
175400 5.0111135267e+00 -1.7553907499e-04 2.7954023512e+00 -4.8417788998e+00 2.7954023512e+00 4.8417788998e+00 
175500 5.0111135260e+00 -1.7495699179e-04 2.7954054910e+00 -4.8417843381e+00 2.7954054910e+00 4.8417843381e+00 
175600 5.0111135253e+00 -1.7437684254e-04 2.7954086203e+00 -4.8417897583e+00 2.7954086203e+00 4.8417897583e+00 
175700 5.0111135245e+00 -1.7379862079e-04 2.7954117393e+00 -4.8417951606e+00 2.7954117393e+00 4.8417951606e+00 
175800 5.0111135238e+00 -1.7322232011e-04 2.7954148480e+00 -4.8418005449e+00 2.7954148480e+00 4.8418005449e+00 
175900 5.0111135231e+00 -1.7264793409e-04 2.7954179463e+00 -4.8418059114e+00 2.7954179463e+00 4.8418059114e+00 
176000 5.0111135224e+00 -1.7207545636e-04 2.7954210343e+00 -4.8418112600e+00 2.7954210343e+00 4.8418112600e+00 
176100 5.0111135217e+00 -1.7150488055e-04 2.7954241121e+00 -4.8418165909e+00 2.7954241121e+00 4.8418165909e+00 
176200 5.0111135210e+00 -1.7093620031e-04 2.7954271797e+00 -4.8418219042e+00 2.7954271797e+00 4.8418219042e+00 
176300 5.0111135203e+00 -1.7036940932e-04 2.7954302372e+00 -4.8418271998e+00 2.7954302372e+00 4.8418271998e+00 
176400 5.0111135196e+00 -1.6980450130e-04 2.7954332845e+00 -4.8418324778e+00 2.7954332845e+00 4.8418324778e+00 
176500 5.0111135189e+00 -1.6924146995e-04 2.7954363216e+00 -4.8418377384e+00 2.7954363216e+00 4.8418377384e+00 
176600 5.0111135182e+00 -1.6868030902e-04 2.7954393487e+00 -4.8418429815e+00 2.7954393487e+00 4.8418429815e+00 
176700 5.0111135175e+00 -1.6812101228e-04 2.7954423658e+00 -4.8418482072e+00 2.7954423658e+00 4.8418482072e+00 
176800 5.0111135168e+00 -1.6756357351e-04 2.7954453729e+00 -4.8418534156e+00 2.7954453729e+00 4.8418534156e+00 
176900 5.0111135162e+00 -1.6700798652e-04 2.7954483699e+00 -4.8418586067e+00 2.7954483699e+00 4.8418586067e+00 
177000 5.0111135155e+00 -1.6645424513e-04 2.7954513571e+00 -4.8418637806e+00 2.7954513571e+00 4.8418637806e+00 
177100 5.0111135148e+00 -1.6590234319e-04 2.7954543343e+00 -4.8418689373e+00 2.7954543343e+00 4.8418689373e+00 
177200 5.0111135142e+00 -1.6535227457e-04 2.7954573017e+00 -4.8418740769e+00 2.7954573017e+00 4.8418740769e+00 
177300 5.0111135135e+00 -1.6480403316e-04 2.7954602592e+00 -4.8418791995e+00 2.7954602592e+00 4.8418791995e+00 
177400 5.0111135129e+00 -1.6425761286e-04 2.7954632069e+00 -4.8418843050e+00 2.7954632069e+00 4.8418843050e+00 
177500 5.0111135122e+00 -1.6371300761e-04 2.7954661448e+00 -4.8418893937e+00 2.7954661448e+00 4.8418893937e+00 
177600 5.0111135116e+00 -1.6317021135e-04 2.7954690730e+00 -4.8418944655e+00 2.7954690730e+00 4.8418944655e+00 
177700 5.0111135109e+00 -1.6262921806e-04 2.7954719915e+00 -4.8418995204e+00 2.7954719915e+00 4.8418995204e+00 
177800 5.0111135103e+00 -1.6209002173e-04 2.7954749003e+00 -4.8419045586e+00 2.7954749003e+00 4.8419045586e+00 
177900 5.0111135097e+00 -1.6155261636e-04 2.7954777994e+00 -4.8419095801e+00 2.7954777994e+00 4.8419095801e+00 
178000 5.0111135090e+00 -1.6101699599e-04 2.7954806890e+00 -4.8419145849e+00 2.7954806890e+00 4.8419145849e+00 
178100 5.0111135084e+00 -1.6048315467e-04 2.7954835689e+00 -4.8419195731e+00 2.7954835689e+00 4.8419195731e+00 
178200 5.0111135078e+00 -1.5995108646e-04 2.7954864393e+00 -4.8419245448e+00 2.7954864393e+00 4.8419245448e+00 
178300 5.0111135072e+00 -1.5942078547e-04 2.7954893002e+00 -4.8419295000e+00 2.7954893002e+00 4.8419295000e+00 
178400 5.0111135066e+00 -1.5889224579e-04 2.7954921516e+00 -4.8419344388e+00 2.7954921516e+00 4.8419344388e+00 
178500 5.0111135060e+00 -1.5836546157e-04 2.7954949935e+00 -4.8419393611e+00 2.7954949935e+00 4.8419393611e+00 
178600 5.0111135054e+00 -1.5784042694e-04 2.7954978261e+00 -4.8419442672e+00 2.7954978261e+00 4.8419442672e+00 
178700 5.0111135048e+00 -1.5731713608e-04 2.7955006492e+00 -4.8419491570e+00 2.7955006492e+00 4.8419491570e+00 
178800 5.0111135042e+00 -1.5679558318e-04 2.7955034629e+00 -4.8419540305e+00 2.7955034629e+00 4.8419540305e+00 
178900 5.0111135036e+00 -1.5627576245e-04 2.7955062674e+00 -4.8419588879e+00 2.7955062674e+00 4.8419588879e+00 
179000 5.0111135030e+00 -1.5575766811e-04 2.7955090625e+00 -4.8419637292e+00 2.7955090625e+00 4.8419637292e+00 
179100 5.0111135024e+00 -1.5524129441e-04 2.7955118483e+00 -4.8419685545e+00 2.7955118483e+00 4.8419685545e+00 
179200 5.0111135018e+00 -1.5472663562e-04 2.7955146250e+00 -4.8419733637e+00 2.7955146250e+00 4.8419733637e+00 
179300 5.0111135013e+00 -1.5421368602e-04 2.7955173924e+00 -4.8419781570e+00 2.7955173924e+00 4.8419781570e+00 
179400 5.0111135007e+00 -1.5370243992e-04 2.7955201506e+00 -4.8419829344e+00 2.7955201506e+00 4.8419829344e+00 
179500 5.0111135001e+00 -1.5319289165e-04 2.7955228997e+00 -4.8419876960e+00 2.7955228997e+00 4.8419876960e+00 
179600 5.0111134996e+00 -1.5268503553e-04 2.7955256397e+00 -4.8419924417e+00 2.7955256397e+00 4.8419924417e+00 
179700 5.0111134990e+00 -1.5217886595e-04 2.7955283705e+00 -4.8419971718e+00 2.7955283705e+00 4.8419971718e+00 
179800 5.0111134985e+00 -1.5167437727e-04 2.7955310924e+00 -4.8420018861e+00 2.7955310924e+00 4.8420018861e+00 
179900 5.0111134979e+00 -1.5117156391e-04 2.7955338052e+00 -4.8420065848e+00 2.7955338052e+00 4.8420065848e+00 
180000 5.0111134974e+00 -1.5067042027e-04 2.7955365090e+00 -4.8420112680e+00 2.7955365090e+00 4.8420112680e+00 
180100 5.0111134968e+00 -1.5017094079e-04 2.7955392038e+00 -4.8420159356e+00 2.7955392038e+00 4.8420159356e+00 
180200 5.0111134963e+00 -1.4967311993e-04 2.7955418897e+00 -4.8420205877e+00 2.7955418897e+00 4.8420205877e+00 
180300 5.0111134957e+00 -1.4917695217e-04 2.7955445667e+00 -4.8420252244e+00 2.7955445667e+00 4.8420252244e+00 
180400 5.0111134952e+00 -1.4868243199e-04 2.7955472348e+00 -4.8420298457e+00 2.7955472348e+00 4.8420298457e+00 
180500 5.0111134947e+00 -1.4818955391e-04 2.7955498941e+00 -4.8420344517e+00 2.7955498941e+00 4.8420344517e+00 
180600 5.0111134941e+00 -1.4769831246e-04 2.7955525446e+00 -4.8420390424e+00 2.7955525446e+00 4.8420390424e+00 
180700 5.0111134936e+00 -1.4720870218e-04 2.7955551862e+00 -4.8420436179e+00 2.7955551862e+00 4.8420436179e+00 
180800 5.0111134931e+00 -1.4672071765e-04 2.7955578191e+00 -4.8420481782e+00 2.7955578191e+00 4.8420481782e+00 
180900 5.0111134926e+00 -1.4623435345e-04 2.7955604433e+00 -4.8420527234e+00 2.7955604433e+00 4.8420527234e+00 
181000 5.0111134921e+00 -1.4574960417e-04 2.7955630588e+00 -4.8420572536e+00 2.7955630588e+00 4.8420572536e+00 
181100 5.0111134916e+00 -1.4526646445e-04 2.7955656656e+00 -4.8420617687e+00 2.7955656656e+00 4.8420617687e+00 
181200 5.0111134911e+00 -1.4478492891e-04 2.7955682637e+00 -4.8420662688e+00 2.7955682637e+00 4.8420662688e+00 
181300 5.0111134906e+00 -1.4430499222e-04 2.7955708533e+00 -4.8420707541e+00 2.7955708533e+00 4.8420707541e+00 
181400 5.0111134901e+00 -1.4382664906e-04 2.7955734342e+00 -4.8420752244e+00 2.7955734342e+00 4.8420752244e+00 
181500 5.0111134896e+00 -1.4334989410e-04 2.7955760066e+00 -4.8420796799e+00 2.7955760066e+00 4.8420796799e+00 
181600 5.0111134891e+00 -1.4287472208e-04 2.7955785705e+00 -4.8420841207e+00 2.7955785705e+00 4.8420841207e+00 
181700 5.0111134886e+00 -1.4240112770e-04 2.7955811259e+00 -4.8420885467e+00 2.7955811259e+00 4.8420885467e+00 
181800 5.0111134881e+00 -1.4192910572e-04 2.7955836728e+00 -4.8420929581e+00 2.7955836728e+00 4.8420929581e+00 
181900 5.0111134876e+00 -1.4145865090e-04 2.7955862112e+00 -4.8420973548e+00 2.7955862112e+00 4.8420973548e+00 
182000 5.0111134871e+00 -1.4098975803e-04 2.7955887413e+00 -4.8421017370e+00 2.7955887413e+00 4.8421017370e+00 
182100 5.0111134867e+00 -1.4052242189e-04 2.7955912629e+00 -4.8421061046e+00 2.7955912629e+00 4.8421061046e+00 
182200 5.0111134862e+00 -1.4005663731e-04 2.7955937762e+00 -4.8421104577e+00 2.7955937762e+00 4.8421104577e+00 
182300 5.0111134857e+00 -1.3959239913e-04 2.7955962812e+00 -4.8421147964e+00 2.7955962812e+00 4.8421147964e+00 
182400 5.0111134852e+00 -1.3912970218e-04 2.7955987778e+00 -4.8421191207e+00 2.7955987778e+00 4.8421191207e+00 
182500 5.0111134848e+00 -1.3866854133e-04 2.7956012662e+00 -4.8421234307e+00 2.7956012662e+00 4.8421234307e+00 
182600 5.0111134843e+00 -1.3820891148e-04 2.7956037463e+00 -4.8421277264e+00 2.7956037463e+00 4.8421277264e+00 
182700 5.0111134839e+00 -1.3775080753e-04 2.7956062182e+00 -4.8421320079e+00 2.7956062182e+00 4.8421320079e+00 
182800 5.0111134834e+00 -1.3729422439e-04 2.7956086819e+00 -4.8421362751e+00 2.7956086819e+00 4.8421362751e+00 
182900 5.0111134829e+00 -1.3683915700e-04 2.7956111374e+00 -4.8421405282e+00 2.7956111374e+00 4.8421405282e+00 
183000 5.0111134825e+00 -1.3638560031e-04 2.7956135848e+00 -4.8421447673e+00 2.7956135848e+00 4.8421447673e+00 
183100 5.0111134821e+00 -1.3593354929e-04 2.7956160241e+00 -4.8421489922e+00 2.7956160241e+00 4.8421489922e+00 
183200 5.0111134816e+00 -1.3548299893e-04 2.7956184553e+00 -4.8421532032e+00 2.7956184553e+00 4.8421532032e+00 
183300 5.0111134812e+00 -1.3503394424e-04 2.7956208784e+00 -4.8421574001e+00 2.7956208784e+00 4.8421574001e+00 
183400 5.0111134807e+00 -1.3458638022e-04 2.7956232935e+00 -4.8421615832e+00 2.7956232935e+00 4.8421615832e+00 
183500 5.0111134803e+00 -1.3414030193e-04 2.7956257006e+00 -4.8421657524e+00 2.7956257006e+00 4.8421657524e+00 
183600 5.0111134799e+00 -1.3369570442e-04 2.7956280997e+00 -4.8421699078e+00 2.7956280997e+00 4.8421699078e+00 
183700 5.0111134794e+00 -1.3325258274e-04 2.7956304909e+00 -4.8421740494e+00 2.7956304909e+00 4.8421740494e+00 
183800 5.0111134790e+00 -1.3281093200e-04 2.7956328741e+00 -4.8421781773e+00 2.7956328741e+00 4.8421781773e+00 
183900 5.0111134786e+00 -1.3237074729e-04 2.7956352494e+00 -4.8421822915e+00 2.7956352494e+00 4.8421822915e+00 
184000 5.0111134782e+00 -1.3193202373e-04 2.7956376169e+00 -4.8421863920e+00 2.7956376169e+00 4.8421863920e+00 
184100 5.0111134777e+00 -1.3149475646e-04 2.7956399765e+00 -4.8421904790e+00 2.7956399765e+00 4.8421904790e+00 
184200 5.0111134773e+00 -1.3105894064e-04 2.7956423283e+00 -4.8421945524e+00 2.7956423283e+00 4.8421945524e+00 
184300 5.0111134769e+00 -1.3062457142e-04 2.7956446723e+00 -4.8421986123e+00 2.7956446723e+00 4.8421986123e+00 
184400 5.0111134765e+00 -1.3019164400e-04 2.7956470085e+00 -4.8422026587e+00 2.7956470085e+00 4.8422026587e+00 
184500 5.0111134761e+00 -1.2976015357e-04 2.7956493370e+00 -4.8422066918e+00 2.7956493370e+00 4.8422066918e+00 
184600 5.0111134757e+00 -1.2933009535e-04 2.7956516577e+00 -4.8422107114e+00 2.7956516577e+00 4.8422107114e+00 
184700 5.0111134753e+00 -1.2890146458e-04 2.7956539708e+00 -4.8422147178e+00 2.7956539708e+00 4.8422147178e+00 
184800 5.0111134749e+00 -1.2847425650e-04 2.7956562762e+00 -4.8422187108e+00 2.7956562762e+00 4.8422187108e+00 
184900 5.0111134745e+00 -1.2804846637e-04 2.7956585739e+00 -4.8422226906e+00 2.7956585739e+00 4.8422226906e+00 
185000 5.0111134741e+00 -1.2762408948e-04 2.7956608640e+00 -4.8422266573e+00 2.7956608640e+00 4.8422266573e+00 
185100 5.0111134737e+00 -1.2720112113e-04 2.7956631466e+00 -4.8422306107e+00 2.7956631466e+00 4.8422306107e+00 
185200 5.0111134733e+00 -1.2677955662e-04 2.7956654216e+00 -4.8422345511e+00 2.7956654216e+00 4.8422345511e+00 
185300 5.0111134729e+00 -1.2635939129e-04 2.7956676890e+00 -4.8422384784e+00 2.7956676890e+00 4.8422384784e+00 
185400 5.0111134726e+00 -1.2594062047e-04 2.7956699489e+00 -4.8422423927e+00 2.7956699489e+00 4.8422423927e+00 
185500 5.0111134722e+00 -1.2552323952e-04 2.7956722013e+00 -4.8422462940e+00 2.7956722013e+00 4.8422462940e+00 
185600 5.0111134718e+00 -1.2510724383e-04 2.7956744463e+00 -4.8422501824e+00 2.7956744463e+00 4.8422501824e+00 
185700 5.0111134714e+00 -1.2469262878e-04 2.7956766838e+00 -4.8422540579e+00 2.7956766838e+00 4.8422540579e+00 
185800 5.0111134711e+00 -1.2427938976e-04 2.7956789139e+00 -4.8422579205e+00 2.7956789139e+00 4.8422579205e+00 
185900 5.0111134707e+00 -1.2386752222e-04 2.7956811366e+00 -4.8422617703e+00 2.7956811366e+00 4.8422617703e+00 
186000 5.0111134703e+00 -1.2345702157e-04 2.7956833519e+00 -4.8422656074e+00 2.7956833519e+00 4.8422656074e+00 
186100 5.0111134700e+00 -1.2304788328e-04 2.7956855599e+00 -4.8422694318e+00 2.7956855599e+00 4.8422694318e+00 
186200 5.0111134696e+00 -1.2264010281e-04 2.7956877606e+00 -4.8422732435e+00 2.7956877606e+00 4.8422732435e+00 
186300 5.0111134692e+00 -1.2223367563e-04 2.7956899540e+00 -4.8422770425e+00 2.7956899540e+00 4.8422770425e+00 
186400 5.0111134689e+00 -1.2182859726e-04 2.7956921401e+00 -4.8422808290e+00 2.7956921401e+00 4.8422808290e+00 
186500 5.0111134685e+00 -1.2142486319e-04 2.7956943190e+00 -4.8422846029e+00 2.7956943190e+00 4.8422846029e+00 
186600 5.0111134682e+00 -1.2102246896e-04 2.7956964906e+00 -4.8422883643e+00 2.7956964906e+00 4.8422883643e+00 
186700 5.0111134678e+00 -1.2062141010e-04 2.7956986550e+00 -4.8422921132e+00 2.7956986550e+00 4.8422921132e+00 
186800 5.0111134675e+00 -1.2022168218e-04 2.7957008123e+00 -4.8422958497e+00 2.7957008123e+00 4.8422958497e+00 
186900 5.0111134671e+00 -1.1982328076e-04 2.7957029624e+00 -4.8422995738e+00 2.7957029624e+00 4.8422995738e+00 
187000 5.0111134668e+00 -1.1942620144e-04 2.7957051054e+00 -4.8423032856e+00 2.7957051054e+00 4.8423032856e+00 
187100 5.0111134664e+00 -1.1903043980e-04 2.7957072413e+00 -4.8423069850e+00 2.7957072413e+00 4.8423069850e+00 
187200 5.0111134661e+00 -1.1863599148e-04 2.7957093701e+00 -4.8423106722e+00 2.7957093701e+00 4.8423106722e+00 
187300 5.0111134657e+00 -1.1824285209e-04 2.7957114919e+00 -4.8423143472e+00 2.7957114919e+00 4.8423143472e+00 
187400 5.0111134654e+00 -1.1785101729e-04 2.7957136066e+00 -4.8423180100e+00 2.7957136066e+00 4.8423180100e+00 
187500 5.0111134651e+00 -1.1746048273e-04 2.7957157143e+00 -4.8423216607e+00 2.7957157143e+00 4.8423216607e+00 
187600 5.0111134647e+00 -1.1707124409e-04 2.7957178150e+00 -4.8423252992e+00 2.7957178150e+00 4.8423252992e+00 
187700 5.0111134644e+00 -1.1668329705e-04 2.7957199088e+00 -4.8423289257e+00 2.7957199088e+00 4.8423289257e+00 
187800 5.0111134641e+00 -1.1629663733e-04 2.7957219956e+00 -4.8423325402e+00 2.7957219956e+00 4.8423325402e+00 
187900 5.0111134638e+00 -1.1591126063e-04 2.7957240755e+00 -4.8423361427e+00 2.7957240755e+00 4.8423361427e+00 
188000 5.0111134634e+00 -1.1552716268e-04 2.7957261485e+00 -4.8423397333e+00 2.7957261485e+00 4.8423397333e+00 
188100 5.0111134631e+00 -1.1514433924e-04 2.7957282146e+00 -4.8423433119e+00 2.7957282146e+00 4.8423433119e+00 
188200 5.0111134628e+00 -1.1476278607e-04 2.7957302739e+00 -4.8423468787e+00 2.7957302739e+00 4.8423468787e+00 
188300 5.0111134625e+00 -1.1438249893e-04 2.7957323264e+00 -4.8423504337e+00 2.7957323264e+00 4.8423504337e+00 
188400 5.0111134622e+00 -1.1400347362e-04 2.7957343721e+00 -4.8423539769e+00 2.7957343721e+00 4.8423539769e+00 
188500 5.0111134619e+00 -1.1362570594e-04 2.7957364109e+00 -4.8423575083e+00 2.7957364109e+00 4.8423575083e+00 
188600 5.0111134616e+00 -1.1324919171e-04 2.7957384431e+00 -4.8423610281e+00 2.7957384431e+00 4.8423610281e+00 
188700 5.0111134612e+00 -1.1287392675e-04 2.7957404685e+00 -4.8423645362e+00 2.7957404685e+00 4.8423645362e+00 
188800 5.0111134609e+00 -1.1249990691e-04 2.7957424871e+00 -4.8423680326e+00 2.7957424871e+00 4.8423680326e+00 
188900 5.0111134606e+00 -1.1212712805e-04 2.7957444991e+00 -4.8423715175e+00 2.7957444991e+00 4.8423715175e+00 
189000 5.0111134603e+00 -1.1175558605e-04 2.7957465044e+00 -4.8423749908e+00 2.7957465044e+00 4.8423749908e+00 
189100 5.0111134600e+00 -1.1138527678e-04 2.7957485031e+00 -4.8423784526e+00 2.7957485031e+00 4.8423784526e+00 
189200 5.0111134597e+00 -1.1101619615e-04 2.7957504952e+00 -4.8423819029e+00 2.7957504952e+00 4.8423819029e+00 
189300 5.0111134594e+00 -1.1064834007e-04 2.7957524806e+00 -4.8423853418e+00 2.7957524806e+00 4.8423853418e+00 
189400 5.0111134591e+00 -1.1028170446e-04 2.7957544595e+00 -4.8423887693e+00 2.7957544595e+00 4.8423887693e+00 
189500 5.0111134589e+00 -1.0991628528e-04 2.7957564318e+00 -4.8423921854e+00 2.7957564318e+00 4.8423921854e+00 
189600 5.0111134586e+00 -1.0955207846e-04 2.7957583976e+00 -4.8423955902e+00 2.7957583976e+00 4.8423955902e+00 
189700 5.0111134583e+00 -1.0918907999e-04 2.7957603568e+00 -4.8423989838e+00 2.7957603568e+00 4.8423989838e+00 
189800 5.0111134580e+00 -1.0882728584e-04 2.7957623096e+00 -4.8424023661e+00 2.7957623096e+00 4.8424023661e+00 
189900 5.0111134577e+00 -1.0846669201e-04 2.7957642559e+00 -4.8424057371e+00 2.7957642559e+00 4.8424057371e+00 
190000 5.0111134574e+00 -1.0810729450e-04 2.7957661957e+00 -4.8424090970e+00 2.7957661957e+00 4.8424090970e+00 
190100 5.0111134571e+00 -1.0774908934e-04 2.7957681291e+00 -4.8424124458e+00 2.7957681291e+00 4.8424124458e+00 
190200 5.0111134569e+00 -1.0739207255e-04 2.7957700561e+00 -4.8424157835e+00 2.7957700561e+00 4.8424157835e+00 
190300 5.0111134566e+00 -1.0703624020e-04 2.7957719767e+00 -4.8424191101e+00 2.7957719767e+00 4.8424191101e+00 
190400 5.0111134563e+00 -1.0668158834e-04 2.7957738910e+00 -4.8424224257e+00 2.7957738910e+00 4.8424224257e+00 
190500 5.0111134560e+00 -1.0632811304e-04 2.7957757989e+00 -4.8424257303e+00 2.7957757989e+00 4.8424257303e+00 
190600 5.0111134558e+00 -1.0597581039e-04 2.7957777005e+00 -4.8424290239e+00 2.7957777005e+00 4.8424290239e+00 
190700 5.0111134555e+00 -1.0562467649e-04 2.7957795958e+00 -4.8424323066e+00 2.7957795958e+00 4.8424323066e+00 
190800 5.0111134552e+00 -1.0527470746e-04 2.7957814848e+00 -4.8424355785e+00 2.7957814848e+00 4.8424355785e+00 
190900 5.0111134550e+00 -1.0492589942e-04 2.7957833675e+00 -4.8424388395e+00 2.7957833675e+00 4.8424388395e+00 
191000 5.0111134547e+00 -1.0457824851e-04 2.7957852440e+00 -4.8424420897e+00 2.7957852440e+00 4.8424420897e+00 
191100 5.0111134544e+00 -1.0423175089e-04 2.7957871143e+00 -4.8424453291e+00 2.7957871143e+00 4.8424453291e+00 
191200 5.0111134542e+00 -1.0388640272e-04 2.7957889784e+00 -4.8424485578e+00 2.7957889784e+00 4.8424485578e+00 
191300 5.0111134539e+00 -1.0354220017e-04 2.7957908363e+00 -4.8424517758e+00 2.7957908363e+00 4.8424517758e+00 
191400 5.0111134537e+00 -1.0319913944e-04 2.7957926880e+00 -4.8424549831e+00 2.7957926880e+00 4.8424549831e+00 
191500 5.0111134534e+00 -1.0285721673e-04 2.7957945337e+00 -4.8424581798e+00 2.7957945337e+00 4.8424581798e+00 
191600 5.0111134532e+00 -1.0251642826e-04 2.7957963732e+00 -4.8424613659e+00 2.7957963732e+00 4.8424613659e+00 
191700 5.0111134529e+00 -1.0217677025e-04 2.7957982066e+00 -4.8424645415e+00 2.7957982066e+00 4.8424645415e+00 
191800 5.0111134526e+00 -1.0183823895e-04 2.7958000339e+00 -4.8424677065e+00 2.7958000339e+00 4.8424677065e+00 
191900 5.0111134524e+00 -1.0150083062e-04 2.7958018552e+00 -4.8424708610e+00 2.7958018552e+00 4.8424708610e+00 
192000 5.0111134522e+00 -1.0116454151e-04 2.7958036704e+00 -4.8424740051e+00 2.7958036704e+00 4.8424740051e+00 
192100 5.0111134519e+00 -1.0082936791e-04 2.7958054796e+00 -4.8424771388e+00 2.7958054796e+00 4.8424771388e+00 
192200 5.0111134517e+00 -1.0049530611e-04 2.7958072828e+00 -4.8424802621e+00 2.7958072828e+00 4.8424802621e+00 
192300 5.0111134514e+00 -1.0016235240e-04 2.7958090801e+00 -4.8424833750e+00 2.7958090801e+00 4.8424833750e+00 
192400 5.0111134512e+00 -9.9830503120e-05 2.7958108714e+00 -4.8424864776e+00 2.7958108714e+00 4.8424864776e+00 
192500 5.0111134509e+00 -9.9499754583e-05 2.7958126567e+00 -4.8424895699e+00 2.7958126567e+00 4.8424895699e+00 
192600 5.0111134507e+00 -9.9170103133e-05 2.7958144362e+00 -4.8424926520e+00 2.7958144362e+00 4.8424926520e+00 
192700 5.0111134505e+00 -9.8841545122e-05 2.7958162097e+00 -4.8424957239e+00 2.7958162097e+00 4.8424957239e+00 
192800 5.0111134502e+00 -9.8514076916e-05 2.7958179774e+00 -4.8424987856e+00 2.7958179774e+00 4.8424987856e+00 
192900 5.0111134500e+00 -9.8187694892e-05 2.7958197392e+00 -4.8425018371e+00 2.7958197392e+00 4.8425018371e+00 
193000 5.0111134498e+00 -9.7862395440e-05 2.7958214952e+00 -4.8425048786e+00 2.7958214952e+00 4.8425048786e+00 
193100 5.0111134495e+00 -9.7538174959e-05 2.7958232453e+00 -4.8425079099e+00 2.7958232453e+00 4.8425079099e+00 
193200 5.0111134493e+00 -9.7215029866e-05 2.7958249897e+00 -4.8425109312e+00 2.7958249897e+00 4.8425109312e+00 
193300 5.0111134491e+00 -9.6892956582e-05 2.7958267283e+00 -4.8425139425e+00 2.7958267283e+00 4.8425139425e+00 
193400 5.0111134489e+00 -9.6571951547e-05 2.7958284611e+00 -4.8425169439e+00 2.7958284611e+00 4.8425169439e+00 
193500 5.0111134486e+00 -9.6252011209e-05 2.7958301882e+00 -4.8425199352e+00 2.7958301882e+00 4.8425199352e+00 
193600 5.0111134484e+00 -9.5933132030e-05 2.7958319095e+00 -4.8425229167e+00 2.7958319095e+00 4.8425229167e+00 
193700 5.0111134482e+00 -9.5615310482e-05 2.7958336252e+00 -4.8425258883e+00 2.7958336252e+00 4.8425258883e+00 
193800 5.0111134480e+00 -9.5298543050e-05 2.7958353351e+00 -4.8425288500e+00 2.7958353351e+00 4.8425288500e+00 
193900 5.0111134477e+00 -9.4982826229e-05 2.7958370394e+00 -4.8425318019e+00 2.7958370394e+00 4.8425318019e+00 
194000 5.0111134475e+00 -9.4668156528e-05 2.7958387381e+00 -4.8425347441e+00 2.7958387381e+00 4.8425347441e+00 
194100 5.0111134473e+00 -9.4354530467e-05 2.7958404311e+00 -4.8425376765e+00 2.7958404311e+00 4.8425376765e+00 
194200 5.0111134471e+00 -9.4041944576e-05 2.7958421185e+00 -4.8425405992e+00 2.7958421185e+00 4.8425405992e+00 
194300 5.0111134469e+00 -9.3730395399e-05 2.7958438003e+00 -4.8425435122e+00 2.7958438003e+00 4.8425435122e+00 
194400 5.0111134467e+00 -9.3419879490e-05 2.7958454766e+00 -4.8425464155e+00 2.7958454766e+00 4.8425464155e+00 
194500 5.0111134465e+00 -9.3110393415e-05 2.7958471472e+00 -4.8425493092e+00 2.7958471472e+00 4.8425493092e+00 
194600 5.0111134463e+00 -9.2801933751e-05 2.7958488124e+00 -4.8425521934e+00 2.7958488124e+00 4.8425521934e+00 
194700 5.0111134461e+00 -9.2494497086e-05 2.7958504720e+00 -4.8425550679e+00 2.7958504720e+00 4.8425550679e+00 
194800 5.0111134459e+00 -9.2188080022e-05 2.7958521262e+00 -4.8425579330e+00 2.7958521262e+00 4.8425579330e+00 
194900 5.0111134456e+00 -9.1882679169e-05 2.7958537748e+00 -4.8425607885e+00 2.7958537748e+00 4.8425607885e+00 
195000 5.0111134454e+00 -9.1578291150e-05 2.7958554180e+00 -4.8425636346e+00 2.7958554180e+00 4.8425636346e+00 
195100 5.0111134452e+00 -9.1274912599e-05 2.7958570558e+00 -4.8425664713e+00 2.7958570558e+00 4.8425664713e+00 
195200 5.0111134450e+00 -9.0972540161e-05 2.7958586881e+00 -4.8425692986e+00 2.7958586881e+00 4.8425692986e+00 
195300 5.0111134448e+00 -9.0671170494e-05 2.7958603150e+00 -4.8425721165e+00 2.7958603150e+00 4.8425721165e+00 
195400 5.0111134446e+00 -9.0370800264e-05 2.7958619365e+00 -4.8425749250e+00 2.7958619365e+00 4.8425749250e+00 
195500 5.0111134445e+00 -9.0071426150e-05 2.7958635527e+00 -4.8425777243e+00 2.7958635527e+00 4.8425777243e+00 
195600 5.0111134443e+00 -8.9773044842e-05 2.7958651635e+00 -4.8425805143e+00 2.7958651635e+00 4.8425805143e+00 
195700 5.0111134441e+00 -8.9475653041e-05 2.7958667690e+00 -4.8425832950e+00 2.7958667690e+00 4.8425832950e+00 
195800 5.0111134439e+00 -8.9179247458e-05 2.7958683691e+00 -4.8425860666e+00 2.7958683691e+00 4.8425860666e+00 
195900 5.0111134437e+00 -8.8883824817e-05 2.7958699639e+00 -4.8425888289e+00 2.7958699639e+00 4.8425888289e+00 
196000 5.0111134435e+00 -8.8589381852e-05 2.7958715535e+00 -4.8425915821e+00 2.7958715535e+00 4.8425915821e+00 
196100 5.0111134433e+00 -8.8295915306e-05 2.7958731378e+00 -4.8425943262e+00 2.7958731378e+00 4.8425943262e+00 
196200 5.0111134431e+00 -8.8003421937e-05 2.7958747168e+00 -4.8425970611e+00 2.7958747168e+00 4.8425970611e+00 
196300 5.0111134429e+00 -8.7711898507e-05 2.7958762906e+00 -4.8425997871e+00 2.7958762906e+00 4.8425997871e+00 
196400 5.0111134427e+00 -8.7421341798e-05 2.7958778592e+00 -4.8426025039e+00 2.7958778592e+00 4.8426025039e+00 
196500 5.0111134426e+00 -8.7131748596e-05 2.7958794226e+00 -4.8426052118e+00 2.7958794226e+00 4.8426052118e+00 
196600 5.0111134424e+00 -8.6843115698e-05 2.7958809808e+00 -4.8426079107e+00 2.7958809808e+00 4.8426079107e+00 
196700 5.0111134422e+00 -8.6555439915e-05 2.7958825339e+00 -4.8426106007e+00 2.7958825339e+00 4.8426106007e+00 
196800 5.0111134420e+00 -8.6268718066e-05 2.7958840818e+00 -4.8426132818e+00 2.7958840818e+00 4.8426132818e+00 
196900 5.0111134418e+00 -8.5982946983e-05 2.7958856246e+00 -4.8426159539e+00 2.7958856246e+00 4.8426159539e+00 
197000 5.0111134417e+00 -8.5698123507e-05 2.7958871623e+00 -4.8426186173e+00 2.7958871623e+00 4.8426186173e+00 
197100 5.0111134415e+00 -8.5414244486e-05 2.7958886948e+00 -4.8426212718e+00 2.7958886948e+00 4.8426212718e+00 
197200 5.0111134413e+00 -8.5131306786e-05 2.7958902223e+00 -4.8426239175e+00 2.7958902223e+00 4.8426239175e+00 
197300 5.0111134411e+00 -8.4849307279e-05 2.7958917448e+00 -4.8426265544e+00 2.7958917448e+00 4.8426265544e+00 
197400 5.0111134410e+00 -8.4568242847e-05 2.7958932622e+00 -4.8426291826e+00 2.7958932622e+00 4.8426291826e+00 
197500 5.0111134408e+00 -8.4288110383e-05 2.7958947745e+00 -4.8426318021e+00 2.7958947745e+00 4.8426318021e+00 
197600 5.0111134406e+00 -8.4008906792e-05 2.7958962819e+00 -4.8426344129e+00 2.7958962819e+00 4.8426344129e+00 
197700 5.0111134404e+00 -8.3730628988e-05 2.7958977842e+00 -4.8426370151e+00 2.7958977842e+00 4.8426370151e+00 
197800 5.0111134403e+00 -8.3453273895e-05 2.7958992816e+00 -4.8426396086e+00 2.7958992816e+00 4.8426396086e+00 
197900 5.0111134401e+00 -8.3176838447e-05 2.7959007740e+00 -4.8426421936e+00 2.7959007740e+00 4.8426421936e+00 
198000 5.0111134399e+00 -8.2901319589e-05 2.7959022615e+00 -4.8426447700e+00 2.7959022615e+00 4.8426447700e+00 
198100 5.0111134398e+00 -8.2626714277e-05 2.7959037441e+00 -4.8426473378e+00 2.7959037441e+00 4.8426473378e+00 
198200 5.0111134396e+00 -8.2353019476e-05 2.7959052217e+00 -4.8426498972e+00 2.7959052217e+00 4.8426498972e+00 
198300 5.0111134395e+00 -8.2080232161e-05 2.7959066945e+00 -4.8426524480e+00 2.7959066945e+00 4.8426524480e+00 
198400 5.0111134393e+00 -8.1808349317e-05 2.7959081623e+00 -4.8426549904e+00 2.7959081623e+00 4.8426549904e+00 
198500 5.0111134391e+00 -8.1537367940e-05 2.7959096253e+00 -4.8426575244e+00 2.7959096253e+00 4.8426575244e+00 
198600 5.0111134390e+00 -8.1267285034e-05 2.7959110835e+00 -4.8426600500e+00 2.7959110835e+00 4.8426600500e+00 
198700 5.0111134388e+00 -8.0998097617e-05 2.7959125368e+00 -4.8426625673e+00 2.7959125368e+00 4.8426625673e+00 
198800 5.0111134387e+00 -8.0729802712e-05 2.7959139853e+00 -4.8426650762e+00 2.7959139853e+00 4.8426650762e+00 
198900 5.0111134385e+00 -8.0462397357e-05 2.7959154290e+00 -4.8426675767e+00 2.7959154290e+00 4.8426675767e+00 
199000 5.0111134383e+00 -8.0195878594e-05 2.7959168679e+00 -4.8426700690e+00 2.7959168679e+00 4.8426700690e+00 
199100 5.0111134382e+00 -7.9930243480e-05 2.7959183021e+00 -4.8426725531e+00 2.7959183021e+00 4.8426725531e+00 
199200 5.0111134380e+00 -7.9665489079e-05 2.7959197315e+00 -4.8426750289e+00 2.7959197315e+00 4.8426750289e+00 
199300 5.0111134379e+00 -7.9401612467e-05 2.7959211562e+00 -4.8426774965e+00 2.7959211562e+00 4.8426774965e+00 
199400 5.0111134377e+00 -7.9138610726e-05 2.7959225761e+00 -4.8426799559e+00 2.7959225761e+00 4.8426799559e+00 
199500 5.0111134376e+00 -7.8876480952e-05 2.7959239914e+00 -4.8426824072e+00 2.7959239914e+00 4.8426824072e+00 
199600 5.0111134374e+00 -7.8615220249e-05 2.7959254020e+00 -4.8426848504e+00 2.7959254020e+00 4.8426848504e+00 
199700 5.0111134373e+00 -7.8354825729e-05 2.7959268079e+00 -4.8426872854e+00 2.7959268079e+00 4.8426872854e+00 
199800 5.0111134371e+00 -7.8095294516e-05 2.7959282091e+00 -4.8426897124e+00 2.7959282091e+00 4.8426897124e+00 
199900 5.0111134370e+00 -7.7836623742e-05 2.7959296057e+00 -4.8426921314e+00 2.7959296057e+00 4.8426921314e+00 
200000 5.0111134368e+00 -7.7578810550e-05 2.7959309976e+00 -4.8426945424e+00 2.7959309976e+00 4.8426945424e+00 
200100 5.0111134367e+00 -7.7321852091e-05 2.7959323850e+00 -4.8426969453e+00 2.7959323850e+00 4.8426969453e+00 
200200 5.0111134366e+00 -7.7065745527e-05 2.7959337677e+00 -4.8426993403e+00 2.7959337677e+00 4.8426993403e+00 
200300 5.0111134364e+00 -7.6810488028e-05 2.7959351459e+00 -4.8427017274e+00 2.7959351459e+00 4.8427017274e+00 
200400 5.0111134363e+00 -7.6556076775e-05 2.7959365195e+00 -4.8427041066e+00 2.7959365195e+00 4.8427041066e+00 
200500 5.0111134361e+00 -7.6302508956e-05 2.7959378886e+00 -4.8427064778e+00 2.7959378886e+00 4.8427064778e+00 
200600 5.0111134360e+00 -7.6049781771e-05 2.7959392531e+00 -4.8427088413e+00 2.7959392531e+00 4.8427088413e+00 
200700 5.0111134359e+00 -7.5797892429e-05 2.7959406131e+00 -4.8427111969e+00 2.7959406131e+00 4.8427111969e+00 
200800 5.0111134357e+00 -7.5546838145e-05 2.7959419686e+00 -4.8427135447e+00 2.7959419686e+00 4.8427135447e+00 
200900 5.0111134356e+00 -7.5296616148e-05 2.7959433196e+00 -4.8427158847e+00 2.7959433196e+00 4.8427158847e+00 
201000 5.0111134354e+00 -7.5047223673e-05 2.7959446662e+00 -4.8427182169e+00 2.7959446662e+00 4.8427182169e+00 
201100 5.0111134353e+00 -7.4798657966e-05 2.7959460082e+00 -4.8427205415e+00 2.7959460082e+00 4.8427205415e+00 
201200 5.0111134352e+00 -7.4550916280e-05 2.7959473459e+00 -4.8427228583e+00 2.7959473459e+00 4.8427228583e+00 
201300 5.0111134350e+00 -7.4303995880e-05 2.7959486791e+00 -4.8427251675e+00 2.7959486791e+00 4.8427251675e+00 
201400 5.0111134349e+00 -7.4057894038e-05 2.7959500078e+00 -4.8427274690e+00 2.7959500078e+00 4.8427274690e+00 
201500 5.0111134348e+00 -7.3812608037e-05 2.7959513322e+00 -4.8427297629e+00 2.7959513322e+00 4.8427297629e+00 
201600 5.0111134346e+00 -7.3568135165e-05 2.7959526522e+00 -4.8427320492e+00 2.7959526522e+00 4.8427320492e+00 
201700 5.0111134345e+00 -7.3324472725e-05 2.7959539678e+00 -4.8427343279e+00 2.7959539678e+00 4.8427343279e+00 
201800 5.0111134344e+00 -7.3081618022e-05 2.7959552791e+00 -4.8427365991e+00 2.7959552791e+00 4.8427365991e+00 
201900 5.0111134343e+00 -7.2839568378e-05 2.7959565860e+00 -4.8427388627e+00 2.7959565860e+00 4.8427388627e+00 
202000 5.0111134341e+00 -7.2598321118e-05 2.7959578886e+00 -4.8427411189e+00 2.7959578886e+00 4.8427411189e+00 
202100 5.0111134340e+00 -7.2357873577e-05 2.7959591869e+00 -4.8427433675e+00 2.7959591869e+00 4.8427433675e+00 
202200 5.0111134339e+00 -7.2118223101e-05 2.7959604808e+00 -4.8427456088e+00 2.7959604808e+00 4.8427456088e+00 
202300 5.0111134338e+00 -7.1879367042e-05 2.7959617705e+00 -4.8427478426e+00 2.7959617705e+00 4.8427478426e+00 
202400 5.0111134336e+00 -7.1641302763e-05 2.7959630559e+00 -4.8427500690e+00 2.7959630559e+00 4.8427500690e+00 
202500 5.0111134335e+00 -7.1404027633e-05 2.7959643371e+00 -4.8427522880e+00 2.7959643371e+00 4.8427522880e+00 
202600 5.0111134334e+00 -7.1167539035e-05 2.7959656140e+00 -4.8427544997e+00 2.7959656140e+00 4.8427544997e+00 
202700 5.0111134333e+00 -7.0931834356e-05 2.7959668867e+00 -4.8427567040e+00 2.7959668867e+00 4.8427567040e+00 
202800 5.0111134331e+00 -7.0696910991e-05 2.7959681552e+00 -4.8427589011e+00 2.7959681552e+00 4.8427589011e+00 
202900 5.0111134331e+00 -7.0909954030e-05 2.7959681552e+00 -4.8427589011e+00 2.7959681552e+00 4.8427589011e+00 
203000 5.0111134330e+00 -7.0674455702e-05 2.7959694232e+00 -4.8427610974e+00 2.7959694232e+00 4.8427610974e+00 
203100 5.0111134329e+00 -7.0886696229e-05 2.7959694232e+00 -4.8427610974e+00 2.7959694232e+00 4.8427610974e+00 
203200 5.0111134328e+00 -7.0650464415e-05 2.7959706909e+00 -4.8427632931e+00 2.7959706909e+00 4.8427632931e+00 
203300 5.0111134327e+00 -7.0861755566e-05 2.7959706909e+00 -4.8427632931e+00 2.7959706909e+00 4.8427632931e+00 
203400 5.0111134326e+00 -7.0624671031e-05 2.7959719581e+00 -4.8427654880e+00 2.7959719581e+00 4.8427654880e+00 
203500 5.0111134326e+00 -7.0834897183e-05 2.7959719581e+00 -4.8427654880e+00 2.7959719581e+00 4.8427654880e+00 
203600 5.0111134324e+00 -7.0596868501e-05 2.7959732248e+00 -4.8427676820e+00 2.7959732248e+00 4.8427676820e+00 
203700 5.0111134324e+00 -7.0805936362e-05 2.7959732248e+00 -4.8427676820e+00 2.7959732248e+00 4.8427676820e+00 
203800 5.0111134323e+00 -7.0566892322e-05 2.7959744910e+00 -4.8427698752e+00 2.7959744910e+00 4.8427698752e+00 
203900 5.0111134322e+00 -7.0774724922e-05 2.7959744910e+00 -4.8427698752e+00 2.7959744910e+00 4.8427698752e+00 
204000 5.0111134321e+00 -7.0534609292e-05 2.7959757567e+00 -4.8427720673e+00 2.7959757567e+00 4.8427720673e+00 
204100 5.0111134321e+00 -7.0741141804e-05 2.7959757567e+00 -4.8427720673e+00 2.7959757567e+00 4.8427720673e+00 
204200 5.0111134320e+00 -7.0499909670e-05 2.7959770217e+00 -4.8427742585e+00 2.7959770217e+00 4.8427742585e+00 
204300 5.0111134319e+00 -7.0705086472e-05 2.7959770217e+00 -4.8427742585e+00 2.7959770217e+00 4.8427742585e+00 
204400 5.0111134319e+00 -7.0909940349e-05 2.7959770217e+00 -4.8427742585e+00 2.7959770217e+00 4.8427742585e+00 
204500 5.0111134317e+00 -7.0665877567e-05 2.7959782898e+00 -4.8427764548e+00 2.7959782898e+00 4.8427764548e+00 
204600 5.0111134317e+00 -7.0869213615e-05 2.7959782898e+00 -4.8427764548e+00 2.7959782898e+00 4.8427764548e+00 
204700 5.0111134316e+00 -7.0623880623e-05 2.7959795572e+00 -4.8427786499e+00 2.7959795572e+00 4.8427786499e+00 
204800 5.0111134315e+00 -7.0825678201e-05 2.7959795572e+00 -4.8427786499e+00 2.7959795572e+00 4.8427786499e+00 
204900 5.0111134314e+00 -7.0579070967e-05 2.7959808237e+00 -4.8427808437e+00 2.7959808237e+00 4.8427808437e+00 
205000 5.0111134314e+00 -7.0779307635e-05 2.7959808237e+00 -4.8427808437e+00 2.7959808237e+00 4.8427808437e+00 
205100 5.0111134313e+00 -7.0531421349e-05 2.7959820895e+00 -4.8427830360e+00 2.7959820895e+00 4.8427830360e+00 
205200 5.0111134312e+00 -7.0730074329e-05 2.7959820895e+00 -4.8427830360e+00 2.7959820895e+00 4.8427830360e+00 
205300 5.0111134311e+00 -7.0480904473e-05 2.7959833543e+00 -4.8427852268e+00 2.7959833543e+00 4.8427852268e+00 
205400 5.0111134311e+00 -7.0677951460e-05 2.7959833543e+00 -4.8427852268e+00 2.7959833543e+00 4.8427852268e+00 
205500 5.0111134310e+00 -7.0874560721e-05 2.7959833543e+00 -4.8427852268e+00 2.7959833543e+00 4.8427852268e+00 
205600 5.0111134309e+00 -7.0622369305e-05 2.7959846217e+00 -4.8427874220e+00 2.7959846217e+00 4.8427874220e+00 
205700 5.0111134309e+00 -7.0817249542e-05 2.7959846217e+00 -4.8427874220e+00 2.7959846217e+00 4.8427874220e+00 
205800 5.0111134308e+00 -7.0563692551e-05 2.7959858882e+00 -4.8427896155e+00 2.7959858882e+00 4.8427896155e+00 
205900 5.0111134307e+00 -7.0756844298e-05 2.7959858882e+00 -4.8427896155e+00 2.7959858882e+00 4.8427896155e+00 
206000 5.0111134306e+00 -7.0501939288e-05 2.7959871535e+00 -4.8427918071e+00 2.7959871535e+00 4.8427918071e+00 
206100 5.0111134306e+00 -7.0693358719e-05 2.7959871535e+00 -4.8427918071e+00 2.7959871535e+00 4.8427918071e+00 
206200 5.0111134306e+00 -7.0884283251e-05 2.7959871535e+00 -4.8427918071e+00 2.7959871535e+00 4.8427918071e+00 
206300 5.0111134305e+00 -7.0626292501e-05 2.7959884211e+00 -4.8427940027e+00 2.7959884211e+00 4.8427940027e+00 
206400 5.0111134304e+00 -7.0815383871e-05 2.7959884211e+00 -4.8427940027e+00 2.7959884211e+00 4.8427940027e+00 
206500 5.0111134303e+00 -7.0556003082e-05 2.7959896875e+00 -4.8427961961e+00 2.7959896875e+00 4.8427961961e+00 
206600 5.0111134303e+00 -7.0619731991e-05 2.7959896875e+00 -4.8427961961e+00 2.7959896875e+00 4.8427961961e+00 
206600 5.0111134303e+00 -7.0619731991e-05 2.7959896875e+00 -4.8427961961e+00 2.7959896875e+00 4.8427961961e+00 
