# step Hamiltonian StressXX CellTensor1 CellTensor2 CellTensor3 CellTensor4 
0 5.7827851579e+00 -4.6646796249e-02 1.6087831444e+00 -2.7864941444e+00 1.6087831444e+00 2.7864941444e+00 
100 5.7827987118e+00 -4.7955908053e-02 1.6087831444e+00 -2.7864941444e+00 1.6087831444e+00 2.7864941444e+00 
200 5.7827431285e+00 -4.7647217215e-02 1.6102738147e+00 -2.7890760611e+00 1.6102738147e+00 2.7890760611e+00 
300 5.7827038113e+00 -4.7432662575e-02 1.6117535166e+00 -2.7916389801e+00 1.6117535166e+00 2.7916389801e+00 
400 5.7826773155e+00 -4.7304789685e-02 1.6132252018e+00 -2.7941880135e+00 1.6132252018e+00 2.7941880135e+00 
500 5.7826602048e+00 -4.7256389006e-02 1.6146915794e+00 -2.7967278542e+00 1.6146915794e+00 2.7967278542e+00 
600 5.7826490991e+00 -4.7280495890e-02 1.6161551258e+00 -2.7992627908e+00 1.6161551258e+00 2.7992627908e+00 
700 5.7826407158e+00 -4.7370389955e-02 1.6176180925e+00 -2.8017967234e+00 1.6176180925e+00 2.8017967234e+00 
800 5.7826319061e+00 -4.7519593875e-02 1.6190825151e+00 -2.8043331778e+00 1.6190825151e+00 2.8043331778e+00 
900 5.7826196847e+00 -4.7721871638e-02 1.6205502218e+00 -2.8068753204e+00 1.6205502218e+00 2.8068753204e+00 
1000 5.7826012550e+00 -4.7971226321e-02 1.6220228418e+00 -2.8094259730e+00 1.6220228418e+00 2.8094259730e+00 
1100 5.7825740301e+00 -4.8261897433e-02 1.6235018132e+00 -2.8119876266e+00 1.6235018132e+00 2.8119876266e+00 
1200 5.7825356482e+00 -4.8588357897e-02 1.6249883916e+00 -2.8145624559e+00 1.6249883916e+00 2.8145624559e+00 
1300 5.7824839851e+00 -4.8945310699e-02 1.6264836577e+00 -2.8171523328e+00 1.6264836577e+00 2.8171523328e+00 
1400 5.7824171624e+00 -4.9327685292e-02 1.6279885253e+00 -2.8197588399e+00 1.6279885253e+00 2.8197588399e+00 
1500 5.7823335527e+00 -4.9730633767e-02 1.6295037487e+00 -2.8223832840e+00 1.6295037487e+00 2.8223832840e+00 
1600 5.7822317814e+00 -5.0149526869e-02 1.6310299308e+00 -2.8250267088e+00 1.6310299308e+00 2.8250267088e+00 
1700 5.7821107261e+00 -5.0579949886e-02 1.6325675298e+00 -2.8276899083e+00 1.6325675298e+00 2.8276899083e+00 
1800 5.7819695129e+00 -5.1017698444e-02 1.6341168666e+00 -2.8303734385e+00 1.6341168666e+00 2.8303734385e+00 
1900 5.7818075113e+00 -5.1458774250e-02 1.6356781324e+00 -2.8330776301e+00 1.6356781324e+00 2.8330776301e+00 
2000 5.7816243264e+00 -5.1899380815e-02 1.6372513946e+00 -2.8358026003e+00 1.6372513946e+00 2.8358026003e+00 
2100 5.7814197897e+00 -5.2335919165e-02 1.6388366047e+00 -2.8385482646e+00 1.6388366047e+00 2.8385482646e+00 
2200 5.7811939485e+00 -5.2764983581e-02 1.6404336037e+00 -2.8413143480e+00 1.6404336037e+00 2.8413143480e+00 
2300 5.7809470539e+00 -5.3183357371e-02 1.6420421295e+00 -2.8441003965e+00 1.6420421295e+00 2.8441003965e+00 
2400 5.7806795479e+00 -5.3588008693e-02 1.6436618228e+00 -2.8469057875e+00 1.6436618228e+00 2.8469057875e+00 
2500 5.7803920494e+00 -5.3976086440e-02 1.6452922329e+00 -2.8497297407e+00 1.6452922329e+00 2.8497297407e+00 
2600 5.7800853398e+00 -5.4344916191e-02 1.6469328243e+00 -2.8525713284e+00 1.6469328243e+00 2.8525713284e+00 
2700 5.7797603482e+00 -5.4691996236e-02 1.6485829821e+00 -2.8554294855e+00 1.6485829821e+00 2.8554294855e+00 
2800 5.7794181359e+00 -5.5014993677e-02 1.6502420178e+00 -2.8583030195e+00 1.6502420178e+00 2.8583030195e+00 
2900 5.7790598814e+00 -5.5311740607e-02 1.6519091746e+00 -2.8611906199e+00 1.6519091746e+00 2.8611906199e+00 
3000 5.7786868645e+00 -5.5580230360e-02 1.6535836333e+00 -2.8640908675e+00 1.6535836333e+00 2.8640908675e+00 
3100 5.7783004514e+00 -5.5818613843e-02 1.6552645170e+00 -2.8670022434e+00 1.6552645170e+00 2.8670022434e+00 
3200 5.7779020796e+00 -5.6025195932e-02 1.6569508964e+00 -2.8699231383e+00 1.6569508964e+00 2.8699231383e+00 
3300 5.7774932429e+00 -5.6198431937e-02 1.6586417949e+00 -2.8728518603e+00 1.6586417949e+00 2.8728518603e+00 
3400 5.7770754775e+00 -5.6336924129e-02 1.6603361929e+00 -2.8757866438e+00 1.6603361929e+00 2.8757866438e+00 
3500 5.7766503479e+00 -5.6439418319e-02 1.6620330333e+00 -2.8787256575e+00 1.6620330333e+00 2.8787256575e+00 
3600 5.7762194339e+00 -5.6504800497e-02 1.6637312251e+00 -2.8816670120e+00 1.6637312251e+00 2.8816670120e+00 
3700 5.7757843179e+00 -5.6532093502e-02 1.6654296486e+00 -2.8846087677e+00 1.6654296486e+00 2.8846087677e+00 
3800 5.7753465731e+00 -5.6520453742e-02 1.6671271590e+00 -2.8875489421e+00 1.6671271590e+00 2.8875489421e+00 
3900 5.7749077524e+00 -5.6469167937e-02 1.6688225913e+00 -2.8904855169e+00 1.6688225913e+00 2.8904855169e+00 
4000 5.7744693781e+00 -5.6377649890e-02 1.6705147634e+00 -2.8934164449e+00 1.6705147634e+00 2.8934164449e+00 
4100 5.7740329320e+00 -5.6245437283e-02 1.6722024806e+00 -2.8963396570e+00 1.6722024806e+00 2.8963396570e+00 
4200 5.7735998472e+00 -5.6072188476e-02 1.6738845393e+00 -2.8992530681e+00 1.6738845393e+00 2.8992530681e+00 
4300 5.7731714995e+00 -5.5857679323e-02 1.6755597305e+00 -2.9021545843e+00 1.6755597305e+00 2.9021545843e+00 
4400 5.7727492009e+00 -5.5601799984e-02 1.6772268430e+00 -2.9050421078e+00 1.6772268430e+00 2.9050421078e+00 
4500 5.7723341930e+00 -5.5304551740e-02 1.6788846673e+00 -2.9079135438e+00 1.6788846673e+00 2.9079135438e+00 
4600 5.7719276417e+00 -5.4966043791e-02 1.6805319986e+00 -2.9107668053e+00 1.6805319986e+00 2.9107668053e+00 
4700 5.7715306324e+00 -5.4586490054e-02 1.6821676399e+00 -2.9135998191e+00 1.6821676399e+00 2.9135998191e+00 
4800 5.7711441662e+00 -5.4166205934e-02 1.6837904049e+00 -2.9164105306e+00 1.6837904049e+00 2.9164105306e+00 
4900 5.7707691570e+00 -5.3705605080e-02 1.6853991212e+00 -2.9191969090e+00 1.6853991212e+00 2.9191969090e+00 
5000 5.7704064290e+00 -5.3205196115e-02 1.6869926327e+00 -2.9219569519e+00 1.6869926327e+00 2.9219569519e+00 
5100 5.7700567151e+00 -5.2665579338e-02 1.6885698026e+00 -2.9246886902e+00 1.6885698026e+00 2.9246886902e+00 
5200 5.7697206560e+00 -5.2087443404e-02 1.6901295153e+00 -2.9273901920e+00 1.6901295153e+00 2.9273901920e+00 
5300 5.7693988001e+00 -5.1471561955e-02 1.6916706798e+00 -2.9300595671e+00 1.6916706798e+00 2.9300595671e+00 
5400 5.7690916037e+00 -5.0818790234e-02 1.6931922310e+00 -2.9326949710e+00 1.6931922310e+00 2.9326949710e+00 
5500 5.7687994319e+00 -5.0130061653e-02 1.6946931323e+00 -2.9352946084e+00 1.6946931323e+00 2.9352946084e+00 
5600 5.7685225605e+00 -4.9406384321e-02 1.6961723779e+00 -2.9378567370e+00 1.6961723779e+00 2.9378567370e+00 
5700 5.7682611775e+00 -4.8648837542e-02 1.6976289943e+00 -2.9403796705e+00 1.6976289943e+00 2.9403796705e+00 
5800 5.7680153862e+00 -4.7858568265e-02 1.6990620422e+00 -2.9428617824e+00 1.6990620422e+00 2.9428617824e+00 
5900 5.7677852077e+00 -4.7036787496e-02 1.7004706187e+00 -2.9453015083e+00 1.7004706187e+00 2.9453015083e+00 
6000 5.7675705843e+00 -4.6184766672e-02 1.7018538580e+00 -2.9476973492e+00 1.7018538580e+00 2.9476973492e+00 
6100 5.7673713833e+00 -4.5303833993e-02 1.7032109340e+00 -2.9500478737e+00 1.7032109340e+00 2.9500478737e+00 
6200 5.7671874012e+00 -4.4395370716e-02 1.7045410607e+00 -2.9523517206e+00 1.7045410607e+00 2.9523517206e+00 
6300 5.7670183675e+00 -4.3460807411e-02 1.7058434939e+00 -2.9546076012e+00 1.7058434939e+00 2.9546076012e+00 
6400 5.7668639496e+00 -4.2501620179e-02 1.7071175326e+00 -2.9568143010e+00 1.7071175326e+00 2.9568143010e+00 
6500 5.7667237574e+00 -4.1519326842e-02 1.7083625196e+00 -2.9589706817e+00 1.7083625196e+00 2.9589706817e+00 
6600 5.7665973481e+00 -4.0515483091e-02 1.7095778426e+00 -2.9610756829e+00 1.7095778426e+00 2.9610756829e+00 
6700 5.7664842313e+00 -3.9491678618e-02 1.7107629352e+00 -2.9631283234e+00 1.7107629352e+00 2.9631283234e+00 
6800 5.7663838739e+00 -3.8449533216e-02 1.7119172774e+00 -2.9651277027e+00 1.7119172774e+00 2.9651277027e+00 
6900 5.7662957053e+00 -3.7390692854e-02 1.7130403963e+00 -2.9670730018e+00 1.7130403963e+00 2.9670730018e+00 
7000 5.7662191225e+00 -3.6316825745e-02 1.7141318668e+00 -2.9689634841e+00 1.7141318668e+00 2.9689634841e+00 
7100 5.7661534954e+00 -3.5229618399e-02 1.7151913116e+00 -2.9707984965e+00 1.7151913116e+00 2.9707984965e+00 
7200 5.7660981715e+00 -3.4130771663e-02 1.7162184021e+00 -2.9725774693e+00 1.7162184021e+00 2.9725774693e+00 
7300 5.7660524809e+00 -3.3021996770e-02 1.7172128578e+00 -2.9742999172e+00 1.7172128578e+00 2.9742999172e+00 
7400 5.7660157416e+00 -3.1905011391e-02 1.7181744473e+00 -2.9759654390e+00 1.7181744473e+00 2.9759654390e+00 
7500 5.7659872636e+00 -3.0781535698e-02 1.7191029876e+00 -2.9775737180e+00 1.7191029876e+00 2.9775737180e+00 
7600 5.7659663540e+00 -2.9653288446e-02 1.7199983443e+00 -2.9791245212e+00 1.7199983443e+00 2.9791245212e+00 
7700 5.7659523209e+00 -2.8521983090e-02 1.7208604313e+00 -2.9806176997e+00 1.7208604313e+00 2.9806176997e+00 
7800 5.7659444780e+00 -2.7389323929e-02 1.7216892106e+00 -2.9820531876e+00 1.7216892106e+00 2.9820531876e+00 
7900 5.7659421483e+00 -2.6257002302e-02 1.7224846919e+00 -2.9834310016e+00 1.7224846919e+00 2.9834310016e+00 
8000 5.7659446679e+00 -2.5126692830e-02 1.7232469320e+00 -2.9847512402e+00 1.7232469320e+00 2.9847512402e+00 
8100 5.7659513893e+00 -2.4000049725e-02 1.7239760342e+00 -2.9860140823e+00 1.7239760342e+00 2.9860140823e+00 
8200 5.7659616850e+00 -2.2878703173e-02 1.7246721479e+00 -2.9872197865e+00 1.7246721479e+00 2.9872197865e+00 
8300 5.7659749501e+00 -2.1764255784e-02 1.7253354672e+00 -2.9883686893e+00 1.7253354672e+00 2.9883686893e+00 
8400 5.7659906049e+00 -2.0658279152e-02 1.7259662310e+00 -2.9894612042e+00 1.7259662310e+00 2.9894612042e+00 
8500 5.7660080976e+00 -1.9562310497e-02 1.7265647210e+00 -2.9904978194e+00 1.7265647210e+00 2.9904978194e+00 
8600 5.7660269060e+00 -1.8477849427e-02 1.7271312616e+00 -2.9914790965e+00 1.7271312616e+00 2.9914790965e+00 
8700 5.7660465395e+00 -1.7406354814e-02 1.7276662182e+00 -2.9924056684e+00 1.7276662182e+00 2.9924056684e+00 
8800 5.7660665406e+00 -1.6349241797e-02 1.7281699960e+00 -2.9932782372e+00 1.7281699960e+00 2.9932782372e+00 
8900 5.7660864858e+00 -1.5307878927e-02 1.7286430394e+00 -2.9940975724e+00 1.7286430394e+00 2.9940975724e+00 
9000 5.7661059869e+00 -1.4283585452e-02 1.7290858299e+00 -2.9948645080e+00 1.7290858299e+00 2.9948645080e+00 
9100 5.7661246915e+00 -1.3277628757e-02 1.7294988849e+00 -2.9955799404e+00 1.7294988849e+00 2.9955799404e+00 
9200 5.7661422831e+00 -1.2291221969e-02 1.7298827568e+00 -2.9962448260e+00 1.7298827568e+00 2.9962448260e+00 
9300 5.7661584815e+00 -1.1325521727e-02 1.7302380307e+00 -2.9968601783e+00 1.7302380307e+00 2.9968601783e+00 
9400 5.7661730426e+00 -1.0381626132e-02 1.7305653232e+00 -2.9974270656e+00 1.7305653232e+00 2.9974270656e+00 
9500 5.7661857577e+00 -9.4605728745e-03 1.7308652808e+00 -2.9979466075e+00 1.7308652808e+00 2.9979466075e+00 
9600 5.7661964533e+00 -8.5633375549e-03 1.7311385783e+00 -2.9984199725e+00 1.7311385783e+00 2.9984199725e+00 
9700 5.7662049897e+00 -7.6908321927e-03 1.7313859167e+00 -2.9988483753e+00 1.7313859167e+00 2.9988483753e+00 
9800 5.7662112607e+00 -6.8439039336e-03 1.7316080219e+00 -2.9992330728e+00 1.7316080219e+00 2.9992330728e+00 
9900 5.7662151915e+00 -6.0233339565e-03 1.7318056427e+00 -2.9995753620e+00 1.7318056427e+00 2.9995753620e+00 
10000 5.7662167380e+00 -5.2298365818e-03 1.7319795489e+00 -2.9998765763e+00 1.7319795489e+00 2.9998765763e+00 
10100 5.7662158849e+00 -4.4640585838e-03 1.7321305297e+00 -3.0001380827e+00 1.7321305297e+00 3.0001380827e+00 
10200 5.7662126439e+00 -3.7265787067e-03 1.7322593916e+00 -3.0003612781e+00 1.7322593916e+00 3.0003612781e+00 
10300 5.7662070525e+00 -3.0179073843e-03 1.7323669568e+00 -3.0005475866e+00 1.7323669568e+00 3.0005475866e+00 
10400 5.7661991713e+00 -2.3384866618e-03 1.7324540611e+00 -3.0006984557e+00 1.7324540611e+00 3.0006984557e+00 
10500 5.7661890827e+00 -1.6886903188e-03 1.7325215522e+00 -3.0008153535e+00 1.7325215522e+00 3.0008153535e+00 
10600 5.7661768883e+00 -1.0688241878e-03 1.7325702874e+00 -3.0008997655e+00 1.7325702874e+00 3.0008997655e+00 
10700 5.7661627074e+00 -4.7912666699e-04 1.7326011326e+00 -3.0009531909e+00 1.7326011326e+00 3.0009531909e+00 
10800 5.7661466747e+00 8.0230578516e-05 1.7326149594e+00 -3.0009771396e+00 1.7326149594e+00 3.0009771396e+00 
10900 5.7661289378e+00 6.0914173347e-04 1.7326126441e+00 -3.0009731294e+00 1.7326126441e+00 3.0009731294e+00 
11000 5.7661096557e+00 1.1075657721e-03 1.7325950654e+00 -3.0009426822e+00 1.7325950654e+00 3.0009426822e+00 
11100 5.7660889966e+00 1.5755252287e-03 1.7325631029e+00 -3.0008873215e+00 1.7325631029e+00 3.0008873215e+00 
11200 5.7660671355e+00 2.0131048064e-03 1.7325176350e+00 -3.0008085689e+00 1.7325176350e+00 3.0008085689e+00 
11300 5.7660442528e+00 2.4204498328e-03 1.7324595377e+00 -3.0007079413e+00 1.7324595377e+00 3.0007079413e+00 
11400 5.7660205317e+00 2.7977645709e-03 1.7323896823e+00 -3.0005869482e+00 1.7323896823e+00 3.0005869482e+00 
11500 5.7659961573e+00 3.1453103956e-03 1.7323089342e+00 -3.0004470884e+00 1.7323089342e+00 3.0004470884e+00 
11600 5.7659713139e+00 3.4634038443e-03 1.7322181512e+00 -3.0002898477e+00 1.7322181512e+00 3.0002898477e+00 
11700 5.7659461840e+00 3.7524145525e-03 1.7321181820e+00 -3.0001166959e+00 1.7321181820e+00 3.0001166959e+00 
11800 5.7659209467e+00 4.0127630855e-03 1.7320098645e+00 -2.9999290844e+00 1.7320098645e+00 2.9999290844e+00 
11900 5.7658957758e+00 4.2449186745e-03 1.7318940245e+00 -2.9997284438e+00 1.7318940245e+00 2.9997284438e+00 
12000 5.7658708393e+00 4.4493968712e-03 1.7317714746e+00 -2.9995161811e+00 1.7317714746e+00 2.9995161811e+00 
12100 5.7658462973e+00 4.6267571283e-03 1.7316430125e+00 -2.9992936782e+00 1.7316430125e+00 2.9992936782e+00 
12200 5.7658223020e+00 4.7776003193e-03 1.7315094198e+00 -2.9990622888e+00 1.7315094198e+00 2.9990622888e+00 
12300 5.7657989956e+00 4.9025662069e-03 1.7313714610e+00 -2.9988233373e+00 1.7313714610e+00 2.9988233373e+00 
12400 5.7657765106e+00 5.0023308716e-03 1.7312298825e+00 -2.9985781161e+00 1.7312298825e+00 2.9985781161e+00 
12500 5.7657549684e+00 5.0776041096e-03 1.7310854112e+00 -2.9983278845e+00 1.7310854112e+00 2.9983278845e+00 
12600 5.7657344790e+00 5.1291268118e-03 1.7309387537e+00 -2.9980738663e+00 1.7309387537e+00 2.9980738663e+00 
12700 5.7657151408e+00 5.1576683328e-03 1.7307905956e+00 -2.9978172488e+00 1.7307905956e+00 2.9978172488e+00 
12800 5.7656970399e+00 5.1640238592e-03 1.7306416003e+00 -2.9975591813e+00 1.7306416003e+00 2.9975591813e+00 
12900 5.7656802503e+00 5.1490117879e-03 1.7304924085e+00 -2.9973007736e+00 1.7304924085e+00 2.9973007736e+00 
13000 5.7656648335e+00 5.1134711207e-03 1.7303436376e+00 -2.9970430949e+00 1.7303436376e+00 2.9970430949e+00 
13100 5.7656508389e+00 5.0582588863e-03 1.7301958809e+00 -2.9967871727e+00 1.7301958809e+00 2.9967871727e+00 
13200 5.7656383038e+00 4.9842475950e-03 1.7300497070e+00 -2.9965339922e+00 1.7300497070e+00 2.9965339922e+00 
13300 5.7656272534e+00 4.8923227357e-03 1.7299056598e+00 -2.9962844950e+00 1.7299056598e+00 2.9962844950e+00 
13400 5.7656177016e+00 4.7833803194e-03 1.7297642574e+00 -2.9960395789e+00 1.7297642574e+00 2.9960395789e+00 
13500 5.7656096511e+00 4.6583244786e-03 1.7296259924e+00 -2.9958000969e+00 1.7296259924e+00 2.9958000969e+00 
13600 5.7656030939e+00 4.5180651255e-03 1.7294913314e+00 -2.9955668572e+00 1.7294913314e+00 2.9955668572e+00 
13700 5.7655980120e+00 4.3635156759e-03 1.7293607147e+00 -2.9953406224e+00 1.7293607147e+00 2.9953406224e+00 
13800 5.7655943779e+00 4.1955908428e-03 1.7292345564e+00 -2.9951221099e+00 1.7292345564e+00 2.9951221099e+00 
13900 5.7655921553e+00 4.0152045042e-03 1.7291132443e+00 -2.9949119912e+00 1.7291132443e+00 2.9949119912e+00 
14000 5.7655912995e+00 3.8232676484e-03 1.7289971397e+00 -2.9947108921e+00 1.7289971397e+00 2.9947108921e+00 
14100 5.7655917589e+00 3.6206864002e-03 1.7288865777e+00 -2.9945193932e+00 1.7288865777e+00 2.9945193932e+00 
14200 5.7655934748e+00 3.4083601302e-03 1.7287818673e+00 -2.9943380294e+00 1.7287818673e+00 2.9943380294e+00 
14300 5.7655963828e+00 3.1871796496e-03 1.7286832913e+00 -2.9941672907e+00 1.7286832913e+00 2.9941672907e+00 
14400 5.7656004133e+00 2.9580254926e-03 1.7285911069e+00 -2.9940076227e+00 1.7285911069e+00 2.9940076227e+00 
14500 5.7656054925e+00 2.7217662865e-03 1.7285055459e+00 -2.9938594267e+00 1.7285055459e+00 2.9938594267e+00 
14600 5.7656115428e+00 2.4792572117e-03 1.7284268147e+00 -2.9937230603e+00 1.7284268147e+00 2.9937230603e+00 
14700 5.7656184840e+00 2.2313385507e-03 1.7283550952e+00 -2.9935988384e+00 1.7283550952e+00 2.9935988384e+00 
14800 5.7656262338e+00 1.9788343277e-03 1.7282905446e+00 -2.9934870336e+00 1.7282905446e+00 2.9934870336e+00 
14900 5.7656347084e+00 1.7225510367e-03 1.7282332966e+00 -2.9933878771e+00 1.7282332966e+00 2.9933878771e+00 
15000 5.7656438235e+00 1.4632764592e-03 1.7281834613e+00 -2.9933015597e+00 1.7281834613e+00 2.9933015597e+00 
15100 5.7656534948e+00 1.2017785700e-03 1.7281411258e+00 -2.9932282325e+00 1.7281411258e+00 2.9932282325e+00 
15200 5.7656636386e+00 9.3880452934e-04 1.7281063550e+00 -2.9931680078e+00 1.7281063550e+00 2.9931680078e+00 
15300 5.7656741724e+00 6.7507976152e-04 1.7280791923e+00 -2.9931209606e+00 1.7280791923e+00 2.9931209606e+00 
15400 5.7656850156e+00 4.1130711687e-04 1.7280596597e+00 -2.9930871291e+00 1.7280596597e+00 2.9930871291e+00 
15500 5.7656960897e+00 1.4816611654e-04 1.7280477589e+00 -2.9930665162e+00 1.7280477589e+00 2.9930665162e+00 
15600 5.7657073192e+00 -1.1368772247e-04 1.7280434718e+00 -2.9930590908e+00 1.7280434718e+00 2.9930590908e+00 
15700 5.7657186315e+00 -3.7362348369e-04 1.7280467613e+00 -2.9930647883e+00 1.7280467613e+00 2.9930647883e+00 
15800 5.7657299576e+00 -6.3103537137e-04 1.7280575718e+00 -2.9930835128e+00 1.7280575718e+00 2.9930835128e+00 
15900 5.7657412324e+00 -8.8534315649e-04 1.7280758304e+00 -2.9931151376e+00 1.7280758304e+00 2.9931151376e+00 
16000 5.7657523949e+00 -1.1359925511e-03 1.7281014469e+00 -2.9931595067e+00 1.7281014469e+00 2.9931595067e+00 
16100 5.7657633884e+00 -1.3824555132e-03 1.7281343152e+00 -2.9932164363e+00 1.7281343152e+00 2.9932164363e+00 
16200 5.7657741608e+00 -1.6242304848e-03 1.7281743139e+00 -2.9932857160e+00 1.7281743139e+00 2.9932857160e+00 
16300 5.7657846645e+00 -1.8608425652e-03 1.7282213068e+00 -2.9933671100e+00 1.7282213068e+00 2.9933671100e+00 
16400 5.7657948567e+00 -2.0918436228e-03 1.7282751440e+00 -2.9934603588e+00 1.7282751440e+00 2.9934603588e+00 
16500 5.7658046995e+00 -2.3168123466e-03 1.7283356626e+00 -2.9935651801e+00 1.7283356626e+00 2.9935651801e+00 
16600 5.7658141595e+00 -2.5353542410e-03 1.7284026874e+00 -2.9936812705e+00 1.7284026874e+00 2.9936812705e+00 
16700 5.7658232085e+00 -2.7471015665e-03 1.7284760317e+00 -2.9938083066e+00 1.7284760317e+00 2.9938083066e+00 
16800 5.7658318225e+00 -2.9517132275e-03 1.7285554984e+00 -2.9939459469e+00 1.7285554984e+00 2.9939459469e+00 
16900 5.7658399825e+00 -3.1488746103e-03 1.7286408800e+00 -2.9940938322e+00 1.7286408800e+00 2.9940938322e+00 
17000 5.7658476737e+00 -3.3382973747e-03 1.7287319603e+00 -2.9942515879e+00 1.7287319603e+00 2.9942515879e+00 
17100 5.7658548858e+00 -3.5197191997e-03 1.7288285145e+00 -2.9944188247e+00 1.7288285145e+00 2.9944188247e+00 
17200 5.7658616124e+00 -3.6929034867e-03 1.7289303104e+00 -2.9945951404e+00 1.7289303104e+00 2.9945951404e+00 
17300 5.7658678514e+00 -3.8576390226e-03 1.7290371089e+00 -2.9947801208e+00 1.7290371089e+00 2.9947801208e+00 
17400 5.7658736040e+00 -4.0137396045e-03 1.7291486646e+00 -2.9949733410e+00 1.7291486646e+00 2.9949733410e+00 
17500 5.7658788750e+00 -4.1610436280e-03 1.7292647271e+00 -2.9951743670e+00 1.7292647271e+00 2.9951743670e+00 
17600 5.7658836727e+00 -4.2994136424e-03 1.7293850410e+00 -2.9953827568e+00 1.7293850410e+00 2.9953827568e+00 
17700 5.7658880080e+00 -4.4287358734e-03 1.7295093472e+00 -2.9955980615e+00 1.7295093472e+00 2.9955980615e+00 
17800 5.7658918947e+00 -4.5489197162e-03 1.7296373832e+00 -2.9958198264e+00 1.7296373832e+00 2.9958198264e+00 
17900 5.7658953489e+00 -4.6598972004e-03 1.7297688841e+00 -2.9960475926e+00 1.7297688841e+00 2.9960475926e+00 
18000 5.7658983889e+00 -4.7616224300e-03 1.7299035830e+00 -2.9962808979e+00 1.7299035830e+00 2.9962808979e+00 
18100 5.7659010350e+00 -4.8540709977e-03 1.7300412116e+00 -2.9965192777e+00 1.7300412116e+00 2.9965192777e+00 
18200 5.7659033090e+00 -4.9372393787e-03 1.7301815012e+00 -2.9967622664e+00 1.7301815012e+00 2.9967622664e+00 
18300 5.7659052339e+00 -5.0111443028e-03 1.7303241830e+00 -2.9970093985e+00 1.7303241830e+00 2.9970093985e+00 
18400 5.7659068339e+00 -5.0758221082e-03 1.7304689886e+00 -2.9972602092e+00 1.7304689886e+00 2.9972602092e+00 
18500 5.7659081341e+00 -5.1313280784e-03 1.7306156510e+00 -2.9975142359e+00 1.7306156510e+00 2.9975142359e+00 
18600 5.7659091600e+00 -5.1777357634e-03 1.7307639047e+00 -2.9977710188e+00 1.7307639047e+00 2.9977710188e+00 
18700 5.7659099376e+00 -5.2151362876e-03 1.7309134863e+00 -2.9980301018e+00 1.7309134863e+00 2.9980301018e+00 
18800 5.7659104927e+00 -5.2436376444e-03 1.7310641354e+00 -2.9982910337e+00 1.7310641354e+00 2.9982910337e+00 
18900 5.7659108514e+00 -5.2633639819e-03 1.7312155947e+00 -2.9985533689e+00 1.7312155947e+00 2.9985533689e+00 
19000 5.7659110391e+00 -5.2744548776e-03 1.7313676104e+00 -2.9988166679e+00 1.7313676104e+00 2.9988166679e+00 
19100 5.7659110811e+00 -5.2770646064e-03 1.7315199332e+00 -2.9990804986e+00 1.7315199332e+00 2.9990804986e+00 
19200 5.7659110016e+00 -5.2713614018e-03 1.7316723178e+00 -2.9993444365e+00 1.7316723178e+00 2.9993444365e+00 
19300 5.7659108244e+00 -5.2575267129e-03 1.7318245244e+00 -2.9996080661e+00 1.7318245244e+00 2.9996080661e+00 
19400 5.7659105721e+00 -5.2357544565e-03 1.7319763182e+00 -2.9998709806e+00 1.7319763182e+00 2.9998709806e+00 
19500 5.7659102662e+00 -5.2062502687e-03 1.7321274701e+00 -3.0001327834e+00 1.7321274701e+00 3.0001327834e+00 
19600 5.7659099273e+00 -5.1692307537e-03 1.7322777571e+00 -3.0003930882e+00 1.7322777571e+00 3.0003930882e+00 
19700 5.7659095745e+00 -5.1249227347e-03 1.7324269626e+00 -3.0006515195e+00 1.7324269626e+00 3.0006515195e+00 
19800 5.7659092256e+00 -5.0735625047e-03 1.7325748763e+00 -3.0009077137e+00 1.7325748763e+00 3.0009077137e+00 
19900 5.7659088969e+00 -5.0153950815e-03 1.7327212952e+00 -3.0011613187e+00 1.7327212952e+00 3.0011613187e+00 
20000 5.7659086035e+00 -4.9506734656e-03 1.7328660232e+00 -3.0014119949e+00 1.7328660232e+00 3.0014119949e+00 
20100 5.7659083589e+00 -4.8796579039e-03 1.7330088715e+00 -3.0016594155e+00 1.7330088715e+00 3.0016594155e+00 
20200 5.7659081750e+00 -4.8026151589e-03 1.7331496592e+00 -3.0019032668e+00 1.7331496592e+00 3.0019032668e+00 
20300 5.7659080623e+00 -4.7198177860e-03 1.7332882127e+00 -3.0021432485e+00 1.7332882127e+00 3.0021432485e+00 
20400 5.7659080299e+00 -4.6315434185e-03 1.7334243666e+00 -3.0023790740e+00 1.7334243666e+00 3.0023790740e+00 
20500 5.7659080852e+00 -4.5380740623e-03 1.7335579635e+00 -3.0026104706e+00 1.7335579635e+00 3.0026104706e+00 
20600 5.7659082345e+00 -4.4396954008e-03 1.7336888542e+00 -3.0028371799e+00 1.7336888542e+00 3.0028371799e+00 
20700 5.7659084824e+00 -4.3366961116e-03 1.7338168976e+00 -3.0030589577e+00 1.7338168976e+00 3.0030589577e+00 
20800 5.7659088323e+00 -4.2293671946e-03 1.7339419612e+00 -3.0032755742e+00 1.7339419612e+00 3.0032755742e+00 
20900 5.7659092862e+00 -4.1180013144e-03 1.7340639208e+00 -3.0034868144e+00 1.7340639208e+00 3.0034868144e+00 
21000 5.7659098450e+00 -4.0028921556e-03 1.7341826606e+00 -3.0036924778e+00 1.7341826606e+00 3.0036924778e+00 
21100 5.7659105084e+00 -3.8843337938e-03 1.7342980734e+00 -3.0038923786e+00 1.7342980734e+00 3.0038923786e+00 
21200 5.7659112750e+00 -3.7626200820e-03 1.7344100604e+00 -3.0040863457e+00 1.7344100604e+00 3.0040863457e+00 
21300 5.7659121424e+00 -3.6380440533e-03 1.7345185312e+00 -3.0042742228e+00 1.7345185312e+00 3.0042742228e+00 
21400 5.7659131073e+00 -3.5108973410e-03 1.7346234042e+00 -3.0044558680e+00 1.7346234042e+00 3.0044558680e+00 
21500 5.7659141655e+00 -3.3814696159e-03 1.7347246057e+00 -3.0046311542e+00 1.7347246057e+00 3.0046311542e+00 
21600 5.7659153122e+00 -3.2500480433e-03 1.7348220708e+00 -3.0047999687e+00 1.7348220708e+00 3.0047999687e+00 
21700 5.7659165417e+00 -3.1169167572e-03 1.7349157426e+00 -3.0049622130e+00 1.7349157426e+00 3.0049622130e+00 
21800 5.7659178480e+00 -2.9823563563e-03 1.7350055724e+00 -3.0051178028e+00 1.7350055724e+00 3.0051178028e+00 
21900 5.7659192245e+00 -2.8466434182e-03 1.7350915197e+00 -3.0052666679e+00 1.7350915197e+00 3.0052666679e+00 
22000 5.7659206640e+00 -2.7100500353e-03 1.7351735518e+00 -3.0054087517e+00 1.7351735518e+00 3.0054087517e+00 
22100 5.7659221594e+00 -2.5728433711e-03 1.7352516440e+00 -3.0055440114e+00 1.7352516440e+00 3.0055440114e+00 
22200 5.7659237029e+00 -2.4352852388e-03 1.7353257792e+00 -3.0056724172e+00 1.7353257792e+00 3.0056724172e+00 
22300 5.7659252871e+00 -2.2976317005e-03 1.7353959476e+00 -3.0057939525e+00 1.7353959476e+00 3.0057939525e+00 
22400 5.7659269039e+00 -2.1601326890e-03 1.7354621471e+00 -3.0059086133e+00 1.7354621471e+00 3.0059086133e+00 
22500 5.7659285457e+00 -2.0230316522e-03 1.7355243825e+00 -3.0060164083e+00 1.7355243825e+00 3.0060164083e+00 
22600 5.7659302047e+00 -1.8865652190e-03 1.7355826659e+00 -3.0061173580e+00 1.7355826659e+00 3.0061173580e+00 
22700 5.7659318733e+00 -1.7509628889e-03 1.7356370158e+00 -3.0062114948e+00 1.7356370158e+00 3.0062114948e+00 
22800 5.7659335441e+00 -1.6164467436e-03 1.7356874575e+00 -3.0062988625e+00 1.7356874575e+00 3.0062988625e+00 
22900 5.7659352098e+00 -1.4832311815e-03 1.7357340228e+00 -3.0063795158e+00 1.7357340228e+00 3.0063795158e+00 
23000 5.7659368637e+00 -1.3515226751e-03 1.7357767493e+00 -3.0064535203e+00 1.7357767493e+00 3.0064535203e+00 
23100 5.7659384990e+00 -1.2215195511e-03 1.7358156808e+00 -3.0065209517e+00 1.7358156808e+00 3.0065209517e+00 
23200 5.7659401096e+00 -1.0934117930e-03 1.7358508666e+00 -3.0065818954e+00 1.7358508666e+00 3.0065818954e+00 
23300 5.7659416896e+00 -9.6738086635e-04 1.7358823617e+00 -3.0066364464e+00 1.7358823617e+00 3.0066364464e+00 
23400 5.7659432338e+00 -8.4359956661e-04 1.7359102260e+00 -3.0066847088e+00 1.7359102260e+00 3.0066847088e+00 
23500 5.7659447371e+00 -7.2223188847e-04 1.7359345246e+00 -3.0067267951e+00 1.7359345246e+00 3.0067267951e+00 
23600 5.7659461951e+00 -6.0343291766e-04 1.7359553270e+00 -3.0067628260e+00 1.7359553270e+00 3.0067628260e+00 
23700 5.7659476039e+00 -4.8734874399e-04 1.7359727074e+00 -3.0067929299e+00 1.7359727074e+00 3.0067929299e+00 
23800 5.7659489598e+00 -3.7411639574e-04 1.7359867442e+00 -3.0068172423e+00 1.7359867442e+00 3.0068172423e+00 
23900 5.7659502600e+00 -2.6386379481e-04 1.7359975196e+00 -3.0068359057e+00 1.7359975196e+00 3.0068359057e+00 
24000 5.7659515019e+00 -1.5670973236e-04 1.7360051193e+00 -3.0068490689e+00 1.7360051193e+00 3.0068490689e+00 
24100 5.7659526835e+00 -5.2763864307e-05 1.7360096329e+00 -3.0068568866e+00 1.7360096329e+00 3.0068568866e+00 
24200 5.7659538029e+00 4.6272880995e-05 1.7360096329e+00 -3.0068568866e+00 1.7360096329e+00 3.0068568866e+00 
24300 5.7659548598e+00 1.4495220605e-04 1.7360096329e+00 -3.0068568866e+00 1.7360096329e+00 3.0068568866e+00 
24400 5.7659558530e+00 2.3870948977e-04 1.7360054580e+00 -3.0068496555e+00 1.7360054580e+00 3.0068496555e+00 
24500 5.7659567826e+00 3.2891063635e-04 1.7359985828e+00 -3.0068377472e+00 1.7359985828e+00 3.0068377472e+00 
24600 5.7659576486e+00 4.1549108046e-04 1.7359891095e+00 -3.0068213391e+00 1.7359891095e+00 3.0068213391e+00 
24700 5.7659584518e+00 4.9839502881e-04 1.7359771425e+00 -3.0068006117e+00 1.7359771425e+00 3.0068006117e+00 
24800 5.7659591931e+00 5.7757534044e-04 1.7359627877e+00 -3.0067757483e+00 1.7359627877e+00 3.0067757483e+00 
24900 5.7659598739e+00 6.5299339184e-04 1.7359461521e+00 -3.0067469347e+00 1.7359461521e+00 3.0067469347e+00 
25000 5.7659604959e+00 7.2461892754e-04 1.7359273442e+00 -3.0067143583e+00 1.7359273442e+00 3.0067143583e+00 
25100 5.7659610609e+00 7.9242989697e-04 1.7359064730e+00 -3.0066782084e+00 1.7359064730e+00 3.0066782084e+00 
25200 5.7659615711e+00 8.5641227819e-04 1.7358836483e+00 -3.0066386750e+00 1.7358836483e+00 3.0066386750e+00 
25300 5.7659620291e+00 9.1655988940e-04 1.7358589805e+00 -3.0065959490e+00 1.7358589805e+00 3.0065959490e+00 
25400 5.7659624373e+00 9.7287418887e-04 1.7358325798e+00 -3.0065502217e+00 1.7358325798e+00 3.0065502217e+00 
25500 5.7659627987e+00 1.0253640640e-03 1.7358045566e+00 -3.0065016841e+00 1.7358045566e+00 3.0065016841e+00 
25600 5.7659631160e+00 1.0740456106e-03 1.7357750210e+00 -3.0064505269e+00 1.7357750210e+00 3.0064505269e+00 
25700 5.7659633924e+00 1.1189419026e-03 1.7357440826e+00 -3.0063969400e+00 1.7357440826e+00 3.0063969400e+00 
25800 5.7659636310e+00 1.1600827533e-03 1.7357118503e+00 -3.0063411121e+00 1.7357118503e+00 3.0063411121e+00 
25900 5.7659638349e+00 1.1975044693e-03 1.7356784324e+00 -3.0062832305e+00 1.7356784324e+00 3.0062832305e+00 
26000 5.7659640073e+00 1.2312495973e-03 1.7356439358e+00 -3.0062234806e+00 1.7356439358e+00 3.0062234806e+00 
26100 5.7659641515e+00 1.2613666641e-03 1.7356084664e+00 -3.0061620458e+00 1.7356084664e+00 3.0061620458e+00 
26200 5.7659642705e+00 1.2879099123e-03 1.7355721286e+00 -3.0060991069e+00 1.7355721286e+00 3.0060991069e+00 
26300 5.7659643676e+00 1.3109390303e-03 1.7355350254e+00 -3.0060348423e+00 1.7355350254e+00 3.0060348423e+00 
26400 5.7659644457e+00 1.3305188790e-03 1.7354972580e+00 -3.0059694272e+00 1.7354972580e+00 3.0059694272e+00 
26500 5.7659645078e+00 1.3467192150e-03 1.7354589256e+00 -3.0059030336e+00 1.7354589256e+00 3.0059030336e+00 
26600 5.7659645569e+00 1.3596144113e-03 1.7354201257e+00 -3.0058358301e+00 1.7354201257e+00 3.0058358301e+00 
26700 5.7659645957e+00 1.3692831762e-03 1.7353809533e+00 -3.0057679817e+00 1.7353809533e+00 3.0057679817e+00 
26800 5.7659646268e+00 1.3758082711e-03 1.7353415015e+00 -3.0056996491e+00 1.7353415015e+00 3.0056996491e+00 
26900 5.7659646527e+00 1.3792762278e-03 1.7353018608e+00 -3.0056309894e+00 1.7353018608e+00 3.0056309894e+00 
27000 5.7659646756e+00 1.3797770662e-03 1.7352621193e+00 -3.0055621551e+00 1.7352621193e+00 3.0055621551e+00 
27100 5.7659646979e+00 1.3774040118e-03 1.7352223624e+00 -3.0054932942e+00 1.7352223624e+00 3.0054932942e+00 
27200 5.7659647214e+00 1.3722532164e-03 1.7351826730e+00 -3.0054245501e+00 1.7351826730e+00 3.0054245501e+00 
27300 5.7659647480e+00 1.3644234786e-03 1.7351431311e+00 -3.0053560615e+00 1.7351431311e+00 3.0053560615e+00 
27400 5.7659647793e+00 1.3540159686e-03 1.7351038140e+00 -3.0052879622e+00 1.7351038140e+00 3.0052879622e+00 
27500 5.7659648168e+00 1.3411339551e-03 1.7350647958e+00 -3.0052203808e+00 1.7350647958e+00 3.0052203808e+00 
27600 5.7659648617e+00 1.3258825359e-03 1.7350261480e+00 -3.0051534408e+00 1.7350261480e+00 3.0051534408e+00 
27700 5.7659649153e+00 1.3083683729e-03 1.7349879389e+00 -3.0050872606e+00 1.7349879389e+00 3.0050872606e+00 
27800 5.7659649783e+00 1.2886994308e-03 1.7349502336e+00 -3.0050219532e+00 1.7349502336e+00 3.0050219532e+00 
27900 5.7659650516e+00 1.2669847219e-03 1.7349130943e+00 -3.0049576261e+00 1.7349130943e+00 3.0049576261e+00 
28000 5.7659651357e+00 1.2433340549e-03 1.7348765801e+00 -3.0048943816e+00 1.7348765801e+00 3.0048943816e+00 
28100 5.7659652311e+00 1.2178577907e-03 1.7348407467e+00 -3.0048323164e+00 1.7348407467e+00 3.0048323164e+00 
28200 5.7659653380e+00 1.1906666030e-03 1.7348056469e+00 -3.0047715216e+00 1.7348056469e+00 3.0047715216e+00 
28300 5.7659654566e+00 1.1618712465e-03 1.7347713300e+00 -3.0047120830e+00 1.7347713300e+00 3.0047120830e+00 
28400 5.7659655867e+00 1.1315823310e-03 1.7347378424e+00 -3.0046540808e+00 1.7347378424e+00 3.0046540808e+00 
28500 5.7659657284e+00 1.0999101025e-03 1.7347052271e+00 -3.0045975895e+00 1.7347052271e+00 3.0045975895e+00 
28600 5.7659658813e+00 1.0669642322e-03 1.7346735241e+00 -3.0045426783e+00 1.7346735241e+00 3.0045426783e+00 
28700 5.7659660451e+00 1.0328536120e-03 1.7346427702e+00 -3.0044894109e+00 1.7346427702e+00 3.0044894109e+00 
28800 5.7659662192e+00 9.9768615883e-04 1.7346129989e+00 -3.0044378455e+00 1.7346129989e+00 3.0044378455e+00 
28900 5.7659664031e+00 9.6156862537e-04 1.7345842408e+00 -3.0043880350e+00 1.7345842408e+00 3.0043880350e+00 
29000 5.7659665962e+00 9.2460642018e-04 1.7345565233e+00 -3.0043400270e+00 1.7345565233e+00 3.0043400270e+00 
29100 5.7659667977e+00 8.8690343512e-04 1.7345298708e+00 -3.0042938635e+00 1.7345298708e+00 3.0042938635e+00 
29200 5.7659670069e+00 8.4856188125e-04 1.7345043048e+00 -3.0042495819e+00 1.7345043048e+00 3.0042495819e+00 
29300 5.7659672229e+00 8.0968213309e-04 1.7344798436e+00 -3.0042072139e+00 1.7344798436e+00 3.0042072139e+00 
29400 5.7659674450e+00 7.7036258128e-04 1.7344565029e+00 -3.0041667866e+00 1.7344565029e+00 3.0041667866e+00 
29500 5.7659676721e+00 7.3069949361e-04 1.7344342953e+00 -3.0041283219e+00 1.7344342953e+00 3.0041283219e+00 
29600 5.7659679033e+00 6.9078688465e-04 1.7344132309e+00 -3.0040918372e+00 1.7344132309e+00 3.0040918372e+00 
29700 5.7659681379e+00 6.5071639377e-04 1.7343933168e+00 -3.0040573450e+00 1.7343933168e+00 3.0040573450e+00 
29800 5.7659683748e+00 6.1057717164e-04 1.7343745576e+00 -3.0040248532e+00 1.7343745576e+00 3.0040248532e+00 
29900 5.7659686132e+00 5.7045577529e-04 1.7343569554e+00 -3.0039943653e+00 1.7343569554e+00 3.0039943653e+00 
30000 5.7659688521e+00 5.3043607140e-04 1.7343405097e+00 -3.0039658805e+00 1.7343405097e+00 3.0039658805e+00 
30100 5.7659690907e+00 4.9059914808e-04 1.7343252176e+00 -3.0039393937e+00 1.7343252176e+00 3.0039393937e+00 
30200 5.7659693281e+00 4.5102323480e-04 1.7343110738e+00 -3.0039148960e+00 1.7343110738e+00 3.0039148960e+00 
30300 5.7659695636e+00 4.1178363062e-04 1.7342980709e+00 -3.0038923742e+00 1.7342980709e+00 3.0038923742e+00 
30400 5.7659697963e+00 3.7295264035e-04 1.7342861991e+00 -3.0038718117e+00 1.7342861991e+00 3.0038718117e+00 
30500 5.7659700255e+00 3.3459951873e-04 1.7342754468e+00 -3.0038531882e+00 1.7342754468e+00 3.0038531882e+00 
30600 5.7659702505e+00 2.9679042247e-04 1.7342658001e+00 -3.0038364797e+00 1.7342658001e+00 3.0038364797e+00 
30700 5.7659704707e+00 2.5958836984e-04 1.7342572435e+00 -3.0038216591e+00 1.7342572435e+00 3.0038216591e+00 
30800 5.7659706856e+00 2.2305320789e-04 1.7342497593e+00 -3.0038086962e+00 1.7342497593e+00 3.0038086962e+00 
30900 5.7659708945e+00 1.8724158700e-04 1.7342433285e+00 -3.0037975577e+00 1.7342433285e+00 3.0037975577e+00 
31000 5.7659710971e+00 1.5220694256e-04 1.7342379302e+00 -3.0037882075e+00 1.7342379302e+00 3.0037882075e+00 
31100 5.7659712929e+00 1.1799948369e-04 1.7342335419e+00 -3.0037806067e+00 1.7342335419e+00 3.0037806067e+00 
31200 5.7659714816e+00 8.4666188794e-05 1.7342301398e+00 -3.0037747142e+00 1.7342301398e+00 3.0037747142e+00 
31300 5.7659716629e+00 5.2250807667e-05 1.7342276988e+00 -3.0037704862e+00 1.7342276988e+00 3.0037704862e+00 
31400 5.7659718365e+00 2.2386074139e-05 1.7342276988e+00 -3.0037704862e+00 1.7342276988e+00 3.0037704862e+00 
31500 5.7659720022e+00 -7.4319053581e-06 1.7342276988e+00 -3.0037704862e+00 1.7342276988e+00 3.0037704862e+00 
31600 5.7659721599e+00 -3.7143391077e-05 1.7342276988e+00 -3.0037704862e+00 1.7342276988e+00 3.0037704862e+00 
31700 5.7659723098e+00 -6.6691204588e-05 1.7342276988e+00 -3.0037704862e+00 1.7342276988e+00 3.0037704862e+00 
31800 5.7659724518e+00 -9.6020734748e-05 1.7342276988e+00 -3.0037704862e+00 1.7342276988e+00 3.0037704862e+00 
31900 5.7659725857e+00 -1.2215463127e-04 1.7342304672e+00 -3.0037752812e+00 1.7342304672e+00 3.0037752812e+00 
32000 5.7659727117e+00 -1.4715511300e-04 1.7342339890e+00 -3.0037813812e+00 1.7342339890e+00 3.0037813812e+00 
32100 5.7659728299e+00 -1.7100333722e-04 1.7342382317e+00 -3.0037887297e+00 1.7342382317e+00 3.0037887297e+00 
32200 5.7659729404e+00 -1.9368341463e-04 1.7342431619e+00 -3.0037972691e+00 1.7342431619e+00 3.0037972691e+00 
32300 5.7659730435e+00 -2.1518235307e-04 1.7342487460e+00 -3.0038069411e+00 1.7342487460e+00 3.0038069411e+00 
32400 5.7659731394e+00 -2.3548999708e-04 1.7342549499e+00 -3.0038176865e+00 1.7342549499e+00 3.0038176865e+00 
32500 5.7659732283e+00 -2.5459896371e-04 1.7342617393e+00 -3.0038294461e+00 1.7342617393e+00 3.0038294461e+00 
32600 5.7659733107e+00 -2.7250457458e-04 1.7342690796e+00 -3.0038421598e+00 1.7342690796e+00 3.0038421598e+00 
32700 5.7659733866e+00 -2.8920478466e-04 1.7342769360e+00 -3.0038557676e+00 1.7342769360e+00 3.0038557676e+00 
32800 5.7659734566e+00 -3.0470010780e-04 1.7342852740e+00 -3.0038702093e+00 1.7342852740e+00 3.0038702093e+00 
32900 5.7659735210e+00 -3.1899353948e-04 1.7342940586e+00 -3.0038854247e+00 1.7342940586e+00 3.0038854247e+00 
33000 5.7659735800e+00 -3.3209047675e-04 1.7343032552e+00 -3.0039013538e+00 1.7343032552e+00 3.0039013538e+00 
33100 5.7659736342e+00 -3.4399863587e-04 1.7343128294e+00 -3.0039179367e+00 1.7343128294e+00 3.0039179367e+00 
33200 5.7659736838e+00 -3.5472796765e-04 1.7343227468e+00 -3.0039351143e+00 1.7343227468e+00 3.0039351143e+00 
33300 5.7659737293e+00 -3.6429057084e-04 1.7343329736e+00 -3.0039528274e+00 1.7343329736e+00 3.0039528274e+00 
33400 5.7659737710e+00 -3.7270060386e-04 1.7343434759e+00 -3.0039710180e+00 1.7343434759e+00 3.0039710180e+00 
33500 5.7659738093e+00 -3.7997419487e-04 1.7343542206e+00 -3.0039896284e+00 1.7343542206e+00 3.0039896284e+00 
33600 5.7659738446e+00 -3.8612935066e-04 1.7343651750e+00 -3.0040086019e+00 1.7343651750e+00 3.0040086019e+00 
33700 5.7659738772e+00 -3.9118586437e-04 1.7343763067e+00 -3.0040278827e+00 1.7343763067e+00 3.0040278827e+00 
33800 5.7659739076e+00 -3.9516522243e-04 1.7343875841e+00 -3.0040474157e+00 1.7343875841e+00 3.0040474157e+00 
33900 5.7659739360e+00 -3.9809051076e-04 1.7343989762e+00 -3.0040671474e+00 1.7343989762e+00 3.0040671474e+00 
34000 5.7659739628e+00 -3.9998632053e-04 1.7344104526e+00 -3.0040870250e+00 1.7344104526e+00 3.0040870250e+00 
34100 5.7659739883e+00 -4.0087865370e-04 1.7344219835e+00 -3.0041069971e+00 1.7344219835e+00 3.0041069971e+00 
34200 5.7659740128e+00 -4.0079482844e-04 1.7344335400e+00 -3.0041270137e+00 1.7344335400e+00 3.0041270137e+00 
34300 5.7659740366e+00 -3.9976338469e-04 1.7344450941e+00 -3.0041470259e+00 1.7344450941e+00 3.0041470259e+00 
34400 5.7659740600e+00 -3.9781399004e-04 1.7344566184e+00 -3.0041669865e+00 1.7344566184e+00 3.0041669865e+00 
34500 5.7659740831e+00 -3.9497734607e-04 1.7344680863e+00 -3.0041868497e+00 1.7344680863e+00 3.0041868497e+00 
34600 5.7659741062e+00 -3.9128509531e-04 1.7344794725e+00 -3.0042065710e+00 1.7344794725e+00 3.0042065710e+00 
34700 5.7659741295e+00 -3.8676972912e-04 1.7344907521e+00 -3.0042261079e+00 1.7344907521e+00 3.0042261079e+00 
34800 5.7659741533e+00 -3.8146449641e-04 1.7345019015e+00 -3.0042454192e+00 1.7345019015e+00 3.0042454192e+00 
34900 5.7659741775e+00 -3.7540331358e-04 1.7345128979e+00 -3.0042644655e+00 1.7345128979e+00 3.0042644655e+00 
35000 5.7659742024e+00 -3.6862067568e-04 1.7345237195e+00 -3.0042832090e+00 1.7345237195e+00 3.0042832090e+00 
35100 5.7659742282e+00 -3.6115156904e-04 1.7345343455e+00 -3.0043016138e+00 1.7345343455e+00 3.0043016138e+00 
35200 5.7659742548e+00 -3.5303138535e-04 1.7345447561e+00 -3.0043196456e+00 1.7345447561e+00 3.0043196456e+00 
35300 5.7659742824e+00 -3.4429583754e-04 1.7345549326e+00 -3.0043372718e+00 1.7345549326e+00 3.0043372718e+00 
35400 5.7659743110e+00 -3.3498087730e-04 1.7345648572e+00 -3.0043544617e+00 1.7345648572e+00 3.0043544617e+00 
35500 5.7659743406e+00 -3.2512261465e-04 1.7345745133e+00 -3.0043711865e+00 1.7345745133e+00 3.0043711865e+00 
35600 5.7659743714e+00 -3.1475723940e-04 1.7345838851e+00 -3.0043874190e+00 1.7345838851e+00 3.0043874190e+00 
35700 5.7659744032e+00 -3.0392094480e-04 1.7345929581e+00 -3.0044031339e+00 1.7345929581e+00 3.0044031339e+00 
35800 5.7659744362e+00 -2.9264985335e-04 1.7346017187e+00 -3.0044183077e+00 1.7346017187e+00 3.0044183077e+00 
35900 5.7659744701e+00 -2.8097994488e-04 1.7346101544e+00 -3.0044329187e+00 1.7346101544e+00 3.0044329187e+00 
36000 5.7659745051e+00 -2.6894698707e-04 1.7346182536e+00 -3.0044469469e+00 1.7346182536e+00 3.0044469469e+00 
36100 5.7659745411e+00 -2.5658646832e-04 1.7346260059e+00 -3.0044603744e+00 1.7346260059e+00 3.0044603744e+00 
36200 5.7659745780e+00 -2.4393353315e-04 1.7346334019e+00 -3.0044731847e+00 1.7346334019e+00 3.0044731847e+00 
36300 5.7659746157e+00 -2.3102292022e-04 1.7346404332e+00 -3.0044853632e+00 1.7346404332e+00 3.0044853632e+00 
36400 5.7659746541e+00 -2.1788890285e-04 1.7346470923e+00 -3.0044968971e+00 1.7346470923e+00 3.0044968971e+00 
36500 5.7659746933e+00 -2.0456523231e-04 1.7346533728e+00 -3.0045077753e+00 1.7346533728e+00 3.0045077753e+00 
36600 5.7659747330e+00 -1.9108508372e-04 1.7346592693e+00 -3.0045179882e+00 1.7346592693e+00 3.0045179882e+00 
36700 5.7659747732e+00 -1.7748100475e-04 1.7346647771e+00 -3.0045275281e+00 1.7346647771e+00 3.0045275281e+00 
36800 5.7659748138e+00 -1.6378486700e-04 1.7346698928e+00 -3.0045363888e+00 1.7346698928e+00 3.0045363888e+00 
36900 5.7659748547e+00 -1.5002782022e-04 1.7346746138e+00 -3.0045445656e+00 1.7346746138e+00 3.0045445656e+00 
37000 5.7659748958e+00 -1.3624024929e-04 1.7346789381e+00 -3.0045520557e+00 1.7346789381e+00 3.0045520557e+00 
37100 5.7659749369e+00 -1.2245173401e-04 1.7346828651e+00 -3.0045588574e+00 1.7346828651e+00 3.0045588574e+00 
37200 5.7659749780e+00 -1.0869101165e-04 1.7346863946e+00 -3.0045649707e+00 1.7346863946e+00 3.0045649707e+00 
37300 5.7659750191e+00 -9.4985942343e-05 1.7346895275e+00 -3.0045703970e+00 1.7346895275e+00 3.0045703970e+00 
37400 5.7659750599e+00 -8.1363477240e-05 1.7346922653e+00 -3.0045751391e+00 1.7346922653e+00 3.0045751391e+00 
37500 5.7659751004e+00 -6.7849629449e-05 1.7346946105e+00 -3.0045792010e+00 1.7346946105e+00 3.0045792010e+00 
37600 5.7659751405e+00 -5.6532876630e-05 1.7346946105e+00 -3.0045792010e+00 1.7346946105e+00 3.0045792010e+00 
37700 5.7659751801e+00 -4.4979538874e-05 1.7346946105e+00 -3.0045792010e+00 1.7346946105e+00 3.0045792010e+00 
37800 5.7659752191e+00 -3.3216199569e-05 1.7346946105e+00 -3.0045792010e+00 1.7346946105e+00 3.0045792010e+00 
37900 5.7659752573e+00 -2.1268828990e-05 1.7346946105e+00 -3.0045792010e+00 1.7346946105e+00 3.0045792010e+00 
38000 5.7659752948e+00 -9.1627602821e-06 1.7346946105e+00 -3.0045792010e+00 1.7346946105e+00 3.0045792010e+00 
38100 5.7659753315e+00 3.0773324634e-06 1.7346946105e+00 -3.0045792010e+00 1.7346946105e+00 3.0045792010e+00 
38200 5.7659753673e+00 1.5427454136e-05 1.7346946105e+00 -3.0045792010e+00 1.7346946105e+00 3.0045792010e+00 
38300 5.7659754023e+00 2.7864306525e-05 1.7346946105e+00 -3.0045792010e+00 1.7346946105e+00 3.0045792010e+00 
38400 5.7659754364e+00 4.0365304308e-05 1.7346946105e+00 -3.0045792010e+00 1.7346946105e+00 3.0045792010e+00 
38500 5.7659754696e+00 5.2908589127e-05 1.7346946105e+00 -3.0045792010e+00 1.7346946105e+00 3.0045792010e+00 
38600 5.7659755018e+00 6.5473041813e-05 1.7346946105e+00 -3.0045792010e+00 1.7346946105e+00 3.0045792010e+00 
38700 5.7659755331e+00 7.8038292795e-05 1.7346946105e+00 -3.0045792010e+00 1.7346946105e+00 3.0045792010e+00 
38800 5.7659755632e+00 8.8211155819e-05 1.7346923612e+00 -3.0045753051e+00 1.7346923612e+00 3.0045753051e+00 
38900 5.7659755923e+00 9.8022411626e-05 1.7346898186e+00 -3.0045709012e+00 1.7346898186e+00 3.0045709012e+00 
39000 5.7659756203e+00 1.0746167972e-04 1.7346869933e+00 -3.0045660076e+00 1.7346869933e+00 3.0045660076e+00 
39100 5.7659756471e+00 1.1651963909e-04 1.7346838958e+00 -3.0045606426e+00 1.7346838958e+00 3.0045606426e+00 
39200 5.7659756730e+00 1.2518801664e-04 1.7346805373e+00 -3.0045548255e+00 1.7346805373e+00 3.0045548255e+00 
39300 5.7659756977e+00 1.3345957388e-04 1.7346769289e+00 -3.0045485756e+00 1.7346769289e+00 3.0045485756e+00 
39400 5.7659757214e+00 1.4132809180e-04 1.7346730821e+00 -3.0045419127e+00 1.7346730821e+00 3.0045419127e+00 
39500 5.7659757441e+00 1.4878835419e-04 1.7346690085e+00 -3.0045348570e+00 1.7346690085e+00 3.0045348570e+00 
39600 5.7659757658e+00 1.5583612930e-04 1.7346647198e+00 -3.0045274288e+00 1.7346647198e+00 3.0045274288e+00 
39700 5.7659757865e+00 1.6246815010e-04 1.7346602280e+00 -3.0045196488e+00 1.7346602280e+00 3.0045196488e+00 
39800 5.7659758063e+00 1.6868209308e-04 1.7346555450e+00 -3.0045115376e+00 1.7346555450e+00 3.0045115376e+00 
39900 5.7659758251e+00 1.7447655575e-04 1.7346506829e+00 -3.0045031161e+00 1.7346506829e+00 3.0045031161e+00 
40000 5.7659758431e+00 1.7985103293e-04 1.7346456537e+00 -3.0044944054e+00 1.7346456537e+00 3.0044944054e+00 
40100 5.7659758603e+00 1.8480589189e-04 1.7346404696e+00 -3.0044854263e+00 1.7346404696e+00 3.0044854263e+00 
40200 5.7659758767e+00 1.8934234637e-04 1.7346351427e+00 -3.0044761998e+00 1.7346351427e+00 3.0044761998e+00 
40300 5.7659758924e+00 1.9346242965e-04 1.7346296850e+00 -3.0044667468e+00 1.7346296850e+00 3.0044667468e+00 
40400 5.7659759073e+00 1.9716896680e-04 1.7346241086e+00 -3.0044570881e+00 1.7346241086e+00 3.0044570881e+00 
40500 5.7659759216e+00 2.0046554600e-04 1.7346184252e+00 -3.0044472442e+00 1.7346184252e+00 3.0044472442e+00 
40600 5.7659759353e+00 2.0335648914e-04 1.7346126469e+00 -3.0044372358e+00 1.7346126469e+00 3.0044372358e+00 
40700 5.7659759484e+00 2.0584682191e-04 1.7346067851e+00 -3.0044270830e+00 1.7346067851e+00 3.0044270830e+00 
40800 5.7659759610e+00 2.0794224308e-04 1.7346008516e+00 -3.0044168058e+00 1.7346008516e+00 3.0044168058e+00 
40900 5.7659759732e+00 2.0964909357e-04 1.7345948577e+00 -3.0044064240e+00 1.7345948577e+00 3.0044064240e+00 
41000 5.7659759849e+00 2.1097432482e-04 1.7345888145e+00 -3.0043959569e+00 1.7345888145e+00 3.0043959569e+00 
41100 5.7659759963e+00 2.1192546711e-04 1.7345827331e+00 -3.0043854237e+00 1.7345827331e+00 3.0043854237e+00 
41200 5.7659760073e+00 2.1251059733e-04 1.7345766243e+00 -3.0043748429e+00 1.7345766243e+00 3.0043748429e+00 
41300 5.7659760180e+00 2.1273830684e-04 1.7345704986e+00 -3.0043642328e+00 1.7345704986e+00 3.0043642328e+00 
41400 5.7659760284e+00 2.1261766900e-04 1.7345643663e+00 -3.0043536113e+00 1.7345643663e+00 3.0043536113e+00 
41500 5.7659760386e+00 2.1215820677e-04 1.7345582374e+00 -3.0043429959e+00 1.7345582374e+00 3.0043429959e+00 
41600 5.7659760487e+00 2.1136986028e-04 1.7345521218e+00 -3.0043324033e+00 1.7345521218e+00 3.0043324033e+00 
41700 5.7659760585e+00 2.1026295456e-04 1.7345460289e+00 -3.0043218501e+00 1.7345460289e+00 3.0043218501e+00 
41800 5.7659760683e+00 2.0884816730e-04 1.7345399678e+00 -3.0043113520e+00 1.7345399678e+00 3.0043113520e+00 
41900 5.7659760779e+00 2.0713649693e-04 1.7345339476e+00 -3.0043009246e+00 1.7345339476e+00 3.0043009246e+00 
42000 5.7659760875e+00 2.0513923097e-04 1.7345279766e+00 -3.0042905826e+00 1.7345279766e+00 3.0042905826e+00 
42100 5.7659760970e+00 2.0286791461e-04 1.7345220632e+00 -3.0042803403e+00 1.7345220632e+00 3.0042803403e+00 
42200 5.7659761065e+00 2.0033431979e-04 1.7345162153e+00 -3.0042702114e+00 1.7345162153e+00 3.0042702114e+00 
42300 5.7659761159e+00 1.9755041466e-04 1.7345104403e+00 -3.0042602089e+00 1.7345104403e+00 3.0042602089e+00 
42400 5.7659761254e+00 1.9452833353e-04 1.7345047456e+00 -3.0042503454e+00 1.7345047456e+00 3.0042503454e+00 
42500 5.7659761348e+00 1.9128034735e-04 1.7344991380e+00 -3.0042406328e+00 1.7344991380e+00 3.0042406328e+00 
42600 5.7659761443e+00 1.8781883482e-04 1.7344936240e+00 -3.0042310822e+00 1.7344936240e+00 3.0042310822e+00 
42700 5.7659761538e+00 1.8415625403e-04 1.7344882098e+00 -3.0042217045e+00 1.7344882098e+00 3.0042217045e+00 
42800 5.7659761634e+00 1.8030511487e-04 1.7344829012e+00 -3.0042125097e+00 1.7344829012e+00 3.0042125097e+00 
42900 5.7659761730e+00 1.7627795202e-04 1.7344777035e+00 -3.0042035071e+00 1.7344777035e+00 3.0042035071e+00 
43000 5.7659761826e+00 1.7208729877e-04 1.7344726219e+00 -3.0041947055e+00 1.7344726219e+00 3.0041947055e+00 
43100 5.7659761923e+00 1.6774566158e-04 1.7344676611e+00 -3.0041861131e+00 1.7344676611e+00 3.0041861131e+00 
43200 5.7659762020e+00 1.6326549541e-04 1.7344628255e+00 -3.0041777376e+00 1.7344628255e+00 3.0041777376e+00 
43300 5.7659762118e+00 1.5865917988e-04 1.7344581190e+00 -3.0041695856e+00 1.7344581190e+00 3.0041695856e+00 
43400 5.7659762215e+00 1.5393899631e-04 1.7344535452e+00 -3.0041616637e+00 1.7344535452e+00 3.0041616637e+00 
43500 5.7659762314e+00 1.4911710558e-04 1.7344491075e+00 -3.0041539774e+00 1.7344491075e+00 3.0041539774e+00 
43600 5.7659762412e+00 1.4420552693e-04 1.7344448089e+00 -3.0041465319e+00 1.7344448089e+00 3.0041465319e+00 
43700 5.7659762510e+00 1.3921611760e-04 1.7344406517e+00 -3.0041393315e+00 1.7344406517e+00 3.0041393315e+00 
43800 5.7659762609e+00 1.3416055349e-04 1.7344366385e+00 -3.0041323803e+00 1.7344366385e+00 3.0041323803e+00 
43900 5.7659762707e+00 1.2905031065e-04 1.7344327709e+00 -3.0041256815e+00 1.7344327709e+00 3.0041256815e+00 
44000 5.7659762805e+00 1.2389664778e-04 1.7344290507e+00 -3.0041192379e+00 1.7344290507e+00 3.0041192379e+00 
44100 5.7659762903e+00 1.1871058964e-04 1.7344254790e+00 -3.0041130515e+00 1.7344254790e+00 3.0041130515e+00 
44200 5.7659763001e+00 1.1350291148e-04 1.7344220568e+00 -3.0041071241e+00 1.7344220568e+00 3.0041071241e+00 
44300 5.7659763098e+00 1.0828412436e-04 1.7344187847e+00 -3.0041014568e+00 1.7344187847e+00 3.0041014568e+00 
44400 5.7659763195e+00 1.0306446150e-04 1.7344156631e+00 -3.0040960499e+00 1.7344156631e+00 3.0040960499e+00 
44500 5.7659763291e+00 9.7853865496e-05 1.7344126920e+00 -3.0040909038e+00 1.7344126920e+00 3.0040909038e+00 
44600 5.7659763386e+00 9.2661976650e-05 1.7344098710e+00 -3.0040860177e+00 1.7344098710e+00 3.0040860177e+00 
44700 5.7659763480e+00 8.7498122105e-05 1.7344071997e+00 -3.0040813909e+00 1.7344071997e+00 3.0040813909e+00 
44800 5.7659763573e+00 8.2371306015e-05 1.7344046773e+00 -3.0040770220e+00 1.7344046773e+00 3.0040770220e+00 
44900 5.7659763665e+00 7.7290200633e-05 1.7344023027e+00 -3.0040729090e+00 1.7344023027e+00 3.0040729090e+00 
45000 5.7659763756e+00 7.2263138351e-05 1.7344000745e+00 -3.0040690497e+00 1.7344000745e+00 3.0040690497e+00 
45100 5.7659763845e+00 6.7298104637e-05 1.7343979913e+00 -3.0040654415e+00 1.7343979913e+00 3.0040654415e+00 
45200 5.7659763935e+00 6.4451094966e-05 1.7343979913e+00 -3.0040654415e+00 1.7343979913e+00 3.0040654415e+00 
45300 5.7659764022e+00 6.1544490127e-05 1.7343979913e+00 -3.0040654415e+00 1.7343979913e+00 3.0040654415e+00 
45400 5.7659764108e+00 5.8587843764e-05 1.7343979913e+00 -3.0040654415e+00 1.7343979913e+00 3.0040654415e+00 
45500 5.7659764192e+00 5.5590407038e-05 1.7343979913e+00 -3.0040654415e+00 1.7343979913e+00 3.0040654415e+00 
45600 5.7659764274e+00 5.2561123736e-05 1.7343979913e+00 -3.0040654415e+00 1.7343979913e+00 3.0040654415e+00 
45700 5.7659764354e+00 4.9508626115e-05 1.7343979913e+00 -3.0040654415e+00 1.7343979913e+00 3.0040654415e+00 
45800 5.7659764433e+00 4.6441231455e-05 1.7343979913e+00 -3.0040654415e+00 1.7343979913e+00 3.0040654415e+00 
45900 5.7659764509e+00 4.3366939309e-05 1.7343979913e+00 -3.0040654415e+00 1.7343979913e+00 3.0040654415e+00 
46000 5.7659764584e+00 4.0293429432e-05 1.7343979913e+00 -3.0040654415e+00 1.7343979913e+00 3.0040654415e+00 
46100 5.7659764656e+00 3.7228060347e-05 1.7343979913e+00 -3.0040654415e+00 1.7343979913e+00 3.0040654415e+00 
46200 5.7659764727e+00 3.4177868566e-05 1.7343979913e+00 -3.0040654415e+00 1.7343979913e+00 3.0040654415e+00 
46300 5.7659764796e+00 3.1149568401e-05 1.7343979913e+00 -3.0040654415e+00 1.7343979913e+00 3.0040654415e+00 
46400 5.7659764863e+00 2.8149552367e-05 1.7343979913e+00 -3.0040654415e+00 1.7343979913e+00 3.0040654415e+00 
46500 5.7659764928e+00 2.5183892155e-05 1.7343979913e+00 -3.0040654415e+00 1.7343979913e+00 3.0040654415e+00 
46600 5.7659764992e+00 2.2258340143e-05 1.7343979913e+00 -3.0040654415e+00 1.7343979913e+00 3.0040654415e+00 
46700 5.7659765054e+00 1.9378331430e-05 1.7343979913e+00 -3.0040654415e+00 1.7343979913e+00 3.0040654415e+00 
46800 5.7659765114e+00 1.6548986360e-05 1.7343979913e+00 -3.0040654415e+00 1.7343979913e+00 3.0040654415e+00 
46900 5.7659765172e+00 1.3775113518e-05 1.7343979913e+00 -3.0040654415e+00 1.7343979913e+00 3.0040654415e+00 
47000 5.7659765230e+00 1.1061213195e-05 1.7343979913e+00 -3.0040654415e+00 1.7343979913e+00 3.0040654415e+00 
47100 5.7659765285e+00 8.4114812550e-06 1.7343979913e+00 -3.0040654415e+00 1.7343979913e+00 3.0040654415e+00 
47200 5.7659765339e+00 5.8298134245e-06 1.7343979913e+00 -3.0040654415e+00 1.7343979913e+00 3.0040654415e+00 
47300 5.7659765392e+00 3.3198099514e-06 1.7343979913e+00 -3.0040654415e+00 1.7343979913e+00 3.0040654415e+00 
47400 5.7659765444e+00 8.8478063264e-07 1.7343979913e+00 -3.0040654415e+00 1.7343979913e+00 3.0040654415e+00 
47500 5.7659765494e+00 -1.4722498273e-06 1.7343979913e+00 -3.0040654415e+00 1.7343979913e+00 3.0040654415e+00 
47600 5.7659765543e+00 -3.7485361466e-06 1.7343979913e+00 -3.0040654415e+00 1.7343979913e+00 3.0040654415e+00 
47700 5.7659765591e+00 -5.9416064983e-06 1.7343979913e+00 -3.0040654415e+00 1.7343979913e+00 3.0040654415e+00 
47800 5.7659765638e+00 -8.0492562720e-06 1.7343979913e+00 -3.0040654415e+00 1.7343979913e+00 3.0040654415e+00 
47900 5.7659765683e+00 -1.0069541596e-05 1.7343979913e+00 -3.0040654415e+00 1.7343979913e+00 3.0040654415e+00 
48000 5.7659765728e+00 -1.2000772628e-05 1.7343979913e+00 -3.0040654415e+00 1.7343979913e+00 3.0040654415e+00 
48100 5.7659765772e+00 -1.3841506632e-05 1.7343979913e+00 -3.0040654415e+00 1.7343979913e+00 3.0040654415e+00 
48200 5.7659765815e+00 -1.5590540876e-05 1.7343979913e+00 -3.0040654415e+00 1.7343979913e+00 3.0040654415e+00 
48300 5.7659765857e+00 -1.7246905365e-05 1.7343979913e+00 -3.0040654415e+00 1.7343979913e+00 3.0040654415e+00 
48400 5.7659765898e+00 -1.8809855423e-05 1.7343979913e+00 -3.0040654415e+00 1.7343979913e+00 3.0040654415e+00 
48500 5.7659765939e+00 -2.0278864153e-05 1.7343979913e+00 -3.0040654415e+00 1.7343979913e+00 3.0040654415e+00 
48600 5.7659765979e+00 -2.1653614779e-05 1.7343979913e+00 -3.0040654415e+00 1.7343979913e+00 3.0040654415e+00 
48700 5.7659766018e+00 -2.2933992906e-05 1.7343979913e+00 -3.0040654415e+00 1.7343979913e+00 3.0040654415e+00 
48800 5.7659766057e+00 -2.4120078706e-05 1.7343979913e+00 -3.0040654415e+00 1.7343979913e+00 3.0040654415e+00 
48900 5.7659766095e+00 -2.5212139036e-05 1.7343979913e+00 -3.0040654415e+00 1.7343979913e+00 3.0040654415e+00 
49000 5.7659766132e+00 -2.6210619534e-05 1.7343979913e+00 -3.0040654415e+00 1.7343979913e+00 3.0040654415e+00 
49100 5.7659766169e+00 -2.7116136688e-05 1.7343979913e+00 -3.0040654415e+00 1.7343979913e+00 3.0040654415e+00 
49200 5.7659766205e+00 -2.7929469878e-05 1.7343979913e+00 -3.0040654415e+00 1.7343979913e+00 3.0040654415e+00 
49300 5.7659766241e+00 -2.8651553450e-05 1.7343979913e+00 -3.0040654415e+00 1.7343979913e+00 3.0040654415e+00 
49400 5.7659766277e+00 -2.9283468798e-05 1.7343979913e+00 -3.0040654415e+00 1.7343979913e+00 3.0040654415e+00 
49500 5.7659766312e+00 -2.9826436483e-05 1.7343979913e+00 -3.0040654415e+00 1.7343979913e+00 3.0040654415e+00 
49600 5.7659766347e+00 -3.0281808398e-05 1.7343979913e+00 -3.0040654415e+00 1.7343979913e+00 3.0040654415e+00 
49700 5.7659766381e+00 -3.0651059999e-05 1.7343979913e+00 -3.0040654415e+00 1.7343979913e+00 3.0040654415e+00 
49800 5.7659766415e+00 -3.0935782605e-05 1.7343979913e+00 -3.0040654415e+00 1.7343979913e+00 3.0040654415e+00 
49900 5.7659766448e+00 -3.1137675781e-05 1.7343979913e+00 -3.0040654415e+00 1.7343979913e+00 3.0040654415e+00 
50000 5.7659766481e+00 -3.1258539819e-05 1.7343979913e+00 -3.0040654415e+00 1.7343979913e+00 3.0040654415e+00 
50100 5.7659766514e+00 -3.1300268324e-05 1.7343979913e+00 -3.0040654415e+00 1.7343979913e+00 3.0040654415e+00 
50200 5.7659766546e+00 -3.1264840909e-05 1.7343979913e+00 -3.0040654415e+00 1.7343979913e+00 3.0040654415e+00 
50300 5.7659766578e+00 -3.1154316022e-05 1.7343979913e+00 -3.0040654415e+00 1.7343979913e+00 3.0040654415e+00 
50400 5.7659766610e+00 -3.0970823904e-05 1.7343979913e+00 -3.0040654415e+00 1.7343979913e+00 3.0040654415e+00 
50500 5.7659766642e+00 -3.0716559677e-05 1.7343979913e+00 -3.0040654415e+00 1.7343979913e+00 3.0040654415e+00 
50600 5.7659766673e+00 -3.0393776596e-05 1.7343979913e+00 -3.0040654415e+00 1.7343979913e+00 3.0040654415e+00 
50700 5.7659766703e+00 -3.0004779446e-05 1.7343979913e+00 -3.0040654415e+00 1.7343979913e+00 3.0040654415e+00 
50800 5.7659766734e+00 -2.9551918094e-05 1.7343979913e+00 -3.0040654415e+00 1.7343979913e+00 3.0040654415e+00 
50900 5.7659766764e+00 -2.9037581224e-05 1.7343979913e+00 -3.0040654415e+00 1.7343979913e+00 3.0040654415e+00 
51000 5.7659766794e+00 -2.8464190236e-05 1.7343979913e+00 -3.0040654415e+00 1.7343979913e+00 3.0040654415e+00 
51100 5.7659766823e+00 -2.7834193310e-05 1.7343979913e+00 -3.0040654415e+00 1.7343979913e+00 3.0040654415e+00 
51200 5.7659766852e+00 -2.7150059670e-05 1.7343979913e+00 -3.0040654415e+00 1.7343979913e+00 3.0040654415e+00 
51300 5.7659766881e+00 -2.6414274019e-05 1.7343979913e+00 -3.0040654415e+00 1.7343979913e+00 3.0040654415e+00 
51400 5.7659766910e+00 -2.5629331174e-05 1.7343979913e+00 -3.0040654415e+00 1.7343979913e+00 3.0040654415e+00 
51500 5.7659766938e+00 -2.4797730874e-05 1.7343979913e+00 -3.0040654415e+00 1.7343979913e+00 3.0040654415e+00 
51600 5.7659766966e+00 -2.3921972801e-05 1.7343979913e+00 -3.0040654415e+00 1.7343979913e+00 3.0040654415e+00 
51700 5.7659766993e+00 -2.3004551774e-05 1.7343979913e+00 -3.0040654415e+00 1.7343979913e+00 3.0040654415e+00 
51800 5.7659767020e+00 -2.2047953166e-05 1.7343979913e+00 -3.0040654415e+00 1.7343979913e+00 3.0040654415e+00 
51900 5.7659767047e+00 -2.1054648484e-05 1.7343979913e+00 -3.0040654415e+00 1.7343979913e+00 3.0040654415e+00 
52000 5.7659767074e+00 -2.0027091183e-05 1.7343979913e+00 -3.0040654415e+00 1.7343979913e+00 3.0040654415e+00 
52100 5.7659767100e+00 -1.8967712649e-05 1.7343979913e+00 -3.0040654415e+00 1.7343979913e+00 3.0040654415e+00 
52200 5.7659767125e+00 -1.7878918401e-05 1.7343979913e+00 -3.0040654415e+00 1.7343979913e+00 3.0040654415e+00 
52300 5.7659767151e+00 -1.6763084464e-05 1.7343979913e+00 -3.0040654415e+00 1.7343979913e+00 3.0040654415e+00 
52400 5.7659767176e+00 -1.5622553979e-05 1.7343979913e+00 -3.0040654415e+00 1.7343979913e+00 3.0040654415e+00 
52500 5.7659767201e+00 -1.4459633960e-05 1.7343979913e+00 -3.0040654415e+00 1.7343979913e+00 3.0040654415e+00 
52600 5.7659767225e+00 -1.3276592285e-05 1.7343979913e+00 -3.0040654415e+00 1.7343979913e+00 3.0040654415e+00 
52700 5.7659767249e+00 -1.2075654853e-05 1.7343979913e+00 -3.0040654415e+00 1.7343979913e+00 3.0040654415e+00 
52800 5.7659767272e+00 -1.0859002946e-05 1.7343979913e+00 -3.0040654415e+00 1.7343979913e+00 3.0040654415e+00 
52900 5.7659767296e+00 -9.6287707703e-06 1.7343979913e+00 -3.0040654415e+00 1.7343979913e+00 3.0040654415e+00 
53000 5.7659767319e+00 -8.3870431836e-06 1.7343979913e+00 -3.0040654415e+00 1.7343979913e+00 3.0040654415e+00 
53100 5.7659767341e+00 -7.1358536037e-06 1.7343979913e+00 -3.0040654415e+00 1.7343979913e+00 3.0040654415e+00 
53200 5.7659767364e+00 -5.8771821019e-06 1.7343979913e+00 -3.0040654415e+00 1.7343979913e+00 3.0040654415e+00 
53300 5.7659767385e+00 -4.6129536628e-06 1.7343979913e+00 -3.0040654415e+00 1.7343979913e+00 3.0040654415e+00 
53400 5.7659767407e+00 -3.3450366228e-06 1.7343979913e+00 -3.0040654415e+00 1.7343979913e+00 3.0040654415e+00 
53500 5.7659767428e+00 -2.0752412699e-06 1.7343979913e+00 -3.0040654415e+00 1.7343979913e+00 3.0040654415e+00 
53600 5.7659767449e+00 -8.0531861457e-07 1.7343979913e+00 -3.0040654415e+00 1.7343979913e+00 3.0040654415e+00 
53700 5.7659767470e+00 4.6304068102e-07 1.7343979913e+00 -3.0040654415e+00 1.7343979913e+00 3.0040654415e+00 
53800 5.7659767490e+00 1.7282072228e-06 1.7343979913e+00 -3.0040654415e+00 1.7343979913e+00 3.0040654415e+00 
53900 5.7659767510e+00 2.9886136439e-06 1.7343979913e+00 -3.0040654415e+00 1.7343979913e+00 3.0040654415e+00 
54000 5.7659767529e+00 4.2427552272e-06 1.7343979913e+00 -3.0040654415e+00 1.7343979913e+00 3.0040654415e+00 
54100 5.7659767548e+00 5.4891903741e-06 1.7343979913e+00 -3.0040654415e+00 1.7343979913e+00 3.0040654415e+00 
54200 5.7659767567e+00 6.7265409458e-06 1.7343979913e+00 -3.0040654415e+00 1.7343979913e+00 3.0040654415e+00 
54300 5.7659767586e+00 7.9534924656e-06 1.7343979913e+00 -3.0040654415e+00 1.7343979913e+00 3.0040654415e+00 
54400 5.7659767604e+00 9.1687941884e-06 1.7343979913e+00 -3.0040654415e+00 1.7343979913e+00 3.0040654415e+00 
54500 5.7659767622e+00 1.0371259057e-05 1.7343979913e+00 -3.0040654415e+00 1.7343979913e+00 3.0040654415e+00 
54600 5.7659767640e+00 1.1559763532e-05 1.7343979913e+00 -3.0040654415e+00 1.7343979913e+00 3.0040654415e+00 
54700 5.7659767657e+00 1.2733247309e-05 1.7343979913e+00 -3.0040654415e+00 1.7343979913e+00 3.0040654415e+00 
54800 5.7659767674e+00 1.3890712931e-05 1.7343979913e+00 -3.0040654415e+00 1.7343979913e+00 3.0040654415e+00 
54900 5.7659767691e+00 1.5031225290e-05 1.7343979913e+00 -3.0040654415e+00 1.7343979913e+00 3.0040654415e+00 
55000 5.7659767708e+00 1.6153911034e-05 1.7343979913e+00 -3.0040654415e+00 1.7343979913e+00 3.0040654415e+00 
55100 5.7659767724e+00 1.7257957879e-05 1.7343979913e+00 -3.0040654415e+00 1.7343979913e+00 3.0040654415e+00 
55200 5.7659767740e+00 1.8342613835e-05 1.7343979913e+00 -3.0040654415e+00 1.7343979913e+00 3.0040654415e+00 
55300 5.7659767756e+00 1.9407186343e-05 1.7343979913e+00 -3.0040654415e+00 1.7343979913e+00 3.0040654415e+00 
55400 5.7659767771e+00 2.0451041330e-05 1.7343979913e+00 -3.0040654415e+00 1.7343979913e+00 3.0040654415e+00 
55500 5.7659767786e+00 2.1473602201e-05 1.7343979913e+00 -3.0040654415e+00 1.7343979913e+00 3.0040654415e+00 
55600 5.7659767802e+00 2.2474348752e-05 1.7343979913e+00 -3.0040654415e+00 1.7343979913e+00 3.0040654415e+00 
55700 5.7659767816e+00 2.3452816019e-05 1.7343979913e+00 -3.0040654415e+00 1.7343979913e+00 3.0040654415e+00 
55800 5.7659767831e+00 2.4408593067e-05 1.7343979913e+00 -3.0040654415e+00 1.7343979913e+00 3.0040654415e+00 
55900 5.7659767845e+00 2.5341321733e-05 1.7343979913e+00 -3.0040654415e+00 1.7343979913e+00 3.0040654415e+00 
56000 5.7659767859e+00 2.6250695299e-05 1.7343979913e+00 -3.0040654415e+00 1.7343979913e+00 3.0040654415e+00 
56100 5.7659767873e+00 2.7136457135e-05 1.7343979913e+00 -3.0040654415e+00 1.7343979913e+00 3.0040654415e+00 
56200 5.7659767887e+00 2.7998399295e-05 1.7343979913e+00 -3.0040654415e+00 1.7343979913e+00 3.0040654415e+00 
56300 5.7659767900e+00 2.8836361068e-05 1.7343979913e+00 -3.0040654415e+00 1.7343979913e+00 3.0040654415e+00 
56400 5.7659767914e+00 2.9650227512e-05 1.7343979913e+00 -3.0040654415e+00 1.7343979913e+00 3.0040654415e+00 
56500 5.7659767927e+00 3.0439927935e-05 1.7343979913e+00 -3.0040654415e+00 1.7343979913e+00 3.0040654415e+00 
56600 5.7659767939e+00 3.1205434371e-05 1.7343979913e+00 -3.0040654415e+00 1.7343979913e+00 3.0040654415e+00 
56700 5.7659767952e+00 3.1946760026e-05 1.7343979913e+00 -3.0040654415e+00 1.7343979913e+00 3.0040654415e+00 
56800 5.7659767965e+00 3.2663957702e-05 1.7343979913e+00 -3.0040654415e+00 1.7343979913e+00 3.0040654415e+00 
56900 5.7659767977e+00 3.3357118220e-05 1.7343979913e+00 -3.0040654415e+00 1.7343979913e+00 3.0040654415e+00 
57000 5.7659767989e+00 3.4026368811e-05 1.7343979913e+00 -3.0040654415e+00 1.7343979913e+00 3.0040654415e+00 
57100 5.7659768001e+00 3.4671871525e-05 1.7343979913e+00 -3.0040654415e+00 1.7343979913e+00 3.0040654415e+00 
57200 5.7659768013e+00 3.5293821616e-05 1.7343979913e+00 -3.0040654415e+00 1.7343979913e+00 3.0040654415e+00 
57300 5.7659768024e+00 3.5892445931e-05 1.7343979913e+00 -3.0040654415e+00 1.7343979913e+00 3.0040654415e+00 
57400 5.7659768036e+00 3.6468001314e-05 1.7343979913e+00 -3.0040654415e+00 1.7343979913e+00 3.0040654415e+00 
57500 5.7659768047e+00 3.7020772996e-05 1.7343979913e+00 -3.0040654415e+00 1.7343979913e+00 3.0040654415e+00 
57600 5.7659768058e+00 3.7551073005e-05 1.7343979913e+00 -3.0040654415e+00 1.7343979913e+00 3.0040654415e+00 
57700 5.7659768069e+00 3.8059238584e-05 1.7343979913e+00 -3.0040654415e+00 1.7343979913e+00 3.0040654415e+00 
57800 5.7659768080e+00 3.8545630624e-05 1.7343979913e+00 -3.0040654415e+00 1.7343979913e+00 3.0040654415e+00 
57900 5.7659768091e+00 3.9010632109e-05 1.7343979913e+00 -3.0040654415e+00 1.7343979913e+00 3.0040654415e+00 
58000 5.7659768101e+00 3.9454646579e-05 1.7343979913e+00 -3.0040654415e+00 1.7343979913e+00 3.0040654415e+00 
58100 5.7659768112e+00 3.9878096627e-05 1.7343979913e+00 -3.0040654415e+00 1.7343979913e+00 3.0040654415e+00 
58200 5.7659768122e+00 4.0281422391e-05 1.7343979913e+00 -3.0040654415e+00 1.7343979913e+00 3.0040654415e+00 
58300 5.7659768132e+00 4.0665080096e-05 1.7343979913e+00 -3.0040654415e+00 1.7343979913e+00 3.0040654415e+00 
58400 5.7659768142e+00 4.1029540615e-05 1.7343979913e+00 -3.0040654415e+00 1.7343979913e+00 3.0040654415e+00 
58500 5.7659768152e+00 4.1375288048e-05 1.7343979913e+00 -3.0040654415e+00 1.7343979913e+00 3.0040654415e+00 
58600 5.7659768161e+00 4.1702818343e-05 1.7343979913e+00 -3.0040654415e+00 1.7343979913e+00 3.0040654415e+00 
58700 5.7659768171e+00 4.2012637944e-05 1.7343979913e+00 -3.0040654415e+00 1.7343979913e+00 3.0040654415e+00 
58800 5.7659768180e+00 4.2305262464e-05 1.7343979913e+00 -3.0040654415e+00 1.7343979913e+00 3.0040654415e+00 
58900 5.7659768189e+00 4.2581215409e-05 1.7343979913e+00 -3.0040654415e+00 1.7343979913e+00 3.0040654415e+00 
59000 5.7659768199e+00 4.2841026917e-05 1.7343979913e+00 -3.0040654415e+00 1.7343979913e+00 3.0040654415e+00 
59100 5.7659768208e+00 4.3085232546e-05 1.7343979913e+00 -3.0040654415e+00 1.7343979913e+00 3.0040654415e+00 
59200 5.7659768216e+00 4.3314372090e-05 1.7343979913e+00 -3.0040654415e+00 1.7343979913e+00 3.0040654415e+00 
59300 5.7659768225e+00 4.3528988445e-05 1.7343979913e+00 -3.0040654415e+00 1.7343979913e+00 3.0040654415e+00 
59400 5.7659768234e+00 4.3729626496e-05 1.7343979913e+00 -3.0040654415e+00 1.7343979913e+00 3.0040654415e+00 
59500 5.7659768242e+00 4.3916832058e-05 1.7343979913e+00 -3.0040654415e+00 1.7343979913e+00 3.0040654415e+00 
59600 5.7659768251e+00 4.4091150846e-05 1.7343979913e+00 -3.0040654415e+00 1.7343979913e+00 3.0040654415e+00 
59700 5.7659768259e+00 4.4253127493e-05 1.7343979913e+00 -3.0040654415e+00 1.7343979913e+00 3.0040654415e+00 
59800 5.7659768267e+00 4.4403304604e-05 1.7343979913e+00 -3.0040654415e+00 1.7343979913e+00 3.0040654415e+00 
59900 5.7659768275e+00 4.4542221847e-05 1.7343979913e+00 -3.0040654415e+00 1.7343979913e+00 3.0040654415e+00 
60000 5.7659768283e+00 4.4670415090e-05 1.7343979913e+00 -3.0040654415e+00 1.7343979913e+00 3.0040654415e+00 
60100 5.7659768291e+00 4.4788415577e-05 1.7343979913e+00 -3.0040654415e+00 1.7343979913e+00 3.0040654415e+00 
60200 5.7659768299e+00 4.4896749142e-05 1.7343979913e+00 -3.0040654415e+00 1.7343979913e+00 3.0040654415e+00 
60300 5.7659768306e+00 4.4995935466e-05 1.7343979913e+00 -3.0040654415e+00 1.7343979913e+00 3.0040654415e+00 
60400 5.7659768314e+00 4.5086487378e-05 1.7343979913e+00 -3.0040654415e+00 1.7343979913e+00 3.0040654415e+00 
60500 5.7659768321e+00 4.5168910185e-05 1.7343979913e+00 -3.0040654415e+00 1.7343979913e+00 3.0040654415e+00 
60600 5.7659768328e+00 4.5243701050e-05 1.7343979913e+00 -3.0040654415e+00 1.7343979913e+00 3.0040654415e+00 
60700 5.7659768335e+00 4.5311348414e-05 1.7343979913e+00 -3.0040654415e+00 1.7343979913e+00 3.0040654415e+00 
60800 5.7659768343e+00 4.5372331441e-05 1.7343979913e+00 -3.0040654415e+00 1.7343979913e+00 3.0040654415e+00 
60900 5.7659768349e+00 4.5427119525e-05 1.7343979913e+00 -3.0040654415e+00 1.7343979913e+00 3.0040654415e+00 
61000 5.7659768356e+00 4.5476171801e-05 1.7343979913e+00 -3.0040654415e+00 1.7343979913e+00 3.0040654415e+00 
61100 5.7659768363e+00 4.5519936739e-05 1.7343979913e+00 -3.0040654415e+00 1.7343979913e+00 3.0040654415e+00 
61200 5.7659768370e+00 4.5558851728e-05 1.7343979913e+00 -3.0040654415e+00 1.7343979913e+00 3.0040654415e+00 
61300 5.7659768376e+00 4.5593342727e-05 1.7343979913e+00 -3.0040654415e+00 1.7343979913e+00 3.0040654415e+00 
61400 5.7659768383e+00 4.5623823939e-05 1.7343979913e+00 -3.0040654415e+00 1.7343979913e+00 3.0040654415e+00 
61500 5.7659768389e+00 4.5650697532e-05 1.7343979913e+00 -3.0040654415e+00 1.7343979913e+00 3.0040654415e+00 
61600 5.7659768395e+00 4.5674353368e-05 1.7343979913e+00 -3.0040654415e+00 1.7343979913e+00 3.0040654415e+00 
61700 5.7659768402e+00 4.5695168792e-05 1.7343979913e+00 -3.0040654415e+00 1.7343979913e+00 3.0040654415e+00 
61800 5.7659768408e+00 4.5713508443e-05 1.7343979913e+00 -3.0040654415e+00 1.7343979913e+00 3.0040654415e+00 
61900 5.7659768414e+00 4.5729724089e-05 1.7343979913e+00 -3.0040654415e+00 1.7343979913e+00 3.0040654415e+00 
62000 5.7659768420e+00 4.5744154502e-05 1.7343979913e+00 -3.0040654415e+00 1.7343979913e+00 3.0040654415e+00 
62100 5.7659768425e+00 4.5757125364e-05 1.7343979913e+00 -3.0040654415e+00 1.7343979913e+00 3.0040654415e+00 
62200 5.7659768431e+00 4.5768949187e-05 1.7343979913e+00 -3.0040654415e+00 1.7343979913e+00 3.0040654415e+00 
62300 5.7659768437e+00 4.5779925278e-05 1.7343979913e+00 -3.0040654415e+00 1.7343979913e+00 3.0040654415e+00 
62400 5.7659768442e+00 4.5790339717e-05 1.7343979913e+00 -3.0040654415e+00 1.7343979913e+00 3.0040654415e+00 
62500 5.7659768448e+00 4.5800465373e-05 1.7343979913e+00 -3.0040654415e+00 1.7343979913e+00 3.0040654415e+00 
62600 5.7659768453e+00 4.5810561929e-05 1.7343979913e+00 -3.0040654415e+00 1.7343979913e+00 3.0040654415e+00 
62700 5.7659768459e+00 4.5820875948e-05 1.7343979913e+00 -3.0040654415e+00 1.7343979913e+00 3.0040654415e+00 
62800 5.7659768464e+00 4.5831640938e-05 1.7343979913e+00 -3.0040654415e+00 1.7343979913e+00 3.0040654415e+00 
62900 5.7659768469e+00 4.5843077473e-05 1.7343979913e+00 -3.0040654415e+00 1.7343979913e+00 3.0040654415e+00 
63000 5.7659768474e+00 4.5855393296e-05 1.7343979913e+00 -3.0040654415e+00 1.7343979913e+00 3.0040654415e+00 
63100 5.7659768479e+00 4.5868783468e-05 1.7343979913e+00 -3.0040654415e+00 1.7343979913e+00 3.0040654415e+00 
63200 5.7659768484e+00 4.5883430526e-05 1.7343979913e+00 -3.0040654415e+00 1.7343979913e+00 3.0040654415e+00 
63300 5.7659768489e+00 4.5899504657e-05 1.7343979913e+00 -3.0040654415e+00 1.7343979913e+00 3.0040654415e+00 
63400 5.7659768494e+00 4.5917163896e-05 1.7343979913e+00 -3.0040654415e+00 1.7343979913e+00 3.0040654415e+00 
63500 5.7659768499e+00 4.5936554321e-05 1.7343979913e+00 -3.0040654415e+00 1.7343979913e+00 3.0040654415e+00 
63600 5.7659768503e+00 4.5957810293e-05 1.7343979913e+00 -3.0040654415e+00 1.7343979913e+00 3.0040654415e+00 
63700 5.7659768508e+00 4.5981054673e-05 1.7343979913e+00 -3.0040654415e+00 1.7343979913e+00 3.0040654415e+00 
63800 5.7659768513e+00 4.6006399085e-05 1.7343979913e+00 -3.0040654415e+00 1.7343979913e+00 3.0040654415e+00 
63900 5.7659768517e+00 4.6033944165e-05 1.7343979913e+00 -3.0040654415e+00 1.7343979913e+00 3.0040654415e+00 
64000 5.7659768521e+00 4.6063779835e-05 1.7343979913e+00 -3.0040654415e+00 1.7343979913e+00 3.0040654415e+00 
64100 5.7659768526e+00 4.6095985582e-05 1.7343979913e+00 -3.0040654415e+00 1.7343979913e+00 3.0040654415e+00 
64200 5.7659768530e+00 4.6130630746e-05 1.7343979913e+00 -3.0040654415e+00 1.7343979913e+00 3.0040654415e+00 
64300 5.7659768534e+00 4.6167774814e-05 1.7343979913e+00 -3.0040654415e+00 1.7343979913e+00 3.0040654415e+00 
64400 5.7659768538e+00 4.6207467725e-05 1.7343979913e+00 -3.0040654415e+00 1.7343979913e+00 3.0040654415e+00 
64500 5.7659768543e+00 4.6249750173e-05 1.7343979913e+00 -3.0040654415e+00 1.7343979913e+00 3.0040654415e+00 
64600 5.7659768547e+00 4.6294653932e-05 1.7343979913e+00 -3.0040654415e+00 1.7343979913e+00 3.0040654415e+00 
64700 5.7659768551e+00 4.6342202161e-05 1.7343979913e+00 -3.0040654415e+00 1.7343979913e+00 3.0040654415e+00 
64800 5.7659768555e+00 4.6392409737e-05 1.7343979913e+00 -3.0040654415e+00 1.7343979913e+00 3.0040654415e+00 
64900 5.7659768558e+00 4.6445283574e-05 1.7343979913e+00 -3.0040654415e+00 1.7343979913e+00 3.0040654415e+00 
65000 5.7659768562e+00 4.6500822948e-05 1.7343979913e+00 -3.0040654415e+00 1.7343979913e+00 3.0040654415e+00 
65100 5.7659768566e+00 4.6559019833e-05 1.7343979913e+00 -3.0040654415e+00 1.7343979913e+00 3.0040654415e+00 
65200 5.7659768570e+00 4.6619859226e-05 1.7343979913e+00 -3.0040654415e+00 1.7343979913e+00 3.0040654415e+00 
65300 5.7659768573e+00 4.6683319479e-05 1.7343979913e+00 -3.0040654415e+00 1.7343979913e+00 3.0040654415e+00 
65400 5.7659768577e+00 4.6749372619e-05 1.7343979913e+00 -3.0040654415e+00 1.7343979913e+00 3.0040654415e+00 
65500 5.7659768581e+00 4.6817984690e-05 1.7343979913e+00 -3.0040654415e+00 1.7343979913e+00 3.0040654415e+00 
65600 5.7659768584e+00 4.6889116067e-05 1.7343979913e+00 -3.0040654415e+00 1.7343979913e+00 3.0040654415e+00 
65700 5.7659768588e+00 4.6962721790e-05 1.7343979913e+00 -3.0040654415e+00 1.7343979913e+00 3.0040654415e+00 
65800 5.7659768591e+00 4.7038751876e-05 1.7343979913e+00 -3.0040654415e+00 1.7343979913e+00 3.0040654415e+00 
65900 5.7659768594e+00 4.7117151642e-05 1.7343979913e+00 -3.0040654415e+00 1.7343979913e+00 3.0040654415e+00 
66000 5.7659768598e+00 4.7197862019e-05 1.7343979913e+00 -3.0040654415e+00 1.7343979913e+00 3.0040654415e+00 
66100 5.7659768601e+00 4.7280819860e-05 1.7343979913e+00 -3.0040654415e+00 1.7343979913e+00 3.0040654415e+00 
66200 5.7659768604e+00 4.7365958252e-05 1.7343979913e+00 -3.0040654415e+00 1.7343979913e+00 3.0040654415e+00 
66300 5.7659768607e+00 4.7453206801e-05 1.7343979913e+00 -3.0040654415e+00 1.7343979913e+00 3.0040654415e+00 
66400 5.7659768610e+00 4.7542491949e-05 1.7343979913e+00 -3.0040654415e+00 1.7343979913e+00 3.0040654415e+00 
66500 5.7659768614e+00 4.7633737242e-05 1.7343979913e+00 -3.0040654415e+00 1.7343979913e+00 3.0040654415e+00 
66600 5.7659768617e+00 4.7726863627e-05 1.7343979913e+00 -3.0040654415e+00 1.7343979913e+00 3.0040654415e+00 
66700 5.7659768620e+00 4.7821789722e-05 1.7343979913e+00 -3.0040654415e+00 1.7343979913e+00 3.0040654415e+00 
66800 5.7659768623e+00 4.7918432089e-05 1.7343979913e+00 -3.0040654415e+00 1.7343979913e+00 3.0040654415e+00 
66900 5.7659768626e+00 4.8016705499e-05 1.7343979913e+00 -3.0040654415e+00 1.7343979913e+00 3.0040654415e+00 
67000 5.7659768628e+00 4.8116523178e-05 1.7343979913e+00 -3.0040654415e+00 1.7343979913e+00 3.0040654415e+00 
67100 5.7659768631e+00 4.8217797069e-05 1.7343979913e+00 -3.0040654415e+00 1.7343979913e+00 3.0040654415e+00 
67200 5.7659768634e+00 4.8320438069e-05 1.7343979913e+00 -3.0040654415e+00 1.7343979913e+00 3.0040654415e+00 
67300 5.7659768637e+00 4.8424356253e-05 1.7343979913e+00 -3.0040654415e+00 1.7343979913e+00 3.0040654415e+00 
67400 5.7659768640e+00 4.8529461118e-05 1.7343979913e+00 -3.0040654415e+00 1.7343979913e+00 3.0040654415e+00 
67500 5.7659768642e+00 4.8635661780e-05 1.7343979913e+00 -3.0040654415e+00 1.7343979913e+00 3.0040654415e+00 
67600 5.7659768645e+00 4.8742867198e-05 1.7343979913e+00 -3.0040654415e+00 1.7343979913e+00 3.0040654415e+00 
67700 5.7659768647e+00 4.8850986370e-05 1.7343979913e+00 -3.0040654415e+00 1.7343979913e+00 3.0040654415e+00 
67800 5.7659768650e+00 4.8959928528e-05 1.7343979913e+00 -3.0040654415e+00 1.7343979913e+00 3.0040654415e+00 
67900 5.7659768653e+00 4.9069603322e-05 1.7343979913e+00 -3.0040654415e+00 1.7343979913e+00 3.0040654415e+00 
68000 5.7659768655e+00 4.9179920998e-05 1.7343979913e+00 -3.0040654415e+00 1.7343979913e+00 3.0040654415e+00 
68100 5.7659768658e+00 4.9290792560e-05 1.7343979913e+00 -3.0040654415e+00 1.7343979913e+00 3.0040654415e+00 
68200 5.7659768660e+00 4.9402129943e-05 1.7343979913e+00 -3.0040654415e+00 1.7343979913e+00 3.0040654415e+00 
68300 5.7659768662e+00 4.9513846147e-05 1.7343979913e+00 -3.0040654415e+00 1.7343979913e+00 3.0040654415e+00 
68400 5.7659768665e+00 4.9625855401e-05 1.7343979913e+00 -3.0040654415e+00 1.7343979913e+00 3.0040654415e+00 
68500 5.7659768667e+00 4.9738073280e-05 1.7343979913e+00 -3.0040654415e+00 1.7343979913e+00 3.0040654415e+00 
68600 5.7659768669e+00 4.9850416844e-05 1.7343979913e+00 -3.0040654415e+00 1.7343979913e+00 3.0040654415e+00 
68700 5.7659768672e+00 4.9962804750e-05 1.7343979913e+00 -3.0040654415e+00 1.7343979913e+00 3.0040654415e+00 
68800 5.7659768674e+00 5.0075157371e-05 1.7343979913e+00 -3.0040654415e+00 1.7343979913e+00 3.0040654415e+00 
68900 5.7659768676e+00 5.0187396889e-05 1.7343979913e+00 -3.0040654415e+00 1.7343979913e+00 3.0040654415e+00 
69000 5.7659768678e+00 5.0299447398e-05 1.7343979913e+00 -3.0040654415e+00 1.7343979913e+00 3.0040654415e+00 
69100 5.7659768680e+00 5.0411234992e-05 1.7343979913e+00 -3.0040654415e+00 1.7343979913e+00 3.0040654415e+00 
69200 5.7659768683e+00 5.0522687840e-05 1.7343979913e+00 -3.0040654415e+00 1.7343979913e+00 3.0040654415e+00 
69300 5.7659768685e+00 5.0633736268e-05 1.7343979913e+00 -3.0040654415e+00 1.7343979913e+00 3.0040654415e+00 
69400 5.7659768687e+00 5.0744312814e-05 1.7343979913e+00 -3.0040654415e+00 1.7343979913e+00 3.0040654415e+00 
69500 5.7659768689e+00 5.0854352293e-05 1.7343979913e+00 -3.0040654415e+00 1.7343979913e+00 3.0040654415e+00 
69600 5.7659768691e+00 5.0963791850e-05 1.7343979913e+00 -3.0040654415e+00 1.7343979913e+00 3.0040654415e+00 
69700 5.7659768693e+00 5.1072571000e-05 1.7343979913e+00 -3.0040654415e+00 1.7343979913e+00 3.0040654415e+00 
69800 5.7659768695e+00 5.1180631675e-05 1.7343979913e+00 -3.0040654415e+00 1.7343979913e+00 3.0040654415e+00 
69900 5.7659768696e+00 5.1287918246e-05 1.7343979913e+00 -3.0040654415e+00 1.7343979913e+00 3.0040654415e+00 
70000 5.7659768698e+00 5.1394377558e-05 1.7343979913e+00 -3.0040654415e+00 1.7343979913e+00 3.0040654415e+00 
70100 5.7659768700e+00 5.1499958945e-05 1.7343979913e+00 -3.0040654415e+00 1.7343979913e+00 3.0040654415e+00 
70200 5.7659768702e+00 5.1604614245e-05 1.7343979913e+00 -3.0040654415e+00 1.7343979913e+00 3.0040654415e+00 
70300 5.7659768704e+00 5.1708297810e-05 1.7343979913e+00 -3.0040654415e+00 1.7343979913e+00 3.0040654415e+00 
70400 5.7659768706e+00 5.1810966511e-05 1.7343979913e+00 -3.0040654415e+00 1.7343979913e+00 3.0040654415e+00 
70500 5.7659768707e+00 5.1912579732e-05 1.7343979913e+00 -3.0040654415e+00 1.7343979913e+00 3.0040654415e+00 
70600 5.7659768709e+00 5.2013099368e-05 1.7343979913e+00 -3.0040654415e+00 1.7343979913e+00 3.0040654415e+00 
70700 5.7659768711e+00 5.2112489812e-05 1.7343979913e+00 -3.0040654415e+00 1.7343979913e+00 3.0040654415e+00 
70800 5.7659768713e+00 5.2210717932e-05 1.7343979913e+00 -3.0040654415e+00 1.7343979913e+00 3.0040654415e+00 
70900 5.7659768714e+00 5.2307753064e-05 1.7343979913e+00 -3.0040654415e+00 1.7343979913e+00 3.0040654415e+00 
71000 5.7659768716e+00 5.2403566977e-05 1.7343979913e+00 -3.0040654415e+00 1.7343979913e+00 3.0040654415e+00 
71100 5.7659768717e+00 5.2498133848e-05 1.7343979913e+00 -3.0040654415e+00 1.7343979913e+00 3.0040654415e+00 
71200 5.7659768719e+00 5.2591430233e-05 1.7343979913e+00 -3.0040654415e+00 1.7343979913e+00 3.0040654415e+00 
71300 5.7659768721e+00 5.2683435028e-05 1.7343979913e+00 -3.0040654415e+00 1.7343979913e+00 3.0040654415e+00 
71400 5.7659768722e+00 5.2774129431e-05 1.7343979913e+00 -3.0040654415e+00 1.7343979913e+00 3.0040654415e+00 
71500 5.7659768724e+00 5.2863496895e-05 1.7343979913e+00 -3.0040654415e+00 1.7343979913e+00 3.0040654415e+00 
71600 5.7659768725e+00 5.2951523095e-05 1.7343979913e+00 -3.0040654415e+00 1.7343979913e+00 3.0040654415e+00 
71700 5.7659768727e+00 5.3038195869e-05 1.7343979913e+00 -3.0040654415e+00 1.7343979913e+00 3.0040654415e+00 
71800 5.7659768728e+00 5.3123505178e-05 1.7343979913e+00 -3.0040654415e+00 1.7343979913e+00 3.0040654415e+00 
71900 5.7659768730e+00 5.3207443041e-05 1.7343979913e+00 -3.0040654415e+00 1.7343979913e+00 3.0040654415e+00 
72000 5.7659768731e+00 5.3290003496e-05 1.7343979913e+00 -3.0040654415e+00 1.7343979913e+00 3.0040654415e+00 
72100 5.7659768732e+00 5.3371182530e-05 1.7343979913e+00 -3.0040654415e+00 1.7343979913e+00 3.0040654415e+00 
72200 5.7659768734e+00 5.3450978031e-05 1.7343979913e+00 -3.0040654415e+00 1.7343979913e+00 3.0040654415e+00 
72300 5.7659768735e+00 5.3529389724e-05 1.7343979913e+00 -3.0040654415e+00 1.7343979913e+00 3.0040654415e+00 
72400 5.7659768737e+00 5.3606419107e-05 1.7343979913e+00 -3.0040654415e+00 1.7343979913e+00 3.0040654415e+00 
72500 5.7659768738e+00 5.3682069398e-05 1.7343979913e+00 -3.0040654415e+00 1.7343979913e+00 3.0040654415e+00 
72600 5.7659768739e+00 5.3756345467e-05 1.7343979913e+00 -3.0040654415e+00 1.7343979913e+00 3.0040654415e+00 
72700 5.7659768741e+00 5.3829253767e-05 1.7343979913e+00 -3.0040654415e+00 1.7343979913e+00 3.0040654415e+00 
72800 5.7659768742e+00 5.3900802276e-05 1.7343979913e+00 -3.0040654415e+00 1.7343979913e+00 3.0040654415e+00 
72900 5.7659768743e+00 5.3971000431e-05 1.7343979913e+00 -3.0040654415e+00 1.7343979913e+00 3.0040654415e+00 
73000 5.7659768744e+00 5.4039859059e-05 1.7343979913e+00 -3.0040654415e+00 1.7343979913e+00 3.0040654415e+00 
73100 5.7659768746e+00 5.4107390319e-05 1.7343979913e+00 -3.0040654415e+00 1.7343979913e+00 3.0040654415e+00 
73200 5.7659768747e+00 5.4173607625e-05 1.7343979913e+00 -3.0040654415e+00 1.7343979913e+00 3.0040654415e+00 
73300 5.7659768748e+00 5.4238525588e-05 1.7343979913e+00 -3.0040654415e+00 1.7343979913e+00 3.0040654415e+00 
73400 5.7659768749e+00 5.4302159947e-05 1.7343979913e+00 -3.0040654415e+00 1.7343979913e+00 3.0040654415e+00 
73500 5.7659768750e+00 5.4364527507e-05 1.7343979913e+00 -3.0040654415e+00 1.7343979913e+00 3.0040654415e+00 
73600 5.7659768751e+00 5.4425646068e-05 1.7343979913e+00 -3.0040654415e+00 1.7343979913e+00 3.0040654415e+00 
73700 5.7659768753e+00 5.4485534365e-05 1.7343979913e+00 -3.0040654415e+00 1.7343979913e+00 3.0040654415e+00 
73800 5.7659768754e+00 5.4544212003e-05 1.7343979913e+00 -3.0040654415e+00 1.7343979913e+00 3.0040654415e+00 
73900 5.7659768755e+00 5.4601699393e-05 1.7343979913e+00 -3.0040654415e+00 1.7343979913e+00 3.0040654415e+00 
74000 5.7659768756e+00 5.4658017686e-05 1.7343979913e+00 -3.0040654415e+00 1.7343979913e+00 3.0040654415e+00 
74100 5.7659768757e+00 5.4713188721e-05 1.7343979913e+00 -3.0040654415e+00 1.7343979913e+00 3.0040654415e+00 
74200 5.7659768758e+00 5.4767234959e-05 1.7343979913e+00 -3.0040654415e+00 1.7343979913e+00 3.0040654415e+00 
74300 5.7659768759e+00 5.4820179413e-05 1.7343979913e+00 -3.0040654415e+00 1.7343979913e+00 3.0040654415e+00 
74400 5.7659768760e+00 5.4872045609e-05 1.7343979913e+00 -3.0040654415e+00 1.7343979913e+00 3.0040654415e+00 
74500 5.7659768761e+00 5.4922857518e-05 1.7343979913e+00 -3.0040654415e+00 1.7343979913e+00 3.0040654415e+00 
74600 5.7659768762e+00 5.4972639497e-05 1.7343979913e+00 -3.0040654415e+00 1.7343979913e+00 3.0040654415e+00 
74700 5.7659768763e+00 5.5021416238e-05 1.7343979913e+00 -3.0040654415e+00 1.7343979913e+00 3.0040654415e+00 
74800 5.7659768764e+00 5.5069212721e-05 1.7343979913e+00 -3.0040654415e+00 1.7343979913e+00 3.0040654415e+00 
74900 5.7659768765e+00 5.5116054147e-05 1.7343979913e+00 -3.0040654415e+00 1.7343979913e+00 3.0040654415e+00 
75000 5.7659768766e+00 5.5161965907e-05 1.7343979913e+00 -3.0040654415e+00 1.7343979913e+00 3.0040654415e+00 
75100 5.7659768767e+00 5.5206973514e-05 1.7343979913e+00 -3.0040654415e+00 1.7343979913e+00 3.0040654415e+00 
75200 5.7659768768e+00 5.5251102570e-05 1.7343979913e+00 -3.0040654415e+00 1.7343979913e+00 3.0040654415e+00 
75300 5.7659768769e+00 5.5294378710e-05 1.7343979913e+00 -3.0040654415e+00 1.7343979913e+00 3.0040654415e+00 
75400 5.7659768770e+00 5.5336827569e-05 1.7343979913e+00 -3.0040654415e+00 1.7343979913e+00 3.0040654415e+00 
75500 5.7659768770e+00 5.5378474727e-05 1.7343979913e+00 -3.0040654415e+00 1.7343979913e+00 3.0040654415e+00 
75600 5.7659768771e+00 5.5419345677e-05 1.7343979913e+00 -3.0040654415e+00 1.7343979913e+00 3.0040654415e+00 
75700 5.7659768772e+00 5.5459465785e-05 1.7343979913e+00 -3.0040654415e+00 1.7343979913e+00 3.0040654415e+00 
75800 5.7659768773e+00 5.5498860248e-05 1.7343979913e+00 -3.0040654415e+00 1.7343979913e+00 3.0040654415e+00 
75900 5.7659768774e+00 5.5537554059e-05 1.7343979913e+00 -3.0040654415e+00 1.7343979913e+00 3.0040654415e+00 
76000 5.7659768775e+00 5.5575571981e-05 1.7343979913e+00 -3.0040654415e+00 1.7343979913e+00 3.0040654415e+00 
76100 5.7659768775e+00 5.5612938504e-05 1.7343979913e+00 -3.0040654415e+00 1.7343979913e+00 3.0040654415e+00 
76200 5.7659768776e+00 5.5649677820e-05 1.7343979913e+00 -3.0040654415e+00 1.7343979913e+00 3.0040654415e+00 
76300 5.7659768777e+00 5.5685813792e-05 1.7343979913e+00 -3.0040654415e+00 1.7343979913e+00 3.0040654415e+00 
76400 5.7659768778e+00 5.5721369929e-05 1.7343979913e+00 -3.0040654415e+00 1.7343979913e+00 3.0040654415e+00 
76500 5.7659768779e+00 5.5756369356e-05 1.7343979913e+00 -3.0040654415e+00 1.7343979913e+00 3.0040654415e+00 
76600 5.7659768779e+00 5.5790834797e-05 1.7343979913e+00 -3.0040654415e+00 1.7343979913e+00 3.0040654415e+00 
76700 5.7659768780e+00 5.5824788544e-05 1.7343979913e+00 -3.0040654415e+00 1.7343979913e+00 3.0040654415e+00 
76800 5.7659768781e+00 5.5858252446e-05 1.7343979913e+00 -3.0040654415e+00 1.7343979913e+00 3.0040654415e+00 
76900 5.7659768782e+00 5.5891247879e-05 1.7343979913e+00 -3.0040654415e+00 1.7343979913e+00 3.0040654415e+00 
77000 5.7659768782e+00 5.5923795737e-05 1.7343979913e+00 -3.0040654415e+00 1.7343979913e+00 3.0040654415e+00 
77100 5.7659768783e+00 5.5955916413e-05 1.7343979913e+00 -3.0040654415e+00 1.7343979913e+00 3.0040654415e+00 
77200 5.7659768784e+00 5.5987629783e-05 1.7343979913e+00 -3.0040654415e+00 1.7343979913e+00 3.0040654415e+00 
77300 5.7659768784e+00 5.6018955198e-05 1.7343979913e+00 -3.0040654415e+00 1.7343979913e+00 3.0040654415e+00 
77400 5.7659768785e+00 5.6049911466e-05 1.7343979913e+00 -3.0040654415e+00 1.7343979913e+00 3.0040654415e+00 
77500 5.7659768786e+00 5.6080516846e-05 1.7343979913e+00 -3.0040654415e+00 1.7343979913e+00 3.0040654415e+00 
77600 5.7659768786e+00 5.6110789036e-05 1.7343979913e+00 -3.0040654415e+00 1.7343979913e+00 3.0040654415e+00 
77700 5.7659768787e+00 5.6140745172e-05 1.7343979913e+00 -3.0040654415e+00 1.7343979913e+00 3.0040654415e+00 
77800 5.7659768788e+00 5.6170401813e-05 1.7343979913e+00 -3.0040654415e+00 1.7343979913e+00 3.0040654415e+00 
77900 5.7659768788e+00 5.6199774942e-05 1.7343979913e+00 -3.0040654415e+00 1.7343979913e+00 3.0040654415e+00 
78000 5.7659768789e+00 5.6228879967e-05 1.7343979913e+00 -3.0040654415e+00 1.7343979913e+00 3.0040654415e+00 
78100 5.7659768790e+00 5.6257731703e-05 1.7343979913e+00 -3.0040654415e+00 1.7343979913e+00 3.0040654415e+00 
78200 5.7659768790e+00 5.6286344387e-05 1.7343979913e+00 -3.0040654415e+00 1.7343979913e+00 3.0040654415e+00 
78300 5.7659768791e+00 5.6314731674e-05 1.7343979913e+00 -3.0040654415e+00 1.7343979913e+00 3.0040654415e+00 
78400 5.7659768791e+00 5.6342906625e-05 1.7343979913e+00 -3.0040654415e+00 1.7343979913e+00 3.0040654415e+00 
78500 5.7659768792e+00 5.6370881734e-05 1.7343979913e+00 -3.0040654415e+00 1.7343979913e+00 3.0040654415e+00 
78600 5.7659768793e+00 5.6398668905e-05 1.7343979913e+00 -3.0040654415e+00 1.7343979913e+00 3.0040654415e+00 
78700 5.7659768793e+00 5.6426279473e-05 1.7343979913e+00 -3.0040654415e+00 1.7343979913e+00 3.0040654415e+00 
78800 5.7659768794e+00 5.6453724202e-05 1.7343979913e+00 -3.0040654415e+00 1.7343979913e+00 3.0040654415e+00 
78900 5.7659768794e+00 5.6481013290e-05 1.7343979913e+00 -3.0040654415e+00 1.7343979913e+00 3.0040654415e+00 
79000 5.7659768795e+00 5.6508156386e-05 1.7343979913e+00 -3.0040654415e+00 1.7343979913e+00 3.0040654415e+00 
79100 5.7659768795e+00 5.6535162575e-05 1.7343979913e+00 -3.0040654415e+00 1.7343979913e+00 3.0040654415e+00 
79200 5.7659768796e+00 5.6562040414e-05 1.7343979913e+00 -3.0040654415e+00 1.7343979913e+00 3.0040654415e+00 
79300 5.7659768796e+00 5.6588797916e-05 1.7343979913e+00 -3.0040654415e+00 1.7343979913e+00 3.0040654415e+00 
79400 5.7659768797e+00 5.6615442577e-05 1.7343979913e+00 -3.0040654415e+00 1.7343979913e+00 3.0040654415e+00 
79500 5.7659768797e+00 5.6641981373e-05 1.7343979913e+00 -3.0040654415e+00 1.7343979913e+00 3.0040654415e+00 
79600 5.7659768798e+00 5.6668420780e-05 1.7343979913e+00 -3.0040654415e+00 1.7343979913e+00 3.0040654415e+00 
79700 5.7659768798e+00 5.6694766784e-05 1.7343979913e+00 -3.0040654415e+00 1.7343979913e+00 3.0040654415e+00 
79800 5.7659768799e+00 5.6715255378e-05 1.7343979913e+00 -3.0040654415e+00 1.7343979913e+00 3.0040654415e+00 
79800 5.7659768799e+00 5.6715255378e-05 1.7343979913e+00 -3.0040654415e+00 1.7343979913e+00 3.0040654415e+00 
