# step Hamiltonian StressXX CellTensor1 CellTensor2 CellTensor3 CellTensor4 
0 5.5111457816e+00 -1.3304494958e-01 1.6087831444e+00 -2.7864941444e+00 1.6087831444e+00 2.7864941444e+00 
100 5.5107570538e+00 -1.3425804050e-01 1.6087831444e+00 -2.7864941444e+00 1.6087831444e+00 2.7864941444e+00 
200 5.5097874383e+00 -1.3133390307e-01 1.6129576015e+00 -2.7937245163e+00 1.6129576015e+00 2.7937245163e+00 
300 5.5089401098e+00 -1.2853959291e-01 1.6170305236e+00 -2.8007790243e+00 1.6170305236e+00 2.8007790243e+00 
400 5.5081991984e+00 -1.2586560384e-01 1.6210067046e+00 -2.8076659718e+00 1.6210067046e+00 2.8076659718e+00 
500 5.5075499343e+00 -1.2330321165e-01 1.6248905789e+00 -2.8143930394e+00 1.6248905789e+00 2.8143930394e+00 
600 5.5069786389e+00 -1.2084439125e-01 1.6286862526e+00 -2.8209673390e+00 1.6286862526e+00 2.8209673390e+00 
700 5.5064727122e+00 -1.1848174237e-01 1.6323975310e+00 -2.8273954619e+00 1.6323975310e+00 2.8273954619e+00 
800 5.5060206172e+00 -1.1620842323e-01 1.6360279441e+00 -2.8336835217e+00 1.6360279441e+00 2.8336835217e+00 
900 5.5056118601e+00 -1.1401809133e-01 1.6395807677e+00 -2.8398371929e+00 1.6395807677e+00 2.8398371929e+00 
1000 5.5052369661e+00 -1.1190485095e-01 1.6430590443e+00 -2.8458617445e+00 1.6430590443e+00 2.8458617445e+00 
1100 5.5048874512e+00 -1.0986320674e-01 1.6464655995e+00 -2.8517620712e+00 1.6464655995e+00 2.8517620712e+00 
1200 5.5045557897e+00 -1.0788802285e-01 1.6498030587e+00 -2.8575427201e+00 1.6498030587e+00 2.8575427201e+00 
1300 5.5042353780e+00 -1.0597448712e-01 1.6530738609e+00 -2.8632079157e+00 1.6530738609e+00 2.8632079157e+00 
1400 5.5039204951e+00 -1.0411807990e-01 1.6562802714e+00 -2.8687615816e+00 1.6562802714e+00 2.8687615816e+00 
1500 5.5036062594e+00 -1.0231454710e-01 1.6594243935e+00 -2.8742073609e+00 1.6594243935e+00 2.8742073609e+00 
1600 5.5032885828e+00 -1.0055987687e-01 1.6625081787e+00 -2.8795486335e+00 1.6625081787e+00 2.8795486335e+00 
1700 5.5029641231e+00 -9.8850279806e-02 1.6655334363e+00 -2.8847885334e+00 1.6655334363e+00 2.8847885334e+00 
1800 5.5026302338e+00 -9.7182172010e-02 1.6685018421e+00 -2.8899299630e+00 1.6685018421e+00 2.8899299630e+00 
1900 5.5022849132e+00 -9.5552160932e-02 1.6714149463e+00 -2.8949756075e+00 1.6714149463e+00 2.8949756075e+00 
2000 5.5019267518e+00 -9.3957033467e-02 1.6742741809e+00 -2.8999279471e+00 1.6742741809e+00 2.8999279471e+00 
2100 5.5015548806e+00 -9.2393746109e-02 1.6770808668e+00 -2.9047892696e+00 1.6770808668e+00 2.9047892696e+00 
2200 5.5011689181e+00 -9.0859416857e-02 1.6798362198e+00 -2.9095616811e+00 1.6798362198e+00 2.9095616811e+00 
2300 5.5007689190e+00 -8.9351318606e-02 1.6825413572e+00 -2.9142471166e+00 1.6825413572e+00 2.9142471166e+00 
2400 5.5003553230e+00 -8.7866873794e-02 1.6851973033e+00 -2.9188473501e+00 1.6851973033e+00 2.9188473501e+00 
2500 5.4999289052e+00 -8.6403650088e-02 1.6878049948e+00 -2.9233640043e+00 1.6878049948e+00 2.9233640043e+00 
2600 5.4994907284e+00 -8.4959356900e-02 1.6903652864e+00 -2.9277985593e+00 1.6903652864e+00 2.9277985593e+00 
2700 5.4990420971e+00 -8.3531842579e-02 1.6928789554e+00 -2.9321523618e+00 1.6928789554e+00 2.9321523618e+00 
2800 5.4985845131e+00 -8.2119092094e-02 1.6953467072e+00 -2.9364266333e+00 1.6953467072e+00 2.9364266333e+00 
2900 5.4981196351e+00 -8.0719225094e-02 1.6977691797e+00 -2.9406224788e+00 1.6977691797e+00 2.9406224788e+00 
3000 5.4976492388e+00 -7.9330494203e-02 1.7001469480e+00 -2.9447408944e+00 1.7001469480e+00 2.9447408944e+00 
3100 5.4971751814e+00 -7.7951283458e-02 1.7024805291e+00 -2.9487827752e+00 1.7024805291e+00 2.9487827752e+00 
3200 5.4966993683e+00 -7.6580106791e-02 1.7047703858e+00 -2.9527489235e+00 1.7047703858e+00 2.9527489235e+00 
3300 5.4962237220e+00 -7.5215606484e-02 1.7070169318e+00 -2.9566400552e+00 1.7070169318e+00 2.9566400552e+00 
3400 5.4957501552e+00 -7.3856551533e-02 1.7092205351e+00 -2.9604568082e+00 1.7092205351e+00 2.9604568082e+00 
3500 5.4952805458e+00 -7.2501835871e-02 1.7113815228e+00 -2.9641997487e+00 1.7113815228e+00 2.9641997487e+00 
3600 5.4948167147e+00 -7.1150476407e-02 1.7135001847e+00 -2.9678693786e+00 1.7135001847e+00 2.9678693786e+00 
3700 5.4943604075e+00 -6.9801610859e-02 1.7155767770e+00 -2.9714661421e+00 1.7155767770e+00 2.9714661421e+00 
3800 5.4939132772e+00 -6.8454495349e-02 1.7176115268e+00 -2.9749904321e+00 1.7176115268e+00 2.9749904321e+00 
3900 5.4934768710e+00 -6.7108501757e-02 1.7196046351e+00 -2.9784425970e+00 1.7196046351e+00 2.9784425970e+00 
4000 5.4930526188e+00 -6.5763114822e-02 1.7215562808e+00 -2.9818229464e+00 1.7215562808e+00 2.9818229464e+00 
4100 5.4926418244e+00 -6.4417928987e-02 1.7234666238e+00 -2.9851317576e+00 1.7234666238e+00 2.9851317576e+00 
4200 5.4922456585e+00 -6.3072645004e-02 1.7253358088e+00 -2.9883692810e+00 1.7253358088e+00 2.9883692810e+00 
4300 5.4918651543e+00 -6.1727066291e-02 1.7271639680e+00 -2.9915357456e+00 1.7271639680e+00 2.9915357456e+00 
4400 5.4915012047e+00 -6.0381095066e-02 1.7289512245e+00 -2.9946313646e+00 1.7289512245e+00 2.9946313646e+00 
4500 5.4911545611e+00 -5.9034728264e-02 1.7306976950e+00 -2.9976563403e+00 1.7306976950e+00 2.9976563403e+00 
4600 5.4908258345e+00 -5.7688053267e-02 1.7324034931e+00 -3.0006108692e+00 1.7324034931e+00 3.0006108692e+00 
4700 5.4905154971e+00 -5.6341243445e-02 1.7340687311e+00 -3.0034951461e+00 1.7340687311e+00 3.0034951461e+00 
4800 5.4902238856e+00 -5.4994553551e-02 1.7356935235e+00 -3.0063093690e+00 1.7356935235e+00 3.0063093690e+00 
4900 5.4899512062e+00 -5.3648314974e-02 1.7372779885e+00 -3.0090537429e+00 1.7372779885e+00 3.0090537429e+00 
5000 5.4896975394e+00 -5.2302930878e-02 1.7388222507e+00 -3.0117284835e+00 1.7388222507e+00 3.0117284835e+00 
5100 5.4894628468e+00 -5.0958871255e-02 1.7403264431e+00 -3.0143338211e+00 1.7403264431e+00 3.0143338211e+00 
5200 5.4892469776e+00 -4.9616667897e-02 1.7417907089e+00 -3.0168700039e+00 1.7417907089e+00 3.0168700039e+00 
5300 5.4890496765e+00 -4.8276909326e-02 1.7432152033e+00 -3.0193373007e+00 1.7432152033e+00 3.0193373007e+00 
5400 5.4888705918e+00 -4.6940235697e-02 1.7446000953e+00 -3.0217360040e+00 1.7446000953e+00 3.0217360040e+00 
5500 5.4887092829e+00 -4.5607333686e-02 1.7459455688e+00 -3.0240664325e+00 1.7459455688e+00 3.0240664325e+00 
5600 5.4885652300e+00 -4.4278931402e-02 1.7472518242e+00 -3.0263289331e+00 1.7472518242e+00 3.0263289331e+00 
5700 5.4884378418e+00 -4.2955793320e-02 1.7485190794e+00 -3.0285238835e+00 1.7485190794e+00 3.0285238835e+00 
5800 5.4883264645e+00 -4.1638715274e-02 1.7497475710e+00 -3.0306516934e+00 1.7497475710e+00 3.0306516934e+00 
5900 5.4882303905e+00 -4.0328519512e-02 1.7509375550e+00 -3.0327128061e+00 1.7509375550e+00 3.0327128061e+00 
6000 5.4881488666e+00 -3.9026049838e-02 1.7520893075e+00 -3.0347077001e+00 1.7520893075e+00 3.0347077001e+00 
6100 5.4880811028e+00 -3.7732166860e-02 1.7532031258e+00 -3.0366368899e+00 1.7532031258e+00 3.0366368899e+00 
6200 5.4880262795e+00 -3.6447743344e-02 1.7542793281e+00 -3.0385009269e+00 1.7542793281e+00 3.0385009269e+00 
6300 5.4879835562e+00 -3.5173659705e-02 1.7553182544e+00 -3.0403004001e+00 1.7553182544e+00 3.0403004001e+00 
6400 5.4879520778e+00 -3.3910799644e-02 1.7563202665e+00 -3.0420359360e+00 1.7563202665e+00 3.0420359360e+00 
6500 5.4879309824e+00 -3.2660045928e-02 1.7572857483e+00 -3.0437081995e+00 1.7572857483e+00 3.0437081995e+00 
6600 5.4879194074e+00 -3.1422276346e-02 1.7582151055e+00 -3.0453178934e+00 1.7582151055e+00 3.0453178934e+00 
6700 5.4879164958e+00 -3.0198359837e-02 1.7591087657e+00 -3.0468657582e+00 1.7591087657e+00 3.0468657582e+00 
6800 5.4879214016e+00 -2.8989152800e-02 1.7599671781e+00 -3.0483525721e+00 1.7599671781e+00 3.0483525721e+00 
6900 5.4879332951e+00 -2.7795495599e-02 1.7607908131e+00 -3.0497791498e+00 1.7607908131e+00 3.0497791498e+00 
7000 5.4879513677e+00 -2.6618209266e-02 1.7615801622e+00 -3.0511463425e+00 1.7615801622e+00 3.0511463425e+00 
7100 5.4879748356e+00 -2.5458092403e-02 1.7623357369e+00 -3.0524550364e+00 1.7623357369e+00 3.0524550364e+00 
7200 5.4880029440e+00 -2.4315918304e-02 1.7630580690e+00 -3.0537061521e+00 1.7630580690e+00 3.0537061521e+00 
7300 5.4880349701e+00 -2.3192432276e-02 1.7637477088e+00 -3.0549006434e+00 1.7637477088e+00 3.0549006434e+00 
7400 5.4880702257e+00 -2.2088349188e-02 1.7644052256e+00 -3.0560394958e+00 1.7644052256e+00 3.0560394958e+00 
7500 5.4881080596e+00 -2.1004351223e-02 1.7650312058e+00 -3.0571237253e+00 1.7650312058e+00 3.0571237253e+00 
7600 5.4881478596e+00 -1.9941085860e-02 1.7656262528e+00 -3.0581543770e+00 1.7656262528e+00 3.0581543770e+00 
7700 5.4881890536e+00 -1.8899164065e-02 1.7661909858e+00 -3.0591325233e+00 1.7661909858e+00 3.0591325233e+00 
7800 5.4882311106e+00 -1.7879158698e-02 1.7667260389e+00 -3.0600592624e+00 1.7667260389e+00 3.0600592624e+00 
7900 5.4882735417e+00 -1.6881603133e-02 1.7672320599e+00 -3.0609357166e+00 1.7672320599e+00 3.0609357166e+00 
8000 5.4883158998e+00 -1.5906990095e-02 1.7677097098e+00 -3.0617630304e+00 1.7677097098e+00 3.0617630304e+00 
8100 5.4883577801e+00 -1.4955770690e-02 1.7681596611e+00 -3.0625423689e+00 1.7681596611e+00 3.0625423689e+00 
8200 5.4883988191e+00 -1.4028353646e-02 1.7685825970e+00 -3.0632749155e+00 1.7685825970e+00 3.0632749155e+00 
8300 5.4884386945e+00 -1.3125104750e-02 1.7689792106e+00 -3.0639618704e+00 1.7689792106e+00 3.0639618704e+00 
8400 5.4884771238e+00 -1.2246346466e-02 1.7693502032e+00 -3.0646044484e+00 1.7693502032e+00 3.0646044484e+00 
8500 5.4885138634e+00 -1.1392357747e-02 1.7696962835e+00 -3.0652038771e+00 1.7696962835e+00 3.0652038771e+00 
8600 5.4885487070e+00 -1.0563374014e-02 1.7700181665e+00 -3.0657613948e+00 1.7700181665e+00 3.0657613948e+00 
8700 5.4885814844e+00 -9.7595873052e-03 1.7703165723e+00 -3.0662782486e+00 1.7703165723e+00 3.0662782486e+00 
8800 5.4886120594e+00 -8.9811465883e-03 1.7705922247e+00 -3.0667556926e+00 1.7705922247e+00 3.0667556926e+00 
8900 5.4886403281e+00 -8.2281582176e-03 1.7708458506e+00 -3.0671949856e+00 1.7708458506e+00 3.0671949856e+00 
9000 5.4886662172e+00 -7.5006865374e-03 1.7710781785e+00 -3.0675973893e+00 1.7710781785e+00 3.0675973893e+00 
9100 5.4886896815e+00 -6.7987546155e-03 1.7712899375e+00 -3.0679641667e+00 1.7712899375e+00 3.0679641667e+00 
9200 5.4887107023e+00 -6.1223451016e-03 1.7714818563e+00 -3.0682965798e+00 1.7714818563e+00 3.0682965798e+00 
9300 5.4887292848e+00 -5.4714011984e-03 1.7716546621e+00 -3.0685958882e+00 1.7716546621e+00 3.0685958882e+00 
9400 5.4887454565e+00 -4.8458277369e-03 1.7718090793e+00 -3.0688633467e+00 1.7718090793e+00 3.0688633467e+00 
9500 5.4887592645e+00 -4.2454923474e-03 1.7719458291e+00 -3.0691002042e+00 1.7719458291e+00 3.0691002042e+00 
9600 5.4887707738e+00 -3.6702267140e-03 1.7720656279e+00 -3.0693077019e+00 1.7720656279e+00 3.0693077019e+00 
9700 5.4887800649e+00 -3.1198279063e-03 1.7721691868e+00 -3.0694870711e+00 1.7721691868e+00 3.0694870711e+00 
9800 5.4887872321e+00 -2.5940597767e-03 1.7722572104e+00 -3.0696395324e+00 1.7722572104e+00 3.0696395324e+00 
9900 5.4887923811e+00 -2.0926544151e-03 1.7723303961e+00 -3.0697662938e+00 1.7723303961e+00 3.0697662938e+00 
10000 5.4887956273e+00 -1.6153136527e-03 1.7723894332e+00 -3.0698685491e+00 1.7723894332e+00 3.0698685491e+00 
10100 5.4887970941e+00 -1.1617106058e-03 1.7724350022e+00 -3.0699474769e+00 1.7724350022e+00 3.0699474769e+00 
10200 5.4887969107e+00 -7.3149125051e-04 1.7724677739e+00 -3.0700042392e+00 1.7724677739e+00 3.0700042392e+00 
10300 5.4887952109e+00 -3.2427602264e-04 1.7724884088e+00 -3.0700399798e+00 1.7724884088e+00 3.0700399798e+00 
10400 5.4887921315e+00 6.0338566892e-05 1.7724975563e+00 -3.0700558237e+00 1.7724975563e+00 3.0700558237e+00 
10500 5.4887878118e+00 4.2397594900e-04 1.7724975563e+00 -3.0700558237e+00 1.7724975563e+00 3.0700558237e+00 
10600 5.4887823884e+00 7.6467219524e-04 1.7724855964e+00 -3.0700351087e+00 1.7724855964e+00 3.0700351087e+00 
10700 5.4887759982e+00 1.0841056974e-03 1.7724640258e+00 -3.0699977474e+00 1.7724640258e+00 3.0699977474e+00 
10800 5.4887687760e+00 1.3827593853e-03 1.7724334441e+00 -3.0699447781e+00 1.7724334441e+00 3.0699447781e+00 
10900 5.4887608532e+00 1.6611320277e-03 1.7723944368e+00 -3.0698772156e+00 1.7723944368e+00 3.0698772156e+00 
11000 5.4887523569e+00 1.9197366552e-03 1.7723475758e+00 -3.0697960499e+00 1.7723475758e+00 3.0697960499e+00 
11100 5.4887434096e+00 2.1590990078e-03 1.7722934180e+00 -3.0697022460e+00 1.7722934180e+00 3.0697022460e+00 
11200 5.4887341277e+00 2.3797560116e-03 1.7722325058e+00 -3.0695967429e+00 1.7722325058e+00 3.0695967429e+00 
11300 5.4887246217e+00 2.5822542898e-03 1.7721653662e+00 -3.0694804536e+00 1.7721653662e+00 3.0694804536e+00 
11400 5.4887149953e+00 2.7671487095e-03 1.7720925108e+00 -3.0693542644e+00 1.7720925108e+00 3.0693542644e+00 
11500 5.4887053451e+00 2.9350009692e-03 1.7720144356e+00 -3.0692190342e+00 1.7720144356e+00 3.0692190342e+00 
11600 5.4886957606e+00 3.0863782281e-03 1.7719316209e+00 -3.0690755949e+00 1.7719316209e+00 3.0690755949e+00 
11700 5.4886863235e+00 3.2218517807e-03 1.7718445308e+00 -3.0689247505e+00 1.7718445308e+00 3.0689247505e+00 
11800 5.4886771078e+00 3.3419957786e-03 1.7717536136e+00 -3.0687672772e+00 1.7717536136e+00 3.0687672772e+00 
11900 5.4886681802e+00 3.4473859998e-03 1.7716593012e+00 -3.0686039234e+00 1.7716593012e+00 3.0686039234e+00 
12000 5.4886595993e+00 3.5385986686e-03 1.7715620095e+00 -3.0684354092e+00 1.7715620095e+00 3.0684354092e+00 
12100 5.4886514164e+00 3.6162093261e-03 1.7714621382e+00 -3.0682624270e+00 1.7714621382e+00 3.0682624270e+00 
12200 5.4886436753e+00 3.6807917521e-03 1.7713600706e+00 -3.0680856409e+00 1.7713600706e+00 3.0680856409e+00 
12300 5.4886364126e+00 3.7329169391e-03 1.7712561743e+00 -3.0679056872e+00 1.7712561743e+00 3.0679056872e+00 
12400 5.4886296581e+00 3.7731521192e-03 1.7711508005e+00 -3.0677231744e+00 1.7711508005e+00 3.0677231744e+00 
12500 5.4886234348e+00 3.8020598419e-03 1.7710442846e+00 -3.0675386834e+00 1.7710442846e+00 3.0675386834e+00 
12600 5.4886177593e+00 3.8201971053e-03 1.7709369462e+00 -3.0673527679e+00 1.7709369462e+00 3.0673527679e+00 
12700 5.4886126423e+00 3.8281145384e-03 1.7708290892e+00 -3.0671659541e+00 1.7708290892e+00 3.0671659541e+00 
12800 5.4886080891e+00 3.8263556349e-03 1.7707210021e+00 -3.0669787417e+00 1.7707210021e+00 3.0669787417e+00 
12900 5.4886040995e+00 3.8154560367e-03 1.7706129581e+00 -3.0667916040e+00 1.7706129581e+00 3.0667916040e+00 
13000 5.4886006687e+00 3.7959428681e-03 1.7705052153e+00 -3.0666049879e+00 1.7705052153e+00 3.0666049879e+00 
13100 5.4885977873e+00 3.7683341178e-03 1.7703980169e+00 -3.0664193149e+00 1.7703980169e+00 3.0664193149e+00 
13200 5.4885954424e+00 3.7331380691e-03 1.7702915918e+00 -3.0662349812e+00 1.7702915918e+00 3.0662349812e+00 
13300 5.4885936171e+00 3.6908527756e-03 1.7701861544e+00 -3.0660523582e+00 1.7701861544e+00 3.0660523582e+00 
13400 5.4885922917e+00 3.6419655837e-03 1.7700819050e+00 -3.0658717929e+00 1.7700819050e+00 3.0658717929e+00 
13500 5.4885914436e+00 3.5869526974e-03 1.7699790303e+00 -3.0656936089e+00 1.7699790303e+00 3.0656936089e+00 
13600 5.4885910480e+00 3.5262787867e-03 1.7698777038e+00 -3.0655181061e+00 1.7698777038e+00 3.0655181061e+00 
13700 5.4885910784e+00 3.4603966368e-03 1.7697780854e+00 -3.0653455620e+00 1.7697780854e+00 3.0653455620e+00 
13800 5.4885915064e+00 3.3897468374e-03 1.7696803227e+00 -3.0651762321e+00 1.7696803227e+00 3.0651762321e+00 
13900 5.4885923028e+00 3.3147575100e-03 1.7695845507e+00 -3.0650103502e+00 1.7695845507e+00 3.0650103502e+00 
14000 5.4885934372e+00 3.2358440725e-03 1.7694908924e+00 -3.0648481291e+00 1.7694908924e+00 3.0648481291e+00 
14100 5.4885948791e+00 3.1534090391e-03 1.7693994588e+00 -3.0646897616e+00 1.7693994588e+00 3.0646897616e+00 
14200 5.4885965975e+00 3.0678418542e-03 1.7693103500e+00 -3.0645354205e+00 1.7693103500e+00 3.0645354205e+00 
14300 5.4885985617e+00 2.9795187592e-03 1.7692236547e+00 -3.0643852599e+00 1.7692236547e+00 3.0643852599e+00 
14400 5.4886007410e+00 2.8888026902e-03 1.7691394513e+00 -3.0642394153e+00 1.7691394513e+00 3.0642394153e+00 
14500 5.4886031057e+00 2.7960432054e-03 1.7690578076e+00 -3.0640980043e+00 1.7690578076e+00 3.0640980043e+00 
14600 5.4886056264e+00 2.7015764415e-03 1.7689787818e+00 -3.0639611277e+00 1.7689787818e+00 3.0639611277e+00 
14700 5.4886082751e+00 2.6057250965e-03 1.7689024226e+00 -3.0638288696e+00 1.7689024226e+00 3.0638288696e+00 
14800 5.4886110246e+00 2.5087984388e-03 1.7688287694e+00 -3.0637012985e+00 1.7688287694e+00 3.0637012985e+00 
14900 5.4886138490e+00 2.4110923399e-03 1.7687578529e+00 -3.0635784676e+00 1.7687578529e+00 3.0635784676e+00 
15000 5.4886167238e+00 2.3128893315e-03 1.7686896956e+00 -3.0634604156e+00 1.7686896956e+00 3.0634604156e+00 
15100 5.4886196261e+00 2.2144586834e-03 1.7686243117e+00 -3.0633471674e+00 1.7686243117e+00 3.0633471674e+00 
15200 5.4886225344e+00 2.1160565027e-03 1.7685617081e+00 -3.0632387348e+00 1.7685617081e+00 3.0632387348e+00 
15300 5.4886254288e+00 2.0179258526e-03 1.7685018842e+00 -3.0631351168e+00 1.7685018842e+00 3.0631351168e+00 
15400 5.4886282911e+00 1.9202968894e-03 1.7684448327e+00 -3.0630363006e+00 1.7684448327e+00 3.0630363006e+00 
15500 5.4886311046e+00 1.8233870167e-03 1.7683905396e+00 -3.0629422622e+00 1.7683905396e+00 3.0629422622e+00 
15600 5.4886338546e+00 1.7274010566e-03 1.7683389849e+00 -3.0628529668e+00 1.7683389849e+00 3.0628529668e+00 
15700 5.4886365277e+00 1.6325314354e-03 1.7682901426e+00 -3.0627683695e+00 1.7682901426e+00 3.0627683695e+00 
15800 5.4886391123e+00 1.5389583835e-03 1.7682439815e+00 -3.0626884162e+00 1.7682439815e+00 3.0626884162e+00 
15900 5.4886415984e+00 1.4468501494e-03 1.7682004651e+00 -3.0626130436e+00 1.7682004651e+00 3.0626130436e+00 
16000 5.4886439776e+00 1.3563632252e-03 1.7681595522e+00 -3.0625421803e+00 1.7681595522e+00 3.0625421803e+00 
16100 5.4886462429e+00 1.2676425838e-03 1.7681211971e+00 -3.0624757473e+00 1.7681211971e+00 3.0624757473e+00 
16200 5.4886483889e+00 1.1808219265e-03 1.7680853501e+00 -3.0624136585e+00 1.7680853501e+00 3.0624136585e+00 
16300 5.4886504113e+00 1.0960239407e-03 1.7680519575e+00 -3.0623558208e+00 1.7680519575e+00 3.0623558208e+00 
16400 5.4886523074e+00 1.0133605663e-03 1.7680209624e+00 -3.0623021357e+00 1.7680209624e+00 3.0623021357e+00 
16500 5.4886540754e+00 9.3293326942e-04 1.7679923044e+00 -3.0622524986e+00 1.7679923044e+00 3.0622524986e+00 
16600 5.4886557151e+00 8.5483332455e-04 1.7679659205e+00 -3.0622068003e+00 1.7679659205e+00 3.0622068003e+00 
16700 5.4886572267e+00 7.7914210247e-04 1.7679417449e+00 -3.0621649270e+00 1.7679417449e+00 3.0621649270e+00 
16800 5.4886586120e+00 7.0593136420e-04 1.7679197097e+00 -3.0621267609e+00 1.7679197097e+00 3.0621267609e+00 
16900 5.4886598732e+00 6.3526355993e-04 1.7678997447e+00 -3.0620921805e+00 1.7678997447e+00 3.0620921805e+00 
17000 5.4886610136e+00 5.6719213246e-04 1.7678817781e+00 -3.0620610614e+00 1.7678817781e+00 3.0620610614e+00 
17100 5.4886620368e+00 5.0176182421e-04 1.7678657365e+00 -3.0620332767e+00 1.7678657365e+00 3.0620332767e+00 
17200 5.4886629475e+00 4.3900898748e-04 1.7678515454e+00 -3.0620086969e+00 1.7678515454e+00 3.0620086969e+00 
17300 5.4886637505e+00 3.7896189696e-04 1.7678391290e+00 -3.0619871910e+00 1.7678391290e+00 3.0619871910e+00 
17400 5.4886644513e+00 3.2164106422e-04 1.7678284107e+00 -3.0619686265e+00 1.7678284107e+00 3.0619686265e+00 
17500 5.4886650555e+00 2.6705955337e-04 1.7678193137e+00 -3.0619528699e+00 1.7678193137e+00 3.0619528699e+00 
17600 5.4886655693e+00 2.1522329739e-04 1.7678117603e+00 -3.0619397871e+00 1.7678117603e+00 3.0619397871e+00 
17700 5.4886659987e+00 1.6613141460e-04 1.7678056730e+00 -3.0619292436e+00 1.7678056730e+00 3.0619292436e+00 
17800 5.4886663503e+00 1.1977652464e-04 1.7678009742e+00 -3.0619211051e+00 1.7678009742e+00 3.0619211051e+00 
17900 5.4886666303e+00 7.6145063614e-05 1.7677975865e+00 -3.0619152374e+00 1.7677975865e+00 3.0619152374e+00 
18000 5.4886668453e+00 3.5217597684e-05 1.7677954329e+00 -3.0619115071e+00 1.7677954329e+00 3.0619115071e+00 
18100 5.4886670017e+00 -2.3258153720e-06 1.7677954329e+00 -3.0619115071e+00 1.7677954329e+00 3.0619115071e+00 
18200 5.4886671057e+00 -3.7981847443e-05 1.7677954329e+00 -3.0619115071e+00 1.7677954329e+00 3.0619115071e+00 
18300 5.4886671637e+00 -7.1737174455e-05 1.7677954329e+00 -3.0619115071e+00 1.7677954329e+00 3.0619115071e+00 
18400 5.4886671815e+00 -1.0214788890e-04 1.7677974619e+00 -3.0619150214e+00 1.7677974619e+00 3.0619150214e+00 
18500 5.4886671650e+00 -1.3002904877e-04 1.7678003510e+00 -3.0619200255e+00 1.7678003510e+00 3.0619200255e+00 
18600 5.4886671197e+00 -1.5542885839e-04 1.7678040287e+00 -3.0619263955e+00 1.7678040287e+00 3.0619263955e+00 
18700 5.4886670510e+00 -1.7839927567e-04 1.7678084248e+00 -3.0619340098e+00 1.7678084248e+00 3.0619340098e+00 
18800 5.4886669637e+00 -1.9899572598e-04 1.7678134706e+00 -3.0619427493e+00 1.7678134706e+00 3.0619427493e+00 
18900 5.4886668627e+00 -2.1727682113e-04 1.7678190989e+00 -3.0619524978e+00 1.7678190989e+00 3.0619524978e+00 
19000 5.4886667522e+00 -2.3330408395e-04 1.7678252442e+00 -3.0619631419e+00 1.7678252442e+00 3.0619631419e+00 
19100 5.4886666364e+00 -2.4714167853e-04 1.7678318428e+00 -3.0619745710e+00 1.7678318428e+00 3.0619745710e+00 
19200 5.4886665189e+00 -2.5885614662e-04 1.7678388328e+00 -3.0619866780e+00 1.7678388328e+00 3.0619866780e+00 
19300 5.4886664031e+00 -2.6851615028e-04 1.7678461541e+00 -3.0619993588e+00 1.7678461541e+00 3.0619993588e+00 
19400 5.4886662921e+00 -2.7619222120e-04 1.7678537485e+00 -3.0620125128e+00 1.7678537485e+00 3.0620125128e+00 
19500 5.4886661884e+00 -2.8195651672e-04 1.7678615600e+00 -3.0620260427e+00 1.7678615600e+00 3.0620260427e+00 
19600 5.4886660946e+00 -2.8588258291e-04 1.7678695346e+00 -3.0620398550e+00 1.7678695346e+00 3.0620398550e+00 
19700 5.4886660126e+00 -2.8804512491e-04 1.7678776201e+00 -3.0620538595e+00 1.7678776201e+00 3.0620538595e+00 
19800 5.4886659441e+00 -2.8851978449e-04 1.7678857667e+00 -3.0620679699e+00 1.7678857667e+00 3.0620679699e+00 
19900 5.4886658907e+00 -2.8738292528e-04 1.7678939267e+00 -3.0620821035e+00 1.7678939267e+00 3.0620821035e+00 
20000 5.4886658534e+00 -2.8471142559e-04 1.7679020546e+00 -3.0620961813e+00 1.7679020546e+00 3.0620961813e+00 
20100 5.4886658330e+00 -2.8058247896e-04 1.7679101068e+00 -3.0621101282e+00 1.7679101068e+00 3.0621101282e+00 
20200 5.4886658303e+00 -2.7507340264e-04 1.7679180423e+00 -3.0621238728e+00 1.7679180423e+00 3.0621238728e+00 
20300 5.4886658456e+00 -2.6826145401e-04 1.7679258219e+00 -3.0621373475e+00 1.7679258219e+00 3.0621373475e+00 
20400 5.4886658790e+00 -2.6022365491e-04 1.7679334088e+00 -3.0621504884e+00 1.7679334088e+00 3.0621504884e+00 
20500 5.4886659305e+00 -2.5103662413e-04 1.7679407683e+00 -3.0621632355e+00 1.7679407683e+00 3.0621632355e+00 
20600 5.4886659998e+00 -2.4077641788e-04 1.7679478680e+00 -3.0621755325e+00 1.7679478680e+00 3.0621755325e+00 
20700 5.4886660865e+00 -2.2951837839e-04 1.7679546775e+00 -3.0621873269e+00 1.7679546775e+00 3.0621873269e+00 
20800 5.4886661901e+00 -2.1733699057e-04 1.7679611686e+00 -3.0621985698e+00 1.7679611686e+00 3.0621985698e+00 
20900 5.4886663099e+00 -2.0430574666e-04 1.7679673151e+00 -3.0622092159e+00 1.7679673151e+00 3.0622092159e+00 
21000 5.4886664449e+00 -1.9049701898e-04 1.7679730931e+00 -3.0622192237e+00 1.7679730931e+00 3.0622192237e+00 
21100 5.4886665944e+00 -1.7598194054e-04 1.7679784805e+00 -3.0622285550e+00 1.7679784805e+00 3.0622285550e+00 
21200 5.4886667574e+00 -1.6083029359e-04 1.7679834575e+00 -3.0622371753e+00 1.7679834575e+00 3.0622371753e+00 
21300 5.4886669327e+00 -1.4511040596e-04 1.7679880059e+00 -3.0622450534e+00 1.7679880059e+00 3.0622450534e+00 
21400 5.4886671193e+00 -1.2888905508e-04 1.7679921097e+00 -3.0622521614e+00 1.7679921097e+00 3.0622521614e+00 
21500 5.4886673159e+00 -1.1223137962e-04 1.7679957548e+00 -3.0622584749e+00 1.7679957548e+00 3.0622584749e+00 
21600 5.4886675215e+00 -9.5200798586e-05 1.7679989288e+00 -3.0622639723e+00 1.7679989288e+00 3.0622639723e+00 
21700 5.4886677349e+00 -7.7858937806e-05 1.7680016211e+00 -3.0622686356e+00 1.7680016211e+00 3.0622686356e+00 
21800 5.4886679547e+00 -6.0265563541e-05 1.7680038230e+00 -3.0622724494e+00 1.7680038230e+00 3.0622724494e+00 
21900 5.4886681801e+00 -4.3682457641e-05 1.7680038230e+00 -3.0622724494e+00 1.7680038230e+00 3.0622724494e+00 
22000 5.4886684095e+00 -2.6613798415e-05 1.7680038230e+00 -3.0622724494e+00 1.7680038230e+00 3.0622724494e+00 
22100 5.4886686420e+00 -9.1084987822e-06 1.7680038230e+00 -3.0622724494e+00 1.7680038230e+00 3.0622724494e+00 
22200 5.4886688764e+00 8.7855572393e-06 1.7680038230e+00 -3.0622724494e+00 1.7680038230e+00 3.0622724494e+00 
22300 5.4886691118e+00 2.7021576625e-05 1.7680038230e+00 -3.0622724494e+00 1.7680038230e+00 3.0622724494e+00 
22400 5.4886693473e+00 4.5553914202e-05 1.7680038230e+00 -3.0622724494e+00 1.7680038230e+00 3.0622724494e+00 
22500 5.4886695818e+00 6.4338124388e-05 1.7680038230e+00 -3.0622724494e+00 1.7680038230e+00 3.0622724494e+00 
22600 5.4886698147e+00 8.3331007932e-05 1.7680038230e+00 -3.0622724494e+00 1.7680038230e+00 3.0622724494e+00 
22700 5.4886700447e+00 1.0082568491e-04 1.7680014663e+00 -3.0622683676e+00 1.7680014663e+00 3.0622683676e+00 
22800 5.4886702713e+00 1.1808646344e-04 1.7679986149e+00 -3.0622634288e+00 1.7679986149e+00 3.0622634288e+00 
22900 5.4886704938e+00 1.3507650681e-04 1.7679952754e+00 -3.0622576445e+00 1.7679952754e+00 3.0622576445e+00 
23000 5.4886707116e+00 1.5176113639e-04 1.7679914553e+00 -3.0622510280e+00 1.7679914553e+00 3.0622510280e+00 
23100 5.4886709240e+00 1.6810782092e-04 1.7679871634e+00 -3.0622435942e+00 1.7679871634e+00 3.0622435942e+00 
23200 5.4886711307e+00 1.8408616144e-04 1.7679824092e+00 -3.0622353597e+00 1.7679824092e+00 3.0622353597e+00 
23300 5.4886713312e+00 1.9966787202e-04 1.7679772031e+00 -3.0622263424e+00 1.7679772031e+00 3.0622263424e+00 
23400 5.4886715250e+00 2.1482675640e-04 1.7679715563e+00 -3.0622165619e+00 1.7679715563e+00 3.0622165619e+00 
23500 5.4886717121e+00 2.2953868090e-04 1.7679654808e+00 -3.0622060388e+00 1.7679654808e+00 3.0622060388e+00 
23600 5.4886718920e+00 2.4378154373e-04 1.7679589892e+00 -3.0621947950e+00 1.7679589892e+00 3.0621947950e+00 
23700 5.4886720647e+00 2.5753524102e-04 1.7679520948e+00 -3.0621828535e+00 1.7679520948e+00 3.0621828535e+00 
23800 5.4886722300e+00 2.7078162965e-04 1.7679448114e+00 -3.0621702383e+00 1.7679448114e+00 3.0621702383e+00 
23900 5.4886723878e+00 2.8350448727e-04 1.7679371533e+00 -3.0621569741e+00 1.7679371533e+00 3.0621569741e+00 
24000 5.4886725382e+00 2.9568946953e-04 1.7679291353e+00 -3.0621430866e+00 1.7679291353e+00 3.0621430866e+00 
24100 5.4886726812e+00 3.0732406497e-04 1.7679207727e+00 -3.0621286022e+00 1.7679207727e+00 3.0621286022e+00 
24200 5.4886728168e+00 3.1839754748e-04 1.7679120811e+00 -3.0621135477e+00 1.7679120811e+00 3.0621135477e+00 
24300 5.4886729451e+00 3.2890092688e-04 1.7679030762e+00 -3.0620979508e+00 1.7679030762e+00 3.0620979508e+00 
24400 5.4886730664e+00 3.3882689750e-04 1.7678937742e+00 -3.0620818393e+00 1.7678937742e+00 3.0620818393e+00 
24500 5.4886731807e+00 3.4816978515e-04 1.7678841914e+00 -3.0620652414e+00 1.7678841914e+00 3.0620652414e+00 
24600 5.4886732884e+00 3.5692549268e-04 1.7678743443e+00 -3.0620481858e+00 1.7678743443e+00 3.0620481858e+00 
24700 5.4886733895e+00 3.6509144414e-04 1.7678642496e+00 -3.0620307012e+00 1.7678642496e+00 3.0620307012e+00 
24800 5.4886734845e+00 3.7266652795e-04 1.7678539238e+00 -3.0620128164e+00 1.7678539238e+00 3.0620128164e+00 
24900 5.4886735735e+00 3.7965103911e-04 1.7678433837e+00 -3.0619945605e+00 1.7678433837e+00 3.0619945605e+00 
25000 5.4886736568e+00 3.8604662060e-04 1.7678326461e+00 -3.0619759623e+00 1.7678326461e+00 3.0619759623e+00 
25100 5.4886737348e+00 3.9185620432e-04 1.7678217274e+00 -3.0619570506e+00 1.7678217274e+00 3.0619570506e+00 
25200 5.4886738077e+00 3.9708395150e-04 1.7678106444e+00 -3.0619378543e+00 1.7678106444e+00 3.0619378543e+00 
25300 5.4886738759e+00 4.0173519287e-04 1.7677994135e+00 -3.0619184017e+00 1.7677994135e+00 3.0619184017e+00 
25400 5.4886739396e+00 4.0581636873e-04 1.7677880509e+00 -3.0618987212e+00 1.7677880509e+00 3.0618987212e+00 
25500 5.4886739991e+00 4.0933496898e-04 1.7677765728e+00 -3.0618788406e+00 1.7677765728e+00 3.0618788406e+00 
25600 5.4886740549e+00 4.1229947339e-04 1.7677649952e+00 -3.0618587875e+00 1.7677649952e+00 3.0618587875e+00 
25700 5.4886741071e+00 4.1471929205e-04 1.7677533336e+00 -3.0618385890e+00 1.7677533336e+00 3.0618385890e+00 
25800 5.4886741561e+00 4.1660470632e-04 1.7677416035e+00 -3.0618182719e+00 1.7677416035e+00 3.0618182719e+00 
25900 5.4886742022e+00 4.1796681022e-04 1.7677298200e+00 -3.0617978622e+00 1.7677298200e+00 3.0617978622e+00 
26000 5.4886742456e+00 4.1881745250e-04 1.7677179978e+00 -3.0617773857e+00 1.7677179978e+00 3.0617773857e+00 
26100 5.4886742867e+00 4.1916917942e-04 1.7677061516e+00 -3.0617568674e+00 1.7677061516e+00 3.0617568674e+00 
26200 5.4886743256e+00 4.1903517838e-04 1.7676942953e+00 -3.0617363317e+00 1.7676942953e+00 3.0617363317e+00 
26300 5.4886743627e+00 4.1842922247e-04 1.7676824427e+00 -3.0617158024e+00 1.7676824427e+00 3.0617158024e+00 
26400 5.4886743980e+00 4.1736561599e-04 1.7676706072e+00 -3.0616953027e+00 1.7676706072e+00 3.0616953027e+00 
26500 5.4886744320e+00 4.1585914109e-04 1.7676588017e+00 -3.0616748550e+00 1.7676588017e+00 3.0616748550e+00 
26600 5.4886744647e+00 4.1392500563e-04 1.7676470387e+00 -3.0616544809e+00 1.7676470387e+00 3.0616544809e+00 
26700 5.4886744964e+00 4.1157879210e-04 1.7676353304e+00 -3.0616342014e+00 1.7676353304e+00 3.0616342014e+00 
26800 5.4886745273e+00 4.0883640801e-04 1.7676236883e+00 -3.0616140368e+00 1.7676236883e+00 3.0616140368e+00 
26900 5.4886745574e+00 4.0571403754e-04 1.7676121237e+00 -3.0615940064e+00 1.7676121237e+00 3.0615940064e+00 
27000 5.4886745869e+00 4.0222809456e-04 1.7676006474e+00 -3.0615741288e+00 1.7676006474e+00 3.0615741288e+00 
27100 5.4886746160e+00 3.9839517713e-04 1.7675892696e+00 -3.0615544219e+00 1.7675892696e+00 3.0615544219e+00 
27200 5.4886746448e+00 3.9423202352e-04 1.7675780002e+00 -3.0615349027e+00 1.7675780002e+00 3.0615349027e+00 
27300 5.4886746734e+00 3.8975546962e-04 1.7675668484e+00 -3.0615155873e+00 1.7675668484e+00 3.0615155873e+00 
27400 5.4886747018e+00 3.8498240806e-04 1.7675558233e+00 -3.0614964911e+00 1.7675558233e+00 3.0614964911e+00 
27500 5.4886747301e+00 3.7992974877e-04 1.7675449330e+00 -3.0614776286e+00 1.7675449330e+00 3.0614776286e+00 
27600 5.4886747584e+00 3.7461438117e-04 1.7675341856e+00 -3.0614590136e+00 1.7675341856e+00 3.0614590136e+00 
27700 5.4886747868e+00 3.6905313798e-04 1.7675235886e+00 -3.0614406590e+00 1.7675235886e+00 3.0614406590e+00 
27800 5.4886748152e+00 3.6326276070e-04 1.7675131487e+00 -3.0614225767e+00 1.7675131487e+00 3.0614225767e+00 
27900 5.4886748437e+00 3.5725986655e-04 1.7675028726e+00 -3.0614047780e+00 1.7675028726e+00 3.0614047780e+00 
28000 5.4886748724e+00 3.5106091725e-04 1.7674927663e+00 -3.0613872733e+00 1.7674927663e+00 3.0613872733e+00 
28100 5.4886749012e+00 3.4468218931e-04 1.7674828353e+00 -3.0613700722e+00 1.7674828353e+00 3.0613700722e+00 
28200 5.4886749301e+00 3.3813974592e-04 1.7674730846e+00 -3.0613531836e+00 1.7674730846e+00 3.0613531836e+00 
28300 5.4886749592e+00 3.3144941058e-04 1.7674635190e+00 -3.0613366155e+00 1.7674635190e+00 3.0613366155e+00 
28400 5.4886749883e+00 3.2462674223e-04 1.7674541426e+00 -3.0613203751e+00 1.7674541426e+00 3.0613203751e+00 
28500 5.4886750176e+00 3.1768701203e-04 1.7674449592e+00 -3.0613044689e+00 1.7674449592e+00 3.0613044689e+00 
28600 5.4886750469e+00 3.1064518171e-04 1.7674359720e+00 -3.0612889026e+00 1.7674359720e+00 3.0612889026e+00 
28700 5.4886750763e+00 3.0351588348e-04 1.7674271840e+00 -3.0612736813e+00 1.7674271840e+00 3.0612736813e+00 
28800 5.4886751057e+00 2.9631340148e-04 1.7674185976e+00 -3.0612588093e+00 1.7674185976e+00 3.0612588093e+00 
28900 5.4886751351e+00 2.8905165475e-04 1.7674102150e+00 -3.0612442901e+00 1.7674102150e+00 3.0612442901e+00 
29000 5.4886751645e+00 2.8174418170e-04 1.7674020377e+00 -3.0612301267e+00 1.7674020377e+00 3.0612301267e+00 
29100 5.4886751937e+00 2.7440412599e-04 1.7673940671e+00 -3.0612163213e+00 1.7673940671e+00 3.0612163213e+00 
29200 5.4886752229e+00 2.6704422393e-04 1.7673863042e+00 -3.0612028754e+00 1.7673863042e+00 3.0612028754e+00 
29300 5.4886752518e+00 2.5967679320e-04 1.7673787494e+00 -3.0611897902e+00 1.7673787494e+00 3.0611897902e+00 
29400 5.4886752806e+00 2.5231372298e-04 1.7673714030e+00 -3.0611770659e+00 1.7673714030e+00 3.0611770659e+00 
29500 5.4886753092e+00 2.4496646537e-04 1.7673642649e+00 -3.0611647023e+00 1.7673642649e+00 3.0611647023e+00 
29600 5.4886753374e+00 2.3764602816e-04 1.7673573347e+00 -3.0611526988e+00 1.7673573347e+00 3.0611526988e+00 
29700 5.4886753654e+00 2.3036296882e-04 1.7673506115e+00 -3.0611410538e+00 1.7673506115e+00 3.0611410538e+00 
29800 5.4886753930e+00 2.2312738967e-04 1.7673440943e+00 -3.0611297657e+00 1.7673440943e+00 3.0611297657e+00 
29900 5.4886754203e+00 2.1594893431e-04 1.7673377818e+00 -3.0611188322e+00 1.7673377818e+00 3.0611188322e+00 
30000 5.4886754471e+00 2.0883678512e-04 1.7673316723e+00 -3.0611082503e+00 1.7673316723e+00 3.0611082503e+00 
30100 5.4886754735e+00 2.0179966189e-04 1.7673257641e+00 -3.0610980169e+00 1.7673257641e+00 3.0610980169e+00 
30200 5.4886754994e+00 1.9484582145e-04 1.7673200549e+00 -3.0610881283e+00 1.7673200549e+00 3.0610881283e+00 
30300 5.4886755249e+00 1.8798305841e-04 1.7673145424e+00 -3.0610785805e+00 1.7673145424e+00 3.0610785805e+00 
30400 5.4886755499e+00 1.8121870670e-04 1.7673092241e+00 -3.0610693689e+00 1.7673092241e+00 3.0610693689e+00 
30500 5.4886755743e+00 1.7455964226e-04 1.7673040972e+00 -3.0610604887e+00 1.7673040972e+00 3.0610604887e+00 
30600 5.4886755982e+00 1.6801228637e-04 1.7672991586e+00 -3.0610519348e+00 1.7672991586e+00 3.0610519348e+00 
30700 5.4886756215e+00 1.6158260997e-04 1.7672944052e+00 -3.0610437018e+00 1.7672944052e+00 3.0610437018e+00 
30800 5.4886756443e+00 1.5527613876e-04 1.7672898338e+00 -3.0610357838e+00 1.7672898338e+00 3.0610357838e+00 
30900 5.4886756665e+00 1.4909795895e-04 1.7672854407e+00 -3.0610281748e+00 1.7672854407e+00 3.0610281748e+00 
31000 5.4886756881e+00 1.4305272385e-04 1.7672812224e+00 -3.0610208685e+00 1.7672812224e+00 3.0610208685e+00 
31100 5.4886757091e+00 1.3714466100e-04 1.7672771752e+00 -3.0610138584e+00 1.7672771752e+00 3.0610138584e+00 
31200 5.4886757296e+00 1.3137758003e-04 1.7672732951e+00 -3.0610071379e+00 1.7672732951e+00 3.0610071379e+00 
31300 5.4886757494e+00 1.2575488097e-04 1.7672695781e+00 -3.0610006999e+00 1.7672695781e+00 3.0610006999e+00 
31400 5.4886757687e+00 1.2027956324e-04 1.7672660202e+00 -3.0609945375e+00 1.7672660202e+00 3.0609945375e+00 
31500 5.4886757875e+00 1.1495423503e-04 1.7672626172e+00 -3.0609886434e+00 1.7672626172e+00 3.0609886434e+00 
31600 5.4886758056e+00 1.0978112314e-04 1.7672593649e+00 -3.0609830102e+00 1.7672593649e+00 3.0609830102e+00 
31700 5.4886758232e+00 1.0476208334e-04 1.7672562589e+00 -3.0609776305e+00 1.7672562589e+00 3.0609776305e+00 
31800 5.4886758402e+00 9.9898610947e-05 1.7672532950e+00 -3.0609724967e+00 1.7672532950e+00 3.0609724967e+00 
31900 5.4886758567e+00 9.5191851866e-05 1.7672504686e+00 -3.0609676013e+00 1.7672504686e+00 3.0609676013e+00 
32000 5.4886758727e+00 9.0642613884e-05 1.7672477754e+00 -3.0609629365e+00 1.7672477754e+00 3.0609629365e+00 
32100 5.4886758882e+00 8.6251378221e-05 1.7672452109e+00 -3.0609584946e+00 1.7672452109e+00 3.0609584946e+00 
32200 5.4886759031e+00 8.2018311326e-05 1.7672427706e+00 -3.0609542679e+00 1.7672427706e+00 3.0609542679e+00 
32300 5.4886759176e+00 7.7943276860e-05 1.7672404501e+00 -3.0609502487e+00 1.7672404501e+00 3.0609502487e+00 
32400 5.4886759316e+00 7.4025847844e-05 1.7672382448e+00 -3.0609464291e+00 1.7672382448e+00 3.0609464291e+00 
32500 5.4886759452e+00 7.0265318927e-05 1.7672361504e+00 -3.0609428015e+00 1.7672361504e+00 3.0609428015e+00 
32600 5.4886759585e+00 6.8067849448e-05 1.7672361504e+00 -3.0609428015e+00 1.7672361504e+00 3.0609428015e+00 
32700 5.4886759713e+00 6.5961656796e-05 1.7672361504e+00 -3.0609428015e+00 1.7672361504e+00 3.0609428015e+00 
32800 5.4886759837e+00 6.3947972984e-05 1.7672361504e+00 -3.0609428015e+00 1.7672361504e+00 3.0609428015e+00 
32900 5.4886759958e+00 6.2027771990e-05 1.7672361504e+00 -3.0609428015e+00 1.7672361504e+00 3.0609428015e+00 
33000 5.4886760074e+00 6.0201778966e-05 1.7672361504e+00 -3.0609428015e+00 1.7672361504e+00 3.0609428015e+00 
33100 5.4886760187e+00 5.8470479603e-05 1.7672361504e+00 -3.0609428015e+00 1.7672361504e+00 3.0609428015e+00 
33200 5.4886760297e+00 5.6834129561e-05 1.7672361504e+00 -3.0609428015e+00 1.7672361504e+00 3.0609428015e+00 
33300 5.4886760403e+00 5.5292764001e-05 1.7672361504e+00 -3.0609428015e+00 1.7672361504e+00 3.0609428015e+00 
33400 5.4886760506e+00 5.3846207159e-05 1.7672361504e+00 -3.0609428015e+00 1.7672361504e+00 3.0609428015e+00 
33500 5.4886760606e+00 5.2494081952e-05 1.7672361504e+00 -3.0609428015e+00 1.7672361504e+00 3.0609428015e+00 
33600 5.4886760704e+00 5.1235819587e-05 1.7672361504e+00 -3.0609428015e+00 1.7672361504e+00 3.0609428015e+00 
33700 5.4886760799e+00 5.0070669168e-05 1.7672361504e+00 -3.0609428015e+00 1.7672361504e+00 3.0609428015e+00 
33800 5.4886760892e+00 4.8997707260e-05 1.7672361504e+00 -3.0609428015e+00 1.7672361504e+00 3.0609428015e+00 
33900 5.4886760982e+00 4.8015847412e-05 1.7672361504e+00 -3.0609428015e+00 1.7672361504e+00 3.0609428015e+00 
34000 5.4886761071e+00 4.7123849600e-05 1.7672361504e+00 -3.0609428015e+00 1.7672361504e+00 3.0609428015e+00 
34100 5.4886761157e+00 4.6320329594e-05 1.7672361504e+00 -3.0609428015e+00 1.7672361504e+00 3.0609428015e+00 
34200 5.4886761242e+00 4.5603768212e-05 1.7672361504e+00 -3.0609428015e+00 1.7672361504e+00 3.0609428015e+00 
34300 5.4886761324e+00 4.4972520474e-05 1.7672361504e+00 -3.0609428015e+00 1.7672361504e+00 3.0609428015e+00 
34400 5.4886761405e+00 4.4424824602e-05 1.7672361504e+00 -3.0609428015e+00 1.7672361504e+00 3.0609428015e+00 
34500 5.4886761485e+00 4.3958810895e-05 1.7672361504e+00 -3.0609428015e+00 1.7672361504e+00 3.0609428015e+00 
34600 5.4886761563e+00 4.3572510432e-05 1.7672361504e+00 -3.0609428015e+00 1.7672361504e+00 3.0609428015e+00 
34700 5.4886761639e+00 4.3263863616e-05 1.7672361504e+00 -3.0609428015e+00 1.7672361504e+00 3.0609428015e+00 
34800 5.4886761715e+00 4.3030728535e-05 1.7672361504e+00 -3.0609428015e+00 1.7672361504e+00 3.0609428015e+00 
34900 5.4886761788e+00 4.2870889129e-05 1.7672361504e+00 -3.0609428015e+00 1.7672361504e+00 3.0609428015e+00 
35000 5.4886761861e+00 4.2782063167e-05 1.7672361504e+00 -3.0609428015e+00 1.7672361504e+00 3.0609428015e+00 
35100 5.4886761933e+00 4.2761910008e-05 1.7672361504e+00 -3.0609428015e+00 1.7672361504e+00 3.0609428015e+00 
35200 5.4886762003e+00 4.2808038150e-05 1.7672361504e+00 -3.0609428015e+00 1.7672361504e+00 3.0609428015e+00 
35300 5.4886762072e+00 4.2918012570e-05 1.7672361504e+00 -3.0609428015e+00 1.7672361504e+00 3.0609428015e+00 
35400 5.4886762141e+00 4.3089361817e-05 1.7672361504e+00 -3.0609428015e+00 1.7672361504e+00 3.0609428015e+00 
35500 5.4886762208e+00 4.3319584885e-05 1.7672361504e+00 -3.0609428015e+00 1.7672361504e+00 3.0609428015e+00 
35600 5.4886762274e+00 4.3606157845e-05 1.7672361504e+00 -3.0609428015e+00 1.7672361504e+00 3.0609428015e+00 
35700 5.4886762339e+00 4.3946540248e-05 1.7672361504e+00 -3.0609428015e+00 1.7672361504e+00 3.0609428015e+00 
35800 5.4886762404e+00 4.4338181266e-05 1.7672361504e+00 -3.0609428015e+00 1.7672361504e+00 3.0609428015e+00 
35900 5.4886762467e+00 4.4778525600e-05 1.7672361504e+00 -3.0609428015e+00 1.7672361504e+00 3.0609428015e+00 
36000 5.4886762529e+00 4.5265019135e-05 1.7672361504e+00 -3.0609428015e+00 1.7672361504e+00 3.0609428015e+00 
36100 5.4886762591e+00 4.5795114353e-05 1.7672361504e+00 -3.0609428015e+00 1.7672361504e+00 3.0609428015e+00 
36200 5.4886762651e+00 4.6366275487e-05 1.7672361504e+00 -3.0609428015e+00 1.7672361504e+00 3.0609428015e+00 
36300 5.4886762711e+00 4.6975983432e-05 1.7672361504e+00 -3.0609428015e+00 1.7672361504e+00 3.0609428015e+00 
36400 5.4886762770e+00 4.7621740406e-05 1.7672361504e+00 -3.0609428015e+00 1.7672361504e+00 3.0609428015e+00 
36500 5.4886762828e+00 4.8301074359e-05 1.7672361504e+00 -3.0609428015e+00 1.7672361504e+00 3.0609428015e+00 
36600 5.4886762884e+00 4.9011543145e-05 1.7672361504e+00 -3.0609428015e+00 1.7672361504e+00 3.0609428015e+00 
36700 5.4886762941e+00 4.9750738432e-05 1.7672361504e+00 -3.0609428015e+00 1.7672361504e+00 3.0609428015e+00 
36800 5.4886762996e+00 5.0516289394e-05 1.7672361504e+00 -3.0609428015e+00 1.7672361504e+00 3.0609428015e+00 
36900 5.4886763050e+00 5.1305866140e-05 1.7672361504e+00 -3.0609428015e+00 1.7672361504e+00 3.0609428015e+00 
37000 5.4886763103e+00 5.2117182915e-05 1.7672361504e+00 -3.0609428015e+00 1.7672361504e+00 3.0609428015e+00 
37100 5.4886763155e+00 5.2948001085e-05 1.7672361504e+00 -3.0609428015e+00 1.7672361504e+00 3.0609428015e+00 
37200 5.4886763207e+00 5.3796131859e-05 1.7672361504e+00 -3.0609428015e+00 1.7672361504e+00 3.0609428015e+00 
37300 5.4886763258e+00 5.4659438815e-05 1.7672361504e+00 -3.0609428015e+00 1.7672361504e+00 3.0609428015e+00 
37400 5.4886763307e+00 5.5535840194e-05 1.7672361504e+00 -3.0609428015e+00 1.7672361504e+00 3.0609428015e+00 
37500 5.4886763356e+00 5.6423310980e-05 1.7672361504e+00 -3.0609428015e+00 1.7672361504e+00 3.0609428015e+00 
37600 5.4886763404e+00 5.7319884767e-05 1.7672361504e+00 -3.0609428015e+00 1.7672361504e+00 3.0609428015e+00 
37700 5.4886763451e+00 5.8223655431e-05 1.7672361504e+00 -3.0609428015e+00 1.7672361504e+00 3.0609428015e+00 
37800 5.4886763497e+00 5.9132778579e-05 1.7672361504e+00 -3.0609428015e+00 1.7672361504e+00 3.0609428015e+00 
37900 5.4886763542e+00 6.0045472835e-05 1.7672361504e+00 -3.0609428015e+00 1.7672361504e+00 3.0609428015e+00 
38000 5.4886763586e+00 6.0960020909e-05 1.7672361504e+00 -3.0609428015e+00 1.7672361504e+00 3.0609428015e+00 
38100 5.4886763630e+00 6.1874770500e-05 1.7672361504e+00 -3.0609428015e+00 1.7672361504e+00 3.0609428015e+00 
38200 5.4886763673e+00 6.2788135024e-05 1.7672361504e+00 -3.0609428015e+00 1.7672361504e+00 3.0609428015e+00 
38300 5.4886763714e+00 6.3698594153e-05 1.7672361504e+00 -3.0609428015e+00 1.7672361504e+00 3.0609428015e+00 
38400 5.4886763755e+00 6.4604694210e-05 1.7672361504e+00 -3.0609428015e+00 1.7672361504e+00 3.0609428015e+00 
38500 5.4886763795e+00 6.5505048402e-05 1.7672361504e+00 -3.0609428015e+00 1.7672361504e+00 3.0609428015e+00 
38600 5.4886763834e+00 6.6398336889e-05 1.7672361504e+00 -3.0609428015e+00 1.7672361504e+00 3.0609428015e+00 
38700 5.4886763873e+00 6.7283306725e-05 1.7672361504e+00 -3.0609428015e+00 1.7672361504e+00 3.0609428015e+00 
38800 5.4886763910e+00 6.8158771646e-05 1.7672361504e+00 -3.0609428015e+00 1.7672361504e+00 3.0609428015e+00 
38900 5.4886763947e+00 6.9023611742e-05 1.7672361504e+00 -3.0609428015e+00 1.7672361504e+00 3.0609428015e+00 
39000 5.4886763983e+00 6.9876772984e-05 1.7672361504e+00 -3.0609428015e+00 1.7672361504e+00 3.0609428015e+00 
39100 5.4886764018e+00 7.0717266649e-05 1.7672361504e+00 -3.0609428015e+00 1.7672361504e+00 3.0609428015e+00 
39200 5.4886764051e+00 7.0127951301e-05 1.7672341497e+00 -3.0609393361e+00 1.7672341497e+00 3.0609393361e+00 
39300 5.4886764085e+00 7.0931576872e-05 1.7672341497e+00 -3.0609393361e+00 1.7672341497e+00 3.0609393361e+00 
39400 5.4886764116e+00 7.0299382407e-05 1.7672321428e+00 -3.0609358601e+00 1.7672321428e+00 3.0609358601e+00 
39500 5.4886764149e+00 7.1062840771e-05 1.7672321428e+00 -3.0609358601e+00 1.7672321428e+00 3.0609358601e+00 
39600 5.4886764179e+00 7.0386412258e-05 1.7672301322e+00 -3.0609323777e+00 1.7672301322e+00 3.0609323777e+00 
39700 5.4886764210e+00 7.1106971109e-05 1.7672301322e+00 -3.0609323777e+00 1.7672301322e+00 3.0609323777e+00 
39800 5.4886764238e+00 7.0385591237e-05 1.7672281204e+00 -3.0609288931e+00 1.7672281204e+00 3.0609288931e+00 
39900 5.4886764268e+00 7.1061062674e-05 1.7672281204e+00 -3.0609288931e+00 1.7672281204e+00 3.0609288931e+00 
40000 5.4886764295e+00 7.0294604351e-05 1.7672261099e+00 -3.0609254108e+00 1.7672261099e+00 3.0609254108e+00 
40100 5.4886764323e+00 7.0923319766e-05 1.7672261099e+00 -3.0609254108e+00 1.7672261099e+00 3.0609254108e+00 
40200 5.4886764349e+00 7.0112197655e-05 1.7672241033e+00 -3.0609219352e+00 1.7672241033e+00 3.0609219352e+00 
40300 5.4886764376e+00 7.0692980346e-05 1.7672241033e+00 -3.0609219352e+00 1.7672241033e+00 3.0609219352e+00 
40400 5.4886764403e+00 7.1253901165e-05 1.7672241033e+00 -3.0609219352e+00 1.7672241033e+00 3.0609219352e+00 
40500 5.4886764427e+00 7.0367821637e-05 1.7672220873e+00 -3.0609184434e+00 1.7672220873e+00 3.0609184434e+00 
40600 5.4886764453e+00 7.0879863404e-05 1.7672220873e+00 -3.0609184434e+00 1.7672220873e+00 3.0609184434e+00 
40700 5.4886764476e+00 6.9952257267e-05 1.7672200819e+00 -3.0609149700e+00 1.7672200819e+00 3.0609149700e+00 
40800 5.4886764500e+00 7.0415308341e-05 1.7672200819e+00 -3.0609149700e+00 1.7672200819e+00 3.0609149700e+00 
40900 5.4886764524e+00 7.0858330506e-05 1.7672200819e+00 -3.0609149700e+00 1.7672200819e+00 3.0609149700e+00 
41000 5.4886764546e+00 6.9862314990e-05 1.7672180771e+00 -3.0609114976e+00 1.7672180771e+00 3.0609114976e+00 
41100 5.4886764569e+00 7.0256855230e-05 1.7672180771e+00 -3.0609114976e+00 1.7672180771e+00 3.0609114976e+00 
41200 5.4886764592e+00 7.0631797990e-05 1.7672180771e+00 -3.0609114976e+00 1.7672180771e+00 3.0609114976e+00 
41300 5.4886764614e+00 7.0987382328e-05 1.7672180771e+00 -3.0609114976e+00 1.7672180771e+00 3.0609114976e+00 
41400 5.4886764634e+00 6.9902139480e-05 1.7672160686e+00 -3.0609080188e+00 1.7672160686e+00 3.0609080188e+00 
41500 5.4886764655e+00 7.0210975674e-05 1.7672160686e+00 -3.0609080188e+00 1.7672160686e+00 3.0609080188e+00 
41600 5.4886764676e+00 7.0501278464e-05 1.7672160686e+00 -3.0609080188e+00 1.7672160686e+00 3.0609080188e+00 
41700 5.4886764697e+00 7.0773403346e-05 1.7672160686e+00 -3.0609080188e+00 1.7672160686e+00 3.0609080188e+00 
41800 5.4886764715e+00 6.9610263310e-05 1.7672140662e+00 -3.0609045506e+00 1.7672140662e+00 3.0609045506e+00 
41900 5.4886764735e+00 6.9838348315e-05 1.7672140662e+00 -3.0609045506e+00 1.7672140662e+00 3.0609045506e+00 
42000 5.4886764754e+00 7.0049386467e-05 1.7672140662e+00 -3.0609045506e+00 1.7672140662e+00 3.0609045506e+00 
42100 5.4886764773e+00 7.0243821023e-05 1.7672140662e+00 -3.0609045506e+00 1.7672140662e+00 3.0609045506e+00 
42200 5.4886764792e+00 7.0422108447e-05 1.7672140662e+00 -3.0609045506e+00 1.7672140662e+00 3.0609045506e+00 
42300 5.4886764810e+00 7.0584716901e-05 1.7672140662e+00 -3.0609045506e+00 1.7672140662e+00 3.0609045506e+00 
42400 5.4886764828e+00 7.0732124787e-05 1.7672140662e+00 -3.0609045506e+00 1.7672140662e+00 3.0609045506e+00 
42500 5.4886764845e+00 6.9448167031e-05 1.7672120650e+00 -3.0609010843e+00 1.7672120650e+00 3.0609010843e+00 
42600 5.4886764862e+00 6.9557819192e-05 1.7672120650e+00 -3.0609010843e+00 1.7672120650e+00 3.0609010843e+00 
42700 5.4886764879e+00 6.9653703921e-05 1.7672120650e+00 -3.0609010843e+00 1.7672120650e+00 3.0609010843e+00 
42800 5.4886764896e+00 6.9736343819e-05 1.7672120650e+00 -3.0609010843e+00 1.7672120650e+00 3.0609010843e+00 
42900 5.4886764912e+00 6.9806264506e-05 1.7672120650e+00 -3.0609010843e+00 1.7672120650e+00 3.0609010843e+00 
43000 5.4886764929e+00 6.9863993399e-05 1.7672120650e+00 -3.0609010843e+00 1.7672120650e+00 3.0609010843e+00 
43100 5.4886764945e+00 6.9910058562e-05 1.7672120650e+00 -3.0609010843e+00 1.7672120650e+00 3.0609010843e+00 
43200 5.4886764960e+00 6.9944987589e-05 1.7672120650e+00 -3.0609010843e+00 1.7672120650e+00 3.0609010843e+00 
43300 5.4886764976e+00 6.9969306544e-05 1.7672120650e+00 -3.0609010843e+00 1.7672120650e+00 3.0609010843e+00 
43400 5.4886764991e+00 6.9983538947e-05 1.7672120650e+00 -3.0609010843e+00 1.7672120650e+00 3.0609010843e+00 
43500 5.4886765006e+00 6.9988204815e-05 1.7672120650e+00 -3.0609010843e+00 1.7672120650e+00 3.0609010843e+00 
43600 5.4886765020e+00 6.9983819746e-05 1.7672120650e+00 -3.0609010843e+00 1.7672120650e+00 3.0609010843e+00 
43700 5.4886765035e+00 6.9970894053e-05 1.7672120650e+00 -3.0609010843e+00 1.7672120650e+00 3.0609010843e+00 
43800 5.4886765049e+00 6.9949931954e-05 1.7672120650e+00 -3.0609010843e+00 1.7672120650e+00 3.0609010843e+00 
43900 5.4886765063e+00 6.9921430794e-05 1.7672120650e+00 -3.0609010843e+00 1.7672120650e+00 3.0609010843e+00 
44000 5.4886765076e+00 6.9885880336e-05 1.7672120650e+00 -3.0609010843e+00 1.7672120650e+00 3.0609010843e+00 
44100 5.4886765090e+00 6.9843762084e-05 1.7672120650e+00 -3.0609010843e+00 1.7672120650e+00 3.0609010843e+00 
44200 5.4886765103e+00 6.9795548657e-05 1.7672120650e+00 -3.0609010843e+00 1.7672120650e+00 3.0609010843e+00 
44300 5.4886765116e+00 6.9741703206e-05 1.7672120650e+00 -3.0609010843e+00 1.7672120650e+00 3.0609010843e+00 
44400 5.4886765128e+00 6.9682678885e-05 1.7672120650e+00 -3.0609010843e+00 1.7672120650e+00 3.0609010843e+00 
44500 5.4886765141e+00 6.9618918353e-05 1.7672120650e+00 -3.0609010843e+00 1.7672120650e+00 3.0609010843e+00 
44600 5.4886765153e+00 6.9550853333e-05 1.7672120650e+00 -3.0609010843e+00 1.7672120650e+00 3.0609010843e+00 
44700 5.4886765165e+00 6.9478904202e-05 1.7672120650e+00 -3.0609010843e+00 1.7672120650e+00 3.0609010843e+00 
44800 5.4886765177e+00 6.9403479625e-05 1.7672120650e+00 -3.0609010843e+00 1.7672120650e+00 3.0609010843e+00 
44900 5.4886765189e+00 6.9324976239e-05 1.7672120650e+00 -3.0609010843e+00 1.7672120650e+00 3.0609010843e+00 
45000 5.4886765200e+00 6.9243778361e-05 1.7672120650e+00 -3.0609010843e+00 1.7672120650e+00 3.0609010843e+00 
45100 5.4886765211e+00 6.9160257743e-05 1.7672120650e+00 -3.0609010843e+00 1.7672120650e+00 3.0609010843e+00 
45200 5.4886765222e+00 6.9074773367e-05 1.7672120650e+00 -3.0609010843e+00 1.7672120650e+00 3.0609010843e+00 
45300 5.4886765233e+00 6.8987671262e-05 1.7672120650e+00 -3.0609010843e+00 1.7672120650e+00 3.0609010843e+00 
45400 5.4886765244e+00 6.8899284377e-05 1.7672120650e+00 -3.0609010843e+00 1.7672120650e+00 3.0609010843e+00 
45500 5.4886765254e+00 6.8809932463e-05 1.7672120650e+00 -3.0609010843e+00 1.7672120650e+00 3.0609010843e+00 
45600 5.4886765265e+00 6.8719922005e-05 1.7672120650e+00 -3.0609010843e+00 1.7672120650e+00 3.0609010843e+00 
45700 5.4886765275e+00 6.8629546180e-05 1.7672120650e+00 -3.0609010843e+00 1.7672120650e+00 3.0609010843e+00 
45800 5.4886765285e+00 6.8539084842e-05 1.7672120650e+00 -3.0609010843e+00 1.7672120650e+00 3.0609010843e+00 
45900 5.4886765294e+00 6.8448804537e-05 1.7672120650e+00 -3.0609010843e+00 1.7672120650e+00 3.0609010843e+00 
46000 5.4886765304e+00 6.8358958543e-05 1.7672120650e+00 -3.0609010843e+00 1.7672120650e+00 3.0609010843e+00 
46100 5.4886765313e+00 6.8269786943e-05 1.7672120650e+00 -3.0609010843e+00 1.7672120650e+00 3.0609010843e+00 
46200 5.4886765322e+00 6.8181516711e-05 1.7672120650e+00 -3.0609010843e+00 1.7672120650e+00 3.0609010843e+00 
46300 5.4886765332e+00 6.8094361835e-05 1.7672120650e+00 -3.0609010843e+00 1.7672120650e+00 3.0609010843e+00 
46400 5.4886765340e+00 6.8008523445e-05 1.7672120650e+00 -3.0609010843e+00 1.7672120650e+00 3.0609010843e+00 
46500 5.4886765349e+00 6.7924189982e-05 1.7672120650e+00 -3.0609010843e+00 1.7672120650e+00 3.0609010843e+00 
46600 5.4886765358e+00 6.7841537367e-05 1.7672120650e+00 -3.0609010843e+00 1.7672120650e+00 3.0609010843e+00 
46700 5.4886765366e+00 6.7760729204e-05 1.7672120650e+00 -3.0609010843e+00 1.7672120650e+00 3.0609010843e+00 
46800 5.4886765374e+00 6.7681916989e-05 1.7672120650e+00 -3.0609010843e+00 1.7672120650e+00 3.0609010843e+00 
46900 5.4886765383e+00 6.7605240339e-05 1.7672120650e+00 -3.0609010843e+00 1.7672120650e+00 3.0609010843e+00 
47000 5.4886765391e+00 6.7530827241e-05 1.7672120650e+00 -3.0609010843e+00 1.7672120650e+00 3.0609010843e+00 
47100 5.4886765398e+00 6.7458794300e-05 1.7672120650e+00 -3.0609010843e+00 1.7672120650e+00 3.0609010843e+00 
47200 5.4886765406e+00 6.7389247019e-05 1.7672120650e+00 -3.0609010843e+00 1.7672120650e+00 3.0609010843e+00 
47300 5.4886765414e+00 6.7322280075e-05 1.7672120650e+00 -3.0609010843e+00 1.7672120650e+00 3.0609010843e+00 
47400 5.4886765421e+00 6.7257977608e-05 1.7672120650e+00 -3.0609010843e+00 1.7672120650e+00 3.0609010843e+00 
47500 5.4886765429e+00 6.7196413528e-05 1.7672120650e+00 -3.0609010843e+00 1.7672120650e+00 3.0609010843e+00 
47600 5.4886765436e+00 6.7137651819e-05 1.7672120650e+00 -3.0609010843e+00 1.7672120650e+00 3.0609010843e+00 
47700 5.4886765443e+00 6.7081746855e-05 1.7672120650e+00 -3.0609010843e+00 1.7672120650e+00 3.0609010843e+00 
47800 5.4886765450e+00 6.7028743724e-05 1.7672120650e+00 -3.0609010843e+00 1.7672120650e+00 3.0609010843e+00 
47900 5.4886765457e+00 6.6978678556e-05 1.7672120650e+00 -3.0609010843e+00 1.7672120650e+00 3.0609010843e+00 
48000 5.4886765463e+00 6.6931578848e-05 1.7672120650e+00 -3.0609010843e+00 1.7672120650e+00 3.0609010843e+00 
48100 5.4886765470e+00 6.6887463808e-05 1.7672120650e+00 -3.0609010843e+00 1.7672120650e+00 3.0609010843e+00 
48200 5.4886765476e+00 6.6846344686e-05 1.7672120650e+00 -3.0609010843e+00 1.7672120650e+00 3.0609010843e+00 
48300 5.4886765483e+00 6.6808225115e-05 1.7672120650e+00 -3.0609010843e+00 1.7672120650e+00 3.0609010843e+00 
48400 5.4886765489e+00 6.6773101453e-05 1.7672120650e+00 -3.0609010843e+00 1.7672120650e+00 3.0609010843e+00 
48500 5.4886765495e+00 6.6740963121e-05 1.7672120650e+00 -3.0609010843e+00 1.7672120650e+00 3.0609010843e+00 
48600 5.4886765501e+00 6.6711792943e-05 1.7672120650e+00 -3.0609010843e+00 1.7672120650e+00 3.0609010843e+00 
48700 5.4886765507e+00 6.6685567486e-05 1.7672120650e+00 -3.0609010843e+00 1.7672120650e+00 3.0609010843e+00 
48800 5.4886765513e+00 6.6662257395e-05 1.7672120650e+00 -3.0609010843e+00 1.7672120650e+00 3.0609010843e+00 
48900 5.4886765519e+00 6.6641827730e-05 1.7672120650e+00 -3.0609010843e+00 1.7672120650e+00 3.0609010843e+00 
49000 5.4886765524e+00 6.6624238296e-05 1.7672120650e+00 -3.0609010843e+00 1.7672120650e+00 3.0609010843e+00 
49100 5.4886765530e+00 6.6609443967e-05 1.7672120650e+00 -3.0609010843e+00 1.7672120650e+00 3.0609010843e+00 
49200 5.4886765535e+00 6.6597395015e-05 1.7672120650e+00 -3.0609010843e+00 1.7672120650e+00 3.0609010843e+00 
49300 5.4886765541e+00 6.6588037425e-05 1.7672120650e+00 -3.0609010843e+00 1.7672120650e+00 3.0609010843e+00 
49400 5.4886765546e+00 6.6581313212e-05 1.7672120650e+00 -3.0609010843e+00 1.7672120650e+00 3.0609010843e+00 
49500 5.4886765551e+00 6.6577160723e-05 1.7672120650e+00 -3.0609010843e+00 1.7672120650e+00 3.0609010843e+00 
49600 5.4886765556e+00 6.6575514944e-05 1.7672120650e+00 -3.0609010843e+00 1.7672120650e+00 3.0609010843e+00 
49700 5.4886765561e+00 6.6576307795e-05 1.7672120650e+00 -3.0609010843e+00 1.7672120650e+00 3.0609010843e+00 
49800 5.4886765566e+00 6.6579468419e-05 1.7672120650e+00 -3.0609010843e+00 1.7672120650e+00 3.0609010843e+00 
49900 5.4886765571e+00 6.6584923462e-05 1.7672120650e+00 -3.0609010843e+00 1.7672120650e+00 3.0609010843e+00 
50000 5.4886765576e+00 6.6592597349e-05 1.7672120650e+00 -3.0609010843e+00 1.7672120650e+00 3.0609010843e+00 
50100 5.4886765581e+00 6.6602412554e-05 1.7672120650e+00 -3.0609010843e+00 1.7672120650e+00 3.0609010843e+00 
50200 5.4886765585e+00 6.6614289851e-05 1.7672120650e+00 -3.0609010843e+00 1.7672120650e+00 3.0609010843e+00 
50300 5.4886765590e+00 6.6628148578e-05 1.7672120650e+00 -3.0609010843e+00 1.7672120650e+00 3.0609010843e+00 
50400 5.4886765594e+00 6.6643906867e-05 1.7672120650e+00 -3.0609010843e+00 1.7672120650e+00 3.0609010843e+00 
50500 5.4886765599e+00 6.6661481889e-05 1.7672120650e+00 -3.0609010843e+00 1.7672120650e+00 3.0609010843e+00 
50600 5.4886765603e+00 6.6680790075e-05 1.7672120650e+00 -3.0609010843e+00 1.7672120650e+00 3.0609010843e+00 
50700 5.4886765607e+00 6.6701747339e-05 1.7672120650e+00 -3.0609010843e+00 1.7672120650e+00 3.0609010843e+00 
50800 5.4886765612e+00 6.6724269278e-05 1.7672120650e+00 -3.0609010843e+00 1.7672120650e+00 3.0609010843e+00 
50900 5.4886765616e+00 6.6748271386e-05 1.7672120650e+00 -3.0609010843e+00 1.7672120650e+00 3.0609010843e+00 
51000 5.4886765620e+00 6.6773669231e-05 1.7672120650e+00 -3.0609010843e+00 1.7672120650e+00 3.0609010843e+00 
51100 5.4886765624e+00 6.6800378654e-05 1.7672120650e+00 -3.0609010843e+00 1.7672120650e+00 3.0609010843e+00 
51200 5.4886765628e+00 6.6828315930e-05 1.7672120650e+00 -3.0609010843e+00 1.7672120650e+00 3.0609010843e+00 
51300 5.4886765631e+00 6.6857397942e-05 1.7672120650e+00 -3.0609010843e+00 1.7672120650e+00 3.0609010843e+00 
51400 5.4886765635e+00 6.6887542331e-05 1.7672120650e+00 -3.0609010843e+00 1.7672120650e+00 3.0609010843e+00 
51500 5.4886765639e+00 6.6918667654e-05 1.7672120650e+00 -3.0609010843e+00 1.7672120650e+00 3.0609010843e+00 
51600 5.4886765643e+00 6.6950693516e-05 1.7672120650e+00 -3.0609010843e+00 1.7672120650e+00 3.0609010843e+00 
51700 5.4886765646e+00 6.6983540702e-05 1.7672120650e+00 -3.0609010843e+00 1.7672120650e+00 3.0609010843e+00 
51800 5.4886765650e+00 6.7017131304e-05 1.7672120650e+00 -3.0609010843e+00 1.7672120650e+00 3.0609010843e+00 
51900 5.4886765653e+00 6.7051388834e-05 1.7672120650e+00 -3.0609010843e+00 1.7672120650e+00 3.0609010843e+00 
52000 5.4886765657e+00 6.7086238327e-05 1.7672120650e+00 -3.0609010843e+00 1.7672120650e+00 3.0609010843e+00 
52100 5.4886765660e+00 6.7121606444e-05 1.7672120650e+00 -3.0609010843e+00 1.7672120650e+00 3.0609010843e+00 
52200 5.4886765663e+00 6.7157421564e-05 1.7672120650e+00 -3.0609010843e+00 1.7672120650e+00 3.0609010843e+00 
52300 5.4886765667e+00 6.7193613856e-05 1.7672120650e+00 -3.0609010843e+00 1.7672120650e+00 3.0609010843e+00 
52400 5.4886765670e+00 6.7230115369e-05 1.7672120650e+00 -3.0609010843e+00 1.7672120650e+00 3.0609010843e+00 
52500 5.4886765673e+00 6.7266860093e-05 1.7672120650e+00 -3.0609010843e+00 1.7672120650e+00 3.0609010843e+00 
52600 5.4886765676e+00 6.7303784016e-05 1.7672120650e+00 -3.0609010843e+00 1.7672120650e+00 3.0609010843e+00 
52700 5.4886765679e+00 6.7340825183e-05 1.7672120650e+00 -3.0609010843e+00 1.7672120650e+00 3.0609010843e+00 
52800 5.4886765682e+00 6.7377923745e-05 1.7672120650e+00 -3.0609010843e+00 1.7672120650e+00 3.0609010843e+00 
52900 5.4886765685e+00 6.7415021989e-05 1.7672120650e+00 -3.0609010843e+00 1.7672120650e+00 3.0609010843e+00 
53000 5.4886765688e+00 6.7452064387e-05 1.7672120650e+00 -3.0609010843e+00 1.7672120650e+00 3.0609010843e+00 
53100 5.4886765691e+00 6.7488997608e-05 1.7672120650e+00 -3.0609010843e+00 1.7672120650e+00 3.0609010843e+00 
53200 5.4886765694e+00 6.7525770554e-05 1.7672120650e+00 -3.0609010843e+00 1.7672120650e+00 3.0609010843e+00 
53300 5.4886765696e+00 6.7562334364e-05 1.7672120650e+00 -3.0609010843e+00 1.7672120650e+00 3.0609010843e+00 
53400 5.4886765699e+00 6.7598642432e-05 1.7672120650e+00 -3.0609010843e+00 1.7672120650e+00 3.0609010843e+00 
53500 5.4886765702e+00 6.7634650410e-05 1.7672120650e+00 -3.0609010843e+00 1.7672120650e+00 3.0609010843e+00 
53600 5.4886765705e+00 6.7670316208e-05 1.7672120650e+00 -3.0609010843e+00 1.7672120650e+00 3.0609010843e+00 
53700 5.4886765707e+00 6.7705599986e-05 1.7672120650e+00 -3.0609010843e+00 1.7672120650e+00 3.0609010843e+00 
53800 5.4886765710e+00 6.7740464152e-05 1.7672120650e+00 -3.0609010843e+00 1.7672120650e+00 3.0609010843e+00 
53900 5.4886765712e+00 6.7774873343e-05 1.7672120650e+00 -3.0609010843e+00 1.7672120650e+00 3.0609010843e+00 
54000 5.4886765715e+00 6.7808794405e-05 1.7672120650e+00 -3.0609010843e+00 1.7672120650e+00 3.0609010843e+00 
54100 5.4886765717e+00 6.7842196374e-05 1.7672120650e+00 -3.0609010843e+00 1.7672120650e+00 3.0609010843e+00 
54200 5.4886765719e+00 6.7875050453e-05 1.7672120650e+00 -3.0609010843e+00 1.7672120650e+00 3.0609010843e+00 
54300 5.4886765722e+00 6.7907329975e-05 1.7672120650e+00 -3.0609010843e+00 1.7672120650e+00 3.0609010843e+00 
54400 5.4886765724e+00 6.7939010378e-05 1.7672120650e+00 -3.0609010843e+00 1.7672120650e+00 3.0609010843e+00 
54500 5.4886765726e+00 6.7970069165e-05 1.7672120650e+00 -3.0609010843e+00 1.7672120650e+00 3.0609010843e+00 
54600 5.4886765729e+00 6.8000485867e-05 1.7672120650e+00 -3.0609010843e+00 1.7672120650e+00 3.0609010843e+00 
54700 5.4886765731e+00 6.8030242001e-05 1.7672120650e+00 -3.0609010843e+00 1.7672120650e+00 3.0609010843e+00 
54800 5.4886765733e+00 6.8059321023e-05 1.7672120650e+00 -3.0609010843e+00 1.7672120650e+00 3.0609010843e+00 
54900 5.4886765735e+00 6.8087708295e-05 1.7672120650e+00 -3.0609010843e+00 1.7672120650e+00 3.0609010843e+00 
55000 5.4886765737e+00 6.8115391016e-05 1.7672120650e+00 -3.0609010843e+00 1.7672120650e+00 3.0609010843e+00 
55100 5.4886765739e+00 6.8142358190e-05 1.7672120650e+00 -3.0609010843e+00 1.7672120650e+00 3.0609010843e+00 
55200 5.4886765741e+00 6.8168600568e-05 1.7672120650e+00 -3.0609010843e+00 1.7672120650e+00 3.0609010843e+00 
55300 5.4886765743e+00 6.8194110591e-05 1.7672120650e+00 -3.0609010843e+00 1.7672120650e+00 3.0609010843e+00 
55400 5.4886765745e+00 6.8218882343e-05 1.7672120650e+00 -3.0609010843e+00 1.7672120650e+00 3.0609010843e+00 
55500 5.4886765747e+00 6.8242911489e-05 1.7672120650e+00 -3.0609010843e+00 1.7672120650e+00 3.0609010843e+00 
55600 5.4886765749e+00 6.8266195224e-05 1.7672120650e+00 -3.0609010843e+00 1.7672120650e+00 3.0609010843e+00 
55700 5.4886765751e+00 6.8288732211e-05 1.7672120650e+00 -3.0609010843e+00 1.7672120650e+00 3.0609010843e+00 
55800 5.4886765753e+00 6.8310522524e-05 1.7672120650e+00 -3.0609010843e+00 1.7672120650e+00 3.0609010843e+00 
55900 5.4886765755e+00 6.8331567592e-05 1.7672120650e+00 -3.0609010843e+00 1.7672120650e+00 3.0609010843e+00 
56000 5.4886765757e+00 6.8351870138e-05 1.7672120650e+00 -3.0609010843e+00 1.7672120650e+00 3.0609010843e+00 
56100 5.4886765758e+00 6.8371434119e-05 1.7672120650e+00 -3.0609010843e+00 1.7672120650e+00 3.0609010843e+00 
56200 5.4886765760e+00 6.8390264670e-05 1.7672120650e+00 -3.0609010843e+00 1.7672120650e+00 3.0609010843e+00 
56300 5.4886765762e+00 6.8408368041e-05 1.7672120650e+00 -3.0609010843e+00 1.7672120650e+00 3.0609010843e+00 
56400 5.4886765763e+00 6.8425751542e-05 1.7672120650e+00 -3.0609010843e+00 1.7672120650e+00 3.0609010843e+00 
56500 5.4886765765e+00 6.8442423481e-05 1.7672120650e+00 -3.0609010843e+00 1.7672120650e+00 3.0609010843e+00 
56600 5.4886765767e+00 6.8458393108e-05 1.7672120650e+00 -3.0609010843e+00 1.7672120650e+00 3.0609010843e+00 
56700 5.4886765768e+00 6.8473670555e-05 1.7672120650e+00 -3.0609010843e+00 1.7672120650e+00 3.0609010843e+00 
56800 5.4886765770e+00 6.8488266783e-05 1.7672120650e+00 -3.0609010843e+00 1.7672120650e+00 3.0609010843e+00 
56900 5.4886765771e+00 6.8502193519e-05 1.7672120650e+00 -3.0609010843e+00 1.7672120650e+00 3.0609010843e+00 
57000 5.4886765773e+00 6.8515463209e-05 1.7672120650e+00 -3.0609010843e+00 1.7672120650e+00 3.0609010843e+00 
57100 5.4886765774e+00 6.8528088953e-05 1.7672120650e+00 -3.0609010843e+00 1.7672120650e+00 3.0609010843e+00 
57200 5.4886765776e+00 6.8540084461e-05 1.7672120650e+00 -3.0609010843e+00 1.7672120650e+00 3.0609010843e+00 
57300 5.4886765777e+00 6.8551463993e-05 1.7672120650e+00 -3.0609010843e+00 1.7672120650e+00 3.0609010843e+00 
57400 5.4886765779e+00 6.8562242314e-05 1.7672120650e+00 -3.0609010843e+00 1.7672120650e+00 3.0609010843e+00 
57500 5.4886765780e+00 6.8572434637e-05 1.7672120650e+00 -3.0609010843e+00 1.7672120650e+00 3.0609010843e+00 
57600 5.4886765782e+00 6.8582056576e-05 1.7672120650e+00 -3.0609010843e+00 1.7672120650e+00 3.0609010843e+00 
57700 5.4886765783e+00 6.8591124100e-05 1.7672120650e+00 -3.0609010843e+00 1.7672120650e+00 3.0609010843e+00 
57800 5.4886765784e+00 6.8599653485e-05 1.7672120650e+00 -3.0609010843e+00 1.7672120650e+00 3.0609010843e+00 
57900 5.4886765786e+00 6.8607661266e-05 1.7672120650e+00 -3.0609010843e+00 1.7672120650e+00 3.0609010843e+00 
58000 5.4886765787e+00 6.8615164200e-05 1.7672120650e+00 -3.0609010843e+00 1.7672120650e+00 3.0609010843e+00 
58100 5.4886765788e+00 6.8622179215e-05 1.7672120650e+00 -3.0609010843e+00 1.7672120650e+00 3.0609010843e+00 
58200 5.4886765790e+00 6.8628723374e-05 1.7672120650e+00 -3.0609010843e+00 1.7672120650e+00 3.0609010843e+00 
58300 5.4886765791e+00 6.8634813834e-05 1.7672120650e+00 -3.0609010843e+00 1.7672120650e+00 3.0609010843e+00 
58400 5.4886765792e+00 6.8640467811e-05 1.7672120650e+00 -3.0609010843e+00 1.7672120650e+00 3.0609010843e+00 
58500 5.4886765793e+00 6.8645702537e-05 1.7672120650e+00 -3.0609010843e+00 1.7672120650e+00 3.0609010843e+00 
58600 5.4886765794e+00 6.8650535230e-05 1.7672120650e+00 -3.0609010843e+00 1.7672120650e+00 3.0609010843e+00 
58700 5.4886765796e+00 6.8654983059e-05 1.7672120650e+00 -3.0609010843e+00 1.7672120650e+00 3.0609010843e+00 
58800 5.4886765797e+00 6.8659063112e-05 1.7672120650e+00 -3.0609010843e+00 1.7672120650e+00 3.0609010843e+00 
58900 5.4886765798e+00 6.8662792369e-05 1.7672120650e+00 -3.0609010843e+00 1.7672120650e+00 3.0609010843e+00 
59000 5.4886765799e+00 6.8666187663e-05 1.7672120650e+00 -3.0609010843e+00 1.7672120650e+00 3.0609010843e+00 
59100 5.4886765800e+00 6.8669265666e-05 1.7672120650e+00 -3.0609010843e+00 1.7672120650e+00 3.0609010843e+00 
59200 5.4886765801e+00 6.8672042850e-05 1.7672120650e+00 -3.0609010843e+00 1.7672120650e+00 3.0609010843e+00 
59300 5.4886765802e+00 6.8674535475e-05 1.7672120650e+00 -3.0609010843e+00 1.7672120650e+00 3.0609010843e+00 
59400 5.4886765803e+00 6.8676759559e-05 1.7672120650e+00 -3.0609010843e+00 1.7672120650e+00 3.0609010843e+00 
59500 5.4886765804e+00 6.8678730855e-05 1.7672120650e+00 -3.0609010843e+00 1.7672120650e+00 3.0609010843e+00 
59600 5.4886765805e+00 6.8680464838e-05 1.7672120650e+00 -3.0609010843e+00 1.7672120650e+00 3.0609010843e+00 
59700 5.4886765806e+00 6.8681976678e-05 1.7672120650e+00 -3.0609010843e+00 1.7672120650e+00 3.0609010843e+00 
59800 5.4886765807e+00 6.8683281233e-05 1.7672120650e+00 -3.0609010843e+00 1.7672120650e+00 3.0609010843e+00 
59900 5.4886765808e+00 6.8684393023e-05 1.7672120650e+00 -3.0609010843e+00 1.7672120650e+00 3.0609010843e+00 
60000 5.4886765809e+00 6.8685326223e-05 1.7672120650e+00 -3.0609010843e+00 1.7672120650e+00 3.0609010843e+00 
60100 5.4886765810e+00 6.8686094649e-05 1.7672120650e+00 -3.0609010843e+00 1.7672120650e+00 3.0609010843e+00 
60200 5.4886765811e+00 6.8686711740e-05 1.7672120650e+00 -3.0609010843e+00 1.7672120650e+00 3.0609010843e+00 
60300 5.4886765812e+00 6.8687190557e-05 1.7672120650e+00 -3.0609010843e+00 1.7672120650e+00 3.0609010843e+00 
60400 5.4886765813e+00 6.8687543768e-05 1.7672120650e+00 -3.0609010843e+00 1.7672120650e+00 3.0609010843e+00 
60500 5.4886765814e+00 6.8687783640e-05 1.7672120650e+00 -3.0609010843e+00 1.7672120650e+00 3.0609010843e+00 
60600 5.4886765815e+00 6.8687922036e-05 1.7672120650e+00 -3.0609010843e+00 1.7672120650e+00 3.0609010843e+00 
60700 5.4886765815e+00 6.8687970406e-05 1.7672120650e+00 -3.0609010843e+00 1.7672120650e+00 3.0609010843e+00 
60800 5.4886765816e+00 6.8687939781e-05 1.7672120650e+00 -3.0609010843e+00 1.7672120650e+00 3.0609010843e+00 
60900 5.4886765817e+00 6.8687840776e-05 1.7672120650e+00 -3.0609010843e+00 1.7672120650e+00 3.0609010843e+00 
61000 5.4886765818e+00 6.8687683582e-05 1.7672120650e+00 -3.0609010843e+00 1.7672120650e+00 3.0609010843e+00 
61100 5.4886765819e+00 6.8687477962e-05 1.7672120650e+00 -3.0609010843e+00 1.7672120650e+00 3.0609010843e+00 
61200 5.4886765820e+00 6.8687233260e-05 1.7672120650e+00 -3.0609010843e+00 1.7672120650e+00 3.0609010843e+00 
61300 5.4886765820e+00 6.8686958393e-05 1.7672120650e+00 -3.0609010843e+00 1.7672120650e+00 3.0609010843e+00 
61400 5.4886765821e+00 6.8686661855e-05 1.7672120650e+00 -3.0609010843e+00 1.7672120650e+00 3.0609010843e+00 
61500 5.4886765822e+00 6.8686351720e-05 1.7672120650e+00 -3.0609010843e+00 1.7672120650e+00 3.0609010843e+00 
61600 5.4886765823e+00 6.8686035642e-05 1.7672120650e+00 -3.0609010843e+00 1.7672120650e+00 3.0609010843e+00 
61700 5.4886765823e+00 6.8685720860e-05 1.7672120650e+00 -3.0609010843e+00 1.7672120650e+00 3.0609010843e+00 
61800 5.4886765824e+00 6.8685414202e-05 1.7672120650e+00 -3.0609010843e+00 1.7672120650e+00 3.0609010843e+00 
61900 5.4886765825e+00 6.8685122095e-05 1.7672120650e+00 -3.0609010843e+00 1.7672120650e+00 3.0609010843e+00 
62000 5.4886765825e+00 6.8684850560e-05 1.7672120650e+00 -3.0609010843e+00 1.7672120650e+00 3.0609010843e+00 
62100 5.4886765826e+00 6.8684605228e-05 1.7672120650e+00 -3.0609010843e+00 1.7672120650e+00 3.0609010843e+00 
62200 5.4886765827e+00 6.8684391340e-05 1.7672120650e+00 -3.0609010843e+00 1.7672120650e+00 3.0609010843e+00 
62300 5.4886765827e+00 6.8684213758e-05 1.7672120650e+00 -3.0609010843e+00 1.7672120650e+00 3.0609010843e+00 
62400 5.4886765828e+00 6.8684076972e-05 1.7672120650e+00 -3.0609010843e+00 1.7672120650e+00 3.0609010843e+00 
62500 5.4886765829e+00 6.8683985106e-05 1.7672120650e+00 -3.0609010843e+00 1.7672120650e+00 3.0609010843e+00 
62600 5.4886765829e+00 6.8683941927e-05 1.7672120650e+00 -3.0609010843e+00 1.7672120650e+00 3.0609010843e+00 
62700 5.4886765830e+00 6.8683950860e-05 1.7672120650e+00 -3.0609010843e+00 1.7672120650e+00 3.0609010843e+00 
62800 5.4886765831e+00 6.8684014985e-05 1.7672120650e+00 -3.0609010843e+00 1.7672120650e+00 3.0609010843e+00 
62900 5.4886765831e+00 6.8684137059e-05 1.7672120650e+00 -3.0609010843e+00 1.7672120650e+00 3.0609010843e+00 
63000 5.4886765832e+00 6.8684319516e-05 1.7672120650e+00 -3.0609010843e+00 1.7672120650e+00 3.0609010843e+00 
63100 5.4886765832e+00 6.8684564484e-05 1.7672120650e+00 -3.0609010843e+00 1.7672120650e+00 3.0609010843e+00 
63200 5.4886765833e+00 6.8684873793e-05 1.7672120650e+00 -3.0609010843e+00 1.7672120650e+00 3.0609010843e+00 
63300 5.4886765834e+00 6.8685248980e-05 1.7672120650e+00 -3.0609010843e+00 1.7672120650e+00 3.0609010843e+00 
63400 5.4886765834e+00 6.8685691307e-05 1.7672120650e+00 -3.0609010843e+00 1.7672120650e+00 3.0609010843e+00 
63500 5.4886765835e+00 6.8686201770e-05 1.7672120650e+00 -3.0609010843e+00 1.7672120650e+00 3.0609010843e+00 
63600 5.4886765835e+00 6.8686781105e-05 1.7672120650e+00 -3.0609010843e+00 1.7672120650e+00 3.0609010843e+00 
63700 5.4886765836e+00 6.8687429803e-05 1.7672120650e+00 -3.0609010843e+00 1.7672120650e+00 3.0609010843e+00 
63800 5.4886765836e+00 6.8688148122e-05 1.7672120650e+00 -3.0609010843e+00 1.7672120650e+00 3.0609010843e+00 
63900 5.4886765837e+00 6.8688936093e-05 1.7672120650e+00 -3.0609010843e+00 1.7672120650e+00 3.0609010843e+00 
64000 5.4886765837e+00 6.8689793535e-05 1.7672120650e+00 -3.0609010843e+00 1.7672120650e+00 3.0609010843e+00 
64100 5.4886765838e+00 6.8690720062e-05 1.7672120650e+00 -3.0609010843e+00 1.7672120650e+00 3.0609010843e+00 
64200 5.4886765838e+00 6.8691715096e-05 1.7672120650e+00 -3.0609010843e+00 1.7672120650e+00 3.0609010843e+00 
64300 5.4886765839e+00 6.8692516680e-05 1.7672120650e+00 -3.0609010843e+00 1.7672120650e+00 3.0609010843e+00 
64300 5.4886765839e+00 6.8692516680e-05 1.7672120650e+00 -3.0609010843e+00 1.7672120650e+00 3.0609010843e+00 
