# step Hamiltonian StressXX CellTensor1 CellTensor2 CellTensor3 CellTensor4 
0 5.2940539154e+00 1.9969210514e-01 2.5594246509e+00 -4.4330535334e+00 2.5594246509e+00 4.4330535334e+00 
100 5.2973404891e+00 2.0993170642e-01 2.5594246509e+00 -4.4330535334e+00 2.5594246509e+00 4.4330535334e+00 
200 5.3031020650e+00 2.1971047424e-01 2.5553245975e+00 -4.4259520327e+00 2.5553245975e+00 4.4259520327e+00 
300 5.3116308421e+00 2.2985491039e-01 2.5510267333e+00 -4.4185079135e+00 2.5510267333e+00 4.4185079135e+00 
400 5.3225598168e+00 2.4033208422e-01 2.5465229166e+00 -4.4107070742e+00 2.5465229166e+00 4.4107070742e+00 
500 5.3354548787e+00 2.5100165356e-01 2.5418055484e+00 -4.4025363528e+00 2.5418055484e+00 4.4025363528e+00 
600 5.3497883594e+00 2.6155522868e-01 2.5368696824e+00 -4.3939871821e+00 2.5368696824e+00 4.3939871821e+00 
700 5.3649015683e+00 2.7143048641e-01 2.5317163537e+00 -4.3850613550e+00 2.5317163537e+00 4.3850613550e+00 
800 5.3799653896e+00 2.7971870030e-01 2.5263576472e+00 -4.3757798031e+00 2.5263576472e+00 4.3757798031e+00 
900 5.3939697251e+00 2.8513852411e-01 2.5208236660e+00 -4.3661946664e+00 2.5208236660e+00 4.3661946664e+00 
1000 5.4058044172e+00 2.8623030647e-01 2.5151701237e+00 -4.3564024440e+00 2.5151701237e+00 4.3564024440e+00 
1100 5.4144973011e+00 2.8192337684e-01 2.5094821956e+00 -4.3465506634e+00 2.5094821956e+00 4.3465506634e+00 
1200 5.4195675608e+00 2.7231730144e-01 2.5038671335e+00 -4.3368250906e+00 2.5038671335e+00 4.3368250906e+00 
1300 5.4212520714e+00 2.5899703791e-01 2.4984311718e+00 -4.3274097288e+00 2.4984311718e+00 4.3274097288e+00 
1400 5.4203562785e+00 2.4434016423e-01 2.4932497743e+00 -4.3184352851e+00 2.4932497743e+00 4.3184352851e+00 
1500 5.4178318942e+00 2.3035083087e-01 2.4883513487e+00 -4.3099509630e+00 2.4883513487e+00 4.3099509630e+00 
1600 5.4144349773e+00 2.1803506253e-01 2.4837242030e+00 -4.3019365115e+00 2.4837242030e+00 4.3019365115e+00 
1700 5.4106331386e+00 2.0753696807e-01 2.4793362212e+00 -4.2943363042e+00 2.4793362212e+00 4.2943363042e+00 
1800 5.4066706784e+00 1.9856440323e-01 2.4751520675e+00 -4.2870891373e+00 2.4751520675e+00 4.2870891373e+00 
1900 5.4026616529e+00 1.9071891357e-01 2.4711419970e+00 -4.2801434915e+00 2.4711419970e+00 4.2801434915e+00 
2000 5.3986555318e+00 1.8365128825e-01 2.4672840803e+00 -4.2734613838e+00 2.4672840803e+00 4.2734613838e+00 
2100 5.3946727700e+00 1.7710312005e-01 2.4635632877e+00 -4.2670167819e+00 2.4635632877e+00 4.2670167819e+00 
2200 5.3907215877e+00 1.7089923903e-01 2.4599697127e+00 -4.2607925274e+00 2.4599697127e+00 4.2607925274e+00 
2300 5.3868052859e+00 1.6492692967e-01 2.4564969268e+00 -4.2547774858e+00 2.4564969268e+00 4.2547774858e+00 
2400 5.3829252870e+00 1.5911617898e-01 2.4531407387e+00 -4.2489643975e+00 2.4531407387e+00 4.2489643975e+00 
2500 5.3790823541e+00 1.5342472625e-01 2.4498983427e+00 -4.2433484029e+00 2.4498983427e+00 4.2433484029e+00 
2600 5.3752770583e+00 1.4782779869e-01 2.4467677638e+00 -4.2379260812e+00 2.4467677638e+00 4.2379260812e+00 
2700 5.3715099409e+00 1.4231141122e-01 2.4437475069e+00 -4.2326948429e+00 2.4437475069e+00 4.2326948429e+00 
2800 5.3677815556e+00 1.3686811665e-01 2.4408363404e+00 -4.2276525546e+00 2.4408363404e+00 4.2276525546e+00 
2900 5.3640924647e+00 1.3149435751e-01 2.4380331643e+00 -4.2227973111e+00 2.4380331643e+00 4.2227973111e+00 
3000 5.3604432194e+00 1.2618883574e-01 2.4353369317e+00 -4.2181272993e+00 2.4353369317e+00 4.2181272993e+00 
3100 5.3568343393e+00 1.2095151901e-01 2.4327466035e+00 -4.2136407193e+00 2.4327466035e+00 4.2136407193e+00 
3200 5.3532662930e+00 1.1578304129e-01 2.4302611227e+00 -4.2093357403e+00 2.4302611227e+00 4.2093357403e+00 
3300 5.3497394834e+00 1.1068434591e-01 2.4278794012e+00 -4.2052104774e+00 2.4278794012e+00 4.2052104774e+00 
3400 5.3462542372e+00 1.0565647720e-01 2.4256003133e+00 -4.2012629815e+00 2.4256003133e+00 4.2012629815e+00 
3500 5.3428107985e+00 1.0070046246e-01 2.4234226946e+00 -4.1974912352e+00 2.4234226946e+00 4.1974912352e+00 
3600 5.3394093262e+00 9.5817248861e-02 2.4213453421e+00 -4.1938931553e+00 2.4213453421e+00 4.1938931553e+00 
3700 5.3360498938e+00 9.1007673062e-02 2.4193670166e+00 -4.1904665948e+00 2.4193670166e+00 4.1904665948e+00 
3800 5.3327324921e+00 8.6272450403e-02 2.4174864447e+00 -4.1872093488e+00 2.4174864447e+00 4.1872093488e+00 
3900 5.3294570334e+00 8.1612175260e-02 2.4157023224e+00 -4.1841191583e+00 2.4157023224e+00 4.1841191583e+00 
4000 5.3262233573e+00 7.7027327638e-02 2.4140133175e+00 -4.1811937161e+00 2.4140133175e+00 4.1811937161e+00 
4100 5.3230312368e+00 7.2518282924e-02 2.4124180729e+00 -4.1784306713e+00 2.4124180729e+00 4.1784306713e+00 
4200 5.3198803861e+00 6.8085322955e-02 2.4109152084e+00 -4.1758276337e+00 2.4109152084e+00 4.1758276337e+00 
4300 5.3167704675e+00 6.3728647327e-02 2.4095033240e+00 -4.1733821781e+00 2.4095033240e+00 4.1733821781e+00 
4400 5.3137010995e+00 5.9448384279e-02 2.4081810014e+00 -4.1710918482e+00 2.4081810014e+00 4.1710918482e+00 
4500 5.3106718639e+00 5.5244600812e-02 2.4069468063e+00 -4.1689541596e+00 2.4069468063e+00 4.1689541596e+00 
4600 5.3076823135e+00 5.1117311870e-02 2.4057992901e+00 -4.1669666032e+00 2.4057992901e+00 4.1669666032e+00 
4700 5.3047319787e+00 4.7066488488e-02 2.4047369914e+00 -4.1651266479e+00 2.4047369914e+00 4.1651266479e+00 
4800 5.3018203744e+00 4.3092064912e-02 2.4037584375e+00 -4.1634317429e+00 2.4037584375e+00 4.1634317429e+00 
4900 5.2989470060e+00 3.9193944721e-02 2.4028621456e+00 -4.1618793197e+00 2.4028621456e+00 4.1618793197e+00 
5000 5.2961113748e+00 3.5372005995e-02 2.4020466238e+00 -4.1604667946e+00 2.4020466238e+00 4.1604667946e+00 
5100 5.2933129836e+00 3.1626105594e-02 2.4013103725e+00 -4.1591915700e+00 2.4013103725e+00 4.1591915700e+00 
5200 5.2905513408e+00 2.7956082625e-02 2.4006518850e+00 -4.1580510361e+00 2.4006518850e+00 4.1580510361e+00 
5300 5.2878259647e+00 2.4361761166e-02 2.4000696483e+00 -4.1570425726e+00 2.4000696483e+00 4.1570425726e+00 
5400 5.2851363870e+00 2.0842952314e-02 2.3995621442e+00 -4.1561635497e+00 2.3995621442e+00 4.1561635497e+00 
5500 5.2824821558e+00 1.7399455627e-02 2.3991278499e+00 -4.1554113299e+00 2.3991278499e+00 4.1554113299e+00 
5600 5.2798628379e+00 1.4031060036e-02 2.3987652386e+00 -4.1547832687e+00 2.3987652386e+00 4.1547832687e+00 
5700 5.2772780213e+00 1.0737544281e-02 2.3984727803e+00 -4.1542767161e+00 2.3984727803e+00 4.1542767161e+00 
5800 5.2747273164e+00 7.5186769290e-03 2.3982489426e+00 -4.1538890177e+00 2.3982489426e+00 4.1538890177e+00 
5900 5.2722103572e+00 4.3742160440e-03 2.3980921908e+00 -4.1536175157e+00 2.3980921908e+00 4.1536175157e+00 
6000 5.2697268022e+00 1.3039085423e-03 2.3980009894e+00 -4.1534595502e+00 2.3980009894e+00 4.1534595502e+00 
6100 5.2672763348e+00 -1.6925107012e-03 2.3979738020e+00 -4.1534124603e+00 2.3979738020e+00 4.1534124603e+00 
6200 5.2648586630e+00 -4.6153199589e-03 2.3980090925e+00 -4.1534735853e+00 2.3980090925e+00 4.1534735853e+00 
6300 5.2624735195e+00 -7.4648119232e-03 2.3981053255e+00 -4.1536402657e+00 2.3981053255e+00 4.1536402657e+00 
6400 5.2601206609e+00 -1.0241295106e-02 2.3982609670e+00 -4.1539098446e+00 2.3982609670e+00 4.1539098446e+00 
6500 5.2577998668e+00 -1.2945095329e-02 2.3984744852e+00 -4.1542796690e+00 2.3984744852e+00 4.1542796690e+00 
6600 5.2555109386e+00 -1.5576557271e-02 2.3987443512e+00 -4.1547470907e+00 2.3987443512e+00 4.1547470907e+00 
6700 5.2532536986e+00 -1.8136046039e-02 2.3990690400e+00 -4.1553094682e+00 2.3990690400e+00 4.1553094682e+00 
6800 5.2510279878e+00 -2.0623948734e-02 2.3994470309e+00 -4.1559641676e+00 2.3994470309e+00 4.1559641676e+00 
6900 5.2488336648e+00 -2.3040675993e-02 2.3998768083e+00 -4.1567085639e+00 2.3998768083e+00 4.1567085639e+00 
7000 5.2466706036e+00 -2.5386663462e-02 2.4003568631e+00 -4.1575400431e+00 2.4003568631e+00 4.1575400431e+00 
7100 5.2445386917e+00 -2.7662373208e-02 2.4008856927e+00 -4.1584560028e+00 2.4008856927e+00 4.1584560028e+00 
7200 5.2424378282e+00 -2.9868295024e-02 2.4014618025e+00 -4.1594538544e+00 2.4014618025e+00 4.1594538544e+00 
7300 5.2403679215e+00 -3.2004947621e-02 2.4020837067e+00 -4.1605310241e+00 2.4020837067e+00 4.1605310241e+00 
7400 5.2383288874e+00 -3.4072879692e-02 2.4027499289e+00 -4.1616849547e+00 2.4027499289e+00 4.1616849547e+00 
7500 5.2363206464e+00 -3.6072670830e-02 2.4034590030e+00 -4.1629131071e+00 2.4034590030e+00 4.1629131071e+00 
7600 5.2343431223e+00 -3.8004932293e-02 2.4042094744e+00 -4.1642129617e+00 2.4042094744e+00 4.1642129617e+00 
7700 5.2323962391e+00 -3.9870307608e-02 2.4049999008e+00 -4.1655820205e+00 2.4049999008e+00 4.1655820205e+00 
7800 5.2304799196e+00 -4.1669472990e-02 2.4058288530e+00 -4.1670178077e+00 2.4058288530e+00 4.1670178077e+00 
7900 5.2285940831e+00 -4.3403137605e-02 2.4066949157e+00 -4.1685178723e+00 2.4066949157e+00 4.1685178723e+00 
8000 5.2267386432e+00 -4.5072043630e-02 2.4075966886e+00 -4.1700797888e+00 2.4075966886e+00 4.1700797888e+00 
8100 5.2249135062e+00 -4.6676966148e-02 2.4085327873e+00 -4.1717011594e+00 2.4085327873e+00 4.1717011594e+00 
8200 5.2231185690e+00 -4.8218712852e-02 2.4095018440e+00 -4.1733796147e+00 2.4095018440e+00 4.1733796147e+00 
8300 5.2213537177e+00 -4.9698123573e-02 2.4105025083e+00 -4.1751128161e+00 2.4105025083e+00 4.1751128161e+00 
8400 5.2196188257e+00 -5.1116069626e-02 2.4115334482e+00 -4.1768984564e+00 2.4115334482e+00 4.1768984564e+00 
8500 5.2179137525e+00 -5.2473452989e-02 2.4125933508e+00 -4.1787342616e+00 2.4125933508e+00 4.1787342616e+00 
8600 5.2162383426e+00 -5.3771205314e-02 2.4136809231e+00 -4.1806179920e+00 2.4136809231e+00 4.1806179920e+00 
8700 5.2145924238e+00 -5.5010286783e-02 2.4147948926e+00 -4.1825474438e+00 2.4147948926e+00 4.1825474438e+00 
8800 5.2129758069e+00 -5.6191684812e-02 2.4159340082e+00 -4.1845204499e+00 2.4159340082e+00 4.1845204499e+00 
8900 5.2113882842e+00 -5.7316412618e-02 2.4170970406e+00 -4.1865348811e+00 2.4170970406e+00 4.1865348811e+00 
9000 5.2098296295e+00 -5.8385507660e-02 2.4182827831e+00 -4.1885886474e+00 2.4182827831e+00 4.1885886474e+00 
9100 5.2082995973e+00 -5.9400029957e-02 2.4194900522e+00 -4.1906796989e+00 2.4194900522e+00 4.1906796989e+00 
9200 5.2067979226e+00 -6.0361060315e-02 2.4207176880e+00 -4.1928060264e+00 2.4207176880e+00 4.1928060264e+00 
9300 5.2053243204e+00 -6.1269698450e-02 2.4219645546e+00 -4.1949656626e+00 2.4219645546e+00 4.1949656626e+00 
9400 5.2038784862e+00 -6.2127061043e-02 2.4232295406e+00 -4.1971566828e+00 2.4232295406e+00 4.1971566828e+00 
9500 5.2024600959e+00 -6.2934279726e-02 2.4245115598e+00 -4.1993772052e+00 2.4245115598e+00 4.1993772052e+00 
9600 5.2010688061e+00 -6.3692499021e-02 2.4258095510e+00 -4.2016253918e+00 2.4258095510e+00 4.2016253918e+00 
9700 5.1997042546e+00 -6.4402874239e-02 2.4271224785e+00 -4.2038994489e+00 2.4271224785e+00 4.2038994489e+00 
9800 5.1983660607e+00 -6.5066569361e-02 2.4284493324e+00 -4.2061976273e+00 2.4284493324e+00 4.2061976273e+00 
9900 5.1970538265e+00 -6.5684754904e-02 2.4297891287e+00 -4.2085182226e+00 2.4297891287e+00 4.2085182226e+00 
10000 5.1957671369e+00 -6.6258605788e-02 2.4311409094e+00 -4.2108595754e+00 2.4311409094e+00 4.2108595754e+00 
10100 5.1945055613e+00 -6.6789299229e-02 2.4325037426e+00 -4.2132200718e+00 2.4325037426e+00 4.2132200718e+00 
10200 5.1932686540e+00 -6.7278012642e-02 2.4338767226e+00 -4.2155981429e+00 2.4338767226e+00 4.2155981429e+00 
10300 5.1920559554e+00 -6.7725921596e-02 2.4352589696e+00 -4.2179922649e+00 2.4352589696e+00 4.2179922649e+00 
10400 5.1908669934e+00 -6.8134197807e-02 2.4366496300e+00 -4.2204009594e+00 2.4366496300e+00 4.2204009594e+00 
10500 5.1897012842e+00 -6.8504007195e-02 2.4380478759e+00 -4.2228227924e+00 2.4380478759e+00 4.2228227924e+00 
10600 5.1885583340e+00 -6.8836508002e-02 2.4394529054e+00 -4.2252563748e+00 2.4394529054e+00 4.2252563748e+00 
10700 5.1874376398e+00 -6.9132848987e-02 2.4408639419e+00 -4.2277003617e+00 2.4408639419e+00 4.2277003617e+00 
10800 5.1863386911e+00 -6.9394167697e-02 2.4422802340e+00 -4.2301534517e+00 2.4422802340e+00 4.2301534517e+00 
10900 5.1852609709e+00 -6.9621588832e-02 2.4437010557e+00 -4.2326143869e+00 2.4437010557e+00 4.2326143869e+00 
11000 5.1842039574e+00 -6.9816222697e-02 2.4451257052e+00 -4.2350819522e+00 2.4451257052e+00 4.2350819522e+00 
11100 5.1831671247e+00 -6.9979163747e-02 2.4465535052e+00 -4.2375549745e+00 2.4465535052e+00 4.2375549745e+00 
11200 5.1821499448e+00 -7.0111489242e-02 2.4479838025e+00 -4.2400323221e+00 2.4479838025e+00 4.2400323221e+00 
11300 5.1811518886e+00 -7.0214257991e-02 2.4494159672e+00 -4.2425129041e+00 2.4494159672e+00 4.2425129041e+00 
11400 5.1801724268e+00 -7.0288509212e-02 2.4508493927e+00 -4.2449956698e+00 2.4508493927e+00 4.2449956698e+00 
11500 5.1792110318e+00 -7.0335261491e-02 2.4522834946e+00 -4.2474796073e+00 2.4522834946e+00 4.2474796073e+00 
11600 5.1782671781e+00 -7.0355511843e-02 2.4537177112e+00 -4.2499637433e+00 2.4537177112e+00 4.2499637433e+00 
11700 5.1773403443e+00 -7.0350234889e-02 2.4551515020e+00 -4.2524471418e+00 2.4551515020e+00 4.2524471418e+00 
11800 5.1764300131e+00 -7.0320382124e-02 2.4565843479e+00 -4.2549289036e+00 2.4565843479e+00 4.2549289036e+00 
11900 5.1755356734e+00 -7.0266881299e-02 2.4580157501e+00 -4.2574081650e+00 2.4580157501e+00 4.2574081650e+00 
12000 5.1746568204e+00 -7.0190635893e-02 2.4594452301e+00 -4.2598840970e+00 2.4594452301e+00 4.2598840970e+00 
12100 5.1737929571e+00 -7.0092524691e-02 2.4608723288e+00 -4.2623559044e+00 2.4608723288e+00 4.2623559044e+00 
12200 5.1729435944e+00 -6.9973401452e-02 2.4622966059e+00 -4.2648228247e+00 2.4622966059e+00 4.2648228247e+00 
12300 5.1721082528e+00 -6.9834094671e-02 2.4637176395e+00 -4.2672841272e+00 2.4637176395e+00 4.2672841272e+00 
12400 5.1712864621e+00 -6.9675407426e-02 2.4651350257e+00 -4.2697391120e+00 2.4651350257e+00 4.2697391120e+00 
12500 5.1704777627e+00 -6.9498117311e-02 2.4665483775e+00 -4.2721871092e+00 2.4665483775e+00 4.2721871092e+00 
12600 5.1696817058e+00 -6.9302976447e-02 2.4679573247e+00 -4.2746274773e+00 2.4679573247e+00 4.2746274773e+00 
12700 5.1688978541e+00 -6.9090711566e-02 2.4693615132e+00 -4.2770596031e+00 2.4693615132e+00 4.2770596031e+00 
12800 5.1681257818e+00 -6.8862024175e-02 2.4707606042e+00 -4.2794828999e+00 2.4707606042e+00 4.2794828999e+00 
12900 5.1673650755e+00 -6.8617590772e-02 2.4721542741e+00 -4.2818968069e+00 2.4721542741e+00 4.2818968069e+00 
13000 5.1666153340e+00 -6.8358063134e-02 2.4735422136e+00 -4.2843007885e+00 2.4735422136e+00 4.2843007885e+00 
13100 5.1658761688e+00 -6.8084068659e-02 2.4749241270e+00 -4.2866943328e+00 2.4749241270e+00 4.2866943328e+00 
13200 5.1651472039e+00 -6.7796210754e-02 2.4762997322e+00 -4.2890769510e+00 2.4762997322e+00 4.2890769510e+00 
13300 5.1644280763e+00 -6.7495069284e-02 2.4776687598e+00 -4.2914481763e+00 2.4776687598e+00 4.2914481763e+00 
13400 5.1637184359e+00 -6.7181201047e-02 2.4790309526e+00 -4.2938075634e+00 2.4790309526e+00 4.2938075634e+00 
13500 5.1630179454e+00 -6.6855140303e-02 2.4803860651e+00 -4.2961546872e+00 2.4803860651e+00 4.2961546872e+00 
13600 5.1623262802e+00 -6.6517399325e-02 2.4817338632e+00 -4.2984891419e+00 2.4817338632e+00 4.2984891419e+00 
13700 5.1616431284e+00 -6.6168468987e-02 2.4830741234e+00 -4.3008105407e+00 2.4830741234e+00 4.3008105407e+00 
13800 5.1609681907e+00 -6.5808819377e-02 2.4844066326e+00 -4.3031185143e+00 2.4844066326e+00 4.3031185143e+00 
13900 5.1603011801e+00 -6.5438900426e-02 2.4857311876e+00 -4.3054127109e+00 2.4857311876e+00 4.3054127109e+00 
14000 5.1596418218e+00 -6.5059142568e-02 2.4870475945e+00 -4.3076927945e+00 2.4870475945e+00 4.3076927945e+00 
14100 5.1589898528e+00 -6.4669957399e-02 2.4883556684e+00 -4.3099584450e+00 2.4883556684e+00 4.3099584450e+00 
14200 5.1583450216e+00 -6.4271738359e-02 2.4896552331e+00 -4.3122093570e+00 2.4896552331e+00 4.3122093570e+00 
14300 5.1577070882e+00 -6.3864861418e-02 2.4909461204e+00 -4.3144452395e+00 2.4909461204e+00 4.3144452395e+00 
14400 5.1570758234e+00 -6.3449685764e-02 2.4922281702e+00 -4.3166658148e+00 2.4922281702e+00 4.3166658148e+00 
14500 5.1564510086e+00 -6.3026554503e-02 2.4935012295e+00 -4.3188708182e+00 2.4935012295e+00 4.3188708182e+00 
14600 5.1558324356e+00 -6.2595795346e-02 2.4947651526e+00 -4.3210599972e+00 2.4947651526e+00 4.3210599972e+00 
14700 5.1552199060e+00 -6.2157721304e-02 2.4960198005e+00 -4.3232331112e+00 2.4960198005e+00 4.3232331112e+00 
14800 5.1546132309e+00 -6.1712631370e-02 2.4972650407e+00 -4.3253899305e+00 2.4972650407e+00 4.3253899305e+00 
14900 5.1540122303e+00 -6.1260811203e-02 2.4985007469e+00 -4.3275302365e+00 2.4985007469e+00 4.3275302365e+00 
15000 5.1534167334e+00 -6.0802533797e-02 2.4997267986e+00 -4.3296538202e+00 2.4997267986e+00 4.3296538202e+00 
15100 5.1528265772e+00 -6.0338060135e-02 2.5009430807e+00 -4.3317604827e+00 2.5009430807e+00 4.3317604827e+00 
15200 5.1522416068e+00 -5.9867639847e-02 2.5021494838e+00 -4.3338500341e+00 2.5021494838e+00 4.3338500341e+00 
15300 5.1516616750e+00 -5.9391511835e-02 2.5033459033e+00 -4.3359222934e+00 2.5033459033e+00 4.3359222934e+00 
15400 5.1510866413e+00 -5.8909904901e-02 2.5045322396e+00 -4.3379770881e+00 2.5045322396e+00 4.3379770881e+00 
15500 5.1505163723e+00 -5.8423038345e-02 2.5057083976e+00 -4.3400142535e+00 2.5057083976e+00 4.3400142535e+00 
15600 5.1499507406e+00 -5.7931122557e-02 2.5068742868e+00 -4.3420336328e+00 2.5068742868e+00 4.3420336328e+00 
15700 5.1493896251e+00 -5.7434359586e-02 2.5080298208e+00 -4.3440350765e+00 2.5080298208e+00 4.3440350765e+00 
15800 5.1488329100e+00 -5.6932943695e-02 2.5091749174e+00 -4.3460184420e+00 2.5091749174e+00 4.3460184420e+00 
15900 5.1482804848e+00 -5.6427061891e-02 2.5103094981e+00 -4.3479835935e+00 2.5103094981e+00 4.3479835935e+00 
16000 5.1477322438e+00 -5.5916894445e-02 2.5114334884e+00 -4.3499304018e+00 2.5114334884e+00 4.3499304018e+00 
16100 5.1471880861e+00 -5.5402615387e-02 2.5125468172e+00 -4.3518587438e+00 2.5125468172e+00 4.3518587438e+00 
16200 5.1466479146e+00 -5.4884392979e-02 2.5136494169e+00 -4.3537685024e+00 2.5136494169e+00 4.3537685024e+00 
16300 5.1461116364e+00 -5.4362390178e-02 2.5147412232e+00 -4.3556595664e+00 2.5147412232e+00 4.3556595664e+00 
16400 5.1455791621e+00 -5.3836765069e-02 2.5158221750e+00 -4.3575318299e+00 2.5158221750e+00 4.3575318299e+00 
16500 5.1450504055e+00 -5.3307671285e-02 2.5168922144e+00 -4.3593851926e+00 2.5168922144e+00 4.3593851926e+00 
16600 5.1445252835e+00 -5.2775258404e-02 2.5179512866e+00 -4.3612195593e+00 2.5179512866e+00 4.3612195593e+00 
16700 5.1440037158e+00 -5.2239672328e-02 2.5189993394e+00 -4.3630348400e+00 2.5189993394e+00 4.3630348400e+00 
16800 5.1434856246e+00 -5.1701055644e-02 2.5200363237e+00 -4.3648309495e+00 2.5200363237e+00 4.3648309495e+00 
16900 5.1429709344e+00 -5.1159547961e-02 2.5210621930e+00 -4.3666078074e+00 2.5210621930e+00 4.3666078074e+00 
17000 5.1424595719e+00 -5.0615286234e-02 2.5220769038e+00 -4.3683653379e+00 2.5220769038e+00 4.3683653379e+00 
17100 5.1419514654e+00 -5.0068405068e-02 2.5230804148e+00 -4.3701034701e+00 2.5230804148e+00 4.3701034701e+00 
17200 5.1414465451e+00 -4.9519037002e-02 2.5240726877e+00 -4.3718221371e+00 2.5240726877e+00 4.3718221371e+00 
17300 5.1409447428e+00 -4.8967312775e-02 2.5250536865e+00 -4.3735212768e+00 2.5250536865e+00 4.3735212768e+00 
17400 5.1404459915e+00 -4.8413361582e-02 2.5260233776e+00 -4.3752008312e+00 2.5260233776e+00 4.3752008312e+00 
17500 5.1399502254e+00 -4.7857311298e-02 2.5269817302e+00 -4.3768607466e+00 2.5269817302e+00 4.3768607466e+00 
17600 5.1394573799e+00 -4.7299288707e-02 2.5279287157e+00 -4.3785009735e+00 2.5279287157e+00 4.3785009735e+00 
17700 5.1389673914e+00 -4.6739419692e-02 2.5288643079e+00 -4.3801214666e+00 2.5288643079e+00 4.3801214666e+00 
17800 5.1384801971e+00 -4.6177829429e-02 2.5297884829e+00 -4.3817221848e+00 2.5297884829e+00 4.3817221848e+00 
17900 5.1379957349e+00 -4.5614642555e-02 2.5307012194e+00 -4.3833030907e+00 2.5307012194e+00 4.3833030907e+00 
18000 5.1375139436e+00 -4.5049983324e-02 2.5316024982e+00 -4.3848641515e+00 2.5316024982e+00 4.3848641515e+00 
18100 5.1370347623e+00 -4.4483975750e-02 2.5324923026e+00 -4.3864053379e+00 2.5324923026e+00 4.3864053379e+00 
18200 5.1365581310e+00 -4.3916743739e-02 2.5333706181e+00 -4.3879266250e+00 2.5333706181e+00 4.3879266250e+00 
18300 5.1360839901e+00 -4.3348411199e-02 2.5342374326e+00 -4.3894279918e+00 2.5342374326e+00 4.3894279918e+00 
18400 5.1356122803e+00 -4.2779102153e-02 2.5350927362e+00 -4.3909094211e+00 2.5350927362e+00 4.3909094211e+00 
18500 5.1351429429e+00 -4.2208940823e-02 2.5359365214e+00 -4.3923708999e+00 2.5359365214e+00 4.3923708999e+00 
18600 5.1346759196e+00 -4.1638051715e-02 2.5367687830e+00 -4.3938124192e+00 2.5367687830e+00 4.3938124192e+00 
18700 5.1342111524e+00 -4.1066559687e-02 2.5375895179e+00 -4.3952339738e+00 2.5375895179e+00 4.3952339738e+00 
18800 5.1337485840e+00 -4.0494590008e-02 2.5383987257e+00 -4.3966355627e+00 2.5383987257e+00 4.3966355627e+00 
18900 5.1332881570e+00 -3.9922268408e-02 2.5391964079e+00 -4.3980171888e+00 2.5391964079e+00 4.3980171888e+00 
19000 5.1328298150e+00 -3.9349721118e-02 2.5399825686e+00 -4.3993788591e+00 2.5399825686e+00 4.3993788591e+00 
19100 5.1323735015e+00 -3.8777074900e-02 2.5407572140e+00 -4.4007205844e+00 2.5407572140e+00 4.4007205844e+00 
19200 5.1319191607e+00 -3.8204457065e-02 2.5415203530e+00 -4.4020423798e+00 2.5415203530e+00 4.4020423798e+00 
19300 5.1314667374e+00 -3.7631995493e-02 2.5422719964e+00 -4.4033442644e+00 2.5422719964e+00 4.4033442644e+00 
19400 5.1310161766e+00 -3.7059818634e-02 2.5430121576e+00 -4.4046262612e+00 2.5430121576e+00 4.4046262612e+00 
19500 5.1305674241e+00 -3.6488055506e-02 2.5437408522e+00 -4.4058883973e+00 2.5437408522e+00 4.4058883973e+00 
19600 5.1301204262e+00 -3.5916835687e-02 2.5444580984e+00 -4.4071307042e+00 2.5444580984e+00 4.4071307042e+00 
19700 5.1296751298e+00 -3.5346289300e-02 2.5451639166e+00 -4.4083532172e+00 2.5451639166e+00 4.4083532172e+00 
19800 5.1292314825e+00 -3.4776546988e-02 2.5458583296e+00 -4.4095559757e+00 2.5458583296e+00 4.4095559757e+00 
19900 5.1287894327e+00 -3.4207739889e-02 2.5465413625e+00 -4.4107390234e+00 2.5465413625e+00 4.4107390234e+00 
20000 5.1283489295e+00 -3.3639999597e-02 2.5472130430e+00 -4.4119024082e+00 2.5472130430e+00 4.4119024082e+00 
20100 5.1279099230e+00 -3.3073458128e-02 2.5478734010e+00 -4.4130461819e+00 2.5478734010e+00 4.4130461819e+00 
20200 5.1274723641e+00 -3.2508247872e-02 2.5485224690e+00 -4.4141704006e+00 2.5485224690e+00 4.4141704006e+00 
20300 5.1270362046e+00 -3.1944501543e-02 2.5491602818e+00 -4.4152751247e+00 2.5491602818e+00 4.4152751247e+00 
20400 5.1266013976e+00 -3.1382352126e-02 2.5497868766e+00 -4.4163604187e+00 2.5497868766e+00 4.4163604187e+00 
20500 5.1261678971e+00 -3.0821932820e-02 2.5504022930e+00 -4.4174263512e+00 2.5504022930e+00 4.4174263512e+00 
20600 5.1257356582e+00 -3.0263376973e-02 2.5510065732e+00 -4.4184729951e+00 2.5510065732e+00 4.4184729951e+00 
20700 5.1253046375e+00 -2.9706818017e-02 2.5515997615e+00 -4.4195004276e+00 2.5515997615e+00 4.4195004276e+00 
20800 5.1248747928e+00 -2.9152389399e-02 2.5521819051e+00 -4.4205087298e+00 2.5521819051e+00 4.4205087298e+00 
20900 5.1244460831e+00 -2.8600224508e-02 2.5527530532e+00 -4.4214979873e+00 2.5527530532e+00 4.4214979873e+00 
21000 5.1240184691e+00 -2.8050456597e-02 2.5533132576e+00 -4.4224682898e+00 2.5533132576e+00 4.4224682898e+00 
21100 5.1235919127e+00 -2.7503218704e-02 2.5538625725e+00 -4.4234197312e+00 2.5538625725e+00 4.4234197312e+00 
21200 5.1231663778e+00 -2.6958643576e-02 2.5544010546e+00 -4.4243524095e+00 2.5544010546e+00 4.4243524095e+00 
21300 5.1227418296e+00 -2.6416863577e-02 2.5549287629e+00 -4.4252664271e+00 2.5549287629e+00 4.4252664271e+00 
21400 5.1223182351e+00 -2.5878010606e-02 2.5554457588e+00 -4.4261618902e+00 2.5554457588e+00 4.4261618902e+00 
21500 5.1218955630e+00 -2.5342216009e-02 2.5559521062e+00 -4.4270389096e+00 2.5559521062e+00 4.4270389096e+00 
21600 5.1214737839e+00 -2.4809610487e-02 2.5564478712e+00 -4.4278975999e+00 2.5564478712e+00 4.4278975999e+00 
21700 5.1210528704e+00 -2.4280324003e-02 2.5569331226e+00 -4.4287380799e+00 2.5569331226e+00 4.4287380799e+00 
21800 5.1206327967e+00 -2.3754485693e-02 2.5574079312e+00 -4.4295604724e+00 2.5574079312e+00 4.4295604724e+00 
21900 5.1202135394e+00 -2.3232223765e-02 2.5578723703e+00 -4.4303649046e+00 2.5578723703e+00 4.4303649046e+00 
22000 5.1197950769e+00 -2.2713665406e-02 2.5583265155e+00 -4.4311515072e+00 2.5583265155e+00 4.4311515072e+00 
22100 5.1193773897e+00 -2.2198936685e-02 2.5587704448e+00 -4.4319204153e+00 2.5587704448e+00 4.4319204153e+00 
22200 5.1189604606e+00 -2.1688162453e-02 2.5592042384e+00 -4.4326717678e+00 2.5592042384e+00 4.4326717678e+00 
22300 5.1185442744e+00 -2.1181466244e-02 2.5596279787e+00 -4.4334057076e+00 2.5596279787e+00 4.4334057076e+00 
22400 5.1181288182e+00 -2.0678970179e-02 2.5600417505e+00 -4.4341223813e+00 2.5600417505e+00 4.4341223813e+00 
22500 5.1177140815e+00 -2.0180794860e-02 2.5604456407e+00 -4.4348219396e+00 2.5604456407e+00 4.4348219396e+00 
22600 5.1173000561e+00 -1.9687059274e-02 2.5608397383e+00 -4.4355045368e+00 2.5608397383e+00 4.4355045368e+00 
22700 5.1168867358e+00 -1.9197880690e-02 2.5612241347e+00 -4.4361703309e+00 2.5612241347e+00 4.4361703309e+00 
22800 5.1164741173e+00 -1.8713374560e-02 2.5615989232e+00 -4.4368194837e+00 2.5615989232e+00 4.4368194837e+00 
22900 5.1160621993e+00 -1.8233654419e-02 2.5619641994e+00 -4.4374521605e+00 2.5619641994e+00 4.4374521605e+00 
23000 5.1156509831e+00 -1.7758831782e-02 2.5623200607e+00 -4.4380685303e+00 2.5623200607e+00 4.4380685303e+00 
23100 5.1152404723e+00 -1.7289016046e-02 2.5626666066e+00 -4.4386687655e+00 2.5626666066e+00 4.4386687655e+00 
23200 5.1148306731e+00 -1.6824314393e-02 2.5630039387e+00 -4.4392530418e+00 2.5630039387e+00 4.4392530418e+00 
23300 5.1144215942e+00 -1.6364831688e-02 2.5633321605e+00 -4.4398215386e+00 2.5633321605e+00 4.4398215386e+00 
23400 5.1140132467e+00 -1.5910670384e-02 2.5636513772e+00 -4.4403744382e+00 2.5636513772e+00 4.4403744382e+00 
23500 5.1136056440e+00 -1.5461930424e-02 2.5639616962e+00 -4.4409119264e+00 2.5639616962e+00 4.4409119264e+00 
23600 5.1131988022e+00 -1.5018709149e-02 2.5642632263e+00 -4.4414341919e+00 2.5642632263e+00 4.4414341919e+00 
23700 5.1127927399e+00 -1.4581101199e-02 2.5645560783e+00 -4.4419414265e+00 2.5645560783e+00 4.4419414265e+00 
23800 5.1123874779e+00 -1.4149198427e-02 2.5648403648e+00 -4.4424338251e+00 2.5648403648e+00 4.4424338251e+00 
23900 5.1119830398e+00 -1.3723089805e-02 2.5651161997e+00 -4.4429115852e+00 2.5651161997e+00 4.4429115852e+00 
24000 5.1115794513e+00 -1.3302861335e-02 2.5653836989e+00 -4.4433749074e+00 2.5653836989e+00 4.4433749074e+00 
24100 5.1111767406e+00 -1.2888595964e-02 2.5656429795e+00 -4.4438239946e+00 2.5656429795e+00 4.4438239946e+00 
24200 5.1107749384e+00 -1.2480373502e-02 2.5658941603e+00 -4.4442590525e+00 2.5658941603e+00 4.4442590525e+00 
24300 5.1103740776e+00 -1.2078270533e-02 2.5661373615e+00 -4.4446802893e+00 2.5661373615e+00 4.4446802893e+00 
24400 5.1099741935e+00 -1.1682360345e-02 2.5663727046e+00 -4.4450879156e+00 2.5663727046e+00 4.4450879156e+00 
24500 5.1095753235e+00 -1.1292712847e-02 2.5666003125e+00 -4.4454821440e+00 2.5666003125e+00 4.4454821440e+00 
24600 5.1091775075e+00 -1.0909394498e-02 2.5668203092e+00 -4.4458631895e+00 2.5668203092e+00 4.4458631895e+00 
24700 5.1087807872e+00 -1.0532468234e-02 2.5670328201e+00 -4.4462312692e+00 2.5670328201e+00 4.4462312692e+00 
24800 5.1083852068e+00 -1.0161993404e-02 2.5672379715e+00 -4.4465866018e+00 2.5672379715e+00 4.4465866018e+00 
24900 5.1079908122e+00 -9.7980257053e-03 2.5674358909e+00 -4.4469294083e+00 2.5674358909e+00 4.4469294083e+00 
25000 5.1075976516e+00 -9.4406171211e-03 2.5676267068e+00 -4.4472599110e+00 2.5676267068e+00 4.4472599110e+00 
25100 5.1072057749e+00 -9.0898158657e-03 2.5678105483e+00 -4.4475783339e+00 2.5678105483e+00 4.4475783339e+00 
25200 5.1068152339e+00 -8.7456663314e-03 2.5679875458e+00 -4.4478849025e+00 2.5679875458e+00 4.4478849025e+00 
25300 5.1064260823e+00 -8.4082090397e-03 2.5681578302e+00 -4.4481798437e+00 2.5681578302e+00 4.4481798437e+00 
25400 5.1060383753e+00 -8.0774805967e-03 2.5683215331e+00 -4.4484633855e+00 2.5683215331e+00 4.4484633855e+00 
25500 5.1056521698e+00 -7.7535136531e-03 2.5684787868e+00 -4.4487357569e+00 2.5684787868e+00 4.4487357569e+00 
25600 5.1052675244e+00 -7.4363368683e-03 2.5686297242e+00 -4.4489971882e+00 2.5686297242e+00 4.4489971882e+00 
25700 5.1048844987e+00 -7.1259748792e-03 2.5687744786e+00 -4.4492479100e+00 2.5687744786e+00 4.4492479100e+00 
25800 5.1045031541e+00 -6.8224482740e-03 2.5689131836e+00 -4.4494881542e+00 2.5689131836e+00 4.4494881542e+00 
25900 5.1041235529e+00 -6.5257735704e-03 2.5690459733e+00 -4.4497181528e+00 2.5690459733e+00 4.4497181528e+00 
26000 5.1037457588e+00 -6.2359631988e-03 2.5691729821e+00 -4.4499381385e+00 2.5691729821e+00 4.4499381385e+00 
26100 5.1033698363e+00 -5.9530254907e-03 2.5692943444e+00 -4.4501483440e+00 2.5692943444e+00 4.4501483440e+00 
26200 5.1029958509e+00 -5.6769646722e-03 2.5694101947e+00 -4.4503490026e+00 2.5694101947e+00 4.4503490026e+00 
26300 5.1026238689e+00 -5.4077808627e-03 2.5695206676e+00 -4.4505403474e+00 2.5695206676e+00 4.4505403474e+00 
26400 5.1022539574e+00 -5.1454700783e-03 2.5696258977e+00 -4.4507226112e+00 2.5696258977e+00 4.4507226112e+00 
26500 5.1018861840e+00 -4.8900242414e-03 2.5697260193e+00 -4.4508960270e+00 2.5697260193e+00 4.4508960270e+00 
26600 5.1015206168e+00 -4.6414311951e-03 2.5698211667e+00 -4.4510608271e+00 2.5698211667e+00 4.4510608271e+00 
26700 5.1011573242e+00 -4.3996747228e-03 2.5699114737e+00 -4.4512172435e+00 2.5699114737e+00 4.4512172435e+00 
26800 5.1007963748e+00 -4.1647345738e-03 2.5699970740e+00 -4.4513655074e+00 2.5699970740e+00 4.4513655074e+00 
26900 5.1004378374e+00 -3.9365864935e-03 2.5700781004e+00 -4.4515058494e+00 2.5700781004e+00 4.4515058494e+00 
27000 5.1000817808e+00 -3.7152022599e-03 2.5701546858e+00 -4.4516384991e+00 2.5701546858e+00 4.4516384991e+00 
27100 5.0997282735e+00 -3.5005497243e-03 2.5702269620e+00 -4.4517636851e+00 2.5702269620e+00 4.4517636851e+00 
27200 5.0993773840e+00 -3.2925928584e-03 2.5702950603e+00 -4.4518816349e+00 2.5702950603e+00 4.4518816349e+00 
27300 5.0990291801e+00 -3.0912918058e-03 2.5703591115e+00 -4.4519925748e+00 2.5703591115e+00 4.4519925748e+00 
27400 5.0986837294e+00 -2.8966029393e-03 2.5704192452e+00 -4.4520967294e+00 2.5704192452e+00 4.4520967294e+00 
27500 5.0983410987e+00 -2.7084789228e-03 2.5704755903e+00 -4.4521943221e+00 2.5704755903e+00 4.4521943221e+00 
27600 5.0980013540e+00 -2.5268687786e-03 2.5705282749e+00 -4.4522855744e+00 2.5705282749e+00 4.4522855744e+00 
27700 5.0976645606e+00 -2.3517179591e-03 2.5705774258e+00 -4.4523707063e+00 2.5705774258e+00 4.4523707063e+00 
27800 5.0973307827e+00 -2.1829684236e-03 2.5706231689e+00 -4.4524499357e+00 2.5706231689e+00 4.4524499357e+00 
27900 5.0970000834e+00 -2.0205587198e-03 2.5706656290e+00 -4.4525234786e+00 2.5706656290e+00 4.4525234786e+00 
28000 5.0966725246e+00 -1.8644240693e-03 2.5707049294e+00 -4.4525915489e+00 2.5707049294e+00 4.4525915489e+00 
28100 5.0963481670e+00 -1.7144964578e-03 2.5707411924e+00 -4.4526543583e+00 2.5707411924e+00 4.4526543583e+00 
28200 5.0960270695e+00 -1.5707047291e-03 2.5707745388e+00 -4.4527121160e+00 2.5707745388e+00 4.4527121160e+00 
28300 5.0957092899e+00 -1.4329746834e-03 2.5708050881e+00 -4.4527650289e+00 2.5708050881e+00 4.4527650289e+00 
28400 5.0953948840e+00 -1.3012291789e-03 2.5708329583e+00 -4.4528133015e+00 2.5708329583e+00 4.4528133015e+00 
28500 5.0950839060e+00 -1.1753882370e-03 2.5708582659e+00 -4.4528571355e+00 2.5708582659e+00 4.4528571355e+00 
28600 5.0947764083e+00 -1.0553691510e-03 2.5708811257e+00 -4.4528967300e+00 2.5708811257e+00 4.4528967300e+00 
28700 5.0944724412e+00 -9.4108659779e-04 2.5709016512e+00 -4.4529322812e+00 2.5709016512e+00 4.4529322812e+00 
28800 5.0941720530e+00 -8.3245275185e-04 2.5709199539e+00 -4.4529639823e+00 2.5709199539e+00 4.4529639823e+00 
28900 5.0938752902e+00 -7.2937740263e-04 2.5709361437e+00 -4.4529920239e+00 2.5709361437e+00 4.4529920239e+00 
29000 5.0935821966e+00 -6.3176807356e-04 2.5709503288e+00 -4.4530165931e+00 2.5709503288e+00 4.4530165931e+00 
29100 5.0932928142e+00 -5.3953014351e-04 2.5709626154e+00 -4.4530378743e+00 2.5709626154e+00 4.4530378743e+00 
29200 5.0930071824e+00 -4.5256696981e-04 2.5709731082e+00 -4.4530560483e+00 2.5709731082e+00 4.4530560483e+00 
29300 5.0927253382e+00 -3.7078001293e-04 2.5709819097e+00 -4.4530712929e+00 2.5709819097e+00 4.4530712929e+00 
29400 5.0924473163e+00 -2.9406896235e-04 2.5709891205e+00 -4.4530837825e+00 2.5709891205e+00 4.4530837825e+00 
29500 5.0921731488e+00 -2.2233186348e-04 2.5709948395e+00 -4.4530936881e+00 2.5709948395e+00 4.4530936881e+00 
29600 5.0919028653e+00 -1.5546524524e-04 2.5709991634e+00 -4.4531011772e+00 2.5709991634e+00 4.4531011772e+00 
29700 5.0916364927e+00 -9.3364248121e-05 2.5710021868e+00 -4.4531064139e+00 2.5710021868e+00 4.4531064139e+00 
29800 5.0913740554e+00 -3.5922752465e-05 2.5710040025e+00 -4.4531095589e+00 2.5710040025e+00 4.4531095589e+00 
29900 5.0911155751e+00 1.6498549335e-05 2.5710040025e+00 -4.4531095589e+00 2.5710040025e+00 4.4531095589e+00 
30000 5.0908610708e+00 6.5159916721e-05 2.5710040025e+00 -4.4531095589e+00 2.5710040025e+00 4.4531095589e+00 
30100 5.0906105589e+00 1.1012161922e-04 2.5710040025e+00 -4.4531095589e+00 2.5710040025e+00 4.4531095589e+00 
30200 5.0903640528e+00 1.5000611372e-04 2.5710018609e+00 -4.4531058495e+00 2.5710018609e+00 4.4531058495e+00 
30300 5.0901215635e+00 1.8577565391e-04 2.5709989437e+00 -4.4531007966e+00 2.5709989437e+00 4.4531007966e+00 
30400 5.0898830992e+00 2.1754135626e-04 2.5709953308e+00 -4.4530945389e+00 2.5709953308e+00 4.4530945389e+00 
30500 5.0896486653e+00 2.4541468026e-04 2.5709911001e+00 -4.4530872111e+00 2.5709911001e+00 4.4530872111e+00 
30600 5.0894182645e+00 2.6950732011e-04 2.5709863273e+00 -4.4530789445e+00 2.5709863273e+00 4.4530789445e+00 
30700 5.0891918970e+00 2.8993109405e-04 2.5709810860e+00 -4.4530698662e+00 2.5709810860e+00 4.4530698662e+00 
30800 5.0889695601e+00 3.0679783292e-04 2.5709754475e+00 -4.4530601000e+00 2.5709754475e+00 4.4530601000e+00 
30900 5.0887512487e+00 3.2021926925e-04 2.5709694809e+00 -4.4530497656e+00 2.5709694809e+00 4.4530497656e+00 
31000 5.0885369549e+00 3.3030692769e-04 2.5709632533e+00 -4.4530389791e+00 2.5709632533e+00 4.4530389791e+00 
31100 5.0883266684e+00 3.3717201742e-04 2.5709568295e+00 -4.4530278528e+00 2.5709568295e+00 4.4530278528e+00 
31200 5.0881203762e+00 3.4092532684e-04 2.5709502722e+00 -4.4530164952e+00 2.5709502722e+00 4.4530164952e+00 
31300 5.0879180631e+00 3.4167712101e-04 2.5709436419e+00 -4.4530050111e+00 2.5709436419e+00 4.4530050111e+00 
31400 5.0877197111e+00 3.3953704196e-04 2.5709369969e+00 -4.4529935017e+00 2.5709369969e+00 4.4529935017e+00 
31500 5.0875253003e+00 3.3461401221e-04 2.5709303935e+00 -4.4529820643e+00 2.5709303935e+00 4.4529820643e+00 
31600 5.0873348080e+00 3.2701614143e-04 2.5709238859e+00 -4.4529707927e+00 2.5709238859e+00 4.4529707927e+00 
31700 5.0871482097e+00 3.1685063662e-04 2.5709175260e+00 -4.4529597771e+00 2.5709175260e+00 4.4529597771e+00 
31800 5.0869654785e+00 3.0422371571e-04 2.5709113638e+00 -4.4529491038e+00 2.5709113638e+00 4.4529491038e+00 
31900 5.0867865854e+00 2.8924052481e-04 2.5709054471e+00 -4.4529388559e+00 2.5709054471e+00 4.4529388559e+00 
32000 5.0866114994e+00 2.7200505903e-04 2.5708998219e+00 -4.4529291126e+00 2.5708998219e+00 4.4529291126e+00 
32100 5.0864401875e+00 2.5262008711e-04 2.5708945318e+00 -4.4529199500e+00 2.5708945318e+00 4.4529199500e+00 
32200 5.0862726150e+00 2.3118707973e-04 2.5708896187e+00 -4.4529114403e+00 2.5708896187e+00 4.4529114403e+00 
32300 5.0861087451e+00 2.0780614161e-04 2.5708851225e+00 -4.4529036525e+00 2.5708851225e+00 4.4529036525e+00 
32400 5.0859485397e+00 1.8257594739e-04 2.5708810809e+00 -4.4528966524e+00 2.5708810809e+00 4.4528966524e+00 
32500 5.0857919586e+00 1.5559368134e-04 2.5708775301e+00 -4.4528905022e+00 2.5708775301e+00 4.4528905022e+00 
32600 5.0856389604e+00 1.2695498085e-04 2.5708745040e+00 -4.4528852608e+00 2.5708745040e+00 4.4528852608e+00 
32700 5.0854895021e+00 9.6753883675e-05 2.5708720349e+00 -4.4528809842e+00 2.5708720349e+00 4.4528809842e+00 
32800 5.0853435393e+00 6.5082778945e-05 2.5708701532e+00 -4.4528777250e+00 2.5708701532e+00 4.4528777250e+00 
32900 5.0852010265e+00 3.2900281084e-05 2.5708701532e+00 -4.4528777250e+00 2.5708701532e+00 4.4528777250e+00 
33000 5.0850619167e+00 -1.0044215762e-06 2.5708701532e+00 -4.4528777250e+00 2.5708701532e+00 4.4528777250e+00 
33100 5.0849261620e+00 -3.6566565703e-05 2.5708701532e+00 -4.4528777250e+00 2.5708701532e+00 4.4528777250e+00 
33200 5.0847937136e+00 -7.3722002825e-05 2.5708701532e+00 -4.4528777250e+00 2.5708701532e+00 4.4528777250e+00 
33300 5.0846645215e+00 -1.1142197453e-04 2.5708715870e+00 -4.4528802084e+00 2.5708715870e+00 4.4528802084e+00 
33400 5.0845385349e+00 -1.5007470786e-04 2.5708737540e+00 -4.4528839617e+00 2.5708737540e+00 4.4528839617e+00 
33500 5.0844157025e+00 -1.8960041600e-04 2.5708766727e+00 -4.4528890172e+00 2.5708766727e+00 4.4528890172e+00 
33600 5.0842959719e+00 -2.2992122228e-04 2.5708803602e+00 -4.4528954040e+00 2.5708803602e+00 4.4528954040e+00 
33700 5.0841792904e+00 -2.7096117802e-04 2.5708848318e+00 -4.4529031492e+00 2.5708848318e+00 4.4529031492e+00 
33800 5.0840656048e+00 -3.1264627724e-04 2.5708901016e+00 -4.4529122767e+00 2.5708901016e+00 4.4529122767e+00 
33900 5.0839548613e+00 -3.5490446822e-04 2.5708961822e+00 -4.4529228085e+00 2.5708961822e+00 4.4529228085e+00 
34000 5.0838470058e+00 -3.9766566208e-04 2.5709030845e+00 -4.4529347637e+00 2.5709030845e+00 4.4529347637e+00 
34100 5.0837419841e+00 -4.4086173858e-04 2.5709108185e+00 -4.4529481593e+00 2.5709108185e+00 4.4529481593e+00 
34200 5.0836397416e+00 -4.8442654908e-04 2.5709193925e+00 -4.4529630100e+00 2.5709193925e+00 4.4529630100e+00 
34300 5.0835402235e+00 -5.2829591696e-04 2.5709288138e+00 -4.4529793281e+00 2.5709288138e+00 4.4529793281e+00 
34400 5.0834433753e+00 -5.7240763543e-04 2.5709390882e+00 -4.4529971240e+00 2.5709390882e+00 4.4529971240e+00 
34500 5.0833491421e+00 -6.1670146300e-04 2.5709502205e+00 -4.4530164056e+00 2.5709502205e+00 4.4530164056e+00 
34600 5.0832574694e+00 -6.6111911655e-04 2.5709622142e+00 -4.4530371793e+00 2.5709622142e+00 4.4530371793e+00 
34700 5.0831683026e+00 -7.0560426229e-04 2.5709750716e+00 -4.4530594490e+00 2.5709750716e+00 4.4530594490e+00 
34800 5.0830815874e+00 -7.5010250455e-04 2.5709887941e+00 -4.4530832171e+00 2.5709887941e+00 4.4530832171e+00 
34900 5.0829972699e+00 -7.9456137260e-04 2.5710033819e+00 -4.4531084840e+00 2.5710033819e+00 4.4531084840e+00 
35000 5.0829152962e+00 -8.3893030561e-04 2.5710188343e+00 -4.4531352483e+00 2.5710188343e+00 4.4531352483e+00 
35100 5.0828356131e+00 -8.8316063577e-04 2.5710351495e+00 -4.4531635069e+00 2.5710351495e+00 4.4531635069e+00 
35200 5.0827581675e+00 -9.2720556977e-04 2.5710523247e+00 -4.4531932553e+00 2.5710523247e+00 4.4531932553e+00 
35300 5.0826829070e+00 -9.7102016870e-04 2.5710703563e+00 -4.4532244870e+00 2.5710703563e+00 4.4532244870e+00 
35400 5.0826097796e+00 -1.0145613264e-03 2.5710892399e+00 -4.4532571944e+00 2.5710892399e+00 4.4532571944e+00 
35500 5.0825387339e+00 -1.0577877466e-03 2.5711089702e+00 -4.4532913681e+00 2.5711089702e+00 4.4532913681e+00 
35600 5.0824697191e+00 -1.1006599184e-03 2.5711295408e+00 -4.4533269976e+00 2.5711295408e+00 4.4533269976e+00 
35700 5.0824026849e+00 -1.1431400913e-03 2.5711509451e+00 -4.4533640708e+00 2.5711509451e+00 4.4533640708e+00 
35800 5.0823375817e+00 -1.1851922478e-03 2.5711731752e+00 -4.4534025746e+00 2.5711731752e+00 4.4534025746e+00 
35900 5.0822743608e+00 -1.2267820767e-03 2.5711962230e+00 -4.4534424944e+00 2.5711962230e+00 4.4534424944e+00 
36000 5.0822129738e+00 -1.2678769441e-03 2.5712200792e+00 -4.4534838147e+00 2.5712200792e+00 4.4534838147e+00 
36100 5.0821533735e+00 -1.3084458641e-03 2.5712447344e+00 -4.4535265188e+00 2.5712447344e+00 4.4535265188e+00 
36200 5.0820955131e+00 -1.3484594685e-03 2.5712701783e+00 -4.4535705888e+00 2.5712701783e+00 4.4535705888e+00 
36300 5.0820393468e+00 -1.3878899765e-03 2.5712964000e+00 -4.4536160061e+00 2.5712964000e+00 4.4536160061e+00 
36400 5.0819848294e+00 -1.4267111625e-03 2.5713233882e+00 -4.4536627511e+00 2.5713233882e+00 4.4536627511e+00 
36500 5.0819319169e+00 -1.4648983249e-03 2.5713511310e+00 -4.4537108030e+00 2.5713511310e+00 4.4537108030e+00 
36600 5.0818805656e+00 -1.5024282530e-03 2.5713796160e+00 -4.4537601405e+00 2.5713796160e+00 4.4537601405e+00 
36700 5.0818307330e+00 -1.5392791946e-03 2.5714088305e+00 -4.4538107415e+00 2.5714088305e+00 4.4538107415e+00 
36800 5.0817823775e+00 -1.5754308226e-03 2.5714387612e+00 -4.4538625830e+00 2.5714387612e+00 4.4538625830e+00 
36900 5.0817354581e+00 -1.6108642015e-03 2.5714693946e+00 -4.4539156415e+00 2.5714693946e+00 4.4539156415e+00 
37000 5.0816899348e+00 -1.6455617537e-03 2.5715007165e+00 -4.4539698927e+00 2.5715007165e+00 4.4539698927e+00 
37100 5.0816457685e+00 -1.6795072259e-03 2.5715327127e+00 -4.4540253117e+00 2.5715327127e+00 4.4540253117e+00 
37200 5.0816029210e+00 -1.7126856546e-03 2.5715653685e+00 -4.4540818733e+00 2.5715653685e+00 4.4540818733e+00 
37300 5.0815613547e+00 -1.7450833329e-03 2.5715986690e+00 -4.4541395515e+00 2.5715986690e+00 4.4541395515e+00 
37400 5.0815210333e+00 -1.7766877754e-03 2.5716325991e+00 -4.4541983200e+00 2.5716325991e+00 4.4541983200e+00 
37500 5.0814819211e+00 -1.8074876852e-03 2.5716671431e+00 -4.4542581520e+00 2.5716671431e+00 4.4542581520e+00 
37600 5.0814439832e+00 -1.8374729193e-03 2.5717022855e+00 -4.4543190204e+00 2.5717022855e+00 4.4543190204e+00 
37700 5.0814071858e+00 -1.8666344551e-03 2.5717380104e+00 -4.4543808978e+00 2.5717380104e+00 4.4543808978e+00 
37800 5.0813714958e+00 -1.8949643567e-03 2.5717743018e+00 -4.4544437563e+00 2.5717743018e+00 4.4544437563e+00 
37900 5.0813368809e+00 -1.9224557414e-03 2.5718111435e+00 -4.4545075680e+00 2.5718111435e+00 4.4545075680e+00 
38000 5.0813033097e+00 -1.9491027466e-03 2.5718485191e+00 -4.4545723044e+00 2.5718485191e+00 4.4545723044e+00 
38100 5.0812707517e+00 -1.9749004966e-03 2.5718864122e+00 -4.4546379373e+00 2.5718864122e+00 4.4546379373e+00 
38200 5.0812391771e+00 -1.9998450700e-03 2.5719248063e+00 -4.4547044378e+00 2.5719248063e+00 4.4547044378e+00 
38300 5.0812085570e+00 -2.0239334677e-03 2.5719636848e+00 -4.4547717773e+00 2.5719636848e+00 4.4547717773e+00 
38400 5.0811788632e+00 -2.0471635802e-03 2.5720030310e+00 -4.4548399269e+00 2.5720030310e+00 4.4548399269e+00 
38500 5.0811500683e+00 -2.0695341566e-03 2.5720428281e+00 -4.4549088576e+00 2.5720428281e+00 4.4549088576e+00 
38600 5.0811221457e+00 -2.0910447730e-03 2.5720830596e+00 -4.4549785405e+00 2.5720830596e+00 4.4549785405e+00 
38700 5.0810950696e+00 -2.1116958016e-03 2.5721237085e+00 -4.4550489465e+00 2.5721237085e+00 4.4550489465e+00 
38800 5.0810688148e+00 -2.1314883806e-03 2.5721647583e+00 -4.4551200468e+00 2.5721647583e+00 4.4551200468e+00 
38900 5.0810433570e+00 -2.1504243839e-03 2.5722061922e+00 -4.4551918124e+00 2.5722061922e+00 4.4551918124e+00 
39000 5.0810186724e+00 -2.1685063918e-03 2.5722479934e+00 -4.4552642143e+00 2.5722479934e+00 4.4552642143e+00 
39100 5.0809947381e+00 -2.1857376619e-03 2.5722901455e+00 -4.4553372239e+00 2.5722901455e+00 4.4553372239e+00 
39200 5.0809715318e+00 -2.2021221004e-03 2.5723326319e+00 -4.4554108123e+00 2.5723326319e+00 4.4554108123e+00 
39300 5.0809490318e+00 -2.2176642343e-03 2.5723754360e+00 -4.4554849512e+00 2.5723754360e+00 4.4554849512e+00 
39400 5.0809272171e+00 -2.2323691839e-03 2.5724185415e+00 -4.4555596122e+00 2.5724185415e+00 4.4555596122e+00 
39500 5.0809060673e+00 -2.2462426353e-03 2.5724619321e+00 -4.4556347669e+00 2.5724619321e+00 4.4556347669e+00 
39600 5.0808855626e+00 -2.2592908147e-03 2.5725055916e+00 -4.4557103874e+00 2.5725055916e+00 4.4557103874e+00 
39700 5.0808656840e+00 -2.2715204617e-03 2.5725495040e+00 -4.4557864459e+00 2.5725495040e+00 4.4557864459e+00 
39800 5.0808464128e+00 -2.2829388044e-03 2.5725936533e+00 -4.4558629148e+00 2.5725936533e+00 4.4558629148e+00 
39900 5.0808277311e+00 -2.2935535343e-03 2.5726380238e+00 -4.4559397667e+00 2.5726380238e+00 4.4559397667e+00 
40000 5.0808096213e+00 -2.3033727820e-03 2.5726825998e+00 -4.4560169747e+00 2.5726825998e+00 4.4560169747e+00 
40100 5.0807920666e+00 -2.3124050936e-03 2.5727273659e+00 -4.4560945118e+00 2.5727273659e+00 4.4560945118e+00 
40200 5.0807750505e+00 -2.3206594073e-03 2.5727723068e+00 -4.4561723517e+00 2.5727723068e+00 4.4561723517e+00 
40300 5.0807585572e+00 -2.3281450309e-03 2.5728174073e+00 -4.4562504680e+00 2.5728174073e+00 4.4562504680e+00 
40400 5.0807425712e+00 -2.3348716195e-03 2.5728626525e+00 -4.4563288350e+00 2.5728626525e+00 4.4563288350e+00 
40500 5.0807270776e+00 -2.3408491543e-03 2.5729080276e+00 -4.4564074270e+00 2.5729080276e+00 4.4564074270e+00 
40600 5.0807120620e+00 -2.3460879212e-03 2.5729535181e+00 -4.4564862188e+00 2.5729535181e+00 4.4564862188e+00 
40700 5.0806975103e+00 -2.3505984909e-03 2.5729991095e+00 -4.4565651856e+00 2.5729991095e+00 4.4565651856e+00 
40800 5.0806834090e+00 -2.3543916983e-03 2.5730447879e+00 -4.4566443027e+00 2.5730447879e+00 4.4566443027e+00 
40900 5.0806697449e+00 -2.3574786240e-03 2.5730905391e+00 -4.4567235462e+00 2.5730905391e+00 4.4567235462e+00 
41000 5.0806565052e+00 -2.3598705749e-03 2.5731363495e+00 -4.4568028921e+00 2.5731363495e+00 4.4568028921e+00 
41100 5.0806436775e+00 -2.3615790660e-03 2.5731822055e+00 -4.4568823171e+00 2.5731822055e+00 4.4568823171e+00 
41200 5.0806312498e+00 -2.3626158032e-03 2.5732280940e+00 -4.4569617982e+00 2.5732280940e+00 4.4569617982e+00 
41300 5.0806192106e+00 -2.3629926655e-03 2.5732740017e+00 -4.4570413128e+00 2.5732740017e+00 4.4570413128e+00 
41400 5.0806075486e+00 -2.3627216888e-03 2.5733199160e+00 -4.4571208386e+00 2.5733199160e+00 4.4571208386e+00 
41500 5.0805962528e+00 -2.3618150494e-03 2.5733658242e+00 -4.4572003539e+00 2.5733658242e+00 4.4572003539e+00 
41600 5.0805853126e+00 -2.3602850488e-03 2.5734117139e+00 -4.4572798373e+00 2.5734117139e+00 4.4572798373e+00 
41700 5.0805747178e+00 -2.3581440983e-03 2.5734575731e+00 -4.4573592678e+00 2.5734575731e+00 4.4573592678e+00 
41800 5.0805644585e+00 -2.3554047044e-03 2.5735033899e+00 -4.4574386248e+00 2.5735033899e+00 4.4574386248e+00 
41900 5.0805545248e+00 -2.3520794550e-03 2.5735491526e+00 -4.4575178882e+00 2.5735491526e+00 4.4575178882e+00 
42000 5.0805449075e+00 -2.3481810055e-03 2.5735948500e+00 -4.4575970382e+00 2.5735948500e+00 4.4575970382e+00 
42100 5.0805355975e+00 -2.3437220657e-03 2.5736404707e+00 -4.4576760558e+00 2.5736404707e+00 4.4576760558e+00 
42200 5.0805265860e+00 -2.3387153873e-03 2.5736860041e+00 -4.4577549218e+00 2.5736860041e+00 4.4577549218e+00 
42300 5.0805178643e+00 -2.3331737514e-03 2.5737314394e+00 -4.4578336180e+00 2.5737314394e+00 4.4578336180e+00 
42400 5.0805094242e+00 -2.3271099573e-03 2.5737767662e+00 -4.4579121263e+00 2.5737767662e+00 4.4579121263e+00 
42500 5.0805012576e+00 -2.3205368106e-03 2.5738219744e+00 -4.4579904293e+00 2.5738219744e+00 4.4579904293e+00 
42600 5.0804933567e+00 -2.3134671129e-03 2.5738670541e+00 -4.4580685096e+00 2.5738670541e+00 4.4580685096e+00 
42700 5.0804857138e+00 -2.3059136510e-03 2.5739119957e+00 -4.4581463508e+00 2.5739119957e+00 4.4581463508e+00 
42800 5.0804783216e+00 -2.2978891873e-03 2.5739567898e+00 -4.4582239364e+00 2.5739567898e+00 4.4582239364e+00 
42900 5.0804711728e+00 -2.2894064499e-03 2.5740014272e+00 -4.4583012507e+00 2.5740014272e+00 4.4583012507e+00 
43000 5.0804642606e+00 -2.2804781237e-03 2.5740458991e+00 -4.4583782782e+00 2.5740458991e+00 4.4583782782e+00 
43100 5.0804575781e+00 -2.2711168414e-03 2.5740901967e+00 -4.4584550040e+00 2.5740901967e+00 4.4584550040e+00 
43200 5.0804511188e+00 -2.2613351754e-03 2.5741343118e+00 -4.4585314135e+00 2.5741343118e+00 4.4585314135e+00 
43300 5.0804448762e+00 -2.2511456298e-03 2.5741782361e+00 -4.4586074927e+00 2.5741782361e+00 4.4586074927e+00 
43400 5.0804388441e+00 -2.2405606328e-03 2.5742219618e+00 -4.4586832277e+00 2.5742219618e+00 4.4586832277e+00 
43500 5.0804330166e+00 -2.2295925291e-03 2.5742654811e+00 -4.4587586054e+00 2.5742654811e+00 4.4587586054e+00 
43600 5.0804273876e+00 -2.2182535736e-03 2.5743087866e+00 -4.4588336127e+00 2.5743087866e+00 4.4588336127e+00 
43700 5.0804219515e+00 -2.2065559248e-03 2.5743518712e+00 -4.4589082374e+00 2.5743518712e+00 4.4589082374e+00 
43800 5.0804167027e+00 -2.1945116381e-03 2.5743947278e+00 -4.4589824673e+00 2.5743947278e+00 4.4589824673e+00 
43900 5.0804116359e+00 -2.1821326604e-03 2.5744373498e+00 -4.4590562908e+00 2.5744373498e+00 4.4590562908e+00 
44000 5.0804067457e+00 -2.1694308247e-03 2.5744797307e+00 -4.4591296966e+00 2.5744797307e+00 4.4591296966e+00 
44100 5.0804020270e+00 -2.1564178444e-03 2.5745218642e+00 -4.4592026740e+00 2.5745218642e+00 4.4592026740e+00 
44200 5.0803974749e+00 -2.1431053089e-03 2.5745637443e+00 -4.4592752124e+00 2.5745637443e+00 4.4592752124e+00 
44300 5.0803930845e+00 -2.1295046787e-03 2.5746053651e+00 -4.4593473019e+00 2.5746053651e+00 4.4593473019e+00 
44400 5.0803888510e+00 -2.1156272809e-03 2.5746467212e+00 -4.4594189327e+00 2.5746467212e+00 4.4594189327e+00 
44500 5.0803847699e+00 -2.1014843059e-03 2.5746878071e+00 -4.4594900955e+00 2.5746878071e+00 4.4594900955e+00 
44600 5.0803808367e+00 -2.0870868027e-03 2.5747286177e+00 -4.4595607815e+00 2.5747286177e+00 4.4595607815e+00 
44700 5.0803770471e+00 -2.0724456762e-03 2.5747691480e+00 -4.4596309821e+00 2.5747691480e+00 4.4596309821e+00 
44800 5.0803733968e+00 -2.0575716834e-03 2.5748093934e+00 -4.4597006891e+00 2.5748093934e+00 4.4597006891e+00 
44900 5.0803698817e+00 -2.0424754308e-03 2.5748493493e+00 -4.4597698948e+00 2.5748493493e+00 4.4597698948e+00 
45000 5.0803664978e+00 -2.0271673714e-03 2.5748890114e+00 -4.4598385916e+00 2.5748890114e+00 4.4598385916e+00 
45100 5.0803632411e+00 -2.0116578023e-03 2.5749283757e+00 -4.4599067726e+00 2.5749283757e+00 4.4599067726e+00 
45200 5.0803601079e+00 -1.9959568624e-03 2.5749674382e+00 -4.4599744308e+00 2.5749674382e+00 4.4599744308e+00 
45300 5.0803570944e+00 -1.9800745303e-03 2.5750061952e+00 -4.4600415599e+00 2.5750061952e+00 4.4600415599e+00 
45400 5.0803541971e+00 -1.9640206224e-03 2.5750446433e+00 -4.4601081539e+00 2.5750446433e+00 4.4601081539e+00 
45500 5.0803514123e+00 -1.9478047914e-03 2.5750827790e+00 -4.4601742070e+00 2.5750827790e+00 4.4601742070e+00 
45600 5.0803487368e+00 -1.9314365247e-03 2.5751205994e+00 -4.4602397137e+00 2.5751205994e+00 4.4602397137e+00 
45700 5.0803461671e+00 -1.9149251433e-03 2.5751581013e+00 -4.4603046690e+00 2.5751581013e+00 4.4603046690e+00 
45800 5.0803436999e+00 -1.8982798004e-03 2.5751952821e+00 -4.4603690681e+00 2.5751952821e+00 4.4603690681e+00 
45900 5.0803413323e+00 -1.8815094808e-03 2.5752321392e+00 -4.4604329064e+00 2.5752321392e+00 4.4604329064e+00 
46000 5.0803390609e+00 -1.8646230001e-03 2.5752686702e+00 -4.4604961799e+00 2.5752686702e+00 4.4604961799e+00 
46100 5.0803368830e+00 -1.8476290039e-03 2.5753048728e+00 -4.4605588846e+00 2.5753048728e+00 4.4605588846e+00 
46200 5.0803347954e+00 -1.8305359677e-03 2.5753407449e+00 -4.4606210170e+00 2.5753407449e+00 4.4606210170e+00 
46300 5.0803327954e+00 -1.8133521965e-03 2.5753762847e+00 -4.4606825737e+00 2.5753762847e+00 4.4606825737e+00 
46400 5.0803308803e+00 -1.7960858247e-03 2.5754114903e+00 -4.4607435516e+00 2.5754114903e+00 4.4607435516e+00 
46500 5.0803290472e+00 -1.7787448158e-03 2.5754463603e+00 -4.4608039482e+00 2.5754463603e+00 4.4608039482e+00 
46600 5.0803272937e+00 -1.7613369632e-03 2.5754808931e+00 -4.4608637608e+00 2.5754808931e+00 4.4608637608e+00 
46700 5.0803256170e+00 -1.7438698899e-03 2.5755150875e+00 -4.4609229872e+00 2.5755150875e+00 4.4609229872e+00 
46800 5.0803240148e+00 -1.7263510492e-03 2.5755489424e+00 -4.4609816256e+00 2.5755489424e+00 4.4609816256e+00 
46900 5.0803224847e+00 -1.7087877250e-03 2.5755824567e+00 -4.4610396741e+00 2.5755824567e+00 4.4610396741e+00 
47000 5.0803210241e+00 -1.6911870327e-03 2.5756156296e+00 -4.4610971312e+00 2.5756156296e+00 4.4610971312e+00 
47100 5.0803196310e+00 -1.6735559196e-03 2.5756484604e+00 -4.4611539958e+00 2.5756484604e+00 4.4611539958e+00 
47200 5.0803183030e+00 -1.6559011660e-03 2.5756809485e+00 -4.4612102669e+00 2.5756809485e+00 4.4612102669e+00 
47300 5.0803170379e+00 -1.6382293861e-03 2.5757130935e+00 -4.4612659437e+00 2.5757130935e+00 4.4612659437e+00 
47400 5.0803158337e+00 -1.6205470288e-03 2.5757448950e+00 -4.4613210255e+00 2.5757448950e+00 4.4613210255e+00 
47500 5.0803146883e+00 -1.6028603791e-03 2.5757763529e+00 -4.4613755122e+00 2.5757763529e+00 4.4613755122e+00 
47600 5.0803135996e+00 -1.5851755590e-03 2.5758074671e+00 -4.4614294036e+00 2.5758074671e+00 4.4614294036e+00 
47700 5.0803125658e+00 -1.5674985291e-03 2.5758382376e+00 -4.4614826997e+00 2.5758382376e+00 4.4614826997e+00 
47800 5.0803115850e+00 -1.5498350895e-03 2.5758686647e+00 -4.4615354008e+00 2.5758686647e+00 4.4615354008e+00 
47900 5.0803106552e+00 -1.5321908815e-03 2.5758987485e+00 -4.4615875075e+00 2.5758987485e+00 4.4615875075e+00 
48000 5.0803097748e+00 -1.5145713893e-03 2.5759284894e+00 -4.4616390203e+00 2.5759284894e+00 4.4616390203e+00 
48100 5.0803089420e+00 -1.4969819410e-03 2.5759578880e+00 -4.4616899402e+00 2.5759578880e+00 4.4616899402e+00 
48200 5.0803081550e+00 -1.4794277105e-03 2.5759869449e+00 -4.4617402682e+00 2.5759869449e+00 4.4617402682e+00 
48300 5.0803074123e+00 -1.4619137190e-03 2.5760156607e+00 -4.4617900054e+00 2.5760156607e+00 4.4617900054e+00 
48400 5.0803067123e+00 -1.4444448369e-03 2.5760440362e+00 -4.4618391532e+00 2.5760440362e+00 4.4618391532e+00 
48500 5.0803060534e+00 -1.4270257856e-03 2.5760720724e+00 -4.4618877133e+00 2.5760720724e+00 4.4618877133e+00 
48600 5.0803054340e+00 -1.4096611388e-03 2.5760997701e+00 -4.4619356872e+00 2.5760997701e+00 4.4619356872e+00 
48700 5.0803048528e+00 -1.3923553247e-03 2.5761271305e+00 -4.4619830769e+00 2.5761271305e+00 4.4619830769e+00 
48800 5.0803043084e+00 -1.3751126282e-03 2.5761541548e+00 -4.4620298842e+00 2.5761541548e+00 4.4620298842e+00 
48900 5.0803037992e+00 -1.3579371918e-03 2.5761808441e+00 -4.4620761114e+00 2.5761808441e+00 4.4620761114e+00 
49000 5.0803033241e+00 -1.3408330186e-03 2.5762071998e+00 -4.4621217608e+00 2.5762071998e+00 4.4621217608e+00 
49100 5.0803028817e+00 -1.3238039737e-03 2.5762332232e+00 -4.4621668347e+00 2.5762332232e+00 4.4621668347e+00 
49200 5.0803024707e+00 -1.3068537862e-03 2.5762589159e+00 -4.4622113357e+00 2.5762589159e+00 4.4622113357e+00 
49300 5.0803020900e+00 -1.2899860513e-03 2.5762842793e+00 -4.4622552665e+00 2.5762842793e+00 4.4622552665e+00 
49400 5.0803017382e+00 -1.2732042324e-03 2.5763093151e+00 -4.4622986298e+00 2.5763093151e+00 4.4622986298e+00 
49500 5.0803014144e+00 -1.2565116630e-03 2.5763340250e+00 -4.4623414286e+00 2.5763340250e+00 4.4623414286e+00 
49600 5.0803011174e+00 -1.2399115489e-03 2.5763584107e+00 -4.4623836659e+00 2.5763584107e+00 4.4623836659e+00 
49700 5.0803008460e+00 -1.2234069703e-03 2.5763824740e+00 -4.4624253447e+00 2.5763824740e+00 4.4624253447e+00 
49800 5.0803005993e+00 -1.2070008836e-03 2.5764062168e+00 -4.4624664684e+00 2.5764062168e+00 4.4624664684e+00 
49900 5.0803003762e+00 -1.1906961238e-03 2.5764296409e+00 -4.4625070402e+00 2.5764296409e+00 4.4625070402e+00 
50000 5.0803001758e+00 -1.1744954066e-03 2.5764527484e+00 -4.4625470636e+00 2.5764527484e+00 4.4625470636e+00 
50100 5.0802999970e+00 -1.1584013304e-03 2.5764755414e+00 -4.4625865421e+00 2.5764755414e+00 4.4625865421e+00 
50200 5.0802998391e+00 -1.1424163784e-03 2.5764980217e+00 -4.4626254792e+00 2.5764980217e+00 4.4626254792e+00 
50300 5.0802997010e+00 -1.1265429207e-03 2.5765201917e+00 -4.4626638788e+00 2.5765201917e+00 4.4626638788e+00 
50400 5.0802995819e+00 -1.1107832168e-03 2.5765420535e+00 -4.4627017444e+00 2.5765420535e+00 4.4627017444e+00 
50500 5.0802994811e+00 -1.0951394170e-03 2.5765636092e+00 -4.4627390800e+00 2.5765636092e+00 4.4627390800e+00 
50600 5.0802993976e+00 -1.0796135653e-03 2.5765848612e+00 -4.4627758895e+00 2.5765848612e+00 4.4627758895e+00 
50700 5.0802993307e+00 -1.0642076010e-03 2.5766058117e+00 -4.4628121769e+00 2.5766058117e+00 4.4628121769e+00 
50800 5.0802992796e+00 -1.0489233609e-03 2.5766264630e+00 -4.4628479461e+00 2.5766264630e+00 4.4628479461e+00 
50900 5.0802992437e+00 -1.0337625815e-03 2.5766468176e+00 -4.4628832013e+00 2.5766468176e+00 4.4628832013e+00 
51000 5.0802992221e+00 -1.0187269013e-03 2.5766668779e+00 -4.4629179467e+00 2.5766668779e+00 4.4629179467e+00 
51100 5.0802992143e+00 -1.0038178622e-03 2.5766866462e+00 -4.4629521865e+00 2.5766866462e+00 4.4629521865e+00 
51200 5.0802992195e+00 -9.8903691241e-04 2.5767061251e+00 -4.4629859249e+00 2.5767061251e+00 4.4629859249e+00 
51300 5.0802992371e+00 -9.7438540796e-04 2.5767253170e+00 -4.4630191662e+00 2.5767253170e+00 4.4630191662e+00 
51400 5.0802992665e+00 -9.5986461496e-04 2.5767442245e+00 -4.4630519149e+00 2.5767442245e+00 4.4630519149e+00 
51500 5.0802993072e+00 -9.4547571160e-04 2.5767628500e+00 -4.4630841753e+00 2.5767628500e+00 4.4630841753e+00 
51600 5.0802993585e+00 -9.3121979018e-04 2.5767811962e+00 -4.4631159519e+00 2.5767811962e+00 4.4631159519e+00 
51700 5.0802994198e+00 -9.1709785912e-04 2.5767992657e+00 -4.4631472491e+00 2.5767992657e+00 4.4631472491e+00 
51800 5.0802994907e+00 -9.0311084497e-04 2.5768170610e+00 -4.4631780715e+00 2.5768170610e+00 4.4631780715e+00 
51900 5.0802995707e+00 -8.8925959436e-04 2.5768345848e+00 -4.4632084236e+00 2.5768345848e+00 4.4632084236e+00 
52000 5.0802996592e+00 -8.7554487599e-04 2.5768518397e+00 -4.4632383099e+00 2.5768518397e+00 4.4632383099e+00 
52100 5.0802997557e+00 -8.6196738253e-04 2.5768688284e+00 -4.4632677352e+00 2.5768688284e+00 4.4632677352e+00 
52200 5.0802998599e+00 -8.4852773261e-04 2.5768855535e+00 -4.4632967039e+00 2.5768855535e+00 4.4632967039e+00 
52300 5.0802999712e+00 -8.3522647266e-04 2.5769020177e+00 -4.4633252208e+00 2.5769020177e+00 4.4633252208e+00 
52400 5.0803000892e+00 -8.2206407885e-04 2.5769182238e+00 -4.4633532905e+00 2.5769182238e+00 4.4633532905e+00 
52500 5.0803002136e+00 -8.0904095890e-04 2.5769341743e+00 -4.4633809176e+00 2.5769341743e+00 4.4633809176e+00 
52600 5.0803003439e+00 -7.9615745398e-04 2.5769498721e+00 -4.4634081070e+00 2.5769498721e+00 4.4634081070e+00 
52700 5.0803004797e+00 -7.8341384047e-04 2.5769653197e+00 -4.4634348631e+00 2.5769653197e+00 4.4634348631e+00 
52800 5.0803006207e+00 -7.7081033183e-04 2.5769805201e+00 -4.4634611909e+00 2.5769805201e+00 4.4634611909e+00 
52900 5.0803007666e+00 -7.5834708032e-04 2.5769954758e+00 -4.4634870949e+00 2.5769954758e+00 4.4634870949e+00 
53000 5.0803009169e+00 -7.4602417878e-04 2.5770101896e+00 -4.4635125800e+00 2.5770101896e+00 4.4635125800e+00 
53100 5.0803010714e+00 -7.3384166236e-04 2.5770246642e+00 -4.4635376507e+00 2.5770246642e+00 4.4635376507e+00 
53200 5.0803012298e+00 -7.2179951025e-04 2.5770389024e+00 -4.4635623120e+00 2.5770389024e+00 4.4635623120e+00 
53300 5.0803013917e+00 -7.0989764733e-04 2.5770529068e+00 -4.4635865684e+00 2.5770529068e+00 4.4635865684e+00 
53400 5.0803015569e+00 -6.9813594584e-04 2.5770666803e+00 -4.4636104247e+00 2.5770666803e+00 4.4636104247e+00 
53500 5.0803017250e+00 -6.8651422705e-04 2.5770802254e+00 -4.4636338856e+00 2.5770802254e+00 4.4636338856e+00 
53600 5.0803018959e+00 -6.7503226284e-04 2.5770935451e+00 -4.4636569559e+00 2.5770935451e+00 4.4636569559e+00 
53700 5.0803020693e+00 -6.6368977729e-04 2.5771066419e+00 -4.4636796402e+00 2.5771066419e+00 4.4636796402e+00 
53800 5.0803022449e+00 -6.5248644829e-04 2.5771195185e+00 -4.4637019432e+00 2.5771195185e+00 4.4637019432e+00 
53900 5.0803024226e+00 -6.4142190900e-04 2.5771321777e+00 -4.4637238697e+00 2.5771321777e+00 4.4637238697e+00 
54000 5.0803026020e+00 -6.3049574945e-04 2.5771446222e+00 -4.4637454242e+00 2.5771446222e+00 4.4637454242e+00 
54100 5.0803027829e+00 -6.1970751799e-04 2.5771568547e+00 -4.4637666114e+00 2.5771568547e+00 4.4637666114e+00 
54200 5.0803029653e+00 -6.0905672275e-04 2.5771688778e+00 -4.4637874360e+00 2.5771688778e+00 4.4637874360e+00 
54300 5.0803031488e+00 -5.9854283311e-04 2.5771806942e+00 -4.4638079026e+00 2.5771806942e+00 4.4638079026e+00 
54400 5.0803033333e+00 -5.8816528108e-04 2.5771923066e+00 -4.4638280158e+00 2.5771923066e+00 4.4638280158e+00 
54500 5.0803035186e+00 -5.7792346272e-04 2.5772037175e+00 -4.4638477802e+00 2.5772037175e+00 4.4638477802e+00 
54600 5.0803037046e+00 -5.6781673951e-04 2.5772149298e+00 -4.4638672004e+00 2.5772149298e+00 4.4638672004e+00 
54700 5.0803038911e+00 -5.5784443967e-04 2.5772259459e+00 -4.4638862808e+00 2.5772259459e+00 4.4638862808e+00 
54800 5.0803040779e+00 -5.4800585948e-04 2.5772367684e+00 -4.4639050261e+00 2.5772367684e+00 4.4639050261e+00 
54900 5.0803042648e+00 -5.3830026460e-04 2.5772474001e+00 -4.4639234407e+00 2.5772474001e+00 4.4639234407e+00 
55000 5.0803044519e+00 -5.2872689130e-04 2.5772578434e+00 -4.4639415290e+00 2.5772578434e+00 4.4639415290e+00 
55100 5.0803046388e+00 -5.1928494773e-04 2.5772681010e+00 -4.4639592956e+00 2.5772681010e+00 4.4639592956e+00 
55200 5.0803048255e+00 -5.0997361513e-04 2.5772781753e+00 -4.4639767449e+00 2.5772781753e+00 4.4639767449e+00 
55300 5.0803050119e+00 -5.0079204902e-04 2.5772880690e+00 -4.4639938812e+00 2.5772880690e+00 4.4639938812e+00 
55400 5.0803051979e+00 -4.9173938036e-04 2.5772977845e+00 -4.4640107089e+00 2.5772977845e+00 4.4640107089e+00 
55500 5.0803053833e+00 -4.8281471674e-04 2.5773073243e+00 -4.4640272324e+00 2.5773073243e+00 4.4640272324e+00 
55600 5.0803055681e+00 -4.7401714345e-04 2.5773166910e+00 -4.4640434559e+00 2.5773166910e+00 4.4640434559e+00 
55700 5.0803057521e+00 -4.6534572459e-04 2.5773258869e+00 -4.4640593838e+00 2.5773258869e+00 4.4640593838e+00 
55800 5.0803059354e+00 -4.5679950416e-04 2.5773349146e+00 -4.4640750202e+00 2.5773349146e+00 4.4640750202e+00 
55900 5.0803061176e+00 -4.4837750711e-04 2.5773437765e+00 -4.4640903694e+00 2.5773437765e+00 4.4640903694e+00 
56000 5.0803062989e+00 -4.4007874034e-04 2.5773524749e+00 -4.4641054355e+00 2.5773524749e+00 4.4641054355e+00 
56100 5.0803064792e+00 -4.3190219374e-04 2.5773610123e+00 -4.4641202228e+00 2.5773610123e+00 4.4641202228e+00 
56200 5.0803066582e+00 -4.2384684113e-04 2.5773693911e+00 -4.4641347353e+00 2.5773693911e+00 4.4641347353e+00 
56300 5.0803068361e+00 -4.1591164126e-04 2.5773776136e+00 -4.4641489770e+00 2.5773776136e+00 4.4641489770e+00 
56400 5.0803070127e+00 -4.0809553872e-04 2.5773856821e+00 -4.4641629521e+00 2.5773856821e+00 4.4641629521e+00 
56500 5.0803071880e+00 -4.0039746484e-04 2.5773935989e+00 -4.4641766645e+00 2.5773935989e+00 4.4641766645e+00 
56600 5.0803073618e+00 -3.9281633863e-04 2.5774013664e+00 -4.4641901181e+00 2.5774013664e+00 4.4641901181e+00 
56700 5.0803075343e+00 -3.8535106760e-04 2.5774089868e+00 -4.4642033171e+00 2.5774089868e+00 4.4642033171e+00 
56800 5.0803077052e+00 -3.7800054860e-04 2.5774164624e+00 -4.4642162651e+00 2.5774164624e+00 4.4642162651e+00 
56900 5.0803078747e+00 -3.7076366871e-04 2.5774237953e+00 -4.4642289661e+00 2.5774237953e+00 4.4642289661e+00 
57000 5.0803080425e+00 -3.6363930598e-04 2.5774309878e+00 -4.4642414240e+00 2.5774309878e+00 4.4642414240e+00 
57100 5.0803082088e+00 -3.5662633023e-04 2.5774380421e+00 -4.4642536424e+00 2.5774380421e+00 4.4642536424e+00 
57200 5.0803083734e+00 -3.4972360383e-04 2.5774449604e+00 -4.4642656251e+00 2.5774449604e+00 4.4642656251e+00 
57300 5.0803085364e+00 -3.4292998244e-04 2.5774517447e+00 -4.4642773759e+00 2.5774517447e+00 4.4642773759e+00 
57400 5.0803086977e+00 -3.3624431568e-04 2.5774583972e+00 -4.4642888983e+00 2.5774583972e+00 4.4642888983e+00 
57500 5.0803088572e+00 -3.2966544791e-04 2.5774649200e+00 -4.4643001961e+00 2.5774649200e+00 4.4643001961e+00 
57600 5.0803090150e+00 -3.2319221887e-04 2.5774713151e+00 -4.4643112729e+00 2.5774713151e+00 4.4643112729e+00 
57700 5.0803091710e+00 -3.1682346434e-04 2.5774775847e+00 -4.4643221321e+00 2.5774775847e+00 4.4643221321e+00 
57800 5.0803093252e+00 -3.1055801677e-04 2.5774837307e+00 -4.4643327773e+00 2.5774837307e+00 4.4643327773e+00 
57900 5.0803094777e+00 -3.0439470596e-04 2.5774897551e+00 -4.4643432119e+00 2.5774897551e+00 4.4643432119e+00 
58000 5.0803096283e+00 -2.9833235960e-04 2.5774956600e+00 -4.4643534394e+00 2.5774956600e+00 4.4643534394e+00 
58100 5.0803097770e+00 -2.9236980390e-04 2.5775014473e+00 -4.4643634633e+00 2.5775014473e+00 4.4643634633e+00 
58200 5.0803099240e+00 -2.8650586414e-04 2.5775071188e+00 -4.4643732867e+00 2.5775071188e+00 4.4643732867e+00 
58300 5.0803100691e+00 -2.8073936523e-04 2.5775126767e+00 -4.4643829131e+00 2.5775126767e+00 4.4643829131e+00 
58400 5.0803102123e+00 -2.7506913224e-04 2.5775181226e+00 -4.4643923458e+00 2.5775181226e+00 4.4643923458e+00 
58500 5.0803103537e+00 -2.6949399091e-04 2.5775234585e+00 -4.4644015879e+00 2.5775234585e+00 4.4644015879e+00 
58600 5.0803104931e+00 -2.6401276816e-04 2.5775286863e+00 -4.4644106426e+00 2.5775286863e+00 4.4644106426e+00 
58700 5.0803106308e+00 -2.5862429255e-04 2.5775338077e+00 -4.4644195132e+00 2.5775338077e+00 4.4644195132e+00 
58800 5.0803107665e+00 -2.5332739479e-04 2.5775388246e+00 -4.4644282027e+00 2.5775388246e+00 4.4644282027e+00 
58900 5.0803109004e+00 -2.4812090816e-04 2.5775437388e+00 -4.4644367143e+00 2.5775437388e+00 4.4644367143e+00 
59000 5.0803110325e+00 -2.4300366893e-04 2.5775485519e+00 -4.4644450509e+00 2.5775485519e+00 4.4644450509e+00 
59100 5.0803111626e+00 -2.3797451681e-04 2.5775532657e+00 -4.4644532155e+00 2.5775532657e+00 4.4644532155e+00 
59200 5.0803112909e+00 -2.3303229533e-04 2.5775578820e+00 -4.4644612111e+00 2.5775578820e+00 4.4644612111e+00 
59300 5.0803114174e+00 -2.2817585224e-04 2.5775624024e+00 -4.4644690407e+00 2.5775624024e+00 4.4644690407e+00 
59400 5.0803115420e+00 -2.2340403989e-04 2.5775668286e+00 -4.4644767071e+00 2.5775668286e+00 4.4644767071e+00 
59500 5.0803116647e+00 -2.1871571556e-04 2.5775711623e+00 -4.4644842132e+00 2.5775711623e+00 4.4644842132e+00 
59600 5.0803117856e+00 -2.1410974185e-04 2.5775754049e+00 -4.4644915617e+00 2.5775754049e+00 4.4644915617e+00 
59700 5.0803119048e+00 -2.0958498695e-04 2.5775795583e+00 -4.4644987554e+00 2.5775795583e+00 4.4644987554e+00 
59800 5.0803120220e+00 -2.0514032501e-04 2.5775836238e+00 -4.4645057972e+00 2.5775836238e+00 4.4645057972e+00 
59900 5.0803121375e+00 -2.0077463644e-04 2.5775876031e+00 -4.4645126895e+00 2.5775876031e+00 4.4645126895e+00 
60000 5.0803122512e+00 -1.9648680816e-04 2.5775914977e+00 -4.4645194352e+00 2.5775914977e+00 4.4645194352e+00 
60100 5.0803123632e+00 -1.9227573391e-04 2.5775953092e+00 -4.4645260368e+00 2.5775953092e+00 4.4645260368e+00 
60200 5.0803124733e+00 -1.8814031451e-04 2.5775990389e+00 -4.4645324970e+00 2.5775990389e+00 4.4645324970e+00 
60300 5.0803125817e+00 -1.8407945811e-04 2.5776026885e+00 -4.4645388181e+00 2.5776026885e+00 4.4645388181e+00 
60400 5.0803126884e+00 -1.8009208043e-04 2.5776062592e+00 -4.4645450029e+00 2.5776062592e+00 4.4645450029e+00 
60500 5.0803127933e+00 -1.7617710499e-04 2.5776097526e+00 -4.4645510536e+00 2.5776097526e+00 4.4645510536e+00 
60600 5.0803128966e+00 -1.7233346334e-04 2.5776131701e+00 -4.4645569728e+00 2.5776131701e+00 4.4645569728e+00 
60700 5.0803129981e+00 -1.6856009522e-04 2.5776165129e+00 -4.4645627629e+00 2.5776165129e+00 4.4645627629e+00 
60800 5.0803130980e+00 -1.6485594883e-04 2.5776197826e+00 -4.4645684261e+00 2.5776197826e+00 4.4645684261e+00 
60900 5.0803131962e+00 -1.6121998094e-04 2.5776229805e+00 -4.4645739649e+00 2.5776229805e+00 4.4645739649e+00 
61000 5.0803132927e+00 -1.5765115711e-04 2.5776261078e+00 -4.4645793816e+00 2.5776261078e+00 4.4645793816e+00 
61100 5.0803133877e+00 -1.5414845185e-04 2.5776291658e+00 -4.4645846783e+00 2.5776291658e+00 4.4645846783e+00 
61200 5.0803134810e+00 -1.5071084875e-04 2.5776321560e+00 -4.4645898573e+00 2.5776321560e+00 4.4645898573e+00 
61300 5.0803135727e+00 -1.4733734064e-04 2.5776350794e+00 -4.4645949209e+00 2.5776350794e+00 4.4645949209e+00 
61400 5.0803136629e+00 -1.4402692973e-04 2.5776379374e+00 -4.4645998711e+00 2.5776379374e+00 4.4645998711e+00 
61500 5.0803137515e+00 -1.4077862772e-04 2.5776407312e+00 -4.4646047100e+00 2.5776407312e+00 4.4646047100e+00 
61600 5.0803138385e+00 -1.3759145594e-04 2.5776434619e+00 -4.4646094399e+00 2.5776434619e+00 4.4646094399e+00 
61700 5.0803139241e+00 -1.3446444541e-04 2.5776461309e+00 -4.4646140626e+00 2.5776461309e+00 4.4646140626e+00 
61800 5.0803140081e+00 -1.3139663700e-04 2.5776487392e+00 -4.4646185803e+00 2.5776487392e+00 4.4646185803e+00 
61900 5.0803140907e+00 -1.2838708148e-04 2.5776512879e+00 -4.4646229949e+00 2.5776512879e+00 4.4646229949e+00 
62000 5.0803141718e+00 -1.2543483962e-04 2.5776537783e+00 -4.4646273084e+00 2.5776537783e+00 4.4646273084e+00 
62100 5.0803142514e+00 -1.2253898225e-04 2.5776562114e+00 -4.4646315227e+00 2.5776562114e+00 4.4646315227e+00 
62200 5.0803143296e+00 -1.1969859033e-04 2.5776585884e+00 -4.4646356396e+00 2.5776585884e+00 4.4646356396e+00 
62300 5.0803144064e+00 -1.1691275503e-04 2.5776609102e+00 -4.4646396612e+00 2.5776609102e+00 4.4646396612e+00 
62400 5.0803144818e+00 -1.1418057777e-04 2.5776631780e+00 -4.4646435892e+00 2.5776631780e+00 4.4646435892e+00 
62500 5.0803145559e+00 -1.1150117024e-04 2.5776653928e+00 -4.4646474253e+00 2.5776653928e+00 4.4646474253e+00 
62600 5.0803146285e+00 -1.0887365449e-04 2.5776675557e+00 -4.4646511715e+00 2.5776675557e+00 4.4646511715e+00 
62700 5.0803146999e+00 -1.0629716291e-04 2.5776696675e+00 -4.4646548293e+00 2.5776696675e+00 4.4646548293e+00 
62800 5.0803147699e+00 -1.0377083829e-04 2.5776717294e+00 -4.4646584006e+00 2.5776717294e+00 4.4646584006e+00 
62900 5.0803148387e+00 -1.0129383384e-04 2.5776737423e+00 -4.4646618870e+00 2.5776737423e+00 4.4646618870e+00 
63000 5.0803149061e+00 -9.8865313164e-05 2.5776757071e+00 -4.4646652902e+00 2.5776757071e+00 4.4646652902e+00 
63100 5.0803149723e+00 -9.6484450327e-05 2.5776776249e+00 -4.4646686118e+00 2.5776776249e+00 4.4646686118e+00 
63200 5.0803150373e+00 -9.4150429813e-05 2.5776794964e+00 -4.4646718534e+00 2.5776794964e+00 4.4646718534e+00 
63300 5.0803151011e+00 -9.1862446542e-05 2.5776813227e+00 -4.4646750166e+00 2.5776813227e+00 4.4646750166e+00 
63400 5.0803151636e+00 -8.9619705847e-05 2.5776831045e+00 -4.4646781029e+00 2.5776831045e+00 4.4646781029e+00 
63500 5.0803152250e+00 -8.7421423479e-05 2.5776848429e+00 -4.4646811138e+00 2.5776848429e+00 4.4646811138e+00 
63600 5.0803152851e+00 -8.5266825579e-05 2.5776865387e+00 -4.4646840509e+00 2.5776865387e+00 4.4646840509e+00 
63700 5.0803153442e+00 -8.3155148653e-05 2.5776881926e+00 -4.4646869156e+00 2.5776881926e+00 4.4646869156e+00 
63800 5.0803154021e+00 -8.1085639547e-05 2.5776898056e+00 -4.4646897094e+00 2.5776898056e+00 4.4646897094e+00 
63900 5.0803154589e+00 -7.9057555424e-05 2.5776913784e+00 -4.4646924336e+00 2.5776913784e+00 4.4646924336e+00 
64000 5.0803155146e+00 -7.7070163716e-05 2.5776929119e+00 -4.4646950897e+00 2.5776929119e+00 4.4646950897e+00 
64100 5.0803155692e+00 -7.5122742088e-05 2.5776944069e+00 -4.4646976791e+00 2.5776944069e+00 4.4646976791e+00 
64200 5.0803156228e+00 -7.3214578402e-05 2.5776958640e+00 -4.4647002029e+00 2.5776958640e+00 4.4647002029e+00 
64300 5.0803156753e+00 -7.1344970658e-05 2.5776972842e+00 -4.4647026627e+00 2.5776972842e+00 4.4647026627e+00 
64400 5.0803157268e+00 -6.9513226956e-05 2.5776986681e+00 -4.4647050597e+00 2.5776986681e+00 4.4647050597e+00 
64500 5.0803157774e+00 -6.8659041159e-05 2.5776986681e+00 -4.4647050597e+00 2.5776986681e+00 4.4647050597e+00 
64600 5.0803158270e+00 -6.7826168097e-05 2.5776986681e+00 -4.4647050597e+00 2.5776986681e+00 4.4647050597e+00 
64700 5.0803158756e+00 -6.7014053711e-05 2.5776986681e+00 -4.4647050597e+00 2.5776986681e+00 4.4647050597e+00 
64800 5.0803159232e+00 -6.6222148757e-05 2.5776986681e+00 -4.4647050597e+00 2.5776986681e+00 4.4647050597e+00 
64900 5.0803159699e+00 -6.5449909340e-05 2.5776986681e+00 -4.4647050597e+00 2.5776986681e+00 4.4647050597e+00 
65000 5.0803160156e+00 -6.4696797410e-05 2.5776986681e+00 -4.4647050597e+00 2.5776986681e+00 4.4647050597e+00 
65100 5.0803160604e+00 -6.3962281224e-05 2.5776986681e+00 -4.4647050597e+00 2.5776986681e+00 4.4647050597e+00 
65200 5.0803161044e+00 -6.3245835761e-05 2.5776986681e+00 -4.4647050597e+00 2.5776986681e+00 4.4647050597e+00 
65300 5.0803161474e+00 -6.2546943112e-05 2.5776986681e+00 -4.4647050597e+00 2.5776986681e+00 4.4647050597e+00 
65400 5.0803161896e+00 -6.1865092836e-05 2.5776986681e+00 -4.4647050597e+00 2.5776986681e+00 4.4647050597e+00 
65500 5.0803162310e+00 -6.1199782272e-05 2.5776986681e+00 -4.4647050597e+00 2.5776986681e+00 4.4647050597e+00 
65600 5.0803162715e+00 -6.0550516837e-05 2.5776986681e+00 -4.4647050597e+00 2.5776986681e+00 4.4647050597e+00 
65700 5.0803163112e+00 -5.9916810282e-05 2.5776986681e+00 -4.4647050597e+00 2.5776986681e+00 4.4647050597e+00 
65800 5.0803163500e+00 -5.9298184924e-05 2.5776986681e+00 -4.4647050597e+00 2.5776986681e+00 4.4647050597e+00 
65900 5.0803163881e+00 -5.8694171856e-05 2.5776986681e+00 -4.4647050597e+00 2.5776986681e+00 4.4647050597e+00 
66000 5.0803164255e+00 -5.8104311119e-05 2.5776986681e+00 -4.4647050597e+00 2.5776986681e+00 4.4647050597e+00 
66100 5.0803164620e+00 -5.7528151864e-05 2.5776986681e+00 -4.4647050597e+00 2.5776986681e+00 4.4647050597e+00 
66200 5.0803164978e+00 -5.6965252486e-05 2.5776986681e+00 -4.4647050597e+00 2.5776986681e+00 4.4647050597e+00 
66300 5.0803165329e+00 -5.6415180728e-05 2.5776986681e+00 -4.4647050597e+00 2.5776986681e+00 4.4647050597e+00 
66400 5.0803165672e+00 -5.5877513778e-05 2.5776986681e+00 -4.4647050597e+00 2.5776986681e+00 4.4647050597e+00 
66500 5.0803166009e+00 -5.5351838334e-05 2.5776986681e+00 -4.4647050597e+00 2.5776986681e+00 4.4647050597e+00 
66600 5.0803166338e+00 -5.4837750661e-05 2.5776986681e+00 -4.4647050597e+00 2.5776986681e+00 4.4647050597e+00 
66700 5.0803166661e+00 -5.4334856619e-05 2.5776986681e+00 -4.4647050597e+00 2.5776986681e+00 4.4647050597e+00 
66800 5.0803166977e+00 -5.3842771687e-05 2.5776986681e+00 -4.4647050597e+00 2.5776986681e+00 4.4647050597e+00 
66900 5.0803167287e+00 -5.3361120963e-05 2.5776986681e+00 -4.4647050597e+00 2.5776986681e+00 4.4647050597e+00 
67000 5.0803167590e+00 -5.2889539146e-05 2.5776986681e+00 -4.4647050597e+00 2.5776986681e+00 4.4647050597e+00 
67100 5.0803167886e+00 -5.2427670518e-05 2.5776986681e+00 -4.4647050597e+00 2.5776986681e+00 4.4647050597e+00 
67200 5.0803168177e+00 -5.1975168900e-05 2.5776986681e+00 -4.4647050597e+00 2.5776986681e+00 4.4647050597e+00 
67300 5.0803168462e+00 -5.1531697598e-05 2.5776986681e+00 -4.4647050597e+00 2.5776986681e+00 4.4647050597e+00 
67400 5.0803168740e+00 -5.1096929346e-05 2.5776986681e+00 -4.4647050597e+00 2.5776986681e+00 4.4647050597e+00 
67500 5.0803169013e+00 -5.0670546225e-05 2.5776986681e+00 -4.4647050597e+00 2.5776986681e+00 4.4647050597e+00 
67600 5.0803169280e+00 -5.0252239591e-05 2.5776986681e+00 -4.4647050597e+00 2.5776986681e+00 4.4647050597e+00 
67700 5.0803169541e+00 -4.9841709966e-05 2.5776986681e+00 -4.4647050597e+00 2.5776986681e+00 4.4647050597e+00 
67800 5.0803169797e+00 -4.9438666954e-05 2.5776986681e+00 -4.4647050597e+00 2.5776986681e+00 4.4647050597e+00 
67900 5.0803170048e+00 -4.9042829120e-05 2.5776986681e+00 -4.4647050597e+00 2.5776986681e+00 4.4647050597e+00 
68000 5.0803170293e+00 -4.8653923880e-05 2.5776986681e+00 -4.4647050597e+00 2.5776986681e+00 4.4647050597e+00 
68100 5.0803170533e+00 -4.8271687377e-05 2.5776986681e+00 -4.4647050597e+00 2.5776986681e+00 4.4647050597e+00 
68200 5.0803170768e+00 -4.7895864352e-05 2.5776986681e+00 -4.4647050597e+00 2.5776986681e+00 4.4647050597e+00 
68300 5.0803170999e+00 -4.7526208012e-05 2.5776986681e+00 -4.4647050597e+00 2.5776986681e+00 4.4647050597e+00 
68400 5.0803171224e+00 -4.7162479888e-05 2.5776986681e+00 -4.4647050597e+00 2.5776986681e+00 4.4647050597e+00 
68500 5.0803171444e+00 -4.6804449694e-05 2.5776986681e+00 -4.4647050597e+00 2.5776986681e+00 4.4647050597e+00 
68600 5.0803171660e+00 -4.6451895179e-05 2.5776986681e+00 -4.4647050597e+00 2.5776986681e+00 4.4647050597e+00 
68700 5.0803171871e+00 -4.6104601977e-05 2.5776986681e+00 -4.4647050597e+00 2.5776986681e+00 4.4647050597e+00 
68800 5.0803172078e+00 -4.5762363453e-05 2.5776986681e+00 -4.4647050597e+00 2.5776986681e+00 4.4647050597e+00 
68900 5.0803172280e+00 -4.5424980544e-05 2.5776986681e+00 -4.4647050597e+00 2.5776986681e+00 4.4647050597e+00 
69000 5.0803172478e+00 -4.5092261607e-05 2.5776986681e+00 -4.4647050597e+00 2.5776986681e+00 4.4647050597e+00 
69100 5.0803172672e+00 -4.4764022251e-05 2.5776986681e+00 -4.4647050597e+00 2.5776986681e+00 4.4647050597e+00 
69200 5.0803172861e+00 -4.4440085178e-05 2.5776986681e+00 -4.4647050597e+00 2.5776986681e+00 4.4647050597e+00 
69300 5.0803173047e+00 -4.4120280023e-05 2.5776986681e+00 -4.4647050597e+00 2.5776986681e+00 4.4647050597e+00 
69400 5.0803173228e+00 -4.3804443183e-05 2.5776986681e+00 -4.4647050597e+00 2.5776986681e+00 4.4647050597e+00 
69500 5.0803173406e+00 -4.3492417659e-05 2.5776986681e+00 -4.4647050597e+00 2.5776986681e+00 4.4647050597e+00 
69600 5.0803173580e+00 -4.3184052889e-05 2.5776986681e+00 -4.4647050597e+00 2.5776986681e+00 4.4647050597e+00 
69700 5.0803173750e+00 -4.2879204581e-05 2.5776986681e+00 -4.4647050597e+00 2.5776986681e+00 4.4647050597e+00 
69800 5.0803173917e+00 -4.2577734550e-05 2.5776986681e+00 -4.4647050597e+00 2.5776986681e+00 4.4647050597e+00 
69900 5.0803174080e+00 -4.2279510554e-05 2.5776986681e+00 -4.4647050597e+00 2.5776986681e+00 4.4647050597e+00 
70000 5.0803174239e+00 -4.1984406131e-05 2.5776986681e+00 -4.4647050597e+00 2.5776986681e+00 4.4647050597e+00 
70100 5.0803174395e+00 -4.1692300435e-05 2.5776986681e+00 -4.4647050597e+00 2.5776986681e+00 4.4647050597e+00 
70200 5.0803174548e+00 -4.1403078074e-05 2.5776986681e+00 -4.4647050597e+00 2.5776986681e+00 4.4647050597e+00 
70300 5.0803174697e+00 -4.1116628954e-05 2.5776986681e+00 -4.4647050597e+00 2.5776986681e+00 4.4647050597e+00 
70400 5.0803174843e+00 -4.0832848114e-05 2.5776986681e+00 -4.4647050597e+00 2.5776986681e+00 4.4647050597e+00 
70500 5.0803174986e+00 -4.0551635572e-05 2.5776986681e+00 -4.4647050597e+00 2.5776986681e+00 4.4647050597e+00 
70600 5.0803175126e+00 -4.0272896172e-05 2.5776986681e+00 -4.4647050597e+00 2.5776986681e+00 4.4647050597e+00 
70700 5.0803175263e+00 -3.9996539424e-05 2.5776986681e+00 -4.4647050597e+00 2.5776986681e+00 4.4647050597e+00 
70800 5.0803175397e+00 -3.9722479359e-05 2.5776986681e+00 -4.4647050597e+00 2.5776986681e+00 4.4647050597e+00 
70900 5.0803175528e+00 -3.9450634376e-05 2.5776986681e+00 -4.4647050597e+00 2.5776986681e+00 4.4647050597e+00 
71000 5.0803175656e+00 -3.9180927096e-05 2.5776986681e+00 -4.4647050597e+00 2.5776986681e+00 4.4647050597e+00 
71100 5.0803175781e+00 -3.8913284214e-05 2.5776986681e+00 -4.4647050597e+00 2.5776986681e+00 4.4647050597e+00 
71200 5.0803175904e+00 -3.8647636360e-05 2.5776986681e+00 -4.4647050597e+00 2.5776986681e+00 4.4647050597e+00 
71300 5.0803176024e+00 -3.8383917960e-05 2.5776986681e+00 -4.4647050597e+00 2.5776986681e+00 4.4647050597e+00 
71400 5.0803176142e+00 -3.8122067091e-05 2.5776986681e+00 -4.4647050597e+00 2.5776986681e+00 4.4647050597e+00 
71500 5.0803176256e+00 -3.7862025356e-05 2.5776986681e+00 -4.4647050597e+00 2.5776986681e+00 4.4647050597e+00 
71600 5.0803176369e+00 -3.7603737742e-05 2.5776986681e+00 -4.4647050597e+00 2.5776986681e+00 4.4647050597e+00 
71700 5.0803176479e+00 -3.7347152498e-05 2.5776986681e+00 -4.4647050597e+00 2.5776986681e+00 4.4647050597e+00 
71800 5.0803176586e+00 -3.7092221004e-05 2.5776986681e+00 -4.4647050597e+00 2.5776986681e+00 4.4647050597e+00 
71900 5.0803176692e+00 -3.6838897645e-05 2.5776986681e+00 -4.4647050597e+00 2.5776986681e+00 4.4647050597e+00 
72000 5.0803176795e+00 -3.6587139694e-05 2.5776986681e+00 -4.4647050597e+00 2.5776986681e+00 4.4647050597e+00 
72100 5.0803176895e+00 -3.6336907191e-05 2.5776986681e+00 -4.4647050597e+00 2.5776986681e+00 4.4647050597e+00 
72200 5.0803176994e+00 -3.6088162827e-05 2.5776986681e+00 -4.4647050597e+00 2.5776986681e+00 4.4647050597e+00 
72300 5.0803177090e+00 -3.5840871830e-05 2.5776986681e+00 -4.4647050597e+00 2.5776986681e+00 4.4647050597e+00 
72400 5.0803177185e+00 -3.5595001858e-05 2.5776986681e+00 -4.4647050597e+00 2.5776986681e+00 4.4647050597e+00 
72500 5.0803177277e+00 -3.5350522888e-05 2.5776986681e+00 -4.4647050597e+00 2.5776986681e+00 4.4647050597e+00 
72600 5.0803177367e+00 -3.5107407114e-05 2.5776986681e+00 -4.4647050597e+00 2.5776986681e+00 4.4647050597e+00 
72700 5.0803177455e+00 -3.4865628841e-05 2.5776986681e+00 -4.4647050597e+00 2.5776986681e+00 4.4647050597e+00 
72800 5.0803177542e+00 -3.4625164392e-05 2.5776986681e+00 -4.4647050597e+00 2.5776986681e+00 4.4647050597e+00 
72900 5.0803177626e+00 -3.4385992009e-05 2.5776986681e+00 -4.4647050597e+00 2.5776986681e+00 4.4647050597e+00 
73000 5.0803177709e+00 -3.4148091756e-05 2.5776986681e+00 -4.4647050597e+00 2.5776986681e+00 4.4647050597e+00 
73100 5.0803177790e+00 -3.3911445435e-05 2.5776986681e+00 -4.4647050597e+00 2.5776986681e+00 4.4647050597e+00 
73200 5.0803177869e+00 -3.3676036491e-05 2.5776986681e+00 -4.4647050597e+00 2.5776986681e+00 4.4647050597e+00 
73300 5.0803177946e+00 -3.3441849932e-05 2.5776986681e+00 -4.4647050597e+00 2.5776986681e+00 4.4647050597e+00 
73400 5.0803178022e+00 -3.3208872247e-05 2.5776986681e+00 -4.4647050597e+00 2.5776986681e+00 4.4647050597e+00 
73500 5.0803178096e+00 -3.2977091318e-05 2.5776986681e+00 -4.4647050597e+00 2.5776986681e+00 4.4647050597e+00 
73600 5.0803178169e+00 -3.2746496352e-05 2.5776986681e+00 -4.4647050597e+00 2.5776986681e+00 4.4647050597e+00 
73700 5.0803178240e+00 -3.2517077802e-05 2.5776986681e+00 -4.4647050597e+00 2.5776986681e+00 4.4647050597e+00 
73800 5.0803178309e+00 -3.2288827292e-05 2.5776986681e+00 -4.4647050597e+00 2.5776986681e+00 4.4647050597e+00 
73900 5.0803178377e+00 -3.2061737554e-05 2.5776986681e+00 -4.4647050597e+00 2.5776986681e+00 4.4647050597e+00 
74000 5.0803178443e+00 -3.1835802351e-05 2.5776986681e+00 -4.4647050597e+00 2.5776986681e+00 4.4647050597e+00 
74100 5.0803178508e+00 -3.1611016423e-05 2.5776986681e+00 -4.4647050597e+00 2.5776986681e+00 4.4647050597e+00 
74200 5.0803178572e+00 -3.1387375415e-05 2.5776986681e+00 -4.4647050597e+00 2.5776986681e+00 4.4647050597e+00 
74300 5.0803178634e+00 -3.1164875822e-05 2.5776986681e+00 -4.4647050597e+00 2.5776986681e+00 4.4647050597e+00 
74400 5.0803178695e+00 -3.0943514929e-05 2.5776986681e+00 -4.4647050597e+00 2.5776986681e+00 4.4647050597e+00 
74500 5.0803178754e+00 -3.0723290755e-05 2.5776986681e+00 -4.4647050597e+00 2.5776986681e+00 4.4647050597e+00 
74600 5.0803178812e+00 -3.0504202000e-05 2.5776986681e+00 -4.4647050597e+00 2.5776986681e+00 4.4647050597e+00 
74700 5.0803178869e+00 -3.0286247992e-05 2.5776986681e+00 -4.4647050597e+00 2.5776986681e+00 4.4647050597e+00 
74800 5.0803178925e+00 -3.0069428642e-05 2.5776986681e+00 -4.4647050597e+00 2.5776986681e+00 4.4647050597e+00 
74900 5.0803178980e+00 -2.9853744389e-05 2.5776986681e+00 -4.4647050597e+00 2.5776986681e+00 4.4647050597e+00 
75000 5.0803179033e+00 -2.9639196163e-05 2.5776986681e+00 -4.4647050597e+00 2.5776986681e+00 4.4647050597e+00 
75100 5.0803179085e+00 -2.9425785333e-05 2.5776986681e+00 -4.4647050597e+00 2.5776986681e+00 4.4647050597e+00 
75200 5.0803179136e+00 -2.9213513673e-05 2.5776986681e+00 -4.4647050597e+00 2.5776986681e+00 4.4647050597e+00 
75300 5.0803179186e+00 -2.9002383317e-05 2.5776986681e+00 -4.4647050597e+00 2.5776986681e+00 4.4647050597e+00 
75400 5.0803179235e+00 -2.8792396724e-05 2.5776986681e+00 -4.4647050597e+00 2.5776986681e+00 4.4647050597e+00 
75500 5.0803179283e+00 -2.8583556638e-05 2.5776986681e+00 -4.4647050597e+00 2.5776986681e+00 4.4647050597e+00 
75600 5.0803179330e+00 -2.8375866061e-05 2.5776986681e+00 -4.4647050597e+00 2.5776986681e+00 4.4647050597e+00 
75700 5.0803179375e+00 -2.8169328210e-05 2.5776986681e+00 -4.4647050597e+00 2.5776986681e+00 4.4647050597e+00 
75800 5.0803179420e+00 -2.7963946494e-05 2.5776986681e+00 -4.4647050597e+00 2.5776986681e+00 4.4647050597e+00 
75900 5.0803179464e+00 -2.7759724480e-05 2.5776986681e+00 -4.4647050597e+00 2.5776986681e+00 4.4647050597e+00 
76000 5.0803179507e+00 -2.7556665867e-05 2.5776986681e+00 -4.4647050597e+00 2.5776986681e+00 4.4647050597e+00 
76100 5.0803179549e+00 -2.7354774458e-05 2.5776986681e+00 -4.4647050597e+00 2.5776986681e+00 4.4647050597e+00 
76200 5.0803179590e+00 -2.7154054135e-05 2.5776986681e+00 -4.4647050597e+00 2.5776986681e+00 4.4647050597e+00 
76300 5.0803179630e+00 -2.6954508835e-05 2.5776986681e+00 -4.4647050597e+00 2.5776986681e+00 4.4647050597e+00 
76400 5.0803179670e+00 -2.6756142526e-05 2.5776986681e+00 -4.4647050597e+00 2.5776986681e+00 4.4647050597e+00 
76500 5.0803179708e+00 -2.6558959188e-05 2.5776986681e+00 -4.4647050597e+00 2.5776986681e+00 4.4647050597e+00 
76600 5.0803179746e+00 -2.6362962795e-05 2.5776986681e+00 -4.4647050597e+00 2.5776986681e+00 4.4647050597e+00 
76700 5.0803179783e+00 -2.6168157289e-05 2.5776986681e+00 -4.4647050597e+00 2.5776986681e+00 4.4647050597e+00 
76800 5.0803179819e+00 -2.5974546569e-05 2.5776986681e+00 -4.4647050597e+00 2.5776986681e+00 4.4647050597e+00 
76900 5.0803179854e+00 -2.5782134470e-05 2.5776986681e+00 -4.4647050597e+00 2.5776986681e+00 4.4647050597e+00 
77000 5.0803179889e+00 -2.5590924751e-05 2.5776986681e+00 -4.4647050597e+00 2.5776986681e+00 4.4647050597e+00 
77100 5.0803179923e+00 -2.5400921080e-05 2.5776986681e+00 -4.4647050597e+00 2.5776986681e+00 4.4647050597e+00 
77200 5.0803179956e+00 -2.5212127017e-05 2.5776986681e+00 -4.4647050597e+00 2.5776986681e+00 4.4647050597e+00 
77300 5.0803179988e+00 -2.5024546006e-05 2.5776986681e+00 -4.4647050597e+00 2.5776986681e+00 4.4647050597e+00 
77400 5.0803180020e+00 -2.4838181361e-05 2.5776986681e+00 -4.4647050597e+00 2.5776986681e+00 4.4647050597e+00 
77500 5.0803180051e+00 -2.4653036255e-05 2.5776986681e+00 -4.4647050597e+00 2.5776986681e+00 4.4647050597e+00 
77600 5.0803180081e+00 -2.4469113714e-05 2.5776986681e+00 -4.4647050597e+00 2.5776986681e+00 4.4647050597e+00 
77700 5.0803180111e+00 -2.4286416601e-05 2.5776986681e+00 -4.4647050597e+00 2.5776986681e+00 4.4647050597e+00 
77800 5.0803180140e+00 -2.4104947614e-05 2.5776986681e+00 -4.4647050597e+00 2.5776986681e+00 4.4647050597e+00 
77900 5.0803180169e+00 -2.3924709279e-05 2.5776986681e+00 -4.4647050597e+00 2.5776986681e+00 4.4647050597e+00 
78000 5.0803180197e+00 -2.3745703937e-05 2.5776986681e+00 -4.4647050597e+00 2.5776986681e+00 4.4647050597e+00 
78100 5.0803180224e+00 -2.3567933744e-05 2.5776986681e+00 -4.4647050597e+00 2.5776986681e+00 4.4647050597e+00 
78200 5.0803180251e+00 -2.3391400661e-05 2.5776986681e+00 -4.4647050597e+00 2.5776986681e+00 4.4647050597e+00 
78300 5.0803180277e+00 -2.3216106457e-05 2.5776986681e+00 -4.4647050597e+00 2.5776986681e+00 4.4647050597e+00 
78400 5.0803180302e+00 -2.3042052694e-05 2.5776986681e+00 -4.4647050597e+00 2.5776986681e+00 4.4647050597e+00 
78500 5.0803180328e+00 -2.2869240731e-05 2.5776986681e+00 -4.4647050597e+00 2.5776986681e+00 4.4647050597e+00 
78600 5.0803180352e+00 -2.2697671720e-05 2.5776986681e+00 -4.4647050597e+00 2.5776986681e+00 4.4647050597e+00 
78700 5.0803180376e+00 -2.2527346604e-05 2.5776986681e+00 -4.4647050597e+00 2.5776986681e+00 4.4647050597e+00 
78800 5.0803180400e+00 -2.2358266109e-05 2.5776986681e+00 -4.4647050597e+00 2.5776986681e+00 4.4647050597e+00 
78900 5.0803180423e+00 -2.2190430751e-05 2.5776986681e+00 -4.4647050597e+00 2.5776986681e+00 4.4647050597e+00 
79000 5.0803180445e+00 -2.2023840831e-05 2.5776986681e+00 -4.4647050597e+00 2.5776986681e+00 4.4647050597e+00 
79100 5.0803180468e+00 -2.1858496432e-05 2.5776986681e+00 -4.4647050597e+00 2.5776986681e+00 4.4647050597e+00 
79200 5.0803180489e+00 -2.1694397424e-05 2.5776986681e+00 -4.4647050597e+00 2.5776986681e+00 4.4647050597e+00 
79300 5.0803180510e+00 -2.1531543460e-05 2.5776986681e+00 -4.4647050597e+00 2.5776986681e+00 4.4647050597e+00 
79400 5.0803180531e+00 -2.1369933977e-05 2.5776986681e+00 -4.4647050597e+00 2.5776986681e+00 4.4647050597e+00 
79500 5.0803180552e+00 -2.1209568199e-05 2.5776986681e+00 -4.4647050597e+00 2.5776986681e+00 4.4647050597e+00 
79600 5.0803180571e+00 -2.1050445136e-05 2.5776986681e+00 -4.4647050597e+00 2.5776986681e+00 4.4647050597e+00 
79700 5.0803180591e+00 -2.0892563586e-05 2.5776986681e+00 -4.4647050597e+00 2.5776986681e+00 4.4647050597e+00 
79800 5.0803180610e+00 -2.0735922139e-05 2.5776986681e+00 -4.4647050597e+00 2.5776986681e+00 4.4647050597e+00 
79900 5.0803180629e+00 -2.0580519174e-05 2.5776986681e+00 -4.4647050597e+00 2.5776986681e+00 4.4647050597e+00 
80000 5.0803180647e+00 -2.0426352865e-05 2.5776986681e+00 -4.4647050597e+00 2.5776986681e+00 4.4647050597e+00 
80100 5.0803180665e+00 -2.0273421184e-05 2.5776986681e+00 -4.4647050597e+00 2.5776986681e+00 4.4647050597e+00 
80200 5.0803180683e+00 -2.0121721900e-05 2.5776986681e+00 -4.4647050597e+00 2.5776986681e+00 4.4647050597e+00 
80300 5.0803180700e+00 -1.9971252585e-05 2.5776986681e+00 -4.4647050597e+00 2.5776986681e+00 4.4647050597e+00 
80400 5.0803180717e+00 -1.9822010616e-05 2.5776986681e+00 -4.4647050597e+00 2.5776986681e+00 4.4647050597e+00 
80500 5.0803180733e+00 -1.9673993178e-05 2.5776986681e+00 -4.4647050597e+00 2.5776986681e+00 4.4647050597e+00 
80600 5.0803180750e+00 -1.9527197269e-05 2.5776986681e+00 -4.4647050597e+00 2.5776986681e+00 4.4647050597e+00 
80700 5.0803180765e+00 -1.9381619697e-05 2.5776986681e+00 -4.4647050597e+00 2.5776986681e+00 4.4647050597e+00 
80800 5.0803180781e+00 -1.9237257094e-05 2.5776986681e+00 -4.4647050597e+00 2.5776986681e+00 4.4647050597e+00 
80900 5.0803180796e+00 -1.9094105913e-05 2.5776986681e+00 -4.4647050597e+00 2.5776986681e+00 4.4647050597e+00 
81000 5.0803180811e+00 -1.8952162431e-05 2.5776986681e+00 -4.4647050597e+00 2.5776986681e+00 4.4647050597e+00 
81100 5.0803180826e+00 -1.8811422756e-05 2.5776986681e+00 -4.4647050597e+00 2.5776986681e+00 4.4647050597e+00 
81200 5.0803180840e+00 -1.8671882831e-05 2.5776986681e+00 -4.4647050597e+00 2.5776986681e+00 4.4647050597e+00 
81300 5.0803180854e+00 -1.8533538435e-05 2.5776986681e+00 -4.4647050597e+00 2.5776986681e+00 4.4647050597e+00 
81400 5.0803180868e+00 -1.8396385190e-05 2.5776986681e+00 -4.4647050597e+00 2.5776986681e+00 4.4647050597e+00 
81500 5.0803180881e+00 -1.8260418565e-05 2.5776986681e+00 -4.4647050597e+00 2.5776986681e+00 4.4647050597e+00 
81600 5.0803180895e+00 -1.8125633877e-05 2.5776986681e+00 -4.4647050597e+00 2.5776986681e+00 4.4647050597e+00 
81700 5.0803180907e+00 -1.7992026300e-05 2.5776986681e+00 -4.4647050597e+00 2.5776986681e+00 4.4647050597e+00 
81800 5.0803180920e+00 -1.7859590865e-05 2.5776986681e+00 -4.4647050597e+00 2.5776986681e+00 4.4647050597e+00 
81900 5.0803180933e+00 -1.7728322467e-05 2.5776986681e+00 -4.4647050597e+00 2.5776986681e+00 4.4647050597e+00 
82000 5.0803180945e+00 -1.7598215870e-05 2.5776986681e+00 -4.4647050597e+00 2.5776986681e+00 4.4647050597e+00 
82100 5.0803180957e+00 -1.7469265707e-05 2.5776986681e+00 -4.4647050597e+00 2.5776986681e+00 4.4647050597e+00 
82200 5.0803180968e+00 -1.7341466488e-05 2.5776986681e+00 -4.4647050597e+00 2.5776986681e+00 4.4647050597e+00 
82300 5.0803180980e+00 -1.7214812603e-05 2.5776986681e+00 -4.4647050597e+00 2.5776986681e+00 4.4647050597e+00 
82400 5.0803180991e+00 -1.7089298328e-05 2.5776986681e+00 -4.4647050597e+00 2.5776986681e+00 4.4647050597e+00 
82500 5.0803181002e+00 -1.6964917826e-05 2.5776986681e+00 -4.4647050597e+00 2.5776986681e+00 4.4647050597e+00 
82600 5.0803181013e+00 -1.6841665155e-05 2.5776986681e+00 -4.4647050597e+00 2.5776986681e+00 4.4647050597e+00 
82700 5.0803181024e+00 -1.6719534267e-05 2.5776986681e+00 -4.4647050597e+00 2.5776986681e+00 4.4647050597e+00 
82800 5.0803181034e+00 -1.6598519018e-05 2.5776986681e+00 -4.4647050597e+00 2.5776986681e+00 4.4647050597e+00 
82900 5.0803181044e+00 -1.6478613170e-05 2.5776986681e+00 -4.4647050597e+00 2.5776986681e+00 4.4647050597e+00 
83000 5.0803181054e+00 -1.6359810394e-05 2.5776986681e+00 -4.4647050597e+00 2.5776986681e+00 4.4647050597e+00 
83100 5.0803181064e+00 -1.6242104273e-05 2.5776986681e+00 -4.4647050597e+00 2.5776986681e+00 4.4647050597e+00 
83200 5.0803181074e+00 -1.6125488310e-05 2.5776986681e+00 -4.4647050597e+00 2.5776986681e+00 4.4647050597e+00 
83300 5.0803181083e+00 -1.6009955929e-05 2.5776986681e+00 -4.4647050597e+00 2.5776986681e+00 4.4647050597e+00 
83400 5.0803181092e+00 -1.5895500479e-05 2.5776986681e+00 -4.4647050597e+00 2.5776986681e+00 4.4647050597e+00 
83500 5.0803181101e+00 -1.5782115241e-05 2.5776986681e+00 -4.4647050597e+00 2.5776986681e+00 4.4647050597e+00 
83600 5.0803181110e+00 -1.5669793425e-05 2.5776986681e+00 -4.4647050597e+00 2.5776986681e+00 4.4647050597e+00 
83700 5.0803181119e+00 -1.5558528181e-05 2.5776986681e+00 -4.4647050597e+00 2.5776986681e+00 4.4647050597e+00 
83800 5.0803181128e+00 -1.5448312599e-05 2.5776986681e+00 -4.4647050597e+00 2.5776986681e+00 4.4647050597e+00 
83900 5.0803181136e+00 -1.5339139713e-05 2.5776986681e+00 -4.4647050597e+00 2.5776986681e+00 4.4647050597e+00 
84000 5.0803181144e+00 -1.5231002507e-05 2.5776986681e+00 -4.4647050597e+00 2.5776986681e+00 4.4647050597e+00 
84100 5.0803181152e+00 -1.5123893913e-05 2.5776986681e+00 -4.4647050597e+00 2.5776986681e+00 4.4647050597e+00 
84200 5.0803181160e+00 -1.5017806821e-05 2.5776986681e+00 -4.4647050597e+00 2.5776986681e+00 4.4647050597e+00 
84300 5.0803181168e+00 -1.4912734075e-05 2.5776986681e+00 -4.4647050597e+00 2.5776986681e+00 4.4647050597e+00 
84400 5.0803181176e+00 -1.4808668487e-05 2.5776986681e+00 -4.4647050597e+00 2.5776986681e+00 4.4647050597e+00 
84500 5.0803181183e+00 -1.4705602827e-05 2.5776986681e+00 -4.4647050597e+00 2.5776986681e+00 4.4647050597e+00 
84600 5.0803181190e+00 -1.4603529837e-05 2.5776986681e+00 -4.4647050597e+00 2.5776986681e+00 4.4647050597e+00 
84700 5.0803181198e+00 -1.4502442228e-05 2.5776986681e+00 -4.4647050597e+00 2.5776986681e+00 4.4647050597e+00 
84800 5.0803181205e+00 -1.4402332685e-05 2.5776986681e+00 -4.4647050597e+00 2.5776986681e+00 4.4647050597e+00 
84900 5.0803181211e+00 -1.4303193872e-05 2.5776986681e+00 -4.4647050597e+00 2.5776986681e+00 4.4647050597e+00 
85000 5.0803181218e+00 -1.4205018431e-05 2.5776986681e+00 -4.4647050597e+00 2.5776986681e+00 4.4647050597e+00 
85100 5.0803181225e+00 -1.4107798985e-05 2.5776986681e+00 -4.4647050597e+00 2.5776986681e+00 4.4647050597e+00 
85200 5.0803181231e+00 -1.4011528147e-05 2.5776986681e+00 -4.4647050597e+00 2.5776986681e+00 4.4647050597e+00 
85300 5.0803181238e+00 -1.3916198512e-05 2.5776986681e+00 -4.4647050597e+00 2.5776986681e+00 4.4647050597e+00 
85400 5.0803181244e+00 -1.3821802669e-05 2.5776986681e+00 -4.4647050597e+00 2.5776986681e+00 4.4647050597e+00 
85500 5.0803181250e+00 -1.3728333201e-05 2.5776986681e+00 -4.4647050597e+00 2.5776986681e+00 4.4647050597e+00 
85600 5.0803181256e+00 -1.3635782683e-05 2.5776986681e+00 -4.4647050597e+00 2.5776986681e+00 4.4647050597e+00 
85700 5.0803181262e+00 -1.3544143692e-05 2.5776986681e+00 -4.4647050597e+00 2.5776986681e+00 4.4647050597e+00 
85800 5.0803181268e+00 -1.3453408800e-05 2.5776986681e+00 -4.4647050597e+00 2.5776986681e+00 4.4647050597e+00 
85900 5.0803181274e+00 -1.3363570588e-05 2.5776986681e+00 -4.4647050597e+00 2.5776986681e+00 4.4647050597e+00 
86000 5.0803181280e+00 -1.3274621635e-05 2.5776986681e+00 -4.4647050597e+00 2.5776986681e+00 4.4647050597e+00 
86100 5.0803181285e+00 -1.3186554529e-05 2.5776986681e+00 -4.4647050597e+00 2.5776986681e+00 4.4647050597e+00 
86200 5.0803181291e+00 -1.3099361870e-05 2.5776986681e+00 -4.4647050597e+00 2.5776986681e+00 4.4647050597e+00 
86300 5.0803181296e+00 -1.3013036263e-05 2.5776986681e+00 -4.4647050597e+00 2.5776986681e+00 4.4647050597e+00 
86400 5.0803181301e+00 -1.2927570331e-05 2.5776986681e+00 -4.4647050597e+00 2.5776986681e+00 4.4647050597e+00 
86500 5.0803181306e+00 -1.2842956707e-05 2.5776986681e+00 -4.4647050597e+00 2.5776986681e+00 4.4647050597e+00 
86600 5.0803181311e+00 -1.2759188043e-05 2.5776986681e+00 -4.4647050597e+00 2.5776986681e+00 4.4647050597e+00 
86700 5.0803181316e+00 -1.2676257006e-05 2.5776986681e+00 -4.4647050597e+00 2.5776986681e+00 4.4647050597e+00 
86800 5.0803181321e+00 -1.2594156288e-05 2.5776986681e+00 -4.4647050597e+00 2.5776986681e+00 4.4647050597e+00 
86900 5.0803181326e+00 -1.2512878594e-05 2.5776986681e+00 -4.4647050597e+00 2.5776986681e+00 4.4647050597e+00 
87000 5.0803181331e+00 -1.2432416660e-05 2.5776986681e+00 -4.4647050597e+00 2.5776986681e+00 4.4647050597e+00 
87100 5.0803181335e+00 -1.2352763240e-05 2.5776986681e+00 -4.4647050597e+00 2.5776986681e+00 4.4647050597e+00 
87200 5.0803181340e+00 -1.2273911117e-05 2.5776986681e+00 -4.4647050597e+00 2.5776986681e+00 4.4647050597e+00 
87300 5.0803181344e+00 -1.2195853099e-05 2.5776986681e+00 -4.4647050597e+00 2.5776986681e+00 4.4647050597e+00 
87400 5.0803181349e+00 -1.2118582023e-05 2.5776986681e+00 -4.4647050597e+00 2.5776986681e+00 4.4647050597e+00 
87500 5.0803181353e+00 -1.2042090756e-05 2.5776986681e+00 -4.4647050597e+00 2.5776986681e+00 4.4647050597e+00 
87600 5.0803181357e+00 -1.1966372196e-05 2.5776986681e+00 -4.4647050597e+00 2.5776986681e+00 4.4647050597e+00 
87700 5.0803181361e+00 -1.1891419269e-05 2.5776986681e+00 -4.4647050597e+00 2.5776986681e+00 4.4647050597e+00 
87800 5.0803181365e+00 -1.1817224940e-05 2.5776986681e+00 -4.4647050597e+00 2.5776986681e+00 4.4647050597e+00 
87900 5.0803181369e+00 -1.1743782203e-05 2.5776986681e+00 -4.4647050597e+00 2.5776986681e+00 4.4647050597e+00 
88000 5.0803181373e+00 -1.1671084089e-05 2.5776986681e+00 -4.4647050597e+00 2.5776986681e+00 4.4647050597e+00 
88100 5.0803181377e+00 -1.1599123664e-05 2.5776986681e+00 -4.4647050597e+00 2.5776986681e+00 4.4647050597e+00 
88200 5.0803181381e+00 -1.1527894034e-05 2.5776986681e+00 -4.4647050597e+00 2.5776986681e+00 4.4647050597e+00 
88300 5.0803181385e+00 -1.1457388336e-05 2.5776986681e+00 -4.4647050597e+00 2.5776986681e+00 4.4647050597e+00 
88400 5.0803181388e+00 -1.1387599753e-05 2.5776986681e+00 -4.4647050597e+00 2.5776986681e+00 4.4647050597e+00 
88500 5.0803181392e+00 -1.1318521502e-05 2.5776986681e+00 -4.4647050597e+00 2.5776986681e+00 4.4647050597e+00 
88600 5.0803181395e+00 -1.1250146842e-05 2.5776986681e+00 -4.4647050597e+00 2.5776986681e+00 4.4647050597e+00 
88700 5.0803181399e+00 -1.1182469072e-05 2.5776986681e+00 -4.4647050597e+00 2.5776986681e+00 4.4647050597e+00 
88800 5.0803181402e+00 -1.1115481535e-05 2.5776986681e+00 -4.4647050597e+00 2.5776986681e+00 4.4647050597e+00 
88900 5.0803181406e+00 -1.1049177611e-05 2.5776986681e+00 -4.4647050597e+00 2.5776986681e+00 4.4647050597e+00 
89000 5.0803181409e+00 -1.0983550725e-05 2.5776986681e+00 -4.4647050597e+00 2.5776986681e+00 4.4647050597e+00 
89100 5.0803181412e+00 -1.0918594347e-05 2.5776986681e+00 -4.4647050597e+00 2.5776986681e+00 4.4647050597e+00 
89200 5.0803181415e+00 -1.0854301988e-05 2.5776986681e+00 -4.4647050597e+00 2.5776986681e+00 4.4647050597e+00 
89300 5.0803181418e+00 -1.0790667203e-05 2.5776986681e+00 -4.4647050597e+00 2.5776986681e+00 4.4647050597e+00 
89400 5.0803181421e+00 -1.0727683593e-05 2.5776986681e+00 -4.4647050597e+00 2.5776986681e+00 4.4647050597e+00 
89500 5.0803181424e+00 -1.0665344801e-05 2.5776986681e+00 -4.4647050597e+00 2.5776986681e+00 4.4647050597e+00 
89600 5.0803181427e+00 -1.0603644519e-05 2.5776986681e+00 -4.4647050597e+00 2.5776986681e+00 4.4647050597e+00 
89700 5.0803181430e+00 -1.0542576482e-05 2.5776986681e+00 -4.4647050597e+00 2.5776986681e+00 4.4647050597e+00 
89800 5.0803181433e+00 -1.0482134471e-05 2.5776986681e+00 -4.4647050597e+00 2.5776986681e+00 4.4647050597e+00 
89900 5.0803181436e+00 -1.0422312315e-05 2.5776986681e+00 -4.4647050597e+00 2.5776986681e+00 4.4647050597e+00 
90000 5.0803181439e+00 -1.0363103885e-05 2.5776986681e+00 -4.4647050597e+00 2.5776986681e+00 4.4647050597e+00 
90100 5.0803181441e+00 -1.0304503104e-05 2.5776986681e+00 -4.4647050597e+00 2.5776986681e+00 4.4647050597e+00 
90200 5.0803181444e+00 -1.0246503938e-05 2.5776986681e+00 -4.4647050597e+00 2.5776986681e+00 4.4647050597e+00 
90300 5.0803181447e+00 -1.0189100402e-05 2.5776986681e+00 -4.4647050597e+00 2.5776986681e+00 4.4647050597e+00 
90400 5.0803181449e+00 -1.0132286557e-05 2.5776986681e+00 -4.4647050597e+00 2.5776986681e+00 4.4647050597e+00 
90500 5.0803181452e+00 -1.0076056512e-05 2.5776986681e+00 -4.4647050597e+00 2.5776986681e+00 4.4647050597e+00 
90600 5.0803181454e+00 -1.0020404421e-05 2.5776986681e+00 -4.4647050597e+00 2.5776986681e+00 4.4647050597e+00 
90700 5.0803181457e+00 -9.9653244907e-06 2.5776986681e+00 -4.4647050597e+00 2.5776986681e+00 4.4647050597e+00 
90800 5.0803181459e+00 -9.9108109688e-06 2.5776986681e+00 -4.4647050597e+00 2.5776986681e+00 4.4647050597e+00 
90900 5.0803181462e+00 -9.8568581557e-06 2.5776986681e+00 -4.4647050597e+00 2.5776986681e+00 4.4647050597e+00 
91000 5.0803181464e+00 -9.8034603964e-06 2.5776986681e+00 -4.4647050597e+00 2.5776986681e+00 4.4647050597e+00 
91100 5.0803181466e+00 -9.7506120846e-06 2.5776986681e+00 -4.4647050597e+00 2.5776986681e+00 4.4647050597e+00 
91200 5.0803181469e+00 -9.6983076610e-06 2.5776986681e+00 -4.4647050597e+00 2.5776986681e+00 4.4647050597e+00 
91300 5.0803181471e+00 -9.6465416149e-06 2.5776986681e+00 -4.4647050597e+00 2.5776986681e+00 4.4647050597e+00 
91400 5.0803181473e+00 -9.5953084817e-06 2.5776986681e+00 -4.4647050597e+00 2.5776986681e+00 4.4647050597e+00 
91500 5.0803181475e+00 -9.5446028449e-06 2.5776986681e+00 -4.4647050597e+00 2.5776986681e+00 4.4647050597e+00 
91600 5.0803181477e+00 -9.4944193355e-06 2.5776986681e+00 -4.4647050597e+00 2.5776986681e+00 4.4647050597e+00 
91700 5.0803181479e+00 -9.4447526311e-06 2.5776986681e+00 -4.4647050597e+00 2.5776986681e+00 4.4647050597e+00 
91800 5.0803181481e+00 -9.3955974565e-06 2.5776986681e+00 -4.4647050597e+00 2.5776986681e+00 4.4647050597e+00 
91900 5.0803181483e+00 -9.3469485851e-06 2.5776986681e+00 -4.4647050597e+00 2.5776986681e+00 4.4647050597e+00 
92000 5.0803181485e+00 -9.2988008351e-06 2.5776986681e+00 -4.4647050597e+00 2.5776986681e+00 4.4647050597e+00 
92100 5.0803181487e+00 -9.2511490718e-06 2.5776986681e+00 -4.4647050597e+00 2.5776986681e+00 4.4647050597e+00 
92200 5.0803181489e+00 -9.2039882090e-06 2.5776986681e+00 -4.4647050597e+00 2.5776986681e+00 4.4647050597e+00 
92300 5.0803181491e+00 -9.1573132031e-06 2.5776986681e+00 -4.4647050597e+00 2.5776986681e+00 4.4647050597e+00 
92400 5.0803181493e+00 -9.1111190606e-06 2.5776986681e+00 -4.4647050597e+00 2.5776986681e+00 4.4647050597e+00 
92500 5.0803181495e+00 -9.0654008327e-06 2.5776986681e+00 -4.4647050597e+00 2.5776986681e+00 4.4647050597e+00 
92600 5.0803181497e+00 -9.0201536155e-06 2.5776986681e+00 -4.4647050597e+00 2.5776986681e+00 4.4647050597e+00 
92700 5.0803181498e+00 -8.9753725516e-06 2.5776986681e+00 -4.4647050597e+00 2.5776986681e+00 4.4647050597e+00 
92800 5.0803181500e+00 -8.9310528296e-06 2.5776986681e+00 -4.4647050597e+00 2.5776986681e+00 4.4647050597e+00 
92900 5.0803181502e+00 -8.8871896826e-06 2.5776986681e+00 -4.4647050597e+00 2.5776986681e+00 4.4647050597e+00 
93000 5.0803181504e+00 -8.8437783874e-06 2.5776986681e+00 -4.4647050597e+00 2.5776986681e+00 4.4647050597e+00 
93100 5.0803181505e+00 -8.8008142685e-06 2.5776986681e+00 -4.4647050597e+00 2.5776986681e+00 4.4647050597e+00 
93200 5.0803181507e+00 -8.7582926917e-06 2.5776986681e+00 -4.4647050597e+00 2.5776986681e+00 4.4647050597e+00 
93300 5.0803181508e+00 -8.7162090699e-06 2.5776986681e+00 -4.4647050597e+00 2.5776986681e+00 4.4647050597e+00 
93400 5.0803181510e+00 -8.6745588585e-06 2.5776986681e+00 -4.4647050597e+00 2.5776986681e+00 4.4647050597e+00 
93500 5.0803181512e+00 -8.6333375556e-06 2.5776986681e+00 -4.4647050597e+00 2.5776986681e+00 4.4647050597e+00 
93600 5.0803181513e+00 -8.5925407055e-06 2.5776986681e+00 -4.4647050597e+00 2.5776986681e+00 4.4647050597e+00 
93700 5.0803181515e+00 -8.5521638935e-06 2.5776986681e+00 -4.4647050597e+00 2.5776986681e+00 4.4647050597e+00 
93800 5.0803181516e+00 -8.5122027491e-06 2.5776986681e+00 -4.4647050597e+00 2.5776986681e+00 4.4647050597e+00 
93900 5.0803181518e+00 -8.4726529427e-06 2.5776986681e+00 -4.4647050597e+00 2.5776986681e+00 4.4647050597e+00 
94000 5.0803181519e+00 -8.4335101887e-06 2.5776986681e+00 -4.4647050597e+00 2.5776986681e+00 4.4647050597e+00 
94100 5.0803181520e+00 -8.3947702436e-06 2.5776986681e+00 -4.4647050597e+00 2.5776986681e+00 4.4647050597e+00 
94200 5.0803181522e+00 -8.3564289052e-06 2.5776986681e+00 -4.4647050597e+00 2.5776986681e+00 4.4647050597e+00 
94300 5.0803181523e+00 -8.3184820118e-06 2.5776986681e+00 -4.4647050597e+00 2.5776986681e+00 4.4647050597e+00 
94400 5.0803181525e+00 -8.2809254440e-06 2.5776986681e+00 -4.4647050597e+00 2.5776986681e+00 4.4647050597e+00 
94500 5.0803181526e+00 -8.2437551241e-06 2.5776986681e+00 -4.4647050597e+00 2.5776986681e+00 4.4647050597e+00 
94600 5.0803181527e+00 -8.2069670128e-06 2.5776986681e+00 -4.4647050597e+00 2.5776986681e+00 4.4647050597e+00 
94700 5.0803181528e+00 -8.1705571122e-06 2.5776986681e+00 -4.4647050597e+00 2.5776986681e+00 4.4647050597e+00 
94800 5.0803181530e+00 -8.1345214651e-06 2.5776986681e+00 -4.4647050597e+00 2.5776986681e+00 4.4647050597e+00 
94900 5.0803181531e+00 -8.0988561529e-06 2.5776986681e+00 -4.4647050597e+00 2.5776986681e+00 4.4647050597e+00 
95000 5.0803181532e+00 -8.0635572967e-06 2.5776986681e+00 -4.4647050597e+00 2.5776986681e+00 4.4647050597e+00 
95100 5.0803181533e+00 -8.0286210566e-06 2.5776986681e+00 -4.4647050597e+00 2.5776986681e+00 4.4647050597e+00 
95200 5.0803181535e+00 -7.9940436323e-06 2.5776986681e+00 -4.4647050597e+00 2.5776986681e+00 4.4647050597e+00 
95300 5.0803181536e+00 -7.9598212595e-06 2.5776986681e+00 -4.4647050597e+00 2.5776986681e+00 4.4647050597e+00 
95400 5.0803181537e+00 -7.9259502142e-06 2.5776986681e+00 -4.4647050597e+00 2.5776986681e+00 4.4647050597e+00 
95500 5.0803181538e+00 -7.8924268101e-06 2.5776986681e+00 -4.4647050597e+00 2.5776986681e+00 4.4647050597e+00 
95600 5.0803181539e+00 -7.8592473978e-06 2.5776986681e+00 -4.4647050597e+00 2.5776986681e+00 4.4647050597e+00 
95700 5.0803181540e+00 -7.8264083632e-06 2.5776986681e+00 -4.4647050597e+00 2.5776986681e+00 4.4647050597e+00 
95800 5.0803181541e+00 -7.7939061335e-06 2.5776986681e+00 -4.4647050597e+00 2.5776986681e+00 4.4647050597e+00 
95900 5.0803181542e+00 -7.7617371685e-06 2.5776986681e+00 -4.4647050597e+00 2.5776986681e+00 4.4647050597e+00 
96000 5.0803181543e+00 -7.7298979655e-06 2.5776986681e+00 -4.4647050597e+00 2.5776986681e+00 4.4647050597e+00 
96100 5.0803181544e+00 -7.6983850580e-06 2.5776986681e+00 -4.4647050597e+00 2.5776986681e+00 4.4647050597e+00 
96200 5.0803181546e+00 -7.6671950150e-06 2.5776986681e+00 -4.4647050597e+00 2.5776986681e+00 4.4647050597e+00 
96300 5.0803181547e+00 -7.6363244405e-06 2.5776986681e+00 -4.4647050597e+00 2.5776986681e+00 4.4647050597e+00 
96400 5.0803181548e+00 -7.6057699724e-06 2.5776986681e+00 -4.4647050597e+00 2.5776986681e+00 4.4647050597e+00 
96500 5.0803181548e+00 -7.5755282864e-06 2.5776986681e+00 -4.4647050597e+00 2.5776986681e+00 4.4647050597e+00 
96600 5.0803181549e+00 -7.5455960893e-06 2.5776986681e+00 -4.4647050597e+00 2.5776986681e+00 4.4647050597e+00 
96700 5.0803181550e+00 -7.5159701239e-06 2.5776986681e+00 -4.4647050597e+00 2.5776986681e+00 4.4647050597e+00 
96800 5.0803181551e+00 -7.4866471649e-06 2.5776986681e+00 -4.4647050597e+00 2.5776986681e+00 4.4647050597e+00 
96900 5.0803181552e+00 -7.4576240228e-06 2.5776986681e+00 -4.4647050597e+00 2.5776986681e+00 4.4647050597e+00 
97000 5.0803181553e+00 -7.4288975385e-06 2.5776986681e+00 -4.4647050597e+00 2.5776986681e+00 4.4647050597e+00 
97100 5.0803181554e+00 -7.4004645881e-06 2.5776986681e+00 -4.4647050597e+00 2.5776986681e+00 4.4647050597e+00 
97200 5.0803181555e+00 -7.3723220793e-06 2.5776986681e+00 -4.4647050597e+00 2.5776986681e+00 4.4647050597e+00 
97300 5.0803181556e+00 -7.3444669506e-06 2.5776986681e+00 -4.4647050597e+00 2.5776986681e+00 4.4647050597e+00 
97400 5.0803181557e+00 -7.3168961743e-06 2.5776986681e+00 -4.4647050597e+00 2.5776986681e+00 4.4647050597e+00 
97500 5.0803181557e+00 -7.2896067537e-06 2.5776986681e+00 -4.4647050597e+00 2.5776986681e+00 4.4647050597e+00 
97600 5.0803181558e+00 -7.2625957236e-06 2.5776986681e+00 -4.4647050597e+00 2.5776986681e+00 4.4647050597e+00 
97700 5.0803181559e+00 -7.2358601483e-06 2.5776986681e+00 -4.4647050597e+00 2.5776986681e+00 4.4647050597e+00 
97800 5.0803181560e+00 -7.2093971254e-06 2.5776986681e+00 -4.4647050597e+00 2.5776986681e+00 4.4647050597e+00 
97900 5.0803181561e+00 -7.1832037812e-06 2.5776986681e+00 -4.4647050597e+00 2.5776986681e+00 4.4647050597e+00 
98000 5.0803181561e+00 -7.1572772714e-06 2.5776986681e+00 -4.4647050597e+00 2.5776986681e+00 4.4647050597e+00 
98100 5.0803181562e+00 -7.1316147844e-06 2.5776986681e+00 -4.4647050597e+00 2.5776986681e+00 4.4647050597e+00 
98200 5.0803181563e+00 -7.1062135340e-06 2.5776986681e+00 -4.4647050597e+00 2.5776986681e+00 4.4647050597e+00 
98300 5.0803181564e+00 -7.0810707681e-06 2.5776986681e+00 -4.4647050597e+00 2.5776986681e+00 4.4647050597e+00 
98400 5.0803181564e+00 -7.0561837586e-06 2.5776986681e+00 -4.4647050597e+00 2.5776986681e+00 4.4647050597e+00 
98500 5.0803181565e+00 -7.0315498089e-06 2.5776986681e+00 -4.4647050597e+00 2.5776986681e+00 4.4647050597e+00 
98600 5.0803181566e+00 -7.0071662516e-06 2.5776986681e+00 -4.4647050597e+00 2.5776986681e+00 4.4647050597e+00 
98700 5.0803181567e+00 -6.9830304455e-06 2.5776986681e+00 -4.4647050597e+00 2.5776986681e+00 4.4647050597e+00 
98800 5.0803181567e+00 -6.9591397774e-06 2.5776986681e+00 -4.4647050597e+00 2.5776986681e+00 4.4647050597e+00 
98900 5.0803181568e+00 -6.9354916626e-06 2.5776986681e+00 -4.4647050597e+00 2.5776986681e+00 4.4647050597e+00 
99000 5.0803181569e+00 -6.9120835437e-06 2.5776986681e+00 -4.4647050597e+00 2.5776986681e+00 4.4647050597e+00 
99100 5.0803181569e+00 -6.8889128898e-06 2.5776986681e+00 -4.4647050597e+00 2.5776986681e+00 4.4647050597e+00 
99200 5.0803181570e+00 -6.8659771963e-06 2.5776986681e+00 -4.4647050597e+00 2.5776986681e+00 4.4647050597e+00 
99300 5.0803181571e+00 -6.8432739856e-06 2.5776986681e+00 -4.4647050597e+00 2.5776986681e+00 4.4647050597e+00 
99400 5.0803181571e+00 -6.8208008079e-06 2.5776986681e+00 -4.4647050597e+00 2.5776986681e+00 4.4647050597e+00 
99500 5.0803181572e+00 -6.7985552366e-06 2.5776986681e+00 -4.4647050597e+00 2.5776986681e+00 4.4647050597e+00 
99600 5.0803181572e+00 -6.7765348717e-06 2.5776986681e+00 -4.4647050597e+00 2.5776986681e+00 4.4647050597e+00 
99700 5.0803181573e+00 -6.7547373405e-06 2.5776986681e+00 -4.4647050597e+00 2.5776986681e+00 4.4647050597e+00 
99800 5.0803181574e+00 -6.7331602927e-06 2.5776986681e+00 -4.4647050597e+00 2.5776986681e+00 4.4647050597e+00 
99900 5.0803181574e+00 -6.7118014053e-06 2.5776986681e+00 -4.4647050597e+00 2.5776986681e+00 4.4647050597e+00 
100000 5.0803181575e+00 -6.6906583782e-06 2.5776986681e+00 -4.4647050597e+00 2.5776986681e+00 4.4647050597e+00 
100100 5.0803181575e+00 -6.6697289375e-06 2.5776986681e+00 -4.4647050597e+00 2.5776986681e+00 4.4647050597e+00 
100200 5.0803181576e+00 -6.6490108311e-06 2.5776986681e+00 -4.4647050597e+00 2.5776986681e+00 4.4647050597e+00 
100300 5.0803181576e+00 -6.6285018339e-06 2.5776986681e+00 -4.4647050597e+00 2.5776986681e+00 4.4647050597e+00 
100400 5.0803181577e+00 -6.6081997414e-06 2.5776986681e+00 -4.4647050597e+00 2.5776986681e+00 4.4647050597e+00 
100500 5.0803181578e+00 -6.5881023749e-06 2.5776986681e+00 -4.4647050597e+00 2.5776986681e+00 4.4647050597e+00 
100600 5.0803181578e+00 -6.5682075777e-06 2.5776986681e+00 -4.4647050597e+00 2.5776986681e+00 4.4647050597e+00 
100700 5.0803181579e+00 -6.5485132168e-06 2.5776986681e+00 -4.4647050597e+00 2.5776986681e+00 4.4647050597e+00 
100800 5.0803181579e+00 -6.5290171811e-06 2.5776986681e+00 -4.4647050597e+00 2.5776986681e+00 4.4647050597e+00 
100900 5.0803181580e+00 -6.5097173832e-06 2.5776986681e+00 -4.4647050597e+00 2.5776986681e+00 4.4647050597e+00 
101000 5.0803181580e+00 -6.4906117567e-06 2.5776986681e+00 -4.4647050597e+00 2.5776986681e+00 4.4647050597e+00 
101100 5.0803181581e+00 -6.4716982579e-06 2.5776986681e+00 -4.4647050597e+00 2.5776986681e+00 4.4647050597e+00 
101200 5.0803181581e+00 -6.4529748644e-06 2.5776986681e+00 -4.4647050597e+00 2.5776986681e+00 4.4647050597e+00 
101300 5.0803181582e+00 -6.4344395768e-06 2.5776986681e+00 -4.4647050597e+00 2.5776986681e+00 4.4647050597e+00 
101400 5.0803181582e+00 -6.4160904163e-06 2.5776986681e+00 -4.4647050597e+00 2.5776986681e+00 4.4647050597e+00 
101500 5.0803181583e+00 -6.3979254247e-06 2.5776986681e+00 -4.4647050597e+00 2.5776986681e+00 4.4647050597e+00 
101600 5.0803181583e+00 -6.3799426649e-06 2.5776986681e+00 -4.4647050597e+00 2.5776986681e+00 4.4647050597e+00 
101700 5.0803181583e+00 -6.3621402216e-06 2.5776986681e+00 -4.4647050597e+00 2.5776986681e+00 4.4647050597e+00 
101800 5.0803181584e+00 -6.3445161987e-06 2.5776986681e+00 -4.4647050597e+00 2.5776986681e+00 4.4647050597e+00 
101900 5.0803181584e+00 -6.3270687217e-06 2.5776986681e+00 -4.4647050597e+00 2.5776986681e+00 4.4647050597e+00 
102000 5.0803181585e+00 -6.3097959349e-06 2.5776986681e+00 -4.4647050597e+00 2.5776986681e+00 4.4647050597e+00 
102100 5.0803181585e+00 -6.3070483771e-06 2.5776986681e+00 -4.4647050597e+00 2.5776986681e+00 4.4647050597e+00 
102100 5.0803181585e+00 -6.3070483772e-06 2.5776986681e+00 -4.4647050597e+00 2.5776986681e+00 4.4647050597e+00 
