# step Hamiltonian StressXX CellTensor1 CellTensor2 CellTensor3 CellTensor4 
0 6.0475417487e+00 -4.1171852068e-01 1.7438352029e+00 -3.0204111715e+00 1.7438352029e+00 3.0204111715e+00 
100 6.0293445330e+00 -4.1644144946e-01 1.7438352029e+00 -3.0204111715e+00 1.7438352029e+00 3.0204111715e+00 
200 6.0083900901e+00 -4.0932581880e-01 1.7557891266e+00 -3.0411159747e+00 1.7557891266e+00 3.0411159747e+00 
300 5.9905212221e+00 -4.0223559220e-01 1.7674584021e+00 -3.0613277527e+00 1.7674584021e+00 3.0613277527e+00 
400 5.9756509275e+00 -3.9521219111e-01 1.7788494603e+00 -3.0810576442e+00 1.7788494603e+00 3.0810576442e+00 
500 5.9636536657e+00 -3.8830304978e-01 1.7899695968e+00 -3.1003182857e+00 1.7899695968e+00 3.1003182857e+00 
600 5.9543705469e+00 -3.8155898066e-01 1.8008271234e+00 -3.1191240735e+00 1.8008271234e+00 3.1191240735e+00 
700 5.9476145438e+00 -3.7503208784e-01 1.8114314423e+00 -3.1374912925e+00 1.8114314423e+00 3.1374912925e+00 
800 5.9431756779e+00 -3.6877409989e-01 1.8217930615e+00 -3.1554381435e+00 1.8217930615e+00 3.1554381435e+00 
900 5.9408261295e+00 -3.6283502379e-01 1.8319235665e+00 -3.1729846928e+00 1.8319235665e+00 3.1729846928e+00 
1000 5.9403252138e+00 -3.5726204796e-01 1.8418355568e+00 -3.1901527635e+00 1.8418355568e+00 3.1901527635e+00 
1100 5.9414241677e+00 -3.5209864281e-01 1.8515425565e+00 -3.2069657802e+00 1.8515425565e+00 3.2069657802e+00 
1200 5.9438706905e+00 -3.4738382438e-01 1.8610589043e+00 -3.2234485781e+00 1.8610589043e+00 3.2234485781e+00 
1300 5.9474131859e+00 -3.4315155913e-01 1.8703996275e+00 -3.2396271853e+00 1.8703996275e+00 3.2396271853e+00 
1400 5.9518046565e+00 -3.3943029698e-01 1.8795803041e+00 -3.2555285836e+00 1.8795803041e+00 3.2555285836e+00 
1500 5.9568062104e+00 -3.3624262558e-01 1.8886169163e+00 -3.2711804550e+00 1.8886169163e+00 3.2711804550e+00 
1600 5.9621901466e+00 -3.3360504238e-01 1.8975256983e+00 -3.2866109181e+00 1.8975256983e+00 3.2866109181e+00 
1700 5.9677425948e+00 -3.3152784195e-01 1.9063229818e+00 -3.3018482601e+00 1.9063229818e+00 3.3018482601e+00 
1800 5.9732656963e+00 -3.3001511613e-01 1.9150250417e+00 -3.3169206700e+00 1.9150250417e+00 3.3169206700e+00 
1900 5.9785793234e+00 -3.2906486308e-01 1.9236479442e+00 -3.3318559753e+00 1.9236479442e+00 3.3318559753e+00 
2000 5.9835223432e+00 -3.2866919910e-01 1.9322074012e+00 -3.3466813897e+00 1.9322074012e+00 3.3466813897e+00 
2100 5.9879534419e+00 -3.2881466512e-01 1.9407186320e+00 -3.3614232738e+00 1.9407186320e+00 3.3614232738e+00 
2200 5.9917515362e+00 -3.2948261694e-01 1.9491962350e+00 -3.3761069130e+00 1.9491962350e+00 3.3761069130e+00 
2300 5.9948158023e+00 -3.3064968682e-01 1.9576540724e+00 -3.3907563171e+00 1.9576540724e+00 3.3907563171e+00 
2400 5.9970653612e+00 -3.3228830181e-01 1.9661051670e+00 -3.4053940423e+00 1.9661051670e+00 3.4053940423e+00 
2500 5.9984386625e+00 -3.3436724373e-01 1.9745616148e+00 -3.4200410395e+00 1.9745616148e+00 3.4200410395e+00 
2600 5.9988926118e+00 -3.3685223506e-01 1.9830345128e+00 -3.4347165293e+00 1.9830345128e+00 3.4347165293e+00 
2700 5.9984014869e+00 -3.3970653532e-01 1.9915339026e+00 -3.4494379043e+00 1.9915339026e+00 3.4494379043e+00 
2800 5.9969556884e+00 -3.4289153349e-01 2.0000687301e+00 -3.4642206592e+00 2.0000687301e+00 3.4642206592e+00 
2900 5.9945603684e+00 -3.4636732333e-01 2.0086468208e+00 -3.4790783481e+00 2.0086468208e+00 3.4790783481e+00 
3000 5.9912339778e+00 -3.5009325019e-01 2.0172748696e+00 -3.4940225669e+00 2.0172748696e+00 3.4940225669e+00 
3100 5.9870067703e+00 -3.5402841997e-01 2.0259584449e+00 -3.5090629605e+00 2.0259584449e+00 3.5090629605e+00 
3200 5.9819192944e+00 -3.5813216296e-01 2.0347020051e+00 -3.5242072511e+00 2.0347020051e+00 3.5242072511e+00 
3300 5.9760209044e+00 -3.6236444744e-01 2.0435089267e+00 -3.5394612868e+00 2.0435089267e+00 3.5394612868e+00 
3400 5.9693683124e+00 -3.6668623994e-01 2.0523815414e+00 -3.5548291063e+00 2.0523815414e+00 3.5548291063e+00 
3500 5.9620242024e+00 -3.7105981102e-01 2.0613211827e+00 -3.5703130191e+00 2.0613211827e+00 3.5703130191e+00 
3600 5.9540559201e+00 -3.7544898676e-01 2.0703282378e+00 -3.5859136961e+00 2.0703282378e+00 3.5859136961e+00 
3700 5.9455342511e+00 -3.7981934807e-01 2.0794022059e+00 -3.6016302700e+00 2.0794022059e+00 3.6016302700e+00 
3800 5.9365322942e+00 -3.8413838036e-01 2.0885417596e+00 -3.6174604414e+00 2.0885417596e+00 3.6174604414e+00 
3900 5.9271244339e+00 -3.8837557745e-01 2.0977448089e+00 -3.6334005903e+00 2.0977448089e+00 3.6334005903e+00 
4000 5.9173854147e+00 -3.9250250397e-01 2.1070085658e+00 -3.6494458880e+00 2.1070085658e+00 3.6494458880e+00 
4100 5.9073895157e+00 -3.9649282079e-01 2.1163296103e+00 -3.6655904106e+00 2.1163296103e+00 3.6655904106e+00 
4200 5.8972098229e+00 -4.0032227828e-01 2.1257039542e+00 -3.6818272505e+00 2.1257039542e+00 3.6818272505e+00 
4300 5.8869175963e+00 -4.0396868216e-01 2.1351271037e+00 -3.6981486243e+00 2.1351271037e+00 3.6981486243e+00 
4400 5.8765817251e+00 -4.0741183645e-01 2.1445941203e+00 -3.7145459780e+00 2.1445941203e+00 3.7145459780e+00 
4500 5.8662682664e+00 -4.1063346791e-01 2.1540996778e+00 -3.7310100865e+00 2.1540996778e+00 3.7310100865e+00 
4600 5.8560400611e+00 -4.1361713596e-01 2.1636381167e+00 -3.7475311472e+00 2.1636381167e+00 3.7475311472e+00 
4700 5.8459564196e+00 -4.1634813179e-01 2.1732034949e+00 -3.7640988683e+00 2.1732034949e+00 3.7640988683e+00 
4800 5.8360728709e+00 -4.1881336985e-01 2.1827896348e+00 -3.7807025496e+00 2.1827896348e+00 3.7807025496e+00 
4900 5.8264409696e+00 -4.2100127469e-01 2.1923901663e+00 -3.7973311580e+00 2.1923901663e+00 3.7973311580e+00 
5000 5.8171081530e+00 -4.2290166561e-01 2.2019985661e+00 -3.8139733947e+00 2.2019985661e+00 3.8139733947e+00 
5100 5.8081176432e+00 -4.2450564127e-01 2.2116081932e+00 -3.8306177570e+00 2.2116081932e+00 3.8306177570e+00 
5200 5.7995083881e+00 -4.2580546604e-01 2.2212123206e+00 -3.8472525936e+00 2.2212123206e+00 3.8472525936e+00 
5300 5.7913150370e+00 -4.2679445966e-01 2.2308041634e+00 -3.8638661527e+00 2.2308041634e+00 3.8638661527e+00 
5400 5.7835679441e+00 -4.2746689142e-01 2.2403769037e+00 -3.8804466254e+00 2.2403769037e+00 3.8804466254e+00 
5500 5.7762931979e+00 -4.2781787975e-01 2.2499237121e+00 -3.8969821826e+00 2.2499237121e+00 3.8969821826e+00 
5600 5.7695126711e+00 -4.2784329820e-01 2.2594377661e+00 -3.9134610074e+00 2.2594377661e+00 3.9134610074e+00 
5700 5.7632440875e+00 -4.2753968822e-01 2.2689122660e+00 -3.9298713226e+00 2.2689122660e+00 3.9298713226e+00 
5800 5.7575011042e+00 -4.2690417944e-01 2.2783404480e+00 -3.9462014129e+00 2.2783404480e+00 3.9462014129e+00 
5900 5.7522934052e+00 -4.2593441756e-01 2.2877155956e+00 -3.9624396449e+00 2.2877155956e+00 3.9624396449e+00 
6000 5.7476268046e+00 -4.2462850045e-01 2.2970310480e+00 -3.9785744817e+00 2.2970310480e+00 3.9785744817e+00 
6100 5.7435033587e+00 -4.2298492236e-01 2.3062802076e+00 -3.9945944961e+00 2.3062802076e+00 3.9945944961e+00 
6200 5.7399214833e+00 -4.2100252669e-01 2.3154565454e+00 -4.0104883794e+00 2.3154565454e+00 4.0104883794e+00 
6300 5.7368760773e+00 -4.1868046731e-01 2.3245536055e+00 -4.0262449496e+00 2.3245536055e+00 4.0262449496e+00 
6400 5.7343586512e+00 -4.1601817866e-01 2.3335650079e+00 -4.0418531564e+00 2.3335650079e+00 4.0418531564e+00 
6500 5.7323574594e+00 -4.1301535474e-01 2.3424844514e+00 -4.0573020857e+00 2.3424844514e+00 4.0573020857e+00 
6600 5.7308576365e+00 -4.0967193721e-01 2.3513057146e+00 -4.0725809619e+00 2.3513057146e+00 4.0725809619e+00 
6700 5.7298413383e+00 -4.0598811265e-01 2.3600226580e+00 -4.0876791507e+00 2.3600226580e+00 4.0876791507e+00 
6800 5.7292878871e+00 -4.0196431923e-01 2.3686292243e+00 -4.1025861607e+00 2.3686292243e+00 4.1025861607e+00 
6900 5.7291739221e+00 -3.9760126301e-01 2.3771194399e+00 -4.1172916455e+00 2.3771194399e+00 4.1172916455e+00 
7000 5.7294735564e+00 -3.9289994390e-01 2.3854874162e+00 -4.1317854057e+00 2.3854874162e+00 4.1317854057e+00 
7100 5.7301585399e+00 -3.8786169150e-01 2.3937273513e+00 -4.1460573918e+00 2.3937273513e+00 4.1460573918e+00 
7200 5.7311984318e+00 -3.8248821099e-01 2.4018335322e+00 -4.1600977091e+00 2.4018335322e+00 4.1600977091e+00 
7300 5.7325607819e+00 -3.7678163884e-01 2.4098003384e+00 -4.1738966223e+00 2.4098003384e+00 4.1738966223e+00 
7400 5.7342113236e+00 -3.7074460859e-01 2.4176222458e+00 -4.1874445632e+00 2.4176222458e+00 4.1874445632e+00 
7500 5.7361141795e+00 -3.6438032614e-01 2.4252938322e+00 -4.2007321407e+00 2.4252938322e+00 4.2007321407e+00 
7600 5.7382320813e+00 -3.5769265431e-01 2.4328097844e+00 -4.2137501518e+00 2.4328097844e+00 4.2137501518e+00 
7700 5.7405266064e+00 -3.5068620589e-01 2.4401649064e+00 -4.2264895968e+00 2.4401649064e+00 4.2264895968e+00 
7800 5.7429584318e+00 -3.4336644422e-01 2.4473541299e+00 -4.2389416971e+00 2.4473541299e+00 4.2389416971e+00 
7900 5.7454876069e+00 -3.3573978998e-01 2.4543725260e+00 -4.2510979156e+00 2.4543725260e+00 4.2510979156e+00 
8000 5.7480738471e+00 -3.2781373243e-01 2.4612153195e+00 -4.2629499818e+00 2.4612153195e+00 4.2629499818e+00 
8100 5.7506768474e+00 -3.1959694300e-01 2.4678779054e+00 -4.2744899190e+00 2.4678779054e+00 4.2744899190e+00 
8200 5.7532566174e+00 -3.1109938860e-01 2.4743558664e+00 -4.2857100765e+00 2.4743558664e+00 4.2857100765e+00 
8300 5.7557738363e+00 -3.0233244172e-01 2.4806449938e+00 -4.2966031648e+00 2.4806449938e+00 4.2966031648e+00 
8400 5.7581902268e+00 -2.9330898394e-01 2.4867413099e+00 -4.3071622940e+00 2.4867413099e+00 4.3071622940e+00 
8500 5.7604689451e+00 -2.8404349921e-01 2.4926410921e+00 -4.3173810166e+00 2.4926410921e+00 4.3173810166e+00 
8600 5.7625749829e+00 -2.7455215317e-01 2.4983408991e+00 -4.3272533719e+00 2.4983408991e+00 4.3272533719e+00 
8700 5.7644755775e+00 -2.6485285477e-01 2.5038375984e+00 -4.3367739343e+00 2.5038375984e+00 4.3367739343e+00 
8800 5.7661406226e+00 -2.5496529660e-01 2.5091283948e+00 -4.3459378625e+00 2.5091283948e+00 4.3459378625e+00 
8900 5.7675430723e+00 -2.4491097083e-01 2.5142108603e+00 -4.3547409510e+00 2.5142108603e+00 4.3547409510e+00 
9000 5.7686593307e+00 -2.3471315822e-01 2.5190829634e+00 -4.3631796811e+00 2.5190829634e+00 4.3631796811e+00 
9100 5.7694696160e+00 -2.2439688841e-01 2.5237430991e+00 -4.3712512729e+00 2.5237430991e+00 4.3712512729e+00 
9200 5.7699582900e+00 -2.1398887035e-01 2.5281901178e+00 -4.3789537352e+00 2.5281901178e+00 4.3789537352e+00 
9300 5.7701141421e+00 -2.0351739284e-01 2.5324233531e+00 -4.3862859138e+00 2.5324233531e+00 4.3862859138e+00 
9400 5.7699306182e+00 -1.9301219559e-01 2.5364426480e+00 -4.3932475369e+00 2.5364426480e+00 4.3932475369e+00 
9500 5.7694059850e+00 -1.8250431184e-01 2.5402483792e+00 -4.3998392567e+00 2.5402483792e+00 4.3998392567e+00 
9600 5.7685434219e+00 -1.7202588425e-01 2.5438414780e+00 -4.4060626862e+00 2.5438414780e+00 4.4060626862e+00 
9700 5.7673510340e+00 -1.6160995545e-01 2.5472234486e+00 -4.4119204312e+00 2.5472234486e+00 4.4119204312e+00 
9800 5.7658417823e+00 -1.5129023535e-01 2.5503963830e+00 -4.4174161148e+00 2.5503963830e+00 4.4174161148e+00 
9900 5.7640333285e+00 -1.4110084702e-01 2.5533629714e+00 -4.4225543966e+00 2.5533629714e+00 4.4225543966e+00 
10000 5.7619477933e+00 -1.3107605316e-01 2.5561265085e+00 -4.4273409833e+00 2.5561265085e+00 4.4273409833e+00 
10100 5.7596114319e+00 -1.2124996584e-01 2.5586908953e+00 -4.4317826316e+00 2.5586908953e+00 4.4317826316e+00 
10200 5.7570542282e+00 -1.1165624245e-01 2.5610606357e+00 -4.4358871423e+00 2.5610606357e+00 4.4358871423e+00 
10300 5.7543094145e+00 -1.0232777205e-01 2.5632408275e+00 -4.4396633453e+00 2.5632408275e+00 4.4396633453e+00 
10400 5.7514129243e+00 -9.3296357059e-02 2.5652371488e+00 -4.4431210751e+00 2.5652371488e+00 4.4431210751e+00 
10500 5.7484027851e+00 -8.4592396585e-02 2.5670558378e+00 -4.4462711369e+00 2.5670558378e+00 4.4462711369e+00 
10600 5.7453184651e+00 -7.6244578304e-02 2.5687036679e+00 -4.4491252624e+00 2.5687036679e+00 4.4491252624e+00 
10700 5.7422001823e+00 -6.8279586668e-02 2.5701879169e+00 -4.4516960571e+00 2.5701879169e+00 4.4516960571e+00 
10800 5.7390881940e+00 -6.0721835118e-02 2.5715163308e+00 -4.4539969374e+00 2.5715163308e+00 4.4539969374e+00 
10900 5.7360220785e+00 -5.3593229589e-02 2.5726970831e+00 -4.4560420604e+00 2.5726970831e+00 4.4560420604e+00 
11000 5.7330400276e+00 -4.6912969569e-02 2.5737387301e+00 -4.4578462460e+00 2.5737387301e+00 4.4578462460e+00 
11100 5.7301781669e+00 -4.0697391511e-02 2.5746501617e+00 -4.4594248919e+00 2.5746501617e+00 4.4594248919e+00 
11200 5.7274699195e+00 -3.4959857574e-02 2.5754405502e+00 -4.4607938847e+00 2.5754405502e+00 4.4607938847e+00 
11300 5.7249454311e+00 -2.9710690769e-02 2.5761192960e+00 -4.4619695071e+00 2.5761192960e+00 4.4619695071e+00 
11400 5.7226310709e+00 -2.4957155698e-02 2.5766959735e+00 -4.4629683417e+00 2.5766959735e+00 4.4629683417e+00 
11500 5.7205490200e+00 -2.0703482381e-02 2.5771802747e+00 -4.4638071760e+00 2.5771802747e+00 4.4638071760e+00 
11600 5.7187169590e+00 -1.6950929343e-02 2.5775819544e+00 -4.4645029056e+00 2.5775819544e+00 4.4645029056e+00 
11700 5.7171478604e+00 -1.3697881127e-02 2.5779107759e+00 -4.4650724412e+00 2.5779107759e+00 4.4650724412e+00 
11800 5.7158498895e+00 -1.0939974860e-02 2.5781764584e+00 -4.4655326169e+00 2.5781764584e+00 4.4655326169e+00 
11900 5.7148264135e+00 -8.6702502776e-03 2.5783886263e+00 -4.4659001024e+00 2.5783886263e+00 4.4659001024e+00 
12000 5.7140761156e+00 -6.8793177678e-03 2.5785567612e+00 -4.4661913207e+00 2.5785567612e+00 4.4661913207e+00 
12100 5.7135932059e+00 -5.5555393276e-03 2.5786901571e+00 -4.4664223691e+00 2.5786901571e+00 4.4664223691e+00 
12200 5.7133677221e+00 -4.6852178986e-03 2.5787978781e+00 -4.4666089473e+00 2.5787978781e+00 4.4666089473e+00 
12300 5.7133859058e+00 -4.2527911680e-03 2.5788887197e+00 -4.4667662896e+00 2.5788887197e+00 4.4667662896e+00 
12400 5.7136306421e+00 -4.2410265953e-03 2.5789711741e+00 -4.4669091048e+00 2.5789711741e+00 4.4669091048e+00 
12500 5.7140819490e+00 -4.6312150763e-03 2.5790533978e+00 -4.4670515204e+00 2.5790533978e+00 4.4670515204e+00 
12600 5.7147174995e+00 -5.4033612541e-03 2.5791431835e+00 -4.4672070338e+00 2.5791431835e+00 4.4672070338e+00 
12700 5.7155131639e+00 -6.5363690019e-03 2.5792479353e+00 -4.4673884692e+00 2.5792479353e+00 4.4673884692e+00 
12800 5.7164435563e+00 -8.0082210290e-03 2.5793746471e+00 -4.4676079405e+00 2.5793746471e+00 4.4676079405e+00 
12900 5.7174825728e+00 -9.7961518954e-03 2.5795298843e+00 -4.4678768193e+00 2.5795298843e+00 4.4678768193e+00 
13000 5.7186039097e+00 -1.1876813959e-02 2.5797197692e+00 -4.4682057095e+00 2.5797197692e+00 4.4682057095e+00 
13100 5.7197815498e+00 -1.4226435949e-02 2.5799499684e+00 -4.4686044262e+00 2.5799499684e+00 4.4686044262e+00 
13200 5.7209902096e+00 -1.6820973946e-02 2.5802256848e+00 -4.4690819810e+00 2.5802256848e+00 4.4690819810e+00 
13300 5.7222057398e+00 -1.9636254613e-02 2.5805516510e+00 -4.4696465711e+00 2.5805516510e+00 4.4696465711e+00 
13400 5.7234054737e+00 -2.2648110515e-02 2.5809321266e+00 -4.4703055741e+00 2.5809321266e+00 4.4703055741e+00 
13500 5.7245685213e+00 -2.5832507370e-02 2.5813708973e+00 -4.4710655474e+00 2.5813708973e+00 4.4710655474e+00 
13600 5.7256760056e+00 -2.9165663053e-02 2.5818712776e+00 -4.4719322314e+00 2.5818712776e+00 4.4719322314e+00 
13700 5.7267112439e+00 -3.2624158156e-02 2.5824361146e+00 -4.4729105577e+00 2.5824361146e+00 4.4729105577e+00 
13800 5.7276598718e+00 -3.6185037902e-02 2.5830677950e+00 -4.4740046604e+00 2.5830677950e+00 4.4740046604e+00 
13900 5.7285099163e+00 -3.9825905233e-02 2.5837682542e+00 -4.4752178913e+00 2.5837682542e+00 4.4752178913e+00 
14000 5.7292518185e+00 -4.3525004899e-02 2.5845389868e+00 -4.4765528392e+00 2.5845389868e+00 4.4765528392e+00 
14100 5.7298784115e+00 -4.7261298432e-02 2.5853810589e+00 -4.4780113510e+00 2.5853810589e+00 4.4780113510e+00 
14200 5.7303848585e+00 -5.1014529949e-02 2.5862951231e+00 -4.4795945565e+00 2.5862951231e+00 4.4795945565e+00 
14300 5.7307685552e+00 -5.4765282805e-02 2.5872814330e+00 -4.4813028954e+00 2.5872814330e+00 4.4813028954e+00 
14400 5.7310290032e+00 -5.8495027175e-02 2.5883398609e+00 -4.4831361463e+00 2.5883398609e+00 4.4831361463e+00 
14500 5.7311676587e+00 -6.2186158776e-02 2.5894699150e+00 -4.4850934574e+00 2.5894699150e+00 4.4850934574e+00 
14600 5.7311877622e+00 -6.5822028987e-02 2.5906707585e+00 -4.4871733793e+00 2.5906707585e+00 4.4871733793e+00 
14700 5.7310941541e+00 -6.9386966741e-02 2.5919412288e+00 -4.4893738985e+00 2.5919412288e+00 4.4893738985e+00 
14800 5.7308930810e+00 -7.2866292618e-02 2.5932798574e+00 -4.4916924713e+00 2.5932798574e+00 4.4916924713e+00 
14900 5.7305919968e+00 -7.6246325663e-02 2.5946848903e+00 -4.4941260596e+00 2.5946848903e+00 4.4941260596e+00 
15000 5.7301993628e+00 -7.9514383480e-02 2.5961543080e+00 -4.4966711657e+00 2.5961543080e+00 4.4966711657e+00 
15100 5.7297244497e+00 -8.2658776235e-02 2.5976858463e+00 -4.4993238679e+00 2.5976858463e+00 4.4993238679e+00 
15200 5.7291771450e+00 -8.5668795202e-02 2.5992770165e+00 -4.5020798556e+00 2.5992770165e+00 4.5020798556e+00 
15300 5.7285677677e+00 -8.8534696503e-02 2.6009251256e+00 -4.5049344643e+00 2.6009251256e+00 4.5049344643e+00 
15400 5.7279068931e+00 -9.1247680732e-02 2.6026272959e+00 -4.5078827096e+00 2.6026272959e+00 4.5078827096e+00 
15500 5.7272051884e+00 -9.3799869094e-02 2.6043804842e+00 -4.5109193209e+00 2.6043804842e+00 4.5109193209e+00 
15600 5.7264732612e+00 -9.6184276722e-02 2.6061815012e+00 -4.5140387739e+00 2.6061815012e+00 4.5140387739e+00 
15700 5.7257215210e+00 -9.8394783753e-02 2.6080270292e+00 -4.5172353221e+00 2.6080270292e+00 4.5172353221e+00 
15800 5.7249600549e+00 -1.0042610477e-01 2.6099136400e+00 -4.5205030278e+00 2.6099136400e+00 4.5205030278e+00 
15900 5.7241985172e+00 -1.0227375712e-01 2.6118378116e+00 -4.5238357908e+00 2.6118378116e+00 4.5238357908e+00 
16000 5.7234460335e+00 -1.0393402856e-01 2.6137959448e+00 -4.5272273769e+00 2.6137959448e+00 4.5272273769e+00 
16100 5.7227111188e+00 -1.0540394481e-01 2.6157843784e+00 -4.5306714450e+00 2.6157843784e+00 4.5306714450e+00 
16200 5.7220016090e+00 -1.0668123712e-01 2.6177994043e+00 -4.5341615722e+00 2.6177994043e+00 4.5341615722e+00 
16300 5.7213246064e+00 -1.0776431056e-01 2.6198372813e+00 -4.5376912788e+00 2.6198372813e+00 4.5376912788e+00 
16400 5.7206864368e+00 -1.0865221293e-01 2.6218942488e+00 -4.5412540509e+00 2.6218942488e+00 4.5412540509e+00 
16500 5.7200926199e+00 -1.0934460480e-01 2.6239665389e+00 -4.5448433627e+00 2.6239665389e+00 4.5448433627e+00 
16600 5.7195478498e+00 -1.0984173077e-01 2.6260503891e+00 -4.5484526972e+00 2.6260503891e+00 4.5484526972e+00 
16700 5.7190559871e+00 -1.1014439200e-01 2.6281420531e+00 -4.5520755654e+00 2.6281420531e+00 4.5520755654e+00 
16800 5.7186200599e+00 -1.1025392033e-01 2.6302378115e+00 -4.5557055255e+00 2.6302378115e+00 4.5557055255e+00 
16900 5.7182422745e+00 -1.1017215376e-01 2.6323339822e+00 -4.5593361997e+00 2.6323339822e+00 4.5593361997e+00 
17000 5.7179240341e+00 -1.0990141356e-01 2.6344269298e+00 -4.5629612912e+00 2.6344269298e+00 4.5629612912e+00 
17100 5.7176659646e+00 -1.0944448281e-01 2.6365130743e+00 -4.5665745995e+00 2.6365130743e+00 4.5665745995e+00 
17200 5.7174679477e+00 -1.0880458653e-01 2.6385889000e+00 -4.5701700351e+00 2.6385889000e+00 4.5701700351e+00 
17300 5.7173291595e+00 -1.0798537302e-01 2.6406509633e+00 -4.5737416334e+00 2.6406509633e+00 4.5737416334e+00 
17400 5.7172481146e+00 -1.0699089667e-01 2.6426959003e+00 -4.5772835682e+00 2.6426959003e+00 4.5772835682e+00 
17500 5.7172227142e+00 -1.0582560185e-01 2.6447204341e+00 -4.5807901637e+00 2.6447204341e+00 4.5807901637e+00 
17600 5.7172502992e+00 -1.0449430783e-01 2.6467213816e+00 -4.5842559064e+00 2.6467213816e+00 4.5842559064e+00 
17700 5.7173277051e+00 -1.0300219465e-01 2.6486956598e+00 -4.5876754566e+00 2.6486956598e+00 4.5876754566e+00 
17800 5.7174513206e+00 -1.0135478960e-01 2.6506402922e+00 -4.5910436587e+00 2.6506402922e+00 4.5910436587e+00 
17900 5.7176171478e+00 -9.9557954351e-02 2.6525524145e+00 -4.5943555516e+00 2.6525524145e+00 4.5943555516e+00 
18000 5.7178208633e+00 -9.7617872327e-02 2.6544292800e+00 -4.5976063781e+00 2.6544292800e+00 4.5976063781e+00 
18100 5.7180578815e+00 -9.5541036284e-02 2.6562682654e+00 -4.6007915943e+00 2.6562682654e+00 4.6007915943e+00 
18200 5.7183234163e+00 -9.3334235833e-02 2.6580668754e+00 -4.6039068780e+00 2.6580668754e+00 4.6039068780e+00 
18300 5.7186125445e+00 -9.1004544721e-02 2.6598227474e+00 -4.6069481376e+00 2.6598227474e+00 4.6069481376e+00 
18400 5.7189202666e+00 -8.8559307694e-02 2.6615336564e+00 -4.6099115189e+00 2.6615336564e+00 4.6099115189e+00 
18500 5.7192415680e+00 -8.6006126734e-02 2.6631975190e+00 -4.6127934135e+00 2.6631975190e+00 4.6127934135e+00 
18600 5.7195714770e+00 -8.3352846516e-02 2.6648123976e+00 -4.6155904652e+00 2.6648123976e+00 4.6155904652e+00 
18700 5.7199051212e+00 -8.0607538916e-02 2.6663765038e+00 -4.6182995768e+00 2.6663765038e+00 4.6182995768e+00 
18800 5.7202377814e+00 -7.7778486417e-02 2.6678882024e+00 -4.6209179155e+00 2.6678882024e+00 4.6209179155e+00 
18900 5.7205649415e+00 -7.4874164295e-02 2.6693460140e+00 -4.6234429192e+00 2.6693460140e+00 4.6234429192e+00 
19000 5.7208823358e+00 -7.1903221465e-02 2.6707486181e+00 -4.6258723009e+00 2.6707486181e+00 4.6258723009e+00 
19100 5.7211859913e+00 -6.8874459923e-02 2.6720948560e+00 -4.6282040532e+00 2.6720948560e+00 4.6282040532e+00 
19200 5.7214722660e+00 -6.5796812694e-02 2.6733837323e+00 -4.6304364525e+00 2.6733837323e+00 4.6304364525e+00 
19300 5.7217378829e+00 -6.2679320295e-02 2.6746144172e+00 -4.6325680612e+00 2.6746144172e+00 4.6325680612e+00 
19400 5.7219799584e+00 -5.9531105668e-02 2.6757862477e+00 -4.6345977311e+00 2.6757862477e+00 4.6345977311e+00 
19500 5.7221960252e+00 -5.6361347646e-02 2.6768987287e+00 -4.6365246048e+00 2.6768987287e+00 4.6365246048e+00 
19600 5.7223840507e+00 -5.3179252983e-02 2.6779515336e+00 -4.6383481163e+00 2.6779515336e+00 4.6383481163e+00 
19700 5.7225424485e+00 -4.9994027051e-02 2.6789445041e+00 -4.6400679917e+00 2.6789445041e+00 4.6400679917e+00 
19800 5.7226700855e+00 -4.6814843312e-02 2.6798776501e+00 -4.6416842480e+00 2.6798776501e+00 4.6416842480e+00 
19900 5.7227662819e+00 -4.3650811713e-02 2.6807511487e+00 -4.6431971919e+00 2.6807511487e+00 4.6431971919e+00 
20000 5.7228308062e+00 -4.0510946177e-02 2.6815653425e+00 -4.6446074170e+00 2.6815653425e+00 4.6446074170e+00 
20100 5.7228638650e+00 -3.7404131385e-02 2.6823207380e+00 -4.6459158004e+00 2.6823207380e+00 4.6459158004e+00 
20200 5.7228660863e+00 -3.4339089076e-02 2.6830180027e+00 -4.6471234983e+00 2.6830180027e+00 4.6471234983e+00 
20300 5.7228384984e+00 -3.1324344090e-02 2.6836579621e+00 -4.6482319405e+00 2.6836579621e+00 4.6482319405e+00 
20400 5.7227825041e+00 -2.8368190436e-02 2.6842415961e+00 -4.6492428242e+00 2.6842415961e+00 4.6492428242e+00 
20500 5.7226998495e+00 -2.5478657635e-02 2.6847700344e+00 -4.6501581062e+00 2.6847700344e+00 4.6501581062e+00 
20600 5.7225925900e+00 -2.2663477627e-02 2.6852445519e+00 -4.6509799946e+00 2.6852445519e+00 4.6509799946e+00 
20700 5.7224630520e+00 -1.9930052533e-02 2.6856665632e+00 -4.6517109396e+00 2.6856665632e+00 4.6517109396e+00 
20800 5.7223137921e+00 -1.7285423556e-02 2.6860376165e+00 -4.6523536229e+00 2.6860376165e+00 4.6523536229e+00 
20900 5.7221475540e+00 -1.4736241305e-02 2.6863593873e+00 -4.6529109462e+00 2.6863593873e+00 4.6529109462e+00 
21000 5.7219672233e+00 -1.2288737824e-02 2.6866336710e+00 -4.6533860196e+00 2.6866336710e+00 4.6533860196e+00 
21100 5.7217757823e+00 -9.9487005943e-03 2.6868623757e+00 -4.6537821476e+00 2.6868623757e+00 4.6537821476e+00 
21200 5.7215762637e+00 -7.7214487500e-03 2.6870475138e+00 -4.6541028163e+00 2.6870475138e+00 4.6541028163e+00 
21300 5.7213717051e+00 -5.6118117485e-03 2.6871911942e+00 -4.6543516779e+00 2.6871911942e+00 4.6543516779e+00 
21400 5.7211651048e+00 -3.6241106923e-03 2.6872956126e+00 -4.6545325361e+00 2.6872956126e+00 4.6545325361e+00 
21500 5.7209593788e+00 -1.7621424823e-03 2.6873630434e+00 -4.6546493295e+00 2.6873630434e+00 4.6546493295e+00 
21600 5.7207573209e+00 -2.9166949459e-05 2.6873958292e+00 -4.6547061161e+00 2.6873958292e+00 4.6547061161e+00 
21700 5.7205615643e+00 1.5719338375e-03 2.6873958292e+00 -4.6547061161e+00 2.6873958292e+00 4.6547061161e+00 
21800 5.7203745518e+00 3.0393350455e-03 2.6873665828e+00 -4.6546554600e+00 2.6873665828e+00 4.6546554600e+00 
21900 5.7201985021e+00 4.3712680260e-03 2.6873100344e+00 -4.6545575153e+00 2.6873100344e+00 4.6545575153e+00 
22000 5.7200353858e+00 5.5666871408e-03 2.6872287032e+00 -4.6544166454e+00 2.6872287032e+00 4.6544166454e+00 
22100 5.7198869051e+00 6.6251007619e-03 2.6871251271e+00 -4.6542372464e+00 2.6871251271e+00 4.6542372464e+00 
22200 5.7197544776e+00 7.5465651209e-03 2.6870018532e+00 -4.6540237297e+00 2.6870018532e+00 4.6540237297e+00 
22300 5.7196392264e+00 8.3316751208e-03 2.6868614271e+00 -4.6537805047e+00 2.6868614271e+00 4.6537805047e+00 
22400 5.7195419736e+00 8.9815522329e-03 2.6867063839e+00 -4.6535119619e+00 2.6867063839e+00 4.6535119619e+00 
22500 5.7194632400e+00 9.4978296268e-03 2.6865392376e+00 -4.6532224561e+00 2.6865392376e+00 4.6532224561e+00 
22600 5.7194032496e+00 9.8826347084e-03 2.6863624725e+00 -4.6529162900e+00 2.6863624725e+00 4.6529162900e+00 
22700 5.7193619376e+00 1.0138569257e-02 2.6861785338e+00 -4.6525976988e+00 2.6861785338e+00 4.6525976988e+00 
22800 5.7193389639e+00 1.0268687369e-02 2.6859898187e+00 -4.6522708346e+00 2.6859898187e+00 4.6522708346e+00 
22900 5.7193337301e+00 1.0276471439e-02 2.6857986682e+00 -4.6519397522e+00 2.6857986682e+00 4.6519397522e+00 
23000 5.7193453994e+00 1.0165806396e-02 2.6856073592e+00 -4.6516083953e+00 2.6856073592e+00 4.6516083953e+00 
23100 5.7193729205e+00 9.9409524377e-03 2.6854180968e+00 -4.6512805833e+00 2.6854180968e+00 4.6512805833e+00 
23200 5.7194150531e+00 9.6065165131e-03 2.6852330076e+00 -4.6509599994e+00 2.6852330076e+00 4.6509599994e+00 
23300 5.7194703957e+00 9.1674227731e-03 2.6850541328e+00 -4.6506501792e+00 2.6850541328e+00 4.6506501792e+00 
23400 5.7195374147e+00 8.6288822411e-03 2.6848834226e+00 -4.6503545003e+00 2.6848834226e+00 4.6503545003e+00 
23500 5.7196144745e+00 7.9963619294e-03 2.6847227304e+00 -4.6500761733e+00 2.6847227304e+00 4.6500761733e+00 
23600 5.7196998670e+00 7.2755536247e-03 2.6845738083e+00 -4.6498182327e+00 2.6845738083e+00 4.6498182327e+00 
23700 5.7197918424e+00 6.4723425593e-03 2.6844383028e+00 -4.6495835302e+00 2.6844383028e+00 4.6495835302e+00 
23800 5.7198886373e+00 5.5927761712e-03 2.6843177507e+00 -4.6493747279e+00 2.6843177507e+00 4.6493747279e+00 
23900 5.7199885036e+00 4.6430331447e-03 2.6842135764e+00 -4.6491942926e+00 2.6842135764e+00 4.6491942926e+00 
24000 5.7200897338e+00 3.6293929112e-03 2.6841270891e+00 -4.6490444922e+00 2.6841270891e+00 4.6490444922e+00 
24100 5.7201906860e+00 2.5582057757e-03 2.6840594809e+00 -4.6489273915e+00 2.6840594809e+00 4.6489273915e+00 
24200 5.7202898054e+00 1.4358638189e-03 2.6840118255e+00 -4.6488448499e+00 2.6840118255e+00 4.6488448499e+00 
24300 5.7203856440e+00 2.6877271253e-04 2.6839850771e+00 -4.6487985203e+00 2.6839850771e+00 4.6487985203e+00 
24400 5.7204768774e+00 -9.3667543238e-04 2.6839800701e+00 -4.6487898480e+00 2.6839800701e+00 4.6487898480e+00 
24500 5.7205623185e+00 -2.1741280766e-03 2.6839975195e+00 -4.6488200712e+00 2.6839975195e+00 4.6488200712e+00 
24600 5.7206409287e+00 -3.4372970328e-03 2.6840380213e+00 -4.6488902223e+00 2.6840380213e+00 4.6488902223e+00 
24700 5.7207118257e+00 -4.7199819381e-03 2.6841020537e+00 -4.6490011298e+00 2.6841020537e+00 4.6490011298e+00 
24800 5.7207742892e+00 -6.0160923559e-03 2.6841899790e+00 -4.6491534208e+00 2.6841899790e+00 4.6491534208e+00 
24900 5.7208277627e+00 -7.3196684603e-03 2.6843020451e+00 -4.6493475250e+00 2.6843020451e+00 4.6493475250e+00 
25000 5.7208718539e+00 -8.6249002667e-03 2.6844383884e+00 -4.6495836785e+00 2.6844383884e+00 4.6495836785e+00 
25100 5.7209063315e+00 -9.9261453876e-03 2.6845990363e+00 -4.6498619287e+00 2.6845990363e+00 4.6498619287e+00 
25200 5.7209311201e+00 -1.1217945303e-02 2.6847839104e+00 -4.6501821402e+00 2.6847839104e+00 4.6501821402e+00 
25300 5.7209462934e+00 -1.2495040147e-02 2.6849928302e+00 -4.6505439999e+00 2.6849928302e+00 4.6505439999e+00 
25400 5.7209520651e+00 -1.3752382020e-02 2.6852255165e+00 -4.6509470244e+00 2.6852255165e+00 4.6509470244e+00 
25500 5.7209487779e+00 -1.4985146852e-02 2.6854815956e+00 -4.6513905663e+00 2.6854815956e+00 4.6513905663e+00 
25600 5.7209368923e+00 -1.6188744842e-02 2.6857606034e+00 -4.6518738220e+00 2.6857606034e+00 4.6518738220e+00 
25700 5.7209169728e+00 -1.7358829507e-02 2.6860619900e+00 -4.6523958390e+00 2.6860619900e+00 4.6523958390e+00 
25800 5.7208896746e+00 -1.8491305399e-02 2.6863851244e+00 -4.6529555241e+00 2.6863851244e+00 4.6529555241e+00 
25900 5.7208557291e+00 -1.9582334518e-02 2.6867292988e+00 -4.6535516516e+00 2.6867292988e+00 4.6535516516e+00 
26000 5.7208159292e+00 -2.0628341486e-02 2.6870937340e+00 -4.6541828720e+00 2.6870937340e+00 4.6541828720e+00 
26100 5.7207711144e+00 -2.1626017543e-02 2.6874775843e+00 -4.6548477202e+00 2.6874775843e+00 4.6548477202e+00 
26200 5.7207221564e+00 -2.2572323412e-02 2.6878799422e+00 -4.6555446245e+00 2.6878799422e+00 4.6555446245e+00 
26300 5.7206699448e+00 -2.3464491096e-02 2.6882998440e+00 -4.6562719157e+00 2.6882998440e+00 4.6562719157e+00 
26400 5.7206153732e+00 -2.4300024685e-02 2.6887362745e+00 -4.6570278357e+00 2.6887362745e+00 4.6570278357e+00 
26500 5.7205593265e+00 -2.5076700203e-02 2.6891881728e+00 -4.6578105464e+00 2.6891881728e+00 4.6578105464e+00 
26600 5.7205026682e+00 -2.5792564593e-02 2.6896544367e+00 -4.6586181391e+00 2.6896544367e+00 4.6586181391e+00 
26700 5.7204462299e+00 -2.6445933865e-02 2.6901339282e+00 -4.6594486428e+00 2.6901339282e+00 4.6594486428e+00 
26800 5.7203908003e+00 -2.7035390490e-02 2.6906254788e+00 -4.6603000334e+00 2.6906254788e+00 4.6603000334e+00 
26900 5.7203371171e+00 -2.7559780082e-02 2.6911278942e+00 -4.6611702424e+00 2.6911278942e+00 4.6611702424e+00 
27000 5.7202858582e+00 -2.8018207423e-02 2.6916399593e+00 -4.6620571651e+00 2.6916399593e+00 4.6620571651e+00 
27100 5.7202376358e+00 -2.8410031883e-02 2.6921604433e+00 -4.6629586699e+00 2.6921604433e+00 4.6629586699e+00 
27200 5.7201929911e+00 -2.8734862282e-02 2.6926881042e+00 -4.6638726055e+00 2.6926881042e+00 4.6638726055e+00 
27300 5.7201523897e+00 -2.8992551230e-02 2.6932216939e+00 -4.6647968099e+00 2.6932216939e+00 4.6647968099e+00 
27400 5.7201162190e+00 -2.9183188992e-02 2.6937599622e+00 -4.6657291179e+00 2.6937599622e+00 4.6657291179e+00 
27500 5.7200847871e+00 -2.9307096912e-02 2.6943016617e+00 -4.6666673689e+00 2.6943016617e+00 4.6666673689e+00 
27600 5.7200583215e+00 -2.9364820427e-02 2.6948455518e+00 -4.6676094143e+00 2.6948455518e+00 4.6676094143e+00 
27700 5.7200369704e+00 -2.9357121703e-02 2.6953904033e+00 -4.6685531247e+00 2.6953904033e+00 4.6685531247e+00 
27800 5.7200208043e+00 -2.9284971918e-02 2.6959350017e+00 -4.6694963969e+00 2.6959350017e+00 4.6694963969e+00 
27900 5.7200098182e+00 -2.9149543213e-02 2.6964781520e+00 -4.6704371607e+00 2.6964781520e+00 4.6704371607e+00 
28000 5.7200039362e+00 -2.8952200342e-02 2.6970186814e+00 -4.6713733852e+00 2.6970186814e+00 4.6713733852e+00 
28100 5.7200030147e+00 -2.8694492028e-02 2.6975554437e+00 -4.6723030848e+00 2.6975554437e+00 4.6723030848e+00 
28200 5.7200068485e+00 -2.8378142051e-02 2.6980873222e+00 -4.6732243254e+00 2.6980873222e+00 4.6732243254e+00 
28300 5.7200151755e+00 -2.8005040079e-02 2.6986132330e+00 -4.6741352296e+00 2.6986132330e+00 4.6741352296e+00 
28400 5.7200276839e+00 -2.7577232264e-02 2.6991321280e+00 -4.6750339820e+00 2.6991321280e+00 4.6750339820e+00 
28500 5.7200440179e+00 -2.7096911600e-02 2.6996429978e+00 -4.6759188345e+00 2.6996429978e+00 4.6759188345e+00 
28600 5.7200637849e+00 -2.6566408084e-02 2.7001448744e+00 -4.6767881102e+00 2.7001448744e+00 4.6767881102e+00 
28700 5.7200865627e+00 -2.5988178668e-02 2.7006368334e+00 -4.6776402083e+00 2.7006368334e+00 4.6776402083e+00 
28800 5.7201119064e+00 -2.5364797029e-02 2.7011179968e+00 -4.6784736077e+00 2.7011179968e+00 4.6784736077e+00 
28900 5.7201393553e+00 -2.4698943168e-02 2.7015875344e+00 -4.6792868707e+00 2.7015875344e+00 4.6792868707e+00 
29000 5.7201684407e+00 -2.3993392863e-02 2.7020446664e+00 -4.6800786465e+00 2.7020446664e+00 4.6800786465e+00 
29100 5.7201986918e+00 -2.3251006972e-02 2.7024886644e+00 -4.6808476736e+00 2.7024886644e+00 4.6808476736e+00 
29200 5.7202296427e+00 -2.2474720633e-02 2.7029188535e+00 -4.6815927830e+00 2.7029188535e+00 4.6815927830e+00 
29300 5.7202608388e+00 -2.1667532355e-02 2.7033346133e+00 -4.6823129000e+00 2.7033346133e+00 4.6823129000e+00 
29400 5.7202918422e+00 -2.0832493038e-02 2.7037353788e+00 -4.6830070463e+00 2.7037353788e+00 4.6830070463e+00 
29500 5.7203222371e+00 -1.9972694948e-02 2.7041206419e+00 -4.6836743415e+00 2.7041206419e+00 4.6836743415e+00 
29600 5.7203516349e+00 -1.9091260652e-02 2.7044899514e+00 -4.6843140044e+00 2.7044899514e+00 4.6843140044e+00 
29700 5.7203796779e+00 -1.8191331977e-02 2.7048429140e+00 -4.6849253535e+00 2.7048429140e+00 4.6849253535e+00 
29800 5.7204060435e+00 -1.7276058984e-02 2.7051791943e+00 -4.6855078081e+00 2.7051791943e+00 4.6855078081e+00 
29900 5.7204304467e+00 -1.6348589019e-02 2.7054985151e+00 -4.6860608879e+00 2.7054985151e+00 4.6860608879e+00 
30000 5.7204526427e+00 -1.5412055857e-02 2.7058006571e+00 -4.6865842132e+00 2.7058006571e+00 4.6865842132e+00 
30100 5.7204724285e+00 -1.4469568991e-02 2.7060854586e+00 -4.6870775040e+00 2.7060854586e+00 4.6870775040e+00 
30200 5.7204896440e+00 -1.3524203078e-02 2.7063528155e+00 -4.6875405796e+00 2.7063528155e+00 4.6875405796e+00 
30300 5.7205041725e+00 -1.2578987607e-02 2.7066026796e+00 -4.6879733570e+00 2.7066026796e+00 4.6879733570e+00 
30400 5.7205159401e+00 -1.1636896807e-02 2.7068350589e+00 -4.6883758497e+00 2.7068350589e+00 4.6883758497e+00 
30500 5.7205249153e+00 -1.0700839847e-02 2.7070500157e+00 -4.6887481658e+00 2.7070500157e+00 4.6887481658e+00 
30600 5.7205311076e+00 -9.7736513550e-03 2.7072476657e+00 -4.6890905056e+00 2.7072476657e+00 4.6890905056e+00 
30700 5.7205345653e+00 -8.8580823084e-03 2.7074281767e+00 -4.6894031599e+00 2.7074281767e+00 4.6894031599e+00 
30800 5.7205353733e+00 -7.9567913196e-03 2.7075917668e+00 -4.6896865063e+00 2.7075917668e+00 4.6896865063e+00 
30900 5.7205336506e+00 -7.0723363642e-03 2.7077387030e+00 -4.6899410072e+00 2.7077387030e+00 4.6899410072e+00 
31000 5.7205295465e+00 -6.2071669818e-03 2.7078692989e+00 -4.6901672060e+00 2.7078692989e+00 4.6901672060e+00 
31100 5.7205232379e+00 -5.3636169841e-03 2.7079839132e+00 -4.6903657238e+00 2.7079839132e+00 4.6903657238e+00 
31200 5.7205149250e+00 -4.5438977012e-03 2.7080829472e+00 -4.6905372557e+00 2.7080829472e+00 4.6905372557e+00 
31300 5.7205048277e+00 -3.7500917955e-03 2.7081668428e+00 -4.6906825671e+00 2.7081668428e+00 4.6906825671e+00 
31400 5.7204931815e+00 -2.9841476684e-03 2.7082360798e+00 -4.6908024891e+00 2.7082360798e+00 4.6908024891e+00 
31500 5.7204802334e+00 -2.2478744816e-03 2.7082911739e+00 -4.6908979149e+00 2.7082911739e+00 4.6908979149e+00 
31600 5.7204662381e+00 -1.5429378147e-03 2.7083326739e+00 -4.6909697950e+00 2.7083326739e+00 4.6909697950e+00 
31700 5.7204514535e+00 -8.7085597060e-04 2.7083611589e+00 -4.6910191325e+00 2.7083611589e+00 4.6910191325e+00 
31800 5.7204361372e+00 -2.3299694517e-04 2.7083772361e+00 -4.6910469791e+00 2.7083772361e+00 4.6910469791e+00 
31900 5.7204205429e+00 3.6942393518e-04 2.7083815376e+00 -4.6910544293e+00 2.7083815376e+00 4.6910544293e+00 
32000 5.7204049164e+00 9.3534570144e-04 2.7083747175e+00 -4.6910426167e+00 2.7083747175e+00 4.6910426167e+00 
32100 5.7203894928e+00 1.4638627570e-03 2.7083574499e+00 -4.6910127083e+00 2.7083574499e+00 4.6910127083e+00 
32200 5.7203744934e+00 1.9542252231e-03 2.7083304250e+00 -4.6909658998e+00 2.7083304250e+00 4.6909658998e+00 
32300 5.7203601232e+00 2.4058386244e-03 2.7082943471e+00 -4.6909034110e+00 2.7082943471e+00 4.6909034110e+00 
32400 5.7203465685e+00 2.8182629238e-03 2.7082499311e+00 -4.6908264802e+00 2.7082499311e+00 4.6908264802e+00 
32500 5.7203339952e+00 3.1912109262e-03 2.7081979002e+00 -4.6907363600e+00 2.7081979002e+00 4.6907363600e+00 
32600 5.7203225472e+00 3.5245460670e-03 2.7081389828e+00 -4.6906343121e+00 2.7081389828e+00 4.6906343121e+00 
32700 5.7203123451e+00 3.8182796096e-03 2.7080739098e+00 -4.6905216024e+00 2.7080739098e+00 4.6905216024e+00 
32800 5.7203034859e+00 4.0725672780e-03 2.7080034121e+00 -4.6903994967e+00 2.7080034121e+00 4.6903994967e+00 
32900 5.7202960426e+00 4.2877053515e-03 2.7079282174e+00 -4.6902692558e+00 2.7079282174e+00 4.6902692558e+00 
33000 5.7202900640e+00 4.4641262541e-03 2.7078490483e+00 -4.6901321309e+00 2.7078490483e+00 4.6901321309e+00 
33100 5.7202855750e+00 4.6023936710e-03 2.7077666193e+00 -4.6899893597e+00 2.7077666193e+00 4.6899893597e+00 
33200 5.7202825781e+00 4.7031972277e-03 2.7076816347e+00 -4.6898421621e+00 2.7076816347e+00 4.6898421621e+00 
33300 5.7202810533e+00 4.7673467681e-03 2.7075947860e+00 -4.6896917357e+00 2.7075947860e+00 4.6896917357e+00 
33400 5.7202809606e+00 4.7957662708e-03 2.7075067499e+00 -4.6895392527e+00 2.7075067499e+00 4.6895392527e+00 
33500 5.7202822405e+00 4.7894874405e-03 2.7074181862e+00 -4.6893858558e+00 2.7074181862e+00 4.6893858558e+00 
33600 5.7202848167e+00 4.7496430168e-03 2.7073297355e+00 -4.6892326547e+00 2.7073297355e+00 4.6892326547e+00 
33700 5.7202885972e+00 4.6774598378e-03 2.7072420177e+00 -4.6890807231e+00 2.7072420177e+00 4.6890807231e+00 
33800 5.7202934770e+00 4.5742516999e-03 2.7071556303e+00 -4.6889310956e+00 2.7071556303e+00 4.6889310956e+00 
33900 5.7202993400e+00 4.4414120535e-03 2.7070711462e+00 -4.6887847650e+00 2.7070711462e+00 4.6887847650e+00 
34000 5.7203060615e+00 4.2804065729e-03 2.7069891131e+00 -4.6886426795e+00 2.7069891131e+00 4.6886426795e+00 
34100 5.7203135098e+00 4.0927656392e-03 2.7069100514e+00 -4.6885057405e+00 2.7069100514e+00 4.6885057405e+00 
34200 5.7203215492e+00 3.8800767737e-03 2.7068344532e+00 -4.6883748007e+00 2.7068344532e+00 4.6883748007e+00 
34300 5.7203300420e+00 3.6439770579e-03 2.7067627817e+00 -4.6882506620e+00 2.7067627817e+00 4.6882506620e+00 
34400 5.7203388501e+00 3.3861455741e-03 2.7066954695e+00 -4.6881340739e+00 2.7066954695e+00 4.6881340739e+00 
34500 5.7203478379e+00 3.1082959009e-03 2.7066329185e+00 -4.6880257323e+00 2.7066329185e+00 4.6880257323e+00 
34600 5.7203568735e+00 2.8121686940e-03 2.7065754987e+00 -4.6879262783e+00 2.7065754987e+00 4.6879262783e+00 
34700 5.7203658305e+00 2.4995243826e-03 2.7065235482e+00 -4.6878362974e+00 2.7065235482e+00 4.6878362974e+00 
34800 5.7203745901e+00 2.1721360088e-03 2.7064773724e+00 -4.6877563186e+00 2.7064773724e+00 4.6877563186e+00 
34900 5.7203830417e+00 1.8317822359e-03 2.7064372440e+00 -4.6876868142e+00 2.7064372440e+00 4.6876868142e+00 
35000 5.7203910850e+00 1.4802405494e-03 2.7064034029e+00 -4.6876281996e+00 2.7064034029e+00 4.6876281996e+00 
35100 5.7203986300e+00 1.1192806715e-03 2.7063760559e+00 -4.6875808333e+00 2.7063760559e+00 4.6875808333e+00 
35200 5.7204055987e+00 7.5065821069e-04 2.7063553774e+00 -4.6875450170e+00 2.7063553774e+00 4.6875450170e+00 
35300 5.7204119248e+00 3.7610856163e-04 2.7063415090e+00 -4.6875209962e+00 2.7063415090e+00 4.6875209962e+00 
35400 5.7204175548e+00 -2.6589276767e-06 2.7063345603e+00 -4.6875089607e+00 2.7063345603e+00 4.6875089607e+00 
35500 5.7204224480e+00 -3.8398126002e-04 2.7063345603e+00 -4.6875089607e+00 2.7063345603e+00 4.6875089607e+00 
35600 5.7204265758e+00 -7.6618834664e-04 2.7063416544e+00 -4.6875212481e+00 2.7063416544e+00 4.6875212481e+00 
35700 5.7204299227e+00 -1.1476955971e-03 2.7063558099e+00 -4.6875457661e+00 2.7063558099e+00 4.6875457661e+00 
35800 5.7204324846e+00 -1.5269504080e-03 2.7063770136e+00 -4.6875824920e+00 2.7063770136e+00 4.6875824920e+00 
35900 5.7204342693e+00 -1.9024509776e-03 2.7064052239e+00 -4.6876313536e+00 2.7064052239e+00 4.6876313536e+00 
36000 5.7204352953e+00 -2.2727503202e-03 2.7064403712e+00 -4.6876922305e+00 2.7064403712e+00 4.6876922305e+00 
36100 5.7204355912e+00 -2.6364599569e-03 2.7064823591e+00 -4.6877649557e+00 2.7064823591e+00 4.6877649557e+00 
36200 5.7204351946e+00 -2.9922532822e-03 2.7065310656e+00 -4.6878493179e+00 2.7065310656e+00 4.6878493179e+00 
36300 5.7204341513e+00 -3.3388686063e-03 2.7065863442e+00 -4.6879450632e+00 2.7065863442e+00 4.6879450632e+00 
36400 5.7204325141e+00 -3.6751118739e-03 2.7066480249e+00 -4.6880518973e+00 2.7066480249e+00 4.6880518973e+00 
36500 5.7204303418e+00 -3.9998590620e-03 2.7067159156e+00 -4.6881694875e+00 2.7067159156e+00 4.6881694875e+00 
36600 5.7204276981e+00 -4.3120582606e-03 2.7067898036e+00 -4.6882974653e+00 2.7067898036e+00 4.6882974653e+00 
36700 5.7204246502e+00 -4.6107314397e-03 2.7068694566e+00 -4.6884354284e+00 2.7068694566e+00 4.6884354284e+00 
36800 5.7204212679e+00 -4.8949759086e-03 2.7069546243e+00 -4.6885829431e+00 2.7069546243e+00 4.6885829431e+00 
36900 5.7204176224e+00 -5.1639654735e-03 2.7070450396e+00 -4.6887395470e+00 2.7070450396e+00 4.6887395470e+00 
37000 5.7204137853e+00 -5.4169512997e-03 2.7071404203e+00 -4.6889047512e+00 2.7071404203e+00 4.6889047512e+00 
37100 5.7204098274e+00 -5.6532624861e-03 2.7072404703e+00 -4.6890780428e+00 2.7072404703e+00 4.6890780428e+00 
37200 5.7204058176e+00 -5.8723063601e-03 2.7073448810e+00 -4.6892588875e+00 2.7073448810e+00 4.6892588875e+00 
37300 5.7204018225e+00 -6.0735685001e-03 2.7074533331e+00 -4.6894467320e+00 2.7074533331e+00 4.6894467320e+00 
37400 5.7203979051e+00 -6.2566124963e-03 2.7075654977e+00 -4.6896410069e+00 2.7075654977e+00 4.6896410069e+00 
37500 5.7203941242e+00 -6.4210794574e-03 2.7076810380e+00 -4.6898411285e+00 2.7076810380e+00 4.6898411285e+00 
37600 5.7203905339e+00 -6.5666872725e-03 2.7077996104e+00 -4.6900465020e+00 2.7077996104e+00 4.6900465020e+00 
37700 5.7203871827e+00 -6.6932296395e-03 2.7079208664e+00 -4.6902565234e+00 2.7079208664e+00 4.6902565234e+00 
37800 5.7203841137e+00 -6.8005748681e-03 2.7080444535e+00 -4.6904705825e+00 2.7080444535e+00 4.6904705825e+00 
37900 5.7203813635e+00 -6.8886644683e-03 2.7081700169e+00 -4.6906880648e+00 2.7081700169e+00 4.6906880648e+00 
38000 5.7203789625e+00 -6.9575115345e-03 2.7082972009e+00 -4.6909083540e+00 2.7082972009e+00 4.6909083540e+00 
38100 5.7203769346e+00 -7.0071989355e-03 2.7084256500e+00 -4.6911308343e+00 2.7084256500e+00 4.6911308343e+00 
38200 5.7203752971e+00 -7.0378773213e-03 2.7085550103e+00 -4.6913548929e+00 2.7085550103e+00 4.6913548929e+00 
38300 5.7203740610e+00 -7.0497629557e-03 2.7086849307e+00 -4.6915799217e+00 2.7086849307e+00 4.6915799217e+00 
38400 5.7203732308e+00 -7.0431353872e-03 2.7088150644e+00 -4.6918053198e+00 2.7088150644e+00 4.6918053198e+00 
38500 5.7203728050e+00 -7.0183349681e-03 2.7089450694e+00 -4.6920304951e+00 2.7089450694e+00 4.6920304951e+00 
38600 5.7203727762e+00 -6.9757602317e-03 2.7090746104e+00 -4.6922548667e+00 2.7090746104e+00 4.6922548667e+00 
38700 5.7203731318e+00 -6.9158651397e-03 2.7092033595e+00 -4.6924778666e+00 2.7092033595e+00 4.6924778666e+00 
38800 5.7203738541e+00 -6.8391562102e-03 2.7093309970e+00 -4.6926989413e+00 2.7093309970e+00 4.6926989413e+00 
38900 5.7203749209e+00 -6.7461895361e-03 2.7094572128e+00 -4.6929175535e+00 2.7094572128e+00 4.6929175535e+00 
39000 5.7203763060e+00 -6.6375677069e-03 2.7095817071e+00 -4.6931331840e+00 2.7095817071e+00 4.6931331840e+00 
39100 5.7203779798e+00 -6.5139366428e-03 2.7097041913e+00 -4.6933453328e+00 2.7097041913e+00 4.6933453328e+00 
39200 5.7203799099e+00 -6.3759823538e-03 2.7098243887e+00 -4.6935535208e+00 2.7098243887e+00 4.6935535208e+00 
39300 5.7203820618e+00 -6.2244276333e-03 2.7099420352e+00 -4.6937572905e+00 2.7099420352e+00 4.6937572905e+00 
39400 5.7203843990e+00 -6.0600286986e-03 2.7100568803e+00 -4.6939562081e+00 2.7100568803e+00 4.6939562081e+00 
39500 5.7203868842e+00 -5.8835717885e-03 2.7101686874e+00 -4.6941498636e+00 2.7101686874e+00 4.6941498636e+00 
39600 5.7203894795e+00 -5.6958697296e-03 2.7102772343e+00 -4.6943378724e+00 2.7102772343e+00 4.6943378724e+00 
39700 5.7203921472e+00 -5.4977584822e-03 2.7103823141e+00 -4.6945198759e+00 2.7103823141e+00 4.6945198759e+00 
39800 5.7203948501e+00 -5.2900936767e-03 2.7104837351e+00 -4.6946955422e+00 2.7104837351e+00 4.6946955422e+00 
39900 5.7203975522e+00 -5.0737471521e-03 2.7105813214e+00 -4.6948645668e+00 2.7105813214e+00 4.6948645668e+00 
40000 5.7204002191e+00 -4.8496035066e-03 2.7106749135e+00 -4.6950266729e+00 2.7106749135e+00 4.6950266729e+00 
40100 5.7204028182e+00 -4.6185566724e-03 2.7107643678e+00 -4.6951816123e+00 2.7107643678e+00 4.6951816123e+00 
40200 5.7204053196e+00 -4.3815065243e-03 2.7108495574e+00 -4.6953291651e+00 2.7108495574e+00 4.6953291651e+00 
40300 5.7204076959e+00 -4.1393555336e-03 2.7109303721e+00 -4.6954691402e+00 2.7109303721e+00 4.6954691402e+00 
40400 5.7204099225e+00 -3.8930054776e-03 2.7110067181e+00 -4.6956013754e+00 2.7110067181e+00 4.6956013754e+00 
40500 5.7204119784e+00 -3.6433542138e-03 2.7110785184e+00 -4.6957257372e+00 2.7110785184e+00 4.6957257372e+00 
40600 5.7204138456e+00 -3.3912925314e-03 2.7111457125e+00 -4.6958421208e+00 2.7111457125e+00 4.6958421208e+00 
40700 5.7204155096e+00 -3.1377010862e-03 2.7112082563e+00 -4.6959504498e+00 2.7112082563e+00 4.6959504498e+00 
40800 5.7204169596e+00 -2.8834474320e-03 2.7112661219e+00 -4.6960506759e+00 2.7112661219e+00 4.6960506759e+00 
40900 5.7204181880e+00 -2.6293831548e-03 2.7113192973e+00 -4.6961427785e+00 2.7113192973e+00 4.6961427785e+00 
41000 5.7204191910e+00 -2.3763411197e-03 2.7113677865e+00 -4.6962267642e+00 2.7113677865e+00 4.6962267642e+00 
41100 5.7204199678e+00 -2.1251328382e-03 2.7114116084e+00 -4.6963026660e+00 2.7114116084e+00 4.6963026660e+00 
41200 5.7204205209e+00 -1.8765459643e-03 2.7114507972e+00 -4.6963705429e+00 2.7114507972e+00 4.6963705429e+00 
41300 5.7204208561e+00 -1.6313419254e-03 2.7114854013e+00 -4.6964304791e+00 2.7114854013e+00 4.6964304791e+00 
41400 5.7204209817e+00 -1.3902536959e-03 2.7115154835e+00 -4.6964825829e+00 2.7115154835e+00 4.6964825829e+00 
41500 5.7204209087e+00 -1.1539837189e-03 2.7115411196e+00 -4.6965269860e+00 2.7115411196e+00 4.6965269860e+00 
41600 5.7204206504e+00 -9.2320198117e-04 2.7115623987e+00 -4.6965638425e+00 2.7115623987e+00 4.6965638425e+00 
41700 5.7204202219e+00 -6.9854424671e-04 2.7115794222e+00 -4.6965933280e+00 2.7115794222e+00 4.6965933280e+00 
41800 5.7204196404e+00 -4.8061045312e-04 2.7115923030e+00 -4.6966156382e+00 2.7115923030e+00 4.6966156382e+00 
41900 5.7204189241e+00 -2.6996327350e-04 2.7116011651e+00 -4.6966309879e+00 2.7116011651e+00 4.6966309879e+00 
42000 5.7204180924e+00 -6.7126847261e-05 2.7116061431e+00 -4.6966396099e+00 2.7116061431e+00 4.6966396099e+00 
42100 5.7204171651e+00 1.2704526149e-04 2.7116061431e+00 -4.6966396099e+00 2.7116061431e+00 4.6966396099e+00 
42200 5.7204161630e+00 3.1283928602e-04 2.7116038004e+00 -4.6966355523e+00 2.7116038004e+00 4.6966355523e+00 
42300 5.7204151067e+00 4.8949064231e-04 2.7115980319e+00 -4.6966255610e+00 2.7115980319e+00 4.6966255610e+00 
42400 5.7204140167e+00 6.5663861759e-04 2.7115890060e+00 -4.6966099277e+00 2.7115890060e+00 4.6966099277e+00 
42500 5.7204129128e+00 8.1396481103e-04 2.7115768980e+00 -4.6965889560e+00 2.7115768980e+00 4.6965889560e+00 
42600 5.7204118141e+00 9.6119337390e-04 2.7115618890e+00 -4.6965629596e+00 2.7115618890e+00 4.6965629596e+00 
42700 5.7204107387e+00 1.0980910824e-03 2.7115441650e+00 -4.6965322608e+00 2.7115441650e+00 4.6965322608e+00 
42800 5.7204097036e+00 1.2244672461e-03 2.7115239166e+00 -4.6964971895e+00 2.7115239166e+00 4.6964971895e+00 
42900 5.7204087242e+00 1.3401734559e-03 2.7115013377e+00 -4.6964580817e+00 2.7115013377e+00 4.6964580817e+00 
43000 5.7204078145e+00 1.4451031753e-03 2.7114766250e+00 -4.6964152780e+00 2.7114766250e+00 4.6964152780e+00 
43100 5.7204069868e+00 1.5391911810e-03 2.7114499771e+00 -4.6963691225e+00 2.7114499771e+00 4.6963691225e+00 
43200 5.7204062514e+00 1.6224128565e-03 2.7114215940e+00 -4.6963199615e+00 2.7114215940e+00 4.6963199615e+00 
43300 5.7204056170e+00 1.6947833469e-03 2.7113916759e+00 -4.6962681419e+00 2.7113916759e+00 4.6962681419e+00 
43400 5.7204050902e+00 1.7563565792e-03 2.7113604230e+00 -4.6962140102e+00 2.7113604230e+00 4.6962140102e+00 
43500 5.7204046759e+00 1.8072241575e-03 2.7113280342e+00 -4.6961579112e+00 2.7113280342e+00 4.6961579112e+00 
43600 5.7204043770e+00 1.8475141379e-03 2.7112947070e+00 -4.6961001868e+00 2.7112947070e+00 4.6961001868e+00 
43700 5.7204041945e+00 1.8773896926e-03 2.7112606363e+00 -4.6960411747e+00 2.7112606363e+00 4.6960411747e+00 
43800 5.7204041277e+00 1.8970476703e-03 2.7112260143e+00 -4.6959812076e+00 2.7112260143e+00 4.6959812076e+00 
43900 5.7204041743e+00 1.9067170625e-03 2.7111910294e+00 -4.6959206119e+00 2.7111910294e+00 4.6959206119e+00 
44000 5.7204043302e+00 1.9066573818e-03 2.7111558656e+00 -4.6958597065e+00 2.7111558656e+00 4.6958597065e+00 
44100 5.7204045902e+00 1.8971569636e-03 2.7111207025e+00 -4.6957988022e+00 2.7111207025e+00 4.6957988022e+00 
44200 5.7204049475e+00 1.8785311976e-03 2.7110857141e+00 -4.6957382006e+00 2.7110857141e+00 4.6957382006e+00 
44300 5.7204053943e+00 1.8511207001e-03 2.7110510689e+00 -4.6956781932e+00 2.7110510689e+00 4.6956781932e+00 
44400 5.7204059219e+00 1.8152894340e-03 2.7110169286e+00 -4.6956190606e+00 2.7110169286e+00 4.6956190606e+00 
44500 5.7204065208e+00 1.7714227869e-03 2.7109834489e+00 -4.6955610719e+00 2.7109834489e+00 4.6955610719e+00 
44600 5.7204071807e+00 1.7199256150e-03 2.7109507777e+00 -4.6955044838e+00 2.7109507777e+00 4.6955044838e+00 
44700 5.7204078911e+00 1.6612202619e-03 2.7109190559e+00 -4.6954495401e+00 2.7109190559e+00 4.6954495401e+00 
44800 5.7204086410e+00 1.5957445617e-03 2.7108884166e+00 -4.6953964712e+00 2.7108884166e+00 4.6953964712e+00 
44900 5.7204094196e+00 1.5239498326e-03 2.7108589845e+00 -4.6953454933e+00 2.7108589845e+00 4.6953454933e+00 
45000 5.7204102160e+00 1.4462988717e-03 2.7108308763e+00 -4.6952968085e+00 2.7108308763e+00 4.6952968085e+00 
45100 5.7204110193e+00 1.3632639568e-03 2.7108042000e+00 -4.6952506038e+00 2.7108042000e+00 4.6952506038e+00 
45200 5.7204118195e+00 1.2753248643e-03 2.7107790551e+00 -4.6952070515e+00 2.7107790551e+00 4.6952070515e+00 
45300 5.7204126066e+00 1.1829669094e-03 2.7107555319e+00 -4.6951663081e+00 2.7107555319e+00 4.6951663081e+00 
45400 5.7204133714e+00 1.0866790166e-03 2.7107337120e+00 -4.6951285150e+00 2.7107337120e+00 4.6951285150e+00 
45500 5.7204141056e+00 9.8695182640e-04 2.7107136681e+00 -4.6950937979e+00 2.7107136681e+00 4.6950937979e+00 
45600 5.7204148015e+00 8.8427584476e-04 2.7106954634e+00 -4.6950622665e+00 2.7106954634e+00 4.6950622665e+00 
45700 5.7204154524e+00 7.7913964144e-04 2.7106791526e+00 -4.6950340153e+00 2.7106791526e+00 4.6950340153e+00 
45800 5.7204160523e+00 6.7202810246e-04 2.7106647809e+00 -4.6950091229e+00 2.7106647809e+00 4.6950091229e+00 
45900 5.7204165965e+00 5.6342074192e-04 2.7106523849e+00 -4.6949876524e+00 2.7106523849e+00 4.6949876524e+00 
46000 5.7204170812e+00 4.5379007800e-04 2.7106419922e+00 -4.6949696517e+00 2.7106419922e+00 4.6949696517e+00 
46100 5.7204175035e+00 3.4360007736e-04 2.7106336217e+00 -4.6949551535e+00 2.7106336217e+00 4.6949551535e+00 
46200 5.7204178616e+00 2.3330467190e-04 2.7106272837e+00 -4.6949441758e+00 2.7106272837e+00 4.6949441758e+00 
46300 5.7204181547e+00 1.2334635141e-04 2.7106229802e+00 -4.6949367219e+00 2.7106229802e+00 4.6949367219e+00 
46400 5.7204183830e+00 1.4154835171e-05 2.7106207049e+00 -4.6949327810e+00 2.7106207049e+00 4.6949327810e+00 
46500 5.7204185474e+00 -9.3776176451e-05 2.7106207049e+00 -4.6949327810e+00 2.7106207049e+00 4.6949327810e+00 
46600 5.7204186498e+00 -2.0020050805e-04 2.7106224347e+00 -4.6949357771e+00 2.7106224347e+00 4.6949357771e+00 
46700 5.7204186929e+00 -3.0465737325e-04 2.7106261276e+00 -4.6949421734e+00 2.7106261276e+00 4.6949421734e+00 
46800 5.7204186801e+00 -4.0677975880e-04 2.7106317473e+00 -4.6949519070e+00 2.7106317473e+00 4.6949519070e+00 
46900 5.7204186153e+00 -5.0621879986e-04 2.7106392507e+00 -4.6949649033e+00 2.7106392507e+00 4.6949649033e+00 
47000 5.7204185031e+00 -6.0264459139e-04 2.7106485884e+00 -4.6949810765e+00 2.7106485884e+00 4.6949810765e+00 
47100 5.7204183485e+00 -6.9574690965e-04 2.7106597046e+00 -4.6950003304e+00 2.7106597046e+00 4.6950003304e+00 
47200 5.7204181567e+00 -7.8523584389e-04 2.7106725382e+00 -4.6950225588e+00 2.7106725382e+00 4.6950225588e+00 
47300 5.7204179334e+00 -8.7084233824e-04 2.7106870223e+00 -4.6950476461e+00 2.7106870223e+00 4.6950476461e+00 
47400 5.7204176844e+00 -9.5231864453e-04 2.7107030855e+00 -4.6950754683e+00 2.7107030855e+00 4.6950754683e+00 
47500 5.7204174154e+00 -1.0294386866e-03 2.7107206514e+00 -4.6951058933e+00 2.7107206514e+00 4.6951058933e+00 
47600 5.7204171323e+00 -1.1019983377e-03 2.7107396397e+00 -4.6951387820e+00 2.7107396397e+00 4.6951387820e+00 
47700 5.7204168408e+00 -1.1698156113e-03 2.7107599662e+00 -4.6951739887e+00 2.7107599662e+00 4.6951739887e+00 
47800 5.7204165465e+00 -1.2327307688e-03 2.7107815435e+00 -4.6952113616e+00 2.7107815435e+00 4.6952113616e+00 
47900 5.7204162548e+00 -1.2906063437e-03 2.7108042811e+00 -4.6952507443e+00 2.7108042811e+00 4.6952507443e+00 
48000 5.7204159707e+00 -1.3433270861e-03 2.7108280860e+00 -4.6952919756e+00 2.7108280860e+00 4.6952919756e+00 
48100 5.7204156988e+00 -1.3907998294e-03 2.7108528631e+00 -4.6953348908e+00 2.7108528631e+00 4.6953348908e+00 
48200 5.7204154433e+00 -1.4329532806e-03 2.7108785156e+00 -4.6953793222e+00 2.7108785156e+00 4.6953793222e+00 
48300 5.7204152082e+00 -1.4697377390e-03 2.7109049453e+00 -4.6954250998e+00 2.7109049453e+00 4.6954250998e+00 
48400 5.7204149966e+00 -1.5011247442e-03 2.7109320533e+00 -4.6954720521e+00 2.7109320533e+00 4.6954720521e+00 
48500 5.7204148114e+00 -1.5271066568e-03 2.7109597398e+00 -4.6955200066e+00 2.7109597398e+00 4.6955200066e+00 
48600 5.7204146549e+00 -1.5476961763e-03 2.7109879053e+00 -4.6955687906e+00 2.7109879053e+00 4.6955687906e+00 
48700 5.7204145288e+00 -1.5629257975e-03 2.7110164502e+00 -4.6956182319e+00 2.7110164502e+00 4.6956182319e+00 
48800 5.7204144343e+00 -1.5728472100e-03 2.7110452757e+00 -4.6956681592e+00 2.7110452757e+00 4.6956681592e+00 
48900 5.7204143722e+00 -1.5775306441e-03 2.7110742839e+00 -4.6957184028e+00 2.7110742839e+00 4.6957184028e+00 
49000 5.7204143424e+00 -1.5770641667e-03 2.7111033781e+00 -4.6957687955e+00 2.7111033781e+00 4.6957687955e+00 
49100 5.7204143449e+00 -1.5715529295e-03 2.7111324635e+00 -4.6958191728e+00 2.7111324635e+00 4.6958191728e+00 
49200 5.7204143787e+00 -1.5611183765e-03 2.7111614469e+00 -4.6958693735e+00 2.7111614469e+00 4.6958693735e+00 
49300 5.7204144427e+00 -1.5458974103e-03 2.7111902375e+00 -4.6959192403e+00 2.7111902375e+00 4.6959192403e+00 
49400 5.7204145353e+00 -1.5260415241e-03 2.7112187471e+00 -4.6959686204e+00 2.7112187471e+00 4.6959686204e+00 
49500 5.7204146545e+00 -1.5017159027e-03 2.7112468903e+00 -4.6960173658e+00 2.7112468903e+00 4.6960173658e+00 
49600 5.7204147982e+00 -1.4730984947e-03 2.7112745845e+00 -4.6960653336e+00 2.7112745845e+00 4.6960653336e+00 
49700 5.7204149637e+00 -1.4403790619e-03 2.7113017507e+00 -4.6961123869e+00 2.7113017507e+00 4.6961123869e+00 
49800 5.7204151483e+00 -1.4037582085e-03 2.7113283132e+00 -4.6961583945e+00 2.7113283132e+00 4.6961583945e+00 
49900 5.7204153493e+00 -1.3634463933e-03 2.7113542002e+00 -4.6962032321e+00 2.7113542002e+00 4.6962032321e+00 
50000 5.7204155636e+00 -1.3196629315e-03 2.7113793435e+00 -4.6962467816e+00 2.7113793435e+00 4.6962467816e+00 
50100 5.7204157881e+00 -1.2726349856e-03 2.7114036792e+00 -4.6962889322e+00 2.7114036792e+00 4.6962889322e+00 
50200 5.7204160199e+00 -1.2225965533e-03 2.7114271474e+00 -4.6963295803e+00 2.7114271474e+00 4.6963295803e+00 
50300 5.7204162558e+00 -1.1697874530e-03 2.7114496927e+00 -4.6963686299e+00 2.7114496927e+00 4.6963686299e+00 
50400 5.7204164928e+00 -1.1144523123e-03 2.7114712640e+00 -4.6964059925e+00 2.7114712640e+00 4.6964059925e+00 
50500 5.7204167282e+00 -1.0568395620e-03 2.7114918147e+00 -4.6964415874e+00 2.7114918147e+00 4.6964415874e+00 
50600 5.7204169592e+00 -9.9720043918e-04 2.7115113029e+00 -4.6964753419e+00 2.7115113029e+00 4.6964753419e+00 
50700 5.7204171832e+00 -9.3578800369e-04 2.7115296912e+00 -4.6965071914e+00 2.7115296912e+00 4.6965071914e+00 
50800 5.7204173981e+00 -8.7285616934e-04 2.7115469469e+00 -4.6965370792e+00 2.7115469469e+00 4.6965370792e+00 
50900 5.7204176015e+00 -8.0865875462e-04 2.7115630421e+00 -4.6965649569e+00 2.7115630421e+00 4.6965649569e+00 
51000 5.7204177918e+00 -7.4344855512e-04 2.7115779534e+00 -4.6965907840e+00 2.7115779534e+00 4.6965907840e+00 
51100 5.7204179673e+00 -6.7747644055e-04 2.7115916622e+00 -4.6966145283e+00 2.7115916622e+00 4.6966145283e+00 
51200 5.7204181267e+00 -6.1099047914e-04 2.7116041545e+00 -4.6966361655e+00 2.7116041545e+00 4.6966361655e+00 
51300 5.7204182690e+00 -5.4423509203e-04 2.7116154207e+00 -4.6966556792e+00 2.7116154207e+00 4.6966556792e+00 
51400 5.7204183934e+00 -4.7745023994e-04 2.7116254559e+00 -4.6966730608e+00 2.7116254559e+00 4.6966730608e+00 
51500 5.7204184996e+00 -4.1087064436e-04 2.7116342597e+00 -4.6966883094e+00 2.7116342597e+00 4.6966883094e+00 
51600 5.7204185872e+00 -3.4472504545e-04 2.7116418358e+00 -4.6967014315e+00 2.7116418358e+00 4.6967014315e+00 
51700 5.7204186565e+00 -2.7923549842e-04 2.7116481922e+00 -4.6967124411e+00 2.7116481922e+00 4.6967124411e+00 
51800 5.7204187077e+00 -2.1461671021e-04 2.7116533410e+00 -4.6967213591e+00 2.7116533410e+00 4.6967213591e+00 
51900 5.7204187413e+00 -1.5107541795e-04 2.7116572983e+00 -4.6967282134e+00 2.7116572983e+00 4.6967282134e+00 
52000 5.7204187583e+00 -8.8809810653e-05 2.7116600840e+00 -4.6967330383e+00 2.7116600840e+00 4.6967330383e+00 
52100 5.7204187595e+00 -2.8008995296e-05 2.7116617215e+00 -4.6967358746e+00 2.7116617215e+00 4.6967358746e+00 
52200 5.7204187461e+00 3.0993376383e-05 2.7116617215e+00 -4.6967358746e+00 2.7116617215e+00 4.6967358746e+00 
52300 5.7204187194e+00 8.8503264302e-05 2.7116617215e+00 -4.6967358746e+00 2.7116617215e+00 4.6967358746e+00 
52400 5.7204186809e+00 1.4387294243e-04 2.7116600896e+00 -4.6967330481e+00 2.7116600896e+00 4.6967330481e+00 
52500 5.7204186320e+00 1.9712134391e-04 2.7116574368e+00 -4.6967284532e+00 2.7116574368e+00 4.6967284532e+00 
52600 5.7204185743e+00 2.4811116973e-04 2.7116538021e+00 -4.6967221577e+00 2.7116538021e+00 4.6967221577e+00 
52700 5.7204185095e+00 2.9671643104e-04 2.7116492272e+00 -4.6967142337e+00 2.7116492272e+00 4.6967142337e+00 
52800 5.7204184392e+00 3.4282265490e-04 2.7116437560e+00 -4.6967047575e+00 2.7116437560e+00 4.6967047575e+00 
52900 5.7204183651e+00 3.8632704270e-04 2.7116374347e+00 -4.6966938086e+00 2.7116374347e+00 4.6966938086e+00 
53000 5.7204182888e+00 4.2713858190e-04 2.7116303112e+00 -4.6966814704e+00 2.7116303112e+00 4.6966814704e+00 
53100 5.7204182118e+00 4.6517811159e-04 2.7116224352e+00 -4.6966678287e+00 2.7116224352e+00 4.6966678287e+00 
53200 5.7204181356e+00 5.0037834276e-04 2.7116138577e+00 -4.6966529720e+00 2.7116138577e+00 4.6966529720e+00 
53300 5.7204180617e+00 5.3268383400e-04 2.7116046311e+00 -4.6966369911e+00 2.7116046311e+00 4.6966369911e+00 
53400 5.7204179914e+00 5.6205092404e-04 2.7115948088e+00 -4.6966199784e+00 2.7115948088e+00 4.6966199784e+00 
53500 5.7204179257e+00 5.8844762210e-04 2.7115844450e+00 -4.6966020277e+00 2.7115844450e+00 4.6966020277e+00 
53600 5.7204178658e+00 6.1185345750e-04 2.7115735944e+00 -4.6965832339e+00 2.7115735944e+00 4.6965832339e+00 
53700 5.7204178127e+00 6.3225929006e-04 2.7115623121e+00 -4.6965636925e+00 2.7115623121e+00 4.6965636925e+00 
53800 5.7204177670e+00 6.4966708287e-04 2.7115506535e+00 -4.6965434992e+00 2.7115506535e+00 4.6965434992e+00 
53900 5.7204177293e+00 6.6408963911e-04 2.7115386739e+00 -4.6965227499e+00 2.7115386739e+00 4.6965227499e+00 
54000 5.7204177002e+00 6.7555030480e-04 2.7115264283e+00 -4.6965015399e+00 2.7115264283e+00 4.6965015399e+00 
54100 5.7204176800e+00 6.8408263931e-04 2.7115139713e+00 -4.6964799638e+00 2.7115139713e+00 4.6964799638e+00 
54200 5.7204176688e+00 6.8973005575e-04 2.7115013569e+00 -4.6964581150e+00 2.7115013569e+00 4.6964581150e+00 
54300 5.7204176666e+00 6.9254543312e-04 2.7114886383e+00 -4.6964360857e+00 2.7114886383e+00 4.6964360857e+00 
54400 5.7204176733e+00 6.9259070247e-04 2.7114758678e+00 -4.6964139665e+00 2.7114758678e+00 4.6964139665e+00 
54500 5.7204176888e+00 6.8993640921e-04 2.7114630963e+00 -4.6963918457e+00 2.7114630963e+00 4.6963918457e+00 
54600 5.7204177125e+00 6.8466125370e-04 2.7114503737e+00 -4.6963698095e+00 2.7114503737e+00 4.6963698095e+00 
54700 5.7204177442e+00 6.7685161254e-04 2.7114377484e+00 -4.6963479417e+00 2.7114377484e+00 4.6963479417e+00 
54800 5.7204177831e+00 6.6660104254e-04 2.7114252670e+00 -4.6963263233e+00 2.7114252670e+00 4.6963263233e+00 
54900 5.7204178286e+00 6.5400976996e-04 2.7114129745e+00 -4.6963050322e+00 2.7114129745e+00 4.6963050322e+00 
55000 5.7204178800e+00 6.3918416704e-04 2.7114009142e+00 -4.6962841431e+00 2.7114009142e+00 4.6962841431e+00 
55100 5.7204179366e+00 6.2223621817e-04 2.7113891273e+00 -4.6962637275e+00 2.7113891273e+00 4.6962637275e+00 
55200 5.7204179975e+00 6.0328297805e-04 2.7113776528e+00 -4.6962438531e+00 2.7113776528e+00 4.6962438531e+00 
55300 5.7204180619e+00 5.8244602387e-04 2.7113665278e+00 -4.6962245840e+00 2.7113665278e+00 4.6962245840e+00 
55400 5.7204181288e+00 5.5985090386e-04 2.7113557869e+00 -4.6962059804e+00 2.7113557869e+00 4.6962059804e+00 
55500 5.7204181975e+00 5.3562658426e-04 2.7113454628e+00 -4.6961880984e+00 2.7113454628e+00 4.6961880984e+00 
55600 5.7204182671e+00 5.0990489689e-04 2.7113355853e+00 -4.6961709900e+00 2.7113355853e+00 4.6961709900e+00 
55700 5.7204183367e+00 4.8281998932e-04 2.7113261821e+00 -4.6961547032e+00 2.7113261821e+00 4.6961547032e+00 
55800 5.7204184056e+00 4.5450777955e-04 2.7113172783e+00 -4.6961392815e+00 2.7113172783e+00 4.6961392815e+00 
55900 5.7204184729e+00 4.2510541733e-04 2.7113088966e+00 -4.6961247640e+00 2.7113088966e+00 4.6961247640e+00 
56000 5.7204185381e+00 3.9475075375e-04 2.7113010572e+00 -4.6961111856e+00 2.7113010572e+00 4.6961111856e+00 
56100 5.7204186004e+00 3.6358182088e-04 2.7112937774e+00 -4.6960985767e+00 2.7112937774e+00 4.6960985767e+00 
56200 5.7204186593e+00 3.3173632330e-04 2.7112870725e+00 -4.6960869634e+00 2.7112870725e+00 4.6960869634e+00 
56300 5.7204187143e+00 2.9935114297e-04 2.7112809548e+00 -4.6960763673e+00 2.7112809548e+00 4.6960763673e+00 
56400 5.7204187649e+00 2.6656185897e-04 2.7112754343e+00 -4.6960668056e+00 2.7112754343e+00 4.6960668056e+00 
56500 5.7204188109e+00 2.3350228348e-04 2.7112705185e+00 -4.6960582911e+00 2.7112705185e+00 4.6960582911e+00 
56600 5.7204188519e+00 2.0030401549e-04 2.7112662124e+00 -4.6960508327e+00 2.7112662124e+00 4.6960508327e+00 
56700 5.7204188877e+00 1.6709601311e-04 2.7112625185e+00 -4.6960444346e+00 2.7112625185e+00 4.6960444346e+00 
56800 5.7204189184e+00 1.3400418599e-04 2.7112594369e+00 -4.6960390973e+00 2.7112594369e+00 4.6960390973e+00 
56900 5.7204189437e+00 1.0115100849e-04 2.7112569657e+00 -4.6960348169e+00 2.7112569657e+00 4.6960348169e+00 
57000 5.7204189638e+00 6.8655154787e-05 2.7112551003e+00 -4.6960315860e+00 2.7112551003e+00 4.6960315860e+00 
57100 5.7204189789e+00 3.7009175808e-05 2.7112551003e+00 -4.6960315860e+00 2.7112551003e+00 4.6960315860e+00 
57200 5.7204189889e+00 5.7789188328e-06 2.7112551003e+00 -4.6960315860e+00 2.7112551003e+00 4.6960315860e+00 
57300 5.7204189942e+00 -2.4930874652e-05 2.7112551003e+00 -4.6960315860e+00 2.7112551003e+00 4.6960315860e+00 
57400 5.7204189952e+00 -5.5020279612e-05 2.7112551003e+00 -4.6960315860e+00 2.7112551003e+00 4.6960315860e+00 
57500 5.7204189922e+00 -8.4394436267e-05 2.7112551003e+00 -4.6960315860e+00 2.7112551003e+00 4.6960315860e+00 
57600 5.7204189855e+00 -1.1249916570e-04 2.7112566567e+00 -4.6960342817e+00 2.7112566567e+00 4.6960342817e+00 
57700 5.7204189755e+00 -1.3954782443e-04 2.7112587313e+00 -4.6960378751e+00 2.7112587313e+00 4.6960378751e+00 
57800 5.7204189628e+00 -1.6546248682e-04 2.7112613048e+00 -4.6960423326e+00 2.7112613048e+00 4.6960423326e+00 
57900 5.7204189476e+00 -1.9017123208e-04 2.7112643562e+00 -4.6960476177e+00 2.7112643562e+00 4.6960476177e+00 
58000 5.7204189306e+00 -2.1360826381e-04 2.7112678633e+00 -4.6960536921e+00 2.7112678633e+00 4.6960536921e+00 
58100 5.7204189121e+00 -2.3571400446e-04 2.7112718026e+00 -4.6960605151e+00 2.7112718026e+00 4.6960605151e+00 
58200 5.7204188927e+00 -2.5643516508e-04 2.7112761495e+00 -4.6960680442e+00 2.7112761495e+00 4.6960680442e+00 
58300 5.7204188728e+00 -2.7572479053e-04 2.7112808785e+00 -4.6960762352e+00 2.7112808785e+00 4.6960762352e+00 
58400 5.7204188528e+00 -2.9354228074e-04 2.7112859633e+00 -4.6960850423e+00 2.7112859633e+00 4.6960850423e+00 
58500 5.7204188331e+00 -3.0985338839e-04 2.7112913766e+00 -4.6960944185e+00 2.7112913766e+00 4.6960944185e+00 
58600 5.7204188142e+00 -3.2463019371e-04 2.7112970908e+00 -4.6961043156e+00 2.7112970908e+00 4.6961043156e+00 
58700 5.7204187964e+00 -3.3785105694e-04 2.7113030774e+00 -4.6961146848e+00 2.7113030774e+00 4.6961146848e+00 
58800 5.7204187800e+00 -3.4950054923e-04 2.7113093078e+00 -4.6961254762e+00 2.7113093078e+00 4.6961254762e+00 
58900 5.7204187654e+00 -3.5956936267e-04 2.7113157531e+00 -4.6961366397e+00 2.7113157531e+00 4.6961366397e+00 
59000 5.7204187526e+00 -3.6805420033e-04 2.7113223840e+00 -4.6961481247e+00 2.7113223840e+00 4.6961481247e+00 
59100 5.7204187421e+00 -3.7495764718e-04 2.7113291713e+00 -4.6961598808e+00 2.7113291713e+00 4.6961598808e+00 
59200 5.7204187338e+00 -3.8028802279e-04 2.7113360860e+00 -4.6961718573e+00 2.7113360860e+00 4.6961718573e+00 
59300 5.7204187281e+00 -3.8405921669e-04 2.7113430989e+00 -4.6961840040e+00 2.7113430989e+00 4.6961840040e+00 
59400 5.7204187248e+00 -3.8629050761e-04 2.7113501814e+00 -4.6961962712e+00 2.7113501814e+00 4.6961962712e+00 
59500 5.7204187241e+00 -3.8700636737e-04 2.7113573049e+00 -4.6962086096e+00 2.7113573049e+00 4.6962086096e+00 
59600 5.7204187259e+00 -3.8623625068e-04 2.7113644417e+00 -4.6962209709e+00 2.7113644417e+00 4.6962209709e+00 
59700 5.7204187303e+00 -3.8401437178e-04 2.7113715643e+00 -4.6962333075e+00 2.7113715643e+00 4.6962333075e+00 
59800 5.7204187371e+00 -3.8037946922e-04 2.7113786458e+00 -4.6962455731e+00 2.7113786458e+00 4.6962455731e+00 
59900 5.7204187462e+00 -3.7537455965e-04 2.7113856603e+00 -4.6962577226e+00 2.7113856603e+00 4.6962577226e+00 
60000 5.7204187575e+00 -3.6904668207e-04 2.7113925825e+00 -4.6962697122e+00 2.7113925825e+00 4.6962697122e+00 
60100 5.7204187708e+00 -3.6144663332e-04 2.7113993880e+00 -4.6962814996e+00 2.7113993880e+00 4.6962814996e+00 
60200 5.7204187859e+00 -3.5262869632e-04 2.7114060533e+00 -4.6962930443e+00 2.7114060533e+00 4.6962930443e+00 
60300 5.7204188026e+00 -3.4265036191e-04 2.7114125560e+00 -4.6963043073e+00 2.7114125560e+00 4.6963043073e+00 
60400 5.7204188207e+00 -3.3157204567e-04 2.7114188747e+00 -4.6963152515e+00 2.7114188747e+00 4.6963152515e+00 
60500 5.7204188400e+00 -3.1945680063e-04 2.7114249890e+00 -4.6963258419e+00 2.7114249890e+00 4.6963258419e+00 
60600 5.7204188602e+00 -3.0637002723e-04 2.7114308800e+00 -4.6963360453e+00 2.7114308800e+00 4.6963360453e+00 
60700 5.7204188810e+00 -2.9237918143e-04 2.7114365296e+00 -4.6963458307e+00 2.7114365296e+00 4.6963458307e+00 
60800 5.7204189023e+00 -2.7755348221e-04 2.7114419212e+00 -4.6963551693e+00 2.7114419212e+00 4.6963551693e+00 
60900 5.7204189237e+00 -2.6196361944e-04 2.7114470394e+00 -4.6963640342e+00 2.7114470394e+00 4.6963640342e+00 
61000 5.7204189451e+00 -2.4568146322e-04 2.7114518701e+00 -4.6963724012e+00 2.7114518701e+00 4.6963724012e+00 
61100 5.7204189662e+00 -2.2877977561e-04 2.7114564005e+00 -4.6963802482e+00 2.7114564005e+00 4.6963802482e+00 
61200 5.7204189868e+00 -2.1133192590e-04 2.7114606193e+00 -4.6963875553e+00 2.7114606193e+00 4.6963875553e+00 
61300 5.7204190067e+00 -1.9341161019e-04 2.7114645163e+00 -4.6963943051e+00 2.7114645163e+00 4.6963943051e+00 
61400 5.7204190257e+00 -1.7509257629e-04 2.7114680828e+00 -4.6964004826e+00 2.7114680828e+00 4.6964004826e+00 
61500 5.7204190438e+00 -1.5644835482e-04 2.7114713116e+00 -4.6964060749e+00 2.7114713116e+00 4.6964060749e+00 
61600 5.7204190606e+00 -1.3755199725e-04 2.7114741965e+00 -4.6964110718e+00 2.7114741965e+00 4.6964110718e+00 
61700 5.7204190762e+00 -1.1847582183e-04 2.7114767330e+00 -4.6964154651e+00 2.7114767330e+00 4.6964154651e+00 
61800 5.7204190905e+00 -9.9291167919e-05 2.7114789177e+00 -4.6964192491e+00 2.7114789177e+00 4.6964192491e+00 
61900 5.7204191033e+00 -8.0068159685e-05 2.7114807487e+00 -4.6964224204e+00 2.7114807487e+00 4.6964224204e+00 
62000 5.7204191146e+00 -6.0875479557e-05 2.7114822251e+00 -4.6964249777e+00 2.7114822251e+00 4.6964249777e+00 
62100 5.7204191244e+00 -4.2115202140e-05 2.7114822251e+00 -4.6964249777e+00 2.7114822251e+00 4.6964249777e+00 
62200 5.7204191327e+00 -2.3421346969e-05 2.7114822251e+00 -4.6964249777e+00 2.7114822251e+00 4.6964249777e+00 
62300 5.7204191394e+00 -4.8559172033e-06 2.7114822251e+00 -4.6964249777e+00 2.7114822251e+00 4.6964249777e+00 
62400 5.7204191447e+00 1.3521226048e-05 2.7114822251e+00 -4.6964249777e+00 2.7114822251e+00 4.6964249777e+00 
62500 5.7204191486e+00 3.1652534685e-05 2.7114822251e+00 -4.6964249777e+00 2.7114822251e+00 4.6964249777e+00 
62600 5.7204191512e+00 4.9482930054e-05 2.7114822251e+00 -4.6964249777e+00 2.7114822251e+00 4.6964249777e+00 
62700 5.7204191525e+00 6.6959944790e-05 2.7114822251e+00 -4.6964249777e+00 2.7114822251e+00 4.6964249777e+00 
62800 5.7204191528e+00 8.4033850014e-05 2.7114822251e+00 -4.6964249777e+00 2.7114822251e+00 4.6964249777e+00 
62900 5.7204191520e+00 1.0019517693e-04 2.7114806755e+00 -4.6964222938e+00 2.7114806755e+00 4.6964222938e+00 
63000 5.7204191503e+00 1.1576118627e-04 2.7114788279e+00 -4.6964190936e+00 2.7114788279e+00 4.6964190936e+00 
63100 5.7204191478e+00 1.3069071934e-04 2.7114766933e+00 -4.6964153963e+00 2.7114766933e+00 4.6964153963e+00 
63200 5.7204191447e+00 1.4494583443e-04 2.7114742833e+00 -4.6964112221e+00 2.7114742833e+00 4.6964112221e+00 
63300 5.7204191410e+00 1.5849187038e-04 2.7114716105e+00 -4.6964065926e+00 2.7114716105e+00 4.6964065926e+00 
63400 5.7204191369e+00 1.7129749672e-04 2.7114686879e+00 -4.6964015305e+00 2.7114686879e+00 4.6964015305e+00 
63500 5.7204191325e+00 1.8333475037e-04 2.7114655291e+00 -4.6963960594e+00 2.7114655291e+00 4.6963960594e+00 
63600 5.7204191280e+00 1.9457905934e-04 2.7114621484e+00 -4.6963902038e+00 2.7114621484e+00 4.6963902038e+00 
63700 5.7204191235e+00 2.0500925341e-04 2.7114585603e+00 -4.6963839891e+00 2.7114585603e+00 4.6963839891e+00 
63800 5.7204191191e+00 2.1460756212e-04 2.7114547799e+00 -4.6963774412e+00 2.7114547799e+00 4.6963774412e+00 
63900 5.7204191149e+00 2.2335960049e-04 2.7114508225e+00 -4.6963705867e+00 2.7114508225e+00 4.6963705867e+00 
64000 5.7204191110e+00 2.3125434265e-04 2.7114467036e+00 -4.6963634527e+00 2.7114467036e+00 4.6963634527e+00 
64100 5.7204191075e+00 2.3828408386e-04 2.7114424392e+00 -4.6963560665e+00 2.7114424392e+00 4.6963560665e+00 
64200 5.7204191045e+00 2.4444439126e-04 2.7114380452e+00 -4.6963484558e+00 2.7114380452e+00 4.6963484558e+00 
64300 5.7204191020e+00 2.4973404393e-04 2.7114335375e+00 -4.6963406483e+00 2.7114335375e+00 4.6963406483e+00 
64400 5.7204191001e+00 2.5415496251e-04 2.7114289323e+00 -4.6963326719e+00 2.7114289323e+00 4.6963326719e+00 
64500 5.7204190989e+00 2.5771212911e-04 2.7114242456e+00 -4.6963245542e+00 2.7114242456e+00 4.6963245542e+00 
64600 5.7204190984e+00 2.6041349789e-04 2.7114194933e+00 -4.6963163230e+00 2.7114194933e+00 4.6963163230e+00 
64700 5.7204190986e+00 2.6226989691e-04 2.7114146911e+00 -4.6963080054e+00 2.7114146911e+00 4.6963080054e+00 
64800 5.7204190995e+00 2.6329492181e-04 2.7114098547e+00 -4.6962996285e+00 2.7114098547e+00 4.6962996285e+00 
64900 5.7204191011e+00 2.6350482187e-04 2.7114049994e+00 -4.6962912188e+00 2.7114049994e+00 4.6962912188e+00 
65000 5.7204191034e+00 2.6291837914e-04 2.7114001402e+00 -4.6962828025e+00 2.7114001402e+00 4.6962828025e+00 
65100 5.7204191063e+00 2.6155678110e-04 2.7113952918e+00 -4.6962744048e+00 2.7113952918e+00 4.6962744048e+00 
65200 5.7204191099e+00 2.5944348764e-04 2.7113904685e+00 -4.6962660506e+00 2.7113904685e+00 4.6962660506e+00 
65300 5.7204191141e+00 2.5660409283e-04 2.7113856842e+00 -4.6962577639e+00 2.7113856842e+00 4.6962577639e+00 
65400 5.7204191188e+00 2.5306618221e-04 2.7113809522e+00 -4.6962495679e+00 2.7113809522e+00 4.6962495679e+00 
65500 5.7204191240e+00 2.4885918618e-04 2.7113762855e+00 -4.6962414849e+00 2.7113762855e+00 4.6962414849e+00 
65600 5.7204191297e+00 2.4401423012e-04 2.7113716963e+00 -4.6962335362e+00 2.7113716963e+00 4.6962335362e+00 
65700 5.7204191357e+00 2.3856398195e-04 2.7113671965e+00 -4.6962257423e+00 2.7113671965e+00 4.6962257423e+00 
65800 5.7204191420e+00 2.3254249761e-04 2.7113627972e+00 -4.6962181224e+00 2.7113627972e+00 4.6962181224e+00 
65900 5.7204191486e+00 2.2598506513e-04 2.7113585089e+00 -4.6962106949e+00 2.7113585089e+00 4.6962106949e+00 
66000 5.7204191553e+00 2.1892804800e-04 2.7113543415e+00 -4.6962034768e+00 2.7113543415e+00 4.6962034768e+00 
66100 5.7204191621e+00 2.1140872826e-04 2.7113503042e+00 -4.6961964841e+00 2.7113503042e+00 4.6961964841e+00 
66200 5.7204191689e+00 2.0346515000e-04 2.7113464057e+00 -4.6961897315e+00 2.7113464057e+00 4.6961897315e+00 
66300 5.7204191757e+00 1.9513596378e-04 2.7113426536e+00 -4.6961832327e+00 2.7113426536e+00 4.6961832327e+00 
66400 5.7204191825e+00 1.8646027258e-04 2.7113390550e+00 -4.6961769999e+00 2.7113390550e+00 4.6961769999e+00 
66500 5.7204191890e+00 1.7747747972e-04 2.7113356165e+00 -4.6961710442e+00 2.7113356165e+00 4.6961710442e+00 
66600 5.7204191953e+00 1.6822713933e-04 2.7113323436e+00 -4.6961653754e+00 2.7113323436e+00 4.6961653754e+00 
66700 5.7204192014e+00 1.5874880981e-04 2.7113292413e+00 -4.6961600021e+00 2.7113292413e+00 4.6961600021e+00 
66800 5.7204192072e+00 1.4908191075e-04 2.7113263138e+00 -4.6961549315e+00 2.7113263138e+00 4.6961549315e+00 
66900 5.7204192126e+00 1.3926558380e-04 2.7113235646e+00 -4.6961501696e+00 2.7113235646e+00 4.6961501696e+00 
67000 5.7204192176e+00 1.2933855781e-04 2.7113209964e+00 -4.6961457213e+00 2.7113209964e+00 4.6961457213e+00 
67100 5.7204192223e+00 1.1933901873e-04 2.7113186112e+00 -4.6961415901e+00 2.7113186112e+00 4.6961415901e+00 
67200 5.7204192265e+00 1.0930448453e-04 2.7113164105e+00 -4.6961377783e+00 2.7113164105e+00 4.6961377783e+00 
67300 5.7204192304e+00 9.9271685568e-05 2.7113143948e+00 -4.6961342870e+00 2.7113143948e+00 4.6961342870e+00 
67400 5.7204192337e+00 8.9276450614e-05 2.7113125641e+00 -4.6961311161e+00 2.7113125641e+00 4.6961311161e+00 
67500 5.7204192367e+00 7.9353598922e-05 2.7113109177e+00 -4.6961282646e+00 2.7113109177e+00 4.6961282646e+00 
67600 5.7204192392e+00 6.9536838501e-05 2.7113094543e+00 -4.6961257299e+00 2.7113094543e+00 4.6961257299e+00 
67700 5.7204192414e+00 6.0241581603e-05 2.7113094543e+00 -4.6961257299e+00 2.7113094543e+00 4.6961257299e+00 
67800 5.7204192431e+00 5.1073101333e-05 2.7113094543e+00 -4.6961257299e+00 2.7113094543e+00 4.6961257299e+00 
67900 5.7204192444e+00 4.2061681693e-05 2.7113094543e+00 -4.6961257299e+00 2.7113094543e+00 4.6961257299e+00 
68000 5.7204192454e+00 3.3236195110e-05 2.7113094543e+00 -4.6961257299e+00 2.7113094543e+00 4.6961257299e+00 
68100 5.7204192460e+00 2.4624029209e-05 2.7113094543e+00 -4.6961257299e+00 2.7113094543e+00 4.6961257299e+00 
68200 5.7204192463e+00 1.6251022017e-05 2.7113094543e+00 -4.6961257299e+00 2.7113094543e+00 4.6961257299e+00 
68300 5.7204192464e+00 8.1414054588e-06 2.7113094543e+00 -4.6961257299e+00 2.7113094543e+00 4.6961257299e+00 
68400 5.7204192462e+00 3.1775710792e-07 2.7113094543e+00 -4.6961257299e+00 2.7113094543e+00 4.6961257299e+00 
68500 5.7204192459e+00 -7.1990399785e-06 2.7113094543e+00 -4.6961257299e+00 2.7113094543e+00 4.6961257299e+00 
68600 5.7204192454e+00 -1.4389829437e-05 2.7113094543e+00 -4.6961257299e+00 2.7113094543e+00 4.6961257299e+00 
68700 5.7204192449e+00 -2.1237205947e-05 2.7113094543e+00 -4.6961257299e+00 2.7113094543e+00 4.6961257299e+00 
68800 5.7204192443e+00 -2.7725531959e-05 2.7113094543e+00 -4.6961257299e+00 2.7113094543e+00 4.6961257299e+00 
68900 5.7204192436e+00 -3.3840946976e-05 2.7113094543e+00 -4.6961257299e+00 2.7113094543e+00 4.6961257299e+00 
69000 5.7204192430e+00 -3.9571369602e-05 2.7113094543e+00 -4.6961257299e+00 2.7113094543e+00 4.6961257299e+00 
69100 5.7204192424e+00 -4.4906492606e-05 2.7113094543e+00 -4.6961257299e+00 2.7113094543e+00 4.6961257299e+00 
69200 5.7204192419e+00 -4.9837771253e-05 2.7113094543e+00 -4.6961257299e+00 2.7113094543e+00 4.6961257299e+00 
69300 5.7204192415e+00 -5.4358405166e-05 2.7113094543e+00 -4.6961257299e+00 2.7113094543e+00 4.6961257299e+00 
69400 5.7204192412e+00 -5.8463313974e-05 2.7113094543e+00 -4.6961257299e+00 2.7113094543e+00 4.6961257299e+00 
69500 5.7204192411e+00 -6.2149107062e-05 2.7113094543e+00 -4.6961257299e+00 2.7113094543e+00 4.6961257299e+00 
69600 5.7204192411e+00 -6.5414047779e-05 2.7113094543e+00 -4.6961257299e+00 2.7113094543e+00 4.6961257299e+00 
69700 5.7204192413e+00 -6.8258012265e-05 2.7113094543e+00 -4.6961257299e+00 2.7113094543e+00 4.6961257299e+00 
69800 5.7204192417e+00 -7.0682443433e-05 2.7113094543e+00 -4.6961257299e+00 2.7113094543e+00 4.6961257299e+00 
69900 5.7204192423e+00 -7.2690300227e-05 2.7113094543e+00 -4.6961257299e+00 2.7113094543e+00 4.6961257299e+00 
70000 5.7204192430e+00 -7.3885783573e-05 2.7113107948e+00 -4.6961280517e+00 2.7113107948e+00 4.6961280517e+00 
70100 5.7204192439e+00 -7.4657610522e-05 2.7113121574e+00 -4.6961304117e+00 2.7113121574e+00 4.6961304117e+00 
70200 5.7204192449e+00 -7.5014106962e-05 2.7113135341e+00 -4.6961327964e+00 2.7113135341e+00 4.6961327964e+00 
70300 5.7204192462e+00 -7.4964890846e-05 2.7113149175e+00 -4.6961351924e+00 2.7113149175e+00 4.6961351924e+00 
70400 5.7204192476e+00 -7.4520808018e-05 2.7113162999e+00 -4.6961375869e+00 2.7113162999e+00 4.6961375869e+00 
70500 5.7204192491e+00 -7.3693864948e-05 2.7113176742e+00 -4.6961399672e+00 2.7113176742e+00 4.6961399672e+00 
70600 5.7204192509e+00 -7.2497158669e-05 2.7113190332e+00 -4.6961423210e+00 2.7113190332e+00 4.6961423210e+00 
70700 5.7204192527e+00 -7.0944804340e-05 2.7113203701e+00 -4.6961446367e+00 2.7113203701e+00 4.6961446367e+00 
70800 5.7204192547e+00 -6.9051860630e-05 2.7113216784e+00 -4.6961469027e+00 2.7113216784e+00 4.6961469027e+00 
70900 5.7204192569e+00 -6.7214433676e-05 2.7113216784e+00 -4.6961469027e+00 2.7113216784e+00 4.6961469027e+00 
71000 5.7204192591e+00 -6.5067056407e-05 2.7113216784e+00 -4.6961469027e+00 2.7113216784e+00 4.6961469027e+00 
71100 5.7204192614e+00 -6.2626073346e-05 2.7113216784e+00 -4.6961469027e+00 2.7113216784e+00 4.6961469027e+00 
71200 5.7204192637e+00 -5.9908463068e-05 2.7113216784e+00 -4.6961469027e+00 2.7113216784e+00 4.6961469027e+00 
71300 5.7204192661e+00 -5.6931753996e-05 2.7113216784e+00 -4.6961469027e+00 2.7113216784e+00 4.6961469027e+00 
71400 5.7204192685e+00 -5.3713940773e-05 2.7113216784e+00 -4.6961469027e+00 2.7113216784e+00 4.6961469027e+00 
71500 5.7204192708e+00 -5.0273401480e-05 2.7113216784e+00 -4.6961469027e+00 2.7113216784e+00 4.6961469027e+00 
71600 5.7204192731e+00 -4.6628816046e-05 2.7113216784e+00 -4.6961469027e+00 2.7113216784e+00 4.6961469027e+00 
71700 5.7204192754e+00 -4.2799085974e-05 2.7113216784e+00 -4.6961469027e+00 2.7113216784e+00 4.6961469027e+00 
71800 5.7204192776e+00 -3.8803255775e-05 2.7113216784e+00 -4.6961469027e+00 2.7113216784e+00 4.6961469027e+00 
71900 5.7204192798e+00 -3.4660436265e-05 2.7113216784e+00 -4.6961469027e+00 2.7113216784e+00 4.6961469027e+00 
72000 5.7204192818e+00 -3.0389729947e-05 2.7113216784e+00 -4.6961469027e+00 2.7113216784e+00 4.6961469027e+00 
72100 5.7204192838e+00 -2.6010158723e-05 2.7113216784e+00 -4.6961469027e+00 2.7113216784e+00 4.6961469027e+00 
72200 5.7204192856e+00 -2.1540594109e-05 2.7113216784e+00 -4.6961469027e+00 2.7113216784e+00 4.6961469027e+00 
72300 5.7204192874e+00 -1.6999690150e-05 2.7113216784e+00 -4.6961469027e+00 2.7113216784e+00 4.6961469027e+00 
72400 5.7204192890e+00 -1.2405819162e-05 2.7113216784e+00 -4.6961469027e+00 2.7113216784e+00 4.6961469027e+00 
72500 5.7204192905e+00 -7.7770105074e-06 2.7113216784e+00 -4.6961469027e+00 2.7113216784e+00 4.6961469027e+00 
72600 5.7204192919e+00 -3.1308925168e-06 2.7113216784e+00 -4.6961469027e+00 2.7113216784e+00 4.6961469027e+00 
72700 5.7204192932e+00 1.5153623438e-06 2.7113216784e+00 -4.6961469027e+00 2.7113216784e+00 4.6961469027e+00 
72800 5.7204192944e+00 6.1450889188e-06 2.7113216784e+00 -4.6961469027e+00 2.7113216784e+00 4.6961469027e+00 
72900 5.7204192954e+00 1.0742177348e-05 2.7113216784e+00 -4.6961469027e+00 2.7113216784e+00 4.6961469027e+00 
73000 5.7204192964e+00 1.5291117527e-05 2.7113216784e+00 -4.6961469027e+00 2.7113216784e+00 4.6961469027e+00 
73100 5.7204192972e+00 1.9777039944e-05 2.7113216784e+00 -4.6961469027e+00 2.7113216784e+00 4.6961469027e+00 
73200 5.7204192980e+00 2.4185752899e-05 2.7113216784e+00 -4.6961469027e+00 2.7113216784e+00 4.6961469027e+00 
73300 5.7204192987e+00 2.8503776040e-05 2.7113216784e+00 -4.6961469027e+00 2.7113216784e+00 4.6961469027e+00 
73400 5.7204192993e+00 3.2718370196e-05 2.7113216784e+00 -4.6961469027e+00 2.7113216784e+00 4.6961469027e+00 
73500 5.7204192998e+00 3.6817563543e-05 2.7113216784e+00 -4.6961469027e+00 2.7113216784e+00 4.6961469027e+00 
73600 5.7204193003e+00 4.0790174075e-05 2.7113216784e+00 -4.6961469027e+00 2.7113216784e+00 4.6961469027e+00 
73700 5.7204193007e+00 4.4625828413e-05 2.7113216784e+00 -4.6961469027e+00 2.7113216784e+00 4.6961469027e+00 
73800 5.7204193011e+00 4.8314977016e-05 2.7113216784e+00 -4.6961469027e+00 2.7113216784e+00 4.6961469027e+00 
73900 5.7204193014e+00 5.1848905812e-05 2.7113216784e+00 -4.6961469027e+00 2.7113216784e+00 4.6961469027e+00 
74000 5.7204193018e+00 5.5219744331e-05 2.7113216784e+00 -4.6961469027e+00 2.7113216784e+00 4.6961469027e+00 
74100 5.7204193021e+00 5.8420470395e-05 2.7113216784e+00 -4.6961469027e+00 2.7113216784e+00 4.6961469027e+00 
74200 5.7204193024e+00 6.1444911484e-05 2.7113216784e+00 -4.6961469027e+00 2.7113216784e+00 4.6961469027e+00 
74300 5.7204193027e+00 6.4287742837e-05 2.7113216784e+00 -4.6961469027e+00 2.7113216784e+00 4.6961469027e+00 
74400 5.7204193030e+00 6.6944482384e-05 2.7113216784e+00 -4.6961469027e+00 2.7113216784e+00 4.6961469027e+00 
74500 5.7204193034e+00 6.9411482684e-05 2.7113216784e+00 -4.6961469027e+00 2.7113216784e+00 4.6961469027e+00 
74600 5.7204193038e+00 7.1685919916e-05 2.7113216784e+00 -4.6961469027e+00 2.7113216784e+00 4.6961469027e+00 
74700 5.7204193041e+00 7.3371039418e-05 2.7113203565e+00 -4.6961446130e+00 2.7113203565e+00 4.6961446130e+00 
74800 5.7204193044e+00 7.4840482162e-05 2.7113190034e+00 -4.6961422694e+00 2.7113190034e+00 4.6961422694e+00 
74900 5.7204193048e+00 7.6093762847e-05 2.7113176233e+00 -4.6961398790e+00 2.7113176233e+00 4.6961398790e+00 
75000 5.7204193052e+00 7.7131178441e-05 2.7113162200e+00 -4.6961374484e+00 2.7113162200e+00 4.6961374484e+00 
75100 5.7204193056e+00 7.7953790514e-05 2.7113147976e+00 -4.6961349848e+00 2.7113147976e+00 4.6961349848e+00 
75200 5.7204193061e+00 7.8563404889e-05 2.7113133600e+00 -4.6961324948e+00 2.7113133600e+00 4.6961324948e+00 
75300 5.7204193066e+00 7.8962548996e-05 2.7113119112e+00 -4.6961299854e+00 2.7113119112e+00 4.6961299854e+00 
75400 5.7204193072e+00 7.9154446852e-05 2.7113104551e+00 -4.6961274633e+00 2.7113104551e+00 4.6961274633e+00 
75500 5.7204193078e+00 7.9142992047e-05 2.7113089954e+00 -4.6961249350e+00 2.7113089954e+00 4.6961249350e+00 
75600 5.7204193084e+00 7.8932718735e-05 2.7113075359e+00 -4.6961224071e+00 2.7113075359e+00 4.6961224071e+00 
75700 5.7204193091e+00 7.8528770863e-05 2.7113060802e+00 -4.6961198859e+00 2.7113060802e+00 4.6961198859e+00 
75800 5.7204193098e+00 7.7936869812e-05 2.7113046321e+00 -4.6961173775e+00 2.7113046321e+00 4.6961173775e+00 
75900 5.7204193106e+00 7.7163280606e-05 2.7113031948e+00 -4.6961148881e+00 2.7113031948e+00 4.6961148881e+00 
76000 5.7204193113e+00 7.6214776822e-05 2.7113017718e+00 -4.6961124234e+00 2.7113017718e+00 4.6961124234e+00 
76100 5.7204193122e+00 7.5098604429e-05 2.7113003663e+00 -4.6961099890e+00 2.7113003663e+00 4.6961099890e+00 
76200 5.7204193130e+00 7.3822444679e-05 2.7112989814e+00 -4.6961075903e+00 2.7112989814e+00 4.6961075903e+00 
76300 5.7204193138e+00 7.2394376226e-05 2.7112976200e+00 -4.6961052323e+00 2.7112976200e+00 4.6961052323e+00 
76400 5.7204193147e+00 7.0822836627e-05 2.7112962850e+00 -4.6961029199e+00 2.7112962850e+00 4.6961029199e+00 
76500 5.7204193156e+00 6.9116583427e-05 2.7112949789e+00 -4.6961006578e+00 2.7112949789e+00 4.6961006578e+00 
76600 5.7204193165e+00 6.7665265619e-05 2.7112949789e+00 -4.6961006578e+00 2.7112949789e+00 4.6961006578e+00 
76700 5.7204193174e+00 6.6097681755e-05 2.7112949789e+00 -4.6961006578e+00 2.7112949789e+00 4.6961006578e+00 
76800 5.7204193184e+00 6.4423344275e-05 2.7112949789e+00 -4.6961006578e+00 2.7112949789e+00 4.6961006578e+00 
76900 5.7204193193e+00 6.2651921570e-05 2.7112949789e+00 -4.6961006578e+00 2.7112949789e+00 4.6961006578e+00 
77000 5.7204193202e+00 6.0793193810e-05 2.7112949789e+00 -4.6961006578e+00 2.7112949789e+00 4.6961006578e+00 
77100 5.7204193210e+00 5.8857009946e-05 2.7112949789e+00 -4.6961006578e+00 2.7112949789e+00 4.6961006578e+00 
77200 5.7204193219e+00 5.6853245956e-05 2.7112949789e+00 -4.6961006578e+00 2.7112949789e+00 4.6961006578e+00 
77300 5.7204193227e+00 5.4791764491e-05 2.7112949789e+00 -4.6961006578e+00 2.7112949789e+00 4.6961006578e+00 
77400 5.7204193235e+00 5.2682375921e-05 2.7112949789e+00 -4.6961006578e+00 2.7112949789e+00 4.6961006578e+00 
77500 5.7204193242e+00 5.0534800941e-05 2.7112949789e+00 -4.6961006578e+00 2.7112949789e+00 4.6961006578e+00 
77600 5.7204193250e+00 4.8358634790e-05 2.7112949789e+00 -4.6961006578e+00 2.7112949789e+00 4.6961006578e+00 
77700 5.7204193256e+00 4.6163313134e-05 2.7112949789e+00 -4.6961006578e+00 2.7112949789e+00 4.6961006578e+00 
77800 5.7204193263e+00 4.3958079716e-05 2.7112949789e+00 -4.6961006578e+00 2.7112949789e+00 4.6961006578e+00 
77900 5.7204193269e+00 4.1751955804e-05 2.7112949789e+00 -4.6961006578e+00 2.7112949789e+00 4.6961006578e+00 
78000 5.7204193275e+00 3.9553711464e-05 2.7112949789e+00 -4.6961006578e+00 2.7112949789e+00 4.6961006578e+00 
78100 5.7204193280e+00 3.7371838776e-05 2.7112949789e+00 -4.6961006578e+00 2.7112949789e+00 4.6961006578e+00 
78200 5.7204193285e+00 3.5214526954e-05 2.7112949789e+00 -4.6961006578e+00 2.7112949789e+00 4.6961006578e+00 
78300 5.7204193290e+00 3.3089639424e-05 2.7112949789e+00 -4.6961006578e+00 2.7112949789e+00 4.6961006578e+00 
78400 5.7204193295e+00 3.1004692891e-05 2.7112949789e+00 -4.6961006578e+00 2.7112949789e+00 4.6961006578e+00 
78500 5.7204193299e+00 2.8966838400e-05 2.7112949789e+00 -4.6961006578e+00 2.7112949789e+00 4.6961006578e+00 
78600 5.7204193303e+00 2.6982844395e-05 2.7112949789e+00 -4.6961006578e+00 2.7112949789e+00 4.6961006578e+00 
78700 5.7204193306e+00 2.5059081772e-05 2.7112949789e+00 -4.6961006578e+00 2.7112949789e+00 4.6961006578e+00 
78800 5.7204193310e+00 2.3201510916e-05 2.7112949789e+00 -4.6961006578e+00 2.7112949789e+00 4.6961006578e+00 
78900 5.7204193313e+00 2.1415670748e-05 2.7112949789e+00 -4.6961006578e+00 2.7112949789e+00 4.6961006578e+00 
79000 5.7204193316e+00 1.9706669683e-05 2.7112949789e+00 -4.6961006578e+00 2.7112949789e+00 4.6961006578e+00 
79100 5.7204193319e+00 1.8079178553e-05 2.7112949789e+00 -4.6961006578e+00 2.7112949789e+00 4.6961006578e+00 
79200 5.7204193322e+00 1.6537425382e-05 2.7112949789e+00 -4.6961006578e+00 2.7112949789e+00 4.6961006578e+00 
79300 5.7204193325e+00 1.5085192071e-05 2.7112949789e+00 -4.6961006578e+00 2.7112949789e+00 4.6961006578e+00 
79400 5.7204193328e+00 1.3725812845e-05 2.7112949789e+00 -4.6961006578e+00 2.7112949789e+00 4.6961006578e+00 
79500 5.7204193331e+00 1.2462174477e-05 2.7112949789e+00 -4.6961006578e+00 2.7112949789e+00 4.6961006578e+00 
79600 5.7204193334e+00 1.1296718221e-05 2.7112949789e+00 -4.6961006578e+00 2.7112949789e+00 4.6961006578e+00 
79700 5.7204193337e+00 1.0231443398e-05 2.7112949789e+00 -4.6961006578e+00 2.7112949789e+00 4.6961006578e+00 
79800 5.7204193339e+00 9.2679125300e-06 2.7112949789e+00 -4.6961006578e+00 2.7112949789e+00 4.6961006578e+00 
79900 5.7204193342e+00 8.4072580197e-06 2.7112949789e+00 -4.6961006578e+00 2.7112949789e+00 4.6961006578e+00 
80000 5.7204193345e+00 7.6501902760e-06 2.7112949789e+00 -4.6961006578e+00 2.7112949789e+00 4.6961006578e+00 
80100 5.7204193348e+00 6.9970071759e-06 2.7112949789e+00 -4.6961006578e+00 2.7112949789e+00 4.6961006578e+00 
80200 5.7204193351e+00 6.4476048510e-06 2.7112949789e+00 -4.6961006578e+00 2.7112949789e+00 4.6961006578e+00 
80300 5.7204193355e+00 6.0014896592e-06 2.7112949789e+00 -4.6961006578e+00 2.7112949789e+00 4.6961006578e+00 
80400 5.7204193358e+00 5.6577913076e-06 2.7112949789e+00 -4.6961006578e+00 2.7112949789e+00 4.6961006578e+00 
80500 5.7204193361e+00 5.4152770130e-06 2.7112949789e+00 -4.6961006578e+00 2.7112949789e+00 4.6961006578e+00 
80600 5.7204193365e+00 5.2723666221e-06 2.7112949789e+00 -4.6961006578e+00 2.7112949789e+00 4.6961006578e+00 
80700 5.7204193368e+00 5.2271486065e-06 2.7112949789e+00 -4.6961006578e+00 2.7112949789e+00 4.6961006578e+00 
80800 5.7204193372e+00 5.2773968488e-06 2.7112949789e+00 -4.6961006578e+00 2.7112949789e+00 4.6961006578e+00 
80900 5.7204193375e+00 5.4205881353e-06 2.7112949789e+00 -4.6961006578e+00 2.7112949789e+00 4.6961006578e+00 
81000 5.7204193379e+00 5.6539202522e-06 2.7112949789e+00 -4.6961006578e+00 2.7112949789e+00 4.6961006578e+00 
81100 5.7204193383e+00 5.9743306238e-06 2.7112949789e+00 -4.6961006578e+00 2.7112949789e+00 4.6961006578e+00 
81200 5.7204193387e+00 6.3785153837e-06 2.7112949789e+00 -4.6961006578e+00 2.7112949789e+00 4.6961006578e+00 
81300 5.7204193391e+00 6.8629488020e-06 2.7112949789e+00 -4.6961006578e+00 2.7112949789e+00 4.6961006578e+00 
81400 5.7204193395e+00 7.4239029937e-06 2.7112949789e+00 -4.6961006578e+00 2.7112949789e+00 4.6961006578e+00 
81500 5.7204193398e+00 8.0574678080e-06 2.7112949789e+00 -4.6961006578e+00 2.7112949789e+00 4.6961006578e+00 
81600 5.7204193402e+00 8.7595708361e-06 2.7112949789e+00 -4.6961006578e+00 2.7112949789e+00 4.6961006578e+00 
81700 5.7204193406e+00 9.5259974374e-06 2.7112949789e+00 -4.6961006578e+00 2.7112949789e+00 4.6961006578e+00 
81800 5.7204193410e+00 1.0352410737e-05 2.7112949789e+00 -4.6961006578e+00 2.7112949789e+00 4.6961006578e+00 
81900 5.7204193414e+00 1.1234371492e-05 2.7112949789e+00 -4.6961006578e+00 2.7112949789e+00 4.6961006578e+00 
82000 5.7204193418e+00 1.2167357761e-05 2.7112949789e+00 -4.6961006578e+00 2.7112949789e+00 4.6961006578e+00 
82100 5.7204193422e+00 1.3146784326e-05 2.7112949789e+00 -4.6961006578e+00 2.7112949789e+00 4.6961006578e+00 
82200 5.7204193425e+00 1.4168021782e-05 2.7112949789e+00 -4.6961006578e+00 2.7112949789e+00 4.6961006578e+00 
82300 5.7204193429e+00 1.5226415237e-05 2.7112949789e+00 -4.6961006578e+00 2.7112949789e+00 4.6961006578e+00 
82400 5.7204193433e+00 1.6317302575e-05 2.7112949789e+00 -4.6961006578e+00 2.7112949789e+00 4.6961006578e+00 
82500 5.7204193436e+00 1.7436032189e-05 2.7112949789e+00 -4.6961006578e+00 2.7112949789e+00 4.6961006578e+00 
82600 5.7204193440e+00 1.8577980194e-05 2.7112949789e+00 -4.6961006578e+00 2.7112949789e+00 4.6961006578e+00 
82700 5.7204193443e+00 1.9738567003e-05 2.7112949789e+00 -4.6961006578e+00 2.7112949789e+00 4.6961006578e+00 
82800 5.7204193446e+00 2.0913273278e-05 2.7112949789e+00 -4.6961006578e+00 2.7112949789e+00 4.6961006578e+00 
82900 5.7204193449e+00 2.2097655182e-05 2.7112949789e+00 -4.6961006578e+00 2.7112949789e+00 4.6961006578e+00 
83000 5.7204193452e+00 2.3287358894e-05 2.7112949789e+00 -4.6961006578e+00 2.7112949789e+00 4.6961006578e+00 
83100 5.7204193455e+00 2.4478134371e-05 2.7112949789e+00 -4.6961006578e+00 2.7112949789e+00 4.6961006578e+00 
83200 5.7204193458e+00 2.5665848329e-05 2.7112949789e+00 -4.6961006578e+00 2.7112949789e+00 4.6961006578e+00 
83300 5.7204193461e+00 2.6846496382e-05 2.7112949789e+00 -4.6961006578e+00 2.7112949789e+00 4.6961006578e+00 
83400 5.7204193463e+00 2.8016214367e-05 2.7112949789e+00 -4.6961006578e+00 2.7112949789e+00 4.6961006578e+00 
83500 5.7204193466e+00 2.9171288807e-05 2.7112949789e+00 -4.6961006578e+00 2.7112949789e+00 4.6961006578e+00 
83600 5.7204193469e+00 3.0308166471e-05 2.7112949789e+00 -4.6961006578e+00 2.7112949789e+00 4.6961006578e+00 
83700 5.7204193471e+00 3.1423463113e-05 2.7112949789e+00 -4.6961006578e+00 2.7112949789e+00 4.6961006578e+00 
83800 5.7204193473e+00 3.2513971266e-05 2.7112949789e+00 -4.6961006578e+00 2.7112949789e+00 4.6961006578e+00 
83900 5.7204193476e+00 3.3576667163e-05 2.7112949789e+00 -4.6961006578e+00 2.7112949789e+00 4.6961006578e+00 
84000 5.7204193478e+00 3.4608716786e-05 2.7112949789e+00 -4.6961006578e+00 2.7112949789e+00 4.6961006578e+00 
84100 5.7204193480e+00 3.5607480979e-05 2.7112949789e+00 -4.6961006578e+00 2.7112949789e+00 4.6961006578e+00 
84200 5.7204193482e+00 3.6570519729e-05 2.7112949789e+00 -4.6961006578e+00 2.7112949789e+00 4.6961006578e+00 
84300 5.7204193484e+00 3.7495595533e-05 2.7112949789e+00 -4.6961006578e+00 2.7112949789e+00 4.6961006578e+00 
84400 5.7204193486e+00 3.8380675932e-05 2.7112949789e+00 -4.6961006578e+00 2.7112949789e+00 4.6961006578e+00 
84500 5.7204193488e+00 3.9223935191e-05 2.7112949789e+00 -4.6961006578e+00 2.7112949789e+00 4.6961006578e+00 
84600 5.7204193490e+00 4.0023755140e-05 2.7112949789e+00 -4.6961006578e+00 2.7112949789e+00 4.6961006578e+00 
84700 5.7204193492e+00 4.0778725228e-05 2.7112949789e+00 -4.6961006578e+00 2.7112949789e+00 4.6961006578e+00 
84800 5.7204193494e+00 4.1487641790e-05 2.7112949789e+00 -4.6961006578e+00 2.7112949789e+00 4.6961006578e+00 
84900 5.7204193496e+00 4.2149506551e-05 2.7112949789e+00 -4.6961006578e+00 2.7112949789e+00 4.6961006578e+00 
85000 5.7204193498e+00 4.2763524397e-05 2.7112949789e+00 -4.6961006578e+00 2.7112949789e+00 4.6961006578e+00 
85100 5.7204193499e+00 4.3329100468e-05 2.7112949789e+00 -4.6961006578e+00 2.7112949789e+00 4.6961006578e+00 
85200 5.7204193501e+00 4.3845836557e-05 2.7112949789e+00 -4.6961006578e+00 2.7112949789e+00 4.6961006578e+00 
85300 5.7204193503e+00 4.4313526894e-05 2.7112949789e+00 -4.6961006578e+00 2.7112949789e+00 4.6961006578e+00 
85400 5.7204193505e+00 4.4732153317e-05 2.7112949789e+00 -4.6961006578e+00 2.7112949789e+00 4.6961006578e+00 
85500 5.7204193507e+00 4.5101879888e-05 2.7112949789e+00 -4.6961006578e+00 2.7112949789e+00 4.6961006578e+00 
85600 5.7204193509e+00 4.5423046954e-05 2.7112949789e+00 -4.6961006578e+00 2.7112949789e+00 4.6961006578e+00 
85700 5.7204193511e+00 4.5696164776e-05 2.7112949789e+00 -4.6961006578e+00 2.7112949789e+00 4.6961006578e+00 
85800 5.7204193512e+00 4.5921906640e-05 2.7112949789e+00 -4.6961006578e+00 2.7112949789e+00 4.6961006578e+00 
85900 5.7204193514e+00 4.6101101580e-05 2.7112949789e+00 -4.6961006578e+00 2.7112949789e+00 4.6961006578e+00 
86000 5.7204193516e+00 4.6234726763e-05 2.7112949789e+00 -4.6961006578e+00 2.7112949789e+00 4.6961006578e+00 
86100 5.7204193518e+00 4.6323899472e-05 2.7112949789e+00 -4.6961006578e+00 2.7112949789e+00 4.6961006578e+00 
86200 5.7204193520e+00 4.6369868859e-05 2.7112949789e+00 -4.6961006578e+00 2.7112949789e+00 4.6961006578e+00 
86300 5.7204193522e+00 4.6374007396e-05 2.7112949789e+00 -4.6961006578e+00 2.7112949789e+00 4.6961006578e+00 
86400 5.7204193524e+00 4.6337802135e-05 2.7112949789e+00 -4.6961006578e+00 2.7112949789e+00 4.6961006578e+00 
86500 5.7204193526e+00 4.6262845811e-05 2.7112949789e+00 -4.6961006578e+00 2.7112949789e+00 4.6961006578e+00 
86600 5.7204193527e+00 4.6150827751e-05 2.7112949789e+00 -4.6961006578e+00 2.7112949789e+00 4.6961006578e+00 
86700 5.7204193529e+00 4.6003524738e-05 2.7112949789e+00 -4.6961006578e+00 2.7112949789e+00 4.6961006578e+00 
86800 5.7204193531e+00 4.5822791791e-05 2.7112949789e+00 -4.6961006578e+00 2.7112949789e+00 4.6961006578e+00 
86900 5.7204193533e+00 4.5610552925e-05 2.7112949789e+00 -4.6961006578e+00 2.7112949789e+00 4.6961006578e+00 
87000 5.7204193535e+00 4.5368791919e-05 2.7112949789e+00 -4.6961006578e+00 2.7112949789e+00 4.6961006578e+00 
87100 5.7204193537e+00 4.5099543120e-05 2.7112949789e+00 -4.6961006578e+00 2.7112949789e+00 4.6961006578e+00 
87200 5.7204193538e+00 4.4804882349e-05 2.7112949789e+00 -4.6961006578e+00 2.7112949789e+00 4.6961006578e+00 
87300 5.7204193540e+00 4.4486917892e-05 2.7112949789e+00 -4.6961006578e+00 2.7112949789e+00 4.6961006578e+00 
87400 5.7204193542e+00 4.4147781641e-05 2.7112949789e+00 -4.6961006578e+00 2.7112949789e+00 4.6961006578e+00 
87500 5.7204193544e+00 4.3789620419e-05 2.7112949789e+00 -4.6961006578e+00 2.7112949789e+00 4.6961006578e+00 
87600 5.7204193545e+00 4.3414587481e-05 2.7112949789e+00 -4.6961006578e+00 2.7112949789e+00 4.6961006578e+00 
87700 5.7204193547e+00 4.3024834243e-05 2.7112949789e+00 -4.6961006578e+00 2.7112949789e+00 4.6961006578e+00 
87800 5.7204193548e+00 4.2622502275e-05 2.7112949789e+00 -4.6961006578e+00 2.7112949789e+00 4.6961006578e+00 
87900 5.7204193550e+00 4.2209715544e-05 2.7112949789e+00 -4.6961006578e+00 2.7112949789e+00 4.6961006578e+00 
88000 5.7204193552e+00 4.1788572971e-05 2.7112949789e+00 -4.6961006578e+00 2.7112949789e+00 4.6961006578e+00 
88100 5.7204193553e+00 4.1361141281e-05 2.7112949789e+00 -4.6961006578e+00 2.7112949789e+00 4.6961006578e+00 
88200 5.7204193555e+00 4.0929448193e-05 2.7112949789e+00 -4.6961006578e+00 2.7112949789e+00 4.6961006578e+00 
88300 5.7204193556e+00 4.0495475949e-05 2.7112949789e+00 -4.6961006578e+00 2.7112949789e+00 4.6961006578e+00 
88400 5.7204193558e+00 4.0061155217e-05 2.7112949789e+00 -4.6961006578e+00 2.7112949789e+00 4.6961006578e+00 
88500 5.7204193559e+00 3.9628359350e-05 2.7112949789e+00 -4.6961006578e+00 2.7112949789e+00 4.6961006578e+00 
88600 5.7204193560e+00 3.9198899026e-05 2.7112949789e+00 -4.6961006578e+00 2.7112949789e+00 4.6961006578e+00 
88700 5.7204193562e+00 3.8774517319e-05 2.7112949789e+00 -4.6961006578e+00 2.7112949789e+00 4.6961006578e+00 
88800 5.7204193563e+00 3.8356885099e-05 2.7112949789e+00 -4.6961006578e+00 2.7112949789e+00 4.6961006578e+00 
88900 5.7204193564e+00 3.7947596902e-05 2.7112949789e+00 -4.6961006578e+00 2.7112949789e+00 4.6961006578e+00 
89000 5.7204193566e+00 3.7548167180e-05 2.7112949789e+00 -4.6961006578e+00 2.7112949789e+00 4.6961006578e+00 
89100 5.7204193567e+00 3.7160026961e-05 2.7112949789e+00 -4.6961006578e+00 2.7112949789e+00 4.6961006578e+00 
89200 5.7204193568e+00 3.6784520909e-05 2.7112949789e+00 -4.6961006578e+00 2.7112949789e+00 4.6961006578e+00 
89300 5.7204193569e+00 3.6422904844e-05 2.7112949789e+00 -4.6961006578e+00 2.7112949789e+00 4.6961006578e+00 
89400 5.7204193570e+00 3.6076343595e-05 2.7112949789e+00 -4.6961006578e+00 2.7112949789e+00 4.6961006578e+00 
89500 5.7204193571e+00 3.5745909331e-05 2.7112949789e+00 -4.6961006578e+00 2.7112949789e+00 4.6961006578e+00 
89600 5.7204193573e+00 3.5432580223e-05 2.7112949789e+00 -4.6961006578e+00 2.7112949789e+00 4.6961006578e+00 
89700 5.7204193574e+00 3.5137239552e-05 2.7112949789e+00 -4.6961006578e+00 2.7112949789e+00 4.6961006578e+00 
89800 5.7204193575e+00 3.4860675164e-05 2.7112949789e+00 -4.6961006578e+00 2.7112949789e+00 4.6961006578e+00 
89900 5.7204193576e+00 3.4603579330e-05 2.7112949789e+00 -4.6961006578e+00 2.7112949789e+00 4.6961006578e+00 
90000 5.7204193577e+00 3.4366548931e-05 2.7112949789e+00 -4.6961006578e+00 2.7112949789e+00 4.6961006578e+00 
90100 5.7204193578e+00 3.4150086026e-05 2.7112949789e+00 -4.6961006578e+00 2.7112949789e+00 4.6961006578e+00 
90200 5.7204193579e+00 3.3954598767e-05 2.7112949789e+00 -4.6961006578e+00 2.7112949789e+00 4.6961006578e+00 
90300 5.7204193580e+00 3.3780402600e-05 2.7112949789e+00 -4.6961006578e+00 2.7112949789e+00 4.6961006578e+00 
90400 5.7204193581e+00 3.3627721817e-05 2.7112949789e+00 -4.6961006578e+00 2.7112949789e+00 4.6961006578e+00 
90500 5.7204193582e+00 3.3496691398e-05 2.7112949789e+00 -4.6961006578e+00 2.7112949789e+00 4.6961006578e+00 
90600 5.7204193583e+00 3.3387359111e-05 2.7112949789e+00 -4.6961006578e+00 2.7112949789e+00 4.6961006578e+00 
90700 5.7204193584e+00 3.3299687916e-05 2.7112949789e+00 -4.6961006578e+00 2.7112949789e+00 4.6961006578e+00 
90800 5.7204193585e+00 3.3233558579e-05 2.7112949789e+00 -4.6961006578e+00 2.7112949789e+00 4.6961006578e+00 
90900 5.7204193586e+00 3.3188772560e-05 2.7112949789e+00 -4.6961006578e+00 2.7112949789e+00 4.6961006578e+00 
91000 5.7204193587e+00 3.3165055063e-05 2.7112949789e+00 -4.6961006578e+00 2.7112949789e+00 4.6961006578e+00 
91100 5.7204193588e+00 3.3162058343e-05 2.7112949789e+00 -4.6961006578e+00 2.7112949789e+00 4.6961006578e+00 
91200 5.7204193589e+00 3.3179365135e-05 2.7112949789e+00 -4.6961006578e+00 2.7112949789e+00 4.6961006578e+00 
91300 5.7204193590e+00 3.3216492293e-05 2.7112949789e+00 -4.6961006578e+00 2.7112949789e+00 4.6961006578e+00 
91400 5.7204193591e+00 3.3272894515e-05 2.7112949789e+00 -4.6961006578e+00 2.7112949789e+00 4.6961006578e+00 
91500 5.7204193592e+00 3.3347968260e-05 2.7112949789e+00 -4.6961006578e+00 2.7112949789e+00 4.6961006578e+00 
91600 5.7204193593e+00 3.3441055697e-05 2.7112949789e+00 -4.6961006578e+00 2.7112949789e+00 4.6961006578e+00 
91700 5.7204193594e+00 3.3551448812e-05 2.7112949789e+00 -4.6961006578e+00 2.7112949789e+00 4.6961006578e+00 
91800 5.7204193595e+00 3.3678393523e-05 2.7112949789e+00 -4.6961006578e+00 2.7112949789e+00 4.6961006578e+00 
91900 5.7204193596e+00 3.3821093899e-05 2.7112949789e+00 -4.6961006578e+00 2.7112949789e+00 4.6961006578e+00 
92000 5.7204193597e+00 3.3978716367e-05 2.7112949789e+00 -4.6961006578e+00 2.7112949789e+00 4.6961006578e+00 
92100 5.7204193598e+00 3.4150393972e-05 2.7112949789e+00 -4.6961006578e+00 2.7112949789e+00 4.6961006578e+00 
92200 5.7204193599e+00 3.4335230628e-05 2.7112949789e+00 -4.6961006578e+00 2.7112949789e+00 4.6961006578e+00 
92300 5.7204193599e+00 3.4532305341e-05 2.7112949789e+00 -4.6961006578e+00 2.7112949789e+00 4.6961006578e+00 
92400 5.7204193600e+00 3.4740676427e-05 2.7112949789e+00 -4.6961006578e+00 2.7112949789e+00 4.6961006578e+00 
92500 5.7204193601e+00 3.4959385651e-05 2.7112949789e+00 -4.6961006578e+00 2.7112949789e+00 4.6961006578e+00 
92600 5.7204193602e+00 3.5187462351e-05 2.7112949789e+00 -4.6961006578e+00 2.7112949789e+00 4.6961006578e+00 
92700 5.7204193603e+00 3.5423927431e-05 2.7112949789e+00 -4.6961006578e+00 2.7112949789e+00 4.6961006578e+00 
92800 5.7204193604e+00 3.5667797334e-05 2.7112949789e+00 -4.6961006578e+00 2.7112949789e+00 4.6961006578e+00 
92900 5.7204193604e+00 3.5918087875e-05 2.7112949789e+00 -4.6961006578e+00 2.7112949789e+00 4.6961006578e+00 
93000 5.7204193605e+00 3.6173817949e-05 2.7112949789e+00 -4.6961006578e+00 2.7112949789e+00 4.6961006578e+00 
93100 5.7204193606e+00 3.6434013175e-05 2.7112949789e+00 -4.6961006578e+00 2.7112949789e+00 4.6961006578e+00 
93200 5.7204193607e+00 3.6697709356e-05 2.7112949789e+00 -4.6961006578e+00 2.7112949789e+00 4.6961006578e+00 
93300 5.7204193608e+00 3.6963955818e-05 2.7112949789e+00 -4.6961006578e+00 2.7112949789e+00 4.6961006578e+00 
93400 5.7204193608e+00 3.7231818617e-05 2.7112949789e+00 -4.6961006578e+00 2.7112949789e+00 4.6961006578e+00 
93500 5.7204193609e+00 3.7500383553e-05 2.7112949789e+00 -4.6961006578e+00 2.7112949789e+00 4.6961006578e+00 
93600 5.7204193610e+00 3.7768759060e-05 2.7112949789e+00 -4.6961006578e+00 2.7112949789e+00 4.6961006578e+00 
93700 5.7204193611e+00 3.8036078900e-05 2.7112949789e+00 -4.6961006578e+00 2.7112949789e+00 4.6961006578e+00 
93800 5.7204193611e+00 3.8301504701e-05 2.7112949789e+00 -4.6961006578e+00 2.7112949789e+00 4.6961006578e+00 
93900 5.7204193612e+00 3.8564228295e-05 2.7112949789e+00 -4.6961006578e+00 2.7112949789e+00 4.6961006578e+00 
94000 5.7204193613e+00 3.8823473886e-05 2.7112949789e+00 -4.6961006578e+00 2.7112949789e+00 4.6961006578e+00 
94100 5.7204193613e+00 3.9078500050e-05 2.7112949789e+00 -4.6961006578e+00 2.7112949789e+00 4.6961006578e+00 
94200 5.7204193614e+00 3.9328601507e-05 2.7112949789e+00 -4.6961006578e+00 2.7112949789e+00 4.6961006578e+00 
94300 5.7204193615e+00 3.9573110749e-05 2.7112949789e+00 -4.6961006578e+00 2.7112949789e+00 4.6961006578e+00 
94400 5.7204193615e+00 3.9811399451e-05 2.7112949789e+00 -4.6961006578e+00 2.7112949789e+00 4.6961006578e+00 
94500 5.7204193616e+00 4.0042879688e-05 2.7112949789e+00 -4.6961006578e+00 2.7112949789e+00 4.6961006578e+00 
94600 5.7204193617e+00 4.0267004996e-05 2.7112949789e+00 -4.6961006578e+00 2.7112949789e+00 4.6961006578e+00 
94700 5.7204193617e+00 4.0483271218e-05 2.7112949789e+00 -4.6961006578e+00 2.7112949789e+00 4.6961006578e+00 
94800 5.7204193618e+00 4.0691217178e-05 2.7112949789e+00 -4.6961006578e+00 2.7112949789e+00 4.6961006578e+00 
94900 5.7204193618e+00 4.0890425166e-05 2.7112949789e+00 -4.6961006578e+00 2.7112949789e+00 4.6961006578e+00 
95000 5.7204193619e+00 4.1080521255e-05 2.7112949789e+00 -4.6961006578e+00 2.7112949789e+00 4.6961006578e+00 
95100 5.7204193620e+00 4.1261175437e-05 2.7112949789e+00 -4.6961006578e+00 2.7112949789e+00 4.6961006578e+00 
95200 5.7204193620e+00 4.1432101602e-05 2.7112949789e+00 -4.6961006578e+00 2.7112949789e+00 4.6961006578e+00 
95300 5.7204193621e+00 4.1593057324e-05 2.7112949789e+00 -4.6961006578e+00 2.7112949789e+00 4.6961006578e+00 
95400 5.7204193621e+00 4.1743843531e-05 2.7112949789e+00 -4.6961006578e+00 2.7112949789e+00 4.6961006578e+00 
95500 5.7204193622e+00 4.1884303985e-05 2.7112949789e+00 -4.6961006578e+00 2.7112949789e+00 4.6961006578e+00 
95600 5.7204193622e+00 4.2014324627e-05 2.7112949789e+00 -4.6961006578e+00 2.7112949789e+00 4.6961006578e+00 
95700 5.7204193623e+00 4.2133832793e-05 2.7112949789e+00 -4.6961006578e+00 2.7112949789e+00 4.6961006578e+00 
95800 5.7204193623e+00 4.2242796293e-05 2.7112949789e+00 -4.6961006578e+00 2.7112949789e+00 4.6961006578e+00 
95900 5.7204193624e+00 4.2341222360e-05 2.7112949789e+00 -4.6961006578e+00 2.7112949789e+00 4.6961006578e+00 
96000 5.7204193624e+00 4.2429156466e-05 2.7112949789e+00 -4.6961006578e+00 2.7112949789e+00 4.6961006578e+00 
96100 5.7204193625e+00 4.2506681077e-05 2.7112949789e+00 -4.6961006578e+00 2.7112949789e+00 4.6961006578e+00 
96200 5.7204193625e+00 4.2573914252e-05 2.7112949789e+00 -4.6961006578e+00 2.7112949789e+00 4.6961006578e+00 
96300 5.7204193626e+00 4.2631008181e-05 2.7112949789e+00 -4.6961006578e+00 2.7112949789e+00 4.6961006578e+00 
96400 5.7204193627e+00 4.2678147611e-05 2.7112949789e+00 -4.6961006578e+00 2.7112949789e+00 4.6961006578e+00 
96500 5.7204193627e+00 4.2715548258e-05 2.7112949789e+00 -4.6961006578e+00 2.7112949789e+00 4.6961006578e+00 
96600 5.7204193628e+00 4.2743455044e-05 2.7112949789e+00 -4.6961006578e+00 2.7112949789e+00 4.6961006578e+00 
96700 5.7204193628e+00 4.2762140382e-05 2.7112949789e+00 -4.6961006578e+00 2.7112949789e+00 4.6961006578e+00 
96800 5.7204193628e+00 4.2771902334e-05 2.7112949789e+00 -4.6961006578e+00 2.7112949789e+00 4.6961006578e+00 
96900 5.7204193629e+00 4.2773062770e-05 2.7112949789e+00 -4.6961006578e+00 2.7112949789e+00 4.6961006578e+00 
97000 5.7204193629e+00 4.2765965464e-05 2.7112949789e+00 -4.6961006578e+00 2.7112949789e+00 4.6961006578e+00 
97100 5.7204193630e+00 4.2751348933e-05 2.7112949789e+00 -4.6961006578e+00 2.7112949789e+00 4.6961006578e+00 
97100 5.7204193630e+00 4.2751348933e-05 2.7112949789e+00 -4.6961006578e+00 2.7112949789e+00 4.6961006578e+00 
