# step Hamiltonian StressXX CellTensor1 CellTensor2 CellTensor3 CellTensor4 
0 5.0274842359e+00 -1.9194623632e-01 1.6087831444e+00 -2.7864941444e+00 1.6087831444e+00 2.7864941444e+00 
100 5.0225313334e+00 -1.9373505879e-01 1.6087831444e+00 -2.7864941444e+00 1.6087831444e+00 2.7864941444e+00 
200 5.0165269097e+00 -1.8962411135e-01 1.6148080538e+00 -2.7969295937e+00 1.6148080538e+00 2.7969295937e+00 
300 5.0109128822e+00 -1.8571054315e-01 1.6206830123e+00 -2.8071053203e+00 1.6206830123e+00 2.8071053203e+00 
400 5.0056355756e+00 -1.8197413014e-01 1.6264157675e+00 -2.8170347435e+00 1.6264157675e+00 2.8170347435e+00 
500 5.0006469589e+00 -1.7839714518e-01 1.6320132936e+00 -2.8267299431e+00 1.6320132936e+00 2.8267299431e+00 
600 4.9959044087e+00 -1.7496398569e-01 1.6374818883e+00 -2.8362018271e+00 1.6374818883e+00 2.8362018271e+00 
700 4.9913704616e+00 -1.7166085170e-01 1.6428272548e+00 -2.8454602734e+00 1.6428272548e+00 2.8454602734e+00 
800 4.9870125538e+00 -1.6847546910e-01 1.6480545710e+00 -2.8545142506e+00 1.6480545710e+00 2.8545142506e+00 
900 4.9828027468e+00 -1.6539685303e-01 1.6531685487e+00 -2.8633719198e+00 1.6531685487e+00 2.8633719198e+00 
1000 4.9787174404e+00 -1.6241510726e-01 1.6581734835e+00 -2.8720407211e+00 1.6581734835e+00 2.8720407211e+00 
1100 4.9747370732e+00 -1.5952125537e-01 1.6630732971e+00 -2.8805274473e+00 1.6630732971e+00 2.8805274473e+00 
1200 4.9708458138e+00 -1.5670710019e-01 1.6678715735e+00 -2.8888383058e+00 1.6678715735e+00 2.8888383058e+00 
1300 4.9670312438e+00 -1.5396510796e-01 1.6725715894e+00 -2.8969789721e+00 1.6725715894e+00 2.8969789721e+00 
1400 4.9632840378e+00 -1.5128831423e-01 1.6771763408e+00 -2.9049546355e+00 1.6771763408e+00 2.9049546355e+00 
1500 4.9595976416e+00 -1.4867024845e-01 1.6816885658e+00 -2.9127700384e+00 1.6816885658e+00 2.9127700384e+00 
1600 4.9559679519e+00 -1.4610487474e-01 1.6861107641e+00 -2.9204295106e+00 1.6861107641e+00 2.9204295106e+00 
1700 4.9523930030e+00 -1.4358654622e-01 1.6904452150e+00 -2.9279369997e+00 1.6904452150e+00 2.9279369997e+00 
1800 4.9488726601e+00 -1.4110997078e-01 1.6946939927e+00 -2.9352960986e+00 1.6946939927e+00 2.9352960986e+00 
1900 4.9454083252e+00 -1.3867018625e-01 1.6988589808e+00 -2.9425100696e+00 1.6988589808e+00 2.9425100696e+00 
2000 4.9420026560e+00 -1.3626254320e-01 1.7029418852e+00 -2.9495818674e+00 1.7029418852e+00 2.9495818674e+00 
2100 4.9386593012e+00 -1.3388269364e-01 1.7069442464e+00 -2.9565141605e+00 1.7069442464e+00 2.9565141605e+00 
2200 4.9353826533e+00 -1.3152658435e-01 1.7108674514e+00 -2.9633093508e+00 1.7108674514e+00 2.9633093508e+00 
2300 4.9321776207e+00 -1.2919045351e-01 1.7147127441e+00 -2.9699695932e+00 1.7147127441e+00 2.9699695932e+00 
2400 4.9290494201e+00 -1.2687082968e-01 1.7184812370e+00 -2.9764968143e+00 1.7184812370e+00 2.9764968143e+00 
2500 4.9260033903e+00 -1.2456453209e-01 1.7221739207e+00 -2.9828927300e+00 1.7221739207e+00 2.9828927300e+00 
2600 4.9230448259e+00 -1.2226867170e-01 1.7257916748e+00 -2.9891588641e+00 1.7257916748e+00 2.9891588641e+00 
2700 4.9201788341e+00 -1.1998065221e-01 1.7293352779e+00 -2.9952965647e+00 1.7293352779e+00 2.9952965647e+00 
2800 4.9174102107e+00 -1.1769817071e-01 1.7328054172e+00 -3.0013070222e+00 1.7328054172e+00 3.0013070222e+00 
2900 4.9147433375e+00 -1.1541921755e-01 1.7362026983e+00 -3.0071912857e+00 1.7362026983e+00 3.0071912857e+00 
3000 4.9121820986e+00 -1.1314207510e-01 1.7395276550e+00 -3.0129502795e+00 1.7395276550e+00 3.0129502795e+00 
3100 4.9097298150e+00 -1.1086531529e-01 1.7427807582e+00 -3.0185848197e+00 1.7427807582e+00 3.0185848197e+00 
3200 4.9073891972e+00 -1.0858779572e-01 1.7459624257e+00 -3.0240956294e+00 1.7459624257e+00 3.0240956294e+00 
3300 4.9051623127e+00 -1.0630865441e-01 1.7490730302e+00 -3.0294833545e+00 1.7490730302e+00 3.0294833545e+00 
3400 4.9030505686e+00 -1.0402730302e-01 1.7521129086e+00 -3.0347485783e+00 1.7521129086e+00 3.0347485783e+00 
3500 4.9010547076e+00 -1.0174341869e-01 1.7550823699e+00 -3.0398918361e+00 1.7550823699e+00 3.0398918361e+00 
3600 4.8991748151e+00 -9.9456934467e-02 1.7579817033e+00 -3.0449136288e+00 1.7579817033e+00 3.0449136288e+00 
3700 4.8974103364e+00 -9.7168028475e-02 1.7608111856e+00 -3.0498144360e+00 1.7608111856e+00 3.0498144360e+00 
3800 4.8957601035e+00 -9.4877111897e-02 1.7635710887e+00 -3.0545947285e+00 1.7635710887e+00 3.0545947285e+00 
3900 4.8942223683e+00 -9.2584815873e-02 1.7662616861e+00 -3.0592549798e+00 1.7662616861e+00 3.0592549798e+00 
4000 4.8927948423e+00 -9.0291977450e-02 1.7688832591e+00 -3.0637956774e+00 1.7688832591e+00 3.0637956774e+00 
4100 4.8914747417e+00 -8.7999624720e-02 1.7714361031e+00 -3.0682173329e+00 1.7714361031e+00 3.0682173329e+00 
4200 4.8902588344e+00 -8.5708961262e-02 1.7739205325e+00 -3.0725204909e+00 1.7739205325e+00 3.0725204909e+00 
4300 4.8891434917e+00 -8.3421350036e-02 1.7763368862e+00 -3.0767057383e+00 1.7763368862e+00 3.0767057383e+00 
4400 4.8881247399e+00 -8.1138296855e-02 1.7786855315e+00 -3.0807737113e+00 1.7786855315e+00 3.0807737113e+00 
4500 4.8871983130e+00 -7.8861433563e-02 1.7809668683e+00 -3.0847251025e+00 1.7809668683e+00 3.0847251025e+00 
4600 4.8863597057e+00 -7.6592501050e-02 1.7831813327e+00 -3.0885606673e+00 1.7831813327e+00 3.0885606673e+00 
4700 4.8856042249e+00 -7.4333332233e-02 1.7853293996e+00 -3.0922812283e+00 1.7853293996e+00 3.0922812283e+00 
4800 4.8849270398e+00 -7.2085835106e-02 1.7874115857e+00 -3.0958876805e+00 1.7874115857e+00 3.0958876805e+00 
4900 4.8843232305e+00 -6.9851975996e-02 1.7894284512e+00 -3.0993809939e+00 1.7894284512e+00 3.0993809939e+00 
5000 4.8837878329e+00 -6.7633763115e-02 1.7913806013e+00 -3.1027622172e+00 1.7913806013e+00 3.1027622172e+00 
5100 4.8833158824e+00 -6.5433230521e-02 1.7932686878e+00 -3.1060324789e+00 1.7932686878e+00 3.1060324789e+00 
5200 4.8829024527e+00 -6.3252422584e-02 1.7950934092e+00 -3.1091929890e+00 1.7950934092e+00 3.1091929890e+00 
5300 4.8825426929e+00 -6.1093379052e-02 1.7968555113e+00 -3.1122450394e+00 1.7968555113e+00 3.1122450394e+00 
5400 4.8822318595e+00 -5.8958120795e-02 1.7985557872e+00 -3.1151900037e+00 1.7985557872e+00 3.1151900037e+00 
5500 4.8819653460e+00 -5.6848636302e-02 1.8001950766e+00 -3.1180293362e+00 1.8001950766e+00 3.1180293362e+00 
5600 4.8817387084e+00 -5.4766869014e-02 1.8017742649e+00 -3.1207645705e+00 1.8017742649e+00 3.1207645705e+00 
5700 4.8815476868e+00 -5.2714705537e-02 1.8032942822e+00 -3.1233973178e+00 1.8032942822e+00 3.1233973178e+00 
5800 4.8813882237e+00 -5.0693964793e-02 1.8047561019e+00 -3.1259292637e+00 1.8047561019e+00 3.1259292637e+00 
5900 4.8812564793e+00 -4.8706388155e-02 1.8061607386e+00 -3.1283621659e+00 1.8061607386e+00 3.1283621659e+00 
6000 4.8811488423e+00 -4.6753630591e-02 1.8075092466e+00 -3.1306978503e+00 1.8075092466e+00 3.1306978503e+00 
6100 4.8810619385e+00 -4.4837252843e-02 1.8088027172e+00 -3.1329382071e+00 1.8088027172e+00 3.1329382071e+00 
6200 4.8809926360e+00 -4.2958714653e-02 1.8100422767e+00 -3.1350851870e+00 1.8100422767e+00 3.1350851870e+00 
6300 4.8809380480e+00 -4.1119369034e-02 1.8112290834e+00 -3.1371407965e+00 1.8112290834e+00 3.1371407965e+00 
6400 4.8808955321e+00 -3.9320457589e-02 1.8123643252e+00 -3.1391070931e+00 1.8123643252e+00 3.1391070931e+00 
6500 4.8808626885e+00 -3.7563106839e-02 1.8134492168e+00 -3.1409861805e+00 1.8134492168e+00 3.1409861805e+00 
6600 4.8808373551e+00 -3.5848325556e-02 1.8144849966e+00 -3.1427802037e+00 1.8144849966e+00 3.1427802037e+00 
6700 4.8808176014e+00 -3.4177003052e-02 1.8154729237e+00 -3.1444913436e+00 1.8154729237e+00 3.1444913436e+00 
6800 4.8808017203e+00 -3.2549908382e-02 1.8164142749e+00 -3.1461218118e+00 1.8164142749e+00 3.1461218118e+00 
6900 4.8807882190e+00 -3.0967690414e-02 1.8173103421e+00 -3.1476738456e+00 1.8173103421e+00 3.1476738456e+00 
7000 4.8807758081e+00 -2.9430878705e-02 1.8181624285e+00 -3.1491497026e+00 1.8181624285e+00 3.1491497026e+00 
7100 4.8807633906e+00 -2.7939885129e-02 1.8189718463e+00 -3.1505516554e+00 1.8189718463e+00 3.1505516554e+00 
7200 4.8807500498e+00 -2.6495006183e-02 1.8197399135e+00 -3.1518819867e+00 1.8197399135e+00 3.1518819867e+00 
7300 4.8807350362e+00 -2.5096425912e-02 1.8204679508e+00 -3.1531429843e+00 1.8204679508e+00 3.1531429843e+00 
7400 4.8807177550e+00 -2.3744219381e-02 1.8211572793e+00 -3.1543369363e+00 1.8211572793e+00 3.1543369363e+00 
7500 4.8806977528e+00 -2.2438356619e-02 1.8218092174e+00 -3.1554661262e+00 1.8218092174e+00 3.1554661262e+00 
7600 4.8806747047e+00 -2.1178706979e-02 1.8224250783e+00 -3.1565328285e+00 1.8224250783e+00 3.1565328285e+00 
7700 4.8806484012e+00 -1.9965043832e-02 1.8230061675e+00 -3.1575393046e+00 1.8230061675e+00 3.1575393046e+00 
7800 4.8806187353e+00 -1.8797049543e-02 1.8235537807e+00 -3.1584877984e+00 1.8235537807e+00 3.1584877984e+00 
7900 4.8805856906e+00 -1.7674320657e-02 1.8240692010e+00 -3.1593805327e+00 1.8240692010e+00 3.1593805327e+00 
8000 4.8805493293e+00 -1.6596373244e-02 1.8245536975e+00 -3.1602197052e+00 1.8245536975e+00 3.1602197052e+00 
8100 4.8805097808e+00 -1.5562648342e-02 1.8250085228e+00 -3.1610074857e+00 1.8250085228e+00 3.1610074857e+00 
8200 4.8804672312e+00 -1.4572517456e-02 1.8254349113e+00 -3.1617460123e+00 1.8254349113e+00 3.1617460123e+00 
8300 4.8804219127e+00 -1.3625288054e-02 1.8258340778e+00 -3.1624373889e+00 1.8258340778e+00 3.1624373889e+00 
8400 4.8803740952e+00 -1.2720209040e-02 1.8262072155e+00 -3.1630836824e+00 1.8262072155e+00 3.1630836824e+00 
8500 4.8803240765e+00 -1.1856476141e-02 1.8265554951e+00 -3.1636869203e+00 1.8265554951e+00 3.1636869203e+00 
8600 4.8802721752e+00 -1.1033237200e-02 1.8268800630e+00 -3.1642490885e+00 1.8268800630e+00 3.1642490885e+00 
8700 4.8802187233e+00 -1.0249597334e-02 1.8271820407e+00 -3.1647721293e+00 1.8271820407e+00 3.1647721293e+00 
8800 4.8801640592e+00 -9.5046239411e-03 1.8274625235e+00 -3.1652579396e+00 1.8274625235e+00 3.1652579396e+00 
8900 4.8801085225e+00 -8.7973515260e-03 1.8277225794e+00 -3.1657083696e+00 1.8277225794e+00 3.1657083696e+00 
9000 4.8800524489e+00 -8.1267863462e-03 1.8279632490e+00 -3.1661252216e+00 1.8279632490e+00 3.1661252216e+00 
9100 4.8799961650e+00 -7.4919108504e-03 1.8281855442e+00 -3.1665102483e+00 1.8281855442e+00 3.1665102483e+00 
9200 4.8799399855e+00 -6.8916879093e-03 1.8283904482e+00 -3.1668651524e+00 1.8283904482e+00 3.1668651524e+00 
9300 4.8798842094e+00 -6.3250648299e-03 1.8285789147e+00 -3.1671915859e+00 1.8285789147e+00 3.1671915859e+00 
9400 4.8798291172e+00 -5.7909771495e-03 1.8287518677e+00 -3.1674911493e+00 1.8287518677e+00 3.1674911493e+00 
9500 4.8797749696e+00 -5.2883522079e-03 1.8289102014e+00 -3.1677653913e+00 1.8289102014e+00 3.1677653913e+00 
9600 4.8797220050e+00 -4.8161124995e-03 1.8290547799e+00 -3.1680158086e+00 1.8290547799e+00 3.1680158086e+00 
9700 4.8796704390e+00 -4.3731788051e-03 1.8291864373e+00 -3.1682438459e+00 1.8291864373e+00 3.1682438459e+00 
9800 4.8796204632e+00 -3.9584731095e-03 1.8293059775e+00 -3.1684508956e+00 1.8293059775e+00 3.1684508956e+00 
9900 4.8795722452e+00 -3.5709213075e-03 1.8294141746e+00 -3.1686382984e+00 1.8294141746e+00 3.1686382984e+00 
10000 4.8795259286e+00 -3.2094557045e-03 1.8295117728e+00 -3.1688073436e+00 1.8295117728e+00 3.1688073436e+00 
10100 4.8794816330e+00 -2.8730173190e-03 1.8295994870e+00 -3.1689592690e+00 1.8295994870e+00 3.1689592690e+00 
10200 4.8794394546e+00 -2.5605579932e-03 1.8296780025e+00 -3.1690952618e+00 1.8296780025e+00 3.1690952618e+00 
10300 4.8793994673e+00 -2.2710423188e-03 1.8297479758e+00 -3.1692164592e+00 1.8297479758e+00 3.1692164592e+00 
10400 4.8793617234e+00 -2.0034493876e-03 1.8298100351e+00 -3.1693239489e+00 1.8298100351e+00 3.1693239489e+00 
10500 4.8793262546e+00 -1.7567743731e-03 1.8298647801e+00 -3.1694187701e+00 1.8298647801e+00 3.1694187701e+00 
10600 4.8792930738e+00 -1.5300299528e-03 1.8299127831e+00 -3.1695019138e+00 1.8299127831e+00 3.1695019138e+00 
10700 4.8792621758e+00 -1.3222475782e-03 1.8299545894e+00 -3.1695743244e+00 1.8299545894e+00 3.1695743244e+00 
10800 4.8792335391e+00 -1.1324786029e-03 1.8299907174e+00 -3.1696368999e+00 1.8299907174e+00 3.1696368999e+00 
10900 4.8792071276e+00 -9.5979527419e-04 1.8300216597e+00 -3.1696904935e+00 1.8300216597e+00 3.1696904935e+00 
11000 4.8791828916e+00 -8.0329159836e-04 1.8300478833e+00 -3.1697359142e+00 1.8300478833e+00 3.1697359142e+00 
11100 4.8791607695e+00 -6.6208408714e-04 1.8300698307e+00 -3.1697739281e+00 1.8300698307e+00 3.1697739281e+00 
11200 4.8791406898e+00 -5.3531239228e-04 1.8300879197e+00 -3.1698052593e+00 1.8300879197e+00 3.1698052593e+00 
11300 4.8791225717e+00 -4.2213983627e-04 1.8301025451e+00 -3.1698305911e+00 1.8301025451e+00 3.1698305911e+00 
11400 4.8791063274e+00 -3.2175384618e-04 1.8301140783e+00 -3.1698505673e+00 1.8301140783e+00 3.1698505673e+00 
11500 4.8790918631e+00 -2.3336629746e-04 1.8301228689e+00 -3.1698657930e+00 1.8301228689e+00 3.1698657930e+00 
11600 4.8790790800e+00 -1.5621377414e-04 1.8301292446e+00 -3.1698768360e+00 1.8301292446e+00 3.1698768360e+00 
11700 4.8790678764e+00 -8.9557751727e-05 1.8301335124e+00 -3.1698842281e+00 1.8301335124e+00 3.1698842281e+00 
11800 4.8790581481e+00 -3.2684708716e-05 1.8301359591e+00 -3.1698884660e+00 1.8301359591e+00 3.1698884660e+00 
11900 4.8790497898e+00 1.4649598297e-05 1.8301359591e+00 -3.1698884660e+00 1.8301359591e+00 3.1698884660e+00 
12000 4.8790426963e+00 5.4199260229e-05 1.8301359591e+00 -3.1698884660e+00 1.8301359591e+00 3.1698884660e+00 
12100 4.8790367633e+00 8.6492086218e-05 1.8301359591e+00 -3.1698884660e+00 1.8301359591e+00 3.1698884660e+00 
12200 4.8790318876e+00 1.1086459892e-04 1.8301335962e+00 -3.1698843732e+00 1.8301335962e+00 3.1698843732e+00 
12300 4.8790279689e+00 1.2864704979e-04 1.8301305673e+00 -3.1698791270e+00 1.8301305673e+00 3.1698791270e+00 
12400 4.8790249098e+00 1.4040394430e-04 1.8301270526e+00 -3.1698730394e+00 1.8301270526e+00 3.1698730394e+00 
12500 4.8790226165e+00 1.4667557884e-04 1.8301232167e+00 -3.1698663954e+00 1.8301232167e+00 3.1698663954e+00 
12600 4.8790209991e+00 1.4797832720e-04 1.8301192094e+00 -3.1698594546e+00 1.8301192094e+00 3.1698594546e+00 
12700 4.8790199725e+00 1.4480495953e-04 1.8301151666e+00 -3.1698524522e+00 1.8301151666e+00 3.1698524522e+00 
12800 4.8790194560e+00 1.3762499081e-04 1.8301112104e+00 -3.1698455999e+00 1.8301112104e+00 3.1698455999e+00 
12900 4.8790193742e+00 1.2688505609e-04 1.8301074504e+00 -3.1698390874e+00 1.8301074504e+00 3.1698390874e+00 
13000 4.8790196566e+00 1.1300930997e-04 1.8301039838e+00 -3.1698330831e+00 1.8301039838e+00 3.1698330831e+00 
13100 4.8790202381e+00 9.6399847959e-05 1.8301008963e+00 -3.1698277353e+00 1.8301008963e+00 3.1698277353e+00 
13200 4.8790210590e+00 7.7437147608e-05 1.8300982625e+00 -3.1698231736e+00 1.8300982625e+00 3.1698231736e+00 
13300 4.8790220646e+00 5.6480527341e-05 1.8300961469e+00 -3.1698195092e+00 1.8300961469e+00 3.1698195092e+00 
13400 4.8790232057e+00 3.4631415223e-05 1.8300961469e+00 -3.1698195092e+00 1.8300961469e+00 3.1698195092e+00 
13500 4.8790244378e+00 1.1144588549e-05 1.8300961469e+00 -3.1698195092e+00 1.8300961469e+00 3.1698195092e+00 
13600 4.8790257220e+00 -1.3700954843e-05 1.8300961469e+00 -3.1698195092e+00 1.8300961469e+00 3.1698195092e+00 
13700 4.8790270236e+00 -3.9641405357e-05 1.8300961469e+00 -3.1698195092e+00 1.8300961469e+00 3.1698195092e+00 
13800 4.8790283131e+00 -6.6427860047e-05 1.8300961469e+00 -3.1698195092e+00 1.8300961469e+00 3.1698195092e+00 
13900 4.8790295650e+00 -9.3826027429e-05 1.8300961469e+00 -3.1698195092e+00 1.8300961469e+00 3.1698195092e+00 
14000 4.8790307576e+00 -1.2035252613e-04 1.8300987103e+00 -3.1698239491e+00 1.8300987103e+00 3.1698239491e+00 
14100 4.8790318734e+00 -1.4670054306e-04 1.8301019985e+00 -3.1698296444e+00 1.8301019985e+00 3.1698296444e+00 
14200 4.8790328986e+00 -1.7267843982e-04 1.8301060064e+00 -3.1698365864e+00 1.8301060064e+00 3.1698365864e+00 
14300 4.8790338224e+00 -1.9811052508e-04 1.8301107242e+00 -3.1698447577e+00 1.8301107242e+00 3.1698447577e+00 
14400 4.8790346371e+00 -2.2283649970e-04 1.8301161367e+00 -3.1698541325e+00 1.8301161367e+00 3.1698541325e+00 
14500 4.8790353380e+00 -2.4671089995e-04 1.8301222247e+00 -3.1698646773e+00 1.8301222247e+00 3.1698646773e+00 
14600 4.8790359224e+00 -2.6960254002e-04 1.8301289650e+00 -3.1698763518e+00 1.8301289650e+00 3.1698763518e+00 
14700 4.8790363903e+00 -2.9139395452e-04 1.8301363307e+00 -3.1698891096e+00 1.8301363307e+00 3.1698891096e+00 
14800 4.8790367431e+00 -3.1198084195e-04 1.8301442917e+00 -3.1699028984e+00 1.8301442917e+00 3.1699028984e+00 
14900 4.8790369842e+00 -3.3127151001e-04 1.8301528151e+00 -3.1699176614e+00 1.8301528151e+00 3.1699176614e+00 
15000 4.8790371184e+00 -3.4918632349e-04 1.8301618655e+00 -3.1699333371e+00 1.8301618655e+00 3.1699333371e+00 
15100 4.8790371516e+00 -3.6565715561e-04 1.8301714053e+00 -3.1699498605e+00 1.8301714053e+00 3.1699498605e+00 
15200 4.8790370906e+00 -3.8062684362e-04 1.8301813950e+00 -3.1699671632e+00 1.8301813950e+00 3.1699671632e+00 
15300 4.8790369431e+00 -3.9404864933e-04 1.8301917936e+00 -3.1699851741e+00 1.8301917936e+00 3.1699851741e+00 
15400 4.8790367174e+00 -4.0588572537e-04 1.8302025588e+00 -3.1700038200e+00 1.8302025588e+00 3.1700038200e+00 
15500 4.8790364221e+00 -4.1611058789e-04 1.8302136474e+00 -3.1700230260e+00 1.8302136474e+00 3.1700230260e+00 
15600 4.8790360660e+00 -4.2470459630e-04 1.8302250152e+00 -3.1700427156e+00 1.8302250152e+00 3.1700427156e+00 
15700 4.8790356581e+00 -4.3165744092e-04 1.8302366177e+00 -3.1700628118e+00 1.8302366177e+00 3.1700628118e+00 
15800 4.8790352074e+00 -4.3696663888e-04 1.8302484102e+00 -3.1700832369e+00 1.8302484102e+00 3.1700832369e+00 
15900 4.8790347226e+00 -4.4063703913e-04 1.8302603475e+00 -3.1701039130e+00 1.8302603475e+00 3.1701039130e+00 
16000 4.8790342124e+00 -4.4268033705e-04 1.8302723851e+00 -3.1701247627e+00 1.8302723851e+00 3.1701247627e+00 
16100 4.8790336848e+00 -4.4311459913e-04 1.8302844784e+00 -3.1701457089e+00 1.8302844784e+00 3.1701457089e+00 
16200 4.8790331479e+00 -4.4196379842e-04 1.8302965835e+00 -3.1701666755e+00 1.8302965835e+00 3.1701666755e+00 
16300 4.8790326088e+00 -4.3925736101e-04 1.8303086571e+00 -3.1701875875e+00 1.8303086571e+00 3.1701875875e+00 
16400 4.8790320745e+00 -4.3502972421e-04 1.8303206566e+00 -3.1702083714e+00 1.8303206566e+00 3.1702083714e+00 
16500 4.8790315513e+00 -4.2931990669e-04 1.8303325406e+00 -3.1702289551e+00 1.8303325406e+00 3.1702289551e+00 
16600 4.8790310449e+00 -4.2217109107e-04 1.8303442685e+00 -3.1702492684e+00 1.8303442685e+00 3.1702492684e+00 
16700 4.8790305606e+00 -4.1363021919e-04 1.8303558011e+00 -3.1702692434e+00 1.8303558011e+00 3.1702692434e+00 
16800 4.8790301028e+00 -4.0374760055e-04 1.8303671003e+00 -3.1702888142e+00 1.8303671003e+00 3.1702888142e+00 
16900 4.8790296755e+00 -3.9257653396e-04 1.8303781294e+00 -3.1703079173e+00 1.8303781294e+00 3.1703079173e+00 
17000 4.8790292822e+00 -3.8017294287e-04 1.8303888534e+00 -3.1703264916e+00 1.8303888534e+00 3.1703264916e+00 
17100 4.8790289257e+00 -3.6659502438e-04 1.8303992384e+00 -3.1703444791e+00 1.8303992384e+00 3.1703444791e+00 
17200 4.8790286081e+00 -3.5190291229e-04 1.8304092525e+00 -3.1703618240e+00 1.8304092525e+00 3.1703618240e+00 
17300 4.8790283314e+00 -3.3615835411e-04 1.8304188652e+00 -3.1703784736e+00 1.8304188652e+00 3.1703784736e+00 
17400 4.8790280966e+00 -3.1942440227e-04 1.8304280477e+00 -3.1703943783e+00 1.8304280477e+00 3.1703943783e+00 
17500 4.8790279046e+00 -3.0176511953e-04 1.8304367732e+00 -3.1704094912e+00 1.8304367732e+00 3.1704094912e+00 
17600 4.8790277556e+00 -2.8324529857e-04 1.8304450161e+00 -3.1704237684e+00 1.8304450161e+00 3.1704237684e+00 
17700 4.8790276496e+00 -2.6393019586e-04 1.8304527532e+00 -3.1704371694e+00 1.8304527532e+00 3.1704371694e+00 
17800 4.8790275860e+00 -2.4388527956e-04 1.8304599626e+00 -3.1704496565e+00 1.8304599626e+00 3.1704496565e+00 
17900 4.8790275641e+00 -2.2317599163e-04 1.8304666245e+00 -3.1704611952e+00 1.8304666245e+00 3.1704611952e+00 
18000 4.8790275827e+00 -2.0186752376e-04 1.8304727207e+00 -3.1704717540e+00 1.8304727207e+00 3.1704717540e+00 
18100 4.8790276405e+00 -1.8002460718e-04 1.8304782347e+00 -3.1704813047e+00 1.8304782347e+00 3.1704813047e+00 
18200 4.8790277358e+00 -1.5771131611e-04 1.8304831522e+00 -3.1704898219e+00 1.8304831522e+00 3.1704898219e+00 
18300 4.8790278668e+00 -1.3499088455e-04 1.8304874601e+00 -3.1704972835e+00 1.8304874601e+00 3.1704972835e+00 
18400 4.8790280315e+00 -1.1192553642e-04 1.8304911474e+00 -3.1705036701e+00 1.8304911474e+00 3.1705036701e+00 
18500 4.8790282278e+00 -8.8576328532e-05 1.8304942046e+00 -3.1705089654e+00 1.8304942046e+00 3.1705089654e+00 
18600 4.8790284536e+00 -6.5003006277e-05 1.8304966241e+00 -3.1705131560e+00 1.8304966241e+00 3.1705131560e+00 
18700 4.8790287064e+00 -4.2125991573e-05 1.8304966241e+00 -3.1705131560e+00 1.8304966241e+00 3.1705131560e+00 
18800 4.8790289839e+00 -1.8830606366e-05 1.8304966241e+00 -3.1705131560e+00 1.8304966241e+00 3.1705131560e+00 
18900 4.8790292838e+00 4.8316081473e-06 1.8304966241e+00 -3.1705131560e+00 1.8304966241e+00 3.1705131560e+00 
19000 4.8790296037e+00 2.8810135235e-05 1.8304966241e+00 -3.1705131560e+00 1.8304966241e+00 3.1705131560e+00 
19100 4.8790299414e+00 5.3055584416e-05 1.8304966241e+00 -3.1705131560e+00 1.8304966241e+00 3.1705131560e+00 
19200 4.8790302947e+00 7.7519783945e-05 1.8304966241e+00 -3.1705131560e+00 1.8304966241e+00 3.1705131560e+00 
19300 4.8790306611e+00 1.0112824704e-04 1.8304945066e+00 -3.1705094885e+00 1.8304945066e+00 3.1705094885e+00 
19400 4.8790310385e+00 1.2454351928e-04 1.8304917443e+00 -3.1705047040e+00 1.8304917443e+00 3.1705047040e+00 
19500 4.8790314249e+00 1.4772221641e-04 1.8304883424e+00 -3.1704988117e+00 1.8304883424e+00 3.1704988117e+00 
19600 4.8790318182e+00 1.7062308357e-04 1.8304843074e+00 -3.1704918228e+00 1.8304843074e+00 3.1704918228e+00 
19700 4.8790322166e+00 1.9320702286e-04 1.8304796468e+00 -3.1704837504e+00 1.8304796468e+00 3.1704837504e+00 
19800 4.8790326183e+00 2.1543711269e-04 1.8304743693e+00 -3.1704746095e+00 1.8304743693e+00 3.1704746095e+00 
19900 4.8790330217e+00 2.3727861913e-04 1.8304684845e+00 -3.1704644169e+00 1.8304684845e+00 3.1704644169e+00 
20000 4.8790334251e+00 2.5869899997e-04 1.8304620032e+00 -3.1704531908e+00 1.8304620032e+00 3.1704531908e+00 
20100 4.8790338273e+00 2.7966790165e-04 1.8304549367e+00 -3.1704409513e+00 1.8304549367e+00 3.1704409513e+00 
20200 4.8790342268e+00 3.0015714960e-04 1.8304472974e+00 -3.1704277197e+00 1.8304472974e+00 3.1704277197e+00 
20300 4.8790346225e+00 3.2014073235e-04 1.8304390984e+00 -3.1704135186e+00 1.8304390984e+00 3.1704135186e+00 
20400 4.8790350134e+00 3.3959477988e-04 1.8304303535e+00 -3.1703983719e+00 1.8304303535e+00 3.1703983719e+00 
20500 4.8790353986e+00 3.5849753644e-04 1.8304210771e+00 -3.1703823048e+00 1.8304210771e+00 3.1703823048e+00 
20600 4.8790357771e+00 3.7682932848e-04 1.8304112844e+00 -3.1703653433e+00 1.8304112844e+00 3.1703653433e+00 
20700 4.8790361483e+00 3.9457252782e-04 1.8304009908e+00 -3.1703475143e+00 1.8304009908e+00 3.1703475143e+00 
20800 4.8790365116e+00 4.1171151064e-04 1.8303902125e+00 -3.1703288457e+00 1.8303902125e+00 3.1703288457e+00 
20900 4.8790368665e+00 4.2823261244e-04 1.8303789660e+00 -3.1703093662e+00 1.8303789660e+00 3.1703093662e+00 
21000 4.8790372126e+00 4.4412407960e-04 1.8303672681e+00 -3.1702891048e+00 1.8303672681e+00 3.1702891048e+00 
21100 4.8790375495e+00 4.5937601764e-04 1.8303551360e+00 -3.1702680914e+00 1.8303551360e+00 3.1702680914e+00 
21200 4.8790378770e+00 4.7398033661e-04 1.8303425872e+00 -3.1702463562e+00 1.8303425872e+00 3.1702463562e+00 
21300 4.8790381951e+00 4.8793069402e-04 1.8303296393e+00 -3.1702239299e+00 1.8303296393e+00 3.1702239299e+00 
21400 4.8790385035e+00 5.0122243543e-04 1.8303163103e+00 -3.1702008434e+00 1.8303163103e+00 3.1702008434e+00 
21500 4.8790388024e+00 5.1385253318e-04 1.8303026181e+00 -3.1701771277e+00 1.8303026181e+00 3.1701771277e+00 
21600 4.8790390916e+00 5.2581952352e-04 1.8302885807e+00 -3.1701528143e+00 1.8302885807e+00 3.1701528143e+00 
21700 4.8790393714e+00 5.3712344225e-04 1.8302742164e+00 -3.1701279345e+00 1.8302742164e+00 3.1701279345e+00 
21800 4.8790396418e+00 5.4776575945e-04 1.8302595431e+00 -3.1701025197e+00 1.8302595431e+00 3.1701025197e+00 
21900 4.8790399031e+00 5.5774931320e-04 1.8302445789e+00 -3.1700766010e+00 1.8302445789e+00 3.1700766010e+00 
22000 4.8790401554e+00 5.6707824283e-04 1.8302293420e+00 -3.1700502098e+00 1.8302293420e+00 3.1700502098e+00 
22100 4.8790403990e+00 5.7575792174e-04 1.8302138500e+00 -3.1700233769e+00 1.8302138500e+00 3.1700233769e+00 
22200 4.8790406343e+00 5.8379489008e-04 1.8301981207e+00 -3.1699961330e+00 1.8301981207e+00 3.1699961330e+00 
22300 4.8790408613e+00 5.9119678755e-04 1.8301821718e+00 -3.1699685087e+00 1.8301821718e+00 3.1699685087e+00 
22400 4.8790410806e+00 5.9797228632e-04 1.8301660205e+00 -3.1699405338e+00 1.8301660205e+00 3.1699405338e+00 
22500 4.8790412924e+00 6.0413102454e-04 1.8301496840e+00 -3.1699122381e+00 1.8301496840e+00 3.1699122381e+00 
22600 4.8790414970e+00 6.0968354034e-04 1.8301331791e+00 -3.1698836507e+00 1.8301331791e+00 3.1698836507e+00 
22700 4.8790416947e+00 6.1464120662e-04 1.8301165223e+00 -3.1698548003e+00 1.8301165223e+00 3.1698548003e+00 
22800 4.8790418859e+00 6.1901616676e-04 1.8300997299e+00 -3.1698257151e+00 1.8300997299e+00 3.1698257151e+00 
22900 4.8790420709e+00 6.2282127139e-04 1.8300828178e+00 -3.1697964225e+00 1.8300828178e+00 3.1697964225e+00 
23000 4.8790422500e+00 6.2607001627e-04 1.8300658017e+00 -3.1697669497e+00 1.8300658017e+00 3.1697669497e+00 
23100 4.8790424236e+00 6.2877648151e-04 1.8300486966e+00 -3.1697373228e+00 1.8300486966e+00 3.1697373228e+00 
23200 4.8790425919e+00 6.3095527212e-04 1.8300315174e+00 -3.1697075675e+00 1.8300315174e+00 3.1697075675e+00 
23300 4.8790427553e+00 6.3262146013e-04 1.8300142785e+00 -3.1696777089e+00 1.8300142785e+00 3.1696777089e+00 
23400 4.8790429140e+00 6.3379052818e-04 1.8299969939e+00 -3.1696477711e+00 1.8299969939e+00 3.1696477711e+00 
23500 4.8790430683e+00 6.3447831478e-04 1.8299796772e+00 -3.1696177777e+00 1.8299796772e+00 3.1696177777e+00 
23600 4.8790432184e+00 6.3470096134e-04 1.8299623416e+00 -3.1695877515e+00 1.8299623416e+00 3.1695877515e+00 
23700 4.8790433646e+00 6.3447486085e-04 1.8299449997e+00 -3.1695577145e+00 1.8299449997e+00 3.1695577145e+00 
23800 4.8790435071e+00 6.3381660849e-04 1.8299276638e+00 -3.1695276879e+00 1.8299276638e+00 3.1695276879e+00 
23900 4.8790436462e+00 6.3274295400e-04 1.8299103458e+00 -3.1694976921e+00 1.8299103458e+00 3.1694976921e+00 
24000 4.8790437819e+00 6.3127075603e-04 1.8298930569e+00 -3.1694677469e+00 1.8298930569e+00 3.1694677469e+00 
24100 4.8790439146e+00 6.2941693832e-04 1.8298758081e+00 -3.1694378711e+00 1.8298758081e+00 3.1694378711e+00 
24200 4.8790440444e+00 6.2719844787e-04 1.8298586097e+00 -3.1694080827e+00 1.8298586097e+00 3.1694080827e+00 
24300 4.8790441713e+00 6.2463221508e-04 1.8298414719e+00 -3.1693783991e+00 1.8298414719e+00 3.1693783991e+00 
24400 4.8790442957e+00 6.2173511578e-04 1.8298244040e+00 -3.1693488366e+00 1.8298244040e+00 3.1693488366e+00 
24500 4.8790444175e+00 6.1852393526e-04 1.8298074151e+00 -3.1693194110e+00 1.8298074151e+00 3.1693194110e+00 
24600 4.8790445369e+00 6.1501533430e-04 1.8297905137e+00 -3.1692901370e+00 1.8297905137e+00 3.1692901370e+00 
24700 4.8790446540e+00 6.1122581703e-04 1.8297737082e+00 -3.1692610289e+00 1.8297737082e+00 3.1692610289e+00 
24800 4.8790447690e+00 6.0717170084e-04 1.8297570060e+00 -3.1692320998e+00 1.8297570060e+00 3.1692320998e+00 
24900 4.8790448817e+00 6.0286908816e-04 1.8297404144e+00 -3.1692033624e+00 1.8297404144e+00 3.1692033624e+00 
25000 4.8790449925e+00 5.9833384010e-04 1.8297239402e+00 -3.1691748283e+00 1.8297239402e+00 3.1691748283e+00 
25100 4.8790451012e+00 5.9358155199e-04 1.8297075899e+00 -3.1691465087e+00 1.8297075899e+00 3.1691465087e+00 
25200 4.8790452079e+00 5.8862753076e-04 1.8296913692e+00 -3.1691184137e+00 1.8296913692e+00 3.1691184137e+00 
25300 4.8790453128e+00 5.8348677410e-04 1.8296752838e+00 -3.1690905529e+00 1.8296752838e+00 3.1690905529e+00 
25400 4.8790454158e+00 5.7817395141e-04 1.8296593388e+00 -3.1690629353e+00 1.8296593388e+00 3.1690629353e+00 
25500 4.8790455170e+00 5.7270338640e-04 1.8296435387e+00 -3.1690355688e+00 1.8296435387e+00 3.1690355688e+00 
25600 4.8790456163e+00 5.6708904152e-04 1.8296278881e+00 -3.1690084611e+00 1.8296278881e+00 3.1690084611e+00 
25700 4.8790457139e+00 5.6134450385e-04 1.8296123907e+00 -3.1689816189e+00 1.8296123907e+00 3.1689816189e+00 
25800 4.8790458097e+00 5.5548297272e-04 1.8295970502e+00 -3.1689550483e+00 1.8295970502e+00 3.1689550483e+00 
25900 4.8790459037e+00 5.4951724882e-04 1.8295818698e+00 -3.1689287550e+00 1.8295818698e+00 3.1689287550e+00 
26000 4.8790459961e+00 5.4345972479e-04 1.8295668522e+00 -3.1689027439e+00 1.8295668522e+00 3.1689027439e+00 
26100 4.8790460867e+00 5.3732237729e-04 1.8295520001e+00 -3.1688770192e+00 1.8295520001e+00 3.1688770192e+00 
26200 4.8790461756e+00 5.3111676046e-04 1.8295373156e+00 -3.1688515849e+00 1.8295373156e+00 3.1688515849e+00 
26300 4.8790462627e+00 5.2485400066e-04 1.8295228005e+00 -3.1688264441e+00 1.8295228005e+00 3.1688264441e+00 
26400 4.8790463482e+00 5.1854479257e-04 1.8295084565e+00 -3.1688015996e+00 1.8295084565e+00 3.1688015996e+00 
26500 4.8790464320e+00 5.1219939649e-04 1.8294942849e+00 -3.1687770535e+00 1.8294942849e+00 3.1687770535e+00 
26600 4.8790465142e+00 5.0582763679e-04 1.8294802865e+00 -3.1687528076e+00 1.8294802865e+00 3.1687528076e+00 
26700 4.8790465946e+00 4.9943890154e-04 1.8294664622e+00 -3.1687288632e+00 1.8294664622e+00 3.1687288632e+00 
26800 4.8790466734e+00 4.9304214314e-04 1.8294528123e+00 -3.1687052210e+00 1.8294528123e+00 3.1687052210e+00 
26900 4.8790467506e+00 4.8664588002e-04 1.8294393372e+00 -3.1686818814e+00 1.8294393372e+00 3.1686818814e+00 
27000 4.8790468261e+00 4.8025819926e-04 1.8294260368e+00 -3.1686588445e+00 1.8294260368e+00 3.1686588445e+00 
27100 4.8790469000e+00 4.7388676010e-04 1.8294129109e+00 -3.1686361097e+00 1.8294129109e+00 3.1686361097e+00 
27200 4.8790469723e+00 4.6753879834e-04 1.8293999590e+00 -3.1686136764e+00 1.8293999590e+00 3.1686136764e+00 
27300 4.8790470430e+00 4.6122113152e-04 1.8293871806e+00 -3.1685915435e+00 1.8293871806e+00 3.1685915435e+00 
27400 4.8790471121e+00 4.5494016481e-04 1.8293745747e+00 -3.1685697095e+00 1.8293745747e+00 3.1685697095e+00 
27500 4.8790471797e+00 4.4870189765e-04 1.8293621404e+00 -3.1685481726e+00 1.8293621404e+00 3.1685481726e+00 
27600 4.8790472457e+00 4.4251193094e-04 1.8293498765e+00 -3.1685269310e+00 1.8293498765e+00 3.1685269310e+00 
27700 4.8790473102e+00 4.3637547493e-04 1.8293377818e+00 -3.1685059822e+00 1.8293377818e+00 3.1685059822e+00 
27800 4.8790473732e+00 4.3029735757e-04 1.8293258546e+00 -3.1684853238e+00 1.8293258546e+00 3.1684853238e+00 
27900 4.8790474347e+00 4.2428203335e-04 1.8293140936e+00 -3.1684649530e+00 1.8293140936e+00 3.1684649530e+00 
28000 4.8790474948e+00 4.1833359267e-04 1.8293024968e+00 -3.1684448669e+00 1.8293024968e+00 3.1684448669e+00 
28100 4.8790475534e+00 4.1245577147e-04 1.8292910626e+00 -3.1684250622e+00 1.8292910626e+00 3.1684250622e+00 
28200 4.8790476107e+00 4.0665196138e-04 1.8292797889e+00 -3.1684055357e+00 1.8292797889e+00 3.1684055357e+00 
28300 4.8790476666e+00 4.0092522003e-04 1.8292686739e+00 -3.1683862838e+00 1.8292686739e+00 3.1683862838e+00 
28400 4.8790477211e+00 3.9527828174e-04 1.8292577153e+00 -3.1683673030e+00 1.8292577153e+00 3.1683673030e+00 
28500 4.8790477743e+00 3.8971356838e-04 1.8292469109e+00 -3.1683485893e+00 1.8292469109e+00 3.1683485893e+00 
28600 4.8790478262e+00 3.8423320045e-04 1.8292362587e+00 -3.1683301390e+00 1.8292362587e+00 3.1683301390e+00 
28700 4.8790478768e+00 3.7883900833e-04 1.8292257561e+00 -3.1683119481e+00 1.8292257561e+00 3.1683119481e+00 
28800 4.8790479262e+00 3.7353254358e-04 1.8292154009e+00 -3.1682940124e+00 1.8292154009e+00 3.1682940124e+00 
28900 4.8790479744e+00 3.6831509043e-04 1.8292051908e+00 -3.1682763279e+00 1.8292051908e+00 3.1682763279e+00 
29000 4.8790480215e+00 3.6318767724e-04 1.8291951232e+00 -3.1682588903e+00 1.8291951232e+00 3.1682588903e+00 
29100 4.8790480674e+00 3.5815108799e-04 1.8291851956e+00 -3.1682416953e+00 1.8291851956e+00 3.1682416953e+00 
29200 4.8790481121e+00 3.5320587382e-04 1.8291754057e+00 -3.1682247387e+00 1.8291754057e+00 3.1682247387e+00 
29300 4.8790481558e+00 3.4835236448e-04 1.8291657510e+00 -3.1682080161e+00 1.8291657510e+00 3.1682080161e+00 
29400 4.8790481985e+00 3.4359067973e-04 1.8291562288e+00 -3.1681915233e+00 1.8291562288e+00 3.1681915233e+00 
29500 4.8790482401e+00 3.3892074064e-04 1.8291468368e+00 -3.1681752558e+00 1.8291468368e+00 3.1681752558e+00 
29600 4.8790482807e+00 3.3434228085e-04 1.8291375723e+00 -3.1681592093e+00 1.8291375723e+00 3.1681592093e+00 
29700 4.8790483203e+00 3.2985485758e-04 1.8291284330e+00 -3.1681433795e+00 1.8291284330e+00 3.1681433795e+00 
29800 4.8790483590e+00 3.2545786256e-04 1.8291194163e+00 -3.1681277621e+00 1.8291194163e+00 3.1681277621e+00 
29900 4.8790483968e+00 3.2115053282e-04 1.8291105197e+00 -3.1681123528e+00 1.8291105197e+00 3.1681123528e+00 
30000 4.8790484337e+00 3.1693196119e-04 1.8291017408e+00 -3.1680971473e+00 1.8291017408e+00 3.1680971473e+00 
30100 4.8790484697e+00 3.1280110667e-04 1.8290930772e+00 -3.1680821416e+00 1.8290930772e+00 3.1680821416e+00 
30200 4.8790485048e+00 3.0875680456e-04 1.8290845265e+00 -3.1680673313e+00 1.8290845265e+00 3.1680673313e+00 
30300 4.8790485392e+00 3.0479777632e-04 1.8290760863e+00 -3.1680527125e+00 1.8290760863e+00 3.1680527125e+00 
30400 4.8790485728e+00 3.0092263926e-04 1.8290677543e+00 -3.1680382810e+00 1.8290677543e+00 3.1680382810e+00 
30500 4.8790486056e+00 2.9712991586e-04 1.8290595282e+00 -3.1680240329e+00 1.8290595282e+00 3.1680240329e+00 
30600 4.8790486376e+00 2.9341804293e-04 1.8290514057e+00 -3.1680099644e+00 1.8290514057e+00 3.1680099644e+00 
30700 4.8790486690e+00 2.8978538042e-04 1.8290433847e+00 -3.1679960716e+00 1.8290433847e+00 3.1679960716e+00 
30800 4.8790486996e+00 2.8623021995e-04 1.8290354629e+00 -3.1679823507e+00 1.8290354629e+00 3.1679823507e+00 
30900 4.8790487295e+00 2.8275079310e-04 1.8290276383e+00 -3.1679687980e+00 1.8290276383e+00 3.1679687980e+00 
31000 4.8790487588e+00 2.7934527935e-04 1.8290199088e+00 -3.1679554101e+00 1.8290199088e+00 3.1679554101e+00 
31100 4.8790487874e+00 2.7601181373e-04 1.8290122723e+00 -3.1679421833e+00 1.8290122723e+00 3.1679421833e+00 
31200 4.8790488154e+00 2.7274849415e-04 1.8290047269e+00 -3.1679291144e+00 1.8290047269e+00 3.1679291144e+00 
31300 4.8790488427e+00 2.6955338849e-04 1.8289972708e+00 -3.1679161999e+00 1.8289972708e+00 3.1679161999e+00 
31400 4.8790488695e+00 2.6642454127e-04 1.8289899019e+00 -3.1679034366e+00 1.8289899019e+00 3.1679034366e+00 
31500 4.8790488957e+00 2.6335998013e-04 1.8289826185e+00 -3.1678908214e+00 1.8289826185e+00 3.1678908214e+00 
31600 4.8790489213e+00 2.6035772188e-04 1.8289754189e+00 -3.1678783513e+00 1.8289754189e+00 3.1678783513e+00 
31700 4.8790489464e+00 2.5741577835e-04 1.8289683013e+00 -3.1678660233e+00 1.8289683013e+00 3.1678660233e+00 
31800 4.8790489710e+00 2.5453216185e-04 1.8289612641e+00 -3.1678538345e+00 1.8289612641e+00 3.1678538345e+00 
31900 4.8790489950e+00 2.5170489039e-04 1.8289543057e+00 -3.1678417823e+00 1.8289543057e+00 3.1678417823e+00 
32000 4.8790490185e+00 2.4893199253e-04 1.8289474246e+00 -3.1678298638e+00 1.8289474246e+00 3.1678298638e+00 
32100 4.8790490415e+00 2.4621151199e-04 1.8289406193e+00 -3.1678180767e+00 1.8289406193e+00 3.1678180767e+00 
32200 4.8790490640e+00 2.4354151193e-04 1.8289338883e+00 -3.1678064182e+00 1.8289338883e+00 3.1678064182e+00 
32300 4.8790490860e+00 2.4092007897e-04 1.8289272303e+00 -3.1677948862e+00 1.8289272303e+00 3.1677948862e+00 
32400 4.8790491076e+00 2.3834532689e-04 1.8289206439e+00 -3.1677834783e+00 1.8289206439e+00 3.1677834783e+00 
32500 4.8790491287e+00 2.3581540009e-04 1.8289141279e+00 -3.1677721922e+00 1.8289141279e+00 3.1677721922e+00 
32600 4.8790491494e+00 2.3332847673e-04 1.8289076811e+00 -3.1677610259e+00 1.8289076811e+00 3.1677610259e+00 
32700 4.8790491696e+00 2.3088277166e-04 1.8289013022e+00 -3.1677499774e+00 1.8289013022e+00 3.1677499774e+00 
32800 4.8790491894e+00 2.2847653905e-04 1.8288949901e+00 -3.1677390446e+00 1.8288949901e+00 3.1677390446e+00 
32900 4.8790492088e+00 2.2610807477e-04 1.8288887438e+00 -3.1677282257e+00 1.8288887438e+00 3.1677282257e+00 
33000 4.8790492278e+00 2.2377571854e-04 1.8288825622e+00 -3.1677175189e+00 1.8288825622e+00 3.1677175189e+00 
33100 4.8790492464e+00 2.2147785586e-04 1.8288764444e+00 -3.1677069225e+00 1.8288764444e+00 3.1677069225e+00 
33200 4.8790492646e+00 2.1921291965e-04 1.8288703894e+00 -3.1676964349e+00 1.8288703894e+00 3.1676964349e+00 
33300 4.8790492824e+00 2.1697939174e-04 1.8288643963e+00 -3.1676860545e+00 1.8288643963e+00 3.1676860545e+00 
33400 4.8790492999e+00 2.1477580409e-04 1.8288584642e+00 -3.1676757798e+00 1.8288584642e+00 3.1676757798e+00 
33500 4.8790493170e+00 2.1260073983e-04 1.8288525923e+00 -3.1676656095e+00 1.8288525923e+00 3.1676656095e+00 
33600 4.8790493337e+00 2.1045283414e-04 1.8288467799e+00 -3.1676555421e+00 1.8288467799e+00 3.1676555421e+00 
33700 4.8790493500e+00 2.0833077485e-04 1.8288410262e+00 -3.1676455764e+00 1.8288410262e+00 3.1676455764e+00 
33800 4.8790493661e+00 2.0623330294e-04 1.8288353305e+00 -3.1676357112e+00 1.8288353305e+00 3.1676357112e+00 
33900 4.8790493818e+00 2.0415921286e-04 1.8288296922e+00 -3.1676259452e+00 1.8288296922e+00 3.1676259452e+00 
34000 4.8790493971e+00 2.0210735263e-04 1.8288241105e+00 -3.1676162774e+00 1.8288241105e+00 3.1676162774e+00 
34100 4.8790494122e+00 2.0007662386e-04 1.8288185849e+00 -3.1676067068e+00 1.8288185849e+00 3.1676067068e+00 
34200 4.8790494269e+00 1.9806598159e-04 1.8288131148e+00 -3.1675972323e+00 1.8288131148e+00 3.1675972323e+00 
34300 4.8790494413e+00 1.9607443397e-04 1.8288076996e+00 -3.1675878530e+00 1.8288076996e+00 3.1675878530e+00 
34400 4.8790494554e+00 1.9410104184e-04 1.8288023389e+00 -3.1675785680e+00 1.8288023389e+00 3.1675785680e+00 
34500 4.8790494692e+00 1.9214491821e-04 1.8287970321e+00 -3.1675693764e+00 1.8287970321e+00 3.1675693764e+00 
34600 4.8790494828e+00 1.9020522758e-04 1.8287917788e+00 -3.1675602774e+00 1.8287917788e+00 3.1675602774e+00 
34700 4.8790494960e+00 1.8828118514e-04 1.8287865785e+00 -3.1675512702e+00 1.8287865785e+00 3.1675512702e+00 
34800 4.8790495090e+00 1.8637205598e-04 1.8287814308e+00 -3.1675423541e+00 1.8287814308e+00 3.1675423541e+00 
34900 4.8790495217e+00 1.8447715409e-04 1.8287763353e+00 -3.1675335284e+00 1.8287763353e+00 3.1675335284e+00 
35000 4.8790495341e+00 1.8259584132e-04 1.8287712916e+00 -3.1675247924e+00 1.8287712916e+00 3.1675247924e+00 
35100 4.8790495462e+00 1.8072752630e-04 1.8287662993e+00 -3.1675161455e+00 1.8287662993e+00 3.1675161455e+00 
35200 4.8790495582e+00 1.7887166324e-04 1.8287613580e+00 -3.1675075870e+00 1.8287613580e+00 3.1675075870e+00 
35300 4.8790495698e+00 1.7702775070e-04 1.8287564675e+00 -3.1674991164e+00 1.8287564675e+00 3.1674991164e+00 
35400 4.8790495812e+00 1.7519533027e-04 1.8287516274e+00 -3.1674907331e+00 1.8287516274e+00 3.1674907331e+00 
35500 4.8790495924e+00 1.7337398530e-04 1.8287468374e+00 -3.1674824365e+00 1.8287468374e+00 3.1674824365e+00 
35600 4.8790496033e+00 1.7156333942e-04 1.8287420971e+00 -3.1674742262e+00 1.8287420971e+00 3.1674742262e+00 
35700 4.8790496141e+00 1.6976305518e-04 1.8287374064e+00 -3.1674661016e+00 1.8287374064e+00 3.1674661016e+00 
35800 4.8790496245e+00 1.6797283260e-04 1.8287327648e+00 -3.1674580622e+00 1.8287327648e+00 3.1674580622e+00 
35900 4.8790496348e+00 1.6619240766e-04 1.8287281722e+00 -3.1674501076e+00 1.8287281722e+00 3.1674501076e+00 
36000 4.8790496449e+00 1.6442155085e-04 1.8287236283e+00 -3.1674422372e+00 1.8287236283e+00 3.1674422372e+00 
36100 4.8790496547e+00 1.6266006562e-04 1.8287191328e+00 -3.1674344508e+00 1.8287191328e+00 3.1674344508e+00 
36200 4.8790496643e+00 1.6090778688e-04 1.8287146854e+00 -3.1674267477e+00 1.8287146854e+00 3.1674267477e+00 
36300 4.8790496738e+00 1.5916457949e-04 1.8287102859e+00 -3.1674191276e+00 1.8287102859e+00 3.1674191276e+00 
36400 4.8790496830e+00 1.5743033671e-04 1.8287059341e+00 -3.1674115900e+00 1.8287059341e+00 3.1674115900e+00 
36500 4.8790496921e+00 1.5570497872e-04 1.8287016297e+00 -3.1674041345e+00 1.8287016297e+00 3.1674041345e+00 
36600 4.8790497010e+00 1.5398845104e-04 1.8286973724e+00 -3.1673967607e+00 1.8286973724e+00 3.1673967607e+00 
36700 4.8790497096e+00 1.5228072311e-04 1.8286931621e+00 -3.1673894682e+00 1.8286931621e+00 3.1673894682e+00 
36800 4.8790497181e+00 1.5058178674e-04 1.8286889985e+00 -3.1673822566e+00 1.8286889985e+00 3.1673822566e+00 
36900 4.8790497265e+00 1.4889165469e-04 1.8286848813e+00 -3.1673751254e+00 1.8286848813e+00 3.1673751254e+00 
37000 4.8790497346e+00 1.4721035918e-04 1.8286808103e+00 -3.1673680742e+00 1.8286808103e+00 3.1673680742e+00 
37100 4.8790497426e+00 1.4553795050e-04 1.8286767852e+00 -3.1673611026e+00 1.8286767852e+00 3.1673611026e+00 
37200 4.8790497505e+00 1.4387449559e-04 1.8286728059e+00 -3.1673542102e+00 1.8286728059e+00 3.1673542102e+00 
37300 4.8790497581e+00 1.4222007669e-04 1.8286688720e+00 -3.1673473966e+00 1.8286688720e+00 3.1673473966e+00 
37400 4.8790497656e+00 1.4057478998e-04 1.8286649834e+00 -3.1673406613e+00 1.8286649834e+00 3.1673406613e+00 
37500 4.8790497730e+00 1.3893874431e-04 1.8286611398e+00 -3.1673340039e+00 1.8286611398e+00 3.1673340039e+00 
37600 4.8790497802e+00 1.3731205988e-04 1.8286573409e+00 -3.1673274240e+00 1.8286573409e+00 3.1673274240e+00 
37700 4.8790497873e+00 1.3569486707e-04 1.8286535864e+00 -3.1673209211e+00 1.8286535864e+00 3.1673209211e+00 
37800 4.8790497942e+00 1.3408730518e-04 1.8286498762e+00 -3.1673144948e+00 1.8286498762e+00 3.1673144948e+00 
37900 4.8790498010e+00 1.3248952130e-04 1.8286462099e+00 -3.1673081446e+00 1.8286462099e+00 3.1673081446e+00 
38000 4.8790498076e+00 1.3090166923e-04 1.8286425873e+00 -3.1673018700e+00 1.8286425873e+00 3.1673018700e+00 
38100 4.8790498141e+00 1.2932390833e-04 1.8286390081e+00 -3.1672956707e+00 1.8286390081e+00 3.1672956707e+00 
38200 4.8790498205e+00 1.2775640254e-04 1.8286354720e+00 -3.1672895460e+00 1.8286354720e+00 3.1672895460e+00 
38300 4.8790498268e+00 1.2619931936e-04 1.8286319788e+00 -3.1672834956e+00 1.8286319788e+00 3.1672834956e+00 
38400 4.8790498329e+00 1.2465282893e-04 1.8286285281e+00 -3.1672775189e+00 1.8286285281e+00 3.1672775189e+00 
38500 4.8790498389e+00 1.2311710307e-04 1.8286251198e+00 -3.1672716154e+00 1.8286251198e+00 3.1672716154e+00 
38600 4.8790498448e+00 1.2159231448e-04 1.8286217534e+00 -3.1672657847e+00 1.8286217534e+00 3.1672657847e+00 
38700 4.8790498506e+00 1.2007863588e-04 1.8286184287e+00 -3.1672600261e+00 1.8286184287e+00 3.1672600261e+00 
38800 4.8790498562e+00 1.1857623923e-04 1.8286151454e+00 -3.1672543393e+00 1.8286151454e+00 3.1672543393e+00 
38900 4.8790498618e+00 1.1708529502e-04 1.8286119031e+00 -3.1672487236e+00 1.8286119031e+00 3.1672487236e+00 
39000 4.8790498672e+00 1.1560597155e-04 1.8286087017e+00 -3.1672431784e+00 1.8286087017e+00 3.1672431784e+00 
39100 4.8790498725e+00 1.1413843431e-04 1.8286055406e+00 -3.1672377034e+00 1.8286055406e+00 3.1672377034e+00 
39200 4.8790498777e+00 1.1268284535e-04 1.8286024197e+00 -3.1672322978e+00 1.8286024197e+00 3.1672322978e+00 
39300 4.8790498829e+00 1.1123936273e-04 1.8285993386e+00 -3.1672269611e+00 1.8285993386e+00 3.1672269611e+00 
39400 4.8790498879e+00 1.0980813997e-04 1.8285962969e+00 -3.1672216928e+00 1.8285962969e+00 3.1672216928e+00 
39500 4.8790498928e+00 1.0838932559e-04 1.8285932944e+00 -3.1672164923e+00 1.8285932944e+00 3.1672164923e+00 
39600 4.8790498976e+00 1.0698306267e-04 1.8285903307e+00 -3.1672113590e+00 1.8285903307e+00 3.1672113590e+00 
39700 4.8790499023e+00 1.0558948839e-04 1.8285874054e+00 -3.1672062922e+00 1.8285874054e+00 3.1672062922e+00 
39800 4.8790499070e+00 1.0420873373e-04 1.8285845182e+00 -3.1672012915e+00 1.8285845182e+00 3.1672012915e+00 
39900 4.8790499115e+00 1.0284092308e-04 1.8285816688e+00 -3.1671963561e+00 1.8285816688e+00 3.1671963561e+00 
40000 4.8790499160e+00 1.0148617399e-04 1.8285788567e+00 -3.1671914855e+00 1.8285788567e+00 3.1671914855e+00 
40100 4.8790499203e+00 1.0014459686e-04 1.8285760817e+00 -3.1671866790e+00 1.8285760817e+00 3.1671866790e+00 
40200 4.8790499246e+00 9.8816294733e-05 1.8285733434e+00 -3.1671819361e+00 1.8285733434e+00 3.1671819361e+00 
40300 4.8790499288e+00 9.7501363102e-05 1.8285706414e+00 -3.1671772561e+00 1.8285706414e+00 3.1671772561e+00 
40400 4.8790499329e+00 9.6199889732e-05 1.8285679753e+00 -3.1671726384e+00 1.8285679753e+00 3.1671726384e+00 
40500 4.8790499370e+00 9.4911954527e-05 1.8285653449e+00 -3.1671680823e+00 1.8285653449e+00 3.1671680823e+00 
40600 4.8790499409e+00 9.3637629423e-05 1.8285627496e+00 -3.1671635872e+00 1.8285627496e+00 3.1671635872e+00 
40700 4.8790499448e+00 9.2376978312e-05 1.8285601892e+00 -3.1671591524e+00 1.8285601892e+00 3.1671591524e+00 
40800 4.8790499486e+00 9.1130056976e-05 1.8285576633e+00 -3.1671547773e+00 1.8285576633e+00 3.1671547773e+00 
40900 4.8790499524e+00 8.9896913074e-05 1.8285551714e+00 -3.1671504613e+00 1.8285551714e+00 3.1671504613e+00 
41000 4.8790499560e+00 8.8677586127e-05 1.8285527133e+00 -3.1671462037e+00 1.8285527133e+00 3.1671462037e+00 
41100 4.8790499596e+00 8.7472107540e-05 1.8285502885e+00 -3.1671420038e+00 1.8285502885e+00 3.1671420038e+00 
41200 4.8790499631e+00 8.6280500642e-05 1.8285478966e+00 -3.1671378610e+00 1.8285478966e+00 3.1671378610e+00 
41300 4.8790499666e+00 8.5102780750e-05 1.8285455374e+00 -3.1671337746e+00 1.8285455374e+00 3.1671337746e+00 
41400 4.8790499700e+00 8.3938955242e-05 1.8285432103e+00 -3.1671297441e+00 1.8285432103e+00 3.1671297441e+00 
41500 4.8790499733e+00 8.2789023657e-05 1.8285409150e+00 -3.1671257686e+00 1.8285409150e+00 3.1671257686e+00 
41600 4.8790499766e+00 8.1652977818e-05 1.8285386512e+00 -3.1671218476e+00 1.8285386512e+00 3.1671218476e+00 
41700 4.8790499798e+00 8.0530801948e-05 1.8285364185e+00 -3.1671179804e+00 1.8285364185e+00 3.1671179804e+00 
41800 4.8790499829e+00 7.9422472829e-05 1.8285342165e+00 -3.1671141663e+00 1.8285342165e+00 3.1671141663e+00 
41900 4.8790499860e+00 7.8327959953e-05 1.8285320447e+00 -3.1671104047e+00 1.8285320447e+00 3.1671104047e+00 
42000 4.8790499890e+00 7.7247225689e-05 1.8285299029e+00 -3.1671066949e+00 1.8285299029e+00 3.1671066949e+00 
42100 4.8790499919e+00 7.6180225478e-05 1.8285277906e+00 -3.1671030364e+00 1.8285277906e+00 3.1671030364e+00 
42200 4.8790499948e+00 7.5126908015e-05 1.8285257075e+00 -3.1670994283e+00 1.8285257075e+00 3.1670994283e+00 
42300 4.8790499977e+00 7.4087215452e-05 1.8285236532e+00 -3.1670958702e+00 1.8285236532e+00 3.1670958702e+00 
42400 4.8790500005e+00 7.3061083612e-05 1.8285216273e+00 -3.1670923613e+00 1.8285216273e+00 3.1670923613e+00 
42500 4.8790500032e+00 7.2048442202e-05 1.8285196295e+00 -3.1670889009e+00 1.8285196295e+00 3.1670889009e+00 
42600 4.8790500059e+00 7.1049215043e-05 1.8285176594e+00 -3.1670854886e+00 1.8285176594e+00 3.1670854886e+00 
42700 4.8790500086e+00 7.0063320290e-05 1.8285157166e+00 -3.1670821235e+00 1.8285157166e+00 3.1670821235e+00 
42800 4.8790500113e+00 7.0020437616e-05 1.8285157166e+00 -3.1670821235e+00 1.8285157166e+00 3.1670821235e+00 
42900 4.8790500140e+00 6.9983792519e-05 1.8285157166e+00 -3.1670821235e+00 1.8285157166e+00 3.1670821235e+00 
43000 4.8790500166e+00 6.9953271384e-05 1.8285157166e+00 -3.1670821235e+00 1.8285157166e+00 3.1670821235e+00 
43100 4.8790500192e+00 6.9928751882e-05 1.8285157166e+00 -3.1670821235e+00 1.8285157166e+00 3.1670821235e+00 
43200 4.8790500217e+00 6.9910103495e-05 1.8285157166e+00 -3.1670821235e+00 1.8285157166e+00 3.1670821235e+00 
43300 4.8790500242e+00 6.9897188035e-05 1.8285157166e+00 -3.1670821235e+00 1.8285157166e+00 3.1670821235e+00 
43400 4.8790500266e+00 6.9889860198e-05 1.8285157166e+00 -3.1670821235e+00 1.8285157166e+00 3.1670821235e+00 
43500 4.8790500290e+00 6.9887968111e-05 1.8285157166e+00 -3.1670821235e+00 1.8285157166e+00 3.1670821235e+00 
43600 4.8790500313e+00 6.9891353887e-05 1.8285157166e+00 -3.1670821235e+00 1.8285157166e+00 3.1670821235e+00 
43700 4.8790500336e+00 6.9899854192e-05 1.8285157166e+00 -3.1670821235e+00 1.8285157166e+00 3.1670821235e+00 
43800 4.8790500359e+00 6.9913300791e-05 1.8285157166e+00 -3.1670821235e+00 1.8285157166e+00 3.1670821235e+00 
43900 4.8790500381e+00 6.9931521113e-05 1.8285157166e+00 -3.1670821235e+00 1.8285157166e+00 3.1670821235e+00 
44000 4.8790500402e+00 6.9954338794e-05 1.8285157166e+00 -3.1670821235e+00 1.8285157166e+00 3.1670821235e+00 
44100 4.8790500424e+00 6.9981574219e-05 1.8285157166e+00 -3.1670821235e+00 1.8285157166e+00 3.1670821235e+00 
44200 4.8790500444e+00 7.0013045054e-05 1.8285157166e+00 -3.1670821235e+00 1.8285157166e+00 3.1670821235e+00 
44300 4.8790500465e+00 7.0048566768e-05 1.8285157166e+00 -3.1670821235e+00 1.8285157166e+00 3.1670821235e+00 
44400 4.8790500485e+00 7.0087953140e-05 1.8285157166e+00 -3.1670821235e+00 1.8285157166e+00 3.1670821235e+00 
44500 4.8790500505e+00 7.0131016748e-05 1.8285157166e+00 -3.1670821235e+00 1.8285157166e+00 3.1670821235e+00 
44600 4.8790500524e+00 7.0177569455e-05 1.8285157166e+00 -3.1670821235e+00 1.8285157166e+00 3.1670821235e+00 
44700 4.8790500543e+00 7.0227422863e-05 1.8285157166e+00 -3.1670821235e+00 1.8285157166e+00 3.1670821235e+00 
44800 4.8790500561e+00 7.0280388765e-05 1.8285157166e+00 -3.1670821235e+00 1.8285157166e+00 3.1670821235e+00 
44900 4.8790500580e+00 7.0336279565e-05 1.8285157166e+00 -3.1670821235e+00 1.8285157166e+00 3.1670821235e+00 
45000 4.8790500598e+00 7.0394908693e-05 1.8285157166e+00 -3.1670821235e+00 1.8285157166e+00 3.1670821235e+00 
45100 4.8790500615e+00 7.0456090987e-05 1.8285157166e+00 -3.1670821235e+00 1.8285157166e+00 3.1670821235e+00 
45200 4.8790500632e+00 7.0519643068e-05 1.8285157166e+00 -3.1670821235e+00 1.8285157166e+00 3.1670821235e+00 
45300 4.8790500649e+00 7.0585383689e-05 1.8285157166e+00 -3.1670821235e+00 1.8285157166e+00 3.1670821235e+00 
45400 4.8790500666e+00 7.0653134062e-05 1.8285157166e+00 -3.1670821235e+00 1.8285157166e+00 3.1670821235e+00 
45500 4.8790500682e+00 7.0722718171e-05 1.8285157166e+00 -3.1670821235e+00 1.8285157166e+00 3.1670821235e+00 
45600 4.8790500697e+00 6.9855453793e-05 1.8285137827e+00 -3.1670787739e+00 1.8285137827e+00 3.1670787739e+00 
45700 4.8790500712e+00 6.9922142794e-05 1.8285137827e+00 -3.1670787739e+00 1.8285137827e+00 3.1670787739e+00 
45800 4.8790500728e+00 6.9990265404e-05 1.8285137827e+00 -3.1670787739e+00 1.8285137827e+00 3.1670787739e+00 
45900 4.8790500743e+00 7.0059664773e-05 1.8285137827e+00 -3.1670787739e+00 1.8285137827e+00 3.1670787739e+00 
46000 4.8790500758e+00 7.0130187780e-05 1.8285137827e+00 -3.1670787739e+00 1.8285137827e+00 3.1670787739e+00 
46100 4.8790500772e+00 7.0201685205e-05 1.8285137827e+00 -3.1670787739e+00 1.8285137827e+00 3.1670787739e+00 
46200 4.8790500787e+00 7.0274011893e-05 1.8285137827e+00 -3.1670787739e+00 1.8285137827e+00 3.1670787739e+00 
46300 4.8790500801e+00 7.0347026887e-05 1.8285137827e+00 -3.1670787739e+00 1.8285137827e+00 3.1670787739e+00 
46400 4.8790500814e+00 7.0420593563e-05 1.8285137827e+00 -3.1670787739e+00 1.8285137827e+00 3.1670787739e+00 
46500 4.8790500828e+00 7.0494579743e-05 1.8285137827e+00 -3.1670787739e+00 1.8285137827e+00 3.1670787739e+00 
46600 4.8790500841e+00 7.0568857782e-05 1.8285137827e+00 -3.1670787739e+00 1.8285137827e+00 3.1670787739e+00 
46700 4.8790500854e+00 7.0643304663e-05 1.8285137827e+00 -3.1670787739e+00 1.8285137827e+00 3.1670787739e+00 
46800 4.8790500867e+00 7.0717802056e-05 1.8285137827e+00 -3.1670787739e+00 1.8285137827e+00 3.1670787739e+00 
46900 4.8790500878e+00 6.9853787735e-05 1.8285118489e+00 -3.1670754246e+00 1.8285118489e+00 3.1670754246e+00 
47000 4.8790500890e+00 6.9922003526e-05 1.8285118489e+00 -3.1670754246e+00 1.8285118489e+00 3.1670754246e+00 
47100 4.8790500902e+00 6.9990051955e-05 1.8285118489e+00 -3.1670754246e+00 1.8285118489e+00 3.1670754246e+00 
47200 4.8790500914e+00 7.0057839255e-05 1.8285118489e+00 -3.1670754246e+00 1.8285118489e+00 3.1670754246e+00 
47300 4.8790500926e+00 7.0125276203e-05 1.8285118489e+00 -3.1670754246e+00 1.8285118489e+00 3.1670754246e+00 
47400 4.8790500937e+00 7.0192278091e-05 1.8285118489e+00 -3.1670754246e+00 1.8285118489e+00 3.1670754246e+00 
47500 4.8790500948e+00 7.0258764700e-05 1.8285118489e+00 -3.1670754246e+00 1.8285118489e+00 3.1670754246e+00 
47600 4.8790500959e+00 7.0324660256e-05 1.8285118489e+00 -3.1670754246e+00 1.8285118489e+00 3.1670754246e+00 
47700 4.8790500970e+00 7.0389893382e-05 1.8285118489e+00 -3.1670754246e+00 1.8285118489e+00 3.1670754246e+00 
47800 4.8790500981e+00 7.0454397050e-05 1.8285118489e+00 -3.1670754246e+00 1.8285118489e+00 3.1670754246e+00 
47900 4.8790500991e+00 7.0518108515e-05 1.8285118489e+00 -3.1670754246e+00 1.8285118489e+00 3.1670754246e+00 
48000 4.8790501001e+00 7.0580969248e-05 1.8285118489e+00 -3.1670754246e+00 1.8285118489e+00 3.1670754246e+00 
48100 4.8790501011e+00 7.0642924869e-05 1.8285118489e+00 -3.1670754246e+00 1.8285118489e+00 3.1670754246e+00 
48200 4.8790501021e+00 7.0703925066e-05 1.8285118489e+00 -3.1670754246e+00 1.8285118489e+00 3.1670754246e+00 
48300 4.8790501031e+00 7.0763923510e-05 1.8285118489e+00 -3.1670754246e+00 1.8285118489e+00 3.1670754246e+00 
48400 4.8790501039e+00 6.9883810736e-05 1.8285099139e+00 -3.1670720730e+00 1.8285099139e+00 3.1670720730e+00 
48500 4.8790501048e+00 6.9935631640e-05 1.8285099139e+00 -3.1670720730e+00 1.8285099139e+00 3.1670720730e+00 
48600 4.8790501057e+00 6.9986443378e-05 1.8285099139e+00 -3.1670720730e+00 1.8285099139e+00 3.1670720730e+00 
48700 4.8790501066e+00 7.0036220031e-05 1.8285099139e+00 -3.1670720730e+00 1.8285099139e+00 3.1670720730e+00 
48800 4.8790501075e+00 7.0084938901e-05 1.8285099139e+00 -3.1670720730e+00 1.8285099139e+00 3.1670720730e+00 
48900 4.8790501084e+00 7.0132580379e-05 1.8285099139e+00 -3.1670720730e+00 1.8285099139e+00 3.1670720730e+00 
49000 4.8790501092e+00 7.0179127829e-05 1.8285099139e+00 -3.1670720730e+00 1.8285099139e+00 3.1670720730e+00 
49100 4.8790501101e+00 7.0224567463e-05 1.8285099139e+00 -3.1670720730e+00 1.8285099139e+00 3.1670720730e+00 
49200 4.8790501109e+00 7.0268888224e-05 1.8285099139e+00 -3.1670720730e+00 1.8285099139e+00 3.1670720730e+00 
49300 4.8790501117e+00 7.0312081663e-05 1.8285099139e+00 -3.1670720730e+00 1.8285099139e+00 3.1670720730e+00 
49400 4.8790501125e+00 7.0354141824e-05 1.8285099139e+00 -3.1670720730e+00 1.8285099139e+00 3.1670720730e+00 
49500 4.8790501133e+00 7.0395065125e-05 1.8285099139e+00 -3.1670720730e+00 1.8285099139e+00 3.1670720730e+00 
49600 4.8790501140e+00 7.0434850240e-05 1.8285099139e+00 -3.1670720730e+00 1.8285099139e+00 3.1670720730e+00 
49700 4.8790501148e+00 7.0473497989e-05 1.8285099139e+00 -3.1670720730e+00 1.8285099139e+00 3.1670720730e+00 
49800 4.8790501155e+00 7.0511011225e-05 1.8285099139e+00 -3.1670720730e+00 1.8285099139e+00 3.1670720730e+00 
49900 4.8790501162e+00 7.0547394717e-05 1.8285099139e+00 -3.1670720730e+00 1.8285099139e+00 3.1670720730e+00 
50000 4.8790501169e+00 7.0582655045e-05 1.8285099139e+00 -3.1670720730e+00 1.8285099139e+00 3.1670720730e+00 
50100 4.8790501176e+00 7.0616800497e-05 1.8285099139e+00 -3.1670720730e+00 1.8285099139e+00 3.1670720730e+00 
50200 4.8790501183e+00 7.0649840953e-05 1.8285099139e+00 -3.1670720730e+00 1.8285099139e+00 3.1670720730e+00 
50300 4.8790501190e+00 7.0681787792e-05 1.8285099139e+00 -3.1670720730e+00 1.8285099139e+00 3.1670720730e+00 
50400 4.8790501196e+00 7.0712653784e-05 1.8285099139e+00 -3.1670720730e+00 1.8285099139e+00 3.1670720730e+00 
50500 4.8790501201e+00 6.9804058475e-05 1.8285079803e+00 -3.1670687239e+00 1.8285079803e+00 3.1670687239e+00 
50600 4.8790501208e+00 6.9826760153e-05 1.8285079803e+00 -3.1670687239e+00 1.8285079803e+00 3.1670687239e+00 
50700 4.8790501214e+00 6.9848535149e-05 1.8285079803e+00 -3.1670687239e+00 1.8285079803e+00 3.1670687239e+00 
50800 4.8790501220e+00 6.9869406230e-05 1.8285079803e+00 -3.1670687239e+00 1.8285079803e+00 3.1670687239e+00 
50900 4.8790501226e+00 6.9889396796e-05 1.8285079803e+00 -3.1670687239e+00 1.8285079803e+00 3.1670687239e+00 
51000 4.8790501232e+00 6.9908530775e-05 1.8285079803e+00 -3.1670687239e+00 1.8285079803e+00 3.1670687239e+00 
51100 4.8790501238e+00 6.9926832526e-05 1.8285079803e+00 -3.1670687239e+00 1.8285079803e+00 3.1670687239e+00 
51200 4.8790501244e+00 6.9944326749e-05 1.8285079803e+00 -3.1670687239e+00 1.8285079803e+00 3.1670687239e+00 
51300 4.8790501249e+00 6.9961038396e-05 1.8285079803e+00 -3.1670687239e+00 1.8285079803e+00 3.1670687239e+00 
51400 4.8790501255e+00 6.9976992590e-05 1.8285079803e+00 -3.1670687239e+00 1.8285079803e+00 3.1670687239e+00 
51500 4.8790501260e+00 6.9992214553e-05 1.8285079803e+00 -3.1670687239e+00 1.8285079803e+00 3.1670687239e+00 
51600 4.8790501265e+00 7.0006729525e-05 1.8285079803e+00 -3.1670687239e+00 1.8285079803e+00 3.1670687239e+00 
51700 4.8790501271e+00 7.0020562711e-05 1.8285079803e+00 -3.1670687239e+00 1.8285079803e+00 3.1670687239e+00 
51800 4.8790501276e+00 7.0033739204e-05 1.8285079803e+00 -3.1670687239e+00 1.8285079803e+00 3.1670687239e+00 
51900 4.8790501281e+00 7.0046283940e-05 1.8285079803e+00 -3.1670687239e+00 1.8285079803e+00 3.1670687239e+00 
52000 4.8790501286e+00 7.0058221636e-05 1.8285079803e+00 -3.1670687239e+00 1.8285079803e+00 3.1670687239e+00 
52100 4.8790501290e+00 7.0069576743e-05 1.8285079803e+00 -3.1670687239e+00 1.8285079803e+00 3.1670687239e+00 
52200 4.8790501295e+00 7.0080373403e-05 1.8285079803e+00 -3.1670687239e+00 1.8285079803e+00 3.1670687239e+00 
52300 4.8790501300e+00 7.0090635404e-05 1.8285079803e+00 -3.1670687239e+00 1.8285079803e+00 3.1670687239e+00 
52400 4.8790501305e+00 7.0100386141e-05 1.8285079803e+00 -3.1670687239e+00 1.8285079803e+00 3.1670687239e+00 
52500 4.8790501309e+00 7.0109648585e-05 1.8285079803e+00 -3.1670687239e+00 1.8285079803e+00 3.1670687239e+00 
52600 4.8790501314e+00 7.0118445251e-05 1.8285079803e+00 -3.1670687239e+00 1.8285079803e+00 3.1670687239e+00 
52700 4.8790501318e+00 7.0126798165e-05 1.8285079803e+00 -3.1670687239e+00 1.8285079803e+00 3.1670687239e+00 
52800 4.8790501322e+00 7.0134728845e-05 1.8285079803e+00 -3.1670687239e+00 1.8285079803e+00 3.1670687239e+00 
52900 4.8790501326e+00 7.0142258274e-05 1.8285079803e+00 -3.1670687239e+00 1.8285079803e+00 3.1670687239e+00 
53000 4.8790501331e+00 7.0149406886e-05 1.8285079803e+00 -3.1670687239e+00 1.8285079803e+00 3.1670687239e+00 
53100 4.8790501335e+00 7.0156194542e-05 1.8285079803e+00 -3.1670687239e+00 1.8285079803e+00 3.1670687239e+00 
53200 4.8790501339e+00 7.0162640524e-05 1.8285079803e+00 -3.1670687239e+00 1.8285079803e+00 3.1670687239e+00 
53300 4.8790501342e+00 7.0168763517e-05 1.8285079803e+00 -3.1670687239e+00 1.8285079803e+00 3.1670687239e+00 
53400 4.8790501346e+00 7.0174581601e-05 1.8285079803e+00 -3.1670687239e+00 1.8285079803e+00 3.1670687239e+00 
53500 4.8790501350e+00 7.0180112247e-05 1.8285079803e+00 -3.1670687239e+00 1.8285079803e+00 3.1670687239e+00 
53600 4.8790501354e+00 7.0185372305e-05 1.8285079803e+00 -3.1670687239e+00 1.8285079803e+00 3.1670687239e+00 
53700 4.8790501357e+00 7.0190378009e-05 1.8285079803e+00 -3.1670687239e+00 1.8285079803e+00 3.1670687239e+00 
53800 4.8790501361e+00 7.0195144970e-05 1.8285079803e+00 -3.1670687239e+00 1.8285079803e+00 3.1670687239e+00 
53900 4.8790501365e+00 7.0199688177e-05 1.8285079803e+00 -3.1670687239e+00 1.8285079803e+00 3.1670687239e+00 
54000 4.8790501368e+00 7.0204022000e-05 1.8285079803e+00 -3.1670687239e+00 1.8285079803e+00 3.1670687239e+00 
54100 4.8790501371e+00 7.0208160192e-05 1.8285079803e+00 -3.1670687239e+00 1.8285079803e+00 3.1670687239e+00 
54200 4.8790501375e+00 7.0212115897e-05 1.8285079803e+00 -3.1670687239e+00 1.8285079803e+00 3.1670687239e+00 
54300 4.8790501378e+00 7.0215901653e-05 1.8285079803e+00 -3.1670687239e+00 1.8285079803e+00 3.1670687239e+00 
54400 4.8790501381e+00 7.0219529398e-05 1.8285079803e+00 -3.1670687239e+00 1.8285079803e+00 3.1670687239e+00 
54500 4.8790501385e+00 7.0223010483e-05 1.8285079803e+00 -3.1670687239e+00 1.8285079803e+00 3.1670687239e+00 
54600 4.8790501388e+00 7.0226355679e-05 1.8285079803e+00 -3.1670687239e+00 1.8285079803e+00 3.1670687239e+00 
54700 4.8790501391e+00 7.0229575185e-05 1.8285079803e+00 -3.1670687239e+00 1.8285079803e+00 3.1670687239e+00 
54800 4.8790501394e+00 7.0232678646e-05 1.8285079803e+00 -3.1670687239e+00 1.8285079803e+00 3.1670687239e+00 
54900 4.8790501397e+00 7.0235675156e-05 1.8285079803e+00 -3.1670687239e+00 1.8285079803e+00 3.1670687239e+00 
55000 4.8790501400e+00 7.0238573281e-05 1.8285079803e+00 -3.1670687239e+00 1.8285079803e+00 3.1670687239e+00 
55100 4.8790501402e+00 7.0241381062e-05 1.8285079803e+00 -3.1670687239e+00 1.8285079803e+00 3.1670687239e+00 
55200 4.8790501405e+00 7.0244106036e-05 1.8285079803e+00 -3.1670687239e+00 1.8285079803e+00 3.1670687239e+00 
55300 4.8790501408e+00 7.0246755249e-05 1.8285079803e+00 -3.1670687239e+00 1.8285079803e+00 3.1670687239e+00 
55400 4.8790501411e+00 7.0249335270e-05 1.8285079803e+00 -3.1670687239e+00 1.8285079803e+00 3.1670687239e+00 
55500 4.8790501413e+00 7.0251852206e-05 1.8285079803e+00 -3.1670687239e+00 1.8285079803e+00 3.1670687239e+00 
55600 4.8790501416e+00 7.0254311716e-05 1.8285079803e+00 -3.1670687239e+00 1.8285079803e+00 3.1670687239e+00 
55700 4.8790501419e+00 7.0256719033e-05 1.8285079803e+00 -3.1670687239e+00 1.8285079803e+00 3.1670687239e+00 
55800 4.8790501421e+00 7.0259078971e-05 1.8285079803e+00 -3.1670687239e+00 1.8285079803e+00 3.1670687239e+00 
55900 4.8790501424e+00 7.0261395949e-05 1.8285079803e+00 -3.1670687239e+00 1.8285079803e+00 3.1670687239e+00 
56000 4.8790501426e+00 7.0263674001e-05 1.8285079803e+00 -3.1670687239e+00 1.8285079803e+00 3.1670687239e+00 
56100 4.8790501429e+00 7.0265916796e-05 1.8285079803e+00 -3.1670687239e+00 1.8285079803e+00 3.1670687239e+00 
56200 4.8790501431e+00 7.0268127653e-05 1.8285079803e+00 -3.1670687239e+00 1.8285079803e+00 3.1670687239e+00 
56300 4.8790501433e+00 7.0270309557e-05 1.8285079803e+00 -3.1670687239e+00 1.8285079803e+00 3.1670687239e+00 
56400 4.8790501436e+00 7.0272465175e-05 1.8285079803e+00 -3.1670687239e+00 1.8285079803e+00 3.1670687239e+00 
56500 4.8790501438e+00 7.0274596871e-05 1.8285079803e+00 -3.1670687239e+00 1.8285079803e+00 3.1670687239e+00 
56600 4.8790501440e+00 7.0276706722e-05 1.8285079803e+00 -3.1670687239e+00 1.8285079803e+00 3.1670687239e+00 
56700 4.8790501442e+00 7.0278796535e-05 1.8285079803e+00 -3.1670687239e+00 1.8285079803e+00 3.1670687239e+00 
56800 4.8790501444e+00 7.0280867862e-05 1.8285079803e+00 -3.1670687239e+00 1.8285079803e+00 3.1670687239e+00 
56900 4.8790501446e+00 7.0282922011e-05 1.8285079803e+00 -3.1670687239e+00 1.8285079803e+00 3.1670687239e+00 
57000 4.8790501448e+00 7.0284960068e-05 1.8285079803e+00 -3.1670687239e+00 1.8285079803e+00 3.1670687239e+00 
57100 4.8790501450e+00 7.0286982904e-05 1.8285079803e+00 -3.1670687239e+00 1.8285079803e+00 3.1670687239e+00 
57200 4.8790501452e+00 7.0288991193e-05 1.8285079803e+00 -3.1670687239e+00 1.8285079803e+00 3.1670687239e+00 
57300 4.8790501454e+00 7.0290985424e-05 1.8285079803e+00 -3.1670687239e+00 1.8285079803e+00 3.1670687239e+00 
57400 4.8790501456e+00 7.0292965921e-05 1.8285079803e+00 -3.1670687239e+00 1.8285079803e+00 3.1670687239e+00 
57500 4.8790501458e+00 7.0294932844e-05 1.8285079803e+00 -3.1670687239e+00 1.8285079803e+00 3.1670687239e+00 
57600 4.8790501460e+00 7.0296886210e-05 1.8285079803e+00 -3.1670687239e+00 1.8285079803e+00 3.1670687239e+00 
57700 4.8790501462e+00 7.0298825904e-05 1.8285079803e+00 -3.1670687239e+00 1.8285079803e+00 3.1670687239e+00 
57800 4.8790501464e+00 7.0300751692e-05 1.8285079803e+00 -3.1670687239e+00 1.8285079803e+00 3.1670687239e+00 
57900 4.8790501465e+00 7.0302663226e-05 1.8285079803e+00 -3.1670687239e+00 1.8285079803e+00 3.1670687239e+00 
58000 4.8790501467e+00 7.0304560064e-05 1.8285079803e+00 -3.1670687239e+00 1.8285079803e+00 3.1670687239e+00 
58100 4.8790501469e+00 7.0306441674e-05 1.8285079803e+00 -3.1670687239e+00 1.8285079803e+00 3.1670687239e+00 
58200 4.8790501471e+00 7.0308307446e-05 1.8285079803e+00 -3.1670687239e+00 1.8285079803e+00 3.1670687239e+00 
58300 4.8790501472e+00 7.0310156705e-05 1.8285079803e+00 -3.1670687239e+00 1.8285079803e+00 3.1670687239e+00 
58400 4.8790501474e+00 7.0311988713e-05 1.8285079803e+00 -3.1670687239e+00 1.8285079803e+00 3.1670687239e+00 
58500 4.8790501475e+00 7.0313802686e-05 1.8285079803e+00 -3.1670687239e+00 1.8285079803e+00 3.1670687239e+00 
58600 4.8790501477e+00 7.0315597796e-05 1.8285079803e+00 -3.1670687239e+00 1.8285079803e+00 3.1670687239e+00 
58700 4.8790501479e+00 7.0317373182e-05 1.8285079803e+00 -3.1670687239e+00 1.8285079803e+00 3.1670687239e+00 
58800 4.8790501480e+00 7.0319127959e-05 1.8285079803e+00 -3.1670687239e+00 1.8285079803e+00 3.1670687239e+00 
58900 4.8790501482e+00 7.0320861221e-05 1.8285079803e+00 -3.1670687239e+00 1.8285079803e+00 3.1670687239e+00 
59000 4.8790501483e+00 7.0322572051e-05 1.8285079803e+00 -3.1670687239e+00 1.8285079803e+00 3.1670687239e+00 
59100 4.8790501484e+00 7.0324259527e-05 1.8285079803e+00 -3.1670687239e+00 1.8285079803e+00 3.1670687239e+00 
59200 4.8790501486e+00 7.0325922726e-05 1.8285079803e+00 -3.1670687239e+00 1.8285079803e+00 3.1670687239e+00 
59300 4.8790501487e+00 7.0327560733e-05 1.8285079803e+00 -3.1670687239e+00 1.8285079803e+00 3.1670687239e+00 
59400 4.8790501489e+00 7.0329172642e-05 1.8285079803e+00 -3.1670687239e+00 1.8285079803e+00 3.1670687239e+00 
59500 4.8790501490e+00 7.0330757563e-05 1.8285079803e+00 -3.1670687239e+00 1.8285079803e+00 3.1670687239e+00 
59600 4.8790501491e+00 7.0332314626e-05 1.8285079803e+00 -3.1670687239e+00 1.8285079803e+00 3.1670687239e+00 
59700 4.8790501493e+00 7.0333842988e-05 1.8285079803e+00 -3.1670687239e+00 1.8285079803e+00 3.1670687239e+00 
59800 4.8790501494e+00 7.0335341830e-05 1.8285079803e+00 -3.1670687239e+00 1.8285079803e+00 3.1670687239e+00 
59900 4.8790501495e+00 7.0336810367e-05 1.8285079803e+00 -3.1670687239e+00 1.8285079803e+00 3.1670687239e+00 
60000 4.8790501496e+00 7.0338247847e-05 1.8285079803e+00 -3.1670687239e+00 1.8285079803e+00 3.1670687239e+00 
60100 4.8790501498e+00 7.0339653554e-05 1.8285079803e+00 -3.1670687239e+00 1.8285079803e+00 3.1670687239e+00 
60200 4.8790501499e+00 7.0341026816e-05 1.8285079803e+00 -3.1670687239e+00 1.8285079803e+00 3.1670687239e+00 
60300 4.8790501500e+00 7.0342366998e-05 1.8285079803e+00 -3.1670687239e+00 1.8285079803e+00 3.1670687239e+00 
60400 4.8790501501e+00 7.0343673510e-05 1.8285079803e+00 -3.1670687239e+00 1.8285079803e+00 3.1670687239e+00 
60500 4.8790501502e+00 7.0344945807e-05 1.8285079803e+00 -3.1670687239e+00 1.8285079803e+00 3.1670687239e+00 
60600 4.8790501503e+00 7.0346183389e-05 1.8285079803e+00 -3.1670687239e+00 1.8285079803e+00 3.1670687239e+00 
60700 4.8790501505e+00 7.0347385807e-05 1.8285079803e+00 -3.1670687239e+00 1.8285079803e+00 3.1670687239e+00 
60800 4.8790501506e+00 7.0348552656e-05 1.8285079803e+00 -3.1670687239e+00 1.8285079803e+00 3.1670687239e+00 
60900 4.8790501507e+00 7.0349683582e-05 1.8285079803e+00 -3.1670687239e+00 1.8285079803e+00 3.1670687239e+00 
61000 4.8790501508e+00 7.0350778280e-05 1.8285079803e+00 -3.1670687239e+00 1.8285079803e+00 3.1670687239e+00 
61100 4.8790501509e+00 7.0351836495e-05 1.8285079803e+00 -3.1670687239e+00 1.8285079803e+00 3.1670687239e+00 
61200 4.8790501510e+00 7.0352858019e-05 1.8285079803e+00 -3.1670687239e+00 1.8285079803e+00 3.1670687239e+00 
61300 4.8790501511e+00 7.0353842696e-05 1.8285079803e+00 -3.1670687239e+00 1.8285079803e+00 3.1670687239e+00 
61400 4.8790501512e+00 7.0354790415e-05 1.8285079803e+00 -3.1670687239e+00 1.8285079803e+00 3.1670687239e+00 
61500 4.8790501513e+00 7.0355701119e-05 1.8285079803e+00 -3.1670687239e+00 1.8285079803e+00 3.1670687239e+00 
61600 4.8790501514e+00 7.0356574793e-05 1.8285079803e+00 -3.1670687239e+00 1.8285079803e+00 3.1670687239e+00 
61700 4.8790501515e+00 7.0357411474e-05 1.8285079803e+00 -3.1670687239e+00 1.8285079803e+00 3.1670687239e+00 
61800 4.8790501516e+00 7.0358211239e-05 1.8285079803e+00 -3.1670687239e+00 1.8285079803e+00 3.1670687239e+00 
61900 4.8790501516e+00 7.0358974217e-05 1.8285079803e+00 -3.1670687239e+00 1.8285079803e+00 3.1670687239e+00 
62000 4.8790501517e+00 7.0359700574e-05 1.8285079803e+00 -3.1670687239e+00 1.8285079803e+00 3.1670687239e+00 
62100 4.8790501518e+00 7.0360390524e-05 1.8285079803e+00 -3.1670687239e+00 1.8285079803e+00 3.1670687239e+00 
62200 4.8790501519e+00 7.0361044319e-05 1.8285079803e+00 -3.1670687239e+00 1.8285079803e+00 3.1670687239e+00 
62300 4.8790501520e+00 7.0361662252e-05 1.8285079803e+00 -3.1670687239e+00 1.8285079803e+00 3.1670687239e+00 
62400 4.8790501521e+00 7.0362244655e-05 1.8285079803e+00 -3.1670687239e+00 1.8285079803e+00 3.1670687239e+00 
62500 4.8790501522e+00 7.0362791896e-05 1.8285079803e+00 -3.1670687239e+00 1.8285079803e+00 3.1670687239e+00 
62600 4.8790501522e+00 7.0363304380e-05 1.8285079803e+00 -3.1670687239e+00 1.8285079803e+00 3.1670687239e+00 
62700 4.8790501523e+00 7.0363782543e-05 1.8285079803e+00 -3.1670687239e+00 1.8285079803e+00 3.1670687239e+00 
62800 4.8790501524e+00 7.0364226855e-05 1.8285079803e+00 -3.1670687239e+00 1.8285079803e+00 3.1670687239e+00 
62900 4.8790501525e+00 7.0364637817e-05 1.8285079803e+00 -3.1670687239e+00 1.8285079803e+00 3.1670687239e+00 
63000 4.8790501525e+00 7.0365015957e-05 1.8285079803e+00 -3.1670687239e+00 1.8285079803e+00 3.1670687239e+00 
63100 4.8790501526e+00 7.0365361831e-05 1.8285079803e+00 -3.1670687239e+00 1.8285079803e+00 3.1670687239e+00 
63200 4.8790501527e+00 7.0365676021e-05 1.8285079803e+00 -3.1670687239e+00 1.8285079803e+00 3.1670687239e+00 
63300 4.8790501528e+00 7.0365959130e-05 1.8285079803e+00 -3.1670687239e+00 1.8285079803e+00 3.1670687239e+00 
63400 4.8790501528e+00 7.0366211786e-05 1.8285079803e+00 -3.1670687239e+00 1.8285079803e+00 3.1670687239e+00 
63500 4.8790501529e+00 7.0366434635e-05 1.8285079803e+00 -3.1670687239e+00 1.8285079803e+00 3.1670687239e+00 
63600 4.8790501530e+00 7.0366628343e-05 1.8285079803e+00 -3.1670687239e+00 1.8285079803e+00 3.1670687239e+00 
63700 4.8790501530e+00 7.0366793590e-05 1.8285079803e+00 -3.1670687239e+00 1.8285079803e+00 3.1670687239e+00 
63800 4.8790501531e+00 7.0366931073e-05 1.8285079803e+00 -3.1670687239e+00 1.8285079803e+00 3.1670687239e+00 
63900 4.8790501532e+00 7.0367041504e-05 1.8285079803e+00 -3.1670687239e+00 1.8285079803e+00 3.1670687239e+00 
64000 4.8790501532e+00 7.0367125603e-05 1.8285079803e+00 -3.1670687239e+00 1.8285079803e+00 3.1670687239e+00 
64100 4.8790501533e+00 7.0367184101e-05 1.8285079803e+00 -3.1670687239e+00 1.8285079803e+00 3.1670687239e+00 
64200 4.8790501534e+00 7.0367217740e-05 1.8285079803e+00 -3.1670687239e+00 1.8285079803e+00 3.1670687239e+00 
64300 4.8790501534e+00 7.0367227267e-05 1.8285079803e+00 -3.1670687239e+00 1.8285079803e+00 3.1670687239e+00 
64400 4.8790501535e+00 7.0367213435e-05 1.8285079803e+00 -3.1670687239e+00 1.8285079803e+00 3.1670687239e+00 
64500 4.8790501535e+00 7.0367177000e-05 1.8285079803e+00 -3.1670687239e+00 1.8285079803e+00 3.1670687239e+00 
64600 4.8790501536e+00 7.0367118722e-05 1.8285079803e+00 -3.1670687239e+00 1.8285079803e+00 3.1670687239e+00 
64700 4.8790501536e+00 7.0367039362e-05 1.8285079803e+00 -3.1670687239e+00 1.8285079803e+00 3.1670687239e+00 
64800 4.8790501537e+00 7.0366939681e-05 1.8285079803e+00 -3.1670687239e+00 1.8285079803e+00 3.1670687239e+00 
64900 4.8790501538e+00 7.0366820439e-05 1.8285079803e+00 -3.1670687239e+00 1.8285079803e+00 3.1670687239e+00 
65000 4.8790501538e+00 7.0366682393e-05 1.8285079803e+00 -3.1670687239e+00 1.8285079803e+00 3.1670687239e+00 
65100 4.8790501539e+00 7.0366526296e-05 1.8285079803e+00 -3.1670687239e+00 1.8285079803e+00 3.1670687239e+00 
65200 4.8790501539e+00 7.0366352897e-05 1.8285079803e+00 -3.1670687239e+00 1.8285079803e+00 3.1670687239e+00 
65300 4.8790501540e+00 7.0366162940e-05 1.8285079803e+00 -3.1670687239e+00 1.8285079803e+00 3.1670687239e+00 
65400 4.8790501540e+00 7.0365957159e-05 1.8285079803e+00 -3.1670687239e+00 1.8285079803e+00 3.1670687239e+00 
65500 4.8790501541e+00 7.0365736284e-05 1.8285079803e+00 -3.1670687239e+00 1.8285079803e+00 3.1670687239e+00 
65600 4.8790501541e+00 7.0365681109e-05 1.8285079803e+00 -3.1670687239e+00 1.8285079803e+00 3.1670687239e+00 
65600 4.8790501541e+00 7.0365681109e-05 1.8285079803e+00 -3.1670687239e+00 1.8285079803e+00 3.1670687239e+00 
