# step Hamiltonian StressXX CellTensor1 CellTensor2 CellTensor3 CellTensor4 
0 5.1797530022e+00 3.8830879436e-02 2.8237630504e+00 -4.8909010719e+00 2.8237630504e+00 4.8909010719e+00 
100 5.0167483958e+00 2.4834406360e-02 2.8237630504e+00 -4.8909010719e+00 2.8237630504e+00 4.8909010719e+00 
200 4.8728345634e+00 1.4222402878e-02 2.8233233223e+00 -4.8901394404e+00 2.8233233223e+00 4.8901394404e+00 
300 4.7461029912e+00 6.8419183090e-03 2.8230714526e+00 -4.8897031893e+00 2.8230714526e+00 4.8897031893e+00 
400 4.6347834244e+00 2.4508440123e-03 2.8229502748e+00 -4.8894933033e+00 2.8229502748e+00 4.8894933033e+00 
500 4.5372488037e+00 8.0077394762e-04 2.8229068657e+00 -4.8894181164e+00 2.8229068657e+00 4.8894181164e+00 
600 4.4520038402e+00 1.6416532316e-03 2.8228926822e+00 -4.8893935499e+00 2.8228926822e+00 4.8893935499e+00 
700 4.3776752894e+00 4.7254854545e-03 2.8228636047e+00 -4.8893431863e+00 2.8228636047e+00 4.8893431863e+00 
800 4.3130034474e+00 9.8090984874e-03 2.8227799050e+00 -4.8891982140e+00 2.8227799050e+00 4.8891982140e+00 
900 4.2568345433e+00 1.6656007714e-02 2.8226061578e+00 -4.8888972751e+00 2.8226061578e+00 4.8888972751e+00 
1000 4.2081138271e+00 2.5037450754e-02 2.8223111164e+00 -4.8883862483e+00 2.8223111164e+00 4.8883862483e+00 
1100 4.1658792523e+00 3.4732705164e-02 2.8218675651e+00 -4.8876179949e+00 2.8218675651e+00 4.8876179949e+00 
1200 4.1292557279e+00 4.5528845168e-02 2.8212521669e+00 -4.8865520940e+00 2.8212521669e+00 4.8865520940e+00 
1300 4.0974499720e+00 5.7220147071e-02 2.8204453146e+00 -4.8851545849e+00 2.8204453146e+00 4.8851545849e+00 
1400 4.0697460266e+00 6.9607411376e-02 2.8194309940e+00 -4.8833977301e+00 2.8194309940e+00 4.8833977301e+00 
1500 4.0455014934e+00 8.2497520687e-02 2.8181966611e+00 -4.8812598028e+00 2.8181966611e+00 4.8812598028e+00 
1600 4.0241445106e+00 9.5703573983e-02 2.8167331299e+00 -4.8787248923e+00 2.8167331299e+00 4.8787248923e+00 
1700 4.0051714012e+00 1.0904590096e-01 2.8150344608e+00 -4.8757827112e+00 2.8150344608e+00 4.8757827112e+00 
1800 3.9881448038e+00 1.2235413765e-01 2.8130978347e+00 -4.8724283763e+00 2.8130978347e+00 4.8724283763e+00 
1900 3.9726919462e+00 1.3547032715e-01 2.8109233927e+00 -4.8686621323e+00 2.8109233927e+00 4.8686621323e+00 
2000 3.9585026013e+00 1.4825272359e-01 2.8085140251e+00 -4.8644889852e+00 2.8085140251e+00 4.8644889852e+00 
2100 3.9453262166e+00 1.6057969560e-01 2.8058750943e+00 -4.8599182231e+00 2.8058750943e+00 4.8599182231e+00 
2200 3.9329677810e+00 1.7235295195e-01 2.8030140907e+00 -4.8549628195e+00 2.8030140907e+00 4.8549628195e+00 
2300 3.9212822127e+00 1.8349934007e-01 2.7999402316e+00 -4.8496387393e+00 2.7999402316e+00 4.8496387393e+00 
2400 3.9101673622e+00 1.9397072952e-01 2.7966640276e+00 -4.8439641875e+00 2.7966640276e+00 4.8439641875e+00 
2500 3.8995560546e+00 2.0374191831e-01 2.7931968505e+00 -4.8379588606e+00 2.7931968505e+00 4.8379588606e+00 
2600 3.8894078294e+00 2.1280694505e-01 2.7895505353e+00 -4.8316432574e+00 2.7895505353e+00 4.8316432574e+00 
2700 3.8797010942e+00 2.2117449895e-01 2.7857370467e+00 -4.8250381014e+00 2.7857370467e+00 4.8250381014e+00 
2800 3.8704262995e+00 2.2886320323e-01 2.7817682246e+00 -4.8181639000e+00 2.7817682246e+00 4.8181639000e+00 
2900 3.8615805030e+00 2.3589741702e-01 2.7776556118e+00 -4.8110406456e+00 2.7776556118e+00 4.8110406456e+00 
3000 3.8531634250e+00 2.4230394691e-01 2.7734103552e+00 -4.8036876454e+00 2.7734103552e+00 4.8036876454e+00 
3100 3.8451748711e+00 2.4810978827e-01 2.7690431644e+00 -4.7961234492e+00 2.7690431644e+00 4.7961234492e+00 
3200 3.8376132652e+00 2.5334080966e-01 2.7645643109e+00 -4.7883658472e+00 2.7645643109e+00 4.7883658472e+00 
3300 3.8304749854e+00 2.5802117887e-01 2.7599836485e+00 -4.7804319073e+00 2.7599836485e+00 4.7804319073e+00 
3400 3.8237542180e+00 2.6217329813e-01 2.7553106458e+00 -4.7723380291e+00 2.7553106458e+00 4.7723380291e+00 
3500 3.8174430995e+00 2.6581803865e-01 2.7505544177e+00 -4.7641000004e+00 2.7505544177e+00 4.7641000004e+00 
3600 3.8115319845e+00 2.6897511316e-01 2.7457237539e+00 -4.7557330453e+00 2.7457237539e+00 4.7557330453e+00 
3700 3.8060097373e+00 2.7166347644e-01 2.7408271397e+00 -4.7472518607e+00 2.7408271397e+00 4.7472518607e+00 
3800 3.8008639947e+00 2.7390168863e-01 2.7358727692e+00 -4.7386706393e+00 2.7358727692e+00 4.7386706393e+00 
3900 3.7960813780e+00 2.7570820845e-01 2.7308685524e+00 -4.7300030816e+00 2.7308685524e+00 4.7300030816e+00 
4000 3.7916476533e+00 2.7710160570e-01 2.7258221156e+00 -4.7212623966e+00 2.7258221156e+00 4.7212623966e+00 
4100 3.7875478517e+00 2.7810069557e-01 2.7207407986e+00 -4.7124612974e+00 2.7207407986e+00 4.7124612974e+00 
4200 3.7837663617e+00 2.7872460417e-01 2.7156316485e+00 -4.7036119898e+00 2.7156316485e+00 4.7036119898e+00 
4300 3.7802870075e+00 2.7899277778e-01 2.7105014120e+00 -4.6947261595e+00 2.7105014120e+00 4.6947261595e+00 
4400 3.7770931272e+00 2.7892494873e-01 2.7053565277e+00 -4.6858149586e+00 2.7053565277e+00 4.6858149586e+00 
4500 3.7741676570e+00 2.7854107015e-01 2.7002031183e+00 -4.6768889916e+00 2.7002031183e+00 4.6768889916e+00 
4600 3.7714932273e+00 2.7786123001e-01 2.6950469835e+00 -4.6679583041e+00 2.6950469835e+00 4.6679583041e+00 
4700 3.7690522736e+00 2.7690555325e-01 2.6898935950e+00 -4.6590323736e+00 2.6898935950e+00 4.6590323736e+00 
4800 3.7668271605e+00 2.7569409892e-01 2.6847480927e+00 -4.6501201021e+00 2.6847480927e+00 4.6501201021e+00 
4900 3.7648003165e+00 2.7424675757e-01 2.6796152824e+00 -4.6412298138e+00 2.6796152824e+00 4.6412298138e+00 
5000 3.7629543760e+00 2.7258315265e-01 2.6744996357e+00 -4.6323692538e+00 2.6744996357e+00 4.6323692538e+00 
5100 3.7612723234e+00 2.7072254852e-01 2.6694052917e+00 -4.6235455912e+00 2.6694052917e+00 4.6235455912e+00 
5200 3.7597376352e+00 2.6868376662e-01 2.6643360600e+00 -4.6147654244e+00 2.6643360600e+00 4.6147654244e+00 
5300 3.7583344131e+00 2.6648511063e-01 2.6592954260e+00 -4.6060347902e+00 2.6592954260e+00 4.6060347902e+00 
5400 3.7570475074e+00 2.6414430101e-01 2.6542865566e+00 -4.5973591739e+00 2.6542865566e+00 4.5973591739e+00 
5500 3.7558626233e+00 2.6167841870e-01 2.6493123081e+00 -4.5887435228e+00 2.6493123081e+00 4.5887435228e+00 
5600 3.7547664105e+00 2.5910385775e-01 2.6443752351e+00 -4.5801922615e+00 2.6443752351e+00 4.5801922615e+00 
5700 3.7537465321e+00 2.5643628636e-01 2.6394775999e+00 -4.5717093085e+00 2.6394775999e+00 4.5717093085e+00 
5800 3.7527917129e+00 2.5369061586e-01 2.6346213836e+00 -4.5632980951e+00 2.6346213836e+00 4.5632980951e+00 
5900 3.7518917675e+00 2.5088097692e-01 2.6298082972e+00 -4.5549615849e+00 2.6298082972e+00 4.5549615849e+00 
6000 3.7510376069e+00 2.4802070259e-01 2.6250397938e+00 -4.5467022947e+00 2.6250397938e+00 4.5467022947e+00 
6100 3.7502212279e+00 2.4512231749e-01 2.6203170810e+00 -4.5385223163e+00 2.6203170810e+00 4.5385223163e+00 
6200 3.7494356836e+00 2.4219753281e-01 2.6156411343e+00 -4.5304233390e+00 2.6156411343e+00 4.5304233390e+00 
6300 3.7486750404e+00 2.3925724640e-01 2.6110127097e+00 -4.5224066724e+00 2.6110127097e+00 4.5224066724e+00 
6400 3.7479343211e+00 2.3631154778e-01 2.6064323576e+00 -4.5144732698e+00 2.6064323576e+00 4.5144732698e+00 
6500 3.7472094394e+00 2.3336972744e-01 2.6019004363e+00 -4.5066237518e+00 2.6019004363e+00 4.5066237518e+00 
6600 3.7464971254e+00 2.3044029007e-01 2.5974171253e+00 -4.4988584295e+00 2.5974171253e+00 4.4988584295e+00 
6700 3.7457948468e+00 2.2753097140e-01 2.5929824394e+00 -4.4911773281e+00 2.5929824394e+00 4.4911773281e+00 
6800 3.7451007268e+00 2.2464875816e-01 2.5885962412e+00 -4.4835802100e+00 2.5885962412e+00 4.4835802100e+00 
6900 3.7444134618e+00 2.2179991084e-01 2.5842582551e+00 -4.4760665977e+00 2.5842582551e+00 4.4760665977e+00 
7000 3.7437322391e+00 2.1898998887e-01 2.5799680797e+00 -4.4686357960e+00 2.5799680797e+00 4.4686357960e+00 
7100 3.7430566588e+00 2.1622387790e-01 2.5757252007e+00 -4.4612869139e+00 2.5757252007e+00 4.4612869139e+00 
7200 3.7423866578e+00 2.1350581878e-01 2.5715290027e+00 -4.4540188858e+00 2.5715290027e+00 4.4540188858e+00 
7300 3.7417224406e+00 2.1083943793e-01 2.5673787816e+00 -4.4468304919e+00 2.5673787816e+00 4.4468304919e+00 
7400 3.7410644142e+00 2.0822777882e-01 2.5632737553e+00 -4.4397203779e+00 2.5632737553e+00 4.4397203779e+00 
7500 3.7404131307e+00 2.0567333422e-01 2.5592130751e+00 -4.4326870735e+00 2.5592130751e+00 4.4326870735e+00 
7600 3.7397692355e+00 2.0317807896e-01 2.5551958358e+00 -4.4257290109e+00 2.5551958358e+00 4.4257290109e+00 
7700 3.7391334226e+00 2.0074350299e-01 2.5512210855e+00 -4.4188445415e+00 2.5512210855e+00 4.4188445415e+00 
7800 3.7385063966e+00 1.9837064440e-01 2.5472878351e+00 -4.4120319519e+00 2.5472878351e+00 4.4120319519e+00 
7900 3.7378888410e+00 1.9606012230e-01 2.5433950667e+00 -4.4052894793e+00 2.5433950667e+00 4.4052894793e+00 
8000 3.7372813925e+00 1.9381216930e-01 2.5395417423e+00 -4.3986153256e+00 2.5395417423e+00 4.3986153256e+00 
8100 3.7366846216e+00 1.9162666349e-01 2.5357268107e+00 -4.3920076703e+00 2.5357268107e+00 4.3920076703e+00 
8200 3.7360990176e+00 1.8950315970e-01 2.5319492153e+00 -4.3854646830e+00 2.5319492153e+00 4.3854646830e+00 
8300 3.7355249788e+00 1.8744091989e-01 2.5282078999e+00 -4.3789845347e+00 2.5282078999e+00 4.3789845347e+00 
8400 3.7349628073e+00 1.8543894277e-01 2.5245018153e+00 -4.3725654079e+00 2.5245018153e+00 4.3725654079e+00 
8500 3.7344127064e+00 1.8349599222e-01 2.5208299243e+00 -4.3662055060e+00 2.5208299243e+00 4.3662055060e+00 
8600 3.7338747821e+00 1.8161062478e-01 2.5171912065e+00 -4.3599030620e+00 2.5171912065e+00 4.3599030620e+00 
8700 3.7333490467e+00 1.7978121583e-01 2.5135846631e+00 -4.3536563457e+00 2.5135846631e+00 4.3536563457e+00 
8800 3.7328354243e+00 1.7800598476e-01 2.5100093206e+00 -4.3474636707e+00 2.5100093206e+00 4.3474636707e+00 
8900 3.7323337586e+00 1.7628301868e-01 2.5064642339e+00 -4.3413234004e+00 2.5064642339e+00 4.3413234004e+00 
9000 3.7318438208e+00 1.7461029506e-01 2.5029484897e+00 -4.3352339529e+00 2.5029484897e+00 4.3352339529e+00 
9100 3.7313653192e+00 1.7298570293e-01 2.4994612089e+00 -4.3291938054e+00 2.4994612089e+00 4.3291938054e+00 
9200 3.7308979091e+00 1.7140706292e-01 2.4960015487e+00 -4.3232014981e+00 2.4960015487e+00 4.3232014981e+00 
9300 3.7304412024e+00 1.6987214589e-01 2.4925687041e+00 -4.3172556368e+00 2.4925687041e+00 4.3172556368e+00 
9400 3.7299947771e+00 1.6837869031e-01 2.4891619096e+00 -4.3113548956e+00 2.4891619096e+00 4.3113548956e+00 
9500 3.7295581871e+00 1.6692441842e-01 2.4857804399e+00 -4.3054980185e+00 2.4857804399e+00 4.3054980185e+00 
9600 3.7291309712e+00 1.6550705101e-01 2.4824236111e+00 -4.2996838203e+00 2.4824236111e+00 4.2996838203e+00 
9700 3.7287126604e+00 1.6412432104e-01 2.4790907803e+00 -4.2939111880e+00 2.4790907803e+00 4.2939111880e+00 
9800 3.7283027867e+00 1.6277398603e-01 2.4757813462e+00 -4.2881790801e+00 2.4757813462e+00 4.2881790801e+00 
9900 3.7279008886e+00 1.6145383924e-01 2.4724947491e+00 -4.2824865269e+00 2.4724947491e+00 4.2824865269e+00 
10000 3.7275065176e+00 1.6016171974e-01 2.4692304700e+00 -4.2768326297e+00 2.4692304700e+00 4.2768326297e+00 
10100 3.7271192427e+00 1.5889552132e-01 2.4659880304e+00 -4.2712165596e+00 2.4659880304e+00 4.2712165596e+00 
10200 3.7267386550e+00 1.5765320037e-01 2.4627669913e+00 -4.2656375562e+00 2.4627669913e+00 4.2656375562e+00 
10300 3.7263643703e+00 1.5643278271e-01 2.4595669524e+00 -4.2600949261e+00 2.4595669524e+00 4.2600949261e+00 
10400 3.7259960318e+00 1.5523236947e-01 2.4563875506e+00 -4.2545880407e+00 2.4563875506e+00 4.2545880407e+00 
10500 3.7256333120e+00 1.5405014197e-01 2.4532284594e+00 -4.2491163343e+00 2.4532284594e+00 4.2491163343e+00 
10600 3.7252759131e+00 1.5288436582e-01 2.4500893869e+00 -4.2436793012e+00 2.4500893869e+00 4.2436793012e+00 
10700 3.7249235677e+00 1.5173339407e-01 2.4469700747e+00 -4.2382764939e+00 2.4469700747e+00 4.2382764939e+00 
10800 3.7245760386e+00 1.5059566972e-01 2.4438702960e+00 -4.2329075198e+00 2.4438702960e+00 4.2329075198e+00 
10900 3.7242331181e+00 1.4946972735e-01 2.4407898546e+00 -4.2275720388e+00 2.4407898546e+00 4.2275720388e+00 
11000 3.7238946264e+00 1.4835419417e-01 2.4377285825e+00 -4.2222697600e+00 2.4377285825e+00 4.2222697600e+00 
11100 3.7235604109e+00 1.4724779046e-01 2.4346863387e+00 -4.2170004392e+00 2.4346863387e+00 4.2170004392e+00 
11200 3.7232303437e+00 1.4614932935e-01 2.4316630074e+00 -4.2117638757e+00 2.4316630074e+00 4.2117638757e+00 
11300 3.7229043202e+00 1.4505771614e-01 2.4286584959e+00 -4.2065599091e+00 2.4286584959e+00 4.2065599091e+00 
11400 3.7225822568e+00 1.4397194715e-01 2.4256727333e+00 -4.2013884167e+00 2.4256727333e+00 4.2013884167e+00 
11500 3.7222640887e+00 1.4289110807e-01 2.4227056687e+00 -4.1962493100e+00 2.4227056687e+00 4.1962493100e+00 
11600 3.7219497674e+00 1.4181437203e-01 2.4197572692e+00 -4.1911425323e+00 2.4197572692e+00 4.1911425323e+00 
11700 3.7216392592e+00 1.4074099725e-01 2.4168275184e+00 -4.1860680551e+00 2.4168275184e+00 4.1860680551e+00 
11800 3.7213325423e+00 1.3967032442e-01 2.4139164149e+00 -4.1810258758e+00 2.4139164149e+00 4.1810258758e+00 
11900 3.7210296048e+00 1.3860177383e-01 2.4110239702e+00 -4.1760160147e+00 2.4110239702e+00 4.1760160147e+00 
12000 3.7207304432e+00 1.3753484226e-01 2.4081502078e+00 -4.1710385122e+00 2.4081502078e+00 4.1710385122e+00 
12100 3.7204350598e+00 1.3646909973e-01 2.4052951611e+00 -4.1660934262e+00 2.4052951611e+00 4.1660934262e+00 
12200 3.7201434617e+00 1.3540418605e-01 2.4024588721e+00 -4.1611808296e+00 2.4024588721e+00 4.1611808296e+00 
12300 3.7198556586e+00 1.3433980728e-01 2.3996413903e+00 -4.1563008079e+00 2.3996413903e+00 4.1563008079e+00 
12400 3.7195716617e+00 1.3327573210e-01 2.3968427709e+00 -4.1514534569e+00 2.3968427709e+00 4.1514534569e+00 
12500 3.7192914823e+00 1.3221178810e-01 2.3940630738e+00 -4.1466388804e+00 2.3940630738e+00 4.1466388804e+00 
12600 3.7190151311e+00 1.3114785809e-01 2.3913023624e+00 -4.1418571880e+00 2.3913023624e+00 4.1418571880e+00 
12700 3.7187426166e+00 1.3008387632e-01 2.3885607024e+00 -4.1371084935e+00 2.3885607024e+00 4.1371084935e+00 
12800 3.7184739451e+00 1.2901982479e-01 2.3858381605e+00 -4.1323929126e+00 2.3858381605e+00 4.1323929126e+00 
12900 3.7182091195e+00 1.2795572952e-01 2.3831348039e+00 -4.1277105616e+00 2.3831348039e+00 4.1277105616e+00 
13000 3.7179481393e+00 1.2689165692e-01 2.3804506989e+00 -4.1230615554e+00 2.3804506989e+00 4.1230615554e+00 
13100 3.7176909998e+00 1.2582771022e-01 2.3777859104e+00 -4.1184460064e+00 2.3777859104e+00 4.1184460064e+00 
13200 3.7174376925e+00 1.2476402594e-01 2.3751405010e+00 -4.1138640228e+00 2.3751405010e+00 4.1138640228e+00 
13300 3.7171882044e+00 1.2370077046e-01 2.3725145299e+00 -4.1093157074e+00 2.3725145299e+00 4.1093157074e+00 
13400 3.7169425184e+00 1.2263813679e-01 2.3699080528e+00 -4.1048011568e+00 2.3699080528e+00 4.1048011568e+00 
13500 3.7167006133e+00 1.2157634127e-01 2.3673211213e+00 -4.1003204600e+00 2.3673211213e+00 4.1003204600e+00 
13600 3.7164624639e+00 1.2051562057e-01 2.3647537819e+00 -4.0958736976e+00 2.3647537819e+00 4.0958736976e+00 
13700 3.7162280411e+00 1.1945622872e-01 2.3622060757e+00 -4.0914609411e+00 2.3622060757e+00 4.0914609411e+00 
13800 3.7159973126e+00 1.1839843427e-01 2.3596780386e+00 -4.0870822523e+00 2.3596780386e+00 4.0870822523e+00 
13900 3.7157702427e+00 1.1734251765e-01 2.3571696999e+00 -4.0827376824e+00 2.3571696999e+00 4.0827376824e+00 
14000 3.7155467929e+00 1.1628876864e-01 2.3546810831e+00 -4.0784272715e+00 2.3546810831e+00 4.0784272715e+00 
14100 3.7153269222e+00 1.1523748394e-01 2.3522122048e+00 -4.0741510488e+00 2.3522122048e+00 4.0741510488e+00 
14200 3.7151105873e+00 1.1418896495e-01 2.3497630749e+00 -4.0699090315e+00 2.3497630749e+00 4.0699090315e+00 
14300 3.7148977433e+00 1.1314351570e-01 2.3473336967e+00 -4.0657012250e+00 2.3473336967e+00 4.0657012250e+00 
14400 3.7146883436e+00 1.1210144084e-01 2.3449240663e+00 -4.0615276226e+00 2.3449240663e+00 4.0615276226e+00 
14500 3.7144823406e+00 1.1106304389e-01 2.3425341727e+00 -4.0573882056e+00 2.3425341727e+00 4.0573882056e+00 
14600 3.7142796857e+00 1.1002862554e-01 2.3401639983e+00 -4.0532829431e+00 2.3401639983e+00 4.0532829431e+00 
14700 3.7140803298e+00 1.0899848213e-01 2.3378135180e+00 -4.0492117919e+00 2.3378135180e+00 4.0492117919e+00 
14800 3.7138842237e+00 1.0797290430e-01 2.3354827002e+00 -4.0451746970e+00 2.3354827002e+00 4.0451746970e+00 
14900 3.7136913178e+00 1.0695217568e-01 2.3331715061e+00 -4.0411715914e+00 2.3331715061e+00 4.0411715914e+00 
15000 3.7135015631e+00 1.0593657183e-01 2.3308798905e+00 -4.0372023966e+00 2.3308798905e+00 4.0372023966e+00 
15100 3.7133149107e+00 1.0492635920e-01 2.3286078012e+00 -4.0332670227e+00 2.3286078012e+00 4.0332670227e+00 
15200 3.7131313122e+00 1.0392179428e-01 2.3263551801e+00 -4.0293653684e+00 2.3263551801e+00 4.0293653684e+00 
15300 3.7129507200e+00 1.0292312285e-01 2.3241219625e+00 -4.0254973220e+00 2.3241219625e+00 4.0254973220e+00 
15400 3.7127730873e+00 1.0193057931e-01 2.3219080777e+00 -4.0216627611e+00 2.3219080777e+00 4.0216627611e+00 
15500 3.7125983681e+00 1.0094438618e-01 2.3197134494e+00 -4.0178615533e+00 2.3197134494e+00 4.0178615533e+00 
15600 3.7124265173e+00 9.9964753628e-02 2.3175379955e+00 -4.0140935567e+00 2.3175379955e+00 4.0140935567e+00 
15700 3.7122574908e+00 9.8991879152e-02 2.3153816288e+00 -4.0103586201e+00 2.3153816288e+00 4.0103586201e+00 
15800 3.7120912456e+00 9.8025947326e-02 2.3132442569e+00 -4.0066565833e+00 2.3132442569e+00 4.0066565833e+00 
15900 3.7119277397e+00 9.7067129628e-02 2.3111257827e+00 -4.0029872782e+00 2.3111257827e+00 4.0029872782e+00 
16000 3.7117669320e+00 9.6115584360e-02 2.3090261043e+00 -3.9993505286e+00 2.3090261043e+00 3.9993505286e+00 
16100 3.7116087824e+00 9.5171456632e-02 2.3069451159e+00 -3.9957461509e+00 2.3069451159e+00 3.9957461509e+00 
16200 3.7114532518e+00 9.4234878413e-02 2.3048827074e+00 -3.9921739547e+00 2.3048827074e+00 3.9921739547e+00 
16300 3.7113003021e+00 9.3305968655e-02 2.3028387653e+00 -3.9886337432e+00 2.3028387653e+00 3.9886337432e+00 
16400 3.7111498961e+00 9.2384833459e-02 2.3008131724e+00 -3.9851253134e+00 2.3008131724e+00 3.9851253134e+00 
16500 3.7110019971e+00 9.1471566307e-02 2.2988058085e+00 -3.9816484571e+00 2.2988058085e+00 3.9816484571e+00 
16600 3.7108565697e+00 9.0566248330e-02 2.2968165505e+00 -3.9782029611e+00 2.2968165505e+00 3.9782029611e+00 
16700 3.7107135787e+00 8.9668948621e-02 2.2948452724e+00 -3.9747886074e+00 2.2948452724e+00 3.9747886074e+00 
16800 3.7105729900e+00 8.8779724591e-02 2.2928918463e+00 -3.9714051740e+00 2.2928918463e+00 3.9714051740e+00 
16900 3.7104347699e+00 8.7898622349e-02 2.2909561418e+00 -3.9680524355e+00 2.2909561418e+00 3.9680524355e+00 
17000 3.7102988852e+00 8.7025677112e-02 2.2890380269e+00 -3.9647301630e+00 2.2890380269e+00 3.9647301630e+00 
17100 3.7101653033e+00 8.6160913644e-02 2.2871373677e+00 -3.9614381247e+00 2.2871373677e+00 3.9614381247e+00 
17200 3.7100339922e+00 8.5304346709e-02 2.2852540292e+00 -3.9581760867e+00 2.2852540292e+00 3.9581760867e+00 
17300 3.7099049201e+00 8.4455981543e-02 2.2833878750e+00 -3.9549438130e+00 2.2833878750e+00 3.9549438130e+00 
17400 3.7097780557e+00 8.3615814335e-02 2.2815387680e+00 -3.9517410656e+00 2.2815387680e+00 3.9517410656e+00 
17500 3.7096533680e+00 8.2783832724e-02 2.2797065701e+00 -3.9485676057e+00 2.2797065701e+00 3.9485676057e+00 
17600 3.7095308262e+00 8.1960016294e-02 2.2778911427e+00 -3.9454231932e+00 2.2778911427e+00 3.9454231932e+00 
17700 3.7094104001e+00 8.1144337077e-02 2.2760923469e+00 -3.9423075875e+00 2.2760923469e+00 3.9423075875e+00 
17800 3.7092920594e+00 8.0336760053e-02 2.2743100436e+00 -3.9392205477e+00 2.2743100436e+00 3.9392205477e+00 
17900 3.7091757743e+00 7.9537243653e-02 2.2725440937e+00 -3.9361618327e+00 2.2725440937e+00 3.9361618327e+00 
18000 3.7090615150e+00 7.8745740249e-02 2.2707943580e+00 -3.9331312016e+00 2.2707943580e+00 3.9331312016e+00 
18100 3.7089492521e+00 7.7962196647e-02 2.2690606979e+00 -3.9301284143e+00 2.2690606979e+00 3.9301284143e+00 
18200 3.7088389563e+00 7.7186554560e-02 2.2673429750e+00 -3.9271532309e+00 2.2673429750e+00 3.9271532309e+00 
18300 3.7087305985e+00 7.6418751083e-02 2.2656410514e+00 -3.9242054128e+00 2.2656410514e+00 3.9242054128e+00 
18400 3.7086241499e+00 7.5658719144e-02 2.2639547900e+00 -3.9212847222e+00 2.2639547900e+00 3.9212847222e+00 
18500 3.7085195817e+00 7.4906387952e-02 2.2622840542e+00 -3.9183909230e+00 2.2622840542e+00 3.9183909230e+00 
18600 3.7084168656e+00 7.4161683422e-02 2.2606287084e+00 -3.9155237801e+00 2.2606287084e+00 3.9155237801e+00 
18700 3.7083159730e+00 7.3424528593e-02 2.2589886181e+00 -3.9126830602e+00 2.2589886181e+00 3.9126830602e+00 
18800 3.7082168761e+00 7.2694844016e-02 2.2573636493e+00 -3.9098685317e+00 2.2573636493e+00 3.9098685317e+00 
18900 3.7081195468e+00 7.1972548143e-02 2.2557536695e+00 -3.9070799650e+00 2.2557536695e+00 3.9070799650e+00 
19000 3.7080239576e+00 7.1257557681e-02 2.2541585473e+00 -3.9043171322e+00 2.2541585473e+00 3.9043171322e+00 
19100 3.7079300810e+00 7.0549787941e-02 2.2525781521e+00 -3.9015798075e+00 2.2525781521e+00 3.9015798075e+00 
19200 3.7078378898e+00 6.9849153157e-02 2.2510123550e+00 -3.8988677673e+00 2.2510123550e+00 3.8988677673e+00 
19300 3.7077473571e+00 6.9155566797e-02 2.2494610280e+00 -3.8961807902e+00 2.2494610280e+00 3.8961807902e+00 
19400 3.7076584562e+00 6.8468941846e-02 2.2479240446e+00 -3.8935186568e+00 2.2479240446e+00 3.8935186568e+00 
19500 3.7075711607e+00 6.7789191075e-02 2.2464012795e+00 -3.8908811503e+00 2.2464012795e+00 3.8908811503e+00 
19600 3.7074854444e+00 6.7116227293e-02 2.2448926088e+00 -3.8882680559e+00 2.2448926088e+00 3.8882680559e+00 
19700 3.7074012813e+00 6.6449963573e-02 2.2433979098e+00 -3.8856791614e+00 2.2433979098e+00 3.8856791614e+00 
19800 3.7073186461e+00 6.5790313468e-02 2.2419170613e+00 -3.8831142566e+00 2.2419170613e+00 3.8831142566e+00 
19900 3.7072375133e+00 6.5137191205e-02 2.2404499434e+00 -3.8805731339e+00 2.2404499434e+00 3.8805731339e+00 
20000 3.7071578580e+00 6.4490511858e-02 2.2389964376e+00 -3.8780555879e+00 2.2389964376e+00 3.8780555879e+00 
20100 3.7070796554e+00 6.3850191512e-02 2.2375564265e+00 -3.8755614155e+00 2.2375564265e+00 3.8755614155e+00 
20200 3.7070028813e+00 6.3216147405e-02 2.2361297943e+00 -3.8730904160e+00 2.2361297943e+00 3.8730904160e+00 
20300 3.7069275116e+00 6.2588298053e-02 2.2347164263e+00 -3.8706423909e+00 2.2347164263e+00 3.8706423909e+00 
20400 3.7068535224e+00 6.1966563364e-02 2.2333162094e+00 -3.8682171440e+00 2.2333162094e+00 3.8682171440e+00 
20500 3.7067808905e+00 6.1350864733e-02 2.2319290313e+00 -3.8658144812e+00 2.2319290313e+00 3.8658144812e+00 
20600 3.7067095928e+00 6.0741125125e-02 2.2305547815e+00 -3.8634342105e+00 2.2305547815e+00 3.8634342105e+00 
20700 3.7066396064e+00 6.0137269145e-02 2.2291933502e+00 -3.8610761424e+00 2.2291933502e+00 3.8610761424e+00 
20800 3.7065709089e+00 5.9539223091e-02 2.2278446291e+00 -3.8587400890e+00 2.2278446291e+00 3.8587400890e+00 
20900 3.7065034783e+00 5.8946915002e-02 2.2265085111e+00 -3.8564258646e+00 2.2265085111e+00 3.8564258646e+00 
21000 3.7064372927e+00 5.8360274689e-02 2.2251848900e+00 -3.8541332857e+00 2.2251848900e+00 3.8541332857e+00 
21100 3.7063723306e+00 5.7779233758e-02 2.2238736610e+00 -3.8518621705e+00 2.2238736610e+00 3.8518621705e+00 
21200 3.7063085710e+00 5.7203725618e-02 2.2225747202e+00 -3.8496123390e+00 2.2225747202e+00 3.8496123390e+00 
21300 3.7062459929e+00 5.6633685490e-02 2.2212879648e+00 -3.8473836132e+00 2.2212879648e+00 3.8473836132e+00 
21400 3.7061845760e+00 5.6069050396e-02 2.2200132929e+00 -3.8451758168e+00 2.2200132929e+00 3.8451758168e+00 
21500 3.7061242999e+00 5.5509759149e-02 2.2187506038e+00 -3.8429887751e+00 2.2187506038e+00 3.8429887751e+00 
21600 3.7060651448e+00 5.4955752329e-02 2.2174997976e+00 -3.8408223152e+00 2.2174997976e+00 3.8408223152e+00 
21700 3.7060070911e+00 5.4406972257e-02 2.2162607754e+00 -3.8386762657e+00 2.2162607754e+00 3.8386762657e+00 
21800 3.7059501195e+00 5.3863362962e-02 2.2150334390e+00 -3.8365504569e+00 2.2150334390e+00 3.8365504569e+00 
21900 3.7058942112e+00 5.3324870142e-02 2.2138176914e+00 -3.8344447202e+00 2.2138176914e+00 3.8344447202e+00 
22000 3.7058393473e+00 5.2791441121e-02 2.2126134361e+00 -3.8323588889e+00 2.2126134361e+00 3.8323588889e+00 
22100 3.7057855095e+00 5.2263024801e-02 2.2114205776e+00 -3.8302927974e+00 2.2114205776e+00 3.8302927974e+00 
22200 3.7057326797e+00 5.1739571609e-02 2.2102390211e+00 -3.8282462815e+00 2.2102390211e+00 3.8282462815e+00 
22300 3.7056808402e+00 5.1221033449e-02 2.2090686725e+00 -3.8262191782e+00 2.2090686725e+00 3.8262191782e+00 
22400 3.7056299732e+00 5.0707363638e-02 2.2079094385e+00 -3.8242113260e+00 2.2079094385e+00 3.8242113260e+00 
22500 3.7055800618e+00 5.0198516852e-02 2.2067612264e+00 -3.8222225644e+00 2.2067612264e+00 3.8222225644e+00 
22600 3.7055310887e+00 4.9694449065e-02 2.2056239443e+00 -3.8202527339e+00 2.2056239443e+00 3.8202527339e+00 
22700 3.7054830374e+00 4.9195117488e-02 2.2044975008e+00 -3.8183016765e+00 2.2044975008e+00 3.8183016765e+00 
22800 3.7054358914e+00 4.8700480504e-02 2.2033818051e+00 -3.8163692349e+00 2.2033818051e+00 3.8163692349e+00 
22900 3.7053896345e+00 4.8210497610e-02 2.2022767672e+00 -3.8144552532e+00 2.2022767672e+00 3.8144552532e+00 
23000 3.7053442507e+00 4.7725129350e-02 2.2011822976e+00 -3.8125595761e+00 2.2011822976e+00 3.8125595761e+00 
23100 3.7052997245e+00 4.7244337257e-02 2.2000983072e+00 -3.8106820496e+00 2.2000983072e+00 3.8106820496e+00 
23200 3.7052560405e+00 4.6768083786e-02 2.1990247076e+00 -3.8088225206e+00 2.1990247076e+00 3.8088225206e+00 
23300 3.7052131833e+00 4.6296332259e-02 2.1979614109e+00 -3.8069808368e+00 2.1979614109e+00 3.8069808368e+00 
23400 3.7051711382e+00 4.5829046801e-02 2.1969083298e+00 -3.8051568468e+00 2.1969083298e+00 3.8051568468e+00 
23500 3.7051298905e+00 4.5366192282e-02 2.1958653773e+00 -3.8033504001e+00 2.1958653773e+00 3.8033504001e+00 
23600 3.7050894257e+00 4.4907734261e-02 2.1948324672e+00 -3.8015613472e+00 2.1948324672e+00 3.8015613472e+00 
23700 3.7050497295e+00 4.4453638930e-02 2.1938095134e+00 -3.7997895393e+00 2.1938095134e+00 3.7997895393e+00 
23800 3.7050107882e+00 4.4003873063e-02 2.1927964305e+00 -3.7980348283e+00 2.1927964305e+00 3.7980348283e+00 
23900 3.7049725878e+00 4.3558403960e-02 2.1917931337e+00 -3.7962970672e+00 2.1917931337e+00 3.7962970672e+00 
24000 3.7049351150e+00 4.3117199399e-02 2.1907995383e+00 -3.7945761095e+00 2.1907995383e+00 3.7945761095e+00 
24100 3.7048983564e+00 4.2680227591e-02 2.1898155603e+00 -3.7928718096e+00 2.1898155603e+00 3.7928718096e+00 
24200 3.7048622989e+00 4.2247457132e-02 2.1888411161e+00 -3.7911840228e+00 2.1888411161e+00 3.7911840228e+00 
24300 3.7048269297e+00 4.1818856963e-02 2.1878761226e+00 -3.7895126049e+00 2.1878761226e+00 3.7895126049e+00 
24400 3.7047922361e+00 4.1394396327e-02 2.1869204969e+00 -3.7878574127e+00 2.1869204969e+00 3.7878574127e+00 
24500 3.7047582059e+00 4.0974044732e-02 2.1859741568e+00 -3.7862183037e+00 2.1859741568e+00 3.7862183037e+00 
24600 3.7047248266e+00 4.0557771916e-02 2.1850370205e+00 -3.7845951359e+00 2.1850370205e+00 3.7845951359e+00 
24700 3.7046920864e+00 4.0145547813e-02 2.1841090065e+00 -3.7829877685e+00 2.1841090065e+00 3.7829877685e+00 
24800 3.7046599733e+00 3.9737342522e-02 2.1831900338e+00 -3.7813960611e+00 2.1831900338e+00 3.7813960611e+00 
24900 3.7046284760e+00 3.9333126280e-02 2.1822800218e+00 -3.7798198742e+00 2.1822800218e+00 3.7798198742e+00 
25000 3.7045975828e+00 3.8932869433e-02 2.1813788905e+00 -3.7782590689e+00 2.1813788905e+00 3.7782590689e+00 
25100 3.7045672827e+00 3.8536542417e-02 2.1804865601e+00 -3.7767135073e+00 2.1804865601e+00 3.7767135073e+00 
25200 3.7045375646e+00 3.8144115730e-02 2.1796029514e+00 -3.7751830522e+00 2.1796029514e+00 3.7751830522e+00 
25300 3.7045084176e+00 3.7755559919e-02 2.1787279856e+00 -3.7736675669e+00 2.1787279856e+00 3.7736675669e+00 
25400 3.7044798313e+00 3.7370845558e-02 2.1778615842e+00 -3.7721669157e+00 2.1778615842e+00 3.7721669157e+00 
25500 3.7044517950e+00 3.6989943237e-02 2.1770036695e+00 -3.7706809638e+00 2.1770036695e+00 3.7706809638e+00 
25600 3.7044242986e+00 3.6612823544e-02 2.1761541639e+00 -3.7692095770e+00 2.1761541639e+00 3.7692095770e+00 
25700 3.7043973320e+00 3.6239457060e-02 2.1753129904e+00 -3.7677526217e+00 2.1753129904e+00 3.7677526217e+00 
25800 3.7043708852e+00 3.5869814342e-02 2.1744800725e+00 -3.7663099656e+00 2.1744800725e+00 3.7663099656e+00 
25900 3.7043449486e+00 3.5503865924e-02 2.1736553340e+00 -3.7648814767e+00 2.1736553340e+00 3.7648814767e+00 
26000 3.7043195125e+00 3.5141582303e-02 2.1728386995e+00 -3.7634670241e+00 2.1728386995e+00 3.7634670241e+00 
26100 3.7042945676e+00 3.4782933941e-02 2.1720300936e+00 -3.7620664777e+00 2.1720300936e+00 3.7620664777e+00 
26200 3.7042701047e+00 3.4427891259e-02 2.1712294418e+00 -3.7606797081e+00 2.1712294418e+00 3.7606797081e+00 
26300 3.7042461146e+00 3.4076424634e-02 2.1704366699e+00 -3.7593065869e+00 2.1704366699e+00 3.7593065869e+00 
26400 3.7042225885e+00 3.3728504404e-02 2.1696517041e+00 -3.7579469863e+00 2.1696517041e+00 3.7579469863e+00 
26500 3.7041995177e+00 3.3384100863e-02 2.1688744713e+00 -3.7566007796e+00 2.1688744713e+00 3.7566007796e+00 
26600 3.7041768936e+00 3.3043184270e-02 2.1681048987e+00 -3.7552678408e+00 2.1681048987e+00 3.7552678408e+00 
26700 3.7041547077e+00 3.2705724844e-02 2.1673429142e+00 -3.7539480448e+00 2.1673429142e+00 3.7539480448e+00 
26800 3.7041329517e+00 3.2371692778e-02 2.1665884460e+00 -3.7526412676e+00 2.1665884460e+00 3.7526412676e+00 
26900 3.7041116176e+00 3.2041058234e-02 2.1658414229e+00 -3.7513473856e+00 2.1658414229e+00 3.7513473856e+00 
27000 3.7040906974e+00 3.1713791356e-02 2.1651017743e+00 -3.7500662766e+00 2.1651017743e+00 3.7500662766e+00 
27100 3.7040701832e+00 3.1389862275e-02 2.1643694299e+00 -3.7487978189e+00 2.1643694299e+00 3.7487978189e+00 
27200 3.7040500673e+00 3.1069241115e-02 2.1636443201e+00 -3.7475418919e+00 2.1636443201e+00 3.7475418919e+00 
27300 3.7040303421e+00 3.0751898000e-02 2.1629263758e+00 -3.7462983759e+00 2.1629263758e+00 3.7462983759e+00 
27400 3.7040110004e+00 3.0437803066e-02 2.1622155284e+00 -3.7450671520e+00 2.1622155284e+00 3.7450671520e+00 
27500 3.7039920347e+00 3.0126926465e-02 2.1615117097e+00 -3.7438481024e+00 2.1615117097e+00 3.7438481024e+00 
27600 3.7039734379e+00 2.9819238378e-02 2.1608148524e+00 -3.7426411101e+00 2.1608148524e+00 3.7426411101e+00 
27700 3.7039552030e+00 2.9514709020e-02 2.1601248893e+00 -3.7414460589e+00 2.1601248893e+00 3.7414460589e+00 
27800 3.7039373232e+00 2.9213308654e-02 2.1594417539e+00 -3.7402628338e+00 2.1594417539e+00 3.7402628338e+00 
27900 3.7039197915e+00 2.8915007598e-02 2.1587653804e+00 -3.7390913205e+00 2.1587653804e+00 3.7390913205e+00 
28000 3.7039026015e+00 2.8619776234e-02 2.1580957034e+00 -3.7379314059e+00 2.1580957034e+00 3.7379314059e+00 
28100 3.7038857466e+00 2.8327585020e-02 2.1574326580e+00 -3.7367829775e+00 2.1574326580e+00 3.7367829775e+00 
28200 3.7038692204e+00 2.8038404499e-02 2.1567761798e+00 -3.7356459240e+00 2.1567761798e+00 3.7356459240e+00 
28300 3.7038530166e+00 2.7752205305e-02 2.1561262052e+00 -3.7345201349e+00 2.1561262052e+00 3.7345201349e+00 
28400 3.7038371290e+00 2.7468958179e-02 2.1554826709e+00 -3.7334055008e+00 2.1554826709e+00 3.7334055008e+00 
28500 3.7038215516e+00 2.7188633975e-02 2.1548455142e+00 -3.7323019130e+00 2.1548455142e+00 3.7323019130e+00 
28600 3.7038062785e+00 2.6911203667e-02 2.1542146730e+00 -3.7312092640e+00 2.1542146730e+00 3.7312092640e+00 
28700 3.7037913038e+00 2.6636638362e-02 2.1535900857e+00 -3.7301274470e+00 2.1535900857e+00 3.7301274470e+00 
28800 3.7037766218e+00 2.6364909308e-02 2.1529716912e+00 -3.7290563564e+00 2.1529716912e+00 3.7290563564e+00 
28900 3.7037622269e+00 2.6095987900e-02 2.1523594291e+00 -3.7279958874e+00 2.1523594291e+00 3.7279958874e+00 
29000 3.7037481135e+00 2.5829845690e-02 2.1517532394e+00 -3.7269459360e+00 2.1517532394e+00 3.7269459360e+00 
29100 3.7037342764e+00 2.5566454398e-02 2.1511530627e+00 -3.7259063994e+00 2.1511530627e+00 3.7259063994e+00 
29200 3.7037207101e+00 2.5305785912e-02 2.1505588400e+00 -3.7248771756e+00 2.1505588400e+00 3.7248771756e+00 
29300 3.7037074094e+00 2.5047812304e-02 2.1499705132e+00 -3.7238581636e+00 2.1499705132e+00 3.7238581636e+00 
29400 3.7036943693e+00 2.4792505831e-02 2.1493880242e+00 -3.7228492631e+00 2.1493880242e+00 3.7228492631e+00 
29500 3.7036815847e+00 2.4539838943e-02 2.1488113159e+00 -3.7218503751e+00 2.1488113159e+00 3.7218503751e+00 
29600 3.7036690507e+00 2.4289784291e-02 2.1482403316e+00 -3.7208614012e+00 2.1482403316e+00 3.7208614012e+00 
29700 3.7036567625e+00 2.4042314730e-02 2.1476750150e+00 -3.7198822441e+00 2.1476750150e+00 3.7198822441e+00 
29800 3.7036447153e+00 2.3797403327e-02 2.1471153104e+00 -3.7189128074e+00 2.1471153104e+00 3.7189128074e+00 
29900 3.7036329045e+00 2.3555023366e-02 2.1465611628e+00 -3.7179529955e+00 2.1465611628e+00 3.7179529955e+00 
30000 3.7036213255e+00 2.3315148350e-02 2.1460125173e+00 -3.7170027137e+00 2.1460125173e+00 3.7170027137e+00 
30100 3.7036099738e+00 2.3077752007e-02 2.1454693200e+00 -3.7160618684e+00 2.1454693200e+00 3.7160618684e+00 
30200 3.7035988451e+00 2.2842808295e-02 2.1449315172e+00 -3.7151303666e+00 2.1449315172e+00 3.7151303666e+00 
30300 3.7035879350e+00 2.2610291404e-02 2.1443990559e+00 -3.7142081165e+00 2.1443990559e+00 3.7142081165e+00 
30400 3.7035772394e+00 2.2380175760e-02 2.1438718834e+00 -3.7132950269e+00 2.1438718834e+00 3.7132950269e+00 
30500 3.7035667539e+00 2.2152436027e-02 2.1433499476e+00 -3.7123910077e+00 2.1433499476e+00 3.7123910077e+00 
30600 3.7035564747e+00 2.1927047111e-02 2.1428331971e+00 -3.7114959695e+00 2.1428331971e+00 3.7114959695e+00 
30700 3.7035463977e+00 2.1703984161e-02 2.1423215806e+00 -3.7106098238e+00 2.1423215806e+00 3.7106098238e+00 
30800 3.7035365189e+00 2.1483222568e-02 2.1418150477e+00 -3.7097324830e+00 2.1418150477e+00 3.7097324830e+00 
30900 3.7035268345e+00 2.1264737974e-02 2.1413135482e+00 -3.7088638604e+00 2.1413135482e+00 3.7088638604e+00 
31000 3.7035173409e+00 2.1048506265e-02 2.1408170325e+00 -3.7080038699e+00 2.1408170325e+00 3.7080038699e+00 
31100 3.7035080341e+00 2.0834503577e-02 2.1403254514e+00 -3.7071524266e+00 2.1403254514e+00 3.7071524266e+00 
31200 3.7034989107e+00 2.0622706294e-02 2.1398387564e+00 -3.7063094462e+00 2.1398387564e+00 3.7063094462e+00 
31300 3.7034899671e+00 2.0413091049e-02 2.1393568993e+00 -3.7054748451e+00 2.1393568993e+00 3.7054748451e+00 
31400 3.7034811997e+00 2.0205634725e-02 2.1388798323e+00 -3.7046485408e+00 2.1388798323e+00 3.7046485408e+00 
31500 3.7034726051e+00 2.0000314452e-02 2.1384075082e+00 -3.7038304514e+00 2.1384075082e+00 3.7038304514e+00 
31600 3.7034641801e+00 1.9797107611e-02 2.1379398801e+00 -3.7030204959e+00 2.1379398801e+00 3.7030204959e+00 
31700 3.7034559212e+00 1.9595991828e-02 2.1374769019e+00 -3.7022185941e+00 2.1374769019e+00 3.7022185941e+00 
31800 3.7034478253e+00 1.9396944976e-02 2.1370185276e+00 -3.7014246665e+00 2.1370185276e+00 3.7014246665e+00 
31900 3.7034398892e+00 1.9199945174e-02 2.1365647117e+00 -3.7006386343e+00 2.1365647117e+00 3.7006386343e+00 
32000 3.7034321097e+00 1.9004970786e-02 2.1361154093e+00 -3.6998604198e+00 2.1361154093e+00 3.6998604198e+00 
32100 3.7034244839e+00 1.8812000417e-02 2.1356705759e+00 -3.6990899457e+00 2.1356705759e+00 3.6990899457e+00 
32200 3.7034170087e+00 1.8621012912e-02 2.1352301673e+00 -3.6983271356e+00 2.1352301673e+00 3.6983271356e+00 
32300 3.7034096811e+00 1.8431987357e-02 2.1347941398e+00 -3.6975719139e+00 2.1347941398e+00 3.6975719139e+00 
32400 3.7034024984e+00 1.8244903074e-02 2.1343624503e+00 -3.6968242057e+00 2.1343624503e+00 3.6968242057e+00 
32500 3.7033954576e+00 1.8059739619e-02 2.1339350558e+00 -3.6960839368e+00 2.1339350558e+00 3.6960839368e+00 
32600 3.7033885561e+00 1.7876476784e-02 2.1335119140e+00 -3.6953510337e+00 2.1335119140e+00 3.6953510337e+00 
32700 3.7033817910e+00 1.7695094586e-02 2.1330929829e+00 -3.6946254236e+00 2.1330929829e+00 3.6946254236e+00 
32800 3.7033751598e+00 1.7515573274e-02 2.1326782208e+00 -3.6939070347e+00 2.1326782208e+00 3.6939070347e+00 
32900 3.7033686597e+00 1.7337893321e-02 2.1322675867e+00 -3.6931957954e+00 2.1322675867e+00 3.6931957954e+00 
33000 3.7033622883e+00 1.7162035423e-02 2.1318610396e+00 -3.6924916353e+00 2.1318610396e+00 3.6924916353e+00 
33100 3.7033560431e+00 1.6987980496e-02 2.1314585393e+00 -3.6917944842e+00 2.1314585393e+00 3.6917944842e+00 
33200 3.7033499215e+00 1.6815709673e-02 2.1310600457e+00 -3.6911042731e+00 2.1310600457e+00 3.6911042731e+00 
33300 3.7033439211e+00 1.6645204303e-02 2.1306655192e+00 -3.6904209333e+00 2.1306655192e+00 3.6904209333e+00 
33400 3.7033380396e+00 1.6476445945e-02 2.1302749207e+00 -3.6897443968e+00 2.1302749207e+00 3.6897443968e+00 
33500 3.7033322747e+00 1.6309416370e-02 2.1298882113e+00 -3.6890745964e+00 2.1298882113e+00 3.6890745964e+00 
33600 3.7033266240e+00 1.6144097552e-02 2.1295053525e+00 -3.6884114656e+00 2.1295053525e+00 3.6884114656e+00 
33700 3.7033210853e+00 1.5980471670e-02 2.1291263063e+00 -3.6877549383e+00 2.1291263063e+00 3.6877549383e+00 
33800 3.7033156565e+00 1.5818521106e-02 2.1287510350e+00 -3.6871049493e+00 2.1287510350e+00 3.6871049493e+00 
33900 3.7033103353e+00 1.5658228437e-02 2.1283795012e+00 -3.6864614338e+00 2.1283795012e+00 3.6864614338e+00 
34000 3.7033051197e+00 1.5499576436e-02 2.1280116678e+00 -3.6858243278e+00 2.1280116678e+00 3.6858243278e+00 
34100 3.7033000076e+00 1.5342548068e-02 2.1276474985e+00 -3.6851935679e+00 2.1276474985e+00 3.6851935679e+00 
34200 3.7032949970e+00 1.5187126487e-02 2.1272869567e+00 -3.6845690913e+00 2.1272869567e+00 3.6845690913e+00 
34300 3.7032900858e+00 1.5033295037e-02 2.1269300067e+00 -3.6839508358e+00 2.1269300067e+00 3.6839508358e+00 
34400 3.7032852722e+00 1.4881037241e-02 2.1265766129e+00 -3.6833387397e+00 2.1265766129e+00 3.6833387397e+00 
34500 3.7032805542e+00 1.4730336808e-02 2.1262267400e+00 -3.6827327421e+00 2.1262267400e+00 3.6827327421e+00 
34600 3.7032759299e+00 1.4581177622e-02 2.1258803532e+00 -3.6821327826e+00 2.1258803532e+00 3.6821327826e+00 
34700 3.7032713974e+00 1.4433543746e-02 2.1255374180e+00 -3.6815388014e+00 2.1255374180e+00 3.6815388014e+00 
34800 3.7032669551e+00 1.4287419414e-02 2.1251979001e+00 -3.6809507391e+00 2.1251979001e+00 3.6809507391e+00 
34900 3.7032626011e+00 1.4142789034e-02 2.1248617657e+00 -3.6803685373e+00 2.1248617657e+00 3.6803685373e+00 
35000 3.7032583336e+00 1.3999637179e-02 2.1245289812e+00 -3.6797921377e+00 2.1245289812e+00 3.6797921377e+00 
35100 3.7032541510e+00 1.3857948590e-02 2.1241995135e+00 -3.6792214828e+00 2.1241995135e+00 3.6792214828e+00 
35200 3.7032500516e+00 1.3717708171e-02 2.1238733296e+00 -3.6786565157e+00 2.1238733296e+00 3.6786565157e+00 
35300 3.7032460338e+00 1.3578900987e-02 2.1235503970e+00 -3.6780971800e+00 2.1235503970e+00 3.6780971800e+00 
35400 3.7032420960e+00 1.3441512264e-02 2.1232306833e+00 -3.6775434197e+00 2.1232306833e+00 3.6775434197e+00 
35500 3.7032382365e+00 1.3305527382e-02 2.1229141568e+00 -3.6769951796e+00 2.1229141568e+00 3.6769951796e+00 
35600 3.7032344539e+00 1.3170931878e-02 2.1226007856e+00 -3.6764524049e+00 2.1226007856e+00 3.6764524049e+00 
35700 3.7032307466e+00 1.3037711438e-02 2.1222905386e+00 -3.6759150413e+00 2.1222905386e+00 3.6759150413e+00 
35800 3.7032271131e+00 1.2905851902e-02 2.1219833847e+00 -3.6753830351e+00 2.1219833847e+00 3.6753830351e+00 
35900 3.7032235521e+00 1.2775339256e-02 2.1216792932e+00 -3.6748563332e+00 2.1216792932e+00 3.6748563332e+00 
36000 3.7032200620e+00 1.2646159634e-02 2.1213782336e+00 -3.6743348827e+00 2.1213782336e+00 3.6743348827e+00 
36100 3.7032166414e+00 1.2518299311e-02 2.1210801759e+00 -3.6738186316e+00 2.1210801759e+00 3.6738186316e+00 
36200 3.7032132891e+00 1.2391744710e-02 2.1207850902e+00 -3.6733075281e+00 2.1207850902e+00 3.6733075281e+00 
36300 3.7032100036e+00 1.2266482389e-02 2.1204929469e+00 -3.6728015212e+00 2.1204929469e+00 3.6728015212e+00 
36400 3.7032067836e+00 1.2142499048e-02 2.1202037169e+00 -3.6723005601e+00 2.1202037169e+00 3.6723005601e+00 
36500 3.7032036279e+00 1.2019781524e-02 2.1199173712e+00 -3.6718045948e+00 2.1199173712e+00 3.6718045948e+00 
36600 3.7032005351e+00 1.1898316788e-02 2.1196338811e+00 -3.6713135755e+00 2.1196338811e+00 3.6713135755e+00 
36700 3.7031975041e+00 1.1778091947e-02 2.1193532181e+00 -3.6708274530e+00 2.1193532181e+00 3.6708274530e+00 
36800 3.7031945335e+00 1.1659094237e-02 2.1190753542e+00 -3.6703461786e+00 2.1190753542e+00 3.6703461786e+00 
36900 3.7031916223e+00 1.1541311028e-02 2.1188002616e+00 -3.6698697041e+00 2.1188002616e+00 3.6698697041e+00 
37000 3.7031887692e+00 1.1424729817e-02 2.1185279125e+00 -3.6693979818e+00 2.1185279125e+00 3.6693979818e+00 
37100 3.7031859731e+00 1.1309338229e-02 2.1182582798e+00 -3.6689309642e+00 2.1182582798e+00 3.6689309642e+00 
37200 3.7031832329e+00 1.1195124016e-02 2.1179913365e+00 -3.6684686047e+00 2.1179913365e+00 3.6684686047e+00 
37300 3.7031805474e+00 1.1082075054e-02 2.1177270556e+00 -3.6680108569e+00 2.1177270556e+00 3.6680108569e+00 
37400 3.7031779156e+00 1.0970179342e-02 2.1174654108e+00 -3.6675576747e+00 2.1174654108e+00 3.6675576747e+00 
37500 3.7031753364e+00 1.0859425003e-02 2.1172063757e+00 -3.6671090128e+00 2.1172063757e+00 3.6671090128e+00 
37600 3.7031728088e+00 1.0749800279e-02 2.1169499244e+00 -3.6666648262e+00 2.1169499244e+00 3.6666648262e+00 
37700 3.7031703317e+00 1.0641293533e-02 2.1166960312e+00 -3.6662250702e+00 2.1166960312e+00 3.6662250702e+00 
37800 3.7031679042e+00 1.0533893243e-02 2.1164446705e+00 -3.6657897007e+00 2.1164446705e+00 3.6657897007e+00 
37900 3.7031655253e+00 1.0427588009e-02 2.1161958172e+00 -3.6653586741e+00 2.1161958172e+00 3.6653586741e+00 
38000 3.7031631939e+00 1.0322366544e-02 2.1159494462e+00 -3.6649319470e+00 2.1159494462e+00 3.6649319470e+00 
38100 3.7031609092e+00 1.0218217675e-02 2.1157055328e+00 -3.6645094766e+00 2.1157055328e+00 3.6645094766e+00 
38200 3.7031586703e+00 1.0115130345e-02 2.1154640525e+00 -3.6640912205e+00 2.1154640525e+00 3.6640912205e+00 
38300 3.7031564762e+00 1.0013093608e-02 2.1152249811e+00 -3.6636771367e+00 2.1152249811e+00 3.6636771367e+00 
38400 3.7031543261e+00 9.9120966292e-03 2.1149882945e+00 -3.6632671835e+00 2.1149882945e+00 3.6632671835e+00 
38500 3.7031522190e+00 9.8121286853e-03 2.1147539690e+00 -3.6628613198e+00 2.1147539690e+00 3.6628613198e+00 
38600 3.7031501542e+00 9.7131791616e-03 2.1145219811e+00 -3.6624595049e+00 2.1145219811e+00 3.6624595049e+00 
38700 3.7031481307e+00 9.6152375515e-03 2.1142923073e+00 -3.6620616983e+00 2.1142923073e+00 3.6620616983e+00 
38800 3.7031461478e+00 9.5182934561e-03 2.1140649247e+00 -3.6616678601e+00 2.1140649247e+00 3.6616678601e+00 
38900 3.7031442047e+00 9.4223365825e-03 2.1138398104e+00 -3.6612779507e+00 2.1138398104e+00 3.6612779507e+00 
39000 3.7031423005e+00 9.3273567430e-03 2.1136169418e+00 -3.6608919310e+00 2.1136169418e+00 3.6608919310e+00 
39100 3.7031404345e+00 9.2333438543e-03 2.1133962965e+00 -3.6605097620e+00 2.1133962965e+00 3.6605097620e+00 
39200 3.7031386060e+00 9.1402879365e-03 2.1131778522e+00 -3.6601314055e+00 2.1131778522e+00 3.6601314055e+00 
39300 3.7031368142e+00 9.0481791118e-03 2.1129615872e+00 -3.6597568234e+00 2.1129615872e+00 3.6597568234e+00 
39400 3.7031350583e+00 8.9570076041e-03 2.1127474795e+00 -3.6593859780e+00 2.1127474795e+00 3.6593859780e+00 
39500 3.7031333377e+00 8.8667637377e-03 2.1125355077e+00 -3.6590188321e+00 2.1125355077e+00 3.6590188321e+00 
39600 3.7031316516e+00 8.7774379365e-03 2.1123256504e+00 -3.6586553487e+00 2.1123256504e+00 3.6586553487e+00 
39700 3.7031299994e+00 8.6890207229e-03 2.1121178867e+00 -3.6582954913e+00 2.1121178867e+00 3.6582954913e+00 
39800 3.7031283804e+00 8.6015027173e-03 2.1119121955e+00 -3.6579392238e+00 2.1119121955e+00 3.6579392238e+00 
39900 3.7031267939e+00 8.5148746369e-03 2.1117085563e+00 -3.6575865102e+00 2.1117085563e+00 3.6575865102e+00 
40000 3.7031252393e+00 8.4291272949e-03 2.1115069485e+00 -3.6572373153e+00 2.1115069485e+00 3.6572373153e+00 
40100 3.7031237160e+00 8.3442515995e-03 2.1113073518e+00 -3.6568916037e+00 2.1113073518e+00 3.6568916037e+00 
40200 3.7031222233e+00 8.2602385532e-03 2.1111097462e+00 -3.6565493408e+00 2.1111097462e+00 3.6565493408e+00 
40300 3.7031207606e+00 8.1770792518e-03 2.1109141119e+00 -3.6562104922e+00 2.1109141119e+00 3.6562104922e+00 
40400 3.7031193273e+00 8.0947648838e-03 2.1107204291e+00 -3.6558750238e+00 2.1107204291e+00 3.6558750238e+00 
40500 3.7031179229e+00 8.0132867290e-03 2.1105286784e+00 -3.6555429019e+00 2.1105286784e+00 3.6555429019e+00 
40600 3.7031165467e+00 7.9326361581e-03 2.1103388405e+00 -3.6552140930e+00 2.1103388405e+00 3.6552140930e+00 
40700 3.7031151982e+00 7.8528046317e-03 2.1101508963e+00 -3.6548885641e+00 2.1101508963e+00 3.6548885641e+00 
40800 3.7031138769e+00 7.7737836997e-03 2.1099648270e+00 -3.6545662825e+00 2.1099648270e+00 3.6545662825e+00 
40900 3.7031125822e+00 7.6955649998e-03 2.1097806137e+00 -3.6542472157e+00 2.1097806137e+00 3.6542472157e+00 
41000 3.7031113136e+00 7.6181402574e-03 2.1095982380e+00 -3.6539313318e+00 2.1095982380e+00 3.6539313318e+00 
41100 3.7031100705e+00 7.5415012844e-03 2.1094176815e+00 -3.6536185988e+00 2.1094176815e+00 3.6536185988e+00 
41200 3.7031088525e+00 7.4656399782e-03 2.1092389262e+00 -3.6533089854e+00 2.1092389262e+00 3.6533089854e+00 
41300 3.7031076590e+00 7.3905483214e-03 2.1090619539e+00 -3.6530024605e+00 2.1090619539e+00 3.6530024605e+00 
41400 3.7031064896e+00 7.3162183805e-03 2.1088867470e+00 -3.6526989932e+00 2.1088867470e+00 3.6526989932e+00 
41500 3.7031053438e+00 7.2426423051e-03 2.1087132877e+00 -3.6523985529e+00 2.1087132877e+00 3.6523985529e+00 
41600 3.7031042210e+00 7.1698123275e-03 2.1085415587e+00 -3.6521011096e+00 2.1085415587e+00 3.6521011096e+00 
41700 3.7031031210e+00 7.0977207615e-03 2.1083715427e+00 -3.6518066333e+00 2.1083715427e+00 3.6518066333e+00 
41800 3.7031020431e+00 7.0263600016e-03 2.1082032226e+00 -3.6515150943e+00 2.1082032226e+00 3.6515150943e+00 
41900 3.7031009870e+00 6.9557225223e-03 2.1080365815e+00 -3.6512264634e+00 2.1080365815e+00 3.6512264634e+00 
42000 3.7030999522e+00 6.8858008774e-03 2.1078716026e+00 -3.6509407115e+00 2.1078716026e+00 3.6509407115e+00 
42100 3.7030989383e+00 6.8165876991e-03 2.1077082693e+00 -3.6506578100e+00 2.1077082693e+00 3.6506578100e+00 
42200 3.7030979449e+00 6.7480756970e-03 2.1075465652e+00 -3.6503777303e+00 2.1075465652e+00 3.6503777303e+00 
42300 3.7030969715e+00 6.6802576576e-03 2.1073864741e+00 -3.6501004443e+00 2.1073864741e+00 3.6501004443e+00 
42400 3.7030960178e+00 6.6131264434e-03 2.1072279798e+00 -3.6498259242e+00 2.1072279798e+00 3.6498259242e+00 
42500 3.7030950834e+00 6.5466749922e-03 2.1070710665e+00 -3.6495541423e+00 2.1070710665e+00 3.6495541423e+00 
42600 3.7030941679e+00 6.4808963162e-03 2.1069157182e+00 -3.6492850713e+00 2.1069157182e+00 3.6492850713e+00 
42700 3.7030932709e+00 6.4157835013e-03 2.1067619196e+00 -3.6490186841e+00 2.1067619196e+00 3.6490186841e+00 
42800 3.7030923920e+00 6.3513297061e-03 2.1066096549e+00 -3.6487549541e+00 2.1066096549e+00 3.6487549541e+00 
42900 3.7030915309e+00 6.2875281616e-03 2.1064589091e+00 -3.6484938546e+00 2.1064589091e+00 3.6484938546e+00 
43000 3.7030906873e+00 6.2243721701e-03 2.1063096668e+00 -3.6482353594e+00 2.1063096668e+00 3.6482353594e+00 
43100 3.7030898607e+00 6.1618551044e-03 2.1061619131e+00 -3.6479794425e+00 2.1061619131e+00 3.6479794425e+00 
43200 3.7030890508e+00 6.0999704074e-03 2.1060156332e+00 -3.6477260783e+00 2.1060156332e+00 3.6477260783e+00 
43300 3.7030882574e+00 6.0387115910e-03 2.1058708123e+00 -3.6474752412e+00 2.1058708123e+00 3.6474752412e+00 
43400 3.7030874800e+00 5.9780722354e-03 2.1057274360e+00 -3.6472269060e+00 2.1057274360e+00 3.6472269060e+00 
43500 3.7030867184e+00 5.9180459887e-03 2.1055854896e+00 -3.6469810477e+00 2.1055854896e+00 3.6469810477e+00 
43600 3.7030859722e+00 5.8586265656e-03 2.1054449591e+00 -3.6467376418e+00 2.1054449591e+00 3.6467376418e+00 
43700 3.7030852411e+00 5.7998077473e-03 2.1053058303e+00 -3.6464966635e+00 2.1053058303e+00 3.6464966635e+00 
43800 3.7030845249e+00 5.7415833804e-03 2.1051680892e+00 -3.6462580889e+00 2.1051680892e+00 3.6462580889e+00 
43900 3.7030838231e+00 5.6839473762e-03 2.1050317219e+00 -3.6460218938e+00 2.1050317219e+00 3.6460218938e+00 
44000 3.7030831356e+00 5.6268937102e-03 2.1048967147e+00 -3.6457880546e+00 2.1048967147e+00 3.6457880546e+00 
44100 3.7030824621e+00 5.5704164212e-03 2.1047630541e+00 -3.6455565477e+00 2.1047630541e+00 3.6455565477e+00 
44200 3.7030818022e+00 5.5145096108e-03 2.1046307267e+00 -3.6453273498e+00 2.1046307267e+00 3.6453273498e+00 
44300 3.7030811558e+00 5.4591674423e-03 2.1044997191e+00 -3.6451004380e+00 2.1044997191e+00 3.6451004380e+00 
44400 3.7030805224e+00 5.4043841406e-03 2.1043700182e+00 -3.6448757894e+00 2.1043700182e+00 3.6448757894e+00 
44500 3.7030799019e+00 5.3501539913e-03 2.1042416109e+00 -3.6446533814e+00 2.1042416109e+00 3.6446533814e+00 
44600 3.7030792941e+00 5.2964713398e-03 2.1041144843e+00 -3.6444331918e+00 2.1041144843e+00 3.6444331918e+00 
44700 3.7030786985e+00 5.2433305909e-03 2.1039886257e+00 -3.6442151983e+00 2.1039886257e+00 3.6442151983e+00 
44800 3.7030781151e+00 5.1907262081e-03 2.1038640224e+00 -3.6439993790e+00 2.1038640224e+00 3.6439993790e+00 
44900 3.7030775436e+00 5.1386527128e-03 2.1037406619e+00 -3.6437857123e+00 2.1037406619e+00 3.6437857123e+00 
45000 3.7030769836e+00 5.0871046840e-03 2.1036185317e+00 -3.6435741767e+00 2.1036185317e+00 3.6435741767e+00 
45100 3.7030764351e+00 5.0360767573e-03 2.1034976197e+00 -3.6433647509e+00 2.1034976197e+00 3.6433647509e+00 
45200 3.7030758977e+00 4.9855636245e-03 2.1033779136e+00 -3.6431574139e+00 2.1033779136e+00 3.6431574139e+00 
45300 3.7030753713e+00 4.9355600329e-03 2.1032594015e+00 -3.6429521448e+00 2.1032594015e+00 3.6429521448e+00 
45400 3.7030748555e+00 4.8860607846e-03 2.1031420713e+00 -3.6427489231e+00 2.1031420713e+00 3.6427489231e+00 
45500 3.7030743503e+00 4.8370607362e-03 2.1030259114e+00 -3.6425477282e+00 2.1030259114e+00 3.6425477282e+00 
45600 3.7030738554e+00 4.7885547979e-03 2.1029109101e+00 -3.6423485400e+00 2.1029109101e+00 3.6423485400e+00 
45700 3.7030733705e+00 4.7405379328e-03 2.1027970557e+00 -3.6421513385e+00 2.1027970557e+00 3.6421513385e+00 
45800 3.7030728956e+00 4.6930051570e-03 2.1026843369e+00 -3.6419561038e+00 2.1026843369e+00 3.6419561038e+00 
45900 3.7030724303e+00 4.6459515380e-03 2.1025727423e+00 -3.6417628163e+00 2.1025727423e+00 3.6417628163e+00 
46000 3.7030719745e+00 4.5993721951e-03 2.1024622607e+00 -3.6415714566e+00 2.1024622607e+00 3.6415714566e+00 
46100 3.7030715280e+00 4.5532622981e-03 2.1023528811e+00 -3.6413820055e+00 2.1023528811e+00 3.6413820055e+00 
46200 3.7030710907e+00 4.5076170674e-03 2.1022445923e+00 -3.6411944438e+00 2.1022445923e+00 3.6411944438e+00 
46300 3.7030706622e+00 4.4624317727e-03 2.1021373836e+00 -3.6410087529e+00 2.1021373836e+00 3.6410087529e+00 
46400 3.7030702425e+00 4.4177017331e-03 2.1020312442e+00 -3.6408249140e+00 2.1020312442e+00 3.6408249140e+00 
46500 3.7030698314e+00 4.3734223163e-03 2.1019261633e+00 -3.6406429086e+00 2.1019261633e+00 3.6406429086e+00 
46600 3.7030694286e+00 4.3295889381e-03 2.1018221305e+00 -3.6404627185e+00 2.1018221305e+00 3.6404627185e+00 
46700 3.7030690341e+00 4.2861970617e-03 2.1017191352e+00 -3.6402843255e+00 2.1017191352e+00 3.6402843255e+00 
46800 3.7030686477e+00 4.2432421974e-03 2.1016171672e+00 -3.6401077117e+00 2.1016171672e+00 3.6401077117e+00 
46900 3.7030682692e+00 4.2007199023e-03 2.1015162162e+00 -3.6399328594e+00 2.1015162162e+00 3.6399328594e+00 
47000 3.7030678984e+00 4.1586257792e-03 2.1014162720e+00 -3.6397597510e+00 2.1014162720e+00 3.6397597510e+00 
47100 3.7030675352e+00 4.1169554765e-03 2.1013173246e+00 -3.6395883691e+00 2.1013173246e+00 3.6395883691e+00 
47200 3.7030671794e+00 4.0757046877e-03 2.1012193641e+00 -3.6394186964e+00 2.1012193641e+00 3.6394186964e+00 
47300 3.7030668309e+00 4.0348691508e-03 2.1011223806e+00 -3.6392507160e+00 2.1011223806e+00 3.6392507160e+00 
47400 3.7030664895e+00 3.9944446478e-03 2.1010263643e+00 -3.6390844110e+00 2.1010263643e+00 3.6390844110e+00 
47500 3.7030661552e+00 3.9544270045e-03 2.1009313056e+00 -3.6389197646e+00 2.1009313056e+00 3.6389197646e+00 
47600 3.7030658277e+00 3.9148120896e-03 2.1008371951e+00 -3.6387567603e+00 2.1008371951e+00 3.6387567603e+00 
47700 3.7030655069e+00 3.8755958144e-03 2.1007440231e+00 -3.6385953817e+00 2.1007440231e+00 3.6385953817e+00 
47800 3.7030651927e+00 3.8367741327e-03 2.1006517803e+00 -3.6384356126e+00 2.1006517803e+00 3.6384356126e+00 
47900 3.7030648849e+00 3.7983430398e-03 2.1005604576e+00 -3.6382774369e+00 2.1005604576e+00 3.6382774369e+00 
48000 3.7030645834e+00 3.7602985723e-03 2.1004700456e+00 -3.6381208388e+00 2.1004700456e+00 3.6381208388e+00 
48100 3.7030642882e+00 3.7226368077e-03 2.1003805354e+00 -3.6379658025e+00 2.1003805354e+00 3.6379658025e+00 
48200 3.7030639990e+00 3.6853538640e-03 2.1002919179e+00 -3.6378123124e+00 2.1002919179e+00 3.6378123124e+00 
48300 3.7030637157e+00 3.6484458990e-03 2.1002041841e+00 -3.6376603532e+00 2.1002041841e+00 3.6376603532e+00 
48400 3.7030634382e+00 3.6119091101e-03 2.1001173254e+00 -3.6375099095e+00 2.1001173254e+00 3.6375099095e+00 
48500 3.7030631665e+00 3.5757397340e-03 2.1000313330e+00 -3.6373609662e+00 2.1000313330e+00 3.6373609662e+00 
48600 3.7030629003e+00 3.5399340459e-03 2.0999461982e+00 -3.6372135084e+00 2.0999461982e+00 3.6372135084e+00 
48700 3.7030626397e+00 3.5044883595e-03 2.0998619124e+00 -3.6370675212e+00 2.0998619124e+00 3.6370675212e+00 
48800 3.7030623843e+00 3.4693990263e-03 2.0997784673e+00 -3.6369229900e+00 2.0997784673e+00 3.6369229900e+00 
48900 3.7030621343e+00 3.4346624352e-03 2.0996958544e+00 -3.6367799002e+00 2.0996958544e+00 3.6367799002e+00 
49000 3.7030618894e+00 3.4002750125e-03 2.0996140654e+00 -3.6366382375e+00 2.0996140654e+00 3.6366382375e+00 
49100 3.7030616495e+00 3.3662332209e-03 2.0995330921e+00 -3.6364979877e+00 2.0995330921e+00 3.6364979877e+00 
49200 3.7030614146e+00 3.3325335596e-03 2.0994529264e+00 -3.6363591366e+00 2.0994529264e+00 3.6363591366e+00 
49300 3.7030611845e+00 3.2991725637e-03 2.0993735602e+00 -3.6362216703e+00 2.0993735602e+00 3.6362216703e+00 
49400 3.7030609591e+00 3.2661468038e-03 2.0992949855e+00 -3.6360855749e+00 2.0992949855e+00 3.6360855749e+00 
49500 3.7030607384e+00 3.2334528858e-03 2.0992171944e+00 -3.6359508369e+00 2.0992171944e+00 3.6359508369e+00 
49600 3.7030605223e+00 3.2010874504e-03 2.0991401792e+00 -3.6358174426e+00 2.0991401792e+00 3.6358174426e+00 
49700 3.7030603106e+00 3.1690471726e-03 2.0990639321e+00 -3.6356853788e+00 2.0990639321e+00 3.6356853788e+00 
49800 3.7030601033e+00 3.1373287617e-03 2.0989884454e+00 -3.6355546320e+00 2.0989884454e+00 3.6355546320e+00 
49900 3.7030599003e+00 3.1059289607e-03 2.0989137116e+00 -3.6354251891e+00 2.0989137116e+00 3.6354251891e+00 
50000 3.7030597014e+00 3.0748445459e-03 2.0988397230e+00 -3.6352970372e+00 2.0988397230e+00 3.6352970372e+00 
50100 3.7030595067e+00 3.0440723266e-03 2.0987664724e+00 -3.6351701634e+00 2.0987664724e+00 3.6351701634e+00 
50200 3.7030593160e+00 3.0136091449e-03 2.0986939523e+00 -3.6350445549e+00 2.0986939523e+00 3.6350445549e+00 
50300 3.7030591293e+00 2.9834518753e-03 2.0986221555e+00 -3.6349201991e+00 2.0986221555e+00 3.6349201991e+00 
50400 3.7030589464e+00 2.9535974240e-03 2.0985510747e+00 -3.6347970836e+00 2.0985510747e+00 3.6347970836e+00 
50500 3.7030587673e+00 2.9240427292e-03 2.0984807027e+00 -3.6346751959e+00 2.0984807027e+00 3.6346751959e+00 
50600 3.7030585919e+00 2.8947847604e-03 2.0984110327e+00 -3.6345545237e+00 2.0984110327e+00 3.6345545237e+00 
50700 3.7030584201e+00 2.8658205179e-03 2.0983420574e+00 -3.6344350551e+00 2.0983420574e+00 3.6344350551e+00 
50800 3.7030582519e+00 2.8371470329e-03 2.0982737700e+00 -3.6343167779e+00 2.0982737700e+00 3.6343167779e+00 
50900 3.7030580872e+00 2.8087613670e-03 2.0982061637e+00 -3.6341996803e+00 2.0982061637e+00 3.6341996803e+00 
51000 3.7030579259e+00 2.7806606116e-03 2.0981392316e+00 -3.6340837505e+00 2.0981392316e+00 3.6340837505e+00 
51100 3.7030577680e+00 2.7528418882e-03 2.0980729670e+00 -3.6339689769e+00 2.0980729670e+00 3.6339689769e+00 
51200 3.7030576133e+00 2.7253023474e-03 2.0980073633e+00 -3.6338553479e+00 2.0980073633e+00 3.6338553479e+00 
51300 3.7030574619e+00 2.6980391692e-03 2.0979424139e+00 -3.6337428522e+00 2.0979424139e+00 3.6337428522e+00 
51400 3.7030573136e+00 2.6710495622e-03 2.0978781122e+00 -3.6336314784e+00 2.0978781122e+00 3.6336314784e+00 
51500 3.7030571684e+00 2.6443307638e-03 2.0978144518e+00 -3.6335212153e+00 2.0978144518e+00 3.6335212153e+00 
51600 3.7030570262e+00 2.6178800394e-03 2.0977514262e+00 -3.6334120519e+00 2.0977514262e+00 3.6334120519e+00 
51700 3.7030568869e+00 2.5916946823e-03 2.0976890293e+00 -3.6333039771e+00 2.0976890293e+00 3.6333039771e+00 
51800 3.7030567506e+00 2.5657720137e-03 2.0976272546e+00 -3.6331969802e+00 2.0976272546e+00 3.6331969802e+00 
51900 3.7030566171e+00 2.5401093820e-03 2.0975660959e+00 -3.6330910504e+00 2.0975660959e+00 3.6330910504e+00 
52000 3.7030564864e+00 2.5147041627e-03 2.0975055473e+00 -3.6329861770e+00 2.0975055473e+00 3.6329861770e+00 
52100 3.7030563584e+00 2.4895537581e-03 2.0974456024e+00 -3.6328823495e+00 2.0974456024e+00 3.6328823495e+00 
52200 3.7030562330e+00 2.4646555970e-03 2.0973862554e+00 -3.6327795575e+00 2.0973862554e+00 3.6327795575e+00 
52300 3.7030561103e+00 2.4400071345e-03 2.0973275003e+00 -3.6326777906e+00 2.0973275003e+00 3.6326777906e+00 
52400 3.7030559902e+00 2.4156058516e-03 2.0972693311e+00 -3.6325770387e+00 2.0972693311e+00 3.6325770387e+00 
52500 3.7030558725e+00 2.3914492550e-03 2.0972117421e+00 -3.6324772915e+00 2.0972117421e+00 3.6324772915e+00 
52600 3.7030557574e+00 2.3675348769e-03 2.0971547274e+00 -3.6323785392e+00 2.0971547274e+00 3.6323785392e+00 
52700 3.7030556446e+00 2.3438602747e-03 2.0970982813e+00 -3.6322807716e+00 2.0970982813e+00 3.6322807716e+00 
52800 3.7030555342e+00 2.3204230306e-03 2.0970423981e+00 -3.6321839792e+00 2.0970423981e+00 3.6321839792e+00 
52900 3.7030554261e+00 2.2972207516e-03 2.0969870723e+00 -3.6320881520e+00 2.0969870723e+00 3.6320881520e+00 
53000 3.7030553202e+00 2.2742510688e-03 2.0969322982e+00 -3.6319932805e+00 2.0969322982e+00 3.6319932805e+00 
53100 3.7030552166e+00 2.2515116378e-03 2.0968780704e+00 -3.6318993552e+00 2.0968780704e+00 3.6318993552e+00 
53200 3.7030551151e+00 2.2290001380e-03 2.0968243834e+00 -3.6318063665e+00 2.0968243834e+00 3.6318063665e+00 
53300 3.7030550158e+00 2.2067142722e-03 2.0967712318e+00 -3.6317143053e+00 2.0967712318e+00 3.6317143053e+00 
53400 3.7030549186e+00 2.1846517670e-03 2.0967186103e+00 -3.6316231622e+00 2.0967186103e+00 3.6316231622e+00 
53500 3.7030548234e+00 2.1628103718e-03 2.0966665136e+00 -3.6315329280e+00 2.0966665136e+00 3.6315329280e+00 
53600 3.7030547302e+00 2.1411878591e-03 2.0966149364e+00 -3.6314435938e+00 2.0966149364e+00 3.6314435938e+00 
53700 3.7030546389e+00 2.1197820241e-03 2.0965638737e+00 -3.6313551505e+00 2.0965638737e+00 3.6313551505e+00 
53800 3.7030545496e+00 2.0985906844e-03 2.0965133201e+00 -3.6312675892e+00 2.0965133201e+00 3.6312675892e+00 
53900 3.7030544622e+00 2.0776116797e-03 2.0964632708e+00 -3.6311809012e+00 2.0964632708e+00 3.6311809012e+00 
54000 3.7030543766e+00 2.0568428719e-03 2.0964137206e+00 -3.6310950778e+00 2.0964137206e+00 3.6310950778e+00 
54100 3.7030542928e+00 2.0362821445e-03 2.0963646646e+00 -3.6310101102e+00 2.0963646646e+00 3.6310101102e+00 
54200 3.7030542107e+00 2.0159274027e-03 2.0963160978e+00 -3.6309259901e+00 2.0963160978e+00 3.6309259901e+00 
54300 3.7030541304e+00 1.9957765727e-03 2.0962680153e+00 -3.6308427088e+00 2.0962680153e+00 3.6308427088e+00 
54400 3.7030540518e+00 1.9758276022e-03 2.0962204124e+00 -3.6307602582e+00 2.0962204124e+00 3.6307602582e+00 
54500 3.7030539748e+00 1.9560784593e-03 2.0961732843e+00 -3.6306786298e+00 2.0961732843e+00 3.6306786298e+00 
54600 3.7030538995e+00 1.9365271332e-03 2.0961266261e+00 -3.6305978155e+00 2.0961266261e+00 3.6305978155e+00 
54700 3.7030538258e+00 1.9171716332e-03 2.0960804333e+00 -3.6305178072e+00 2.0960804333e+00 3.6305178072e+00 
54800 3.7030537536e+00 1.8980099890e-03 2.0960347012e+00 -3.6304385968e+00 2.0960347012e+00 3.6304385968e+00 
54900 3.7030536829e+00 1.8790402504e-03 2.0959894251e+00 -3.6303601764e+00 2.0959894251e+00 3.6303601764e+00 
55000 3.7030536138e+00 1.8602604868e-03 2.0959446006e+00 -3.6302825381e+00 2.0959446006e+00 3.6302825381e+00 
55100 3.7030535461e+00 1.8416687873e-03 2.0959002232e+00 -3.6302056741e+00 2.0959002232e+00 3.6302056741e+00 
55200 3.7030534798e+00 1.8232632603e-03 2.0958562883e+00 -3.6301295767e+00 2.0958562883e+00 3.6301295767e+00 
55300 3.7030534150e+00 1.8050420338e-03 2.0958127916e+00 -3.6300542382e+00 2.0958127916e+00 3.6300542382e+00 
55400 3.7030533515e+00 1.7870032542e-03 2.0957697287e+00 -3.6299796510e+00 2.0957697287e+00 3.6299796510e+00 
55500 3.7030532894e+00 1.7691450872e-03 2.0957270952e+00 -3.6299058077e+00 2.0957270952e+00 3.6299058077e+00 
55600 3.7030532286e+00 1.7514657169e-03 2.0956848870e+00 -3.6298327009e+00 2.0956848870e+00 3.6298327009e+00 
55700 3.7030531690e+00 1.7339633458e-03 2.0956430997e+00 -3.6297603232e+00 2.0956430997e+00 3.6297603232e+00 
55800 3.7030531108e+00 1.7166361948e-03 2.0956017292e+00 -3.6296886673e+00 2.0956017292e+00 3.6296886673e+00 
55900 3.7030530538e+00 1.6994825027e-03 2.0955607712e+00 -3.6296177261e+00 2.0955607712e+00 3.6296177261e+00 
56000 3.7030529980e+00 1.6825005260e-03 2.0955202218e+00 -3.6295474924e+00 2.0955202218e+00 3.6295474924e+00 
56100 3.7030529434e+00 1.6656885393e-03 2.0954800767e+00 -3.6294779591e+00 2.0954800767e+00 3.6294779591e+00 
56200 3.7030528899e+00 1.6490448344e-03 2.0954403321e+00 -3.6294091193e+00 2.0954403321e+00 3.6294091193e+00 
56300 3.7030528376e+00 1.6325677203e-03 2.0954009838e+00 -3.6293409661e+00 2.0954009838e+00 3.6293409661e+00 
56400 3.7030527864e+00 1.6162555234e-03 2.0953620279e+00 -3.6292734926e+00 2.0953620279e+00 3.6292734926e+00 
56500 3.7030527364e+00 1.6001065870e-03 2.0953234606e+00 -3.6292066920e+00 2.0953234606e+00 3.6292066920e+00 
56600 3.7030526873e+00 1.5841192710e-03 2.0952852779e+00 -3.6291405577e+00 2.0952852779e+00 3.6291405577e+00 
56700 3.7030526394e+00 1.5682919522e-03 2.0952474760e+00 -3.6290750829e+00 2.0952474760e+00 3.6290750829e+00 
56800 3.7030525924e+00 1.5526230234e-03 2.0952100511e+00 -3.6290102611e+00 2.0952100511e+00 3.6290102611e+00 
56900 3.7030525465e+00 1.5371108942e-03 2.0951729995e+00 -3.6289460858e+00 2.0951729995e+00 3.6289460858e+00 
57000 3.7030525015e+00 1.5217539898e-03 2.0951363174e+00 -3.6288825506e+00 2.0951363174e+00 3.6288825506e+00 
57100 3.7030524575e+00 1.5065507518e-03 2.0951000012e+00 -3.6288196490e+00 2.0951000012e+00 3.6288196490e+00 
57200 3.7030524145e+00 1.4914996371e-03 2.0950640471e+00 -3.6287573748e+00 2.0950640471e+00 3.6287573748e+00 
57300 3.7030523724e+00 1.4765991185e-03 2.0950284517e+00 -3.6286957216e+00 2.0950284517e+00 3.6286957216e+00 
57400 3.7030523312e+00 1.4618476843e-03 2.0949932112e+00 -3.6286346834e+00 2.0949932112e+00 3.6286346834e+00 
57500 3.7030522908e+00 1.4472438379e-03 2.0949583222e+00 -3.6285742539e+00 2.0949583222e+00 3.6285742539e+00 
57600 3.7030522514e+00 1.4327860978e-03 2.0949237812e+00 -3.6285144271e+00 2.0949237812e+00 3.6285144271e+00 
57700 3.7030522128e+00 1.4184729977e-03 2.0948895847e+00 -3.6284551970e+00 2.0948895847e+00 3.6284551970e+00 
57800 3.7030521750e+00 1.4043030860e-03 2.0948557292e+00 -3.6283965576e+00 2.0948557292e+00 3.6283965576e+00 
57900 3.7030521381e+00 1.3902749257e-03 2.0948222114e+00 -3.6283385030e+00 2.0948222114e+00 3.6283385030e+00 
58000 3.7030521019e+00 1.3763870944e-03 2.0947890279e+00 -3.6282810275e+00 2.0947890279e+00 3.6282810275e+00 
58100 3.7030520665e+00 1.3626381841e-03 2.0947561754e+00 -3.6282241252e+00 2.0947561754e+00 3.6282241252e+00 
58200 3.7030520319e+00 1.3490268010e-03 2.0947236505e+00 -3.6281677904e+00 2.0947236505e+00 3.6281677904e+00 
58300 3.7030519981e+00 1.3355515652e-03 2.0946914500e+00 -3.6281120175e+00 2.0946914500e+00 3.6281120175e+00 
58400 3.7030519649e+00 1.3222111111e-03 2.0946595706e+00 -3.6280568008e+00 2.0946595706e+00 3.6280568008e+00 
58500 3.7030519325e+00 1.3090040865e-03 2.0946280092e+00 -3.6280021349e+00 2.0946280092e+00 3.6280021349e+00 
58600 3.7030519008e+00 1.2959291531e-03 2.0945967626e+00 -3.6279480142e+00 2.0945967626e+00 3.6279480142e+00 
58700 3.7030518698e+00 1.2829849860e-03 2.0945658276e+00 -3.6278944332e+00 2.0945658276e+00 3.6278944332e+00 
58800 3.7030518395e+00 1.2701702738e-03 2.0945352012e+00 -3.6278413867e+00 2.0945352012e+00 3.6278413867e+00 
58900 3.7030518098e+00 1.2574837182e-03 2.0945048802e+00 -3.6277888692e+00 2.0945048802e+00 3.6277888692e+00 
59000 3.7030517808e+00 1.2449240339e-03 2.0944748616e+00 -3.6277368755e+00 2.0944748616e+00 3.6277368755e+00 
59100 3.7030517524e+00 1.2324899488e-03 2.0944451425e+00 -3.6276854004e+00 2.0944451425e+00 3.6276854004e+00 
59200 3.7030517246e+00 1.2201802036e-03 2.0944157197e+00 -3.6276344387e+00 2.0944157197e+00 3.6276344387e+00 
59300 3.7030516974e+00 1.2079935516e-03 2.0943865904e+00 -3.6275839853e+00 2.0943865904e+00 3.6275839853e+00 
59400 3.7030516709e+00 1.1959287586e-03 2.0943577516e+00 -3.6275340350e+00 2.0943577516e+00 3.6275340350e+00 
59500 3.7030516449e+00 1.1839846031e-03 2.0943292005e+00 -3.6274845830e+00 2.0943292005e+00 3.6274845830e+00 
59600 3.7030516194e+00 1.1721598756e-03 2.0943009341e+00 -3.6274356242e+00 2.0943009341e+00 3.6274356242e+00 
59700 3.7030515946e+00 1.1604533790e-03 2.0942729497e+00 -3.6273871537e+00 2.0942729497e+00 3.6273871537e+00 
59800 3.7030515703e+00 1.1488639283e-03 2.0942452443e+00 -3.6273391667e+00 2.0942452443e+00 3.6273391667e+00 
59900 3.7030515465e+00 1.1373903504e-03 2.0942178153e+00 -3.6272916582e+00 2.0942178153e+00 3.6272916582e+00 
60000 3.7030515232e+00 1.1260314838e-03 2.0941906599e+00 -3.6272446236e+00 2.0941906599e+00 3.6272446236e+00 
60100 3.7030515005e+00 1.1147861790e-03 2.0941637753e+00 -3.6271980582e+00 2.0941637753e+00 3.6271980582e+00 
60200 3.7030514782e+00 1.1036532979e-03 2.0941371588e+00 -3.6271519571e+00 2.0941371588e+00 3.6271519571e+00 
60300 3.7030514565e+00 1.0926317140e-03 2.0941108079e+00 -3.6271063159e+00 2.0941108079e+00 3.6271063159e+00 
60400 3.7030514352e+00 1.0817203120e-03 2.0940847197e+00 -3.6270611299e+00 2.0940847197e+00 3.6270611299e+00 
60500 3.7030514144e+00 1.0709179879e-03 2.0940588918e+00 -3.6270163946e+00 2.0940588918e+00 3.6270163946e+00 
60600 3.7030513941e+00 1.0602236489e-03 2.0940333214e+00 -3.6269721055e+00 2.0940333214e+00 3.6269721055e+00 
60700 3.7030513742e+00 1.0496362131e-03 2.0940080061e+00 -3.6269282581e+00 2.0940080061e+00 3.6269282581e+00 
60800 3.7030513547e+00 1.0391546094e-03 2.0939829433e+00 -3.6268848480e+00 2.0939829433e+00 3.6268848480e+00 
60900 3.7030513357e+00 1.0287777778e-03 2.0939581305e+00 -3.6268418710e+00 2.0939581305e+00 3.6268418710e+00 
61000 3.7030513171e+00 1.0185046686e-03 2.0939335652e+00 -3.6267993226e+00 2.0939335652e+00 3.6267993226e+00 
61100 3.7030512989e+00 1.0083342428e-03 2.0939092449e+00 -3.6267571985e+00 2.0939092449e+00 3.6267571985e+00 
61200 3.7030512812e+00 9.9826547204e-04 2.0938851671e+00 -3.6267154947e+00 2.0938851671e+00 3.6267154947e+00 
61300 3.7030512638e+00 9.8829733804e-04 2.0938613295e+00 -3.6266742067e+00 2.0938613295e+00 3.6266742067e+00 
61400 3.7030512468e+00 9.7842883291e-04 2.0938377297e+00 -3.6266333306e+00 2.0938377297e+00 3.6266333306e+00 
61500 3.7030512302e+00 9.6865895886e-04 2.0938143652e+00 -3.6265928622e+00 2.0938143652e+00 3.6265928622e+00 
61600 3.7030512139e+00 9.5898672814e-04 2.0937912338e+00 -3.6265527975e+00 2.0937912338e+00 3.6265527975e+00 
61700 3.7030511981e+00 9.4941116293e-04 2.0937683332e+00 -3.6265131323e+00 2.0937683332e+00 3.6265131323e+00 
61800 3.7030511826e+00 9.3993129527e-04 2.0937456609e+00 -3.6264738628e+00 2.0937456609e+00 3.6264738628e+00 
61900 3.7030511674e+00 9.3054616690e-04 2.0937232148e+00 -3.6264349850e+00 2.0937232148e+00 3.6264349850e+00 
62000 3.7030511526e+00 9.2125482921e-04 2.0937009925e+00 -3.6263964949e+00 2.0937009925e+00 3.6263964949e+00 
62100 3.7030511381e+00 9.1205634314e-04 2.0936789919e+00 -3.6263583888e+00 2.0936789919e+00 3.6263583888e+00 
62200 3.7030511239e+00 9.0294977906e-04 2.0936572108e+00 -3.6263206627e+00 2.0936572108e+00 3.6263206627e+00 
62300 3.7030511101e+00 8.9393421667e-04 2.0936356469e+00 -3.6262833129e+00 2.0936356469e+00 3.6262833129e+00 
62400 3.7030510965e+00 8.8500874494e-04 2.0936142981e+00 -3.6262463357e+00 2.0936142981e+00 3.6262463357e+00 
62500 3.7030510833e+00 8.7617246200e-04 2.0935931622e+00 -3.6262097273e+00 2.0935931622e+00 3.6262097273e+00 
62600 3.7030510704e+00 8.6742447504e-04 2.0935722372e+00 -3.6261734841e+00 2.0935722372e+00 3.6261734841e+00 
62700 3.7030510578e+00 8.5876390020e-04 2.0935515208e+00 -3.6261376023e+00 2.0935515208e+00 3.6261376023e+00 
62800 3.7030510454e+00 8.5018986253e-04 2.0935310111e+00 -3.6261020785e+00 2.0935310111e+00 3.6261020785e+00 
62900 3.7030510334e+00 8.4170149587e-04 2.0935107060e+00 -3.6260669089e+00 2.0935107060e+00 3.6260669089e+00 
63000 3.7030510216e+00 8.3329794274e-04 2.0934906034e+00 -3.6260320902e+00 2.0934906034e+00 3.6260320902e+00 
63100 3.7030510101e+00 8.2497835430e-04 2.0934707013e+00 -3.6259976188e+00 2.0934707013e+00 3.6259976188e+00 
63200 3.7030509988e+00 8.1674189021e-04 2.0934509977e+00 -3.6259634912e+00 2.0934509977e+00 3.6259634912e+00 
63300 3.7030509878e+00 8.0858771859e-04 2.0934314907e+00 -3.6259297040e+00 2.0934314907e+00 3.6259297040e+00 
63400 3.7030509771e+00 8.0051501592e-04 2.0934121782e+00 -3.6258962538e+00 2.0934121782e+00 3.6258962538e+00 
63500 3.7030509666e+00 7.9252296692e-04 2.0933930584e+00 -3.6258631373e+00 2.0933930584e+00 3.6258631373e+00 
63600 3.7030509563e+00 7.8461076454e-04 2.0933741293e+00 -3.6258303511e+00 2.0933741293e+00 3.6258303511e+00 
63700 3.7030509463e+00 7.7677760981e-04 2.0933553889e+00 -3.6257978920e+00 2.0933553889e+00 3.6257978920e+00 
63800 3.7030509365e+00 7.6902271177e-04 2.0933368356e+00 -3.6257657566e+00 2.0933368356e+00 3.6257657566e+00 
63900 3.7030509270e+00 7.6134528743e-04 2.0933184672e+00 -3.6257339417e+00 2.0933184672e+00 3.6257339417e+00 
64000 3.7030509176e+00 7.5374456164e-04 2.0933002821e+00 -3.6257024442e+00 2.0933002821e+00 3.6257024442e+00 
64100 3.7030509085e+00 7.4621976703e-04 2.0932822784e+00 -3.6256712608e+00 2.0932822784e+00 3.6256712608e+00 
64200 3.7030508996e+00 7.3877014395e-04 2.0932644543e+00 -3.6256403885e+00 2.0932644543e+00 3.6256403885e+00 
64300 3.7030508909e+00 7.3139494037e-04 2.0932468080e+00 -3.6256098242e+00 2.0932468080e+00 3.6256098242e+00 
64400 3.7030508824e+00 7.2409341180e-04 2.0932293376e+00 -3.6255795647e+00 2.0932293376e+00 3.6255795647e+00 
64500 3.7030508741e+00 7.1686482121e-04 2.0932120416e+00 -3.6255496070e+00 2.0932120416e+00 3.6255496070e+00 
64600 3.7030508660e+00 7.0970843900e-04 2.0931949180e+00 -3.6255199482e+00 2.0931949180e+00 3.6255199482e+00 
64700 3.7030508581e+00 7.0262354286e-04 2.0931779653e+00 -3.6254905852e+00 2.0931779653e+00 3.6254905852e+00 
64800 3.7030508504e+00 6.9560941774e-04 2.0931611817e+00 -3.6254615151e+00 2.0931611817e+00 3.6254615151e+00 
64900 3.7030508428e+00 6.8866535576e-04 2.0931445655e+00 -3.6254327350e+00 2.0931445655e+00 3.6254327350e+00 
65000 3.7030508355e+00 6.8179065616e-04 2.0931281150e+00 -3.6254042419e+00 2.0931281150e+00 3.6254042419e+00 
65100 3.7030508283e+00 6.7498462518e-04 2.0931118286e+00 -3.6253760331e+00 2.0931118286e+00 3.6253760331e+00 
65200 3.7030508213e+00 6.6824657604e-04 2.0930957047e+00 -3.6253481056e+00 2.0930957047e+00 3.6253481056e+00 
65300 3.7030508144e+00 6.6157582884e-04 2.0930797416e+00 -3.6253204567e+00 2.0930797416e+00 3.6253204567e+00 
65400 3.7030508077e+00 6.5497171051e-04 2.0930639377e+00 -3.6252930836e+00 2.0930639377e+00 3.6252930836e+00 
65500 3.7030508012e+00 6.4843355471e-04 2.0930482915e+00 -3.6252659836e+00 2.0930482915e+00 3.6252659836e+00 
65600 3.7030507948e+00 6.4196070180e-04 2.0930328013e+00 -3.6252391538e+00 2.0930328013e+00 3.6252391538e+00 
65700 3.7030507886e+00 6.3555249875e-04 2.0930174657e+00 -3.6252125917e+00 2.0930174657e+00 3.6252125917e+00 
65800 3.7030507825e+00 6.2920829908e-04 2.0930022830e+00 -3.6251862946e+00 2.0930022830e+00 3.6251862946e+00 
65900 3.7030507766e+00 6.2292746279e-04 2.0929872518e+00 -3.6251602597e+00 2.0929872518e+00 3.6251602597e+00 
66000 3.7030507708e+00 6.1670935629e-04 2.0929723705e+00 -3.6251344846e+00 2.0929723705e+00 3.6251344846e+00 
66100 3.7030507651e+00 6.1055335236e-04 2.0929576377e+00 -3.6251089666e+00 2.0929576377e+00 3.6251089666e+00 
66200 3.7030507596e+00 6.0445883004e-04 2.0929430518e+00 -3.6250837031e+00 2.0929430518e+00 3.6250837031e+00 
66300 3.7030507543e+00 5.9842517462e-04 2.0929286114e+00 -3.6250586916e+00 2.0929286114e+00 3.6250586916e+00 
66400 3.7030507490e+00 5.9245177755e-04 2.0929143151e+00 -3.6250339296e+00 2.0929143151e+00 3.6250339296e+00 
66500 3.7030507439e+00 5.8653803637e-04 2.0929001613e+00 -3.6250094146e+00 2.0929001613e+00 3.6250094146e+00 
66600 3.7030507389e+00 5.8068335465e-04 2.0928861488e+00 -3.6249851442e+00 2.0928861488e+00 3.6249851442e+00 
66700 3.7030507340e+00 5.7488714196e-04 2.0928722760e+00 -3.6249611158e+00 2.0928722760e+00 3.6249611158e+00 
66800 3.7030507293e+00 5.6914881377e-04 2.0928585416e+00 -3.6249373271e+00 2.0928585416e+00 3.6249373271e+00 
66900 3.7030507247e+00 5.6346779142e-04 2.0928449442e+00 -3.6249137758e+00 2.0928449442e+00 3.6249137758e+00 
67000 3.7030507201e+00 5.5784350203e-04 2.0928314825e+00 -3.6248904593e+00 2.0928314825e+00 3.6248904593e+00 
67100 3.7030507157e+00 5.5227537848e-04 2.0928181550e+00 -3.6248673755e+00 2.0928181550e+00 3.6248673755e+00 
67200 3.7030507114e+00 5.4676285932e-04 2.0928049605e+00 -3.6248445219e+00 2.0928049605e+00 3.6248445219e+00 
67300 3.7030507072e+00 5.4130538873e-04 2.0927918976e+00 -3.6248218963e+00 2.0927918976e+00 3.6248218963e+00 
67400 3.7030507032e+00 5.3590241646e-04 2.0927789650e+00 -3.6247994964e+00 2.0927789650e+00 3.6247994964e+00 
67500 3.7030506992e+00 5.3055339777e-04 2.0927661614e+00 -3.6247773199e+00 2.0927661614e+00 3.6247773199e+00 
67600 3.7030506953e+00 5.2525779338e-04 2.0927534855e+00 -3.6247553646e+00 2.0927534855e+00 3.6247553646e+00 
67700 3.7030506915e+00 5.2001506940e-04 2.0927409361e+00 -3.6247336284e+00 2.0927409361e+00 3.6247336284e+00 
67800 3.7030506878e+00 5.1482469730e-04 2.0927285118e+00 -3.6247121090e+00 2.0927285118e+00 3.6247121090e+00 
67900 3.7030506842e+00 5.0968615383e-04 2.0927162115e+00 -3.6246908042e+00 2.0927162115e+00 3.6246908042e+00 
68000 3.7030506807e+00 5.0459892101e-04 2.0927040339e+00 -3.6246697119e+00 2.0927040339e+00 3.6246697119e+00 
68100 3.7030506773e+00 4.9956248602e-04 2.0926919778e+00 -3.6246488301e+00 2.0926919778e+00 3.6246488301e+00 
68200 3.7030506740e+00 4.9457634118e-04 2.0926800419e+00 -3.6246281566e+00 2.0926800419e+00 3.6246281566e+00 
68300 3.7030506707e+00 4.8963998391e-04 2.0926682251e+00 -3.6246076893e+00 2.0926682251e+00 3.6246076893e+00 
68400 3.7030506676e+00 4.8475291663e-04 2.0926565262e+00 -3.6245874261e+00 2.0926565262e+00 3.6245874261e+00 
68500 3.7030506645e+00 4.7991464677e-04 2.0926449440e+00 -3.6245673651e+00 2.0926449440e+00 3.6245673651e+00 
68600 3.7030506615e+00 4.7512468670e-04 2.0926334773e+00 -3.6245475042e+00 2.0926334773e+00 3.6245475042e+00 
68700 3.7030506586e+00 4.7038255363e-04 2.0926221250e+00 -3.6245278415e+00 2.0926221250e+00 3.6245278415e+00 
68800 3.7030506557e+00 4.6568776965e-04 2.0926108859e+00 -3.6245083748e+00 2.0926108859e+00 3.6245083748e+00 
68900 3.7030506529e+00 4.6103986161e-04 2.0925997589e+00 -3.6244891024e+00 2.0925997589e+00 3.6244891024e+00 
69000 3.7030506502e+00 4.5643836110e-04 2.0925887430e+00 -3.6244700222e+00 2.0925887430e+00 3.6244700222e+00 
69100 3.7030506476e+00 4.5188280440e-04 2.0925778369e+00 -3.6244511324e+00 2.0925778369e+00 3.6244511324e+00 
69200 3.7030506451e+00 4.4737273244e-04 2.0925670397e+00 -3.6244324310e+00 2.0925670397e+00 3.6244324310e+00 
69300 3.7030506426e+00 4.4290769072e-04 2.0925563501e+00 -3.6244139161e+00 2.0925563501e+00 3.6244139161e+00 
69400 3.7030506401e+00 4.3848722932e-04 2.0925457672e+00 -3.6243955859e+00 2.0925457672e+00 3.6243955859e+00 
69500 3.7030506378e+00 4.3411090281e-04 2.0925352898e+00 -3.6243774386e+00 2.0925352898e+00 3.6243774386e+00 
69600 3.7030506355e+00 4.2977827022e-04 2.0925249170e+00 -3.6243594723e+00 2.0925249170e+00 3.6243594723e+00 
69700 3.7030506332e+00 4.2548889498e-04 2.0925146476e+00 -3.6243416853e+00 2.0925146476e+00 3.6243416853e+00 
69800 3.7030506311e+00 4.2124234490e-04 2.0925044807e+00 -3.6243240757e+00 2.0925044807e+00 3.6243240757e+00 
69900 3.7030506290e+00 4.1703819212e-04 2.0924944152e+00 -3.6243066417e+00 2.0924944152e+00 3.6243066417e+00 
70000 3.7030506269e+00 4.1287601307e-04 2.0924844501e+00 -3.6242893817e+00 2.0924844501e+00 3.6242893817e+00 
70100 3.7030506249e+00 4.0875538838e-04 2.0924745844e+00 -3.6242722938e+00 2.0924745844e+00 3.6242722938e+00 
70200 3.7030506229e+00 4.0467590292e-04 2.0924648172e+00 -3.6242553764e+00 2.0924648172e+00 3.6242553764e+00 
70300 3.7030506211e+00 4.0063714569e-04 2.0924551474e+00 -3.6242386278e+00 2.0924551474e+00 3.6242386278e+00 
70400 3.7030506192e+00 3.9663870980e-04 2.0924455740e+00 -3.6242220462e+00 2.0924455740e+00 3.6242220462e+00 
70500 3.7030506174e+00 3.9268019245e-04 2.0924360961e+00 -3.6242056301e+00 2.0924360961e+00 3.6242056301e+00 
70600 3.7030506157e+00 3.8876119485e-04 2.0924267128e+00 -3.6241893777e+00 2.0924267128e+00 3.6241893777e+00 
70700 3.7030506140e+00 3.8488132221e-04 2.0924174231e+00 -3.6241732874e+00 2.0924174231e+00 3.6241732874e+00 
70800 3.7030506124e+00 3.8104018369e-04 2.0924082260e+00 -3.6241573577e+00 2.0924082260e+00 3.6241573577e+00 
70900 3.7030506108e+00 3.7723739236e-04 2.0923991207e+00 -3.6241415869e+00 2.0923991207e+00 3.6241415869e+00 
71000 3.7030506092e+00 3.7347256514e-04 2.0923901063e+00 -3.6241259733e+00 2.0923901063e+00 3.6241259733e+00 
71100 3.7030506077e+00 3.6974532282e-04 2.0923811817e+00 -3.6241105156e+00 2.0923811817e+00 3.6241105156e+00 
71200 3.7030506062e+00 3.6605528996e-04 2.0923723462e+00 -3.6240952120e+00 2.0923723462e+00 3.6240952120e+00 
71300 3.7030506048e+00 3.6240209487e-04 2.0923635989e+00 -3.6240800612e+00 2.0923635989e+00 3.6240800612e+00 
71400 3.7030506034e+00 3.5878536958e-04 2.0923549388e+00 -3.6240650614e+00 2.0923549388e+00 3.6240650614e+00 
71500 3.7030506021e+00 3.5520474983e-04 2.0923463650e+00 -3.6240502113e+00 2.0923463650e+00 3.6240502113e+00 
71600 3.7030506008e+00 3.5165987495e-04 2.0923378769e+00 -3.6240355093e+00 2.0923378769e+00 3.6240355093e+00 
71700 3.7030505996e+00 3.4815038793e-04 2.0923294734e+00 -3.6240209540e+00 2.0923294734e+00 3.6240209540e+00 
71800 3.7030505983e+00 3.4467593530e-04 2.0923211537e+00 -3.6240065439e+00 2.0923211537e+00 3.6240065439e+00 
71900 3.7030505971e+00 3.4123616713e-04 2.0923129170e+00 -3.6239922776e+00 2.0923129170e+00 3.6239922776e+00 
72000 3.7030505960e+00 3.3783073699e-04 2.0923047625e+00 -3.6239781535e+00 2.0923047625e+00 3.6239781535e+00 
72100 3.7030505949e+00 3.3445930191e-04 2.0922966893e+00 -3.6239641704e+00 2.0922966893e+00 3.6239641704e+00 
72200 3.7030505938e+00 3.3112152237e-04 2.0922886967e+00 -3.6239503267e+00 2.0922886967e+00 3.6239503267e+00 
72300 3.7030505928e+00 3.2781706222e-04 2.0922807838e+00 -3.6239366212e+00 2.0922807838e+00 3.6239366212e+00 
72400 3.7030505917e+00 3.2454558869e-04 2.0922729498e+00 -3.6239230524e+00 2.0922729498e+00 3.6239230524e+00 
72500 3.7030505908e+00 3.2130677231e-04 2.0922651940e+00 -3.6239096189e+00 2.0922651940e+00 3.6239096189e+00 
72600 3.7030505898e+00 3.1810028694e-04 2.0922575156e+00 -3.6238963195e+00 2.0922575156e+00 3.6238963195e+00 
72700 3.7030505889e+00 3.1492580968e-04 2.0922499137e+00 -3.6238831527e+00 2.0922499137e+00 3.6238831527e+00 
72800 3.7030505880e+00 3.1178302086e-04 2.0922423877e+00 -3.6238701173e+00 2.0922423877e+00 3.6238701173e+00 
72900 3.7030505871e+00 3.0867160401e-04 2.0922349368e+00 -3.6238572119e+00 2.0922349368e+00 3.6238572119e+00 
73000 3.7030505863e+00 3.0559124582e-04 2.0922275602e+00 -3.6238444353e+00 2.0922275602e+00 3.6238444353e+00 
73100 3.7030505855e+00 3.0254163612e-04 2.0922202572e+00 -3.6238317861e+00 2.0922202572e+00 3.6238317861e+00 
73200 3.7030505847e+00 2.9952246783e-04 2.0922130270e+00 -3.6238192631e+00 2.0922130270e+00 3.6238192631e+00 
73300 3.7030505840e+00 2.9653343695e-04 2.0922058690e+00 -3.6238068650e+00 2.0922058690e+00 3.6238068650e+00 
73400 3.7030505832e+00 2.9357424251e-04 2.0921987824e+00 -3.6237945907e+00 2.0921987824e+00 3.6237945907e+00 
73500 3.7030505825e+00 2.9064458655e-04 2.0921917665e+00 -3.6237824387e+00 2.0921917665e+00 3.6237824387e+00 
73600 3.7030505818e+00 2.8774417410e-04 2.0921848206e+00 -3.6237704080e+00 2.0921848206e+00 3.6237704080e+00 
73700 3.7030505812e+00 2.8487271312e-04 2.0921779439e+00 -3.6237584973e+00 2.0921779439e+00 3.6237584973e+00 
73800 3.7030505806e+00 2.8202991451e-04 2.0921711359e+00 -3.6237467055e+00 2.0921711359e+00 3.6237467055e+00 
73900 3.7030505799e+00 2.7921549204e-04 2.0921643958e+00 -3.6237350312e+00 2.0921643958e+00 3.6237350312e+00 
74000 3.7030505794e+00 2.7642916235e-04 2.0921577229e+00 -3.6237234735e+00 2.0921577229e+00 3.6237234735e+00 
74100 3.7030505788e+00 2.7367064491e-04 2.0921511166e+00 -3.6237120310e+00 2.0921511166e+00 3.6237120310e+00 
74200 3.7030505782e+00 2.7093966201e-04 2.0921445761e+00 -3.6237007027e+00 2.0921445761e+00 3.6237007027e+00 
74300 3.7030505777e+00 2.6823593868e-04 2.0921381010e+00 -3.6236894874e+00 2.0921381010e+00 3.6236894874e+00 
74400 3.7030505772e+00 2.6555920273e-04 2.0921316904e+00 -3.6236783839e+00 2.0921316904e+00 3.6236783839e+00 
74500 3.7030505767e+00 2.6290918469e-04 2.0921253438e+00 -3.6236673913e+00 2.0921253438e+00 3.6236673913e+00 
74600 3.7030505763e+00 2.6028561775e-04 2.0921190605e+00 -3.6236565083e+00 2.0921190605e+00 3.6236565083e+00 
74700 3.7030505758e+00 2.5768823781e-04 2.0921128399e+00 -3.6236457338e+00 2.0921128399e+00 3.6236457338e+00 
74800 3.7030505754e+00 2.5511678338e-04 2.0921066813e+00 -3.6236350669e+00 2.0921066813e+00 3.6236350669e+00 
74900 3.7030505750e+00 2.5257099559e-04 2.0921005842e+00 -3.6236245064e+00 2.0921005842e+00 3.6236245064e+00 
75000 3.7030505746e+00 2.5005061816e-04 2.0920945479e+00 -3.6236140512e+00 2.0920945479e+00 3.6236140512e+00 
75100 3.7030505742e+00 2.4755539738e-04 2.0920885718e+00 -3.6236037003e+00 2.0920885718e+00 3.6236037003e+00 
75200 3.7030505738e+00 2.4508508204e-04 2.0920826554e+00 -3.6235934527e+00 2.0920826554e+00 3.6235934527e+00 
75300 3.7030505735e+00 2.4263942349e-04 2.0920767979e+00 -3.6235833073e+00 2.0920767979e+00 3.6235833073e+00 
75400 3.7030505731e+00 2.4021817553e-04 2.0920709989e+00 -3.6235732632e+00 2.0920709989e+00 3.6235732632e+00 
75500 3.7030505728e+00 2.3782109443e-04 2.0920652578e+00 -3.6235633192e+00 2.0920652578e+00 3.6235633192e+00 
75600 3.7030505725e+00 2.3544793890e-04 2.0920595739e+00 -3.6235534744e+00 2.0920595739e+00 3.6235534744e+00 
75700 3.7030505722e+00 2.3309847005e-04 2.0920539467e+00 -3.6235437279e+00 2.0920539467e+00 3.6235437279e+00 
75800 3.7030505719e+00 2.3077245138e-04 2.0920483757e+00 -3.6235340785e+00 2.0920483757e+00 3.6235340785e+00 
75900 3.7030505717e+00 2.2846964877e-04 2.0920428602e+00 -3.6235245255e+00 2.0920428602e+00 3.6235245255e+00 
76000 3.7030505714e+00 2.2618983041e-04 2.0920373998e+00 -3.6235150677e+00 2.0920373998e+00 3.6235150677e+00 
76100 3.7030505712e+00 2.2393276684e-04 2.0920319938e+00 -3.6235057043e+00 2.0920319938e+00 3.6235057043e+00 
76200 3.7030505710e+00 2.2169823085e-04 2.0920266417e+00 -3.6234964343e+00 2.0920266417e+00 3.6234964343e+00 
76300 3.7030505707e+00 2.1948599755e-04 2.0920213431e+00 -3.6234872568e+00 2.0920213431e+00 3.6234872568e+00 
76400 3.7030505705e+00 2.1729584425e-04 2.0920160973e+00 -3.6234781708e+00 2.0920160973e+00 3.6234781708e+00 
76500 3.7030505703e+00 2.1512755052e-04 2.0920109039e+00 -3.6234691755e+00 2.0920109039e+00 3.6234691755e+00 
76600 3.7030505702e+00 2.1298089811e-04 2.0920057622e+00 -3.6234602699e+00 2.0920057622e+00 3.6234602699e+00 
76700 3.7030505700e+00 2.1085567095e-04 2.0920006719e+00 -3.6234514531e+00 2.0920006719e+00 3.6234514531e+00 
76800 3.7030505698e+00 2.0875165516e-04 2.0919956323e+00 -3.6234427244e+00 2.0919956323e+00 3.6234427244e+00 
76900 3.7030505697e+00 2.0666863896e-04 2.0919906430e+00 -3.6234340827e+00 2.0919906430e+00 3.6234340827e+00 
77000 3.7030505695e+00 2.0460641269e-04 2.0919857035e+00 -3.6234255272e+00 2.0919857035e+00 3.6234255272e+00 
77100 3.7030505694e+00 2.0256476881e-04 2.0919808132e+00 -3.6234170570e+00 2.0919808132e+00 3.6234170570e+00 
77200 3.7030505693e+00 2.0054350183e-04 2.0919759718e+00 -3.6234086714e+00 2.0919759718e+00 3.6234086714e+00 
77300 3.7030505692e+00 1.9854240833e-04 2.0919711786e+00 -3.6234003694e+00 2.0919711786e+00 3.6234003694e+00 
77400 3.7030505691e+00 1.9656128689e-04 2.0919664333e+00 -3.6233921502e+00 2.0919664333e+00 3.6233921502e+00 
77500 3.7030505690e+00 1.9459993814e-04 2.0919617353e+00 -3.6233840130e+00 2.0919617353e+00 3.6233840130e+00 
77600 3.7030505689e+00 1.9265816467e-04 2.0919570842e+00 -3.6233759570e+00 2.0919570842e+00 3.6233759570e+00 
77700 3.7030505688e+00 1.9073577108e-04 2.0919524794e+00 -3.6233679814e+00 2.0919524794e+00 3.6233679814e+00 
77800 3.7030505687e+00 1.8883256388e-04 2.0919479206e+00 -3.6233600853e+00 2.0919479206e+00 3.6233600853e+00 
77900 3.7030505687e+00 1.8694835154e-04 2.0919434073e+00 -3.6233522680e+00 2.0919434073e+00 3.6233522680e+00 
78000 3.7030505686e+00 1.8508294443e-04 2.0919389390e+00 -3.6233445287e+00 2.0919389390e+00 3.6233445287e+00 
78100 3.7030505686e+00 1.8323615482e-04 2.0919345153e+00 -3.6233368666e+00 2.0919345153e+00 3.6233368666e+00 
78200 3.7030505685e+00 1.8140779686e-04 2.0919301357e+00 -3.6233292809e+00 2.0919301357e+00 3.6233292809e+00 
78300 3.7030505685e+00 1.7959768654e-04 2.0919257998e+00 -3.6233217710e+00 2.0919257998e+00 3.6233217710e+00 
78400 3.7030505685e+00 1.7780564171e-04 2.0919215072e+00 -3.6233143359e+00 2.0919215072e+00 3.6233143359e+00 
78500 3.7030505685e+00 1.7603148201e-04 2.0919172574e+00 -3.6233069750e+00 2.0919172574e+00 3.6233069750e+00 
78600 3.7030505684e+00 1.7427502891e-04 2.0919130500e+00 -3.6232996875e+00 2.0919130500e+00 3.6232996875e+00 
78700 3.7030505684e+00 1.7253610566e-04 2.0919088845e+00 -3.6232924728e+00 2.0919088845e+00 3.6232924728e+00 
78800 3.7030505684e+00 1.7081453725e-04 2.0919047606e+00 -3.6232853300e+00 2.0919047606e+00 3.6232853300e+00 
78900 3.7030505684e+00 1.6911015044e-04 2.0919006779e+00 -3.6232782585e+00 2.0919006779e+00 3.6232782585e+00 
79000 3.7030505684e+00 1.6742277371e-04 2.0918966358e+00 -3.6232712575e+00 2.0918966358e+00 3.6232712575e+00 
79100 3.7030505684e+00 1.6575223727e-04 2.0918926342e+00 -3.6232643263e+00 2.0918926342e+00 3.6232643263e+00 
79200 3.7030505685e+00 1.6409837301e-04 2.0918886724e+00 -3.6232574643e+00 2.0918886724e+00 3.6232574643e+00 
79300 3.7030505685e+00 1.6246101450e-04 2.0918847501e+00 -3.6232506708e+00 2.0918847501e+00 3.6232506708e+00 
79400 3.7030505685e+00 1.6083999698e-04 2.0918808670e+00 -3.6232439450e+00 2.0918808670e+00 3.6232439450e+00 
79500 3.7030505685e+00 1.5923515731e-04 2.0918770226e+00 -3.6232372863e+00 2.0918770226e+00 3.6232372863e+00 
79600 3.7030505686e+00 1.5764633403e-04 2.0918732166e+00 -3.6232306941e+00 2.0918732166e+00 3.6232306941e+00 
79700 3.7030505686e+00 1.5607336724e-04 2.0918694485e+00 -3.6232241676e+00 2.0918694485e+00 3.6232241676e+00 
79800 3.7030505687e+00 1.5451609866e-04 2.0918657180e+00 -3.6232177063e+00 2.0918657180e+00 3.6232177063e+00 
79900 3.7030505687e+00 1.5297437160e-04 2.0918620248e+00 -3.6232113093e+00 2.0918620248e+00 3.6232113093e+00 
80000 3.7030505688e+00 1.5144803092e-04 2.0918583684e+00 -3.6232049762e+00 2.0918583684e+00 3.6232049762e+00 
80100 3.7030505688e+00 1.4993692302e-04 2.0918547484e+00 -3.6231987063e+00 2.0918547484e+00 3.6231987063e+00 
80200 3.7030505689e+00 1.4844089586e-04 2.0918511646e+00 -3.6231924990e+00 2.0918511646e+00 3.6231924990e+00 
80300 3.7030505689e+00 1.4695979891e-04 2.0918476165e+00 -3.6231863535e+00 2.0918476165e+00 3.6231863535e+00 
80400 3.7030505690e+00 1.4549348313e-04 2.0918441038e+00 -3.6231802694e+00 2.0918441038e+00 3.6231802694e+00 
80500 3.7030505691e+00 1.4404180097e-04 2.0918406262e+00 -3.6231742459e+00 2.0918406262e+00 3.6231742459e+00 
80600 3.7030505692e+00 1.4260460637e-04 2.0918371833e+00 -3.6231682826e+00 2.0918371833e+00 3.6231682826e+00 
80700 3.7030505692e+00 1.4118175472e-04 2.0918337747e+00 -3.6231623787e+00 2.0918337747e+00 3.6231623787e+00 
80800 3.7030505693e+00 1.3977310284e-04 2.0918304001e+00 -3.6231565338e+00 2.0918304001e+00 3.6231565338e+00 
80900 3.7030505694e+00 1.3837850900e-04 2.0918270592e+00 -3.6231507471e+00 2.0918270592e+00 3.6231507471e+00 
81000 3.7030505695e+00 1.3699783288e-04 2.0918237516e+00 -3.6231450182e+00 2.0918237516e+00 3.6231450182e+00 
81100 3.7030505696e+00 1.3563093556e-04 2.0918204770e+00 -3.6231393464e+00 2.0918204770e+00 3.6231393464e+00 
81200 3.7030505697e+00 1.3427767950e-04 2.0918172350e+00 -3.6231337312e+00 2.0918172350e+00 3.6231337312e+00 
81300 3.7030505697e+00 1.3293792853e-04 2.0918140254e+00 -3.6231281720e+00 2.0918140254e+00 3.6231281720e+00 
81400 3.7030505698e+00 1.3161154787e-04 2.0918108478e+00 -3.6231226683e+00 2.0918108478e+00 3.6231226683e+00 
81500 3.7030505699e+00 1.3029840405e-04 2.0918077020e+00 -3.6231172195e+00 2.0918077020e+00 3.6231172195e+00 
81600 3.7030505700e+00 1.2899836494e-04 2.0918045875e+00 -3.6231118250e+00 2.0918045875e+00 3.6231118250e+00 
81700 3.7030505701e+00 1.2771129976e-04 2.0918015041e+00 -3.6231064844e+00 2.0918015041e+00 3.6231064844e+00 
81800 3.7030505702e+00 1.2643707899e-04 2.0917984514e+00 -3.6231011970e+00 2.0917984514e+00 3.6231011970e+00 
81900 3.7030505703e+00 1.2517557443e-04 2.0917954292e+00 -3.6230959624e+00 2.0917954292e+00 3.6230959624e+00 
82000 3.7030505704e+00 1.2392665916e-04 2.0917924371e+00 -3.6230907800e+00 2.0917924371e+00 3.6230907800e+00 
82100 3.7030505705e+00 1.2269020752e-04 2.0917894749e+00 -3.6230856493e+00 2.0917894749e+00 3.6230856493e+00 
82200 3.7030505707e+00 1.2146609511e-04 2.0917865423e+00 -3.6230805698e+00 2.0917865423e+00 3.6230805698e+00 
82300 3.7030505708e+00 1.2025419876e-04 2.0917836389e+00 -3.6230755409e+00 2.0917836389e+00 3.6230755409e+00 
82400 3.7030505709e+00 1.1905439655e-04 2.0917807644e+00 -3.6230705623e+00 2.0917807644e+00 3.6230705623e+00 
82500 3.7030505710e+00 1.1786656776e-04 2.0917779186e+00 -3.6230656332e+00 2.0917779186e+00 3.6230656332e+00 
82600 3.7030505711e+00 1.1669059288e-04 2.0917751013e+00 -3.6230607534e+00 2.0917751013e+00 3.6230607534e+00 
82700 3.7030505712e+00 1.1552635360e-04 2.0917723120e+00 -3.6230559222e+00 2.0917723120e+00 3.6230559222e+00 
82800 3.7030505713e+00 1.1437373278e-04 2.0917695505e+00 -3.6230511393e+00 2.0917695505e+00 3.6230511393e+00 
82900 3.7030505715e+00 1.1323261445e-04 2.0917668167e+00 -3.6230464040e+00 2.0917668167e+00 3.6230464040e+00 
83000 3.7030505716e+00 1.1210288382e-04 2.0917641100e+00 -3.6230417160e+00 2.0917641100e+00 3.6230417160e+00 
83100 3.7030505717e+00 1.1098442721e-04 2.0917614304e+00 -3.6230370748e+00 2.0917614304e+00 3.6230370748e+00 
83200 3.7030505718e+00 1.0987713211e-04 2.0917587775e+00 -3.6230324798e+00 2.0917587775e+00 3.6230324798e+00 
83300 3.7030505719e+00 1.0878088711e-04 2.0917561511e+00 -3.6230279307e+00 2.0917561511e+00 3.6230279307e+00 
83400 3.7030505721e+00 1.0769558192e-04 2.0917535509e+00 -3.6230234270e+00 2.0917535509e+00 3.6230234270e+00 
83500 3.7030505722e+00 1.0662110734e-04 2.0917509766e+00 -3.6230189682e+00 2.0917509766e+00 3.6230189682e+00 
83600 3.7030505723e+00 1.0555735529e-04 2.0917484280e+00 -3.6230145539e+00 2.0917484280e+00 3.6230145539e+00 
83700 3.7030505724e+00 1.0450421874e-04 2.0917459048e+00 -3.6230101836e+00 2.0917459048e+00 3.6230101836e+00 
83800 3.7030505726e+00 1.0346159173e-04 2.0917434068e+00 -3.6230058569e+00 2.0917434068e+00 3.6230058569e+00 
83900 3.7030505727e+00 1.0242936938e-04 2.0917409337e+00 -3.6230015734e+00 2.0917409337e+00 3.6230015734e+00 
84000 3.7030505728e+00 1.0140744784e-04 2.0917384852e+00 -3.6229973326e+00 2.0917384852e+00 3.6229973326e+00 
84100 3.7030505729e+00 1.0039572429e-04 2.0917360612e+00 -3.6229931341e+00 2.0917360612e+00 3.6229931341e+00 
84200 3.7030505731e+00 9.9394096953e-05 2.0917336614e+00 -3.6229889775e+00 2.0917336614e+00 3.6229889775e+00 
84300 3.7030505732e+00 9.8402465065e-05 2.0917312855e+00 -3.6229848623e+00 2.0917312855e+00 3.6229848623e+00 
84400 3.7030505733e+00 9.7420728859e-05 2.0917289334e+00 -3.6229807883e+00 2.0917289334e+00 3.6229807883e+00 
84500 3.7030505735e+00 9.6448789567e-05 2.0917266047e+00 -3.6229767548e+00 2.0917266047e+00 3.6229767548e+00 
84600 3.7030505736e+00 9.5486549415e-05 2.0917242992e+00 -3.6229727616e+00 2.0917242992e+00 3.6229727616e+00 
84700 3.7030505737e+00 9.4533911597e-05 2.0917220167e+00 -3.6229688082e+00 2.0917220167e+00 3.6229688082e+00 
84800 3.7030505738e+00 9.3590780273e-05 2.0917197570e+00 -3.6229648943e+00 2.0917197570e+00 3.6229648943e+00 
84900 3.7030505740e+00 9.2657060565e-05 2.0917175198e+00 -3.6229610194e+00 2.0917175198e+00 3.6229610194e+00 
85000 3.7030505741e+00 9.1732658538e-05 2.0917153049e+00 -3.6229571831e+00 2.0917153049e+00 3.6229571831e+00 
85100 3.7030505742e+00 9.0817481197e-05 2.0917131122e+00 -3.6229533852e+00 2.0917131122e+00 3.6229533852e+00 
85200 3.7030505744e+00 8.9911436473e-05 2.0917109413e+00 -3.6229496251e+00 2.0917109413e+00 3.6229496251e+00 
85300 3.7030505745e+00 8.9014433218e-05 2.0917087921e+00 -3.6229459025e+00 2.0917087921e+00 3.6229459025e+00 
85400 3.7030505746e+00 8.8126381193e-05 2.0917066643e+00 -3.6229422171e+00 2.0917066643e+00 3.6229422171e+00 
85500 3.7030505748e+00 8.7247191061e-05 2.0917045577e+00 -3.6229385684e+00 2.0917045577e+00 3.6229385684e+00 
85600 3.7030505749e+00 8.6376774376e-05 2.0917024722e+00 -3.6229349561e+00 2.0917024722e+00 3.6229349561e+00 
85700 3.7030505750e+00 8.5515043575e-05 2.0917004074e+00 -3.6229313798e+00 2.0917004074e+00 3.6229313798e+00 
85800 3.7030505751e+00 8.4661911967e-05 2.0916983633e+00 -3.6229278393e+00 2.0916983633e+00 3.6229278393e+00 
85900 3.7030505753e+00 8.3817293731e-05 2.0916963395e+00 -3.6229243340e+00 2.0916963395e+00 3.6229243340e+00 
86000 3.7030505754e+00 8.2981103896e-05 2.0916943359e+00 -3.6229208637e+00 2.0916943359e+00 3.6229208637e+00 
86100 3.7030505755e+00 8.2153258347e-05 2.0916923523e+00 -3.6229174281e+00 2.0916923523e+00 3.6229174281e+00 
86200 3.7030505757e+00 8.1333673803e-05 2.0916903885e+00 -3.6229140267e+00 2.0916903885e+00 3.6229140267e+00 
86300 3.7030505758e+00 8.0522267817e-05 2.0916884443e+00 -3.6229106592e+00 2.0916884443e+00 3.6229106592e+00 
86400 3.7030505759e+00 7.9718958762e-05 2.0916865195e+00 -3.6229073253e+00 2.0916865195e+00 3.6229073253e+00 
86500 3.7030505761e+00 7.8923665832e-05 2.0916846139e+00 -3.6229040247e+00 2.0916846139e+00 3.6229040247e+00 
86600 3.7030505762e+00 7.8136309018e-05 2.0916827273e+00 -3.6229007570e+00 2.0916827273e+00 3.6229007570e+00 
86700 3.7030505763e+00 7.7356809118e-05 2.0916808595e+00 -3.6228975219e+00 2.0916808595e+00 3.6228975219e+00 
86800 3.7030505764e+00 7.6585087720e-05 2.0916790104e+00 -3.6228943191e+00 2.0916790104e+00 3.6228943191e+00 
86900 3.7030505766e+00 7.5821067188e-05 2.0916771797e+00 -3.6228911482e+00 2.0916771797e+00 3.6228911482e+00 
87000 3.7030505767e+00 7.5064670667e-05 2.0916753672e+00 -3.6228880089e+00 2.0916753672e+00 3.6228880089e+00 
87100 3.7030505768e+00 7.4315822067e-05 2.0916735728e+00 -3.6228849010e+00 2.0916735728e+00 3.6228849010e+00 
87200 3.7030505769e+00 7.3574446060e-05 2.0916717964e+00 -3.6228818241e+00 2.0916717964e+00 3.6228818241e+00 
87300 3.7030505771e+00 7.2840468067e-05 2.0916700376e+00 -3.6228787778e+00 2.0916700376e+00 3.6228787778e+00 
87400 3.7030505772e+00 7.2113814253e-05 2.0916682964e+00 -3.6228757620e+00 2.0916682964e+00 3.6228757620e+00 
87500 3.7030505773e+00 7.1394411523e-05 2.0916665726e+00 -3.6228727762e+00 2.0916665726e+00 3.6228727762e+00 
87600 3.7030505774e+00 7.0682187508e-05 2.0916648659e+00 -3.6228698202e+00 2.0916648659e+00 3.6228698202e+00 
87700 3.7030505777e+00 7.0586629284e-05 2.0916648659e+00 -3.6228698202e+00 2.0916648659e+00 3.6228698202e+00 
87800 3.7030505779e+00 7.0499644073e-05 2.0916648659e+00 -3.6228698202e+00 2.0916648659e+00 3.6228698202e+00 
87900 3.7030505781e+00 7.0420907193e-05 2.0916648659e+00 -3.6228698202e+00 2.0916648659e+00 3.6228698202e+00 
88000 3.7030505784e+00 7.0350098149e-05 2.0916648659e+00 -3.6228698202e+00 2.0916648659e+00 3.6228698202e+00 
88100 3.7030505786e+00 7.0286900290e-05 2.0916648659e+00 -3.6228698202e+00 2.0916648659e+00 3.6228698202e+00 
88200 3.7030505788e+00 7.0231000579e-05 2.0916648659e+00 -3.6228698202e+00 2.0916648659e+00 3.6228698202e+00 
88300 3.7030505790e+00 7.0182089464e-05 2.0916648659e+00 -3.6228698202e+00 2.0916648659e+00 3.6228698202e+00 
88400 3.7030505793e+00 7.0139860839e-05 2.0916648659e+00 -3.6228698202e+00 2.0916648659e+00 3.6228698202e+00 
88500 3.7030505795e+00 7.0104012074e-05 2.0916648659e+00 -3.6228698202e+00 2.0916648659e+00 3.6228698202e+00 
88600 3.7030505797e+00 7.0074244105e-05 2.0916648659e+00 -3.6228698202e+00 2.0916648659e+00 3.6228698202e+00 
88700 3.7030505799e+00 7.0050261585e-05 2.0916648659e+00 -3.6228698202e+00 2.0916648659e+00 3.6228698202e+00 
88800 3.7030505801e+00 7.0031773062e-05 2.0916648659e+00 -3.6228698202e+00 2.0916648659e+00 3.6228698202e+00 
88900 3.7030505803e+00 7.0018491199e-05 2.0916648659e+00 -3.6228698202e+00 2.0916648659e+00 3.6228698202e+00 
89000 3.7030505805e+00 7.0010133018e-05 2.0916648659e+00 -3.6228698202e+00 2.0916648659e+00 3.6228698202e+00 
89100 3.7030505807e+00 7.0006420159e-05 2.0916648659e+00 -3.6228698202e+00 2.0916648659e+00 3.6228698202e+00 
89200 3.7030505809e+00 7.0007079148e-05 2.0916648659e+00 -3.6228698202e+00 2.0916648659e+00 3.6228698202e+00 
89300 3.7030505811e+00 7.0011841679e-05 2.0916648659e+00 -3.6228698202e+00 2.0916648659e+00 3.6228698202e+00 
89400 3.7030505813e+00 7.0020444890e-05 2.0916648659e+00 -3.6228698202e+00 2.0916648659e+00 3.6228698202e+00 
89500 3.7030505815e+00 7.0032631634e-05 2.0916648659e+00 -3.6228698202e+00 2.0916648659e+00 3.6228698202e+00 
89600 3.7030505817e+00 7.0048150748e-05 2.0916648659e+00 -3.6228698202e+00 2.0916648659e+00 3.6228698202e+00 
89700 3.7030505819e+00 7.0066757311e-05 2.0916648659e+00 -3.6228698202e+00 2.0916648659e+00 3.6228698202e+00 
89800 3.7030505821e+00 7.0088212882e-05 2.0916648659e+00 -3.6228698202e+00 2.0916648659e+00 3.6228698202e+00 
89900 3.7030505822e+00 7.0112285729e-05 2.0916648659e+00 -3.6228698202e+00 2.0916648659e+00 3.6228698202e+00 
90000 3.7030505824e+00 7.0138751038e-05 2.0916648659e+00 -3.6228698202e+00 2.0916648659e+00 3.6228698202e+00 
90100 3.7030505826e+00 7.0167391103e-05 2.0916648659e+00 -3.6228698202e+00 2.0916648659e+00 3.6228698202e+00 
90200 3.7030505828e+00 7.0197995491e-05 2.0916648659e+00 -3.6228698202e+00 2.0916648659e+00 3.6228698202e+00 
90300 3.7030505830e+00 7.0230361196e-05 2.0916648659e+00 -3.6228698202e+00 2.0916648659e+00 3.6228698202e+00 
90400 3.7030505831e+00 7.0264292756e-05 2.0916648659e+00 -3.6228698202e+00 2.0916648659e+00 3.6228698202e+00 
90500 3.7030505833e+00 7.0299602361e-05 2.0916648659e+00 -3.6228698202e+00 2.0916648659e+00 3.6228698202e+00 
90600 3.7030505835e+00 7.0336109935e-05 2.0916648659e+00 -3.6228698202e+00 2.0916648659e+00 3.6228698202e+00 
90700 3.7030505836e+00 7.0373643181e-05 2.0916648659e+00 -3.6228698202e+00 2.0916648659e+00 3.6228698202e+00 
90800 3.7030505838e+00 7.0412037631e-05 2.0916648659e+00 -3.6228698202e+00 2.0916648659e+00 3.6228698202e+00 
90900 3.7030505840e+00 7.0451136646e-05 2.0916648659e+00 -3.6228698202e+00 2.0916648659e+00 3.6228698202e+00 
91000 3.7030505841e+00 7.0490791412e-05 2.0916648659e+00 -3.6228698202e+00 2.0916648659e+00 3.6228698202e+00 
91100 3.7030505843e+00 7.0530860910e-05 2.0916648659e+00 -3.6228698202e+00 2.0916648659e+00 3.6228698202e+00 
91200 3.7030505845e+00 7.0571211861e-05 2.0916648659e+00 -3.6228698202e+00 2.0916648659e+00 3.6228698202e+00 
91300 3.7030505846e+00 7.0611718661e-05 2.0916648659e+00 -3.6228698202e+00 2.0916648659e+00 3.6228698202e+00 
91400 3.7030505848e+00 7.0652263289e-05 2.0916648659e+00 -3.6228698202e+00 2.0916648659e+00 3.6228698202e+00 
91500 3.7030505849e+00 7.0692735202e-05 2.0916648659e+00 -3.6228698202e+00 2.0916648659e+00 3.6228698202e+00 
91600 3.7030505851e+00 7.0733031214e-05 2.0916648659e+00 -3.6228698202e+00 2.0916648659e+00 3.6228698202e+00 
91700 3.7030505851e+00 7.0163069604e-05 2.0916631751e+00 -3.6228668916e+00 2.0916631751e+00 3.6228668916e+00 
91800 3.7030505853e+00 7.0195109848e-05 2.0916631751e+00 -3.6228668916e+00 2.0916631751e+00 3.6228668916e+00 
91900 3.7030505854e+00 7.0226946656e-05 2.0916631751e+00 -3.6228668916e+00 2.0916631751e+00 3.6228668916e+00 
92000 3.7030505855e+00 7.0258503799e-05 2.0916631751e+00 -3.6228668916e+00 2.0916631751e+00 3.6228668916e+00 
92100 3.7030505857e+00 7.0289711879e-05 2.0916631751e+00 -3.6228668916e+00 2.0916631751e+00 3.6228668916e+00 
92200 3.7030505858e+00 7.0320508034e-05 2.0916631751e+00 -3.6228668916e+00 2.0916631751e+00 3.6228668916e+00 
92300 3.7030505860e+00 7.0350835624e-05 2.0916631751e+00 -3.6228668916e+00 2.0916631751e+00 3.6228668916e+00 
92400 3.7030505861e+00 7.0380643936e-05 2.0916631751e+00 -3.6228668916e+00 2.0916631751e+00 3.6228668916e+00 
92500 3.7030505862e+00 7.0409887891e-05 2.0916631751e+00 -3.6228668916e+00 2.0916631751e+00 3.6228668916e+00 
92600 3.7030505864e+00 7.0438527757e-05 2.0916631751e+00 -3.6228668916e+00 2.0916631751e+00 3.6228668916e+00 
92700 3.7030505865e+00 7.0466528869e-05 2.0916631751e+00 -3.6228668916e+00 2.0916631751e+00 3.6228668916e+00 
92800 3.7030505866e+00 7.0493861350e-05 2.0916631751e+00 -3.6228668916e+00 2.0916631751e+00 3.6228668916e+00 
92900 3.7030505868e+00 7.0520499850e-05 2.0916631751e+00 -3.6228668916e+00 2.0916631751e+00 3.6228668916e+00 
93000 3.7030505869e+00 7.0546423274e-05 2.0916631751e+00 -3.6228668916e+00 2.0916631751e+00 3.6228668916e+00 
93100 3.7030505870e+00 7.0571614534e-05 2.0916631751e+00 -3.6228668916e+00 2.0916631751e+00 3.6228668916e+00 
93200 3.7030505872e+00 7.0596060291e-05 2.0916631751e+00 -3.6228668916e+00 2.0916631751e+00 3.6228668916e+00 
93300 3.7030505873e+00 7.0619750721e-05 2.0916631751e+00 -3.6228668916e+00 2.0916631751e+00 3.6228668916e+00 
93400 3.7030505874e+00 7.0642679269e-05 2.0916631751e+00 -3.6228668916e+00 2.0916631751e+00 3.6228668916e+00 
93500 3.7030505875e+00 7.0664842430e-05 2.0916631751e+00 -3.6228668916e+00 2.0916631751e+00 3.6228668916e+00 
93600 3.7030505877e+00 7.0686239516e-05 2.0916631751e+00 -3.6228668916e+00 2.0916631751e+00 3.6228668916e+00 
93700 3.7030505878e+00 7.0706872451e-05 2.0916631751e+00 -3.6228668916e+00 2.0916631751e+00 3.6228668916e+00 
93800 3.7030505879e+00 7.0726745557e-05 2.0916631751e+00 -3.6228668916e+00 2.0916631751e+00 3.6228668916e+00 
93900 3.7030505879e+00 7.0135932881e-05 2.0916614844e+00 -3.6228639633e+00 2.0916614844e+00 3.6228639633e+00 
94000 3.7030505880e+00 7.0146685495e-05 2.0916614844e+00 -3.6228639633e+00 2.0916614844e+00 3.6228639633e+00 
94100 3.7030505881e+00 7.0156943002e-05 2.0916614844e+00 -3.6228639633e+00 2.0916614844e+00 3.6228639633e+00 
94200 3.7030505882e+00 7.0166716441e-05 2.0916614844e+00 -3.6228639633e+00 2.0916614844e+00 3.6228639633e+00 
94300 3.7030505883e+00 7.0176018627e-05 2.0916614844e+00 -3.6228639633e+00 2.0916614844e+00 3.6228639633e+00 
94400 3.7030505885e+00 7.0184863878e-05 2.0916614844e+00 -3.6228639633e+00 2.0916614844e+00 3.6228639633e+00 
94500 3.7030505886e+00 7.0193267758e-05 2.0916614844e+00 -3.6228639633e+00 2.0916614844e+00 3.6228639633e+00 
94600 3.7030505887e+00 7.0201246848e-05 2.0916614844e+00 -3.6228639633e+00 2.0916614844e+00 3.6228639633e+00 
94700 3.7030505888e+00 7.0208818532e-05 2.0916614844e+00 -3.6228639633e+00 2.0916614844e+00 3.6228639633e+00 
94800 3.7030505889e+00 7.0216000802e-05 2.0916614844e+00 -3.6228639633e+00 2.0916614844e+00 3.6228639633e+00 
94900 3.7030505890e+00 7.0222812079e-05 2.0916614844e+00 -3.6228639633e+00 2.0916614844e+00 3.6228639633e+00 
95000 3.7030505891e+00 7.0229271059e-05 2.0916614844e+00 -3.6228639633e+00 2.0916614844e+00 3.6228639633e+00 
95100 3.7030505892e+00 7.0235396558e-05 2.0916614844e+00 -3.6228639633e+00 2.0916614844e+00 3.6228639633e+00 
95200 3.7030505893e+00 7.0241207386e-05 2.0916614844e+00 -3.6228639633e+00 2.0916614844e+00 3.6228639633e+00 
95300 3.7030505894e+00 7.0246722232e-05 2.0916614844e+00 -3.6228639633e+00 2.0916614844e+00 3.6228639633e+00 
95400 3.7030505895e+00 7.0251959555e-05 2.0916614844e+00 -3.6228639633e+00 2.0916614844e+00 3.6228639633e+00 
95500 3.7030505896e+00 7.0256937496e-05 2.0916614844e+00 -3.6228639633e+00 2.0916614844e+00 3.6228639633e+00 
95600 3.7030505897e+00 7.0261673793e-05 2.0916614844e+00 -3.6228639633e+00 2.0916614844e+00 3.6228639633e+00 
95700 3.7030505898e+00 7.0266185711e-05 2.0916614844e+00 -3.6228639633e+00 2.0916614844e+00 3.6228639633e+00 
95800 3.7030505899e+00 7.0270489986e-05 2.0916614844e+00 -3.6228639633e+00 2.0916614844e+00 3.6228639633e+00 
95900 3.7030505900e+00 7.0274602767e-05 2.0916614844e+00 -3.6228639633e+00 2.0916614844e+00 3.6228639633e+00 
96000 3.7030505900e+00 7.0278539576e-05 2.0916614844e+00 -3.6228639633e+00 2.0916614844e+00 3.6228639633e+00 
96100 3.7030505901e+00 7.0282315274e-05 2.0916614844e+00 -3.6228639633e+00 2.0916614844e+00 3.6228639633e+00 
96200 3.7030505902e+00 7.0285944029e-05 2.0916614844e+00 -3.6228639633e+00 2.0916614844e+00 3.6228639633e+00 
96300 3.7030505903e+00 7.0289439299e-05 2.0916614844e+00 -3.6228639633e+00 2.0916614844e+00 3.6228639633e+00 
96400 3.7030505904e+00 7.0292813814e-05 2.0916614844e+00 -3.6228639633e+00 2.0916614844e+00 3.6228639633e+00 
96500 3.7030505905e+00 7.0296079568e-05 2.0916614844e+00 -3.6228639633e+00 2.0916614844e+00 3.6228639633e+00 
96600 3.7030505906e+00 7.0299247814e-05 2.0916614844e+00 -3.6228639633e+00 2.0916614844e+00 3.6228639633e+00 
96700 3.7030505907e+00 7.0302329066e-05 2.0916614844e+00 -3.6228639633e+00 2.0916614844e+00 3.6228639633e+00 
96800 3.7030505907e+00 7.0305333099e-05 2.0916614844e+00 -3.6228639633e+00 2.0916614844e+00 3.6228639633e+00 
96900 3.7030505908e+00 7.0308268965e-05 2.0916614844e+00 -3.6228639633e+00 2.0916614844e+00 3.6228639633e+00 
97000 3.7030505909e+00 7.0311144998e-05 2.0916614844e+00 -3.6228639633e+00 2.0916614844e+00 3.6228639633e+00 
97100 3.7030505910e+00 7.0313968832e-05 2.0916614844e+00 -3.6228639633e+00 2.0916614844e+00 3.6228639633e+00 
97200 3.7030505911e+00 7.0316747418e-05 2.0916614844e+00 -3.6228639633e+00 2.0916614844e+00 3.6228639633e+00 
97300 3.7030505911e+00 7.0319487045e-05 2.0916614844e+00 -3.6228639633e+00 2.0916614844e+00 3.6228639633e+00 
97400 3.7030505912e+00 7.0322193361e-05 2.0916614844e+00 -3.6228639633e+00 2.0916614844e+00 3.6228639633e+00 
97500 3.7030505913e+00 7.0324871395e-05 2.0916614844e+00 -3.6228639633e+00 2.0916614844e+00 3.6228639633e+00 
97600 3.7030505914e+00 7.0327525586e-05 2.0916614844e+00 -3.6228639633e+00 2.0916614844e+00 3.6228639633e+00 
97700 3.7030505914e+00 7.0330159809e-05 2.0916614844e+00 -3.6228639633e+00 2.0916614844e+00 3.6228639633e+00 
97800 3.7030505915e+00 7.0332777394e-05 2.0916614844e+00 -3.6228639633e+00 2.0916614844e+00 3.6228639633e+00 
97900 3.7030505916e+00 7.0335381168e-05 2.0916614844e+00 -3.6228639633e+00 2.0916614844e+00 3.6228639633e+00 
98000 3.7030505917e+00 7.0337973473e-05 2.0916614844e+00 -3.6228639633e+00 2.0916614844e+00 3.6228639633e+00 
98100 3.7030505917e+00 7.0340556196e-05 2.0916614844e+00 -3.6228639633e+00 2.0916614844e+00 3.6228639633e+00 
98200 3.7030505918e+00 7.0343130804e-05 2.0916614844e+00 -3.6228639633e+00 2.0916614844e+00 3.6228639633e+00 
98300 3.7030505919e+00 7.0345698365e-05 2.0916614844e+00 -3.6228639633e+00 2.0916614844e+00 3.6228639633e+00 
98400 3.7030505919e+00 7.0348259583e-05 2.0916614844e+00 -3.6228639633e+00 2.0916614844e+00 3.6228639633e+00 
98500 3.7030505920e+00 7.0350814823e-05 2.0916614844e+00 -3.6228639633e+00 2.0916614844e+00 3.6228639633e+00 
98600 3.7030505921e+00 7.0353364140e-05 2.0916614844e+00 -3.6228639633e+00 2.0916614844e+00 3.6228639633e+00 
98700 3.7030505921e+00 7.0355907307e-05 2.0916614844e+00 -3.6228639633e+00 2.0916614844e+00 3.6228639633e+00 
98800 3.7030505922e+00 7.0358443839e-05 2.0916614844e+00 -3.6228639633e+00 2.0916614844e+00 3.6228639633e+00 
98900 3.7030505923e+00 7.0360973024e-05 2.0916614844e+00 -3.6228639633e+00 2.0916614844e+00 3.6228639633e+00 
99000 3.7030505923e+00 7.0363493944e-05 2.0916614844e+00 -3.6228639633e+00 2.0916614844e+00 3.6228639633e+00 
99100 3.7030505924e+00 7.0366005502e-05 2.0916614844e+00 -3.6228639633e+00 2.0916614844e+00 3.6228639633e+00 
99200 3.7030505925e+00 7.0368506443e-05 2.0916614844e+00 -3.6228639633e+00 2.0916614844e+00 3.6228639633e+00 
99300 3.7030505925e+00 7.0370995378e-05 2.0916614844e+00 -3.6228639633e+00 2.0916614844e+00 3.6228639633e+00 
99400 3.7030505926e+00 7.0373470806e-05 2.0916614844e+00 -3.6228639633e+00 2.0916614844e+00 3.6228639633e+00 
99500 3.7030505926e+00 7.0375931132e-05 2.0916614844e+00 -3.6228639633e+00 2.0916614844e+00 3.6228639633e+00 
99600 3.7030505927e+00 7.0378374690e-05 2.0916614844e+00 -3.6228639633e+00 2.0916614844e+00 3.6228639633e+00 
99700 3.7030505928e+00 7.0380799759e-05 2.0916614844e+00 -3.6228639633e+00 2.0916614844e+00 3.6228639633e+00 
99800 3.7030505928e+00 7.0383204578e-05 2.0916614844e+00 -3.6228639633e+00 2.0916614844e+00 3.6228639633e+00 
99900 3.7030505929e+00 7.0385587366e-05 2.0916614844e+00 -3.6228639633e+00 2.0916614844e+00 3.6228639633e+00 
100000 3.7030505929e+00 7.0387946337e-05 2.0916614844e+00 -3.6228639633e+00 2.0916614844e+00 3.6228639633e+00 
100100 3.7030505930e+00 7.0390279709e-05 2.0916614844e+00 -3.6228639633e+00 2.0916614844e+00 3.6228639633e+00 
100200 3.7030505931e+00 7.0392585723e-05 2.0916614844e+00 -3.6228639633e+00 2.0916614844e+00 3.6228639633e+00 
100300 3.7030505931e+00 7.0394862649e-05 2.0916614844e+00 -3.6228639633e+00 2.0916614844e+00 3.6228639633e+00 
100400 3.7030505932e+00 7.0397108802e-05 2.0916614844e+00 -3.6228639633e+00 2.0916614844e+00 3.6228639633e+00 
100500 3.7030505932e+00 7.0399322548e-05 2.0916614844e+00 -3.6228639633e+00 2.0916614844e+00 3.6228639633e+00 
100600 3.7030505933e+00 7.0401502313e-05 2.0916614844e+00 -3.6228639633e+00 2.0916614844e+00 3.6228639633e+00 
100700 3.7030505933e+00 7.0403646595e-05 2.0916614844e+00 -3.6228639633e+00 2.0916614844e+00 3.6228639633e+00 
100800 3.7030505934e+00 7.0405753963e-05 2.0916614844e+00 -3.6228639633e+00 2.0916614844e+00 3.6228639633e+00 
100900 3.7030505934e+00 7.0407823071e-05 2.0916614844e+00 -3.6228639633e+00 2.0916614844e+00 3.6228639633e+00 
101000 3.7030505935e+00 7.0409852656e-05 2.0916614844e+00 -3.6228639633e+00 2.0916614844e+00 3.6228639633e+00 
101100 3.7030505935e+00 7.0411841550e-05 2.0916614844e+00 -3.6228639633e+00 2.0916614844e+00 3.6228639633e+00 
101200 3.7030505935e+00 7.0412430120e-05 2.0916614844e+00 -3.6228639633e+00 2.0916614844e+00 3.6228639633e+00 
101200 3.7030505935e+00 7.0412430120e-05 2.0916614844e+00 -3.6228639633e+00 2.0916614844e+00 3.6228639633e+00 
