# step Hamiltonian StressXX CellTensor1 CellTensor2 CellTensor3 CellTensor4 
0 6.9154342181e+00 2.1333094352e-01 2.8378601290e+00 -4.9153179282e+00 2.8378601290e+00 4.9153179282e+00 
100 6.9559576075e+00 2.5743126017e-01 2.8378601290e+00 -4.9153179282e+00 2.8378601290e+00 4.9153179282e+00 
200 6.9938122682e+00 2.9799816061e-01 2.8333256811e+00 -4.9074640341e+00 2.8333256811e+00 4.9074640341e+00 
300 7.0298577877e+00 3.3559815408e-01 2.8280685057e+00 -4.8983583391e+00 2.8280685057e+00 4.8983583391e+00 
400 7.0643091340e+00 3.7062637668e-01 2.8221372392e+00 -4.8880850842e+00 2.8221372392e+00 4.8880850842e+00 
500 7.0973029761e+00 4.0340769886e-01 2.8155733784e+00 -4.8767161439e+00 2.8155733784e+00 4.8767161439e+00 
600 7.1288996497e+00 4.3418099012e-01 2.8084125601e+00 -4.8643132426e+00 2.8084125601e+00 4.8643132426e+00 
700 7.1590789813e+00 4.6307081153e-01 2.8006861086e+00 -4.8509306362e+00 2.8006861086e+00 4.8509306362e+00 
800 7.1877278910e+00 4.9004018977e-01 2.7924230920e+00 -4.8366186715e+00 2.7924230920e+00 4.8366186715e+00 
900 7.2146187099e+00 5.1481967553e-01 2.7836532400e+00 -4.8214288423e+00 2.7836532400e+00 4.8214288423e+00 
1000 7.2393817139e+00 5.3681965938e-01 2.7744111820e+00 -4.8054211284e+00 2.7744111820e+00 4.8054211284e+00 
1100 7.2614874525e+00 5.5506800838e-01 2.7647423452e+00 -4.7886742117e+00 2.7647423452e+00 4.7886742117e+00 
1200 7.2802761421e+00 5.6828183267e-01 2.7547101103e+00 -4.7712978711e+00 2.7547101103e+00 4.7712978711e+00 
1300 7.2950886230e+00 5.7523486786e-01 2.7444018413e+00 -4.7534434256e+00 2.7444018413e+00 4.7534434256e+00 
1400 7.3055171220e+00 5.7545534419e-01 2.7339283869e+00 -4.7353028703e+00 2.7339283869e+00 4.7353028703e+00 
1500 7.3116626297e+00 5.6985676612e-01 2.7234108343e+00 -4.7170859349e+00 2.7234108343e+00 4.7170859349e+00 
1600 7.3141746911e+00 5.6060662780e-01 2.7129553699e+00 -4.6989765393e+00 2.7129553699e+00 4.6989765393e+00 
1700 7.3139922201e+00 5.5014030921e-01 2.7026299248e+00 -4.6810923438e+00 2.7026299248e+00 4.6810923438e+00 
1800 7.3119971346e+00 5.4016944383e-01 2.6924584673e+00 -4.6634748627e+00 2.6924584673e+00 4.6634748627e+00 
1900 7.3088268128e+00 5.3140278150e-01 2.6824335629e+00 -4.6461112189e+00 2.6824335629e+00 4.6461112189e+00 
2000 7.3048727699e+00 5.2384216126e-01 2.6725344450e+00 -4.6289654436e+00 2.6725344450e+00 4.6289654436e+00 
2100 7.3003582204e+00 5.1718297687e-01 2.6627399815e+00 -4.6120009353e+00 2.6627399815e+00 4.6120009353e+00 
2200 7.2954119143e+00 5.1107309489e-01 2.6530344253e+00 -4.5951904189e+00 2.6530344253e+00 4.5951904189e+00 
2300 7.2901147581e+00 5.0522149417e-01 2.6434084152e+00 -4.5785176802e+00 2.6434084152e+00 4.5785176802e+00 
2400 7.2845241758e+00 4.9942106638e-01 2.6338579427e+00 -4.5619757767e+00 2.6338579427e+00 4.5619757767e+00 
2500 7.2786856410e+00 4.9353733450e-01 2.6243828614e+00 -4.5455644544e+00 2.6243828614e+00 4.5455644544e+00 
2600 7.2726378901e+00 4.8748929667e-01 2.6149855748e+00 -4.5292878765e+00 2.6149855748e+00 4.5292878765e+00 
2700 7.2664152681e+00 4.8123225265e-01 2.6056700616e+00 -4.5131529344e+00 2.6056700616e+00 4.5131529344e+00 
2800 7.2600488249e+00 4.7474497567e-01 2.5964412070e+00 -4.4971680894e+00 2.5964412070e+00 4.4971680894e+00 
2900 7.2535668756e+00 4.6802089960e-01 2.5873043664e+00 -4.4813426172e+00 2.5873043664e+00 4.4813426172e+00 
3000 7.2469953315e+00 4.6106233549e-01 2.5782650885e+00 -4.4656861287e+00 2.5782650885e+00 4.4656861287e+00 
3100 7.2403579285e+00 4.5387678305e-01 2.5693289454e+00 -4.4502082747e+00 2.5693289454e+00 4.4502082747e+00 
3200 7.2336764081e+00 4.4647462703e-01 2.5605014296e+00 -4.4349185689e+00 2.5605014296e+00 4.4349185689e+00 
3300 7.2269706728e+00 4.3886772557e-01 2.5517878944e+00 -4.4198262832e+00 2.5517878944e+00 4.4198262832e+00 
3400 7.2202589258e+00 4.3106856387e-01 2.5431935201e+00 -4.4049403903e+00 2.5431935201e+00 4.4049403903e+00 
3500 7.2135577977e+00 4.2308976146e-01 2.5347232966e+00 -4.3902695329e+00 2.5347232966e+00 4.3902695329e+00 
3600 7.2068824635e+00 4.1494379821e-01 2.5263820151e+00 -4.3758220094e+00 2.5263820151e+00 4.3758220094e+00 
3700 7.2002467500e+00 4.0664287361e-01 2.5181742646e+00 -4.3616057686e+00 2.5181742646e+00 4.3616057686e+00 
3800 7.1936632332e+00 3.9819884558e-01 2.5101044325e+00 -4.3476284094e+00 2.5101044325e+00 4.3476284094e+00 
3900 7.1871433283e+00 3.8962321537e-01 2.5021767053e+00 -4.3338971831e+00 2.5021767053e+00 4.3338971831e+00 
4000 7.1806973710e+00 3.8092713765e-01 2.4943950701e+00 -4.3204189955e+00 2.4943950701e+00 4.3204189955e+00 
4100 7.1743346910e+00 3.7212144299e-01 2.4867633160e+00 -4.3072004097e+00 2.4867633160e+00 4.3072004097e+00 
4200 7.1680636797e+00 3.6321666514e-01 2.4792850354e+00 -4.2942476477e+00 2.4792850354e+00 4.2942476477e+00 
4300 7.1618918505e+00 3.5422306845e-01 2.4719636246e+00 -4.2815665924e+00 2.4719636246e+00 4.2815665924e+00 
4400 7.1558258942e+00 3.4515067302e-01 2.4648022843e+00 -4.2691627870e+00 2.4648022843e+00 4.2691627870e+00 
4500 7.1498717293e+00 3.3600927631e-01 2.4578040191e+00 -4.2570414362e+00 2.4578040191e+00 4.2570414362e+00 
4600 7.1440345481e+00 3.2680847056e-01 2.4509716377e+00 -4.2452074044e+00 2.4509716377e+00 4.2452074044e+00 
4700 7.1383188581e+00 3.1755765628e-01 2.4443077518e+00 -4.2336652154e+00 2.4443077518e+00 4.2336652154e+00 
4800 7.1327285215e+00 3.0826605175e-01 2.4378147758e+00 -4.2224190512e+00 2.4378147758e+00 4.2224190512e+00 
4900 7.1272667912e+00 2.9894269905e-01 2.4314949262e+00 -4.2114727506e+00 2.4314949262e+00 4.2114727506e+00 
5000 7.1219363441e+00 2.8959646710e-01 2.4253502205e+00 -4.2008298081e+00 2.4253502205e+00 4.2008298081e+00 
5100 7.1167393133e+00 2.8023605215e-01 2.4193824770e+00 -4.1904933730e+00 2.4193824770e+00 4.1904933730e+00 
5200 7.1116773181e+00 2.7086997613e-01 2.4135933142e+00 -4.1804662490e+00 2.4135933142e+00 4.1804662490e+00 
5300 7.1067514929e+00 2.6150658341e-01 2.4079841510e+00 -4.1707508934e+00 2.4079841510e+00 4.1707508934e+00 
5400 7.1019625147e+00 2.5215403631e-01 2.4025562067e+00 -4.1613494180e+00 2.4025562067e+00 4.1613494180e+00 
5500 7.0973106302e+00 2.4282030972e-01 2.3973105012e+00 -4.1522635896e+00 2.3973105012e+00 4.1522635896e+00 
5600 7.0927956820e+00 2.3351318512e-01 2.3922478564e+00 -4.1434948315e+00 2.3922478564e+00 4.1434948315e+00 
5700 7.0884171339e+00 2.2424024441e-01 2.3873688966e+00 -4.1350442253e+00 2.3873688966e+00 4.1350442253e+00 
5800 7.0841740958e+00 2.1500886353e-01 2.3826740507e+00 -4.1269125137e+00 2.3826740507e+00 4.1269125137e+00 
5900 7.0800653487e+00 2.0582620635e-01 2.3781635539e+00 -4.1191001040e+00 2.3781635539e+00 4.1191001040e+00 
6000 7.0760893684e+00 1.9669921867e-01 2.3738374496e+00 -4.1116070716e+00 2.3738374496e+00 4.1116070716e+00 
6100 7.0722443494e+00 1.8763462278e-01 2.3696955927e+00 -4.1044331649e+00 2.3696955927e+00 4.1044331649e+00 
6200 7.0685282280e+00 1.7863891231e-01 2.3657376520e+00 -4.0975778107e+00 2.3657376520e+00 4.0975778107e+00 
6300 7.0649387055e+00 1.6971834772e-01 2.3619631143e+00 -4.0910401196e+00 2.3619631143e+00 4.0910401196e+00 
6400 7.0614732705e+00 1.6087895233e-01 2.3583712873e+00 -4.0848188928e+00 2.3583712873e+00 4.0848188928e+00 
6500 7.0581292206e+00 1.5212650887e-01 2.3549613044e+00 -4.0789126291e+00 2.3549613044e+00 4.0789126291e+00 
6600 7.0549036838e+00 1.4346655663e-01 2.3517321285e+00 -4.0733195323e+00 2.3517321285e+00 4.0733195323e+00 
6700 7.0517936396e+00 1.3490438918e-01 2.3486825570e+00 -4.0680375196e+00 2.3486825570e+00 4.0680375196e+00 
6800 7.0487959389e+00 1.2644505254e-01 2.3458112268e+00 -4.0630642298e+00 2.3458112268e+00 4.0630642298e+00 
6900 7.0459073233e+00 1.1809334395e-01 2.3431166193e+00 -4.0583970327e+00 2.3431166193e+00 4.0583970327e+00 
7000 7.0431244440e+00 1.0985381095e-01 2.3405970658e+00 -4.0540330380e+00 2.3405970658e+00 4.0540330380e+00 
7100 7.0404438795e+00 1.0173075100e-01 2.3382507535e+00 -4.0499691058e+00 2.3382507535e+00 4.0499691058e+00 
7200 7.0378621530e+00 9.3728211399e-02 2.3360757309e+00 -4.0462018563e+00 2.3360757309e+00 4.0462018563e+00 
7300 7.0353757480e+00 8.5849989527e-02 2.3340699144e+00 -4.0427276802e+00 2.3340699144e+00 4.0427276802e+00 
7400 7.0329811241e+00 7.8099633418e-02 2.3322310940e+00 -4.0395427498e+00 2.3322310940e+00 4.0395427498e+00 
7500 7.0306747312e+00 7.0480442569e-02 2.3305569400e+00 -4.0366430300e+00 2.3305569400e+00 4.0366430300e+00 
7600 7.0284530226e+00 6.2995468989e-02 2.3290450092e+00 -4.0340242890e+00 2.3290450092e+00 4.0340242890e+00 
7700 7.0263124678e+00 5.5647518459e-02 2.3276927518e+00 -4.0316821104e+00 2.3276927518e+00 4.0316821104e+00 
7800 7.0242495635e+00 4.8439152000e-02 2.3264975177e+00 -4.0296119043e+00 2.3264975177e+00 4.0296119043e+00 
7900 7.0222608444e+00 4.1372687518e-02 2.3254565637e+00 -4.0278089191e+00 2.3254565637e+00 4.0278089191e+00 
8000 7.0203428926e+00 3.4450201651e-02 2.3245670599e+00 -4.0262682533e+00 2.3245670599e+00 4.0262682533e+00 
8100 7.0184923459e+00 2.7673531800e-02 2.3238260967e+00 -4.0249848675e+00 2.3238260967e+00 4.0249848675e+00 
8200 7.0167059055e+00 2.1044278364e-02 2.3232306918e+00 -4.0239535959e+00 2.3232306918e+00 4.0239535959e+00 
8300 7.0149803428e+00 1.4563807195e-02 2.3227777968e+00 -4.0231691587e+00 2.3227777968e+00 4.0231691587e+00 
8400 7.0133125047e+00 8.2332522774e-03 2.3224643040e+00 -4.0226261733e+00 2.3224643040e+00 4.0226261733e+00 
8500 7.0116993190e+00 2.0535186701e-03 2.3222870538e+00 -4.0223191669e+00 2.3222870538e+00 4.0223191669e+00 
8600 7.0101377980e+00 -3.9747142778e-03 2.3222428406e+00 -4.0222425875e+00 2.3222428406e+00 4.0222425875e+00 
8700 7.0086250423e+00 -9.8509894109e-03 2.3223284204e+00 -4.0223908159e+00 2.3223284204e+00 4.0223908159e+00 
8800 7.0071582429e+00 -1.5575067927e-02 2.3225405165e+00 -4.0227581773e+00 2.3225405165e+00 4.0227581773e+00 
8900 7.0057346833e+00 -2.1146925186e-02 2.3228758270e+00 -4.0233389520e+00 2.3228758270e+00 4.0233389520e+00 
9000 7.0043517406e+00 -2.6566746158e-02 2.3233310303e+00 -4.0241273873e+00 2.3233310303e+00 4.0241273873e+00 
9100 7.0030068864e+00 -3.1834920478e-02 2.3239027920e+00 -4.0251177077e+00 2.3239027920e+00 4.0251177077e+00 
9200 7.0016976869e+00 -3.6952037103e-02 2.3245877709e+00 -4.0263041258e+00 2.3245877709e+00 4.0263041258e+00 
9300 7.0004218022e+00 -4.1918878559e-02 2.3253826245e+00 -4.0276808527e+00 2.3253826245e+00 4.0276808527e+00 
9400 6.9991769859e+00 -4.6736414776e-02 2.3262840157e+00 -4.0292421080e+00 2.3262840157e+00 4.0292421080e+00 
9500 6.9979610839e+00 -5.1405796500e-02 2.3272886173e+00 -4.0309821291e+00 2.3272886173e+00 4.0309821291e+00 
9600 6.9967720329e+00 -5.5928348305e-02 2.3283931185e+00 -4.0328951813e+00 2.3283931185e+00 4.0328951813e+00 
9700 6.9956078586e+00 -6.0305561196e-02 2.3295942291e+00 -4.0349755659e+00 2.3295942291e+00 4.0349755659e+00 
9800 6.9944666740e+00 -6.4539084842e-02 2.3308886851e+00 -4.0372176294e+00 2.3308886851e+00 4.0372176294e+00 
9900 6.9933466767e+00 -6.8630719446e-02 2.3322732529e+00 -4.0396157712e+00 2.3322732529e+00 4.0396157712e+00 
10000 6.9922461474e+00 -7.2582407280e-02 2.3337447343e+00 -4.0421644516e+00 2.3337447343e+00 4.0421644516e+00 
10100 6.9911634469e+00 -7.6396223932e-02 2.3352999700e+00 -4.0448581989e+00 2.3352999700e+00 4.0448581989e+00 
10200 6.9900970136e+00 -8.0074369289e-02 2.3369358441e+00 -4.0476916160e+00 2.3369358441e+00 4.0476916160e+00 
10300 6.9890453618e+00 -8.3619158295e-02 2.3386492875e+00 -4.0506593870e+00 2.3386492875e+00 4.0506593870e+00 
10400 6.9880070779e+00 -8.7033011546e-02 2.3404372812e+00 -4.0537562829e+00 2.3404372812e+00 4.0537562829e+00 
10500 6.9869808193e+00 -9.0318445753e-02 2.3422968595e+00 -4.0569771670e+00 2.3422968595e+00 4.0569771670e+00 
10600 6.9859653106e+00 -9.3478064119e-02 2.3442251126e+00 -4.0603169994e+00 2.3442251126e+00 4.0603169994e+00 
10700 6.9849593422e+00 -9.6514546702e-02 2.3462191895e+00 -4.0637708419e+00 2.3462191895e+00 4.0637708419e+00 
10800 6.9839617675e+00 -9.9430640784e-02 2.3482762999e+00 -4.0673338616e+00 2.3482762999e+00 4.0673338616e+00 
10900 6.9829715005e+00 -1.0222915133e-01 2.3503937161e+00 -4.0710013341e+00 2.3503937161e+00 4.0710013341e+00 
11000 6.9819875137e+00 -1.0491293153e-01 2.3525687752e+00 -4.0747686469e+00 2.3525687752e+00 4.0747686469e+00 
11100 6.9810088362e+00 -1.0748487358e-01 2.3547988797e+00 -4.0786313013e+00 2.3547988797e+00 4.0786313013e+00 
11200 6.9800345513e+00 -1.0994789958e-01 2.3570814997e+00 -4.0825849151e+00 2.3570814997e+00 4.0825849151e+00 
11300 6.9790637946e+00 -1.1230495277e-01 2.3594141728e+00 -4.0866252235e+00 2.3594141728e+00 4.0866252235e+00 
11400 6.9780957526e+00 -1.1455898901e-01 2.3617945055e+00 -4.0907480806e+00 2.3617945055e+00 4.0907480806e+00 
11500 6.9771296602e+00 -1.1671296860e-01 2.3642201733e+00 -4.0949494604e+00 2.3642201733e+00 4.0949494604e+00 
11600 6.9761647996e+00 -1.1876984847e-01 2.3666889209e+00 -4.0992254566e+00 2.3666889209e+00 4.0992254566e+00 
11700 6.9752004983e+00 -1.2073257476e-01 2.3691985623e+00 -4.1035722832e+00 2.3691985623e+00 4.1035722832e+00 
11800 6.9742361280e+00 -1.2260407576e-01 2.3717469809e+00 -4.1079862736e+00 2.3717469809e+00 4.1079862736e+00 
11900 6.9732711027e+00 -1.2438725539e-01 2.3743321285e+00 -4.1124638806e+00 2.3743321285e+00 4.1124638806e+00 
12000 6.9723048773e+00 -1.2608498696e-01 2.3769520252e+00 -4.1170016749e+00 2.3769520252e+00 4.1170016749e+00 
12100 6.9713369465e+00 -1.2770010756e-01 2.3796047588e+00 -4.1215963442e+00 2.3796047588e+00 4.1215963442e+00 
12200 6.9703668437e+00 -1.2923541279e-01 2.3822884835e+00 -4.1262446917e+00 2.3822884835e+00 4.1262446917e+00 
12300 6.9693941388e+00 -1.3069365199e-01 2.3850014192e+00 -4.1309436341e+00 2.3850014192e+00 4.1309436341e+00 
12400 6.9684184382e+00 -1.3207752395e-01 2.3877418504e+00 -4.1356902002e+00 2.3877418504e+00 4.1356902002e+00 
12500 6.9674393826e+00 -1.3338967303e-01 2.3905081250e+00 -4.1404815284e+00 2.3905081250e+00 4.1404815284e+00 
12600 6.9664566464e+00 -1.3463268580e-01 2.3932986528e+00 -4.1453148644e+00 2.3932986528e+00 4.1453148644e+00 
12700 6.9654699363e+00 -1.3580908807e-01 2.3961119044e+00 -4.1501875591e+00 2.3961119044e+00 4.1501875591e+00 
12800 6.9644789903e+00 -1.3692134233e-01 2.3989464095e+00 -4.1550970659e+00 2.3989464095e+00 4.1550970659e+00 
12900 6.9634835765e+00 -1.3797184566e-01 2.4018007554e+00 -4.1600409380e+00 2.4018007554e+00 4.1600409380e+00 
13000 6.9624834920e+00 -1.3896292800e-01 2.4046735856e+00 -4.1650168258e+00 2.4046735856e+00 4.1650168258e+00 
13100 6.9614785619e+00 -1.3989685080e-01 2.4075635978e+00 -4.1700224739e+00 2.4075635978e+00 4.1700224739e+00 
13200 6.9604686381e+00 -1.4077580600e-01 2.4104695430e+00 -4.1750557185e+00 2.4104695430e+00 4.1750557185e+00 
13300 6.9594535981e+00 -1.4160191543e-01 2.4133902228e+00 -4.1801144843e+00 2.4133902228e+00 4.1801144843e+00 
13400 6.9584333444e+00 -1.4237723039e-01 2.4163244886e+00 -4.1851967818e+00 2.4163244886e+00 4.1851967818e+00 
13500 6.9574078028e+00 -1.4310373168e-01 2.4192712395e+00 -4.1903007041e+00 2.4192712395e+00 4.1903007041e+00 
13600 6.9563769219e+00 -1.4378332977e-01 2.4222294207e+00 -4.1954244242e+00 2.4222294207e+00 4.1954244242e+00 
13700 6.9553406716e+00 -1.4441786526e-01 2.4251980218e+00 -4.2005661921e+00 2.4251980218e+00 4.2005661921e+00 
13800 6.9542990423e+00 -1.4500910961e-01 2.4281760751e+00 -4.2057243318e+00 2.4281760751e+00 4.2057243318e+00 
13900 6.9532520438e+00 -1.4555876602e-01 2.4311626541e+00 -4.2108972383e+00 2.4311626541e+00 4.2108972383e+00 
14000 6.9521997044e+00 -1.4606847052e-01 2.4341568717e+00 -4.2160833754e+00 2.4341568717e+00 4.2160833754e+00 
14100 6.9511420696e+00 -1.4653979319e-01 2.4371578788e+00 -4.2212812722e+00 2.4371578788e+00 4.2212812722e+00 
14200 6.9500792012e+00 -1.4697423959e-01 2.4401648626e+00 -4.2264895208e+00 2.4401648626e+00 4.2264895208e+00 
14300 6.9490111766e+00 -1.4737325225e-01 2.4431770450e+00 -4.2317067738e+00 2.4431770450e+00 4.2317067738e+00 
14400 6.9479380873e+00 -1.4773821229e-01 2.4461936814e+00 -4.2369317413e+00 2.4461936814e+00 4.2369317413e+00 
14500 6.9468600385e+00 -1.4807044114e-01 2.4492140590e+00 -4.2421631888e+00 2.4492140590e+00 4.2421631888e+00 
14600 6.9457771477e+00 -1.4837120236e-01 2.4522374954e+00 -4.2473999343e+00 2.4522374954e+00 4.2473999343e+00 
14700 6.9446895441e+00 -1.4864170342e-01 2.4552633376e+00 -4.2526408466e+00 2.4552633376e+00 4.2526408466e+00 
14800 6.9435973676e+00 -1.4888309763e-01 2.4582909600e+00 -4.2578848426e+00 2.4582909600e+00 4.2578848426e+00 
14900 6.9425007679e+00 -1.4909648610e-01 2.4613197640e+00 -4.2631308849e+00 2.4613197640e+00 4.2631308849e+00 
15000 6.9413999037e+00 -1.4928291962e-01 2.4643491759e+00 -4.2683779802e+00 2.4643491759e+00 4.2683779802e+00 
15100 6.9402949420e+00 -1.4944340066e-01 2.4673786463e+00 -4.2736251770e+00 2.4673786463e+00 4.2736251770e+00 
15200 6.9391860572e+00 -1.4957888532e-01 2.4704076491e+00 -4.2788715636e+00 2.4704076491e+00 4.2788715636e+00 
15300 6.9380734302e+00 -1.4969028528e-01 2.4734356797e+00 -4.2841162664e+00 2.4734356797e+00 4.2841162664e+00 
15400 6.9369572481e+00 -1.4977846973e-01 2.4764622546e+00 -4.2893584480e+00 2.4764622546e+00 4.2893584480e+00 
15500 6.9358377032e+00 -1.4984426728e-01 2.4794869104e+00 -4.2945973054e+00 2.4794869104e+00 4.2945973054e+00 
15600 6.9347149925e+00 -1.4988846785e-01 2.4825092023e+00 -4.2998320686e+00 2.4825092023e+00 4.2998320686e+00 
15700 6.9335893167e+00 -1.4991182447e-01 2.4855287039e+00 -4.3050619988e+00 2.4855287039e+00 4.3050619988e+00 
15800 6.9324608804e+00 -1.4991505515e-01 2.4885450058e+00 -4.3102863870e+00 2.4885450058e+00 4.3102863870e+00 
15900 6.9313298907e+00 -1.4989884460e-01 2.4915577153e+00 -4.3155045529e+00 2.4915577153e+00 4.3155045529e+00 
16000 6.9301965573e+00 -1.4986384592e-01 2.4945664550e+00 -4.3207158429e+00 2.4945664550e+00 4.3207158429e+00 
16100 6.9290610914e+00 -1.4981068229e-01 2.4975708625e+00 -4.3259196294e+00 2.4975708625e+00 4.3259196294e+00 
16200 6.9279237061e+00 -1.4973994858e-01 2.5005705898e+00 -4.3311153094e+00 2.5005705898e+00 4.3311153094e+00 
16300 6.9267846152e+00 -1.4965221286e-01 2.5035653022e+00 -4.3363023035e+00 2.5035653022e+00 4.3363023035e+00 
16400 6.9256440330e+00 -1.4954801793e-01 2.5065546781e+00 -4.3414800544e+00 2.5065546781e+00 4.3414800544e+00 
16500 6.9245021743e+00 -1.4942788272e-01 2.5095384080e+00 -4.3466480263e+00 2.5095384080e+00 4.3466480263e+00 
16600 6.9233592535e+00 -1.4929230367e-01 2.5125161946e+00 -4.3518057038e+00 2.5125161946e+00 4.3518057038e+00 
16700 6.9222154847e+00 -1.4914175607e-01 2.5154877514e+00 -4.3569525912e+00 2.5154877514e+00 4.3569525912e+00 
16800 6.9210710816e+00 -1.4897669529e-01 2.5184528029e+00 -4.3620882110e+00 2.5184528029e+00 4.3620882110e+00 
16900 6.9199262564e+00 -1.4879755796e-01 2.5214110839e+00 -4.3672121040e+00 2.5214110839e+00 4.3672121040e+00 
17000 6.9187812205e+00 -1.4860476314e-01 2.5243623389e+00 -4.3723238278e+00 2.5243623389e+00 4.3723238278e+00 
17100 6.9176361839e+00 -1.4839871338e-01 2.5273063222e+00 -4.3774229563e+00 2.5273063222e+00 4.3774229563e+00 
17200 6.9164913550e+00 -1.4817979573e-01 2.5302427967e+00 -4.3825090794e+00 2.5302427967e+00 4.3825090794e+00 
17300 6.9153469403e+00 -1.4794838272e-01 2.5331715343e+00 -4.3875818017e+00 2.5331715343e+00 4.3875818017e+00 
17400 6.9142031449e+00 -1.4770483326e-01 2.5360923151e+00 -4.3926407424e+00 2.5360923151e+00 4.3926407424e+00 
17500 6.9130601714e+00 -1.4744949352e-01 2.5390049273e+00 -4.3976855347e+00 2.5390049273e+00 4.3976855347e+00 
17600 6.9119182207e+00 -1.4718269768e-01 2.5419091667e+00 -4.4027158250e+00 2.5419091667e+00 4.4027158250e+00 
17700 6.9107774914e+00 -1.4690476874e-01 2.5448048368e+00 -4.4077312726e+00 2.5448048368e+00 4.4077312726e+00 
17800 6.9096381799e+00 -1.4661601920e-01 2.5476917479e+00 -4.4127315494e+00 2.5476917479e+00 4.4127315494e+00 
17900 6.9085004803e+00 -1.4631675171e-01 2.5505697175e+00 -4.4177163389e+00 2.5505697175e+00 4.4177163389e+00 
18000 6.9073645844e+00 -1.4600725969e-01 2.5534385696e+00 -4.4226853365e+00 2.5534385696e+00 4.4226853365e+00 
18100 6.9062306815e+00 -1.4568782792e-01 2.5562981347e+00 -4.4276382485e+00 2.5562981347e+00 4.4276382485e+00 
18200 6.9050989588e+00 -1.4535873302e-01 2.5591482495e+00 -4.4325747922e+00 2.5591482495e+00 4.4325747922e+00 
18300 6.9039696008e+00 -1.4502024399e-01 2.5619887568e+00 -4.4374946953e+00 2.5619887568e+00 4.4374946953e+00 
18400 6.9028427897e+00 -1.4467262261e-01 2.5648195053e+00 -4.4423976954e+00 2.5648195053e+00 4.4423976954e+00 
18500 6.9017187054e+00 -1.4431612390e-01 2.5676403492e+00 -4.4472835403e+00 2.5676403492e+00 4.4472835403e+00 
18600 6.9005975252e+00 -1.4395099646e-01 2.5704511482e+00 -4.4521519871e+00 2.5704511482e+00 4.4521519871e+00 
18700 6.8994794241e+00 -1.4357748285e-01 2.5732517676e+00 -4.4570028021e+00 2.5732517676e+00 4.4570028021e+00 
18800 6.8983645748e+00 -1.4319581989e-01 2.5760420775e+00 -4.4618357606e+00 2.5760420775e+00 4.4618357606e+00 
18900 6.8972531475e+00 -1.4280623894e-01 2.5788219533e+00 -4.4666506468e+00 2.5788219533e+00 4.4666506468e+00 
19000 6.8961453100e+00 -1.4240896617e-01 2.5815912753e+00 -4.4714472531e+00 2.5815912753e+00 4.4714472531e+00 
19100 6.8950412280e+00 -1.4200422280e-01 2.5843499284e+00 -4.4762253805e+00 2.5843499284e+00 4.4762253805e+00 
19200 6.8939410646e+00 -1.4159222531e-01 2.5870978023e+00 -4.4809848378e+00 2.5870978023e+00 4.4809848378e+00 
19300 6.8928449807e+00 -1.4117318562e-01 2.5898347913e+00 -4.4857254417e+00 2.5898347913e+00 4.4857254417e+00 
19400 6.8917531351e+00 -1.4074731127e-01 2.5925607937e+00 -4.4904470165e+00 2.5925607937e+00 4.4904470165e+00 
19500 6.8906656840e+00 -1.4031480556e-01 2.5952757127e+00 -4.4951493940e+00 2.5952757127e+00 4.4951493940e+00 
19600 6.8895827817e+00 -1.3987586770e-01 2.5979794550e+00 -4.4998324132e+00 2.5979794550e+00 4.4998324132e+00 
19700 6.8885045798e+00 -1.3943069290e-01 2.6006719321e+00 -4.5044959201e+00 2.6006719321e+00 4.5044959201e+00 
19800 6.8874312280e+00 -1.3897947251e-01 2.6033530588e+00 -4.5091397679e+00 2.6033530588e+00 4.5091397679e+00 
19900 6.8863628736e+00 -1.3852239408e-01 2.6060227543e+00 -4.5137638161e+00 2.6060227543e+00 4.5137638161e+00 
20000 6.8852996618e+00 -1.3805964144e-01 2.6086809413e+00 -4.5183679310e+00 2.6086809413e+00 4.5183679310e+00 
20100 6.8842417352e+00 -1.3759139477e-01 2.6113275462e+00 -4.5229519853e+00 2.6113275462e+00 4.5229519853e+00 
20200 6.8831892346e+00 -1.3711783067e-01 2.6139624992e+00 -4.5275158577e+00 2.6139624992e+00 4.5275158577e+00 
20300 6.8821422982e+00 -1.3663912218e-01 2.6165857338e+00 -4.5320594333e+00 2.6165857338e+00 4.5320594333e+00 
20400 6.8811010618e+00 -1.3615543886e-01 2.6191971870e+00 -4.5365826030e+00 2.6191971870e+00 4.5365826030e+00 
20500 6.8800656593e+00 -1.3566694679e-01 2.6217967992e+00 -4.5410852633e+00 2.6217967992e+00 4.5410852633e+00 
20600 6.8790362218e+00 -1.3517380859e-01 2.6243845138e+00 -4.5455673165e+00 2.6243845138e+00 4.5455673165e+00 
20700 6.8780128783e+00 -1.3467618350e-01 2.6269602776e+00 -4.5500286703e+00 2.6269602776e+00 4.5500286703e+00 
20800 6.8769957553e+00 -1.3417422733e-01 2.6295240405e+00 -4.5544692379e+00 2.6295240405e+00 4.5544692379e+00 
20900 6.8759849766e+00 -1.3366809254e-01 2.6320757552e+00 -4.5588889374e+00 2.6320757552e+00 4.5588889374e+00 
21000 6.8749806639e+00 -1.3315792819e-01 2.6346153775e+00 -4.5632876922e+00 2.6346153775e+00 4.5632876922e+00 
21100 6.8739829361e+00 -1.3264388002e-01 2.6371428659e+00 -4.5676654305e+00 2.6371428659e+00 4.5676654305e+00 
21200 6.8729919096e+00 -1.3212609041e-01 2.6396581817e+00 -4.5720220853e+00 2.6396581817e+00 4.5720220853e+00 
21300 6.8720076979e+00 -1.3160469842e-01 2.6421612889e+00 -4.5763575942e+00 2.6421612889e+00 4.5763575942e+00 
21400 6.8710304120e+00 -1.3107983977e-01 2.6446521541e+00 -4.5806718993e+00 2.6446521541e+00 4.5806718993e+00 
21500 6.8700601601e+00 -1.3055164688e-01 2.6471307465e+00 -4.5849649472e+00 2.6471307465e+00 4.5849649472e+00 
21600 6.8690970475e+00 -1.3002024888e-01 2.6495970375e+00 -4.5892366886e+00 2.6495970375e+00 4.5892366886e+00 
21700 6.8681411765e+00 -1.2948577161e-01 2.6520510012e+00 -4.5934870783e+00 2.6520510012e+00 4.5934870783e+00 
21800 6.8671926467e+00 -1.2894833764e-01 2.6544926137e+00 -4.5977160753e+00 2.6544926137e+00 4.5977160753e+00 
21900 6.8662515544e+00 -1.2840806629e-01 2.6569218536e+00 -4.6019236421e+00 2.6569218536e+00 4.6019236421e+00 
22000 6.8653179928e+00 -1.2786507363e-01 2.6593387013e+00 -4.6061097452e+00 2.6593387013e+00 4.6061097452e+00 
22100 6.8643920520e+00 -1.2731947253e-01 2.6617431397e+00 -4.6102743547e+00 2.6617431397e+00 4.6102743547e+00 
22200 6.8634738188e+00 -1.2677137268e-01 2.6641351534e+00 -4.6144174440e+00 2.6641351534e+00 4.6144174440e+00 
22300 6.8625633767e+00 -1.2622088059e-01 2.6665147291e+00 -4.6185389900e+00 2.6665147291e+00 4.6185389900e+00 
22400 6.8616608058e+00 -1.2566809963e-01 2.6688818553e+00 -4.6226389728e+00 2.6688818553e+00 4.6226389728e+00 
22500 6.8607661828e+00 -1.2511313009e-01 2.6712365223e+00 -4.6267173756e+00 2.6712365223e+00 4.6267173756e+00 
22600 6.8598795807e+00 -1.2455606918e-01 2.6735787221e+00 -4.6307741847e+00 2.6735787221e+00 4.6307741847e+00 
22700 6.8590010691e+00 -1.2399701108e-01 2.6759084486e+00 -4.6348093893e+00 2.6759084486e+00 4.6348093893e+00 
22800 6.8581307139e+00 -1.2343604700e-01 2.6782256969e+00 -4.6388229812e+00 2.6782256969e+00 4.6388229812e+00 
22900 6.8572685771e+00 -1.2287326520e-01 2.6805304641e+00 -4.6428149550e+00 2.6805304641e+00 4.6428149550e+00 
23000 6.8564147171e+00 -1.2230875104e-01 2.6828227484e+00 -4.6467853080e+00 2.6828227484e+00 4.6467853080e+00 
23100 6.8555691885e+00 -1.2174258706e-01 2.6851025497e+00 -4.6507340397e+00 2.6851025497e+00 4.6507340397e+00 
23200 6.8547320420e+00 -1.2117485299e-01 2.6873698692e+00 -4.6546611521e+00 2.6873698692e+00 4.6546611521e+00 
23300 6.8539033243e+00 -1.2060562585e-01 2.6896247092e+00 -4.6585666496e+00 2.6896247092e+00 4.6585666496e+00 
23400 6.8530830782e+00 -1.2003497999e-01 2.6918670735e+00 -4.6624505385e+00 2.6918670735e+00 4.6624505385e+00 
23500 6.8522713423e+00 -1.1946298716e-01 2.6940969669e+00 -4.6663128272e+00 2.6940969669e+00 4.6663128272e+00 
23600 6.8514681515e+00 -1.1888971656e-01 2.6963143956e+00 -4.6701535264e+00 2.6963143956e+00 4.6701535264e+00 
23700 6.8506735363e+00 -1.1831523495e-01 2.6985193667e+00 -4.6739726484e+00 2.6985193667e+00 4.6739726484e+00 
23800 6.8498875233e+00 -1.1773960666e-01 2.7007118883e+00 -4.6777702072e+00 2.7007118883e+00 4.6777702072e+00 
23900 6.8491101349e+00 -1.1716289374e-01 2.7028919697e+00 -4.6815462189e+00 2.7028919697e+00 4.6815462189e+00 
24000 6.8483413893e+00 -1.1658515597e-01 2.7050596209e+00 -4.6853007009e+00 2.7050596209e+00 4.6853007009e+00 
24100 6.8475813007e+00 -1.1600645098e-01 2.7072148529e+00 -4.6890336722e+00 2.7072148529e+00 4.6890336722e+00 
24200 6.8468298790e+00 -1.1542683430e-01 2.7093576777e+00 -4.6927451536e+00 2.7093576777e+00 4.6927451536e+00 
24300 6.8460871301e+00 -1.1484635948e-01 2.7114881079e+00 -4.6964351669e+00 2.7114881079e+00 4.6964351669e+00 
24400 6.8453530556e+00 -1.1426507815e-01 2.7136061569e+00 -4.7001037355e+00 2.7136061569e+00 4.7001037355e+00 
24500 6.8446276530e+00 -1.1368304012e-01 2.7157118391e+00 -4.7037508841e+00 2.7157118391e+00 4.7037508841e+00 
24600 6.8439109157e+00 -1.1310029344e-01 2.7178051693e+00 -4.7073766383e+00 2.7178051693e+00 4.7073766383e+00 
24700 6.8432028331e+00 -1.1251688453e-01 2.7198861631e+00 -4.7109810253e+00 2.7198861631e+00 4.7109810253e+00 
24800 6.8425033904e+00 -1.1193285824e-01 2.7219548367e+00 -4.7145640731e+00 2.7219548367e+00 4.7145640731e+00 
24900 6.8418125688e+00 -1.1134825796e-01 2.7240112070e+00 -4.7181258109e+00 2.7240112070e+00 4.7181258109e+00 
25000 6.8411303456e+00 -1.1076312568e-01 2.7260552913e+00 -4.7216662688e+00 2.7260552913e+00 4.7216662688e+00 
25100 6.8404566941e+00 -1.1017750213e-01 2.7280871076e+00 -4.7251854779e+00 2.7280871076e+00 4.7251854779e+00 
25200 6.8397915836e+00 -1.0959142683e-01 2.7301066744e+00 -4.7286834702e+00 2.7301066744e+00 4.7286834702e+00 
25300 6.8391349798e+00 -1.0900493822e-01 2.7321140107e+00 -4.7321602787e+00 2.7321140107e+00 4.7321602787e+00 
25400 6.8384868444e+00 -1.0841807371e-01 2.7341091360e+00 -4.7356159370e+00 2.7341091360e+00 4.7356159370e+00 
25500 6.8378471355e+00 -1.0783086980e-01 2.7360920702e+00 -4.7390504797e+00 2.7360920702e+00 4.7390504797e+00 
25600 6.8372158077e+00 -1.0724336218e-01 2.7380628336e+00 -4.7424639421e+00 2.7380628336e+00 4.7424639421e+00 
25700 6.8365928119e+00 -1.0665558580e-01 2.7400214471e+00 -4.7458563602e+00 2.7400214471e+00 4.7458563602e+00 
25800 6.8359780955e+00 -1.0606757496e-01 2.7419679319e+00 -4.7492277708e+00 2.7419679319e+00 4.7492277708e+00 
25900 6.8353716027e+00 -1.0547936343e-01 2.7439023097e+00 -4.7525782114e+00 2.7439023097e+00 4.7525782114e+00 
26000 6.8347732742e+00 -1.0489098450e-01 2.7458246024e+00 -4.7559077201e+00 2.7458246024e+00 4.7559077201e+00 
26100 6.8341830477e+00 -1.0430247109e-01 2.7477348325e+00 -4.7592163357e+00 2.7477348325e+00 4.7592163357e+00 
26200 6.8336008579e+00 -1.0371385584e-01 2.7496330228e+00 -4.7625040977e+00 2.7496330228e+00 4.7625040977e+00 
26300 6.8330266362e+00 -1.0312517116e-01 2.7515191964e+00 -4.7657710462e+00 2.7515191964e+00 4.7657710462e+00 
26400 6.8324603115e+00 -1.0253644938e-01 2.7533933768e+00 -4.7690172219e+00 2.7533933768e+00 4.7690172219e+00 
26500 6.8319018096e+00 -1.0194772275e-01 2.7552555880e+00 -4.7722426663e+00 2.7552555880e+00 4.7722426663e+00 
26600 6.8313510540e+00 -1.0135902358e-01 2.7571058542e+00 -4.7754474213e+00 2.7571058542e+00 4.7754474213e+00 
26700 6.8308079655e+00 -1.0077038428e-01 2.7589442000e+00 -4.7786315296e+00 2.7589442000e+00 4.7786315296e+00 
26800 6.8302724625e+00 -1.0018183746e-01 2.7607706504e+00 -4.7817950345e+00 2.7607706504e+00 4.7817950345e+00 
26900 6.8297444613e+00 -9.9593415986e-02 2.7625852307e+00 -4.7849379798e+00 2.7625852307e+00 4.7849379798e+00 
27000 6.8292238758e+00 -9.9005153046e-02 2.7643879668e+00 -4.7880604102e+00 2.7643879668e+00 4.7880604102e+00 
27100 6.8287106183e+00 -9.8417082231e-02 2.7661788846e+00 -4.7911623710e+00 2.7661788846e+00 4.7911623710e+00 
27200 6.8282045988e+00 -9.7829237585e-02 2.7679580108e+00 -4.7942439079e+00 2.7679580108e+00 4.7942439079e+00 
27300 6.8277057258e+00 -9.7241653671e-02 2.7697253721e+00 -4.7973050675e+00 2.7697253721e+00 4.7973050675e+00 
27400 6.8272139061e+00 -9.6654365629e-02 2.7714809960e+00 -4.8003458972e+00 2.7714809960e+00 4.8003458972e+00 
27500 6.8267290451e+00 -9.6067409225e-02 2.7732249101e+00 -4.8033664450e+00 2.7732249101e+00 4.8033664450e+00 
27600 6.8262510469e+00 -9.5480820905e-02 2.7749571425e+00 -4.8063667596e+00 2.7749571425e+00 4.8063667596e+00 
27700 6.8257798143e+00 -9.4894637842e-02 2.7766777219e+00 -4.8093468905e+00 2.7766777219e+00 4.8093468905e+00 
27800 6.8253152491e+00 -9.4308897977e-02 2.7783866772e+00 -4.8123068880e+00 2.7783866772e+00 4.8123068880e+00 
27900 6.8248572522e+00 -9.3723640060e-02 2.7800840380e+00 -4.8152468032e+00 2.7800840380e+00 4.8152468032e+00 
28000 6.8244057236e+00 -9.3138903688e-02 2.7817698343e+00 -4.8181666880e+00 2.7817698343e+00 4.8181666880e+00 
28100 6.8239605629e+00 -9.2554729333e-02 2.7834440965e+00 -4.8210665951e+00 2.7834440965e+00 4.8210665951e+00 
28200 6.8235216689e+00 -9.1971158374e-02 2.7851068555e+00 -4.8239465783e+00 2.7851068555e+00 4.8239465783e+00 
28300 6.8230889403e+00 -9.1388233118e-02 2.7867581430e+00 -4.8268066921e+00 2.7867581430e+00 4.8268066921e+00 
28400 6.8226622752e+00 -9.0805996826e-02 2.7883979909e+00 -4.8296469919e+00 2.7883979909e+00 4.8296469919e+00 
28500 6.8222415720e+00 -9.0224493722e-02 2.7900264318e+00 -4.8324675344e+00 2.7900264318e+00 4.8324675344e+00 
28600 6.8218267289e+00 -8.9643769012e-02 2.7916434990e+00 -4.8352683769e+00 2.7916434990e+00 4.8352683769e+00 
28700 6.8214176441e+00 -8.9063868886e-02 2.7932492262e+00 -4.8380495780e+00 2.7932492262e+00 4.8380495780e+00 
28800 6.8210142163e+00 -8.8484840530e-02 2.7948436478e+00 -4.8408111972e+00 2.7948436478e+00 4.8408111972e+00 
28900 6.8206163446e+00 -8.7906732119e-02 2.7964267987e+00 -4.8435532951e+00 2.7964267987e+00 4.8435532951e+00 
29000 6.8202239283e+00 -8.7329592815e-02 2.7979987148e+00 -4.8462759335e+00 2.7979987148e+00 4.8462759335e+00 
29100 6.8198368678e+00 -8.6753472762e-02 2.7995594322e+00 -4.8489791754e+00 2.7995594322e+00 4.8489791754e+00 
29200 6.8194550637e+00 -8.6178423071e-02 2.8011089880e+00 -4.8516630847e+00 2.8011089880e+00 4.8516630847e+00 
29300 6.8190784180e+00 -8.5604495802e-02 2.8026474198e+00 -4.8543277269e+00 2.8026474198e+00 4.8543277269e+00 
29400 6.8187068331e+00 -8.5031743949e-02 2.8041747662e+00 -4.8569731683e+00 2.8041747662e+00 4.8569731683e+00 
29500 6.8183402128e+00 -8.4460221411e-02 2.8056910662e+00 -4.8595994769e+00 2.8056910662e+00 4.8595994769e+00 
29600 6.8179784620e+00 -8.3889982968e-02 2.8071963596e+00 -4.8622067217e+00 2.8071963596e+00 4.8622067217e+00 
29700 6.8176214867e+00 -8.3321084244e-02 2.8086906873e+00 -4.8647949731e+00 2.8086906873e+00 4.8647949731e+00 
29800 6.8172691944e+00 -8.2753581676e-02 2.8101740904e+00 -4.8673643028e+00 2.8101740904e+00 4.8673643028e+00 
29900 6.8169214939e+00 -8.2187532476e-02 2.8116466114e+00 -4.8699147839e+00 2.8116466114e+00 4.8699147839e+00 
30000 6.8165782955e+00 -8.1622994580e-02 2.8131082931e+00 -4.8724464909e+00 2.8131082931e+00 4.8724464909e+00 
30100 6.8162395111e+00 -8.1060026610e-02 2.8145591794e+00 -4.8749594997e+00 2.8145591794e+00 4.8749594997e+00 
30200 6.8159050542e+00 -8.0498687822e-02 2.8159993150e+00 -4.8774538876e+00 2.8159993150e+00 4.8774538876e+00 
30300 6.8155748400e+00 -7.9939038050e-02 2.8174287453e+00 -4.8799297335e+00 2.8174287453e+00 4.8799297335e+00 
30400 6.8152487855e+00 -7.9381137654e-02 2.8188475166e+00 -4.8823871176e+00 2.8188475166e+00 4.8823871176e+00 
30500 6.8149268095e+00 -7.8825047460e-02 2.8202556762e+00 -4.8848261215e+00 2.8202556762e+00 4.8848261215e+00 
30600 6.8146088326e+00 -7.8270828697e-02 2.8216532721e+00 -4.8872468286e+00 2.8216532721e+00 4.8872468286e+00 
30700 6.8142947773e+00 -7.7718542931e-02 2.8230403532e+00 -4.8896493235e+00 2.8230403532e+00 4.8896493235e+00 
30800 6.8139845683e+00 -7.7168252004e-02 2.8244169693e+00 -4.8920336925e+00 2.8244169693e+00 4.8920336925e+00 
30900 6.8136781318e+00 -7.6620017959e-02 2.8257831710e+00 -4.8944000234e+00 2.8257831710e+00 4.8944000234e+00 
31000 6.8133753965e+00 -7.6073902972e-02 2.8271390101e+00 -4.8967484055e+00 2.8271390101e+00 4.8967484055e+00 
31100 6.8130762928e+00 -7.5529969275e-02 2.8284845388e+00 -4.8990789296e+00 2.8284845388e+00 4.8990789296e+00 
31200 6.8127807532e+00 -7.4988279086e-02 2.8298198105e+00 -4.9013916880e+00 2.8298198105e+00 4.9013916880e+00 
31300 6.8124887126e+00 -7.4448894528e-02 2.8311448795e+00 -4.9036867748e+00 2.8311448795e+00 4.9036867748e+00 
31400 6.8122001074e+00 -7.3911877553e-02 2.8324598008e+00 -4.9059642853e+00 2.8324598008e+00 4.9059642853e+00 
31500 6.8119148765e+00 -7.3377289863e-02 2.8337646304e+00 -4.9082243165e+00 2.8337646304e+00 4.9082243165e+00 
31600 6.8116329608e+00 -7.2845192828e-02 2.8350594252e+00 -4.9104669669e+00 2.8350594252e+00 4.9104669669e+00 
31700 6.8113543032e+00 -7.2315647407e-02 2.8363442429e+00 -4.9126923365e+00 2.8363442429e+00 4.9126923365e+00 
31800 6.8110788486e+00 -7.1788714065e-02 2.8376191422e+00 -4.9149005268e+00 2.8376191422e+00 4.9149005268e+00 
31900 6.8108065440e+00 -7.1264452693e-02 2.8388841824e+00 -4.9170916406e+00 2.8388841824e+00 4.9170916406e+00 
32000 6.8105373386e+00 -7.0742922524e-02 2.8401394238e+00 -4.9192657826e+00 2.8401394238e+00 4.9192657826e+00 
32100 6.8102711833e+00 -7.0224182053e-02 2.8413849276e+00 -4.9214230585e+00 2.8413849276e+00 4.9214230585e+00 
32200 6.8100080312e+00 -6.9708288954e-02 2.8426207558e+00 -4.9235635757e+00 2.8426207558e+00 4.9235635757e+00 
32300 6.8097478373e+00 -6.9195300000e-02 2.8438469710e+00 -4.9256874428e+00 2.8438469710e+00 4.9256874428e+00 
32400 6.8094905583e+00 -6.8685270984e-02 2.8450636369e+00 -4.9277947699e+00 2.8450636369e+00 4.9277947699e+00 
32500 6.8092361530e+00 -6.8178256635e-02 2.8462708177e+00 -4.9298856684e+00 2.8462708177e+00 4.9298856684e+00 
32600 6.8089845820e+00 -6.7674310547e-02 2.8474685786e+00 -4.9319602511e+00 2.8474685786e+00 4.9319602511e+00 
32700 6.8087358076e+00 -6.7173485095e-02 2.8486569853e+00 -4.9340186319e+00 2.8486569853e+00 4.9340186319e+00 
32800 6.8084897939e+00 -6.6675831366e-02 2.8498361044e+00 -4.9360609261e+00 2.8498361044e+00 4.9360609261e+00 
32900 6.8082465067e+00 -6.6181399081e-02 2.8510060031e+00 -4.9380872501e+00 2.8510060031e+00 4.9380872501e+00 
33000 6.8080059133e+00 -6.5690236528e-02 2.8521667493e+00 -4.9400977215e+00 2.8521667493e+00 4.9400977215e+00 
33100 6.8077679827e+00 -6.5202390486e-02 2.8533184116e+00 -4.9420924590e+00 2.8533184116e+00 4.9420924590e+00 
33200 6.8075326854e+00 -6.4717906167e-02 2.8544610590e+00 -4.9440715824e+00 2.8544610590e+00 4.9440715824e+00 
33300 6.8072999934e+00 -6.4236827143e-02 2.8555947614e+00 -4.9460352126e+00 2.8555947614e+00 4.9460352126e+00 
33400 6.8070698799e+00 -6.3759195288e-02 2.8567195891e+00 -4.9479834714e+00 2.8567195891e+00 4.9479834714e+00 
33500 6.8068423197e+00 -6.3285050720e-02 2.8578356130e+00 -4.9499164814e+00 2.8578356130e+00 4.9499164814e+00 
33600 6.8066172888e+00 -6.2814431742e-02 2.8589429044e+00 -4.9518343664e+00 2.8589429044e+00 4.9518343664e+00 
33700 6.8063947643e+00 -6.2347374792e-02 2.8600415352e+00 -4.9537372507e+00 2.8600415352e+00 4.9537372507e+00 
33800 6.8061747245e+00 -6.1883914388e-02 2.8611315776e+00 -4.9556252596e+00 2.8611315776e+00 4.9556252596e+00 
33900 6.8059571490e+00 -6.1424083087e-02 2.8622131045e+00 -4.9574985190e+00 2.8622131045e+00 4.9574985190e+00 
34000 6.8057420180e+00 -6.0967911439e-02 2.8632861888e+00 -4.9593571556e+00 2.8632861888e+00 4.9593571556e+00 
34100 6.8055293131e+00 -6.0515427947e-02 2.8643509040e+00 -4.9612012964e+00 2.8643509040e+00 4.9612012964e+00 
34200 6.8053190164e+00 -6.0066659031e-02 2.8654073239e+00 -4.9630310694e+00 2.8654073239e+00 4.9630310694e+00 
34300 6.8051111112e+00 -5.9621628997e-02 2.8664555225e+00 -4.9648466026e+00 2.8664555225e+00 4.9648466026e+00 
34400 6.8049055813e+00 -5.9180360005e-02 2.8674955741e+00 -4.9666480248e+00 2.8674955741e+00 4.9666480248e+00 
34500 6.8047024114e+00 -5.8742872048e-02 2.8685275532e+00 -4.9684354650e+00 2.8685275532e+00 4.9684354650e+00 
34600 6.8045015865e+00 -5.8309182927e-02 2.8695515344e+00 -4.9702090525e+00 2.8695515344e+00 4.9702090525e+00 
34700 6.8043030927e+00 -5.7879308238e-02 2.8705675925e+00 -4.9719689168e+00 2.8705675925e+00 4.9719689168e+00 
34800 6.8041069161e+00 -5.7453261353e-02 2.8715758024e+00 -4.9737151876e+00 2.8715758024e+00 4.9737151876e+00 
34900 6.8039130437e+00 -5.7031053415e-02 2.8725762391e+00 -4.9754479948e+00 2.8725762391e+00 4.9754479948e+00 
35000 6.8037214626e+00 -5.6612693329e-02 2.8735689776e+00 -4.9771674682e+00 2.8735689776e+00 4.9771674682e+00 
35100 6.8035321604e+00 -5.6198187762e-02 2.8745540927e+00 -4.9788737377e+00 2.8745540927e+00 4.9788737377e+00 
35200 6.8033451251e+00 -5.5787541145e-02 2.8755316595e+00 -4.9805669330e+00 2.8755316595e+00 4.9805669330e+00 
35300 6.8031603447e+00 -5.5380755677e-02 2.8765017527e+00 -4.9822471838e+00 2.8765017527e+00 4.9822471838e+00 
35400 6.8029778076e+00 -5.4977831336e-02 2.8774644471e+00 -4.9839146194e+00 2.8774644471e+00 4.9839146194e+00 
35500 6.8027975023e+00 -5.4578765891e-02 2.8784198173e+00 -4.9855693691e+00 2.8784198173e+00 4.9855693691e+00 
35600 6.8026194174e+00 -5.4183554919e-02 2.8793679375e+00 -4.9872115615e+00 2.8793679375e+00 4.9872115615e+00 
35700 6.8024435416e+00 -5.3792191826e-02 2.8803088820e+00 -4.9888413250e+00 2.8803088820e+00 4.9888413250e+00 
35800 6.8022698637e+00 -5.3404667872e-02 2.8812427245e+00 -4.9904587877e+00 2.8812427245e+00 4.9904587877e+00 
35900 6.8020983724e+00 -5.3020972192e-02 2.8821695386e+00 -4.9920640769e+00 2.8821695386e+00 4.9920640769e+00 
36000 6.8019290564e+00 -5.2641091836e-02 2.8830893976e+00 -4.9936573194e+00 2.8830893976e+00 4.9936573194e+00 
36100 6.8017619042e+00 -5.2265011794e-02 2.8840023743e+00 -4.9952386414e+00 2.8840023743e+00 4.9952386414e+00 
36200 6.8015969044e+00 -5.1892715040e-02 2.8849085412e+00 -4.9968081685e+00 2.8849085412e+00 4.9968081685e+00 
36300 6.8014340455e+00 -5.1524182565e-02 2.8858079702e+00 -4.9983660253e+00 2.8858079702e+00 4.9983660253e+00 
36400 6.8012733155e+00 -5.1159393424e-02 2.8867007330e+00 -4.9999123358e+00 2.8867007330e+00 4.9999123358e+00 
36500 6.8011147027e+00 -5.0798324782e-02 2.8875869005e+00 -5.0014472230e+00 2.8875869005e+00 5.0014472230e+00 
36600 6.8009581949e+00 -5.0440951957e-02 2.8884665434e+00 -5.0029708091e+00 2.8884665434e+00 5.0029708091e+00 
36700 6.8008037796e+00 -5.0087248478e-02 2.8893397315e+00 -5.0044832152e+00 2.8893397315e+00 5.0044832152e+00 
36800 6.8006514444e+00 -4.9737186129e-02 2.8902065342e+00 -5.0059845616e+00 2.8902065342e+00 5.0059845616e+00 
36900 6.8005011764e+00 -4.9390735012e-02 2.8910670203e+00 -5.0074749673e+00 2.8910670203e+00 5.0074749673e+00 
37000 6.8003529625e+00 -4.9047863600e-02 2.8919212580e+00 -5.0089545504e+00 2.8919212580e+00 5.0089545504e+00 
37100 6.8002067893e+00 -4.8708538793e-02 2.8927693146e+00 -5.0104234275e+00 2.8927693146e+00 5.0104234275e+00 
37200 6.8000626433e+00 -4.8372725987e-02 2.8936112570e+00 -5.0118817145e+00 2.8936112570e+00 5.0118817145e+00 
37300 6.7999205105e+00 -4.8040389128e-02 2.8944471511e+00 -5.0133295256e+00 2.8944471511e+00 5.0133295256e+00 
37400 6.7997803767e+00 -4.7711490781e-02 2.8952770624e+00 -5.0147669740e+00 2.8952770624e+00 5.0147669740e+00 
37500 6.7996422274e+00 -4.7385992192e-02 2.8961010552e+00 -5.0161941715e+00 2.8961010552e+00 5.0161941715e+00 
37600 6.7995060478e+00 -4.7063853356e-02 2.8969191935e+00 -5.0176112286e+00 2.8969191935e+00 5.0176112286e+00 
37700 6.7993718229e+00 -4.6745033082e-02 2.8977315402e+00 -5.0190182543e+00 2.8977315402e+00 5.0190182543e+00 
37800 6.7992395373e+00 -4.6429489065e-02 2.8985381574e+00 -5.0204153562e+00 2.8985381574e+00 5.0204153562e+00 
37900 6.7991091753e+00 -4.6117177950e-02 2.8993391064e+00 -5.0218026406e+00 2.8993391064e+00 5.0218026406e+00 
38000 6.7989807211e+00 -4.5808055405e-02 2.9001344477e+00 -5.0231802123e+00 2.9001344477e+00 5.0231802123e+00 
38100 6.7988541585e+00 -4.5502076187e-02 2.9009242410e+00 -5.0245481744e+00 2.9009242410e+00 5.0245481744e+00 
38200 6.7987294709e+00 -4.5199194217e-02 2.9017085450e+00 -5.0259066286e+00 2.9017085450e+00 5.0259066286e+00 
38300 6.7986066417e+00 -4.4899362644e-02 2.9024874174e+00 -5.0272556752e+00 2.9024874174e+00 5.0272556752e+00 
38400 6.7984856539e+00 -4.4602533921e-02 2.9032609153e+00 -5.0285954128e+00 2.9032609153e+00 5.0285954128e+00 
38500 6.7983664904e+00 -4.4308659869e-02 2.9040290946e+00 -5.0299259385e+00 2.9040290946e+00 5.0299259385e+00 
38600 6.7982491337e+00 -4.4017691752e-02 2.9047920105e+00 -5.0312473476e+00 2.9047920105e+00 5.0312473476e+00 
38700 6.7981335661e+00 -4.3729580342e-02 2.9055497171e+00 -5.0325597340e+00 2.9055497171e+00 5.0325597340e+00 
38800 6.7980197698e+00 -4.3444275991e-02 2.9063022678e+00 -5.0338631900e+00 2.9063022678e+00 5.0338631900e+00 
38900 6.7979077269e+00 -4.3161728695e-02 2.9070497148e+00 -5.0351578061e+00 2.9070497148e+00 5.0351578061e+00 
39000 6.7977974190e+00 -4.2881888165e-02 2.9077921095e+00 -5.0364436715e+00 2.9077921095e+00 5.0364436715e+00 
39100 6.7976888278e+00 -4.2604703891e-02 2.9085295023e+00 -5.0377208733e+00 2.9085295023e+00 5.0377208733e+00 
39200 6.7975819348e+00 -4.2330125209e-02 2.9092619427e+00 -5.0389894973e+00 2.9092619427e+00 5.0389894973e+00 
39300 6.7974767213e+00 -4.2058101362e-02 2.9099894793e+00 -5.0402496276e+00 2.9099894793e+00 5.0402496276e+00 
39400 6.7973731685e+00 -4.1788581568e-02 2.9107121596e+00 -5.0415013466e+00 2.9107121596e+00 5.0415013466e+00 
39500 6.7972712576e+00 -4.1521515076e-02 2.9114300303e+00 -5.0427447351e+00 2.9114300303e+00 5.0427447351e+00 
39600 6.7971709695e+00 -4.1256851232e-02 2.9121431370e+00 -5.0439798723e+00 2.9121431370e+00 5.0439798723e+00 
39700 6.7970722853e+00 -4.0994539532e-02 2.9128515247e+00 -5.0452068356e+00 2.9128515247e+00 5.0452068356e+00 
39800 6.7969751857e+00 -4.0734529685e-02 2.9135552370e+00 -5.0464257011e+00 2.9135552370e+00 5.0464257011e+00 
39900 6.7968796515e+00 -4.0476771665e-02 2.9142543169e+00 -5.0476365430e+00 2.9142543169e+00 5.0476365430e+00 
40000 6.7967856636e+00 -4.0221215767e-02 2.9149488064e+00 -5.0488394341e+00 2.9149488064e+00 5.0488394341e+00 
40100 6.7966932027e+00 -3.9967812656e-02 2.9156387465e+00 -5.0500344454e+00 2.9156387465e+00 5.0500344454e+00 
40200 6.7966022495e+00 -3.9716513424e-02 2.9163241774e+00 -5.0512216466e+00 2.9163241774e+00 5.0512216466e+00 
40300 6.7965127847e+00 -3.9467269631e-02 2.9170051383e+00 -5.0524011056e+00 2.9170051383e+00 5.0524011056e+00 
40400 6.7964247891e+00 -3.9220033358e-02 2.9176816677e+00 -5.0535728888e+00 2.9176816677e+00 5.0535728888e+00 
40500 6.7963382435e+00 -3.8974757249e-02 2.9183538031e+00 -5.0547370614e+00 2.9183538031e+00 5.0547370614e+00 
40600 6.7962531287e+00 -3.8731394554e-02 2.9190215810e+00 -5.0558936866e+00 2.9190215810e+00 5.0558936866e+00 
40700 6.7961694254e+00 -3.8489899169e-02 2.9196850372e+00 -5.0570428265e+00 2.9196850372e+00 5.0570428265e+00 
40800 6.7960871146e+00 -3.8250225679e-02 2.9203442067e+00 -5.0581845416e+00 2.9203442067e+00 5.0581845416e+00 
40900 6.7960061773e+00 -3.8012329390e-02 2.9209991236e+00 -5.0593188910e+00 2.9209991236e+00 5.0593188910e+00 
41000 6.7959265945e+00 -3.7776166367e-02 2.9216498212e+00 -5.0604459322e+00 2.9216498212e+00 5.0604459322e+00 
41100 6.7958483474e+00 -3.7541693465e-02 2.9222963319e+00 -5.0615657216e+00 2.9222963319e+00 5.0615657216e+00 
41200 6.7957714171e+00 -3.7308868361e-02 2.9229386875e+00 -5.0626783142e+00 2.9229386875e+00 5.0626783142e+00 
41300 6.7956957851e+00 -3.7077649582e-02 2.9235769189e+00 -5.0637837634e+00 2.9235769189e+00 5.0637837634e+00 
41400 6.7956214326e+00 -3.6847996530e-02 2.9242110563e+00 -5.0648821216e+00 2.9242110563e+00 5.0648821216e+00 
41500 6.7955483414e+00 -3.6619869510e-02 2.9248411292e+00 -5.0659734398e+00 2.9248411292e+00 5.0659734398e+00 
41600 6.7954764931e+00 -3.6393229751e-02 2.9254671662e+00 -5.0670577677e+00 2.9254671662e+00 5.0670577677e+00 
41700 6.7954058695e+00 -3.6168039423e-02 2.9260891954e+00 -5.0681351538e+00 2.9260891954e+00 5.0681351538e+00 
41800 6.7953364525e+00 -3.5944261661e-02 2.9267072441e+00 -5.0692056456e+00 2.9267072441e+00 5.0692056456e+00 
41900 6.7952682243e+00 -3.5721860577e-02 2.9273213389e+00 -5.0702692891e+00 2.9273213389e+00 5.0702692891e+00 
42000 6.7952011671e+00 -3.5500801278e-02 2.9279315060e+00 -5.0713261295e+00 2.9279315060e+00 5.0713261295e+00 
42100 6.7951352633e+00 -3.5281049874e-02 2.9285377706e+00 -5.0723762106e+00 2.9285377706e+00 5.0723762106e+00 
42200 6.7950704954e+00 -3.5062573494e-02 2.9291401576e+00 -5.0734195754e+00 2.9291401576e+00 5.0734195754e+00 
42300 6.7950068463e+00 -3.4845340289e-02 2.9297386910e+00 -5.0744562658e+00 2.9297386910e+00 5.0744562658e+00 
42400 6.7949442987e+00 -3.4629319444e-02 2.9303333946e+00 -5.0754863225e+00 2.9303333946e+00 5.0754863225e+00 
42500 6.7948828358e+00 -3.4414481180e-02 2.9309242912e+00 -5.0765097855e+00 2.9309242912e+00 5.0765097855e+00 
42600 6.7948224408e+00 -3.4200796756e-02 2.9315114034e+00 -5.0775266937e+00 2.9315114034e+00 5.0775266937e+00 
42700 6.7947630971e+00 -3.3988238475e-02 2.9320947532e+00 -5.0785370852e+00 2.9320947532e+00 5.0785370852e+00 
42800 6.7947047882e+00 -3.3776779681e-02 2.9326743620e+00 -5.0795409970e+00 2.9326743620e+00 5.0795409970e+00 
42900 6.7946474980e+00 -3.3566394757e-02 2.9332502508e+00 -5.0805384657e+00 2.9332502508e+00 5.0805384657e+00 
43000 6.7945912104e+00 -3.3357059122e-02 2.9338224400e+00 -5.0815295265e+00 2.9338224400e+00 5.0815295265e+00 
43100 6.7945359094e+00 -3.3148749228e-02 2.9343909498e+00 -5.0825142144e+00 2.9343909498e+00 5.0825142144e+00 
43200 6.7944815796e+00 -3.2941442550e-02 2.9349557998e+00 -5.0834925632e+00 2.9349557998e+00 5.0834925632e+00 
43300 6.7944282052e+00 -3.2735117584e-02 2.9355170091e+00 -5.0844646063e+00 2.9355170091e+00 5.0844646063e+00 
43400 6.7943757710e+00 -3.2529753832e-02 2.9360745967e+00 -5.0854303762e+00 2.9360745967e+00 5.0854303762e+00 
43500 6.7943242619e+00 -3.2325331793e-02 2.9366285808e+00 -5.0863899050e+00 2.9366285808e+00 5.0863899050e+00 
43600 6.7942736630e+00 -3.2121832957e-02 2.9371789797e+00 -5.0873432238e+00 2.9371789797e+00 5.0873432238e+00 
43700 6.7942239594e+00 -3.1919239782e-02 2.9377258110e+00 -5.0882903634e+00 2.9377258110e+00 5.0882903634e+00 
43800 6.7941751366e+00 -3.1717535691e-02 2.9382690922e+00 -5.0892313540e+00 2.9382690922e+00 5.0892313540e+00 
43900 6.7941271802e+00 -3.1516705049e-02 2.9388088404e+00 -5.0901662253e+00 2.9388088404e+00 5.0901662253e+00 
44000 6.7940800761e+00 -3.1316733150e-02 2.9393450723e+00 -5.0910950062e+00 2.9393450723e+00 5.0910950062e+00 
44100 6.7940338101e+00 -3.1117606201e-02 2.9398778046e+00 -5.0920177256e+00 2.9398778046e+00 5.0920177256e+00 
44200 6.7939883685e+00 -3.0919311303e-02 2.9404070534e+00 -5.0929344115e+00 2.9404070534e+00 5.0929344115e+00 
44300 6.7939437377e+00 -3.0721836431e-02 2.9409328349e+00 -5.0938450918e+00 2.9409328349e+00 5.0938450918e+00 
44400 6.7938999041e+00 -3.0525170418e-02 2.9414551649e+00 -5.0947497938e+00 2.9414551649e+00 5.0947497938e+00 
44500 6.7938568545e+00 -3.0329302930e-02 2.9419740589e+00 -5.0956485445e+00 2.9419740589e+00 5.0956485445e+00 
44600 6.7938145757e+00 -3.0134224450e-02 2.9424895323e+00 -5.0965413707e+00 2.9424895323e+00 5.0965413707e+00 
44700 6.7937730550e+00 -2.9939926255e-02 2.9430016003e+00 -5.0974282986e+00 2.9430016003e+00 5.0974282986e+00 
44800 6.7937322794e+00 -2.9746400391e-02 2.9435102781e+00 -5.0983093543e+00 2.9435102781e+00 5.0983093543e+00 
44900 6.7936922366e+00 -2.9553639656e-02 2.9440155804e+00 -5.0991845636e+00 2.9440155804e+00 5.0991845636e+00 
45000 6.7936529140e+00 -2.9361637571e-02 2.9445175220e+00 -5.1000539519e+00 2.9445175220e+00 5.1000539519e+00 
45100 6.7936142995e+00 -2.9170388363e-02 2.9450161176e+00 -5.1009175448e+00 2.9450161176e+00 5.1009175448e+00 
45200 6.7935763810e+00 -2.8979886936e-02 2.9455113815e+00 -5.1017753671e+00 2.9455113815e+00 5.1017753671e+00 
45300 6.7935391467e+00 -2.8790128849e-02 2.9460033282e+00 -5.1026274438e+00 2.9460033282e+00 5.1026274438e+00 
45400 6.7935025849e+00 -2.8601110294e-02 2.9464919720e+00 -5.1034737997e+00 2.9464919720e+00 5.1034737997e+00 
45500 6.7934666841e+00 -2.8412828069e-02 2.9469773271e+00 -5.1043144593e+00 2.9469773271e+00 5.1043144593e+00 
45600 6.7934314329e+00 -2.8225279553e-02 2.9474594075e+00 -5.1051494471e+00 2.9474594075e+00 5.1051494471e+00 
45700 6.7933968202e+00 -2.8038462685e-02 2.9479382274e+00 -5.1059787875e+00 2.9479382274e+00 5.1059787875e+00 
45800 6.7933628348e+00 -2.7852375936e-02 2.9484138008e+00 -5.1068025046e+00 2.9484138008e+00 5.1068025046e+00 
45900 6.7933294661e+00 -2.7667018286e-02 2.9488861415e+00 -5.1076206228e+00 2.9488861415e+00 5.1076206228e+00 
46000 6.7932967032e+00 -2.7482389199e-02 2.9493552636e+00 -5.1084331661e+00 2.9493552636e+00 5.1084331661e+00 
46100 6.7932645357e+00 -2.7298488599e-02 2.9498211809e+00 -5.1092401585e+00 2.9498211809e+00 5.1092401585e+00 
46200 6.7932329532e+00 -2.7115316845e-02 2.9502839073e+00 -5.1100416241e+00 2.9502839073e+00 5.1100416241e+00 
46300 6.7932019455e+00 -2.6932874707e-02 2.9507434566e+00 -5.1108375869e+00 2.9507434566e+00 5.1108375869e+00 
46400 6.7931715026e+00 -2.6751163343e-02 2.9511998428e+00 -5.1116280709e+00 2.9511998428e+00 5.1116280709e+00 
46500 6.7931416145e+00 -2.6570184275e-02 2.9516530796e+00 -5.1124131001e+00 2.9516530796e+00 5.1124131001e+00 
46600 6.7931122715e+00 -2.6389939365e-02 2.9521031809e+00 -5.1131926985e+00 2.9521031809e+00 5.1131926985e+00 
46700 6.7930834640e+00 -2.6210430790e-02 2.9525501606e+00 -5.1139668901e+00 2.9525501606e+00 5.1139668901e+00 
46800 6.7930551826e+00 -2.6031661024e-02 2.9529940326e+00 -5.1147356989e+00 2.9529940326e+00 5.1147356989e+00 
46900 6.7930274181e+00 -2.5853632810e-02 2.9534348108e+00 -5.1154991492e+00 2.9534348108e+00 5.1154991492e+00 
47000 6.7930001612e+00 -2.5676349144e-02 2.9538725092e+00 -5.1162572650e+00 2.9538725092e+00 5.1162572650e+00 
47100 6.7929734029e+00 -2.5499813246e-02 2.9543071417e+00 -5.1170100705e+00 2.9543071417e+00 5.1170100705e+00 
47200 6.7929471346e+00 -2.5324028547e-02 2.9547387223e+00 -5.1177575901e+00 2.9547387223e+00 5.1177575901e+00 
47300 6.7929213473e+00 -2.5148998660e-02 2.9551672651e+00 -5.1184998480e+00 2.9551672651e+00 5.1184998480e+00 
47400 6.7928960326e+00 -2.4974727366e-02 2.9555927842e+00 -5.1192368687e+00 2.9555927842e+00 5.1192368687e+00 
47500 6.7928711821e+00 -2.4801218592e-02 2.9560152937e+00 -5.1199686767e+00 2.9560152937e+00 5.1199686767e+00 
47600 6.7928467875e+00 -2.4628476389e-02 2.9564348079e+00 -5.1206952965e+00 2.9564348079e+00 5.1206952965e+00 
47700 6.7928228406e+00 -2.4456504919e-02 2.9568513409e+00 -5.1214167529e+00 2.9568513409e+00 5.1214167529e+00 
47800 6.7927993335e+00 -2.4285308432e-02 2.9572649071e+00 -5.1221330705e+00 2.9572649071e+00 5.1221330705e+00 
47900 6.7927762582e+00 -2.4114891248e-02 2.9576755208e+00 -5.1228442743e+00 2.9576755208e+00 5.1228442743e+00 
48000 6.7927536071e+00 -2.3945257745e-02 2.9580831964e+00 -5.1235503892e+00 2.9580831964e+00 5.1235503892e+00 
48100 6.7927313725e+00 -2.3776412336e-02 2.9584879485e+00 -5.1242514403e+00 2.9584879485e+00 5.1242514403e+00 
48200 6.7927095470e+00 -2.3608359459e-02 2.9588897914e+00 -5.1249474527e+00 2.9588897914e+00 5.1249474527e+00 
48300 6.7926881232e+00 -2.3441103556e-02 2.9592887399e+00 -5.1256384517e+00 2.9592887399e+00 5.1256384517e+00 
48400 6.7926670938e+00 -2.3274649062e-02 2.9596848085e+00 -5.1263244626e+00 2.9596848085e+00 5.1263244626e+00 
48500 6.7926464519e+00 -2.3109000390e-02 2.9600780119e+00 -5.1270055110e+00 2.9600780119e+00 5.1270055110e+00 
48600 6.7926261904e+00 -2.2944161916e-02 2.9604683649e+00 -5.1276816222e+00 2.9604683649e+00 5.1276816222e+00 
48700 6.7926063025e+00 -2.2780137969e-02 2.9608558824e+00 -5.1283528221e+00 2.9608558824e+00 5.1283528221e+00 
48800 6.7925867815e+00 -2.2616932814e-02 2.9612405791e+00 -5.1290191364e+00 2.9612405791e+00 5.1290191364e+00 
48900 6.7925676207e+00 -2.2454550646e-02 2.9616224700e+00 -5.1296805909e+00 2.9616224700e+00 5.1296805909e+00 
49000 6.7925488136e+00 -2.2292995571e-02 2.9620015702e+00 -5.1303372116e+00 2.9620015702e+00 5.1303372116e+00 
49100 6.7925303540e+00 -2.2132271605e-02 2.9623778945e+00 -5.1309890245e+00 2.9623778945e+00 5.1309890245e+00 
49200 6.7925122355e+00 -2.1972382656e-02 2.9627514582e+00 -5.1316360558e+00 2.9627514582e+00 5.1316360558e+00 
49300 6.7924944519e+00 -2.1813332518e-02 2.9631222764e+00 -5.1322783317e+00 2.9631222764e+00 5.1322783317e+00 
49400 6.7924769973e+00 -2.1655124862e-02 2.9634903642e+00 -5.1329158785e+00 2.9634903642e+00 5.1329158785e+00 
49500 6.7924598657e+00 -2.1497763228e-02 2.9638557369e+00 -5.1335487226e+00 2.9638557369e+00 5.1335487226e+00 
49600 6.7924430513e+00 -2.1341251015e-02 2.9642184098e+00 -5.1341768905e+00 2.9642184098e+00 5.1341768905e+00 
49700 6.7924265483e+00 -2.1185591478e-02 2.9645783981e+00 -5.1348004086e+00 2.9645783981e+00 5.1348004086e+00 
49800 6.7924103513e+00 -2.1030787716e-02 2.9649357174e+00 -5.1354193037e+00 2.9649357174e+00 5.1354193037e+00 
49900 6.7923944546e+00 -2.0876842672e-02 2.9652903828e+00 -5.1360336023e+00 2.9652903828e+00 5.1360336023e+00 
50000 6.7923788528e+00 -2.0723759124e-02 2.9656424100e+00 -5.1366433312e+00 2.9656424100e+00 5.1366433312e+00 
50100 6.7923635407e+00 -2.0571539677e-02 2.9659918143e+00 -5.1372485173e+00 2.9659918143e+00 5.1372485173e+00 
50200 6.7923485130e+00 -2.0420186767e-02 2.9663386113e+00 -5.1378491873e+00 2.9663386113e+00 5.1378491873e+00 
50300 6.7923337647e+00 -2.0269702649e-02 2.9666828165e+00 -5.1384453681e+00 2.9666828165e+00 5.1384453681e+00 
50400 6.7923192907e+00 -2.0120089397e-02 2.9670244454e+00 -5.1390370867e+00 2.9670244454e+00 5.1390370867e+00 
50500 6.7923050860e+00 -1.9971348902e-02 2.9673635136e+00 -5.1396243701e+00 2.9673635136e+00 5.1396243701e+00 
50600 6.7922911459e+00 -1.9823482866e-02 2.9677000367e+00 -5.1402072452e+00 2.9677000367e+00 5.1402072452e+00 
50700 6.7922774656e+00 -1.9676492803e-02 2.9680340302e+00 -5.1407857390e+00 2.9680340302e+00 5.1407857390e+00 
50800 6.7922640405e+00 -1.9530380037e-02 2.9683655099e+00 -5.1413598786e+00 2.9683655099e+00 5.1413598786e+00 
50900 6.7922508660e+00 -1.9385145700e-02 2.9686944913e+00 -5.1419296911e+00 2.9686944913e+00 5.1419296911e+00 
51000 6.7922379375e+00 -1.9240790730e-02 2.9690209901e+00 -5.1424952035e+00 2.9690209901e+00 5.1424952035e+00 
51100 6.7922252508e+00 -1.9097315872e-02 2.9693450218e+00 -5.1430564430e+00 2.9693450218e+00 5.1430564430e+00 
51200 6.7922128014e+00 -1.8954721680e-02 2.9696666022e+00 -5.1436134365e+00 2.9696666022e+00 5.1436134365e+00 
51300 6.7922005852e+00 -1.8813008512e-02 2.9699857468e+00 -5.1441662112e+00 2.9699857468e+00 5.1441662112e+00 
51400 6.7921885980e+00 -1.8672176538e-02 2.9703024712e+00 -5.1447147940e+00 2.9703024712e+00 5.1447147940e+00 
51500 6.7921768357e+00 -1.8532225732e-02 2.9706167912e+00 -5.1452592121e+00 2.9706167912e+00 5.1452592121e+00 
51600 6.7921652943e+00 -1.8393155881e-02 2.9709287222e+00 -5.1457994925e+00 2.9709287222e+00 5.1457994925e+00 
51700 6.7921539699e+00 -1.8254966584e-02 2.9712382798e+00 -5.1463356621e+00 2.9712382798e+00 5.1463356621e+00 
51800 6.7921428586e+00 -1.8117657253e-02 2.9715454797e+00 -5.1468677479e+00 2.9715454797e+00 5.1468677479e+00 
51900 6.7921319566e+00 -1.7981227116e-02 2.9718503374e+00 -5.1473957768e+00 2.9718503374e+00 5.1473957768e+00 
52000 6.7921212603e+00 -1.7845675219e-02 2.9721528683e+00 -5.1479197757e+00 2.9721528683e+00 5.1479197757e+00 
52100 6.7921107659e+00 -1.7711000430e-02 2.9724530880e+00 -5.1484397715e+00 2.9724530880e+00 5.1484397715e+00 
52200 6.7921004699e+00 -1.7577201440e-02 2.9727510119e+00 -5.1489557908e+00 2.9727510119e+00 5.1489557908e+00 
52300 6.7920903688e+00 -1.7444276770e-02 2.9730466554e+00 -5.1494678604e+00 2.9730466554e+00 5.1494678604e+00 
52400 6.7920804592e+00 -1.7312224766e-02 2.9733400340e+00 -5.1499760070e+00 2.9733400340e+00 5.1499760070e+00 
52500 6.7920707375e+00 -1.7181043615e-02 2.9736311629e+00 -5.1504802572e+00 2.9736311629e+00 5.1504802572e+00 
52600 6.7920612007e+00 -1.7050731336e-02 2.9739200576e+00 -5.1509806374e+00 2.9739200576e+00 5.1509806374e+00 
52700 6.7920518452e+00 -1.6921285794e-02 2.9742067331e+00 -5.1514771740e+00 2.9742067331e+00 5.1514771740e+00 
52800 6.7920426681e+00 -1.6792704697e-02 2.9744912049e+00 -5.1519698935e+00 2.9744912049e+00 5.1519698935e+00 
52900 6.7920336660e+00 -1.6664985603e-02 2.9747734880e+00 -5.1524588222e+00 2.9747734880e+00 5.1524588222e+00 
53000 6.7920248360e+00 -1.6538125928e-02 2.9750535975e+00 -5.1529439861e+00 2.9750535975e+00 5.1529439861e+00 
53100 6.7920161750e+00 -1.6412122941e-02 2.9753315485e+00 -5.1534254114e+00 2.9753315485e+00 5.1534254114e+00 
53200 6.7920076800e+00 -1.6286973778e-02 2.9756073560e+00 -5.1539031240e+00 2.9756073560e+00 5.1539031240e+00 
53300 6.7919993481e+00 -1.6162675442e-02 2.9758810350e+00 -5.1543771499e+00 2.9758810350e+00 5.1543771499e+00 
53400 6.7919911764e+00 -1.6039224808e-02 2.9761526003e+00 -5.1548475148e+00 2.9761526003e+00 5.1548475148e+00 
53500 6.7919831622e+00 -1.5916618628e-02 2.9764220668e+00 -5.1553142444e+00 2.9764220668e+00 5.1553142444e+00 
53600 6.7919753026e+00 -1.5794853537e-02 2.9766894492e+00 -5.1557773643e+00 2.9766894492e+00 5.1557773643e+00 
53700 6.7919675949e+00 -1.5673926054e-02 2.9769547622e+00 -5.1562368999e+00 2.9769547622e+00 5.1562368999e+00 
53800 6.7919600365e+00 -1.5553832592e-02 2.9772180204e+00 -5.1566928765e+00 2.9772180204e+00 5.1566928765e+00 
53900 6.7919526247e+00 -1.5434569460e-02 2.9774792384e+00 -5.1571453194e+00 2.9774792384e+00 5.1571453194e+00 
54000 6.7919453569e+00 -1.5316132867e-02 2.9777384307e+00 -5.1575942536e+00 2.9777384307e+00 5.1575942536e+00 
54100 6.7919382307e+00 -1.5198518930e-02 2.9779956117e+00 -5.1580397042e+00 2.9779956117e+00 5.1580397042e+00 
54200 6.7919312435e+00 -1.5081723675e-02 2.9782507957e+00 -5.1584816958e+00 2.9782507957e+00 5.1584816958e+00 
54300 6.7919243928e+00 -1.4965743045e-02 2.9785039969e+00 -5.1589202532e+00 2.9785039969e+00 5.1589202532e+00 
54400 6.7919176764e+00 -1.4850572903e-02 2.9787552297e+00 -5.1593554011e+00 2.9787552297e+00 5.1593554011e+00 
54500 6.7919110918e+00 -1.4736209037e-02 2.9790045079e+00 -5.1597871637e+00 2.9790045079e+00 5.1597871637e+00 
54600 6.7919046367e+00 -1.4622647167e-02 2.9792518458e+00 -5.1602155655e+00 2.9792518458e+00 5.1602155655e+00 
54700 6.7918983088e+00 -1.4509882946e-02 2.9794972572e+00 -5.1606406305e+00 2.9794972572e+00 5.1606406305e+00 
54800 6.7918921059e+00 -1.4397911966e-02 2.9797407560e+00 -5.1610623828e+00 2.9797407560e+00 5.1610623828e+00 
54900 6.7918860257e+00 -1.4286729766e-02 2.9799823560e+00 -5.1614808463e+00 2.9799823560e+00 5.1614808463e+00 
55000 6.7918800662e+00 -1.4176331830e-02 2.9802220709e+00 -5.1618960446e+00 2.9802220709e+00 5.1618960446e+00 
55100 6.7918742251e+00 -1.4066713596e-02 2.9804599142e+00 -5.1623080014e+00 2.9804599142e+00 5.1623080014e+00 
55200 6.7918685005e+00 -1.3957870461e-02 2.9806958996e+00 -5.1627167401e+00 2.9806958996e+00 5.1627167401e+00 
55300 6.7918628901e+00 -1.3849797782e-02 2.9809300405e+00 -5.1631222839e+00 2.9809300405e+00 5.1631222839e+00 
55400 6.7918573921e+00 -1.3742490882e-02 2.9811623501e+00 -5.1635246561e+00 2.9811623501e+00 5.1635246561e+00 
55500 6.7918520044e+00 -1.3635945053e-02 2.9813928419e+00 -5.1639238795e+00 2.9813928419e+00 5.1639238795e+00 
55600 6.7918467251e+00 -1.3530155564e-02 2.9816215290e+00 -5.1643199771e+00 2.9816215290e+00 5.1643199771e+00 
55700 6.7918415522e+00 -1.3425117658e-02 2.9818484244e+00 -5.1647129716e+00 2.9818484244e+00 5.1647129716e+00 
55800 6.7918364838e+00 -1.3320826561e-02 2.9820735413e+00 -5.1651028854e+00 2.9820735413e+00 5.1651028854e+00 
55900 6.7918315182e+00 -1.3217277486e-02 2.9822968925e+00 -5.1654897410e+00 2.9822968925e+00 5.1654897410e+00 
56000 6.7918266534e+00 -1.3114465632e-02 2.9825184908e+00 -5.1658735606e+00 2.9825184908e+00 5.1658735606e+00 
56100 6.7918218877e+00 -1.3012386191e-02 2.9827383491e+00 -5.1662543663e+00 2.9827383491e+00 5.1662543663e+00 
56200 6.7918172192e+00 -1.2911034353e-02 2.9829564799e+00 -5.1666321800e+00 2.9829564799e+00 5.1666321800e+00 
56300 6.7918126464e+00 -1.2810405304e-02 2.9831728959e+00 -5.1670070235e+00 2.9831728959e+00 5.1670070235e+00 
56400 6.7918081673e+00 -1.2710494233e-02 2.9833876096e+00 -5.1673789185e+00 2.9833876096e+00 5.1673789185e+00 
56500 6.7918037805e+00 -1.2611296335e-02 2.9836006333e+00 -5.1677478863e+00 2.9836006333e+00 5.1677478863e+00 
56600 6.7917994841e+00 -1.2512806812e-02 2.9838119793e+00 -5.1681139485e+00 2.9838119793e+00 5.1681139485e+00 
56700 6.7917952766e+00 -1.2415020876e-02 2.9840216600e+00 -5.1684771260e+00 2.9840216600e+00 5.1684771260e+00 
56800 6.7917911564e+00 -1.2317933755e-02 2.9842296874e+00 -5.1688374400e+00 2.9842296874e+00 5.1688374400e+00 
56900 6.7917871219e+00 -1.2221540690e-02 2.9844360736e+00 -5.1691949114e+00 2.9844360736e+00 5.1691949114e+00 
57000 6.7917831715e+00 -1.2125836941e-02 2.9846408305e+00 -5.1695495608e+00 2.9846408305e+00 5.1695495608e+00 
57100 6.7917793038e+00 -1.2030817790e-02 2.9848439701e+00 -5.1699014089e+00 2.9848439701e+00 5.1699014089e+00 
57200 6.7917755172e+00 -1.1936478542e-02 2.9850455042e+00 -5.1702504761e+00 2.9850455042e+00 5.1702504761e+00 
57300 6.7917718102e+00 -1.1842814523e-02 2.9852454444e+00 -5.1705967827e+00 2.9852454444e+00 5.1705967827e+00 
57400 6.7917681815e+00 -1.1749821092e-02 2.9854438024e+00 -5.1709403488e+00 2.9854438024e+00 5.1709403488e+00 
57500 6.7917646295e+00 -1.1657493630e-02 2.9856405897e+00 -5.1712811945e+00 2.9856405897e+00 5.1712811945e+00 
57600 6.7917611529e+00 -1.1565827554e-02 2.9858358178e+00 -5.1716193395e+00 2.9858358178e+00 5.1716193395e+00 
57700 6.7917577503e+00 -1.1474818310e-02 2.9860294981e+00 -5.1719548037e+00 2.9860294981e+00 5.1719548037e+00 
57800 6.7917544203e+00 -1.1384461377e-02 2.9862216419e+00 -5.1722876065e+00 2.9862216419e+00 5.1722876065e+00 
57900 6.7917511616e+00 -1.1294752271e-02 2.9864122604e+00 -5.1726177674e+00 2.9864122604e+00 5.1726177674e+00 
58000 6.7917479729e+00 -1.1205686542e-02 2.9866013648e+00 -5.1729453058e+00 2.9866013648e+00 5.1729453058e+00 
58100 6.7917448528e+00 -1.1117259778e-02 2.9867889661e+00 -5.1732702407e+00 2.9867889661e+00 5.1732702407e+00 
58200 6.7917418002e+00 -1.1029467606e-02 2.9869750752e+00 -5.1735925912e+00 2.9869750752e+00 5.1735925912e+00 
58300 6.7917388137e+00 -1.0942305692e-02 2.9871597032e+00 -5.1739123762e+00 2.9871597032e+00 5.1739123762e+00 
58400 6.7917358921e+00 -1.0855769741e-02 2.9873428607e+00 -5.1742296144e+00 2.9873428607e+00 5.1742296144e+00 
58500 6.7917330343e+00 -1.0769855500e-02 2.9875245586e+00 -5.1745443244e+00 2.9875245586e+00 5.1745443244e+00 
58600 6.7917302390e+00 -1.0684558756e-02 2.9877048076e+00 -5.1748565248e+00 2.9877048076e+00 5.1748565248e+00 
58700 6.7917275050e+00 -1.0599875340e-02 2.9878836182e+00 -5.1751662338e+00 2.9878836182e+00 5.1751662338e+00 
58800 6.7917248313e+00 -1.0515801125e-02 2.9880610009e+00 -5.1754734697e+00 2.9880610009e+00 5.1754734697e+00 
58900 6.7917222166e+00 -1.0432332025e-02 2.9882369663e+00 -5.1757782507e+00 2.9882369663e+00 5.1757782507e+00 
59000 6.7917196598e+00 -1.0349464001e-02 2.9884115246e+00 -5.1760805946e+00 2.9884115246e+00 5.1760805946e+00 
59100 6.7917171599e+00 -1.0267193053e-02 2.9885846863e+00 -5.1763805193e+00 2.9885846863e+00 5.1763805193e+00 
59200 6.7917147158e+00 -1.0185515228e-02 2.9887564614e+00 -5.1766780426e+00 2.9887564614e+00 5.1766780426e+00 
59300 6.7917123264e+00 -1.0104426615e-02 2.9889268602e+00 -5.1769731820e+00 2.9889268602e+00 5.1769731820e+00 
59400 6.7917099907e+00 -1.0023923347e-02 2.9890958928e+00 -5.1772659551e+00 2.9890958928e+00 5.1772659551e+00 
59500 6.7917077076e+00 -9.9440016008e-03 2.9892635692e+00 -5.1775563791e+00 2.9892635692e+00 5.1775563791e+00 
59600 6.7917054761e+00 -9.8646575961e-03 2.9894298994e+00 -5.1778444714e+00 2.9894298994e+00 5.1778444714e+00 
59700 6.7917032953e+00 -9.7858875960e-03 2.9895948932e+00 -5.1781302491e+00 2.9895948932e+00 5.1781302491e+00 
59800 6.7917011641e+00 -9.7076879064e-03 2.9897585605e+00 -5.1784137291e+00 2.9897585605e+00 5.1784137291e+00 
59900 6.7916990817e+00 -9.6300548759e-03 2.9899209110e+00 -5.1786949284e+00 2.9899209110e+00 5.1786949284e+00 
60000 6.7916970470e+00 -9.5529848951e-03 2.9900819544e+00 -5.1789738638e+00 2.9900819544e+00 5.1789738638e+00 
60100 6.7916950591e+00 -9.4764743962e-03 2.9902417003e+00 -5.1792505519e+00 2.9902417003e+00 5.1792505519e+00 
60200 6.7916931172e+00 -9.4005198527e-03 2.9904001584e+00 -5.1795250093e+00 2.9904001584e+00 5.1795250093e+00 
60300 6.7916912203e+00 -9.3251177788e-03 2.9905573381e+00 -5.1797972525e+00 2.9905573381e+00 5.1797972525e+00 
60400 6.7916893675e+00 -9.2502647287e-03 2.9907132488e+00 -5.1800672978e+00 2.9907132488e+00 5.1800672978e+00 
60500 6.7916875581e+00 -9.1759572959e-03 2.9908678999e+00 -5.1803351614e+00 2.9908678999e+00 5.1803351614e+00 
60600 6.7916857910e+00 -9.1021921128e-03 2.9910213008e+00 -5.1806008596e+00 2.9910213008e+00 5.1806008596e+00 
60700 6.7916840656e+00 -9.0289658496e-03 2.9911734607e+00 -5.1808644082e+00 2.9911734607e+00 5.1808644082e+00 
60800 6.7916823809e+00 -8.9562752140e-03 2.9913243888e+00 -5.1811258233e+00 2.9913243888e+00 5.1811258233e+00 
60900 6.7916807361e+00 -8.8841169502e-03 2.9914740942e+00 -5.1813851207e+00 2.9914740942e+00 5.1813851207e+00 
61000 6.7916791306e+00 -8.8124878378e-03 2.9916225861e+00 -5.1816423162e+00 2.9916225861e+00 5.1816423162e+00 
61100 6.7916775634e+00 -8.7413846916e-03 2.9917698734e+00 -5.1818974252e+00 2.9917698734e+00 5.1818974252e+00 
61200 6.7916760338e+00 -8.6708043602e-03 2.9919159651e+00 -5.1821504635e+00 2.9919159651e+00 5.1821504635e+00 
61300 6.7916745411e+00 -8.6007437255e-03 2.9920608701e+00 -5.1824014464e+00 2.9920608701e+00 5.1824014464e+00 
61400 6.7916730845e+00 -8.5311997015e-03 2.9922045974e+00 -5.1826503893e+00 2.9922045974e+00 5.1826503893e+00 
61500 6.7916716633e+00 -8.4621692336e-03 2.9923471556e+00 -5.1828973074e+00 2.9923471556e+00 5.1828973074e+00 
61600 6.7916702768e+00 -8.3936492975e-03 2.9924885536e+00 -5.1831422158e+00 2.9924885536e+00 5.1831422158e+00 
61700 6.7916689242e+00 -8.3256368987e-03 2.9926288000e+00 -5.1833851297e+00 2.9926288000e+00 5.1833851297e+00 
61800 6.7916676049e+00 -8.2581290709e-03 2.9927679034e+00 -5.1836260640e+00 2.9927679034e+00 5.1836260640e+00 
61900 6.7916663183e+00 -8.1911228754e-03 2.9929058726e+00 -5.1838650336e+00 2.9929058726e+00 5.1838650336e+00 
62000 6.7916650635e+00 -8.1246154005e-03 2.9930427159e+00 -5.1841020532e+00 2.9930427159e+00 5.1841020532e+00 
62100 6.7916638401e+00 -8.0586037597e-03 2.9931784420e+00 -5.1843371376e+00 2.9931784420e+00 5.1843371376e+00 
62200 6.7916626473e+00 -7.9930850916e-03 2.9933130591e+00 -5.1845703014e+00 2.9933130591e+00 5.1845703014e+00 
62300 6.7916614844e+00 -7.9280565583e-03 2.9934465758e+00 -5.1848015591e+00 2.9934465758e+00 5.1848015591e+00 
62400 6.7916603510e+00 -7.8635153450e-03 2.9935790003e+00 -5.1850309251e+00 2.9935790003e+00 5.1850309251e+00 
62500 6.7916592464e+00 -7.7994586584e-03 2.9937103410e+00 -5.1852584138e+00 2.9937103410e+00 5.1852584138e+00 
62600 6.7916581699e+00 -7.7358837265e-03 2.9938406060e+00 -5.1854840394e+00 2.9938406060e+00 5.1854840394e+00 
62700 6.7916571210e+00 -7.6727877970e-03 2.9939698036e+00 -5.1857078162e+00 2.9939698036e+00 5.1857078162e+00 
62800 6.7916560991e+00 -7.6101681369e-03 2.9940979419e+00 -5.1859297582e+00 2.9940979419e+00 5.1859297582e+00 
62900 6.7916551037e+00 -7.5480220312e-03 2.9942250289e+00 -5.1861498794e+00 2.9942250289e+00 5.1861498794e+00 
63000 6.7916541341e+00 -7.4863467821e-03 2.9943510728e+00 -5.1863681938e+00 2.9943510728e+00 5.1863681938e+00 
63100 6.7916531899e+00 -7.4251397084e-03 2.9944760815e+00 -5.1865847153e+00 2.9944760815e+00 5.1865847153e+00 
63200 6.7916522705e+00 -7.3643981442e-03 2.9946000630e+00 -5.1867994575e+00 2.9946000630e+00 5.1867994575e+00 
63300 6.7916513754e+00 -7.3041194383e-03 2.9947230251e+00 -5.1870124341e+00 2.9947230251e+00 5.1870124341e+00 
63400 6.7916505041e+00 -7.2443009532e-03 2.9948449758e+00 -5.1872236589e+00 2.9948449758e+00 5.1872236589e+00 
63500 6.7916496560e+00 -7.1849400647e-03 2.9949659228e+00 -5.1874331452e+00 2.9949659228e+00 5.1874331452e+00 
63600 6.7916488306e+00 -7.1260341603e-03 2.9950858739e+00 -5.1876409066e+00 2.9950858739e+00 5.1876409066e+00 
63700 6.7916480276e+00 -7.0675806392e-03 2.9952048368e+00 -5.1878469563e+00 2.9952048368e+00 5.1878469563e+00 
63800 6.7916472463e+00 -7.0095769112e-03 2.9953228191e+00 -5.1880513078e+00 2.9953228191e+00 5.1880513078e+00 
63900 6.7916464864e+00 -6.9520203960e-03 2.9954398286e+00 -5.1882539741e+00 2.9954398286e+00 5.1882539741e+00 
64000 6.7916457473e+00 -6.8949085225e-03 2.9955558727e+00 -5.1884549685e+00 2.9955558727e+00 5.1884549685e+00 
64100 6.7916450286e+00 -6.8382387278e-03 2.9956709591e+00 -5.1886543039e+00 2.9956709591e+00 5.1886543039e+00 
64200 6.7916443298e+00 -6.7820084573e-03 2.9957850952e+00 -5.1888519934e+00 2.9957850952e+00 5.1888519934e+00 
64300 6.7916436506e+00 -6.7262151632e-03 2.9958982884e+00 -5.1890480498e+00 2.9958982884e+00 5.1890480498e+00 
64400 6.7916429905e+00 -6.6708563044e-03 2.9960105462e+00 -5.1892424860e+00 2.9960105462e+00 5.1892424860e+00 
64500 6.7916423491e+00 -6.6159293456e-03 2.9961218758e+00 -5.1894353146e+00 2.9961218758e+00 5.1894353146e+00 
64600 6.7916417259e+00 -6.5614317572e-03 2.9962322847e+00 -5.1896265484e+00 2.9962322847e+00 5.1896265484e+00 
64700 6.7916411206e+00 -6.5073610142e-03 2.9963417801e+00 -5.1898162000e+00 2.9963417801e+00 5.1898162000e+00 
64800 6.7916405328e+00 -6.4537145958e-03 2.9964503692e+00 -5.1900042818e+00 2.9964503692e+00 5.1900042818e+00 
64900 6.7916399620e+00 -6.4004899854e-03 2.9965580592e+00 -5.1901908063e+00 2.9965580592e+00 5.1901908063e+00 
65000 6.7916394079e+00 -6.3476846695e-03 2.9966648572e+00 -5.1903757859e+00 2.9966648572e+00 5.1903757859e+00 
65100 6.7916388701e+00 -6.2952961376e-03 2.9967707703e+00 -5.1905592328e+00 2.9967707703e+00 5.1905592328e+00 
65200 6.7916383483e+00 -6.2433218817e-03 2.9968758056e+00 -5.1907411592e+00 2.9968758056e+00 5.1907411592e+00 
65300 6.7916378421e+00 -6.1917593958e-03 2.9969799700e+00 -5.1909215773e+00 2.9969799700e+00 5.1909215773e+00 
65400 6.7916373512e+00 -6.1406061760e-03 2.9970832706e+00 -5.1911004991e+00 2.9970832706e+00 5.1911004991e+00 
65500 6.7916368751e+00 -6.0898597194e-03 2.9971857142e+00 -5.1912779367e+00 2.9971857142e+00 5.1912779367e+00 
65600 6.7916364136e+00 -6.0395175246e-03 2.9972873077e+00 -5.1914539019e+00 2.9972873077e+00 5.1914539019e+00 
65700 6.7916359663e+00 -5.9895770909e-03 2.9973880580e+00 -5.1916284065e+00 2.9973880580e+00 5.1916284065e+00 
65800 6.7916355329e+00 -5.9400359180e-03 2.9974879719e+00 -5.1918014623e+00 2.9974879719e+00 5.1918014623e+00 
65900 6.7916351131e+00 -5.8908915063e-03 2.9975870560e+00 -5.1919730810e+00 2.9975870560e+00 5.1919730810e+00 
66000 6.7916347065e+00 -5.8421413560e-03 2.9976853171e+00 -5.1921432742e+00 2.9976853171e+00 5.1921432742e+00 
66100 6.7916343129e+00 -5.7937829675e-03 2.9977827618e+00 -5.1923120535e+00 2.9977827618e+00 5.1923120535e+00 
66200 6.7916339320e+00 -5.7458138410e-03 2.9978793968e+00 -5.1924794302e+00 2.9978793968e+00 5.1924794302e+00 
66300 6.7916335634e+00 -5.6982314763e-03 2.9979752286e+00 -5.1926454158e+00 2.9979752286e+00 5.1926454158e+00 
66400 6.7916332069e+00 -5.6510333727e-03 2.9980702638e+00 -5.1928100215e+00 2.9980702638e+00 5.1928100215e+00 
66500 6.7916328622e+00 -5.6042170292e-03 2.9981645088e+00 -5.1929732586e+00 2.9981645088e+00 5.1929732586e+00 
66600 6.7916325290e+00 -5.5577799440e-03 2.9982579701e+00 -5.1931351383e+00 2.9982579701e+00 5.1931351383e+00 
66700 6.7916322071e+00 -5.5117196148e-03 2.9983506540e+00 -5.1932956717e+00 2.9983506540e+00 5.1932956717e+00 
66800 6.7916318961e+00 -5.4660335387e-03 2.9984425670e+00 -5.1934548696e+00 2.9984425670e+00 5.1934548696e+00 
66900 6.7916315959e+00 -5.4207192121e-03 2.9985337154e+00 -5.1936127432e+00 2.9985337154e+00 5.1936127432e+00 
67000 6.7916313061e+00 -5.3757741308e-03 2.9986241053e+00 -5.1937693032e+00 2.9986241053e+00 5.1937693032e+00 
67100 6.7916310265e+00 -5.3311957900e-03 2.9987137431e+00 -5.1939245604e+00 2.9987137431e+00 5.1939245604e+00 
67200 6.7916307568e+00 -5.2869816844e-03 2.9988026349e+00 -5.1940785255e+00 2.9988026349e+00 5.1940785255e+00 
67300 6.7916304969e+00 -5.2431293085e-03 2.9988907869e+00 -5.1942312092e+00 2.9988907869e+00 5.1942312092e+00 
67400 6.7916302465e+00 -5.1996361561e-03 2.9989782051e+00 -5.1943826221e+00 2.9989782051e+00 5.1943826221e+00 
67500 6.7916300053e+00 -5.1564997212e-03 2.9990648957e+00 -5.1945327745e+00 2.9990648957e+00 5.1945327745e+00 
67600 6.7916297732e+00 -5.1137174974e-03 2.9991508645e+00 -5.1946816769e+00 2.9991508645e+00 5.1946816769e+00 
67700 6.7916295499e+00 -5.0712869786e-03 2.9992361177e+00 -5.1948293398e+00 2.9992361177e+00 5.1948293398e+00 
67800 6.7916293351e+00 -5.0292056588e-03 2.9993206611e+00 -5.1949757732e+00 2.9993206611e+00 5.1949757732e+00 
67900 6.7916291288e+00 -4.9874710327e-03 2.9994045005e+00 -5.1951209874e+00 2.9994045005e+00 5.1951209874e+00 
68000 6.7916289306e+00 -4.9460805953e-03 2.9994876419e+00 -5.1952649925e+00 2.9994876419e+00 5.1952649925e+00 
68100 6.7916287404e+00 -4.9050318427e-03 2.9995700911e+00 -5.1954077986e+00 2.9995700911e+00 5.1954077986e+00 
68200 6.7916285579e+00 -4.8643222720e-03 2.9996518537e+00 -5.1955494156e+00 2.9996518537e+00 5.1955494156e+00 
68300 6.7916283830e+00 -4.8239493817e-03 2.9997329355e+00 -5.1956898534e+00 2.9997329355e+00 5.1956898534e+00 
68400 6.7916282155e+00 -4.7839106715e-03 2.9998133422e+00 -5.1958291219e+00 2.9998133422e+00 5.1958291219e+00 
68500 6.7916280552e+00 -4.7442036435e-03 2.9998930793e+00 -5.1959672307e+00 2.9998930793e+00 5.1959672307e+00 
68600 6.7916279019e+00 -4.7048258013e-03 2.9999721526e+00 -5.1961041895e+00 2.9999721526e+00 5.1961041895e+00 
68700 6.7916277555e+00 -4.6657746514e-03 3.0000505674e+00 -5.1962400080e+00 3.0000505674e+00 5.1962400080e+00 
68800 6.7916276157e+00 -4.6270477025e-03 3.0001283293e+00 -5.1963746956e+00 3.0001283293e+00 5.1963746956e+00 
68900 6.7916274823e+00 -4.5886424667e-03 3.0002054438e+00 -5.1965082619e+00 3.0002054438e+00 5.1965082619e+00 
69000 6.7916273553e+00 -4.5505564589e-03 3.0002819163e+00 -5.1966407161e+00 3.0002819163e+00 5.1966407161e+00 
69100 6.7916272345e+00 -4.5127871980e-03 3.0003577521e+00 -5.1967720675e+00 3.0003577521e+00 5.1967720675e+00 
69200 6.7916271196e+00 -4.4753322065e-03 3.0004329566e+00 -5.1969023255e+00 3.0004329566e+00 5.1969023255e+00 
69300 6.7916270106e+00 -4.4381890113e-03 3.0005075350e+00 -5.1970314991e+00 3.0005075350e+00 5.1970314991e+00 
69400 6.7916269073e+00 -4.4013551437e-03 3.0005814926e+00 -5.1971595974e+00 3.0005814926e+00 5.1971595974e+00 
69500 6.7916268095e+00 -4.3648281401e-03 3.0006548346e+00 -5.1972866295e+00 3.0006548346e+00 5.1972866295e+00 
69600 6.7916267171e+00 -4.3286055419e-03 3.0007275661e+00 -5.1974126042e+00 3.0007275661e+00 5.1974126042e+00 
69700 6.7916266299e+00 -4.2926848962e-03 3.0007996924e+00 -5.1975375305e+00 3.0007996924e+00 5.1975375305e+00 
69800 6.7916265478e+00 -4.2570637560e-03 3.0008712183e+00 -5.1976614171e+00 3.0008712183e+00 5.1976614171e+00 
69900 6.7916264706e+00 -4.2217396806e-03 3.0009421491e+00 -5.1977842728e+00 3.0009421491e+00 5.1977842728e+00 
70000 6.7916263983e+00 -4.1867102358e-03 3.0010124896e+00 -5.1979061061e+00 3.0010124896e+00 5.1979061061e+00 
70100 6.7916263307e+00 -4.1519729944e-03 3.0010822448e+00 -5.1980269257e+00 3.0010822448e+00 5.1980269257e+00 
70200 6.7916262677e+00 -4.1175255365e-03 3.0011514197e+00 -5.1981467401e+00 3.0011514197e+00 5.1981467401e+00 
70300 6.7916262091e+00 -4.0833654500e-03 3.0012200190e+00 -5.1982655577e+00 3.0012200190e+00 5.1982655577e+00 
70400 6.7916261548e+00 -4.0494903306e-03 3.0012880477e+00 -5.1983833868e+00 3.0012880477e+00 5.1983833868e+00 
70500 6.7916261047e+00 -4.0158977826e-03 3.0013555105e+00 -5.1985002358e+00 3.0013555105e+00 5.1985002358e+00 
70600 6.7916260586e+00 -3.9825854188e-03 3.0014224122e+00 -5.1986161128e+00 3.0014224122e+00 5.1986161128e+00 
70700 6.7916260166e+00 -3.9495508611e-03 3.0014887574e+00 -5.1987310261e+00 3.0014887574e+00 5.1987310261e+00 
70800 6.7916259783e+00 -3.9167917410e-03 3.0015545508e+00 -5.1988449837e+00 3.0015545508e+00 5.1988449837e+00 
70900 6.7916259439e+00 -3.8843056994e-03 3.0016197971e+00 -5.1989579936e+00 3.0016197971e+00 5.1989579936e+00 
71000 6.7916259130e+00 -3.8520903875e-03 3.0016845008e+00 -5.1990700637e+00 3.0016845008e+00 5.1990700637e+00 
71100 6.7916258857e+00 -3.8201434669e-03 3.0017486665e+00 -5.1991812020e+00 3.0017486665e+00 5.1991812020e+00 
71200 6.7916258617e+00 -3.7884626099e-03 3.0018122987e+00 -5.1992914162e+00 3.0018122987e+00 5.1992914162e+00 
71300 6.7916258412e+00 -3.7570454998e-03 3.0018754019e+00 -5.1994007140e+00 3.0018754019e+00 5.1994007140e+00 
71400 6.7916258238e+00 -3.7258898316e-03 3.0019379804e+00 -5.1995091032e+00 3.0019379804e+00 5.1995091032e+00 
71500 6.7916258095e+00 -3.6949933115e-03 3.0020000387e+00 -5.1996165913e+00 3.0020000387e+00 5.1996165913e+00 
71600 6.7916257983e+00 -3.6643536581e-03 3.0020615811e+00 -5.1997231859e+00 3.0020615811e+00 5.1997231859e+00 
71700 6.7916257900e+00 -3.6339686021e-03 3.0021226119e+00 -5.1998288944e+00 3.0021226119e+00 5.1998288944e+00 
71800 6.7916257846e+00 -3.6038358870e-03 3.0021831354e+00 -5.1999337242e+00 3.0021831354e+00 5.1999337242e+00 
71900 6.7916257819e+00 -3.5739532691e-03 3.0022431559e+00 -5.2000376827e+00 3.0022431559e+00 5.2000376827e+00 
72000 6.7916257820e+00 -3.5443185178e-03 3.0023026775e+00 -5.2001407771e+00 3.0023026775e+00 5.2001407771e+00 
72100 6.7916257846e+00 -3.5149294162e-03 3.0023617043e+00 -5.2002430146e+00 3.0023617043e+00 5.2002430146e+00 
72200 6.7916257897e+00 -3.4857837609e-03 3.0024202406e+00 -5.2003444024e+00 3.0024202406e+00 5.2003444024e+00 
72300 6.7916257972e+00 -3.4568793626e-03 3.0024782904e+00 -5.2004449475e+00 3.0024782904e+00 5.2004449475e+00 
72400 6.7916258072e+00 -3.4282140463e-03 3.0025358576e+00 -5.2005446570e+00 3.0025358576e+00 5.2005446570e+00 
72500 6.7916258193e+00 -3.3997856513e-03 3.0025929465e+00 -5.2006435377e+00 3.0025929465e+00 5.2006435377e+00 
72600 6.7916258337e+00 -3.3715920319e-03 3.0026495608e+00 -5.2007415966e+00 3.0026495608e+00 5.2007415966e+00 
72700 6.7916258503e+00 -3.3436310573e-03 3.0027057046e+00 -5.2008388405e+00 3.0027057046e+00 5.2008388405e+00 
72800 6.7916258689e+00 -3.3159006117e-03 3.0027613817e+00 -5.2009352762e+00 3.0027613817e+00 5.2009352762e+00 
72900 6.7916258894e+00 -3.2883985950e-03 3.0028165961e+00 -5.2010309102e+00 3.0028165961e+00 5.2010309102e+00 
73000 6.7916259119e+00 -3.2611229225e-03 3.0028713515e+00 -5.2011257494e+00 3.0028713515e+00 5.2011257494e+00 
73100 6.7916259363e+00 -3.2340715253e-03 3.0029256517e+00 -5.2012198002e+00 3.0029256517e+00 5.2012198002e+00 
73200 6.7916259625e+00 -3.2072423507e-03 3.0029795006e+00 -5.2013130691e+00 3.0029795006e+00 5.2013130691e+00 
73300 6.7916259904e+00 -3.1806333621e-03 3.0030329017e+00 -5.2014055626e+00 3.0030329017e+00 5.2014055626e+00 
73400 6.7916260199e+00 -3.1542425390e-03 3.0030858589e+00 -5.2014972871e+00 3.0030858589e+00 5.2014972871e+00 
73500 6.7916260511e+00 -3.1280678777e-03 3.0031383757e+00 -5.2015882490e+00 3.0031383757e+00 5.2015882490e+00 
73600 6.7916260839e+00 -3.1021073911e-03 3.0031904559e+00 -5.2016784544e+00 3.0031904559e+00 5.2016784544e+00 
73700 6.7916261181e+00 -3.0763591088e-03 3.0032421029e+00 -5.2017679096e+00 3.0032421029e+00 5.2017679096e+00 
73800 6.7916261538e+00 -3.0508210774e-03 3.0032933203e+00 -5.2018566209e+00 3.0032933203e+00 5.2018566209e+00 
73900 6.7916261909e+00 -3.0254913606e-03 3.0033441117e+00 -5.2019445942e+00 3.0033441117e+00 5.2019445942e+00 
74000 6.7916262293e+00 -3.0003680393e-03 3.0033944806e+00 -5.2020318356e+00 3.0033944806e+00 5.2020318356e+00 
74100 6.7916262690e+00 -2.9754492115e-03 3.0034444303e+00 -5.2021183511e+00 3.0034444303e+00 5.2021183511e+00 
74200 6.7916263099e+00 -2.9507329927e-03 3.0034939644e+00 -5.2022041466e+00 3.0034939644e+00 5.2022041466e+00 
74300 6.7916263521e+00 -2.9262175160e-03 3.0035430862e+00 -5.2022892281e+00 3.0035430862e+00 5.2022892281e+00 
74400 6.7916263953e+00 -2.9019009318e-03 3.0035917991e+00 -5.2023736013e+00 3.0035917991e+00 5.2023736013e+00 
74500 6.7916264397e+00 -2.8777814083e-03 3.0036401064e+00 -5.2024572720e+00 3.0036401064e+00 5.2024572720e+00 
74600 6.7916264851e+00 -2.8538571312e-03 3.0036880115e+00 -5.2025402459e+00 3.0036880115e+00 5.2025402459e+00 
74700 6.7916265315e+00 -2.8301263041e-03 3.0037355175e+00 -5.2026225288e+00 3.0037355175e+00 5.2026225288e+00 
74800 6.7916265789e+00 -2.8065871484e-03 3.0037826277e+00 -5.2027041261e+00 3.0037826277e+00 5.2027041261e+00 
74900 6.7916266272e+00 -2.7832379031e-03 3.0038293454e+00 -5.2027850435e+00 3.0038293454e+00 5.2027850435e+00 
75000 6.7916266764e+00 -2.7600768253e-03 3.0038756737e+00 -5.2028652864e+00 3.0038756737e+00 5.2028652864e+00 
75100 6.7916267264e+00 -2.7371021896e-03 3.0039216157e+00 -5.2029448604e+00 3.0039216157e+00 5.2029448604e+00 
75200 6.7916267773e+00 -2.7143122889e-03 3.0039671746e+00 -5.2030237707e+00 3.0039671746e+00 5.2030237707e+00 
75300 6.7916268289e+00 -2.6917054337e-03 3.0040123535e+00 -5.2031020229e+00 3.0040123535e+00 5.2031020229e+00 
75400 6.7916268812e+00 -2.6692799523e-03 3.0040571555e+00 -5.2031796222e+00 3.0040571555e+00 5.2031796222e+00 
75500 6.7916269342e+00 -2.6470341911e-03 3.0041015835e+00 -5.2032565738e+00 3.0041015835e+00 5.2032565738e+00 
75600 6.7916269879e+00 -2.6249665140e-03 3.0041456406e+00 -5.2033328829e+00 3.0041456406e+00 5.2033328829e+00 
75700 6.7916270422e+00 -2.6030753030e-03 3.0041893298e+00 -5.2034085548e+00 3.0041893298e+00 5.2034085548e+00 
75800 6.7916270972e+00 -2.5813589577e-03 3.0042326540e+00 -5.2034835945e+00 3.0042326540e+00 5.2034835945e+00 
75900 6.7916271526e+00 -2.5598158954e-03 3.0042756161e+00 -5.2035580071e+00 3.0042756161e+00 5.2035580071e+00 
76000 6.7916272086e+00 -2.5384445511e-03 3.0043182191e+00 -5.2036317976e+00 3.0043182191e+00 5.2036317976e+00 
76100 6.7916272651e+00 -2.5172433774e-03 3.0043604658e+00 -5.2037049710e+00 3.0043604658e+00 5.2037049710e+00 
76200 6.7916273221e+00 -2.4962108444e-03 3.0044023591e+00 -5.2037775323e+00 3.0044023591e+00 5.2037775323e+00 
76300 6.7916273795e+00 -2.4753454398e-03 3.0044439017e+00 -5.2038494863e+00 3.0044439017e+00 5.2038494863e+00 
76400 6.7916274374e+00 -2.4546456683e-03 3.0044850966e+00 -5.2039208378e+00 3.0044850966e+00 5.2039208378e+00 
76500 6.7916274956e+00 -2.4341100525e-03 3.0045259463e+00 -5.2039915917e+00 3.0045259463e+00 5.2039915917e+00 
76600 6.7916275542e+00 -2.4137371316e-03 3.0045664538e+00 -5.2040617527e+00 3.0045664538e+00 5.2040617527e+00 
76700 6.7916276131e+00 -2.3935254622e-03 3.0046066217e+00 -5.2041313256e+00 3.0046066217e+00 5.2041313256e+00 
76800 6.7916276723e+00 -2.3734736180e-03 3.0046464527e+00 -5.2042003149e+00 3.0046464527e+00 5.2042003149e+00 
76900 6.7916277319e+00 -2.3535801894e-03 3.0046859495e+00 -5.2042687254e+00 3.0046859495e+00 5.2042687254e+00 
77000 6.7916277917e+00 -2.3338437836e-03 3.0047251148e+00 -5.2043365616e+00 3.0047251148e+00 5.2043365616e+00 
77100 6.7916278517e+00 -2.3142630246e-03 3.0047639511e+00 -5.2044038281e+00 3.0047639511e+00 5.2044038281e+00 
77200 6.7916279120e+00 -2.2948365527e-03 3.0048024611e+00 -5.2044705293e+00 3.0048024611e+00 5.2044705293e+00 
77300 6.7916279725e+00 -2.2755630248e-03 3.0048406473e+00 -5.2045366698e+00 3.0048406473e+00 5.2045366698e+00 
77400 6.7916280331e+00 -2.2564411141e-03 3.0048785123e+00 -5.2046022539e+00 3.0048785123e+00 5.2046022539e+00 
77500 6.7916280939e+00 -2.2374695097e-03 3.0049160587e+00 -5.2046672862e+00 3.0049160587e+00 5.2046672862e+00 
77600 6.7916281549e+00 -2.2186469169e-03 3.0049532889e+00 -5.2047317708e+00 3.0049532889e+00 5.2047317708e+00 
77700 6.7916282159e+00 -2.1999720568e-03 3.0049902055e+00 -5.2047957122e+00 3.0049902055e+00 5.2047957122e+00 
77800 6.7916282771e+00 -2.1814436661e-03 3.0050268109e+00 -5.2048591146e+00 3.0050268109e+00 5.2048591146e+00 
77900 6.7916283384e+00 -2.1630604970e-03 3.0050631075e+00 -5.2049219822e+00 3.0050631075e+00 5.2049219822e+00 
78000 6.7916283997e+00 -2.1448213173e-03 3.0050990979e+00 -5.2049843193e+00 3.0050990979e+00 5.2049843193e+00 
78100 6.7916284611e+00 -2.1267249099e-03 3.0051347843e+00 -5.2050461300e+00 3.0051347843e+00 5.2050461300e+00 
78200 6.7916285225e+00 -2.1087700726e-03 3.0051701692e+00 -5.2051074185e+00 3.0051701692e+00 5.2051074185e+00 
78300 6.7916285839e+00 -2.0909556183e-03 3.0052052550e+00 -5.2051681888e+00 3.0052052550e+00 5.2051681888e+00 
78400 6.7916286454e+00 -2.0732803744e-03 3.0052400440e+00 -5.2052284451e+00 3.0052400440e+00 5.2052284451e+00 
78500 6.7916287068e+00 -2.0557431831e-03 3.0052745385e+00 -5.2052881913e+00 3.0052745385e+00 5.2052881913e+00 
78600 6.7916287682e+00 -2.0383429007e-03 3.0053087408e+00 -5.2053474315e+00 3.0053087408e+00 5.2053474315e+00 
78700 6.7916288296e+00 -2.0210783978e-03 3.0053426532e+00 -5.2054061695e+00 3.0053426532e+00 5.2054061695e+00 
78800 6.7916288909e+00 -2.0039485591e-03 3.0053762780e+00 -5.2054644094e+00 3.0053762780e+00 5.2054644094e+00 
78900 6.7916289522e+00 -1.9869522829e-03 3.0054096175e+00 -5.2055221551e+00 3.0054096175e+00 5.2055221551e+00 
79000 6.7916290133e+00 -1.9700884813e-03 3.0054426738e+00 -5.2055794103e+00 3.0054426738e+00 5.2055794103e+00 
79100 6.7916290744e+00 -1.9533560798e-03 3.0054754492e+00 -5.2056361790e+00 3.0054754492e+00 5.2056361790e+00 
79200 6.7916291354e+00 -1.9367540172e-03 3.0055079459e+00 -5.2056924649e+00 3.0055079459e+00 5.2056924649e+00 
79300 6.7916291963e+00 -1.9202812454e-03 3.0055401660e+00 -5.2057482718e+00 3.0055401660e+00 5.2057482718e+00 
79400 6.7916292571e+00 -1.9039367290e-03 3.0055721118e+00 -5.2058036034e+00 3.0055721118e+00 5.2058036034e+00 
79500 6.7916293177e+00 -1.8877194456e-03 3.0056037853e+00 -5.2058584636e+00 3.0056037853e+00 5.2058584636e+00 
79600 6.7916293782e+00 -1.8716283850e-03 3.0056351887e+00 -5.2059128558e+00 3.0056351887e+00 5.2059128558e+00 
79700 6.7916294386e+00 -1.8556625496e-03 3.0056663241e+00 -5.2059667839e+00 3.0056663241e+00 5.2059667839e+00 
79800 6.7916294988e+00 -1.8398209537e-03 3.0056971935e+00 -5.2060202513e+00 3.0056971935e+00 5.2060202513e+00 
79900 6.7916295588e+00 -1.8241026238e-03 3.0057277991e+00 -5.2060732618e+00 3.0057277991e+00 5.2060732618e+00 
80000 6.7916296186e+00 -1.8085065978e-03 3.0057581430e+00 -5.2061258189e+00 3.0057581430e+00 5.2061258189e+00 
80100 6.7916296783e+00 -1.7930319254e-03 3.0057882270e+00 -5.2061779260e+00 3.0057882270e+00 5.2061779260e+00 
80200 6.7916297377e+00 -1.7776776677e-03 3.0058180534e+00 -5.2062295868e+00 3.0058180534e+00 5.2062295868e+00 
80300 6.7916297970e+00 -1.7624428968e-03 3.0058476241e+00 -5.2062808047e+00 3.0058476241e+00 5.2062808047e+00 
80400 6.7916298560e+00 -1.7473266958e-03 3.0058769410e+00 -5.2063315831e+00 3.0058769410e+00 5.2063315831e+00 
80500 6.7916299148e+00 -1.7323281588e-03 3.0059060062e+00 -5.2063819256e+00 3.0059060062e+00 5.2063819256e+00 
80600 6.7916299734e+00 -1.7174463902e-03 3.0059348217e+00 -5.2064318354e+00 3.0059348217e+00 5.2064318354e+00 
80700 6.7916300318e+00 -1.7026805050e-03 3.0059633893e+00 -5.2064813160e+00 3.0059633893e+00 5.2064813160e+00 
80800 6.7916300900e+00 -1.6880296284e-03 3.0059917111e+00 -5.2065303707e+00 3.0059917111e+00 5.2065303707e+00 
80900 6.7916301479e+00 -1.6734928957e-03 3.0060197889e+00 -5.2065790029e+00 3.0060197889e+00 5.2065790029e+00 
81000 6.7916302055e+00 -1.6590694520e-03 3.0060476246e+00 -5.2066272158e+00 3.0060476246e+00 5.2066272158e+00 
81100 6.7916302629e+00 -1.6447584519e-03 3.0060752202e+00 -5.2066750127e+00 3.0060752202e+00 5.2066750127e+00 
81200 6.7916303200e+00 -1.6305590597e-03 3.0061025775e+00 -5.2067223969e+00 3.0061025775e+00 5.2067223969e+00 
81300 6.7916303769e+00 -1.6164704490e-03 3.0061296983e+00 -5.2067693716e+00 3.0061296983e+00 5.2067693716e+00 
81400 6.7916304335e+00 -1.6024918025e-03 3.0061565846e+00 -5.2068159400e+00 3.0061565846e+00 5.2068159400e+00 
81500 6.7916304898e+00 -1.5886223117e-03 3.0061832381e+00 -5.2068621053e+00 3.0061832381e+00 5.2068621053e+00 
81600 6.7916305458e+00 -1.5748611770e-03 3.0062096608e+00 -5.2069078706e+00 3.0062096608e+00 5.2069078706e+00 
81700 6.7916306016e+00 -1.5612076075e-03 3.0062358543e+00 -5.2069532391e+00 3.0062358543e+00 5.2069532391e+00 
81800 6.7916306571e+00 -1.5476608206e-03 3.0062618205e+00 -5.2069982139e+00 3.0062618205e+00 5.2069982139e+00 
81900 6.7916307123e+00 -1.5342200419e-03 3.0062875611e+00 -5.2070427980e+00 3.0062875611e+00 5.2070427980e+00 
82000 6.7916307672e+00 -1.5208845051e-03 3.0063130780e+00 -5.2070869946e+00 3.0063130780e+00 5.2070869946e+00 
82100 6.7916308218e+00 -1.5076534519e-03 3.0063383729e+00 -5.2071308066e+00 3.0063383729e+00 5.2071308066e+00 
82200 6.7916308760e+00 -1.4945261317e-03 3.0063634475e+00 -5.2071742371e+00 3.0063634475e+00 5.2071742371e+00 
82300 6.7916309300e+00 -1.4815018015e-03 3.0063883036e+00 -5.2072172891e+00 3.0063883036e+00 5.2072172891e+00 
82400 6.7916309837e+00 -1.4685797258e-03 3.0064129428e+00 -5.2072599655e+00 3.0064129428e+00 5.2072599655e+00 
82500 6.7916310371e+00 -1.4557591762e-03 3.0064373670e+00 -5.2073022694e+00 3.0064373670e+00 5.2073022694e+00 
82600 6.7916310901e+00 -1.4430394315e-03 3.0064615777e+00 -5.2073442036e+00 3.0064615777e+00 5.2073442036e+00 
82700 6.7916311429e+00 -1.4304197775e-03 3.0064855767e+00 -5.2073857711e+00 3.0064855767e+00 5.2073857711e+00 
82800 6.7916311953e+00 -1.4178995068e-03 3.0065093657e+00 -5.2074269748e+00 3.0065093657e+00 5.2074269748e+00 
82900 6.7916312474e+00 -1.4054779185e-03 3.0065329462e+00 -5.2074678174e+00 3.0065329462e+00 5.2074678174e+00 
83000 6.7916312992e+00 -1.3931543186e-03 3.0065563199e+00 -5.2075083020e+00 3.0065563199e+00 5.2075083020e+00 
83100 6.7916313507e+00 -1.3809280190e-03 3.0065794886e+00 -5.2075484312e+00 3.0065794886e+00 5.2075484312e+00 
83200 6.7916314018e+00 -1.3687983381e-03 3.0066024537e+00 -5.2075882080e+00 3.0066024537e+00 5.2075882080e+00 
83300 6.7916314526e+00 -1.3567646004e-03 3.0066252169e+00 -5.2076276351e+00 3.0066252169e+00 5.2076276351e+00 
83400 6.7916315031e+00 -1.3448261362e-03 3.0066477799e+00 -5.2076667152e+00 3.0066477799e+00 5.2076667152e+00 
83500 6.7916315533e+00 -1.3329822819e-03 3.0066701441e+00 -5.2077054512e+00 3.0066701441e+00 5.2077054512e+00 
83600 6.7916316031e+00 -1.3212323792e-03 3.0066923112e+00 -5.2077438458e+00 3.0066923112e+00 5.2077438458e+00 
83700 6.7916316526e+00 -1.3095757757e-03 3.0067142828e+00 -5.2077819016e+00 3.0067142828e+00 5.2077819016e+00 
83800 6.7916317018e+00 -1.2980118243e-03 3.0067360603e+00 -5.2078196215e+00 3.0067360603e+00 5.2078196215e+00 
83900 6.7916317506e+00 -1.2865398833e-03 3.0067576454e+00 -5.2078570079e+00 3.0067576454e+00 5.2078570079e+00 
84000 6.7916317991e+00 -1.2751593160e-03 3.0067790396e+00 -5.2078940637e+00 3.0067790396e+00 5.2078940637e+00 
84100 6.7916318472e+00 -1.2638694910e-03 3.0068002444e+00 -5.2079307914e+00 3.0068002444e+00 5.2079307914e+00 
84200 6.7916318951e+00 -1.2526697818e-03 3.0068212612e+00 -5.2079671937e+00 3.0068212612e+00 5.2079671937e+00 
84300 6.7916319426e+00 -1.2415595667e-03 3.0068420917e+00 -5.2080032732e+00 3.0068420917e+00 5.2080032732e+00 
84400 6.7916319897e+00 -1.2305382287e-03 3.0068627373e+00 -5.2080390324e+00 3.0068627373e+00 5.2080390324e+00 
84500 6.7916320365e+00 -1.2196051557e-03 3.0068831995e+00 -5.2080744740e+00 3.0068831995e+00 5.2080744740e+00 
84600 6.7916320830e+00 -1.2087597399e-03 3.0069034798e+00 -5.2081096004e+00 3.0069034798e+00 5.2081096004e+00 
84700 6.7916321292e+00 -1.1980013779e-03 3.0069235795e+00 -5.2081444142e+00 3.0069235795e+00 5.2081444142e+00 
84800 6.7916321750e+00 -1.1873294709e-03 3.0069435003e+00 -5.2081789179e+00 3.0069435003e+00 5.2081789179e+00 
84900 6.7916322205e+00 -1.1767434241e-03 3.0069632434e+00 -5.2082131141e+00 3.0069632434e+00 5.2082131141e+00 
85000 6.7916322656e+00 -1.1662426468e-03 3.0069828104e+00 -5.2082470051e+00 3.0069828104e+00 5.2082470051e+00 
85100 6.7916323104e+00 -1.1558265528e-03 3.0070022027e+00 -5.2082805935e+00 3.0070022027e+00 5.2082805935e+00 
85200 6.7916323549e+00 -1.1454945592e-03 3.0070214216e+00 -5.2083138817e+00 3.0070214216e+00 5.2083138817e+00 
85300 6.7916323990e+00 -1.1352460877e-03 3.0070404686e+00 -5.2083468721e+00 3.0070404686e+00 5.2083468721e+00 
85400 6.7916324428e+00 -1.1250805632e-03 3.0070593451e+00 -5.2083795671e+00 3.0070593451e+00 5.2083795671e+00 
85500 6.7916324863e+00 -1.1149974147e-03 3.0070780525e+00 -5.2084119692e+00 3.0070780525e+00 5.2084119692e+00 
85600 6.7916325294e+00 -1.1049960747e-03 3.0070965920e+00 -5.2084440806e+00 3.0070965920e+00 5.2084440806e+00 
85700 6.7916325722e+00 -1.0950759793e-03 3.0071149652e+00 -5.2084759039e+00 3.0071149652e+00 5.2084759039e+00 
85800 6.7916326147e+00 -1.0852365681e-03 3.0071331733e+00 -5.2085074412e+00 3.0071331733e+00 5.2085074412e+00 
85900 6.7916326568e+00 -1.0754772842e-03 3.0071512177e+00 -5.2085386950e+00 3.0071512177e+00 5.2085386950e+00 
86000 6.7916326986e+00 -1.0657975739e-03 3.0071690997e+00 -5.2085696676e+00 3.0071690997e+00 5.2085696676e+00 
86100 6.7916327401e+00 -1.0561968870e-03 3.0071868206e+00 -5.2086003612e+00 3.0071868206e+00 5.2086003612e+00 
86200 6.7916327813e+00 -1.0466746763e-03 3.0072043819e+00 -5.2086307781e+00 3.0072043819e+00 5.2086307781e+00 
86300 6.7916328221e+00 -1.0372303980e-03 3.0072217847e+00 -5.2086609207e+00 3.0072217847e+00 5.2086609207e+00 
86400 6.7916328626e+00 -1.0278635114e-03 3.0072390304e+00 -5.2086907911e+00 3.0072390304e+00 5.2086907911e+00 
86500 6.7916329027e+00 -1.0185734786e-03 3.0072561202e+00 -5.2087203915e+00 3.0072561202e+00 5.2087203915e+00 
86600 6.7916329426e+00 -1.0093597651e-03 3.0072730555e+00 -5.2087497243e+00 3.0072730555e+00 5.2087497243e+00 
86700 6.7916329821e+00 -1.0002218390e-03 3.0072898375e+00 -5.2087787916e+00 3.0072898375e+00 5.2087787916e+00 
86800 6.7916330213e+00 -9.9115917144e-04 3.0073064674e+00 -5.2088075955e+00 3.0073064674e+00 5.2088075955e+00 
86900 6.7916330602e+00 -9.8217123652e-04 3.0073229466e+00 -5.2088361383e+00 3.0073229466e+00 5.2088361383e+00 
87000 6.7916330987e+00 -9.7325751102e-04 3.0073392763e+00 -5.2088644222e+00 3.0073392763e+00 5.2088644222e+00 
87100 6.7916331370e+00 -9.6441747455e-04 3.0073554577e+00 -5.2088924491e+00 3.0073554577e+00 5.2088924491e+00 
87200 6.7916331749e+00 -9.5565060941e-04 3.0073714920e+00 -5.2089202214e+00 3.0073714920e+00 5.2089202214e+00 
87300 6.7916332125e+00 -9.4695640061e-04 3.0073873805e+00 -5.2089477411e+00 3.0073873805e+00 5.2089477411e+00 
87400 6.7916332498e+00 -9.3833433582e-04 3.0074031244e+00 -5.2089750102e+00 3.0074031244e+00 5.2089750102e+00 
87500 6.7916332868e+00 -9.2978390530e-04 3.0074187248e+00 -5.2090020309e+00 3.0074187248e+00 5.2090020309e+00 
87600 6.7916333234e+00 -9.2130460190e-04 3.0074341830e+00 -5.2090288053e+00 3.0074341830e+00 5.2090288053e+00 
87700 6.7916333598e+00 -9.1289592102e-04 3.0074495001e+00 -5.2090553354e+00 3.0074495001e+00 5.2090553354e+00 
87800 6.7916333958e+00 -9.0455736058e-04 3.0074646773e+00 -5.2090816231e+00 3.0074646773e+00 5.2090816231e+00 
87900 6.7916334316e+00 -8.9628842098e-04 3.0074797159e+00 -5.2091076707e+00 3.0074797159e+00 5.2091076707e+00 
88000 6.7916334670e+00 -8.8808860507e-04 3.0074946169e+00 -5.2091334800e+00 3.0074946169e+00 5.2091334800e+00 
88100 6.7916335021e+00 -8.7995741817e-04 3.0075093815e+00 -5.2091590530e+00 3.0075093815e+00 5.2091590530e+00 
88200 6.7916335369e+00 -8.7189436797e-04 3.0075240109e+00 -5.2091843918e+00 3.0075240109e+00 5.2091843918e+00 
88300 6.7916335715e+00 -8.6389896456e-04 3.0075385061e+00 -5.2092094983e+00 3.0075385061e+00 5.2092094983e+00 
88400 6.7916336057e+00 -8.5597072041e-04 3.0075528683e+00 -5.2092343744e+00 3.0075528683e+00 5.2092343744e+00 
88500 6.7916336396e+00 -8.4810915033e-04 3.0075670987e+00 -5.2092590221e+00 3.0075670987e+00 5.2092590221e+00 
88600 6.7916336733e+00 -8.4031377144e-04 3.0075811983e+00 -5.2092834433e+00 3.0075811983e+00 5.2092834433e+00 
88700 6.7916337066e+00 -8.3258410319e-04 3.0075951682e+00 -5.2093076400e+00 3.0075951682e+00 5.2093076400e+00 
88800 6.7916337396e+00 -8.2491966732e-04 3.0076090096e+00 -5.2093316139e+00 3.0076090096e+00 5.2093316139e+00 
88900 6.7916337724e+00 -8.1731998783e-04 3.0076227235e+00 -5.2093553671e+00 3.0076227235e+00 5.2093553671e+00 
89000 6.7916338049e+00 -8.0978459102e-04 3.0076363110e+00 -5.2093789013e+00 3.0076363110e+00 5.2093789013e+00 
89100 6.7916338370e+00 -8.0231300540e-04 3.0076497731e+00 -5.2094022184e+00 3.0076497731e+00 5.2094022184e+00 
89200 6.7916338689e+00 -7.9490476176e-04 3.0076631110e+00 -5.2094253203e+00 3.0076631110e+00 5.2094253203e+00 
89300 6.7916339005e+00 -7.8755939311e-04 3.0076763257e+00 -5.2094482088e+00 3.0076763257e+00 5.2094482088e+00 
89400 6.7916339319e+00 -7.8027643466e-04 3.0076894182e+00 -5.2094708856e+00 3.0076894182e+00 5.2094708856e+00 
89500 6.7916339629e+00 -7.7305542386e-04 3.0077023895e+00 -5.2094933527e+00 3.0077023895e+00 5.2094933527e+00 
89600 6.7916339937e+00 -7.6589590035e-04 3.0077152408e+00 -5.2095156118e+00 3.0077152408e+00 5.2095156118e+00 
89700 6.7916340242e+00 -7.5879740599e-04 3.0077279730e+00 -5.2095376646e+00 3.0077279730e+00 5.2095376646e+00 
89800 6.7916340544e+00 -7.5175948479e-04 3.0077405871e+00 -5.2095595129e+00 3.0077405871e+00 5.2095595129e+00 
89900 6.7916340843e+00 -7.4478168301e-04 3.0077530842e+00 -5.2095811585e+00 3.0077530842e+00 5.2095811585e+00 
90000 6.7916341140e+00 -7.3786354904e-04 3.0077654653e+00 -5.2096026031e+00 3.0077654653e+00 5.2096026031e+00 
90100 6.7916341434e+00 -7.3100463348e-04 3.0077777313e+00 -5.2096238484e+00 3.0077777313e+00 5.2096238484e+00 
90200 6.7916341725e+00 -7.2420448911e-04 3.0077898832e+00 -5.2096448961e+00 3.0077898832e+00 5.2096448961e+00 
90300 6.7916342014e+00 -7.1746267088e-04 3.0078019220e+00 -5.2096657480e+00 3.0078019220e+00 5.2096657480e+00 
90400 6.7916342300e+00 -7.1077873591e-04 3.0078138487e+00 -5.2096864056e+00 3.0078138487e+00 5.2096864056e+00 
90500 6.7916342583e+00 -7.0415224350e-04 3.0078256642e+00 -5.2097068708e+00 3.0078256642e+00 5.2097068708e+00 
90600 6.7916342864e+00 -6.9758275513e-04 3.0078373696e+00 -5.2097271450e+00 3.0078373696e+00 5.2097271450e+00 
90700 6.7916343142e+00 -6.9106983446e-04 3.0078489657e+00 -5.2097472300e+00 3.0078489657e+00 5.2097472300e+00 
90800 6.7916343418e+00 -6.8461304732e-04 3.0078604535e+00 -5.2097671275e+00 3.0078604535e+00 5.2097671275e+00 
90900 6.7916343691e+00 -6.7821196170e-04 3.0078718339e+00 -5.2097868389e+00 3.0078718339e+00 5.2097868389e+00 
91000 6.7916343962e+00 -6.7186614781e-04 3.0078831078e+00 -5.2098063660e+00 3.0078831078e+00 5.2098063660e+00 
91100 6.7916344230e+00 -6.6557517800e-04 3.0078942762e+00 -5.2098257103e+00 3.0078942762e+00 5.2098257103e+00 
91200 6.7916344495e+00 -6.5933862683e-04 3.0079053401e+00 -5.2098448733e+00 3.0079053401e+00 5.2098448733e+00 
91300 6.7916344758e+00 -6.5315607106e-04 3.0079163002e+00 -5.2098638568e+00 3.0079163002e+00 5.2098638568e+00 
91400 6.7916345019e+00 -6.4702708961e-04 3.0079271575e+00 -5.2098826622e+00 3.0079271575e+00 5.2098826622e+00 
91500 6.7916345277e+00 -6.4095126361e-04 3.0079379128e+00 -5.2099012910e+00 3.0079379128e+00 5.2099012910e+00 
91600 6.7916345533e+00 -6.3492817638e-04 3.0079485672e+00 -5.2099197449e+00 3.0079485672e+00 5.2099197449e+00 
91700 6.7916345786e+00 -6.2895741347e-04 3.0079591213e+00 -5.2099380253e+00 3.0079591213e+00 5.2099380253e+00 
91800 6.7916346037e+00 -6.2303856260e-04 3.0079695762e+00 -5.2099561337e+00 3.0079695762e+00 5.2099561337e+00 
91900 6.7916346286e+00 -6.1717121373e-04 3.0079799327e+00 -5.2099740716e+00 3.0079799327e+00 5.2099740716e+00 
92000 6.7916346532e+00 -6.1135495902e-04 3.0079901916e+00 -5.2099918405e+00 3.0079901916e+00 5.2099918405e+00 
92100 6.7916346776e+00 -6.0558939287e-04 3.0080003538e+00 -5.2100094420e+00 3.0080003538e+00 5.2100094420e+00 
92200 6.7916347018e+00 -5.9987411188e-04 3.0080104201e+00 -5.2100268773e+00 3.0080104201e+00 5.2100268773e+00 
92300 6.7916347257e+00 -5.9420871490e-04 3.0080203914e+00 -5.2100441481e+00 3.0080203914e+00 5.2100441481e+00 
92400 6.7916347494e+00 -5.8859280301e-04 3.0080302685e+00 -5.2100612557e+00 3.0080302685e+00 5.2100612557e+00 
92500 6.7916347729e+00 -5.8302597953e-04 3.0080400522e+00 -5.2100782016e+00 3.0080400522e+00 5.2100782016e+00 
92600 6.7916347962e+00 -5.7750785003e-04 3.0080497433e+00 -5.2100949871e+00 3.0080497433e+00 5.2100949871e+00 
92700 6.7916348192e+00 -5.7203802233e-04 3.0080593427e+00 -5.2101116137e+00 3.0080593427e+00 5.2101116137e+00 
92800 6.7916348420e+00 -5.6661610652e-04 3.0080688511e+00 -5.2101280828e+00 3.0080688511e+00 5.2101280828e+00 
92900 6.7916348646e+00 -5.6124171491e-04 3.0080782694e+00 -5.2101443957e+00 3.0080782694e+00 5.2101443957e+00 
93000 6.7916348870e+00 -5.5591446213e-04 3.0080875983e+00 -5.2101605539e+00 3.0080875983e+00 5.2101605539e+00 
93100 6.7916349092e+00 -5.5063396504e-04 3.0080968386e+00 -5.2101765586e+00 3.0080968386e+00 5.2101765586e+00 
93200 6.7916349311e+00 -5.4539984281e-04 3.0081059912e+00 -5.2101924113e+00 3.0081059912e+00 5.2101924113e+00 
93300 6.7916349529e+00 -5.4021171685e-04 3.0081150567e+00 -5.2102081132e+00 3.0081150567e+00 5.2102081132e+00 
93400 6.7916349744e+00 -5.3506921090e-04 3.0081240359e+00 -5.2102236657e+00 3.0081240359e+00 5.2102236657e+00 
93500 6.7916349957e+00 -5.2997195097e-04 3.0081329297e+00 -5.2102390701e+00 3.0081329297e+00 5.2102390701e+00 
93600 6.7916350168e+00 -5.2491956535e-04 3.0081417386e+00 -5.2102543277e+00 3.0081417386e+00 5.2102543277e+00 
93700 6.7916350377e+00 -5.1991168465e-04 3.0081504636e+00 -5.2102694398e+00 3.0081504636e+00 5.2102694398e+00 
93800 6.7916350584e+00 -5.1494794179e-04 3.0081591054e+00 -5.2102844077e+00 3.0081591054e+00 5.2102844077e+00 
93900 6.7916350790e+00 -5.1002797196e-04 3.0081676645e+00 -5.2102992327e+00 3.0081676645e+00 5.2102992327e+00 
94000 6.7916350993e+00 -5.0515141270e-04 3.0081761419e+00 -5.2103139159e+00 3.0081761419e+00 5.2103139159e+00 
94100 6.7916351194e+00 -5.0031790384e-04 3.0081845382e+00 -5.2103284588e+00 3.0081845382e+00 5.2103284588e+00 
94200 6.7916351393e+00 -4.9552708753e-04 3.0081928542e+00 -5.2103428624e+00 3.0081928542e+00 5.2103428624e+00 
94300 6.7916351590e+00 -4.9077860826e-04 3.0082010905e+00 -5.2103571281e+00 3.0082010905e+00 5.2103571281e+00 
94400 6.7916351785e+00 -4.8607211280e-04 3.0082092478e+00 -5.2103712571e+00 3.0082092478e+00 5.2103712571e+00 
94500 6.7916351979e+00 -4.8140725030e-04 3.0082173269e+00 -5.2103852505e+00 3.0082173269e+00 5.2103852505e+00 
94600 6.7916352170e+00 -4.7678367218e-04 3.0082253285e+00 -5.2103991095e+00 3.0082253285e+00 5.2103991095e+00 
94700 6.7916352360e+00 -4.7220103224e-04 3.0082332531e+00 -5.2104128355e+00 3.0082332531e+00 5.2104128355e+00 
94800 6.7916352547e+00 -4.6765898657e-04 3.0082411016e+00 -5.2104264294e+00 3.0082411016e+00 5.2104264294e+00 
94900 6.7916352733e+00 -4.6315719363e-04 3.0082488746e+00 -5.2104398926e+00 3.0082488746e+00 5.2104398926e+00 
95000 6.7916352917e+00 -4.5869531417e-04 3.0082565727e+00 -5.2104532261e+00 3.0082565727e+00 5.2104532261e+00 
95100 6.7916353099e+00 -4.5427301131e-04 3.0082641967e+00 -5.2104664312e+00 3.0082641967e+00 5.2104664312e+00 
95200 6.7916353280e+00 -4.4988995050e-04 3.0082717471e+00 -5.2104795089e+00 3.0082717471e+00 5.2104795089e+00 
95300 6.7916353458e+00 -4.4554579950e-04 3.0082792246e+00 -5.2104924604e+00 3.0082792246e+00 5.2104924604e+00 
95400 6.7916353635e+00 -4.4124022843e-04 3.0082866300e+00 -5.2105052868e+00 3.0082866300e+00 5.2105052868e+00 
95500 6.7916353810e+00 -4.3697290974e-04 3.0082939637e+00 -5.2105179893e+00 3.0082939637e+00 5.2105179893e+00 
95600 6.7916353984e+00 -4.3274351820e-04 3.0083012265e+00 -5.2105305688e+00 3.0083012265e+00 5.2105305688e+00 
95700 6.7916354155e+00 -4.2855173094e-04 3.0083084190e+00 -5.2105430266e+00 3.0083084190e+00 5.2105430266e+00 
95800 6.7916354325e+00 -4.2439722738e-04 3.0083155418e+00 -5.2105553636e+00 3.0083155418e+00 5.2105553636e+00 
95900 6.7916354494e+00 -4.2027968931e-04 3.0083225956e+00 -5.2105675811e+00 3.0083225956e+00 5.2105675811e+00 
96000 6.7916354660e+00 -4.1619880083e-04 3.0083295808e+00 -5.2105796799e+00 3.0083295808e+00 5.2105796799e+00 
96100 6.7916354825e+00 -4.1215424837e-04 3.0083364983e+00 -5.2105916613e+00 3.0083364983e+00 5.2105916613e+00 
96200 6.7916354988e+00 -4.0814572068e-04 3.0083433485e+00 -5.2106035262e+00 3.0083433485e+00 5.2106035262e+00 
96300 6.7916355150e+00 -4.0417290882e-04 3.0083501321e+00 -5.2106152757e+00 3.0083501321e+00 5.2106152757e+00 
96400 6.7916355310e+00 -4.0023550619e-04 3.0083568496e+00 -5.2106269108e+00 3.0083568496e+00 5.2106269108e+00 
96500 6.7916355468e+00 -3.9633320849e-04 3.0083635016e+00 -5.2106384325e+00 3.0083635016e+00 5.2106384325e+00 
96600 6.7916355625e+00 -3.9246571373e-04 3.0083700888e+00 -5.2106498418e+00 3.0083700888e+00 5.2106498418e+00 
96700 6.7916355781e+00 -3.8863272223e-04 3.0083766117e+00 -5.2106611398e+00 3.0083766117e+00 5.2106611398e+00 
96800 6.7916355934e+00 -3.8483393659e-04 3.0083830709e+00 -5.2106723274e+00 3.0083830709e+00 5.2106723274e+00 
96900 6.7916356086e+00 -3.8106906175e-04 3.0083894669e+00 -5.2106834057e+00 3.0083894669e+00 5.2106834057e+00 
97000 6.7916356237e+00 -3.7733780489e-04 3.0083958004e+00 -5.2106943755e+00 3.0083958004e+00 5.2106943755e+00 
97100 6.7916356386e+00 -3.7363987553e-04 3.0084020718e+00 -5.2107052379e+00 3.0084020718e+00 5.2107052379e+00 
97200 6.7916356534e+00 -3.6997498541e-04 3.0084082817e+00 -5.2107159939e+00 3.0084082817e+00 5.2107159939e+00 
97300 6.7916356680e+00 -3.6634284860e-04 3.0084144307e+00 -5.2107266443e+00 3.0084144307e+00 5.2107266443e+00 
97400 6.7916356824e+00 -3.6274318140e-04 3.0084205194e+00 -5.2107371901e+00 3.0084205194e+00 5.2107371901e+00 
97500 6.7916356968e+00 -3.5917570238e-04 3.0084265482e+00 -5.2107476323e+00 3.0084265482e+00 5.2107476323e+00 
97600 6.7916357109e+00 -3.5564013238e-04 3.0084325177e+00 -5.2107579718e+00 3.0084325177e+00 5.2107579718e+00 
97700 6.7916357250e+00 -3.5213619446e-04 3.0084384284e+00 -5.2107682094e+00 3.0084384284e+00 5.2107682094e+00 
97800 6.7916357388e+00 -3.4866361395e-04 3.0084442809e+00 -5.2107783462e+00 3.0084442809e+00 5.2107783462e+00 
97900 6.7916357526e+00 -3.4522211840e-04 3.0084500756e+00 -5.2107883830e+00 3.0084500756e+00 5.2107883830e+00 
98000 6.7916357662e+00 -3.4181143756e-04 3.0084558132e+00 -5.2107983207e+00 3.0084558132e+00 5.2107983207e+00 
98100 6.7916357797e+00 -3.3843130342e-04 3.0084614940e+00 -5.2108081603e+00 3.0084614940e+00 5.2108081603e+00 
98200 6.7916357930e+00 -3.3508145019e-04 3.0084671187e+00 -5.2108179025e+00 3.0084671187e+00 5.2108179025e+00 
98300 6.7916358062e+00 -3.3176161425e-04 3.0084726877e+00 -5.2108275482e+00 3.0084726877e+00 5.2108275482e+00 
98400 6.7916358192e+00 -3.2847153418e-04 3.0084782014e+00 -5.2108370984e+00 3.0084782014e+00 5.2108370984e+00 
98500 6.7916358322e+00 -3.2521095074e-04 3.0084836605e+00 -5.2108465538e+00 3.0084836605e+00 5.2108465538e+00 
98600 6.7916358450e+00 -3.2197960685e-04 3.0084890654e+00 -5.2108559154e+00 3.0084890654e+00 5.2108559154e+00 
98700 6.7916358576e+00 -3.1877724762e-04 3.0084944166e+00 -5.2108651839e+00 3.0084944166e+00 5.2108651839e+00 
98800 6.7916358702e+00 -3.1560362028e-04 3.0084997146e+00 -5.2108743602e+00 3.0084997146e+00 5.2108743602e+00 
98900 6.7916358826e+00 -3.1245847420e-04 3.0085049598e+00 -5.2108834452e+00 3.0085049598e+00 5.2108834452e+00 
99000 6.7916358948e+00 -3.0934156091e-04 3.0085101527e+00 -5.2108924396e+00 3.0085101527e+00 5.2108924396e+00 
99100 6.7916359070e+00 -3.0625263403e-04 3.0085152938e+00 -5.2109013442e+00 3.0085152938e+00 5.2109013442e+00 
99200 6.7916359190e+00 -3.0319144929e-04 3.0085203836e+00 -5.2109101600e+00 3.0085203836e+00 5.2109101600e+00 
99300 6.7916359309e+00 -3.0015776452e-04 3.0085254225e+00 -5.2109188876e+00 3.0085254225e+00 5.2109188876e+00 
99400 6.7916359427e+00 -2.9715133965e-04 3.0085304109e+00 -5.2109275278e+00 3.0085304109e+00 5.2109275278e+00 
99500 6.7916359544e+00 -2.9417193667e-04 3.0085353494e+00 -5.2109360815e+00 3.0085353494e+00 5.2109360815e+00 
99600 6.7916359659e+00 -2.9121931963e-04 3.0085402384e+00 -5.2109445495e+00 3.0085402384e+00 5.2109445495e+00 
99700 6.7916359773e+00 -2.8829325463e-04 3.0085450782e+00 -5.2109529324e+00 3.0085450782e+00 5.2109529324e+00 
99800 6.7916359886e+00 -2.8539350982e-04 3.0085498695e+00 -5.2109612310e+00 3.0085498695e+00 5.2109612310e+00 
99900 6.7916359998e+00 -2.8251985536e-04 3.0085546125e+00 -5.2109694462e+00 3.0085546125e+00 5.2109694462e+00 
100000 6.7916360109e+00 -2.7967206343e-04 3.0085593078e+00 -5.2109775787e+00 3.0085593078e+00 5.2109775787e+00 
100100 6.7916360219e+00 -2.7684990822e-04 3.0085639557e+00 -5.2109856292e+00 3.0085639557e+00 5.2109856292e+00 
100200 6.7916360327e+00 -2.7405316589e-04 3.0085685568e+00 -5.2109935984e+00 3.0085685568e+00 5.2109935984e+00 
100300 6.7916360434e+00 -2.7128161458e-04 3.0085731113e+00 -5.2110014871e+00 3.0085731113e+00 5.2110014871e+00 
100400 6.7916360541e+00 -2.6853503440e-04 3.0085776198e+00 -5.2110092960e+00 3.0085776198e+00 5.2110092960e+00 
100500 6.7916360646e+00 -2.6581320741e-04 3.0085820826e+00 -5.2110170258e+00 3.0085820826e+00 5.2110170258e+00 
100600 6.7916360750e+00 -2.6311591760e-04 3.0085865002e+00 -5.2110246773e+00 3.0085865002e+00 5.2110246773e+00 
100700 6.7916360853e+00 -2.6044295088e-04 3.0085908730e+00 -5.2110322511e+00 3.0085908730e+00 5.2110322511e+00 
100800 6.7916360954e+00 -2.5779409507e-04 3.0085952013e+00 -5.2110397480e+00 3.0085952013e+00 5.2110397480e+00 
100900 6.7916361055e+00 -2.5516913989e-04 3.0085994856e+00 -5.2110471686e+00 3.0085994856e+00 5.2110471686e+00 
101000 6.7916361155e+00 -2.5256787692e-04 3.0086037262e+00 -5.2110545137e+00 3.0086037262e+00 5.2110545137e+00 
101100 6.7916361254e+00 -2.4999009965e-04 3.0086079237e+00 -5.2110617838e+00 3.0086079237e+00 5.2110617838e+00 
101200 6.7916361351e+00 -2.4743560338e-04 3.0086120782e+00 -5.2110689798e+00 3.0086120782e+00 5.2110689798e+00 
101300 6.7916361448e+00 -2.4490418528e-04 3.0086161904e+00 -5.2110761022e+00 3.0086161904e+00 5.2110761022e+00 
101400 6.7916361544e+00 -2.4239564432e-04 3.0086202604e+00 -5.2110831517e+00 3.0086202604e+00 5.2110831517e+00 
101500 6.7916361638e+00 -2.3990978130e-04 3.0086242888e+00 -5.2110901290e+00 3.0086242888e+00 5.2110901290e+00 
101600 6.7916361732e+00 -2.3744639882e-04 3.0086282758e+00 -5.2110970348e+00 3.0086282758e+00 5.2110970348e+00 
101700 6.7916361825e+00 -2.3500530124e-04 3.0086322219e+00 -5.2111038696e+00 3.0086322219e+00 5.2111038696e+00 
101800 6.7916361916e+00 -2.3258629472e-04 3.0086361274e+00 -5.2111106342e+00 3.0086361274e+00 5.2111106342e+00 
101900 6.7916362007e+00 -2.3018918714e-04 3.0086399927e+00 -5.2111173291e+00 3.0086399927e+00 5.2111173291e+00 
102000 6.7916362097e+00 -2.2781378815e-04 3.0086438182e+00 -5.2111239550e+00 3.0086438182e+00 5.2111239550e+00 
102100 6.7916362186e+00 -2.2545990911e-04 3.0086476042e+00 -5.2111305125e+00 3.0086476042e+00 5.2111305125e+00 
102200 6.7916362274e+00 -2.2312736309e-04 3.0086513511e+00 -5.2111370023e+00 3.0086513511e+00 5.2111370023e+00 
102300 6.7916362361e+00 -2.2081596485e-04 3.0086550591e+00 -5.2111434249e+00 3.0086550591e+00 5.2111434249e+00 
102400 6.7916362447e+00 -2.1852553086e-04 3.0086587288e+00 -5.2111497810e+00 3.0086587288e+00 5.2111497810e+00 
102500 6.7916362532e+00 -2.1625587922e-04 3.0086623604e+00 -5.2111560711e+00 3.0086623604e+00 5.2111560711e+00 
102600 6.7916362616e+00 -2.1400682972e-04 3.0086659543e+00 -5.2111622959e+00 3.0086659543e+00 5.2111622959e+00 
102700 6.7916362700e+00 -2.1177820375e-04 3.0086695108e+00 -5.2111684559e+00 3.0086695108e+00 5.2111684559e+00 
102800 6.7916362782e+00 -2.0956982436e-04 3.0086730303e+00 -5.2111745518e+00 3.0086730303e+00 5.2111745518e+00 
102900 6.7916362864e+00 -2.0738151618e-04 3.0086765131e+00 -5.2111805842e+00 3.0086765131e+00 5.2111805842e+00 
103000 6.7916362944e+00 -2.0521310545e-04 3.0086799595e+00 -5.2111865535e+00 3.0086799595e+00 5.2111865535e+00 
103100 6.7916363024e+00 -2.0306441999e-04 3.0086833698e+00 -5.2111924604e+00 3.0086833698e+00 5.2111924604e+00 
103200 6.7916363103e+00 -2.0093528918e-04 3.0086867444e+00 -5.2111983054e+00 3.0086867444e+00 5.2111983054e+00 
103300 6.7916363182e+00 -1.9882554395e-04 3.0086900837e+00 -5.2112040892e+00 3.0086900837e+00 5.2112040892e+00 
103400 6.7916363259e+00 -1.9673501677e-04 3.0086933879e+00 -5.2112098122e+00 3.0086933879e+00 5.2112098122e+00 
103500 6.7916363336e+00 -1.9466354163e-04 3.0086966573e+00 -5.2112154751e+00 3.0086966573e+00 5.2112154751e+00 
103600 6.7916363411e+00 -1.9261095403e-04 3.0086998923e+00 -5.2112210783e+00 3.0086998923e+00 5.2112210783e+00 
103700 6.7916363486e+00 -1.9057709097e-04 3.0087030932e+00 -5.2112266224e+00 3.0087030932e+00 5.2112266224e+00 
103800 6.7916363561e+00 -1.8856179091e-04 3.0087062603e+00 -5.2112321080e+00 3.0087062603e+00 5.2112321080e+00 
103900 6.7916363634e+00 -1.8656489379e-04 3.0087093939e+00 -5.2112375355e+00 3.0087093939e+00 5.2112375355e+00 
104000 6.7916363706e+00 -1.8458624100e-04 3.0087124944e+00 -5.2112429056e+00 3.0087124944e+00 5.2112429056e+00 
104100 6.7916363778e+00 -1.8262567535e-04 3.0087155619e+00 -5.2112482187e+00 3.0087155619e+00 5.2112482187e+00 
104200 6.7916363849e+00 -1.8068304111e-04 3.0087185968e+00 -5.2112534754e+00 3.0087185968e+00 5.2112534754e+00 
104300 6.7916363920e+00 -1.7875818391e-04 3.0087215995e+00 -5.2112586762e+00 3.0087215995e+00 5.2112586762e+00 
104400 6.7916363989e+00 -1.7685095080e-04 3.0087245702e+00 -5.2112638215e+00 3.0087245702e+00 5.2112638215e+00 
104500 6.7916364058e+00 -1.7496119022e-04 3.0087275091e+00 -5.2112689119e+00 3.0087275091e+00 5.2112689119e+00 
104600 6.7916364126e+00 -1.7308875197e-04 3.0087304167e+00 -5.2112739480e+00 3.0087304167e+00 5.2112739480e+00 
104700 6.7916364193e+00 -1.7123348717e-04 3.0087332931e+00 -5.2112789301e+00 3.0087332931e+00 5.2112789301e+00 
104800 6.7916364260e+00 -1.6939524833e-04 3.0087361387e+00 -5.2112838589e+00 3.0087361387e+00 5.2112838589e+00 
104900 6.7916364326e+00 -1.6757388926e-04 3.0087389538e+00 -5.2112887347e+00 3.0087389538e+00 5.2112887347e+00 
105000 6.7916364391e+00 -1.6576926508e-04 3.0087417386e+00 -5.2112935581e+00 3.0087417386e+00 5.2112935581e+00 
105100 6.7916364456e+00 -1.6398123221e-04 3.0087444934e+00 -5.2112983295e+00 3.0087444934e+00 5.2112983295e+00 
105200 6.7916364519e+00 -1.6220964836e-04 3.0087472185e+00 -5.2113030495e+00 3.0087472185e+00 5.2113030495e+00 
105300 6.7916364582e+00 -1.6045437251e-04 3.0087499141e+00 -5.2113077185e+00 3.0087499141e+00 5.2113077185e+00 
105400 6.7916364645e+00 -1.5871526491e-04 3.0087525806e+00 -5.2113123369e+00 3.0087525806e+00 5.2113123369e+00 
105500 6.7916364707e+00 -1.5699218703e-04 3.0087552181e+00 -5.2113169053e+00 3.0087552181e+00 5.2113169053e+00 
105600 6.7916364768e+00 -1.5528500159e-04 3.0087578270e+00 -5.2113214241e+00 3.0087578270e+00 5.2113214241e+00 
105700 6.7916364828e+00 -1.5359357253e-04 3.0087604076e+00 -5.2113258937e+00 3.0087604076e+00 5.2113258937e+00 
105800 6.7916364888e+00 -1.5191776501e-04 3.0087629600e+00 -5.2113303147e+00 3.0087629600e+00 5.2113303147e+00 
105900 6.7916364947e+00 -1.5025744535e-04 3.0087654846e+00 -5.2113346874e+00 3.0087654846e+00 5.2113346874e+00 
106000 6.7916365006e+00 -1.4861248108e-04 3.0087679816e+00 -5.2113390123e+00 3.0087679816e+00 5.2113390123e+00 
106100 6.7916365063e+00 -1.4698274089e-04 3.0087704513e+00 -5.2113432899e+00 3.0087704513e+00 5.2113432899e+00 
106200 6.7916365121e+00 -1.4536809463e-04 3.0087728938e+00 -5.2113475206e+00 3.0087728938e+00 5.2113475206e+00 
106300 6.7916365177e+00 -1.4376841330e-04 3.0087753096e+00 -5.2113517047e+00 3.0087753096e+00 5.2113517047e+00 
106400 6.7916365233e+00 -1.4218356902e-04 3.0087776987e+00 -5.2113558429e+00 3.0087776987e+00 5.2113558429e+00 
106500 6.7916365289e+00 -1.4061343504e-04 3.0087800615e+00 -5.2113599354e+00 3.0087800615e+00 5.2113599354e+00 
106600 6.7916365343e+00 -1.3905788572e-04 3.0087823983e+00 -5.2113639827e+00 3.0087823983e+00 5.2113639827e+00 
106700 6.7916365398e+00 -1.3751679652e-04 3.0087847091e+00 -5.2113679852e+00 3.0087847091e+00 5.2113679852e+00 
106800 6.7916365451e+00 -1.3599004396e-04 3.0087869944e+00 -5.2113719434e+00 3.0087869944e+00 5.2113719434e+00 
106900 6.7916365504e+00 -1.3447750568e-04 3.0087892543e+00 -5.2113758577e+00 3.0087892543e+00 5.2113758577e+00 
107000 6.7916365557e+00 -1.3297906035e-04 3.0087914890e+00 -5.2113797283e+00 3.0087914890e+00 5.2113797283e+00 
107100 6.7916365609e+00 -1.3149458769e-04 3.0087936989e+00 -5.2113835559e+00 3.0087936989e+00 5.2113835559e+00 
107200 6.7916365660e+00 -1.3002396848e-04 3.0087958840e+00 -5.2113873407e+00 3.0087958840e+00 5.2113873407e+00 
107300 6.7916365711e+00 -1.2856708451e-04 3.0087980448e+00 -5.2113910832e+00 3.0087980448e+00 5.2113910832e+00 
107400 6.7916365761e+00 -1.2712381862e-04 3.0088001813e+00 -5.2113947838e+00 3.0088001813e+00 5.2113947838e+00 
107500 6.7916365810e+00 -1.2569405461e-04 3.0088022938e+00 -5.2113984428e+00 3.0088022938e+00 5.2113984428e+00 
107600 6.7916365859e+00 -1.2427767731e-04 3.0088043826e+00 -5.2114020607e+00 3.0088043826e+00 5.2114020607e+00 
107700 6.7916365908e+00 -1.2287457253e-04 3.0088064478e+00 -5.2114056378e+00 3.0088064478e+00 5.2114056378e+00 
107800 6.7916365956e+00 -1.2148462705e-04 3.0088084897e+00 -5.2114091745e+00 3.0088084897e+00 5.2114091745e+00 
107900 6.7916366004e+00 -1.2010772864e-04 3.0088105085e+00 -5.2114126712e+00 3.0088105085e+00 5.2114126712e+00 
108000 6.7916366051e+00 -1.1874376597e-04 3.0088125045e+00 -5.2114161282e+00 3.0088125045e+00 5.2114161282e+00 
108100 6.7916366097e+00 -1.1739262873e-04 3.0088144777e+00 -5.2114195460e+00 3.0088144777e+00 5.2114195460e+00 
108200 6.7916366143e+00 -1.1605420747e-04 3.0088164286e+00 -5.2114229249e+00 3.0088164286e+00 5.2114229249e+00 
108300 6.7916366188e+00 -1.1472839373e-04 3.0088183571e+00 -5.2114262653e+00 3.0088183571e+00 5.2114262653e+00 
108400 6.7916366233e+00 -1.1341507993e-04 3.0088202637e+00 -5.2114295675e+00 3.0088202637e+00 5.2114295675e+00 
108500 6.7916366278e+00 -1.1211415939e-04 3.0088221484e+00 -5.2114328319e+00 3.0088221484e+00 5.2114328319e+00 
108600 6.7916366322e+00 -1.1082552636e-04 3.0088240115e+00 -5.2114360589e+00 3.0088240115e+00 5.2114360589e+00 
108700 6.7916366365e+00 -1.0954907594e-04 3.0088258531e+00 -5.2114392488e+00 3.0088258531e+00 5.2114392488e+00 
108800 6.7916366408e+00 -1.0828470414e-04 3.0088276736e+00 -5.2114424019e+00 3.0088276736e+00 5.2114424019e+00 
108900 6.7916366451e+00 -1.0703230782e-04 3.0088294731e+00 -5.2114455186e+00 3.0088294731e+00 5.2114455186e+00 
109000 6.7916366493e+00 -1.0579178471e-04 3.0088312517e+00 -5.2114485993e+00 3.0088312517e+00 5.2114485993e+00 
109100 6.7916366534e+00 -1.0456303337e-04 3.0088330097e+00 -5.2114516443e+00 3.0088330097e+00 5.2114516443e+00 
109200 6.7916366575e+00 -1.0334595324e-04 3.0088347473e+00 -5.2114546539e+00 3.0088347473e+00 5.2114546539e+00 
109300 6.7916366616e+00 -1.0214044457e-04 3.0088364647e+00 -5.2114576285e+00 3.0088364647e+00 5.2114576285e+00 
109400 6.7916366656e+00 -1.0094640843e-04 3.0088381620e+00 -5.2114605684e+00 3.0088381620e+00 5.2114605684e+00 
109500 6.7916366696e+00 -9.9763746723e-05 3.0088398395e+00 -5.2114634739e+00 3.0088398395e+00 5.2114634739e+00 
109600 6.7916366735e+00 -9.8592362149e-05 3.0088414974e+00 -5.2114663454e+00 3.0088414974e+00 5.2114663454e+00 
109700 6.7916366774e+00 -9.7432158213e-05 3.0088431358e+00 -5.2114691831e+00 3.0088431358e+00 5.2114691831e+00 
109800 6.7916366813e+00 -9.6283039213e-05 3.0088447548e+00 -5.2114719875e+00 3.0088447548e+00 5.2114719875e+00 
109900 6.7916366851e+00 -9.5144910234e-05 3.0088463548e+00 -5.2114747588e+00 3.0088463548e+00 5.2114747588e+00 
110000 6.7916366888e+00 -9.4017677133e-05 3.0088479359e+00 -5.2114774973e+00 3.0088479359e+00 5.2114774973e+00 
110100 6.7916366926e+00 -9.2901246536e-05 3.0088494983e+00 -5.2114802034e+00 3.0088494983e+00 5.2114802034e+00 
110200 6.7916366962e+00 -9.1795525836e-05 3.0088510421e+00 -5.2114828773e+00 3.0088510421e+00 5.2114828773e+00 
110300 6.7916366999e+00 -9.0700423176e-05 3.0088525675e+00 -5.2114855194e+00 3.0088525675e+00 5.2114855194e+00 
110400 6.7916367035e+00 -8.9615847442e-05 3.0088540747e+00 -5.2114881300e+00 3.0088540747e+00 5.2114881300e+00 
110500 6.7916367070e+00 -8.8541708267e-05 3.0088555639e+00 -5.2114907094e+00 3.0088555639e+00 5.2114907094e+00 
110600 6.7916367105e+00 -8.7477916016e-05 3.0088570353e+00 -5.2114932578e+00 3.0088570353e+00 5.2114932578e+00 
110700 6.7916367140e+00 -8.6424381769e-05 3.0088584890e+00 -5.2114957757e+00 3.0088584890e+00 5.2114957757e+00 
110800 6.7916367174e+00 -8.5381017334e-05 3.0088599251e+00 -5.2114982632e+00 3.0088599251e+00 5.2114982632e+00 
110900 6.7916367208e+00 -8.4347735225e-05 3.0088613440e+00 -5.2115007207e+00 3.0088613440e+00 5.2115007207e+00 
111000 6.7916367242e+00 -8.3324448669e-05 3.0088627456e+00 -5.2115031484e+00 3.0088627456e+00 5.2115031484e+00 
111100 6.7916367275e+00 -8.2311071579e-05 3.0088641303e+00 -5.2115055467e+00 3.0088641303e+00 5.2115055467e+00 
111200 6.7916367308e+00 -8.1307518564e-05 3.0088654981e+00 -5.2115079158e+00 3.0088654981e+00 5.2115079158e+00 
111300 6.7916367341e+00 -8.0313704922e-05 3.0088668492e+00 -5.2115102560e+00 3.0088668492e+00 5.2115102560e+00 
111400 6.7916367373e+00 -7.9329546632e-05 3.0088681838e+00 -5.2115125677e+00 3.0088681838e+00 5.2115125677e+00 
111500 6.7916367404e+00 -7.8354960330e-05 3.0088695021e+00 -5.2115148510e+00 3.0088695021e+00 5.2115148510e+00 
111600 6.7916367436e+00 -7.7389863333e-05 3.0088708042e+00 -5.2115171062e+00 3.0088708042e+00 5.2115171062e+00 
111700 6.7916367467e+00 -7.6434173612e-05 3.0088720902e+00 -5.2115193337e+00 3.0088720902e+00 5.2115193337e+00 
111800 6.7916367497e+00 -7.5487809799e-05 3.0088733603e+00 -5.2115215336e+00 3.0088733603e+00 5.2115215336e+00 
111900 6.7916367528e+00 -7.4550691156e-05 3.0088746147e+00 -5.2115237064e+00 3.0088746147e+00 5.2115237064e+00 
112000 6.7916367558e+00 -7.3622737610e-05 3.0088758536e+00 -5.2115258521e+00 3.0088758536e+00 5.2115258521e+00 
112100 6.7916367587e+00 -7.2703869710e-05 3.0088770770e+00 -5.2115279711e+00 3.0088770770e+00 5.2115279711e+00 
112200 6.7916367617e+00 -7.1794008643e-05 3.0088782852e+00 -5.2115300637e+00 3.0088782852e+00 5.2115300637e+00 
112300 6.7916367646e+00 -7.0893076217e-05 3.0088794782e+00 -5.2115321301e+00 3.0088794782e+00 5.2115321301e+00 
112400 6.7916367674e+00 -7.0000994865e-05 3.0088806563e+00 -5.2115341706e+00 3.0088806563e+00 5.2115341706e+00 
112500 6.7916367703e+00 -6.9915645924e-05 3.0088806563e+00 -5.2115341706e+00 3.0088806563e+00 5.2115341706e+00 
112600 6.7916367732e+00 -6.9839865097e-05 3.0088806563e+00 -5.2115341706e+00 3.0088806563e+00 5.2115341706e+00 
112700 6.7916367760e+00 -6.9773052083e-05 3.0088806563e+00 -5.2115341706e+00 3.0088806563e+00 5.2115341706e+00 
112800 6.7916367788e+00 -6.9714678775e-05 3.0088806563e+00 -5.2115341706e+00 3.0088806563e+00 5.2115341706e+00 
112900 6.7916367815e+00 -6.9664278548e-05 3.0088806563e+00 -5.2115341706e+00 3.0088806563e+00 5.2115341706e+00 
113000 6.7916367842e+00 -6.9621437092e-05 3.0088806563e+00 -5.2115341706e+00 3.0088806563e+00 5.2115341706e+00 
113100 6.7916367869e+00 -6.9585784520e-05 3.0088806563e+00 -5.2115341706e+00 3.0088806563e+00 5.2115341706e+00 
113200 6.7916367896e+00 -6.9556988607e-05 3.0088806563e+00 -5.2115341706e+00 3.0088806563e+00 5.2115341706e+00 
113300 6.7916367922e+00 -6.9534748957e-05 3.0088806563e+00 -5.2115341706e+00 3.0088806563e+00 5.2115341706e+00 
113400 6.7916367948e+00 -6.9518791993e-05 3.0088806563e+00 -5.2115341706e+00 3.0088806563e+00 5.2115341706e+00 
113500 6.7916367974e+00 -6.9508866659e-05 3.0088806563e+00 -5.2115341706e+00 3.0088806563e+00 5.2115341706e+00 
113600 6.7916367999e+00 -6.9504740721e-05 3.0088806563e+00 -5.2115341706e+00 3.0088806563e+00 5.2115341706e+00 
113700 6.7916368024e+00 -6.9506197598e-05 3.0088806563e+00 -5.2115341706e+00 3.0088806563e+00 5.2115341706e+00 
113800 6.7916368049e+00 -6.9513033656e-05 3.0088806563e+00 -5.2115341706e+00 3.0088806563e+00 5.2115341706e+00 
113900 6.7916368073e+00 -6.9525055899e-05 3.0088806563e+00 -5.2115341706e+00 3.0088806563e+00 5.2115341706e+00 
114000 6.7916368098e+00 -6.9542079994e-05 3.0088806563e+00 -5.2115341706e+00 3.0088806563e+00 5.2115341706e+00 
114100 6.7916368121e+00 -6.9563928618e-05 3.0088806563e+00 -5.2115341706e+00 3.0088806563e+00 5.2115341706e+00 
114200 6.7916368145e+00 -6.9590430054e-05 3.0088806563e+00 -5.2115341706e+00 3.0088806563e+00 5.2115341706e+00 
114300 6.7916368168e+00 -6.9621417011e-05 3.0088806563e+00 -5.2115341706e+00 3.0088806563e+00 5.2115341706e+00 
114400 6.7916368192e+00 -6.9656725650e-05 3.0088806563e+00 -5.2115341706e+00 3.0088806563e+00 5.2115341706e+00 
114500 6.7916368214e+00 -6.9696194772e-05 3.0088806563e+00 -5.2115341706e+00 3.0088806563e+00 5.2115341706e+00 
114600 6.7916368237e+00 -6.9739665164e-05 3.0088806563e+00 -5.2115341706e+00 3.0088806563e+00 5.2115341706e+00 
114700 6.7916368259e+00 -6.9786979059e-05 3.0088806563e+00 -5.2115341706e+00 3.0088806563e+00 5.2115341706e+00 
114800 6.7916368281e+00 -6.9837979734e-05 3.0088806563e+00 -5.2115341706e+00 3.0088806563e+00 5.2115341706e+00 
114900 6.7916368303e+00 -6.9892511155e-05 3.0088806563e+00 -5.2115341706e+00 3.0088806563e+00 5.2115341706e+00 
115000 6.7916368324e+00 -6.9950417758e-05 3.0088806563e+00 -5.2115341706e+00 3.0088806563e+00 5.2115341706e+00 
115100 6.7916368346e+00 -7.0011544262e-05 3.0088806563e+00 -5.2115341706e+00 3.0088806563e+00 5.2115341706e+00 
115200 6.7916368367e+00 -7.0075735557e-05 3.0088806563e+00 -5.2115341706e+00 3.0088806563e+00 5.2115341706e+00 
115300 6.7916368387e+00 -7.0142836642e-05 3.0088806563e+00 -5.2115341706e+00 3.0088806563e+00 5.2115341706e+00 
115400 6.7916368408e+00 -7.0212692599e-05 3.0088806563e+00 -5.2115341706e+00 3.0088806563e+00 5.2115341706e+00 
115500 6.7916368428e+00 -7.0285148610e-05 3.0088806563e+00 -5.2115341706e+00 3.0088806563e+00 5.2115341706e+00 
115600 6.7916368448e+00 -7.0360050005e-05 3.0088806563e+00 -5.2115341706e+00 3.0088806563e+00 5.2115341706e+00 
115700 6.7916368468e+00 -7.0437242318e-05 3.0088806563e+00 -5.2115341706e+00 3.0088806563e+00 5.2115341706e+00 
115800 6.7916368487e+00 -7.0516571388e-05 3.0088806563e+00 -5.2115341706e+00 3.0088806563e+00 5.2115341706e+00 
115900 6.7916368507e+00 -7.0597883458e-05 3.0088806563e+00 -5.2115341706e+00 3.0088806563e+00 5.2115341706e+00 
116000 6.7916368526e+00 -7.0681025299e-05 3.0088806563e+00 -5.2115341706e+00 3.0088806563e+00 5.2115341706e+00 
116100 6.7916368544e+00 -7.0765844324e-05 3.0088806563e+00 -5.2115341706e+00 3.0088806563e+00 5.2115341706e+00 
116200 6.7916368563e+00 -7.0045450827e-05 3.0088818322e+00 -5.2115362074e+00 3.0088818322e+00 5.2115362074e+00 
116300 6.7916368581e+00 -7.0122116665e-05 3.0088818322e+00 -5.2115362074e+00 3.0088818322e+00 5.2115362074e+00 
116400 6.7916368599e+00 -7.0200497550e-05 3.0088818322e+00 -5.2115362074e+00 3.0088818322e+00 5.2115362074e+00 
116500 6.7916368617e+00 -7.0280379264e-05 3.0088818322e+00 -5.2115362074e+00 3.0088818322e+00 5.2115362074e+00 
116600 6.7916368635e+00 -7.0361558855e-05 3.0088818322e+00 -5.2115362074e+00 3.0088818322e+00 5.2115362074e+00 
116700 6.7916368652e+00 -7.0443843355e-05 3.0088818322e+00 -5.2115362074e+00 3.0088818322e+00 5.2115362074e+00 
116800 6.7916368670e+00 -7.0527048734e-05 3.0088818322e+00 -5.2115362074e+00 3.0088818322e+00 5.2115362074e+00 
116900 6.7916368687e+00 -7.0610999003e-05 3.0088818322e+00 -5.2115362074e+00 3.0088818322e+00 5.2115362074e+00 
117000 6.7916368704e+00 -7.0695525481e-05 3.0088818322e+00 -5.2115362074e+00 3.0088818322e+00 5.2115362074e+00 
117100 6.7916368720e+00 -7.0780466168e-05 3.0088818322e+00 -5.2115362074e+00 3.0088818322e+00 5.2115362074e+00 
117200 6.7916368736e+00 -7.0058750546e-05 3.0088830084e+00 -5.2115382446e+00 3.0088830084e+00 5.2115382446e+00 
117300 6.7916368752e+00 -7.0133003477e-05 3.0088830084e+00 -5.2115382446e+00 3.0088830084e+00 5.2115382446e+00 
117400 6.7916368769e+00 -7.0207710148e-05 3.0088830084e+00 -5.2115382446e+00 3.0088830084e+00 5.2115382446e+00 
117500 6.7916368784e+00 -7.0282665145e-05 3.0088830084e+00 -5.2115382446e+00 3.0088830084e+00 5.2115382446e+00 
117600 6.7916368800e+00 -7.0357677687e-05 3.0088830084e+00 -5.2115382446e+00 3.0088830084e+00 5.2115382446e+00 
117700 6.7916368816e+00 -7.0432570004e-05 3.0088830084e+00 -5.2115382446e+00 3.0088830084e+00 5.2115382446e+00 
117800 6.7916368831e+00 -7.0507175935e-05 3.0088830084e+00 -5.2115382446e+00 3.0088830084e+00 5.2115382446e+00 
117900 6.7916368846e+00 -7.0581339745e-05 3.0088830084e+00 -5.2115382446e+00 3.0088830084e+00 5.2115382446e+00 
118000 6.7916368861e+00 -7.0654915109e-05 3.0088830084e+00 -5.2115382446e+00 3.0088830084e+00 5.2115382446e+00 
118100 6.7916368876e+00 -7.0727764247e-05 3.0088830084e+00 -5.2115382446e+00 3.0088830084e+00 5.2115382446e+00 
118200 6.7916368890e+00 -6.9993434647e-05 3.0088841837e+00 -5.2115402803e+00 3.0088841837e+00 5.2115402803e+00 
118300 6.7916368904e+00 -7.0053403308e-05 3.0088841837e+00 -5.2115402803e+00 3.0088841837e+00 5.2115402803e+00 
118400 6.7916368919e+00 -7.0112766496e-05 3.0088841837e+00 -5.2115402803e+00 3.0088841837e+00 5.2115402803e+00 
118500 6.7916368933e+00 -7.0171348461e-05 3.0088841837e+00 -5.2115402803e+00 3.0088841837e+00 5.2115402803e+00 
118600 6.7916368946e+00 -7.0228989019e-05 3.0088841837e+00 -5.2115402803e+00 3.0088841837e+00 5.2115402803e+00 
118700 6.7916368960e+00 -7.0285541761e-05 3.0088841837e+00 -5.2115402803e+00 3.0088841837e+00 5.2115402803e+00 
118800 6.7916368974e+00 -7.0340872538e-05 3.0088841837e+00 -5.2115402803e+00 3.0088841837e+00 5.2115402803e+00 
118900 6.7916368987e+00 -7.0394858161e-05 3.0088841837e+00 -5.2115402803e+00 3.0088841837e+00 5.2115402803e+00 
119000 6.7916369000e+00 -7.0447385265e-05 3.0088841837e+00 -5.2115402803e+00 3.0088841837e+00 5.2115402803e+00 
119100 6.7916369013e+00 -7.0498349347e-05 3.0088841837e+00 -5.2115402803e+00 3.0088841837e+00 5.2115402803e+00 
119200 6.7916369026e+00 -7.0547653920e-05 3.0088841837e+00 -5.2115402803e+00 3.0088841837e+00 5.2115402803e+00 
119300 6.7916369039e+00 -7.0595209781e-05 3.0088841837e+00 -5.2115402803e+00 3.0088841837e+00 5.2115402803e+00 
119400 6.7916369051e+00 -7.0640934360e-05 3.0088841837e+00 -5.2115402803e+00 3.0088841837e+00 5.2115402803e+00 
119500 6.7916369064e+00 -7.0684751176e-05 3.0088841837e+00 -5.2115402803e+00 3.0088841837e+00 5.2115402803e+00 
119600 6.7916369076e+00 -7.0726589320e-05 3.0088841837e+00 -5.2115402803e+00 3.0088841837e+00 5.2115402803e+00 
119700 6.7916369088e+00 -6.9960062340e-05 3.0088853590e+00 -5.2115423160e+00 3.0088853590e+00 5.2115423160e+00 
119800 6.7916369100e+00 -6.9986706890e-05 3.0088853590e+00 -5.2115423160e+00 3.0088853590e+00 5.2115423160e+00 
119900 6.7916369111e+00 -7.0011679235e-05 3.0088853590e+00 -5.2115423160e+00 3.0088853590e+00 5.2115423160e+00 
120000 6.7916369123e+00 -7.0034861429e-05 3.0088853590e+00 -5.2115423160e+00 3.0088853590e+00 5.2115423160e+00 
120100 6.7916369135e+00 -7.0056149296e-05 3.0088853590e+00 -5.2115423160e+00 3.0088853590e+00 5.2115423160e+00 
120200 6.7916369146e+00 -7.0075450783e-05 3.0088853590e+00 -5.2115423160e+00 3.0088853590e+00 5.2115423160e+00 
120300 6.7916369157e+00 -7.0092684550e-05 3.0088853590e+00 -5.2115423160e+00 3.0088853590e+00 5.2115423160e+00 
120400 6.7916369168e+00 -7.0107778771e-05 3.0088853590e+00 -5.2115423160e+00 3.0088853590e+00 5.2115423160e+00 
120500 6.7916369179e+00 -7.0120670086e-05 3.0088853590e+00 -5.2115423160e+00 3.0088853590e+00 5.2115423160e+00 
120600 6.7916369190e+00 -7.0131302710e-05 3.0088853590e+00 -5.2115423160e+00 3.0088853590e+00 5.2115423160e+00 
120700 6.7916369201e+00 -7.0139627634e-05 3.0088853590e+00 -5.2115423160e+00 3.0088853590e+00 5.2115423160e+00 
120800 6.7916369211e+00 -7.0145601942e-05 3.0088853590e+00 -5.2115423160e+00 3.0088853590e+00 5.2115423160e+00 
120900 6.7916369222e+00 -7.0149188214e-05 3.0088853590e+00 -5.2115423160e+00 3.0088853590e+00 5.2115423160e+00 
121000 6.7916369232e+00 -7.0150353990e-05 3.0088853590e+00 -5.2115423160e+00 3.0088853590e+00 5.2115423160e+00 
121100 6.7916369242e+00 -7.0149071306e-05 3.0088853590e+00 -5.2115423160e+00 3.0088853590e+00 5.2115423160e+00 
121200 6.7916369252e+00 -7.0145316290e-05 3.0088853590e+00 -5.2115423160e+00 3.0088853590e+00 5.2115423160e+00 
121300 6.7916369262e+00 -7.0139068789e-05 3.0088853590e+00 -5.2115423160e+00 3.0088853590e+00 5.2115423160e+00 
121400 6.7916369272e+00 -7.0130312057e-05 3.0088853590e+00 -5.2115423160e+00 3.0088853590e+00 5.2115423160e+00 
121500 6.7916369281e+00 -7.0119032464e-05 3.0088853590e+00 -5.2115423160e+00 3.0088853590e+00 5.2115423160e+00 
121600 6.7916369291e+00 -7.0105219244e-05 3.0088853590e+00 -5.2115423160e+00 3.0088853590e+00 5.2115423160e+00 
121700 6.7916369300e+00 -7.0088864263e-05 3.0088853590e+00 -5.2115423160e+00 3.0088853590e+00 5.2115423160e+00 
121800 6.7916369309e+00 -7.0069961827e-05 3.0088853590e+00 -5.2115423160e+00 3.0088853590e+00 5.2115423160e+00 
121900 6.7916369319e+00 -7.0048508490e-05 3.0088853590e+00 -5.2115423160e+00 3.0088853590e+00 5.2115423160e+00 
122000 6.7916369328e+00 -7.0024502899e-05 3.0088853590e+00 -5.2115423160e+00 3.0088853590e+00 5.2115423160e+00 
122100 6.7916369336e+00 -6.9997945640e-05 3.0088853590e+00 -5.2115423160e+00 3.0088853590e+00 5.2115423160e+00 
122200 6.7916369345e+00 -6.9968839109e-05 3.0088853590e+00 -5.2115423160e+00 3.0088853590e+00 5.2115423160e+00 
122300 6.7916369354e+00 -6.9937187396e-05 3.0088853590e+00 -5.2115423160e+00 3.0088853590e+00 5.2115423160e+00 
122400 6.7916369363e+00 -6.9902996175e-05 3.0088853590e+00 -5.2115423160e+00 3.0088853590e+00 5.2115423160e+00 
122500 6.7916369371e+00 -6.9866272593e-05 3.0088853590e+00 -5.2115423160e+00 3.0088853590e+00 5.2115423160e+00 
122600 6.7916369379e+00 -6.9827025196e-05 3.0088853590e+00 -5.2115423160e+00 3.0088853590e+00 5.2115423160e+00 
122700 6.7916369388e+00 -6.9785263834e-05 3.0088853590e+00 -5.2115423160e+00 3.0088853590e+00 5.2115423160e+00 
122800 6.7916369396e+00 -6.9740999594e-05 3.0088853590e+00 -5.2115423160e+00 3.0088853590e+00 5.2115423160e+00 
122900 6.7916369404e+00 -6.9694244714e-05 3.0088853590e+00 -5.2115423160e+00 3.0088853590e+00 5.2115423160e+00 
123000 6.7916369412e+00 -6.9645012534e-05 3.0088853590e+00 -5.2115423160e+00 3.0088853590e+00 5.2115423160e+00 
123100 6.7916369420e+00 -6.9593317424e-05 3.0088853590e+00 -5.2115423160e+00 3.0088853590e+00 5.2115423160e+00 
123200 6.7916369427e+00 -6.9539174733e-05 3.0088853590e+00 -5.2115423160e+00 3.0088853590e+00 5.2115423160e+00 
123300 6.7916369435e+00 -6.9482600734e-05 3.0088853590e+00 -5.2115423160e+00 3.0088853590e+00 5.2115423160e+00 
123400 6.7916369442e+00 -6.9423612570e-05 3.0088853590e+00 -5.2115423160e+00 3.0088853590e+00 5.2115423160e+00 
123500 6.7916369450e+00 -6.9362228215e-05 3.0088853590e+00 -5.2115423160e+00 3.0088853590e+00 5.2115423160e+00 
123600 6.7916369457e+00 -6.9298466419e-05 3.0088853590e+00 -5.2115423160e+00 3.0088853590e+00 5.2115423160e+00 
123700 6.7916369464e+00 -6.9232346675e-05 3.0088853590e+00 -5.2115423160e+00 3.0088853590e+00 5.2115423160e+00 
123800 6.7916369472e+00 -6.9163889174e-05 3.0088853590e+00 -5.2115423160e+00 3.0088853590e+00 5.2115423160e+00 
123900 6.7916369479e+00 -6.9093114770e-05 3.0088853590e+00 -5.2115423160e+00 3.0088853590e+00 5.2115423160e+00 
124000 6.7916369486e+00 -6.9020044941e-05 3.0088853590e+00 -5.2115423160e+00 3.0088853590e+00 5.2115423160e+00 
124100 6.7916369492e+00 -6.8944701753e-05 3.0088853590e+00 -5.2115423160e+00 3.0088853590e+00 5.2115423160e+00 
124200 6.7916369499e+00 -6.8867107825e-05 3.0088853590e+00 -5.2115423160e+00 3.0088853590e+00 5.2115423160e+00 
124300 6.7916369506e+00 -6.8787286309e-05 3.0088853590e+00 -5.2115423160e+00 3.0088853590e+00 5.2115423160e+00 
124400 6.7916369513e+00 -6.8705260845e-05 3.0088853590e+00 -5.2115423160e+00 3.0088853590e+00 5.2115423160e+00 
124500 6.7916369519e+00 -6.8621055535e-05 3.0088853590e+00 -5.2115423160e+00 3.0088853590e+00 5.2115423160e+00 
124600 6.7916369526e+00 -6.8534694922e-05 3.0088853590e+00 -5.2115423160e+00 3.0088853590e+00 5.2115423160e+00 
124700 6.7916369532e+00 -6.8446203953e-05 3.0088853590e+00 -5.2115423160e+00 3.0088853590e+00 5.2115423160e+00 
124800 6.7916369538e+00 -6.8355607956e-05 3.0088853590e+00 -5.2115423160e+00 3.0088853590e+00 5.2115423160e+00 
124900 6.7916369544e+00 -6.8262932617e-05 3.0088853590e+00 -5.2115423160e+00 3.0088853590e+00 5.2115423160e+00 
125000 6.7916369550e+00 -6.8168203951e-05 3.0088853590e+00 -5.2115423160e+00 3.0088853590e+00 5.2115423160e+00 
125100 6.7916369556e+00 -6.8071448280e-05 3.0088853590e+00 -5.2115423160e+00 3.0088853590e+00 5.2115423160e+00 
125200 6.7916369562e+00 -6.7972692208e-05 3.0088853590e+00 -5.2115423160e+00 3.0088853590e+00 5.2115423160e+00 
125300 6.7916369568e+00 -6.7871962603e-05 3.0088853590e+00 -5.2115423160e+00 3.0088853590e+00 5.2115423160e+00 
125400 6.7916369574e+00 -6.7769286569e-05 3.0088853590e+00 -5.2115423160e+00 3.0088853590e+00 5.2115423160e+00 
125500 6.7916369580e+00 -6.7664691429e-05 3.0088853590e+00 -5.2115423160e+00 3.0088853590e+00 5.2115423160e+00 
125600 6.7916369585e+00 -6.7558204706e-05 3.0088853590e+00 -5.2115423160e+00 3.0088853590e+00 5.2115423160e+00 
125700 6.7916369591e+00 -6.7449854097e-05 3.0088853590e+00 -5.2115423160e+00 3.0088853590e+00 5.2115423160e+00 
125800 6.7916369596e+00 -6.7339667464e-05 3.0088853590e+00 -5.2115423160e+00 3.0088853590e+00 5.2115423160e+00 
125900 6.7916369602e+00 -6.7227672806e-05 3.0088853590e+00 -5.2115423160e+00 3.0088853590e+00 5.2115423160e+00 
126000 6.7916369607e+00 -6.7113898244e-05 3.0088853590e+00 -5.2115423160e+00 3.0088853590e+00 5.2115423160e+00 
126100 6.7916369612e+00 -6.6998372002e-05 3.0088853590e+00 -5.2115423160e+00 3.0088853590e+00 5.2115423160e+00 
126200 6.7916369618e+00 -6.6881122400e-05 3.0088853590e+00 -5.2115423160e+00 3.0088853590e+00 5.2115423160e+00 
126300 6.7916369623e+00 -6.6762177823e-05 3.0088853590e+00 -5.2115423160e+00 3.0088853590e+00 5.2115423160e+00 
126400 6.7916369628e+00 -6.6641566718e-05 3.0088853590e+00 -5.2115423160e+00 3.0088853590e+00 5.2115423160e+00 
126500 6.7916369633e+00 -6.6519317567e-05 3.0088853590e+00 -5.2115423160e+00 3.0088853590e+00 5.2115423160e+00 
126600 6.7916369638e+00 -6.6395458890e-05 3.0088853590e+00 -5.2115423160e+00 3.0088853590e+00 5.2115423160e+00 
126700 6.7916369643e+00 -6.6270019208e-05 3.0088853590e+00 -5.2115423160e+00 3.0088853590e+00 5.2115423160e+00 
126800 6.7916369647e+00 -6.6143027051e-05 3.0088853590e+00 -5.2115423160e+00 3.0088853590e+00 5.2115423160e+00 
126900 6.7916369652e+00 -6.6014510929e-05 3.0088853590e+00 -5.2115423160e+00 3.0088853590e+00 5.2115423160e+00 
127000 6.7916369657e+00 -6.5884499329e-05 3.0088853590e+00 -5.2115423160e+00 3.0088853590e+00 5.2115423160e+00 
127100 6.7916369661e+00 -6.5753020697e-05 3.0088853590e+00 -5.2115423160e+00 3.0088853590e+00 5.2115423160e+00 
127200 6.7916369666e+00 -6.5620103432e-05 3.0088853590e+00 -5.2115423160e+00 3.0088853590e+00 5.2115423160e+00 
127300 6.7916369670e+00 -6.5485775871e-05 3.0088853590e+00 -5.2115423160e+00 3.0088853590e+00 5.2115423160e+00 
127400 6.7916369675e+00 -6.5350066277e-05 3.0088853590e+00 -5.2115423160e+00 3.0088853590e+00 5.2115423160e+00 
127500 6.7916369679e+00 -6.5213002834e-05 3.0088853590e+00 -5.2115423160e+00 3.0088853590e+00 5.2115423160e+00 
127600 6.7916369684e+00 -6.5074613626e-05 3.0088853590e+00 -5.2115423160e+00 3.0088853590e+00 5.2115423160e+00 
127700 6.7916369688e+00 -6.4934926644e-05 3.0088853590e+00 -5.2115423160e+00 3.0088853590e+00 5.2115423160e+00 
127800 6.7916369692e+00 -6.4793969760e-05 3.0088853590e+00 -5.2115423160e+00 3.0088853590e+00 5.2115423160e+00 
127900 6.7916369696e+00 -6.4651770732e-05 3.0088853590e+00 -5.2115423160e+00 3.0088853590e+00 5.2115423160e+00 
128000 6.7916369700e+00 -6.4508357187e-05 3.0088853590e+00 -5.2115423160e+00 3.0088853590e+00 5.2115423160e+00 
128100 6.7916369704e+00 -6.4363756612e-05 3.0088853590e+00 -5.2115423160e+00 3.0088853590e+00 5.2115423160e+00 
128200 6.7916369708e+00 -6.4217996358e-05 3.0088853590e+00 -5.2115423160e+00 3.0088853590e+00 5.2115423160e+00 
128300 6.7916369712e+00 -6.4071103612e-05 3.0088853590e+00 -5.2115423160e+00 3.0088853590e+00 5.2115423160e+00 
128400 6.7916369716e+00 -6.3923105416e-05 3.0088853590e+00 -5.2115423160e+00 3.0088853590e+00 5.2115423160e+00 
128500 6.7916369720e+00 -6.3774028641e-05 3.0088853590e+00 -5.2115423160e+00 3.0088853590e+00 5.2115423160e+00 
128600 6.7916369724e+00 -6.3623899979e-05 3.0088853590e+00 -5.2115423160e+00 3.0088853590e+00 5.2115423160e+00 
128700 6.7916369727e+00 -6.3472745957e-05 3.0088853590e+00 -5.2115423160e+00 3.0088853590e+00 5.2115423160e+00 
128800 6.7916369731e+00 -6.3320592910e-05 3.0088853590e+00 -5.2115423160e+00 3.0088853590e+00 5.2115423160e+00 
128900 6.7916369735e+00 -6.3167466988e-05 3.0088853590e+00 -5.2115423160e+00 3.0088853590e+00 5.2115423160e+00 
129000 6.7916369738e+00 -6.3013394146e-05 3.0088853590e+00 -5.2115423160e+00 3.0088853590e+00 5.2115423160e+00 
129100 6.7916369742e+00 -6.2858400135e-05 3.0088853590e+00 -5.2115423160e+00 3.0088853590e+00 5.2115423160e+00 
129200 6.7916369745e+00 -6.2702510511e-05 3.0088853590e+00 -5.2115423160e+00 3.0088853590e+00 5.2115423160e+00 
129300 6.7916369748e+00 -6.2545750618e-05 3.0088853590e+00 -5.2115423160e+00 3.0088853590e+00 5.2115423160e+00 
129400 6.7916369752e+00 -6.2388145586e-05 3.0088853590e+00 -5.2115423160e+00 3.0088853590e+00 5.2115423160e+00 
129500 6.7916369755e+00 -6.2229720334e-05 3.0088853590e+00 -5.2115423160e+00 3.0088853590e+00 5.2115423160e+00 
129600 6.7916369758e+00 -6.2070499556e-05 3.0088853590e+00 -5.2115423160e+00 3.0088853590e+00 5.2115423160e+00 
129700 6.7916369762e+00 -6.1910507727e-05 3.0088853590e+00 -5.2115423160e+00 3.0088853590e+00 5.2115423160e+00 
129800 6.7916369765e+00 -6.1749769094e-05 3.0088853590e+00 -5.2115423160e+00 3.0088853590e+00 5.2115423160e+00 
129900 6.7916369768e+00 -6.1588307673e-05 3.0088853590e+00 -5.2115423160e+00 3.0088853590e+00 5.2115423160e+00 
130000 6.7916369771e+00 -6.1426147254e-05 3.0088853590e+00 -5.2115423160e+00 3.0088853590e+00 5.2115423160e+00 
130100 6.7916369774e+00 -6.1263311388e-05 3.0088853590e+00 -5.2115423160e+00 3.0088853590e+00 5.2115423160e+00 
130200 6.7916369777e+00 -6.1099823387e-05 3.0088853590e+00 -5.2115423160e+00 3.0088853590e+00 5.2115423160e+00 
130300 6.7916369780e+00 -6.0935706331e-05 3.0088853590e+00 -5.2115423160e+00 3.0088853590e+00 5.2115423160e+00 
130400 6.7916369783e+00 -6.0770983058e-05 3.0088853590e+00 -5.2115423160e+00 3.0088853590e+00 5.2115423160e+00 
130500 6.7916369786e+00 -6.0605676155e-05 3.0088853590e+00 -5.2115423160e+00 3.0088853590e+00 5.2115423160e+00 
130600 6.7916369789e+00 -6.0439807972e-05 3.0088853590e+00 -5.2115423160e+00 3.0088853590e+00 5.2115423160e+00 
130700 6.7916369792e+00 -6.0273400611e-05 3.0088853590e+00 -5.2115423160e+00 3.0088853590e+00 5.2115423160e+00 
130800 6.7916369794e+00 -6.0106475929e-05 3.0088853590e+00 -5.2115423160e+00 3.0088853590e+00 5.2115423160e+00 
130900 6.7916369797e+00 -5.9939055528e-05 3.0088853590e+00 -5.2115423160e+00 3.0088853590e+00 5.2115423160e+00 
131000 6.7916369800e+00 -5.9771160768e-05 3.0088853590e+00 -5.2115423160e+00 3.0088853590e+00 5.2115423160e+00 
131100 6.7916369803e+00 -5.9602812755e-05 3.0088853590e+00 -5.2115423160e+00 3.0088853590e+00 5.2115423160e+00 
131200 6.7916369805e+00 -5.9434032340e-05 3.0088853590e+00 -5.2115423160e+00 3.0088853590e+00 5.2115423160e+00 
131300 6.7916369808e+00 -5.9264840129e-05 3.0088853590e+00 -5.2115423160e+00 3.0088853590e+00 5.2115423160e+00 
131400 6.7916369810e+00 -5.9095256473e-05 3.0088853590e+00 -5.2115423160e+00 3.0088853590e+00 5.2115423160e+00 
131500 6.7916369813e+00 -5.8925301466e-05 3.0088853590e+00 -5.2115423160e+00 3.0088853590e+00 5.2115423160e+00 
131600 6.7916369815e+00 -5.8754994956e-05 3.0088853590e+00 -5.2115423160e+00 3.0088853590e+00 5.2115423160e+00 
131700 6.7916369818e+00 -5.8584356531e-05 3.0088853590e+00 -5.2115423160e+00 3.0088853590e+00 5.2115423160e+00 
131800 6.7916369820e+00 -5.8413405529e-05 3.0088853590e+00 -5.2115423160e+00 3.0088853590e+00 5.2115423160e+00 
131900 6.7916369823e+00 -5.8242161032e-05 3.0088853590e+00 -5.2115423160e+00 3.0088853590e+00 5.2115423160e+00 
132000 6.7916369825e+00 -5.8070641870e-05 3.0088853590e+00 -5.2115423160e+00 3.0088853590e+00 5.2115423160e+00 
132100 6.7916369827e+00 -5.7898866620e-05 3.0088853590e+00 -5.2115423160e+00 3.0088853590e+00 5.2115423160e+00 
132200 6.7916369830e+00 -5.7726853605e-05 3.0088853590e+00 -5.2115423160e+00 3.0088853590e+00 5.2115423160e+00 
132300 6.7916369832e+00 -5.7554620894e-05 3.0088853590e+00 -5.2115423160e+00 3.0088853590e+00 5.2115423160e+00 
132400 6.7916369834e+00 -5.7382186307e-05 3.0088853590e+00 -5.2115423160e+00 3.0088853590e+00 5.2115423160e+00 
132500 6.7916369836e+00 -5.7209567410e-05 3.0088853590e+00 -5.2115423160e+00 3.0088853590e+00 5.2115423160e+00 
132600 6.7916369838e+00 -5.7036781521e-05 3.0088853590e+00 -5.2115423160e+00 3.0088853590e+00 5.2115423160e+00 
132700 6.7916369841e+00 -5.6863845702e-05 3.0088853590e+00 -5.2115423160e+00 3.0088853590e+00 5.2115423160e+00 
132800 6.7916369843e+00 -5.6690776766e-05 3.0088853590e+00 -5.2115423160e+00 3.0088853590e+00 5.2115423160e+00 
132900 6.7916369845e+00 -5.6517591282e-05 3.0088853590e+00 -5.2115423160e+00 3.0088853590e+00 5.2115423160e+00 
133000 6.7916369847e+00 -5.6344305567e-05 3.0088853590e+00 -5.2115423160e+00 3.0088853590e+00 5.2115423160e+00 
133100 6.7916369849e+00 -5.6170935689e-05 3.0088853590e+00 -5.2115423160e+00 3.0088853590e+00 5.2115423160e+00 
133200 6.7916369851e+00 -5.5997497476e-05 3.0088853590e+00 -5.2115423160e+00 3.0088853590e+00 5.2115423160e+00 
133300 6.7916369853e+00 -5.5824006503e-05 3.0088853590e+00 -5.2115423160e+00 3.0088853590e+00 5.2115423160e+00 
133400 6.7916369855e+00 -5.5650478104e-05 3.0088853590e+00 -5.2115423160e+00 3.0088853590e+00 5.2115423160e+00 
133500 6.7916369857e+00 -5.5476927373e-05 3.0088853590e+00 -5.2115423160e+00 3.0088853590e+00 5.2115423160e+00 
133600 6.7916369858e+00 -5.5303369157e-05 3.0088853590e+00 -5.2115423160e+00 3.0088853590e+00 5.2115423160e+00 
133700 6.7916369860e+00 -5.5129818066e-05 3.0088853590e+00 -5.2115423160e+00 3.0088853590e+00 5.2115423160e+00 
133800 6.7916369862e+00 -5.4956288468e-05 3.0088853590e+00 -5.2115423160e+00 3.0088853590e+00 5.2115423160e+00 
133900 6.7916369864e+00 -5.4782794492e-05 3.0088853590e+00 -5.2115423160e+00 3.0088853590e+00 5.2115423160e+00 
134000 6.7916369866e+00 -5.4609350033e-05 3.0088853590e+00 -5.2115423160e+00 3.0088853590e+00 5.2115423160e+00 
134100 6.7916369867e+00 -5.4435968750e-05 3.0088853590e+00 -5.2115423160e+00 3.0088853590e+00 5.2115423160e+00 
134200 6.7916369869e+00 -5.4262664067e-05 3.0088853590e+00 -5.2115423160e+00 3.0088853590e+00 5.2115423160e+00 
134300 6.7916369871e+00 -5.4089449173e-05 3.0088853590e+00 -5.2115423160e+00 3.0088853590e+00 5.2115423160e+00 
134400 6.7916369872e+00 -5.3916337031e-05 3.0088853590e+00 -5.2115423160e+00 3.0088853590e+00 5.2115423160e+00 
134500 6.7916369874e+00 -5.3743340370e-05 3.0088853590e+00 -5.2115423160e+00 3.0088853590e+00 5.2115423160e+00 
134600 6.7916369876e+00 -5.3570471692e-05 3.0088853590e+00 -5.2115423160e+00 3.0088853590e+00 5.2115423160e+00 
134700 6.7916369877e+00 -5.3397743273e-05 3.0088853590e+00 -5.2115423160e+00 3.0088853590e+00 5.2115423160e+00 
134800 6.7916369879e+00 -5.3225167166e-05 3.0088853590e+00 -5.2115423160e+00 3.0088853590e+00 5.2115423160e+00 
134900 6.7916369881e+00 -5.3052755200e-05 3.0088853590e+00 -5.2115423160e+00 3.0088853590e+00 5.2115423160e+00 
135000 6.7916369882e+00 -5.2880518976e-05 3.0088853590e+00 -5.2115423160e+00 3.0088853590e+00 5.2115423160e+00 
135100 6.7916369884e+00 -5.2708469881e-05 3.0088853590e+00 -5.2115423160e+00 3.0088853590e+00 5.2115423160e+00 
135200 6.7916369885e+00 -5.2536619086e-05 3.0088853590e+00 -5.2115423160e+00 3.0088853590e+00 5.2115423160e+00 
135300 6.7916369887e+00 -5.2364977540e-05 3.0088853590e+00 -5.2115423160e+00 3.0088853590e+00 5.2115423160e+00 
135400 6.7916369888e+00 -5.2193555979e-05 3.0088853590e+00 -5.2115423160e+00 3.0088853590e+00 5.2115423160e+00 
135500 6.7916369889e+00 -5.2022364927e-05 3.0088853590e+00 -5.2115423160e+00 3.0088853590e+00 5.2115423160e+00 
135600 6.7916369891e+00 -5.1851414697e-05 3.0088853590e+00 -5.2115423160e+00 3.0088853590e+00 5.2115423160e+00 
135700 6.7916369892e+00 -5.1680715393e-05 3.0088853590e+00 -5.2115423160e+00 3.0088853590e+00 5.2115423160e+00 
135800 6.7916369894e+00 -5.1510276905e-05 3.0088853590e+00 -5.2115423160e+00 3.0088853590e+00 5.2115423160e+00 
135900 6.7916369895e+00 -5.1340108928e-05 3.0088853590e+00 -5.2115423160e+00 3.0088853590e+00 5.2115423160e+00 
136000 6.7916369896e+00 -5.1170220945e-05 3.0088853590e+00 -5.2115423160e+00 3.0088853590e+00 5.2115423160e+00 
136100 6.7916369898e+00 -5.1000622238e-05 3.0088853590e+00 -5.2115423160e+00 3.0088853590e+00 5.2115423160e+00 
136200 6.7916369899e+00 -5.0831321894e-05 3.0088853590e+00 -5.2115423160e+00 3.0088853590e+00 5.2115423160e+00 
136300 6.7916369900e+00 -5.0662328796e-05 3.0088853590e+00 -5.2115423160e+00 3.0088853590e+00 5.2115423160e+00 
136400 6.7916369901e+00 -5.0493651635e-05 3.0088853590e+00 -5.2115423160e+00 3.0088853590e+00 5.2115423160e+00 
136500 6.7916369903e+00 -5.0325298904e-05 3.0088853590e+00 -5.2115423160e+00 3.0088853590e+00 5.2115423160e+00 
136600 6.7916369904e+00 -5.0157278907e-05 3.0088853590e+00 -5.2115423160e+00 3.0088853590e+00 5.2115423160e+00 
136700 6.7916369905e+00 -4.9989599753e-05 3.0088853590e+00 -5.2115423160e+00 3.0088853590e+00 5.2115423160e+00 
136800 6.7916369906e+00 -4.9822269368e-05 3.0088853590e+00 -5.2115423160e+00 3.0088853590e+00 5.2115423160e+00 
136900 6.7916369907e+00 -4.9655295490e-05 3.0088853590e+00 -5.2115423160e+00 3.0088853590e+00 5.2115423160e+00 
137000 6.7916369909e+00 -4.9488685672e-05 3.0088853590e+00 -5.2115423160e+00 3.0088853590e+00 5.2115423160e+00 
137100 6.7916369910e+00 -4.9322447283e-05 3.0088853590e+00 -5.2115423160e+00 3.0088853590e+00 5.2115423160e+00 
137200 6.7916369911e+00 -4.9156587516e-05 3.0088853590e+00 -5.2115423160e+00 3.0088853590e+00 5.2115423160e+00 
137300 6.7916369912e+00 -4.8991113380e-05 3.0088853590e+00 -5.2115423160e+00 3.0088853590e+00 5.2115423160e+00 
137400 6.7916369913e+00 -4.8826031710e-05 3.0088853590e+00 -5.2115423160e+00 3.0088853590e+00 5.2115423160e+00 
137500 6.7916369914e+00 -4.8661349171e-05 3.0088853590e+00 -5.2115423160e+00 3.0088853590e+00 5.2115423160e+00 
137600 6.7916369915e+00 -4.8497072247e-05 3.0088853590e+00 -5.2115423160e+00 3.0088853590e+00 5.2115423160e+00 
137700 6.7916369916e+00 -4.8333207261e-05 3.0088853590e+00 -5.2115423160e+00 3.0088853590e+00 5.2115423160e+00 
137800 6.7916369917e+00 -4.8169760361e-05 3.0088853590e+00 -5.2115423160e+00 3.0088853590e+00 5.2115423160e+00 
137900 6.7916369918e+00 -4.8006737533e-05 3.0088853590e+00 -5.2115423160e+00 3.0088853590e+00 5.2115423160e+00 
138000 6.7916369919e+00 -4.7844144597e-05 3.0088853590e+00 -5.2115423160e+00 3.0088853590e+00 5.2115423160e+00 
138100 6.7916369920e+00 -4.7681987214e-05 3.0088853590e+00 -5.2115423160e+00 3.0088853590e+00 5.2115423160e+00 
138200 6.7916369921e+00 -4.7520270881e-05 3.0088853590e+00 -5.2115423160e+00 3.0088853590e+00 5.2115423160e+00 
138300 6.7916369922e+00 -4.7359000937e-05 3.0088853590e+00 -5.2115423160e+00 3.0088853590e+00 5.2115423160e+00 
138400 6.7916369923e+00 -4.7198182572e-05 3.0088853590e+00 -5.2115423160e+00 3.0088853590e+00 5.2115423160e+00 
138500 6.7916369924e+00 -4.7037820818e-05 3.0088853590e+00 -5.2115423160e+00 3.0088853590e+00 5.2115423160e+00 
138600 6.7916369925e+00 -4.6877920553e-05 3.0088853590e+00 -5.2115423160e+00 3.0088853590e+00 5.2115423160e+00 
138700 6.7916369926e+00 -4.6718486511e-05 3.0088853590e+00 -5.2115423160e+00 3.0088853590e+00 5.2115423160e+00 
138800 6.7916369927e+00 -4.6559523275e-05 3.0088853590e+00 -5.2115423160e+00 3.0088853590e+00 5.2115423160e+00 
138900 6.7916369928e+00 -4.6401035283e-05 3.0088853590e+00 -5.2115423160e+00 3.0088853590e+00 5.2115423160e+00 
139000 6.7916369928e+00 -4.6243026832e-05 3.0088853590e+00 -5.2115423160e+00 3.0088853590e+00 5.2115423160e+00 
139100 6.7916369929e+00 -4.6085502077e-05 3.0088853590e+00 -5.2115423160e+00 3.0088853590e+00 5.2115423160e+00 
139200 6.7916369930e+00 -4.5928465033e-05 3.0088853590e+00 -5.2115423160e+00 3.0088853590e+00 5.2115423160e+00 
139300 6.7916369931e+00 -4.5771919581e-05 3.0088853590e+00 -5.2115423160e+00 3.0088853590e+00 5.2115423160e+00 
139400 6.7916369932e+00 -4.5615869465e-05 3.0088853590e+00 -5.2115423160e+00 3.0088853590e+00 5.2115423160e+00 
139500 6.7916369932e+00 -4.5460318296e-05 3.0088853590e+00 -5.2115423160e+00 3.0088853590e+00 5.2115423160e+00 
139600 6.7916369933e+00 -4.5305269553e-05 3.0088853590e+00 -5.2115423160e+00 3.0088853590e+00 5.2115423160e+00 
139700 6.7916369934e+00 -4.5150726593e-05 3.0088853590e+00 -5.2115423160e+00 3.0088853590e+00 5.2115423160e+00 
139800 6.7916369935e+00 -4.4996692640e-05 3.0088853590e+00 -5.2115423160e+00 3.0088853590e+00 5.2115423160e+00 
139900 6.7916369936e+00 -4.4843170796e-05 3.0088853590e+00 -5.2115423160e+00 3.0088853590e+00 5.2115423160e+00 
140000 6.7916369936e+00 -4.4690164040e-05 3.0088853590e+00 -5.2115423160e+00 3.0088853590e+00 5.2115423160e+00 
140100 6.7916369937e+00 -4.4537675233e-05 3.0088853590e+00 -5.2115423160e+00 3.0088853590e+00 5.2115423160e+00 
140200 6.7916369938e+00 -4.4385707115e-05 3.0088853590e+00 -5.2115423160e+00 3.0088853590e+00 5.2115423160e+00 
140300 6.7916369938e+00 -4.4234262310e-05 3.0088853590e+00 -5.2115423160e+00 3.0088853590e+00 5.2115423160e+00 
140400 6.7916369939e+00 -4.4083343331e-05 3.0088853590e+00 -5.2115423160e+00 3.0088853590e+00 5.2115423160e+00 
140500 6.7916369940e+00 -4.3932952575e-05 3.0088853590e+00 -5.2115423160e+00 3.0088853590e+00 5.2115423160e+00 
140600 6.7916369941e+00 -4.3783092329e-05 3.0088853590e+00 -5.2115423160e+00 3.0088853590e+00 5.2115423160e+00 
140700 6.7916369941e+00 -4.3633764776e-05 3.0088853590e+00 -5.2115423160e+00 3.0088853590e+00 5.2115423160e+00 
140800 6.7916369942e+00 -4.3484971989e-05 3.0088853590e+00 -5.2115423160e+00 3.0088853590e+00 5.2115423160e+00 
140900 6.7916369943e+00 -4.3336715938e-05 3.0088853590e+00 -5.2115423160e+00 3.0088853590e+00 5.2115423160e+00 
141000 6.7916369943e+00 -4.3188998492e-05 3.0088853590e+00 -5.2115423160e+00 3.0088853590e+00 5.2115423160e+00 
141100 6.7916369944e+00 -4.3041821415e-05 3.0088853590e+00 -5.2115423160e+00 3.0088853590e+00 5.2115423160e+00 
141200 6.7916369944e+00 -4.2895186379e-05 3.0088853590e+00 -5.2115423160e+00 3.0088853590e+00 5.2115423160e+00 
141300 6.7916369945e+00 -4.2749094958e-05 3.0088853590e+00 -5.2115423160e+00 3.0088853590e+00 5.2115423160e+00 
141400 6.7916369946e+00 -4.2603548629e-05 3.0088853590e+00 -5.2115423160e+00 3.0088853590e+00 5.2115423160e+00 
141500 6.7916369946e+00 -4.2458548777e-05 3.0088853590e+00 -5.2115423160e+00 3.0088853590e+00 5.2115423160e+00 
141600 6.7916369947e+00 -4.2314096698e-05 3.0088853590e+00 -5.2115423160e+00 3.0088853590e+00 5.2115423160e+00 
141700 6.7916369947e+00 -4.2170193599e-05 3.0088853590e+00 -5.2115423160e+00 3.0088853590e+00 5.2115423160e+00 
141800 6.7916369948e+00 -4.2026840600e-05 3.0088853590e+00 -5.2115423160e+00 3.0088853590e+00 5.2115423160e+00 
141900 6.7916369948e+00 -4.1884038735e-05 3.0088853590e+00 -5.2115423160e+00 3.0088853590e+00 5.2115423160e+00 
142000 6.7916369949e+00 -4.1741788956e-05 3.0088853590e+00 -5.2115423160e+00 3.0088853590e+00 5.2115423160e+00 
142100 6.7916369950e+00 -4.1600092130e-05 3.0088853590e+00 -5.2115423160e+00 3.0088853590e+00 5.2115423160e+00 
142200 6.7916369950e+00 -4.1458949050e-05 3.0088853590e+00 -5.2115423160e+00 3.0088853590e+00 5.2115423160e+00 
142300 6.7916369951e+00 -4.1318360427e-05 3.0088853590e+00 -5.2115423160e+00 3.0088853590e+00 5.2115423160e+00 
142400 6.7916369951e+00 -4.1178326898e-05 3.0088853590e+00 -5.2115423160e+00 3.0088853590e+00 5.2115423160e+00 
142500 6.7916369952e+00 -4.1038849025e-05 3.0088853590e+00 -5.2115423160e+00 3.0088853590e+00 5.2115423160e+00 
142600 6.7916369952e+00 -4.0899927297e-05 3.0088853590e+00 -5.2115423160e+00 3.0088853590e+00 5.2115423160e+00 
142700 6.7916369953e+00 -4.0761562133e-05 3.0088853590e+00 -5.2115423160e+00 3.0088853590e+00 5.2115423160e+00 
142800 6.7916369953e+00 -4.0623753885e-05 3.0088853590e+00 -5.2115423160e+00 3.0088853590e+00 5.2115423160e+00 
142900 6.7916369954e+00 -4.0486502832e-05 3.0088853590e+00 -5.2115423160e+00 3.0088853590e+00 5.2115423160e+00 
143000 6.7916369954e+00 -4.0349809189e-05 3.0088853590e+00 -5.2115423160e+00 3.0088853590e+00 5.2115423160e+00 
143100 6.7916369955e+00 -4.0213673113e-05 3.0088853590e+00 -5.2115423160e+00 3.0088853590e+00 5.2115423160e+00 
143200 6.7916369955e+00 -4.0078094690e-05 3.0088853590e+00 -5.2115423160e+00 3.0088853590e+00 5.2115423160e+00 
143300 6.7916369955e+00 -3.9943073949e-05 3.0088853590e+00 -5.2115423160e+00 3.0088853590e+00 5.2115423160e+00 
143400 6.7916369956e+00 -3.9808610858e-05 3.0088853590e+00 -5.2115423160e+00 3.0088853590e+00 5.2115423160e+00 
143500 6.7916369956e+00 -3.9674705331e-05 3.0088853590e+00 -5.2115423160e+00 3.0088853590e+00 5.2115423160e+00 
143600 6.7916369957e+00 -3.9541357220e-05 3.0088853590e+00 -5.2115423160e+00 3.0088853590e+00 5.2115423160e+00 
143700 6.7916369957e+00 -3.9480204218e-05 3.0088853590e+00 -5.2115423160e+00 3.0088853590e+00 5.2115423160e+00 
143700 6.7916369957e+00 -3.9480204218e-05 3.0088853590e+00 -5.2115423160e+00 3.0088853590e+00 5.2115423160e+00 
