# step Hamiltonian StressXX CellTensor1 CellTensor2 CellTensor3 CellTensor4 
0 4.2862691796e+00 -1.7836882420e-01 1.3385767752e+00 -2.3184829844e+00 1.3385767752e+00 2.3184829844e+00 
100 4.2886347346e+00 -1.7561787528e-01 1.3385767752e+00 -2.3184829844e+00 1.3385767752e+00 2.3184829844e+00 
200 4.2889082820e+00 -1.7219634319e-01 1.3451419800e+00 -2.3298542528e+00 1.3451419800e+00 2.3298542528e+00 
300 4.2889538088e+00 -1.6908490996e-01 1.3515477075e+00 -2.3409492982e+00 1.3515477075e+00 2.3409492982e+00 
400 4.2888146247e+00 -1.6622744681e-01 1.3578077431e+00 -2.3517919980e+00 1.3578077431e+00 2.3517919980e+00 
500 4.2885244405e+00 -1.6357980818e-01 1.3639334919e+00 -2.3624021060e+00 1.3639334919e+00 2.3624021060e+00 
600 4.2881095698e+00 -1.6110723602e-01 1.3699344864e+00 -2.3727961334e+00 1.3699344864e+00 2.3727961334e+00 
700 4.2875906440e+00 -1.5878233388e-01 1.3758187822e+00 -2.3829880328e+00 1.3758187822e+00 2.3829880328e+00 
800 4.2869839479e+00 -1.5658348041e-01 1.3815932660e+00 -2.3929897320e+00 1.3815932660e+00 2.3929897320e+00 
900 4.2863024583e+00 -1.5449358358e-01 1.3872638959e+00 -2.4028115513e+00 1.3872638959e+00 2.4028115513e+00 
1000 4.2855566492e+00 -1.5249910040e-01 1.3928358900e+00 -2.4124625280e+00 1.3928358900e+00 2.4124625280e+00 
1100 4.2847551142e+00 -1.5058926427e-01 1.3983138722e+00 -2.4219506717e+00 1.3983138722e+00 2.4219506717e+00 
1200 4.2839050446e+00 -1.4875547565e-01 1.4037019881e+00 -2.4312831620e+00 1.4037019881e+00 2.4312831620e+00 
1300 4.2830125940e+00 -1.4699082162e-01 1.4090039935e+00 -2.4404665048e+00 1.4090039935e+00 2.4404665048e+00 
1400 4.2820831537e+00 -1.4528969733e-01 1.4142233250e+00 -2.4495066522e+00 1.4142233250e+00 2.4495066522e+00 
1500 4.2811215577e+00 -1.4364750849e-01 1.4193631544e+00 -2.4584090979e+00 1.4193631544e+00 2.4584090979e+00 
1600 4.2801322323e+00 -1.4206043808e-01 1.4244264309e+00 -2.4671789499e+00 1.4244264309e+00 2.4671789499e+00 
1700 4.2791193034e+00 -1.4052526430e-01 1.4294159141e+00 -2.4758209883e+00 1.4294159141e+00 2.4758209883e+00 
1800 4.2780866698e+00 -1.3903921923e-01 1.4343342002e+00 -2.4843397097e+00 1.4343342002e+00 2.4843397097e+00 
1900 4.2770380516e+00 -1.3759987976e-01 1.4391837415e+00 -2.4927393618e+00 1.4391837415e+00 2.4927393618e+00 
2000 4.2759770193e+00 -1.3620508431e-01 1.4439668627e+00 -2.5010239707e+00 1.4439668627e+00 2.5010239707e+00 
2100 4.2749070080e+00 -1.3485286963e-01 1.4486857726e+00 -2.5091973623e+00 1.4486857726e+00 2.5091973623e+00 
2200 4.2738313224e+00 -1.3354142376e-01 1.4533425743e+00 -2.5172631794e+00 1.4533425743e+00 2.5172631794e+00 
2300 4.2727531334e+00 -1.3226905124e-01 1.4579392730e+00 -2.5252248952e+00 1.4579392730e+00 2.5252248952e+00 
2400 4.2716754717e+00 -1.3103414818e-01 1.4624777826e+00 -2.5330858244e+00 1.4624777826e+00 2.5330858244e+00 
2500 4.2706012172e+00 -1.2983518463e-01 1.4669599308e+00 -2.5408491327e+00 1.4669599308e+00 2.5408491327e+00 
2600 4.2695330882e+00 -1.2867069268e-01 1.4713874636e+00 -2.5485178446e+00 1.4713874636e+00 2.5485178446e+00 
2700 4.2684736307e+00 -1.2753925872e-01 1.4757620500e+00 -2.5560948505e+00 1.4757620500e+00 2.5560948505e+00 
2800 4.2674252079e+00 -1.2643951875e-01 1.4800852848e+00 -2.5635829128e+00 1.4800852848e+00 2.5635829128e+00 
2900 4.2663899916e+00 -1.2537015596e-01 1.4843586926e+00 -2.5709846722e+00 1.4843586926e+00 2.5709846722e+00 
3000 4.2653699556e+00 -1.2432989971e-01 1.4885837305e+00 -2.5783026525e+00 1.4885837305e+00 2.5783026525e+00 
3100 4.2643668706e+00 -1.2331752551e-01 1.4927617914e+00 -2.5855392663e+00 1.4927617914e+00 2.5855392663e+00 
3200 4.2633823019e+00 -1.2233185552e-01 1.4968942069e+00 -2.5926968199e+00 1.4968942069e+00 2.5926968199e+00 
3300 4.2624176090e+00 -1.2137175932e-01 1.5009822500e+00 -2.5997775182e+00 1.5009822500e+00 2.5997775182e+00 
3400 4.2614739471e+00 -1.2043615464e-01 1.5050271379e+00 -2.6067834697e+00 1.5050271379e+00 2.6067834697e+00 
3500 4.2605522710e+00 -1.1952400800e-01 1.5090300351e+00 -2.6137166909e+00 1.5090300351e+00 2.6137166909e+00 
3600 4.2596533407e+00 -1.1863433511e-01 1.5129920553e+00 -2.6205791113e+00 1.5129920553e+00 2.6205791113e+00 
3700 4.2587777284e+00 -1.1776620089e-01 1.5169142649e+00 -2.6273725775e+00 1.5169142649e+00 2.6273725775e+00 
3800 4.2579258272e+00 -1.1691871928e-01 1.5207976847e+00 -2.6340988580e+00 1.5207976847e+00 2.6340988580e+00 
3900 4.2570978608e+00 -1.1609105255e-01 1.5246432932e+00 -2.6407596473e+00 1.5246432932e+00 2.6407596473e+00 
4000 4.2562938942e+00 -1.1528241042e-01 1.5284520283e+00 -2.6473565699e+00 1.5284520283e+00 2.6473565699e+00 
4100 4.2555138452e+00 -1.1449204880e-01 1.5322247898e+00 -2.6538911845e+00 1.5322247898e+00 2.6538911845e+00 
4200 4.2547574965e+00 -1.1371926820e-01 1.5359624419e+00 -2.6603649879e+00 1.5359624419e+00 2.6603649879e+00 
4300 4.2540245078e+00 -1.1296341201e-01 1.5396658150e+00 -2.6667794182e+00 1.5396658150e+00 2.6667794182e+00 
4400 4.2533144287e+00 -1.1222386448e-01 1.5433357076e+00 -2.6731358586e+00 1.5433357076e+00 2.6731358586e+00 
4500 4.2526267109e+00 -1.1150004860e-01 1.5469728885e+00 -2.6794356408e+00 1.5469728885e+00 2.6794356408e+00 
4600 4.2519607207e+00 -1.1079142378e-01 1.5505780984e+00 -2.6856800475e+00 1.5505780984e+00 2.6856800475e+00 
4700 4.2513157514e+00 -1.1009748354e-01 1.5541520516e+00 -2.6918703160e+00 1.5541520516e+00 2.6918703160e+00 
4800 4.2506910345e+00 -1.0941775310e-01 1.5576954374e+00 -2.6980076403e+00 1.5576954374e+00 2.6980076403e+00 
4900 4.2500857514e+00 -1.0875178694e-01 1.5612089220e+00 -2.7040931742e+00 1.5612089220e+00 2.7040931742e+00 
5000 4.2494990441e+00 -1.0809916643e-01 1.5646931493e+00 -2.7101280328e+00 1.5646931493e+00 2.7101280328e+00 
5100 4.2489300251e+00 -1.0745949746e-01 1.5681487422e+00 -2.7161132954e+00 1.5681487422e+00 2.7161132954e+00 
5200 4.2483777871e+00 -1.0683240816e-01 1.5715763044e+00 -2.7220500071e+00 1.5715763044e+00 2.7220500071e+00 
5300 4.2478414114e+00 -1.0621754671e-01 1.5749764203e+00 -2.7279391807e+00 1.5749764203e+00 2.7279391807e+00 
5400 4.2473199765e+00 -1.0561457924e-01 1.5783496571e+00 -2.7337817982e+00 1.5783496571e+00 2.7337817982e+00 
5500 4.2468125651e+00 -1.0502318785e-01 1.5816965648e+00 -2.7395788124e+00 1.5816965648e+00 2.7395788124e+00 
5600 4.2463182706e+00 -1.0444306880e-01 1.5850176775e+00 -2.7453311484e+00 1.5850176775e+00 2.7453311484e+00 
5700 4.2458362034e+00 -1.0387393079e-01 1.5883135139e+00 -2.7510397044e+00 1.5883135139e+00 2.7510397044e+00 
5800 4.2453654955e+00 -1.0331549338e-01 1.5915845777e+00 -2.7567053532e+00 1.5915845777e+00 2.7567053532e+00 
5900 4.2449053058e+00 -1.0276748557e-01 1.5948313589e+00 -2.7623289431e+00 1.5948313589e+00 2.7623289431e+00 
6000 4.2444548232e+00 -1.0222964458e-01 1.5980543335e+00 -2.7679112988e+00 1.5980543335e+00 2.7679112988e+00 
6100 4.2440132702e+00 -1.0170171463e-01 1.6012539643e+00 -2.7734532220e+00 1.6012539643e+00 2.7734532220e+00 
6200 4.2435799056e+00 -1.0118344602e-01 1.6044307017e+00 -2.7789554925e+00 1.6044307017e+00 2.7789554925e+00 
6300 4.2431540264e+00 -1.0067459424e-01 1.6075849832e+00 -2.7844188684e+00 1.6075849832e+00 2.7844188684e+00 
6400 4.2427349693e+00 -1.0017491923e-01 1.6107172348e+00 -2.7898440874e+00 1.6107172348e+00 2.7898440874e+00 
6500 4.2423221121e+00 -9.9684184797e-02 1.6138278705e+00 -2.7952318664e+00 1.6138278705e+00 2.7952318664e+00 
6600 4.2419148741e+00 -9.9202158080e-02 1.6169172929e+00 -2.8005829029e+00 1.6169172929e+00 2.8005829029e+00 
6700 4.2415127164e+00 -9.8728609190e-02 1.6199858935e+00 -2.8058978750e+00 1.6199858935e+00 2.8058978750e+00 
6800 4.2411151415e+00 -9.8263310900e-02 1.6230340528e+00 -2.8111774419e+00 1.6230340528e+00 2.8111774419e+00 
6900 4.2407216934e+00 -9.7806038430e-02 1.6260621408e+00 -2.8164222442e+00 1.6260621408e+00 2.8164222442e+00 
7000 4.2403319565e+00 -9.7356569325e-02 1.6290705170e+00 -2.8216329046e+00 1.6290705170e+00 2.8216329046e+00 
7100 4.2399455546e+00 -9.6914683380e-02 1.6320595306e+00 -2.8268100279e+00 1.6320595306e+00 2.8268100279e+00 
7200 4.2395621496e+00 -9.6480162642e-02 1.6350295207e+00 -2.8319542018e+00 1.6350295207e+00 2.8319542018e+00 
7300 4.2391814406e+00 -9.6052791455e-02 1.6379808169e+00 -2.8370659967e+00 1.6379808169e+00 2.8370659967e+00 
7400 4.2388031616e+00 -9.5632356549e-02 1.6409137388e+00 -2.8421459664e+00 1.6409137388e+00 2.8421459664e+00 
7500 4.2384270804e+00 -9.5218647159e-02 1.6438285968e+00 -2.8471946486e+00 1.6438285968e+00 2.8471946486e+00 
7600 4.2380529965e+00 -9.4811455184e-02 1.6467256920e+00 -2.8522125647e+00 1.6467256920e+00 2.8522125647e+00 
7700 4.2376807395e+00 -9.4410575348e-02 1.6496053165e+00 -2.8572002205e+00 1.6496053165e+00 2.8572002205e+00 
7800 4.2373101668e+00 -9.4015805391e-02 1.6524677534e+00 -2.8621581068e+00 1.6524677534e+00 2.8621581068e+00 
7900 4.2369411621e+00 -9.3626946258e-02 1.6553132774e+00 -2.8670866989e+00 1.6553132774e+00 2.8670866989e+00 
8000 4.2365736328e+00 -9.3243802296e-02 1.6581421547e+00 -2.8719864580e+00 1.6581421547e+00 2.8719864580e+00 
8100 4.2362075090e+00 -9.2866181441e-02 1.6609546430e+00 -2.8768578308e+00 1.6609546430e+00 2.8768578308e+00 
8200 4.2358427404e+00 -9.2493895410e-02 1.6637509923e+00 -2.8817012499e+00 1.6637509923e+00 2.8817012499e+00 
8300 4.2354792954e+00 -9.2126759872e-02 1.6665314447e+00 -2.8865171347e+00 1.6665314447e+00 2.8865171347e+00 
8400 4.2351171586e+00 -9.1764594611e-02 1.6692962345e+00 -2.8913058911e+00 1.6692962345e+00 2.8913058911e+00 
8500 4.2347563293e+00 -9.1407223675e-02 1.6720455889e+00 -2.8960679125e+00 1.6720455889e+00 2.8960679125e+00 
8600 4.2343968195e+00 -9.1054475501e-02 1.6747797275e+00 -2.9008035794e+00 1.6747797275e+00 2.9008035794e+00 
8700 4.2340386525e+00 -9.0706183027e-02 1.6774988632e+00 -2.9055132607e+00 1.6774988632e+00 2.9055132607e+00 
8800 4.2336818612e+00 -9.0362183778e-02 1.6802032021e+00 -2.9101973131e+00 1.6802032021e+00 2.9101973131e+00 
8900 4.2333264865e+00 -9.0022319931e-02 1.6828929437e+00 -2.9148560821e+00 1.6828929437e+00 2.9148560821e+00 
9000 4.2329725758e+00 -8.9686438365e-02 1.6855682810e+00 -2.9194899024e+00 1.6855682810e+00 2.9194899024e+00 
9100 4.2326201820e+00 -8.9354390676e-02 1.6882294012e+00 -2.9240990977e+00 1.6882294012e+00 2.9240990977e+00 
9200 4.2322693620e+00 -8.9026033183e-02 1.6908764851e+00 -2.9286839816e+00 1.6908764851e+00 2.9286839816e+00 
9300 4.2319201756e+00 -8.8701226904e-02 1.6935097082e+00 -2.9332448576e+00 1.6935097082e+00 2.9332448576e+00 
9400 4.2315726845e+00 -8.8379837515e-02 1.6961292400e+00 -2.9377820199e+00 1.6961292400e+00 2.9377820199e+00 
9500 4.2312269512e+00 -8.8061735287e-02 1.6987352451e+00 -2.9422957532e+00 1.6987352451e+00 2.9422957532e+00 
9600 4.2308830382e+00 -8.7746795007e-02 1.7013278827e+00 -2.9467863331e+00 1.7013278827e+00 2.9467863331e+00 
9700 4.2305410076e+00 -8.7434895877e-02 1.7039073069e+00 -2.9512540270e+00 1.7039073069e+00 2.9512540270e+00 
9800 4.2302009196e+00 -8.7125921403e-02 1.7064736674e+00 -2.9556990937e+00 1.7064736674e+00 2.9556990937e+00 
9900 4.2298628327e+00 -8.6819759268e-02 1.7090271088e+00 -2.9601217840e+00 1.7090271088e+00 2.9601217840e+00 
10000 4.2295268029e+00 -8.6516301184e-02 1.7115677716e+00 -2.9645223411e+00 1.7115677716e+00 2.9645223411e+00 
10100 4.2291928831e+00 -8.6215442745e-02 1.7140957920e+00 -2.9689010007e+00 1.7140957920e+00 2.9689010007e+00 
10200 4.2288611228e+00 -8.5917083263e-02 1.7166113017e+00 -2.9732579915e+00 1.7166113017e+00 2.9732579915e+00 
10300 4.2285315682e+00 -8.5621125596e-02 1.7191144289e+00 -2.9775935349e+00 1.7191144289e+00 2.9775935349e+00 
10400 4.2282042615e+00 -8.5327475975e-02 1.7216052976e+00 -2.9819078461e+00 1.7216052976e+00 2.9819078461e+00 
10500 4.2278792409e+00 -8.5036043821e-02 1.7240840283e+00 -2.9862011336e+00 1.7240840283e+00 2.9862011336e+00 
10600 4.2275565406e+00 -8.4746741560e-02 1.7265507378e+00 -2.9904735997e+00 1.7265507378e+00 2.9904735997e+00 
10700 4.2272361908e+00 -8.4459484444e-02 1.7290055394e+00 -2.9947254408e+00 1.7290055394e+00 2.9947254408e+00 
10800 4.2269182175e+00 -8.4174190360e-02 1.7314485431e+00 -2.9989568474e+00 1.7314485431e+00 2.9989568474e+00 
10900 4.2266026426e+00 -8.3890779653e-02 1.7338798559e+00 -3.0031680046e+00 1.7338798559e+00 3.0031680046e+00 
11000 4.2262894842e+00 -8.3609174945e-02 1.7362995812e+00 -3.0073590918e+00 1.7362995812e+00 3.0073590918e+00 
11100 4.2259787565e+00 -8.3329300962e-02 1.7387078198e+00 -3.0115302833e+00 1.7387078198e+00 3.0115302833e+00 
11200 4.2256704702e+00 -8.3051084363e-02 1.7411046691e+00 -3.0156817482e+00 1.7411046691e+00 3.0156817482e+00 
11300 4.2253646323e+00 -8.2774453585e-02 1.7434902242e+00 -3.0198136507e+00 1.7434902242e+00 3.0198136507e+00 
11400 4.2250612467e+00 -8.2499338683e-02 1.7458645768e+00 -3.0239261501e+00 1.7458645768e+00 3.0239261501e+00 
11500 4.2247603140e+00 -8.2225671194e-02 1.7482278162e+00 -3.0280194009e+00 1.7482278162e+00 3.0280194009e+00 
11600 4.2244618324e+00 -8.1953383996e-02 1.7505800292e+00 -3.0320935532e+00 1.7505800292e+00 3.0320935532e+00 
11700 4.2241657971e+00 -8.1682411188e-02 1.7529212995e+00 -3.0361487525e+00 1.7529212995e+00 3.0361487525e+00 
11800 4.2238722012e+00 -8.1412687980e-02 1.7552517088e+00 -3.0401851398e+00 1.7552517088e+00 3.0401851398e+00 
11900 4.2235810357e+00 -8.1144150588e-02 1.7575713360e+00 -3.0442028519e+00 1.7575713360e+00 3.0442028519e+00 
12000 4.2232922897e+00 -8.0876736147e-02 1.7598802577e+00 -3.0482020215e+00 1.7598802577e+00 3.0482020215e+00 
12100 4.2230059507e+00 -8.0610382635e-02 1.7621785479e+00 -3.0521827770e+00 1.7621785479e+00 3.0521827770e+00 
12200 4.2227220049e+00 -8.0345028807e-02 1.7644662786e+00 -3.0561452427e+00 1.7644662786e+00 3.0561452427e+00 
12300 4.2224404374e+00 -8.0080614144e-02 1.7667435192e+00 -3.0600895392e+00 1.7667435192e+00 3.0600895392e+00 
12400 4.2221612324e+00 -7.9817078810e-02 1.7690103370e+00 -3.0640157828e+00 1.7690103370e+00 3.0640157828e+00 
12500 4.2218843733e+00 -7.9554363624e-02 1.7712667970e+00 -3.0679240862e+00 1.7712667970e+00 3.0679240862e+00 
12600 4.2216098430e+00 -7.9292410046e-02 1.7735129621e+00 -3.0718145582e+00 1.7735129621e+00 3.0718145582e+00 
12700 4.2213376244e+00 -7.9031160166e-02 1.7757488929e+00 -3.0756873041e+00 1.7757488929e+00 3.0756873041e+00 
12800 4.2210676998e+00 -7.8770556708e-02 1.7779746481e+00 -3.0795424251e+00 1.7779746481e+00 3.0795424251e+00 
12900 4.2208000518e+00 -7.8510543048e-02 1.7801902841e+00 -3.0833800193e+00 1.7801902841e+00 3.0833800193e+00 
13000 4.2205346631e+00 -7.8251063236e-02 1.7823958554e+00 -3.0872001808e+00 1.7823958554e+00 3.0872001808e+00 
13100 4.2202715166e+00 -7.7992062026e-02 1.7845914144e+00 -3.0910030005e+00 1.7845914144e+00 3.0910030005e+00 
13200 4.2200105955e+00 -7.7733484918e-02 1.7867770116e+00 -3.0947885659e+00 1.7867770116e+00 3.0947885659e+00 
13300 4.2197518837e+00 -7.7475278206e-02 1.7889526954e+00 -3.0985569608e+00 1.7889526954e+00 3.0985569608e+00 
13400 4.2194953653e+00 -7.7217389029e-02 1.7911185126e+00 -3.1023082662e+00 1.7911185126e+00 3.1023082662e+00 
13500 4.2192410252e+00 -7.6959765432e-02 1.7932745078e+00 -3.1060425594e+00 1.7932745078e+00 3.1060425594e+00 
13600 4.2189888490e+00 -7.6702356430e-02 1.7954207240e+00 -3.1097599149e+00 1.7954207240e+00 3.1097599149e+00 
13700 4.2187388227e+00 -7.6445112076e-02 1.7975572023e+00 -3.1134604038e+00 1.7975572023e+00 3.1134604038e+00 
13800 4.2184909332e+00 -7.6187983531e-02 1.7996839820e+00 -3.1171440944e+00 1.7996839820e+00 3.1171440944e+00 
13900 4.2182451679e+00 -7.5930923138e-02 1.8018011010e+00 -3.1208110520e+00 1.8018011010e+00 3.1208110520e+00 
14000 4.2180015150e+00 -7.5673884496e-02 1.8039085951e+00 -3.1244613389e+00 1.8039085951e+00 3.1244613389e+00 
14100 4.2177599635e+00 -7.5416822534e-02 1.8060064989e+00 -3.1280950148e+00 1.8060064989e+00 3.1280950148e+00 
14200 4.2175205027e+00 -7.5159693589e-02 1.8080948451e+00 -3.1317121366e+00 1.8080948451e+00 3.1317121366e+00 
14300 4.2172831227e+00 -7.4902455479e-02 1.8101736651e+00 -3.1353127586e+00 1.8101736651e+00 3.1353127586e+00 
14400 4.2170478144e+00 -7.4645067574e-02 1.8122429889e+00 -3.1388969324e+00 1.8122429889e+00 3.1388969324e+00 
14500 4.2168145688e+00 -7.4387490867e-02 1.8143028448e+00 -3.1424647076e+00 1.8143028448e+00 3.1424647076e+00 
14600 4.2165833778e+00 -7.4129688044e-02 1.8163532601e+00 -3.1460161309e+00 1.8163532601e+00 3.1460161309e+00 
14700 4.2163542334e+00 -7.3871623543e-02 1.8183942604e+00 -3.1495512472e+00 1.8183942604e+00 3.1495512472e+00 
14800 4.2161271283e+00 -7.3613263619e-02 1.8204258705e+00 -3.1530700991e+00 1.8204258705e+00 3.1530700991e+00 
14900 4.2159020554e+00 -7.3354576399e-02 1.8224481136e+00 -3.1565727270e+00 1.8224481136e+00 3.1565727270e+00 
15000 4.2156790078e+00 -7.3095531929e-02 1.8244610122e+00 -3.1600591695e+00 1.8244610122e+00 3.1600591695e+00 
15100 4.2154579790e+00 -7.2836102223e-02 1.8264645873e+00 -3.1635294634e+00 1.8264645873e+00 3.1635294634e+00 
15200 4.2152389627e+00 -7.2576261304e-02 1.8284588592e+00 -3.1669836436e+00 1.8284588592e+00 3.1669836436e+00 
15300 4.2150219524e+00 -7.2315985234e-02 1.8304438471e+00 -3.1704217436e+00 1.8304438471e+00 3.1704217436e+00 
15400 4.2148069421e+00 -7.2055252149e-02 1.8324195695e+00 -3.1738437952e+00 1.8324195695e+00 3.1738437952e+00 
15500 4.2145939255e+00 -7.1794042273e-02 1.8343860439e+00 -3.1772498288e+00 1.8343860439e+00 3.1772498288e+00 
15600 4.2143828966e+00 -7.1532337941e-02 1.8363432872e+00 -3.1806398735e+00 1.8363432872e+00 3.1806398735e+00 
15700 4.2141738491e+00 -7.1270123605e-02 1.8382913153e+00 -3.1840139573e+00 1.8382913153e+00 3.1840139573e+00 
15800 4.2139667766e+00 -7.1007385840e-02 1.8402301440e+00 -3.1873721070e+00 1.8402301440e+00 3.1873721070e+00 
15900 4.2137616727e+00 -7.0744113336e-02 1.8421597879e+00 -3.1907143484e+00 1.8421597879e+00 3.1907143484e+00 
16000 4.2135585307e+00 -7.0480296896e-02 1.8440802617e+00 -3.1940407065e+00 1.8440802617e+00 3.1940407065e+00 
16100 4.2133573439e+00 -7.0215929413e-02 1.8459915792e+00 -3.1973512055e+00 1.8459915792e+00 3.1973512055e+00 
16200 4.2131581051e+00 -6.9951005855e-02 1.8478937540e+00 -3.2006458689e+00 1.8478937540e+00 3.2006458689e+00 
16300 4.2129608071e+00 -6.9685523233e-02 1.8497867994e+00 -3.2039247197e+00 1.8497867994e+00 3.2039247197e+00 
16400 4.2127654423e+00 -6.9419480572e-02 1.8516707283e+00 -3.2071877803e+00 1.8516707283e+00 3.2071877803e+00 
16500 4.2125720028e+00 -6.9152878870e-02 1.8535455536e+00 -3.2104350730e+00 1.8535455536e+00 3.2104350730e+00 
16600 4.2123804806e+00 -6.8885721057e-02 1.8554112878e+00 -3.2136666194e+00 1.8554112878e+00 3.2136666194e+00 
16700 4.2121908673e+00 -6.8618011945e-02 1.8572679434e+00 -3.2168824413e+00 1.8572679434e+00 3.2168824413e+00 
16800 4.2120031540e+00 -6.8349758174e-02 1.8591155329e+00 -3.2200825602e+00 1.8591155329e+00 3.2200825602e+00 
16900 4.2118173318e+00 -6.8080968160e-02 1.8609540688e+00 -3.2232669977e+00 1.8609540688e+00 3.2232669977e+00 
17000 4.2116333914e+00 -6.7811652028e-02 1.8627835634e+00 -3.2264357754e+00 1.8627835634e+00 3.2264357754e+00 
17100 4.2114513230e+00 -6.7541821553e-02 1.8646040295e+00 -3.2295889150e+00 1.8646040295e+00 3.2295889150e+00 
17200 4.2112711169e+00 -6.7271490087e-02 1.8664154796e+00 -3.2327264387e+00 1.8664154796e+00 3.2327264387e+00 
17300 4.2110927627e+00 -6.7000672492e-02 1.8682179268e+00 -3.2358483688e+00 1.8682179268e+00 3.2358483688e+00 
17400 4.2109162500e+00 -6.6729385065e-02 1.8700113841e+00 -3.2389547279e+00 1.8700113841e+00 3.2389547279e+00 
17500 4.2107415681e+00 -6.6457645464e-02 1.8717958648e+00 -3.2420455392e+00 1.8717958648e+00 3.2420455392e+00 
17600 4.2105687059e+00 -6.6185472627e-02 1.8735713827e+00 -3.2451208264e+00 1.8735713827e+00 3.2451208264e+00 
17700 4.2103976521e+00 -6.5912886698e-02 1.8753379517e+00 -3.2481806136e+00 1.8753379517e+00 3.2481806136e+00 
17800 4.2102283953e+00 -6.5639908942e-02 1.8770955861e+00 -3.2512249258e+00 1.8770955861e+00 3.2512249258e+00 
17900 4.2100609239e+00 -6.5366561668e-02 1.8788443007e+00 -3.2542537884e+00 1.8788443007e+00 3.2542537884e+00 
18000 4.2098952257e+00 -6.5092868144e-02 1.8805841106e+00 -3.2572672275e+00 1.8805841106e+00 3.2572672275e+00 
18100 4.2097312889e+00 -6.4818852517e-02 1.8823150314e+00 -3.2602652703e+00 1.8823150314e+00 3.2602652703e+00 
18200 4.2095691011e+00 -6.4544539731e-02 1.8840370791e+00 -3.2632479444e+00 1.8840370791e+00 3.2632479444e+00 
18300 4.2094086499e+00 -6.4269955445e-02 1.8857502702e+00 -3.2662152784e+00 1.8857502702e+00 3.2662152784e+00 
18400 4.2092499228e+00 -6.3995125951e-02 1.8874546217e+00 -3.2691673019e+00 1.8874546217e+00 3.2691673019e+00 
18500 4.2090929071e+00 -6.3720078098e-02 1.8891501512e+00 -3.2721040450e+00 1.8891501512e+00 3.2721040450e+00 
18600 4.2089375900e+00 -6.3444839208e-02 1.8908368766e+00 -3.2750255390e+00 1.8908368766e+00 3.2750255390e+00 
18700 4.2087839585e+00 -6.3169437001e-02 1.8925148165e+00 -3.2779318162e+00 1.8925148165e+00 3.2779318162e+00 
18800 4.2086319999e+00 -6.2893899520e-02 1.8941839900e+00 -3.2808229096e+00 1.8941839900e+00 3.2808229096e+00 
18900 4.2084817009e+00 -6.2618255055e-02 1.8958444169e+00 -3.2836988532e+00 1.8958444169e+00 3.2836988532e+00 
19000 4.2083330485e+00 -6.2342532071e-02 1.8974961172e+00 -3.2865596822e+00 1.8974961172e+00 3.2865596822e+00 
19100 4.2081860296e+00 -6.2066759141e-02 1.8991391119e+00 -3.2894054324e+00 1.8991391119e+00 3.2894054324e+00 
19200 4.2080406309e+00 -6.1790964872e-02 1.9007734222e+00 -3.2922361409e+00 1.9007734222e+00 3.2922361409e+00 
19300 4.2078968392e+00 -6.1515177847e-02 1.9023990700e+00 -3.2950518455e+00 1.9023990700e+00 3.2950518455e+00 
19400 4.2077546414e+00 -6.1239426556e-02 1.9040160778e+00 -3.2978525852e+00 1.9040160778e+00 3.2978525852e+00 
19500 4.2076140241e+00 -6.0963739340e-02 1.9056244687e+00 -3.3006383999e+00 1.9056244687e+00 3.3006383999e+00 
19600 4.2074749741e+00 -6.0688144335e-02 1.9072242661e+00 -3.3034093302e+00 1.9072242661e+00 3.3034093302e+00 
19700 4.2073374781e+00 -6.0412669411e-02 1.9088154941e+00 -3.3061654181e+00 1.9088154941e+00 3.3061654181e+00 
19800 4.2072015230e+00 -6.0137342127e-02 1.9103981775e+00 -3.3089067060e+00 1.9103981775e+00 3.3089067060e+00 
19900 4.2070670954e+00 -5.9862189683e-02 1.9119723412e+00 -3.3116332377e+00 1.9119723412e+00 3.3116332377e+00 
20000 4.2069341823e+00 -5.9587238869e-02 1.9135380112e+00 -3.3143450576e+00 1.9135380112e+00 3.3143450576e+00 
20100 4.2068027704e+00 -5.9312516028e-02 1.9150952134e+00 -3.3170422109e+00 1.9150952134e+00 3.3170422109e+00 
20200 4.2066728466e+00 -5.9038047013e-02 1.9166439746e+00 -3.3197247440e+00 1.9166439746e+00 3.3197247440e+00 
20300 4.2065443977e+00 -5.8763857155e-02 1.9181843219e+00 -3.3223927038e+00 1.9181843219e+00 3.3223927038e+00 
20400 4.2064174107e+00 -5.8489971227e-02 1.9197162829e+00 -3.3250461381e+00 1.9197162829e+00 3.3250461381e+00 
20500 4.2062918726e+00 -5.8216413417e-02 1.9212398857e+00 -3.3276850955e+00 1.9212398857e+00 3.3276850955e+00 
20600 4.2061677703e+00 -5.7943207295e-02 1.9227551587e+00 -3.3303096254e+00 1.9227551587e+00 3.3303096254e+00 
20700 4.2060450909e+00 -5.7670375798e-02 1.9242621308e+00 -3.3329197777e+00 1.9242621308e+00 3.3329197777e+00 
20800 4.2059238215e+00 -5.7397941202e-02 1.9257608314e+00 -3.3355156032e+00 1.9257608314e+00 3.3355156032e+00 
20900 4.2058039493e+00 -5.7125925107e-02 1.9272512901e+00 -3.3380971534e+00 1.9272512901e+00 3.3380971534e+00 
21000 4.2056854613e+00 -5.6854348423e-02 1.9287335369e+00 -3.3406644801e+00 1.9287335369e+00 3.3406644801e+00 
21100 4.2055683448e+00 -5.6583231354e-02 1.9302076022e+00 -3.3432176361e+00 1.9302076022e+00 3.3432176361e+00 
21200 4.2054525872e+00 -5.6312593391e-02 1.9316735167e+00 -3.3457566746e+00 1.9316735167e+00 3.3457566746e+00 
21300 4.2053381757e+00 -5.6042453307e-02 1.9331313114e+00 -3.3482816491e+00 1.9331313114e+00 3.3482816491e+00 
21400 4.2052250976e+00 -5.5772829148e-02 1.9345810177e+00 -3.3507926141e+00 1.9345810177e+00 3.3507926141e+00 
21500 4.2051133405e+00 -5.5503738231e-02 1.9360226671e+00 -3.3532896240e+00 1.9360226671e+00 3.3532896240e+00 
21600 4.2050028919e+00 -5.5235197150e-02 1.9374562914e+00 -3.3557727341e+00 1.9374562914e+00 3.3557727341e+00 
21700 4.2048937391e+00 -5.4967221772e-02 1.9388819226e+00 -3.3582419999e+00 1.9388819226e+00 3.3582419999e+00 
21800 4.2047858699e+00 -5.4699827245e-02 1.9402995932e+00 -3.3606974773e+00 1.9402995932e+00 3.3606974773e+00 
21900 4.2046792718e+00 -5.4433028004e-02 1.9417093354e+00 -3.3631392224e+00 1.9417093354e+00 3.3631392224e+00 
22000 4.2045739325e+00 -5.4166837778e-02 1.9431111820e+00 -3.3655672919e+00 1.9431111820e+00 3.3655672919e+00 
22100 4.2044698398e+00 -5.3901269604e-02 1.9445051657e+00 -3.3679817426e+00 1.9445051657e+00 3.3679817426e+00 
22200 4.2043669815e+00 -5.3636335833e-02 1.9458913196e+00 -3.3703826316e+00 1.9458913196e+00 3.3703826316e+00 
22300 4.2042653455e+00 -5.3372048149e-02 1.9472696768e+00 -3.3727700162e+00 1.9472696768e+00 3.3727700162e+00 
22400 4.2041649195e+00 -5.3108417581e-02 1.9486402703e+00 -3.3751439538e+00 1.9486402703e+00 3.3751439538e+00 
22500 4.2040656917e+00 -5.2845454519e-02 1.9500031335e+00 -3.3775045021e+00 1.9500031335e+00 3.3775045021e+00 
22600 4.2039676500e+00 -5.2583168734e-02 1.9513582998e+00 -3.3798517190e+00 1.9513582998e+00 3.3798517190e+00 
22700 4.2038707824e+00 -5.2321569393e-02 1.9527058026e+00 -3.3821856623e+00 1.9527058026e+00 3.3821856623e+00 
22800 4.2037750773e+00 -5.2060665080e-02 1.9540456754e+00 -3.3845063901e+00 1.9540456754e+00 3.3845063901e+00 
22900 4.2036805227e+00 -5.1800463816e-02 1.9553779517e+00 -3.3868139604e+00 1.9553779517e+00 3.3868139604e+00 
23000 4.2035871069e+00 -5.1540973083e-02 1.9567026652e+00 -3.3891084314e+00 1.9567026652e+00 3.3891084314e+00 
23100 4.2034948182e+00 -5.1282199838e-02 1.9580198492e+00 -3.3913898611e+00 1.9580198492e+00 3.3913898611e+00 
23200 4.2034036451e+00 -5.1024150544e-02 1.9593295375e+00 -3.3936583077e+00 1.9593295375e+00 3.3936583077e+00 
23300 4.2033135759e+00 -5.0766831185e-02 1.9606317635e+00 -3.3959138293e+00 1.9606317635e+00 3.3959138293e+00 
23400 4.2032245993e+00 -5.0510247294e-02 1.9619265608e+00 -3.3981564840e+00 1.9619265608e+00 3.3981564840e+00 
23500 4.2031367037e+00 -5.0254403974e-02 1.9632139629e+00 -3.4003863299e+00 1.9632139629e+00 3.4003863299e+00 
23600 4.2030498779e+00 -4.9999305921e-02 1.9644940032e+00 -3.4026034248e+00 1.9644940032e+00 3.4026034248e+00 
23700 4.2029641106e+00 -4.9744957448e-02 1.9657667152e+00 -3.4048078265e+00 1.9657667152e+00 3.4048078265e+00 
23800 4.2028793905e+00 -4.9491362506e-02 1.9670321321e+00 -3.4069995930e+00 1.9670321321e+00 3.4069995930e+00 
23900 4.2027957065e+00 -4.9238524710e-02 1.9682902874e+00 -3.4091787817e+00 1.9682902874e+00 3.4091787817e+00 
24000 4.2027130477e+00 -4.8986447359e-02 1.9695412140e+00 -3.4113454503e+00 1.9695412140e+00 3.4113454503e+00 
24100 4.2026314028e+00 -4.8735133461e-02 1.9707849453e+00 -3.4134996560e+00 1.9707849453e+00 3.4134996560e+00 
24200 4.2025507612e+00 -4.8484585753e-02 1.9720215141e+00 -3.4156414561e+00 1.9720215141e+00 3.4156414561e+00 
24300 4.2024711118e+00 -4.8234806723e-02 1.9732509536e+00 -3.4177709077e+00 1.9732509536e+00 3.4177709077e+00 
24400 4.2023924440e+00 -4.7985798633e-02 1.9744732964e+00 -3.4198880676e+00 1.9744732964e+00 3.4198880676e+00 
24500 4.2023147470e+00 -4.7737563535e-02 1.9756885754e+00 -3.4219929925e+00 1.9756885754e+00 3.4219929925e+00 
24600 4.2022380103e+00 -4.7490103299e-02 1.9768968231e+00 -3.4240857390e+00 1.9768968231e+00 3.4240857390e+00 
24700 4.2021622232e+00 -4.7243419622e-02 1.9780980722e+00 -3.4261663634e+00 1.9780980722e+00 3.4261663634e+00 
24800 4.2020873754e+00 -4.6997514056e-02 1.9792923550e+00 -3.4282349219e+00 1.9792923550e+00 3.4282349219e+00 
24900 4.2020134564e+00 -4.6752388022e-02 1.9804797038e+00 -3.4302914704e+00 1.9804797038e+00 3.4302914704e+00 
25000 4.2019404560e+00 -4.6508042826e-02 1.9816601509e+00 -3.4323360647e+00 1.9816601509e+00 3.4323360647e+00 
25100 4.2018683639e+00 -4.6264479676e-02 1.9828337283e+00 -3.4343687603e+00 1.9828337283e+00 3.4343687603e+00 
25200 4.2017971700e+00 -4.6021699701e-02 1.9840004679e+00 -3.4363896127e+00 1.9840004679e+00 3.4363896127e+00 
25300 4.2017268642e+00 -4.5779703961e-02 1.9851604016e+00 -3.4383986768e+00 1.9851604016e+00 3.4383986768e+00 
25400 4.2016574366e+00 -4.5538493465e-02 1.9863135612e+00 -3.4403960077e+00 1.9863135612e+00 3.4403960077e+00 
25500 4.2015888772e+00 -4.5298069180e-02 1.9874599781e+00 -3.4423816601e+00 1.9874599781e+00 3.4423816601e+00 
25600 4.2015211762e+00 -4.5058432047e-02 1.9885996840e+00 -3.4443556886e+00 1.9885996840e+00 3.4443556886e+00 
25700 4.2014543239e+00 -4.4819582991e-02 1.9897327101e+00 -3.4463181474e+00 1.9897327101e+00 3.4463181474e+00 
25800 4.2013883106e+00 -4.4581522932e-02 1.9908590878e+00 -3.4482690907e+00 1.9908590878e+00 3.4482690907e+00 
25900 4.2013231268e+00 -4.4344252790e-02 1.9919788481e+00 -3.4502085724e+00 1.9919788481e+00 3.4502085724e+00 
26000 4.2012587630e+00 -4.4107773504e-02 1.9930920220e+00 -3.4521366463e+00 1.9930920220e+00 3.4521366463e+00 
26100 4.2011952097e+00 -4.3872086028e-02 1.9941986406e+00 -3.4540533659e+00 1.9941986406e+00 3.4540533659e+00 
26200 4.2011324576e+00 -4.3637191348e-02 1.9952987345e+00 -3.4559587845e+00 1.9952987345e+00 3.4559587845e+00 
26300 4.2010704975e+00 -4.3403090482e-02 1.9963923346e+00 -3.4578529553e+00 1.9963923346e+00 3.4578529553e+00 
26400 4.2010093203e+00 -4.3169784489e-02 1.9974794713e+00 -3.4597359313e+00 1.9974794713e+00 3.4597359313e+00 
26500 4.2009489168e+00 -4.2937274471e-02 1.9985601751e+00 -3.4616077653e+00 1.9985601751e+00 3.4616077653e+00 
26600 4.2008892780e+00 -4.2705561579e-02 1.9996344765e+00 -3.4634685098e+00 1.9996344765e+00 3.4634685098e+00 
26700 4.2008303951e+00 -4.2474647017e-02 2.0007024057e+00 -3.4653182174e+00 2.0007024057e+00 3.4653182174e+00 
26800 4.2007722592e+00 -4.2244532040e-02 2.0017639929e+00 -3.4671569404e+00 2.0017639929e+00 3.4671569404e+00 
26900 4.2007148615e+00 -4.2015217962e-02 2.0028192681e+00 -3.4689847308e+00 2.0028192681e+00 3.4689847308e+00 
27000 4.2006581934e+00 -4.1786706154e-02 2.0038682615e+00 -3.4708016406e+00 2.0038682615e+00 3.4708016406e+00 
27100 4.2006022463e+00 -4.1558998043e-02 2.0049110029e+00 -3.4726077217e+00 2.0049110029e+00 3.4726077217e+00 
27200 4.2005470117e+00 -4.1332095114e-02 2.0059475222e+00 -3.4744030257e+00 2.0059475222e+00 3.4744030257e+00 
27300 4.2004924811e+00 -4.1105998911e-02 2.0069778490e+00 -3.4761876042e+00 2.0069778490e+00 3.4761876042e+00 
27400 4.2004386463e+00 -4.0880711032e-02 2.0080020131e+00 -3.4779615084e+00 2.0080020131e+00 3.4779615084e+00 
27500 4.2003854989e+00 -4.0656233131e-02 2.0090200440e+00 -3.4797247897e+00 2.0090200440e+00 3.4797247897e+00 
27600 4.2003330307e+00 -4.0432566915e-02 2.0100319713e+00 -3.4814774992e+00 2.0100319713e+00 3.4814774992e+00 
27700 4.2002812337e+00 -4.0209714138e-02 2.0110378244e+00 -3.4832196878e+00 2.0110378244e+00 3.4832196878e+00 
27800 4.2002300998e+00 -3.9987676604e-02 2.0120376327e+00 -3.4849514065e+00 2.0120376327e+00 3.4849514065e+00 
27900 4.2001796211e+00 -3.9766456160e-02 2.0130314254e+00 -3.4866727060e+00 2.0130314254e+00 3.4866727060e+00 
28000 4.2001297897e+00 -3.9546054694e-02 2.0140192318e+00 -3.4883836368e+00 2.0140192318e+00 3.4883836368e+00 
28100 4.2000805979e+00 -3.9326474128e-02 2.0150010810e+00 -3.4900842497e+00 2.0150010810e+00 3.4900842497e+00 
28200 4.2000320378e+00 -3.9107716421e-02 2.0159770023e+00 -3.4917745948e+00 2.0159770023e+00 3.4917745948e+00 
28300 4.1999841019e+00 -3.8889783555e-02 2.0169470245e+00 -3.4934547226e+00 2.0169470245e+00 3.4934547226e+00 
28400 4.1999367826e+00 -3.8672677540e-02 2.0179111768e+00 -3.4951246833e+00 2.0179111768e+00 3.4951246833e+00 
28500 4.1998900725e+00 -3.8456400402e-02 2.0188694879e+00 -3.4967845270e+00 2.0188694879e+00 3.4967845270e+00 
28600 4.1998439641e+00 -3.8240954183e-02 2.0198219869e+00 -3.4984343036e+00 2.0198219869e+00 3.4984343036e+00 
28700 4.1997984502e+00 -3.8026340932e-02 2.0207687025e+00 -3.5000740631e+00 2.0207687025e+00 3.5000740631e+00 
28800 4.1997535234e+00 -3.7812562705e-02 2.0217096635e+00 -3.5017038554e+00 2.0217096635e+00 3.5017038554e+00 
28900 4.1997091766e+00 -3.7599621554e-02 2.0226448986e+00 -3.5033237301e+00 2.0226448986e+00 3.5033237301e+00 
29000 4.1996654027e+00 -3.7387519528e-02 2.0235744365e+00 -3.5049337369e+00 2.0235744365e+00 3.5049337369e+00 
29100 4.1996221946e+00 -3.7176258663e-02 2.0244983057e+00 -3.5065339253e+00 2.0244983057e+00 3.5065339253e+00 
29200 4.1995795455e+00 -3.6965840980e-02 2.0254165349e+00 -3.5081243449e+00 2.0254165349e+00 3.5081243449e+00 
29300 4.1995374485e+00 -3.6756268479e-02 2.0263291525e+00 -3.5097050449e+00 2.0263291525e+00 3.5097050449e+00 
29400 4.1994958966e+00 -3.6547543132e-02 2.0272361870e+00 -3.5112760747e+00 2.0272361870e+00 3.5112760747e+00 
29500 4.1994548833e+00 -3.6339666883e-02 2.0281376668e+00 -3.5128374836e+00 2.0281376668e+00 3.5128374836e+00 
29600 4.1994144019e+00 -3.6132641637e-02 2.0290336203e+00 -3.5143893206e+00 2.0290336203e+00 3.5143893206e+00 
29700 4.1993744458e+00 -3.5926469262e-02 2.0299240758e+00 -3.5159316348e+00 2.0299240758e+00 3.5159316348e+00 
29800 4.1993350084e+00 -3.5721151579e-02 2.0308090616e+00 -3.5174644751e+00 2.0308090616e+00 3.5174644751e+00 
29900 4.1992960833e+00 -3.5516690361e-02 2.0316886058e+00 -3.5189878904e+00 2.0316886058e+00 3.5189878904e+00 
30000 4.1992576642e+00 -3.5313087326e-02 2.0325627367e+00 -3.5205019296e+00 2.0325627367e+00 3.5205019296e+00 
30100 4.1992197447e+00 -3.5110344135e-02 2.0334314824e+00 -3.5220066412e+00 2.0334314824e+00 3.5220066412e+00 
30200 4.1991823187e+00 -3.4908462390e-02 2.0342948709e+00 -3.5235020740e+00 2.0342948709e+00 3.5235020740e+00 
30300 4.1991453799e+00 -3.4707443623e-02 2.0351529303e+00 -3.5249882764e+00 2.0351529303e+00 3.5249882764e+00 
30400 4.1991089224e+00 -3.4507289303e-02 2.0360056884e+00 -3.5264652969e+00 2.0360056884e+00 3.5264652969e+00 
30500 4.1990729399e+00 -3.4308000824e-02 2.0368531734e+00 -3.5279331838e+00 2.0368531734e+00 3.5279331838e+00 
30600 4.1990374267e+00 -3.4109579505e-02 2.0376954129e+00 -3.5293919854e+00 2.0376954129e+00 3.5293919854e+00 
30700 4.1990023767e+00 -3.3912026590e-02 2.0385324348e+00 -3.5308417499e+00 2.0385324348e+00 3.5308417499e+00 
30800 4.1989677842e+00 -3.3715343239e-02 2.0393642668e+00 -3.5322825252e+00 2.0393642668e+00 3.5322825252e+00 
30900 4.1989336435e+00 -3.3519530532e-02 2.0401909367e+00 -3.5337143594e+00 2.0401909367e+00 3.5337143594e+00 
31000 4.1988999488e+00 -3.3324589465e-02 2.0410124720e+00 -3.5351373004e+00 2.0410124720e+00 3.5351373004e+00 
31100 4.1988666945e+00 -3.3130520943e-02 2.0418289004e+00 -3.5365513958e+00 2.0418289004e+00 3.5365513958e+00 
31200 4.1988338750e+00 -3.2937325787e-02 2.0426402493e+00 -3.5379566934e+00 2.0426402493e+00 3.5379566934e+00 
31300 4.1988014849e+00 -3.2745004725e-02 2.0434465463e+00 -3.5393532407e+00 2.0434465463e+00 3.5393532407e+00 
31400 4.1987695187e+00 -3.2553558396e-02 2.0442478186e+00 -3.5407410851e+00 2.0442478186e+00 3.5407410851e+00 
31500 4.1987379711e+00 -3.2362987344e-02 2.0450440936e+00 -3.5421202739e+00 2.0450440936e+00 3.5421202739e+00 
31600 4.1987068366e+00 -3.2173292020e-02 2.0458353987e+00 -3.5434908544e+00 2.0458353987e+00 3.5434908544e+00 
31700 4.1986761102e+00 -3.1984472784e-02 2.0466217609e+00 -3.5448528737e+00 2.0466217609e+00 3.5448528737e+00 
31800 4.1986457866e+00 -3.1796529899e-02 2.0474032073e+00 -3.5462063787e+00 2.0474032073e+00 3.5462063787e+00 
31900 4.1986158606e+00 -3.1609463532e-02 2.0481797652e+00 -3.5475514163e+00 2.0481797652e+00 3.5475514163e+00 
32000 4.1985863273e+00 -3.1423273758e-02 2.0489514613e+00 -3.5488880332e+00 2.0489514613e+00 3.5488880332e+00 
32100 4.1985571815e+00 -3.1237960557e-02 2.0497183226e+00 -3.5502162760e+00 2.0497183226e+00 3.5502162760e+00 
32200 4.1985284184e+00 -3.1053523812e-02 2.0504803760e+00 -3.5515361911e+00 2.0504803760e+00 3.5515361911e+00 
32300 4.1985000331e+00 -3.0869963315e-02 2.0512376482e+00 -3.5528478250e+00 2.0512376482e+00 3.5528478250e+00 
32400 4.1984720208e+00 -3.0687278763e-02 2.0519901658e+00 -3.5541512238e+00 2.0519901658e+00 3.5541512238e+00 
32500 4.1984443766e+00 -3.0505469760e-02 2.0527379555e+00 -3.5554464335e+00 2.0527379555e+00 3.5554464335e+00 
32600 4.1984170958e+00 -3.0324535820e-02 2.0534810437e+00 -3.5567335001e+00 2.0534810437e+00 3.5567335001e+00 
32700 4.1983901739e+00 -3.0144476365e-02 2.0542194570e+00 -3.5580124694e+00 2.0542194570e+00 3.5580124694e+00 
32800 4.1983636061e+00 -2.9965290727e-02 2.0549532216e+00 -3.5592833870e+00 2.0549532216e+00 3.5592833870e+00 
32900 4.1983373880e+00 -2.9786978151e-02 2.0556823638e+00 -3.5605462983e+00 2.0556823638e+00 3.5605462983e+00 
33000 4.1983115150e+00 -2.9609537796e-02 2.0564069098e+00 -3.5618012487e+00 2.0564069098e+00 3.5618012487e+00 
33100 4.1982859828e+00 -2.9432968733e-02 2.0571268856e+00 -3.5630482834e+00 2.0571268856e+00 3.5630482834e+00 
33200 4.1982607869e+00 -2.9257269951e-02 2.0578423172e+00 -3.5642874474e+00 2.0578423172e+00 3.5642874474e+00 
33300 4.1982359229e+00 -2.9082440358e-02 2.0585532306e+00 -3.5655187855e+00 2.0585532306e+00 3.5655187855e+00 
33400 4.1982113867e+00 -2.8908478779e-02 2.0592596516e+00 -3.5667423425e+00 2.0592596516e+00 3.5667423425e+00 
33500 4.1981871739e+00 -2.8735383963e-02 2.0599616058e+00 -3.5679581629e+00 2.0599616058e+00 3.5679581629e+00 
33600 4.1981632805e+00 -2.8563154581e-02 2.0606591189e+00 -3.5691662911e+00 2.0606591189e+00 3.5691662911e+00 
33700 4.1981397022e+00 -2.8391789231e-02 2.0613522165e+00 -3.5703667712e+00 2.0613522165e+00 3.5703667712e+00 
33800 4.1981164350e+00 -2.8221286437e-02 2.0620409239e+00 -3.5715596474e+00 2.0620409239e+00 3.5715596474e+00 
33900 4.1980934749e+00 -2.8051644653e-02 2.0627252664e+00 -3.5727449635e+00 2.0627252664e+00 3.5727449635e+00 
34000 4.1980708179e+00 -2.7882862265e-02 2.0634052694e+00 -3.5739227631e+00 2.0634052694e+00 3.5739227631e+00 
34100 4.1980484601e+00 -2.7714937593e-02 2.0640809578e+00 -3.5750930899e+00 2.0640809578e+00 3.5750930899e+00 
34200 4.1980263975e+00 -2.7547868891e-02 2.0647523569e+00 -3.5762559872e+00 2.0647523569e+00 3.5762559872e+00 
34300 4.1980046264e+00 -2.7381654354e-02 2.0654194914e+00 -3.5774114981e+00 2.0654194914e+00 3.5774114981e+00 
34400 4.1979831430e+00 -2.7216292113e-02 2.0660823863e+00 -3.5785596656e+00 2.0660823863e+00 3.5785596656e+00 
34500 4.1979619436e+00 -2.7051780244e-02 2.0667410661e+00 -3.5797005326e+00 2.0667410661e+00 3.5797005326e+00 
34600 4.1979410243e+00 -2.6888116767e-02 2.0673955556e+00 -3.5808341417e+00 2.0673955556e+00 3.5808341417e+00 
34700 4.1979203817e+00 -2.6725299649e-02 2.0680458793e+00 -3.5819605354e+00 2.0680458793e+00 3.5819605354e+00 
34800 4.1979000121e+00 -2.6563326803e-02 2.0686920616e+00 -3.5830797559e+00 2.0686920616e+00 3.5830797559e+00 
34900 4.1978799119e+00 -2.6402196095e-02 2.0693341267e+00 -3.5841918453e+00 2.0693341267e+00 3.5841918453e+00 
35000 4.1978600776e+00 -2.6241905344e-02 2.0699720989e+00 -3.5852968455e+00 2.0699720989e+00 3.5852968455e+00 
35100 4.1978405058e+00 -2.6082452321e-02 2.0706060022e+00 -3.5863947983e+00 2.0706060022e+00 3.5863947983e+00 
35200 4.1978211931e+00 -2.5923834756e-02 2.0712358607e+00 -3.5874857452e+00 2.0712358607e+00 3.5874857452e+00 
35300 4.1978021360e+00 -2.5766050337e-02 2.0718616981e+00 -3.5885697274e+00 2.0718616981e+00 3.5885697274e+00 
35400 4.1977833312e+00 -2.5609096713e-02 2.0724835384e+00 -3.5896467863e+00 2.0724835384e+00 3.5896467863e+00 
35500 4.1977647755e+00 -2.5452971493e-02 2.0731014050e+00 -3.5907169627e+00 2.0731014050e+00 3.5907169627e+00 
35600 4.1977464655e+00 -2.5297672254e-02 2.0737153216e+00 -3.5917802975e+00 2.0737153216e+00 3.5917802975e+00 
35700 4.1977283980e+00 -2.5143196537e-02 2.0743253116e+00 -3.5928368311e+00 2.0743253116e+00 3.5928368311e+00 
35800 4.1977105700e+00 -2.4989541849e-02 2.0749313983e+00 -3.5938866041e+00 2.0749313983e+00 3.5938866041e+00 
35900 4.1976929782e+00 -2.4836705670e-02 2.0755336050e+00 -3.5949296566e+00 2.0755336050e+00 3.5949296566e+00 
36000 4.1976756195e+00 -2.4684685447e-02 2.0761319547e+00 -3.5959660287e+00 2.0761319547e+00 3.5959660287e+00 
36100 4.1976584910e+00 -2.4533478604e-02 2.0767264705e+00 -3.5969957602e+00 2.0767264705e+00 3.5969957602e+00 
36200 4.1976415895e+00 -2.4383082536e-02 2.0773171751e+00 -3.5980188908e+00 2.0773171751e+00 3.5980188908e+00 
36300 4.1976249121e+00 -2.4233494613e-02 2.0779040915e+00 -3.5990354598e+00 2.0779040915e+00 3.5990354598e+00 
36400 4.1976084558e+00 -2.4084712185e-02 2.0784872423e+00 -3.6000455066e+00 2.0784872423e+00 3.6000455066e+00 
36500 4.1975922178e+00 -2.3936732577e-02 2.0790666500e+00 -3.6010490702e+00 2.0790666500e+00 3.6010490702e+00 
36600 4.1975761953e+00 -2.3789553096e-02 2.0796423371e+00 -3.6020461895e+00 2.0796423371e+00 3.6020461895e+00 
36700 4.1975603852e+00 -2.3643171027e-02 2.0802143259e+00 -3.6030369032e+00 2.0802143259e+00 3.6030369032e+00 
36800 4.1975447849e+00 -2.3497583641e-02 2.0807826387e+00 -3.6040212498e+00 2.0807826387e+00 3.6040212498e+00 
36900 4.1975293917e+00 -2.3352788188e-02 2.0813472975e+00 -3.6049992676e+00 2.0813472975e+00 3.6049992676e+00 
37000 4.1975142027e+00 -2.3208781905e-02 2.0819083245e+00 -3.6059709947e+00 2.0819083245e+00 3.6059709947e+00 
37100 4.1974992153e+00 -2.3065562012e-02 2.0824657414e+00 -3.6069364690e+00 2.0824657414e+00 3.6069364690e+00 
37200 4.1974844269e+00 -2.2923125716e-02 2.0830195700e+00 -3.6078957284e+00 2.0830195700e+00 3.6078957284e+00 
37300 4.1974698347e+00 -2.2781470211e-02 2.0835698321e+00 -3.6088488103e+00 2.0835698321e+00 3.6088488103e+00 
37400 4.1974554363e+00 -2.2640592678e-02 2.0841165492e+00 -3.6097957522e+00 2.0841165492e+00 3.6097957522e+00 
37500 4.1974412291e+00 -2.2500490290e-02 2.0846597428e+00 -3.6107365911e+00 2.0846597428e+00 3.6107365911e+00 
37600 4.1974272106e+00 -2.2361160204e-02 2.0851994343e+00 -3.6116713641e+00 2.0851994343e+00 3.6116713641e+00 
37700 4.1974133782e+00 -2.2222599571e-02 2.0857356448e+00 -3.6126001080e+00 2.0857356448e+00 3.6126001080e+00 
37800 4.1973997295e+00 -2.2084805531e-02 2.0862683956e+00 -3.6135228594e+00 2.0862683956e+00 3.6135228594e+00 
37900 4.1973862622e+00 -2.1947775217e-02 2.0867977076e+00 -3.6144396547e+00 2.0867977076e+00 3.6144396547e+00 
38000 4.1973729737e+00 -2.1811505753e-02 2.0873236019e+00 -3.6153505302e+00 2.0873236019e+00 3.6153505302e+00 
38100 4.1973598618e+00 -2.1675994254e-02 2.0878460991e+00 -3.6162555220e+00 2.0878460991e+00 3.6162555220e+00 
38200 4.1973469241e+00 -2.1541237830e-02 2.0883652200e+00 -3.6171546658e+00 2.0883652200e+00 3.6171546658e+00 
38300 4.1973341583e+00 -2.1407233585e-02 2.0888809853e+00 -3.6180479974e+00 2.0888809853e+00 3.6180479974e+00 
38400 4.1973215621e+00 -2.1273978614e-02 2.0893934153e+00 -3.6189355523e+00 2.0893934153e+00 3.6189355523e+00 
38500 4.1973091333e+00 -2.1141470010e-02 2.0899025306e+00 -3.6198173659e+00 2.0899025306e+00 3.6198173659e+00 
38600 4.1972968697e+00 -2.1009704858e-02 2.0904083514e+00 -3.6206934732e+00 2.0904083514e+00 3.6206934732e+00 
38700 4.1972847691e+00 -2.0878680239e-02 2.0909108978e+00 -3.6215639092e+00 2.0909108978e+00 3.6215639092e+00 
38800 4.1972728294e+00 -2.0748393229e-02 2.0914101901e+00 -3.6224287087e+00 2.0914101901e+00 3.6224287087e+00 
38900 4.1972610483e+00 -2.0618840900e-02 2.0919062480e+00 -3.6232879062e+00 2.0919062480e+00 3.6232879062e+00 
39000 4.1972494239e+00 -2.0490020320e-02 2.0923990916e+00 -3.6241415363e+00 2.0923990916e+00 3.6241415363e+00 
39100 4.1972379540e+00 -2.0361928553e-02 2.0928887405e+00 -3.6249896331e+00 2.0928887405e+00 3.6249896331e+00 
39200 4.1972266366e+00 -2.0234562659e-02 2.0933752145e+00 -3.6258322307e+00 2.0933752145e+00 3.6258322307e+00 
39300 4.1972154696e+00 -2.0107919696e-02 2.0938585330e+00 -3.6266693630e+00 2.0938585330e+00 3.6266693630e+00 
39400 4.1972044512e+00 -1.9981996716e-02 2.0943387156e+00 -3.6275010636e+00 2.0943387156e+00 3.6275010636e+00 
39500 4.1971935792e+00 -1.9856790771e-02 2.0948157816e+00 -3.6283273662e+00 2.0948157816e+00 3.6283273662e+00 
39600 4.1971828518e+00 -1.9732298909e-02 2.0952897502e+00 -3.6291483039e+00 2.0952897502e+00 3.6291483039e+00 
39700 4.1971722671e+00 -1.9608518175e-02 2.0957606406e+00 -3.6299639101e+00 2.0957606406e+00 3.6299639101e+00 
39800 4.1971618232e+00 -1.9485445612e-02 2.0962284719e+00 -3.6307742176e+00 2.0962284719e+00 3.6307742176e+00 
39900 4.1971515181e+00 -1.9363078260e-02 2.0966932630e+00 -3.6315792593e+00 2.0966932630e+00 3.6315792593e+00 
40000 4.1971413501e+00 -1.9241413157e-02 2.0971550327e+00 -3.6323790679e+00 2.0971550327e+00 3.6323790679e+00 
40100 4.1971313174e+00 -1.9120447339e-02 2.0976137998e+00 -3.6331736759e+00 2.0976137998e+00 3.6331736759e+00 
40200 4.1971214180e+00 -1.9000177841e-02 2.0980695829e+00 -3.6339631154e+00 2.0980695829e+00 3.6339631154e+00 
40300 4.1971116504e+00 -1.8880601693e-02 2.0985224006e+00 -3.6347474187e+00 2.0985224006e+00 3.6347474187e+00 
40400 4.1971020127e+00 -1.8761715927e-02 2.0989722713e+00 -3.6355266176e+00 2.0989722713e+00 3.6355266176e+00 
40500 4.1970925031e+00 -1.8643517571e-02 2.0994192134e+00 -3.6363007441e+00 2.0994192134e+00 3.6363007441e+00 
40600 4.1970831201e+00 -1.8526003651e-02 2.0998632452e+00 -3.6370698296e+00 2.0998632452e+00 3.6370698296e+00 
40700 4.1970738619e+00 -1.8409171194e-02 2.1003043847e+00 -3.6378339056e+00 2.1003043847e+00 3.6378339056e+00 
40800 4.1970647269e+00 -1.8293017223e-02 2.1007426500e+00 -3.6385930034e+00 2.1007426500e+00 3.6385930034e+00 
40900 4.1970557134e+00 -1.8177538761e-02 2.1011780591e+00 -3.6393471541e+00 2.1011780591e+00 3.6393471541e+00 
41000 4.1970468198e+00 -1.8062732830e-02 2.1016106298e+00 -3.6400963885e+00 2.1016106298e+00 3.6400963885e+00 
41100 4.1970380445e+00 -1.7948596451e-02 2.1020403799e+00 -3.6408407376e+00 2.1020403799e+00 3.6408407376e+00 
41200 4.1970293860e+00 -1.7835126642e-02 2.1024673271e+00 -3.6415802318e+00 2.1024673271e+00 3.6415802318e+00 
41300 4.1970208426e+00 -1.7722320424e-02 2.1028914889e+00 -3.6423149015e+00 2.1028914889e+00 3.6423149015e+00 
41400 4.1970124130e+00 -1.7610174813e-02 2.1033128828e+00 -3.6430447771e+00 2.1033128828e+00 3.6430447771e+00 
41500 4.1970040954e+00 -1.7498686829e-02 2.1037315261e+00 -3.6437698887e+00 2.1037315261e+00 3.6437698887e+00 
41600 4.1969958886e+00 -1.7387853487e-02 2.1041474362e+00 -3.6444902661e+00 2.1041474362e+00 3.6444902661e+00 
41700 4.1969877909e+00 -1.7277671805e-02 2.1045606302e+00 -3.6452059391e+00 2.1045606302e+00 3.6452059391e+00 
41800 4.1969798010e+00 -1.7168138800e-02 2.1049711252e+00 -3.6459169374e+00 2.1049711252e+00 3.6459169374e+00 
41900 4.1969719174e+00 -1.7059251487e-02 2.1053789383e+00 -3.6466232902e+00 2.1053789383e+00 3.6466232902e+00 
42000 4.1969641387e+00 -1.6951006884e-02 2.1057840862e+00 -3.6473250270e+00 2.1057840862e+00 3.6473250270e+00 
42100 4.1969564634e+00 -1.6843402008e-02 2.1061865858e+00 -3.6480221769e+00 2.1061865858e+00 3.6480221769e+00 
42200 4.1969488903e+00 -1.6736433876e-02 2.1065864539e+00 -3.6487147687e+00 2.1065864539e+00 3.6487147687e+00 
42300 4.1969414180e+00 -1.6630099505e-02 2.1069837070e+00 -3.6494028312e+00 2.1069837070e+00 3.6494028312e+00 
42400 4.1969340451e+00 -1.6524395915e-02 2.1073783616e+00 -3.6500863931e+00 2.1073783616e+00 3.6500863931e+00 
42500 4.1969267703e+00 -1.6419320125e-02 2.1077704343e+00 -3.6507654829e+00 2.1077704343e+00 3.6507654829e+00 
42600 4.1969195923e+00 -1.6314869155e-02 2.1081599413e+00 -3.6514401287e+00 2.1081599413e+00 3.6514401287e+00 
42700 4.1969125097e+00 -1.6211040027e-02 2.1085468988e+00 -3.6521103589e+00 2.1085468988e+00 3.6521103589e+00 
42800 4.1969055215e+00 -1.6107829764e-02 2.1089313231e+00 -3.6527762013e+00 2.1089313231e+00 3.6527762013e+00 
42900 4.1968986262e+00 -1.6005235392e-02 2.1093132302e+00 -3.6534376837e+00 2.1093132302e+00 3.6534376837e+00 
43000 4.1968918226e+00 -1.5903253936e-02 2.1096926360e+00 -3.6540948339e+00 2.1096926360e+00 3.6540948339e+00 
43100 4.1968851096e+00 -1.5801882425e-02 2.1100695565e+00 -3.6547476793e+00 2.1100695565e+00 3.6547476793e+00 
43200 4.1968784859e+00 -1.5701117889e-02 2.1104440074e+00 -3.6553962474e+00 2.1104440074e+00 3.6553962474e+00 
43300 4.1968719503e+00 -1.5600957362e-02 2.1108160045e+00 -3.6560405652e+00 2.1108160045e+00 3.6560405652e+00 
43400 4.1968655017e+00 -1.5501397878e-02 2.1111855633e+00 -3.6566806598e+00 2.1111855633e+00 3.6566806598e+00 
43500 4.1968591389e+00 -1.5402436477e-02 2.1115526993e+00 -3.6573165581e+00 2.1115526993e+00 3.6573165581e+00 
43600 4.1968528607e+00 -1.5304070198e-02 2.1119174281e+00 -3.6579482868e+00 2.1119174281e+00 3.6579482868e+00 
43700 4.1968466660e+00 -1.5206296087e-02 2.1122797649e+00 -3.6585758725e+00 2.1122797649e+00 3.6585758725e+00 
43800 4.1968405538e+00 -1.5109111191e-02 2.1126397249e+00 -3.6591993417e+00 2.1126397249e+00 3.6591993417e+00 
43900 4.1968345229e+00 -1.5012512560e-02 2.1129973235e+00 -3.6598187205e+00 2.1129973235e+00 3.6598187205e+00 
44000 4.1968285722e+00 -1.4916497250e-02 2.1133525755e+00 -3.6604340351e+00 2.1133525755e+00 3.6604340351e+00 
44100 4.1968227007e+00 -1.4821062319e-02 2.1137054961e+00 -3.6610453115e+00 2.1137054961e+00 3.6610453115e+00 
44200 4.1968169073e+00 -1.4726204831e-02 2.1140561001e+00 -3.6616525755e+00 2.1140561001e+00 3.6616525755e+00 
44300 4.1968111910e+00 -1.4631921852e-02 2.1144044024e+00 -3.6622558526e+00 2.1144044024e+00 3.6622558526e+00 
44400 4.1968055507e+00 -1.4538210454e-02 2.1147504175e+00 -3.6628551685e+00 2.1147504175e+00 3.6628551685e+00 
44500 4.1967999855e+00 -1.4445067714e-02 2.1150941603e+00 -3.6634505485e+00 2.1150941603e+00 3.6634505485e+00 
44600 4.1967944943e+00 -1.4352490713e-02 2.1154356453e+00 -3.6640420178e+00 2.1154356453e+00 3.6640420178e+00 
44700 4.1967890761e+00 -1.4260476538e-02 2.1157748869e+00 -3.6646296014e+00 2.1157748869e+00 3.6646296014e+00 
44800 4.1967837300e+00 -1.4169022280e-02 2.1161118994e+00 -3.6652133243e+00 2.1161118994e+00 3.6652133243e+00 
44900 4.1967784550e+00 -1.4078125038e-02 2.1164466973e+00 -3.6657932113e+00 2.1164466973e+00 3.6657932113e+00 
45000 4.1967732502e+00 -1.3987781914e-02 2.1167792947e+00 -3.6663692869e+00 2.1167792947e+00 3.6663692869e+00 
45100 4.1967681146e+00 -1.3897990018e-02 2.1171097058e+00 -3.6669415756e+00 2.1171097058e+00 3.6669415756e+00 
45200 4.1967630473e+00 -1.3808746465e-02 2.1174379445e+00 -3.6675101018e+00 2.1174379445e+00 3.6675101018e+00 
45300 4.1967580474e+00 -1.3720048376e-02 2.1177640250e+00 -3.6680748897e+00 2.1177640250e+00 3.6680748897e+00 
45400 4.1967531141e+00 -1.3631892880e-02 2.1180879609e+00 -3.6686359632e+00 2.1180879609e+00 3.6686359632e+00 
45500 4.1967482463e+00 -1.3544277111e-02 2.1184097662e+00 -3.6691933463e+00 2.1184097662e+00 3.6691933463e+00 
45600 4.1967434433e+00 -1.3457198211e-02 2.1187294545e+00 -3.6697470627e+00 2.1187294545e+00 3.6697470627e+00 
45700 4.1967387041e+00 -1.3370653328e-02 2.1190470395e+00 -3.6702971361e+00 2.1190470395e+00 3.6702971361e+00 
45800 4.1967340280e+00 -1.3284639618e-02 2.1193625348e+00 -3.6708435899e+00 2.1193625348e+00 3.6708435899e+00 
45900 4.1967294141e+00 -1.3199154244e-02 2.1196759537e+00 -3.6713864474e+00 2.1196759537e+00 3.6713864474e+00 
46000 4.1967248615e+00 -1.3114194377e-02 2.1199873097e+00 -3.6719257319e+00 2.1199873097e+00 3.6719257319e+00 
46100 4.1967203695e+00 -1.3029757195e-02 2.1202966161e+00 -3.6724614663e+00 2.1202966161e+00 3.6724614663e+00 
46200 4.1967159372e+00 -1.2945839884e-02 2.1206038862e+00 -3.6729936736e+00 2.1206038862e+00 3.6729936736e+00 
46300 4.1967115638e+00 -1.2862439639e-02 2.1209091329e+00 -3.6735223765e+00 2.1209091329e+00 3.6735223765e+00 
46400 4.1967072486e+00 -1.2779553661e-02 2.1212123696e+00 -3.6740475977e+00 2.1212123696e+00 3.6740475977e+00 
46500 4.1967029907e+00 -1.2697179160e-02 2.1215136090e+00 -3.6745693597e+00 2.1215136090e+00 3.6745693597e+00 
46600 4.1966987895e+00 -1.2615313356e-02 2.1218128641e+00 -3.6750876849e+00 2.1218128641e+00 3.6750876849e+00 
46700 4.1966946441e+00 -1.2533953476e-02 2.1221101479e+00 -3.6756025953e+00 2.1221101479e+00 3.6756025953e+00 
46800 4.1966905539e+00 -1.2453096756e-02 2.1224054729e+00 -3.6761141133e+00 2.1224054729e+00 3.6761141133e+00 
46900 4.1966865180e+00 -1.2372740440e-02 2.1226988519e+00 -3.6766222606e+00 2.1226988519e+00 3.6766222606e+00 
47000 4.1966825358e+00 -1.2292881783e-02 2.1229902974e+00 -3.6771270591e+00 2.1229902974e+00 3.6771270591e+00 
47100 4.1966786065e+00 -1.2213518046e-02 2.1232798221e+00 -3.6776285306e+00 2.1232798221e+00 3.6776285306e+00 
47200 4.1966747295e+00 -1.2134646502e-02 2.1235674383e+00 -3.6781266964e+00 2.1235674383e+00 3.6781266964e+00 
47300 4.1966709040e+00 -1.2056264431e-02 2.1238531584e+00 -3.6786215782e+00 2.1238531584e+00 3.6786215782e+00 
47400 4.1966671293e+00 -1.1978369124e-02 2.1241369947e+00 -3.6791131971e+00 2.1241369947e+00 3.6791131971e+00 
47500 4.1966634048e+00 -1.1900957881e-02 2.1244189594e+00 -3.6796015743e+00 2.1244189594e+00 3.6796015743e+00 
47600 4.1966597299e+00 -1.1824028010e-02 2.1246990647e+00 -3.6800867309e+00 2.1246990647e+00 3.6800867309e+00 
47700 4.1966561037e+00 -1.1747576830e-02 2.1249773226e+00 -3.6805686877e+00 2.1249773226e+00 3.6805686877e+00 
47800 4.1966525258e+00 -1.1671601671e-02 2.1252537451e+00 -3.6810474656e+00 2.1252537451e+00 3.6810474656e+00 
47900 4.1966489954e+00 -1.1596099869e-02 2.1255283442e+00 -3.6815230851e+00 2.1255283442e+00 3.6815230851e+00 
48000 4.1966455120e+00 -1.1521068774e-02 2.1258011316e+00 -3.6819955667e+00 2.1258011316e+00 3.6819955667e+00 
48100 4.1966420748e+00 -1.1446505743e-02 2.1260721192e+00 -3.6824649310e+00 2.1260721192e+00 3.6824649310e+00 
48200 4.1966386833e+00 -1.1372408144e-02 2.1263413186e+00 -3.6829311980e+00 2.1263413186e+00 3.6829311980e+00 
48300 4.1966353369e+00 -1.1298773355e-02 2.1266087415e+00 -3.6833943880e+00 2.1266087415e+00 3.6833943880e+00 
48400 4.1966320350e+00 -1.1225598765e-02 2.1268743994e+00 -3.6838545210e+00 2.1268743994e+00 3.6838545210e+00 
48500 4.1966287769e+00 -1.1152881770e-02 2.1271383038e+00 -3.6843116169e+00 2.1271383038e+00 3.6843116169e+00 
48600 4.1966255621e+00 -1.1080619781e-02 2.1274004661e+00 -3.6847656954e+00 2.1274004661e+00 3.6847656954e+00 
48700 4.1966223900e+00 -1.1008810215e-02 2.1276608977e+00 -3.6852167761e+00 2.1276608977e+00 3.6852167761e+00 
48800 4.1966192601e+00 -1.0937450502e-02 2.1279196098e+00 -3.6856648787e+00 2.1279196098e+00 3.6856648787e+00 
48900 4.1966161718e+00 -1.0866538081e-02 2.1281766137e+00 -3.6861100224e+00 2.1281766137e+00 3.6861100224e+00 
49000 4.1966131245e+00 -1.0796070401e-02 2.1284319204e+00 -3.6865522266e+00 2.1284319204e+00 3.6865522266e+00 
49100 4.1966101177e+00 -1.0726044924e-02 2.1286855410e+00 -3.6869915104e+00 2.1286855410e+00 3.6869915104e+00 
49200 4.1966071508e+00 -1.0656459119e-02 2.1289374866e+00 -3.6874278929e+00 2.1289374866e+00 3.6874278929e+00 
49300 4.1966042233e+00 -1.0587310468e-02 2.1291877679e+00 -3.6878613929e+00 2.1291877679e+00 3.6878613929e+00 
49400 4.1966013347e+00 -1.0518596462e-02 2.1294363960e+00 -3.6882920294e+00 2.1294363960e+00 3.6882920294e+00 
49500 4.1965984845e+00 -1.0450314605e-02 2.1296833815e+00 -3.6887198208e+00 2.1296833815e+00 3.6887198208e+00 
49600 4.1965956722e+00 -1.0382462408e-02 2.1299287353e+00 -3.6891447860e+00 2.1299287353e+00 3.6891447860e+00 
49700 4.1965928972e+00 -1.0315037395e-02 2.1301724678e+00 -3.6895669432e+00 2.1301724678e+00 3.6895669432e+00 
49800 4.1965901591e+00 -1.0248037100e-02 2.1304145898e+00 -3.6899863108e+00 2.1304145898e+00 3.6899863108e+00 
49900 4.1965874573e+00 -1.0181459068e-02 2.1306551118e+00 -3.6904029071e+00 2.1306551118e+00 3.6904029071e+00 
50000 4.1965847914e+00 -1.0115300854e-02 2.1308940442e+00 -3.6908167501e+00 2.1308940442e+00 3.6908167501e+00 
50100 4.1965821609e+00 -1.0049560025e-02 2.1311313973e+00 -3.6912278578e+00 2.1311313973e+00 3.6912278578e+00 
50200 4.1965795654e+00 -9.9842341568e-03 2.1313671816e+00 -3.6916362481e+00 2.1313671816e+00 3.6916362481e+00 
50300 4.1965770043e+00 -9.9193208369e-03 2.1316014072e+00 -3.6920419388e+00 2.1316014072e+00 3.6920419388e+00 
50400 4.1965744772e+00 -9.8548176635e-03 2.1318340845e+00 -3.6924449476e+00 2.1318340845e+00 3.6924449476e+00 
50500 4.1965719837e+00 -9.7907222455e-03 2.1320652234e+00 -3.6928452919e+00 2.1320652234e+00 3.6928452919e+00 
50600 4.1965695233e+00 -9.7270322024e-03 2.1322948340e+00 -3.6932429892e+00 2.1322948340e+00 3.6932429892e+00 
50700 4.1965670955e+00 -9.6637451645e-03 2.1325229264e+00 -3.6936380569e+00 2.1325229264e+00 3.6936380569e+00 
50800 4.1965647000e+00 -9.6008587728e-03 2.1327495105e+00 -3.6940305121e+00 2.1327495105e+00 3.6940305121e+00 
50900 4.1965623363e+00 -9.5383706789e-03 2.1329745962e+00 -3.6944203719e+00 2.1329745962e+00 3.6944203719e+00 
51000 4.1965600040e+00 -9.4762785452e-03 2.1331981933e+00 -3.6948076534e+00 2.1331981933e+00 3.6948076534e+00 
51100 4.1965577026e+00 -9.4145800449e-03 2.1334203115e+00 -3.6951923734e+00 2.1334203115e+00 3.6951923734e+00 
51200 4.1965554318e+00 -9.3532728619e-03 2.1336409605e+00 -3.6955745487e+00 2.1336409605e+00 3.6955745487e+00 
51300 4.1965531911e+00 -9.2923546907e-03 2.1338601500e+00 -3.6959541961e+00 2.1338601500e+00 3.6959541961e+00 
51400 4.1965509802e+00 -9.2318232365e-03 2.1340778895e+00 -3.6963313319e+00 2.1340778895e+00 3.6963313319e+00 
51500 4.1965487986e+00 -9.1716762153e-03 2.1342941885e+00 -3.6967059728e+00 2.1342941885e+00 3.6967059728e+00 
51600 4.1965466460e+00 -9.1119113538e-03 2.1345090565e+00 -3.6970781351e+00 2.1345090565e+00 3.6970781351e+00 
51700 4.1965445219e+00 -9.0525263894e-03 2.1347225029e+00 -3.6974478350e+00 2.1347225029e+00 3.6974478350e+00 
51800 4.1965424260e+00 -8.9935190700e-03 2.1349345369e+00 -3.6978150887e+00 2.1349345369e+00 3.6978150887e+00 
51900 4.1965403580e+00 -8.9348871543e-03 2.1351451679e+00 -3.6981799123e+00 2.1351451679e+00 3.6981799123e+00 
52000 4.1965383174e+00 -8.8766284118e-03 2.1353544050e+00 -3.6985423216e+00 2.1353544050e+00 3.6985423216e+00 
52100 4.1965363039e+00 -8.8187406223e-03 2.1355622574e+00 -3.6989023326e+00 2.1355622574e+00 3.6989023326e+00 
52200 4.1965343170e+00 -8.7612215765e-03 2.1357687343e+00 -3.6992599610e+00 2.1357687343e+00 3.6992599610e+00 
52300 4.1965323566e+00 -8.7040690758e-03 2.1359738445e+00 -3.6996152224e+00 2.1359738445e+00 3.6996152224e+00 
52400 4.1965304222e+00 -8.6472809319e-03 2.1361775972e+00 -3.6999681323e+00 2.1361775972e+00 3.6999681323e+00 
52500 4.1965285134e+00 -8.5908549673e-03 2.1363800012e+00 -3.7003187063e+00 2.1363800012e+00 3.7003187063e+00 
52600 4.1965266300e+00 -8.5347890150e-03 2.1365810654e+00 -3.7006669597e+00 2.1365810654e+00 3.7006669597e+00 
52700 4.1965247715e+00 -8.4790809188e-03 2.1367807985e+00 -3.7010129077e+00 2.1367807985e+00 3.7010129077e+00 
52800 4.1965229377e+00 -8.4237285328e-03 2.1369792094e+00 -3.7013565655e+00 2.1369792094e+00 3.7013565655e+00 
52900 4.1965211283e+00 -8.3687297216e-03 2.1371763068e+00 -3.7016979481e+00 2.1371763068e+00 3.7016979481e+00 
53000 4.1965193428e+00 -8.3140823606e-03 2.1373720992e+00 -3.7020370704e+00 2.1373720992e+00 3.7020370704e+00 
53100 4.1965175810e+00 -8.2597843355e-03 2.1375665952e+00 -3.7023739475e+00 2.1375665952e+00 3.7023739475e+00 
53200 4.1965158426e+00 -8.2058335425e-03 2.1377598034e+00 -3.7027085939e+00 2.1377598034e+00 3.7027085939e+00 
53300 4.1965141273e+00 -8.1522278883e-03 2.1379517323e+00 -3.7030410245e+00 2.1379517323e+00 3.7030410245e+00 
53400 4.1965124347e+00 -8.0989652902e-03 2.1381423902e+00 -3.7033712537e+00 2.1381423902e+00 3.7033712537e+00 
53500 4.1965107645e+00 -8.0460436757e-03 2.1383317856e+00 -3.7036992961e+00 2.1383317856e+00 3.7036992961e+00 
53600 4.1965091165e+00 -7.9934609828e-03 2.1385199267e+00 -3.7040251660e+00 2.1385199267e+00 3.7040251660e+00 
53700 4.1965074904e+00 -7.9412151601e-03 2.1387068218e+00 -3.7043488778e+00 2.1387068218e+00 3.7043488778e+00 
53800 4.1965058858e+00 -7.8893041662e-03 2.1388924791e+00 -3.7046704457e+00 2.1388924791e+00 3.7046704457e+00 
53900 4.1965043025e+00 -7.8377259704e-03 2.1390769067e+00 -3.7049898837e+00 2.1390769067e+00 3.7049898837e+00 
54000 4.1965027402e+00 -7.7864785522e-03 2.1392601128e+00 -3.7053072059e+00 2.1392601128e+00 3.7053072059e+00 
54100 4.1965011987e+00 -7.7355599014e-03 2.1394421053e+00 -3.7056224263e+00 2.1394421053e+00 3.7056224263e+00 
54200 4.1964996775e+00 -7.6849680182e-03 2.1396228924e+00 -3.7059355587e+00 2.1396228924e+00 3.7059355587e+00 
54300 4.1964981766e+00 -7.6347009129e-03 2.1398024819e+00 -3.7062466168e+00 2.1398024819e+00 3.7062466168e+00 
54400 4.1964966955e+00 -7.5847566064e-03 2.1399808817e+00 -3.7065556143e+00 2.1399808817e+00 3.7065556143e+00 
54500 4.1964952341e+00 -7.5351331294e-03 2.1401580997e+00 -3.7068625648e+00 2.1401580997e+00 3.7068625648e+00 
54600 4.1964937920e+00 -7.4858285231e-03 2.1403341436e+00 -3.7071674819e+00 2.1403341436e+00 3.7071674819e+00 
54700 4.1964923691e+00 -7.4368408388e-03 2.1405090212e+00 -3.7074703788e+00 2.1405090212e+00 3.7074703788e+00 
54800 4.1964909650e+00 -7.3881681380e-03 2.1406827402e+00 -3.7077712689e+00 2.1406827402e+00 3.7077712689e+00 
54900 4.1964895796e+00 -7.3398084924e-03 2.1408553082e+00 -3.7080701654e+00 2.1408553082e+00 3.7080701654e+00 
55000 4.1964882125e+00 -7.2917599837e-03 2.1410267328e+00 -3.7083670816e+00 2.1410267328e+00 3.7083670816e+00 
55100 4.1964868635e+00 -7.2440207037e-03 2.1411970216e+00 -3.7086620304e+00 2.1411970216e+00 3.7086620304e+00 
55200 4.1964855324e+00 -7.1965887544e-03 2.1413661820e+00 -3.7089550249e+00 2.1413661820e+00 3.7089550249e+00 
55300 4.1964842190e+00 -7.1494622477e-03 2.1415342215e+00 -3.7092460779e+00 2.1415342215e+00 3.7092460779e+00 
55400 4.1964829229e+00 -7.1026393057e-03 2.1417011476e+00 -3.7095352022e+00 2.1417011476e+00 3.7095352022e+00 
55500 4.1964816441e+00 -7.0561180603e-03 2.1418669674e+00 -3.7098224106e+00 2.1418669674e+00 3.7098224106e+00 
55600 4.1964803822e+00 -7.0098966536e-03 2.1420316884e+00 -3.7101077157e+00 2.1420316884e+00 3.7101077157e+00 
55700 4.1964791370e+00 -6.9639732373e-03 2.1421953177e+00 -3.7103911301e+00 2.1421953177e+00 3.7103911301e+00 
55800 4.1964779083e+00 -6.9183459734e-03 2.1423578627e+00 -3.7106726662e+00 2.1423578627e+00 3.7106726662e+00 
55900 4.1964766959e+00 -6.8730130335e-03 2.1425193304e+00 -3.7109523365e+00 2.1425193304e+00 3.7109523365e+00 
56000 4.1964754996e+00 -6.8279725993e-03 2.1426797280e+00 -3.7112301533e+00 2.1426797280e+00 3.7112301533e+00 
56100 4.1964743191e+00 -6.7832228622e-03 2.1428390626e+00 -3.7115061288e+00 2.1428390626e+00 3.7115061288e+00 
56200 4.1964731543e+00 -6.7387620234e-03 2.1429973410e+00 -3.7117802752e+00 2.1429973410e+00 3.7117802752e+00 
56300 4.1964720049e+00 -6.6945882939e-03 2.1431545705e+00 -3.7120526045e+00 2.1431545705e+00 3.7120526045e+00 
56400 4.1964708707e+00 -6.6506998945e-03 2.1433107577e+00 -3.7123231288e+00 2.1433107577e+00 3.7123231288e+00 
56500 4.1964697515e+00 -6.6070950557e-03 2.1434659098e+00 -3.7125918600e+00 2.1434659098e+00 3.7125918600e+00 
56600 4.1964686472e+00 -6.5637720176e-03 2.1436200334e+00 -3.7128588099e+00 2.1436200334e+00 3.7128588099e+00 
56700 4.1964675575e+00 -6.5207290302e-03 2.1437731354e+00 -3.7131239904e+00 2.1437731354e+00 3.7131239904e+00 
56800 4.1964664823e+00 -6.4779643528e-03 2.1439252225e+00 -3.7133874130e+00 2.1439252225e+00 3.7133874130e+00 
56900 4.1964654213e+00 -6.4354762546e-03 2.1440763015e+00 -3.7136490895e+00 2.1440763015e+00 3.7136490895e+00 
57000 4.1964643743e+00 -6.3932630142e-03 2.1442263790e+00 -3.7139090313e+00 2.1442263790e+00 3.7139090313e+00 
57100 4.1964633412e+00 -6.3513229198e-03 2.1443754616e+00 -3.7141672499e+00 2.1443754616e+00 3.7141672499e+00 
57200 4.1964623218e+00 -6.3096542692e-03 2.1445235559e+00 -3.7144237568e+00 2.1445235559e+00 3.7144237568e+00 
57300 4.1964613160e+00 -6.2682553694e-03 2.1446706684e+00 -3.7146785632e+00 2.1446706684e+00 3.7146785632e+00 
57400 4.1964603234e+00 -6.2271245372e-03 2.1448168057e+00 -3.7149316804e+00 2.1448168057e+00 3.7149316804e+00 
57500 4.1964593440e+00 -6.1862600985e-03 2.1449619741e+00 -3.7151831195e+00 2.1449619741e+00 3.7151831195e+00 
57600 4.1964583775e+00 -6.1456603889e-03 2.1451061802e+00 -3.7154328917e+00 2.1451061802e+00 3.7154328917e+00 
57700 4.1964574239e+00 -6.1053237530e-03 2.1452494302e+00 -3.7156810080e+00 2.1452494302e+00 3.7156810080e+00 
57800 4.1964564828e+00 -6.0652485450e-03 2.1453917304e+00 -3.7159274793e+00 2.1453917304e+00 3.7159274793e+00 
57900 4.1964555543e+00 -6.0254331282e-03 2.1455330873e+00 -3.7161723164e+00 2.1455330873e+00 3.7161723164e+00 
58000 4.1964546380e+00 -5.9858758752e-03 2.1456735069e+00 -3.7164155304e+00 2.1456735069e+00 3.7164155304e+00 
58100 4.1964537339e+00 -5.9465751680e-03 2.1458129955e+00 -3.7166571317e+00 2.1458129955e+00 3.7166571317e+00 
58200 4.1964528417e+00 -5.9075293974e-03 2.1459515593e+00 -3.7168971312e+00 2.1459515593e+00 3.7168971312e+00 
58300 4.1964519614e+00 -5.8687369637e-03 2.1460892043e+00 -3.7171355395e+00 2.1460892043e+00 3.7171355395e+00 
58400 4.1964510927e+00 -5.8301962761e-03 2.1462259368e+00 -3.7173723670e+00 2.1462259368e+00 3.7173723670e+00 
58500 4.1964502355e+00 -5.7919057530e-03 2.1463617626e+00 -3.7176076242e+00 2.1463617626e+00 3.7176076242e+00 
58600 4.1964493897e+00 -5.7538638217e-03 2.1464966878e+00 -3.7178413215e+00 2.1464966878e+00 3.7178413215e+00 
58700 4.1964485551e+00 -5.7160689186e-03 2.1466307184e+00 -3.7180734693e+00 2.1466307184e+00 3.7180734693e+00 
58800 4.1964477315e+00 -5.6785194892e-03 2.1467638602e+00 -3.7183040777e+00 2.1467638602e+00 3.7183040777e+00 
58900 4.1964469188e+00 -5.6412139876e-03 2.1468961192e+00 -3.7185331571e+00 2.1468961192e+00 3.7185331571e+00 
59000 4.1964461169e+00 -5.6041508771e-03 2.1470275013e+00 -3.7187607174e+00 2.1470275013e+00 3.7187607174e+00 
59100 4.1964453256e+00 -5.5673286298e-03 2.1471580121e+00 -3.7189867689e+00 2.1471580121e+00 3.7189867689e+00 
59200 4.1964445447e+00 -5.5307457264e-03 2.1472876576e+00 -3.7192113213e+00 2.1472876576e+00 3.7192113213e+00 
59300 4.1964437742e+00 -5.4944006567e-03 2.1474164433e+00 -3.7194343848e+00 2.1474164433e+00 3.7194343848e+00 
59400 4.1964430139e+00 -5.4582919191e-03 2.1475443751e+00 -3.7196559691e+00 2.1475443751e+00 3.7196559691e+00 
59500 4.1964422637e+00 -5.4224180207e-03 2.1476714585e+00 -3.7198760841e+00 2.1476714585e+00 3.7198760841e+00 
59600 4.1964415234e+00 -5.3867774773e-03 2.1477976992e+00 -3.7200947394e+00 2.1477976992e+00 3.7200947394e+00 
59700 4.1964407929e+00 -5.3513688134e-03 2.1479231028e+00 -3.7203119447e+00 2.1479231028e+00 3.7203119447e+00 
59800 4.1964400721e+00 -5.3161905620e-03 2.1480476747e+00 -3.7205277097e+00 2.1480476747e+00 3.7205277097e+00 
59900 4.1964393608e+00 -5.2812412648e-03 2.1481714206e+00 -3.7207420439e+00 2.1481714206e+00 3.7207420439e+00 
60000 4.1964386589e+00 -5.2465194718e-03 2.1482943459e+00 -3.7209549567e+00 2.1482943459e+00 3.7209549567e+00 
60100 4.1964379663e+00 -5.2120237418e-03 2.1484164560e+00 -3.7211664576e+00 2.1484164560e+00 3.7211664576e+00 
60200 4.1964372829e+00 -5.1777526418e-03 2.1485377564e+00 -3.7213765560e+00 2.1485377564e+00 3.7213765560e+00 
60300 4.1964366085e+00 -5.1437047474e-03 2.1486582523e+00 -3.7215852611e+00 2.1486582523e+00 3.7215852611e+00 
60400 4.1964359431e+00 -5.1098786424e-03 2.1487779491e+00 -3.7217925821e+00 2.1487779491e+00 3.7217925821e+00 
60500 4.1964352864e+00 -5.0762729190e-03 2.1488968522e+00 -3.7219985282e+00 2.1488968522e+00 3.7219985282e+00 
60600 4.1964346385e+00 -5.0428861778e-03 2.1490149667e+00 -3.7222031086e+00 2.1490149667e+00 3.7222031086e+00 
60700 4.1964339991e+00 -5.0097170276e-03 2.1491322980e+00 -3.7224063323e+00 2.1491322980e+00 3.7224063323e+00 
60800 4.1964333682e+00 -4.9767640854e-03 2.1492488511e+00 -3.7226082083e+00 2.1492488511e+00 3.7226082083e+00 
60900 4.1964327456e+00 -4.9440259764e-03 2.1493646313e+00 -3.7228087454e+00 2.1493646313e+00 3.7228087454e+00 
61000 4.1964321312e+00 -4.9115013340e-03 2.1494796437e+00 -3.7230079527e+00 2.1494796437e+00 3.7230079527e+00 
61100 4.1964315250e+00 -4.8791887995e-03 2.1495938933e+00 -3.7232058388e+00 2.1495938933e+00 3.7232058388e+00 
61200 4.1964309268e+00 -4.8470870227e-03 2.1497073852e+00 -3.7234024127e+00 2.1497073852e+00 3.7234024127e+00 
61300 4.1964303366e+00 -4.8151946610e-03 2.1498201245e+00 -3.7235976828e+00 2.1498201245e+00 3.7235976828e+00 
61400 4.1964297541e+00 -4.7835103800e-03 2.1499321161e+00 -3.7237916580e+00 2.1499321161e+00 3.7237916580e+00 
61500 4.1964291793e+00 -4.7520328533e-03 2.1500433650e+00 -3.7239843467e+00 2.1500433650e+00 3.7239843467e+00 
61600 4.1964286122e+00 -4.7207607623e-03 2.1501538762e+00 -3.7241757576e+00 2.1501538762e+00 3.7241757576e+00 
61700 4.1964280525e+00 -4.6896927963e-03 2.1502636544e+00 -3.7243658990e+00 2.1502636544e+00 3.7243658990e+00 
61800 4.1964275003e+00 -4.6588276526e-03 2.1503727045e+00 -3.7245547795e+00 2.1503727045e+00 3.7245547795e+00 
61900 4.1964269553e+00 -4.6281640361e-03 2.1504810315e+00 -3.7247424073e+00 2.1504810315e+00 3.7247424073e+00 
62000 4.1964264176e+00 -4.5977006595e-03 2.1505886400e+00 -3.7249287907e+00 2.1505886400e+00 3.7249287907e+00 
62100 4.1964258870e+00 -4.5674362434e-03 2.1506955349e+00 -3.7251139381e+00 2.1506955349e+00 3.7251139381e+00 
62200 4.1964253634e+00 -4.5373695159e-03 2.1508017209e+00 -3.7252978576e+00 2.1508017209e+00 3.7252978576e+00 
62300 4.1964248467e+00 -4.5074992129e-03 2.1509072026e+00 -3.7254805574e+00 2.1509072026e+00 3.7254805574e+00 
62400 4.1964243368e+00 -4.4778240778e-03 2.1510119849e+00 -3.7256620454e+00 2.1510119849e+00 3.7256620454e+00 
62500 4.1964238337e+00 -4.4483428615e-03 2.1511160721e+00 -3.7258423299e+00 2.1511160721e+00 3.7258423299e+00 
62600 4.1964233373e+00 -4.4190543228e-03 2.1512194691e+00 -3.7260214188e+00 2.1512194691e+00 3.7260214188e+00 
62700 4.1964228474e+00 -4.3899572276e-03 2.1513221804e+00 -3.7261993199e+00 2.1513221804e+00 3.7261993199e+00 
62800 4.1964223640e+00 -4.3610503494e-03 2.1514242105e+00 -3.7263760412e+00 2.1514242105e+00 3.7263760412e+00 
62900 4.1964218870e+00 -4.3323324693e-03 2.1515255639e+00 -3.7265515905e+00 2.1515255639e+00 3.7265515905e+00 
63000 4.1964214163e+00 -4.3038023755e-03 2.1516262452e+00 -3.7267259756e+00 2.1516262452e+00 3.7267259756e+00 
63100 4.1964209518e+00 -4.2754588637e-03 2.1517262587e+00 -3.7268992041e+00 2.1517262587e+00 3.7268992041e+00 
63200 4.1964204935e+00 -4.2473007370e-03 2.1518256090e+00 -3.7270712838e+00 2.1518256090e+00 3.7270712838e+00 
63300 4.1964200412e+00 -4.2193268056e-03 2.1519243004e+00 -3.7272422223e+00 2.1519243004e+00 3.7272422223e+00 
63400 4.1964195949e+00 -4.1915358871e-03 2.1520223373e+00 -3.7274120272e+00 2.1520223373e+00 3.7274120272e+00 
63500 4.1964191545e+00 -4.1639268061e-03 2.1521197240e+00 -3.7275807059e+00 2.1521197240e+00 3.7275807059e+00 
63600 4.1964187199e+00 -4.1364983945e-03 2.1522164648e+00 -3.7277482660e+00 2.1522164648e+00 3.7277482660e+00 
63700 4.1964182911e+00 -4.1092494913e-03 2.1523125641e+00 -3.7279147148e+00 2.1523125641e+00 3.7279147148e+00 
63800 4.1964178679e+00 -4.0821789427e-03 2.1524080261e+00 -3.7280800598e+00 2.1524080261e+00 3.7280800598e+00 
63900 4.1964174504e+00 -4.0552856018e-03 2.1525028550e+00 -3.7282443082e+00 2.1525028550e+00 3.7282443082e+00 
64000 4.1964170383e+00 -4.0285683287e-03 2.1525970550e+00 -3.7284074674e+00 2.1525970550e+00 3.7284074674e+00 
64100 4.1964166318e+00 -4.0020259905e-03 2.1526906302e+00 -3.7285695446e+00 2.1526906302e+00 3.7285695446e+00 
64200 4.1964162305e+00 -3.9756574615e-03 2.1527835850e+00 -3.7287305469e+00 2.1527835850e+00 3.7287305469e+00 
64300 4.1964158346e+00 -3.9494616224e-03 2.1528759232e+00 -3.7288904814e+00 2.1528759232e+00 3.7288904814e+00 
64400 4.1964154440e+00 -3.9234373613e-03 2.1529676491e+00 -3.7290493553e+00 2.1529676491e+00 3.7290493553e+00 
64500 4.1964150584e+00 -3.8975835728e-03 2.1530587667e+00 -3.7292071757e+00 2.1530587667e+00 3.7292071757e+00 
64600 4.1964146780e+00 -3.8718991583e-03 2.1531492801e+00 -3.7293639494e+00 2.1531492801e+00 3.7293639494e+00 
64700 4.1964143026e+00 -3.8463830261e-03 2.1532391932e+00 -3.7295196834e+00 2.1532391932e+00 3.7295196834e+00 
64800 4.1964139322e+00 -3.8210340912e-03 2.1533285100e+00 -3.7296743847e+00 2.1533285100e+00 3.7296743847e+00 
64900 4.1964135667e+00 -3.7958512753e-03 2.1534172345e+00 -3.7298280600e+00 2.1534172345e+00 3.7298280600e+00 
65000 4.1964132060e+00 -3.7708335065e-03 2.1535053706e+00 -3.7299807163e+00 2.1535053706e+00 3.7299807163e+00 
65100 4.1964128500e+00 -3.7459797200e-03 2.1535929223e+00 -3.7301323602e+00 2.1535929223e+00 3.7301323602e+00 
65200 4.1964124988e+00 -3.7212888570e-03 2.1536798933e+00 -3.7302829985e+00 2.1536798933e+00 3.7302829985e+00 
65300 4.1964121522e+00 -3.6967598658e-03 2.1537662876e+00 -3.7304326378e+00 2.1537662876e+00 3.7304326378e+00 
65400 4.1964118102e+00 -3.6723917008e-03 2.1538521090e+00 -3.7305812848e+00 2.1538521090e+00 3.7305812848e+00 
65500 4.1964114728e+00 -3.6481833230e-03 2.1539373613e+00 -3.7307289461e+00 2.1539373613e+00 3.7307289461e+00 
65600 4.1964111397e+00 -3.6241337000e-03 2.1540220482e+00 -3.7308756282e+00 2.1540220482e+00 3.7308756282e+00 
65700 4.1964108111e+00 -3.6002418055e-03 2.1541061736e+00 -3.7310213376e+00 2.1541061736e+00 3.7310213376e+00 
65800 4.1964104868e+00 -3.5765066199e-03 2.1541897411e+00 -3.7311660807e+00 2.1541897411e+00 3.7311660807e+00 
65900 4.1964101668e+00 -3.5529271297e-03 2.1542727544e+00 -3.7313098640e+00 2.1542727544e+00 3.7313098640e+00 
66000 4.1964098511e+00 -3.5295023277e-03 2.1543552173e+00 -3.7314526939e+00 2.1543552173e+00 3.7314526939e+00 
66100 4.1964095395e+00 -3.5062312131e-03 2.1544371333e+00 -3.7315945766e+00 2.1544371333e+00 3.7315945766e+00 
66200 4.1964092320e+00 -3.4831127913e-03 2.1545185062e+00 -3.7317355185e+00 2.1545185062e+00 3.7317355185e+00 
66300 4.1964089286e+00 -3.4601460737e-03 2.1545993394e+00 -3.7318755258e+00 2.1545993394e+00 3.7318755258e+00 
66400 4.1964086292e+00 -3.4373300781e-03 2.1546796366e+00 -3.7320146047e+00 2.1546796366e+00 3.7320146047e+00 
66500 4.1964083338e+00 -3.4146638283e-03 2.1547594014e+00 -3.7321527614e+00 2.1547594014e+00 3.7321527614e+00 
66600 4.1964080422e+00 -3.3921463543e-03 2.1548386373e+00 -3.7322900019e+00 2.1548386373e+00 3.7322900019e+00 
66700 4.1964077545e+00 -3.3697766920e-03 2.1549173478e+00 -3.7324263324e+00 2.1549173478e+00 3.7324263324e+00 
66800 4.1964074706e+00 -3.3475538835e-03 2.1549955363e+00 -3.7325617590e+00 2.1549955363e+00 3.7325617590e+00 
66900 4.1964071905e+00 -3.3254769767e-03 2.1550732064e+00 -3.7326962875e+00 2.1550732064e+00 3.7326962875e+00 
67000 4.1964069141e+00 -3.3035450257e-03 2.1551503615e+00 -3.7328299240e+00 2.1551503615e+00 3.7328299240e+00 
67100 4.1964066413e+00 -3.2817570902e-03 2.1552270050e+00 -3.7329626744e+00 2.1552270050e+00 3.7329626744e+00 
67200 4.1964063721e+00 -3.2601122360e-03 2.1553031402e+00 -3.7330945446e+00 2.1553031402e+00 3.7330945446e+00 
67300 4.1964061065e+00 -3.2386095349e-03 2.1553787707e+00 -3.7332255404e+00 2.1553787707e+00 3.7332255404e+00 
67400 4.1964058444e+00 -3.2172480641e-03 2.1554538997e+00 -3.7333556676e+00 2.1554538997e+00 3.7333556676e+00 
67500 4.1964055857e+00 -3.1960269070e-03 2.1555285305e+00 -3.7334849320e+00 2.1555285305e+00 3.7334849320e+00 
67600 4.1964053305e+00 -3.1749451526e-03 2.1556026665e+00 -3.7336133394e+00 2.1556026665e+00 3.7336133394e+00 
67700 4.1964050787e+00 -3.1540018955e-03 2.1556763110e+00 -3.7337408953e+00 2.1556763110e+00 3.7337408953e+00 
67800 4.1964048301e+00 -3.1331962363e-03 2.1557494671e+00 -3.7338676055e+00 2.1557494671e+00 3.7338676055e+00 
67900 4.1964045849e+00 -3.1125272808e-03 2.1558221382e+00 -3.7339934755e+00 2.1558221382e+00 3.7339934755e+00 
68000 4.1964043429e+00 -3.0919941410e-03 2.1558943275e+00 -3.7341185110e+00 2.1558943275e+00 3.7341185110e+00 
68100 4.1964041041e+00 -3.0715959340e-03 2.1559660381e+00 -3.7342427175e+00 2.1559660381e+00 3.7342427175e+00 
68200 4.1964038684e+00 -3.0513317827e-03 2.1560372733e+00 -3.7343661004e+00 2.1560372733e+00 3.7343661004e+00 
68300 4.1964036358e+00 -3.0312008155e-03 2.1561080362e+00 -3.7344886653e+00 2.1561080362e+00 3.7344886653e+00 
68400 4.1964034064e+00 -3.0112021663e-03 2.1561783299e+00 -3.7346104176e+00 2.1561783299e+00 3.7346104176e+00 
68500 4.1964031799e+00 -2.9913349745e-03 2.1562481576e+00 -3.7347313627e+00 2.1562481576e+00 3.7347313627e+00 
68600 4.1964029565e+00 -2.9715983848e-03 2.1563175223e+00 -3.7348515059e+00 2.1563175223e+00 3.7348515059e+00 
68700 4.1964027360e+00 -2.9519915474e-03 2.1563864272e+00 -3.7349708526e+00 2.1563864272e+00 3.7349708526e+00 
68800 4.1964025184e+00 -2.9325136179e-03 2.1564548752e+00 -3.7350894081e+00 2.1564548752e+00 3.7350894081e+00 
68900 4.1964023037e+00 -2.9131637572e-03 2.1565228694e+00 -3.7352071775e+00 2.1565228694e+00 3.7352071775e+00 
69000 4.1964020918e+00 -2.8939411316e-03 2.1565904128e+00 -3.7353241661e+00 2.1565904128e+00 3.7353241661e+00 
69100 4.1964018827e+00 -2.8748449125e-03 2.1566575085e+00 -3.7354403792e+00 2.1566575085e+00 3.7354403792e+00 
69200 4.1964016764e+00 -2.8558742767e-03 2.1567241593e+00 -3.7355558218e+00 2.1567241593e+00 3.7355558218e+00 
69300 4.1964014728e+00 -2.8370284061e-03 2.1567903682e+00 -3.7356704991e+00 2.1567903682e+00 3.7356704991e+00 
69400 4.1964012719e+00 -2.8183064879e-03 2.1568561383e+00 -3.7357844161e+00 2.1568561383e+00 3.7357844161e+00 
69500 4.1964010737e+00 -2.7997077145e-03 2.1569214722e+00 -3.7358975779e+00 2.1569214722e+00 3.7358975779e+00 
69600 4.1964008780e+00 -2.7812312832e-03 2.1569863731e+00 -3.7360099895e+00 2.1569863731e+00 3.7360099895e+00 
69700 4.1964006850e+00 -2.7628763967e-03 2.1570508437e+00 -3.7361216559e+00 2.1570508437e+00 3.7361216559e+00 
69800 4.1964004945e+00 -2.7446422625e-03 2.1571148870e+00 -3.7362325820e+00 2.1571148870e+00 3.7362325820e+00 
69900 4.1964003065e+00 -2.7265280932e-03 2.1571785057e+00 -3.7363427728e+00 2.1571785057e+00 3.7363427728e+00 
70000 4.1964001210e+00 -2.7085331065e-03 2.1572417026e+00 -3.7364522331e+00 2.1572417026e+00 3.7364522331e+00 
70100 4.1963999380e+00 -2.6906565251e-03 2.1573044806e+00 -3.7365609678e+00 2.1573044806e+00 3.7365609678e+00 
70200 4.1963997573e+00 -2.6728975765e-03 2.1573668424e+00 -3.7366689816e+00 2.1573668424e+00 3.7366689816e+00 
70300 4.1963995791e+00 -2.6552554932e-03 2.1574287909e+00 -3.7367762795e+00 2.1574287909e+00 3.7367762795e+00 
70400 4.1963994032e+00 -2.6377295126e-03 2.1574903287e+00 -3.7368828661e+00 2.1574903287e+00 3.7368828661e+00 
70500 4.1963992296e+00 -2.6203188770e-03 2.1575514585e+00 -3.7369887461e+00 2.1575514585e+00 3.7369887461e+00 
70600 4.1963990583e+00 -2.6030228334e-03 2.1576121832e+00 -3.7370939243e+00 2.1576121832e+00 3.7370939243e+00 
70700 4.1963988893e+00 -2.5858406337e-03 2.1576725053e+00 -3.7371984053e+00 2.1576725053e+00 3.7371984053e+00 
70800 4.1963987225e+00 -2.5687715345e-03 2.1577324276e+00 -3.7373021937e+00 2.1577324276e+00 3.7373021937e+00 
70900 4.1963985580e+00 -2.5518147974e-03 2.1577919526e+00 -3.7374052941e+00 2.1577919526e+00 3.7374052941e+00 
71000 4.1963983956e+00 -2.5349696884e-03 2.1578510831e+00 -3.7375077112e+00 2.1578510831e+00 3.7375077112e+00 
71100 4.1963982353e+00 -2.5182354782e-03 2.1579098217e+00 -3.7376094493e+00 2.1579098217e+00 3.7376094493e+00 
71200 4.1963980771e+00 -2.5016114425e-03 2.1579681709e+00 -3.7377105131e+00 2.1579681709e+00 3.7377105131e+00 
71300 4.1963979211e+00 -2.4850968612e-03 2.1580261334e+00 -3.7378109070e+00 2.1580261334e+00 3.7378109070e+00 
71400 4.1963977671e+00 -2.4686910191e-03 2.1580837116e+00 -3.7379106355e+00 2.1580837116e+00 3.7379106355e+00 
71500 4.1963976151e+00 -2.4523932055e-03 2.1581409082e+00 -3.7380097030e+00 2.1581409082e+00 3.7380097030e+00 
71600 4.1963974652e+00 -2.4362027143e-03 2.1581977258e+00 -3.7381081138e+00 2.1581977258e+00 3.7381081138e+00 
71700 4.1963973172e+00 -2.4201188437e-03 2.1582541667e+00 -3.7382058723e+00 2.1582541667e+00 3.7382058723e+00 
71800 4.1963971711e+00 -2.4041408967e-03 2.1583102335e+00 -3.7383029829e+00 2.1583102335e+00 3.7383029829e+00 
71900 4.1963970270e+00 -2.3882681805e-03 2.1583659287e+00 -3.7383994499e+00 2.1583659287e+00 3.7383994499e+00 
72000 4.1963968848e+00 -2.3725000070e-03 2.1584212548e+00 -3.7384952775e+00 2.1584212548e+00 3.7384952775e+00 
72100 4.1963967445e+00 -2.3568356923e-03 2.1584762142e+00 -3.7385904699e+00 2.1584762142e+00 3.7385904699e+00 
72200 4.1963966061e+00 -2.3412745569e-03 2.1585308093e+00 -3.7386850314e+00 2.1585308093e+00 3.7386850314e+00 
72300 4.1963964694e+00 -2.3258159259e-03 2.1585850426e+00 -3.7387789662e+00 2.1585850426e+00 3.7387789662e+00 
72400 4.1963963346e+00 -2.3104591285e-03 2.1586389164e+00 -3.7388722785e+00 2.1586389164e+00 3.7388722785e+00 
72500 4.1963962015e+00 -2.2952034982e-03 2.1586924332e+00 -3.7389649723e+00 2.1586924332e+00 3.7389649723e+00 
72600 4.1963960702e+00 -2.2800483729e-03 2.1587455954e+00 -3.7390570518e+00 2.1587455954e+00 3.7390570518e+00 
72700 4.1963959407e+00 -2.2649930947e-03 2.1587984051e+00 -3.7391485210e+00 2.1587984051e+00 3.7391485210e+00 
72800 4.1963958128e+00 -2.2500370099e-03 2.1588508649e+00 -3.7392393840e+00 2.1588508649e+00 3.7392393840e+00 
72900 4.1963956866e+00 -2.2351794692e-03 2.1589029770e+00 -3.7393296449e+00 2.1589029770e+00 3.7393296449e+00 
73000 4.1963955621e+00 -2.2204198271e-03 2.1589547438e+00 -3.7394193075e+00 2.1589547438e+00 3.7394193075e+00 
73100 4.1963954393e+00 -2.2057574427e-03 2.1590061675e+00 -3.7395083760e+00 2.1590061675e+00 3.7395083760e+00 
73200 4.1963953180e+00 -2.1911916788e-03 2.1590572504e+00 -3.7395968542e+00 2.1590572504e+00 3.7395968542e+00 
73300 4.1963951984e+00 -2.1767219026e-03 2.1591079948e+00 -3.7396847460e+00 2.1591079948e+00 3.7396847460e+00 
73400 4.1963950804e+00 -2.1623474852e-03 2.1591584029e+00 -3.7397720554e+00 2.1591584029e+00 3.7397720554e+00 
73500 4.1963949639e+00 -2.1480678020e-03 2.1592084769e+00 -3.7398587862e+00 2.1592084769e+00 3.7398587862e+00 
73600 4.1963948489e+00 -2.1338822321e-03 2.1592582191e+00 -3.7399449422e+00 2.1592582191e+00 3.7399449422e+00 
73700 4.1963947354e+00 -2.1197901588e-03 2.1593076317e+00 -3.7400305273e+00 2.1593076317e+00 3.7400305273e+00 
73800 4.1963946235e+00 -2.1057909694e-03 2.1593567169e+00 -3.7401155453e+00 2.1593567169e+00 3.7401155453e+00 
73900 4.1963945130e+00 -2.0918840550e-03 2.1594054767e+00 -3.7401999998e+00 2.1594054767e+00 3.7401999998e+00 
74000 4.1963944040e+00 -2.0780688107e-03 2.1594539135e+00 -3.7402838947e+00 2.1594539135e+00 3.7402838947e+00 
74100 4.1963942964e+00 -2.0643446356e-03 2.1595020293e+00 -3.7403672337e+00 2.1595020293e+00 3.7403672337e+00 
74200 4.1963941903e+00 -2.0507109326e-03 2.1595498262e+00 -3.7404500205e+00 2.1595498262e+00 3.7404500205e+00 
74300 4.1963940855e+00 -2.0371671084e-03 2.1595973064e+00 -3.7405322586e+00 2.1595973064e+00 3.7405322586e+00 
74400 4.1963939822e+00 -2.0237125737e-03 2.1596444721e+00 -3.7406139519e+00 2.1596444721e+00 3.7406139519e+00 
74500 4.1963938802e+00 -2.0103467428e-03 2.1596913251e+00 -3.7406951038e+00 2.1596913251e+00 3.7406951038e+00 
74600 4.1963937795e+00 -1.9970690338e-03 2.1597378678e+00 -3.7407757180e+00 2.1597378678e+00 3.7407757180e+00 
74700 4.1963936802e+00 -1.9838788689e-03 2.1597841020e+00 -3.7408557980e+00 2.1597841020e+00 3.7408557980e+00 
74800 4.1963935822e+00 -1.9707756735e-03 2.1598300299e+00 -3.7409353474e+00 2.1598300299e+00 3.7409353474e+00 
74900 4.1963934854e+00 -1.9577588772e-03 2.1598756534e+00 -3.7410143697e+00 2.1598756534e+00 3.7410143697e+00 
75000 4.1963933900e+00 -1.9448279130e-03 2.1599209747e+00 -3.7410928685e+00 2.1599209747e+00 3.7410928685e+00 
75100 4.1963932958e+00 -1.9319822177e-03 2.1599659956e+00 -3.7411708471e+00 2.1599659956e+00 3.7411708471e+00 
75200 4.1963932029e+00 -1.9192212317e-03 2.1600107183e+00 -3.7412483090e+00 2.1600107183e+00 3.7412483090e+00 
75300 4.1963931111e+00 -1.9065443990e-03 2.1600551447e+00 -3.7413252577e+00 2.1600551447e+00 3.7413252577e+00 
75400 4.1963930206e+00 -1.8939511672e-03 2.1600992767e+00 -3.7414016966e+00 2.1600992767e+00 3.7414016966e+00 
75500 4.1963929313e+00 -1.8814409876e-03 2.1601431163e+00 -3.7414776290e+00 2.1601431163e+00 3.7414776290e+00 
75600 4.1963928432e+00 -1.8690133149e-03 2.1601866654e+00 -3.7415530583e+00 2.1601866654e+00 3.7415530583e+00 
75700 4.1963927562e+00 -1.8566676074e-03 2.1602299260e+00 -3.7416279878e+00 2.1602299260e+00 3.7416279878e+00 
75800 4.1963926704e+00 -1.8444033269e-03 2.1602729000e+00 -3.7417024210e+00 2.1602729000e+00 3.7417024210e+00 
75900 4.1963925857e+00 -1.8322199387e-03 2.1603155892e+00 -3.7417763610e+00 2.1603155892e+00 3.7417763610e+00 
76000 4.1963925021e+00 -1.8201169116e-03 2.1603579957e+00 -3.7418498111e+00 2.1603579957e+00 3.7418498111e+00 
76100 4.1963924196e+00 -1.8080937178e-03 2.1604001212e+00 -3.7419227746e+00 2.1604001212e+00 3.7419227746e+00 
76200 4.1963923383e+00 -1.7961498329e-03 2.1604419676e+00 -3.7419952547e+00 2.1604419676e+00 3.7419952547e+00 
76300 4.1963922579e+00 -1.7842847360e-03 2.1604835368e+00 -3.7420672546e+00 2.1604835368e+00 3.7420672546e+00 
76400 4.1963921787e+00 -1.7724979095e-03 2.1605248305e+00 -3.7421387775e+00 2.1605248305e+00 3.7421387775e+00 
76500 4.1963921005e+00 -1.7607888392e-03 2.1605658507e+00 -3.7422098266e+00 2.1605658507e+00 3.7422098266e+00 
76600 4.1963920233e+00 -1.7491570141e-03 2.1606065992e+00 -3.7422804050e+00 2.1606065992e+00 3.7422804050e+00 
76700 4.1963919472e+00 -1.7376019268e-03 2.1606470777e+00 -3.7423505158e+00 2.1606470777e+00 3.7423505158e+00 
76800 4.1963918720e+00 -1.7261230729e-03 2.1606872880e+00 -3.7424201621e+00 2.1606872880e+00 3.7424201621e+00 
76900 4.1963917979e+00 -1.7147199515e-03 2.1607272320e+00 -3.7424893471e+00 2.1607272320e+00 3.7424893471e+00 
77000 4.1963917247e+00 -1.7033920649e-03 2.1607669114e+00 -3.7425580738e+00 2.1607669114e+00 3.7425580738e+00 
77100 4.1963916525e+00 -1.6921389185e-03 2.1608063279e+00 -3.7426263452e+00 2.1608063279e+00 3.7426263452e+00 
77200 4.1963915812e+00 -1.6809600211e-03 2.1608454832e+00 -3.7426941643e+00 2.1608454832e+00 3.7426941643e+00 
77300 4.1963915109e+00 -1.6698548846e-03 2.1608843792e+00 -3.7427615341e+00 2.1608843792e+00 3.7427615341e+00 
77400 4.1963914415e+00 -1.6588230240e-03 2.1609230176e+00 -3.7428284577e+00 2.1609230176e+00 3.7428284577e+00 
77500 4.1963913730e+00 -1.6478639577e-03 2.1609614000e+00 -3.7428949380e+00 2.1609614000e+00 3.7428949380e+00 
77600 4.1963913054e+00 -1.6369772070e-03 2.1609995281e+00 -3.7429609778e+00 2.1609995281e+00 3.7429609778e+00 
77700 4.1963912388e+00 -1.6261622964e-03 2.1610374037e+00 -3.7430265803e+00 2.1610374037e+00 3.7430265803e+00 
77800 4.1963911730e+00 -1.6154187535e-03 2.1610750284e+00 -3.7430917481e+00 2.1610750284e+00 3.7430917481e+00 
77900 4.1963911080e+00 -1.6047461089e-03 2.1611124038e+00 -3.7431564843e+00 2.1611124038e+00 3.7431564843e+00 
78000 4.1963910439e+00 -1.5941438964e-03 2.1611495317e+00 -3.7432207917e+00 2.1611495317e+00 3.7432207917e+00 
78100 4.1963909807e+00 -1.5836116528e-03 2.1611864137e+00 -3.7432846731e+00 2.1611864137e+00 3.7432846731e+00 
78200 4.1963909183e+00 -1.5731489177e-03 2.1612230513e+00 -3.7433481314e+00 2.1612230513e+00 3.7433481314e+00 
78300 4.1963908567e+00 -1.5627552341e-03 2.1612594463e+00 -3.7434111694e+00 2.1612594463e+00 3.7434111694e+00 
78400 4.1963907960e+00 -1.5524301476e-03 2.1612956002e+00 -3.7434737898e+00 2.1612956002e+00 3.7434737898e+00 
78500 4.1963907360e+00 -1.5421732070e-03 2.1613315147e+00 -3.7435359954e+00 2.1613315147e+00 3.7435359954e+00 
78600 4.1963906768e+00 -1.5319839638e-03 2.1613671912e+00 -3.7435977890e+00 2.1613671912e+00 3.7435977890e+00 
78700 4.1963906185e+00 -1.5218619728e-03 2.1614026315e+00 -3.7436591733e+00 2.1614026315e+00 3.7436591733e+00 
78800 4.1963905608e+00 -1.5118067914e-03 2.1614378370e+00 -3.7437201511e+00 2.1614378370e+00 3.7437201511e+00 
78900 4.1963905040e+00 -1.5018179799e-03 2.1614728093e+00 -3.7437807250e+00 2.1614728093e+00 3.7437807250e+00 
79000 4.1963904479e+00 -1.4918951016e-03 2.1615075501e+00 -3.7438408976e+00 2.1615075501e+00 3.7438408976e+00 
79100 4.1963903925e+00 -1.4820377226e-03 2.1615420607e+00 -3.7439006718e+00 2.1615420607e+00 3.7439006718e+00 
79200 4.1963903379e+00 -1.4722454117e-03 2.1615763427e+00 -3.7439600500e+00 2.1615763427e+00 3.7439600500e+00 
79300 4.1963902839e+00 -1.4625177409e-03 2.1616103977e+00 -3.7440190350e+00 2.1616103977e+00 3.7440190350e+00 
79400 4.1963902307e+00 -1.4528542844e-03 2.1616442271e+00 -3.7440776293e+00 2.1616442271e+00 3.7440776293e+00 
79500 4.1963901782e+00 -1.4432546198e-03 2.1616778325e+00 -3.7441358356e+00 2.1616778325e+00 3.7441358356e+00 
79600 4.1963901264e+00 -1.4337183269e-03 2.1617112154e+00 -3.7441936563e+00 2.1617112154e+00 3.7441936563e+00 
79700 4.1963900753e+00 -1.4242449887e-03 2.1617443771e+00 -3.7442510941e+00 2.1617443771e+00 3.7442510941e+00 
79800 4.1963900248e+00 -1.4148341907e-03 2.1617773192e+00 -3.7443081515e+00 2.1617773192e+00 3.7443081515e+00 
79900 4.1963899751e+00 -1.4054855211e-03 2.1618100432e+00 -3.7443648311e+00 2.1618100432e+00 3.7443648311e+00 
80000 4.1963899259e+00 -1.3961985708e-03 2.1618425504e+00 -3.7444211352e+00 2.1618425504e+00 3.7444211352e+00 
80100 4.1963898774e+00 -1.3869729335e-03 2.1618748423e+00 -3.7444770665e+00 2.1618748423e+00 3.7444770665e+00 
80200 4.1963898296e+00 -1.3778082053e-03 2.1619069204e+00 -3.7445326274e+00 2.1619069204e+00 3.7445326274e+00 
80300 4.1963897824e+00 -1.3687039853e-03 2.1619387861e+00 -3.7445878204e+00 2.1619387861e+00 3.7445878204e+00 
80400 4.1963897358e+00 -1.3596598749e-03 2.1619704407e+00 -3.7446426478e+00 2.1619704407e+00 3.7446426478e+00 
80500 4.1963896898e+00 -1.3506754782e-03 2.1620018857e+00 -3.7446971121e+00 2.1620018857e+00 3.7446971121e+00 
80600 4.1963896444e+00 -1.3417504020e-03 2.1620331225e+00 -3.7447512158e+00 2.1620331225e+00 3.7447512158e+00 
80700 4.1963895997e+00 -1.3328842555e-03 2.1620641524e+00 -3.7448049611e+00 2.1620641524e+00 3.7448049611e+00 
80800 4.1963895555e+00 -1.3240766506e-03 2.1620949768e+00 -3.7448583506e+00 2.1620949768e+00 3.7448583506e+00 
80900 4.1963895119e+00 -1.3153272017e-03 2.1621255971e+00 -3.7449113865e+00 2.1621255971e+00 3.7449113865e+00 
81000 4.1963894689e+00 -1.3066355256e-03 2.1621560146e+00 -3.7449640712e+00 2.1621560146e+00 3.7449640712e+00 
81100 4.1963894264e+00 -1.2980012418e-03 2.1621862307e+00 -3.7450164070e+00 2.1621862307e+00 3.7450164070e+00 
81200 4.1963893845e+00 -1.2894239721e-03 2.1622162467e+00 -3.7450683963e+00 2.1622162467e+00 3.7450683963e+00 
81300 4.1963893432e+00 -1.2809033410e-03 2.1622460640e+00 -3.7451200413e+00 2.1622460640e+00 3.7451200413e+00 
81400 4.1963893024e+00 -1.2724389753e-03 2.1622756838e+00 -3.7451713443e+00 2.1622756838e+00 3.7451713443e+00 
81500 4.1963892621e+00 -1.2640305042e-03 2.1623051075e+00 -3.7452223076e+00 2.1623051075e+00 3.7452223076e+00 
81600 4.1963892224e+00 -1.2556775594e-03 2.1623343363e+00 -3.7452729334e+00 2.1623343363e+00 3.7452729334e+00 
81700 4.1963891832e+00 -1.2473797751e-03 2.1623633716e+00 -3.7453232240e+00 2.1623633716e+00 3.7453232240e+00 
81800 4.1963891445e+00 -1.2391367878e-03 2.1623922146e+00 -3.7453731817e+00 2.1623922146e+00 3.7453731817e+00 
81900 4.1963891063e+00 -1.2309482363e-03 2.1624208667e+00 -3.7454228085e+00 2.1624208667e+00 3.7454228085e+00 
82000 4.1963890687e+00 -1.2228137619e-03 2.1624493290e+00 -3.7454721067e+00 2.1624493290e+00 3.7454721067e+00 
82100 4.1963890315e+00 -1.2147330082e-03 2.1624776029e+00 -3.7455210785e+00 2.1624776029e+00 3.7455210785e+00 
82200 4.1963889948e+00 -1.2067056212e-03 2.1625056896e+00 -3.7455697260e+00 2.1625056896e+00 3.7455697260e+00 
82300 4.1963889586e+00 -1.1987312491e-03 2.1625335903e+00 -3.7456180514e+00 2.1625335903e+00 3.7456180514e+00 
82400 4.1963889229e+00 -1.1908095425e-03 2.1625613062e+00 -3.7456660569e+00 2.1625613062e+00 3.7456660569e+00 
82500 4.1963888876e+00 -1.1829401541e-03 2.1625888387e+00 -3.7457137445e+00 2.1625888387e+00 3.7457137445e+00 
82600 4.1963888528e+00 -1.1751227393e-03 2.1626161888e+00 -3.7457611163e+00 2.1626161888e+00 3.7457611163e+00 
82700 4.1963888185e+00 -1.1673569553e-03 2.1626433579e+00 -3.7458081745e+00 2.1626433579e+00 3.7458081745e+00 
82800 4.1963887846e+00 -1.1596424617e-03 2.1626703471e+00 -3.7458549211e+00 2.1626703471e+00 3.7458549211e+00 
82900 4.1963887512e+00 -1.1519789206e-03 2.1626971576e+00 -3.7459013583e+00 2.1626971576e+00 3.7459013583e+00 
83000 4.1963887182e+00 -1.1443659958e-03 2.1627237905e+00 -3.7459474879e+00 2.1627237905e+00 3.7459474879e+00 
83100 4.1963886857e+00 -1.1368033538e-03 2.1627502472e+00 -3.7459933122e+00 2.1627502472e+00 3.7459933122e+00 
83200 4.1963886535e+00 -1.1292906629e-03 2.1627765287e+00 -3.7460388330e+00 2.1627765287e+00 3.7460388330e+00 
83300 4.1963886218e+00 -1.1218275939e-03 2.1628026361e+00 -3.7460840525e+00 2.1628026361e+00 3.7460840525e+00 
83400 4.1963885905e+00 -1.1144138196e-03 2.1628285708e+00 -3.7461289726e+00 2.1628285708e+00 3.7461289726e+00 
83500 4.1963885597e+00 -1.1070490148e-03 2.1628543337e+00 -3.7461735953e+00 2.1628543337e+00 3.7461735953e+00 
83600 4.1963885292e+00 -1.0997328568e-03 2.1628799261e+00 -3.7462179226e+00 2.1628799261e+00 3.7462179226e+00 
83700 4.1963884992e+00 -1.0924650246e-03 2.1629053490e+00 -3.7462619564e+00 2.1629053490e+00 3.7462619564e+00 
83800 4.1963884695e+00 -1.0852451997e-03 2.1629306036e+00 -3.7463056987e+00 2.1629306036e+00 3.7463056987e+00 
83900 4.1963884402e+00 -1.0780730654e-03 2.1629556910e+00 -3.7463491514e+00 2.1629556910e+00 3.7463491514e+00 
84000 4.1963884113e+00 -1.0709483072e-03 2.1629806124e+00 -3.7463923164e+00 2.1629806124e+00 3.7463923164e+00 
84100 4.1963883828e+00 -1.0638706127e-03 2.1630053687e+00 -3.7464351957e+00 2.1630053687e+00 3.7464351957e+00 
84200 4.1963883547e+00 -1.0568396713e-03 2.1630299612e+00 -3.7464777911e+00 2.1630299612e+00 3.7464777911e+00 
84300 4.1963883269e+00 -1.0498551749e-03 2.1630543909e+00 -3.7465201045e+00 2.1630543909e+00 3.7465201045e+00 
84400 4.1963882995e+00 -1.0429168170e-03 2.1630786588e+00 -3.7465621378e+00 2.1630786588e+00 3.7465621378e+00 
84500 4.1963882725e+00 -1.0360242934e-03 2.1631027661e+00 -3.7466038928e+00 2.1631027661e+00 3.7466038928e+00 
84600 4.1963882458e+00 -1.0291773016e-03 2.1631267138e+00 -3.7466453715e+00 2.1631267138e+00 3.7466453715e+00 
84700 4.1963882195e+00 -1.0223755413e-03 2.1631505029e+00 -3.7466865755e+00 2.1631505029e+00 3.7466865755e+00 
84800 4.1963881935e+00 -1.0156187142e-03 2.1631741346e+00 -3.7467275067e+00 2.1631741346e+00 3.7467275067e+00 
84900 4.1963881679e+00 -1.0089065239e-03 2.1631976098e+00 -3.7467681670e+00 2.1631976098e+00 3.7467681670e+00 
85000 4.1963881426e+00 -1.0022386758e-03 2.1632209297e+00 -3.7468085582e+00 2.1632209297e+00 3.7468085582e+00 
85100 4.1963881176e+00 -9.9561487751e-04 2.1632440951e+00 -3.7468486820e+00 2.1632440951e+00 3.7468486820e+00 
85200 4.1963880930e+00 -9.8903483835e-04 2.1632671073e+00 -3.7468885401e+00 2.1632671073e+00 3.7468885401e+00 
85300 4.1963880687e+00 -9.8249826963e-04 2.1632899670e+00 -3.7469281344e+00 2.1632899670e+00 3.7469281344e+00 
85400 4.1963880447e+00 -9.7600488455e-04 2.1633126755e+00 -3.7469674666e+00 2.1633126755e+00 3.7469674666e+00 
85500 4.1963880210e+00 -9.6955439819e-04 2.1633352337e+00 -3.7470065385e+00 2.1633352337e+00 3.7470065385e+00 
85600 4.1963879977e+00 -9.6314652751e-04 2.1633576425e+00 -3.7470453517e+00 2.1633576425e+00 3.7470453517e+00 
85700 4.1963879746e+00 -9.5678099131e-04 2.1633799030e+00 -3.7470839080e+00 2.1633799030e+00 3.7470839080e+00 
85800 4.1963879519e+00 -9.5045751027e-04 2.1634020161e+00 -3.7471222091e+00 2.1634020161e+00 3.7471222091e+00 
85900 4.1963879294e+00 -9.4417580687e-04 2.1634239829e+00 -3.7471602567e+00 2.1634239829e+00 3.7471602567e+00 
86000 4.1963879073e+00 -9.3793560545e-04 2.1634458043e+00 -3.7471980524e+00 2.1634458043e+00 3.7471980524e+00 
86100 4.1963878854e+00 -9.3173663213e-04 2.1634674812e+00 -3.7472355979e+00 2.1634674812e+00 3.7472355979e+00 
86200 4.1963878638e+00 -9.2557861486e-04 2.1634890146e+00 -3.7472728950e+00 2.1634890146e+00 3.7472728950e+00 
86300 4.1963878426e+00 -9.1946128335e-04 2.1635104056e+00 -3.7473099451e+00 2.1635104056e+00 3.7473099451e+00 
86400 4.1963878215e+00 -9.1338436912e-04 2.1635316549e+00 -3.7473467500e+00 2.1635316549e+00 3.7473467500e+00 
86500 4.1963878008e+00 -9.0734760542e-04 2.1635527636e+00 -3.7473833113e+00 2.1635527636e+00 3.7473833113e+00 
86600 4.1963877804e+00 -9.0135072727e-04 2.1635737325e+00 -3.7474196306e+00 2.1635737325e+00 3.7474196306e+00 
86700 4.1963877602e+00 -8.9539347145e-04 2.1635945627e+00 -3.7474557096e+00 2.1635945627e+00 3.7474557096e+00 
86800 4.1963877403e+00 -8.8947557644e-04 2.1636152550e+00 -3.7474915497e+00 2.1636152550e+00 3.7474915497e+00 
86900 4.1963877206e+00 -8.8359678247e-04 2.1636358103e+00 -3.7475271526e+00 2.1636358103e+00 3.7475271526e+00 
87000 4.1963877012e+00 -8.7775683145e-04 2.1636562296e+00 -3.7475625198e+00 2.1636562296e+00 3.7475625198e+00 
87100 4.1963876821e+00 -8.7195546701e-04 2.1636765138e+00 -3.7475976530e+00 2.1636765138e+00 3.7475976530e+00 
87200 4.1963876632e+00 -8.6619243446e-04 2.1636966636e+00 -3.7476325536e+00 2.1636966636e+00 3.7476325536e+00 
87300 4.1963876445e+00 -8.6046748078e-04 2.1637166802e+00 -3.7476672232e+00 2.1637166802e+00 3.7476672232e+00 
87400 4.1963876261e+00 -8.5478035462e-04 2.1637365642e+00 -3.7477016634e+00 2.1637365642e+00 3.7477016634e+00 
87500 4.1963876080e+00 -8.4913080629e-04 2.1637563167e+00 -3.7477358757e+00 2.1637563167e+00 3.7477358757e+00 
87600 4.1963875901e+00 -8.4351858772e-04 2.1637759384e+00 -3.7477698615e+00 2.1637759384e+00 3.7477698615e+00 
87700 4.1963875724e+00 -8.3794345251e-04 2.1637954302e+00 -3.7478036223e+00 2.1637954302e+00 3.7478036223e+00 
87800 4.1963875549e+00 -8.3240515586e-04 2.1638147931e+00 -3.7478371598e+00 2.1638147931e+00 3.7478371598e+00 
87900 4.1963875377e+00 -8.2690345456e-04 2.1638340278e+00 -3.7478704752e+00 2.1638340278e+00 3.7478704752e+00 
88000 4.1963875207e+00 -8.2143810704e-04 2.1638531352e+00 -3.7479035702e+00 2.1638531352e+00 3.7479035702e+00 
88100 4.1963875040e+00 -8.1600887329e-04 2.1638721161e+00 -3.7479364462e+00 2.1638721161e+00 3.7479364462e+00 
88200 4.1963874874e+00 -8.1061551491e-04 2.1638909714e+00 -3.7479691045e+00 2.1638909714e+00 3.7479691045e+00 
88300 4.1963874711e+00 -8.0525779504e-04 2.1639097020e+00 -3.7480015468e+00 2.1639097020e+00 3.7480015468e+00 
88400 4.1963874550e+00 -7.9993547840e-04 2.1639283085e+00 -3.7480337743e+00 2.1639283085e+00 3.7480337743e+00 
88500 4.1963874391e+00 -7.9464833124e-04 2.1639467920e+00 -3.7480657886e+00 2.1639467920e+00 3.7480657886e+00 
88600 4.1963874234e+00 -7.8939612136e-04 2.1639651531e+00 -3.7480975909e+00 2.1639651531e+00 3.7480975909e+00 
88700 4.1963874079e+00 -7.8417861810e-04 2.1639833927e+00 -3.7481291829e+00 2.1639833927e+00 3.7481291829e+00 
88800 4.1963873927e+00 -7.7899559231e-04 2.1640015116e+00 -3.7481605657e+00 2.1640015116e+00 3.7481605657e+00 
88900 4.1963873776e+00 -7.7384681633e-04 2.1640195106e+00 -3.7481917409e+00 2.1640195106e+00 3.7481917409e+00 
89000 4.1963873627e+00 -7.6873206402e-04 2.1640373904e+00 -3.7482227097e+00 2.1640373904e+00 3.7482227097e+00 
89100 4.1963873480e+00 -7.6365111073e-04 2.1640551520e+00 -3.7482534736e+00 2.1640551520e+00 3.7482534736e+00 
89200 4.1963873336e+00 -7.5860373328e-04 2.1640727960e+00 -3.7482840339e+00 2.1640727960e+00 3.7482840339e+00 
89300 4.1963873193e+00 -7.5358970998e-04 2.1640903232e+00 -3.7483143920e+00 2.1640903232e+00 3.7483143920e+00 
89400 4.1963873051e+00 -7.4860882056e-04 2.1641077345e+00 -3.7483445492e+00 2.1641077345e+00 3.7483445492e+00 
89500 4.1963872912e+00 -7.4366084625e-04 2.1641250305e+00 -3.7483745068e+00 2.1641250305e+00 3.7483745068e+00 
89600 4.1963872775e+00 -7.3874556968e-04 2.1641422121e+00 -3.7484042662e+00 2.1641422121e+00 3.7484042662e+00 
89700 4.1963872639e+00 -7.3386277493e-04 2.1641592800e+00 -3.7484338286e+00 2.1641592800e+00 3.7484338286e+00 
89800 4.1963872506e+00 -7.2901224752e-04 2.1641762349e+00 -3.7484631954e+00 2.1641762349e+00 3.7484631954e+00 
89900 4.1963872374e+00 -7.2419377434e-04 2.1641930777e+00 -3.7484923679e+00 2.1641930777e+00 3.7484923679e+00 
90000 4.1963872243e+00 -7.1940714373e-04 2.1642098090e+00 -3.7485213474e+00 2.1642098090e+00 3.7485213474e+00 
90100 4.1963872115e+00 -7.1465214539e-04 2.1642264295e+00 -3.7485501350e+00 2.1642264295e+00 3.7485501350e+00 
90200 4.1963871988e+00 -7.0992857043e-04 2.1642429401e+00 -3.7485787322e+00 2.1642429401e+00 3.7485787322e+00 
90300 4.1963871863e+00 -7.0523621131e-04 2.1642593415e+00 -3.7486071402e+00 2.1642593415e+00 3.7486071402e+00 
90400 4.1963871739e+00 -7.0057486189e-04 2.1642756343e+00 -3.7486353601e+00 2.1642756343e+00 3.7486353601e+00 
90500 4.1963871617e+00 -6.9594431736e-04 2.1642918193e+00 -3.7486633934e+00 2.1642918193e+00 3.7486633934e+00 
90600 4.1963871497e+00 -6.9134437428e-04 2.1643078972e+00 -3.7486912411e+00 2.1643078972e+00 3.7486912411e+00 
90700 4.1963871378e+00 -6.8677483054e-04 2.1643238687e+00 -3.7487189046e+00 2.1643238687e+00 3.7487189046e+00 
90800 4.1963871261e+00 -6.8223548536e-04 2.1643397345e+00 -3.7487463850e+00 2.1643397345e+00 3.7487463850e+00 
90900 4.1963871146e+00 -6.7772613929e-04 2.1643554953e+00 -3.7487736836e+00 2.1643554953e+00 3.7487736836e+00 
91000 4.1963871031e+00 -6.7324659420e-04 2.1643711519e+00 -3.7488008015e+00 2.1643711519e+00 3.7488008015e+00 
91100 4.1963870919e+00 -6.6879665325e-04 2.1643867048e+00 -3.7488277400e+00 2.1643867048e+00 3.7488277400e+00 
91200 4.1963870808e+00 -6.6437612091e-04 2.1644021549e+00 -3.7488545003e+00 2.1644021549e+00 3.7488545003e+00 
91300 4.1963870698e+00 -6.5998480294e-04 2.1644175027e+00 -3.7488810835e+00 2.1644175027e+00 3.7488810835e+00 
91400 4.1963870590e+00 -6.5562250636e-04 2.1644327490e+00 -3.7489074908e+00 2.1644327490e+00 3.7489074908e+00 
91500 4.1963870483e+00 -6.5128903950e-04 2.1644478943e+00 -3.7489337233e+00 2.1644478943e+00 3.7489337233e+00 
91600 4.1963870378e+00 -6.4698421191e-04 2.1644629395e+00 -3.7489597823e+00 2.1644629395e+00 3.7489597823e+00 
91700 4.1963870274e+00 -6.4270783444e-04 2.1644778851e+00 -3.7489856689e+00 2.1644778851e+00 3.7489856689e+00 
91800 4.1963870171e+00 -6.3845971915e-04 2.1644927319e+00 -3.7490113842e+00 2.1644927319e+00 3.7490113842e+00 
91900 4.1963870070e+00 -6.3423967935e-04 2.1645074804e+00 -3.7490369294e+00 2.1645074804e+00 3.7490369294e+00 
92000 4.1963869970e+00 -6.3004752960e-04 2.1645221313e+00 -3.7490623055e+00 2.1645221313e+00 3.7490623055e+00 
92100 4.1963869872e+00 -6.2588308566e-04 2.1645366853e+00 -3.7490875137e+00 2.1645366853e+00 3.7490875137e+00 
92200 4.1963869774e+00 -6.2174616451e-04 2.1645511430e+00 -3.7491125552e+00 2.1645511430e+00 3.7491125552e+00 
92300 4.1963869678e+00 -6.1763658434e-04 2.1645655050e+00 -3.7491374309e+00 2.1645655050e+00 3.7491374309e+00 
92400 4.1963869584e+00 -6.1355416455e-04 2.1645797720e+00 -3.7491621421e+00 2.1645797720e+00 3.7491621421e+00 
92500 4.1963869490e+00 -6.0949872570e-04 2.1645939446e+00 -3.7491866898e+00 2.1645939446e+00 3.7491866898e+00 
92600 4.1963869398e+00 -6.0547008957e-04 2.1646080234e+00 -3.7492110751e+00 2.1646080234e+00 3.7492110751e+00 
92700 4.1963869307e+00 -6.0146807909e-04 2.1646220091e+00 -3.7492352990e+00 2.1646220091e+00 3.7492352990e+00 
92800 4.1963869217e+00 -5.9749251838e-04 2.1646359023e+00 -3.7492593626e+00 2.1646359023e+00 3.7492593626e+00 
92900 4.1963869128e+00 -5.9354323269e-04 2.1646497035e+00 -3.7492832671e+00 2.1646497035e+00 3.7492832671e+00 
93000 4.1963869041e+00 -5.8962004844e-04 2.1646634135e+00 -3.7493070134e+00 2.1646634135e+00 3.7493070134e+00 
93100 4.1963868955e+00 -5.8572279321e-04 2.1646770327e+00 -3.7493306026e+00 2.1646770327e+00 3.7493306026e+00 
93200 4.1963868869e+00 -5.8185129568e-04 2.1646905618e+00 -3.7493540357e+00 2.1646905618e+00 3.7493540357e+00 
93300 4.1963868785e+00 -5.7800538571e-04 2.1647040014e+00 -3.7493773138e+00 2.1647040014e+00 3.7493773138e+00 
93400 4.1963868702e+00 -5.7418489423e-04 2.1647173521e+00 -3.7494004379e+00 2.1647173521e+00 3.7494004379e+00 
93500 4.1963868620e+00 -5.7038965332e-04 2.1647306145e+00 -3.7494234089e+00 2.1647306145e+00 3.7494234089e+00 
93600 4.1963868540e+00 -5.6661949616e-04 2.1647437891e+00 -3.7494462281e+00 2.1647437891e+00 3.7494462281e+00 
93700 4.1963868460e+00 -5.6287425702e-04 2.1647568765e+00 -3.7494688962e+00 2.1647568765e+00 3.7494688962e+00 
93800 4.1963868381e+00 -5.5915377128e-04 2.1647698774e+00 -3.7494914144e+00 2.1647698774e+00 3.7494914144e+00 
93900 4.1963868304e+00 -5.5545787539e-04 2.1647827923e+00 -3.7495137836e+00 2.1647827923e+00 3.7495137836e+00 
94000 4.1963868227e+00 -5.5178640689e-04 2.1647956217e+00 -3.7495360048e+00 2.1647956217e+00 3.7495360048e+00 
94100 4.1963868151e+00 -5.4813920439e-04 2.1648083663e+00 -3.7495580790e+00 2.1648083663e+00 3.7495580790e+00 
94200 4.1963868077e+00 -5.4451610757e-04 2.1648210265e+00 -3.7495800072e+00 2.1648210265e+00 3.7495800072e+00 
94300 4.1963868003e+00 -5.4091695715e-04 2.1648336030e+00 -3.7496017903e+00 2.1648336030e+00 3.7496017903e+00 
94400 4.1963867931e+00 -5.3734159492e-04 2.1648460963e+00 -3.7496234293e+00 2.1648460963e+00 3.7496234293e+00 
94500 4.1963867859e+00 -5.3378986371e-04 2.1648585069e+00 -3.7496449251e+00 2.1648585069e+00 3.7496449251e+00 
94600 4.1963867788e+00 -5.3026160738e-04 2.1648708354e+00 -3.7496662788e+00 2.1648708354e+00 3.7496662788e+00 
94700 4.1963867718e+00 -5.2675667082e-04 2.1648830824e+00 -3.7496874912e+00 2.1648830824e+00 3.7496874912e+00 
94800 4.1963867649e+00 -5.2327489995e-04 2.1648952483e+00 -3.7497085632e+00 2.1648952483e+00 3.7497085632e+00 
94900 4.1963867581e+00 -5.1981614171e-04 2.1649073338e+00 -3.7497294958e+00 2.1649073338e+00 3.7497294958e+00 
95000 4.1963867514e+00 -5.1638024404e-04 2.1649193393e+00 -3.7497502900e+00 2.1649193393e+00 3.7497502900e+00 
95100 4.1963867448e+00 -5.1296705589e-04 2.1649312654e+00 -3.7497709466e+00 2.1649312654e+00 3.7497709466e+00 
95200 4.1963867383e+00 -5.0957642720e-04 2.1649431126e+00 -3.7497914666e+00 2.1649431126e+00 3.7497914666e+00 
95300 4.1963867318e+00 -5.0620820893e-04 2.1649548815e+00 -3.7498118508e+00 2.1649548815e+00 3.7498118508e+00 
95400 4.1963867255e+00 -5.0286225297e-04 2.1649665724e+00 -3.7498321001e+00 2.1649665724e+00 3.7498321001e+00 
95500 4.1963867192e+00 -4.9953841223e-04 2.1649781861e+00 -3.7498522155e+00 2.1649781861e+00 3.7498522155e+00 
95600 4.1963867130e+00 -4.9623654058e-04 2.1649897229e+00 -3.7498721979e+00 2.1649897229e+00 3.7498721979e+00 
95700 4.1963867069e+00 -4.9295649285e-04 2.1650011834e+00 -3.7498920480e+00 2.1650011834e+00 3.7498920480e+00 
95800 4.1963867008e+00 -4.8969812484e-04 2.1650125681e+00 -3.7499117669e+00 2.1650125681e+00 3.7499117669e+00 
95900 4.1963866949e+00 -4.8646129328e-04 2.1650238774e+00 -3.7499313553e+00 2.1650238774e+00 3.7499313553e+00 
96000 4.1963866890e+00 -4.8324585586e-04 2.1650351120e+00 -3.7499508141e+00 2.1650351120e+00 3.7499508141e+00 
96100 4.1963866832e+00 -4.8005167122e-04 2.1650462722e+00 -3.7499701442e+00 2.1650462722e+00 3.7499701442e+00 
96200 4.1963866775e+00 -4.7687859891e-04 2.1650573586e+00 -3.7499893465e+00 2.1650573586e+00 3.7499893465e+00 
96300 4.1963866719e+00 -4.7372649943e-04 2.1650683717e+00 -3.7500084217e+00 2.1650683717e+00 3.7500084217e+00 
96400 4.1963866663e+00 -4.7059523417e-04 2.1650793119e+00 -3.7500273707e+00 2.1650793119e+00 3.7500273707e+00 
96500 4.1963866608e+00 -4.6748466548e-04 2.1650901798e+00 -3.7500461944e+00 2.1650901798e+00 3.7500461944e+00 
96600 4.1963866554e+00 -4.6439465658e-04 2.1651009758e+00 -3.7500648936e+00 2.1651009758e+00 3.7500648936e+00 
96700 4.1963866500e+00 -4.6132507160e-04 2.1651117003e+00 -3.7500834690e+00 2.1651117003e+00 3.7500834690e+00 
96800 4.1963866447e+00 -4.5827577559e-04 2.1651223540e+00 -3.7501019217e+00 2.1651223540e+00 3.7501019217e+00 
96900 4.1963866395e+00 -4.5524663446e-04 2.1651329371e+00 -3.7501202522e+00 2.1651329371e+00 3.7501202522e+00 
97000 4.1963866344e+00 -4.5223751503e-04 2.1651434502e+00 -3.7501384615e+00 2.1651434502e+00 3.7501384615e+00 
97100 4.1963866293e+00 -4.4924828498e-04 2.1651538938e+00 -3.7501565503e+00 2.1651538938e+00 3.7501565503e+00 
97200 4.1963866243e+00 -4.4627881289e-04 2.1651642684e+00 -3.7501745195e+00 2.1651642684e+00 3.7501745195e+00 
97300 4.1963866193e+00 -4.4332896817e-04 2.1651745743e+00 -3.7501923699e+00 2.1651745743e+00 3.7501923699e+00 
97400 4.1963866144e+00 -4.4039862113e-04 2.1651848120e+00 -3.7502101021e+00 2.1651848120e+00 3.7502101021e+00 
97500 4.1963866096e+00 -4.3748764291e-04 2.1651949820e+00 -3.7502277171e+00 2.1651949820e+00 3.7502277171e+00 
97600 4.1963866049e+00 -4.3459590552e-04 2.1652050847e+00 -3.7502452156e+00 2.1652050847e+00 3.7502452156e+00 
97700 4.1963866002e+00 -4.3172328179e-04 2.1652151206e+00 -3.7502625983e+00 2.1652151206e+00 3.7502625983e+00 
97800 4.1963865956e+00 -4.2886964542e-04 2.1652250902e+00 -3.7502798660e+00 2.1652250902e+00 3.7502798660e+00 
97900 4.1963865910e+00 -4.2603487092e-04 2.1652349938e+00 -3.7502970195e+00 2.1652349938e+00 3.7502970195e+00 
98000 4.1963865865e+00 -4.2321883364e-04 2.1652448319e+00 -3.7503140596e+00 2.1652448319e+00 3.7503140596e+00 
98100 4.1963865820e+00 -4.2042140976e-04 2.1652546049e+00 -3.7503309869e+00 2.1652546049e+00 3.7503309869e+00 
98200 4.1963865777e+00 -4.1764247626e-04 2.1652643132e+00 -3.7503478023e+00 2.1652643132e+00 3.7503478023e+00 
98300 4.1963865733e+00 -4.1488191094e-04 2.1652739574e+00 -3.7503645065e+00 2.1652739574e+00 3.7503645065e+00 
98400 4.1963865691e+00 -4.1213959242e-04 2.1652835377e+00 -3.7503811002e+00 2.1652835377e+00 3.7503811002e+00 
98500 4.1963865648e+00 -4.0941540010e-04 2.1652930547e+00 -3.7503975841e+00 2.1652930547e+00 3.7503975841e+00 
98600 4.1963865607e+00 -4.0670921419e-04 2.1653025088e+00 -3.7504139590e+00 2.1653025088e+00 3.7504139590e+00 
98700 4.1963865566e+00 -4.0402091569e-04 2.1653119003e+00 -3.7504302256e+00 2.1653119003e+00 3.7504302256e+00 
98800 4.1963865525e+00 -4.0135038637e-04 2.1653212297e+00 -3.7504463846e+00 2.1653212297e+00 3.7504463846e+00 
98900 4.1963865485e+00 -3.9869750882e-04 2.1653304974e+00 -3.7504624367e+00 2.1653304974e+00 3.7504624367e+00 
99000 4.1963865446e+00 -3.9606216636e-04 2.1653397038e+00 -3.7504783826e+00 2.1653397038e+00 3.7504783826e+00 
99100 4.1963865407e+00 -3.9344424310e-04 2.1653488493e+00 -3.7504942231e+00 2.1653488493e+00 3.7504942231e+00 
99200 4.1963865368e+00 -3.9084362393e-04 2.1653579343e+00 -3.7505099588e+00 2.1653579343e+00 3.7505099588e+00 
99300 4.1963865330e+00 -3.8826019448e-04 2.1653669592e+00 -3.7505255904e+00 2.1653669592e+00 3.7505255904e+00 
99400 4.1963865293e+00 -3.8569384115e-04 2.1653759245e+00 -3.7505411187e+00 2.1653759245e+00 3.7505411187e+00 
99500 4.1963865256e+00 -3.8314445106e-04 2.1653848304e+00 -3.7505565442e+00 2.1653848304e+00 3.7505565442e+00 
99600 4.1963865220e+00 -3.8061191212e-04 2.1653936774e+00 -3.7505718677e+00 2.1653936774e+00 3.7505718677e+00 
99700 4.1963865184e+00 -3.7809611295e-04 2.1654024660e+00 -3.7505870899e+00 2.1654024660e+00 3.7505870899e+00 
99800 4.1963865148e+00 -3.7559694292e-04 2.1654111964e+00 -3.7506022114e+00 2.1654111964e+00 3.7506022114e+00 
99900 4.1963865113e+00 -3.7311429211e-04 2.1654198690e+00 -3.7506172329e+00 2.1654198690e+00 3.7506172329e+00 
100000 4.1963865079e+00 -3.7064805135e-04 2.1654284843e+00 -3.7506321550e+00 2.1654284843e+00 3.7506321550e+00 
100100 4.1963865045e+00 -3.6819811219e-04 2.1654370426e+00 -3.7506469784e+00 2.1654370426e+00 3.7506469784e+00 
100200 4.1963865011e+00 -3.6576436688e-04 2.1654455443e+00 -3.7506617038e+00 2.1654455443e+00 3.7506617038e+00 
100300 4.1963864978e+00 -3.6334670839e-04 2.1654539898e+00 -3.7506763318e+00 2.1654539898e+00 3.7506763318e+00 
100400 4.1963864945e+00 -3.6094503040e-04 2.1654623794e+00 -3.7506908631e+00 2.1654623794e+00 3.7506908631e+00 
100500 4.1963864913e+00 -3.5855922728e-04 2.1654707136e+00 -3.7507052982e+00 2.1654707136e+00 3.7507052982e+00 
100600 4.1963864881e+00 -3.5618919413e-04 2.1654789926e+00 -3.7507196379e+00 2.1654789926e+00 3.7507196379e+00 
100700 4.1963864849e+00 -3.5383482670e-04 2.1654872169e+00 -3.7507338827e+00 2.1654872169e+00 3.7507338827e+00 
100800 4.1963864818e+00 -3.5149602146e-04 2.1654953867e+00 -3.7507480334e+00 2.1654953867e+00 3.7507480334e+00 
100900 4.1963864787e+00 -3.4917267554e-04 2.1655035026e+00 -3.7507620904e+00 2.1655035026e+00 3.7507620904e+00 
101000 4.1963864757e+00 -3.4686468678e-04 2.1655115647e+00 -3.7507760545e+00 2.1655115647e+00 3.7507760545e+00 
101100 4.1963864727e+00 -3.4457195367e-04 2.1655195736e+00 -3.7507899262e+00 2.1655195736e+00 3.7507899262e+00 
101200 4.1963864698e+00 -3.4229437538e-04 2.1655275295e+00 -3.7508037062e+00 2.1655275295e+00 3.7508037062e+00 
101300 4.1963864669e+00 -3.4003185174e-04 2.1655354327e+00 -3.7508173951e+00 2.1655354327e+00 3.7508173951e+00 
101400 4.1963864640e+00 -3.3778428325e-04 2.1655432837e+00 -3.7508309934e+00 2.1655432837e+00 3.7508309934e+00 
101500 4.1963864612e+00 -3.3555157106e-04 2.1655510828e+00 -3.7508445018e+00 2.1655510828e+00 3.7508445018e+00 
101600 4.1963864584e+00 -3.3333361698e-04 2.1655588303e+00 -3.7508579208e+00 2.1655588303e+00 3.7508579208e+00 
101700 4.1963864556e+00 -3.3113032347e-04 2.1655665265e+00 -3.7508712511e+00 2.1655665265e+00 3.7508712511e+00 
101800 4.1963864529e+00 -3.2894159362e-04 2.1655741719e+00 -3.7508844933e+00 2.1655741719e+00 3.7508844933e+00 
101900 4.1963864502e+00 -3.2676733118e-04 2.1655817667e+00 -3.7508976478e+00 2.1655817667e+00 3.7508976478e+00 
102000 4.1963864476e+00 -3.2460744053e-04 2.1655893112e+00 -3.7509107154e+00 2.1655893112e+00 3.7509107154e+00 
102100 4.1963864449e+00 -3.2246182666e-04 2.1655968059e+00 -3.7509236965e+00 2.1655968059e+00 3.7509236965e+00 
102200 4.1963864424e+00 -3.2033039521e-04 2.1656042510e+00 -3.7509365919e+00 2.1656042510e+00 3.7509365919e+00 
102300 4.1963864398e+00 -3.1821305246e-04 2.1656116469e+00 -3.7509494019e+00 2.1656116469e+00 3.7509494019e+00 
102400 4.1963864373e+00 -3.1610970526e-04 2.1656189938e+00 -3.7509621272e+00 2.1656189938e+00 3.7509621272e+00 
102500 4.1963864348e+00 -3.1402026113e-04 2.1656262922e+00 -3.7509747683e+00 2.1656262922e+00 3.7509747683e+00 
102600 4.1963864324e+00 -3.1194462815e-04 2.1656335423e+00 -3.7509873259e+00 2.1656335423e+00 3.7509873259e+00 
102700 4.1963864300e+00 -3.0988271505e-04 2.1656407445e+00 -3.7509998004e+00 2.1656407445e+00 3.7509998004e+00 
102800 4.1963864276e+00 -3.0783443114e-04 2.1656478990e+00 -3.7510121924e+00 2.1656478990e+00 3.7510121924e+00 
102900 4.1963864252e+00 -3.0579968634e-04 2.1656550062e+00 -3.7510245025e+00 2.1656550062e+00 3.7510245025e+00 
103000 4.1963864229e+00 -3.0377839115e-04 2.1656620665e+00 -3.7510367311e+00 2.1656620665e+00 3.7510367311e+00 
103100 4.1963864206e+00 -3.0177045668e-04 2.1656690800e+00 -3.7510488789e+00 2.1656690800e+00 3.7510488789e+00 
103200 4.1963864184e+00 -2.9977579461e-04 2.1656760471e+00 -3.7510609464e+00 2.1656760471e+00 3.7510609464e+00 
103300 4.1963864161e+00 -2.9779431723e-04 2.1656829682e+00 -3.7510729340e+00 2.1656829682e+00 3.7510729340e+00 
103400 4.1963864139e+00 -2.9582593737e-04 2.1656898435e+00 -3.7510848424e+00 2.1656898435e+00 3.7510848424e+00 
103500 4.1963864118e+00 -2.9387056847e-04 2.1656966733e+00 -3.7510966720e+00 2.1656966733e+00 3.7510966720e+00 
103600 4.1963864096e+00 -2.9192812452e-04 2.1657034580e+00 -3.7511084234e+00 2.1657034580e+00 3.7511084234e+00 
103700 4.1963864075e+00 -2.8999852010e-04 2.1657101978e+00 -3.7511200971e+00 2.1657101978e+00 3.7511200971e+00 
103800 4.1963864054e+00 -2.8808167034e-04 2.1657168930e+00 -3.7511316936e+00 2.1657168930e+00 3.7511316936e+00 
103900 4.1963864034e+00 -2.8617749093e-04 2.1657235440e+00 -3.7511432133e+00 2.1657235440e+00 3.7511432133e+00 
104000 4.1963864013e+00 -2.8428589813e-04 2.1657301510e+00 -3.7511546570e+00 2.1657301510e+00 3.7511546570e+00 
104100 4.1963863993e+00 -2.8240680873e-04 2.1657367143e+00 -3.7511660249e+00 2.1657367143e+00 3.7511660249e+00 
104200 4.1963863973e+00 -2.8054014009e-04 2.1657432341e+00 -3.7511773177e+00 2.1657432341e+00 3.7511773177e+00 
104300 4.1963863954e+00 -2.7868581011e-04 2.1657497109e+00 -3.7511885358e+00 2.1657497109e+00 3.7511885358e+00 
104400 4.1963863935e+00 -2.7684373724e-04 2.1657561448e+00 -3.7511996797e+00 2.1657561448e+00 3.7511996797e+00 
104500 4.1963863915e+00 -2.7501384045e-04 2.1657625362e+00 -3.7512107499e+00 2.1657625362e+00 3.7512107499e+00 
104600 4.1963863897e+00 -2.7319603926e-04 2.1657688854e+00 -3.7512217469e+00 2.1657688854e+00 3.7512217469e+00 
104700 4.1963863878e+00 -2.7139025373e-04 2.1657751925e+00 -3.7512326712e+00 2.1657751925e+00 3.7512326712e+00 
104800 4.1963863860e+00 -2.6959640442e-04 2.1657814579e+00 -3.7512435232e+00 2.1657814579e+00 3.7512435232e+00 
104900 4.1963863842e+00 -2.6781441245e-04 2.1657876819e+00 -3.7512543035e+00 2.1657876819e+00 3.7512543035e+00 
105000 4.1963863824e+00 -2.6604419943e-04 2.1657938648e+00 -3.7512650125e+00 2.1657938648e+00 3.7512650125e+00 
105100 4.1963863807e+00 -2.6428568750e-04 2.1658000067e+00 -3.7512756507e+00 2.1658000067e+00 3.7512756507e+00 
105200 4.1963863789e+00 -2.6253879933e-04 2.1658061081e+00 -3.7512862185e+00 2.1658061081e+00 3.7512862185e+00 
105300 4.1963863772e+00 -2.6080345807e-04 2.1658121691e+00 -3.7512967165e+00 2.1658121691e+00 3.7512967165e+00 
105400 4.1963863755e+00 -2.5907958741e-04 2.1658181900e+00 -3.7513071450e+00 2.1658181900e+00 3.7513071450e+00 
105500 4.1963863739e+00 -2.5736711152e-04 2.1658241711e+00 -3.7513175046e+00 2.1658241711e+00 3.7513175046e+00 
105600 4.1963863722e+00 -2.5566595508e-04 2.1658301127e+00 -3.7513277957e+00 2.1658301127e+00 3.7513277957e+00 
105700 4.1963863706e+00 -2.5397604328e-04 2.1658360149e+00 -3.7513380187e+00 2.1658360149e+00 3.7513380187e+00 
105800 4.1963863690e+00 -2.5229730178e-04 2.1658418782e+00 -3.7513481741e+00 2.1658418782e+00 3.7513481741e+00 
105900 4.1963863674e+00 -2.5062965675e-04 2.1658477026e+00 -3.7513582624e+00 2.1658477026e+00 3.7513582624e+00 
106000 4.1963863659e+00 -2.4897303484e-04 2.1658534886e+00 -3.7513682840e+00 2.1658534886e+00 3.7513682840e+00 
106100 4.1963863643e+00 -2.4732736319e-04 2.1658592363e+00 -3.7513782392e+00 2.1658592363e+00 3.7513782392e+00 
106200 4.1963863628e+00 -2.4569256941e-04 2.1658649459e+00 -3.7513881287e+00 2.1658649459e+00 3.7513881287e+00 
106300 4.1963863613e+00 -2.4406858161e-04 2.1658706179e+00 -3.7513979528e+00 2.1658706179e+00 3.7513979528e+00 
106400 4.1963863598e+00 -2.4245532835e-04 2.1658762523e+00 -3.7514077119e+00 2.1658762523e+00 3.7514077119e+00 
106500 4.1963863584e+00 -2.4085273868e-04 2.1658818495e+00 -3.7514174065e+00 2.1658818495e+00 3.7514174065e+00 
106600 4.1963863569e+00 -2.3926074211e-04 2.1658874096e+00 -3.7514270369e+00 2.1658874096e+00 3.7514270369e+00 
106700 4.1963863555e+00 -2.3767926862e-04 2.1658929330e+00 -3.7514366037e+00 2.1658929330e+00 3.7514366037e+00 
106800 4.1963863541e+00 -2.3610824865e-04 2.1658984199e+00 -3.7514461073e+00 2.1658984199e+00 3.7514461073e+00 
106900 4.1963863527e+00 -2.3454761310e-04 2.1659038705e+00 -3.7514555480e+00 2.1659038705e+00 3.7514555480e+00 
107000 4.1963863513e+00 -2.3299729334e-04 2.1659092850e+00 -3.7514649262e+00 2.1659092850e+00 3.7514649262e+00 
107100 4.1963863500e+00 -2.3145722117e-04 2.1659146638e+00 -3.7514742425e+00 2.1659146638e+00 3.7514742425e+00 
107200 4.1963863487e+00 -2.2992732885e-04 2.1659200069e+00 -3.7514834971e+00 2.1659200069e+00 3.7514834971e+00 
107300 4.1963863474e+00 -2.2840754910e-04 2.1659253148e+00 -3.7514926906e+00 2.1659253148e+00 3.7514926906e+00 
107400 4.1963863461e+00 -2.2689781506e-04 2.1659305875e+00 -3.7515018233e+00 2.1659305875e+00 3.7515018233e+00 
107500 4.1963863448e+00 -2.2539806035e-04 2.1659358254e+00 -3.7515108956e+00 2.1659358254e+00 3.7515108956e+00 
107600 4.1963863435e+00 -2.2390821899e-04 2.1659410287e+00 -3.7515199079e+00 2.1659410287e+00 3.7515199079e+00 
107700 4.1963863423e+00 -2.2242822545e-04 2.1659461975e+00 -3.7515288606e+00 2.1659461975e+00 3.7515288606e+00 
107800 4.1963863411e+00 -2.2095801463e-04 2.1659513322e+00 -3.7515377541e+00 2.1659513322e+00 3.7515377541e+00 
107900 4.1963863398e+00 -2.1949752189e-04 2.1659564329e+00 -3.7515465888e+00 2.1659564329e+00 3.7515465888e+00 
108000 4.1963863386e+00 -2.1804668296e-04 2.1659614999e+00 -3.7515553650e+00 2.1659614999e+00 3.7515553650e+00 
108100 4.1963863375e+00 -2.1660543406e-04 2.1659665334e+00 -3.7515640833e+00 2.1659665334e+00 3.7515640833e+00 
108200 4.1963863363e+00 -2.1517371177e-04 2.1659715336e+00 -3.7515727439e+00 2.1659715336e+00 3.7515727439e+00 
108300 4.1963863352e+00 -2.1375145313e-04 2.1659765007e+00 -3.7515813473e+00 2.1659765007e+00 3.7515813473e+00 
108400 4.1963863340e+00 -2.1233859558e-04 2.1659814350e+00 -3.7515898937e+00 2.1659814350e+00 3.7515898937e+00 
108500 4.1963863329e+00 -2.1093507698e-04 2.1659863367e+00 -3.7515983837e+00 2.1659863367e+00 3.7515983837e+00 
108600 4.1963863318e+00 -2.0954083560e-04 2.1659912060e+00 -3.7516068175e+00 2.1659912060e+00 3.7516068175e+00 
108700 4.1963863307e+00 -2.0815581012e-04 2.1659960430e+00 -3.7516151955e+00 2.1659960430e+00 3.7516151955e+00 
108800 4.1963863296e+00 -2.0677993961e-04 2.1660008481e+00 -3.7516235182e+00 2.1660008481e+00 3.7516235182e+00 
108900 4.1963863286e+00 -2.0541316356e-04 2.1660056214e+00 -3.7516317858e+00 2.1660056214e+00 3.7516317858e+00 
109000 4.1963863275e+00 -2.0405542186e-04 2.1660103632e+00 -3.7516399987e+00 2.1660103632e+00 3.7516399987e+00 
109100 4.1963863265e+00 -2.0270665478e-04 2.1660150736e+00 -3.7516481574e+00 2.1660150736e+00 3.7516481574e+00 
109200 4.1963863255e+00 -2.0136680300e-04 2.1660197528e+00 -3.7516562621e+00 2.1660197528e+00 3.7516562621e+00 
109300 4.1963863245e+00 -2.0003580759e-04 2.1660244011e+00 -3.7516643132e+00 2.1660244011e+00 3.7516643132e+00 
109400 4.1963863235e+00 -1.9871361001e-04 2.1660290187e+00 -3.7516723111e+00 2.1660290187e+00 3.7516723111e+00 
109500 4.1963863225e+00 -1.9740015211e-04 2.1660336058e+00 -3.7516802561e+00 2.1660336058e+00 3.7516802561e+00 
109600 4.1963863215e+00 -1.9609537610e-04 2.1660381625e+00 -3.7516881486e+00 2.1660381625e+00 3.7516881486e+00 
109700 4.1963863206e+00 -1.9479922461e-04 2.1660426891e+00 -3.7516959889e+00 2.1660426891e+00 3.7516959889e+00 
109800 4.1963863196e+00 -1.9351164063e-04 2.1660471858e+00 -3.7517037773e+00 2.1660471858e+00 3.7517037773e+00 
109900 4.1963863187e+00 -1.9223256751e-04 2.1660516527e+00 -3.7517115143e+00 2.1660516527e+00 3.7517115143e+00 
110000 4.1963863178e+00 -1.9096194901e-04 2.1660560901e+00 -3.7517192001e+00 2.1660560901e+00 3.7517192001e+00 
110100 4.1963863169e+00 -1.8969972923e-04 2.1660604981e+00 -3.7517268351e+00 2.1660604981e+00 3.7517268351e+00 
110200 4.1963863160e+00 -1.8844585266e-04 2.1660648771e+00 -3.7517344196e+00 2.1660648771e+00 3.7517344196e+00 
110300 4.1963863151e+00 -1.8720026415e-04 2.1660692270e+00 -3.7517419539e+00 2.1660692270e+00 3.7517419539e+00 
110400 4.1963863142e+00 -1.8596290892e-04 2.1660735482e+00 -3.7517494384e+00 2.1660735482e+00 3.7517494384e+00 
110500 4.1963863134e+00 -1.8473373253e-04 2.1660778408e+00 -3.7517568735e+00 2.1660778408e+00 3.7517568735e+00 
110600 4.1963863125e+00 -1.8351268093e-04 2.1660821051e+00 -3.7517642594e+00 2.1660821051e+00 3.7517642594e+00 
110700 4.1963863117e+00 -1.8229970041e-04 2.1660863411e+00 -3.7517715964e+00 2.1660863411e+00 3.7517715964e+00 
110800 4.1963863109e+00 -1.8109473762e-04 2.1660905492e+00 -3.7517788850e+00 2.1660905492e+00 3.7517788850e+00 
110900 4.1963863101e+00 -1.7989773956e-04 2.1660947294e+00 -3.7517861253e+00 2.1660947294e+00 3.7517861253e+00 
111000 4.1963863093e+00 -1.7870865358e-04 2.1660988820e+00 -3.7517933178e+00 2.1660988820e+00 3.7517933178e+00 
111100 4.1963863085e+00 -1.7752742738e-04 2.1661030071e+00 -3.7518004628e+00 2.1661030071e+00 3.7518004628e+00 
111200 4.1963863077e+00 -1.7635400901e-04 2.1661071050e+00 -3.7518075605e+00 2.1661071050e+00 3.7518075605e+00 
111300 4.1963863069e+00 -1.7518834685e-04 2.1661111757e+00 -3.7518146112e+00 2.1661111757e+00 3.7518146112e+00 
111400 4.1963863061e+00 -1.7403038963e-04 2.1661152196e+00 -3.7518216154e+00 2.1661152196e+00 3.7518216154e+00 
111500 4.1963863054e+00 -1.7288008643e-04 2.1661192367e+00 -3.7518285732e+00 2.1661192367e+00 3.7518285732e+00 
111600 4.1963863047e+00 -1.7173738666e-04 2.1661232272e+00 -3.7518354850e+00 2.1661232272e+00 3.7518354850e+00 
111700 4.1963863039e+00 -1.7060224004e-04 2.1661271914e+00 -3.7518423512e+00 2.1661271914e+00 3.7518423512e+00 
111800 4.1963863032e+00 -1.6947459665e-04 2.1661311294e+00 -3.7518491719e+00 2.1661311294e+00 3.7518491719e+00 
111900 4.1963863025e+00 -1.6835440689e-04 2.1661350413e+00 -3.7518559476e+00 2.1661350413e+00 3.7518559476e+00 
112000 4.1963863018e+00 -1.6724162150e-04 2.1661389273e+00 -3.7518626784e+00 2.1661389273e+00 3.7518626784e+00 
112100 4.1963863011e+00 -1.6613619153e-04 2.1661427877e+00 -3.7518693648e+00 2.1661427877e+00 3.7518693648e+00 
112200 4.1963863004e+00 -1.6503806836e-04 2.1661466225e+00 -3.7518760069e+00 2.1661466225e+00 3.7518760069e+00 
112300 4.1963862997e+00 -1.6394720369e-04 2.1661504320e+00 -3.7518826051e+00 2.1661504320e+00 3.7518826051e+00 
112400 4.1963862991e+00 -1.6286354954e-04 2.1661542163e+00 -3.7518891597e+00 2.1661542163e+00 3.7518891597e+00 
112500 4.1963862984e+00 -1.6178705824e-04 2.1661579756e+00 -3.7518956710e+00 2.1661579756e+00 3.7518956710e+00 
112600 4.1963862978e+00 -1.6071768245e-04 2.1661617100e+00 -3.7519021392e+00 2.1661617100e+00 3.7519021392e+00 
112700 4.1963862971e+00 -1.5965537514e-04 2.1661654198e+00 -3.7519085646e+00 2.1661654198e+00 3.7519085646e+00 
112800 4.1963862965e+00 -1.5860008958e-04 2.1661691050e+00 -3.7519149476e+00 2.1661691050e+00 3.7519149476e+00 
112900 4.1963862959e+00 -1.5755177935e-04 2.1661727658e+00 -3.7519212884e+00 2.1661727658e+00 3.7519212884e+00 
113000 4.1963862952e+00 -1.5651039835e-04 2.1661764025e+00 -3.7519275872e+00 2.1661764025e+00 3.7519275872e+00 
113100 4.1963862946e+00 -1.5547590078e-04 2.1661800151e+00 -3.7519338444e+00 2.1661800151e+00 3.7519338444e+00 
113200 4.1963862940e+00 -1.5444824112e-04 2.1661836038e+00 -3.7519400603e+00 2.1661836038e+00 3.7519400603e+00 
113300 4.1963862934e+00 -1.5342737419e-04 2.1661871688e+00 -3.7519462350e+00 2.1661871688e+00 3.7519462350e+00 
113400 4.1963862929e+00 -1.5241325509e-04 2.1661907102e+00 -3.7519523689e+00 2.1661907102e+00 3.7519523689e+00 
113500 4.1963862923e+00 -1.5140583919e-04 2.1661942282e+00 -3.7519584623e+00 2.1661942282e+00 3.7519584623e+00 
113600 4.1963862917e+00 -1.5040508221e-04 2.1661977229e+00 -3.7519645153e+00 2.1661977229e+00 3.7519645153e+00 
113700 4.1963862912e+00 -1.4941094012e-04 2.1662011946e+00 -3.7519705284e+00 2.1662011946e+00 3.7519705284e+00 
113800 4.1963862906e+00 -1.4842336920e-04 2.1662046432e+00 -3.7519765017e+00 2.1662046432e+00 3.7519765017e+00 
113900 4.1963862901e+00 -1.4744232600e-04 2.1662080691e+00 -3.7519824355e+00 2.1662080691e+00 3.7519824355e+00 
114000 4.1963862895e+00 -1.4646776739e-04 2.1662114724e+00 -3.7519883301e+00 2.1662114724e+00 3.7519883301e+00 
114100 4.1963862890e+00 -1.4549965049e-04 2.1662148531e+00 -3.7519941857e+00 2.1662148531e+00 3.7519941857e+00 
114200 4.1963862885e+00 -1.4453793273e-04 2.1662182115e+00 -3.7520000026e+00 2.1662182115e+00 3.7520000026e+00 
114300 4.1963862879e+00 -1.4358257180e-04 2.1662215477e+00 -3.7520057810e+00 2.1662215477e+00 3.7520057810e+00 
114400 4.1963862874e+00 -1.4263352569e-04 2.1662248618e+00 -3.7520115213e+00 2.1662248618e+00 3.7520115213e+00 
114500 4.1963862869e+00 -1.4169075265e-04 2.1662281540e+00 -3.7520172235e+00 2.1662281540e+00 3.7520172235e+00 
114600 4.1963862864e+00 -1.4075421122e-04 2.1662314245e+00 -3.7520228881e+00 2.1662314245e+00 3.7520228881e+00 
114700 4.1963862859e+00 -1.3982386021e-04 2.1662346733e+00 -3.7520285153e+00 2.1662346733e+00 3.7520285153e+00 
114800 4.1963862855e+00 -1.3889965869e-04 2.1662379006e+00 -3.7520341052e+00 2.1662379006e+00 3.7520341052e+00 
114900 4.1963862850e+00 -1.3798156603e-04 2.1662411067e+00 -3.7520396582e+00 2.1662411067e+00 3.7520396582e+00 
115000 4.1963862845e+00 -1.3706954183e-04 2.1662442915e+00 -3.7520451744e+00 2.1662442915e+00 3.7520451744e+00 
115100 4.1963862840e+00 -1.3616354598e-04 2.1662474552e+00 -3.7520506542e+00 2.1662474552e+00 3.7520506542e+00 
115200 4.1963862836e+00 -1.3526353864e-04 2.1662505981e+00 -3.7520560978e+00 2.1662505981e+00 3.7520560978e+00 
115300 4.1963862831e+00 -1.3436948022e-04 2.1662537201e+00 -3.7520615054e+00 2.1662537201e+00 3.7520615054e+00 
115400 4.1963862827e+00 -1.3348133139e-04 2.1662568216e+00 -3.7520668772e+00 2.1662568216e+00 3.7520668772e+00 
115500 4.1963862822e+00 -1.3259905310e-04 2.1662599025e+00 -3.7520722135e+00 2.1662599025e+00 3.7520722135e+00 
115600 4.1963862818e+00 -1.3172260654e-04 2.1662629630e+00 -3.7520775145e+00 2.1662629630e+00 3.7520775145e+00 
115700 4.1963862814e+00 -1.3085195316e-04 2.1662660034e+00 -3.7520827805e+00 2.1662660034e+00 3.7520827805e+00 
115800 4.1963862809e+00 -1.2998705467e-04 2.1662690236e+00 -3.7520880117e+00 2.1662690236e+00 3.7520880117e+00 
115900 4.1963862805e+00 -1.2912787302e-04 2.1662720238e+00 -3.7520932083e+00 2.1662720238e+00 3.7520932083e+00 
116000 4.1963862801e+00 -1.2827437043e-04 2.1662750043e+00 -3.7520983705e+00 2.1662750043e+00 3.7520983705e+00 
116100 4.1963862797e+00 -1.2742650936e-04 2.1662779650e+00 -3.7521034986e+00 2.1662779650e+00 3.7521034986e+00 
116200 4.1963862793e+00 -1.2658425251e-04 2.1662809061e+00 -3.7521085928e+00 2.1662809061e+00 3.7521085928e+00 
116300 4.1963862789e+00 -1.2574756285e-04 2.1662838278e+00 -3.7521136534e+00 2.1662838278e+00 3.7521136534e+00 
116400 4.1963862785e+00 -1.2491640357e-04 2.1662867302e+00 -3.7521186804e+00 2.1662867302e+00 3.7521186804e+00 
116500 4.1963862781e+00 -1.2409073811e-04 2.1662896134e+00 -3.7521236743e+00 2.1662896134e+00 3.7521236743e+00 
116600 4.1963862777e+00 -1.2327053017e-04 2.1662924775e+00 -3.7521286351e+00 2.1662924775e+00 3.7521286351e+00 
116700 4.1963862774e+00 -1.2245574366e-04 2.1662953227e+00 -3.7521335631e+00 2.1662953227e+00 3.7521335631e+00 
116800 4.1963862770e+00 -1.2164634275e-04 2.1662981491e+00 -3.7521384586e+00 2.1662981491e+00 3.7521384586e+00 
116900 4.1963862766e+00 -1.2084229185e-04 2.1663009568e+00 -3.7521433216e+00 2.1663009568e+00 3.7521433216e+00 
117000 4.1963862763e+00 -1.2004355557e-04 2.1663037459e+00 -3.7521481526e+00 2.1663037459e+00 3.7521481526e+00 
117100 4.1963862759e+00 -1.1925009881e-04 2.1663065166e+00 -3.7521529516e+00 2.1663065166e+00 3.7521529516e+00 
117200 4.1963862755e+00 -1.1846188665e-04 2.1663092690e+00 -3.7521577188e+00 2.1663092690e+00 3.7521577188e+00 
117300 4.1963862752e+00 -1.1767888444e-04 2.1663120032e+00 -3.7521624546e+00 2.1663120032e+00 3.7521624546e+00 
117400 4.1963862749e+00 -1.1690105772e-04 2.1663147193e+00 -3.7521671590e+00 2.1663147193e+00 3.7521671590e+00 
117500 4.1963862745e+00 -1.1612837230e-04 2.1663174175e+00 -3.7521718324e+00 2.1663174175e+00 3.7521718324e+00 
117600 4.1963862742e+00 -1.1536079419e-04 2.1663200978e+00 -3.7521764748e+00 2.1663200978e+00 3.7521764748e+00 
117700 4.1963862739e+00 -1.1459828962e-04 2.1663227604e+00 -3.7521810866e+00 2.1663227604e+00 3.7521810866e+00 
117800 4.1963862735e+00 -1.1384082507e-04 2.1663254054e+00 -3.7521856678e+00 2.1663254054e+00 3.7521856678e+00 
117900 4.1963862732e+00 -1.1308836721e-04 2.1663280329e+00 -3.7521902188e+00 2.1663280329e+00 3.7521902188e+00 
118000 4.1963862729e+00 -1.1234088295e-04 2.1663306430e+00 -3.7521947397e+00 2.1663306430e+00 3.7521947397e+00 
118100 4.1963862726e+00 -1.1159833942e-04 2.1663332359e+00 -3.7521992307e+00 2.1663332359e+00 3.7521992307e+00 
118200 4.1963862723e+00 -1.1086070396e-04 2.1663358117e+00 -3.7522036921e+00 2.1663358117e+00 3.7522036921e+00 
118300 4.1963862720e+00 -1.1012794412e-04 2.1663383704e+00 -3.7522081239e+00 2.1663383704e+00 3.7522081239e+00 
118400 4.1963862717e+00 -1.0940002767e-04 2.1663409122e+00 -3.7522125264e+00 2.1663409122e+00 3.7522125264e+00 
118500 4.1963862714e+00 -1.0867692261e-04 2.1663434372e+00 -3.7522168998e+00 2.1663434372e+00 3.7522168998e+00 
118600 4.1963862711e+00 -1.0795859713e-04 2.1663459455e+00 -3.7522212443e+00 2.1663459455e+00 3.7522212443e+00 
118700 4.1963862708e+00 -1.0724501963e-04 2.1663484372e+00 -3.7522255601e+00 2.1663484372e+00 3.7522255601e+00 
118800 4.1963862705e+00 -1.0653615873e-04 2.1663509124e+00 -3.7522298474e+00 2.1663509124e+00 3.7522298474e+00 
118900 4.1963862702e+00 -1.0583198325e-04 2.1663533713e+00 -3.7522341063e+00 2.1663533713e+00 3.7522341063e+00 
119000 4.1963862699e+00 -1.0513246223e-04 2.1663558140e+00 -3.7522383371e+00 2.1663558140e+00 3.7522383371e+00 
119100 4.1963862697e+00 -1.0443756489e-04 2.1663582404e+00 -3.7522425398e+00 2.1663582404e+00 3.7522425398e+00 
119200 4.1963862694e+00 -1.0374726067e-04 2.1663606509e+00 -3.7522467148e+00 2.1663606509e+00 3.7522467148e+00 
119300 4.1963862691e+00 -1.0306151922e-04 2.1663630454e+00 -3.7522508623e+00 2.1663630454e+00 3.7522508623e+00 
119400 4.1963862689e+00 -1.0238031037e-04 2.1663654241e+00 -3.7522549822e+00 2.1663654241e+00 3.7522549822e+00 
119500 4.1963862686e+00 -1.0170360416e-04 2.1663677870e+00 -3.7522590750e+00 2.1663677870e+00 3.7522590750e+00 
119600 4.1963862683e+00 -1.0103137082e-04 2.1663701343e+00 -3.7522631407e+00 2.1663701343e+00 3.7522631407e+00 
119700 4.1963862681e+00 -1.0036358081e-04 2.1663724662e+00 -3.7522671795e+00 2.1663724662e+00 3.7522671795e+00 
119800 4.1963862678e+00 -9.9700204731e-05 2.1663747826e+00 -3.7522711916e+00 2.1663747826e+00 3.7522711916e+00 
119900 4.1963862676e+00 -9.9041213422e-05 2.1663770836e+00 -3.7522751772e+00 2.1663770836e+00 3.7522751772e+00 
120000 4.1963862674e+00 -9.8386577897e-05 2.1663793695e+00 -3.7522791365e+00 2.1663793695e+00 3.7522791365e+00 
120100 4.1963862671e+00 -9.7736269361e-05 2.1663816403e+00 -3.7522830695e+00 2.1663816403e+00 3.7522830695e+00 
120200 4.1963862669e+00 -9.7090259217e-05 2.1663838960e+00 -3.7522869766e+00 2.1663838960e+00 3.7522869766e+00 
120300 4.1963862666e+00 -9.6448519050e-05 2.1663861369e+00 -3.7522908579e+00 2.1663861369e+00 3.7522908579e+00 
120400 4.1963862664e+00 -9.5811020633e-05 2.1663883629e+00 -3.7522947134e+00 2.1663883629e+00 3.7522947134e+00 
120500 4.1963862662e+00 -9.5177735934e-05 2.1663905742e+00 -3.7522985435e+00 2.1663905742e+00 3.7522985435e+00 
120600 4.1963862660e+00 -9.4548637094e-05 2.1663927709e+00 -3.7523023483e+00 2.1663927709e+00 3.7523023483e+00 
120700 4.1963862657e+00 -9.3923696449e-05 2.1663949531e+00 -3.7523061279e+00 2.1663949531e+00 3.7523061279e+00 
120800 4.1963862655e+00 -9.3298339401e-05 2.1663971208e+00 -3.7523098826e+00 2.1663971208e+00 3.7523098826e+00 
120900 4.1963862653e+00 -9.2685036093e-05 2.1663992741e+00 -3.7523136122e+00 2.1663992741e+00 3.7523136122e+00 
121000 4.1963862651e+00 -9.2075468532e-05 2.1664014133e+00 -3.7523173173e+00 2.1664014133e+00 3.7523173173e+00 
121100 4.1963862649e+00 -9.1463924180e-05 2.1664035383e+00 -3.7523209981e+00 2.1664035383e+00 3.7523209981e+00 
121200 4.1963862647e+00 -9.0861747012e-05 2.1664056493e+00 -3.7523246544e+00 2.1664056493e+00 3.7523246544e+00 
121300 4.1963862645e+00 -9.0263122172e-05 2.1664077464e+00 -3.7523282866e+00 2.1664077464e+00 3.7523282866e+00 
121400 4.1963862643e+00 -8.9662015216e-05 2.1664098296e+00 -3.7523318949e+00 2.1664098296e+00 3.7523318949e+00 
121500 4.1963862641e+00 -8.9070435489e-05 2.1664118990e+00 -3.7523354791e+00 2.1664118990e+00 3.7523354791e+00 
121600 4.1963862640e+00 -8.8476070692e-05 2.1664139547e+00 -3.7523390397e+00 2.1664139547e+00 3.7523390397e+00 
121700 4.1963862638e+00 -8.7885066428e-05 2.1664159967e+00 -3.7523425766e+00 2.1664159967e+00 3.7523425766e+00 
121800 4.1963862636e+00 -8.7297378004e-05 2.1664180250e+00 -3.7523460898e+00 2.1664180250e+00 3.7523460898e+00 
121900 4.1963862634e+00 -8.6719312326e-05 2.1664200398e+00 -3.7523495795e+00 2.1664200398e+00 3.7523495795e+00 
122000 4.1963862632e+00 -8.6137993864e-05 2.1664220413e+00 -3.7523530461e+00 2.1664220413e+00 3.7523530461e+00 
122100 4.1963862631e+00 -8.5559856283e-05 2.1664240293e+00 -3.7523564895e+00 2.1664240293e+00 3.7523564895e+00 
122200 4.1963862629e+00 -8.4991530094e-05 2.1664260040e+00 -3.7523599097e+00 2.1664260040e+00 3.7523599097e+00 
122300 4.1963862627e+00 -8.4419577855e-05 2.1664279655e+00 -3.7523633072e+00 2.1664279655e+00 3.7523633072e+00 
122400 4.1963862625e+00 -8.3850732296e-05 2.1664299139e+00 -3.7523666819e+00 2.1664299139e+00 3.7523666819e+00 
122500 4.1963862624e+00 -8.3284960012e-05 2.1664318491e+00 -3.7523700338e+00 2.1664318491e+00 3.7523700338e+00 
122600 4.1963862622e+00 -8.2722368132e-05 2.1664337713e+00 -3.7523733631e+00 2.1664337713e+00 3.7523733631e+00 
122700 4.1963862621e+00 -8.2169740242e-05 2.1664356805e+00 -3.7523766699e+00 2.1664356805e+00 3.7523766699e+00 
122800 4.1963862619e+00 -8.1613057486e-05 2.1664375769e+00 -3.7523799546e+00 2.1664375769e+00 3.7523799546e+00 
122900 4.1963862617e+00 -8.1059357044e-05 2.1664394605e+00 -3.7523832171e+00 2.1664394605e+00 3.7523832171e+00 
123000 4.1963862616e+00 -8.0508612417e-05 2.1664413313e+00 -3.7523864574e+00 2.1664413313e+00 3.7523864574e+00 
123100 4.1963862614e+00 -7.9961092830e-05 2.1664431894e+00 -3.7523896757e+00 2.1664431894e+00 3.7523896757e+00 
123200 4.1963862613e+00 -7.9423655302e-05 2.1664450348e+00 -3.7523928721e+00 2.1664450348e+00 3.7523928721e+00 
123300 4.1963862611e+00 -7.8881841984e-05 2.1664468678e+00 -3.7523960470e+00 2.1664468678e+00 3.7523960470e+00 
123400 4.1963862610e+00 -7.8342919995e-05 2.1664486884e+00 -3.7523992003e+00 2.1664486884e+00 3.7523992003e+00 
123500 4.1963862608e+00 -7.7814541831e-05 2.1664504965e+00 -3.7524023320e+00 2.1664504965e+00 3.7524023320e+00 
123600 4.1963862607e+00 -7.7281193018e-05 2.1664522924e+00 -3.7524054426e+00 2.1664522924e+00 3.7524054426e+00 
123700 4.1963862606e+00 -7.6751160305e-05 2.1664540760e+00 -3.7524085318e+00 2.1664540760e+00 3.7524085318e+00 
123800 4.1963862604e+00 -7.6223970768e-05 2.1664558473e+00 -3.7524115999e+00 2.1664558473e+00 3.7524115999e+00 
123900 4.1963862603e+00 -7.5707516892e-05 2.1664576065e+00 -3.7524146469e+00 2.1664576065e+00 3.7524146469e+00 
124000 4.1963862601e+00 -7.5185812966e-05 2.1664593538e+00 -3.7524176733e+00 2.1664593538e+00 3.7524176733e+00 
124100 4.1963862600e+00 -7.4667509076e-05 2.1664610890e+00 -3.7524206787e+00 2.1664610890e+00 3.7524206787e+00 
124200 4.1963862599e+00 -7.4152009824e-05 2.1664628122e+00 -3.7524236635e+00 2.1664628122e+00 3.7524236635e+00 
124300 4.1963862597e+00 -7.3639299260e-05 2.1664645236e+00 -3.7524266277e+00 2.1664645236e+00 3.7524266277e+00 
124400 4.1963862596e+00 -7.3137529428e-05 2.1664662231e+00 -3.7524295714e+00 2.1664662231e+00 3.7524295714e+00 
124500 4.1963862595e+00 -7.2630204509e-05 2.1664679111e+00 -3.7524324950e+00 2.1664679111e+00 3.7524324950e+00 
124600 4.1963862594e+00 -7.2126382781e-05 2.1664695873e+00 -3.7524353983e+00 2.1664695873e+00 3.7524353983e+00 
124700 4.1963862592e+00 -7.1625320131e-05 2.1664712519e+00 -3.7524382815e+00 2.1664712519e+00 3.7524382815e+00 
124800 4.1963862591e+00 -7.1127002792e-05 2.1664729050e+00 -3.7524411446e+00 2.1664729050e+00 3.7524411446e+00 
124900 4.1963862590e+00 -7.0632259340e-05 2.1664745465e+00 -3.7524439879e+00 2.1664745465e+00 3.7524439879e+00 
124900 4.1963862590e+00 -7.0632259340e-05 2.1664745465e+00 -3.7524439879e+00 2.1664745465e+00 3.7524439879e+00 
