# step Hamiltonian StressXX CellTensor1 CellTensor2 CellTensor3 CellTensor4 
0 5.8256303853e+00 7.5871233667e-02 1.7438352029e+00 -3.0204111715e+00 1.7438352029e+00 3.0204111715e+00 
100 5.8246095330e+00 7.7925833017e-02 1.7438352029e+00 -3.0204111715e+00 1.7438352029e+00 3.0204111715e+00 
200 5.8234831747e+00 7.7807157406e-02 1.7416013573e+00 -3.0165420375e+00 1.7416013573e+00 3.0165420375e+00 
300 5.8224412926e+00 7.7425343330e-02 1.7393680534e+00 -3.0126738416e+00 1.7393680534e+00 3.0126738416e+00 
400 5.8214782674e+00 7.6799644223e-02 1.7371428541e+00 -3.0088196834e+00 1.7371428541e+00 3.0088196834e+00 
500 5.8205888333e+00 7.5948774444e-02 1.7349328075e+00 -3.0049917703e+00 1.7349328075e+00 3.0049917703e+00 
600 5.8197680225e+00 7.4890879188e-02 1.7327444580e+00 -3.0012014379e+00 1.7327444580e+00 3.0012014379e+00 
700 5.8190111196e+00 7.3643508680e-02 1.7305838598e+00 -2.9974591719e+00 1.7305838598e+00 2.9974591719e+00 
800 5.8183136254e+00 7.2223596652e-02 1.7284565893e+00 -2.9937746314e+00 1.7284565893e+00 2.9937746314e+00 
900 5.8176712293e+00 7.0647443069e-02 1.7263677596e+00 -2.9901566722e+00 1.7263677596e+00 2.9901566722e+00 
1000 5.8170797880e+00 6.8930700971e-02 1.7243220347e+00 -2.9866133727e+00 1.7243220347e+00 2.9866133727e+00 
1100 5.8165353109e+00 6.7088367287e-02 1.7223236444e+00 -2.9831520592e+00 1.7223236444e+00 2.9831520592e+00 
1200 5.8160339500e+00 6.5134777427e-02 1.7203763998e+00 -2.9797793325e+00 1.7203763998e+00 2.9797793325e+00 
1300 5.8155719944e+00 6.3083603423e-02 1.7184837088e+00 -2.9765010955e+00 1.7184837088e+00 2.9765010955e+00 
1400 5.8151458675e+00 6.0947855376e-02 1.7166485921e+00 -2.9733225802e+00 1.7166485921e+00 2.9733225802e+00 
1500 5.8147521280e+00 5.8739885943e-02 1.7148736994e+00 -2.9702483760e+00 1.7148736994e+00 2.9702483760e+00 
1600 5.8143874716e+00 5.6471397588e-02 1.7131613255e+00 -2.9672824574e+00 1.7131613255e+00 2.9672824574e+00 
1700 5.8140487348e+00 5.4153452315e-02 1.7115134266e+00 -2.9644282127e+00 1.7115134266e+00 2.9644282127e+00 
1800 5.8137328997e+00 5.1796483600e-02 1.7099316365e+00 -2.9616884718e+00 1.7099316365e+00 2.9616884718e+00 
1900 5.8134370989e+00 4.9410310245e-02 1.7084172826e+00 -2.9590655340e+00 1.7084172826e+00 2.9590655340e+00 
2000 5.8131586208e+00 4.7004151876e-02 1.7069714024e+00 -2.9565611961e+00 1.7069714024e+00 2.9565611961e+00 
2100 5.8128949146e+00 4.4586645829e-02 1.7055947588e+00 -2.9541767793e+00 1.7055947588e+00 2.9541767793e+00 
2200 5.8126435948e+00 4.2165865159e-02 1.7042878555e+00 -2.9519131565e+00 1.7042878555e+00 2.9519131565e+00 
2300 5.8124024449e+00 3.9749337552e-02 1.7030509529e+00 -2.9497707784e+00 1.7030509529e+00 2.9497707784e+00 
2400 5.8121694208e+00 3.7344064905e-02 1.7018840825e+00 -2.9477496996e+00 1.7018840825e+00 2.9477496996e+00 
2500 5.8119426525e+00 3.4956543368e-02 1.7007870616e+00 -2.9458496035e+00 1.7007870616e+00 2.9458496035e+00 
2600 5.8117204449e+00 3.2592783674e-02 1.6997595073e+00 -2.9440698273e+00 1.6997595073e+00 2.9440698273e+00 
2700 5.8115012783e+00 3.0258331569e-02 1.6988008506e+00 -2.9424093851e+00 1.6988008506e+00 2.9424093851e+00 
2800 5.8112838066e+00 2.7958288204e-02 1.6979103493e+00 -2.9408669917e+00 1.6979103493e+00 2.9408669917e+00 
2900 5.8110668554e+00 2.5697330342e-02 1.6970871012e+00 -2.9394410842e+00 1.6970871012e+00 2.9394410842e+00 
3000 5.8108494181e+00 2.3479730279e-02 1.6963300565e+00 -2.9381298442e+00 1.6963300565e+00 2.9381298442e+00 
3100 5.8106306520e+00 2.1309375357e-02 1.6956380292e+00 -2.9369312178e+00 1.6956380292e+00 2.9369312178e+00 
3200 5.8104098722e+00 1.9189787004e-02 1.6950097094e+00 -2.9358429360e+00 1.6950097094e+00 2.9358429360e+00 
3300 5.8101865459e+00 1.7124139218e-02 1.6944436737e+00 -2.9348625335e+00 1.6944436737e+00 2.9348625335e+00 
3400 5.8099602848e+00 1.5115276449e-02 1.6939383962e+00 -2.9339873671e+00 1.6939383962e+00 2.9339873671e+00 
3500 5.8097308376e+00 1.3165730823e-02 1.6934922580e+00 -2.9332146330e+00 1.6934922580e+00 2.9332146330e+00 
3600 5.8094980810e+00 1.1277738690e-02 1.6931035574e+00 -2.9325413839e+00 1.6931035574e+00 2.9325413839e+00 
3700 5.8092620112e+00 9.4532564700e-03 1.6927705191e+00 -2.9319645446e+00 1.6927705191e+00 2.9319645446e+00 
3800 5.8090227339e+00 7.6939757822e-03 1.6924913023e+00 -2.9314809270e+00 1.6924913023e+00 2.9314809270e+00 
3900 5.8087804552e+00 6.0013378626e-03 1.6922640101e+00 -2.9310872453e+00 1.6922640101e+00 2.9310872453e+00 
4000 5.8085354708e+00 4.3765472702e-03 1.6920866963e+00 -2.9307801289e+00 1.6920866963e+00 2.9307801289e+00 
4100 5.8082881567e+00 2.8205848941e-03 1.6919573740e+00 -2.9305561361e+00 1.6919573740e+00 2.9305561361e+00 
4200 5.8080389584e+00 1.3342202801e-03 1.6918740220e+00 -2.9304117661e+00 1.6918740220e+00 2.9304117661e+00 
4300 5.8077883810e+00 -8.1976703418e-05 1.6918345919e+00 -2.9303434712e+00 1.6918345919e+00 2.9303434712e+00 
4400 5.8075369795e+00 -1.4276248339e-03 1.6918370146e+00 -2.9303476674e+00 1.6918370146e+00 2.9303476674e+00 
4500 5.8072853487e+00 -2.7025211088e-03 1.6918792063e+00 -2.9304207457e+00 1.6918792063e+00 2.9304207457e+00 
4600 5.8070341137e+00 -3.9066308952e-03 1.6919590744e+00 -2.9305590812e+00 1.6919590744e+00 2.9305590812e+00 
4700 5.8067839213e+00 -5.0400786233e-03 1.6920745227e+00 -2.9307590435e+00 1.6920745227e+00 2.9307590435e+00 
4800 5.8065354305e+00 -6.1031389886e-03 1.6922234568e+00 -2.9310170050e+00 1.6922234568e+00 2.9310170050e+00 
4900 5.8062893050e+00 -7.0962286306e-03 1.6924037890e+00 -2.9313293495e+00 1.6924037890e+00 2.9313293495e+00 
5000 5.8060462049e+00 -8.0198982530e-03 1.6926134427e+00 -2.9316924804e+00 1.6926134427e+00 2.9316924804e+00 
5100 5.8058067797e+00 -8.8748251520e-03 1.6928503570e+00 -2.9321028279e+00 1.6928503570e+00 2.9321028279e+00 
5200 5.8055716615e+00 -9.6618061193e-03 1.6931124904e+00 -2.9325568564e+00 1.6931124904e+00 2.9325568564e+00 
5300 5.8053414591e+00 -1.0381750687e-02 1.6933978252e+00 -2.9330510707e+00 1.6933978252e+00 2.9330510707e+00 
5400 5.8051167521e+00 -1.1035674687e-02 1.6937043705e+00 -2.9335820228e+00 1.6937043705e+00 2.9335820228e+00 
5500 5.8048980865e+00 -1.1624694084e-02 1.6940301661e+00 -2.9341463173e+00 1.6940301661e+00 2.9341463173e+00 
5600 5.8046859701e+00 -1.2150019073e-02 1.6943732854e+00 -2.9347406172e+00 1.6943732854e+00 2.9347406172e+00 
5700 5.8044808689e+00 -1.2612948393e-02 1.6947318382e+00 -2.9353616490e+00 1.6947318382e+00 2.9353616490e+00 
5800 5.8042832039e+00 -1.3014863849e-02 1.6951039741e+00 -2.9360062072e+00 1.6951039741e+00 2.9360062072e+00 
5900 5.8040933490e+00 -1.3357225006e-02 1.6954878843e+00 -2.9366711592e+00 1.6954878843e+00 2.9366711592e+00 
6000 5.8039116286e+00 -1.3641564046e-02 1.6958818046e+00 -2.9373534492e+00 1.6958818046e+00 2.9373534492e+00 
6100 5.8037383166e+00 -1.3869480758e-02 1.6962840173e+00 -2.9380501020e+00 1.6962840173e+00 2.9380501020e+00 
6200 5.8035736357e+00 -1.4042637647e-02 1.6966928532e+00 -2.9387582266e+00 1.6966928532e+00 2.9387582266e+00 
6300 5.8034177566e+00 -1.4162755148e-02 1.6971066939e+00 -2.9394750196e+00 1.6971066939e+00 2.9394750196e+00 
6400 5.8032707987e+00 -1.4231606929e-02 1.6975239727e+00 -2.9401977678e+00 1.6975239727e+00 2.9401977678e+00 
6500 5.8031328306e+00 -1.4251015272e-02 1.6979431772e+00 -2.9409238513e+00 1.6979431772e+00 2.9409238513e+00 
6600 5.8030038711e+00 -1.4222846515e-02 1.6983628497e+00 -2.9416507454e+00 1.6983628497e+00 2.9416507454e+00 
6700 5.8028838907e+00 -1.4149006559e-02 1.6987815892e+00 -2.9423760234e+00 1.6987815892e+00 2.9423760234e+00 
6800 5.8027728135e+00 -1.4031436419e-02 1.6991980519e+00 -2.9430973580e+00 1.6991980519e+00 2.9430973580e+00 
6900 5.8026705193e+00 -1.3872107825e-02 1.6996109527e+00 -2.9438125232e+00 1.6996109527e+00 2.9438125232e+00 
7000 5.8025768460e+00 -1.3673018858e-02 1.7000190656e+00 -2.9445193955e+00 1.7000190656e+00 2.9445193955e+00 
7100 5.8024915922e+00 -1.3436189627e-02 1.7004212246e+00 -2.9452159552e+00 1.7004212246e+00 2.9452159552e+00 
7200 5.8024145204e+00 -1.3163657984e-02 1.7008163240e+00 -2.9459002875e+00 1.7008163240e+00 2.9459002875e+00 
7300 5.8023453597e+00 -1.2857475270e-02 1.7012033193e+00 -2.9465705830e+00 1.7012033193e+00 2.9465705830e+00 
7400 5.8022838091e+00 -1.2519702105e-02 1.7015812268e+00 -2.9472251380e+00 1.7015812268e+00 2.9472251380e+00 
7500 5.8022295409e+00 -1.2152404213e-02 1.7019491244e+00 -2.9478623554e+00 1.7019491244e+00 2.9478623554e+00 
7600 5.8021822043e+00 -1.1757648293e-02 1.7023061512e+00 -2.9484807439e+00 1.7023061512e+00 2.9484807439e+00 
7700 5.8021414282e+00 -1.1337497937e-02 1.7026515076e+00 -2.9490789187e+00 1.7026515076e+00 2.9490789187e+00 
7800 5.8021068253e+00 -1.0894009600e-02 1.7029844550e+00 -2.9496556005e+00 1.7029844550e+00 2.9496556005e+00 
7900 5.8020779951e+00 -1.0429228628e-02 1.7033043155e+00 -2.9502096152e+00 1.7033043155e+00 2.9502096152e+00 
8000 5.8020545272e+00 -9.9451853540e-03 1.7036104716e+00 -2.9507398932e+00 1.7036104716e+00 2.9507398932e+00 
8100 5.8020360053e+00 -9.4438912638e-03 1.7039023655e+00 -2.9512454682e+00 1.7039023655e+00 2.9512454682e+00 
8200 5.8020220092e+00 -8.9273352417e-03 1.7041794984e+00 -2.9517254764e+00 1.7041794984e+00 2.9517254764e+00 
8300 5.8020121191e+00 -8.3974799053e-03 1.7044414298e+00 -2.9521791550e+00 1.7044414298e+00 2.9521791550e+00 
8400 5.8020059178e+00 -7.8562580354e-03 1.7046877769e+00 -2.9526058406e+00 1.7046877769e+00 2.9526058406e+00 
8500 5.8020029934e+00 -7.3055691109e-03 1.7049182131e+00 -2.9530049678e+00 1.7049182131e+00 2.9530049678e+00 
8600 5.8020029426e+00 -6.7472759567e-03 1.7051324674e+00 -2.9533760671e+00 1.7051324674e+00 2.9533760671e+00 
8700 5.8020053723e+00 -6.1832015131e-03 1.7053303232e+00 -2.9537187634e+00 1.7053303232e+00 2.9537187634e+00 
8800 5.8020099024e+00 -5.6151257351e-03 1.7055116168e+00 -2.9540327732e+00 1.7055116168e+00 2.9540327732e+00 
8900 5.8020161675e+00 -5.0447826299e-03 1.7056762365e+00 -2.9543179029e+00 1.7056762365e+00 2.9543179029e+00 
9000 5.8020238188e+00 -4.4738574410e-03 1.7058241208e+00 -2.9545740461e+00 1.7058241208e+00 2.9545740461e+00 
9100 5.8020325258e+00 -3.9039839850e-03 1.7059552573e+00 -2.9548011811e+00 1.7059552573e+00 2.9548011811e+00 
9200 5.8020419774e+00 -3.3367421506e-03 1.7060696808e+00 -2.9549993684e+00 1.7060696808e+00 2.9549993684e+00 
9300 5.8020518832e+00 -2.7736555643e-03 1.7061674721e+00 -2.9551687478e+00 1.7061674721e+00 2.9551687478e+00 
9400 5.8020619744e+00 -2.2161894298e-03 1.7062487559e+00 -2.9553095356e+00 1.7062487559e+00 2.9553095356e+00 
9500 5.8020720044e+00 -1.6657485474e-03 1.7063136997e+00 -2.9554220215e+00 1.7063136997e+00 2.9554220215e+00 
9600 5.8020817496e+00 -1.1236755160e-03 1.7063625112e+00 -2.9555065656e+00 1.7063625112e+00 2.9555065656e+00 
9700 5.8020910092e+00 -5.9124912512e-04 1.7063954374e+00 -2.9555635953e+00 1.7063954374e+00 2.9555635953e+00 
9800 5.8020996056e+00 -6.9682936334e-05 1.7064127619e+00 -2.9555936023e+00 1.7064127619e+00 2.9555936023e+00 
9900 5.8021073822e+00 4.3787859531e-04 1.7064127619e+00 -2.9555936023e+00 1.7064127619e+00 2.9555936023e+00 
10000 5.8021142092e+00 9.3439685932e-04 1.7063999315e+00 -2.9555713795e+00 1.7063999315e+00 2.9555713795e+00 
10100 5.8021199773e+00 1.4168143236e-03 1.7063725524e+00 -2.9555239574e+00 1.7063725524e+00 2.9555239574e+00 
10200 5.8021245988e+00 1.8841888050e-03 1.7063310372e+00 -2.9554520510e+00 1.7063310372e+00 2.9554520510e+00 
10300 5.8021280066e+00 2.3356474926e-03 1.7062758258e+00 -2.9553564220e+00 1.7062758258e+00 2.9553564220e+00 
10400 5.8021301540e+00 2.7703871905e-03 1.7062073834e+00 -2.9552378763e+00 1.7062073834e+00 2.9552378763e+00 
10500 5.8021310129e+00 3.1876743677e-03 1.7061261985e+00 -2.9550972600e+00 1.7061261985e+00 2.9550972600e+00 
10600 5.8021305737e+00 3.5868450196e-03 1.7060327809e+00 -2.9549354559e+00 1.7060327809e+00 2.9549354559e+00 
10700 5.8021288429e+00 3.9673043429e-03 1.7059276596e+00 -2.9547533804e+00 1.7059276596e+00 2.9547533804e+00 
10800 5.8021258431e+00 4.3285262302e-03 1.7058113809e+00 -2.9545519799e+00 1.7058113809e+00 2.9545519799e+00 
10900 5.8021216107e+00 4.6700525876e-03 1.7056845066e+00 -2.9543322272e+00 1.7056845066e+00 2.9543322272e+00 
11000 5.8021161951e+00 4.9914924841e-03 1.7055476117e+00 -2.9540951182e+00 1.7055476117e+00 2.9540951182e+00 
11100 5.8021096571e+00 5.2925211359e-03 1.7054012827e+00 -2.9538416690e+00 1.7054012827e+00 2.9538416690e+00 
11200 5.8021020675e+00 5.5728787354e-03 1.7052461157e+00 -2.9535729118e+00 1.7052461157e+00 2.9535729118e+00 
11300 5.8020935058e+00 5.8323691306e-03 1.7050827144e+00 -2.9532898924e+00 1.7050827144e+00 2.9532898924e+00 
11400 5.8020840588e+00 6.0708583646e-03 1.7049116883e+00 -2.9529936666e+00 1.7049116883e+00 2.9529936666e+00 
11500 5.8020738190e+00 6.2882730815e-03 1.7047336512e+00 -2.9526852972e+00 1.7047336512e+00 2.9526852972e+00 
11600 5.8020628836e+00 6.4845988095e-03 1.7045492188e+00 -2.9523658510e+00 1.7045492188e+00 2.9523658510e+00 
11700 5.8020513531e+00 6.6598781291e-03 1.7043590079e+00 -2.9520363960e+00 1.7043590079e+00 2.9520363960e+00 
11800 5.8020393297e+00 6.8142087359e-03 1.7041636338e+00 -2.9516979982e+00 1.7041636338e+00 2.9516979982e+00 
11900 5.8020269167e+00 6.9477414076e-03 1.7039637095e+00 -2.9513517191e+00 1.7039637095e+00 2.9513517191e+00 
12000 5.8020142170e+00 7.0606778844e-03 1.7037598436e+00 -2.9509986130e+00 1.7037598436e+00 2.9509986130e+00 
12100 5.8020013321e+00 7.1532686730e-03 1.7035526391e+00 -2.9506397242e+00 1.7035526391e+00 2.9506397242e+00 
12200 5.8019883610e+00 7.2258107830e-03 1.7033426919e+00 -2.9502760850e+00 1.7033426919e+00 2.9502760850e+00 
12300 5.8019753998e+00 7.2786454068e-03 1.7031305895e+00 -2.9499087129e+00 1.7031305895e+00 2.9499087129e+00 
12400 5.8019625404e+00 7.3121555500e-03 1.7029169097e+00 -2.9495386086e+00 1.7029169097e+00 2.9495386086e+00 
12500 5.8019498699e+00 7.3267636248e-03 1.7027022192e+00 -2.9491667537e+00 1.7027022192e+00 2.9491667537e+00 
12600 5.8019374701e+00 7.3229290127e-03 1.7024870726e+00 -2.9487941090e+00 1.7024870726e+00 2.9487941090e+00 
12700 5.8019254169e+00 7.3011456073e-03 1.7022720115e+00 -2.9484216123e+00 1.7022720115e+00 2.9484216123e+00 
12800 5.8019137797e+00 7.2619393456e-03 1.7020575631e+00 -2.9480501766e+00 1.7020575631e+00 2.9480501766e+00 
12900 5.8019026214e+00 7.2058657348e-03 1.7018442393e+00 -2.9476806890e+00 1.7018442393e+00 2.9476806890e+00 
13000 5.8018919978e+00 7.1335073856e-03 1.7016325361e+00 -2.9473140083e+00 1.7016325361e+00 2.9473140083e+00 
13100 5.8018819575e+00 7.0454715560e-03 1.7014229327e+00 -2.9469509645e+00 1.7014229327e+00 2.9469509645e+00 
13200 5.8018725417e+00 6.9423877164e-03 1.7012158904e+00 -2.9465923568e+00 1.7012158904e+00 2.9465923568e+00 
13300 5.8018637846e+00 6.8249051407e-03 1.7010118526e+00 -2.9462389529e+00 1.7010118526e+00 2.9462389529e+00 
13400 5.8018557127e+00 6.6936905307e-03 1.7008112434e+00 -2.9458914876e+00 1.7008112434e+00 2.9458914876e+00 
13500 5.8018483457e+00 6.5494256803e-03 1.7006144678e+00 -2.9455506624e+00 1.7006144678e+00 2.9455506624e+00 
13600 5.8018416961e+00 6.3928051843e-03 1.7004219109e+00 -2.9452171440e+00 1.7004219109e+00 2.9452171440e+00 
13700 5.8018357696e+00 6.2245341975e-03 1.7002339373e+00 -2.9448915642e+00 1.7002339373e+00 2.9448915642e+00 
13800 5.8018305657e+00 6.0453262497e-03 1.7000508913e+00 -2.9445745192e+00 1.7000508913e+00 2.9445745192e+00 
13900 5.8018260773e+00 5.8559011186e-03 1.6998730960e+00 -2.9442665687e+00 1.6998730960e+00 2.9442665687e+00 
14000 5.8018222918e+00 5.6569827676e-03 1.6997008537e+00 -2.9439682362e+00 1.6997008537e+00 2.9439682362e+00 
14100 5.8018191914e+00 5.4492973496e-03 1.6995344452e+00 -2.9436800084e+00 1.6995344452e+00 2.9436800084e+00 
14200 5.8018167529e+00 5.2335712802e-03 1.6993741304e+00 -2.9434023349e+00 1.6993741304e+00 2.9434023349e+00 
14300 5.8018149489e+00 5.0105293846e-03 1.6992201475e+00 -2.9431356287e+00 1.6992201475e+00 2.9431356287e+00 
14400 5.8018137480e+00 4.7808931179e-03 1.6990727135e+00 -2.9428802655e+00 1.6990727135e+00 2.9428802655e+00 
14500 5.8018131152e+00 4.5453788629e-03 1.6989320242e+00 -2.9426365845e+00 1.6989320242e+00 2.9426365845e+00 
14600 5.8018130125e+00 4.3046963051e-03 1.6987982543e+00 -2.9424048882e+00 1.6987982543e+00 2.9424048882e+00 
14700 5.8018133994e+00 4.0595468875e-03 1.6986715576e+00 -2.9421854431e+00 1.6986715576e+00 2.9421854431e+00 
14800 5.8018142334e+00 3.8106223447e-03 1.6985520672e+00 -2.9419784796e+00 1.6985520672e+00 2.9419784796e+00 
14900 5.8018154702e+00 3.5586033179e-03 1.6984398957e+00 -2.9417841930e+00 1.6984398957e+00 2.9417841930e+00 
15000 5.8018170647e+00 3.3041580499e-03 1.6983351359e+00 -2.9416027436e+00 1.6983351359e+00 2.9416027436e+00 
15100 5.8018189712e+00 3.0479411607e-03 1.6982378604e+00 -2.9414342575e+00 1.6982378604e+00 2.9414342575e+00 
15200 5.8018211436e+00 2.7905925034e-03 1.6981481228e+00 -2.9412788275e+00 1.6981481228e+00 2.9412788275e+00 
15300 5.8018235363e+00 2.5327360992e-03 1.6980659577e+00 -2.9411365134e+00 1.6980659577e+00 2.9411365134e+00 
15400 5.8018261040e+00 2.2749791513e-03 1.6979913812e+00 -2.9410073431e+00 1.6979913812e+00 2.9410073431e+00 
15500 5.8018288028e+00 2.0179111363e-03 1.6979243913e+00 -2.9408913132e+00 1.6979243913e+00 2.9408913132e+00 
15600 5.8018315898e+00 1.7621029722e-03 1.6978649688e+00 -2.9407883904e+00 1.6978649688e+00 2.9407883904e+00 
15700 5.8018344240e+00 1.5081062612e-03 1.6978130773e+00 -2.9406985117e+00 1.6978130773e+00 2.9406985117e+00 
15800 5.8018372661e+00 1.2564526071e-03 1.6977686643e+00 -2.9406215861e+00 1.6977686643e+00 2.9406215861e+00 
15900 5.8018400792e+00 1.0076530035e-03 1.6977316614e+00 -2.9405574952e+00 1.6977316614e+00 2.9405574952e+00 
16000 5.8018428286e+00 7.6219729323e-04 1.6977019851e+00 -2.9405060942e+00 1.6977019851e+00 2.9405060942e+00 
16100 5.8018454822e+00 5.2055369641e-04 1.6976795372e+00 -2.9404672134e+00 1.6976795372e+00 2.9404672134e+00 
16200 5.8018480107e+00 2.8316840475e-04 1.6976642059e+00 -2.9404406588e+00 1.6976642059e+00 2.9404406588e+00 
16300 5.8018503874e+00 5.0465241037e-05 1.6976558659e+00 -2.9404262136e+00 1.6976558659e+00 2.9404262136e+00 
16400 5.8018525880e+00 -1.7566269420e-04 1.6976558659e+00 -2.9404262136e+00 1.6976558659e+00 2.9404262136e+00 
16500 5.8018545923e+00 -3.9785838121e-04 1.6976610396e+00 -2.9404351747e+00 1.6976610396e+00 2.9404351747e+00 
16600 5.8018563828e+00 -6.1423520813e-04 1.6976727575e+00 -2.9404554706e+00 1.6976727575e+00 2.9404554706e+00 
16700 5.8018579446e+00 -8.2446114569e-04 1.6976908480e+00 -2.9404868043e+00 1.6976908480e+00 2.9404868043e+00 
16800 5.8018592659e+00 -1.0282273286e-03 1.6977151299e+00 -2.9405288618e+00 1.6977151299e+00 2.9405288618e+00 
16900 5.8018603377e+00 -1.2252480500e-03 1.6977454127e+00 -2.9405813131e+00 1.6977454127e+00 2.9405813131e+00 
17000 5.8018611537e+00 -1.4152607053e-03 1.6977814974e+00 -2.9406438136e+00 1.6977814974e+00 2.9406438136e+00 
17100 5.8018617106e+00 -1.5980256876e-03 1.6978231773e+00 -2.9407160053e+00 1.6978231773e+00 2.9407160053e+00 
17200 5.8018620074e+00 -1.7733262372e-03 1.6978702385e+00 -2.9407975177e+00 1.6978702385e+00 2.9407975177e+00 
17300 5.8018620456e+00 -1.9409682461e-03 1.6979224608e+00 -2.9408879695e+00 1.6979224608e+00 2.9408879695e+00 
17400 5.8018618292e+00 -2.1007800211e-03 1.6979796183e+00 -2.9409869691e+00 1.6979796183e+00 2.9409869691e+00 
17500 5.8018613640e+00 -2.2526120055e-03 1.6980414799e+00 -2.9410941165e+00 1.6980414799e+00 2.9410941165e+00 
17600 5.8018606580e+00 -2.3963364641e-03 1.6981078100e+00 -2.9412090037e+00 1.6981078100e+00 2.9412090037e+00 
17700 5.8018597210e+00 -2.5318471302e-03 1.6981783695e+00 -2.9413312163e+00 1.6981783695e+00 2.9413312163e+00 
17800 5.8018585644e+00 -2.6590588196e-03 1.6982529160e+00 -2.9414603347e+00 1.6982529160e+00 2.9414603347e+00 
17900 5.8018572008e+00 -2.7779070112e-03 1.6983312047e+00 -2.9415959346e+00 1.6983312047e+00 2.9415959346e+00 
18000 5.8018556444e+00 -2.8883473978e-03 1.6984129888e+00 -2.9417375888e+00 1.6984129888e+00 2.9417375888e+00 
18100 5.8018539101e+00 -2.9903554073e-03 1.6984980203e+00 -2.9418848677e+00 1.6984980203e+00 2.9418848677e+00 
18200 5.8018520139e+00 -3.0839256977e-03 1.6985860504e+00 -2.9420373404e+00 1.6985860504e+00 2.9420373404e+00 
18300 5.8018499723e+00 -3.1690716265e-03 1.6986768304e+00 -2.9421945760e+00 1.6986768304e+00 2.9421945760e+00 
18400 5.8018478024e+00 -3.2458246973e-03 1.6987701119e+00 -2.9423561442e+00 1.6987701119e+00 2.9423561442e+00 
18500 5.8018455215e+00 -3.3142339840e-03 1.6988656473e+00 -2.9425216164e+00 1.6988656473e+00 2.9425216164e+00 
18600 5.8018431471e+00 -3.3743655357e-03 1.6989631908e+00 -2.9426905667e+00 1.6989631908e+00 2.9426905667e+00 
18700 5.8018406967e+00 -3.4263017634e-03 1.6990624984e+00 -2.9428625725e+00 1.6990624984e+00 2.9428625725e+00 
18800 5.8018381876e+00 -3.4701408095e-03 1.6991633286e+00 -2.9430372155e+00 1.6991633286e+00 2.9430372155e+00 
18900 5.8018356367e+00 -3.5059959034e-03 1.6992654428e+00 -2.9432140825e+00 1.6992654428e+00 2.9432140825e+00 
19000 5.8018330607e+00 -3.5339947026e-03 1.6993686060e+00 -2.9433927663e+00 1.6993686060e+00 2.9433927663e+00 
19100 5.8018304755e+00 -3.5542786231e-03 1.6994725867e+00 -2.9435728662e+00 1.6994725867e+00 2.9435728662e+00 
19200 5.8018278963e+00 -3.5670021593e-03 1.6995771578e+00 -2.9437539887e+00 1.6995771578e+00 2.9437539887e+00 
19300 5.8018253379e+00 -3.5723321946e-03 1.6996820968e+00 -2.9439357484e+00 1.6996820968e+00 2.9439357484e+00 
19400 5.8018228137e+00 -3.5704473065e-03 1.6997871861e+00 -2.9441177684e+00 1.6997871861e+00 2.9441177684e+00 
19500 5.8018203366e+00 -3.5615370638e-03 1.6998922135e+00 -2.9442996812e+00 1.6998922135e+00 2.9442996812e+00 
19600 5.8018179185e+00 -3.5458013220e-03 1.6999969723e+00 -2.9444811288e+00 1.6999969723e+00 2.9444811288e+00 
19700 5.8018155699e+00 -3.5234495143e-03 1.7001012619e+00 -2.9446617635e+00 1.7001012619e+00 2.9446617635e+00 
19800 5.8018133006e+00 -3.4946999420e-03 1.7002048876e+00 -2.9448412486e+00 1.7002048876e+00 2.9448412486e+00 
19900 5.8018111191e+00 -3.4597790649e-03 1.7003076615e+00 -2.9450192583e+00 1.7003076615e+00 2.9450192583e+00 
20000 5.8018090330e+00 -3.4189207929e-03 1.7004094024e+00 -2.9451954785e+00 1.7004094024e+00 2.9451954785e+00 
20100 5.8018070486e+00 -3.3723657806e-03 1.7005099356e+00 -2.9453696073e+00 1.7005099356e+00 2.9453696073e+00 
20200 5.8018051711e+00 -3.3203607261e-03 1.7006090941e+00 -2.9455413548e+00 1.7006090941e+00 2.9455413548e+00 
20300 5.8018034047e+00 -3.2631576746e-03 1.7007067177e+00 -2.9457104438e+00 1.7007067177e+00 2.9457104438e+00 
20400 5.8018017525e+00 -3.2010133292e-03 1.7008026539e+00 -2.9458766103e+00 1.7008026539e+00 2.9458766103e+00 
20500 5.8018002166e+00 -3.1341883690e-03 1.7008967578e+00 -2.9460396030e+00 1.7008967578e+00 2.9460396030e+00 
20600 5.8017987979e+00 -3.0629467765e-03 1.7009888921e+00 -2.9461991842e+00 1.7009888921e+00 2.9461991842e+00 
20700 5.8017974966e+00 -2.9875551749e-03 1.7010789272e+00 -2.9463551295e+00 1.7010789272e+00 2.9463551295e+00 
20800 5.8017963118e+00 -2.9082821768e-03 1.7011667415e+00 -2.9465072284e+00 1.7011667415e+00 2.9465072284e+00 
20900 5.8017952421e+00 -2.8253977446e-03 1.7012522212e+00 -2.9466552836e+00 1.7012522212e+00 2.9466552836e+00 
21000 5.8017942848e+00 -2.7391725653e-03 1.7013352607e+00 -2.9467991122e+00 1.7013352607e+00 2.9467991122e+00 
21100 5.8017934369e+00 -2.6498774381e-03 1.7014157620e+00 -2.9469385445e+00 1.7014157620e+00 2.9469385445e+00 
21200 5.8017926945e+00 -2.5577826788e-03 1.7014936353e+00 -2.9470734251e+00 1.7014936353e+00 2.9470734251e+00 
21300 5.8017920533e+00 -2.4631575388e-03 1.7015687987e+00 -2.9472036119e+00 1.7015687987e+00 2.9472036119e+00 
21400 5.8017915083e+00 -2.3662696421e-03 1.7016411782e+00 -2.9473289769e+00 1.7016411782e+00 2.9473289769e+00 
21500 5.8017910542e+00 -2.2673844398e-03 1.7017107077e+00 -2.9474494056e+00 1.7017107077e+00 2.9474494056e+00 
21600 5.8017906852e+00 -2.1667646828e-03 1.7017773289e+00 -2.9475647969e+00 1.7017773289e+00 2.9475647969e+00 
21700 5.8017903953e+00 -2.0646699138e-03 1.7018409911e+00 -2.9476750630e+00 1.7018409911e+00 2.9476750630e+00 
21800 5.8017901783e+00 -1.9613559797e-03 1.7019016514e+00 -2.9477801297e+00 1.7019016514e+00 2.9477801297e+00 
21900 5.8017900276e+00 -1.8570745638e-03 1.7019592742e+00 -2.9478799353e+00 1.7019592742e+00 2.9478799353e+00 
22000 5.8017899367e+00 -1.7520727391e-03 1.7020138314e+00 -2.9479744312e+00 1.7020138314e+00 2.9479744312e+00 
22100 5.8017898990e+00 -1.6465925436e-03 1.7020653023e+00 -2.9480635814e+00 1.7020653023e+00 2.9480635814e+00 
22200 5.8017899078e+00 -1.5408705768e-03 1.7021136729e+00 -2.9481473618e+00 1.7021136729e+00 2.9481473618e+00 
22300 5.8017899567e+00 -1.4351376194e-03 1.7021589366e+00 -2.9482257607e+00 1.7021589366e+00 2.9482257607e+00 
22400 5.8017900392e+00 -1.3296182746e-03 1.7022010932e+00 -2.9482987780e+00 1.7022010932e+00 2.9482987780e+00 
22500 5.8017901490e+00 -1.2245306334e-03 1.7022401492e+00 -2.9483664250e+00 1.7022401492e+00 2.9483664250e+00 
22600 5.8017902802e+00 -1.1200859619e-03 1.7022761175e+00 -2.9484287240e+00 1.7022761175e+00 2.9484287240e+00 
22700 5.8017904270e+00 -1.0164884132e-03 1.7023090173e+00 -2.9484857081e+00 1.7023090173e+00 2.9484857081e+00 
22800 5.8017905837e+00 -9.1393476138e-04 1.7023388735e+00 -2.9485374206e+00 1.7023388735e+00 2.9485374206e+00 
22900 5.8017907453e+00 -8.1261415984e-04 1.7023657171e+00 -2.9485839150e+00 1.7023657171e+00 2.9485839150e+00 
23000 5.8017909068e+00 -7.1270792265e-04 1.7023895843e+00 -2.9486252544e+00 1.7023895843e+00 2.9486252544e+00 
23100 5.8017910637e+00 -6.1438932935e-04 1.7024105170e+00 -2.9486615107e+00 1.7024105170e+00 2.9486615107e+00 
23200 5.8017912120e+00 -5.1782345303e-04 1.7024285617e+00 -2.9486927651e+00 1.7024285617e+00 2.9486927651e+00 
23300 5.8017913480e+00 -4.2316701147e-04 1.7024437701e+00 -2.9487191068e+00 1.7024437701e+00 2.9487191068e+00 
23400 5.8017914682e+00 -3.3056824112e-04 1.7024561983e+00 -2.9487406331e+00 1.7024561983e+00 2.9487406331e+00 
23500 5.8017915697e+00 -2.4016679370e-04 1.7024659069e+00 -2.9487574489e+00 1.7024659069e+00 2.9487574489e+00 
23600 5.8017916501e+00 -1.5209365504e-04 1.7024729604e+00 -2.9487696659e+00 1.7024729604e+00 2.9487696659e+00 
23700 5.8017917072e+00 -6.6471085859e-05 1.7024774272e+00 -2.9487774027e+00 1.7024774272e+00 2.9487774027e+00 
23800 5.8017917391e+00 1.4649014765e-05 1.7024774272e+00 -2.9487774027e+00 1.7024774272e+00 2.9487774027e+00 
23900 5.8017917446e+00 9.5512677636e-05 1.7024774272e+00 -2.9487774027e+00 1.7024774272e+00 2.9487774027e+00 
24000 5.8017917229e+00 1.7317162895e-04 1.7024746221e+00 -2.9487725441e+00 1.7024746221e+00 2.9487725441e+00 
24100 5.8017916733e+00 2.4797693027e-04 1.7024695363e+00 -2.9487637351e+00 1.7024695363e+00 2.9487637351e+00 
24200 5.8017915956e+00 3.1985023217e-04 1.7024622534e+00 -2.9487511209e+00 1.7024622534e+00 2.9487511209e+00 
24300 5.8017914899e+00 3.8872182555e-04 1.7024528597e+00 -2.9487348504e+00 1.7024528597e+00 2.9487348504e+00 
24400 5.8017913565e+00 4.5453056147e-04 1.7024414431e+00 -2.9487150764e+00 1.7024414431e+00 2.9487150764e+00 
24500 5.8017911962e+00 5.1722375344e-04 1.7024280938e+00 -2.9486919547e+00 1.7024280938e+00 2.9486919547e+00 
24600 5.8017910099e+00 5.7675706284e-04 1.7024129030e+00 -2.9486656435e+00 1.7024129030e+00 2.9486656435e+00 
24700 5.8017907987e+00 6.3309436830e-04 1.7023959637e+00 -2.9486363037e+00 1.7023959637e+00 2.9486363037e+00 
24800 5.8017905639e+00 6.8620761965e-04 1.7023773695e+00 -2.9486040976e+00 1.7023773695e+00 2.9486040976e+00 
24900 5.8017903073e+00 7.3607667729e-04 1.7023572151e+00 -2.9485691892e+00 1.7023572151e+00 2.9485691892e+00 
25000 5.8017900304e+00 7.8268913777e-04 1.7023355958e+00 -2.9485317435e+00 1.7023355958e+00 2.9485317435e+00 
25100 5.8017897351e+00 8.2604014624e-04 1.7023126072e+00 -2.9484919261e+00 1.7023126072e+00 2.9484919261e+00 
25200 5.8017894234e+00 8.6613219681e-04 1.7022883450e+00 -2.9484499026e+00 1.7022883450e+00 2.9484499026e+00 
25300 5.8017890973e+00 9.0297492134e-04 1.7022629048e+00 -2.9484058390e+00 1.7022629048e+00 2.9484058390e+00 
25400 5.8017887589e+00 9.3658486777e-04 1.7022363821e+00 -2.9483599003e+00 1.7022363821e+00 2.9483599003e+00 
25500 5.8017884104e+00 9.6698526859e-04 1.7022088717e+00 -2.9483122510e+00 1.7022088717e+00 2.9483122510e+00 
25600 5.8017880538e+00 9.9420580044e-04 1.7021804680e+00 -2.9482630542e+00 1.7021804680e+00 2.9482630542e+00 
25700 5.8017876914e+00 1.0182823356e-03 1.7021512642e+00 -2.9482124717e+00 1.7021512642e+00 2.9482124717e+00 
25800 5.8017873252e+00 1.0392566859e-03 1.7021213526e+00 -2.9481606634e+00 1.7021213526e+00 2.9481606634e+00 
25900 5.8017869574e+00 1.0571763408e-03 1.7020908245e+00 -2.9481077871e+00 1.7020908245e+00 2.9481077871e+00 
26000 5.8017865899e+00 1.0720941992e-03 1.7020597693e+00 -2.9480539980e+00 1.7020597693e+00 2.9480539980e+00 
26100 5.8017862246e+00 1.0840682966e-03 1.7020282754e+00 -2.9479994489e+00 1.7020282754e+00 2.9479994489e+00 
26200 5.8017858634e+00 1.0931615282e-03 1.7019964291e+00 -2.9479442896e+00 1.7019964291e+00 2.9479442896e+00 
26300 5.8017855080e+00 1.0994413687e-03 1.7019643151e+00 -2.9478886665e+00 1.7019643151e+00 2.9478886665e+00 
26400 5.8017851600e+00 1.1029795898e-03 1.7019320160e+00 -2.9478327228e+00 1.7019320160e+00 2.9478327228e+00 
26500 5.8017848210e+00 1.1038519753e-03 1.7018996124e+00 -2.9477765981e+00 1.7018996124e+00 2.9477765981e+00 
26600 5.8017844923e+00 1.1021380359e-03 1.7018671825e+00 -2.9477204278e+00 1.7018671825e+00 2.9477204278e+00 
26700 5.8017841750e+00 1.0979207232e-03 1.7018348023e+00 -2.9476643438e+00 1.7018348023e+00 2.9476643438e+00 
26800 5.8017838704e+00 1.0912861440e-03 1.7018025455e+00 -2.9476084732e+00 1.7018025455e+00 2.9476084732e+00 
26900 5.8017835794e+00 1.0823232761e-03 1.7017704829e+00 -2.9475529393e+00 1.7017704829e+00 2.9475529393e+00 
27000 5.8017833027e+00 1.0711236849e-03 1.7017386831e+00 -2.9474978603e+00 1.7017386831e+00 2.9474978603e+00 
27100 5.8017830410e+00 1.0577812432e-03 1.7017072118e+00 -2.9474433504e+00 1.7017072118e+00 2.9474433504e+00 
27200 5.8017827948e+00 1.0423918536e-03 1.7016761318e+00 -2.9473895184e+00 1.7016761318e+00 2.9473895184e+00 
27300 5.8017825645e+00 1.0250531734e-03 1.7016455036e+00 -2.9473364686e+00 1.7016455036e+00 2.9473364686e+00 
27400 5.8017823504e+00 1.0058643451e-03 1.7016153842e+00 -2.9472843003e+00 1.7016153842e+00 2.9472843003e+00 
27500 5.8017821524e+00 9.8492573007e-04 1.7015858281e+00 -2.9472331077e+00 1.7015858281e+00 2.9472331077e+00 
27600 5.8017819707e+00 9.6233864793e-04 1.7015568868e+00 -2.9471829799e+00 1.7015568868e+00 2.9471829799e+00 
27700 5.8017818051e+00 9.3820512087e-04 1.7015286087e+00 -2.9471340008e+00 1.7015286087e+00 2.9471340008e+00 
27800 5.8017816553e+00 9.1262762424e-04 1.7015010393e+00 -2.9470862491e+00 1.7015010393e+00 2.9470862491e+00 
27900 5.8017815210e+00 8.8570884322e-04 1.7014742210e+00 -2.9470397986e+00 1.7014742210e+00 2.9470397986e+00 
28000 5.8017814017e+00 8.5755143616e-04 1.7014481934e+00 -2.9469947174e+00 1.7014481934e+00 2.9469947174e+00 
28100 5.8017812969e+00 8.2825780493e-04 1.7014229928e+00 -2.9469510688e+00 1.7014229928e+00 2.9469510688e+00 
28200 5.8017812060e+00 7.9792987261e-04 1.7013986527e+00 -2.9469089105e+00 1.7013986527e+00 2.9469089105e+00 
28300 5.8017811283e+00 7.6666886873e-04 1.7013752036e+00 -2.9468682953e+00 1.7013752036e+00 2.9468682953e+00 
28400 5.8017810630e+00 7.3457512244e-04 1.7013526728e+00 -2.9468292708e+00 1.7013526728e+00 2.9468292708e+00 
28500 5.8017810094e+00 7.0174786377e-04 1.7013310848e+00 -2.9467918794e+00 1.7013310848e+00 2.9467918794e+00 
28600 5.8017809667e+00 6.6828503319e-04 1.7013104614e+00 -2.9467561586e+00 1.7013104614e+00 2.9467561586e+00 
28700 5.8017809339e+00 6.3428309973e-04 1.7012908211e+00 -2.9467221406e+00 1.7012908211e+00 2.9467221406e+00 
28800 5.8017809102e+00 5.9983688765e-04 1.7012721799e+00 -2.9466898531e+00 1.7012721799e+00 2.9466898531e+00 
28900 5.8017808947e+00 5.6503941209e-04 1.7012545509e+00 -2.9466593187e+00 1.7012545509e+00 2.9466593187e+00 
29000 5.8017808864e+00 5.2998172342e-04 1.7012379444e+00 -2.9466305554e+00 1.7012379444e+00 2.9466305554e+00 
29100 5.8017808846e+00 4.9475276072e-04 1.7012223680e+00 -2.9466035764e+00 1.7012223680e+00 2.9466035764e+00 
29200 5.8017808883e+00 4.5943921426e-04 1.7012078269e+00 -2.9465783905e+00 1.7012078269e+00 2.9465783905e+00 
29300 5.8017808966e+00 4.2412539705e-04 1.7011943236e+00 -2.9465550021e+00 1.7011943236e+00 2.9465550021e+00 
29400 5.8017809087e+00 3.8889312552e-04 1.7011818581e+00 -2.9465334112e+00 1.7011818581e+00 2.9465334112e+00 
29500 5.8017809238e+00 3.5382160929e-04 1.7011704281e+00 -2.9465136137e+00 1.7011704281e+00 2.9465136137e+00 
29600 5.8017809410e+00 3.1898735000e-04 1.7011600287e+00 -2.9464956015e+00 1.7011600287e+00 2.9464956015e+00 
29700 5.8017809597e+00 2.8446404918e-04 1.7011506531e+00 -2.9464793626e+00 1.7011506531e+00 2.9464793626e+00 
29800 5.8017809791e+00 2.5032252506e-04 1.7011422922e+00 -2.9464648810e+00 1.7011422922e+00 2.9464648810e+00 
29900 5.8017809985e+00 2.1663063828e-04 1.7011349347e+00 -2.9464521375e+00 1.7011349347e+00 2.9464521375e+00 
30000 5.8017810175e+00 1.8345322637e-04 1.7011285675e+00 -2.9464411091e+00 1.7011285675e+00 2.9464411091e+00 
30100 5.8017810353e+00 1.5085204688e-04 1.7011231754e+00 -2.9464317697e+00 1.7011231754e+00 2.9464317697e+00 
30200 5.8017810516e+00 1.1888572907e-04 1.7011187415e+00 -2.9464240900e+00 1.7011187415e+00 2.9464240900e+00 
30300 5.8017810658e+00 8.7609733947e-05 1.7011152472e+00 -2.9464180376e+00 1.7011152472e+00 2.9464180376e+00 
30400 5.8017810776e+00 5.7076322550e-05 1.7011126721e+00 -2.9464135775e+00 1.7011126721e+00 2.9464135775e+00 
30500 5.8017810867e+00 2.9006285997e-05 1.7011126721e+00 -2.9464135775e+00 1.7011126721e+00 2.9464135775e+00 
30600 5.8017810926e+00 9.1072041034e-07 1.7011126721e+00 -2.9464135775e+00 1.7011126721e+00 2.9464135775e+00 
30700 5.8017810952e+00 -2.7146340981e-05 1.7011126721e+00 -2.9464135775e+00 1.7011126721e+00 2.9464135775e+00 
30800 5.8017810944e+00 -5.5103421135e-05 1.7011126721e+00 -2.9464135775e+00 1.7011126721e+00 2.9464135775e+00 
30900 5.8017810903e+00 -8.2901632465e-05 1.7011126721e+00 -2.9464135775e+00 1.7011126721e+00 2.9464135775e+00 
31000 5.8017810824e+00 -1.0805699008e-04 1.7011151088e+00 -2.9464177980e+00 1.7011151088e+00 2.9464177980e+00 
31100 5.8017810709e+00 -1.3219511559e-04 1.7011182849e+00 -2.9464232991e+00 1.7011182849e+00 2.9464232991e+00 
31200 5.8017810558e+00 -1.5528954446e-04 1.7011221704e+00 -2.9464300290e+00 1.7011221704e+00 2.9464300290e+00 
31300 5.8017810370e+00 -1.7731696002e-04 1.7011267347e+00 -2.9464379347e+00 1.7011267347e+00 2.9464379347e+00 
31400 5.8017810148e+00 -1.9825715431e-04 1.7011319465e+00 -2.9464469617e+00 1.7011319465e+00 2.9464469617e+00 
31500 5.8017809893e+00 -2.1809298317e-04 1.7011377737e+00 -2.9464570547e+00 1.7011377737e+00 2.9464570547e+00 
31600 5.8017809605e+00 -2.3681031575e-04 1.7011441839e+00 -2.9464681575e+00 1.7011441839e+00 2.9464681575e+00 
31700 5.8017809288e+00 -2.5439797891e-04 1.7011511442e+00 -2.9464802132e+00 1.7011511442e+00 2.9464802132e+00 
31800 5.8017808942e+00 -2.7084769656e-04 1.7011586215e+00 -2.9464931641e+00 1.7011586215e+00 2.9464931641e+00 
31900 5.8017808572e+00 -2.8615402438e-04 1.7011665822e+00 -2.9465069524e+00 1.7011665822e+00 2.9465069524e+00 
32000 5.8017808178e+00 -3.0031428011e-04 1.7011749927e+00 -2.9465215199e+00 1.7011749927e+00 2.9465215199e+00 
32100 5.8017807765e+00 -3.1332846969e-04 1.7011838194e+00 -2.9465368082e+00 1.7011838194e+00 2.9465368082e+00 
32200 5.8017807334e+00 -3.2519920964e-04 1.7011930285e+00 -2.9465527589e+00 1.7011930285e+00 2.9465527589e+00 
32300 5.8017806888e+00 -3.3593164577e-04 1.7012025865e+00 -2.9465693138e+00 1.7012025865e+00 2.9465693138e+00 
32400 5.8017806431e+00 -3.4553336868e-04 1.7012124599e+00 -2.9465864149e+00 1.7012124599e+00 2.9465864149e+00 
32500 5.8017805965e+00 -3.5401432621e-04 1.7012226154e+00 -2.9466040048e+00 1.7012226154e+00 2.9466040048e+00 
32600 5.8017805493e+00 -3.6138673322e-04 1.7012330201e+00 -2.9466220263e+00 1.7012330201e+00 2.9466220263e+00 
32700 5.8017805019e+00 -3.6766497882e-04 1.7012436414e+00 -2.9466404230e+00 1.7012436414e+00 2.9466404230e+00 
32800 5.8017804544e+00 -3.7286553152e-04 1.7012544472e+00 -2.9466591391e+00 1.7012544472e+00 2.9466591391e+00 
32900 5.8017804072e+00 -3.7700684239e-04 1.7012654058e+00 -2.9466781199e+00 1.7012654058e+00 2.9466781199e+00 
33000 5.8017803606e+00 -3.8010924664e-04 1.7012764860e+00 -2.9466973114e+00 1.7012764860e+00 2.9466973114e+00 
33100 5.8017803146e+00 -3.8219486376e-04 1.7012876573e+00 -2.9467166607e+00 1.7012876573e+00 2.9467166607e+00 
33200 5.8017802697e+00 -3.8328749656e-04 1.7012988898e+00 -2.9467361160e+00 1.7012988898e+00 2.9467361160e+00 
33300 5.8017802260e+00 -3.8341252936e-04 1.7013101544e+00 -2.9467556268e+00 1.7013101544e+00 2.9467556268e+00 
33400 5.8017801838e+00 -3.8259682553e-04 1.7013214225e+00 -2.9467751438e+00 1.7013214225e+00 2.9467751438e+00 
33500 5.8017801431e+00 -3.8086862462e-04 1.7013326666e+00 -2.9467946192e+00 1.7013326666e+00 2.9467946192e+00 
33600 5.8017801042e+00 -3.7825743943e-04 1.7013438599e+00 -2.9468140065e+00 1.7013438599e+00 2.9468140065e+00 
33700 5.8017800671e+00 -3.7479395310e-04 1.7013549763e+00 -2.9468332607e+00 1.7013549763e+00 2.9468332607e+00 
33800 5.8017800321e+00 -3.7050991651e-04 1.7013659909e+00 -2.9468523386e+00 1.7013659909e+00 2.9468523386e+00 
33900 5.8017799993e+00 -3.6543804624e-04 1.7013768795e+00 -2.9468711982e+00 1.7013768795e+00 2.9468711982e+00 
34000 5.8017799686e+00 -3.5961192328e-04 1.7013876190e+00 -2.9468897995e+00 1.7013876190e+00 2.9468897995e+00 
34100 5.8017799402e+00 -3.5306589260e-04 1.7013981872e+00 -2.9469081042e+00 1.7013981872e+00 2.9469081042e+00 
34200 5.8017799142e+00 -3.4583496397e-04 1.7014085630e+00 -2.9469260756e+00 1.7014085630e+00 2.9469260756e+00 
34300 5.8017798904e+00 -3.3795471399e-04 1.7014187262e+00 -2.9469436788e+00 1.7014187262e+00 2.9469436788e+00 
34400 5.8017798691e+00 -3.2946118974e-04 1.7014286578e+00 -2.9469608807e+00 1.7014286578e+00 2.9469608807e+00 
34500 5.8017798500e+00 -3.2039081400e-04 1.7014383397e+00 -2.9469776503e+00 1.7014383397e+00 2.9469776503e+00 
34600 5.8017798333e+00 -3.1078029238e-04 1.7014477550e+00 -2.9469939581e+00 1.7014477550e+00 2.9469939581e+00 
34700 5.8017798189e+00 -3.0066652239e-04 1.7014568878e+00 -2.9470097766e+00 1.7014568878e+00 2.9470097766e+00 
34800 5.8017798067e+00 -2.9008650472e-04 1.7014657234e+00 -2.9470250802e+00 1.7014657234e+00 2.9470250802e+00 
34900 5.8017797967e+00 -2.7907725671e-04 1.7014742480e+00 -2.9470398453e+00 1.7014742480e+00 2.9470398453e+00 
35000 5.8017797887e+00 -2.6767572832e-04 1.7014824491e+00 -2.9470540499e+00 1.7014824491e+00 2.9470540499e+00 
35100 5.8017797827e+00 -2.5591872051e-04 1.7014903150e+00 -2.9470676742e+00 1.7014903150e+00 2.9470676742e+00 
35200 5.8017797786e+00 -2.4384280638e-04 1.7014978354e+00 -2.9470807000e+00 1.7014978354e+00 2.9470807000e+00 
35300 5.8017797763e+00 -2.3148425499e-04 1.7015050010e+00 -2.9470931110e+00 1.7015050010e+00 2.9470931110e+00 
35400 5.8017797756e+00 -2.1887895799e-04 1.7015118033e+00 -2.9471048930e+00 1.7015118033e+00 2.9471048930e+00 
35500 5.8017797765e+00 -2.0606235921e-04 1.7015182352e+00 -2.9471160334e+00 1.7015182352e+00 2.9471160334e+00 
35600 5.8017797788e+00 -1.9306938726e-04 1.7015242905e+00 -2.9471265214e+00 1.7015242905e+00 2.9471265214e+00 
35700 5.8017797824e+00 -1.7993439111e-04 1.7015299639e+00 -2.9471363481e+00 1.7015299639e+00 2.9471363481e+00 
35800 5.8017797871e+00 -1.6669107889e-04 1.7015352513e+00 -2.9471455062e+00 1.7015352513e+00 2.9471455062e+00 
35900 5.8017797929e+00 -1.5337245982e-04 1.7015401496e+00 -2.9471539902e+00 1.7015401496e+00 2.9471539902e+00 
36000 5.8017797997e+00 -1.4001078931e-04 1.7015446565e+00 -2.9471617964e+00 1.7015446565e+00 2.9471617964e+00 
36100 5.8017798071e+00 -1.2663751738e-04 1.7015487707e+00 -2.9471689224e+00 1.7015487707e+00 2.9471689224e+00 
36200 5.8017798153e+00 -1.1328324032e-04 1.7015524919e+00 -2.9471753678e+00 1.7015524919e+00 2.9471753678e+00 
36300 5.8017798240e+00 -9.9977655636e-05 1.7015558208e+00 -2.9471811335e+00 1.7015558208e+00 2.9471811335e+00 
36400 5.8017798331e+00 -8.6749520274e-05 1.7015587586e+00 -2.9471862220e+00 1.7015587586e+00 2.9471862220e+00 
36500 5.8017798425e+00 -7.3626612207e-05 1.7015613077e+00 -2.9471906372e+00 1.7015613077e+00 2.9471906372e+00 
36600 5.8017798522e+00 -6.0635695254e-05 1.7015634712e+00 -2.9471943845e+00 1.7015634712e+00 2.9471943845e+00 
36700 5.8017798620e+00 -4.9575802370e-05 1.7015634712e+00 -2.9471943845e+00 1.7015634712e+00 2.9471943845e+00 
36800 5.8017798717e+00 -3.8331814686e-05 1.7015634712e+00 -2.9471943845e+00 1.7015634712e+00 2.9471943845e+00 
36900 5.8017798813e+00 -2.6931974066e-05 1.7015634712e+00 -2.9471943845e+00 1.7015634712e+00 2.9471943845e+00 
37000 5.8017798907e+00 -1.5403782815e-05 1.7015634712e+00 -2.9471943845e+00 1.7015634712e+00 2.9471943845e+00 
37100 5.8017798998e+00 -3.7739735334e-06 1.7015634712e+00 -2.9471943845e+00 1.7015634712e+00 2.9471943845e+00 
37200 5.8017799086e+00 7.9315182002e-06 1.7015634712e+00 -2.9471943845e+00 1.7015634712e+00 2.9471943845e+00 
37300 5.8017799171e+00 1.9687578365e-05 1.7015634712e+00 -2.9471943845e+00 1.7015634712e+00 2.9471943845e+00 
37400 5.8017799253e+00 3.1469936294e-05 1.7015634712e+00 -2.9471943845e+00 1.7015634712e+00 2.9471943845e+00 
37500 5.8017799330e+00 4.3255183820e-05 1.7015634712e+00 -2.9471943845e+00 1.7015634712e+00 2.9471943845e+00 
37600 5.8017799404e+00 5.5020791822e-05 1.7015634712e+00 -2.9471943845e+00 1.7015634712e+00 2.9471943845e+00 
37700 5.8017799473e+00 6.6745124218e-05 1.7015634712e+00 -2.9471943845e+00 1.7015634712e+00 2.9471943845e+00 
37800 5.8017799538e+00 7.8407449523e-05 1.7015634712e+00 -2.9471943845e+00 1.7015634712e+00 2.9471943845e+00 
37900 5.8017799597e+00 8.7694461866e-05 1.7015611672e+00 -2.9471903938e+00 1.7015611672e+00 2.9471903938e+00 
38000 5.8017799649e+00 9.6597598969e-05 1.7015585904e+00 -2.9471859306e+00 1.7015585904e+00 2.9471859306e+00 
38100 5.8017799697e+00 1.0510714061e-04 1.7015557519e+00 -2.9471810141e+00 1.7015557519e+00 2.9471810141e+00 
38200 5.8017799739e+00 1.1321453207e-04 1.7015526633e+00 -2.9471756646e+00 1.7015526633e+00 2.9471756646e+00 
38300 5.8017799776e+00 1.2091237018e-04 1.7015493365e+00 -2.9471699024e+00 1.7015493365e+00 2.9471699024e+00 
38400 5.8017799807e+00 1.2819438723e-04 1.7015457835e+00 -2.9471637484e+00 1.7015457835e+00 2.9471637484e+00 
38500 5.8017799834e+00 1.3505543272e-04 1.7015420165e+00 -2.9471572238e+00 1.7015420165e+00 2.9471572238e+00 
38600 5.8017799856e+00 1.4149145313e-04 1.7015380479e+00 -2.9471503499e+00 1.7015380479e+00 2.9471503499e+00 
38700 5.8017799874e+00 1.4749946983e-04 1.7015338901e+00 -2.9471431485e+00 1.7015338901e+00 2.9471431485e+00 
38800 5.8017799888e+00 1.5307755512e-04 1.7015295558e+00 -2.9471356413e+00 1.7015295558e+00 2.9471356413e+00 
38900 5.8017799898e+00 1.5822480669e-04 1.7015250576e+00 -2.9471278501e+00 1.7015250576e+00 2.9471278501e+00 
39000 5.8017799905e+00 1.6294132035e-04 1.7015204081e+00 -2.9471197969e+00 1.7015204081e+00 2.9471197969e+00 
39100 5.8017799909e+00 1.6722816143e-04 1.7015156200e+00 -2.9471115037e+00 1.7015156200e+00 2.9471115037e+00 
39200 5.8017799910e+00 1.7108733473e-04 1.7015107059e+00 -2.9471029922e+00 1.7015107059e+00 2.9471029922e+00 
39300 5.8017799909e+00 1.7452175322e-04 1.7015056784e+00 -2.9470942843e+00 1.7015056784e+00 2.9470942843e+00 
39400 5.8017799906e+00 1.7753520556e-04 1.7015005499e+00 -2.9470854016e+00 1.7015005499e+00 2.9470854016e+00 
39500 5.8017799901e+00 1.8013232266e-04 1.7014953329e+00 -2.9470763654e+00 1.7014953329e+00 2.9470763654e+00 
39600 5.8017799896e+00 1.8231854317e-04 1.7014900396e+00 -2.9470671971e+00 1.7014900396e+00 2.9470671971e+00 
39700 5.8017799890e+00 1.8410007824e-04 1.7014846820e+00 -2.9470579174e+00 1.7014846820e+00 2.9470579174e+00 
39800 5.8017799884e+00 1.8548387545e-04 1.7014792720e+00 -2.9470485471e+00 1.7014792720e+00 2.9470485471e+00 
39900 5.8017799878e+00 1.8647758223e-04 1.7014738213e+00 -2.9470391063e+00 1.7014738213e+00 2.9470391063e+00 
40000 5.8017799872e+00 1.8708950861e-04 1.7014683414e+00 -2.9470296148e+00 1.7014683414e+00 2.9470296148e+00 
40100 5.8017799867e+00 1.8732858963e-04 1.7014628435e+00 -2.9470200922e+00 1.7014628435e+00 2.9470200922e+00 
40200 5.8017799863e+00 1.8720434739e-04 1.7014573386e+00 -2.9470105574e+00 1.7014573386e+00 2.9470105574e+00 
40300 5.8017799860e+00 1.8672685285e-04 1.7014518373e+00 -2.9470010289e+00 1.7014518373e+00 2.9470010289e+00 
40400 5.8017799859e+00 1.8590668749e-04 1.7014463501e+00 -2.9469915246e+00 1.7014463501e+00 2.9469915246e+00 
40500 5.8017799859e+00 1.8475490495e-04 1.7014408869e+00 -2.9469820621e+00 1.7014408869e+00 2.9469820621e+00 
40600 5.8017799862e+00 1.8328299263e-04 1.7014354575e+00 -2.9469726582e+00 1.7014354575e+00 2.9469726582e+00 
40700 5.8017799866e+00 1.8150283349e-04 1.7014300714e+00 -2.9469633291e+00 1.7014300714e+00 2.9469633291e+00 
40800 5.8017799873e+00 1.7942666797e-04 1.7014247375e+00 -2.9469540907e+00 1.7014247375e+00 2.9469540907e+00 
40900 5.8017799883e+00 1.7706705628e-04 1.7014194647e+00 -2.9469449579e+00 1.7014194647e+00 2.9469449579e+00 
41000 5.8017799895e+00 1.7443684099e-04 1.7014142612e+00 -2.9469359451e+00 1.7014142612e+00 2.9469359451e+00 
41100 5.8017799909e+00 1.7154911005e-04 1.7014091350e+00 -2.9469270662e+00 1.7014091350e+00 2.9469270662e+00 
41200 5.8017799926e+00 1.6841716038e-04 1.7014040936e+00 -2.9469183343e+00 1.7014040936e+00 2.9469183343e+00 
41300 5.8017799946e+00 1.6505446193e-04 1.7013991442e+00 -2.9469097618e+00 1.7013991442e+00 2.9469097618e+00 
41400 5.8017799968e+00 1.6147462248e-04 1.7013942937e+00 -2.9469013604e+00 1.7013942937e+00 2.9469013604e+00 
41500 5.8017799993e+00 1.5769135310e-04 1.7013895483e+00 -2.9468931412e+00 1.7013895483e+00 2.9468931412e+00 
41600 5.8017800021e+00 1.5371843430e-04 1.7013849141e+00 -2.9468851145e+00 1.7013849141e+00 2.9468851145e+00 
41700 5.8017800051e+00 1.4956968313e-04 1.7013803967e+00 -2.9468772901e+00 1.7013803967e+00 2.9468772901e+00 
41800 5.8017800083e+00 1.4525892101e-04 1.7013760012e+00 -2.9468696768e+00 1.7013760012e+00 2.9468696768e+00 
41900 5.8017800118e+00 1.4079994253e-04 1.7013717323e+00 -2.9468622829e+00 1.7013717323e+00 2.9468622829e+00 
42000 5.8017800154e+00 1.3620648523e-04 1.7013675945e+00 -2.9468551160e+00 1.7013675945e+00 2.9468551160e+00 
42100 5.8017800193e+00 1.3149220029e-04 1.7013635916e+00 -2.9468481828e+00 1.7013635916e+00 2.9468481828e+00 
42200 5.8017800234e+00 1.2667062436e-04 1.7013597273e+00 -2.9468414896e+00 1.7013597273e+00 2.9468414896e+00 
42300 5.8017800277e+00 1.2175515235e-04 1.7013560047e+00 -2.9468350418e+00 1.7013560047e+00 2.9468350418e+00 
42400 5.8017800321e+00 1.1675901140e-04 1.7013524265e+00 -2.9468288442e+00 1.7013524265e+00 2.9468288442e+00 
42500 5.8017800366e+00 1.1169523591e-04 1.7013489951e+00 -2.9468229010e+00 1.7013489951e+00 2.9468229010e+00 
42600 5.8017800413e+00 1.0657664380e-04 1.7013457126e+00 -2.9468172154e+00 1.7013457126e+00 2.9468172154e+00 
42700 5.8017800461e+00 1.0141581380e-04 1.7013425804e+00 -2.9468117904e+00 1.7013425804e+00 2.9468117904e+00 
42800 5.8017800510e+00 9.6225064101e-05 1.7013396000e+00 -2.9468066281e+00 1.7013396000e+00 2.9468066281e+00 
42900 5.8017800560e+00 9.1016432033e-05 1.7013367721e+00 -2.9468017300e+00 1.7013367721e+00 2.9468017300e+00 
43000 5.8017800610e+00 8.5801655092e-05 1.7013340972e+00 -2.9467970970e+00 1.7013340972e+00 2.9467970970e+00 
43100 5.8017800660e+00 8.0592153102e-05 1.7013315756e+00 -2.9467927295e+00 1.7013315756e+00 2.9467927295e+00 
43200 5.8017800711e+00 7.5399011628e-05 1.7013292071e+00 -2.9467886271e+00 1.7013292071e+00 2.9467886271e+00 
43300 5.8017800762e+00 7.0232966616e-05 1.7013269912e+00 -2.9467847891e+00 1.7013269912e+00 2.9467847891e+00 
43400 5.8017800815e+00 6.7160201455e-05 1.7013269912e+00 -2.9467847891e+00 1.7013269912e+00 2.9467847891e+00 
43500 5.8017800867e+00 6.3995002876e-05 1.7013269912e+00 -2.9467847891e+00 1.7013269912e+00 2.9467847891e+00 
43600 5.8017800918e+00 6.0749059807e-05 1.7013269912e+00 -2.9467847891e+00 1.7013269912e+00 2.9467847891e+00 
43700 5.8017800968e+00 5.7433767440e-05 1.7013269912e+00 -2.9467847891e+00 1.7013269912e+00 2.9467847891e+00 
43800 5.8017801018e+00 5.4060214255e-05 1.7013269912e+00 -2.9467847891e+00 1.7013269912e+00 2.9467847891e+00 
43900 5.8017801067e+00 5.0639170242e-05 1.7013269912e+00 -2.9467847891e+00 1.7013269912e+00 2.9467847891e+00 
44000 5.8017801114e+00 4.7181076251e-05 1.7013269912e+00 -2.9467847891e+00 1.7013269912e+00 2.9467847891e+00 
44100 5.8017801161e+00 4.3696034486e-05 1.7013269912e+00 -2.9467847891e+00 1.7013269912e+00 2.9467847891e+00 
44200 5.8017801206e+00 4.0193800097e-05 1.7013269912e+00 -2.9467847891e+00 1.7013269912e+00 2.9467847891e+00 
44300 5.8017801251e+00 3.6683773855e-05 1.7013269912e+00 -2.9467847891e+00 1.7013269912e+00 2.9467847891e+00 
44400 5.8017801294e+00 3.3174995870e-05 1.7013269912e+00 -2.9467847891e+00 1.7013269912e+00 2.9467847891e+00 
44500 5.8017801336e+00 2.9676140340e-05 1.7013269912e+00 -2.9467847891e+00 1.7013269912e+00 2.9467847891e+00 
44600 5.8017801377e+00 2.6195511293e-05 1.7013269912e+00 -2.9467847891e+00 1.7013269912e+00 2.9467847891e+00 
44700 5.8017801417e+00 2.2741039295e-05 1.7013269912e+00 -2.9467847891e+00 1.7013269912e+00 2.9467847891e+00 
44800 5.8017801456e+00 1.9320279079e-05 1.7013269912e+00 -2.9467847891e+00 1.7013269912e+00 2.9467847891e+00 
44900 5.8017801493e+00 1.5940408097e-05 1.7013269912e+00 -2.9467847891e+00 1.7013269912e+00 2.9467847891e+00 
45000 5.8017801530e+00 1.2608225922e-05 1.7013269912e+00 -2.9467847891e+00 1.7013269912e+00 2.9467847891e+00 
45100 5.8017801566e+00 9.3301544908e-06 1.7013269912e+00 -2.9467847891e+00 1.7013269912e+00 2.9467847891e+00 
45200 5.8017801600e+00 6.1122391560e-06 1.7013269912e+00 -2.9467847891e+00 1.7013269912e+00 2.9467847891e+00 
45300 5.8017801634e+00 2.9601504927e-06 1.7013269912e+00 -2.9467847891e+00 1.7013269912e+00 2.9467847891e+00 
45400 5.8017801666e+00 -1.2081313964e-07 1.7013269912e+00 -2.9467847891e+00 1.7013269912e+00 2.9467847891e+00 
45500 5.8017801698e+00 -3.1257223606e-06 1.7013269912e+00 -2.9467847891e+00 1.7013269912e+00 2.9467847891e+00 
45600 5.8017801729e+00 -6.0500128487e-06 1.7013269912e+00 -2.9467847891e+00 1.7013269912e+00 2.9467847891e+00 
45700 5.8017801759e+00 -8.8894807980e-06 1.7013269912e+00 -2.9467847891e+00 1.7013269912e+00 2.9467847891e+00 
45800 5.8017801789e+00 -1.1640277780e-05 1.7013269912e+00 -2.9467847891e+00 1.7013269912e+00 2.9467847891e+00 
45900 5.8017801817e+00 -1.4298905041e-05 1.7013269912e+00 -2.9467847891e+00 1.7013269912e+00 2.9467847891e+00 
46000 5.8017801845e+00 -1.6862207269e-05 1.7013269912e+00 -2.9467847891e+00 1.7013269912e+00 2.9467847891e+00 
46100 5.8017801873e+00 -1.9327365885e-05 1.7013269912e+00 -2.9467847891e+00 1.7013269912e+00 2.9467847891e+00 
46200 5.8017801900e+00 -2.1691891844e-05 1.7013269912e+00 -2.9467847891e+00 1.7013269912e+00 2.9467847891e+00 
46300 5.8017801926e+00 -2.3953618048e-05 1.7013269912e+00 -2.9467847891e+00 1.7013269912e+00 2.9467847891e+00 
46400 5.8017801952e+00 -2.6110691335e-05 1.7013269912e+00 -2.9467847891e+00 1.7013269912e+00 2.9467847891e+00 
46500 5.8017801978e+00 -2.8161564126e-05 1.7013269912e+00 -2.9467847891e+00 1.7013269912e+00 2.9467847891e+00 
46600 5.8017802003e+00 -3.0104985743e-05 1.7013269912e+00 -2.9467847891e+00 1.7013269912e+00 2.9467847891e+00 
46700 5.8017802028e+00 -3.1939993418e-05 1.7013269912e+00 -2.9467847891e+00 1.7013269912e+00 2.9467847891e+00 
46800 5.8017802053e+00 -3.3665903054e-05 1.7013269912e+00 -2.9467847891e+00 1.7013269912e+00 2.9467847891e+00 
46900 5.8017802077e+00 -3.5282299739e-05 1.7013269912e+00 -2.9467847891e+00 1.7013269912e+00 2.9467847891e+00 
47000 5.8017802101e+00 -3.6789028060e-05 1.7013269912e+00 -2.9467847891e+00 1.7013269912e+00 2.9467847891e+00 
47100 5.8017802125e+00 -3.8186182238e-05 1.7013269912e+00 -2.9467847891e+00 1.7013269912e+00 2.9467847891e+00 
47200 5.8017802149e+00 -3.9474096119e-05 1.7013269912e+00 -2.9467847891e+00 1.7013269912e+00 2.9467847891e+00 
47300 5.8017802173e+00 -4.0653333039e-05 1.7013269912e+00 -2.9467847891e+00 1.7013269912e+00 2.9467847891e+00 
47400 5.8017802196e+00 -4.1724675589e-05 1.7013269912e+00 -2.9467847891e+00 1.7013269912e+00 2.9467847891e+00 
47500 5.8017802220e+00 -4.2689115331e-05 1.7013269912e+00 -2.9467847891e+00 1.7013269912e+00 2.9467847891e+00 
47600 5.8017802243e+00 -4.3547842446e-05 1.7013269912e+00 -2.9467847891e+00 1.7013269912e+00 2.9467847891e+00 
47700 5.8017802266e+00 -4.4302235381e-05 1.7013269912e+00 -2.9467847891e+00 1.7013269912e+00 2.9467847891e+00 
47800 5.8017802289e+00 -4.4953850480e-05 1.7013269912e+00 -2.9467847891e+00 1.7013269912e+00 2.9467847891e+00 
47900 5.8017802312e+00 -4.5504411661e-05 1.7013269912e+00 -2.9467847891e+00 1.7013269912e+00 2.9467847891e+00 
48000 5.8017802335e+00 -4.5955800122e-05 1.7013269912e+00 -2.9467847891e+00 1.7013269912e+00 2.9467847891e+00 
48100 5.8017802358e+00 -4.6310044118e-05 1.7013269912e+00 -2.9467847891e+00 1.7013269912e+00 2.9467847891e+00 
48200 5.8017802381e+00 -4.6569308830e-05 1.7013269912e+00 -2.9467847891e+00 1.7013269912e+00 2.9467847891e+00 
48300 5.8017802404e+00 -4.6735886334e-05 1.7013269912e+00 -2.9467847891e+00 1.7013269912e+00 2.9467847891e+00 
48400 5.8017802427e+00 -4.6812185681e-05 1.7013269912e+00 -2.9467847891e+00 1.7013269912e+00 2.9467847891e+00 
48500 5.8017802450e+00 -4.6800723132e-05 1.7013269912e+00 -2.9467847891e+00 1.7013269912e+00 2.9467847891e+00 
48600 5.8017802472e+00 -4.6704112537e-05 1.7013269912e+00 -2.9467847891e+00 1.7013269912e+00 2.9467847891e+00 
48700 5.8017802495e+00 -4.6525055882e-05 1.7013269912e+00 -2.9467847891e+00 1.7013269912e+00 2.9467847891e+00 
48800 5.8017802517e+00 -4.6266334020e-05 1.7013269912e+00 -2.9467847891e+00 1.7013269912e+00 2.9467847891e+00 
48900 5.8017802540e+00 -4.5930797593e-05 1.7013269912e+00 -2.9467847891e+00 1.7013269912e+00 2.9467847891e+00 
49000 5.8017802562e+00 -4.5521358166e-05 1.7013269912e+00 -2.9467847891e+00 1.7013269912e+00 2.9467847891e+00 
49100 5.8017802584e+00 -4.5040979573e-05 1.7013269912e+00 -2.9467847891e+00 1.7013269912e+00 2.9467847891e+00 
49200 5.8017802606e+00 -4.4492669486e-05 1.7013269912e+00 -2.9467847891e+00 1.7013269912e+00 2.9467847891e+00 
49300 5.8017802628e+00 -4.3879471232e-05 1.7013269912e+00 -2.9467847891e+00 1.7013269912e+00 2.9467847891e+00 
49400 5.8017802650e+00 -4.3204455847e-05 1.7013269912e+00 -2.9467847891e+00 1.7013269912e+00 2.9467847891e+00 
49500 5.8017802672e+00 -4.2470714380e-05 1.7013269912e+00 -2.9467847891e+00 1.7013269912e+00 2.9467847891e+00 
49600 5.8017802694e+00 -4.1681350466e-05 1.7013269912e+00 -2.9467847891e+00 1.7013269912e+00 2.9467847891e+00 
49700 5.8017802715e+00 -4.0839473141e-05 1.7013269912e+00 -2.9467847891e+00 1.7013269912e+00 2.9467847891e+00 
49800 5.8017802736e+00 -3.9948189955e-05 1.7013269912e+00 -2.9467847891e+00 1.7013269912e+00 2.9467847891e+00 
49900 5.8017802757e+00 -3.9010600338e-05 1.7013269912e+00 -2.9467847891e+00 1.7013269912e+00 2.9467847891e+00 
50000 5.8017802778e+00 -3.8029789245e-05 1.7013269912e+00 -2.9467847891e+00 1.7013269912e+00 2.9467847891e+00 
50100 5.8017802799e+00 -3.7008821094e-05 1.7013269912e+00 -2.9467847891e+00 1.7013269912e+00 2.9467847891e+00 
50200 5.8017802819e+00 -3.5950733968e-05 1.7013269912e+00 -2.9467847891e+00 1.7013269912e+00 2.9467847891e+00 
50300 5.8017802839e+00 -3.4858534114e-05 1.7013269912e+00 -2.9467847891e+00 1.7013269912e+00 2.9467847891e+00 
50400 5.8017802859e+00 -3.3735190714e-05 1.7013269912e+00 -2.9467847891e+00 1.7013269912e+00 2.9467847891e+00 
50500 5.8017802879e+00 -3.2583630955e-05 1.7013269912e+00 -2.9467847891e+00 1.7013269912e+00 2.9467847891e+00 
50600 5.8017802898e+00 -3.1406735359e-05 1.7013269912e+00 -2.9467847891e+00 1.7013269912e+00 2.9467847891e+00 
50700 5.8017802918e+00 -3.0207333425e-05 1.7013269912e+00 -2.9467847891e+00 1.7013269912e+00 2.9467847891e+00 
50800 5.8017802937e+00 -2.8988199520e-05 1.7013269912e+00 -2.9467847891e+00 1.7013269912e+00 2.9467847891e+00 
50900 5.8017802955e+00 -2.7752049075e-05 1.7013269912e+00 -2.9467847891e+00 1.7013269912e+00 2.9467847891e+00 
51000 5.8017802974e+00 -2.6501535037e-05 1.7013269912e+00 -2.9467847891e+00 1.7013269912e+00 2.9467847891e+00 
51100 5.8017802992e+00 -2.5239244606e-05 1.7013269912e+00 -2.9467847891e+00 1.7013269912e+00 2.9467847891e+00 
51200 5.8017803010e+00 -2.3967696234e-05 1.7013269912e+00 -2.9467847891e+00 1.7013269912e+00 2.9467847891e+00 
51300 5.8017803028e+00 -2.2689336882e-05 1.7013269912e+00 -2.9467847891e+00 1.7013269912e+00 2.9467847891e+00 
51400 5.8017803045e+00 -2.1406539561e-05 1.7013269912e+00 -2.9467847891e+00 1.7013269912e+00 2.9467847891e+00 
51500 5.8017803062e+00 -2.0121601094e-05 1.7013269912e+00 -2.9467847891e+00 1.7013269912e+00 2.9467847891e+00 
51600 5.8017803079e+00 -1.8836740151e-05 1.7013269912e+00 -2.9467847891e+00 1.7013269912e+00 2.9467847891e+00 
51700 5.8017803096e+00 -1.7554095533e-05 1.7013269912e+00 -2.9467847891e+00 1.7013269912e+00 2.9467847891e+00 
51800 5.8017803112e+00 -1.6275724664e-05 1.7013269912e+00 -2.9467847891e+00 1.7013269912e+00 2.9467847891e+00 
51900 5.8017803128e+00 -1.5003602353e-05 1.7013269912e+00 -2.9467847891e+00 1.7013269912e+00 2.9467847891e+00 
52000 5.8017803144e+00 -1.3739619751e-05 1.7013269912e+00 -2.9467847891e+00 1.7013269912e+00 2.9467847891e+00 
52100 5.8017803159e+00 -1.2485583538e-05 1.7013269912e+00 -2.9467847891e+00 1.7013269912e+00 2.9467847891e+00 
52200 5.8017803175e+00 -1.1243215341e-05 1.7013269912e+00 -2.9467847891e+00 1.7013269912e+00 2.9467847891e+00 
52300 5.8017803190e+00 -1.0014151319e-05 1.7013269912e+00 -2.9467847891e+00 1.7013269912e+00 2.9467847891e+00 
52400 5.8017803205e+00 -8.7999419751e-06 1.7013269912e+00 -2.9467847891e+00 1.7013269912e+00 2.9467847891e+00 
52500 5.8017803219e+00 -7.6020521565e-06 1.7013269912e+00 -2.9467847891e+00 1.7013269912e+00 2.9467847891e+00 
52600 5.8017803234e+00 -6.4218612200e-06 1.7013269912e+00 -2.9467847891e+00 1.7013269912e+00 2.9467847891e+00 
52700 5.8017803248e+00 -5.2606633957e-06 1.7013269912e+00 -2.9467847891e+00 1.7013269912e+00 2.9467847891e+00 
52800 5.8017803262e+00 -4.1196683010e-06 1.7013269912e+00 -2.9467847891e+00 1.7013269912e+00 2.9467847891e+00 
52900 5.8017803275e+00 -3.0000016257e-06 1.7013269912e+00 -2.9467847891e+00 1.7013269912e+00 2.9467847891e+00 
53000 5.8017803289e+00 -1.9027059661e-06 1.7013269912e+00 -2.9467847891e+00 1.7013269912e+00 2.9467847891e+00 
53100 5.8017803302e+00 -8.2874180127e-07 1.7013269912e+00 -2.9467847891e+00 1.7013269912e+00 2.9467847891e+00 
53200 5.8017803315e+00 2.2101139085e-07 1.7013269912e+00 -2.9467847891e+00 1.7013269912e+00 2.9467847891e+00 
53300 5.8017803327e+00 1.2457538858e-06 1.7013269912e+00 -2.9467847891e+00 1.7013269912e+00 2.9467847891e+00 
53400 5.8017803340e+00 2.2447643482e-06 1.7013269912e+00 -2.9467847891e+00 1.7013269912e+00 2.9467847891e+00 
53500 5.8017803352e+00 3.2173983532e-06 1.7013269912e+00 -2.9467847891e+00 1.7013269912e+00 2.9467847891e+00 
53600 5.8017803365e+00 4.1630867984e-06 1.7013269912e+00 -2.9467847891e+00 1.7013269912e+00 2.9467847891e+00 
53700 5.8017803377e+00 5.0813342121e-06 1.7013269912e+00 -2.9467847891e+00 1.7013269912e+00 2.9467847891e+00 
53800 5.8017803388e+00 5.9717169900e-06 1.7013269912e+00 -2.9467847891e+00 1.7013269912e+00 2.9467847891e+00 
53900 5.8017803400e+00 6.8338815214e-06 1.7013269912e+00 -2.9467847891e+00 1.7013269912e+00 2.9467847891e+00 
54000 5.8017803411e+00 7.6675422593e-06 1.7013269912e+00 -2.9467847891e+00 1.7013269912e+00 2.9467847891e+00 
54100 5.8017803423e+00 8.4724797175e-06 1.7013269912e+00 -2.9467847891e+00 1.7013269912e+00 2.9467847891e+00 
54200 5.8017803434e+00 9.2485383919e-06 1.7013269912e+00 -2.9467847891e+00 1.7013269912e+00 2.9467847891e+00 
54300 5.8017803445e+00 9.9956246379e-06 1.7013269912e+00 -2.9467847891e+00 1.7013269912e+00 2.9467847891e+00 
54400 5.8017803455e+00 1.0713704508e-05 1.7013269912e+00 -2.9467847891e+00 1.7013269912e+00 2.9467847891e+00 
54500 5.8017803466e+00 1.1402801522e-05 1.7013269912e+00 -2.9467847891e+00 1.7013269912e+00 2.9467847891e+00 
54600 5.8017803476e+00 1.2062994423e-05 1.7013269912e+00 -2.9467847891e+00 1.7013269912e+00 2.9467847891e+00 
54700 5.8017803487e+00 1.2694414900e-05 1.7013269912e+00 -2.9467847891e+00 1.7013269912e+00 2.9467847891e+00 
54800 5.8017803497e+00 1.3297245268e-05 1.7013269912e+00 -2.9467847891e+00 1.7013269912e+00 2.9467847891e+00 
54900 5.8017803507e+00 1.3871716158e-05 1.7013269912e+00 -2.9467847891e+00 1.7013269912e+00 2.9467847891e+00 
55000 5.8017803517e+00 1.4418104181e-05 1.7013269912e+00 -2.9467847891e+00 1.7013269912e+00 2.9467847891e+00 
55100 5.8017803526e+00 1.4936729581e-05 1.7013269912e+00 -2.9467847891e+00 1.7013269912e+00 2.9467847891e+00 
55200 5.8017803536e+00 1.5427953893e-05 1.7013269912e+00 -2.9467847891e+00 1.7013269912e+00 2.9467847891e+00 
55300 5.8017803545e+00 1.5892177610e-05 1.7013269912e+00 -2.9467847891e+00 1.7013269912e+00 2.9467847891e+00 
55400 5.8017803554e+00 1.6329837839e-05 1.7013269912e+00 -2.9467847891e+00 1.7013269912e+00 2.9467847891e+00 
55500 5.8017803564e+00 1.6741405995e-05 1.7013269912e+00 -2.9467847891e+00 1.7013269912e+00 2.9467847891e+00 
55600 5.8017803573e+00 1.7127385493e-05 1.7013269912e+00 -2.9467847891e+00 1.7013269912e+00 2.9467847891e+00 
55700 5.8017803582e+00 1.7488309478e-05 1.7013269912e+00 -2.9467847891e+00 1.7013269912e+00 2.9467847891e+00 
55800 5.8017803590e+00 1.7824738559e-05 1.7013269912e+00 -2.9467847891e+00 1.7013269912e+00 2.9467847891e+00 
55900 5.8017803599e+00 1.8137258596e-05 1.7013269912e+00 -2.9467847891e+00 1.7013269912e+00 2.9467847891e+00 
56000 5.8017803607e+00 1.8426478502e-05 1.7013269912e+00 -2.9467847891e+00 1.7013269912e+00 2.9467847891e+00 
56100 5.8017803616e+00 1.8693028100e-05 1.7013269912e+00 -2.9467847891e+00 1.7013269912e+00 2.9467847891e+00 
56200 5.8017803624e+00 1.8937555999e-05 1.7013269912e+00 -2.9467847891e+00 1.7013269912e+00 2.9467847891e+00 
56300 5.8017803632e+00 1.9160727521e-05 1.7013269912e+00 -2.9467847891e+00 1.7013269912e+00 2.9467847891e+00 
56400 5.8017803640e+00 1.9363222689e-05 1.7013269912e+00 -2.9467847891e+00 1.7013269912e+00 2.9467847891e+00 
56500 5.8017803648e+00 1.9545734231e-05 1.7013269912e+00 -2.9467847891e+00 1.7013269912e+00 2.9467847891e+00 
56600 5.8017803656e+00 1.9708965662e-05 1.7013269912e+00 -2.9467847891e+00 1.7013269912e+00 2.9467847891e+00 
56700 5.8017803664e+00 1.9853629412e-05 1.7013269912e+00 -2.9467847891e+00 1.7013269912e+00 2.9467847891e+00 
56800 5.8017803671e+00 1.9980444996e-05 1.7013269912e+00 -2.9467847891e+00 1.7013269912e+00 2.9467847891e+00 
56900 5.8017803679e+00 2.0090137254e-05 1.7013269912e+00 -2.9467847891e+00 1.7013269912e+00 2.9467847891e+00 
57000 5.8017803686e+00 2.0183434638e-05 1.7013269912e+00 -2.9467847891e+00 1.7013269912e+00 2.9467847891e+00 
57100 5.8017803693e+00 2.0261067579e-05 1.7013269912e+00 -2.9467847891e+00 1.7013269912e+00 2.9467847891e+00 
57200 5.8017803700e+00 2.0323766877e-05 1.7013269912e+00 -2.9467847891e+00 1.7013269912e+00 2.9467847891e+00 
57300 5.8017803707e+00 2.0372262191e-05 1.7013269912e+00 -2.9467847891e+00 1.7013269912e+00 2.9467847891e+00 
57400 5.8017803714e+00 2.0407280567e-05 1.7013269912e+00 -2.9467847891e+00 1.7013269912e+00 2.9467847891e+00 
57500 5.8017803721e+00 2.0429545037e-05 1.7013269912e+00 -2.9467847891e+00 1.7013269912e+00 2.9467847891e+00 
57600 5.8017803728e+00 2.0439773286e-05 1.7013269912e+00 -2.9467847891e+00 1.7013269912e+00 2.9467847891e+00 
57700 5.8017803734e+00 2.0438676367e-05 1.7013269912e+00 -2.9467847891e+00 1.7013269912e+00 2.9467847891e+00 
57800 5.8017803741e+00 2.0426957501e-05 1.7013269912e+00 -2.9467847891e+00 1.7013269912e+00 2.9467847891e+00 
57900 5.8017803747e+00 2.0405310920e-05 1.7013269912e+00 -2.9467847891e+00 1.7013269912e+00 2.9467847891e+00 
58000 5.8017803753e+00 2.0374420792e-05 1.7013269912e+00 -2.9467847891e+00 1.7013269912e+00 2.9467847891e+00 
58100 5.8017803760e+00 2.0334960202e-05 1.7013269912e+00 -2.9467847891e+00 1.7013269912e+00 2.9467847891e+00 
58200 5.8017803766e+00 2.0287590186e-05 1.7013269912e+00 -2.9467847891e+00 1.7013269912e+00 2.9467847891e+00 
58300 5.8017803772e+00 2.0232958854e-05 1.7013269912e+00 -2.9467847891e+00 1.7013269912e+00 2.9467847891e+00 
58400 5.8017803778e+00 2.0171700543e-05 1.7013269912e+00 -2.9467847891e+00 1.7013269912e+00 2.9467847891e+00 
58500 5.8017803783e+00 2.0104435063e-05 1.7013269912e+00 -2.9467847891e+00 1.7013269912e+00 2.9467847891e+00 
58600 5.8017803789e+00 2.0031766981e-05 1.7013269912e+00 -2.9467847891e+00 1.7013269912e+00 2.9467847891e+00 
58700 5.8017803795e+00 1.9954284972e-05 1.7013269912e+00 -2.9467847891e+00 1.7013269912e+00 2.9467847891e+00 
58800 5.8017803800e+00 1.9872561236e-05 1.7013269912e+00 -2.9467847891e+00 1.7013269912e+00 2.9467847891e+00 
58900 5.8017803806e+00 1.9787150967e-05 1.7013269912e+00 -2.9467847891e+00 1.7013269912e+00 2.9467847891e+00 
59000 5.8017803811e+00 1.9698591872e-05 1.7013269912e+00 -2.9467847891e+00 1.7013269912e+00 2.9467847891e+00 
59100 5.8017803816e+00 1.9607403762e-05 1.7013269912e+00 -2.9467847891e+00 1.7013269912e+00 2.9467847891e+00 
59200 5.8017803821e+00 1.9514088183e-05 1.7013269912e+00 -2.9467847891e+00 1.7013269912e+00 2.9467847891e+00 
59300 5.8017803826e+00 1.9419128107e-05 1.7013269912e+00 -2.9467847891e+00 1.7013269912e+00 2.9467847891e+00 
59400 5.8017803831e+00 1.9322987672e-05 1.7013269912e+00 -2.9467847891e+00 1.7013269912e+00 2.9467847891e+00 
59500 5.8017803836e+00 1.9226111974e-05 1.7013269912e+00 -2.9467847891e+00 1.7013269912e+00 2.9467847891e+00 
59600 5.8017803841e+00 1.9128926901e-05 1.7013269912e+00 -2.9467847891e+00 1.7013269912e+00 2.9467847891e+00 
59700 5.8017803846e+00 1.9031839031e-05 1.7013269912e+00 -2.9467847891e+00 1.7013269912e+00 2.9467847891e+00 
59800 5.8017803850e+00 1.8935235555e-05 1.7013269912e+00 -2.9467847891e+00 1.7013269912e+00 2.9467847891e+00 
59900 5.8017803855e+00 1.8839484255e-05 1.7013269912e+00 -2.9467847891e+00 1.7013269912e+00 2.9467847891e+00 
60000 5.8017803859e+00 1.8744933515e-05 1.7013269912e+00 -2.9467847891e+00 1.7013269912e+00 2.9467847891e+00 
60100 5.8017803864e+00 1.8651912397e-05 1.7013269912e+00 -2.9467847891e+00 1.7013269912e+00 2.9467847891e+00 
60200 5.8017803868e+00 1.8560730716e-05 1.7013269912e+00 -2.9467847891e+00 1.7013269912e+00 2.9467847891e+00 
60300 5.8017803872e+00 1.8471679187e-05 1.7013269912e+00 -2.9467847891e+00 1.7013269912e+00 2.9467847891e+00 
60400 5.8017803876e+00 1.8385029598e-05 1.7013269912e+00 -2.9467847891e+00 1.7013269912e+00 2.9467847891e+00 
60500 5.8017803881e+00 1.8301034996e-05 1.7013269912e+00 -2.9467847891e+00 1.7013269912e+00 2.9467847891e+00 
60600 5.8017803885e+00 1.8219929938e-05 1.7013269912e+00 -2.9467847891e+00 1.7013269912e+00 2.9467847891e+00 
60700 5.8017803889e+00 1.8141930744e-05 1.7013269912e+00 -2.9467847891e+00 1.7013269912e+00 2.9467847891e+00 
60800 5.8017803893e+00 1.8067235797e-05 1.7013269912e+00 -2.9467847891e+00 1.7013269912e+00 2.9467847891e+00 
60900 5.8017803896e+00 1.7996025854e-05 1.7013269912e+00 -2.9467847891e+00 1.7013269912e+00 2.9467847891e+00 
61000 5.8017803900e+00 1.7928464400e-05 1.7013269912e+00 -2.9467847891e+00 1.7013269912e+00 2.9467847891e+00 
61100 5.8017803904e+00 1.7864698003e-05 1.7013269912e+00 -2.9467847891e+00 1.7013269912e+00 2.9467847891e+00 
61200 5.8017803907e+00 1.7804856714e-05 1.7013269912e+00 -2.9467847891e+00 1.7013269912e+00 2.9467847891e+00 
61300 5.8017803911e+00 1.7749054465e-05 1.7013269912e+00 -2.9467847891e+00 1.7013269912e+00 2.9467847891e+00 
61400 5.8017803915e+00 1.7697389504e-05 1.7013269912e+00 -2.9467847891e+00 1.7013269912e+00 2.9467847891e+00 
61500 5.8017803918e+00 1.7649944825e-05 1.7013269912e+00 -2.9467847891e+00 1.7013269912e+00 2.9467847891e+00 
61600 5.8017803921e+00 1.7606788643e-05 1.7013269912e+00 -2.9467847891e+00 1.7013269912e+00 2.9467847891e+00 
61700 5.8017803925e+00 1.7567974846e-05 1.7013269912e+00 -2.9467847891e+00 1.7013269912e+00 2.9467847891e+00 
61800 5.8017803928e+00 1.7533543492e-05 1.7013269912e+00 -2.9467847891e+00 1.7013269912e+00 2.9467847891e+00 
61900 5.8017803931e+00 1.7503521289e-05 1.7013269912e+00 -2.9467847891e+00 1.7013269912e+00 2.9467847891e+00 
62000 5.8017803934e+00 1.7477922108e-05 1.7013269912e+00 -2.9467847891e+00 1.7013269912e+00 2.9467847891e+00 
62100 5.8017803938e+00 1.7456747487e-05 1.7013269912e+00 -2.9467847891e+00 1.7013269912e+00 2.9467847891e+00 
62200 5.8017803941e+00 1.7439987142e-05 1.7013269912e+00 -2.9467847891e+00 1.7013269912e+00 2.9467847891e+00 
62300 5.8017803944e+00 1.7427619495e-05 1.7013269912e+00 -2.9467847891e+00 1.7013269912e+00 2.9467847891e+00 
62400 5.8017803947e+00 1.7419612190e-05 1.7013269912e+00 -2.9467847891e+00 1.7013269912e+00 2.9467847891e+00 
62500 5.8017803950e+00 1.7415922619e-05 1.7013269912e+00 -2.9467847891e+00 1.7013269912e+00 2.9467847891e+00 
62600 5.8017803952e+00 1.7416498451e-05 1.7013269912e+00 -2.9467847891e+00 1.7013269912e+00 2.9467847891e+00 
62700 5.8017803955e+00 1.7421278155e-05 1.7013269912e+00 -2.9467847891e+00 1.7013269912e+00 2.9467847891e+00 
62800 5.8017803958e+00 1.7430191526e-05 1.7013269912e+00 -2.9467847891e+00 1.7013269912e+00 2.9467847891e+00 
62900 5.8017803961e+00 1.7443160208e-05 1.7013269912e+00 -2.9467847891e+00 1.7013269912e+00 2.9467847891e+00 
63000 5.8017803963e+00 1.7460098208e-05 1.7013269912e+00 -2.9467847891e+00 1.7013269912e+00 2.9467847891e+00 
63100 5.8017803966e+00 1.7480912420e-05 1.7013269912e+00 -2.9467847891e+00 1.7013269912e+00 2.9467847891e+00 
63200 5.8017803969e+00 1.7505503120e-05 1.7013269912e+00 -2.9467847891e+00 1.7013269912e+00 2.9467847891e+00 
63300 5.8017803971e+00 1.7533764480e-05 1.7013269912e+00 -2.9467847891e+00 1.7013269912e+00 2.9467847891e+00 
63400 5.8017803974e+00 1.7565585062e-05 1.7013269912e+00 -2.9467847891e+00 1.7013269912e+00 2.9467847891e+00 
63500 5.8017803976e+00 1.7600848302e-05 1.7013269912e+00 -2.9467847891e+00 1.7013269912e+00 2.9467847891e+00 
63600 5.8017803978e+00 1.7639432989e-05 1.7013269912e+00 -2.9467847891e+00 1.7013269912e+00 2.9467847891e+00 
63700 5.8017803981e+00 1.7681213739e-05 1.7013269912e+00 -2.9467847891e+00 1.7013269912e+00 2.9467847891e+00 
63800 5.8017803983e+00 1.7726061455e-05 1.7013269912e+00 -2.9467847891e+00 1.7013269912e+00 2.9467847891e+00 
63900 5.8017803985e+00 1.7773843772e-05 1.7013269912e+00 -2.9467847891e+00 1.7013269912e+00 2.9467847891e+00 
64000 5.8017803988e+00 1.7824425502e-05 1.7013269912e+00 -2.9467847891e+00 1.7013269912e+00 2.9467847891e+00 
64100 5.8017803990e+00 1.7877669058e-05 1.7013269912e+00 -2.9467847891e+00 1.7013269912e+00 2.9467847891e+00 
64200 5.8017803992e+00 1.7933434867e-05 1.7013269912e+00 -2.9467847891e+00 1.7013269912e+00 2.9467847891e+00 
64300 5.8017803994e+00 1.7991581779e-05 1.7013269912e+00 -2.9467847891e+00 1.7013269912e+00 2.9467847891e+00 
64400 5.8017803996e+00 1.8051967453e-05 1.7013269912e+00 -2.9467847891e+00 1.7013269912e+00 2.9467847891e+00 
64500 5.8017803998e+00 1.8114448729e-05 1.7013269912e+00 -2.9467847891e+00 1.7013269912e+00 2.9467847891e+00 
64600 5.8017804000e+00 1.8178882003e-05 1.7013269912e+00 -2.9467847891e+00 1.7013269912e+00 2.9467847891e+00 
64700 5.8017804002e+00 1.8245123567e-05 1.7013269912e+00 -2.9467847891e+00 1.7013269912e+00 2.9467847891e+00 
64800 5.8017804004e+00 1.8313029954e-05 1.7013269912e+00 -2.9467847891e+00 1.7013269912e+00 2.9467847891e+00 
64900 5.8017804006e+00 1.8382458252e-05 1.7013269912e+00 -2.9467847891e+00 1.7013269912e+00 2.9467847891e+00 
65000 5.8017804008e+00 1.8453266415e-05 1.7013269912e+00 -2.9467847891e+00 1.7013269912e+00 2.9467847891e+00 
65100 5.8017804010e+00 1.8525313557e-05 1.7013269912e+00 -2.9467847891e+00 1.7013269912e+00 2.9467847891e+00 
65200 5.8017804012e+00 1.8598460232e-05 1.7013269912e+00 -2.9467847891e+00 1.7013269912e+00 2.9467847891e+00 
65300 5.8017804014e+00 1.8672568702e-05 1.7013269912e+00 -2.9467847891e+00 1.7013269912e+00 2.9467847891e+00 
65400 5.8017804015e+00 1.8747503173e-05 1.7013269912e+00 -2.9467847891e+00 1.7013269912e+00 2.9467847891e+00 
65500 5.8017804017e+00 1.8823130051e-05 1.7013269912e+00 -2.9467847891e+00 1.7013269912e+00 2.9467847891e+00 
65600 5.8017804019e+00 1.8899318157e-05 1.7013269912e+00 -2.9467847891e+00 1.7013269912e+00 2.9467847891e+00 
65700 5.8017804020e+00 1.8975938928e-05 1.7013269912e+00 -2.9467847891e+00 1.7013269912e+00 2.9467847891e+00 
65800 5.8017804022e+00 1.9052866616e-05 1.7013269912e+00 -2.9467847891e+00 1.7013269912e+00 2.9467847891e+00 
65900 5.8017804024e+00 1.9129978472e-05 1.7013269912e+00 -2.9467847891e+00 1.7013269912e+00 2.9467847891e+00 
66000 5.8017804025e+00 1.9207154906e-05 1.7013269912e+00 -2.9467847891e+00 1.7013269912e+00 2.9467847891e+00 
66100 5.8017804027e+00 1.9284279639e-05 1.7013269912e+00 -2.9467847891e+00 1.7013269912e+00 2.9467847891e+00 
66200 5.8017804028e+00 1.9361239850e-05 1.7013269912e+00 -2.9467847891e+00 1.7013269912e+00 2.9467847891e+00 
66300 5.8017804030e+00 1.9437926297e-05 1.7013269912e+00 -2.9467847891e+00 1.7013269912e+00 2.9467847891e+00 
66400 5.8017804031e+00 1.9514233425e-05 1.7013269912e+00 -2.9467847891e+00 1.7013269912e+00 2.9467847891e+00 
66500 5.8017804033e+00 1.9590059475e-05 1.7013269912e+00 -2.9467847891e+00 1.7013269912e+00 2.9467847891e+00 
66600 5.8017804034e+00 1.9665306573e-05 1.7013269912e+00 -2.9467847891e+00 1.7013269912e+00 2.9467847891e+00 
66700 5.8017804036e+00 1.9739880793e-05 1.7013269912e+00 -2.9467847891e+00 1.7013269912e+00 2.9467847891e+00 
66800 5.8017804037e+00 1.9813692242e-05 1.7013269912e+00 -2.9467847891e+00 1.7013269912e+00 2.9467847891e+00 
66900 5.8017804038e+00 1.9886655095e-05 1.7013269912e+00 -2.9467847891e+00 1.7013269912e+00 2.9467847891e+00 
67000 5.8017804040e+00 1.9958687646e-05 1.7013269912e+00 -2.9467847891e+00 1.7013269912e+00 2.9467847891e+00 
67100 5.8017804041e+00 2.0029712338e-05 1.7013269912e+00 -2.9467847891e+00 1.7013269912e+00 2.9467847891e+00 
67200 5.8017804042e+00 2.0099655784e-05 1.7013269912e+00 -2.9467847891e+00 1.7013269912e+00 2.9467847891e+00 
67300 5.8017804043e+00 2.0168448778e-05 1.7013269912e+00 -2.9467847891e+00 1.7013269912e+00 2.9467847891e+00 
67400 5.8017804045e+00 2.0236026292e-05 1.7013269912e+00 -2.9467847891e+00 1.7013269912e+00 2.9467847891e+00 
67500 5.8017804046e+00 2.0302327478e-05 1.7013269912e+00 -2.9467847891e+00 1.7013269912e+00 2.9467847891e+00 
67600 5.8017804047e+00 2.0367295637e-05 1.7013269912e+00 -2.9467847891e+00 1.7013269912e+00 2.9467847891e+00 
67700 5.8017804048e+00 2.0430878212e-05 1.7013269912e+00 -2.9467847891e+00 1.7013269912e+00 2.9467847891e+00 
67800 5.8017804049e+00 2.0493026738e-05 1.7013269912e+00 -2.9467847891e+00 1.7013269912e+00 2.9467847891e+00 
67900 5.8017804050e+00 2.0553696810e-05 1.7013269912e+00 -2.9467847891e+00 1.7013269912e+00 2.9467847891e+00 
68000 5.8017804052e+00 2.0612848034e-05 1.7013269912e+00 -2.9467847891e+00 1.7013269912e+00 2.9467847891e+00 
68100 5.8017804053e+00 2.0670443969e-05 1.7013269912e+00 -2.9467847891e+00 1.7013269912e+00 2.9467847891e+00 
68200 5.8017804054e+00 2.0726452063e-05 1.7013269912e+00 -2.9467847891e+00 1.7013269912e+00 2.9467847891e+00 
68300 5.8017804055e+00 2.0780843600e-05 1.7013269912e+00 -2.9467847891e+00 1.7013269912e+00 2.9467847891e+00 
68400 5.8017804056e+00 2.0833593605e-05 1.7013269912e+00 -2.9467847891e+00 1.7013269912e+00 2.9467847891e+00 
68500 5.8017804057e+00 2.0884680775e-05 1.7013269912e+00 -2.9467847891e+00 1.7013269912e+00 2.9467847891e+00 
68600 5.8017804058e+00 2.0934087403e-05 1.7013269912e+00 -2.9467847891e+00 1.7013269912e+00 2.9467847891e+00 
68700 5.8017804059e+00 2.0981799278e-05 1.7013269912e+00 -2.9467847891e+00 1.7013269912e+00 2.9467847891e+00 
68800 5.8017804060e+00 2.1027805597e-05 1.7013269912e+00 -2.9467847891e+00 1.7013269912e+00 2.9467847891e+00 
68900 5.8017804061e+00 2.1072098866e-05 1.7013269912e+00 -2.9467847891e+00 1.7013269912e+00 2.9467847891e+00 
69000 5.8017804062e+00 2.1114674804e-05 1.7013269912e+00 -2.9467847891e+00 1.7013269912e+00 2.9467847891e+00 
69100 5.8017804062e+00 2.1155532236e-05 1.7013269912e+00 -2.9467847891e+00 1.7013269912e+00 2.9467847891e+00 
69200 5.8017804063e+00 2.1194672989e-05 1.7013269912e+00 -2.9467847891e+00 1.7013269912e+00 2.9467847891e+00 
69300 5.8017804064e+00 2.1232101782e-05 1.7013269912e+00 -2.9467847891e+00 1.7013269912e+00 2.9467847891e+00 
69400 5.8017804065e+00 2.1267826118e-05 1.7013269912e+00 -2.9467847891e+00 1.7013269912e+00 2.9467847891e+00 
69500 5.8017804066e+00 2.1301856172e-05 1.7013269912e+00 -2.9467847891e+00 1.7013269912e+00 2.9467847891e+00 
69600 5.8017804067e+00 2.1334204673e-05 1.7013269912e+00 -2.9467847891e+00 1.7013269912e+00 2.9467847891e+00 
69700 5.8017804068e+00 2.1364886789e-05 1.7013269912e+00 -2.9467847891e+00 1.7013269912e+00 2.9467847891e+00 
69800 5.8017804068e+00 2.1393920017e-05 1.7013269912e+00 -2.9467847891e+00 1.7013269912e+00 2.9467847891e+00 
69900 5.8017804069e+00 2.1421324059e-05 1.7013269912e+00 -2.9467847891e+00 1.7013269912e+00 2.9467847891e+00 
70000 5.8017804070e+00 2.1447120714e-05 1.7013269912e+00 -2.9467847891e+00 1.7013269912e+00 2.9467847891e+00 
70100 5.8017804071e+00 2.1471333748e-05 1.7013269912e+00 -2.9467847891e+00 1.7013269912e+00 2.9467847891e+00 
70200 5.8017804071e+00 2.1493988794e-05 1.7013269912e+00 -2.9467847891e+00 1.7013269912e+00 2.9467847891e+00 
70300 5.8017804072e+00 2.1515113218e-05 1.7013269912e+00 -2.9467847891e+00 1.7013269912e+00 2.9467847891e+00 
70400 5.8017804073e+00 2.1534736020e-05 1.7013269912e+00 -2.9467847891e+00 1.7013269912e+00 2.9467847891e+00 
70500 5.8017804074e+00 2.1552887706e-05 1.7013269912e+00 -2.9467847891e+00 1.7013269912e+00 2.9467847891e+00 
70600 5.8017804074e+00 2.1569600185e-05 1.7013269912e+00 -2.9467847891e+00 1.7013269912e+00 2.9467847891e+00 
70700 5.8017804075e+00 2.1584906643e-05 1.7013269912e+00 -2.9467847891e+00 1.7013269912e+00 2.9467847891e+00 
70800 5.8017804076e+00 2.1598841447e-05 1.7013269912e+00 -2.9467847891e+00 1.7013269912e+00 2.9467847891e+00 
70900 5.8017804076e+00 2.1611440028e-05 1.7013269912e+00 -2.9467847891e+00 1.7013269912e+00 2.9467847891e+00 
71000 5.8017804077e+00 2.1622738772e-05 1.7013269912e+00 -2.9467847891e+00 1.7013269912e+00 2.9467847891e+00 
71100 5.8017804078e+00 2.1632774920e-05 1.7013269912e+00 -2.9467847891e+00 1.7013269912e+00 2.9467847891e+00 
71200 5.8017804078e+00 2.1641586464e-05 1.7013269912e+00 -2.9467847891e+00 1.7013269912e+00 2.9467847891e+00 
71300 5.8017804079e+00 2.1649212042e-05 1.7013269912e+00 -2.9467847891e+00 1.7013269912e+00 2.9467847891e+00 
71400 5.8017804079e+00 2.1655690842e-05 1.7013269912e+00 -2.9467847891e+00 1.7013269912e+00 2.9467847891e+00 
71500 5.8017804080e+00 2.1661062508e-05 1.7013269912e+00 -2.9467847891e+00 1.7013269912e+00 2.9467847891e+00 
71600 5.8017804081e+00 2.1665367041e-05 1.7013269912e+00 -2.9467847891e+00 1.7013269912e+00 2.9467847891e+00 
71700 5.8017804081e+00 2.1668644720e-05 1.7013269912e+00 -2.9467847891e+00 1.7013269912e+00 2.9467847891e+00 
71800 5.8017804082e+00 2.1670935997e-05 1.7013269912e+00 -2.9467847891e+00 1.7013269912e+00 2.9467847891e+00 
71900 5.8017804082e+00 2.1672281428e-05 1.7013269912e+00 -2.9467847891e+00 1.7013269912e+00 2.9467847891e+00 
72000 5.8017804083e+00 2.1672721584e-05 1.7013269912e+00 -2.9467847891e+00 1.7013269912e+00 2.9467847891e+00 
72100 5.8017804083e+00 2.1672296972e-05 1.7013269912e+00 -2.9467847891e+00 1.7013269912e+00 2.9467847891e+00 
72200 5.8017804084e+00 2.1671047959e-05 1.7013269912e+00 -2.9467847891e+00 1.7013269912e+00 2.9467847891e+00 
72300 5.8017804084e+00 2.1669014705e-05 1.7013269912e+00 -2.9467847891e+00 1.7013269912e+00 2.9467847891e+00 
72400 5.8017804085e+00 2.1666237087e-05 1.7013269912e+00 -2.9467847891e+00 1.7013269912e+00 2.9467847891e+00 
72500 5.8017804085e+00 2.1662754635e-05 1.7013269912e+00 -2.9467847891e+00 1.7013269912e+00 2.9467847891e+00 
72600 5.8017804086e+00 2.1660594832e-05 1.7013269912e+00 -2.9467847891e+00 1.7013269912e+00 2.9467847891e+00 
72600 5.8017804086e+00 2.1660594832e-05 1.7013269912e+00 -2.9467847891e+00 1.7013269912e+00 2.9467847891e+00 
