# step Hamiltonian StressXX CellTensor1 CellTensor2 CellTensor3 CellTensor4 
0 6.5448260993e+00 -2.7504266363e-01 1.6087831444e+00 -2.7864941444e+00 1.6087831444e+00 2.7864941444e+00 
100 6.5365272395e+00 -2.7770562112e-01 1.6087831444e+00 -2.7864941444e+00 1.6087831444e+00 2.7864941444e+00 
200 6.5258781582e+00 -2.7156623025e-01 1.6174217420e+00 -2.8014566344e+00 1.6174217420e+00 2.8014566344e+00 
300 6.5159587318e+00 -2.6558516757e-01 1.6258240013e+00 -2.8160097744e+00 1.6258240013e+00 2.8160097744e+00 
400 6.5067509796e+00 -2.5976686785e-01 1.6339985155e+00 -2.8301684483e+00 1.6339985155e+00 2.8301684483e+00 
500 6.4982342711e+00 -2.5411515362e-01 1.6419537387e+00 -2.8439472992e+00 1.6419537387e+00 2.8439472992e+00 
600 6.4903855490e+00 -2.4863326104e-01 1.6496979830e+00 -2.8573607237e+00 1.6496979830e+00 2.8573607237e+00 
700 6.4831795692e+00 -2.4332386396e-01 1.6572394146e+00 -2.8704228664e+00 1.6572394146e+00 2.8704228664e+00 
800 6.4765891535e+00 -2.3818909579e-01 1.6645860513e+00 -2.8831476144e+00 1.6645860513e+00 2.8831476144e+00 
900 6.4705854526e+00 -2.3323056934e-01 1.6717457590e+00 -2.8955485920e+00 1.6717457590e+00 2.8955485920e+00 
1000 6.4651382129e+00 -2.2844939481e-01 1.6787262491e+00 -2.9076391555e+00 1.6787262491e+00 2.9076391555e+00 
1100 6.4602160469e+00 -2.2384619589e-01 1.6855350751e+00 -2.9194323880e+00 1.6855350751e+00 2.9194323880e+00 
1200 6.4557867014e+00 -2.1942112440e-01 1.6921796296e+00 -2.9309410940e+00 1.6921796296e+00 2.9309410940e+00 
1300 6.4518173218e+00 -2.1517387362e-01 1.6986671413e+00 -2.9421777940e+00 1.6986671413e+00 2.9421777940e+00 
1400 6.4482747095e+00 -2.1110369067e-01 1.7050046717e+00 -2.9531547186e+00 1.7050046717e+00 2.9531547186e+00 
1500 6.4451255695e+00 -2.0720938819e-01 1.7111991116e+00 -2.9638838031e+00 1.7111991116e+00 2.9638838031e+00 
1600 6.4423367471e+00 -2.0348935573e-01 1.7172571777e+00 -2.9743766814e+00 1.7172571777e+00 2.9743766814e+00 
1700 6.4398754512e+00 -1.9994157107e-01 1.7231854093e+00 -2.9846446798e+00 1.7231854093e+00 2.9846446798e+00 
1800 6.4377094616e+00 -1.9656361181e-01 1.7289901644e+00 -2.9946988106e+00 1.7289901644e+00 2.9946988106e+00 
1900 6.4358073216e+00 -1.9335266742e-01 1.7346776162e+00 -3.0045497661e+00 1.7346776162e+00 3.0045497661e+00 
2000 6.4341385126e+00 -1.9030555217e-01 1.7402537494e+00 -3.0142079121e+00 1.7402537494e+00 3.0142079121e+00 
2100 6.4326736103e+00 -1.8741871884e-01 1.7457243567e+00 -3.0236832817e+00 1.7457243567e+00 3.0236832817e+00 
2200 6.4313844239e+00 -1.8468827366e-01 1.7510950348e+00 -3.0329855692e+00 1.7510950348e+00 3.0329855692e+00 
2300 6.4302441152e+00 -1.8210999236e-01 1.7563711818e+00 -3.0421241238e+00 1.7563711818e+00 3.0421241238e+00 
2400 6.4292272999e+00 -1.7967933756e-01 1.7615579931e+00 -3.0511079445e+00 1.7615579931e+00 3.0511079445e+00 
2500 6.4283101308e+00 -1.7739147740e-01 1.7666604588e+00 -3.0599456744e+00 1.7666604588e+00 3.0599456744e+00 
2600 6.4274703625e+00 -1.7524130548e-01 1.7716833612e+00 -3.0686455965e+00 1.7716833612e+00 3.0686455965e+00 
2700 6.4266873986e+00 -1.7322346198e-01 1.7766312715e+00 -3.0772156286e+00 1.7766312715e+00 3.0772156286e+00 
2800 6.4259423234e+00 -1.7133235590e-01 1.7815085488e+00 -3.0856633206e+00 1.7815085488e+00 3.0856633206e+00 
2900 6.4252179164e+00 -1.6956218838e-01 1.7863193375e+00 -3.0939958511e+00 1.7863193375e+00 3.0939958511e+00 
3000 6.4244986531e+00 -1.6790697676e-01 1.7910675668e+00 -3.1022200254e+00 1.7910675668e+00 3.1022200254e+00 
3100 6.4237706920e+00 -1.6636057937e-01 1.7957569494e+00 -3.1103422744e+00 1.7957569494e+00 3.1103422744e+00 
3200 6.4230218483e+00 -1.6491672087e-01 1.8003909817e+00 -3.1183686538e+00 1.8003909817e+00 3.1183686538e+00 
3300 6.4222415572e+00 -1.6356901781e-01 1.8049729438e+00 -3.1263048450e+00 1.8049729438e+00 3.1263048450e+00 
3400 6.4214208262e+00 -1.6231100436e-01 1.8095059005e+00 -3.1341561562e+00 1.8095059005e+00 3.1341561562e+00 
3500 6.4205521789e+00 -1.6113615791e-01 1.8139927023e+00 -3.1419275249e+00 1.8139927023e+00 3.1419275249e+00 
3600 6.4196295908e+00 -1.6003792439e-01 1.8184359879e+00 -3.1496235214e+00 1.8184359879e+00 3.1496235214e+00 
3700 6.4186484184e+00 -1.5900974316e-01 1.8228381862e+00 -3.1572483524e+00 1.8228381862e+00 3.1572483524e+00 
3800 6.4176053232e+00 -1.5804507117e-01 1.8272015192e+00 -3.1648058670e+00 1.8272015192e+00 3.1648058670e+00 
3900 6.4164981907e+00 -1.5713740637e-01 1.8315280062e+00 -3.1722995622e+00 1.8315280062e+00 3.1722995622e+00 
4000 6.4153260469e+00 -1.5628031010e-01 1.8358194667e+00 -3.1797325899e+00 1.8358194667e+00 3.1797325899e+00 
4100 6.4140889714e+00 -1.5546742845e-01 1.8400775260e+00 -3.1871077648e+00 1.8400775260e+00 3.1871077648e+00 
4200 6.4127880102e+00 -1.5469251238e-01 1.8443036191e+00 -3.1944275728e+00 1.8443036191e+00 3.1944275728e+00 
4300 6.4114250871e+00 -1.5394943653e-01 1.8484989968e+00 -3.2016941802e+00 1.8484989968e+00 3.2016941802e+00 
4400 6.4100029155e+00 -1.5323221673e-01 1.8526647309e+00 -3.2089094434e+00 1.8526647309e+00 3.2089094434e+00 
4500 6.4085249115e+00 -1.5253502601e-01 1.8568017206e+00 -3.2160749196e+00 1.8568017206e+00 3.2160749196e+00 
4600 6.4069951076e+00 -1.5185220921e-01 1.8609106983e+00 -3.2231918779e+00 1.8609106983e+00 3.2231918779e+00 
4700 6.4054180698e+00 -1.5117829610e-01 1.8649922370e+00 -3.2302613101e+00 1.8649922370e+00 3.2302613101e+00 
4800 6.4037988156e+00 -1.5050801307e-01 1.8690467561e+00 -3.2372839433e+00 1.8690467561e+00 3.2372839433e+00 
4900 6.4021427366e+00 -1.4983629330e-01 1.8730745295e+00 -3.2442602514e+00 1.8730745295e+00 3.2442602514e+00 
5000 6.4004555234e+00 -1.4915828557e-01 1.8770756918e+00 -3.2511904679e+00 1.8770756918e+00 3.2511904679e+00 
5100 6.3987430941e+00 -1.4846936162e-01 1.8810502464e+00 -3.2580745983e+00 1.8810502464e+00 3.2580745983e+00 
5200 6.3970115271e+00 -1.4776512226e-01 1.8849980720e+00 -3.2649124329e+00 1.8849980720e+00 3.2649124329e+00 
5300 6.3952669977e+00 -1.4704140217e-01 1.8889189308e+00 -3.2717035595e+00 1.8889189308e+00 3.2717035595e+00 
5400 6.3935157186e+00 -1.4629427342e-01 1.8928124752e+00 -3.2784473763e+00 1.8928124752e+00 3.2784473763e+00 
5500 6.3917638847e+00 -1.4552004803e-01 1.8966782557e+00 -3.2851431046e+00 1.8966782557e+00 3.2851431046e+00 
5600 6.3900176220e+00 -1.4471527929e-01 1.9005157280e+00 -3.2917898015e+00 1.9005157280e+00 3.2917898015e+00 
5700 6.3882829414e+00 -1.4387676225e-01 1.9043242600e+00 -3.2983863724e+00 1.9043242600e+00 3.2983863724e+00 
5800 6.3865656955e+00 -1.4300153324e-01 1.9081031395e+00 -3.3049315836e+00 1.9081031395e+00 3.3049315836e+00 
5900 6.3848715404e+00 -1.4208686856e-01 1.9118515806e+00 -3.3114240742e+00 1.9118515806e+00 3.3114240742e+00 
6000 6.3832059016e+00 -1.4113028255e-01 1.9155687313e+00 -3.3178623680e+00 1.9155687313e+00 3.3178623680e+00 
6100 6.3815739428e+00 -1.4012952490e-01 1.9192536794e+00 -3.3242448854e+00 1.9192536794e+00 3.3242448854e+00 
6200 6.3799805401e+00 -1.3908257739e-01 1.9229054600e+00 -3.3305699548e+00 1.9229054600e+00 3.3305699548e+00 
6300 6.3784302586e+00 -1.3798765023e-01 1.9265230609e+00 -3.3368358234e+00 1.9265230609e+00 3.3368358234e+00 
6400 6.3769273329e+00 -1.3684317787e-01 1.9301054297e+00 -3.3430406682e+00 1.9301054297e+00 3.3430406682e+00 
6500 6.3754756512e+00 -1.3564781450e-01 1.9336514793e+00 -3.3491826062e+00 1.9336514793e+00 3.3491826062e+00 
6600 6.3740787427e+00 -1.3440042921e-01 1.9371600937e+00 -3.3552597047e+00 1.9371600937e+00 3.3552597047e+00 
6700 6.3727397674e+00 -1.3310010095e-01 1.9406301340e+00 -3.3612699908e+00 1.9406301340e+00 3.3612699908e+00 
6800 6.3714615097e+00 -1.3174611328e-01 1.9440604433e+00 -3.3672114608e+00 1.9440604433e+00 3.3672114608e+00 
6900 6.3702463741e+00 -1.3033794897e-01 1.9474498523e+00 -3.3730820893e+00 1.9474498523e+00 3.3730820893e+00 
7000 6.3690963837e+00 -1.2887528450e-01 1.9507971840e+00 -3.3788798379e+00 1.9507971840e+00 3.3788798379e+00 
7100 6.3680131810e+00 -1.2735798449e-01 1.9541012586e+00 -3.3846026631e+00 1.9541012586e+00 3.3846026631e+00 
7200 6.3669980313e+00 -1.2578609615e-01 1.9573608984e+00 -3.3902485248e+00 1.9573608984e+00 3.3902485248e+00 
7300 6.3660518275e+00 -1.2415984360e-01 1.9605749315e+00 -3.3958153934e+00 1.9605749315e+00 3.3958153934e+00 
7400 6.3651750977e+00 -1.2247962236e-01 1.9637421966e+00 -3.4013012575e+00 1.9637421966e+00 3.4013012575e+00 
7500 6.3643680140e+00 -1.2074599375e-01 1.9668615467e+00 -3.4067041303e+00 1.9668615467e+00 3.4067041303e+00 
7600 6.3636304029e+00 -1.1895967940e-01 1.9699318531e+00 -3.4120220570e+00 1.9699318531e+00 3.4120220570e+00 
7700 6.3629617580e+00 -1.1712155578e-01 1.9729520089e+00 -3.4172531202e+00 1.9729520089e+00 3.4172531202e+00 
7800 6.3623612527e+00 -1.1523264884e-01 1.9759209325e+00 -3.4223954469e+00 1.9759209325e+00 3.4223954469e+00 
7900 6.3618277556e+00 -1.1329412864e-01 1.9788375712e+00 -3.4274472133e+00 1.9788375712e+00 3.4274472133e+00 
8000 6.3613598462e+00 -1.1130730407e-01 1.9817009039e+00 -3.4324066510e+00 1.9817009039e+00 3.4324066510e+00 
8100 6.3609558316e+00 -1.0927361765e-01 1.9845099443e+00 -3.4372720516e+00 1.9845099443e+00 3.4372720516e+00 
8200 6.3606137644e+00 -1.0719464034e-01 1.9872637437e+00 -3.4420417722e+00 1.9872637437e+00 3.4420417722e+00 
8300 6.3603314613e+00 -1.0507206638e-01 1.9899613941e+00 -3.4467142397e+00 1.9899613941e+00 3.4467142397e+00 
8400 6.3601065223e+00 -1.0290770813e-01 1.9926020299e+00 -3.4512879551e+00 1.9926020299e+00 3.4512879551e+00 
8500 6.3599363500e+00 -1.0070349101e-01 1.9951848313e+00 -3.4557614984e+00 1.9951848313e+00 3.4557614984e+00 
8600 6.3598181704e+00 -9.8461448289e-02 1.9977090259e+00 -3.4601335316e+00 1.9977090259e+00 3.4601335316e+00 
8700 6.3597490534e+00 -9.6183715941e-02 2.0001738910e+00 -3.4644028033e+00 2.0001738910e+00 3.4644028033e+00 
8800 6.3597259329e+00 -9.3872527427e-02 2.0025787560e+00 -3.4685681516e+00 2.0025787560e+00 3.4685681516e+00 
8900 6.3597456287e+00 -9.1530208390e-02 2.0049230038e+00 -3.4726285079e+00 2.0049230038e+00 3.4726285079e+00 
9000 6.3598048667e+00 -8.9159171294e-02 2.0072060730e+00 -3.4765828996e+00 2.0072060730e+00 3.4765828996e+00 
9100 6.3599003005e+00 -8.6761909930e-02 2.0094274591e+00 -3.4804304533e+00 2.0094274591e+00 3.4804304533e+00 
9200 6.3600285317e+00 -8.4340993828e-02 2.0115867167e+00 -3.4841703971e+00 2.0115867167e+00 3.4841703971e+00 
9300 6.3601861309e+00 -8.1899062506e-02 2.0136834602e+00 -3.4878020634e+00 2.0136834602e+00 3.4878020634e+00 
9400 6.3603696574e+00 -7.9438819588e-02 2.0157173656e+00 -3.4913248909e+00 2.0157173656e+00 3.4913248909e+00 
9500 6.3605756800e+00 -7.6963026745e-02 2.0176881714e+00 -3.4947384267e+00 2.0176881714e+00 3.4947384267e+00 
9600 6.3608007953e+00 -7.4474497465e-02 2.0195956797e+00 -3.4980423281e+00 2.0195956797e+00 3.4980423281e+00 
9700 6.3610416473e+00 -7.1976090643e-02 2.0214397572e+00 -3.5012363640e+00 2.0214397572e+00 3.5012363640e+00 
9800 6.3612949448e+00 -6.9470703985e-02 2.0232203358e+00 -3.5043204165e+00 2.0232203358e+00 3.5043204165e+00 
9900 6.3615574794e+00 -6.6961267218e-02 2.0249374133e+00 -3.5072944820e+00 2.0249374133e+00 3.5072944820e+00 
10000 6.3618261412e+00 -6.4450735124e-02 2.0265910538e+00 -3.5101586714e+00 2.0265910538e+00 3.5101586714e+00 
10100 6.3620979351e+00 -6.1942080387e-02 2.0281813884e+00 -3.5129132117e+00 2.0281813884e+00 3.5129132117e+00 
10200 6.3623699946e+00 -5.9438286277e-02 2.0297086149e+00 -3.5155584456e+00 2.0297086149e+00 3.5155584456e+00 
10300 6.3626395960e+00 -5.6942339170e-02 2.0311729982e+00 -3.5180948319e+00 2.0311729982e+00 3.5180948319e+00 
10400 6.3629041697e+00 -5.4457220935e-02 2.0325748700e+00 -3.5205229451e+00 2.0325748700e+00 3.5205229451e+00 
10500 6.3631613124e+00 -5.1985901203e-02 2.0339146288e+00 -3.5228434753e+00 2.0339146288e+00 3.5228434753e+00 
10600 6.3634087958e+00 -4.9531329545e-02 2.0351927390e+00 -3.5250572271e+00 2.0351927390e+00 3.5250572271e+00 
10700 6.3636445761e+00 -4.7096427583e-02 2.0364097309e+00 -3.5271651190e+00 2.0364097309e+00 3.5271651190e+00 
10800 6.3638668002e+00 -4.4684081071e-02 2.0375661996e+00 -3.5291681815e+00 2.0375661996e+00 3.5291681815e+00 
10900 6.3640738120e+00 -4.2297131985e-02 2.0386628042e+00 -3.5310675563e+00 2.0386628042e+00 3.5310675563e+00 
11000 6.3642641563e+00 -3.9938370650e-02 2.0397002665e+00 -3.5328644938e+00 2.0397002665e+00 3.5328644938e+00 
11100 6.3644365818e+00 -3.7610527955e-02 2.0406793703e+00 -3.5345603512e+00 2.0406793703e+00 3.5345603512e+00 
11200 6.3645900426e+00 -3.5316267682e-02 2.0416009594e+00 -3.5361565904e+00 2.0416009594e+00 3.5361565904e+00 
11300 6.3647236977e+00 -3.3058179019e-02 2.0424659364e+00 -3.5376547746e+00 2.0424659364e+00 3.5376547746e+00 
11400 6.3648369099e+00 -3.0838769273e-02 2.0432752611e+00 -3.5390565660e+00 2.0432752611e+00 3.5390565660e+00 
11500 6.3649292426e+00 -2.8660456844e-02 2.0440299481e+00 -3.5403637223e+00 2.0440299481e+00 3.5403637223e+00 
11600 6.3650004554e+00 -2.6525564499e-02 2.0447310654e+00 -3.5415780931e+00 2.0447310654e+00 3.5415780931e+00 
11700 6.3650504989e+00 -2.4436312992e-02 2.0453797318e+00 -3.5427016162e+00 2.0453797318e+00 3.5427016162e+00 
11800 6.3650795073e+00 -2.2394815062e-02 2.0459771148e+00 -3.5437363140e+00 2.0459771148e+00 3.5437363140e+00 
11900 6.3650877906e+00 -2.0403069857e-02 2.0465244282e+00 -3.5446842886e+00 2.0465244282e+00 3.5446842886e+00 
12000 6.3650758253e+00 -1.8462957820e-02 2.0470229294e+00 -3.5455477180e+00 2.0470229294e+00 3.5455477180e+00 
12100 6.3650442440e+00 -1.6576236057e-02 2.0474739169e+00 -3.5463288513e+00 2.0474739169e+00 3.5463288513e+00 
12200 6.3649938246e+00 -1.4744534231e-02 2.0478787275e+00 -3.5470300038e+00 2.0478787275e+00 3.5470300038e+00 
12300 6.3649254778e+00 -1.2969350998e-02 2.0482387333e+00 -3.5476535522e+00 2.0482387333e+00 3.5476535522e+00 
12400 6.3648402349e+00 -1.1252050999e-02 2.0485553391e+00 -3.5482019295e+00 2.0485553391e+00 3.5482019295e+00 
12500 6.3647392342e+00 -9.5938624391e-03 2.0488299791e+00 -3.5486776198e+00 2.0488299791e+00 3.5486776198e+00 
12600 6.3646237075e+00 -7.9958752425e-03 2.0490641138e+00 -3.5490831531e+00 2.0490641138e+00 3.5490831531e+00 
12700 6.3644949657e+00 -6.4590398037e-03 2.0492592273e+00 -3.5494210996e+00 2.0492592273e+00 3.5494210996e+00 
12800 6.3643543849e+00 -4.9841663253e-03 2.0494168238e+00 -3.5496940648e+00 2.0494168238e+00 3.5496940648e+00 
12900 6.3642033919e+00 -3.5719247381e-03 2.0495384247e+00 -3.5499046836e+00 2.0495384247e+00 3.5499046836e+00 
13000 6.3640434498e+00 -2.2228451937e-03 2.0496255650e+00 -3.5500556151e+00 2.0496255650e+00 3.5500556151e+00 
13100 6.3638760442e+00 -9.3731911097e-04 2.0496797909e+00 -3.5501495371e+00 2.0496797909e+00 3.5501495371e+00 
13200 6.3637026692e+00 2.8439924141e-04 2.0497026560e+00 -3.5501891405e+00 2.0497026560e+00 3.5501891405e+00 
13300 6.3635248140e+00 1.4421906531e-03 2.0496957184e+00 -3.5501771243e+00 2.0496957184e+00 3.5501771243e+00 
13400 6.3633439504e+00 2.5360683976e-03 2.0496605379e+00 -3.5501161899e+00 2.0496605379e+00 3.5501161899e+00 
13500 6.3631615201e+00 3.5661752064e-03 2.0495986726e+00 -3.5500090361e+00 2.0495986726e+00 3.5500090361e+00 
13600 6.3629789238e+00 4.5327798270e-03 2.0495116763e+00 -3.5498583541e+00 2.0495116763e+00 3.5498583541e+00 
13700 6.3627975103e+00 5.4362731989e-03 2.0494010954e+00 -3.5496668223e+00 2.0494010954e+00 3.5496668223e+00 
13800 6.3626185666e+00 6.2771642862e-03 2.0492684660e+00 -3.5494371015e+00 2.0492684660e+00 3.5494371015e+00 
13900 6.3624433095e+00 7.0560756061e-03 2.0491153117e+00 -3.5491718305e+00 2.0491153117e+00 3.5491718305e+00 
14000 6.3622728775e+00 7.7737384900e-03 2.0489431404e+00 -3.5488736210e+00 2.0489431404e+00 3.5488736210e+00 
14100 6.3621083240e+00 8.4309881192e-03 2.0487534422e+00 -3.5485450540e+00 2.0487534422e+00 3.5485450540e+00 
14200 6.3619506119e+00 9.0287583713e-03 2.0485476866e+00 -3.5481886750e+00 2.0485476866e+00 3.5481886750e+00 
14300 6.3618006086e+00 9.5680765171e-03 2.0483273209e+00 -3.5478069903e+00 2.0483273209e+00 3.5478069903e+00 
14400 6.3616590830e+00 1.0050057802e-02 2.0480937670e+00 -3.5474024631e+00 2.0480937670e+00 3.5474024631e+00 
14500 6.3615267024e+00 1.0475899950e-02 2.0478484204e+00 -3.5469775103e+00 2.0478484204e+00 3.5469775103e+00 
14600 6.3614040313e+00 1.0846877618e-02 2.0475926475e+00 -3.5465344987e+00 2.0475926475e+00 3.5465344987e+00 
14700 6.3612915314e+00 1.1164336839e-02 2.0473277842e+00 -3.5460757420e+00 2.0473277842e+00 3.5460757420e+00 
14800 6.3611895614e+00 1.1429689471e-02 2.0470551339e+00 -3.5456034979e+00 2.0470551339e+00 3.5456034979e+00 
14900 6.3610983792e+00 1.1644407690e-02 2.0467759663e+00 -3.5451199654e+00 2.0467759663e+00 3.5451199654e+00 
15000 6.3610181437e+00 1.1810018540e-02 2.0464915156e+00 -3.5446272823e+00 2.0464915156e+00 3.5446272823e+00 
15100 6.3609489183e+00 1.1928098570e-02 2.0462029793e+00 -3.5441275228e+00 2.0462029793e+00 3.5441275228e+00 
15200 6.3608906748e+00 1.2000268564e-02 2.0459115172e+00 -3.5436226955e+00 2.0459115172e+00 3.5436226955e+00 
15300 6.3608432975e+00 1.2028188391e-02 2.0456182498e+00 -3.5431147415e+00 2.0456182498e+00 3.5431147415e+00 
15400 6.3608065891e+00 1.2013551982e-02 2.0453242580e+00 -3.5426055328e+00 2.0453242580e+00 3.5426055328e+00 
15500 6.3607802755e+00 1.1958082450e-02 2.0450305817e+00 -3.5420968705e+00 2.0450305817e+00 3.5420968705e+00 
15600 6.3607640125e+00 1.1863527351e-02 2.0447382194e+00 -3.5415904841e+00 2.0447382194e+00 3.5415904841e+00 
15700 6.3607573920e+00 1.1731654102e-02 2.0444481273e+00 -3.5410880299e+00 2.0444481273e+00 3.5410880299e+00 
15800 6.3607599485e+00 1.1564245566e-02 2.0441612191e+00 -3.5405910903e+00 2.0441612191e+00 3.5405910903e+00 
15900 6.3607711662e+00 1.1363095786e-02 2.0438783652e+00 -3.5401011730e+00 2.0438783652e+00 3.5401011730e+00 
16000 6.3607904857e+00 1.1130005892e-02 2.0436003927e+00 -3.5396197106e+00 2.0436003927e+00 3.5396197106e+00 
16100 6.3608173113e+00 1.0866780175e-02 2.0433280851e+00 -3.5391480600e+00 2.0433280851e+00 3.5391480600e+00 
16200 6.3608510176e+00 1.0575222315e-02 2.0430621821e+00 -3.5386875023e+00 2.0430621821e+00 3.5386875023e+00 
16300 6.3608909566e+00 1.0257131783e-02 2.0428033794e+00 -3.5382392430e+00 2.0428033794e+00 3.5382392430e+00 
16400 6.3609364642e+00 9.9143003943e-03 2.0425523292e+00 -3.5378044114e+00 2.0425523292e+00 3.5378044114e+00 
16500 6.3609868671e+00 9.5485090279e-03 2.0423096401e+00 -3.5373840615e+00 2.0423096401e+00 3.5373840615e+00 
16600 6.3610414882e+00 9.1615244948e-03 2.0420758772e+00 -3.5369791722e+00 2.0420758772e+00 3.5369791722e+00 
16700 6.3610996533e+00 8.7550965614e-03 2.0418515624e+00 -3.5365906476e+00 2.0418515624e+00 3.5365906476e+00 
16800 6.3611606962e+00 8.3309551194e-03 2.0416371750e+00 -3.5362193177e+00 2.0416371750e+00 3.5362193177e+00 
16900 6.3612239639e+00 7.8908075015e-03 2.0414331521e+00 -3.5358659397e+00 2.0414331521e+00 3.5358659397e+00 
17000 6.3612888216e+00 7.4363359373e-03 2.0412398888e+00 -3.5355311978e+00 2.0412398888e+00 3.5355311978e+00 
17100 6.3613546565e+00 6.9691951482e-03 2.0410577390e+00 -3.5352157052e+00 2.0410577390e+00 3.5352157052e+00 
17200 6.3614208825e+00 6.4910100752e-03 2.0408870163e+00 -3.5349200048e+00 2.0408870163e+00 3.5349200048e+00 
17300 6.3614869428e+00 6.0033737395e-03 2.0407279942e+00 -3.5346445703e+00 2.0407279942e+00 3.5346445703e+00 
17400 6.3615523135e+00 5.5078452306e-03 2.0405809069e+00 -3.5343898077e+00 2.0405809069e+00 3.5343898077e+00 
17500 6.3616165056e+00 5.0059478205e-03 2.0404459506e+00 -3.5341560566e+00 2.0404459506e+00 3.5341560566e+00 
17600 6.3616790678e+00 4.4991672009e-03 2.0403232839e+00 -3.5339435915e+00 2.0403232839e+00 3.5339435915e+00 
17700 6.3617395872e+00 3.9889498415e-03 2.0402130286e+00 -3.5337526238e+00 2.0402130286e+00 3.5337526238e+00 
17800 6.3617976914e+00 3.4767014665e-03 2.0401152712e+00 -3.5335833031e+00 2.0401152712e+00 3.5335833031e+00 
17900 6.3618530485e+00 2.9637856486e-03 2.0400300634e+00 -3.5334357187e+00 2.0400300634e+00 3.5334357187e+00 
18000 6.3619053683e+00 2.4515225171e-03 2.0399574231e+00 -3.5333099020e+00 2.0399574231e+00 3.5333099020e+00 
18100 6.3619544017e+00 1.9411875802e-03 2.0398973358e+00 -3.5332058278e+00 2.0398973358e+00 3.5332058278e+00 
18200 6.3619999404e+00 1.4340106575e-03 2.0398497554e+00 -3.5331234162e+00 2.0398497554e+00 3.5331234162e+00 
18300 6.3620418167e+00 9.3117492403e-04 2.0398146056e+00 -3.5330625350e+00 2.0398146056e+00 3.5330625350e+00 
18400 6.3620799022e+00 4.3381606191e-04 2.0397917807e+00 -3.5330230010e+00 2.0397917807e+00 3.5330230010e+00 
18500 6.3621141066e+00 -5.6978481025e-05 2.0397811469e+00 -3.5330045827e+00 2.0397811469e+00 3.5330045827e+00 
18600 6.3621443776e+00 -5.4113238590e-04 2.0397811469e+00 -3.5330045827e+00 2.0397811469e+00 3.5330045827e+00 
18700 6.3621706952e+00 -1.0157212616e-03 2.0397944113e+00 -3.5330275574e+00 2.0397944113e+00 3.5330275574e+00 
18800 6.3621930739e+00 -1.4807790693e-03 2.0398193090e+00 -3.5330706815e+00 2.0398193090e+00 3.5330706815e+00 
18900 6.3622115592e+00 -1.9354166047e-03 2.0398556060e+00 -3.5331335496e+00 2.0398556060e+00 3.5331335496e+00 
19000 6.3622262256e+00 -2.3787950546e-03 2.0399030462e+00 -3.5332157185e+00 2.0399030462e+00 3.5332157185e+00 
19100 6.3622371742e+00 -2.8101261309e-03 2.0399613530e+00 -3.5333167089e+00 2.0399613530e+00 3.5333167089e+00 
19200 6.3622445303e+00 -3.2286721095e-03 2.0400302304e+00 -3.5334360080e+00 2.0400302304e+00 3.5334360080e+00 
19300 6.3622484412e+00 -3.6337457773e-03 2.0401093638e+00 -3.5335730711e+00 2.0401093638e+00 3.5335730711e+00 
19400 6.3622490735e+00 -4.0247102880e-03 2.0401984221e+00 -3.5337273246e+00 2.0401984221e+00 3.5337273246e+00 
19500 6.3622466108e+00 -4.4009789309e-03 2.0402970582e+00 -3.5338981673e+00 2.0402970582e+00 3.5338981673e+00 
19600 6.3622412511e+00 -4.7620148139e-03 2.0404049105e+00 -3.5340849731e+00 2.0404049105e+00 3.5340849731e+00 
19700 6.3622332047e+00 -5.1073304643e-03 2.0405216045e+00 -3.5342870930e+00 2.0405216045e+00 3.5342870930e+00 
19800 6.3622226915e+00 -5.4364873487e-03 2.0406467535e+00 -3.5345038573e+00 2.0406467535e+00 3.5345038573e+00 
19900 6.3622099386e+00 -5.7490953172e-03 2.0407799599e+00 -3.5347345777e+00 2.0407799599e+00 3.5347345777e+00 
20000 6.3621951787e+00 -6.0448119727e-03 2.0409208169e+00 -3.5349785491e+00 2.0409208169e+00 3.5349785491e+00 
20100 6.3621786472e+00 -6.3233419690e-03 2.0410689090e+00 -3.5352350521e+00 2.0410689090e+00 3.5352350521e+00 
20200 6.3621605807e+00 -6.5844362412e-03 2.0412238137e+00 -3.5355033549e+00 2.0412238137e+00 3.5355033549e+00 
20300 6.3621412148e+00 -6.8278911716e-03 2.0413851023e+00 -3.5357827150e+00 2.0413851023e+00 3.5357827150e+00 
20400 6.3621207822e+00 -7.0535476932e-03 2.0415523413e+00 -3.5360723814e+00 2.0415523413e+00 3.5360723814e+00 
20500 6.3620995116e+00 -7.2612903359e-03 2.0417250933e+00 -3.5363715967e+00 2.0417250933e+00 3.5363715967e+00 
20600 6.3620776253e+00 -7.4510462163e-03 2.0419029183e+00 -3.5366795987e+00 2.0419029183e+00 3.5366795987e+00 
20700 6.3620553385e+00 -7.6227839772e-03 2.0420853746e+00 -3.5369956221e+00 2.0420853746e+00 3.5369956221e+00 
20800 6.3620328576e+00 -7.7765126772e-03 2.0422720195e+00 -3.5373189007e+00 2.0422720195e+00 3.5373189007e+00 
20900 6.3620103795e+00 -7.9122806361e-03 2.0424624113e+00 -3.5376486689e+00 2.0424624113e+00 3.5376486689e+00 
21000 6.3619880899e+00 -8.0301742375e-03 2.0426561090e+00 -3.5379841631e+00 2.0426561090e+00 3.5379841631e+00 
21100 6.3619661633e+00 -8.1303166937e-03 2.0428526742e+00 -3.5383246241e+00 2.0428526742e+00 3.5383246241e+00 
21200 6.3619447616e+00 -8.2128667739e-03 2.0430516716e+00 -3.5386692977e+00 2.0430516716e+00 3.5386692977e+00 
21300 6.3619240338e+00 -8.2780175010e-03 2.0432526700e+00 -3.5390174371e+00 2.0432526700e+00 3.5390174371e+00 
21400 6.3619041157e+00 -8.3259948187e-03 2.0434552429e+00 -3.5393683038e+00 2.0434552429e+00 3.5393683038e+00 
21500 6.3618851292e+00 -8.3570562323e-03 2.0436589698e+00 -3.5397211690e+00 2.0436589698e+00 3.5397211690e+00 
21600 6.3618671825e+00 -8.3714894274e-03 2.0438634363e+00 -3.5400753153e+00 2.0438634363e+00 3.5400753153e+00 
21700 6.3618503698e+00 -8.3696108670e-03 2.0440682354e+00 -3.5404300378e+00 2.0440682354e+00 3.5404300378e+00 
21800 6.3618347712e+00 -8.3517643723e-03 2.0442729681e+00 -3.5407846452e+00 2.0442729681e+00 3.5407846452e+00 
21900 6.3618204532e+00 -8.3183196890e-03 2.0444772437e+00 -3.5411384610e+00 2.0444772437e+00 3.5411384610e+00 
22000 6.3618074686e+00 -8.2696710419e-03 2.0446806810e+00 -3.5414908247e+00 2.0446806810e+00 3.5414908247e+00 
22100 6.3617958570e+00 -8.2062356807e-03 2.0448829083e+00 -3.5418410928e+00 2.0448829083e+00 3.5418410928e+00 
22200 6.3617856451e+00 -8.1284524192e-03 2.0450835646e+00 -3.5421886395e+00 2.0450835646e+00 3.5421886395e+00 
22300 6.3617768473e+00 -8.0367801718e-03 2.0452822993e+00 -3.5425328583e+00 2.0452822993e+00 3.5425328583e+00 
22400 6.3617694661e+00 -7.9316964880e-03 2.0454787736e+00 -3.5428731618e+00 2.0454787736e+00 3.5428731618e+00 
22500 6.3617634929e+00 -7.8136960891e-03 2.0456726603e+00 -3.5432089833e+00 2.0456726603e+00 3.5432089833e+00 
22600 6.3617589085e+00 -7.6832894080e-03 2.0458636444e+00 -3.5435397774e+00 2.0458636444e+00 3.5435397774e+00 
22700 6.3617556836e+00 -7.5410011363e-03 2.0460514234e+00 -3.5438650203e+00 2.0460514234e+00 3.5438650203e+00 
22800 6.3617537802e+00 -7.3873687788e-03 2.0462357080e+00 -3.5441842106e+00 2.0462357080e+00 3.5441842106e+00 
22900 6.3617531517e+00 -7.2229412196e-03 2.0464162219e+00 -3.5444968697e+00 2.0464162219e+00 3.5444968697e+00 
23000 6.3617537439e+00 -7.0482773009e-03 2.0465927022e+00 -3.5448025426e+00 2.0465927022e+00 3.5448025426e+00 
23100 6.3617554961e+00 -6.8639444170e-03 2.0467649000e+00 -3.5451007980e+00 2.0467649000e+00 3.5451007980e+00 
23200 6.3617583415e+00 -6.6705171256e-03 2.0469325802e+00 -3.5453912286e+00 2.0469325802e+00 3.5453912286e+00 
23300 6.3617622081e+00 -6.4685757787e-03 2.0470955217e+00 -3.5456734516e+00 2.0470955217e+00 3.5456734516e+00 
23400 6.3617670199e+00 -6.2587051737e-03 2.0472535177e+00 -3.5459471087e+00 2.0472535177e+00 3.5459471087e+00 
23500 6.3617726971e+00 -6.0414932294e-03 2.0474063758e+00 -3.5462118666e+00 2.0474063758e+00 3.5462118666e+00 
23600 6.3617791575e+00 -5.8175296857e-03 2.0475539177e+00 -3.5464674167e+00 2.0475539177e+00 3.5464674167e+00 
23700 6.3617863167e+00 -5.5874048305e-03 2.0476959798e+00 -3.5467134755e+00 2.0476959798e+00 3.5467134755e+00 
23800 6.3617940893e+00 -5.3517082562e-03 2.0478324128e+00 -3.5469497844e+00 2.0478324128e+00 3.5469497844e+00 
23900 6.3618023893e+00 -5.1110276452e-03 2.0479630819e+00 -3.5471761098e+00 2.0479630819e+00 3.5471761098e+00 
24000 6.3618111311e+00 -4.8659475885e-03 2.0480878663e+00 -3.5473922429e+00 2.0480878663e+00 3.5473922429e+00 
24100 6.3618202298e+00 -4.6170484374e-03 2.0482066599e+00 -3.5475979994e+00 2.0482066599e+00 3.5475979994e+00 
24200 6.3618296021e+00 -4.3649051908e-03 2.0483193705e+00 -3.5477932198e+00 2.0483193705e+00 3.5477932198e+00 
24300 6.3618391667e+00 -4.1100864180e-03 2.0484259199e+00 -3.5479777688e+00 2.0484259199e+00 3.5479777688e+00 
24400 6.3618488448e+00 -3.8531532211e-03 2.0485262437e+00 -3.5481515348e+00 2.0485262437e+00 3.5481515348e+00 
24500 6.3618585608e+00 -3.5946582347e-03 2.0486202914e+00 -3.5483144302e+00 2.0486202914e+00 3.5483144302e+00 
24600 6.3618682424e+00 -3.3351446681e-03 2.0487080257e+00 -3.5484663904e+00 2.0487080257e+00 3.5484663904e+00 
24700 6.3618778213e+00 -3.0751453869e-03 2.0487894225e+00 -3.5486073738e+00 2.0487894225e+00 3.5486073738e+00 
24800 6.3618872334e+00 -2.8151820393e-03 2.0488644708e+00 -3.5487373613e+00 2.0488644708e+00 3.5487373613e+00 
24900 6.3618964188e+00 -2.5557642243e-03 2.0489331723e+00 -3.5488563557e+00 2.0489331723e+00 3.5488563557e+00 
25000 6.3619053228e+00 -2.2973887051e-03 2.0489955407e+00 -3.5489643810e+00 2.0489955407e+00 3.5489643810e+00 
25100 6.3619138952e+00 -2.0405386680e-03 2.0490516023e+00 -3.5490614826e+00 2.0490516023e+00 3.5490614826e+00 
25200 6.3619220910e+00 -1.7856830259e-03 2.0491013948e+00 -3.5491477257e+00 2.0491013948e+00 3.5491477257e+00 
25300 6.3619298704e+00 -1.5332757698e-03 2.0491449673e+00 -3.5492231954e+00 2.0491449673e+00 3.5492231954e+00 
25400 6.3619371986e+00 -1.2837553658e-03 2.0491823800e+00 -3.5492879961e+00 2.0491823800e+00 3.5492879961e+00 
25500 6.3619440464e+00 -1.0375442001e-03 2.0492137037e+00 -3.5493422503e+00 2.0492137037e+00 3.5493422503e+00 
25600 6.3619503893e+00 -7.9504807082e-04 2.0492390194e+00 -3.5493860984e+00 2.0492390194e+00 3.5493860984e+00 
25700 6.3619562083e+00 -5.5665572828e-04 2.0492584180e+00 -3.5494196979e+00 2.0492584180e+00 3.5494196979e+00 
25800 6.3619614891e+00 -3.2273846176e-04 2.0492719999e+00 -3.5494432224e+00 2.0492719999e+00 3.5494432224e+00 
25900 6.3619662226e+00 -9.3649734536e-05 2.0492798744e+00 -3.5494568614e+00 2.0492798744e+00 3.5494568614e+00 
26000 6.3619704040e+00 1.3027513415e-04 2.0492821593e+00 -3.5494608190e+00 2.0492821593e+00 3.5494608190e+00 
26100 6.3619740334e+00 3.4871924005e-04 2.0492789808e+00 -3.5494553136e+00 2.0492789808e+00 3.5494553136e+00 
26200 6.3619771149e+00 5.6138431841e-04 2.0492704725e+00 -3.5494405768e+00 2.0492704725e+00 3.5494405768e+00 
26300 6.3619796568e+00 7.6799092239e-04 2.0492567753e+00 -3.5494168526e+00 2.0492567753e+00 3.5494168526e+00 
26400 6.3619816710e+00 9.6827855614e-04 2.0492380370e+00 -3.5493843970e+00 2.0492380370e+00 3.5493843970e+00 
26500 6.3619831730e+00 1.1620057633e-03 2.0492144118e+00 -3.5493434768e+00 2.0492144118e+00 3.5493434768e+00 
26600 6.3619841815e+00 1.3489501715e-03 2.0491860594e+00 -3.5492943690e+00 2.0491860594e+00 3.5492943690e+00 
26700 6.3619847180e+00 1.5289084944e-03 2.0491531452e+00 -3.5492373599e+00 2.0491531452e+00 3.5492373599e+00 
26800 6.3619848067e+00 1.7016964914e-03 2.0491158394e+00 -3.5491727444e+00 2.0491158394e+00 3.5491727444e+00 
26900 6.3619844739e+00 1.8671488870e-03 2.0490743168e+00 -3.5491008253e+00 2.0490743168e+00 3.5491008253e+00 
27000 6.3619837480e+00 2.0251192504e-03 2.0490287562e+00 -3.5490219120e+00 2.0490287562e+00 3.5490219120e+00 
27100 6.3619826589e+00 2.1754798368e-03 2.0489793399e+00 -3.5489363203e+00 2.0489793399e+00 3.5489363203e+00 
27200 6.3619812378e+00 2.3181213921e-03 2.0489262532e+00 -3.5488443715e+00 2.0489262532e+00 3.5488443715e+00 
27300 6.3619795170e+00 2.4529529217e-03 2.0488696843e+00 -3.5487463912e+00 2.0488696843e+00 3.5487463912e+00 
27400 6.3619775294e+00 2.5799014251e-03 2.0488098234e+00 -3.5486427092e+00 2.0488098234e+00 3.5486427092e+00 
27500 6.3619753082e+00 2.6989115986e-03 2.0487468628e+00 -3.5485336582e+00 2.0487468628e+00 3.5485336582e+00 
27600 6.3619728869e+00 2.8099455062e-03 2.0486809957e+00 -3.5484195731e+00 2.0486809957e+00 3.5484195731e+00 
27700 6.3619702988e+00 2.9129822220e-03 2.0486124167e+00 -3.5483007908e+00 2.0486124167e+00 3.5483007908e+00 
27800 6.3619675765e+00 3.0080174437e-03 2.0485413207e+00 -3.5481776488e+00 2.0485413207e+00 3.5481776488e+00 
27900 6.3619647524e+00 3.0950630809e-03 2.0484679026e+00 -3.5480504850e+00 2.0484679026e+00 3.5480504850e+00 
28000 6.3619618577e+00 3.1741468191e-03 2.0483923573e+00 -3.5479196366e+00 2.0483923573e+00 3.5479196366e+00 
28100 6.3619589226e+00 3.2453116599e-03 2.0483148788e+00 -3.5477854399e+00 2.0483148788e+00 3.5477854399e+00 
28200 6.3619559761e+00 3.3086154415e-03 2.0482356602e+00 -3.5476482294e+00 2.0482356602e+00 3.5476482294e+00 
28300 6.3619530456e+00 3.3641303388e-03 2.0481548933e+00 -3.5475083370e+00 2.0481548933e+00 3.5475083370e+00 
28400 6.3619501571e+00 3.4119423469e-03 2.0480727680e+00 -3.5473660917e+00 2.0480727680e+00 3.5473660917e+00 
28500 6.3619473348e+00 3.4521507479e-03 2.0479894721e+00 -3.5472218191e+00 2.0479894721e+00 3.5472218191e+00 
28600 6.3619446012e+00 3.4848675640e-03 2.0479051913e+00 -3.5470758403e+00 2.0479051913e+00 3.5470758403e+00 
28700 6.3619419766e+00 3.5102169979e-03 2.0478201081e+00 -3.5469284720e+00 2.0478201081e+00 3.5469284720e+00 
28800 6.3619394798e+00 3.5283348621e-03 2.0477344025e+00 -3.5467800256e+00 2.0477344025e+00 3.5467800256e+00 
28900 6.3619371271e+00 3.5393679997e-03 2.0476482510e+00 -3.5466308067e+00 2.0476482510e+00 3.5466308067e+00 
29000 6.3619349330e+00 3.5434736966e-03 2.0475618264e+00 -3.5464811150e+00 2.0475618264e+00 3.5464811150e+00 
29100 6.3619329101e+00 3.5408190880e-03 2.0474752979e+00 -3.5463312432e+00 2.0474752979e+00 3.5463312432e+00 
29200 6.3619310686e+00 3.5315805607e-03 2.0473888306e+00 -3.5461814774e+00 2.0473888306e+00 3.5461814774e+00 
29300 6.3619294169e+00 3.5159431515e-03 2.0473025852e+00 -3.5460320961e+00 2.0473025852e+00 3.5460320961e+00 
29400 6.3619279613e+00 3.4940999444e-03 2.0472167181e+00 -3.5458833699e+00 2.0472167181e+00 3.5458833699e+00 
29500 6.3619267062e+00 3.4662514676e-03 2.0471313809e+00 -3.5457355615e+00 2.0471313809e+00 3.5457355615e+00 
29600 6.3619256543e+00 3.4326050913e-03 2.0470467203e+00 -3.5455889250e+00 2.0470467203e+00 3.5455889250e+00 
29700 6.3619248061e+00 3.3933744276e-03 2.0469628780e+00 -3.5454437059e+00 2.0469628780e+00 3.5454437059e+00 
29800 6.3619241607e+00 3.3487787347e-03 2.0468799905e+00 -3.5453001406e+00 2.0468799905e+00 3.5453001406e+00 
29900 6.3619237155e+00 3.2990423250e-03 2.0467981891e+00 -3.5451584563e+00 2.0467981891e+00 3.5451584563e+00 
30000 6.3619234663e+00 3.2443939799e-03 2.0467175993e+00 -3.5450188707e+00 2.0467175993e+00 3.5450188707e+00 
30100 6.3619234077e+00 3.1850663706e-03 2.0466383413e+00 -3.5448815919e+00 2.0466383413e+00 3.5448815919e+00 
30200 6.3619235327e+00 3.1212954879e-03 2.0465605297e+00 -3.5447468181e+00 2.0465605297e+00 3.5447468181e+00 
30300 6.3619238334e+00 3.0533200804e-03 2.0464842730e+00 -3.5446147378e+00 2.0464842730e+00 3.5446147378e+00 
30400 6.3619243009e+00 2.9813811023e-03 2.0464096743e+00 -3.5444855290e+00 2.0464096743e+00 3.5444855290e+00 
30500 6.3619249250e+00 2.9057211726e-03 2.0463368306e+00 -3.5443593599e+00 2.0463368306e+00 3.5443593599e+00 
30600 6.3619256950e+00 2.8265840454e-03 2.0462658329e+00 -3.5442363883e+00 2.0462658329e+00 3.5442363883e+00 
30700 6.3619265997e+00 2.7442140926e-03 2.0461967664e+00 -3.5441167616e+00 2.0461967664e+00 3.5441167616e+00 
30800 6.3619276269e+00 2.6588557992e-03 2.0461297103e+00 -3.5440006171e+00 2.0461297103e+00 3.5440006171e+00 
30900 6.3619287644e+00 2.5707532732e-03 2.0460647378e+00 -3.5438880815e+00 2.0460647378e+00 3.5438880815e+00 
31000 6.3619299994e+00 2.4801497685e-03 2.0460019162e+00 -3.5437792713e+00 2.0460019162e+00 3.5437792713e+00 
31100 6.3619313192e+00 2.3872872234e-03 2.0459413069e+00 -3.5436742928e+00 2.0459413069e+00 3.5436742928e+00 
31200 6.3619327109e+00 2.2924058140e-03 2.0458829651e+00 -3.5435732419e+00 2.0458829651e+00 3.5435732419e+00 
31300 6.3619341616e+00 2.1957435238e-03 2.0458269405e+00 -3.5434762045e+00 2.0458269405e+00 3.5434762045e+00 
31400 6.3619356586e+00 2.0975357282e-03 2.0457732768e+00 -3.5433832562e+00 2.0457732768e+00 3.5433832562e+00 
31500 6.3619371893e+00 1.9980147970e-03 2.0457220119e+00 -3.5432944628e+00 2.0457220119e+00 3.5432944628e+00 
31600 6.3619387418e+00 1.8974097127e-03 2.0456731781e+00 -3.5432098802e+00 2.0456731781e+00 3.5432098802e+00 
31700 6.3619403042e+00 1.7959457060e-03 2.0456268021e+00 -3.5431295546e+00 2.0456268021e+00 3.5431295546e+00 
31800 6.3619418652e+00 1.6938439086e-03 2.0455829051e+00 -3.5430535227e+00 2.0455829051e+00 3.5430535227e+00 
31900 6.3619434142e+00 1.5913210239e-03 2.0455415028e+00 -3.5429818118e+00 2.0455415028e+00 3.5429818118e+00 
32000 6.3619449410e+00 1.4885890140e-03 2.0455026056e+00 -3.5429144399e+00 2.0455026056e+00 3.5429144399e+00 
32100 6.3619464362e+00 1.3858548062e-03 2.0454662188e+00 -3.5428514161e+00 2.0454662188e+00 3.5428514161e+00 
32200 6.3619478911e+00 1.2833200158e-03 2.0454323426e+00 -3.5427927409e+00 2.0454323426e+00 3.5427927409e+00 
32300 6.3619492975e+00 1.1811806872e-03 2.0454009723e+00 -3.5427384059e+00 2.0454009723e+00 3.5427384059e+00 
32400 6.3619506483e+00 1.0796270531e-03 2.0453720983e+00 -3.5426883947e+00 2.0453720983e+00 3.5426883947e+00 
32500 6.3619519368e+00 9.7884331092e-04 2.0453457065e+00 -3.5426426826e+00 2.0453457065e+00 3.5426426826e+00 
32600 6.3619531575e+00 8.7900741723e-04 2.0453217780e+00 -3.5426012372e+00 2.0453217780e+00 3.5426012372e+00 
32700 6.3619543054e+00 7.8029089978e-04 2.0453002897e+00 -3.5425640186e+00 2.0453002897e+00 3.5425640186e+00 
32800 6.3619553764e+00 6.8285868691e-04 2.0452812146e+00 -3.5425309794e+00 2.0452812146e+00 3.5425309794e+00 
32900 6.3619563672e+00 5.8686895433e-04 2.0452645211e+00 -3.5425020654e+00 2.0452645211e+00 3.5425020654e+00 
33000 6.3619572752e+00 4.9247298900e-04 2.0452501741e+00 -3.5424772157e+00 2.0452501741e+00 3.5424772157e+00 
33100 6.3619580987e+00 3.9981507002e-04 2.0452381346e+00 -3.5424563628e+00 2.0452381346e+00 3.5424563628e+00 
33200 6.3619588364e+00 3.0903236616e-04 2.0452283604e+00 -3.5424394332e+00 2.0452283604e+00 3.5424394332e+00 
33300 6.3619594882e+00 2.2025484985e-04 2.0452208054e+00 -3.5424263477e+00 2.0452208054e+00 3.5424263477e+00 
33400 6.3619600542e+00 1.3360522739e-04 2.0452154208e+00 -3.5424170212e+00 2.0452154208e+00 3.5424170212e+00 
33500 6.3619605355e+00 4.9198884993e-05 2.0452121545e+00 -3.5424113638e+00 2.0452121545e+00 3.5424113638e+00 
33600 6.3619609334e+00 -3.2032535250e-05 2.0452121545e+00 -3.5424113638e+00 2.0452121545e+00 3.5424113638e+00 
33700 6.3619612502e+00 -1.1218028473e-04 2.0452121545e+00 -3.5424113638e+00 2.0452121545e+00 3.5424113638e+00 
33800 6.3619614885e+00 -1.8924082614e-04 2.0452148970e+00 -3.5424161140e+00 2.0452148970e+00 3.5424161140e+00 
33900 6.3619616512e+00 -2.6367020406e-04 2.0452195234e+00 -3.5424241272e+00 2.0452195234e+00 3.5424241272e+00 
34000 6.3619617419e+00 -3.3538991598e-04 2.0452259695e+00 -3.5424352921e+00 2.0452259695e+00 3.5424352921e+00 
34100 6.3619617644e+00 -4.0432878856e-04 2.0452341688e+00 -3.5424494937e+00 2.0452341688e+00 3.5424494937e+00 
34200 6.3619617228e+00 -4.7042293042e-04 2.0452440535e+00 -3.5424666145e+00 2.0452440535e+00 3.5424666145e+00 
34300 6.3619616216e+00 -5.3361567187e-04 2.0452555539e+00 -3.5424865338e+00 2.0452555539e+00 3.5424865338e+00 
34400 6.3619614654e+00 -5.9385749232e-04 2.0452685991e+00 -3.5425091288e+00 2.0452685991e+00 3.5425091288e+00 
34500 6.3619612591e+00 -6.5110593572e-04 2.0452831170e+00 -3.5425342744e+00 2.0452831170e+00 3.5425342744e+00 
34600 6.3619610076e+00 -7.0532551446e-04 2.0452990342e+00 -3.5425618440e+00 2.0452990342e+00 3.5425618440e+00 
34700 6.3619607159e+00 -7.5648760223e-04 2.0453162769e+00 -3.5425917091e+00 2.0453162769e+00 3.5425917091e+00 
34800 6.3619603891e+00 -8.0457031635e-04 2.0453347701e+00 -3.5426237402e+00 2.0453347701e+00 3.5426237402e+00 
34900 6.3619600323e+00 -8.4955839001e-04 2.0453544385e+00 -3.5426578070e+00 2.0453544385e+00 3.5426578070e+00 
35000 6.3619596505e+00 -8.9144303490e-04 2.0453752066e+00 -3.5426937783e+00 2.0453752066e+00 3.5426937783e+00 
35100 6.3619592486e+00 -9.3022179483e-04 2.0453969983e+00 -3.5427315226e+00 2.0453969983e+00 3.5427315226e+00 
35200 6.3619588315e+00 -9.6589839067e-04 2.0454197377e+00 -3.5427709085e+00 2.0454197377e+00 3.5427709085e+00 
35300 6.3619584040e+00 -9.9848255728e-04 2.0454433490e+00 -3.5428118045e+00 2.0454433490e+00 3.5428118045e+00 
35400 6.3619579704e+00 -1.0279898728e-03 2.0454677565e+00 -3.5428540796e+00 2.0454677565e+00 3.5428540796e+00 
35500 6.3619575352e+00 -1.0544415810e-03 2.0454928851e+00 -3.5428976034e+00 2.0454928851e+00 3.5428976034e+00 
35600 6.3619571024e+00 -1.0778644069e-03 2.0455186599e+00 -3.5429422467e+00 2.0455186599e+00 3.5429422467e+00 
35700 6.3619566759e+00 -1.0982903665e-03 2.0455450069e+00 -3.5429878811e+00 2.0455450069e+00 3.5429878811e+00 
35800 6.3619562593e+00 -1.1157565708e-03 2.0455718529e+00 -3.5430343797e+00 2.0455718529e+00 3.5430343797e+00 
35900 6.3619558560e+00 -1.1303050249e-03 2.0455991254e+00 -3.5430816171e+00 2.0455991254e+00 3.5430816171e+00 
36000 6.3619554689e+00 -1.1419824229e-03 2.0456267532e+00 -3.5431294699e+00 2.0456267532e+00 3.5431294699e+00 
36100 6.3619551008e+00 -1.1508399378e-03 2.0456546660e+00 -3.5431778163e+00 2.0456546660e+00 3.5431778163e+00 
36200 6.3619547542e+00 -1.1569330091e-03 2.0456827950e+00 -3.5432265371e+00 2.0456827950e+00 3.5432265371e+00 
36300 6.3619544311e+00 -1.1603211263e-03 2.0457110725e+00 -3.5432755152e+00 2.0457110725e+00 3.5432755152e+00 
36400 6.3619541335e+00 -1.1610676108e-03 2.0457394324e+00 -3.5433246360e+00 2.0457394324e+00 3.5433246360e+00 
36500 6.3619538628e+00 -1.1592393948e-03 2.0457678102e+00 -3.5433737877e+00 2.0457678102e+00 3.5433737877e+00 
36600 6.3619536203e+00 -1.1549067990e-03 2.0457961429e+00 -3.5434228614e+00 2.0457961429e+00 3.5434228614e+00 
36700 6.3619534069e+00 -1.1481433099e-03 2.0458243693e+00 -3.5434717509e+00 2.0458243693e+00 3.5434717509e+00 
36800 6.3619532232e+00 -1.1390253546e-03 2.0458524300e+00 -3.5435203535e+00 2.0458524300e+00 3.5435203535e+00 
36900 6.3619530697e+00 -1.1276320778e-03 2.0458802675e+00 -3.5435685695e+00 2.0458802675e+00 3.5435685695e+00 
37000 6.3619529464e+00 -1.1140451164e-03 2.0459078261e+00 -3.5436163025e+00 2.0459078261e+00 3.5436163025e+00 
37100 6.3619528532e+00 -1.0983483771e-03 2.0459350524e+00 -3.5436634597e+00 2.0459350524e+00 3.5436634597e+00 
37200 6.3619527897e+00 -1.0806278134e-03 2.0459618946e+00 -3.5437099519e+00 2.0459618946e+00 3.5437099519e+00 
37300 6.3619527553e+00 -1.0609712049e-03 2.0459883035e+00 -3.5437556934e+00 2.0459883035e+00 3.5437556934e+00 
37400 6.3619527493e+00 -1.0394679381e-03 2.0460142316e+00 -3.5438006022e+00 2.0460142316e+00 3.5438006022e+00 
37500 6.3619527705e+00 -1.0162087896e-03 2.0460396340e+00 -3.5438446003e+00 2.0460396340e+00 3.5438446003e+00 
37600 6.3619528178e+00 -9.9128571200e-04 2.0460644676e+00 -3.5438876134e+00 2.0460644676e+00 3.5438876134e+00 
37700 6.3619528900e+00 -9.6479162244e-04 2.0460886918e+00 -3.5439295710e+00 2.0460886918e+00 3.5439295710e+00 
37800 6.3619529855e+00 -9.3682019473e-04 2.0461122684e+00 -3.5439704068e+00 2.0461122684e+00 3.5439704068e+00 
37900 6.3619531028e+00 -9.0746565503e-04 2.0461351611e+00 -3.5440100581e+00 2.0461351611e+00 3.5440100581e+00 
38000 6.3619532402e+00 -8.7682258150e-04 2.0461573362e+00 -3.5440484666e+00 2.0461573362e+00 3.5440484666e+00 
38100 6.3619533960e+00 -8.4498570815e-04 2.0461787624e+00 -3.5440855778e+00 2.0461787624e+00 3.5440855778e+00 
38200 6.3619535683e+00 -8.1204973331e-04 2.0461994103e+00 -3.5441213410e+00 2.0461994103e+00 3.5441213410e+00 
38300 6.3619537553e+00 -7.7810913282e-04 2.0462192532e+00 -3.5441557100e+00 2.0462192532e+00 3.5441557100e+00 
38400 6.3619539552e+00 -7.4325797834e-04 2.0462382666e+00 -3.5441886421e+00 2.0462382666e+00 3.5441886421e+00 
38500 6.3619541659e+00 -7.0758976097e-04 2.0462564282e+00 -3.5442200989e+00 2.0462564282e+00 3.5442200989e+00 
38600 6.3619543857e+00 -6.7119722031e-04 2.0462737180e+00 -3.5442500458e+00 2.0462737180e+00 3.5442500458e+00 
38700 6.3619546127e+00 -6.3417217939e-04 2.0462901185e+00 -3.5442784523e+00 2.0462901185e+00 3.5442784523e+00 
38800 6.3619548450e+00 -5.9660538536e-04 2.0463056142e+00 -3.5443052916e+00 2.0463056142e+00 3.5443052916e+00 
38900 6.3619550808e+00 -5.5858635640e-04 2.0463201919e+00 -3.5443305408e+00 2.0463201919e+00 3.5443305408e+00 
39000 6.3619553185e+00 -5.2020323484e-04 2.0463338404e+00 -3.5443541809e+00 2.0463338404e+00 3.5443541809e+00 
39100 6.3619555563e+00 -4.8154264667e-04 2.0463465511e+00 -3.5443761963e+00 2.0463465511e+00 3.5443761963e+00 
39200 6.3619557927e+00 -4.4268956759e-04 2.0463583170e+00 -3.5443965755e+00 2.0463583170e+00 3.5443965755e+00 
39300 6.3619560261e+00 -4.0372719566e-04 2.0463691335e+00 -3.5444153103e+00 2.0463691335e+00 3.5444153103e+00 
39400 6.3619562552e+00 -3.6473683075e-04 2.0463789980e+00 -3.5444323961e+00 2.0463789980e+00 3.5444323961e+00 
39500 6.3619564787e+00 -3.2579776071e-04 2.0463879098e+00 -3.5444478317e+00 2.0463879098e+00 3.5444478317e+00 
39600 6.3619566953e+00 -2.8698715448e-04 2.0463958701e+00 -3.5444616194e+00 2.0463958701e+00 3.5444616194e+00 
39700 6.3619569041e+00 -2.4837996206e-04 2.0464028821e+00 -3.5444737645e+00 2.0464028821e+00 3.5444737645e+00 
39800 6.3619571039e+00 -2.1004882150e-04 2.0464089508e+00 -3.5444842758e+00 2.0464089508e+00 3.5444842758e+00 
39900 6.3619572940e+00 -1.7206397277e-04 2.0464140829e+00 -3.5444931650e+00 2.0464140829e+00 3.5444931650e+00 
40000 6.3619574736e+00 -1.3449317867e-04 2.0464182870e+00 -3.5445004466e+00 2.0464182870e+00 3.5445004466e+00 
40100 6.3619576421e+00 -9.7401652667e-05 2.0464215730e+00 -3.5445061382e+00 2.0464215730e+00 3.5445061382e+00 
40200 6.3619577989e+00 -6.0851993681e-05 2.0464239528e+00 -3.5445102601e+00 2.0464239528e+00 3.5445102601e+00 
40300 6.3619579438e+00 -2.5920016258e-05 2.0464239528e+00 -3.5445102601e+00 2.0464239528e+00 3.5445102601e+00 
40400 6.3619580762e+00 8.9463553167e-06 2.0464239528e+00 -3.5445102601e+00 2.0464239528e+00 3.5445102601e+00 
40500 6.3619581961e+00 4.3685415494e-05 2.0464239528e+00 -3.5445102601e+00 2.0464239528e+00 3.5445102601e+00 
40600 6.3619583035e+00 7.8237473239e-05 2.0464239528e+00 -3.5445102601e+00 2.0464239528e+00 3.5445102601e+00 
40700 6.3619583984e+00 1.1123854728e-04 2.0464220413e+00 -3.5445069492e+00 2.0464220413e+00 3.5445069492e+00 
40800 6.3619584808e+00 1.4337975159e-04 2.0464193234e+00 -3.5445022417e+00 2.0464193234e+00 3.5445022417e+00 
40900 6.3619585511e+00 1.7461805732e-04 2.0464158202e+00 -3.5444961740e+00 2.0464158202e+00 3.5444961740e+00 
41000 6.3619586093e+00 2.0491332954e-04 2.0464115538e+00 -3.5444887843e+00 2.0464115538e+00 3.5444887843e+00 
41100 6.3619586561e+00 2.3422833336e-04 2.0464065471e+00 -3.5444801126e+00 2.0464065471e+00 3.5444801126e+00 
41200 6.3619586916e+00 2.6252873401e-04 2.0464008242e+00 -3.5444702002e+00 2.0464008242e+00 3.5444702002e+00 
41300 6.3619587165e+00 2.8978309121e-04 2.0463944098e+00 -3.5444590901e+00 2.0463944098e+00 3.5444590901e+00 
41400 6.3619587313e+00 3.1596284771e-04 2.0463873295e+00 -3.5444468266e+00 2.0463873295e+00 3.5444468266e+00 
41500 6.3619587366e+00 3.4104231244e-04 2.0463796095e+00 -3.5444334552e+00 2.0463796095e+00 3.5444334552e+00 
41600 6.3619587330e+00 3.6499863824e-04 2.0463712767e+00 -3.5444190223e+00 2.0463712767e+00 3.5444190223e+00 
41700 6.3619587212e+00 3.8781179452e-04 2.0463623585e+00 -3.5444035756e+00 2.0463623585e+00 3.5444035756e+00 
41800 6.3619587019e+00 4.0946453489e-04 2.0463528828e+00 -3.5443871633e+00 2.0463528828e+00 3.5443871633e+00 
41900 6.3619586758e+00 4.2994236002e-04 2.0463428781e+00 -3.5443698346e+00 2.0463428781e+00 3.5443698346e+00 
42000 6.3619586437e+00 4.4923347601e-04 2.0463323730e+00 -3.5443516392e+00 2.0463323730e+00 3.5443516392e+00 
42100 6.3619586062e+00 4.6732874828e-04 2.0463213964e+00 -3.5443326272e+00 2.0463213964e+00 3.5443326272e+00 
42200 6.3619585642e+00 4.8422165139e-04 2.0463099777e+00 -3.5443128494e+00 2.0463099777e+00 3.5443128494e+00 
42300 6.3619585183e+00 4.9990821483e-04 2.0462981461e+00 -3.5442923565e+00 2.0462981461e+00 3.5442923565e+00 
42400 6.3619584693e+00 5.1438696516e-04 2.0462859312e+00 -3.5442711996e+00 2.0462859312e+00 3.5442711996e+00 
42500 6.3619584178e+00 5.2765886456e-04 2.0462733624e+00 -3.5442494299e+00 2.0462733624e+00 3.5442494299e+00 
42600 6.3619583647e+00 5.3972724606e-04 2.0462604693e+00 -3.5442270983e+00 2.0462604693e+00 3.5442270983e+00 
42700 6.3619583104e+00 5.5059774579e-04 2.0462472811e+00 -3.5442042558e+00 2.0462472811e+00 3.5442042558e+00 
42800 6.3619582558e+00 5.6027823224e-04 2.0462338273e+00 -3.5441809531e+00 2.0462338273e+00 3.5441809531e+00 
42900 6.3619582013e+00 5.6877873291e-04 2.0462201369e+00 -3.5441572405e+00 2.0462201369e+00 3.5441572405e+00 
43000 6.3619581476e+00 5.7611135860e-04 2.0462062386e+00 -3.5441331680e+00 2.0462062386e+00 3.5441331680e+00 
43100 6.3619580951e+00 5.8229022534e-04 2.0461921611e+00 -3.5441087850e+00 2.0461921611e+00 3.5441087850e+00 
43200 6.3619580444e+00 5.8733137450e-04 2.0461779324e+00 -3.5440841403e+00 2.0461779324e+00 3.5440841403e+00 
43300 6.3619579959e+00 5.9125269095e-04 2.0461635805e+00 -3.5440592821e+00 2.0461635805e+00 3.5440592821e+00 
43400 6.3619579500e+00 5.9407381979e-04 2.0461491327e+00 -3.5440342577e+00 2.0461491327e+00 3.5440342577e+00 
43500 6.3619579070e+00 5.9581608163e-04 2.0461346159e+00 -3.5440091138e+00 2.0461346159e+00 3.5440091138e+00 
43600 6.3619578674e+00 5.9650238678e-04 2.0461200563e+00 -3.5439838960e+00 2.0461200563e+00 3.5439838960e+00 
43700 6.3619578313e+00 5.9615714844e-04 2.0461054799e+00 -3.5439586489e+00 2.0461054799e+00 3.5439586489e+00 
43800 6.3619577991e+00 5.9480619520e-04 2.0460909118e+00 -3.5439334162e+00 2.0460909118e+00 3.5439334162e+00 
43900 6.3619577708e+00 5.9247668296e-04 2.0460763767e+00 -3.5439082406e+00 2.0460763767e+00 3.5439082406e+00 
44000 6.3619577466e+00 5.8919700650e-04 2.0460618983e+00 -3.5438831634e+00 2.0460618983e+00 3.5438831634e+00 
44100 6.3619577266e+00 5.8499671086e-04 2.0460475000e+00 -3.5438582248e+00 2.0460475000e+00 3.5438582248e+00 
44200 6.3619577109e+00 5.7990640282e-04 2.0460332043e+00 -3.5438334638e+00 2.0460332043e+00 3.5438334638e+00 
44300 6.3619576994e+00 5.7395766247e-04 2.0460190328e+00 -3.5438089181e+00 2.0460190328e+00 3.5438089181e+00 
44400 6.3619576923e+00 5.6718295521e-04 2.0460050066e+00 -3.5437846240e+00 2.0460050066e+00 3.5437846240e+00 
44500 6.3619576894e+00 5.5961554427e-04 2.0459911459e+00 -3.5437606165e+00 2.0459911459e+00 3.5437606165e+00 
44600 6.3619576905e+00 5.5128940393e-04 2.0459774700e+00 -3.5437369292e+00 2.0459774700e+00 3.5437369292e+00 
44700 6.3619576957e+00 5.4223913360e-04 2.0459639975e+00 -3.5437135941e+00 2.0459639975e+00 3.5437135941e+00 
44800 6.3619577048e+00 5.3249987289e-04 2.0459507461e+00 -3.5436906420e+00 2.0459507461e+00 3.5436906420e+00 
44900 6.3619577176e+00 5.2210721784e-04 2.0459377326e+00 -3.5436681020e+00 2.0459377326e+00 3.5436681020e+00 
45000 6.3619577339e+00 5.1109713842e-04 2.0459249730e+00 -3.5436460017e+00 2.0459249730e+00 3.5436460017e+00 
45100 6.3619577535e+00 4.9950589748e-04 2.0459124824e+00 -3.5436243674e+00 2.0459124824e+00 3.5436243674e+00 
45200 6.3619577761e+00 4.8736997120e-04 2.0459002750e+00 -3.5436032235e+00 2.0459002750e+00 3.5436032235e+00 
45300 6.3619578016e+00 4.7472597124e-04 2.0458883641e+00 -3.5435825933e+00 2.0458883641e+00 3.5435825933e+00 
45400 6.3619578296e+00 4.6161056862e-04 2.0458767622e+00 -3.5435624981e+00 2.0458767622e+00 3.5435624981e+00 
45500 6.3619578600e+00 4.4806041953e-04 2.0458654807e+00 -3.5435429580e+00 2.0458654807e+00 3.5435429580e+00 
45600 6.3619578924e+00 4.3411209308e-04 2.0458545303e+00 -3.5435239914e+00 2.0458545303e+00 3.5435239914e+00 
45700 6.3619579266e+00 4.1980200109e-04 2.0458439208e+00 -3.5435056151e+00 2.0458439208e+00 3.5435056151e+00 
45800 6.3619579622e+00 4.0516633010e-04 2.0458336609e+00 -3.5434878445e+00 2.0458336609e+00 3.5434878445e+00 
45900 6.3619579991e+00 3.9024097561e-04 2.0458237587e+00 -3.5434706934e+00 2.0458237587e+00 3.5434706934e+00 
46000 6.3619580369e+00 3.7506147851e-04 2.0458142212e+00 -3.5434541740e+00 2.0458142212e+00 3.5434541740e+00 
46100 6.3619580754e+00 3.5966296402e-04 2.0458050546e+00 -3.5434382970e+00 2.0458050546e+00 3.5434382970e+00 
46200 6.3619581143e+00 3.4408008300e-04 2.0457962644e+00 -3.5434230719e+00 2.0457962644e+00 3.5434230719e+00 
46300 6.3619581534e+00 3.2834695571e-04 2.0457878550e+00 -3.5434085063e+00 2.0457878550e+00 3.5434085063e+00 
46400 6.3619581924e+00 3.1249711813e-04 2.0457798300e+00 -3.5433946067e+00 2.0457798300e+00 3.5433946067e+00 
46500 6.3619582310e+00 2.9656347088e-04 2.0457721924e+00 -3.5433813780e+00 2.0457721924e+00 3.5433813780e+00 
46600 6.3619582692e+00 2.8057823061e-04 2.0457649442e+00 -3.5433688237e+00 2.0457649442e+00 3.5433688237e+00 
46700 6.3619583067e+00 2.6457288422e-04 2.0457580867e+00 -3.5433569461e+00 2.0457580867e+00 3.5433569461e+00 
46800 6.3619583432e+00 2.4857814553e-04 2.0457516203e+00 -3.5433457460e+00 2.0457516203e+00 3.5433457460e+00 
46900 6.3619583787e+00 2.3262391475e-04 2.0457455448e+00 -3.5433352230e+00 2.0457455448e+00 3.5433352230e+00 
47000 6.3619584129e+00 2.1673924051e-04 2.0457398593e+00 -3.5433253754e+00 2.0457398593e+00 3.5433253754e+00 
47100 6.3619584458e+00 2.0095228471e-04 2.0457345620e+00 -3.5433162001e+00 2.0457345620e+00 3.5433162001e+00 
47200 6.3619584771e+00 1.8529028993e-04 2.0457296505e+00 -3.5433076932e+00 2.0457296505e+00 3.5433076932e+00 
47300 6.3619585069e+00 1.6977954955e-04 2.0457251218e+00 -3.5432998492e+00 2.0457251218e+00 3.5432998492e+00 
47400 6.3619585349e+00 1.5444538053e-04 2.0457209721e+00 -3.5432926619e+00 2.0457209721e+00 3.5432926619e+00 
47500 6.3619585612e+00 1.3931209887e-04 2.0457171973e+00 -3.5432861236e+00 2.0457171973e+00 3.5432861236e+00 
47600 6.3619585857e+00 1.2440299761e-04 2.0457137923e+00 -3.5432802261e+00 2.0457137923e+00 3.5432802261e+00 
47700 6.3619586083e+00 1.0974032753e-04 2.0457107518e+00 -3.5432749596e+00 2.0457107518e+00 3.5432749596e+00 
47800 6.3619586290e+00 9.5345280324e-05 2.0457080696e+00 -3.5432703139e+00 2.0457080696e+00 3.5432703139e+00 
47900 6.3619586478e+00 8.1237974360e-05 2.0457057392e+00 -3.5432662776e+00 2.0457057392e+00 3.5432662776e+00 
48000 6.3619586648e+00 6.7437442936e-05 2.0457037536e+00 -3.5432628385e+00 2.0457037536e+00 3.5432628385e+00 
48100 6.3619586799e+00 5.5089605420e-05 2.0457037536e+00 -3.5432628385e+00 2.0457037536e+00 3.5432628385e+00 
48200 6.3619586932e+00 4.2865301056e-05 2.0457037536e+00 -3.5432628385e+00 2.0457037536e+00 3.5432628385e+00 
48300 6.3619587046e+00 3.0784826120e-05 2.0457037536e+00 -3.5432628385e+00 2.0457037536e+00 3.5432628385e+00 
48400 6.3619587142e+00 1.8867587953e-05 2.0457037536e+00 -3.5432628385e+00 2.0457037536e+00 3.5432628385e+00 
48500 6.3619587222e+00 7.1320927509e-06 2.0457037536e+00 -3.5432628385e+00 2.0457037536e+00 3.5432628385e+00 
48600 6.3619587285e+00 -4.4040644454e-06 2.0457037536e+00 -3.5432628385e+00 2.0457037536e+00 3.5432628385e+00 
48700 6.3619587334e+00 -1.5724207662e-05 2.0457037536e+00 -3.5432628385e+00 2.0457037536e+00 3.5432628385e+00 
48800 6.3619587369e+00 -2.6812585780e-05 2.0457037536e+00 -3.5432628385e+00 2.0457037536e+00 3.5432628385e+00 
48900 6.3619587390e+00 -3.7654376350e-05 2.0457037536e+00 -3.5432628385e+00 2.0457037536e+00 3.5432628385e+00 
49000 6.3619587400e+00 -4.8235687385e-05 2.0457037536e+00 -3.5432628385e+00 2.0457037536e+00 3.5432628385e+00 
49100 6.3619587399e+00 -5.8543557248e-05 2.0457037536e+00 -3.5432628385e+00 2.0457037536e+00 3.5432628385e+00 
49200 6.3619587389e+00 -6.8565952693e-05 2.0457037536e+00 -3.5432628385e+00 2.0457037536e+00 3.5432628385e+00 
49300 6.3619587370e+00 -7.8291765085e-05 2.0457037536e+00 -3.5432628385e+00 2.0457037536e+00 3.5432628385e+00 
49400 6.3619587342e+00 -8.6401502153e-05 2.0457056672e+00 -3.5432661529e+00 2.0457056672e+00 3.5432661529e+00 
49500 6.3619587307e+00 -9.4050996166e-05 2.0457077790e+00 -3.5432698106e+00 2.0457077790e+00 3.5432698106e+00 
49600 6.3619587266e+00 -1.0123830638e-04 2.0457100777e+00 -3.5432737921e+00 2.0457100777e+00 3.5432737921e+00 
49700 6.3619587220e+00 -1.0796244769e-04 2.0457125521e+00 -3.5432780779e+00 2.0457125521e+00 3.5432780779e+00 
49800 6.3619587171e+00 -1.1422336764e-04 2.0457151908e+00 -3.5432826484e+00 2.0457151908e+00 3.5432826484e+00 
49900 6.3619587118e+00 -1.2002192215e-04 2.0457179826e+00 -3.5432874839e+00 2.0457179826e+00 3.5432874839e+00 
50000 6.3619587064e+00 -1.2535985014e-04 2.0457209161e+00 -3.5432925648e+00 2.0457209161e+00 3.5432925648e+00 
50100 6.3619587010e+00 -1.3023974700e-04 2.0457239801e+00 -3.5432978717e+00 2.0457239801e+00 3.5432978717e+00 
50200 6.3619586955e+00 -1.3466503712e-04 2.0457271633e+00 -3.5433033852e+00 2.0457271633e+00 3.5433033852e+00 
50300 6.3619586901e+00 -1.3863994540e-04 2.0457304547e+00 -3.5433090861e+00 2.0457304547e+00 3.5433090861e+00 
50400 6.3619586849e+00 -1.4216946804e-04 2.0457338432e+00 -3.5433149551e+00 2.0457338432e+00 3.5433149551e+00 
50500 6.3619586799e+00 -1.4525934244e-04 2.0457373180e+00 -3.5433209736e+00 2.0457373180e+00 3.5433209736e+00 
50600 6.3619586752e+00 -1.4791601655e-04 2.0457408683e+00 -3.5433271229e+00 2.0457408683e+00 3.5433271229e+00 
50700 6.3619586709e+00 -1.5014661743e-04 2.0457444835e+00 -3.5433333847e+00 2.0457444835e+00 3.5433333847e+00 
50800 6.3619586670e+00 -1.5195891948e-04 2.0457481532e+00 -3.5433397408e+00 2.0457481532e+00 3.5433397408e+00 
50900 6.3619586635e+00 -1.5336131207e-04 2.0457518672e+00 -3.5433461737e+00 2.0457518672e+00 3.5433461737e+00 
51000 6.3619586605e+00 -1.5436276689e-04 2.0457556155e+00 -3.5433526659e+00 2.0457556155e+00 3.5433526659e+00 
51100 6.3619586581e+00 -1.5497280486e-04 2.0457593883e+00 -3.5433592005e+00 2.0457593883e+00 3.5433592005e+00 
51200 6.3619586563e+00 -1.5520146302e-04 2.0457631759e+00 -3.5433657610e+00 2.0457631759e+00 3.5433657610e+00 
51300 6.3619586550e+00 -1.5505926104e-04 2.0457669692e+00 -3.5433723311e+00 2.0457669692e+00 3.5433723311e+00 
51400 6.3619586543e+00 -1.5455716781e-04 2.0457707589e+00 -3.5433788951e+00 2.0457707589e+00 3.5433788951e+00 
51500 6.3619586542e+00 -1.5370656791e-04 2.0457745364e+00 -3.5433854379e+00 2.0457745364e+00 3.5433854379e+00 
51600 6.3619586547e+00 -1.5251922815e-04 2.0457782931e+00 -3.5433919447e+00 2.0457782931e+00 3.5433919447e+00 
51700 6.3619586559e+00 -1.5100726428e-04 2.0457820208e+00 -3.5433984012e+00 2.0457820208e+00 3.5433984012e+00 
51800 6.3619586576e+00 -1.4918310779e-04 2.0457857115e+00 -3.5434047936e+00 2.0457857115e+00 3.5434047936e+00 
51900 6.3619586599e+00 -1.4705947297e-04 2.0457893576e+00 -3.5434111089e+00 2.0457893576e+00 3.5434111089e+00 
52000 6.3619586627e+00 -1.4464932434e-04 2.0457929518e+00 -3.5434173342e+00 2.0457929518e+00 3.5434173342e+00 
52100 6.3619586662e+00 -1.4196584431e-04 2.0457964871e+00 -3.5434234575e+00 2.0457964871e+00 3.5434234575e+00 
52200 6.3619586701e+00 -1.3902240133e-04 2.0457999568e+00 -3.5434294672e+00 2.0457999568e+00 3.5434294672e+00 
52300 6.3619586745e+00 -1.3583251850e-04 2.0458033545e+00 -3.5434353523e+00 2.0458033545e+00 3.5434353523e+00 
52400 6.3619586794e+00 -1.3240984264e-04 2.0458066743e+00 -3.5434411023e+00 2.0458066743e+00 3.5434411023e+00 
52500 6.3619586847e+00 -1.2876811397e-04 2.0458099104e+00 -3.5434467075e+00 2.0458099104e+00 3.5434467075e+00 
52600 6.3619586904e+00 -1.2492113636e-04 2.0458130575e+00 -3.5434521584e+00 2.0458130575e+00 3.5434521584e+00 
52700 6.3619586964e+00 -1.2088274827e-04 2.0458161106e+00 -3.5434574466e+00 2.0458161106e+00 3.5434574466e+00 
52800 6.3619587028e+00 -1.1666679431e-04 2.0458190650e+00 -3.5434625637e+00 2.0458190650e+00 3.5434625637e+00 
52900 6.3619587094e+00 -1.1228709761e-04 2.0458219164e+00 -3.5434675024e+00 2.0458219164e+00 3.5434675024e+00 
53000 6.3619587163e+00 -1.0775743289e-04 2.0458246607e+00 -3.5434722557e+00 2.0458246607e+00 3.5434722557e+00 
53100 6.3619587233e+00 -1.0309150035e-04 2.0458272943e+00 -3.5434768172e+00 2.0458272943e+00 3.5434768172e+00 
53200 6.3619587305e+00 -9.8302900398e-05 2.0458298138e+00 -3.5434811812e+00 2.0458298138e+00 3.5434811812e+00 
53300 6.3619587379e+00 -9.3405109244e-05 2.0458322163e+00 -3.5434853425e+00 2.0458322163e+00 3.5434853425e+00 
53400 6.3619587453e+00 -8.8411455337e-05 2.0458344992e+00 -3.5434892964e+00 2.0458344992e+00 3.5434892964e+00 
53500 6.3619587527e+00 -8.3335096755e-05 2.0458366599e+00 -3.5434930390e+00 2.0458366599e+00 3.5434930390e+00 
53600 6.3619587602e+00 -7.8188999494e-05 2.0458386966e+00 -3.5434965666e+00 2.0458386966e+00 3.5434965666e+00 
53700 6.3619587676e+00 -7.2985916731e-05 2.0458406076e+00 -3.5434998765e+00 2.0458406076e+00 3.5434998765e+00 
53800 6.3619587749e+00 -6.7738369038e-05 2.0458423913e+00 -3.5435029660e+00 2.0458423913e+00 3.5435029660e+00 
53900 6.3619587823e+00 -6.3591094857e-05 2.0458423913e+00 -3.5435029660e+00 2.0458423913e+00 3.5435029660e+00 
54000 6.3619587894e+00 -5.9342813272e-05 2.0458423913e+00 -3.5435029660e+00 2.0458423913e+00 3.5435029660e+00 
54100 6.3619587964e+00 -5.5004644493e-05 2.0458423913e+00 -3.5435029660e+00 2.0458423913e+00 3.5435029660e+00 
54200 6.3619588032e+00 -5.0587558197e-05 2.0458423913e+00 -3.5435029660e+00 2.0458423913e+00 3.5435029660e+00 
54300 6.3619588098e+00 -4.6102355914e-05 2.0458423913e+00 -3.5435029660e+00 2.0458423913e+00 3.5435029660e+00 
54400 6.3619588161e+00 -4.1559654263e-05 2.0458423913e+00 -3.5435029660e+00 2.0458423913e+00 3.5435029660e+00 
54500 6.3619588222e+00 -3.6969869088e-05 2.0458423913e+00 -3.5435029660e+00 2.0458423913e+00 3.5435029660e+00 
54600 6.3619588279e+00 -3.2343200471e-05 2.0458423913e+00 -3.5435029660e+00 2.0458423913e+00 3.5435029660e+00 
54700 6.3619588334e+00 -2.7689618625e-05 2.0458423913e+00 -3.5435029660e+00 2.0458423913e+00 3.5435029660e+00 
54800 6.3619588386e+00 -2.3018850696e-05 2.0458423913e+00 -3.5435029660e+00 2.0458423913e+00 3.5435029660e+00 
54900 6.3619588436e+00 -1.8340368439e-05 2.0458423913e+00 -3.5435029660e+00 2.0458423913e+00 3.5435029660e+00 
55000 6.3619588482e+00 -1.3663376789e-05 2.0458423913e+00 -3.5435029660e+00 2.0458423913e+00 3.5435029660e+00 
55100 6.3619588525e+00 -8.9968033143e-06 2.0458423913e+00 -3.5435029660e+00 2.0458423913e+00 3.5435029660e+00 
55200 6.3619588565e+00 -4.3492885476e-06 2.0458423913e+00 -3.5435029660e+00 2.0458423913e+00 3.5435029660e+00 
55300 6.3619588602e+00 2.7082281544e-07 2.0458423913e+00 -3.5435029660e+00 2.0458423913e+00 3.5435029660e+00 
55400 6.3619588637e+00 4.8554898418e-06 2.0458423913e+00 -3.5435029660e+00 2.0458423913e+00 3.5435029660e+00 
55500 6.3619588669e+00 9.3969824546e-06 2.0458423913e+00 -3.5435029660e+00 2.0458423913e+00 3.5435029660e+00 
55600 6.3619588697e+00 1.3887887668e-05 2.0458423913e+00 -3.5435029660e+00 2.0458423913e+00 3.5435029660e+00 
55700 6.3619588724e+00 1.8321115002e-05 2.0458423913e+00 -3.5435029660e+00 2.0458423913e+00 3.5435029660e+00 
55800 6.3619588748e+00 2.2689901083e-05 2.0458423913e+00 -3.5435029660e+00 2.0458423913e+00 3.5435029660e+00 
55900 6.3619588769e+00 2.6987813445e-05 2.0458423913e+00 -3.5435029660e+00 2.0458423913e+00 3.5435029660e+00 
56000 6.3619588788e+00 3.1208753548e-05 2.0458423913e+00 -3.5435029660e+00 2.0458423913e+00 3.5435029660e+00 
56100 6.3619588806e+00 3.5346959024e-05 2.0458423913e+00 -3.5435029660e+00 2.0458423913e+00 3.5435029660e+00 
56200 6.3619588821e+00 3.9397005208e-05 2.0458423913e+00 -3.5435029660e+00 2.0458423913e+00 3.5435029660e+00 
56300 6.3619588834e+00 4.3353805889e-05 2.0458423913e+00 -3.5435029660e+00 2.0458423913e+00 3.5435029660e+00 
56400 6.3619588846e+00 4.7212613403e-05 2.0458423913e+00 -3.5435029660e+00 2.0458423913e+00 3.5435029660e+00 
56500 6.3619588856e+00 5.0969018026e-05 2.0458423913e+00 -3.5435029660e+00 2.0458423913e+00 3.5435029660e+00 
56600 6.3619588865e+00 5.4618946688e-05 2.0458423913e+00 -3.5435029660e+00 2.0458423913e+00 3.5435029660e+00 
56700 6.3619588873e+00 5.8158661064e-05 2.0458423913e+00 -3.5435029660e+00 2.0458423913e+00 3.5435029660e+00 
56800 6.3619588879e+00 6.1584755046e-05 2.0458423913e+00 -3.5435029660e+00 2.0458423913e+00 3.5435029660e+00 
56900 6.3619588885e+00 6.4894151611e-05 2.0458423913e+00 -3.5435029660e+00 2.0458423913e+00 3.5435029660e+00 
57000 6.3619588890e+00 6.8084099135e-05 2.0458423913e+00 -3.5435029660e+00 2.0458423913e+00 3.5435029660e+00 
57100 6.3619588895e+00 7.1152167145e-05 2.0458423913e+00 -3.5435029660e+00 2.0458423913e+00 3.5435029660e+00 
57200 6.3619588898e+00 7.2906500760e-05 2.0458406524e+00 -3.5434999541e+00 2.0458406524e+00 3.5434999541e+00 
57300 6.3619588900e+00 7.4497867675e-05 2.0458388705e+00 -3.5434968679e+00 2.0458388705e+00 3.5434968679e+00 
57400 6.3619588902e+00 7.5926961474e-05 2.0458370498e+00 -3.5434937143e+00 2.0458370498e+00 3.5434937143e+00 
57500 6.3619588904e+00 7.7194790695e-05 2.0458351942e+00 -3.5434905002e+00 2.0458351942e+00 3.5434905002e+00 
57600 6.3619588905e+00 7.8302668435e-05 2.0458333076e+00 -3.5434872325e+00 2.0458333076e+00 3.5434872325e+00 
57700 6.3619588907e+00 7.9252201627e-05 2.0458313938e+00 -3.5434839179e+00 2.0458313938e+00 3.5434839179e+00 
57800 6.3619588909e+00 8.0045280008e-05 2.0458294569e+00 -3.5434805630e+00 2.0458294569e+00 3.5434805630e+00 
57900 6.3619588911e+00 8.0684064801e-05 2.0458275006e+00 -3.5434771746e+00 2.0458275006e+00 3.5434771746e+00 
58000 6.3619588913e+00 8.1170977154e-05 2.0458255287e+00 -3.5434737591e+00 2.0458255287e+00 3.5434737591e+00 
58100 6.3619588916e+00 8.1508686356e-05 2.0458235449e+00 -3.5434703231e+00 2.0458235449e+00 3.5434703231e+00 
58200 6.3619588919e+00 8.1700097869e-05 2.0458215528e+00 -3.5434668727e+00 2.0458215528e+00 3.5434668727e+00 
58300 6.3619588923e+00 8.1748341197e-05 2.0458195561e+00 -3.5434634142e+00 2.0458195561e+00 3.5434634142e+00 
58400 6.3619588928e+00 8.1656757624e-05 2.0458175581e+00 -3.5434599537e+00 2.0458175581e+00 3.5434599537e+00 
58500 6.3619588933e+00 8.1428887844e-05 2.0458155624e+00 -3.5434564970e+00 2.0458155624e+00 3.5434564970e+00 
58600 6.3619588939e+00 8.1068459529e-05 2.0458135723e+00 -3.5434530500e+00 2.0458135723e+00 3.5434530500e+00 
58700 6.3619588945e+00 8.0579374822e-05 2.0458115910e+00 -3.5434496183e+00 2.0458115910e+00 3.5434496183e+00 
58800 6.3619588953e+00 7.9965697838e-05 2.0458096216e+00 -3.5434462072e+00 2.0458096216e+00 3.5434462072e+00 
58900 6.3619588961e+00 7.9231642151e-05 2.0458076672e+00 -3.5434428221e+00 2.0458076672e+00 3.5434428221e+00 
59000 6.3619588970e+00 7.8381558303e-05 2.0458057308e+00 -3.5434394681e+00 2.0458057308e+00 3.5434394681e+00 
59100 6.3619588979e+00 7.7419921391e-05 2.0458038151e+00 -3.5434361501e+00 2.0458038151e+00 3.5434361501e+00 
59200 6.3619588989e+00 7.6351318694e-05 2.0458019229e+00 -3.5434328728e+00 2.0458019229e+00 3.5434328728e+00 
59300 6.3619589000e+00 7.5180437445e-05 2.0458000569e+00 -3.5434296407e+00 2.0458000569e+00 3.5434296407e+00 
59400 6.3619589012e+00 7.3912052671e-05 2.0457982195e+00 -3.5434264581e+00 2.0457982195e+00 3.5434264581e+00 
59500 6.3619589024e+00 7.2551015223e-05 2.0457964130e+00 -3.5434233293e+00 2.0457964130e+00 3.5434233293e+00 
59600 6.3619589037e+00 7.1102239936e-05 2.0457946399e+00 -3.5434202581e+00 2.0457946399e+00 3.5434202581e+00 
59700 6.3619589051e+00 6.9570693996e-05 2.0457929021e+00 -3.5434172482e+00 2.0457929021e+00 3.5434172482e+00 
59800 6.3619589066e+00 6.9124814999e-05 2.0457929021e+00 -3.5434172482e+00 2.0457929021e+00 3.5434172482e+00 
59900 6.3619589081e+00 6.8586950950e-05 2.0457929021e+00 -3.5434172482e+00 2.0457929021e+00 3.5434172482e+00 
60000 6.3619589097e+00 6.7961097938e-05 2.0457929021e+00 -3.5434172482e+00 2.0457929021e+00 3.5434172482e+00 
60100 6.3619589114e+00 6.7251311600e-05 2.0457929021e+00 -3.5434172482e+00 2.0457929021e+00 3.5434172482e+00 
60200 6.3619589130e+00 6.6461697051e-05 2.0457929021e+00 -3.5434172482e+00 2.0457929021e+00 3.5434172482e+00 
60300 6.3619589147e+00 6.5596399054e-05 2.0457929021e+00 -3.5434172482e+00 2.0457929021e+00 3.5434172482e+00 
60400 6.3619589163e+00 6.4659592385e-05 2.0457929021e+00 -3.5434172482e+00 2.0457929021e+00 3.5434172482e+00 
60500 6.3619589180e+00 6.3655472427e-05 2.0457929021e+00 -3.5434172482e+00 2.0457929021e+00 3.5434172482e+00 
60600 6.3619589197e+00 6.2588246019e-05 2.0457929021e+00 -3.5434172482e+00 2.0457929021e+00 3.5434172482e+00 
60700 6.3619589214e+00 6.1462122553e-05 2.0457929021e+00 -3.5434172482e+00 2.0457929021e+00 3.5434172482e+00 
60800 6.3619589230e+00 6.0281305336e-05 2.0457929021e+00 -3.5434172482e+00 2.0457929021e+00 3.5434172482e+00 
60900 6.3619589247e+00 5.9049983218e-05 2.0457929021e+00 -3.5434172482e+00 2.0457929021e+00 3.5434172482e+00 
61000 6.3619589263e+00 5.7772322512e-05 2.0457929021e+00 -3.5434172482e+00 2.0457929021e+00 3.5434172482e+00 
61100 6.3619589279e+00 5.6452459197e-05 2.0457929021e+00 -3.5434172482e+00 2.0457929021e+00 3.5434172482e+00 
61200 6.3619589295e+00 5.5094491426e-05 2.0457929021e+00 -3.5434172482e+00 2.0457929021e+00 3.5434172482e+00 
61300 6.3619589311e+00 5.3702472315e-05 2.0457929021e+00 -3.5434172482e+00 2.0457929021e+00 3.5434172482e+00 
61400 6.3619589326e+00 5.2280403076e-05 2.0457929021e+00 -3.5434172482e+00 2.0457929021e+00 3.5434172482e+00 
61500 6.3619589341e+00 5.0832226419e-05 2.0457929021e+00 -3.5434172482e+00 2.0457929021e+00 3.5434172482e+00 
61600 6.3619589355e+00 4.9361820313e-05 2.0457929021e+00 -3.5434172482e+00 2.0457929021e+00 3.5434172482e+00 
61700 6.3619589369e+00 4.7872992031e-05 2.0457929021e+00 -3.5434172482e+00 2.0457929021e+00 3.5434172482e+00 
61800 6.3619589382e+00 4.6369472542e-05 2.0457929021e+00 -3.5434172482e+00 2.0457929021e+00 3.5434172482e+00 
61900 6.3619589396e+00 4.4854911210e-05 2.0457929021e+00 -3.5434172482e+00 2.0457929021e+00 3.5434172482e+00 
62000 6.3619589408e+00 4.3332870828e-05 2.0457929021e+00 -3.5434172482e+00 2.0457929021e+00 3.5434172482e+00 
62100 6.3619589420e+00 4.1806822972e-05 2.0457929021e+00 -3.5434172482e+00 2.0457929021e+00 3.5434172482e+00 
62200 6.3619589432e+00 4.0280143674e-05 2.0457929021e+00 -3.5434172482e+00 2.0457929021e+00 3.5434172482e+00 
62300 6.3619589443e+00 3.8756109432e-05 2.0457929021e+00 -3.5434172482e+00 2.0457929021e+00 3.5434172482e+00 
62400 6.3619589454e+00 3.7237893523e-05 2.0457929021e+00 -3.5434172482e+00 2.0457929021e+00 3.5434172482e+00 
62500 6.3619589464e+00 3.5728562654e-05 2.0457929021e+00 -3.5434172482e+00 2.0457929021e+00 3.5434172482e+00 
62600 6.3619589474e+00 3.4231073915e-05 2.0457929021e+00 -3.5434172482e+00 2.0457929021e+00 3.5434172482e+00 
62700 6.3619589483e+00 3.2748272056e-05 2.0457929021e+00 -3.5434172482e+00 2.0457929021e+00 3.5434172482e+00 
62800 6.3619589492e+00 3.1282887062e-05 2.0457929021e+00 -3.5434172482e+00 2.0457929021e+00 3.5434172482e+00 
62900 6.3619589501e+00 2.9837532039e-05 2.0457929021e+00 -3.5434172482e+00 2.0457929021e+00 3.5434172482e+00 
63000 6.3619589509e+00 2.8414701404e-05 2.0457929021e+00 -3.5434172482e+00 2.0457929021e+00 3.5434172482e+00 
63100 6.3619589517e+00 2.7016769361e-05 2.0457929021e+00 -3.5434172482e+00 2.0457929021e+00 3.5434172482e+00 
63200 6.3619589524e+00 2.5645988667e-05 2.0457929021e+00 -3.5434172482e+00 2.0457929021e+00 3.5434172482e+00 
63300 6.3619589531e+00 2.4304489690e-05 2.0457929021e+00 -3.5434172482e+00 2.0457929021e+00 3.5434172482e+00 
63400 6.3619589538e+00 2.2994279729e-05 2.0457929021e+00 -3.5434172482e+00 2.0457929021e+00 3.5434172482e+00 
63500 6.3619589544e+00 2.1717242613e-05 2.0457929021e+00 -3.5434172482e+00 2.0457929021e+00 3.5434172482e+00 
63600 6.3619589550e+00 2.0475138560e-05 2.0457929021e+00 -3.5434172482e+00 2.0457929021e+00 3.5434172482e+00 
63700 6.3619589556e+00 1.9269604285e-05 2.0457929021e+00 -3.5434172482e+00 2.0457929021e+00 3.5434172482e+00 
63800 6.3619589561e+00 1.8102153365e-05 2.0457929021e+00 -3.5434172482e+00 2.0457929021e+00 3.5434172482e+00 
63900 6.3619589567e+00 1.6974176831e-05 2.0457929021e+00 -3.5434172482e+00 2.0457929021e+00 3.5434172482e+00 
64000 6.3619589572e+00 1.5886943992e-05 2.0457929021e+00 -3.5434172482e+00 2.0457929021e+00 3.5434172482e+00 
64100 6.3619589577e+00 1.4841603492e-05 2.0457929021e+00 -3.5434172482e+00 2.0457929021e+00 3.5434172482e+00 
64200 6.3619589581e+00 1.3839184563e-05 2.0457929021e+00 -3.5434172482e+00 2.0457929021e+00 3.5434172482e+00 
64300 6.3619589586e+00 1.2880598490e-05 2.0457929021e+00 -3.5434172482e+00 2.0457929021e+00 3.5434172482e+00 
64400 6.3619589590e+00 1.1966640275e-05 2.0457929021e+00 -3.5434172482e+00 2.0457929021e+00 3.5434172482e+00 
64500 6.3619589595e+00 1.1097990481e-05 2.0457929021e+00 -3.5434172482e+00 2.0457929021e+00 3.5434172482e+00 
64600 6.3619589599e+00 1.0275217248e-05 2.0457929021e+00 -3.5434172482e+00 2.0457929021e+00 3.5434172482e+00 
64700 6.3619589603e+00 9.4987784866e-06 2.0457929021e+00 -3.5434172482e+00 2.0457929021e+00 3.5434172482e+00 
64800 6.3619589607e+00 8.7690242171e-06 2.0457929021e+00 -3.5434172482e+00 2.0457929021e+00 3.5434172482e+00 
64900 6.3619589611e+00 8.0861990727e-06 2.0457929021e+00 -3.5434172482e+00 2.0457929021e+00 3.5434172482e+00 
65000 6.3619589615e+00 7.4504449201e-06 2.0457929021e+00 -3.5434172482e+00 2.0457929021e+00 3.5434172482e+00 
65100 6.3619589620e+00 6.8618036305e-06 2.0457929021e+00 -3.5434172482e+00 2.0457929021e+00 3.5434172482e+00 
65200 6.3619589624e+00 6.3202199565e-06 2.0457929021e+00 -3.5434172482e+00 2.0457929021e+00 3.5434172482e+00 
65300 6.3619589628e+00 5.8255445206e-06 2.0457929021e+00 -3.5434172482e+00 2.0457929021e+00 3.5434172482e+00 
65400 6.3619589632e+00 5.3775369106e-06 2.0457929021e+00 -3.5434172482e+00 2.0457929021e+00 3.5434172482e+00 
65500 6.3619589636e+00 4.9758688666e-06 2.0457929021e+00 -3.5434172482e+00 2.0457929021e+00 3.5434172482e+00 
65600 6.3619589640e+00 4.6201275404e-06 2.0457929021e+00 -3.5434172482e+00 2.0457929021e+00 3.5434172482e+00 
65700 6.3619589644e+00 4.3098188423e-06 2.0457929021e+00 -3.5434172482e+00 2.0457929021e+00 3.5434172482e+00 
65800 6.3619589648e+00 4.0443708422e-06 2.0457929021e+00 -3.5434172482e+00 2.0457929021e+00 3.5434172482e+00 
65900 6.3619589652e+00 3.8231372325e-06 2.0457929021e+00 -3.5434172482e+00 2.0457929021e+00 3.5434172482e+00 
66000 6.3619589657e+00 3.6454008319e-06 2.0457929021e+00 -3.5434172482e+00 2.0457929021e+00 3.5434172482e+00 
66100 6.3619589661e+00 3.5103771340e-06 2.0457929021e+00 -3.5434172482e+00 2.0457929021e+00 3.5434172482e+00 
66200 6.3619589665e+00 3.4172178850e-06 2.0457929021e+00 -3.5434172482e+00 2.0457929021e+00 3.5434172482e+00 
66300 6.3619589670e+00 3.3650146836e-06 2.0457929021e+00 -3.5434172482e+00 2.0457929021e+00 3.5434172482e+00 
66400 6.3619589674e+00 3.3528025867e-06 2.0457929021e+00 -3.5434172482e+00 2.0457929021e+00 3.5434172482e+00 
66500 6.3619589678e+00 3.3795637428e-06 2.0457929021e+00 -3.5434172482e+00 2.0457929021e+00 3.5434172482e+00 
66600 6.3619589683e+00 3.4442309969e-06 2.0457929021e+00 -3.5434172482e+00 2.0457929021e+00 3.5434172482e+00 
66700 6.3619589688e+00 3.5456915102e-06 2.0457929021e+00 -3.5434172482e+00 2.0457929021e+00 3.5434172482e+00 
66800 6.3619589692e+00 3.6827903526e-06 2.0457929021e+00 -3.5434172482e+00 2.0457929021e+00 3.5434172482e+00 
66900 6.3619589697e+00 3.8543340765e-06 2.0457929021e+00 -3.5434172482e+00 2.0457929021e+00 3.5434172482e+00 
67000 6.3619589701e+00 4.0590942631e-06 2.0457929021e+00 -3.5434172482e+00 2.0457929021e+00 3.5434172482e+00 
67100 6.3619589706e+00 4.2958110309e-06 2.0457929021e+00 -3.5434172482e+00 2.0457929021e+00 3.5434172482e+00 
67200 6.3619589710e+00 4.5631965034e-06 2.0457929021e+00 -3.5434172482e+00 2.0457929021e+00 3.5434172482e+00 
67300 6.3619589715e+00 4.8599382413e-06 2.0457929021e+00 -3.5434172482e+00 2.0457929021e+00 3.5434172482e+00 
67400 6.3619589720e+00 5.1847025989e-06 2.0457929021e+00 -3.5434172482e+00 2.0457929021e+00 3.5434172482e+00 
67500 6.3619589724e+00 5.5361380467e-06 2.0457929021e+00 -3.5434172482e+00 2.0457929021e+00 3.5434172482e+00 
67600 6.3619589729e+00 5.9128784243e-06 2.0457929021e+00 -3.5434172482e+00 2.0457929021e+00 3.5434172482e+00 
67700 6.3619589733e+00 6.3135461146e-06 2.0457929021e+00 -3.5434172482e+00 2.0457929021e+00 3.5434172482e+00 
67800 6.3619589738e+00 6.7367551638e-06 2.0457929021e+00 -3.5434172482e+00 2.0457929021e+00 3.5434172482e+00 
67900 6.3619589742e+00 7.1811143143e-06 2.0457929021e+00 -3.5434172482e+00 2.0457929021e+00 3.5434172482e+00 
68000 6.3619589747e+00 7.6452299678e-06 2.0457929021e+00 -3.5434172482e+00 2.0457929021e+00 3.5434172482e+00 
68100 6.3619589751e+00 8.1277090491e-06 2.0457929021e+00 -3.5434172482e+00 2.0457929021e+00 3.5434172482e+00 
68200 6.3619589756e+00 8.6271618033e-06 2.0457929021e+00 -3.5434172482e+00 2.0457929021e+00 3.5434172482e+00 
68300 6.3619589760e+00 9.1422044917e-06 2.0457929021e+00 -3.5434172482e+00 2.0457929021e+00 3.5434172482e+00 
68400 6.3619589764e+00 9.6714619935e-06 2.0457929021e+00 -3.5434172482e+00 2.0457929021e+00 3.5434172482e+00 
68500 6.3619589768e+00 1.0213570324e-05 2.0457929021e+00 -3.5434172482e+00 2.0457929021e+00 3.5434172482e+00 
68600 6.3619589773e+00 1.0767179043e-05 2.0457929021e+00 -3.5434172482e+00 2.0457929021e+00 3.5434172482e+00 
68700 6.3619589777e+00 1.1330953577e-05 2.0457929021e+00 -3.5434172482e+00 2.0457929021e+00 3.5434172482e+00 
68800 6.3619589781e+00 1.1903577429e-05 2.0457929021e+00 -3.5434172482e+00 2.0457929021e+00 3.5434172482e+00 
68900 6.3619589785e+00 1.2483754288e-05 2.0457929021e+00 -3.5434172482e+00 2.0457929021e+00 3.5434172482e+00 
69000 6.3619589788e+00 1.3070210055e-05 2.0457929021e+00 -3.5434172482e+00 2.0457929021e+00 3.5434172482e+00 
69100 6.3619589792e+00 1.3661694724e-05 2.0457929021e+00 -3.5434172482e+00 2.0457929021e+00 3.5434172482e+00 
69200 6.3619589796e+00 1.4256984203e-05 2.0457929021e+00 -3.5434172482e+00 2.0457929021e+00 3.5434172482e+00 
69300 6.3619589799e+00 1.4854881997e-05 2.0457929021e+00 -3.5434172482e+00 2.0457929021e+00 3.5434172482e+00 
69400 6.3619589803e+00 1.5454220805e-05 2.0457929021e+00 -3.5434172482e+00 2.0457929021e+00 3.5434172482e+00 
69500 6.3619589806e+00 1.6053863998e-05 2.0457929021e+00 -3.5434172482e+00 2.0457929021e+00 3.5434172482e+00 
69600 6.3619589810e+00 1.6652706990e-05 2.0457929021e+00 -3.5434172482e+00 2.0457929021e+00 3.5434172482e+00 
69700 6.3619589813e+00 1.7249678528e-05 2.0457929021e+00 -3.5434172482e+00 2.0457929021e+00 3.5434172482e+00 
69800 6.3619589816e+00 1.7843741849e-05 2.0457929021e+00 -3.5434172482e+00 2.0457929021e+00 3.5434172482e+00 
69900 6.3619589819e+00 1.8433895737e-05 2.0457929021e+00 -3.5434172482e+00 2.0457929021e+00 3.5434172482e+00 
70000 6.3619589823e+00 1.9019175494e-05 2.0457929021e+00 -3.5434172482e+00 2.0457929021e+00 3.5434172482e+00 
70100 6.3619589826e+00 1.9598653798e-05 2.0457929021e+00 -3.5434172482e+00 2.0457929021e+00 3.5434172482e+00 
70200 6.3619589828e+00 2.0171441453e-05 2.0457929021e+00 -3.5434172482e+00 2.0457929021e+00 3.5434172482e+00 
70300 6.3619589831e+00 2.0736688058e-05 2.0457929021e+00 -3.5434172482e+00 2.0457929021e+00 3.5434172482e+00 
70400 6.3619589834e+00 2.1293582563e-05 2.0457929021e+00 -3.5434172482e+00 2.0457929021e+00 3.5434172482e+00 
70500 6.3619589837e+00 2.1841353734e-05 2.0457929021e+00 -3.5434172482e+00 2.0457929021e+00 3.5434172482e+00 
70600 6.3619589839e+00 2.2379270533e-05 2.0457929021e+00 -3.5434172482e+00 2.0457929021e+00 3.5434172482e+00 
70700 6.3619589842e+00 2.2906642383e-05 2.0457929021e+00 -3.5434172482e+00 2.0457929021e+00 3.5434172482e+00 
70800 6.3619589844e+00 2.3422819376e-05 2.0457929021e+00 -3.5434172482e+00 2.0457929021e+00 3.5434172482e+00 
70900 6.3619589847e+00 2.3927192370e-05 2.0457929021e+00 -3.5434172482e+00 2.0457929021e+00 3.5434172482e+00 
71000 6.3619589849e+00 2.4419193000e-05 2.0457929021e+00 -3.5434172482e+00 2.0457929021e+00 3.5434172482e+00 
71100 6.3619589852e+00 2.4898293626e-05 2.0457929021e+00 -3.5434172482e+00 2.0457929021e+00 3.5434172482e+00 
71200 6.3619589854e+00 2.5364007178e-05 2.0457929021e+00 -3.5434172482e+00 2.0457929021e+00 3.5434172482e+00 
71300 6.3619589856e+00 2.5815886950e-05 2.0457929021e+00 -3.5434172482e+00 2.0457929021e+00 3.5434172482e+00 
71400 6.3619589858e+00 2.6253526288e-05 2.0457929021e+00 -3.5434172482e+00 2.0457929021e+00 3.5434172482e+00 
71500 6.3619589861e+00 2.6676558238e-05 2.0457929021e+00 -3.5434172482e+00 2.0457929021e+00 3.5434172482e+00 
71600 6.3619589863e+00 2.7084655098e-05 2.0457929021e+00 -3.5434172482e+00 2.0457929021e+00 3.5434172482e+00 
71700 6.3619589865e+00 2.7477527921e-05 2.0457929021e+00 -3.5434172482e+00 2.0457929021e+00 3.5434172482e+00 
71800 6.3619589867e+00 2.7854925962e-05 2.0457929021e+00 -3.5434172482e+00 2.0457929021e+00 3.5434172482e+00 
71900 6.3619589869e+00 2.8216636033e-05 2.0457929021e+00 -3.5434172482e+00 2.0457929021e+00 3.5434172482e+00 
72000 6.3619589871e+00 2.8562481832e-05 2.0457929021e+00 -3.5434172482e+00 2.0457929021e+00 3.5434172482e+00 
72100 6.3619589873e+00 2.8892323219e-05 2.0457929021e+00 -3.5434172482e+00 2.0457929021e+00 3.5434172482e+00 
72200 6.3619589875e+00 2.9206055411e-05 2.0457929021e+00 -3.5434172482e+00 2.0457929021e+00 3.5434172482e+00 
72300 6.3619589877e+00 2.9503608160e-05 2.0457929021e+00 -3.5434172482e+00 2.0457929021e+00 3.5434172482e+00 
72400 6.3619589879e+00 2.9784944876e-05 2.0457929021e+00 -3.5434172482e+00 2.0457929021e+00 3.5434172482e+00 
72500 6.3619589880e+00 3.0050061703e-05 2.0457929021e+00 -3.5434172482e+00 2.0457929021e+00 3.5434172482e+00 
72600 6.3619589882e+00 3.0298986567e-05 2.0457929021e+00 -3.5434172482e+00 2.0457929021e+00 3.5434172482e+00 
72700 6.3619589884e+00 3.0531778178e-05 2.0457929021e+00 -3.5434172482e+00 2.0457929021e+00 3.5434172482e+00 
72800 6.3619589886e+00 3.0748525010e-05 2.0457929021e+00 -3.5434172482e+00 2.0457929021e+00 3.5434172482e+00 
72900 6.3619589888e+00 3.0949344238e-05 2.0457929021e+00 -3.5434172482e+00 2.0457929021e+00 3.5434172482e+00 
73000 6.3619589890e+00 3.1134380673e-05 2.0457929021e+00 -3.5434172482e+00 2.0457929021e+00 3.5434172482e+00 
73100 6.3619589891e+00 3.1303805640e-05 2.0457929021e+00 -3.5434172482e+00 2.0457929021e+00 3.5434172482e+00 
73200 6.3619589893e+00 3.1457815872e-05 2.0457929021e+00 -3.5434172482e+00 2.0457929021e+00 3.5434172482e+00 
73300 6.3619589895e+00 3.1596632355e-05 2.0457929021e+00 -3.5434172482e+00 2.0457929021e+00 3.5434172482e+00 
73400 6.3619589897e+00 3.1720499179e-05 2.0457929021e+00 -3.5434172482e+00 2.0457929021e+00 3.5434172482e+00 
73500 6.3619589898e+00 3.1829682362e-05 2.0457929021e+00 -3.5434172482e+00 2.0457929021e+00 3.5434172482e+00 
73600 6.3619589900e+00 3.1924468683e-05 2.0457929021e+00 -3.5434172482e+00 2.0457929021e+00 3.5434172482e+00 
73700 6.3619589902e+00 3.2005164489e-05 2.0457929021e+00 -3.5434172482e+00 2.0457929021e+00 3.5434172482e+00 
73800 6.3619589903e+00 3.2072094512e-05 2.0457929021e+00 -3.5434172482e+00 2.0457929021e+00 3.5434172482e+00 
73900 6.3619589905e+00 3.2125600681e-05 2.0457929021e+00 -3.5434172482e+00 2.0457929021e+00 3.5434172482e+00 
74000 6.3619589907e+00 3.2166040923e-05 2.0457929021e+00 -3.5434172482e+00 2.0457929021e+00 3.5434172482e+00 
74100 6.3619589908e+00 3.2193787990e-05 2.0457929021e+00 -3.5434172482e+00 2.0457929021e+00 3.5434172482e+00 
74200 6.3619589910e+00 3.2209228272e-05 2.0457929021e+00 -3.5434172482e+00 2.0457929021e+00 3.5434172482e+00 
74300 6.3619589912e+00 3.2212760629e-05 2.0457929021e+00 -3.5434172482e+00 2.0457929021e+00 3.5434172482e+00 
74400 6.3619589913e+00 3.2204795220e-05 2.0457929021e+00 -3.5434172482e+00 2.0457929021e+00 3.5434172482e+00 
74500 6.3619589915e+00 3.2185752363e-05 2.0457929021e+00 -3.5434172482e+00 2.0457929021e+00 3.5434172482e+00 
74600 6.3619589916e+00 3.2156061394e-05 2.0457929021e+00 -3.5434172482e+00 2.0457929021e+00 3.5434172482e+00 
74700 6.3619589918e+00 3.2116159550e-05 2.0457929021e+00 -3.5434172482e+00 2.0457929021e+00 3.5434172482e+00 
74800 6.3619589919e+00 3.2066490849e-05 2.0457929021e+00 -3.5434172482e+00 2.0457929021e+00 3.5434172482e+00 
74900 6.3619589921e+00 3.2007505034e-05 2.0457929021e+00 -3.5434172482e+00 2.0457929021e+00 3.5434172482e+00 
75000 6.3619589922e+00 3.1939656487e-05 2.0457929021e+00 -3.5434172482e+00 2.0457929021e+00 3.5434172482e+00 
75100 6.3619589924e+00 3.1863403192e-05 2.0457929021e+00 -3.5434172482e+00 2.0457929021e+00 3.5434172482e+00 
75200 6.3619589925e+00 3.1779205731e-05 2.0457929021e+00 -3.5434172482e+00 2.0457929021e+00 3.5434172482e+00 
75300 6.3619589927e+00 3.1687526269e-05 2.0457929021e+00 -3.5434172482e+00 2.0457929021e+00 3.5434172482e+00 
75400 6.3619589928e+00 3.1588827617e-05 2.0457929021e+00 -3.5434172482e+00 2.0457929021e+00 3.5434172482e+00 
75500 6.3619589930e+00 3.1483572263e-05 2.0457929021e+00 -3.5434172482e+00 2.0457929021e+00 3.5434172482e+00 
75600 6.3619589931e+00 3.1372221484e-05 2.0457929021e+00 -3.5434172482e+00 2.0457929021e+00 3.5434172482e+00 
75700 6.3619589933e+00 3.1255234460e-05 2.0457929021e+00 -3.5434172482e+00 2.0457929021e+00 3.5434172482e+00 
75800 6.3619589934e+00 3.1133067414e-05 2.0457929021e+00 -3.5434172482e+00 2.0457929021e+00 3.5434172482e+00 
75900 6.3619589935e+00 3.1006172809e-05 2.0457929021e+00 -3.5434172482e+00 2.0457929021e+00 3.5434172482e+00 
76000 6.3619589937e+00 3.0874998553e-05 2.0457929021e+00 -3.5434172482e+00 2.0457929021e+00 3.5434172482e+00 
76100 6.3619589938e+00 3.0739987241e-05 2.0457929021e+00 -3.5434172482e+00 2.0457929021e+00 3.5434172482e+00 
76200 6.3619589939e+00 3.0601575442e-05 2.0457929021e+00 -3.5434172482e+00 2.0457929021e+00 3.5434172482e+00 
76300 6.3619589940e+00 3.0460193003e-05 2.0457929021e+00 -3.5434172482e+00 2.0457929021e+00 3.5434172482e+00 
76400 6.3619589942e+00 3.0316262402e-05 2.0457929021e+00 -3.5434172482e+00 2.0457929021e+00 3.5434172482e+00 
76500 6.3619589943e+00 3.0170198126e-05 2.0457929021e+00 -3.5434172482e+00 2.0457929021e+00 3.5434172482e+00 
76600 6.3619589944e+00 3.0022406086e-05 2.0457929021e+00 -3.5434172482e+00 2.0457929021e+00 3.5434172482e+00 
76700 6.3619589945e+00 2.9873283062e-05 2.0457929021e+00 -3.5434172482e+00 2.0457929021e+00 3.5434172482e+00 
76800 6.3619589947e+00 2.9723216196e-05 2.0457929021e+00 -3.5434172482e+00 2.0457929021e+00 3.5434172482e+00 
76900 6.3619589948e+00 2.9572582500e-05 2.0457929021e+00 -3.5434172482e+00 2.0457929021e+00 3.5434172482e+00 
77000 6.3619589949e+00 2.9421748420e-05 2.0457929021e+00 -3.5434172482e+00 2.0457929021e+00 3.5434172482e+00 
77100 6.3619589950e+00 2.9271069417e-05 2.0457929021e+00 -3.5434172482e+00 2.0457929021e+00 3.5434172482e+00 
77200 6.3619589951e+00 2.9120889586e-05 2.0457929021e+00 -3.5434172482e+00 2.0457929021e+00 3.5434172482e+00 
77300 6.3619589952e+00 2.8971541324e-05 2.0457929021e+00 -3.5434172482e+00 2.0457929021e+00 3.5434172482e+00 
77400 6.3619589953e+00 2.8823345007e-05 2.0457929021e+00 -3.5434172482e+00 2.0457929021e+00 3.5434172482e+00 
77500 6.3619589954e+00 2.8676608722e-05 2.0457929021e+00 -3.5434172482e+00 2.0457929021e+00 3.5434172482e+00 
77600 6.3619589955e+00 2.8531628011e-05 2.0457929021e+00 -3.5434172482e+00 2.0457929021e+00 3.5434172482e+00 
77700 6.3619589956e+00 2.8388685678e-05 2.0457929021e+00 -3.5434172482e+00 2.0457929021e+00 3.5434172482e+00 
77800 6.3619589957e+00 2.8248051588e-05 2.0457929021e+00 -3.5434172482e+00 2.0457929021e+00 3.5434172482e+00 
77900 6.3619589958e+00 2.8109982535e-05 2.0457929021e+00 -3.5434172482e+00 2.0457929021e+00 3.5434172482e+00 
78000 6.3619589959e+00 2.7974722115e-05 2.0457929021e+00 -3.5434172482e+00 2.0457929021e+00 3.5434172482e+00 
78100 6.3619589960e+00 2.7842500636e-05 2.0457929021e+00 -3.5434172482e+00 2.0457929021e+00 3.5434172482e+00 
78200 6.3619589961e+00 2.7713535068e-05 2.0457929021e+00 -3.5434172482e+00 2.0457929021e+00 3.5434172482e+00 
78300 6.3619589962e+00 2.7588029003e-05 2.0457929021e+00 -3.5434172482e+00 2.0457929021e+00 3.5434172482e+00 
78400 6.3619589963e+00 2.7466172655e-05 2.0457929021e+00 -3.5434172482e+00 2.0457929021e+00 3.5434172482e+00 
78500 6.3619589964e+00 2.7348142888e-05 2.0457929021e+00 -3.5434172482e+00 2.0457929021e+00 3.5434172482e+00 
78600 6.3619589965e+00 2.7234103261e-05 2.0457929021e+00 -3.5434172482e+00 2.0457929021e+00 3.5434172482e+00 
78700 6.3619589966e+00 2.7124204101e-05 2.0457929021e+00 -3.5434172482e+00 2.0457929021e+00 3.5434172482e+00 
78800 6.3619589966e+00 2.7018582608e-05 2.0457929021e+00 -3.5434172482e+00 2.0457929021e+00 3.5434172482e+00 
78900 6.3619589967e+00 2.6917362976e-05 2.0457929021e+00 -3.5434172482e+00 2.0457929021e+00 3.5434172482e+00 
79000 6.3619589968e+00 2.6820656535e-05 2.0457929021e+00 -3.5434172482e+00 2.0457929021e+00 3.5434172482e+00 
79100 6.3619589969e+00 2.6728561919e-05 2.0457929021e+00 -3.5434172482e+00 2.0457929021e+00 3.5434172482e+00 
79200 6.3619589970e+00 2.6641165253e-05 2.0457929021e+00 -3.5434172482e+00 2.0457929021e+00 3.5434172482e+00 
79300 6.3619589971e+00 2.6558540356e-05 2.0457929021e+00 -3.5434172482e+00 2.0457929021e+00 3.5434172482e+00 
79400 6.3619589971e+00 2.6480748971e-05 2.0457929021e+00 -3.5434172482e+00 2.0457929021e+00 3.5434172482e+00 
79500 6.3619589972e+00 2.6407840999e-05 2.0457929021e+00 -3.5434172482e+00 2.0457929021e+00 3.5434172482e+00 
79600 6.3619589973e+00 2.6339854770e-05 2.0457929021e+00 -3.5434172482e+00 2.0457929021e+00 3.5434172482e+00 
79700 6.3619589974e+00 2.6276817303e-05 2.0457929021e+00 -3.5434172482e+00 2.0457929021e+00 3.5434172482e+00 
79800 6.3619589974e+00 2.6218744601e-05 2.0457929021e+00 -3.5434172482e+00 2.0457929021e+00 3.5434172482e+00 
79900 6.3619589975e+00 2.6165641948e-05 2.0457929021e+00 -3.5434172482e+00 2.0457929021e+00 3.5434172482e+00 
80000 6.3619589976e+00 2.6117504237e-05 2.0457929021e+00 -3.5434172482e+00 2.0457929021e+00 3.5434172482e+00 
80100 6.3619589976e+00 2.6074316276e-05 2.0457929021e+00 -3.5434172482e+00 2.0457929021e+00 3.5434172482e+00 
80200 6.3619589977e+00 2.6036053136e-05 2.0457929021e+00 -3.5434172482e+00 2.0457929021e+00 3.5434172482e+00 
80300 6.3619589978e+00 2.6002680494e-05 2.0457929021e+00 -3.5434172482e+00 2.0457929021e+00 3.5434172482e+00 
80400 6.3619589979e+00 2.5974154985e-05 2.0457929021e+00 -3.5434172482e+00 2.0457929021e+00 3.5434172482e+00 
80500 6.3619589979e+00 2.5950424561e-05 2.0457929021e+00 -3.5434172482e+00 2.0457929021e+00 3.5434172482e+00 
80600 6.3619589980e+00 2.5931428868e-05 2.0457929021e+00 -3.5434172482e+00 2.0457929021e+00 3.5434172482e+00 
80700 6.3619589981e+00 2.5917099610e-05 2.0457929021e+00 -3.5434172482e+00 2.0457929021e+00 3.5434172482e+00 
80800 6.3619589981e+00 2.5907360929e-05 2.0457929021e+00 -3.5434172482e+00 2.0457929021e+00 3.5434172482e+00 
80900 6.3619589982e+00 2.5902129790e-05 2.0457929021e+00 -3.5434172482e+00 2.0457929021e+00 3.5434172482e+00 
81000 6.3619589983e+00 2.5901316362e-05 2.0457929021e+00 -3.5434172482e+00 2.0457929021e+00 3.5434172482e+00 
81100 6.3619589983e+00 2.5904824409e-05 2.0457929021e+00 -3.5434172482e+00 2.0457929021e+00 3.5434172482e+00 
81200 6.3619589984e+00 2.5912551671e-05 2.0457929021e+00 -3.5434172482e+00 2.0457929021e+00 3.5434172482e+00 
81300 6.3619589984e+00 2.5924390263e-05 2.0457929021e+00 -3.5434172482e+00 2.0457929021e+00 3.5434172482e+00 
81400 6.3619589985e+00 2.5940227052e-05 2.0457929021e+00 -3.5434172482e+00 2.0457929021e+00 3.5434172482e+00 
81500 6.3619589986e+00 2.5959944050e-05 2.0457929021e+00 -3.5434172482e+00 2.0457929021e+00 3.5434172482e+00 
81600 6.3619589986e+00 2.5983418799e-05 2.0457929021e+00 -3.5434172482e+00 2.0457929021e+00 3.5434172482e+00 
81700 6.3619589987e+00 2.6010524751e-05 2.0457929021e+00 -3.5434172482e+00 2.0457929021e+00 3.5434172482e+00 
81800 6.3619589987e+00 2.6041131650e-05 2.0457929021e+00 -3.5434172482e+00 2.0457929021e+00 3.5434172482e+00 
81900 6.3619589988e+00 2.6075105903e-05 2.0457929021e+00 -3.5434172482e+00 2.0457929021e+00 3.5434172482e+00 
82000 6.3619589989e+00 2.6112310953e-05 2.0457929021e+00 -3.5434172482e+00 2.0457929021e+00 3.5434172482e+00 
82100 6.3619589989e+00 2.6152607646e-05 2.0457929021e+00 -3.5434172482e+00 2.0457929021e+00 3.5434172482e+00 
82200 6.3619589990e+00 2.6195854586e-05 2.0457929021e+00 -3.5434172482e+00 2.0457929021e+00 3.5434172482e+00 
82300 6.3619589990e+00 2.6241908493e-05 2.0457929021e+00 -3.5434172482e+00 2.0457929021e+00 3.5434172482e+00 
82400 6.3619589991e+00 2.6290624548e-05 2.0457929021e+00 -3.5434172482e+00 2.0457929021e+00 3.5434172482e+00 
82500 6.3619589991e+00 2.6341856724e-05 2.0457929021e+00 -3.5434172482e+00 2.0457929021e+00 3.5434172482e+00 
82600 6.3619589992e+00 2.6395458135e-05 2.0457929021e+00 -3.5434172482e+00 2.0457929021e+00 3.5434172482e+00 
82700 6.3619589992e+00 2.6451281343e-05 2.0457929021e+00 -3.5434172482e+00 2.0457929021e+00 3.5434172482e+00 
82800 6.3619589993e+00 2.6509178675e-05 2.0457929021e+00 -3.5434172482e+00 2.0457929021e+00 3.5434172482e+00 
82900 6.3619589993e+00 2.6569002537e-05 2.0457929021e+00 -3.5434172482e+00 2.0457929021e+00 3.5434172482e+00 
83000 6.3619589994e+00 2.6630605697e-05 2.0457929021e+00 -3.5434172482e+00 2.0457929021e+00 3.5434172482e+00 
83100 6.3619589994e+00 2.6693841589e-05 2.0457929021e+00 -3.5434172482e+00 2.0457929021e+00 3.5434172482e+00 
83200 6.3619589995e+00 2.6758564568e-05 2.0457929021e+00 -3.5434172482e+00 2.0457929021e+00 3.5434172482e+00 
83300 6.3619589995e+00 2.6790117347e-05 2.0457929021e+00 -3.5434172482e+00 2.0457929021e+00 3.5434172482e+00 
83300 6.3619589995e+00 2.6790117347e-05 2.0457929021e+00 -3.5434172482e+00 2.0457929021e+00 3.5434172482e+00 
