# step Hamiltonian StressXX CellTensor1 CellTensor2 CellTensor3 CellTensor4 
0 5.6393343984e+00 4.2160629969e-02 2.0436807272e+00 -3.5397588540e+00 2.0436807272e+00 3.5397588540e+00 
100 5.6377312594e+00 4.3339181655e-02 2.0436807272e+00 -3.5397588540e+00 2.0436807272e+00 3.5397588540e+00 
200 5.6359310113e+00 4.4187013434e-02 2.0426204972e+00 -3.5379224818e+00 2.0426204972e+00 3.5379224818e+00 
300 5.6340143866e+00 4.4889108777e-02 2.0415389671e+00 -3.5360492167e+00 2.0415389671e+00 3.5360492167e+00 
400 5.6320162909e+00 4.5470639166e-02 2.0404396720e+00 -3.5341451816e+00 2.0404396720e+00 3.5341451816e+00 
500 5.6299678918e+00 4.5954193324e-02 2.0393255371e+00 -3.5322154435e+00 2.0393255371e+00 3.5322154435e+00 
600 5.6278963187e+00 4.6359579503e-02 2.0381989401e+00 -3.5302641203e+00 2.0381989401e+00 3.5302641203e+00 
700 5.6258246121e+00 4.6703786471e-02 2.0370617777e+00 -3.5282944971e+00 2.0370617777e+00 3.5282944971e+00 
800 5.6237718639e+00 4.7001073041e-02 2.0359155335e+00 -3.5263091440e+00 2.0359155335e+00 3.5263091440e+00 
900 5.6217534916e+00 4.7263152437e-02 2.0347613445e+00 -3.5243100299e+00 2.0347613445e+00 3.5243100299e+00 
1000 5.6197815954e+00 4.7499438626e-02 2.0336000620e+00 -3.5222986296e+00 2.0336000620e+00 3.5222986296e+00 
1100 5.6178653575e+00 4.7717325670e-02 2.0324323080e+00 -3.5202760205e+00 2.0324323080e+00 3.5202760205e+00 
1200 5.6160114506e+00 4.7922476643e-02 2.0312585241e+00 -3.5182429670e+00 2.0312585241e+00 3.5182429670e+00 
1300 5.6142244329e+00 4.8119104580e-02 2.0300790131e+00 -3.5161999940e+00 2.0300790131e+00 3.5161999940e+00 
1400 5.6125071144e+00 4.8310233578e-02 2.0288939750e+00 -3.5141474478e+00 2.0288939750e+00 3.5141474478e+00 
1500 5.6108608861e+00 4.8497932940e-02 2.0277035356e+00 -3.5120855463e+00 2.0277035356e+00 3.5120855463e+00 
1600 5.6092860083e+00 4.8683521095e-02 2.0265077700e+00 -3.5100144195e+00 2.0265077700e+00 3.5100144195e+00 
1700 5.6077818578e+00 4.8867738794e-02 2.0253067208e+00 -3.5079341414e+00 2.0253067208e+00 3.5079341414e+00 
1800 5.6063471358e+00 4.9050893020e-02 2.0241004126e+00 -3.5058447542e+00 2.0241004126e+00 3.5058447542e+00 
1900 5.6049800403e+00 4.9232974180e-02 2.0228888621e+00 -3.5037462872e+00 2.0228888621e+00 3.5037462872e+00 
2000 5.6036784069e+00 4.9413749753e-02 2.0216720865e+00 -3.5016387701e+00 2.0216720865e+00 3.5016387701e+00 
2100 5.6024398225e+00 4.9592837755e-02 2.0204501087e+00 -3.4995222424e+00 2.0204501087e+00 3.4995222424e+00 
2200 5.6012617153e+00 4.9769763296e-02 2.0192229610e+00 -3.4973967603e+00 2.0192229610e+00 3.4973967603e+00 
2300 5.6001414260e+00 4.9944001245e-02 2.0179906875e+00 -3.4952624000e+00 2.0179906875e+00 3.4952624000e+00 
2400 5.5990762629e+00 5.0115007697e-02 2.0167533455e+00 -3.4931192608e+00 2.0167533455e+00 3.4931192608e+00 
2500 5.5980635438e+00 5.0282242546e-02 2.0155110057e+00 -3.4909674651e+00 2.0155110057e+00 3.4909674651e+00 
2600 5.5971006276e+00 5.0445185129e-02 2.0142637525e+00 -3.4888071591e+00 2.0142637525e+00 3.4888071591e+00 
2700 5.5961849378e+00 5.0603344532e-02 2.0130116832e+00 -3.4866385115e+00 2.0130116832e+00 3.4866385115e+00 
2800 5.5953139786e+00 5.0756265883e-02 2.0117549077e+00 -3.4844617125e+00 2.0117549077e+00 3.4844617125e+00 
2900 5.5944853466e+00 5.0903533655e-02 2.0104935473e+00 -3.4822769723e+00 2.0104935473e+00 3.4822769723e+00 
3000 5.5936967382e+00 5.1044772827e-02 2.0092277341e+00 -3.4800845194e+00 2.0092277341e+00 3.4800845194e+00 
3100 5.5929459532e+00 5.1179648513e-02 2.0079576095e+00 -3.4778845991e+00 2.0079576095e+00 3.4778845991e+00 
3200 5.5922308973e+00 5.1307864569e-02 2.0066833238e+00 -3.4756774716e+00 2.0066833238e+00 3.4756774716e+00 
3300 5.5915495814e+00 5.1429161540e-02 2.0054050351e+00 -3.4734634106e+00 2.0054050351e+00 3.4734634106e+00 
3400 5.5909001206e+00 5.1543314218e-02 2.0041229081e+00 -3.4712427015e+00 2.0041229081e+00 3.4712427015e+00 
3500 5.5902807318e+00 5.1650129018e-02 2.0028371138e+00 -3.4690156404e+00 2.0028371138e+00 3.4690156404e+00 
3600 5.5896897302e+00 5.1749441308e-02 2.0015478281e+00 -3.4667825321e+00 2.0015478281e+00 3.4667825321e+00 
3700 5.5891255263e+00 5.1841112796e-02 2.0002552318e+00 -3.4645436896e+00 2.0002552318e+00 3.4645436896e+00 
3800 5.5885866217e+00 5.1925029033e-02 1.9989595094e+00 -3.4622994325e+00 1.9989595094e+00 3.4622994325e+00 
3900 5.5880716049e+00 5.2001097084e-02 1.9976608487e+00 -3.4600500862e+00 1.9976608487e+00 3.4600500862e+00 
4000 5.5875791474e+00 5.2069243373e-02 1.9963594404e+00 -3.4577959810e+00 1.9963594404e+00 3.4577959810e+00 
4100 5.5871079995e+00 5.2129411725e-02 1.9950554776e+00 -3.4555374511e+00 1.9950554776e+00 3.4555374511e+00 
4200 5.5866569857e+00 5.2181561602e-02 1.9937491551e+00 -3.4532748341e+00 1.9937491551e+00 3.4532748341e+00 
4300 5.5862250016e+00 5.2225666523e-02 1.9924406692e+00 -3.4510084702e+00 1.9924406692e+00 3.4510084702e+00 
4400 5.5858110088e+00 5.2261712653e-02 1.9911302177e+00 -3.4487387016e+00 1.9911302177e+00 3.4487387016e+00 
4500 5.5854140323e+00 5.2289697567e-02 1.9898179990e+00 -3.4464658721e+00 1.9898179990e+00 3.4464658721e+00 
4600 5.5850331557e+00 5.2309629158e-02 1.9885042120e+00 -3.4441903263e+00 1.9885042120e+00 3.4441903263e+00 
4700 5.5846675186e+00 5.2321524672e-02 1.9871890562e+00 -3.4419124096e+00 1.9871890562e+00 3.4419124096e+00 
4800 5.5843163128e+00 5.2325409880e-02 1.9858727309e+00 -3.4396324673e+00 1.9858727309e+00 3.4396324673e+00 
4900 5.5839787794e+00 5.2321318341e-02 1.9845554355e+00 -3.4373508447e+00 1.9845554355e+00 3.4373508447e+00 
5000 5.5836542054e+00 5.2309290771e-02 1.9832373690e+00 -3.4350678865e+00 1.9832373690e+00 3.4350678865e+00 
5100 5.5833419212e+00 5.2289374484e-02 1.9819187298e+00 -3.4327839365e+00 1.9819187298e+00 3.4327839365e+00 
5200 5.5830412980e+00 5.2261622917e-02 1.9805997158e+00 -3.4304993373e+00 1.9805997158e+00 3.4304993373e+00 
5300 5.5827517446e+00 5.2226095205e-02 1.9792805241e+00 -3.4282144301e+00 1.9792805241e+00 3.4282144301e+00 
5400 5.5824727059e+00 5.2182855812e-02 1.9779613505e+00 -3.4259295545e+00 1.9779613505e+00 3.4259295545e+00 
5500 5.5822036599e+00 5.2131974215e-02 1.9766423902e+00 -3.4236450482e+00 1.9766423902e+00 3.4236450482e+00 
5600 5.5819441161e+00 5.2073524615e-02 1.9753238367e+00 -3.4213612466e+00 1.9753238367e+00 3.4213612466e+00 
5700 5.5816936129e+00 5.2007585683e-02 1.9740058824e+00 -3.4190784828e+00 1.9740058824e+00 3.4190784828e+00 
5800 5.5814517164e+00 5.1934240339e-02 1.9726887182e+00 -3.4167970875e+00 1.9726887182e+00 3.4167970875e+00 
5900 5.5812180181e+00 5.1853575544e-02 1.9713725334e+00 -3.4145173885e+00 1.9713725334e+00 3.4145173885e+00 
6000 5.5809921335e+00 5.1765682115e-02 1.9700575154e+00 -3.4122397105e+00 1.9700575154e+00 3.4122397105e+00 
6100 5.5807737007e+00 5.1670654553e-02 1.9687438501e+00 -3.4099643755e+00 1.9687438501e+00 3.4099643755e+00 
6200 5.5805623783e+00 5.1568590883e-02 1.9674317213e+00 -3.4076917017e+00 1.9674317213e+00 3.4076917017e+00 
6300 5.5803578448e+00 5.1459592499e-02 1.9661213108e+00 -3.4054220042e+00 1.9661213108e+00 3.4054220042e+00 
6400 5.5801597970e+00 5.1343764027e-02 1.9648127985e+00 -3.4031555943e+00 1.9648127985e+00 3.4031555943e+00 
6500 5.5799679486e+00 5.1221213176e-02 1.9635063618e+00 -3.4008927797e+00 1.9635063618e+00 3.4008927797e+00 
6600 5.5797820294e+00 5.1092050609e-02 1.9622021761e+00 -3.3986338638e+00 1.9622021761e+00 3.3986338638e+00 
6700 5.5796017842e+00 5.0956389804e-02 1.9609004143e+00 -3.3963791462e+00 1.9609004143e+00 3.3963791462e+00 
6800 5.5794269717e+00 5.0814346925e-02 1.9596012469e+00 -3.3941289222e+00 1.9596012469e+00 3.3941289222e+00 
6900 5.5792573636e+00 5.0666040687e-02 1.9583048418e+00 -3.3918834827e+00 1.9583048418e+00 3.3918834827e+00 
7000 5.5790927440e+00 5.0511592229e-02 1.9570113645e+00 -3.3896431143e+00 1.9570113645e+00 3.3896431143e+00 
7100 5.5789329084e+00 5.0351124974e-02 1.9557209776e+00 -3.3874080986e+00 1.9557209776e+00 3.3874080986e+00 
7200 5.5787776628e+00 5.0184764504e-02 1.9544338410e+00 -3.3851787127e+00 1.9544338410e+00 3.3851787127e+00 
7300 5.5786268234e+00 5.0012638420e-02 1.9531501121e+00 -3.3829552289e+00 1.9531501121e+00 3.3829552289e+00 
7400 5.5784802157e+00 4.9834876208e-02 1.9518699450e+00 -3.3807379145e+00 1.9518699450e+00 3.3807379145e+00 
7500 5.5783376741e+00 4.9651609106e-02 1.9505934911e+00 -3.3785270314e+00 1.9505934911e+00 3.3785270314e+00 
7600 5.5781990411e+00 4.9462969963e-02 1.9493208987e+00 -3.3763228369e+00 1.9493208987e+00 3.3763228369e+00 
7700 5.5780641671e+00 4.9269093100e-02 1.9480523133e+00 -3.3741255825e+00 1.9480523133e+00 3.3741255825e+00 
7800 5.5779329095e+00 4.9070114177e-02 1.9467878771e+00 -3.3719355147e+00 1.9467878771e+00 3.3719355147e+00 
7900 5.5778051327e+00 4.8866170043e-02 1.9455277291e+00 -3.3697528743e+00 1.9455277291e+00 3.3697528743e+00 
8000 5.5776807075e+00 4.8657398606e-02 1.9442720053e+00 -3.3675778969e+00 1.9442720053e+00 3.3675778969e+00 
8100 5.5775595108e+00 4.8443938686e-02 1.9430208384e+00 -3.3654108123e+00 1.9430208384e+00 3.3654108123e+00 
8200 5.5774414248e+00 4.8225929875e-02 1.9417743578e+00 -3.3632518445e+00 1.9417743578e+00 3.3632518445e+00 
8300 5.5773263376e+00 4.8003512402e-02 1.9405326897e+00 -3.3611012123e+00 1.9405326897e+00 3.3611012123e+00 
8400 5.5772141419e+00 4.7776826985e-02 1.9392959569e+00 -3.3589591282e+00 1.9392959569e+00 3.3589591282e+00 
8500 5.5771047354e+00 4.7546014697e-02 1.9380642788e+00 -3.3568257992e+00 1.9380642788e+00 3.3568257992e+00 
8600 5.5769980202e+00 4.7311216831e-02 1.9368377716e+00 -3.3547014264e+00 1.9368377716e+00 3.3547014264e+00 
8700 5.5768939027e+00 4.7072574755e-02 1.9356165479e+00 -3.3525862050e+00 1.9356165479e+00 3.3525862050e+00 
8800 5.5767922934e+00 4.6830229785e-02 1.9344007172e+00 -3.3504803243e+00 1.9344007172e+00 3.3504803243e+00 
8900 5.5766931065e+00 4.6584323050e-02 1.9331903851e+00 -3.3483839678e+00 1.9331903851e+00 3.3483839678e+00 
9000 5.5765962600e+00 4.6334995357e-02 1.9319856543e+00 -3.3462973128e+00 1.9319856543e+00 3.3462973128e+00 
9100 5.5765016752e+00 4.6082387068e-02 1.9307866237e+00 -3.3442205308e+00 1.9307866237e+00 3.3442205308e+00 
9200 5.5764092768e+00 4.5826637971e-02 1.9295933889e+00 -3.3421537875e+00 1.9295933889e+00 3.3421537875e+00 
9300 5.5763189925e+00 4.5567887159e-02 1.9284060420e+00 -3.3400972423e+00 1.9284060420e+00 3.3400972423e+00 
9400 5.5762307532e+00 4.5306272906e-02 1.9272246717e+00 -3.3380510490e+00 1.9272246717e+00 3.3380510490e+00 
9500 5.5761444924e+00 4.5041932555e-02 1.9260493633e+00 -3.3360153552e+00 1.9260493633e+00 3.3360153552e+00 
9600 5.5760601466e+00 4.4775002403e-02 1.9248801988e+00 -3.3339903028e+00 1.9248801988e+00 3.3339903028e+00 
9700 5.5759776546e+00 4.4505617588e-02 1.9237172565e+00 -3.3319760277e+00 1.9237172565e+00 3.3319760277e+00 
9800 5.5758969580e+00 4.4233911989e-02 1.9225606117e+00 -3.3299726600e+00 1.9225606117e+00 3.3299726600e+00 
9900 5.5758180006e+00 4.3960018117e-02 1.9214103359e+00 -3.3279803239e+00 1.9214103359e+00 3.3279803239e+00 
10000 5.5757407285e+00 4.3684067023e-02 1.9202664976e+00 -3.3259991379e+00 1.9202664976e+00 3.3259991379e+00 
10100 5.5756650899e+00 4.3406188199e-02 1.9191291619e+00 -3.3240292148e+00 1.9191291619e+00 3.3240292148e+00 
10200 5.5755910354e+00 4.3126509491e-02 1.9179983907e+00 -3.3220706615e+00 1.9179983907e+00 3.3220706615e+00 
10300 5.5755185173e+00 4.2845157013e-02 1.9168742423e+00 -3.3201235794e+00 1.9168742423e+00 3.3201235794e+00 
10400 5.5754474900e+00 4.2562255062e-02 1.9157567723e+00 -3.3181880645e+00 1.9157567723e+00 3.3181880645e+00 
10500 5.5753779096e+00 4.2277926049e-02 1.9146460326e+00 -3.3162642070e+00 1.9146460326e+00 3.3162642070e+00 
10600 5.5753097343e+00 4.1992290418e-02 1.9135420724e+00 -3.3143520919e+00 1.9135420724e+00 3.3143520919e+00 
10700 5.5752429237e+00 4.1705466583e-02 1.9124449376e+00 -3.3124517985e+00 1.9124449376e+00 3.3124517985e+00 
10800 5.5751774392e+00 4.1417570863e-02 1.9113546708e+00 -3.3105634012e+00 1.9113546708e+00 3.3105634012e+00 
10900 5.5751132437e+00 4.1128717424e-02 1.9102713121e+00 -3.3086869688e+00 1.9102713121e+00 3.3086869688e+00 
11000 5.5750503016e+00 4.0839018221e-02 1.9091948982e+00 -3.3068225652e+00 1.9091948982e+00 3.3068225652e+00 
11100 5.5749885789e+00 4.0548582953e-02 1.9081254630e+00 -3.3049702492e+00 1.9081254630e+00 3.3049702492e+00 
11200 5.5749280428e+00 4.0257519015e-02 1.9070630377e+00 -3.3031300745e+00 1.9070630377e+00 3.3031300745e+00 
11300 5.5748686621e+00 3.9965931454e-02 1.9060076503e+00 -3.3013020900e+00 1.9060076503e+00 3.3013020900e+00 
11400 5.5748104065e+00 3.9673922936e-02 1.9049593265e+00 -3.2994863398e+00 1.9049593265e+00 3.2994863398e+00 
11500 5.5747532473e+00 3.9381593712e-02 1.9039180889e+00 -3.2976828634e+00 1.9039180889e+00 3.2976828634e+00 
11600 5.5746971568e+00 3.9089041590e-02 1.9028839576e+00 -3.2958916954e+00 1.9028839576e+00 3.2958916954e+00 
11700 5.5746421085e+00 3.8796361907e-02 1.9018569500e+00 -3.2941128662e+00 1.9018569500e+00 3.2941128662e+00 
11800 5.5745880768e+00 3.8503647516e-02 1.9008370812e+00 -3.2923464015e+00 1.9008370812e+00 3.2923464015e+00 
11900 5.5745350374e+00 3.8210988761e-02 1.8998243635e+00 -3.2905923231e+00 1.8998243635e+00 3.2905923231e+00 
12000 5.5744829667e+00 3.7918473474e-02 1.8988188070e+00 -3.2888506481e+00 1.8988188070e+00 3.2888506481e+00 
12100 5.5744318424e+00 3.7626186956e-02 1.8978204192e+00 -3.2871213898e+00 1.8978204192e+00 3.2871213898e+00 
12200 5.5743816426e+00 3.7334211982e-02 1.8968292056e+00 -3.2854045574e+00 1.8968292056e+00 3.2854045574e+00 
12300 5.5743323468e+00 3.7042628792e-02 1.8958451691e+00 -3.2837001562e+00 1.8958451691e+00 3.2837001562e+00 
12400 5.5742839349e+00 3.6751515097e-02 1.8948683107e+00 -3.2820081878e+00 1.8948683107e+00 3.2820081878e+00 
12500 5.5742363878e+00 3.6460946084e-02 1.8938986291e+00 -3.2803286500e+00 1.8938986291e+00 3.2803286500e+00 
12600 5.5741896870e+00 3.6170994422e-02 1.8929361210e+00 -3.2786615371e+00 1.8929361210e+00 3.2786615371e+00 
12700 5.5741438148e+00 3.5881730278e-02 1.8919807811e+00 -3.2770068397e+00 1.8919807811e+00 3.2770068397e+00 
12800 5.5740987540e+00 3.5593221327e-02 1.8910326020e+00 -3.2753645454e+00 1.8910326020e+00 3.2753645454e+00 
12900 5.5740544883e+00 3.5305532771e-02 1.8900915747e+00 -3.2737346383e+00 1.8900915747e+00 3.2737346383e+00 
13000 5.5740110018e+00 3.5018727363e-02 1.8891576881e+00 -3.2721170992e+00 1.8891576881e+00 3.2721170992e+00 
13100 5.5739682791e+00 3.4732865422e-02 1.8882309295e+00 -3.2705119063e+00 1.8882309295e+00 3.2705119063e+00 
13200 5.5739263055e+00 3.4448004866e-02 1.8873112844e+00 -3.2689190343e+00 1.8873112844e+00 3.2689190343e+00 
13300 5.5738850667e+00 3.4164201233e-02 1.8863987368e+00 -3.2673384555e+00 1.8863987368e+00 3.2673384555e+00 
13400 5.5738445489e+00 3.3881507716e-02 1.8854932690e+00 -3.2657701393e+00 1.8854932690e+00 3.2657701393e+00 
13500 5.5738047388e+00 3.3599975188e-02 1.8845948618e+00 -3.2642140523e+00 1.8845948618e+00 3.2642140523e+00 
13600 5.5737656235e+00 3.3319652245e-02 1.8837034945e+00 -3.2626701588e+00 1.8837034945e+00 3.2626701588e+00 
13700 5.5737271903e+00 3.3040585231e-02 1.8828191450e+00 -3.2611384206e+00 1.8828191450e+00 3.2611384206e+00 
13800 5.5736894273e+00 3.2762818282e-02 1.8819417900e+00 -3.2596187971e+00 1.8819417900e+00 3.2596187971e+00 
13900 5.5736523224e+00 3.2486393363e-02 1.8810714046e+00 -3.2581112454e+00 1.8810714046e+00 3.2581112454e+00 
14000 5.5736158644e+00 3.2211350305e-02 1.8802079630e+00 -3.2566157207e+00 1.8802079630e+00 3.2566157207e+00 
14100 5.5735800419e+00 3.1937726852e-02 1.8793514380e+00 -3.2551321758e+00 1.8793514380e+00 3.2551321758e+00 
14200 5.5735448441e+00 3.1665558697e-02 1.8785018013e+00 -3.2536605619e+00 1.8785018013e+00 3.2536605619e+00 
14300 5.5735102605e+00 3.1394879528e-02 1.8776590235e+00 -3.2522008280e+00 1.8776590235e+00 3.2522008280e+00 
14400 5.5734762807e+00 3.1125721075e-02 1.8768230744e+00 -3.2507529217e+00 1.8768230744e+00 3.2507529217e+00 
14500 5.5734428945e+00 3.0858113151e-02 1.8759939225e+00 -3.2493167885e+00 1.8759939225e+00 3.2493167885e+00 
14600 5.5734100921e+00 3.0592083700e-02 1.8751715356e+00 -3.2478923725e+00 1.8751715356e+00 3.2478923725e+00 
14700 5.5733778638e+00 3.0327658843e-02 1.8743558805e+00 -3.2464796164e+00 1.8743558805e+00 3.2464796164e+00 
14800 5.5733462003e+00 3.0064862927e-02 1.8735469232e+00 -3.2450784614e+00 1.8735469232e+00 3.2450784614e+00 
14900 5.5733150921e+00 2.9803718567e-02 1.8727446290e+00 -3.2436888471e+00 1.8727446290e+00 3.2436888471e+00 
15000 5.5732845303e+00 2.9544246700e-02 1.8719489624e+00 -3.2423107121e+00 1.8719489624e+00 3.2423107121e+00 
15100 5.5732545059e+00 2.9286466629e-02 1.8711598872e+00 -3.2409439937e+00 1.8711598872e+00 3.2409439937e+00 
15200 5.5732250101e+00 2.9030396073e-02 1.8703773666e+00 -3.2395886283e+00 1.8703773666e+00 3.2395886283e+00 
15300 5.5731960344e+00 2.8776051214e-02 1.8696013631e+00 -3.2382445508e+00 1.8696013631e+00 3.2382445508e+00 
15400 5.5731675703e+00 2.8523446744e-02 1.8688318387e+00 -3.2369116955e+00 1.8688318387e+00 3.2369116955e+00 
15500 5.5731396094e+00 2.8272595918e-02 1.8680687549e+00 -3.2355899956e+00 1.8680687549e+00 3.2355899956e+00 
15600 5.5731121437e+00 2.8023510593e-02 1.8673120728e+00 -3.2342793836e+00 1.8673120728e+00 3.2342793836e+00 
15700 5.5730851650e+00 2.7776201284e-02 1.8665617528e+00 -3.2329797912e+00 1.8665617528e+00 3.2329797912e+00 
15800 5.5730586653e+00 2.7530677209e-02 1.8658177550e+00 -3.2316911493e+00 1.8658177550e+00 3.2316911493e+00 
15900 5.5730326370e+00 2.7286946330e-02 1.8650800393e+00 -3.2304133882e+00 1.8650800393e+00 3.2304133882e+00 
16000 5.5730070722e+00 2.7045015408e-02 1.8643485650e+00 -3.2291464376e+00 1.8643485650e+00 3.2291464376e+00 
16100 5.5729819633e+00 2.6804890043e-02 1.8636232912e+00 -3.2278902266e+00 1.8636232912e+00 3.2278902266e+00 
16200 5.5729573030e+00 2.6566574721e-02 1.8629041769e+00 -3.2266446840e+00 1.8629041769e+00 3.2266446840e+00 
16300 5.5729330837e+00 2.6330072861e-02 1.8621911805e+00 -3.2254097380e+00 1.8621911805e+00 3.2254097380e+00 
16400 5.5729092982e+00 2.6095386854e-02 1.8614842604e+00 -3.2241853165e+00 1.8614842604e+00 3.2241853165e+00 
16500 5.5728859393e+00 2.5862518110e-02 1.8607833749e+00 -3.2229713471e+00 1.8607833749e+00 3.2229713471e+00 
16600 5.5728629999e+00 2.5631467101e-02 1.8600884818e+00 -3.2217677571e+00 1.8600884818e+00 3.2217677571e+00 
16700 5.5728404730e+00 2.5402233402e-02 1.8593995392e+00 -3.2205744735e+00 1.8593995392e+00 3.2205744735e+00 
16800 5.5728183518e+00 2.5174815729e-02 1.8587165048e+00 -3.2193914232e+00 1.8587165048e+00 3.2193914232e+00 
16900 5.5727966293e+00 2.4949211986e-02 1.8580393363e+00 -3.2182185329e+00 1.8580393363e+00 3.2182185329e+00 
17000 5.5727752989e+00 2.4725419298e-02 1.8573679913e+00 -3.2170557292e+00 1.8573679913e+00 3.2170557292e+00 
17100 5.5727543540e+00 2.4503434054e-02 1.8567024274e+00 -3.2159029387e+00 1.8567024274e+00 3.2159029387e+00 
17200 5.5727337880e+00 2.4283251941e-02 1.8560426021e+00 -3.2147600879e+00 1.8560426021e+00 3.2147600879e+00 
17300 5.5727135945e+00 2.4064867983e-02 1.8553884732e+00 -3.2136271033e+00 1.8553884732e+00 3.2136271033e+00 
17400 5.5726937672e+00 2.3848276579e-02 1.8547399980e+00 -3.2125039114e+00 1.8547399980e+00 3.2125039114e+00 
17500 5.5726742996e+00 2.3633471533e-02 1.8540971344e+00 -3.2113904389e+00 1.8540971344e+00 3.2113904389e+00 
17600 5.5726551858e+00 2.3420446090e-02 1.8534598399e+00 -3.2102866125e+00 1.8534598399e+00 3.2102866125e+00 
17700 5.5726364195e+00 2.3209192972e-02 1.8528280724e+00 -3.2091923590e+00 1.8528280724e+00 3.2091923590e+00 
17800 5.5726179949e+00 2.2999704404e-02 1.8522017896e+00 -3.2081076055e+00 1.8522017896e+00 3.2081076055e+00 
17900 5.5725999059e+00 2.2791972152e-02 1.8515809496e+00 -3.2070322791e+00 1.8515809496e+00 3.2070322791e+00 
18000 5.5725821467e+00 2.2585987547e-02 1.8509655105e+00 -3.2059663072e+00 1.8509655105e+00 3.2059663072e+00 
18100 5.5725647117e+00 2.2381741519e-02 1.8503554303e+00 -3.2049096173e+00 1.8503554303e+00 3.2049096173e+00 
18200 5.5725475951e+00 2.2179224623e-02 1.8497506675e+00 -3.2038621375e+00 1.8497506675e+00 3.2038621375e+00 
18300 5.5725307914e+00 2.1978427064e-02 1.8491511806e+00 -3.2028237957e+00 1.8491511806e+00 3.2028237957e+00 
18400 5.5725142951e+00 2.1779338729e-02 1.8485569282e+00 -3.2017945204e+00 1.8485569282e+00 3.2017945204e+00 
18500 5.5724981008e+00 2.1581949208e-02 1.8479678693e+00 -3.2007742403e+00 1.8479678693e+00 3.2007742403e+00 
18600 5.5724822032e+00 2.1386247817e-02 1.8473839627e+00 -3.1997628844e+00 1.8473839627e+00 3.1997628844e+00 
18700 5.5724665971e+00 2.1192223628e-02 1.8468051677e+00 -3.1987603821e+00 1.8468051677e+00 3.1987603821e+00 
18800 5.5724512774e+00 2.0999865485e-02 1.8462314438e+00 -3.1977666632e+00 1.8462314438e+00 3.1977666632e+00 
18900 5.5724362389e+00 2.0809162030e-02 1.8456627505e+00 -3.1967816576e+00 1.8456627505e+00 3.1967816576e+00 
19000 5.5724214767e+00 2.0620101720e-02 1.8450990478e+00 -3.1958052958e+00 1.8450990478e+00 3.1958052958e+00 
19100 5.5724069859e+00 2.0432672850e-02 1.8445402957e+00 -3.1948375087e+00 1.8445402957e+00 3.1948375087e+00 
19200 5.5723927618e+00 2.0246863572e-02 1.8439864544e+00 -3.1938782276e+00 1.8439864544e+00 3.1938782276e+00 
19300 5.5723787995e+00 2.0062661911e-02 1.8434374846e+00 -3.1929273839e+00 1.8434374846e+00 3.1929273839e+00 
19400 5.5723650945e+00 1.9880055785e-02 1.8428933470e+00 -3.1919849099e+00 1.8428933470e+00 3.1919849099e+00 
19500 5.5723516421e+00 1.9699033016e-02 1.8423540025e+00 -3.1910507379e+00 1.8423540025e+00 3.1910507379e+00 
19600 5.5723384379e+00 1.9519581356e-02 1.8418194125e+00 -3.1901248009e+00 1.8418194125e+00 3.1901248009e+00 
19700 5.5723254774e+00 1.9341688491e-02 1.8412895385e+00 -3.1892070321e+00 1.8412895385e+00 3.1892070321e+00 
19800 5.5723127564e+00 1.9165342061e-02 1.8407643422e+00 -3.1882973655e+00 1.8407643422e+00 3.1882973655e+00 
19900 5.5723002705e+00 1.8990529674e-02 1.8402437857e+00 -3.1873957351e+00 1.8402437857e+00 3.1873957351e+00 
20000 5.5722880156e+00 1.8817238915e-02 1.8397278312e+00 -3.1865020757e+00 1.8397278312e+00 3.1865020757e+00 
20100 5.5722759875e+00 1.8645457362e-02 1.8392164412e+00 -3.1856163223e+00 1.8392164412e+00 3.1856163223e+00 
20200 5.5722641823e+00 1.8475172594e-02 1.8387095786e+00 -3.1847384105e+00 1.8387095786e+00 3.1847384105e+00 
20300 5.5722525959e+00 1.8306372203e-02 1.8382072064e+00 -3.1838682763e+00 1.8382072064e+00 3.1838682763e+00 
20400 5.5722412245e+00 1.8139043805e-02 1.8377092880e+00 -3.1830058563e+00 1.8377092880e+00 3.1830058563e+00 
20500 5.5722300642e+00 1.7973175048e-02 1.8372157868e+00 -3.1821510873e+00 1.8372157868e+00 3.1821510873e+00 
20600 5.5722191112e+00 1.7808753620e-02 1.8367266669e+00 -3.1813039067e+00 1.8367266669e+00 3.1813039067e+00 
20700 5.5722083619e+00 1.7645767260e-02 1.8362418923e+00 -3.1804642524e+00 1.8362418923e+00 3.1804642524e+00 
20800 5.5721978126e+00 1.7484203763e-02 1.8357614273e+00 -3.1796320627e+00 1.8357614273e+00 3.1796320627e+00 
20900 5.5721874597e+00 1.7324050988e-02 1.8352852367e+00 -3.1788072763e+00 1.8352852367e+00 3.1788072763e+00 
21000 5.5721772998e+00 1.7165296864e-02 1.8348132853e+00 -3.1779898326e+00 1.8348132853e+00 3.1779898326e+00 
21100 5.5721673294e+00 1.7007929396e-02 1.8343455383e+00 -3.1771796710e+00 1.8343455383e+00 3.1771796710e+00 
21200 5.5721575452e+00 1.6851936673e-02 1.8338819612e+00 -3.1763767319e+00 1.8338819612e+00 3.1763767319e+00 
21300 5.5721479437e+00 1.6697306868e-02 1.8334225196e+00 -3.1755809557e+00 1.8334225196e+00 3.1755809557e+00 
21400 5.5721385217e+00 1.6544028246e-02 1.8329671795e+00 -3.1747922835e+00 1.8329671795e+00 3.1747922835e+00 
21500 5.5721292761e+00 1.6392089170e-02 1.8325159071e+00 -3.1740106569e+00 1.8325159071e+00 3.1740106569e+00 
21600 5.5721202037e+00 1.6241478100e-02 1.8320686689e+00 -3.1732360176e+00 1.8320686689e+00 3.1732360176e+00 
21700 5.5721113013e+00 1.6092183597e-02 1.8316254317e+00 -3.1724683081e+00 1.8316254317e+00 3.1724683081e+00 
21800 5.5721025660e+00 1.5944194331e-02 1.8311861623e+00 -3.1717074711e+00 1.8311861623e+00 3.1717074711e+00 
21900 5.5720939947e+00 1.5797499077e-02 1.8307508280e+00 -3.1709534500e+00 1.8307508280e+00 3.1709534500e+00 
22000 5.5720855845e+00 1.5652086722e-02 1.8303193963e+00 -3.1702061884e+00 1.8303193963e+00 3.1702061884e+00 
22100 5.5720773325e+00 1.5507946263e-02 1.8298918349e+00 -3.1694656304e+00 1.8298918349e+00 3.1694656304e+00 
22200 5.5720692359e+00 1.5365066813e-02 1.8294681118e+00 -3.1687317205e+00 1.8294681118e+00 3.1687317205e+00 
22300 5.5720612919e+00 1.5223437599e-02 1.8290481953e+00 -3.1680044037e+00 1.8290481953e+00 3.1680044037e+00 
22400 5.5720534978e+00 1.5083047961e-02 1.8286320537e+00 -3.1672836254e+00 1.8286320537e+00 3.1672836254e+00 
22500 5.5720458507e+00 1.4943887360e-02 1.8282196558e+00 -3.1665693312e+00 1.8282196558e+00 3.1665693312e+00 
22600 5.5720383482e+00 1.4805945371e-02 1.8278109705e+00 -3.1658614675e+00 1.8278109705e+00 3.1658614675e+00 
22700 5.5720309875e+00 1.4669211685e-02 1.8274059669e+00 -3.1651599808e+00 1.8274059669e+00 3.1651599808e+00 
22800 5.5720237662e+00 1.4533676114e-02 1.8270046146e+00 -3.1644648181e+00 1.8270046146e+00 3.1644648181e+00 
22900 5.5720166817e+00 1.4399328584e-02 1.8266068830e+00 -3.1637759268e+00 1.8266068830e+00 3.1637759268e+00 
23000 5.5720097315e+00 1.4266159136e-02 1.8262127421e+00 -3.1630932547e+00 1.8262127421e+00 3.1630932547e+00 
23100 5.5720029133e+00 1.4134157931e-02 1.8258221619e+00 -3.1624167499e+00 1.8258221619e+00 3.1624167499e+00 
23200 5.5719962245e+00 1.4003315242e-02 1.8254351127e+00 -3.1617463611e+00 1.8254351127e+00 3.1617463611e+00 
23300 5.5719896628e+00 1.3873621457e-02 1.8250515651e+00 -3.1610820372e+00 1.8250515651e+00 3.1610820372e+00 
23400 5.5719832260e+00 1.3745067077e-02 1.8246714898e+00 -3.1604237275e+00 1.8246714898e+00 3.1604237275e+00 
23500 5.5719769118e+00 1.3617642713e-02 1.8242948578e+00 -3.1597713817e+00 1.8242948578e+00 3.1597713817e+00 
23600 5.5719707179e+00 1.3491339090e-02 1.8239216402e+00 -3.1591249499e+00 1.8239216402e+00 3.1591249499e+00 
23700 5.5719646421e+00 1.3366147038e-02 1.8235518085e+00 -3.1584843825e+00 1.8235518085e+00 3.1584843825e+00 
23800 5.5719586822e+00 1.3242057498e-02 1.8231853341e+00 -3.1578496303e+00 1.8231853341e+00 3.1578496303e+00 
23900 5.5719528361e+00 1.3119061514e-02 1.8228221890e+00 -3.1572206445e+00 1.8228221890e+00 3.1572206445e+00 
24000 5.5719471018e+00 1.2997150235e-02 1.8224623451e+00 -3.1565973765e+00 1.8224623451e+00 3.1565973765e+00 
24100 5.5719414772e+00 1.2876314913e-02 1.8221057746e+00 -3.1559797783e+00 1.8221057746e+00 3.1559797783e+00 
24200 5.5719359602e+00 1.2756546899e-02 1.8217524499e+00 -3.1553678020e+00 1.8217524499e+00 3.1553678020e+00 
24300 5.5719305488e+00 1.2637837643e-02 1.8214023436e+00 -3.1547614002e+00 1.8214023436e+00 3.1547614002e+00 
24400 5.5719252412e+00 1.2520178691e-02 1.8210554286e+00 -3.1541605258e+00 1.8210554286e+00 3.1541605258e+00 
24500 5.5719200353e+00 1.2403561683e-02 1.8207116778e+00 -3.1535651320e+00 1.8207116778e+00 3.1535651320e+00 
24600 5.5719149293e+00 1.2287978353e-02 1.8203710645e+00 -3.1529751723e+00 1.8203710645e+00 3.1529751723e+00 
24700 5.5719099213e+00 1.2173420524e-02 1.8200335619e+00 -3.1523906007e+00 1.8200335619e+00 3.1523906007e+00 
24800 5.5719050095e+00 1.2059880107e-02 1.8196991437e+00 -3.1518113713e+00 1.8196991437e+00 3.1518113713e+00 
24900 5.5719001922e+00 1.1947349099e-02 1.8193677836e+00 -3.1512374388e+00 1.8193677836e+00 3.1512374388e+00 
25000 5.5718954674e+00 1.1835819581e-02 1.8190394555e+00 -3.1506687579e+00 1.8190394555e+00 3.1506687579e+00 
25100 5.5718908335e+00 1.1725283717e-02 1.8187141336e+00 -3.1501052839e+00 1.8187141336e+00 3.1501052839e+00 
25200 5.5718862888e+00 1.1615733748e-02 1.8183917922e+00 -3.1495469722e+00 1.8183917922e+00 3.1495469722e+00 
25300 5.5718818316e+00 1.1507161994e-02 1.8180724058e+00 -3.1489937787e+00 1.8180724058e+00 3.1489937787e+00 
25400 5.5718774602e+00 1.1399560850e-02 1.8177559490e+00 -3.1484456594e+00 1.8177559490e+00 3.1484456594e+00 
25500 5.5718731730e+00 1.1292922785e-02 1.8174423966e+00 -3.1479025708e+00 1.8174423966e+00 3.1479025708e+00 
25600 5.5718689685e+00 1.1187240340e-02 1.8171317238e+00 -3.1473644696e+00 1.8171317238e+00 3.1473644696e+00 
25700 5.5718648451e+00 1.1082506121e-02 1.8168239055e+00 -3.1468313128e+00 1.8168239055e+00 3.1468313128e+00 
25800 5.5718608011e+00 1.0978712806e-02 1.8165189174e+00 -3.1463030578e+00 1.8165189174e+00 3.1463030578e+00 
25900 5.5718568352e+00 1.0875853136e-02 1.8162167348e+00 -3.1457796622e+00 1.8162167348e+00 3.1457796622e+00 
26000 5.5718529458e+00 1.0773919915e-02 1.8159173334e+00 -3.1452610839e+00 1.8159173334e+00 3.1452610839e+00 
26100 5.5718491314e+00 1.0672906009e-02 1.8156206892e+00 -3.1447472811e+00 1.8156206892e+00 3.1447472811e+00 
26200 5.5718453907e+00 1.0572804343e-02 1.8153267782e+00 -3.1442382123e+00 1.8153267782e+00 3.1442382123e+00 
26300 5.5718417222e+00 1.0473607899e-02 1.8150355766e+00 -3.1437338363e+00 1.8150355766e+00 3.1437338363e+00 
26400 5.5718381246e+00 1.0375309717e-02 1.8147470608e+00 -3.1432341122e+00 1.8147470608e+00 3.1432341122e+00 
26500 5.5718345964e+00 1.0277902888e-02 1.8144612073e+00 -3.1427389993e+00 1.8144612073e+00 3.1427389993e+00 
26600 5.5718311364e+00 1.0181380558e-02 1.8141779927e+00 -3.1422484574e+00 1.8141779927e+00 3.1422484574e+00 
26700 5.5718277432e+00 1.0085735923e-02 1.8138973941e+00 -3.1417624463e+00 1.8138973941e+00 3.1417624463e+00 
26800 5.5718244155e+00 9.9909622271e-03 1.8136193883e+00 -3.1412809262e+00 1.8136193883e+00 3.1412809262e+00 
26900 5.5718211522e+00 9.8970527633e-03 1.8133439527e+00 -3.1408038576e+00 1.8133439527e+00 3.1408038576e+00 
27000 5.5718179518e+00 9.8040008703e-03 1.8130710644e+00 -3.1403312013e+00 1.8130710644e+00 3.1403312013e+00 
27100 5.5718148133e+00 9.7117999314e-03 1.8128007011e+00 -3.1398629184e+00 1.8128007011e+00 3.1398629184e+00 
27200 5.5718117354e+00 9.6204433735e-03 1.8125328404e+00 -3.1393989700e+00 1.8125328404e+00 3.1393989700e+00 
27300 5.5718087170e+00 9.5299246652e-03 1.8122674602e+00 -3.1389393180e+00 1.8122674602e+00 3.1389393180e+00 
27400 5.5718057569e+00 9.4402373160e-03 1.8120045383e+00 -3.1384839240e+00 1.8120045383e+00 3.1384839240e+00 
27500 5.5718028539e+00 9.3513748751e-03 1.8117440530e+00 -3.1380327502e+00 1.8117440530e+00 3.1380327502e+00 
27600 5.5718000070e+00 9.2633309298e-03 1.8114859826e+00 -3.1375857590e+00 1.8114859826e+00 3.1375857590e+00 
27700 5.5717972151e+00 9.1760991049e-03 1.8112303054e+00 -3.1371429131e+00 1.8112303054e+00 3.1371429131e+00 
27800 5.5717944771e+00 9.0896730613e-03 1.8109770001e+00 -3.1367041754e+00 1.8109770001e+00 3.1367041754e+00 
27900 5.5717917920e+00 9.0040464953e-03 1.8107260454e+00 -3.1362695092e+00 1.8107260454e+00 3.1362695092e+00 
28000 5.5717891587e+00 8.9192131372e-03 1.8104774202e+00 -3.1358388778e+00 1.8104774202e+00 3.1358388778e+00 
28100 5.5717865762e+00 8.8351667510e-03 1.8102311037e+00 -3.1354122450e+00 1.8102311037e+00 3.1354122450e+00 
28200 5.5717840436e+00 8.7519011333e-03 1.8099870750e+00 -3.1349895749e+00 1.8099870750e+00 3.1349895749e+00 
28300 5.5717815598e+00 8.6694101124e-03 1.8097453134e+00 -3.1345708316e+00 1.8097453134e+00 3.1345708316e+00 
28400 5.5717791239e+00 8.5876875475e-03 1.8095057985e+00 -3.1341559796e+00 1.8095057985e+00 3.1341559796e+00 
28500 5.5717767350e+00 8.5067273286e-03 1.8092685100e+00 -3.1337449838e+00 1.8092685100e+00 3.1337449838e+00 
28600 5.5717743922e+00 8.4265233751e-03 1.8090334276e+00 -3.1333378092e+00 1.8090334276e+00 3.1333378092e+00 
28700 5.5717720945e+00 8.3470696358e-03 1.8088005313e+00 -3.1329344210e+00 1.8088005313e+00 3.1329344210e+00 
28800 5.5717698411e+00 8.2683600881e-03 1.8085698013e+00 -3.1325347849e+00 1.8085698013e+00 3.1325347849e+00 
28900 5.5717676312e+00 8.1903887375e-03 1.8083412177e+00 -3.1321388665e+00 1.8083412177e+00 3.1321388665e+00 
29000 5.5717654638e+00 8.1131496173e-03 1.8081147611e+00 -3.1317466321e+00 1.8081147611e+00 3.1317466321e+00 
29100 5.5717633382e+00 8.0366367880e-03 1.8078904119e+00 -3.1313580479e+00 1.8078904119e+00 3.1313580479e+00 
29200 5.5717612535e+00 7.9608443371e-03 1.8076681509e+00 -3.1309730805e+00 1.8076681509e+00 3.1309730805e+00 
29300 5.5717592089e+00 7.8857663788e-03 1.8074479588e+00 -3.1305916967e+00 1.8074479588e+00 3.1305916967e+00 
29400 5.5717572037e+00 7.8113970536e-03 1.8072298168e+00 -3.1302138636e+00 1.8072298168e+00 3.1302138636e+00 
29500 5.5717552371e+00 7.7377305281e-03 1.8070137059e+00 -3.1298395485e+00 1.8070137059e+00 3.1298395485e+00 
29600 5.5717533082e+00 7.6647609948e-03 1.8067996074e+00 -3.1294687191e+00 1.8067996074e+00 3.1294687191e+00 
29700 5.5717514165e+00 7.5924826720e-03 1.8065875028e+00 -3.1291013431e+00 1.8065875028e+00 3.1291013431e+00 
29800 5.5717495612e+00 7.5208898034e-03 1.8063773736e+00 -3.1287373887e+00 1.8063773736e+00 3.1287373887e+00 
29900 5.5717477415e+00 7.4499766585e-03 1.8061692015e+00 -3.1283768241e+00 1.8061692015e+00 3.1283768241e+00 
30000 5.5717459568e+00 7.3797375319e-03 1.8059629685e+00 -3.1280196180e+00 1.8059629685e+00 3.1280196180e+00 
30100 5.5717442063e+00 7.3101667439e-03 1.8057586565e+00 -3.1276657393e+00 1.8057586565e+00 3.1276657393e+00 
30200 5.5717424895e+00 7.2412586399e-03 1.8055562477e+00 -3.1273151569e+00 1.8055562477e+00 3.1273151569e+00 
30300 5.5717408056e+00 7.1730075908e-03 1.8053557243e+00 -3.1269678402e+00 1.8053557243e+00 3.1269678402e+00 
30400 5.5717391541e+00 7.1054079928e-03 1.8051570688e+00 -3.1266237588e+00 1.8051570688e+00 3.1266237588e+00 
30500 5.5717375342e+00 7.0384542679e-03 1.8049602638e+00 -3.1262828826e+00 1.8049602638e+00 3.1262828826e+00 
30600 5.5717359454e+00 6.9721408632e-03 1.8047652920e+00 -3.1259451815e+00 1.8047652920e+00 3.1259451815e+00 
30700 5.5717343871e+00 6.9064622517e-03 1.8045721362e+00 -3.1256106259e+00 1.8045721362e+00 3.1256106259e+00 
30800 5.5717328587e+00 6.8414129321e-03 1.8043807795e+00 -3.1252791863e+00 1.8043807795e+00 3.1252791863e+00 
30900 5.5717313595e+00 6.7769874292e-03 1.8041912050e+00 -3.1249508336e+00 1.8041912050e+00 3.1249508336e+00 
31000 5.5717298891e+00 6.7131802937e-03 1.8040033959e+00 -3.1246255387e+00 1.8040033959e+00 3.1246255387e+00 
31100 5.5717284468e+00 6.6499861025e-03 1.8038173357e+00 -3.1243032730e+00 1.8038173357e+00 3.1243032730e+00 
31200 5.5717270321e+00 6.5873994590e-03 1.8036330079e+00 -3.1239840079e+00 1.8036330079e+00 3.1239840079e+00 
31300 5.5717256446e+00 6.5254149935e-03 1.8034503962e+00 -3.1236677152e+00 1.8034503962e+00 3.1236677152e+00 
31400 5.5717242835e+00 6.4640273627e-03 1.8032694845e+00 -3.1233543670e+00 1.8032694845e+00 3.1233543670e+00 
31500 5.5717229485e+00 6.4032312506e-03 1.8030902567e+00 -3.1230439353e+00 1.8030902567e+00 3.1230439353e+00 
31600 5.5717216391e+00 6.3430213687e-03 1.8029126970e+00 -3.1227363927e+00 1.8029126970e+00 3.1227363927e+00 
31700 5.5717203546e+00 6.2833924556e-03 1.8027367894e+00 -3.1224317120e+00 1.8027367894e+00 3.1224317120e+00 
31800 5.5717190948e+00 6.2243392781e-03 1.8025625185e+00 -3.1221298659e+00 1.8025625185e+00 3.1221298659e+00 
31900 5.5717178590e+00 6.1658566308e-03 1.8023898688e+00 -3.1218308278e+00 1.8023898688e+00 3.1218308278e+00 
32000 5.5717166468e+00 6.1079393368e-03 1.8022188248e+00 -3.1215345709e+00 1.8022188248e+00 3.1215345709e+00 
32100 5.5717154577e+00 6.0505822476e-03 1.8020493713e+00 -3.1212410689e+00 1.8020493713e+00 3.1212410689e+00 
32200 5.5717142913e+00 5.9937802436e-03 1.8018814934e+00 -3.1209502957e+00 1.8018814934e+00 3.1209502957e+00 
32300 5.5717131472e+00 5.9375282343e-03 1.8017151759e+00 -3.1206622254e+00 1.8017151759e+00 3.1206622254e+00 
32400 5.5717120249e+00 5.8818211587e-03 1.8015504041e+00 -3.1203768322e+00 1.8015504041e+00 3.1203768322e+00 
32500 5.5717109241e+00 5.8266539851e-03 1.8013871632e+00 -3.1200940908e+00 1.8013871632e+00 3.1200940908e+00 
32600 5.5717098442e+00 5.7720217121e-03 1.8012254388e+00 -3.1198139758e+00 1.8012254388e+00 3.1198139758e+00 
32700 5.5717087849e+00 5.7179193681e-03 1.8010652163e+00 -3.1195364623e+00 1.8010652163e+00 3.1195364623e+00 
32800 5.5717077457e+00 5.6643420124e-03 1.8009064815e+00 -3.1192615256e+00 1.8009064815e+00 3.1192615256e+00 
32900 5.5717067264e+00 5.6112847344e-03 1.8007492201e+00 -3.1189891409e+00 1.8007492201e+00 3.1189891409e+00 
33000 5.5717057264e+00 5.5587426551e-03 1.8005934182e+00 -3.1187192841e+00 1.8005934182e+00 3.1187192841e+00 
33100 5.5717047455e+00 5.5067109262e-03 1.8004390618e+00 -3.1184519309e+00 1.8004390618e+00 3.1184519309e+00 
33200 5.5717037833e+00 5.4551847311e-03 1.8002861370e+00 -3.1181870575e+00 1.8002861370e+00 3.1181870575e+00 
33300 5.5717028393e+00 5.4041592848e-03 1.8001346303e+00 -3.1179246402e+00 1.8001346303e+00 3.1179246402e+00 
33400 5.5717019133e+00 5.3536298344e-03 1.7999845281e+00 -3.1176646555e+00 1.7999845281e+00 3.1176646555e+00 
33500 5.5717010049e+00 5.3035916590e-03 1.7998358169e+00 -3.1174070802e+00 1.7998358169e+00 3.1174070802e+00 
33600 5.5717001138e+00 5.2540400701e-03 1.7996884835e+00 -3.1171518913e+00 1.7996884835e+00 3.1171518913e+00 
33700 5.5716992396e+00 5.2049704118e-03 1.7995425147e+00 -3.1168990658e+00 1.7995425147e+00 3.1168990658e+00 
33800 5.5716983819e+00 5.1563780612e-03 1.7993978974e+00 -3.1166485812e+00 1.7993978974e+00 3.1166485812e+00 
33900 5.5716975406e+00 5.1082584282e-03 1.7992546186e+00 -3.1164004152e+00 1.7992546186e+00 3.1164004152e+00 
34000 5.5716967152e+00 5.0606069559e-03 1.7991126656e+00 -3.1161545454e+00 1.7991126656e+00 3.1161545454e+00 
34100 5.5716959055e+00 5.0134191209e-03 1.7989720257e+00 -3.1159109499e+00 1.7989720257e+00 3.1159109499e+00 
34200 5.5716951111e+00 4.9666904333e-03 1.7988326863e+00 -3.1156696070e+00 1.7988326863e+00 3.1156696070e+00 
34300 5.5716943317e+00 4.9204164368e-03 1.7986946349e+00 -3.1154304949e+00 1.7986946349e+00 3.1154304949e+00 
34400 5.5716935671e+00 4.8745927092e-03 1.7985578592e+00 -3.1151935925e+00 1.7985578592e+00 3.1151935925e+00 
34500 5.5716928170e+00 4.8292148622e-03 1.7984223470e+00 -3.1149588784e+00 1.7984223470e+00 3.1149588784e+00 
34600 5.5716920811e+00 4.7842785414e-03 1.7982880861e+00 -3.1147263318e+00 1.7982880861e+00 3.1147263318e+00 
34700 5.5716913591e+00 4.7397794271e-03 1.7981550646e+00 -3.1144959318e+00 1.7981550646e+00 3.1144959318e+00 
34800 5.5716906507e+00 4.6957132336e-03 1.7980232706e+00 -3.1142676579e+00 1.7980232706e+00 3.1142676579e+00 
34900 5.5716899557e+00 4.6520757098e-03 1.7978926923e+00 -3.1140414896e+00 1.7978926923e+00 3.1140414896e+00 
35000 5.5716892739e+00 4.6088626392e-03 1.7977633181e+00 -3.1138174069e+00 1.7977633181e+00 3.1138174069e+00 
35100 5.5716886049e+00 4.5660698398e-03 1.7976351363e+00 -3.1135953896e+00 1.7976351363e+00 3.1135953896e+00 
35200 5.5716879486e+00 4.5236931645e-03 1.7975081357e+00 -3.1133754181e+00 1.7975081357e+00 3.1133754181e+00 
35300 5.5716873046e+00 4.4817285007e-03 1.7973823048e+00 -3.1131574726e+00 1.7973823048e+00 3.1131574726e+00 
35400 5.5716866728e+00 4.4401717707e-03 1.7972576325e+00 -3.1129415338e+00 1.7972576325e+00 3.1129415338e+00 
35500 5.5716860528e+00 4.3990189319e-03 1.7971341076e+00 -3.1127275824e+00 1.7971341076e+00 3.1127275824e+00 
35600 5.5716854446e+00 4.3582659760e-03 1.7970117192e+00 -3.1125155994e+00 1.7970117192e+00 3.1125155994e+00 
35700 5.5716848478e+00 4.3179089301e-03 1.7968904563e+00 -3.1123055659e+00 1.7968904563e+00 3.1123055659e+00 
35800 5.5716842622e+00 4.2779438558e-03 1.7967703081e+00 -3.1120974632e+00 1.7967703081e+00 3.1120974632e+00 
35900 5.5716836876e+00 4.2383668497e-03 1.7966512641e+00 -3.1118912729e+00 1.7966512641e+00 3.1118912729e+00 
36000 5.5716831239e+00 4.1991740433e-03 1.7965333135e+00 -3.1116869765e+00 1.7965333135e+00 3.1116869765e+00 
36100 5.5716825707e+00 4.1603616027e-03 1.7964164460e+00 -3.1114845560e+00 1.7964164460e+00 3.1114845560e+00 
36200 5.5716820279e+00 4.1219257290e-03 1.7963006511e+00 -3.1112839934e+00 1.7963006511e+00 3.1112839934e+00 
36300 5.5716814953e+00 4.0838626579e-03 1.7961859186e+00 -3.1110852708e+00 1.7961859186e+00 3.1110852708e+00 
36400 5.5716809727e+00 4.0461686597e-03 1.7960722383e+00 -3.1108883707e+00 1.7960722383e+00 3.1108883707e+00 
36500 5.5716804598e+00 4.0088400392e-03 1.7959596001e+00 -3.1106932757e+00 1.7959596001e+00 3.1106932757e+00 
36600 5.5716799566e+00 3.9718731360e-03 1.7958479940e+00 -3.1104999684e+00 1.7958479940e+00 3.1104999684e+00 
36700 5.5716794628e+00 3.9352643239e-03 1.7957374103e+00 -3.1103084317e+00 1.7957374103e+00 3.1103084317e+00 
36800 5.5716789782e+00 3.8990100109e-03 1.7956278390e+00 -3.1101186487e+00 1.7956278390e+00 3.1101186487e+00 
36900 5.5716785027e+00 3.8631066395e-03 1.7955192706e+00 -3.1099306026e+00 1.7955192706e+00 3.1099306026e+00 
37000 5.5716780361e+00 3.8275506859e-03 1.7954116953e+00 -3.1097442768e+00 1.7954116953e+00 3.1097442768e+00 
37100 5.5716775782e+00 3.7923386605e-03 1.7953051038e+00 -3.1095596549e+00 1.7953051038e+00 3.1095596549e+00 
37200 5.5716771288e+00 3.7574671076e-03 1.7951994866e+00 -3.1093767206e+00 1.7951994866e+00 3.1093767206e+00 
37300 5.5716766878e+00 3.7229326048e-03 1.7950948345e+00 -3.1091954577e+00 1.7950948345e+00 3.1091954577e+00 
37400 5.5716762551e+00 3.6887317637e-03 1.7949911381e+00 -3.1090158503e+00 1.7949911381e+00 3.1090158503e+00 
37500 5.5716758303e+00 3.6548612289e-03 1.7948883884e+00 -3.1088378826e+00 1.7948883884e+00 3.1088378826e+00 
37600 5.5716754135e+00 3.6213176783e-03 1.7947865763e+00 -3.1086615389e+00 1.7947865763e+00 3.1086615389e+00 
37700 5.5716750045e+00 3.5880978228e-03 1.7946856929e+00 -3.1084868037e+00 1.7946856929e+00 3.1084868037e+00 
37800 5.5716746030e+00 3.5551984063e-03 1.7945857293e+00 -3.1083136617e+00 1.7945857293e+00 3.1083136617e+00 
37900 5.5716742090e+00 3.5226162052e-03 1.7944866767e+00 -3.1081420976e+00 1.7944866767e+00 3.1081420976e+00 
38000 5.5716738223e+00 3.4903480283e-03 1.7943885266e+00 -3.1079720965e+00 1.7943885266e+00 3.1079720965e+00 
38100 5.5716734428e+00 3.4583907169e-03 1.7942912701e+00 -3.1078036434e+00 1.7942912701e+00 3.1078036434e+00 
38200 5.5716730703e+00 3.4267411441e-03 1.7941948989e+00 -3.1076367236e+00 1.7941948989e+00 3.1076367236e+00 
38300 5.5716727047e+00 3.3953962150e-03 1.7940994046e+00 -3.1074713225e+00 1.7940994046e+00 3.1074713225e+00 
38400 5.5716723459e+00 3.3643528664e-03 1.7940047786e+00 -3.1073074256e+00 1.7940047786e+00 3.1073074256e+00 
38500 5.5716719937e+00 3.3336080663e-03 1.7939110129e+00 -3.1071450186e+00 1.7939110129e+00 3.1071450186e+00 
38600 5.5716716480e+00 3.3031588139e-03 1.7938180992e+00 -3.1069840873e+00 1.7938180992e+00 3.1069840873e+00 
38700 5.5716713087e+00 3.2730021397e-03 1.7937260293e+00 -3.1068246177e+00 1.7937260293e+00 3.1068246177e+00 
38800 5.5716709756e+00 3.2431351044e-03 1.7936347954e+00 -3.1066665958e+00 1.7936347954e+00 3.1066665958e+00 
38900 5.5716706487e+00 3.2135547995e-03 1.7935443893e+00 -3.1065100080e+00 1.7935443893e+00 3.1065100080e+00 
39000 5.5716703278e+00 3.1842583467e-03 1.7934548034e+00 -3.1063548405e+00 1.7934548034e+00 3.1063548405e+00 
39100 5.5716700129e+00 3.1552428976e-03 1.7933660297e+00 -3.1062010800e+00 1.7933660297e+00 3.1062010800e+00 
39200 5.5716697037e+00 3.1265056336e-03 1.7932780606e+00 -3.1060487130e+00 1.7932780606e+00 3.1060487130e+00 
39300 5.5716694001e+00 3.0980437656e-03 1.7931908883e+00 -3.1058977263e+00 1.7931908883e+00 3.1058977263e+00 
39400 5.5716691022e+00 3.0698545338e-03 1.7931045055e+00 -3.1057481068e+00 1.7931045055e+00 3.1057481068e+00 
39500 5.5716688097e+00 3.0419352070e-03 1.7930189045e+00 -3.1055998415e+00 1.7930189045e+00 3.1055998415e+00 
39600 5.5716685226e+00 3.0142830832e-03 1.7929340780e+00 -3.1054529177e+00 1.7929340780e+00 3.1054529177e+00 
39700 5.5716682408e+00 2.9868954886e-03 1.7928500186e+00 -3.1053073225e+00 1.7928500186e+00 3.1053073225e+00 
39800 5.5716679641e+00 2.9597697776e-03 1.7927667190e+00 -3.1051630435e+00 1.7927667190e+00 3.1051630435e+00 
39900 5.5716676924e+00 2.9329033325e-03 1.7926841721e+00 -3.1050200680e+00 1.7926841721e+00 3.1050200680e+00 
40000 5.5716674257e+00 2.9062935632e-03 1.7926023707e+00 -3.1048783839e+00 1.7926023707e+00 3.1048783839e+00 
40100 5.5716671639e+00 2.8799379072e-03 1.7925213078e+00 -3.1047379788e+00 1.7925213078e+00 3.1047379788e+00 
40200 5.5716669069e+00 2.8538338289e-03 1.7924409764e+00 -3.1045988406e+00 1.7924409764e+00 3.1045988406e+00 
40300 5.5716666545e+00 2.8279788196e-03 1.7923613695e+00 -3.1044609575e+00 1.7923613695e+00 3.1044609575e+00 
40400 5.5716664067e+00 2.8023703972e-03 1.7922824803e+00 -3.1043243174e+00 1.7922824803e+00 3.1043243174e+00 
40500 5.5716661635e+00 2.7770061059e-03 1.7922043021e+00 -3.1041889087e+00 1.7922043021e+00 3.1041889087e+00 
40600 5.5716659246e+00 2.7518835158e-03 1.7921268280e+00 -3.1040547197e+00 1.7921268280e+00 3.1040547197e+00 
40700 5.5716656901e+00 2.7270002228e-03 1.7920500515e+00 -3.1039217390e+00 1.7920500515e+00 3.1039217390e+00 
40800 5.5716654599e+00 2.7023538485e-03 1.7919739660e+00 -3.1037899550e+00 1.7919739660e+00 3.1037899550e+00 
40900 5.5716652338e+00 2.6779420394e-03 1.7918985650e+00 -3.1036593565e+00 1.7918985650e+00 3.1036593565e+00 
41000 5.5716650118e+00 2.6537624671e-03 1.7918238419e+00 -3.1035299324e+00 1.7918238419e+00 3.1035299324e+00 
41100 5.5716647938e+00 2.6298128277e-03 1.7917497904e+00 -3.1034016714e+00 1.7917497904e+00 3.1034016714e+00 
41200 5.5716645798e+00 2.6060908421e-03 1.7916764042e+00 -3.1032745628e+00 1.7916764042e+00 3.1032745628e+00 
41300 5.5716643696e+00 2.5825942547e-03 1.7916036770e+00 -3.1031485955e+00 1.7916036770e+00 3.1031485955e+00 
41400 5.5716641632e+00 2.5593208344e-03 1.7915316025e+00 -3.1030237589e+00 1.7915316025e+00 3.1030237589e+00 
41500 5.5716639605e+00 2.5362683732e-03 1.7914601747e+00 -3.1029000423e+00 1.7914601747e+00 3.1029000423e+00 
41600 5.5716637615e+00 2.5134346867e-03 1.7913893874e+00 -3.1027774352e+00 1.7913893874e+00 3.1027774352e+00 
41700 5.5716635660e+00 2.4908176135e-03 1.7913192347e+00 -3.1026559270e+00 1.7913192347e+00 3.1026559270e+00 
41800 5.5716633741e+00 2.4684150148e-03 1.7912497104e+00 -3.1025355075e+00 1.7912497104e+00 3.1025355075e+00 
41900 5.5716631856e+00 2.4462247746e-03 1.7911808088e+00 -3.1024161665e+00 1.7911808088e+00 3.1024161665e+00 
42000 5.5716630005e+00 2.4242447991e-03 1.7911125240e+00 -3.1022978937e+00 1.7911125240e+00 3.1022978937e+00 
42100 5.5716628187e+00 2.4024730165e-03 1.7910448502e+00 -3.1021806791e+00 1.7910448502e+00 3.1021806791e+00 
42200 5.5716626402e+00 2.3809073766e-03 1.7909777816e+00 -3.1020645129e+00 1.7909777816e+00 3.1020645129e+00 
42300 5.5716624648e+00 2.3595458510e-03 1.7909113125e+00 -3.1019493851e+00 1.7909113125e+00 3.1019493851e+00 
42400 5.5716622926e+00 2.3383864323e-03 1.7908454373e+00 -3.1018352860e+00 1.7908454373e+00 3.1018352860e+00 
42500 5.5716621234e+00 2.3174271342e-03 1.7907801505e+00 -3.1017222059e+00 1.7907801505e+00 3.1017222059e+00 
42600 5.5716619573e+00 2.2966659912e-03 1.7907154465e+00 -3.1016101352e+00 1.7907154465e+00 3.1016101352e+00 
42700 5.5716617941e+00 2.2761010583e-03 1.7906513198e+00 -3.1014990646e+00 1.7906513198e+00 3.1014990646e+00 
42800 5.5716616339e+00 2.2557304107e-03 1.7905877651e+00 -3.1013889845e+00 1.7905877651e+00 3.1013889845e+00 
42900 5.5716614764e+00 2.2355521436e-03 1.7905247769e+00 -3.1012798858e+00 1.7905247769e+00 3.1012798858e+00 
43000 5.5716613218e+00 2.2155643720e-03 1.7904623500e+00 -3.1011717592e+00 1.7904623500e+00 3.1011717592e+00 
43100 5.5716611699e+00 2.1957652307e-03 1.7904004790e+00 -3.1010645956e+00 1.7904004790e+00 3.1010645956e+00 
43200 5.5716610207e+00 2.1761528734e-03 1.7903391589e+00 -3.1009583860e+00 1.7903391589e+00 3.1009583860e+00 
43300 5.5716608741e+00 2.1567254732e-03 1.7902783844e+00 -3.1008531214e+00 1.7902783844e+00 3.1008531214e+00 
43400 5.5716607302e+00 2.1374812220e-03 1.7902181503e+00 -3.1007487930e+00 1.7902181503e+00 3.1007487930e+00 
43500 5.5716605887e+00 2.1184183301e-03 1.7901584518e+00 -3.1006453920e+00 1.7901584518e+00 3.1006453920e+00 
43600 5.5716604498e+00 2.0995350266e-03 1.7900992836e+00 -3.1005429098e+00 1.7900992836e+00 3.1005429098e+00 
43700 5.5716603133e+00 2.0808295585e-03 1.7900406410e+00 -3.1004413378e+00 1.7900406410e+00 3.1004413378e+00 
43800 5.5716601792e+00 2.0623001909e-03 1.7899825189e+00 -3.1003406673e+00 1.7899825189e+00 3.1003406673e+00 
43900 5.5716600475e+00 2.0439452065e-03 1.7899249125e+00 -3.1002408901e+00 1.7899249125e+00 3.1002408901e+00 
44000 5.5716599181e+00 2.0257629059e-03 1.7898678169e+00 -3.1001419978e+00 1.7898678169e+00 3.1001419978e+00 
44100 5.5716597910e+00 2.0077516066e-03 1.7898112275e+00 -3.1000439820e+00 1.7898112275e+00 3.1000439820e+00 
44200 5.5716596660e+00 1.9899096435e-03 1.7897551394e+00 -3.0999468346e+00 1.7897551394e+00 3.0999468346e+00 
44300 5.5716595433e+00 1.9722353684e-03 1.7896995480e+00 -3.0998505475e+00 1.7896995480e+00 3.0998505475e+00 
44400 5.5716594227e+00 1.9547271497e-03 1.7896444487e+00 -3.0997551126e+00 1.7896444487e+00 3.0997551126e+00 
44500 5.5716593043e+00 1.9373833726e-03 1.7895898368e+00 -3.0996605221e+00 1.7895898368e+00 3.0996605221e+00 
44600 5.5716591879e+00 1.9202024384e-03 1.7895357078e+00 -3.0995667679e+00 1.7895357078e+00 3.0995667679e+00 
44700 5.5716590735e+00 1.9031827645e-03 1.7894820572e+00 -3.0994738424e+00 1.7894820572e+00 3.0994738424e+00 
44800 5.5716589611e+00 1.8863227845e-03 1.7894288806e+00 -3.0993817377e+00 1.7894288806e+00 3.0993817377e+00 
44900 5.5716588507e+00 1.8696209475e-03 1.7893761735e+00 -3.0992904463e+00 1.7893761735e+00 3.0992904463e+00 
45000 5.5716587422e+00 1.8530757184e-03 1.7893239315e+00 -3.0991999605e+00 1.7893239315e+00 3.0991999605e+00 
45100 5.5716586356e+00 1.8366855774e-03 1.7892721503e+00 -3.0991102728e+00 1.7892721503e+00 3.0991102728e+00 
45200 5.5716585308e+00 1.8204490200e-03 1.7892208256e+00 -3.0990213758e+00 1.7892208256e+00 3.0990213758e+00 
45300 5.5716584278e+00 1.8043645565e-03 1.7891699531e+00 -3.0989332622e+00 1.7891699531e+00 3.0989332622e+00 
45400 5.5716583266e+00 1.7884307123e-03 1.7891195287e+00 -3.0988459246e+00 1.7891195287e+00 3.0988459246e+00 
45500 5.5716582272e+00 1.7726460276e-03 1.7890695482e+00 -3.0987593558e+00 1.7890695482e+00 3.0987593558e+00 
45600 5.5716581295e+00 1.7570090569e-03 1.7890200074e+00 -3.0986735487e+00 1.7890200074e+00 3.0986735487e+00 
45700 5.5716580335e+00 1.7415183691e-03 1.7889709023e+00 -3.0985884961e+00 1.7889709023e+00 3.0985884961e+00 
45800 5.5716579391e+00 1.7261725475e-03 1.7889222288e+00 -3.0985041911e+00 1.7889222288e+00 3.0985041911e+00 
45900 5.5716578464e+00 1.7109701893e-03 1.7888739829e+00 -3.0984206266e+00 1.7888739829e+00 3.0984206266e+00 
46000 5.5716577552e+00 1.6959099055e-03 1.7888261605e+00 -3.0983377959e+00 1.7888261605e+00 3.0983377959e+00 
46100 5.5716576656e+00 1.6809903210e-03 1.7887787579e+00 -3.0982556921e+00 1.7887787579e+00 3.0982556921e+00 
46200 5.5716575776e+00 1.6662100742e-03 1.7887317710e+00 -3.0981743084e+00 1.7887317710e+00 3.0981743084e+00 
46300 5.5716574910e+00 1.6515678169e-03 1.7886851960e+00 -3.0980936382e+00 1.7886851960e+00 3.0980936382e+00 
46400 5.5716574060e+00 1.6370622144e-03 1.7886390291e+00 -3.0980136748e+00 1.7886390291e+00 3.0980136748e+00 
46500 5.5716573224e+00 1.6226919448e-03 1.7885932665e+00 -3.0979344117e+00 1.7885932665e+00 3.0979344117e+00 
46600 5.5716572402e+00 1.6084556995e-03 1.7885479045e+00 -3.0978558423e+00 1.7885479045e+00 3.0978558423e+00 
46700 5.5716571594e+00 1.5943521824e-03 1.7885029392e+00 -3.0977779602e+00 1.7885029392e+00 3.0977779602e+00 
46800 5.5716570800e+00 1.5803801105e-03 1.7884583672e+00 -3.0977007592e+00 1.7884583672e+00 3.0977007592e+00 
46900 5.5716570020e+00 1.5665382132e-03 1.7884141846e+00 -3.0976242327e+00 1.7884141846e+00 3.0976242327e+00 
47000 5.5716569253e+00 1.5528252322e-03 1.7883703879e+00 -3.0975483746e+00 1.7883703879e+00 3.0975483746e+00 
47100 5.5716568499e+00 1.5392399217e-03 1.7883269736e+00 -3.0974731788e+00 1.7883269736e+00 3.0974731788e+00 
47200 5.5716567757e+00 1.5257810481e-03 1.7882839380e+00 -3.0973986390e+00 1.7882839380e+00 3.0973986390e+00 
47300 5.5716567028e+00 1.5124473896e-03 1.7882412777e+00 -3.0973247491e+00 1.7882412777e+00 3.0973247491e+00 
47400 5.5716566312e+00 1.4992377367e-03 1.7881989892e+00 -3.0972515033e+00 1.7881989892e+00 3.0972515033e+00 
47500 5.5716565608e+00 1.4861508913e-03 1.7881570690e+00 -3.0971788954e+00 1.7881570690e+00 3.0971788954e+00 
47600 5.5716564915e+00 1.4731856672e-03 1.7881155138e+00 -3.0971069197e+00 1.7881155138e+00 3.0971069197e+00 
47700 5.5716564235e+00 1.4603408897e-03 1.7880743201e+00 -3.0970355702e+00 1.7880743201e+00 3.0970355702e+00 
47800 5.5716563565e+00 1.4476153956e-03 1.7880334847e+00 -3.0969648412e+00 1.7880334847e+00 3.0969648412e+00 
47900 5.5716562907e+00 1.4350080330e-03 1.7879930042e+00 -3.0968947269e+00 1.7879930042e+00 3.0968947269e+00 
48000 5.5716562260e+00 1.4225176610e-03 1.7879528753e+00 -3.0968252216e+00 1.7879528753e+00 3.0968252216e+00 
48100 5.5716561624e+00 1.4101431501e-03 1.7879130949e+00 -3.0967563198e+00 1.7879130949e+00 3.0967563198e+00 
48200 5.5716560999e+00 1.3978833815e-03 1.7878736596e+00 -3.0966880159e+00 1.7878736596e+00 3.0966880159e+00 
48300 5.5716560384e+00 1.3857372475e-03 1.7878345662e+00 -3.0966203043e+00 1.7878345662e+00 3.0966203043e+00 
48400 5.5716559780e+00 1.3737036509e-03 1.7877958118e+00 -3.0965531795e+00 1.7877958118e+00 3.0965531795e+00 
48500 5.5716559185e+00 1.3617815054e-03 1.7877573930e+00 -3.0964866362e+00 1.7877573930e+00 3.0964866362e+00 
48600 5.5716558601e+00 1.3499697351e-03 1.7877193068e+00 -3.0964206691e+00 1.7877193068e+00 3.0964206691e+00 
48700 5.5716558026e+00 1.3382672745e-03 1.7876815502e+00 -3.0963552727e+00 1.7876815502e+00 3.0963552727e+00 
48800 5.5716557461e+00 1.3266730686e-03 1.7876441201e+00 -3.0962904418e+00 1.7876441201e+00 3.0962904418e+00 
48900 5.5716556905e+00 1.3151860724e-03 1.7876070134e+00 -3.0962261713e+00 1.7876070134e+00 3.0962261713e+00 
49000 5.5716556358e+00 1.3038052513e-03 1.7875702274e+00 -3.0961624559e+00 1.7875702274e+00 3.0961624559e+00 
49100 5.5716555821e+00 1.2925295805e-03 1.7875337588e+00 -3.0960992905e+00 1.7875337588e+00 3.0960992905e+00 
49200 5.5716555292e+00 1.2813580453e-03 1.7874976050e+00 -3.0960366702e+00 1.7874976050e+00 3.0960366702e+00 
49300 5.5716554773e+00 1.2702896407e-03 1.7874617629e+00 -3.0959745898e+00 1.7874617629e+00 3.0959745898e+00 
49400 5.5716554261e+00 1.2593233716e-03 1.7874262296e+00 -3.0959130445e+00 1.7874262296e+00 3.0959130445e+00 
49500 5.5716553759e+00 1.2484582525e-03 1.7873910025e+00 -3.0958520293e+00 1.7873910025e+00 3.0958520293e+00 
49600 5.5716553264e+00 1.2376933073e-03 1.7873560785e+00 -3.0957915393e+00 1.7873560785e+00 3.0957915393e+00 
49700 5.5716552778e+00 1.2270275695e-03 1.7873214551e+00 -3.0957315696e+00 1.7873214551e+00 3.0957315696e+00 
49800 5.5716552300e+00 1.2164600821e-03 1.7872871293e+00 -3.0956721157e+00 1.7872871293e+00 3.0956721157e+00 
49900 5.5716551830e+00 1.2059898972e-03 1.7872530985e+00 -3.0956131726e+00 1.7872530985e+00 3.0956131726e+00 
50000 5.5716551367e+00 1.1956160761e-03 1.7872193600e+00 -3.0955547357e+00 1.7872193600e+00 3.0955547357e+00 
50100 5.5716550912e+00 1.1853376894e-03 1.7871859110e+00 -3.0954968004e+00 1.7871859110e+00 3.0954968004e+00 
50200 5.5716550465e+00 1.1751538165e-03 1.7871527490e+00 -3.0954393621e+00 1.7871527490e+00 3.0954393621e+00 
50300 5.5716550025e+00 1.1650635458e-03 1.7871198713e+00 -3.0953824163e+00 1.7871198713e+00 3.0953824163e+00 
50400 5.5716549592e+00 1.1550659748e-03 1.7870872752e+00 -3.0953259583e+00 1.7870872752e+00 3.0953259583e+00 
50500 5.5716549166e+00 1.1451602094e-03 1.7870549583e+00 -3.0952699838e+00 1.7870549583e+00 3.0952699838e+00 
50600 5.5716548747e+00 1.1353453644e-03 1.7870229180e+00 -3.0952144883e+00 1.7870229180e+00 3.0952144883e+00 
50700 5.5716548335e+00 1.1256205632e-03 1.7869911517e+00 -3.0951594674e+00 1.7869911517e+00 3.0951594674e+00 
50800 5.5716547929e+00 1.1159849378e-03 1.7869596569e+00 -3.0951049169e+00 1.7869596569e+00 3.0951049169e+00 
50900 5.5716547531e+00 1.1064376284e-03 1.7869284312e+00 -3.0950508324e+00 1.7869284312e+00 3.0950508324e+00 
51000 5.5716547138e+00 1.0969777839e-03 1.7868974721e+00 -3.0949972096e+00 1.7868974721e+00 3.0949972096e+00 
51100 5.5716546753e+00 1.0876045613e-03 1.7868667772e+00 -3.0949440444e+00 1.7868667772e+00 3.0949440444e+00 
51200 5.5716546373e+00 1.0783171257e-03 1.7868363440e+00 -3.0948913326e+00 1.7868363440e+00 3.0948913326e+00 
51300 5.5716546000e+00 1.0691146507e-03 1.7868061701e+00 -3.0948390700e+00 1.7868061701e+00 3.0948390700e+00 
51400 5.5716545632e+00 1.0599963176e-03 1.7867762533e+00 -3.0947872525e+00 1.7867762533e+00 3.0947872525e+00 
51500 5.5716545271e+00 1.0509613160e-03 1.7867465911e+00 -3.0947358761e+00 1.7867465911e+00 3.0947358761e+00 
51600 5.5716544915e+00 1.0420088432e-03 1.7867171813e+00 -3.0946849368e+00 1.7867171813e+00 3.0946849368e+00 
51700 5.5716544565e+00 1.0331381043e-03 1.7866880215e+00 -3.0946344305e+00 1.7866880215e+00 3.0946344305e+00 
51800 5.5716544221e+00 1.0243483125e-03 1.7866591095e+00 -3.0945843534e+00 1.7866591095e+00 3.0945843534e+00 
51900 5.5716543882e+00 1.0156386884e-03 1.7866304430e+00 -3.0945347016e+00 1.7866304430e+00 3.0945347016e+00 
52000 5.5716543549e+00 1.0070084603e-03 1.7866020197e+00 -3.0944854711e+00 1.7866020197e+00 3.0944854711e+00 
52100 5.5716543221e+00 9.9845686405e-04 1.7865738376e+00 -3.0944366582e+00 1.7865738376e+00 3.0944366582e+00 
52200 5.5716542899e+00 9.8998314306e-04 1.7865458943e+00 -3.0943882590e+00 1.7865458943e+00 3.0943882590e+00 
52300 5.5716542581e+00 9.8158654810e-04 1.7865181878e+00 -3.0943402699e+00 1.7865181878e+00 3.0943402699e+00 
52400 5.5716542269e+00 9.7326633729e-04 1.7864907158e+00 -3.0942926870e+00 1.7864907158e+00 3.0942926870e+00 
52500 5.5716541962e+00 9.6502177604e-04 1.7864634762e+00 -3.0942455067e+00 1.7864634762e+00 3.0942455067e+00 
52600 5.5716541659e+00 9.5685213699e-04 1.7864364670e+00 -3.0941987254e+00 1.7864364670e+00 3.0941987254e+00 
52700 5.5716541362e+00 9.4875669991e-04 1.7864096861e+00 -3.0941523394e+00 1.7864096861e+00 3.0941523394e+00 
52800 5.5716541069e+00 9.4073475164e-04 1.7863831313e+00 -3.0941063452e+00 1.7863831313e+00 3.0941063452e+00 
52900 5.5716540781e+00 9.3278558606e-04 1.7863568006e+00 -3.0940607392e+00 1.7863568006e+00 3.0940607392e+00 
53000 5.5716540497e+00 9.2490850398e-04 1.7863306921e+00 -3.0940155178e+00 1.7863306921e+00 3.0940155178e+00 
53100 5.5716540218e+00 9.1710281311e-04 1.7863048037e+00 -3.0939706778e+00 1.7863048037e+00 3.0939706778e+00 
53200 5.5716539944e+00 9.0936782795e-04 1.7862791333e+00 -3.0939262154e+00 1.7862791333e+00 3.0939262154e+00 
53300 5.5716539673e+00 9.0170286980e-04 1.7862536791e+00 -3.0938821275e+00 1.7862536791e+00 3.0938821275e+00 
53400 5.5716539407e+00 8.9410726662e-04 1.7862284392e+00 -3.0938384105e+00 1.7862284392e+00 3.0938384105e+00 
53500 5.5716539146e+00 8.8658035301e-04 1.7862034114e+00 -3.0937950612e+00 1.7862034114e+00 3.0937950612e+00 
53600 5.5716538888e+00 8.7912147014e-04 1.7861785940e+00 -3.0937520762e+00 1.7861785940e+00 3.0937520762e+00 
53700 5.5716538634e+00 8.7172996567e-04 1.7861539851e+00 -3.0937094523e+00 1.7861539851e+00 3.0937094523e+00 
53800 5.5716538385e+00 8.6440519374e-04 1.7861295827e+00 -3.0936671861e+00 1.7861295827e+00 3.0936671861e+00 
53900 5.5716538139e+00 8.5714651485e-04 1.7861053850e+00 -3.0936252746e+00 1.7861053850e+00 3.0936252746e+00 
54000 5.5716537898e+00 8.4995329581e-04 1.7860813902e+00 -3.0935837144e+00 1.7860813902e+00 3.0935837144e+00 
54100 5.5716537660e+00 8.4282490973e-04 1.7860575965e+00 -3.0935425024e+00 1.7860575965e+00 3.0935425024e+00 
54200 5.5716537425e+00 8.3576073589e-04 1.7860340020e+00 -3.0935016355e+00 1.7860340020e+00 3.0935016355e+00 
54300 5.5716537195e+00 8.2876015974e-04 1.7860106049e+00 -3.0934611106e+00 1.7860106049e+00 3.0934611106e+00 
54400 5.5716536968e+00 8.2182257280e-04 1.7859874035e+00 -3.0934209246e+00 1.7859874035e+00 3.0934209246e+00 
54500 5.5716536745e+00 8.1494737264e-04 1.7859643961e+00 -3.0933810745e+00 1.7859643961e+00 3.0933810745e+00 
54600 5.5716536525e+00 8.0813396278e-04 1.7859415808e+00 -3.0933415573e+00 1.7859415808e+00 3.0933415573e+00 
54700 5.5716536308e+00 8.0138175266e-04 1.7859189560e+00 -3.0933023699e+00 1.7859189560e+00 3.0933023699e+00 
54800 5.5716536095e+00 7.9469015758e-04 1.7858965199e+00 -3.0932635095e+00 1.7858965199e+00 3.0932635095e+00 
54900 5.5716535886e+00 7.8805859864e-04 1.7858742709e+00 -3.0932249731e+00 1.7858742709e+00 3.0932249731e+00 
55000 5.5716535679e+00 7.8148650270e-04 1.7858522073e+00 -3.0931867578e+00 1.7858522073e+00 3.0931867578e+00 
55100 5.5716535476e+00 7.7497330229e-04 1.7858303274e+00 -3.0931488607e+00 1.7858303274e+00 3.0931488607e+00 
55200 5.5716535276e+00 7.6851843558e-04 1.7858086296e+00 -3.0931112790e+00 1.7858086296e+00 3.0931112790e+00 
55300 5.5716535079e+00 7.6212134632e-04 1.7857871123e+00 -3.0930740099e+00 1.7857871123e+00 3.0930740099e+00 
55400 5.5716534885e+00 7.5578148380e-04 1.7857657738e+00 -3.0930370506e+00 1.7857657738e+00 3.0930370506e+00 
55500 5.5716534694e+00 7.4949830277e-04 1.7857446125e+00 -3.0930003983e+00 1.7857446125e+00 3.0930003983e+00 
55600 5.5716534506e+00 7.4327126340e-04 1.7857236270e+00 -3.0929640502e+00 1.7857236270e+00 3.0929640502e+00 
55700 5.5716534321e+00 7.3709983123e-04 1.7857028155e+00 -3.0929280037e+00 1.7857028155e+00 3.0929280037e+00 
55800 5.5716534139e+00 7.3098347712e-04 1.7856821766e+00 -3.0928922561e+00 1.7856821766e+00 3.0928922561e+00 
55900 5.5716533960e+00 7.2492167718e-04 1.7856617088e+00 -3.0928568047e+00 1.7856617088e+00 3.0928568047e+00 
56000 5.5716533783e+00 7.1891391274e-04 1.7856414104e+00 -3.0928216469e+00 1.7856414104e+00 3.0928216469e+00 
56100 5.5716533609e+00 7.1295967028e-04 1.7856212800e+00 -3.0927867801e+00 1.7856212800e+00 3.0927867801e+00 
56200 5.5716533438e+00 7.0705844141e-04 1.7856013162e+00 -3.0927522017e+00 1.7856013162e+00 3.0927522017e+00 
56300 5.5716533270e+00 7.0120972277e-04 1.7855815173e+00 -3.0927179090e+00 1.7855815173e+00 3.0927179090e+00 
56400 5.5716533104e+00 6.9541301603e-04 1.7855618820e+00 -3.0926838997e+00 1.7855618820e+00 3.0926838997e+00 
56500 5.5716532940e+00 6.8966782781e-04 1.7855424088e+00 -3.0926501712e+00 1.7855424088e+00 3.0926501712e+00 
56600 5.5716532779e+00 6.8397366965e-04 1.7855230963e+00 -3.0926167209e+00 1.7855230963e+00 3.0926167209e+00 
56700 5.5716532621e+00 6.7833005793e-04 1.7855039430e+00 -3.0925835464e+00 1.7855039430e+00 3.0925835464e+00 
56800 5.5716532465e+00 6.7273651386e-04 1.7854849476e+00 -3.0925506454e+00 1.7854849476e+00 3.0925506454e+00 
56900 5.5716532311e+00 6.6719256341e-04 1.7854661086e+00 -3.0925180152e+00 1.7854661086e+00 3.0925180152e+00 
57000 5.5716532160e+00 6.6169773726e-04 1.7854474246e+00 -3.0924856537e+00 1.7854474246e+00 3.0924856537e+00 
57100 5.5716532011e+00 6.5625157078e-04 1.7854288943e+00 -3.0924535583e+00 1.7854288943e+00 3.0924535583e+00 
57200 5.5716531864e+00 6.5085360395e-04 1.7854105164e+00 -3.0924217268e+00 1.7854105164e+00 3.0924217268e+00 
57300 5.5716531720e+00 6.4550338132e-04 1.7853922894e+00 -3.0923901567e+00 1.7853922894e+00 3.0923901567e+00 
57400 5.5716531577e+00 6.4020045199e-04 1.7853742121e+00 -3.0923588459e+00 1.7853742121e+00 3.0923588459e+00 
57500 5.5716531437e+00 6.3494436952e-04 1.7853562831e+00 -3.0923277919e+00 1.7853562831e+00 3.0923277919e+00 
57600 5.5716531299e+00 6.2973469193e-04 1.7853385011e+00 -3.0922969927e+00 1.7853385011e+00 3.0922969927e+00 
57700 5.5716531163e+00 6.2457098163e-04 1.7853208649e+00 -3.0922664458e+00 1.7853208649e+00 3.0922664458e+00 
57800 5.5716531030e+00 6.1945280538e-04 1.7853033731e+00 -3.0922361491e+00 1.7853033731e+00 3.0922361491e+00 
57900 5.5716530898e+00 6.1437973425e-04 1.7852860244e+00 -3.0922061003e+00 1.7852860244e+00 3.0922061003e+00 
58000 5.5716530768e+00 6.0935134358e-04 1.7852688177e+00 -3.0921762974e+00 1.7852688177e+00 3.0921762974e+00 
58100 5.5716530640e+00 6.0436721291e-04 1.7852517516e+00 -3.0921467381e+00 1.7852517516e+00 3.0921467381e+00 
58200 5.5716530514e+00 5.9942692597e-04 1.7852348250e+00 -3.0921174203e+00 1.7852348250e+00 3.0921174203e+00 
58300 5.5716530390e+00 5.9453007063e-04 1.7852180365e+00 -3.0920883419e+00 1.7852180365e+00 3.0920883419e+00 
58400 5.5716530268e+00 5.8967623885e-04 1.7852013851e+00 -3.0920595007e+00 1.7852013851e+00 3.0920595007e+00 
58500 5.5716530148e+00 5.8486502664e-04 1.7851848694e+00 -3.0920308948e+00 1.7851848694e+00 3.0920308948e+00 
58600 5.5716530029e+00 5.8009603400e-04 1.7851684884e+00 -3.0920025220e+00 1.7851684884e+00 3.0920025220e+00 
58700 5.5716529912e+00 5.7536886495e-04 1.7851522408e+00 -3.0919743802e+00 1.7851522408e+00 3.0919743802e+00 
58800 5.5716529797e+00 5.7068312737e-04 1.7851361254e+00 -3.0919464676e+00 1.7851361254e+00 3.0919464676e+00 
58900 5.5716529684e+00 5.6603843310e-04 1.7851201411e+00 -3.0919187820e+00 1.7851201411e+00 3.0919187820e+00 
59000 5.5716529573e+00 5.6143439777e-04 1.7851042868e+00 -3.0918913215e+00 1.7851042868e+00 3.0918913215e+00 
59100 5.5716529463e+00 5.5687064085e-04 1.7850885613e+00 -3.0918640841e+00 1.7850885613e+00 3.0918640841e+00 
59200 5.5716529354e+00 5.5234678557e-04 1.7850729634e+00 -3.0918370679e+00 1.7850729634e+00 3.0918370679e+00 
59300 5.5716529248e+00 5.4786245890e-04 1.7850574922e+00 -3.0918102709e+00 1.7850574922e+00 3.0918102709e+00 
59400 5.5716529143e+00 5.4341729149e-04 1.7850421464e+00 -3.0917836913e+00 1.7850421464e+00 3.0917836913e+00 
59500 5.5716529039e+00 5.3901091766e-04 1.7850269250e+00 -3.0917573270e+00 1.7850269250e+00 3.0917573270e+00 
59600 5.5716528937e+00 5.3464297534e-04 1.7850118269e+00 -3.0917311764e+00 1.7850118269e+00 3.0917311764e+00 
59700 5.5716528837e+00 5.3031310604e-04 1.7849968511e+00 -3.0917052374e+00 1.7849968511e+00 3.0917052374e+00 
59800 5.5716528738e+00 5.2602095481e-04 1.7849819964e+00 -3.0916795083e+00 1.7849819964e+00 3.0916795083e+00 
59900 5.5716528640e+00 5.2176617021e-04 1.7849672617e+00 -3.0916539872e+00 1.7849672617e+00 3.0916539872e+00 
60000 5.5716528544e+00 5.1754840428e-04 1.7849526462e+00 -3.0916286723e+00 1.7849526462e+00 3.0916286723e+00 
60100 5.5716528450e+00 5.1336731249e-04 1.7849381487e+00 -3.0916035619e+00 1.7849381487e+00 3.0916035619e+00 
60200 5.5716528357e+00 5.0922255370e-04 1.7849237682e+00 -3.0915786541e+00 1.7849237682e+00 3.0915786541e+00 
60300 5.5716528265e+00 5.0511379014e-04 1.7849095036e+00 -3.0915539472e+00 1.7849095036e+00 3.0915539472e+00 
60400 5.5716528174e+00 5.0104068738e-04 1.7848953541e+00 -3.0915294395e+00 1.7848953541e+00 3.0915294395e+00 
60500 5.5716528085e+00 4.9700291427e-04 1.7848813185e+00 -3.0915051292e+00 1.7848813185e+00 3.0915051292e+00 
60600 5.5716527997e+00 4.9300014295e-04 1.7848673960e+00 -3.0914810146e+00 1.7848673960e+00 3.0914810146e+00 
60700 5.5716527911e+00 4.8903204874e-04 1.7848535854e+00 -3.0914570941e+00 1.7848535854e+00 3.0914570941e+00 
60800 5.5716527826e+00 4.8509831020e-04 1.7848398860e+00 -3.0914333659e+00 1.7848398860e+00 3.0914333659e+00 
60900 5.5716527742e+00 4.8119860904e-04 1.7848262966e+00 -3.0914098283e+00 1.7848262966e+00 3.0914098283e+00 
61000 5.5716527659e+00 4.7733263008e-04 1.7848128163e+00 -3.0913864799e+00 1.7848128163e+00 3.0913864799e+00 
61100 5.5716527577e+00 4.7350006125e-04 1.7847994443e+00 -3.0913633188e+00 1.7847994443e+00 3.0913633188e+00 
61200 5.5716527497e+00 4.6970059355e-04 1.7847861795e+00 -3.0913403435e+00 1.7847861795e+00 3.0913403435e+00 
61300 5.5716527418e+00 4.6593392102e-04 1.7847730211e+00 -3.0913175524e+00 1.7847730211e+00 3.0913175524e+00 
61400 5.5716527340e+00 4.6219974067e-04 1.7847599680e+00 -3.0912949440e+00 1.7847599680e+00 3.0912949440e+00 
61500 5.5716527263e+00 4.5849775251e-04 1.7847470195e+00 -3.0912725165e+00 1.7847470195e+00 3.0912725165e+00 
61600 5.5716527187e+00 4.5482765948e-04 1.7847341747e+00 -3.0912502685e+00 1.7847341747e+00 3.0912502685e+00 
61700 5.5716527112e+00 4.5118916744e-04 1.7847214325e+00 -3.0912281985e+00 1.7847214325e+00 3.0912281985e+00 
61800 5.5716527039e+00 4.4758198511e-04 1.7847087922e+00 -3.0912063048e+00 1.7847087922e+00 3.0912063048e+00 
61900 5.5716526966e+00 4.4400582407e-04 1.7846962529e+00 -3.0911845860e+00 1.7846962529e+00 3.0911845860e+00 
62000 5.5716526895e+00 4.4046039873e-04 1.7846838136e+00 -3.0911630406e+00 1.7846838136e+00 3.0911630406e+00 
62100 5.5716526825e+00 4.3694542627e-04 1.7846714736e+00 -3.0911416671e+00 1.7846714736e+00 3.0911416671e+00 
62200 5.5716526755e+00 4.3346062666e-04 1.7846592320e+00 -3.0911204640e+00 1.7846592320e+00 3.0911204640e+00 
62300 5.5716526687e+00 4.3000572259e-04 1.7846470880e+00 -3.0910994299e+00 1.7846470880e+00 3.0910994299e+00 
62400 5.5716526619e+00 4.2658043944e-04 1.7846350406e+00 -3.0910785633e+00 1.7846350406e+00 3.0910785633e+00 
62500 5.5716526553e+00 4.2318450530e-04 1.7846230891e+00 -3.0910578628e+00 1.7846230891e+00 3.0910578628e+00 
62600 5.5716526488e+00 4.1981765089e-04 1.7846112327e+00 -3.0910373269e+00 1.7846112327e+00 3.0910373269e+00 
62700 5.5716526423e+00 4.1647960955e-04 1.7845994706e+00 -3.0910169542e+00 1.7845994706e+00 3.0910169542e+00 
62800 5.5716526360e+00 4.1317011724e-04 1.7845878019e+00 -3.0909967435e+00 1.7845878019e+00 3.0909967435e+00 
62900 5.5716526297e+00 4.0988891247e-04 1.7845762258e+00 -3.0909766931e+00 1.7845762258e+00 3.0909766931e+00 
63000 5.5716526235e+00 4.0663573629e-04 1.7845647417e+00 -3.0909568019e+00 1.7845647417e+00 3.0909568019e+00 
63100 5.5716526174e+00 4.0341033228e-04 1.7845533485e+00 -3.0909370685e+00 1.7845533485e+00 3.0909370685e+00 
63200 5.5716526114e+00 4.0021244651e-04 1.7845420457e+00 -3.0909174914e+00 1.7845420457e+00 3.0909174914e+00 
63300 5.5716526055e+00 3.9704182751e-04 1.7845308324e+00 -3.0908980694e+00 1.7845308324e+00 3.0908980694e+00 
63400 5.5716525997e+00 3.9389822624e-04 1.7845197079e+00 -3.0908788011e+00 1.7845197079e+00 3.0908788011e+00 
63500 5.5716525940e+00 3.9078139610e-04 1.7845086714e+00 -3.0908596853e+00 1.7845086714e+00 3.0908596853e+00 
63600 5.5716525883e+00 3.8769109287e-04 1.7844977221e+00 -3.0908407207e+00 1.7844977221e+00 3.0908407207e+00 
63700 5.5716525827e+00 3.8462707468e-04 1.7844868593e+00 -3.0908219058e+00 1.7844868593e+00 3.0908219058e+00 
63800 5.5716525772e+00 3.8158910203e-04 1.7844760824e+00 -3.0908032396e+00 1.7844760824e+00 3.0908032396e+00 
63900 5.5716525718e+00 3.7857693772e-04 1.7844653905e+00 -3.0907847207e+00 1.7844653905e+00 3.0907847207e+00 
64000 5.5716525665e+00 3.7559034684e-04 1.7844547829e+00 -3.0907663479e+00 1.7844547829e+00 3.0907663479e+00 
64100 5.5716525612e+00 3.7262909677e-04 1.7844442590e+00 -3.0907481198e+00 1.7844442590e+00 3.0907481198e+00 
64200 5.5716525560e+00 3.6969295712e-04 1.7844338180e+00 -3.0907300355e+00 1.7844338180e+00 3.0907300355e+00 
64300 5.5716525509e+00 3.6678169973e-04 1.7844234591e+00 -3.0907120935e+00 1.7844234591e+00 3.0907120935e+00 
64400 5.5716525459e+00 3.6389509865e-04 1.7844131818e+00 -3.0906942926e+00 1.7844131818e+00 3.0906942926e+00 
64500 5.5716525409e+00 3.6103293010e-04 1.7844029854e+00 -3.0906766318e+00 1.7844029854e+00 3.0906766318e+00 
64600 5.5716525360e+00 3.5819497245e-04 1.7843928690e+00 -3.0906591098e+00 1.7843928690e+00 3.0906591098e+00 
64700 5.5716525312e+00 3.5538100622e-04 1.7843828321e+00 -3.0906417254e+00 1.7843828321e+00 3.0906417254e+00 
64800 5.5716525264e+00 3.5259081405e-04 1.7843728741e+00 -3.0906244775e+00 1.7843728741e+00 3.0906244775e+00 
64900 5.5716525217e+00 3.4982418064e-04 1.7843629941e+00 -3.0906073649e+00 1.7843629941e+00 3.0906073649e+00 
65000 5.5716525171e+00 3.4708089280e-04 1.7843531916e+00 -3.0905903865e+00 1.7843531916e+00 3.0905903865e+00 
65100 5.5716525125e+00 3.4436073936e-04 1.7843434659e+00 -3.0905735412e+00 1.7843434659e+00 3.0905735412e+00 
65200 5.5716525080e+00 3.4166351119e-04 1.7843338164e+00 -3.0905568277e+00 1.7843338164e+00 3.0905568277e+00 
65300 5.5716525036e+00 3.3898900117e-04 1.7843242425e+00 -3.0905402451e+00 1.7843242425e+00 3.0905402451e+00 
65400 5.5716524992e+00 3.3633700418e-04 1.7843147434e+00 -3.0905237922e+00 1.7843147434e+00 3.0905237922e+00 
65500 5.5716524949e+00 3.3370731703e-04 1.7843053186e+00 -3.0905074680e+00 1.7843053186e+00 3.0905074680e+00 
65600 5.5716524907e+00 3.3109973852e-04 1.7842959674e+00 -3.0904912713e+00 1.7842959674e+00 3.0904912713e+00 
65700 5.5716524865e+00 3.2851406936e-04 1.7842866892e+00 -3.0904752010e+00 1.7842866892e+00 3.0904752010e+00 
65800 5.5716524824e+00 3.2595011216e-04 1.7842774835e+00 -3.0904592562e+00 1.7842774835e+00 3.0904592562e+00 
65900 5.5716524783e+00 3.2340767143e-04 1.7842683496e+00 -3.0904434358e+00 1.7842683496e+00 3.0904434358e+00 
66000 5.5716524743e+00 3.2088655356e-04 1.7842592868e+00 -3.0904277386e+00 1.7842592868e+00 3.0904277386e+00 
66100 5.5716524703e+00 3.1838656678e-04 1.7842502947e+00 -3.0904121638e+00 1.7842502947e+00 3.0904121638e+00 
66200 5.5716524664e+00 3.1590752115e-04 1.7842413725e+00 -3.0903967102e+00 1.7842413725e+00 3.0903967102e+00 
66300 5.5716524626e+00 3.1344922854e-04 1.7842325198e+00 -3.0903813769e+00 1.7842325198e+00 3.0903813769e+00 
66400 5.5716524588e+00 3.1101150264e-04 1.7842237360e+00 -3.0903661628e+00 1.7842237360e+00 3.0903661628e+00 
66500 5.5716524550e+00 3.0859415889e-04 1.7842150204e+00 -3.0903510669e+00 1.7842150204e+00 3.0903510669e+00 
66600 5.5716524514e+00 3.0619701452e-04 1.7842063725e+00 -3.0903360883e+00 1.7842063725e+00 3.0903360883e+00 
66700 5.5716524477e+00 3.0381988847e-04 1.7841977917e+00 -3.0903212260e+00 1.7841977917e+00 3.0903212260e+00 
66800 5.5716524441e+00 3.0146260143e-04 1.7841892776e+00 -3.0903064790e+00 1.7841892776e+00 3.0903064790e+00 
66900 5.5716524406e+00 2.9912497578e-04 1.7841808294e+00 -3.0902918464e+00 1.7841808294e+00 3.0902918464e+00 
67000 5.5716524371e+00 2.9680683561e-04 1.7841724467e+00 -3.0902773272e+00 1.7841724467e+00 3.0902773272e+00 
67100 5.5716524337e+00 2.9450800666e-04 1.7841641289e+00 -3.0902629204e+00 1.7841641289e+00 3.0902629204e+00 
67200 5.5716524303e+00 2.9222831636e-04 1.7841558756e+00 -3.0902486251e+00 1.7841558756e+00 3.0902486251e+00 
67300 5.5716524270e+00 2.8996759374e-04 1.7841476860e+00 -3.0902344404e+00 1.7841476860e+00 3.0902344404e+00 
67400 5.5716524237e+00 2.8772566949e-04 1.7841395598e+00 -3.0902203654e+00 1.7841395598e+00 3.0902203654e+00 
67500 5.5716524204e+00 2.8550237589e-04 1.7841314964e+00 -3.0902063991e+00 1.7841314964e+00 3.0902063991e+00 
67600 5.5716524172e+00 2.8329754680e-04 1.7841234952e+00 -3.0901925407e+00 1.7841234952e+00 3.0901925407e+00 
67700 5.5716524141e+00 2.8111101769e-04 1.7841155558e+00 -3.0901787893e+00 1.7841155558e+00 3.0901787893e+00 
67800 5.5716524109e+00 2.7894262555e-04 1.7841076777e+00 -3.0901651439e+00 1.7841076777e+00 3.0901651439e+00 
67900 5.5716524079e+00 2.7679220895e-04 1.7840998603e+00 -3.0901516037e+00 1.7840998603e+00 3.0901516037e+00 
68000 5.5716524048e+00 2.7465960797e-04 1.7840921031e+00 -3.0901381679e+00 1.7840921031e+00 3.0901381679e+00 
68100 5.5716524019e+00 2.7254466420e-04 1.7840844056e+00 -3.0901248355e+00 1.7840844056e+00 3.0901248355e+00 
68200 5.5716523989e+00 2.7044722075e-04 1.7840767674e+00 -3.0901116057e+00 1.7840767674e+00 3.0901116057e+00 
68300 5.5716523960e+00 2.6836712218e-04 1.7840691879e+00 -3.0900984777e+00 1.7840691879e+00 3.0900984777e+00 
68400 5.5716523932e+00 2.6630421456e-04 1.7840616667e+00 -3.0900854506e+00 1.7840616667e+00 3.0900854506e+00 
68500 5.5716523903e+00 2.6425834538e-04 1.7840542033e+00 -3.0900725236e+00 1.7840542033e+00 3.0900725236e+00 
68600 5.5716523875e+00 2.6222936359e-04 1.7840467972e+00 -3.0900596958e+00 1.7840467972e+00 3.0900596958e+00 
68700 5.5716523848e+00 2.6021711956e-04 1.7840394479e+00 -3.0900469665e+00 1.7840394479e+00 3.0900469665e+00 
68800 5.5716523821e+00 2.5822146507e-04 1.7840321550e+00 -3.0900343348e+00 1.7840321550e+00 3.0900343348e+00 
68900 5.5716523794e+00 2.5624225330e-04 1.7840249180e+00 -3.0900217999e+00 1.7840249180e+00 3.0900217999e+00 
69000 5.5716523768e+00 2.5427933881e-04 1.7840177364e+00 -3.0900093611e+00 1.7840177364e+00 3.0900093611e+00 
69100 5.5716523742e+00 2.5233257754e-04 1.7840106098e+00 -3.0899970175e+00 1.7840106098e+00 3.0899970175e+00 
69200 5.5716523716e+00 2.5040182677e-04 1.7840035378e+00 -3.0899847683e+00 1.7840035378e+00 3.0899847683e+00 
69300 5.5716523691e+00 2.4848694514e-04 1.7839965198e+00 -3.0899726128e+00 1.7839965198e+00 3.0899726128e+00 
69400 5.5716523666e+00 2.4658779261e-04 1.7839895555e+00 -3.0899605502e+00 1.7839895555e+00 3.0899605502e+00 
69500 5.5716523642e+00 2.4470423046e-04 1.7839826443e+00 -3.0899485798e+00 1.7839826443e+00 3.0899485798e+00 
69600 5.5716523617e+00 2.4283612127e-04 1.7839757860e+00 -3.0899367008e+00 1.7839757860e+00 3.0899367008e+00 
69700 5.5716523593e+00 2.4098332892e-04 1.7839689799e+00 -3.0899249124e+00 1.7839689799e+00 3.0899249124e+00 
69800 5.5716523570e+00 2.3914571856e-04 1.7839622258e+00 -3.0899132139e+00 1.7839622258e+00 3.0899132139e+00 
69900 5.5716523547e+00 2.3732315660e-04 1.7839555232e+00 -3.0899016046e+00 1.7839555232e+00 3.0899016046e+00 
70000 5.5716523524e+00 2.3551551071e-04 1.7839488716e+00 -3.0898900837e+00 1.7839488716e+00 3.0898900837e+00 
70100 5.5716523501e+00 2.3372264981e-04 1.7839422706e+00 -3.0898786505e+00 1.7839422706e+00 3.0898786505e+00 
70200 5.5716523479e+00 2.3194444404e-04 1.7839357199e+00 -3.0898673043e+00 1.7839357199e+00 3.0898673043e+00 
70300 5.5716523457e+00 2.3018076475e-04 1.7839292190e+00 -3.0898560443e+00 1.7839292190e+00 3.0898560443e+00 
70400 5.5716523435e+00 2.2843148449e-04 1.7839227675e+00 -3.0898448700e+00 1.7839227675e+00 3.0898448700e+00 
70500 5.5716523414e+00 2.2669647703e-04 1.7839163650e+00 -3.0898337806e+00 1.7839163650e+00 3.0898337806e+00 
70600 5.5716523392e+00 2.2497561729e-04 1.7839100111e+00 -3.0898227753e+00 1.7839100111e+00 3.0898227753e+00 
70700 5.5716523372e+00 2.2326878137e-04 1.7839037054e+00 -3.0898118535e+00 1.7839037054e+00 3.0898118535e+00 
70800 5.5716523351e+00 2.2157584654e-04 1.7838974475e+00 -3.0898010146e+00 1.7838974475e+00 3.0898010146e+00 
70900 5.5716523331e+00 2.1989669120e-04 1.7838912371e+00 -3.0897902578e+00 1.7838912371e+00 3.0897902578e+00 
71000 5.5716523311e+00 2.1823119488e-04 1.7838850737e+00 -3.0897795825e+00 1.7838850737e+00 3.0897795825e+00 
71100 5.5716523291e+00 2.1657923826e-04 1.7838789569e+00 -3.0897689880e+00 1.7838789569e+00 3.0897689880e+00 
71200 5.5716523272e+00 2.1494070311e-04 1.7838728865e+00 -3.0897584736e+00 1.7838728865e+00 3.0897584736e+00 
71300 5.5716523252e+00 2.1331547232e-04 1.7838668619e+00 -3.0897480388e+00 1.7838668619e+00 3.0897480388e+00 
71400 5.5716523233e+00 2.1170342983e-04 1.7838608829e+00 -3.0897376828e+00 1.7838608829e+00 3.0897376828e+00 
71500 5.5716523215e+00 2.1010446072e-04 1.7838549491e+00 -3.0897274051e+00 1.7838549491e+00 3.0897274051e+00 
71600 5.5716523196e+00 2.0851845109e-04 1.7838490600e+00 -3.0897172050e+00 1.7838490600e+00 3.0897172050e+00 
71700 5.5716523178e+00 2.0694528814e-04 1.7838432154e+00 -3.0897070818e+00 1.7838432154e+00 3.0897070818e+00 
71800 5.5716523160e+00 2.0538486007e-04 1.7838374149e+00 -3.0896970350e+00 1.7838374149e+00 3.0896970350e+00 
71900 5.5716523143e+00 2.0383705616e-04 1.7838316580e+00 -3.0896870639e+00 1.7838316580e+00 3.0896870639e+00 
72000 5.5716523125e+00 2.0230176671e-04 1.7838259446e+00 -3.0896771679e+00 1.7838259446e+00 3.0896771679e+00 
72100 5.5716523108e+00 2.0077888303e-04 1.7838202741e+00 -3.0896673464e+00 1.7838202741e+00 3.0896673464e+00 
72200 5.5716523091e+00 1.9926829744e-04 1.7838146464e+00 -3.0896575988e+00 1.7838146464e+00 3.0896575988e+00 
72300 5.5716523074e+00 1.9776990325e-04 1.7838090609e+00 -3.0896479245e+00 1.7838090609e+00 3.0896479245e+00 
72400 5.5716523058e+00 1.9628359478e-04 1.7838035174e+00 -3.0896383229e+00 1.7838035174e+00 3.0896383229e+00 
72500 5.5716523041e+00 1.9480926732e-04 1.7837980156e+00 -3.0896287935e+00 1.7837980156e+00 3.0896287935e+00 
72600 5.5716523025e+00 1.9334681712e-04 1.7837925551e+00 -3.0896193356e+00 1.7837925551e+00 3.0896193356e+00 
72700 5.5716523010e+00 1.9189614140e-04 1.7837871355e+00 -3.0896099487e+00 1.7837871355e+00 3.0896099487e+00 
72800 5.5716522994e+00 1.9045713832e-04 1.7837817567e+00 -3.0896006321e+00 1.7837817567e+00 3.0896006321e+00 
72900 5.5716522978e+00 1.8902970700e-04 1.7837764181e+00 -3.0895913855e+00 1.7837764181e+00 3.0895913855e+00 
73000 5.5716522963e+00 1.8761374748e-04 1.7837711195e+00 -3.0895822081e+00 1.7837711195e+00 3.0895822081e+00 
73100 5.5716522948e+00 1.8620916072e-04 1.7837658606e+00 -3.0895730994e+00 1.7837658606e+00 3.0895730994e+00 
73200 5.5716522933e+00 1.8481584859e-04 1.7837606410e+00 -3.0895640588e+00 1.7837606410e+00 3.0895640588e+00 
73300 5.5716522919e+00 1.8343371390e-04 1.7837554605e+00 -3.0895550859e+00 1.7837554605e+00 3.0895550859e+00 
73400 5.5716522904e+00 1.8206266031e-04 1.7837503188e+00 -3.0895461801e+00 1.7837503188e+00 3.0895461801e+00 
73500 5.5716522890e+00 1.8070259239e-04 1.7837452154e+00 -3.0895373408e+00 1.7837452154e+00 3.0895373408e+00 
73600 5.5716522876e+00 1.7935341559e-04 1.7837401501e+00 -3.0895285675e+00 1.7837401501e+00 3.0895285675e+00 
73700 5.5716522862e+00 1.7801503622e-04 1.7837351227e+00 -3.0895198597e+00 1.7837351227e+00 3.0895198597e+00 
73800 5.5716522849e+00 1.7668736148e-04 1.7837301327e+00 -3.0895112169e+00 1.7837301327e+00 3.0895112169e+00 
73900 5.5716522835e+00 1.7537029938e-04 1.7837251800e+00 -3.0895026385e+00 1.7837251800e+00 3.0895026385e+00 
74000 5.5716522822e+00 1.7406375881e-04 1.7837202641e+00 -3.0894941240e+00 1.7837202641e+00 3.0894941240e+00 
74100 5.5716522809e+00 1.7276764948e-04 1.7837153849e+00 -3.0894856729e+00 1.7837153849e+00 3.0894856729e+00 
74200 5.5716522796e+00 1.7148188193e-04 1.7837105420e+00 -3.0894772847e+00 1.7837105420e+00 3.0894772847e+00 
74300 5.5716522783e+00 1.7020636754e-04 1.7837057351e+00 -3.0894689590e+00 1.7837057351e+00 3.0894689590e+00 
74400 5.5716522770e+00 1.6894101848e-04 1.7837009640e+00 -3.0894606951e+00 1.7837009640e+00 3.0894606951e+00 
74500 5.5716522758e+00 1.6768574773e-04 1.7836962283e+00 -3.0894524927e+00 1.7836962283e+00 3.0894524927e+00 
74600 5.5716522746e+00 1.6644046907e-04 1.7836915278e+00 -3.0894443511e+00 1.7836915278e+00 3.0894443511e+00 
74700 5.5716522733e+00 1.6520509708e-04 1.7836868622e+00 -3.0894362701e+00 1.7836868622e+00 3.0894362701e+00 
74800 5.5716522722e+00 1.6397954709e-04 1.7836822312e+00 -3.0894282489e+00 1.7836822312e+00 3.0894282489e+00 
74900 5.5716522710e+00 1.6276373525e-04 1.7836776345e+00 -3.0894202873e+00 1.7836776345e+00 3.0894202873e+00 
75000 5.5716522698e+00 1.6155757844e-04 1.7836730719e+00 -3.0894123847e+00 1.7836730719e+00 3.0894123847e+00 
75100 5.5716522687e+00 1.6036099432e-04 1.7836685431e+00 -3.0894045406e+00 1.7836685431e+00 3.0894045406e+00 
75200 5.5716522675e+00 1.5917390128e-04 1.7836640479e+00 -3.0893967546e+00 1.7836640479e+00 3.0893967546e+00 
75300 5.5716522664e+00 1.5799621848e-04 1.7836595859e+00 -3.0893890262e+00 1.7836595859e+00 3.0893890262e+00 
75400 5.5716522653e+00 1.5682786580e-04 1.7836551569e+00 -3.0893813549e+00 1.7836551569e+00 3.0893813549e+00 
75500 5.5716522642e+00 1.5566876386e-04 1.7836507607e+00 -3.0893737404e+00 1.7836507607e+00 3.0893737404e+00 
75600 5.5716522631e+00 1.5451883399e-04 1.7836463969e+00 -3.0893661821e+00 1.7836463969e+00 3.0893661821e+00 
75700 5.5716522621e+00 1.5337799826e-04 1.7836420653e+00 -3.0893586797e+00 1.7836420653e+00 3.0893586797e+00 
75800 5.5716522610e+00 1.5224617943e-04 1.7836377658e+00 -3.0893512326e+00 1.7836377658e+00 3.0893512326e+00 
75900 5.5716522600e+00 1.5112330097e-04 1.7836334979e+00 -3.0893438405e+00 1.7836334979e+00 3.0893438405e+00 
76000 5.5716522590e+00 1.5000928704e-04 1.7836292615e+00 -3.0893365028e+00 1.7836292615e+00 3.0893365028e+00 
76100 5.5716522580e+00 1.4890406249e-04 1.7836250564e+00 -3.0893292193e+00 1.7836250564e+00 3.0893292193e+00 
76200 5.5716522570e+00 1.4780755286e-04 1.7836208822e+00 -3.0893219894e+00 1.7836208822e+00 3.0893219894e+00 
76300 5.5716522560e+00 1.4671968436e-04 1.7836167387e+00 -3.0893148127e+00 1.7836167387e+00 3.0893148127e+00 
76400 5.5716522551e+00 1.4564038386e-04 1.7836126257e+00 -3.0893076888e+00 1.7836126257e+00 3.0893076888e+00 
76500 5.5716522541e+00 1.4456957892e-04 1.7836085430e+00 -3.0893006173e+00 1.7836085430e+00 3.0893006173e+00 
76600 5.5716522532e+00 1.4350719773e-04 1.7836044903e+00 -3.0892935977e+00 1.7836044903e+00 3.0892935977e+00 
76700 5.5716522522e+00 1.4245316914e-04 1.7836004673e+00 -3.0892866298e+00 1.7836004673e+00 3.0892866298e+00 
76800 5.5716522513e+00 1.4140742265e-04 1.7835964739e+00 -3.0892797130e+00 1.7835964739e+00 3.0892797130e+00 
76900 5.5716522504e+00 1.4036988838e-04 1.7835925098e+00 -3.0892728469e+00 1.7835925098e+00 3.0892728469e+00 
77000 5.5716522495e+00 1.3934049710e-04 1.7835885748e+00 -3.0892660313e+00 1.7835885748e+00 3.0892660313e+00 
77100 5.5716522486e+00 1.3831918019e-04 1.7835846686e+00 -3.0892592656e+00 1.7835846686e+00 3.0892592656e+00 
77200 5.5716522478e+00 1.3730586967e-04 1.7835807910e+00 -3.0892525494e+00 1.7835807910e+00 3.0892525494e+00 
77300 5.5716522469e+00 1.3630049816e-04 1.7835769418e+00 -3.0892458825e+00 1.7835769418e+00 3.0892458825e+00 
77400 5.5716522461e+00 1.3530299887e-04 1.7835731209e+00 -3.0892392643e+00 1.7835731209e+00 3.0892392643e+00 
77500 5.5716522452e+00 1.3431330566e-04 1.7835693278e+00 -3.0892326946e+00 1.7835693278e+00 3.0892326946e+00 
77600 5.5716522444e+00 1.3333135293e-04 1.7835655625e+00 -3.0892261729e+00 1.7835655625e+00 3.0892261729e+00 
77700 5.5716522436e+00 1.3235707572e-04 1.7835618248e+00 -3.0892196989e+00 1.7835618248e+00 3.0892196989e+00 
77800 5.5716522428e+00 1.3139040961e-04 1.7835581143e+00 -3.0892132722e+00 1.7835581143e+00 3.0892132722e+00 
77900 5.5716522420e+00 1.3043129080e-04 1.7835544309e+00 -3.0892068924e+00 1.7835544309e+00 3.0892068924e+00 
78000 5.5716522412e+00 1.2947965603e-04 1.7835507744e+00 -3.0892005592e+00 1.7835507744e+00 3.0892005592e+00 
78100 5.5716522405e+00 1.2853544264e-04 1.7835471446e+00 -3.0891942721e+00 1.7835471446e+00 3.0891942721e+00 
78200 5.5716522397e+00 1.2759858849e-04 1.7835435412e+00 -3.0891880309e+00 1.7835435412e+00 3.0891880309e+00 
78300 5.5716522389e+00 1.2666903205e-04 1.7835399641e+00 -3.0891818352e+00 1.7835399641e+00 3.0891818352e+00 
78400 5.5716522382e+00 1.2574671229e-04 1.7835364131e+00 -3.0891756846e+00 1.7835364131e+00 3.0891756846e+00 
78500 5.5716522375e+00 1.2483156877e-04 1.7835328879e+00 -3.0891695787e+00 1.7835328879e+00 3.0891695787e+00 
78600 5.5716522367e+00 1.2392354157e-04 1.7835293883e+00 -3.0891635173e+00 1.7835293883e+00 3.0891635173e+00 
78700 5.5716522360e+00 1.2302257129e-04 1.7835259142e+00 -3.0891575000e+00 1.7835259142e+00 3.0891575000e+00 
78800 5.5716522353e+00 1.2212859911e-04 1.7835224653e+00 -3.0891515264e+00 1.7835224653e+00 3.0891515264e+00 
78900 5.5716522346e+00 1.2124156668e-04 1.7835190415e+00 -3.0891455962e+00 1.7835190415e+00 3.0891455962e+00 
79000 5.5716522340e+00 1.2036141621e-04 1.7835156426e+00 -3.0891397091e+00 1.7835156426e+00 3.0891397091e+00 
79100 5.5716522333e+00 1.1948809041e-04 1.7835122683e+00 -3.0891338646e+00 1.7835122683e+00 3.0891338646e+00 
79200 5.5716522326e+00 1.1862153251e-04 1.7835089185e+00 -3.0891280626e+00 1.7835089185e+00 3.0891280626e+00 
79300 5.5716522319e+00 1.1776168624e-04 1.7835055930e+00 -3.0891223027e+00 1.7835055930e+00 3.0891223027e+00 
79400 5.5716522313e+00 1.1690849583e-04 1.7835022916e+00 -3.0891165845e+00 1.7835022916e+00 3.0891165845e+00 
79500 5.5716522307e+00 1.1606190600e-04 1.7834990141e+00 -3.0891109077e+00 1.7834990141e+00 3.0891109077e+00 
79600 5.5716522300e+00 1.1522186199e-04 1.7834957603e+00 -3.0891052720e+00 1.7834957603e+00 3.0891052720e+00 
79700 5.5716522294e+00 1.1438830950e-04 1.7834925301e+00 -3.0890996771e+00 1.7834925301e+00 3.0890996771e+00 
79800 5.5716522288e+00 1.1356119473e-04 1.7834893233e+00 -3.0890941226e+00 1.7834893233e+00 3.0890941226e+00 
79900 5.5716522282e+00 1.1274046433e-04 1.7834861396e+00 -3.0890886083e+00 1.7834861396e+00 3.0890886083e+00 
80000 5.5716522276e+00 1.1192606546e-04 1.7834829789e+00 -3.0890831339e+00 1.7834829789e+00 3.0890831339e+00 
80100 5.5716522270e+00 1.1111794574e-04 1.7834798410e+00 -3.0890776990e+00 1.7834798410e+00 3.0890776990e+00 
80200 5.5716522264e+00 1.1031605323e-04 1.7834767258e+00 -3.0890723033e+00 1.7834767258e+00 3.0890723033e+00 
80300 5.5716522258e+00 1.0952033647e-04 1.7834736331e+00 -3.0890669465e+00 1.7834736331e+00 3.0890669465e+00 
80400 5.5716522252e+00 1.0873074447e-04 1.7834705627e+00 -3.0890616284e+00 1.7834705627e+00 3.0890616284e+00 
80500 5.5716522247e+00 1.0794722666e-04 1.7834675144e+00 -3.0890563486e+00 1.7834675144e+00 3.0890563486e+00 
80600 5.5716522241e+00 1.0716973294e-04 1.7834644881e+00 -3.0890511069e+00 1.7834644881e+00 3.0890511069e+00 
80700 5.5716522236e+00 1.0639821365e-04 1.7834614835e+00 -3.0890459028e+00 1.7834614835e+00 3.0890459028e+00 
80800 5.5716522230e+00 1.0563261956e-04 1.7834585006e+00 -3.0890407363e+00 1.7834585006e+00 3.0890407363e+00 
80900 5.5716522225e+00 1.0487290188e-04 1.7834555392e+00 -3.0890356069e+00 1.7834555392e+00 3.0890356069e+00 
81000 5.5716522220e+00 1.0411901226e-04 1.7834525990e+00 -3.0890305144e+00 1.7834525990e+00 3.0890305144e+00 
81100 5.5716522214e+00 1.0337090276e-04 1.7834496800e+00 -3.0890254585e+00 1.7834496800e+00 3.0890254585e+00 
81200 5.5716522209e+00 1.0262852587e-04 1.7834467819e+00 -3.0890204389e+00 1.7834467819e+00 3.0890204389e+00 
81300 5.5716522204e+00 1.0189183451e-04 1.7834439047e+00 -3.0890154554e+00 1.7834439047e+00 3.0890154554e+00 
81400 5.5716522199e+00 1.0116078199e-04 1.7834410481e+00 -3.0890105076e+00 1.7834410481e+00 3.0890105076e+00 
81500 5.5716522194e+00 1.0043532206e-04 1.7834382120e+00 -3.0890055953e+00 1.7834382120e+00 3.0890055953e+00 
81600 5.5716522189e+00 9.9715408847e-05 1.7834353962e+00 -3.0890007182e+00 1.7834353962e+00 3.0890007182e+00 
81700 5.5716522185e+00 9.9000996908e-05 1.7834326006e+00 -3.0889958761e+00 1.7834326006e+00 3.0889958761e+00 
81800 5.5716522180e+00 9.8292041187e-05 1.7834298250e+00 -3.0889910687e+00 1.7834298250e+00 3.0889910687e+00 
81900 5.5716522175e+00 9.7588497023e-05 1.7834270693e+00 -3.0889862956e+00 1.7834270693e+00 3.0889862956e+00 
82000 5.5716522170e+00 9.6890320149e-05 1.7834243333e+00 -3.0889815568e+00 1.7834243333e+00 3.0889815568e+00 
82100 5.5716522166e+00 9.6197466686e-05 1.7834216169e+00 -3.0889768518e+00 1.7834216169e+00 3.0889768518e+00 
82200 5.5716522161e+00 9.5509893142e-05 1.7834189199e+00 -3.0889721805e+00 1.7834189199e+00 3.0889721805e+00 
82300 5.5716522157e+00 9.4827556402e-05 1.7834162422e+00 -3.0889675426e+00 1.7834162422e+00 3.0889675426e+00 
82400 5.5716522153e+00 9.4150413732e-05 1.7834135836e+00 -3.0889629377e+00 1.7834135836e+00 3.0889629377e+00 
82500 5.5716522148e+00 9.3478422770e-05 1.7834109440e+00 -3.0889583658e+00 1.7834109440e+00 3.0889583658e+00 
82600 5.5716522144e+00 9.2811541524e-05 1.7834083232e+00 -3.0889538265e+00 1.7834083232e+00 3.0889538265e+00 
82700 5.5716522140e+00 9.2149728373e-05 1.7834057212e+00 -3.0889493195e+00 1.7834057212e+00 3.0889493195e+00 
82800 5.5716522135e+00 9.1492942055e-05 1.7834031376e+00 -3.0889448447e+00 1.7834031376e+00 3.0889448447e+00 
82900 5.5716522131e+00 9.0841141670e-05 1.7834005725e+00 -3.0889404018e+00 1.7834005725e+00 3.0889404018e+00 
83000 5.5716522127e+00 9.0194286677e-05 1.7833980256e+00 -3.0889359905e+00 1.7833980256e+00 3.0889359905e+00 
83100 5.5716522123e+00 8.9552336884e-05 1.7833954969e+00 -3.0889316107e+00 1.7833954969e+00 3.0889316107e+00 
83200 5.5716522119e+00 8.8915252453e-05 1.7833929862e+00 -3.0889272620e+00 1.7833929862e+00 3.0889272620e+00 
83300 5.5716522115e+00 8.8282993893e-05 1.7833904933e+00 -3.0889229442e+00 1.7833904933e+00 3.0889229442e+00 
83400 5.5716522111e+00 8.7655522055e-05 1.7833880182e+00 -3.0889186571e+00 1.7833880182e+00 3.0889186571e+00 
83500 5.5716522108e+00 8.7032798130e-05 1.7833855606e+00 -3.0889144005e+00 1.7833855606e+00 3.0889144005e+00 
83600 5.5716522104e+00 8.6414783649e-05 1.7833831205e+00 -3.0889101741e+00 1.7833831205e+00 3.0889101741e+00 
83700 5.5716522100e+00 8.5801440475e-05 1.7833806978e+00 -3.0889059778e+00 1.7833806978e+00 3.0889059778e+00 
83800 5.5716522096e+00 8.5192730805e-05 1.7833782922e+00 -3.0889018112e+00 1.7833782922e+00 3.0889018112e+00 
83900 5.5716522093e+00 8.4588617162e-05 1.7833759037e+00 -3.0888976741e+00 1.7833759037e+00 3.0888976741e+00 
84000 5.5716522089e+00 8.3989062392e-05 1.7833735321e+00 -3.0888935664e+00 1.7833735321e+00 3.0888935664e+00 
84100 5.5716522086e+00 8.3394029669e-05 1.7833711773e+00 -3.0888894878e+00 1.7833711773e+00 3.0888894878e+00 
84200 5.5716522082e+00 8.2803482479e-05 1.7833688392e+00 -3.0888854381e+00 1.7833688392e+00 3.0888854381e+00 
84300 5.5716522079e+00 8.2217384631e-05 1.7833665176e+00 -3.0888814171e+00 1.7833665176e+00 3.0888814171e+00 
84400 5.5716522075e+00 8.1635700242e-05 1.7833642125e+00 -3.0888774245e+00 1.7833642125e+00 3.0888774245e+00 
84500 5.5716522072e+00 8.1058393742e-05 1.7833619237e+00 -3.0888734602e+00 1.7833619237e+00 3.0888734602e+00 
84600 5.5716522069e+00 8.0485429868e-05 1.7833596511e+00 -3.0888695238e+00 1.7833596511e+00 3.0888695238e+00 
84700 5.5716522065e+00 7.9916773660e-05 1.7833573945e+00 -3.0888656154e+00 1.7833573945e+00 3.0888656154e+00 
84800 5.5716522062e+00 7.9352390462e-05 1.7833551539e+00 -3.0888617345e+00 1.7833551539e+00 3.0888617345e+00 
84900 5.5716522059e+00 7.8792245918e-05 1.7833529291e+00 -3.0888578810e+00 1.7833529291e+00 3.0888578810e+00 
85000 5.5716522056e+00 7.8236305963e-05 1.7833507200e+00 -3.0888540547e+00 1.7833507200e+00 3.0888540547e+00 
85100 5.5716522053e+00 7.7684536831e-05 1.7833485265e+00 -3.0888502554e+00 1.7833485265e+00 3.0888502554e+00 
85200 5.5716522050e+00 7.7136905045e-05 1.7833463484e+00 -3.0888464829e+00 1.7833463484e+00 3.0888464829e+00 
85300 5.5716522046e+00 7.6593377416e-05 1.7833441857e+00 -3.0888427370e+00 1.7833441857e+00 3.0888427370e+00 
85400 5.5716522043e+00 7.6053921040e-05 1.7833420382e+00 -3.0888390175e+00 1.7833420382e+00 3.0888390175e+00 
85500 5.5716522041e+00 7.5518503297e-05 1.7833399059e+00 -3.0888353242e+00 1.7833399059e+00 3.0888353242e+00 
85600 5.5716522038e+00 7.4987091846e-05 1.7833377886e+00 -3.0888316569e+00 1.7833377886e+00 3.0888316569e+00 
85700 5.5716522035e+00 7.4459654625e-05 1.7833356861e+00 -3.0888280153e+00 1.7833356861e+00 3.0888280153e+00 
85800 5.5716522032e+00 7.3936159846e-05 1.7833335985e+00 -3.0888243994e+00 1.7833335985e+00 3.0888243994e+00 
85900 5.5716522029e+00 7.3416575995e-05 1.7833315255e+00 -3.0888208089e+00 1.7833315255e+00 3.0888208089e+00 
86000 5.5716522026e+00 7.2900871826e-05 1.7833294671e+00 -3.0888172436e+00 1.7833294671e+00 3.0888172436e+00 
86100 5.5716522024e+00 7.2389016365e-05 1.7833274231e+00 -3.0888137034e+00 1.7833274231e+00 3.0888137034e+00 
86200 5.5716522021e+00 7.1880978897e-05 1.7833253935e+00 -3.0888101880e+00 1.7833253935e+00 3.0888101880e+00 
86300 5.5716522018e+00 7.1376728975e-05 1.7833233782e+00 -3.0888066973e+00 1.7833233782e+00 3.0888066973e+00 
86400 5.5716522015e+00 7.0876236409e-05 1.7833213769e+00 -3.0888032311e+00 1.7833213769e+00 3.0888032311e+00 
86500 5.5716522013e+00 7.0379471270e-05 1.7833193898e+00 -3.0887997892e+00 1.7833193898e+00 3.0887997892e+00 
86600 5.5716522012e+00 7.0468294439e-05 1.7833193898e+00 -3.0887997892e+00 1.7833193898e+00 3.0887997892e+00 
86700 5.5716522011e+00 7.0557658176e-05 1.7833193898e+00 -3.0887997892e+00 1.7833193898e+00 3.0887997892e+00 
86800 5.5716522010e+00 7.0647501353e-05 1.7833193898e+00 -3.0887997892e+00 1.7833193898e+00 3.0887997892e+00 
86900 5.5716522009e+00 7.0737769001e-05 1.7833193898e+00 -3.0887997892e+00 1.7833193898e+00 3.0887997892e+00 
87000 5.5716522006e+00 7.0243563569e-05 1.7833174064e+00 -3.0887963540e+00 1.7833174064e+00 3.0887963540e+00 
87100 5.5716522005e+00 7.0333583564e-05 1.7833174064e+00 -3.0887963540e+00 1.7833174064e+00 3.0887963540e+00 
87200 5.5716522004e+00 7.0423949921e-05 1.7833174064e+00 -3.0887963540e+00 1.7833174064e+00 3.0887963540e+00 
87300 5.5716522004e+00 7.0514620753e-05 1.7833174064e+00 -3.0887963540e+00 1.7833174064e+00 3.0887963540e+00 
87400 5.5716522003e+00 7.0605558271e-05 1.7833174064e+00 -3.0887963540e+00 1.7833174064e+00 3.0887963540e+00 
87500 5.5716522002e+00 7.0696728337e-05 1.7833174064e+00 -3.0887963540e+00 1.7833174064e+00 3.0887963540e+00 
87600 5.5716522001e+00 7.0788100057e-05 1.7833174064e+00 -3.0887963540e+00 1.7833174064e+00 3.0887963540e+00 
87700 5.5716521998e+00 7.0294387163e-05 1.7833154217e+00 -3.0887929163e+00 1.7833154217e+00 3.0887929163e+00 
87800 5.5716521997e+00 7.0385126642e-05 1.7833154217e+00 -3.0887929163e+00 1.7833154217e+00 3.0887929163e+00 
87900 5.5716521997e+00 7.0476047007e-05 1.7833154217e+00 -3.0887929163e+00 1.7833154217e+00 3.0887929163e+00 
88000 5.5716521996e+00 7.0567121244e-05 1.7833154217e+00 -3.0887929163e+00 1.7833154217e+00 3.0887929163e+00 
88100 5.5716521995e+00 7.0658324651e-05 1.7833154217e+00 -3.0887929163e+00 1.7833154217e+00 3.0887929163e+00 
88200 5.5716521994e+00 7.0749634572e-05 1.7833154217e+00 -3.0887929163e+00 1.7833154217e+00 3.0887929163e+00 
88300 5.5716521992e+00 7.0256094239e-05 1.7833134380e+00 -3.0887894805e+00 1.7833134380e+00 3.0887894805e+00 
88400 5.5716521991e+00 7.0346602563e-05 1.7833134380e+00 -3.0887894805e+00 1.7833134380e+00 3.0887894805e+00 
88500 5.5716521990e+00 7.0437215282e-05 1.7833134380e+00 -3.0887894805e+00 1.7833134380e+00 3.0887894805e+00 
88600 5.5716521989e+00 7.0527909938e-05 1.7833134380e+00 -3.0887894805e+00 1.7833134380e+00 3.0887894805e+00 
88700 5.5716521989e+00 7.0618665698e-05 1.7833134380e+00 -3.0887894805e+00 1.7833134380e+00 3.0887894805e+00 
88800 5.5716521988e+00 7.0709463165e-05 1.7833134380e+00 -3.0887894805e+00 1.7833134380e+00 3.0887894805e+00 
88900 5.5716521987e+00 7.0800284200e-05 1.7833134380e+00 -3.0887894805e+00 1.7833134380e+00 3.0887894805e+00 
89000 5.5716521985e+00 7.0305761876e-05 1.7833114530e+00 -3.0887860423e+00 1.7833114530e+00 3.0887860423e+00 
89100 5.5716521984e+00 7.0395625474e-05 1.7833114530e+00 -3.0887860423e+00 1.7833114530e+00 3.0887860423e+00 
89200 5.5716521983e+00 7.0485520261e-05 1.7833114530e+00 -3.0887860423e+00 1.7833114530e+00 3.0887860423e+00 
89300 5.5716521983e+00 7.0575425968e-05 1.7833114530e+00 -3.0887860423e+00 1.7833114530e+00 3.0887860423e+00 
89400 5.5716521982e+00 7.0665323544e-05 1.7833114530e+00 -3.0887860423e+00 1.7833114530e+00 3.0887860423e+00 
89500 5.5716521981e+00 7.0755195019e-05 1.7833114530e+00 -3.0887860423e+00 1.7833114530e+00 3.0887860423e+00 
89600 5.5716521979e+00 7.0260049629e-05 1.7833094692e+00 -3.0887826062e+00 1.7833094692e+00 3.0887826062e+00 
89700 5.5716521979e+00 7.0348864804e-05 1.7833094692e+00 -3.0887826062e+00 1.7833094692e+00 3.0887826062e+00 
89800 5.5716521978e+00 7.0437661206e-05 1.7833094692e+00 -3.0887826062e+00 1.7833094692e+00 3.0887826062e+00 
89900 5.5716521977e+00 7.0526418315e-05 1.7833094692e+00 -3.0887826062e+00 1.7833094692e+00 3.0887826062e+00 
90000 5.5716521977e+00 7.0615116784e-05 1.7833094692e+00 -3.0887826062e+00 1.7833094692e+00 3.0887826062e+00 
90100 5.5716521976e+00 7.0703738317e-05 1.7833094692e+00 -3.0887826062e+00 1.7833094692e+00 3.0887826062e+00 
90200 5.5716521975e+00 7.0792265560e-05 1.7833094692e+00 -3.0887826062e+00 1.7833094692e+00 3.0887826062e+00 
90300 5.5716521973e+00 7.0295405518e-05 1.7833074843e+00 -3.0887791683e+00 1.7833074843e+00 3.0887791683e+00 
90400 5.5716521973e+00 7.0382740935e-05 1.7833074843e+00 -3.0887791683e+00 1.7833074843e+00 3.0887791683e+00 
90500 5.5716521972e+00 7.0469990718e-05 1.7833074843e+00 -3.0887791683e+00 1.7833074843e+00 3.0887791683e+00 
90600 5.5716521972e+00 7.0557134665e-05 1.7833074843e+00 -3.0887791683e+00 1.7833074843e+00 3.0887791683e+00 
90700 5.5716521971e+00 7.0644153726e-05 1.7833074843e+00 -3.0887791683e+00 1.7833074843e+00 3.0887791683e+00 
90800 5.5716521970e+00 7.0731029888e-05 1.7833074843e+00 -3.0887791683e+00 1.7833074843e+00 3.0887791683e+00 
90900 5.5716521968e+00 7.0232978419e-05 1.7833055012e+00 -3.0887757334e+00 1.7833055012e+00 3.0887757334e+00 
91000 5.5716521968e+00 7.0318564743e-05 1.7833055012e+00 -3.0887757334e+00 1.7833055012e+00 3.0887757334e+00 
91100 5.5716521967e+00 7.0404015426e-05 1.7833055012e+00 -3.0887757334e+00 1.7833055012e+00 3.0887757334e+00 
91200 5.5716521967e+00 7.0489310029e-05 1.7833055012e+00 -3.0887757334e+00 1.7833055012e+00 3.0887757334e+00 
91300 5.5716521966e+00 7.0574429364e-05 1.7833055012e+00 -3.0887757334e+00 1.7833055012e+00 3.0887757334e+00 
91400 5.5716521966e+00 7.0659355389e-05 1.7833055012e+00 -3.0887757334e+00 1.7833055012e+00 3.0887757334e+00 
91500 5.5716521965e+00 7.0744071107e-05 1.7833055012e+00 -3.0887757334e+00 1.7833055012e+00 3.0887757334e+00 
91600 5.5716521963e+00 7.0243687872e-05 1.7833035177e+00 -3.0887722979e+00 1.7833035177e+00 3.0887722979e+00 
91700 5.5716521963e+00 7.0326981789e-05 1.7833035177e+00 -3.0887722979e+00 1.7833035177e+00 3.0887722979e+00 
91800 5.5716521962e+00 7.0410075816e-05 1.7833035177e+00 -3.0887722979e+00 1.7833035177e+00 3.0887722979e+00 
91900 5.5716521962e+00 7.0492950615e-05 1.7833035177e+00 -3.0887722979e+00 1.7833035177e+00 3.0887722979e+00 
92000 5.5716521961e+00 7.0575588133e-05 1.7833035177e+00 -3.0887722979e+00 1.7833035177e+00 3.0887722979e+00 
92100 5.5716521961e+00 7.0657971499e-05 1.7833035177e+00 -3.0887722979e+00 1.7833035177e+00 3.0887722979e+00 
92200 5.5716521960e+00 7.0740084926e-05 1.7833035177e+00 -3.0887722979e+00 1.7833035177e+00 3.0887722979e+00 
92300 5.5716521958e+00 7.0237076453e-05 1.7833015343e+00 -3.0887688625e+00 1.7833015343e+00 3.0887688625e+00 
92400 5.5716521958e+00 7.0317652596e-05 1.7833015343e+00 -3.0887688625e+00 1.7833015343e+00 3.0887688625e+00 
92500 5.5716521957e+00 7.0397973086e-05 1.7833015343e+00 -3.0887688625e+00 1.7833015343e+00 3.0887688625e+00 
92600 5.5716521957e+00 7.0478019958e-05 1.7833015343e+00 -3.0887688625e+00 1.7833015343e+00 3.0887688625e+00 
92700 5.5716521957e+00 7.0557776570e-05 1.7833015343e+00 -3.0887688625e+00 1.7833015343e+00 3.0887688625e+00 
92800 5.5716521956e+00 7.0637227502e-05 1.7833015343e+00 -3.0887688625e+00 1.7833015343e+00 3.0887688625e+00 
92900 5.5716521956e+00 7.0716358456e-05 1.7833015343e+00 -3.0887688625e+00 1.7833015343e+00 3.0887688625e+00 
93000 5.5716521954e+00 7.0208964358e-05 1.7832995515e+00 -3.0887654283e+00 1.7832995515e+00 3.0887654283e+00 
93000 5.5716521954e+00 7.0208964358e-05 1.7832995515e+00 -3.0887654283e+00 1.7832995515e+00 3.0887654283e+00 
