# step Hamiltonian StressXX CellTensor1 CellTensor2 CellTensor3 CellTensor4 
0 5.4081768729e+00 2.9094324262e-02 2.0436807272e+00 -3.5397588540e+00 2.0436807272e+00 3.5397588540e+00 
100 5.4137944954e+00 3.1396578733e-02 2.0436807272e+00 -3.5397588540e+00 2.0436807272e+00 3.5397588540e+00 
200 5.4183930763e+00 3.3203943004e-02 2.0429126373e+00 -3.5384284832e+00 2.0429126373e+00 3.5384284832e+00 
300 5.4221249137e+00 3.4705342605e-02 2.0421000294e+00 -3.5370210050e+00 2.0421000294e+00 3.5370210050e+00 
400 5.4251125129e+00 3.5948803286e-02 2.0412503419e+00 -3.5355493032e+00 2.0412503419e+00 3.5355493032e+00 
500 5.4274676434e+00 3.6979021228e-02 2.0403698468e+00 -3.5340242410e+00 2.0403698468e+00 3.5340242410e+00 
600 5.4292905620e+00 3.7836546345e-02 2.0394637297e+00 -3.5324548000e+00 2.0394637297e+00 3.5324548000e+00 
700 5.4306697515e+00 3.8557231679e-02 2.0385361898e+00 -3.5308482539e+00 2.0385361898e+00 3.5308482539e+00 
800 5.4316821268e+00 3.9171975278e-02 2.0375905542e+00 -3.5292103649e+00 2.0375905542e+00 3.5292103649e+00 
900 5.4323936214e+00 3.9706733861e-02 2.0366293971e+00 -3.5275455919e+00 2.0366293971e+00 3.5275455919e+00 
1000 5.4328600451e+00 4.0182758667e-02 2.0356546600e+00 -3.5258572978e+00 2.0356546600e+00 3.5258572978e+00 
1100 5.4331281090e+00 4.0616991266e-02 2.0346677659e+00 -3.5241479471e+00 2.0346677659e+00 3.5241479471e+00 
1200 5.4332365225e+00 4.1022556876e-02 2.0336697241e+00 -3.5224192880e+00 2.0336697241e+00 3.5224192880e+00 
1300 5.4332170908e+00 4.1409300543e-02 2.0326612230e+00 -3.5206725128e+00 2.0326612230e+00 3.5206725128e+00 
1400 5.4330957568e+00 4.1784323214e-02 2.0316427099e+00 -3.5189083964e+00 2.0316427099e+00 3.5189083964e+00 
1500 5.4328935560e+00 4.2152487334e-02 2.0306144584e+00 -3.5171274125e+00 2.0306144584e+00 3.5171274125e+00 
1600 5.4326274646e+00 4.2516873121e-02 2.0295766224e+00 -3.5153298278e+00 2.0295766224e+00 3.5153298278e+00 
1700 5.4323111352e+00 4.2879176054e-02 2.0285292805e+00 -3.5135157784e+00 2.0285292805e+00 3.5135157784e+00 
1800 5.4319555229e+00 4.3240043148e-02 2.0274724692e+00 -3.5116853276e+00 2.0274724692e+00 3.5116853276e+00 
1900 5.4315694092e+00 4.3599350342e-02 2.0264062093e+00 -3.5098385114e+00 2.0264062093e+00 3.5098385114e+00 
2000 5.4311598347e+00 4.3956426217e-02 2.0253305245e+00 -3.5079753705e+00 2.0253305245e+00 3.5079753705e+00 
2100 5.4307324526e+00 4.4310228722e-02 2.0242454547e+00 -3.5060959745e+00 2.0242454547e+00 3.5060959745e+00 
2200 5.4302918140e+00 4.4659482017e-02 2.0231510658e+00 -3.5042004374e+00 2.0231510658e+00 3.5042004374e+00 
2300 5.4298415980e+00 4.5002780317e-02 2.0220474552e+00 -3.5022889278e+00 2.0220474552e+00 3.5022889278e+00 
2400 5.4293847938e+00 4.5338665038e-02 2.0209347551e+00 -3.5003616746e+00 2.0209347551e+00 3.5003616746e+00 
2500 5.4289238460e+00 4.5665680746e-02 2.0198131338e+00 -3.4984189695e+00 2.0198131338e+00 3.4984189695e+00 
2600 5.4284607686e+00 4.5982414571e-02 2.0186827961e+00 -3.4964611672e+00 2.0186827961e+00 3.4964611672e+00 
2700 5.4279972353e+00 4.6287522944e-02 2.0175439820e+00 -3.4944886833e+00 2.0175439820e+00 3.4944886833e+00 
2800 5.4275346495e+00 4.6579748769e-02 2.0163969653e+00 -3.4925019921e+00 2.0163969653e+00 3.4925019921e+00 
2900 5.4270741991e+00 4.6857931524e-02 2.0152420513e+00 -3.4905016224e+00 2.0152420513e+00 3.4905016224e+00 
3000 5.4266168999e+00 4.7121012203e-02 2.0140795750e+00 -3.4884881544e+00 2.0140795750e+00 3.4884881544e+00 
3100 5.4261636278e+00 4.7368034624e-02 2.0129098981e+00 -3.4864622145e+00 2.0129098981e+00 3.4864622145e+00 
3200 5.4257151457e+00 4.7598144204e-02 2.0117334068e+00 -3.4844244719e+00 2.0117334068e+00 3.4844244719e+00 
3300 5.4252721226e+00 4.7810585075e-02 2.0105505096e+00 -3.4823756339e+00 2.0105505096e+00 3.4823756339e+00 
3400 5.4248351490e+00 4.8004696153e-02 2.0093616345e+00 -3.4803164417e+00 2.0093616345e+00 3.4803164417e+00 
3500 5.4244047491e+00 4.8179906600e-02 2.0081672269e+00 -3.4782476670e+00 2.0081672269e+00 3.4782476670e+00 
3600 5.4239813897e+00 4.8335731027e-02 2.0069677474e+00 -3.4761701077e+00 2.0069677474e+00 3.4761701077e+00 
3700 5.4235654870e+00 4.8471764628e-02 2.0057636699e+00 -3.4740845842e+00 2.0057636699e+00 3.4740845842e+00 
3800 5.4231574122e+00 4.8587678405e-02 2.0045554793e+00 -3.4719919368e+00 2.0045554793e+00 3.4719919368e+00 
3900 5.4227574951e+00 4.8683214575e-02 2.0033436700e+00 -3.4698930215e+00 2.0033436700e+00 3.4698930215e+00 
4000 5.4223660279e+00 4.8758182205e-02 2.0021287439e+00 -3.4677887078e+00 2.0021287439e+00 3.4677887078e+00 
4100 5.4219832669e+00 4.8812453110e-02 2.0009112089e+00 -3.4656798753e+00 2.0009112089e+00 3.4656798753e+00 
4200 5.4216094346e+00 4.8845957999e-02 1.9996915773e+00 -3.4635674114e+00 1.9996915773e+00 3.4635674114e+00 
4300 5.4212447214e+00 4.8858682894e-02 1.9984703644e+00 -3.4614522086e+00 1.9984703644e+00 3.4614522086e+00 
4400 5.4208892865e+00 4.8850665767e-02 1.9972480871e+00 -3.4593351622e+00 1.9972480871e+00 3.4593351622e+00 
4500 5.4205432589e+00 4.8821993416e-02 1.9960252626e+00 -3.4572171681e+00 1.9960252626e+00 3.4572171681e+00 
4600 5.4202067381e+00 4.8772798523e-02 1.9948024073e+00 -3.4550991204e+00 1.9948024073e+00 3.4550991204e+00 
4700 5.4198797955e+00 4.8703256895e-02 1.9935800352e+00 -3.4529819099e+00 1.9935800352e+00 3.4529819099e+00 
4800 5.4195624745e+00 4.8613584858e-02 1.9923586576e+00 -3.4508664219e+00 1.9923586576e+00 3.4508664219e+00 
4900 5.4192547915e+00 4.8504036787e-02 1.9911387814e+00 -3.4487535342e+00 1.9911387814e+00 3.4487535342e+00 
5000 5.4189567369e+00 4.8374902744e-02 1.9899209082e+00 -3.4466441161e+00 1.9899209082e+00 3.4466441161e+00 
5100 5.4186682757e+00 4.8226506225e-02 1.9887055339e+00 -3.4445390260e+00 1.9887055339e+00 3.4445390260e+00 
5200 5.4183893486e+00 4.8059201986e-02 1.9874931472e+00 -3.4424391107e+00 1.9874931472e+00 3.4424391107e+00 
5300 5.4181198727e+00 4.7873373951e-02 1.9862842292e+00 -3.4403452032e+00 1.9862842292e+00 3.4403452032e+00 
5400 5.4178597430e+00 4.7669433171e-02 1.9850792523e+00 -3.4382581221e+00 1.9850792523e+00 3.4382581221e+00 
5500 5.4176088331e+00 4.7447815857e-02 1.9838786800e+00 -3.4361786698e+00 1.9838786800e+00 3.4361786698e+00 
5600 5.4173669968e+00 4.7208981444e-02 1.9826829656e+00 -3.4341076317e+00 1.9826829656e+00 3.4341076317e+00 
5700 5.4171340691e+00 4.6953410720e-02 1.9814925520e+00 -3.4320457749e+00 1.9814925520e+00 3.4320457749e+00 
5800 5.4169098675e+00 4.6681603976e-02 1.9803078711e+00 -3.4299938473e+00 1.9803078711e+00 3.4299938473e+00 
5900 5.4166941938e+00 4.6394079217e-02 1.9791293430e+00 -3.4279525768e+00 1.9791293430e+00 3.4279525768e+00 
6000 5.4164868350e+00 4.6091370392e-02 1.9779573757e+00 -3.4259226699e+00 1.9779573757e+00 3.4259226699e+00 
6100 5.4162875653e+00 4.5774025673e-02 1.9767923646e+00 -3.4239048116e+00 1.9767923646e+00 3.4239048116e+00 
6200 5.4160961474e+00 4.5442605769e-02 1.9756346924e+00 -3.4218996644e+00 1.9756346924e+00 3.4218996644e+00 
6300 5.4159123337e+00 4.5097682274e-02 1.9744847279e+00 -3.4199078675e+00 1.9744847279e+00 3.4199078675e+00 
6400 5.4157358687e+00 4.4739836057e-02 1.9733428266e+00 -3.4179300364e+00 1.9733428266e+00 3.4179300364e+00 
6500 5.4155664895e+00 4.4369655695e-02 1.9722093299e+00 -3.4159667626e+00 1.9722093299e+00 3.4159667626e+00 
6600 5.4154039283e+00 4.3987735938e-02 1.9710845651e+00 -3.4140186127e+00 1.9710845651e+00 3.4140186127e+00 
6700 5.4152479132e+00 4.3594676223e-02 1.9699688447e+00 -3.4120861284e+00 1.9699688447e+00 3.4120861284e+00 
6800 5.4150981699e+00 4.3191079236e-02 1.9688624670e+00 -3.4101698260e+00 1.9688624670e+00 3.4101698260e+00 
6900 5.4149544234e+00 4.2777549505e-02 1.9677657153e+00 -3.4082701962e+00 1.9677657153e+00 3.4082701962e+00 
7000 5.4148163988e+00 4.2354692059e-02 1.9666788580e+00 -3.4063877042e+00 1.9666788580e+00 3.4063877042e+00 
7100 5.4146838233e+00 4.1923111116e-02 1.9656021488e+00 -3.4045227892e+00 1.9656021488e+00 3.4045227892e+00 
7200 5.4145564268e+00 4.1483408836e-02 1.9645358262e+00 -3.4026758643e+00 1.9645358262e+00 3.4026758643e+00 
7300 5.4144339434e+00 4.1036184117e-02 1.9634801140e+00 -3.4008473170e+00 1.9634801140e+00 3.4008473170e+00 
7400 5.4143161125e+00 4.0582031439e-02 1.9624352207e+00 -3.3990375089e+00 1.9624352207e+00 3.3990375089e+00 
7500 5.4142026797e+00 4.0121539773e-02 1.9614013403e+00 -3.3972467755e+00 1.9614013403e+00 3.3972467755e+00 
7600 5.4140933977e+00 3.9655291525e-02 1.9603786519e+00 -3.3954754271e+00 1.9603786519e+00 3.3954754271e+00 
7700 5.4139880271e+00 3.9183861553e-02 1.9593673197e+00 -3.3937237484e+00 1.9593673197e+00 3.3937237484e+00 
7800 5.4138863370e+00 3.8707816217e-02 1.9583674937e+00 -3.3919919990e+00 1.9583674937e+00 3.3919919990e+00 
7900 5.4137881061e+00 3.8227712505e-02 1.9573793094e+00 -3.3902804136e+00 1.9573793094e+00 3.3902804136e+00 
8000 5.4136931226e+00 3.7744097194e-02 1.9564028883e+00 -3.3885892025e+00 1.9564028883e+00 3.3885892025e+00 
8100 5.4136011849e+00 3.7257506075e-02 1.9554383376e+00 -3.3869185518e+00 1.9554383376e+00 3.3869185518e+00 
8200 5.4135121019e+00 3.6768463232e-02 1.9544857512e+00 -3.3852686237e+00 1.9544857512e+00 3.3852686237e+00 
8300 5.4134256933e+00 3.6277480367e-02 1.9535452093e+00 -3.3836395575e+00 1.9535452093e+00 3.3836395575e+00 
8400 5.4133417898e+00 3.5785056191e-02 1.9526167792e+00 -3.3820314693e+00 1.9526167792e+00 3.3820314693e+00 
8500 5.4132602327e+00 3.5291675851e-02 1.9517005150e+00 -3.3804444532e+00 1.9517005150e+00 3.3804444532e+00 
8600 5.4131808745e+00 3.4797810424e-02 1.9507964586e+00 -3.3788785814e+00 1.9507964586e+00 3.3788785814e+00 
8700 5.4131035784e+00 3.4303916454e-02 1.9499046393e+00 -3.3773339051e+00 1.9499046393e+00 3.3773339051e+00 
8800 5.4130282183e+00 3.3810435540e-02 1.9490250748e+00 -3.3758104548e+00 1.9490250748e+00 3.3758104548e+00 
8900 5.4129546785e+00 3.3317793976e-02 1.9481577713e+00 -3.3743082410e+00 1.9481577713e+00 3.3743082410e+00 
9000 5.4128828533e+00 3.2826402437e-02 1.9473027236e+00 -3.3728272550e+00 1.9473027236e+00 3.3728272550e+00 
9100 5.4128126470e+00 3.2336655716e-02 1.9464599159e+00 -3.3713674693e+00 1.9464599159e+00 3.3713674693e+00 
9200 5.4127439731e+00 3.1848932503e-02 1.9456293220e+00 -3.3699288385e+00 1.9456293220e+00 3.3699288385e+00 
9300 5.4126767540e+00 3.1363595211e-02 1.9448109057e+00 -3.3685112997e+00 1.9448109057e+00 3.3685112997e+00 
9400 5.4126109209e+00 3.0880989847e-02 1.9440046209e+00 -3.3671147736e+00 1.9440046209e+00 3.3671147736e+00 
9500 5.4125464127e+00 3.0401445924e-02 1.9432104128e+00 -3.3657391647e+00 1.9432104128e+00 3.3657391647e+00 
9600 5.4124831758e+00 2.9925276417e-02 1.9424282174e+00 -3.3643843625e+00 1.9424282174e+00 3.3643843625e+00 
9700 5.4124211638e+00 2.9452777754e-02 1.9416579624e+00 -3.3630502419e+00 1.9416579624e+00 3.3630502419e+00 
9800 5.4123603363e+00 2.8984229850e-02 1.9408995678e+00 -3.3617366638e+00 1.9408995678e+00 3.3617366638e+00 
9900 5.4123006592e+00 2.8519896177e-02 1.9401529457e+00 -3.3604434764e+00 1.9401529457e+00 3.3604434764e+00 
10000 5.4122421036e+00 2.8060023868e-02 1.9394180012e+00 -3.3591705152e+00 1.9394180012e+00 3.3591705152e+00 
10100 5.4121846451e+00 2.7604843855e-02 1.9386946327e+00 -3.3579176041e+00 1.9386946327e+00 3.3579176041e+00 
10200 5.4121282639e+00 2.7154571040e-02 1.9379827322e+00 -3.3566845563e+00 1.9379827322e+00 3.3566845563e+00 
10300 5.4120729439e+00 2.6709404499e-02 1.9372821858e+00 -3.3554711744e+00 1.9372821858e+00 3.3554711744e+00 
10400 5.4120186721e+00 2.6269527710e-02 1.9365928743e+00 -3.3542772518e+00 1.9365928743e+00 3.3542772518e+00 
10500 5.4119654384e+00 2.5835108810e-02 1.9359146730e+00 -3.3531025728e+00 1.9359146730e+00 3.3531025728e+00 
10600 5.4119132350e+00 2.5406300884e-02 1.9352474529e+00 -3.3519469137e+00 1.9352474529e+00 3.3519469137e+00 
10700 5.4118620558e+00 2.4983242264e-02 1.9345910804e+00 -3.3508100431e+00 1.9345910804e+00 3.3508100431e+00 
10800 5.4118118964e+00 2.4566056867e-02 1.9339454181e+00 -3.3496917232e+00 1.9339454181e+00 3.3496917232e+00 
10900 5.4117627535e+00 2.4154854541e-02 1.9333103249e+00 -3.3485917095e+00 1.9333103249e+00 3.3485917095e+00 
11000 5.4117146243e+00 2.3749731432e-02 1.9326856566e+00 -3.3475097522e+00 1.9326856566e+00 3.3475097522e+00 
11100 5.4116675067e+00 2.3350770375e-02 1.9320712661e+00 -3.3464455967e+00 1.9320712661e+00 3.3464455967e+00 
11200 5.4116213985e+00 2.2958041292e-02 1.9314670039e+00 -3.3453989839e+00 1.9314670039e+00 3.3453989839e+00 
11300 5.4115762976e+00 2.2571601608e-02 1.9308727182e+00 -3.3443696509e+00 1.9308727182e+00 3.3443696509e+00 
11400 5.4115322015e+00 2.2191496677e-02 1.9302882555e+00 -3.3433573318e+00 1.9302882555e+00 3.3433573318e+00 
11500 5.4114891069e+00 2.1817760223e-02 1.9297134607e+00 -3.3423617579e+00 1.9297134607e+00 3.3423617579e+00 
11600 5.4114470101e+00 2.1450414781e-02 1.9291481774e+00 -3.3413826586e+00 1.9291481774e+00 3.3413826586e+00 
11700 5.4114059064e+00 2.1089472156e-02 1.9285922485e+00 -3.3404197615e+00 1.9285922485e+00 3.3404197615e+00 
11800 5.4113657902e+00 2.0734933878e-02 1.9280455161e+00 -3.3394727933e+00 1.9280455161e+00 3.3394727933e+00 
11900 5.4113266546e+00 2.0386791668e-02 1.9275078222e+00 -3.3385414800e+00 1.9275078222e+00 3.3385414800e+00 
12000 5.4112884919e+00 2.0045027903e-02 1.9269790082e+00 -3.3376255474e+00 1.9269790082e+00 3.3376255474e+00 
12100 5.4112512929e+00 1.9709616085e-02 1.9264589163e+00 -3.3367247217e+00 1.9264589163e+00 3.3367247217e+00 
12200 5.4112150475e+00 1.9380521306e-02 1.9259473885e+00 -3.3358387297e+00 1.9259473885e+00 3.3358387297e+00 
12300 5.4111797441e+00 1.9057700717e-02 1.9254442679e+00 -3.3349672992e+00 1.9254442679e+00 3.3349672992e+00 
12400 5.4111453701e+00 1.8741103992e-02 1.9249493981e+00 -3.3341101595e+00 1.9249493981e+00 3.3341101595e+00 
12500 5.4111119117e+00 1.8430673784e-02 1.9244626239e+00 -3.3332670419e+00 1.9244626239e+00 3.3332670419e+00 
12600 5.4110793540e+00 1.8126346189e-02 1.9239837913e+00 -3.3324376795e+00 1.9239837913e+00 3.3324376795e+00 
12700 5.4110476809e+00 1.7828051185e-02 1.9235127477e+00 -3.3316218080e+00 1.9235127477e+00 3.3316218080e+00 
12800 5.4110168755e+00 1.7535713086e-02 1.9230493420e+00 -3.3308191658e+00 1.9230493420e+00 3.3308191658e+00 
12900 5.4109869200e+00 1.7249250968e-02 1.9225934249e+00 -3.3300294943e+00 1.9225934249e+00 3.3300294943e+00 
13000 5.4109577955e+00 1.6968579104e-02 1.9221448491e+00 -3.3292525381e+00 1.9221448491e+00 3.3292525381e+00 
13100 5.4109294826e+00 1.6693607376e-02 1.9217034690e+00 -3.3284880453e+00 1.9217034690e+00 3.3284880453e+00 
13200 5.4109019611e+00 1.6424241687e-02 1.9212691413e+00 -3.3277357678e+00 1.9212691413e+00 3.3277357678e+00 
13300 5.4108752105e+00 1.6160384353e-02 1.9208417251e+00 -3.3269954612e+00 1.9208417251e+00 3.3269954612e+00 
13400 5.4108492095e+00 1.5901934498e-02 1.9204210815e+00 -3.3262668851e+00 1.9204210815e+00 3.3262668851e+00 
13500 5.4108239367e+00 1.5648788419e-02 1.9200070743e+00 -3.3255498036e+00 1.9200070743e+00 3.3255498036e+00 
13600 5.4107993702e+00 1.5400839955e-02 1.9195995697e+00 -3.3248439849e+00 1.9195995697e+00 3.3248439849e+00 
13700 5.4107754884e+00 1.5157980835e-02 1.9191984365e+00 -3.3241492018e+00 1.9191984365e+00 3.3241492018e+00 
13800 5.4107522690e+00 1.4920101017e-02 1.9188035461e+00 -3.3234652316e+00 1.9188035461e+00 3.3234652316e+00 
13900 5.4107296903e+00 1.4687089010e-02 1.9184147726e+00 -3.3227918562e+00 1.9184147726e+00 3.3227918562e+00 
14000 5.4107077304e+00 1.4458832186e-02 1.9180319931e+00 -3.3221288625e+00 1.9180319931e+00 3.3221288625e+00 
14100 5.4106863676e+00 1.4235217080e-02 1.9176550870e+00 -3.3214760420e+00 1.9176550870e+00 3.3214760420e+00 
14200 5.4106655805e+00 1.4016129673e-02 1.9172839369e+00 -3.3208331912e+00 1.9172839369e+00 3.3208331912e+00 
14300 5.4106453483e+00 1.3801455663e-02 1.9169184280e+00 -3.3202001113e+00 1.9169184280e+00 3.3202001113e+00 
14400 5.4106256501e+00 1.3591080722e-02 1.9165584486e+00 -3.3195766087e+00 1.9165584486e+00 3.3195766087e+00 
14500 5.4106064660e+00 1.3384890743e-02 1.9162038896e+00 -3.3189624944e+00 1.9162038896e+00 3.3189624944e+00 
14600 5.4105877763e+00 1.3182772066e-02 1.9158546448e+00 -3.3183575847e+00 1.9158546448e+00 3.3183575847e+00 
14700 5.4105695619e+00 1.2984611700e-02 1.9155106110e+00 -3.3177617006e+00 1.9155106110e+00 3.3177617006e+00 
14800 5.4105518044e+00 1.2790297526e-02 1.9151716875e+00 -3.3171746680e+00 1.9151716875e+00 3.3171746680e+00 
14900 5.4105344861e+00 1.2599718486e-02 1.9148377768e+00 -3.3165963177e+00 1.9148377768e+00 3.3165963177e+00 
15000 5.4105175897e+00 1.2412764767e-02 1.9145087840e+00 -3.3160264855e+00 1.9145087840e+00 3.3160264855e+00 
15100 5.4105010990e+00 1.2229327961e-02 1.9141846169e+00 -3.3154650116e+00 1.9141846169e+00 3.3154650116e+00 
15200 5.4104849981e+00 1.2049301225e-02 1.9138651862e+00 -3.3149117414e+00 1.9138651862e+00 3.3149117414e+00 
15300 5.4104692722e+00 1.1872579418e-02 1.9135504051e+00 -3.3143665245e+00 1.9135504051e+00 3.3143665245e+00 
15400 5.4104539069e+00 1.1699059236e-02 1.9132401897e+00 -3.3138292156e+00 1.9132401897e+00 3.3138292156e+00 
15500 5.4104388888e+00 1.1528639328e-02 1.9129344584e+00 -3.3132996735e+00 1.9129344584e+00 3.3132996735e+00 
15600 5.4104242051e+00 1.1361220405e-02 1.9126331324e+00 -3.3127777616e+00 1.9126331324e+00 3.3127777616e+00 
15700 5.4104098436e+00 1.1196705338e-02 1.9123361354e+00 -3.3122633477e+00 1.9123361354e+00 3.3122633477e+00 
15800 5.4103957931e+00 1.1034999244e-02 1.9120433935e+00 -3.3117563038e+00 1.9120433935e+00 3.3117563038e+00 
15900 5.4103820429e+00 1.0876009566e-02 1.9117548351e+00 -3.3112565061e+00 1.9117548351e+00 3.3112565061e+00 
16000 5.4103685829e+00 1.0719646134e-02 1.9114703912e+00 -3.3107638348e+00 1.9114703912e+00 3.3107638348e+00 
16100 5.4103554039e+00 1.0565821232e-02 1.9111899949e+00 -3.3102781742e+00 1.9111899949e+00 3.3102781742e+00 
16200 5.4103424970e+00 1.0414449641e-02 1.9109135816e+00 -3.3097994123e+00 1.9109135816e+00 3.3097994123e+00 
16300 5.4103298543e+00 1.0265448681e-02 1.9106410889e+00 -3.3093274410e+00 1.9106410889e+00 3.3093274410e+00 
16400 5.4103174680e+00 1.0118738246e-02 1.9103724563e+00 -3.3088621558e+00 1.9103724563e+00 3.3088621558e+00 
16500 5.4103053313e+00 9.9742408275e-03 1.9101076257e+00 -3.3084034556e+00 1.9101076257e+00 3.3084034556e+00 
16600 5.4102934376e+00 9.8318815303e-03 1.9098465405e+00 -3.3079512429e+00 1.9098465405e+00 3.3079512429e+00 
16700 5.4102817809e+00 9.6915880854e-03 1.9095891465e+00 -3.3075054234e+00 1.9095891465e+00 3.3075054234e+00 
16800 5.4102703556e+00 9.5532908527e-03 1.9093353911e+00 -3.3070659061e+00 1.9093353911e+00 3.3070659061e+00 
16900 5.4102591565e+00 9.4169228184e-03 1.9090852234e+00 -3.3066326028e+00 1.9090852234e+00 3.3066326028e+00 
17000 5.4102481789e+00 9.2824195863e-03 1.9088385942e+00 -3.3062054287e+00 1.9088385942e+00 3.3062054287e+00 
17100 5.4102374183e+00 9.1497193635e-03 1.9085954563e+00 -3.3057843014e+00 1.9085954563e+00 3.3057843014e+00 
17200 5.4102268705e+00 9.0187629409e-03 1.9083557636e+00 -3.3053691414e+00 1.9083557636e+00 3.3053691414e+00 
17300 5.4102165319e+00 8.8894936681e-03 1.9081194718e+00 -3.3049598720e+00 1.9081194718e+00 3.3049598720e+00 
17400 5.4102063987e+00 8.7618574248e-03 1.9078865379e+00 -3.3045564187e+00 1.9078865379e+00 3.3045564187e+00 
17500 5.4101964677e+00 8.6358025865e-03 1.9076569204e+00 -3.3041587096e+00 1.9076569204e+00 3.3041587096e+00 
17600 5.4101867357e+00 8.5112799869e-03 1.9074305791e+00 -3.3037666749e+00 1.9074305791e+00 3.3037666749e+00 
17700 5.4101771997e+00 8.3882428765e-03 1.9072074750e+00 -3.3033802472e+00 1.9072074750e+00 3.3033802472e+00 
17800 5.4101678568e+00 8.2666468776e-03 1.9069875701e+00 -3.3029993609e+00 1.9069875701e+00 3.3029993609e+00 
17900 5.4101587045e+00 8.1464499360e-03 1.9067708280e+00 -3.3026239525e+00 1.9067708280e+00 3.3026239525e+00 
18000 5.4101497401e+00 8.0276122699e-03 1.9065572130e+00 -3.3022539605e+00 1.9065572130e+00 3.3022539605e+00 
18100 5.4101409611e+00 7.9100963163e-03 1.9063466905e+00 -3.3018893248e+00 1.9063466905e+00 3.3018893248e+00 
18200 5.4101323651e+00 7.7938666750e-03 1.9061392268e+00 -3.3015299872e+00 1.9061392268e+00 3.3015299872e+00 
18300 5.4101239496e+00 7.6788900498e-03 1.9059347893e+00 -3.3011758910e+00 1.9059347893e+00 3.3011758910e+00 
18400 5.4101157123e+00 7.5651351891e-03 1.9057333461e+00 -3.3008269811e+00 1.9057333461e+00 3.3008269811e+00 
18500 5.4101076508e+00 7.4525728232e-03 1.9055348659e+00 -3.3004832034e+00 1.9055348659e+00 3.3004832034e+00 
18600 5.4100997629e+00 7.3411756018e-03 1.9053393186e+00 -3.3001445055e+00 1.9053393186e+00 3.3001445055e+00 
18700 5.4100920461e+00 7.2309180291e-03 1.9051466744e+00 -3.2998108359e+00 1.9051466744e+00 3.2998108359e+00 
18800 5.4100844981e+00 7.1217763981e-03 1.9049569043e+00 -3.2994821444e+00 1.9049569043e+00 3.2994821444e+00 
18900 5.4100771166e+00 7.0137287247e-03 1.9047699798e+00 -3.2991583818e+00 1.9047699798e+00 3.2991583818e+00 
19000 5.4100698991e+00 6.9067546804e-03 1.9045858732e+00 -3.2988394998e+00 1.9045858732e+00 3.2988394998e+00 
19100 5.4100628433e+00 6.8008355247e-03 1.9044045570e+00 -3.2985254509e+00 1.9044045570e+00 3.2985254509e+00 
19200 5.4100559466e+00 6.6959540380e-03 1.9042260044e+00 -3.2982161887e+00 1.9042260044e+00 3.2982161887e+00 
19300 5.4100492066e+00 6.5920944531e-03 1.9040501888e+00 -3.2979116672e+00 1.9040501888e+00 3.2979116672e+00 
19400 5.4100426206e+00 6.4892423880e-03 1.9038770843e+00 -3.2976118413e+00 1.9038770843e+00 3.2976118413e+00 
19500 5.4100361862e+00 6.3873847778e-03 1.9037066650e+00 -3.2973166666e+00 1.9037066650e+00 3.2973166666e+00 
19600 5.4100299007e+00 6.2865098078e-03 1.9035389057e+00 -3.2970260989e+00 1.9035389057e+00 3.2970260989e+00 
19700 5.4100237614e+00 6.1866068471e-03 1.9033737812e+00 -3.2967400948e+00 1.9033737812e+00 3.2967400948e+00 
19800 5.4100177656e+00 6.0876663817e-03 1.9032112666e+00 -3.2964586114e+00 1.9032112666e+00 3.2964586114e+00 
19900 5.4100119107e+00 5.9896799498e-03 1.9030513374e+00 -3.2961816059e+00 1.9030513374e+00 3.2961816059e+00 
20000 5.4100061939e+00 5.8926400772e-03 1.9028939692e+00 -3.2959090361e+00 1.9028939692e+00 3.2959090361e+00 
20100 5.4100006123e+00 5.7965402132e-03 1.9027391377e+00 -3.2956408600e+00 1.9027391377e+00 3.2956408600e+00 
20200 5.4099951631e+00 5.7013746690e-03 1.9025868187e+00 -3.2953770359e+00 1.9025868187e+00 3.2953770359e+00 
20300 5.4099898436e+00 5.6071385557e-03 1.9024369885e+00 -3.2951175223e+00 1.9024369885e+00 3.2951175223e+00 
20400 5.4099846509e+00 5.5138277243e-03 1.9022896232e+00 -3.2948622780e+00 1.9022896232e+00 3.2948622780e+00 
20500 5.4099795821e+00 5.4214387073e-03 1.9021446989e+00 -3.2946112619e+00 1.9021446989e+00 3.2946112619e+00 
20600 5.4099746344e+00 5.3299686611e-03 1.9020021921e+00 -3.2943644329e+00 1.9020021921e+00 3.2943644329e+00 
20700 5.4099698050e+00 5.2394153098e-03 1.9018620792e+00 -3.2941217501e+00 1.9018620792e+00 3.2941217501e+00 
20800 5.4099650909e+00 5.1497768916e-03 1.9017243365e+00 -3.2938831728e+00 1.9017243365e+00 3.2938831728e+00 
20900 5.4099604893e+00 5.0610521053e-03 1.9015889405e+00 -3.2936486601e+00 1.9015889405e+00 3.2936486601e+00 
21000 5.4099559975e+00 4.9732400596e-03 1.9014558678e+00 -3.2934181713e+00 1.9014558678e+00 3.2934181713e+00 
21100 5.4099516126e+00 4.8863402236e-03 1.9013250947e+00 -3.2931916658e+00 1.9013250947e+00 3.2931916658e+00 
21200 5.4099473319e+00 4.8003523788e-03 1.9011965979e+00 -3.2929691028e+00 1.9011965979e+00 3.2929691028e+00 
21300 5.4099431526e+00 4.7152765734e-03 1.9010703537e+00 -3.2927504415e+00 1.9010703537e+00 3.2927504415e+00 
21400 5.4099390719e+00 4.6311130782e-03 1.9009463387e+00 -3.2925356412e+00 1.9009463387e+00 3.2925356412e+00 
21500 5.4099350873e+00 4.5478623436e-03 1.9008245293e+00 -3.2923246610e+00 1.9008245293e+00 3.2923246610e+00 
21600 5.4099311960e+00 4.4655249599e-03 1.9007049019e+00 -3.2921174603e+00 1.9007049019e+00 3.2921174603e+00 
21700 5.4099273956e+00 4.3841016180e-03 1.9005874329e+00 -3.2919139980e+00 1.9005874329e+00 3.2919139980e+00 
21800 5.4099236834e+00 4.3035930724e-03 1.9004720986e+00 -3.2917142331e+00 1.9004720986e+00 3.2917142331e+00 
21900 5.4099200570e+00 4.2240001066e-03 1.9003588754e+00 -3.2915181248e+00 1.9003588754e+00 3.2915181248e+00 
22000 5.4099165139e+00 4.1453234996e-03 1.9002477396e+00 -3.2913256319e+00 1.9002477396e+00 3.2913256319e+00 
22100 5.4099130517e+00 4.0675639947e-03 1.9001386674e+00 -3.2911367133e+00 1.9001386674e+00 3.2911367133e+00 
22200 5.4099096681e+00 3.9907222698e-03 1.9000316350e+00 -3.2909513279e+00 1.9000316350e+00 3.2909513279e+00 
22300 5.4099063610e+00 3.9147989095e-03 1.8999266188e+00 -3.2907694343e+00 1.8999266188e+00 3.2907694343e+00 
22400 5.4099031279e+00 3.8397943798e-03 1.8998235947e+00 -3.2905909914e+00 1.8998235947e+00 3.2905909914e+00 
22500 5.4098999669e+00 3.7657090034e-03 1.8997225390e+00 -3.2904159578e+00 1.8997225390e+00 3.2904159578e+00 
22600 5.4098968757e+00 3.6925429375e-03 1.8996234278e+00 -3.2902442921e+00 1.8996234278e+00 3.2902442921e+00 
22700 5.4098938525e+00 3.6202961530e-03 1.8995262371e+00 -3.2900759530e+00 1.8995262371e+00 3.2900759530e+00 
22800 5.4098908952e+00 3.5489684159e-03 1.8994309432e+00 -3.2899108991e+00 1.8994309432e+00 3.2899108991e+00 
22900 5.4098880019e+00 3.4785592697e-03 1.8993375221e+00 -3.2897490890e+00 1.8993375221e+00 3.2897490890e+00 
23000 5.4098851709e+00 3.4090680198e-03 1.8992459499e+00 -3.2895904813e+00 1.8992459499e+00 3.2895904813e+00 
23100 5.4098824002e+00 3.3404937194e-03 1.8991562027e+00 -3.2894350345e+00 1.8991562027e+00 3.2894350345e+00 
23200 5.4098796883e+00 3.2728351571e-03 1.8990682565e+00 -3.2892827074e+00 1.8990682565e+00 3.2892827074e+00 
23300 5.4098770334e+00 3.2060908461e-03 1.8989820877e+00 -3.2891334586e+00 1.8989820877e+00 3.2891334586e+00 
23400 5.4098744340e+00 3.1402590141e-03 1.8988976723e+00 -3.2889872468e+00 1.8988976723e+00 3.2889872468e+00 
23500 5.4098718886e+00 3.0753375957e-03 1.8988149865e+00 -3.2888440308e+00 1.8988149865e+00 3.2888440308e+00 
23600 5.4098693955e+00 3.0113242256e-03 1.8987340067e+00 -3.2887037696e+00 1.8987340067e+00 3.2887037696e+00 
23700 5.4098669535e+00 2.9482162331e-03 1.8986547090e+00 -3.2885664220e+00 1.8986547090e+00 3.2885664220e+00 
23800 5.4098645611e+00 2.8860106382e-03 1.8985770699e+00 -3.2884319472e+00 1.8985770699e+00 3.2884319472e+00 
23900 5.4098622171e+00 2.8247041483e-03 1.8985010659e+00 -3.2883003043e+00 1.8985010659e+00 3.2883003043e+00 
24000 5.4098599200e+00 2.7642931571e-03 1.8984266733e+00 -3.2881714526e+00 1.8984266733e+00 3.2881714526e+00 
24100 5.4098576689e+00 2.7047737438e-03 1.8983538689e+00 -3.2880453518e+00 1.8983538689e+00 3.2880453518e+00 
24200 5.4098554623e+00 2.6461416734e-03 1.8982826294e+00 -3.2879219613e+00 1.8982826294e+00 3.2879219613e+00 
24300 5.4098532993e+00 2.5883923985e-03 1.8982129315e+00 -3.2878012410e+00 1.8982129315e+00 3.2878012410e+00 
24400 5.4098511787e+00 2.5315210619e-03 1.8981447522e+00 -3.2876831510e+00 1.8981447522e+00 3.2876831510e+00 
24500 5.4098490995e+00 2.4755224999e-03 1.8980780685e+00 -3.2875676514e+00 1.8980780685e+00 3.2875676514e+00 
24600 5.4098470606e+00 2.4203912467e-03 1.8980128576e+00 -3.2874547028e+00 1.8980128576e+00 3.2874547028e+00 
24700 5.4098450612e+00 2.3661215395e-03 1.8979490968e+00 -3.2873442658e+00 1.8979490968e+00 3.2873442658e+00 
24800 5.4098431002e+00 2.3127073243e-03 1.8978867635e+00 -3.2872363014e+00 1.8978867635e+00 3.2872363014e+00 
24900 5.4098411767e+00 2.2601422628e-03 1.8978258353e+00 -3.2871307707e+00 1.8978258353e+00 3.2871307707e+00 
25000 5.4098392900e+00 2.2084197396e-03 1.8977662901e+00 -3.2870276353e+00 1.8977662901e+00 3.2870276353e+00 
25100 5.4098374391e+00 2.1575328697e-03 1.8977081056e+00 -3.2869268569e+00 1.8977081056e+00 3.2869268569e+00 
25200 5.4098356232e+00 2.1074745077e-03 1.8976512602e+00 -3.2868283977e+00 1.8976512602e+00 3.2868283977e+00 
25300 5.4098338416e+00 2.0582372561e-03 1.8975957320e+00 -3.2867322200e+00 1.8975957320e+00 3.2867322200e+00 
25400 5.4098320935e+00 2.0098134750e-03 1.8975414994e+00 -3.2866382865e+00 1.8975414994e+00 3.2866382865e+00 
25500 5.4098303782e+00 1.9621952921e-03 1.8974885413e+00 -3.2865465604e+00 1.8974885413e+00 3.2865465604e+00 
25600 5.4098286950e+00 1.9153746127e-03 1.8974368365e+00 -3.2864570050e+00 1.8974368365e+00 3.2864570050e+00 
25700 5.4098270431e+00 1.8693431306e-03 1.8973863640e+00 -3.2863695841e+00 1.8973863640e+00 3.2863695841e+00 
25800 5.4098254220e+00 1.8240923383e-03 1.8973371033e+00 -3.2862842619e+00 1.8973371033e+00 3.2862842619e+00 
25900 5.4098238309e+00 1.7796135389e-03 1.8972890337e+00 -3.2862010029e+00 1.8972890337e+00 3.2862010029e+00 
26000 5.4098222693e+00 1.7358978568e-03 1.8972421350e+00 -3.2861197721e+00 1.8972421350e+00 3.2861197721e+00 
26100 5.4098207365e+00 1.6929362494e-03 1.8971963873e+00 -3.2860405347e+00 1.8971963873e+00 3.2860405347e+00 
26200 5.4098192320e+00 1.6507195188e-03 1.8971517706e+00 -3.2859632564e+00 1.8971517706e+00 3.2859632564e+00 
26300 5.4098177552e+00 1.6092383231e-03 1.8971082656e+00 -3.2858879035e+00 1.8971082656e+00 3.2858879035e+00 
26400 5.4098163054e+00 1.5684831886e-03 1.8970658528e+00 -3.2858144424e+00 1.8970658528e+00 3.2858144424e+00 
26500 5.4098148823e+00 1.5284445211e-03 1.8970245133e+00 -3.2857428402e+00 1.8970245133e+00 3.2857428402e+00 
26600 5.4098134852e+00 1.4891126180e-03 1.8969842281e+00 -3.2856730642e+00 1.8969842281e+00 3.2856730642e+00 
26700 5.4098121136e+00 1.4504776796e-03 1.8969449788e+00 -3.2856050824e+00 1.8969449788e+00 3.2856050824e+00 
26800 5.4098107670e+00 1.4125298212e-03 1.8969067470e+00 -3.2855388629e+00 1.8969067470e+00 3.2855388629e+00 
26900 5.4098094449e+00 1.3752590842e-03 1.8968695146e+00 -3.2854743747e+00 1.8968695146e+00 3.2854743747e+00 
27000 5.4098081469e+00 1.3386554477e-03 1.8968332640e+00 -3.2854115867e+00 1.8968332640e+00 3.2854115867e+00 
27100 5.4098068724e+00 1.3027088397e-03 1.8967979775e+00 -3.2853504687e+00 1.8967979775e+00 3.2853504687e+00 
27200 5.4098056210e+00 1.2674091482e-03 1.8967636379e+00 -3.2852909908e+00 1.8967636379e+00 3.2852909908e+00 
27300 5.4098043922e+00 1.2327462319e-03 1.8967302282e+00 -3.2852331236e+00 1.8967302282e+00 3.2852331236e+00 
27400 5.4098031857e+00 1.1987099310e-03 1.8966977317e+00 -3.2851768379e+00 1.8966977317e+00 3.2851768379e+00 
27500 5.4098020009e+00 1.1652900777e-03 1.8966661319e+00 -3.2851221054e+00 1.8966661319e+00 3.2851221054e+00 
27600 5.4098008374e+00 1.1324765063e-03 1.8966354125e+00 -3.2850688980e+00 1.8966354125e+00 3.2850688980e+00 
27700 5.4097996948e+00 1.1002590628e-03 1.8966055577e+00 -3.2850171879e+00 1.8966055577e+00 3.2850171879e+00 
27800 5.4097985727e+00 1.0686276150e-03 1.8965765518e+00 -3.2849669482e+00 1.8965765518e+00 3.2849669482e+00 
27900 5.4097974707e+00 1.0375720616e-03 1.8965483793e+00 -3.2849181520e+00 1.8965483793e+00 3.2849181520e+00 
28000 5.4097963885e+00 1.0070823412e-03 1.8965210252e+00 -3.2848707732e+00 1.8965210252e+00 3.2848707732e+00 
28100 5.4097953255e+00 9.7714844100e-04 1.8964944745e+00 -3.2848247860e+00 1.8964944745e+00 3.2848247860e+00 
28200 5.4097942815e+00 9.4776040512e-04 1.8964687126e+00 -3.2847801651e+00 1.8964687126e+00 3.2847801651e+00 
28300 5.4097932560e+00 9.1890834282e-04 1.8964437251e+00 -3.2847368856e+00 1.8964437251e+00 3.2847368856e+00 
28400 5.4097922487e+00 8.9058243610e-04 1.8964194980e+00 -3.2846949230e+00 1.8964194980e+00 3.2846949230e+00 
28500 5.4097912593e+00 8.6277294700e-04 1.8963960174e+00 -3.2846542535e+00 1.8963960174e+00 3.2846542535e+00 
28600 5.4097902873e+00 8.3547022469e-04 1.8963732698e+00 -3.2846148534e+00 1.8963732698e+00 3.2846148534e+00 
28700 5.4097893325e+00 8.0866471207e-04 1.8963512417e+00 -3.2845766996e+00 1.8963512417e+00 3.2845766996e+00 
28800 5.4097883945e+00 7.8234695211e-04 1.8963299202e+00 -3.2845397696e+00 1.8963299202e+00 3.2845397696e+00 
28900 5.4097874730e+00 7.5650759374e-04 1.8963092923e+00 -3.2845040411e+00 1.8963092923e+00 3.2845040411e+00 
29000 5.4097865676e+00 7.3113739747e-04 1.8962893455e+00 -3.2844694922e+00 1.8962893455e+00 3.2844694922e+00 
29100 5.4097856780e+00 7.0622724061e-04 1.8962700674e+00 -3.2844361016e+00 1.8962700674e+00 3.2844361016e+00 
29200 5.4097848040e+00 6.8176812212e-04 1.8962514459e+00 -3.2844038483e+00 1.8962514459e+00 3.2844038483e+00 
29300 5.4097839451e+00 6.5775116715e-04 1.8962334692e+00 -3.2843727117e+00 1.8962334692e+00 3.2843727117e+00 
29400 5.4097831012e+00 6.3416763120e-04 1.8962161256e+00 -3.2843426717e+00 1.8962161256e+00 3.2843426717e+00 
29500 5.4097822719e+00 6.1100890394e-04 1.8961994037e+00 -3.2843137086e+00 1.8961994037e+00 3.2843137086e+00 
29600 5.4097814569e+00 5.8826651272e-04 1.8961832923e+00 -3.2842858028e+00 1.8961832923e+00 3.2842858028e+00 
29700 5.4097806559e+00 5.6593212566e-04 1.8961677805e+00 -3.2842589355e+00 1.8961677805e+00 3.2842589355e+00 
29800 5.4097798687e+00 5.4399755452e-04 1.8961528575e+00 -3.2842330881e+00 1.8961528575e+00 3.2842330881e+00 
29900 5.4097790950e+00 5.2245475717e-04 1.8961385127e+00 -3.2842082422e+00 1.8961385127e+00 3.2842082422e+00 
30000 5.4097783346e+00 5.0129583974e-04 1.8961247359e+00 -3.2841843801e+00 1.8961247359e+00 3.2841843801e+00 
30100 5.4097775871e+00 4.8051305851e-04 1.8961115170e+00 -3.2841614843e+00 1.8961115170e+00 3.2841614843e+00 
30200 5.4097768523e+00 4.6009882149e-04 1.8960988460e+00 -3.2841395374e+00 1.8960988460e+00 3.2841395374e+00 
30300 5.4097761300e+00 4.4004568964e-04 1.8960867132e+00 -3.2841185229e+00 1.8960867132e+00 3.2841185229e+00 
30400 5.4097754199e+00 4.2034637786e-04 1.8960751092e+00 -3.2840984241e+00 1.8960751092e+00 3.2840984241e+00 
30500 5.4097747217e+00 4.0099375575e-04 1.8960640246e+00 -3.2840792249e+00 1.8960640246e+00 3.2840792249e+00 
30600 5.4097740353e+00 3.8198084794e-04 1.8960534502e+00 -3.2840609096e+00 1.8960534502e+00 3.2840609096e+00 
30700 5.4097733604e+00 3.6330083439e-04 1.8960433772e+00 -3.2840434626e+00 1.8960433772e+00 3.2840434626e+00 
30800 5.4097726969e+00 3.4494705021e-04 1.8960337967e+00 -3.2840268687e+00 1.8960337967e+00 3.2840268687e+00 
30900 5.4097720443e+00 3.2691298541e-04 1.8960247001e+00 -3.2840111130e+00 1.8960247001e+00 3.2840111130e+00 
31000 5.4097714026e+00 3.0919228434e-04 1.8960160791e+00 -3.2839961810e+00 1.8960160791e+00 3.2839961810e+00 
31100 5.4097707716e+00 2.9177874493e-04 1.8960079254e+00 -3.2839820583e+00 1.8960079254e+00 3.2839820583e+00 
31200 5.4097701510e+00 2.7466631772e-04 1.8960002308e+00 -3.2839687310e+00 1.8960002308e+00 3.2839687310e+00 
31300 5.4097695406e+00 2.5784910468e-04 1.8959929875e+00 -3.2839561852e+00 1.8959929875e+00 3.2839561852e+00 
31400 5.4097689402e+00 2.4132135787e-04 1.8959861877e+00 -3.2839444076e+00 1.8959861877e+00 3.2839444076e+00 
31500 5.4097683497e+00 2.2507747790e-04 1.8959798237e+00 -3.2839333848e+00 1.8959798237e+00 3.2839333848e+00 
31600 5.4097677688e+00 2.0911201219e-04 1.8959738881e+00 -3.2839231039e+00 1.8959738881e+00 3.2839231039e+00 
31700 5.4097671974e+00 1.9341965315e-04 1.8959683734e+00 -3.2839135523e+00 1.8959683734e+00 3.2839135523e+00 
31800 5.4097666353e+00 1.7799523613e-04 1.8959632726e+00 -3.2839047174e+00 1.8959632726e+00 3.2839047174e+00 
31900 5.4097660822e+00 1.6283373729e-04 1.8959585786e+00 -3.2838965871e+00 1.8959585786e+00 3.2838965871e+00 
32000 5.4097655381e+00 1.4793027130e-04 1.8959542843e+00 -3.2838891493e+00 1.8959542843e+00 3.2838891493e+00 
32100 5.4097650027e+00 1.3328008895e-04 1.8959503831e+00 -3.2838823922e+00 1.8959503831e+00 3.2838823922e+00 
32200 5.4097644759e+00 1.1887857465e-04 1.8959468683e+00 -3.2838763043e+00 1.8959468683e+00 3.2838763043e+00 
32300 5.4097639575e+00 1.0472124379e-04 1.8959437332e+00 -3.2838708742e+00 1.8959437332e+00 3.2838708742e+00 
32400 5.4097634473e+00 9.0803740059e-05 1.8959409715e+00 -3.2838660907e+00 1.8959409715e+00 3.2838660907e+00 
32500 5.4097629453e+00 7.7121832675e-05 1.8959385768e+00 -3.2838619430e+00 1.8959385768e+00 3.2838619430e+00 
32600 5.4097624512e+00 6.3671413502e-05 1.8959365429e+00 -3.2838584202e+00 1.8959365429e+00 3.2838584202e+00 
32700 5.4097619649e+00 5.1009770578e-05 1.8959365429e+00 -3.2838584202e+00 1.8959365429e+00 3.2838584202e+00 
32800 5.4097614862e+00 3.8456934807e-05 1.8959365429e+00 -3.2838584202e+00 1.8959365429e+00 3.2838584202e+00 
32900 5.4097610150e+00 2.6010695338e-05 1.8959365429e+00 -3.2838584202e+00 1.8959365429e+00 3.2838584202e+00 
33000 5.4097605511e+00 1.3668944044e-05 1.8959365429e+00 -3.2838584202e+00 1.8959365429e+00 3.2838584202e+00 
33100 5.4097600943e+00 1.4296706132e-06 1.8959365429e+00 -3.2838584202e+00 1.8959365429e+00 3.2838584202e+00 
33200 5.4097596447e+00 -1.0709042066e-05 1.8959365429e+00 -3.2838584202e+00 1.8959365429e+00 3.2838584202e+00 
33300 5.4097592020e+00 -2.2749022236e-05 1.8959365429e+00 -3.2838584202e+00 1.8959365429e+00 3.2838584202e+00 
33400 5.4097587661e+00 -3.4692013368e-05 1.8959365429e+00 -3.2838584202e+00 1.8959365429e+00 3.2838584202e+00 
33500 5.4097583370e+00 -4.6539678031e-05 1.8959365429e+00 -3.2838584202e+00 1.8959365429e+00 3.2838584202e+00 
33600 5.4097579145e+00 -5.8293601558e-05 1.8959365429e+00 -3.2838584202e+00 1.8959365429e+00 3.2838584202e+00 
33700 5.4097574985e+00 -6.9955295526e-05 1.8959365429e+00 -3.2838584202e+00 1.8959365429e+00 3.2838584202e+00 
33800 5.4097570889e+00 -8.1526201068e-05 1.8959365429e+00 -3.2838584202e+00 1.8959365429e+00 3.2838584202e+00 
33900 5.4097566853e+00 -9.2288587763e-05 1.8959386929e+00 -3.2838621442e+00 1.8959386929e+00 3.2838621442e+00 
34000 5.4097562879e+00 -1.0286571867e-04 1.8959411268e+00 -3.2838663598e+00 1.8959411268e+00 3.2838663598e+00 
34100 5.4097558964e+00 -1.1326025004e-04 1.8959438396e+00 -3.2838710584e+00 1.8959438396e+00 3.2838710584e+00 
34200 5.4097555107e+00 -1.2347476196e-04 1.8959468265e+00 -3.2838762319e+00 1.8959468265e+00 3.2838762319e+00 
34300 5.4097551308e+00 -1.3351176161e-04 1.8959500828e+00 -3.2838818720e+00 1.8959500828e+00 3.2838818720e+00 
34400 5.4097547566e+00 -1.4337368642e-04 1.8959536037e+00 -3.2838879705e+00 1.8959536037e+00 3.2838879705e+00 
34500 5.4097543878e+00 -1.5306290711e-04 1.8959573848e+00 -3.2838945194e+00 1.8959573848e+00 3.2838945194e+00 
34600 5.4097540246e+00 -1.6258173077e-04 1.8959614213e+00 -3.2839015110e+00 1.8959614213e+00 3.2839015110e+00 
34700 5.4097536666e+00 -1.7193240377e-04 1.8959657089e+00 -3.2839089373e+00 1.8959657089e+00 3.2839089373e+00 
34800 5.4097533139e+00 -1.8111711462e-04 1.8959702431e+00 -3.2839167907e+00 1.8959702431e+00 3.2839167907e+00 
34900 5.4097529664e+00 -1.9013799682e-04 1.8959750195e+00 -3.2839250636e+00 1.8959750195e+00 3.2839250636e+00 
35000 5.4097526238e+00 -1.9899713150e-04 1.8959800337e+00 -3.2839337485e+00 1.8959800337e+00 3.2839337485e+00 
35100 5.4097522863e+00 -2.0769655015e-04 1.8959852816e+00 -3.2839428381e+00 1.8959852816e+00 3.2839428381e+00 
35200 5.4097519536e+00 -2.1623823711e-04 1.8959907589e+00 -3.2839523250e+00 1.8959907589e+00 3.2839523250e+00 
35300 5.4097516257e+00 -2.2462413210e-04 1.8959964614e+00 -3.2839622021e+00 1.8959964614e+00 3.2839622021e+00 
35400 5.4097513025e+00 -2.3285613262e-04 1.8960023850e+00 -3.2839724622e+00 1.8960023850e+00 3.2839724622e+00 
35500 5.4097509839e+00 -2.4093609624e-04 1.8960085258e+00 -3.2839830982e+00 1.8960085258e+00 3.2839830982e+00 
35600 5.4097506698e+00 -2.4886584287e-04 1.8960148795e+00 -3.2839941032e+00 1.8960148795e+00 3.2839941032e+00 
35700 5.4097503602e+00 -2.5664715691e-04 1.8960214424e+00 -3.2840054705e+00 1.8960214424e+00 3.2840054705e+00 
35800 5.4097500550e+00 -2.6428178932e-04 1.8960282104e+00 -3.2840171931e+00 1.8960282104e+00 3.2840171931e+00 
35900 5.4097497540e+00 -2.7177145962e-04 1.8960351798e+00 -3.2840292644e+00 1.8960351798e+00 3.2840292644e+00 
36000 5.4097494573e+00 -2.7911785782e-04 1.8960423466e+00 -3.2840416777e+00 1.8960423466e+00 3.2840416777e+00 
36100 5.4097491647e+00 -2.8632264621e-04 1.8960497072e+00 -3.2840544265e+00 1.8960497072e+00 3.2840544265e+00 
36200 5.4097488762e+00 -2.9338746114e-04 1.8960572577e+00 -3.2840675044e+00 1.8960572577e+00 3.2840675044e+00 
36300 5.4097485917e+00 -3.0031391469e-04 1.8960649945e+00 -3.2840809049e+00 1.8960649945e+00 3.2840809049e+00 
36400 5.4097483112e+00 -3.0710359623e-04 1.8960729139e+00 -3.2840946217e+00 1.8960729139e+00 3.2840946217e+00 
36500 5.4097480345e+00 -3.1375807396e-04 1.8960810123e+00 -3.2841086486e+00 1.8960810123e+00 3.2841086486e+00 
36600 5.4097477616e+00 -3.2027889635e-04 1.8960892862e+00 -3.2841229793e+00 1.8960892862e+00 3.2841229793e+00 
36700 5.4097474924e+00 -3.2666759343e-04 1.8960977319e+00 -3.2841376078e+00 1.8960977319e+00 3.2841376078e+00 
36800 5.4097472269e+00 -3.3292567817e-04 1.8961063462e+00 -3.2841525281e+00 1.8961063462e+00 3.2841525281e+00 
36900 5.4097469650e+00 -3.3905464759e-04 1.8961151254e+00 -3.2841677341e+00 1.8961151254e+00 3.2841677341e+00 
37000 5.4097467067e+00 -3.4505598395e-04 1.8961240661e+00 -3.2841832200e+00 1.8961240661e+00 3.2841832200e+00 
37100 5.4097464519e+00 -3.5093115578e-04 1.8961331651e+00 -3.2841989799e+00 1.8961331651e+00 3.2841989799e+00 
37200 5.4097462005e+00 -3.5668161888e-04 1.8961424190e+00 -3.2842150081e+00 1.8961424190e+00 3.2842150081e+00 
37300 5.4097459525e+00 -3.6230881727e-04 1.8961518245e+00 -3.2842312988e+00 1.8961518245e+00 3.2842312988e+00 
37400 5.4097457078e+00 -3.6781418397e-04 1.8961613783e+00 -3.2842478465e+00 1.8961613783e+00 3.2842478465e+00 
37500 5.4097454663e+00 -3.7319914188e-04 1.8961710772e+00 -3.2842646455e+00 1.8961710772e+00 3.2842646455e+00 
37600 5.4097452281e+00 -3.7846510443e-04 1.8961809181e+00 -3.2842816904e+00 1.8961809181e+00 3.2842816904e+00 
37700 5.4097449931e+00 -3.8361347630e-04 1.8961908977e+00 -3.2842989757e+00 1.8961908977e+00 3.2842989757e+00 
37800 5.4097447611e+00 -3.8864565398e-04 1.8962010131e+00 -3.2843164961e+00 1.8962010131e+00 3.2843164961e+00 
37900 5.4097445323e+00 -3.9356302637e-04 1.8962112611e+00 -3.2843342462e+00 1.8962112611e+00 3.2843342462e+00 
38000 5.4097443064e+00 -3.9836697522e-04 1.8962216388e+00 -3.2843522207e+00 1.8962216388e+00 3.2843522207e+00 
38100 5.4097440835e+00 -4.0305887560e-04 1.8962321430e+00 -3.2843704146e+00 1.8962321430e+00 3.2843704146e+00 
38200 5.4097438635e+00 -4.0764009628e-04 1.8962427709e+00 -3.2843888227e+00 1.8962427709e+00 3.2843888227e+00 
38300 5.4097436464e+00 -4.1211200009e-04 1.8962535195e+00 -3.2844074399e+00 1.8962535195e+00 3.2844074399e+00 
38400 5.4097434322e+00 -4.1647594417e-04 1.8962643860e+00 -3.2844262612e+00 1.8962643860e+00 3.2844262612e+00 
38500 5.4097432207e+00 -4.2073328025e-04 1.8962753675e+00 -3.2844452817e+00 1.8962753675e+00 3.2844452817e+00 
38600 5.4097430119e+00 -4.2488535483e-04 1.8962864612e+00 -3.2844644965e+00 1.8962864612e+00 3.2844644965e+00 
38700 5.4097428059e+00 -4.2893350937e-04 1.8962976643e+00 -3.2844839008e+00 1.8962976643e+00 3.2844839008e+00 
38800 5.4097426025e+00 -4.3287908040e-04 1.8963089741e+00 -3.2845034899e+00 1.8963089741e+00 3.2845034899e+00 
38900 5.4097424017e+00 -4.3672339959e-04 1.8963203878e+00 -3.2845232591e+00 1.8963203878e+00 3.2845232591e+00 
39000 5.4097422035e+00 -4.4046779384e-04 1.8963319028e+00 -3.2845432037e+00 1.8963319028e+00 3.2845432037e+00 
39100 5.4097420079e+00 -4.4411358526e-04 1.8963435165e+00 -3.2845633192e+00 1.8963435165e+00 3.2845633192e+00 
39200 5.4097418147e+00 -4.4766209119e-04 1.8963552263e+00 -3.2845836011e+00 1.8963552263e+00 3.2845836011e+00 
39300 5.4097416240e+00 -4.5111462414e-04 1.8963670295e+00 -3.2846040449e+00 1.8963670295e+00 3.2846040449e+00 
39400 5.4097414358e+00 -4.5447249173e-04 1.8963789237e+00 -3.2846246463e+00 1.8963789237e+00 3.2846246463e+00 
39500 5.4097412499e+00 -4.5773699660e-04 1.8963909064e+00 -3.2846454008e+00 1.8963909064e+00 3.2846454008e+00 
39600 5.4097410663e+00 -4.6090943630e-04 1.8964029750e+00 -3.2846663043e+00 1.8964029750e+00 3.2846663043e+00 
39700 5.4097408851e+00 -4.6399110314e-04 1.8964151272e+00 -3.2846873526e+00 1.8964151272e+00 3.2846873526e+00 
39800 5.4097407062e+00 -4.6698328405e-04 1.8964273606e+00 -3.2847085414e+00 1.8964273606e+00 3.2847085414e+00 
39900 5.4097405296e+00 -4.6988726040e-04 1.8964396728e+00 -3.2847298668e+00 1.8964396728e+00 3.2847298668e+00 
40000 5.4097403551e+00 -4.7270430780e-04 1.8964520615e+00 -3.2847513246e+00 1.8964520615e+00 3.2847513246e+00 
40100 5.4097401828e+00 -4.7543569594e-04 1.8964645244e+00 -3.2847729110e+00 1.8964645244e+00 3.2847729110e+00 
40200 5.4097400127e+00 -4.7808268830e-04 1.8964770592e+00 -3.2847946219e+00 1.8964770592e+00 3.2847946219e+00 
40300 5.4097398447e+00 -4.8064654202e-04 1.8964896637e+00 -3.2848164535e+00 1.8964896637e+00 3.2848164535e+00 
40400 5.4097396788e+00 -4.8312850757e-04 1.8965023357e+00 -3.2848384021e+00 1.8965023357e+00 3.2848384021e+00 
40500 5.4097395150e+00 -4.8552982857e-04 1.8965150731e+00 -3.2848604639e+00 1.8965150731e+00 3.2848604639e+00 
40600 5.4097393532e+00 -4.8785174151e-04 1.8965278737e+00 -3.2848826352e+00 1.8965278737e+00 3.2848826352e+00 
40700 5.4097391934e+00 -4.9009547550e-04 1.8965407354e+00 -3.2849049123e+00 1.8965407354e+00 3.2849049123e+00 
40800 5.4097390356e+00 -4.9226225203e-04 1.8965536562e+00 -3.2849272918e+00 1.8965536562e+00 3.2849272918e+00 
40900 5.4097388797e+00 -4.9435328467e-04 1.8965666340e+00 -3.2849497700e+00 1.8965666340e+00 3.2849497700e+00 
41000 5.4097387258e+00 -4.9636977883e-04 1.8965796669e+00 -3.2849723436e+00 1.8965796669e+00 3.2849723436e+00 
41100 5.4097385737e+00 -4.9831293150e-04 1.8965927528e+00 -3.2849950091e+00 1.8965927528e+00 3.2849950091e+00 
41200 5.4097384236e+00 -5.0018393096e-04 1.8966058899e+00 -3.2850177632e+00 1.8966058899e+00 3.2850177632e+00 
41300 5.4097382752e+00 -5.0198395656e-04 1.8966190762e+00 -3.2850406025e+00 1.8966190762e+00 3.2850406025e+00 
41400 5.4097381287e+00 -5.0371417842e-04 1.8966323098e+00 -3.2850635239e+00 1.8966323098e+00 3.2850635239e+00 
41500 5.4097379839e+00 -5.0537575719e-04 1.8966455890e+00 -3.2850865241e+00 1.8966455890e+00 3.2850865241e+00 
41600 5.4097378409e+00 -5.0696984380e-04 1.8966589119e+00 -3.2851096001e+00 1.8966589119e+00 3.2851096001e+00 
41700 5.4097376997e+00 -5.0849757921e-04 1.8966722768e+00 -3.2851327487e+00 1.8966722768e+00 3.2851327487e+00 
41800 5.4097375602e+00 -5.0996009417e-04 1.8966856818e+00 -3.2851559668e+00 1.8966856818e+00 3.2851559668e+00 
41900 5.4097374224e+00 -5.1135850899e-04 1.8966991252e+00 -3.2851792516e+00 1.8966991252e+00 3.2851792516e+00 
42000 5.4097372862e+00 -5.1269393331e-04 1.8967126055e+00 -3.2852026000e+00 1.8967126055e+00 3.2852026000e+00 
42100 5.4097371517e+00 -5.1396746588e-04 1.8967261208e+00 -3.2852260093e+00 1.8967261208e+00 3.2852260093e+00 
42200 5.4097370188e+00 -5.1518019435e-04 1.8967396696e+00 -3.2852494765e+00 1.8967396696e+00 3.2852494765e+00 
42300 5.4097368875e+00 -5.1633319507e-04 1.8967532503e+00 -3.2852729990e+00 1.8967532503e+00 3.2852729990e+00 
42400 5.4097367578e+00 -5.1742753291e-04 1.8967668613e+00 -3.2852965739e+00 1.8967668613e+00 3.2852965739e+00 
42500 5.4097366297e+00 -5.1846426102e-04 1.8967805011e+00 -3.2853201987e+00 1.8967805011e+00 3.2853201987e+00 
42600 5.4097365030e+00 -5.1944442076e-04 1.8967941680e+00 -3.2853438705e+00 1.8967941680e+00 3.2853438705e+00 
42700 5.4097363779e+00 -5.2036904144e-04 1.8968078607e+00 -3.2853675870e+00 1.8968078607e+00 3.2853675870e+00 
42800 5.4097362544e+00 -5.2123914022e-04 1.8968215777e+00 -3.2853913455e+00 1.8968215777e+00 3.2853913455e+00 
42900 5.4097361322e+00 -5.2205572195e-04 1.8968353176e+00 -3.2854151436e+00 1.8968353176e+00 3.2854151436e+00 
43000 5.4097360116e+00 -5.2281977906e-04 1.8968490788e+00 -3.2854389788e+00 1.8968490788e+00 3.2854389788e+00 
43100 5.4097358923e+00 -5.2353229140e-04 1.8968628601e+00 -3.2854628487e+00 1.8968628601e+00 3.2854628487e+00 
43200 5.4097357745e+00 -5.2419422621e-04 1.8968766601e+00 -3.2854867509e+00 1.8968766601e+00 3.2854867509e+00 
43300 5.4097356581e+00 -5.2480653791e-04 1.8968904774e+00 -3.2855106832e+00 1.8968904774e+00 3.2855106832e+00 
43400 5.4097355431e+00 -5.2537016813e-04 1.8969043107e+00 -3.2855346433e+00 1.8969043107e+00 3.2855346433e+00 
43500 5.4097354294e+00 -5.2588604555e-04 1.8969181588e+00 -3.2855586289e+00 1.8969181588e+00 3.2855586289e+00 
43600 5.4097353171e+00 -5.2635508591e-04 1.8969320204e+00 -3.2855826379e+00 1.8969320204e+00 3.2855826379e+00 
43700 5.4097352061e+00 -5.2677819189e-04 1.8969458943e+00 -3.2856066682e+00 1.8969458943e+00 3.2856066682e+00 
43800 5.4097350964e+00 -5.2715625310e-04 1.8969597792e+00 -3.2856307175e+00 1.8969597792e+00 3.2856307175e+00 
43900 5.4097349880e+00 -5.2749014607e-04 1.8969736740e+00 -3.2856547840e+00 1.8969736740e+00 3.2856547840e+00 
44000 5.4097348809e+00 -5.2778073422e-04 1.8969875775e+00 -3.2856788655e+00 1.8969875775e+00 3.2856788655e+00 
44100 5.4097347750e+00 -5.2802886781e-04 1.8970014885e+00 -3.2857029602e+00 1.8970014885e+00 3.2857029602e+00 
44200 5.4097346704e+00 -5.2823538402e-04 1.8970154060e+00 -3.2857270660e+00 1.8970154060e+00 3.2857270660e+00 
44300 5.4097345670e+00 -5.2840110690e-04 1.8970293288e+00 -3.2857511810e+00 1.8970293288e+00 3.2857511810e+00 
44400 5.4097344648e+00 -5.2852684743e-04 1.8970432559e+00 -3.2857753034e+00 1.8970432559e+00 3.2857753034e+00 
44500 5.4097343638e+00 -5.2861340353e-04 1.8970571862e+00 -3.2857994314e+00 1.8970571862e+00 3.2857994314e+00 
44600 5.4097342640e+00 -5.2866156010e-04 1.8970711187e+00 -3.2858235631e+00 1.8970711187e+00 3.2858235631e+00 
44700 5.4097341654e+00 -5.2867208912e-04 1.8970850523e+00 -3.2858476969e+00 1.8970850523e+00 3.2858476969e+00 
44800 5.4097340679e+00 -5.2864574965e-04 1.8970989861e+00 -3.2858718310e+00 1.8970989861e+00 3.2858718310e+00 
44900 5.4097339715e+00 -5.2858328793e-04 1.8971129192e+00 -3.2858959637e+00 1.8971129192e+00 3.2858959637e+00 
45000 5.4097338763e+00 -5.2848543747e-04 1.8971268504e+00 -3.2859200934e+00 1.8971268504e+00 3.2859200934e+00 
45100 5.4097337821e+00 -5.2835291908e-04 1.8971407790e+00 -3.2859442184e+00 1.8971407790e+00 3.2859442184e+00 
45200 5.4097336891e+00 -5.2818644106e-04 1.8971547040e+00 -3.2859683372e+00 1.8971547040e+00 3.2859683372e+00 
45300 5.4097335971e+00 -5.2798669921e-04 1.8971686245e+00 -3.2859924482e+00 1.8971686245e+00 3.2859924482e+00 
45400 5.4097335062e+00 -5.2775437698e-04 1.8971825397e+00 -3.2860165499e+00 1.8971825397e+00 3.2860165499e+00 
45500 5.4097334163e+00 -5.2749014561e-04 1.8971964486e+00 -3.2860406409e+00 1.8971964486e+00 3.2860406409e+00 
45600 5.4097333275e+00 -5.2719466418e-04 1.8972103504e+00 -3.2860647196e+00 1.8972103504e+00 3.2860647196e+00 
45700 5.4097332397e+00 -5.2686857980e-04 1.8972242444e+00 -3.2860887846e+00 1.8972242444e+00 3.2860887846e+00 
45800 5.4097331529e+00 -5.2651252775e-04 1.8972381297e+00 -3.2861128346e+00 1.8972381297e+00 3.2861128346e+00 
45900 5.4097330671e+00 -5.2612713156e-04 1.8972520054e+00 -3.2861368682e+00 1.8972520054e+00 3.2861368682e+00 
46000 5.4097329823e+00 -5.2571300320e-04 1.8972658710e+00 -3.2861608840e+00 1.8972658710e+00 3.2861608840e+00 
46100 5.4097328985e+00 -5.2527074322e-04 1.8972797255e+00 -3.2861848807e+00 1.8972797255e+00 3.2861848807e+00 
46200 5.4097328156e+00 -5.2480094091e-04 1.8972935682e+00 -3.2862088570e+00 1.8972935682e+00 3.2862088570e+00 
46300 5.4097327337e+00 -5.2430417443e-04 1.8973073985e+00 -3.2862328118e+00 1.8973073985e+00 3.2862328118e+00 
46400 5.4097326527e+00 -5.2378101099e-04 1.8973212156e+00 -3.2862567436e+00 1.8973212156e+00 3.2862567436e+00 
46500 5.4097325726e+00 -5.2323200703e-04 1.8973350188e+00 -3.2862806515e+00 1.8973350188e+00 3.2862806515e+00 
46600 5.4097324935e+00 -5.2265770836e-04 1.8973488074e+00 -3.2863045340e+00 1.8973488074e+00 3.2863045340e+00 
46700 5.4097324152e+00 -5.2205865033e-04 1.8973625808e+00 -3.2863283903e+00 1.8973625808e+00 3.2863283903e+00 
46800 5.4097323379e+00 -5.2143535803e-04 1.8973763383e+00 -3.2863522189e+00 1.8973763383e+00 3.2863522189e+00 
46900 5.4097322614e+00 -5.2078834642e-04 1.8973900792e+00 -3.2863760190e+00 1.8973900792e+00 3.2863760190e+00 
47000 5.4097321858e+00 -5.2011812055e-04 1.8974038031e+00 -3.2863997894e+00 1.8974038031e+00 3.2863997894e+00 
47100 5.4097321110e+00 -5.1942517572e-04 1.8974175091e+00 -3.2864235290e+00 1.8974175091e+00 3.2864235290e+00 
47200 5.4097320371e+00 -5.1870999765e-04 1.8974311968e+00 -3.2864472368e+00 1.8974311968e+00 3.2864472368e+00 
47300 5.4097319641e+00 -5.1797306265e-04 1.8974448656e+00 -3.2864709118e+00 1.8974448656e+00 3.2864709118e+00 
47400 5.4097318919e+00 -5.1721483785e-04 1.8974585148e+00 -3.2864945529e+00 1.8974585148e+00 3.2864945529e+00 
47500 5.4097318204e+00 -5.1643578130e-04 1.8974721440e+00 -3.2865181593e+00 1.8974721440e+00 3.2865181593e+00 
47600 5.4097317498e+00 -5.1563634223e-04 1.8974857525e+00 -3.2865417300e+00 1.8974857525e+00 3.2865417300e+00 
47700 5.4097316800e+00 -5.1481696117e-04 1.8974993399e+00 -3.2865652640e+00 1.8974993399e+00 3.2865652640e+00 
47800 5.4097316110e+00 -5.1397807018e-04 1.8975129056e+00 -3.2865887605e+00 1.8975129056e+00 3.2865887605e+00 
47900 5.4097315427e+00 -5.1312009296e-04 1.8975264491e+00 -3.2866122185e+00 1.8975264491e+00 3.2866122185e+00 
48000 5.4097314753e+00 -5.1224344511e-04 1.8975399698e+00 -3.2866356372e+00 1.8975399698e+00 3.2866356372e+00 
48100 5.4097314085e+00 -5.1134853423e-04 1.8975534674e+00 -3.2866590157e+00 1.8975534674e+00 3.2866590157e+00 
48200 5.4097313426e+00 -5.1043576015e-04 1.8975669413e+00 -3.2866823532e+00 1.8975669413e+00 3.2866823532e+00 
48300 5.4097312774e+00 -5.0950551509e-04 1.8975803911e+00 -3.2867056488e+00 1.8975803911e+00 3.2867056488e+00 
48400 5.4097312129e+00 -5.0855818379e-04 1.8975938162e+00 -3.2867289019e+00 1.8975938162e+00 3.2867289019e+00 
48500 5.4097311491e+00 -5.0759414375e-04 1.8976072163e+00 -3.2867521115e+00 1.8976072163e+00 3.2867521115e+00 
48600 5.4097310860e+00 -5.0661376535e-04 1.8976205909e+00 -3.2867752770e+00 1.8976205909e+00 3.2867752770e+00 
48700 5.4097310237e+00 -5.0561741203e-04 1.8976339396e+00 -3.2867983976e+00 1.8976339396e+00 3.2867983976e+00 
48800 5.4097309620e+00 -5.0460544044e-04 1.8976472619e+00 -3.2868214725e+00 1.8976472619e+00 3.2868214725e+00 
48900 5.4097309011e+00 -5.0357820062e-04 1.8976605575e+00 -3.2868445011e+00 1.8976605575e+00 3.2868445011e+00 
49000 5.4097308408e+00 -5.0253603617e-04 1.8976738259e+00 -3.2868674827e+00 1.8976738259e+00 3.2868674827e+00 
49100 5.4097307812e+00 -5.0147928436e-04 1.8976870668e+00 -3.2868904165e+00 1.8976870668e+00 3.2868904165e+00 
49200 5.4097307223e+00 -5.0040827631e-04 1.8977002797e+00 -3.2869133020e+00 1.8977002797e+00 3.2869133020e+00 
49300 5.4097306640e+00 -4.9932333717e-04 1.8977134643e+00 -3.2869361384e+00 1.8977134643e+00 3.2869361384e+00 
49400 5.4097306063e+00 -4.9822478621e-04 1.8977266203e+00 -3.2869589252e+00 1.8977266203e+00 3.2869589252e+00 
49500 5.4097305493e+00 -4.9711293699e-04 1.8977397472e+00 -3.2869816616e+00 1.8977397472e+00 3.2869816616e+00 
49600 5.4097304930e+00 -4.9598809752e-04 1.8977528447e+00 -3.2870043472e+00 1.8977528447e+00 3.2870043472e+00 
49700 5.4097304373e+00 -4.9485057037e-04 1.8977659125e+00 -3.2870269813e+00 1.8977659125e+00 3.2870269813e+00 
49800 5.4097303822e+00 -4.9370065282e-04 1.8977789502e+00 -3.2870495633e+00 1.8977789502e+00 3.2870495633e+00 
49900 5.4097303277e+00 -4.9253863698e-04 1.8977919575e+00 -3.2870720926e+00 1.8977919575e+00 3.2870720926e+00 
50000 5.4097302738e+00 -4.9136480995e-04 1.8978049342e+00 -3.2870945688e+00 1.8978049342e+00 3.2870945688e+00 
50100 5.4097302205e+00 -4.9017945388e-04 1.8978178798e+00 -3.2871169913e+00 1.8978178798e+00 3.2871169913e+00 
50200 5.4097301678e+00 -4.8898284616e-04 1.8978307941e+00 -3.2871393595e+00 1.8978307941e+00 3.2871393595e+00 
50300 5.4097301156e+00 -4.8777525952e-04 1.8978436768e+00 -3.2871616730e+00 1.8978436768e+00 3.2871616730e+00 
50400 5.4097300641e+00 -4.8655696211e-04 1.8978565276e+00 -3.2871839312e+00 1.8978565276e+00 3.2871839312e+00 
50500 5.4097300131e+00 -4.8532821766e-04 1.8978693462e+00 -3.2872061337e+00 1.8978693462e+00 3.2872061337e+00 
50600 5.4097299627e+00 -4.8408928555e-04 1.8978821323e+00 -3.2872282800e+00 1.8978821323e+00 3.2872282800e+00 
50700 5.4097299129e+00 -4.8284042096e-04 1.8978948858e+00 -3.2872503696e+00 1.8978948858e+00 3.2872503696e+00 
50800 5.4097298636e+00 -4.8158187491e-04 1.8979076062e+00 -3.2872724020e+00 1.8979076062e+00 3.2872724020e+00 
50900 5.4097298148e+00 -4.8031389441e-04 1.8979202934e+00 -3.2872943769e+00 1.8979202934e+00 3.2872943769e+00 
51000 5.4097297666e+00 -4.7903672255e-04 1.8979329471e+00 -3.2873162937e+00 1.8979329471e+00 3.2873162937e+00 
51100 5.4097297189e+00 -4.7775059858e-04 1.8979455671e+00 -3.2873381521e+00 1.8979455671e+00 3.2873381521e+00 
51200 5.4097296717e+00 -4.7645575798e-04 1.8979581531e+00 -3.2873599518e+00 1.8979581531e+00 3.2873599518e+00 
51300 5.4097296251e+00 -4.7515243259e-04 1.8979707049e+00 -3.2873816921e+00 1.8979707049e+00 3.2873816921e+00 
51400 5.4097295790e+00 -4.7384085067e-04 1.8979832223e+00 -3.2874033729e+00 1.8979832223e+00 3.2874033729e+00 
51500 5.4097295333e+00 -4.7252123697e-04 1.8979957050e+00 -3.2874249937e+00 1.8979957050e+00 3.2874249937e+00 
51600 5.4097294882e+00 -4.7119381283e-04 1.8980081529e+00 -3.2874465541e+00 1.8980081529e+00 3.2874465541e+00 
51700 5.4097294436e+00 -4.6985879624e-04 1.8980205658e+00 -3.2874680538e+00 1.8980205658e+00 3.2874680538e+00 
51800 5.4097293995e+00 -4.6851640192e-04 1.8980329434e+00 -3.2874894925e+00 1.8980329434e+00 3.2874894925e+00 
51900 5.4097293558e+00 -4.6716684138e-04 1.8980452856e+00 -3.2875108697e+00 1.8980452856e+00 3.2875108697e+00 
52000 5.4097293126e+00 -4.6581032300e-04 1.8980575921e+00 -3.2875321853e+00 1.8980575921e+00 3.2875321853e+00 
52100 5.4097292700e+00 -4.6444705207e-04 1.8980698629e+00 -3.2875534388e+00 1.8980698629e+00 3.2875534388e+00 
52200 5.4097292277e+00 -4.6307723088e-04 1.8980820976e+00 -3.2875746300e+00 1.8980820976e+00 3.2875746300e+00 
52300 5.4097291860e+00 -4.6170105877e-04 1.8980942962e+00 -3.2875957585e+00 1.8980942962e+00 3.2875957585e+00 
52400 5.4097291447e+00 -4.6031873215e-04 1.8981064584e+00 -3.2876168241e+00 1.8981064584e+00 3.2876168241e+00 
52500 5.4097291038e+00 -4.5893044463e-04 1.8981185841e+00 -3.2876378265e+00 1.8981185841e+00 3.2876378265e+00 
52600 5.4097290634e+00 -4.5753638701e-04 1.8981306732e+00 -3.2876587655e+00 1.8981306732e+00 3.2876587655e+00 
52700 5.4097290234e+00 -4.5613674732e-04 1.8981427256e+00 -3.2876796407e+00 1.8981427256e+00 3.2876796407e+00 
52800 5.4097289839e+00 -4.5473171094e-04 1.8981547409e+00 -3.2877004519e+00 1.8981547409e+00 3.2877004519e+00 
52900 5.4097289448e+00 -4.5332146058e-04 1.8981667192e+00 -3.2877211988e+00 1.8981667192e+00 3.2877211988e+00 
53000 5.4097289061e+00 -4.5190617633e-04 1.8981786602e+00 -3.2877418813e+00 1.8981786602e+00 3.2877418813e+00 
53100 5.4097288679e+00 -4.5048603573e-04 1.8981905639e+00 -3.2877624991e+00 1.8981905639e+00 3.2877624991e+00 
53200 5.4097288301e+00 -4.4906121381e-04 1.8982024301e+00 -3.2877830520e+00 1.8982024301e+00 3.2877830520e+00 
53300 5.4097287926e+00 -4.4763188308e-04 1.8982142587e+00 -3.2878035398e+00 1.8982142587e+00 3.2878035398e+00 
53400 5.4097287556e+00 -4.4619821362e-04 1.8982260496e+00 -3.2878239622e+00 1.8982260496e+00 3.2878239622e+00 
53500 5.4097287190e+00 -4.4476037311e-04 1.8982378027e+00 -3.2878443190e+00 1.8982378027e+00 3.2878443190e+00 
53600 5.4097286828e+00 -4.4331852682e-04 1.8982495177e+00 -3.2878646102e+00 1.8982495177e+00 3.2878646102e+00 
53700 5.4097286470e+00 -4.4187283768e-04 1.8982611948e+00 -3.2878848354e+00 1.8982611948e+00 3.2878848354e+00 
53800 5.4097286116e+00 -4.4042346631e-04 1.8982728337e+00 -3.2879049946e+00 1.8982728337e+00 3.2879049946e+00 
53900 5.4097285766e+00 -4.3897057103e-04 1.8982844343e+00 -3.2879250875e+00 1.8982844343e+00 3.2879250875e+00 
54000 5.4097285419e+00 -4.3751430791e-04 1.8982959966e+00 -3.2879451140e+00 1.8982959966e+00 3.2879451140e+00 
54100 5.4097285076e+00 -4.3605483077e-04 1.8983075205e+00 -3.2879650739e+00 1.8983075205e+00 3.2879650739e+00 
54200 5.4097284737e+00 -4.3459229123e-04 1.8983190059e+00 -3.2879849672e+00 1.8983190059e+00 3.2879849672e+00 
54300 5.4097284402e+00 -4.3312683874e-04 1.8983304527e+00 -3.2880047936e+00 1.8983304527e+00 3.2880047936e+00 
54400 5.4097284070e+00 -4.3165862056e-04 1.8983418608e+00 -3.2880245530e+00 1.8983418608e+00 3.2880245530e+00 
54500 5.4097283742e+00 -4.3018778184e-04 1.8983532302e+00 -3.2880442453e+00 1.8983532302e+00 3.2880442453e+00 
54600 5.4097283418e+00 -4.2871446560e-04 1.8983645607e+00 -3.2880638705e+00 1.8983645607e+00 3.2880638705e+00 
54700 5.4097283097e+00 -4.2723881277e-04 1.8983758524e+00 -3.2880834282e+00 1.8983758524e+00 3.2880834282e+00 
54800 5.4097282779e+00 -4.2576096222e-04 1.8983871052e+00 -3.2881029186e+00 1.8983871052e+00 3.2881029186e+00 
54900 5.4097282465e+00 -4.2428105074e-04 1.8983983189e+00 -3.2881223414e+00 1.8983983189e+00 3.2881223414e+00 
55000 5.4097282154e+00 -4.2279921312e-04 1.8984094937e+00 -3.2881416966e+00 1.8984094937e+00 3.2881416966e+00 
55100 5.4097281847e+00 -4.2131558211e-04 1.8984206293e+00 -3.2881609841e+00 1.8984206293e+00 3.2881609841e+00 
55200 5.4097281543e+00 -4.1983028848e-04 1.8984317258e+00 -3.2881802037e+00 1.8984317258e+00 3.2881802037e+00 
55300 5.4097281242e+00 -4.1834346100e-04 1.8984427831e+00 -3.2881993555e+00 1.8984427831e+00 3.2881993555e+00 
55400 5.4097280945e+00 -4.1685522651e-04 1.8984538012e+00 -3.2882184394e+00 1.8984538012e+00 3.2882184394e+00 
55500 5.4097280651e+00 -4.1536570987e-04 1.8984647800e+00 -3.2882374553e+00 1.8984647800e+00 3.2882374553e+00 
55600 5.4097280360e+00 -4.1387503405e-04 1.8984757195e+00 -3.2882564031e+00 1.8984757195e+00 3.2882564031e+00 
55700 5.4097280072e+00 -4.1238332007e-04 1.8984866197e+00 -3.2882752828e+00 1.8984866197e+00 3.2882752828e+00 
55800 5.4097279787e+00 -4.1089068709e-04 1.8984974806e+00 -3.2882940944e+00 1.8984974806e+00 3.2882940944e+00 
55900 5.4097279505e+00 -4.0939725237e-04 1.8985083020e+00 -3.2883128377e+00 1.8985083020e+00 3.2883128377e+00 
56000 5.4097279227e+00 -4.0790313131e-04 1.8985190841e+00 -3.2883315128e+00 1.8985190841e+00 3.2883315128e+00 
56100 5.4097278951e+00 -4.0640843745e-04 1.8985298268e+00 -3.2883501197e+00 1.8985298268e+00 3.2883501197e+00 
56200 5.4097278679e+00 -4.0491328253e-04 1.8985405301e+00 -3.2883686583e+00 1.8985405301e+00 3.2883686583e+00 
56300 5.4097278409e+00 -4.0341777643e-04 1.8985511939e+00 -3.2883871285e+00 1.8985511939e+00 3.2883871285e+00 
56400 5.4097278142e+00 -4.0192202727e-04 1.8985618182e+00 -3.2884055305e+00 1.8985618182e+00 3.2884055305e+00 
56500 5.4097277878e+00 -4.0042614133e-04 1.8985724032e+00 -3.2884238641e+00 1.8985724032e+00 3.2884238641e+00 
56600 5.4097277617e+00 -3.9893022318e-04 1.8985829486e+00 -3.2884421294e+00 1.8985829486e+00 3.2884421294e+00 
56700 5.4097277359e+00 -3.9743437557e-04 1.8985934546e+00 -3.2884603263e+00 1.8985934546e+00 3.2884603263e+00 
56800 5.4097277104e+00 -3.9593869955e-04 1.8986039212e+00 -3.2884784549e+00 1.8986039212e+00 3.2884784549e+00 
56900 5.4097276851e+00 -3.9444329441e-04 1.8986143483e+00 -3.2884965152e+00 1.8986143483e+00 3.2884965152e+00 
57000 5.4097276601e+00 -3.9294825776e-04 1.8986247360e+00 -3.2885145072e+00 1.8986247360e+00 3.2885145072e+00 
57100 5.4097276354e+00 -3.9145368550e-04 1.8986350842e+00 -3.2885324309e+00 1.8986350842e+00 3.2885324309e+00 
57200 5.4097276109e+00 -3.8995967182e-04 1.8986453930e+00 -3.2885502863e+00 1.8986453930e+00 3.2885502863e+00 
57300 5.4097275867e+00 -3.8846630927e-04 1.8986556625e+00 -3.2885680735e+00 1.8986556625e+00 3.2885680735e+00 
57400 5.4097275628e+00 -3.8697368874e-04 1.8986658925e+00 -3.2885857924e+00 1.8986658925e+00 3.2885857924e+00 
57500 5.4097275391e+00 -3.8548189949e-04 1.8986760832e+00 -3.2886034432e+00 1.8986760832e+00 3.2886034432e+00 
57600 5.4097275157e+00 -3.8399102914e-04 1.8986862345e+00 -3.2886210258e+00 1.8986862345e+00 3.2886210258e+00 
57700 5.4097274925e+00 -3.8250116372e-04 1.8986963466e+00 -3.2886385404e+00 1.8986963466e+00 3.2886385404e+00 
57800 5.4097274696e+00 -3.8101238765e-04 1.8987064193e+00 -3.2886559869e+00 1.8987064193e+00 3.2886559869e+00 
57900 5.4097274469e+00 -3.7952478380e-04 1.8987164528e+00 -3.2886733654e+00 1.8987164528e+00 3.2886733654e+00 
58000 5.4097274245e+00 -3.7803843346e-04 1.8987264470e+00 -3.2886906759e+00 1.8987264470e+00 3.2886906759e+00 
58100 5.4097274023e+00 -3.7655341637e-04 1.8987364021e+00 -3.2887079186e+00 1.8987364021e+00 3.2887079186e+00 
58200 5.4097273804e+00 -3.7506981077e-04 1.8987463180e+00 -3.2887250935e+00 1.8987463180e+00 3.2887250935e+00 
58300 5.4097273586e+00 -3.7358769337e-04 1.8987561948e+00 -3.2887422006e+00 1.8987561948e+00 3.2887422006e+00 
58400 5.4097273372e+00 -3.7210713938e-04 1.8987660325e+00 -3.2887592400e+00 1.8987660325e+00 3.2887592400e+00 
58500 5.4097273159e+00 -3.7062822253e-04 1.8987758312e+00 -3.2887762117e+00 1.8987758312e+00 3.2887762117e+00 
58600 5.4097272949e+00 -3.6915101511e-04 1.8987855908e+00 -3.2887931160e+00 1.8987855908e+00 3.2887931160e+00 
58700 5.4097272741e+00 -3.6767558794e-04 1.8987953115e+00 -3.2888099528e+00 1.8987953115e+00 3.2888099528e+00 
58800 5.4097272535e+00 -3.6620201042e-04 1.8988049934e+00 -3.2888267222e+00 1.8988049934e+00 3.2888267222e+00 
58900 5.4097272332e+00 -3.6473035053e-04 1.8988146363e+00 -3.2888434243e+00 1.8988146363e+00 3.2888434243e+00 
59000 5.4097272131e+00 -3.6326067486e-04 1.8988242405e+00 -3.2888600592e+00 1.8988242405e+00 3.2888600592e+00 
59100 5.4097271931e+00 -3.6179304861e-04 1.8988338059e+00 -3.2888766270e+00 1.8988338059e+00 3.2888766270e+00 
59200 5.4097271734e+00 -3.6032753565e-04 1.8988433326e+00 -3.2888931278e+00 1.8988433326e+00 3.2888931278e+00 
59300 5.4097271539e+00 -3.5886419846e-04 1.8988528207e+00 -3.2889095616e+00 1.8988528207e+00 3.2889095616e+00 
59400 5.4097271347e+00 -3.5740309823e-04 1.8988622702e+00 -3.2889259286e+00 1.8988622702e+00 3.2889259286e+00 
59500 5.4097271156e+00 -3.5594429481e-04 1.8988716812e+00 -3.2889422289e+00 1.8988716812e+00 3.2889422289e+00 
59600 5.4097270967e+00 -3.5448784677e-04 1.8988810538e+00 -3.2889584626e+00 1.8988810538e+00 3.2889584626e+00 
59700 5.4097270781e+00 -3.5303381140e-04 1.8988903879e+00 -3.2889746298e+00 1.8988903879e+00 3.2889746298e+00 
59800 5.4097270596e+00 -3.5158224473e-04 1.8988996837e+00 -3.2889907306e+00 1.8988996837e+00 3.2889907306e+00 
59900 5.4097270413e+00 -3.5013320156e-04 1.8989089412e+00 -3.2890067651e+00 1.8989089412e+00 3.2890067651e+00 
60000 5.4097270233e+00 -3.4868673544e-04 1.8989181606e+00 -3.2890227335e+00 1.8989181606e+00 3.2890227335e+00 
60100 5.4097270054e+00 -3.4724289874e-04 1.8989273418e+00 -3.2890386358e+00 1.8989273418e+00 3.2890386358e+00 
60200 5.4097269877e+00 -3.4580174262e-04 1.8989364849e+00 -3.2890544722e+00 1.8989364849e+00 3.2890544722e+00 
60300 5.4097269702e+00 -3.4436331707e-04 1.8989455900e+00 -3.2890702428e+00 1.8989455900e+00 3.2890702428e+00 
60400 5.4097269529e+00 -3.4292767092e-04 1.8989546573e+00 -3.2890859477e+00 1.8989546573e+00 3.2890859477e+00 
60500 5.4097269358e+00 -3.4149485189e-04 1.8989636867e+00 -3.2891015870e+00 1.8989636867e+00 3.2891015870e+00 
60600 5.4097269188e+00 -3.4006490654e-04 1.8989726783e+00 -3.2891171610e+00 1.8989726783e+00 3.2891171610e+00 
60700 5.4097269021e+00 -3.3863788035e-04 1.8989816322e+00 -3.2891326696e+00 1.8989816322e+00 3.2891326696e+00 
60800 5.4097268855e+00 -3.3721381770e-04 1.8989905485e+00 -3.2891481131e+00 1.8989905485e+00 3.2891481131e+00 
60900 5.4097268691e+00 -3.3579276190e-04 1.8989994273e+00 -3.2891634916e+00 1.8989994273e+00 3.2891634916e+00 
61000 5.4097268529e+00 -3.3437475522e-04 1.8990082686e+00 -3.2891788052e+00 1.8990082686e+00 3.2891788052e+00 
61100 5.4097268368e+00 -3.3295983887e-04 1.8990170725e+00 -3.2891940541e+00 1.8990170725e+00 3.2891940541e+00 
61200 5.4097268209e+00 -3.3154805307e-04 1.8990258392e+00 -3.2892092384e+00 1.8990258392e+00 3.2892092384e+00 
61300 5.4097268052e+00 -3.3013943700e-04 1.8990345686e+00 -3.2892243582e+00 1.8990345686e+00 3.2892243582e+00 
61400 5.4097267897e+00 -3.2873402889e-04 1.8990432609e+00 -3.2892394137e+00 1.8990432609e+00 3.2892394137e+00 
61500 5.4097267743e+00 -3.2733186598e-04 1.8990519162e+00 -3.2892544050e+00 1.8990519162e+00 3.2892544050e+00 
61600 5.4097267591e+00 -3.2593298455e-04 1.8990605345e+00 -3.2892693324e+00 1.8990605345e+00 3.2892693324e+00 
61700 5.4097267441e+00 -3.2453741996e-04 1.8990691159e+00 -3.2892841959e+00 1.8990691159e+00 3.2892841959e+00 
61800 5.4097267292e+00 -3.2314520662e-04 1.8990776606e+00 -3.2892989956e+00 1.8990776606e+00 3.2892989956e+00 
61900 5.4097267144e+00 -3.2175637807e-04 1.8990861685e+00 -3.2893137318e+00 1.8990861685e+00 3.2893137318e+00 
62000 5.4097266999e+00 -3.2037096694e-04 1.8990946399e+00 -3.2893284047e+00 1.8990946399e+00 3.2893284047e+00 
62100 5.4097266855e+00 -3.1898900497e-04 1.8991030747e+00 -3.2893430142e+00 1.8991030747e+00 3.2893430142e+00 
62200 5.4097266712e+00 -3.1761052307e-04 1.8991114731e+00 -3.2893575607e+00 1.8991114731e+00 3.2893575607e+00 
62300 5.4097266571e+00 -3.1623555129e-04 1.8991198352e+00 -3.2893720443e+00 1.8991198352e+00 3.2893720443e+00 
62400 5.4097266431e+00 -3.1486411885e-04 1.8991281611e+00 -3.2893864651e+00 1.8991281611e+00 3.2893864651e+00 
62500 5.4097266293e+00 -3.1349625415e-04 1.8991364508e+00 -3.2894008233e+00 1.8991364508e+00 3.2894008233e+00 
62600 5.4097266157e+00 -3.1213198482e-04 1.8991447044e+00 -3.2894151190e+00 1.8991447044e+00 3.2894151190e+00 
62700 5.4097266021e+00 -3.1077133766e-04 1.8991529222e+00 -3.2894293525e+00 1.8991529222e+00 3.2894293525e+00 
62800 5.4097265888e+00 -3.0941433873e-04 1.8991611040e+00 -3.2894435239e+00 1.8991611040e+00 3.2894435239e+00 
62900 5.4097265756e+00 -3.0806101333e-04 1.8991692501e+00 -3.2894576333e+00 1.8991692501e+00 3.2894576333e+00 
63000 5.4097265625e+00 -3.0671138601e-04 1.8991773605e+00 -3.2894716810e+00 1.8991773605e+00 3.2894716810e+00 
63100 5.4097265495e+00 -3.0536548059e-04 1.8991854354e+00 -3.2894856670e+00 1.8991854354e+00 3.2894856670e+00 
63200 5.4097265367e+00 -3.0402332019e-04 1.8991934747e+00 -3.2894995917e+00 1.8991934747e+00 3.2894995917e+00 
63300 5.4097265240e+00 -3.0268492720e-04 1.8992014788e+00 -3.2895134550e+00 1.8992014788e+00 3.2895134550e+00 
63400 5.4097265115e+00 -3.0135032335e-04 1.8992094475e+00 -3.2895272573e+00 1.8992094475e+00 3.2895272573e+00 
63500 5.4097264991e+00 -3.0001952967e-04 1.8992173811e+00 -3.2895409987e+00 1.8992173811e+00 3.2895409987e+00 
63600 5.4097264868e+00 -2.9869256654e-04 1.8992252796e+00 -3.2895546793e+00 1.8992252796e+00 3.2895546793e+00 
63700 5.4097264747e+00 -2.9736945370e-04 1.8992331431e+00 -3.2895682993e+00 1.8992331431e+00 3.2895682993e+00 
63800 5.4097264627e+00 -2.9605021022e-04 1.8992409718e+00 -3.2895818590e+00 1.8992409718e+00 3.2895818590e+00 
63900 5.4097264508e+00 -2.9473485458e-04 1.8992487657e+00 -3.2895953585e+00 1.8992487657e+00 3.2895953585e+00 
64000 5.4097264391e+00 -2.9342340462e-04 1.8992565250e+00 -3.2896087979e+00 1.8992565250e+00 3.2896087979e+00 
64100 5.4097264274e+00 -2.9211587757e-04 1.8992642497e+00 -3.2896221774e+00 1.8992642497e+00 3.2896221774e+00 
64200 5.4097264159e+00 -2.9081229011e-04 1.8992719399e+00 -3.2896354973e+00 1.8992719399e+00 3.2896354973e+00 
64300 5.4097264045e+00 -2.8951265830e-04 1.8992795958e+00 -3.2896487577e+00 1.8992795958e+00 3.2896487577e+00 
64400 5.4097263933e+00 -2.8821699765e-04 1.8992872175e+00 -3.2896619588e+00 1.8992872175e+00 3.2896619588e+00 
64500 5.4097263822e+00 -2.8692532310e-04 1.8992948050e+00 -3.2896751008e+00 1.8992948050e+00 3.2896751008e+00 
64600 5.4097263711e+00 -2.8563764905e-04 1.8993023584e+00 -3.2896881838e+00 1.8993023584e+00 3.2896881838e+00 
64700 5.4097263602e+00 -2.8435398937e-04 1.8993098780e+00 -3.2897012080e+00 1.8993098780e+00 3.2897012080e+00 
64800 5.4097263494e+00 -2.8307435740e-04 1.8993173637e+00 -3.2897141737e+00 1.8993173637e+00 3.2897141737e+00 
64900 5.4097263388e+00 -2.8179876594e-04 1.8993248157e+00 -3.2897270809e+00 1.8993248157e+00 3.2897270809e+00 
65000 5.4097263282e+00 -2.8052722732e-04 1.8993322341e+00 -3.2897399300e+00 1.8993322341e+00 3.2897399300e+00 
65100 5.4097263178e+00 -2.7925975334e-04 1.8993396190e+00 -3.2897527210e+00 1.8993396190e+00 3.2897527210e+00 
65200 5.4097263074e+00 -2.7799635535e-04 1.8993469705e+00 -3.2897654541e+00 1.8993469705e+00 3.2897654541e+00 
65300 5.4097262972e+00 -2.7673704418e-04 1.8993542887e+00 -3.2897781297e+00 1.8993542887e+00 3.2897781297e+00 
65400 5.4097262871e+00 -2.7548183021e-04 1.8993615738e+00 -3.2897907477e+00 1.8993615738e+00 3.2897907477e+00 
65500 5.4097262771e+00 -2.7423072337e-04 1.8993688257e+00 -3.2898033085e+00 1.8993688257e+00 3.2898033085e+00 
65600 5.4097262672e+00 -2.7298373312e-04 1.8993760447e+00 -3.2898158122e+00 1.8993760447e+00 3.2898158122e+00 
65700 5.4097262574e+00 -2.7174086849e-04 1.8993832309e+00 -3.2898282589e+00 1.8993832309e+00 3.2898282589e+00 
65800 5.4097262477e+00 -2.7050213806e-04 1.8993903843e+00 -3.2898406490e+00 1.8993903843e+00 3.2898406490e+00 
65900 5.4097262381e+00 -2.6926755001e-04 1.8993975050e+00 -3.2898529825e+00 1.8993975050e+00 3.2898529825e+00 
66000 5.4097262286e+00 -2.6803711206e-04 1.8994045933e+00 -3.2898652597e+00 1.8994045933e+00 3.2898652597e+00 
66100 5.4097262193e+00 -2.6681083155e-04 1.8994116491e+00 -3.2898774808e+00 1.8994116491e+00 3.2898774808e+00 
66200 5.4097262100e+00 -2.6558871542e-04 1.8994186726e+00 -3.2898896458e+00 1.8994186726e+00 3.2898896458e+00 
66300 5.4097262008e+00 -2.6437077019e-04 1.8994256639e+00 -3.2899017552e+00 1.8994256639e+00 3.2899017552e+00 
66400 5.4097261917e+00 -2.6315700202e-04 1.8994326232e+00 -3.2899138089e+00 1.8994326232e+00 3.2899138089e+00 
66500 5.4097261827e+00 -2.6194741665e-04 1.8994395504e+00 -3.2899258073e+00 1.8994395504e+00 3.2899258073e+00 
66600 5.4097261738e+00 -2.6074201949e-04 1.8994464458e+00 -3.2899377504e+00 1.8994464458e+00 3.2899377504e+00 
66700 5.4097261650e+00 -2.5954081554e-04 1.8994533095e+00 -3.2899496386e+00 1.8994533095e+00 3.2899496386e+00 
66800 5.4097261563e+00 -2.5834380948e-04 1.8994601415e+00 -3.2899614720e+00 1.8994601415e+00 3.2899614720e+00 
66900 5.4097261477e+00 -2.5715100560e-04 1.8994669419e+00 -3.2899732507e+00 1.8994669419e+00 3.2899732507e+00 
67000 5.4097261392e+00 -2.5596240787e-04 1.8994737110e+00 -3.2899849750e+00 1.8994737110e+00 3.2899849750e+00 
67100 5.4097261307e+00 -2.5477801990e-04 1.8994804487e+00 -3.2899966451e+00 1.8994804487e+00 3.2899966451e+00 
67200 5.4097261224e+00 -2.5359784497e-04 1.8994871552e+00 -3.2900082611e+00 1.8994871552e+00 3.2900082611e+00 
67300 5.4097261142e+00 -2.5242188602e-04 1.8994938306e+00 -3.2900198233e+00 1.8994938306e+00 3.2900198233e+00 
67400 5.4097261060e+00 -2.5125014570e-04 1.8995004751e+00 -3.2900313318e+00 1.8995004751e+00 3.2900313318e+00 
67500 5.4097260979e+00 -2.5008262630e-04 1.8995070887e+00 -3.2900427869e+00 1.8995070887e+00 3.2900427869e+00 
67600 5.4097260899e+00 -2.4891932982e-04 1.8995136715e+00 -3.2900541887e+00 1.8995136715e+00 3.2900541887e+00 
67700 5.4097260820e+00 -2.4776025796e-04 1.8995202237e+00 -3.2900655374e+00 1.8995202237e+00 3.2900655374e+00 
67800 5.4097260742e+00 -2.4660541210e-04 1.8995267454e+00 -3.2900768333e+00 1.8995267454e+00 3.2900768333e+00 
67900 5.4097260665e+00 -2.4545479333e-04 1.8995332366e+00 -3.2900880764e+00 1.8995332366e+00 3.2900880764e+00 
68000 5.4097260588e+00 -2.4430840246e-04 1.8995396975e+00 -3.2900992671e+00 1.8995396975e+00 3.2900992671e+00 
68100 5.4097260512e+00 -2.4316624001e-04 1.8995461282e+00 -3.2901104054e+00 1.8995461282e+00 3.2901104054e+00 
68200 5.4097260437e+00 -2.4202830621e-04 1.8995525289e+00 -3.2901214917e+00 1.8995525289e+00 3.2901214917e+00 
68300 5.4097260363e+00 -2.4089460101e-04 1.8995588996e+00 -3.2901325260e+00 1.8995588996e+00 3.2901325260e+00 
68400 5.4097260290e+00 -2.3976512412e-04 1.8995652404e+00 -3.2901435086e+00 1.8995652404e+00 3.2901435086e+00 
68500 5.4097260217e+00 -2.3863987495e-04 1.8995715514e+00 -3.2901544397e+00 1.8995715514e+00 3.2901544397e+00 
68600 5.4097260145e+00 -2.3751885266e-04 1.8995778328e+00 -3.2901653194e+00 1.8995778328e+00 3.2901653194e+00 
68700 5.4097260074e+00 -2.3640205615e-04 1.8995840847e+00 -3.2901761480e+00 1.8995840847e+00 3.2901761480e+00 
68800 5.4097260004e+00 -2.3528948409e-04 1.8995903072e+00 -3.2901869256e+00 1.8995903072e+00 3.2901869256e+00 
68900 5.4097259935e+00 -2.3418113487e-04 1.8995965004e+00 -3.2901976525e+00 1.8995965004e+00 3.2901976525e+00 
69000 5.4097259866e+00 -2.3307700665e-04 1.8996026643e+00 -3.2902083288e+00 1.8996026643e+00 3.2902083288e+00 
69100 5.4097259798e+00 -2.3197709735e-04 1.8996087992e+00 -3.2902189548e+00 1.8996087992e+00 3.2902189548e+00 
69200 5.4097259730e+00 -2.3088140465e-04 1.8996149052e+00 -3.2902295305e+00 1.8996149052e+00 3.2902295305e+00 
69300 5.4097259664e+00 -2.2978992601e-04 1.8996209822e+00 -3.2902400563e+00 1.8996209822e+00 3.2902400563e+00 
69400 5.4097259598e+00 -2.2870265865e-04 1.8996270305e+00 -3.2902505323e+00 1.8996270305e+00 3.2902505323e+00 
69500 5.4097259533e+00 -2.2761959957e-04 1.8996330502e+00 -3.2902609587e+00 1.8996330502e+00 3.2902609587e+00 
69600 5.4097259468e+00 -2.2654074555e-04 1.8996390414e+00 -3.2902713357e+00 1.8996390414e+00 3.2902713357e+00 
69700 5.4097259404e+00 -2.2546609317e-04 1.8996450041e+00 -3.2902816634e+00 1.8996450041e+00 3.2902816634e+00 
69800 5.4097259341e+00 -2.2439563876e-04 1.8996509385e+00 -3.2902919422e+00 1.8996509385e+00 3.2902919422e+00 
69900 5.4097259279e+00 -2.2332937849e-04 1.8996568448e+00 -3.2903021721e+00 1.8996568448e+00 3.2903021721e+00 
70000 5.4097259217e+00 -2.2226730828e-04 1.8996627229e+00 -3.2903123533e+00 1.8996627229e+00 3.2903123533e+00 
70100 5.4097259156e+00 -2.2120942388e-04 1.8996685731e+00 -3.2903224861e+00 1.8996685731e+00 3.2903224861e+00 
70200 5.4097259095e+00 -2.2015572082e-04 1.8996743954e+00 -3.2903325707e+00 1.8996743954e+00 3.2903325707e+00 
70300 5.4097259035e+00 -2.1910619446e-04 1.8996801900e+00 -3.2903426072e+00 1.8996801900e+00 3.2903426072e+00 
70400 5.4097258976e+00 -2.1806083996e-04 1.8996859569e+00 -3.2903525958e+00 1.8996859569e+00 3.2903525958e+00 
70500 5.4097258918e+00 -2.1701965227e-04 1.8996916963e+00 -3.2903625367e+00 1.8996916963e+00 3.2903625367e+00 
70600 5.4097258860e+00 -2.1598262620e-04 1.8996974083e+00 -3.2903724301e+00 1.8996974083e+00 3.2903724301e+00 
70700 5.4097258802e+00 -2.1494975633e-04 1.8997030929e+00 -3.2903822763e+00 1.8997030929e+00 3.2903822763e+00 
70800 5.4097258745e+00 -2.1392103711e-04 1.8997087504e+00 -3.2903920753e+00 1.8997087504e+00 3.2903920753e+00 
70900 5.4097258689e+00 -2.1289646278e-04 1.8997143808e+00 -3.2904018273e+00 1.8997143808e+00 3.2904018273e+00 
71000 5.4097258634e+00 -2.1187602743e-04 1.8997199841e+00 -3.2904115327e+00 1.8997199841e+00 3.2904115327e+00 
71100 5.4097258579e+00 -2.1085972496e-04 1.8997255607e+00 -3.2904211915e+00 1.8997255607e+00 3.2904211915e+00 
71200 5.4097258524e+00 -2.0984754914e-04 1.8997311104e+00 -3.2904308039e+00 1.8997311104e+00 3.2904308039e+00 
71300 5.4097258471e+00 -2.0883949355e-04 1.8997366335e+00 -3.2904403702e+00 1.8997366335e+00 3.2904403702e+00 
71400 5.4097258417e+00 -2.0783555162e-04 1.8997421300e+00 -3.2904498905e+00 1.8997421300e+00 3.2904498905e+00 
71500 5.4097258365e+00 -2.0683571662e-04 1.8997476001e+00 -3.2904593650e+00 1.8997476001e+00 3.2904593650e+00 
71600 5.4097258313e+00 -2.0583998168e-04 1.8997530439e+00 -3.2904687939e+00 1.8997530439e+00 3.2904687939e+00 
71700 5.4097258261e+00 -2.0484833976e-04 1.8997584614e+00 -3.2904781773e+00 1.8997584614e+00 3.2904781773e+00 
71800 5.4097258210e+00 -2.0386078370e-04 1.8997638529e+00 -3.2904875156e+00 1.8997638529e+00 3.2904875156e+00 
71900 5.4097258160e+00 -2.0287730617e-04 1.8997692183e+00 -3.2904968088e+00 1.8997692183e+00 3.2904968088e+00 
72000 5.4097258110e+00 -2.0189789972e-04 1.8997745578e+00 -3.2905060571e+00 1.8997745578e+00 3.2905060571e+00 
72100 5.4097258060e+00 -2.0092255674e-04 1.8997798716e+00 -3.2905152608e+00 1.8997798716e+00 3.2905152608e+00 
72200 5.4097258011e+00 -1.9995126951e-04 1.8997851596e+00 -3.2905244199e+00 1.8997851596e+00 3.2905244199e+00 
72300 5.4097257963e+00 -1.9898403015e-04 1.8997904221e+00 -3.2905335348e+00 1.8997904221e+00 3.2905335348e+00 
72400 5.4097257915e+00 -1.9802083067e-04 1.8997956591e+00 -3.2905426056e+00 1.8997956591e+00 3.2905426056e+00 
72500 5.4097257868e+00 -1.9706166295e-04 1.8998008707e+00 -3.2905516324e+00 1.8998008707e+00 3.2905516324e+00 
72600 5.4097257821e+00 -1.9610651874e-04 1.8998060571e+00 -3.2905606154e+00 1.8998060571e+00 3.2905606154e+00 
72700 5.4097257775e+00 -1.9515538967e-04 1.8998112183e+00 -3.2905695550e+00 1.8998112183e+00 3.2905695550e+00 
72800 5.4097257729e+00 -1.9420826724e-04 1.8998163545e+00 -3.2905784511e+00 1.8998163545e+00 3.2905784511e+00 
72900 5.4097257684e+00 -1.9326514285e-04 1.8998214658e+00 -3.2905873040e+00 1.8998214658e+00 3.2905873040e+00 
73000 5.4097257639e+00 -1.9232600779e-04 1.8998265522e+00 -3.2905961139e+00 1.8998265522e+00 3.2905961139e+00 
73100 5.4097257594e+00 -1.9139085321e-04 1.8998316138e+00 -3.2906048810e+00 1.8998316138e+00 3.2906048810e+00 
73200 5.4097257551e+00 -1.9045967017e-04 1.8998366509e+00 -3.2906136054e+00 1.8998366509e+00 3.2906136054e+00 
73300 5.4097257507e+00 -1.8953244962e-04 1.8998416634e+00 -3.2906222874e+00 1.8998416634e+00 3.2906222874e+00 
73400 5.4097257464e+00 -1.8860918242e-04 1.8998466515e+00 -3.2906309270e+00 1.8998466515e+00 3.2906309270e+00 
73500 5.4097257422e+00 -1.8768985930e-04 1.8998516153e+00 -3.2906395246e+00 1.8998516153e+00 3.2906395246e+00 
73600 5.4097257379e+00 -1.8677447090e-04 1.8998565549e+00 -3.2906480802e+00 1.8998565549e+00 3.2906480802e+00 
73700 5.4097257338e+00 -1.8586300778e-04 1.8998614704e+00 -3.2906565941e+00 1.8998614704e+00 3.2906565941e+00 
73800 5.4097257297e+00 -1.8495546039e-04 1.8998663619e+00 -3.2906650664e+00 1.8998663619e+00 3.2906650664e+00 
73900 5.4097257256e+00 -1.8405181908e-04 1.8998712295e+00 -3.2906734973e+00 1.8998712295e+00 3.2906734973e+00 
74000 5.4097257216e+00 -1.8315207412e-04 1.8998760733e+00 -3.2906818871e+00 1.8998760733e+00 3.2906818871e+00 
74100 5.4097257176e+00 -1.8225621570e-04 1.8998808934e+00 -3.2906902357e+00 1.8998808934e+00 3.2906902357e+00 
74200 5.4097257136e+00 -1.8136423390e-04 1.8998856899e+00 -3.2906985435e+00 1.8998856899e+00 3.2906985435e+00 
74300 5.4097257097e+00 -1.8047611874e-04 1.8998904630e+00 -3.2907068107e+00 1.8998904630e+00 3.2907068107e+00 
74400 5.4097257059e+00 -1.7959186015e-04 1.8998952126e+00 -3.2907150373e+00 1.8998952126e+00 3.2907150373e+00 
74500 5.4097257020e+00 -1.7871144798e-04 1.8998999390e+00 -3.2907232236e+00 1.8998999390e+00 3.2907232236e+00 
74600 5.4097256983e+00 -1.7783487199e-04 1.8999046422e+00 -3.2907313698e+00 1.8999046422e+00 3.2907313698e+00 
74700 5.4097256945e+00 -1.7696212189e-04 1.8999093223e+00 -3.2907394759e+00 1.8999093223e+00 3.2907394759e+00 
74800 5.4097256908e+00 -1.7609318729e-04 1.8999139794e+00 -3.2907475423e+00 1.8999139794e+00 3.2907475423e+00 
74900 5.4097256871e+00 -1.7522805776e-04 1.8999186136e+00 -3.2907555690e+00 1.8999186136e+00 3.2907555690e+00 
75000 5.4097256835e+00 -1.7436672277e-04 1.8999232251e+00 -3.2907635563e+00 1.8999232251e+00 3.2907635563e+00 
75100 5.4097256799e+00 -1.7350917175e-04 1.8999278139e+00 -3.2907715043e+00 1.8999278139e+00 3.2907715043e+00 
75200 5.4097256764e+00 -1.7265539403e-04 1.8999323801e+00 -3.2907794132e+00 1.8999323801e+00 3.2907794132e+00 
75300 5.4097256729e+00 -1.7180537891e-04 1.8999369238e+00 -3.2907872832e+00 1.8999369238e+00 3.2907872832e+00 
75400 5.4097256694e+00 -1.7095911561e-04 1.8999414452e+00 -3.2907951144e+00 1.8999414452e+00 3.2907951144e+00 
75500 5.4097256660e+00 -1.7011659331e-04 1.8999459442e+00 -3.2908029070e+00 1.8999459442e+00 3.2908029070e+00 
75600 5.4097256626e+00 -1.6927780111e-04 1.8999504211e+00 -3.2908106612e+00 1.8999504211e+00 3.2908106612e+00 
75700 5.4097256592e+00 -1.6844272806e-04 1.8999548759e+00 -3.2908183771e+00 1.8999548759e+00 3.2908183771e+00 
75800 5.4097256559e+00 -1.6761136316e-04 1.8999593087e+00 -3.2908260550e+00 1.8999593087e+00 3.2908260550e+00 
75900 5.4097256526e+00 -1.6678369536e-04 1.8999637196e+00 -3.2908336949e+00 1.8999637196e+00 3.2908336949e+00 
76000 5.4097256493e+00 -1.6595971356e-04 1.8999681088e+00 -3.2908412971e+00 1.8999681088e+00 3.2908412971e+00 
76100 5.4097256461e+00 -1.6513940661e-04 1.8999724762e+00 -3.2908488618e+00 1.8999724762e+00 3.2908488618e+00 
76200 5.4097256429e+00 -1.6432276330e-04 1.8999768220e+00 -3.2908563890e+00 1.8999768220e+00 3.2908563890e+00 
76300 5.4097256398e+00 -1.6350977239e-04 1.8999811464e+00 -3.2908638789e+00 1.8999811464e+00 3.2908638789e+00 
76400 5.4097256367e+00 -1.6270042260e-04 1.8999854493e+00 -3.2908713318e+00 1.8999854493e+00 3.2908713318e+00 
76500 5.4097256336e+00 -1.6189470259e-04 1.8999897309e+00 -3.2908787478e+00 1.8999897309e+00 3.2908787478e+00 
76600 5.4097256305e+00 -1.6109260099e-04 1.8999939913e+00 -3.2908861271e+00 1.8999939913e+00 3.2908861271e+00 
76700 5.4097256275e+00 -1.6029410640e-04 1.8999982306e+00 -3.2908934698e+00 1.8999982306e+00 3.2908934698e+00 
76800 5.4097256245e+00 -1.5949920737e-04 1.9000024489e+00 -3.2909007760e+00 1.9000024489e+00 3.2909007760e+00 
76900 5.4097256215e+00 -1.5870789240e-04 1.9000066462e+00 -3.2909080460e+00 1.9000066462e+00 3.2909080460e+00 
77000 5.4097256186e+00 -1.5792015000e-04 1.9000108228e+00 -3.2909152800e+00 1.9000108228e+00 3.2909152800e+00 
77100 5.4097256157e+00 -1.5713596861e-04 1.9000149785e+00 -3.2909224780e+00 1.9000149785e+00 3.2909224780e+00 
77200 5.4097256128e+00 -1.5635533665e-04 1.9000191137e+00 -3.2909296402e+00 1.9000191137e+00 3.2909296402e+00 
77300 5.4097256100e+00 -1.5557824250e-04 1.9000232282e+00 -3.2909367669e+00 1.9000232282e+00 3.2909367669e+00 
77400 5.4097256072e+00 -1.5480467453e-04 1.9000273223e+00 -3.2909438581e+00 1.9000273223e+00 3.2909438581e+00 
77500 5.4097256044e+00 -1.5403462107e-04 1.9000313961e+00 -3.2909509140e+00 1.9000313961e+00 3.2909509140e+00 
77600 5.4097256017e+00 -1.5326807044e-04 1.9000354496e+00 -3.2909579348e+00 1.9000354496e+00 3.2909579348e+00 
77700 5.4097255990e+00 -1.5250501091e-04 1.9000394829e+00 -3.2909649207e+00 1.9000394829e+00 3.2909649207e+00 
77800 5.4097255963e+00 -1.5174543074e-04 1.9000434961e+00 -3.2909718718e+00 1.9000434961e+00 3.2909718718e+00 
77900 5.4097255936e+00 -1.5098931817e-04 1.9000474893e+00 -3.2909787882e+00 1.9000474893e+00 3.2909787882e+00 
78000 5.4097255910e+00 -1.5023666143e-04 1.9000514626e+00 -3.2909856702e+00 1.9000514626e+00 3.2909856702e+00 
78100 5.4097255884e+00 -1.4948744871e-04 1.9000554161e+00 -3.2909925179e+00 1.9000554161e+00 3.2909925179e+00 
78200 5.4097255858e+00 -1.4874166818e-04 1.9000593499e+00 -3.2909993313e+00 1.9000593499e+00 3.2909993313e+00 
78300 5.4097255833e+00 -1.4799930802e-04 1.9000632640e+00 -3.2910061108e+00 1.9000632640e+00 3.2910061108e+00 
78400 5.4097255807e+00 -1.4726035637e-04 1.9000671586e+00 -3.2910128564e+00 1.9000671586e+00 3.2910128564e+00 
78500 5.4097255783e+00 -1.4652480137e-04 1.9000710337e+00 -3.2910195684e+00 1.9000710337e+00 3.2910195684e+00 
78600 5.4097255758e+00 -1.4579263113e-04 1.9000748895e+00 -3.2910262468e+00 1.9000748895e+00 3.2910262468e+00 
78700 5.4097255733e+00 -1.4506383377e-04 1.9000787260e+00 -3.2910328918e+00 1.9000787260e+00 3.2910328918e+00 
78800 5.4097255709e+00 -1.4433839738e-04 1.9000825433e+00 -3.2910395036e+00 1.9000825433e+00 3.2910395036e+00 
78900 5.4097255685e+00 -1.4361631004e-04 1.9000863415e+00 -3.2910460823e+00 1.9000863415e+00 3.2910460823e+00 
79000 5.4097255662e+00 -1.4289755984e-04 1.9000901207e+00 -3.2910526280e+00 1.9000901207e+00 3.2910526280e+00 
79100 5.4097255638e+00 -1.4218213483e-04 1.9000938810e+00 -3.2910591410e+00 1.9000938810e+00 3.2910591410e+00 
79200 5.4097255615e+00 -1.4147002309e-04 1.9000976225e+00 -3.2910656214e+00 1.9000976225e+00 3.2910656214e+00 
79300 5.4097255592e+00 -1.4076121267e-04 1.9001013452e+00 -3.2910720693e+00 1.9001013452e+00 3.2910720693e+00 
79400 5.4097255570e+00 -1.4005569162e-04 1.9001050492e+00 -3.2910784849e+00 1.9001050492e+00 3.2910784849e+00 
79500 5.4097255547e+00 -1.3935344799e-04 1.9001087347e+00 -3.2910848684e+00 1.9001087347e+00 3.2910848684e+00 
79600 5.4097255525e+00 -1.3865446982e-04 1.9001124017e+00 -3.2910912198e+00 1.9001124017e+00 3.2910912198e+00 
79700 5.4097255503e+00 -1.3795874514e-04 1.9001160503e+00 -3.2910975393e+00 1.9001160503e+00 3.2910975393e+00 
79800 5.4097255481e+00 -1.3726626201e-04 1.9001196805e+00 -3.2911038271e+00 1.9001196805e+00 3.2911038271e+00 
79900 5.4097255460e+00 -1.3657700845e-04 1.9001232926e+00 -3.2911100834e+00 1.9001232926e+00 3.2911100834e+00 
80000 5.4097255439e+00 -1.3589097251e-04 1.9001268865e+00 -3.2911163082e+00 1.9001268865e+00 3.2911163082e+00 
80100 5.4097255418e+00 -1.3520814222e-04 1.9001304623e+00 -3.2911225017e+00 1.9001304623e+00 3.2911225017e+00 
80200 5.4097255397e+00 -1.3452850564e-04 1.9001340202e+00 -3.2911286641e+00 1.9001340202e+00 3.2911286641e+00 
80300 5.4097255376e+00 -1.3385205079e-04 1.9001375602e+00 -3.2911347956e+00 1.9001375602e+00 3.2911347956e+00 
80400 5.4097255356e+00 -1.3317876574e-04 1.9001410823e+00 -3.2911408961e+00 1.9001410823e+00 3.2911408961e+00 
80500 5.4097255336e+00 -1.3250863853e-04 1.9001445868e+00 -3.2911469660e+00 1.9001445868e+00 3.2911469660e+00 
80600 5.4097255316e+00 -1.3184165721e-04 1.9001480736e+00 -3.2911530053e+00 1.9001480736e+00 3.2911530053e+00 
80700 5.4097255296e+00 -1.3117780986e-04 1.9001515428e+00 -3.2911590142e+00 1.9001515428e+00 3.2911590142e+00 
80800 5.4097255276e+00 -1.3051708454e-04 1.9001549946e+00 -3.2911649929e+00 1.9001549946e+00 3.2911649929e+00 
80900 5.4097255257e+00 -1.2985946932e-04 1.9001584290e+00 -3.2911709414e+00 1.9001584290e+00 3.2911709414e+00 
81000 5.4097255238e+00 -1.2920495230e-04 1.9001618460e+00 -3.2911768600e+00 1.9001618460e+00 3.2911768600e+00 
81100 5.4097255219e+00 -1.2855352156e-04 1.9001652459e+00 -3.2911827486e+00 1.9001652459e+00 3.2911827486e+00 
81200 5.4097255200e+00 -1.2790516520e-04 1.9001686286e+00 -3.2911886076e+00 1.9001686286e+00 3.2911886076e+00 
81300 5.4097255182e+00 -1.2725987134e-04 1.9001719942e+00 -3.2911944371e+00 1.9001719942e+00 3.2911944371e+00 
81400 5.4097255164e+00 -1.2661762810e-04 1.9001753428e+00 -3.2912002371e+00 1.9001753428e+00 3.2912002371e+00 
81500 5.4097255146e+00 -1.2597842360e-04 1.9001786746e+00 -3.2912060078e+00 1.9001786746e+00 3.2912060078e+00 
81600 5.4097255128e+00 -1.2534224600e-04 1.9001819895e+00 -3.2912117494e+00 1.9001819895e+00 3.2912117494e+00 
81700 5.4097255110e+00 -1.2470908346e-04 1.9001852877e+00 -3.2912174620e+00 1.9001852877e+00 3.2912174620e+00 
81800 5.4097255092e+00 -1.2407892413e-04 1.9001885692e+00 -3.2912231457e+00 1.9001885692e+00 3.2912231457e+00 
81900 5.4097255075e+00 -1.2345175621e-04 1.9001918341e+00 -3.2912288007e+00 1.9001918341e+00 3.2912288007e+00 
82000 5.4097255058e+00 -1.2282756788e-04 1.9001950825e+00 -3.2912344271e+00 1.9001950825e+00 3.2912344271e+00 
82100 5.4097255041e+00 -1.2220634737e-04 1.9001983144e+00 -3.2912400251e+00 1.9001983144e+00 3.2912400251e+00 
82200 5.4097255024e+00 -1.2158808289e-04 1.9002015301e+00 -3.2912455947e+00 1.9002015301e+00 3.2912455947e+00 
82300 5.4097255007e+00 -1.2097276269e-04 1.9002047294e+00 -3.2912511361e+00 1.9002047294e+00 3.2912511361e+00 
82400 5.4097254991e+00 -1.2036037502e-04 1.9002079126e+00 -3.2912566495e+00 1.9002079126e+00 3.2912566495e+00 
82500 5.4097254975e+00 -1.1975090816e-04 1.9002110796e+00 -3.2912621350e+00 1.9002110796e+00 3.2912621350e+00 
82600 5.4097254959e+00 -1.1914435040e-04 1.9002142306e+00 -3.2912675927e+00 1.9002142306e+00 3.2912675927e+00 
82700 5.4097254943e+00 -1.1854069005e-04 1.9002173656e+00 -3.2912730227e+00 1.9002173656e+00 3.2912730227e+00 
82800 5.4097254927e+00 -1.1793991542e-04 1.9002204848e+00 -3.2912784252e+00 1.9002204848e+00 3.2912784252e+00 
82900 5.4097254911e+00 -1.1734201488e-04 1.9002235881e+00 -3.2912838003e+00 1.9002235881e+00 3.2912838003e+00 
83000 5.4097254896e+00 -1.1674697677e-04 1.9002266757e+00 -3.2912891481e+00 1.9002266757e+00 3.2912891481e+00 
83100 5.4097254881e+00 -1.1615478948e-04 1.9002297476e+00 -3.2912944689e+00 1.9002297476e+00 3.2912944689e+00 
83200 5.4097254865e+00 -1.1556544142e-04 1.9002328039e+00 -3.2912997626e+00 1.9002328039e+00 3.2912997626e+00 
83300 5.4097254850e+00 -1.1497892099e-04 1.9002358447e+00 -3.2913050295e+00 1.9002358447e+00 3.2913050295e+00 
83400 5.4097254836e+00 -1.1439521665e-04 1.9002388701e+00 -3.2913102696e+00 1.9002388701e+00 3.2913102696e+00 
83500 5.4097254821e+00 -1.1381431686e-04 1.9002418802e+00 -3.2913154831e+00 1.9002418802e+00 3.2913154831e+00 
83600 5.4097254807e+00 -1.1323621010e-04 1.9002448749e+00 -3.2913206701e+00 1.9002448749e+00 3.2913206701e+00 
83700 5.4097254792e+00 -1.1266088488e-04 1.9002478544e+00 -3.2913258308e+00 1.9002478544e+00 3.2913258308e+00 
83800 5.4097254778e+00 -1.1208832971e-04 1.9002508188e+00 -3.2913309652e+00 1.9002508188e+00 3.2913309652e+00 
83900 5.4097254764e+00 -1.1151853316e-04 1.9002537681e+00 -3.2913360736e+00 1.9002537681e+00 3.2913360736e+00 
84000 5.4097254750e+00 -1.1095148379e-04 1.9002567024e+00 -3.2913411560e+00 1.9002567024e+00 3.2913411560e+00 
84100 5.4097254736e+00 -1.1038717020e-04 1.9002596218e+00 -3.2913462125e+00 1.9002596218e+00 3.2913462125e+00 
84200 5.4097254723e+00 -1.0982558101e-04 1.9002625263e+00 -3.2913512433e+00 1.9002625263e+00 3.2913512433e+00 
84300 5.4097254709e+00 -1.0926670485e-04 1.9002654161e+00 -3.2913562485e+00 1.9002654161e+00 3.2913562485e+00 
84400 5.4097254696e+00 -1.0871053039e-04 1.9002682911e+00 -3.2913612282e+00 1.9002682911e+00 3.2913612282e+00 
84500 5.4097254683e+00 -1.0815704632e-04 1.9002711515e+00 -3.2913661825e+00 1.9002711515e+00 3.2913661825e+00 
84600 5.4097254670e+00 -1.0760624136e-04 1.9002739973e+00 -3.2913711117e+00 1.9002739973e+00 3.2913711117e+00 
84700 5.4097254657e+00 -1.0705810424e-04 1.9002768287e+00 -3.2913760157e+00 1.9002768287e+00 3.2913760157e+00 
84800 5.4097254644e+00 -1.0651262372e-04 1.9002796456e+00 -3.2913808947e+00 1.9002796456e+00 3.2913808947e+00 
84900 5.4097254632e+00 -1.0596978860e-04 1.9002824481e+00 -3.2913857489e+00 1.9002824481e+00 3.2913857489e+00 
85000 5.4097254619e+00 -1.0542958769e-04 1.9002852364e+00 -3.2913905783e+00 1.9002852364e+00 3.2913905783e+00 
85100 5.4097254607e+00 -1.0489200982e-04 1.9002880104e+00 -3.2913953831e+00 1.9002880104e+00 3.2913953831e+00 
85200 5.4097254595e+00 -1.0435704388e-04 1.9002907703e+00 -3.2914001634e+00 1.9002907703e+00 3.2914001634e+00 
85300 5.4097254583e+00 -1.0382467874e-04 1.9002935161e+00 -3.2914049193e+00 1.9002935161e+00 3.2914049193e+00 
85400 5.4097254571e+00 -1.0329490332e-04 1.9002962480e+00 -3.2914096509e+00 1.9002962480e+00 3.2914096509e+00 
85500 5.4097254559e+00 -1.0276770658e-04 1.9002989658e+00 -3.2914143584e+00 1.9002989658e+00 3.2914143584e+00 
85600 5.4097254547e+00 -1.0224307749e-04 1.9003016698e+00 -3.2914190418e+00 1.9003016698e+00 3.2914190418e+00 
85700 5.4097254536e+00 -1.0172100504e-04 1.9003043600e+00 -3.2914237013e+00 1.9003043600e+00 3.2914237013e+00 
85800 5.4097254524e+00 -1.0120147827e-04 1.9003070364e+00 -3.2914283371e+00 1.9003070364e+00 3.2914283371e+00 
85900 5.4097254513e+00 -1.0068448622e-04 1.9003096992e+00 -3.2914329491e+00 1.9003096992e+00 3.2914329491e+00 
86000 5.4097254502e+00 -1.0017001799e-04 1.9003123484e+00 -3.2914375376e+00 1.9003123484e+00 3.2914375376e+00 
86100 5.4097254490e+00 -9.9658062686e-05 1.9003149840e+00 -3.2914421026e+00 1.9003149840e+00 3.2914421026e+00 
86200 5.4097254479e+00 -9.9148609446e-05 1.9003176061e+00 -3.2914466443e+00 1.9003176061e+00 3.2914466443e+00 
86300 5.4097254469e+00 -9.8641647441e-05 1.9003202149e+00 -3.2914511628e+00 1.9003202149e+00 3.2914511628e+00 
86400 5.4097254458e+00 -9.8137165864e-05 1.9003228103e+00 -3.2914556581e+00 1.9003228103e+00 3.2914556581e+00 
86500 5.4097254447e+00 -9.7635153946e-05 1.9003253924e+00 -3.2914601305e+00 1.9003253924e+00 3.2914601305e+00 
86600 5.4097254437e+00 -9.7135600942e-05 1.9003279613e+00 -3.2914645800e+00 1.9003279613e+00 3.2914645800e+00 
86700 5.4097254426e+00 -9.6638496134e-05 1.9003305170e+00 -3.2914690067e+00 1.9003305170e+00 3.2914690067e+00 
86800 5.4097254416e+00 -9.6143828839e-05 1.9003330597e+00 -3.2914734107e+00 1.9003330597e+00 3.2914734107e+00 
86900 5.4097254406e+00 -9.5651588400e-05 1.9003355894e+00 -3.2914777922e+00 1.9003355894e+00 3.2914777922e+00 
87000 5.4097254396e+00 -9.5161764189e-05 1.9003381061e+00 -3.2914821513e+00 1.9003381061e+00 3.2914821513e+00 
87100 5.4097254386e+00 -9.4674345611e-05 1.9003406099e+00 -3.2914864880e+00 1.9003406099e+00 3.2914864880e+00 
87200 5.4097254376e+00 -9.4189322100e-05 1.9003431009e+00 -3.2914908025e+00 1.9003431009e+00 3.2914908025e+00 
87300 5.4097254366e+00 -9.3706683118e-05 1.9003455791e+00 -3.2914950949e+00 1.9003455791e+00 3.2914950949e+00 
87400 5.4097254356e+00 -9.3226418160e-05 1.9003480446e+00 -3.2914993653e+00 1.9003480446e+00 3.2914993653e+00 
87500 5.4097254347e+00 -9.2748516752e-05 1.9003504975e+00 -3.2915036138e+00 1.9003504975e+00 3.2915036138e+00 
87600 5.4097254337e+00 -9.2272968448e-05 1.9003529378e+00 -3.2915078406e+00 1.9003529378e+00 3.2915078406e+00 
87700 5.4097254328e+00 -9.1799762836e-05 1.9003553656e+00 -3.2915120456e+00 1.9003553656e+00 3.2915120456e+00 
87800 5.4097254319e+00 -9.1328889531e-05 1.9003577809e+00 -3.2915162291e+00 1.9003577809e+00 3.2915162291e+00 
87900 5.4097254310e+00 -9.0860338182e-05 1.9003601838e+00 -3.2915203911e+00 1.9003601838e+00 3.2915203911e+00 
88000 5.4097254301e+00 -9.0394098469e-05 1.9003625745e+00 -3.2915245318e+00 1.9003625745e+00 3.2915245318e+00 
88100 5.4097254292e+00 -8.9930160102e-05 1.9003649528e+00 -3.2915286512e+00 1.9003649528e+00 3.2915286512e+00 
88200 5.4097254283e+00 -8.9468512824e-05 1.9003673189e+00 -3.2915327494e+00 1.9003673189e+00 3.2915327494e+00 
88300 5.4097254274e+00 -8.9009146408e-05 1.9003696729e+00 -3.2915368266e+00 1.9003696729e+00 3.2915368266e+00 
88400 5.4097254265e+00 -8.8552050659e-05 1.9003720148e+00 -3.2915408829e+00 1.9003720148e+00 3.2915408829e+00 
88500 5.4097254257e+00 -8.8097215414e-05 1.9003743447e+00 -3.2915449183e+00 1.9003743447e+00 3.2915449183e+00 
88600 5.4097254248e+00 -8.7644630543e-05 1.9003766625e+00 -3.2915489331e+00 1.9003766625e+00 3.2915489331e+00 
88700 5.4097254240e+00 -8.7194285945e-05 1.9003789685e+00 -3.2915529271e+00 1.9003789685e+00 3.2915529271e+00 
88800 5.4097254231e+00 -8.6746171553e-05 1.9003812627e+00 -3.2915569007e+00 1.9003812627e+00 3.2915569007e+00 
88900 5.4097254223e+00 -8.6300277334e-05 1.9003835450e+00 -3.2915608538e+00 1.9003835450e+00 3.2915608538e+00 
89000 5.4097254215e+00 -8.5856593282e-05 1.9003858156e+00 -3.2915647866e+00 1.9003858156e+00 3.2915647866e+00 
89100 5.4097254207e+00 -8.5415109426e-05 1.9003880745e+00 -3.2915686992e+00 1.9003880745e+00 3.2915686992e+00 
89200 5.4097254199e+00 -8.4975815831e-05 1.9003903218e+00 -3.2915725916e+00 1.9003903218e+00 3.2915725916e+00 
89300 5.4097254191e+00 -8.4538702588e-05 1.9003925576e+00 -3.2915764641e+00 1.9003925576e+00 3.2915764641e+00 
89400 5.4097254183e+00 -8.4103759823e-05 1.9003947818e+00 -3.2915803166e+00 1.9003947818e+00 3.2915803166e+00 
89500 5.4097254176e+00 -8.3670977698e-05 1.9003969946e+00 -3.2915841492e+00 1.9003969946e+00 3.2915841492e+00 
89600 5.4097254168e+00 -8.3240346403e-05 1.9003991960e+00 -3.2915879622e+00 1.9003991960e+00 3.2915879622e+00 
89700 5.4097254160e+00 -8.2811856161e-05 1.9004013861e+00 -3.2915917555e+00 1.9004013861e+00 3.2915917555e+00 
89800 5.4097254153e+00 -8.2385497231e-05 1.9004035649e+00 -3.2915955293e+00 1.9004035649e+00 3.2915955293e+00 
89900 5.4097254146e+00 -8.1961259901e-05 1.9004057325e+00 -3.2915992837e+00 1.9004057325e+00 3.2915992837e+00 
90000 5.4097254138e+00 -8.1539134495e-05 1.9004078889e+00 -3.2916030187e+00 1.9004078889e+00 3.2916030187e+00 
90100 5.4097254131e+00 -8.1119111369e-05 1.9004100342e+00 -3.2916067345e+00 1.9004100342e+00 3.2916067345e+00 
90200 5.4097254124e+00 -8.0701180910e-05 1.9004121685e+00 -3.2916104311e+00 1.9004121685e+00 3.2916104311e+00 
90300 5.4097254117e+00 -8.0285333539e-05 1.9004142917e+00 -3.2916141087e+00 1.9004142917e+00 3.2916141087e+00 
90400 5.4097254110e+00 -7.9871559712e-05 1.9004164040e+00 -3.2916177673e+00 1.9004164040e+00 3.2916177673e+00 
90500 5.4097254103e+00 -7.9459849917e-05 1.9004185054e+00 -3.2916214071e+00 1.9004185054e+00 3.2916214071e+00 
90600 5.4097254096e+00 -7.9050194674e-05 1.9004205960e+00 -3.2916250281e+00 1.9004205960e+00 3.2916250281e+00 
90700 5.4097254089e+00 -7.8642584535e-05 1.9004226758e+00 -3.2916286304e+00 1.9004226758e+00 3.2916286304e+00 
90800 5.4097254082e+00 -7.8237010089e-05 1.9004247449e+00 -3.2916322142e+00 1.9004247449e+00 3.2916322142e+00 
90900 5.4097254076e+00 -7.7833461956e-05 1.9004268033e+00 -3.2916357794e+00 1.9004268033e+00 3.2916357794e+00 
91000 5.4097254069e+00 -7.7431930789e-05 1.9004288511e+00 -3.2916393263e+00 1.9004288511e+00 3.2916393263e+00 
91100 5.4097254063e+00 -7.7032407276e-05 1.9004308883e+00 -3.2916428549e+00 1.9004308883e+00 3.2916428549e+00 
91200 5.4097254056e+00 -7.6634882132e-05 1.9004329151e+00 -3.2916463653e+00 1.9004329151e+00 3.2916463653e+00 
91300 5.4097254050e+00 -7.6239346117e-05 1.9004349313e+00 -3.2916498575e+00 1.9004349313e+00 3.2916498575e+00 
91400 5.4097254044e+00 -7.5845790012e-05 1.9004369371e+00 -3.2916533317e+00 1.9004369371e+00 3.2916533317e+00 
91500 5.4097254037e+00 -7.5454204640e-05 1.9004389326e+00 -3.2916567880e+00 1.9004389326e+00 3.2916567880e+00 
91600 5.4097254031e+00 -7.5064580853e-05 1.9004409178e+00 -3.2916602264e+00 1.9004409178e+00 3.2916602264e+00 
91700 5.4097254025e+00 -7.4676909538e-05 1.9004428927e+00 -3.2916636471e+00 1.9004428927e+00 3.2916636471e+00 
91800 5.4097254019e+00 -7.4291181613e-05 1.9004448575e+00 -3.2916670501e+00 1.9004448575e+00 3.2916670501e+00 
91900 5.4097254013e+00 -7.3907388033e-05 1.9004468120e+00 -3.2916704355e+00 1.9004468120e+00 3.2916704355e+00 
92000 5.4097254007e+00 -7.3525519783e-05 1.9004487565e+00 -3.2916738034e+00 1.9004487565e+00 3.2916738034e+00 
92100 5.4097254001e+00 -7.3145567883e-05 1.9004506909e+00 -3.2916771540e+00 1.9004506909e+00 3.2916771540e+00 
92200 5.4097253995e+00 -7.2767523389e-05 1.9004526154e+00 -3.2916804872e+00 1.9004526154e+00 3.2916804872e+00 
92300 5.4097253990e+00 -7.2391377383e-05 1.9004545298e+00 -3.2916838032e+00 1.9004545298e+00 3.2916838032e+00 
92400 5.4097253984e+00 -7.2017120988e-05 1.9004564344e+00 -3.2916871020e+00 1.9004564344e+00 3.2916871020e+00 
92500 5.4097253978e+00 -7.1644745356e-05 1.9004583291e+00 -3.2916903838e+00 1.9004583291e+00 3.2916903838e+00 
92600 5.4097253973e+00 -7.1274241673e-05 1.9004602141e+00 -3.2916936486e+00 1.9004602141e+00 3.2916936486e+00 
92700 5.4097253967e+00 -7.0905601158e-05 1.9004620893e+00 -3.2916968965e+00 1.9004620893e+00 3.2916968965e+00 
92800 5.4097253962e+00 -7.0538815067e-05 1.9004639548e+00 -3.2917001276e+00 1.9004639548e+00 3.2917001276e+00 
92900 5.4097253958e+00 -7.0795596718e-05 1.9004639548e+00 -3.2917001276e+00 1.9004639548e+00 3.2917001276e+00 
93000 5.4097253953e+00 -7.0428825802e-05 1.9004658173e+00 -3.2917033537e+00 1.9004658173e+00 3.2917033537e+00 
93100 5.4097253949e+00 -7.0684596353e-05 1.9004658173e+00 -3.2917033537e+00 1.9004658173e+00 3.2917033537e+00 
93200 5.4097253945e+00 -7.0940749111e-05 1.9004658173e+00 -3.2917033537e+00 1.9004658173e+00 3.2917033537e+00 
93300 5.4097253940e+00 -7.0571966686e-05 1.9004676837e+00 -3.2917065864e+00 1.9004676837e+00 3.2917065864e+00 
93400 5.4097253936e+00 -7.0826914013e-05 1.9004676837e+00 -3.2917065864e+00 1.9004676837e+00 3.2917065864e+00 
93500 5.4097253931e+00 -7.0457903694e-05 1.9004695472e+00 -3.2917098139e+00 1.9004695472e+00 3.2917098139e+00 
93600 5.4097253927e+00 -7.0711599673e-05 1.9004695472e+00 -3.2917098139e+00 1.9004695472e+00 3.2917098139e+00 
93700 5.4097253922e+00 -7.0342333465e-05 1.9004714075e+00 -3.2917130362e+00 1.9004714075e+00 3.2917130362e+00 
93800 5.4097253919e+00 -7.0594740663e-05 1.9004714075e+00 -3.2917130362e+00 1.9004714075e+00 3.2917130362e+00 
93900 5.4097253915e+00 -7.0847413933e-05 1.9004714075e+00 -3.2917130362e+00 1.9004714075e+00 3.2917130362e+00 
94000 5.4097253910e+00 -7.0475869779e-05 1.9004732715e+00 -3.2917162646e+00 1.9004732715e+00 3.2917162646e+00 
94100 5.4097253907e+00 -7.0727140759e-05 1.9004732715e+00 -3.2917162646e+00 1.9004732715e+00 3.2917162646e+00 
94200 5.4097253902e+00 -7.0355244683e-05 1.9004751322e+00 -3.2917194876e+00 1.9004751322e+00 3.2917194876e+00 
94300 5.4097253899e+00 -7.0605095110e-05 1.9004751322e+00 -3.2917194876e+00 1.9004751322e+00 3.2917194876e+00 
94400 5.4097253895e+00 -7.0855149485e-05 1.9004751322e+00 -3.2917194876e+00 1.9004751322e+00 3.2917194876e+00 
94500 5.4097253891e+00 -7.0480856689e-05 1.9004769964e+00 -3.2917227164e+00 1.9004769964e+00 3.2917227164e+00 
94600 5.4097253887e+00 -7.0729386245e-05 1.9004769964e+00 -3.2917227164e+00 1.9004769964e+00 3.2917227164e+00 
94700 5.4097253883e+00 -7.0354666694e-05 1.9004788572e+00 -3.2917259394e+00 1.9004788572e+00 3.2917259394e+00 
94800 5.4097253880e+00 -7.0601650275e-05 1.9004788572e+00 -3.2917259394e+00 1.9004788572e+00 3.2917259394e+00 
94900 5.4097253876e+00 -7.0848772381e-05 1.9004788572e+00 -3.2917259394e+00 1.9004788572e+00 3.2917259394e+00 
95000 5.4097253872e+00 -7.0471535642e-05 1.9004807212e+00 -3.2917291679e+00 1.9004807212e+00 3.2917291679e+00 
95100 5.4097253869e+00 -7.0716994887e-05 1.9004807212e+00 -3.2917291679e+00 1.9004807212e+00 3.2917291679e+00 
95200 5.4097253865e+00 -7.0339240808e-05 1.9004825817e+00 -3.2917323904e+00 1.9004825817e+00 3.2917323904e+00 
95300 5.4097253862e+00 -7.0583004476e-05 1.9004825817e+00 -3.2917323904e+00 1.9004825817e+00 3.2917323904e+00 
95400 5.4097253859e+00 -7.0826826901e-05 1.9004825817e+00 -3.2917323904e+00 1.9004825817e+00 3.2917323904e+00 
95500 5.4097253854e+00 -7.0446401094e-05 1.9004844451e+00 -3.2917356179e+00 1.9004844451e+00 3.2917356179e+00 
95600 5.4097253851e+00 -7.0688392141e-05 1.9004844451e+00 -3.2917356179e+00 1.9004844451e+00 3.2917356179e+00 
95700 5.4097253849e+00 -7.0930375559e-05 1.9004844451e+00 -3.2917356179e+00 1.9004844451e+00 3.2917356179e+00 
95800 5.4097253844e+00 -7.0547131316e-05 1.9004863112e+00 -3.2917388501e+00 1.9004863112e+00 3.2917388501e+00 
95900 5.4097253842e+00 -7.0787147191e-05 1.9004863112e+00 -3.2917388501e+00 1.9004863112e+00 3.2917388501e+00 
96000 5.4097253838e+00 -7.0403174972e-05 1.9004881735e+00 -3.2917420758e+00 1.9004881735e+00 3.2917420758e+00 
96100 5.4097253835e+00 -7.0641176837e-05 1.9004881735e+00 -3.2917420758e+00 1.9004881735e+00 3.2917420758e+00 
96200 5.4097253832e+00 -7.0879073998e-05 1.9004881735e+00 -3.2917420758e+00 1.9004881735e+00 3.2917420758e+00 
96300 5.4097253828e+00 -7.0492096188e-05 1.9004900383e+00 -3.2917453056e+00 1.9004900383e+00 3.2917453056e+00 
96400 5.4097253826e+00 -7.0727824527e-05 1.9004900383e+00 -3.2917453056e+00 1.9004900383e+00 3.2917453056e+00 
96500 5.4097253822e+00 -7.0339983362e-05 1.9004918991e+00 -3.2917485286e+00 1.9004918991e+00 3.2917485286e+00 
96600 5.4097253819e+00 -7.0573487596e-05 1.9004918991e+00 -3.2917485286e+00 1.9004918991e+00 3.2917485286e+00 
96700 5.4097253817e+00 -7.0806778796e-05 1.9004918991e+00 -3.2917485286e+00 1.9004918991e+00 3.2917485286e+00 
96800 5.4097253813e+00 -7.0415723535e-05 1.9004937619e+00 -3.2917517551e+00 1.9004937619e+00 3.2917517551e+00 
96900 5.4097253810e+00 -7.0646628157e-05 1.9004937619e+00 -3.2917517551e+00 1.9004937619e+00 3.2917517551e+00 
97000 5.4097253808e+00 -7.0877242204e-05 1.9004937619e+00 -3.2917517551e+00 1.9004937619e+00 3.2917517551e+00 
97100 5.4097253804e+00 -7.0482813030e-05 1.9004956266e+00 -3.2917549849e+00 1.9004956266e+00 3.2917549849e+00 
97200 5.4097253802e+00 -7.0710888612e-05 1.9004956266e+00 -3.2917549849e+00 1.9004956266e+00 3.2917549849e+00 
97300 5.4097253798e+00 -7.0315361699e-05 1.9004974870e+00 -3.2917582071e+00 1.9004974870e+00 3.2917582071e+00 
97400 5.4097253796e+00 -7.0540848609e-05 1.9004974870e+00 -3.2917582071e+00 1.9004974870e+00 3.2917582071e+00 
97500 5.4097253794e+00 -7.0765942506e-05 1.9004974870e+00 -3.2917582071e+00 1.9004974870e+00 3.2917582071e+00 
97600 5.4097253790e+00 -7.0366873294e-05 1.9004993487e+00 -3.2917614318e+00 1.9004993487e+00 3.2917614318e+00 
97700 5.4097253788e+00 -7.0589228696e-05 1.9004993487e+00 -3.2917614318e+00 1.9004993487e+00 3.2917614318e+00 
97800 5.4097253786e+00 -7.0811121053e-05 1.9004993487e+00 -3.2917614318e+00 1.9004993487e+00 3.2917614318e+00 
97900 5.4097253782e+00 -7.0408385052e-05 1.9005012117e+00 -3.2917646585e+00 1.9005012117e+00 3.2917646585e+00 
98000 5.4097253780e+00 -7.0627405640e-05 1.9005012117e+00 -3.2917646585e+00 1.9005012117e+00 3.2917646585e+00 
98100 5.4097253778e+00 -7.0845900980e-05 1.9005012117e+00 -3.2917646585e+00 1.9005012117e+00 3.2917646585e+00 
98200 5.4097253774e+00 -7.0439402095e-05 1.9005030756e+00 -3.2917678868e+00 1.9005030756e+00 3.2917678868e+00 
98300 5.4097253772e+00 -7.0654907877e-05 1.9005030756e+00 -3.2917678868e+00 1.9005030756e+00 3.2917678868e+00 
98400 5.4097253770e+00 -7.0869833650e-05 1.9005030756e+00 -3.2917678868e+00 1.9005030756e+00 3.2917678868e+00 
98500 5.4097253767e+00 -7.0459502350e-05 1.9005049401e+00 -3.2917711163e+00 1.9005049401e+00 3.2917711163e+00 
98600 5.4097253765e+00 -7.0671335719e-05 1.9005049401e+00 -3.2917711163e+00 1.9005049401e+00 3.2917711163e+00 
98700 5.4097253763e+00 -7.0882541564e-05 1.9005049401e+00 -3.2917711163e+00 1.9005049401e+00 3.2917711163e+00 
98800 5.4097253760e+00 -7.0468333680e-05 1.9005068049e+00 -3.2917743462e+00 1.9005068049e+00 3.2917743462e+00 
98900 5.4097253758e+00 -7.0676358959e-05 1.9005068049e+00 -3.2917743462e+00 1.9005068049e+00 3.2917743462e+00 
99000 5.4097253756e+00 -7.0883716355e-05 1.9005068049e+00 -3.2917743462e+00 1.9005068049e+00 3.2917743462e+00 
99100 5.4097253753e+00 -7.0465612195e-05 1.9005086698e+00 -3.2917775763e+00 1.9005086698e+00 3.2917775763e+00 
99200 5.4097253751e+00 -7.0669715415e-05 1.9005086698e+00 -3.2917775763e+00 1.9005086698e+00 3.2917775763e+00 
99300 5.4097253749e+00 -7.0873117484e-05 1.9005086698e+00 -3.2917775763e+00 1.9005086698e+00 3.2917775763e+00 
99400 5.4097253746e+00 -7.0451121049e-05 1.9005105344e+00 -3.2917808058e+00 1.9005105344e+00 3.2917808058e+00 
99500 5.4097253744e+00 -7.0651209757e-05 1.9005105344e+00 -3.2917808058e+00 1.9005105344e+00 3.2917808058e+00 
99600 5.4097253743e+00 -7.0850571062e-05 1.9005105344e+00 -3.2917808058e+00 1.9005105344e+00 3.2917808058e+00 
99700 5.4097253739e+00 -7.0424709234e-05 1.9005123984e+00 -3.2917840344e+00 1.9005123984e+00 3.2917840344e+00 
99800 5.4097253738e+00 -7.0620712227e-05 1.9005123984e+00 -3.2917840344e+00 1.9005123984e+00 3.2917840344e+00 
99900 5.4097253736e+00 -7.0815968458e-05 1.9005123984e+00 -3.2917840344e+00 1.9005123984e+00 3.2917840344e+00 
100000 5.4097253733e+00 -7.0386290055e-05 1.9005142614e+00 -3.2917872613e+00 1.9005142614e+00 3.2917872613e+00 
100100 5.4097253731e+00 -7.0578156956e-05 1.9005142614e+00 -3.2917872613e+00 1.9005142614e+00 3.2917872613e+00 
100200 5.4097253730e+00 -7.0769264441e-05 1.9005142614e+00 -3.2917872613e+00 1.9005142614e+00 3.2917872613e+00 
100300 5.4097253727e+00 -7.0335839111e-05 1.9005161233e+00 -3.2917904861e+00 1.9005161233e+00 3.2917904861e+00 
100400 5.4097253725e+00 -7.0523539745e-05 1.9005161233e+00 -3.2917904861e+00 1.9005161233e+00 3.2917904861e+00 
100500 5.4097253724e+00 -7.0710474763e-05 1.9005161233e+00 -3.2917904861e+00 1.9005161233e+00 3.2917904861e+00 
100600 5.4097253722e+00 -7.0896621943e-05 1.9005161233e+00 -3.2917904861e+00 1.9005161233e+00 3.2917904861e+00 
100700 5.4097253719e+00 -7.0457091397e-05 1.9005179885e+00 -3.2917937167e+00 1.9005179885e+00 3.2917937167e+00 
100800 5.4097253718e+00 -7.0639788454e-05 1.9005179885e+00 -3.2917937167e+00 1.9005179885e+00 3.2917937167e+00 
100900 5.4097253716e+00 -7.0821707432e-05 1.9005179885e+00 -3.2917937167e+00 1.9005179885e+00 3.2917937167e+00 
101000 5.4097253713e+00 -7.0378620159e-05 1.9005198517e+00 -3.2917969439e+00 1.9005198517e+00 3.2917969439e+00 
101100 5.4097253712e+00 -7.0557112761e-05 1.9005198517e+00 -3.2917969439e+00 1.9005198517e+00 3.2917969439e+00 
101200 5.4097253710e+00 -7.0734839401e-05 1.9005198517e+00 -3.2917969439e+00 1.9005198517e+00 3.2917969439e+00 
101300 5.4097253708e+00 -7.0288339192e-05 1.9005217126e+00 -3.2918001672e+00 1.9005217126e+00 3.2918001672e+00 
101400 5.4097253706e+00 -7.0462668786e-05 1.9005217126e+00 -3.2918001672e+00 1.9005217126e+00 3.2918001672e+00 
101500 5.4097253705e+00 -7.0636247380e-05 1.9005217126e+00 -3.2918001672e+00 1.9005217126e+00 3.2918001672e+00 
101600 5.4097253704e+00 -7.0809059120e-05 1.9005217126e+00 -3.2918001672e+00 1.9005217126e+00 3.2918001672e+00 
101700 5.4097253701e+00 -7.0356993685e-05 1.9005235755e+00 -3.2918033938e+00 1.9005235755e+00 3.2918033938e+00 
101800 5.4097253699e+00 -7.0526417442e-05 1.9005235755e+00 -3.2918033938e+00 1.9005235755e+00 3.2918033938e+00 
101900 5.4097253698e+00 -7.0695101267e-05 1.9005235755e+00 -3.2918033938e+00 1.9005235755e+00 3.2918033938e+00 
102000 5.4097253697e+00 -7.0863032509e-05 1.9005235755e+00 -3.2918033938e+00 1.9005235755e+00 3.2918033938e+00 
102100 5.4097253694e+00 -7.0405628404e-05 1.9005254398e+00 -3.2918066228e+00 1.9005254398e+00 3.2918066228e+00 
102200 5.4097253693e+00 -7.0570207194e-05 1.9005254398e+00 -3.2918066228e+00 1.9005254398e+00 3.2918066228e+00 
102300 5.4097253692e+00 -7.0734068126e-05 1.9005254398e+00 -3.2918066228e+00 1.9005254398e+00 3.2918066228e+00 
102400 5.4097253689e+00 -7.0273764919e-05 1.9005273007e+00 -3.2918098460e+00 1.9005273007e+00 3.2918098460e+00 
102500 5.4097253688e+00 -7.0434343457e-05 1.9005273007e+00 -3.2918098460e+00 1.9005273007e+00 3.2918098460e+00 
102600 5.4097253687e+00 -7.0594236374e-05 1.9005273007e+00 -3.2918098460e+00 1.9005273007e+00 3.2918098460e+00 
102700 5.4097253685e+00 -7.0753432596e-05 1.9005273007e+00 -3.2918098460e+00 1.9005273007e+00 3.2918098460e+00 
102800 5.4097253683e+00 -7.0288318035e-05 1.9005291621e+00 -3.2918130701e+00 1.9005291621e+00 3.2918130701e+00 
102900 5.4097253682e+00 -7.0444280736e-05 1.9005291621e+00 -3.2918130701e+00 1.9005291621e+00 3.2918130701e+00 
103000 5.4097253681e+00 -7.0599585458e-05 1.9005291621e+00 -3.2918130701e+00 1.9005291621e+00 3.2918130701e+00 
103100 5.4097253680e+00 -7.0754222771e-05 1.9005291621e+00 -3.2918130701e+00 1.9005291621e+00 3.2918130701e+00 
103200 5.4097253677e+00 -7.0284573523e-05 1.9005310236e+00 -3.2918162942e+00 1.9005310236e+00 3.2918162942e+00 
103300 5.4097253676e+00 -7.0436039986e-05 1.9005310236e+00 -3.2918162942e+00 1.9005310236e+00 3.2918162942e+00 
103400 5.4097253675e+00 -7.0586881458e-05 1.9005310236e+00 -3.2918162942e+00 1.9005310236e+00 3.2918162942e+00 
103500 5.4097253674e+00 -7.0737089388e-05 1.9005310236e+00 -3.2918162942e+00 1.9005310236e+00 3.2918162942e+00 
103600 5.4097253671e+00 -7.0263196864e-05 1.9005328846e+00 -3.2918195175e+00 1.9005328846e+00 3.2918195175e+00 
103700 5.4097253670e+00 -7.0410304194e-05 1.9005328846e+00 -3.2918195175e+00 1.9005328846e+00 3.2918195175e+00 
103800 5.4097253669e+00 -7.0556822166e-05 1.9005328846e+00 -3.2918195175e+00 1.9005328846e+00 3.2918195175e+00 
103900 5.4097253668e+00 -7.0702742582e-05 1.9005328846e+00 -3.2918195175e+00 1.9005328846e+00 3.2918195175e+00 
104000 5.4097253667e+00 -7.0848059676e-05 1.9005328846e+00 -3.2918195175e+00 1.9005328846e+00 3.2918195175e+00 
104100 5.4097253665e+00 -7.0368330990e-05 1.9005347485e+00 -3.2918227459e+00 1.9005347485e+00 3.2918227459e+00 
104200 5.4097253664e+00 -7.0510611654e-05 1.9005347485e+00 -3.2918227459e+00 1.9005347485e+00 3.2918227459e+00 
104300 5.4097253663e+00 -7.0652339001e-05 1.9005347485e+00 -3.2918227459e+00 1.9005347485e+00 3.2918227459e+00 
104400 5.4097253662e+00 -7.0793505997e-05 1.9005347485e+00 -3.2918227459e+00 1.9005347485e+00 3.2918227459e+00 
104500 5.4097253660e+00 -7.0310150388e-05 1.9005366109e+00 -3.2918259718e+00 1.9005366109e+00 3.2918259718e+00 
104600 5.4097253659e+00 -7.0448364769e-05 1.9005366109e+00 -3.2918259718e+00 1.9005366109e+00 3.2918259718e+00 
104700 5.4097253658e+00 -7.0586065312e-05 1.9005366109e+00 -3.2918259718e+00 1.9005366109e+00 3.2918259718e+00 
104800 5.4097253657e+00 -7.0723243949e-05 1.9005366109e+00 -3.2918259718e+00 1.9005366109e+00 3.2918259718e+00 
104900 5.4097253654e+00 -7.0236557316e-05 1.9005384715e+00 -3.2918291944e+00 1.9005384715e+00 3.2918291944e+00 
105000 5.4097253654e+00 -7.0370859133e-05 1.9005384715e+00 -3.2918291944e+00 1.9005384715e+00 3.2918291944e+00 
105100 5.4097253653e+00 -7.0504682666e-05 1.9005384715e+00 -3.2918291944e+00 1.9005384715e+00 3.2918291944e+00 
105200 5.4097253652e+00 -7.0638018992e-05 1.9005384715e+00 -3.2918291944e+00 1.9005384715e+00 3.2918291944e+00 
105300 5.4097253651e+00 -7.0770861404e-05 1.9005384715e+00 -3.2918291944e+00 1.9005384715e+00 3.2918291944e+00 
105400 5.4097253649e+00 -7.0279448249e-05 1.9005403334e+00 -3.2918324193e+00 1.9005403334e+00 3.2918324193e+00 
105500 5.4097253648e+00 -7.0409471578e-05 1.9005403334e+00 -3.2918324193e+00 1.9005403334e+00 3.2918324193e+00 
105600 5.4097253647e+00 -7.0539047078e-05 1.9005403334e+00 -3.2918324193e+00 1.9005403334e+00 3.2918324193e+00 
105700 5.4097253646e+00 -7.0668166177e-05 1.9005403334e+00 -3.2918324193e+00 1.9005403334e+00 3.2918324193e+00 
105800 5.4097253645e+00 -7.0796822334e-05 1.9005403334e+00 -3.2918324193e+00 1.9005403334e+00 3.2918324193e+00 
105900 5.4097253643e+00 -7.0301025474e-05 1.9005421959e+00 -3.2918356453e+00 1.9005421959e+00 3.2918356453e+00 
106000 5.4097253642e+00 -7.0426923730e-05 1.9005421959e+00 -3.2918356453e+00 1.9005421959e+00 3.2918356453e+00 
106100 5.4097253642e+00 -7.0552404756e-05 1.9005421959e+00 -3.2918356453e+00 1.9005421959e+00 3.2918356453e+00 
106200 5.4097253641e+00 -7.0677459613e-05 1.9005421959e+00 -3.2918356453e+00 1.9005421959e+00 3.2918356453e+00 
106300 5.4097253640e+00 -7.0802081306e-05 1.9005421959e+00 -3.2918356453e+00 1.9005421959e+00 3.2918356453e+00 
106400 5.4097253638e+00 -7.0302233323e-05 1.9005440586e+00 -3.2918388716e+00 1.9005440586e+00 3.2918388716e+00 
106500 5.4097253637e+00 -7.0424154925e-05 1.9005440586e+00 -3.2918388716e+00 1.9005440586e+00 3.2918388716e+00 
106600 5.4097253637e+00 -7.0545687319e-05 1.9005440586e+00 -3.2918388716e+00 1.9005440586e+00 3.2918388716e+00 
106700 5.4097253636e+00 -7.0666820886e-05 1.9005440586e+00 -3.2918388716e+00 1.9005440586e+00 3.2918388716e+00 
106800 5.4097253635e+00 -7.0787547922e-05 1.9005440586e+00 -3.2918388716e+00 1.9005440586e+00 3.2918388716e+00 
106900 5.4097253633e+00 -7.0283959771e-05 1.9005459209e+00 -3.2918420971e+00 1.9005459209e+00 3.2918420971e+00 
107000 5.4097253632e+00 -7.0402038183e-05 1.9005459209e+00 -3.2918420971e+00 1.9005459209e+00 3.2918420971e+00 
107100 5.4097253632e+00 -7.0519751783e-05 1.9005459209e+00 -3.2918420971e+00 1.9005459209e+00 3.2918420971e+00 
107200 5.4097253631e+00 -7.0637090201e-05 1.9005459209e+00 -3.2918420971e+00 1.9005459209e+00 3.2918420971e+00 
107300 5.4097253630e+00 -7.0754044991e-05 1.9005459209e+00 -3.2918420971e+00 1.9005459209e+00 3.2918420971e+00 
107400 5.4097253628e+00 -7.0247002591e-05 1.9005477823e+00 -3.2918453212e+00 1.9005477823e+00 3.2918453212e+00 
107500 5.4097253628e+00 -7.0361353267e-05 1.9005477823e+00 -3.2918453212e+00 1.9005477823e+00 3.2918453212e+00 
107600 5.4097253627e+00 -7.0475359851e-05 1.9005477823e+00 -3.2918453212e+00 1.9005477823e+00 3.2918453212e+00 
107700 5.4097253626e+00 -7.0589011298e-05 1.9005477823e+00 -3.2918453212e+00 1.9005477823e+00 3.2918453212e+00 
107800 5.4097253626e+00 -7.0702298505e-05 1.9005477823e+00 -3.2918453212e+00 1.9005477823e+00 3.2918453212e+00 
107900 5.4097253625e+00 -7.0815214034e-05 1.9005477823e+00 -3.2918453212e+00 1.9005477823e+00 3.2918453212e+00 
108000 5.4097253623e+00 -7.0303606313e-05 1.9005496454e+00 -3.2918485481e+00 1.9005496454e+00 3.2918485481e+00 
108100 5.4097253622e+00 -7.0413942240e-05 1.9005496454e+00 -3.2918485481e+00 1.9005496454e+00 3.2918485481e+00 
108200 5.4097253622e+00 -7.0523947837e-05 1.9005496454e+00 -3.2918485481e+00 1.9005496454e+00 3.2918485481e+00 
108300 5.4097253621e+00 -7.0633612311e-05 1.9005496454e+00 -3.2918485481e+00 1.9005496454e+00 3.2918485481e+00 
108400 5.4097253621e+00 -7.0742926683e-05 1.9005496454e+00 -3.2918485481e+00 1.9005496454e+00 3.2918485481e+00 
108500 5.4097253619e+00 -7.0228375760e-05 1.9005515065e+00 -3.2918517716e+00 1.9005515065e+00 3.2918517716e+00 
108600 5.4097253618e+00 -7.0335151528e-05 1.9005515065e+00 -3.2918517716e+00 1.9005515065e+00 3.2918517716e+00 
108700 5.4097253618e+00 -7.0441614708e-05 1.9005515065e+00 -3.2918517716e+00 1.9005515065e+00 3.2918517716e+00 
108800 5.4097253617e+00 -7.0547753506e-05 1.9005515065e+00 -3.2918517716e+00 1.9005515065e+00 3.2918517716e+00 
108900 5.4097253616e+00 -7.0653558056e-05 1.9005515065e+00 -3.2918517716e+00 1.9005515065e+00 3.2918517716e+00 
109000 5.4097253616e+00 -7.0759020145e-05 1.9005515065e+00 -3.2918517716e+00 1.9005515065e+00 3.2918517716e+00 
109100 5.4097253614e+00 -7.0240483824e-05 1.9005533680e+00 -3.2918549959e+00 1.9005533680e+00 3.2918549959e+00 
109200 5.4097253613e+00 -7.0343423978e-05 1.9005533680e+00 -3.2918549959e+00 1.9005533680e+00 3.2918549959e+00 
109300 5.4097253613e+00 -7.0446060735e-05 1.9005533680e+00 -3.2918549959e+00 1.9005533680e+00 3.2918549959e+00 
109400 5.4097253612e+00 -7.0548382610e-05 1.9005533680e+00 -3.2918549959e+00 1.9005533680e+00 3.2918549959e+00 
109500 5.4097253612e+00 -7.0650379974e-05 1.9005533680e+00 -3.2918549959e+00 1.9005533680e+00 3.2918549959e+00 
109600 5.4097253611e+00 -7.0752044788e-05 1.9005533680e+00 -3.2918549959e+00 1.9005533680e+00 3.2918549959e+00 
109700 5.4097253610e+00 -7.0229783227e-05 1.9005552294e+00 -3.2918582198e+00 1.9005552294e+00 3.2918582198e+00 
109800 5.4097253609e+00 -7.0328946459e-05 1.9005552294e+00 -3.2918582198e+00 1.9005552294e+00 3.2918582198e+00 
109900 5.4097253609e+00 -7.0427816441e-05 1.9005552294e+00 -3.2918582198e+00 1.9005552294e+00 3.2918582198e+00 
110000 5.4097253608e+00 -7.0526381707e-05 1.9005552294e+00 -3.2918582198e+00 1.9005552294e+00 3.2918582198e+00 
110100 5.4097253608e+00 -7.0624632626e-05 1.9005552294e+00 -3.2918582198e+00 1.9005552294e+00 3.2918582198e+00 
110200 5.4097253607e+00 -7.0722561146e-05 1.9005552294e+00 -3.2918582198e+00 1.9005552294e+00 3.2918582198e+00 
110300 5.4097253605e+00 -7.0196833860e-05 1.9005570899e+00 -3.2918614425e+00 1.9005570899e+00 3.2918614425e+00 
110400 5.4097253605e+00 -7.0292281821e-05 1.9005570899e+00 -3.2918614425e+00 1.9005570899e+00 3.2918614425e+00 
110500 5.4097253604e+00 -7.0379844107e-05 1.9005570899e+00 -3.2918614425e+00 1.9005570899e+00 3.2918614425e+00 
110500 5.4097253604e+00 -7.0379844107e-05 1.9005570899e+00 -3.2918614425e+00 1.9005570899e+00 3.2918614425e+00 
