# step Hamiltonian StressXX CellTensor1 CellTensor2 CellTensor3 CellTensor4 
0 5.2002286803e+00 1.1305306652e-01 2.0436807272e+00 -3.5397588540e+00 2.0436807272e+00 3.5397588540e+00 
100 5.2130437279e+00 1.2055584844e-01 2.0436807272e+00 -3.5397588540e+00 2.0436807272e+00 3.5397588540e+00 
200 5.2240222051e+00 1.2632080925e-01 2.0407319592e+00 -3.5346514379e+00 2.0407319592e+00 3.5346514379e+00 
300 5.2334387514e+00 1.3097089667e-01 2.0376377549e+00 -3.5292921189e+00 2.0376377549e+00 3.5292921189e+00 
400 5.2413018389e+00 1.3443398056e-01 2.0344248086e+00 -3.5237271327e+00 2.0344248086e+00 3.5237271327e+00 
500 5.2476662789e+00 1.3669012023e-01 2.0311217243e+00 -3.5180060228e+00 2.0311217243e+00 3.5180060228e+00 
600 5.2526328804e+00 1.3778072817e-01 2.0277577625e+00 -3.5121794701e+00 2.0277577625e+00 3.5121794701e+00 
700 5.2563417529e+00 1.3780745183e-01 2.0243613462e+00 -3.5062967045e+00 2.0243613462e+00 3.5062967045e+00 
800 5.2589602768e+00 1.3692054192e-01 2.0209585750e+00 -3.5004029320e+00 2.0209585750e+00 3.5004029320e+00 
900 5.2606681740e+00 1.3529960840e-01 2.0175720082e+00 -3.4945372261e+00 2.0175720082e+00 3.4945372261e+00 
1000 5.2616427475e+00 1.3313175674e-01 2.0142199080e+00 -3.4887312183e+00 2.0142199080e+00 3.4887312183e+00 
1100 5.2620469406e+00 1.3059220584e-01 2.0109160162e+00 -3.4830087099e+00 2.0109160162e+00 3.4830087099e+00 
1200 5.2620216926e+00 1.2783082206e-01 2.0076698090e+00 -3.4773861139e+00 2.0076698090e+00 3.4773861139e+00 
1300 5.2616827269e+00 1.2496561843e-01 2.0044870898e+00 -3.4718734826e+00 2.0044870898e+00 3.4718734826e+00 
1400 5.2611209233e+00 1.2208227821e-01 2.0013707519e+00 -3.4664758271e+00 2.0013707519e+00 3.4664758271e+00 
1500 5.2604050027e+00 1.1923773964e-01 1.9983215612e+00 -3.4611944738e+00 1.9983215612e+00 3.4611944738e+00 
1600 5.2595853022e+00 1.1646577909e-01 1.9953388574e+00 -3.4560282793e+00 1.9953388574e+00 3.4560282793e+00 
1700 5.2586977274e+00 1.1378298583e-01 1.9924211238e+00 -3.4509746164e+00 1.9924211238e+00 3.4509746164e+00 
1800 5.2577673356e+00 1.1119414295e-01 1.9895664118e+00 -3.4460301102e+00 1.9895664118e+00 3.4460301102e+00 
1900 5.2568113026e+00 1.0869657052e-01 1.9867726353e+00 -3.4411911474e+00 1.9867726353e+00 3.4411911474e+00 
2000 5.2558412324e+00 1.0628335508e-01 1.9840377579e+00 -3.4364542008e+00 1.9840377579e+00 3.4364542008e+00 
2100 5.2548648734e+00 1.0394558915e-01 1.9813599003e+00 -3.4318160155e+00 1.9813599003e+00 3.4318160155e+00 
2200 5.2538873507e+00 1.0167382275e-01 1.9787373929e+00 -3.4272736993e+00 1.9787373929e+00 3.4272736993e+00 
2300 5.2529120281e+00 9.9458934189e-02 1.9761687905e+00 -3.4228247494e+00 1.9761687905e+00 3.4228247494e+00 
2400 5.2519410981e+00 9.7292598786e-02 1.9736528667e+00 -3.4184670417e+00 1.9736528667e+00 3.4184670417e+00 
2500 5.2509759804e+00 9.5167494585e-02 1.9711885954e+00 -3.4141987986e+00 1.9711885954e+00 3.4141987986e+00 
2600 5.2500175868e+00 9.3077345994e-02 1.9687751265e+00 -3.4100185478e+00 1.9687751265e+00 3.4100185478e+00 
2700 5.2490664967e+00 9.1016874798e-02 1.9664117612e+00 -3.4059250790e+00 1.9664117612e+00 3.4059250790e+00 
2800 5.2481230717e+00 8.8981704089e-02 1.9640979274e+00 -3.4019174013e+00 1.9640979274e+00 3.4019174013e+00 
2900 5.2471875310e+00 8.6968243547e-02 1.9618331579e+00 -3.3979947055e+00 1.9618331579e+00 3.3979947055e+00 
3000 5.2462600003e+00 8.4973572874e-02 1.9596170712e+00 -3.3941563307e+00 1.9596170712e+00 3.3941563307e+00 
3100 5.2453405437e+00 8.2995332572e-02 1.9574493546e+00 -3.3904017355e+00 1.9574493546e+00 3.3904017355e+00 
3200 5.2444291847e+00 8.1031626400e-02 1.9553297510e+00 -3.3867304743e+00 1.9553297510e+00 3.3867304743e+00 
3300 5.2435259199e+00 7.9080937024e-02 1.9532580467e+00 -3.3831421773e+00 1.9532580467e+00 3.3831421773e+00 
3400 5.2426307277e+00 7.7142054650e-02 1.9512340627e+00 -3.3796365340e+00 1.9512340627e+00 3.3796365340e+00 
3500 5.2417435748e+00 7.5214017633e-02 1.9492576464e+00 -3.3762132806e+00 1.9492576464e+00 3.3762132806e+00 
3600 5.2408644193e+00 7.3296063633e-02 1.9473286659e+00 -3.3728721884e+00 1.9473286659e+00 3.3728721884e+00 
3700 5.2399932145e+00 7.1387589838e-02 1.9454470050e+00 -3.3696130560e+00 1.9454470050e+00 3.3696130560e+00 
3800 5.2391299093e+00 6.9488120781e-02 1.9436125587e+00 -3.3664357020e+00 1.9436125587e+00 3.3664357020e+00 
3900 5.2382744508e+00 6.7597282472e-02 1.9418252308e+00 -3.3633399592e+00 1.9418252308e+00 3.3633399592e+00 
4000 5.2374267837e+00 6.5714781683e-02 1.9400849307e+00 -3.3603256710e+00 1.9400849307e+00 3.3603256710e+00 
4100 5.2365868520e+00 6.3840389427e-02 1.9383915715e+00 -3.3573926868e+00 1.9383915715e+00 3.3573926868e+00 
4200 5.2357545984e+00 6.1973927809e-02 1.9367450687e+00 -3.3545408603e+00 1.9367450687e+00 3.3545408603e+00 
4300 5.2349299651e+00 6.0115259594e-02 1.9351453386e+00 -3.3517700465e+00 1.9351453386e+00 3.3517700465e+00 
4400 5.2341128935e+00 5.8264279924e-02 1.9335922974e+00 -3.3490801001e+00 1.9335922974e+00 3.3490801001e+00 
4500 5.2333033244e+00 5.6420909764e-02 1.9320858601e+00 -3.3464708744e+00 1.9320858601e+00 3.3464708744e+00 
4600 5.2325011978e+00 5.4585090698e-02 1.9306259406e+00 -3.3439422195e+00 1.9306259406e+00 3.3439422195e+00 
4700 5.2317064531e+00 5.2756780805e-02 1.9292124502e+00 -3.3414939824e+00 1.9292124502e+00 3.3414939824e+00 
4800 5.2309190288e+00 5.0935951378e-02 1.9278452979e+00 -3.3391260051e+00 1.9278452979e+00 3.3391260051e+00 
4900 5.2301388623e+00 4.9122584313e-02 1.9265243898e+00 -3.3368381252e+00 1.9265243898e+00 3.3368381252e+00 
5000 5.2293658901e+00 4.7316670016e-02 1.9252496288e+00 -3.3346301744e+00 1.9252496288e+00 3.3346301744e+00 
5100 5.2286000473e+00 4.5518205720e-02 1.9240209146e+00 -3.3325019788e+00 1.9240209146e+00 3.3325019788e+00 
5200 5.2278412677e+00 4.3727194126e-02 1.9228381431e+00 -3.3304533587e+00 1.9228381431e+00 3.3304533587e+00 
5300 5.2270894836e+00 4.1943642289e-02 1.9217012070e+00 -3.3284841276e+00 1.9217012070e+00 3.3284841276e+00 
5400 5.2263446257e+00 4.0167560707e-02 1.9206099950e+00 -3.3265940929e+00 1.9206099950e+00 3.3265940929e+00 
5500 5.2256066231e+00 3.8398962560e-02 1.9195643919e+00 -3.3247830552e+00 1.9195643919e+00 3.3247830552e+00 
5600 5.2248754027e+00 3.6637863071e-02 1.9185642789e+00 -3.3230508087e+00 1.9185642789e+00 3.3230508087e+00 
5700 5.2241508896e+00 3.4884278965e-02 1.9176095332e+00 -3.3213971405e+00 1.9176095332e+00 3.3213971405e+00 
5800 5.2234330069e+00 3.3138228001e-02 1.9167000279e+00 -3.3198218312e+00 1.9167000279e+00 3.3198218312e+00 
5900 5.2227216754e+00 3.1399728567e-02 1.9158356324e+00 -3.3183246543e+00 1.9158356324e+00 3.3183246543e+00 
6000 5.2220168135e+00 2.9668799323e-02 1.9150162122e+00 -3.3169053769e+00 1.9150162122e+00 3.3169053769e+00 
6100 5.2213183375e+00 2.7945458891e-02 1.9142416287e+00 -3.3155637589e+00 1.9142416287e+00 3.3155637589e+00 
6200 5.2206261610e+00 2.6229725570e-02 1.9135117396e+00 -3.3142995539e+00 1.9135117396e+00 3.3142995539e+00 
6300 5.2199401952e+00 2.4521617086e-02 1.9128263987e+00 -3.3131125086e+00 1.9128263987e+00 3.3131125086e+00 
6400 5.2192603488e+00 2.2821150369e-02 1.9121854559e+00 -3.3120023630e+00 1.9121854559e+00 3.3120023630e+00 
6500 5.2185865277e+00 2.1128341346e-02 1.9115887574e+00 -3.3109688509e+00 1.9115887574e+00 3.3109688509e+00 
6600 5.2179186350e+00 1.9443204767e-02 1.9110361458e+00 -3.3100116996e+00 1.9110361458e+00 3.3100116996e+00 
6700 5.2172565715e+00 1.7765754037e-02 1.9105274599e+00 -3.3091306298e+00 1.9105274599e+00 3.3091306298e+00 
6800 5.2166002349e+00 1.6096001076e-02 1.9100625350e+00 -3.3083253563e+00 1.9100625350e+00 3.3083253563e+00 
6900 5.2159495201e+00 1.4433956195e-02 1.9096412030e+00 -3.3075955879e+00 1.9096412030e+00 3.3075955879e+00 
7000 5.2153043194e+00 1.2779627984e-02 1.9092632923e+00 -3.3069410272e+00 1.9092632923e+00 3.3069410272e+00 
7100 5.2146645222e+00 1.1133023228e-02 1.9089286277e+00 -3.3063613712e+00 1.9089286277e+00 3.3063613712e+00 
7200 5.2140300148e+00 9.4941468255e-03 1.9086370312e+00 -3.3058563112e+00 1.9086370312e+00 3.3058563112e+00 
7300 5.2134006811e+00 7.8630017378e-03 1.9083883212e+00 -3.3054255329e+00 1.9083883212e+00 3.3054255329e+00 
7400 5.2127764018e+00 6.2395889439e-03 1.9081823134e+00 -3.3050687168e+00 1.9081823134e+00 3.3050687168e+00 
7500 5.2121570550e+00 4.6239074171e-03 1.9080188201e+00 -3.3047855382e+00 1.9080188201e+00 3.3047855382e+00 
7600 5.2115425159e+00 3.0159541156e-03 1.9078976510e+00 -3.3045756671e+00 1.9078976510e+00 3.3045756671e+00 
7700 5.2109326566e+00 1.4157239903e-03 1.9078186128e+00 -3.3044387691e+00 1.9078186128e+00 3.3044387691e+00 
7800 5.2103273470e+00 -1.7678999352e-04 1.9077815098e+00 -3.3043745046e+00 1.9077815098e+00 3.3043745046e+00 
7900 5.2097264536e+00 -1.7615968174e-03 1.9077861431e+00 -3.3043825299e+00 1.9077861431e+00 3.3043825299e+00 
8000 5.2091298405e+00 -3.3387073570e-03 1.9078323119e+00 -3.3044624966e+00 1.9078323119e+00 3.3044624966e+00 
8100 5.2085373690e+00 -4.9081343138e-03 1.9079198126e+00 -3.3046140522e+00 1.9079198126e+00 3.3046140522e+00 
8200 5.2079488977e+00 -6.4698921327e-03 1.9080484394e+00 -3.3048368403e+00 1.9080484394e+00 3.3048368403e+00 
8300 5.2073642825e+00 -8.0239969056e-03 1.9082179840e+00 -3.3051305002e+00 1.9082179840e+00 3.3051305002e+00 
8400 5.2067833767e+00 -9.5704662606e-03 1.9084282363e+00 -3.3054946679e+00 1.9084282363e+00 3.3054946679e+00 
8500 5.2062060310e+00 -1.1109319239e-02 1.9086789839e+00 -3.3059289754e+00 1.9086789839e+00 3.3059289754e+00 
8600 5.2056320935e+00 -1.2640576157e-02 1.9089700124e+00 -3.3064330517e+00 1.9089700124e+00 3.3064330517e+00 
8700 5.2050614098e+00 -1.4164258459e-02 1.9093011057e+00 -3.3070065220e+00 1.9093011057e+00 3.3070065220e+00 
8800 5.2044938231e+00 -1.5680388558e-02 1.9096720455e+00 -3.3076490086e+00 1.9096720455e+00 3.3076490086e+00 
8900 5.2039291741e+00 -1.7188989657e-02 1.9100826121e+00 -3.3083601308e+00 1.9100826121e+00 3.3083601308e+00 
9000 5.2033673011e+00 -1.8690085576e-02 1.9105325839e+00 -3.3091395048e+00 1.9105325839e+00 3.3091395048e+00 
9100 5.2028080403e+00 -2.0183700551e-02 1.9110217376e+00 -3.3099867439e+00 1.9110217376e+00 3.3099867439e+00 
9200 5.2022512254e+00 -2.1669859035e-02 1.9115498485e+00 -3.3109014589e+00 1.9115498485e+00 3.3109014589e+00 
9300 5.2016966878e+00 -2.3148585490e-02 1.9121166904e+00 -3.3118832578e+00 1.9121166904e+00 3.3118832578e+00 
9400 5.2011442571e+00 -2.4619904161e-02 1.9127220354e+00 -3.3129317461e+00 1.9127220354e+00 3.3129317461e+00 
9500 5.2005937605e+00 -2.6083838855e-02 1.9133656544e+00 -3.3140465269e+00 1.9133656544e+00 3.3140465269e+00 
9600 5.2000450233e+00 -2.7540412705e-02 1.9140473168e+00 -3.3152272007e+00 1.9140473168e+00 3.3152272007e+00 
9700 5.1994978688e+00 -2.8989647931e-02 1.9147667906e+00 -3.3164733659e+00 1.9147667906e+00 3.3164733659e+00 
9800 5.1989521183e+00 -3.0431565594e-02 1.9155238425e+00 -3.3177846183e+00 1.9155238425e+00 3.3177846183e+00 
9900 5.1984075914e+00 -3.1866185348e-02 1.9163182379e+00 -3.3191605515e+00 1.9163182379e+00 3.3191605515e+00 
10000 5.1978641058e+00 -3.3293525187e-02 1.9171497409e+00 -3.3206007570e+00 1.9171497409e+00 3.3206007570e+00 
10100 5.1973214777e+00 -3.4713601185e-02 1.9180181144e+00 -3.3221048239e+00 1.9180181144e+00 3.3221048239e+00 
10200 5.1967795214e+00 -3.6126427245e-02 1.9189231196e+00 -3.3236723390e+00 1.9189231196e+00 3.3236723390e+00 
10300 5.1962380500e+00 -3.7532014828e-02 1.9198645169e+00 -3.3253028869e+00 1.9198645169e+00 3.3253028869e+00 
10400 5.1956968748e+00 -3.8930372703e-02 1.9208420650e+00 -3.3269960498e+00 1.9208420650e+00 3.3269960498e+00 
10500 5.1951558059e+00 -4.0321506680e-02 1.9218555214e+00 -3.3287514078e+00 1.9218555214e+00 3.3287514078e+00 
10600 5.1946146522e+00 -4.1705419350e-02 1.9229046422e+00 -3.3305685384e+00 1.9229046422e+00 3.3305685384e+00 
10700 5.1940732211e+00 -4.3082109834e-02 1.9239891821e+00 -3.3324470166e+00 1.9239891821e+00 3.3324470166e+00 
10800 5.1935313191e+00 -4.4451573518e-02 1.9251088944e+00 -3.3343864152e+00 1.9251088944e+00 3.3343864152e+00 
10900 5.1929887517e+00 -4.5813801809e-02 1.9262635307e+00 -3.3363863040e+00 1.9262635307e+00 3.3363863040e+00 
11000 5.1924453235e+00 -4.7168781886e-02 1.9274528413e+00 -3.3384462504e+00 1.9274528413e+00 3.3384462504e+00 
11100 5.1919008381e+00 -4.8516496454e-02 1.9286765748e+00 -3.3405658189e+00 1.9286765748e+00 3.3405658189e+00 
11200 5.1913550985e+00 -4.9856923514e-02 1.9299344779e+00 -3.3427445710e+00 1.9299344779e+00 3.3427445710e+00 
11300 5.1908079072e+00 -5.1190036128e-02 1.9312262959e+00 -3.3449820654e+00 1.9312262959e+00 3.3449820654e+00 
11400 5.1902590662e+00 -5.2515802201e-02 1.9325517720e+00 -3.3472778574e+00 1.9325517720e+00 3.3472778574e+00 
11500 5.1897083768e+00 -5.3834184265e-02 1.9339106477e+00 -3.3496314991e+00 1.9339106477e+00 3.3496314991e+00 
11600 5.1891556406e+00 -5.5145139279e-02 1.9353026623e+00 -3.3520425391e+00 1.9353026623e+00 3.3520425391e+00 
11700 5.1886006586e+00 -5.6448618432e-02 1.9367275531e+00 -3.3545105224e+00 1.9367275531e+00 3.3545105224e+00 
11800 5.1880432320e+00 -5.7744566961e-02 1.9381850553e+00 -3.3570349902e+00 1.9381850553e+00 3.3570349902e+00 
11900 5.1874831621e+00 -5.9032923980e-02 1.9396749016e+00 -3.3596154798e+00 1.9396749016e+00 3.3596154798e+00 
12000 5.1869202506e+00 -6.0313622323e-02 1.9411968226e+00 -3.3622515242e+00 1.9411968226e+00 3.3622515242e+00 
12100 5.1863542994e+00 -6.1586588396e-02 1.9427505460e+00 -3.3649426521e+00 1.9427505460e+00 3.3649426521e+00 
12200 5.1857851110e+00 -6.2851742048e-02 1.9443357973e+00 -3.3676883879e+00 1.9443357973e+00 3.3676883879e+00 
12300 5.1852124887e+00 -6.4108996452e-02 1.9459522990e+00 -3.3704882510e+00 1.9459522990e+00 3.3704882510e+00 
12400 5.1846362365e+00 -6.5358258005e-02 1.9475997709e+00 -3.3733417560e+00 1.9475997709e+00 3.3733417560e+00 
12500 5.1840561596e+00 -6.6599426242e-02 1.9492779297e+00 -3.3762484123e+00 1.9492779297e+00 3.3762484123e+00 
12600 5.1834720642e+00 -6.7832393766e-02 1.9509864892e+00 -3.3792077241e+00 1.9509864892e+00 3.3792077241e+00 
12700 5.1828837578e+00 -6.9057046197e-02 1.9527251598e+00 -3.3822191900e+00 1.9527251598e+00 3.3822191900e+00 
12800 5.1822910494e+00 -7.0273262137e-02 1.9544936488e+00 -3.3852823028e+00 1.9544936488e+00 3.3852823028e+00 
12900 5.1816937498e+00 -7.1480913154e-02 1.9562916599e+00 -3.3883965493e+00 1.9562916599e+00 3.3883965493e+00 
13000 5.1810916714e+00 -7.2679863783e-02 1.9581188933e+00 -3.3915614104e+00 1.9581188933e+00 3.3915614104e+00 
13100 5.1804846287e+00 -7.3869971548e-02 1.9599750454e+00 -3.3947763603e+00 1.9599750454e+00 3.3947763603e+00 
13200 5.1798724384e+00 -7.5051087002e-02 1.9618598092e+00 -3.3980408668e+00 1.9618598092e+00 3.3980408668e+00 
13300 5.1792549195e+00 -7.6223053785e-02 1.9637728733e+00 -3.4013543910e+00 1.9637728733e+00 3.4013543910e+00 
13400 5.1786318934e+00 -7.7385708705e-02 1.9657139225e+00 -3.4047163869e+00 1.9657139225e+00 3.4047163869e+00 
13500 5.1780031845e+00 -7.8538881833e-02 1.9676826375e+00 -3.4081263013e+00 1.9676826375e+00 3.4081263013e+00 
13600 5.1773686198e+00 -7.9682396629e-02 1.9696786948e+00 -3.4115835739e+00 1.9696786948e+00 3.4115835739e+00 
13700 5.1767280296e+00 -8.0816070073e-02 1.9717017664e+00 -3.4150876368e+00 1.9717017664e+00 3.4150876368e+00 
13800 5.1760812474e+00 -8.1939712826e-02 1.9737515200e+00 -3.4186379141e+00 1.9737515200e+00 3.4186379141e+00 
13900 5.1754281100e+00 -8.3053129411e-02 1.9758276187e+00 -3.4222338226e+00 1.9758276187e+00 3.4222338226e+00 
14000 5.1747684581e+00 -8.4156118405e-02 1.9779297211e+00 -3.4258747707e+00 1.9779297211e+00 3.4258747707e+00 
14100 5.1741021360e+00 -8.5248472661e-02 1.9800574809e+00 -3.4295601588e+00 1.9800574809e+00 3.4295601588e+00 
14200 5.1734289923e+00 -8.6329979538e-02 1.9822105472e+00 -3.4332893791e+00 1.9822105472e+00 3.4332893791e+00 
14300 5.1727488796e+00 -8.7400421163e-02 1.9843885643e+00 -3.4370618154e+00 1.9843885643e+00 3.4370618154e+00 
14400 5.1720616549e+00 -8.8459574696e-02 1.9865911715e+00 -3.4408768429e+00 1.9865911715e+00 3.4408768429e+00 
14500 5.1713671799e+00 -8.9507212620e-02 1.9888180031e+00 -3.4447338283e+00 1.9888180031e+00 3.4447338283e+00 
14600 5.1706653211e+00 -9.0543103054e-02 1.9910686884e+00 -3.4486321297e+00 1.9910686884e+00 3.4486321297e+00 
14700 5.1699559499e+00 -9.1567010068e-02 1.9933428520e+00 -3.4525710965e+00 1.9933428520e+00 3.4525710965e+00 
14800 5.1692389429e+00 -9.2578694026e-02 1.9956401129e+00 -3.4565500692e+00 1.9956401129e+00 3.4565500692e+00 
14900 5.1685141820e+00 -9.3577911937e-02 1.9979600855e+00 -3.4605683796e+00 1.9979600855e+00 3.4605683796e+00 
15000 5.1677815546e+00 -9.4564417820e-02 2.0003023789e+00 -3.4646253507e+00 2.0003023789e+00 3.4646253507e+00 
15100 5.1670409538e+00 -9.5537963087e-02 2.0026665969e+00 -3.4687202965e+00 2.0026665969e+00 3.4687202965e+00 
15200 5.1662922788e+00 -9.6498296929e-02 2.0050523387e+00 -3.4728525224e+00 2.0050523387e+00 3.4728525224e+00 
15300 5.1655354345e+00 -9.7445166722e-02 2.0074591979e+00 -3.4770213249e+00 2.0074591979e+00 3.4770213249e+00 
15400 5.1647703322e+00 -9.8378318438e-02 2.0098867635e+00 -3.4812259919e+00 2.0098867635e+00 3.4812259919e+00 
15500 5.1639968895e+00 -9.9297497062e-02 2.0123346193e+00 -3.4854658025e+00 2.0123346193e+00 3.4854658025e+00 
15600 5.1632150306e+00 -1.0020244702e-01 2.0148023442e+00 -3.4897400273e+00 2.0148023442e+00 3.4897400273e+00 
15700 5.1624246864e+00 -1.0109291263e-01 2.0172895121e+00 -3.4940479285e+00 2.0172895121e+00 3.4940479285e+00 
15800 5.1616257946e+00 -1.0196863849e-01 2.0197956921e+00 -3.4983887596e+00 2.0197956921e+00 3.4983887596e+00 
15900 5.1608182997e+00 -1.0282936999e-01 2.0223204487e+00 -3.5027617664e+00 2.0223204487e+00 3.5027617664e+00 
16000 5.1600021537e+00 -1.0367485372e-01 2.0248633417e+00 -3.5071661862e+00 2.0248633417e+00 3.5071661862e+00 
16100 5.1591773156e+00 -1.0450483789e-01 2.0274239261e+00 -3.5116012486e+00 2.0274239261e+00 3.5116012486e+00 
16200 5.1583437517e+00 -1.0531907283e-01 2.0300017529e+00 -3.5160661754e+00 2.0300017529e+00 3.5160661754e+00 
16300 5.1575014361e+00 -1.0611731141e-01 2.0325963682e+00 -3.5205601810e+00 2.0325963682e+00 3.5205601810e+00 
16400 5.1566503501e+00 -1.0689930947e-01 2.0352073144e+00 -3.5250824725e+00 2.0352073144e+00 3.5250824725e+00 
16500 5.1557904831e+00 -1.0766482629e-01 2.0378341296e+00 -3.5296322499e+00 2.0378341296e+00 3.5296322499e+00 
16600 5.1549218321e+00 -1.0841362498e-01 2.0404763481e+00 -3.5342087065e+00 2.0404763481e+00 3.5342087065e+00 
16700 5.1540444021e+00 -1.0914547295e-01 2.0431335001e+00 -3.5388110289e+00 2.0431335001e+00 3.5388110289e+00 
16800 5.1531582060e+00 -1.0986014232e-01 2.0458051127e+00 -3.5434383976e+00 2.0458051127e+00 3.5434383976e+00 
16900 5.1522632649e+00 -1.1055741031e-01 2.0484907092e+00 -3.5480899872e+00 2.0484907092e+00 3.5480899872e+00 
17000 5.1513596079e+00 -1.1123705966e-01 2.0511898099e+00 -3.5527649666e+00 2.0511898099e+00 3.5527649666e+00 
17100 5.1504472724e+00 -1.1189887902e-01 2.0539019317e+00 -3.5574624995e+00 2.0539019317e+00 3.5574624995e+00 
17200 5.1495263039e+00 -1.1254266335e-01 2.0566265891e+00 -3.5621817446e+00 2.0566265891e+00 3.5621817446e+00 
17300 5.1485967566e+00 -1.1316821424e-01 2.0593632936e+00 -3.5669218558e+00 2.0593632936e+00 3.5669218558e+00 
17400 5.1476586925e+00 -1.1377534031e-01 2.0621115544e+00 -3.5716819830e+00 2.0621115544e+00 3.5716819830e+00 
17500 5.1467121823e+00 -1.1436385754e-01 2.0648708783e+00 -3.5764612722e+00 2.0648708783e+00 3.5764612722e+00 
17600 5.1457573052e+00 -1.1493358958e-01 2.0676407703e+00 -3.5812588659e+00 2.0676407703e+00 3.5812588659e+00 
17700 5.1447941484e+00 -1.1548436808e-01 2.0704207334e+00 -3.5860739034e+00 2.0704207334e+00 3.5860739034e+00 
17800 5.1438228079e+00 -1.1601603297e-01 2.0732102694e+00 -3.5909055213e+00 2.0732102694e+00 3.5909055213e+00 
17900 5.1428433878e+00 -1.1652843275e-01 2.0760088782e+00 -3.5957528541e+00 2.0760088782e+00 3.5957528541e+00 
18000 5.1418560008e+00 -1.1702142475e-01 2.0788160592e+00 -3.6006150342e+00 2.0788160592e+00 3.6006150342e+00 
18100 5.1408607680e+00 -1.1749487537e-01 2.0816313106e+00 -3.6054911926e+00 2.0816313106e+00 3.6054911926e+00 
18200 5.1398578185e+00 -1.1794866031e-01 2.0844541301e+00 -3.6103804594e+00 2.0844541301e+00 3.6103804594e+00 
18300 5.1388472900e+00 -1.1838266477e-01 2.0872840150e+00 -3.6152819638e+00 2.0872840150e+00 3.6152819638e+00 
18400 5.1378293285e+00 -1.1879678367e-01 2.0901204626e+00 -3.6201948352e+00 2.0901204626e+00 3.6201948352e+00 
18500 5.1368040879e+00 -1.1919092177e-01 2.0929629703e+00 -3.6251182028e+00 2.0929629703e+00 3.6251182028e+00 
18600 5.1357717304e+00 -1.1956499388e-01 2.0958110357e+00 -3.6300511969e+00 2.0958110357e+00 3.6300511969e+00 
18700 5.1347324263e+00 -1.1991892496e-01 2.0986641574e+00 -3.6349929487e+00 2.0986641574e+00 3.6349929487e+00 
18800 5.1336863536e+00 -1.2025265027e-01 2.1015218347e+00 -3.6399425909e+00 2.1015218347e+00 3.6399425909e+00 
18900 5.1326336985e+00 -1.2056611542e-01 2.1043835680e+00 -3.6448992583e+00 2.1043835680e+00 3.6448992583e+00 
19000 5.1315746547e+00 -1.2085927653e-01 2.1072488591e+00 -3.6498620882e+00 2.1072488591e+00 3.6498620882e+00 
19100 5.1305094236e+00 -1.2113210020e-01 2.1101172116e+00 -3.6548302205e+00 2.1101172116e+00 3.6548302205e+00 
19200 5.1294382142e+00 -1.2138456366e-01 2.1129881309e+00 -3.6598027985e+00 2.1129881309e+00 3.6598027985e+00 
19300 5.1283612427e+00 -1.2161665472e-01 2.1158611245e+00 -3.6647789694e+00 2.1158611245e+00 3.6647789694e+00 
19400 5.1272787328e+00 -1.2182837183e-01 2.1187357023e+00 -3.6697578843e+00 2.1187357023e+00 3.6697578843e+00 
19500 5.1261909150e+00 -1.2201972408e-01 2.1216113769e+00 -3.6747386987e+00 2.1216113769e+00 3.6747386987e+00 
19600 5.1250980270e+00 -1.2219073115e-01 2.1244876636e+00 -3.6797205734e+00 2.1244876636e+00 3.6797205734e+00 
19700 5.1240003129e+00 -1.2234142333e-01 2.1273640809e+00 -3.6847026742e+00 2.1273640809e+00 3.6847026742e+00 
19800 5.1228980238e+00 -1.2247184143e-01 2.1302401505e+00 -3.6896841730e+00 2.1302401505e+00 3.6896841730e+00 
19900 5.1217914168e+00 -1.2258203674e-01 2.1331153979e+00 -3.6946642476e+00 2.1331153979e+00 3.6946642476e+00 
20000 5.1206807552e+00 -1.2267207099e-01 2.1359893521e+00 -3.6996420823e+00 2.1359893521e+00 3.6996420823e+00 
20100 5.1195663085e+00 -1.2274201618e-01 2.1388615462e+00 -3.7046168684e+00 2.1388615462e+00 3.7046168684e+00 
20200 5.1184483517e+00 -1.2279195459e-01 2.1417315175e+00 -3.7095878044e+00 2.1417315175e+00 3.7095878044e+00 
20300 5.1173271654e+00 -1.2282197860e-01 2.1445988075e+00 -3.7145540965e+00 2.1445988075e+00 3.7145540965e+00 
20400 5.1162030353e+00 -1.2283219056e-01 2.1474629627e+00 -3.7195149588e+00 2.1474629627e+00 3.7195149588e+00 
20500 5.1150762523e+00 -1.2282270273e-01 2.1503235340e+00 -3.7244696136e+00 2.1503235340e+00 3.7244696136e+00 
20600 5.1139471119e+00 -1.2279363708e-01 2.1531800775e+00 -3.7294172921e+00 2.1531800775e+00 3.7294172921e+00 
20700 5.1128159140e+00 -1.2274512516e-01 2.1560321544e+00 -3.7343572342e+00 2.1560321544e+00 3.7343572342e+00 
20800 5.1116829629e+00 -1.2267730793e-01 2.1588793313e+00 -3.7392886893e+00 2.1588793313e+00 3.7392886893e+00 
20900 5.1105485665e+00 -1.2259033562e-01 2.1617211803e+00 -3.7442109161e+00 2.1617211803e+00 3.7442109161e+00 
21000 5.1094130364e+00 -1.2248436750e-01 2.1645572792e+00 -3.7491231835e+00 2.1645572792e+00 3.7491231835e+00 
21100 5.1082766875e+00 -1.2235957178e-01 2.1673872116e+00 -3.7540247702e+00 2.1673872116e+00 3.7540247702e+00 
21200 5.1071398377e+00 -1.2221612534e-01 2.1702105672e+00 -3.7589149655e+00 2.1702105672e+00 3.7589149655e+00 
21300 5.1060028072e+00 -1.2205421356e-01 2.1730269418e+00 -3.7637930695e+00 2.1730269418e+00 3.7637930695e+00 
21400 5.1048659190e+00 -1.2187403015e-01 2.1758359376e+00 -3.7686583929e+00 2.1758359376e+00 3.7686583929e+00 
21500 5.1037294975e+00 -1.2167577689e-01 2.1786371631e+00 -3.7735102577e+00 2.1786371631e+00 3.7735102577e+00 
21600 5.1025938690e+00 -1.2145966345e-01 2.1814302334e+00 -3.7783479975e+00 2.1814302334e+00 3.7783479975e+00 
21700 5.1014593610e+00 -1.2122590715e-01 2.1842147705e+00 -3.7831709571e+00 2.1842147705e+00 3.7831709571e+00 
21800 5.1003263017e+00 -1.2097473275e-01 2.1869904028e+00 -3.7879784934e+00 2.1869904028e+00 3.7879784934e+00 
21900 5.0991950200e+00 -1.2070637221e-01 2.1897567661e+00 -3.7927699751e+00 2.1897567661e+00 3.7927699751e+00 
22000 5.0980658448e+00 -1.2042106447e-01 2.1925135029e+00 -3.7975447833e+00 2.1925135029e+00 3.7975447833e+00 
22100 5.0969391048e+00 -1.2011905521e-01 2.1952602630e+00 -3.8023023114e+00 2.1952602630e+00 3.8023023114e+00 
22200 5.0958151280e+00 -1.1980059658e-01 2.1979967033e+00 -3.8070419650e+00 2.1979967033e+00 3.8070419650e+00 
22300 5.0946942413e+00 -1.1946594702e-01 2.2007224882e+00 -3.8117631629e+00 2.2007224882e+00 3.8117631629e+00 
22400 5.0935767704e+00 -1.1911537093e-01 2.2034372892e+00 -3.8164653362e+00 2.2034372892e+00 3.8164653362e+00 
22500 5.0924630389e+00 -1.1874913850e-01 2.2061407856e+00 -3.8211479293e+00 2.2061407856e+00 3.8211479293e+00 
22600 5.0913533686e+00 -1.1836752541e-01 2.2088326639e+00 -3.8258103994e+00 2.2088326639e+00 3.8258103994e+00 
22700 5.0902480782e+00 -1.1797081256e-01 2.2115126186e+00 -3.8304522170e+00 2.2115126186e+00 3.8304522170e+00 
22800 5.0891474839e+00 -1.1755928588e-01 2.2141803514e+00 -3.8350728658e+00 2.2141803514e+00 3.8350728658e+00 
22900 5.0880518983e+00 -1.1713323600e-01 2.2168355721e+00 -3.8396718429e+00 2.2168355721e+00 3.8396718429e+00 
23000 5.0869616303e+00 -1.1669295802e-01 2.2194779980e+00 -3.8442486588e+00 2.2194779980e+00 3.8442486588e+00 
23100 5.0858769846e+00 -1.1623875125e-01 2.2221073542e+00 -3.8488028374e+00 2.2221073542e+00 3.8488028374e+00 
23200 5.0847982616e+00 -1.1577091892e-01 2.2247233738e+00 -3.8533339163e+00 2.2247233738e+00 3.8533339163e+00 
23300 5.0837257567e+00 -1.1528976796e-01 2.2273257976e+00 -3.8578414464e+00 2.2273257976e+00 3.8578414464e+00 
23400 5.0826597600e+00 -1.1479560868e-01 2.2299143742e+00 -3.8623249926e+00 2.2299143742e+00 3.8623249926e+00 
23500 5.0816005562e+00 -1.1428875452e-01 2.2324888602e+00 -3.8667841332e+00 2.2324888602e+00 3.8667841332e+00 
23600 5.0805484240e+00 -1.1376952181e-01 2.2350490201e+00 -3.8712184603e+00 2.2350490201e+00 3.8712184603e+00 
23700 5.0795036358e+00 -1.1323822944e-01 2.2375946263e+00 -3.8756275794e+00 2.2375946263e+00 3.8756275794e+00 
23800 5.0784664574e+00 -1.1269519865e-01 2.2401254588e+00 -3.8800111100e+00 2.2401254588e+00 3.8800111100e+00 
23900 5.0774371480e+00 -1.1214075272e-01 2.2426413060e+00 -3.8843686851e+00 2.2426413060e+00 3.8843686851e+00 
24000 5.0764159592e+00 -1.1157521672e-01 2.2451419637e+00 -3.8886999514e+00 2.2451419637e+00 3.8886999514e+00 
24100 5.0754031354e+00 -1.1099891722e-01 2.2476272358e+00 -3.8930045690e+00 2.2476272358e+00 3.8930045690e+00 
24200 5.0743989131e+00 -1.1041218204e-01 2.2500969340e+00 -3.8972822117e+00 2.2500969340e+00 3.8972822117e+00 
24300 5.0734035209e+00 -1.0981533998e-01 2.2525508778e+00 -3.9015325670e+00 2.2525508778e+00 3.9015325670e+00 
24400 5.0724171791e+00 -1.0920872053e-01 2.2549888943e+00 -3.9057553354e+00 2.2549888943e+00 3.9057553354e+00 
24500 5.0714400996e+00 -1.0859265362e-01 2.2574108185e+00 -3.9099502312e+00 2.2574108185e+00 3.9099502312e+00 
24600 5.0704724855e+00 -1.0796746937e-01 2.2598164931e+00 -3.9141169819e+00 2.2598164931e+00 3.9141169819e+00 
24700 5.0695145313e+00 -1.0733349780e-01 2.2622057684e+00 -3.9182553280e+00 2.2622057684e+00 3.9182553280e+00 
24800 5.0685664221e+00 -1.0669106858e-01 2.2645785021e+00 -3.9223650233e+00 2.2645785021e+00 3.9223650233e+00 
24900 5.0676283340e+00 -1.0604051077e-01 2.2669345596e+00 -3.9264458347e+00 2.2669345596e+00 3.9264458347e+00 
25000 5.0667004339e+00 -1.0538215258e-01 2.2692738139e+00 -3.9304975419e+00 2.2692738139e+00 3.9304975419e+00 
25100 5.0657828791e+00 -1.0471632111e-01 2.2715961450e+00 -3.9345199375e+00 2.2715961450e+00 3.9345199375e+00 
25200 5.0648758174e+00 -1.0404334208e-01 2.2739014406e+00 -3.9385128266e+00 2.2739014406e+00 3.9385128266e+00 
25300 5.0639793869e+00 -1.0336353964e-01 2.2761895955e+00 -3.9424760270e+00 2.2761895955e+00 3.9424760270e+00 
25400 5.0630937162e+00 -1.0267723605e-01 2.2784605114e+00 -3.9464093689e+00 2.2784605114e+00 3.9464093689e+00 
25500 5.0622189241e+00 -1.0198475154e-01 2.2807140976e+00 -3.9503126946e+00 2.2807140976e+00 3.9503126946e+00 
25600 5.0613551198e+00 -1.0128640401e-01 2.2829502700e+00 -3.9541858588e+00 2.2829502700e+00 3.9541858588e+00 
25700 5.0605024025e+00 -1.0058250882e-01 2.2851689515e+00 -3.9580287279e+00 2.2851689515e+00 3.9580287279e+00 
25800 5.0596608619e+00 -9.9873378600e-02 2.2873700719e+00 -3.9618411802e+00 2.2873700719e+00 3.9618411802e+00 
25900 5.0588305781e+00 -9.9159323003e-02 2.2895535675e+00 -3.9656231056e+00 2.2895535675e+00 3.9656231056e+00 
26000 5.0580116214e+00 -9.8440648519e-02 2.2917193814e+00 -3.9693744053e+00 2.2917193814e+00 3.9693744053e+00 
26100 5.0572040528e+00 -9.7717658265e-02 2.2938674631e+00 -3.9730949920e+00 2.2938674631e+00 3.9730949920e+00 
26200 5.0564079236e+00 -9.6990651797e-02 2.2959977686e+00 -3.9767847892e+00 2.2959977686e+00 3.9767847892e+00 
26300 5.0556232760e+00 -9.6259924925e-02 2.2981102599e+00 -3.9804437316e+00 2.2981102599e+00 3.9804437316e+00 
26400 5.0548501429e+00 -9.5525769528e-02 2.3002049056e+00 -3.9840717643e+00 2.3002049056e+00 3.9840717643e+00 
26500 5.0540885481e+00 -9.4788473390e-02 2.3022816799e+00 -3.9876688429e+00 2.3022816799e+00 3.9876688429e+00 
26600 5.0533385065e+00 -9.4048320032e-02 2.3043405632e+00 -3.9912349334e+00 2.3043405632e+00 3.9912349334e+00 
26700 5.0526000244e+00 -9.3305588562e-02 2.3063815416e+00 -3.9947700118e+00 2.3063815416e+00 3.9947700118e+00 
26800 5.0518730995e+00 -9.2560553522e-02 2.3084046071e+00 -3.9982740639e+00 2.3084046071e+00 3.9982740639e+00 
26900 5.0511577211e+00 -9.1813484753e-02 2.3104097569e+00 -4.0017470852e+00 2.3104097569e+00 4.0017470852e+00 
27000 5.0504538704e+00 -9.1064647266e-02 2.3123969938e+00 -4.0051890806e+00 2.3123969938e+00 4.0051890806e+00 
27100 5.0497615206e+00 -9.0314301117e-02 2.3143663261e+00 -4.0086000641e+00 2.3143663261e+00 4.0086000641e+00 
27200 5.0490806374e+00 -8.9562701298e-02 2.3163177670e+00 -4.0119800588e+00 2.3163177670e+00 4.0119800588e+00 
27300 5.0484111789e+00 -8.8810097630e-02 2.3182513348e+00 -4.0153290965e+00 2.3182513348e+00 4.0153290965e+00 
27400 5.0477530961e+00 -8.8056734670e-02 2.3201670528e+00 -4.0186472175e+00 2.3201670528e+00 4.0186472175e+00 
27500 5.0471063330e+00 -8.7302851624e-02 2.3220649491e+00 -4.0219344703e+00 2.3220649491e+00 4.0219344703e+00 
27600 5.0464708270e+00 -8.6548682268e-02 2.3239450563e+00 -4.0251909115e+00 2.3239450563e+00 4.0251909115e+00 
27700 5.0458465090e+00 -8.5794454883e-02 2.3258074117e+00 -4.0284166056e+00 2.3258074117e+00 4.0284166056e+00 
27800 5.0452333038e+00 -8.5040392192e-02 2.3276520568e+00 -4.0316116247e+00 2.3276520568e+00 4.0316116247e+00 
27900 5.0446311303e+00 -8.4286711308e-02 2.3294790375e+00 -4.0347760480e+00 2.3294790375e+00 4.0347760480e+00 
28000 5.0440399021e+00 -8.3533623696e-02 2.3312884037e+00 -4.0379099622e+00 2.3312884037e+00 4.0379099622e+00 
28100 5.0434595271e+00 -8.2781335136e-02 2.3330802093e+00 -4.0410134606e+00 2.3330802093e+00 4.0410134606e+00 
28200 5.0428899084e+00 -8.2030045696e-02 2.3348545122e+00 -4.0440866434e+00 2.3348545122e+00 4.0440866434e+00 
28300 5.0423309445e+00 -8.1279949717e-02 2.3366113738e+00 -4.0471296169e+00 2.3366113738e+00 4.0471296169e+00 
28400 5.0417825293e+00 -8.0531235802e-02 2.3383508591e+00 -4.0501424939e+00 2.3383508591e+00 4.0501424939e+00 
28500 5.0412445525e+00 -7.9784086817e-02 2.3400730368e+00 -4.0531253931e+00 2.3400730368e+00 4.0531253931e+00 
28600 5.0407169000e+00 -7.9038679895e-02 2.3417779786e+00 -4.0560784390e+00 2.3417779786e+00 4.0560784390e+00 
28700 5.0401994541e+00 -7.8295186447e-02 2.3434657596e+00 -4.0590017614e+00 2.3434657596e+00 4.0590017614e+00 
28800 5.0396920938e+00 -7.7553772190e-02 2.3451364578e+00 -4.0618954956e+00 2.3451364578e+00 4.0618954956e+00 
28900 5.0391946951e+00 -7.6814597167e-02 2.3467901543e+00 -4.0647597819e+00 2.3467901543e+00 4.0647597819e+00 
29000 5.0387071310e+00 -7.6077815788e-02 2.3484269329e+00 -4.0675947657e+00 2.3484269329e+00 4.0675947657e+00 
29100 5.0382292722e+00 -7.5343576867e-02 2.3500468802e+00 -4.0704005966e+00 2.3500468802e+00 4.0704005966e+00 
29200 5.0377609871e+00 -7.4612023669e-02 2.3516500851e+00 -4.0731774291e+00 2.3516500851e+00 4.0731774291e+00 
29300 5.0373021419e+00 -7.3883293966e-02 2.3532366393e+00 -4.0759254216e+00 2.3532366393e+00 4.0759254216e+00 
29400 5.0368526013e+00 -7.3157520092e-02 2.3548066366e+00 -4.0786447366e+00 2.3548066366e+00 4.0786447366e+00 
29500 5.0364122283e+00 -7.2434829010e-02 2.3563601731e+00 -4.0813355407e+00 2.3563601731e+00 4.0813355407e+00 
29600 5.0359808846e+00 -7.1715342380e-02 2.3578973468e+00 -4.0839980037e+00 2.3578973468e+00 4.0839980037e+00 
29700 5.0355584308e+00 -7.0999176632e-02 2.3594182579e+00 -4.0866322990e+00 2.3594182579e+00 4.0866322990e+00 
29800 5.0351447268e+00 -7.0286443044e-02 2.3609230084e+00 -4.0892386034e+00 2.3609230084e+00 4.0892386034e+00 
29900 5.0347396317e+00 -6.9577247825e-02 2.3624117021e+00 -4.0918170965e+00 2.3624117021e+00 4.0918170965e+00 
30000 5.0343430042e+00 -6.8871692201e-02 2.3638844444e+00 -4.0943679610e+00 2.3638844444e+00 4.0943679610e+00 
30100 5.0339547026e+00 -6.8169872505e-02 2.3653413422e+00 -4.0968913820e+00 2.3653413422e+00 4.0968913820e+00 
30200 5.0335745852e+00 -6.7471880266e-02 2.3667825040e+00 -4.0993875474e+00 2.3667825040e+00 4.0993875474e+00 
30300 5.0332025106e+00 -6.6777802312e-02 2.3682080395e+00 -4.1018566473e+00 2.3682080395e+00 4.1018566473e+00 
30400 5.0328383373e+00 -6.6087720859e-02 2.3696180597e+00 -4.1042988739e+00 2.3696180597e+00 4.1042988739e+00 
30500 5.0324819244e+00 -6.5401713620e-02 2.3710126768e+00 -4.1067144217e+00 2.3710126768e+00 4.1067144217e+00 
30600 5.0321331316e+00 -6.4719853900e-02 2.3723920041e+00 -4.1091034866e+00 2.3723920041e+00 4.1091034866e+00 
30700 5.0317918192e+00 -6.4042210709e-02 2.3737561558e+00 -4.1114662667e+00 2.3737561558e+00 4.1114662667e+00 
30800 5.0314578484e+00 -6.3368848859e-02 2.3751052471e+00 -4.1138029613e+00 2.3751052471e+00 4.1138029613e+00 
30900 5.0311310814e+00 -6.2699829078e-02 2.3764393938e+00 -4.1161137712e+00 2.3764393938e+00 4.1161137712e+00 
31000 5.0308113813e+00 -6.2035208111e-02 2.3777587127e+00 -4.1183988985e+00 2.3777587127e+00 4.1183988985e+00 
31100 5.0304986125e+00 -6.1375038838e-02 2.3790633210e+00 -4.1206585464e+00 2.3790633210e+00 4.1206585464e+00 
31200 5.0301926408e+00 -6.0719370376e-02 2.3803533368e+00 -4.1228929192e+00 2.3803533368e+00 4.1228929192e+00 
31300 5.0298933332e+00 -6.0068248190e-02 2.3816288783e+00 -4.1251022219e+00 2.3816288783e+00 4.1251022219e+00 
31400 5.0296005582e+00 -5.9421714205e-02 2.3828900644e+00 -4.1272866604e+00 2.3828900644e+00 4.1272866604e+00 
31500 5.0293141859e+00 -5.8779806914e-02 2.3841370144e+00 -4.1294464411e+00 2.3841370144e+00 4.1294464411e+00 
31600 5.0290340879e+00 -5.8142561487e-02 2.3853698477e+00 -4.1315817710e+00 2.3853698477e+00 4.1315817710e+00 
31700 5.0287601376e+00 -5.7510009880e-02 2.3865886840e+00 -4.1336928575e+00 2.3865886840e+00 4.1336928575e+00 
31800 5.0284922101e+00 -5.6882180943e-02 2.3877936434e+00 -4.1357799083e+00 2.3877936434e+00 4.1357799083e+00 
31900 5.0282301821e+00 -5.6259100527e-02 2.3889848457e+00 -4.1378431313e+00 2.3889848457e+00 4.1378431313e+00 
32000 5.0279739324e+00 -5.5640791589e-02 2.3901624111e+00 -4.1398827344e+00 2.3901624111e+00 4.1398827344e+00 
32100 5.0277233415e+00 -5.5027274301e-02 2.3913264598e+00 -4.1418989258e+00 2.3913264598e+00 4.1418989258e+00 
32200 5.0274782917e+00 -5.4418566146e-02 2.3924771116e+00 -4.1438919133e+00 2.3924771116e+00 4.1438919133e+00 
32300 5.0272386676e+00 -5.3814682030e-02 2.3936144867e+00 -4.1458619046e+00 2.3936144867e+00 4.1458619046e+00 
32400 5.0270043553e+00 -5.3215634372e-02 2.3947387047e+00 -4.1478091074e+00 2.3947387047e+00 4.1478091074e+00 
32500 5.0267752432e+00 -5.2621433211e-02 2.3958498854e+00 -4.1497337288e+00 2.3958498854e+00 4.1497337288e+00 
32600 5.0265512214e+00 -5.2032086301e-02 2.3969481481e+00 -4.1516359756e+00 2.3969481481e+00 4.1516359756e+00 
32700 5.0263321821e+00 -5.1447599203e-02 2.3980336120e+00 -4.1535160542e+00 2.3980336120e+00 4.1535160542e+00 
32800 5.0261180196e+00 -5.0867975384e-02 2.3991063958e+00 -4.1553741702e+00 2.3991063958e+00 4.1553741702e+00 
32900 5.0259086301e+00 -5.0293216303e-02 2.4001666180e+00 -4.1572105291e+00 2.4001666180e+00 4.1572105291e+00 
33000 5.0257039118e+00 -4.9723321505e-02 2.4012143968e+00 -4.1590253352e+00 2.4012143968e+00 4.1590253352e+00 
33100 5.0255037647e+00 -4.9158288704e-02 2.4022498498e+00 -4.1608187924e+00 2.4022498498e+00 4.1608187924e+00 
33200 5.0253080911e+00 -4.8598113871e-02 2.4032730943e+00 -4.1625911038e+00 2.4032730943e+00 4.1625911038e+00 
33300 5.0251167950e+00 -4.8042791316e-02 2.4042842470e+00 -4.1643424716e+00 2.4042842470e+00 4.1643424716e+00 
33400 5.0249297825e+00 -4.7492313768e-02 2.4052834241e+00 -4.1660730971e+00 2.4052834241e+00 4.1660730971e+00 
33500 5.0247469615e+00 -4.6946672455e-02 2.4062707415e+00 -4.1677831810e+00 2.4062707415e+00 4.1677831810e+00 
33600 5.0245682419e+00 -4.6405857178e-02 2.4072463142e+00 -4.1694729225e+00 2.4072463142e+00 4.1694729225e+00 
33700 5.0243935354e+00 -4.5869856387e-02 2.4082102570e+00 -4.1711425204e+00 2.4082102570e+00 4.1711425204e+00 
33800 5.0242227557e+00 -4.5338657250e-02 2.4091626837e+00 -4.1727921719e+00 2.4091626837e+00 4.1727921719e+00 
33900 5.0240558181e+00 -4.4812245724e-02 2.4101037079e+00 -4.1744220736e+00 2.4101037079e+00 4.1744220736e+00 
34000 5.0238926400e+00 -4.4290606623e-02 2.4110334423e+00 -4.1760324208e+00 2.4110334423e+00 4.1760324208e+00 
34100 5.0237331404e+00 -4.3773723679e-02 2.4119519990e+00 -4.1776234077e+00 2.4119519990e+00 4.1776234077e+00 
34200 5.0235772400e+00 -4.3261579609e-02 2.4128594894e+00 -4.1791952272e+00 2.4128594894e+00 4.1791952272e+00 
34300 5.0234248615e+00 -4.2754156171e-02 2.4137560244e+00 -4.1807480713e+00 2.4137560244e+00 4.1807480713e+00 
34400 5.0232759290e+00 -4.2251434224e-02 2.4146417139e+00 -4.1822821306e+00 2.4146417139e+00 4.1822821306e+00 
34500 5.0231303683e+00 -4.1753393785e-02 2.4155166674e+00 -4.1837975945e+00 2.4155166674e+00 4.1837975945e+00 
34600 5.0229881070e+00 -4.1260014078e-02 2.4163809936e+00 -4.1852946513e+00 2.4163809936e+00 4.1852946513e+00 
34700 5.0228490742e+00 -4.0771273593e-02 2.4172348002e+00 -4.1867734878e+00 2.4172348002e+00 4.1867734878e+00 
34800 5.0227132005e+00 -4.0287150126e-02 2.4180781946e+00 -4.1882342896e+00 2.4180781946e+00 4.1882342896e+00 
34900 5.0225804182e+00 -3.9807620835e-02 2.4189112830e+00 -4.1896772412e+00 2.4189112830e+00 4.1896772412e+00 
35000 5.0224506608e+00 -3.9332662278e-02 2.4197341714e+00 -4.1911025256e+00 2.4197341714e+00 4.1911025256e+00 
35100 5.0223238636e+00 -3.8862250462e-02 2.4205469644e+00 -4.1925103245e+00 2.4205469644e+00 4.1925103245e+00 
35200 5.0221999632e+00 -3.8396360881e-02 2.4213497664e+00 -4.1939008183e+00 2.4213497664e+00 4.1939008183e+00 
35300 5.0220788975e+00 -3.7934968557e-02 2.4221426807e+00 -4.1952741861e+00 2.4221426807e+00 4.1952741861e+00 
35400 5.0219606059e+00 -3.7478048077e-02 2.4229258099e+00 -4.1966306057e+00 2.4229258099e+00 4.1966306057e+00 
35500 5.0218450290e+00 -3.7025573627e-02 2.4236992558e+00 -4.1979702533e+00 2.4236992558e+00 4.1979702533e+00 
35600 5.0217321089e+00 -3.6577519031e-02 2.4244631195e+00 -4.1992933040e+00 2.4244631195e+00 4.1992933040e+00 
35700 5.0216217888e+00 -3.6133857778e-02 2.4252175012e+00 -4.2005999316e+00 2.4252175012e+00 4.2005999316e+00 
35800 5.0215140133e+00 -3.5694563055e-02 2.4259625005e+00 -4.2018903082e+00 2.4259625005e+00 4.2018903082e+00 
35900 5.0214087279e+00 -3.5259607778e-02 2.4266982161e+00 -4.2031646049e+00 2.4266982161e+00 4.2031646049e+00 
36000 5.0213058797e+00 -3.4828964615e-02 2.4274247458e+00 -4.2044229913e+00 2.4274247458e+00 4.2044229913e+00 
36100 5.0212054165e+00 -3.4402606018e-02 2.4281421868e+00 -4.2056656355e+00 2.4281421868e+00 4.2056656355e+00 
36200 5.0211072877e+00 -3.3980504242e-02 2.4288506354e+00 -4.2068927045e+00 2.4288506354e+00 4.2068927045e+00 
36300 5.0210114434e+00 -3.3562631373e-02 2.4295501871e+00 -4.2081043636e+00 2.4295501871e+00 4.2081043636e+00 
36400 5.0209178350e+00 -3.3148959344e-02 2.4302409368e+00 -4.2093007772e+00 2.4302409368e+00 4.2093007772e+00 
36500 5.0208264147e+00 -3.2739459965e-02 2.4309229785e+00 -4.2104821080e+00 2.4309229785e+00 4.2104821080e+00 
36600 5.0207371359e+00 -3.2334104932e-02 2.4315964052e+00 -4.2116485173e+00 2.4315964052e+00 4.2116485173e+00 
36700 5.0206499531e+00 -3.1932865852e-02 2.4322613095e+00 -4.2128001653e+00 2.4322613095e+00 4.2128001653e+00 
36800 5.0205648214e+00 -3.1535714258e-02 2.4329177830e+00 -4.2139372108e+00 2.4329177830e+00 4.2139372108e+00 
36900 5.0204816971e+00 -3.1142621627e-02 2.4335659166e+00 -4.2150598111e+00 2.4335659166e+00 4.2150598111e+00 
37000 5.0204005374e+00 -3.0753559389e-02 2.4342058003e+00 -4.2161681222e+00 2.4342058003e+00 4.2161681222e+00 
37100 5.0203213003e+00 -3.0368498949e-02 2.4348375236e+00 -4.2172622991e+00 2.4348375236e+00 4.2172622991e+00 
37200 5.0202439447e+00 -2.9987411695e-02 2.4354611750e+00 -4.2183424949e+00 2.4354611750e+00 4.2183424949e+00 
37300 5.0201684302e+00 -2.9610269011e-02 2.4360768422e+00 -4.2194088619e+00 2.4360768422e+00 4.2194088619e+00 
37400 5.0200947176e+00 -2.9237042288e-02 2.4366846125e+00 -4.2204615508e+00 2.4366846125e+00 4.2204615508e+00 
37500 5.0200227682e+00 -2.8867702935e-02 2.4372845720e+00 -4.2215007112e+00 2.4372845720e+00 4.2215007112e+00 
37600 5.0199525440e+00 -2.8502222391e-02 2.4378768063e+00 -4.2225264911e+00 2.4378768063e+00 4.2225264911e+00 
37700 5.0198840081e+00 -2.8140572129e-02 2.4384614003e+00 -4.2235390376e+00 2.4384614003e+00 4.2235390376e+00 
37800 5.0198171241e+00 -2.7782723668e-02 2.4390384379e+00 -4.2245384961e+00 2.4390384379e+00 4.2245384961e+00 
37900 5.0197518564e+00 -2.7428648577e-02 2.4396080026e+00 -4.2255250111e+00 2.4396080026e+00 4.2255250111e+00 
38000 5.0196881701e+00 -2.7078318488e-02 2.4401701770e+00 -4.2264987257e+00 2.4401701770e+00 4.2264987257e+00 
38100 5.0196260309e+00 -2.6731705097e-02 2.4407250429e+00 -4.2274597816e+00 2.4407250429e+00 4.2274597816e+00 
38200 5.0195654054e+00 -2.6388780169e-02 2.4412726815e+00 -4.2284083195e+00 2.4412726815e+00 4.2284083195e+00 
38300 5.0195062607e+00 -2.6049515549e-02 2.4418131732e+00 -4.2293444786e+00 2.4418131732e+00 4.2293444786e+00 
38400 5.0194485645e+00 -2.5713883163e-02 2.4423465978e+00 -4.2302683971e+00 2.4423465978e+00 4.2302683971e+00 
38500 5.0193922854e+00 -2.5381855020e-02 2.4428730343e+00 -4.2311802118e+00 2.4428730343e+00 4.2311802118e+00 
38600 5.0193373922e+00 -2.5053403222e-02 2.4433925610e+00 -4.2320800585e+00 2.4433925610e+00 4.2320800585e+00 
38700 5.0192838547e+00 -2.4728499961e-02 2.4439052555e+00 -4.2329680714e+00 2.4439052555e+00 4.2329680714e+00 
38800 5.0192316431e+00 -2.4407117527e-02 2.4444111948e+00 -4.2338443839e+00 2.4444111948e+00 4.2338443839e+00 
38900 5.0191807282e+00 -2.4089228310e-02 2.4449104550e+00 -4.2347091281e+00 2.4449104550e+00 4.2347091281e+00 
39000 5.0191310814e+00 -2.3774804798e-02 2.4454031119e+00 -4.2355624348e+00 2.4454031119e+00 4.2355624348e+00 
39100 5.0190826746e+00 -2.3463819585e-02 2.4458892402e+00 -4.2364044336e+00 2.4458892402e+00 4.2364044336e+00 
39200 5.0190354803e+00 -2.3156245371e-02 2.4463689141e+00 -4.2372352533e+00 2.4463689141e+00 4.2372352533e+00 
39300 5.0189894716e+00 -2.2852054960e-02 2.4468422072e+00 -4.2380550210e+00 2.4468422072e+00 4.2380550210e+00 
39400 5.0189446219e+00 -2.2551221267e-02 2.4473091924e+00 -4.2388638631e+00 2.4473091924e+00 4.2388638631e+00 
39500 5.0189009053e+00 -2.2253717316e-02 2.4477699419e+00 -4.2396619046e+00 2.4477699419e+00 4.2396619046e+00 
39600 5.0188582964e+00 -2.1959516239e-02 2.4482245272e+00 -4.2404492695e+00 2.4482245272e+00 4.2404492695e+00 
39700 5.0188167702e+00 -2.1668591283e-02 2.4486730193e+00 -4.2412260806e+00 2.4486730193e+00 4.2412260806e+00 
39800 5.0187763023e+00 -2.1380915804e-02 2.4491154884e+00 -4.2419924596e+00 2.4491154884e+00 4.2419924596e+00 
39900 5.0187368687e+00 -2.1096463271e-02 2.4495520042e+00 -4.2427485271e+00 2.4495520042e+00 4.2427485271e+00 
40000 5.0186984458e+00 -2.0815207267e-02 2.4499826356e+00 -4.2434944026e+00 2.4499826356e+00 4.2434944026e+00 
40100 5.0186610106e+00 -2.0537121484e-02 2.4504074511e+00 -4.2442302045e+00 2.4504074511e+00 4.2442302045e+00 
40200 5.0186245405e+00 -2.0262179732e-02 2.4508265182e+00 -4.2449560501e+00 2.4508265182e+00 4.2449560501e+00 
40300 5.0185890132e+00 -1.9990355931e-02 2.4512399043e+00 -4.2456720557e+00 2.4512399043e+00 4.2456720557e+00 
40400 5.0185544072e+00 -1.9721624113e-02 2.4516476757e+00 -4.2463783365e+00 2.4516476757e+00 4.2463783365e+00 
40500 5.0185207010e+00 -1.9455958425e-02 2.4520498983e+00 -4.2470750065e+00 2.4520498983e+00 4.2470750065e+00 
40600 5.0184878737e+00 -1.9193333126e-02 2.4524466374e+00 -4.2477621789e+00 2.4524466374e+00 4.2477621789e+00 
40700 5.0184559050e+00 -1.8933722587e-02 2.4528379577e+00 -4.2484399655e+00 2.4528379577e+00 4.2484399655e+00 
40800 5.0184247747e+00 -1.8677101291e-02 2.4532239233e+00 -4.2491084775e+00 2.4532239233e+00 4.2491084775e+00 
40900 5.0183944631e+00 -1.8423443832e-02 2.4536045975e+00 -4.2497678246e+00 2.4536045975e+00 4.2497678246e+00 
41000 5.0183649510e+00 -1.8172724918e-02 2.4539800434e+00 -4.2504181159e+00 2.4539800434e+00 4.2504181159e+00 
41100 5.0183362195e+00 -1.7924919365e-02 2.4543503231e+00 -4.2510594593e+00 2.4543503231e+00 4.2510594593e+00 
41200 5.0183082501e+00 -1.7680002103e-02 2.4547154985e+00 -4.2516919615e+00 2.4547154985e+00 4.2516919615e+00 
41300 5.0182810245e+00 -1.7437948168e-02 2.4550756305e+00 -4.2523157285e+00 2.4550756305e+00 4.2523157285e+00 
41400 5.0182545252e+00 -1.7198732711e-02 2.4554307798e+00 -4.2529308651e+00 2.4554307798e+00 4.2529308651e+00 
41500 5.0182287345e+00 -1.6962330988e-02 2.4557810064e+00 -4.2535374753e+00 2.4557810064e+00 4.2535374753e+00 
41600 5.0182036355e+00 -1.6728718369e-02 2.4561263696e+00 -4.2541356620e+00 2.4561263696e+00 4.2541356620e+00 
41700 5.0181792115e+00 -1.6497870329e-02 2.4564669283e+00 -4.2547255270e+00 2.4564669283e+00 4.2547255270e+00 
41800 5.0181554461e+00 -1.6269762453e-02 2.4568027408e+00 -4.2553071713e+00 2.4568027408e+00 4.2553071713e+00 
41900 5.0181323232e+00 -1.6044370434e-02 2.4571338648e+00 -4.2558806949e+00 2.4571338648e+00 4.2558806949e+00 
42000 5.0181098272e+00 -1.5821670076e-02 2.4574603575e+00 -4.2564461969e+00 2.4574603575e+00 4.2564461969e+00 
42100 5.0180879428e+00 -1.5601637286e-02 2.4577822756e+00 -4.2570037752e+00 2.4577822756e+00 4.2570037752e+00 
42200 5.0180666548e+00 -1.5384248082e-02 2.4580996750e+00 -4.2575535271e+00 2.4580996750e+00 4.2575535271e+00 
42300 5.0180459485e+00 -1.5169478588e-02 2.4584126113e+00 -4.2580955488e+00 2.4584126113e+00 4.2580955488e+00 
42400 5.0180258095e+00 -1.4957305035e-02 2.4587211396e+00 -4.2586299354e+00 2.4587211396e+00 4.2586299354e+00 
42500 5.0180062238e+00 -1.4747703763e-02 2.4590253143e+00 -4.2591567814e+00 2.4590253143e+00 4.2591567814e+00 
42600 5.0179871774e+00 -1.4540651217e-02 2.4593251892e+00 -4.2596761801e+00 2.4593251892e+00 4.2596761801e+00 
42700 5.0179686569e+00 -1.4336123950e-02 2.4596208179e+00 -4.2601882240e+00 2.4596208179e+00 4.2601882240e+00 
42800 5.0179506491e+00 -1.4134098622e-02 2.4599122533e+00 -4.2606930048e+00 2.4599122533e+00 4.2606930048e+00 
42900 5.0179331410e+00 -1.3934551998e-02 2.4601995475e+00 -4.2611906131e+00 2.4601995475e+00 4.2611906131e+00 
43000 5.0179161200e+00 -1.3737460952e-02 2.4604827526e+00 -4.2616811386e+00 2.4604827526e+00 4.2616811386e+00 
43100 5.0178995736e+00 -1.3542802465e-02 2.4607619198e+00 -4.2621646704e+00 2.4607619198e+00 4.2621646704e+00 
43200 5.0178834899e+00 -1.3350553625e-02 2.4610370999e+00 -4.2626412963e+00 2.4610370999e+00 4.2626412963e+00 
43300 5.0178678569e+00 -1.3160691626e-02 2.4613083432e+00 -4.2631111036e+00 2.4613083432e+00 4.2631111036e+00 
43400 5.0178526631e+00 -1.2973193770e-02 2.4615756996e+00 -4.2635741784e+00 2.4615756996e+00 4.2635741784e+00 
43500 5.0178378971e+00 -1.2788037468e-02 2.4618392183e+00 -4.2640306062e+00 2.4618392183e+00 4.2640306062e+00 
43600 5.0178235480e+00 -1.2605200237e-02 2.4620989482e+00 -4.2644804715e+00 2.4620989482e+00 4.2644804715e+00 
43700 5.0178096048e+00 -1.2424659704e-02 2.4623549374e+00 -4.2649238579e+00 2.4623549374e+00 4.2649238579e+00 
43800 5.0177960571e+00 -1.2246393602e-02 2.4626072340e+00 -4.2653608483e+00 2.4626072340e+00 4.2653608483e+00 
43900 5.0177828945e+00 -1.2070379776e-02 2.4628558851e+00 -4.2657915246e+00 2.4628558851e+00 4.2657915246e+00 
44000 5.0177701069e+00 -1.1896596177e-02 2.4631009376e+00 -4.2662159680e+00 2.4631009376e+00 4.2662159680e+00 
44100 5.0177576845e+00 -1.1725020867e-02 2.4633424378e+00 -4.2666342588e+00 2.4633424378e+00 4.2666342588e+00 
44200 5.0177456176e+00 -1.1555632019e-02 2.4635804317e+00 -4.2670464763e+00 2.4635804317e+00 4.2670464763e+00 
44300 5.0177338968e+00 -1.1388407914e-02 2.4638149647e+00 -4.2674526993e+00 2.4638149647e+00 4.2674526993e+00 
44400 5.0177225130e+00 -1.1223326945e-02 2.4640460816e+00 -4.2678530055e+00 2.4640460816e+00 4.2678530055e+00 
44500 5.0177114572e+00 -1.1060367617e-02 2.4642738269e+00 -4.2682474720e+00 2.4642738269e+00 4.2682474720e+00 
44600 5.0177007206e+00 -1.0899508546e-02 2.4644982447e+00 -4.2686361749e+00 2.4644982447e+00 4.2686361749e+00 
44700 5.0176902947e+00 -1.0740728460e-02 2.4647193783e+00 -4.2690191897e+00 2.4647193783e+00 4.2690191897e+00 
44800 5.0176801711e+00 -1.0584006200e-02 2.4649372710e+00 -4.2693965909e+00 2.4649372710e+00 4.2693965909e+00 
44900 5.0176703417e+00 -1.0429320720e-02 2.4651519653e+00 -4.2697684523e+00 2.4651519653e+00 4.2697684523e+00 
45000 5.0176607985e+00 -1.0276651089e-02 2.4653635034e+00 -4.2701348470e+00 2.4653635034e+00 4.2701348470e+00 
45100 5.0176515339e+00 -1.0125976490e-02 2.4655719269e+00 -4.2704958472e+00 2.4655719269e+00 4.2704958472e+00 
45200 5.0176425401e+00 -9.9772762204e-03 2.4657772772e+00 -4.2708515243e+00 2.4657772772e+00 4.2708515243e+00 
45300 5.0176338099e+00 -9.8305296940e-03 2.4659795950e+00 -4.2712019490e+00 2.4659795950e+00 4.2712019490e+00 
45400 5.0176253361e+00 -9.6857164403e-03 2.4661789207e+00 -4.2715471912e+00 2.4661789207e+00 4.2715471912e+00 
45500 5.0176171115e+00 -9.5428161060e-03 2.4663752942e+00 -4.2718873201e+00 2.4663752942e+00 4.2718873201e+00 
45600 5.0176091294e+00 -9.4018084551e-03 2.4665687551e+00 -4.2722224042e+00 2.4665687551e+00 4.2722224042e+00 
45700 5.0176013831e+00 -9.2626733696e-03 2.4667593423e+00 -4.2725525109e+00 2.4667593423e+00 4.2725525109e+00 
45800 5.0175938661e+00 -9.1253908502e-03 2.4669470945e+00 -4.2728777073e+00 2.4669470945e+00 4.2728777073e+00 
45900 5.0175865719e+00 -8.9899410169e-03 2.4671320499e+00 -4.2731980595e+00 2.4671320499e+00 4.2731980595e+00 
46000 5.0175794945e+00 -8.8563041095e-03 2.4673142463e+00 -4.2735136329e+00 2.4673142463e+00 4.2735136329e+00 
46100 5.0175726278e+00 -8.7244604884e-03 2.4674937211e+00 -4.2738244923e+00 2.4674937211e+00 4.2738244923e+00 
46200 5.0175659659e+00 -8.5943906350e-03 2.4676705111e+00 -4.2741307015e+00 2.4676705111e+00 4.2741307015e+00 
46300 5.0175595031e+00 -8.4660751526e-03 2.4678446529e+00 -4.2744323240e+00 2.4678446529e+00 4.2744323240e+00 
46400 5.0175532337e+00 -8.3394947664e-03 2.4680161826e+00 -4.2747294221e+00 2.4680161826e+00 4.2747294221e+00 
46500 5.0175471525e+00 -8.2146303250e-03 2.4681851359e+00 -4.2750220579e+00 2.4681851359e+00 4.2750220579e+00 
46600 5.0175412539e+00 -8.0914628000e-03 2.4683515481e+00 -4.2753102923e+00 2.4683515481e+00 4.2753102923e+00 
46700 5.0175355330e+00 -7.9699732875e-03 2.4685154541e+00 -4.2755941858e+00 2.4685154541e+00 4.2755941858e+00 
46800 5.0175299846e+00 -7.8501430078e-03 2.4686768884e+00 -4.2758737981e+00 2.4686768884e+00 4.2758737981e+00 
46900 5.0175246039e+00 -7.7319533065e-03 2.4688358850e+00 -4.2761491884e+00 2.4688358850e+00 4.2761491884e+00 
47000 5.0175193861e+00 -7.6153856552e-03 2.4689924778e+00 -4.2764204150e+00 2.4689924778e+00 4.2764204150e+00 
47100 5.0175143265e+00 -7.5004216512e-03 2.4691466999e+00 -4.2766875355e+00 2.4691466999e+00 4.2766875355e+00 
47200 5.0175094206e+00 -7.3870430191e-03 2.4692985843e+00 -4.2769506071e+00 2.4692985843e+00 4.2769506071e+00 
47300 5.0175046641e+00 -7.2752316104e-03 2.4694481636e+00 -4.2772096860e+00 2.4694481636e+00 4.2772096860e+00 
47400 5.0175000525e+00 -7.1649694045e-03 2.4695954698e+00 -4.2774648279e+00 2.4695954698e+00 4.2774648279e+00 
47500 5.0174955819e+00 -7.0562385089e-03 2.4697405349e+00 -4.2777160879e+00 2.4697405349e+00 4.2777160879e+00 
47600 5.0174912480e+00 -6.9490211600e-03 2.4698833901e+00 -4.2779635204e+00 2.4698833901e+00 4.2779635204e+00 
47700 5.0174870470e+00 -6.8432997229e-03 2.4700240665e+00 -4.2782071791e+00 2.4700240665e+00 4.2782071791e+00 
47800 5.0174829750e+00 -6.7390566927e-03 2.4701625948e+00 -4.2784471172e+00 2.4701625948e+00 4.2784471172e+00 
47900 5.0174790283e+00 -6.6362746941e-03 2.4702990052e+00 -4.2786833869e+00 2.4702990052e+00 4.2786833869e+00 
48000 5.0174752032e+00 -6.5349364822e-03 2.4704333277e+00 -4.2789160403e+00 2.4704333277e+00 4.2789160403e+00 
48100 5.0174714962e+00 -6.4350249429e-03 2.4705655919e+00 -4.2791451286e+00 2.4705655919e+00 4.2791451286e+00 
48200 5.0174679038e+00 -6.3365230930e-03 2.4706958269e+00 -4.2793707022e+00 2.4706958269e+00 4.2793707022e+00 
48300 5.0174644227e+00 -6.2394140807e-03 2.4708240615e+00 -4.2795928112e+00 2.4708240615e+00 4.2795928112e+00 
48400 5.0174610496e+00 -6.1436811856e-03 2.4709503244e+00 -4.2798115049e+00 2.4709503244e+00 4.2798115049e+00 
48500 5.0174577814e+00 -6.0493078197e-03 2.4710746436e+00 -4.2800268321e+00 2.4710746436e+00 4.2800268321e+00 
48600 5.0174546150e+00 -5.9562775268e-03 2.4711970470e+00 -4.2802388410e+00 2.4711970470e+00 4.2802388410e+00 
48700 5.0174515474e+00 -5.8645739834e-03 2.4713175620e+00 -4.2804475791e+00 2.4713175620e+00 4.2804475791e+00 
48800 5.0174485756e+00 -5.7741809983e-03 2.4714362157e+00 -4.2806530933e+00 2.4714362157e+00 4.2806530933e+00 
48900 5.0174456969e+00 -5.6850825135e-03 2.4715530350e+00 -4.2808554302e+00 2.4715530350e+00 4.2808554302e+00 
49000 5.0174429084e+00 -5.5972626039e-03 2.4716680462e+00 -4.2810546355e+00 2.4716680462e+00 4.2810546355e+00 
49100 5.0174402076e+00 -5.5107054775e-03 2.4717812755e+00 -4.2812507544e+00 2.4717812755e+00 4.2812507544e+00 
49200 5.0174375918e+00 -5.4253954756e-03 2.4718927487e+00 -4.2814438316e+00 2.4718927487e+00 4.2814438316e+00 
49300 5.0174350584e+00 -5.3413170731e-03 2.4720024913e+00 -4.2816339113e+00 2.4720024913e+00 4.2816339113e+00 
49400 5.0174326051e+00 -5.2584548781e-03 2.4721105283e+00 -4.2818210369e+00 2.4721105283e+00 4.2818210369e+00 
49500 5.0174302294e+00 -5.1767936324e-03 2.4722168846e+00 -4.2820052515e+00 2.4722168846e+00 4.2820052515e+00 
49600 5.0174279290e+00 -5.0963182114e-03 2.4723215848e+00 -4.2821865975e+00 2.4723215848e+00 4.2821865975e+00 
49700 5.0174257016e+00 -5.0170136242e-03 2.4724246530e+00 -4.2823651168e+00 2.4724246530e+00 4.2823651168e+00 
49800 5.0174235452e+00 -4.9388650132e-03 2.4725261130e+00 -4.2825408508e+00 2.4725261130e+00 4.2825408508e+00 
49900 5.0174214574e+00 -4.8618576547e-03 2.4726259886e+00 -4.2827138404e+00 2.4726259886e+00 4.2827138404e+00 
50000 5.0174194364e+00 -4.7859769583e-03 2.4727243029e+00 -4.2828841257e+00 2.4727243029e+00 4.2828841257e+00 
50100 5.0174174800e+00 -4.7112084672e-03 2.4728210789e+00 -4.2830517467e+00 2.4728210789e+00 4.2830517467e+00 
50200 5.0174155863e+00 -4.6375378578e-03 2.4729163393e+00 -4.2832167426e+00 2.4729163393e+00 4.2832167426e+00 
50300 5.0174137534e+00 -4.5649509398e-03 2.4730101065e+00 -4.2833791521e+00 2.4730101065e+00 4.2833791521e+00 
50400 5.0174119795e+00 -4.4934336560e-03 2.4731024025e+00 -4.2835390134e+00 2.4731024025e+00 4.2835390134e+00 
50500 5.0174102628e+00 -4.4229720822e-03 2.4731932491e+00 -4.2836963644e+00 2.4731932491e+00 4.2836963644e+00 
50600 5.0174086016e+00 -4.3535524267e-03 2.4732826679e+00 -4.2838512423e+00 2.4732826679e+00 4.2838512423e+00 
50700 5.0174069941e+00 -4.2851610306e-03 2.4733706801e+00 -4.2840036838e+00 2.4733706801e+00 4.2840036838e+00 
50800 5.0174054387e+00 -4.2177843673e-03 2.4734573065e+00 -4.2841537252e+00 2.4734573065e+00 4.2841537252e+00 
50900 5.0174039339e+00 -4.1514090420e-03 2.4735425679e+00 -4.2843014023e+00 2.4735425679e+00 4.2843014023e+00 
51000 5.0174024781e+00 -4.0860217919e-03 2.4736264846e+00 -4.2844467504e+00 2.4736264846e+00 4.2844467504e+00 
51100 5.0174010698e+00 -4.0216094859e-03 2.4737090768e+00 -4.2845898042e+00 2.4737090768e+00 4.2845898042e+00 
51200 5.0173997076e+00 -3.9581591236e-03 2.4737903643e+00 -4.2847305983e+00 2.4737903643e+00 4.2847305983e+00 
51300 5.0173983900e+00 -3.8956578360e-03 2.4738703667e+00 -4.2848691664e+00 2.4738703667e+00 4.2848691664e+00 
51400 5.0173971156e+00 -3.8340928842e-03 2.4739491032e+00 -4.2850055420e+00 2.4739491032e+00 4.2850055420e+00 
51500 5.0173958832e+00 -3.7734516598e-03 2.4740265929e+00 -4.2851397582e+00 2.4740265929e+00 4.2851397582e+00 
51600 5.0173946915e+00 -3.7137216838e-03 2.4741028546e+00 -4.2852718474e+00 2.4741028546e+00 4.2852718474e+00 
51700 5.0173935391e+00 -3.6548906070e-03 2.4741779069e+00 -4.2854018417e+00 2.4741779069e+00 4.2854018417e+00 
51800 5.0173924250e+00 -3.5969462088e-03 2.4742517680e+00 -4.2855297728e+00 2.4742517680e+00 4.2855297728e+00 
51900 5.0173913478e+00 -3.5398763972e-03 2.4743244559e+00 -4.2856556720e+00 2.4743244559e+00 4.2856556720e+00 
52000 5.0173903065e+00 -3.4836692083e-03 2.4743959884e+00 -4.2857795700e+00 2.4743959884e+00 4.2857795700e+00 
52100 5.0173892999e+00 -3.4283128057e-03 2.4744663831e+00 -4.2859014971e+00 2.4744663831e+00 4.2859014971e+00 
52200 5.0173883270e+00 -3.3737954800e-03 2.4745356572e+00 -4.2860214834e+00 2.4745356572e+00 4.2860214834e+00 
52300 5.0173873867e+00 -3.3201056484e-03 2.4746038278e+00 -4.2861395583e+00 2.4746038278e+00 4.2861395583e+00 
52400 5.0173864781e+00 -3.2672318544e-03 2.4746709116e+00 -4.2862557510e+00 2.4746709116e+00 4.2862557510e+00 
52500 5.0173856000e+00 -3.2151627665e-03 2.4747369254e+00 -4.2863700902e+00 2.4747369254e+00 4.2863700902e+00 
52600 5.0173847516e+00 -3.1638871784e-03 2.4748018854e+00 -4.2864826041e+00 2.4748018854e+00 4.2864826041e+00 
52700 5.0173839320e+00 -3.1133940082e-03 2.4748658077e+00 -4.2865933208e+00 2.4748658077e+00 4.2865933208e+00 
52800 5.0173831402e+00 -3.0636722977e-03 2.4749287082e+00 -4.2867022677e+00 2.4749287082e+00 4.2867022677e+00 
52900 5.0173823754e+00 -3.0147112117e-03 2.4749906026e+00 -4.2868094720e+00 2.4749906026e+00 4.2868094720e+00 
53000 5.0173816367e+00 -2.9665000379e-03 2.4750515064e+00 -4.2869149604e+00 2.4750515064e+00 4.2869149604e+00 
53100 5.0173809233e+00 -2.9190281854e-03 2.4751114346e+00 -4.2870187592e+00 2.4751114346e+00 4.2870187592e+00 
53200 5.0173802344e+00 -2.8722851851e-03 2.4751704025e+00 -4.2871208945e+00 2.4751704025e+00 4.2871208945e+00 
53300 5.0173795693e+00 -2.8262606882e-03 2.4752284247e+00 -4.2872213919e+00 2.4752284247e+00 4.2872213919e+00 
53400 5.0173789271e+00 -2.7809444657e-03 2.4752855158e+00 -4.2873202766e+00 2.4752855158e+00 4.2873202766e+00 
53500 5.0173783073e+00 -2.7363264083e-03 2.4753416902e+00 -4.2874175736e+00 2.4753416902e+00 4.2874175736e+00 
53600 5.0173777089e+00 -2.6923965249e-03 2.4753969621e+00 -4.2875133073e+00 2.4753969621e+00 4.2875133073e+00 
53700 5.0173771315e+00 -2.6491449422e-03 2.4754513455e+00 -4.2876075020e+00 2.4754513455e+00 4.2876075020e+00 
53800 5.0173765742e+00 -2.6065619043e-03 2.4755048540e+00 -4.2877001815e+00 2.4755048540e+00 4.2877001815e+00 
53900 5.0173760366e+00 -2.5646377716e-03 2.4755575012e+00 -4.2877913692e+00 2.4755575012e+00 4.2877913692e+00 
54000 5.0173755179e+00 -2.5233630201e-03 2.4756093006e+00 -4.2878810884e+00 2.4756093006e+00 4.2878810884e+00 
54100 5.0173750175e+00 -2.4827282406e-03 2.4756602653e+00 -4.2879693617e+00 2.4756602653e+00 4.2879693617e+00 
54200 5.0173745349e+00 -2.4427241383e-03 2.4757104082e+00 -4.2880562118e+00 2.4757104082e+00 4.2880562118e+00 
54300 5.0173740695e+00 -2.4033415316e-03 2.4757597422e+00 -4.2881416608e+00 2.4757597422e+00 4.2881416608e+00 
54400 5.0173736207e+00 -2.3645713517e-03 2.4758082798e+00 -4.2882257304e+00 2.4758082798e+00 4.2882257304e+00 
54500 5.0173731881e+00 -2.3264046413e-03 2.4758560334e+00 -4.2883084422e+00 2.4758560334e+00 4.2883084422e+00 
54600 5.0173727710e+00 -2.2888325545e-03 2.4759030154e+00 -4.2883898173e+00 2.4759030154e+00 4.2883898173e+00 
54700 5.0173723691e+00 -2.2518463552e-03 2.4759492377e+00 -4.2884698767e+00 2.4759492377e+00 4.2884698767e+00 
54800 5.0173719817e+00 -2.2154374171e-03 2.4759947123e+00 -4.2885486409e+00 2.4759947123e+00 4.2885486409e+00 
54900 5.0173716085e+00 -2.1795972222e-03 2.4760394508e+00 -4.2886261302e+00 2.4760394508e+00 4.2886261302e+00 
55000 5.0173712490e+00 -2.1443173604e-03 2.4760834647e+00 -4.2887023646e+00 2.4760834647e+00 4.2887023646e+00 
55100 5.0173709027e+00 -2.1095895286e-03 2.4761267654e+00 -4.2887773636e+00 2.4761267654e+00 4.2887773636e+00 
55200 5.0173705692e+00 -2.0754055296e-03 2.4761693641e+00 -4.2888511467e+00 2.4761693641e+00 4.2888511467e+00 
55300 5.0173702481e+00 -2.0417572715e-03 2.4762112718e+00 -4.2889237330e+00 2.4762112718e+00 4.2889237330e+00 
55400 5.0173699390e+00 -2.0086367670e-03 2.4762524993e+00 -4.2889951412e+00 2.4762524993e+00 4.2889951412e+00 
55500 5.0173696415e+00 -1.9760361321e-03 2.4762930574e+00 -4.2890653899e+00 2.4762930574e+00 4.2890653899e+00 
55600 5.0173693552e+00 -1.9439475857e-03 2.4763329566e+00 -4.2891344973e+00 2.4763329566e+00 4.2891344973e+00 
55700 5.0173690798e+00 -1.9123634482e-03 2.4763722073e+00 -4.2892024814e+00 2.4763722073e+00 4.2892024814e+00 
55800 5.0173688149e+00 -1.8812761412e-03 2.4764108196e+00 -4.2892693599e+00 2.4764108196e+00 4.2892693599e+00 
55900 5.0173685601e+00 -1.8506781864e-03 2.4764488036e+00 -4.2893351501e+00 2.4764488036e+00 4.2893351501e+00 
56000 5.0173683151e+00 -1.8205622047e-03 2.4764861692e+00 -4.2893998694e+00 2.4764861692e+00 4.2893998694e+00 
56100 5.0173680797e+00 -1.7909209150e-03 2.4765229263e+00 -4.2894635345e+00 2.4765229263e+00 4.2894635345e+00 
56200 5.0173678534e+00 -1.7617471342e-03 2.4765590844e+00 -4.2895261620e+00 2.4765590844e+00 4.2895261620e+00 
56300 5.0173676360e+00 -1.7330337752e-03 2.4765946529e+00 -4.2895877686e+00 2.4765946529e+00 4.2895877686e+00 
56400 5.0173674272e+00 -1.7047738468e-03 2.4766296412e+00 -4.2896483701e+00 2.4766296412e+00 4.2896483701e+00 
56500 5.0173672267e+00 -1.6769604528e-03 2.4766640585e+00 -4.2897079826e+00 2.4766640585e+00 4.2897079826e+00 
56600 5.0173670342e+00 -1.6495867904e-03 2.4766979138e+00 -4.2897666217e+00 2.4766979138e+00 4.2897666217e+00 
56700 5.0173668495e+00 -1.6226461502e-03 2.4767312160e+00 -4.2898243028e+00 2.4767312160e+00 4.2898243028e+00 
56800 5.0173666723e+00 -1.5961319147e-03 2.4767639739e+00 -4.2898810412e+00 2.4767639739e+00 4.2898810412e+00 
56900 5.0173665023e+00 -1.5700375576e-03 2.4767961961e+00 -4.2899368516e+00 2.4767961961e+00 4.2899368516e+00 
57000 5.0173663393e+00 -1.5443566429e-03 2.4768278911e+00 -4.2899917490e+00 2.4768278911e+00 4.2899917490e+00 
57100 5.0173661831e+00 -1.5190828239e-03 2.4768590673e+00 -4.2900457477e+00 2.4768590673e+00 4.2900457477e+00 
57200 5.0173660334e+00 -1.4942098427e-03 2.4768897328e+00 -4.2900988620e+00 2.4768897328e+00 4.2900988620e+00 
57300 5.0173658901e+00 -1.4697315286e-03 2.4769198959e+00 -4.2901511060e+00 2.4769198959e+00 4.2901511060e+00 
57400 5.0173657528e+00 -1.4456417980e-03 2.4769495645e+00 -4.2902024935e+00 2.4769495645e+00 4.2902024935e+00 
57500 5.0173656215e+00 -1.4219346526e-03 2.4769787465e+00 -4.2902530382e+00 2.4769787465e+00 4.2902530382e+00 
57600 5.0173654958e+00 -1.3986041795e-03 2.4770074495e+00 -4.2903027533e+00 2.4770074495e+00 4.2903027533e+00 
57700 5.0173653757e+00 -1.3756445494e-03 2.4770356813e+00 -4.2903516522e+00 2.4770356813e+00 4.2903516522e+00 
57800 5.0173652608e+00 -1.3530500164e-03 2.4770634493e+00 -4.2903997478e+00 2.4770634493e+00 4.2903997478e+00 
57900 5.0173651511e+00 -1.3308149166e-03 2.4770907609e+00 -4.2904470529e+00 2.4770907609e+00 4.2904470529e+00 
58000 5.0173650463e+00 -1.3089336675e-03 2.4771176235e+00 -4.2904935801e+00 2.4771176235e+00 4.2904935801e+00 
58100 5.0173649464e+00 -1.2874007671e-03 2.4771440440e+00 -4.2905393419e+00 2.4771440440e+00 4.2905393419e+00 
58200 5.0173648510e+00 -1.2662107927e-03 2.4771700296e+00 -4.2905843503e+00 2.4771700296e+00 4.2905843503e+00 
58300 5.0173647601e+00 -1.2453584004e-03 2.4771955873e+00 -4.2906286175e+00 2.4771955873e+00 4.2906286175e+00 
58400 5.0173646735e+00 -1.2248383241e-03 2.4772207238e+00 -4.2906721552e+00 2.4772207238e+00 4.2906721552e+00 
58500 5.0173645910e+00 -1.2046453744e-03 2.4772454459e+00 -4.2907149750e+00 2.4772454459e+00 4.2907149750e+00 
58600 5.0173645125e+00 -1.1847744380e-03 2.4772697601e+00 -4.2907570885e+00 2.4772697601e+00 4.2907570885e+00 
58700 5.0173644379e+00 -1.1652204767e-03 2.4772936730e+00 -4.2907985070e+00 2.4772936730e+00 4.2907985070e+00 
58800 5.0173643671e+00 -1.1459785266e-03 2.4773171911e+00 -4.2908392414e+00 2.4773171911e+00 4.2908392414e+00 
58900 5.0173642998e+00 -1.1270436969e-03 2.4773403206e+00 -4.2908793028e+00 2.4773403206e+00 4.2908793028e+00 
59000 5.0173642360e+00 -1.1084111695e-03 2.4773630676e+00 -4.2909187020e+00 2.4773630676e+00 4.2909187020e+00 
59100 5.0173641755e+00 -1.0900761979e-03 2.4773854385e+00 -4.2909574494e+00 2.4773854385e+00 4.2909574494e+00 
59200 5.0173641183e+00 -1.0720341065e-03 2.4774074390e+00 -4.2909955555e+00 2.4774074390e+00 4.2909955555e+00 
59300 5.0173640641e+00 -1.0542802892e-03 2.4774290753e+00 -4.2910330305e+00 2.4774290753e+00 4.2910330305e+00 
59400 5.0173640130e+00 -1.0368102094e-03 2.4774503530e+00 -4.2910698846e+00 2.4774503530e+00 4.2910698846e+00 
59500 5.0173639647e+00 -1.0196193984e-03 2.4774712780e+00 -4.2911061278e+00 2.4774712780e+00 4.2911061278e+00 
59600 5.0173639192e+00 -1.0027034550e-03 2.4774918558e+00 -4.2911417697e+00 2.4774918558e+00 4.2911417697e+00 
59700 5.0173638764e+00 -9.8605804440e-04 2.4775120921e+00 -4.2911768199e+00 2.4775120921e+00 4.2911768199e+00 
59800 5.0173638362e+00 -9.6967889760e-04 2.4775319923e+00 -4.2912112881e+00 2.4775319923e+00 4.2912112881e+00 
59900 5.0173637984e+00 -9.5356181037e-04 2.4775515618e+00 -4.2912451834e+00 2.4775515618e+00 4.2912451834e+00 
60000 5.0173637630e+00 -9.3770264250e-04 2.4775708059e+00 -4.2912785151e+00 2.4775708059e+00 4.2912785151e+00 
60100 5.0173637300e+00 -9.2209731698e-04 2.4775897297e+00 -4.2913112922e+00 2.4775897297e+00 4.2913112922e+00 
60200 5.0173636992e+00 -9.0674181918e-04 2.4776083385e+00 -4.2913435235e+00 2.4776083385e+00 4.2913435235e+00 
60300 5.0173636704e+00 -8.9163219604e-04 2.4776266373e+00 -4.2913752179e+00 2.4776266373e+00 4.2913752179e+00 
60400 5.0173636438e+00 -8.7676455523e-04 2.4776446309e+00 -4.2914063839e+00 2.4776446309e+00 4.2914063839e+00 
60500 5.0173636191e+00 -8.6213506441e-04 2.4776623245e+00 -4.2914370300e+00 2.4776623245e+00 4.2914370300e+00 
60600 5.0173635963e+00 -8.4773995038e-04 2.4776797227e+00 -4.2914671645e+00 2.4776797227e+00 4.2914671645e+00 
60700 5.0173635754e+00 -8.3357549831e-04 2.4776968302e+00 -4.2914967957e+00 2.4776968302e+00 4.2914967957e+00 
60800 5.0173635562e+00 -8.1963805095e-04 2.4777136518e+00 -4.2915259315e+00 2.4777136518e+00 4.2915259315e+00 
60900 5.0173635386e+00 -8.0592400787e-04 2.4777301920e+00 -4.2915545801e+00 2.4777301920e+00 4.2915545801e+00 
61000 5.0173635227e+00 -7.9242982466e-04 2.4777464554e+00 -4.2915827490e+00 2.4777464554e+00 4.2915827490e+00 
61100 5.0173635084e+00 -7.7915201219e-04 2.4777624464e+00 -4.2916104462e+00 2.4777624464e+00 4.2916104462e+00 
61200 5.0173634955e+00 -7.6608713581e-04 2.4777781693e+00 -4.2916376791e+00 2.4777781693e+00 4.2916376791e+00 
61300 5.0173634841e+00 -7.5323181465e-04 2.4777936284e+00 -4.2916644551e+00 2.4777936284e+00 4.2916644551e+00 
61400 5.0173634741e+00 -7.4058272082e-04 2.4778088281e+00 -4.2916907817e+00 2.4778088281e+00 4.2916907817e+00 
61500 5.0173634653e+00 -7.2813657869e-04 2.4778237724e+00 -4.2917166661e+00 2.4778237724e+00 4.2917166661e+00 
61600 5.0173634579e+00 -7.1589016417e-04 2.4778384655e+00 -4.2917421152e+00 2.4778384655e+00 4.2917421152e+00 
61700 5.0173634516e+00 -7.0384030394e-04 2.4778529114e+00 -4.2917671362e+00 2.4778529114e+00 4.2917671362e+00 
61800 5.0173634466e+00 -6.9198387478e-04 2.4778671140e+00 -4.2917917359e+00 2.4778671140e+00 4.2917917359e+00 
61900 5.0173634426e+00 -6.8031780280e-04 2.4778810773e+00 -4.2918159211e+00 2.4778810773e+00 4.2918159211e+00 
62000 5.0173634397e+00 -6.6883906276e-04 2.4778948052e+00 -4.2918396984e+00 2.4778948052e+00 4.2918396984e+00 
62100 5.0173634378e+00 -6.5754467737e-04 2.4779083013e+00 -4.2918630743e+00 2.4779083013e+00 4.2918630743e+00 
62200 5.0173634369e+00 -6.4643171658e-04 2.4779215694e+00 -4.2918860554e+00 2.4779215694e+00 4.2918860554e+00 
62300 5.0173634370e+00 -6.3549729688e-04 2.4779346133e+00 -4.2919086480e+00 2.4779346133e+00 4.2919086480e+00 
62400 5.0173634379e+00 -6.2473858065e-04 2.4779474364e+00 -4.2919308584e+00 2.4779474364e+00 4.2919308584e+00 
62500 5.0173634397e+00 -6.1415277546e-04 2.4779600424e+00 -4.2919526926e+00 2.4779600424e+00 4.2919526926e+00 
62600 5.0173634423e+00 -6.0373713341e-04 2.4779724347e+00 -4.2919741567e+00 2.4779724347e+00 4.2919741567e+00 
62700 5.0173634457e+00 -5.9348895044e-04 2.4779846168e+00 -4.2919952567e+00 2.4779846168e+00 4.2919952567e+00 
62800 5.0173634498e+00 -5.8340556574e-04 2.4779965920e+00 -4.2920159984e+00 2.4779965920e+00 4.2920159984e+00 
62900 5.0173634547e+00 -5.7348436101e-04 2.4780083638e+00 -4.2920363876e+00 2.4780083638e+00 4.2920363876e+00 
63000 5.0173634602e+00 -5.6372275990e-04 2.4780199353e+00 -4.2920564300e+00 2.4780199353e+00 4.2920564300e+00 
63100 5.0173634664e+00 -5.5411822734e-04 2.4780313097e+00 -4.2920761312e+00 2.4780313097e+00 4.2920761312e+00 
63200 5.0173634732e+00 -5.4466826889e-04 2.4780424904e+00 -4.2920954966e+00 2.4780424904e+00 4.2920954966e+00 
63300 5.0173634805e+00 -5.3537043017e-04 2.4780534803e+00 -4.2921145317e+00 2.4780534803e+00 4.2921145317e+00 
63400 5.0173634884e+00 -5.2622229621e-04 2.4780642825e+00 -4.2921332417e+00 2.4780642825e+00 4.2921332417e+00 
63500 5.0173634969e+00 -5.1722149084e-04 2.4780749001e+00 -4.2921516320e+00 2.4780749001e+00 4.2921516320e+00 
63600 5.0173635058e+00 -5.0836567611e-04 2.4780853361e+00 -4.2921697076e+00 2.4780853361e+00 4.2921697076e+00 
63700 5.0173635153e+00 -4.9965255171e-04 2.4780955933e+00 -4.2921874736e+00 2.4780955933e+00 4.2921874736e+00 
63800 5.0173635251e+00 -4.9107985433e-04 2.4781056747e+00 -4.2922049351e+00 2.4781056747e+00 4.2922049351e+00 
63900 5.0173635354e+00 -4.8264535714e-04 2.4781155831e+00 -4.2922220969e+00 2.4781155831e+00 4.2922220969e+00 
64000 5.0173635461e+00 -4.7434686917e-04 2.4781253212e+00 -4.2922389639e+00 2.4781253212e+00 4.2922389639e+00 
64100 5.0173635572e+00 -4.6618223480e-04 2.4781348919e+00 -4.2922555408e+00 2.4781348919e+00 4.2922555408e+00 
64200 5.0173635687e+00 -4.5814933314e-04 2.4781442978e+00 -4.2922718323e+00 2.4781442978e+00 4.2922718323e+00 
64300 5.0173635805e+00 -4.5024607752e-04 2.4781535416e+00 -4.2922878431e+00 2.4781535416e+00 4.2922878431e+00 
64400 5.0173635926e+00 -4.4247041494e-04 2.4781626259e+00 -4.2923035776e+00 2.4781626259e+00 4.2923035776e+00 
64500 5.0173636050e+00 -4.3482032554e-04 2.4781715533e+00 -4.2923190403e+00 2.4781715533e+00 4.2923190403e+00 
64600 5.0173636176e+00 -4.2729382202e-04 2.4781803264e+00 -4.2923342356e+00 2.4781803264e+00 4.2923342356e+00 
64700 5.0173636306e+00 -4.1988894920e-04 2.4781889475e+00 -4.2923491678e+00 2.4781889475e+00 4.2923491678e+00 
64800 5.0173636438e+00 -4.1260378343e-04 2.4781974192e+00 -4.2923638412e+00 2.4781974192e+00 4.2923638412e+00 
64900 5.0173636572e+00 -4.0543643214e-04 2.4782057439e+00 -4.2923782600e+00 2.4782057439e+00 4.2923782600e+00 
65000 5.0173636708e+00 -3.9838503326e-04 2.4782139239e+00 -4.2923924282e+00 2.4782139239e+00 4.2923924282e+00 
65100 5.0173636847e+00 -3.9144775483e-04 2.4782219616e+00 -4.2924063500e+00 2.4782219616e+00 4.2924063500e+00 
65200 5.0173636987e+00 -3.8462279440e-04 2.4782298594e+00 -4.2924200293e+00 2.4782298594e+00 4.2924200293e+00 
65300 5.0173637128e+00 -3.7790837865e-04 2.4782376194e+00 -4.2924334701e+00 2.4782376194e+00 4.2924334701e+00 
65400 5.0173637272e+00 -3.7130276282e-04 2.4782452440e+00 -4.2924466762e+00 2.4782452440e+00 4.2924466762e+00 
65500 5.0173637417e+00 -3.6480423033e-04 2.4782527352e+00 -4.2924596514e+00 2.4782527352e+00 4.2924596514e+00 
65600 5.0173637563e+00 -3.5841109224e-04 2.4782600953e+00 -4.2924723995e+00 2.4782600953e+00 4.2924723995e+00 
65700 5.0173637710e+00 -3.5212168686e-04 2.4782673265e+00 -4.2924849242e+00 2.4782673265e+00 4.2924849242e+00 
65800 5.0173637858e+00 -3.4593437924e-04 2.4782744306e+00 -4.2924972290e+00 2.4782744306e+00 4.2924972290e+00 
65900 5.0173638008e+00 -3.3984756078e-04 2.4782814100e+00 -4.2925093176e+00 2.4782814100e+00 4.2925093176e+00 
66000 5.0173638158e+00 -3.3385964878e-04 2.4782882665e+00 -4.2925211934e+00 2.4782882665e+00 4.2925211934e+00 
66100 5.0173638308e+00 -3.2796908597e-04 2.4782950022e+00 -4.2925328600e+00 2.4782950022e+00 4.2925328600e+00 
66200 5.0173638460e+00 -3.2217434015e-04 2.4783016190e+00 -4.2925443206e+00 2.4783016190e+00 4.2925443206e+00 
66300 5.0173638612e+00 -3.1647390374e-04 2.4783081189e+00 -4.2925555788e+00 2.4783081189e+00 4.2925555788e+00 
66400 5.0173638764e+00 -3.1086629336e-04 2.4783145038e+00 -4.2925666377e+00 2.4783145038e+00 4.2925666377e+00 
66500 5.0173638917e+00 -3.0535004944e-04 2.4783207756e+00 -4.2925775007e+00 2.4783207756e+00 4.2925775007e+00 
66600 5.0173639070e+00 -2.9992373584e-04 2.4783269360e+00 -4.2925881709e+00 2.4783269360e+00 4.2925881709e+00 
66700 5.0173639224e+00 -2.9458593942e-04 2.4783329869e+00 -4.2925986514e+00 2.4783329869e+00 4.2925986514e+00 
66800 5.0173639377e+00 -2.8933526968e-04 2.4783389301e+00 -4.2926089454e+00 2.4783389301e+00 4.2926089454e+00 
66900 5.0173639531e+00 -2.8417035837e-04 2.4783447674e+00 -4.2926190558e+00 2.4783447674e+00 4.2926190558e+00 
67000 5.0173639684e+00 -2.7908985912e-04 2.4783505005e+00 -4.2926289858e+00 2.4783505005e+00 4.2926289858e+00 
67100 5.0173639838e+00 -2.7409244708e-04 2.4783561311e+00 -4.2926387382e+00 2.4783561311e+00 4.2926387382e+00 
67200 5.0173639991e+00 -2.6917681854e-04 2.4783616608e+00 -4.2926483160e+00 2.4783616608e+00 4.2926483160e+00 
67300 5.0173640144e+00 -2.6434169059e-04 2.4783670913e+00 -4.2926577220e+00 2.4783670913e+00 4.2926577220e+00 
67400 5.0173640297e+00 -2.5958580076e-04 2.4783724243e+00 -4.2926669590e+00 2.4783724243e+00 4.2926669590e+00 
67500 5.0173640449e+00 -2.5490790667e-04 2.4783776613e+00 -4.2926760298e+00 2.4783776613e+00 4.2926760298e+00 
67600 5.0173640601e+00 -2.5030678573e-04 2.4783828040e+00 -4.2926849371e+00 2.4783828040e+00 4.2926849371e+00 
67700 5.0173640753e+00 -2.4578123473e-04 2.4783878538e+00 -4.2926936836e+00 2.4783878538e+00 4.2926936836e+00 
67800 5.0173640904e+00 -2.4133006961e-04 2.4783928123e+00 -4.2927022719e+00 2.4783928123e+00 4.2927022719e+00 
67900 5.0173641055e+00 -2.3695212503e-04 2.4783976809e+00 -4.2927107047e+00 2.4783976809e+00 4.2927107047e+00 
68000 5.0173641205e+00 -2.3264625416e-04 2.4784024613e+00 -4.2927189846e+00 2.4784024613e+00 4.2927189846e+00 
68100 5.0173641354e+00 -2.2841132828e-04 2.4784071548e+00 -4.2927271139e+00 2.4784071548e+00 4.2927271139e+00 
68200 5.0173641503e+00 -2.2424623653e-04 2.4784117628e+00 -4.2927350952e+00 2.4784117628e+00 4.2927350952e+00 
68300 5.0173641651e+00 -2.2014988557e-04 2.4784162868e+00 -4.2927429310e+00 2.4784162868e+00 4.2927429310e+00 
68400 5.0173641798e+00 -2.1612119933e-04 2.4784207281e+00 -4.2927506236e+00 2.4784207281e+00 4.2927506236e+00 
68500 5.0173641945e+00 -2.1215911866e-04 2.4784250882e+00 -4.2927581755e+00 2.4784250882e+00 4.2927581755e+00 
68600 5.0173642091e+00 -2.0826260109e-04 2.4784293683e+00 -4.2927655889e+00 2.4784293683e+00 4.2927655889e+00 
68700 5.0173642236e+00 -2.0443062054e-04 2.4784335698e+00 -4.2927728661e+00 2.4784335698e+00 4.2927728661e+00 
68800 5.0173642380e+00 -2.0066216703e-04 2.4784376940e+00 -4.2927800094e+00 2.4784376940e+00 4.2927800094e+00 
68900 5.0173642524e+00 -1.9695624640e-04 2.4784417422e+00 -4.2927870210e+00 2.4784417422e+00 4.2927870210e+00 
69000 5.0173642666e+00 -1.9331188009e-04 2.4784457156e+00 -4.2927939031e+00 2.4784457156e+00 4.2927939031e+00 
69100 5.0173642808e+00 -1.8972810483e-04 2.4784496154e+00 -4.2928006579e+00 2.4784496154e+00 4.2928006579e+00 
69200 5.0173642948e+00 -1.8620397240e-04 2.4784534430e+00 -4.2928072874e+00 2.4784534430e+00 4.2928072874e+00 
69300 5.0173643088e+00 -1.8273854936e-04 2.4784571994e+00 -4.2928137938e+00 2.4784571994e+00 4.2928137938e+00 
69400 5.0173643226e+00 -1.7933091685e-04 2.4784608860e+00 -4.2928201791e+00 2.4784608860e+00 4.2928201791e+00 
69500 5.0173643364e+00 -1.7598017030e-04 2.4784645038e+00 -4.2928264453e+00 2.4784645038e+00 4.2928264453e+00 
69600 5.0173643501e+00 -1.7268541919e-04 2.4784680539e+00 -4.2928325944e+00 2.4784680539e+00 4.2928325944e+00 
69700 5.0173643636e+00 -1.6944578685e-04 2.4784715377e+00 -4.2928386283e+00 2.4784715377e+00 4.2928386283e+00 
69800 5.0173643771e+00 -1.6626041020e-04 2.4784749560e+00 -4.2928445491e+00 2.4784749560e+00 4.2928445491e+00 
69900 5.0173643904e+00 -1.6312843951e-04 2.4784783101e+00 -4.2928503585e+00 2.4784783101e+00 4.2928503585e+00 
70000 5.0173644037e+00 -1.6004903824e-04 2.4784816010e+00 -4.2928560586e+00 2.4784816010e+00 4.2928560586e+00 
70100 5.0173644168e+00 -1.5702138275e-04 2.4784848298e+00 -4.2928616510e+00 2.4784848298e+00 4.2928616510e+00 
70200 5.0173644298e+00 -1.5404466211e-04 2.4784879975e+00 -4.2928671375e+00 2.4784879975e+00 4.2928671375e+00 
70300 5.0173644427e+00 -1.5111807792e-04 2.4784911051e+00 -4.2928725201e+00 2.4784911051e+00 4.2928725201e+00 
70400 5.0173644555e+00 -1.4824084404e-04 2.4784941537e+00 -4.2928778004e+00 2.4784941537e+00 4.2928778004e+00 
70500 5.0173644682e+00 -1.4541218646e-04 2.4784971442e+00 -4.2928829802e+00 2.4784971442e+00 4.2928829802e+00 
70600 5.0173644808e+00 -1.4263134303e-04 2.4785000777e+00 -4.2928880611e+00 2.4785000777e+00 4.2928880611e+00 
70700 5.0173644932e+00 -1.3989756333e-04 2.4785029551e+00 -4.2928930449e+00 2.4785029551e+00 4.2928930449e+00 
70800 5.0173645055e+00 -1.3721010841e-04 2.4785057773e+00 -4.2928979331e+00 2.4785057773e+00 4.2928979331e+00 
70900 5.0173645178e+00 -1.3456825066e-04 2.4785085453e+00 -4.2929027274e+00 2.4785085453e+00 4.2929027274e+00 
71000 5.0173645299e+00 -1.3197127360e-04 2.4785112600e+00 -4.2929074295e+00 2.4785112600e+00 4.2929074295e+00 
71100 5.0173645419e+00 -1.2941847168e-04 2.4785139223e+00 -4.2929120407e+00 2.4785139223e+00 4.2929120407e+00 
71200 5.0173645538e+00 -1.2690915016e-04 2.4785165331e+00 -4.2929165628e+00 2.4785165331e+00 4.2929165628e+00 
71300 5.0173645655e+00 -1.2444262484e-04 2.4785190933e+00 -4.2929209971e+00 2.4785190933e+00 4.2929209971e+00 
71400 5.0173645772e+00 -1.2201822199e-04 2.4785216037e+00 -4.2929253453e+00 2.4785216037e+00 4.2929253453e+00 
71500 5.0173645887e+00 -1.1963527812e-04 2.4785240652e+00 -4.2929296088e+00 2.4785240652e+00 4.2929296088e+00 
71600 5.0173646001e+00 -1.1729313982e-04 2.4785264787e+00 -4.2929337890e+00 2.4785264787e+00 4.2929337890e+00 
71700 5.0173646114e+00 -1.1499116361e-04 2.4785288449e+00 -4.2929378873e+00 2.4785288449e+00 4.2929378873e+00 
71800 5.0173646226e+00 -1.1272871579e-04 2.4785311646e+00 -4.2929419052e+00 2.4785311646e+00 4.2929419052e+00 
71900 5.0173646336e+00 -1.1050517225e-04 2.4785334387e+00 -4.2929458441e+00 2.4785334387e+00 4.2929458441e+00 
72000 5.0173646446e+00 -1.0831991835e-04 2.4785356680e+00 -4.2929497053e+00 2.4785356680e+00 4.2929497053e+00 
72100 5.0173646554e+00 -1.0617234875e-04 2.4785378531e+00 -4.2929534901e+00 2.4785378531e+00 4.2929534901e+00 
72200 5.0173646661e+00 -1.0406186727e-04 2.4785399950e+00 -4.2929571999e+00 2.4785399950e+00 4.2929571999e+00 
72300 5.0173646767e+00 -1.0198788675e-04 2.4785420942e+00 -4.2929608359e+00 2.4785420942e+00 4.2929608359e+00 
72400 5.0173646872e+00 -9.9949828886e-05 2.4785441516e+00 -4.2929643994e+00 2.4785441516e+00 4.2929643994e+00 
72500 5.0173646976e+00 -9.7947124104e-05 2.4785461679e+00 -4.2929678918e+00 2.4785461679e+00 4.2929678918e+00 
72600 5.0173647079e+00 -9.5979211431e-05 2.4785481438e+00 -4.2929713141e+00 2.4785481438e+00 4.2929713141e+00 
72700 5.0173647180e+00 -9.4045538345e-05 2.4785500800e+00 -4.2929746677e+00 2.4785500800e+00 4.2929746677e+00 
72800 5.0173647280e+00 -9.2145560655e-05 2.4785519772e+00 -4.2929779537e+00 2.4785519772e+00 4.2929779537e+00 
72900 5.0173647379e+00 -9.0278742355e-05 2.4785538361e+00 -4.2929811734e+00 2.4785538361e+00 4.2929811734e+00 
73000 5.0173647477e+00 -8.8444555515e-05 2.4785556573e+00 -4.2929843278e+00 2.4785556573e+00 4.2929843278e+00 
73100 5.0173647574e+00 -8.6642480143e-05 2.4785574415e+00 -4.2929874181e+00 2.4785574415e+00 4.2929874181e+00 
73200 5.0173647670e+00 -8.4872004067e-05 2.4785591893e+00 -4.2929904455e+00 2.4785591893e+00 4.2929904455e+00 
73300 5.0173647765e+00 -8.3132622814e-05 2.4785609014e+00 -4.2929934109e+00 2.4785609014e+00 4.2929934109e+00 
73400 5.0173647858e+00 -8.1423839489e-05 2.4785625785e+00 -4.2929963156e+00 2.4785625785e+00 4.2929963156e+00 
73500 5.0173647951e+00 -7.9745164660e-05 2.4785642210e+00 -4.2929991606e+00 2.4785642210e+00 4.2929991606e+00 
73600 5.0173648042e+00 -7.8096116247e-05 2.4785658297e+00 -4.2930019470e+00 2.4785658297e+00 4.2930019470e+00 
73700 5.0173648133e+00 -7.6476219406e-05 2.4785674052e+00 -4.2930046757e+00 2.4785674052e+00 4.2930046757e+00 
73800 5.0173648222e+00 -7.4885006415e-05 2.4785689479e+00 -4.2930073478e+00 2.4785689479e+00 4.2930073478e+00 
73900 5.0173648310e+00 -7.3322016579e-05 2.4785704586e+00 -4.2930099644e+00 2.4785704586e+00 4.2930099644e+00 
74000 5.0173648397e+00 -7.1786796109e-05 2.4785719377e+00 -4.2930125263e+00 2.4785719377e+00 4.2930125263e+00 
74100 5.0173648483e+00 -7.0278898026e-05 2.4785733858e+00 -4.2930150345e+00 2.4785733858e+00 4.2930150345e+00 
74200 5.0173648569e+00 -6.9896711760e-05 2.4785733858e+00 -4.2930150345e+00 2.4785733858e+00 4.2930150345e+00 
74300 5.0173648654e+00 -6.9526161814e-05 2.4785733858e+00 -4.2930150345e+00 2.4785733858e+00 4.2930150345e+00 
74400 5.0173648737e+00 -6.9166929157e-05 2.4785733858e+00 -4.2930150345e+00 2.4785733858e+00 4.2930150345e+00 
74500 5.0173648820e+00 -6.8818698308e-05 2.4785733858e+00 -4.2930150345e+00 2.4785733858e+00 4.2930150345e+00 
74600 5.0173648901e+00 -6.8481157507e-05 2.4785733858e+00 -4.2930150345e+00 2.4785733858e+00 4.2930150345e+00 
74700 5.0173648982e+00 -6.8153998853e-05 2.4785733858e+00 -4.2930150345e+00 2.4785733858e+00 4.2930150345e+00 
74800 5.0173649061e+00 -6.7836918455e-05 2.4785733858e+00 -4.2930150345e+00 2.4785733858e+00 4.2930150345e+00 
74900 5.0173649140e+00 -6.7529616559e-05 2.4785733858e+00 -4.2930150345e+00 2.4785733858e+00 4.2930150345e+00 
75000 5.0173649217e+00 -6.7231797664e-05 2.4785733858e+00 -4.2930150345e+00 2.4785733858e+00 4.2930150345e+00 
75100 5.0173649294e+00 -6.6943170634e-05 2.4785733858e+00 -4.2930150345e+00 2.4785733858e+00 4.2930150345e+00 
75200 5.0173649369e+00 -6.6663448801e-05 2.4785733858e+00 -4.2930150345e+00 2.4785733858e+00 4.2930150345e+00 
75300 5.0173649444e+00 -6.6392350049e-05 2.4785733858e+00 -4.2930150345e+00 2.4785733858e+00 4.2930150345e+00 
75400 5.0173649517e+00 -6.6129596902e-05 2.4785733858e+00 -4.2930150345e+00 2.4785733858e+00 4.2930150345e+00 
75500 5.0173649590e+00 -6.5874916593e-05 2.4785733858e+00 -4.2930150345e+00 2.4785733858e+00 4.2930150345e+00 
75600 5.0173649661e+00 -6.5628041132e-05 2.4785733858e+00 -4.2930150345e+00 2.4785733858e+00 4.2930150345e+00 
75700 5.0173649732e+00 -6.5388707363e-05 2.4785733858e+00 -4.2930150345e+00 2.4785733858e+00 4.2930150345e+00 
75800 5.0173649802e+00 -6.5156657012e-05 2.4785733858e+00 -4.2930150345e+00 2.4785733858e+00 4.2930150345e+00 
75900 5.0173649870e+00 -6.4931636730e-05 2.4785733858e+00 -4.2930150345e+00 2.4785733858e+00 4.2930150345e+00 
76000 5.0173649938e+00 -6.4713398130e-05 2.4785733858e+00 -4.2930150345e+00 2.4785733858e+00 4.2930150345e+00 
76100 5.0173650005e+00 -6.4501697814e-05 2.4785733858e+00 -4.2930150345e+00 2.4785733858e+00 4.2930150345e+00 
76200 5.0173650071e+00 -6.4296297396e-05 2.4785733858e+00 -4.2930150345e+00 2.4785733858e+00 4.2930150345e+00 
76300 5.0173650136e+00 -6.4096963518e-05 2.4785733858e+00 -4.2930150345e+00 2.4785733858e+00 4.2930150345e+00 
76400 5.0173650201e+00 -6.3903467862e-05 2.4785733858e+00 -4.2930150345e+00 2.4785733858e+00 4.2930150345e+00 
76500 5.0173650264e+00 -6.3715587151e-05 2.4785733858e+00 -4.2930150345e+00 2.4785733858e+00 4.2930150345e+00 
76600 5.0173650327e+00 -6.3533103156e-05 2.4785733858e+00 -4.2930150345e+00 2.4785733858e+00 4.2930150345e+00 
76700 5.0173650389e+00 -6.3355802682e-05 2.4785733858e+00 -4.2930150345e+00 2.4785733858e+00 4.2930150345e+00 
76800 5.0173650450e+00 -6.3183477561e-05 2.4785733858e+00 -4.2930150345e+00 2.4785733858e+00 4.2930150345e+00 
76900 5.0173650510e+00 -6.3015924642e-05 2.4785733858e+00 -4.2930150345e+00 2.4785733858e+00 4.2930150345e+00 
77000 5.0173650569e+00 -6.2852945763e-05 2.4785733858e+00 -4.2930150345e+00 2.4785733858e+00 4.2930150345e+00 
77100 5.0173650627e+00 -6.2694347732e-05 2.4785733858e+00 -4.2930150345e+00 2.4785733858e+00 4.2930150345e+00 
77200 5.0173650685e+00 -6.2539942304e-05 2.4785733858e+00 -4.2930150345e+00 2.4785733858e+00 4.2930150345e+00 
77300 5.0173650742e+00 -6.2389546140e-05 2.4785733858e+00 -4.2930150345e+00 2.4785733858e+00 4.2930150345e+00 
77400 5.0173650798e+00 -6.2242980781e-05 2.4785733858e+00 -4.2930150345e+00 2.4785733858e+00 4.2930150345e+00 
77500 5.0173650853e+00 -6.2100072607e-05 2.4785733858e+00 -4.2930150345e+00 2.4785733858e+00 4.2930150345e+00 
77600 5.0173650908e+00 -6.1960652792e-05 2.4785733858e+00 -4.2930150345e+00 2.4785733858e+00 4.2930150345e+00 
77700 5.0173650962e+00 -6.1824557268e-05 2.4785733858e+00 -4.2930150345e+00 2.4785733858e+00 4.2930150345e+00 
77800 5.0173651015e+00 -6.1691626673e-05 2.4785733858e+00 -4.2930150345e+00 2.4785733858e+00 4.2930150345e+00 
77900 5.0173651067e+00 -6.1561706301e-05 2.4785733858e+00 -4.2930150345e+00 2.4785733858e+00 4.2930150345e+00 
78000 5.0173651119e+00 -6.1434646053e-05 2.4785733858e+00 -4.2930150345e+00 2.4785733858e+00 4.2930150345e+00 
78100 5.0173651170e+00 -6.1310300379e-05 2.4785733858e+00 -4.2930150345e+00 2.4785733858e+00 4.2930150345e+00 
78200 5.0173651220e+00 -6.1188528226e-05 2.4785733858e+00 -4.2930150345e+00 2.4785733858e+00 4.2930150345e+00 
78300 5.0173651269e+00 -6.1069192979e-05 2.4785733858e+00 -4.2930150345e+00 2.4785733858e+00 4.2930150345e+00 
78400 5.0173651318e+00 -6.0952162397e-05 2.4785733858e+00 -4.2930150345e+00 2.4785733858e+00 4.2930150345e+00 
78500 5.0173651366e+00 -6.0837308554e-05 2.4785733858e+00 -4.2930150345e+00 2.4785733858e+00 4.2930150345e+00 
78600 5.0173651414e+00 -6.0724507779e-05 2.4785733858e+00 -4.2930150345e+00 2.4785733858e+00 4.2930150345e+00 
78700 5.0173651460e+00 -6.0613640582e-05 2.4785733858e+00 -4.2930150345e+00 2.4785733858e+00 4.2930150345e+00 
78800 5.0173651507e+00 -6.0504591600e-05 2.4785733858e+00 -4.2930150345e+00 2.4785733858e+00 4.2930150345e+00 
78900 5.0173651552e+00 -6.0397249516e-05 2.4785733858e+00 -4.2930150345e+00 2.4785733858e+00 4.2930150345e+00 
79000 5.0173651597e+00 -6.0291507005e-05 2.4785733858e+00 -4.2930150345e+00 2.4785733858e+00 4.2930150345e+00 
79100 5.0173651641e+00 -6.0187260654e-05 2.4785733858e+00 -4.2930150345e+00 2.4785733858e+00 4.2930150345e+00 
79200 5.0173651685e+00 -6.0084410895e-05 2.4785733858e+00 -4.2930150345e+00 2.4785733858e+00 4.2930150345e+00 
79300 5.0173651727e+00 -5.9982861937e-05 2.4785733858e+00 -4.2930150345e+00 2.4785733858e+00 4.2930150345e+00 
79400 5.0173651770e+00 -5.9882521691e-05 2.4785733858e+00 -4.2930150345e+00 2.4785733858e+00 4.2930150345e+00 
79500 5.0173651811e+00 -5.9783301700e-05 2.4785733858e+00 -4.2930150345e+00 2.4785733858e+00 4.2930150345e+00 
79600 5.0173651853e+00 -5.9685117064e-05 2.4785733858e+00 -4.2930150345e+00 2.4785733858e+00 4.2930150345e+00 
79700 5.0173651893e+00 -5.9587886369e-05 2.4785733858e+00 -4.2930150345e+00 2.4785733858e+00 4.2930150345e+00 
79800 5.0173651933e+00 -5.9491531618e-05 2.4785733858e+00 -4.2930150345e+00 2.4785733858e+00 4.2930150345e+00 
79900 5.0173651972e+00 -5.9395978148e-05 2.4785733858e+00 -4.2930150345e+00 2.4785733858e+00 4.2930150345e+00 
80000 5.0173652011e+00 -5.9301154564e-05 2.4785733858e+00 -4.2930150345e+00 2.4785733858e+00 4.2930150345e+00 
80100 5.0173652049e+00 -5.9206992665e-05 2.4785733858e+00 -4.2930150345e+00 2.4785733858e+00 4.2930150345e+00 
80200 5.0173652087e+00 -5.9113427368e-05 2.4785733858e+00 -4.2930150345e+00 2.4785733858e+00 4.2930150345e+00 
80300 5.0173652124e+00 -5.9020396636e-05 2.4785733858e+00 -4.2930150345e+00 2.4785733858e+00 4.2930150345e+00 
80400 5.0173652161e+00 -5.8927841406e-05 2.4785733858e+00 -4.2930150345e+00 2.4785733858e+00 4.2930150345e+00 
80500 5.0173652197e+00 -5.8835705514e-05 2.4785733858e+00 -4.2930150345e+00 2.4785733858e+00 4.2930150345e+00 
80600 5.0173652233e+00 -5.8743935624e-05 2.4785733858e+00 -4.2930150345e+00 2.4785733858e+00 4.2930150345e+00 
80700 5.0173652268e+00 -5.8652481156e-05 2.4785733858e+00 -4.2930150345e+00 2.4785733858e+00 4.2930150345e+00 
80800 5.0173652302e+00 -5.8561294210e-05 2.4785733858e+00 -4.2930150345e+00 2.4785733858e+00 4.2930150345e+00 
80900 5.0173652336e+00 -5.8470329503e-05 2.4785733858e+00 -4.2930150345e+00 2.4785733858e+00 4.2930150345e+00 
81000 5.0173652370e+00 -5.8379544289e-05 2.4785733858e+00 -4.2930150345e+00 2.4785733858e+00 4.2930150345e+00 
81100 5.0173652403e+00 -5.8288898296e-05 2.4785733858e+00 -4.2930150345e+00 2.4785733858e+00 4.2930150345e+00 
81200 5.0173652435e+00 -5.8198353650e-05 2.4785733858e+00 -4.2930150345e+00 2.4785733858e+00 4.2930150345e+00 
81300 5.0173652467e+00 -5.8107874813e-05 2.4785733858e+00 -4.2930150345e+00 2.4785733858e+00 4.2930150345e+00 
81400 5.0173652499e+00 -5.8017428510e-05 2.4785733858e+00 -4.2930150345e+00 2.4785733858e+00 4.2930150345e+00 
81500 5.0173652530e+00 -5.7926983657e-05 2.4785733858e+00 -4.2930150345e+00 2.4785733858e+00 4.2930150345e+00 
81600 5.0173652561e+00 -5.7836511306e-05 2.4785733858e+00 -4.2930150345e+00 2.4785733858e+00 4.2930150345e+00 
81700 5.0173652591e+00 -5.7745984568e-05 2.4785733858e+00 -4.2930150345e+00 2.4785733858e+00 4.2930150345e+00 
81800 5.0173652621e+00 -5.7655378555e-05 2.4785733858e+00 -4.2930150345e+00 2.4785733858e+00 4.2930150345e+00 
81900 5.0173652650e+00 -5.7564670308e-05 2.4785733858e+00 -4.2930150345e+00 2.4785733858e+00 4.2930150345e+00 
82000 5.0173652679e+00 -5.7473838740e-05 2.4785733858e+00 -4.2930150345e+00 2.4785733858e+00 4.2930150345e+00 
82100 5.0173652708e+00 -5.7382864572e-05 2.4785733858e+00 -4.2930150345e+00 2.4785733858e+00 4.2930150345e+00 
82200 5.0173652736e+00 -5.7291730268e-05 2.4785733858e+00 -4.2930150345e+00 2.4785733858e+00 4.2930150345e+00 
82300 5.0173652763e+00 -5.7200419977e-05 2.4785733858e+00 -4.2930150345e+00 2.4785733858e+00 4.2930150345e+00 
82400 5.0173652791e+00 -5.7108919472e-05 2.4785733858e+00 -4.2930150345e+00 2.4785733858e+00 4.2930150345e+00 
82500 5.0173652818e+00 -5.7017216092e-05 2.4785733858e+00 -4.2930150345e+00 2.4785733858e+00 4.2930150345e+00 
82600 5.0173652844e+00 -5.6925298681e-05 2.4785733858e+00 -4.2930150345e+00 2.4785733858e+00 4.2930150345e+00 
82700 5.0173652870e+00 -5.6833157538e-05 2.4785733858e+00 -4.2930150345e+00 2.4785733858e+00 4.2930150345e+00 
82800 5.0173652896e+00 -5.6740784351e-05 2.4785733858e+00 -4.2930150345e+00 2.4785733858e+00 4.2930150345e+00 
82900 5.0173652921e+00 -5.6648172150e-05 2.4785733858e+00 -4.2930150345e+00 2.4785733858e+00 4.2930150345e+00 
83000 5.0173652946e+00 -5.6555315250e-05 2.4785733858e+00 -4.2930150345e+00 2.4785733858e+00 4.2930150345e+00 
83100 5.0173652971e+00 -5.6462209199e-05 2.4785733858e+00 -4.2930150345e+00 2.4785733858e+00 4.2930150345e+00 
83200 5.0173652995e+00 -5.6368850725e-05 2.4785733858e+00 -4.2930150345e+00 2.4785733858e+00 4.2930150345e+00 
83300 5.0173653019e+00 -5.6275237686e-05 2.4785733858e+00 -4.2930150345e+00 2.4785733858e+00 4.2930150345e+00 
83400 5.0173653042e+00 -5.6181369021e-05 2.4785733858e+00 -4.2930150345e+00 2.4785733858e+00 4.2930150345e+00 
83500 5.0173653065e+00 -5.6087244699e-05 2.4785733858e+00 -4.2930150345e+00 2.4785733858e+00 4.2930150345e+00 
83600 5.0173653088e+00 -5.5992865674e-05 2.4785733858e+00 -4.2930150345e+00 2.4785733858e+00 4.2930150345e+00 
83700 5.0173653111e+00 -5.5898233838e-05 2.4785733858e+00 -4.2930150345e+00 2.4785733858e+00 4.2930150345e+00 
83800 5.0173653133e+00 -5.5803351972e-05 2.4785733858e+00 -4.2930150345e+00 2.4785733858e+00 4.2930150345e+00 
83900 5.0173653154e+00 -5.5708223709e-05 2.4785733858e+00 -4.2930150345e+00 2.4785733858e+00 4.2930150345e+00 
84000 5.0173653176e+00 -5.5612853481e-05 2.4785733858e+00 -4.2930150345e+00 2.4785733858e+00 4.2930150345e+00 
84100 5.0173653197e+00 -5.5517246486e-05 2.4785733858e+00 -4.2930150345e+00 2.4785733858e+00 4.2930150345e+00 
84200 5.0173653218e+00 -5.5421408639e-05 2.4785733858e+00 -4.2930150345e+00 2.4785733858e+00 4.2930150345e+00 
84300 5.0173653238e+00 -5.5325346538e-05 2.4785733858e+00 -4.2930150345e+00 2.4785733858e+00 4.2930150345e+00 
84400 5.0173653259e+00 -5.5229067421e-05 2.4785733858e+00 -4.2930150345e+00 2.4785733858e+00 4.2930150345e+00 
84500 5.0173653278e+00 -5.5132579130e-05 2.4785733858e+00 -4.2930150345e+00 2.4785733858e+00 4.2930150345e+00 
84600 5.0173653298e+00 -5.5035890071e-05 2.4785733858e+00 -4.2930150345e+00 2.4785733858e+00 4.2930150345e+00 
84700 5.0173653317e+00 -5.4939009182e-05 2.4785733858e+00 -4.2930150345e+00 2.4785733858e+00 4.2930150345e+00 
84800 5.0173653336e+00 -5.4841945895e-05 2.4785733858e+00 -4.2930150345e+00 2.4785733858e+00 4.2930150345e+00 
84900 5.0173653355e+00 -5.4744710101e-05 2.4785733858e+00 -4.2930150345e+00 2.4785733858e+00 4.2930150345e+00 
85000 5.0173653373e+00 -5.4647312122e-05 2.4785733858e+00 -4.2930150345e+00 2.4785733858e+00 4.2930150345e+00 
85100 5.0173653392e+00 -5.4549762674e-05 2.4785733858e+00 -4.2930150345e+00 2.4785733858e+00 4.2930150345e+00 
85200 5.0173653410e+00 -5.4452072837e-05 2.4785733858e+00 -4.2930150345e+00 2.4785733858e+00 4.2930150345e+00 
85300 5.0173653427e+00 -5.4354254028e-05 2.4785733858e+00 -4.2930150345e+00 2.4785733858e+00 4.2930150345e+00 
85400 5.0173653445e+00 -5.4256317965e-05 2.4785733858e+00 -4.2930150345e+00 2.4785733858e+00 4.2930150345e+00 
85500 5.0173653462e+00 -5.4158276648e-05 2.4785733858e+00 -4.2930150345e+00 2.4785733858e+00 4.2930150345e+00 
85600 5.0173653478e+00 -5.4060142323e-05 2.4785733858e+00 -4.2930150345e+00 2.4785733858e+00 4.2930150345e+00 
85700 5.0173653495e+00 -5.3961927461e-05 2.4785733858e+00 -4.2930150345e+00 2.4785733858e+00 4.2930150345e+00 
85800 5.0173653511e+00 -5.3863644732e-05 2.4785733858e+00 -4.2930150345e+00 2.4785733858e+00 4.2930150345e+00 
85900 5.0173653527e+00 -5.3765306978e-05 2.4785733858e+00 -4.2930150345e+00 2.4785733858e+00 4.2930150345e+00 
86000 5.0173653543e+00 -5.3666927191e-05 2.4785733858e+00 -4.2930150345e+00 2.4785733858e+00 4.2930150345e+00 
86100 5.0173653559e+00 -5.3568518491e-05 2.4785733858e+00 -4.2930150345e+00 2.4785733858e+00 4.2930150345e+00 
86200 5.0173653574e+00 -5.3470094100e-05 2.4785733858e+00 -4.2930150345e+00 2.4785733858e+00 4.2930150345e+00 
86300 5.0173653589e+00 -5.3371667328e-05 2.4785733858e+00 -4.2930150345e+00 2.4785733858e+00 4.2930150345e+00 
86400 5.0173653604e+00 -5.3273251546e-05 2.4785733858e+00 -4.2930150345e+00 2.4785733858e+00 4.2930150345e+00 
86500 5.0173653619e+00 -5.3174860169e-05 2.4785733858e+00 -4.2930150345e+00 2.4785733858e+00 4.2930150345e+00 
86600 5.0173653634e+00 -5.3076506637e-05 2.4785733858e+00 -4.2930150345e+00 2.4785733858e+00 4.2930150345e+00 
86700 5.0173653648e+00 -5.2978204400e-05 2.4785733858e+00 -4.2930150345e+00 2.4785733858e+00 4.2930150345e+00 
86800 5.0173653662e+00 -5.2879966895e-05 2.4785733858e+00 -4.2930150345e+00 2.4785733858e+00 4.2930150345e+00 
86900 5.0173653676e+00 -5.2781807533e-05 2.4785733858e+00 -4.2930150345e+00 2.4785733858e+00 4.2930150345e+00 
87000 5.0173653689e+00 -5.2683739687e-05 2.4785733858e+00 -4.2930150345e+00 2.4785733858e+00 4.2930150345e+00 
87100 5.0173653703e+00 -5.2585776667e-05 2.4785733858e+00 -4.2930150345e+00 2.4785733858e+00 4.2930150345e+00 
87200 5.0173653716e+00 -5.2487931717e-05 2.4785733858e+00 -4.2930150345e+00 2.4785733858e+00 4.2930150345e+00 
87300 5.0173653729e+00 -5.2390217995e-05 2.4785733858e+00 -4.2930150345e+00 2.4785733858e+00 4.2930150345e+00 
87400 5.0173653742e+00 -5.2292648559e-05 2.4785733858e+00 -4.2930150345e+00 2.4785733858e+00 4.2930150345e+00 
87500 5.0173653754e+00 -5.2195236358e-05 2.4785733858e+00 -4.2930150345e+00 2.4785733858e+00 4.2930150345e+00 
87600 5.0173653767e+00 -5.2097994223e-05 2.4785733858e+00 -4.2930150345e+00 2.4785733858e+00 4.2930150345e+00 
87700 5.0173653779e+00 -5.2000934847e-05 2.4785733858e+00 -4.2930150345e+00 2.4785733858e+00 4.2930150345e+00 
87800 5.0173653791e+00 -5.1904070784e-05 2.4785733858e+00 -4.2930150345e+00 2.4785733858e+00 4.2930150345e+00 
87900 5.0173653803e+00 -5.1807414433e-05 2.4785733858e+00 -4.2930150345e+00 2.4785733858e+00 4.2930150345e+00 
88000 5.0173653814e+00 -5.1710978033e-05 2.4785733858e+00 -4.2930150345e+00 2.4785733858e+00 4.2930150345e+00 
88100 5.0173653826e+00 -5.1614773649e-05 2.4785733858e+00 -4.2930150345e+00 2.4785733858e+00 4.2930150345e+00 
88200 5.0173653837e+00 -5.1518813172e-05 2.4785733858e+00 -4.2930150345e+00 2.4785733858e+00 4.2930150345e+00 
88300 5.0173653848e+00 -5.1423108304e-05 2.4785733858e+00 -4.2930150345e+00 2.4785733858e+00 4.2930150345e+00 
88400 5.0173653859e+00 -5.1327670553e-05 2.4785733858e+00 -4.2930150345e+00 2.4785733858e+00 4.2930150345e+00 
88500 5.0173653870e+00 -5.1232511228e-05 2.4785733858e+00 -4.2930150345e+00 2.4785733858e+00 4.2930150345e+00 
88600 5.0173653881e+00 -5.1137641434e-05 2.4785733858e+00 -4.2930150345e+00 2.4785733858e+00 4.2930150345e+00 
88700 5.0173653891e+00 -5.1043072062e-05 2.4785733858e+00 -4.2930150345e+00 2.4785733858e+00 4.2930150345e+00 
88800 5.0173653902e+00 -5.0948813784e-05 2.4785733858e+00 -4.2930150345e+00 2.4785733858e+00 4.2930150345e+00 
88900 5.0173653912e+00 -5.0854877058e-05 2.4785733858e+00 -4.2930150345e+00 2.4785733858e+00 4.2930150345e+00 
89000 5.0173653922e+00 -5.0761272109e-05 2.4785733858e+00 -4.2930150345e+00 2.4785733858e+00 4.2930150345e+00 
89100 5.0173653932e+00 -5.0668008936e-05 2.4785733858e+00 -4.2930150345e+00 2.4785733858e+00 4.2930150345e+00 
89200 5.0173653941e+00 -5.0575097306e-05 2.4785733858e+00 -4.2930150345e+00 2.4785733858e+00 4.2930150345e+00 
89300 5.0173653951e+00 -5.0482546747e-05 2.4785733858e+00 -4.2930150345e+00 2.4785733858e+00 4.2930150345e+00 
89400 5.0173653960e+00 -5.0390366552e-05 2.4785733858e+00 -4.2930150345e+00 2.4785733858e+00 4.2930150345e+00 
89500 5.0173653970e+00 -5.0298565771e-05 2.4785733858e+00 -4.2930150345e+00 2.4785733858e+00 4.2930150345e+00 
89600 5.0173653979e+00 -5.0207153210e-05 2.4785733858e+00 -4.2930150345e+00 2.4785733858e+00 4.2930150345e+00 
89700 5.0173653988e+00 -5.0116137432e-05 2.4785733858e+00 -4.2930150345e+00 2.4785733858e+00 4.2930150345e+00 
89800 5.0173653997e+00 -5.0025526756e-05 2.4785733858e+00 -4.2930150345e+00 2.4785733858e+00 4.2930150345e+00 
89900 5.0173654005e+00 -4.9935329253e-05 2.4785733858e+00 -4.2930150345e+00 2.4785733858e+00 4.2930150345e+00 
90000 5.0173654014e+00 -4.9845552744e-05 2.4785733858e+00 -4.2930150345e+00 2.4785733858e+00 4.2930150345e+00 
90100 5.0173654022e+00 -4.9756204804e-05 2.4785733858e+00 -4.2930150345e+00 2.4785733858e+00 4.2930150345e+00 
90200 5.0173654031e+00 -4.9667292762e-05 2.4785733858e+00 -4.2930150345e+00 2.4785733858e+00 4.2930150345e+00 
90300 5.0173654039e+00 -4.9578823697e-05 2.4785733858e+00 -4.2930150345e+00 2.4785733858e+00 4.2930150345e+00 
90400 5.0173654047e+00 -4.9490804442e-05 2.4785733858e+00 -4.2930150345e+00 2.4785733858e+00 4.2930150345e+00 
90500 5.0173654055e+00 -4.9403241582e-05 2.4785733858e+00 -4.2930150345e+00 2.4785733858e+00 4.2930150345e+00 
90600 5.0173654063e+00 -4.9316141457e-05 2.4785733858e+00 -4.2930150345e+00 2.4785733858e+00 4.2930150345e+00 
90700 5.0173654071e+00 -4.9229510163e-05 2.4785733858e+00 -4.2930150345e+00 2.4785733858e+00 4.2930150345e+00 
90800 5.0173654078e+00 -4.9143353549e-05 2.4785733858e+00 -4.2930150345e+00 2.4785733858e+00 4.2930150345e+00 
90900 5.0173654086e+00 -4.9057677227e-05 2.4785733858e+00 -4.2930150345e+00 2.4785733858e+00 4.2930150345e+00 
91000 5.0173654093e+00 -4.8972486565e-05 2.4785733858e+00 -4.2930150345e+00 2.4785733858e+00 4.2930150345e+00 
91100 5.0173654100e+00 -4.8887786696e-05 2.4785733858e+00 -4.2930150345e+00 2.4785733858e+00 4.2930150345e+00 
91200 5.0173654107e+00 -4.8803582513e-05 2.4785733858e+00 -4.2930150345e+00 2.4785733858e+00 4.2930150345e+00 
91300 5.0173654114e+00 -4.8719878677e-05 2.4785733858e+00 -4.2930150345e+00 2.4785733858e+00 4.2930150345e+00 
91400 5.0173654121e+00 -4.8636679617e-05 2.4785733858e+00 -4.2930150345e+00 2.4785733858e+00 4.2930150345e+00 
91500 5.0173654128e+00 -4.8553989533e-05 2.4785733858e+00 -4.2930150345e+00 2.4785733858e+00 4.2930150345e+00 
91600 5.0173654135e+00 -4.8471812398e-05 2.4785733858e+00 -4.2930150345e+00 2.4785733858e+00 4.2930150345e+00 
91700 5.0173654141e+00 -4.8390151962e-05 2.4785733858e+00 -4.2930150345e+00 2.4785733858e+00 4.2930150345e+00 
91800 5.0173654148e+00 -4.8309011752e-05 2.4785733858e+00 -4.2930150345e+00 2.4785733858e+00 4.2930150345e+00 
91900 5.0173654154e+00 -4.8228395080e-05 2.4785733858e+00 -4.2930150345e+00 2.4785733858e+00 4.2930150345e+00 
92000 5.0173654161e+00 -4.8148305041e-05 2.4785733858e+00 -4.2930150345e+00 2.4785733858e+00 4.2930150345e+00 
92100 5.0173654167e+00 -4.8068744517e-05 2.4785733858e+00 -4.2930150345e+00 2.4785733858e+00 4.2930150345e+00 
92200 5.0173654173e+00 -4.7989716188e-05 2.4785733858e+00 -4.2930150345e+00 2.4785733858e+00 4.2930150345e+00 
92300 5.0173654179e+00 -4.7911222519e-05 2.4785733858e+00 -4.2930150345e+00 2.4785733858e+00 4.2930150345e+00 
92400 5.0173654185e+00 -4.7833265782e-05 2.4785733858e+00 -4.2930150345e+00 2.4785733858e+00 4.2930150345e+00 
92500 5.0173654191e+00 -4.7755848048e-05 2.4785733858e+00 -4.2930150345e+00 2.4785733858e+00 4.2930150345e+00 
92600 5.0173654197e+00 -4.7678971192e-05 2.4785733858e+00 -4.2930150345e+00 2.4785733858e+00 4.2930150345e+00 
92700 5.0173654202e+00 -4.7602636900e-05 2.4785733858e+00 -4.2930150345e+00 2.4785733858e+00 4.2930150345e+00 
92800 5.0173654208e+00 -4.7526846670e-05 2.4785733858e+00 -4.2930150345e+00 2.4785733858e+00 4.2930150345e+00 
92900 5.0173654213e+00 -4.7451601816e-05 2.4785733858e+00 -4.2930150345e+00 2.4785733858e+00 4.2930150345e+00 
93000 5.0173654219e+00 -4.7376903474e-05 2.4785733858e+00 -4.2930150345e+00 2.4785733858e+00 4.2930150345e+00 
93100 5.0173654224e+00 -4.7302752603e-05 2.4785733858e+00 -4.2930150345e+00 2.4785733858e+00 4.2930150345e+00 
93200 5.0173654229e+00 -4.7229149987e-05 2.4785733858e+00 -4.2930150345e+00 2.4785733858e+00 4.2930150345e+00 
93300 5.0173654235e+00 -4.7156096246e-05 2.4785733858e+00 -4.2930150345e+00 2.4785733858e+00 4.2930150345e+00 
93400 5.0173654240e+00 -4.7083591833e-05 2.4785733858e+00 -4.2930150345e+00 2.4785733858e+00 4.2930150345e+00 
93500 5.0173654245e+00 -4.7011637041e-05 2.4785733858e+00 -4.2930150345e+00 2.4785733858e+00 4.2930150345e+00 
93600 5.0173654250e+00 -4.6940232005e-05 2.4785733858e+00 -4.2930150345e+00 2.4785733858e+00 4.2930150345e+00 
93700 5.0173654254e+00 -4.6869376710e-05 2.4785733858e+00 -4.2930150345e+00 2.4785733858e+00 4.2930150345e+00 
93800 5.0173654259e+00 -4.6799070987e-05 2.4785733858e+00 -4.2930150345e+00 2.4785733858e+00 4.2930150345e+00 
93900 5.0173654264e+00 -4.6729314526e-05 2.4785733858e+00 -4.2930150345e+00 2.4785733858e+00 4.2930150345e+00 
94000 5.0173654269e+00 -4.6660106875e-05 2.4785733858e+00 -4.2930150345e+00 2.4785733858e+00 4.2930150345e+00 
94100 5.0173654273e+00 -4.6591447441e-05 2.4785733858e+00 -4.2930150345e+00 2.4785733858e+00 4.2930150345e+00 
94200 5.0173654278e+00 -4.6523335501e-05 2.4785733858e+00 -4.2930150345e+00 2.4785733858e+00 4.2930150345e+00 
94300 5.0173654282e+00 -4.6455770202e-05 2.4785733858e+00 -4.2930150345e+00 2.4785733858e+00 4.2930150345e+00 
94400 5.0173654287e+00 -4.6388750562e-05 2.4785733858e+00 -4.2930150345e+00 2.4785733858e+00 4.2930150345e+00 
94500 5.0173654291e+00 -4.6322275479e-05 2.4785733858e+00 -4.2930150345e+00 2.4785733858e+00 4.2930150345e+00 
94600 5.0173654295e+00 -4.6256343730e-05 2.4785733858e+00 -4.2930150345e+00 2.4785733858e+00 4.2930150345e+00 
94700 5.0173654299e+00 -4.6190953980e-05 2.4785733858e+00 -4.2930150345e+00 2.4785733858e+00 4.2930150345e+00 
94800 5.0173654303e+00 -4.6126104779e-05 2.4785733858e+00 -4.2930150345e+00 2.4785733858e+00 4.2930150345e+00 
94900 5.0173654307e+00 -4.6061794574e-05 2.4785733858e+00 -4.2930150345e+00 2.4785733858e+00 4.2930150345e+00 
95000 5.0173654311e+00 -4.5998021703e-05 2.4785733858e+00 -4.2930150345e+00 2.4785733858e+00 4.2930150345e+00 
95100 5.0173654315e+00 -4.5934784408e-05 2.4785733858e+00 -4.2930150345e+00 2.4785733858e+00 4.2930150345e+00 
95200 5.0173654319e+00 -4.5872080829e-05 2.4785733858e+00 -4.2930150345e+00 2.4785733858e+00 4.2930150345e+00 
95300 5.0173654323e+00 -4.5809909015e-05 2.4785733858e+00 -4.2930150345e+00 2.4785733858e+00 4.2930150345e+00 
95400 5.0173654327e+00 -4.5748266927e-05 2.4785733858e+00 -4.2930150345e+00 2.4785733858e+00 4.2930150345e+00 
95500 5.0173654330e+00 -4.5687152437e-05 2.4785733858e+00 -4.2930150345e+00 2.4785733858e+00 4.2930150345e+00 
95600 5.0173654334e+00 -4.5626563331e-05 2.4785733858e+00 -4.2930150345e+00 2.4785733858e+00 4.2930150345e+00 
95700 5.0173654338e+00 -4.5566497320e-05 2.4785733858e+00 -4.2930150345e+00 2.4785733858e+00 4.2930150345e+00 
95800 5.0173654341e+00 -4.5506952034e-05 2.4785733858e+00 -4.2930150345e+00 2.4785733858e+00 4.2930150345e+00 
95900 5.0173654345e+00 -4.5447925031e-05 2.4785733858e+00 -4.2930150345e+00 2.4785733858e+00 4.2930150345e+00 
96000 5.0173654348e+00 -4.5389413798e-05 2.4785733858e+00 -4.2930150345e+00 2.4785733858e+00 4.2930150345e+00 
96100 5.0173654351e+00 -4.5331415756e-05 2.4785733858e+00 -4.2930150345e+00 2.4785733858e+00 4.2930150345e+00 
96200 5.0173654355e+00 -4.5273928259e-05 2.4785733858e+00 -4.2930150345e+00 2.4785733858e+00 4.2930150345e+00 
96300 5.0173654358e+00 -4.5216948600e-05 2.4785733858e+00 -4.2930150345e+00 2.4785733858e+00 4.2930150345e+00 
96400 5.0173654361e+00 -4.5160474015e-05 2.4785733858e+00 -4.2930150345e+00 2.4785733858e+00 4.2930150345e+00 
96500 5.0173654364e+00 -4.5104501682e-05 2.4785733858e+00 -4.2930150345e+00 2.4785733858e+00 4.2930150345e+00 
96600 5.0173654367e+00 -4.5049028727e-05 2.4785733858e+00 -4.2930150345e+00 2.4785733858e+00 4.2930150345e+00 
96700 5.0173654371e+00 -4.4994052225e-05 2.4785733858e+00 -4.2930150345e+00 2.4785733858e+00 4.2930150345e+00 
96800 5.0173654374e+00 -4.4939569206e-05 2.4785733858e+00 -4.2930150345e+00 2.4785733858e+00 4.2930150345e+00 
96900 5.0173654377e+00 -4.4885576652e-05 2.4785733858e+00 -4.2930150345e+00 2.4785733858e+00 4.2930150345e+00 
97000 5.0173654379e+00 -4.4832071503e-05 2.4785733858e+00 -4.2930150345e+00 2.4785733858e+00 4.2930150345e+00 
97100 5.0173654382e+00 -4.4779050661e-05 2.4785733858e+00 -4.2930150345e+00 2.4785733858e+00 4.2930150345e+00 
97200 5.0173654385e+00 -4.4726510990e-05 2.4785733858e+00 -4.2930150345e+00 2.4785733858e+00 4.2930150345e+00 
97300 5.0173654388e+00 -4.4674449317e-05 2.4785733858e+00 -4.2930150345e+00 2.4785733858e+00 4.2930150345e+00 
97400 5.0173654391e+00 -4.4622862437e-05 2.4785733858e+00 -4.2930150345e+00 2.4785733858e+00 4.2930150345e+00 
97500 5.0173654393e+00 -4.4571747116e-05 2.4785733858e+00 -4.2930150345e+00 2.4785733858e+00 4.2930150345e+00 
97600 5.0173654396e+00 -4.4521100091e-05 2.4785733858e+00 -4.2930150345e+00 2.4785733858e+00 4.2930150345e+00 
97700 5.0173654399e+00 -4.4470918073e-05 2.4785733858e+00 -4.2930150345e+00 2.4785733858e+00 4.2930150345e+00 
97800 5.0173654401e+00 -4.4421197749e-05 2.4785733858e+00 -4.2930150345e+00 2.4785733858e+00 4.2930150345e+00 
97900 5.0173654404e+00 -4.4371935783e-05 2.4785733858e+00 -4.2930150345e+00 2.4785733858e+00 4.2930150345e+00 
98000 5.0173654406e+00 -4.4323128821e-05 2.4785733858e+00 -4.2930150345e+00 2.4785733858e+00 4.2930150345e+00 
98100 5.0173654409e+00 -4.4274773488e-05 2.4785733858e+00 -4.2930150345e+00 2.4785733858e+00 4.2930150345e+00 
98200 5.0173654411e+00 -4.4226866397e-05 2.4785733858e+00 -4.2930150345e+00 2.4785733858e+00 4.2930150345e+00 
98300 5.0173654414e+00 -4.4179404144e-05 2.4785733858e+00 -4.2930150345e+00 2.4785733858e+00 4.2930150345e+00 
98400 5.0173654416e+00 -4.4132383313e-05 2.4785733858e+00 -4.2930150345e+00 2.4785733858e+00 4.2930150345e+00 
98500 5.0173654418e+00 -4.4085800477e-05 2.4785733858e+00 -4.2930150345e+00 2.4785733858e+00 4.2930150345e+00 
98600 5.0173654421e+00 -4.4039652199e-05 2.4785733858e+00 -4.2930150345e+00 2.4785733858e+00 4.2930150345e+00 
98700 5.0173654423e+00 -4.3993935038e-05 2.4785733858e+00 -4.2930150345e+00 2.4785733858e+00 4.2930150345e+00 
98800 5.0173654425e+00 -4.3948645542e-05 2.4785733858e+00 -4.2930150345e+00 2.4785733858e+00 4.2930150345e+00 
98900 5.0173654427e+00 -4.3903780259e-05 2.4785733858e+00 -4.2930150345e+00 2.4785733858e+00 4.2930150345e+00 
99000 5.0173654430e+00 -4.3859335732e-05 2.4785733858e+00 -4.2930150345e+00 2.4785733858e+00 4.2930150345e+00 
99100 5.0173654432e+00 -4.3815308501e-05 2.4785733858e+00 -4.2930150345e+00 2.4785733858e+00 4.2930150345e+00 
99200 5.0173654434e+00 -4.3771695107e-05 2.4785733858e+00 -4.2930150345e+00 2.4785733858e+00 4.2930150345e+00 
99300 5.0173654436e+00 -4.3728492094e-05 2.4785733858e+00 -4.2930150345e+00 2.4785733858e+00 4.2930150345e+00 
99400 5.0173654438e+00 -4.3685696006e-05 2.4785733858e+00 -4.2930150345e+00 2.4785733858e+00 4.2930150345e+00 
99500 5.0173654440e+00 -4.3643303390e-05 2.4785733858e+00 -4.2930150345e+00 2.4785733858e+00 4.2930150345e+00 
99600 5.0173654442e+00 -4.3601310799e-05 2.4785733858e+00 -4.2930150345e+00 2.4785733858e+00 4.2930150345e+00 
99700 5.0173654444e+00 -4.3559714793e-05 2.4785733858e+00 -4.2930150345e+00 2.4785733858e+00 4.2930150345e+00 
99800 5.0173654446e+00 -4.3518511936e-05 2.4785733858e+00 -4.2930150345e+00 2.4785733858e+00 4.2930150345e+00 
99900 5.0173654448e+00 -4.3477698801e-05 2.4785733858e+00 -4.2930150345e+00 2.4785733858e+00 4.2930150345e+00 
100000 5.0173654450e+00 -4.3437271971e-05 2.4785733858e+00 -4.2930150345e+00 2.4785733858e+00 4.2930150345e+00 
100100 5.0173654451e+00 -4.3397228039e-05 2.4785733858e+00 -4.2930150345e+00 2.4785733858e+00 4.2930150345e+00 
100200 5.0173654453e+00 -4.3357563606e-05 2.4785733858e+00 -4.2930150345e+00 2.4785733858e+00 4.2930150345e+00 
100300 5.0173654455e+00 -4.3318275289e-05 2.4785733858e+00 -4.2930150345e+00 2.4785733858e+00 4.2930150345e+00 
100400 5.0173654457e+00 -4.3279359713e-05 2.4785733858e+00 -4.2930150345e+00 2.4785733858e+00 4.2930150345e+00 
100500 5.0173654458e+00 -4.3240813519e-05 2.4785733858e+00 -4.2930150345e+00 2.4785733858e+00 4.2930150345e+00 
100600 5.0173654460e+00 -4.3202633363e-05 2.4785733858e+00 -4.2930150345e+00 2.4785733858e+00 4.2930150345e+00 
100700 5.0173654462e+00 -4.3164815912e-05 2.4785733858e+00 -4.2930150345e+00 2.4785733858e+00 4.2930150345e+00 
100800 5.0173654463e+00 -4.3127357852e-05 2.4785733858e+00 -4.2930150345e+00 2.4785733858e+00 4.2930150345e+00 
100900 5.0173654465e+00 -4.3090255883e-05 2.4785733858e+00 -4.2930150345e+00 2.4785733858e+00 4.2930150345e+00 
101000 5.0173654467e+00 -4.3053506724e-05 2.4785733858e+00 -4.2930150345e+00 2.4785733858e+00 4.2930150345e+00 
101100 5.0173654468e+00 -4.3017107108e-05 2.4785733858e+00 -4.2930150345e+00 2.4785733858e+00 4.2930150345e+00 
101200 5.0173654470e+00 -4.2981053788e-05 2.4785733858e+00 -4.2930150345e+00 2.4785733858e+00 4.2930150345e+00 
101300 5.0173654471e+00 -4.2945343536e-05 2.4785733858e+00 -4.2930150345e+00 2.4785733858e+00 4.2930150345e+00 
101400 5.0173654473e+00 -4.2909973142e-05 2.4785733858e+00 -4.2930150345e+00 2.4785733858e+00 4.2930150345e+00 
101500 5.0173654474e+00 -4.2874939414e-05 2.4785733858e+00 -4.2930150345e+00 2.4785733858e+00 4.2930150345e+00 
101600 5.0173654476e+00 -4.2840239181e-05 2.4785733858e+00 -4.2930150345e+00 2.4785733858e+00 4.2930150345e+00 
101700 5.0173654477e+00 -4.2805869293e-05 2.4785733858e+00 -4.2930150345e+00 2.4785733858e+00 4.2930150345e+00 
101800 5.0173654479e+00 -4.2771826621e-05 2.4785733858e+00 -4.2930150345e+00 2.4785733858e+00 4.2930150345e+00 
101900 5.0173654480e+00 -4.2738108055e-05 2.4785733858e+00 -4.2930150345e+00 2.4785733858e+00 4.2930150345e+00 
102000 5.0173654481e+00 -4.2704710505e-05 2.4785733858e+00 -4.2930150345e+00 2.4785733858e+00 4.2930150345e+00 
102100 5.0173654483e+00 -4.2671630908e-05 2.4785733858e+00 -4.2930150345e+00 2.4785733858e+00 4.2930150345e+00 
102200 5.0173654484e+00 -4.2638866216e-05 2.4785733858e+00 -4.2930150345e+00 2.4785733858e+00 4.2930150345e+00 
102300 5.0173654485e+00 -4.2606413408e-05 2.4785733858e+00 -4.2930150345e+00 2.4785733858e+00 4.2930150345e+00 
102400 5.0173654487e+00 -4.2574269483e-05 2.4785733858e+00 -4.2930150345e+00 2.4785733858e+00 4.2930150345e+00 
102500 5.0173654488e+00 -4.2542431465e-05 2.4785733858e+00 -4.2930150345e+00 2.4785733858e+00 4.2930150345e+00 
102600 5.0173654489e+00 -4.2510896398e-05 2.4785733858e+00 -4.2930150345e+00 2.4785733858e+00 4.2930150345e+00 
102700 5.0173654490e+00 -4.2479661350e-05 2.4785733858e+00 -4.2930150345e+00 2.4785733858e+00 4.2930150345e+00 
102800 5.0173654492e+00 -4.2448723412e-05 2.4785733858e+00 -4.2930150345e+00 2.4785733858e+00 4.2930150345e+00 
102900 5.0173654493e+00 -4.2418079698e-05 2.4785733858e+00 -4.2930150345e+00 2.4785733858e+00 4.2930150345e+00 
103000 5.0173654494e+00 -4.2387727346e-05 2.4785733858e+00 -4.2930150345e+00 2.4785733858e+00 4.2930150345e+00 
103100 5.0173654495e+00 -4.2357663517e-05 2.4785733858e+00 -4.2930150345e+00 2.4785733858e+00 4.2930150345e+00 
103200 5.0173654496e+00 -4.2327885394e-05 2.4785733858e+00 -4.2930150345e+00 2.4785733858e+00 4.2930150345e+00 
103300 5.0173654498e+00 -4.2298390187e-05 2.4785733858e+00 -4.2930150345e+00 2.4785733858e+00 4.2930150345e+00 
103400 5.0173654499e+00 -4.2269175128e-05 2.4785733858e+00 -4.2930150345e+00 2.4785733858e+00 4.2930150345e+00 
103500 5.0173654500e+00 -4.2240237471e-05 2.4785733858e+00 -4.2930150345e+00 2.4785733858e+00 4.2930150345e+00 
103600 5.0173654501e+00 -4.2211574495e-05 2.4785733858e+00 -4.2930150345e+00 2.4785733858e+00 4.2930150345e+00 
103700 5.0173654502e+00 -4.2183183504e-05 2.4785733858e+00 -4.2930150345e+00 2.4785733858e+00 4.2930150345e+00 
103800 5.0173654503e+00 -4.2155061824e-05 2.4785733858e+00 -4.2930150345e+00 2.4785733858e+00 4.2930150345e+00 
103900 5.0173654504e+00 -4.2127206806e-05 2.4785733858e+00 -4.2930150345e+00 2.4785733858e+00 4.2930150345e+00 
104000 5.0173654505e+00 -4.2099615824e-05 2.4785733858e+00 -4.2930150345e+00 2.4785733858e+00 4.2930150345e+00 
104100 5.0173654506e+00 -4.2072286274e-05 2.4785733858e+00 -4.2930150345e+00 2.4785733858e+00 4.2930150345e+00 
104200 5.0173654507e+00 -4.2045215578e-05 2.4785733858e+00 -4.2930150345e+00 2.4785733858e+00 4.2930150345e+00 
104300 5.0173654508e+00 -4.2018401181e-05 2.4785733858e+00 -4.2930150345e+00 2.4785733858e+00 4.2930150345e+00 
104400 5.0173654509e+00 -4.1991840552e-05 2.4785733858e+00 -4.2930150345e+00 2.4785733858e+00 4.2930150345e+00 
104500 5.0173654510e+00 -4.1965531182e-05 2.4785733858e+00 -4.2930150345e+00 2.4785733858e+00 4.2930150345e+00 
104600 5.0173654511e+00 -4.1939470586e-05 2.4785733858e+00 -4.2930150345e+00 2.4785733858e+00 4.2930150345e+00 
104700 5.0173654512e+00 -4.1913656302e-05 2.4785733858e+00 -4.2930150345e+00 2.4785733858e+00 4.2930150345e+00 
104800 5.0173654513e+00 -4.1888085893e-05 2.4785733858e+00 -4.2930150345e+00 2.4785733858e+00 4.2930150345e+00 
104900 5.0173654514e+00 -4.1862756943e-05 2.4785733858e+00 -4.2930150345e+00 2.4785733858e+00 4.2930150345e+00 
105000 5.0173654514e+00 -4.1837667058e-05 2.4785733858e+00 -4.2930150345e+00 2.4785733858e+00 4.2930150345e+00 
105100 5.0173654515e+00 -4.1812813870e-05 2.4785733858e+00 -4.2930150345e+00 2.4785733858e+00 4.2930150345e+00 
105200 5.0173654516e+00 -4.1788195032e-05 2.4785733858e+00 -4.2930150345e+00 2.4785733858e+00 4.2930150345e+00 
105300 5.0173654517e+00 -4.1763808220e-05 2.4785733858e+00 -4.2930150345e+00 2.4785733858e+00 4.2930150345e+00 
105400 5.0173654518e+00 -4.1739651131e-05 2.4785733858e+00 -4.2930150345e+00 2.4785733858e+00 4.2930150345e+00 
105500 5.0173654519e+00 -4.1715721485e-05 2.4785733858e+00 -4.2930150345e+00 2.4785733858e+00 4.2930150345e+00 
105600 5.0173654519e+00 -4.1692017026e-05 2.4785733858e+00 -4.2930150345e+00 2.4785733858e+00 4.2930150345e+00 
105700 5.0173654520e+00 -4.1668535519e-05 2.4785733858e+00 -4.2930150345e+00 2.4785733858e+00 4.2930150345e+00 
105800 5.0173654521e+00 -4.1645274748e-05 2.4785733858e+00 -4.2930150345e+00 2.4785733858e+00 4.2930150345e+00 
105900 5.0173654522e+00 -4.1622232525e-05 2.4785733858e+00 -4.2930150345e+00 2.4785733858e+00 4.2930150345e+00 
106000 5.0173654522e+00 -4.1599406676e-05 2.4785733858e+00 -4.2930150345e+00 2.4785733858e+00 4.2930150345e+00 
106100 5.0173654523e+00 -4.1576795055e-05 2.4785733858e+00 -4.2930150345e+00 2.4785733858e+00 4.2930150345e+00 
106200 5.0173654524e+00 -4.1554395534e-05 2.4785733858e+00 -4.2930150345e+00 2.4785733858e+00 4.2930150345e+00 
106300 5.0173654525e+00 -4.1532206005e-05 2.4785733858e+00 -4.2930150345e+00 2.4785733858e+00 4.2930150345e+00 
106400 5.0173654525e+00 -4.1510224382e-05 2.4785733858e+00 -4.2930150345e+00 2.4785733858e+00 4.2930150345e+00 
106500 5.0173654526e+00 -4.1488448603e-05 2.4785733858e+00 -4.2930150345e+00 2.4785733858e+00 4.2930150345e+00 
106600 5.0173654527e+00 -4.1466876623e-05 2.4785733858e+00 -4.2930150345e+00 2.4785733858e+00 4.2930150345e+00 
106700 5.0173654527e+00 -4.1445506416e-05 2.4785733858e+00 -4.2930150345e+00 2.4785733858e+00 4.2930150345e+00 
106800 5.0173654528e+00 -4.1424335981e-05 2.4785733858e+00 -4.2930150345e+00 2.4785733858e+00 4.2930150345e+00 
106900 5.0173654529e+00 -4.1403363332e-05 2.4785733858e+00 -4.2930150345e+00 2.4785733858e+00 4.2930150345e+00 
107000 5.0173654529e+00 -4.1382586507e-05 2.4785733858e+00 -4.2930150345e+00 2.4785733858e+00 4.2930150345e+00 
107100 5.0173654530e+00 -4.1362003562e-05 2.4785733858e+00 -4.2930150345e+00 2.4785733858e+00 4.2930150345e+00 
107200 5.0173654531e+00 -4.1341612572e-05 2.4785733858e+00 -4.2930150345e+00 2.4785733858e+00 4.2930150345e+00 
107300 5.0173654531e+00 -4.1321411631e-05 2.4785733858e+00 -4.2930150345e+00 2.4785733858e+00 4.2930150345e+00 
107400 5.0173654532e+00 -4.1301398855e-05 2.4785733858e+00 -4.2930150345e+00 2.4785733858e+00 4.2930150345e+00 
107500 5.0173654533e+00 -4.1281572375e-05 2.4785733858e+00 -4.2930150345e+00 2.4785733858e+00 4.2930150345e+00 
107600 5.0173654533e+00 -4.1261930344e-05 2.4785733858e+00 -4.2930150345e+00 2.4785733858e+00 4.2930150345e+00 
107700 5.0173654534e+00 -4.1242470931e-05 2.4785733858e+00 -4.2930150345e+00 2.4785733858e+00 4.2930150345e+00 
107800 5.0173654534e+00 -4.1223192326e-05 2.4785733858e+00 -4.2930150345e+00 2.4785733858e+00 4.2930150345e+00 
107900 5.0173654535e+00 -4.1204092736e-05 2.4785733858e+00 -4.2930150345e+00 2.4785733858e+00 4.2930150345e+00 
108000 5.0173654536e+00 -4.1185170386e-05 2.4785733858e+00 -4.2930150345e+00 2.4785733858e+00 4.2930150345e+00 
108100 5.0173654536e+00 -4.1166423520e-05 2.4785733858e+00 -4.2930150345e+00 2.4785733858e+00 4.2930150345e+00 
108200 5.0173654537e+00 -4.1147850397e-05 2.4785733858e+00 -4.2930150345e+00 2.4785733858e+00 4.2930150345e+00 
108300 5.0173654537e+00 -4.1129449298e-05 2.4785733858e+00 -4.2930150345e+00 2.4785733858e+00 4.2930150345e+00 
108400 5.0173654538e+00 -4.1111218517e-05 2.4785733858e+00 -4.2930150345e+00 2.4785733858e+00 4.2930150345e+00 
108500 5.0173654538e+00 -4.1093156367e-05 2.4785733858e+00 -4.2930150345e+00 2.4785733858e+00 4.2930150345e+00 
108600 5.0173654539e+00 -4.1075261179e-05 2.4785733858e+00 -4.2930150345e+00 2.4785733858e+00 4.2930150345e+00 
108700 5.0173654539e+00 -4.1057531299e-05 2.4785733858e+00 -4.2930150345e+00 2.4785733858e+00 4.2930150345e+00 
108800 5.0173654540e+00 -4.1039965092e-05 2.4785733858e+00 -4.2930150345e+00 2.4785733858e+00 4.2930150345e+00 
108900 5.0173654540e+00 -4.1022560937e-05 2.4785733858e+00 -4.2930150345e+00 2.4785733858e+00 4.2930150345e+00 
109000 5.0173654541e+00 -4.1005317231e-05 2.4785733858e+00 -4.2930150345e+00 2.4785733858e+00 4.2930150345e+00 
109100 5.0173654541e+00 -4.0991977503e-05 2.4785733858e+00 -4.2930150345e+00 2.4785733858e+00 4.2930150345e+00 
109100 5.0173654541e+00 -4.0991977503e-05 2.4785733858e+00 -4.2930150345e+00 2.4785733858e+00 4.2930150345e+00 
