# step Hamiltonian StressXX CellTensor1 CellTensor2 CellTensor3 CellTensor4 
0 4.8433735466e+00 -3.7275151149e-01 1.7438352029e+00 -3.0204111715e+00 1.7438352029e+00 3.0204111715e+00 
100 4.8433329233e+00 -3.7350433516e-01 1.7438352029e+00 -3.0204111715e+00 1.7438352029e+00 3.0204111715e+00 
200 4.8405428944e+00 -3.6437244212e-01 1.7545553758e+00 -3.0389790555e+00 1.7545553758e+00 3.0389790555e+00 
300 4.8395986243e+00 -3.5570216879e-01 1.7649491693e+00 -3.0569816339e+00 1.7649491693e+00 3.0569816339e+00 
400 4.8402718240e+00 -3.4748417822e-01 1.7750355425e+00 -3.0744517449e+00 1.7750355425e+00 3.0744517449e+00 
500 4.8423273209e+00 -3.3971520018e-01 1.7848325796e+00 -3.0914207109e+00 1.7848325796e+00 3.0914207109e+00 
600 4.8455274508e+00 -3.3239602543e-01 1.7943577165e+00 -3.1079187319e+00 1.7943577165e+00 3.1079187319e+00 
700 4.8496363604e+00 -3.2552973313e-01 1.8036279004e+00 -3.1239751614e+00 1.8036279004e+00 3.1239751614e+00 
800 4.8544240904e+00 -3.1912015106e-01 1.8126596924e+00 -3.1396186841e+00 1.8126596924e+00 3.1396186841e+00 
900 4.8596703307e+00 -3.1317054815e-01 1.8214693213e+00 -3.1548774090e+00 1.8214693213e+00 3.1548774090e+00 
1000 4.8651677585e+00 -3.0768255797e-01 1.8300726980e+00 -3.1697788944e+00 1.8300726980e+00 3.1697788944e+00 
1100 4.8707248868e+00 -3.0265532989e-01 1.8384853974e+00 -3.1843501173e+00 1.8384853974e+00 3.1843501173e+00 
1200 4.8761683758e+00 -2.9808490197e-01 1.8467226171e+00 -3.1986174002e+00 1.8467226171e+00 3.1986174002e+00 
1300 4.8813447800e+00 -2.9396378594e-01 1.8547991163e+00 -3.2126063072e+00 1.8547991163e+00 3.2126063072e+00 
1400 4.8861217222e+00 -2.9028075082e-01 1.8627291453e+00 -3.2263415204e+00 1.8627291453e+00 3.2263415204e+00 
1500 4.8903885091e+00 -2.8702078724e-01 1.8705263680e+00 -3.2398467063e+00 1.8705263680e+00 3.2398467063e+00 
1600 4.8940562177e+00 -2.8416523121e-01 1.8782037844e+00 -3.2531443815e+00 1.8782037844e+00 3.2531443815e+00 
1700 4.8970572979e+00 -2.8169202264e-01 1.8857736557e+00 -3.2662557833e+00 1.8857736557e+00 3.2662557833e+00 
1800 4.8993447464e+00 -2.7957607213e-01 1.8932474380e+00 -3.2792007540e+00 1.8932474380e+00 3.2792007540e+00 
1900 4.9008909191e+00 -2.7778970843e-01 1.9006357245e+00 -3.2919976414e+00 1.9006357245e+00 3.2919976414e+00 
2000 4.9016860479e+00 -2.7630317958e-01 1.9079481999e+00 -3.3046632204e+00 1.9079481999e+00 3.3046632204e+00 
2100 4.9017365362e+00 -2.7508518190e-01 1.9151936084e+00 -3.3172126361e+00 1.9151936084e+00 3.3172126361e+00 
2200 4.9010630990e+00 -2.7410339358e-01 1.9223797347e+00 -3.3296593719e+00 1.9223797347e+00 3.3296593719e+00 
2300 4.8996988160e+00 -2.7332499301e-01 1.9295133978e+00 -3.3420152389e+00 1.9295133978e+00 3.3420152389e+00 
2400 4.8976871540e+00 -2.7271714514e-01 1.9366004592e+00 -3.3542903893e+00 1.9366004592e+00 3.3542903893e+00 
2500 4.8950800129e+00 -2.7224744370e-01 1.9436458413e+00 -3.3664933491e+00 1.9436458413e+00 3.3664933491e+00 
2600 4.8919358377e+00 -2.7188430036e-01 1.9506535571e+00 -3.3786310689e+00 1.9506535571e+00 3.3786310689e+00 
2700 4.8883178325e+00 -2.7159727589e-01 1.9576267486e+00 -3.3907089909e+00 1.9576267486e+00 3.3907089909e+00 
2800 4.8842923031e+00 -2.7135735139e-01 1.9645677325e+00 -3.4027311275e+00 1.9645677325e+00 3.4027311275e+00 
2900 4.8799271482e+00 -2.7113714047e-01 1.9714780512e+00 -3.4147001506e+00 1.9714780512e+00 3.4147001506e+00 
3000 4.8752905096e+00 -2.7091104514e-01 1.9783585288e+00 -3.4266174875e+00 1.9783585288e+00 3.4266174875e+00 
3100 4.8704495887e+00 -2.7065536024e-01 1.9852093288e+00 -3.4384834211e+00 1.9852093288e+00 3.4384834211e+00 
3200 4.8654696294e+00 -2.7034833166e-01 1.9920300132e+00 -3.4502971930e+00 1.9920300132e+00 3.4502971930e+00 
3300 4.8604130621e+00 -2.6997017494e-01 1.9988196021e+00 -3.4620571060e+00 1.9988196021e+00 3.4620571060e+00 
3400 4.8553388037e+00 -2.6950306033e-01 2.0055766322e+00 -3.4737606254e+00 2.0055766322e+00 3.4737606254e+00 
3500 4.8503017025e+00 -2.6893107084e-01 2.0122992134e+00 -3.4854044776e+00 2.0122992134e+00 3.4854044776e+00 
3600 4.8453521162e+00 -2.6824013931e-01 2.0189850833e+00 -3.4969847440e+00 2.0189850833e+00 3.4969847440e+00 
3700 4.8405356121e+00 -2.6741796974e-01 2.0256316592e+00 -3.5084969512e+00 2.0256316592e+00 3.5084969512e+00 
3800 4.8358927752e+00 -2.6645394815e-01 2.0322360864e+00 -3.5199361546e+00 2.0322360864e+00 3.5199361546e+00 
3900 4.8314591116e+00 -2.6533904689e-01 2.0387952836e+00 -3.5312970174e+00 2.0387952836e+00 3.5312970174e+00 
4000 4.8272650350e+00 -2.6406572614e-01 2.0453059850e+00 -3.5425738830e+00 2.0453059850e+00 3.5425738830e+00 
4100 4.8233359241e+00 -2.6262783557e-01 2.0517647789e+00 -3.5537608422e+00 2.0517647789e+00 3.5537608422e+00 
4200 4.8196922399e+00 -2.6102051836e-01 2.0581681432e+00 -3.5648517945e+00 2.0581681432e+00 3.5648517945e+00 
4300 4.8163496927e+00 -2.5924011954e-01 2.0645124775e+00 -3.5758405039e+00 2.0645124775e+00 3.5758405039e+00 
4400 4.8133194488e+00 -2.5728409978e-01 2.0707941329e+00 -3.5867206502e+00 2.0707941329e+00 3.5867206502e+00 
4500 4.8106083704e+00 -2.5515095563e-01 2.0770094382e+00 -3.5974858747e+00 2.0770094382e+00 3.5974858747e+00 
4600 4.8082192796e+00 -2.5284014672e-01 2.0831547242e+00 -3.6081298224e+00 2.0831547242e+00 3.6081298224e+00 
4700 4.8061512415e+00 -2.5035202996e-01 2.0892263461e+00 -3.6186461799e+00 2.0892263461e+00 3.6186461799e+00 
4800 4.8043998601e+00 -2.4768780098e-01 2.0952207025e+00 -3.6290287098e+00 2.0952207025e+00 3.6290287098e+00 
4900 4.8029575833e+00 -2.4484944229e-01 2.1011342545e+00 -3.6392712823e+00 2.1011342545e+00 3.6392712823e+00 
5000 4.8018140122e+00 -2.4183967783e-01 2.1069635415e+00 -3.6493679036e+00 2.1069635415e+00 3.6493679036e+00 
5100 4.8009562121e+00 -2.3866193344e-01 2.1127051968e+00 -3.6593127424e+00 2.1127051968e+00 3.6593127424e+00 
5200 4.8003690226e+00 -2.3532030243e-01 2.1183559614e+00 -3.6691001536e+00 2.1183559614e+00 3.6691001536e+00 
5300 4.8000353641e+00 -2.3181951565e-01 2.1239126967e+00 -3.6787247016e+00 2.1239126967e+00 3.6787247016e+00 
5400 4.7999365394e+00 -2.2816491508e-01 2.1293723971e+00 -3.6881811799e+00 2.1293723971e+00 3.6881811799e+00 
5500 4.8000525290e+00 -2.2436243034e-01 2.1347322006e+00 -3.6974646319e+00 2.1347322006e+00 3.6974646319e+00 
5600 4.8003622786e+00 -2.2041855699e-01 2.1399894000e+00 -3.7065703684e+00 2.1399894000e+00 3.7065703684e+00 
5700 4.8008439777e+00 -2.1634033587e-01 2.1451414524e+00 -3.7154939850e+00 2.1451414524e+00 3.7154939850e+00 
5800 4.8014753296e+00 -2.1213533265e-01 2.1501859891e+00 -3.7242313788e+00 2.1501859891e+00 3.7242313788e+00 
5900 4.8022338099e+00 -2.0781161664e-01 2.1551208241e+00 -3.7327787637e+00 2.1551208241e+00 3.7327787637e+00 
6000 4.8030969148e+00 -2.0337773806e-01 2.1599439627e+00 -3.7411326848e+00 2.1599439627e+00 3.7411326848e+00 
6100 4.8040423971e+00 -1.9884270317e-01 2.1646536094e+00 -3.7492900322e+00 2.1646536094e+00 3.7492900322e+00 
6200 4.8050484897e+00 -1.9421594645e-01 2.1692481752e+00 -3.7572480537e+00 2.1692481752e+00 3.7572480537e+00 
6300 4.8060941150e+00 -1.8950729941e-01 2.1737262845e+00 -3.7650043665e+00 2.1737262845e+00 3.7650043665e+00 
6400 4.8071590804e+00 -1.8472695561e-01 2.1780867809e+00 -3.7725569677e+00 2.1780867809e+00 3.7725569677e+00 
6500 4.8082242572e+00 -1.7988543161e-01 2.1823287326e+00 -3.7799042437e+00 2.1823287326e+00 3.7799042437e+00 
6600 4.8092717435e+00 -1.7499352380e-01 2.1864514375e+00 -3.7870449780e+00 2.1864514375e+00 3.7870449780e+00 
6700 4.8102850085e+00 -1.7006226125e-01 2.1904544261e+00 -3.7939783577e+00 2.1904544261e+00 3.7939783577e+00 
6800 4.8112490180e+00 -1.6510285483e-01 2.1943374652e+00 -3.8007039787e+00 2.1943374652e+00 3.8007039787e+00 
6900 4.8121503393e+00 -1.6012664303e-01 2.1981005589e+00 -3.8072218482e+00 2.1981005589e+00 3.8072218482e+00 
7000 4.8129772258e+00 -1.5514503522e-01 2.2017439499e+00 -3.8135323864e+00 2.2017439499e+00 3.8135323864e+00 
7100 4.8137196783e+00 -1.5016945293e-01 2.2052681186e+00 -3.8196364258e+00 2.2052681186e+00 3.8196364258e+00 
7200 4.8143694846e+00 -1.4521127016e-01 2.2086737824e+00 -3.8255352085e+00 2.2086737824e+00 3.8255352085e+00 
7300 4.8149202357e+00 -1.4028175355e-01 2.2119618922e+00 -3.8312303817e+00 2.2119618922e+00 3.8312303817e+00 
7400 4.8153673195e+00 -1.3539200329e-01 2.2151336291e+00 -3.8367239912e+00 2.2151336291e+00 3.8367239912e+00 
7500 4.8157078910e+00 -1.3055289569e-01 2.2181903994e+00 -3.8420184726e+00 2.2181903994e+00 3.8420184726e+00 
7600 4.8159408218e+00 -1.2577502818e-01 2.2211338285e+00 -3.8471166413e+00 2.2211338285e+00 3.8471166413e+00 
7700 4.8160666277e+00 -1.2106866742e-01 2.2239657541e+00 -3.8520216804e+00 2.2239657541e+00 3.8520216804e+00 
7800 4.8160873776e+00 -1.1644370097e-01 2.2266882181e+00 -3.8567371263e+00 2.2266882181e+00 3.8567371263e+00 
7900 4.8160065846e+00 -1.1190959306e-01 2.2293034577e+00 -3.8612668542e+00 2.2293034577e+00 3.8612668542e+00 
8000 4.8158290816e+00 -1.0747534440e-01 2.2318138958e+00 -3.8656150606e+00 2.2318138958e+00 3.8656150606e+00 
8100 4.8155608835e+00 -1.0314945642e-01 2.2342221309e+00 -3.8697862460e+00 2.2342221309e+00 3.8697862460e+00 
8200 4.8152090392e+00 -9.8939899662e-02 2.2365309255e+00 -3.8737851956e+00 2.2365309255e+00 3.8737851956e+00 
8300 4.8147814744e+00 -9.4854086261e-02 2.2387431952e+00 -3.8776169591e+00 2.2387431952e+00 3.8776169591e+00 
8400 4.8142868296e+00 -9.0898846404e-02 2.2408619963e+00 -3.8812868303e+00 2.2408619963e+00 3.8812868303e+00 
8500 4.8137342947e+00 -8.7080408486e-02 2.2428905136e+00 -3.8848003253e+00 2.2428905136e+00 3.8848003253e+00 
8600 4.8131334432e+00 -8.3404382835e-02 2.2448320475e+00 -3.8881631607e+00 2.2448320475e+00 3.8881631607e+00 
8700 4.8124940684e+00 -7.9875748826e-02 2.2466900011e+00 -3.8913812308e+00 2.2466900011e+00 3.8913812308e+00 
8800 4.8118260235e+00 -7.6498845297e-02 2.2484678671e+00 -3.8944605850e+00 2.2484678671e+00 3.8944605850e+00 
8900 4.8111390687e+00 -7.3277364205e-02 2.2501692141e+00 -3.8974074045e+00 2.2501692141e+00 3.8974074045e+00 
9000 4.8104427262e+00 -7.0214347490e-02 2.2517976738e+00 -3.9002279794e+00 2.2517976738e+00 3.9002279794e+00 
9100 4.8097461463e+00 -6.7312187176e-02 2.2533569268e+00 -3.9029286847e+00 2.2533569268e+00 3.9029286847e+00 
9200 4.8090579840e+00 -6.4572628714e-02 2.2548506896e+00 -3.9055159579e+00 2.2548506896e+00 3.9055159579e+00 
9300 4.8083862906e+00 -6.1996777590e-02 2.2562827015e+00 -3.9079962752e+00 2.2562827015e+00 3.9079962752e+00 
9400 4.8077384189e+00 -5.9585109178e-02 2.2576567107e+00 -3.9103761290e+00 2.2576567107e+00 3.9103761290e+00 
9500 4.8071209438e+00 -5.7337481791e-02 2.2589764621e+00 -3.9126620054e+00 2.2589764621e+00 3.9126620054e+00 
9600 4.8065395997e+00 -5.5253152843e-02 2.2602456840e+00 -3.9148603622e+00 2.2602456840e+00 3.9148603622e+00 
9700 4.8059992346e+00 -5.3330797953e-02 2.2614680761e+00 -3.9169776075e+00 2.2614680761e+00 3.9169776075e+00 
9800 4.8055037801e+00 -5.1568532808e-02 2.2626472975e+00 -3.9190200788e+00 2.2626472975e+00 3.9190200788e+00 
9900 4.8050562396e+00 -4.9963937525e-02 2.2637869550e+00 -3.9209940235e+00 2.2637869550e+00 3.9209940235e+00 
10000 4.8046586912e+00 -4.8514083239e-02 2.2648905923e+00 -3.9229055794e+00 2.2648905923e+00 3.9229055794e+00 
10100 4.8043123074e+00 -4.7215560598e-02 2.2659616794e+00 -3.9247607568e+00 2.2659616794e+00 3.9247607568e+00 
10200 4.8040173887e+00 -4.6064509847e-02 2.2670036030e+00 -3.9265654213e+00 2.2670036030e+00 3.9265654213e+00 
10300 4.8037734106e+00 -4.5056652171e-02 2.2680196567e+00 -3.9283252780e+00 2.2680196567e+00 3.9283252780e+00 
10400 4.8035790827e+00 -4.4187321985e-02 2.2690130330e+00 -3.9300458562e+00 2.2690130330e+00 3.9300458562e+00 
10500 4.8034324173e+00 -4.3451499876e-02 2.2699868150e+00 -3.9317324961e+00 2.2699868150e+00 3.9317324961e+00 
10600 4.8033308076e+00 -4.2843845917e-02 2.2709439693e+00 -3.9333903360e+00 2.2709439693e+00 3.9333903360e+00 
10700 4.8032711106e+00 -4.2358733116e-02 2.2718873394e+00 -3.9350243009e+00 2.2718873394e+00 3.9350243009e+00 
10800 4.8032497363e+00 -4.1990280788e-02 2.2728196398e+00 -3.9366390925e+00 2.2728196398e+00 3.9366390925e+00 
10900 4.8032627381e+00 -4.1732387673e-02 2.2737434509e+00 -3.9382391804e+00 2.2737434509e+00 3.9382391804e+00 
11000 4.8033059046e+00 -4.1578764639e-02 2.2746612149e+00 -3.9398287941e+00 2.2746612149e+00 3.9398287941e+00 
11100 4.8033748500e+00 -4.1522966856e-02 2.2755752311e+00 -3.9414119168e+00 2.2755752311e+00 3.9414119168e+00 
11200 4.8034651015e+00 -4.1558425333e-02 2.2764876541e+00 -3.9429922796e+00 2.2764876541e+00 3.9429922796e+00 
11300 4.8035721822e+00 -4.1678477731e-02 2.2774004901e+00 -3.9445733581e+00 2.2774004901e+00 3.9445733581e+00 
11400 4.8036916892e+00 -4.1876398376e-02 2.2783155964e+00 -3.9461583686e+00 2.2783155964e+00 3.9461583686e+00 
11500 4.8038193637e+00 -4.2145427415e-02 2.2792346792e+00 -3.9477502667e+00 2.2792346792e+00 3.9477502667e+00 
11600 4.8039511540e+00 -4.2478799051e-02 2.2801592938e+00 -3.9493517462e+00 2.2801592938e+00 3.9493517462e+00 
11700 4.8040832701e+00 -4.2869768798e-02 2.2810908447e+00 -3.9509652398e+00 2.2810908447e+00 3.9509652398e+00 
11800 4.8042122298e+00 -4.3311639704e-02 2.2820305862e+00 -3.9525929196e+00 2.2820305862e+00 3.9525929196e+00 
11900 4.8043348947e+00 -4.3797787489e-02 2.2829796234e+00 -3.9542367004e+00 2.2829796234e+00 3.9542367004e+00 
12000 4.8044484988e+00 -4.4321684531e-02 2.2839389148e+00 -3.9558982418e+00 2.2839389148e+00 3.9558982418e+00 
12100 4.8045506667e+00 -4.4876922659e-02 2.2849092739e+00 -3.9575789532e+00 2.2849092739e+00 3.9575789532e+00 
12200 4.8046394245e+00 -4.5457234685e-02 2.2858913728e+00 -3.9592799983e+00 2.2858913728e+00 3.9592799983e+00 
12300 4.8047132019e+00 -4.6056514624e-02 2.2868857448e+00 -3.9610023012e+00 2.2868857448e+00 3.9610023012e+00 
12400 4.8047708273e+00 -4.6668836560e-02 2.2878927889e+00 -3.9627465526e+00 2.2878927889e+00 3.9627465526e+00 
12500 4.8048115165e+00 -4.7288472100e-02 2.2889127733e+00 -3.9645132175e+00 2.2889127733e+00 3.9645132175e+00 
12600 4.8048348545e+00 -4.7909906389e-02 2.2899458408e+00 -3.9663025429e+00 2.2899458408e+00 3.9663025429e+00 
12700 4.8048407738e+00 -4.8527852645e-02 2.2909920130e+00 -3.9681145663e+00 2.2909920130e+00 3.9681145663e+00 
12800 4.8048295268e+00 -4.9137265199e-02 2.2920511959e+00 -3.9699491248e+00 2.2920511959e+00 3.9699491248e+00 
12900 4.8048016561e+00 -4.9733351024e-02 2.2931231853e+00 -3.9718058650e+00 2.2931231853e+00 3.9718058650e+00 
13000 4.8047579615e+00 -5.0311579747e-02 2.2942076728e+00 -3.9736842524e+00 2.2942076728e+00 3.9736842524e+00 
13100 4.8046994662e+00 -5.0867692157e-02 2.2953042515e+00 -3.9755835825e+00 2.2953042515e+00 3.9755835825e+00 
13200 4.8046273805e+00 -5.1397707225e-02 2.2964124223e+00 -3.9775029906e+00 2.2964124223e+00 3.9775029906e+00 
13300 4.8045430671e+00 -5.1897927655e-02 2.2975316002e+00 -3.9794414635e+00 2.2975316002e+00 3.9794414635e+00 
13400 4.8044480053e+00 -5.2364944012e-02 2.2986611206e+00 -3.9813978503e+00 2.2986611206e+00 3.9813978503e+00 
13500 4.8043437569e+00 -5.2795637468e-02 2.2998002461e+00 -3.9833708734e+00 2.2998002461e+00 3.9833708734e+00 
13600 4.8042319336e+00 -5.3187181212e-02 2.3009481724e+00 -3.9853591402e+00 2.3009481724e+00 3.9853591402e+00 
13700 4.8041141657e+00 -5.3537040584e-02 2.3021040357e+00 -3.9873611542e+00 2.3021040357e+00 3.9873611542e+00 
13800 4.8039920738e+00 -5.3842971999e-02 2.3032669186e+00 -3.9893753264e+00 2.3032669186e+00 3.9893753264e+00 
13900 4.8038672426e+00 -5.4103020717e-02 2.3044358566e+00 -3.9913999863e+00 2.3044358566e+00 3.9913999863e+00 
14000 4.8037411974e+00 -5.4315517538e-02 2.3056098448e+00 -3.9934333936e+00 2.3056098448e+00 3.9934333936e+00 
14100 4.8036153837e+00 -5.4479074480e-02 2.3067878442e+00 -3.9954737484e+00 2.3067878442e+00 3.9954737484e+00 
14200 4.8034911499e+00 -5.4592579518e-02 2.3079687876e+00 -3.9975192025e+00 2.3079687876e+00 3.9975192025e+00 
14300 4.8033697322e+00 -5.4655190456e-02 2.3091515861e+00 -3.9995678695e+00 2.3091515861e+00 3.9995678695e+00 
14400 4.8032522435e+00 -5.4666327986e-02 2.3103351346e+00 -4.0016178356e+00 2.3103351346e+00 4.0016178356e+00 
14500 4.8031396648e+00 -5.4625668025e-02 2.3115183177e+00 -4.0036671689e+00 2.3115183177e+00 4.0036671689e+00 
14600 4.8030328389e+00 -5.4533133367e-02 2.3127000155e+00 -4.0057139295e+00 2.3127000155e+00 4.0057139295e+00 
14700 4.8029324678e+00 -5.4388884742e-02 2.3138791084e+00 -4.0077561783e+00 2.3138791084e+00 4.0077561783e+00 
14800 4.8028391113e+00 -5.4193311313e-02 2.3150544828e+00 -4.0097919865e+00 2.3150544828e+00 4.0097919865e+00 
14900 4.8027531891e+00 -5.3947020695e-02 2.3162250357e+00 -4.0118194437e+00 2.3162250357e+00 4.0118194437e+00 
15000 4.8026749843e+00 -5.3650828534e-02 2.3173896795e+00 -4.0138366658e+00 2.3173896795e+00 4.0138366658e+00 
15100 4.8026046488e+00 -5.3305747700e-02 2.3185473461e+00 -4.0158418031e+00 2.3185473461e+00 4.0158418031e+00 
15200 4.8025422105e+00 -5.2912977153e-02 2.3196969916e+00 -4.0178330475e+00 2.3196969916e+00 4.0178330475e+00 
15300 4.8024875818e+00 -5.2473890519e-02 2.3208375998e+00 -4.0198086390e+00 2.3208375998e+00 4.0198086390e+00 
15400 4.8024405694e+00 -5.1990024426e-02 2.3219681862e+00 -4.0217668721e+00 2.3219681862e+00 4.0217668721e+00 
15500 4.8024008846e+00 -5.1463066650e-02 2.3230878010e+00 -4.0237061019e+00 2.3230878010e+00 4.0237061019e+00 
15600 4.8023681550e+00 -5.0894844097e-02 2.3241955326e+00 -4.0256247492e+00 2.3241955326e+00 4.0256247492e+00 
15700 4.8023419356e+00 -5.0287310678e-02 2.3252905102e+00 -4.0275213060e+00 2.3252905102e+00 4.0275213060e+00 
15800 4.8023217216e+00 -4.9642535113e-02 2.3263719064e+00 -4.0293943391e+00 2.3263719064e+00 4.0293943391e+00 
15900 4.8023069597e+00 -4.8962688698e-02 2.3274389397e+00 -4.0312424951e+00 2.3274389397e+00 4.0312424951e+00 
16000 4.8022970605e+00 -4.8250033076e-02 2.3284908765e+00 -4.0330645031e+00 2.3284908765e+00 4.0330645031e+00 
16100 4.8022914099e+00 -4.7506908052e-02 2.3295270328e+00 -4.0348591785e+00 2.3295270328e+00 4.0348591785e+00 
16200 4.8022893804e+00 -4.6735719492e-02 2.3305467757e+00 -4.0366254250e+00 2.3305467757e+00 4.0366254250e+00 
16300 4.8022903415e+00 -4.5938927335e-02 2.3315495247e+00 -4.0383622372e+00 2.3315495247e+00 4.0383622372e+00 
16400 4.8022936698e+00 -4.5119033759e-02 2.3325347528e+00 -4.0400687023e+00 2.3325347528e+00 4.0400687023e+00 
16500 4.8022987580e+00 -4.4278571540e-02 2.3335019871e+00 -4.0417440012e+00 2.3335019871e+00 4.0417440012e+00 
16600 4.8023050231e+00 -4.3420092639e-02 2.3344508093e+00 -4.0433874095e+00 2.3344508093e+00 4.0433874095e+00 
16700 4.8023119136e+00 -4.2546157042e-02 2.3353808562e+00 -4.0449982979e+00 2.3353808562e+00 4.0449982979e+00 
16800 4.8023189158e+00 -4.1659321906e-02 2.3362918194e+00 -4.0465761325e+00 2.3362918194e+00 4.0465761325e+00 
16900 4.8023255592e+00 -4.0762131023e-02 2.3371834454e+00 -4.0481204741e+00 2.3371834454e+00 4.0481204741e+00 
17000 4.8023314205e+00 -3.9857104651e-02 2.3380555350e+00 -4.0496309775e+00 2.3380555350e+00 4.0496309775e+00 
17100 4.8023361268e+00 -3.8946729735e-02 2.3389079425e+00 -4.0511073907e+00 2.3389079425e+00 4.0511073907e+00 
17200 4.8023393581e+00 -3.8033450540e-02 2.3397405756e+00 -4.0525495534e+00 2.3397405756e+00 4.0525495534e+00 
17300 4.8023408482e+00 -3.7119659743e-02 2.3405533933e+00 -4.0539573950e+00 2.3405533933e+00 4.0539573950e+00 
17400 4.8023403851e+00 -3.6207689987e-02 2.3413464056e+00 -4.0553309327e+00 2.3413464056e+00 4.0553309327e+00 
17500 4.8023378106e+00 -3.5299805935e-02 2.3421196719e+00 -4.0566702691e+00 2.3421196719e+00 4.0566702691e+00 
17600 4.8023330187e+00 -3.4398196838e-02 2.3428732990e+00 -4.0579755895e+00 2.3428732990e+00 4.0579755895e+00 
17700 4.8023259535e+00 -3.3504969634e-02 2.3436074401e+00 -4.0592471593e+00 2.3436074401e+00 4.0592471593e+00 
17800 4.8023166068e+00 -3.2622142606e-02 2.3443222926e+00 -4.0604853201e+00 2.3443222926e+00 4.0604853201e+00 
17900 4.8023050143e+00 -3.1751639592e-02 2.3450180962e+00 -4.0616904872e+00 2.3450180962e+00 4.0616904872e+00 
18000 4.8022912523e+00 -3.0895284780e-02 2.3456951307e+00 -4.0628631455e+00 2.3456951307e+00 4.0628631455e+00 
18100 4.8022754332e+00 -3.0054798070e-02 2.3463537144e+00 -4.0640038459e+00 2.3463537144e+00 4.0640038459e+00 
18200 4.8022577012e+00 -2.9231791040e-02 2.3469942011e+00 -4.0651132013e+00 2.3469942011e+00 4.0651132013e+00 
18300 4.8022382275e+00 -2.8427763484e-02 2.3476169781e+00 -4.0661918828e+00 2.3476169781e+00 4.0661918828e+00 
18400 4.8022172057e+00 -2.7644100548e-02 2.3482224641e+00 -4.0672406154e+00 2.3482224641e+00 4.0672406154e+00 
18500 4.8021948470e+00 -2.6882070450e-02 2.3488111063e+00 -4.0682601735e+00 2.3488111063e+00 4.0682601735e+00 
18600 4.8021713753e+00 -2.6142822768e-02 2.3493833780e+00 -4.0692513771e+00 2.3493833780e+00 4.0692513771e+00 
18700 4.8021470224e+00 -2.5427387317e-02 2.3499397762e+00 -4.0702150871e+00 2.3499397762e+00 4.0702150871e+00 
18800 4.8021220241e+00 -2.4736673563e-02 2.3504808191e+00 -4.0711522008e+00 2.3504808191e+00 4.0711522008e+00 
18900 4.8020966153e+00 -2.4071470597e-02 2.3510070432e+00 -4.0720636478e+00 2.3510070432e+00 4.0720636478e+00 
19000 4.8020710267e+00 -2.3432447631e-02 2.3515190014e+00 -4.0729503854e+00 2.3515190014e+00 4.0729503854e+00 
19100 4.8020454808e+00 -2.2820155010e-02 2.3520172596e+00 -4.0738133940e+00 2.3520172596e+00 4.0738133940e+00 
19200 4.8020201887e+00 -2.2235025705e-02 2.3525023951e+00 -4.0746536732e+00 2.3525023951e+00 4.0746536732e+00 
19300 4.8019953479e+00 -2.1677377284e-02 2.3529749933e+00 -4.0754722374e+00 2.3529749933e+00 4.0754722374e+00 
19400 4.8019711389e+00 -2.1147414323e-02 2.3534356460e+00 -4.0762701112e+00 2.3534356460e+00 4.0762701112e+00 
19500 4.8019477244e+00 -2.0645231236e-02 2.3538849484e+00 -4.0770483259e+00 2.3538849484e+00 4.0770483259e+00 
19600 4.8019252469e+00 -2.0170815501e-02 2.3543234973e+00 -4.0778079148e+00 2.3543234973e+00 4.0778079148e+00 
19700 4.8019038280e+00 -1.9724051244e-02 2.3547518885e+00 -4.0785499100e+00 2.3547518885e+00 4.0785499100e+00 
19800 4.8018835679e+00 -1.9304723164e-02 2.3551707147e+00 -4.0792753383e+00 2.3551707147e+00 4.0792753383e+00 
19900 4.8018645449e+00 -1.8912520767e-02 2.3555805636e+00 -4.0799852174e+00 2.3555805636e+00 4.0799852174e+00 
20000 4.8018468156e+00 -1.8547042866e-02 2.3559820157e+00 -4.0806805530e+00 2.3559820157e+00 4.0806805530e+00 
20100 4.8018304154e+00 -1.8207802337e-02 2.3563756427e+00 -4.0813623348e+00 2.3563756427e+00 4.0813623348e+00 
20200 4.8018153594e+00 -1.7894231084e-02 2.3567620051e+00 -4.0820315341e+00 2.3567620051e+00 4.0820315341e+00 
20300 4.8018016434e+00 -1.7605685190e-02 2.3571416512e+00 -4.0826891005e+00 2.3571416512e+00 4.0826891005e+00 
20400 4.8017892451e+00 -1.7341450220e-02 2.3575151152e+00 -4.0833359591e+00 2.3575151152e+00 4.0833359591e+00 
20500 4.8017781261e+00 -1.7100746650e-02 2.3578829156e+00 -4.0839730081e+00 2.3578829156e+00 4.0839730081e+00 
20600 4.8017682329e+00 -1.6882735389e-02 2.3582455542e+00 -4.0846011165e+00 2.3582455542e+00 4.0846011165e+00 
20700 4.8017594996e+00 -1.6686523364e-02 2.3586035144e+00 -4.0852211218e+00 2.3586035144e+00 4.0852211218e+00 
20800 4.8017518490e+00 -1.6511169141e-02 2.3589572606e+00 -4.0858338282e+00 2.3589572606e+00 4.0858338282e+00 
20900 4.8017451950e+00 -1.6355688558e-02 2.3593072368e+00 -4.0864400048e+00 2.3593072368e+00 4.0864400048e+00 
21000 4.8017394448e+00 -1.6219060344e-02 2.3596538658e+00 -4.0870403839e+00 2.3596538658e+00 4.0870403839e+00 
21100 4.8017345003e+00 -1.6100231682e-02 2.3599975487e+00 -4.0876356602e+00 2.3599975487e+00 4.0876356602e+00 
21200 4.8017302604e+00 -1.5998123725e-02 2.3603386639e+00 -4.0882264890e+00 2.3603386639e+00 4.0882264890e+00 
21300 4.8017266227e+00 -1.5911637008e-02 2.3606775667e+00 -4.0888134858e+00 2.3606775667e+00 4.0888134858e+00 
21400 4.8017234852e+00 -1.5839656757e-02 2.3610145889e+00 -4.0893972254e+00 2.3610145889e+00 4.0893972254e+00 
21500 4.8017207479e+00 -1.5781058070e-02 2.3613500386e+00 -4.0899782413e+00 2.3613500386e+00 4.0899782413e+00 
21600 4.8017183145e+00 -1.5734710945e-02 2.3616841998e+00 -4.0905570254e+00 2.3616841998e+00 4.0905570254e+00 
21700 4.8017160932e+00 -1.5699485144e-02 2.3620173324e+00 -4.0911340280e+00 2.3620173324e+00 4.0911340280e+00 
21800 4.8017139981e+00 -1.5674254883e-02 2.3623496723e+00 -4.0917096577e+00 2.3623496723e+00 4.0917096577e+00 
21900 4.8017119500e+00 -1.5657903320e-02 2.3626814314e+00 -4.0922842814e+00 2.3626814314e+00 4.0922842814e+00 
22000 4.8017098775e+00 -1.5649326844e-02 2.3630127979e+00 -4.0928582250e+00 2.3630127979e+00 4.0928582250e+00 
22100 4.8017077170e+00 -1.5647439138e-02 2.3633439365e+00 -4.0934317737e+00 2.3633439365e+00 4.0934317737e+00 
22200 4.8017054137e+00 -1.5651175024e-02 2.3636749887e+00 -4.0940051730e+00 2.3636749887e+00 4.0940051730e+00 
22300 4.8017029214e+00 -1.5659494073e-02 2.3640060735e+00 -4.0945786288e+00 2.3640060735e+00 4.0945786288e+00 
22400 4.8017002027e+00 -1.5671383966e-02 2.3643372880e+00 -4.0951523090e+00 2.3643372880e+00 4.0951523090e+00 
22500 4.8016972289e+00 -1.5685863621e-02 2.3646687075e+00 -4.0957263445e+00 2.3646687075e+00 4.0957263445e+00 
22600 4.8016939800e+00 -1.5701986059e-02 2.3650003867e+00 -4.0963008298e+00 2.3650003867e+00 4.0963008298e+00 
22700 4.8016904439e+00 -1.5718841027e-02 2.3653323603e+00 -4.0968758249e+00 2.3653323603e+00 4.0968758249e+00 
22800 4.8016866164e+00 -1.5735557363e-02 2.3656646436e+00 -4.0974513565e+00 2.3656646436e+00 4.0974513565e+00 
22900 4.8016825004e+00 -1.5751305109e-02 2.3659972336e+00 -4.0980274192e+00 2.3659972336e+00 4.0980274192e+00 
23000 4.8016781054e+00 -1.5765297369e-02 2.3663301096e+00 -4.0986039773e+00 2.3663301096e+00 4.0986039773e+00 
23100 4.8016734466e+00 -1.5776791922e-02 2.3666632345e+00 -4.0991809665e+00 2.3666632345e+00 4.0991809665e+00 
23200 4.8016685445e+00 -1.5785092584e-02 2.3669965553e+00 -4.0997582951e+00 2.3669965553e+00 4.0997582951e+00 
23300 4.8016634240e+00 -1.5789550326e-02 2.3673300045e+00 -4.1003358461e+00 2.3673300045e+00 4.1003358461e+00 
23400 4.8016581133e+00 -1.5789564158e-02 2.3676635009e+00 -4.1009134788e+00 2.3676635009e+00 4.1009134788e+00 
23500 4.8016526438e+00 -1.5784581777e-02 2.3679969506e+00 -4.1014910306e+00 2.3679969506e+00 4.1014910306e+00 
23600 4.8016470486e+00 -1.5774099990e-02 2.3683302482e+00 -4.1020683189e+00 2.3683302482e+00 4.1020683189e+00 
23700 4.8016413622e+00 -1.5757664918e-02 2.3686632775e+00 -4.1026451427e+00 2.3686632775e+00 4.1026451427e+00 
23800 4.8016356200e+00 -1.5734871985e-02 2.3689959131e+00 -4.1032212844e+00 2.3689959131e+00 4.1032212844e+00 
23900 4.8016298568e+00 -1.5705365714e-02 2.3693280209e+00 -4.1037965120e+00 2.3693280209e+00 4.1037965120e+00 
24000 4.8016241072e+00 -1.5668839313e-02 2.3696594594e+00 -4.1043705803e+00 2.3696594594e+00 4.1043705803e+00 
24100 4.8016184044e+00 -1.5625034092e-02 2.3699900808e+00 -4.1049432334e+00 2.3699900808e+00 4.1049432334e+00 
24200 4.8016127797e+00 -1.5573738690e-02 2.3703197319e+00 -4.1055142059e+00 2.3703197319e+00 4.1055142059e+00 
24300 4.8016072625e+00 -1.5514788146e-02 2.3706482551e+00 -4.1060832247e+00 2.3706482551e+00 4.1060832247e+00 
24400 4.8016018795e+00 -1.5448062810e-02 2.3709754893e+00 -4.1066500110e+00 2.3709754893e+00 4.1066500110e+00 
24500 4.8015966549e+00 -1.5373487104e-02 2.3713012712e+00 -4.1072142817e+00 2.3713012712e+00 4.1072142817e+00 
24600 4.8015916094e+00 -1.5291028157e-02 2.3716254358e+00 -4.1077757512e+00 2.3716254358e+00 4.1077757512e+00 
24700 4.8015867608e+00 -1.5200694310e-02 2.3719478175e+00 -4.1083341328e+00 2.3719478175e+00 4.1083341328e+00 
24800 4.8015821237e+00 -1.5102533501e-02 2.3722682511e+00 -4.1088891401e+00 2.3722682511e+00 4.1088891401e+00 
24900 4.8015777093e+00 -1.4996631562e-02 2.3725865724e+00 -4.1094404888e+00 2.3725865724e+00 4.1094404888e+00 
25000 4.8015735254e+00 -1.4883110406e-02 2.3729026192e+00 -4.1099878978e+00 2.3729026192e+00 4.1099878978e+00 
25100 4.8015695768e+00 -1.4762126144e-02 2.3732162316e+00 -4.1105310906e+00 2.3732162316e+00 4.1105310906e+00 
25200 4.8015658651e+00 -1.4633867124e-02 2.3735272536e+00 -4.1110697964e+00 2.3735272536e+00 4.1110697964e+00 
25300 4.8015623891e+00 -1.4498551915e-02 2.3738355329e+00 -4.1116037518e+00 2.3738355329e+00 4.1116037518e+00 
25400 4.8015591447e+00 -1.4356427230e-02 2.3741409218e+00 -4.1121327009e+00 2.3741409218e+00 4.1121327009e+00 
25500 4.8015561257e+00 -1.4207765821e-02 2.3744432782e+00 -4.1126563975e+00 2.3744432782e+00 4.1126563975e+00 
25600 4.8015533233e+00 -1.4052864332e-02 2.3747424655e+00 -4.1131746051e+00 2.3747424655e+00 4.1131746051e+00 
25700 4.8015507270e+00 -1.3892041138e-02 2.3750383535e+00 -4.1136870981e+00 2.3750383535e+00 4.1136870981e+00 
25800 4.8015483246e+00 -1.3725634171e-02 2.3753308188e+00 -4.1141936629e+00 2.3753308188e+00 4.1141936629e+00 
25900 4.8015461026e+00 -1.3553998739e-02 2.3756197451e+00 -4.1146940980e+00 2.3756197451e+00 4.1146940980e+00 
26000 4.8015440464e+00 -1.3377505357e-02 2.3759050237e+00 -4.1151882150e+00 2.3759050237e+00 4.1151882150e+00 
26100 4.8015421407e+00 -1.3196537594e-02 2.3761865537e+00 -4.1156758392e+00 2.3761865537e+00 4.1156758392e+00 
26200 4.8015403697e+00 -1.3011489934e-02 2.3764642422e+00 -4.1161568099e+00 2.3764642422e+00 4.1161568099e+00 
26300 4.8015387174e+00 -1.2822765680e-02 2.3767380048e+00 -4.1166309806e+00 2.3767380048e+00 4.1166309806e+00 
26400 4.8015371679e+00 -1.2630774885e-02 2.3770077654e+00 -4.1170982197e+00 2.3770077654e+00 4.1170982197e+00 
26500 4.8015357055e+00 -1.2435932340e-02 2.3772734568e+00 -4.1175584107e+00 2.3772734568e+00 4.1175584107e+00 
26600 4.8015343151e+00 -1.2238655602e-02 2.3775350204e+00 -4.1180114520e+00 2.3775350204e+00 4.1180114520e+00 
26700 4.8015329824e+00 -1.2039363091e-02 2.3777924062e+00 -4.1184572574e+00 2.3777924062e+00 4.1184572574e+00 
26800 4.8015316937e+00 -1.1838472246e-02 2.3780455733e+00 -4.1188957557e+00 2.3780455733e+00 4.1188957557e+00 
26900 4.8015304365e+00 -1.1636397752e-02 2.3782944894e+00 -4.1193268911e+00 2.3782944894e+00 4.1193268911e+00 
27000 4.8015291996e+00 -1.1433549836e-02 2.3785391311e+00 -4.1197506228e+00 2.3785391311e+00 4.1197506228e+00 
27100 4.8015279726e+00 -1.1230332655e-02 2.3787794833e+00 -4.1201669250e+00 2.3787794833e+00 4.1201669250e+00 
27200 4.8015267467e+00 -1.1027142753e-02 2.3790155396e+00 -4.1205757866e+00 2.3790155396e+00 4.1205757866e+00 
27300 4.8015255143e+00 -1.0824367612e-02 2.3792473019e+00 -4.1209772106e+00 2.3792473019e+00 4.1209772106e+00 
27400 4.8015242692e+00 -1.0622384292e-02 2.3794747801e+00 -4.1213712145e+00 2.3794747801e+00 4.1213712145e+00 
27500 4.8015230064e+00 -1.0421558159e-02 2.3796979922e+00 -4.1217578292e+00 2.3796979922e+00 4.1217578292e+00 
27600 4.8015217225e+00 -1.0222241714e-02 2.3799169637e+00 -4.1221370988e+00 2.3799169637e+00 4.1221370988e+00 
27700 4.8015204149e+00 -1.0024773513e-02 2.3801317274e+00 -4.1225090805e+00 2.3801317274e+00 4.1225090805e+00 
27800 4.8015190825e+00 -9.8294771837e-03 2.3803423233e+00 -4.1228738433e+00 2.3803423233e+00 4.1228738433e+00 
27900 4.8015177251e+00 -9.6366605450e-03 2.3805487982e+00 -4.1232314684e+00 2.3805487982e+00 4.1232314684e+00 
28000 4.8015163439e+00 -9.4466148199e-03 2.3807512052e+00 -4.1235820477e+00 2.3807512052e+00 4.1235820477e+00 
28100 4.8015149404e+00 -9.2596139492e-03 2.3809496037e+00 -4.1239256838e+00 2.3809496037e+00 4.1239256838e+00 
28200 4.8015135174e+00 -9.0759140026e-03 2.3811440584e+00 -4.1242624894e+00 2.3811440584e+00 4.1242624894e+00 
28300 4.8015120783e+00 -8.8957526862e-03 2.3813346398e+00 -4.1245925860e+00 2.3813346398e+00 4.1245925860e+00 
28400 4.8015106267e+00 -8.7193489462e-03 2.3815214231e+00 -4.1249161041e+00 2.3815214231e+00 4.1249161041e+00 
28500 4.8015091672e+00 -8.5469026663e-03 2.3817044880e+00 -4.1252331819e+00 2.3817044880e+00 4.1252331819e+00 
28600 4.8015077044e+00 -8.3785944570e-03 2.3818839185e+00 -4.1255439647e+00 2.3818839185e+00 4.1255439647e+00 
28700 4.8015062431e+00 -8.2145855350e-03 2.3820598024e+00 -4.1258486044e+00 2.3820598024e+00 4.1258486044e+00 
28800 4.8015047883e+00 -8.0550176894e-03 2.3822322306e+00 -4.1261472588e+00 2.3822322306e+00 4.1261472588e+00 
28900 4.8015033452e+00 -7.9000133318e-03 2.3824012971e+00 -4.1264400905e+00 2.3824012971e+00 4.1264400905e+00 
29000 4.8015019185e+00 -7.7496756283e-03 2.3825670984e+00 -4.1267272668e+00 2.3825670984e+00 4.1267272668e+00 
29100 4.8015005130e+00 -7.6040887082e-03 2.3827297331e+00 -4.1270089584e+00 2.3827297331e+00 4.1270089584e+00 
29200 4.8014991332e+00 -7.4633179469e-03 2.3828893016e+00 -4.1272853392e+00 2.3828893016e+00 4.1272853392e+00 
29300 4.8014977834e+00 -7.3274103195e-03 2.3830459056e+00 -4.1275565853e+00 2.3830459056e+00 4.1275565853e+00 
29400 4.8014964673e+00 -7.1963948194e-03 2.3831996477e+00 -4.1278228744e+00 2.3831996477e+00 4.1278228744e+00 
29500 4.8014951883e+00 -7.0702829400e-03 2.3833506311e+00 -4.1280843853e+00 2.3833506311e+00 4.1280843853e+00 
29600 4.8014939494e+00 -6.9490692137e-03 2.3834989592e+00 -4.1283412971e+00 2.3834989592e+00 4.1283412971e+00 
29700 4.8014927530e+00 -6.8327318035e-03 2.3836447352e+00 -4.1285937886e+00 2.3836447352e+00 4.1285937886e+00 
29800 4.8014916010e+00 -6.7212331447e-03 2.3837880619e+00 -4.1288420377e+00 2.3837880619e+00 4.1288420377e+00 
29900 4.8014904949e+00 -6.6145206299e-03 2.3839290413e+00 -4.1290862212e+00 2.3839290413e+00 4.1290862212e+00 
30000 4.8014894357e+00 -6.5125273342e-03 2.3840677741e+00 -4.1293265135e+00 2.3840677741e+00 4.1293265135e+00 
30100 4.8014884238e+00 -6.4151727759e-03 2.3842043598e+00 -4.1295630868e+00 2.3842043598e+00 4.1295630868e+00 
30200 4.8014874592e+00 -6.3223637069e-03 2.3843388960e+00 -4.1297961103e+00 2.3843388960e+00 4.1297961103e+00 
30300 4.8014865415e+00 -6.2339949303e-03 2.3844714782e+00 -4.1300257495e+00 2.3844714782e+00 4.1300257495e+00 
30400 4.8014856697e+00 -6.1499501393e-03 2.3846022001e+00 -4.1302521665e+00 2.3846022001e+00 4.1302521665e+00 
30500 4.8014848426e+00 -6.0701027728e-03 2.3847311526e+00 -4.1304755186e+00 2.3847311526e+00 4.1304755186e+00 
30600 4.8014840586e+00 -5.9943168846e-03 2.3848584239e+00 -4.1306959590e+00 2.3848584239e+00 4.1306959590e+00 
30700 4.8014833159e+00 -5.9224480211e-03 2.3849840995e+00 -4.1309136355e+00 2.3849840995e+00 4.1309136355e+00 
30800 4.8014826123e+00 -5.8543441036e-03 2.3851082617e+00 -4.1311286908e+00 2.3851082617e+00 4.1311286908e+00 
30900 4.8014819455e+00 -5.7898463114e-03 2.3852309898e+00 -4.1313412620e+00 2.3852309898e+00 4.1313412620e+00 
31000 4.8014813129e+00 -5.7287899609e-03 2.3853523595e+00 -4.1315514805e+00 2.3853523595e+00 4.1315514805e+00 
31100 4.8014807119e+00 -5.6710053791e-03 2.3854724431e+00 -4.1317594716e+00 2.3854724431e+00 4.1317594716e+00 
31200 4.8014801400e+00 -5.6163187660e-03 2.3855913096e+00 -4.1319653543e+00 2.3855913096e+00 4.1319653543e+00 
31300 4.8014795943e+00 -5.5645530430e-03 2.3857090239e+00 -4.1321692415e+00 2.3857090239e+00 4.1321692415e+00 
31400 4.8014790721e+00 -5.5155286854e-03 2.3858256475e+00 -4.1323712394e+00 2.3858256475e+00 4.1323712394e+00 
31500 4.8014785709e+00 -5.4690645339e-03 2.3859412379e+00 -4.1325714480e+00 2.3859412379e+00 4.1325714480e+00 
31600 4.8014780881e+00 -5.4249785852e-03 2.3860558491e+00 -4.1327699603e+00 2.3860558491e+00 4.1327699603e+00 
31700 4.8014776212e+00 -5.3830887556e-03 2.3861695308e+00 -4.1329668629e+00 2.3861695308e+00 4.1329668629e+00 
31800 4.8014771679e+00 -5.3432136185e-03 2.3862823294e+00 -4.1331622358e+00 2.3862823294e+00 4.1331622358e+00 
31900 4.8014767262e+00 -5.3051731123e-03 2.3863942872e+00 -4.1333561523e+00 2.3863942872e+00 4.1333561523e+00 
32000 4.8014762939e+00 -5.2687892157e-03 2.3865054426e+00 -4.1335486791e+00 2.3865054426e+00 4.1335486791e+00 
32100 4.8014758695e+00 -5.2338865910e-03 2.3866158306e+00 -4.1337398767e+00 2.3866158306e+00 4.1337398767e+00 
32200 4.8014754513e+00 -5.2002931921e-03 2.3867254822e+00 -4.1339297989e+00 2.3867254822e+00 4.1339297989e+00 
32300 4.8014750380e+00 -5.1678408367e-03 2.3868344250e+00 -4.1341184934e+00 2.3868344250e+00 4.1341184934e+00 
32400 4.8014746284e+00 -5.1363657406e-03 2.3869426831e+00 -4.1343060018e+00 2.3869426831e+00 4.1343060018e+00 
32500 4.8014742217e+00 -5.1057090153e-03 2.3870502769e+00 -4.1344923598e+00 2.3870502769e+00 4.1344923598e+00 
32600 4.8014738171e+00 -5.0757171257e-03 2.3871572237e+00 -4.1346775970e+00 2.3871572237e+00 4.1346775970e+00 
32700 4.8014734140e+00 -5.0462423092e-03 2.3872635375e+00 -4.1348617379e+00 2.3872635375e+00 4.1348617379e+00 
32800 4.8014730123e+00 -5.0171429551e-03 2.3873692292e+00 -4.1350448013e+00 2.3873692292e+00 4.1350448013e+00 
32900 4.8014726117e+00 -4.9882839438e-03 2.3874743068e+00 -4.1352268011e+00 2.3874743068e+00 4.1352268011e+00 
33000 4.8014722122e+00 -4.9595369475e-03 2.3875787753e+00 -4.1354077459e+00 2.3875787753e+00 4.1354077459e+00 
33100 4.8014718140e+00 -4.9307806900e-03 2.3876826373e+00 -4.1355876401e+00 2.3876826373e+00 4.1355876401e+00 
33200 4.8014714173e+00 -4.9019011686e-03 2.3877858926e+00 -4.1357664835e+00 2.3877858926e+00 4.1357664835e+00 
33300 4.8014710226e+00 -4.8727918368e-03 2.3878885386e+00 -4.1359442717e+00 2.3878885386e+00 4.1359442717e+00 
33400 4.8014706303e+00 -4.8433537492e-03 2.3879905707e+00 -4.1361209965e+00 2.3879905707e+00 4.1361209965e+00 
33500 4.8014702410e+00 -4.8134956694e-03 2.3880919821e+00 -4.1362966462e+00 2.3880919821e+00 4.1362966462e+00 
33600 4.8014698553e+00 -4.7831341413e-03 2.3881927640e+00 -4.1364712056e+00 2.3881927640e+00 4.1364712056e+00 
33700 4.8014694738e+00 -4.7521935258e-03 2.3882929060e+00 -4.1366446566e+00 2.3882929060e+00 4.1366446566e+00 
33800 4.8014690972e+00 -4.7206060030e-03 2.3883923960e+00 -4.1368169784e+00 2.3883923960e+00 4.1368169784e+00 
33900 4.8014687262e+00 -4.6883115420e-03 2.3884912206e+00 -4.1369881476e+00 2.3884912206e+00 4.1369881476e+00 
34000 4.8014683613e+00 -4.6552578390e-03 2.3885893651e+00 -4.1371581388e+00 2.3885893651e+00 4.1371581388e+00 
34100 4.8014680034e+00 -4.6214002253e-03 2.3886868136e+00 -4.1373269245e+00 2.3886868136e+00 4.1373269245e+00 
34200 4.8014676528e+00 -4.5867015473e-03 2.3887835494e+00 -4.1374944759e+00 2.3887835494e+00 4.1374944759e+00 
34300 4.8014673103e+00 -4.5511320189e-03 2.3888795550e+00 -4.1376607625e+00 2.3888795550e+00 4.1376607625e+00 
34400 4.8014669763e+00 -4.5146690490e-03 2.3889748123e+00 -4.1378257529e+00 2.3889748123e+00 4.1378257529e+00 
34500 4.8014666512e+00 -4.4772970451e-03 2.3890693026e+00 -4.1379894149e+00 2.3890693026e+00 4.1379894149e+00 
34600 4.8014663355e+00 -4.4390071949e-03 2.3891630070e+00 -4.1381517157e+00 2.3891630070e+00 4.1381517157e+00 
34700 4.8014660293e+00 -4.3997972280e-03 2.3892559064e+00 -4.1383126222e+00 2.3892559064e+00 4.1383126222e+00 
34800 4.8014657329e+00 -4.3596711583e-03 2.3893479816e+00 -4.1384721011e+00 2.3893479816e+00 4.1384721011e+00 
34900 4.8014654465e+00 -4.3186390105e-03 2.3894392136e+00 -4.1386301195e+00 2.3894392136e+00 4.1386301195e+00 
35000 4.8014651702e+00 -4.2767165311e-03 2.3895295835e+00 -4.1387866447e+00 2.3895295835e+00 4.1387866447e+00 
35100 4.8014649039e+00 -4.2339248860e-03 2.3896190727e+00 -4.1389416446e+00 2.3896190727e+00 4.1389416446e+00 
35200 4.8014646475e+00 -4.1902903475e-03 2.3897076632e+00 -4.1390950879e+00 2.3897076632e+00 4.1390950879e+00 
35300 4.8014644010e+00 -4.1458439701e-03 2.3897953374e+00 -4.1392469441e+00 2.3897953374e+00 4.1392469441e+00 
35400 4.8014641641e+00 -4.1006212599e-03 2.3898820785e+00 -4.1393971841e+00 2.3898820785e+00 4.1393971841e+00 
35500 4.8014639366e+00 -4.0546618363e-03 2.3899678703e+00 -4.1395457799e+00 2.3899678703e+00 4.1395457799e+00 
35600 4.8014637182e+00 -4.0080090896e-03 2.3900526975e+00 -4.1396927049e+00 2.3900526975e+00 4.1396927049e+00 
35700 4.8014635084e+00 -3.9607098357e-03 2.3901365457e+00 -4.1398379342e+00 2.3901365457e+00 4.1398379342e+00 
35800 4.8014633071e+00 -3.9128139688e-03 2.3902194015e+00 -4.1399814447e+00 2.3902194015e+00 4.1399814447e+00 
35900 4.8014631136e+00 -3.8643741141e-03 2.3903012525e+00 -4.1401232147e+00 2.3903012525e+00 4.1401232147e+00 
36000 4.8014629277e+00 -3.8154452825e-03 2.3903820874e+00 -4.1402632249e+00 2.3903820874e+00 4.1402632249e+00 
36100 4.8014627488e+00 -3.7660845272e-03 2.3904618961e+00 -4.1404014577e+00 2.3904618961e+00 4.1404014577e+00 
36200 4.8014625764e+00 -3.7163506057e-03 2.3905406697e+00 -4.1405378975e+00 2.3905406697e+00 4.1405378975e+00 
36300 4.8014624102e+00 -3.6663036458e-03 2.3906184005e+00 -4.1406725311e+00 2.3906184005e+00 4.1406725311e+00 
36400 4.8014622497e+00 -3.6160048194e-03 2.3906950820e+00 -4.1408053474e+00 2.3906950820e+00 4.1408053474e+00 
36500 4.8014620943e+00 -3.5655160237e-03 2.3907707090e+00 -4.1409363372e+00 2.3907707090e+00 4.1409363372e+00 
36600 4.8014619438e+00 -3.5148995709e-03 2.3908452777e+00 -4.1410654941e+00 2.3908452777e+00 4.1410654941e+00 
36700 4.8014617976e+00 -3.4642178881e-03 2.3909187856e+00 -4.1411928134e+00 2.3909187856e+00 4.1411928134e+00 
36800 4.8014616553e+00 -3.4135332278e-03 2.3909912313e+00 -4.1413182930e+00 2.3909912313e+00 4.1413182930e+00 
36900 4.8014615167e+00 -3.3629073902e-03 2.3910626148e+00 -4.1414419330e+00 2.3910626148e+00 4.1414419330e+00 
37000 4.8014613813e+00 -3.3124014568e-03 2.3911329376e+00 -4.1415637356e+00 2.3911329376e+00 4.1415637356e+00 
37100 4.8014612489e+00 -3.2620755387e-03 2.3912022022e+00 -4.1416837054e+00 2.3912022022e+00 4.1416837054e+00 
37200 4.8014611191e+00 -3.2119885367e-03 2.3912704125e+00 -4.1418018491e+00 2.3912704125e+00 4.1418018491e+00 
37300 4.8014609918e+00 -3.1621979162e-03 2.3913375735e+00 -4.1419181754e+00 2.3913375735e+00 4.1419181754e+00 
37400 4.8014608667e+00 -3.1127594974e-03 2.3914036916e+00 -4.1420326953e+00 2.3914036916e+00 4.1420326953e+00 
37500 4.8014607436e+00 -3.0637272588e-03 2.3914687742e+00 -4.1421454216e+00 2.3914687742e+00 4.1421454216e+00 
37600 4.8014606225e+00 -3.0151531569e-03 2.3915328298e+00 -4.1422563692e+00 2.3915328298e+00 4.1422563692e+00 
37700 4.8014605031e+00 -2.9670869611e-03 2.3915958682e+00 -4.1423655548e+00 2.3915958682e+00 4.1423655548e+00 
37800 4.8014603855e+00 -2.9195761042e-03 2.3916579000e+00 -4.1424729971e+00 2.3916579000e+00 4.1424729971e+00 
37900 4.8014602695e+00 -2.8726655478e-03 2.3917189369e+00 -4.1425787161e+00 2.3917189369e+00 4.1425787161e+00 
38000 4.8014601551e+00 -2.8263976640e-03 2.3917789915e+00 -4.1426827338e+00 2.3917789915e+00 4.1426827338e+00 
38100 4.8014600423e+00 -2.7808121325e-03 2.3918380775e+00 -4.1427850736e+00 2.3918380775e+00 4.1427850736e+00 
38200 4.8014599311e+00 -2.7359458527e-03 2.3918962090e+00 -4.1428857604e+00 2.3918962090e+00 4.1428857604e+00 
38300 4.8014598216e+00 -2.6918328712e-03 2.3919534012e+00 -4.1429848202e+00 2.3919534012e+00 4.1429848202e+00 
38400 4.8014597138e+00 -2.6485043244e-03 2.3920096699e+00 -4.1430822805e+00 2.3920096699e+00 4.1430822805e+00 
38500 4.8014596077e+00 -2.6059883955e-03 2.3920650316e+00 -4.1431781698e+00 2.3920650316e+00 4.1431781698e+00 
38600 4.8014595034e+00 -2.5643102855e-03 2.3921195033e+00 -4.1432725176e+00 2.3921195033e+00 4.1432725176e+00 
38700 4.8014594010e+00 -2.5234921991e-03 2.3921731027e+00 -4.1433653543e+00 2.3921731027e+00 4.1433653543e+00 
38800 4.8014593006e+00 -2.4835533427e-03 2.3922258476e+00 -4.1434567113e+00 2.3922258476e+00 4.1434567113e+00 
38900 4.8014592021e+00 -2.4445099364e-03 2.3922777567e+00 -4.1435466204e+00 2.3922777567e+00 4.1435466204e+00 
39000 4.8014591058e+00 -2.4063752379e-03 2.3923288485e+00 -4.1436351141e+00 2.3923288485e+00 4.1436351141e+00 
39100 4.8014590116e+00 -2.3691595781e-03 2.3923791423e+00 -4.1437222254e+00 2.3923791423e+00 4.1437222254e+00 
39200 4.8014589197e+00 -2.3328704088e-03 2.3924286572e+00 -4.1438079877e+00 2.3924286572e+00 4.1438079877e+00 
39300 4.8014588300e+00 -2.2975123602e-03 2.3924774126e+00 -4.1438924346e+00 2.3924774126e+00 4.1438924346e+00 
39400 4.8014587427e+00 -2.2630873088e-03 2.3925254281e+00 -4.1439755999e+00 2.3925254281e+00 4.1439755999e+00 
39500 4.8014586577e+00 -2.2295944545e-03 2.3925727232e+00 -4.1440575174e+00 2.3925727232e+00 4.1440575174e+00 
39600 4.8014585752e+00 -2.1970304067e-03 2.3926193174e+00 -4.1441382210e+00 2.3926193174e+00 4.1441382210e+00 
39700 4.8014584950e+00 -2.1653892784e-03 2.3926652302e+00 -4.1442177443e+00 2.3926652302e+00 4.1442177443e+00 
39800 4.8014584173e+00 -2.1346627869e-03 2.3927104810e+00 -4.1442961208e+00 2.3927104810e+00 4.1442961208e+00 
39900 4.8014583420e+00 -2.1048403624e-03 2.3927550887e+00 -4.1443733837e+00 2.3927550887e+00 4.1443733837e+00 
40000 4.8014582692e+00 -2.0759092610e-03 2.3927990725e+00 -4.1444495658e+00 2.3927990725e+00 4.1444495658e+00 
40100 4.8014581987e+00 -2.0478546846e-03 2.3928424509e+00 -4.1445246994e+00 2.3928424509e+00 4.1445246994e+00 
40200 4.8014581306e+00 -2.0206599034e-03 2.3928852423e+00 -4.1445988163e+00 2.3928852423e+00 4.1445988163e+00 
40300 4.8014580648e+00 -1.9943063844e-03 2.3929274646e+00 -4.1446719476e+00 2.3929274646e+00 4.1446719476e+00 
40400 4.8014580012e+00 -1.9687739207e-03 2.3929691356e+00 -4.1447441238e+00 2.3929691356e+00 4.1447441238e+00 
40500 4.8014579399e+00 -1.9440407655e-03 2.3930102723e+00 -4.1448153747e+00 2.3930102723e+00 4.1448153747e+00 
40600 4.8014578806e+00 -1.9200837663e-03 2.3930508916e+00 -4.1448857294e+00 2.3930508916e+00 4.1448857294e+00 
40700 4.8014578235e+00 -1.8968785008e-03 2.3930910096e+00 -4.1449552158e+00 2.3930910096e+00 4.1449552158e+00 
40800 4.8014577683e+00 -1.8743994137e-03 2.3931306421e+00 -4.1450238613e+00 2.3931306421e+00 4.1450238613e+00 
40900 4.8014577150e+00 -1.8526199532e-03 2.3931698043e+00 -4.1450916922e+00 2.3931698043e+00 4.1450916922e+00 
41000 4.8014576635e+00 -1.8315127062e-03 2.3932085108e+00 -4.1451587339e+00 2.3932085108e+00 4.1451587339e+00 
41100 4.8014576137e+00 -1.8110495337e-03 2.3932467757e+00 -4.1452250106e+00 2.3932467757e+00 4.1452250106e+00 
41200 4.8014575655e+00 -1.7912017032e-03 2.3932846125e+00 -4.1452905458e+00 2.3932846125e+00 4.1452905458e+00 
41300 4.8014575189e+00 -1.7719400196e-03 2.3933220340e+00 -4.1453553618e+00 2.3933220340e+00 4.1453553618e+00 
41400 4.8014574737e+00 -1.7532349532e-03 2.3933590525e+00 -4.1454194797e+00 2.3933590525e+00 4.1454194797e+00 
41500 4.8014574299e+00 -1.7350567643e-03 2.3933956797e+00 -4.1454829198e+00 2.3933956797e+00 4.1454829198e+00 
41600 4.8014573874e+00 -1.7173756250e-03 2.3934319265e+00 -4.1455457012e+00 2.3934319265e+00 4.1455457012e+00 
41700 4.8014573461e+00 -1.7001617359e-03 2.3934678035e+00 -4.1456078419e+00 2.3934678035e+00 4.1456078419e+00 
41800 4.8014573059e+00 -1.6833854399e-03 2.3935033203e+00 -4.1456693588e+00 2.3935033203e+00 4.1456693588e+00 
41900 4.8014572667e+00 -1.6670173299e-03 2.3935384861e+00 -4.1457302677e+00 2.3935384861e+00 4.1457302677e+00 
42000 4.8014572286e+00 -1.6510283530e-03 2.3935733094e+00 -4.1457905836e+00 2.3935733094e+00 4.1457905836e+00 
42100 4.8014571913e+00 -1.6353899083e-03 2.3936077983e+00 -4.1458503200e+00 2.3936077983e+00 4.1458503200e+00 
42200 4.8014571550e+00 -1.6200739404e-03 2.3936419600e+00 -4.1459094898e+00 2.3936419600e+00 4.1459094898e+00 
42300 4.8014571195e+00 -1.6050530262e-03 2.3936758013e+00 -4.1459681046e+00 2.3936758013e+00 4.1459681046e+00 
42400 4.8014570847e+00 -1.5903004569e-03 2.3937093283e+00 -4.1460261751e+00 2.3937093283e+00 4.1460261751e+00 
42500 4.8014570507e+00 -1.5757903136e-03 2.3937425467e+00 -4.1460837111e+00 2.3937425467e+00 4.1460837111e+00 
42600 4.8014570174e+00 -1.5614975370e-03 2.3937754615e+00 -4.1461407213e+00 2.3937754615e+00 4.1461407213e+00 
42700 4.8014569847e+00 -1.5473979909e-03 2.3938080774e+00 -4.1461972136e+00 2.3938080774e+00 4.1461972136e+00 
42800 4.8014569528e+00 -1.5334685200e-03 2.3938403983e+00 -4.1462531951e+00 2.3938403983e+00 4.1462531951e+00 
42900 4.8014569214e+00 -1.5196870009e-03 2.3938724279e+00 -4.1463086719e+00 2.3938724279e+00 4.1463086719e+00 
43000 4.8014568907e+00 -1.5060323875e-03 2.3939041691e+00 -4.1463636494e+00 2.3939041691e+00 4.1463636494e+00 
43100 4.8014568605e+00 -1.4924847502e-03 2.3939356248e+00 -4.1464181321e+00 2.3939356248e+00 4.1464181321e+00 
43200 4.8014568310e+00 -1.4790253087e-03 2.3939667970e+00 -4.1464721241e+00 2.3939667970e+00 4.1464721241e+00 
43300 4.8014568020e+00 -1.4656364594e-03 2.3939976878e+00 -4.1465256284e+00 2.3939976878e+00 4.1465256284e+00 
43400 4.8014567737e+00 -1.4523017963e-03 2.3940282985e+00 -4.1465786477e+00 2.3940282985e+00 4.1465786477e+00 
43500 4.8014567459e+00 -1.4390061268e-03 2.3940586303e+00 -4.1466311840e+00 2.3940586303e+00 4.1466311840e+00 
43600 4.8014567187e+00 -1.4257354815e-03 2.3940886841e+00 -4.1466832386e+00 2.3940886841e+00 4.1466832386e+00 
43700 4.8014566922e+00 -1.4124771187e-03 2.3941184603e+00 -4.1467348126e+00 2.3941184603e+00 4.1467348126e+00 
43800 4.8014566662e+00 -1.3992195234e-03 2.3941479593e+00 -4.1467859063e+00 2.3941479593e+00 4.1467859063e+00 
43900 4.8014566408e+00 -1.3859524017e-03 2.3941771810e+00 -4.1468365198e+00 2.3941771810e+00 4.1468365198e+00 
44000 4.8014566160e+00 -1.3726666703e-03 2.3942061253e+00 -4.1468866527e+00 2.3942061253e+00 4.1468866527e+00 
44100 4.8014565918e+00 -1.3593544407e-03 2.3942347917e+00 -4.1469363045e+00 2.3942347917e+00 4.1469363045e+00 
44200 4.8014565682e+00 -1.3460089998e-03 2.3942631799e+00 -4.1469854742e+00 2.3942631799e+00 4.1469854742e+00 
44300 4.8014565452e+00 -1.3326247863e-03 2.3942912890e+00 -4.1470341606e+00 2.3942912890e+00 4.1470341606e+00 
44400 4.8014565229e+00 -1.3191973623e-03 2.3943191182e+00 -4.1470823623e+00 2.3943191182e+00 4.1470823623e+00 
44500 4.8014565011e+00 -1.3057233826e-03 2.3943466668e+00 -4.1471300778e+00 2.3943466668e+00 4.1471300778e+00 
44600 4.8014564799e+00 -1.2922005596e-03 2.3943739336e+00 -4.1471773054e+00 2.3943739336e+00 4.1471773054e+00 
44700 4.8014564594e+00 -1.2786276256e-03 2.3944009178e+00 -4.1472240433e+00 2.3944009178e+00 4.1472240433e+00 
44800 4.8014564394e+00 -1.2650042921e-03 2.3944276182e+00 -4.1472702898e+00 2.3944276182e+00 4.1472702898e+00 
44900 4.8014564201e+00 -1.2513312065e-03 2.3944540338e+00 -4.1473160430e+00 2.3944540338e+00 4.1473160430e+00 
45000 4.8014564013e+00 -1.2376099067e-03 2.3944801637e+00 -4.1473613012e+00 2.3944801637e+00 4.1473613012e+00 
45100 4.8014563831e+00 -1.2238427737e-03 2.3945060067e+00 -4.1474060626e+00 2.3945060067e+00 4.1474060626e+00 
45200 4.8014563655e+00 -1.2100329820e-03 2.3945315620e+00 -4.1474503256e+00 2.3945315620e+00 4.1474503256e+00 
45300 4.8014563484e+00 -1.1961844494e-03 2.3945568286e+00 -4.1474940887e+00 2.3945568286e+00 4.1474940887e+00 
45400 4.8014563318e+00 -1.1823017848e-03 2.3945818058e+00 -4.1475373505e+00 2.3945818058e+00 4.1475373505e+00 
45500 4.8014563158e+00 -1.1683902356e-03 2.3946064929e+00 -4.1475801098e+00 2.3946064929e+00 4.1475801098e+00 
45600 4.8014563003e+00 -1.1544556340e-03 2.3946308892e+00 -4.1476223654e+00 2.3946308892e+00 4.1476223654e+00 
45700 4.8014562853e+00 -1.1405043434e-03 2.3946549943e+00 -4.1476641167e+00 2.3946549943e+00 4.1476641167e+00 
45800 4.8014562707e+00 -1.1265432040e-03 2.3946788079e+00 -4.1477053631e+00 2.3946788079e+00 4.1477053631e+00 
45900 4.8014562566e+00 -1.1125794791e-03 2.3947023297e+00 -4.1477461041e+00 2.3947023297e+00 4.1477461041e+00 
46000 4.8014562430e+00 -1.0986208011e-03 2.3947255598e+00 -4.1477863397e+00 2.3947255598e+00 4.1477863397e+00 
46100 4.8014562297e+00 -1.0846751184e-03 2.3947484982e+00 -4.1478260702e+00 2.3947484982e+00 4.1478260702e+00 
46200 4.8014562169e+00 -1.0707506429e-03 2.3947711452e+00 -4.1478652959e+00 2.3947711452e+00 4.1478652959e+00 
46300 4.8014562045e+00 -1.0568557981e-03 2.3947935012e+00 -4.1479040177e+00 2.3947935012e+00 4.1479040177e+00 
46400 4.8014561924e+00 -1.0429991690e-03 2.3948155669e+00 -4.1479422367e+00 2.3948155669e+00 4.1479422367e+00 
46500 4.8014561807e+00 -1.0291894524e-03 2.3948373432e+00 -4.1479799542e+00 2.3948373432e+00 4.1479799542e+00 
46600 4.8014561694e+00 -1.0154354090e-03 2.3948588309e+00 -4.1480171720e+00 2.3948588309e+00 4.1480171720e+00 
46700 4.8014561583e+00 -1.0017458176e-03 2.3948800312e+00 -4.1480538921e+00 2.3948800312e+00 4.1480538921e+00 
46800 4.8014561476e+00 -9.8812942973e-04 2.3949009456e+00 -4.1480901168e+00 2.3949009456e+00 4.1480901168e+00 
46900 4.8014561371e+00 -9.7459492753e-04 2.3949215755e+00 -4.1481258488e+00 2.3949215755e+00 4.1481258488e+00 
47000 4.8014561270e+00 -9.6115088253e-04 2.3949419226e+00 -4.1481610911e+00 2.3949419226e+00 4.1481610911e+00 
47100 4.8014561171e+00 -9.4780571701e-04 2.3949619889e+00 -4.1481958470e+00 2.3949619889e+00 4.1481958470e+00 
47200 4.8014561074e+00 -9.3456766730e-04 2.3949817764e+00 -4.1482301199e+00 2.3949817764e+00 4.1482301199e+00 
47300 4.8014560980e+00 -9.2144474934e-04 2.3950012874e+00 -4.1482639140e+00 2.3950012874e+00 4.1482639140e+00 
47400 4.8014560889e+00 -9.0844472648e-04 2.3950205242e+00 -4.1482972332e+00 2.3950205242e+00 4.1482972332e+00 
47500 4.8014560799e+00 -8.9557507965e-04 2.3950394896e+00 -4.1483300820e+00 2.3950394896e+00 4.1483300820e+00 
47600 4.8014560712e+00 -8.8284297986e-04 2.3950581860e+00 -4.1483624653e+00 2.3950581860e+00 4.1483624653e+00 
47700 4.8014560627e+00 -8.7025526310e-04 2.3950766166e+00 -4.1483943879e+00 2.3950766166e+00 4.1483943879e+00 
47800 4.8014560544e+00 -8.5781840768e-04 2.3950947842e+00 -4.1484258551e+00 2.3950947842e+00 4.1484258551e+00 
47900 4.8014560463e+00 -8.4553851392e-04 2.3951126920e+00 -4.1484568724e+00 2.3951126920e+00 4.1484568724e+00 
48000 4.8014560384e+00 -8.3342128635e-04 2.3951303434e+00 -4.1484874455e+00 2.3951303434e+00 4.1484874455e+00 
48100 4.8014560307e+00 -8.2147201819e-04 2.3951477416e+00 -4.1485175802e+00 2.3951477416e+00 4.1485175802e+00 
48200 4.8014560231e+00 -8.0969557836e-04 2.3951648903e+00 -4.1485472826e+00 2.3951648903e+00 4.1485472826e+00 
48300 4.8014560158e+00 -7.9809640069e-04 2.3951817931e+00 -4.1485765589e+00 2.3951817931e+00 4.1485765589e+00 
48400 4.8014560086e+00 -7.8667847549e-04 2.3951984535e+00 -4.1486054157e+00 2.3951984535e+00 4.1486054157e+00 
48500 4.8014560016e+00 -7.7544534341e-04 2.3952148755e+00 -4.1486338595e+00 2.3952148755e+00 4.1486338595e+00 
48600 4.8014559948e+00 -7.6440009146e-04 2.3952310629e+00 -4.1486618969e+00 2.3952310629e+00 4.1486618969e+00 
48700 4.8014559882e+00 -7.5354535113e-04 2.3952470197e+00 -4.1486895348e+00 2.3952470197e+00 4.1486895348e+00 
48800 4.8014559817e+00 -7.4288329862e-04 2.3952627497e+00 -4.1487167800e+00 2.3952627497e+00 4.1487167800e+00 
48900 4.8014559754e+00 -7.3241565706e-04 2.3952782571e+00 -4.1487436395e+00 2.3952782571e+00 4.1487436395e+00 
49000 4.8014559693e+00 -7.2214370057e-04 2.3952935458e+00 -4.1487701204e+00 2.3952935458e+00 4.1487701204e+00 
49100 4.8014559633e+00 -7.1206826021e-04 2.3953086201e+00 -4.1487962297e+00 2.3953086201e+00 4.1487962297e+00 
49200 4.8014559575e+00 -7.0218973156e-04 2.3953234839e+00 -4.1488219747e+00 2.3953234839e+00 4.1488219747e+00 
49300 4.8014559519e+00 -6.9250808401e-04 2.3953381414e+00 -4.1488473622e+00 2.3953381414e+00 4.1488473622e+00 
49400 4.8014559464e+00 -6.8302287155e-04 2.3953525968e+00 -4.1488723996e+00 2.3953525968e+00 4.1488723996e+00 
49500 4.8014559411e+00 -6.7373324491e-04 2.3953668540e+00 -4.1488970939e+00 2.3953668540e+00 4.1488970939e+00 
49600 4.8014559359e+00 -6.6463796515e-04 2.3953809173e+00 -4.1489214522e+00 2.3953809173e+00 4.1489214522e+00 
49700 4.8014559309e+00 -6.5573541833e-04 2.3953947906e+00 -4.1489454816e+00 2.3953947906e+00 4.1489454816e+00 
49800 4.8014559261e+00 -6.4702363137e-04 2.3954084781e+00 -4.1489691889e+00 2.3954084781e+00 4.1489691889e+00 
49900 4.8014559214e+00 -6.3850028887e-04 2.3954219836e+00 -4.1489925811e+00 2.3954219836e+00 4.1489925811e+00 
50000 4.8014559168e+00 -6.3016275084e-04 2.3954353111e+00 -4.1490156651e+00 2.3954353111e+00 4.1490156651e+00 
50100 4.8014559124e+00 -6.2200807115e-04 2.3954484645e+00 -4.1490384475e+00 2.3954484645e+00 4.1490384475e+00 
50200 4.8014559081e+00 -6.1403301673e-04 2.3954614477e+00 -4.1490609349e+00 2.3954614477e+00 4.1490609349e+00 
50300 4.8014559040e+00 -6.0623408730e-04 2.3954742643e+00 -4.1490831339e+00 2.3954742643e+00 4.1490831339e+00 
50400 4.8014559000e+00 -5.9860753550e-04 2.3954869180e+00 -4.1491050509e+00 2.3954869180e+00 4.1491050509e+00 
50500 4.8014558961e+00 -5.9114938752e-04 2.3954994125e+00 -4.1491266920e+00 2.3954994125e+00 4.1491266920e+00 
50600 4.8014558924e+00 -5.8385546382e-04 2.3955117513e+00 -4.1491480633e+00 2.3955117513e+00 4.1491480633e+00 
50700 4.8014558888e+00 -5.7672140012e-04 2.3955239377e+00 -4.1491691709e+00 2.3955239377e+00 4.1491691709e+00 
50800 4.8014558853e+00 -5.6974266843e-04 2.3955359752e+00 -4.1491900204e+00 2.3955359752e+00 4.1491900204e+00 
50900 4.8014558819e+00 -5.6291459800e-04 2.3955478670e+00 -4.1492106176e+00 2.3955478670e+00 4.1492106176e+00 
51000 4.8014558786e+00 -5.5623239622e-04 2.3955596162e+00 -4.1492309678e+00 2.3955596162e+00 4.1492309678e+00 
51100 4.8014558754e+00 -5.4969116929e-04 2.3955712258e+00 -4.1492510763e+00 2.3955712258e+00 4.1492510763e+00 
51200 4.8014558723e+00 -5.4328594258e-04 2.3955826989e+00 -4.1492709483e+00 2.3955826989e+00 4.1492709483e+00 
51300 4.8014558694e+00 -5.3701168066e-04 2.3955940382e+00 -4.1492905886e+00 2.3955940382e+00 4.1492905886e+00 
51400 4.8014558665e+00 -5.3086330693e-04 2.3956052466e+00 -4.1493100020e+00 2.3956052466e+00 4.1493100020e+00 
51500 4.8014558637e+00 -5.2483572265e-04 2.3956163265e+00 -4.1493291930e+00 2.3956163265e+00 4.1493291930e+00 
51600 4.8014558610e+00 -5.1892382552e-04 2.3956272806e+00 -4.1493481660e+00 2.3956272806e+00 4.1493481660e+00 
51700 4.8014558584e+00 -5.1312252756e-04 2.3956381113e+00 -4.1493669253e+00 2.3956381113e+00 4.1493669253e+00 
51800 4.8014558558e+00 -5.0742677236e-04 2.3956488208e+00 -4.1493854747e+00 2.3956488208e+00 4.1493854747e+00 
51900 4.8014558534e+00 -5.0183155159e-04 2.3956594114e+00 -4.1494038182e+00 2.3956594114e+00 4.1494038182e+00 
52000 4.8014558510e+00 -4.9633192073e-04 2.3956698852e+00 -4.1494219593e+00 2.3956698852e+00 4.1494219593e+00 
52100 4.8014558487e+00 -4.9092301402e-04 2.3956802441e+00 -4.1494399015e+00 2.3956802441e+00 4.1494399015e+00 
52200 4.8014558464e+00 -4.8560005856e-04 2.3956904901e+00 -4.1494576481e+00 2.3956904901e+00 4.1494576481e+00 
52300 4.8014558442e+00 -4.8035838755e-04 2.3957006250e+00 -4.1494752022e+00 2.3957006250e+00 4.1494752022e+00 
52400 4.8014558421e+00 -4.7519345257e-04 2.3957106504e+00 -4.1494925668e+00 2.3957106504e+00 4.1494925668e+00 
52500 4.8014558400e+00 -4.7010083506e-04 2.3957205680e+00 -4.1495097446e+00 2.3957205680e+00 4.1495097446e+00 
52600 4.8014558380e+00 -4.6507625681e-04 2.3957303793e+00 -4.1495267382e+00 2.3957303793e+00 4.1495267382e+00 
52700 4.8014558361e+00 -4.6011558945e-04 2.3957400857e+00 -4.1495435501e+00 2.3957400857e+00 4.1495435501e+00 
52800 4.8014558342e+00 -4.5521486313e-04 2.3957496885e+00 -4.1495601826e+00 2.3957496885e+00 4.1495601826e+00 
52900 4.8014558324e+00 -4.5037027413e-04 2.3957591889e+00 -4.1495766379e+00 2.3957591889e+00 4.1495766379e+00 
53000 4.8014558306e+00 -4.4557819159e-04 2.3957685883e+00 -4.1495929180e+00 2.3957685883e+00 4.1495929180e+00 
53100 4.8014558289e+00 -4.4083516327e-04 2.3957778875e+00 -4.1496090249e+00 2.3957778875e+00 4.1496090249e+00 
53200 4.8014558272e+00 -4.3613792040e-04 2.3957870878e+00 -4.1496249602e+00 2.3957870878e+00 4.1496249602e+00 
53300 4.8014558255e+00 -4.3148338162e-04 2.3957961900e+00 -4.1496407256e+00 2.3957961900e+00 4.1496407256e+00 
53400 4.8014558239e+00 -4.2686865596e-04 2.3958051950e+00 -4.1496563228e+00 2.3958051950e+00 4.1496563228e+00 
53500 4.8014558224e+00 -4.2229104500e-04 2.3958141037e+00 -4.1496717531e+00 2.3958141037e+00 4.1496717531e+00 
53600 4.8014558209e+00 -4.1774804418e-04 2.3958229168e+00 -4.1496870178e+00 2.3958229168e+00 4.1496870178e+00 
53700 4.8014558195e+00 -4.1323734323e-04 2.3958316350e+00 -4.1497021183e+00 2.3958316350e+00 4.1497021183e+00 
53800 4.8014558180e+00 -4.0875682582e-04 2.3958402591e+00 -4.1497170557e+00 2.3958402591e+00 4.1497170557e+00 
53900 4.8014558167e+00 -4.0430456841e-04 2.3958487897e+00 -4.1497318310e+00 2.3958487897e+00 4.1497318310e+00 
54000 4.8014558154e+00 -3.9987883846e-04 2.3958572273e+00 -4.1497464454e+00 2.3958572273e+00 4.1497464454e+00 
54100 4.8014558141e+00 -3.9547809178e-04 2.3958655725e+00 -4.1497608997e+00 2.3958655725e+00 4.1497608997e+00 
54200 4.8014558128e+00 -3.9110096933e-04 2.3958738259e+00 -4.1497751949e+00 2.3958738259e+00 4.1497751949e+00 
54300 4.8014558116e+00 -3.8674629336e-04 2.3958819879e+00 -4.1497893319e+00 2.3958819879e+00 4.1497893319e+00 
54400 4.8014558105e+00 -3.8241306290e-04 2.3958900589e+00 -4.1498033114e+00 2.3958900589e+00 4.1498033114e+00 
54500 4.8014558093e+00 -3.7810044882e-04 2.3958980395e+00 -4.1498171342e+00 2.3958980395e+00 4.1498171342e+00 
54600 4.8014558083e+00 -3.7380778823e-04 2.3959059301e+00 -4.1498308011e+00 2.3959059301e+00 4.1498308011e+00 
54700 4.8014558072e+00 -3.6953457854e-04 2.3959137311e+00 -4.1498443128e+00 2.3959137311e+00 4.1498443128e+00 
54800 4.8014558062e+00 -3.6528047102e-04 2.3959214429e+00 -4.1498576700e+00 2.3959214429e+00 4.1498576700e+00 
54900 4.8014558052e+00 -3.6104526401e-04 2.3959290658e+00 -4.1498708733e+00 2.3959290658e+00 4.1498708733e+00 
55000 4.8014558043e+00 -3.5682889575e-04 2.3959366004e+00 -4.1498839236e+00 2.3959366004e+00 4.1498839236e+00 
55100 4.8014558034e+00 -3.5263143697e-04 2.3959440469e+00 -4.1498968214e+00 2.3959440469e+00 4.1498968214e+00 
55200 4.8014558025e+00 -3.4845308317e-04 2.3959514059e+00 -4.1499095674e+00 2.3959514059e+00 4.1499095674e+00 
55300 4.8014558016e+00 -3.4429414670e-04 2.3959586776e+00 -4.1499221624e+00 2.3959586776e+00 4.1499221624e+00 
55400 4.8014558008e+00 -3.4015504870e-04 2.3959658625e+00 -4.1499346070e+00 2.3959658625e+00 4.1499346070e+00 
55500 4.8014558000e+00 -3.3603631086e-04 2.3959729610e+00 -4.1499469020e+00 2.3959729610e+00 4.1499469020e+00 
55600 4.8014557993e+00 -3.3193854708e-04 2.3959799735e+00 -4.1499590480e+00 2.3959799735e+00 4.1499590480e+00 
55700 4.8014557986e+00 -3.2786245515e-04 2.3959869005e+00 -4.1499710459e+00 2.3959869005e+00 4.1499710459e+00 
55800 4.8014557979e+00 -3.2380880831e-04 2.3959937424e+00 -4.1499828965e+00 2.3959937424e+00 4.1499828965e+00 
55900 4.8014557972e+00 -3.1977844692e-04 2.3960004997e+00 -4.1499946004e+00 2.3960004997e+00 4.1499946004e+00 
56000 4.8014557965e+00 -3.1577227011e-04 2.3960071729e+00 -4.1500061587e+00 2.3960071729e+00 4.1500061587e+00 
56100 4.8014557959e+00 -3.1179122752e-04 2.3960137624e+00 -4.1500175722e+00 2.3960137624e+00 4.1500175722e+00 
56200 4.8014557953e+00 -3.0783631125e-04 2.3960202689e+00 -4.1500288417e+00 2.3960202689e+00 4.1500288417e+00 
56300 4.8014557947e+00 -3.0390854782e-04 2.3960266928e+00 -4.1500399682e+00 2.3960266928e+00 4.1500399682e+00 
56400 4.8014557942e+00 -3.0000899040e-04 2.3960330347e+00 -4.1500509528e+00 2.3960330347e+00 4.1500509528e+00 
56500 4.8014557936e+00 -2.9613871120e-04 2.3960392953e+00 -4.1500617963e+00 2.3960392953e+00 4.1500617963e+00 
56600 4.8014557931e+00 -2.9229879409e-04 2.3960454750e+00 -4.1500725000e+00 2.3960454750e+00 4.1500725000e+00 
56700 4.8014557926e+00 -2.8849032749e-04 2.3960515746e+00 -4.1500830648e+00 2.3960515746e+00 4.1500830648e+00 
56800 4.8014557921e+00 -2.8471439749e-04 2.3960575948e+00 -4.1500934920e+00 2.3960575948e+00 4.1500934920e+00 
56900 4.8014557917e+00 -2.8097208129e-04 2.3960635361e+00 -4.1501037826e+00 2.3960635361e+00 4.1501037826e+00 
57000 4.8014557912e+00 -2.7726444093e-04 2.3960693993e+00 -4.1501139380e+00 2.3960693993e+00 4.1501139380e+00 
57100 4.8014557908e+00 -2.7359251734e-04 2.3960751851e+00 -4.1501239593e+00 2.3960751851e+00 4.1501239593e+00 
57200 4.8014557904e+00 -2.6995732472e-04 2.3960808943e+00 -4.1501338479e+00 2.3960808943e+00 4.1501338479e+00 
57300 4.8014557900e+00 -2.6635984526e-04 2.3960865276e+00 -4.1501436051e+00 2.3960865276e+00 4.1501436051e+00 
57400 4.8014557896e+00 -2.6280102425e-04 2.3960920858e+00 -4.1501532323e+00 2.3960920858e+00 4.1501532323e+00 
57500 4.8014557893e+00 -2.5928176547e-04 2.3960975698e+00 -4.1501627307e+00 2.3960975698e+00 4.1501627307e+00 
57600 4.8014557889e+00 -2.5580292707e-04 2.3961029803e+00 -4.1501721020e+00 2.3961029803e+00 4.1501721020e+00 
57700 4.8014557886e+00 -2.5236531767e-04 2.3961083182e+00 -4.1501813475e+00 2.3961083182e+00 4.1501813475e+00 
57800 4.8014557883e+00 -2.4896969296e-04 2.3961135843e+00 -4.1501904688e+00 2.3961135843e+00 4.1501904688e+00 
57900 4.8014557880e+00 -2.4561675260e-04 2.3961187796e+00 -4.1501994673e+00 2.3961187796e+00 4.1501994673e+00 
58000 4.8014557877e+00 -2.4230713754e-04 2.3961239049e+00 -4.1502083445e+00 2.3961239049e+00 4.1502083445e+00 
58100 4.8014557874e+00 -2.3904142766e-04 2.3961289611e+00 -4.1502171022e+00 2.3961289611e+00 4.1502171022e+00 
58200 4.8014557871e+00 -2.3582013982e-04 2.3961339492e+00 -4.1502257418e+00 2.3961339492e+00 4.1502257418e+00 
58300 4.8014557868e+00 -2.3264372624e-04 2.3961388701e+00 -4.1502342650e+00 2.3961388701e+00 4.1502342650e+00 
58400 4.8014557866e+00 -2.2951257324e-04 2.3961437246e+00 -4.1502426733e+00 2.3961437246e+00 4.1502426733e+00 
58500 4.8014557863e+00 -2.2642700037e-04 2.3961485138e+00 -4.1502509684e+00 2.3961485138e+00 4.1502509684e+00 
58600 4.8014557861e+00 -2.2338725980e-04 2.3961532387e+00 -4.1502591521e+00 2.3961532387e+00 4.1502591521e+00 
58700 4.8014557859e+00 -2.2039353608e-04 2.3961579000e+00 -4.1502672258e+00 2.3961579000e+00 4.1502672258e+00 
58800 4.8014557857e+00 -2.1744594622e-04 2.3961624989e+00 -4.1502751913e+00 2.3961624989e+00 4.1502751913e+00 
58900 4.8014557855e+00 -2.1454454006e-04 2.3961670363e+00 -4.1502830503e+00 2.3961670363e+00 4.1502830503e+00 
59000 4.8014557853e+00 -2.1168930094e-04 2.3961715131e+00 -4.1502908044e+00 2.3961715131e+00 4.1502908044e+00 
59100 4.8014557851e+00 -2.0888014664e-04 2.3961759304e+00 -4.1502984553e+00 2.3961759304e+00 4.1502984553e+00 
59200 4.8014557849e+00 -2.0611693054e-04 2.3961802890e+00 -4.1503060046e+00 2.3961802890e+00 4.1503060046e+00 
59300 4.8014557848e+00 -2.0339944315e-04 2.3961845899e+00 -4.1503134541e+00 2.3961845899e+00 4.1503134541e+00 
59400 4.8014557846e+00 -2.0072741373e-04 2.3961888342e+00 -4.1503208053e+00 2.3961888342e+00 4.1503208053e+00 
59500 4.8014557845e+00 -1.9810051219e-04 2.3961930226e+00 -4.1503280600e+00 2.3961930226e+00 4.1503280600e+00 
59600 4.8014557843e+00 -1.9551835122e-04 2.3961971563e+00 -4.1503352197e+00 2.3961971563e+00 4.1503352197e+00 
59700 4.8014557842e+00 -1.9298048852e-04 2.3962012361e+00 -4.1503422860e+00 2.3962012361e+00 4.1503422860e+00 
59800 4.8014557841e+00 -1.9048642930e-04 2.3962052629e+00 -4.1503492606e+00 2.3962052629e+00 4.1503492606e+00 
59900 4.8014557840e+00 -1.8803562883e-04 2.3962092376e+00 -4.1503561451e+00 2.3962092376e+00 4.1503561451e+00 
60000 4.8014557838e+00 -1.8562749520e-04 2.3962131612e+00 -4.1503629410e+00 2.3962131612e+00 4.1503629410e+00 
60100 4.8014557837e+00 -1.8326139214e-04 2.3962170346e+00 -4.1503696499e+00 2.3962170346e+00 4.1503696499e+00 
60200 4.8014557836e+00 -1.8093664198e-04 2.3962208586e+00 -4.1503762732e+00 2.3962208586e+00 4.1503762732e+00 
60300 4.8014557836e+00 -1.7865252869e-04 2.3962246340e+00 -4.1503828125e+00 2.3962246340e+00 4.1503828125e+00 
60400 4.8014557835e+00 -1.7640830093e-04 2.3962283618e+00 -4.1503892692e+00 2.3962283618e+00 4.1503892692e+00 
60500 4.8014557834e+00 -1.7420317526e-04 2.3962320428e+00 -4.1503956448e+00 2.3962320428e+00 4.1503956448e+00 
60600 4.8014557833e+00 -1.7203633926e-04 2.3962356777e+00 -4.1504019407e+00 2.3962356777e+00 4.1504019407e+00 
60700 4.8014557833e+00 -1.6990695480e-04 2.3962392674e+00 -4.1504081583e+00 2.3962392674e+00 4.1504081583e+00 
60800 4.8014557832e+00 -1.6781416119e-04 2.3962428127e+00 -4.1504142989e+00 2.3962428127e+00 4.1504142989e+00 
60900 4.8014557831e+00 -1.6575707843e-04 2.3962463143e+00 -4.1504203639e+00 2.3962463143e+00 4.1504203639e+00 
61000 4.8014557831e+00 -1.6373481036e-04 2.3962497730e+00 -4.1504263545e+00 2.3962497730e+00 4.1504263545e+00 
61100 4.8014557830e+00 -1.6174644782e-04 2.3962531895e+00 -4.1504322720e+00 2.3962531895e+00 4.1504322720e+00 
61200 4.8014557830e+00 -1.5979107179e-04 2.3962565645e+00 -4.1504381176e+00 2.3962565645e+00 4.1504381176e+00 
61300 4.8014557830e+00 -1.5786775636e-04 2.3962598987e+00 -4.1504438926e+00 2.3962598987e+00 4.1504438926e+00 
61400 4.8014557829e+00 -1.5597557177e-04 2.3962631927e+00 -4.1504495981e+00 2.3962631927e+00 4.1504495981e+00 
61500 4.8014557829e+00 -1.5411358729e-04 2.3962664473e+00 -4.1504552351e+00 2.3962664473e+00 4.1504552351e+00 
61600 4.8014557829e+00 -1.5228087402e-04 2.3962696630e+00 -4.1504608049e+00 2.3962696630e+00 4.1504608049e+00 
61700 4.8014557829e+00 -1.5047650762e-04 2.3962728404e+00 -4.1504663084e+00 2.3962728404e+00 4.1504663084e+00 
61800 4.8014557829e+00 -1.4869957088e-04 2.3962759802e+00 -4.1504717467e+00 2.3962759802e+00 4.1504717467e+00 
61900 4.8014557828e+00 -1.4694915627e-04 2.3962790829e+00 -4.1504771208e+00 2.3962790829e+00 4.1504771208e+00 
62000 4.8014557828e+00 -1.4522436827e-04 2.3962821491e+00 -4.1504824316e+00 2.3962821491e+00 4.1504824316e+00 
62100 4.8014557828e+00 -1.4352432563e-04 2.3962851793e+00 -4.1504876800e+00 2.3962851793e+00 4.1504876800e+00 
62200 4.8014557828e+00 -1.4184816350e-04 2.3962881741e+00 -4.1504928671e+00 2.3962881741e+00 4.1504928671e+00 
62300 4.8014557828e+00 -1.4019503542e-04 2.3962911338e+00 -4.1504979935e+00 2.3962911338e+00 4.1504979935e+00 
62400 4.8014557828e+00 -1.3856411516e-04 2.3962940591e+00 -4.1505030602e+00 2.3962940591e+00 4.1505030602e+00 
62500 4.8014557828e+00 -1.3695459838e-04 2.3962969503e+00 -4.1505080679e+00 2.3962969503e+00 4.1505080679e+00 
62600 4.8014557828e+00 -1.3536570430e-04 2.3962998079e+00 -4.1505130175e+00 2.3962998079e+00 4.1505130175e+00 
62700 4.8014557828e+00 -1.3379667700e-04 2.3963026324e+00 -4.1505179096e+00 2.3963026324e+00 4.1505179096e+00 
62800 4.8014557828e+00 -1.3224678679e-04 2.3963054241e+00 -4.1505227450e+00 2.3963054241e+00 4.1505227450e+00 
62900 4.8014557829e+00 -1.3071533126e-04 2.3963081835e+00 -4.1505275244e+00 2.3963081835e+00 4.1505275244e+00 
63000 4.8014557829e+00 -1.2920163630e-04 2.3963109109e+00 -4.1505322485e+00 2.3963109109e+00 4.1505322485e+00 
63100 4.8014557829e+00 -1.2770505697e-04 2.3963136068e+00 -4.1505369178e+00 2.3963136068e+00 4.1505369178e+00 
63200 4.8014557829e+00 -1.2622497810e-04 2.3963162714e+00 -4.1505415331e+00 2.3963162714e+00 4.1505415331e+00 
63300 4.8014557829e+00 -1.2476081495e-04 2.3963189051e+00 -4.1505460948e+00 2.3963189051e+00 4.1505460948e+00 
63400 4.8014557830e+00 -1.2331201357e-04 2.3963215083e+00 -4.1505506037e+00 2.3963215083e+00 4.1505506037e+00 
63500 4.8014557830e+00 -1.2187805106e-04 2.3963240813e+00 -4.1505550601e+00 2.3963240813e+00 4.1505550601e+00 
63600 4.8014557830e+00 -1.2045843580e-04 2.3963266243e+00 -4.1505594648e+00 2.3963266243e+00 4.1505594648e+00 
63700 4.8014557830e+00 -1.1905270739e-04 2.3963291377e+00 -4.1505638181e+00 2.3963291377e+00 4.1505638181e+00 
63800 4.8014557831e+00 -1.1766043661e-04 2.3963316217e+00 -4.1505681206e+00 2.3963316217e+00 4.1505681206e+00 
63900 4.8014557831e+00 -1.1628122517e-04 2.3963340768e+00 -4.1505723728e+00 2.3963340768e+00 4.1505723728e+00 
64000 4.8014557831e+00 -1.1491470541e-04 2.3963365030e+00 -4.1505765752e+00 2.3963365030e+00 4.1505765752e+00 
64100 4.8014557832e+00 -1.1356053984e-04 2.3963389007e+00 -4.1505807282e+00 2.3963389007e+00 4.1505807282e+00 
64200 4.8014557832e+00 -1.1221842060e-04 2.3963412702e+00 -4.1505848322e+00 2.3963412702e+00 4.1505848322e+00 
64300 4.8014557832e+00 -1.1088806887e-04 2.3963436116e+00 -4.1505888877e+00 2.3963436116e+00 4.1505888877e+00 
64400 4.8014557833e+00 -1.0956923411e-04 2.3963459253e+00 -4.1505928951e+00 2.3963459253e+00 4.1505928951e+00 
64500 4.8014557833e+00 -1.0826169324e-04 2.3963482115e+00 -4.1505968549e+00 2.3963482115e+00 4.1505968549e+00 
64600 4.8014557833e+00 -1.0696524980e-04 2.3963504704e+00 -4.1506007674e+00 2.3963504704e+00 4.1506007674e+00 
64700 4.8014557834e+00 -1.0567973299e-04 2.3963527022e+00 -4.1506046331e+00 2.3963527022e+00 4.1506046331e+00 
64800 4.8014557834e+00 -1.0440499662e-04 2.3963549072e+00 -4.1506084523e+00 2.3963549072e+00 4.1506084523e+00 
64900 4.8014557835e+00 -1.0314091808e-04 2.3963570856e+00 -4.1506122254e+00 2.3963570856e+00 4.1506122254e+00 
65000 4.8014557835e+00 -1.0188739716e-04 2.3963592377e+00 -4.1506159528e+00 2.3963592377e+00 4.1506159528e+00 
65100 4.8014557836e+00 -1.0064435497e-04 2.3963613635e+00 -4.1506196350e+00 2.3963613635e+00 4.1506196350e+00 
65200 4.8014557836e+00 -9.9411732615e-05 2.3963634635e+00 -4.1506232722e+00 2.3963634635e+00 4.1506232722e+00 
65300 4.8014557836e+00 -9.8189490069e-05 2.3963655377e+00 -4.1506268648e+00 2.3963655377e+00 4.1506268648e+00 
65400 4.8014557837e+00 -9.6977604841e-05 2.3963675864e+00 -4.1506304133e+00 2.3963675864e+00 4.1506304133e+00 
65500 4.8014557837e+00 -9.5776070719e-05 2.3963696099e+00 -4.1506339180e+00 2.3963696099e+00 4.1506339180e+00 
65600 4.8014557838e+00 -9.4584896468e-05 2.3963716082e+00 -4.1506373792e+00 2.3963716082e+00 4.1506373792e+00 
65700 4.8014557838e+00 -9.3404104529e-05 2.3963735817e+00 -4.1506407975e+00 2.3963735817e+00 4.1506407975e+00 
65800 4.8014557839e+00 -9.2233729724e-05 2.3963755306e+00 -4.1506441730e+00 2.3963755306e+00 4.1506441730e+00 
65900 4.8014557839e+00 -9.1073817933e-05 2.3963774550e+00 -4.1506475062e+00 2.3963774550e+00 4.1506475062e+00 
66000 4.8014557840e+00 -8.9924424833e-05 2.3963793553e+00 -4.1506507975e+00 2.3963793553e+00 4.1506507975e+00 
66100 4.8014557840e+00 -8.8785614601e-05 2.3963812315e+00 -4.1506540473e+00 2.3963812315e+00 4.1506540473e+00 
66200 4.8014557841e+00 -8.7657458668e-05 2.3963830840e+00 -4.1506572559e+00 2.3963830840e+00 4.1506572559e+00 
66300 4.8014557841e+00 -8.6540034472e-05 2.3963849130e+00 -4.1506604238e+00 2.3963849130e+00 4.1506604238e+00 
66400 4.8014557842e+00 -8.5433424274e-05 2.3963867186e+00 -4.1506635512e+00 2.3963867186e+00 4.1506635512e+00 
66500 4.8014557842e+00 -8.4337713965e-05 2.3963885012e+00 -4.1506666387e+00 2.3963885012e+00 4.1506666387e+00 
66600 4.8014557843e+00 -8.3252991940e-05 2.3963902608e+00 -4.1506696865e+00 2.3963902608e+00 4.1506696865e+00 
66700 4.8014557843e+00 -8.2179347997e-05 2.3963919979e+00 -4.1506726952e+00 2.3963919979e+00 4.1506726952e+00 
66800 4.8014557844e+00 -8.1116872268e-05 2.3963937125e+00 -4.1506756650e+00 2.3963937125e+00 4.1506756650e+00 
66900 4.8014557844e+00 -8.0065654230e-05 2.3963954050e+00 -4.1506785965e+00 2.3963954050e+00 4.1506785965e+00 
67000 4.8014557845e+00 -7.9025781720e-05 2.3963970756e+00 -4.1506814900e+00 2.3963970756e+00 4.1506814900e+00 
67100 4.8014557845e+00 -7.7997340035e-05 2.3963987244e+00 -4.1506843459e+00 2.3963987244e+00 4.1506843459e+00 
67200 4.8014557846e+00 -7.6980411059e-05 2.3964003518e+00 -4.1506871646e+00 2.3964003518e+00 4.1506871646e+00 
67300 4.8014557846e+00 -7.5975072462e-05 2.3964019580e+00 -4.1506899465e+00 2.3964019580e+00 4.1506899465e+00 
67400 4.8014557847e+00 -7.4981396938e-05 2.3964035431e+00 -4.1506926922e+00 2.3964035431e+00 4.1506926922e+00 
67500 4.8014557847e+00 -7.3999451516e-05 2.3964051076e+00 -4.1506954019e+00 2.3964051076e+00 4.1506954019e+00 
67600 4.8014557848e+00 -7.3029296904e-05 2.3964066516e+00 -4.1506980761e+00 2.3964066516e+00 4.1506980761e+00 
67700 4.8014557848e+00 -7.2070986918e-05 2.3964081753e+00 -4.1507007153e+00 2.3964081753e+00 4.1507007153e+00 
67800 4.8014557849e+00 -7.1124567947e-05 2.3964096790e+00 -4.1507033198e+00 2.3964096790e+00 4.1507033198e+00 
67900 4.8014557849e+00 -7.0190078485e-05 2.3964111630e+00 -4.1507058902e+00 2.3964111630e+00 4.1507058902e+00 
68000 4.8014557851e+00 -6.9804496139e-05 2.3964111630e+00 -4.1507058902e+00 2.3964111630e+00 4.1507058902e+00 
68100 4.8014557852e+00 -6.9431264902e-05 2.3964111630e+00 -4.1507058902e+00 2.3964111630e+00 4.1507058902e+00 
68200 4.8014557853e+00 -6.9070904635e-05 2.3964111630e+00 -4.1507058902e+00 2.3964111630e+00 4.1507058902e+00 
68300 4.8014557855e+00 -6.8723903992e-05 2.3964111630e+00 -4.1507058902e+00 2.3964111630e+00 4.1507058902e+00 
68400 4.8014557856e+00 -6.8390715966e-05 2.3964111630e+00 -4.1507058902e+00 2.3964111630e+00 4.1507058902e+00 
68500 4.8014557857e+00 -6.8071754043e-05 2.3964111630e+00 -4.1507058902e+00 2.3964111630e+00 4.1507058902e+00 
68600 4.8014557858e+00 -6.7767388982e-05 2.3964111630e+00 -4.1507058902e+00 2.3964111630e+00 4.1507058902e+00 
68700 4.8014557859e+00 -6.7477946127e-05 2.3964111630e+00 -4.1507058902e+00 2.3964111630e+00 4.1507058902e+00 
68800 4.8014557860e+00 -6.7203703286e-05 2.3964111630e+00 -4.1507058902e+00 2.3964111630e+00 4.1507058902e+00 
68900 4.8014557862e+00 -6.6944889086e-05 2.3964111630e+00 -4.1507058902e+00 2.3964111630e+00 4.1507058902e+00 
69000 4.8014557863e+00 -6.6701681806e-05 2.3964111630e+00 -4.1507058902e+00 2.3964111630e+00 4.1507058902e+00 
69100 4.8014557864e+00 -6.6474208642e-05 2.3964111630e+00 -4.1507058902e+00 2.3964111630e+00 4.1507058902e+00 
69200 4.8014557865e+00 -6.6262545391e-05 2.3964111630e+00 -4.1507058902e+00 2.3964111630e+00 4.1507058902e+00 
69300 4.8014557866e+00 -6.6066716502e-05 2.3964111630e+00 -4.1507058902e+00 2.3964111630e+00 4.1507058902e+00 
69400 4.8014557867e+00 -6.5886695493e-05 2.3964111630e+00 -4.1507058902e+00 2.3964111630e+00 4.1507058902e+00 
69500 4.8014557868e+00 -6.5722405677e-05 2.3964111630e+00 -4.1507058902e+00 2.3964111630e+00 4.1507058902e+00 
69600 4.8014557869e+00 -6.5573721205e-05 2.3964111630e+00 -4.1507058902e+00 2.3964111630e+00 4.1507058902e+00 
69700 4.8014557870e+00 -6.5440468357e-05 2.3964111630e+00 -4.1507058902e+00 2.3964111630e+00 4.1507058902e+00 
69800 4.8014557871e+00 -6.5322427112e-05 2.3964111630e+00 -4.1507058902e+00 2.3964111630e+00 4.1507058902e+00 
69900 4.8014557872e+00 -6.5219332909e-05 2.3964111630e+00 -4.1507058902e+00 2.3964111630e+00 4.1507058902e+00 
70000 4.8014557873e+00 -6.5130878638e-05 2.3964111630e+00 -4.1507058902e+00 2.3964111630e+00 4.1507058902e+00 
70100 4.8014557874e+00 -6.5056716775e-05 2.3964111630e+00 -4.1507058902e+00 2.3964111630e+00 4.1507058902e+00 
70200 4.8014557875e+00 -6.4996461705e-05 2.3964111630e+00 -4.1507058902e+00 2.3964111630e+00 4.1507058902e+00 
70300 4.8014557875e+00 -6.4949692150e-05 2.3964111630e+00 -4.1507058902e+00 2.3964111630e+00 4.1507058902e+00 
70400 4.8014557876e+00 -6.4915953724e-05 2.3964111630e+00 -4.1507058902e+00 2.3964111630e+00 4.1507058902e+00 
70500 4.8014557877e+00 -6.4894761582e-05 2.3964111630e+00 -4.1507058902e+00 2.3964111630e+00 4.1507058902e+00 
70600 4.8014557878e+00 -6.4885603121e-05 2.3964111630e+00 -4.1507058902e+00 2.3964111630e+00 4.1507058902e+00 
70700 4.8014557879e+00 -6.4887940775e-05 2.3964111630e+00 -4.1507058902e+00 2.3964111630e+00 4.1507058902e+00 
70800 4.8014557880e+00 -6.4901214800e-05 2.3964111630e+00 -4.1507058902e+00 2.3964111630e+00 4.1507058902e+00 
70900 4.8014557881e+00 -6.4924846116e-05 2.3964111630e+00 -4.1507058902e+00 2.3964111630e+00 4.1507058902e+00 
71000 4.8014557882e+00 -6.4958239137e-05 2.3964111630e+00 -4.1507058902e+00 2.3964111630e+00 4.1507058902e+00 
71100 4.8014557882e+00 -6.5000784587e-05 2.3964111630e+00 -4.1507058902e+00 2.3964111630e+00 4.1507058902e+00 
71200 4.8014557883e+00 -6.5051862312e-05 2.3964111630e+00 -4.1507058902e+00 2.3964111630e+00 4.1507058902e+00 
71300 4.8014557884e+00 -6.5110844022e-05 2.3964111630e+00 -4.1507058902e+00 2.3964111630e+00 4.1507058902e+00 
71400 4.8014557885e+00 -6.5177096010e-05 2.3964111630e+00 -4.1507058902e+00 2.3964111630e+00 4.1507058902e+00 
71500 4.8014557885e+00 -6.5249981802e-05 2.3964111630e+00 -4.1507058902e+00 2.3964111630e+00 4.1507058902e+00 
71600 4.8014557886e+00 -6.5328864721e-05 2.3964111630e+00 -4.1507058902e+00 2.3964111630e+00 4.1507058902e+00 
71700 4.8014557887e+00 -6.5413110390e-05 2.3964111630e+00 -4.1507058902e+00 2.3964111630e+00 4.1507058902e+00 
71800 4.8014557888e+00 -6.5502089123e-05 2.3964111630e+00 -4.1507058902e+00 2.3964111630e+00 4.1507058902e+00 
71900 4.8014557888e+00 -6.5595178242e-05 2.3964111630e+00 -4.1507058902e+00 2.3964111630e+00 4.1507058902e+00 
72000 4.8014557889e+00 -6.5691764246e-05 2.3964111630e+00 -4.1507058902e+00 2.3964111630e+00 4.1507058902e+00 
72100 4.8014557890e+00 -6.5791244925e-05 2.3964111630e+00 -4.1507058902e+00 2.3964111630e+00 4.1507058902e+00 
72200 4.8014557891e+00 -6.5893031301e-05 2.3964111630e+00 -4.1507058902e+00 2.3964111630e+00 4.1507058902e+00 
72300 4.8014557891e+00 -6.5996549478e-05 2.3964111630e+00 -4.1507058902e+00 2.3964111630e+00 4.1507058902e+00 
72400 4.8014557892e+00 -6.6101242354e-05 2.3964111630e+00 -4.1507058902e+00 2.3964111630e+00 4.1507058902e+00 
72500 4.8014557893e+00 -6.6206571208e-05 2.3964111630e+00 -4.1507058902e+00 2.3964111630e+00 4.1507058902e+00 
72600 4.8014557893e+00 -6.6312017150e-05 2.3964111630e+00 -4.1507058902e+00 2.3964111630e+00 4.1507058902e+00 
72700 4.8014557894e+00 -6.6417082440e-05 2.3964111630e+00 -4.1507058902e+00 2.3964111630e+00 4.1507058902e+00 
72800 4.8014557894e+00 -6.6521291669e-05 2.3964111630e+00 -4.1507058902e+00 2.3964111630e+00 4.1507058902e+00 
72900 4.8014557895e+00 -6.6624192806e-05 2.3964111630e+00 -4.1507058902e+00 2.3964111630e+00 4.1507058902e+00 
73000 4.8014557896e+00 -6.6725358116e-05 2.3964111630e+00 -4.1507058902e+00 2.3964111630e+00 4.1507058902e+00 
73100 4.8014557896e+00 -6.6824384932e-05 2.3964111630e+00 -4.1507058902e+00 2.3964111630e+00 4.1507058902e+00 
73200 4.8014557897e+00 -6.6920896305e-05 2.3964111630e+00 -4.1507058902e+00 2.3964111630e+00 4.1507058902e+00 
73300 4.8014557897e+00 -6.7014541519e-05 2.3964111630e+00 -4.1507058902e+00 2.3964111630e+00 4.1507058902e+00 
73400 4.8014557898e+00 -6.7104996478e-05 2.3964111630e+00 -4.1507058902e+00 2.3964111630e+00 4.1507058902e+00 
73500 4.8014557898e+00 -6.7191963969e-05 2.3964111630e+00 -4.1507058902e+00 2.3964111630e+00 4.1507058902e+00 
73600 4.8014557899e+00 -6.7275173810e-05 2.3964111630e+00 -4.1507058902e+00 2.3964111630e+00 4.1507058902e+00 
73700 4.8014557899e+00 -6.7354382865e-05 2.3964111630e+00 -4.1507058902e+00 2.3964111630e+00 4.1507058902e+00 
73800 4.8014557900e+00 -6.7429374964e-05 2.3964111630e+00 -4.1507058902e+00 2.3964111630e+00 4.1507058902e+00 
73900 4.8014557900e+00 -6.7499960703e-05 2.3964111630e+00 -4.1507058902e+00 2.3964111630e+00 4.1507058902e+00 
74000 4.8014557901e+00 -6.7565977138e-05 2.3964111630e+00 -4.1507058902e+00 2.3964111630e+00 4.1507058902e+00 
74100 4.8014557901e+00 -6.7627287400e-05 2.3964111630e+00 -4.1507058902e+00 2.3964111630e+00 4.1507058902e+00 
74200 4.8014557902e+00 -6.7648184813e-05 2.3964111630e+00 -4.1507058902e+00 2.3964111630e+00 4.1507058902e+00 
74200 4.8014557902e+00 -6.7648184813e-05 2.3964111630e+00 -4.1507058902e+00 2.3964111630e+00 4.1507058902e+00 
