# step Hamiltonian StressXX CellTensor1 CellTensor2 CellTensor3 CellTensor4 
0 5.2567830964e+00 -3.7837252049e-02 1.4246997714e+00 -2.4676523895e+00 1.4246997714e+00 2.4676523895e+00 
100 5.2578301870e+00 -3.8469797986e-02 1.4246997714e+00 -2.4676523895e+00 1.4246997714e+00 2.4676523895e+00 
200 5.2586929723e+00 -3.8162361028e-02 1.4260500863e+00 -2.4699912036e+00 1.4260500863e+00 2.4699912036e+00 
300 5.2594567959e+00 -3.7893098971e-02 1.4273883396e+00 -2.4723091263e+00 1.4273883396e+00 2.4723091263e+00 
400 5.2601320712e+00 -3.7654244085e-02 1.4287159028e+00 -2.4746085333e+00 1.4287159028e+00 2.4746085333e+00 
500 5.2607279046e+00 -3.7439193142e-02 1.4300338705e+00 -2.4768913202e+00 1.4300338705e+00 2.4768913202e+00 
600 5.2612523032e+00 -3.7242317614e-02 1.4313431017e+00 -2.4791589752e+00 1.4313431017e+00 2.4791589752e+00 
700 5.2617123454e+00 -3.7058809669e-02 1.4326442556e+00 -2.4814126399e+00 1.4326442556e+00 2.4814126399e+00 
800 5.2621143206e+00 -3.6884556422e-02 1.4339378210e+00 -2.4836531609e+00 1.4339378210e+00 2.4836531609e+00 
900 5.2624638450e+00 -3.6716036666e-02 1.4352241413e+00 -2.4858811330e+00 1.4352241413e+00 2.4858811330e+00 
1000 5.2627659561e+00 -3.6550235560e-02 1.4365034357e+00 -2.4880969360e+00 1.4365034357e+00 2.4880969360e+00 
1100 5.2630251925e+00 -3.6384573777e-02 1.4377758179e+00 -2.4903007664e+00 1.4377758179e+00 2.4903007664e+00 
1200 5.2632456594e+00 -3.6216848346e-02 1.4390413109e+00 -2.4924926647e+00 1.4390413109e+00 2.4924926647e+00 
1300 5.2634310832e+00 -3.6045182997e-02 1.4402998614e+00 -2.4946725380e+00 1.4402998614e+00 2.4946725380e+00 
1400 5.2635848580e+00 -3.5867986287e-02 1.4415513507e+00 -2.4968401811e+00 1.4415513507e+00 2.4968401811e+00 
1500 5.2637100836e+00 -3.5683916092e-02 1.4427956054e+00 -2.4989952934e+00 1.4427956054e+00 2.4989952934e+00 
1600 5.2638095980e+00 -3.5491849366e-02 1.4440324060e+00 -2.5011374949e+00 1.4440324060e+00 2.5011374949e+00 
1700 5.2638860053e+00 -3.5290856254e-02 1.4452614947e+00 -2.5032663390e+00 1.4452614947e+00 2.5032663390e+00 
1800 5.2639416982e+00 -3.5080177822e-02 1.4464825824e+00 -2.5053813250e+00 1.4464825824e+00 2.5053813250e+00 
1900 5.2639788785e+00 -3.4859206807e-02 1.4476953545e+00 -2.5074819079e+00 1.4476953545e+00 2.5074819079e+00 
2000 5.2639995736e+00 -3.4627470900e-02 1.4488994765e+00 -2.5095675083e+00 1.4488994765e+00 2.5095675083e+00 
2100 5.2640056513e+00 -3.4384618144e-02 1.4500945982e+00 -2.5116375199e+00 1.4500945982e+00 2.5116375199e+00 
2200 5.2639988327e+00 -3.4130404129e-02 1.4512803588e+00 -2.5136913175e+00 1.4512803588e+00 2.5136913175e+00 
2300 5.2639807027e+00 -3.3864680698e-02 1.4524563897e+00 -2.5157282627e+00 1.4524563897e+00 2.5157282627e+00 
2400 5.2639527205e+00 -3.3587385943e-02 1.4536223182e+00 -2.5177477101e+00 1.4536223182e+00 2.5177477101e+00 
2500 5.2639162275e+00 -3.3298535284e-02 1.4547777707e+00 -2.5197490126e+00 1.4547777707e+00 2.5197490126e+00 
2600 5.2638724557e+00 -3.2998213493e-02 1.4559223750e+00 -2.5217315254e+00 1.4559223750e+00 2.5217315254e+00 
2700 5.2638225343e+00 -3.2686567512e-02 1.4570557627e+00 -2.5236946105e+00 1.4570557627e+00 2.5236946105e+00 
2800 5.2637674961e+00 -3.2363799967e-02 1.4581775715e+00 -2.5256376403e+00 1.4581775715e+00 2.5256376403e+00 
2900 5.2637082836e+00 -3.2030163272e-02 1.4592874467e+00 -2.5275600005e+00 1.4592874467e+00 2.5275600005e+00 
3000 5.2636457545e+00 -3.1685954254e-02 1.4603850431e+00 -2.5294610933e+00 1.4603850431e+00 2.5294610933e+00 
3100 5.2635806863e+00 -3.1331509231e-02 1.4614700267e+00 -2.5313403399e+00 1.4614700267e+00 2.5313403399e+00 
3200 5.2635137816e+00 -3.0967199481e-02 1.4625420752e+00 -2.5331971825e+00 1.4625420752e+00 2.5331971825e+00 
3300 5.2634456727e+00 -3.0593427067e-02 1.4636008801e+00 -2.5350310863e+00 1.4636008801e+00 2.5350310863e+00 
3400 5.2633769253e+00 -3.0210620970e-02 1.4646461468e+00 -2.5368415413e+00 1.4646461468e+00 2.5368415413e+00 
3500 5.2633080434e+00 -2.9819233494e-02 1.4656775960e+00 -2.5386280639e+00 1.4656775960e+00 2.5386280639e+00 
3600 5.2632394727e+00 -2.9419736933e-02 1.4666949644e+00 -2.5403901976e+00 1.4666949644e+00 2.5403901976e+00 
3700 5.2631716047e+00 -2.9012620453e-02 1.4676980049e+00 -2.5421275146e+00 1.4676980049e+00 2.5421275146e+00 
3800 5.2631047803e+00 -2.8598387183e-02 1.4686864873e+00 -2.5438396164e+00 1.4686864873e+00 2.5438396164e+00 
3900 5.2630392934e+00 -2.8177551499e-02 1.4696601990e+00 -2.5455261346e+00 1.4696601990e+00 2.5455261346e+00 
4000 5.2629753940e+00 -2.7750636484e-02 1.4706189449e+00 -2.5471867311e+00 1.4706189449e+00 2.5471867311e+00 
4100 5.2629132921e+00 -2.7318171548e-02 1.4715625477e+00 -2.5488210990e+00 1.4715625477e+00 2.5488210990e+00 
4200 5.2628531601e+00 -2.6880690204e-02 1.4724908480e+00 -2.5504289625e+00 1.4724908480e+00 2.5504289625e+00 
4300 5.2627951364e+00 -2.6438727989e-02 1.4734037048e+00 -2.5520100768e+00 1.4734037048e+00 2.5520100768e+00 
4400 5.2627393280e+00 -2.5992820524e-02 1.4743009949e+00 -2.5535642288e+00 1.4743009949e+00 2.5535642288e+00 
4500 5.2626858136e+00 -2.5543501703e-02 1.4751826130e+00 -2.5550912362e+00 1.4751826130e+00 2.5550912362e+00 
4600 5.2626346458e+00 -2.5091302010e-02 1.4760484719e+00 -2.5565909477e+00 1.4760484719e+00 2.5565909477e+00 
4700 5.2625858540e+00 -2.4636746953e-02 1.4768985018e+00 -2.5580632428e+00 1.4768985018e+00 2.5580632428e+00 
4800 5.2625394469e+00 -2.4180355621e-02 1.4777326507e+00 -2.5595080310e+00 1.4777326507e+00 2.5595080310e+00 
4900 5.2624954145e+00 -2.3722639342e-02 1.4785508835e+00 -2.5609252518e+00 1.4785508835e+00 2.5609252518e+00 
5000 5.2624537301e+00 -2.3264100460e-02 1.4793531820e+00 -2.5623148735e+00 1.4793531820e+00 2.5623148735e+00 
5100 5.2624143530e+00 -2.2805231211e-02 1.4801395446e+00 -2.5636768935e+00 1.4801395446e+00 2.5636768935e+00 
5200 5.2623772299e+00 -2.2346512700e-02 1.4809099857e+00 -2.5650113367e+00 1.4809099857e+00 2.5650113367e+00 
5300 5.2623422966e+00 -2.1888413975e-02 1.4816645356e+00 -2.5663182555e+00 1.4816645356e+00 2.5663182555e+00 
5400 5.2623094802e+00 -2.1431391197e-02 1.4824032397e+00 -2.5675977284e+00 1.4824032397e+00 2.5675977284e+00 
5500 5.2622787002e+00 -2.0975886902e-02 1.4831261581e+00 -2.5688498598e+00 1.4831261581e+00 2.5688498598e+00 
5600 5.2622498700e+00 -2.0522329342e-02 1.4838333654e+00 -2.5700747788e+00 1.4838333654e+00 2.5700747788e+00 
5700 5.2622228984e+00 -2.0071131924e-02 1.4845249499e+00 -2.5712726383e+00 1.4845249499e+00 2.5712726383e+00 
5800 5.2621976907e+00 -1.9622692715e-02 1.4852010131e+00 -2.5724436141e+00 1.4852010131e+00 2.5724436141e+00 
5900 5.2621741496e+00 -1.9177394034e-02 1.4858616694e+00 -2.5735879043e+00 1.4858616694e+00 2.5735879043e+00 
6000 5.2621521767e+00 -1.8735602111e-02 1.4865070451e+00 -2.5747057279e+00 1.4865070451e+00 2.5747057279e+00 
6100 5.2621316728e+00 -1.8297666822e-02 1.4871372784e+00 -2.5757973240e+00 1.4871372784e+00 2.5757973240e+00 
6200 5.2621125393e+00 -1.7863921490e-02 1.4877525185e+00 -2.5768629510e+00 1.4877525185e+00 2.5768629510e+00 
6300 5.2620946784e+00 -1.7434682737e-02 1.4883529248e+00 -2.5779028854e+00 1.4883529248e+00 2.5779028854e+00 
6400 5.2620779940e+00 -1.7010250418e-02 1.4889386672e+00 -2.5789174209e+00 1.4889386672e+00 2.5789174209e+00 
6500 5.2620623921e+00 -1.6590907585e-02 1.4895099243e+00 -2.5799068673e+00 1.4895099243e+00 2.5799068673e+00 
6600 5.2620477817e+00 -1.6176920526e-02 1.4900668841e+00 -2.5808715499e+00 1.4900668841e+00 2.5808715499e+00 
6700 5.2620340745e+00 -1.5768538836e-02 1.4906097423e+00 -2.5818118080e+00 1.4906097423e+00 2.5818118080e+00 
6800 5.2620211857e+00 -1.5365995543e-02 1.4911387027e+00 -2.5827279943e+00 1.4911387027e+00 2.5827279943e+00 
6900 5.2620090343e+00 -1.4969507272e-02 1.4916539761e+00 -2.5836204739e+00 1.4916539761e+00 2.5836204739e+00 
7000 5.2619975430e+00 -1.4579274447e-02 1.4921557797e+00 -2.5844896232e+00 1.4921557797e+00 2.5844896232e+00 
7100 5.2619866388e+00 -1.4195481530e-02 1.4926443369e+00 -2.5853358291e+00 1.4926443369e+00 2.5853358291e+00 
7200 5.2619762526e+00 -1.3818297291e-02 1.4931198767e+00 -2.5861594882e+00 1.4931198767e+00 2.5861594882e+00 
7300 5.2619663197e+00 -1.3447875108e-02 1.4935826329e+00 -2.5869610055e+00 1.4935826329e+00 2.5869610055e+00 
7400 5.2619567796e+00 -1.3084353289e-02 1.4940328440e+00 -2.5877407940e+00 1.4940328440e+00 2.5877407940e+00 
7500 5.2619475762e+00 -1.2727855421e-02 1.4944707525e+00 -2.5884992737e+00 1.4944707525e+00 2.5884992737e+00 
7600 5.2619386575e+00 -1.2378490741e-02 1.4948966042e+00 -2.5892368706e+00 1.4948966042e+00 2.5892368706e+00 
7700 5.2619299757e+00 -1.2036354517e-02 1.4953106483e+00 -2.5899540160e+00 1.4953106483e+00 2.5899540160e+00 
7800 5.2619214871e+00 -1.1701528452e-02 1.4957131364e+00 -2.5906511458e+00 1.4957131364e+00 2.5906511458e+00 
7900 5.2619131520e+00 -1.1374081095e-02 1.4961043223e+00 -2.5913286997e+00 1.4961043223e+00 2.5913286997e+00 
8000 5.2619049347e+00 -1.1054068269e-02 1.4964844617e+00 -2.5919871204e+00 1.4964844617e+00 2.5919871204e+00 
8100 5.2618968029e+00 -1.0741533499e-02 1.4968538114e+00 -2.5926268529e+00 1.4968538114e+00 2.5926268529e+00 
8200 5.2618887281e+00 -1.0436508453e-02 1.4972126294e+00 -2.5932483439e+00 1.4972126294e+00 2.5932483439e+00 
8300 5.2618806851e+00 -1.0139013389e-02 1.4975611742e+00 -2.5938520412e+00 1.4975611742e+00 2.5938520412e+00 
8400 5.2618726520e+00 -9.8490575957e-03 1.4978997045e+00 -2.5944383928e+00 1.4978997045e+00 2.5944383928e+00 
8500 5.2618646099e+00 -9.5666398465e-03 1.4982284788e+00 -2.5950078465e+00 1.4982284788e+00 2.5950078465e+00 
8600 5.2618565428e+00 -9.2917488443e-03 1.4985477551e+00 -2.5955608495e+00 1.4985477551e+00 2.5955608495e+00 
8700 5.2618484375e+00 -9.0243636699e-03 1.4988577909e+00 -2.5960978472e+00 1.4988577909e+00 2.5960978472e+00 
8800 5.2618402830e+00 -8.7644542266e-03 1.4991588424e+00 -2.5966192836e+00 1.4991588424e+00 2.5966192836e+00 
8900 5.2618320709e+00 -8.5119816810e-03 1.4994511643e+00 -2.5971256000e+00 1.4994511643e+00 2.5971256000e+00 
9000 5.2618237950e+00 -8.2668989001e-03 1.4997350098e+00 -2.5976172349e+00 1.4997350098e+00 2.5976172349e+00 
9100 5.2618154507e+00 -8.0291508819e-03 1.5000106302e+00 -2.5980946234e+00 1.5000106302e+00 2.5980946234e+00 
9200 5.2618070356e+00 -7.7986751808e-03 1.5002782746e+00 -2.5985581972e+00 1.5002782746e+00 2.5985581972e+00 
9300 5.2617985487e+00 -7.5754023257e-03 1.5005381898e+00 -2.5990083834e+00 1.5005381898e+00 2.5990083834e+00 
9400 5.2617899905e+00 -7.3592562310e-03 1.5007906197e+00 -2.5994456048e+00 1.5007906197e+00 2.5994456048e+00 
9500 5.2617813629e+00 -7.1501545987e-03 1.5010358057e+00 -2.5998702794e+00 1.5010358057e+00 2.5998702794e+00 
9600 5.2617726689e+00 -6.9480093135e-03 1.5012739860e+00 -2.6002828198e+00 1.5012739860e+00 2.6002828198e+00 
9700 5.2617639123e+00 -6.7527268277e-03 1.5015053957e+00 -2.6006836332e+00 1.5015053957e+00 2.6006836332e+00 
9800 5.2617550982e+00 -6.5642085381e-03 1.5017302665e+00 -2.6010731209e+00 1.5017302665e+00 2.6010731209e+00 
9900 5.2617462322e+00 -6.3823511522e-03 1.5019488267e+00 -2.6014516782e+00 1.5019488267e+00 2.6014516782e+00 
10000 5.2617373204e+00 -6.2070470464e-03 1.5021613007e+00 -2.6018196940e+00 1.5021613007e+00 2.6018196940e+00 
10100 5.2617283697e+00 -6.0381846126e-03 1.5023679093e+00 -2.6021775506e+00 1.5023679093e+00 2.6021775506e+00 
10200 5.2617193873e+00 -5.8756485962e-03 1.5025688694e+00 -2.6025256236e+00 1.5025688694e+00 2.6025256236e+00 
10300 5.2617103806e+00 -5.7193204235e-03 1.5027643937e+00 -2.6028642817e+00 1.5027643937e+00 2.6028642817e+00 
10400 5.2617013573e+00 -5.5690785192e-03 1.5029546911e+00 -2.6031938864e+00 1.5029546911e+00 2.6031938864e+00 
10500 5.2616923254e+00 -5.4247986131e-03 1.5031399659e+00 -2.6035147918e+00 1.5031399659e+00 2.6035147918e+00 
10600 5.2616832926e+00 -5.2863540382e-03 1.5033204184e+00 -2.6038273447e+00 1.5033204184e+00 2.6038273447e+00 
10700 5.2616742669e+00 -5.1536160168e-03 1.5034962444e+00 -2.6041318843e+00 1.5034962444e+00 2.6041318843e+00 
10800 5.2616652561e+00 -5.0264539379e-03 1.5036676354e+00 -2.6044287422e+00 1.5036676354e+00 2.6044287422e+00 
10900 5.2616562679e+00 -4.9047356244e-03 1.5038347783e+00 -2.6047182421e+00 1.5038347783e+00 2.6047182421e+00 
11000 5.2616473099e+00 -4.7883275896e-03 1.5039978555e+00 -2.6050007002e+00 1.5039978555e+00 2.6050007002e+00 
11100 5.2616383893e+00 -4.6770952849e-03 1.5041570450e+00 -2.6052764244e+00 1.5041570450e+00 2.6052764244e+00 
11200 5.2616295132e+00 -4.5709033372e-03 1.5043125199e+00 -2.6055457150e+00 1.5043125199e+00 2.6055457150e+00 
11300 5.2616206884e+00 -4.4696157769e-03 1.5044644491e+00 -2.6058088641e+00 1.5044644491e+00 2.6058088641e+00 
11400 5.2616119212e+00 -4.3730962562e-03 1.5046129967e+00 -2.6060661560e+00 1.5046129967e+00 2.6060661560e+00 
11500 5.2616032179e+00 -4.2812082587e-03 1.5047583220e+00 -2.6063178668e+00 1.5047583220e+00 2.6063178668e+00 
11600 5.2615945842e+00 -4.1938152989e-03 1.5049005799e+00 -2.6065642647e+00 1.5049005799e+00 2.6065642647e+00 
11700 5.2615860254e+00 -4.1107811135e-03 1.5050399207e+00 -2.6068056100e+00 1.5050399207e+00 2.6068056100e+00 
11800 5.2615775465e+00 -4.0319698432e-03 1.5051764899e+00 -2.6070421549e+00 1.5051764899e+00 2.6070421549e+00 
11900 5.2615691522e+00 -3.9572462065e-03 1.5053104287e+00 -2.6072741436e+00 1.5053104287e+00 2.6072741436e+00 
12000 5.2615608467e+00 -3.8864756641e-03 1.5054418734e+00 -2.6075018126e+00 1.5054418734e+00 2.6075018126e+00 
12100 5.2615526339e+00 -3.8195245755e-03 1.5055709562e+00 -2.6077253905e+00 1.5055709562e+00 2.6077253905e+00 
12200 5.2615445171e+00 -3.7562603472e-03 1.5056978043e+00 -2.6079450980e+00 1.5056978043e+00 2.6079450980e+00 
12300 5.2615364994e+00 -3.6965515728e-03 1.5058225409e+00 -2.6081611481e+00 1.5058225409e+00 2.6081611481e+00 
12400 5.2615285836e+00 -3.6402681655e-03 1.5059452845e+00 -2.6083737462e+00 1.5059452845e+00 2.6083737462e+00 
12500 5.2615207720e+00 -3.5872814824e-03 1.5060661494e+00 -2.6085830903e+00 1.5060661494e+00 2.6085830903e+00 
12600 5.2615130666e+00 -3.5374644415e-03 1.5061852454e+00 -2.6087893706e+00 1.5061852454e+00 2.6087893706e+00 
12700 5.2615054689e+00 -3.4906916318e-03 1.5063026781e+00 -2.6089927701e+00 1.5063026781e+00 2.6089927701e+00 
12800 5.2614979804e+00 -3.4468394154e-03 1.5064185492e+00 -2.6091934646e+00 1.5064185492e+00 2.6091934646e+00 
12900 5.2614906019e+00 -3.4057860232e-03 1.5065329557e+00 -2.6093916226e+00 1.5065329557e+00 2.6093916226e+00 
13000 5.2614833342e+00 -3.3674116434e-03 1.5066459910e+00 -2.6095874055e+00 1.5066459910e+00 2.6095874055e+00 
13100 5.2614761777e+00 -3.3315985037e-03 1.5067577443e+00 -2.6097809679e+00 1.5067577443e+00 2.6097809679e+00 
13200 5.2614691325e+00 -3.2982309470e-03 1.5068683009e+00 -2.6099724575e+00 1.5068683009e+00 2.6099724575e+00 
13300 5.2614621986e+00 -3.2671955002e-03 1.5069777421e+00 -2.6101620153e+00 1.5069777421e+00 2.6101620153e+00 
13400 5.2614553755e+00 -3.2383809376e-03 1.5070861457e+00 -2.6103497757e+00 1.5070861457e+00 2.6103497757e+00 
13500 5.2614486627e+00 -3.2116783382e-03 1.5071935854e+00 -2.6105358668e+00 1.5071935854e+00 2.6105358668e+00 
13600 5.2614420595e+00 -3.1869811369e-03 1.5073001317e+00 -2.6107204103e+00 1.5073001317e+00 2.6107204103e+00 
13700 5.2614355650e+00 -3.1641851703e-03 1.5074058511e+00 -2.6109035218e+00 1.5074058511e+00 2.6109035218e+00 
13800 5.2614291780e+00 -3.1431887173e-03 1.5075108070e+00 -2.6110853107e+00 1.5075108070e+00 2.6110853107e+00 
13900 5.2614228972e+00 -3.1238925341e-03 1.5076150591e+00 -2.6112658807e+00 1.5076150591e+00 2.6112658807e+00 
14000 5.2614167214e+00 -3.1061998844e-03 1.5077186641e+00 -2.6114453298e+00 1.5077186641e+00 2.6114453298e+00 
14100 5.2614106489e+00 -3.0900165645e-03 1.5078216752e+00 -2.6116237502e+00 1.5078216752e+00 2.6116237502e+00 
14200 5.2614046782e+00 -3.0752509235e-03 1.5079241426e+00 -2.6118012290e+00 1.5079241426e+00 2.6118012290e+00 
14300 5.2613988076e+00 -3.0618138799e-03 1.5080261135e+00 -2.6119778477e+00 1.5080261135e+00 2.6119778477e+00 
14400 5.2613930352e+00 -3.0496189322e-03 1.5081276319e+00 -2.6121536827e+00 1.5081276319e+00 2.6121536827e+00 
14500 5.2613873594e+00 -3.0385821670e-03 1.5082287391e+00 -2.6123288056e+00 1.5082287391e+00 2.6123288056e+00 
14600 5.2613817781e+00 -3.0286222617e-03 1.5083294737e+00 -2.6125032830e+00 1.5083294737e+00 2.6125032830e+00 
14700 5.2613762895e+00 -3.0196604838e-03 1.5084298714e+00 -2.6126771769e+00 1.5084298714e+00 2.6126771769e+00 
14800 5.2613708916e+00 -3.0116206872e-03 1.5085299653e+00 -2.6128505447e+00 1.5085299653e+00 2.6128505447e+00 
14900 5.2613655824e+00 -3.0044293035e-03 1.5086297862e+00 -2.6130234395e+00 1.5086297862e+00 2.6130234395e+00 
15000 5.2613603599e+00 -2.9980153308e-03 1.5087293620e+00 -2.6131959099e+00 1.5087293620e+00 2.6131959099e+00 
15100 5.2613552222e+00 -2.9923103195e-03 1.5088287188e+00 -2.6133680008e+00 1.5088287188e+00 2.6133680008e+00 
15200 5.2613501673e+00 -2.9872483544e-03 1.5089278799e+00 -2.6135397529e+00 1.5089278799e+00 2.6135397529e+00 
15300 5.2613451933e+00 -2.9827660339e-03 1.5090268668e+00 -2.6137112032e+00 1.5090268668e+00 2.6137112032e+00 
15400 5.2613402981e+00 -2.9788024468e-03 1.5091256986e+00 -2.6138823850e+00 1.5091256986e+00 2.6138823850e+00 
15500 5.2613354799e+00 -2.9752991464e-03 1.5092243927e+00 -2.6140533281e+00 1.5092243927e+00 2.6140533281e+00 
15600 5.2613307368e+00 -2.9722001220e-03 1.5093229642e+00 -2.6142240591e+00 1.5093229642e+00 2.6142240591e+00 
15700 5.2613260670e+00 -2.9694517676e-03 1.5094214267e+00 -2.6143946010e+00 1.5094214267e+00 2.6143946010e+00 
15800 5.2613214687e+00 -2.9670028497e-03 1.5095197916e+00 -2.6145649741e+00 1.5095197916e+00 2.6145649741e+00 
15900 5.2613169401e+00 -2.9648044716e-03 1.5096180691e+00 -2.6147351957e+00 1.5096180691e+00 2.6147351957e+00 
16000 5.2613124795e+00 -2.9628100366e-03 1.5097162673e+00 -2.6149052800e+00 1.5097162673e+00 2.6149052800e+00 
16100 5.2613080852e+00 -2.9609752093e-03 1.5098143931e+00 -2.6150752389e+00 1.5098143931e+00 2.6150752389e+00 
16200 5.2613037557e+00 -2.9592578754e-03 1.5099124518e+00 -2.6152450814e+00 1.5099124518e+00 2.6152450814e+00 
16300 5.2612994894e+00 -2.9576180993e-03 1.5100104472e+00 -2.6154148145e+00 1.5100104472e+00 2.6154148145e+00 
16400 5.2612952848e+00 -2.9560180811e-03 1.5101083819e+00 -2.6155844424e+00 1.5101083819e+00 2.6155844424e+00 
16500 5.2612911404e+00 -2.9544221124e-03 1.5102062574e+00 -2.6157539677e+00 1.5102062574e+00 2.6157539677e+00 
16600 5.2612870550e+00 -2.9527965297e-03 1.5103040736e+00 -2.6159233904e+00 1.5103040736e+00 2.6159233904e+00 
16700 5.2612830270e+00 -2.9511096685e-03 1.5104018297e+00 -2.6160927089e+00 1.5104018297e+00 2.6160927089e+00 
16800 5.2612790554e+00 -2.9493318152e-03 1.5104995236e+00 -2.6162619197e+00 1.5104995236e+00 2.6162619197e+00 
16900 5.2612751387e+00 -2.9474351590e-03 1.5105971524e+00 -2.6164310176e+00 1.5105971524e+00 2.6164310176e+00 
17000 5.2612712760e+00 -2.9453937420e-03 1.5106947120e+00 -2.6165999959e+00 1.5106947120e+00 2.6165999959e+00 
17100 5.2612674660e+00 -2.9431834106e-03 1.5107921978e+00 -2.6167688463e+00 1.5107921978e+00 2.6167688463e+00 
17200 5.2612637077e+00 -2.9407817642e-03 1.5108896042e+00 -2.6169375590e+00 1.5108896042e+00 2.6169375590e+00 
17300 5.2612600001e+00 -2.9381681051e-03 1.5109869247e+00 -2.6171061232e+00 1.5109869247e+00 2.6171061232e+00 
17400 5.2612563422e+00 -2.9353233877e-03 1.5110841526e+00 -2.6172745268e+00 1.5110841526e+00 2.6172745268e+00 
17500 5.2612527331e+00 -2.9322301667e-03 1.5111812800e+00 -2.6174427564e+00 1.5111812800e+00 2.6174427564e+00 
17600 5.2612491719e+00 -2.9288725467e-03 1.5112782989e+00 -2.6176107980e+00 1.5112782989e+00 2.6176107980e+00 
17700 5.2612456578e+00 -2.9252361302e-03 1.5113752004e+00 -2.6177786364e+00 1.5113752004e+00 2.6177786364e+00 
17800 5.2612421900e+00 -2.9213079668e-03 1.5114719754e+00 -2.6179462557e+00 1.5114719754e+00 2.6179462557e+00 
17900 5.2612387676e+00 -2.9170765015e-03 1.5115686143e+00 -2.6181136391e+00 1.5115686143e+00 2.6181136391e+00 
18000 5.2612353901e+00 -2.9125315245e-03 1.5116651070e+00 -2.6182807694e+00 1.5116651070e+00 2.6182807694e+00 
18100 5.2612320567e+00 -2.9076641198e-03 1.5117614433e+00 -2.6184476287e+00 1.5117614433e+00 2.6184476287e+00 
18200 5.2612287668e+00 -2.9024666154e-03 1.5118576124e+00 -2.6186141984e+00 1.5118576124e+00 2.6186141984e+00 
18300 5.2612255197e+00 -2.8969325328e-03 1.5119536035e+00 -2.6187804599e+00 1.5119536035e+00 2.6187804599e+00 
18400 5.2612223149e+00 -2.8910565379e-03 1.5120494055e+00 -2.6189463938e+00 1.5120494055e+00 2.6189463938e+00 
18500 5.2612191518e+00 -2.8848343918e-03 1.5121450071e+00 -2.6191119806e+00 1.5121450071e+00 2.6191119806e+00 
18600 5.2612160298e+00 -2.8782629024e-03 1.5122403969e+00 -2.6192772007e+00 1.5122403969e+00 2.6192772007e+00 
18700 5.2612129484e+00 -2.8713398763e-03 1.5123355634e+00 -2.6194420339e+00 1.5123355634e+00 2.6194420339e+00 
18800 5.2612099071e+00 -2.8640640723e-03 1.5124304950e+00 -2.6196064603e+00 1.5124304950e+00 2.6196064603e+00 
18900 5.2612069055e+00 -2.8564351541e-03 1.5125251802e+00 -2.6197704598e+00 1.5125251802e+00 2.6197704598e+00 
19000 5.2612039430e+00 -2.8484536451e-03 1.5126196072e+00 -2.6199340122e+00 1.5126196072e+00 2.6199340122e+00 
19100 5.2612010193e+00 -2.8401208834e-03 1.5127137645e+00 -2.6200970974e+00 1.5127137645e+00 2.6200970974e+00 
19200 5.2611981338e+00 -2.8314389776e-03 1.5128076405e+00 -2.6202596954e+00 1.5128076405e+00 2.6202596954e+00 
19300 5.2611952863e+00 -2.8224107634e-03 1.5129012237e+00 -2.6204217863e+00 1.5129012237e+00 2.6204217863e+00 
19400 5.2611924762e+00 -2.8130397615e-03 1.5129945028e+00 -2.6205833503e+00 1.5129945028e+00 2.6205833503e+00 
19500 5.2611897031e+00 -2.8033301359e-03 1.5130874664e+00 -2.6207443680e+00 1.5130874664e+00 2.6207443680e+00 
19600 5.2611869667e+00 -2.7932866537e-03 1.5131801034e+00 -2.6209048201e+00 1.5131801034e+00 2.6209048201e+00 
19700 5.2611842666e+00 -2.7829146449e-03 1.5132724029e+00 -2.6210646875e+00 1.5132724029e+00 2.6210646875e+00 
19800 5.2611816024e+00 -2.7722199645e-03 1.5133643540e+00 -2.6212239516e+00 1.5133643540e+00 2.6212239516e+00 
19900 5.2611789738e+00 -2.7612089545e-03 1.5134559463e+00 -2.6213825939e+00 1.5134559463e+00 2.6213825939e+00 
20000 5.2611763803e+00 -2.7498884074e-03 1.5135471692e+00 -2.6215405966e+00 1.5135471692e+00 2.6215405966e+00 
20100 5.2611738217e+00 -2.7382655307e-03 1.5136380126e+00 -2.6216979420e+00 1.5136380126e+00 2.6216979420e+00 
20200 5.2611712975e+00 -2.7263479120e-03 1.5137284666e+00 -2.6218546130e+00 1.5137284666e+00 2.6218546130e+00 
20300 5.2611688074e+00 -2.7141434861e-03 1.5138185215e+00 -2.6220105927e+00 1.5138185215e+00 2.6220105927e+00 
20400 5.2611663511e+00 -2.7016605021e-03 1.5139081680e+00 -2.6221658650e+00 1.5139081680e+00 2.6221658650e+00 
20500 5.2611639282e+00 -2.6889074922e-03 1.5139973969e+00 -2.6223204140e+00 1.5139973969e+00 2.6223204140e+00 
20600 5.2611615383e+00 -2.6758932412e-03 1.5140861994e+00 -2.6224742244e+00 1.5140861994e+00 2.6224742244e+00 
20700 5.2611591812e+00 -2.6626267574e-03 1.5141745668e+00 -2.6226272813e+00 1.5141745668e+00 2.6226272813e+00 
20800 5.2611568564e+00 -2.6491172441e-03 1.5142624911e+00 -2.6227795705e+00 1.5142624911e+00 2.6227795705e+00 
20900 5.2611545636e+00 -2.6353740726e-03 1.5143499641e+00 -2.6229310783e+00 1.5143499641e+00 2.6229310783e+00 
21000 5.2611523025e+00 -2.6214067562e-03 1.5144369783e+00 -2.6230817913e+00 1.5144369783e+00 2.6230817913e+00 
21100 5.2611500727e+00 -2.6072249246e-03 1.5145235264e+00 -2.6232316970e+00 1.5145235264e+00 2.6232316970e+00 
21200 5.2611478740e+00 -2.5928383005e-03 1.5146096013e+00 -2.6233807831e+00 1.5146096013e+00 2.6233807831e+00 
21300 5.2611457058e+00 -2.5782566757e-03 1.5146951964e+00 -2.6235290381e+00 1.5146951964e+00 2.6235290381e+00 
21400 5.2611435680e+00 -2.5634898900e-03 1.5147803053e+00 -2.6236764510e+00 1.5147803053e+00 2.6236764510e+00 
21500 5.2611414600e+00 -2.5485478094e-03 1.5148649220e+00 -2.6238230114e+00 1.5148649220e+00 2.6238230114e+00 
21600 5.2611393817e+00 -2.5334403064e-03 1.5149490407e+00 -2.6239687094e+00 1.5149490407e+00 2.6239687094e+00 
21700 5.2611373327e+00 -2.5181772409e-03 1.5150326562e+00 -2.6241135357e+00 1.5150326562e+00 2.6241135357e+00 
21800 5.2611353125e+00 -2.5027684421e-03 1.5151157633e+00 -2.6242574814e+00 1.5151157633e+00 2.6242574814e+00 
21900 5.2611333209e+00 -2.4872236913e-03 1.5151983574e+00 -2.6244005385e+00 1.5151983574e+00 2.6244005385e+00 
22000 5.2611313575e+00 -2.4715527054e-03 1.5152804340e+00 -2.6245426994e+00 1.5152804340e+00 2.6245426994e+00 
22100 5.2611294220e+00 -2.4557651222e-03 1.5153619890e+00 -2.6246839568e+00 1.5153619890e+00 2.6246839568e+00 
22200 5.2611275140e+00 -2.4398704852e-03 1.5154430187e+00 -2.6248243044e+00 1.5154430187e+00 2.6248243044e+00 
22300 5.2611256332e+00 -2.4238782307e-03 1.5155235197e+00 -2.6249637361e+00 1.5155235197e+00 2.6249637361e+00 
22400 5.2611237793e+00 -2.4077976749e-03 1.5156034887e+00 -2.6251022466e+00 1.5156034887e+00 2.6251022466e+00 
22500 5.2611219518e+00 -2.3916380016e-03 1.5156829230e+00 -2.6252398309e+00 1.5156829230e+00 2.6252398309e+00 
22600 5.2611201505e+00 -2.3754082518e-03 1.5157618201e+00 -2.6253764846e+00 1.5157618201e+00 2.6253764846e+00 
22700 5.2611183750e+00 -2.3591173132e-03 1.5158401777e+00 -2.6255122039e+00 1.5158401777e+00 2.6255122039e+00 
22800 5.2611166249e+00 -2.3427739106e-03 1.5159179939e+00 -2.6256469855e+00 1.5159179939e+00 2.6256469855e+00 
22900 5.2611149000e+00 -2.3263865974e-03 1.5159952670e+00 -2.6257808264e+00 1.5159952670e+00 2.6257808264e+00 
23000 5.2611131999e+00 -2.3099637473e-03 1.5160719956e+00 -2.6259137244e+00 1.5160719956e+00 2.6259137244e+00 
23100 5.2611115243e+00 -2.2935135474e-03 1.5161481788e+00 -2.6260456775e+00 1.5161481788e+00 2.6260456775e+00 
23200 5.2611098728e+00 -2.2770439915e-03 1.5162238156e+00 -2.6261766843e+00 1.5162238156e+00 2.6261766843e+00 
23300 5.2611082451e+00 -2.2605628740e-03 1.5162989056e+00 -2.6263067439e+00 1.5162989056e+00 2.6263067439e+00 
23400 5.2611066409e+00 -2.2440777849e-03 1.5163734483e+00 -2.6264358557e+00 1.5163734483e+00 2.6264358557e+00 
23500 5.2611050598e+00 -2.2275961048e-03 1.5164474438e+00 -2.6265640197e+00 1.5164474438e+00 2.6265640197e+00 
23600 5.2611035016e+00 -2.2111250013e-03 1.5165208922e+00 -2.6266912361e+00 1.5165208922e+00 2.6266912361e+00 
23700 5.2611019659e+00 -2.1946714252e-03 1.5165937941e+00 -2.6268175057e+00 1.5165937941e+00 2.6268175057e+00 
23800 5.2611004523e+00 -2.1782421078e-03 1.5166661499e+00 -2.6269428298e+00 1.5166661499e+00 2.6269428298e+00 
23900 5.2610989607e+00 -2.1618435584e-03 1.5167379607e+00 -2.6270672097e+00 1.5167379607e+00 2.6270672097e+00 
24000 5.2610974906e+00 -2.1454820625e-03 1.5168092275e+00 -2.6271906473e+00 1.5168092275e+00 2.6271906473e+00 
24100 5.2610960418e+00 -2.1291636801e-03 1.5168799515e+00 -2.6273131450e+00 1.5168799515e+00 2.6273131450e+00 
24200 5.2610946140e+00 -2.1128942457e-03 1.5169501344e+00 -2.6274347054e+00 1.5169501344e+00 2.6274347054e+00 
24300 5.2610932068e+00 -2.0966793666e-03 1.5170197778e+00 -2.6275553312e+00 1.5170197778e+00 2.6275553312e+00 
24400 5.2610918200e+00 -2.0805244242e-03 1.5170888835e+00 -2.6276750259e+00 1.5170888835e+00 2.6276750259e+00 
24500 5.2610904533e+00 -2.0644345731e-03 1.5171574537e+00 -2.6277937928e+00 1.5171574537e+00 2.6277937928e+00 
24600 5.2610891063e+00 -2.0484147431e-03 1.5172254904e+00 -2.6279116360e+00 1.5172254904e+00 2.6279116360e+00 
24700 5.2610877789e+00 -2.0324696392e-03 1.5172929962e+00 -2.6280285594e+00 1.5172929962e+00 2.6280285594e+00 
24800 5.2610864706e+00 -2.0166037440e-03 1.5173599736e+00 -2.6281445676e+00 1.5173599736e+00 2.6281445676e+00 
24900 5.2610851813e+00 -2.0008213190e-03 1.5174264251e+00 -2.6282596650e+00 1.5174264251e+00 2.6282596650e+00 
25000 5.2610839107e+00 -1.9851264069e-03 1.5174923537e+00 -2.6283738567e+00 1.5174923537e+00 2.6283738567e+00 
25100 5.2610826585e+00 -1.9695228342e-03 1.5175577623e+00 -2.6284871477e+00 1.5175577623e+00 2.6284871477e+00 
25200 5.2610814243e+00 -1.9540142132e-03 1.5176226539e+00 -2.6285995434e+00 1.5176226539e+00 2.6285995434e+00 
25300 5.2610802081e+00 -1.9386039460e-03 1.5176870319e+00 -2.6287110492e+00 1.5176870319e+00 2.6287110492e+00 
25400 5.2610790094e+00 -1.9232952267e-03 1.5177508994e+00 -2.6288216710e+00 1.5177508994e+00 2.6288216710e+00 
25500 5.2610778281e+00 -1.9080910453e-03 1.5178142599e+00 -2.6289314145e+00 1.5178142599e+00 2.6289314145e+00 
25600 5.2610766639e+00 -1.8929941912e-03 1.5178771168e+00 -2.6290402860e+00 1.5178771168e+00 2.6290402860e+00 
25700 5.2610755166e+00 -1.8780072572e-03 1.5179394739e+00 -2.6291482916e+00 1.5179394739e+00 2.6291482916e+00 
25800 5.2610743858e+00 -1.8631326429e-03 1.5180013347e+00 -2.6292554377e+00 1.5180013347e+00 2.6292554377e+00 
25900 5.2610732714e+00 -1.8483725595e-03 1.5180627031e+00 -2.6293617308e+00 1.5180627031e+00 2.6293617308e+00 
26000 5.2610721732e+00 -1.8337290335e-03 1.5181235828e+00 -2.6294671776e+00 1.5181235828e+00 2.6294671776e+00 
26100 5.2610710908e+00 -1.8192039113e-03 1.5181839778e+00 -2.6295717848e+00 1.5181839778e+00 2.6295717848e+00 
26200 5.2610700241e+00 -1.8047988639e-03 1.5182438920e+00 -2.6296755593e+00 1.5182438920e+00 2.6296755593e+00 
26300 5.2610689728e+00 -1.7905153912e-03 1.5183033295e+00 -2.6297785079e+00 1.5183033295e+00 2.6297785079e+00 
26400 5.2610679368e+00 -1.7763548267e-03 1.5183622942e+00 -2.6298806378e+00 1.5183622942e+00 2.6298806378e+00 
26500 5.2610669157e+00 -1.7623183426e-03 1.5184207903e+00 -2.6299819561e+00 1.5184207903e+00 2.6299819561e+00 
26600 5.2610659094e+00 -1.7484069540e-03 1.5184788220e+00 -2.6300824699e+00 1.5184788220e+00 2.6300824699e+00 
26700 5.2610649176e+00 -1.7346215246e-03 1.5185363933e+00 -2.6301821864e+00 1.5185363933e+00 2.6301821864e+00 
26800 5.2610639403e+00 -1.7209627709e-03 1.5185935086e+00 -2.6302811130e+00 1.5185935086e+00 2.6302811130e+00 
26900 5.2610629770e+00 -1.7074312673e-03 1.5186501720e+00 -2.6303792569e+00 1.5186501720e+00 2.6303792569e+00 
27000 5.2610620277e+00 -1.6940274514e-03 1.5187063878e+00 -2.6304766254e+00 1.5187063878e+00 2.6304766254e+00 
27100 5.2610610922e+00 -1.6807516287e-03 1.5187621602e+00 -2.6305732261e+00 1.5187621602e+00 2.6305732261e+00 
27200 5.2610601702e+00 -1.6676039775e-03 1.5188174935e+00 -2.6306690661e+00 1.5188174935e+00 2.6306690661e+00 
27300 5.2610592615e+00 -1.6545845542e-03 1.5188723919e+00 -2.6307641530e+00 1.5188723919e+00 2.6307641530e+00 
27400 5.2610583661e+00 -1.6416932978e-03 1.5189268598e+00 -2.6308584941e+00 1.5189268598e+00 2.6308584941e+00 
27500 5.2610574835e+00 -1.6289300353e-03 1.5189809013e+00 -2.6309520968e+00 1.5189809013e+00 2.6309520968e+00 
27600 5.2610566138e+00 -1.6162944861e-03 1.5190345208e+00 -2.6310449685e+00 1.5190345208e+00 2.6310449685e+00 
27700 5.2610557567e+00 -1.6037862674e-03 1.5190877225e+00 -2.6311371165e+00 1.5190877225e+00 2.6311371165e+00 
27800 5.2610549120e+00 -1.5914048985e-03 1.5191405106e+00 -2.6312285482e+00 1.5191405106e+00 2.6312285482e+00 
27900 5.2610540796e+00 -1.5791498059e-03 1.5191928894e+00 -2.6313192709e+00 1.5191928894e+00 2.6313192709e+00 
28000 5.2610532592e+00 -1.5670203279e-03 1.5192448630e+00 -2.6314092918e+00 1.5192448630e+00 2.6314092918e+00 
28100 5.2610524507e+00 -1.5550157192e-03 1.5192964356e+00 -2.6314986182e+00 1.5192964356e+00 2.6314986182e+00 
28200 5.2610516540e+00 -1.5431351554e-03 1.5193476114e+00 -2.6315872573e+00 1.5193476114e+00 2.6315872573e+00 
28300 5.2610508688e+00 -1.5313777378e-03 1.5193983945e+00 -2.6316752162e+00 1.5193983945e+00 2.6316752162e+00 
28400 5.2610500950e+00 -1.5197424975e-03 1.5194487890e+00 -2.6317625021e+00 1.5194487890e+00 2.6317625021e+00 
28500 5.2610493325e+00 -1.5082283999e-03 1.5194987989e+00 -2.6318491218e+00 1.5194987989e+00 2.6318491218e+00 
28600 5.2610485810e+00 -1.4968343488e-03 1.5195484284e+00 -2.6319350825e+00 1.5195484284e+00 2.6319350825e+00 
28700 5.2610478405e+00 -1.4855591908e-03 1.5195976812e+00 -2.6320203909e+00 1.5195976812e+00 2.6320203909e+00 
28800 5.2610471108e+00 -1.4744017192e-03 1.5196465615e+00 -2.6321050541e+00 1.5196465615e+00 2.6321050541e+00 
28900 5.2610463916e+00 -1.4633606780e-03 1.5196950731e+00 -2.6321890786e+00 1.5196950731e+00 2.6321890786e+00 
29000 5.2610456829e+00 -1.4524347659e-03 1.5197432199e+00 -2.6322724713e+00 1.5197432199e+00 2.6322724713e+00 
29100 5.2610449845e+00 -1.4416226400e-03 1.5197910057e+00 -2.6323552387e+00 1.5197910057e+00 2.6323552387e+00 
29200 5.2610442963e+00 -1.4309229192e-03 1.5198384342e+00 -2.6324373874e+00 1.5198384342e+00 2.6324373874e+00 
29300 5.2610436182e+00 -1.4203341885e-03 1.5198855093e+00 -2.6325189238e+00 1.5198855093e+00 2.6325189238e+00 
29400 5.2610429499e+00 -1.4098550017e-03 1.5199322346e+00 -2.6325998544e+00 1.5199322346e+00 2.6325998544e+00 
29500 5.2610422913e+00 -1.3994838853e-03 1.5199786137e+00 -2.6326801853e+00 1.5199786137e+00 2.6326801853e+00 
29600 5.2610416424e+00 -1.3892193413e-03 1.5200246502e+00 -2.6327599229e+00 1.5200246502e+00 2.6327599229e+00 
29700 5.2610410029e+00 -1.3790598510e-03 1.5200703477e+00 -2.6328390733e+00 1.5200703477e+00 2.6328390733e+00 
29800 5.2610403727e+00 -1.3690038773e-03 1.5201157097e+00 -2.6329176425e+00 1.5201157097e+00 2.6329176425e+00 
29900 5.2610397517e+00 -1.3590498683e-03 1.5201607395e+00 -2.6329956364e+00 1.5201607395e+00 2.6329956364e+00 
30000 5.2610391398e+00 -1.3491962597e-03 1.5202054406e+00 -2.6330730610e+00 1.5202054406e+00 2.6330730610e+00 
30100 5.2610385369e+00 -1.3394414777e-03 1.5202498162e+00 -2.6331499219e+00 1.5202498162e+00 2.6331499219e+00 
30200 5.2610379427e+00 -1.3297839417e-03 1.5202938698e+00 -2.6332262249e+00 1.5202938698e+00 2.6332262249e+00 
30300 5.2610373573e+00 -1.3202220665e-03 1.5203376044e+00 -2.6333019755e+00 1.5203376044e+00 2.6333019755e+00 
30400 5.2610367804e+00 -1.3107542650e-03 1.5203810233e+00 -2.6333771793e+00 1.5203810233e+00 2.6333771793e+00 
30500 5.2610362119e+00 -1.3013789506e-03 1.5204241297e+00 -2.6334518416e+00 1.5204241297e+00 2.6334518416e+00 
30600 5.2610356518e+00 -1.2920945389e-03 1.5204669264e+00 -2.6335259678e+00 1.5204669264e+00 2.6335259678e+00 
30700 5.2610350998e+00 -1.2828994504e-03 1.5205094167e+00 -2.6335995631e+00 1.5205094167e+00 2.6335995631e+00 
30800 5.2610345560e+00 -1.2737921119e-03 1.5205516034e+00 -2.6336726326e+00 1.5205516034e+00 2.6336726326e+00 
30900 5.2610340201e+00 -1.2647709590e-03 1.5205934894e+00 -2.6337451814e+00 1.5205934894e+00 2.6337451814e+00 
31000 5.2610334920e+00 -1.2558344374e-03 1.5206350777e+00 -2.6338172143e+00 1.5206350777e+00 2.6338172143e+00 
31100 5.2610329717e+00 -1.2469810047e-03 1.5206763710e+00 -2.6338887364e+00 1.5206763710e+00 2.6338887364e+00 
31200 5.2610324591e+00 -1.2382091322e-03 1.5207173720e+00 -2.6339597523e+00 1.5207173720e+00 2.6339597523e+00 
31300 5.2610319539e+00 -1.2295173062e-03 1.5207580836e+00 -2.6340302667e+00 1.5207580836e+00 2.6340302667e+00 
31400 5.2610314562e+00 -1.2209040296e-03 1.5207985082e+00 -2.6341002843e+00 1.5207985082e+00 2.6341002843e+00 
31500 5.2610309657e+00 -1.2123678228e-03 1.5208386486e+00 -2.6341698095e+00 1.5208386486e+00 2.6341698095e+00 
31600 5.2610304825e+00 -1.2039072255e-03 1.5208785073e+00 -2.6342388468e+00 1.5208785073e+00 2.6342388468e+00 
31700 5.2610300063e+00 -1.1955207976e-03 1.5209180868e+00 -2.6343074005e+00 1.5209180868e+00 2.6343074005e+00 
31800 5.2610295372e+00 -1.1872071199e-03 1.5209573896e+00 -2.6343754749e+00 1.5209573896e+00 2.6343754749e+00 
31900 5.2610290749e+00 -1.1789647956e-03 1.5209964181e+00 -2.6344430742e+00 1.5209964181e+00 2.6344430742e+00 
32000 5.2610286195e+00 -1.1707924512e-03 1.5210351746e+00 -2.6345102024e+00 1.5210351746e+00 2.6345102024e+00 
32100 5.2610281707e+00 -1.1626887366e-03 1.5210736614e+00 -2.6345768636e+00 1.5210736614e+00 2.6345768636e+00 
32200 5.2610277285e+00 -1.1546523268e-03 1.5211118809e+00 -2.6346430617e+00 1.5211118809e+00 2.6346430617e+00 
32300 5.2610272929e+00 -1.1466819219e-03 1.5211498353e+00 -2.6347088007e+00 1.5211498353e+00 2.6347088007e+00 
32400 5.2610268636e+00 -1.1387762479e-03 1.5211875267e+00 -2.6347740842e+00 1.5211875267e+00 2.6347740842e+00 
32500 5.2610264407e+00 -1.1309340573e-03 1.5212249574e+00 -2.6348389159e+00 1.5212249574e+00 2.6348389159e+00 
32600 5.2610260240e+00 -1.1231541294e-03 1.5212621294e+00 -2.6349032997e+00 1.5212621294e+00 2.6349032997e+00 
32700 5.2610256134e+00 -1.1154352708e-03 1.5212990447e+00 -2.6349672390e+00 1.5212990447e+00 2.6349672390e+00 
32800 5.2610252088e+00 -1.1077763158e-03 1.5213357055e+00 -2.6350307373e+00 1.5213357055e+00 2.6350307373e+00 
32900 5.2610248103e+00 -1.1001761264e-03 1.5213721137e+00 -2.6350937981e+00 1.5213721137e+00 2.6350937981e+00 
33000 5.2610244176e+00 -1.0926335929e-03 1.5214082712e+00 -2.6351564247e+00 1.5214082712e+00 2.6351564247e+00 
33100 5.2610240307e+00 -1.0851476335e-03 1.5214441799e+00 -2.6352186205e+00 1.5214441799e+00 2.6352186205e+00 
33200 5.2610236495e+00 -1.0777171952e-03 1.5214798418e+00 -2.6352803887e+00 1.5214798418e+00 2.6352803887e+00 
33300 5.2610232739e+00 -1.0703412530e-03 1.5215152587e+00 -2.6353417326e+00 1.5215152587e+00 2.6353417326e+00 
33400 5.2610229039e+00 -1.0630188105e-03 1.5215504324e+00 -2.6354026551e+00 1.5215504324e+00 2.6354026551e+00 
33500 5.2610225393e+00 -1.0557488996e-03 1.5215853646e+00 -2.6354631595e+00 1.5215853646e+00 2.6354631595e+00 
33600 5.2610221801e+00 -1.0485305805e-03 1.5216200571e+00 -2.6355232488e+00 1.5216200571e+00 2.6355232488e+00 
33700 5.2610218262e+00 -1.0413629415e-03 1.5216545117e+00 -2.6355829258e+00 1.5216545117e+00 2.6355829258e+00 
33800 5.2610214775e+00 -1.0342450989e-03 1.5216887299e+00 -2.6356421935e+00 1.5216887299e+00 2.6356421935e+00 
33900 5.2610211340e+00 -1.0271761968e-03 1.5217227135e+00 -2.6357010548e+00 1.5217227135e+00 2.6357010548e+00 
34000 5.2610207955e+00 -1.0201554067e-03 1.5217564641e+00 -2.6357595125e+00 1.5217564641e+00 2.6357595125e+00 
34100 5.2610204621e+00 -1.0131819275e-03 1.5217899832e+00 -2.6358175694e+00 1.5217899832e+00 2.6358175694e+00 
34200 5.2610201335e+00 -1.0062549849e-03 1.5218232725e+00 -2.6358752281e+00 1.5218232725e+00 2.6358752281e+00 
34300 5.2610198099e+00 -9.9937383121e-04 1.5218563334e+00 -2.6359324913e+00 1.5218563334e+00 2.6359324913e+00 
34400 5.2610194910e+00 -9.9253774508e-04 1.5218891676e+00 -2.6359893618e+00 1.5218891676e+00 2.6359893618e+00 
34500 5.2610191768e+00 -9.8574603092e-04 1.5219217764e+00 -2.6360458420e+00 1.5219217764e+00 2.6360458420e+00 
34600 5.2610188673e+00 -9.7899801857e-04 1.5219541615e+00 -2.6361019345e+00 1.5219541615e+00 2.6361019345e+00 
34700 5.2610185623e+00 -9.7229306289e-04 1.5219863241e+00 -2.6361576418e+00 1.5219863241e+00 2.6361576418e+00 
34800 5.2610182619e+00 -9.6563054325e-04 1.5220182658e+00 -2.6362129664e+00 1.5220182658e+00 2.6362129664e+00 
34900 5.2610179659e+00 -9.5900986308e-04 1.5220499880e+00 -2.6362679108e+00 1.5220499880e+00 2.6362679108e+00 
35000 5.2610176743e+00 -9.5243044937e-04 1.5220814920e+00 -2.6363224773e+00 1.5220814920e+00 2.6363224773e+00 
35100 5.2610173870e+00 -9.4589175217e-04 1.5221127792e+00 -2.6363766684e+00 1.5221127792e+00 2.6363766684e+00 
35200 5.2610171040e+00 -9.3939324406e-04 1.5221438510e+00 -2.6364304863e+00 1.5221438510e+00 2.6364304863e+00 
35300 5.2610168251e+00 -9.3293441960e-04 1.5221747086e+00 -2.6364839333e+00 1.5221747086e+00 2.6364839333e+00 
35400 5.2610165504e+00 -9.2651479483e-04 1.5222053535e+00 -2.6365370118e+00 1.5222053535e+00 2.6365370118e+00 
35500 5.2610162798e+00 -9.2013390665e-04 1.5222357869e+00 -2.6365897241e+00 1.5222357869e+00 2.6365897241e+00 
35600 5.2610160131e+00 -9.1379131233e-04 1.5222660101e+00 -2.6366420722e+00 1.5222660101e+00 2.6366420722e+00 
35700 5.2610157504e+00 -9.0748658888e-04 1.5222960244e+00 -2.6366940584e+00 1.5222960244e+00 2.6366940584e+00 
35800 5.2610154917e+00 -9.0121933249e-04 1.5223258310e+00 -2.6367456850e+00 1.5223258310e+00 2.6367456850e+00 
35900 5.2610152367e+00 -8.9498915798e-04 1.5223554312e+00 -2.6367969540e+00 1.5223554312e+00 2.6367969540e+00 
36000 5.2610149855e+00 -8.8879569817e-04 1.5223848262e+00 -2.6368478676e+00 1.5223848262e+00 2.6368478676e+00 
36100 5.2610147381e+00 -8.8263860333e-04 1.5224140172e+00 -2.6368984279e+00 1.5224140172e+00 2.6368984279e+00 
36200 5.2610144943e+00 -8.7651754060e-04 1.5224430054e+00 -2.6369486369e+00 1.5224430054e+00 2.6369486369e+00 
36300 5.2610142542e+00 -8.7043219337e-04 1.5224717920e+00 -2.6369984969e+00 1.5224717920e+00 2.6369984969e+00 
36400 5.2610140176e+00 -8.6438226072e-04 1.5225003783e+00 -2.6370480097e+00 1.5225003783e+00 2.6370480097e+00 
36500 5.2610137845e+00 -8.5836745684e-04 1.5225287653e+00 -2.6370971774e+00 1.5225287653e+00 2.6370971774e+00 
36600 5.2610135549e+00 -8.5238751043e-04 1.5225569542e+00 -2.6371460022e+00 1.5225569542e+00 2.6371460022e+00 
36700 5.2610133287e+00 -8.4644216415e-04 1.5225849463e+00 -2.6371944858e+00 1.5225849463e+00 2.6371944858e+00 
36800 5.2610131058e+00 -8.4053117403e-04 1.5226127426e+00 -2.6372426304e+00 1.5226127426e+00 2.6372426304e+00 
36900 5.2610128863e+00 -8.3465430894e-04 1.5226403443e+00 -2.6372904380e+00 1.5226403443e+00 2.6372904380e+00 
37000 5.2610126700e+00 -8.2881134995e-04 1.5226677525e+00 -2.6373379104e+00 1.5226677525e+00 2.6373379104e+00 
37100 5.2610124570e+00 -8.2300208989e-04 1.5226949683e+00 -2.6373850496e+00 1.5226949683e+00 2.6373850496e+00 
37200 5.2610122471e+00 -8.1722633270e-04 1.5227219930e+00 -2.6374318576e+00 1.5227219930e+00 2.6374318576e+00 
37300 5.2610120403e+00 -8.1148389297e-04 1.5227488274e+00 -2.6374783363e+00 1.5227488274e+00 2.6374783363e+00 
37400 5.2610118367e+00 -8.0577459535e-04 1.5227754729e+00 -2.6375244875e+00 1.5227754729e+00 2.6375244875e+00 
37500 5.2610116360e+00 -8.0009827408e-04 1.5228019304e+00 -2.6375703133e+00 1.5228019304e+00 2.6375703133e+00 
37600 5.2610114383e+00 -7.9445477247e-04 1.5228282010e+00 -2.6376158154e+00 1.5228282010e+00 2.6376158154e+00 
37700 5.2610112436e+00 -7.8884394235e-04 1.5228542860e+00 -2.6376609958e+00 1.5228542860e+00 2.6376609958e+00 
37800 5.2610110518e+00 -7.8326564366e-04 1.5228801862e+00 -2.6377058564e+00 1.5228801862e+00 2.6377058564e+00 
37900 5.2610108628e+00 -7.7771974389e-04 1.5229059029e+00 -2.6377503989e+00 1.5229059029e+00 2.6377503989e+00 
38000 5.2610106766e+00 -7.7220611767e-04 1.5229314370e+00 -2.6377946254e+00 1.5229314370e+00 2.6377946254e+00 
38100 5.2610104932e+00 -7.6672464630e-04 1.5229567897e+00 -2.6378385375e+00 1.5229567897e+00 2.6378385375e+00 
38200 5.2610103126e+00 -7.6127521728e-04 1.5229819620e+00 -2.6378821372e+00 1.5229819620e+00 2.6378821372e+00 
38300 5.2610101346e+00 -7.5585772388e-04 1.5230069550e+00 -2.6379254263e+00 1.5230069550e+00 2.6379254263e+00 
38400 5.2610099593e+00 -7.5047206475e-04 1.5230317697e+00 -2.6379684067e+00 1.5230317697e+00 2.6379684067e+00 
38500 5.2610097866e+00 -7.4511814347e-04 1.5230564072e+00 -2.6380110801e+00 1.5230564072e+00 2.6380110801e+00 
38600 5.2610096165e+00 -7.3979586819e-04 1.5230808686e+00 -2.6380534484e+00 1.5230808686e+00 2.6380534484e+00 
38700 5.2610094489e+00 -7.3450515119e-04 1.5231051548e+00 -2.6380955134e+00 1.5231051548e+00 2.6380955134e+00 
38800 5.2610092838e+00 -7.2924590855e-04 1.5231292670e+00 -2.6381372769e+00 1.5231292670e+00 2.6381372769e+00 
38900 5.2610091212e+00 -7.2401805979e-04 1.5231532061e+00 -2.6381787407e+00 1.5231532061e+00 2.6381787407e+00 
39000 5.2610089610e+00 -7.1882152749e-04 1.5231769732e+00 -2.6382199066e+00 1.5231769732e+00 2.6382199066e+00 
39100 5.2610088032e+00 -7.1365623698e-04 1.5232005694e+00 -2.6382607764e+00 1.5232005694e+00 2.6382607764e+00 
39200 5.2610086477e+00 -7.0852211599e-04 1.5232239957e+00 -2.6383013518e+00 1.5232239957e+00 2.6383013518e+00 
39300 5.2610084946e+00 -7.0341909437e-04 1.5232472531e+00 -2.6383416348e+00 1.5232472531e+00 2.6383416348e+00 
39400 5.2610083438e+00 -6.9834710376e-04 1.5232703426e+00 -2.6383816270e+00 1.5232703426e+00 2.6383816270e+00 
39500 5.2610081952e+00 -6.9330607732e-04 1.5232932653e+00 -2.6384213303e+00 1.5232932653e+00 2.6384213303e+00 
39600 5.2610080488e+00 -6.8829594947e-04 1.5233160221e+00 -2.6384607463e+00 1.5233160221e+00 2.6384607463e+00 
39700 5.2610079046e+00 -6.8331665558e-04 1.5233386142e+00 -2.6384998770e+00 1.5233386142e+00 2.6384998770e+00 
39800 5.2610077626e+00 -6.7836813177e-04 1.5233610425e+00 -2.6385387239e+00 1.5233610425e+00 2.6385387239e+00 
39900 5.2610076227e+00 -6.7345031462e-04 1.5233833081e+00 -2.6385772890e+00 1.5233833081e+00 2.6385772890e+00 
40000 5.2610074849e+00 -6.6856314101e-04 1.5234054119e+00 -2.6386155740e+00 1.5234054119e+00 2.6386155740e+00 
40100 5.2610073491e+00 -6.6370654783e-04 1.5234273550e+00 -2.6386535805e+00 1.5234273550e+00 2.6386535805e+00 
40200 5.2610072154e+00 -6.5888047183e-04 1.5234491384e+00 -2.6386913105e+00 1.5234491384e+00 2.6386913105e+00 
40300 5.2610070837e+00 -6.5408484940e-04 1.5234707631e+00 -2.6387287655e+00 1.5234707631e+00 2.6387287655e+00 
40400 5.2610069539e+00 -6.4931961639e-04 1.5234922301e+00 -2.6387659474e+00 1.5234922301e+00 2.6387659474e+00 
40500 5.2610068261e+00 -6.4458470795e-04 1.5235135404e+00 -2.6388028579e+00 1.5235135404e+00 2.6388028579e+00 
40600 5.2610067002e+00 -6.3988005836e-04 1.5235346949e+00 -2.6388394987e+00 1.5235346949e+00 2.6388394987e+00 
40700 5.2610065762e+00 -6.3520560089e-04 1.5235556948e+00 -2.6388758716e+00 1.5235556948e+00 2.6388758716e+00 
40800 5.2610064541e+00 -6.3056126763e-04 1.5235765411e+00 -2.6389119783e+00 1.5235765411e+00 2.6389119783e+00 
40900 5.2610063338e+00 -6.2594698940e-04 1.5235972346e+00 -2.6389478205e+00 1.5235972346e+00 2.6389478205e+00 
41000 5.2610062152e+00 -6.2136269561e-04 1.5236177763e+00 -2.6389834000e+00 1.5236177763e+00 2.6389834000e+00 
41100 5.2610060985e+00 -6.1680831411e-04 1.5236381674e+00 -2.6390187183e+00 1.5236381674e+00 2.6390187183e+00 
41200 5.2610059835e+00 -6.1228377119e-04 1.5236584088e+00 -2.6390537774e+00 1.5236584088e+00 2.6390537774e+00 
41300 5.2610058702e+00 -6.0778899136e-04 1.5236785014e+00 -2.6390885788e+00 1.5236785014e+00 2.6390885788e+00 
41400 5.2610057586e+00 -6.0332389737e-04 1.5236984462e+00 -2.6391231242e+00 1.5236984462e+00 2.6391231242e+00 
41500 5.2610056487e+00 -5.9888841006e-04 1.5237182443e+00 -2.6391574155e+00 1.5237182443e+00 2.6391574155e+00 
41600 5.2610055405e+00 -5.9448244835e-04 1.5237378965e+00 -2.6391914542e+00 1.5237378965e+00 2.6391914542e+00 
41700 5.2610054338e+00 -5.9010592913e-04 1.5237574039e+00 -2.6392252420e+00 1.5237574039e+00 2.6392252420e+00 
41800 5.2610053288e+00 -5.8575876723e-04 1.5237767675e+00 -2.6392587806e+00 1.5237767675e+00 2.6392587806e+00 
41900 5.2610052254e+00 -5.8144087540e-04 1.5237959881e+00 -2.6392920718e+00 1.5237959881e+00 2.6392920718e+00 
42000 5.2610051234e+00 -5.7715216421e-04 1.5238150669e+00 -2.6393251172e+00 1.5238150669e+00 2.6393251172e+00 
42100 5.2610050231e+00 -5.7289254207e-04 1.5238340046e+00 -2.6393579183e+00 1.5238340046e+00 2.6393579183e+00 
42200 5.2610049242e+00 -5.6866191519e-04 1.5238528024e+00 -2.6393904770e+00 1.5238528024e+00 2.6393904770e+00 
42300 5.2610048268e+00 -5.6446018755e-04 1.5238714611e+00 -2.6394227949e+00 1.5238714611e+00 2.6394227949e+00 
42400 5.2610047309e+00 -5.6028726092e-04 1.5238899818e+00 -2.6394548736e+00 1.5238899818e+00 2.6394548736e+00 
42500 5.2610046364e+00 -5.5614303479e-04 1.5239083653e+00 -2.6394867147e+00 1.5239083653e+00 2.6394867147e+00 
42600 5.2610045433e+00 -5.5202740645e-04 1.5239266126e+00 -2.6395183200e+00 1.5239266126e+00 2.6395183200e+00 
42700 5.2610044517e+00 -5.4794027092e-04 1.5239447246e+00 -2.6395496909e+00 1.5239447246e+00 2.6395496909e+00 
42800 5.2610043614e+00 -5.4388152101e-04 1.5239627023e+00 -2.6395808293e+00 1.5239627023e+00 2.6395808293e+00 
42900 5.2610042725e+00 -5.3985104730e-04 1.5239805467e+00 -2.6396117366e+00 1.5239805467e+00 2.6396117366e+00 
43000 5.2610041849e+00 -5.3584873819e-04 1.5239982586e+00 -2.6396424145e+00 1.5239982586e+00 2.6396424145e+00 
43100 5.2610040986e+00 -5.3187447989e-04 1.5240158390e+00 -2.6396728647e+00 1.5240158390e+00 2.6396728647e+00 
43200 5.2610040136e+00 -5.2792815646e-04 1.5240332888e+00 -2.6397030886e+00 1.5240332888e+00 2.6397030886e+00 
43300 5.2610039299e+00 -5.2400964985e-04 1.5240506089e+00 -2.6397330880e+00 1.5240506089e+00 2.6397330880e+00 
43400 5.2610038474e+00 -5.2011883992e-04 1.5240678003e+00 -2.6397628643e+00 1.5240678003e+00 2.6397628643e+00 
43500 5.2610037662e+00 -5.1625560447e-04 1.5240848638e+00 -2.6397924192e+00 1.5240848638e+00 2.6397924192e+00 
43600 5.2610036863e+00 -5.1241981931e-04 1.5241018005e+00 -2.6398217543e+00 1.5241018005e+00 2.6398217543e+00 
43700 5.2610036075e+00 -5.0861135827e-04 1.5241186110e+00 -2.6398508711e+00 1.5241186110e+00 2.6398508711e+00 
43800 5.2610035299e+00 -5.0483009328e-04 1.5241352965e+00 -2.6398797711e+00 1.5241352965e+00 2.6398797711e+00 
43900 5.2610034535e+00 -5.0107589436e-04 1.5241518577e+00 -2.6399084560e+00 1.5241518577e+00 2.6399084560e+00 
44000 5.2610033782e+00 -4.9734862976e-04 1.5241682956e+00 -2.6399369273e+00 1.5241682956e+00 2.6399369273e+00 
44100 5.2610033040e+00 -4.9364816591e-04 1.5241846110e+00 -2.6399651865e+00 1.5241846110e+00 2.6399651865e+00 
44200 5.2610032310e+00 -4.8997436756e-04 1.5242008049e+00 -2.6399932351e+00 1.5242008049e+00 2.6399932351e+00 
44300 5.2610031591e+00 -4.8632709779e-04 1.5242168781e+00 -2.6400210746e+00 1.5242168781e+00 2.6400210746e+00 
44400 5.2610030882e+00 -4.8270621809e-04 1.5242328315e+00 -2.6400487067e+00 1.5242328315e+00 2.6400487067e+00 
44500 5.2610030185e+00 -4.7911158837e-04 1.5242486659e+00 -2.6400761327e+00 1.5242486659e+00 2.6400761327e+00 
44600 5.2610029497e+00 -4.7554306712e-04 1.5242643823e+00 -2.6401033542e+00 1.5242643823e+00 2.6401033542e+00 
44700 5.2610028820e+00 -4.7200051137e-04 1.5242799814e+00 -2.6401303727e+00 1.5242799814e+00 2.6401303727e+00 
44800 5.2610028154e+00 -4.6848377679e-04 1.5242954641e+00 -2.6401571896e+00 1.5242954641e+00 2.6401571896e+00 
44900 5.2610027497e+00 -4.6499271778e-04 1.5243108314e+00 -2.6401838065e+00 1.5243108314e+00 2.6401838065e+00 
45000 5.2610026850e+00 -4.6152718749e-04 1.5243260840e+00 -2.6402102247e+00 1.5243260840e+00 2.6402102247e+00 
45100 5.2610026213e+00 -4.5808703792e-04 1.5243412227e+00 -2.6402364458e+00 1.5243412227e+00 2.6402364458e+00 
45200 5.2610025586e+00 -4.5467211995e-04 1.5243562485e+00 -2.6402624712e+00 1.5243562485e+00 2.6402624712e+00 
45300 5.2610024968e+00 -4.5128228344e-04 1.5243711621e+00 -2.6402883023e+00 1.5243711621e+00 2.6402883023e+00 
45400 5.2610024359e+00 -4.4791737727e-04 1.5243859644e+00 -2.6403139406e+00 1.5243859644e+00 2.6403139406e+00 
45500 5.2610023760e+00 -4.4457724940e-04 1.5244006561e+00 -2.6403393875e+00 1.5244006561e+00 2.6403393875e+00 
45600 5.2610023169e+00 -4.4126174698e-04 1.5244152382e+00 -2.6403646443e+00 1.5244152382e+00 2.6403646443e+00 
45700 5.2610022588e+00 -4.3797071634e-04 1.5244297113e+00 -2.6403897126e+00 1.5244297113e+00 2.6403897126e+00 
45800 5.2610022015e+00 -4.3470400312e-04 1.5244440764e+00 -2.6404145937e+00 1.5244440764e+00 2.6404145937e+00 
45900 5.2610021451e+00 -4.3146145232e-04 1.5244583342e+00 -2.6404392889e+00 1.5244583342e+00 2.6404392889e+00 
46000 5.2610020896e+00 -4.2824290832e-04 1.5244724856e+00 -2.6404637997e+00 1.5244724856e+00 2.6404637997e+00 
46100 5.2610020349e+00 -4.2504821500e-04 1.5244865312e+00 -2.6404881275e+00 1.5244865312e+00 2.6404881275e+00 
46200 5.2610019810e+00 -4.2187721577e-04 1.5245004719e+00 -2.6405122735e+00 1.5245004719e+00 2.6405122735e+00 
46300 5.2610019279e+00 -4.1872975363e-04 1.5245143085e+00 -2.6405362392e+00 1.5245143085e+00 2.6405362392e+00 
46400 5.2610018756e+00 -4.1560567125e-04 1.5245280418e+00 -2.6405600259e+00 1.5245280418e+00 2.6405600259e+00 
46500 5.2610018241e+00 -4.1250481099e-04 1.5245416724e+00 -2.6405836349e+00 1.5245416724e+00 2.6405836349e+00 
46600 5.2610017734e+00 -4.0942701503e-04 1.5245552012e+00 -2.6406070675e+00 1.5245552012e+00 2.6406070675e+00 
46700 5.2610017235e+00 -4.0637212533e-04 1.5245686290e+00 -2.6406303251e+00 1.5245686290e+00 2.6406303251e+00 
46800 5.2610016743e+00 -4.0333998378e-04 1.5245819565e+00 -2.6406534089e+00 1.5245819565e+00 2.6406534089e+00 
46900 5.2610016259e+00 -4.0033043219e-04 1.5245951844e+00 -2.6406763203e+00 1.5245951844e+00 2.6406763203e+00 
47000 5.2610015782e+00 -3.9734331239e-04 1.5246083135e+00 -2.6406990606e+00 1.5246083135e+00 2.6406990606e+00 
47100 5.2610015312e+00 -3.9437846622e-04 1.5246213445e+00 -2.6407216310e+00 1.5246213445e+00 2.6407216310e+00 
47200 5.2610014849e+00 -3.9143573566e-04 1.5246342782e+00 -2.6407440327e+00 1.5246342782e+00 2.6407440327e+00 
47300 5.2610014393e+00 -3.8851496283e-04 1.5246471152e+00 -2.6407662672e+00 1.5246471152e+00 2.6407662672e+00 
47400 5.2610013944e+00 -3.8561599004e-04 1.5246598564e+00 -2.6407883355e+00 1.5246598564e+00 2.6407883355e+00 
47500 5.2610013502e+00 -3.8273865985e-04 1.5246725024e+00 -2.6408102390e+00 1.5246725024e+00 2.6408102390e+00 
47600 5.2610013067e+00 -3.7988281514e-04 1.5246850539e+00 -2.6408319789e+00 1.5246850539e+00 2.6408319789e+00 
47700 5.2610012638e+00 -3.7704829908e-04 1.5246975117e+00 -2.6408535564e+00 1.5246975117e+00 2.6408535564e+00 
47800 5.2610012216e+00 -3.7423495527e-04 1.5247098764e+00 -2.6408749727e+00 1.5247098764e+00 2.6408749727e+00 
47900 5.2610011800e+00 -3.7144262772e-04 1.5247221487e+00 -2.6408962290e+00 1.5247221487e+00 2.6408962290e+00 
48000 5.2610011390e+00 -3.6867116088e-04 1.5247343294e+00 -2.6409173266e+00 1.5247343294e+00 2.6409173266e+00 
48100 5.2610010987e+00 -3.6592039973e-04 1.5247464191e+00 -2.6409382665e+00 1.5247464191e+00 2.6409382665e+00 
48200 5.2610010589e+00 -3.6319018979e-04 1.5247584185e+00 -2.6409590501e+00 1.5247584185e+00 2.6409590501e+00 
48300 5.2610010198e+00 -3.6048037715e-04 1.5247703283e+00 -2.6409796784e+00 1.5247703283e+00 2.6409796784e+00 
48400 5.2610009813e+00 -3.5779080852e-04 1.5247821491e+00 -2.6410001527e+00 1.5247821491e+00 2.6410001527e+00 
48500 5.2610009433e+00 -3.5512133125e-04 1.5247938816e+00 -2.6410204741e+00 1.5247938816e+00 2.6410204741e+00 
48600 5.2610009059e+00 -3.5247179336e-04 1.5248055265e+00 -2.6410406436e+00 1.5248055265e+00 2.6410406436e+00 
48700 5.2610008691e+00 -3.4984204362e-04 1.5248170845e+00 -2.6410606626e+00 1.5248170845e+00 2.6410606626e+00 
48800 5.2610008329e+00 -3.4723193148e-04 1.5248285561e+00 -2.6410805320e+00 1.5248285561e+00 2.6410805320e+00 
48900 5.2610007972e+00 -3.4464130720e-04 1.5248399421e+00 -2.6411002530e+00 1.5248399421e+00 2.6411002530e+00 
49000 5.2610007620e+00 -3.4207002182e-04 1.5248512430e+00 -2.6411198268e+00 1.5248512430e+00 2.6411198268e+00 
49100 5.2610007274e+00 -3.3951792719e-04 1.5248624595e+00 -2.6411392544e+00 1.5248624595e+00 2.6411392544e+00 
49200 5.2610006933e+00 -3.3698487602e-04 1.5248735922e+00 -2.6411585369e+00 1.5248735922e+00 2.6411585369e+00 
49300 5.2610006597e+00 -3.3447072187e-04 1.5248846419e+00 -2.6411776754e+00 1.5248846419e+00 2.6411776754e+00 
49400 5.2610006266e+00 -3.3197531919e-04 1.5248956090e+00 -2.6411966709e+00 1.5248956090e+00 2.6411966709e+00 
49500 5.2610005940e+00 -3.2949852333e-04 1.5249064941e+00 -2.6412155247e+00 1.5249064941e+00 2.6412155247e+00 
49600 5.2610005619e+00 -3.2704019058e-04 1.5249172981e+00 -2.6412342376e+00 1.5249172981e+00 2.6412342376e+00 
49700 5.2610005303e+00 -3.2460017815e-04 1.5249280213e+00 -2.6412528107e+00 1.5249280213e+00 2.6412528107e+00 
49800 5.2610004992e+00 -3.2217834423e-04 1.5249386644e+00 -2.6412712452e+00 1.5249386644e+00 2.6412712452e+00 
49900 5.2610004686e+00 -3.1977454797e-04 1.5249492281e+00 -2.6412895420e+00 1.5249492281e+00 2.6412895420e+00 
50000 5.2610004384e+00 -3.1738864951e-04 1.5249597129e+00 -2.6413077022e+00 1.5249597129e+00 2.6413077022e+00 
50100 5.2610004087e+00 -3.1502050998e-04 1.5249701193e+00 -2.6413257267e+00 1.5249701193e+00 2.6413257267e+00 
50200 5.2610003794e+00 -3.1266999155e-04 1.5249804481e+00 -2.6413436166e+00 1.5249804481e+00 2.6413436166e+00 
50300 5.2610003506e+00 -3.1033695737e-04 1.5249906997e+00 -2.6413613729e+00 1.5249906997e+00 2.6413613729e+00 
50400 5.2610003222e+00 -3.0802127165e-04 1.5250008748e+00 -2.6413789967e+00 1.5250008748e+00 2.6413789967e+00 
50500 5.2610002942e+00 -3.0572279964e-04 1.5250109738e+00 -2.6413964887e+00 1.5250109738e+00 2.6413964887e+00 
50600 5.2610002667e+00 -3.0344140761e-04 1.5250209975e+00 -2.6414138502e+00 1.5250209975e+00 2.6414138502e+00 
50700 5.2610002396e+00 -3.0117696292e-04 1.5250309462e+00 -2.6414310820e+00 1.5250309462e+00 2.6414310820e+00 
50800 5.2610002129e+00 -2.9892933397e-04 1.5250408207e+00 -2.6414481851e+00 1.5250408207e+00 2.6414481851e+00 
50900 5.2610001866e+00 -2.9669839021e-04 1.5250506214e+00 -2.6414651604e+00 1.5250506214e+00 2.6414651604e+00 
51000 5.2610001607e+00 -2.9448400217e-04 1.5250603489e+00 -2.6414820089e+00 1.5250603489e+00 2.6414820089e+00 
51100 5.2610001352e+00 -2.9228604146e-04 1.5250700037e+00 -2.6414987316e+00 1.5250700037e+00 2.6414987316e+00 
51200 5.2610001101e+00 -2.9010438075e-04 1.5250795865e+00 -2.6415153293e+00 1.5250795865e+00 2.6415153293e+00 
51300 5.2610000853e+00 -2.8793889377e-04 1.5250890976e+00 -2.6415318031e+00 1.5250890976e+00 2.6415318031e+00 
51400 5.2610000610e+00 -2.8578945536e-04 1.5250985377e+00 -2.6415481538e+00 1.5250985377e+00 2.6415481538e+00 
51500 5.2610000370e+00 -2.8365594139e-04 1.5251079072e+00 -2.6415643823e+00 1.5251079072e+00 2.6415643823e+00 
51600 5.2610000134e+00 -2.8153822883e-04 1.5251172068e+00 -2.6415804896e+00 1.5251172068e+00 2.6415804896e+00 
51700 5.2609999901e+00 -2.7943619571e-04 1.5251264368e+00 -2.6415964766e+00 1.5251264368e+00 2.6415964766e+00 
51800 5.2609999672e+00 -2.7734972113e-04 1.5251355979e+00 -2.6416123440e+00 1.5251355979e+00 2.6416123440e+00 
51900 5.2609999446e+00 -2.7527868526e-04 1.5251446906e+00 -2.6416280929e+00 1.5251446906e+00 2.6416280929e+00 
52000 5.2609999224e+00 -2.7322296931e-04 1.5251537152e+00 -2.6416437242e+00 1.5251537152e+00 2.6416437242e+00 
52100 5.2609999005e+00 -2.7118245558e-04 1.5251626725e+00 -2.6416592385e+00 1.5251626725e+00 2.6416592385e+00 
52200 5.2609998790e+00 -2.6915702740e-04 1.5251715628e+00 -2.6416746370e+00 1.5251715628e+00 2.6416746370e+00 
52300 5.2609998578e+00 -2.6714656914e-04 1.5251803866e+00 -2.6416899203e+00 1.5251803866e+00 2.6416899203e+00 
52400 5.2609998369e+00 -2.6515096623e-04 1.5251891445e+00 -2.6417050894e+00 1.5251891445e+00 2.6417050894e+00 
52500 5.2609998163e+00 -2.6317010514e-04 1.5251978369e+00 -2.6417201451e+00 1.5251978369e+00 2.6417201451e+00 
52600 5.2609997960e+00 -2.6120387335e-04 1.5252064643e+00 -2.6417350882e+00 1.5252064643e+00 2.6417350882e+00 
52700 5.2609997761e+00 -2.5925215936e-04 1.5252150272e+00 -2.6417499196e+00 1.5252150272e+00 2.6417499196e+00 
52800 5.2609997564e+00 -2.5731485271e-04 1.5252235261e+00 -2.6417646401e+00 1.5252235261e+00 2.6417646401e+00 
52900 5.2609997371e+00 -2.5539184393e-04 1.5252319614e+00 -2.6417792505e+00 1.5252319614e+00 2.6417792505e+00 
53000 5.2609997180e+00 -2.5348302453e-04 1.5252403337e+00 -2.6417937516e+00 1.5252403337e+00 2.6417937516e+00 
53100 5.2609996993e+00 -2.5158828706e-04 1.5252486433e+00 -2.6418081443e+00 1.5252486433e+00 2.6418081443e+00 
53200 5.2609996808e+00 -2.4970752500e-04 1.5252568907e+00 -2.6418224293e+00 1.5252568907e+00 2.6418224293e+00 
53300 5.2609996626e+00 -2.4784063283e-04 1.5252650765e+00 -2.6418366075e+00 1.5252650765e+00 2.6418366075e+00 
53400 5.2609996447e+00 -2.4598750600e-04 1.5252732010e+00 -2.6418506796e+00 1.5252732010e+00 2.6418506796e+00 
53500 5.2609996270e+00 -2.4414804089e-04 1.5252812647e+00 -2.6418646463e+00 1.5252812647e+00 2.6418646463e+00 
53600 5.2609996096e+00 -2.4232213485e-04 1.5252892681e+00 -2.6418785086e+00 1.5252892681e+00 2.6418785086e+00 
53700 5.2609995925e+00 -2.4050968614e-04 1.5252972116e+00 -2.6418922671e+00 1.5252972116e+00 2.6418922671e+00 
53800 5.2609995757e+00 -2.3871059397e-04 1.5253050956e+00 -2.6419059227e+00 1.5253050956e+00 2.6419059227e+00 
53900 5.2609995591e+00 -2.3692475846e-04 1.5253129207e+00 -2.6419194760e+00 1.5253129207e+00 2.6419194760e+00 
54000 5.2609995427e+00 -2.3515208062e-04 1.5253206871e+00 -2.6419329279e+00 1.5253206871e+00 2.6419329279e+00 
54100 5.2609995266e+00 -2.3339246236e-04 1.5253283954e+00 -2.6419462790e+00 1.5253283954e+00 2.6419462790e+00 
54200 5.2609995108e+00 -2.3164580649e-04 1.5253360460e+00 -2.6419595302e+00 1.5253360460e+00 2.6419595302e+00 
54300 5.2609994952e+00 -2.2991201669e-04 1.5253436392e+00 -2.6419726822e+00 1.5253436392e+00 2.6419726822e+00 
54400 5.2609994798e+00 -2.2819099748e-04 1.5253511756e+00 -2.6419857356e+00 1.5253511756e+00 2.6419857356e+00 
54500 5.2609994647e+00 -2.2648265426e-04 1.5253586556e+00 -2.6419986913e+00 1.5253586556e+00 2.6419986913e+00 
54600 5.2609994498e+00 -2.2478689325e-04 1.5253660795e+00 -2.6420115499e+00 1.5253660795e+00 2.6420115499e+00 
54700 5.2609994351e+00 -2.2310362154e-04 1.5253734478e+00 -2.6420243121e+00 1.5253734478e+00 2.6420243121e+00 
54800 5.2609994206e+00 -2.2143274699e-04 1.5253807609e+00 -2.6420369788e+00 1.5253807609e+00 2.6420369788e+00 
54900 5.2609994064e+00 -2.1977417832e-04 1.5253880192e+00 -2.6420495505e+00 1.5253880192e+00 2.6420495505e+00 
55000 5.2609993924e+00 -2.1812782501e-04 1.5253952231e+00 -2.6420620280e+00 1.5253952231e+00 2.6420620280e+00 
55100 5.2609993786e+00 -2.1649359735e-04 1.5254023730e+00 -2.6420744119e+00 1.5254023730e+00 2.6420744119e+00 
55200 5.2609993650e+00 -2.1487140641e-04 1.5254094692e+00 -2.6420867031e+00 1.5254094692e+00 2.6420867031e+00 
55300 5.2609993516e+00 -2.1326116403e-04 1.5254165123e+00 -2.6420989020e+00 1.5254165123e+00 2.6420989020e+00 
55400 5.2609993385e+00 -2.1166278279e-04 1.5254235026e+00 -2.6421110095e+00 1.5254235026e+00 2.6421110095e+00 
55500 5.2609993255e+00 -2.1007617604e-04 1.5254304404e+00 -2.6421230262e+00 1.5254304404e+00 2.6421230262e+00 
55600 5.2609993127e+00 -2.0850125786e-04 1.5254373262e+00 -2.6421349528e+00 1.5254373262e+00 2.6421349528e+00 
55700 5.2609993001e+00 -2.0693794306e-04 1.5254441604e+00 -2.6421467899e+00 1.5254441604e+00 2.6421467899e+00 
55800 5.2609992877e+00 -2.0538614716e-04 1.5254509433e+00 -2.6421585382e+00 1.5254509433e+00 2.6421585382e+00 
55900 5.2609992755e+00 -2.0384578639e-04 1.5254576752e+00 -2.6421701983e+00 1.5254576752e+00 2.6421701983e+00 
56000 5.2609992635e+00 -2.0231677768e-04 1.5254643567e+00 -2.6421817710e+00 1.5254643567e+00 2.6421817710e+00 
56100 5.2609992517e+00 -2.0079903867e-04 1.5254709880e+00 -2.6421932568e+00 1.5254709880e+00 2.6421932568e+00 
56200 5.2609992400e+00 -1.9929248763e-04 1.5254775696e+00 -2.6422046563e+00 1.5254775696e+00 2.6422046563e+00 
56300 5.2609992286e+00 -1.9779704354e-04 1.5254841017e+00 -2.6422159703e+00 1.5254841017e+00 2.6422159703e+00 
56400 5.2609992173e+00 -1.9631262603e-04 1.5254905848e+00 -2.6422271994e+00 1.5254905848e+00 2.6422271994e+00 
56500 5.2609992061e+00 -1.9483915537e-04 1.5254970192e+00 -2.6422383441e+00 1.5254970192e+00 2.6422383441e+00 
56600 5.2609991952e+00 -1.9337655248e-04 1.5255034053e+00 -2.6422494051e+00 1.5255034053e+00 2.6422494051e+00 
56700 5.2609991844e+00 -1.9192473892e-04 1.5255097435e+00 -2.6422603831e+00 1.5255097435e+00 2.6422603831e+00 
56800 5.2609991738e+00 -1.9048363687e-04 1.5255160340e+00 -2.6422712786e+00 1.5255160340e+00 2.6422712786e+00 
56900 5.2609991633e+00 -1.8905316911e-04 1.5255222772e+00 -2.6422820922e+00 1.5255222772e+00 2.6422820922e+00 
57000 5.2609991530e+00 -1.8763325904e-04 1.5255284736e+00 -2.6422928246e+00 1.5255284736e+00 2.6422928246e+00 
57100 5.2609991429e+00 -1.8622383066e-04 1.5255346234e+00 -2.6423034764e+00 1.5255346234e+00 2.6423034764e+00 
57200 5.2609991329e+00 -1.8482480856e-04 1.5255407269e+00 -2.6423140480e+00 1.5255407269e+00 2.6423140480e+00 
57300 5.2609991231e+00 -1.8343611791e-04 1.5255467846e+00 -2.6423245403e+00 1.5255467846e+00 2.6423245403e+00 
57400 5.2609991134e+00 -1.8205768444e-04 1.5255527968e+00 -2.6423349536e+00 1.5255527968e+00 2.6423349536e+00 
57500 5.2609991038e+00 -1.8068943449e-04 1.5255587637e+00 -2.6423452887e+00 1.5255587637e+00 2.6423452887e+00 
57600 5.2609990945e+00 -1.7933129490e-04 1.5255646858e+00 -2.6423555460e+00 1.5255646858e+00 2.6423555460e+00 
57700 5.2609990852e+00 -1.7798319312e-04 1.5255705633e+00 -2.6423657262e+00 1.5255705633e+00 2.6423657262e+00 
57800 5.2609990761e+00 -1.7664505710e-04 1.5255763967e+00 -2.6423758298e+00 1.5255763967e+00 2.6423758298e+00 
57900 5.2609990671e+00 -1.7531681535e-04 1.5255821861e+00 -2.6423858575e+00 1.5255821861e+00 2.6423858575e+00 
58000 5.2609990583e+00 -1.7399839690e-04 1.5255879320e+00 -2.6423958097e+00 1.5255879320e+00 2.6423958097e+00 
58100 5.2609990496e+00 -1.7268973132e-04 1.5255936347e+00 -2.6424056870e+00 1.5255936347e+00 2.6424056870e+00 
58200 5.2609990411e+00 -1.7139074869e-04 1.5255992944e+00 -2.6424154900e+00 1.5255992944e+00 2.6424154900e+00 
58300 5.2609990326e+00 -1.7010137958e-04 1.5256049116e+00 -2.6424252192e+00 1.5256049116e+00 2.6424252192e+00 
58400 5.2609990243e+00 -1.6882155510e-04 1.5256104865e+00 -2.6424348752e+00 1.5256104865e+00 2.6424348752e+00 
58500 5.2609990162e+00 -1.6755120684e-04 1.5256160194e+00 -2.6424444585e+00 1.5256160194e+00 2.6424444585e+00 
58600 5.2609990081e+00 -1.6629026688e-04 1.5256215107e+00 -2.6424539696e+00 1.5256215107e+00 2.6424539696e+00 
58700 5.2609990002e+00 -1.6503866779e-04 1.5256269606e+00 -2.6424634092e+00 1.5256269606e+00 2.6424634092e+00 
58800 5.2609989924e+00 -1.6379634263e-04 1.5256323695e+00 -2.6424727776e+00 1.5256323695e+00 2.6424727776e+00 
58900 5.2609989847e+00 -1.6256322492e-04 1.5256377376e+00 -2.6424820755e+00 1.5256377376e+00 2.6424820755e+00 
59000 5.2609989772e+00 -1.6133924866e-04 1.5256430654e+00 -2.6424913034e+00 1.5256430654e+00 2.6424913034e+00 
59100 5.2609989697e+00 -1.6012434831e-04 1.5256483529e+00 -2.6425004618e+00 1.5256483529e+00 2.6425004618e+00 
59200 5.2609989624e+00 -1.5891845880e-04 1.5256536007e+00 -2.6425095511e+00 1.5256536007e+00 2.6425095511e+00 
59300 5.2609989552e+00 -1.5772151550e-04 1.5256588089e+00 -2.6425185720e+00 1.5256588089e+00 2.6425185720e+00 
59400 5.2609989481e+00 -1.5653345425e-04 1.5256639779e+00 -2.6425275249e+00 1.5256639779e+00 2.6425275249e+00 
59500 5.2609989411e+00 -1.5535421131e-04 1.5256691079e+00 -2.6425364104e+00 1.5256691079e+00 2.6425364104e+00 
59600 5.2609989342e+00 -1.5418372340e-04 1.5256741992e+00 -2.6425452289e+00 1.5256741992e+00 2.6425452289e+00 
59700 5.2609989274e+00 -1.5302192767e-04 1.5256792522e+00 -2.6425539809e+00 1.5256792522e+00 2.6425539809e+00 
59800 5.2609989207e+00 -1.5186876169e-04 1.5256842671e+00 -2.6425626669e+00 1.5256842671e+00 2.6425626669e+00 
59900 5.2609989141e+00 -1.5072416349e-04 1.5256892442e+00 -2.6425712874e+00 1.5256892442e+00 2.6425712874e+00 
60000 5.2609989076e+00 -1.4958807149e-04 1.5256941837e+00 -2.6425798430e+00 1.5256941837e+00 2.6425798430e+00 
60100 5.2609989012e+00 -1.4846042455e-04 1.5256990860e+00 -2.6425883340e+00 1.5256990860e+00 2.6425883340e+00 
60200 5.2609988950e+00 -1.4734116192e-04 1.5257039513e+00 -2.6425967610e+00 1.5257039513e+00 2.6425967610e+00 
60300 5.2609988888e+00 -1.4623022330e-04 1.5257087800e+00 -2.6426051244e+00 1.5257087800e+00 2.6426051244e+00 
60400 5.2609988827e+00 -1.4512754878e-04 1.5257135722e+00 -2.6426134248e+00 1.5257135722e+00 2.6426134248e+00 
60500 5.2609988767e+00 -1.4403307884e-04 1.5257183282e+00 -2.6426216625e+00 1.5257183282e+00 2.6426216625e+00 
60600 5.2609988708e+00 -1.4294675438e-04 1.5257230484e+00 -2.6426298381e+00 1.5257230484e+00 2.6426298381e+00 
60700 5.2609988650e+00 -1.4186851669e-04 1.5257277330e+00 -2.6426379520e+00 1.5257277330e+00 2.6426379520e+00 
60800 5.2609988592e+00 -1.4079830746e-04 1.5257323822e+00 -2.6426460047e+00 1.5257323822e+00 2.6426460047e+00 
60900 5.2609988536e+00 -1.3973606877e-04 1.5257369963e+00 -2.6426539966e+00 1.5257369963e+00 2.6426539966e+00 
61000 5.2609988481e+00 -1.3868174308e-04 1.5257415756e+00 -2.6426619282e+00 1.5257415756e+00 2.6426619282e+00 
61100 5.2609988426e+00 -1.3763527325e-04 1.5257461203e+00 -2.6426697999e+00 1.5257461203e+00 2.6426697999e+00 
61200 5.2609988372e+00 -1.3659660250e-04 1.5257506308e+00 -2.6426776122e+00 1.5257506308e+00 2.6426776122e+00 
61300 5.2609988319e+00 -1.3556567446e-04 1.5257551071e+00 -2.6426853655e+00 1.5257551071e+00 2.6426853655e+00 
61400 5.2609988267e+00 -1.3454243311e-04 1.5257595497e+00 -2.6426930602e+00 1.5257595497e+00 2.6426930602e+00 
61500 5.2609988216e+00 -1.3352682282e-04 1.5257639587e+00 -2.6427006969e+00 1.5257639587e+00 2.6427006969e+00 
61600 5.2609988165e+00 -1.3251878833e-04 1.5257683345e+00 -2.6427082759e+00 1.5257683345e+00 2.6427082759e+00 
61700 5.2609988115e+00 -1.3151827473e-04 1.5257726772e+00 -2.6427157977e+00 1.5257726772e+00 2.6427157977e+00 
61800 5.2609988066e+00 -1.3052522749e-04 1.5257769871e+00 -2.6427232626e+00 1.5257769871e+00 2.6427232626e+00 
61900 5.2609988018e+00 -1.2953959246e-04 1.5257812644e+00 -2.6427306712e+00 1.5257812644e+00 2.6427306712e+00 
62000 5.2609987970e+00 -1.2856131583e-04 1.5257855094e+00 -2.6427380238e+00 1.5257855094e+00 2.6427380238e+00 
62100 5.2609987923e+00 -1.2759034415e-04 1.5257897224e+00 -2.6427453209e+00 1.5257897224e+00 2.6427453209e+00 
62200 5.2609987877e+00 -1.2662662433e-04 1.5257939035e+00 -2.6427525628e+00 1.5257939035e+00 2.6427525628e+00 
62300 5.2609987832e+00 -1.2567010365e-04 1.5257980531e+00 -2.6427597500e+00 1.5257980531e+00 2.6427597500e+00 
62400 5.2609987787e+00 -1.2472072971e-04 1.5258021712e+00 -2.6427668829e+00 1.5258021712e+00 2.6427668829e+00 
62500 5.2609987743e+00 -1.2377845049e-04 1.5258062583e+00 -2.6427739619e+00 1.5258062583e+00 2.6427739619e+00 
62600 5.2609987700e+00 -1.2284321430e-04 1.5258103145e+00 -2.6427809874e+00 1.5258103145e+00 2.6427809874e+00 
62700 5.2609987657e+00 -1.2191496980e-04 1.5258143400e+00 -2.6427879597e+00 1.5258143400e+00 2.6427879597e+00 
62800 5.2609987615e+00 -1.2099366601e-04 1.5258183350e+00 -2.6427948794e+00 1.5258183350e+00 2.6427948794e+00 
62900 5.2609987574e+00 -1.2007925226e-04 1.5258222999e+00 -2.6428017468e+00 1.5258222999e+00 2.6428017468e+00 
63000 5.2609987533e+00 -1.1917167826e-04 1.5258262348e+00 -2.6428085622e+00 1.5258262348e+00 2.6428085622e+00 
63100 5.2609987493e+00 -1.1827089402e-04 1.5258301400e+00 -2.6428153262e+00 1.5258301400e+00 2.6428153262e+00 
63200 5.2609987454e+00 -1.1737684991e-04 1.5258340156e+00 -2.6428220390e+00 1.5258340156e+00 2.6428220390e+00 
63300 5.2609987415e+00 -1.1648949662e-04 1.5258378619e+00 -2.6428287010e+00 1.5258378619e+00 2.6428287010e+00 
63400 5.2609987377e+00 -1.1560878519e-04 1.5258416792e+00 -2.6428353126e+00 1.5258416792e+00 2.6428353126e+00 
63500 5.2609987339e+00 -1.1473466698e-04 1.5258454675e+00 -2.6428418743e+00 1.5258454675e+00 2.6428418743e+00 
63600 5.2609987302e+00 -1.1386709368e-04 1.5258492272e+00 -2.6428483863e+00 1.5258492272e+00 2.6428483863e+00 
63700 5.2609987265e+00 -1.1300601729e-04 1.5258529585e+00 -2.6428548490e+00 1.5258529585e+00 2.6428548490e+00 
63800 5.2609987229e+00 -1.1215139018e-04 1.5258566616e+00 -2.6428612629e+00 1.5258566616e+00 2.6428612629e+00 
63900 5.2609987194e+00 -1.1130316500e-04 1.5258603366e+00 -2.6428676282e+00 1.5258603366e+00 2.6428676282e+00 
64000 5.2609987159e+00 -1.1046129474e-04 1.5258639838e+00 -2.6428739454e+00 1.5258639838e+00 2.6428739454e+00 
64100 5.2609987125e+00 -1.0962573272e-04 1.5258676034e+00 -2.6428802148e+00 1.5258676034e+00 2.6428802148e+00 
64200 5.2609987091e+00 -1.0879643255e-04 1.5258711957e+00 -2.6428864367e+00 1.5258711957e+00 2.6428864367e+00 
64300 5.2609987058e+00 -1.0797334819e-04 1.5258747607e+00 -2.6428926116e+00 1.5258747607e+00 2.6428926116e+00 
64400 5.2609987025e+00 -1.0715643390e-04 1.5258782988e+00 -2.6428987397e+00 1.5258782988e+00 2.6428987397e+00 
64500 5.2609986993e+00 -1.0634564424e-04 1.5258818101e+00 -2.6429048215e+00 1.5258818101e+00 2.6429048215e+00 
64600 5.2609986961e+00 -1.0554093412e-04 1.5258852949e+00 -2.6429108572e+00 1.5258852949e+00 2.6429108572e+00 
64700 5.2609986930e+00 -1.0474225871e-04 1.5258887532e+00 -2.6429168473e+00 1.5258887532e+00 2.6429168473e+00 
64800 5.2609986899e+00 -1.0394957354e-04 1.5258921854e+00 -2.6429227920e+00 1.5258921854e+00 2.6429227920e+00 
64900 5.2609986869e+00 -1.0316283442e-04 1.5258955916e+00 -2.6429286917e+00 1.5258955916e+00 2.6429286917e+00 
65000 5.2609986839e+00 -1.0238199747e-04 1.5258989720e+00 -2.6429345467e+00 1.5258989720e+00 2.6429345467e+00 
65100 5.2609986809e+00 -1.0160701910e-04 1.5259023268e+00 -2.6429403574e+00 1.5259023268e+00 2.6429403574e+00 
65200 5.2609986780e+00 -1.0083785605e-04 1.5259056562e+00 -2.6429461241e+00 1.5259056562e+00 2.6429461241e+00 
65300 5.2609986752e+00 -1.0007446535e-04 1.5259089604e+00 -2.6429518471e+00 1.5259089604e+00 2.6429518471e+00 
65400 5.2609986724e+00 -9.9316804322e-05 1.5259122396e+00 -2.6429575268e+00 1.5259122396e+00 2.6429575268e+00 
65500 5.2609986696e+00 -9.8564830596e-05 1.5259154939e+00 -2.6429631635e+00 1.5259154939e+00 2.6429631635e+00 
65600 5.2609986669e+00 -9.7818502094e-05 1.5259187236e+00 -2.6429687575e+00 1.5259187236e+00 2.6429687575e+00 
65700 5.2609986642e+00 -9.7077777033e-05 1.5259219289e+00 -2.6429743092e+00 1.5259219289e+00 2.6429743092e+00 
65800 5.2609986616e+00 -9.6342613925e-05 1.5259251098e+00 -2.6429798187e+00 1.5259251098e+00 2.6429798187e+00 
65900 5.2609986590e+00 -9.5612971573e-05 1.5259282667e+00 -2.6429852866e+00 1.5259282667e+00 2.6429852866e+00 
66000 5.2609986564e+00 -9.4888809068e-05 1.5259313996e+00 -2.6429907130e+00 1.5259313996e+00 2.6429907130e+00 
66100 5.2609986539e+00 -9.4170085796e-05 1.5259345088e+00 -2.6429960983e+00 1.5259345088e+00 2.6429960983e+00 
66200 5.2609986514e+00 -9.3456761425e-05 1.5259375945e+00 -2.6430014428e+00 1.5259375945e+00 2.6430014428e+00 
66300 5.2609986490e+00 -9.2748795909e-05 1.5259406568e+00 -2.6430067468e+00 1.5259406568e+00 2.6430067468e+00 
66400 5.2609986466e+00 -9.2046149487e-05 1.5259436958e+00 -2.6430120107e+00 1.5259436958e+00 2.6430120107e+00 
66500 5.2609986442e+00 -9.1348782683e-05 1.5259467119e+00 -2.6430172346e+00 1.5259467119e+00 2.6430172346e+00 
66600 5.2609986419e+00 -9.0656656297e-05 1.5259497050e+00 -2.6430224189e+00 1.5259497050e+00 2.6430224189e+00 
66700 5.2609986396e+00 -8.9969731414e-05 1.5259526755e+00 -2.6430275640e+00 1.5259526755e+00 2.6430275640e+00 
66800 5.2609986374e+00 -8.9287969391e-05 1.5259556235e+00 -2.6430326701e+00 1.5259556235e+00 2.6430326701e+00 
66900 5.2609986351e+00 -8.8611331866e-05 1.5259585492e+00 -2.6430377374e+00 1.5259585492e+00 2.6430377374e+00 
67000 5.2609986330e+00 -8.7939780750e-05 1.5259614526e+00 -2.6430427664e+00 1.5259614526e+00 2.6430427664e+00 
67100 5.2609986308e+00 -8.7273278228e-05 1.5259643341e+00 -2.6430477572e+00 1.5259643341e+00 2.6430477572e+00 
67200 5.2609986287e+00 -8.6611786756e-05 1.5259671937e+00 -2.6430527102e+00 1.5259671937e+00 2.6430527102e+00 
67300 5.2609986266e+00 -8.5955269059e-05 1.5259700316e+00 -2.6430576256e+00 1.5259700316e+00 2.6430576256e+00 
67400 5.2609986245e+00 -8.5303688133e-05 1.5259728481e+00 -2.6430625038e+00 1.5259728481e+00 2.6430625038e+00 
67500 5.2609986225e+00 -8.4657007237e-05 1.5259756431e+00 -2.6430673450e+00 1.5259756431e+00 2.6430673450e+00 
67600 5.2609986205e+00 -8.4015189903e-05 1.5259784170e+00 -2.6430721495e+00 1.5259784170e+00 2.6430721495e+00 
67700 5.2609986186e+00 -8.3378199916e-05 1.5259811698e+00 -2.6430769175e+00 1.5259811698e+00 2.6430769175e+00 
67800 5.2609986166e+00 -8.2746001333e-05 1.5259839018e+00 -2.6430816494e+00 1.5259839018e+00 2.6430816494e+00 
67900 5.2609986147e+00 -8.2118558466e-05 1.5259866130e+00 -2.6430863454e+00 1.5259866130e+00 2.6430863454e+00 
68000 5.2609986129e+00 -8.1495835888e-05 1.5259893037e+00 -2.6430910058e+00 1.5259893037e+00 2.6430910058e+00 
68100 5.2609986110e+00 -8.0877798431e-05 1.5259919739e+00 -2.6430956308e+00 1.5259919739e+00 2.6430956308e+00 
68200 5.2609986092e+00 -8.0264411179e-05 1.5259946239e+00 -2.6431002208e+00 1.5259946239e+00 2.6431002208e+00 
68300 5.2609986074e+00 -7.9655639473e-05 1.5259972539e+00 -2.6431047759e+00 1.5259972539e+00 2.6431047759e+00 
68400 5.2609986057e+00 -7.9051448906e-05 1.5259998638e+00 -2.6431092965e+00 1.5259998638e+00 2.6431092965e+00 
68500 5.2609986039e+00 -7.8451805325e-05 1.5260024540e+00 -2.6431137827e+00 1.5260024540e+00 2.6431137827e+00 
68600 5.2609986022e+00 -7.7856674820e-05 1.5260050245e+00 -2.6431182350e+00 1.5260050245e+00 2.6431182350e+00 
68700 5.2609986005e+00 -7.7266023738e-05 1.5260075755e+00 -2.6431226534e+00 1.5260075755e+00 2.6431226534e+00 
68800 5.2609985989e+00 -7.6679818663e-05 1.5260101071e+00 -2.6431270384e+00 1.5260101071e+00 2.6431270384e+00 
68900 5.2609985973e+00 -7.6098026433e-05 1.5260126195e+00 -2.6431313900e+00 1.5260126195e+00 2.6431313900e+00 
69000 5.2609985957e+00 -7.5520614120e-05 1.5260151129e+00 -2.6431357086e+00 1.5260151129e+00 2.6431357086e+00 
69100 5.2609985941e+00 -7.4947549046e-05 1.5260175873e+00 -2.6431399945e+00 1.5260175873e+00 2.6431399945e+00 
69200 5.2609985925e+00 -7.4378798769e-05 1.5260200430e+00 -2.6431442478e+00 1.5260200430e+00 2.6431442478e+00 
69300 5.2609985910e+00 -7.3814331085e-05 1.5260224800e+00 -2.6431484689e+00 1.5260224800e+00 2.6431484689e+00 
69400 5.2609985895e+00 -7.3254114029e-05 1.5260248985e+00 -2.6431526579e+00 1.5260248985e+00 2.6431526579e+00 
69500 5.2609985880e+00 -7.2698115869e-05 1.5260272987e+00 -2.6431568151e+00 1.5260272987e+00 2.6431568151e+00 
69600 5.2609985866e+00 -7.2146305111e-05 1.5260296806e+00 -2.6431609407e+00 1.5260296806e+00 2.6431609407e+00 
69700 5.2609985851e+00 -7.1598650490e-05 1.5260320445e+00 -2.6431650350e+00 1.5260320445e+00 2.6431650350e+00 
69800 5.2609985837e+00 -7.1055120971e-05 1.5260343904e+00 -2.6431690983e+00 1.5260343904e+00 2.6431690983e+00 
69900 5.2609985823e+00 -7.0515685750e-05 1.5260367185e+00 -2.6431731307e+00 1.5260367185e+00 2.6431731307e+00 
70000 5.2609985812e+00 -7.1685950960e-05 1.5260367185e+00 -2.6431731307e+00 1.5260367185e+00 2.6431731307e+00 
70100 5.2609985798e+00 -7.1117437146e-05 1.5260390673e+00 -2.6431771988e+00 1.5260390673e+00 2.6431771988e+00 
70200 5.2609985785e+00 -7.0553968287e-05 1.5260413974e+00 -2.6431812347e+00 1.5260413974e+00 2.6431812347e+00 
70300 5.2609985774e+00 -7.1702031558e-05 1.5260413974e+00 -2.6431812347e+00 1.5260413974e+00 2.6431812347e+00 
70400 5.2609985761e+00 -7.1111205291e-05 1.5260437467e+00 -2.6431853038e+00 1.5260437467e+00 2.6431853038e+00 
70500 5.2609985748e+00 -7.0526222123e-05 1.5260460766e+00 -2.6431893394e+00 1.5260460766e+00 2.6431893394e+00 
70600 5.2609985738e+00 -7.1652861328e-05 1.5260460766e+00 -2.6431893394e+00 1.5260460766e+00 2.6431893394e+00 
70700 5.2609985726e+00 -7.1041997677e-05 1.5260484243e+00 -2.6431934056e+00 1.5260484243e+00 2.6431934056e+00 
70800 5.2609985713e+00 -7.0437646955e-05 1.5260507519e+00 -2.6431974372e+00 1.5260507519e+00 2.6431974372e+00 
70900 5.2609985704e+00 -7.1543416333e-05 1.5260507519e+00 -2.6431974372e+00 1.5260507519e+00 2.6431974372e+00 
71000 5.2609985692e+00 -7.0914460410e-05 1.5260530960e+00 -2.6432014973e+00 1.5260530960e+00 2.6432014973e+00 
71100 5.2609985680e+00 -7.0292580226e-05 1.5260554194e+00 -2.6432055216e+00 1.5260554194e+00 2.6432055216e+00 
71200 5.2609985671e+00 -7.1377850614e-05 1.5260554194e+00 -2.6432055216e+00 1.5260554194e+00 2.6432055216e+00 
71300 5.2609985659e+00 -7.0732476345e-05 1.5260577581e+00 -2.6432095723e+00 1.5260577581e+00 2.6432095723e+00 
71400 5.2609985648e+00 -7.0094652185e-05 1.5260600756e+00 -2.6432135863e+00 1.5260600756e+00 2.6432135863e+00 
71500 5.2609985639e+00 -7.1159647338e-05 1.5260600756e+00 -2.6432135863e+00 1.5260600756e+00 2.6432135863e+00 
71600 5.2609985628e+00 -7.0499308691e-05 1.5260624071e+00 -2.6432176245e+00 1.5260624071e+00 2.6432176245e+00 
71700 5.2609985620e+00 -7.1552208927e-05 1.5260624071e+00 -2.6432176245e+00 1.5260624071e+00 2.6432176245e+00 
71800 5.2609985609e+00 -7.0870360393e-05 1.5260647514e+00 -2.6432216851e+00 1.5260647514e+00 2.6432216851e+00 
71900 5.2609985599e+00 -7.0197033507e-05 1.5260670734e+00 -2.6432257069e+00 1.5260670734e+00 2.6432257069e+00 
72000 5.2609985591e+00 -7.1229938078e-05 1.5260670734e+00 -2.6432257069e+00 1.5260670734e+00 2.6432257069e+00 
72100 5.2609985581e+00 -7.0535844004e-05 1.5260694072e+00 -2.6432297491e+00 1.5260694072e+00 2.6432297491e+00 
72200 5.2609985573e+00 -7.1556723053e-05 1.5260694072e+00 -2.6432297491e+00 1.5260694072e+00 2.6432297491e+00 
72300 5.2609985563e+00 -7.0842737961e-05 1.5260717516e+00 -2.6432338098e+00 1.5260717516e+00 2.6432338098e+00 
72400 5.2609985553e+00 -7.0138039614e-05 1.5260740727e+00 -2.6432378301e+00 1.5260740727e+00 2.6432378301e+00 
72500 5.2609985546e+00 -7.1138888274e-05 1.5260740727e+00 -2.6432378301e+00 1.5260740727e+00 2.6432378301e+00 
72600 5.2609985537e+00 -7.0414886066e-05 1.5260764035e+00 -2.6432418671e+00 1.5260764035e+00 2.6432418671e+00 
72700 5.2609985529e+00 -7.1403613462e-05 1.5260764035e+00 -2.6432418671e+00 1.5260764035e+00 2.6432418671e+00 
72800 5.2609985520e+00 -7.0661101579e-05 1.5260787430e+00 -2.6432459192e+00 1.5260787430e+00 2.6432459192e+00 
72900 5.2609985513e+00 -7.1637724028e-05 1.5260787430e+00 -2.6432459192e+00 1.5260787430e+00 2.6432459192e+00 
73000 5.2609985504e+00 -7.0877441944e-05 1.5260810901e+00 -2.6432499845e+00 1.5260810901e+00 2.6432499845e+00 
73100 5.2609985496e+00 -7.0127479272e-05 1.5260834123e+00 -2.6432540067e+00 1.5260834123e+00 2.6432540067e+00 
73200 5.2609985489e+00 -7.1083816426e-05 1.5260834123e+00 -2.6432540067e+00 1.5260834123e+00 2.6432540067e+00 
73300 5.2609985480e+00 -7.0316508367e-05 1.5260857412e+00 -2.6432580405e+00 1.5260857412e+00 2.6432580405e+00 
73400 5.2609985474e+00 -7.1260490497e-05 1.5260857412e+00 -2.6432580405e+00 1.5260857412e+00 2.6432580405e+00 
73500 5.2609985466e+00 -7.0476548534e-05 1.5260880760e+00 -2.6432620844e+00 1.5260880760e+00 2.6432620844e+00 
73600 5.2609985460e+00 -7.1408158326e-05 1.5260880760e+00 -2.6432620844e+00 1.5260880760e+00 2.6432620844e+00 
73700 5.2609985452e+00 -7.0608256447e-05 1.5260904156e+00 -2.6432661367e+00 1.5260904156e+00 2.6432661367e+00 
73800 5.2609985446e+00 -7.1527458316e-05 1.5260904156e+00 -2.6432661367e+00 1.5260904156e+00 2.6432661367e+00 
73900 5.2609985438e+00 -7.0712239159e-05 1.5260927591e+00 -2.6432701958e+00 1.5260927591e+00 2.6432701958e+00 
74000 5.2609985430e+00 -6.9908500205e-05 1.5260950758e+00 -2.6432742085e+00 1.5260950758e+00 2.6432742085e+00 
74100 5.2609985424e+00 -7.0806908803e-05 1.5260950758e+00 -2.6432742085e+00 1.5260950758e+00 2.6432742085e+00 
74200 5.2609985417e+00 -6.9988170614e-05 1.5260973957e+00 -2.6432782267e+00 1.5260973957e+00 2.6432782267e+00 
74300 5.2609985411e+00 -7.0873867380e-05 1.5260973957e+00 -2.6432782267e+00 1.5260973957e+00 2.6432782267e+00 
74400 5.2609985404e+00 -7.0040790481e-05 1.5260997178e+00 -2.6432822486e+00 1.5260997178e+00 2.6432822486e+00 
74500 5.2609985399e+00 -7.0913761847e-05 1.5260997178e+00 -2.6432822486e+00 1.5260997178e+00 2.6432822486e+00 
74600 5.2609985392e+00 -7.0066983245e-05 1.5261020411e+00 -2.6432862728e+00 1.5261020411e+00 2.6432862728e+00 
74700 5.2609985387e+00 -7.0927209398e-05 1.5261020411e+00 -2.6432862728e+00 1.5261020411e+00 2.6432862728e+00 
74800 5.2609985379e+00 -7.0067346481e-05 1.5261043649e+00 -2.6432902977e+00 1.5261043649e+00 2.6432902977e+00 
74900 5.2609985375e+00 -7.0914804369e-05 1.5261043649e+00 -2.6432902977e+00 1.5261043649e+00 2.6432902977e+00 
75000 5.2609985368e+00 -7.0042458307e-05 1.5261066883e+00 -2.6432943220e+00 1.5261066883e+00 2.6432943220e+00 
75100 5.2609985363e+00 -7.0877124315e-05 1.5261066883e+00 -2.6432943220e+00 1.5261066883e+00 2.6432943220e+00 
75200 5.2609985356e+00 -6.9992882968e-05 1.5261090105e+00 -2.6432983441e+00 1.5261090105e+00 2.6432983441e+00 
75300 5.2609985352e+00 -7.0814735266e-05 1.5261090105e+00 -2.6432983441e+00 1.5261090105e+00 2.6432983441e+00 
75400 5.2609985345e+00 -6.9919175657e-05 1.5261113306e+00 -2.6433023626e+00 1.5261113306e+00 2.6433023626e+00 
75500 5.2609985341e+00 -7.0728196247e-05 1.5261113306e+00 -2.6433023626e+00 1.5261113306e+00 2.6433023626e+00 
75600 5.2609985335e+00 -6.9821886629e-05 1.5261136479e+00 -2.6433063762e+00 1.5261136479e+00 2.6433063762e+00 
75700 5.2609985330e+00 -7.0618063106e-05 1.5261136479e+00 -2.6433063762e+00 1.5261136479e+00 2.6433063762e+00 
75800 5.2609985326e+00 -7.1409795657e-05 1.5261136479e+00 -2.6433063762e+00 1.5261136479e+00 2.6433063762e+00 
75900 5.2609985320e+00 -7.0469822887e-05 1.5261159875e+00 -2.6433104285e+00 1.5261159875e+00 2.6433104285e+00 
76000 5.2609985316e+00 -7.1248898854e-05 1.5261159875e+00 -2.6433104285e+00 1.5261159875e+00 2.6433104285e+00 
76100 5.2609985310e+00 -7.0300129489e-05 1.5261183218e+00 -2.6433144717e+00 1.5261183218e+00 2.6433144717e+00 
76200 5.2609985306e+00 -7.1066501034e-05 1.5261183218e+00 -2.6433144717e+00 1.5261183218e+00 2.6433144717e+00 
76300 5.2609985301e+00 -7.0109414397e-05 1.5261206501e+00 -2.6433185045e+00 1.5261206501e+00 2.6433185045e+00 
76400 5.2609985297e+00 -7.0863048856e-05 1.5261206501e+00 -2.6433185045e+00 1.5261206501e+00 2.6433185045e+00 
76500 5.2609985291e+00 -6.9898128905e-05 1.5261229718e+00 -2.6433225258e+00 1.5261229718e+00 2.6433225258e+00 
76600 5.2609985288e+00 -7.0639009260e-05 1.5261229718e+00 -2.6433225258e+00 1.5261229718e+00 2.6433225258e+00 
76700 5.2609985284e+00 -7.1375492819e-05 1.5261229718e+00 -2.6433225258e+00 1.5261229718e+00 2.6433225258e+00 
76800 5.2609985278e+00 -7.0381138100e-05 1.5261253103e+00 -2.6433265761e+00 1.5261253103e+00 2.6433265761e+00 
76900 5.2609985275e+00 -7.1105064534e-05 1.5261253103e+00 -2.6433265761e+00 1.5261253103e+00 2.6433265761e+00 
77000 5.2609985270e+00 -7.0104666639e-05 1.5261276399e+00 -2.6433306111e+00 1.5261276399e+00 2.6433306111e+00 
77100 5.2609985266e+00 -7.0816003368e-05 1.5261276399e+00 -2.6433306111e+00 1.5261276399e+00 2.6433306111e+00 
77200 5.2609985261e+00 -6.9809990715e-05 1.5261299600e+00 -2.6433346296e+00 1.5261299600e+00 2.6433346296e+00 
77300 5.2609985258e+00 -7.0508726416e-05 1.5261299600e+00 -2.6433346296e+00 1.5261299600e+00 2.6433346296e+00 
77400 5.2609985255e+00 -7.1203142230e-05 1.5261299600e+00 -2.6433346296e+00 1.5261299600e+00 2.6433346296e+00 
77500 5.2609985250e+00 -7.0170960800e-05 1.5261322928e+00 -2.6433386702e+00 1.5261322928e+00 2.6433386702e+00 
77600 5.2609985247e+00 -7.0852989686e-05 1.5261322928e+00 -2.6433386702e+00 1.5261322928e+00 2.6433386702e+00 
77700 5.2609985242e+00 -6.9816869861e-05 1.5261346141e+00 -2.6433426908e+00 1.5261346141e+00 2.6433426908e+00 
77800 5.2609985239e+00 -7.0486495756e-05 1.5261346141e+00 -2.6433426908e+00 1.5261346141e+00 2.6433426908e+00 
77900 5.2609985236e+00 -7.1151899782e-05 1.5261346141e+00 -2.6433426908e+00 1.5261346141e+00 2.6433426908e+00 
78000 5.2609985231e+00 -7.0092038603e-05 1.5261369452e+00 -2.6433467284e+00 1.5261369452e+00 2.6433467284e+00 
78100 5.2609985228e+00 -7.0745253256e-05 1.5261369452e+00 -2.6433467284e+00 1.5261369452e+00 2.6433467284e+00 
78200 5.2609985224e+00 -6.9683017927e-05 1.5261392630e+00 -2.6433507430e+00 1.5261392630e+00 2.6433507430e+00 
78300 5.2609985221e+00 -7.0324030548e-05 1.5261392630e+00 -2.6433507430e+00 1.5261392630e+00 2.6433507430e+00 
78400 5.2609985218e+00 -7.0960919528e-05 1.5261392630e+00 -2.6433507430e+00 1.5261392630e+00 2.6433507430e+00 
78500 5.2609985214e+00 -6.9877257978e-05 1.5261415879e+00 -2.6433547697e+00 1.5261415879e+00 2.6433547697e+00 
78600 5.2609985211e+00 -7.0502167789e-05 1.5261415879e+00 -2.6433547697e+00 1.5261415879e+00 2.6433547697e+00 
78700 5.2609985209e+00 -7.1123063656e-05 1.5261415879e+00 -2.6433547697e+00 1.5261415879e+00 2.6433547697e+00 
78800 5.2609985204e+00 -7.0019588788e-05 1.5261439180e+00 -2.6433588057e+00 1.5261439180e+00 2.6433588057e+00 
78900 5.2609985202e+00 -7.0628703240e-05 1.5261439180e+00 -2.6433588057e+00 1.5261439180e+00 2.6433588057e+00 
79000 5.2609985200e+00 -7.1233901065e-05 1.5261439180e+00 -2.6433588057e+00 1.5261439180e+00 2.6433588057e+00 
79100 5.2609985195e+00 -7.0112137906e-05 1.5261462518e+00 -2.6433628479e+00 1.5261462518e+00 2.6433628479e+00 
79200 5.2609985193e+00 -7.0705733104e-05 1.5261462518e+00 -2.6433628479e+00 1.5261462518e+00 2.6433628479e+00 
79300 5.2609985191e+00 -7.1295499546e-05 1.5261462518e+00 -2.6433628479e+00 1.5261462518e+00 2.6433628479e+00 
79400 5.2609985187e+00 -7.0156897477e-05 1.5261485876e+00 -2.6433668936e+00 1.5261485876e+00 2.6433668936e+00 
79500 5.2609985185e+00 -7.0735226451e-05 1.5261485876e+00 -2.6433668936e+00 1.5261485876e+00 2.6433668936e+00 
79600 5.2609985180e+00 -6.9598703318e-05 1.5261509051e+00 -2.6433709076e+00 1.5261509051e+00 2.6433709076e+00 
79700 5.2609985178e+00 -7.0165561140e-05 1.5261509051e+00 -2.6433709076e+00 1.5261509051e+00 2.6433709076e+00 
79800 5.2609985176e+00 -7.0728651714e-05 1.5261509051e+00 -2.6433709076e+00 1.5261509051e+00 2.6433709076e+00 
79900 5.2609985172e+00 -6.9577150832e-05 1.5261532223e+00 -2.6433749211e+00 1.5261532223e+00 2.6433749211e+00 
80000 5.2609985170e+00 -7.0128976564e-05 1.5261532223e+00 -2.6433749211e+00 1.5261532223e+00 2.6433749211e+00 
80100 5.2609985168e+00 -7.0677134479e-05 1.5261532223e+00 -2.6433749211e+00 1.5261532223e+00 2.6433749211e+00 
80200 5.2609985167e+00 -7.1221746067e-05 1.5261532223e+00 -2.6433749211e+00 1.5261532223e+00 2.6433749211e+00 
80300 5.2609985163e+00 -7.0040042271e-05 1.5261555557e+00 -2.6433789626e+00 1.5261555557e+00 2.6433789626e+00 
80400 5.2609985161e+00 -7.0573768153e-05 1.5261555557e+00 -2.6433789626e+00 1.5261555557e+00 2.6433789626e+00 
80500 5.2609985159e+00 -7.1104012208e-05 1.5261555557e+00 -2.6433789626e+00 1.5261555557e+00 2.6433789626e+00 
80600 5.2609985155e+00 -6.9910851264e-05 1.5261578852e+00 -2.6433829975e+00 1.5261578852e+00 2.6433829975e+00 
80700 5.2609985154e+00 -7.0430345116e-05 1.5261578852e+00 -2.6433829975e+00 1.5261578852e+00 2.6433829975e+00 
80800 5.2609985152e+00 -7.0946421844e-05 1.5261578852e+00 -2.6433829975e+00 1.5261578852e+00 2.6433829975e+00 
80900 5.2609985148e+00 -6.9742968803e-05 1.5261602095e+00 -2.6433870234e+00 1.5261602095e+00 2.6433870234e+00 
81000 5.2609985147e+00 -7.0248434417e-05 1.5261602095e+00 -2.6433870234e+00 1.5261602095e+00 2.6433870234e+00 
81100 5.2609985145e+00 -7.0750548782e-05 1.5261602095e+00 -2.6433870234e+00 1.5261602095e+00 2.6433870234e+00 
81200 5.2609985141e+00 -6.9537936267e-05 1.5261625274e+00 -2.6433910381e+00 1.5261625274e+00 2.6433910381e+00 
81300 5.2609985140e+00 -7.0029583809e-05 1.5261625274e+00 -2.6433910381e+00 1.5261625274e+00 2.6433910381e+00 
81400 5.2609985138e+00 -7.0517947887e-05 1.5261625274e+00 -2.6433910381e+00 1.5261625274e+00 2.6433910381e+00 
81500 5.2609985137e+00 -7.1003141164e-05 1.5261625274e+00 -2.6433910381e+00 1.5261625274e+00 2.6433910381e+00 
81600 5.2609985133e+00 -6.9767665468e-05 1.5261648536e+00 -2.6433950672e+00 1.5261648536e+00 2.6433950672e+00 
81700 5.2609985132e+00 -7.0242713835e-05 1.5261648536e+00 -2.6433950672e+00 1.5261648536e+00 2.6433950672e+00 
81800 5.2609985130e+00 -7.0714634623e-05 1.5261648536e+00 -2.6433950672e+00 1.5261648536e+00 2.6433950672e+00 
81900 5.2609985127e+00 -6.9472909499e-05 1.5261671704e+00 -2.6433990800e+00 1.5261671704e+00 2.6433990800e+00 
82000 5.2609985126e+00 -6.9934794163e-05 1.5261671704e+00 -2.6433990800e+00 1.5261671704e+00 2.6433990800e+00 
82100 5.2609985124e+00 -7.0393601040e-05 1.5261671704e+00 -2.6433990800e+00 1.5261671704e+00 2.6433990800e+00 
82200 5.2609985123e+00 -7.0849437607e-05 1.5261671704e+00 -2.6433990800e+00 1.5261671704e+00 2.6433990800e+00 
82300 5.2609985120e+00 -6.9588514643e-05 1.5261694915e+00 -2.6434031003e+00 1.5261694915e+00 2.6434031003e+00 
82400 5.2609985118e+00 -7.0034602479e-05 1.5261694915e+00 -2.6434031003e+00 1.5261694915e+00 2.6434031003e+00 
82500 5.2609985117e+00 -7.0477750529e-05 1.5261694915e+00 -2.6434031003e+00 1.5261694915e+00 2.6434031003e+00 
82600 5.2609985116e+00 -7.0918060752e-05 1.5261694915e+00 -2.6434031003e+00 1.5261694915e+00 2.6434031003e+00 
82700 5.2609985113e+00 -6.9640075716e-05 1.5261718149e+00 -2.6434071246e+00 1.5261718149e+00 2.6434071246e+00 
82800 5.2609985112e+00 -7.0070883081e-05 1.5261718149e+00 -2.6434071246e+00 1.5261718149e+00 2.6434071246e+00 
82900 5.2609985110e+00 -7.0498868247e-05 1.5261718149e+00 -2.6434071246e+00 1.5261718149e+00 2.6434071246e+00 
83000 5.2609985109e+00 -7.0924128922e-05 1.5261718149e+00 -2.6434071246e+00 1.5261718149e+00 2.6434071246e+00 
83100 5.2609985106e+00 -6.9631054248e-05 1.5261741385e+00 -2.6434111491e+00 1.5261741385e+00 2.6434111491e+00 
83200 5.2609985105e+00 -7.0047026881e-05 1.5261741385e+00 -2.6434111491e+00 1.5261741385e+00 2.6434111491e+00 
83300 5.2609985104e+00 -7.0460279512e-05 1.5261741385e+00 -2.6434111491e+00 1.5261741385e+00 2.6434111491e+00 
83400 5.2609985103e+00 -7.0870906660e-05 1.5261741385e+00 -2.6434111491e+00 1.5261741385e+00 2.6434111491e+00 
83500 5.2609985100e+00 -6.9564579650e-05 1.5261764604e+00 -2.6434151707e+00 1.5261764604e+00 2.6434151707e+00 
83600 5.2609985099e+00 -6.9966111391e-05 1.5261764604e+00 -2.6434151707e+00 1.5261764604e+00 2.6434151707e+00 
83700 5.2609985098e+00 -7.0365014164e-05 1.5261764604e+00 -2.6434151707e+00 1.5261764604e+00 2.6434151707e+00 
83800 5.2609985097e+00 -7.0761380192e-05 1.5261764604e+00 -2.6434151707e+00 1.5261764604e+00 2.6434151707e+00 
83900 5.2609985094e+00 -6.9443526144e-05 1.5261787786e+00 -2.6434191860e+00 1.5261787786e+00 2.6434191860e+00 
84000 5.2609985093e+00 -6.9830974597e-05 1.5261787786e+00 -2.6434191860e+00 1.5261787786e+00 2.6434191860e+00 
84100 5.2609985092e+00 -7.0215877462e-05 1.5261787786e+00 -2.6434191860e+00 1.5261787786e+00 2.6434191860e+00 
84200 5.2609985091e+00 -7.0598325376e-05 1.5261787786e+00 -2.6434191860e+00 1.5261787786e+00 2.6434191860e+00 
84300 5.2609985090e+00 -7.0978401786e-05 1.5261787786e+00 -2.6434191860e+00 1.5261787786e+00 2.6434191860e+00 
84400 5.2609985087e+00 -6.9639161390e-05 1.5261811040e+00 -2.6434232137e+00 1.5261811040e+00 2.6434232137e+00 
84500 5.2609985086e+00 -7.0010613874e-05 1.5261811040e+00 -2.6434232137e+00 1.5261811040e+00 2.6434232137e+00 
84600 5.2609985086e+00 -7.0379661706e-05 1.5261811040e+00 -2.6434232137e+00 1.5261811040e+00 2.6434232137e+00 
84700 5.2609985085e+00 -7.0746388633e-05 1.5261811040e+00 -2.6434232137e+00 1.5261811040e+00 2.6434232137e+00 
84800 5.2609985082e+00 -6.9399460894e-05 1.5261834218e+00 -2.6434272282e+00 1.5261834218e+00 2.6434272282e+00 
84900 5.2609985081e+00 -6.9757679943e-05 1.5261834218e+00 -2.6434272282e+00 1.5261834218e+00 2.6434272282e+00 
85000 5.2609985080e+00 -7.0113547247e-05 1.5261834218e+00 -2.6434272282e+00 1.5261834218e+00 2.6434272282e+00 
85100 5.2609985080e+00 -7.0467147153e-05 1.5261834218e+00 -2.6434272282e+00 1.5261834218e+00 2.6434272282e+00 
85200 5.2609985079e+00 -7.0818557317e-05 1.5261834218e+00 -2.6434272282e+00 1.5261834218e+00 2.6434272282e+00 
85300 5.2609985076e+00 -6.9454689421e-05 1.5261857419e+00 -2.6434312467e+00 1.5261857419e+00 2.6434312467e+00 
85400 5.2609985075e+00 -6.9797833181e-05 1.5261857419e+00 -2.6434312467e+00 1.5261857419e+00 2.6434312467e+00 
85500 5.2609985075e+00 -7.0138739962e-05 1.5261857419e+00 -2.6434312467e+00 1.5261857419e+00 2.6434312467e+00 
85600 5.2609985074e+00 -7.0477489431e-05 1.5261857419e+00 -2.6434312467e+00 1.5261857419e+00 2.6434312467e+00 
85700 5.2609985073e+00 -7.0814154875e-05 1.5261857419e+00 -2.6434312467e+00 1.5261857419e+00 2.6434312467e+00 
85800 5.2609985070e+00 -6.9435747806e-05 1.5261880619e+00 -2.6434352650e+00 1.5261880619e+00 2.6434352650e+00 
85900 5.2609985070e+00 -6.9764346778e-05 1.5261880619e+00 -2.6434352650e+00 1.5261880619e+00 2.6434352650e+00 
86000 5.2609985069e+00 -7.0090803167e-05 1.5261880619e+00 -2.6434352650e+00 1.5261880619e+00 2.6434352650e+00 
86100 5.2609985068e+00 -7.0415193415e-05 1.5261880619e+00 -2.6434352650e+00 1.5261880619e+00 2.6434352650e+00 
86200 5.2609985068e+00 -7.0737587845e-05 1.5261880619e+00 -2.6434352650e+00 1.5261880619e+00 2.6434352650e+00 
86300 5.2609985065e+00 -6.9346845231e-05 1.5261903793e+00 -2.6434392790e+00 1.5261903793e+00 2.6434392790e+00 
86400 5.2609985065e+00 -6.9661346233e-05 1.5261903793e+00 -2.6434392790e+00 1.5261903793e+00 2.6434392790e+00 
86500 5.2609985064e+00 -6.9973785648e-05 1.5261903793e+00 -2.6434392790e+00 1.5261903793e+00 2.6434392790e+00 
86600 5.2609985063e+00 -7.0284237849e-05 1.5261903793e+00 -2.6434392790e+00 1.5261903793e+00 2.6434392790e+00 
86700 5.2609985063e+00 -7.0592771295e-05 1.5261903793e+00 -2.6434392790e+00 1.5261903793e+00 2.6434392790e+00 
86800 5.2609985062e+00 -7.0899448776e-05 1.5261903793e+00 -2.6434392790e+00 1.5261903793e+00 2.6434392790e+00 
86900 5.2609985060e+00 -6.9489202970e-05 1.5261927021e+00 -2.6434433021e+00 1.5261927021e+00 2.6434433021e+00 
87000 5.2609985059e+00 -6.9788236699e-05 1.5261927021e+00 -2.6434433021e+00 1.5261927021e+00 2.6434433021e+00 
87100 5.2609985059e+00 -7.0085328134e-05 1.5261927021e+00 -2.6434433021e+00 1.5261927021e+00 2.6434433021e+00 
87200 5.2609985058e+00 -7.0380545864e-05 1.5261927021e+00 -2.6434433021e+00 1.5261927021e+00 2.6434433021e+00 
87300 5.2609985058e+00 -7.0673952944e-05 1.5261927021e+00 -2.6434433021e+00 1.5261927021e+00 2.6434433021e+00 
87400 5.2609985057e+00 -7.0965607135e-05 1.5261927021e+00 -2.6434433021e+00 1.5261927021e+00 2.6434433021e+00 
87500 5.2609985054e+00 -6.9538833077e-05 1.5261950270e+00 -2.6434473290e+00 1.5261950270e+00 2.6434473290e+00 
87600 5.2609985054e+00 -6.9823032303e-05 1.5261950270e+00 -2.6434473290e+00 1.5261950270e+00 2.6434473290e+00 
87700 5.2609985053e+00 -7.0105379063e-05 1.5261950270e+00 -2.6434473290e+00 1.5261950270e+00 2.6434473290e+00 
87800 5.2609985053e+00 -7.0385938284e-05 1.5261950270e+00 -2.6434473290e+00 1.5261950270e+00 2.6434473290e+00 
87900 5.2609985053e+00 -7.0664769662e-05 1.5261950270e+00 -2.6434473290e+00 1.5261950270e+00 2.6434473290e+00 
88000 5.2609985052e+00 -7.0941927890e-05 1.5261950270e+00 -2.6434473290e+00 1.5261950270e+00 2.6434473290e+00 
88100 5.2609985050e+00 -6.9501305198e-05 1.5261973511e+00 -2.6434513546e+00 1.5261973511e+00 2.6434513546e+00 
88200 5.2609985049e+00 -6.9771161334e-05 1.5261973511e+00 -2.6434513546e+00 1.5261973511e+00 2.6434513546e+00 
88300 5.2609985049e+00 -7.0039237220e-05 1.5261973511e+00 -2.6434513546e+00 1.5261973511e+00 2.6434513546e+00 
88400 5.2609985048e+00 -7.0305595746e-05 1.5261973511e+00 -2.6434513546e+00 1.5261973511e+00 2.6434513546e+00 
88500 5.2609985048e+00 -7.0570294793e-05 1.5261973511e+00 -2.6434513546e+00 1.5261973511e+00 2.6434513546e+00 
88600 5.2609985048e+00 -7.0833387461e-05 1.5261973511e+00 -2.6434513546e+00 1.5261973511e+00 2.6434513546e+00 
88700 5.2609985045e+00 -6.9381388306e-05 1.5261996717e+00 -2.6434553739e+00 1.5261996717e+00 2.6434553739e+00 
88800 5.2609985045e+00 -6.9637314862e-05 1.5261996717e+00 -2.6434553739e+00 1.5261996717e+00 2.6434553739e+00 
88900 5.2609985044e+00 -6.9891524719e-05 1.5261996717e+00 -2.6434553739e+00 1.5261996717e+00 2.6434553739e+00 
89000 5.2609985044e+00 -7.0144079895e-05 1.5261996717e+00 -2.6434553739e+00 1.5261996717e+00 2.6434553739e+00 
89100 5.2609985044e+00 -7.0395037570e-05 1.5261996717e+00 -2.6434553739e+00 1.5261996717e+00 2.6434553739e+00 
89200 5.2609985043e+00 -7.0644450296e-05 1.5261996717e+00 -2.6434553739e+00 1.5261996717e+00 2.6434553739e+00 
89300 5.2609985043e+00 -7.0892366192e-05 1.5261996717e+00 -2.6434553739e+00 1.5261996717e+00 2.6434553739e+00 
89400 5.2609985040e+00 -6.9423865576e-05 1.5262019942e+00 -2.6434593966e+00 1.5262019942e+00 2.6434593966e+00 
89500 5.2609985040e+00 -6.9664817608e-05 1.5262019942e+00 -2.6434593966e+00 1.5262019942e+00 2.6434593966e+00 
89600 5.2609985040e+00 -6.9904149342e-05 1.5262019942e+00 -2.6434593966e+00 1.5262019942e+00 2.6434593966e+00 
89700 5.2609985039e+00 -7.0141919130e-05 1.5262019942e+00 -2.6434593966e+00 1.5262019942e+00 2.6434593966e+00 
89800 5.2609985039e+00 -7.0378180780e-05 1.5262019942e+00 -2.6434593966e+00 1.5262019942e+00 2.6434593966e+00 
89900 5.2609985039e+00 -7.0612983752e-05 1.5262019942e+00 -2.6434593966e+00 1.5262019942e+00 2.6434593966e+00 
90000 5.2609985039e+00 -7.0846373337e-05 1.5262019942e+00 -2.6434593966e+00 1.5262019942e+00 2.6434593966e+00 
90100 5.2609985036e+00 -6.9364537607e-05 1.5262043153e+00 -2.6434634167e+00 1.5262043153e+00 2.6434634167e+00 
90200 5.2609985036e+00 -6.9591125533e-05 1.5262043153e+00 -2.6434634167e+00 1.5262043153e+00 2.6434634167e+00 
90300 5.2609985035e+00 -6.9816169760e-05 1.5262043153e+00 -2.6434634167e+00 1.5262043153e+00 2.6434634167e+00 
90400 5.2609985035e+00 -7.0039726745e-05 1.5262043153e+00 -2.6434634167e+00 1.5262043153e+00 2.6434634167e+00 
90500 5.2609985035e+00 -7.0261848621e-05 1.5262043153e+00 -2.6434634167e+00 1.5262043153e+00 2.6434634167e+00 
90600 5.2609985035e+00 -7.0482583367e-05 1.5262043153e+00 -2.6434634167e+00 1.5262043153e+00 2.6434634167e+00 
90700 5.2609985034e+00 -7.0701974985e-05 1.5262043153e+00 -2.6434634167e+00 1.5262043153e+00 2.6434634167e+00 
90800 5.2609985034e+00 -7.0846617087e-05 1.5262043153e+00 -2.6434634167e+00 1.5262043153e+00 2.6434634167e+00 
90900 5.2609985032e+00 -6.9350606520e-05 1.5262066363e+00 -2.6434674368e+00 1.5262066363e+00 2.6434674368e+00 
90900 5.2609985032e+00 -6.9350606521e-05 1.5262066363e+00 -2.6434674368e+00 1.5262066363e+00 2.6434674368e+00 
