# step Hamiltonian StressXX CellTensor1 CellTensor2 CellTensor3 CellTensor4 
0 6.2798686974e+00 2.2760939715e-01 2.5594246509e+00 -4.4330535334e+00 2.5594246509e+00 4.4330535334e+00 
100 6.2986451274e+00 2.4748511542e-01 2.5594246509e+00 -4.4330535334e+00 2.5594246509e+00 4.4330535334e+00 
200 6.3170751968e+00 2.6572816346e-01 2.5545913956e+00 -4.4246820898e+00 2.5545913956e+00 4.4246820898e+00 
300 6.3357626844e+00 2.8299190282e-01 2.5493921725e+00 -4.4156767713e+00 2.5493921725e+00 4.4156767713e+00 
400 6.3544371773e+00 2.9915509504e-01 2.5438440070e+00 -4.4060670666e+00 2.5438440070e+00 4.4060670666e+00 
500 6.3727327088e+00 3.1393294347e-01 2.5379662963e+00 -4.3958865731e+00 2.5379662963e+00 4.3958865731e+00 
600 6.3901808295e+00 3.2684641754e-01 2.5317840801e+00 -4.3851786605e+00 2.5317840801e+00 4.3851786605e+00 
700 6.4062191736e+00 3.3722423960e-01 2.5253319663e+00 -4.3740032716e+00 2.5253319663e+00 4.3740032716e+00 
800 6.4202360450e+00 3.4428551750e-01 2.5186580864e+00 -4.3624437725e+00 2.5186580864e+00 4.3624437725e+00 
900 6.4316700222e+00 3.4734867803e-01 2.5118264846e+00 -4.3506110911e+00 2.5118264846e+00 4.3506110911e+00 
1000 6.4401567976e+00 3.4614411652e-01 2.5049154005e+00 -4.3386407423e+00 2.5049154005e+00 4.3386407423e+00 
1100 6.4456625987e+00 3.4107306956e-01 2.4980092880e+00 -4.3266790047e+00 2.4980092880e+00 4.3266790047e+00 
1200 6.4485120272e+00 3.3318832356e-01 2.4911855086e+00 -4.3148598720e+00 2.4911855086e+00 4.3148598720e+00 
1300 6.4492720660e+00 3.2384088364e-01 2.4845011639e+00 -4.3032822473e+00 2.4845011639e+00 4.3032822473e+00 
1400 6.4485628327e+00 3.1422206233e-01 2.4779867992e+00 -4.2919990367e+00 2.4779867992e+00 4.2919990367e+00 
1500 6.4469083758e+00 3.0509053373e-01 2.4716492408e+00 -4.2810220636e+00 2.4716492408e+00 4.2810220636e+00 
1600 6.4446804091e+00 2.9676339347e-01 2.4654800150e+00 -4.2703366510e+00 2.4654800150e+00 4.2703366510e+00 
1700 6.4421128042e+00 2.8925637722e-01 2.4594641000e+00 -4.2599167807e+00 2.4594641000e+00 4.2599167807e+00 
1800 6.4393421668e+00 2.8243850625e-01 2.4535859733e+00 -4.2497355665e+00 2.4535859733e+00 4.2497355665e+00 
1900 6.4364457256e+00 2.7613824624e-01 2.4478326020e+00 -4.2397704351e+00 2.4478326020e+00 4.2397704351e+00 
2000 6.4334674890e+00 2.7019739885e-01 2.4421943089e+00 -4.2300046250e+00 2.4421943089e+00 4.2300046250e+00 
2100 6.4304337317e+00 2.6449027730e-01 2.4366645449e+00 -4.2204267928e+00 2.4366645449e+00 4.2204267928e+00 
2200 6.4273613894e+00 2.5892523163e-01 2.4312392624e+00 -4.2110299278e+00 2.4312392624e+00 4.2110299278e+00 
2300 6.4242623847e+00 2.5343928071e-01 2.4259162465e+00 -4.2018101938e+00 2.4259162465e+00 4.2018101938e+00 
2400 6.4211458042e+00 2.4799124059e-01 2.4206945466e+00 -4.1927659443e+00 2.4206945466e+00 4.1927659443e+00 
2500 6.4180189926e+00 2.4255554466e-01 2.4155740411e+00 -4.1838969686e+00 2.4155740411e+00 4.1838969686e+00 
2600 6.4148881128e+00 2.3711738164e-01 2.4105551234e+00 -4.1752039481e+00 2.4105551234e+00 4.1752039481e+00 
2700 6.4117584471e+00 2.3166912475e-01 2.4056384844e+00 -4.1666880797e+00 2.4056384844e+00 4.1666880797e+00 
2800 6.4086345706e+00 2.2620781448e-01 2.4008249664e+00 -4.1583508218e+00 2.4008249664e+00 4.1583508218e+00 
2900 6.4055204618e+00 2.2073343144e-01 2.3961154667e+00 -4.1501937291e+00 2.3961154667e+00 4.1501937291e+00 
3000 6.4024195796e+00 2.1524773513e-01 2.3915108769e+00 -4.1422183456e+00 2.3915108769e+00 4.1422183456e+00 
3100 6.3993349225e+00 2.0975349654e-01 2.3870120452e+00 -4.1344261405e+00 2.3870120452e+00 4.1344261405e+00 
3200 6.3962690776e+00 2.0425400007e-01 2.3826197542e+00 -4.1268184693e+00 2.3826197542e+00 4.1268184693e+00 
3300 6.3932242624e+00 1.9875272694e-01 2.3783347094e+00 -4.1193965540e+00 2.3783347094e+00 4.1193965540e+00 
3400 6.3902023611e+00 1.9325315970e-01 2.3741575339e+00 -4.1121614739e+00 2.3741575339e+00 4.1121614739e+00 
3500 6.3872049583e+00 1.8775866668e-01 2.3700887674e+00 -4.1051141637e+00 2.3700887674e+00 4.1051141637e+00 
3600 6.3842333680e+00 1.8227243866e-01 2.3661288676e+00 -4.0982554160e+00 2.3661288676e+00 4.0982554160e+00 
3700 6.3812886613e+00 1.7679745902e-01 2.3622782129e+00 -4.0915858864e+00 2.3622782129e+00 4.0915858864e+00 
3800 6.3783716902e+00 1.7133649519e-01 2.3585371060e+00 -4.0851060991e+00 2.3585371060e+00 4.0851060991e+00 
3900 6.3754831107e+00 1.6589210302e-01 2.3549057777e+00 -4.0788164541e+00 2.3549057777e+00 4.0788164541e+00 
4000 6.3726234022e+00 1.6046663877e-01 2.3513843908e+00 -4.0727172331e+00 2.3513843908e+00 4.0727172331e+00 
4100 6.3697928869e+00 1.5506227524e-01 2.3479730436e+00 -4.0668086063e+00 2.3479730436e+00 4.0668086063e+00 
4200 6.3669917457e+00 1.4968101964e-01 2.3446717732e+00 -4.0610906382e+00 2.3446717732e+00 4.0610906382e+00 
4300 6.3642200339e+00 1.4432473203e-01 2.3414805587e+00 -4.0555632926e+00 2.3414805587e+00 4.0555632926e+00 
4400 6.3614776948e+00 1.3899514313e-01 2.3383993238e+00 -4.0502264373e+00 2.3383993238e+00 4.0502264373e+00 
4500 6.3587645726e+00 1.3369387132e-01 2.3354279395e+00 -4.0450798486e+00 2.3354279395e+00 4.0450798486e+00 
4600 6.3560804232e+00 1.2842243825e-01 2.3325662257e+00 -4.0401232149e+00 2.3325662257e+00 4.0401232149e+00 
4700 6.3534249253e+00 1.2318228320e-01 2.3298139534e+00 -4.0353561394e+00 2.3298139534e+00 4.0353561394e+00 
4800 6.3507976891e+00 1.1797477592e-01 2.3271708461e+00 -4.0307781434e+00 2.3271708461e+00 4.0307781434e+00 
4900 6.3481982655e+00 1.1280122814e-01 2.3246365815e+00 -4.0263886683e+00 2.3246365815e+00 4.0263886683e+00 
5000 6.3456261536e+00 1.0766290376e-01 2.3222107919e+00 -4.0221870774e+00 2.3222107919e+00 4.0221870774e+00 
5100 6.3430808079e+00 1.0256102777e-01 2.3198930657e+00 -4.0181726579e+00 2.3198930657e+00 4.0181726579e+00 
5200 6.3405616452e+00 9.7496794044e-02 2.3176829482e+00 -4.0143446222e+00 2.3176829482e+00 4.0143446222e+00 
5300 6.3380680501e+00 9.2471371990e-02 2.3155799420e+00 -4.0107021085e+00 2.3155799420e+00 4.0107021085e+00 
5400 6.3355993812e+00 8.7485912324e-02 2.3135835075e+00 -4.0072441826e+00 2.3135835075e+00 4.0072441826e+00 
5500 6.3331549759e+00 8.2541551872e-02 2.3116930639e+00 -4.0039698381e+00 2.3116930639e+00 4.0039698381e+00 
5600 6.3307341550e+00 7.7639417581e-02 2.3099079886e+00 -4.0008779972e+00 2.3099079886e+00 4.0008779972e+00 
5700 6.3283362280e+00 7.2780629784e-02 2.3082276188e+00 -3.9979675111e+00 2.3082276188e+00 3.9979675111e+00 
5800 6.3259604962e+00 6.7966304786e-02 2.3066512504e+00 -3.9952371611e+00 2.3066512504e+00 3.9952371611e+00 
5900 6.3236062575e+00 6.3197556833e-02 2.3051781395e+00 -3.9926856580e+00 2.3051781395e+00 3.9926856580e+00 
6000 6.3212728094e+00 5.8475499522e-02 2.3038075016e+00 -3.9903116436e+00 2.3038075016e+00 3.9903116436e+00 
6100 6.3189594532e+00 5.3801246702e-02 2.3025385126e+00 -3.9881136901e+00 2.3025385126e+00 3.9881136901e+00 
6200 6.3166654964e+00 4.9175912910e-02 2.3013703086e+00 -3.9860903014e+00 2.3013703086e+00 3.9860903014e+00 
6300 6.3143902565e+00 4.4600613391e-02 2.3003019862e+00 -3.9842399129e+00 2.3003019862e+00 3.9842399129e+00 
6400 6.3121330636e+00 4.0076463729e-02 2.2993326031e+00 -3.9825608920e+00 2.2993326031e+00 3.9825608920e+00 
6500 6.3098932631e+00 3.5604579137e-02 2.2984611778e+00 -3.9810515392e+00 2.2984611778e+00 3.9810515392e+00 
6600 6.3076702184e+00 3.1186073431e-02 2.2976866905e+00 -3.9797100878e+00 2.2976866905e+00 3.9797100878e+00 
6700 6.3054633133e+00 2.6822057719e-02 2.2970080832e+00 -3.9785347056e+00 2.2970080832e+00 3.9785347056e+00 
6800 6.3032719542e+00 2.2513638832e-02 2.2964242603e+00 -3.9775234945e+00 2.2964242603e+00 3.9775234945e+00 
6900 6.3010955724e+00 1.8261917534e-02 2.2959340887e+00 -3.9766744925e+00 2.2959340887e+00 3.9766744925e+00 
7000 6.2989336257e+00 1.4067986514e-02 2.2955363989e+00 -3.9759856736e+00 2.2955363989e+00 3.9759856736e+00 
7100 6.2967856007e+00 9.9329282119e-03 2.2952299853e+00 -3.9754549496e+00 2.2952299853e+00 3.9754549496e+00 
7200 6.2946510140e+00 5.8578124720e-03 2.2950136067e+00 -3.9750801709e+00 2.2950136067e+00 3.9750801709e+00 
7300 6.2925294141e+00 1.8436940703e-03 2.2948859875e+00 -3.9748591279e+00 2.2948859875e+00 3.9748591279e+00 
7400 6.2904203821e+00 -2.1083898776e-03 2.2948458180e+00 -3.9747895522e+00 2.2948458180e+00 3.9747895522e+00 
7500 6.2883235337e+00 -5.9974226023e-03 2.2948917556e+00 -3.9748691186e+00 2.2948917556e+00 3.9748691186e+00 
7600 6.2862385192e+00 -9.8224104398e-03 2.2950224258e+00 -3.9750954460e+00 2.2950224258e+00 3.9750954460e+00 
7700 6.2841650251e+00 -1.3582385645e-02 2.2952364229e+00 -3.9754660999e+00 2.2952364229e+00 3.9754660999e+00 
7800 6.2821027742e+00 -1.7276409240e-02 2.2955323113e+00 -3.9759785937e+00 2.2955323113e+00 3.9759785937e+00 
7900 6.2800515261e+00 -2.0903573874e-02 2.2959086267e+00 -3.9766303910e+00 2.2959086267e+00 3.9766303910e+00 
8000 6.2780110775e+00 -2.4463006685e-02 2.2963638771e+00 -3.9774189077e+00 2.2963638771e+00 3.9774189077e+00 
8100 6.2759812624e+00 -2.7953872129e-02 2.2968965442e+00 -3.9783415143e+00 2.2968965442e+00 3.9783415143e+00 
8200 6.2739619514e+00 -3.1375374779e-02 2.2975050850e+00 -3.9793955379e+00 2.2975050850e+00 3.9793955379e+00 
8300 6.2719530519e+00 -3.4726762051e-02 2.2981879329e+00 -3.9805782651e+00 2.2981879329e+00 3.9805782651e+00 
8400 6.2699545074e+00 -3.8007326862e-02 2.2989434991e+00 -3.9818869442e+00 2.2989434991e+00 3.9818869442e+00 
8500 6.2679662965e+00 -4.1216410190e-02 2.2997701746e+00 -3.9833187881e+00 2.2997701746e+00 3.9833187881e+00 
8600 6.2659884325e+00 -4.4353403519e-02 2.3006663312e+00 -3.9848709769e+00 2.3006663312e+00 3.9848709769e+00 
8700 6.2640209619e+00 -4.7417751160e-02 2.3016303237e+00 -3.9865406608e+00 2.3016303237e+00 3.9865406608e+00 
8800 6.2620639634e+00 -5.0408952429e-02 2.3026604910e+00 -3.9883249630e+00 2.3026604910e+00 3.9883249630e+00 
8900 6.2601175463e+00 -5.3326563667e-02 2.3037551583e+00 -3.9902209824e+00 2.3037551583e+00 3.9902209824e+00 
9000 6.2581818492e+00 -5.6170200088e-02 2.3049126387e+00 -3.9922257972e+00 2.3049126387e+00 3.9922257972e+00 
9100 6.2562570383e+00 -5.8939537447e-02 2.3061312347e+00 -3.9943364674e+00 2.3061312347e+00 3.9943364674e+00 
9200 6.2543433053e+00 -6.1634313516e-02 2.3074092404e+00 -3.9965500382e+00 2.3074092404e+00 3.9965500382e+00 
9300 6.2524408657e+00 -6.4254329351e-02 2.3087449431e+00 -3.9988635432e+00 2.3087449431e+00 3.9988635432e+00 
9400 6.2505499571e+00 -6.6799450353e-02 2.3101366252e+00 -4.0012740073e+00 2.3101366252e+00 4.0012740073e+00 
9500 6.2486708362e+00 -6.9269607113e-02 2.3115825659e+00 -4.0037784501e+00 2.3115825659e+00 4.0037784501e+00 
9600 6.2468037776e+00 -7.1664796021e-02 2.3130810434e+00 -4.0063738891e+00 2.3130810434e+00 4.0063738891e+00 
9700 6.2449490710e+00 -7.3985079665e-02 2.3146303360e+00 -4.0090573427e+00 2.3146303360e+00 4.0090573427e+00 
9800 6.2431070190e+00 -7.6230586985e-02 2.3162287249e+00 -4.0118258335e+00 2.3162287249e+00 4.0118258335e+00 
9900 6.2412779349e+00 -7.8401513203e-02 2.3178744952e+00 -4.0146763912e+00 2.3178744952e+00 4.0146763912e+00 
10000 6.2394621402e+00 -8.0498119526e-02 2.3195659379e+00 -4.0176060560e+00 2.3195659379e+00 4.0176060560e+00 
10100 6.2376599625e+00 -8.2520732614e-02 2.3213013520e+00 -4.0206118814e+00 2.3213013520e+00 4.0206118814e+00 
10200 6.2358717331e+00 -8.4469743830e-02 2.3230790457e+00 -4.0236909372e+00 2.3230790457e+00 4.0236909372e+00 
10300 6.2340977848e+00 -8.6345608272e-02 2.3248973384e+00 -4.0268403125e+00 2.3248973384e+00 4.0268403125e+00 
10400 6.2323384493e+00 -8.8148843587e-02 2.3267545622e+00 -4.0300571185e+00 2.3267545622e+00 4.0300571185e+00 
10500 6.2305940557e+00 -8.9880028593e-02 2.3286490636e+00 -4.0333384911e+00 2.3286490636e+00 4.0333384911e+00 
10600 6.2288649277e+00 -9.1539801693e-02 2.3305792049e+00 -4.0366815939e+00 2.3305792049e+00 4.0366815939e+00 
10700 6.2271513824e+00 -9.3128859118e-02 2.3325433657e+00 -4.0400836202e+00 2.3325433657e+00 4.0400836202e+00 
10800 6.2254537274e+00 -9.4647952990e-02 2.3345399445e+00 -4.0435417961e+00 2.3345399445e+00 4.0435417961e+00 
10900 6.2237722599e+00 -9.6097889228e-02 2.3365673597e+00 -4.0470533823e+00 2.3365673597e+00 4.0470533823e+00 
11000 6.2221072644e+00 -9.7479525308e-02 2.3386240514e+00 -4.0506156768e+00 2.3386240514e+00 4.0506156768e+00 
11100 6.2204590115e+00 -9.8793767887e-02 2.3407084820e+00 -4.0542260165e+00 2.3407084820e+00 4.0542260165e+00 
11200 6.2188277563e+00 -1.0004157031e-01 2.3428191378e+00 -4.0578817796e+00 2.3428191378e+00 4.0578817796e+00 
11300 6.2172137371e+00 -1.0122393003e-01 2.3449545300e+00 -4.0615803873e+00 2.3449545300e+00 4.0615803873e+00 
11400 6.2156171740e+00 -1.0234188590e-01 2.3471131954e+00 -4.0653193055e+00 2.3471131954e+00 4.0653193055e+00 
11500 6.2140382684e+00 -1.0339651542e-01 2.3492936977e+00 -4.0690960463e+00 2.3492936977e+00 4.0690960463e+00 
11600 6.2124772016e+00 -1.0438893193e-01 2.3514946281e+00 -4.0729081697e+00 2.3514946281e+00 4.0729081697e+00 
11700 6.2109341343e+00 -1.0532028176e-01 2.3537146064e+00 -4.0767532848e+00 2.3537146064e+00 4.0767532848e+00 
11800 6.2094092059e+00 -1.0619174129e-01 2.3559522811e+00 -4.0806290510e+00 2.3559522811e+00 4.0806290510e+00 
11900 6.2079025340e+00 -1.0700451413e-01 2.3582063305e+00 -4.0845331791e+00 2.3582063305e+00 4.0845331791e+00 
12000 6.2064142144e+00 -1.0775982812e-01 2.3604754630e+00 -4.0884634320e+00 2.3604754630e+00 4.0884634320e+00 
12100 6.2049443203e+00 -1.0845893251e-01 2.3627584179e+00 -4.0924176258e+00 2.3627584179e+00 4.0924176258e+00 
12200 6.2034929028e+00 -1.0910309506e-01 2.3650539652e+00 -4.0963936304e+00 2.3650539652e+00 4.0963936304e+00 
12300 6.2020599906e+00 -1.0969359920e-01 2.3673609065e+00 -4.1003893699e+00 2.3673609065e+00 4.1003893699e+00 
12400 6.2006455903e+00 -1.1023174127e-01 2.3696780748e+00 -4.1044028231e+00 2.3696780748e+00 4.1044028231e+00 
12500 6.1992496869e+00 -1.1071882780e-01 2.3720043350e+00 -4.1084320240e+00 2.3720043350e+00 4.1084320240e+00 
12600 6.1978722436e+00 -1.1115617280e-01 2.3743385838e+00 -4.1124750615e+00 2.3743385838e+00 4.1124750615e+00 
12700 6.1965132033e+00 -1.1154509526e-01 2.3766797499e+00 -4.1165300801e+00 2.3766797499e+00 4.1165300801e+00 
12800 6.1951724880e+00 -1.1188691659e-01 2.3790267938e+00 -4.1205952794e+00 2.3790267938e+00 4.1205952794e+00 
12900 6.1938500004e+00 -1.1218295821e-01 2.3813787078e+00 -4.1246689140e+00 2.3813787078e+00 4.1246689140e+00 
13000 6.1925456243e+00 -1.1243453930e-01 2.3837345161e+00 -4.1287492936e+00 2.3837345161e+00 4.1287492936e+00 
13100 6.1912592255e+00 -1.1264297455e-01 2.3860932741e+00 -4.1328347824e+00 2.3860932741e+00 4.1328347824e+00 
13200 6.1899906524e+00 -1.1280957205e-01 2.3884540689e+00 -4.1369237988e+00 2.3884540689e+00 4.1369237988e+00 
13300 6.1887397374e+00 -1.1293563133e-01 2.3908160181e+00 -4.1410148148e+00 2.3908160181e+00 4.1410148148e+00 
13400 6.1875062975e+00 -1.1302244144e-01 2.3931782703e+00 -4.1451063557e+00 2.3931782703e+00 4.1451063557e+00 
13500 6.1862901356e+00 -1.1307127924e-01 2.3955400043e+00 -4.1491969989e+00 2.3955400043e+00 4.1491969989e+00 
13600 6.1850910414e+00 -1.1308340768e-01 2.3979004288e+00 -4.1532853741e+00 2.3979004288e+00 4.1532853741e+00 
13700 6.1839087923e+00 -1.1306007431e-01 2.4002587820e+00 -4.1573701617e+00 2.4002587820e+00 4.1573701617e+00 
13800 6.1827431548e+00 -1.1300250985e-01 2.4026143310e+00 -4.1614500923e+00 2.4026143310e+00 4.1614500923e+00 
13900 6.1815938854e+00 -1.1291192686e-01 2.4049663715e+00 -4.1655239460e+00 2.4049663715e+00 4.1655239460e+00 
14000 6.1804607317e+00 -1.1278951857e-01 2.4073142272e+00 -4.1695905513e+00 2.4073142272e+00 4.1695905513e+00 
14100 6.1793434335e+00 -1.1263645776e-01 2.4096572490e+00 -4.1736487841e+00 2.4096572490e+00 4.1736487841e+00 
14200 6.1782417239e+00 -1.1245389583e-01 2.4119948148e+00 -4.1776975668e+00 2.4119948148e+00 4.1776975668e+00 
14300 6.1771553303e+00 -1.1224296186e-01 2.4143263288e+00 -4.1817358675e+00 2.4143263288e+00 4.1817358675e+00 
14400 6.1760839755e+00 -1.1200476191e-01 2.4166512207e+00 -4.1857626984e+00 2.4166512207e+00 4.1857626984e+00 
14500 6.1750273786e+00 -1.1174037828e-01 2.4189689454e+00 -4.1897771154e+00 2.4189689454e+00 4.1897771154e+00 
14600 6.1739852560e+00 -1.1145086898e-01 2.4212789822e+00 -4.1937782164e+00 2.4212789822e+00 4.1937782164e+00 
14700 6.1729573226e+00 -1.1113726723e-01 2.4235808340e+00 -4.1977651407e+00 2.4235808340e+00 4.1977651407e+00 
14800 6.1719432922e+00 -1.1080058103e-01 2.4258740270e+00 -4.2017370676e+00 2.4258740270e+00 4.2017370676e+00 
14900 6.1709428788e+00 -1.1044179290e-01 2.4281581100e+00 -4.2056932153e+00 2.4281581100e+00 4.2056932153e+00 
15000 6.1699557973e+00 -1.1006185958e-01 2.4304326533e+00 -4.2096328399e+00 2.4304326533e+00 4.2096328399e+00 
15100 6.1689817642e+00 -1.0966171191e-01 2.4326972487e+00 -4.2135552342e+00 2.4326972487e+00 4.2135552342e+00 
15200 6.1680204984e+00 -1.0924225472e-01 2.4349515085e+00 -4.2174597266e+00 2.4349515085e+00 4.2174597266e+00 
15300 6.1670717220e+00 -1.0880436678e-01 2.4371950647e+00 -4.2213456800e+00 2.4371950647e+00 4.2213456800e+00 
15400 6.1661351606e+00 -1.0834890088e-01 2.4394275688e+00 -4.2252124906e+00 2.4394275688e+00 4.2252124906e+00 
15500 6.1652105444e+00 -1.0787668390e-01 2.4416486908e+00 -4.2290595867e+00 2.4416486908e+00 4.2290595867e+00 
15600 6.1642976082e+00 -1.0738851691e-01 2.4438581188e+00 -4.2328864282e+00 2.4438581188e+00 4.2328864282e+00 
15700 6.1633960924e+00 -1.0688517543e-01 2.4460555580e+00 -4.2366925045e+00 2.4460555580e+00 4.2366925045e+00 
15800 6.1625057431e+00 -1.0636740964e-01 2.4482407306e+00 -4.2404773346e+00 2.4482407306e+00 4.2404773346e+00 
15900 6.1616263128e+00 -1.0583594465e-01 2.4504133749e+00 -4.2442404649e+00 2.4504133749e+00 4.2442404649e+00 
16000 6.1607575603e+00 -1.0529148083e-01 2.4525732447e+00 -4.2479814691e+00 2.4525732447e+00 4.2479814691e+00 
16100 6.1598992514e+00 -1.0473469415e-01 2.4547201087e+00 -4.2516999467e+00 2.4547201087e+00 4.2516999467e+00 
16200 6.1590511594e+00 -1.0416623656e-01 2.4568537502e+00 -4.2553955221e+00 2.4568537502e+00 4.2553955221e+00 
16300 6.1582130644e+00 -1.0358673643e-01 2.4589739660e+00 -4.2590678436e+00 2.4589739660e+00 4.2590678436e+00 
16400 6.1573847547e+00 -1.0299679893e-01 2.4610805664e+00 -4.2627165826e+00 2.4610805664e+00 4.2627165826e+00 
16500 6.1565660258e+00 -1.0239700655e-01 2.4631733744e+00 -4.2663414324e+00 2.4631733744e+00 4.2663414324e+00 
16600 6.1557566814e+00 -1.0178791950e-01 2.4652522252e+00 -4.2699421075e+00 2.4652522252e+00 4.2699421075e+00 
16700 6.1549565329e+00 -1.0117007625e-01 2.4673169655e+00 -4.2735183426e+00 2.4673169655e+00 4.2735183426e+00 
16800 6.1541653997e+00 -1.0054399404e-01 2.4693674535e+00 -4.2770698920e+00 2.4693674535e+00 4.2770698920e+00 
16900 6.1533831091e+00 -9.9910169335e-02 2.4714035579e+00 -4.2805965283e+00 2.4714035579e+00 4.2805965283e+00 
17000 6.1526094963e+00 -9.9269078404e-02 2.4734251577e+00 -4.2840980418e+00 2.4734251577e+00 4.2840980418e+00 
17100 6.1518444044e+00 -9.8621177823e-02 2.4754321416e+00 -4.2875742399e+00 2.4754321416e+00 4.2875742399e+00 
17200 6.1510876843e+00 -9.7966905015e-02 2.4774244077e+00 -4.2910249461e+00 2.4774244077e+00 4.2910249461e+00 
17300 6.1503391944e+00 -9.7306678784e-02 2.4794018631e+00 -4.2944499993e+00 2.4794018631e+00 4.2944499993e+00 
17400 6.1495988006e+00 -9.6640899856e-02 2.4813644233e+00 -4.2978492532e+00 2.4813644233e+00 4.2978492532e+00 
17500 6.1488663763e+00 -9.5969951415e-02 2.4833120116e+00 -4.3012225752e+00 2.4833120116e+00 4.3012225752e+00 
17600 6.1481418020e+00 -9.5294199641e-02 2.4852445595e+00 -4.3045698463e+00 2.4852445595e+00 4.3045698463e+00 
17700 6.1474249651e+00 -9.4613994246e-02 2.4871620055e+00 -4.3078909601e+00 2.4871620055e+00 4.3078909601e+00 
17800 6.1467157600e+00 -9.3929669002e-02 2.4890642950e+00 -4.3111858222e+00 2.4890642950e+00 4.3111858222e+00 
17900 6.1460140873e+00 -9.3241542268e-02 2.4909513802e+00 -4.3144543497e+00 2.4909513802e+00 4.3144543497e+00 
18000 6.1453198543e+00 -9.2549917511e-02 2.4928232194e+00 -4.3176964703e+00 2.4928232194e+00 4.3176964703e+00 
18100 6.1446329740e+00 -9.1855083817e-02 2.4946797770e+00 -4.3209121223e+00 2.4946797770e+00 4.3209121223e+00 
18200 6.1439533654e+00 -9.1157316402e-02 2.4965210228e+00 -4.3241012536e+00 2.4965210228e+00 4.3241012536e+00 
18300 6.1432809529e+00 -9.0456877108e-02 2.4983469321e+00 -4.3272638212e+00 2.4983469321e+00 4.3272638212e+00 
18400 6.1426156665e+00 -8.9754014891e-02 2.5001574851e+00 -4.3303997911e+00 2.5001574851e+00 4.3303997911e+00 
18500 6.1419574407e+00 -8.9048966307e-02 2.5019526670e+00 -4.3335091373e+00 2.5019526670e+00 4.3335091373e+00 
18600 6.1413062150e+00 -8.8341955979e-02 2.5037324671e+00 -4.3365918416e+00 2.5037324671e+00 4.3365918416e+00 
18700 6.1406619333e+00 -8.7633197062e-02 2.5054968793e+00 -4.3396478932e+00 2.5054968793e+00 4.3396478932e+00 
18800 6.1400245436e+00 -8.6922891696e-02 2.5072459014e+00 -4.3426772882e+00 2.5072459014e+00 4.3426772882e+00 
18900 6.1393939978e+00 -8.6211231442e-02 2.5089795347e+00 -4.3456800292e+00 2.5089795347e+00 4.3456800292e+00 
19000 6.1387702514e+00 -8.5498397721e-02 2.5106977843e+00 -4.3486561249e+00 2.5106977843e+00 4.3486561249e+00 
19100 6.1381532629e+00 -8.4784562227e-02 2.5124006586e+00 -4.3516055897e+00 2.5124006586e+00 4.3516055897e+00 
19200 6.1375429944e+00 -8.4069887343e-02 2.5140881691e+00 -4.3545284435e+00 2.5140881691e+00 4.3545284435e+00 
19300 6.1369394101e+00 -8.3354526534e-02 2.5157603300e+00 -4.3574247112e+00 2.5157603300e+00 4.3574247112e+00 
19400 6.1363424772e+00 -8.2638624740e-02 2.5174171585e+00 -4.3602944224e+00 2.5174171585e+00 4.3602944224e+00 
19500 6.1357521648e+00 -8.1922318752e-02 2.5190586743e+00 -4.3631376111e+00 2.5190586743e+00 4.3631376111e+00 
19600 6.1351684440e+00 -8.1205737574e-02 2.5206848993e+00 -4.3659543155e+00 2.5206848993e+00 4.3659543155e+00 
19700 6.1345912879e+00 -8.0489002786e-02 2.5222958579e+00 -4.3687445776e+00 2.5222958579e+00 4.3687445776e+00 
19800 6.1340206705e+00 -7.9772228882e-02 2.5238915764e+00 -4.3715084431e+00 2.5238915764e+00 4.3715084431e+00 
19900 6.1334565676e+00 -7.9055523608e-02 2.5254720831e+00 -4.3742459610e+00 2.5254720831e+00 4.3742459610e+00 
20000 6.1328989557e+00 -7.8338988283e-02 2.5270374079e+00 -4.3769571832e+00 2.5270374079e+00 4.3769571832e+00 
20100 6.1323478121e+00 -7.7622718115e-02 2.5285875827e+00 -4.3796421646e+00 2.5285875827e+00 4.3796421646e+00 
20200 6.1318031146e+00 -7.6906802503e-02 2.5301226406e+00 -4.3823009628e+00 2.5301226406e+00 4.3823009628e+00 
20300 6.1312648417e+00 -7.6191325328e-02 2.5316426162e+00 -4.3849336379e+00 2.5316426162e+00 4.3849336379e+00 
20400 6.1307329716e+00 -7.5476365239e-02 2.5331475457e+00 -4.3875402521e+00 2.5331475457e+00 4.3875402521e+00 
20500 6.1302074829e+00 -7.4761995923e-02 2.5346374660e+00 -4.3901208698e+00 2.5346374660e+00 4.3901208698e+00 
20600 6.1296883538e+00 -7.4048286371e-02 2.5361124154e+00 -4.3926755572e+00 2.5361124154e+00 4.3926755572e+00 
20700 6.1291755621e+00 -7.3335301134e-02 2.5375724332e+00 -4.3952043822e+00 2.5375724332e+00 4.3952043822e+00 
20800 6.1286690853e+00 -7.2623100561e-02 2.5390175596e+00 -4.3977074145e+00 2.5390175596e+00 4.3977074145e+00 
20900 6.1281689000e+00 -7.1911741044e-02 2.5404478355e+00 -4.4001847251e+00 2.5404478355e+00 4.4001847251e+00 
21000 6.1276749823e+00 -7.1201275239e-02 2.5418633028e+00 -4.4026363863e+00 2.5418633028e+00 4.4026363863e+00 
21100 6.1271873072e+00 -7.0491752286e-02 2.5432640038e+00 -4.4050624716e+00 2.5432640038e+00 4.4050624716e+00 
21200 6.1267058486e+00 -6.9783218020e-02 2.5446499816e+00 -4.4074630557e+00 2.5446499816e+00 4.4074630557e+00 
21300 6.1262305794e+00 -6.9075715175e-02 2.5460212799e+00 -4.4098382139e+00 2.5460212799e+00 4.4098382139e+00 
21400 6.1257614712e+00 -6.8369283573e-02 2.5473779427e+00 -4.4121880228e+00 2.5473779427e+00 4.4121880228e+00 
21500 6.1252984944e+00 -6.7663960314e-02 2.5487200145e+00 -4.4145125594e+00 2.5487200145e+00 4.4145125594e+00 
21600 6.1248416177e+00 -6.6959779954e-02 2.5500475403e+00 -4.4168119015e+00 2.5500475403e+00 4.4168119015e+00 
21700 6.1243908086e+00 -6.6256774675e-02 2.5513605653e+00 -4.4190861275e+00 2.5513605653e+00 4.4190861275e+00 
21800 6.1239460330e+00 -6.5554974449e-02 2.5526591350e+00 -4.4213353162e+00 2.5526591350e+00 4.4213353162e+00 
21900 6.1235072551e+00 -6.4854407196e-02 2.5539432952e+00 -4.4235595470e+00 2.5539432952e+00 4.4235595470e+00 
22000 6.1230744374e+00 -6.4155098934e-02 2.5552130920e+00 -4.4257588995e+00 2.5552130920e+00 4.4257588995e+00 
22100 6.1226475409e+00 -6.3457073920e-02 2.5564685714e+00 -4.4279334537e+00 2.5564685714e+00 4.4279334537e+00 
22200 6.1222265247e+00 -6.2760354790e-02 2.5577097798e+00 -4.4300832897e+00 2.5577097798e+00 4.4300832897e+00 
22300 6.1218113464e+00 -6.2064962688e-02 2.5589367636e+00 -4.4322084880e+00 2.5589367636e+00 4.4322084880e+00 
22400 6.1214019614e+00 -6.1370917388e-02 2.5601495694e+00 -4.4343091291e+00 2.5601495694e+00 4.4343091291e+00 
22500 6.1209983238e+00 -6.0678237419e-02 2.5613482435e+00 -4.4363852937e+00 2.5613482435e+00 4.4363852937e+00 
22600 6.1206003857e+00 -5.9986940169e-02 2.5625328328e+00 -4.4384370625e+00 2.5625328328e+00 4.4384370625e+00 
22700 6.1202080973e+00 -5.9297042000e-02 2.5637033837e+00 -4.4404645162e+00 2.5637033837e+00 4.4404645162e+00 
22800 6.1198214071e+00 -5.8608558343e-02 2.5648599430e+00 -4.4424677356e+00 2.5648599430e+00 4.4424677356e+00 
22900 6.1194402621e+00 -5.7921503799e-02 2.5660025572e+00 -4.4444468014e+00 2.5660025572e+00 4.4444468014e+00 
23000 6.1190646071e+00 -5.7235892229e-02 2.5671312729e+00 -4.4464017944e+00 2.5671312729e+00 4.4464017944e+00 
23100 6.1186943856e+00 -5.6551736836e-02 2.5682461367e+00 -4.4483327951e+00 2.5682461367e+00 4.4483327951e+00 
23200 6.1183295390e+00 -5.5869050253e-02 2.5693471950e+00 -4.4502398840e+00 2.5693471950e+00 4.4502398840e+00 
23300 6.1179700074e+00 -5.5187844614e-02 2.5704344943e+00 -4.4521231417e+00 2.5704344943e+00 4.4521231417e+00 
23400 6.1176157291e+00 -5.4508131628e-02 2.5715080810e+00 -4.4539826484e+00 2.5715080810e+00 4.4539826484e+00 
23500 6.1172666408e+00 -5.3829922647e-02 2.5725680013e+00 -4.4558184842e+00 2.5725680013e+00 4.4558184842e+00 
23600 6.1169226775e+00 -5.3153228730e-02 2.5736143016e+00 -4.4576307294e+00 2.5736143016e+00 4.4576307294e+00 
23700 6.1165837732e+00 -5.2478060698e-02 2.5746470278e+00 -4.4594194638e+00 2.5746470278e+00 4.4594194638e+00 
23800 6.1162498598e+00 -5.1804429194e-02 2.5756662262e+00 -4.4611847671e+00 2.5756662262e+00 4.4611847671e+00 
23900 6.1159208682e+00 -5.1132344732e-02 2.5766719427e+00 -4.4629267192e+00 2.5766719427e+00 4.4629267192e+00 
24000 6.1155967279e+00 -5.0461817745e-02 2.5776642232e+00 -4.4646453994e+00 2.5776642232e+00 4.4646453994e+00 
24100 6.1152773670e+00 -4.9792858627e-02 2.5786431135e+00 -4.4663408871e+00 2.5786431135e+00 4.4663408871e+00 
24200 6.1149627125e+00 -4.9125477776e-02 2.5796086593e+00 -4.4680132616e+00 2.5796086593e+00 4.4680132616e+00 
24300 6.1146526900e+00 -4.8459685631e-02 2.5805609065e+00 -4.4696626020e+00 2.5805609065e+00 4.4696626020e+00 
24400 6.1143472242e+00 -4.7795492703e-02 2.5814999004e+00 -4.4712889873e+00 2.5814999004e+00 4.4712889873e+00 
24500 6.1140462387e+00 -4.7132909608e-02 2.5824256868e+00 -4.4728924963e+00 2.5824256868e+00 4.4728924963e+00 
24600 6.1137496560e+00 -4.6471947093e-02 2.5833383110e+00 -4.4744732079e+00 2.5833383110e+00 4.4744732079e+00 
24700 6.1134573977e+00 -4.5812616062e-02 2.5842378185e+00 -4.4760312005e+00 2.5842378185e+00 4.4760312005e+00 
24800 6.1131693847e+00 -4.5154927598e-02 2.5851242546e+00 -4.4775665529e+00 2.5851242546e+00 4.4775665529e+00 
24900 6.1128855368e+00 -4.4498892981e-02 2.5859976647e+00 -4.4790793434e+00 2.5859976647e+00 4.4790793434e+00 
25000 6.1126057733e+00 -4.3844523705e-02 2.5868580939e+00 -4.4805696506e+00 2.5868580939e+00 4.4805696506e+00 
25100 6.1123300128e+00 -4.3191831493e-02 2.5877055876e+00 -4.4820375527e+00 2.5877055876e+00 4.4820375527e+00 
25200 6.1120581732e+00 -4.2540828306e-02 2.5885401908e+00 -4.4834831280e+00 2.5885401908e+00 4.4834831280e+00 
25300 6.1117901717e+00 -4.1891526357e-02 2.5893619490e+00 -4.4849064548e+00 2.5893619490e+00 4.4849064548e+00 
25400 6.1115259255e+00 -4.1243938116e-02 2.5901709071e+00 -4.4863076113e+00 2.5901709071e+00 4.4863076113e+00 
25500 6.1112653508e+00 -4.0598076312e-02 2.5909671103e+00 -4.4876866758e+00 2.5909671103e+00 4.4876866758e+00 
25600 6.1110083639e+00 -3.9953953944e-02 2.5917506039e+00 -4.4890437265e+00 2.5917506039e+00 4.4890437265e+00 
25700 6.1107548804e+00 -3.9311584275e-02 2.5925214330e+00 -4.4903788416e+00 2.5925214330e+00 4.4903788416e+00 
25800 6.1105048161e+00 -3.8670980838e-02 2.5932796427e+00 -4.4916920994e+00 2.5932796427e+00 4.4916920994e+00 
25900 6.1102580861e+00 -3.8032157427e-02 2.5940252783e+00 -4.4929835782e+00 2.5940252783e+00 4.4929835782e+00 
26000 6.1100146058e+00 -3.7395128102e-02 2.5947583851e+00 -4.4942533563e+00 2.5947583851e+00 4.4942533563e+00 
26100 6.1097742903e+00 -3.6759907175e-02 2.5954790082e+00 -4.4955015122e+00 2.5954790082e+00 4.4955015122e+00 
26200 6.1095370548e+00 -3.6126509214e-02 2.5961871931e+00 -4.4967281243e+00 2.5961871931e+00 4.4967281243e+00 
26300 6.1093028143e+00 -3.5494949024e-02 2.5968829850e+00 -4.4979332713e+00 2.5968829850e+00 4.4979332713e+00 
26400 6.1090714841e+00 -3.4865241649e-02 2.5975664294e+00 -4.4991170318e+00 2.5975664294e+00 4.4991170318e+00 
26500 6.1088429796e+00 -3.4237402354e-02 2.5982375719e+00 -4.5002794847e+00 2.5982375719e+00 4.5002794847e+00 
26600 6.1086172162e+00 -3.3611446618e-02 2.5988964579e+00 -4.5014207088e+00 2.5988964579e+00 4.5014207088e+00 
26700 6.1083941098e+00 -3.2987390122e-02 2.5995431332e+00 -4.5025407831e+00 2.5995431332e+00 4.5025407831e+00 
26800 6.1081735764e+00 -3.2365248735e-02 2.6001776434e+00 -4.5036397870e+00 2.6001776434e+00 4.5036397870e+00 
26900 6.1079555321e+00 -3.1745038502e-02 2.6008000343e+00 -4.5047177997e+00 2.6008000343e+00 4.5047177997e+00 
27000 6.1077398936e+00 -3.1126775627e-02 2.6014103519e+00 -4.5057749008e+00 2.6014103519e+00 4.5057749008e+00 
27100 6.1075265780e+00 -3.0510476462e-02 2.6020086421e+00 -4.5068111699e+00 2.6020086421e+00 4.5068111699e+00 
27200 6.1073155026e+00 -2.9896157491e-02 2.6025949511e+00 -4.5078266869e+00 2.6025949511e+00 4.5078266869e+00 
27300 6.1071065853e+00 -2.9283835310e-02 2.6031693251e+00 -4.5088215318e+00 2.6031693251e+00 4.5088215318e+00 
27400 6.1068997444e+00 -2.8673526617e-02 2.6037318104e+00 -4.5097957849e+00 2.6037318104e+00 4.5097957849e+00 
27500 6.1066948987e+00 -2.8065248189e-02 2.6042824535e+00 -4.5107495267e+00 2.6042824535e+00 4.5107495267e+00 
27600 6.1064919675e+00 -2.7459016874e-02 2.6048213009e+00 -4.5116828377e+00 2.6048213009e+00 4.5116828377e+00 
27700 6.1062908707e+00 -2.6854849563e-02 2.6053483993e+00 -4.5125957989e+00 2.6053483993e+00 4.5125957989e+00 
27800 6.1060915287e+00 -2.6252763183e-02 2.6058637955e+00 -4.5134884914e+00 2.6058637955e+00 4.5134884914e+00 
27900 6.1058938625e+00 -2.5652774674e-02 2.6063675365e+00 -4.5143609964e+00 2.6063675365e+00 4.5143609964e+00 
28000 6.1056977939e+00 -2.5054900976e-02 2.6068596693e+00 -4.5152133955e+00 2.6068596693e+00 4.5152133955e+00 
28100 6.1055032450e+00 -2.4459159007e-02 2.6073402412e+00 -4.5160457705e+00 2.6073402412e+00 4.5160457705e+00 
28200 6.1053101387e+00 -2.3865565650e-02 2.6078092996e+00 -4.5168582033e+00 2.6078092996e+00 4.5168582033e+00 
28300 6.1051183987e+00 -2.3274137739e-02 2.6082668917e+00 -4.5176507762e+00 2.6082668917e+00 4.5176507762e+00 
28400 6.1049279489e+00 -2.2684892034e-02 2.6087130654e+00 -4.5184235717e+00 2.6087130654e+00 4.5184235717e+00 
28500 6.1047387145e+00 -2.2097845214e-02 2.6091478684e+00 -4.5191766725e+00 2.6091478684e+00 4.5191766725e+00 
28600 6.1045506207e+00 -2.1513013858e-02 2.6095713485e+00 -4.5199101615e+00 2.6095713485e+00 4.5199101615e+00 
28700 6.1043635940e+00 -2.0930414427e-02 2.6099835537e+00 -4.5206241219e+00 2.6099835537e+00 4.5206241219e+00 
28800 6.1041775611e+00 -2.0350063254e-02 2.6103845323e+00 -4.5213186372e+00 2.6103845323e+00 4.5213186372e+00 
28900 6.1039924497e+00 -1.9771976526e-02 2.6107743325e+00 -4.5219937910e+00 2.6107743325e+00 4.5219937910e+00 
29000 6.1038081879e+00 -1.9196170275e-02 2.6111530028e+00 -4.5226496672e+00 2.6111530028e+00 4.5226496672e+00 
29100 6.1036247048e+00 -1.8622660359e-02 2.6115205918e+00 -4.5232863500e+00 2.6115205918e+00 4.5232863500e+00 
29200 6.1034419300e+00 -1.8051462455e-02 2.6118771481e+00 -4.5239039237e+00 2.6118771481e+00 4.5239039237e+00 
29300 6.1032597937e+00 -1.7482592042e-02 2.6122227207e+00 -4.5245024729e+00 2.6122227207e+00 4.5245024729e+00 
29400 6.1030782269e+00 -1.6916064396e-02 2.6125573584e+00 -4.5250820824e+00 2.6125573584e+00 4.5250820824e+00 
29500 6.1028971612e+00 -1.6351894576e-02 2.6128811104e+00 -4.5256428373e+00 2.6128811104e+00 4.5256428373e+00 
29600 6.1027165290e+00 -1.5790097414e-02 2.6131940259e+00 -4.5261848229e+00 2.6131940259e+00 4.5261848229e+00 
29700 6.1025362630e+00 -1.5230687510e-02 2.6134961543e+00 -4.5267081246e+00 2.6134961543e+00 4.5267081246e+00 
29800 6.1023562970e+00 -1.4673679219e-02 2.6137875450e+00 -4.5272128281e+00 2.6137875450e+00 4.5272128281e+00 
29900 6.1021765650e+00 -1.4119086651e-02 2.6140682477e+00 -4.5276990194e+00 2.6140682477e+00 4.5276990194e+00 
30000 6.1019970018e+00 -1.3566923657e-02 2.6143383119e+00 -4.5281667845e+00 2.6143383119e+00 4.5281667845e+00 
30100 6.1018175429e+00 -1.3017203830e-02 2.6145977877e+00 -4.5286162097e+00 2.6145977877e+00 4.5286162097e+00 
30200 6.1016381241e+00 -1.2469940500e-02 2.6148467248e+00 -4.5290473814e+00 2.6148467248e+00 4.5290473814e+00 
30300 6.1014586821e+00 -1.1925146728e-02 2.6150851734e+00 -4.5294603865e+00 2.6150851734e+00 4.5294603865e+00 
30400 6.1012791540e+00 -1.1382835307e-02 2.6153131836e+00 -4.5298553117e+00 2.6153131836e+00 4.5298553117e+00 
30500 6.1010994773e+00 -1.0843018757e-02 2.6155308056e+00 -4.5302322440e+00 2.6155308056e+00 4.5302322440e+00 
30600 6.1009195902e+00 -1.0305709330e-02 2.6157380897e+00 -4.5305912707e+00 2.6157380897e+00 4.5305912707e+00 
30700 6.1007394315e+00 -9.7709190065e-03 2.6159350865e+00 -4.5309324791e+00 2.6159350865e+00 4.5309324791e+00 
30800 6.1005589402e+00 -9.2386594987e-03 2.6161218464e+00 -4.5312559568e+00 2.6161218464e+00 4.5312559568e+00 
30900 6.1003780559e+00 -8.7089422542e-03 2.6162984200e+00 -4.5315617913e+00 2.6162984200e+00 4.5315617913e+00 
31000 6.1001967188e+00 -8.1817784592e-03 2.6164648581e+00 -4.5318500705e+00 2.6164648581e+00 4.5318500705e+00 
31100 6.1000148694e+00 -7.6571790433e-03 2.6166212115e+00 -4.5321208824e+00 2.6166212115e+00 4.5321208824e+00 
31200 6.0998324486e+00 -7.1351546861e-03 2.6167675309e+00 -4.5323743151e+00 2.6167675309e+00 4.5323743151e+00 
31300 6.0996493976e+00 -6.6157158238e-03 2.6169038674e+00 -4.5326104568e+00 2.6169038674e+00 4.5326104568e+00 
31400 6.0994656583e+00 -6.0988726576e-03 2.6170302719e+00 -4.5328293958e+00 2.6170302719e+00 4.5328293958e+00 
31500 6.0992811727e+00 -5.5846351627e-03 2.6171467955e+00 -4.5330312207e+00 2.6171467955e+00 4.5330312207e+00 
31600 6.0990958831e+00 -5.0730130985e-03 2.6172534894e+00 -4.5332160200e+00 2.6172534894e+00 4.5332160200e+00 
31700 6.0989097324e+00 -4.5640160201e-03 2.6173504049e+00 -4.5333838824e+00 2.6173504049e+00 4.5333838824e+00 
31800 6.0987226636e+00 -4.0576532904e-03 2.6174375931e+00 -4.5335348968e+00 2.6174375931e+00 4.5335348968e+00 
31900 6.0985346200e+00 -3.5539340932e-03 2.6175151054e+00 -4.5336691521e+00 2.6175151054e+00 4.5336691521e+00 
32000 6.0983455452e+00 -3.0528674479e-03 2.6175829932e+00 -4.5337867373e+00 2.6175829932e+00 4.5337867373e+00 
32100 6.0981553831e+00 -2.5544622246e-03 2.6176413081e+00 -4.5338877416e+00 2.6176413081e+00 4.5338877416e+00 
32200 6.0979640777e+00 -2.0587271602e-03 2.6176901014e+00 -4.5339722542e+00 2.6176901014e+00 4.5339722542e+00 
32300 6.0977715734e+00 -1.5656708760e-03 2.6177294249e+00 -4.5340403644e+00 2.6177294249e+00 4.5340403644e+00 
32400 6.0975778148e+00 -1.0753018959e-03 2.6177593301e+00 -4.5340921617e+00 2.6177593301e+00 4.5340921617e+00 
32500 6.0973827464e+00 -5.8762866538e-04 2.6177798687e+00 -4.5341277356e+00 2.6177798687e+00 4.5341277356e+00 
32600 6.0971863132e+00 -1.0265957153e-04 2.6177910925e+00 -4.5341471758e+00 2.6177910925e+00 4.5341471758e+00 
32700 6.0969884602e+00 3.7959703567e-04 2.6177930533e+00 -4.5341505720e+00 2.6177930533e+00 4.5341505720e+00 
32800 6.0967891326e+00 8.5913282168e-04 2.6177858030e+00 -4.5341380141e+00 2.6177858030e+00 4.5341380141e+00 
32900 6.0965882758e+00 1.3359394446e-03 2.6177693935e+00 -4.5341095920e+00 2.6177693935e+00 4.5341095920e+00 
33000 6.0963858351e+00 1.8100085317e-03 2.6177438768e+00 -4.5340653957e+00 2.6177438768e+00 4.5340653957e+00 
33100 6.0961817561e+00 2.2813316547e-03 2.6177093049e+00 -4.5340055156e+00 2.6177093049e+00 4.5340055156e+00 
33200 6.0959759844e+00 2.7499003052e-03 2.6176657301e+00 -4.5339300417e+00 2.6176657301e+00 4.5339300417e+00 
33300 6.0957684658e+00 3.2157058681e-03 2.6176132044e+00 -4.5338390647e+00 2.6176132044e+00 4.5338390647e+00 
33400 6.0955591461e+00 3.6787395953e-03 2.6175517803e+00 -4.5337326749e+00 2.6175517803e+00 4.5337326749e+00 
33500 6.0953479711e+00 4.1389925784e-03 2.6174815100e+00 -4.5336109632e+00 2.6174815100e+00 4.5336109632e+00 
33600 6.0951348868e+00 4.5964557202e-03 2.6174024460e+00 -4.5334740203e+00 2.6174024460e+00 4.5334740203e+00 
33700 6.0949198391e+00 5.0511197065e-03 2.6173146408e+00 -4.5333219373e+00 2.6173146408e+00 4.5333219373e+00 
33800 6.0947027741e+00 5.5029749767e-03 2.6172181471e+00 -4.5331548052e+00 2.6172181471e+00 4.5331548052e+00 
33900 6.0944836378e+00 5.9520116936e-03 2.6171130175e+00 -4.5329727155e+00 2.6171130175e+00 4.5329727155e+00 
34000 6.0942623764e+00 6.3982197136e-03 2.6169993051e+00 -4.5327757597e+00 2.6169993051e+00 4.5327757597e+00 
34100 6.0940389361e+00 6.8415885553e-03 2.6168770626e+00 -4.5325640295e+00 2.6168770626e+00 4.5325640295e+00 
34200 6.0938132629e+00 7.2821073681e-03 2.6167463432e+00 -4.5323376169e+00 2.6167463432e+00 4.5323376169e+00 
34300 6.0935853032e+00 7.7197649010e-03 2.6166072001e+00 -4.5320966140e+00 2.6166072001e+00 4.5320966140e+00 
34400 6.0933550032e+00 8.1545494697e-03 2.6164596867e+00 -4.5318411133e+00 2.6164596867e+00 4.5318411133e+00 
34500 6.0931223093e+00 8.5864489247e-03 2.6163038565e+00 -4.5315712075e+00 2.6163038565e+00 4.5315712075e+00 
34600 6.0928871677e+00 9.0154506181e-03 2.6161397632e+00 -4.5312869896e+00 2.6161397632e+00 4.5312869896e+00 
34700 6.0926495248e+00 9.4415413710e-03 2.6159674606e+00 -4.5309885528e+00 2.6159674606e+00 4.5309885528e+00 
34800 6.0924093272e+00 9.8647074398e-03 2.6157870029e+00 -4.5306759908e+00 2.6157870029e+00 4.5306759908e+00 
34900 6.0921665213e+00 1.0284934483e-02 2.6155984442e+00 -4.5303493975e+00 2.6155984442e+00 4.5303493975e+00 
35000 6.0919210538e+00 1.0702207528e-02 2.6154018389e+00 -4.5300088673e+00 2.6154018389e+00 4.5300088673e+00 
35100 6.0916728712e+00 1.1116510937e-02 2.6151972419e+00 -4.5296544948e+00 2.6151972419e+00 4.5296544948e+00 
35200 6.0914219203e+00 1.1527828375e-02 2.6149847081e+00 -4.5292863754e+00 2.6149847081e+00 4.5292863754e+00 
35300 6.0911681481e+00 1.1936142773e-02 2.6147642925e+00 -4.5289046044e+00 2.6147642925e+00 4.5289046044e+00 
35400 6.0909115015e+00 1.2341436299e-02 2.6145360507e+00 -4.5285092781e+00 2.6145360507e+00 4.5285092781e+00 
35500 6.0906519276e+00 1.2743690322e-02 2.6143000385e+00 -4.5281004929e+00 2.6143000385e+00 4.5281004929e+00 
35600 6.0903893737e+00 1.3142885381e-02 2.6140563118e+00 -4.5276783459e+00 2.6140563118e+00 4.5276783459e+00 
35700 6.0901237873e+00 1.3539001149e-02 2.6138049271e+00 -4.5272429348e+00 2.6138049271e+00 4.5272429348e+00 
35800 6.0898551161e+00 1.3932016405e-02 2.6135459411e+00 -4.5267943579e+00 2.6135459411e+00 4.5267943579e+00 
35900 6.0895833079e+00 1.4321909000e-02 2.6132794109e+00 -4.5263327140e+00 2.6132794109e+00 4.5263327140e+00 
36000 6.0893083108e+00 1.4708655828e-02 2.6130053939e+00 -4.5258581027e+00 2.6130053939e+00 4.5258581027e+00 
36100 6.0890300732e+00 1.5092232791e-02 2.6127239480e+00 -4.5253706242e+00 2.6127239480e+00 4.5253706242e+00 
36200 6.0887485439e+00 1.5472614774e-02 2.6124351316e+00 -4.5248703793e+00 2.6124351316e+00 4.5248703793e+00 
36300 6.0884636718e+00 1.5849775612e-02 2.6121390032e+00 -4.5243574700e+00 2.6121390032e+00 4.5243574700e+00 
36400 6.0881754064e+00 1.6223688064e-02 2.6118356222e+00 -4.5238319986e+00 2.6118356222e+00 4.5238319986e+00 
36500 6.0878836975e+00 1.6594323786e-02 2.6115250481e+00 -4.5232940686e+00 2.6115250481e+00 4.5232940686e+00 
36600 6.0875884952e+00 1.6961653302e-02 2.6112073413e+00 -4.5227437842e+00 2.6112073413e+00 4.5227437842e+00 
36700 6.0872897503e+00 1.7325645980e-02 2.6108825624e+00 -4.5221812506e+00 2.6108825624e+00 4.5221812506e+00 
36800 6.0869874139e+00 1.7686270008e-02 2.6105507727e+00 -4.5216065740e+00 2.6105507727e+00 4.5216065740e+00 
36900 6.0866814379e+00 1.8043492373e-02 2.6102120341e+00 -4.5210198615e+00 2.6102120341e+00 4.5210198615e+00 
37000 6.0863717745e+00 1.8397278834e-02 2.6098664090e+00 -4.5204212213e+00 2.6098664090e+00 4.5204212213e+00 
37100 6.0860583768e+00 1.8747593909e-02 2.6095139606e+00 -4.5198107628e+00 2.6095139606e+00 4.5198107628e+00 
37200 6.0857411984e+00 1.9094400850e-02 2.6091547526e+00 -4.5191885964e+00 2.6091547526e+00 4.5191885964e+00 
37300 6.0854201938e+00 1.9437661629e-02 2.6087888496e+00 -4.5185548337e+00 2.6087888496e+00 4.5185548337e+00 
37400 6.0850953182e+00 1.9777336926e-02 2.6084163166e+00 -4.5179095876e+00 2.6084163166e+00 4.5179095876e+00 
37500 6.0847665276e+00 2.0113386108e-02 2.6080372195e+00 -4.5172529723e+00 2.6080372195e+00 4.5172529723e+00 
37600 6.0844337791e+00 2.0445767225e-02 2.6076516251e+00 -4.5165851032e+00 2.6076516251e+00 4.5165851032e+00 
37700 6.0840970305e+00 2.0774436998e-02 2.6072596009e+00 -4.5159060972e+00 2.6072596009e+00 4.5159060972e+00 
37800 6.0837562408e+00 2.1099350811e-02 2.6068612150e+00 -4.5152160726e+00 2.6068612150e+00 4.5152160726e+00 
37900 6.0834113700e+00 2.1420462708e-02 2.6064565367e+00 -4.5145151492e+00 2.6064565367e+00 4.5145151492e+00 
38000 6.0830623794e+00 2.1737725388e-02 2.6060456359e+00 -4.5138034482e+00 2.6060456359e+00 4.5138034482e+00 
38100 6.0827092313e+00 2.2051090210e-02 2.6056285836e+00 -4.5130810925e+00 2.6056285836e+00 4.5130810925e+00 
38200 6.0823518895e+00 2.2360507190e-02 2.6052054517e+00 -4.5123482065e+00 2.6052054517e+00 4.5123482065e+00 
38300 6.0819903189e+00 2.2665925011e-02 2.6047763129e+00 -4.5116049163e+00 2.6047763129e+00 4.5116049163e+00 
38400 6.0816244860e+00 2.2967291029e-02 2.6043412411e+00 -4.5108513499e+00 2.6043412411e+00 4.5108513499e+00 
38500 6.0812543589e+00 2.3264551287e-02 2.6039003111e+00 -4.5100876367e+00 2.6039003111e+00 4.5100876367e+00 
38600 6.0808799071e+00 2.3557650526e-02 2.6034535988e+00 -4.5093139083e+00 2.6034535988e+00 4.5093139083e+00 
38700 6.0805011018e+00 2.3846532205e-02 2.6030011812e+00 -4.5085302979e+00 2.6030011812e+00 4.5085302979e+00 
38800 6.0801179160e+00 2.4131138521e-02 2.6025431362e+00 -4.5077369408e+00 2.6025431362e+00 4.5077369408e+00 
38900 6.0797303245e+00 2.4411410433e-02 2.6020795431e+00 -4.5069339739e+00 2.6020795431e+00 4.5069339739e+00 
39000 6.0793383040e+00 2.4687287694e-02 2.6016104821e+00 -4.5061215366e+00 2.6016104821e+00 4.5061215366e+00 
39100 6.0789418332e+00 2.4958708875e-02 2.6011360349e+00 -4.5052997699e+00 2.6011360349e+00 4.5052997699e+00 
39200 6.0785408930e+00 2.5225611409e-02 2.6006562841e+00 -4.5044688171e+00 2.6006562841e+00 4.5044688171e+00 
39300 6.0781354662e+00 2.5487931621e-02 2.6001713137e+00 -4.5036288237e+00 2.6001713137e+00 4.5036288237e+00 
39400 6.0777255380e+00 2.5745604781e-02 2.5996812089e+00 -4.5027799372e+00 2.5996812089e+00 4.5027799372e+00 
39500 6.0773110961e+00 2.5998565141e-02 2.5991860561e+00 -4.5019223075e+00 2.5991860561e+00 4.5019223075e+00 
39600 6.0768921305e+00 2.6246745994e-02 2.5986859432e+00 -4.5010560865e+00 2.5986859432e+00 4.5010560865e+00 
39700 6.0764686337e+00 2.6490079725e-02 2.5981809592e+00 -4.5001814286e+00 2.5981809592e+00 4.5001814286e+00 
39800 6.0760406009e+00 2.6728497873e-02 2.5976711946e+00 -4.4992984904e+00 2.5976711946e+00 4.4992984904e+00 
39900 6.0756080300e+00 2.6961931192e-02 2.5971567412e+00 -4.4984074310e+00 2.5971567412e+00 4.4984074310e+00 
40000 6.0751709219e+00 2.7190309722e-02 2.5966376922e+00 -4.4975084117e+00 2.5966376922e+00 4.4975084117e+00 
40100 6.0747292800e+00 2.7413562860e-02 2.5961141421e+00 -4.4966015964e+00 2.5961141421e+00 4.4966015964e+00 
40200 6.0742831112e+00 2.7631619437e-02 2.5955861870e+00 -4.4956871514e+00 2.5955861870e+00 4.4956871514e+00 
40300 6.0738324252e+00 2.7844407799e-02 2.5950539243e+00 -4.4947652453e+00 2.5950539243e+00 4.4947652453e+00 
40400 6.0733772351e+00 2.8051855895e-02 2.5945174528e+00 -4.4938360495e+00 2.5945174528e+00 4.4938360495e+00 
40500 6.0729175570e+00 2.8253891365e-02 2.5939768729e+00 -4.4928997375e+00 2.5939768729e+00 4.4928997375e+00 
40600 6.0724534106e+00 2.8450441635e-02 2.5934322863e+00 -4.4919564858e+00 2.5934322863e+00 4.4919564858e+00 
40700 6.0719848192e+00 2.8641434017e-02 2.5928837962e+00 -4.4910064731e+00 2.5928837962e+00 4.4910064731e+00 
40800 6.0715118095e+00 2.8826795813e-02 2.5923315073e+00 -4.4900498807e+00 2.5923315073e+00 4.4900498807e+00 
40900 6.0710344119e+00 2.9006454420e-02 2.5917755259e+00 -4.4890868926e+00 2.5917755259e+00 4.4890868926e+00 
41000 6.0705526605e+00 2.9180337445e-02 2.5912159594e+00 -4.4881176951e+00 2.5912159594e+00 4.4881176951e+00 
41100 6.0700665933e+00 2.9348372820e-02 2.5906529172e+00 -4.4871424774e+00 2.5906529172e+00 4.4871424774e+00 
41200 6.0695762523e+00 2.9510488921e-02 2.5900865097e+00 -4.4861614309e+00 2.5900865097e+00 4.4861614309e+00 
41300 6.0690816833e+00 2.9666614696e-02 2.5895168491e+00 -4.4851747497e+00 2.5895168491e+00 4.4851747497e+00 
41400 6.0685829362e+00 2.9816679785e-02 2.5889440488e+00 -4.4841826305e+00 2.5889440488e+00 4.4841826305e+00 
41500 6.0680800653e+00 2.9960614661e-02 2.5883682238e+00 -4.4831852723e+00 2.5883682238e+00 4.4831852723e+00 
41600 6.0675731287e+00 3.0098350758e-02 2.5877894905e+00 -4.4821828768e+00 2.5877894905e+00 4.4821828768e+00 
41700 6.0670621892e+00 3.0229820611e-02 2.5872079667e+00 -4.4811756481e+00 2.5872079667e+00 4.4811756481e+00 
41800 6.0665473137e+00 3.0354957997e-02 2.5866237716e+00 -4.4801637925e+00 2.5866237716e+00 4.4801637925e+00 
41900 6.0660285734e+00 3.0473698079e-02 2.5860370259e+00 -4.4791475191e+00 2.5860370259e+00 4.4791475191e+00 
42000 6.0655060441e+00 3.0585977552e-02 2.5854478514e+00 -4.4781270390e+00 2.5854478514e+00 4.4781270390e+00 
42100 6.0649798060e+00 3.0691734790e-02 2.5848563715e+00 -4.4771025656e+00 2.5848563715e+00 4.4771025656e+00 
42200 6.0644499438e+00 3.0790909999e-02 2.5842627106e+00 -4.4760743149e+00 2.5842627106e+00 4.4760743149e+00 
42300 6.0639165469e+00 3.0883445365e-02 2.5836669947e+00 -4.4750425047e+00 2.5836669947e+00 4.4750425047e+00 
42400 6.0633797090e+00 3.0969285211e-02 2.5830693509e+00 -4.4740073552e+00 2.5830693509e+00 4.4740073552e+00 
42500 6.0628395286e+00 3.1048376146e-02 2.5824699073e+00 -4.4729690885e+00 2.5824699073e+00 4.4729690885e+00 
42600 6.0622961086e+00 3.1120667226e-02 2.5818687934e+00 -4.4719279286e+00 2.5818687934e+00 4.4719279286e+00 
42700 6.0617495566e+00 3.1186110101e-02 2.5812661397e+00 -4.4708841018e+00 2.5812661397e+00 4.4708841018e+00 
42800 6.0611999847e+00 3.1244659173e-02 2.5806620777e+00 -4.4698378358e+00 2.5806620777e+00 4.4698378358e+00 
42900 6.0606475097e+00 3.1296271749e-02 2.5800567401e+00 -4.4687893603e+00 2.5800567401e+00 4.4687893603e+00 
43000 6.0600922527e+00 3.1340908192e-02 2.5794502603e+00 -4.4677389065e+00 2.5794502603e+00 4.4677389065e+00 
43100 6.0595343395e+00 3.1378532071e-02 2.5788427728e+00 -4.4666867072e+00 2.5788427728e+00 4.4666867072e+00 
43200 6.0589739002e+00 3.1409110311e-02 2.5782344127e+00 -4.4656329967e+00 2.5782344127e+00 4.4656329967e+00 
43300 6.0584110692e+00 3.1432613336e-02 2.5776253162e+00 -4.4645780105e+00 2.5776253162e+00 4.4645780105e+00 
43400 6.0578459855e+00 3.1449015212e-02 2.5770156199e+00 -4.4635219855e+00 2.5770156199e+00 4.4635219855e+00 
43500 6.0572787921e+00 3.1458293787e-02 2.5764054611e+00 -4.4624651595e+00 2.5764054611e+00 4.4624651595e+00 
43600 6.0567096363e+00 3.1460430825e-02 2.5757949778e+00 -4.4614077714e+00 2.5757949778e+00 4.4614077714e+00 
43700 6.0561386692e+00 3.1455412135e-02 2.5751843083e+00 -4.4603500608e+00 2.5751843083e+00 4.4603500608e+00 
43800 6.0555660462e+00 3.1443227695e-02 2.5745735915e+00 -4.4592922682e+00 2.5745735915e+00 4.4592922682e+00 
43900 6.0549919261e+00 3.1423871776e-02 2.5739629664e+00 -4.4582346346e+00 2.5739629664e+00 4.4582346346e+00 
44000 6.0544164719e+00 3.1397343048e-02 2.5733525724e+00 -4.4571774012e+00 2.5733525724e+00 4.4571774012e+00 
44100 6.0538398496e+00 3.1363644693e-02 2.5727425491e+00 -4.4561208098e+00 2.5727425491e+00 4.4561208098e+00 
44200 6.0532622290e+00 3.1322784501e-02 2.5721330360e+00 -4.4550651021e+00 2.5721330360e+00 4.4550651021e+00 
44300 6.0526837829e+00 3.1274774962e-02 2.5715241727e+00 -4.4540105199e+00 2.5715241727e+00 4.4540105199e+00 
44400 6.0521046872e+00 3.1219633351e-02 2.5709160986e+00 -4.4529573048e+00 2.5709160986e+00 4.4529573048e+00 
44500 6.0515251207e+00 3.1157381803e-02 2.5703089531e+00 -4.4519056979e+00 2.5703089531e+00 4.4519056979e+00 
44600 6.0509452649e+00 3.1088047382e-02 2.5697028750e+00 -4.4508559399e+00 2.5697028750e+00 4.4508559399e+00 
44700 6.0503653036e+00 3.1011662132e-02 2.5690980030e+00 -4.4498082708e+00 2.5690980030e+00 4.4498082708e+00 
44800 6.0497854231e+00 3.0928263135e-02 2.5684944751e+00 -4.4487629298e+00 2.5684944751e+00 4.4487629298e+00 
44900 6.0492058114e+00 3.0837892542e-02 2.5678924287e+00 -4.4477201549e+00 2.5678924287e+00 4.4477201549e+00 
45000 6.0486266585e+00 3.0740597601e-02 2.5672920007e+00 -4.4466801831e+00 2.5672920007e+00 4.4466801831e+00 
45100 6.0480481559e+00 3.0636430680e-02 2.5666933271e+00 -4.4456432499e+00 2.5666933271e+00 4.4456432499e+00 
45200 6.0474704964e+00 3.0525449270e-02 2.5660965428e+00 -4.4446095893e+00 2.5660965428e+00 4.4446095893e+00 
45300 6.0468938738e+00 3.0407715982e-02 2.5655017821e+00 -4.4435794334e+00 2.5655017821e+00 4.4435794334e+00 
45400 6.0463184826e+00 3.0283298532e-02 2.5649091778e+00 -4.4425530128e+00 2.5649091778e+00 4.4425530128e+00 
45500 6.0457445178e+00 3.0152269716e-02 2.5643188619e+00 -4.4415305555e+00 2.5643188619e+00 4.4415305555e+00 
45600 6.0451721748e+00 3.0014707374e-02 2.5637309647e+00 -4.4405122877e+00 2.5637309647e+00 4.4405122877e+00 
45700 6.0446016487e+00 2.9870694340e-02 2.5631456153e+00 -4.4394984329e+00 2.5631456153e+00 4.4394984329e+00 
45800 6.0440331344e+00 2.9720318385e-02 2.5625629414e+00 -4.4384892121e+00 2.5625629414e+00 4.4384892121e+00 
45900 6.0434668260e+00 2.9563672144e-02 2.5619830689e+00 -4.4374848434e+00 2.5619830689e+00 4.4374848434e+00 
46000 6.0429029167e+00 2.9400853037e-02 2.5614061220e+00 -4.4364855421e+00 2.5614061220e+00 4.4364855421e+00 
46100 6.0423415985e+00 2.9231963177e-02 2.5608322233e+00 -4.4354915203e+00 2.5608322233e+00 4.4354915203e+00 
46200 6.0417830620e+00 2.9057109268e-02 2.5602614932e+00 -4.4345029869e+00 2.5602614932e+00 4.4345029869e+00 
46300 6.0412274956e+00 2.8876402488e-02 2.5596940505e+00 -4.4335201473e+00 2.5596940505e+00 4.4335201473e+00 
46400 6.0406750860e+00 2.8689958373e-02 2.5591300116e+00 -4.4325432032e+00 2.5591300116e+00 4.4325432032e+00 
46500 6.0401260173e+00 2.8497896677e-02 2.5585694908e+00 -4.4315723527e+00 2.5585694908e+00 4.4315723527e+00 
46600 6.0395804707e+00 2.8300341237e-02 2.5580126002e+00 -4.4306077900e+00 2.5580126002e+00 4.4306077900e+00 
46700 6.0390386246e+00 2.8097419817e-02 2.5574594497e+00 -4.4296497052e+00 2.5574594497e+00 4.4296497052e+00 
46800 6.0385006543e+00 2.7889263949e-02 2.5569101465e+00 -4.4286982841e+00 2.5569101465e+00 4.4286982841e+00 
46900 6.0379667312e+00 2.7676008768e-02 2.5563647955e+00 -4.4277537084e+00 2.5563647955e+00 4.4277537084e+00 
47000 6.0374370231e+00 2.7457792837e-02 2.5558234988e+00 -4.4268161552e+00 2.5558234988e+00 4.4268161552e+00 
47100 6.0369116937e+00 2.7234757962e-02 2.5552863563e+00 -4.4258857970e+00 2.5552863563e+00 4.4258857970e+00 
47200 6.0363909022e+00 2.7007049005e-02 2.5547534647e+00 -4.4249628017e+00 2.5547534647e+00 4.4249628017e+00 
47300 6.0358748034e+00 2.6774813693e-02 2.5542249183e+00 -4.4240473324e+00 2.5542249183e+00 4.4240473324e+00 
47400 6.0353635471e+00 2.6538202414e-02 2.5537008083e+00 -4.4231395472e+00 2.5537008083e+00 4.4231395472e+00 
47500 6.0348572784e+00 2.6297368014e-02 2.5531812231e+00 -4.4222395993e+00 2.5531812231e+00 4.4222395993e+00 
47600 6.0343561368e+00 2.6052465592e-02 2.5526662482e+00 -4.4213476366e+00 2.5526662482e+00 4.4213476366e+00 
47700 6.0338602565e+00 2.5803652288e-02 2.5521559661e+00 -4.4204638021e+00 2.5521559661e+00 4.4204638021e+00 
47800 6.0333697660e+00 2.5551087066e-02 2.5516504562e+00 -4.4195882334e+00 2.5516504562e+00 4.4195882334e+00 
47900 6.0328847880e+00 2.5294930501e-02 2.5511497950e+00 -4.4187210626e+00 2.5511497950e+00 4.4187210626e+00 
48000 6.0324054393e+00 2.5035344562e-02 2.5506540555e+00 -4.4178624167e+00 2.5506540555e+00 4.4178624167e+00 
48100 6.0319318306e+00 2.4772492395e-02 2.5501633080e+00 -4.4170124171e+00 2.5501633080e+00 4.4170124171e+00 
48200 6.0314640661e+00 2.4506538101e-02 2.5496776194e+00 -4.4161711798e+00 2.5496776194e+00 4.4161711798e+00 
48300 6.0310022440e+00 2.4237646526e-02 2.5491970534e+00 -4.4153388150e+00 2.5491970534e+00 4.4153388150e+00 
48400 6.0305464556e+00 2.3965983039e-02 2.5487216705e+00 -4.4145154277e+00 2.5487216705e+00 4.4145154277e+00 
48500 6.0300967862e+00 2.3691713319e-02 2.5482515281e+00 -4.4137011170e+00 2.5482515281e+00 4.4137011170e+00 
48600 6.0296533139e+00 2.3415003148e-02 2.5477866800e+00 -4.4128959767e+00 2.5477866800e+00 4.4128959767e+00 
48700 6.0292161107e+00 2.3136018198e-02 2.5473271773e+00 -4.4121000946e+00 2.5473271773e+00 4.4121000946e+00 
48800 6.0287852414e+00 2.2854923826e-02 2.5468730674e+00 -4.4113135531e+00 2.5468730674e+00 4.4113135531e+00 
48900 6.0283607643e+00 2.2571884875e-02 2.5464243946e+00 -4.4105364291e+00 2.5464243946e+00 4.4105364291e+00 
49000 6.0279427311e+00 2.2287065479e-02 2.5459812000e+00 -4.4097687935e+00 2.5459812000e+00 4.4097687935e+00 
49100 6.0275311866e+00 2.2000628868e-02 2.5455435215e+00 -4.4090107121e+00 2.5455435215e+00 4.4090107121e+00 
49200 6.0271261690e+00 2.1712737183e-02 2.5451113936e+00 -4.4082622446e+00 2.5451113936e+00 4.4082622446e+00 
49300 6.0267277098e+00 2.1423551298e-02 2.5446848478e+00 -4.4075234457e+00 2.5446848478e+00 4.4075234457e+00 
49400 6.0263358340e+00 2.1133230644e-02 2.5442639124e+00 -4.4067943641e+00 2.5442639124e+00 4.4067943641e+00 
49500 6.0259505601e+00 2.0841933042e-02 2.5438486124e+00 -4.4060750434e+00 2.5438486124e+00 4.4060750434e+00 
49600 6.0255719001e+00 2.0549814543e-02 2.5434389698e+00 -4.4053655217e+00 2.5434389698e+00 4.4053655217e+00 
49700 6.0251998597e+00 2.0257029271e-02 2.5430350036e+00 -4.4046658316e+00 2.5430350036e+00 4.4046658316e+00 
49800 6.0248344385e+00 1.9963729282e-02 2.5426367294e+00 -4.4039760006e+00 2.5426367294e+00 4.4039760006e+00 
49900 6.0244756299e+00 1.9670064418e-02 2.5422441603e+00 -4.4032960509e+00 2.5422441603e+00 4.4032960509e+00 
50000 6.0241234215e+00 1.9376182182e-02 2.5418573059e+00 -4.4026259994e+00 2.5418573059e+00 4.4026259994e+00 
50100 6.0237777950e+00 1.9082227609e-02 2.5414761732e+00 -4.4019658583e+00 2.5414761732e+00 4.4019658583e+00 
50200 6.0234387266e+00 1.8788343152e-02 2.5411007663e+00 -4.4013156343e+00 2.5411007663e+00 4.4013156343e+00 
50300 6.0231061870e+00 1.8494668571e-02 2.5407310862e+00 -4.4006753296e+00 2.5407310862e+00 4.4006753296e+00 
50400 6.0227801416e+00 1.8201340837e-02 2.5403671313e+00 -4.4000449413e+00 2.5403671313e+00 4.4000449413e+00 
50500 6.0224605507e+00 1.7908494032e-02 2.5400088974e+00 -4.3994244620e+00 2.5400088974e+00 4.3994244620e+00 
50600 6.0221473699e+00 1.7616259271e-02 2.5396563774e+00 -4.3988138794e+00 2.5396563774e+00 4.3988138794e+00 
50700 6.0218405498e+00 1.7324764616e-02 2.5393095616e+00 -4.3982131769e+00 2.5393095616e+00 4.3982131769e+00 
50800 6.0215400369e+00 1.7034135014e-02 2.5389684379e+00 -4.3976223332e+00 2.5389684379e+00 4.3976223332e+00 
50900 6.0212457732e+00 1.6744492228e-02 2.5386329914e+00 -4.3970413229e+00 2.5386329914e+00 4.3970413229e+00 
51000 6.0209576968e+00 1.6455954783e-02 2.5383032050e+00 -4.3964701162e+00 2.5383032050e+00 4.3964701162e+00 
51100 6.0206757417e+00 1.6168637917e-02 2.5379790593e+00 -4.3959086792e+00 2.5379790593e+00 4.3959086792e+00 
51200 6.0203998387e+00 1.5882653542e-02 2.5376605322e+00 -4.3953569742e+00 2.5376605322e+00 4.3953569742e+00 
51300 6.0201299151e+00 1.5598110206e-02 2.5373475998e+00 -4.3948149593e+00 2.5373475998e+00 4.3948149593e+00 
51400 6.0198658948e+00 1.5315113063e-02 2.5370402356e+00 -4.3942825889e+00 2.5370402356e+00 4.3942825889e+00 
51500 6.0196076992e+00 1.5033763857e-02 2.5367384113e+00 -4.3937598138e+00 2.5367384113e+00 4.3937598138e+00 
51600 6.0193552467e+00 1.4754160900e-02 2.5364420963e+00 -4.3932465812e+00 2.5364420963e+00 4.3932465812e+00 
51700 6.0191084534e+00 1.4476399062e-02 2.5361512582e+00 -4.3927428349e+00 2.5361512582e+00 4.3927428349e+00 
51800 6.0188672330e+00 1.4200569770e-02 2.5358658626e+00 -4.3922485153e+00 2.5358658626e+00 4.3922485153e+00 
51900 6.0186314974e+00 1.3926761005e-02 2.5355858733e+00 -4.3917635595e+00 2.5355858733e+00 4.3917635595e+00 
52000 6.0184011566e+00 1.3655057309e-02 2.5353112522e+00 -4.3912879017e+00 2.5353112522e+00 4.3912879017e+00 
52100 6.0181761189e+00 1.3385539796e-02 2.5350419595e+00 -4.3908214731e+00 2.5350419595e+00 4.3908214731e+00 
52200 6.0179562913e+00 1.3118286165e-02 2.5347779538e+00 -4.3903642019e+00 2.5347779538e+00 4.3903642019e+00 
52300 6.0177415798e+00 1.2853370721e-02 2.5345191922e+00 -4.3899160137e+00 2.5345191922e+00 4.3899160137e+00 
52400 6.0175318892e+00 1.2590864396e-02 2.5342656302e+00 -4.3894768314e+00 2.5342656302e+00 4.3894768314e+00 
52500 6.0173271236e+00 1.2330834780e-02 2.5340172218e+00 -4.3890465754e+00 2.5340172218e+00 4.3890465754e+00 
52600 6.0171271865e+00 1.2073346149e-02 2.5337739196e+00 -4.3886251637e+00 2.5337739196e+00 4.3886251637e+00 
52700 6.0169319811e+00 1.1818459498e-02 2.5335356751e+00 -4.3882125120e+00 2.5335356751e+00 4.3882125120e+00 
52800 6.0167414101e+00 1.1566232579e-02 2.5333024382e+00 -4.3878085339e+00 2.5333024382e+00 4.3878085339e+00 
52900 6.0165553764e+00 1.1316719943e-02 2.5330741580e+00 -4.3874131409e+00 2.5330741580e+00 4.3874131409e+00 
53000 6.0163737830e+00 1.1069972980e-02 2.5328507821e+00 -4.3870262425e+00 2.5328507821e+00 4.3870262425e+00 
53100 6.0161965329e+00 1.0826039962e-02 2.5326322573e+00 -4.3866477465e+00 2.5326322573e+00 4.3866477465e+00 
53200 6.0160235297e+00 1.0584966096e-02 2.5324185293e+00 -4.3862775588e+00 2.5324185293e+00 4.3862775588e+00 
53300 6.0158546776e+00 1.0346793568e-02 2.5322095429e+00 -4.3859155837e+00 2.5322095429e+00 4.3859155837e+00 
53400 6.0156898812e+00 1.0111561596e-02 2.5320052420e+00 -4.3855617241e+00 2.5320052420e+00 4.3855617241e+00 
53500 6.0155290461e+00 9.8793064807e-03 2.5318055696e+00 -4.3852158815e+00 2.5318055696e+00 4.3852158815e+00 
53600 6.0153720789e+00 9.6500616627e-03 2.5316104682e+00 -4.3848779558e+00 2.5316104682e+00 4.3848779558e+00 
53700 6.0152188869e+00 9.4238577749e-03 2.5314198792e+00 -4.3845478461e+00 2.5314198792e+00 4.3845478461e+00 
53800 6.0150693788e+00 9.2007227000e-03 2.5312337437e+00 -4.3842254499e+00 2.5312337437e+00 4.3842254499e+00 
53900 6.0149234643e+00 8.9806816280e-03 2.5310520020e+00 -4.3839106641e+00 2.5310520020e+00 4.3839106641e+00 
54000 6.0147810545e+00 8.7637571143e-03 2.5308745941e+00 -4.3836033845e+00 2.5308745941e+00 4.3836033845e+00 
54100 6.0146420620e+00 8.5499691385e-03 2.5307014591e+00 -4.3833035059e+00 2.5307014591e+00 4.3833035059e+00 
54200 6.0145064005e+00 8.3393351643e-03 2.5305325361e+00 -4.3830109227e+00 2.5305325361e+00 4.3830109227e+00 
54300 6.0143739855e+00 8.1318701993e-03 2.5303677636e+00 -4.3827255283e+00 2.5303677636e+00 4.3827255283e+00 
54400 6.0142447340e+00 7.9275868556e-03 2.5302070797e+00 -4.3824472158e+00 2.5302070797e+00 4.3824472158e+00 
54500 6.0141185644e+00 7.7264954104e-03 2.5300504225e+00 -4.3821758775e+00 2.5300504225e+00 4.3821758775e+00 
54600 6.0139953970e+00 7.5286038671e-03 2.5298977295e+00 -4.3819114055e+00 2.5298977295e+00 4.3819114055e+00 
54700 6.0138751538e+00 7.3339180159e-03 2.5297489383e+00 -4.3816536916e+00 2.5297489383e+00 4.3816536916e+00 
54800 6.0137577583e+00 7.1424414953e-03 2.5296039862e+00 -4.3814026272e+00 2.5296039862e+00 4.3814026272e+00 
54900 6.0136431359e+00 6.9541758528e-03 2.5294628105e+00 -4.3811581036e+00 2.5294628105e+00 4.3811581036e+00 
55000 6.0135312137e+00 6.7691206057e-03 2.5293253482e+00 -4.3809200120e+00 2.5293253482e+00 4.3809200120e+00 
55100 6.0134219206e+00 6.5872733017e-03 2.5291915367e+00 -4.3806882436e+00 2.5291915367e+00 4.3806882436e+00 
55200 6.0133151873e+00 6.4086295795e-03 2.5290613129e+00 -4.3804626894e+00 2.5290613129e+00 4.3804626894e+00 
55300 6.0132109462e+00 6.2331832291e-03 2.5289346142e+00 -4.3802432408e+00 2.5289346142e+00 4.3802432408e+00 
55400 6.0131091317e+00 6.0609262507e-03 2.5288113778e+00 -4.3800297892e+00 2.5288113778e+00 4.3800297892e+00 
55500 6.0130096796e+00 5.8918489150e-03 2.5286915413e+00 -4.3798222263e+00 2.5286915413e+00 4.3798222263e+00 
55600 6.0129125279e+00 5.7259398216e-03 2.5285750423e+00 -4.3796204440e+00 2.5285750423e+00 4.3796204440e+00 
55700 6.0128176161e+00 5.5631859576e-03 2.5284618185e+00 -4.3794243346e+00 2.5284618185e+00 4.3794243346e+00 
55800 6.0127248854e+00 5.4035727552e-03 2.5283518080e+00 -4.3792337909e+00 2.5283518080e+00 4.3792337909e+00 
55900 6.0126342790e+00 5.2470841497e-03 2.5282449492e+00 -4.3790487060e+00 2.5282449492e+00 4.3790487060e+00 
56000 6.0125457414e+00 5.0937026357e-03 2.5281411806e+00 -4.3788689735e+00 2.5281411806e+00 4.3788689735e+00 
56100 6.0124592193e+00 4.9434093236e-03 2.5280404412e+00 -4.3786944877e+00 2.5280404412e+00 4.3786944877e+00 
56200 6.0123746605e+00 4.7961839950e-03 2.5279426703e+00 -4.3785251435e+00 2.5279426703e+00 4.3785251435e+00 
56300 6.0122920148e+00 4.6520051576e-03 2.5278478075e+00 -4.3783608363e+00 2.5278478075e+00 4.3783608363e+00 
56400 6.0122112334e+00 4.5108500997e-03 2.5277557929e+00 -4.3782014624e+00 2.5277557929e+00 4.3782014624e+00 
56500 6.0121322691e+00 4.3726949433e-03 2.5276665670e+00 -4.3780469187e+00 2.5276665670e+00 4.3780469187e+00 
56600 6.0120550763e+00 4.2375146970e-03 2.5275800708e+00 -4.3778971029e+00 2.5275800708e+00 4.3778971029e+00 
56700 6.0119796108e+00 4.1052833085e-03 2.5274962458e+00 -4.3777519136e+00 2.5274962458e+00 4.3777519136e+00 
56800 6.0119058298e+00 3.9759737153e-03 2.5274150338e+00 -4.3776112503e+00 2.5274150338e+00 4.3776112503e+00 
56900 6.0118336920e+00 3.8495578954e-03 2.5273363773e+00 -4.3774750132e+00 2.5273363773e+00 4.3774750132e+00 
57000 6.0117631574e+00 3.7260069173e-03 2.5272602192e+00 -4.3773431037e+00 2.5272602192e+00 4.3773431037e+00 
57100 6.0116941874e+00 3.6052909887e-03 2.5271865033e+00 -4.3772154239e+00 2.5271865033e+00 4.3772154239e+00 
57200 6.0116267447e+00 3.4873795048e-03 2.5271151735e+00 -4.3770918770e+00 2.5271151735e+00 4.3770918770e+00 
57300 6.0115607931e+00 3.3722410953e-03 2.5270461746e+00 -4.3769723674e+00 2.5270461746e+00 4.3769723674e+00 
57400 6.0114962978e+00 3.2598436712e-03 2.5269794519e+00 -4.3768568003e+00 2.5269794519e+00 4.3768568003e+00 
57500 6.0114332250e+00 3.1501544703e-03 2.5269149514e+00 -4.3767450821e+00 2.5269149514e+00 4.3767450821e+00 
57600 6.0113715422e+00 3.0431401019e-03 2.5268526196e+00 -4.3766371204e+00 2.5268526196e+00 4.3766371204e+00 
57700 6.0113112178e+00 2.9387665907e-03 2.5267924038e+00 -4.3765328236e+00 2.5267924038e+00 4.3765328236e+00 
57800 6.0112522214e+00 2.8369994199e-03 2.5267342519e+00 -4.3764321015e+00 2.5267342519e+00 4.3764321015e+00 
57900 6.0111945234e+00 2.7378035732e-03 2.5266781125e+00 -4.3763348652e+00 2.5266781125e+00 4.3763348652e+00 
58000 6.0111380956e+00 2.6411435762e-03 2.5266239347e+00 -4.3762410266e+00 2.5266239347e+00 4.3762410266e+00 
58100 6.0110829102e+00 2.5469835364e-03 2.5265716687e+00 -4.3761504991e+00 2.5265716687e+00 4.3761504991e+00 
58200 6.0110289406e+00 2.4552871830e-03 2.5265212649e+00 -4.3760631972e+00 2.5265212649e+00 4.3760631972e+00 
58300 6.0109761612e+00 2.3660179053e-03 2.5264726748e+00 -4.3759790366e+00 2.5264726748e+00 4.3759790366e+00 
58400 6.0109245467e+00 2.2791387898e-03 2.5264258504e+00 -4.3758979344e+00 2.5264258504e+00 4.3758979344e+00 
58500 6.0108740732e+00 2.1946126578e-03 2.5263807445e+00 -4.3758198088e+00 2.5263807445e+00 4.3758198088e+00 
58600 6.0108247171e+00 2.1124021004e-03 2.5263373107e+00 -4.3757445792e+00 2.5263373107e+00 4.3757445792e+00 
58700 6.0107764557e+00 2.0324695132e-03 2.5262955032e+00 -4.3756721665e+00 2.5262955032e+00 4.3756721665e+00 
58800 6.0107292670e+00 1.9547771309e-03 2.5262552771e+00 -4.3756024928e+00 2.5262552771e+00 4.3756024928e+00 
58900 6.0106831297e+00 1.8792870596e-03 2.5262165879e+00 -4.3755354812e+00 2.5262165879e+00 4.3755354812e+00 
59000 6.0106380230e+00 1.8059613089e-03 2.5261793923e+00 -4.3754710566e+00 2.5261793923e+00 4.3754710566e+00 
59100 6.0105939267e+00 1.7347618232e-03 2.5261436475e+00 -4.3754091447e+00 2.5261436475e+00 4.3754091447e+00 
59200 6.0105508212e+00 1.6656505114e-03 2.5261093114e+00 -4.3753496729e+00 2.5261093114e+00 4.3753496729e+00 
59300 6.0105086876e+00 1.5985892766e-03 2.5260763428e+00 -4.3752925695e+00 2.5260763428e+00 4.3752925695e+00 
59400 6.0104675073e+00 1.5335400438e-03 2.5260447011e+00 -4.3752377645e+00 2.5260447011e+00 4.3752377645e+00 
59500 6.0104272623e+00 1.4704647877e-03 2.5260143466e+00 -4.3751851890e+00 2.5260143466e+00 4.3751851890e+00 
59600 6.0103879350e+00 1.4093255586e-03 2.5259852402e+00 -4.3751347753e+00 2.5259852402e+00 4.3751347753e+00 
59700 6.0103495083e+00 1.3500845083e-03 2.5259573437e+00 -4.3750864571e+00 2.5259573437e+00 4.3750864571e+00 
59800 6.0103119655e+00 1.2927039143e-03 2.5259306196e+00 -4.3750401695e+00 2.5259306196e+00 4.3750401695e+00 
59900 6.0102752903e+00 1.2371462035e-03 2.5259050310e+00 -4.3749958487e+00 2.5259050310e+00 4.3749958487e+00 
60000 6.0102394668e+00 1.1833739751e-03 2.5258805418e+00 -4.3749534323e+00 2.5258805418e+00 4.3749534323e+00 
60100 6.0102044795e+00 1.1313500221e-03 2.5258571169e+00 -4.3749128591e+00 2.5258571169e+00 4.3749128591e+00 
60200 6.0101703130e+00 1.0810373523e-03 2.5258347215e+00 -4.3748740692e+00 2.5258347215e+00 4.3748740692e+00 
60300 6.0101369526e+00 1.0323992086e-03 2.5258133220e+00 -4.3748370041e+00 2.5258133220e+00 4.3748370041e+00 
60400 6.0101043837e+00 9.8539908762e-04 2.5257928850e+00 -4.3748016063e+00 2.5257928850e+00 4.3748016063e+00 
60500 6.0100725920e+00 9.4000075836e-04 2.5257733783e+00 -4.3747678197e+00 2.5257733783e+00 4.3747678197e+00 
60600 6.0100415636e+00 8.9616827946e-04 2.5257547702e+00 -4.3747355894e+00 2.5257547702e+00 4.3747355894e+00 
60700 6.0100112846e+00 8.5386601581e-04 2.5257370296e+00 -4.3747048618e+00 2.5257370296e+00 4.3747048618e+00 
60800 6.0099817416e+00 8.1305865420e-04 2.5257201263e+00 -4.3746755845e+00 2.5257201263e+00 4.3746755845e+00 
60900 6.0099529214e+00 7.7371121827e-04 2.5257040307e+00 -4.3746477061e+00 2.5257040307e+00 4.3746477061e+00 
61000 6.0099248110e+00 7.3578908259e-04 2.5256887140e+00 -4.3746211768e+00 2.5256887140e+00 4.3746211768e+00 
61100 6.0098973977e+00 6.9925798590e-04 2.5256741479e+00 -4.3745959476e+00 2.5256741479e+00 4.3745959476e+00 
61200 6.0098706688e+00 6.6408404366e-04 2.5256603049e+00 -4.3745719708e+00 2.5256603049e+00 4.3745719708e+00 
61300 6.0098446120e+00 6.3023375972e-04 2.5256471582e+00 -4.3745492000e+00 2.5256471582e+00 4.3745492000e+00 
61400 6.0098192151e+00 5.9767403729e-04 2.5256346815e+00 -4.3745275898e+00 2.5256346815e+00 4.3745275898e+00 
61500 6.0097944662e+00 5.6637218920e-04 2.5256228494e+00 -4.3745070959e+00 2.5256228494e+00 4.3745070959e+00 
61600 6.0097703534e+00 5.3629594734e-04 2.5256116369e+00 -4.3744876753e+00 2.5256116369e+00 4.3744876753e+00 
61700 6.0097468652e+00 5.0741347146e-04 2.5256010197e+00 -4.3744692858e+00 2.5256010197e+00 4.3744692858e+00 
61800 6.0097239900e+00 4.7969335724e-04 2.5255909743e+00 -4.3744518867e+00 2.5255909743e+00 4.3744518867e+00 
61900 6.0097017166e+00 4.5310464371e-04 2.5255814777e+00 -4.3744354380e+00 2.5255814777e+00 4.3744354380e+00 
62000 6.0096800337e+00 4.2761681995e-04 2.5255725074e+00 -4.3744199010e+00 2.5255725074e+00 4.3744199010e+00 
62100 6.0096589304e+00 4.0319983121e-04 2.5255640417e+00 -4.3744052379e+00 2.5255640417e+00 4.3744052379e+00 
62200 6.0096383959e+00 3.7982408433e-04 2.5255560593e+00 -4.3743914121e+00 2.5255560593e+00 4.3743914121e+00 
62300 6.0096184193e+00 3.5746045263e-04 2.5255485397e+00 -4.3743783877e+00 2.5255485397e+00 4.3743783877e+00 
62400 6.0095989902e+00 3.3608028011e-04 2.5255414628e+00 -4.3743661302e+00 2.5255414628e+00 4.3743661302e+00 
62500 6.0095800980e+00 3.1565538513e-04 2.5255348092e+00 -4.3743546058e+00 2.5255348092e+00 4.3743546058e+00 
62600 6.0095617325e+00 2.9615806352e-04 2.5255285599e+00 -4.3743437817e+00 2.5255285599e+00 4.3743437817e+00 
62700 6.0095438834e+00 2.7756109116e-04 2.5255226966e+00 -4.3743336262e+00 2.5255226966e+00 4.3743336262e+00 
62800 6.0095265407e+00 2.5983772597e-04 2.5255172015e+00 -4.3743241084e+00 2.5255172015e+00 4.3743241084e+00 
62900 6.0095096944e+00 2.4296170945e-04 2.5255120572e+00 -4.3743151983e+00 2.5255120572e+00 4.3743151983e+00 
63000 6.0094933348e+00 2.2690726775e-04 2.5255072471e+00 -4.3743068669e+00 2.5255072471e+00 4.3743068669e+00 
63100 6.0094774520e+00 2.1164911217e-04 2.5255027548e+00 -4.3742990860e+00 2.5255027548e+00 4.3742990860e+00 
63200 6.0094620366e+00 1.9716243932e-04 2.5254985646e+00 -4.3742918283e+00 2.5254985646e+00 4.3742918283e+00 
63300 6.0094470790e+00 1.8342293074e-04 2.5254946611e+00 -4.3742850673e+00 2.5254946611e+00 4.3742850673e+00 
63400 6.0094325699e+00 1.7040675216e-04 2.5254910297e+00 -4.3742787775e+00 2.5254910297e+00 4.3742787775e+00 
63500 6.0094185000e+00 1.5809055235e-04 2.5254876560e+00 -4.3742729340e+00 2.5254876560e+00 4.3742729340e+00 
63600 6.0094048602e+00 1.4645146155e-04 2.5254845261e+00 -4.3742675129e+00 2.5254845261e+00 4.3742675129e+00 
63700 6.0093916415e+00 1.3546708955e-04 2.5254816266e+00 -4.3742624908e+00 2.5254816266e+00 4.3742624908e+00 
63800 6.0093788350e+00 1.2511552345e-04 2.5254789446e+00 -4.3742578455e+00 2.5254789446e+00 4.3742578455e+00 
63900 6.0093664318e+00 1.1537532499e-04 2.5254764675e+00 -4.3742535551e+00 2.5254764675e+00 4.3742535551e+00 
64000 6.0093544234e+00 1.0622552766e-04 2.5254741833e+00 -4.3742495987e+00 2.5254741833e+00 4.3742495987e+00 
64100 6.0093428010e+00 9.7645633460e-05 2.5254720802e+00 -4.3742459560e+00 2.5254720802e+00 4.3742459560e+00 
64200 6.0093315564e+00 8.9615609348e-05 2.5254701470e+00 -4.3742426076e+00 2.5254701470e+00 4.3742426076e+00 
64300 6.0093206810e+00 8.2115883451e-05 2.5254683728e+00 -4.3742395345e+00 2.5254683728e+00 4.3742395345e+00 
64400 6.0093101666e+00 7.5127341008e-05 2.5254667470e+00 -4.3742367186e+00 2.5254667470e+00 4.3742367186e+00 
64500 6.0093000052e+00 6.8631320050e-05 2.5254652596e+00 -4.3742341424e+00 2.5254652596e+00 4.3742341424e+00 
64600 6.0092901887e+00 6.3790385891e-05 2.5254652596e+00 -4.3742341424e+00 2.5254652596e+00 4.3742341424e+00 
64700 6.0092807091e+00 5.9314859947e-05 2.5254652596e+00 -4.3742341424e+00 2.5254652596e+00 4.3742341424e+00 
64800 6.0092715587e+00 5.5194099492e-05 2.5254652596e+00 -4.3742341424e+00 2.5254652596e+00 4.3742341424e+00 
64900 6.0092627297e+00 5.1417676916e-05 2.5254652596e+00 -4.3742341424e+00 2.5254652596e+00 4.3742341424e+00 
65000 6.0092542145e+00 4.7975379148e-05 2.5254652596e+00 -4.3742341424e+00 2.5254652596e+00 4.3742341424e+00 
65100 6.0092460058e+00 4.4857206989e-05 2.5254652596e+00 -4.3742341424e+00 2.5254652596e+00 4.3742341424e+00 
65200 6.0092380960e+00 4.2053374319e-05 2.5254652596e+00 -4.3742341424e+00 2.5254652596e+00 4.3742341424e+00 
65300 6.0092304780e+00 3.9554307148e-05 2.5254652596e+00 -4.3742341424e+00 2.5254652596e+00 4.3742341424e+00 
65400 6.0092231445e+00 3.7350642488e-05 2.5254652596e+00 -4.3742341424e+00 2.5254652596e+00 4.3742341424e+00 
65500 6.0092160886e+00 3.5433227039e-05 2.5254652596e+00 -4.3742341424e+00 2.5254652596e+00 4.3742341424e+00 
65600 6.0092093033e+00 3.3793115693e-05 2.5254652596e+00 -4.3742341424e+00 2.5254652596e+00 4.3742341424e+00 
65700 6.0092027818e+00 3.2421569858e-05 2.5254652596e+00 -4.3742341424e+00 2.5254652596e+00 4.3742341424e+00 
65800 6.0091965174e+00 3.1310055608e-05 2.5254652596e+00 -4.3742341424e+00 2.5254652596e+00 4.3742341424e+00 
65900 6.0091905034e+00 3.0450241659e-05 2.5254652596e+00 -4.3742341424e+00 2.5254652596e+00 4.3742341424e+00 
66000 6.0091847333e+00 2.9833997202e-05 2.5254652596e+00 -4.3742341424e+00 2.5254652596e+00 4.3742341424e+00 
66100 6.0091792008e+00 2.9453389571e-05 2.5254652596e+00 -4.3742341424e+00 2.5254652596e+00 4.3742341424e+00 
66200 6.0091738996e+00 2.9300681793e-05 2.5254652596e+00 -4.3742341424e+00 2.5254652596e+00 4.3742341424e+00 
66300 6.0091688234e+00 2.9368329996e-05 2.5254652596e+00 -4.3742341424e+00 2.5254652596e+00 4.3742341424e+00 
66400 6.0091639663e+00 2.9648980708e-05 2.5254652596e+00 -4.3742341424e+00 2.5254652596e+00 4.3742341424e+00 
66500 6.0091593222e+00 3.0135468055e-05 2.5254652596e+00 -4.3742341424e+00 2.5254652596e+00 4.3742341424e+00 
66600 6.0091548854e+00 3.0820810855e-05 2.5254652596e+00 -4.3742341424e+00 2.5254652596e+00 4.3742341424e+00 
66700 6.0091506500e+00 3.1698209627e-05 2.5254652596e+00 -4.3742341424e+00 2.5254652596e+00 4.3742341424e+00 
66800 6.0091466103e+00 3.2761043533e-05 2.5254652596e+00 -4.3742341424e+00 2.5254652596e+00 4.3742341424e+00 
66900 6.0091427610e+00 3.4002867243e-05 2.5254652596e+00 -4.3742341424e+00 2.5254652596e+00 4.3742341424e+00 
67000 6.0091390965e+00 3.5417407742e-05 2.5254652596e+00 -4.3742341424e+00 2.5254652596e+00 4.3742341424e+00 
67100 6.0091356114e+00 3.6998561094e-05 2.5254652596e+00 -4.3742341424e+00 2.5254652596e+00 4.3742341424e+00 
67200 6.0091323007e+00 3.8740389158e-05 2.5254652596e+00 -4.3742341424e+00 2.5254652596e+00 4.3742341424e+00 
67300 6.0091291591e+00 4.0637116269e-05 2.5254652596e+00 -4.3742341424e+00 2.5254652596e+00 4.3742341424e+00 
67400 6.0091261816e+00 4.2683125896e-05 2.5254652596e+00 -4.3742341424e+00 2.5254652596e+00 4.3742341424e+00 
67500 6.0091233633e+00 4.4872957272e-05 2.5254652596e+00 -4.3742341424e+00 2.5254652596e+00 4.3742341424e+00 
67600 6.0091206994e+00 4.7201302025e-05 2.5254652596e+00 -4.3742341424e+00 2.5254652596e+00 4.3742341424e+00 
67700 6.0091181852e+00 4.9663000779e-05 2.5254652596e+00 -4.3742341424e+00 2.5254652596e+00 4.3742341424e+00 
67800 6.0091158161e+00 5.2253039777e-05 2.5254652596e+00 -4.3742341424e+00 2.5254652596e+00 4.3742341424e+00 
67900 6.0091135874e+00 5.4966547493e-05 2.5254652596e+00 -4.3742341424e+00 2.5254652596e+00 4.3742341424e+00 
68000 6.0091114949e+00 5.7798791256e-05 2.5254652596e+00 -4.3742341424e+00 2.5254652596e+00 4.3742341424e+00 
68100 6.0091095342e+00 6.0745173888e-05 2.5254652596e+00 -4.3742341424e+00 2.5254652596e+00 4.3742341424e+00 
68200 6.0091077010e+00 6.3801230369e-05 2.5254652596e+00 -4.3742341424e+00 2.5254652596e+00 4.3742341424e+00 
68300 6.0091059912e+00 6.6962624509e-05 2.5254652596e+00 -4.3742341424e+00 2.5254652596e+00 4.3742341424e+00 
68400 6.0091044007e+00 7.0225145664e-05 2.5254652596e+00 -4.3742341424e+00 2.5254652596e+00 4.3742341424e+00 
68500 6.0091029257e+00 7.3584705468e-05 2.5254652596e+00 -4.3742341424e+00 2.5254652596e+00 4.3742341424e+00 
68600 6.0091015622e+00 7.5772091126e-05 2.5254638028e+00 -4.3742316190e+00 2.5254638028e+00 4.3742316190e+00 
68700 6.0091003064e+00 7.7997641532e-05 2.5254623026e+00 -4.3742290207e+00 2.5254623026e+00 4.3742290207e+00 
68800 6.0090991547e+00 8.0256638612e-05 2.5254607584e+00 -4.3742263460e+00 2.5254607584e+00 4.3742263460e+00 
68900 6.0090981035e+00 8.2544561243e-05 2.5254591694e+00 -4.3742235939e+00 2.5254591694e+00 4.3742235939e+00 
69000 6.0090971492e+00 8.4857079601e-05 2.5254575352e+00 -4.3742207633e+00 2.5254575352e+00 4.3742207633e+00 
69100 6.0090962886e+00 8.7190049540e-05 2.5254558551e+00 -4.3742178534e+00 2.5254558551e+00 4.3742178534e+00 
69200 6.0090955181e+00 8.9539507069e-05 2.5254541289e+00 -4.3742148635e+00 2.5254541289e+00 4.3742148635e+00 
69300 6.0090948347e+00 9.1901662908e-05 2.5254523562e+00 -4.3742117930e+00 2.5254523562e+00 4.3742117930e+00 
69400 6.0090942350e+00 9.4272897126e-05 2.5254505367e+00 -4.3742086415e+00 2.5254505367e+00 4.3742086415e+00 
69500 6.0090937161e+00 9.6649753890e-05 2.5254486702e+00 -4.3742054087e+00 2.5254486702e+00 4.3742054087e+00 
69600 6.0090932748e+00 9.9028936332e-05 2.5254467567e+00 -4.3742020944e+00 2.5254467567e+00 4.3742020944e+00 
69700 6.0090929084e+00 1.0140730149e-04 2.5254447961e+00 -4.3741986985e+00 2.5254447961e+00 4.3741986985e+00 
69800 6.0090926138e+00 1.0378185541e-04 2.5254427884e+00 -4.3741952210e+00 2.5254427884e+00 4.3741952210e+00 
69900 6.0090923884e+00 1.0614974831e-04 2.5254407336e+00 -4.3741916622e+00 2.5254407336e+00 4.3741916622e+00 
70000 6.0090922294e+00 1.0850826986e-04 2.5254386320e+00 -4.3741880221e+00 2.5254386320e+00 4.3741880221e+00 
70100 6.0090921342e+00 1.1085484463e-04 2.5254364837e+00 -4.3741843011e+00 2.5254364837e+00 4.3741843011e+00 
70200 6.0090921002e+00 1.1318702757e-04 2.5254342890e+00 -4.3741804996e+00 2.5254342890e+00 4.3741804996e+00 
70300 6.0090921250e+00 1.1550249967e-04 2.5254320480e+00 -4.3741766182e+00 2.5254320480e+00 4.3741766182e+00 
70400 6.0090922061e+00 1.1779906367e-04 2.5254297612e+00 -4.3741726574e+00 2.5254297612e+00 4.3741726574e+00 
70500 6.0090923412e+00 1.2007463994e-04 2.5254274290e+00 -4.3741686178e+00 2.5254274290e+00 4.3741686178e+00 
70600 6.0090925280e+00 1.2232726238e-04 2.5254250517e+00 -4.3741645002e+00 2.5254250517e+00 4.3741645002e+00 
70700 6.0090927643e+00 1.2455507456e-04 2.5254226297e+00 -4.3741603053e+00 2.5254226297e+00 4.3741603053e+00 
70800 6.0090930479e+00 1.2675632584e-04 2.5254201637e+00 -4.3741560340e+00 2.5254201637e+00 4.3741560340e+00 
70900 6.0090933768e+00 1.2892936765e-04 2.5254176541e+00 -4.3741516872e+00 2.5254176541e+00 4.3741516872e+00 
71000 6.0090937488e+00 1.3107264987e-04 2.5254151015e+00 -4.3741472660e+00 2.5254151015e+00 4.3741472660e+00 
71100 6.0090941621e+00 1.3318471732e-04 2.5254125064e+00 -4.3741427712e+00 2.5254125064e+00 4.3741427712e+00 
71200 6.0090946147e+00 1.3526420630e-04 2.5254098695e+00 -4.3741382039e+00 2.5254098695e+00 4.3741382039e+00 
71300 6.0090951047e+00 1.3730984132e-04 2.5254071914e+00 -4.3741335654e+00 2.5254071914e+00 4.3741335654e+00 
71400 6.0090956305e+00 1.3932043182e-04 2.5254044729e+00 -4.3741288567e+00 2.5254044729e+00 4.3741288567e+00 
71500 6.0090961902e+00 1.4129486911e-04 2.5254017145e+00 -4.3741240790e+00 2.5254017145e+00 4.3741240790e+00 
71600 6.0090967821e+00 1.4323212322e-04 2.5253989170e+00 -4.3741192337e+00 2.5253989170e+00 4.3741192337e+00 
71700 6.0090974046e+00 1.4513124007e-04 2.5253960812e+00 -4.3741143219e+00 2.5253960812e+00 4.3741143219e+00 
71800 6.0090980562e+00 1.4699133854e-04 2.5253932078e+00 -4.3741093449e+00 2.5253932078e+00 4.3741093449e+00 
71900 6.0090987352e+00 1.4881160771e-04 2.5253902975e+00 -4.3741043042e+00 2.5253902975e+00 4.3741043042e+00 
72000 6.0090994403e+00 1.5059130420e-04 2.5253873512e+00 -4.3740992011e+00 2.5253873512e+00 4.3740992011e+00 
72100 6.0091001700e+00 1.5232974956e-04 2.5253843696e+00 -4.3740940369e+00 2.5253843696e+00 4.3740940369e+00 
72200 6.0091009229e+00 1.5402632773e-04 2.5253813537e+00 -4.3740888130e+00 2.5253813537e+00 4.3740888130e+00 
72300 6.0091016976e+00 1.5568048265e-04 2.5253783041e+00 -4.3740835310e+00 2.5253783041e+00 4.3740835310e+00 
72400 6.0091024930e+00 1.5729171583e-04 2.5253752218e+00 -4.3740781923e+00 2.5253752218e+00 4.3740781923e+00 
72500 6.0091033076e+00 1.5885958416e-04 2.5253721076e+00 -4.3740727983e+00 2.5253721076e+00 4.3740727983e+00 
72600 6.0091041403e+00 1.6038369762e-04 2.5253689623e+00 -4.3740673505e+00 2.5253689623e+00 4.3740673505e+00 
72700 6.0091049900e+00 1.6186371719e-04 2.5253657868e+00 -4.3740618505e+00 2.5253657868e+00 4.3740618505e+00 
72800 6.0091058554e+00 1.6329935278e-04 2.5253625821e+00 -4.3740562997e+00 2.5253625821e+00 4.3740562997e+00 
72900 6.0091067356e+00 1.6469036122e-04 2.5253593489e+00 -4.3740506997e+00 2.5253593489e+00 4.3740506997e+00 
73000 6.0091076295e+00 1.6603654435e-04 2.5253560882e+00 -4.3740450519e+00 2.5253560882e+00 4.3740450519e+00 
73100 6.0091085360e+00 1.6733774716e-04 2.5253528008e+00 -4.3740393580e+00 2.5253528008e+00 4.3740393580e+00 
73200 6.0091094542e+00 1.6859385597e-04 2.5253494876e+00 -4.3740336194e+00 2.5253494876e+00 4.3740336194e+00 
73300 6.0091103831e+00 1.6980479670e-04 2.5253461496e+00 -4.3740278378e+00 2.5253461496e+00 4.3740278378e+00 
73400 6.0091113219e+00 1.7097053321e-04 2.5253427876e+00 -4.3740220146e+00 2.5253427876e+00 4.3740220146e+00 
73500 6.0091122697e+00 1.7209106568e-04 2.5253394025e+00 -4.3740161515e+00 2.5253394025e+00 4.3740161515e+00 
73600 6.0091132255e+00 1.7316642900e-04 2.5253359952e+00 -4.3740102499e+00 2.5253359952e+00 4.3740102499e+00 
73700 6.0091141887e+00 1.7419669134e-04 2.5253325666e+00 -4.3740043114e+00 2.5253325666e+00 4.3740043114e+00 
73800 6.0091151584e+00 1.7518195261e-04 2.5253291176e+00 -4.3739983376e+00 2.5253291176e+00 4.3739983376e+00 
73900 6.0091161339e+00 1.7612234314e-04 2.5253256491e+00 -4.3739923300e+00 2.5253256491e+00 4.3739923300e+00 
74000 6.0091171144e+00 1.7701802224e-04 2.5253221620e+00 -4.3739862901e+00 2.5253221620e+00 4.3739862901e+00 
74100 6.0091180993e+00 1.7786917698e-04 2.5253186572e+00 -4.3739802195e+00 2.5253186572e+00 4.3739802195e+00 
74200 6.0091190880e+00 1.7867602084e-04 2.5253151354e+00 -4.3739741197e+00 2.5253151354e+00 4.3739741197e+00 
74300 6.0091200797e+00 1.7943879257e-04 2.5253115977e+00 -4.3739679922e+00 2.5253115977e+00 4.3739679922e+00 
74400 6.0091210738e+00 1.8015775498e-04 2.5253080449e+00 -4.3739618386e+00 2.5253080449e+00 4.3739618386e+00 
74500 6.0091220698e+00 1.8083319381e-04 2.5253044779e+00 -4.3739556603e+00 2.5253044779e+00 4.3739556603e+00 
74600 6.0091230672e+00 1.8146541664e-04 2.5253008975e+00 -4.3739494588e+00 2.5253008975e+00 4.3739494588e+00 
74700 6.0091240653e+00 1.8205475185e-04 2.5252973045e+00 -4.3739432357e+00 2.5252973045e+00 4.3739432357e+00 
74800 6.0091250636e+00 1.8260154759e-04 2.5252936999e+00 -4.3739369923e+00 2.5252936999e+00 4.3739369923e+00 
74900 6.0091260617e+00 1.8310617082e-04 2.5252900845e+00 -4.3739307301e+00 2.5252900845e+00 4.3739307301e+00 
75000 6.0091270591e+00 1.8356900633e-04 2.5252864590e+00 -4.3739244507e+00 2.5252864590e+00 4.3739244507e+00 
75100 6.0091280553e+00 1.8399045588e-04 2.5252828244e+00 -4.3739181553e+00 2.5252828244e+00 4.3739181553e+00 
75200 6.0091290499e+00 1.8437093728e-04 2.5252791814e+00 -4.3739118455e+00 2.5252791814e+00 4.3739118455e+00 
75300 6.0091300425e+00 1.8471088356e-04 2.5252755309e+00 -4.3739055227e+00 2.5252755309e+00 4.3739055227e+00 
75400 6.0091310327e+00 1.8501074215e-04 2.5252718737e+00 -4.3738991881e+00 2.5252718737e+00 4.3738991881e+00 
75500 6.0091320201e+00 1.8527097409e-04 2.5252682105e+00 -4.3738928433e+00 2.5252682105e+00 4.3738928433e+00 
75600 6.0091330043e+00 1.8549205327e-04 2.5252645422e+00 -4.3738864896e+00 2.5252645422e+00 4.3738864896e+00 
75700 6.0091339851e+00 1.8567446569e-04 2.5252608694e+00 -4.3738801282e+00 2.5252608694e+00 4.3738801282e+00 
75800 6.0091349620e+00 1.8581870875e-04 2.5252571931e+00 -4.3738737606e+00 2.5252571931e+00 4.3738737606e+00 
75900 6.0091359348e+00 1.8592529057e-04 2.5252535139e+00 -4.3738673881e+00 2.5252535139e+00 4.3738673881e+00 
76000 6.0091369031e+00 1.8599472935e-04 2.5252498326e+00 -4.3738610118e+00 2.5252498326e+00 4.3738610118e+00 
76100 6.0091378668e+00 1.8602755266e-04 2.5252461499e+00 -4.3738546332e+00 2.5252461499e+00 4.3738546332e+00 
76200 6.0091388254e+00 1.8602429690e-04 2.5252424665e+00 -4.3738482534e+00 2.5252424665e+00 4.3738482534e+00 
76300 6.0091397789e+00 1.8598550667e-04 2.5252387832e+00 -4.3738418738e+00 2.5252387832e+00 4.3738418738e+00 
76400 6.0091407269e+00 1.8591173419e-04 2.5252351007e+00 -4.3738354955e+00 2.5252351007e+00 4.3738354955e+00 
76500 6.0091416692e+00 1.8580353873e-04 2.5252314196e+00 -4.3738291196e+00 2.5252314196e+00 4.3738291196e+00 
76600 6.0091426056e+00 1.8566148610e-04 2.5252277407e+00 -4.3738227475e+00 2.5252277407e+00 4.3738227475e+00 
76700 6.0091435359e+00 1.8548614812e-04 2.5252240645e+00 -4.3738163803e+00 2.5252240645e+00 4.3738163803e+00 
76800 6.0091444599e+00 1.8527810208e-04 2.5252203919e+00 -4.3738100190e+00 2.5252203919e+00 4.3738100190e+00 
76900 6.0091453774e+00 1.8503793030e-04 2.5252167233e+00 -4.3738036649e+00 2.5252167233e+00 4.3738036649e+00 
77000 6.0091462883e+00 1.8476621964e-04 2.5252130595e+00 -4.3737973190e+00 2.5252130595e+00 4.3737973190e+00 
77100 6.0091471924e+00 1.8446356100e-04 2.5252094011e+00 -4.3737909825e+00 2.5252094011e+00 4.3737909825e+00 
77200 6.0091480895e+00 1.8413054894e-04 2.5252057487e+00 -4.3737846562e+00 2.5252057487e+00 4.3737846562e+00 
77300 6.0091489796e+00 1.8376778121e-04 2.5252021028e+00 -4.3737783414e+00 2.5252021028e+00 4.3737783414e+00 
77400 6.0091498624e+00 1.8337585834e-04 2.5251984641e+00 -4.3737720391e+00 2.5251984641e+00 4.3737720391e+00 
77500 6.0091507380e+00 1.8295538322e-04 2.5251948332e+00 -4.3737657501e+00 2.5251948332e+00 4.3737657501e+00 
77600 6.0091516060e+00 1.8250696076e-04 2.5251912106e+00 -4.3737594756e+00 2.5251912106e+00 4.3737594756e+00 
77700 6.0091524666e+00 1.8203119743e-04 2.5251875969e+00 -4.3737532165e+00 2.5251875969e+00 4.3737532165e+00 
77800 6.0091533194e+00 1.8152870096e-04 2.5251839926e+00 -4.3737469736e+00 2.5251839926e+00 4.3737469736e+00 
77900 6.0091541646e+00 1.8100007994e-04 2.5251803982e+00 -4.3737407480e+00 2.5251803982e+00 4.3737407480e+00 
78000 6.0091550020e+00 1.8044594349e-04 2.5251768143e+00 -4.3737345405e+00 2.5251768143e+00 4.3737345405e+00 
78100 6.0091558314e+00 1.7986690091e-04 2.5251732414e+00 -4.3737283520e+00 2.5251732414e+00 4.3737283520e+00 
78200 6.0091566530e+00 1.7926356137e-04 2.5251696799e+00 -4.3737221833e+00 2.5251696799e+00 4.3737221833e+00 
78300 6.0091574665e+00 1.7863653357e-04 2.5251661304e+00 -4.3737160353e+00 2.5251661304e+00 4.3737160353e+00 
78400 6.0091582720e+00 1.7798642544e-04 2.5251625932e+00 -4.3737099089e+00 2.5251625932e+00 4.3737099089e+00 
78500 6.0091590693e+00 1.7731384383e-04 2.5251590690e+00 -4.3737038047e+00 2.5251590690e+00 4.3737038047e+00 
78600 6.0091598585e+00 1.7661939425e-04 2.5251555580e+00 -4.3736977235e+00 2.5251555580e+00 4.3736977235e+00 
78700 6.0091606396e+00 1.7590368055e-04 2.5251520608e+00 -4.3736916662e+00 2.5251520608e+00 4.3736916662e+00 
78800 6.0091614124e+00 1.7516730465e-04 2.5251485778e+00 -4.3736856334e+00 2.5251485778e+00 4.3736856334e+00 
78900 6.0091621770e+00 1.7441086627e-04 2.5251451094e+00 -4.3736796259e+00 2.5251451094e+00 4.3736796259e+00 
79000 6.0091629334e+00 1.7363496272e-04 2.5251416559e+00 -4.3736736443e+00 2.5251416559e+00 4.3736736443e+00 
79100 6.0091636814e+00 1.7284018855e-04 2.5251382178e+00 -4.3736676893e+00 2.5251382178e+00 4.3736676893e+00 
79200 6.0091644212e+00 1.7202713540e-04 2.5251347954e+00 -4.3736617615e+00 2.5251347954e+00 4.3736617615e+00 
79300 6.0091651528e+00 1.7119639171e-04 2.5251313891e+00 -4.3736558617e+00 2.5251313891e+00 4.3736558617e+00 
79400 6.0091658760e+00 1.7034854250e-04 2.5251279992e+00 -4.3736499903e+00 2.5251279992e+00 4.3736499903e+00 
79500 6.0091665909e+00 1.6948416913e-04 2.5251246262e+00 -4.3736441479e+00 2.5251246262e+00 4.3736441479e+00 
79600 6.0091672976e+00 1.6860384913e-04 2.5251212702e+00 -4.3736383353e+00 2.5251212702e+00 4.3736383353e+00 
79700 6.0091679960e+00 1.6770815594e-04 2.5251179317e+00 -4.3736325528e+00 2.5251179317e+00 4.3736325528e+00 
79800 6.0091686862e+00 1.6679765870e-04 2.5251146109e+00 -4.3736268010e+00 2.5251146109e+00 4.3736268010e+00 
79900 6.0091693681e+00 1.6587292211e-04 2.5251113081e+00 -4.3736210804e+00 2.5251113081e+00 4.3736210804e+00 
80000 6.0091700418e+00 1.6493450618e-04 2.5251080236e+00 -4.3736153915e+00 2.5251080236e+00 4.3736153915e+00 
80100 6.0091707073e+00 1.6398296606e-04 2.5251047577e+00 -4.3736097348e+00 2.5251047577e+00 4.3736097348e+00 
80200 6.0091713646e+00 1.6301885187e-04 2.5251015107e+00 -4.3736041108e+00 2.5251015107e+00 4.3736041108e+00 
80300 6.0091720138e+00 1.6204270854e-04 2.5250982827e+00 -4.3735985198e+00 2.5250982827e+00 4.3735985198e+00 
80400 6.0091726549e+00 1.6105507558e-04 2.5250950741e+00 -4.3735929623e+00 2.5250950741e+00 4.3735929623e+00 
80500 6.0091732879e+00 1.6005648698e-04 2.5250918850e+00 -4.3735874386e+00 2.5250918850e+00 4.3735874386e+00 
80600 6.0091739129e+00 1.5904747105e-04 2.5250887157e+00 -4.3735819492e+00 2.5250887157e+00 4.3735819492e+00 
80700 6.0091745299e+00 1.5802855023e-04 2.5250855663e+00 -4.3735764943e+00 2.5250855663e+00 4.3735764943e+00 
80800 6.0091751389e+00 1.5700024095e-04 2.5250824372e+00 -4.3735710745e+00 2.5250824372e+00 4.3735710745e+00 
80900 6.0091757400e+00 1.5596305355e-04 2.5250793283e+00 -4.3735656898e+00 2.5250793283e+00 4.3735656898e+00 
81000 6.0091763332e+00 1.5491749206e-04 2.5250762401e+00 -4.3735603408e+00 2.5250762401e+00 4.3735603408e+00 
81100 6.0091769186e+00 1.5386405413e-04 2.5250731725e+00 -4.3735550276e+00 2.5250731725e+00 4.3735550276e+00 
81200 6.0091774962e+00 1.5280323091e-04 2.5250701258e+00 -4.3735497505e+00 2.5250701258e+00 4.3735497505e+00 
81300 6.0091780661e+00 1.5173550687e-04 2.5250671000e+00 -4.3735445098e+00 2.5250671000e+00 4.3735445098e+00 
81400 6.0091786283e+00 1.5066135977e-04 2.5250640955e+00 -4.3735393057e+00 2.5250640955e+00 4.3735393057e+00 
81500 6.0091791829e+00 1.4958126048e-04 2.5250611121e+00 -4.3735341384e+00 2.5250611121e+00 4.3735341384e+00 
81600 6.0091797299e+00 1.4849567293e-04 2.5250581502e+00 -4.3735290082e+00 2.5250581502e+00 4.3735290082e+00 
81700 6.0091802694e+00 1.4740505399e-04 2.5250552098e+00 -4.3735239152e+00 2.5250552098e+00 4.3735239152e+00 
81800 6.0091808015e+00 1.4630985339e-04 2.5250522909e+00 -4.3735188596e+00 2.5250522909e+00 4.3735188596e+00 
81900 6.0091813261e+00 1.4521051361e-04 2.5250493938e+00 -4.3735138416e+00 2.5250493938e+00 4.3735138416e+00 
82000 6.0091818434e+00 1.4410746984e-04 2.5250465184e+00 -4.3735088613e+00 2.5250465184e+00 4.3735088613e+00 
82100 6.0091823535e+00 1.4300114987e-04 2.5250436648e+00 -4.3735039188e+00 2.5250436648e+00 4.3735039188e+00 
82200 6.0091828563e+00 1.4189197403e-04 2.5250408331e+00 -4.3734990142e+00 2.5250408331e+00 4.3734990142e+00 
82300 6.0091833519e+00 1.4078035511e-04 2.5250380234e+00 -4.3734941477e+00 2.5250380234e+00 4.3734941477e+00 
82400 6.0091838405e+00 1.3966669835e-04 2.5250352358e+00 -4.3734893192e+00 2.5250352358e+00 4.3734893192e+00 
82500 6.0091843220e+00 1.3855140132e-04 2.5250324701e+00 -4.3734845290e+00 2.5250324701e+00 4.3734845290e+00 
82600 6.0091847966e+00 1.3743485392e-04 2.5250297266e+00 -4.3734797770e+00 2.5250297266e+00 4.3734797770e+00 
82700 6.0091852643e+00 1.3631743829e-04 2.5250270051e+00 -4.3734750633e+00 2.5250270051e+00 4.3734750633e+00 
82800 6.0091857251e+00 1.3519952882e-04 2.5250243058e+00 -4.3734703880e+00 2.5250243058e+00 4.3734703880e+00 
82900 6.0091861792e+00 1.3408149207e-04 2.5250216286e+00 -4.3734657509e+00 2.5250216286e+00 4.3734657509e+00 
83000 6.0091866266e+00 1.3296368675e-04 2.5250189735e+00 -4.3734611522e+00 2.5250189735e+00 4.3734611522e+00 
83100 6.0091870673e+00 1.3184646372e-04 2.5250163406e+00 -4.3734565919e+00 2.5250163406e+00 4.3734565919e+00 
83200 6.0091875014e+00 1.3073016595e-04 2.5250137298e+00 -4.3734520698e+00 2.5250137298e+00 4.3734520698e+00 
83300 6.0091879291e+00 1.2961512847e-04 2.5250111411e+00 -4.3734475861e+00 2.5250111411e+00 4.3734475861e+00 
83400 6.0091883503e+00 1.2850167843e-04 2.5250085745e+00 -4.3734431406e+00 2.5250085745e+00 4.3734431406e+00 
83500 6.0091887651e+00 1.2739013502e-04 2.5250060299e+00 -4.3734387332e+00 2.5250060299e+00 4.3734387332e+00 
83600 6.0091891737e+00 1.2628080952e-04 2.5250035073e+00 -4.3734343640e+00 2.5250035073e+00 4.3734343640e+00 
83700 6.0091895760e+00 1.2517400528e-04 2.5250010067e+00 -4.3734300328e+00 2.5250010067e+00 4.3734300328e+00 
83800 6.0091899722e+00 1.2407001769e-04 2.5249985280e+00 -4.3734257396e+00 2.5249985280e+00 4.3734257396e+00 
83900 6.0091903622e+00 1.2296913428e-04 2.5249960712e+00 -4.3734214842e+00 2.5249960712e+00 4.3734214842e+00 
84000 6.0091907463e+00 1.2187163463e-04 2.5249936362e+00 -4.3734172666e+00 2.5249936362e+00 4.3734172666e+00 
84100 6.0091911244e+00 1.2077779047e-04 2.5249912229e+00 -4.3734130867e+00 2.5249912229e+00 4.3734130867e+00 
84200 6.0091914966e+00 1.1968786566e-04 2.5249888312e+00 -4.3734089442e+00 2.5249888312e+00 4.3734089442e+00 
84300 6.0091918629e+00 1.1860211622e-04 2.5249864612e+00 -4.3734048391e+00 2.5249864612e+00 4.3734048391e+00 
84400 6.0091922236e+00 1.1752079037e-04 2.5249841126e+00 -4.3734007713e+00 2.5249841126e+00 4.3734007713e+00 
84500 6.0091925785e+00 1.1644412857e-04 2.5249817854e+00 -4.3733967405e+00 2.5249817854e+00 4.3733967405e+00 
84600 6.0091929278e+00 1.1537236354e-04 2.5249794796e+00 -4.3733927467e+00 2.5249794796e+00 4.3733927467e+00 
84700 6.0091932716e+00 1.1430572029e-04 2.5249771950e+00 -4.3733887896e+00 2.5249771950e+00 4.3733887896e+00 
84800 6.0091936099e+00 1.1324441624e-04 2.5249749315e+00 -4.3733848691e+00 2.5249749315e+00 4.3733848691e+00 
84900 6.0091939428e+00 1.1218866115e-04 2.5249726890e+00 -4.3733809850e+00 2.5249726890e+00 4.3733809850e+00 
85000 6.0091942703e+00 1.1113865729e-04 2.5249704674e+00 -4.3733771371e+00 2.5249704674e+00 4.3733771371e+00 
85100 6.0091945926e+00 1.1009459941e-04 2.5249682666e+00 -4.3733733253e+00 2.5249682666e+00 4.3733733253e+00 
85200 6.0091949097e+00 1.0905667485e-04 2.5249660865e+00 -4.3733695492e+00 2.5249660865e+00 4.3733695492e+00 
85300 6.0091952216e+00 1.0802506358e-04 2.5249639269e+00 -4.3733658087e+00 2.5249639269e+00 4.3733658087e+00 
85400 6.0091955284e+00 1.0699993825e-04 2.5249617878e+00 -4.3733621036e+00 2.5249617878e+00 4.3733621036e+00 
85500 6.0091958302e+00 1.0598146431e-04 2.5249596689e+00 -4.3733584337e+00 2.5249596689e+00 4.3733584337e+00 
85600 6.0091961271e+00 1.0496980003e-04 2.5249575703e+00 -4.3733547986e+00 2.5249575703e+00 4.3733547986e+00 
85700 6.0091964191e+00 1.0396509661e-04 2.5249554916e+00 -4.3733511983e+00 2.5249554916e+00 4.3733511983e+00 
85800 6.0091967063e+00 1.0296749821e-04 2.5249534329e+00 -4.3733476325e+00 2.5249534329e+00 4.3733476325e+00 
85900 6.0091969887e+00 1.0197714209e-04 2.5249513939e+00 -4.3733441008e+00 2.5249513939e+00 4.3733441008e+00 
86000 6.0091972664e+00 1.0099415866e-04 2.5249493745e+00 -4.3733406031e+00 2.5249493745e+00 4.3733406031e+00 
86100 6.0091975395e+00 1.0001867154e-04 2.5249473746e+00 -4.3733371392e+00 2.5249473746e+00 4.3733371392e+00 
86200 6.0091978081e+00 9.9050797716e-05 2.5249453939e+00 -4.3733337087e+00 2.5249453939e+00 4.3733337087e+00 
86300 6.0091980721e+00 9.8090647553e-05 2.5249434325e+00 -4.3733303113e+00 2.5249434325e+00 4.3733303113e+00 
86400 6.0091983318e+00 9.7138324939e-05 2.5249414901e+00 -4.3733269469e+00 2.5249414901e+00 4.3733269469e+00 
86500 6.0091985870e+00 9.6193927355e-05 2.5249395665e+00 -4.3733236152e+00 2.5249395665e+00 4.3733236152e+00 
86600 6.0091988379e+00 9.5257545979e-05 2.5249376616e+00 -4.3733203159e+00 2.5249376616e+00 4.3733203159e+00 
86700 6.0091990846e+00 9.4329265780e-05 2.5249357753e+00 -4.3733170486e+00 2.5249357753e+00 4.3733170486e+00 
86800 6.0091993271e+00 9.3409165618e-05 2.5249339073e+00 -4.3733138133e+00 2.5249339073e+00 4.3733138133e+00 
86900 6.0091995654e+00 9.2497318346e-05 2.5249320576e+00 -4.3733106094e+00 2.5249320576e+00 4.3733106094e+00 
87000 6.0091997997e+00 9.1593790908e-05 2.5249302259e+00 -4.3733074369e+00 2.5249302259e+00 4.3733074369e+00 
87100 6.0092000299e+00 9.0698644448e-05 2.5249284121e+00 -4.3733042953e+00 2.5249284121e+00 4.3733042953e+00 
87200 6.0092002562e+00 8.9811934419e-05 2.5249266161e+00 -4.3733011844e+00 2.5249266161e+00 4.3733011844e+00 
87300 6.0092004786e+00 8.8933710675e-05 2.5249248376e+00 -4.3732981039e+00 2.5249248376e+00 4.3732981039e+00 
87400 6.0092006971e+00 8.8064017598e-05 2.5249230764e+00 -4.3732950536e+00 2.5249230764e+00 4.3732950536e+00 
87500 6.0092009119e+00 8.7202894186e-05 2.5249213326e+00 -4.3732920331e+00 2.5249213326e+00 4.3732920331e+00 
87600 6.0092011229e+00 8.6350374185e-05 2.5249196057e+00 -4.3732890421e+00 2.5249196057e+00 4.3732890421e+00 
87700 6.0092013303e+00 8.5506486181e-05 2.5249178957e+00 -4.3732860804e+00 2.5249178957e+00 4.3732860804e+00 
87800 6.0092015340e+00 8.4671253724e-05 2.5249162025e+00 -4.3732831476e+00 2.5249162025e+00 4.3732831476e+00 
87900 6.0092017342e+00 8.3844695431e-05 2.5249145258e+00 -4.3732802434e+00 2.5249145258e+00 4.3732802434e+00 
88000 6.0092019309e+00 8.3026825111e-05 2.5249128654e+00 -4.3732773676e+00 2.5249128654e+00 4.3732773676e+00 
88100 6.0092021241e+00 8.2217651859e-05 2.5249112213e+00 -4.3732745199e+00 2.5249112213e+00 4.3732745199e+00 
88200 6.0092023139e+00 8.1417180196e-05 2.5249095931e+00 -4.3732716999e+00 2.5249095931e+00 4.3732716999e+00 
88300 6.0092025003e+00 8.0625410158e-05 2.5249079809e+00 -4.3732689073e+00 2.5249079809e+00 4.3732689073e+00 
88400 6.0092026834e+00 7.9842337427e-05 2.5249063843e+00 -4.3732661419e+00 2.5249063843e+00 4.3732661419e+00 
88500 6.0092028633e+00 7.9067953439e-05 2.5249048032e+00 -4.3732634034e+00 2.5249048032e+00 4.3732634034e+00 
88600 6.0092030400e+00 7.8302245501e-05 2.5249032374e+00 -4.3732606914e+00 2.5249032374e+00 4.3732606914e+00 
88700 6.0092032136e+00 7.7545196904e-05 2.5249016868e+00 -4.3732580057e+00 2.5249016868e+00 4.3732580057e+00 
88800 6.0092033840e+00 7.6796787038e-05 2.5249001512e+00 -4.3732553459e+00 2.5249001512e+00 4.3732553459e+00 
88900 6.0092035514e+00 7.6056991510e-05 2.5248986304e+00 -4.3732527118e+00 2.5248986304e+00 4.3732527118e+00 
89000 6.0092037157e+00 7.5325782253e-05 2.5248971243e+00 -4.3732501031e+00 2.5248971243e+00 4.3732501031e+00 
89100 6.0092038772e+00 7.4603127644e-05 2.5248956326e+00 -4.3732475195e+00 2.5248956326e+00 4.3732475195e+00 
89200 6.0092040357e+00 7.3888992612e-05 2.5248941553e+00 -4.3732449607e+00 2.5248941553e+00 4.3732449607e+00 
89300 6.0092041913e+00 7.3183338764e-05 2.5248926921e+00 -4.3732424263e+00 2.5248926921e+00 4.3732424263e+00 
89400 6.0092043441e+00 7.2486124479e-05 2.5248912428e+00 -4.3732399162e+00 2.5248912428e+00 4.3732399162e+00 
89500 6.0092044942e+00 7.1797305036e-05 2.5248898074e+00 -4.3732374299e+00 2.5248898074e+00 4.3732374299e+00 
89600 6.0092046415e+00 7.1116832721e-05 2.5248883856e+00 -4.3732349673e+00 2.5248883856e+00 4.3732349673e+00 
89700 6.0092047861e+00 7.0444656931e-05 2.5248869773e+00 -4.3732325280e+00 2.5248869773e+00 4.3732325280e+00 
89800 6.0092049282e+00 7.0991665865e-05 2.5248869773e+00 -4.3732325280e+00 2.5248869773e+00 4.3732325280e+00 
89900 6.0092050676e+00 7.0328052012e-05 2.5248855714e+00 -4.3732300930e+00 2.5248855714e+00 4.3732300930e+00 
90000 6.0092052045e+00 7.0881335217e-05 2.5248855714e+00 -4.3732300930e+00 2.5248855714e+00 4.3732300930e+00 
90100 6.0092053389e+00 7.0225724794e-05 2.5248841678e+00 -4.3732276618e+00 2.5248841678e+00 4.3732276618e+00 
90200 6.0092054708e+00 7.0784950304e-05 2.5248841678e+00 -4.3732276618e+00 2.5248841678e+00 4.3732276618e+00 
90300 6.0092056002e+00 7.0136747359e-05 2.5248827660e+00 -4.3732252339e+00 2.5248827660e+00 4.3732252339e+00 
90400 6.0092057273e+00 7.0701534108e-05 2.5248827660e+00 -4.3732252339e+00 2.5248827660e+00 4.3732252339e+00 
90500 6.0092058521e+00 7.1275461614e-05 2.5248827660e+00 -4.3732252339e+00 2.5248827660e+00 4.3732252339e+00 
90600 6.0092059745e+00 7.0633167890e-05 2.5248813546e+00 -4.3732227892e+00 2.5248813546e+00 4.3732227892e+00 
90700 6.0092060946e+00 7.1211816329e-05 2.5248813546e+00 -4.3732227892e+00 2.5248813546e+00 4.3732227892e+00 
90800 6.0092062125e+00 7.0575089308e-05 2.5248799444e+00 -4.3732203467e+00 2.5248799444e+00 4.3732203467e+00 
90900 6.0092063282e+00 7.1157963586e-05 2.5248799444e+00 -4.3732203467e+00 2.5248799444e+00 4.3732203467e+00 
91000 6.0092064417e+00 7.0526127814e-05 2.5248785352e+00 -4.3732179060e+00 2.5248785352e+00 4.3732179060e+00 
91100 6.0092065532e+00 7.1112708527e-05 2.5248785352e+00 -4.3732179060e+00 2.5248785352e+00 4.3732179060e+00 
91200 6.0092066625e+00 7.0485087317e-05 2.5248771270e+00 -4.3732154668e+00 2.5248771270e+00 4.3732154668e+00 
91300 6.0092067698e+00 7.1074835918e-05 2.5248771270e+00 -4.3732154668e+00 2.5248771270e+00 4.3732154668e+00 
91400 6.0092068750e+00 7.0450756637e-05 2.5248757195e+00 -4.3732130290e+00 2.5248757195e+00 4.3732130290e+00 
91500 6.0092069783e+00 7.1043120201e-05 2.5248757195e+00 -4.3732130290e+00 2.5248757195e+00 4.3732130290e+00 
91600 6.0092070796e+00 7.0421919057e-05 2.5248743127e+00 -4.3732105922e+00 2.5248743127e+00 4.3732105922e+00 
91700 6.0092071791e+00 7.1016334683e-05 2.5248743127e+00 -4.3732105922e+00 2.5248743127e+00 4.3732105922e+00 
91800 6.0092072765e+00 7.0397360939e-05 2.5248729063e+00 -4.3732081564e+00 2.5248729063e+00 4.3732081564e+00 
91900 6.0092073723e+00 7.0993259789e-05 2.5248729063e+00 -4.3732081564e+00 2.5248729063e+00 4.3732081564e+00 
92000 6.0092074661e+00 7.0375879511e-05 2.5248715004e+00 -4.3732057213e+00 2.5248715004e+00 4.3732057213e+00 
92100 6.0092075582e+00 7.0972690495e-05 2.5248715004e+00 -4.3732057213e+00 2.5248715004e+00 4.3732057213e+00 
92200 6.0092076485e+00 7.0356289837e-05 2.5248700950e+00 -4.3732032870e+00 2.5248700950e+00 4.3732032870e+00 
92300 6.0092077371e+00 7.0953442990e-05 2.5248700950e+00 -4.3732032870e+00 2.5248700950e+00 4.3732032870e+00 
92400 6.0092078240e+00 7.0337431031e-05 2.5248686899e+00 -4.3732008533e+00 2.5248686899e+00 4.3732008533e+00 
92500 6.0092079093e+00 7.0934360557e-05 2.5248686899e+00 -4.3732008533e+00 2.5248686899e+00 4.3732008533e+00 
92600 6.0092079928e+00 7.0318171736e-05 2.5248672852e+00 -4.3731984203e+00 2.5248672852e+00 4.3731984203e+00 
92700 6.0092080749e+00 7.0914318767e-05 2.5248672852e+00 -4.3731984203e+00 2.5248672852e+00 4.3731984203e+00 
92800 6.0092081552e+00 7.0297414951e-05 2.5248658808e+00 -4.3731959879e+00 2.5248658808e+00 4.3731959879e+00 
92900 6.0092082342e+00 7.0892230015e-05 2.5248658808e+00 -4.3731959879e+00 2.5248658808e+00 4.3731959879e+00 
93000 6.0092083115e+00 7.0274102202e-05 2.5248644770e+00 -4.3731935563e+00 2.5248644770e+00 4.3731935563e+00 
93100 6.0092083874e+00 7.0867047430e-05 2.5248644770e+00 -4.3731935563e+00 2.5248644770e+00 4.3731935563e+00 
93200 6.0092084617e+00 7.0247217118e-05 2.5248630736e+00 -4.3731911256e+00 2.5248630736e+00 4.3731911256e+00 
93300 6.0092085347e+00 7.0837768189e-05 2.5248630736e+00 -4.3731911256e+00 2.5248630736e+00 4.3731911256e+00 
93400 6.0092086062e+00 7.0215788465e-05 2.5248616708e+00 -4.3731886959e+00 2.5248616708e+00 4.3731886959e+00 
93500 6.0092086764e+00 7.0803436320e-05 2.5248616708e+00 -4.3731886959e+00 2.5248616708e+00 4.3731886959e+00 
93600 6.0092087451e+00 7.0178892650e-05 2.5248602687e+00 -4.3731862673e+00 2.5248602687e+00 4.3731862673e+00 
93700 6.0092088126e+00 7.0763144984e-05 2.5248602687e+00 -4.3731862673e+00 2.5248602687e+00 4.3731862673e+00 
93800 6.0092088787e+00 7.0135655752e-05 2.5248588673e+00 -4.3731838402e+00 2.5248588673e+00 4.3731838402e+00 
93900 6.0092089435e+00 7.0716038283e-05 2.5248588673e+00 -4.3731838402e+00 2.5248588673e+00 4.3731838402e+00 
94000 6.0092090071e+00 7.0085255104e-05 2.5248574669e+00 -4.3731814146e+00 2.5248574669e+00 4.3731814146e+00 
94100 6.0092090694e+00 7.0661312658e-05 2.5248574669e+00 -4.3731814146e+00 2.5248574669e+00 4.3731814146e+00 
94200 6.0092091306e+00 7.1241556900e-05 2.5248574669e+00 -4.3731814146e+00 2.5248574669e+00 4.3731814146e+00 
94300 6.0092091904e+00 7.0601232983e-05 2.5248560561e+00 -4.3731789710e+00 2.5248560561e+00 4.3731789710e+00 
94400 6.0092092492e+00 7.1176315638e-05 2.5248560561e+00 -4.3731789710e+00 2.5248560561e+00 4.3731789710e+00 
94500 6.0092093067e+00 7.0531730889e-05 2.5248546466e+00 -4.3731765297e+00 2.5248546466e+00 4.3731765297e+00 
94600 6.0092093632e+00 7.1101228011e-05 2.5248546466e+00 -4.3731765297e+00 2.5248546466e+00 4.3731765297e+00 
94700 6.0092094184e+00 7.0452138921e-05 2.5248532386e+00 -4.3731740909e+00 2.5248532386e+00 4.3731740909e+00 
94800 6.0092094727e+00 7.1015650919e-05 2.5248532386e+00 -4.3731740909e+00 2.5248532386e+00 4.3731740909e+00 
94900 6.0092095258e+00 7.0361849440e-05 2.5248518323e+00 -4.3731716551e+00 2.5248518323e+00 4.3731716551e+00 
95000 6.0092095779e+00 7.0919001251e-05 2.5248518323e+00 -4.3731716551e+00 2.5248518323e+00 4.3731716551e+00 
95100 6.0092096290e+00 7.0260313875e-05 2.5248504278e+00 -4.3731692225e+00 2.5248504278e+00 4.3731692225e+00 
95200 6.0092096790e+00 7.0810755022e-05 2.5248504278e+00 -4.3731692225e+00 2.5248504278e+00 4.3731692225e+00 
95300 6.0092097281e+00 7.0147041763e-05 2.5248490256e+00 -4.3731667937e+00 2.5248490256e+00 4.3731667937e+00 
95400 6.0092097762e+00 7.0690446285e-05 2.5248490256e+00 -4.3731667937e+00 2.5248490256e+00 4.3731667937e+00 
95500 6.0092098233e+00 7.1236736043e-05 2.5248490256e+00 -4.3731667937e+00 2.5248490256e+00 4.3731667937e+00 
95600 6.0092098695e+00 7.0561270273e-05 2.5248476149e+00 -4.3731643503e+00 2.5248476149e+00 4.3731643503e+00 
95700 6.0092099147e+00 7.1099888253e-05 2.5248476149e+00 -4.3731643503e+00 2.5248476149e+00 4.3731643503e+00 
95800 6.0092099591e+00 7.0418944189e-05 2.5248462068e+00 -4.3731619116e+00 2.5248462068e+00 4.3731619116e+00 
95900 6.0092100026e+00 7.0949604684e-05 2.5248462068e+00 -4.3731619116e+00 2.5248462068e+00 4.3731619116e+00 
96000 6.0092100451e+00 7.0263139553e-05 2.5248448018e+00 -4.3731594780e+00 2.5248448018e+00 4.3731594780e+00 
96100 6.0092100869e+00 7.0785583221e-05 2.5248448018e+00 -4.3731594780e+00 2.5248448018e+00 4.3731594780e+00 
96200 6.0092101277e+00 7.0093585470e-05 2.5248434000e+00 -4.3731570500e+00 2.5248434000e+00 4.3731570500e+00 
96300 6.0092101679e+00 7.0607578698e-05 2.5248434000e+00 -4.3731570500e+00 2.5248434000e+00 4.3731570500e+00 
96400 6.0092102072e+00 7.1123778991e-05 2.5248434000e+00 -4.3731570500e+00 2.5248434000e+00 4.3731570500e+00 
96500 6.0092102456e+00 7.0419507130e-05 2.5248419916e+00 -4.3731546105e+00 2.5248419916e+00 4.3731546105e+00 
96600 6.0092102833e+00 7.0926761645e-05 2.5248419916e+00 -4.3731546105e+00 2.5248419916e+00 4.3731546105e+00 
96700 6.0092103202e+00 7.0216812645e-05 2.5248405870e+00 -4.3731521777e+00 2.5248405870e+00 4.3731521777e+00 
96800 6.0092103565e+00 7.0714928893e-05 2.5248405870e+00 -4.3731521777e+00 2.5248405870e+00 4.3731521777e+00 
96900 6.0092103919e+00 6.9999376635e-05 2.5248391866e+00 -4.3731497521e+00 2.5248391866e+00 4.3731497521e+00 
97000 6.0092104267e+00 7.0488188055e-05 2.5248391866e+00 -4.3731497521e+00 2.5248391866e+00 4.3731497521e+00 
97100 6.0092104607e+00 7.0978794697e-05 2.5248391866e+00 -4.3731497521e+00 2.5248391866e+00 4.3731497521e+00 
97200 6.0092104941e+00 7.0251023007e-05 2.5248377810e+00 -4.3731473175e+00 2.5248377810e+00 4.3731473175e+00 
97300 6.0092105268e+00 7.0731930003e-05 2.5248377810e+00 -4.3731473175e+00 2.5248377810e+00 4.3731473175e+00 
97400 6.0092105587e+00 6.9998612627e-05 2.5248363803e+00 -4.3731448914e+00 2.5248363803e+00 4.3731448914e+00 
97500 6.0092105901e+00 7.0469693739e-05 2.5248363803e+00 -4.3731448914e+00 2.5248363803e+00 4.3731448914e+00 
97600 6.0092106209e+00 7.0942323920e-05 2.5248363803e+00 -4.3731448914e+00 2.5248363803e+00 4.3731448914e+00 
97700 6.0092106509e+00 7.0196964348e-05 2.5248349754e+00 -4.3731424581e+00 2.5248349754e+00 4.3731424581e+00 
97800 6.0092106804e+00 7.0659434640e-05 2.5248349754e+00 -4.3731424581e+00 2.5248349754e+00 4.3731424581e+00 
97900 6.0092107094e+00 7.1123310701e-05 2.5248349754e+00 -4.3731424581e+00 2.5248349754e+00 4.3731424581e+00 
98000 6.0092107376e+00 7.0365945540e-05 2.5248335669e+00 -4.3731400185e+00 2.5248335669e+00 4.3731400185e+00 
98100 6.0092107653e+00 7.0819350559e-05 2.5248335669e+00 -4.3731400185e+00 2.5248335669e+00 4.3731400185e+00 
98200 6.0092107924e+00 7.0056672812e-05 2.5248321644e+00 -4.3731375894e+00 2.5248321644e+00 4.3731375894e+00 
98300 6.0092108191e+00 7.0499537715e-05 2.5248321644e+00 -4.3731375894e+00 2.5248321644e+00 4.3731375894e+00 
98400 6.0092108451e+00 7.0943620357e-05 2.5248321644e+00 -4.3731375894e+00 2.5248321644e+00 4.3731375894e+00 
98500 6.0092108706e+00 7.0169370229e-05 2.5248307595e+00 -4.3731351560e+00 2.5248307595e+00 4.3731351560e+00 
98600 6.0092108956e+00 7.0602665155e-05 2.5248307595e+00 -4.3731351560e+00 2.5248307595e+00 4.3731351560e+00 
98700 6.0092109201e+00 7.1037069821e-05 2.5248307595e+00 -4.3731351560e+00 2.5248307595e+00 4.3731351560e+00 
98800 6.0092109441e+00 7.0251430029e-05 2.5248293528e+00 -4.3731327194e+00 2.5248293528e+00 4.3731327194e+00 
98900 6.0092109676e+00 7.0674822534e-05 2.5248293528e+00 -4.3731327194e+00 2.5248293528e+00 4.3731327194e+00 
99000 6.0092109906e+00 7.1099225805e-05 2.5248293528e+00 -4.3731327194e+00 2.5248293528e+00 4.3731327194e+00 
99100 6.0092110131e+00 7.0302419951e-05 2.5248279448e+00 -4.3731302807e+00 2.5248279448e+00 4.3731302807e+00 
99200 6.0092110351e+00 7.0715610940e-05 2.5248279448e+00 -4.3731302807e+00 2.5248279448e+00 4.3731302807e+00 
99300 6.0092110567e+00 6.9914150018e-05 2.5248265444e+00 -4.3731278551e+00 2.5248265444e+00 4.3731278551e+00 
99400 6.0092110779e+00 7.0316133789e-05 2.5248265444e+00 -4.3731278551e+00 2.5248265444e+00 4.3731278551e+00 
99500 6.0092110986e+00 7.0719014487e-05 2.5248265444e+00 -4.3731278551e+00 2.5248265444e+00 4.3731278551e+00 
99600 6.0092111189e+00 6.9907114963e-05 2.5248251439e+00 -4.3731254294e+00 2.5248251439e+00 4.3731254294e+00 
99700 6.0092111388e+00 7.0298651663e-05 2.5248251439e+00 -4.3731254294e+00 2.5248251439e+00 4.3731254294e+00 
99800 6.0092111583e+00 7.0691021193e-05 2.5248251439e+00 -4.3731254294e+00 2.5248251439e+00 4.3731254294e+00 
99900 6.0092111774e+00 7.1084181203e-05 2.5248251439e+00 -4.3731254294e+00 2.5248251439e+00 4.3731254294e+00 
100000 6.0092111960e+00 7.0256177417e-05 2.5248237362e+00 -4.3731229912e+00 2.5248237362e+00 4.3731229912e+00 
100100 6.0092112143e+00 7.0637712785e-05 2.5248237362e+00 -4.3731229912e+00 2.5248237362e+00 4.3731229912e+00 
100200 6.0092112322e+00 7.1019974893e-05 2.5248237362e+00 -4.3731229912e+00 2.5248237362e+00 4.3731229912e+00 
100300 6.0092112497e+00 7.0182115870e-05 2.5248223297e+00 -4.3731205552e+00 2.5248223297e+00 4.3731205552e+00 
100400 6.0092112669e+00 7.0552647835e-05 2.5248223297e+00 -4.3731205552e+00 2.5248223297e+00 4.3731205552e+00 
100500 6.0092112837e+00 7.0923852932e-05 2.5248223297e+00 -4.3731205552e+00 2.5248223297e+00 4.3731205552e+00 
100600 6.0092113001e+00 7.0076538191e-05 2.5248209252e+00 -4.3731181225e+00 2.5248209252e+00 4.3731181225e+00 
100700 6.0092113163e+00 7.0435933615e-05 2.5248209252e+00 -4.3731181225e+00 2.5248209252e+00 4.3731181225e+00 
100800 6.0092113321e+00 7.0795958474e-05 2.5248209252e+00 -4.3731181225e+00 2.5248209252e+00 4.3731181225e+00 
100900 6.0092113475e+00 6.9939620711e-05 2.5248195232e+00 -4.3731156941e+00 2.5248195232e+00 4.3731156941e+00 
101000 6.0092113626e+00 7.0287781773e-05 2.5248195232e+00 -4.3731156941e+00 2.5248195232e+00 4.3731156941e+00 
101100 6.0092113775e+00 7.0636538175e-05 2.5248195232e+00 -4.3731156941e+00 2.5248195232e+00 4.3731156941e+00 
101200 6.0092113920e+00 7.0985857855e-05 2.5248195232e+00 -4.3731156941e+00 2.5248195232e+00 4.3731156941e+00 
101300 6.0092114062e+00 7.0115484582e-05 2.5248181175e+00 -4.3731132593e+00 2.5248181175e+00 4.3731132593e+00 
101400 6.0092114201e+00 7.0452774434e-05 2.5248181175e+00 -4.3731132593e+00 2.5248181175e+00 4.3731132593e+00 
101500 6.0092114337e+00 7.0790595273e-05 2.5248181175e+00 -4.3731132593e+00 2.5248181175e+00 4.3731132593e+00 
101600 6.0092114470e+00 6.9912050044e-05 2.5248167156e+00 -4.3731108311e+00 2.5248167156e+00 4.3731108311e+00 
101700 6.0092114601e+00 7.0237823286e-05 2.5248167156e+00 -4.3731108311e+00 2.5248167156e+00 4.3731108311e+00 
101800 6.0092114729e+00 7.0564105834e-05 2.5248167156e+00 -4.3731108311e+00 2.5248167156e+00 4.3731108311e+00 
101900 6.0092114855e+00 7.0890869944e-05 2.5248167156e+00 -4.3731108311e+00 2.5248167156e+00 4.3731108311e+00 
102000 6.0092114977e+00 6.9999495162e-05 2.5248153117e+00 -4.3731083995e+00 2.5248153117e+00 4.3731083995e+00 
102100 6.0092115097e+00 7.0314096652e-05 2.5248153117e+00 -4.3731083995e+00 2.5248153117e+00 4.3731083995e+00 
102200 6.0092115215e+00 7.0629160715e-05 2.5248153117e+00 -4.3731083995e+00 2.5248153117e+00 4.3731083995e+00 
102300 6.0092115330e+00 7.0944660714e-05 2.5248153117e+00 -4.3731083995e+00 2.5248153117e+00 4.3731083995e+00 
102400 6.0092115442e+00 7.0041052203e-05 2.5248139067e+00 -4.3731059661e+00 2.5248139067e+00 4.3731059661e+00 
102500 6.0092115553e+00 7.0344292143e-05 2.5248139067e+00 -4.3731059661e+00 2.5248139067e+00 4.3731059661e+00 
102600 6.0092115661e+00 7.0647953045e-05 2.5248139067e+00 -4.3731059661e+00 2.5248139067e+00 4.3731059661e+00 
102700 6.0092115767e+00 7.0952009774e-05 2.5248139067e+00 -4.3731059661e+00 2.5248139067e+00 4.3731059661e+00 
102800 6.0092115870e+00 7.0036792459e-05 2.5248125016e+00 -4.3731035324e+00 2.5248125016e+00 4.3731035324e+00 
102900 6.0092115972e+00 7.0328512350e-05 2.5248125016e+00 -4.3731035324e+00 2.5248125016e+00 4.3731035324e+00 
103000 6.0092116071e+00 7.0620618085e-05 2.5248125016e+00 -4.3731035324e+00 2.5248125016e+00 4.3731035324e+00 
103100 6.0092116168e+00 7.0913086327e-05 2.5248125016e+00 -4.3731035324e+00 2.5248125016e+00 4.3731035324e+00 
103200 6.0092116263e+00 6.9986917360e-05 2.5248110973e+00 -4.3731011001e+00 2.5248110973e+00 4.3731011001e+00 
103300 6.0092116357e+00 7.0266994853e-05 2.5248110973e+00 -4.3731011001e+00 2.5248110973e+00 4.3731011001e+00 
103400 6.0092116448e+00 7.0547430548e-05 2.5248110973e+00 -4.3731011001e+00 2.5248110973e+00 4.3731011001e+00 
103500 6.0092116538e+00 7.0828203102e-05 2.5248110973e+00 -4.3731011001e+00 2.5248110973e+00 4.3731011001e+00 
103600 6.0092116624e+00 6.9891773070e-05 2.5248096947e+00 -4.3730986706e+00 2.5248096947e+00 4.3730986706e+00 
103700 6.0092116710e+00 7.0160125273e-05 2.5248096947e+00 -4.3730986706e+00 2.5248096947e+00 4.3730986706e+00 
103800 6.0092116794e+00 7.0428816136e-05 2.5248096947e+00 -4.3730986706e+00 2.5248096947e+00 4.3730986706e+00 
103900 6.0092116877e+00 7.0697826425e-05 2.5248096947e+00 -4.3730986706e+00 2.5248096947e+00 4.3730986706e+00 
104000 6.0092116957e+00 7.0967134488e-05 2.5248096947e+00 -4.3730986706e+00 2.5248096947e+00 4.3730986706e+00 
104100 6.0092117035e+00 7.0016812080e-05 2.5248082893e+00 -4.3730962364e+00 2.5248082893e+00 4.3730962364e+00 
104200 6.0092117113e+00 7.0273595858e-05 2.5248082893e+00 -4.3730962364e+00 2.5248082893e+00 4.3730962364e+00 
104300 6.0092117188e+00 7.0530679549e-05 2.5248082893e+00 -4.3730962364e+00 2.5248082893e+00 4.3730962364e+00 
104400 6.0092117263e+00 7.0788044329e-05 2.5248082893e+00 -4.3730962364e+00 2.5248082893e+00 4.3730962364e+00 
104500 6.0092117334e+00 6.9828842186e-05 2.5248068874e+00 -4.3730938083e+00 2.5248068874e+00 4.3730938083e+00 
104600 6.0092117405e+00 7.0073690616e-05 2.5248068874e+00 -4.3730938083e+00 2.5248068874e+00 4.3730938083e+00 
104700 6.0092117475e+00 7.0318830459e-05 2.5248068874e+00 -4.3730938083e+00 2.5248068874e+00 4.3730938083e+00 
104800 6.0092117543e+00 7.0564245614e-05 2.5248068874e+00 -4.3730938083e+00 2.5248068874e+00 4.3730938083e+00 
104900 6.0092117610e+00 7.0809917693e-05 2.5248068874e+00 -4.3730938083e+00 2.5248068874e+00 4.3730938083e+00 
105000 6.0092117674e+00 6.9838622531e-05 2.5248054851e+00 -4.3730913795e+00 2.5248054851e+00 4.3730913795e+00 
105100 6.0092117738e+00 7.0071727699e-05 2.5248054851e+00 -4.3730913795e+00 2.5248054851e+00 4.3730913795e+00 
105200 6.0092117801e+00 7.0305102217e-05 2.5248054851e+00 -4.3730913795e+00 2.5248054851e+00 4.3730913795e+00 
105300 6.0092117862e+00 7.0538730904e-05 2.5248054851e+00 -4.3730913795e+00 2.5248054851e+00 4.3730913795e+00 
105400 6.0092117922e+00 7.0772596395e-05 2.5248054851e+00 -4.3730913795e+00 2.5248054851e+00 4.3730913795e+00 
105500 6.0092117980e+00 6.9790116327e-05 2.5248040836e+00 -4.3730889519e+00 2.5248040836e+00 4.3730889519e+00 
105600 6.0092118038e+00 7.0011384925e-05 2.5248040836e+00 -4.3730889519e+00 2.5248040836e+00 4.3730889519e+00 
105700 6.0092118095e+00 7.0232906327e-05 2.5248040836e+00 -4.3730889519e+00 2.5248040836e+00 4.3730889519e+00 
105800 6.0092118150e+00 7.0454666710e-05 2.5248040836e+00 -4.3730889519e+00 2.5248040836e+00 4.3730889519e+00 
105900 6.0092118204e+00 7.0676650143e-05 2.5248040836e+00 -4.3730889519e+00 2.5248040836e+00 4.3730889519e+00 
106000 6.0092118257e+00 7.0898838712e-05 2.5248040836e+00 -4.3730889519e+00 2.5248040836e+00 4.3730889519e+00 
106100 6.0092118308e+00 6.9902479041e-05 2.5248026795e+00 -4.3730865201e+00 2.5248026795e+00 4.3730865201e+00 
106200 6.0092118359e+00 7.0111983303e-05 2.5248026795e+00 -4.3730865201e+00 2.5248026795e+00 4.3730865201e+00 
106300 6.0092118409e+00 7.0321708401e-05 2.5248026795e+00 -4.3730865201e+00 2.5248026795e+00 4.3730865201e+00 
106400 6.0092118458e+00 7.0531640739e-05 2.5248026795e+00 -4.3730865201e+00 2.5248026795e+00 4.3730865201e+00 
106500 6.0092118505e+00 7.0741764771e-05 2.5248026795e+00 -4.3730865201e+00 2.5248026795e+00 4.3730865201e+00 
106600 6.0092118551e+00 6.9736028453e-05 2.5248012786e+00 -4.3730840936e+00 2.5248012786e+00 4.3730840936e+00 
106700 6.0092118597e+00 6.9933477288e-05 2.5248012786e+00 -4.3730840936e+00 2.5248012786e+00 4.3730840936e+00 
106800 6.0092118642e+00 7.0131140518e-05 2.5248012786e+00 -4.3730840936e+00 2.5248012786e+00 4.3730840936e+00 
106900 6.0092118686e+00 7.0329006929e-05 2.5248012786e+00 -4.3730840936e+00 2.5248012786e+00 4.3730840936e+00 
107000 6.0092118729e+00 7.0527063359e-05 2.5248012786e+00 -4.3730840936e+00 2.5248012786e+00 4.3730840936e+00 
107100 6.0092118771e+00 7.0725294827e-05 2.5248012786e+00 -4.3730840936e+00 2.5248012786e+00 4.3730840936e+00 
107200 6.0092118812e+00 6.9707932224e-05 2.5247998780e+00 -4.3730816676e+00 2.5247998780e+00 4.3730816676e+00 
107300 6.0092118852e+00 6.9893460358e-05 2.5247998780e+00 -4.3730816676e+00 2.5247998780e+00 4.3730816676e+00 
107400 6.0092118892e+00 7.0079188631e-05 2.5247998780e+00 -4.3730816676e+00 2.5247998780e+00 4.3730816676e+00 
107500 6.0092118931e+00 7.0265106843e-05 2.5247998780e+00 -4.3730816676e+00 2.5247998780e+00 4.3730816676e+00 
107600 6.0092118969e+00 7.0451202940e-05 2.5247998780e+00 -4.3730816676e+00 2.5247998780e+00 4.3730816676e+00 
107700 6.0092119006e+00 7.0637463140e-05 2.5247998780e+00 -4.3730816676e+00 2.5247998780e+00 4.3730816676e+00 
107800 6.0092119043e+00 7.0823872045e-05 2.5247998780e+00 -4.3730816676e+00 2.5247998780e+00 4.3730816676e+00 
107900 6.0092119078e+00 6.9792965097e-05 2.5247984754e+00 -4.3730792383e+00 2.5247984754e+00 4.3730792383e+00 
108000 6.0092119113e+00 6.9966599362e-05 2.5247984754e+00 -4.3730792383e+00 2.5247984754e+00 4.3730792383e+00 
108100 6.0092119148e+00 7.0140407446e-05 2.5247984754e+00 -4.3730792383e+00 2.5247984754e+00 4.3730792383e+00 
108200 6.0092119181e+00 7.0314379471e-05 2.5247984754e+00 -4.3730792383e+00 2.5247984754e+00 4.3730792383e+00 
108300 6.0092119214e+00 7.0488503867e-05 2.5247984754e+00 -4.3730792383e+00 2.5247984754e+00 4.3730792383e+00 
108400 6.0092119247e+00 7.0662767478e-05 2.5247984754e+00 -4.3730792383e+00 2.5247984754e+00 4.3730792383e+00 
108500 6.0092119278e+00 7.0837155678e-05 2.5247984754e+00 -4.3730792383e+00 2.5247984754e+00 4.3730792383e+00 
108600 6.0092119309e+00 6.9793975568e-05 2.5247970726e+00 -4.3730768086e+00 2.5247970726e+00 4.3730768086e+00 
108700 6.0092119339e+00 6.9955541231e-05 2.5247970726e+00 -4.3730768086e+00 2.5247970726e+00 4.3730768086e+00 
108800 6.0092119369e+00 7.0117259671e-05 2.5247970726e+00 -4.3730768086e+00 2.5247970726e+00 4.3730768086e+00 
108900 6.0092119398e+00 7.0279122258e-05 2.5247970726e+00 -4.3730768086e+00 2.5247970726e+00 4.3730768086e+00 
109000 6.0092119427e+00 7.0441118761e-05 2.5247970726e+00 -4.3730768086e+00 2.5247970726e+00 4.3730768086e+00 
109100 6.0092119455e+00 7.0603237459e-05 2.5247970726e+00 -4.3730768086e+00 2.5247970726e+00 4.3730768086e+00 
109200 6.0092119483e+00 7.0765465247e-05 2.5247970726e+00 -4.3730768086e+00 2.5247970726e+00 4.3730768086e+00 
109300 6.0092119509e+00 6.9711342120e-05 2.5247956712e+00 -4.3730743812e+00 2.5247956712e+00 4.3730743812e+00 
109400 6.0092119535e+00 6.9860734379e-05 2.5247956712e+00 -4.3730743812e+00 2.5247956712e+00 4.3730743812e+00 
109500 6.0092119561e+00 7.0010268840e-05 2.5247956712e+00 -4.3730743812e+00 2.5247956712e+00 4.3730743812e+00 
109600 6.0092119587e+00 7.0159938649e-05 2.5247956712e+00 -4.3730743812e+00 2.5247956712e+00 4.3730743812e+00 
109700 6.0092119612e+00 7.0309735414e-05 2.5247956712e+00 -4.3730743812e+00 2.5247956712e+00 4.3730743812e+00 
109800 6.0092119636e+00 7.0459649297e-05 2.5247956712e+00 -4.3730743812e+00 2.5247956712e+00 4.3730743812e+00 
109900 6.0092119660e+00 7.0609669112e-05 2.5247956712e+00 -4.3730743812e+00 2.5247956712e+00 4.3730743812e+00 
110000 6.0092119683e+00 7.0759782424e-05 2.5247956712e+00 -4.3730743812e+00 2.5247956712e+00 4.3730743812e+00 
110100 6.0092119706e+00 6.9693626765e-05 2.5247942699e+00 -4.3730719541e+00 2.5247942699e+00 4.3730719541e+00 
110200 6.0092119728e+00 6.9830876886e-05 2.5247942699e+00 -4.3730719541e+00 2.5247942699e+00 4.3730719541e+00 
110300 6.0092119751e+00 6.9968256366e-05 2.5247942699e+00 -4.3730719541e+00 2.5247942699e+00 4.3730719541e+00 
110400 6.0092119772e+00 7.0105759484e-05 2.5247942699e+00 -4.3730719541e+00 2.5247942699e+00 4.3730719541e+00 
110500 6.0092119794e+00 7.0243379076e-05 2.5247942699e+00 -4.3730719541e+00 2.5247942699e+00 4.3730719541e+00 
110600 6.0092119814e+00 7.0381106621e-05 2.5247942699e+00 -4.3730719541e+00 2.5247942699e+00 4.3730719541e+00 
110700 6.0092119835e+00 7.0518932335e-05 2.5247942699e+00 -4.3730719541e+00 2.5247942699e+00 4.3730719541e+00 
110800 6.0092119855e+00 7.0656845259e-05 2.5247942699e+00 -4.3730719541e+00 2.5247942699e+00 4.3730719541e+00 
110900 6.0092119875e+00 7.0794833338e-05 2.5247942699e+00 -4.3730719541e+00 2.5247942699e+00 4.3730719541e+00 
111000 6.0092119893e+00 6.9715931217e-05 2.5247928679e+00 -4.3730695258e+00 2.5247928679e+00 4.3730695258e+00 
111100 6.0092119912e+00 6.9841014687e-05 2.5247928679e+00 -4.3730695258e+00 2.5247928679e+00 4.3730695258e+00 
111200 6.0092119931e+00 6.9966211236e-05 2.5247928679e+00 -4.3730695258e+00 2.5247928679e+00 4.3730695258e+00 
111300 6.0092119949e+00 7.0091516083e-05 2.5247928679e+00 -4.3730695258e+00 2.5247928679e+00 4.3730695258e+00 
111400 6.0092119967e+00 7.0216923117e-05 2.5247928679e+00 -4.3730695258e+00 2.5247928679e+00 4.3730695258e+00 
111500 6.0092119985e+00 7.0342424974e-05 2.5247928679e+00 -4.3730695258e+00 2.5247928679e+00 4.3730695258e+00 
111600 6.0092120002e+00 7.0468013133e-05 2.5247928679e+00 -4.3730695258e+00 2.5247928679e+00 4.3730695258e+00 
111700 6.0092120019e+00 7.0593677983e-05 2.5247928679e+00 -4.3730695258e+00 2.5247928679e+00 4.3730695258e+00 
111800 6.0092120035e+00 7.0719408908e-05 2.5247928679e+00 -4.3730695258e+00 2.5247928679e+00 4.3730695258e+00 
111900 6.0092120051e+00 6.9629537505e-05 2.5247914674e+00 -4.3730671001e+00 2.5247914674e+00 4.3730671001e+00 
112000 6.0092120067e+00 6.9742364113e-05 2.5247914674e+00 -4.3730671001e+00 2.5247914674e+00 4.3730671001e+00 
112100 6.0092120083e+00 6.9855299398e-05 2.5247914674e+00 -4.3730671001e+00 2.5247914674e+00 4.3730671001e+00 
112200 6.0092120098e+00 6.9968340276e-05 2.5247914674e+00 -4.3730671001e+00 2.5247914674e+00 4.3730671001e+00 
112300 6.0092120113e+00 7.0081482387e-05 2.5247914674e+00 -4.3730671001e+00 2.5247914674e+00 4.3730671001e+00 
112400 6.0092120128e+00 7.0194720171e-05 2.5247914674e+00 -4.3730671001e+00 2.5247914674e+00 4.3730671001e+00 
112500 6.0092120143e+00 7.0308046946e-05 2.5247914674e+00 -4.3730671001e+00 2.5247914674e+00 4.3730671001e+00 
112600 6.0092120157e+00 7.0421454983e-05 2.5247914674e+00 -4.3730671001e+00 2.5247914674e+00 4.3730671001e+00 
112700 6.0092120171e+00 7.0534935574e-05 2.5247914674e+00 -4.3730671001e+00 2.5247914674e+00 4.3730671001e+00 
112800 6.0092120185e+00 7.0648479108e-05 2.5247914674e+00 -4.3730671001e+00 2.5247914674e+00 4.3730671001e+00 
112900 6.0092120198e+00 7.0762075128e-05 2.5247914674e+00 -4.3730671001e+00 2.5247914674e+00 4.3730671001e+00 
113000 6.0092120211e+00 6.9659321209e-05 2.5247900661e+00 -4.3730646729e+00 2.5247900661e+00 4.3730646729e+00 
113100 6.0092120224e+00 6.9759978966e-05 2.5247900661e+00 -4.3730646729e+00 2.5247900661e+00 4.3730646729e+00 
113200 6.0092120237e+00 6.9860733267e-05 2.5247900661e+00 -4.3730646729e+00 2.5247900661e+00 4.3730646729e+00 
113300 6.0092120249e+00 6.9961581778e-05 2.5247900661e+00 -4.3730646729e+00 2.5247900661e+00 4.3730646729e+00 
113400 6.0092120262e+00 7.0062521004e-05 2.5247900661e+00 -4.3730646729e+00 2.5247900661e+00 4.3730646729e+00 
113500 6.0092120274e+00 7.0163546369e-05 2.5247900661e+00 -4.3730646729e+00 2.5247900661e+00 4.3730646729e+00 
113600 6.0092120286e+00 7.0264652281e-05 2.5247900661e+00 -4.3730646729e+00 2.5247900661e+00 4.3730646729e+00 
113700 6.0092120297e+00 7.0365832192e-05 2.5247900661e+00 -4.3730646729e+00 2.5247900661e+00 4.3730646729e+00 
113800 6.0092120309e+00 7.0467078679e-05 2.5247900661e+00 -4.3730646729e+00 2.5247900661e+00 4.3730646729e+00 
113900 6.0092120320e+00 7.0568383485e-05 2.5247900661e+00 -4.3730646729e+00 2.5247900661e+00 4.3730646729e+00 
114000 6.0092120331e+00 7.0669737597e-05 2.5247900661e+00 -4.3730646729e+00 2.5247900661e+00 4.3730646729e+00 
114100 6.0092120342e+00 7.0771131289e-05 2.5247900661e+00 -4.3730646729e+00 2.5247900661e+00 4.3730646729e+00 
114200 6.0092120352e+00 6.9656006317e-05 2.5247886645e+00 -4.3730622454e+00 2.5247886645e+00 4.3730622454e+00 
114300 6.0092120363e+00 6.9744436926e-05 2.5247886645e+00 -4.3730622454e+00 2.5247886645e+00 4.3730622454e+00 
114400 6.0092120373e+00 6.9832954109e-05 2.5247886645e+00 -4.3730622454e+00 2.5247886645e+00 4.3730622454e+00 
114500 6.0092120383e+00 6.9921556719e-05 2.5247886645e+00 -4.3730622454e+00 2.5247886645e+00 4.3730622454e+00 
114600 6.0092120393e+00 7.0010242543e-05 2.5247886645e+00 -4.3730622454e+00 2.5247886645e+00 4.3730622454e+00 
114700 6.0092120403e+00 7.0099008371e-05 2.5247886645e+00 -4.3730622454e+00 2.5247886645e+00 4.3730622454e+00 
114800 6.0092120413e+00 7.0187850057e-05 2.5247886645e+00 -4.3730622454e+00 2.5247886645e+00 4.3730622454e+00 
114900 6.0092120422e+00 7.0276762574e-05 2.5247886645e+00 -4.3730622454e+00 2.5247886645e+00 4.3730622454e+00 
115000 6.0092120432e+00 7.0365740081e-05 2.5247886645e+00 -4.3730622454e+00 2.5247886645e+00 4.3730622454e+00 
115100 6.0092120441e+00 7.0454775968e-05 2.5247886645e+00 -4.3730622454e+00 2.5247886645e+00 4.3730622454e+00 
115200 6.0092120450e+00 7.0543862916e-05 2.5247886645e+00 -4.3730622454e+00 2.5247886645e+00 4.3730622454e+00 
115300 6.0092120459e+00 7.0632992949e-05 2.5247886645e+00 -4.3730622454e+00 2.5247886645e+00 4.3730622454e+00 
115400 6.0092120467e+00 7.0722157482e-05 2.5247886645e+00 -4.3730622454e+00 2.5247886645e+00 4.3730622454e+00 
115500 6.0092120475e+00 6.9595640247e-05 2.5247872640e+00 -4.3730598195e+00 2.5247872640e+00 4.3730598195e+00 
115600 6.0092120484e+00 6.9671844266e-05 2.5247872640e+00 -4.3730598195e+00 2.5247872640e+00 4.3730598195e+00 
115700 6.0092120492e+00 6.9748133658e-05 2.5247872640e+00 -4.3730598195e+00 2.5247872640e+00 4.3730598195e+00 
115800 6.0092120500e+00 6.9824508720e-05 2.5247872640e+00 -4.3730598195e+00 2.5247872640e+00 4.3730598195e+00 
115900 6.0092120508e+00 6.9900968752e-05 2.5247872640e+00 -4.3730598195e+00 2.5247872640e+00 4.3730598195e+00 
116000 6.0092120516e+00 6.9977512116e-05 2.5247872640e+00 -4.3730598195e+00 2.5247872640e+00 4.3730598195e+00 
116100 6.0092120524e+00 7.0054136285e-05 2.5247872640e+00 -4.3730598195e+00 2.5247872640e+00 4.3730598195e+00 
116200 6.0092120532e+00 7.0130837902e-05 2.5247872640e+00 -4.3730598195e+00 2.5247872640e+00 4.3730598195e+00 
116300 6.0092120539e+00 7.0207612833e-05 2.5247872640e+00 -4.3730598195e+00 2.5247872640e+00 4.3730598195e+00 
116400 6.0092120546e+00 7.0284456212e-05 2.5247872640e+00 -4.3730598195e+00 2.5247872640e+00 4.3730598195e+00 
116500 6.0092120554e+00 7.0361362493e-05 2.5247872640e+00 -4.3730598195e+00 2.5247872640e+00 4.3730598195e+00 
116600 6.0092120561e+00 7.0438325501e-05 2.5247872640e+00 -4.3730598195e+00 2.5247872640e+00 4.3730598195e+00 
116700 6.0092120568e+00 7.0515338469e-05 2.5247872640e+00 -4.3730598195e+00 2.5247872640e+00 4.3730598195e+00 
116800 6.0092120575e+00 7.0592394088e-05 2.5247872640e+00 -4.3730598195e+00 2.5247872640e+00 4.3730598195e+00 
116900 6.0092120582e+00 7.0669484548e-05 2.5247872640e+00 -4.3730598195e+00 2.5247872640e+00 4.3730598195e+00 
117000 6.0092120588e+00 7.0746601581e-05 2.5247872640e+00 -4.3730598195e+00 2.5247872640e+00 4.3730598195e+00 
117100 6.0092120594e+00 6.9607608179e-05 2.5247858629e+00 -4.3730573929e+00 2.5247858629e+00 4.3730573929e+00 
117200 6.0092120601e+00 6.9671745803e-05 2.5247858629e+00 -4.3730573929e+00 2.5247858629e+00 4.3730573929e+00 
117300 6.0092120607e+00 6.9735962655e-05 2.5247858629e+00 -4.3730573929e+00 2.5247858629e+00 4.3730573929e+00 
117400 6.0092120613e+00 6.9800259854e-05 2.5247858629e+00 -4.3730573929e+00 2.5247858629e+00 4.3730573929e+00 
117500 6.0092120620e+00 6.9864637633e-05 2.5247858629e+00 -4.3730573929e+00 2.5247858629e+00 4.3730573929e+00 
117600 6.0092120626e+00 6.9929095381e-05 2.5247858629e+00 -4.3730573929e+00 2.5247858629e+00 4.3730573929e+00 
117700 6.0092120632e+00 6.9993631692e-05 2.5247858629e+00 -4.3730573929e+00 2.5247858629e+00 4.3730573929e+00 
117800 6.0092120638e+00 7.0058244411e-05 2.5247858629e+00 -4.3730573929e+00 2.5247858629e+00 4.3730573929e+00 
117900 6.0092120644e+00 7.0122930684e-05 2.5247858629e+00 -4.3730573929e+00 2.5247858629e+00 4.3730573929e+00 
118000 6.0092120649e+00 7.0187686998e-05 2.5247858629e+00 -4.3730573929e+00 2.5247858629e+00 4.3730573929e+00 
118100 6.0092120655e+00 7.0252509223e-05 2.5247858629e+00 -4.3730573929e+00 2.5247858629e+00 4.3730573929e+00 
118200 6.0092120661e+00 7.0317392655e-05 2.5247858629e+00 -4.3730573929e+00 2.5247858629e+00 4.3730573929e+00 
118300 6.0092120666e+00 7.0382332054e-05 2.5247858629e+00 -4.3730573929e+00 2.5247858629e+00 4.3730573929e+00 
118400 6.0092120672e+00 7.0447321683e-05 2.5247858629e+00 -4.3730573929e+00 2.5247858629e+00 4.3730573929e+00 
118500 6.0092120677e+00 7.0512355349e-05 2.5247858629e+00 -4.3730573929e+00 2.5247858629e+00 4.3730573929e+00 
118600 6.0092120682e+00 7.0577426429e-05 2.5247858629e+00 -4.3730573929e+00 2.5247858629e+00 4.3730573929e+00 
118700 6.0092120687e+00 7.0642527914e-05 2.5247858629e+00 -4.3730573929e+00 2.5247858629e+00 4.3730573929e+00 
118800 6.0092120692e+00 7.0707652437e-05 2.5247858629e+00 -4.3730573929e+00 2.5247858629e+00 4.3730573929e+00 
118900 6.0092120697e+00 7.0772792309e-05 2.5247858629e+00 -4.3730573929e+00 2.5247858629e+00 4.3730573929e+00 
119000 6.0092120702e+00 6.9621359968e-05 2.5247844614e+00 -4.3730549653e+00 2.5247844614e+00 4.3730549653e+00 
119100 6.0092120706e+00 6.9673495371e-05 2.5247844614e+00 -4.3730549653e+00 2.5247844614e+00 4.3730549653e+00 
119200 6.0092120711e+00 6.9725701281e-05 2.5247844614e+00 -4.3730549653e+00 2.5247844614e+00 4.3730549653e+00 
119300 6.0092120716e+00 6.9777979864e-05 2.5247844614e+00 -4.3730549653e+00 2.5247844614e+00 4.3730549653e+00 
119400 6.0092120721e+00 6.9830332484e-05 2.5247844614e+00 -4.3730549653e+00 2.5247844614e+00 4.3730549653e+00 
119500 6.0092120725e+00 6.9882759759e-05 2.5247844614e+00 -4.3730549653e+00 2.5247844614e+00 4.3730549653e+00 
119600 6.0092120730e+00 6.9935261586e-05 2.5247844614e+00 -4.3730549653e+00 2.5247844614e+00 4.3730549653e+00 
119700 6.0092120734e+00 6.9987837190e-05 2.5247844614e+00 -4.3730549653e+00 2.5247844614e+00 4.3730549653e+00 
119800 6.0092120739e+00 7.0040485163e-05 2.5247844614e+00 -4.3730549653e+00 2.5247844614e+00 4.3730549653e+00 
119900 6.0092120743e+00 7.0093203500e-05 2.5247844614e+00 -4.3730549653e+00 2.5247844614e+00 4.3730549653e+00 
120000 6.0092120747e+00 7.0145989633e-05 2.5247844614e+00 -4.3730549653e+00 2.5247844614e+00 4.3730549653e+00 
120100 6.0092120752e+00 7.0198840471e-05 2.5247844614e+00 -4.3730549653e+00 2.5247844614e+00 4.3730549653e+00 
120200 6.0092120756e+00 7.0251752429e-05 2.5247844614e+00 -4.3730549653e+00 2.5247844614e+00 4.3730549653e+00 
120300 6.0092120760e+00 7.0304721463e-05 2.5247844614e+00 -4.3730549653e+00 2.5247844614e+00 4.3730549653e+00 
120400 6.0092120764e+00 7.0357743106e-05 2.5247844614e+00 -4.3730549653e+00 2.5247844614e+00 4.3730549653e+00 
120500 6.0092120768e+00 7.0410812494e-05 2.5247844614e+00 -4.3730549653e+00 2.5247844614e+00 4.3730549653e+00 
120600 6.0092120772e+00 7.0463924395e-05 2.5247844614e+00 -4.3730549653e+00 2.5247844614e+00 4.3730549653e+00 
120700 6.0092120776e+00 7.0517073240e-05 2.5247844614e+00 -4.3730549653e+00 2.5247844614e+00 4.3730549653e+00 
120800 6.0092120780e+00 7.0570253155e-05 2.5247844614e+00 -4.3730549653e+00 2.5247844614e+00 4.3730549653e+00 
120900 6.0092120783e+00 7.0623457977e-05 2.5247844614e+00 -4.3730549653e+00 2.5247844614e+00 4.3730549653e+00 
121000 6.0092120787e+00 7.0676681290e-05 2.5247844614e+00 -4.3730549653e+00 2.5247844614e+00 4.3730549653e+00 
121100 6.0092120791e+00 7.0729916444e-05 2.5247844614e+00 -4.3730549653e+00 2.5247844614e+00 4.3730549653e+00 
121200 6.0092120794e+00 6.9567312863e-05 2.5247830607e+00 -4.3730525392e+00 2.5247830607e+00 4.3730525392e+00 
121300 6.0092120797e+00 6.9607547838e-05 2.5247830607e+00 -4.3730525392e+00 2.5247830607e+00 4.3730525392e+00 
121400 6.0092120801e+00 6.9647853380e-05 2.5247830607e+00 -4.3730525392e+00 2.5247830607e+00 4.3730525392e+00 
121500 6.0092120804e+00 6.9688232986e-05 2.5247830607e+00 -4.3730525392e+00 2.5247830607e+00 4.3730525392e+00 
121600 6.0092120808e+00 6.9728689419e-05 2.5247830607e+00 -4.3730525392e+00 2.5247830607e+00 4.3730525392e+00 
121700 6.0092120811e+00 6.9769224740e-05 2.5247830607e+00 -4.3730525392e+00 2.5247830607e+00 4.3730525392e+00 
121800 6.0092120814e+00 6.9809840345e-05 2.5247830607e+00 -4.3730525392e+00 2.5247830607e+00 4.3730525392e+00 
121900 6.0092120818e+00 6.9850537002e-05 2.5247830607e+00 -4.3730525392e+00 2.5247830607e+00 4.3730525392e+00 
122000 6.0092120821e+00 6.9891314878e-05 2.5247830607e+00 -4.3730525392e+00 2.5247830607e+00 4.3730525392e+00 
122100 6.0092120824e+00 6.9932173582e-05 2.5247830607e+00 -4.3730525392e+00 2.5247830607e+00 4.3730525392e+00 
122200 6.0092120827e+00 6.9973112183e-05 2.5247830607e+00 -4.3730525392e+00 2.5247830607e+00 4.3730525392e+00 
122300 6.0092120830e+00 7.0014129255e-05 2.5247830607e+00 -4.3730525392e+00 2.5247830607e+00 4.3730525392e+00 
122400 6.0092120834e+00 7.0055222896e-05 2.5247830607e+00 -4.3730525392e+00 2.5247830607e+00 4.3730525392e+00 
122500 6.0092120837e+00 7.0096390762e-05 2.5247830607e+00 -4.3730525392e+00 2.5247830607e+00 4.3730525392e+00 
122600 6.0092120840e+00 7.0137630096e-05 2.5247830607e+00 -4.3730525392e+00 2.5247830607e+00 4.3730525392e+00 
122700 6.0092120843e+00 7.0178937752e-05 2.5247830607e+00 -4.3730525392e+00 2.5247830607e+00 4.3730525392e+00 
122800 6.0092120846e+00 7.0220310220e-05 2.5247830607e+00 -4.3730525392e+00 2.5247830607e+00 4.3730525392e+00 
122900 6.0092120848e+00 7.0261743657e-05 2.5247830607e+00 -4.3730525392e+00 2.5247830607e+00 4.3730525392e+00 
123000 6.0092120851e+00 7.0303233908e-05 2.5247830607e+00 -4.3730525392e+00 2.5247830607e+00 4.3730525392e+00 
123100 6.0092120854e+00 7.0344776528e-05 2.5247830607e+00 -4.3730525392e+00 2.5247830607e+00 4.3730525392e+00 
123200 6.0092120857e+00 7.0386366809e-05 2.5247830607e+00 -4.3730525392e+00 2.5247830607e+00 4.3730525392e+00 
123300 6.0092120860e+00 7.0427999798e-05 2.5247830607e+00 -4.3730525392e+00 2.5247830607e+00 4.3730525392e+00 
123400 6.0092120862e+00 7.0469670321e-05 2.5247830607e+00 -4.3730525392e+00 2.5247830607e+00 4.3730525392e+00 
123500 6.0092120865e+00 7.0511373000e-05 2.5247830607e+00 -4.3730525392e+00 2.5247830607e+00 4.3730525392e+00 
123600 6.0092120868e+00 7.0553102280e-05 2.5247830607e+00 -4.3730525392e+00 2.5247830607e+00 4.3730525392e+00 
123700 6.0092120870e+00 7.0594852437e-05 2.5247830607e+00 -4.3730525392e+00 2.5247830607e+00 4.3730525392e+00 
123800 6.0092120873e+00 7.0636617605e-05 2.5247830607e+00 -4.3730525392e+00 2.5247830607e+00 4.3730525392e+00 
123900 6.0092120875e+00 7.0678391792e-05 2.5247830607e+00 -4.3730525392e+00 2.5247830607e+00 4.3730525392e+00 
124000 6.0092120878e+00 7.0720168891e-05 2.5247830607e+00 -4.3730525392e+00 2.5247830607e+00 4.3730525392e+00 
124100 6.0092120880e+00 6.9546265389e-05 2.5247816602e+00 -4.3730501134e+00 2.5247816602e+00 4.3730501134e+00 
124200 6.0092120882e+00 6.9575028288e-05 2.5247816602e+00 -4.3730501134e+00 2.5247816602e+00 4.3730501134e+00 
124300 6.0092120885e+00 6.9603855106e-05 2.5247816602e+00 -4.3730501134e+00 2.5247816602e+00 4.3730501134e+00 
124400 6.0092120887e+00 6.9632750297e-05 2.5247816602e+00 -4.3730501134e+00 2.5247816602e+00 4.3730501134e+00 
124500 6.0092120889e+00 6.9661717661e-05 2.5247816602e+00 -4.3730501134e+00 2.5247816602e+00 4.3730501134e+00 
124600 6.0092120892e+00 6.9690760377e-05 2.5247816602e+00 -4.3730501134e+00 2.5247816602e+00 4.3730501134e+00 
124700 6.0092120894e+00 6.9719881030e-05 2.5247816602e+00 -4.3730501134e+00 2.5247816602e+00 4.3730501134e+00 
124800 6.0092120896e+00 6.9749081643e-05 2.5247816602e+00 -4.3730501134e+00 2.5247816602e+00 4.3730501134e+00 
124900 6.0092120898e+00 6.9778363700e-05 2.5247816602e+00 -4.3730501134e+00 2.5247816602e+00 4.3730501134e+00 
125000 6.0092120901e+00 6.9807728179e-05 2.5247816602e+00 -4.3730501134e+00 2.5247816602e+00 4.3730501134e+00 
125100 6.0092120903e+00 6.9837175570e-05 2.5247816602e+00 -4.3730501134e+00 2.5247816602e+00 4.3730501134e+00 
125200 6.0092120905e+00 6.9866705913e-05 2.5247816602e+00 -4.3730501134e+00 2.5247816602e+00 4.3730501134e+00 
125300 6.0092120907e+00 6.9896318809e-05 2.5247816602e+00 -4.3730501134e+00 2.5247816602e+00 4.3730501134e+00 
125400 6.0092120909e+00 6.9926013451e-05 2.5247816602e+00 -4.3730501134e+00 2.5247816602e+00 4.3730501134e+00 
125500 6.0092120911e+00 6.9955788649e-05 2.5247816602e+00 -4.3730501134e+00 2.5247816602e+00 4.3730501134e+00 
125600 6.0092120913e+00 6.9985642851e-05 2.5247816602e+00 -4.3730501134e+00 2.5247816602e+00 4.3730501134e+00 
125700 6.0092120916e+00 7.0015574163e-05 2.5247816602e+00 -4.3730501134e+00 2.5247816602e+00 4.3730501134e+00 
125800 6.0092120918e+00 7.0045580373e-05 2.5247816602e+00 -4.3730501134e+00 2.5247816602e+00 4.3730501134e+00 
125900 6.0092120920e+00 7.0075658970e-05 2.5247816602e+00 -4.3730501134e+00 2.5247816602e+00 4.3730501134e+00 
126000 6.0092120922e+00 7.0105807166e-05 2.5247816602e+00 -4.3730501134e+00 2.5247816602e+00 4.3730501134e+00 
126100 6.0092120923e+00 7.0136021911e-05 2.5247816602e+00 -4.3730501134e+00 2.5247816602e+00 4.3730501134e+00 
126200 6.0092120925e+00 7.0166299918e-05 2.5247816602e+00 -4.3730501134e+00 2.5247816602e+00 4.3730501134e+00 
126300 6.0092120927e+00 7.0196637677e-05 2.5247816602e+00 -4.3730501134e+00 2.5247816602e+00 4.3730501134e+00 
126400 6.0092120929e+00 7.0227031473e-05 2.5247816602e+00 -4.3730501134e+00 2.5247816602e+00 4.3730501134e+00 
126500 6.0092120931e+00 7.0257477401e-05 2.5247816602e+00 -4.3730501134e+00 2.5247816602e+00 4.3730501134e+00 
126600 6.0092120933e+00 7.0287971389e-05 2.5247816602e+00 -4.3730501134e+00 2.5247816602e+00 4.3730501134e+00 
126700 6.0092120935e+00 7.0318509205e-05 2.5247816602e+00 -4.3730501134e+00 2.5247816602e+00 4.3730501134e+00 
126800 6.0092120936e+00 7.0349086477e-05 2.5247816602e+00 -4.3730501134e+00 2.5247816602e+00 4.3730501134e+00 
126900 6.0092120938e+00 7.0379698705e-05 2.5247816602e+00 -4.3730501134e+00 2.5247816602e+00 4.3730501134e+00 
127000 6.0092120940e+00 7.0410341279e-05 2.5247816602e+00 -4.3730501134e+00 2.5247816602e+00 4.3730501134e+00 
127100 6.0092120942e+00 7.0441009488e-05 2.5247816602e+00 -4.3730501134e+00 2.5247816602e+00 4.3730501134e+00 
127200 6.0092120943e+00 7.0471698534e-05 2.5247816602e+00 -4.3730501134e+00 2.5247816602e+00 4.3730501134e+00 
127300 6.0092120945e+00 7.0502403545e-05 2.5247816602e+00 -4.3730501134e+00 2.5247816602e+00 4.3730501134e+00 
127400 6.0092120947e+00 7.0533119586e-05 2.5247816602e+00 -4.3730501134e+00 2.5247816602e+00 4.3730501134e+00 
127500 6.0092120948e+00 7.0563841671e-05 2.5247816602e+00 -4.3730501134e+00 2.5247816602e+00 4.3730501134e+00 
127600 6.0092120950e+00 7.0594564773e-05 2.5247816602e+00 -4.3730501134e+00 2.5247816602e+00 4.3730501134e+00 
127700 6.0092120952e+00 7.0625283833e-05 2.5247816602e+00 -4.3730501134e+00 2.5247816602e+00 4.3730501134e+00 
127800 6.0092120953e+00 7.0655993775e-05 2.5247816602e+00 -4.3730501134e+00 2.5247816602e+00 4.3730501134e+00 
127900 6.0092120955e+00 7.0686689507e-05 2.5247816602e+00 -4.3730501134e+00 2.5247816602e+00 4.3730501134e+00 
128000 6.0092120956e+00 7.0717365937e-05 2.5247816602e+00 -4.3730501134e+00 2.5247816602e+00 4.3730501134e+00 
128100 6.0092120957e+00 6.9532387601e-05 2.5247802597e+00 -4.3730476877e+00 2.5247802597e+00 4.3730476877e+00 
128200 6.0092120959e+00 6.9550009312e-05 2.5247802597e+00 -4.3730476877e+00 2.5247802597e+00 4.3730476877e+00 
128300 6.0092120960e+00 6.9567676347e-05 2.5247802597e+00 -4.3730476877e+00 2.5247802597e+00 4.3730476877e+00 
128400 6.0092120962e+00 6.9585394528e-05 2.5247802597e+00 -4.3730476877e+00 2.5247802597e+00 4.3730476877e+00 
128500 6.0092120963e+00 6.9603169101e-05 2.5247802597e+00 -4.3730476877e+00 2.5247802597e+00 4.3730476877e+00 
128600 6.0092120965e+00 6.9621004758e-05 2.5247802597e+00 -4.3730476877e+00 2.5247802597e+00 4.3730476877e+00 
128700 6.0092120966e+00 6.9638905654e-05 2.5247802597e+00 -4.3730476877e+00 2.5247802597e+00 4.3730476877e+00 
128800 6.0092120967e+00 6.9656875441e-05 2.5247802597e+00 -4.3730476877e+00 2.5247802597e+00 4.3730476877e+00 
128900 6.0092120969e+00 6.9674917278e-05 2.5247802597e+00 -4.3730476877e+00 2.5247802597e+00 4.3730476877e+00 
129000 6.0092120970e+00 6.9693033862e-05 2.5247802597e+00 -4.3730476877e+00 2.5247802597e+00 4.3730476877e+00 
129100 6.0092120972e+00 6.9711227445e-05 2.5247802597e+00 -4.3730476877e+00 2.5247802597e+00 4.3730476877e+00 
129200 6.0092120973e+00 6.9729499855e-05 2.5247802597e+00 -4.3730476877e+00 2.5247802597e+00 4.3730476877e+00 
129300 6.0092120974e+00 6.9747852513e-05 2.5247802597e+00 -4.3730476877e+00 2.5247802597e+00 4.3730476877e+00 
129400 6.0092120976e+00 6.9766286463e-05 2.5247802597e+00 -4.3730476877e+00 2.5247802597e+00 4.3730476877e+00 
129500 6.0092120977e+00 6.9784802376e-05 2.5247802597e+00 -4.3730476877e+00 2.5247802597e+00 4.3730476877e+00 
129600 6.0092120978e+00 6.9803400583e-05 2.5247802597e+00 -4.3730476877e+00 2.5247802597e+00 4.3730476877e+00 
129700 6.0092120979e+00 6.9822081081e-05 2.5247802597e+00 -4.3730476877e+00 2.5247802597e+00 4.3730476877e+00 
129800 6.0092120981e+00 6.9840843558e-05 2.5247802597e+00 -4.3730476877e+00 2.5247802597e+00 4.3730476877e+00 
129900 6.0092120982e+00 6.9859687411e-05 2.5247802597e+00 -4.3730476877e+00 2.5247802597e+00 4.3730476877e+00 
130000 6.0092120983e+00 6.9878611755e-05 2.5247802597e+00 -4.3730476877e+00 2.5247802597e+00 4.3730476877e+00 
130100 6.0092120984e+00 6.9897615447e-05 2.5247802597e+00 -4.3730476877e+00 2.5247802597e+00 4.3730476877e+00 
130200 6.0092120986e+00 6.9916697097e-05 2.5247802597e+00 -4.3730476877e+00 2.5247802597e+00 4.3730476877e+00 
130300 6.0092120987e+00 6.9935855086e-05 2.5247802597e+00 -4.3730476877e+00 2.5247802597e+00 4.3730476877e+00 
130400 6.0092120988e+00 6.9955087577e-05 2.5247802597e+00 -4.3730476877e+00 2.5247802597e+00 4.3730476877e+00 
130500 6.0092120989e+00 6.9974392533e-05 2.5247802597e+00 -4.3730476877e+00 2.5247802597e+00 4.3730476877e+00 
130600 6.0092120990e+00 6.9993767729e-05 2.5247802597e+00 -4.3730476877e+00 2.5247802597e+00 4.3730476877e+00 
130700 6.0092120991e+00 7.0013210765e-05 2.5247802597e+00 -4.3730476877e+00 2.5247802597e+00 4.3730476877e+00 
130800 6.0092120992e+00 7.0032719081e-05 2.5247802597e+00 -4.3730476877e+00 2.5247802597e+00 4.3730476877e+00 
130900 6.0092120994e+00 7.0052289964e-05 2.5247802597e+00 -4.3730476877e+00 2.5247802597e+00 4.3730476877e+00 
131000 6.0092120995e+00 7.0071920568e-05 2.5247802597e+00 -4.3730476877e+00 2.5247802597e+00 4.3730476877e+00 
131100 6.0092120996e+00 7.0091607918e-05 2.5247802597e+00 -4.3730476877e+00 2.5247802597e+00 4.3730476877e+00 
131200 6.0092120997e+00 7.0111348926e-05 2.5247802597e+00 -4.3730476877e+00 2.5247802597e+00 4.3730476877e+00 
131300 6.0092120998e+00 7.0131140400e-05 2.5247802597e+00 -4.3730476877e+00 2.5247802597e+00 4.3730476877e+00 
131400 6.0092120999e+00 7.0150979055e-05 2.5247802597e+00 -4.3730476877e+00 2.5247802597e+00 4.3730476877e+00 
131500 6.0092121000e+00 7.0170861521e-05 2.5247802597e+00 -4.3730476877e+00 2.5247802597e+00 4.3730476877e+00 
131600 6.0092121001e+00 7.0190784353e-05 2.5247802597e+00 -4.3730476877e+00 2.5247802597e+00 4.3730476877e+00 
131700 6.0092121002e+00 7.0210744045e-05 2.5247802597e+00 -4.3730476877e+00 2.5247802597e+00 4.3730476877e+00 
131800 6.0092121003e+00 7.0230737028e-05 2.5247802597e+00 -4.3730476877e+00 2.5247802597e+00 4.3730476877e+00 
131900 6.0092121004e+00 7.0250759694e-05 2.5247802597e+00 -4.3730476877e+00 2.5247802597e+00 4.3730476877e+00 
132000 6.0092121005e+00 7.0270808386e-05 2.5247802597e+00 -4.3730476877e+00 2.5247802597e+00 4.3730476877e+00 
132100 6.0092121006e+00 7.0290879421e-05 2.5247802597e+00 -4.3730476877e+00 2.5247802597e+00 4.3730476877e+00 
132200 6.0092121007e+00 7.0310969092e-05 2.5247802597e+00 -4.3730476877e+00 2.5247802597e+00 4.3730476877e+00 
132300 6.0092121008e+00 7.0331073667e-05 2.5247802597e+00 -4.3730476877e+00 2.5247802597e+00 4.3730476877e+00 
132400 6.0092121009e+00 7.0351189411e-05 2.5247802597e+00 -4.3730476877e+00 2.5247802597e+00 4.3730476877e+00 
132500 6.0092121010e+00 7.0371312582e-05 2.5247802597e+00 -4.3730476877e+00 2.5247802597e+00 4.3730476877e+00 
132600 6.0092121011e+00 7.0391439435e-05 2.5247802597e+00 -4.3730476877e+00 2.5247802597e+00 4.3730476877e+00 
132700 6.0092121012e+00 7.0411566238e-05 2.5247802597e+00 -4.3730476877e+00 2.5247802597e+00 4.3730476877e+00 
132800 6.0092121012e+00 7.0431689267e-05 2.5247802597e+00 -4.3730476877e+00 2.5247802597e+00 4.3730476877e+00 
132900 6.0092121013e+00 7.0451804819e-05 2.5247802597e+00 -4.3730476877e+00 2.5247802597e+00 4.3730476877e+00 
133000 6.0092121014e+00 7.0471909214e-05 2.5247802597e+00 -4.3730476877e+00 2.5247802597e+00 4.3730476877e+00 
133100 6.0092121015e+00 7.0491998794e-05 2.5247802597e+00 -4.3730476877e+00 2.5247802597e+00 4.3730476877e+00 
133200 6.0092121016e+00 7.0512069939e-05 2.5247802597e+00 -4.3730476877e+00 2.5247802597e+00 4.3730476877e+00 
133300 6.0092121017e+00 7.0532119061e-05 2.5247802597e+00 -4.3730476877e+00 2.5247802597e+00 4.3730476877e+00 
133400 6.0092121018e+00 7.0552142613e-05 2.5247802597e+00 -4.3730476877e+00 2.5247802597e+00 4.3730476877e+00 
133500 6.0092121018e+00 7.0572137090e-05 2.5247802597e+00 -4.3730476877e+00 2.5247802597e+00 4.3730476877e+00 
133600 6.0092121019e+00 7.0592099035e-05 2.5247802597e+00 -4.3730476877e+00 2.5247802597e+00 4.3730476877e+00 
133700 6.0092121020e+00 7.0612025038e-05 2.5247802597e+00 -4.3730476877e+00 2.5247802597e+00 4.3730476877e+00 
133800 6.0092121021e+00 7.0631911746e-05 2.5247802597e+00 -4.3730476877e+00 2.5247802597e+00 4.3730476877e+00 
133900 6.0092121022e+00 7.0651755858e-05 2.5247802597e+00 -4.3730476877e+00 2.5247802597e+00 4.3730476877e+00 
134000 6.0092121022e+00 7.0671554131e-05 2.5247802597e+00 -4.3730476877e+00 2.5247802597e+00 4.3730476877e+00 
134100 6.0092121023e+00 7.0691303383e-05 2.5247802597e+00 -4.3730476877e+00 2.5247802597e+00 4.3730476877e+00 
134200 6.0092121024e+00 7.0711000494e-05 2.5247802597e+00 -4.3730476877e+00 2.5247802597e+00 4.3730476877e+00 
134300 6.0092121024e+00 6.9515120025e-05 2.5247788593e+00 -4.3730452623e+00 2.5247788593e+00 4.3730452623e+00 
134400 6.0092121025e+00 6.9521704019e-05 2.5247788593e+00 -4.3730452623e+00 2.5247788593e+00 4.3730452623e+00 
134500 6.0092121025e+00 6.9528306742e-05 2.5247788593e+00 -4.3730452623e+00 2.5247788593e+00 4.3730452623e+00 
134600 6.0092121026e+00 6.9534936187e-05 2.5247788593e+00 -4.3730452623e+00 2.5247788593e+00 4.3730452623e+00 
134700 6.0092121027e+00 6.9541599803e-05 2.5247788593e+00 -4.3730452623e+00 2.5247788593e+00 4.3730452623e+00 
134800 6.0092121028e+00 6.9548304515e-05 2.5247788593e+00 -4.3730452623e+00 2.5247788593e+00 4.3730452623e+00 
134900 6.0092121028e+00 6.9555056739e-05 2.5247788593e+00 -4.3730452623e+00 2.5247788593e+00 4.3730452623e+00 
135000 6.0092121029e+00 6.9561862401e-05 2.5247788593e+00 -4.3730452623e+00 2.5247788593e+00 4.3730452623e+00 
135100 6.0092121030e+00 6.9568726959e-05 2.5247788593e+00 -4.3730452623e+00 2.5247788593e+00 4.3730452623e+00 
135200 6.0092121030e+00 6.9575655412e-05 2.5247788593e+00 -4.3730452623e+00 2.5247788593e+00 4.3730452623e+00 
135300 6.0092121031e+00 6.9582652325e-05 2.5247788593e+00 -4.3730452623e+00 2.5247788593e+00 4.3730452623e+00 
135400 6.0092121032e+00 6.9589721840e-05 2.5247788593e+00 -4.3730452623e+00 2.5247788593e+00 4.3730452623e+00 
135500 6.0092121032e+00 6.9596867696e-05 2.5247788593e+00 -4.3730452623e+00 2.5247788593e+00 4.3730452623e+00 
135600 6.0092121033e+00 6.9604093238e-05 2.5247788593e+00 -4.3730452623e+00 2.5247788593e+00 4.3730452623e+00 
135700 6.0092121034e+00 6.9611401446e-05 2.5247788593e+00 -4.3730452623e+00 2.5247788593e+00 4.3730452623e+00 
135800 6.0092121034e+00 6.9618794935e-05 2.5247788593e+00 -4.3730452623e+00 2.5247788593e+00 4.3730452623e+00 
135900 6.0092121035e+00 6.9626275982e-05 2.5247788593e+00 -4.3730452623e+00 2.5247788593e+00 4.3730452623e+00 
136000 6.0092121035e+00 6.9633846535e-05 2.5247788593e+00 -4.3730452623e+00 2.5247788593e+00 4.3730452623e+00 
136100 6.0092121036e+00 6.9641508226e-05 2.5247788593e+00 -4.3730452623e+00 2.5247788593e+00 4.3730452623e+00 
136200 6.0092121037e+00 6.9649262389e-05 2.5247788593e+00 -4.3730452623e+00 2.5247788593e+00 4.3730452623e+00 
136300 6.0092121037e+00 6.9657110071e-05 2.5247788593e+00 -4.3730452623e+00 2.5247788593e+00 4.3730452623e+00 
136400 6.0092121038e+00 6.9665052049e-05 2.5247788593e+00 -4.3730452623e+00 2.5247788593e+00 4.3730452623e+00 
136500 6.0092121038e+00 6.9673088837e-05 2.5247788593e+00 -4.3730452623e+00 2.5247788593e+00 4.3730452623e+00 
136600 6.0092121039e+00 6.9681220705e-05 2.5247788593e+00 -4.3730452623e+00 2.5247788593e+00 4.3730452623e+00 
136700 6.0092121040e+00 6.9689447687e-05 2.5247788593e+00 -4.3730452623e+00 2.5247788593e+00 4.3730452623e+00 
136800 6.0092121040e+00 6.9697769592e-05 2.5247788593e+00 -4.3730452623e+00 2.5247788593e+00 4.3730452623e+00 
136900 6.0092121041e+00 6.9706186025e-05 2.5247788593e+00 -4.3730452623e+00 2.5247788593e+00 4.3730452623e+00 
137000 6.0092121041e+00 6.9714696385e-05 2.5247788593e+00 -4.3730452623e+00 2.5247788593e+00 4.3730452623e+00 
137100 6.0092121042e+00 6.9723299886e-05 2.5247788593e+00 -4.3730452623e+00 2.5247788593e+00 4.3730452623e+00 
137200 6.0092121042e+00 6.9731995565e-05 2.5247788593e+00 -4.3730452623e+00 2.5247788593e+00 4.3730452623e+00 
137300 6.0092121043e+00 6.9740782291e-05 2.5247788593e+00 -4.3730452623e+00 2.5247788593e+00 4.3730452623e+00 
137400 6.0092121043e+00 6.9749658775e-05 2.5247788593e+00 -4.3730452623e+00 2.5247788593e+00 4.3730452623e+00 
137500 6.0092121044e+00 6.9758623583e-05 2.5247788593e+00 -4.3730452623e+00 2.5247788593e+00 4.3730452623e+00 
137600 6.0092121044e+00 6.9767675142e-05 2.5247788593e+00 -4.3730452623e+00 2.5247788593e+00 4.3730452623e+00 
137700 6.0092121045e+00 6.9776811752e-05 2.5247788593e+00 -4.3730452623e+00 2.5247788593e+00 4.3730452623e+00 
137800 6.0092121045e+00 6.9786031593e-05 2.5247788593e+00 -4.3730452623e+00 2.5247788593e+00 4.3730452623e+00 
137900 6.0092121046e+00 6.9795332735e-05 2.5247788593e+00 -4.3730452623e+00 2.5247788593e+00 4.3730452623e+00 
138000 6.0092121046e+00 6.9804713144e-05 2.5247788593e+00 -4.3730452623e+00 2.5247788593e+00 4.3730452623e+00 
138100 6.0092121047e+00 6.9814170694e-05 2.5247788593e+00 -4.3730452623e+00 2.5247788593e+00 4.3730452623e+00 
138200 6.0092121047e+00 6.9823703171e-05 2.5247788593e+00 -4.3730452623e+00 2.5247788593e+00 4.3730452623e+00 
138300 6.0092121048e+00 6.9833308282e-05 2.5247788593e+00 -4.3730452623e+00 2.5247788593e+00 4.3730452623e+00 
138400 6.0092121048e+00 6.9842983662e-05 2.5247788593e+00 -4.3730452623e+00 2.5247788593e+00 4.3730452623e+00 
138500 6.0092121049e+00 6.9852726884e-05 2.5247788593e+00 -4.3730452623e+00 2.5247788593e+00 4.3730452623e+00 
138600 6.0092121049e+00 6.9862535457e-05 2.5247788593e+00 -4.3730452623e+00 2.5247788593e+00 4.3730452623e+00 
138700 6.0092121050e+00 6.9872406846e-05 2.5247788593e+00 -4.3730452623e+00 2.5247788593e+00 4.3730452623e+00 
138800 6.0092121050e+00 6.9882338463e-05 2.5247788593e+00 -4.3730452623e+00 2.5247788593e+00 4.3730452623e+00 
138900 6.0092121051e+00 6.9892327688e-05 2.5247788593e+00 -4.3730452623e+00 2.5247788593e+00 4.3730452623e+00 
139000 6.0092121051e+00 6.9902371860e-05 2.5247788593e+00 -4.3730452623e+00 2.5247788593e+00 4.3730452623e+00 
139100 6.0092121051e+00 6.9912468293e-05 2.5247788593e+00 -4.3730452623e+00 2.5247788593e+00 4.3730452623e+00 
139200 6.0092121052e+00 6.9922614278e-05 2.5247788593e+00 -4.3730452623e+00 2.5247788593e+00 4.3730452623e+00 
139300 6.0092121052e+00 6.9932807088e-05 2.5247788593e+00 -4.3730452623e+00 2.5247788593e+00 4.3730452623e+00 
139400 6.0092121053e+00 6.9943043981e-05 2.5247788593e+00 -4.3730452623e+00 2.5247788593e+00 4.3730452623e+00 
139500 6.0092121053e+00 6.9953322207e-05 2.5247788593e+00 -4.3730452623e+00 2.5247788593e+00 4.3730452623e+00 
139600 6.0092121054e+00 6.9963639011e-05 2.5247788593e+00 -4.3730452623e+00 2.5247788593e+00 4.3730452623e+00 
139700 6.0092121054e+00 6.9973991640e-05 2.5247788593e+00 -4.3730452623e+00 2.5247788593e+00 4.3730452623e+00 
139800 6.0092121054e+00 6.9984377342e-05 2.5247788593e+00 -4.3730452623e+00 2.5247788593e+00 4.3730452623e+00 
139900 6.0092121055e+00 6.9994793372e-05 2.5247788593e+00 -4.3730452623e+00 2.5247788593e+00 4.3730452623e+00 
140000 6.0092121055e+00 7.0005237000e-05 2.5247788593e+00 -4.3730452623e+00 2.5247788593e+00 4.3730452623e+00 
140100 6.0092121055e+00 7.0015705502e-05 2.5247788593e+00 -4.3730452623e+00 2.5247788593e+00 4.3730452623e+00 
140200 6.0092121056e+00 7.0026196180e-05 2.5247788593e+00 -4.3730452623e+00 2.5247788593e+00 4.3730452623e+00 
140300 6.0092121056e+00 7.0028716944e-05 2.5247788593e+00 -4.3730452623e+00 2.5247788593e+00 4.3730452623e+00 
140300 6.0092121056e+00 7.0028716944e-05 2.5247788593e+00 -4.3730452623e+00 2.5247788593e+00 4.3730452623e+00 
