# step Hamiltonian StressXX CellTensor1 CellTensor2 CellTensor3 CellTensor4 
0 6.9164097247e+00 9.2213047058e-02 1.7438352029e+00 -3.0204111715e+00 1.7438352029e+00 3.0204111715e+00 
100 6.9095568556e+00 9.8778938949e-02 1.7438352029e+00 -3.0204111715e+00 1.7438352029e+00 3.0204111715e+00 
200 6.9024624246e+00 1.0260249327e-01 1.7410037382e+00 -3.0155069307e+00 1.7410037382e+00 3.0155069307e+00 
300 6.8954343943e+00 1.0580788596e-01 1.7380579231e+00 -3.0104046293e+00 1.7380579231e+00 3.0104046293e+00 
400 6.8884911765e+00 1.0842751024e-01 1.7350149593e+00 -3.0051340613e+00 1.7350149593e+00 3.0051340613e+00 
500 6.8816498676e+00 1.1049266977e-01 1.7318912137e+00 -2.9997235753e+00 1.7318912137e+00 2.9997235753e+00 
600 6.8749262620e+00 1.1203369563e-01 1.7287022522e+00 -2.9942001320e+00 1.7287022522e+00 2.9942001320e+00 
700 6.8683348625e+00 1.1308004066e-01 1.7254628676e+00 -2.9885893532e+00 1.7254628676e+00 2.9885893532e+00 
800 6.8618888897e+00 1.1366035303e-01 1.7221871036e+00 -2.9829155636e+00 1.7221871036e+00 2.9829155636e+00 
900 6.8556002907e+00 1.1380253131e-01 1.7188882755e+00 -2.9772018257e+00 1.7188882755e+00 2.9772018257e+00 
1000 6.8494797475e+00 1.1353376291e-01 1.7155789873e+00 -2.9714699704e+00 1.7155789873e+00 2.9714699704e+00 
1100 6.8435366878e+00 1.1288054832e-01 1.7122711479e+00 -2.9657406245e+00 1.7122711479e+00 2.9657406245e+00 
1200 6.8377792973e+00 1.1186871320e-01 1.7089759846e+00 -2.9600332342e+00 1.7089759846e+00 2.9600332342e+00 
1300 6.8322145354e+00 1.1052341036e-01 1.7057040563e+00 -2.9543660882e+00 1.7057040563e+00 2.9543660882e+00 
1400 6.8268481542e+00 1.0886911381e-01 1.7024652660e+00 -2.9487563388e+00 1.7024652660e+00 2.9487563388e+00 
1500 6.8216847220e+00 1.0692960662e-01 1.6992688727e+00 -2.9432200232e+00 1.6992688727e+00 2.9432200232e+00 
1600 6.8167276515e+00 1.0472796444e-01 1.6961235038e+00 -2.9377720845e+00 1.6961235038e+00 2.9377720845e+00 
1700 6.8119792327e+00 1.0228653624e-01 1.6930371680e+00 -2.9324263940e+00 1.6930371680e+00 2.9324263940e+00 
1800 6.8074406705e+00 9.9626923809e-02 1.6900172678e+00 -2.9271957735e+00 1.6900172678e+00 2.9271957735e+00 
1900 6.8031121270e+00 9.6769961048e-02 1.6870706141e+00 -2.9220920195e+00 1.6870706141e+00 2.9220920195e+00 
2000 6.7989927694e+00 9.3735694390e-02 1.6842034402e+00 -2.9171259287e+00 1.6842034402e+00 2.9171259287e+00 
2100 6.7950808206e+00 9.0543365084e-02 1.6814214176e+00 -2.9123073243e+00 1.6814214176e+00 2.9123073243e+00 
2200 6.7913736155e+00 8.7211394135e-02 1.6787296724e+00 -2.9076450848e+00 1.6787296724e+00 2.9076450848e+00 
2300 6.7878676594e+00 8.3757370463e-02 1.6761328020e+00 -2.9031471733e+00 1.6761328020e+00 2.9031471733e+00 
2400 6.7845586900e+00 8.0198042698e-02 1.6736348934e+00 -2.8988206687e+00 1.6736348934e+00 2.8988206687e+00 
2500 6.7814417417e+00 7.6549314880e-02 1.6712395418e+00 -2.8946717980e+00 1.6712395418e+00 2.8946717980e+00 
2600 6.7785112119e+00 7.2826246220e-02 1.6689498698e+00 -2.8907059698e+00 1.6689498698e+00 2.8907059698e+00 
2700 6.7757609281e+00 6.9043054957e-02 1.6667685473e+00 -2.8869278084e+00 1.6667685473e+00 2.8869278084e+00 
2800 6.7731842159e+00 6.5213126234e-02 1.6646978117e+00 -2.8833411892e+00 1.6646978117e+00 2.8833411892e+00 
2900 6.7707739675e+00 6.1349023865e-02 1.6627394887e+00 -2.8799492741e+00 1.6627394887e+00 2.8799492741e+00 
3000 6.7685227084e+00 5.7462505751e-02 1.6608950125e+00 -2.8767545477e+00 1.6608950125e+00 2.8767545477e+00 
3100 6.7664226649e+00 5.3564542682e-02 1.6591654474e+00 -2.8737588531e+00 1.6591654474e+00 2.8737588531e+00 
3200 6.7644658283e+00 4.9665340197e-02 1.6575515081e+00 -2.8709634281e+00 1.6575515081e+00 2.8709634281e+00 
3300 6.7626440190e+00 4.5774363153e-02 1.6560535802e+00 -2.8683689409e+00 1.6560535802e+00 2.8683689409e+00 
3400 6.7609489463e+00 4.1900362625e-02 1.6546717411e+00 -2.8659755255e+00 1.6546717411e+00 2.8659755255e+00 
3500 6.7593722674e+00 3.8051404752e-02 1.6534057796e+00 -2.8637828158e+00 1.6534057796e+00 2.8637828158e+00 
3600 6.7579056421e+00 3.4234901157e-02 1.6522552155e+00 -2.8617899802e+00 1.6522552155e+00 2.8617899802e+00 
3700 6.7565407850e+00 3.0457640539e-02 1.6512193185e+00 -2.8599957542e+00 1.6512193185e+00 2.8599957542e+00 
3800 6.7552695139e+00 2.6725821089e-02 1.6502971272e+00 -2.8583984719e+00 1.6502971272e+00 2.8583984719e+00 
3900 6.7540837949e+00 2.3045083376e-02 1.6494874659e+00 -2.8569960974e+00 1.6494874659e+00 2.8569960974e+00 
4000 6.7529757835e+00 1.9420543369e-02 1.6487889624e+00 -2.8557862538e+00 1.6487889624e+00 2.8557862538e+00 
4100 6.7519378623e+00 1.5856825317e-02 1.6482000639e+00 -2.8547662517e+00 1.6482000639e+00 2.8547662517e+00 
4200 6.7509626746e+00 1.2358094190e-02 1.6477190527e+00 -2.8539331158e+00 1.6477190527e+00 2.8539331158e+00 
4300 6.7500431541e+00 8.9280874567e-03 1.6473440608e+00 -2.8532836108e+00 1.6473440608e+00 2.8532836108e+00 
4400 6.7491725513e+00 5.5701459825e-03 1.6470730839e+00 -2.8528142651e+00 1.6470730839e+00 2.8528142651e+00 
4500 6.7483444553e+00 2.2872438687e-03 1.6469039946e+00 -2.8525213938e+00 1.6469039946e+00 2.8525213938e+00 
4600 6.7475528132e+00 -9.1798292138e-04 1.6468345543e+00 -2.8524011198e+00 1.6468345543e+00 2.8524011198e+00 
4700 6.7467919446e+00 -4.0432092681e-03 1.6468624255e+00 -2.8524493941e+00 1.6468624255e+00 2.8524493941e+00 
4800 6.7460565536e+00 -7.0863950295e-03 1.6469851820e+00 -2.8526620145e+00 1.6469851820e+00 2.8526620145e+00 
4900 6.7453417373e+00 -1.0045760673e-02 1.6472003190e+00 -2.8530346428e+00 1.6472003190e+00 2.8530346428e+00 
5000 6.7446429909e+00 -1.2919764448e-02 1.6475052628e+00 -2.8535628209e+00 1.6475052628e+00 2.8535628209e+00 
5100 6.7439562100e+00 -1.5707081132e-02 1.6478973792e+00 -2.8542419864e+00 1.6478973792e+00 2.8542419864e+00 
5200 6.7432776904e+00 -1.8406582341e-02 1.6483739816e+00 -2.8550674861e+00 1.6483739816e+00 2.8550674861e+00 
5300 6.7426041248e+00 -2.1017318407e-02 1.6489323386e+00 -2.8560345887e+00 1.6489323386e+00 2.8560345887e+00 
5400 6.7419325971e+00 -2.3538501791e-02 1.6495696804e+00 -2.8571384971e+00 1.6495696804e+00 2.8571384971e+00 
5500 6.7412605753e+00 -2.5969491981e-02 1.6502832058e+00 -2.8583743594e+00 1.6502832058e+00 2.8583743594e+00 
5600 6.7405859009e+00 -2.8309781848e-02 1.6510700876e+00 -2.8597372786e+00 1.6510700876e+00 2.8597372786e+00 
5700 6.7399067781e+00 -3.0558985376e-02 1.6519274779e+00 -2.8612223222e+00 1.6519274779e+00 2.8612223222e+00 
5800 6.7392217598e+00 -3.2716826716e-02 1.6528525136e+00 -2.8628245309e+00 1.6528525136e+00 2.8628245309e+00 
5900 6.7385297333e+00 -3.4783130492e-02 1.6538423203e+00 -2.8645389264e+00 1.6538423203e+00 2.8645389264e+00 
6000 6.7378299039e+00 -3.6757813271e-02 1.6548940171e+00 -2.8663605187e+00 1.6548940171e+00 2.8663605187e+00 
6100 6.7371217781e+00 -3.8640876136e-02 1.6560047203e+00 -2.8682843131e+00 1.6560047203e+00 2.8682843131e+00 
6200 6.7364051454e+00 -4.0432398272e-02 1.6571715470e+00 -2.8703053162e+00 1.6571715470e+00 2.8703053162e+00 
6300 6.7356800593e+00 -4.2132531486e-02 1.6583916185e+00 -2.8724185420e+00 1.6583916185e+00 2.8724185420e+00 
6400 6.7349468180e+00 -4.3741495589e-02 1.6596620634e+00 -2.8746190173e+00 1.6596620634e+00 2.8746190173e+00 
6500 6.7342059445e+00 -4.5259574556e-02 1.6609800209e+00 -2.8769017865e+00 1.6609800209e+00 2.8769017865e+00 
6600 6.7334581667e+00 -4.6687113391e-02 1.6623426428e+00 -2.8792619170e+00 1.6623426428e+00 2.8792619170e+00 
6700 6.7327043965e+00 -4.8024515624e-02 1.6637470970e+00 -2.8816945030e+00 1.6637470970e+00 2.8816945030e+00 
6800 6.7319457100e+00 -4.9272241369e-02 1.6651905692e+00 -2.8841946701e+00 1.6651905692e+00 2.8841946701e+00 
6900 6.7311833272e+00 -5.0430805877e-02 1.6666702656e+00 -2.8867575795e+00 1.6666702656e+00 2.8867575795e+00 
7000 6.7304185916e+00 -5.1500778525e-02 1.6681834152e+00 -2.8893784315e+00 1.6681834152e+00 2.8893784315e+00 
7100 6.7296529512e+00 -5.2482782168e-02 1.6697272717e+00 -2.8920524693e+00 1.6697272717e+00 2.8920524693e+00 
7200 6.7288879388e+00 -5.3377492820e-02 1.6712991154e+00 -2.8947749825e+00 1.6712991154e+00 2.8947749825e+00 
7300 6.7281251533e+00 -5.4185639587e-02 1.6728962557e+00 -2.8975413107e+00 1.6728962557e+00 2.8975413107e+00 
7400 6.7273662419e+00 -5.4908004828e-02 1.6745160326e+00 -2.9003468466e+00 1.6745160326e+00 2.9003468466e+00 
7500 6.7266128825e+00 -5.5545424481e-02 1.6761558186e+00 -2.9031870391e+00 1.6761558186e+00 2.9031870391e+00 
7600 6.7258667671e+00 -5.6098788521e-02 1.6778130203e+00 -2.9060573967e+00 1.6778130203e+00 2.9060573967e+00 
7700 6.7251295858e+00 -5.6569041515e-02 1.6794850807e+00 -2.9089534904e+00 1.6794850807e+00 2.9089534904e+00 
7800 6.7244030120e+00 -5.6957183240e-02 1.6811694805e+00 -2.9118709564e+00 1.6811694805e+00 2.9118709564e+00 
7900 6.7236886883e+00 -5.7264269318e-02 1.6828637398e+00 -2.9148054995e+00 1.6828637398e+00 2.9148054995e+00 
8000 6.7229882130e+00 -5.7491411872e-02 1.6845654197e+00 -2.9177528956e+00 1.6845654197e+00 2.9177528956e+00 
8100 6.7223031285e+00 -5.7639780144e-02 1.6862721242e+00 -2.9207089945e+00 1.6862721242e+00 2.9207089945e+00 
8200 6.7216349095e+00 -5.7710601078e-02 1.6879815015e+00 -2.9236697229e+00 1.6879815015e+00 2.9236697229e+00 
8300 6.7209849532e+00 -5.7705159833e-02 1.6896912457e+00 -2.9266310867e+00 1.6896912457e+00 2.9266310867e+00 
8400 6.7203545699e+00 -5.7624800218e-02 1.6913990983e+00 -2.9295891741e+00 1.6913990983e+00 2.9295891741e+00 
8500 6.7197449750e+00 -5.7470925030e-02 1.6931028494e+00 -2.9325401576e+00 1.6931028494e+00 2.9325401576e+00 
8600 6.7191572819e+00 -5.7244996282e-02 1.6948003398e+00 -2.9354802973e+00 1.6948003398e+00 2.9354802973e+00 
8700 6.7185924955e+00 -5.6948535310e-02 1.6964894619e+00 -2.9384059426e+00 1.6964894619e+00 2.9384059426e+00 
8800 6.7180515077e+00 -5.6583122745e-02 1.6981681613e+00 -2.9413135352e+00 1.6981681613e+00 2.9413135352e+00 
8900 6.7175350925e+00 -5.6150398349e-02 1.6998344382e+00 -2.9441996113e+00 1.6998344382e+00 2.9441996113e+00 
9000 6.7170439035e+00 -5.5652060705e-02 1.7014863485e+00 -2.9470608040e+00 1.7014863485e+00 2.9470608040e+00 
9100 6.7165784716e+00 -5.5089866742e-02 1.7031220057e+00 -2.9498938454e+00 1.7031220057e+00 2.9498938454e+00 
9200 6.7161392034e+00 -5.4465631116e-02 1.7047395815e+00 -2.9526955688e+00 1.7047395815e+00 2.9526955688e+00 
9300 6.7157263807e+00 -5.3781225413e-02 1.7063373073e+00 -2.9554629111e+00 1.7063373073e+00 2.9554629111e+00 
9400 6.7153401617e+00 -5.3038577194e-02 1.7079134756e+00 -2.9581929147e+00 1.7079134756e+00 2.9581929147e+00 
9500 6.7149805814e+00 -5.2239668865e-02 1.7094664409e+00 -2.9608827295e+00 1.7094664409e+00 2.9608827295e+00 
9600 6.7146475542e+00 -5.1386536371e-02 1.7109946208e+00 -2.9635296147e+00 1.7109946208e+00 2.9635296147e+00 
9700 6.7143408764e+00 -5.0481267722e-02 1.7124964971e+00 -2.9661309408e+00 1.7124964971e+00 2.9661309408e+00 
9800 6.7140602300e+00 -4.9526001336e-02 1.7139706170e+00 -2.9686841913e+00 1.7139706170e+00 2.9686841913e+00 
9900 6.7138051864e+00 -4.8522924205e-02 1.7154155937e+00 -2.9711869644e+00 1.7154155937e+00 2.9711869644e+00 
10000 6.7135752116e+00 -4.7474269890e-02 1.7168301077e+00 -2.9736369745e+00 1.7168301077e+00 2.9736369745e+00 
10100 6.7133696712e+00 -4.6382316330e-02 1.7182129072e+00 -2.9760320535e+00 1.7182129072e+00 2.9760320535e+00 
10200 6.7131878363e+00 -4.5249383476e-02 1.7195628093e+00 -2.9783701525e+00 1.7195628093e+00 2.9783701525e+00 
10300 6.7130288899e+00 -4.4077830751e-02 1.7208787005e+00 -2.9806493428e+00 1.7208787005e+00 2.9806493428e+00 
10400 6.7128919333e+00 -4.2870054338e-02 1.7221595372e+00 -2.9828678172e+00 1.7221595372e+00 2.9828678172e+00 
10500 6.7127759932e+00 -4.1628484285e-02 1.7234043468e+00 -2.9850238907e+00 1.7234043468e+00 2.9850238907e+00 
10600 6.7126800292e+00 -4.0355581452e-02 1.7246122277e+00 -2.9871160017e+00 1.7246122277e+00 2.9871160017e+00 
10700 6.7126029412e+00 -3.9053834289e-02 1.7257823499e+00 -2.9891427128e+00 1.7257823499e+00 2.9891427128e+00 
10800 6.7125435773e+00 -3.7725755443e-02 1.7269139555e+00 -2.9911027112e+00 1.7269139555e+00 2.9911027112e+00 
10900 6.7125007414e+00 -3.6373878224e-02 1.7280063588e+00 -2.9929948092e+00 1.7280063588e+00 2.9929948092e+00 
11000 6.7124732015e+00 -3.5000752902e-02 1.7290589466e+00 -2.9948179448e+00 1.7290589466e+00 2.9948179448e+00 
11100 6.7124596978e+00 -3.3608942872e-02 1.7300711783e+00 -2.9965711815e+00 1.7300711783e+00 2.9965711815e+00 
11200 6.7124589503e+00 -3.2201020677e-02 1.7310425859e+00 -2.9982537088e+00 1.7310425859e+00 2.9982537088e+00 
11300 6.7124696671e+00 -3.0779563894e-02 1.7319727739e+00 -2.9998648418e+00 1.7319727739e+00 2.9998648418e+00 
11400 6.7124905522e+00 -2.9347150916e-02 1.7328614194e+00 -3.0014040209e+00 1.7328614194e+00 3.0014040209e+00 
11500 6.7125203132e+00 -2.7906356607e-02 1.7337082713e+00 -3.0028708114e+00 1.7337082713e+00 3.0028708114e+00 
11600 6.7125576686e+00 -2.6459747868e-02 1.7345131505e+00 -3.0042649031e+00 1.7345131505e+00 3.0042649031e+00 
11700 6.7126013552e+00 -2.5009879115e-02 1.7352759492e+00 -3.0055861091e+00 1.7352759492e+00 3.0055861091e+00 
11800 6.7126501352e+00 -2.3559287678e-02 1.7359966302e+00 -3.0068343653e+00 1.7359966302e+00 3.0068343653e+00 
11900 6.7127028024e+00 -2.2110489150e-02 1.7366752266e+00 -3.0080097287e+00 1.7366752266e+00 3.0080097287e+00 
12000 6.7127581892e+00 -2.0665972680e-02 1.7373118407e+00 -3.0091123767e+00 1.7373118407e+00 3.0091123767e+00 
12100 6.7128151716e+00 -1.9228196248e-02 1.7379066433e+00 -3.0101426050e+00 1.7379066433e+00 3.0101426050e+00 
12200 6.7128726753e+00 -1.7799581920e-02 1.7384598726e+00 -3.0111008262e+00 1.7384598726e+00 3.0111008262e+00 
12300 6.7129296805e+00 -1.6382511116e-02 1.7389718331e+00 -3.0119875678e+00 1.7389718331e+00 3.0119875678e+00 
12400 6.7129852265e+00 -1.4979319895e-02 1.7394428945e+00 -3.0128034701e+00 1.7394428945e+00 3.0128034701e+00 
12500 6.7130384154e+00 -1.3592294286e-02 1.7398734903e+00 -3.0135492840e+00 1.7398734903e+00 3.0135492840e+00 
12600 6.7130884163e+00 -1.2223665680e-02 1.7402641165e+00 -3.0142258684e+00 1.7402641165e+00 3.0142258684e+00 
12700 6.7131344677e+00 -1.0875606302e-02 1.7406153298e+00 -3.0148341876e+00 1.7406153298e+00 3.0148341876e+00 
12800 6.7131758801e+00 -9.5502247846e-03 1.7409277461e+00 -3.0153753085e+00 1.7409277461e+00 3.0153753085e+00 
12900 6.7132120382e+00 -8.2495618633e-03 1.7412020388e+00 -3.0158503974e+00 1.7412020388e+00 3.0158503974e+00 
13000 6.7132424020e+00 -6.9755862067e-03 1.7414389368e+00 -3.0162607169e+00 1.7414389368e+00 3.0162607169e+00 
13100 6.7132665076e+00 -5.7301904104e-03 1.7416392229e+00 -3.0166076226e+00 1.7416392229e+00 3.0166076226e+00 
13200 6.7132839678e+00 -4.5151871669e-03 1.7418037312e+00 -3.0168925592e+00 1.7418037312e+00 3.0168925592e+00 
13300 6.7132944718e+00 -3.3323056318e-03 1.7419333452e+00 -3.0171170573e+00 1.7419333452e+00 3.0171170573e+00 
13400 6.7132977842e+00 -2.1831880045e-03 1.7420289957e+00 -3.0172827288e+00 1.7420289957e+00 3.0172827288e+00 
13500 6.7132937441e+00 -1.0693863395e-03 1.7420916583e+00 -3.0173912636e+00 1.7420916583e+00 3.0173912636e+00 
13600 6.7132822631e+00 7.6403965200e-06 1.7421223510e+00 -3.0174444249e+00 1.7421223510e+00 3.0174444249e+00 
13700 6.7132633241e+00 1.0467722718e-03 1.7421223510e+00 -3.0174444249e+00 1.7421223510e+00 3.0174444249e+00 
13800 6.7132369766e+00 2.0462512736e-03 1.7420923081e+00 -3.0173923890e+00 1.7420923081e+00 3.0173923890e+00 
13900 6.7132033357e+00 3.0051627208e-03 1.7420335787e+00 -3.0172906668e+00 1.7420335787e+00 3.0172906668e+00 
14000 6.7131625780e+00 3.9224439798e-03 1.7419473250e+00 -3.0171412709e+00 1.7419473250e+00 3.0171412709e+00 
14100 6.7131149381e+00 4.7971360518e-03 1.7418347383e+00 -3.0169462651e+00 1.7418347383e+00 3.0169462651e+00 
14200 6.7130607044e+00 5.6283847748e-03 1.7416970365e+00 -3.0167077587e+00 1.7416970365e+00 3.0167077587e+00 
14300 6.7130002150e+00 6.4154417080e-03 1.7415354614e+00 -3.0164279024e+00 1.7415354614e+00 3.0164279024e+00 
14400 6.7129338532e+00 7.1576646918e-03 1.7413512754e+00 -3.0161088829e+00 1.7413512754e+00 3.0161088829e+00 
14500 6.7128620427e+00 7.8545180842e-03 1.7411457591e+00 -3.0157529181e+00 1.7411457591e+00 3.0157529181e+00 
14600 6.7127852429e+00 8.5055726714e-03 1.7409202079e+00 -3.0153622520e+00 1.7409202079e+00 3.0153622520e+00 
14700 6.7127039439e+00 9.1105052551e-03 1.7406759298e+00 -3.0149391500e+00 1.7406759298e+00 3.0149391500e+00 
14800 6.7126186618e+00 9.6690979203e-03 1.7404142419e+00 -3.0144858932e+00 1.7404142419e+00 3.0144858932e+00 
14900 6.7125299332e+00 1.0181236988e-02 1.7401364678e+00 -3.0140047743e+00 1.7401364678e+00 3.0140047743e+00 
15000 6.7124383105e+00 1.0646911660e-02 1.7398439346e+00 -3.0134980921e+00 1.7398439346e+00 3.0134980921e+00 
15100 6.7123443569e+00 1.1066212369e-02 1.7395379704e+00 -3.0129681465e+00 1.7395379704e+00 3.0129681465e+00 
15200 6.7122486416e+00 1.1439328832e-02 1.7392199011e+00 -3.0124172342e+00 1.7392199011e+00 3.0124172342e+00 
15300 6.7121517347e+00 1.1766547836e-02 1.7388910476e+00 -3.0118476433e+00 1.7388910476e+00 3.0118476433e+00 
15400 6.7120542031e+00 1.2048250754e-02 1.7385527238e+00 -3.0112616493e+00 1.7385527238e+00 3.0112616493e+00 
15500 6.7119566057e+00 1.2284910818e-02 1.7382062330e+00 -3.0106615096e+00 1.7382062330e+00 3.0106615096e+00 
15600 6.7118594895e+00 1.2477090154e-02 1.7378528660e+00 -3.0100494600e+00 1.7378528660e+00 3.0100494600e+00 
15700 6.7117633853e+00 1.2625436603e-02 1.7374938983e+00 -3.0094277097e+00 1.7374938983e+00 3.0094277097e+00 
15800 6.7116688042e+00 1.2730680344e-02 1.7371305878e+00 -3.0087984374e+00 1.7371305878e+00 3.0087984374e+00 
15900 6.7115762342e+00 1.2793630338e-02 1.7367641722e+00 -3.0081637871e+00 1.7367641722e+00 3.0081637871e+00 
16000 6.7114861370e+00 1.2815170605e-02 1.7363958673e+00 -3.0075258641e+00 1.7363958673e+00 3.0075258641e+00 
16100 6.7113989453e+00 1.2796256368e-02 1.7360268639e+00 -3.0068867317e+00 1.7360268639e+00 3.0068867317e+00 
16200 6.7113150603e+00 1.2737910068e-02 1.7356583269e+00 -3.0062484068e+00 1.7356583269e+00 3.0062484068e+00 
16300 6.7112348493e+00 1.2641217282e-02 1.7352913923e+00 -3.0056128575e+00 1.7352913923e+00 3.0056128575e+00 
16400 6.7111586443e+00 1.2507322548e-02 1.7349271661e+00 -3.0049819990e+00 1.7349271661e+00 3.0049819990e+00 
16500 6.7110867405e+00 1.2337425142e-02 1.7345667218e+00 -3.0043576913e+00 1.7345667218e+00 3.0043576913e+00 
16600 6.7110193949e+00 1.2132774800e-02 1.7342110998e+00 -3.0037417359e+00 1.7342110998e+00 3.0037417359e+00 
16700 6.7109568257e+00 1.1894667415e-02 1.7338613048e+00 -3.0031358732e+00 1.7338613048e+00 3.0031358732e+00 
16800 6.7108992119e+00 1.1624440730e-02 1.7335183052e+00 -3.0025417804e+00 1.7335183052e+00 3.0025417804e+00 
16900 6.7108466934e+00 1.1323470043e-02 1.7331830314e+00 -3.0019610691e+00 1.7331830314e+00 3.0019610691e+00 
17000 6.7107993708e+00 1.0993163929e-02 1.7328563747e+00 -3.0013952833e+00 1.7328563747e+00 3.0013952833e+00 
17100 6.7107573060e+00 1.0634960018e-02 1.7325391866e+00 -3.0008458974e+00 1.7325391866e+00 3.0008458974e+00 
17200 6.7107205233e+00 1.0250320813e-02 1.7322322774e+00 -3.0003143150e+00 1.7322322774e+00 3.0003143150e+00 
17300 6.7106890103e+00 9.8407295959e-03 1.7319364155e+00 -2.9998018672e+00 1.7319364155e+00 2.9998018672e+00 
17400 6.7106627192e+00 9.4076864030e-03 1.7316523272e+00 -2.9993098117e+00 1.7316523272e+00 2.9993098117e+00 
17500 6.7106415681e+00 8.9527041006e-03 1.7313806953e+00 -2.9988393314e+00 1.7313806953e+00 2.9988393314e+00 
17600 6.7106254434e+00 8.4773045649e-03 1.7311221594e+00 -2.9983915341e+00 1.7311221594e+00 2.9983915341e+00 
17700 6.7106142011e+00 7.9830149751e-03 1.7308773151e+00 -2.9979674515e+00 1.7308773151e+00 2.9979674515e+00 
17800 6.7106076695e+00 7.4713642279e-03 1.7306467142e+00 -2.9975680390e+00 1.7306467142e+00 2.9975680390e+00 
17900 6.7106056508e+00 6.9438794815e-03 1.7304308640e+00 -2.9971941755e+00 1.7304308640e+00 2.9971941755e+00 
18000 6.7106079242e+00 6.4020828338e-03 1.7302302277e+00 -2.9968466632e+00 1.7302302277e+00 2.9968466632e+00 
18100 6.7106142477e+00 5.8474881388e-03 1.7300452243e+00 -2.9965262280e+00 1.7300452243e+00 2.9965262280e+00 
18200 6.7106243611e+00 5.2815979669e-03 1.7298762290e+00 -2.9962335194e+00 1.7298762290e+00 2.9962335194e+00 
18300 6.7106379885e+00 4.7059007102e-03 1.7297235730e+00 -2.9959691114e+00 1.7297235730e+00 2.9959691114e+00 
18400 6.7106548407e+00 4.1218678342e-03 1.7295875443e+00 -2.9957335029e+00 1.7295875443e+00 2.9957335029e+00 
18500 6.7106746180e+00 3.5309512783e-03 1.7294683881e+00 -2.9955271183e+00 1.7294683881e+00 2.9955271183e+00 
18600 6.7106970129e+00 2.9345810041e-03 1.7293663072e+00 -2.9953503089e+00 1.7293663072e+00 2.9953503089e+00 
18700 6.7107217124e+00 2.3341626905e-03 1.7292814623e+00 -2.9952033533e+00 1.7292814623e+00 2.9952033533e+00 
18800 6.7107484006e+00 1.7310755749e-03 1.7292139734e+00 -2.9950864590e+00 1.7292139734e+00 2.9950864590e+00 
18900 6.7107767613e+00 1.1266704389e-03 1.7291639198e+00 -2.9949997637e+00 1.7291639198e+00 2.9949997637e+00 
19000 6.7108064799e+00 5.2226773437e-04 1.7291313414e+00 -2.9949433363e+00 1.7291313414e+00 2.9949433363e+00 
19100 6.7108372463e+00 -8.0844151132e-05 1.7291162394e+00 -2.9949171788e+00 1.7291162394e+00 2.9949171788e+00 
19200 6.7108687563e+00 -6.8141049452e-04 1.7291185771e+00 -2.9949212279e+00 1.7291185771e+00 2.9949212279e+00 
19300 6.7109007140e+00 -1.2782117056e-03 1.7291382811e+00 -2.9949553563e+00 1.7291382811e+00 2.9949553563e+00 
19400 6.7109328338e+00 -1.8700646686e-03 1.7291752422e+00 -2.9950193747e+00 1.7291752422e+00 2.9950193747e+00 
19500 6.7109648414e+00 -2.4558239596e-03 1.7292293164e+00 -2.9951130339e+00 1.7292293164e+00 2.9951130339e+00 
19600 6.7109964760e+00 -3.0343829465e-03 1.7293003261e+00 -2.9952360263e+00 1.7293003261e+00 2.9952360263e+00 
19700 6.7110274917e+00 -3.6046747733e-03 1.7293880612e+00 -2.9953879881e+00 1.7293880612e+00 2.9953879881e+00 
19800 6.7110576579e+00 -4.1656732353e-03 1.7294922805e+00 -2.9955685011e+00 1.7294922805e+00 2.9955685011e+00 
19900 6.7110867614e+00 -4.7163935488e-03 1.7296127124e+00 -2.9957770953e+00 1.7296127124e+00 2.9957770953e+00 
20000 6.7111146066e+00 -5.2558930196e-03 1.7297490567e+00 -2.9960132505e+00 1.7297490567e+00 2.9960132505e+00 
20100 6.7111410161e+00 -5.7832716157e-03 1.7299009854e+00 -2.9962763987e+00 1.7299009854e+00 2.9962763987e+00 
20200 6.7111658320e+00 -6.2976724475e-03 1.7300681442e+00 -2.9965659263e+00 1.7300681442e+00 2.9965659263e+00 
20300 6.7111889153e+00 -6.7982821599e-03 1.7302501539e+00 -2.9968811763e+00 1.7302501539e+00 2.9968811763e+00 
20400 6.7112101469e+00 -7.2843312417e-03 1.7304466113e+00 -2.9972214506e+00 1.7304466113e+00 2.9972214506e+00 
20500 6.7112294273e+00 -7.7550942543e-03 1.7306570911e+00 -2.9975860122e+00 1.7306570911e+00 2.9975860122e+00 
20600 6.7112466764e+00 -8.2098899845e-03 1.7308811465e+00 -2.9979740876e+00 1.7308811465e+00 2.9979740876e+00 
20700 6.7112618335e+00 -8.6480815253e-03 1.7311183112e+00 -2.9983848688e+00 1.7311183112e+00 2.9983848688e+00 
20800 6.7112748570e+00 -9.0690762878e-03 1.7313681003e+00 -2.9988175162e+00 1.7313681003e+00 2.9988175162e+00 
20900 6.7112857234e+00 -9.4723259466e-03 1.7316300118e+00 -2.9992711603e+00 1.7316300118e+00 2.9992711603e+00 
21000 6.7112944275e+00 -9.8573263236e-03 1.7319035279e+00 -2.9997449042e+00 1.7319035279e+00 2.9997449042e+00 
21100 6.7113009810e+00 -1.0223617211e-02 1.7321881164e+00 -3.0002378259e+00 1.7321881164e+00 3.0002378259e+00 
21200 6.7113054118e+00 -1.0570782138e-02 1.7324832318e+00 -3.0007489807e+00 1.7324832318e+00 3.0007489807e+00 
21300 6.7113077636e+00 -1.0898448081e-02 1.7327883168e+00 -3.0012774034e+00 1.7327883168e+00 3.0012774034e+00 
21400 6.7113080941e+00 -1.1206285126e-02 1.7331028035e+00 -3.0018221104e+00 1.7331028035e+00 3.0018221104e+00 
21500 6.7113064748e+00 -1.1494006075e-02 1.7334261148e+00 -3.0023821019e+00 1.7334261148e+00 3.0023821019e+00 
21600 6.7113029894e+00 -1.1761366005e-02 1.7337576654e+00 -3.0029563646e+00 1.7337576654e+00 3.0029563646e+00 
21700 6.7112977326e+00 -1.2008161788e-02 1.7340968636e+00 -3.0035438731e+00 1.7340968636e+00 3.0035438731e+00 
21800 6.7112908093e+00 -1.2234231558e-02 1.7344431119e+00 -3.0041435927e+00 1.7344431119e+00 3.0041435927e+00 
21900 6.7112823333e+00 -1.2439454137e-02 1.7347958086e+00 -3.0047544812e+00 1.7347958086e+00 3.0047544812e+00 
22000 6.7112724257e+00 -1.2623748420e-02 1.7351543488e+00 -3.0053754912e+00 1.7351543488e+00 3.0053754912e+00 
22100 6.7112612141e+00 -1.2787072723e-02 1.7355181260e+00 -3.0060055716e+00 1.7355181260e+00 3.0060055716e+00 
22200 6.7112488314e+00 -1.2929424089e-02 1.7358865325e+00 -3.0066436705e+00 1.7358865325e+00 3.0066436705e+00 
22300 6.7112354141e+00 -1.3050837552e-02 1.7362589614e+00 -3.0072887363e+00 1.7362589614e+00 3.0072887363e+00 
22400 6.7112211019e+00 -1.3151385376e-02 1.7366348071e+00 -3.0079397201e+00 1.7366348071e+00 3.0079397201e+00 
22500 6.7112060357e+00 -1.3231176247e-02 1.7370134665e+00 -3.0085955775e+00 1.7370134665e+00 3.0085955775e+00 
22600 6.7111903572e+00 -1.3290354437e-02 1.7373943404e+00 -3.0092552703e+00 1.7373943404e+00 3.0092552703e+00 
22700 6.7111742073e+00 -1.3329098934e-02 1.7377768339e+00 -3.0099177685e+00 1.7377768339e+00 3.0099177685e+00 
22800 6.7111577254e+00 -1.3347622537e-02 1.7381603581e+00 -3.0105820519e+00 1.7381603581e+00 3.0105820519e+00 
22900 6.7111410483e+00 -1.3346170925e-02 1.7385443305e+00 -3.0112471117e+00 1.7385443305e+00 3.0112471117e+00 
23000 6.7111243093e+00 -1.3325021688e-02 1.7389281764e+00 -3.0119119523e+00 1.7389281764e+00 3.0119119523e+00 
23100 6.7111076372e+00 -1.3284483336e-02 1.7393113294e+00 -3.0125755928e+00 1.7393113294e+00 3.0125755928e+00 
23200 6.7110911558e+00 -1.3224894276e-02 1.7396932326e+00 -3.0132370684e+00 1.7396932326e+00 3.0132370684e+00 
23300 6.7110749830e+00 -1.3146621762e-02 1.7400733391e+00 -3.0138954323e+00 1.7400733391e+00 3.0138954323e+00 
23400 6.7110592303e+00 -1.3050060821e-02 1.7404511134e+00 -3.0145497564e+00 1.7404511134e+00 3.0145497564e+00 
23500 6.7110440018e+00 -1.2935633149e-02 1.7408260314e+00 -3.0151991335e+00 1.7408260314e+00 3.0151991335e+00 
23600 6.7110293943e+00 -1.2803785988e-02 1.7411975818e+00 -3.0158426777e+00 1.7411975818e+00 3.0158426777e+00 
23700 6.7110154964e+00 -1.2654990979e-02 1.7415652666e+00 -3.0164795264e+00 1.7415652666e+00 3.0164795264e+00 
23800 6.7110023885e+00 -1.2489742991e-02 1.7419286015e+00 -3.0171088410e+00 1.7419286015e+00 3.0171088410e+00 
23900 6.7109901422e+00 -1.2308558932e-02 1.7422871171e+00 -3.0177298082e+00 1.7422871171e+00 3.0177298082e+00 
24000 6.7109788203e+00 -1.2111976540e-02 1.7426403590e+00 -3.0183416411e+00 1.7426403590e+00 3.0183416411e+00 
24100 6.7109684768e+00 -1.1900553157e-02 1.7429878885e+00 -3.0189435798e+00 1.7429878885e+00 3.0189435798e+00 
24200 6.7109591564e+00 -1.1674864484e-02 1.7433292833e+00 -3.0195348930e+00 1.7433292833e+00 3.0195348930e+00 
24300 6.7109508949e+00 -1.1435503328e-02 1.7436641380e+00 -3.0201148783e+00 1.7436641380e+00 3.0201148783e+00 
24400 6.7109437191e+00 -1.1183078326e-02 1.7439920641e+00 -3.0206828631e+00 1.7439920641e+00 3.0206828631e+00 
24500 6.7109376471e+00 -1.0918212665e-02 1.7443126912e+00 -3.0212382054e+00 1.7443126912e+00 3.0212382054e+00 
24600 6.7109326882e+00 -1.0641542792e-02 1.7446256666e+00 -3.0217802947e+00 1.7446256666e+00 3.0217802947e+00 
24700 6.7109288436e+00 -1.0353717109e-02 1.7449306562e+00 -3.0223085521e+00 1.7449306562e+00 3.0223085521e+00 
24800 6.7109261060e+00 -1.0055394669e-02 1.7452273445e+00 -3.0228224314e+00 1.7452273445e+00 3.0228224314e+00 
24900 6.7109244608e+00 -9.7472438609e-03 1.7455154350e+00 -3.0233214189e+00 1.7455154350e+00 3.0233214189e+00 
25000 6.7109238857e+00 -9.4299411007e-03 1.7457946507e+00 -3.0238050345e+00 1.7457946507e+00 3.0238050345e+00 
25100 6.7109243518e+00 -9.1041695110e-03 1.7460647335e+00 -3.0242728318e+00 1.7460647335e+00 3.0242728318e+00 
25200 6.7109258236e+00 -8.7706176095e-03 1.7463254454e+00 -3.0247243980e+00 1.7463254454e+00 3.0247243980e+00 
25300 6.7109282595e+00 -8.4299779973e-03 1.7465765678e+00 -3.0251593547e+00 1.7465765678e+00 3.0251593547e+00 
25400 6.7109316128e+00 -8.0829460542e-03 1.7468179019e+00 -3.0255773577e+00 1.7468179019e+00 3.0255773577e+00 
25500 6.7109358316e+00 -7.7302186396e-03 1.7470492691e+00 -3.0259780973e+00 1.7470492691e+00 3.0259780973e+00 
25600 6.7109408598e+00 -7.3724928050e-03 1.7472705101e+00 -3.0263612981e+00 1.7472705101e+00 3.0263612981e+00 
25700 6.7109466374e+00 -7.0104645162e-03 1.7474814861e+00 -3.0267267192e+00 1.7474814861e+00 3.0267267192e+00 
25800 6.7109531014e+00 -6.6448273910e-03 1.7476820776e+00 -3.0270741539e+00 1.7476820776e+00 3.0270741539e+00 
25900 6.7109601859e+00 -6.2762714521e-03 1.7478721851e+00 -3.0274034297e+00 1.7478721851e+00 3.0274034297e+00 
26000 6.7109678231e+00 -5.9054818984e-03 1.7480517285e+00 -3.0277144080e+00 1.7480517285e+00 3.0277144080e+00 
26100 6.7109759436e+00 -5.5331378971e-03 1.7482206473e+00 -3.0280069840e+00 1.7482206473e+00 3.0280069840e+00 
26200 6.7109844772e+00 -5.1599113985e-03 1.7483789002e+00 -3.0282810861e+00 1.7483789002e+00 3.0282810861e+00 
26300 6.7109933531e+00 -4.7864659748e-03 1.7485264651e+00 -3.0285366759e+00 1.7485264651e+00 3.0285366759e+00 
26400 6.7110025007e+00 -4.4134556873e-03 1.7486633383e+00 -3.0287737472e+00 1.7486633383e+00 3.0287737472e+00 
26500 6.7110118500e+00 -4.0415239818e-03 1.7487895349e+00 -3.0289923262e+00 1.7487895349e+00 3.0289923262e+00 
26600 6.7110213324e+00 -3.6713026155e-03 1.7489050882e+00 -3.0291924704e+00 1.7489050882e+00 3.0291924704e+00 
26700 6.7110308803e+00 -3.3034106172e-03 1.7490100493e+00 -3.0293742683e+00 1.7490100493e+00 3.0293742683e+00 
26800 6.7110404286e+00 -2.9384532827e-03 1.7491044867e+00 -3.0295378388e+00 1.7491044867e+00 3.0295378388e+00 
26900 6.7110499145e+00 -2.5770212076e-03 1.7491884862e+00 -3.0296833301e+00 1.7491884862e+00 3.0296833301e+00 
27000 6.7110592777e+00 -2.2196893591e-03 1.7492621500e+00 -3.0298109196e+00 1.7492621500e+00 3.0298109196e+00 
27100 6.7110684614e+00 -1.8670161884e-03 1.7493255969e+00 -3.0299208128e+00 1.7493255969e+00 3.0299208128e+00 
27200 6.7110774119e+00 -1.5195427859e-03 1.7493789610e+00 -3.0300132422e+00 1.7493789610e+00 3.0300132422e+00 
27300 6.7110860794e+00 -1.1777920805e-03 1.7494223921e+00 -3.0300884671e+00 1.7494223921e+00 3.0300884671e+00 
27400 6.7110944177e+00 -8.4226808435e-04 1.7494560546e+00 -3.0301467721e+00 1.7494560546e+00 3.0301467721e+00 
27500 6.7111023851e+00 -5.1345518468e-04 1.7494801269e+00 -3.0301884666e+00 1.7494801269e+00 3.0301884666e+00 
27600 6.7111099438e+00 -1.9181748410e-04 1.7494948014e+00 -3.0302138836e+00 1.7494948014e+00 3.0302138836e+00 
27700 6.7111170606e+00 1.2220180993e-04 1.7495002835e+00 -3.0302233789e+00 1.7495002835e+00 3.0302233789e+00 
27800 6.7111237066e+00 4.2818094507e-04 1.7494967910e+00 -3.0302173297e+00 1.7494967910e+00 3.0302173297e+00 
27900 6.7111298575e+00 7.2572013274e-04 1.7494845538e+00 -3.0301961342e+00 1.7494845538e+00 3.0301961342e+00 
28000 6.7111354936e+00 1.0144420046e-03 1.7494638129e+00 -3.0301602099e+00 1.7494638129e+00 3.0301602099e+00 
28100 6.7111405994e+00 1.2939920166e-03 1.7494348200e+00 -3.0301099928e+00 1.7494348200e+00 3.0301099928e+00 
28200 6.7111451640e+00 1.5640387992e-03 1.7493978370e+00 -3.0300459363e+00 1.7493978370e+00 3.0300459363e+00 
28300 6.7111491811e+00 1.8242744550e-03 1.7493531350e+00 -3.0299685101e+00 1.7493531350e+00 3.0299685101e+00 
28400 6.7111526483e+00 2.0744148021e-03 1.7493009938e+00 -3.0298781990e+00 1.7493009938e+00 3.0298781990e+00 
28500 6.7111555675e+00 2.3141995635e-03 1.7492417015e+00 -3.0297755017e+00 1.7492417015e+00 3.0297755017e+00 
28600 6.7111579443e+00 2.5433925039e-03 1.7491755532e+00 -3.0296609296e+00 1.7491755532e+00 3.0296609296e+00 
28700 6.7111597884e+00 2.7617815125e-03 1.7491028511e+00 -3.0295350058e+00 1.7491028511e+00 3.0295350058e+00 
28800 6.7111611129e+00 2.9691786329e-03 1.7490239032e+00 -3.0293982640e+00 1.7490239032e+00 3.0293982640e+00 
28900 6.7111619341e+00 3.1654200409e-03 1.7489390229e+00 -3.0292512470e+00 1.7489390229e+00 3.0292512470e+00 
29000 6.7111622715e+00 3.3503659712e-03 1.7488485282e+00 -3.0290945056e+00 1.7488485282e+00 3.0290945056e+00 
29100 6.7111621474e+00 3.5239005925e-03 1.7487527413e+00 -3.0289285979e+00 1.7487527413e+00 3.0289285979e+00 
29200 6.7111615865e+00 3.6859318335e-03 1.7486519876e+00 -3.0287540873e+00 1.7486519876e+00 3.0287540873e+00 
29300 6.7111606161e+00 3.8363911607e-03 1.7485465952e+00 -3.0285715422e+00 1.7485465952e+00 3.0285715422e+00 
29400 6.7111592652e+00 3.9752333078e-03 1.7484368940e+00 -3.0283815343e+00 1.7484368940e+00 3.0283815343e+00 
29500 6.7111575645e+00 4.1024359602e-03 1.7483232156e+00 -3.0281846375e+00 1.7483232156e+00 3.0281846375e+00 
29600 6.7111555462e+00 4.2179993947e-03 1.7482058921e+00 -3.0279814271e+00 1.7482058921e+00 3.0279814271e+00 
29700 6.7111532436e+00 4.3219460768e-03 1.7480852555e+00 -3.0277724785e+00 1.7480852555e+00 3.0277724785e+00 
29800 6.7111506909e+00 4.4143202158e-03 1.7479616375e+00 -3.0275583659e+00 1.7479616375e+00 3.0275583659e+00 
29900 6.7111479225e+00 4.4951872826e-03 1.7478353685e+00 -3.0273396616e+00 1.7478353685e+00 3.0273396616e+00 
30000 6.7111449734e+00 4.5646334878e-03 1.7477067771e+00 -3.0271169347e+00 1.7477067771e+00 3.0271169347e+00 
30100 6.7111418786e+00 4.6227652267e-03 1.7475761895e+00 -3.0268907504e+00 1.7475761895e+00 3.0268907504e+00 
30200 6.7111386725e+00 4.6697084887e-03 1.7474439290e+00 -3.0266616684e+00 1.7474439290e+00 3.0266616684e+00 
30300 6.7111353892e+00 4.7056082375e-03 1.7473103153e+00 -3.0264302427e+00 1.7473103153e+00 3.0264302427e+00 
30400 6.7111320621e+00 4.7306277609e-03 1.7471756641e+00 -3.0261970200e+00 1.7471756641e+00 3.0261970200e+00 
30500 6.7111287234e+00 4.7449479937e-03 1.7470402866e+00 -3.0259625392e+00 1.7470402866e+00 3.0259625392e+00 
30600 6.7111254044e+00 4.7487668165e-03 1.7469044887e+00 -3.0257273305e+00 1.7469044887e+00 3.0257273305e+00 
30700 6.7111221348e+00 4.7422983317e-03 1.7467685710e+00 -3.0254919141e+00 1.7467685710e+00 3.0254919141e+00 
30800 6.7111189427e+00 4.7257721192e-03 1.7466328279e+00 -3.0252568001e+00 1.7466328279e+00 3.0252568001e+00 
30900 6.7111158548e+00 4.6994324743e-03 1.7464975473e+00 -3.0250224872e+00 1.7464975473e+00 3.0250224872e+00 
31000 6.7111128957e+00 4.6635376295e-03 1.7463630102e+00 -3.0247894622e+00 1.7463630102e+00 3.0247894622e+00 
31100 6.7111100881e+00 4.6183589636e-03 1.7462294905e+00 -3.0245581992e+00 1.7462294905e+00 3.0245581992e+00 
31200 6.7111074527e+00 4.5641801989e-03 1.7460972541e+00 -3.0243291591e+00 1.7460972541e+00 3.0243291591e+00 
31300 6.7111050080e+00 4.5012965894e-03 1.7459665592e+00 -3.0241027888e+00 1.7459665592e+00 3.0241027888e+00 
31400 6.7111027703e+00 4.4300141024e-03 1.7458376552e+00 -3.0238795205e+00 1.7458376552e+00 3.0238795205e+00 
31500 6.7111007538e+00 4.3506485951e-03 1.7457107831e+00 -3.0236597717e+00 1.7457107831e+00 3.0236597717e+00 
31600 6.7110989704e+00 4.2635249887e-03 1.7455861749e+00 -3.0234439440e+00 1.7455861749e+00 3.0234439440e+00 
31700 6.7110974295e+00 4.1689764415e-03 1.7454640533e+00 -3.0232324232e+00 1.7454640533e+00 3.0232324232e+00 
31800 6.7110961387e+00 4.0673435235e-03 1.7453446315e+00 -3.0230255785e+00 1.7453446315e+00 3.0230255785e+00 
31900 6.7110951029e+00 3.9589733940e-03 1.7452281131e+00 -3.0228237626e+00 1.7452281131e+00 3.0228237626e+00 
32000 6.7110943252e+00 3.8442189845e-03 1.7451146915e+00 -3.0226273107e+00 1.7451146915e+00 3.0226273107e+00 
32100 6.7110938064e+00 3.7234381873e-03 1.7450045503e+00 -3.0224365406e+00 1.7450045503e+00 3.0224365406e+00 
32200 6.7110935452e+00 3.5969930543e-03 1.7448978629e+00 -3.0222517526e+00 1.7448978629e+00 3.0222517526e+00 
32300 6.7110935386e+00 3.4652490038e-03 1.7447947922e+00 -3.0220732289e+00 1.7447947922e+00 3.0220732289e+00 
32400 6.7110937816e+00 3.3285740398e-03 1.7446954907e+00 -3.0219012336e+00 1.7446954907e+00 3.0219012336e+00 
32500 6.7110942673e+00 3.1873379848e-03 1.7446001003e+00 -3.0217360126e+00 1.7446001003e+00 3.0217360126e+00 
32600 6.7110949873e+00 3.0419117251e-03 1.7445087524e+00 -3.0215777934e+00 1.7445087524e+00 3.0215777934e+00 
32700 6.7110959318e+00 2.8926664735e-03 1.7444215678e+00 -3.0214267852e+00 1.7444215678e+00 3.0214267852e+00 
32800 6.7110970895e+00 2.7399730473e-03 1.7443386565e+00 -3.0212831787e+00 1.7443386565e+00 3.0212831787e+00 
32900 6.7110984478e+00 2.5842011650e-03 1.7442601181e+00 -3.0211471462e+00 1.7442601181e+00 3.0211471462e+00 
33000 6.7110999931e+00 2.4257187612e-03 1.7441860413e+00 -3.0210188415e+00 1.7441860413e+00 3.0210188415e+00 
33100 6.7111017108e+00 2.2648913213e-03 1.7441165045e+00 -3.0208984002e+00 1.7441165045e+00 3.0208984002e+00 
33200 6.7111035856e+00 2.1020812372e-03 1.7440515755e+00 -3.0207859397e+00 1.7440515755e+00 3.0207859397e+00 
33300 6.7111056013e+00 1.9376471839e-03 1.7439913115e+00 -3.0206815595e+00 1.7439913115e+00 3.0206815595e+00 
33400 6.7111077415e+00 1.7719435176e-03 1.7439357597e+00 -3.0205853410e+00 1.7439357597e+00 3.0205853410e+00 
33500 6.7111099892e+00 1.6053196976e-03 1.7438849570e+00 -3.0204973480e+00 1.7438849570e+00 3.0204973480e+00 
33600 6.7111123271e+00 1.4381197302e-03 1.7438389300e+00 -3.0204176271e+00 1.7438389300e+00 3.0204176271e+00 
33700 6.7111147381e+00 1.2706816369e-03 1.7437976959e+00 -3.0203462074e+00 1.7437976959e+00 3.0203462074e+00 
33800 6.7111172049e+00 1.1033369457e-03 1.7437612617e+00 -3.0202831015e+00 1.7437612617e+00 3.0202831015e+00 
33900 6.7111197105e+00 9.3641020777e-04 1.7437296251e+00 -3.0202283053e+00 1.7437296251e+00 3.0202283053e+00 
34000 6.7111222381e+00 7.7021853754e-04 1.7437027744e+00 -3.0201817985e+00 1.7437027744e+00 3.0201817985e+00 
34100 6.7111247713e+00 6.0507117832e-04 1.7436806887e+00 -3.0201435450e+00 1.7436806887e+00 3.0201435450e+00 
34200 6.7111272943e+00 4.4126909230e-04 1.7436633383e+00 -3.0201134933e+00 1.7436633383e+00 3.0201134933e+00 
34300 6.7111297918e+00 2.7910457557e-04 1.7436506849e+00 -3.0200915768e+00 1.7436506849e+00 3.0200915768e+00 
34400 6.7111322494e+00 1.1886089816e-04 1.7436426814e+00 -3.0200777144e+00 1.7436426814e+00 3.0200777144e+00 
34500 6.7111346534e+00 -3.9188031136e-05 1.7436392730e+00 -3.0200718109e+00 1.7436392730e+00 3.0200718109e+00 
34600 6.7111369912e+00 -1.9602960502e-04 1.7436392730e+00 -3.0200718109e+00 1.7436392730e+00 3.0200718109e+00 
34700 6.7111392505e+00 -3.4887191772e-04 1.7436448943e+00 -3.0200815473e+00 1.7436448943e+00 3.0200815473e+00 
34800 6.7111414204e+00 -4.9875861639e-04 1.7436548984e+00 -3.0200988749e+00 1.7436548984e+00 3.0200988749e+00 
34900 6.7111434908e+00 -6.4545598809e-04 1.7436692005e+00 -3.0201236469e+00 1.7436692005e+00 3.0201236469e+00 
35000 6.7111454530e+00 -7.8874099121e-04 1.7436877091e+00 -3.0201557047e+00 1.7436877091e+00 3.0201557047e+00 
35100 6.7111472991e+00 -9.2840144390e-04 1.7437103262e+00 -3.0201948786e+00 1.7437103262e+00 3.0201948786e+00 
35200 6.7111490225e+00 -1.0642361890e-03 1.7437369477e+00 -3.0202409884e+00 1.7437369477e+00 3.0202409884e+00 
35300 6.7111506177e+00 -1.1960552355e-03 1.7437674637e+00 -3.0202938438e+00 1.7437674637e+00 3.0202938438e+00 
35400 6.7111520801e+00 -1.3236798775e-03 1.7438017590e+00 -3.0203532449e+00 1.7438017590e+00 3.0203532449e+00 
35500 6.7111534066e+00 -1.4469427900e-03 1.7438397130e+00 -3.0204189832e+00 1.7438397130e+00 3.0204189832e+00 
35600 6.7111545948e+00 -1.5656881033e-03 1.7438812004e+00 -3.0204908415e+00 1.7438812004e+00 3.0204908415e+00 
35700 6.7111556436e+00 -1.6797714550e-03 1.7439260915e+00 -3.0205685952e+00 1.7439260915e+00 3.0205685952e+00 
35800 6.7111565528e+00 -1.7890600210e-03 1.7439742524e+00 -3.0206520122e+00 1.7439742524e+00 3.0206520122e+00 
35900 6.7111573234e+00 -1.8934325257e-03 1.7440255452e+00 -3.0207408540e+00 1.7440255452e+00 3.0207408540e+00 
36000 6.7111579572e+00 -1.9927792319e-03 1.7440798289e+00 -3.0208348761e+00 1.7440798289e+00 3.0208348761e+00 
36100 6.7111584568e+00 -2.0870019102e-03 1.7441369590e+00 -3.0209338284e+00 1.7441369590e+00 3.0209338284e+00 
36200 6.7111588260e+00 -2.1760137900e-03 1.7441967885e+00 -3.0210374560e+00 1.7441967885e+00 3.0210374560e+00 
36300 6.7111590691e+00 -2.2597394909e-03 1.7442591675e+00 -3.0211454997e+00 1.7442591675e+00 3.0211454997e+00 
36400 6.7111591912e+00 -2.3381149359e-03 1.7443239444e+00 -3.0212576965e+00 1.7443239444e+00 3.0212576965e+00 
36500 6.7111591982e+00 -2.4110872466e-03 1.7443909655e+00 -3.0213737805e+00 1.7443909655e+00 3.0213737805e+00 
36600 6.7111590964e+00 -2.4786146217e-03 1.7444600756e+00 -3.0214934828e+00 1.7444600756e+00 3.0214934828e+00 
36700 6.7111588927e+00 -2.5406661983e-03 1.7445311186e+00 -3.0216165328e+00 1.7445311186e+00 3.0216165328e+00 
36800 6.7111585945e+00 -2.5972218968e-03 1.7446039371e+00 -3.0217426582e+00 1.7446039371e+00 3.0217426582e+00 
36900 6.7111582097e+00 -2.6482722507e-03 1.7446783735e+00 -3.0218715858e+00 1.7446783735e+00 3.0218715858e+00 
37000 6.7111577463e+00 -2.6938182213e-03 1.7447542698e+00 -3.0220030420e+00 1.7447542698e+00 3.0220030420e+00 
37100 6.7111572126e+00 -2.7338709974e-03 1.7448314680e+00 -3.0221367532e+00 1.7448314680e+00 3.0221367532e+00 
37200 6.7111566173e+00 -2.7684517821e-03 1.7449098105e+00 -3.0222724465e+00 1.7449098105e+00 3.0222724465e+00 
37300 6.7111559688e+00 -2.7975915652e-03 1.7449891405e+00 -3.0224098500e+00 1.7449891405e+00 3.0224098500e+00 
37400 6.7111552758e+00 -2.8213308839e-03 1.7450693018e+00 -3.0225486935e+00 1.7450693018e+00 3.0225486935e+00 
37500 6.7111545471e+00 -2.8397195709e-03 1.7451501397e+00 -3.0226887088e+00 1.7451501397e+00 3.0226887088e+00 
37600 6.7111537911e+00 -2.8528164910e-03 1.7452315006e+00 -3.0228296301e+00 1.7452315006e+00 3.0228296301e+00 
37700 6.7111530163e+00 -2.8606892674e-03 1.7453132330e+00 -3.0229711947e+00 1.7453132330e+00 3.0229711947e+00 
37800 6.7111522307e+00 -2.8634139972e-03 1.7453951871e+00 -3.0231131434e+00 1.7453951871e+00 3.0231131434e+00 
37900 6.7111514425e+00 -2.8610749575e-03 1.7454772154e+00 -3.0232552206e+00 1.7454772154e+00 3.0232552206e+00 
38000 6.7111506592e+00 -2.8537643025e-03 1.7455591729e+00 -3.0233971751e+00 1.7455591729e+00 3.0233971751e+00 
38100 6.7111498881e+00 -2.8415817527e-03 1.7456409171e+00 -3.0235387602e+00 1.7456409171e+00 3.0235387602e+00 
38200 6.7111491361e+00 -2.8246342752e-03 1.7457223085e+00 -3.0236797342e+00 1.7457223085e+00 3.0236797342e+00 
38300 6.7111484097e+00 -2.8030357587e-03 1.7458032107e+00 -3.0238198610e+00 1.7458032107e+00 3.0238198610e+00 
38400 6.7111477148e+00 -2.7769066801e-03 1.7458834906e+00 -3.0239589098e+00 1.7458834906e+00 3.0239589098e+00 
38500 6.7111470570e+00 -2.7463737670e-03 1.7459630185e+00 -3.0240966561e+00 1.7459630185e+00 3.0240966561e+00 
38600 6.7111464414e+00 -2.7115696538e-03 1.7460416683e+00 -3.0242328816e+00 1.7460416683e+00 3.0242328816e+00 
38700 6.7111458723e+00 -2.6726325340e-03 1.7461193179e+00 -3.0243673747e+00 1.7461193179e+00 3.0243673747e+00 
38800 6.7111453538e+00 -2.6297058082e-03 1.7461958491e+00 -3.0244999307e+00 1.7461958491e+00 3.0244999307e+00 
38900 6.7111448893e+00 -2.5829377293e-03 1.7462711478e+00 -3.0246303518e+00 1.7462711478e+00 3.0246303518e+00 
39000 6.7111444817e+00 -2.5324810442e-03 1.7463451041e+00 -3.0247584479e+00 1.7463451041e+00 3.0247584479e+00 
39100 6.7111441332e+00 -2.4784926347e-03 1.7464176127e+00 -3.0248840364e+00 1.7464176127e+00 3.0248840364e+00 
39200 6.7111438455e+00 -2.4211331560e-03 1.7464885725e+00 -3.0250069424e+00 1.7464885725e+00 3.0250069424e+00 
39300 6.7111436200e+00 -2.3605666753e-03 1.7465578873e+00 -3.0251269991e+00 1.7465578873e+00 3.0251269991e+00 
39400 6.7111434574e+00 -2.2969603092e-03 1.7466254654e+00 -3.0252440478e+00 1.7466254654e+00 3.0252440478e+00 
39500 6.7111433577e+00 -2.2304838631e-03 1.7466912200e+00 -3.0253579382e+00 1.7466912200e+00 3.0253579382e+00 
39600 6.7111433207e+00 -2.1613094702e-03 1.7467550692e+00 -3.0254685283e+00 1.7467550692e+00 3.0254685283e+00 
39700 6.7111433456e+00 -2.0896112333e-03 1.7468169360e+00 -3.0255756847e+00 1.7468169360e+00 3.0255756847e+00 
39800 6.7111434311e+00 -2.0155648684e-03 1.7468767483e+00 -3.0256792827e+00 1.7468767483e+00 3.0256792827e+00 
39900 6.7111435756e+00 -1.9393473514e-03 1.7469344392e+00 -3.0257792062e+00 1.7469344392e+00 3.0257792062e+00 
40000 6.7111437771e+00 -1.8611365679e-03 1.7469899466e+00 -3.0258753479e+00 1.7469899466e+00 3.0258753479e+00 
40100 6.7111440331e+00 -1.7811109679e-03 1.7470432139e+00 -3.0259676094e+00 1.7470432139e+00 3.0259676094e+00 
40200 6.7111443408e+00 -1.6994492240e-03 1.7470941891e+00 -3.0260559012e+00 1.7470941891e+00 3.0260559012e+00 
40300 6.7111446973e+00 -1.6163298957e-03 1.7471428258e+00 -3.0261401424e+00 1.7471428258e+00 3.0261401424e+00 
40400 6.7111450991e+00 -1.5319310985e-03 1.7471890824e+00 -3.0262202611e+00 1.7471890824e+00 3.0262202611e+00 
40500 6.7111455428e+00 -1.4464301802e-03 1.7472329224e+00 -3.0262961943e+00 1.7472329224e+00 3.0262961943e+00 
40600 6.7111460246e+00 -1.3600034030e-03 1.7472743146e+00 -3.0263678877e+00 1.7472743146e+00 3.0263678877e+00 
40700 6.7111465405e+00 -1.2728256332e-03 1.7473132326e+00 -3.0264352956e+00 1.7473132326e+00 3.0264352956e+00 
40800 6.7111470866e+00 -1.1850700386e-03 1.7473496551e+00 -3.0264983812e+00 1.7473496551e+00 3.0264983812e+00 
40900 6.7111476588e+00 -1.0969077936e-03 1.7473835657e+00 -3.0265571161e+00 1.7473835657e+00 3.0265571161e+00 
41000 6.7111482528e+00 -1.0085077931e-03 1.7474149530e+00 -3.0266114805e+00 1.7474149530e+00 3.0266114805e+00 
41100 6.7111488644e+00 -9.2003637590e-04 1.7474438102e+00 -3.0266614626e+00 1.7474438102e+00 3.0266614626e+00 
41200 6.7111494895e+00 -8.3165705599e-04 1.7474701355e+00 -3.0267070593e+00 1.7474701355e+00 3.0267070593e+00 
41300 6.7111501239e+00 -7.4353026497e-04 1.7474939315e+00 -3.0267482753e+00 1.7474939315e+00 3.0267482753e+00 
41400 6.7111507635e+00 -6.5581310379e-04 1.7475152058e+00 -3.0267851234e+00 1.7475152058e+00 3.0267851234e+00 
41500 6.7111514044e+00 -5.6865910500e-04 1.7475339700e+00 -3.0268176239e+00 1.7475339700e+00 3.0268176239e+00 
41600 6.7111520426e+00 -4.8221800571e-04 1.7475502403e+00 -3.0268458050e+00 1.7475502403e+00 3.0268458050e+00 
41700 6.7111526745e+00 -3.9663553145e-04 1.7475640373e+00 -3.0268697021e+00 1.7475640373e+00 3.0268697021e+00 
41800 6.7111532966e+00 -3.1205319134e-04 1.7475753856e+00 -3.0268893579e+00 1.7475753856e+00 3.0268893579e+00 
41900 6.7111539054e+00 -2.2860808456e-04 1.7475843137e+00 -3.0269048219e+00 1.7475843137e+00 3.0269048219e+00 
42000 6.7111544979e+00 -1.4643271855e-04 1.7475908544e+00 -3.0269161507e+00 1.7475908544e+00 3.0269161507e+00 
42100 6.7111550710e+00 -6.5654839024e-05 1.7475950440e+00 -3.0269234073e+00 1.7475950440e+00 3.0269234073e+00 
42200 6.7111556221e+00 1.1528903672e-05 1.7475950440e+00 -3.0269234073e+00 1.7475950440e+00 3.0269234073e+00 
42300 6.7111561487e+00 8.9568155310e-05 1.7475950440e+00 -3.0269234073e+00 1.7475950440e+00 3.0269234073e+00 
42400 6.7111566487e+00 1.6548003537e-04 1.7475924814e+00 -3.0269189687e+00 1.7475924814e+00 3.0269189687e+00 
42500 6.7111571203e+00 2.3953191403e-04 1.7475877469e+00 -3.0269107683e+00 1.7475877469e+00 3.0269107683e+00 
42600 6.7111575618e+00 3.1162211893e-04 1.7475808937e+00 -3.0268988982e+00 1.7475808937e+00 3.0268988982e+00 
42700 6.7111579719e+00 3.8165449865e-04 1.7475719779e+00 -3.0268834555e+00 1.7475719779e+00 3.0268834555e+00 
42800 6.7111583495e+00 4.4953850730e-04 1.7475610583e+00 -3.0268645423e+00 1.7475610583e+00 3.0268645423e+00 
42900 6.7111586937e+00 5.1518927671e-04 1.7475481964e+00 -3.0268422649e+00 1.7475481964e+00 3.0268422649e+00 
43000 6.7111590040e+00 5.7852767644e-04 1.7475334561e+00 -3.0268167339e+00 1.7475334561e+00 3.0268167339e+00 
43100 6.7111592801e+00 6.3948036153e-04 1.7475169034e+00 -3.0267880639e+00 1.7475169034e+00 3.0267880639e+00 
43200 6.7111595220e+00 6.9797980824e-04 1.7474986067e+00 -3.0267563729e+00 1.7474986067e+00 3.0267563729e+00 
43300 6.7111597298e+00 7.5396433776e-04 1.7474786359e+00 -3.0267217825e+00 1.7474786359e+00 3.0267217825e+00 
43400 6.7111599041e+00 8.0737812818e-04 1.7474570630e+00 -3.0266844171e+00 1.7474570630e+00 3.0266844171e+00 
43500 6.7111600454e+00 8.5817121481e-04 1.7474339615e+00 -3.0266444042e+00 1.7474339615e+00 3.0266444042e+00 
43600 6.7111601546e+00 9.0629947908e-04 1.7474094064e+00 -3.0266018735e+00 1.7474094064e+00 3.0266018735e+00 
43700 6.7111602329e+00 9.5172462622e-04 1.7473834738e+00 -3.0265569569e+00 1.7473834738e+00 3.0265569569e+00 
43800 6.7111602815e+00 9.9441415193e-04 1.7473562410e+00 -3.0265097884e+00 1.7473562410e+00 3.0265097884e+00 
43900 6.7111603017e+00 1.0343412985e-03 1.7473277863e+00 -3.0264605033e+00 1.7473277863e+00 3.0264605033e+00 
44000 6.7111602951e+00 1.0714850001e-03 1.7472981886e+00 -3.0264092386e+00 1.7472981886e+00 3.0264092386e+00 
44100 6.7111602635e+00 1.1058298187e-03 1.7472675275e+00 -3.0263561320e+00 1.7472675275e+00 3.0263561320e+00 
44200 6.7111602086e+00 1.1373658692e-03 1.7472358830e+00 -3.0263013222e+00 1.7472358830e+00 3.0263013222e+00 
44300 6.7111601323e+00 1.1660887355e-03 1.7472033355e+00 -3.0262449483e+00 1.7472033355e+00 3.0262449483e+00 
44400 6.7111600366e+00 1.1919993781e-03 1.7471699655e+00 -3.0261871497e+00 1.7471699655e+00 3.0261871497e+00 
44500 6.7111599236e+00 1.2151040316e-03 1.7471358533e+00 -3.0261280656e+00 1.7471358533e+00 3.0261280656e+00 
44600 6.7111597953e+00 1.2354140945e-03 1.7471010792e+00 -3.0260678352e+00 1.7471010792e+00 3.0260678352e+00 
44700 6.7111596538e+00 1.2529460112e-03 1.7470657233e+00 -3.0260065968e+00 1.7470657233e+00 3.0260065968e+00 
44800 6.7111595013e+00 1.2677211460e-03 1.7470298648e+00 -3.0259444882e+00 1.7470298648e+00 3.0259444882e+00 
44900 6.7111593399e+00 1.2797656495e-03 1.7469935827e+00 -3.0258816458e+00 1.7469935827e+00 3.0258816458e+00 
45000 6.7111591717e+00 1.2891103190e-03 1.7469569552e+00 -3.0258182051e+00 1.7469569552e+00 3.0258182051e+00 
45100 6.7111589987e+00 1.2957904518e-03 1.7469200595e+00 -3.0257542997e+00 1.7469200595e+00 3.0257542997e+00 
45200 6.7111588230e+00 1.2998456926e-03 1.7468829717e+00 -3.0256900619e+00 1.7468829717e+00 3.0256900619e+00 
45300 6.7111586464e+00 1.3013198759e-03 1.7468457671e+00 -3.0256256217e+00 1.7468457671e+00 3.0256256217e+00 
45400 6.7111584709e+00 1.3002608621e-03 1.7468085196e+00 -3.0255611070e+00 1.7468085196e+00 3.0255611070e+00 
45500 6.7111582982e+00 1.2967203703e-03 1.7467713015e+00 -3.0254966434e+00 1.7467713015e+00 3.0254966434e+00 
45600 6.7111581301e+00 1.2907538055e-03 1.7467341840e+00 -3.0254323540e+00 1.7467341840e+00 3.0254323540e+00 
45700 6.7111579681e+00 1.2824200830e-03 1.7466972365e+00 -3.0253683591e+00 1.7466972365e+00 3.0253683591e+00 
45800 6.7111578136e+00 1.2717814488e-03 1.7466605268e+00 -3.0253047760e+00 1.7466605268e+00 3.0253047760e+00 
45900 6.7111576681e+00 1.2589032969e-03 1.7466241208e+00 -3.0252417190e+00 1.7466241208e+00 3.0252417190e+00 
46000 6.7111575328e+00 1.2438539846e-03 1.7465880828e+00 -3.0251792992e+00 1.7465880828e+00 3.0251792992e+00 
46100 6.7111574088e+00 1.2267046453e-03 1.7465524748e+00 -3.0251176244e+00 1.7465524748e+00 3.0251176244e+00 
46200 6.7111572969e+00 1.2075289998e-03 1.7465173570e+00 -3.0250567986e+00 1.7465173570e+00 3.0250567986e+00 
46300 6.7111571982e+00 1.1864031658e-03 1.7464827875e+00 -3.0249969225e+00 1.7464827875e+00 3.0249969225e+00 
46400 6.7111571132e+00 1.1634054670e-03 1.7464488221e+00 -3.0249380927e+00 1.7464488221e+00 3.0249380927e+00 
46500 6.7111570425e+00 1.1386162420e-03 1.7464155145e+00 -3.0248804022e+00 1.7464155145e+00 3.0248804022e+00 
46600 6.7111569866e+00 1.1121176521e-03 1.7463829159e+00 -3.0248239398e+00 1.7463829159e+00 3.0248239398e+00 
46700 6.7111569457e+00 1.0839934902e-03 1.7463510754e+00 -3.0247687905e+00 1.7463510754e+00 3.0247687905e+00 
46800 6.7111569200e+00 1.0543289902e-03 1.7463200395e+00 -3.0247150348e+00 1.7463200395e+00 3.0247150348e+00 
46900 6.7111569095e+00 1.0232106374e-03 1.7462898525e+00 -3.0246627492e+00 1.7462898525e+00 3.0246627492e+00 
47000 6.7111569142e+00 9.9072598006e-04 1.7462605558e+00 -3.0246120060e+00 1.7462605558e+00 3.0246120060e+00 
47100 6.7111569339e+00 9.5696344284e-04 1.7462321888e+00 -3.0245628729e+00 1.7462321888e+00 3.0245628729e+00 
47200 6.7111569682e+00 9.2201214246e-04 1.7462047881e+00 -3.0245154134e+00 1.7462047881e+00 3.0245154134e+00 
47300 6.7111570167e+00 8.8596170548e-04 1.7461783877e+00 -3.0244696866e+00 1.7461783877e+00 3.0244696866e+00 
47400 6.7111570790e+00 8.4890208881e-04 1.7461530192e+00 -3.0244257470e+00 1.7461530192e+00 3.0244257470e+00 
47500 6.7111571543e+00 8.1092340329e-04 1.7461287115e+00 -3.0243836448e+00 1.7461287115e+00 3.0243836448e+00 
47600 6.7111572421e+00 7.7211574040e-04 1.7461054909e+00 -3.0243434256e+00 1.7461054909e+00 3.0243434256e+00 
47700 6.7111573416e+00 7.3256900255e-04 1.7460833813e+00 -3.0243051307e+00 1.7460833813e+00 3.0243051307e+00 
47800 6.7111574519e+00 6.9237273712e-04 1.7460624039e+00 -3.0242687967e+00 1.7460624039e+00 3.0242687967e+00 
47900 6.7111575723e+00 6.5161597454e-04 1.7460425772e+00 -3.0242344559e+00 1.7460425772e+00 3.0242344559e+00 
48000 6.7111577016e+00 6.1038707057e-04 1.7460239174e+00 -3.0242021362e+00 1.7460239174e+00 3.0242021362e+00 
48100 6.7111578391e+00 5.6877355302e-04 1.7460064381e+00 -3.0241718612e+00 1.7460064381e+00 3.0241718612e+00 
48200 6.7111579837e+00 5.2686197317e-04 1.7459901503e+00 -3.0241436498e+00 1.7459901503e+00 3.0241436498e+00 
48300 6.7111581344e+00 4.8473776202e-04 1.7459750626e+00 -3.0241175171e+00 1.7459750626e+00 3.0241175171e+00 
48400 6.7111582902e+00 4.4248509149e-04 1.7459611810e+00 -3.0240934735e+00 1.7459611810e+00 3.0240934735e+00 
48500 6.7111584500e+00 4.0018674083e-04 1.7459485093e+00 -3.0240715256e+00 1.7459485093e+00 3.0240715256e+00 
48600 6.7111586129e+00 3.5792396831e-04 1.7459370489e+00 -3.0240516755e+00 1.7459370489e+00 3.0240516755e+00 
48700 6.7111587777e+00 3.1577638841e-04 1.7459267987e+00 -3.0240339217e+00 1.7459267987e+00 3.0240339217e+00 
48800 6.7111589435e+00 2.7382185445e-04 1.7459177555e+00 -3.0240182584e+00 1.7459177555e+00 3.0240182584e+00 
48900 6.7111591094e+00 2.3213634701e-04 1.7459099137e+00 -3.0240046760e+00 1.7459099137e+00 3.0240046760e+00 
49000 6.7111592744e+00 1.9079386795e-04 1.7459032657e+00 -3.0239931614e+00 1.7459032657e+00 3.0239931614e+00 
49100 6.7111594376e+00 1.4986634041e-04 1.7458978017e+00 -3.0239836974e+00 1.7458978017e+00 3.0239836974e+00 
49200 6.7111595981e+00 1.0942351460e-04 1.7458935097e+00 -3.0239762635e+00 1.7458935097e+00 3.0239762635e+00 
49300 6.7111597551e+00 6.9532879512e-05 1.7458903760e+00 -3.0239708357e+00 1.7458903760e+00 3.0239708357e+00 
49400 6.7111599079e+00 3.2465954284e-05 1.7458903760e+00 -3.0239708357e+00 1.7458903760e+00 3.0239708357e+00 
49500 6.7111600555e+00 -5.1568497462e-06 1.7458903760e+00 -3.0239708357e+00 1.7458903760e+00 3.0239708357e+00 
49600 6.7111601976e+00 -4.3258023205e-05 1.7458903760e+00 -3.0239708357e+00 1.7458903760e+00 3.0239708357e+00 
49700 6.7111603336e+00 -8.1761450476e-05 1.7458903760e+00 -3.0239708357e+00 1.7458903760e+00 3.0239708357e+00 
49800 6.7111604628e+00 -1.1799848296e-04 1.7458927175e+00 -3.0239748913e+00 1.7458927175e+00 3.0239748913e+00 
49900 6.7111605850e+00 -1.5332845023e-04 1.7458960969e+00 -3.0239807445e+00 1.7458960969e+00 3.0239807445e+00 
50000 6.7111606996e+00 -1.8770177254e-04 1.7459004880e+00 -3.0239883501e+00 1.7459004880e+00 3.0239883501e+00 
50100 6.7111608063e+00 -2.2107161593e-04 1.7459058635e+00 -3.0239976608e+00 1.7459058635e+00 3.0239976608e+00 
50200 6.7111609049e+00 -2.5339392681e-04 1.7459121946e+00 -3.0240086266e+00 1.7459121946e+00 3.0240086266e+00 
50300 6.7111609953e+00 -2.8462746052e-04 1.7459194514e+00 -3.0240211958e+00 1.7459194514e+00 3.0240211958e+00 
50400 6.7111610772e+00 -3.1473380431e-04 1.7459276026e+00 -3.0240353141e+00 1.7459276026e+00 3.0240353141e+00 
50500 6.7111611506e+00 -3.4367739452e-04 1.7459366160e+00 -3.0240509257e+00 1.7459366160e+00 3.0240509257e+00 
50600 6.7111612156e+00 -3.7142552812e-04 1.7459464582e+00 -3.0240679729e+00 1.7459464582e+00 3.0240679729e+00 
50700 6.7111612721e+00 -3.9794836887e-04 1.7459570950e+00 -3.0240863964e+00 1.7459570950e+00 3.0240863964e+00 
50800 6.7111613203e+00 -4.2321894789e-04 1.7459684913e+00 -3.0241061354e+00 1.7459684913e+00 3.0241061354e+00 
50900 6.7111613604e+00 -4.4721315907e-04 1.7459806112e+00 -3.0241271277e+00 1.7459806112e+00 3.0241271277e+00 
51000 6.7111613926e+00 -4.6990974916e-04 1.7459934182e+00 -3.0241493100e+00 1.7459934182e+00 3.0241493100e+00 
51100 6.7111614171e+00 -4.9129030291e-04 1.7460068750e+00 -3.0241726179e+00 1.7460068750e+00 3.0241726179e+00 
51200 6.7111614343e+00 -5.1133922310e-04 1.7460209440e+00 -3.0241969861e+00 1.7460209440e+00 3.0241969861e+00 
51300 6.7111614446e+00 -5.3004370592e-04 1.7460355870e+00 -3.0242223485e+00 1.7460355870e+00 3.0242223485e+00 
51400 6.7111614482e+00 -5.4739371159e-04 1.7460507655e+00 -3.0242486384e+00 1.7460507655e+00 3.0242486384e+00 
51500 6.7111614457e+00 -5.6338193040e-04 1.7460664407e+00 -3.0242757887e+00 1.7460664407e+00 3.0242757887e+00 
51600 6.7111614375e+00 -5.7800374448e-04 1.7460825736e+00 -3.0243037317e+00 1.7460825736e+00 3.0243037317e+00 
51700 6.7111614240e+00 -5.9125718523e-04 1.7460991251e+00 -3.0243323997e+00 1.7460991251e+00 3.0243323997e+00 
51800 6.7111614057e+00 -6.0314288678e-04 1.7461160559e+00 -3.0243617248e+00 1.7461160559e+00 3.0243617248e+00 
51900 6.7111613832e+00 -6.1366403546e-04 1.7461333269e+00 -3.0243916391e+00 1.7461333269e+00 3.0243916391e+00 
52000 6.7111613570e+00 -6.2282631553e-04 1.7461508991e+00 -3.0244220749e+00 1.7461508991e+00 3.0244220749e+00 
52100 6.7111613275e+00 -6.3063785139e-04 1.7461687334e+00 -3.0244529648e+00 1.7461687334e+00 3.0244529648e+00 
52200 6.7111612952e+00 -6.3710914637e-04 1.7461867911e+00 -3.0244842418e+00 1.7461867911e+00 3.0244842418e+00 
52300 6.7111612608e+00 -6.4225301820e-04 1.7462050340e+00 -3.0245158394e+00 1.7462050340e+00 3.0245158394e+00 
52400 6.7111612247e+00 -6.4608453159e-04 1.7462234240e+00 -3.0245476918e+00 1.7462234240e+00 3.0245476918e+00 
52500 6.7111611875e+00 -6.4862092779e-04 1.7462419236e+00 -3.0245797339e+00 1.7462419236e+00 3.0245797339e+00 
52600 6.7111611495e+00 -6.4988155153e-04 1.7462604955e+00 -3.0246119015e+00 1.7462604955e+00 3.0246119015e+00 
52700 6.7111611113e+00 -6.4988777545e-04 1.7462791033e+00 -3.0246441312e+00 1.7462791033e+00 3.0246441312e+00 
52800 6.7111610734e+00 -6.4866292217e-04 1.7462977112e+00 -3.0246763609e+00 1.7462977112e+00 3.0246763609e+00 
52900 6.7111610361e+00 -6.4623218423e-04 1.7463162837e+00 -3.0247085295e+00 1.7463162837e+00 3.0247085295e+00 
53000 6.7111609999e+00 -6.4262254207e-04 1.7463347865e+00 -3.0247405772e+00 1.7463347865e+00 3.0247405772e+00 
53100 6.7111609651e+00 -6.3786268028e-04 1.7463531857e+00 -3.0247724456e+00 1.7463531857e+00 3.0247724456e+00 
53200 6.7111609322e+00 -6.3198290213e-04 1.7463714484e+00 -3.0248040775e+00 1.7463714484e+00 3.0248040775e+00 
53300 6.7111609014e+00 -6.2501504287e-04 1.7463895426e+00 -3.0248354176e+00 1.7463895426e+00 3.0248354176e+00 
53400 6.7111608731e+00 -6.1699238165e-04 1.7464074371e+00 -3.0248664118e+00 1.7464074371e+00 3.0248664118e+00 
53500 6.7111608475e+00 -6.0794955247e-04 1.7464251018e+00 -3.0248970079e+00 1.7464251018e+00 3.0248970079e+00 
53600 6.7111608248e+00 -5.9792245429e-04 1.7464425074e+00 -3.0249271552e+00 1.7464425074e+00 3.0249271552e+00 
53700 6.7111608053e+00 -5.8694816036e-04 1.7464596257e+00 -3.0249568051e+00 1.7464596257e+00 3.0249568051e+00 
53800 6.7111607891e+00 -5.7506482720e-04 1.7464764297e+00 -3.0249859104e+00 1.7464764297e+00 3.0249859104e+00 
53900 6.7111607763e+00 -5.6231160305e-04 1.7464928933e+00 -3.0250144262e+00 1.7464928933e+00 3.0250144262e+00 
54000 6.7111607670e+00 -5.4872853639e-04 1.7465089916e+00 -3.0250423093e+00 1.7465089916e+00 3.0250423093e+00 
54100 6.7111607614e+00 -5.3435648424e-04 1.7465247009e+00 -3.0250695186e+00 1.7465247009e+00 3.0250695186e+00 
54200 6.7111607594e+00 -5.1923702082e-04 1.7465399986e+00 -3.0250960151e+00 1.7465399986e+00 3.0250960151e+00 
54300 6.7111607611e+00 -5.0341234648e-04 1.7465548634e+00 -3.0251217616e+00 1.7465548634e+00 3.0251217616e+00 
54400 6.7111607664e+00 -4.8692519713e-04 1.7465692750e+00 -3.0251467232e+00 1.7465692750e+00 3.0251467232e+00 
54500 6.7111607753e+00 -4.6981875434e-04 1.7465832145e+00 -3.0251708671e+00 1.7465832145e+00 3.0251708671e+00 
54600 6.7111607877e+00 -4.5213655627e-04 1.7465966642e+00 -3.0251941626e+00 1.7465966642e+00 3.0251941626e+00 
54700 6.7111608035e+00 -4.3392240957e-04 1.7466096075e+00 -3.0252165812e+00 1.7466096075e+00 3.0252165812e+00 
54800 6.7111608226e+00 -4.1522030235e-04 1.7466220294e+00 -3.0252380965e+00 1.7466220294e+00 3.0252380965e+00 
54900 6.7111608448e+00 -3.9607431844e-04 1.7466339158e+00 -3.0252586844e+00 1.7466339158e+00 3.0252586844e+00 
55000 6.7111608699e+00 -3.7652855302e-04 1.7466452540e+00 -3.0252783228e+00 1.7466452540e+00 3.0252783228e+00 
55100 6.7111608978e+00 -3.5662702981e-04 1.7466560327e+00 -3.0252969919e+00 1.7466560327e+00 3.0252969919e+00 
55200 6.7111609283e+00 -3.3641361981e-04 1.7466662415e+00 -3.0253146742e+00 1.7466662415e+00 3.0253146742e+00 
55300 6.7111609612e+00 -3.1593196195e-04 1.7466758717e+00 -3.0253313541e+00 1.7466758717e+00 3.0253313541e+00 
55400 6.7111609962e+00 -2.9522538546e-04 1.7466849155e+00 -3.0253470185e+00 1.7466849155e+00 3.0253470185e+00 
55500 6.7111610331e+00 -2.7433683440e-04 1.7466933665e+00 -3.0253616561e+00 1.7466933665e+00 3.0253616561e+00 
55600 6.7111610717e+00 -2.5330879415e-04 1.7467012196e+00 -3.0253752579e+00 1.7467012196e+00 3.0253752579e+00 
55700 6.7111611116e+00 -2.3218322020e-04 1.7467084706e+00 -3.0253878171e+00 1.7467084706e+00 3.0253878171e+00 
55800 6.7111611528e+00 -2.1100146920e-04 1.7467151169e+00 -3.0253993289e+00 1.7467151169e+00 3.0253993289e+00 
55900 6.7111611948e+00 -1.8980423234e-04 1.7467211569e+00 -3.0254097904e+00 1.7467211569e+00 3.0254097904e+00 
56000 6.7111612375e+00 -1.6863147131e-04 1.7467265901e+00 -3.0254192009e+00 1.7467265901e+00 3.0254192009e+00 
56100 6.7111612806e+00 -1.4752235672e-04 1.7467314171e+00 -3.0254275617e+00 1.7467314171e+00 3.0254275617e+00 
56200 6.7111613239e+00 -1.2651520910e-04 1.7467356399e+00 -3.0254348758e+00 1.7467356399e+00 3.0254348758e+00 
56300 6.7111613671e+00 -1.0564744272e-04 1.7467392614e+00 -3.0254411484e+00 1.7467392614e+00 3.0254411484e+00 
56400 6.7111614101e+00 -8.4955511986e-05 1.7467422856e+00 -3.0254463863e+00 1.7467422856e+00 3.0254463863e+00 
56500 6.7111614525e+00 -6.4474860701e-05 1.7467447174e+00 -3.0254505984e+00 1.7467447174e+00 3.0254505984e+00 
56600 6.7111614943e+00 -4.6280503189e-05 1.7467447174e+00 -3.0254505984e+00 1.7467447174e+00 3.0254505984e+00 
56700 6.7111615350e+00 -2.7734330802e-05 1.7467447174e+00 -3.0254505984e+00 1.7467447174e+00 3.0254505984e+00 
56800 6.7111615746e+00 -8.8755829855e-06 1.7467447174e+00 -3.0254505984e+00 1.7467447174e+00 3.0254505984e+00 
56900 6.7111616129e+00 1.0257094885e-05 1.7467447174e+00 -3.0254505984e+00 1.7467447174e+00 3.0254505984e+00 
57000 6.7111616497e+00 2.9625699038e-05 1.7467447174e+00 -3.0254505984e+00 1.7467447174e+00 3.0254505984e+00 
57100 6.7111616851e+00 4.9192912433e-05 1.7467447174e+00 -3.0254505984e+00 1.7467447174e+00 3.0254505984e+00 
57200 6.7111617189e+00 6.8922147426e-05 1.7467447174e+00 -3.0254505984e+00 1.7467447174e+00 3.0254505984e+00 
57300 6.7111617510e+00 8.8777585985e-05 1.7467447174e+00 -3.0254505984e+00 1.7467447174e+00 3.0254505984e+00 
57400 6.7111617812e+00 1.0591403729e-04 1.7467421762e+00 -3.0254461968e+00 1.7467421762e+00 3.0254461968e+00 
57500 6.7111618093e+00 1.2255169815e-04 1.7467391444e+00 -3.0254409457e+00 1.7467391444e+00 3.0254409457e+00 
57600 6.7111618354e+00 1.3866865352e-04 1.7467356364e+00 -3.0254348696e+00 1.7467356364e+00 3.0254348696e+00 
57700 6.7111618594e+00 1.5424438280e-04 1.7467316670e+00 -3.0254279945e+00 1.7467316670e+00 3.0254279945e+00 
57800 6.7111618814e+00 1.6925977230e-04 1.7467272518e+00 -3.0254203471e+00 1.7467272518e+00 3.0254203471e+00 
57900 6.7111619012e+00 1.8369712478e-04 1.7467224067e+00 -3.0254119552e+00 1.7467224067e+00 3.0254119552e+00 
58000 6.7111619189e+00 1.9754016620e-04 1.7467171484e+00 -3.0254028475e+00 1.7467171484e+00 3.0254028475e+00 
58100 6.7111619345e+00 2.1077404958e-04 1.7467114938e+00 -3.0253930534e+00 1.7467114938e+00 3.0253930534e+00 
58200 6.7111619481e+00 2.2338535614e-04 1.7467054603e+00 -3.0253826032e+00 1.7467054603e+00 3.0253826032e+00 
58300 6.7111619596e+00 2.3536209373e-04 1.7466990659e+00 -3.0253715276e+00 1.7466990659e+00 3.0253715276e+00 
58400 6.7111619691e+00 2.4669369254e-04 1.7466923285e+00 -3.0253598582e+00 1.7466923285e+00 3.0253598582e+00 
58500 6.7111619768e+00 2.5737099823e-04 1.7466852668e+00 -3.0253476269e+00 1.7466852668e+00 3.0253476269e+00 
58600 6.7111619826e+00 2.6738626252e-04 1.7466778994e+00 -3.0253348662e+00 1.7466778994e+00 3.0253348662e+00 
58700 6.7111619867e+00 2.7673313127e-04 1.7466702453e+00 -3.0253216089e+00 1.7466702453e+00 3.0253216089e+00 
58800 6.7111619891e+00 2.8540663015e-04 1.7466623235e+00 -3.0253078880e+00 1.7466623235e+00 3.0253078880e+00 
58900 6.7111619901e+00 2.9340314799e-04 1.7466541535e+00 -3.0252937371e+00 1.7466541535e+00 3.0252937371e+00 
59000 6.7111619895e+00 3.0072041780e-04 1.7466457545e+00 -3.0252791896e+00 1.7466457545e+00 3.0252791896e+00 
59100 6.7111619877e+00 3.0735749569e-04 1.7466371460e+00 -3.0252642792e+00 1.7466371460e+00 3.0252642792e+00 
59200 6.7111619847e+00 3.1331473759e-04 1.7466283474e+00 -3.0252490397e+00 1.7466283474e+00 3.0252490397e+00 
59300 6.7111619806e+00 3.1859377400e-04 1.7466193783e+00 -3.0252335047e+00 1.7466193783e+00 3.0252335047e+00 
59400 6.7111619756e+00 3.2319748280e-04 1.7466102580e+00 -3.0252177079e+00 1.7466102580e+00 3.0252177079e+00 
59500 6.7111619698e+00 3.2712996015e-04 1.7466010059e+00 -3.0252016828e+00 1.7466010059e+00 3.0252016828e+00 
59600 6.7111619633e+00 3.3039648973e-04 1.7465916412e+00 -3.0251854625e+00 1.7465916412e+00 3.0251854625e+00 
59700 6.7111619562e+00 3.3300351022e-04 1.7465821828e+00 -3.0251690803e+00 1.7465821828e+00 3.0251690803e+00 
59800 6.7111619487e+00 3.3495858126e-04 1.7465726498e+00 -3.0251525686e+00 1.7465726498e+00 3.0251525686e+00 
59900 6.7111619409e+00 3.3627034789e-04 1.7465630608e+00 -3.0251359600e+00 1.7465630608e+00 3.0251359600e+00 
60000 6.7111619328e+00 3.3694850367e-04 1.7465534342e+00 -3.0251192862e+00 1.7465534342e+00 3.0251192862e+00 
60100 6.7111619248e+00 3.3700375243e-04 1.7465437881e+00 -3.0251025787e+00 1.7465437881e+00 3.0251025787e+00 
60200 6.7111619167e+00 3.3644776889e-04 1.7465341404e+00 -3.0250858683e+00 1.7465341404e+00 3.0250858683e+00 
60300 6.7111619088e+00 3.3529315820e-04 1.7465245085e+00 -3.0250691854e+00 1.7465245085e+00 3.0250691854e+00 
60400 6.7111619012e+00 3.3355341442e-04 1.7465149097e+00 -3.0250525597e+00 1.7465149097e+00 3.0250525597e+00 
60500 6.7111618939e+00 3.3124287818e-04 1.7465053606e+00 -3.0250360202e+00 1.7465053606e+00 3.0250360202e+00 
60600 6.7111618870e+00 3.2837669348e-04 1.7464958776e+00 -3.0250195951e+00 1.7464958776e+00 3.0250195951e+00 
60700 6.7111618806e+00 3.2497076384e-04 1.7464864765e+00 -3.0250033121e+00 1.7464864765e+00 3.0250033121e+00 
60800 6.7111618749e+00 3.2104170784e-04 1.7464771730e+00 -3.0249871979e+00 1.7464771730e+00 3.0249871979e+00 
60900 6.7111618697e+00 3.1660681414e-04 1.7464679819e+00 -3.0249712784e+00 1.7464679819e+00 3.0249712784e+00 
61000 6.7111618653e+00 3.1168399608e-04 1.7464589177e+00 -3.0249555788e+00 1.7464589177e+00 3.0249555788e+00 
61100 6.7111618616e+00 3.0629174601e-04 1.7464499944e+00 -3.0249401232e+00 1.7464499944e+00 3.0249401232e+00 
61200 6.7111618587e+00 3.0044908934e-04 1.7464412254e+00 -3.0249249348e+00 1.7464412254e+00 3.0249249348e+00 
61300 6.7111618566e+00 2.9417553854e-04 1.7464326237e+00 -3.0249100362e+00 1.7464326237e+00 3.0249100362e+00 
61400 6.7111618554e+00 2.8749104699e-04 1.7464242015e+00 -3.0248954485e+00 1.7464242015e+00 3.0248954485e+00 
61500 6.7111618550e+00 2.8041596300e-04 1.7464159706e+00 -3.0248811923e+00 1.7464159706e+00 3.0248811923e+00 
61600 6.7111618556e+00 2.7297098385e-04 1.7464079423e+00 -3.0248672869e+00 1.7464079423e+00 3.0248672869e+00 
61700 6.7111618570e+00 2.6517711018e-04 1.7464001271e+00 -3.0248537505e+00 1.7464001271e+00 3.0248537505e+00 
61800 6.7111618592e+00 2.5705560053e-04 1.7463925350e+00 -3.0248406006e+00 1.7463925350e+00 3.0248406006e+00 
61900 6.7111618623e+00 2.4862792642e-04 1.7463851754e+00 -3.0248278534e+00 1.7463851754e+00 3.0248278534e+00 
62000 6.7111618663e+00 2.3991572774e-04 1.7463780571e+00 -3.0248155240e+00 1.7463780571e+00 3.0248155240e+00 
62100 6.7111618711e+00 2.3094076882e-04 1.7463711881e+00 -3.0248036267e+00 1.7463711881e+00 3.0248036267e+00 
62200 6.7111618766e+00 2.2172489500e-04 1.7463645761e+00 -3.0247921743e+00 1.7463645761e+00 3.0247921743e+00 
62300 6.7111618830e+00 2.1228998994e-04 1.7463582279e+00 -3.0247811790e+00 1.7463582279e+00 3.0247811790e+00 
62400 6.7111618900e+00 2.0265793365e-04 1.7463521498e+00 -3.0247706514e+00 1.7463521498e+00 3.0247706514e+00 
62500 6.7111618976e+00 1.9285056137e-04 1.7463463475e+00 -3.0247606015e+00 1.7463463475e+00 3.0247606015e+00 
62600 6.7111619059e+00 1.8288962325e-04 1.7463408260e+00 -3.0247510379e+00 1.7463408260e+00 3.0247510379e+00 
62700 6.7111619148e+00 1.7279674507e-04 1.7463355896e+00 -3.0247419683e+00 1.7463355896e+00 3.0247419683e+00 
62800 6.7111619241e+00 1.6259338983e-04 1.7463306422e+00 -3.0247333991e+00 1.7463306422e+00 3.0247333991e+00 
62900 6.7111619339e+00 1.5230082051e-04 1.7463259869e+00 -3.0247253359e+00 1.7463259869e+00 3.0247253359e+00 
63000 6.7111619441e+00 1.4194006381e-04 1.7463216263e+00 -3.0247177831e+00 1.7463216263e+00 3.0247177831e+00 
63100 6.7111619546e+00 1.3153187510e-04 1.7463175623e+00 -3.0247107441e+00 1.7463175623e+00 3.0247107441e+00 
63200 6.7111619654e+00 1.2109670454e-04 1.7463137964e+00 -3.0247042213e+00 1.7463137964e+00 3.0247042213e+00 
63300 6.7111619764e+00 1.1065466440e-04 1.7463103292e+00 -3.0246982159e+00 1.7463103292e+00 3.0246982159e+00 
63400 6.7111619875e+00 1.0022549768e-04 1.7463071609e+00 -3.0246927283e+00 1.7463071609e+00 3.0246927283e+00 
63500 6.7111619987e+00 8.9828547986e-05 1.7463042913e+00 -3.0246877580e+00 1.7463042913e+00 3.0246877580e+00 
63600 6.7111620099e+00 7.9482730798e-05 1.7463017193e+00 -3.0246833032e+00 1.7463017193e+00 3.0246833032e+00 
63700 6.7111620211e+00 6.9206506007e-05 1.7462994436e+00 -3.0246793615e+00 1.7462994436e+00 3.0246793615e+00 
63800 6.7111620324e+00 6.1211005748e-05 1.7462994436e+00 -3.0246793615e+00 1.7462994436e+00 3.0246793615e+00 
63900 6.7111620434e+00 5.3007974488e-05 1.7462994436e+00 -3.0246793615e+00 1.7462994436e+00 3.0246793615e+00 
64000 6.7111620541e+00 4.4617582662e-05 1.7462994436e+00 -3.0246793615e+00 1.7462994436e+00 3.0246793615e+00 
64100 6.7111620646e+00 3.6059739466e-05 1.7462994436e+00 -3.0246793615e+00 1.7462994436e+00 3.0246793615e+00 
64200 6.7111620748e+00 2.7354066956e-05 1.7462994436e+00 -3.0246793615e+00 1.7462994436e+00 3.0246793615e+00 
64300 6.7111620845e+00 1.8519875383e-05 1.7462994436e+00 -3.0246793615e+00 1.7462994436e+00 3.0246793615e+00 
64400 6.7111620940e+00 9.5761397685e-06 1.7462994436e+00 -3.0246793615e+00 1.7462994436e+00 3.0246793615e+00 
64500 6.7111621030e+00 5.4147771584e-07 1.7462994436e+00 -3.0246793615e+00 1.7462994436e+00 3.0246793615e+00 
64600 6.7111621116e+00 -8.5658715449e-06 1.7462994436e+00 -3.0246793615e+00 1.7462994436e+00 3.0246793615e+00 
64700 6.7111621197e+00 -1.7728066867e-05 1.7462994436e+00 -3.0246793615e+00 1.7462994436e+00 3.0246793615e+00 
64800 6.7111621274e+00 -2.6927683667e-05 1.7462994436e+00 -3.0246793615e+00 1.7462994436e+00 3.0246793615e+00 
64900 6.7111621347e+00 -3.6147731163e-05 1.7462994436e+00 -3.0246793615e+00 1.7462994436e+00 3.0246793615e+00 
65000 6.7111621415e+00 -4.5371668399e-05 1.7462994436e+00 -3.0246793615e+00 1.7462994436e+00 3.0246793615e+00 
65100 6.7111621479e+00 -5.4583419045e-05 1.7462994436e+00 -3.0246793615e+00 1.7462994436e+00 3.0246793615e+00 
65200 6.7111621538e+00 -6.3767384995e-05 1.7462994436e+00 -3.0246793615e+00 1.7462994436e+00 3.0246793615e+00 
65300 6.7111621592e+00 -7.2908458779e-05 1.7462994436e+00 -3.0246793615e+00 1.7462994436e+00 3.0246793615e+00 
65400 6.7111621640e+00 -7.9681890916e-05 1.7463015311e+00 -3.0246829772e+00 1.7463015311e+00 3.0246829772e+00 
65500 6.7111621682e+00 -8.6158278497e-05 1.7463038125e+00 -3.0246869288e+00 1.7463038125e+00 3.0246869288e+00 
65600 6.7111621720e+00 -9.2330965208e-05 1.7463062794e+00 -3.0246912015e+00 1.7463062794e+00 3.0246912015e+00 
65700 6.7111621752e+00 -9.8193997396e-05 1.7463089230e+00 -3.0246957804e+00 1.7463089230e+00 3.0246957804e+00 
65800 6.7111621780e+00 -1.0374212171e-04 1.7463117345e+00 -3.0247006500e+00 1.7463117345e+00 3.0247006500e+00 
65900 6.7111621803e+00 -1.0897078144e-04 1.7463147048e+00 -3.0247057947e+00 1.7463147048e+00 3.0247057947e+00 
66000 6.7111621821e+00 -1.1387611175e-04 1.7463178248e+00 -3.0247111988e+00 1.7463178248e+00 3.0247111988e+00 
66100 6.7111621836e+00 -1.1845493356e-04 1.7463210853e+00 -3.0247168461e+00 1.7463210853e+00 3.0247168461e+00 
66200 6.7111621846e+00 -1.2270474637e-04 1.7463244769e+00 -3.0247227204e+00 1.7463244769e+00 3.0247227204e+00 
66300 6.7111621852e+00 -1.2662371995e-04 1.7463279901e+00 -3.0247288055e+00 1.7463279901e+00 3.0247288055e+00 
66400 6.7111621855e+00 -1.3021068490e-04 1.7463316155e+00 -3.0247350849e+00 1.7463316155e+00 3.0247350849e+00 
66500 6.7111621854e+00 -1.3346512219e-04 1.7463353436e+00 -3.0247415422e+00 1.7463353436e+00 3.0247415422e+00 
66600 6.7111621851e+00 -1.3638715166e-04 1.7463391649e+00 -3.0247481609e+00 1.7463391649e+00 3.0247481609e+00 
66700 6.7111621844e+00 -1.3897751958e-04 1.7463430699e+00 -3.0247549245e+00 1.7463430699e+00 3.0247549245e+00 
66800 6.7111621836e+00 -1.4123758527e-04 1.7463470490e+00 -3.0247618165e+00 1.7463470490e+00 3.0247618165e+00 
66900 6.7111621825e+00 -1.4316930682e-04 1.7463510928e+00 -3.0247688206e+00 1.7463510928e+00 3.0247688206e+00 
67000 6.7111621813e+00 -1.4477522594e-04 1.7463551919e+00 -3.0247759204e+00 1.7463551919e+00 3.0247759204e+00 
67100 6.7111621799e+00 -1.4605845209e-04 1.7463593370e+00 -3.0247830999e+00 1.7463593370e+00 3.0247830999e+00 
67200 6.7111621784e+00 -1.4702264577e-04 1.7463635188e+00 -3.0247903430e+00 1.7463635188e+00 3.0247903430e+00 
67300 6.7111621769e+00 -1.4767200114e-04 1.7463677282e+00 -3.0247976339e+00 1.7463677282e+00 3.0247976339e+00 
67400 6.7111621753e+00 -1.4801122796e-04 1.7463719561e+00 -3.0248049569e+00 1.7463719561e+00 3.0248049569e+00 
67500 6.7111621736e+00 -1.4804553291e-04 1.7463761938e+00 -3.0248122968e+00 1.7463761938e+00 3.0248122968e+00 
67600 6.7111621720e+00 -1.4778060035e-04 1.7463804325e+00 -3.0248196384e+00 1.7463804325e+00 3.0248196384e+00 
67700 6.7111621704e+00 -1.4722257253e-04 1.7463846635e+00 -3.0248269668e+00 1.7463846635e+00 3.0248269668e+00 
67800 6.7111621688e+00 -1.4637802933e-04 1.7463888786e+00 -3.0248342675e+00 1.7463888786e+00 3.0248342675e+00 
67900 6.7111621673e+00 -1.4525396759e-04 1.7463930695e+00 -3.0248415263e+00 1.7463930695e+00 3.0248415263e+00 
68000 6.7111621659e+00 -1.4385777999e-04 1.7463972281e+00 -3.0248487293e+00 1.7463972281e+00 3.0248487293e+00 
68100 6.7111621647e+00 -1.4219723368e-04 1.7464013469e+00 -3.0248558632e+00 1.7464013469e+00 3.0248558632e+00 
68200 6.7111621635e+00 -1.4028044849e-04 1.7464054180e+00 -3.0248629146e+00 1.7464054180e+00 3.0248629146e+00 
68300 6.7111621625e+00 -1.3811587503e-04 1.7464094343e+00 -3.0248698710e+00 1.7464094343e+00 3.0248698710e+00 
68400 6.7111621617e+00 -1.3571227250e-04 1.7464133885e+00 -3.0248767200e+00 1.7464133885e+00 3.0248767200e+00 
68500 6.7111621611e+00 -1.3307868632e-04 1.7464172740e+00 -3.0248834498e+00 1.7464172740e+00 3.0248834498e+00 
68600 6.7111621606e+00 -1.3022442574e-04 1.7464210841e+00 -3.0248900490e+00 1.7464210841e+00 3.0248900490e+00 
68700 6.7111621604e+00 -1.2715904130e-04 1.7464248124e+00 -3.0248965066e+00 1.7464248124e+00 3.0248965066e+00 
68800 6.7111621603e+00 -1.2389230230e-04 1.7464284529e+00 -3.0249028123e+00 1.7464284529e+00 3.0249028123e+00 
68900 6.7111621605e+00 -1.2043417425e-04 1.7464320000e+00 -3.0249089559e+00 1.7464320000e+00 3.0249089559e+00 
69000 6.7111621608e+00 -1.1679479641e-04 1.7464354480e+00 -3.0249149280e+00 1.7464354480e+00 3.0249149280e+00 
69100 6.7111621614e+00 -1.1298445946e-04 1.7464387918e+00 -3.0249207197e+00 1.7464387918e+00 3.0249207197e+00 
69200 6.7111621622e+00 -1.0901358319e-04 1.7464420265e+00 -3.0249263223e+00 1.7464420265e+00 3.0249263223e+00 
69300 6.7111621631e+00 -1.0489269451e-04 1.7464451475e+00 -3.0249317281e+00 1.7464451475e+00 3.0249317281e+00 
69400 6.7111621643e+00 -1.0063240556e-04 1.7464481505e+00 -3.0249369295e+00 1.7464481505e+00 3.0249369295e+00 
69500 6.7111621657e+00 -9.6243392177e-05 1.7464510316e+00 -3.0249419197e+00 1.7464510316e+00 3.0249419197e+00 
69600 6.7111621672e+00 -9.1736372510e-05 1.7464537870e+00 -3.0249466921e+00 1.7464537870e+00 3.0249466921e+00 
69700 6.7111621690e+00 -8.7122086111e-05 1.7464564134e+00 -3.0249512411e+00 1.7464564134e+00 3.0249512411e+00 
69800 6.7111621709e+00 -8.2411273264e-05 1.7464589076e+00 -3.0249555613e+00 1.7464589076e+00 3.0249555613e+00 
69900 6.7111621729e+00 -7.7614654761e-05 1.7464612670e+00 -3.0249596479e+00 1.7464612670e+00 3.0249596479e+00 
70000 6.7111621751e+00 -7.2742912084e-05 1.7464634890e+00 -3.0249634966e+00 1.7464634890e+00 3.0249634966e+00 
70100 6.7111621775e+00 -6.7806668001e-05 1.7464655716e+00 -3.0249671037e+00 1.7464655716e+00 3.0249671037e+00 
70200 6.7111621801e+00 -6.4963958731e-05 1.7464655716e+00 -3.0249671037e+00 1.7464655716e+00 3.0249671037e+00 
70300 6.7111621827e+00 -6.1929829753e-05 1.7464655716e+00 -3.0249671037e+00 1.7464655716e+00 3.0249671037e+00 
70400 6.7111621854e+00 -5.8713881527e-05 1.7464655716e+00 -3.0249671037e+00 1.7464655716e+00 3.0249671037e+00 
70500 6.7111621882e+00 -5.5325747944e-05 1.7464655716e+00 -3.0249671037e+00 1.7464655716e+00 3.0249671037e+00 
70600 6.7111621910e+00 -5.1775079237e-05 1.7464655716e+00 -3.0249671037e+00 1.7464655716e+00 3.0249671037e+00 
70700 6.7111621938e+00 -4.8071525378e-05 1.7464655716e+00 -3.0249671037e+00 1.7464655716e+00 3.0249671037e+00 
70800 6.7111621966e+00 -4.4224719943e-05 1.7464655716e+00 -3.0249671037e+00 1.7464655716e+00 3.0249671037e+00 
70900 6.7111621994e+00 -4.0244264466e-05 1.7464655716e+00 -3.0249671037e+00 1.7464655716e+00 3.0249671037e+00 
71000 6.7111622022e+00 -3.6139713304e-05 1.7464655716e+00 -3.0249671037e+00 1.7464655716e+00 3.0249671037e+00 
71100 6.7111622050e+00 -3.1920559009e-05 1.7464655716e+00 -3.0249671037e+00 1.7464655716e+00 3.0249671037e+00 
71200 6.7111622077e+00 -2.7596218223e-05 1.7464655716e+00 -3.0249671037e+00 1.7464655716e+00 3.0249671037e+00 
71300 6.7111622103e+00 -2.3176018111e-05 1.7464655716e+00 -3.0249671037e+00 1.7464655716e+00 3.0249671037e+00 
71400 6.7111622130e+00 -1.8669183335e-05 1.7464655716e+00 -3.0249671037e+00 1.7464655716e+00 3.0249671037e+00 
71500 6.7111622155e+00 -1.4084823567e-05 1.7464655716e+00 -3.0249671037e+00 1.7464655716e+00 3.0249671037e+00 
71600 6.7111622180e+00 -9.4319215578e-06 1.7464655716e+00 -3.0249671037e+00 1.7464655716e+00 3.0249671037e+00 
71700 6.7111622204e+00 -4.7193217583e-06 1.7464655716e+00 -3.0249671037e+00 1.7464655716e+00 3.0249671037e+00 
71800 6.7111622227e+00 4.4280489858e-08 1.7464655716e+00 -3.0249671037e+00 1.7464655716e+00 3.0249671037e+00 
71900 6.7111622250e+00 4.8503492242e-06 1.7464655716e+00 -3.0249671037e+00 1.7464655716e+00 3.0249671037e+00 
72000 6.7111622271e+00 9.6905175524e-06 1.7464655716e+00 -3.0249671037e+00 1.7464655716e+00 3.0249671037e+00 
72100 6.7111622292e+00 1.4556596784e-05 1.7464655716e+00 -3.0249671037e+00 1.7464655716e+00 3.0249671037e+00 
72200 6.7111622311e+00 1.9440585001e-05 1.7464655716e+00 -3.0249671037e+00 1.7464655716e+00 3.0249671037e+00 
72300 6.7111622330e+00 2.4334675082e-05 1.7464655716e+00 -3.0249671037e+00 1.7464655716e+00 3.0249671037e+00 
72400 6.7111622348e+00 2.9231262147e-05 1.7464655716e+00 -3.0249671037e+00 1.7464655716e+00 3.0249671037e+00 
72500 6.7111622365e+00 3.4122950475e-05 1.7464655716e+00 -3.0249671037e+00 1.7464655716e+00 3.0249671037e+00 
72600 6.7111622380e+00 3.9002559848e-05 1.7464655716e+00 -3.0249671037e+00 1.7464655716e+00 3.0249671037e+00 
72700 6.7111622395e+00 4.3863131370e-05 1.7464655716e+00 -3.0249671037e+00 1.7464655716e+00 3.0249671037e+00 
72800 6.7111622409e+00 4.8697932745e-05 1.7464655716e+00 -3.0249671037e+00 1.7464655716e+00 3.0249671037e+00 
72900 6.7111622422e+00 5.3500463010e-05 1.7464655716e+00 -3.0249671037e+00 1.7464655716e+00 3.0249671037e+00 
73000 6.7111622433e+00 5.8264456760e-05 1.7464655716e+00 -3.0249671037e+00 1.7464655716e+00 3.0249671037e+00 
73100 6.7111622444e+00 6.2983887863e-05 1.7464655716e+00 -3.0249671037e+00 1.7464655716e+00 3.0249671037e+00 
73200 6.7111622455e+00 6.7652972639e-05 1.7464655716e+00 -3.0249671037e+00 1.7464655716e+00 3.0249671037e+00 
73300 6.7111622464e+00 7.2266172570e-05 1.7464655716e+00 -3.0249671037e+00 1.7464655716e+00 3.0249671037e+00 
73400 6.7111622470e+00 7.4529197478e-05 1.7464635027e+00 -3.0249635202e+00 1.7464635027e+00 3.0249635202e+00 
73500 6.7111622476e+00 7.6643502088e-05 1.7464613690e+00 -3.0249598245e+00 1.7464613690e+00 3.0249598245e+00 
73600 6.7111622480e+00 7.8607187908e-05 1.7464591747e+00 -3.0249560240e+00 1.7464591747e+00 3.0249560240e+00 
73700 6.7111622484e+00 8.0418701224e-05 1.7464569243e+00 -3.0249521260e+00 1.7464569243e+00 3.0249521260e+00 
73800 6.7111622486e+00 8.2076828532e-05 1.7464546219e+00 -3.0249481383e+00 1.7464546219e+00 3.0249481383e+00 
73900 6.7111622488e+00 8.3580691423e-05 1.7464522721e+00 -3.0249440683e+00 1.7464522721e+00 3.0249440683e+00 
74000 6.7111622489e+00 8.4929740972e-05 1.7464498792e+00 -3.0249399237e+00 1.7464498792e+00 3.0249399237e+00 
74100 6.7111622489e+00 8.6123751677e-05 1.7464474477e+00 -3.0249357122e+00 1.7464474477e+00 3.0249357122e+00 
74200 6.7111622489e+00 8.7162814911e-05 1.7464449821e+00 -3.0249314416e+00 1.7464449821e+00 3.0249314416e+00 
74300 6.7111622487e+00 8.8047331946e-05 1.7464424866e+00 -3.0249271193e+00 1.7464424866e+00 3.0249271193e+00 
74400 6.7111622486e+00 8.8778006553e-05 1.7464399659e+00 -3.0249227532e+00 1.7464399659e+00 3.0249227532e+00 
74500 6.7111622484e+00 8.9355837207e-05 1.7464374242e+00 -3.0249183509e+00 1.7464374242e+00 3.0249183509e+00 
74600 6.7111622482e+00 8.9782108914e-05 1.7464348659e+00 -3.0249139199e+00 1.7464348659e+00 3.0249139199e+00 
74700 6.7111622479e+00 9.0058384686e-05 1.7464322955e+00 -3.0249094678e+00 1.7464322955e+00 3.0249094678e+00 
74800 6.7111622476e+00 9.0186496672e-05 1.7464297172e+00 -3.0249050020e+00 1.7464297172e+00 3.0249050020e+00 
74900 6.7111622473e+00 9.0168536978e-05 1.7464271351e+00 -3.0249005298e+00 1.7464271351e+00 3.0249005298e+00 
75000 6.7111622470e+00 9.0006848203e-05 1.7464245536e+00 -3.0248960585e+00 1.7464245536e+00 3.0248960585e+00 
75100 6.7111622467e+00 8.9704013709e-05 1.7464219767e+00 -3.0248915952e+00 1.7464219767e+00 3.0248915952e+00 
75200 6.7111622464e+00 8.9262847628e-05 1.7464194085e+00 -3.0248871469e+00 1.7464194085e+00 3.0248871469e+00 
75300 6.7111622461e+00 8.8686384664e-05 1.7464168529e+00 -3.0248827204e+00 1.7464168529e+00 3.0248827204e+00 
75400 6.7111622458e+00 8.7977869693e-05 1.7464143138e+00 -3.0248783226e+00 1.7464143138e+00 3.0248783226e+00 
75500 6.7111622456e+00 8.7140747168e-05 1.7464117950e+00 -3.0248739599e+00 1.7464117950e+00 3.0248739599e+00 
75600 6.7111622454e+00 8.6178650388e-05 1.7464093002e+00 -3.0248696387e+00 1.7464093002e+00 3.0248696387e+00 
75700 6.7111622452e+00 8.5095390634e-05 1.7464068328e+00 -3.0248653652e+00 1.7464068328e+00 3.0248653652e+00 
75800 6.7111622450e+00 8.3894946169e-05 1.7464043965e+00 -3.0248611454e+00 1.7464043965e+00 3.0248611454e+00 
75900 6.7111622449e+00 8.2581451189e-05 1.7464019946e+00 -3.0248569851e+00 1.7464019946e+00 3.0248569851e+00 
76000 6.7111622448e+00 8.1159184655e-05 1.7463996303e+00 -3.0248528900e+00 1.7463996303e+00 3.0248528900e+00 
76100 6.7111622448e+00 7.9632559143e-05 1.7463973067e+00 -3.0248488654e+00 1.7463973067e+00 3.0248488654e+00 
76200 6.7111622448e+00 7.8006109619e-05 1.7463950268e+00 -3.0248449164e+00 1.7463950268e+00 3.0248449164e+00 
76300 6.7111622449e+00 7.6284482229e-05 1.7463927934e+00 -3.0248410482e+00 1.7463927934e+00 3.0248410482e+00 
76400 6.7111622450e+00 7.4472423115e-05 1.7463906094e+00 -3.0248372653e+00 1.7463906094e+00 3.0248372653e+00 
76500 6.7111622451e+00 7.2574767252e-05 1.7463884772e+00 -3.0248335722e+00 1.7463884772e+00 3.0248335722e+00 
76600 6.7111622453e+00 7.0596427356e-05 1.7463863993e+00 -3.0248299733e+00 1.7463863993e+00 3.0248299733e+00 
76700 6.7111622457e+00 7.0778962677e-05 1.7463863993e+00 -3.0248299733e+00 1.7463863993e+00 3.0248299733e+00 
76800 6.7111622460e+00 6.8593945687e-05 1.7463843729e+00 -3.0248264634e+00 1.7463843729e+00 3.0248264634e+00 
76900 6.7111622465e+00 6.8519503256e-05 1.7463843729e+00 -3.0248264634e+00 1.7463843729e+00 3.0248264634e+00 
77000 6.7111622470e+00 6.8326463019e-05 1.7463843729e+00 -3.0248264634e+00 1.7463843729e+00 3.0248264634e+00 
77100 6.7111622475e+00 6.8019022378e-05 1.7463843729e+00 -3.0248264634e+00 1.7463843729e+00 3.0248264634e+00 
77200 6.7111622481e+00 6.7601447768e-05 1.7463843729e+00 -3.0248264634e+00 1.7463843729e+00 3.0248264634e+00 
77300 6.7111622487e+00 6.7078065535e-05 1.7463843729e+00 -3.0248264634e+00 1.7463843729e+00 3.0248264634e+00 
77400 6.7111622493e+00 6.6453252943e-05 1.7463843729e+00 -3.0248264634e+00 1.7463843729e+00 3.0248264634e+00 
77500 6.7111622499e+00 6.5731429389e-05 1.7463843729e+00 -3.0248264634e+00 1.7463843729e+00 3.0248264634e+00 
77600 6.7111622506e+00 6.4917047773e-05 1.7463843729e+00 -3.0248264634e+00 1.7463843729e+00 3.0248264634e+00 
77700 6.7111622512e+00 6.4014586078e-05 1.7463843729e+00 -3.0248264634e+00 1.7463843729e+00 3.0248264634e+00 
77800 6.7111622519e+00 6.3028539154e-05 1.7463843729e+00 -3.0248264634e+00 1.7463843729e+00 3.0248264634e+00 
77900 6.7111622526e+00 6.1963410689e-05 1.7463843729e+00 -3.0248264634e+00 1.7463843729e+00 3.0248264634e+00 
78000 6.7111622532e+00 6.0823705421e-05 1.7463843729e+00 -3.0248264634e+00 1.7463843729e+00 3.0248264634e+00 
78100 6.7111622539e+00 5.9613921556e-05 1.7463843729e+00 -3.0248264634e+00 1.7463843729e+00 3.0248264634e+00 
78200 6.7111622546e+00 5.8338543423e-05 1.7463843729e+00 -3.0248264634e+00 1.7463843729e+00 3.0248264634e+00 
78300 6.7111622553e+00 5.7002034366e-05 1.7463843729e+00 -3.0248264634e+00 1.7463843729e+00 3.0248264634e+00 
78400 6.7111622559e+00 5.5608829868e-05 1.7463843729e+00 -3.0248264634e+00 1.7463843729e+00 3.0248264634e+00 
78500 6.7111622566e+00 5.4163330928e-05 1.7463843729e+00 -3.0248264634e+00 1.7463843729e+00 3.0248264634e+00 
78600 6.7111622572e+00 5.2669897686e-05 1.7463843729e+00 -3.0248264634e+00 1.7463843729e+00 3.0248264634e+00 
78700 6.7111622578e+00 5.1132843292e-05 1.7463843729e+00 -3.0248264634e+00 1.7463843729e+00 3.0248264634e+00 
78800 6.7111622585e+00 4.9556428042e-05 1.7463843729e+00 -3.0248264634e+00 1.7463843729e+00 3.0248264634e+00 
78900 6.7111622590e+00 4.7944853762e-05 1.7463843729e+00 -3.0248264634e+00 1.7463843729e+00 3.0248264634e+00 
79000 6.7111622596e+00 4.6302258462e-05 1.7463843729e+00 -3.0248264634e+00 1.7463843729e+00 3.0248264634e+00 
79100 6.7111622602e+00 4.4632711241e-05 1.7463843729e+00 -3.0248264634e+00 1.7463843729e+00 3.0248264634e+00 
79200 6.7111622607e+00 4.2940207460e-05 1.7463843729e+00 -3.0248264634e+00 1.7463843729e+00 3.0248264634e+00 
79300 6.7111622613e+00 4.1228664174e-05 1.7463843729e+00 -3.0248264634e+00 1.7463843729e+00 3.0248264634e+00 
79400 6.7111622618e+00 3.9501915839e-05 1.7463843729e+00 -3.0248264634e+00 1.7463843729e+00 3.0248264634e+00 
79500 6.7111622622e+00 3.7763710263e-05 1.7463843729e+00 -3.0248264634e+00 1.7463843729e+00 3.0248264634e+00 
79600 6.7111622627e+00 3.6017704832e-05 1.7463843729e+00 -3.0248264634e+00 1.7463843729e+00 3.0248264634e+00 
79700 6.7111622631e+00 3.4267462991e-05 1.7463843729e+00 -3.0248264634e+00 1.7463843729e+00 3.0248264634e+00 
79800 6.7111622635e+00 3.2516450990e-05 1.7463843729e+00 -3.0248264634e+00 1.7463843729e+00 3.0248264634e+00 
79900 6.7111622639e+00 3.0768034877e-05 1.7463843729e+00 -3.0248264634e+00 1.7463843729e+00 3.0248264634e+00 
80000 6.7111622643e+00 2.9025477752e-05 1.7463843729e+00 -3.0248264634e+00 1.7463843729e+00 3.0248264634e+00 
80100 6.7111622646e+00 2.7291937280e-05 1.7463843729e+00 -3.0248264634e+00 1.7463843729e+00 3.0248264634e+00 
80200 6.7111622650e+00 2.5570463432e-05 1.7463843729e+00 -3.0248264634e+00 1.7463843729e+00 3.0248264634e+00 
80300 6.7111622653e+00 2.3863996496e-05 1.7463843729e+00 -3.0248264634e+00 1.7463843729e+00 3.0248264634e+00 
80400 6.7111622656e+00 2.2175365308e-05 1.7463843729e+00 -3.0248264634e+00 1.7463843729e+00 3.0248264634e+00 
80500 6.7111622658e+00 2.0507285737e-05 1.7463843729e+00 -3.0248264634e+00 1.7463843729e+00 3.0248264634e+00 
80600 6.7111622661e+00 1.8862359392e-05 1.7463843729e+00 -3.0248264634e+00 1.7463843729e+00 3.0248264634e+00 
80700 6.7111622663e+00 1.7243072571e-05 1.7463843729e+00 -3.0248264634e+00 1.7463843729e+00 3.0248264634e+00 
80800 6.7111622665e+00 1.5651795411e-05 1.7463843729e+00 -3.0248264634e+00 1.7463843729e+00 3.0248264634e+00 
80900 6.7111622667e+00 1.4090781284e-05 1.7463843729e+00 -3.0248264634e+00 1.7463843729e+00 3.0248264634e+00 
81000 6.7111622669e+00 1.2562166388e-05 1.7463843729e+00 -3.0248264634e+00 1.7463843729e+00 3.0248264634e+00 
81100 6.7111622670e+00 1.1067969551e-05 1.7463843729e+00 -3.0248264634e+00 1.7463843729e+00 3.0248264634e+00 
81200 6.7111622672e+00 9.6100922379e-06 1.7463843729e+00 -3.0248264634e+00 1.7463843729e+00 3.0248264634e+00 
81300 6.7111622673e+00 8.1903187588e-06 1.7463843729e+00 -3.0248264634e+00 1.7463843729e+00 3.0248264634e+00 
81400 6.7111622674e+00 6.8103166615e-06 1.7463843729e+00 -3.0248264634e+00 1.7463843729e+00 3.0248264634e+00 
81500 6.7111622676e+00 5.4716373013e-06 1.7463843729e+00 -3.0248264634e+00 1.7463843729e+00 3.0248264634e+00 
81600 6.7111622677e+00 4.1757166101e-06 1.7463843729e+00 -3.0248264634e+00 1.7463843729e+00 3.0248264634e+00 
81700 6.7111622678e+00 2.9238760221e-06 1.7463843729e+00 -3.0248264634e+00 1.7463843729e+00 3.0248264634e+00 
81800 6.7111622678e+00 1.7173235563e-06 1.7463843729e+00 -3.0248264634e+00 1.7463843729e+00 3.0248264634e+00 
81900 6.7111622679e+00 5.5715508331e-07 1.7463843729e+00 -3.0248264634e+00 1.7463843729e+00 3.0248264634e+00 
82000 6.7111622680e+00 -5.5564428439e-07 1.7463843729e+00 -3.0248264634e+00 1.7463843729e+00 3.0248264634e+00 
82100 6.7111622681e+00 -1.6201986323e-06 1.7463843729e+00 -3.0248264634e+00 1.7463843729e+00 3.0248264634e+00 
82200 6.7111622681e+00 -2.6357395622e-06 1.7463843729e+00 -3.0248264634e+00 1.7463843729e+00 3.0248264634e+00 
82300 6.7111622682e+00 -3.6016043739e-06 1.7463843729e+00 -3.0248264634e+00 1.7463843729e+00 3.0248264634e+00 
82400 6.7111622683e+00 -4.5172341175e-06 1.7463843729e+00 -3.0248264634e+00 1.7463843729e+00 3.0248264634e+00 
82500 6.7111622683e+00 -5.3821715437e-06 1.7463843729e+00 -3.0248264634e+00 1.7463843729e+00 3.0248264634e+00 
82600 6.7111622684e+00 -6.1960589172e-06 1.7463843729e+00 -3.0248264634e+00 1.7463843729e+00 3.0248264634e+00 
82700 6.7111622684e+00 -6.9586357485e-06 1.7463843729e+00 -3.0248264634e+00 1.7463843729e+00 3.0248264634e+00 
82800 6.7111622685e+00 -7.6697364150e-06 1.7463843729e+00 -3.0248264634e+00 1.7463843729e+00 3.0248264634e+00 
82900 6.7111622685e+00 -8.3292877117e-06 1.7463843729e+00 -3.0248264634e+00 1.7463843729e+00 3.0248264634e+00 
83000 6.7111622686e+00 -8.9373062825e-06 1.7463843729e+00 -3.0248264634e+00 1.7463843729e+00 3.0248264634e+00 
83100 6.7111622687e+00 -9.4938960125e-06 1.7463843729e+00 -3.0248264634e+00 1.7463843729e+00 3.0248264634e+00 
83200 6.7111622687e+00 -9.9992453267e-06 1.7463843729e+00 -3.0248264634e+00 1.7463843729e+00 3.0248264634e+00 
83300 6.7111622688e+00 -1.0453624425e-05 1.7463843729e+00 -3.0248264634e+00 1.7463843729e+00 3.0248264634e+00 
83400 6.7111622689e+00 -1.0857382482e-05 1.7463843729e+00 -3.0248264634e+00 1.7463843729e+00 3.0248264634e+00 
83500 6.7111622689e+00 -1.1210944759e-05 1.7463843729e+00 -3.0248264634e+00 1.7463843729e+00 3.0248264634e+00 
83600 6.7111622690e+00 -1.1514809718e-05 1.7463843729e+00 -3.0248264634e+00 1.7463843729e+00 3.0248264634e+00 
83700 6.7111622691e+00 -1.1769546045e-05 1.7463843729e+00 -3.0248264634e+00 1.7463843729e+00 3.0248264634e+00 
83800 6.7111622692e+00 -1.1975789680e-05 1.7463843729e+00 -3.0248264634e+00 1.7463843729e+00 3.0248264634e+00 
83900 6.7111622692e+00 -1.2134240808e-05 1.7463843729e+00 -3.0248264634e+00 1.7463843729e+00 3.0248264634e+00 
84000 6.7111622693e+00 -1.2245660829e-05 1.7463843729e+00 -3.0248264634e+00 1.7463843729e+00 3.0248264634e+00 
84100 6.7111622694e+00 -1.2310869309e-05 1.7463843729e+00 -3.0248264634e+00 1.7463843729e+00 3.0248264634e+00 
84200 6.7111622695e+00 -1.2330740930e-05 1.7463843729e+00 -3.0248264634e+00 1.7463843729e+00 3.0248264634e+00 
84300 6.7111622696e+00 -1.2306202425e-05 1.7463843729e+00 -3.0248264634e+00 1.7463843729e+00 3.0248264634e+00 
84400 6.7111622697e+00 -1.2238229530e-05 1.7463843729e+00 -3.0248264634e+00 1.7463843729e+00 3.0248264634e+00 
84500 6.7111622698e+00 -1.2127843924e-05 1.7463843729e+00 -3.0248264634e+00 1.7463843729e+00 3.0248264634e+00 
84600 6.7111622699e+00 -1.1976110191e-05 1.7463843729e+00 -3.0248264634e+00 1.7463843729e+00 3.0248264634e+00 
84700 6.7111622700e+00 -1.1784132799e-05 1.7463843729e+00 -3.0248264634e+00 1.7463843729e+00 3.0248264634e+00 
84800 6.7111622702e+00 -1.1553053101e-05 1.7463843729e+00 -3.0248264634e+00 1.7463843729e+00 3.0248264634e+00 
84900 6.7111622703e+00 -1.1284046339e-05 1.7463843729e+00 -3.0248264634e+00 1.7463843729e+00 3.0248264634e+00 
85000 6.7111622704e+00 -1.0978318712e-05 1.7463843729e+00 -3.0248264634e+00 1.7463843729e+00 3.0248264634e+00 
85100 6.7111622705e+00 -1.0637104457e-05 1.7463843729e+00 -3.0248264634e+00 1.7463843729e+00 3.0248264634e+00 
85200 6.7111622706e+00 -1.0261662968e-05 1.7463843729e+00 -3.0248264634e+00 1.7463843729e+00 3.0248264634e+00 
85300 6.7111622708e+00 -9.8532759561e-06 1.7463843729e+00 -3.0248264634e+00 1.7463843729e+00 3.0248264634e+00 
85400 6.7111622709e+00 -9.4132446662e-06 1.7463843729e+00 -3.0248264634e+00 1.7463843729e+00 3.0248264634e+00 
85500 6.7111622710e+00 -8.9428871164e-06 1.7463843729e+00 -3.0248264634e+00 1.7463843729e+00 3.0248264634e+00 
85600 6.7111622711e+00 -8.4435354254e-06 1.7463843729e+00 -3.0248264634e+00 1.7463843729e+00 3.0248264634e+00 
85700 6.7111622713e+00 -7.9165331591e-06 1.7463843729e+00 -3.0248264634e+00 1.7463843729e+00 3.0248264634e+00 
85800 6.7111622714e+00 -7.3632327499e-06 1.7463843729e+00 -3.0248264634e+00 1.7463843729e+00 3.0248264634e+00 
85900 6.7111622715e+00 -6.7849929783e-06 1.7463843729e+00 -3.0248264634e+00 1.7463843729e+00 3.0248264634e+00 
86000 6.7111622717e+00 -6.1831765221e-06 1.7463843729e+00 -3.0248264634e+00 1.7463843729e+00 3.0248264634e+00 
86100 6.7111622718e+00 -5.5591475364e-06 1.7463843729e+00 -3.0248264634e+00 1.7463843729e+00 3.0248264634e+00 
86200 6.7111622719e+00 -4.9142693536e-06 1.7463843729e+00 -3.0248264634e+00 1.7463843729e+00 3.0248264634e+00 
86300 6.7111622720e+00 -4.2499022048e-06 1.7463843729e+00 -3.0248264634e+00 1.7463843729e+00 3.0248264634e+00 
86400 6.7111622722e+00 -3.5674010437e-06 1.7463843729e+00 -3.0248264634e+00 1.7463843729e+00 3.0248264634e+00 
86500 6.7111622723e+00 -2.8681134169e-06 1.7463843729e+00 -3.0248264634e+00 1.7463843729e+00 3.0248264634e+00 
86600 6.7111622724e+00 -2.1533774358e-06 1.7463843729e+00 -3.0248264634e+00 1.7463843729e+00 3.0248264634e+00 
86700 6.7111622725e+00 -1.4245197949e-06 1.7463843729e+00 -3.0248264634e+00 1.7463843729e+00 3.0248264634e+00 
86800 6.7111622726e+00 -6.8285389239e-07 1.7463843729e+00 -3.0248264634e+00 1.7463843729e+00 3.0248264634e+00 
86900 6.7111622727e+00 7.0321996167e-08 1.7463843729e+00 -3.0248264634e+00 1.7463843729e+00 3.0248264634e+00 
87000 6.7111622729e+00 8.3372644342e-07 1.7463843729e+00 -3.0248264634e+00 1.7463843729e+00 3.0248264634e+00 
87100 6.7111622730e+00 1.6060965361e-06 1.7463843729e+00 -3.0248264634e+00 1.7463843729e+00 3.0248264634e+00 
87200 6.7111622731e+00 2.3861894530e-06 1.7463843729e+00 -3.0248264634e+00 1.7463843729e+00 3.0248264634e+00 
87300 6.7111622732e+00 3.1727839616e-06 1.7463843729e+00 -3.0248264634e+00 1.7463843729e+00 3.0248264634e+00 
87400 6.7111622733e+00 3.9646818464e-06 1.7463843729e+00 -3.0248264634e+00 1.7463843729e+00 3.0248264634e+00 
87500 6.7111622734e+00 4.7607092356e-06 1.7463843729e+00 -3.0248264634e+00 1.7463843729e+00 3.0248264634e+00 
87600 6.7111622735e+00 5.5597178740e-06 1.7463843729e+00 -3.0248264634e+00 1.7463843729e+00 3.0248264634e+00 
87700 6.7111622736e+00 6.3605862998e-06 1.7463843729e+00 -3.0248264634e+00 1.7463843729e+00 3.0248264634e+00 
87800 6.7111622737e+00 7.1622209423e-06 1.7463843729e+00 -3.0248264634e+00 1.7463843729e+00 3.0248264634e+00 
87900 6.7111622738e+00 7.9635571556e-06 1.7463843729e+00 -3.0248264634e+00 1.7463843729e+00 3.0248264634e+00 
88000 6.7111622739e+00 8.7635601547e-06 1.7463843729e+00 -3.0248264634e+00 1.7463843729e+00 3.0248264634e+00 
88100 6.7111622739e+00 9.5612258908e-06 1.7463843729e+00 -3.0248264634e+00 1.7463843729e+00 3.0248264634e+00 
88200 6.7111622740e+00 1.0355581833e-05 1.7463843729e+00 -3.0248264634e+00 1.7463843729e+00 3.0248264634e+00 
88300 6.7111622741e+00 1.1145687694e-05 1.7463843729e+00 -3.0248264634e+00 1.7463843729e+00 3.0248264634e+00 
88400 6.7111622742e+00 1.1930636064e-05 1.7463843729e+00 -3.0248264634e+00 1.7463843729e+00 3.0248264634e+00 
88500 6.7111622743e+00 1.2709552981e-05 1.7463843729e+00 -3.0248264634e+00 1.7463843729e+00 3.0248264634e+00 
88600 6.7111622743e+00 1.3481598421e-05 1.7463843729e+00 -3.0248264634e+00 1.7463843729e+00 3.0248264634e+00 
88700 6.7111622744e+00 1.4245966729e-05 1.7463843729e+00 -3.0248264634e+00 1.7463843729e+00 3.0248264634e+00 
88800 6.7111622745e+00 1.5001886962e-05 1.7463843729e+00 -3.0248264634e+00 1.7463843729e+00 3.0248264634e+00 
88900 6.7111622745e+00 1.5748623183e-05 1.7463843729e+00 -3.0248264634e+00 1.7463843729e+00 3.0248264634e+00 
89000 6.7111622746e+00 1.6485474674e-05 1.7463843729e+00 -3.0248264634e+00 1.7463843729e+00 3.0248264634e+00 
89100 6.7111622747e+00 1.7211776089e-05 1.7463843729e+00 -3.0248264634e+00 1.7463843729e+00 3.0248264634e+00 
89200 6.7111622747e+00 1.7926897546e-05 1.7463843729e+00 -3.0248264634e+00 1.7463843729e+00 3.0248264634e+00 
89300 6.7111622748e+00 1.8630244651e-05 1.7463843729e+00 -3.0248264634e+00 1.7463843729e+00 3.0248264634e+00 
89400 6.7111622748e+00 1.9321258464e-05 1.7463843729e+00 -3.0248264634e+00 1.7463843729e+00 3.0248264634e+00 
89500 6.7111622749e+00 1.9999415407e-05 1.7463843729e+00 -3.0248264634e+00 1.7463843729e+00 3.0248264634e+00 
89600 6.7111622749e+00 2.0664227119e-05 1.7463843729e+00 -3.0248264634e+00 1.7463843729e+00 3.0248264634e+00 
89700 6.7111622750e+00 2.1315240255e-05 1.7463843729e+00 -3.0248264634e+00 1.7463843729e+00 3.0248264634e+00 
89800 6.7111622750e+00 2.1952036214e-05 1.7463843729e+00 -3.0248264634e+00 1.7463843729e+00 3.0248264634e+00 
89900 6.7111622751e+00 2.2574230848e-05 1.7463843729e+00 -3.0248264634e+00 1.7463843729e+00 3.0248264634e+00 
90000 6.7111622751e+00 2.3181474105e-05 1.7463843729e+00 -3.0248264634e+00 1.7463843729e+00 3.0248264634e+00 
90100 6.7111622752e+00 2.3773449625e-05 1.7463843729e+00 -3.0248264634e+00 1.7463843729e+00 3.0248264634e+00 
90200 6.7111622752e+00 2.4349874286e-05 1.7463843729e+00 -3.0248264634e+00 1.7463843729e+00 3.0248264634e+00 
90300 6.7111622753e+00 2.4910497718e-05 1.7463843729e+00 -3.0248264634e+00 1.7463843729e+00 3.0248264634e+00 
90400 6.7111622753e+00 2.5455101776e-05 1.7463843729e+00 -3.0248264634e+00 1.7463843729e+00 3.0248264634e+00 
90500 6.7111622754e+00 2.5983499969e-05 1.7463843729e+00 -3.0248264634e+00 1.7463843729e+00 3.0248264634e+00 
90600 6.7111622754e+00 2.6495536847e-05 1.7463843729e+00 -3.0248264634e+00 1.7463843729e+00 3.0248264634e+00 
90700 6.7111622755e+00 2.6991087374e-05 1.7463843729e+00 -3.0248264634e+00 1.7463843729e+00 3.0248264634e+00 
90800 6.7111622755e+00 2.7470056244e-05 1.7463843729e+00 -3.0248264634e+00 1.7463843729e+00 3.0248264634e+00 
90900 6.7111622755e+00 2.7932377183e-05 1.7463843729e+00 -3.0248264634e+00 1.7463843729e+00 3.0248264634e+00 
91000 6.7111622756e+00 2.8378012212e-05 1.7463843729e+00 -3.0248264634e+00 1.7463843729e+00 3.0248264634e+00 
91100 6.7111622756e+00 2.8806950898e-05 1.7463843729e+00 -3.0248264634e+00 1.7463843729e+00 3.0248264634e+00 
91200 6.7111622757e+00 2.9219209570e-05 1.7463843729e+00 -3.0248264634e+00 1.7463843729e+00 3.0248264634e+00 
91300 6.7111622757e+00 2.9614830511e-05 1.7463843729e+00 -3.0248264634e+00 1.7463843729e+00 3.0248264634e+00 
91400 6.7111622757e+00 2.9993881138e-05 1.7463843729e+00 -3.0248264634e+00 1.7463843729e+00 3.0248264634e+00 
91500 6.7111622758e+00 3.0356453160e-05 1.7463843729e+00 -3.0248264634e+00 1.7463843729e+00 3.0248264634e+00 
91600 6.7111622758e+00 3.0702661717e-05 1.7463843729e+00 -3.0248264634e+00 1.7463843729e+00 3.0248264634e+00 
91700 6.7111622759e+00 3.1032644504e-05 1.7463843729e+00 -3.0248264634e+00 1.7463843729e+00 3.0248264634e+00 
91800 6.7111622759e+00 3.1346560901e-05 1.7463843729e+00 -3.0248264634e+00 1.7463843729e+00 3.0248264634e+00 
91900 6.7111622759e+00 3.1644591060e-05 1.7463843729e+00 -3.0248264634e+00 1.7463843729e+00 3.0248264634e+00 
92000 6.7111622760e+00 3.1926935010e-05 1.7463843729e+00 -3.0248264634e+00 1.7463843729e+00 3.0248264634e+00 
92100 6.7111622760e+00 3.2193811741e-05 1.7463843729e+00 -3.0248264634e+00 1.7463843729e+00 3.0248264634e+00 
92200 6.7111622761e+00 3.2445458293e-05 1.7463843729e+00 -3.0248264634e+00 1.7463843729e+00 3.0248264634e+00 
92300 6.7111622761e+00 3.2682128827e-05 1.7463843729e+00 -3.0248264634e+00 1.7463843729e+00 3.0248264634e+00 
92400 6.7111622761e+00 3.2904093714e-05 1.7463843729e+00 -3.0248264634e+00 1.7463843729e+00 3.0248264634e+00 
92500 6.7111622762e+00 3.3111638602e-05 1.7463843729e+00 -3.0248264634e+00 1.7463843729e+00 3.0248264634e+00 
92600 6.7111622762e+00 3.3305063498e-05 1.7463843729e+00 -3.0248264634e+00 1.7463843729e+00 3.0248264634e+00 
92700 6.7111622763e+00 3.3484681855e-05 1.7463843729e+00 -3.0248264634e+00 1.7463843729e+00 3.0248264634e+00 
92800 6.7111622763e+00 3.3650819654e-05 1.7463843729e+00 -3.0248264634e+00 1.7463843729e+00 3.0248264634e+00 
92900 6.7111622763e+00 3.3803814483e-05 1.7463843729e+00 -3.0248264634e+00 1.7463843729e+00 3.0248264634e+00 
93000 6.7111622764e+00 3.3944014664e-05 1.7463843729e+00 -3.0248264634e+00 1.7463843729e+00 3.0248264634e+00 
93100 6.7111622764e+00 3.4071778327e-05 1.7463843729e+00 -3.0248264634e+00 1.7463843729e+00 3.0248264634e+00 
93200 6.7111622765e+00 3.4187472550e-05 1.7463843729e+00 -3.0248264634e+00 1.7463843729e+00 3.0248264634e+00 
93300 6.7111622765e+00 3.4291472471e-05 1.7463843729e+00 -3.0248264634e+00 1.7463843729e+00 3.0248264634e+00 
93400 6.7111622765e+00 3.4384160442e-05 1.7463843729e+00 -3.0248264634e+00 1.7463843729e+00 3.0248264634e+00 
93500 6.7111622766e+00 3.4465925166e-05 1.7463843729e+00 -3.0248264634e+00 1.7463843729e+00 3.0248264634e+00 
93600 6.7111622766e+00 3.4537160867e-05 1.7463843729e+00 -3.0248264634e+00 1.7463843729e+00 3.0248264634e+00 
93700 6.7111622767e+00 3.4598266478e-05 1.7463843729e+00 -3.0248264634e+00 1.7463843729e+00 3.0248264634e+00 
93800 6.7111622767e+00 3.4649644833e-05 1.7463843729e+00 -3.0248264634e+00 1.7463843729e+00 3.0248264634e+00 
93900 6.7111622767e+00 3.4691701874e-05 1.7463843729e+00 -3.0248264634e+00 1.7463843729e+00 3.0248264634e+00 
94000 6.7111622768e+00 3.4724845899e-05 1.7463843729e+00 -3.0248264634e+00 1.7463843729e+00 3.0248264634e+00 
94100 6.7111622768e+00 3.4749486795e-05 1.7463843729e+00 -3.0248264634e+00 1.7463843729e+00 3.0248264634e+00 
94200 6.7111622768e+00 3.4766035319e-05 1.7463843729e+00 -3.0248264634e+00 1.7463843729e+00 3.0248264634e+00 
94300 6.7111622769e+00 3.4774902383e-05 1.7463843729e+00 -3.0248264634e+00 1.7463843729e+00 3.0248264634e+00 
94400 6.7111622769e+00 3.4776498363e-05 1.7463843729e+00 -3.0248264634e+00 1.7463843729e+00 3.0248264634e+00 
94500 6.7111622769e+00 3.4771232430e-05 1.7463843729e+00 -3.0248264634e+00 1.7463843729e+00 3.0248264634e+00 
94600 6.7111622770e+00 3.4759511904e-05 1.7463843729e+00 -3.0248264634e+00 1.7463843729e+00 3.0248264634e+00 
94700 6.7111622770e+00 3.4741741630e-05 1.7463843729e+00 -3.0248264634e+00 1.7463843729e+00 3.0248264634e+00 
94800 6.7111622771e+00 3.4718323370e-05 1.7463843729e+00 -3.0248264634e+00 1.7463843729e+00 3.0248264634e+00 
94900 6.7111622771e+00 3.4689655224e-05 1.7463843729e+00 -3.0248264634e+00 1.7463843729e+00 3.0248264634e+00 
95000 6.7111622771e+00 3.4656131076e-05 1.7463843729e+00 -3.0248264634e+00 1.7463843729e+00 3.0248264634e+00 
95100 6.7111622771e+00 3.4648142831e-05 1.7463843729e+00 -3.0248264634e+00 1.7463843729e+00 3.0248264634e+00 
95100 6.7111622771e+00 3.4648142831e-05 1.7463843729e+00 -3.0248264634e+00 1.7463843729e+00 3.0248264634e+00 
