# step Hamiltonian StressXX CellTensor1 CellTensor2 CellTensor3 CellTensor4 
0 5.1525894965e+00 1.2721519435e-01 2.0436807272e+00 -3.5397588540e+00 2.0436807272e+00 3.5397588540e+00 
100 5.1650881558e+00 1.3246355642e-01 2.0436807272e+00 -3.5397588540e+00 2.0436807272e+00 3.5397588540e+00 
200 5.1754991048e+00 1.3580948348e-01 2.0404407766e+00 -3.5341470950e+00 2.0404407766e+00 3.5341470950e+00 
300 5.1841603808e+00 1.3783854333e-01 2.0371137380e+00 -3.5283844950e+00 2.0371137380e+00 3.5283844950e+00 
400 5.1910985796e+00 1.3854960530e-01 2.0337314937e+00 -3.5225262760e+00 2.0337314937e+00 3.5225262760e+00 
500 5.1964150023e+00 1.3802235969e-01 2.0303261557e+00 -3.5166280575e+00 2.0303261557e+00 3.5166280575e+00 
600 5.2002733592e+00 1.3640970064e-01 2.0269280862e+00 -3.5107424287e+00 2.0269280862e+00 3.5107424287e+00 
700 5.2028793981e+00 1.3391671868e-01 2.0235640820e+00 -3.5049158023e+00 2.0235640820e+00 3.5049158023e+00 
800 5.2044569673e+00 1.3077199059e-01 2.0202560532e+00 -3.4991861285e+00 2.0202560532e+00 3.4991861285e+00 
900 5.2052256730e+00 1.2719887805e-01 2.0170203986e+00 -3.4935818103e+00 2.0170203986e+00 3.4935818103e+00 
1000 5.2053840568e+00 1.2339333975e-01 2.0138680833e+00 -3.4881218400e+00 2.0138680833e+00 3.4881218400e+00 
1100 5.2050999428e+00 1.1951142854e-01 2.0108052708e+00 -3.4828168931e+00 2.0108052708e+00 3.4828168931e+00 
1200 5.2045074303e+00 1.1566615012e-01 2.0078342733e+00 -3.4776709746e+00 2.0078342733e+00 3.4776709746e+00 
1300 5.2037087243e+00 1.1193114258e-01 2.0049545920e+00 -3.4726832203e+00 2.0049545920e+00 3.4726832203e+00 
1400 5.2027786826e+00 1.0834802139e-01 2.0021638771e+00 -3.4678495602e+00 2.0021638771e+00 3.4678495602e+00 
1500 5.2017703226e+00 1.0493474455e-01 1.9994587143e+00 -3.4631640809e+00 1.9994587143e+00 3.4631640809e+00 
1600 5.2007201313e+00 1.0169330230e-01 1.9968352103e+00 -3.4586200385e+00 1.9968352103e+00 3.4586200385e+00 
1700 5.1996525965e+00 9.8615932587e-02 1.9942893902e+00 -3.4542105489e+00 1.9942893902e+00 3.4542105489e+00 
1800 5.1985837762e+00 9.5689691918e-02 1.9918174438e+00 -3.4499290121e+00 1.9918174438e+00 3.4499290121e+00 
1900 5.1975239571e+00 9.2899556444e-02 1.9894158574e+00 -3.4457693423e+00 1.9894158574e+00 3.4457693423e+00 
2000 5.1964795551e+00 9.0230363457e-02 1.9870814695e+00 -3.4417260640e+00 1.9870814695e+00 3.4417260640e+00 
2100 5.1954544315e+00 8.7667913856e-02 1.9848114780e+00 -3.4377943234e+00 1.9848114780e+00 3.4377943234e+00 
2200 5.1944507841e+00 8.5199508883e-02 1.9826034185e+00 -3.4339698521e+00 1.9826034185e+00 3.4339698521e+00 
2300 5.1934697386e+00 8.2814129954e-02 1.9804551295e+00 -3.4302489064e+00 1.9804551295e+00 3.4302489064e+00 
2400 5.1925117366e+00 8.0502409576e-02 1.9783647124e+00 -3.4266281978e+00 1.9783647124e+00 3.4266281978e+00 
2500 5.1915767876e+00 7.8256492086e-02 1.9763304920e+00 -3.4231048247e+00 1.9763304920e+00 3.4231048247e+00 
2600 5.1906646310e+00 7.6069846590e-02 1.9743509797e+00 -3.4196762087e+00 1.9743509797e+00 3.4196762087e+00 
2700 5.1897748401e+00 7.3937069195e-02 1.9724248413e+00 -3.4163400392e+00 1.9724248413e+00 3.4163400392e+00 
2800 5.1889068891e+00 7.1853694939e-02 1.9705508700e+00 -3.4130942258e+00 1.9705508700e+00 3.4130942258e+00 
2900 5.1880601956e+00 6.9816029371e-02 1.9687279634e+00 -3.4099368589e+00 1.9687279634e+00 3.4099368589e+00 
3000 5.1872341477e+00 6.7821003357e-02 1.9669551045e+00 -3.4068661771e+00 1.9669551045e+00 3.4068661771e+00 
3100 5.1864281219e+00 6.5866051160e-02 1.9652313466e+00 -3.4038805409e+00 1.9652313466e+00 3.4038805409e+00 
3200 5.1856414940e+00 6.3949009986e-02 1.9635558013e+00 -3.4009784113e+00 1.9635558013e+00 3.4009784113e+00 
3300 5.1848736466e+00 6.2068038375e-02 1.9619276285e+00 -3.3981583333e+00 1.9619276285e+00 3.3981583333e+00 
3400 5.1841239735e+00 6.0221550619e-02 1.9603460286e+00 -3.3954189219e+00 1.9603460286e+00 3.3954189219e+00 
3500 5.1833918827e+00 5.8408164508e-02 1.9588102364e+00 -3.3927588519e+00 1.9588102364e+00 3.3927588519e+00 
3600 5.1826767980e+00 5.6626659973e-02 1.9573195165e+00 -3.3901768492e+00 1.9573195165e+00 3.3901768492e+00 
3700 5.1819781603e+00 5.4875946537e-02 1.9558731589e+00 -3.3876716843e+00 1.9558731589e+00 3.3876716843e+00 
3800 5.1812954278e+00 5.3155037801e-02 1.9544704764e+00 -3.3852421669e+00 1.9544704764e+00 3.3852421669e+00 
3900 5.1806280764e+00 5.1463031526e-02 1.9531108020e+00 -3.3828871418e+00 1.9531108020e+00 3.3828871418e+00 
4000 5.1799755992e+00 4.9799094113e-02 1.9517934870e+00 -3.3806054853e+00 1.9517934870e+00 3.3806054853e+00 
4100 5.1793375068e+00 4.8162448539e-02 1.9505178995e+00 -3.3783961031e+00 1.9505178995e+00 3.3783961031e+00 
4200 5.1787133264e+00 4.6552364997e-02 1.9492834232e+00 -3.3762579273e+00 1.9492834232e+00 3.3762579273e+00 
4300 5.1781026019e+00 4.4968153623e-02 1.9480894560e+00 -3.3741899154e+00 1.9480894560e+00 3.3741899154e+00 
4400 5.1775048927e+00 4.3409158847e-02 1.9469354096e+00 -3.3721910485e+00 1.9469354096e+00 3.3721910485e+00 
4500 5.1769197738e+00 4.1874755002e-02 1.9458207087e+00 -3.3702603299e+00 1.9458207087e+00 3.3702603299e+00 
4600 5.1763468350e+00 4.0364342890e-02 1.9447447901e+00 -3.3683967842e+00 1.9447447901e+00 3.3683967842e+00 
4700 5.1757856802e+00 3.8877347096e-02 1.9437071025e+00 -3.3665994566e+00 1.9437071025e+00 3.3665994566e+00 
4800 5.1752359273e+00 3.7413213855e-02 1.9427071059e+00 -3.3648674116e+00 1.9427071059e+00 3.3648674116e+00 
4900 5.1746972070e+00 3.5971409362e-02 1.9417442710e+00 -3.3631997327e+00 1.9417442710e+00 3.3631997327e+00 
5000 5.1741691630e+00 3.4551418403e-02 1.9408180793e+00 -3.3615955217e+00 1.9408180793e+00 3.3615955217e+00 
5100 5.1736514507e+00 3.3152743244e-02 1.9399280223e+00 -3.3600538977e+00 1.9399280223e+00 3.3600538977e+00 
5200 5.1731437373e+00 3.1774902696e-02 1.9390736012e+00 -3.3585739969e+00 1.9390736012e+00 3.3585739969e+00 
5300 5.1726457013e+00 3.0417431338e-02 1.9382543269e+00 -3.3571549722e+00 1.9382543269e+00 3.3571549722e+00 
5400 5.1721570314e+00 2.9079878838e-02 1.9374697194e+00 -3.3557959921e+00 1.9374697194e+00 3.3557959921e+00 
5500 5.1716774269e+00 2.7761809359e-02 1.9367193076e+00 -3.3544962408e+00 1.9367193076e+00 3.3544962408e+00 
5600 5.1712065967e+00 2.6462801035e-02 1.9360026293e+00 -3.3532549175e+00 1.9360026293e+00 3.3532549175e+00 
5700 5.1707442589e+00 2.5182445478e-02 1.9353192303e+00 -3.3520712358e+00 1.9353192303e+00 3.3520712358e+00 
5800 5.1702901409e+00 2.3920347343e-02 1.9346686649e+00 -3.3509444235e+00 1.9346686649e+00 3.3509444235e+00 
5900 5.1698439785e+00 2.2676123903e-02 1.9340504952e+00 -3.3498737220e+00 1.9340504952e+00 3.3498737220e+00 
6000 5.1694055156e+00 2.1449404656e-02 1.9334642908e+00 -3.3488583862e+00 1.9334642908e+00 3.3488583862e+00 
6100 5.1689745042e+00 2.0239830950e-02 1.9329096289e+00 -3.3478976837e+00 1.9329096289e+00 3.3478976837e+00 
6200 5.1685507039e+00 1.9047055617e-02 1.9323860939e+00 -3.3469908945e+00 1.9323860939e+00 3.3469908945e+00 
6300 5.1681338814e+00 1.7870742629e-02 1.9318932771e+00 -3.3461373108e+00 1.9318932771e+00 3.3461373108e+00 
6400 5.1677238106e+00 1.6710566755e-02 1.9314307767e+00 -3.3453362365e+00 1.9314307767e+00 3.3453362365e+00 
6500 5.1673202719e+00 1.5566213233e-02 1.9309981973e+00 -3.3445869870e+00 1.9309981973e+00 3.3445869870e+00 
6600 5.1669230523e+00 1.4437377453e-02 1.9305951500e+00 -3.3438888887e+00 1.9305951500e+00 3.3438888887e+00 
6700 5.1665319450e+00 1.3323764644e-02 1.9302212521e+00 -3.3432412784e+00 1.9302212521e+00 3.3432412784e+00 
6800 5.1661467491e+00 1.2225089568e-02 1.9298761267e+00 -3.3426435037e+00 1.9298761267e+00 3.3426435037e+00 
6900 5.1657672696e+00 1.1141076230e-02 1.9295594028e+00 -3.3420949219e+00 1.9295594028e+00 3.3420949219e+00 
7000 5.1653933168e+00 1.0071457586e-02 1.9292707152e+00 -3.3415949003e+00 1.9292707152e+00 3.3415949003e+00 
7100 5.1650247066e+00 9.0159752619e-03 1.9290097039e+00 -3.3411428154e+00 1.9290097039e+00 3.3411428154e+00 
7200 5.1646612599e+00 7.9743792848e-03 1.9287760142e+00 -3.3407380530e+00 1.9287760142e+00 3.3407380530e+00 
7300 5.1643028028e+00 6.9464278123e-03 1.9285692967e+00 -3.3403800077e+00 1.9285692967e+00 3.3403800077e+00 
7400 5.1639491658e+00 5.9318868756e-03 1.9283892067e+00 -3.3400680828e+00 1.9283892067e+00 3.3400680828e+00 
7500 5.1636001844e+00 4.9305301279e-03 1.9282354045e+00 -3.3398016896e+00 1.9282354045e+00 3.3398016896e+00 
7600 5.1632556986e+00 3.9421385987e-03 1.9281075551e+00 -3.3395802479e+00 1.9281075551e+00 3.3395802479e+00 
7700 5.1629155525e+00 2.9665004567e-03 1.9280053278e+00 -3.3394031851e+00 1.9280053278e+00 3.3394031851e+00 
7800 5.1625795946e+00 2.0034107783e-03 1.9279283965e+00 -3.3392699361e+00 1.9279283965e+00 3.3392699361e+00 
7900 5.1622476774e+00 1.0526713229e-03 1.9278764391e+00 -3.3391799433e+00 1.9278764391e+00 3.3391799433e+00 
8000 5.1619196574e+00 1.1409031520e-04 1.9278491379e+00 -3.3391326561e+00 1.9278491379e+00 3.3391326561e+00 
8100 5.1615953950e+00 -8.1251776616e-04 1.9278461789e+00 -3.3391275310e+00 1.9278461789e+00 3.3391275310e+00 
8200 5.1612747541e+00 -1.7273323942e-03 1.9278672521e+00 -3.3391640309e+00 1.9278672521e+00 3.3391640309e+00 
8300 5.1609576025e+00 -2.6305271922e-03 1.9279120513e+00 -3.3392416254e+00 1.9279120513e+00 3.3392416254e+00 
8400 5.1606438112e+00 -3.5222701274e-03 1.9279802739e+00 -3.3393597904e+00 1.9279802739e+00 3.3393597904e+00 
8500 5.1603332549e+00 -4.4027236975e-03 1.9280716208e+00 -3.3395180078e+00 1.9280716208e+00 3.3395180078e+00 
8600 5.1600258114e+00 -5.2720451123e-03 1.9281857962e+00 -3.3397157654e+00 1.9281857962e+00 3.3397157654e+00 
8700 5.1597213619e+00 -6.1303864699e-03 1.9283225078e+00 -3.3399525568e+00 1.9283225078e+00 3.3399525568e+00 
8800 5.1594197906e+00 -6.9778949268e-03 1.9284814664e+00 -3.3402278813e+00 1.9284814664e+00 3.3402278813e+00 
8900 5.1591209848e+00 -7.8147128636e-03 1.9286623861e+00 -3.3405412433e+00 1.9286623861e+00 3.3405412433e+00 
9000 5.1588248349e+00 -8.6409780444e-03 1.9288649837e+00 -3.3408921527e+00 1.9288649837e+00 3.3408921527e+00 
9100 5.1585312341e+00 -9.4568237727e-03 1.9290889793e+00 -3.3412801245e+00 1.9290889793e+00 3.3412801245e+00 
9200 5.1582400783e+00 -1.0262379041e-02 1.9293340956e+00 -3.3417046784e+00 1.9293340956e+00 3.3417046784e+00 
9300 5.1579512664e+00 -1.1057768678e-02 1.9296000583e+00 -3.3421653392e+00 1.9296000583e+00 3.3421653392e+00 
9400 5.1576646999e+00 -1.1843113488e-02 1.9298865954e+00 -3.3426616361e+00 1.9298865954e+00 3.3426616361e+00 
9500 5.1573802830e+00 -1.2618530387e-02 1.9301934380e+00 -3.3431931030e+00 1.9301934380e+00 3.3431931030e+00 
9600 5.1570979223e+00 -1.3384132540e-02 1.9305203194e+00 -3.3437592782e+00 1.9305203194e+00 3.3437592782e+00 
9700 5.1568175270e+00 -1.4140029484e-02 1.9308669755e+00 -3.3443597042e+00 1.9308669755e+00 3.3443597042e+00 
9800 5.1565390089e+00 -1.4886327256e-02 1.9312331446e+00 -3.3449939277e+00 1.9312331446e+00 3.3449939277e+00 
9900 5.1562622821e+00 -1.5623128511e-02 1.9316185673e+00 -3.3456614994e+00 1.9316185673e+00 3.3456614994e+00 
10000 5.1559872629e+00 -1.6350532644e-02 1.9320229865e+00 -3.3463619740e+00 1.9320229865e+00 3.3463619740e+00 
10100 5.1557138702e+00 -1.7068635897e-02 1.9324461473e+00 -3.3470949101e+00 1.9324461473e+00 3.3470949101e+00 
10200 5.1554420249e+00 -1.7777531475e-02 1.9328877971e+00 -3.3478598698e+00 1.9328877971e+00 3.3478598698e+00 
10300 5.1551716502e+00 -1.8477309648e-02 1.9333476850e+00 -3.3486564191e+00 1.9333476850e+00 3.3486564191e+00 
10400 5.1549026714e+00 -1.9168057858e-02 1.9338255626e+00 -3.3494841274e+00 1.9338255626e+00 3.3494841274e+00 
10500 5.1546350161e+00 -1.9849860819e-02 1.9343211832e+00 -3.3503425675e+00 1.9343211832e+00 3.3503425675e+00 
10600 5.1543686138e+00 -2.0522800613e-02 1.9348343022e+00 -3.3512313156e+00 1.9348343022e+00 3.3512313156e+00 
10700 5.1541033960e+00 -2.1186956784e-02 1.9353646768e+00 -3.3521499513e+00 1.9353646768e+00 3.3521499513e+00 
10800 5.1538392963e+00 -2.1842406432e-02 1.9359120660e+00 -3.3530980573e+00 1.9359120660e+00 3.3530980573e+00 
10900 5.1535762503e+00 -2.2489224304e-02 1.9364762307e+00 -3.3540752193e+00 1.9364762307e+00 3.3540752193e+00 
11000 5.1533141953e+00 -2.3127482873e-02 1.9370569336e+00 -3.3550810262e+00 1.9370569336e+00 3.3550810262e+00 
11100 5.1530530706e+00 -2.3757252431e-02 1.9376539391e+00 -3.3561150700e+00 1.9376539391e+00 3.3561150700e+00 
11200 5.1527928174e+00 -2.4378601164e-02 1.9382670131e+00 -3.3571769453e+00 1.9382670131e+00 3.3571769453e+00 
11300 5.1525333787e+00 -2.4991595235e-02 1.9388959233e+00 -3.3582662498e+00 1.9388959233e+00 3.3582662498e+00 
11400 5.1522746991e+00 -2.5596298860e-02 1.9395404391e+00 -3.3593825838e+00 1.9395404391e+00 3.3593825838e+00 
11500 5.1520167252e+00 -2.6192774382e-02 1.9402003312e+00 -3.3605255505e+00 1.9402003312e+00 3.3605255505e+00 
11600 5.1517594051e+00 -2.6781082344e-02 1.9408753721e+00 -3.3616947557e+00 1.9408753721e+00 3.3616947557e+00 
11700 5.1515026885e+00 -2.7361281562e-02 1.9415653358e+00 -3.3628898077e+00 1.9415653358e+00 3.3628898077e+00 
11800 5.1512465271e+00 -2.7933429190e-02 1.9422699975e+00 -3.3641103177e+00 1.9422699975e+00 3.3641103177e+00 
11900 5.1509908739e+00 -2.8497580790e-02 1.9429891342e+00 -3.3653558989e+00 1.9429891342e+00 3.3653558989e+00 
12000 5.1507356836e+00 -2.9053790395e-02 1.9437225241e+00 -3.3666261675e+00 1.9437225241e+00 3.3666261675e+00 
12100 5.1504809125e+00 -2.9602110573e-02 1.9444699469e+00 -3.3679207419e+00 1.9444699469e+00 3.3679207419e+00 
12200 5.1502265183e+00 -3.0142592491e-02 1.9452311837e+00 -3.3692392426e+00 1.9452311837e+00 3.3692392426e+00 
12300 5.1499724603e+00 -3.0675285970e-02 1.9460060169e+00 -3.3705812931e+00 1.9460060169e+00 3.3705812931e+00 
12400 5.1497186992e+00 -3.1200239547e-02 1.9467942302e+00 -3.3719465185e+00 1.9467942302e+00 3.3719465185e+00 
12500 5.1494651972e+00 -3.1717500529e-02 1.9475956086e+00 -3.3733345467e+00 1.9475956086e+00 3.3733345467e+00 
12600 5.1492119180e+00 -3.2227115053e-02 1.9484099386e+00 -3.3747450076e+00 1.9484099386e+00 3.3747450076e+00 
12700 5.1489588266e+00 -3.2729128132e-02 1.9492370077e+00 -3.3761775333e+00 1.9492370077e+00 3.3761775333e+00 
12800 5.1487058893e+00 -3.3223583717e-02 1.9500766049e+00 -3.3776317583e+00 1.9500766049e+00 3.3776317583e+00 
12900 5.1484530739e+00 -3.3710524737e-02 1.9509285201e+00 -3.3791073188e+00 1.9509285201e+00 3.3791073188e+00 
13000 5.1482003494e+00 -3.4189993161e-02 1.9517925449e+00 -3.3806038536e+00 1.9517925449e+00 3.3806038536e+00 
13100 5.1479476863e+00 -3.4662030034e-02 1.9526684718e+00 -3.3821210034e+00 1.9526684718e+00 3.3821210034e+00 
13200 5.1476950560e+00 -3.5126675533e-02 1.9535560944e+00 -3.3836584109e+00 1.9535560944e+00 3.3836584109e+00 
13300 5.1474424316e+00 -3.5583969008e-02 1.9544552078e+00 -3.3852157210e+00 1.9544552078e+00 3.3852157210e+00 
13400 5.1471897872e+00 -3.6033949030e-02 1.9553656080e+00 -3.3867925805e+00 1.9553656080e+00 3.3867925805e+00 
13500 5.1469370979e+00 -3.6476653432e-02 1.9562870924e+00 -3.3883886382e+00 1.9562870924e+00 3.3883886382e+00 
13600 5.1466843405e+00 -3.6912119351e-02 1.9572194594e+00 -3.3900035452e+00 1.9572194594e+00 3.3900035452e+00 
13700 5.1464314925e+00 -3.7340383272e-02 1.9581625085e+00 -3.3916369542e+00 1.9581625085e+00 3.3916369542e+00 
13800 5.1461785327e+00 -3.7761481067e-02 1.9591160405e+00 -3.3932885201e+00 1.9591160405e+00 3.3932885201e+00 
13900 5.1459254412e+00 -3.8175448031e-02 1.9600798572e+00 -3.3949578996e+00 1.9600798572e+00 3.3949578996e+00 
14000 5.1456721989e+00 -3.8582318926e-02 1.9610537616e+00 -3.3966447514e+00 1.9610537616e+00 3.3966447514e+00 
14100 5.1454187880e+00 -3.8982128013e-02 1.9620375577e+00 -3.3983487364e+00 1.9620375577e+00 3.3983487364e+00 
14200 5.1451651917e+00 -3.9374909090e-02 1.9630310509e+00 -3.4000695169e+00 1.9630310509e+00 3.4000695169e+00 
14300 5.1449113942e+00 -3.9760695528e-02 1.9640340472e+00 -3.4018067576e+00 1.9640340472e+00 3.4018067576e+00 
14400 5.1446573807e+00 -4.0139520305e-02 1.9650463542e+00 -3.4035601248e+00 1.9650463542e+00 3.4035601248e+00 
14500 5.1444031376e+00 -4.0511416037e-02 1.9660677804e+00 -3.4053292868e+00 1.9660677804e+00 3.4053292868e+00 
14600 5.1441486520e+00 -4.0876415015e-02 1.9670981353e+00 -3.4071139139e+00 1.9670981353e+00 3.4071139139e+00 
14700 5.1438939122e+00 -4.1234549231e-02 1.9681372297e+00 -3.4089136781e+00 1.9681372297e+00 3.4089136781e+00 
14800 5.1436389072e+00 -4.1585850413e-02 1.9691848753e+00 -3.4107282535e+00 1.9691848753e+00 3.4107282535e+00 
14900 5.1433836273e+00 -4.1930350052e-02 1.9702408849e+00 -3.4125573158e+00 1.9702408849e+00 3.4125573158e+00 
15000 5.1431280633e+00 -4.2268079434e-02 1.9713050726e+00 -3.4144005430e+00 1.9713050726e+00 3.4144005430e+00 
15100 5.1428722072e+00 -4.2599069667e-02 1.9723772534e+00 -3.4162576146e+00 1.9723772534e+00 3.4162576146e+00 
15200 5.1426160517e+00 -4.2923351704e-02 1.9734572434e+00 -3.4181282122e+00 1.9734572434e+00 3.4181282122e+00 
15300 5.1423595904e+00 -4.3240956379e-02 1.9745448599e+00 -3.4200120192e+00 1.9745448599e+00 3.4200120192e+00 
15400 5.1421028178e+00 -4.3551914422e-02 1.9756399211e+00 -3.4219087209e+00 1.9756399211e+00 3.4219087209e+00 
15500 5.1418457291e+00 -4.3856256492e-02 1.9767422465e+00 -3.4238180045e+00 1.9767422465e+00 3.4238180045e+00 
15600 5.1415883204e+00 -4.4154013200e-02 1.9778516566e+00 -3.4257395591e+00 1.9778516566e+00 3.4257395591e+00 
15700 5.1413305885e+00 -4.4445215127e-02 1.9789679730e+00 -3.4276730758e+00 1.9789679730e+00 3.4276730758e+00 
15800 5.1410725312e+00 -4.4729892855e-02 1.9800910184e+00 -3.4296182474e+00 1.9800910184e+00 3.4296182474e+00 
15900 5.1408141467e+00 -4.5008076982e-02 1.9812206165e+00 -3.4315747688e+00 1.9812206165e+00 3.4315747688e+00 
16000 5.1405554341e+00 -4.5279798148e-02 1.9823565924e+00 -3.4335423367e+00 1.9823565924e+00 3.4335423367e+00 
16100 5.1402963935e+00 -4.5545087054e-02 1.9834987719e+00 -3.4355206497e+00 1.9834987719e+00 3.4355206497e+00 
16200 5.1400370251e+00 -4.5803974481e-02 1.9846469823e+00 -3.4375094085e+00 1.9846469823e+00 3.4375094085e+00 
16300 5.1397773304e+00 -4.6056491309e-02 1.9858010518e+00 -3.4395083155e+00 1.9858010518e+00 3.4395083155e+00 
16400 5.1395173112e+00 -4.6302668541e-02 1.9869608098e+00 -3.4415170752e+00 1.9869608098e+00 3.4415170752e+00 
16500 5.1392569700e+00 -4.6542537311e-02 1.9881260867e+00 -3.4435353940e+00 1.9881260867e+00 3.4435353940e+00 
16600 5.1389963101e+00 -4.6776128911e-02 1.9892967142e+00 -3.4455629803e+00 1.9892967142e+00 3.4455629803e+00 
16700 5.1387353353e+00 -4.7003474801e-02 1.9904725250e+00 -3.4475995445e+00 1.9904725250e+00 3.4475995445e+00 
16800 5.1384740501e+00 -4.7224606629e-02 1.9916533532e+00 -3.4496447988e+00 1.9916533532e+00 3.4496447988e+00 
16900 5.1382124595e+00 -4.7439556243e-02 1.9928390336e+00 -3.4516984576e+00 1.9928390336e+00 3.4516984576e+00 
17000 5.1379505691e+00 -4.7648355707e-02 1.9940294026e+00 -3.4537602371e+00 1.9940294026e+00 3.4537602371e+00 
17100 5.1376883851e+00 -4.7851037317e-02 1.9952242975e+00 -3.4558298558e+00 1.9952242975e+00 3.4558298558e+00 
17200 5.1374259142e+00 -4.8047633610e-02 1.9964235569e+00 -3.4579070339e+00 1.9964235569e+00 3.4579070339e+00 
17300 5.1371631638e+00 -4.8238177380e-02 1.9976270204e+00 -3.4599914938e+00 1.9976270204e+00 3.4599914938e+00 
17400 5.1369001416e+00 -4.8422701690e-02 1.9988345289e+00 -3.4620829600e+00 1.9988345289e+00 3.4620829600e+00 
17500 5.1366368559e+00 -4.8601239881e-02 2.0000459246e+00 -3.4641811588e+00 2.0000459246e+00 3.4641811588e+00 
17600 5.1363733156e+00 -4.8773825587e-02 2.0012610506e+00 -3.4662858188e+00 2.0012610506e+00 3.4662858188e+00 
17700 5.1361095300e+00 -4.8940492740e-02 2.0024797515e+00 -3.4683966707e+00 2.0024797515e+00 3.4683966707e+00 
17800 5.1358455088e+00 -4.9101275584e-02 2.0037018729e+00 -3.4705134471e+00 2.0037018729e+00 3.4705134471e+00 
17900 5.1355812622e+00 -4.9256208684e-02 2.0049272617e+00 -3.4726358827e+00 2.0049272617e+00 3.4726358827e+00 
18000 5.1353168009e+00 -4.9405326931e-02 2.0061557660e+00 -3.4747637146e+00 2.0061557660e+00 3.4747637146e+00 
18100 5.1350521360e+00 -4.9548665552e-02 2.0073872351e+00 -3.4768966817e+00 2.0073872351e+00 3.4768966817e+00 
18200 5.1347872790e+00 -4.9686260119e-02 2.0086215196e+00 -3.4790345252e+00 2.0086215196e+00 3.4790345252e+00 
18300 5.1345222417e+00 -4.9818146554e-02 2.0098584713e+00 -3.4811769884e+00 2.0098584713e+00 3.4811769884e+00 
18400 5.1342570365e+00 -4.9944361135e-02 2.0110979433e+00 -3.4833238167e+00 2.0110979433e+00 3.4833238167e+00 
18500 5.1339916761e+00 -5.0064940503e-02 2.0123397897e+00 -3.4854747579e+00 2.0123397897e+00 3.4854747579e+00 
18600 5.1337261735e+00 -5.0179921666e-02 2.0135838663e+00 -3.4876295617e+00 2.0135838663e+00 3.4876295617e+00 
18700 5.1334605420e+00 -5.0289342003e-02 2.0148300298e+00 -3.4897879802e+00 2.0148300298e+00 3.4897879802e+00 
18800 5.1331947954e+00 -5.0393239272e-02 2.0160781383e+00 -3.4919497676e+00 2.0160781383e+00 3.4919497676e+00 
18900 5.1329289477e+00 -5.0491651608e-02 2.0173280512e+00 -3.4941146802e+00 2.0173280512e+00 3.4941146802e+00 
19000 5.1326630134e+00 -5.0584617530e-02 2.0185796292e+00 -3.4962824770e+00 2.0185796292e+00 3.4962824770e+00 
19100 5.1323970070e+00 -5.0672175943e-02 2.0198327343e+00 -3.4984529186e+00 2.0198327343e+00 3.4984529186e+00 
19200 5.1321309436e+00 -5.0754366138e-02 2.0210872297e+00 -3.5006257684e+00 2.0210872297e+00 3.5006257684e+00 
19300 5.1318648383e+00 -5.0831227796e-02 2.0223429800e+00 -3.5028007917e+00 2.0223429800e+00 3.5028007917e+00 
19400 5.1315987068e+00 -5.0902800988e-02 2.0235998511e+00 -3.5049777563e+00 2.0235998511e+00 3.5049777563e+00 
19500 5.1313325647e+00 -5.0969126175e-02 2.0248577102e+00 -3.5071564322e+00 2.0248577102e+00 3.5071564322e+00 
19600 5.1310664280e+00 -5.1030244209e-02 2.0261164259e+00 -3.5093365918e+00 2.0261164259e+00 3.5093365918e+00 
19700 5.1308003131e+00 -5.1086196333e-02 2.0273758680e+00 -3.5115180095e+00 2.0273758680e+00 3.5115180095e+00 
19800 5.1305342364e+00 -5.1137024177e-02 2.0286359078e+00 -3.5137004624e+00 2.0286359078e+00 3.5137004624e+00 
19900 5.1302682145e+00 -5.1182769762e-02 2.0298964178e+00 -3.5158837297e+00 2.0298964178e+00 3.5158837297e+00 
20000 5.1300022644e+00 -5.1223475494e-02 2.0311572719e+00 -3.5180675931e+00 2.0311572719e+00 3.5180675931e+00 
20100 5.1297364031e+00 -5.1259184164e-02 2.0324183454e+00 -3.5202518364e+00 2.0324183454e+00 3.5202518364e+00 
20200 5.1294706479e+00 -5.1289938943e-02 2.0336795149e+00 -3.5224362461e+00 2.0336795149e+00 3.5224362461e+00 
20300 5.1292050162e+00 -5.1315783382e-02 2.0349406585e+00 -3.5246206108e+00 2.0349406585e+00 3.5246206108e+00 
20400 5.1289395256e+00 -5.1336761408e-02 2.0362016554e+00 -3.5268047216e+00 2.0362016554e+00 3.5268047216e+00 
20500 5.1286741938e+00 -5.1352917316e-02 2.0374623865e+00 -3.5289883720e+00 2.0374623865e+00 3.5289883720e+00 
20600 5.1284090387e+00 -5.1364295772e-02 2.0387227339e+00 -3.5311713577e+00 2.0387227339e+00 3.5311713577e+00 
20700 5.1281440784e+00 -5.1370941801e-02 2.0399825811e+00 -3.5333534770e+00 2.0399825811e+00 3.5333534770e+00 
20800 5.1278793308e+00 -5.1372900788e-02 2.0412418130e+00 -3.5355345307e+00 2.0412418130e+00 3.5355345307e+00 
20900 5.1276148143e+00 -5.1370218468e-02 2.0425003159e+00 -3.5377143217e+00 2.0425003159e+00 3.5377143217e+00 
21000 5.1273505472e+00 -5.1362940922e-02 2.0437579776e+00 -3.5398926555e+00 2.0437579776e+00 3.5398926555e+00 
21100 5.1270865480e+00 -5.1351114573e-02 2.0450146871e+00 -3.5420693402e+00 2.0450146871e+00 3.5420693402e+00 
21200 5.1268228350e+00 -5.1334786177e-02 2.0462703349e+00 -3.5442441861e+00 2.0462703349e+00 3.5442441861e+00 
21300 5.1265594270e+00 -5.1314002815e-02 2.0475248130e+00 -3.5464170060e+00 2.0475248130e+00 3.5464170060e+00 
21400 5.1262963426e+00 -5.1288811889e-02 2.0487780148e+00 -3.5485876151e+00 2.0487780148e+00 3.5485876151e+00 
21500 5.1260336004e+00 -5.1259261115e-02 2.0500298349e+00 -3.5507558311e+00 2.0500298349e+00 3.5507558311e+00 
21600 5.1257712193e+00 -5.1225398509e-02 2.0512801696e+00 -3.5529214743e+00 2.0512801696e+00 3.5529214743e+00 
21700 5.1255092179e+00 -5.1187272387e-02 2.0525289164e+00 -3.5550843673e+00 2.0525289164e+00 3.5550843673e+00 
21800 5.1252476152e+00 -5.1144931352e-02 2.0537759744e+00 -3.5572443351e+00 2.0537759744e+00 3.5572443351e+00 
21900 5.1249864299e+00 -5.1098424286e-02 2.0550212440e+00 -3.5594012053e+00 2.0550212440e+00 3.5594012053e+00 
22000 5.1247256808e+00 -5.1047800343e-02 2.0562646271e+00 -3.5615548080e+00 2.0562646271e+00 3.5615548080e+00 
22100 5.1244653870e+00 -5.0993108936e-02 2.0575060270e+00 -3.5637049757e+00 2.0575060270e+00 3.5637049757e+00 
22200 5.1242055671e+00 -5.0934399732e-02 2.0587453484e+00 -3.5658515433e+00 2.0587453484e+00 3.5658515433e+00 
22300 5.1239462401e+00 -5.0871722638e-02 2.0599824975e+00 -3.5679943483e+00 2.0599824975e+00 3.5679943483e+00 
22400 5.1236874247e+00 -5.0805127797e-02 2.0612173818e+00 -3.5701332307e+00 2.0612173818e+00 3.5701332307e+00 
22500 5.1234291397e+00 -5.0734665570e-02 2.0624499104e+00 -3.5722680329e+00 2.0624499104e+00 3.5722680329e+00 
22600 5.1231714039e+00 -5.0660386533e-02 2.0636799937e+00 -3.5743985997e+00 2.0636799937e+00 3.5743985997e+00 
22700 5.1229142359e+00 -5.0582341463e-02 2.0649075437e+00 -3.5765247786e+00 2.0649075437e+00 3.5765247786e+00 
22800 5.1226576545e+00 -5.0500581327e-02 2.0661324736e+00 -3.5786464194e+00 2.0661324736e+00 3.5786464194e+00 
22900 5.1224016782e+00 -5.0415157272e-02 2.0673546981e+00 -3.5807633744e+00 2.0673546981e+00 3.5807633744e+00 
23000 5.1221463256e+00 -5.0326120614e-02 2.0685741335e+00 -3.5828754985e+00 2.0685741335e+00 3.5828754985e+00 
23100 5.1218916152e+00 -5.0233522826e-02 2.0697906974e+00 -3.5849826489e+00 2.0697906974e+00 3.5849826489e+00 
23200 5.1216375652e+00 -5.0137415529e-02 2.0710043087e+00 -3.5870846853e+00 2.0710043087e+00 3.5870846853e+00 
23300 5.1213841940e+00 -5.0037850477e-02 2.0722148879e+00 -3.5891814701e+00 2.0722148879e+00 3.5891814701e+00 
23400 5.1211315198e+00 -4.9934879547e-02 2.0734223570e+00 -3.5912728678e+00 2.0734223570e+00 3.5912728678e+00 
23500 5.1208795608e+00 -4.9828554728e-02 2.0746266391e+00 -3.5933587457e+00 2.0746266391e+00 3.5933587457e+00 
23600 5.1206283348e+00 -4.9718928109e-02 2.0758276590e+00 -3.5954389732e+00 2.0758276590e+00 3.5954389732e+00 
23700 5.1203778598e+00 -4.9606051865e-02 2.0770253429e+00 -3.5975134225e+00 2.0770253429e+00 3.5975134225e+00 
23800 5.1201281536e+00 -4.9489978248e-02 2.0782196182e+00 -3.5995819681e+00 2.0782196182e+00 3.5995819681e+00 
23900 5.1198792337e+00 -4.9370759571e-02 2.0794104140e+00 -3.6016444868e+00 2.0794104140e+00 3.6016444868e+00 
24000 5.1196311177e+00 -4.9248448200e-02 2.0805976605e+00 -3.6037008581e+00 2.0805976605e+00 3.6037008581e+00 
24100 5.1193838231e+00 -4.9123096539e-02 2.0817812895e+00 -3.6057509636e+00 2.0817812895e+00 3.6057509636e+00 
24200 5.1191373668e+00 -4.8994757019e-02 2.0829612341e+00 -3.6077946877e+00 2.0829612341e+00 3.6077946877e+00 
24300 5.1188917662e+00 -4.8863482084e-02 2.0841374290e+00 -3.6098319169e+00 2.0841374290e+00 3.6098319169e+00 
24400 5.1186470381e+00 -4.8729324181e-02 2.0853098099e+00 -3.6118625403e+00 2.0853098099e+00 3.6118625403e+00 
24500 5.1184031992e+00 -4.8592335746e-02 2.0864783143e+00 -3.6138864492e+00 2.0864783143e+00 3.6138864492e+00 
24600 5.1181602662e+00 -4.8452569190e-02 2.0876428807e+00 -3.6159035375e+00 2.0876428807e+00 3.6159035375e+00 
24700 5.1179182554e+00 -4.8310076891e-02 2.0888034493e+00 -3.6179137013e+00 2.0888034493e+00 3.6179137013e+00 
24800 5.1176771832e+00 -4.8164911177e-02 2.0899599615e+00 -3.6199168391e+00 2.0899599615e+00 3.6199168391e+00 
24900 5.1174370656e+00 -4.8017124316e-02 2.0911123600e+00 -3.6219128519e+00 2.0911123600e+00 3.6219128519e+00 
25000 5.1171979185e+00 -4.7866768505e-02 2.0922605890e+00 -3.6239016428e+00 2.0922605890e+00 3.6239016428e+00 
25100 5.1169597575e+00 -4.7713895854e-02 2.0934045939e+00 -3.6258831174e+00 2.0934045939e+00 3.6258831174e+00 
25200 5.1167225982e+00 -4.7558558375e-02 2.0945443216e+00 -3.6278571836e+00 2.0945443216e+00 3.6278571836e+00 
25300 5.1164864559e+00 -4.7400807972e-02 2.0956797201e+00 -3.6298237516e+00 2.0956797201e+00 3.6298237516e+00 
25400 5.1162513457e+00 -4.7240696426e-02 2.0968107391e+00 -3.6317827339e+00 2.0968107391e+00 3.6317827339e+00 
25500 5.1160172823e+00 -4.7078275384e-02 2.0979373291e+00 -3.6337340452e+00 2.0979373291e+00 3.6337340452e+00 
25600 5.1157842806e+00 -4.6913596348e-02 2.0990594425e+00 -3.6356776025e+00 2.0990594425e+00 3.6356776025e+00 
25700 5.1155523550e+00 -4.6746710660e-02 2.1001770325e+00 -3.6376133252e+00 2.1001770325e+00 3.6376133252e+00 
25800 5.1153215196e+00 -4.6577669494e-02 2.1012900538e+00 -3.6395411347e+00 2.1012900538e+00 3.6395411347e+00 
25900 5.1150917885e+00 -4.6406523842e-02 2.1023984625e+00 -3.6414609548e+00 2.1023984625e+00 3.6414609548e+00 
26000 5.1148631754e+00 -4.6233324501e-02 2.1035022157e+00 -3.6433727115e+00 2.1035022157e+00 3.6433727115e+00 
26100 5.1146356940e+00 -4.6058122065e-02 2.1046012720e+00 -3.6452763328e+00 2.1046012720e+00 3.6452763328e+00 
26200 5.1144093574e+00 -4.5880966910e-02 2.1056955912e+00 -3.6471717493e+00 2.1056955912e+00 3.6471717493e+00 
26300 5.1141841788e+00 -4.5701909188e-02 2.1067851343e+00 -3.6490588932e+00 2.1067851343e+00 3.6490588932e+00 
26400 5.1139601709e+00 -4.5520998807e-02 2.1078698635e+00 -3.6509376994e+00 2.1078698635e+00 3.6509376994e+00 
26500 5.1137373463e+00 -4.5338285430e-02 2.1089497424e+00 -3.6528081045e+00 2.1089497424e+00 3.6528081045e+00 
26600 5.1135157174e+00 -4.5153818456e-02 2.1100247357e+00 -3.6546700474e+00 2.1100247357e+00 3.6546700474e+00 
26700 5.1132952962e+00 -4.4967647016e-02 2.1110948092e+00 -3.6565234692e+00 2.1110948092e+00 3.6565234692e+00 
26800 5.1130760945e+00 -4.4779819955e-02 2.1121599302e+00 -3.6583683128e+00 2.1121599302e+00 3.6583683128e+00 
26900 5.1128581239e+00 -4.4590385831e-02 2.1132200668e+00 -3.6602045233e+00 2.1132200668e+00 3.6602045233e+00 
27000 5.1126413956e+00 -4.4399392896e-02 2.1142751887e+00 -3.6620320480e+00 2.1142751887e+00 3.6620320480e+00 
27100 5.1124259206e+00 -4.4206889090e-02 2.1153252664e+00 -3.6638508360e+00 2.1153252664e+00 3.6638508360e+00 
27200 5.1122117098e+00 -4.4012922032e-02 2.1163702719e+00 -3.6656608385e+00 2.1163702719e+00 3.6656608385e+00 
27300 5.1119987736e+00 -4.3817539010e-02 2.1174101779e+00 -3.6674620086e+00 2.1174101779e+00 3.6674620086e+00 
27400 5.1117871222e+00 -4.3620786969e-02 2.1184449586e+00 -3.6692543014e+00 2.1184449586e+00 3.6692543014e+00 
27500 5.1115767655e+00 -4.3422712504e-02 2.1194745893e+00 -3.6710376741e+00 2.1194745893e+00 3.6710376741e+00 
27600 5.1113677133e+00 -4.3223361852e-02 2.1204990462e+00 -3.6728120855e+00 2.1204990462e+00 3.6728120855e+00 
27700 5.1111599748e+00 -4.3022780880e-02 2.1215183068e+00 -3.6745774967e+00 2.1215183068e+00 3.6745774967e+00 
27800 5.1109535592e+00 -4.2821015081e-02 2.1225323496e+00 -3.6763338703e+00 2.1225323496e+00 3.6763338703e+00 
27900 5.1107484754e+00 -4.2618109559e-02 2.1235411542e+00 -3.6780811710e+00 2.1235411542e+00 3.6780811710e+00 
28000 5.1105447319e+00 -4.2414109028e-02 2.1245447011e+00 -3.6798193653e+00 2.1245447011e+00 3.6798193653e+00 
28100 5.1103423369e+00 -4.2209057801e-02 2.1255429721e+00 -3.6815484214e+00 2.1255429721e+00 3.6815484214e+00 
28200 5.1101412984e+00 -4.2002999779e-02 2.1265359500e+00 -3.6832683095e+00 2.1265359500e+00 3.6832683095e+00 
28300 5.1099416241e+00 -4.1795978450e-02 2.1275236185e+00 -3.6849790015e+00 2.1275236185e+00 3.6849790015e+00 
28400 5.1097433214e+00 -4.1588036877e-02 2.1285059623e+00 -3.6866804709e+00 2.1285059623e+00 3.6866804709e+00 
28500 5.1095463975e+00 -4.1379217694e-02 2.1294829672e+00 -3.6883726930e+00 2.1294829672e+00 3.6883726930e+00 
28600 5.1093508591e+00 -4.1169563096e-02 2.1304546200e+00 -3.6900556451e+00 2.1304546200e+00 3.6900556451e+00 
28700 5.1091567129e+00 -4.0959114835e-02 2.1314209085e+00 -3.6917293058e+00 2.1314209085e+00 3.6917293058e+00 
28800 5.1089639650e+00 -4.0747914214e-02 2.1323818212e+00 -3.6933936555e+00 2.1323818212e+00 3.6933936555e+00 
28900 5.1087726214e+00 -4.0536002079e-02 2.1333373479e+00 -3.6950486763e+00 2.1333373479e+00 3.6950486763e+00 
29000 5.1085826878e+00 -4.0323418816e-02 2.1342874792e+00 -3.6966943519e+00 2.1342874792e+00 3.6966943519e+00 
29100 5.1083941697e+00 -4.0110204342e-02 2.1352322065e+00 -3.6983306676e+00 2.1352322065e+00 3.6983306676e+00 
29200 5.1082070720e+00 -3.9896398102e-02 2.1361715222e+00 -3.6999576101e+00 2.1361715222e+00 3.6999576101e+00 
29300 5.1080213996e+00 -3.9682039066e-02 2.1371054197e+00 -3.7015751680e+00 2.1371054197e+00 3.7015751680e+00 
29400 5.1078371570e+00 -3.9467165719e-02 2.1380338931e+00 -3.7031833311e+00 2.1380338931e+00 3.7031833311e+00 
29500 5.1076543484e+00 -3.9251816061e-02 2.1389569375e+00 -3.7047820909e+00 2.1389569375e+00 3.7047820909e+00 
29600 5.1074729778e+00 -3.9036027601e-02 2.1398745488e+00 -3.7063714403e+00 2.1398745488e+00 3.7063714403e+00 
29700 5.1072930489e+00 -3.8819837352e-02 2.1407867237e+00 -3.7079513737e+00 2.1407867237e+00 3.7079513737e+00 
29800 5.1071145650e+00 -3.8603281832e-02 2.1416934599e+00 -3.7095218868e+00 2.1416934599e+00 3.7095218868e+00 
29900 5.1069375291e+00 -3.8386397052e-02 2.1425947558e+00 -3.7110829770e+00 2.1425947558e+00 3.7110829770e+00 
30000 5.1067619442e+00 -3.8169218522e-02 2.1434906104e+00 -3.7126346428e+00 2.1434906104e+00 3.7126346428e+00 
30100 5.1065878127e+00 -3.7951781243e-02 2.1443810239e+00 -3.7141768843e+00 2.1443810239e+00 3.7141768843e+00 
30200 5.1064151368e+00 -3.7734119702e-02 2.1452659970e+00 -3.7157097026e+00 2.1452659970e+00 3.7157097026e+00 
30300 5.1062439185e+00 -3.7516267877e-02 2.1461455313e+00 -3.7172331006e+00 2.1461455313e+00 3.7172331006e+00 
30400 5.1060741595e+00 -3.7298259228e-02 2.1470196289e+00 -3.7187470820e+00 2.1470196289e+00 3.7187470820e+00 
30500 5.1059058612e+00 -3.7080126698e-02 2.1478882929e+00 -3.7202516522e+00 2.1478882929e+00 3.7202516522e+00 
30600 5.1057390246e+00 -3.6861902709e-02 2.1487515270e+00 -3.7217468176e+00 2.1487515270e+00 3.7217468176e+00 
30700 5.1055736507e+00 -3.6643619165e-02 2.1496093357e+00 -3.7232325858e+00 2.1496093357e+00 3.7232325858e+00 
30800 5.1054097400e+00 -3.6425307445e-02 2.1504617240e+00 -3.7247089658e+00 2.1504617240e+00 3.7247089658e+00 
30900 5.1052472929e+00 -3.6206998408e-02 2.1513086979e+00 -3.7261759675e+00 2.1513086979e+00 3.7261759675e+00 
31000 5.1050863093e+00 -3.5988722386e-02 2.1521502637e+00 -3.7276336023e+00 2.1521502637e+00 3.7276336023e+00 
31100 5.1049267890e+00 -3.5770509189e-02 2.1529864287e+00 -3.7290818824e+00 2.1529864287e+00 3.7290818824e+00 
31200 5.1047687316e+00 -3.5552388099e-02 2.1538172005e+00 -3.7305208214e+00 2.1538172005e+00 3.7305208214e+00 
31300 5.1046121362e+00 -3.5334387876e-02 2.1546425875e+00 -3.7319504338e+00 2.1546425875e+00 3.7319504338e+00 
31400 5.1044570020e+00 -3.5116536755e-02 2.1554625989e+00 -3.7333707351e+00 2.1554625989e+00 3.7333707351e+00 
31500 5.1043033275e+00 -3.4898862443e-02 2.1562772442e+00 -3.7347817421e+00 2.1562772442e+00 3.7347817421e+00 
31600 5.1041511114e+00 -3.4681392128e-02 2.1570865335e+00 -3.7361834724e+00 2.1570865335e+00 3.7361834724e+00 
31700 5.1040003518e+00 -3.4464152471e-02 2.1578904778e+00 -3.7375759447e+00 2.1578904778e+00 3.7375759447e+00 
31800 5.1038510466e+00 -3.4247169613e-02 2.1586890882e+00 -3.7389591785e+00 2.1586890882e+00 3.7389591785e+00 
31900 5.1037031938e+00 -3.4030469171e-02 2.1594823767e+00 -3.7403331946e+00 2.1594823767e+00 3.7403331946e+00 
32000 5.1035567906e+00 -3.3814076247e-02 2.1602703558e+00 -3.7416980143e+00 2.1602703558e+00 3.7416980143e+00 
32100 5.1034118345e+00 -3.3598015420e-02 2.1610530383e+00 -3.7430536602e+00 2.1610530383e+00 3.7430536602e+00 
32200 5.1032683224e+00 -3.3382310756e-02 2.1618304378e+00 -3.7444001556e+00 2.1618304378e+00 3.7444001556e+00 
32300 5.1031262511e+00 -3.3166985805e-02 2.1626025681e+00 -3.7457375246e+00 2.1626025681e+00 3.7457375246e+00 
32400 5.1029856172e+00 -3.2952063605e-02 2.1633694438e+00 -3.7470657922e+00 2.1633694438e+00 3.7470657922e+00 
32500 5.1028464170e+00 -3.2737566684e-02 2.1641310797e+00 -3.7483849842e+00 2.1641310797e+00 3.7483849842e+00 
32600 5.1027086467e+00 -3.2523517064e-02 2.1648874912e+00 -3.7496951274e+00 2.1648874912e+00 3.7496951274e+00 
32700 5.1025723021e+00 -3.2309936260e-02 2.1656386941e+00 -3.7509962490e+00 2.1656386941e+00 3.7509962490e+00 
32800 5.1024373789e+00 -3.2096845286e-02 2.1663847048e+00 -3.7522883774e+00 2.1663847048e+00 3.7522883774e+00 
32900 5.1023038727e+00 -3.1884264658e-02 2.1671255398e+00 -3.7535715413e+00 2.1671255398e+00 3.7535715413e+00 
33000 5.1021717786e+00 -3.1672214396e-02 2.1678612163e+00 -3.7548457704e+00 2.1678612163e+00 3.7548457704e+00 
33100 5.1020410917e+00 -3.1460714026e-02 2.1685917519e+00 -3.7561110951e+00 2.1685917519e+00 3.7561110951e+00 
33200 5.1019118070e+00 -3.1249782587e-02 2.1693171643e+00 -3.7573675462e+00 2.1693171643e+00 3.7573675462e+00 
33300 5.1017839190e+00 -3.1039438632e-02 2.1700374718e+00 -3.7586151555e+00 2.1700374718e+00 3.7586151555e+00 
33400 5.1016574222e+00 -3.0829700233e-02 2.1707526932e+00 -3.7598539553e+00 2.1707526932e+00 3.7598539553e+00 
33500 5.1015323110e+00 -3.0620584983e-02 2.1714628473e+00 -3.7610839783e+00 2.1714628473e+00 3.7610839783e+00 
33600 5.1014085795e+00 -3.0412110002e-02 2.1721679536e+00 -3.7623052582e+00 2.1721679536e+00 3.7623052582e+00 
33700 5.1012862215e+00 -3.0204291942e-02 2.1728680317e+00 -3.7635178290e+00 2.1728680317e+00 3.7635178290e+00 
33800 5.1011652309e+00 -2.9997146988e-02 2.1735631015e+00 -3.7647217253e+00 2.1735631015e+00 3.7647217253e+00 
33900 5.1010456011e+00 -2.9790690865e-02 2.1742531835e+00 -3.7659169823e+00 2.1742531835e+00 3.7659169823e+00 
34000 5.1009273257e+00 -2.9584938841e-02 2.1749382982e+00 -3.7671036357e+00 2.1749382982e+00 3.7671036357e+00 
34100 5.1008103979e+00 -2.9379905733e-02 2.1756184664e+00 -3.7682817217e+00 2.1756184664e+00 3.7682817217e+00 
34200 5.1006948107e+00 -2.9175605913e-02 2.1762937095e+00 -3.7694512770e+00 2.1762937095e+00 3.7694512770e+00 
34300 5.1005805572e+00 -2.8972053306e-02 2.1769640488e+00 -3.7706123387e+00 2.1769640488e+00 3.7706123387e+00 
34400 5.1004676300e+00 -2.8769261405e-02 2.1776295060e+00 -3.7717649444e+00 2.1776295060e+00 3.7717649444e+00 
34500 5.1003560219e+00 -2.8567243267e-02 2.1782901031e+00 -3.7729091322e+00 2.1782901031e+00 3.7729091322e+00 
34600 5.1002457253e+00 -2.8366011525e-02 2.1789458623e+00 -3.7740449405e+00 2.1789458623e+00 3.7740449405e+00 
34700 5.1001367326e+00 -2.8165578387e-02 2.1795968060e+00 -3.7751724081e+00 2.1795968060e+00 3.7751724081e+00 
34800 5.1000290360e+00 -2.7965955646e-02 2.1802429570e+00 -3.7762915743e+00 2.1802429570e+00 3.7762915743e+00 
34900 5.0999226277e+00 -2.7767154684e-02 2.1808843379e+00 -3.7774024787e+00 2.1808843379e+00 3.7774024787e+00 
35000 5.0998174995e+00 -2.7569186476e-02 2.1815209720e+00 -3.7785051613e+00 2.1815209720e+00 3.7785051613e+00 
35100 5.0997136434e+00 -2.7372061597e-02 2.1821528824e+00 -3.7795996622e+00 2.1821528824e+00 3.7795996622e+00 
35200 5.0996110510e+00 -2.7175790225e-02 2.1827800927e+00 -3.7806860222e+00 2.1827800927e+00 3.7806860222e+00 
35300 5.0995097141e+00 -2.6980382152e-02 2.1834026263e+00 -3.7817642821e+00 2.1834026263e+00 3.7817642821e+00 
35400 5.0994096241e+00 -2.6785846783e-02 2.1840205072e+00 -3.7828344832e+00 2.1840205072e+00 3.7828344832e+00 
35500 5.0993107724e+00 -2.6592193145e-02 2.1846337592e+00 -3.7838966669e+00 2.1846337592e+00 3.7838966669e+00 
35600 5.0992131504e+00 -2.6399429894e-02 2.1852424065e+00 -3.7849508749e+00 2.1852424065e+00 3.7849508749e+00 
35700 5.0991167492e+00 -2.6207565317e-02 2.1858464732e+00 -3.7859971492e+00 2.1858464732e+00 3.7859971492e+00 
35800 5.0990215599e+00 -2.6016607342e-02 2.1864459838e+00 -3.7870355320e+00 2.1864459838e+00 3.7870355320e+00 
35900 5.0989275737e+00 -2.5826563540e-02 2.1870409628e+00 -3.7880660658e+00 2.1870409628e+00 3.7880660658e+00 
36000 5.0988347815e+00 -2.5637441132e-02 2.1876314347e+00 -3.7890887931e+00 2.1876314347e+00 3.7890887931e+00 
36100 5.0987431741e+00 -2.5449246996e-02 2.1882174243e+00 -3.7901037569e+00 2.1882174243e+00 3.7901037569e+00 
36200 5.0986527423e+00 -2.5261987672e-02 2.1887989564e+00 -3.7911110001e+00 2.1887989564e+00 3.7911110001e+00 
36300 5.0985634769e+00 -2.5075669367e-02 2.1893760560e+00 -3.7921105658e+00 2.1893760560e+00 3.7921105658e+00 
36400 5.0984753685e+00 -2.4890297962e-02 2.1899487479e+00 -3.7931024974e+00 2.1899487479e+00 3.7931024974e+00 
36500 5.0983884077e+00 -2.4705879019e-02 2.1905170574e+00 -3.7940868383e+00 2.1905170574e+00 3.7940868383e+00 
36600 5.0983025850e+00 -2.4522417782e-02 2.1910810097e+00 -3.7950636322e+00 2.1910810097e+00 3.7950636322e+00 
36700 5.0982178910e+00 -2.4339919190e-02 2.1916406298e+00 -3.7960329228e+00 2.1916406298e+00 3.7960329228e+00 
36800 5.0981343161e+00 -2.4158387875e-02 2.1921959432e+00 -3.7969947537e+00 2.1921959432e+00 3.7969947537e+00 
36900 5.0980518505e+00 -2.3977828176e-02 2.1927469751e+00 -3.7979491690e+00 2.1927469751e+00 3.7979491690e+00 
37000 5.0979704848e+00 -2.3798244138e-02 2.1932937510e+00 -3.7988962127e+00 2.1932937510e+00 3.7988962127e+00 
37100 5.0978902091e+00 -2.3619639521e-02 2.1938362963e+00 -3.7998359287e+00 2.1938362963e+00 3.7998359287e+00 
37200 5.0978110137e+00 -2.3442017805e-02 2.1943746365e+00 -3.8007683613e+00 2.1943746365e+00 3.8007683613e+00 
37300 5.0977328888e+00 -2.3265382197e-02 2.1949087971e+00 -3.8016935546e+00 2.1949087971e+00 3.8016935546e+00 
37400 5.0976558247e+00 -2.3089735634e-02 2.1954388036e+00 -3.8026115527e+00 2.1954388036e+00 3.8026115527e+00 
37500 5.0975798114e+00 -2.2915080793e-02 2.1959646816e+00 -3.8035224001e+00 2.1959646816e+00 3.8035224001e+00 
37600 5.0975048392e+00 -2.2741420093e-02 2.1964864565e+00 -3.8044261408e+00 2.1964864565e+00 3.8044261408e+00 
37700 5.0974308982e+00 -2.2568755700e-02 2.1970041541e+00 -3.8053228193e+00 2.1970041541e+00 3.8053228193e+00 
37800 5.0973579784e+00 -2.2397089536e-02 2.1975177998e+00 -3.8062124797e+00 2.1975177998e+00 3.8062124797e+00 
37900 5.0972860699e+00 -2.2226423285e-02 2.1980274192e+00 -3.8070951665e+00 2.1980274192e+00 3.8070951665e+00 
38000 5.0972151629e+00 -2.2056758392e-02 2.1985330379e+00 -3.8079709237e+00 2.1985330379e+00 3.8079709237e+00 
38100 5.0971452474e+00 -2.1888096076e-02 2.1990346814e+00 -3.8088397958e+00 2.1990346814e+00 3.8088397958e+00 
38200 5.0970763135e+00 -2.1720437333e-02 2.1995323753e+00 -3.8097018269e+00 2.1995323753e+00 3.8097018269e+00 
38300 5.0970083512e+00 -2.1553782940e-02 2.2000261450e+00 -3.8105570611e+00 2.2000261450e+00 3.8105570611e+00 
38400 5.0969413507e+00 -2.1388133459e-02 2.2005160161e+00 -3.8114055427e+00 2.2005160161e+00 3.8114055427e+00 
38500 5.0968753019e+00 -2.1223489249e-02 2.2010020139e+00 -3.8122473156e+00 2.2010020139e+00 3.8122473156e+00 
38600 5.0968101950e+00 -2.1059850463e-02 2.2014841639e+00 -3.8130824240e+00 2.2014841639e+00 3.8130824240e+00 
38700 5.0967460200e+00 -2.0897217058e-02 2.2019624915e+00 -3.8139109117e+00 2.2019624915e+00 3.8139109117e+00 
38800 5.0966827671e+00 -2.0735588801e-02 2.2024370220e+00 -3.8147328226e+00 2.2024370220e+00 3.8147328226e+00 
38900 5.0966204264e+00 -2.0574965269e-02 2.2029077807e+00 -3.8155482006e+00 2.2029077807e+00 3.8155482006e+00 
39000 5.0965589881e+00 -2.0415345862e-02 2.2033747928e+00 -3.8163570893e+00 2.2033747928e+00 3.8163570893e+00 
39100 5.0964984422e+00 -2.0256729797e-02 2.2038380835e+00 -3.8171595323e+00 2.2038380835e+00 3.8171595323e+00 
39200 5.0964387790e+00 -2.0099116125e-02 2.2042976780e+00 -3.8179555732e+00 2.2042976780e+00 3.8179555732e+00 
39300 5.0963799887e+00 -1.9942503727e-02 2.2047536011e+00 -3.8187452554e+00 2.2047536011e+00 3.8187452554e+00 
39400 5.0963220615e+00 -1.9786891323e-02 2.2052058781e+00 -3.8195286220e+00 2.2052058781e+00 3.8195286220e+00 
39500 5.0962649876e+00 -1.9632277474e-02 2.2056545338e+00 -3.8203057164e+00 2.2056545338e+00 3.8203057164e+00 
39600 5.0962087575e+00 -1.9478660589e-02 2.2060995930e+00 -3.8210765816e+00 2.2060995930e+00 3.8210765816e+00 
39700 5.0961533614e+00 -1.9326038931e-02 2.2065410805e+00 -3.8218412605e+00 2.2065410805e+00 3.8218412605e+00 
39800 5.0960987896e+00 -1.9174410616e-02 2.2069790211e+00 -3.8225997958e+00 2.2069790211e+00 3.8225997958e+00 
39900 5.0960450327e+00 -1.9023773623e-02 2.2074134394e+00 -3.8233522303e+00 2.2074134394e+00 3.8233522303e+00 
40000 5.0959920810e+00 -1.8874125796e-02 2.2078443599e+00 -3.8240986065e+00 2.2078443599e+00 3.8240986065e+00 
40100 5.0959399250e+00 -1.8725464847e-02 2.2082718070e+00 -3.8248389666e+00 2.2082718070e+00 3.8248389666e+00 
40200 5.0958885553e+00 -1.8577788364e-02 2.2086958051e+00 -3.8255733530e+00 2.2086958051e+00 3.8255733530e+00 
40300 5.0958379625e+00 -1.8431093813e-02 2.2091163786e+00 -3.8263018076e+00 2.2091163786e+00 3.8263018076e+00 
40400 5.0957881371e+00 -1.8285378539e-02 2.2095335516e+00 -3.8270243724e+00 2.2095335516e+00 3.8270243724e+00 
40500 5.0957390699e+00 -1.8140639777e-02 2.2099473482e+00 -3.8277410892e+00 2.2099473482e+00 3.8277410892e+00 
40600 5.0956907516e+00 -1.7996874650e-02 2.2103577924e+00 -3.8284519994e+00 2.2103577924e+00 3.8284519994e+00 
40700 5.0956431730e+00 -1.7854080176e-02 2.2107649081e+00 -3.8291571444e+00 2.2107649081e+00 3.8291571444e+00 
40800 5.0955963249e+00 -1.7712253271e-02 2.2111687191e+00 -3.8298565656e+00 2.2111687191e+00 3.8298565656e+00 
40900 5.0955501981e+00 -1.7571390752e-02 2.2115692491e+00 -3.8305503039e+00 2.2115692491e+00 3.8305503039e+00 
41000 5.0955047838e+00 -1.7431489343e-02 2.2119665217e+00 -3.8312384002e+00 2.2119665217e+00 3.8312384002e+00 
41100 5.0954600728e+00 -1.7292545675e-02 2.2123605604e+00 -3.8319208952e+00 2.2123605604e+00 3.8319208952e+00 
41200 5.0954160562e+00 -1.7154556293e-02 2.2127513885e+00 -3.8325978294e+00 2.2127513885e+00 3.8325978294e+00 
41300 5.0953727251e+00 -1.7017517657e-02 2.2131390293e+00 -3.8332692430e+00 2.2131390293e+00 3.8332692430e+00 
41400 5.0953300708e+00 -1.6881426149e-02 2.2135235061e+00 -3.8339351763e+00 2.2135235061e+00 3.8339351763e+00 
41500 5.0952880845e+00 -1.6746278070e-02 2.2139048418e+00 -3.8345956691e+00 2.2139048418e+00 3.8345956691e+00 
41600 5.0952467575e+00 -1.6612069652e-02 2.2142830594e+00 -3.8352507612e+00 2.2142830594e+00 3.8352507612e+00 
41700 5.0952060812e+00 -1.6478797051e-02 2.2146581817e+00 -3.8359004921e+00 2.2146581817e+00 3.8359004921e+00 
41800 5.0951660470e+00 -1.6346456359e-02 2.2150302314e+00 -3.8365449010e+00 2.2150302314e+00 3.8365449010e+00 
41900 5.0951266464e+00 -1.6215043604e-02 2.2153992311e+00 -3.8371840273e+00 2.2153992311e+00 3.8371840273e+00 
42000 5.0950878710e+00 -1.6084554751e-02 2.2157652033e+00 -3.8378179097e+00 2.2157652033e+00 3.8378179097e+00 
42100 5.0950497125e+00 -1.5954985707e-02 2.2161281703e+00 -3.8384465870e+00 2.2161281703e+00 3.8384465870e+00 
42200 5.0950121626e+00 -1.5826332322e-02 2.2164881544e+00 -3.8390700977e+00 2.2164881544e+00 3.8390700977e+00 
42300 5.0949752130e+00 -1.5698590397e-02 2.2168451776e+00 -3.8396884802e+00 2.2168451776e+00 3.8396884802e+00 
42400 5.0949388557e+00 -1.5571755678e-02 2.2171992621e+00 -3.8403017725e+00 2.2171992621e+00 3.8403017725e+00 
42500 5.0949030825e+00 -1.5445823868e-02 2.2175504296e+00 -3.8409100124e+00 2.2175504296e+00 3.8409100124e+00 
42600 5.0948678854e+00 -1.5320790622e-02 2.2178987019e+00 -3.8415132378e+00 2.2178987019e+00 3.8415132378e+00 
42700 5.0948332565e+00 -1.5196651556e-02 2.2182441006e+00 -3.8421114859e+00 2.2182441006e+00 3.8421114859e+00 
42800 5.0947991880e+00 -1.5073402242e-02 2.2185866473e+00 -3.8427047941e+00 2.2185866473e+00 3.8427047941e+00 
42900 5.0947656720e+00 -1.4951038217e-02 2.2189263633e+00 -3.8432931995e+00 2.2189263633e+00 3.8432931995e+00 
43000 5.0947327009e+00 -1.4829554985e-02 2.2192632698e+00 -3.8438767388e+00 2.2192632698e+00 3.8438767388e+00 
43100 5.0947002670e+00 -1.4708948013e-02 2.2195973881e+00 -3.8444554485e+00 2.2195973881e+00 3.8444554485e+00 
43200 5.0946683627e+00 -1.4589212741e-02 2.2199287390e+00 -3.8450293652e+00 2.2199287390e+00 3.8450293652e+00 
43300 5.0946369806e+00 -1.4470344578e-02 2.2202573436e+00 -3.8455985249e+00 2.2202573436e+00 3.8455985249e+00 
43400 5.0946061132e+00 -1.4352338909e-02 2.2205832224e+00 -3.8461629637e+00 2.2205832224e+00 3.8461629637e+00 
43500 5.0945757532e+00 -1.4235191093e-02 2.2209063962e+00 -3.8467227171e+00 2.2209063962e+00 3.8467227171e+00 
43600 5.0945458934e+00 -1.4118896467e-02 2.2212268855e+00 -3.8472778208e+00 2.2212268855e+00 3.8472778208e+00 
43700 5.0945165264e+00 -1.4003450350e-02 2.2215447106e+00 -3.8478283101e+00 2.2215447106e+00 3.8478283101e+00 
43800 5.0944876453e+00 -1.3888848040e-02 2.2218598918e+00 -3.8483742199e+00 2.2218598918e+00 3.8483742199e+00 
43900 5.0944592429e+00 -1.3775084818e-02 2.2221724492e+00 -3.8489155851e+00 2.2221724492e+00 3.8489155851e+00 
44000 5.0944313123e+00 -1.3662155953e-02 2.2224824027e+00 -3.8494524404e+00 2.2224824027e+00 3.8494524404e+00 
44100 5.0944038466e+00 -1.3550056699e-02 2.2227897723e+00 -3.8499848202e+00 2.2227897723e+00 3.8499848202e+00 
44200 5.0943768390e+00 -1.3438782297e-02 2.2230945777e+00 -3.8505127586e+00 2.2230945777e+00 3.8505127586e+00 
44300 5.0943502827e+00 -1.3328327982e-02 2.2233968385e+00 -3.8510362897e+00 2.2233968385e+00 3.8510362897e+00 
44400 5.0943241711e+00 -1.3218688977e-02 2.2236965742e+00 -3.8515554471e+00 2.2236965742e+00 3.8515554471e+00 
44500 5.0942984975e+00 -1.3109860500e-02 2.2239938041e+00 -3.8520702644e+00 2.2239938041e+00 3.8520702644e+00 
44600 5.0942732555e+00 -1.3001837764e-02 2.2242885475e+00 -3.8525807750e+00 2.2242885475e+00 3.8525807750e+00 
44700 5.0942484386e+00 -1.2894615976e-02 2.2245808235e+00 -3.8530870118e+00 2.2245808235e+00 3.8530870118e+00 
44800 5.0942240405e+00 -1.2788190343e-02 2.2248706510e+00 -3.8535890079e+00 2.2248706510e+00 3.8535890079e+00 
44900 5.0942000547e+00 -1.2682556069e-02 2.2251580490e+00 -3.8540867957e+00 2.2251580490e+00 3.8540867957e+00 
45000 5.0941764752e+00 -1.2577708357e-02 2.2254430361e+00 -3.8545804079e+00 2.2254430361e+00 3.8545804079e+00 
45100 5.0941532957e+00 -1.2473642414e-02 2.2257256309e+00 -3.8550698765e+00 2.2257256309e+00 3.8550698765e+00 
45200 5.0941305102e+00 -1.2370353448e-02 2.2260058520e+00 -3.8555552336e+00 2.2260058520e+00 3.8555552336e+00 
45300 5.0941081126e+00 -1.2267836669e-02 2.2262837176e+00 -3.8560365110e+00 2.2262837176e+00 3.8560365110e+00 
45400 5.0940860971e+00 -1.2166087294e-02 2.2265592461e+00 -3.8565137403e+00 2.2265592461e+00 3.8565137403e+00 
45500 5.0940644578e+00 -1.2065100544e-02 2.2268324554e+00 -3.8569869528e+00 2.2268324554e+00 3.8569869528e+00 
45600 5.0940431889e+00 -1.1964871648e-02 2.2271033637e+00 -3.8574561796e+00 2.2271033637e+00 3.8574561796e+00 
45700 5.0940222847e+00 -1.1865395840e-02 2.2273719887e+00 -3.8579214517e+00 2.2273719887e+00 3.8579214517e+00 
45800 5.0940017394e+00 -1.1766668365e-02 2.2276383481e+00 -3.8583827999e+00 2.2276383481e+00 3.8583827999e+00 
45900 5.0939815477e+00 -1.1668684477e-02 2.2279024597e+00 -3.8588402545e+00 2.2279024597e+00 3.8588402545e+00 
46000 5.0939617039e+00 -1.1571439439e-02 2.2281643408e+00 -3.8592938459e+00 2.2281643408e+00 3.8592938459e+00 
46100 5.0939422026e+00 -1.1474928528e-02 2.2284240089e+00 -3.8597436043e+00 2.2284240089e+00 3.8597436043e+00 
46200 5.0939230385e+00 -1.1379147029e-02 2.2286814813e+00 -3.8601895594e+00 2.2286814813e+00 3.8601895594e+00 
46300 5.0939042062e+00 -1.1284090242e-02 2.2289367749e+00 -3.8606317410e+00 2.2289367749e+00 3.8606317410e+00 
46400 5.0938857006e+00 -1.1189753480e-02 2.2291899069e+00 -3.8610701784e+00 2.2291899069e+00 3.8610701784e+00 
46500 5.0938675164e+00 -1.1096132069e-02 2.2294408941e+00 -3.8615049010e+00 2.2294408941e+00 3.8615049010e+00 
46600 5.0938496486e+00 -1.1003221352e-02 2.2296897533e+00 -3.8619359379e+00 2.2296897533e+00 3.8619359379e+00 
46700 5.0938320922e+00 -1.0911016686e-02 2.2299365012e+00 -3.8623633177e+00 2.2299365012e+00 3.8623633177e+00 
46800 5.0938148422e+00 -1.0819513442e-02 2.2301811543e+00 -3.8627870693e+00 2.2301811543e+00 3.8627870693e+00 
46900 5.0937978938e+00 -1.0728707011e-02 2.2304237289e+00 -3.8632072209e+00 2.2304237289e+00 3.8632072209e+00 
47000 5.0937812420e+00 -1.0638592798e-02 2.2306642415e+00 -3.8636238010e+00 2.2306642415e+00 3.8636238010e+00 
47100 5.0937648821e+00 -1.0549166228e-02 2.2309027082e+00 -3.8640368374e+00 2.2309027082e+00 3.8640368374e+00 
47200 5.0937488095e+00 -1.0460422742e-02 2.2311391451e+00 -3.8644463580e+00 2.2311391451e+00 3.8644463580e+00 
47300 5.0937330195e+00 -1.0372357800e-02 2.2313735681e+00 -3.8648523906e+00 2.2313735681e+00 3.8648523906e+00 
47400 5.0937175076e+00 -1.0284966882e-02 2.2316059930e+00 -3.8652549624e+00 2.2316059930e+00 3.8652549624e+00 
47500 5.0937022692e+00 -1.0198245485e-02 2.2318364357e+00 -3.8656541007e+00 2.2318364357e+00 3.8656541007e+00 
47600 5.0936872999e+00 -1.0112189129e-02 2.2320649116e+00 -3.8660498327e+00 2.2320649116e+00 3.8660498327e+00 
47700 5.0936725953e+00 -1.0026793350e-02 2.2322914364e+00 -3.8664421851e+00 2.2322914364e+00 3.8664421851e+00 
47800 5.0936581511e+00 -9.9420537082e-03 2.2325160254e+00 -3.8668311847e+00 2.2325160254e+00 3.8668311847e+00 
47900 5.0936439630e+00 -9.8579657820e-03 2.2327386939e+00 -3.8672168578e+00 2.2327386939e+00 3.8672168578e+00 
48000 5.0936300269e+00 -9.7745251716e-03 2.2329594570e+00 -3.8675992308e+00 2.2329594570e+00 3.8675992308e+00 
48100 5.0936163387e+00 -9.6917274985e-03 2.2331783299e+00 -3.8679783297e+00 2.2331783299e+00 3.8679783297e+00 
48200 5.0936028941e+00 -9.6095684057e-03 2.2333953274e+00 -3.8683541805e+00 2.2333953274e+00 3.8683541805e+00 
48300 5.0935896893e+00 -9.5280435577e-03 2.2336104645e+00 -3.8687268088e+00 2.2336104645e+00 3.8687268088e+00 
48400 5.0935767202e+00 -9.4471486413e-03 2.2338237558e+00 -3.8690962403e+00 2.2338237558e+00 3.8690962403e+00 
48500 5.0935639829e+00 -9.3668793654e-03 2.2340352161e+00 -3.8694625001e+00 2.2340352161e+00 3.8694625001e+00 
48600 5.0935514737e+00 -9.2872314611e-03 2.2342448597e+00 -3.8698256136e+00 2.2342448597e+00 3.8698256136e+00 
48700 5.0935391887e+00 -9.2082006822e-03 2.2344527012e+00 -3.8701856056e+00 2.2344527012e+00 3.8701856056e+00 
48800 5.0935271241e+00 -9.1297828050e-03 2.2346587548e+00 -3.8705425010e+00 2.2346587548e+00 3.8705425010e+00 
48900 5.0935152763e+00 -9.0519736288e-03 2.2348630348e+00 -3.8708963243e+00 2.2348630348e+00 3.8708963243e+00 
49000 5.0935036417e+00 -8.9747689759e-03 2.2350655553e+00 -3.8712471000e+00 2.2350655553e+00 3.8712471000e+00 
49100 5.0934922167e+00 -8.8981646913e-03 2.2352663303e+00 -3.8715948524e+00 2.2352663303e+00 3.8715948524e+00 
49200 5.0934809977e+00 -8.8221566435e-03 2.2354653736e+00 -3.8719396056e+00 2.2354653736e+00 3.8719396056e+00 
49300 5.0934699813e+00 -8.7467407242e-03 2.2356626991e+00 -3.8722813834e+00 2.2356626991e+00 3.8722813834e+00 
49400 5.0934591641e+00 -8.6719128481e-03 2.2358583205e+00 -3.8726202095e+00 2.2358583205e+00 3.8726202095e+00 
49500 5.0934485427e+00 -8.5976689535e-03 2.2360522513e+00 -3.8729561076e+00 2.2360522513e+00 3.8729561076e+00 
49600 5.0934381139e+00 -8.5240050022e-03 2.2362445051e+00 -3.8732891010e+00 2.2362445051e+00 3.8732891010e+00 
49700 5.0934278742e+00 -8.4509169791e-03 2.2364350953e+00 -3.8736192130e+00 2.2364350953e+00 3.8736192130e+00 
49800 5.0934178206e+00 -8.3784008930e-03 2.2366240352e+00 -3.8739464664e+00 2.2366240352e+00 3.8739464664e+00 
49900 5.0934079499e+00 -8.3064527757e-03 2.2368113380e+00 -3.8742708844e+00 2.2368113380e+00 3.8742708844e+00 
50000 5.0933982588e+00 -8.2350686829e-03 2.2369970168e+00 -3.8745924894e+00 2.2369970168e+00 3.8745924894e+00 
50100 5.0933887445e+00 -8.1642446935e-03 2.2371810846e+00 -3.8749113042e+00 2.2371810846e+00 3.8749113042e+00 
50200 5.0933794038e+00 -8.0939769100e-03 2.2373635543e+00 -3.8752273510e+00 2.2373635543e+00 3.8752273510e+00 
50300 5.0933702338e+00 -8.0242614583e-03 2.2375444387e+00 -3.8755406521e+00 2.2375444387e+00 3.8755406521e+00 
50400 5.0933612315e+00 -7.9550944878e-03 2.2377237507e+00 -3.8758512295e+00 2.2377237507e+00 3.8758512295e+00 
50500 5.0933523940e+00 -7.8864721711e-03 2.2379015027e+00 -3.8761591050e+00 2.2379015027e+00 3.8761591050e+00 
50600 5.0933437186e+00 -7.8183907044e-03 2.2380777074e+00 -3.8764643006e+00 2.2380777074e+00 3.8764643006e+00 
50700 5.0933352024e+00 -7.7508463069e-03 2.2382523772e+00 -3.8767668376e+00 2.2382523772e+00 3.8767668376e+00 
50800 5.0933268427e+00 -7.6838352211e-03 2.2384255245e+00 -3.8770667374e+00 2.2384255245e+00 3.8770667374e+00 
50900 5.0933186367e+00 -7.6173537130e-03 2.2385971615e+00 -3.8773640215e+00 2.2385971615e+00 3.8773640215e+00 
51000 5.0933105819e+00 -7.5513980711e-03 2.2387673005e+00 -3.8776587107e+00 2.2387673005e+00 3.8776587107e+00 
51100 5.0933026755e+00 -7.4859646075e-03 2.2389359534e+00 -3.8779508262e+00 2.2389359534e+00 3.8779508262e+00 
51200 5.0932949150e+00 -7.4210496568e-03 2.2391031323e+00 -3.8782403885e+00 2.2391031323e+00 3.8782403885e+00 
51300 5.0932872978e+00 -7.3566495767e-03 2.2392688491e+00 -3.8785274185e+00 2.2392688491e+00 3.8785274185e+00 
51400 5.0932798215e+00 -7.2927607476e-03 2.2394331157e+00 -3.8788119365e+00 2.2394331157e+00 3.8788119365e+00 
51500 5.0932724836e+00 -7.2293795727e-03 2.2395959437e+00 -3.8790939629e+00 2.2395959437e+00 3.8790939629e+00 
51600 5.0932652816e+00 -7.1665024774e-03 2.2397573448e+00 -3.8793735179e+00 2.2397573448e+00 3.8793735179e+00 
51700 5.0932582132e+00 -7.1041259100e-03 2.2399173306e+00 -3.8796506214e+00 2.2399173306e+00 3.8796506214e+00 
51800 5.0932512761e+00 -7.0422463410e-03 2.2400759126e+00 -3.8799252934e+00 2.2400759126e+00 3.8799252934e+00 
51900 5.0932444679e+00 -6.9808602631e-03 2.2402331021e+00 -3.8801975536e+00 2.2402331021e+00 3.8801975536e+00 
52000 5.0932377863e+00 -6.9199641912e-03 2.2403889105e+00 -3.8804674217e+00 2.2403889105e+00 3.8804674217e+00 
52100 5.0932312292e+00 -6.8595546623e-03 2.2405433489e+00 -3.8807349169e+00 2.2405433489e+00 3.8807349169e+00 
52200 5.0932247944e+00 -6.7996282351e-03 2.2406964286e+00 -3.8810000587e+00 2.2406964286e+00 3.8810000587e+00 
52300 5.0932184795e+00 -6.7401814905e-03 2.2408481605e+00 -3.8812628661e+00 2.2408481605e+00 3.8812628661e+00 
52400 5.0932122827e+00 -6.6812110306e-03 2.2409985558e+00 -3.8815233583e+00 2.2409985558e+00 3.8815233583e+00 
52500 5.0932062017e+00 -6.6227134794e-03 2.2411476251e+00 -3.8817815540e+00 2.2411476251e+00 3.8817815540e+00 
52600 5.0932002345e+00 -6.5646854822e-03 2.2412953795e+00 -3.8820374720e+00 2.2412953795e+00 3.8820374720e+00 
52700 5.0931943790e+00 -6.5071237056e-03 2.2414418296e+00 -3.8822911310e+00 2.2414418296e+00 3.8822911310e+00 
52800 5.0931886334e+00 -6.4500248374e-03 2.2415869860e+00 -3.8825425493e+00 2.2415869860e+00 3.8825425493e+00 
52900 5.0931829956e+00 -6.3933855865e-03 2.2417308594e+00 -3.8827917453e+00 2.2417308594e+00 3.8827917453e+00 
53000 5.0931774637e+00 -6.3372026826e-03 2.2418734602e+00 -3.8830387372e+00 2.2418734602e+00 3.8830387372e+00 
53100 5.0931720358e+00 -6.2814728762e-03 2.2420147989e+00 -3.8832835430e+00 2.2420147989e+00 3.8832835430e+00 
53200 5.0931667100e+00 -6.2261929385e-03 2.2421548858e+00 -3.8835261806e+00 2.2421548858e+00 3.8835261806e+00 
53300 5.0931614846e+00 -6.1713596612e-03 2.2422937312e+00 -3.8837666679e+00 2.2422937312e+00 3.8837666679e+00 
53400 5.0931563577e+00 -6.1169698564e-03 2.2424313452e+00 -3.8840050224e+00 2.2424313452e+00 3.8840050224e+00 
53500 5.0931513275e+00 -6.0630203565e-03 2.2425677381e+00 -3.8842412618e+00 2.2425677381e+00 3.8842412618e+00 
53600 5.0931463924e+00 -6.0095080139e-03 2.2427029197e+00 -3.8844754033e+00 2.2427029197e+00 3.8844754033e+00 
53700 5.0931415506e+00 -5.9564297010e-03 2.2428369002e+00 -3.8847074643e+00 2.2428369002e+00 3.8847074643e+00 
53800 5.0931368003e+00 -5.9037823102e-03 2.2429696894e+00 -3.8849374618e+00 2.2429696894e+00 3.8849374618e+00 
53900 5.0931321401e+00 -5.8515627533e-03 2.2431012970e+00 -3.8851654130e+00 2.2431012970e+00 3.8851654130e+00 
54000 5.0931275682e+00 -5.7997679621e-03 2.2432317330e+00 -3.8853913346e+00 2.2432317330e+00 3.8853913346e+00 
54100 5.0931230830e+00 -5.7483948874e-03 2.2433610068e+00 -3.8856152435e+00 2.2433610068e+00 3.8856152435e+00 
54200 5.0931186830e+00 -5.6974404998e-03 2.2434891282e+00 -3.8858371562e+00 2.2434891282e+00 3.8858371562e+00 
54300 5.0931143666e+00 -5.6469017885e-03 2.2436161066e+00 -3.8860570893e+00 2.2436161066e+00 3.8860570893e+00 
54400 5.0931101323e+00 -5.5967757623e-03 2.2437419515e+00 -3.8862750591e+00 2.2437419515e+00 3.8862750591e+00 
54500 5.0931059786e+00 -5.5470594485e-03 2.2438666724e+00 -3.8864910819e+00 2.2438666724e+00 3.8864910819e+00 
54600 5.0931019041e+00 -5.4977498935e-03 2.2439902784e+00 -3.8867051739e+00 2.2439902784e+00 3.8867051739e+00 
54700 5.0930979073e+00 -5.4488441620e-03 2.2441127790e+00 -3.8869173511e+00 2.2441127790e+00 3.8869173511e+00 
54800 5.0930939867e+00 -5.4003393376e-03 2.2442341831e+00 -3.8871276293e+00 2.2442341831e+00 3.8871276293e+00 
54900 5.0930901411e+00 -5.3522325220e-03 2.2443545001e+00 -3.8873360243e+00 2.2443545001e+00 3.8873360243e+00 
55000 5.0930863690e+00 -5.3045208353e-03 2.2444737388e+00 -3.8875425519e+00 2.2444737388e+00 3.8875425519e+00 
55100 5.0930826690e+00 -5.2572014156e-03 2.2445919083e+00 -3.8877472275e+00 2.2445919083e+00 3.8877472275e+00 
55200 5.0930790399e+00 -5.2102714193e-03 2.2447090175e+00 -3.8879500665e+00 2.2447090175e+00 3.8879500665e+00 
55300 5.0930754804e+00 -5.1637280203e-03 2.2448250752e+00 -3.8881510844e+00 2.2448250752e+00 3.8881510844e+00 
55400 5.0930719891e+00 -5.1175684106e-03 2.2449400903e+00 -3.8883502963e+00 2.2449400903e+00 3.8883502963e+00 
55500 5.0930685648e+00 -5.0717897995e-03 2.2450540713e+00 -3.8885477172e+00 2.2450540713e+00 3.8885477172e+00 
55600 5.0930652063e+00 -5.0263894141e-03 2.2451670270e+00 -3.8887433622e+00 2.2451670270e+00 3.8887433622e+00 
55700 5.0930619124e+00 -4.9813644988e-03 2.2452789659e+00 -3.8889372461e+00 2.2452789659e+00 3.8889372461e+00 
55800 5.0930586819e+00 -4.9367123151e-03 2.2453898965e+00 -3.8891293836e+00 2.2453898965e+00 3.8891293836e+00 
55900 5.0930555136e+00 -4.8924301420e-03 2.2454998274e+00 -3.8893197894e+00 2.2454998274e+00 3.8893197894e+00 
56000 5.0930524064e+00 -4.8485152751e-03 2.2456087668e+00 -3.8895084781e+00 2.2456087668e+00 3.8895084781e+00 
56100 5.0930493590e+00 -4.8049650272e-03 2.2457167232e+00 -3.8896954639e+00 2.2457167232e+00 3.8896954639e+00 
56200 5.0930463705e+00 -4.7617767279e-03 2.2458237047e+00 -3.8898807614e+00 2.2458237047e+00 3.8898807614e+00 
56300 5.0930434398e+00 -4.7189477234e-03 2.2459297196e+00 -3.8900643845e+00 2.2459297196e+00 3.8900643845e+00 
56400 5.0930405657e+00 -4.6764753764e-03 2.2460347759e+00 -3.8902463475e+00 2.2460347759e+00 3.8902463475e+00 
56500 5.0930377471e+00 -4.6343570662e-03 2.2461388819e+00 -3.8904266643e+00 2.2461388819e+00 3.8904266643e+00 
56600 5.0930349832e+00 -4.5925901885e-03 2.2462420454e+00 -3.8906053487e+00 2.2462420454e+00 3.8906053487e+00 
56700 5.0930322728e+00 -4.5511721550e-03 2.2463442745e+00 -3.8907824147e+00 2.2463442745e+00 3.8907824147e+00 
56800 5.0930296150e+00 -4.5101003938e-03 2.2464455770e+00 -3.8909578758e+00 2.2464455770e+00 3.8909578758e+00 
56900 5.0930270087e+00 -4.4693723488e-03 2.2465459608e+00 -3.8911317456e+00 2.2465459608e+00 3.8911317456e+00 
57000 5.0930244531e+00 -4.4289854800e-03 2.2466454336e+00 -3.8913040376e+00 2.2466454336e+00 3.8913040376e+00 
57100 5.0930219471e+00 -4.3889372630e-03 2.2467440032e+00 -3.8914747651e+00 2.2467440032e+00 3.8914747651e+00 
57200 5.0930194899e+00 -4.3492251894e-03 2.2468416772e+00 -3.8916439414e+00 2.2468416772e+00 3.8916439414e+00 
57300 5.0930170805e+00 -4.3098467663e-03 2.2469384632e+00 -3.8918115797e+00 2.2469384632e+00 3.8918115797e+00 
57400 5.0930147180e+00 -4.2707995162e-03 2.2470343687e+00 -3.8919776930e+00 2.2470343687e+00 3.8919776930e+00 
57500 5.0930124015e+00 -4.2320809771e-03 2.2471294013e+00 -3.8921422942e+00 2.2471294013e+00 3.8921422942e+00 
57600 5.0930101303e+00 -4.1936887024e-03 2.2472235683e+00 -3.8923053963e+00 2.2472235683e+00 3.8923053963e+00 
57700 5.0930079034e+00 -4.1556202605e-03 2.2473168772e+00 -3.8924670120e+00 2.2473168772e+00 3.8924670120e+00 
57800 5.0930057199e+00 -4.1178732353e-03 2.2474093352e+00 -3.8926271540e+00 2.2474093352e+00 3.8926271540e+00 
57900 5.0930035792e+00 -4.0804452253e-03 2.2475009496e+00 -3.8927858348e+00 2.2475009496e+00 3.8927858348e+00 
58000 5.0930014803e+00 -4.0433338442e-03 2.2475917276e+00 -3.8929430669e+00 2.2475917276e+00 3.8929430669e+00 
58100 5.0929994225e+00 -4.0065367205e-03 2.2476816764e+00 -3.8930988627e+00 2.2476816764e+00 3.8930988627e+00 
58200 5.0929974050e+00 -3.9700514975e-03 2.2477708029e+00 -3.8932532344e+00 2.2477708029e+00 3.8932532344e+00 
58300 5.0929954271e+00 -3.9338758332e-03 2.2478591144e+00 -3.8934061943e+00 2.2478591144e+00 3.8934061943e+00 
58400 5.0929934879e+00 -3.8980073999e-03 2.2479466177e+00 -3.8935577545e+00 2.2479466177e+00 3.8935577545e+00 
58500 5.0929915868e+00 -3.8624438848e-03 2.2480333197e+00 -3.8937079269e+00 2.2480333197e+00 3.8937079269e+00 
58600 5.0929897231e+00 -3.8271829893e-03 2.2481192274e+00 -3.8938567234e+00 2.2481192274e+00 3.8938567234e+00 
58700 5.0929878960e+00 -3.7922224292e-03 2.2482043476e+00 -3.8940041559e+00 2.2482043476e+00 3.8940041559e+00 
58800 5.0929861048e+00 -3.7575599343e-03 2.2482886871e+00 -3.8941502361e+00 2.2482886871e+00 3.8941502361e+00 
58900 5.0929843489e+00 -3.7231932490e-03 2.2483722525e+00 -3.8942949757e+00 2.2483722525e+00 3.8942949757e+00 
59000 5.0929826275e+00 -3.6891201314e-03 2.2484550505e+00 -3.8944383861e+00 2.2484550505e+00 3.8944383861e+00 
59100 5.0929809401e+00 -3.6553383539e-03 2.2485370878e+00 -3.8945804788e+00 2.2485370878e+00 3.8945804788e+00 
59200 5.0929792860e+00 -3.6218457026e-03 2.2486183709e+00 -3.8947212652e+00 2.2486183709e+00 3.8947212652e+00 
59300 5.0929776645e+00 -3.5886399775e-03 2.2486989063e+00 -3.8948607566e+00 2.2486989063e+00 3.8948607566e+00 
59400 5.0929760750e+00 -3.5557189924e-03 2.2487787004e+00 -3.8949989642e+00 2.2487787004e+00 3.8949989642e+00 
59500 5.0929745169e+00 -3.5230805749e-03 2.2488577598e+00 -3.8951358990e+00 2.2488577598e+00 3.8951358990e+00 
59600 5.0929729897e+00 -3.4907225661e-03 2.2489360907e+00 -3.8952715721e+00 2.2489360907e+00 3.8952715721e+00 
59700 5.0929714926e+00 -3.4586428205e-03 2.2490136995e+00 -3.8954059944e+00 2.2490136995e+00 3.8954059944e+00 
59800 5.0929700252e+00 -3.4268392065e-03 2.2490905923e+00 -3.8955391767e+00 2.2490905923e+00 3.8955391767e+00 
59900 5.0929685869e+00 -3.3953096054e-03 2.2491667755e+00 -3.8956711299e+00 2.2491667755e+00 3.8956711299e+00 
60000 5.0929671771e+00 -3.3640519123e-03 2.2492422552e+00 -3.8958018646e+00 2.2492422552e+00 3.8958018646e+00 
60100 5.0929657952e+00 -3.3330640352e-03 2.2493170375e+00 -3.8959313914e+00 2.2493170375e+00 3.8959313914e+00 
60200 5.0929644408e+00 -3.3023438954e-03 2.2493911285e+00 -3.8960597207e+00 2.2493911285e+00 3.8960597207e+00 
60300 5.0929631133e+00 -3.2718894275e-03 2.2494645342e+00 -3.8961868631e+00 2.2494645342e+00 3.8961868631e+00 
60400 5.0929618121e+00 -3.2416985789e-03 2.2495372606e+00 -3.8963128288e+00 2.2495372606e+00 3.8963128288e+00 
60500 5.0929605369e+00 -3.2117693101e-03 2.2496093135e+00 -3.8964376282e+00 2.2496093135e+00 3.8964376282e+00 
60600 5.0929592870e+00 -3.1820995947e-03 2.2496806989e+00 -3.8965612714e+00 2.2496806989e+00 3.8965612714e+00 
60700 5.0929580620e+00 -3.1526874188e-03 2.2497514227e+00 -3.8966837685e+00 2.2497514227e+00 3.8966837685e+00 
60800 5.0929568614e+00 -3.1235307815e-03 2.2498214905e+00 -3.8968051295e+00 2.2498214905e+00 3.8968051295e+00 
60900 5.0929556847e+00 -3.0946276946e-03 2.2498909082e+00 -3.8969253644e+00 2.2498909082e+00 3.8969253644e+00 
61000 5.0929545315e+00 -3.0659761827e-03 2.2499596813e+00 -3.8970444831e+00 2.2499596813e+00 3.8970444831e+00 
61100 5.0929534014e+00 -3.0375742829e-03 2.2500278157e+00 -3.8971624953e+00 2.2500278157e+00 3.8971624953e+00 
61200 5.0929522938e+00 -3.0094200446e-03 2.2500953169e+00 -3.8972794107e+00 2.2500953169e+00 3.8972794107e+00 
61300 5.0929512083e+00 -2.9815115301e-03 2.2501621904e+00 -3.8973952390e+00 2.2501621904e+00 3.8973952390e+00 
61400 5.0929501446e+00 -2.9538468139e-03 2.2502284417e+00 -3.8975099897e+00 2.2502284417e+00 3.8975099897e+00 
61500 5.0929491021e+00 -2.9264239828e-03 2.2502940764e+00 -3.8976236723e+00 2.2502940764e+00 3.8976236723e+00 
61600 5.0929480805e+00 -2.8992411361e-03 2.2503590999e+00 -3.8977362963e+00 2.2503590999e+00 3.8977362963e+00 
61700 5.0929470793e+00 -2.8722963852e-03 2.2504235175e+00 -3.8978478708e+00 2.2504235175e+00 3.8978478708e+00 
61800 5.0929460983e+00 -2.8455878538e-03 2.2504873346e+00 -3.8979584053e+00 2.2504873346e+00 3.8979584053e+00 
61900 5.0929451369e+00 -2.8191136774e-03 2.2505505565e+00 -3.8980679088e+00 2.2505505565e+00 3.8980679088e+00 
62000 5.0929441948e+00 -2.7928720041e-03 2.2506131884e+00 -3.8981763905e+00 2.2506131884e+00 3.8981763905e+00 
62100 5.0929432716e+00 -2.7668609936e-03 2.2506752356e+00 -3.8982838594e+00 2.2506752356e+00 3.8982838594e+00 
62200 5.0929423669e+00 -2.7410788177e-03 2.2507367032e+00 -3.8983903245e+00 2.2507367032e+00 3.8983903245e+00 
62300 5.0929414805e+00 -2.7155236600e-03 2.2507975964e+00 -3.8984957946e+00 2.2507975964e+00 3.8984957946e+00 
62400 5.0929406119e+00 -2.6901937162e-03 2.2508579203e+00 -3.8986002786e+00 2.2508579203e+00 3.8986002786e+00 
62500 5.0929397607e+00 -2.6650871935e-03 2.2509176799e+00 -3.8987037852e+00 2.2509176799e+00 3.8987037852e+00 
62600 5.0929389267e+00 -2.6402023110e-03 2.2509768801e+00 -3.8988063231e+00 2.2509768801e+00 3.8988063231e+00 
62700 5.0929381095e+00 -2.6155372995e-03 2.2510355261e+00 -3.8989079008e+00 2.2510355261e+00 3.8989079008e+00 
62800 5.0929373088e+00 -2.5910904012e-03 2.2510936226e+00 -3.8990085270e+00 2.2510936226e+00 3.8990085270e+00 
62900 5.0929365242e+00 -2.5668598702e-03 2.2511511747e+00 -3.8991082101e+00 2.2511511747e+00 3.8991082101e+00 
63000 5.0929357555e+00 -2.5428439719e-03 2.2512081871e+00 -3.8992069585e+00 2.2512081871e+00 3.8992069585e+00 
63100 5.0929350023e+00 -2.5190409832e-03 2.2512646647e+00 -3.8993047805e+00 2.2512646647e+00 3.8993047805e+00 
63200 5.0929342643e+00 -2.4954491925e-03 2.2513206121e+00 -3.8994016843e+00 2.2513206121e+00 3.8994016843e+00 
63300 5.0929335412e+00 -2.4720668996e-03 2.2513760343e+00 -3.8994976783e+00 2.2513760343e+00 3.8994976783e+00 
63400 5.0929328328e+00 -2.4488924153e-03 2.2514309357e+00 -3.8995927704e+00 2.2514309357e+00 3.8995927704e+00 
63500 5.0929321386e+00 -2.4259240620e-03 2.2514853212e+00 -3.8996869688e+00 2.2514853212e+00 3.8996869688e+00 
63600 5.0929314586e+00 -2.4031601732e-03 2.2515391953e+00 -3.8997802814e+00 2.2515391953e+00 3.8997802814e+00 
63700 5.0929307923e+00 -2.3805990936e-03 2.2515925625e+00 -3.8998727162e+00 2.2515925625e+00 3.8998727162e+00 
63800 5.0929301395e+00 -2.3582391788e-03 2.2516454275e+00 -3.8999642811e+00 2.2516454275e+00 3.8999642811e+00 
63900 5.0929295000e+00 -2.3360787958e-03 2.2516977947e+00 -3.9000549838e+00 2.2516977947e+00 3.9000549838e+00 
64000 5.0929288734e+00 -2.3141163222e-03 2.2517496687e+00 -3.9001448320e+00 2.2517496687e+00 3.9001448320e+00 
64100 5.0929282596e+00 -2.2923501470e-03 2.2518010537e+00 -3.9002338336e+00 2.2518010537e+00 3.9002338336e+00 
64200 5.0929276583e+00 -2.2707786698e-03 2.2518519543e+00 -3.9003219959e+00 2.2518519543e+00 3.9003219959e+00 
64300 5.0929270691e+00 -2.2494003011e-03 2.2519023747e+00 -3.9004093267e+00 2.2519023747e+00 3.9004093267e+00 
64400 5.0929264920e+00 -2.2282134623e-03 2.2519523193e+00 -3.9004958333e+00 2.2519523193e+00 3.9004958333e+00 
64500 5.0929259265e+00 -2.2072165855e-03 2.2520017924e+00 -3.9005815232e+00 2.2520017924e+00 3.9005815232e+00 
64600 5.0929253726e+00 -2.1864081135e-03 2.2520507983e+00 -3.9006664038e+00 2.2520507983e+00 3.9006664038e+00 
64700 5.0929248300e+00 -2.1657864998e-03 2.2520993411e+00 -3.9007504824e+00 2.2520993411e+00 3.9007504824e+00 
64800 5.0929242985e+00 -2.1453502084e-03 2.2521474249e+00 -3.9008337661e+00 2.2521474249e+00 3.9008337661e+00 
64900 5.0929237777e+00 -2.1250977140e-03 2.2521950541e+00 -3.9009162623e+00 2.2521950541e+00 3.9009162623e+00 
65000 5.0929232677e+00 -2.1050275018e-03 2.2522422326e+00 -3.9009979779e+00 2.2522422326e+00 3.9009979779e+00 
65100 5.0929227680e+00 -2.0851380674e-03 2.2522889646e+00 -3.9010789200e+00 2.2522889646e+00 3.9010789200e+00 
65200 5.0929222785e+00 -2.0654279169e-03 2.2523352541e+00 -3.9011590958e+00 2.2523352541e+00 3.9011590958e+00 
65300 5.0929217990e+00 -2.0458955666e-03 2.2523811051e+00 -3.9012385120e+00 2.2523811051e+00 3.9012385120e+00 
65400 5.0929213293e+00 -2.0265395433e-03 2.2524265215e+00 -3.9013171755e+00 2.2524265215e+00 3.9013171755e+00 
65500 5.0929208693e+00 -2.0073583840e-03 2.2524715073e+00 -3.9013950933e+00 2.2524715073e+00 3.9013950933e+00 
65600 5.0929204186e+00 -1.9883506359e-03 2.2525160665e+00 -3.9014722720e+00 2.2525160665e+00 3.9014722720e+00 
65700 5.0929199772e+00 -1.9695148565e-03 2.2525602029e+00 -3.9015487185e+00 2.2525602029e+00 3.9015487185e+00 
65800 5.0929195448e+00 -1.9508496132e-03 2.2526039203e+00 -3.9016244392e+00 2.2526039203e+00 3.9016244392e+00 
65900 5.0929191213e+00 -1.9323534838e-03 2.2526472225e+00 -3.9016994409e+00 2.2526472225e+00 3.9016994409e+00 
66000 5.0929187064e+00 -1.9140250558e-03 2.2526901134e+00 -3.9017737300e+00 2.2526901134e+00 3.9017737300e+00 
66100 5.0929183001e+00 -1.8958629269e-03 2.2527325966e+00 -3.9018473132e+00 2.2527325966e+00 3.9018473132e+00 
66200 5.0929179021e+00 -1.8778657048e-03 2.2527746759e+00 -3.9019201967e+00 2.2527746759e+00 3.9019201967e+00 
66300 5.0929175123e+00 -1.8600320067e-03 2.2528163550e+00 -3.9019923869e+00 2.2528163550e+00 3.9019923869e+00 
66400 5.0929171305e+00 -1.8423604602e-03 2.2528576375e+00 -3.9020638903e+00 2.2528576375e+00 3.9020638903e+00 
66500 5.0929167566e+00 -1.8248497022e-03 2.2528985270e+00 -3.9021347131e+00 2.2528985270e+00 3.9021347131e+00 
66600 5.0929163903e+00 -1.8074983797e-03 2.2529390272e+00 -3.9022048614e+00 2.2529390272e+00 3.9022048614e+00 
66700 5.0929160316e+00 -1.7903051493e-03 2.2529791415e+00 -3.9022743415e+00 2.2529791415e+00 3.9022743415e+00 
66800 5.0929156802e+00 -1.7732686770e-03 2.2530188736e+00 -3.9023431595e+00 2.2530188736e+00 3.9023431595e+00 
66900 5.0929153361e+00 -1.7563876389e-03 2.2530582269e+00 -3.9024113214e+00 2.2530582269e+00 3.9024113214e+00 
67000 5.0929149991e+00 -1.7396607203e-03 2.2530972048e+00 -3.9024788332e+00 2.2530972048e+00 3.9024788332e+00 
67100 5.0929146690e+00 -1.7230866161e-03 2.2531358109e+00 -3.9025457009e+00 2.2531358109e+00 3.9025457009e+00 
67200 5.0929143458e+00 -1.7066640307e-03 2.2531740486e+00 -3.9026119304e+00 2.2531740486e+00 3.9026119304e+00 
67300 5.0929140292e+00 -1.6903916778e-03 2.2532119211e+00 -3.9026775276e+00 2.2532119211e+00 3.9026775276e+00 
67400 5.0929137192e+00 -1.6742682808e-03 2.2532494319e+00 -3.9027424982e+00 2.2532494319e+00 3.9027424982e+00 
67500 5.0929134155e+00 -1.6582925719e-03 2.2532865843e+00 -3.9028068481e+00 2.2532865843e+00 3.9028068481e+00 
67600 5.0929131182e+00 -1.6424632932e-03 2.2533233816e+00 -3.9028705829e+00 2.2533233816e+00 3.9028705829e+00 
67700 5.0929128269e+00 -1.6267791955e-03 2.2533598271e+00 -3.9029337083e+00 2.2533598271e+00 3.9029337083e+00 
67800 5.0929125417e+00 -1.6112390391e-03 2.2533959239e+00 -3.9029962298e+00 2.2533959239e+00 3.9029962298e+00 
67900 5.0929122625e+00 -1.5958415933e-03 2.2534316754e+00 -3.9030581531e+00 2.2534316754e+00 3.9030581531e+00 
68000 5.0929119890e+00 -1.5805856366e-03 2.2534670846e+00 -3.9031194837e+00 2.2534670846e+00 3.9031194837e+00 
68100 5.0929117211e+00 -1.5654699565e-03 2.2535021548e+00 -3.9031802271e+00 2.2535021548e+00 3.9031802271e+00 
68200 5.0929114588e+00 -1.5504933494e-03 2.2535368890e+00 -3.9032403885e+00 2.2535368890e+00 3.9032403885e+00 
68300 5.0929112020e+00 -1.5356546207e-03 2.2535712905e+00 -3.9032999735e+00 2.2535712905e+00 3.9032999735e+00 
68400 5.0929109505e+00 -1.5209525849e-03 2.2536053621e+00 -3.9033589874e+00 2.2536053621e+00 3.9033589874e+00 
68500 5.0929107042e+00 -1.5063860652e-03 2.2536391071e+00 -3.9034174354e+00 2.2536391071e+00 3.9034174354e+00 
68600 5.0929104630e+00 -1.4919538935e-03 2.2536725284e+00 -3.9034753227e+00 2.2536725284e+00 3.9034753227e+00 
68700 5.0929102268e+00 -1.4776549107e-03 2.2537056289e+00 -3.9035326546e+00 2.2537056289e+00 3.9035326546e+00 
68800 5.0929099955e+00 -1.4634879662e-03 2.2537384118e+00 -3.9035894362e+00 2.2537384118e+00 3.9035894362e+00 
68900 5.0929097691e+00 -1.4494519183e-03 2.2537708799e+00 -3.9036456726e+00 2.2537708799e+00 3.9036456726e+00 
69000 5.0929095473e+00 -1.4355456337e-03 2.2538030361e+00 -3.9037013688e+00 2.2538030361e+00 3.9037013688e+00 
69100 5.0929093302e+00 -1.4217679879e-03 2.2538348834e+00 -3.9037565299e+00 2.2538348834e+00 3.9037565299e+00 
69200 5.0929091176e+00 -1.4081178648e-03 2.2538664245e+00 -3.9038111608e+00 2.2538664245e+00 3.9038111608e+00 
69300 5.0929089094e+00 -1.3945941568e-03 2.2538976624e+00 -3.9038652664e+00 2.2538976624e+00 3.9038652664e+00 
69400 5.0929087056e+00 -1.3811957647e-03 2.2539285999e+00 -3.9039188516e+00 2.2539285999e+00 3.9039188516e+00 
69500 5.0929085060e+00 -1.3679215979e-03 2.2539592397e+00 -3.9039719214e+00 2.2539592397e+00 3.9039719214e+00 
69600 5.0929083106e+00 -1.3547705739e-03 2.2539895846e+00 -3.9040244803e+00 2.2539895846e+00 3.9040244803e+00 
69700 5.0929081192e+00 -1.3417416186e-03 2.2540196374e+00 -3.9040765333e+00 2.2540196374e+00 3.9040765333e+00 
69800 5.0929079319e+00 -1.3288336663e-03 2.2540494008e+00 -3.9041280850e+00 2.2540494008e+00 3.9041280850e+00 
69900 5.0929077485e+00 -1.3160456592e-03 2.2540788774e+00 -3.9041791400e+00 2.2540788774e+00 3.9041791400e+00 
70000 5.0929075689e+00 -1.3033765479e-03 2.2541080701e+00 -3.9042297031e+00 2.2541080701e+00 3.9042297031e+00 
70100 5.0929073930e+00 -1.2908252912e-03 2.2541369812e+00 -3.9042797787e+00 2.2541369812e+00 3.9042797787e+00 
70200 5.0929072209e+00 -1.2783908556e-03 2.2541656137e+00 -3.9043293716e+00 2.2541656137e+00 3.9043293716e+00 
70300 5.0929070523e+00 -1.2660722160e-03 2.2541939699e+00 -3.9043784860e+00 2.2541939699e+00 3.9043784860e+00 
70400 5.0929068873e+00 -1.2538683550e-03 2.2542220526e+00 -3.9044271266e+00 2.2542220526e+00 3.9044271266e+00 
70500 5.0929067257e+00 -1.2417782635e-03 2.2542498642e+00 -3.9044752977e+00 2.2542498642e+00 3.9044752977e+00 
70600 5.0929065675e+00 -1.2298009399e-03 2.2542774073e+00 -3.9045230038e+00 2.2542774073e+00 3.9045230038e+00 
70700 5.0929064126e+00 -1.2179353906e-03 2.2543046844e+00 -3.9045702491e+00 2.2543046844e+00 3.9045702491e+00 
70800 5.0929062610e+00 -1.2061806299e-03 2.2543316980e+00 -3.9046170380e+00 2.2543316980e+00 3.9046170380e+00 
70900 5.0929061126e+00 -1.1945356797e-03 2.2543584506e+00 -3.9046633748e+00 2.2543584506e+00 3.9046633748e+00 
71000 5.0929059673e+00 -1.1829995696e-03 2.2543849445e+00 -3.9047092637e+00 2.2543849445e+00 3.9047092637e+00 
71100 5.0929058250e+00 -1.1715713369e-03 2.2544111823e+00 -3.9047547089e+00 2.2544111823e+00 3.9047547089e+00 
71200 5.0929056857e+00 -1.1602500266e-03 2.2544371664e+00 -3.9047997146e+00 2.2544371664e+00 3.9047997146e+00 
71300 5.0929055494e+00 -1.1490346912e-03 2.2544628990e+00 -3.9048442848e+00 2.2544628990e+00 3.9048442848e+00 
71400 5.0929054159e+00 -1.1379243907e-03 2.2544883826e+00 -3.9048884237e+00 2.2544883826e+00 3.9048884237e+00 
71500 5.0929052852e+00 -1.1269181926e-03 2.2545136195e+00 -3.9049321353e+00 2.2545136195e+00 3.9049321353e+00 
71600 5.0929051573e+00 -1.1160151718e-03 2.2545386120e+00 -3.9049754237e+00 2.2545386120e+00 3.9049754237e+00 
71700 5.0929050321e+00 -1.1052144106e-03 2.2545633625e+00 -3.9050182927e+00 2.2545633625e+00 3.9050182927e+00 
71800 5.0929049095e+00 -1.0945149988e-03 2.2545878732e+00 -3.9050607464e+00 2.2545878732e+00 3.9050607464e+00 
71900 5.0929047895e+00 -1.0839160331e-03 2.2546121463e+00 -3.9051027887e+00 2.2546121463e+00 3.9051027887e+00 
72000 5.0929046720e+00 -1.0734166179e-03 2.2546361840e+00 -3.9051444234e+00 2.2546361840e+00 3.9051444234e+00 
72100 5.0929045570e+00 -1.0630158645e-03 2.2546599887e+00 -3.9051856543e+00 2.2546599887e+00 3.9051856543e+00 
72200 5.0929044445e+00 -1.0527128915e-03 2.2546835625e+00 -3.9052264853e+00 2.2546835625e+00 3.9052264853e+00 
72300 5.0929043343e+00 -1.0425068247e-03 2.2547069076e+00 -3.9052669201e+00 2.2547069076e+00 3.9052669201e+00 
72400 5.0929042264e+00 -1.0323967966e-03 2.2547300261e+00 -3.9053069625e+00 2.2547300261e+00 3.9053069625e+00 
72500 5.0929041208e+00 -1.0223819473e-03 2.2547529202e+00 -3.9053466162e+00 2.2547529202e+00 3.9053466162e+00 
72600 5.0929040175e+00 -1.0124614233e-03 2.2547755919e+00 -3.9053858848e+00 2.2547755919e+00 3.9053858848e+00 
72700 5.0929039163e+00 -1.0026343784e-03 2.2547980434e+00 -3.9054247720e+00 2.2547980434e+00 3.9054247720e+00 
72800 5.0929038173e+00 -9.9289997323e-04 2.2548202768e+00 -3.9054632814e+00 2.2548202768e+00 3.9054632814e+00 
72900 5.0929037204e+00 -9.8325737520e-04 2.2548422941e+00 -3.9055014165e+00 2.2548422941e+00 3.9055014165e+00 
73000 5.0929036255e+00 -9.7370575857e-04 2.2548640974e+00 -3.9055391809e+00 2.2548640974e+00 3.9055391809e+00 
73100 5.0929035327e+00 -9.6424430434e-04 2.2548856887e+00 -3.9055765780e+00 2.2548856887e+00 3.9055765780e+00 
73200 5.0929034418e+00 -9.5487220026e-04 2.2549070699e+00 -3.9056136115e+00 2.2549070699e+00 3.9056136115e+00 
73300 5.0929033528e+00 -9.4558864070e-04 2.2549282432e+00 -3.9056502846e+00 2.2549282432e+00 3.9056502846e+00 
73400 5.0929032657e+00 -9.3639282672e-04 2.2549492104e+00 -3.9056866008e+00 2.2549492104e+00 3.9056866008e+00 
73500 5.0929031805e+00 -9.2728396592e-04 2.2549699734e+00 -3.9057225635e+00 2.2549699734e+00 3.9057225635e+00 
73600 5.0929030971e+00 -9.1826127245e-04 2.2549905344e+00 -3.9057581761e+00 2.2549905344e+00 3.9057581761e+00 
73700 5.0929030155e+00 -9.0932396698e-04 2.2550108950e+00 -3.9057934418e+00 2.2550108950e+00 3.9057934418e+00 
73800 5.0929029356e+00 -9.0047127662e-04 2.2550310574e+00 -3.9058283640e+00 2.2550310574e+00 3.9058283640e+00 
73900 5.0929028574e+00 -8.9170243488e-04 2.2550510232e+00 -3.9058629459e+00 2.2550510232e+00 3.9058629459e+00 
74000 5.0929027808e+00 -8.8301668166e-04 2.2550707945e+00 -3.9058971907e+00 2.2550707945e+00 3.9058971907e+00 
74100 5.0929027059e+00 -8.7441326317e-04 2.2550903730e+00 -3.9059311017e+00 2.2550903730e+00 3.9059311017e+00 
74200 5.0929026326e+00 -8.6589143192e-04 2.2551097606e+00 -3.9059646819e+00 2.2551097606e+00 3.9059646819e+00 
74300 5.0929025609e+00 -8.5745044665e-04 2.2551289590e+00 -3.9059979346e+00 2.2551289590e+00 3.9059979346e+00 
74400 5.0929024906e+00 -8.4908957229e-04 2.2551479702e+00 -3.9060308629e+00 2.2551479702e+00 3.9060308629e+00 
74500 5.0929024219e+00 -8.4080807994e-04 2.2551667958e+00 -3.9060634698e+00 2.2551667958e+00 3.9060634698e+00 
74600 5.0929023547e+00 -8.3260524680e-04 2.2551854376e+00 -3.9060957584e+00 2.2551854376e+00 3.9060957584e+00 
74700 5.0929022888e+00 -8.2448035615e-04 2.2552038974e+00 -3.9061277318e+00 2.2552038974e+00 3.9061277318e+00 
74800 5.0929022244e+00 -8.1643269730e-04 2.2552221770e+00 -3.9061593929e+00 2.2552221770e+00 3.9061593929e+00 
74900 5.0929021614e+00 -8.0846156554e-04 2.2552402779e+00 -3.9061907446e+00 2.2552402779e+00 3.9061907446e+00 
75000 5.0929020997e+00 -8.0056626210e-04 2.2552582020e+00 -3.9062217901e+00 2.2552582020e+00 3.9062217901e+00 
75100 5.0929020393e+00 -7.9274609412e-04 2.2552759509e+00 -3.9062525321e+00 2.2552759509e+00 3.9062525321e+00 
75200 5.0929019803e+00 -7.8500037462e-04 2.2552935263e+00 -3.9062829735e+00 2.2552935263e+00 3.9062829735e+00 
75300 5.0929019224e+00 -7.7732842241e-04 2.2553109298e+00 -3.9063131173e+00 2.2553109298e+00 3.9063131173e+00 
75400 5.0929018659e+00 -7.6972956210e-04 2.2553281631e+00 -3.9063429663e+00 2.2553281631e+00 3.9063429663e+00 
75500 5.0929018105e+00 -7.6220312402e-04 2.2553452279e+00 -3.9063725233e+00 2.2553452279e+00 3.9063725233e+00 
75600 5.0929017563e+00 -7.5474844422e-04 2.2553621256e+00 -3.9064017910e+00 2.2553621256e+00 3.9064017910e+00 
75700 5.0929017033e+00 -7.4736486438e-04 2.2553788579e+00 -3.9064307722e+00 2.2553788579e+00 3.9064307722e+00 
75800 5.0929016514e+00 -7.4005173184e-04 2.2553954264e+00 -3.9064594698e+00 2.2553954264e+00 3.9064594698e+00 
75900 5.0929016007e+00 -7.3280839946e-04 2.2554118327e+00 -3.9064878862e+00 2.2554118327e+00 3.9064878862e+00 
76000 5.0929015510e+00 -7.2563422567e-04 2.2554280783e+00 -3.9065160244e+00 2.2554280783e+00 3.9065160244e+00 
76100 5.0929015024e+00 -7.1852857440e-04 2.2554441647e+00 -3.9065438869e+00 2.2554441647e+00 3.9065438869e+00 
76200 5.0929014548e+00 -7.1149081502e-04 2.2554600935e+00 -3.9065714764e+00 2.2554600935e+00 3.9065714764e+00 
76300 5.0929014083e+00 -7.0452032231e-04 2.2554758661e+00 -3.9065987954e+00 2.2554758661e+00 3.9065987954e+00 
76400 5.0929013628e+00 -6.9761647645e-04 2.2554914841e+00 -3.9066258466e+00 2.2554914841e+00 3.9066258466e+00 
76500 5.0929013182e+00 -6.9077866294e-04 2.2555069490e+00 -3.9066526325e+00 2.2555069490e+00 3.9066526325e+00 
76600 5.0929012746e+00 -6.8400627257e-04 2.2555222622e+00 -3.9066791557e+00 2.2555222622e+00 3.9066791557e+00 
76700 5.0929012319e+00 -6.7729870141e-04 2.2555374251e+00 -3.9067054187e+00 2.2555374251e+00 3.9067054187e+00 
76800 5.0929011902e+00 -6.7065535074e-04 2.2555524393e+00 -3.9067314240e+00 2.2555524393e+00 3.9067314240e+00 
76900 5.0929011494e+00 -6.6407562701e-04 2.2555673061e+00 -3.9067571740e+00 2.2555673061e+00 3.9067571740e+00 
77000 5.0929011094e+00 -6.5755894183e-04 2.2555820269e+00 -3.9067826712e+00 2.2555820269e+00 3.9067826712e+00 
77100 5.0929010703e+00 -6.5110471190e-04 2.2555966032e+00 -3.9068079180e+00 2.2555966032e+00 3.9068079180e+00 
77200 5.0929010321e+00 -6.4471235899e-04 2.2556110363e+00 -3.9068329169e+00 2.2556110363e+00 3.9068329169e+00 
77300 5.0929009946e+00 -6.3838130991e-04 2.2556253276e+00 -3.9068576702e+00 2.2556253276e+00 3.9068576702e+00 
77400 5.0929009580e+00 -6.3211099643e-04 2.2556394785e+00 -3.9068821803e+00 2.2556394785e+00 3.9068821803e+00 
77500 5.0929009222e+00 -6.2590085531e-04 2.2556534903e+00 -3.9069064494e+00 2.2556534903e+00 3.9069064494e+00 
77600 5.0929008872e+00 -6.1975032819e-04 2.2556673643e+00 -3.9069304800e+00 2.2556673643e+00 3.9069304800e+00 
77700 5.0929008529e+00 -6.1365886161e-04 2.2556811020e+00 -3.9069542743e+00 2.2556811020e+00 3.9069542743e+00 
77800 5.0929008193e+00 -6.0762590693e-04 2.2556947045e+00 -3.9069778346e+00 2.2556947045e+00 3.9069778346e+00 
77900 5.0929007865e+00 -6.0165092034e-04 2.2557081732e+00 -3.9070011631e+00 2.2557081732e+00 3.9070011631e+00 
78000 5.0929007544e+00 -5.9573336276e-04 2.2557215094e+00 -3.9070242621e+00 2.2557215094e+00 3.9070242621e+00 
78100 5.0929007230e+00 -5.8987269988e-04 2.2557347144e+00 -3.9070471337e+00 2.2557347144e+00 3.9070471337e+00 
78200 5.0929006923e+00 -5.8406840206e-04 2.2557477894e+00 -3.9070697802e+00 2.2557477894e+00 3.9070697802e+00 
78300 5.0929006622e+00 -5.7831994431e-04 2.2557607356e+00 -3.9070922038e+00 2.2557607356e+00 3.9070922038e+00 
78400 5.0929006328e+00 -5.7262680628e-04 2.2557735543e+00 -3.9071144065e+00 2.2557735543e+00 3.9071144065e+00 
78500 5.0929006040e+00 -5.6698847219e-04 2.2557862468e+00 -3.9071363905e+00 2.2557862468e+00 3.9071363905e+00 
78600 5.0929005759e+00 -5.6140443082e-04 2.2557988143e+00 -3.9071581579e+00 2.2557988143e+00 3.9071581579e+00 
78700 5.0929005483e+00 -5.5587417546e-04 2.2558112579e+00 -3.9071797109e+00 2.2558112579e+00 3.9071797109e+00 
78800 5.0929005214e+00 -5.5039720388e-04 2.2558235788e+00 -3.9072010514e+00 2.2558235788e+00 3.9072010514e+00 
78900 5.0929004951e+00 -5.4497301828e-04 2.2558357783e+00 -3.9072221815e+00 2.2558357783e+00 3.9072221815e+00 
79000 5.0929004693e+00 -5.3960112529e-04 2.2558478575e+00 -3.9072431033e+00 2.2558478575e+00 3.9072431033e+00 
79100 5.0929004441e+00 -5.3428103590e-04 2.2558598175e+00 -3.9072638187e+00 2.2558598175e+00 3.9072638187e+00 
79200 5.0929004194e+00 -5.2901226544e-04 2.2558716596e+00 -3.9072843298e+00 2.2558716596e+00 3.9072843298e+00 
79300 5.0929003953e+00 -5.2379433356e-04 2.2558833849e+00 -3.9073046385e+00 2.2558833849e+00 3.9073046385e+00 
79400 5.0929003717e+00 -5.1862676416e-04 2.2558949944e+00 -3.9073247468e+00 2.2558949944e+00 3.9073247468e+00 
79500 5.0929003486e+00 -5.1350908538e-04 2.2559064893e+00 -3.9073446566e+00 2.2559064893e+00 3.9073446566e+00 
79600 5.0929003260e+00 -5.0844082958e-04 2.2559178708e+00 -3.9073643699e+00 2.2559178708e+00 3.9073643699e+00 
79700 5.0929003040e+00 -5.0342153328e-04 2.2559291398e+00 -3.9073838884e+00 2.2559291398e+00 3.9073838884e+00 
79800 5.0929002824e+00 -4.9845073712e-04 2.2559402976e+00 -3.9074032142e+00 2.2559402976e+00 3.9074032142e+00 
79900 5.0929002612e+00 -4.9352798588e-04 2.2559513451e+00 -3.9074223491e+00 2.2559513451e+00 3.9074223491e+00 
80000 5.0929002406e+00 -4.8865282837e-04 2.2559622835e+00 -3.9074412949e+00 2.2559622835e+00 3.9074412949e+00 
80100 5.0929002204e+00 -4.8382481746e-04 2.2559731137e+00 -3.9074600535e+00 2.2559731137e+00 3.9074600535e+00 
80200 5.0929002006e+00 -4.7904351002e-04 2.2559838369e+00 -3.9074786266e+00 2.2559838369e+00 3.9074786266e+00 
80300 5.0929001812e+00 -4.7430846690e-04 2.2559944541e+00 -3.9074970161e+00 2.2559944541e+00 3.9074970161e+00 
80400 5.0929001623e+00 -4.6961925287e-04 2.2560049663e+00 -3.9075152238e+00 2.2560049663e+00 3.9075152238e+00 
80500 5.0929001438e+00 -4.6497543664e-04 2.2560153745e+00 -3.9075332513e+00 2.2560153745e+00 3.9075332513e+00 
80600 5.0929001258e+00 -4.6037659075e-04 2.2560256798e+00 -3.9075511005e+00 2.2560256798e+00 3.9075511005e+00 
80700 5.0929001081e+00 -4.5582229163e-04 2.2560358830e+00 -3.9075687731e+00 2.2560358830e+00 3.9075687731e+00 
80800 5.0929000908e+00 -4.5131211951e-04 2.2560459853e+00 -3.9075862708e+00 2.2560459853e+00 3.9075862708e+00 
80900 5.0929000738e+00 -4.4684565838e-04 2.2560559876e+00 -3.9076035953e+00 2.2560559876e+00 3.9076035953e+00 
81000 5.0929000573e+00 -4.4242249600e-04 2.2560658909e+00 -3.9076207482e+00 2.2560658909e+00 3.9076207482e+00 
81100 5.0929000411e+00 -4.3804222386e-04 2.2560756961e+00 -3.9076377313e+00 2.2560756961e+00 3.9076377313e+00 
81200 5.0929000253e+00 -4.3370443713e-04 2.2560854041e+00 -3.9076545461e+00 2.2560854041e+00 3.9076545461e+00 
81300 5.0929000098e+00 -4.2940873462e-04 2.2560950160e+00 -3.9076711944e+00 2.2560950160e+00 3.9076711944e+00 
81400 5.0928999946e+00 -4.2515471880e-04 2.2561045326e+00 -3.9076876777e+00 2.2561045326e+00 3.9076876777e+00 
81500 5.0928999798e+00 -4.2094199572e-04 2.2561139550e+00 -3.9077039977e+00 2.2561139550e+00 3.9077039977e+00 
81600 5.0928999654e+00 -4.1677017501e-04 2.2561232839e+00 -3.9077201558e+00 2.2561232839e+00 3.9077201558e+00 
81700 5.0928999512e+00 -4.1263886982e-04 2.2561325203e+00 -3.9077361538e+00 2.2561325203e+00 3.9077361538e+00 
81800 5.0928999374e+00 -4.0854769684e-04 2.2561416652e+00 -3.9077519931e+00 2.2561416652e+00 3.9077519931e+00 
81900 5.0928999238e+00 -4.0449627621e-04 2.2561507193e+00 -3.9077676753e+00 2.2561507193e+00 3.9077676753e+00 
82000 5.0928999106e+00 -4.0048423154e-04 2.2561596836e+00 -3.9077832020e+00 2.2561596836e+00 3.9077832020e+00 
82100 5.0928998976e+00 -3.9651118986e-04 2.2561685590e+00 -3.9077985745e+00 2.2561685590e+00 3.9077985745e+00 
82200 5.0928998850e+00 -3.9257678159e-04 2.2561773462e+00 -3.9078137945e+00 2.2561773462e+00 3.9078137945e+00 
82300 5.0928998726e+00 -3.8868064052e-04 2.2561860463e+00 -3.9078288635e+00 2.2561860463e+00 3.9078288635e+00 
82400 5.0928998605e+00 -3.8482240377e-04 2.2561946599e+00 -3.9078437828e+00 2.2561946599e+00 3.9078437828e+00 
82500 5.0928998487e+00 -3.8100171178e-04 2.2562031881e+00 -3.9078585540e+00 2.2562031881e+00 3.9078585540e+00 
82600 5.0928998371e+00 -3.7721820827e-04 2.2562116315e+00 -3.9078731784e+00 2.2562116315e+00 3.9078731784e+00 
82700 5.0928998258e+00 -3.7347154019e-04 2.2562199911e+00 -3.9078876576e+00 2.2562199911e+00 3.9078876576e+00 
82800 5.0928998147e+00 -3.6976135775e-04 2.2562282676e+00 -3.9079019929e+00 2.2562282676e+00 3.9079019929e+00 
82900 5.0928998039e+00 -3.6608731434e-04 2.2562364618e+00 -3.9079161857e+00 2.2562364618e+00 3.9079161857e+00 
83000 5.0928997933e+00 -3.6244906652e-04 2.2562445746e+00 -3.9079302375e+00 2.2562445746e+00 3.9079302375e+00 
83100 5.0928997830e+00 -3.5884627400e-04 2.2562526067e+00 -3.9079441496e+00 2.2562526067e+00 3.9079441496e+00 
83200 5.0928997728e+00 -3.5527859961e-04 2.2562605590e+00 -3.9079579233e+00 2.2562605590e+00 3.9079579233e+00 
83300 5.0928997630e+00 -3.5174570927e-04 2.2562684322e+00 -3.9079715600e+00 2.2562684322e+00 3.9079715600e+00 
83400 5.0928997533e+00 -3.4824727195e-04 2.2562762270e+00 -3.9079850611e+00 2.2562762270e+00 3.9079850611e+00 
83500 5.0928997438e+00 -3.4478295969e-04 2.2562839443e+00 -3.9079984279e+00 2.2562839443e+00 3.9079984279e+00 
83600 5.0928997346e+00 -3.4135244750e-04 2.2562915848e+00 -3.9080116616e+00 2.2562915848e+00 3.9080116616e+00 
83700 5.0928997256e+00 -3.3795541342e-04 2.2562991493e+00 -3.9080247637e+00 2.2562991493e+00 3.9080247637e+00 
83800 5.0928997167e+00 -3.3459153842e-04 2.2563066385e+00 -3.9080377353e+00 2.2563066385e+00 3.9080377353e+00 
83900 5.0928997081e+00 -3.3126050642e-04 2.2563140531e+00 -3.9080505777e+00 2.2563140531e+00 3.9080505777e+00 
84000 5.0928996997e+00 -3.2796200425e-04 2.2563213938e+00 -3.9080632923e+00 2.2563213938e+00 3.9080632923e+00 
84100 5.0928996914e+00 -3.2469572161e-04 2.2563286614e+00 -3.9080758802e+00 2.2563286614e+00 3.9080758802e+00 
84200 5.0928996834e+00 -3.2146135109e-04 2.2563358567e+00 -3.9080883427e+00 2.2563358567e+00 3.9080883427e+00 
84300 5.0928996755e+00 -3.1825858808e-04 2.2563429802e+00 -3.9081006810e+00 2.2563429802e+00 3.9081006810e+00 
84400 5.0928996678e+00 -3.1508713081e-04 2.2563500327e+00 -3.9081128963e+00 2.2563500327e+00 3.9081128963e+00 
84500 5.0928996602e+00 -3.1194668027e-04 2.2563570150e+00 -3.9081249899e+00 2.2563570150e+00 3.9081249899e+00 
84600 5.0928996529e+00 -3.0883694025e-04 2.2563639276e+00 -3.9081369629e+00 2.2563639276e+00 3.9081369629e+00 
84700 5.0928996457e+00 -3.0575761724e-04 2.2563707713e+00 -3.9081488166e+00 2.2563707713e+00 3.9081488166e+00 
84800 5.0928996386e+00 -3.0270842046e-04 2.2563775467e+00 -3.9081605519e+00 2.2563775467e+00 3.9081605519e+00 
84900 5.0928996317e+00 -2.9968906183e-04 2.2563842545e+00 -3.9081721703e+00 2.2563842545e+00 3.9081721703e+00 
85000 5.0928996250e+00 -2.9669925592e-04 2.2563908955e+00 -3.9081836727e+00 2.2563908955e+00 3.9081836727e+00 
85100 5.0928996185e+00 -2.9373871996e-04 2.2563974701e+00 -3.9081950603e+00 2.2563974701e+00 3.9081950603e+00 
85200 5.0928996120e+00 -2.9080717379e-04 2.2564039791e+00 -3.9082063343e+00 2.2564039791e+00 3.9082063343e+00 
85300 5.0928996057e+00 -2.8790433985e-04 2.2564104232e+00 -3.9082174957e+00 2.2564104232e+00 3.9082174957e+00 
85400 5.0928995996e+00 -2.8502994315e-04 2.2564168029e+00 -3.9082285456e+00 2.2564168029e+00 3.9082285456e+00 
85500 5.0928995936e+00 -2.8218371128e-04 2.2564231189e+00 -3.9082394852e+00 2.2564231189e+00 3.9082394852e+00 
85600 5.0928995878e+00 -2.7936537433e-04 2.2564293718e+00 -3.9082503156e+00 2.2564293718e+00 3.9082503156e+00 
85700 5.0928995820e+00 -2.7657466490e-04 2.2564355622e+00 -3.9082610377e+00 2.2564355622e+00 3.9082610377e+00 
85800 5.0928995764e+00 -2.7381131810e-04 2.2564416908e+00 -3.9082716527e+00 2.2564416908e+00 3.9082716527e+00 
85900 5.0928995709e+00 -2.7107507148e-04 2.2564477581e+00 -3.9082821617e+00 2.2564477581e+00 3.9082821617e+00 
86000 5.0928995656e+00 -2.6836566504e-04 2.2564537648e+00 -3.9082925655e+00 2.2564537648e+00 3.9082925655e+00 
86100 5.0928995604e+00 -2.6568284120e-04 2.2564597114e+00 -3.9083028654e+00 2.2564597114e+00 3.9083028654e+00 
86200 5.0928995553e+00 -2.6302634478e-04 2.2564655986e+00 -3.9083130623e+00 2.2564655986e+00 3.9083130623e+00 
86300 5.0928995503e+00 -2.6039592299e-04 2.2564714269e+00 -3.9083231572e+00 2.2564714269e+00 3.9083231572e+00 
86400 5.0928995454e+00 -2.5779132537e-04 2.2564771968e+00 -3.9083331511e+00 2.2564771968e+00 3.9083331511e+00 
86500 5.0928995406e+00 -2.5521230382e-04 2.2564829091e+00 -3.9083430450e+00 2.2564829091e+00 3.9083430450e+00 
86600 5.0928995360e+00 -2.5265861256e-04 2.2564885642e+00 -3.9083528399e+00 2.2564885642e+00 3.9083528399e+00 
86700 5.0928995314e+00 -2.5013000807e-04 2.2564941627e+00 -3.9083625368e+00 2.2564941627e+00 3.9083625368e+00 
86800 5.0928995270e+00 -2.4762624915e-04 2.2564997051e+00 -3.9083721366e+00 2.2564997051e+00 3.9083721366e+00 
86900 5.0928995226e+00 -2.4514709681e-04 2.2565051921e+00 -3.9083816402e+00 2.2565051921e+00 3.9083816402e+00 
87000 5.0928995184e+00 -2.4269231433e-04 2.2565106241e+00 -3.9083910488e+00 2.2565106241e+00 3.9083910488e+00 
87100 5.0928995142e+00 -2.4026166718e-04 2.2565160017e+00 -3.9084003630e+00 2.2565160017e+00 3.9084003630e+00 
87200 5.0928995102e+00 -2.3785492304e-04 2.2565213254e+00 -3.9084095840e+00 2.2565213254e+00 3.9084095840e+00 
87300 5.0928995062e+00 -2.3547185176e-04 2.2565265958e+00 -3.9084187126e+00 2.2565265958e+00 3.9084187126e+00 
87400 5.0928995023e+00 -2.3311222535e-04 2.2565318134e+00 -3.9084277497e+00 2.2565318134e+00 3.9084277497e+00 
87500 5.0928994985e+00 -2.3077581793e-04 2.2565369787e+00 -3.9084366962e+00 2.2565369787e+00 3.9084366962e+00 
87600 5.0928994948e+00 -2.2846240578e-04 2.2565420922e+00 -3.9084455531e+00 2.2565420922e+00 3.9084455531e+00 
87700 5.0928994912e+00 -2.2617176725e-04 2.2565471544e+00 -3.9084543211e+00 2.2565471544e+00 3.9084543211e+00 
87800 5.0928994877e+00 -2.2390368277e-04 2.2565521659e+00 -3.9084630012e+00 2.2565521659e+00 3.9084630012e+00 
87900 5.0928994842e+00 -2.2165793484e-04 2.2565571271e+00 -3.9084715942e+00 2.2565571271e+00 3.9084715942e+00 
88000 5.0928994809e+00 -2.1943430799e-04 2.2565620385e+00 -3.9084801011e+00 2.2565620385e+00 3.9084801011e+00 
88100 5.0928994776e+00 -2.1723258879e-04 2.2565669006e+00 -3.9084885225e+00 2.2565669006e+00 3.9084885225e+00 
88200 5.0928994744e+00 -2.1505256581e-04 2.2565717140e+00 -3.9084968595e+00 2.2565717140e+00 3.9084968595e+00 
88300 5.0928994712e+00 -2.1289402959e-04 2.2565764790e+00 -3.9085051128e+00 2.2565764790e+00 3.9085051128e+00 
88400 5.0928994682e+00 -2.1075677267e-04 2.2565811962e+00 -3.9085132832e+00 2.2565811962e+00 3.9085132832e+00 
88500 5.0928994652e+00 -2.0864058951e-04 2.2565858660e+00 -3.9085213716e+00 2.2565858660e+00 3.9085213716e+00 
88600 5.0928994622e+00 -2.0654527653e-04 2.2565904889e+00 -3.9085293787e+00 2.2565904889e+00 3.9085293787e+00 
88700 5.0928994594e+00 -2.0447063204e-04 2.2565950654e+00 -3.9085373054e+00 2.2565950654e+00 3.9085373054e+00 
88800 5.0928994566e+00 -2.0241645629e-04 2.2565995959e+00 -3.9085451525e+00 2.2565995959e+00 3.9085451525e+00 
88900 5.0928994539e+00 -2.0038255137e-04 2.2566040809e+00 -3.9085529207e+00 2.2566040809e+00 3.9085529207e+00 
89000 5.0928994512e+00 -1.9836872126e-04 2.2566085208e+00 -3.9085606109e+00 2.2566085208e+00 3.9085606109e+00 
89100 5.0928994486e+00 -1.9637477178e-04 2.2566129161e+00 -3.9085682238e+00 2.2566129161e+00 3.9085682238e+00 
89200 5.0928994460e+00 -1.9440051057e-04 2.2566172672e+00 -3.9085757601e+00 2.2566172672e+00 3.9085757601e+00 
89300 5.0928994436e+00 -1.9244574711e-04 2.2566215746e+00 -3.9085832206e+00 2.2566215746e+00 3.9085832206e+00 
89400 5.0928994411e+00 -1.9051029266e-04 2.2566258386e+00 -3.9085906061e+00 2.2566258386e+00 3.9085906061e+00 
89500 5.0928994388e+00 -1.8859396027e-04 2.2566300597e+00 -3.9085979173e+00 2.2566300597e+00 3.9085979173e+00 
89600 5.0928994365e+00 -1.8669656475e-04 2.2566342384e+00 -3.9086051550e+00 2.2566342384e+00 3.9086051550e+00 
89700 5.0928994342e+00 -1.8481792266e-04 2.2566383750e+00 -3.9086123198e+00 2.2566383750e+00 3.9086123198e+00 
89800 5.0928994320e+00 -1.8295785230e-04 2.2566424700e+00 -3.9086194126e+00 2.2566424700e+00 3.9086194126e+00 
89900 5.0928994298e+00 -1.8111617369e-04 2.2566465238e+00 -3.9086264339e+00 2.2566465238e+00 3.9086264339e+00 
90000 5.0928994277e+00 -1.7929270853e-04 2.2566505367e+00 -3.9086333845e+00 2.2566505367e+00 3.9086333845e+00 
90100 5.0928994257e+00 -1.7748728023e-04 2.2566545093e+00 -3.9086402652e+00 2.2566545093e+00 3.9086402652e+00 
90200 5.0928994237e+00 -1.7569971386e-04 2.2566584418e+00 -3.9086470765e+00 2.2566584418e+00 3.9086470765e+00 
90300 5.0928994217e+00 -1.7392983616e-04 2.2566623347e+00 -3.9086538192e+00 2.2566623347e+00 3.9086538192e+00 
90400 5.0928994198e+00 -1.7217747550e-04 2.2566661884e+00 -3.9086604940e+00 2.2566661884e+00 3.9086604940e+00 
90500 5.0928994179e+00 -1.7044246187e-04 2.2566700033e+00 -3.9086671016e+00 2.2566700033e+00 3.9086671016e+00 
90600 5.0928994161e+00 -1.6872462688e-04 2.2566737797e+00 -3.9086736425e+00 2.2566737797e+00 3.9086736425e+00 
90700 5.0928994143e+00 -1.6702380374e-04 2.2566775180e+00 -3.9086801175e+00 2.2566775180e+00 3.9086801175e+00 
90800 5.0928994126e+00 -1.6533982723e-04 2.2566812187e+00 -3.9086865273e+00 2.2566812187e+00 3.9086865273e+00 
90900 5.0928994109e+00 -1.6367253370e-04 2.2566848820e+00 -3.9086928724e+00 2.2566848820e+00 3.9086928724e+00 
91000 5.0928994092e+00 -1.6202176107e-04 2.2566885084e+00 -3.9086991535e+00 2.2566885084e+00 3.9086991535e+00 
91100 5.0928994076e+00 -1.6038734877e-04 2.2566920982e+00 -3.9087053712e+00 2.2566920982e+00 3.9087053712e+00 
91200 5.0928994060e+00 -1.5876913778e-04 2.2566956518e+00 -3.9087115262e+00 2.2566956518e+00 3.9087115262e+00 
91300 5.0928994045e+00 -1.5716697057e-04 2.2566991696e+00 -3.9087176191e+00 2.2566991696e+00 3.9087176191e+00 
91400 5.0928994030e+00 -1.5558069111e-04 2.2567026518e+00 -3.9087236505e+00 2.2567026518e+00 3.9087236505e+00 
91500 5.0928994015e+00 -1.5401014488e-04 2.2567060989e+00 -3.9087296210e+00 2.2567060989e+00 3.9087296210e+00 
91600 5.0928994001e+00 -1.5245517879e-04 2.2567095112e+00 -3.9087355313e+00 2.2567095112e+00 3.9087355313e+00 
91700 5.0928993987e+00 -1.5091564123e-04 2.2567128890e+00 -3.9087413818e+00 2.2567128890e+00 3.9087413818e+00 
91800 5.0928993973e+00 -1.4939138203e-04 2.2567162327e+00 -3.9087471733e+00 2.2567162327e+00 3.9087471733e+00 
91900 5.0928993960e+00 -1.4788225243e-04 2.2567195426e+00 -3.9087529062e+00 2.2567195426e+00 3.9087529062e+00 
92000 5.0928993947e+00 -1.4638810511e-04 2.2567228191e+00 -3.9087585813e+00 2.2567228191e+00 3.9087585813e+00 
92100 5.0928993934e+00 -1.4490879414e-04 2.2567260625e+00 -3.9087641990e+00 2.2567260625e+00 3.9087641990e+00 
92200 5.0928993921e+00 -1.4344417498e-04 2.2567292731e+00 -3.9087697599e+00 2.2567292731e+00 3.9087697599e+00 
92300 5.0928993909e+00 -1.4199410448e-04 2.2567324512e+00 -3.9087752646e+00 2.2567324512e+00 3.9087752646e+00 
92400 5.0928993898e+00 -1.4055844083e-04 2.2567355972e+00 -3.9087807137e+00 2.2567355972e+00 3.9087807137e+00 
92500 5.0928993886e+00 -1.3913704359e-04 2.2567387114e+00 -3.9087861076e+00 2.2567387114e+00 3.9087861076e+00 
92600 5.0928993875e+00 -1.3772977365e-04 2.2567417941e+00 -3.9087914470e+00 2.2567417941e+00 3.9087914470e+00 
92700 5.0928993864e+00 -1.3633649324e-04 2.2567448457e+00 -3.9087967324e+00 2.2567448457e+00 3.9087967324e+00 
92800 5.0928993853e+00 -1.3495706588e-04 2.2567478663e+00 -3.9088019643e+00 2.2567478663e+00 3.9088019643e+00 
92900 5.0928993843e+00 -1.3359135642e-04 2.2567508564e+00 -3.9088071433e+00 2.2567508564e+00 3.9088071433e+00 
93000 5.0928993832e+00 -1.3223923097e-04 2.2567538162e+00 -3.9088122698e+00 2.2567538162e+00 3.9088122698e+00 
93100 5.0928993822e+00 -1.3090055696e-04 2.2567567461e+00 -3.9088173445e+00 2.2567567461e+00 3.9088173445e+00 
93200 5.0928993813e+00 -1.2957520304e-04 2.2567596462e+00 -3.9088223678e+00 2.2567596462e+00 3.9088223678e+00 
93300 5.0928993803e+00 -1.2826303914e-04 2.2567625171e+00 -3.9088273402e+00 2.2567625171e+00 3.9088273402e+00 
93400 5.0928993794e+00 -1.2696393643e-04 2.2567653588e+00 -3.9088322622e+00 2.2567653588e+00 3.9088322622e+00 
93500 5.0928993785e+00 -1.2567776732e-04 2.2567681718e+00 -3.9088371344e+00 2.2567681718e+00 3.9088371344e+00 
93600 5.0928993776e+00 -1.2440440542e-04 2.2567709563e+00 -3.9088419573e+00 2.2567709563e+00 3.9088419573e+00 
93700 5.0928993767e+00 -1.2314372555e-04 2.2567737125e+00 -3.9088467312e+00 2.2567737125e+00 3.9088467312e+00 
93800 5.0928993759e+00 -1.2189560375e-04 2.2567764408e+00 -3.9088514568e+00 2.2567764408e+00 3.9088514568e+00 
93900 5.0928993751e+00 -1.2065991722e-04 2.2567791415e+00 -3.9088561345e+00 2.2567791415e+00 3.9088561345e+00 
94000 5.0928993743e+00 -1.1943654436e-04 2.2567818147e+00 -3.9088607647e+00 2.2567818147e+00 3.9088607647e+00 
94100 5.0928993735e+00 -1.1822536471e-04 2.2567844609e+00 -3.9088653480e+00 2.2567844609e+00 3.9088653480e+00 
94200 5.0928993728e+00 -1.1702625899e-04 2.2567870803e+00 -3.9088698849e+00 2.2567870803e+00 3.9088698849e+00 
94300 5.0928993720e+00 -1.1583910902e-04 2.2567896730e+00 -3.9088743757e+00 2.2567896730e+00 3.9088743757e+00 
94400 5.0928993713e+00 -1.1466379780e-04 2.2567922395e+00 -3.9088788209e+00 2.2567922395e+00 3.9088788209e+00 
94500 5.0928993706e+00 -1.1350020943e-04 2.2567947799e+00 -3.9088832210e+00 2.2567947799e+00 3.9088832210e+00 
94600 5.0928993699e+00 -1.1234822911e-04 2.2567972945e+00 -3.9088875765e+00 2.2567972945e+00 3.9088875765e+00 
94700 5.0928993692e+00 -1.1120774316e-04 2.2567997836e+00 -3.9088918878e+00 2.2567997836e+00 3.9088918878e+00 
94800 5.0928993686e+00 -1.1007863898e-04 2.2568022475e+00 -3.9088961553e+00 2.2568022475e+00 3.9088961553e+00 
94900 5.0928993679e+00 -1.0896080505e-04 2.2568046863e+00 -3.9089003794e+00 2.2568046863e+00 3.9089003794e+00 
95000 5.0928993673e+00 -1.0785413092e-04 2.2568071003e+00 -3.9089045607e+00 2.2568071003e+00 3.9089045607e+00 
95100 5.0928993667e+00 -1.0675850721e-04 2.2568094899e+00 -3.9089086995e+00 2.2568094899e+00 3.9089086995e+00 
95200 5.0928993661e+00 -1.0567382558e-04 2.2568118551e+00 -3.9089127962e+00 2.2568118551e+00 3.9089127962e+00 
95300 5.0928993656e+00 -1.0459997873e-04 2.2568141963e+00 -3.9089168513e+00 2.2568141963e+00 3.9089168513e+00 
95400 5.0928993650e+00 -1.0353686040e-04 2.2568165138e+00 -3.9089208652e+00 2.2568165138e+00 3.9089208652e+00 
95500 5.0928993644e+00 -1.0248436533e-04 2.2568188076e+00 -3.9089248383e+00 2.2568188076e+00 3.9089248383e+00 
95600 5.0928993639e+00 -1.0144238930e-04 2.2568210782e+00 -3.9089287710e+00 2.2568210782e+00 3.9089287710e+00 
95700 5.0928993634e+00 -1.0041082906e-04 2.2568233256e+00 -3.9089326637e+00 2.2568233256e+00 3.9089326637e+00 
95800 5.0928993629e+00 -9.9389582387e-05 2.2568255503e+00 -3.9089365169e+00 2.2568255503e+00 3.9089365169e+00 
95900 5.0928993624e+00 -9.8378548014e-05 2.2568277522e+00 -3.9089403308e+00 2.2568277522e+00 3.9089403308e+00 
96000 5.0928993619e+00 -9.7377625662e-05 2.2568299318e+00 -3.9089441059e+00 2.2568299318e+00 3.9089441059e+00 
96100 5.0928993614e+00 -9.6386716011e-05 2.2568320892e+00 -3.9089478427e+00 2.2568320892e+00 3.9089478427e+00 
96200 5.0928993610e+00 -9.5405720697e-05 2.2568342247e+00 -3.9089515414e+00 2.2568342247e+00 3.9089515414e+00 
96300 5.0928993605e+00 -9.4434542306e-05 2.2568363384e+00 -3.9089552024e+00 2.2568363384e+00 3.9089552024e+00 
96400 5.0928993601e+00 -9.3473084359e-05 2.2568384305e+00 -3.9089588262e+00 2.2568384305e+00 3.9089588262e+00 
96500 5.0928993597e+00 -9.2521251307e-05 2.2568405014e+00 -3.9089624131e+00 2.2568405014e+00 3.9089624131e+00 
96600 5.0928993593e+00 -9.1578948520e-05 2.2568425512e+00 -3.9089659634e+00 2.2568425512e+00 3.9089659634e+00 
96700 5.0928993589e+00 -9.0646082284e-05 2.2568445801e+00 -3.9089694776e+00 2.2568445801e+00 3.9089694776e+00 
96800 5.0928993585e+00 -8.9722559782e-05 2.2568465884e+00 -3.9089729560e+00 2.2568465884e+00 3.9089729560e+00 
96900 5.0928993581e+00 -8.8808289098e-05 2.2568485762e+00 -3.9089763989e+00 2.2568485762e+00 3.9089763989e+00 
97000 5.0928993577e+00 -8.7903179196e-05 2.2568505437e+00 -3.9089798068e+00 2.2568505437e+00 3.9089798068e+00 
97100 5.0928993574e+00 -8.7007139924e-05 2.2568524912e+00 -3.9089831799e+00 2.2568524912e+00 3.9089831799e+00 
97200 5.0928993570e+00 -8.6120081993e-05 2.2568544188e+00 -3.9089865187e+00 2.2568544188e+00 3.9089865187e+00 
97300 5.0928993567e+00 -8.5241916983e-05 2.2568563268e+00 -3.9089898234e+00 2.2568563268e+00 3.9089898234e+00 
97400 5.0928993563e+00 -8.4372557319e-05 2.2568582153e+00 -3.9089930944e+00 2.2568582153e+00 3.9089930944e+00 
97500 5.0928993560e+00 -8.3511916279e-05 2.2568600845e+00 -3.9089963320e+00 2.2568600845e+00 3.9089963320e+00 
97600 5.0928993557e+00 -8.2659907973e-05 2.2568619347e+00 -3.9089995366e+00 2.2568619347e+00 3.9089995366e+00 
97700 5.0928993554e+00 -8.1816447342e-05 2.2568637660e+00 -3.9090027085e+00 2.2568637660e+00 3.9090027085e+00 
97800 5.0928993551e+00 -8.0981450150e-05 2.2568655786e+00 -3.9090058480e+00 2.2568655786e+00 3.9090058480e+00 
97900 5.0928993548e+00 -8.0154832973e-05 2.2568673727e+00 -3.9090089555e+00 2.2568673727e+00 3.9090089555e+00 
98000 5.0928993545e+00 -7.9336513195e-05 2.2568691485e+00 -3.9090120313e+00 2.2568691485e+00 3.9090120313e+00 
98100 5.0928993542e+00 -7.8526408995e-05 2.2568709062e+00 -3.9090150757e+00 2.2568709062e+00 3.9090150757e+00 
98200 5.0928993540e+00 -7.7724439348e-05 2.2568726459e+00 -3.9090180890e+00 2.2568726459e+00 3.9090180890e+00 
98300 5.0928993537e+00 -7.6930524008e-05 2.2568743679e+00 -3.9090210715e+00 2.2568743679e+00 3.9090210715e+00 
98400 5.0928993534e+00 -7.6144583507e-05 2.2568760722e+00 -3.9090240235e+00 2.2568760722e+00 3.9090240235e+00 
98500 5.0928993532e+00 -7.5366539147e-05 2.2568777592e+00 -3.9090269454e+00 2.2568777592e+00 3.9090269454e+00 
98600 5.0928993530e+00 -7.4596312990e-05 2.2568794289e+00 -3.9090298374e+00 2.2568794289e+00 3.9090298374e+00 
98700 5.0928993527e+00 -7.3833827852e-05 2.2568810815e+00 -3.9090326999e+00 2.2568810815e+00 3.9090326999e+00 
98800 5.0928993525e+00 -7.3079007297e-05 2.2568827173e+00 -3.9090355331e+00 2.2568827173e+00 3.9090355331e+00 
98900 5.0928993523e+00 -7.2331775630e-05 2.2568843363e+00 -3.9090383373e+00 2.2568843363e+00 3.9090383373e+00 
99000 5.0928993520e+00 -7.1592057887e-05 2.2568859388e+00 -3.9090411129e+00 2.2568859388e+00 3.9090411129e+00 
99100 5.0928993518e+00 -7.0859779832e-05 2.2568875249e+00 -3.9090438600e+00 2.2568875249e+00 3.9090438600e+00 
99200 5.0928993516e+00 -7.0134867948e-05 2.2568890947e+00 -3.9090465791e+00 2.2568890947e+00 3.9090465791e+00 
99300 5.0928993515e+00 -7.0376462619e-05 2.2568890947e+00 -3.9090465791e+00 2.2568890947e+00 3.9090465791e+00 
99400 5.0928993514e+00 -7.0619564661e-05 2.2568890947e+00 -3.9090465791e+00 2.2568890947e+00 3.9090465791e+00 
99500 5.0928993513e+00 -7.0864055523e-05 2.2568890947e+00 -3.9090465791e+00 2.2568890947e+00 3.9090465791e+00 
99600 5.0928993511e+00 -7.0140624330e-05 2.2568906647e+00 -3.9090492983e+00 2.2568906647e+00 3.9090492983e+00 
99700 5.0928993511e+00 -7.0383409812e-05 2.2568906647e+00 -3.9090492983e+00 2.2568906647e+00 3.9090492983e+00 
99800 5.0928993510e+00 -7.0627355028e-05 2.2568906647e+00 -3.9090492983e+00 2.2568906647e+00 3.9090492983e+00 
99900 5.0928993509e+00 -7.0872352897e-05 2.2568906647e+00 -3.9090492983e+00 2.2568906647e+00 3.9090492983e+00 
100000 5.0928993507e+00 -7.0148979503e-05 2.2568922348e+00 -3.9090520179e+00 2.2568922348e+00 3.9090520179e+00 
100100 5.0928993506e+00 -7.0391632134e-05 2.2568922348e+00 -3.9090520179e+00 2.2568922348e+00 3.9090520179e+00 
100200 5.0928993506e+00 -7.0635140579e-05 2.2568922348e+00 -3.9090520179e+00 2.2568922348e+00 3.9090520179e+00 
100300 5.0928993505e+00 -7.0879407833e-05 2.2568922348e+00 -3.9090520179e+00 2.2568922348e+00 3.9090520179e+00 
100400 5.0928993503e+00 -7.0154913264e-05 2.2568938051e+00 -3.9090547377e+00 2.2568938051e+00 3.9090547377e+00 
100500 5.0928993503e+00 -7.0396276236e-05 2.2568938051e+00 -3.9090547377e+00 2.2568938051e+00 3.9090547377e+00 
100600 5.0928993502e+00 -7.0638229645e-05 2.2568938051e+00 -3.9090547377e+00 2.2568938051e+00 3.9090547377e+00 
100700 5.0928993502e+00 -7.0880685427e-05 2.2568938051e+00 -3.9090547377e+00 2.2568938051e+00 3.9090547377e+00 
100800 5.0928993500e+00 -7.0154104776e-05 2.2568953754e+00 -3.9090574576e+00 2.2568953754e+00 3.9090574576e+00 
100900 5.0928993500e+00 -7.0393169153e-05 2.2568953754e+00 -3.9090574576e+00 2.2568953754e+00 3.9090574576e+00 
101000 5.0928993499e+00 -7.0632592867e-05 2.2568953754e+00 -3.9090574576e+00 2.2568953754e+00 3.9090574576e+00 
101100 5.0928993499e+00 -7.0872295837e-05 2.2568953754e+00 -3.9090574576e+00 2.2568953754e+00 3.9090574576e+00 
101200 5.0928993497e+00 -7.0142852975e-05 2.2568969455e+00 -3.9090601771e+00 2.2568969455e+00 3.9090601771e+00 
101300 5.0928993497e+00 -7.0378741920e-05 2.2568969455e+00 -3.9090601771e+00 2.2568969455e+00 3.9090601771e+00 
101400 5.0928993496e+00 -7.0614789778e-05 2.2568969455e+00 -3.9090601771e+00 2.2568969455e+00 3.9090601771e+00 
101500 5.0928993496e+00 -7.0850923644e-05 2.2568969455e+00 -3.9090601771e+00 2.2568969455e+00 3.9090601771e+00 
101600 5.0928993495e+00 -7.0118009491e-05 2.2568985152e+00 -3.9090628958e+00 2.2568985152e+00 3.9090628958e+00 
101700 5.0928993494e+00 -7.0349964898e-05 2.2568985152e+00 -3.9090628958e+00 2.2568985152e+00 3.9090628958e+00 
101800 5.0928993494e+00 -7.0581906394e-05 2.2568985152e+00 -3.9090628958e+00 2.2568985152e+00 3.9090628958e+00 
101900 5.0928993494e+00 -7.0813767552e-05 2.2568985152e+00 -3.9090628958e+00 2.2568985152e+00 3.9090628958e+00 
102000 5.0928993493e+00 -7.0076921138e-05 2.2569000840e+00 -3.9090656131e+00 2.2569000840e+00 3.9090656131e+00 
102100 5.0928993492e+00 -7.0304292121e-05 2.2569000840e+00 -3.9090656131e+00 2.2569000840e+00 3.9090656131e+00 
102200 5.0928993492e+00 -7.0531501286e-05 2.2569000840e+00 -3.9090656131e+00 2.2569000840e+00 3.9090656131e+00 
102300 5.0928993492e+00 -7.0758488074e-05 2.2569000840e+00 -3.9090656131e+00 2.2569000840e+00 3.9090656131e+00 
102400 5.0928993491e+00 -7.0017379826e-05 2.2569016516e+00 -3.9090683283e+00 2.2569016516e+00 3.9090683283e+00 
102500 5.0928993491e+00 -7.0239612623e-05 2.2569016516e+00 -3.9090683283e+00 2.2569016516e+00 3.9090683283e+00 
102600 5.0928993490e+00 -7.0461558243e-05 2.2569016516e+00 -3.9090683283e+00 2.2569016516e+00 3.9090683283e+00 
102700 5.0928993490e+00 -7.0683161448e-05 2.2569016516e+00 -3.9090683283e+00 2.2569016516e+00 3.9090683283e+00 
102800 5.0928993490e+00 -7.0904368912e-05 2.2569016516e+00 -3.9090683283e+00 2.2569016516e+00 3.9090683283e+00 
102900 5.0928993489e+00 -7.0155310800e-05 2.2569032225e+00 -3.9090710491e+00 2.2569032225e+00 3.9090710491e+00 
103000 5.0928993489e+00 -7.0371429993e-05 2.2569032225e+00 -3.9090710491e+00 2.2569032225e+00 3.9090710491e+00 
103100 5.0928993489e+00 -7.0587109484e-05 2.2569032225e+00 -3.9090710491e+00 2.2569032225e+00 3.9090710491e+00 
103200 5.0928993489e+00 -7.0802300564e-05 2.2569032225e+00 -3.9090710491e+00 2.2569032225e+00 3.9090710491e+00 
103300 5.0928993488e+00 -7.0048527754e-05 2.2569047910e+00 -3.9090737659e+00 2.2569047910e+00 3.9090737659e+00 
103400 5.0928993488e+00 -7.0258464603e-05 2.2569047910e+00 -3.9090737659e+00 2.2569047910e+00 3.9090737659e+00 
103500 5.0928993488e+00 -7.0467882145e-05 2.2569047910e+00 -3.9090737659e+00 2.2569047910e+00 3.9090737659e+00 
103600 5.0928993488e+00 -7.0676735872e-05 2.2569047910e+00 -3.9090737659e+00 2.2569047910e+00 3.9090737659e+00 
103700 5.0928993488e+00 -7.0884982925e-05 2.2569047910e+00 -3.9090737659e+00 2.2569047910e+00 3.9090737659e+00 
103800 5.0928993487e+00 -7.0123014885e-05 2.2569063614e+00 -3.9090764859e+00 2.2569063614e+00 3.9090764859e+00 
103900 5.0928993487e+00 -7.0325783305e-05 2.2569063614e+00 -3.9090764859e+00 2.2569063614e+00 3.9090764859e+00 
104000 5.0928993487e+00 -7.0527930953e-05 2.2569063614e+00 -3.9090764859e+00 2.2569063614e+00 3.9090764859e+00 
104100 5.0928993487e+00 -7.0729418597e-05 2.2569063614e+00 -3.9090764859e+00 2.2569063614e+00 3.9090764859e+00 
104200 5.0928993486e+00 -6.9962763841e-05 2.2569079284e+00 -3.9090792000e+00 2.2569079284e+00 3.9090792000e+00 
104300 5.0928993486e+00 -7.0158685811e-05 2.2569079284e+00 -3.9090792000e+00 2.2569079284e+00 3.9090792000e+00 
104400 5.0928993486e+00 -7.0353943821e-05 2.2569079284e+00 -3.9090792000e+00 2.2569079284e+00 3.9090792000e+00 
104500 5.0928993486e+00 -7.0548501938e-05 2.2569079284e+00 -3.9090792000e+00 2.2569079284e+00 3.9090792000e+00 
104600 5.0928993486e+00 -7.0742325657e-05 2.2569079284e+00 -3.9090792000e+00 2.2569079284e+00 3.9090792000e+00 
104700 5.0928993485e+00 -6.9967753980e-05 2.2569094956e+00 -3.9090819145e+00 2.2569094956e+00 3.9090819145e+00 
104800 5.0928993485e+00 -7.0155876160e-05 2.2569094956e+00 -3.9090819145e+00 2.2569094956e+00 3.9090819145e+00 
104900 5.0928993485e+00 -7.0343273454e-05 2.2569094956e+00 -3.9090819145e+00 2.2569094956e+00 3.9090819145e+00 
105000 5.0928993485e+00 -7.0529914170e-05 2.2569094956e+00 -3.9090819145e+00 2.2569094956e+00 3.9090819145e+00 
105100 5.0928993485e+00 -7.0715767936e-05 2.2569094956e+00 -3.9090819145e+00 2.2569094956e+00 3.9090819145e+00 
105200 5.0928993484e+00 -6.9933534901e-05 2.2569110623e+00 -3.9090846280e+00 2.2569110623e+00 3.9090846280e+00 
105300 5.0928993484e+00 -7.0113595500e-05 2.2569110623e+00 -3.9090846280e+00 2.2569110623e+00 3.9090846280e+00 
105400 5.0928993485e+00 -7.0292890349e-05 2.2569110623e+00 -3.9090846280e+00 2.2569110623e+00 3.9090846280e+00 
105500 5.0928993485e+00 -7.0471391453e-05 2.2569110623e+00 -3.9090846280e+00 2.2569110623e+00 3.9090846280e+00 
105600 5.0928993485e+00 -7.0649072036e-05 2.2569110623e+00 -3.9090846280e+00 2.2569110623e+00 3.9090846280e+00 
105700 5.0928993485e+00 -7.0825906494e-05 2.2569110623e+00 -3.9090846280e+00 2.2569110623e+00 3.9090846280e+00 
105800 5.0928993484e+00 -7.0033086002e-05 2.2569126314e+00 -3.9090873458e+00 2.2569126314e+00 3.9090873458e+00 
105900 5.0928993484e+00 -7.0204016261e-05 2.2569126314e+00 -3.9090873458e+00 2.2569126314e+00 3.9090873458e+00 
106000 5.0928993484e+00 -7.0374135264e-05 2.2569126314e+00 -3.9090873458e+00 2.2569126314e+00 3.9090873458e+00 
106100 5.0928993484e+00 -7.0543419252e-05 2.2569126314e+00 -3.9090873458e+00 2.2569126314e+00 3.9090873458e+00 
106200 5.0928993485e+00 -7.0711845561e-05 2.2569126314e+00 -3.9090873458e+00 2.2569126314e+00 3.9090873458e+00 
106300 5.0928993484e+00 -6.9912163318e-05 2.2569141979e+00 -3.9090900591e+00 2.2569141979e+00 3.9090900591e+00 
106400 5.0928993484e+00 -7.0074677445e-05 2.2569141979e+00 -3.9090900591e+00 2.2569141979e+00 3.9090900591e+00 
106500 5.0928993484e+00 -7.0236376910e-05 2.2569141979e+00 -3.9090900591e+00 2.2569141979e+00 3.9090900591e+00 
106600 5.0928993484e+00 -7.0397240573e-05 2.2569141979e+00 -3.9090900591e+00 2.2569141979e+00 3.9090900591e+00 
106700 5.0928993484e+00 -7.0557248308e-05 2.2569141979e+00 -3.9090900591e+00 2.2569141979e+00 3.9090900591e+00 
106800 5.0928993484e+00 -7.0716380966e-05 2.2569141979e+00 -3.9090900591e+00 2.2569141979e+00 3.9090900591e+00 
106900 5.0928993484e+00 -6.9907323124e-05 2.2569157646e+00 -3.9090927727e+00 2.2569157646e+00 3.9090927727e+00 
107000 5.0928993484e+00 -7.0060518639e-05 2.2569157646e+00 -3.9090927727e+00 2.2569157646e+00 3.9090927727e+00 
107100 5.0928993484e+00 -7.0212892011e-05 2.2569157646e+00 -3.9090927727e+00 2.2569157646e+00 3.9090927727e+00 
107200 5.0928993484e+00 -7.0364425194e-05 2.2569157646e+00 -3.9090927727e+00 2.2569157646e+00 3.9090927727e+00 
107300 5.0928993484e+00 -7.0515101057e-05 2.2569157646e+00 -3.9090927727e+00 2.2569157646e+00 3.9090927727e+00 
107400 5.0928993484e+00 -7.0664903351e-05 2.2569157646e+00 -3.9090927727e+00 2.2569157646e+00 3.9090927727e+00 
107500 5.0928993485e+00 -7.0813816679e-05 2.2569157646e+00 -3.9090927727e+00 2.2569157646e+00 3.9090927727e+00 
107600 5.0928993484e+00 -6.9993189945e-05 2.2569173334e+00 -3.9090954899e+00 2.2569173334e+00 3.9090954899e+00 
107700 5.0928993484e+00 -7.0136143394e-05 2.2569173334e+00 -3.9090954899e+00 2.2569173334e+00 3.9090954899e+00 
107800 5.0928993484e+00 -7.0278271478e-05 2.2569173334e+00 -3.9090954899e+00 2.2569173334e+00 3.9090954899e+00 
107900 5.0928993484e+00 -7.0419559423e-05 2.2569173334e+00 -3.9090954899e+00 2.2569173334e+00 3.9090954899e+00 
108000 5.0928993484e+00 -7.0559993259e-05 2.2569173334e+00 -3.9090954899e+00 2.2569173334e+00 3.9090954899e+00 
108100 5.0928993485e+00 -7.0699559791e-05 2.2569173334e+00 -3.9090954899e+00 2.2569173334e+00 3.9090954899e+00 
108200 5.0928993485e+00 -7.0838246572e-05 2.2569173334e+00 -3.9090954899e+00 2.2569173334e+00 3.9090954899e+00 
108300 5.0928993484e+00 -7.0007065386e-05 2.2569189028e+00 -3.9090982082e+00 2.2569189028e+00 3.9090982082e+00 
108400 5.0928993484e+00 -7.0139817713e-05 2.2569189028e+00 -3.9090982082e+00 2.2569189028e+00 3.9090982082e+00 
108500 5.0928993484e+00 -7.0271762180e-05 2.2569189028e+00 -3.9090982082e+00 2.2569189028e+00 3.9090982082e+00 
108600 5.0928993485e+00 -7.0402886571e-05 2.2569189028e+00 -3.9090982082e+00 2.2569189028e+00 3.9090982082e+00 
108700 5.0928993485e+00 -7.0533179384e-05 2.2569189028e+00 -3.9090982082e+00 2.2569189028e+00 3.9090982082e+00 
108800 5.0928993485e+00 -7.0662629802e-05 2.2569189028e+00 -3.9090982082e+00 2.2569189028e+00 3.9090982082e+00 
108900 5.0928993485e+00 -7.0791227670e-05 2.2569189028e+00 -3.9090982082e+00 2.2569189028e+00 3.9090982082e+00 
109000 5.0928993484e+00 -6.9950624992e-05 2.2569204711e+00 -3.9091009246e+00 2.2569204711e+00 3.9091009246e+00 
109100 5.0928993484e+00 -7.0073352075e-05 2.2569204711e+00 -3.9091009246e+00 2.2569204711e+00 3.9091009246e+00 
109200 5.0928993485e+00 -7.0195304811e-05 2.2569204711e+00 -3.9091009246e+00 2.2569204711e+00 3.9091009246e+00 
109300 5.0928993485e+00 -7.0316472955e-05 2.2569204711e+00 -3.9091009246e+00 2.2569204711e+00 3.9091009246e+00 
109400 5.0928993485e+00 -7.0436846896e-05 2.2569204711e+00 -3.9091009246e+00 2.2569204711e+00 3.9091009246e+00 
109500 5.0928993485e+00 -7.0556417640e-05 2.2569204711e+00 -3.9091009246e+00 2.2569204711e+00 3.9091009246e+00 
109600 5.0928993485e+00 -7.0675176777e-05 2.2569204711e+00 -3.9091009246e+00 2.2569204711e+00 3.9091009246e+00 
109700 5.0928993485e+00 -7.0793116463e-05 2.2569204711e+00 -3.9091009246e+00 2.2569204711e+00 3.9091009246e+00 
109800 5.0928993485e+00 -6.9941859645e-05 2.2569220394e+00 -3.9091036410e+00 2.2569220394e+00 3.9091036410e+00 
109900 5.0928993485e+00 -7.0054001181e-05 2.2569220394e+00 -3.9091036410e+00 2.2569220394e+00 3.9091036410e+00 
110000 5.0928993485e+00 -7.0165407871e-05 2.2569220394e+00 -3.9091036410e+00 2.2569220394e+00 3.9091036410e+00 
110100 5.0928993485e+00 -7.0276071428e-05 2.2569220394e+00 -3.9091036410e+00 2.2569220394e+00 3.9091036410e+00 
110200 5.0928993485e+00 -7.0385984123e-05 2.2569220394e+00 -3.9091036410e+00 2.2569220394e+00 3.9091036410e+00 
110300 5.0928993486e+00 -7.0495138756e-05 2.2569220394e+00 -3.9091036410e+00 2.2569220394e+00 3.9091036410e+00 
110400 5.0928993486e+00 -7.0603528643e-05 2.2569220394e+00 -3.9091036410e+00 2.2569220394e+00 3.9091036410e+00 
110500 5.0928993486e+00 -7.0700420552e-05 2.2569220394e+00 -3.9091036410e+00 2.2569220394e+00 3.9091036410e+00 
110500 5.0928993486e+00 -7.0700420552e-05 2.2569220394e+00 -3.9091036410e+00 2.2569220394e+00 3.9091036410e+00 
