# step Hamiltonian StressXX CellTensor1 CellTensor2 CellTensor3 CellTensor4 
0 5.4330140389e+00 7.7642393234e-02 2.8378601290e+00 -4.9153179282e+00 2.8378601290e+00 4.9153179282e+00 
100 5.4344381728e+00 8.6796346311e-02 2.8378601290e+00 -4.9153179282e+00 2.8378601290e+00 4.9153179282e+00 
200 5.4369314028e+00 9.6255081258e-02 2.8363310095e+00 -4.9126694155e+00 2.8363310095e+00 4.9126694155e+00 
300 5.4403828883e+00 1.0612724369e-01 2.8346343549e+00 -4.9097307236e+00 2.8346343549e+00 4.9097307236e+00 
400 5.4446121403e+00 1.1637863668e-01 2.8327625870e+00 -4.9064887264e+00 2.8327625870e+00 4.9064887264e+00 
500 5.4494444193e+00 1.2697064896e-01 2.8307086810e+00 -4.9029312569e+00 2.8307086810e+00 4.9029312569e+00 
600 5.4547116974e+00 1.3786026978e-01 2.8284662413e+00 -4.8990472374e+00 2.8284662413e+00 4.8990472374e+00 
700 5.4602536010e+00 1.4900009802e-01 2.8260295770e+00 -4.8948268110e+00 2.8260295770e+00 4.8948268110e+00 
800 5.4659183598e+00 1.6033840575e-01 2.8233937781e+00 -4.8902614734e+00 2.8233937781e+00 4.8902614734e+00 
900 5.4715637846e+00 1.7181932176e-01 2.8205547922e+00 -4.8853442056e+00 2.8205547922e+00 4.8853442056e+00 
1000 5.4770582849e+00 1.8338320312e-01 2.8175094983e+00 -4.8800696019e+00 2.8175094983e+00 4.8800696019e+00 
1100 5.4822819249e+00 1.9496725863e-01 2.8142557762e+00 -4.8744339898e+00 2.8142557762e+00 4.8744339898e+00 
1200 5.4871274955e+00 2.0650647302e-01 2.8107925655e+00 -4.8684355330e+00 2.8107925655e+00 4.8684355330e+00 
1300 5.4915015578e+00 2.1793485116e-01 2.8071199104e+00 -4.8620743077e+00 2.8071199104e+00 4.8620743077e+00 
1400 5.4953253857e+00 2.2918695831e-01 2.8032389833e+00 -4.8553523449e+00 2.8032389833e+00 4.8553523449e+00 
1500 5.4985357140e+00 2.4019967715e-01 2.7991520829e+00 -4.8482736256e+00 2.7991520829e+00 4.8482736256e+00 
1600 5.5010851863e+00 2.5091404654e-01 2.7948626014e+00 -4.8408440258e+00 2.7948626014e+00 4.8408440258e+00 
1700 5.5029423999e+00 2.6127700194e-01 2.7903749609e+00 -4.8330712044e+00 2.7903749609e+00 4.8330712044e+00 
1800 5.5040914703e+00 2.7124281879e-01 2.7856945179e+00 -4.8249644394e+00 2.7856945179e+00 4.8249644394e+00 
1900 5.5045310833e+00 2.8077407912e-01 2.7808274431e+00 -4.8165344186e+00 2.7808274431e+00 4.8165344186e+00 
2000 5.5042730630e+00 2.8984203833e-01 2.7757805825e+00 -4.8077929995e+00 2.7757805825e+00 4.8077929995e+00 
2100 5.5033405435e+00 2.9842635609e-01 2.7705613117e+00 -4.7987529574e+00 2.7705613117e+00 4.7987529574e+00 
2200 5.5017658874e+00 3.0651425123e-01 2.7651773940e+00 -4.7894277384e+00 2.7651773940e+00 4.7894277384e+00 
2300 5.4995885180e+00 3.1409922332e-01 2.7596368516e+00 -4.7798312375e+00 2.7596368516e+00 4.7798312375e+00 
2400 5.4968528327e+00 3.2117953419e-01 2.7539478595e+00 -4.7699776141e+00 2.7539478595e+00 4.7699776141e+00 
2500 5.4936063401e+00 3.2775665295e-01 2.7481186652e+00 -4.7598811533e+00 2.7481186652e+00 4.7598811533e+00 
2600 5.4898981122e+00 3.3383384066e-01 2.7421575350e+00 -4.7495561730e+00 2.7421575350e+00 4.7495561730e+00 
2700 5.4857775958e+00 3.3941499955e-01 2.7360727267e+00 -4.7390169759e+00 2.7360727267e+00 4.7390169759e+00 
2800 5.4812937758e+00 3.4450385145e-01 2.7298724810e+00 -4.7282778352e+00 2.7298724810e+00 4.7282778352e+00 
2900 5.4764946471e+00 3.4910345471e-01 2.7235650283e+00 -4.7173530067e+00 2.7235650283e+00 4.7173530067e+00 
3000 5.4714269303e+00 3.5321602735e-01 2.7171586049e+00 -4.7062567559e+00 2.7171586049e+00 4.7062567559e+00 
3100 5.4661359592e+00 3.5684301846e-01 2.7106614709e+00 -4.6950033898e+00 2.7106614709e+00 4.6950033898e+00 
3200 5.4606656692e+00 3.5998535954e-01 2.7040819284e+00 -4.6836072878e+00 2.7040819284e+00 4.6836072878e+00 
3300 5.4550586296e+00 3.6264382770e-01 2.6974283337e+00 -4.6720829237e+00 2.6974283337e+00 4.6720829237e+00 
3400 5.4493560734e+00 3.6481946041e-01 2.6907091036e+00 -4.6604448758e+00 2.6907091036e+00 4.6604448758e+00 
3500 5.4435978937e+00 3.6651397235e-01 2.6839327137e+00 -4.6487078242e+00 2.6839327137e+00 4.6487078242e+00 
3600 5.4378225924e+00 3.6773013710e-01 2.6771076884e+00 -4.6368865336e+00 2.6771076884e+00 4.6368865336e+00 
3700 5.4320671722e+00 3.6847210798e-01 2.6702425835e+00 -4.6249958232e+00 2.6702425835e+00 4.6249958232e+00 
3800 5.4263669782e+00 3.6874566266e-01 2.6633459626e+00 -4.6130505254e+00 2.6633459626e+00 4.6130505254e+00 
3900 5.4207554967e+00 3.6855836486e-01 2.6564263677e+00 -4.6010654354e+00 2.6564263677e+00 4.6010654354e+00 
4000 5.4152641264e+00 3.6791964359e-01 2.6494922863e+00 -4.5890552541e+00 2.6494922863e+00 4.5890552541e+00 
4100 5.4099219372e+00 3.6684079548e-01 2.6425521165e+00 -4.5770345274e+00 2.6425521165e+00 4.5770345274e+00 
4200 5.4047554319e+00 3.6533491989e-01 2.6356141307e+00 -4.5650175835e+00 2.6356141307e+00 4.5650175835e+00 
4300 5.3997883271e+00 3.6341679842e-01 2.6286864402e+00 -4.5530184716e+00 2.6286864402e+00 4.5530184716e+00 
4400 5.3950413646e+00 3.6110273162e-01 2.6217769607e+00 -4.5410509020e+00 2.6217769607e+00 4.5410509020e+00 
4500 5.3905321649e+00 3.5841034581e-01 2.6148933806e+00 -4.5291281916e+00 2.6148933806e+00 4.5291281916e+00 
4600 5.3862751287e+00 3.5535838171e-01 2.6080431323e+00 -4.5172632135e+00 2.6080431323e+00 4.5172632135e+00 
4700 5.3822813918e+00 3.5196647570e-01 2.6012333664e+00 -4.5054683530e+00 2.6012333664e+00 4.5054683530e+00 
4800 5.3785588341e+00 3.4825494212e-01 2.5944709299e+00 -4.4937554693e+00 2.5944709299e+00 4.4937554693e+00 
4900 5.3751121415e+00 3.4424456395e-01 2.5877623482e+00 -4.4821358649e+00 2.5877623482e+00 4.4821358649e+00 
5000 5.3719429181e+00 3.3995639661e-01 2.5811138104e+00 -4.4706202597e+00 2.5811138104e+00 4.4706202597e+00 
5100 5.3690498434e+00 3.3541158867e-01 2.5745311587e+00 -4.4592187725e+00 2.5745311587e+00 4.4592187725e+00 
5200 5.3664288685e+00 3.3063122132e-01 2.5680198802e+00 -4.4479409073e+00 2.5680198802e+00 4.4479409073e+00 
5300 5.3640734452e+00 3.2563616761e-01 2.5615851025e+00 -4.4367955455e+00 2.5615851025e+00 4.4367955455e+00 
5400 5.3619747797e+00 3.2044697137e-01 2.5552315919e+00 -4.4257909423e+00 2.5552315919e+00 4.4257909423e+00 
5500 5.3601221057e+00 3.1508374514e-01 2.5489637532e+00 -4.4149347272e+00 2.5489637532e+00 4.4149347272e+00 
5600 5.3585029680e+00 3.0956608596e-01 2.5427856327e+00 -4.4042339087e+00 2.5427856327e+00 4.4042339087e+00 
5700 5.3571035114e+00 3.0391300750e-01 2.5367009224e+00 -4.3936948813e+00 2.5367009224e+00 4.3936948813e+00 
5800 5.3559087688e+00 2.9814288702e-01 2.5307129656e+00 -4.3833234358e+00 2.5307129656e+00 4.3833234358e+00 
5900 5.3549029429e+00 2.9227342535e-01 2.5248247641e+00 -4.3731247717e+00 2.5248247641e+00 4.3731247717e+00 
6000 5.3540696772e+00 2.8632161831e-01 2.5190389864e+00 -4.3631035106e+00 2.5190389864e+00 4.3631035106e+00 
6100 5.3533923123e+00 2.8030373798e-01 2.5133579764e+00 -4.3532637127e+00 2.5133579764e+00 4.3532637127e+00 
6200 5.3528541249e+00 2.7423532219e-01 2.5077837633e+00 -4.3436088924e+00 2.5077837633e+00 4.3436088924e+00 
6300 5.3524385463e+00 2.6813117111e-01 2.5023180717e+00 -4.3341420369e+00 2.5023180717e+00 4.3341420369e+00 
6400 5.3521293590e+00 2.6200534946e-01 2.4969623320e+00 -4.3248656236e+00 2.4969623320e+00 4.3248656236e+00 
6500 5.3519108707e+00 2.5587119343e-01 2.4917176913e+00 -4.3157816395e+00 2.4917176913e+00 4.3157816395e+00 
6600 5.3517680645e+00 2.4974132124e-01 2.4865850244e+00 -4.3068915997e+00 2.4865850244e+00 4.3068915997e+00 
6700 5.3516867254e+00 2.4362764659e-01 2.4815649449e+00 -4.2981965669e+00 2.4815649449e+00 4.2981965669e+00 
6800 5.3516535438e+00 2.3754139433e-01 2.4766578163e+00 -4.2896971708e+00 2.4766578163e+00 4.2896971708e+00 
6900 5.3516561962e+00 2.3149311765e-01 2.4718637631e+00 -4.2813936271e+00 2.4718637631e+00 4.2813936271e+00 
7000 5.3516834045e+00 2.2549271642e-01 2.4671826821e+00 -4.2732857569e+00 2.4671826821e+00 4.2732857569e+00 
7100 5.3517249754e+00 2.1954945626e-01 2.4626142531e+00 -4.2653730059e+00 2.4626142531e+00 4.2653730059e+00 
7200 5.3517718207e+00 2.1367198799e-01 2.4581579502e+00 -4.2576544628e+00 2.4581579502e+00 4.2576544628e+00 
7300 5.3518159607e+00 2.0786836726e-01 2.4538130522e+00 -4.2501288787e+00 2.4538130522e+00 4.2501288787e+00 
7400 5.3518505125e+00 2.0214607413e-01 2.4495786534e+00 -4.2427946848e+00 2.4495786534e+00 4.2427946848e+00 
7500 5.3518696644e+00 1.9651203251e-01 2.4454536740e+00 -4.2356500110e+00 2.4454536740e+00 4.2356500110e+00 
7600 5.3518686388e+00 1.9097262930e-01 2.4414368706e+00 -4.2286927034e+00 2.4414368706e+00 4.2286927034e+00 
7700 5.3518436451e+00 1.8553373317e-01 2.4375268461e+00 -4.2219203423e+00 2.4375268461e+00 4.2219203423e+00 
7800 5.3517918238e+00 1.8020071300e-01 2.4337220598e+00 -4.2153302590e+00 2.4337220598e+00 4.2153302590e+00 
7900 5.3517111852e+00 1.7497845579e-01 2.4300208369e+00 -4.2089195529e+00 2.4300208369e+00 4.2089195529e+00 
8000 5.3516005413e+00 1.6987138422e-01 2.4264213784e+00 -4.2026851079e+00 2.4264213784e+00 4.2026851079e+00 
8100 5.3514594356e+00 1.6488347369e-01 2.4229217702e+00 -4.1966236088e+00 2.4229217702e+00 4.1966236088e+00 
8200 5.3512880697e+00 1.6001826894e-01 2.4195199924e+00 -4.1907315568e+00 2.4195199924e+00 4.1907315568e+00 
8300 5.3510872291e+00 1.5527890015e-01 2.4162139282e+00 -4.1850052857e+00 2.4162139282e+00 4.1850052857e+00 
8400 5.3508582088e+00 1.5066809866e-01 2.4130013725e+00 -4.1794409759e+00 2.4130013725e+00 4.1794409759e+00 
8500 5.3506027402e+00 1.4618821218e-01 2.4098800405e+00 -4.1740346704e+00 2.4098800405e+00 4.1740346704e+00 
8600 5.3503229192e+00 1.4184121960e-01 2.4068475762e+00 -4.1687822880e+00 2.4068475762e+00 4.1687822880e+00 
8700 5.3500211374e+00 1.3762874533e-01 2.4039015599e+00 -4.1636796381e+00 2.4039015599e+00 4.1636796381e+00 
8800 5.3497000161e+00 1.3355207321e-01 2.4010395168e+00 -4.1587224341e+00 2.4010395168e+00 4.1587224341e+00 
8900 5.3493623438e+00 1.2961216003e-01 2.3982589241e+00 -4.1539063062e+00 2.3982589241e+00 4.1539063062e+00 
9000 5.3490110181e+00 1.2580964860e-01 2.3955572184e+00 -4.1492268147e+00 2.3955572184e+00 4.1492268147e+00 
9100 5.3486489914e+00 1.2214488039e-01 2.3929318034e+00 -4.1446794625e+00 2.3929318034e+00 4.1446794625e+00 
9200 5.3482792211e+00 1.1861790782e-01 2.3903800561e+00 -4.1402597066e+00 2.3903800561e+00 4.1402597066e+00 
9300 5.3479046256e+00 1.1522850610e-01 2.3878993341e+00 -4.1359629701e+00 2.3878993341e+00 4.1359629701e+00 
9400 5.3475280431e+00 1.1197618473e-01 2.3854869820e+00 -4.1317846536e+00 2.3854869820e+00 4.1317846536e+00 
9500 5.3471521968e+00 1.0886019861e-01 2.3831403373e+00 -4.1277201458e+00 2.3831403373e+00 4.1277201458e+00 
9600 5.3467796644e+00 1.0587955877e-01 2.3808567372e+00 -4.1237648343e+00 2.3808567372e+00 4.1237648343e+00 
9700 5.3464128513e+00 1.0303304285e-01 2.3786335236e+00 -4.1199141154e+00 2.3786335236e+00 4.1199141154e+00 
9800 5.3460539698e+00 1.0031920515e-01 2.3764680493e+00 -4.1161634040e+00 2.3764680493e+00 4.1161634040e+00 
9900 5.3457050215e+00 9.7736386440e-02 2.3743576834e+00 -4.1125081430e+00 2.3743576834e+00 4.1125081430e+00 
10000 5.3453677840e+00 9.5282723558e-02 2.3722998163e+00 -4.1089438125e+00 2.3722998163e+00 4.1089438125e+00 
10100 5.3450438024e+00 9.2956158652e-02 2.3702918646e+00 -4.1054659382e+00 2.3702918646e+00 4.1054659382e+00 
10200 5.3447343831e+00 9.0754448298e-02 2.3683312762e+00 -4.1020700996e+00 2.3683312762e+00 4.1020700996e+00 
10300 5.3444405923e+00 8.8675172402e-02 2.3664155349e+00 -4.0987519383e+00 2.3664155349e+00 4.0987519383e+00 
10400 5.3441632571e+00 8.6715742961e-02 2.3645421644e+00 -4.0955071654e+00 2.3645421644e+00 4.0955071654e+00 
10500 5.3439029694e+00 8.4873412707e-02 2.3627087328e+00 -4.0923315687e+00 2.3627087328e+00 4.0923315687e+00 
10600 5.3436600930e+00 8.3145283672e-02 2.3609128565e+00 -4.0892210197e+00 2.3609128565e+00 4.0892210197e+00 
10700 5.3434347724e+00 8.1528315707e-02 2.3591522041e+00 -4.0861714802e+00 2.3591522041e+00 4.0861714802e+00 
10800 5.3432269446e+00 8.0019334978e-02 2.3574244996e+00 -4.0831790083e+00 2.3574244996e+00 4.0831790083e+00 
10900 5.3430363514e+00 7.8615042493e-02 2.3557275263e+00 -4.0802397644e+00 2.3557275263e+00 4.0802397644e+00 
11000 5.3428625551e+00 7.7312022671e-02 2.3540591298e+00 -4.0773500168e+00 2.3540591298e+00 4.0773500168e+00 
11100 5.3427049535e+00 7.6106751985e-02 2.3524172205e+00 -4.0745061466e+00 2.3524172205e+00 4.0745061466e+00 
11200 5.3425627976e+00 7.4995607714e-02 2.3507997774e+00 -4.0717046528e+00 2.3507997774e+00 4.0717046528e+00 
11300 5.3424352091e+00 7.3974876815e-02 2.3492048495e+00 -4.0689421567e+00 2.3492048495e+00 4.0689421567e+00 
11400 5.3423211987e+00 7.3040764944e-02 2.3476305592e+00 -4.0662154059e+00 2.3476305592e+00 4.0662154059e+00 
11500 5.3422196850e+00 7.2189405625e-02 2.3460751038e+00 -4.0635212781e+00 2.3460751038e+00 4.0635212781e+00 
11600 5.3421295129e+00 7.1416869597e-02 2.3445367577e+00 -4.0608567845e+00 2.3445367577e+00 4.0608567845e+00 
11700 5.3420494724e+00 7.0719174321e-02 2.3430138741e+00 -4.0582190727e+00 2.3430138741e+00 4.0582190727e+00 
11800 5.3419783168e+00 7.0092293668e-02 2.3415048865e+00 -4.0556054295e+00 2.3415048865e+00 4.0556054295e+00 
11900 5.3419147804e+00 6.9532167763e-02 2.3400083100e+00 -4.0530132831e+00 2.3400083100e+00 4.0530132831e+00 
12000 5.3418575955e+00 6.9034712987e-02 2.3385227425e+00 -4.0504402047e+00 2.3385227425e+00 4.0504402047e+00 
12100 5.3418055088e+00 6.8595832107e-02 2.3370468654e+00 -4.0478839105e+00 2.3370468654e+00 4.0478839105e+00 
12200 5.3417572960e+00 6.8211424523e-02 2.3355794440e+00 -4.0453422622e+00 2.3355794440e+00 4.0453422622e+00 
12300 5.3417117764e+00 6.7877396594e-02 2.3341193286e+00 -4.0428132681e+00 2.3341193286e+00 4.0428132681e+00 
12400 5.3416678254e+00 6.7589672019e-02 2.3326654538e+00 -4.0402950831e+00 2.3326654538e+00 4.0402950831e+00 
12500 5.3416243857e+00 6.7344202219e-02 2.3312168391e+00 -4.0377860087e+00 2.3312168391e+00 4.0377860087e+00 
12600 5.3415804778e+00 6.7136976697e-02 2.3297725881e+00 -4.0352844927e+00 2.3297725881e+00 4.0352844927e+00 
12700 5.3415352081e+00 6.6964033317e-02 2.3283318884e+00 -4.0327891276e+00 2.3283318884e+00 4.0327891276e+00 
12800 5.3414877762e+00 6.6821468454e-02 2.3268940106e+00 -4.0302986502e+00 2.3268940106e+00 4.0302986502e+00 
12900 5.3414374801e+00 6.6705446969e-02 2.3254583072e+00 -4.0278119390e+00 2.3254583072e+00 4.0278119390e+00 
13000 5.3413837203e+00 6.6612211953e-02 2.3240242117e+00 -4.0253280127e+00 2.3240242117e+00 4.0253280127e+00 
13100 5.3413260026e+00 6.6538094183e-02 2.3225912369e+00 -4.0228460276e+00 2.3225912369e+00 4.0228460276e+00 
13200 5.3412639383e+00 6.6479521244e-02 2.3211589735e+00 -4.0203652745e+00 2.3211589735e+00 4.0203652745e+00 
13300 5.3411972442e+00 6.6433026251e-02 2.3197270879e+00 -4.0178851759e+00 2.3197270879e+00 4.0178851759e+00 
13400 5.3411257410e+00 6.6395256138e-02 2.3182953206e+00 -4.0154052822e+00 2.3182953206e+00 4.0154052822e+00 
13500 5.3410493497e+00 6.6362979450e-02 2.3168634837e+00 -4.0129252680e+00 2.3168634837e+00 4.0129252680e+00 
13600 5.3409680875e+00 6.6333093592e-02 2.3154314585e+00 -4.0104449275e+00 2.3154314585e+00 4.0104449275e+00 
13700 5.3408820625e+00 6.6302631508e-02 2.3139991930e+00 -4.0079641710e+00 2.3139991930e+00 4.0079641710e+00 
13800 5.3407914677e+00 6.6268767730e-02 2.3125666993e+00 -4.0054830191e+00 2.3125666993e+00 4.0054830191e+00 
13900 5.3406965731e+00 6.6228823788e-02 2.3111340505e+00 -4.0030015985e+00 2.3111340505e+00 4.0030015985e+00 
14000 5.3405977187e+00 6.6180272932e-02 2.3097013777e+00 -4.0005201365e+00 2.3097013777e+00 4.0005201365e+00 
14100 5.3404953055e+00 6.6120744157e-02 2.3082688673e+00 -3.9980389556e+00 2.3082688673e+00 3.9980389556e+00 
14200 5.3403897871e+00 6.6048025511e-02 2.3068367572e+00 -3.9955584682e+00 2.3068367572e+00 3.9955584682e+00 
14300 5.3402816606e+00 6.5960066679e-02 2.3054053340e+00 -3.9930791706e+00 2.3054053340e+00 3.9930791706e+00 
14400 5.3401714572e+00 6.5854980828e-02 2.3039749296e+00 -3.9906016374e+00 2.3039749296e+00 3.9906016374e+00 
14500 5.3400597331e+00 6.5731045738e-02 2.3025459173e+00 -3.9881265156e+00 2.3025459173e+00 3.9881265156e+00 
14600 5.3399470603e+00 6.5586704195e-02 2.3011187091e+00 -3.9856545184e+00 2.3011187091e+00 3.9856545184e+00 
14700 5.3398340181e+00 6.5420563696e-02 2.2996937515e+00 -3.9831864195e+00 2.2996937515e+00 3.9831864195e+00 
14800 5.3397211841e+00 6.5231395451e-02 2.2982715227e+00 -3.9807230469e+00 2.2982715227e+00 3.9807230469e+00 
14900 5.3396091267e+00 6.5018132729e-02 2.2968525285e+00 -3.9782652769e+00 2.2968525285e+00 3.9782652769e+00 
15000 5.3394983972e+00 6.4779868571e-02 2.2954372994e+00 -3.9758140282e+00 2.2954372994e+00 3.9758140282e+00 
15100 5.3393895231e+00 6.4515852895e-02 2.2940263868e+00 -3.9733702559e+00 2.2940263868e+00 3.9733702559e+00 
15200 5.3392830021e+00 6.4225489039e-02 2.2926203599e+00 -3.9709349458e+00 2.2926203599e+00 3.9709349458e+00 
15300 5.3391792963e+00 6.3908329771e-02 2.2912198021e+00 -3.9685091086e+00 2.2912198021e+00 3.9685091086e+00 
15400 5.3390788281e+00 6.3564072826e-02 2.2898253082e+00 -3.9660937742e+00 2.2898253082e+00 3.9660937742e+00 
15500 5.3389819756e+00 6.3192555983e-02 2.2884374807e+00 -3.9636899866e+00 2.2884374807e+00 3.9636899866e+00 
15600 5.3388890705e+00 6.2793751756e-02 2.2870569275e+00 -3.9612987982e+00 2.2870569275e+00 3.9612987982e+00 
15700 5.3388003950e+00 6.2367761727e-02 2.2856842580e+00 -3.9589212648e+00 2.2856842580e+00 3.9589212648e+00 
15800 5.3387161810e+00 6.1914810577e-02 2.2843200811e+00 -3.9565584411e+00 2.2843200811e+00 3.9565584411e+00 
15900 5.3386366094e+00 6.1435239844e-02 2.2829650020e+00 -3.9542113754e+00 2.2829650020e+00 3.9542113754e+00 
16000 5.3385618099e+00 6.0929501471e-02 2.2816196200e+00 -3.9518811054e+00 2.2816196200e+00 3.9518811054e+00 
16100 5.3384918619e+00 6.0398151180e-02 2.2802845255e+00 -3.9495686539e+00 2.2802845255e+00 3.9495686539e+00 
16200 5.3384267962e+00 5.9841841707e-02 2.2789602982e+00 -3.9472750249e+00 2.2789602982e+00 3.9472750249e+00 
16300 5.3383665968e+00 5.9261315949e-02 2.2776475045e+00 -3.9450011996e+00 2.2776475045e+00 3.9450011996e+00 
16400 5.3383112034e+00 5.8657400057e-02 2.2763466959e+00 -3.9427481329e+00 2.2763466959e+00 3.9427481329e+00 
16500 5.3382605146e+00 5.8030996508e-02 2.2750584065e+00 -3.9405167503e+00 2.2750584065e+00 3.9405167503e+00 
16600 5.3382143911e+00 5.7383077193e-02 2.2737831520e+00 -3.9383079447e+00 2.2737831520e+00 3.9383079447e+00 
16700 5.3381726594e+00 5.6714676558e-02 2.2725214273e+00 -3.9361225734e+00 2.2725214273e+00 3.9361225734e+00 
16800 5.3381351157e+00 5.6026884816e-02 2.2712737057e+00 -3.9339614561e+00 2.2712737057e+00 3.9339614561e+00 
16900 5.3381015304e+00 5.5320841260e-02 2.2700404371e+00 -3.9318253722e+00 2.2700404371e+00 3.9318253722e+00 
17000 5.3380716516e+00 5.4597727711e-02 2.2688220471e+00 -3.9297150589e+00 2.2688220471e+00 3.9297150589e+00 
17100 5.3380452098e+00 5.3858762112e-02 2.2676189360e+00 -3.9276312094e+00 2.2676189360e+00 3.9276312094e+00 
17200 5.3380219219e+00 5.3105192284e-02 2.2664314777e+00 -3.9255744713e+00 2.2664314777e+00 3.9255744713e+00 
17300 5.3380014954e+00 5.2338289881e-02 2.2652600191e+00 -3.9235454454e+00 2.2652600191e+00 3.9235454454e+00 
17400 5.3379836326e+00 5.1559344535e-02 2.2641048793e+00 -3.9215446846e+00 2.2641048793e+00 3.9215446846e+00 
17500 5.3379680336e+00 5.0769658219e-02 2.2629663494e+00 -3.9195726930e+00 2.2629663494e+00 3.9195726930e+00 
17600 5.3379544010e+00 4.9970539837e-02 2.2618446920e+00 -3.9176299253e+00 2.2618446920e+00 3.9176299253e+00 
17700 5.3379424423e+00 4.9163300043e-02 2.2607401406e+00 -3.9157167863e+00 2.2607401406e+00 3.9157167863e+00 
17800 5.3379318732e+00 4.8349246310e-02 2.2596529003e+00 -3.9138336308e+00 2.2596529003e+00 3.9138336308e+00 
17900 5.3379224207e+00 4.7529678235e-02 2.2585831469e+00 -3.9119807635e+00 2.2585831469e+00 3.9119807635e+00 
18000 5.3379138248e+00 4.6705883109e-02 2.2575310274e+00 -3.9101584391e+00 2.2575310274e+00 3.9101584391e+00 
18100 5.3379058414e+00 4.5879131734e-02 2.2564966603e+00 -3.9083668628e+00 2.2564966603e+00 3.9083668628e+00 
18200 5.3378982433e+00 4.5050674496e-02 2.2554801358e+00 -3.9066061907e+00 2.2554801358e+00 3.9066061907e+00 
18300 5.3378908220e+00 4.4221737703e-02 2.2544815159e+00 -3.9048765302e+00 2.2544815159e+00 3.9048765302e+00 
18400 5.3378833888e+00 4.3393520173e-02 2.2535008352e+00 -3.9031779414e+00 2.2535008352e+00 3.9031779414e+00 
18500 5.3378757752e+00 4.2567190082e-02 2.2525381014e+00 -3.9015104375e+00 2.2525381014e+00 3.9015104375e+00 
18600 5.3378678340e+00 4.1743882063e-02 2.2515932957e+00 -3.8998739862e+00 2.2515932957e+00 3.8998739862e+00 
18700 5.3378594386e+00 4.0924694558e-02 2.2506663740e+00 -3.8982685106e+00 2.2506663740e+00 3.8982685106e+00 
18800 5.3378504838e+00 4.0110687412e-02 2.2497572668e+00 -3.8966938908e+00 2.2497572668e+00 3.8966938908e+00 
18900 5.3378408848e+00 3.9302879718e-02 2.2488658809e+00 -3.8951499652e+00 2.2488658809e+00 3.8951499652e+00 
19000 5.3378305767e+00 3.8502247888e-02 2.2479920998e+00 -3.8936365318e+00 2.2479920998e+00 3.8936365318e+00 
19100 5.3378195140e+00 3.7709723967e-02 2.2471357844e+00 -3.8921533501e+00 2.2471357844e+00 3.8921533501e+00 
19200 5.3378076694e+00 3.6926194164e-02 2.2462967747e+00 -3.8907001426e+00 2.2462967747e+00 3.8907001426e+00 
19300 5.3377950327e+00 3.6152497605e-02 2.2454748899e+00 -3.8892765965e+00 2.2454748899e+00 3.8892765965e+00 
19400 5.3377816096e+00 3.5389425301e-02 2.2446699302e+00 -3.8878823653e+00 2.2446699302e+00 3.8878823653e+00 
19500 5.3377674204e+00 3.4637719321e-02 2.2438816773e+00 -3.8865170712e+00 2.2438816773e+00 3.8865170712e+00 
19600 5.3377524986e+00 3.3898072157e-02 2.2431098956e+00 -3.8851803062e+00 2.2431098956e+00 3.8851803062e+00 
19700 5.3377368890e+00 3.3171126288e-02 2.2423543337e+00 -3.8838716346e+00 2.2423543337e+00 3.8838716346e+00 
19800 5.3377206470e+00 3.2457473921e-02 2.2416147249e+00 -3.8825905945e+00 2.2416147249e+00 3.8825905945e+00 
19900 5.3377038363e+00 3.1757656911e-02 2.2408907886e+00 -3.8813367000e+00 2.2408907886e+00 3.8813367000e+00 
20000 5.3376865278e+00 3.1072166841e-02 2.2401822314e+00 -3.8801094431e+00 2.2401822314e+00 3.8801094431e+00 
20100 5.3376687981e+00 3.0401445271e-02 2.2394887485e+00 -3.8789082954e+00 2.2394887485e+00 3.8789082954e+00 
20200 5.3376507279e+00 2.9745884127e-02 2.2388100242e+00 -3.8777327104e+00 2.2388100242e+00 3.8777327104e+00 
20300 5.3376324007e+00 2.9105826238e-02 2.2381457335e+00 -3.8765821252e+00 2.2381457335e+00 3.8765821252e+00 
20400 5.3376139017e+00 2.8481566011e-02 2.2374955431e+00 -3.8754559624e+00 2.2374955431e+00 3.8754559624e+00 
20500 5.3375953161e+00 2.7873350219e-02 2.2368591125e+00 -3.8743536322e+00 2.2368591125e+00 3.8743536322e+00 
20600 5.3375767285e+00 2.7281378923e-02 2.2362360948e+00 -3.8732745339e+00 2.2362360948e+00 3.8732745339e+00 
20700 5.3375582214e+00 2.6705806494e-02 2.2356261382e+00 -3.8722180581e+00 2.2356261382e+00 3.8722180581e+00 
20800 5.3375398744e+00 2.6146742738e-02 2.2350288868e+00 -3.8711835883e+00 2.2350288868e+00 3.8711835883e+00 
20900 5.3375217638e+00 2.5604254117e-02 2.2344439816e+00 -3.8701705027e+00 2.2344439816e+00 3.8701705027e+00 
21000 5.3375039610e+00 2.5078365059e-02 2.2338710614e+00 -3.8691781759e+00 2.2338710614e+00 3.8691781759e+00 
21100 5.3374865327e+00 2.4569059343e-02 2.2333097641e+00 -3.8682059805e+00 2.2333097641e+00 3.8682059805e+00 
21200 5.3374695398e+00 2.4076281557e-02 2.2327597274e+00 -3.8672532889e+00 2.2327597274e+00 3.8672532889e+00 
21300 5.3374530374e+00 2.3599938620e-02 2.2322205894e+00 -3.8663194745e+00 2.2322205894e+00 3.8663194745e+00 
21400 5.3374370744e+00 2.3139901361e-02 2.2316919900e+00 -3.8654039135e+00 2.2316919900e+00 3.8654039135e+00 
21500 5.3374216929e+00 2.2696006154e-02 2.2311735716e+00 -3.8645059865e+00 2.2311735716e+00 3.8645059865e+00 
21600 5.3374069288e+00 2.2268056586e-02 2.2306649795e+00 -3.8636250792e+00 2.2306649795e+00 3.8636250792e+00 
21700 5.3373928111e+00 2.1855825171e-02 2.2301658632e+00 -3.8627605843e+00 2.2301658632e+00 3.8627605843e+00 
21800 5.3373793623e+00 2.1459055092e-02 2.2296758767e+00 -3.8619119028e+00 2.2296758767e+00 3.8619119028e+00 
21900 5.3373665985e+00 2.1077461965e-02 2.2291946793e+00 -3.8610784445e+00 2.2291946793e+00 3.8610784445e+00 
22000 5.3373545294e+00 2.0710735627e-02 2.2287219364e+00 -3.8602596299e+00 2.2287219364e+00 3.8602596299e+00 
22100 5.3373431591e+00 2.0358541933e-02 2.2282573200e+00 -3.8594548906e+00 2.2282573200e+00 3.8594548906e+00 
22200 5.3373324855e+00 2.0020524557e-02 2.2278005091e+00 -3.8586636709e+00 2.2278005091e+00 3.8586636709e+00 
22300 5.3373225015e+00 1.9696306804e-02 2.2273511903e+00 -3.8578854280e+00 2.2273511903e+00 3.8578854280e+00 
22400 5.3373131951e+00 1.9385493411e-02 2.2269090585e+00 -3.8571196332e+00 2.2269090585e+00 3.8571196332e+00 
22500 5.3373045495e+00 1.9087672340e-02 2.2264738171e+00 -3.8563657730e+00 2.2264738171e+00 3.8563657730e+00 
22600 5.3372965443e+00 1.8802416562e-02 2.2260451784e+00 -3.8556233488e+00 2.2260451784e+00 3.8556233488e+00 
22700 5.3372891550e+00 1.8529285820e-02 2.2256228639e+00 -3.8548918787e+00 2.2256228639e+00 3.8548918787e+00 
22800 5.3372823544e+00 1.8267828370e-02 2.2252066049e+00 -3.8541708971e+00 2.2252066049e+00 3.8541708971e+00 
22900 5.3372761125e+00 1.8017582696e-02 2.2247961427e+00 -3.8534599556e+00 2.2247961427e+00 3.8534599556e+00 
23000 5.3372703971e+00 1.7778079196e-02 2.2243912284e+00 -3.8527586234e+00 2.2243912284e+00 3.8527586234e+00 
23100 5.3372651744e+00 1.7548841829e-02 2.2239916236e+00 -3.8520664877e+00 2.2239916236e+00 3.8520664877e+00 
23200 5.3372604094e+00 1.7329389730e-02 2.2235971005e+00 -3.8513831536e+00 2.2235971005e+00 3.8513831536e+00 
23300 5.3372560661e+00 1.7119238782e-02 2.2232074417e+00 -3.8507082447e+00 2.2232074417e+00 3.8507082447e+00 
23400 5.3372521086e+00 1.6917903140e-02 2.2228224406e+00 -3.8500414033e+00 2.2228224406e+00 3.8500414033e+00 
23500 5.3372485004e+00 1.6724896713e-02 2.2224419014e+00 -3.8493822902e+00 2.2224419014e+00 3.8493822902e+00 
23600 5.3372452061e+00 1.6539734591e-02 2.2220656391e+00 -3.8487305846e+00 2.2220656391e+00 3.8487305846e+00 
23700 5.3372421904e+00 1.6361934425e-02 2.2216934792e+00 -3.8480859848e+00 2.2216934792e+00 3.8480859848e+00 
23800 5.3372394195e+00 1.6191017747e-02 2.2213252582e+00 -3.8474482074e+00 2.2213252582e+00 3.8474482074e+00 
23900 5.3372368607e+00 1.6026511233e-02 2.2209608232e+00 -3.8468169874e+00 2.2209608232e+00 3.8468169874e+00 
24000 5.3372344830e+00 1.5867947913e-02 2.2206000317e+00 -3.8461920782e+00 2.2206000317e+00 3.8461920782e+00 
24100 5.3372322571e+00 1.5714868315e-02 2.2202427516e+00 -3.8455732509e+00 2.2202427516e+00 3.8455732509e+00 
24200 5.3372301557e+00 1.5566821547e-02 2.2198888612e+00 -3.8449602948e+00 2.2198888612e+00 3.8449602948e+00 
24300 5.3372281535e+00 1.5423366317e-02 2.2195382488e+00 -3.8443530163e+00 2.2195382488e+00 3.8443530163e+00 
24400 5.3372262276e+00 1.5284071893e-02 2.2191908125e+00 -3.8437512390e+00 2.2191908125e+00 3.8437512390e+00 
24500 5.3372243570e+00 1.5148518986e-02 2.2188464600e+00 -3.8431548030e+00 2.2188464600e+00 3.8431548030e+00 
24600 5.3372225234e+00 1.5016300586e-02 2.2185051086e+00 -3.8425635649e+00 2.2185051086e+00 3.8425635649e+00 
24700 5.3372207106e+00 1.4887022710e-02 2.2181666843e+00 -3.8419773969e+00 2.2181666843e+00 3.8419773969e+00 
24800 5.3372189047e+00 1.4760305105e-02 2.2178311224e+00 -3.8413961865e+00 2.2178311224e+00 3.8413961865e+00 
24900 5.3372170943e+00 1.4635781865e-02 2.2174983663e+00 -3.8408198361e+00 2.2174983663e+00 3.8408198361e+00 
25000 5.3372152699e+00 1.4513102003e-02 2.2171683679e+00 -3.8402482621e+00 2.2171683679e+00 3.8402482621e+00 
25100 5.3372134243e+00 1.4391929936e-02 2.2168410868e+00 -3.8396813946e+00 2.2168410868e+00 3.8396813946e+00 
25200 5.3372115522e+00 1.4271945923e-02 2.2165164902e+00 -3.8391191769e+00 2.2165164902e+00 3.8391191769e+00 
25300 5.3372096503e+00 1.4152846429e-02 2.2161945526e+00 -3.8385615646e+00 2.2161945526e+00 3.8385615646e+00 
25400 5.3372077170e+00 1.4034344429e-02 2.2158752552e+00 -3.8380085252e+00 2.2158752552e+00 3.8380085252e+00 
25500 5.3372057524e+00 1.3916169649e-02 2.2155585855e+00 -3.8374600372e+00 2.2155585855e+00 3.8374600372e+00 
25600 5.3372037579e+00 1.3798068747e-02 2.2152445373e+00 -3.8369160899e+00 2.2152445373e+00 3.8369160899e+00 
25700 5.3372017364e+00 1.3679805438e-02 2.2149331102e+00 -3.8363766823e+00 2.2149331102e+00 3.8363766823e+00 
25800 5.3371996917e+00 1.3561160554e-02 2.2146243088e+00 -3.8358418226e+00 2.2146243088e+00 3.8358418226e+00 
25900 5.3371976289e+00 1.3441932057e-02 2.2143181430e+00 -3.8353115277e+00 2.2143181430e+00 3.8353115277e+00 
26000 5.3371955536e+00 1.3321934990e-02 2.2140146268e+00 -3.8347858224e+00 2.2140146268e+00 3.8347858224e+00 
26100 5.3371934722e+00 1.3201001384e-02 2.2137137789e+00 -3.8342647385e+00 2.2137137789e+00 3.8342647385e+00 
26200 5.3371913916e+00 1.3078980107e-02 2.2134156215e+00 -3.8337483147e+00 2.2134156215e+00 3.8337483147e+00 
26300 5.3371893190e+00 1.2955736672e-02 2.2131201802e+00 -3.8332365953e+00 2.2131201802e+00 3.8332365953e+00 
26400 5.3371872618e+00 1.2831152996e-02 2.2128274837e+00 -3.8327296301e+00 2.2128274837e+00 3.8327296301e+00 
26500 5.3371852275e+00 1.2705127118e-02 2.2125375633e+00 -3.8322274734e+00 2.2125375633e+00 3.8322274734e+00 
26600 5.3371832235e+00 1.2577572873e-02 2.2122504529e+00 -3.8317301835e+00 2.2122504529e+00 3.8317301835e+00 
26700 5.3371812570e+00 1.2448419535e-02 2.2119661880e+00 -3.8312378222e+00 2.2119661880e+00 3.8312378222e+00 
26800 5.3371793349e+00 1.2317611411e-02 2.2116848059e+00 -3.8307504541e+00 2.2116848059e+00 3.8307504541e+00 
26900 5.3371774638e+00 1.2185107419e-02 2.2114063450e+00 -3.8302681457e+00 2.2114063450e+00 3.8302681457e+00 
27000 5.3371756497e+00 1.2050880621e-02 2.2111308449e+00 -3.8297909655e+00 2.2111308449e+00 3.8297909655e+00 
27100 5.3371738983e+00 1.1914917735e-02 2.2108583456e+00 -3.8293189828e+00 2.2108583456e+00 3.8293189828e+00 
27200 5.3371722144e+00 1.1777218620e-02 2.2105888874e+00 -3.8288522676e+00 2.2105888874e+00 3.8288522676e+00 
27300 5.3371706024e+00 1.1637795735e-02 2.2103225108e+00 -3.8283908899e+00 2.2103225108e+00 3.8283908899e+00 
27400 5.3371690659e+00 1.1496673587e-02 2.2100592559e+00 -3.8279349190e+00 2.2100592559e+00 3.8279349190e+00 
27500 5.3371676080e+00 1.1353888146e-02 2.2097991623e+00 -3.8274844236e+00 2.2097991623e+00 3.8274844236e+00 
27600 5.3371662307e+00 1.1209486259e-02 2.2095422686e+00 -3.8270394707e+00 2.2095422686e+00 3.8270394707e+00 
27700 5.3371649358e+00 1.1063525040e-02 2.2092886126e+00 -3.8266001257e+00 2.2092886126e+00 3.8266001257e+00 
27800 5.3371637240e+00 1.0916071259e-02 2.2090382308e+00 -3.8261664516e+00 2.2090382308e+00 3.8261664516e+00 
27900 5.3371625955e+00 1.0767200713e-02 2.2087911579e+00 -3.8257385088e+00 2.2087911579e+00 3.8257385088e+00 
28000 5.3371615500e+00 1.0616997599e-02 2.2085474273e+00 -3.8253163549e+00 2.2085474273e+00 3.8253163549e+00 
28100 5.3371605862e+00 1.0465553878e-02 2.2083070701e+00 -3.8249000441e+00 2.2083070701e+00 3.8249000441e+00 
28200 5.3371597025e+00 1.0312968639e-02 2.2080701155e+00 -3.8244896268e+00 2.2080701155e+00 3.8244896268e+00 
28300 5.3371588968e+00 1.0159347463e-02 2.2078365907e+00 -3.8240851498e+00 2.2078365907e+00 3.8240851498e+00 
28400 5.3371581663e+00 1.0004801793e-02 2.2076065199e+00 -3.8236866557e+00 2.2076065199e+00 3.8236866557e+00 
28500 5.3371575079e+00 9.8494483001e-03 2.2073799254e+00 -3.8232941824e+00 2.2073799254e+00 3.8232941824e+00 
28600 5.3371569181e+00 9.6934082632e-03 2.2071568265e+00 -3.8229077637e+00 2.2071568265e+00 3.8229077637e+00 
28700 5.3371563932e+00 9.5368069539e-03 2.2069372397e+00 -3.8225274283e+00 2.2069372397e+00 3.8225274283e+00 
28800 5.3371559290e+00 9.3797730302e-03 2.2067211790e+00 -3.8221532001e+00 2.2067211790e+00 3.8221532001e+00 
28900 5.3371555212e+00 9.2224379420e-03 2.2065086550e+00 -3.8217850978e+00 2.2065086550e+00 3.8217850978e+00 
29000 5.3371551654e+00 9.0649353491e-03 2.2062996757e+00 -3.8214231351e+00 2.2062996757e+00 3.8214231351e+00 
29100 5.3371548570e+00 8.9074005523e-03 2.2060942459e+00 -3.8210673202e+00 2.2060942459e+00 3.8210673202e+00 
29200 5.3371545915e+00 8.7499699409e-03 2.2058923673e+00 -3.8207176562e+00 2.2058923673e+00 3.8207176562e+00 
29300 5.3371543642e+00 8.5927804555e-03 2.2056940385e+00 -3.8203741407e+00 2.2056940385e+00 3.8203741407e+00 
29400 5.3371541707e+00 8.4359690686e-03 2.2054992551e+00 -3.8200367658e+00 2.2054992551e+00 3.8200367658e+00 
29500 5.3371540065e+00 8.2796722834e-03 2.2053080093e+00 -3.8197055185e+00 2.2053080093e+00 3.8197055185e+00 
29600 5.3371538673e+00 8.1240256525e-03 2.2051202905e+00 -3.8193803800e+00 2.2051202905e+00 3.8193803800e+00 
29700 5.3371537491e+00 7.9691633158e-03 2.2049360849e+00 -3.8190613264e+00 2.2049360849e+00 3.8190613264e+00 
29800 5.3371536478e+00 7.8152175602e-03 2.2047553755e+00 -3.8187483285e+00 2.2047553755e+00 3.8187483285e+00 
29900 5.3371535600e+00 7.6623183999e-03 2.2045781423e+00 -3.8184413518e+00 2.2045781423e+00 3.8184413518e+00 
30000 5.3371534820e+00 7.5105931797e-03 2.2044043627e+00 -3.8181403566e+00 2.2044043627e+00 3.8181403566e+00 
30100 5.3371534109e+00 7.3601661996e-03 2.2042340106e+00 -3.8178452981e+00 2.2042340106e+00 3.8178452981e+00 
30200 5.3371533437e+00 7.2111583631e-03 2.2040670575e+00 -3.8175561269e+00 2.2040670575e+00 3.8175561269e+00 
30300 5.3371532780e+00 7.0636868485e-03 2.2039034720e+00 -3.8172727885e+00 2.2039034720e+00 3.8172727885e+00 
30400 5.3371532115e+00 6.9178648035e-03 2.2037432199e+00 -3.8169952238e+00 2.2037432199e+00 3.8169952238e+00 
30500 5.3371531422e+00 6.7738010628e-03 2.2035862647e+00 -3.8167233693e+00 2.2035862647e+00 3.8167233693e+00 
30600 5.3371530687e+00 6.6315998900e-03 2.2034325670e+00 -3.8164571571e+00 2.2034325670e+00 3.8164571571e+00 
30700 5.3371529895e+00 6.4913607423e-03 2.2032820853e+00 -3.8161965152e+00 2.2032820853e+00 3.8161965152e+00 
30800 5.3371529037e+00 6.3531780593e-03 2.2031347758e+00 -3.8159413676e+00 2.2031347758e+00 3.8159413676e+00 
30900 5.3371528106e+00 6.2171410743e-03 2.2029905924e+00 -3.8156916346e+00 2.2029905924e+00 3.8156916346e+00 
31000 5.3371527097e+00 6.0833336494e-03 2.2028494871e+00 -3.8154472330e+00 2.2028494871e+00 3.8154472330e+00 
31100 5.3371526007e+00 5.9518341328e-03 2.2027114098e+00 -3.8152080761e+00 2.2027114098e+00 3.8152080761e+00 
31200 5.3371524838e+00 5.8227152387e-03 2.2025763087e+00 -3.8149740742e+00 2.2025763087e+00 3.8149740742e+00 
31300 5.3371523592e+00 5.6960439494e-03 2.2024441304e+00 -3.8147451346e+00 2.2024441304e+00 3.8147451346e+00 
31400 5.3371522273e+00 5.5718814386e-03 2.2023148198e+00 -3.8145211621e+00 2.2023148198e+00 3.8145211621e+00 
31500 5.3371520887e+00 5.4502830163e-03 2.2021883204e+00 -3.8143020588e+00 2.2021883204e+00 3.8143020588e+00 
31600 5.3371519443e+00 5.3312980936e-03 2.2020645746e+00 -3.8140877247e+00 2.2020645746e+00 3.8140877247e+00 
31700 5.3371517949e+00 5.2149701682e-03 2.2019435234e+00 -3.8138780580e+00 2.2019435234e+00 3.8138780580e+00 
31800 5.3371516416e+00 5.1013368283e-03 2.2018251070e+00 -3.8136729548e+00 2.2018251070e+00 3.8136729548e+00 
31900 5.3371514854e+00 4.9904297763e-03 2.2017092647e+00 -3.8134723099e+00 2.2017092647e+00 3.8134723099e+00 
32000 5.3371513275e+00 4.8822748694e-03 2.2015959349e+00 -3.8132760169e+00 2.2015959349e+00 3.8132760169e+00 
32100 5.3371511690e+00 4.7768921782e-03 2.2014850554e+00 -3.8130839681e+00 2.2014850554e+00 3.8130839681e+00 
32200 5.3371510112e+00 4.6742960612e-03 2.2013765638e+00 -3.8128960551e+00 2.2013765638e+00 3.8128960551e+00 
32300 5.3371508554e+00 4.5744952557e-03 2.2012703971e+00 -3.8127121690e+00 2.2012703971e+00 3.8127121690e+00 
32400 5.3371507026e+00 4.4774929829e-03 2.2011664921e+00 -3.8125322003e+00 2.2011664921e+00 3.8125322003e+00 
32500 5.3371505541e+00 4.3832870676e-03 2.2010647856e+00 -3.8123560395e+00 2.2010647856e+00 3.8123560395e+00 
32600 5.3371504109e+00 4.2918700711e-03 2.2009652144e+00 -3.8121835771e+00 2.2009652144e+00 3.8121835771e+00 
32700 5.3371502742e+00 4.2032294360e-03 2.2008677154e+00 -3.8120147038e+00 2.2008677154e+00 3.8120147038e+00 
32800 5.3371501450e+00 4.1173476435e-03 2.2007722258e+00 -3.8118493110e+00 2.2007722258e+00 3.8118493110e+00 
32900 5.3371500240e+00 4.0342023805e-03 2.2006786832e+00 -3.8116872905e+00 2.2006786832e+00 3.8116872905e+00 
33000 5.3371499121e+00 3.9537667172e-03 2.2005870257e+00 -3.8115285350e+00 2.2005870257e+00 3.8115285350e+00 
33100 5.3371498101e+00 3.8760092933e-03 2.2004971920e+00 -3.8113729384e+00 2.2004971920e+00 3.8113729384e+00 
33200 5.3371497186e+00 3.8008945124e-03 2.2004091213e+00 -3.8112203956e+00 2.2004091213e+00 3.8112203956e+00 
33300 5.3371496380e+00 3.7283827434e-03 2.2003227540e+00 -3.8110708030e+00 2.2003227540e+00 3.8110708030e+00 
33400 5.3371495687e+00 3.6584305293e-03 2.2002380310e+00 -3.8109240584e+00 2.2002380310e+00 3.8109240584e+00 
33500 5.3371495112e+00 3.5909907998e-03 2.2001548944e+00 -3.8107800616e+00 2.2001548944e+00 3.8107800616e+00 
33600 5.3371494654e+00 3.5260130905e-03 2.2000732872e+00 -3.8106387138e+00 2.2000732872e+00 3.8106387138e+00 
33700 5.3371494316e+00 3.4634437645e-03 2.1999931537e+00 -3.8104999185e+00 2.1999931537e+00 3.8104999185e+00 
33800 5.3371494096e+00 3.4032262378e-03 2.1999144393e+00 -3.8103635812e+00 2.1999144393e+00 3.8103635812e+00 
33900 5.3371493995e+00 3.3453012069e-03 2.1998370907e+00 -3.8102296094e+00 2.1998370907e+00 3.8102296094e+00 
34000 5.3371494010e+00 3.2896068778e-03 2.1997610559e+00 -3.8100979134e+00 2.1997610559e+00 3.8100979134e+00 
34100 5.3371494137e+00 3.2360791957e-03 2.1996862844e+00 -3.8099684053e+00 2.1996862844e+00 3.8099684053e+00 
34200 5.3371494374e+00 3.1846520749e-03 2.1996127271e+00 -3.8098410003e+00 2.1996127271e+00 3.8098410003e+00 
34300 5.3371494716e+00 3.1352576278e-03 2.1995403363e+00 -3.8097156158e+00 2.1995403363e+00 3.8097156158e+00 
34400 5.3371495159e+00 3.0878263928e-03 2.1994690659e+00 -3.8095921719e+00 2.1994690659e+00 3.8095921719e+00 
34500 5.3371495695e+00 3.0422875597e-03 2.1993988715e+00 -3.8094705915e+00 2.1993988715e+00 3.8094705915e+00 
34600 5.3371496321e+00 2.9985691929e-03 2.1993297101e+00 -3.8093508004e+00 2.1993297101e+00 3.8093508004e+00 
34700 5.3371497029e+00 2.9565984514e-03 2.1992615403e+00 -3.8092327270e+00 2.1992615403e+00 3.8092327270e+00 
34800 5.3371497813e+00 2.9163018042e-03 2.1991943227e+00 -3.8091163026e+00 2.1991943227e+00 3.8091163026e+00 
34900 5.3371498665e+00 2.8776052421e-03 2.1991280192e+00 -3.8090014615e+00 2.1991280192e+00 3.8090014615e+00 
35000 5.3371499580e+00 2.8404344844e-03 2.1990625934e+00 -3.8088881409e+00 2.1990625934e+00 3.8088881409e+00 
35100 5.3371500550e+00 2.8047151799e-03 2.1989980109e+00 -3.8087762806e+00 2.1989980109e+00 3.8087762806e+00 
35200 5.3371501568e+00 2.7703731027e-03 2.1989342386e+00 -3.8086658238e+00 2.1989342386e+00 3.8086658238e+00 
35300 5.3371502627e+00 2.7373343409e-03 2.1988712454e+00 -3.8085567163e+00 2.1988712454e+00 3.8085567163e+00 
35400 5.3371503721e+00 2.7055254796e-03 2.1988090016e+00 -3.8084489069e+00 2.1988090016e+00 3.8084489069e+00 
35500 5.3371504842e+00 2.6748737760e-03 2.1987474794e+00 -3.8083423473e+00 2.1987474794e+00 3.8083423473e+00 
35600 5.3371505985e+00 2.6453073279e-03 2.1986866524e+00 -3.8082369920e+00 2.1986866524e+00 3.8082369920e+00 
35700 5.3371507144e+00 2.6167552347e-03 2.1986264962e+00 -3.8081327983e+00 2.1986264962e+00 3.8081327983e+00 
35800 5.3371508313e+00 2.5891477495e-03 2.1985669876e+00 -3.8080297264e+00 2.1985669876e+00 3.8080297264e+00 
35900 5.3371509487e+00 2.5624164245e-03 2.1985081052e+00 -3.8079277391e+00 2.1985081052e+00 3.8079277391e+00 
36000 5.3371510660e+00 2.5364942471e-03 2.1984498292e+00 -3.8078268021e+00 2.1984498292e+00 3.8078268021e+00 
36100 5.3371511829e+00 2.5113157685e-03 2.1983921412e+00 -3.8077268836e+00 2.1983921412e+00 3.8077268836e+00 
36200 5.3371512990e+00 2.4868172227e-03 2.1983350244e+00 -3.8076279543e+00 2.1983350244e+00 3.8076279543e+00 
36300 5.3371514139e+00 2.4629366379e-03 2.1982784633e+00 -3.8075299875e+00 2.1982784633e+00 3.8075299875e+00 
36400 5.3371515272e+00 2.4396139386e-03 2.1982224438e+00 -3.8074329590e+00 2.1982224438e+00 3.8074329590e+00 
36500 5.3371516388e+00 2.4167910392e-03 2.1981669534e+00 -3.8073368469e+00 2.1981669534e+00 3.8073368469e+00 
36600 5.3371517484e+00 2.3944119286e-03 2.1981119808e+00 -3.8072416315e+00 2.1981119808e+00 3.8072416315e+00 
36700 5.3371518558e+00 2.3724227468e-03 2.1980575158e+00 -3.8071472954e+00 2.1980575158e+00 3.8071472954e+00 
36800 5.3371519609e+00 2.3507718517e-03 2.1980035497e+00 -3.8070538233e+00 2.1980035497e+00 3.8070538233e+00 
36900 5.3371520636e+00 2.3294098781e-03 2.1979500748e+00 -3.8069612020e+00 2.1979500748e+00 3.8069612020e+00 
37000 5.3371521639e+00 2.3082897885e-03 2.1978970845e+00 -3.8068694201e+00 2.1978970845e+00 3.8068694201e+00 
37100 5.3371522616e+00 2.2873669142e-03 2.1978445733e+00 -3.8067784682e+00 2.1978445733e+00 3.8067784682e+00 
37200 5.3371523569e+00 2.2665989898e-03 2.1977925370e+00 -3.8066883385e+00 2.1977925370e+00 3.8066883385e+00 
37300 5.3371524497e+00 2.2459461783e-03 2.1977409718e+00 -3.8065990250e+00 2.1977409718e+00 3.8065990250e+00 
37400 5.3371525402e+00 2.2253710888e-03 2.1976898753e+00 -3.8065105233e+00 2.1976898753e+00 3.8065105233e+00 
37500 5.3371526284e+00 2.2048387870e-03 2.1976392457e+00 -3.8064228303e+00 2.1976392457e+00 3.8064228303e+00 
37600 5.3371527144e+00 2.1843167972e-03 2.1975890821e+00 -3.8063359444e+00 2.1975890821e+00 3.8063359444e+00 
37700 5.3371527984e+00 2.1637750980e-03 2.1975393843e+00 -3.8062498652e+00 2.1975393843e+00 3.8062498652e+00 
37800 5.3371528805e+00 2.1431861103e-03 2.1974901527e+00 -3.8061645936e+00 2.1974901527e+00 3.8061645936e+00 
37900 5.3371529608e+00 2.1225246792e-03 2.1974413885e+00 -3.8060801315e+00 2.1974413885e+00 3.8060801315e+00 
38000 5.3371530395e+00 2.1017680489e-03 2.1973930933e+00 -3.8059964817e+00 2.1973930933e+00 3.8059964817e+00 
38100 5.3371531168e+00 2.0808958315e-03 2.1973452693e+00 -3.8059136482e+00 2.1973452693e+00 3.8059136482e+00 
38200 5.3371531928e+00 2.0598899707e-03 2.1972979193e+00 -3.8058316355e+00 2.1972979193e+00 3.8058316355e+00 
38300 5.3371532678e+00 2.0387346987e-03 2.1972510462e+00 -3.8057504490e+00 2.1972510462e+00 3.8057504490e+00 
38400 5.3371533417e+00 2.0174164885e-03 2.1972046535e+00 -3.8056700945e+00 2.1972046535e+00 3.8056700945e+00 
38500 5.3371534150e+00 1.9959240018e-03 2.1971587449e+00 -3.8055905785e+00 2.1971587449e+00 3.8055905785e+00 
38600 5.3371534876e+00 1.9742480311e-03 2.1971133245e+00 -3.8055119081e+00 2.1971133245e+00 3.8055119081e+00 
38700 5.3371535597e+00 1.9523814381e-03 2.1970683965e+00 -3.8054340904e+00 2.1970683965e+00 3.8054340904e+00 
38800 5.3371536315e+00 1.9303190887e-03 2.1970239651e+00 -3.8053571330e+00 2.1970239651e+00 3.8053571330e+00 
38900 5.3371537031e+00 1.9080577834e-03 2.1969800349e+00 -3.8052810437e+00 2.1969800349e+00 3.8052810437e+00 
39000 5.3371537746e+00 1.8855961846e-03 2.1969366105e+00 -3.8052058304e+00 2.1969366105e+00 3.8052058304e+00 
39100 5.3371538461e+00 1.8629347417e-03 2.1968936964e+00 -3.8051315011e+00 2.1968936964e+00 3.8051315011e+00 
39200 5.3371539177e+00 1.8400756125e-03 2.1968512973e+00 -3.8050580636e+00 2.1968512973e+00 3.8050580636e+00 
39300 5.3371539894e+00 1.8170225830e-03 2.1968094176e+00 -3.8049855258e+00 2.1968094176e+00 3.8049855258e+00 
39400 5.3371540614e+00 1.7937809848e-03 2.1967680618e+00 -3.8049138954e+00 2.1967680618e+00 3.8049138954e+00 
39500 5.3371541337e+00 1.7703576111e-03 2.1967272342e+00 -3.8048431799e+00 2.1967272342e+00 3.8048431799e+00 
39600 5.3371542063e+00 1.7467606309e-03 2.1966869389e+00 -3.8047733866e+00 2.1966869389e+00 3.8047733866e+00 
39700 5.3371542792e+00 1.7229995030e-03 2.1966471801e+00 -3.8047045222e+00 2.1966471801e+00 3.8047045222e+00 
39800 5.3371543524e+00 1.6990848877e-03 2.1966079613e+00 -3.8046365934e+00 2.1966079613e+00 3.8046365934e+00 
39900 5.3371544260e+00 1.6750285597e-03 2.1965692863e+00 -3.8045696062e+00 2.1965692863e+00 3.8045696062e+00 
40000 5.3371544999e+00 1.6508433199e-03 2.1965311581e+00 -3.8045035662e+00 2.1965311581e+00 3.8045035662e+00 
40100 5.3371545741e+00 1.6265429071e-03 2.1964935798e+00 -3.8044384787e+00 2.1964935798e+00 3.8044384787e+00 
40200 5.3371546486e+00 1.6021419103e-03 2.1964565540e+00 -3.8043743481e+00 2.1964565540e+00 3.8043743481e+00 
40300 5.3371547233e+00 1.5776556820e-03 2.1964200830e+00 -3.8043111786e+00 2.1964200830e+00 3.8043111786e+00 
40400 5.3371547982e+00 1.5531002517e-03 2.1963841689e+00 -3.8042489734e+00 2.1963841689e+00 3.8042489734e+00 
40500 5.3371548731e+00 1.5284922405e-03 2.1963488131e+00 -3.8041877355e+00 2.1963488131e+00 3.8041877355e+00 
40600 5.3371549482e+00 1.5038487773e-03 2.1963140170e+00 -3.8041274668e+00 2.1963140170e+00 3.8041274668e+00 
40700 5.3371550232e+00 1.4791874166e-03 2.1962797814e+00 -3.8040681689e+00 2.1962797814e+00 3.8040681689e+00 
40800 5.3371550982e+00 1.4545260571e-03 2.1962461066e+00 -3.8040098426e+00 2.1962461066e+00 3.8040098426e+00 
40900 5.3371551730e+00 1.4298828634e-03 2.1962129928e+00 -3.8039524877e+00 2.1962129928e+00 3.8039524877e+00 
41000 5.3371552476e+00 1.4052761887e-03 2.1961804395e+00 -3.8038961038e+00 2.1961804395e+00 3.8038961038e+00 
41100 5.3371553219e+00 1.3807245005e-03 2.1961484459e+00 -3.8038406893e+00 2.1961484459e+00 3.8038406893e+00 
41200 5.3371553958e+00 1.3562463079e-03 2.1961170109e+00 -3.8037862422e+00 2.1961170109e+00 3.8037862422e+00 
41300 5.3371554693e+00 1.3318600922e-03 2.1960861326e+00 -3.8037327595e+00 2.1960861326e+00 3.8037327595e+00 
41400 5.3371555423e+00 1.3075842395e-03 2.1960558092e+00 -3.8036802378e+00 2.1960558092e+00 3.8036802378e+00 
41500 5.3371556148e+00 1.2834369759e-03 2.1960260381e+00 -3.8036286727e+00 2.1960260381e+00 3.8036286727e+00 
41600 5.3371556866e+00 1.2594363067e-03 2.1959968163e+00 -3.8035780592e+00 2.1959968163e+00 3.8035780592e+00 
41700 5.3371557577e+00 1.2355999567e-03 2.1959681407e+00 -3.8035283915e+00 2.1959681407e+00 3.8035283915e+00 
41800 5.3371558281e+00 1.2119453155e-03 2.1959400074e+00 -3.8034796631e+00 2.1959400074e+00 3.8034796631e+00 
41900 5.3371558977e+00 1.1884893838e-03 2.1959124123e+00 -3.8034318670e+00 2.1959124123e+00 3.8034318670e+00 
42000 5.3371559664e+00 1.1652487248e-03 2.1958853509e+00 -3.8033849954e+00 2.1958853509e+00 3.8033849954e+00 
42100 5.3371560343e+00 1.1422394173e-03 2.1958588184e+00 -3.8033390398e+00 2.1958588184e+00 3.8033390398e+00 
42200 5.3371561013e+00 1.1194770126e-03 2.1958328095e+00 -3.8032939911e+00 2.1958328095e+00 3.8032939911e+00 
42300 5.3371561674e+00 1.0969764947e-03 2.1958073187e+00 -3.8032498395e+00 2.1958073187e+00 3.8032498395e+00 
42400 5.3371562326e+00 1.0747522434e-03 2.1957823398e+00 -3.8032065749e+00 2.1957823398e+00 3.8032065749e+00 
42500 5.3371562967e+00 1.0528180009e-03 2.1957578668e+00 -3.8031641863e+00 2.1957578668e+00 3.8031641863e+00 
42600 5.3371563599e+00 1.0311868415e-03 2.1957338929e+00 -3.8031226624e+00 2.1957338929e+00 3.8031226624e+00 
42700 5.3371564221e+00 1.0098711441e-03 2.1957104113e+00 -3.8030819911e+00 2.1957104113e+00 3.8030819911e+00 
42800 5.3371564834e+00 9.8888256911e-04 2.1956874149e+00 -3.8030421602e+00 2.1956874149e+00 3.8030421602e+00 
42900 5.3371565437e+00 9.6823203675e-04 2.1956648962e+00 -3.8030031566e+00 2.1956648962e+00 3.8030031566e+00 
43000 5.3371566030e+00 9.4792970990e-04 2.1956428475e+00 -3.8029649672e+00 2.1956428475e+00 3.8029649672e+00 
43100 5.3371566613e+00 9.2798497921e-04 2.1956212609e+00 -3.8029275781e+00 2.1956212609e+00 3.8029275781e+00 
43200 5.3371567187e+00 9.0840645144e-04 2.1956001284e+00 -3.8028909754e+00 2.1956001284e+00 3.8028909754e+00 
43300 5.3371567752e+00 8.8920194065e-04 2.1955794414e+00 -3.8028551446e+00 2.1955794414e+00 3.8028551446e+00 
43400 5.3371568308e+00 8.7037846224e-04 2.1955591916e+00 -3.8028200709e+00 2.1955591916e+00 3.8028200709e+00 
43500 5.3371568855e+00 8.5194222978e-04 2.1955393703e+00 -3.8027857394e+00 2.1955393703e+00 3.8027857394e+00 
43600 5.3371569393e+00 8.3389865440e-04 2.1955199687e+00 -3.8027521348e+00 2.1955199687e+00 3.8027521348e+00 
43700 5.3371569924e+00 8.1625234692e-04 2.1955009778e+00 -3.8027192416e+00 2.1955009778e+00 3.8027192416e+00 
43800 5.3371570446e+00 7.9900712234e-04 2.1954823886e+00 -3.8026870442e+00 2.1954823886e+00 3.8026870442e+00 
43900 5.3371570961e+00 7.8216600674e-04 2.1954641920e+00 -3.8026555268e+00 2.1954641920e+00 3.8026555268e+00 
44000 5.3371571468e+00 7.6573124655e-04 2.1954463788e+00 -3.8026246734e+00 2.1954463788e+00 3.8026246734e+00 
44100 5.3371571969e+00 7.4970431985e-04 2.1954289398e+00 -3.8025944681e+00 2.1954289398e+00 3.8025944681e+00 
44200 5.3371572462e+00 7.3408594989e-04 2.1954118656e+00 -3.8025648947e+00 2.1954118656e+00 3.8025648947e+00 
44300 5.3371572949e+00 7.1887612041e-04 2.1953951470e+00 -3.8025359372e+00 2.1953951470e+00 3.8025359372e+00 
44400 5.3371573430e+00 7.0407409299e-04 2.1953787746e+00 -3.8025075795e+00 2.1953787746e+00 3.8025075795e+00 
44500 5.3371573905e+00 6.8967842592e-04 2.1953627393e+00 -3.8024798054e+00 2.1953627393e+00 3.8024798054e+00 
44600 5.3371574374e+00 6.7568699484e-04 2.1953470317e+00 -3.8024525991e+00 2.1953470317e+00 3.8024525991e+00 
44700 5.3371574838e+00 6.6209701476e-04 2.1953316426e+00 -3.8024259445e+00 2.1953316426e+00 3.8024259445e+00 
44800 5.3371575297e+00 6.4890506356e-04 2.1953165630e+00 -3.8023998258e+00 2.1953165630e+00 3.8023998258e+00 
44900 5.3371575751e+00 6.3610710662e-04 2.1953017837e+00 -3.8023742273e+00 2.1953017837e+00 3.8023742273e+00 
45000 5.3371576200e+00 6.2369852266e-04 2.1952872958e+00 -3.8023491335e+00 2.1952872958e+00 3.8023491335e+00 
45100 5.3371576644e+00 6.1167413061e-04 2.1952730904e+00 -3.8023245291e+00 2.1952730904e+00 3.8023245291e+00 
45200 5.3371577084e+00 6.0002821732e-04 2.1952591588e+00 -3.8023003988e+00 2.1952591588e+00 3.8023003988e+00 
45300 5.3371577519e+00 5.8875456609e-04 2.1952454924e+00 -3.8022767278e+00 2.1952454924e+00 3.8022767278e+00 
45400 5.3371577951e+00 5.7784648585e-04 2.1952320826e+00 -3.8022535015e+00 2.1952320826e+00 3.8022535015e+00 
45500 5.3371578378e+00 5.6729684093e-04 2.1952189212e+00 -3.8022307053e+00 2.1952189212e+00 3.8022307053e+00 
45600 5.3371578801e+00 5.5709808120e-04 2.1952060000e+00 -3.8022083251e+00 2.1952060000e+00 3.8022083251e+00 
45700 5.3371579220e+00 5.4724227266e-04 2.1951933111e+00 -3.8021863472e+00 2.1951933111e+00 3.8021863472e+00 
45800 5.3371579636e+00 5.3772112815e-04 2.1951808465e+00 -3.8021647580e+00 2.1951808465e+00 3.8021647580e+00 
45900 5.3371580047e+00 5.2852603827e-04 2.1951685988e+00 -3.8021435443e+00 2.1951685988e+00 3.8021435443e+00 
46000 5.3371580455e+00 5.1964810226e-04 2.1951565604e+00 -3.8021226932e+00 2.1951565604e+00 3.8021226932e+00 
46100 5.3371580859e+00 5.1107815887e-04 2.1951447242e+00 -3.8021021922e+00 2.1951447242e+00 3.8021021922e+00 
46200 5.3371581258e+00 5.0280681707e-04 2.1951330831e+00 -3.8020820293e+00 2.1951330831e+00 3.8020820293e+00 
46300 5.3371581654e+00 4.9482448642e-04 2.1951216303e+00 -3.8020621925e+00 2.1951216303e+00 3.8020621925e+00 
46400 5.3371582047e+00 4.8712140727e-04 2.1951103593e+00 -3.8020426706e+00 2.1951103593e+00 3.8020426706e+00 
46500 5.3371582435e+00 4.7968768035e-04 2.1950992637e+00 -3.8020234524e+00 2.1950992637e+00 3.8020234524e+00 
46600 5.3371582819e+00 4.7251329603e-04 2.1950883374e+00 -3.8020045275e+00 2.1950883374e+00 3.8020045275e+00 
46700 5.3371583199e+00 4.6558816293e-04 2.1950775745e+00 -3.8019858855e+00 2.1950775745e+00 3.8019858855e+00 
46800 5.3371583575e+00 4.5890213589e-04 2.1950669692e+00 -3.8019675166e+00 2.1950669692e+00 3.8019675166e+00 
46900 5.3371583947e+00 4.5244504326e-04 2.1950565162e+00 -3.8019494115e+00 2.1950565162e+00 3.8019494115e+00 
47000 5.3371584315e+00 4.4620671343e-04 2.1950462102e+00 -3.8019315610e+00 2.1950462102e+00 3.8019315610e+00 
47100 5.3371584679e+00 4.4017700055e-04 2.1950360462e+00 -3.8019139565e+00 2.1950360462e+00 3.8019139565e+00 
47200 5.3371585038e+00 4.3434580933e-04 2.1950260196e+00 -3.8018965899e+00 2.1950260196e+00 3.8018965899e+00 
47300 5.3371585393e+00 4.2870311896e-04 2.1950161257e+00 -3.8018794532e+00 2.1950161257e+00 3.8018794532e+00 
47400 5.3371585744e+00 4.2323900609e-04 2.1950063604e+00 -3.8018625391e+00 2.1950063604e+00 3.8018625391e+00 
47500 5.3371586090e+00 4.1794366675e-04 2.1949967194e+00 -3.8018458405e+00 2.1949967194e+00 3.8018458405e+00 
47600 5.3371586432e+00 4.1280743729e-04 2.1949871991e+00 -3.8018293507e+00 2.1949871991e+00 3.8018293507e+00 
47700 5.3371586769e+00 4.0782081421e-04 2.1949777956e+00 -3.8018130635e+00 2.1949777956e+00 3.8018130635e+00 
47800 5.3371587102e+00 4.0297447293e-04 2.1949685058e+00 -3.8017969730e+00 2.1949685058e+00 3.8017969730e+00 
47900 5.3371587431e+00 3.9825928546e-04 2.1949593263e+00 -3.8017810737e+00 2.1949593263e+00 3.8017810737e+00 
48000 5.3371587755e+00 3.9366633688e-04 2.1949502542e+00 -3.8017653603e+00 2.1949502542e+00 3.8017653603e+00 
48100 5.3371588075e+00 3.8918694075e-04 2.1949412866e+00 -3.8017498281e+00 2.1949412866e+00 3.8017498281e+00 
48200 5.3371588390e+00 3.8481265333e-04 2.1949324211e+00 -3.8017344725e+00 2.1949324211e+00 3.8017344725e+00 
48300 5.3371588701e+00 3.8053528662e-04 2.1949236552e+00 -3.8017192895e+00 2.1949236552e+00 3.8017192895e+00 
48400 5.3371589007e+00 3.7634692030e-04 2.1949149866e+00 -3.8017042751e+00 2.1949149866e+00 3.8017042751e+00 
48500 5.3371589309e+00 3.7223991245e-04 2.1949064135e+00 -3.8016894260e+00 2.1949064135e+00 3.8016894260e+00 
48600 5.3371589606e+00 3.6820690920e-04 2.1948979339e+00 -3.8016747389e+00 2.1948979339e+00 3.8016747389e+00 
48700 5.3371589900e+00 3.6424085309e-04 2.1948895461e+00 -3.8016602108e+00 2.1948895461e+00 3.8016602108e+00 
48800 5.3371590189e+00 3.6033499048e-04 2.1948812486e+00 -3.8016458392e+00 2.1948812486e+00 3.8016458392e+00 
48900 5.3371590473e+00 3.5648287771e-04 2.1948730401e+00 -3.8016316216e+00 2.1948730401e+00 3.8016316216e+00 
49000 5.3371590754e+00 3.5267838619e-04 2.1948649193e+00 -3.8016175559e+00 2.1948649193e+00 3.8016175559e+00 
49100 5.3371591031e+00 3.4891570649e-04 2.1948568851e+00 -3.8016036403e+00 2.1948568851e+00 3.8016036403e+00 
49200 5.3371591303e+00 3.4518935121e-04 2.1948489366e+00 -3.8015898732e+00 2.1948489366e+00 3.8015898732e+00 
49300 5.3371591572e+00 3.4149415702e-04 2.1948410730e+00 -3.8015762530e+00 2.1948410730e+00 3.8015762530e+00 
49400 5.3371591836e+00 3.3782528554e-04 2.1948332935e+00 -3.8015627786e+00 2.1948332935e+00 3.8015627786e+00 
49500 5.3371592097e+00 3.3417822331e-04 2.1948255976e+00 -3.8015494488e+00 2.1948255976e+00 3.8015494488e+00 
49600 5.3371592354e+00 3.3054878084e-04 2.1948179848e+00 -3.8015362630e+00 2.1948179848e+00 3.8015362630e+00 
49700 5.3371592608e+00 3.2693309073e-04 2.1948104546e+00 -3.8015232203e+00 2.1948104546e+00 3.8015232203e+00 
49800 5.3371592858e+00 3.2332760491e-04 2.1948030067e+00 -3.8015103202e+00 2.1948030067e+00 3.8015103202e+00 
49900 5.3371593104e+00 3.1972909107e-04 2.1947956409e+00 -3.8014975623e+00 2.1947956409e+00 3.8014975623e+00 
50000 5.3371593347e+00 3.1613462827e-04 2.1947883571e+00 -3.8014849464e+00 2.1947883571e+00 3.8014849464e+00 
50100 5.3371593587e+00 3.1254160185e-04 2.1947811552e+00 -3.8014724723e+00 2.1947811552e+00 3.8014724723e+00 
50200 5.3371593823e+00 3.0894769754e-04 2.1947740351e+00 -3.8014601399e+00 2.1947740351e+00 3.8014601399e+00 
50300 5.3371594056e+00 3.0535089499e-04 2.1947669969e+00 -3.8014479493e+00 2.1947669969e+00 3.8014479493e+00 
50400 5.3371594286e+00 3.0174946059e-04 2.1947600405e+00 -3.8014359006e+00 2.1947600405e+00 3.8014359006e+00 
50500 5.3371594513e+00 2.9814193976e-04 2.1947531662e+00 -3.8014239939e+00 2.1947531662e+00 3.8014239939e+00 
50600 5.3371594737e+00 2.9452714865e-04 2.1947463741e+00 -3.8014122296e+00 2.1947463741e+00 3.8014122296e+00 
50700 5.3371594958e+00 2.9090416538e-04 2.1947396642e+00 -3.8014006078e+00 2.1947396642e+00 3.8014006078e+00 
50800 5.3371595176e+00 2.8727232078e-04 2.1947330369e+00 -3.8013891290e+00 2.1947330369e+00 3.8013891290e+00 
50900 5.3371595392e+00 2.8363118875e-04 2.1947264924e+00 -3.8013777935e+00 2.1947264924e+00 3.8013777935e+00 
51000 5.3371595604e+00 2.7998057625e-04 2.1947200307e+00 -3.8013666016e+00 2.1947200307e+00 3.8013666016e+00 
51100 5.3371595814e+00 2.7632051288e-04 2.1947136522e+00 -3.8013555537e+00 2.1947136522e+00 3.8013555537e+00 
51200 5.3371596022e+00 2.7265124031e-04 2.1947073571e+00 -3.8013446502e+00 2.1947073571e+00 3.8013446502e+00 
51300 5.3371596227e+00 2.6897320134e-04 2.1947011455e+00 -3.8013338915e+00 2.1947011455e+00 3.8013338915e+00 
51400 5.3371596429e+00 2.6528702884e-04 2.1946950177e+00 -3.8013232778e+00 2.1946950177e+00 3.8013232778e+00 
51500 5.3371596628e+00 2.6159353446e-04 2.1946889739e+00 -3.8013128096e+00 2.1946889739e+00 3.8013128096e+00 
51600 5.3371596826e+00 2.5789369725e-04 2.1946830142e+00 -3.8013024871e+00 2.1946830142e+00 3.8013024871e+00 
51700 5.3371597020e+00 2.5418865224e-04 2.1946771388e+00 -3.8012923106e+00 2.1946771388e+00 3.8012923106e+00 
51800 5.3371597213e+00 2.5047967884e-04 2.1946713478e+00 -3.8012822803e+00 2.1946713478e+00 3.8012822803e+00 
51900 5.3371597403e+00 2.4676818938e-04 2.1946656412e+00 -3.8012723962e+00 2.1946656412e+00 3.8012723962e+00 
52000 5.3371597590e+00 2.4305571758e-04 2.1946600192e+00 -3.8012626587e+00 2.1946600192e+00 3.8012626587e+00 
52100 5.3371597776e+00 2.3934390709e-04 2.1946544818e+00 -3.8012530675e+00 2.1946544818e+00 3.8012530675e+00 
52200 5.3371597959e+00 2.3563450016e-04 2.1946490289e+00 -3.8012436229e+00 2.1946490289e+00 3.8012436229e+00 
52300 5.3371598139e+00 2.3192932636e-04 2.1946436605e+00 -3.8012343246e+00 2.1946436605e+00 3.8012343246e+00 
52400 5.3371598318e+00 2.2823029154e-04 2.1946383766e+00 -3.8012251724e+00 2.1946383766e+00 3.8012251724e+00 
52500 5.3371598494e+00 2.2453936690e-04 2.1946331768e+00 -3.8012161663e+00 2.1946331768e+00 3.8012161663e+00 
52600 5.3371598668e+00 2.2085857828e-04 2.1946280612e+00 -3.8012073057e+00 2.1946280612e+00 3.8012073057e+00 
52700 5.3371598840e+00 2.1718999572e-04 2.1946230294e+00 -3.8011985904e+00 2.1946230294e+00 3.8011985904e+00 
52800 5.3371599010e+00 2.1353572322e-04 2.1946180812e+00 -3.8011900198e+00 2.1946180812e+00 3.8011900198e+00 
52900 5.3371599177e+00 2.0989788883e-04 2.1946132162e+00 -3.8011815934e+00 2.1946132162e+00 3.8011815934e+00 
53000 5.3371599342e+00 2.0627863498e-04 2.1946084341e+00 -3.8011733105e+00 2.1946084341e+00 3.8011733105e+00 
53100 5.3371599506e+00 2.0268010921e-04 2.1946037344e+00 -3.8011651705e+00 2.1946037344e+00 3.8011651705e+00 
53200 5.3371599667e+00 1.9910445514e-04 2.1945991167e+00 -3.8011571724e+00 2.1945991167e+00 3.8011571724e+00 
53300 5.3371599826e+00 1.9555380388e-04 2.1945945805e+00 -3.8011493154e+00 2.1945945805e+00 3.8011493154e+00 
53400 5.3371599983e+00 1.9203026571e-04 2.1945901251e+00 -3.8011415985e+00 2.1945901251e+00 3.8011415985e+00 
53500 5.3371600138e+00 1.8853592226e-04 2.1945857500e+00 -3.8011340206e+00 2.1945857500e+00 3.8011340206e+00 
53600 5.3371600290e+00 1.8507281893e-04 2.1945814546e+00 -3.8011265807e+00 2.1945814546e+00 3.8011265807e+00 
53700 5.3371600441e+00 1.8164295784e-04 2.1945772380e+00 -3.8011192773e+00 2.1945772380e+00 3.8011192773e+00 
53800 5.3371600590e+00 1.7824829114e-04 2.1945730995e+00 -3.8011121093e+00 2.1945730995e+00 3.8011121093e+00 
53900 5.3371600737e+00 1.7489071467e-04 2.1945690384e+00 -3.8011050753e+00 2.1945690384e+00 3.8011050753e+00 
54000 5.3371600882e+00 1.7157206215e-04 2.1945650538e+00 -3.8010981737e+00 2.1945650538e+00 3.8010981737e+00 
54100 5.3371601024e+00 1.6829409970e-04 2.1945611448e+00 -3.8010914031e+00 2.1945611448e+00 3.8010914031e+00 
54200 5.3371601165e+00 1.6505852083e-04 2.1945573104e+00 -3.8010847618e+00 2.1945573104e+00 3.8010847618e+00 
54300 5.3371601304e+00 1.6186694183e-04 2.1945535498e+00 -3.8010782482e+00 2.1945535498e+00 3.8010782482e+00 
54400 5.3371601442e+00 1.5872089762e-04 2.1945498619e+00 -3.8010718605e+00 2.1945498619e+00 3.8010718605e+00 
54500 5.3371601577e+00 1.5562183795e-04 2.1945462456e+00 -3.8010655970e+00 2.1945462456e+00 3.8010655970e+00 
54600 5.3371601710e+00 1.5257112410e-04 2.1945427000e+00 -3.8010594557e+00 2.1945427000e+00 3.8010594557e+00 
54700 5.3371601842e+00 1.4957002593e-04 2.1945392238e+00 -3.8010534349e+00 2.1945392238e+00 3.8010534349e+00 
54800 5.3371601972e+00 1.4661971939e-04 2.1945358160e+00 -3.8010475324e+00 2.1945358160e+00 3.8010475324e+00 
54900 5.3371602100e+00 1.4372128439e-04 2.1945324755e+00 -3.8010417464e+00 2.1945324755e+00 3.8010417464e+00 
55000 5.3371602226e+00 1.4087570307e-04 2.1945292010e+00 -3.8010360747e+00 2.1945292010e+00 3.8010360747e+00 
55100 5.3371602351e+00 1.3808385851e-04 2.1945259913e+00 -3.8010305154e+00 2.1945259913e+00 3.8010305154e+00 
55200 5.3371602474e+00 1.3534653373e-04 2.1945228452e+00 -3.8010250662e+00 2.1945228452e+00 3.8010250662e+00 
55300 5.3371602595e+00 1.3266441110e-04 2.1945197614e+00 -3.8010197250e+00 2.1945197614e+00 3.8010197250e+00 
55400 5.3371602714e+00 1.3003807216e-04 2.1945167388e+00 -3.8010144896e+00 2.1945167388e+00 3.8010144896e+00 
55500 5.3371602832e+00 1.2746799766e-04 2.1945137760e+00 -3.8010093579e+00 2.1945137760e+00 3.8010093579e+00 
55600 5.3371602949e+00 1.2495456805e-04 2.1945108718e+00 -3.8010043276e+00 2.1945108718e+00 3.8010043276e+00 
55700 5.3371603064e+00 1.2249806423e-04 2.1945080248e+00 -3.8009993965e+00 2.1945080248e+00 3.8009993965e+00 
55800 5.3371603177e+00 1.2009866858e-04 2.1945052338e+00 -3.8009945624e+00 2.1945052338e+00 3.8009945624e+00 
55900 5.3371603289e+00 1.1775646640e-04 2.1945024974e+00 -3.8009898229e+00 2.1945024974e+00 3.8009898229e+00 
56000 5.3371603399e+00 1.1547144745e-04 2.1944998144e+00 -3.8009851758e+00 2.1944998144e+00 3.8009851758e+00 
56100 5.3371603508e+00 1.1324350791e-04 2.1944971835e+00 -3.8009806189e+00 2.1944971835e+00 3.8009806189e+00 
56200 5.3371603615e+00 1.1107245248e-04 2.1944946033e+00 -3.8009761499e+00 2.1944946033e+00 3.8009761499e+00 
56300 5.3371603721e+00 1.0895799682e-04 2.1944920726e+00 -3.8009717666e+00 2.1944920726e+00 3.8009717666e+00 
56400 5.3371603826e+00 1.0689977005e-04 2.1944895901e+00 -3.8009674667e+00 2.1944895901e+00 3.8009674667e+00 
56500 5.3371603929e+00 1.0489731764e-04 2.1944871545e+00 -3.8009632481e+00 2.1944871545e+00 3.8009632481e+00 
56600 5.3371604031e+00 1.0295010430e-04 2.1944847644e+00 -3.8009591084e+00 2.1944847644e+00 3.8009591084e+00 
56700 5.3371604131e+00 1.0105751721e-04 2.1944824188e+00 -3.8009550456e+00 2.1944824188e+00 3.8009550456e+00 
56800 5.3371604230e+00 9.9218869252e-05 2.1944801162e+00 -3.8009510575e+00 2.1944801162e+00 3.8009510575e+00 
56900 5.3371604328e+00 9.7433402484e-05 2.1944778556e+00 -3.8009471420e+00 2.1944778556e+00 3.8009471420e+00 
57000 5.3371604425e+00 9.5700291703e-05 2.1944756356e+00 -3.8009432969e+00 2.1944756356e+00 3.8009432969e+00 
57100 5.3371604520e+00 9.4018648098e-05 2.1944734551e+00 -3.8009395202e+00 2.1944734551e+00 3.8009395202e+00 
57200 5.3371604614e+00 9.2387523028e-05 2.1944713130e+00 -3.8009358098e+00 2.1944713130e+00 3.8009358098e+00 
57300 5.3371604707e+00 9.0805911842e-05 2.1944692080e+00 -3.8009321639e+00 2.1944692080e+00 3.8009321639e+00 
57400 5.3371604799e+00 8.9272757794e-05 2.1944671390e+00 -3.8009285803e+00 2.1944671390e+00 3.8009285803e+00 
57500 5.3371604890e+00 8.7786955981e-05 2.1944651050e+00 -3.8009250572e+00 2.1944651050e+00 3.8009250572e+00 
57600 5.3371604979e+00 8.6347357324e-05 2.1944631048e+00 -3.8009215928e+00 2.1944631048e+00 3.8009215928e+00 
57700 5.3371605067e+00 8.4952772584e-05 2.1944611374e+00 -3.8009181852e+00 2.1944611374e+00 3.8009181852e+00 
57800 5.3371605154e+00 8.3601976345e-05 2.1944592018e+00 -3.8009148326e+00 2.1944592018e+00 3.8009148326e+00 
57900 5.3371605240e+00 8.2293711035e-05 2.1944572969e+00 -3.8009115333e+00 2.1944572969e+00 3.8009115333e+00 
58000 5.3371605325e+00 8.1026690898e-05 2.1944554219e+00 -3.8009082856e+00 2.1944554219e+00 3.8009082856e+00 
58100 5.3371605409e+00 7.9799605961e-05 2.1944535757e+00 -3.8009050880e+00 2.1944535757e+00 3.8009050880e+00 
58200 5.3371605492e+00 7.8611125928e-05 2.1944517575e+00 -3.8009019388e+00 2.1944517575e+00 3.8009019388e+00 
58300 5.3371605573e+00 7.7459904047e-05 2.1944499664e+00 -3.8008988364e+00 2.1944499664e+00 3.8008988364e+00 
58400 5.3371605654e+00 7.6344580900e-05 2.1944482015e+00 -3.8008957795e+00 2.1944482015e+00 3.8008957795e+00 
58500 5.3371605733e+00 7.5263788139e-05 2.1944464620e+00 -3.8008927666e+00 2.1944464620e+00 3.8008927666e+00 
58600 5.3371605812e+00 7.4216152100e-05 2.1944447471e+00 -3.8008897964e+00 2.1944447471e+00 3.8008897964e+00 
58700 5.3371605889e+00 7.3200297375e-05 2.1944430561e+00 -3.8008868675e+00 2.1944430561e+00 3.8008868675e+00 
58800 5.3371605966e+00 7.2214850250e-05 2.1944413882e+00 -3.8008839787e+00 2.1944413882e+00 3.8008839787e+00 
58900 5.3371606042e+00 7.1258442046e-05 2.1944397428e+00 -3.8008811288e+00 2.1944397428e+00 3.8008811288e+00 
59000 5.3371606116e+00 7.0329712360e-05 2.1944381192e+00 -3.8008783166e+00 2.1944381192e+00 3.8008783166e+00 
59100 5.3371606191e+00 7.0170654340e-05 2.1944381192e+00 -3.8008783166e+00 2.1944381192e+00 3.8008783166e+00 
59200 5.3371606264e+00 7.0035736231e-05 2.1944381192e+00 -3.8008783166e+00 2.1944381192e+00 3.8008783166e+00 
59300 5.3371606337e+00 6.9923986346e-05 2.1944381192e+00 -3.8008783166e+00 2.1944381192e+00 3.8008783166e+00 
59400 5.3371606409e+00 6.9834429944e-05 2.1944381192e+00 -3.8008783166e+00 2.1944381192e+00 3.8008783166e+00 
59500 5.3371606479e+00 6.9766090291e-05 2.1944381192e+00 -3.8008783166e+00 2.1944381192e+00 3.8008783166e+00 
59600 5.3371606549e+00 6.9717989831e-05 2.1944381192e+00 -3.8008783166e+00 2.1944381192e+00 3.8008783166e+00 
59700 5.3371606618e+00 6.9689151432e-05 2.1944381192e+00 -3.8008783166e+00 2.1944381192e+00 3.8008783166e+00 
59800 5.3371606686e+00 6.9678599708e-05 2.1944381192e+00 -3.8008783166e+00 2.1944381192e+00 3.8008783166e+00 
59900 5.3371606753e+00 6.9685362409e-05 2.1944381192e+00 -3.8008783166e+00 2.1944381192e+00 3.8008783166e+00 
60000 5.3371606819e+00 6.9708471821e-05 2.1944381192e+00 -3.8008783166e+00 2.1944381192e+00 3.8008783166e+00 
60100 5.3371606885e+00 6.9746966236e-05 2.1944381192e+00 -3.8008783166e+00 2.1944381192e+00 3.8008783166e+00 
60200 5.3371606949e+00 6.9799891402e-05 2.1944381192e+00 -3.8008783166e+00 2.1944381192e+00 3.8008783166e+00 
60300 5.3371607013e+00 6.9866301998e-05 2.1944381192e+00 -3.8008783166e+00 2.1944381192e+00 3.8008783166e+00 
60400 5.3371607076e+00 6.9945263109e-05 2.1944381192e+00 -3.8008783166e+00 2.1944381192e+00 3.8008783166e+00 
60500 5.3371607138e+00 7.0035851667e-05 2.1944381192e+00 -3.8008783166e+00 2.1944381192e+00 3.8008783166e+00 
60600 5.3371607199e+00 7.0137157889e-05 2.1944381192e+00 -3.8008783166e+00 2.1944381192e+00 3.8008783166e+00 
60700 5.3371607259e+00 7.0248286672e-05 2.1944381192e+00 -3.8008783166e+00 2.1944381192e+00 3.8008783166e+00 
60800 5.3371607319e+00 7.0368358956e-05 2.1944381192e+00 -3.8008783166e+00 2.1944381192e+00 3.8008783166e+00 
60900 5.3371607377e+00 7.0496513037e-05 2.1944381192e+00 -3.8008783166e+00 2.1944381192e+00 3.8008783166e+00 
61000 5.3371607435e+00 7.0631905835e-05 2.1944381192e+00 -3.8008783166e+00 2.1944381192e+00 3.8008783166e+00 
61100 5.3371607493e+00 7.0773714099e-05 2.1944381192e+00 -3.8008783166e+00 2.1944381192e+00 3.8008783166e+00 
61200 5.3371607548e+00 7.0173101006e-05 2.1944365067e+00 -3.8008755235e+00 2.1944365067e+00 3.8008755235e+00 
61300 5.3371607604e+00 7.0316618975e-05 2.1944365067e+00 -3.8008755235e+00 2.1944365067e+00 3.8008755235e+00 
61400 5.3371607659e+00 7.0464018569e-05 2.1944365067e+00 -3.8008755235e+00 2.1944365067e+00 3.8008755235e+00 
61500 5.3371607713e+00 7.0614576385e-05 2.1944365067e+00 -3.8008755235e+00 2.1944365067e+00 3.8008755235e+00 
61600 5.3371607767e+00 7.0767595667e-05 2.1944365067e+00 -3.8008755235e+00 2.1944365067e+00 3.8008755235e+00 
61700 5.3371607819e+00 7.0174433532e-05 2.1944348942e+00 -3.8008727307e+00 2.1944348942e+00 3.8008727307e+00 
61800 5.3371607871e+00 7.0321659226e-05 2.1944348942e+00 -3.8008727307e+00 2.1944348942e+00 3.8008727307e+00 
61900 5.3371607922e+00 7.0469227302e-05 2.1944348942e+00 -3.8008727307e+00 2.1944348942e+00 3.8008727307e+00 
62000 5.3371607973e+00 7.0616562476e-05 2.1944348942e+00 -3.8008727307e+00 2.1944348942e+00 3.8008727307e+00 
62100 5.3371608023e+00 7.0763120105e-05 2.1944348942e+00 -3.8008727307e+00 2.1944348942e+00 3.8008727307e+00 
62200 5.3371608072e+00 7.0160456659e-05 2.1944332819e+00 -3.8008699381e+00 2.1944332819e+00 3.8008699381e+00 
62300 5.3371608120e+00 7.0295212850e-05 2.1944332819e+00 -3.8008699381e+00 2.1944332819e+00 3.8008699381e+00 
62400 5.3371608169e+00 7.0427547224e-05 2.1944332819e+00 -3.8008699381e+00 2.1944332819e+00 3.8008699381e+00 
62500 5.3371608216e+00 7.0557047107e-05 2.1944332819e+00 -3.8008699381e+00 2.1944332819e+00 3.8008699381e+00 
62600 5.3371608263e+00 7.0683331764e-05 2.1944332819e+00 -3.8008699381e+00 2.1944332819e+00 3.8008699381e+00 
62700 5.3371608309e+00 7.0806051910e-05 2.1944332819e+00 -3.8008699381e+00 2.1944332819e+00 3.8008699381e+00 
62800 5.3371608354e+00 7.0176502248e-05 2.1944316686e+00 -3.8008671437e+00 2.1944316686e+00 3.8008671437e+00 
62900 5.3371608399e+00 7.0282428352e-05 2.1944316686e+00 -3.8008671437e+00 2.1944316686e+00 3.8008671437e+00 
63000 5.3371608444e+00 7.0383731005e-05 2.1944316686e+00 -3.8008671437e+00 2.1944316686e+00 3.8008671437e+00 
63100 5.3371608488e+00 7.0480190722e-05 2.1944316686e+00 -3.8008671437e+00 2.1944316686e+00 3.8008671437e+00 
63200 5.3371608531e+00 7.0571618147e-05 2.1944316686e+00 -3.8008671437e+00 2.1944316686e+00 3.8008671437e+00 
63300 5.3371608574e+00 7.0657853090e-05 2.1944316686e+00 -3.8008671437e+00 2.1944316686e+00 3.8008671437e+00 
63400 5.3371608616e+00 7.0738763555e-05 2.1944316686e+00 -3.8008671437e+00 2.1944316686e+00 3.8008671437e+00 
63500 5.3371608657e+00 7.0066565501e-05 2.1944300568e+00 -3.8008643520e+00 2.1944300568e+00 3.8008643520e+00 
63600 5.3371608698e+00 7.0127806880e-05 2.1944300568e+00 -3.8008643520e+00 2.1944300568e+00 3.8008643520e+00 
63700 5.3371608739e+00 7.0183292697e-05 2.1944300568e+00 -3.8008643520e+00 2.1944300568e+00 3.8008643520e+00 
63800 5.3371608779e+00 7.0233003204e-05 2.1944300568e+00 -3.8008643520e+00 2.1944300568e+00 3.8008643520e+00 
63900 5.3371608819e+00 7.0276943382e-05 2.1944300568e+00 -3.8008643520e+00 2.1944300568e+00 3.8008643520e+00 
64000 5.3371608858e+00 7.0315141652e-05 2.1944300568e+00 -3.8008643520e+00 2.1944300568e+00 3.8008643520e+00 
64100 5.3371608896e+00 7.0347648570e-05 2.1944300568e+00 -3.8008643520e+00 2.1944300568e+00 3.8008643520e+00 
64200 5.3371608934e+00 7.0374535535e-05 2.1944300568e+00 -3.8008643520e+00 2.1944300568e+00 3.8008643520e+00 
64300 5.3371608972e+00 7.0395893494e-05 2.1944300568e+00 -3.8008643520e+00 2.1944300568e+00 3.8008643520e+00 
64400 5.3371609009e+00 7.0411831657e-05 2.1944300568e+00 -3.8008643520e+00 2.1944300568e+00 3.8008643520e+00 
64500 5.3371609046e+00 7.0422476223e-05 2.1944300568e+00 -3.8008643520e+00 2.1944300568e+00 3.8008643520e+00 
64600 5.3371609082e+00 7.0427969104e-05 2.1944300568e+00 -3.8008643520e+00 2.1944300568e+00 3.8008643520e+00 
64700 5.3371609118e+00 7.0428466690e-05 2.1944300568e+00 -3.8008643520e+00 2.1944300568e+00 3.8008643520e+00 
64800 5.3371609153e+00 7.0424138595e-05 2.1944300568e+00 -3.8008643520e+00 2.1944300568e+00 3.8008643520e+00 
64900 5.3371609188e+00 7.0415166449e-05 2.1944300568e+00 -3.8008643520e+00 2.1944300568e+00 3.8008643520e+00 
65000 5.3371609222e+00 7.0401742698e-05 2.1944300568e+00 -3.8008643520e+00 2.1944300568e+00 3.8008643520e+00 
65100 5.3371609256e+00 7.0384069425e-05 2.1944300568e+00 -3.8008643520e+00 2.1944300568e+00 3.8008643520e+00 
65200 5.3371609290e+00 7.0362357203e-05 2.1944300568e+00 -3.8008643520e+00 2.1944300568e+00 3.8008643520e+00 
65300 5.3371609323e+00 7.0336823971e-05 2.1944300568e+00 -3.8008643520e+00 2.1944300568e+00 3.8008643520e+00 
65400 5.3371609355e+00 7.0307693937e-05 2.1944300568e+00 -3.8008643520e+00 2.1944300568e+00 3.8008643520e+00 
65500 5.3371609388e+00 7.0275196504e-05 2.1944300568e+00 -3.8008643520e+00 2.1944300568e+00 3.8008643520e+00 
65600 5.3371609419e+00 7.0239565250e-05 2.1944300568e+00 -3.8008643520e+00 2.1944300568e+00 3.8008643520e+00 
65700 5.3371609451e+00 7.0201036911e-05 2.1944300568e+00 -3.8008643520e+00 2.1944300568e+00 3.8008643520e+00 
65800 5.3371609482e+00 7.0159850427e-05 2.1944300568e+00 -3.8008643520e+00 2.1944300568e+00 3.8008643520e+00 
65900 5.3371609513e+00 7.0116246002e-05 2.1944300568e+00 -3.8008643520e+00 2.1944300568e+00 3.8008643520e+00 
66000 5.3371609543e+00 7.0070464210e-05 2.1944300568e+00 -3.8008643520e+00 2.1944300568e+00 3.8008643520e+00 
66100 5.3371609573e+00 7.0022745143e-05 2.1944300568e+00 -3.8008643520e+00 2.1944300568e+00 3.8008643520e+00 
66200 5.3371609602e+00 6.9973327586e-05 2.1944300568e+00 -3.8008643520e+00 2.1944300568e+00 3.8008643520e+00 
66300 5.3371609631e+00 6.9922448243e-05 2.1944300568e+00 -3.8008643520e+00 2.1944300568e+00 3.8008643520e+00 
66400 5.3371609660e+00 6.9870340998e-05 2.1944300568e+00 -3.8008643520e+00 2.1944300568e+00 3.8008643520e+00 
66500 5.3371609688e+00 6.9817236215e-05 2.1944300568e+00 -3.8008643520e+00 2.1944300568e+00 3.8008643520e+00 
66600 5.3371609716e+00 6.9763360081e-05 2.1944300568e+00 -3.8008643520e+00 2.1944300568e+00 3.8008643520e+00 
66700 5.3371609744e+00 6.9708933992e-05 2.1944300568e+00 -3.8008643520e+00 2.1944300568e+00 3.8008643520e+00 
66800 5.3371609771e+00 6.9654173979e-05 2.1944300568e+00 -3.8008643520e+00 2.1944300568e+00 3.8008643520e+00 
66900 5.3371609798e+00 6.9599290170e-05 2.1944300568e+00 -3.8008643520e+00 2.1944300568e+00 3.8008643520e+00 
67000 5.3371609825e+00 6.9544486304e-05 2.1944300568e+00 -3.8008643520e+00 2.1944300568e+00 3.8008643520e+00 
67100 5.3371609851e+00 6.9489959274e-05 2.1944300568e+00 -3.8008643520e+00 2.1944300568e+00 3.8008643520e+00 
67200 5.3371609877e+00 6.9435898726e-05 2.1944300568e+00 -3.8008643520e+00 2.1944300568e+00 3.8008643520e+00 
67300 5.3371609903e+00 6.9382486680e-05 2.1944300568e+00 -3.8008643520e+00 2.1944300568e+00 3.8008643520e+00 
67400 5.3371609928e+00 6.9329897204e-05 2.1944300568e+00 -3.8008643520e+00 2.1944300568e+00 3.8008643520e+00 
67500 5.3371609953e+00 6.9278296129e-05 2.1944300568e+00 -3.8008643520e+00 2.1944300568e+00 3.8008643520e+00 
67600 5.3371609977e+00 6.9227840786e-05 2.1944300568e+00 -3.8008643520e+00 2.1944300568e+00 3.8008643520e+00 
67700 5.3371610002e+00 6.9178679803e-05 2.1944300568e+00 -3.8008643520e+00 2.1944300568e+00 3.8008643520e+00 
67800 5.3371610026e+00 6.9130952923e-05 2.1944300568e+00 -3.8008643520e+00 2.1944300568e+00 3.8008643520e+00 
67900 5.3371610049e+00 6.9084790856e-05 2.1944300568e+00 -3.8008643520e+00 2.1944300568e+00 3.8008643520e+00 
68000 5.3371610073e+00 6.9040315189e-05 2.1944300568e+00 -3.8008643520e+00 2.1944300568e+00 3.8008643520e+00 
68100 5.3371610096e+00 6.8997638300e-05 2.1944300568e+00 -3.8008643520e+00 2.1944300568e+00 3.8008643520e+00 
68200 5.3371610119e+00 6.8956863326e-05 2.1944300568e+00 -3.8008643520e+00 2.1944300568e+00 3.8008643520e+00 
68300 5.3371610141e+00 6.8918084153e-05 2.1944300568e+00 -3.8008643520e+00 2.1944300568e+00 3.8008643520e+00 
68400 5.3371610164e+00 6.8881385435e-05 2.1944300568e+00 -3.8008643520e+00 2.1944300568e+00 3.8008643520e+00 
68500 5.3371610186e+00 6.8846842658e-05 2.1944300568e+00 -3.8008643520e+00 2.1944300568e+00 3.8008643520e+00 
68600 5.3371610207e+00 6.8814522204e-05 2.1944300568e+00 -3.8008643520e+00 2.1944300568e+00 3.8008643520e+00 
68700 5.3371610229e+00 6.8784481472e-05 2.1944300568e+00 -3.8008643520e+00 2.1944300568e+00 3.8008643520e+00 
68800 5.3371610250e+00 6.8756768997e-05 2.1944300568e+00 -3.8008643520e+00 2.1944300568e+00 3.8008643520e+00 
68900 5.3371610271e+00 6.8731424617e-05 2.1944300568e+00 -3.8008643520e+00 2.1944300568e+00 3.8008643520e+00 
69000 5.3371610291e+00 6.8708479639e-05 2.1944300568e+00 -3.8008643520e+00 2.1944300568e+00 3.8008643520e+00 
69100 5.3371610312e+00 6.8687957046e-05 2.1944300568e+00 -3.8008643520e+00 2.1944300568e+00 3.8008643520e+00 
69200 5.3371610332e+00 6.8669871715e-05 2.1944300568e+00 -3.8008643520e+00 2.1944300568e+00 3.8008643520e+00 
69300 5.3371610352e+00 6.8654230643e-05 2.1944300568e+00 -3.8008643520e+00 2.1944300568e+00 3.8008643520e+00 
69400 5.3371610371e+00 6.8641033212e-05 2.1944300568e+00 -3.8008643520e+00 2.1944300568e+00 3.8008643520e+00 
69500 5.3371610391e+00 6.8630271452e-05 2.1944300568e+00 -3.8008643520e+00 2.1944300568e+00 3.8008643520e+00 
69600 5.3371610410e+00 6.8621930319e-05 2.1944300568e+00 -3.8008643520e+00 2.1944300568e+00 3.8008643520e+00 
69700 5.3371610429e+00 6.8615987991e-05 2.1944300568e+00 -3.8008643520e+00 2.1944300568e+00 3.8008643520e+00 
69800 5.3371610447e+00 6.8612416171e-05 2.1944300568e+00 -3.8008643520e+00 2.1944300568e+00 3.8008643520e+00 
69900 5.3371610466e+00 6.8611180408e-05 2.1944300568e+00 -3.8008643520e+00 2.1944300568e+00 3.8008643520e+00 
70000 5.3371610484e+00 6.8612240412e-05 2.1944300568e+00 -3.8008643520e+00 2.1944300568e+00 3.8008643520e+00 
70100 5.3371610502e+00 6.8615550382e-05 2.1944300568e+00 -3.8008643520e+00 2.1944300568e+00 3.8008643520e+00 
70200 5.3371610520e+00 6.8621059348e-05 2.1944300568e+00 -3.8008643520e+00 2.1944300568e+00 3.8008643520e+00 
70300 5.3371610537e+00 6.8628711503e-05 2.1944300568e+00 -3.8008643520e+00 2.1944300568e+00 3.8008643520e+00 
70400 5.3371610554e+00 6.8638446546e-05 2.1944300568e+00 -3.8008643520e+00 2.1944300568e+00 3.8008643520e+00 
70500 5.3371610571e+00 6.8650200033e-05 2.1944300568e+00 -3.8008643520e+00 2.1944300568e+00 3.8008643520e+00 
70600 5.3371610588e+00 6.8663903707e-05 2.1944300568e+00 -3.8008643520e+00 2.1944300568e+00 3.8008643520e+00 
70700 5.3371610605e+00 6.8679485855e-05 2.1944300568e+00 -3.8008643520e+00 2.1944300568e+00 3.8008643520e+00 
70800 5.3371610621e+00 6.8696871644e-05 2.1944300568e+00 -3.8008643520e+00 2.1944300568e+00 3.8008643520e+00 
70900 5.3371610638e+00 6.8715983463e-05 2.1944300568e+00 -3.8008643520e+00 2.1944300568e+00 3.8008643520e+00 
71000 5.3371610654e+00 6.8736741258e-05 2.1944300568e+00 -3.8008643520e+00 2.1944300568e+00 3.8008643520e+00 
71100 5.3371610669e+00 6.8759062861e-05 2.1944300568e+00 -3.8008643520e+00 2.1944300568e+00 3.8008643520e+00 
71200 5.3371610685e+00 6.8782864325e-05 2.1944300568e+00 -3.8008643520e+00 2.1944300568e+00 3.8008643520e+00 
71300 5.3371610701e+00 6.8808060235e-05 2.1944300568e+00 -3.8008643520e+00 2.1944300568e+00 3.8008643520e+00 
71400 5.3371610716e+00 6.8834564026e-05 2.1944300568e+00 -3.8008643520e+00 2.1944300568e+00 3.8008643520e+00 
71500 5.3371610731e+00 6.8862288289e-05 2.1944300568e+00 -3.8008643520e+00 2.1944300568e+00 3.8008643520e+00 
71600 5.3371610746e+00 6.8891145063e-05 2.1944300568e+00 -3.8008643520e+00 2.1944300568e+00 3.8008643520e+00 
71700 5.3371610760e+00 6.8921046130e-05 2.1944300568e+00 -3.8008643520e+00 2.1944300568e+00 3.8008643520e+00 
71800 5.3371610775e+00 6.8951903292e-05 2.1944300568e+00 -3.8008643520e+00 2.1944300568e+00 3.8008643520e+00 
71900 5.3371610789e+00 6.8983628634e-05 2.1944300568e+00 -3.8008643520e+00 2.1944300568e+00 3.8008643520e+00 
72000 5.3371610803e+00 6.9016134789e-05 2.1944300568e+00 -3.8008643520e+00 2.1944300568e+00 3.8008643520e+00 
72100 5.3371610817e+00 6.9049335181e-05 2.1944300568e+00 -3.8008643520e+00 2.1944300568e+00 3.8008643520e+00 
72200 5.3371610831e+00 6.9083144259e-05 2.1944300568e+00 -3.8008643520e+00 2.1944300568e+00 3.8008643520e+00 
72300 5.3371610845e+00 6.9117477731e-05 2.1944300568e+00 -3.8008643520e+00 2.1944300568e+00 3.8008643520e+00 
72400 5.3371610858e+00 6.9152252760e-05 2.1944300568e+00 -3.8008643520e+00 2.1944300568e+00 3.8008643520e+00 
72500 5.3371610872e+00 6.9187388176e-05 2.1944300568e+00 -3.8008643520e+00 2.1944300568e+00 3.8008643520e+00 
72600 5.3371610885e+00 6.9222804658e-05 2.1944300568e+00 -3.8008643520e+00 2.1944300568e+00 3.8008643520e+00 
72700 5.3371610898e+00 6.9258424909e-05 2.1944300568e+00 -3.8008643520e+00 2.1944300568e+00 3.8008643520e+00 
72800 5.3371610910e+00 6.9294173823e-05 2.1944300568e+00 -3.8008643520e+00 2.1944300568e+00 3.8008643520e+00 
72900 5.3371610923e+00 6.9329978627e-05 2.1944300568e+00 -3.8008643520e+00 2.1944300568e+00 3.8008643520e+00 
73000 5.3371610936e+00 6.9365769022e-05 2.1944300568e+00 -3.8008643520e+00 2.1944300568e+00 3.8008643520e+00 
73100 5.3371610948e+00 6.9401477310e-05 2.1944300568e+00 -3.8008643520e+00 2.1944300568e+00 3.8008643520e+00 
73200 5.3371610960e+00 6.9437038499e-05 2.1944300568e+00 -3.8008643520e+00 2.1944300568e+00 3.8008643520e+00 
73300 5.3371610972e+00 6.9472390408e-05 2.1944300568e+00 -3.8008643520e+00 2.1944300568e+00 3.8008643520e+00 
73400 5.3371610984e+00 6.9507473748e-05 2.1944300568e+00 -3.8008643520e+00 2.1944300568e+00 3.8008643520e+00 
73500 5.3371610996e+00 6.9542232209e-05 2.1944300568e+00 -3.8008643520e+00 2.1944300568e+00 3.8008643520e+00 
73600 5.3371611007e+00 6.9576612503e-05 2.1944300568e+00 -3.8008643520e+00 2.1944300568e+00 3.8008643520e+00 
73700 5.3371611019e+00 6.9610564438e-05 2.1944300568e+00 -3.8008643520e+00 2.1944300568e+00 3.8008643520e+00 
73800 5.3371611030e+00 6.9644040939e-05 2.1944300568e+00 -3.8008643520e+00 2.1944300568e+00 3.8008643520e+00 
73900 5.3371611041e+00 6.9676998088e-05 2.1944300568e+00 -3.8008643520e+00 2.1944300568e+00 3.8008643520e+00 
74000 5.3371611052e+00 6.9709395135e-05 2.1944300568e+00 -3.8008643520e+00 2.1944300568e+00 3.8008643520e+00 
74100 5.3371611063e+00 6.9741194513e-05 2.1944300568e+00 -3.8008643520e+00 2.1944300568e+00 3.8008643520e+00 
74200 5.3371611074e+00 6.9772361829e-05 2.1944300568e+00 -3.8008643520e+00 2.1944300568e+00 3.8008643520e+00 
74300 5.3371611084e+00 6.9802865852e-05 2.1944300568e+00 -3.8008643520e+00 2.1944300568e+00 3.8008643520e+00 
74400 5.3371611095e+00 6.9832678495e-05 2.1944300568e+00 -3.8008643520e+00 2.1944300568e+00 3.8008643520e+00 
74500 5.3371611105e+00 6.9861774783e-05 2.1944300568e+00 -3.8008643520e+00 2.1944300568e+00 3.8008643520e+00 
74600 5.3371611116e+00 6.9890132813e-05 2.1944300568e+00 -3.8008643520e+00 2.1944300568e+00 3.8008643520e+00 
74700 5.3371611126e+00 6.9917733705e-05 2.1944300568e+00 -3.8008643520e+00 2.1944300568e+00 3.8008643520e+00 
74800 5.3371611136e+00 6.9944561549e-05 2.1944300568e+00 -3.8008643520e+00 2.1944300568e+00 3.8008643520e+00 
74900 5.3371611146e+00 6.9970603349e-05 2.1944300568e+00 -3.8008643520e+00 2.1944300568e+00 3.8008643520e+00 
75000 5.3371611155e+00 6.9995848940e-05 2.1944300568e+00 -3.8008643520e+00 2.1944300568e+00 3.8008643520e+00 
75100 5.3371611165e+00 7.0020290927e-05 2.1944300568e+00 -3.8008643520e+00 2.1944300568e+00 3.8008643520e+00 
75200 5.3371611174e+00 7.0043924596e-05 2.1944300568e+00 -3.8008643520e+00 2.1944300568e+00 3.8008643520e+00 
75300 5.3371611184e+00 7.0066747831e-05 2.1944300568e+00 -3.8008643520e+00 2.1944300568e+00 3.8008643520e+00 
75400 5.3371611193e+00 7.0088761023e-05 2.1944300568e+00 -3.8008643520e+00 2.1944300568e+00 3.8008643520e+00 
75500 5.3371611202e+00 7.0109966974e-05 2.1944300568e+00 -3.8008643520e+00 2.1944300568e+00 3.8008643520e+00 
75600 5.3371611211e+00 7.0130370793e-05 2.1944300568e+00 -3.8008643520e+00 2.1944300568e+00 3.8008643520e+00 
75700 5.3371611220e+00 7.0149979805e-05 2.1944300568e+00 -3.8008643520e+00 2.1944300568e+00 3.8008643520e+00 
75800 5.3371611229e+00 7.0168803434e-05 2.1944300568e+00 -3.8008643520e+00 2.1944300568e+00 3.8008643520e+00 
75900 5.3371611238e+00 7.0186853092e-05 2.1944300568e+00 -3.8008643520e+00 2.1944300568e+00 3.8008643520e+00 
76000 5.3371611246e+00 7.0204142084e-05 2.1944300568e+00 -3.8008643520e+00 2.1944300568e+00 3.8008643520e+00 
76100 5.3371611255e+00 7.0220685480e-05 2.1944300568e+00 -3.8008643520e+00 2.1944300568e+00 3.8008643520e+00 
76200 5.3371611263e+00 7.0236500007e-05 2.1944300568e+00 -3.8008643520e+00 2.1944300568e+00 3.8008643520e+00 
76300 5.3371611271e+00 7.0251603933e-05 2.1944300568e+00 -3.8008643520e+00 2.1944300568e+00 3.8008643520e+00 
76400 5.3371611280e+00 7.0266016955e-05 2.1944300568e+00 -3.8008643520e+00 2.1944300568e+00 3.8008643520e+00 
76500 5.3371611288e+00 7.0279760080e-05 2.1944300568e+00 -3.8008643520e+00 2.1944300568e+00 3.8008643520e+00 
76600 5.3371611296e+00 7.0292855508e-05 2.1944300568e+00 -3.8008643520e+00 2.1944300568e+00 3.8008643520e+00 
76700 5.3371611304e+00 7.0305326523e-05 2.1944300568e+00 -3.8008643520e+00 2.1944300568e+00 3.8008643520e+00 
76800 5.3371611311e+00 7.0317197375e-05 2.1944300568e+00 -3.8008643520e+00 2.1944300568e+00 3.8008643520e+00 
76900 5.3371611319e+00 7.0328493167e-05 2.1944300568e+00 -3.8008643520e+00 2.1944300568e+00 3.8008643520e+00 
77000 5.3371611327e+00 7.0339239744e-05 2.1944300568e+00 -3.8008643520e+00 2.1944300568e+00 3.8008643520e+00 
77100 5.3371611334e+00 7.0349463586e-05 2.1944300568e+00 -3.8008643520e+00 2.1944300568e+00 3.8008643520e+00 
77200 5.3371611342e+00 7.0359191699e-05 2.1944300568e+00 -3.8008643520e+00 2.1944300568e+00 3.8008643520e+00 
77300 5.3371611349e+00 7.0368451511e-05 2.1944300568e+00 -3.8008643520e+00 2.1944300568e+00 3.8008643520e+00 
77400 5.3371611356e+00 7.0377270766e-05 2.1944300568e+00 -3.8008643520e+00 2.1944300568e+00 3.8008643520e+00 
77500 5.3371611363e+00 7.0385677429e-05 2.1944300568e+00 -3.8008643520e+00 2.1944300568e+00 3.8008643520e+00 
77600 5.3371611371e+00 7.0393699587e-05 2.1944300568e+00 -3.8008643520e+00 2.1944300568e+00 3.8008643520e+00 
77700 5.3371611378e+00 7.0401365356e-05 2.1944300568e+00 -3.8008643520e+00 2.1944300568e+00 3.8008643520e+00 
77800 5.3371611384e+00 7.0408702792e-05 2.1944300568e+00 -3.8008643520e+00 2.1944300568e+00 3.8008643520e+00 
77900 5.3371611391e+00 7.0415739802e-05 2.1944300568e+00 -3.8008643520e+00 2.1944300568e+00 3.8008643520e+00 
78000 5.3371611398e+00 7.0422504064e-05 2.1944300568e+00 -3.8008643520e+00 2.1944300568e+00 3.8008643520e+00 
78100 5.3371611405e+00 7.0429022944e-05 2.1944300568e+00 -3.8008643520e+00 2.1944300568e+00 3.8008643520e+00 
78200 5.3371611411e+00 7.0435323429e-05 2.1944300568e+00 -3.8008643520e+00 2.1944300568e+00 3.8008643520e+00 
78300 5.3371611418e+00 7.0441432044e-05 2.1944300568e+00 -3.8008643520e+00 2.1944300568e+00 3.8008643520e+00 
78400 5.3371611424e+00 7.0447374795e-05 2.1944300568e+00 -3.8008643520e+00 2.1944300568e+00 3.8008643520e+00 
78500 5.3371611430e+00 7.0453177101e-05 2.1944300568e+00 -3.8008643520e+00 2.1944300568e+00 3.8008643520e+00 
78600 5.3371611437e+00 7.0458863737e-05 2.1944300568e+00 -3.8008643520e+00 2.1944300568e+00 3.8008643520e+00 
78700 5.3371611443e+00 7.0464458779e-05 2.1944300568e+00 -3.8008643520e+00 2.1944300568e+00 3.8008643520e+00 
78800 5.3371611449e+00 7.0469985550e-05 2.1944300568e+00 -3.8008643520e+00 2.1944300568e+00 3.8008643520e+00 
78900 5.3371611455e+00 7.0475466583e-05 2.1944300568e+00 -3.8008643520e+00 2.1944300568e+00 3.8008643520e+00 
79000 5.3371611461e+00 7.0480923571e-05 2.1944300568e+00 -3.8008643520e+00 2.1944300568e+00 3.8008643520e+00 
79100 5.3371611467e+00 7.0486377327e-05 2.1944300568e+00 -3.8008643520e+00 2.1944300568e+00 3.8008643520e+00 
79200 5.3371611473e+00 7.0491847759e-05 2.1944300568e+00 -3.8008643520e+00 2.1944300568e+00 3.8008643520e+00 
79300 5.3371611478e+00 7.0497353839e-05 2.1944300568e+00 -3.8008643520e+00 2.1944300568e+00 3.8008643520e+00 
79400 5.3371611484e+00 7.0502913571e-05 2.1944300568e+00 -3.8008643520e+00 2.1944300568e+00 3.8008643520e+00 
79500 5.3371611490e+00 7.0508543972e-05 2.1944300568e+00 -3.8008643520e+00 2.1944300568e+00 3.8008643520e+00 
79600 5.3371611495e+00 7.0514261060e-05 2.1944300568e+00 -3.8008643520e+00 2.1944300568e+00 3.8008643520e+00 
79700 5.3371611501e+00 7.0520079832e-05 2.1944300568e+00 -3.8008643520e+00 2.1944300568e+00 3.8008643520e+00 
79800 5.3371611506e+00 7.0526014258e-05 2.1944300568e+00 -3.8008643520e+00 2.1944300568e+00 3.8008643520e+00 
79900 5.3371611511e+00 7.0532077278e-05 2.1944300568e+00 -3.8008643520e+00 2.1944300568e+00 3.8008643520e+00 
80000 5.3371611517e+00 7.0538280789e-05 2.1944300568e+00 -3.8008643520e+00 2.1944300568e+00 3.8008643520e+00 
80100 5.3371611522e+00 7.0544635657e-05 2.1944300568e+00 -3.8008643520e+00 2.1944300568e+00 3.8008643520e+00 
80200 5.3371611527e+00 7.0551151711e-05 2.1944300568e+00 -3.8008643520e+00 2.1944300568e+00 3.8008643520e+00 
80300 5.3371611532e+00 7.0557837756e-05 2.1944300568e+00 -3.8008643520e+00 2.1944300568e+00 3.8008643520e+00 
80400 5.3371611537e+00 7.0564701579e-05 2.1944300568e+00 -3.8008643520e+00 2.1944300568e+00 3.8008643520e+00 
80500 5.3371611542e+00 7.0571749967e-05 2.1944300568e+00 -3.8008643520e+00 2.1944300568e+00 3.8008643520e+00 
80600 5.3371611547e+00 7.0578988712e-05 2.1944300568e+00 -3.8008643520e+00 2.1944300568e+00 3.8008643520e+00 
80700 5.3371611552e+00 7.0586422640e-05 2.1944300568e+00 -3.8008643520e+00 2.1944300568e+00 3.8008643520e+00 
80800 5.3371611557e+00 7.0594055623e-05 2.1944300568e+00 -3.8008643520e+00 2.1944300568e+00 3.8008643520e+00 
80900 5.3371611561e+00 7.0601890608e-05 2.1944300568e+00 -3.8008643520e+00 2.1944300568e+00 3.8008643520e+00 
81000 5.3371611566e+00 7.0609929632e-05 2.1944300568e+00 -3.8008643520e+00 2.1944300568e+00 3.8008643520e+00 
81100 5.3371611571e+00 7.0618173862e-05 2.1944300568e+00 -3.8008643520e+00 2.1944300568e+00 3.8008643520e+00 
81200 5.3371611575e+00 7.0626623612e-05 2.1944300568e+00 -3.8008643520e+00 2.1944300568e+00 3.8008643520e+00 
81300 5.3371611580e+00 7.0635278377e-05 2.1944300568e+00 -3.8008643520e+00 2.1944300568e+00 3.8008643520e+00 
81400 5.3371611584e+00 7.0644136866e-05 2.1944300568e+00 -3.8008643520e+00 2.1944300568e+00 3.8008643520e+00 
81500 5.3371611588e+00 7.0653197033e-05 2.1944300568e+00 -3.8008643520e+00 2.1944300568e+00 3.8008643520e+00 
81600 5.3371611593e+00 7.0662456107e-05 2.1944300568e+00 -3.8008643520e+00 2.1944300568e+00 3.8008643520e+00 
81700 5.3371611597e+00 7.0671910636e-05 2.1944300568e+00 -3.8008643520e+00 2.1944300568e+00 3.8008643520e+00 
81800 5.3371611601e+00 7.0681556513e-05 2.1944300568e+00 -3.8008643520e+00 2.1944300568e+00 3.8008643520e+00 
81900 5.3371611606e+00 7.0691389023e-05 2.1944300568e+00 -3.8008643520e+00 2.1944300568e+00 3.8008643520e+00 
82000 5.3371611610e+00 7.0701402865e-05 2.1944300568e+00 -3.8008643520e+00 2.1944300568e+00 3.8008643520e+00 
82100 5.3371611614e+00 7.0711592210e-05 2.1944300568e+00 -3.8008643520e+00 2.1944300568e+00 3.8008643520e+00 
82200 5.3371611617e+00 6.9974544938e-05 2.1944284456e+00 -3.8008615614e+00 2.1944284456e+00 3.8008615614e+00 
82300 5.3371611621e+00 6.9976337976e-05 2.1944284456e+00 -3.8008615614e+00 2.1944284456e+00 3.8008615614e+00 
82400 5.3371611625e+00 6.9978092028e-05 2.1944284456e+00 -3.8008615614e+00 2.1944284456e+00 3.8008615614e+00 
82500 5.3371611629e+00 6.9979809207e-05 2.1944284456e+00 -3.8008615614e+00 2.1944284456e+00 3.8008615614e+00 
82600 5.3371611632e+00 6.9981493045e-05 2.1944284456e+00 -3.8008615614e+00 2.1944284456e+00 3.8008615614e+00 
82700 5.3371611636e+00 6.9983148319e-05 2.1944284456e+00 -3.8008615614e+00 2.1944284456e+00 3.8008615614e+00 
82800 5.3371611640e+00 6.9984780903e-05 2.1944284456e+00 -3.8008615614e+00 2.1944284456e+00 3.8008615614e+00 
82900 5.3371611644e+00 6.9986397626e-05 2.1944284456e+00 -3.8008615614e+00 2.1944284456e+00 3.8008615614e+00 
83000 5.3371611647e+00 6.9988006124e-05 2.1944284456e+00 -3.8008615614e+00 2.1944284456e+00 3.8008615614e+00 
83100 5.3371611651e+00 6.9989614721e-05 2.1944284456e+00 -3.8008615614e+00 2.1944284456e+00 3.8008615614e+00 
83200 5.3371611655e+00 6.9991232300e-05 2.1944284456e+00 -3.8008615614e+00 2.1944284456e+00 3.8008615614e+00 
83300 5.3371611658e+00 6.9992868194e-05 2.1944284456e+00 -3.8008615614e+00 2.1944284456e+00 3.8008615614e+00 
83400 5.3371611662e+00 6.9994532080e-05 2.1944284456e+00 -3.8008615614e+00 2.1944284456e+00 3.8008615614e+00 
83500 5.3371611665e+00 6.9996233878e-05 2.1944284456e+00 -3.8008615614e+00 2.1944284456e+00 3.8008615614e+00 
83600 5.3371611668e+00 6.9997983659e-05 2.1944284456e+00 -3.8008615614e+00 2.1944284456e+00 3.8008615614e+00 
83700 5.3371611672e+00 6.9999791561e-05 2.1944284456e+00 -3.8008615614e+00 2.1944284456e+00 3.8008615614e+00 
83800 5.3371611675e+00 7.0001667703e-05 2.1944284456e+00 -3.8008615614e+00 2.1944284456e+00 3.8008615614e+00 
83900 5.3371611678e+00 7.0003622123e-05 2.1944284456e+00 -3.8008615614e+00 2.1944284456e+00 3.8008615614e+00 
84000 5.3371611682e+00 7.0005664699e-05 2.1944284456e+00 -3.8008615614e+00 2.1944284456e+00 3.8008615614e+00 
84100 5.3371611685e+00 7.0007805095e-05 2.1944284456e+00 -3.8008615614e+00 2.1944284456e+00 3.8008615614e+00 
84200 5.3371611688e+00 7.0010052695e-05 2.1944284456e+00 -3.8008615614e+00 2.1944284456e+00 3.8008615614e+00 
84300 5.3371611691e+00 7.0012416568e-05 2.1944284456e+00 -3.8008615614e+00 2.1944284456e+00 3.8008615614e+00 
84400 5.3371611694e+00 7.0014905399e-05 2.1944284456e+00 -3.8008615614e+00 2.1944284456e+00 3.8008615614e+00 
84500 5.3371611697e+00 7.0017527472e-05 2.1944284456e+00 -3.8008615614e+00 2.1944284456e+00 3.8008615614e+00 
84600 5.3371611700e+00 7.0020290614e-05 2.1944284456e+00 -3.8008615614e+00 2.1944284456e+00 3.8008615614e+00 
84700 5.3371611703e+00 7.0023202176e-05 2.1944284456e+00 -3.8008615614e+00 2.1944284456e+00 3.8008615614e+00 
84800 5.3371611706e+00 7.0026268993e-05 2.1944284456e+00 -3.8008615614e+00 2.1944284456e+00 3.8008615614e+00 
84900 5.3371611709e+00 7.0029497371e-05 2.1944284456e+00 -3.8008615614e+00 2.1944284456e+00 3.8008615614e+00 
85000 5.3371611712e+00 7.0032893061e-05 2.1944284456e+00 -3.8008615614e+00 2.1944284456e+00 3.8008615614e+00 
85100 5.3371611715e+00 7.0036461243e-05 2.1944284456e+00 -3.8008615614e+00 2.1944284456e+00 3.8008615614e+00 
85200 5.3371611718e+00 7.0040206517e-05 2.1944284456e+00 -3.8008615614e+00 2.1944284456e+00 3.8008615614e+00 
85300 5.3371611720e+00 7.0044132888e-05 2.1944284456e+00 -3.8008615614e+00 2.1944284456e+00 3.8008615614e+00 
85400 5.3371611723e+00 7.0048243767e-05 2.1944284456e+00 -3.8008615614e+00 2.1944284456e+00 3.8008615614e+00 
85500 5.3371611726e+00 7.0052541962e-05 2.1944284456e+00 -3.8008615614e+00 2.1944284456e+00 3.8008615614e+00 
85600 5.3371611729e+00 7.0057029678e-05 2.1944284456e+00 -3.8008615614e+00 2.1944284456e+00 3.8008615614e+00 
85700 5.3371611731e+00 7.0061708528e-05 2.1944284456e+00 -3.8008615614e+00 2.1944284456e+00 3.8008615614e+00 
85800 5.3371611734e+00 7.0066579523e-05 2.1944284456e+00 -3.8008615614e+00 2.1944284456e+00 3.8008615614e+00 
85900 5.3371611736e+00 7.0071643096e-05 2.1944284456e+00 -3.8008615614e+00 2.1944284456e+00 3.8008615614e+00 
86000 5.3371611739e+00 7.0076899101e-05 2.1944284456e+00 -3.8008615614e+00 2.1944284456e+00 3.8008615614e+00 
86100 5.3371611741e+00 7.0082346829e-05 2.1944284456e+00 -3.8008615614e+00 2.1944284456e+00 3.8008615614e+00 
86200 5.3371611744e+00 7.0087985018e-05 2.1944284456e+00 -3.8008615614e+00 2.1944284456e+00 3.8008615614e+00 
86300 5.3371611746e+00 7.0093811873e-05 2.1944284456e+00 -3.8008615614e+00 2.1944284456e+00 3.8008615614e+00 
86400 5.3371611749e+00 7.0099825082e-05 2.1944284456e+00 -3.8008615614e+00 2.1944284456e+00 3.8008615614e+00 
86500 5.3371611751e+00 7.0106021832e-05 2.1944284456e+00 -3.8008615614e+00 2.1944284456e+00 3.8008615614e+00 
86600 5.3371611754e+00 7.0112398835e-05 2.1944284456e+00 -3.8008615614e+00 2.1944284456e+00 3.8008615614e+00 
86700 5.3371611756e+00 7.0118952338e-05 2.1944284456e+00 -3.8008615614e+00 2.1944284456e+00 3.8008615614e+00 
86800 5.3371611758e+00 7.0125678161e-05 2.1944284456e+00 -3.8008615614e+00 2.1944284456e+00 3.8008615614e+00 
86900 5.3371611761e+00 7.0132571699e-05 2.1944284456e+00 -3.8008615614e+00 2.1944284456e+00 3.8008615614e+00 
87000 5.3371611763e+00 7.0139627971e-05 2.1944284456e+00 -3.8008615614e+00 2.1944284456e+00 3.8008615614e+00 
87100 5.3371611765e+00 7.0146841623e-05 2.1944284456e+00 -3.8008615614e+00 2.1944284456e+00 3.8008615614e+00 
87200 5.3371611767e+00 7.0154206967e-05 2.1944284456e+00 -3.8008615614e+00 2.1944284456e+00 3.8008615614e+00 
87300 5.3371611769e+00 7.0161717996e-05 2.1944284456e+00 -3.8008615614e+00 2.1944284456e+00 3.8008615614e+00 
87400 5.3371611772e+00 7.0169368419e-05 2.1944284456e+00 -3.8008615614e+00 2.1944284456e+00 3.8008615614e+00 
87500 5.3371611774e+00 7.0177151681e-05 2.1944284456e+00 -3.8008615614e+00 2.1944284456e+00 3.8008615614e+00 
87600 5.3371611776e+00 7.0185060992e-05 2.1944284456e+00 -3.8008615614e+00 2.1944284456e+00 3.8008615614e+00 
87700 5.3371611778e+00 7.0193089351e-05 2.1944284456e+00 -3.8008615614e+00 2.1944284456e+00 3.8008615614e+00 
87800 5.3371611780e+00 7.0201229578e-05 2.1944284456e+00 -3.8008615614e+00 2.1944284456e+00 3.8008615614e+00 
87900 5.3371611782e+00 7.0209474328e-05 2.1944284456e+00 -3.8008615614e+00 2.1944284456e+00 3.8008615614e+00 
88000 5.3371611784e+00 7.0217816129e-05 2.1944284456e+00 -3.8008615614e+00 2.1944284456e+00 3.8008615614e+00 
88100 5.3371611786e+00 7.0226247400e-05 2.1944284456e+00 -3.8008615614e+00 2.1944284456e+00 3.8008615614e+00 
88200 5.3371611788e+00 7.0234760480e-05 2.1944284456e+00 -3.8008615614e+00 2.1944284456e+00 3.8008615614e+00 
88300 5.3371611790e+00 7.0243347646e-05 2.1944284456e+00 -3.8008615614e+00 2.1944284456e+00 3.8008615614e+00 
88400 5.3371611792e+00 7.0252001147e-05 2.1944284456e+00 -3.8008615614e+00 2.1944284456e+00 3.8008615614e+00 
88500 5.3371611794e+00 7.0260713217e-05 2.1944284456e+00 -3.8008615614e+00 2.1944284456e+00 3.8008615614e+00 
88600 5.3371611796e+00 7.0269476102e-05 2.1944284456e+00 -3.8008615614e+00 2.1944284456e+00 3.8008615614e+00 
88700 5.3371611797e+00 7.0278282083e-05 2.1944284456e+00 -3.8008615614e+00 2.1944284456e+00 3.8008615614e+00 
88800 5.3371611799e+00 7.0287123496e-05 2.1944284456e+00 -3.8008615614e+00 2.1944284456e+00 3.8008615614e+00 
88900 5.3371611801e+00 7.0295992748e-05 2.1944284456e+00 -3.8008615614e+00 2.1944284456e+00 3.8008615614e+00 
89000 5.3371611803e+00 7.0304882345e-05 2.1944284456e+00 -3.8008615614e+00 2.1944284456e+00 3.8008615614e+00 
89100 5.3371611805e+00 7.0313784902e-05 2.1944284456e+00 -3.8008615614e+00 2.1944284456e+00 3.8008615614e+00 
89200 5.3371611806e+00 7.0322693165e-05 2.1944284456e+00 -3.8008615614e+00 2.1944284456e+00 3.8008615614e+00 
89300 5.3371611808e+00 7.0331600027e-05 2.1944284456e+00 -3.8008615614e+00 2.1944284456e+00 3.8008615614e+00 
89400 5.3371611810e+00 7.0340498541e-05 2.1944284456e+00 -3.8008615614e+00 2.1944284456e+00 3.8008615614e+00 
89500 5.3371611811e+00 7.0349381939e-05 2.1944284456e+00 -3.8008615614e+00 2.1944284456e+00 3.8008615614e+00 
89600 5.3371611813e+00 7.0358243641e-05 2.1944284456e+00 -3.8008615614e+00 2.1944284456e+00 3.8008615614e+00 
89700 5.3371611815e+00 7.0367077273e-05 2.1944284456e+00 -3.8008615614e+00 2.1944284456e+00 3.8008615614e+00 
89800 5.3371611816e+00 7.0375876673e-05 2.1944284456e+00 -3.8008615614e+00 2.1944284456e+00 3.8008615614e+00 
89900 5.3371611818e+00 7.0384635902e-05 2.1944284456e+00 -3.8008615614e+00 2.1944284456e+00 3.8008615614e+00 
90000 5.3371611819e+00 7.0393349261e-05 2.1944284456e+00 -3.8008615614e+00 2.1944284456e+00 3.8008615614e+00 
90100 5.3371611821e+00 7.0402011287e-05 2.1944284456e+00 -3.8008615614e+00 2.1944284456e+00 3.8008615614e+00 
90200 5.3371611823e+00 7.0410616773e-05 2.1944284456e+00 -3.8008615614e+00 2.1944284456e+00 3.8008615614e+00 
90300 5.3371611824e+00 7.0419160767e-05 2.1944284456e+00 -3.8008615614e+00 2.1944284456e+00 3.8008615614e+00 
90400 5.3371611826e+00 7.0427638578e-05 2.1944284456e+00 -3.8008615614e+00 2.1944284456e+00 3.8008615614e+00 
90500 5.3371611827e+00 7.0436045786e-05 2.1944284456e+00 -3.8008615614e+00 2.1944284456e+00 3.8008615614e+00 
90600 5.3371611829e+00 7.0444378238e-05 2.1944284456e+00 -3.8008615614e+00 2.1944284456e+00 3.8008615614e+00 
90700 5.3371611830e+00 7.0452632057e-05 2.1944284456e+00 -3.8008615614e+00 2.1944284456e+00 3.8008615614e+00 
90800 5.3371611831e+00 7.0460803638e-05 2.1944284456e+00 -3.8008615614e+00 2.1944284456e+00 3.8008615614e+00 
90900 5.3371611833e+00 7.0468889654e-05 2.1944284456e+00 -3.8008615614e+00 2.1944284456e+00 3.8008615614e+00 
91000 5.3371611834e+00 7.0476887059e-05 2.1944284456e+00 -3.8008615614e+00 2.1944284456e+00 3.8008615614e+00 
91100 5.3371611836e+00 7.0484793073e-05 2.1944284456e+00 -3.8008615614e+00 2.1944284456e+00 3.8008615614e+00 
91200 5.3371611837e+00 7.0492605196e-05 2.1944284456e+00 -3.8008615614e+00 2.1944284456e+00 3.8008615614e+00 
91300 5.3371611838e+00 7.0500321201e-05 2.1944284456e+00 -3.8008615614e+00 2.1944284456e+00 3.8008615614e+00 
91400 5.3371611840e+00 7.0507939125e-05 2.1944284456e+00 -3.8008615614e+00 2.1944284456e+00 3.8008615614e+00 
91500 5.3371611841e+00 7.0515457273e-05 2.1944284456e+00 -3.8008615614e+00 2.1944284456e+00 3.8008615614e+00 
91600 5.3371611842e+00 7.0522874212e-05 2.1944284456e+00 -3.8008615614e+00 2.1944284456e+00 3.8008615614e+00 
91700 5.3371611844e+00 7.0530188758e-05 2.1944284456e+00 -3.8008615614e+00 2.1944284456e+00 3.8008615614e+00 
91800 5.3371611845e+00 7.0537399985e-05 2.1944284456e+00 -3.8008615614e+00 2.1944284456e+00 3.8008615614e+00 
91900 5.3371611846e+00 7.0544507207e-05 2.1944284456e+00 -3.8008615614e+00 2.1944284456e+00 3.8008615614e+00 
92000 5.3371611847e+00 7.0551509975e-05 2.1944284456e+00 -3.8008615614e+00 2.1944284456e+00 3.8008615614e+00 
92100 5.3371611849e+00 7.0558408074e-05 2.1944284456e+00 -3.8008615614e+00 2.1944284456e+00 3.8008615614e+00 
92200 5.3371611850e+00 7.0565201505e-05 2.1944284456e+00 -3.8008615614e+00 2.1944284456e+00 3.8008615614e+00 
92300 5.3371611851e+00 7.0571890492e-05 2.1944284456e+00 -3.8008615614e+00 2.1944284456e+00 3.8008615614e+00 
92400 5.3371611852e+00 7.0578475460e-05 2.1944284456e+00 -3.8008615614e+00 2.1944284456e+00 3.8008615614e+00 
92500 5.3371611853e+00 7.0584957031e-05 2.1944284456e+00 -3.8008615614e+00 2.1944284456e+00 3.8008615614e+00 
92600 5.3371611855e+00 7.0591336022e-05 2.1944284456e+00 -3.8008615614e+00 2.1944284456e+00 3.8008615614e+00 
92700 5.3371611856e+00 7.0597613425e-05 2.1944284456e+00 -3.8008615614e+00 2.1944284456e+00 3.8008615614e+00 
92800 5.3371611857e+00 7.0603790405e-05 2.1944284456e+00 -3.8008615614e+00 2.1944284456e+00 3.8008615614e+00 
92900 5.3371611858e+00 7.0609868287e-05 2.1944284456e+00 -3.8008615614e+00 2.1944284456e+00 3.8008615614e+00 
93000 5.3371611859e+00 7.0615848548e-05 2.1944284456e+00 -3.8008615614e+00 2.1944284456e+00 3.8008615614e+00 
93100 5.3371611860e+00 7.0621732806e-05 2.1944284456e+00 -3.8008615614e+00 2.1944284456e+00 3.8008615614e+00 
93200 5.3371611861e+00 7.0627522815e-05 2.1944284456e+00 -3.8008615614e+00 2.1944284456e+00 3.8008615614e+00 
93300 5.3371611862e+00 7.0633220448e-05 2.1944284456e+00 -3.8008615614e+00 2.1944284456e+00 3.8008615614e+00 
93400 5.3371611863e+00 7.0638827689e-05 2.1944284456e+00 -3.8008615614e+00 2.1944284456e+00 3.8008615614e+00 
93500 5.3371611864e+00 7.0644346629e-05 2.1944284456e+00 -3.8008615614e+00 2.1944284456e+00 3.8008615614e+00 
93600 5.3371611865e+00 7.0649779447e-05 2.1944284456e+00 -3.8008615614e+00 2.1944284456e+00 3.8008615614e+00 
93700 5.3371611866e+00 7.0655128409e-05 2.1944284456e+00 -3.8008615614e+00 2.1944284456e+00 3.8008615614e+00 
93800 5.3371611867e+00 7.0660395852e-05 2.1944284456e+00 -3.8008615614e+00 2.1944284456e+00 3.8008615614e+00 
93900 5.3371611868e+00 7.0665584178e-05 2.1944284456e+00 -3.8008615614e+00 2.1944284456e+00 3.8008615614e+00 
94000 5.3371611869e+00 7.0670695845e-05 2.1944284456e+00 -3.8008615614e+00 2.1944284456e+00 3.8008615614e+00 
94100 5.3371611870e+00 7.0675733355e-05 2.1944284456e+00 -3.8008615614e+00 2.1944284456e+00 3.8008615614e+00 
94200 5.3371611871e+00 7.0680699246e-05 2.1944284456e+00 -3.8008615614e+00 2.1944284456e+00 3.8008615614e+00 
94300 5.3371611872e+00 7.0685596088e-05 2.1944284456e+00 -3.8008615614e+00 2.1944284456e+00 3.8008615614e+00 
94400 5.3371611873e+00 7.0690426467e-05 2.1944284456e+00 -3.8008615614e+00 2.1944284456e+00 3.8008615614e+00 
94500 5.3371611874e+00 7.0695192982e-05 2.1944284456e+00 -3.8008615614e+00 2.1944284456e+00 3.8008615614e+00 
94600 5.3371611875e+00 7.0699898233e-05 2.1944284456e+00 -3.8008615614e+00 2.1944284456e+00 3.8008615614e+00 
94700 5.3371611876e+00 7.0704544820e-05 2.1944284456e+00 -3.8008615614e+00 2.1944284456e+00 3.8008615614e+00 
94800 5.3371611877e+00 7.0709135328e-05 2.1944284456e+00 -3.8008615614e+00 2.1944284456e+00 3.8008615614e+00 
94900 5.3371611878e+00 7.0713672326e-05 2.1944284456e+00 -3.8008615614e+00 2.1944284456e+00 3.8008615614e+00 
95000 5.3371611878e+00 6.9970725352e-05 2.1944268344e+00 -3.8008587707e+00 2.1944268344e+00 3.8008587707e+00 
95100 5.3371611878e+00 6.9966434917e-05 2.1944268344e+00 -3.8008587707e+00 2.1944268344e+00 3.8008587707e+00 
95200 5.3371611879e+00 6.9961904348e-05 2.1944268344e+00 -3.8008587707e+00 2.1944268344e+00 3.8008587707e+00 
95300 5.3371611880e+00 6.9957145798e-05 2.1944268344e+00 -3.8008587707e+00 2.1944268344e+00 3.8008587707e+00 
95400 5.3371611881e+00 6.9952173137e-05 2.1944268344e+00 -3.8008587707e+00 2.1944268344e+00 3.8008587707e+00 
95500 5.3371611882e+00 6.9947001739e-05 2.1944268344e+00 -3.8008587707e+00 2.1944268344e+00 3.8008587707e+00 
95600 5.3371611883e+00 6.9941648294e-05 2.1944268344e+00 -3.8008587707e+00 2.1944268344e+00 3.8008587707e+00 
95700 5.3371611883e+00 6.9936130610e-05 2.1944268344e+00 -3.8008587707e+00 2.1944268344e+00 3.8008587707e+00 
95800 5.3371611884e+00 6.9930467445e-05 2.1944268344e+00 -3.8008587707e+00 2.1944268344e+00 3.8008587707e+00 
95900 5.3371611885e+00 6.9924678333e-05 2.1944268344e+00 -3.8008587707e+00 2.1944268344e+00 3.8008587707e+00 
96000 5.3371611886e+00 6.9918783429e-05 2.1944268344e+00 -3.8008587707e+00 2.1944268344e+00 3.8008587707e+00 
96100 5.3371611887e+00 6.9912803356e-05 2.1944268344e+00 -3.8008587707e+00 2.1944268344e+00 3.8008587707e+00 
96200 5.3371611887e+00 6.9906759062e-05 2.1944268344e+00 -3.8008587707e+00 2.1944268344e+00 3.8008587707e+00 
96300 5.3371611888e+00 6.9900671691e-05 2.1944268344e+00 -3.8008587707e+00 2.1944268344e+00 3.8008587707e+00 
96400 5.3371611889e+00 6.9894562455e-05 2.1944268344e+00 -3.8008587707e+00 2.1944268344e+00 3.8008587707e+00 
96500 5.3371611890e+00 6.9888452513e-05 2.1944268344e+00 -3.8008587707e+00 2.1944268344e+00 3.8008587707e+00 
96600 5.3371611890e+00 6.9882362869e-05 2.1944268344e+00 -3.8008587707e+00 2.1944268344e+00 3.8008587707e+00 
96700 5.3371611891e+00 6.9876314266e-05 2.1944268344e+00 -3.8008587707e+00 2.1944268344e+00 3.8008587707e+00 
96800 5.3371611892e+00 6.9870327092e-05 2.1944268344e+00 -3.8008587707e+00 2.1944268344e+00 3.8008587707e+00 
96900 5.3371611892e+00 6.9864421290e-05 2.1944268344e+00 -3.8008587707e+00 2.1944268344e+00 3.8008587707e+00 
97000 5.3371611893e+00 6.9858616284e-05 2.1944268344e+00 -3.8008587707e+00 2.1944268344e+00 3.8008587707e+00 
97100 5.3371611894e+00 6.9852930902e-05 2.1944268344e+00 -3.8008587707e+00 2.1944268344e+00 3.8008587707e+00 
97200 5.3371611894e+00 6.9847383305e-05 2.1944268344e+00 -3.8008587707e+00 2.1944268344e+00 3.8008587707e+00 
97300 5.3371611895e+00 6.9841990939e-05 2.1944268344e+00 -3.8008587707e+00 2.1944268344e+00 3.8008587707e+00 
97400 5.3371611896e+00 6.9836770467e-05 2.1944268344e+00 -3.8008587707e+00 2.1944268344e+00 3.8008587707e+00 
97500 5.3371611896e+00 6.9831737732e-05 2.1944268344e+00 -3.8008587707e+00 2.1944268344e+00 3.8008587707e+00 
97600 5.3371611897e+00 6.9826907710e-05 2.1944268344e+00 -3.8008587707e+00 2.1944268344e+00 3.8008587707e+00 
97700 5.3371611898e+00 6.9822294473e-05 2.1944268344e+00 -3.8008587707e+00 2.1944268344e+00 3.8008587707e+00 
97800 5.3371611898e+00 6.9817911161e-05 2.1944268344e+00 -3.8008587707e+00 2.1944268344e+00 3.8008587707e+00 
97900 5.3371611899e+00 6.9813769959e-05 2.1944268344e+00 -3.8008587707e+00 2.1944268344e+00 3.8008587707e+00 
98000 5.3371611900e+00 6.9809882068e-05 2.1944268344e+00 -3.8008587707e+00 2.1944268344e+00 3.8008587707e+00 
98100 5.3371611900e+00 6.9806257698e-05 2.1944268344e+00 -3.8008587707e+00 2.1944268344e+00 3.8008587707e+00 
98200 5.3371611901e+00 6.9802906056e-05 2.1944268344e+00 -3.8008587707e+00 2.1944268344e+00 3.8008587707e+00 
98300 5.3371611901e+00 6.9799835337e-05 2.1944268344e+00 -3.8008587707e+00 2.1944268344e+00 3.8008587707e+00 
98400 5.3371611902e+00 6.9797052721e-05 2.1944268344e+00 -3.8008587707e+00 2.1944268344e+00 3.8008587707e+00 
98500 5.3371611902e+00 6.9794564379e-05 2.1944268344e+00 -3.8008587707e+00 2.1944268344e+00 3.8008587707e+00 
98600 5.3371611903e+00 6.9792375480e-05 2.1944268344e+00 -3.8008587707e+00 2.1944268344e+00 3.8008587707e+00 
98700 5.3371611904e+00 6.9790490193e-05 2.1944268344e+00 -3.8008587707e+00 2.1944268344e+00 3.8008587707e+00 
98800 5.3371611904e+00 6.9788911707e-05 2.1944268344e+00 -3.8008587707e+00 2.1944268344e+00 3.8008587707e+00 
98900 5.3371611905e+00 6.9787642248e-05 2.1944268344e+00 -3.8008587707e+00 2.1944268344e+00 3.8008587707e+00 
99000 5.3371611905e+00 6.9786683089e-05 2.1944268344e+00 -3.8008587707e+00 2.1944268344e+00 3.8008587707e+00 
99100 5.3371611906e+00 6.9786034582e-05 2.1944268344e+00 -3.8008587707e+00 2.1944268344e+00 3.8008587707e+00 
99200 5.3371611906e+00 6.9785696178e-05 2.1944268344e+00 -3.8008587707e+00 2.1944268344e+00 3.8008587707e+00 
99300 5.3371611907e+00 6.9785666456e-05 2.1944268344e+00 -3.8008587707e+00 2.1944268344e+00 3.8008587707e+00 
99400 5.3371611907e+00 6.9785943150e-05 2.1944268344e+00 -3.8008587707e+00 2.1944268344e+00 3.8008587707e+00 
99500 5.3371611908e+00 6.9786523179e-05 2.1944268344e+00 -3.8008587707e+00 2.1944268344e+00 3.8008587707e+00 
99600 5.3371611908e+00 6.9787402684e-05 2.1944268344e+00 -3.8008587707e+00 2.1944268344e+00 3.8008587707e+00 
99700 5.3371611909e+00 6.9788577060e-05 2.1944268344e+00 -3.8008587707e+00 2.1944268344e+00 3.8008587707e+00 
99800 5.3371611909e+00 6.9788902211e-05 2.1944268344e+00 -3.8008587707e+00 2.1944268344e+00 3.8008587707e+00 
99800 5.3371611909e+00 6.9788902211e-05 2.1944268344e+00 -3.8008587707e+00 2.1944268344e+00 3.8008587707e+00 
